time zIndex S11 S22 S12 block gridPoints
f i f f f i l
 1.0000e-001 69891  4.7710e-001  2.2708e+001  6.8832e-001 68988 69447,69681,69629
 1.0000e-001 69868 -1.2159e+001  1.7620e+001 -1.6112e+000 68988 69421,69681,69447
 1.0000e-001 69845 -2.3579e+000  1.1757e+001  7.3601e-001 68988 69447,69629,69577
 1.0000e-001 69822  6.0056e+000  2.5170e+001  4.2953e+000 68988 69447,69577,69473
 1.0000e-001 69799 -7.4740e+000  2.5447e+001 -6.8081e+000 68988 69629,69681,69655
 1.0000e-001 69776  3.0153e+000  1.3897e+001  1.5835e+000 68988 69577,69629,69603
 1.0000e-001 69753  5.6441e-001  1.9812e+001  8.9537e+000 68988 69473,69577,69551
 1.0000e-001 69730  6.1442e+000  6.6921e+001  1.0573e+001 68988 69473,69551,69525
 1.0000e-001 69707  5.6520e+000  3.3855e+001  7.2193e-002 68988 69473,69525,69499
 1.0000e-001 69992  8.3535e+000  2.5077e+001  5.6289e+000 68676 69914,69966,69940
 1.0000e-001 70392 -4.1006e+000  4.4067e+000 -1.0198e+000 68478 70118,70248,70144
 1.0000e-001 70369 -1.5320e+000  4.0764e+000 -3.1876e-001 68478 70118,70274,70248
 1.0000e-001 70346 -9.6456e+000  2.1894e+000 -1.6430e-001 68478 70144,70222,70196
 1.0000e-001 70323 -1.0651e+001 -8.6297e-001  1.5440e+000 68478 70144,70248,70222
 1.0000e-001 70300 -9.2786e+000  3.5677e+000  3.3012e-002 68478 70144,70196,70170
 1.0000e-001 70841 -5.4599e+000  1.7946e+000 -6.5146e-001 68280 70570,70622,70596
 1.0000e-001 70818 -9.5227e+000  5.4848e-001  5.7068e-001 68280 70544,70622,70570
 1.0000e-001 70795 -1.0459e+001 -2.5598e+000  9.8408e-001 68280 70544,70674,70622
 1.0000e-001 70772 -1.3998e+001 -9.4827e-001  2.5029e+000 68280 70622,70674,70648
 1.0000e-001 70749 -7.0549e+000  7.2085e-001 -3.5439e-001 68280 70518,70674,70544
 1.0000e-001 70726 -4.7249e+000  3.4376e+000  6.3641e-001 68280 70518,70700,70674
 1.0000e-001 70991 -1.3583e+001  9.8452e+000  1.7224e-001 67968 70864,70916,70890
 1.0000e-001 70968 -1.8466e+001  1.8204e+000 -6.0931e+000 67968 70864,70942,70916
 1.0000e-001 71141 -2.6005e+001 -1.6501e+001  4.2192e+000 67770 71040,71092,71066
 1.0000e-001 71118 -3.9814e+001 -1.3162e+001  2.1980e+000 67770 71014,71092,71040
 1.0000e-001 71651 -6.8802e+000  3.5914e+000  1.0132e+000 67366 71746,71674,71458
 1.0000e-001 71628 -9.1691e+000 -7.7225e-001  2.2719e+000 67366 71674,71354,71510
 1.0000e-001 71605 -7.2373e+000  5.3239e+000  7.9489e-001 67366 71746,71458,71432
 1.0000e-001 71582 -4.9680e+000  6.4046e+000 -1.2834e+000 67366 71354,71432,71380
 1.0000e-001 71559 -7.6535e+000  3.3443e+000  1.0489e-001 67366 71380,71432,71406
 1.0000e-001 71536 -1.1654e+001 -2.5848e+000  1.4752e+000 67366 71328,71510,71354
 1.0000e-001 71700 -6.1363e+000  2.3297e+000 -5.2003e-001 67366 71484,71458,71674
 1.0000e-001 71723 -7.6623e+000  1.8857e+000  1.6927e-001 67366 71484,71674,71510
 1.0000e-001 71772 -7.3111e+000  1.5284e+000  7.4862e-001 67366 71354,71674,71746
 1.0000e-001 71795 -7.8349e+000  2.9895e+000  7.6284e-001 67366 71354,71746,71432
 1.0000e-001 71896  4.9433e+000  3.3167e+001  0.0000e+000 67146 71818,71870,71844
 1.0000e-001 71997 -5.9312e+001 -2.5632e+001 -1.1797e+001 66948 71919,71971,71945
 1.0000e-001 72149  1.6372e+000  1.4746e+001 -9.8879e-001 66700 72172,72074,72048
 1.0000e-001 72126 -9.4136e-001  1.3908e+001 -4.3877e-001 66700 72172,72048,72022
 1.0000e-001 72198  9.6548e-001  2.0946e+001 -2.3562e+000 66700 72244,72172,72100
 1.0000e-001 72221 -3.2994e+000  1.7809e+001  2.2096e-001 66700 72100,72172,72022
 1.0000e-001 72270 -3.0985e+000  1.1411e+001 -2.5555e+000 66700 72074,72172,72244
 1.0000e-001 72623 -7.1312e+000  1.0879e+001 -9.4055e-002 66502 72424,72502,72450
 1.0000e-001 72600 -7.7956e+000  8.4589e+000  4.2521e-001 66502 72398,72502,72424
 1.0000e-001 72577 -1.0249e+001  1.1927e+001  1.4554e+000 66502 72398,72528,72502
 1.0000e-001 72554 -6.9161e+000  8.3239e+000  6.3249e-001 66502 72450,72502,72476
 1.0000e-001 72920 -6.1726e+000  3.0964e+000  5.5061e-001 65941 72672,72776,72750
 1.0000e-001 72897 -1.0119e+001  2.9448e+000  6.5292e-001 65941 72646,72776,72672
 1.0000e-001 72874 -5.1323e+000  3.4428e+000  6.1806e-001 65941 72672,72750,72724
 1.0000e-001 72851 -4.0291e+000  1.7057e+000 -4.6100e-001 65941 72672,72724,72698
 1.0000e-001 72828 -1.2328e+001  8.1422e+000 -1.1208e+000 65941 72646,72802,72776
 1.0000e-001 73241 -6.6204e+000  5.6287e+000  4.3380e-001 65743 73264,73071,73045
 1.0000e-001 73218 -4.2157e+000  7.5406e+000 -8.4891e-001 65743 73480,73264,73045
 1.0000e-001 73195 -7.1614e+000  6.3202e+000  7.3111e-001 65743 73336,72967,73097
 1.0000e-001 73172 -4.9567e+000  5.1080e+000  1.8916e+000 65743 73408,72993,72967
 1.0000e-001 73149 -9.3392e+000  6.1676e+000  6.6893e-001 65743 72967,73123,73097
 1.0000e-001 73290 -7.2052e+000  5.2073e+000  1.4091e-001 65743 73097,73071,73264
 1.0000e-001 73313 -7.9188e+000  4.7648e+000  4.8065e-001 65743 73336,73097,73264
 1.0000e-001 73362 -6.2185e+000  6.1171e+000  1.6174e+000 65743 73408,72967,73336
 1.0000e-001 73385 -7.4839e+000  5.0336e+000  9.1377e-001 65743 73019,73336,73264
 1.0000e-001 73434 -6.9949e+000  7.9555e-001  1.1517e+000 65743 73019,72993,73408
 1.0000e-001 73457 -7.9437e+000  3.4724e+000  8.5733e-001 65743 73019,73408,73336
 1.0000e-001 73506 -8.6675e+000 -5.1599e-002  9.8402e-001 65743 73019,73264,73480
 1.0000e-001 73989 -8.2158e+000  1.0488e+000 -7.3848e-002 65453 73793,73845,73819
 1.0000e-001 73966 -5.3295e+000  1.3542e+000 -5.8412e-001 65453 73741,73845,73793
 1.0000e-001 73943 -8.7335e+000 -1.1034e+000  6.0860e-001 65453 73715,73845,73741
 1.0000e-001 73920 -5.4070e+000  7.1401e+000 -1.6690e+000 65453 73741,73793,73767
 1.0000e-001 73897 -9.5954e+000 -1.5906e+000  1.2971e+000 65453 73715,73871,73845
 1.0000e-001 74357 -9.3435e+000  1.1808e+001 -2.6963e-002 65141 74380,74138,74086
 1.0000e-001 74334 -1.0267e+001  1.2279e+001  9.9067e-001 65141 74380,74086,74060
 1.0000e-001 74311 -1.0656e+001  1.4025e+001 -2.8936e-001 65141 74138,74190,74164
 1.0000e-001 74288 -1.0956e+001  1.6691e+001  2.0936e+000 65141 74060,74216,74190
 1.0000e-001 74265 -9.6485e+000  2.0489e+001 -6.5975e-001 65141 74034,74216,74060
 1.0000e-001 74242 -1.2310e+001 -3.2331e-001 -5.4255e+000 65141 74086,74138,74112
 1.0000e-001 74406 -1.1009e+001  1.1749e+001 -1.6224e-001 65141 74190,74138,74380
 1.0000e-001 74429 -1.1031e+001  1.2164e+001  7.0285e-001 65141 74190,74380,74060
 1.0000e-001 74937  5.9577e+000  4.2475e+000 -1.9864e+000 64737 74614,74666,74640
 1.0000e-001 74914 -9.2014e-001  4.3619e+000 -4.1766e-001 64737 74614,74796,74666
 1.0000e-001 74891 -8.1179e+000  2.7907e+000 -2.9498e+000 64737 74960,74718,74666
 1.0000e-001 74868 -6.3235e+000  6.0861e+000 -6.8074e-001 64737 74960,74666,74770
 1.0000e-001 74845 -2.1958e+000  6.5132e-001  1.2196e+000 64737 74666,74796,74770
 1.0000e-001 74822 -1.8891e+001  8.1077e+000 -7.3711e+000 64737 74666,74718,74692
 1.0000e-001 74986 -9.4142e+000  5.9651e+000  2.3196e-001 64737 74744,74718,74960
 1.0000e-001 75009 -4.6735e+000  1.1500e+001  3.1052e+000 64737 74744,74960,74770
 1.0000e-001 75306 -7.4627e+000  3.9241e+000 -2.2167e+000 64133 75329,75110,75084
 1.0000e-001 75283 -4.4304e+000  6.7026e+000 -8.6444e-001 64133 75401,75329,75084
 1.0000e-001 75260 -3.2314e+000  7.3984e+000 -2.0188e-001 64133 75401,75084,75058
 1.0000e-001 75237 -6.3173e+000  7.4318e+000 -1.0520e+000 64133 75473,75136,75110
 1.0000e-001 75214 -7.8487e+000  8.6115e+000 -3.8183e-001 64133 75032,75188,75162
 1.0000e-001 75355 -6.2262e+000  7.0883e+000 -9.7066e-001 64133 75473,75110,75329
 1.0000e-001 75378 -6.6057e+000  6.3412e+000 -7.1749e-003 64133 75162,75329,75032
 1.0000e-001 75427 -7.0922e+000  5.2566e+000 -1.8003e-001 64133 75032,75329,75401
 1.0000e-001 75450 -1.8942e+000  8.9421e+000 -2.0642e+000 64133 75545,75401,75058
 1.0000e-001 75499 -5.7669e+000  6.9593e+000 -3.3964e-001 64133 75162,75136,75473
 1.0000e-001 75522 -6.0036e+000  6.0041e+000 -4.7193e-001 64133 75162,75473,75329
 1.0000e-001 75571 -6.3534e+000 -8.3855e-001 -4.2702e-001 64133 75032,75401,75545
 1.0000e-001 75851 -4.1045e+000  8.3414e+000 -1.5962e+000 63843 75874,75753,75727
 1.0000e-001 75828 -5.3626e+000  8.7130e+000  4.5743e-001 63843 75946,75874,75727
 1.0000e-001 75805 -4.8981e+000  8.0271e+000  7.7518e-001 63843 76018,75946,75727
 1.0000e-001 75900 -6.8165e+000  7.1906e+000 -6.7641e-001 63843 75779,75753,75874
 1.0000e-001 75923 -6.0420e+000  3.5234e+000  1.9297e+000 63843 75779,75874,75675
 1.0000e-001 75972 -3.7547e+000  6.6923e+000  2.9955e-002 63843 75675,75874,75946
 1.0000e-001 75995 -1.4474e+000  8.9613e+000 -1.1700e+000 63843 75675,75946,75701
 1.0000e-001 76044 -4.0919e+000  1.0359e+001  2.2398e-001 63843 75701,75946,76018
 1.0000e-001 76454 -1.4619e+001 -4.7503e-001  7.3417e+000 63439 76477,76255,76229
 1.0000e-001 76431 -9.4942e+000  9.1226e+000  4.8433e+000 63439 76477,76229,76359
 1.0000e-001 76408 -2.7042e+000  1.1310e+001 -1.0041e-001 63439 76307,76359,76333
 1.0000e-001 76385 -5.3138e+000  1.0183e+000 -3.1680e+000 63439 76255,76307,76281
 1.0000e-001 76503 -1.0794e+001  6.5508e+000  1.3736e+000 63439 76307,76255,76477
 1.0000e-001 76526 -1.0209e+001  1.0597e+001 -2.4768e-001 63439 76307,76477,76359
 1.0000e-001 76926 -2.8725e+000  1.3933e+001  1.1115e+000 63049 76704,76782,76756
 1.0000e-001 76903  2.7247e+000  1.6174e+001  1.6154e+000 63049 76704,76808,76782
 1.0000e-001 76880 -1.6763e+000  2.0266e+001 -4.1506e-001 63049 76704,76756,76730
 1.0000e-001 76857 -7.5380e+000  6.0651e+000 -2.6197e+000 63049 76678,76808,76704
 1.0000e-001 76834 -1.2234e+001  5.8607e+000 -2.3108e+000 63049 76652,76808,76678
 1.0000e-001 77076 -7.6649e+000  2.2044e+000  1.1788e-001 62737 76975,77027,77001
 1.0000e-001 77053 -7.2267e+000  3.0122e+000  5.1585e-001 62737 76949,77027,76975
 1.0000e-001 77324 -2.8557e+000  7.8789e+000  3.5958e-001 62277 77347,77177,77125
 1.0000e-001 77301 -3.8662e+000  7.3722e+000  5.3820e-001 62277 77347,77125,77229
 1.0000e-001 77278 -6.1848e+000  9.1329e+000  1.8428e+000 62277 77099,77229,77125
 1.0000e-001 77255  2.8869e-002  9.3576e+000 -7.3220e-001 62277 77125,77177,77151
 1.0000e-001 77373 -2.8286e+000  9.0608e+000 -9.2001e-001 62277 77203,77177,77347
 1.0000e-001 77396 -5.1993e+000  7.8022e+000 -4.5336e-001 62277 77203,77347,77229
 1.0000e-001 77857 -6.5217e+000  2.8879e+000  8.8977e-001 61758 77635,77739,77661
 1.0000e-001 77834 -7.1348e+000  4.5343e+000  4.5531e-001 61758 77583,77739,77635
 1.0000e-001 77811 -8.0100e+000  9.2249e+000  4.4219e+000 61758 77583,77635,77609
 1.0000e-001 77788 -8.0181e+000  5.2336e+000  2.2678e-001 61758 77661,77713,77687
 1.0000e-001 77765 -6.2337e+000  4.1895e+000  1.1402e+000 61758 77661,77739,77713
 1.0000e-001 78491  3.7590e-001  1.4033e+001 -1.7377e-002 61418 78171,78301,78249
 1.0000e-001 78468 -7.3430e-001  1.1646e+001 -9.5830e-001 61418 78145,78301,78171
 1.0000e-001 78445 -5.1087e+000  1.1664e+001  3.5401e-001 61418 78171,78249,78223
 1.0000e-001 78422 -2.7103e+000  1.0897e+001 -3.1679e+000 61418 78145,78327,78301
 1.0000e-001 78399  4.0698e+000  2.3834e+001  6.5968e-001 61418 78249,78301,78275
 1.0000e-001 78376 -7.3268e+000  1.4265e+001  4.8568e-001 61418 78171,78223,78197
 1.0000e-001 78353 -9.1450e+000  1.4782e+001 -3.4837e+000 61418 78119,78327,78145
 1.0000e-001 78690  1.2010e+000  2.3609e+001  1.1890e+000 61014 78713,78566,78540
 1.0000e-001 78667  2.0426e+000  2.4052e+001  9.9855e-001 61014 78713,78540,78618
 1.0000e-001 78644  7.5704e+000  2.8570e+001  5.5926e+000 61014 78514,78618,78540
 1.0000e-001 78739  1.1358e+000  2.2980e+001  1.2068e+000 61014 78592,78566,78713
 1.0000e-001 78762  3.9908e+000  2.4109e+001  1.8079e+000 61014 78785,78713,78618
 1.0000e-001 78811  2.3610e-001  2.2535e+001  1.8260e+000 61014 78592,78713,78785
 1.0000e-001 79398 -3.8484e+000  1.7761e+001  1.5996e+000 60624 79101,79179,79153
 1.0000e-001 79375  4.2585e-001  2.0410e+001  4.3094e-001 60624 79101,79231,79179
 1.0000e-001 79352 -8.8490e+000  1.6874e+001  4.7439e-001 60624 79075,79231,79101
 1.0000e-001 79329 -3.3630e+000  2.2237e+001 -2.6361e+000 60624 79075,79257,79231
 1.0000e-001 79306 -6.7265e-001  1.6293e+001  2.2725e+000 60624 79179,79231,79205
 1.0000e-001 79283 -3.2328e+000  1.8992e+001  2.7336e+000 60624 79101,79153,79127
 1.0000e-001 79776 -3.7015e+000  1.1075e+001  4.0553e-001 60070 79528,79658,79606
 1.0000e-001 79753 -3.0955e+000  1.2562e+001  4.2294e-001 60070 79502,79658,79528
 1.0000e-001 79730 -1.0084e+001  1.2956e+001  2.9991e+000 60070 79528,79606,79580
 1.0000e-001 79707 -4.7418e+000  1.3920e+001 -2.2099e-001 60070 79606,79658,79632
 1.0000e-001 79684 -8.6719e+000  1.8577e+001 -3.7654e+000 60070 79528,79580,79554
 1.0000e-001 80105  6.3431e-002  1.3727e+001 -5.6630e-001 59758 80128,79958,79906
 1.0000e-001 80082 -5.7194e+000  9.5228e+000  1.2782e+000 59758 80128,79906,80010
 1.0000e-001 80059  1.8614e+000  1.5347e+001 -2.6285e+000 59758 79906,79958,79932
 1.0000e-001 80036 -1.6337e+001  1.3406e+001  3.2761e+000 59758 79880,80010,79906
 1.0000e-001 80154 -3.1710e+000  1.6739e+001 -3.6376e+000 59758 79984,79958,80128
 1.0000e-001 80177 -6.8944e+000  1.3954e+001 -2.3706e+000 59758 79984,80128,80010
 1.0000e-001 80376  8.0479e-001  2.3872e+001 -1.0248e+000 59312 80226,80304,80252
 1.0000e-001 80353  7.4323e-001  2.8448e+001 -7.1619e-001 59312 80200,80304,80226
 1.0000e-001 80330  3.9761e+000  2.7974e+001 -3.1577e+000 59312 80252,80304,80278
 1.0000e-001 80805 -4.4984e+000  3.8532e+000  1.1719e+000 58908 80900,80828,80638
 1.0000e-001 80782 -2.5530e+000  4.4715e+000  2.1656e+000 58908 80828,80560,80508
 1.0000e-001 80759 -4.4093e+000  3.1409e+000  1.1225e-001 58908 80900,80638,80612
 1.0000e-001 80736 -8.4395e+000  1.8266e+000 -1.2165e+000 58908 80482,80664,80508
 1.0000e-001 80713 -6.6235e+000  2.0801e+000 -2.5190e-001 58908 80560,80612,80586
 1.0000e-001 80690 -7.7809e+000  1.2223e+001  7.7432e+000 58908 80508,80560,80534
 1.0000e-001 80854 -5.9069e+000  4.1536e+000  3.8586e-001 58908 80664,80638,80828
 1.0000e-001 80877 -4.8716e+000  5.6094e+000  9.6679e-001 58908 80664,80828,80508
 1.0000e-001 80926 -5.0036e+000  1.8638e+000  1.1564e+000 58908 80560,80828,80900
 1.0000e-001 80949 -4.7210e+000  1.7548e+000 -5.5381e-002 58908 80560,80900,80612
 1.0000e-001 81246 -5.6246e+000  3.5095e+000 -2.2727e-001 58482 81076,81128,81102
 1.0000e-001 81223 -4.7551e+000  4.4666e+000  1.3984e-001 58482 80972,81128,81076
 1.0000e-001 81200 -6.0140e+000  1.5978e+000  5.0787e-001 58482 80972,81076,81050
 1.0000e-001 81177 -4.6930e+000  5.2189e+000  8.0273e-001 58482 80998,81050,81024
 1.0000e-001 81154 -4.9284e+000  3.0839e+000  1.0343e+000 58482 80972,81050,80998
 1.0000e-001 81754 -5.9355e+000  3.5509e+000  1.3700e-001 57828 81457,81613,81483
 1.0000e-001 81731 -5.2158e+000  4.5792e+000  9.8559e-001 57828 81431,81613,81457
 1.0000e-001 81708 -6.8205e+000  1.5609e+000  1.8985e+000 57828 81483,81613,81509
 1.0000e-001 81685 -2.8239e+000  2.9356e+000  3.1672e-001 57828 81509,81613,81587
 1.0000e-001 81662 -2.4694e+000  6.8976e+000 -4.9532e-001 57828 81509,81587,81535
 1.0000e-001 81639 -7.9507e+000  7.9020e+000  9.8775e-001 57828 81535,81587,81561
 1.0000e-001 82002  3.8027e+000  1.7627e+001  7.3447e-001 57374 82025,81855,81829
 1.0000e-001 81979  2.6014e+000  1.6379e+001  4.1429e-002 57374 82025,81829,81907
 1.0000e-001 81956  4.7995e+000  1.8672e+001  1.1281e+000 57374 81803,81907,81829
 1.0000e-001 81933 -1.7397e+000  1.5067e+001 -2.8254e-001 57374 81777,81907,81803
 1.0000e-001 82051  6.7005e+000  1.6420e+001 -3.0728e-001 57374 81881,81855,82025
 1.0000e-001 82074  2.7664e+000  1.3892e+001 -1.6022e+000 57374 81881,82025,81907
 1.0000e-001 82356  2.7201e+000  1.6888e+001  1.0391e+000 56913 82180,82232,82206
 1.0000e-001 82333  4.7284e-001  1.1846e+001  5.5495e-001 56913 82180,82284,82232
 1.0000e-001 82310 -1.5010e+000  7.9578e+000 -4.6675e-001 56913 82379,82232,82284
 1.0000e-001 82405 -2.9316e+000  6.9216e+000 -1.4230e+000 56913 82258,82232,82379
 1.0000e-001 82764 -2.0374e+000  6.3376e+000  7.7681e-001 56523 82614,82666,82640
 1.0000e-001 82741 -2.8850e+000  2.2233e+000  9.7642e-001 56523 82614,82692,82666
 1.0000e-001 82718 -5.9323e+000  1.7729e+000  2.0814e+000 56523 82588,82692,82614
 1.0000e-001 83368  8.6689e-001  2.0682e+001 -3.3483e-001 55969 82973,83155,83129
 1.0000e-001 83345  3.5278e+000  2.2018e+001  2.3198e+000 55969 82973,83181,83155
 1.0000e-001 83322 -1.0751e+000  1.8001e+001  6.0041e-001 55969 82973,83129,82999
 1.0000e-001 83299  1.0462e+001  2.3181e+001 -2.6151e+000 55969 83391,83025,82999
 1.0000e-001 83276  5.3589e+000  2.1105e+001 -6.0227e-001 55969 83391,82999,83129
 1.0000e-001 83253 -8.6413e-001  1.6743e+001 -1.3012e+000 55969 83077,83129,83103
 1.0000e-001 83230  2.9335e+000  1.7696e+001  8.2860e-001 55969 83025,83077,83051
 1.0000e-001 83207 -4.7753e+000  1.9495e+001  6.1680e+000 55969 82947,83181,82973
 1.0000e-001 83417  5.2179e+000  2.2067e+001 -1.3269e+000 55969 83077,83025,83391
 1.0000e-001 83440  3.1373e+000  2.2234e+001  5.2913e-001 55969 83077,83391,83129
 1.0000e-001 83946  1.7363e+000  1.2593e+001 -2.9683e+000 55771 83969,83779,83727
 1.0000e-001 83923  6.1046e-001  1.0598e+001 -1.5968e+000 55771 83969,83727,83623
 1.0000e-001 83900  1.1170e+000  5.6955e+000 -9.8106e-001 55771 83623,83727,83649
 1.0000e-001 83877 -5.4501e+000  1.6806e+001 -4.1174e+000 55771 83727,83779,83753
 1.0000e-001 83854  9.7631e+000 -5.5148e-001 -6.4262e+000 55771 83675,83727,83701
 1.0000e-001 83831  3.4150e+000  7.3582e+000 -2.0236e+000 55771 83649,83727,83675
 1.0000e-001 83995  9.0345e-001  1.2763e+001 -3.6633e-001 55771 83805,83779,83969
 1.0000e-001 84018 -1.7500e+000  8.4966e+000  1.2812e+000 55771 83805,83969,83623
 1.0000e-001 84168 -4.1265e+000  4.0680e+000 -4.4095e-002 55367 84191,84067,84041
 1.0000e-001 84145 -4.4377e+000  4.3936e+000  1.7420e-002 55367 84191,84041,84119
 1.0000e-001 84217 -4.3779e+000  4.1646e+000 -1.0250e-001 55367 84093,84067,84191
 1.0000e-001 84240 -5.1396e+000  4.1171e+000 -1.4643e-001 55367 84093,84191,84119
 1.0000e-001 84571 -5.3029e-001  9.9314e+000  1.4101e-001 54913 84398,84450,84424
 1.0000e-001 84548 -2.7555e+000  9.0852e+000 -1.0632e-001 54913 84372,84450,84398
 1.0000e-001 84525  4.5490e-001  1.1722e+001 -2.0542e+000 54913 84346,84450,84372
 1.0000e-001 84502  1.3560e+000  1.3741e+001 -5.3324e+000 54913 84346,84476,84450
 1.0000e-001 85126 -2.3441e+000  6.1839e+000 -8.2558e-002 54402 84858,84936,84910
 1.0000e-001 85103 -1.4429e+000  6.8454e+000 -2.7095e+000 54402 84806,84936,84858
 1.0000e-001 85080 -1.5488e+000  6.1814e+000 -2.9536e+000 54402 84780,84936,84806
 1.0000e-001 85057 -1.1326e+001  9.6503e+000 -5.6071e+000 54402 84806,84858,84832
 1.0000e-001 85034 -1.0292e+001  1.9939e+000 -5.1744e+000 54402 84780,84962,84936
 1.0000e-001 85011 -2.8680e+000  1.5049e+001  7.7200e-001 54402 84858,84910,84884
 1.0000e-001 84988 -6.0023e+000  1.0177e+001 -3.6130e+000 54402 84754,84962,84780
 1.0000e-001 85396 -3.3023e+000  1.0574e+000  6.3695e-001 53998 85197,85249,85223
 1.0000e-001 85373 -4.6195e+000  2.6170e+000  3.4916e-001 53998 85197,85275,85249
 1.0000e-001 85350 -5.2309e+000  2.4050e+000  1.6997e-001 53998 85171,85275,85197
 1.0000e-001 85327 -6.1398e+000  2.0409e+000  2.9733e-001 53998 85171,85301,85275
 1.0000e-001 85749  1.3871e+000  2.2448e+001  1.1545e+000 53636 85524,85628,85550
 1.0000e-001 85726  7.1154e+000  2.9657e+001 -1.3895e+000 53636 85524,85654,85628
 1.0000e-001 85703  1.0271e+000  2.2414e+001 -6.5073e-001 53636 85550,85602,85576
 1.0000e-001 85680 -3.2797e+000  2.0440e+001  1.3022e+000 53636 85550,85628,85602
 1.0000e-001 86127 -1.6933e+000  1.6872e+001 -1.2412e+000 52982 86150,85957,85879
 1.0000e-001 86104  8.5391e-001  1.7513e+001 -9.9309e-001 52982 86150,85879,85853
 1.0000e-001 86081 -3.2726e+000  1.6374e+001 -3.6758e+000 52982 85957,86009,85983
 1.0000e-001 86058  1.3459e+000  1.7889e+001 -1.2580e+000 52982 85879,85957,85931
 1.0000e-001 86035  5.3789e-002  1.6769e+001 -1.3192e-001 52982 85879,85931,85905
 1.0000e-001 86176 -2.9282e+000  1.7756e+001 -9.2222e-001 52982 86009,85957,86150
 1.0000e-001 86199 -1.4230e+000  1.7630e+001 -6.4679e-001 52982 86009,86150,85853
 1.0000e-001 86398 -4.9676e+000 -3.3578e-001  2.2398e-001 52542 86421,86248,86222
 1.0000e-001 86375 -4.7494e+000  8.4906e-001  2.9724e-001 52542 86421,86222,86300
 1.0000e-001 86352 -3.6411e+000  2.5273e+000 -3.2047e-001 52542 86222,86326,86300
 1.0000e-001 86447 -5.7761e+000  2.7075e-001 -7.3919e-001 52542 86274,86248,86421
 1.0000e-001 86470 -5.1615e+000  2.0962e+000 -5.9894e-001 52542 86274,86421,86300
 1.0000e-001 86669 -5.6307e+000 -1.4551e-001  1.9307e+000 52230 86692,86571,86545
 1.0000e-001 86646 -4.5342e+000  2.4552e+000  2.0586e+000 52230 86692,86545,86519
 1.0000e-001 86623 -4.8992e+000  4.3101e+000  2.1267e-002 52230 86493,86597,86519
 1.0000e-001 86718 -5.3815e+000 -4.5844e-001 -7.5775e-002 52230 86597,86571,86692
 1.0000e-001 86741 -4.3814e+000  2.1198e+000 -9.8651e-002 52230 86597,86692,86519
 1.0000e-001 87153  4.5579e+000  1.0637e+001  1.0550e+000 51640 86980,87058,87032
 1.0000e-001 87130  5.7496e+000  1.3336e+001  2.1681e+000 51640 86928,87058,86980
 1.0000e-001 87107  4.6541e+000  2.4263e+001  7.5054e+000 51640 86928,86980,86954
 1.0000e-001 87084  3.3606e+000  1.0118e+001  8.5874e-001 51640 86980,87032,87006
 1.0000e-001 87659  2.3602e+000  1.1591e+001 -1.4729e+000 51029 87682,87440,87362
 1.0000e-001 87636  2.4081e+000  1.2735e+001  4.9100e-001 51029 87682,87362,87336
 1.0000e-001 87613  5.3223e+000  2.1447e+001 -1.8115e-001 51029 87440,87518,87466
 1.0000e-001 87590  6.4610e+000  1.2843e+001 -2.1761e+000 51029 87362,87440,87414
 1.0000e-001 87567  6.0877e+000  1.1518e+001 -4.2275e+000 51029 87362,87414,87388
 1.0000e-001 87544  5.3183e+000  2.1181e+001 -1.7931e-001 51029 87466,87518,87492
 1.0000e-001 87708  2.0601e+000  1.3598e+001 -6.9510e-001 51029 87518,87440,87682
 1.0000e-001 87731  2.1862e+000  1.6180e+001  5.4122e-001 51029 87518,87682,87336
 1.0000e-001 87881 -4.1059e+000  2.8290e+000  7.6162e-002 50739 87780,87832,87806
 1.0000e-001 87858 -3.9173e+000  4.1055e+000 -2.2012e-001 50739 87754,87832,87780
 1.0000e-001 88468 -3.3999e+000 -1.2219e-001  3.8208e-001 50235 88171,88327,88197
 1.0000e-001 88445  9.6392e-001  1.3231e+000  2.0957e+000 50235 88145,88327,88171
 1.0000e-001 88422 -1.3157e+001 -2.6627e+000  2.0567e+000 50235 88275,88327,88301
 1.0000e-001 88399 -3.9139e+000  1.3034e+000  8.0567e-001 50235 88197,88327,88275
 1.0000e-001 88376 -5.7965e+000  1.1865e+000  3.1955e-001 50235 88197,88275,88223
 1.0000e-001 88353 -4.6949e+000  3.7528e+000  1.0175e-001 50235 88223,88275,88249
 1.0000e-001 88895 -4.1782e+000  5.0558e+000 -3.8493e-001 49873 88918,88728,88676
 1.0000e-001 88872 -4.0908e+000  5.3684e+000 -3.6239e-001 49873 88918,88676,88624
 1.0000e-001 88849 -3.4079e+000  3.7107e+000 -1.4476e-001 49873 88598,88754,88624
 1.0000e-001 88826 -4.0579e+000  4.5323e+000  7.1962e-001 49873 88624,88676,88650
 1.0000e-001 88803 -4.8971e+000  7.4538e+000 -4.9103e-001 49873 88676,88728,88702
 1.0000e-001 88780 -4.9120e+000  3.1140e+000 -3.4770e-001 49873 88572,88754,88598
 1.0000e-001 88944 -4.1197e+000  4.9931e+000 -5.5322e-001 49873 88754,88728,88918
 1.0000e-001 88967 -4.0545e+000  5.2034e+000 -4.9944e-001 49873 88754,88918,88624
 1.0000e-001 89473  5.9448e+000  1.0026e+001  2.6548e+000 49583 89176,89306,89202
 1.0000e-001 89450  1.8329e+000  9.1179e+000  7.8698e-001 49583 89176,89332,89306
 1.0000e-001 89427  9.8781e-001  9.1315e+000 -5.4624e-002 49583 89496,89228,89202
 1.0000e-001 89404  7.8153e-001  9.0866e+000 -3.0128e-002 49583 89496,89202,89280
 1.0000e-001 89381  4.9335e+000  1.1897e+001  2.9681e+000 49583 89202,89306,89280
 1.0000e-001 89358  4.9262e+000  6.4471e+000 -1.3816e+000 49583 89150,89332,89176
 1.0000e-001 89522  8.2088e-001  9.7174e+000 -3.1877e-001 49583 89254,89228,89496
 1.0000e-001 89545  3.9065e-001  9.3263e+000 -5.6819e-002 49583 89254,89496,89280
 1.0000e-001 89825 -4.0260e+000  8.0529e+000  1.3445e-001 49179 89701,89753,89727
 1.0000e-001 89802 -5.3828e+000  5.8938e+000  8.6056e-001 49179 89675,89753,89701
 1.0000e-001 89779 -6.3487e+000  5.3487e+000 -1.8707e+000 49179 89848,89753,89675
 1.0000e-001 89874  2.0554e+000  8.6799e+000  5.4946e-001 49179 89649,89753,89848
 1.0000e-001 90223  6.6354e+000  2.0919e+001 -8.0769e-001 48739 90024,90102,90076
 1.0000e-001 90200  3.5343e+000  1.9894e+001 -6.2640e-001 48739 90024,90128,90102
 1.0000e-001 90177  3.8384e+000  1.8298e+001  3.5217e-001 48739 90024,90076,90050
 1.0000e-001 90154  3.8938e+000  2.1973e+001 -5.8892e-001 48739 89998,90128,90024
 1.0000e-001 90603  3.6579e+000  1.4630e+001 -6.4455e-001 48335 90381,90485,90459
 1.0000e-001 90580  7.8010e+000  2.0497e+001  1.3255e+000 48335 90355,90485,90381
 1.0000e-001 90557 -5.3317e+000  1.2488e+001  2.9589e+000 48335 90381,90433,90407
 1.0000e-001 90534  1.5334e-001  1.4060e+001  1.6501e-001 48335 90381,90459,90433
 1.0000e-001 90511  2.1394e+000  1.3495e+001 -4.7439e+000 48335 90329,90485,90355
 1.0000e-001 90753 -6.7323e+000  5.3458e+000 -4.2669e+000 47824 90776,90652,90704
 1.0000e-001 90730 -1.2074e+000  1.4481e+001 -1.2586e+000 47824 90626,90704,90652
 1.0000e-001 90802 -5.3384e-001  8.5384e+000 -2.7137e+000 47824 90678,90652,90776
 1.0000e-001 91131 -2.7435e+000  5.7177e+000 -8.8919e-001 47427 91154,90958,90906
 1.0000e-001 91108  1.8794e-001  7.0193e+000 -1.4352e+000 47427 91154,90906,91036
 1.0000e-001 91085 -2.1061e+000  3.3994e+000  6.7465e-001 47427 90958,91010,90984
 1.0000e-001 91062 -4.1914e+000  3.1321e+000 -3.0474e-001 47427 90906,90958,90932
 1.0000e-001 91180 -1.2522e+000  4.7028e+000  1.1446e+000 47427 91010,90958,91154
 1.0000e-001 91203  1.4772e+000  5.8638e+000  6.3825e-001 47427 91010,91154,91036
 1.0000e-001 91583  6.6287e-001  1.6069e+001 -5.0612e-001 46873 91309,91439,91335
 1.0000e-001 91560  3.1726e+000  2.1724e+001 -1.8026e+000 46873 91309,91465,91439
 1.0000e-001 91537  8.9468e+000  2.2503e+001  2.4618e+000 46873 91361,91439,91413
 1.0000e-001 91514  5.6665e+000  1.8399e+001  7.3373e-001 46873 91335,91439,91361
 1.0000e-001 91491 -4.7606e+000  1.8561e+001  2.2521e+000 46873 91361,91413,91387
 1.0000e-001 91880 -2.9700e+000  4.6823e+000  4.3293e-001 46526 91606,91710,91658
 1.0000e-001 91857 -3.6991e+000  5.1355e+000 -5.0158e-003 46526 91606,91762,91710
 1.0000e-001 91834 -4.8994e+000  4.2462e+000  1.8962e+000 46526 91606,91658,91632
 1.0000e-001 91811 -3.3350e+000  3.1839e+000 -3.5045e-001 46526 91658,91710,91684
 1.0000e-001 91788 -4.8437e+000  1.5770e+000 -3.5052e-001 46526 91710,91762,91736
 1.0000e-001 92211  2.1246e+000  9.6636e+000 -5.9516e-002 45700 91986,92064,92038
 1.0000e-001 92188  5.8093e+000  1.3448e+001 -1.5843e+000 45700 91986,92116,92064
 1.0000e-001 92165  1.3858e+000  8.9604e+000  1.3582e+000 45700 91986,92038,92012
 1.0000e-001 92142  5.1670e+000  1.2436e+001 -1.8708e+000 45700 92064,92116,92090
 1.0000e-001 92766 -4.9579e+000  7.6731e+000 -1.6940e+000 45452 92446,92602,92576
 1.0000e-001 92743  3.5120e+000  1.2279e+001  2.8455e+000 45452 92420,92602,92446
 1.0000e-001 92720  1.9987e+000  9.4294e+000 -1.7965e+000 45452 92789,92524,92498
 1.0000e-001 92697  2.9627e+000  1.0190e+001 -1.4151e+000 45452 92789,92498,92446
 1.0000e-001 92674  1.9026e+000  1.1268e+001 -9.9011e-001 45452 92524,92576,92550
 1.0000e-001 92651  4.7526e+000  1.0023e+001 -5.1117e+000 45452 92446,92498,92472
 1.0000e-001 92628 -2.0804e+001  6.7371e+000  2.4708e+000 45452 92394,92602,92420
 1.0000e-001 92815  1.3893e+000  1.0334e+001 -1.5934e+000 45452 92576,92524,92789
 1.0000e-001 92838  1.9407e+000  1.0657e+001 -1.3964e+000 45452 92576,92789,92446
 1.0000e-001 92939 -2.9374e+000  5.8255e+000  2.7802e+000 44998 92861,92913,92887
 1.0000e-001 93319 -8.6795e-001  1.1393e+001 -1.9205e+000 44601 93123,93201,93149
 1.0000e-001 93296  3.4379e-001  1.0768e+001 -1.3297e-002 44601 93045,93201,93123
 1.0000e-001 93273 -9.0721e-001  6.7968e+000  6.0906e-001 44601 93045,93123,93071
 1.0000e-001 93250 -3.5104e+000  6.9446e+000  2.2785e+000 44601 93071,93123,93097
 1.0000e-001 93227 -2.5450e+000  5.6860e+000 -1.4994e+000 44601 93149,93201,93175
 1.0000e-001 93697 -2.5406e+000  7.6231e+000  3.1093e-001 44026 93720,93553,93527
 1.0000e-001 93674 -2.6607e+000  6.6596e+000  3.5850e-002 44026 93720,93527,93449
 1.0000e-001 93651 -2.0142e+000  8.5235e+000 -4.5653e-001 44026 93449,93527,93501
 1.0000e-001 93628 -3.0012e+000  4.2738e+000  2.0847e+000 44026 93423,93579,93449
 1.0000e-001 93605 -5.1910e+000  7.9540e+000 -5.5611e-001 44026 93449,93501,93475
 1.0000e-001 93746 -1.9664e+000  6.5321e+000  3.4551e-001 44026 93579,93553,93720
 1.0000e-001 93769 -2.2404e+000  5.4220e+000 -2.0652e-003 44026 93579,93720,93449
 1.0000e-001 94066 -2.2677e+000  5.4317e+000  5.2291e-001 43579 94089,93818,93792
 1.0000e-001 94043 -2.4490e+000  5.4727e+000  5.1896e-001 43579 94161,94089,93792
 1.0000e-001 94020 -2.4533e+000  5.5159e+000  2.8402e-001 43579 94161,93792,93948
 1.0000e-001 93997 -2.8087e+000  4.8153e+000  4.7587e-001 43579 94233,93870,93818
 1.0000e-001 93974 -3.6042e+000  5.5213e+000 -3.0398e-001 43579 93818,93870,93844
 1.0000e-001 94115 -2.6403e+000  4.8479e+000  2.8170e-001 43579 94233,93818,94089
 1.0000e-001 94138 -1.3597e+000  5.3567e+000  7.1958e-001 43579 93896,94089,93922
 1.0000e-001 94187 -2.6023e+000  5.0617e+000  5.9930e-001 43579 93922,94089,94161
 1.0000e-001 94210 -2.5623e+000  5.0971e+000  3.3861e-001 43579 93922,94161,93948
 1.0000e-001 94259 -3.6340e+000  4.4009e+000  1.1978e+000 43579 93896,93870,94233
 1.0000e-001 94282 -2.7487e+000  4.7908e+000  9.8872e-001 43579 93896,94233,94089
 1.0000e-001 94481 -2.2782e+000  5.5526e+000 -6.5191e-002 43239 94305,94383,94357
 1.0000e-001 94458 -2.9479e+000  4.4220e+000 -1.6181e+000 43239 94305,94409,94383
 1.0000e-001 94435 -2.7950e+000  5.7385e+000  9.0147e-002 43239 94305,94357,94331
 1.0000e-001 94633  1.1134e+000  8.5613e+000 -2.2226e+000 42827 94656,94532,94506
 1.0000e-001 94610  4.3634e+000  1.0408e+001 -3.3409e+000 42827 94728,94656,94506
 1.0000e-001 94682 -2.6116e-001  1.2141e+001 -2.0203e+000 42827 94558,94532,94656
 1.0000e-001 94705 -3.7151e+000  1.0131e+001 -1.0673e+000 42827 94988,94860,94656
 1.0000e-001 94754  4.8941e-001  7.2799e+000  3.4173e-002 42827 94988,94656,94728
 1.0000e-001 94886 -6.7374e+000  9.3589e+000 -3.9244e-001 42827 94558,94656,94860
 1.0000e-001 95014 -7.2890e+000  7.6260e+000  2.5239e-002 42827 94584,94860,94988
 1.0000e-001 95037 -3.7220e+000  4.8884e+000  1.0510e+000 42827 94584,94988,94728
 1.0000e-001 95236  4.8519e+000  2.0221e+001 -5.2268e-002 42537 95259,95112,95060
 1.0000e-001 95213  4.5203e+000  2.0684e+001 -2.4858e-001 42537 95259,95060,95164
 1.0000e-001 95190  5.0832e+000  2.1219e+001  1.9649e-001 42537 95060,95112,95086
 1.0000e-001 95285  4.6194e+000  1.9992e+001 -1.7579e-001 42537 95138,95112,95259
 1.0000e-001 95308  4.2073e+000  2.0245e+001 -4.2449e-001 42537 95138,95259,95164
 1.0000e-001 95816  8.7882e+000  1.9052e+001  4.1093e-002 41969 95493,95597,95519
 1.0000e-001 95793  1.1230e+001  1.7244e+001 -2.4328e+000 41969 95493,95649,95597
 1.0000e-001 95770  9.4382e+000  1.5586e+001 -1.2949e+000 41969 95493,95675,95649
 1.0000e-001 95747  9.2239e+000  2.2721e+001 -2.1863e+000 41969 95597,95649,95623
 1.0000e-001 95724  1.3048e+001  1.8912e+001  2.3097e-001 41969 95519,95597,95571
 1.0000e-001 95701  1.6420e+001  2.5338e+001 -4.3204e+000 41969 95519,95571,95545
 1.0000e-001 96371 -1.7639e-001  8.3484e+000  5.1577e-001 41579 96025,96207,96181
 1.0000e-001 96348 -3.6117e+000  6.7270e+000  1.7223e+000 41579 95999,96207,96025
 1.0000e-001 96325 -4.9321e+000  9.5039e+000  1.2864e+000 41579 96129,96181,96155
 1.0000e-001 96302 -2.8356e+000  6.4279e+000  1.3774e+000 41579 96025,96181,96129
 1.0000e-001 96279  1.5070e+000  1.2219e+001 -2.3891e+000 41579 96025,96129,96051
 1.0000e-001 96256 -2.5484e+000  1.2028e+001 -1.1529e+000 41579 96051,96103,96077
 1.0000e-001 96233 -4.3604e+000  7.8512e+000 -4.8435e-001 41579 96051,96129,96103
 1.0000e-001 96877 -1.3557e+000  6.2809e+000  1.9869e-003 41182 96972,96900,96632
 1.0000e-001 96854 -1.8346e+000  5.8202e+000  3.9705e-001 41182 96900,96554,96736
 1.0000e-001 96831 -8.6649e-001  5.8561e+000  1.4374e+000 41182 96972,96632,96580
 1.0000e-001 96808 -2.6471e+000  6.8757e+000  3.0837e-002 41182 96632,96684,96658
 1.0000e-001 96785  3.4562e-001  8.3754e+000  5.1740e-001 41182 96684,96736,96710
 1.0000e-001 96762  3.9228e+000  1.1407e+001 -1.4845e+000 41182 96580,96632,96606
 1.0000e-001 96926 -1.6363e+000  7.1690e+000 -5.4362e-002 41182 96684,96632,96900
 1.0000e-001 96949 -6.4862e-001  6.0773e+000  6.1511e-001 41182 96684,96900,96736
 1.0000e-001 96998 -3.5227e+000  5.5886e+000  1.1626e+000 41182 96554,96900,96972
 1.0000e-001 97021 -3.7869e+000  4.1452e+000  2.7449e+000 41182 96554,96972,96580
 1.0000e-001 97576  9.5738e+000  2.4944e+001  1.6948e+000 40678 97230,97412,97282
 1.0000e-001 97553  5.2332e+000  2.2290e+001 -3.7829e+000 40678 97204,97412,97230
 1.0000e-001 97530  4.2333e+000  2.0518e+001  1.3884e+000 40678 97282,97360,97308
 1.0000e-001 97507  4.9610e+000  2.0561e+001 -1.0503e-001 40678 97282,97412,97360
 1.0000e-001 97484 -5.9147e+000  2.1178e+001 -3.9690e+000 40678 97308,97360,97334
 1.0000e-001 97461  7.6121e+000  2.4155e+001 -1.2627e+000 40678 97360,97412,97386
 1.0000e-001 97438  6.4400e+000  2.1395e+001 -1.6250e+000 40678 97230,97282,97256
 1.0000e-001 97976 -7.4190e-002  5.3542e+000 -1.2665e-001 40244 97702,97832,97754
 1.0000e-001 97953 -1.6766e+000  5.4834e+000  1.6239e-001 40244 97702,97858,97832
 1.0000e-001 97930  1.1397e+000  8.7389e+000  1.6516e+000 40244 97702,97754,97728
 1.0000e-001 97907 -1.0614e+000  7.6019e+000 -4.8985e-002 40244 97780,97832,97806
 1.0000e-001 97884 -3.1399e+000  3.6701e+000 -8.6980e-001 40244 97754,97832,97780
 1.0000e-001 98482  7.4843e+000  1.9263e+001 -6.3874e-002 39690 98505,98185,98159
 1.0000e-001 98459  6.2697e+000  1.8356e+001 -6.2032e-001 39690 98505,98159,98289
 1.0000e-001 98436  9.0257e+000  2.1048e+001 -3.7366e+000 39690 98159,98315,98289
 1.0000e-001 98413  1.2454e+000  1.3400e+001 -4.3393e-001 39690 98211,98289,98263
 1.0000e-001 98390 -6.8309e-001  1.4583e+001  2.6495e-001 39690 98211,98263,98237
 1.0000e-001 98367 -4.9350e+000  1.7481e+001 -2.6205e+000 39690 98159,98341,98315
 1.0000e-001 98531  1.0230e+001  1.8893e+001  1.2578e+000 39690 98211,98185,98505
 1.0000e-001 98554  7.7042e+000  1.6236e+001  1.6811e-001 39690 98211,98505,98289
 1.0000e-001 99109  4.7526e-001  9.6270e+000  3.0372e-001 39072 99132,98867,98789
 1.0000e-001 99086 -2.3113e+000  9.1282e+000  5.0003e-001 39072 99132,98789,98763
 1.0000e-001 99063  3.2356e+000  1.3924e+001 -1.9376e+000 39072 98867,98945,98919
 1.0000e-001 99040  1.1007e+000  9.9510e+000  1.8191e-001 39072 98789,98867,98841
 1.0000e-001 99017  3.6331e+000  1.6255e+001 -1.8799e+000 39072 98867,98919,98893
 1.0000e-001 98994  3.0153e+000  1.0388e+001 -1.5290e+000 39072 98789,98841,98815
 1.0000e-001 98971  1.4301e+000  1.0678e+001  1.1669e+000 39072 98737,98945,98763
 1.0000e-001 99158  1.5231e+000  8.9659e+000 -2.3480e-001 39072 98945,98867,99132
 1.0000e-001 99181  3.4863e-001  9.8197e+000 -2.8228e-001 39072 98945,99132,98763
 1.0000e-001 99510 -9.4599e-001  1.0929e+001 -4.0084e-001 38668 99311,99389,99363
 1.0000e-001 99487  7.6144e-001  1.1370e+001 -7.2667e-001 38668 99285,99389,99311
 1.0000e-001 99464  4.1403e+000  1.3264e+001 -2.1081e+000 38668 99285,99415,99389
 1.0000e-001 99441 -1.1377e+000  1.1365e+001 -6.3714e-001 38668 99311,99363,99337
 1.0000e-001 99758 -9.3766e-002  1.5332e+001 -1.2138e+000 38164 99781,99611,99585
 1.0000e-001 99735 -1.5743e+000  1.5748e+001 -1.3649e+000 38164 99781,99585,99533
 1.0000e-001 99712  2.2511e-001  1.3948e+001 -1.6657e+000 38164 99611,99663,99637
 1.0000e-001 99689 -2.6602e+000  1.5257e+001  1.9872e-001 38164 99533,99585,99559
 1.0000e-001 99807  7.8243e-001  1.5340e+001 -1.6296e+000 38164 99663,99611,99781
 1.0000e-001 99830 -3.6188e-001  1.5903e+001 -1.5467e+000 38164 99663,99781,99533
 1.0000e-001 100232  3.2846e+000  1.6747e+001 -1.0444e+000 37702 99984,100114,100088
 1.0000e-001 100209  5.5295e+000  2.0463e+001 -5.6280e-002 37702 99958,100114,99984
 1.0000e-001 100186  1.0135e+001  2.2884e+001  7.1560e-001 37702 100010,100088,100036
 1.0000e-001 100163  7.0827e+000  1.8423e+001 -6.5259e-001 37702 99984,100088,100010
 1.0000e-001 100140  8.4365e+000  2.3067e+001  4.0697e+000 37702 100036,100088,100062
 1.0000e-001 100640  1.2540e+001  1.5002e+001 -1.3511e-001 37262 100493,100545,100519
 1.0000e-001 100617  9.8958e+000  1.6012e+001  4.0825e-001 37262 100441,100545,100493
 1.0000e-001 100594  5.7635e+000  1.3078e+001  2.4911e+000 37262 100415,100545,100441
 1.0000e-001 100571  1.2750e+001  2.1219e+001  2.1919e+000 37262 100441,100493,100467
 1.0000e-001 101146  1.9284e+000  6.0765e+000  1.4633e+000 36872 100823,100979,100849
 1.0000e-001 101123  3.2917e+000  9.9687e+000 -2.3495e-001 36872 100823,101005,100979
 1.0000e-001 101100  3.0544e+000  1.1703e+001 -1.8158e+000 36872 101169,100901,100849
 1.0000e-001 101077  2.3203e+000  1.0220e+001 -1.1242e+000 36872 101169,100849,100979
 1.0000e-001 101054 -8.1161e-002  1.0121e+001 -1.0286e+000 36872 100927,100979,100953
 1.0000e-001 101031  2.1691e+000  1.4678e+001 -1.8679e+000 36872 100849,100901,100875
 1.0000e-001 101195  1.8887e+000  1.2056e+001 -8.8361e-001 36872 100927,100901,101169
 1.0000e-001 101218  1.3986e+000  1.1267e+001 -2.9315e-001 36872 100927,101169,100979
 1.0000e-001 101773  2.3196e+000  1.1118e+001 -5.6171e+000 36418 101479,101609,101583
 1.0000e-001 101750  1.7555e+000  1.2312e+001 -6.5674e+000 36418 101453,101609,101479
 1.0000e-001 101727  2.6279e+000  1.3682e+001 -6.8398e-001 36418 101796,101531,101479
 1.0000e-001 101704  5.4507e+000  1.6149e+001 -3.0210e+000 36418 101796,101479,101583
 1.0000e-001 101681 -2.7515e+000  1.6398e+001  2.3253e+000 36418 101479,101531,101505
 1.0000e-001 101658 -1.6873e+000  7.2850e+000 -1.1597e+001 36418 101401,101609,101453
 1.0000e-001 101635 -5.7892e+000  9.7857e+000 -1.1057e+001 36418 101401,101453,101427
 1.0000e-001 101822  3.0183e+000  1.1697e+001  1.9552e+000 36418 101557,101531,101796
 1.0000e-001 101845  5.7098e+000  1.1650e+001 -3.8806e-001 36418 101557,101796,101583
 1.0000e-001 102174 -1.4187e-001  1.1336e+001  5.1496e-001 35914 101949,102053,101975
 1.0000e-001 102151  1.4255e+001  1.0871e+001 -1.5932e+000 35914 101949,102079,102053
 1.0000e-001 102128  5.0372e+000  1.3627e+001 -4.9190e-002 35914 101975,102053,102027
 1.0000e-001 102105  7.0785e+000  1.6802e+001 -9.2888e-001 35914 101975,102027,102001
 1.0000e-001 102631 -9.9317e-001  8.5612e+000  1.1603e-002 35574 102383,102513,102487
 1.0000e-001 102608 -3.0572e+000  1.0059e+001  1.8945e-001 35574 102357,102513,102383
 1.0000e-001 102585  1.3817e+000  1.0763e+001 -1.1026e+000 35574 102409,102487,102435
 1.0000e-001 102562  6.5165e-001  9.9654e+000 -1.4768e+000 35574 102383,102487,102409
 1.0000e-001 102539  2.1911e+000  1.2644e+001 -9.5887e-001 35574 102435,102487,102461
 1.0000e-001 103009 -2.1299e-001  6.6576e+000  8.1590e-001 35170 102761,102865,102787
 1.0000e-001 102986 -3.5221e+000  5.0349e+000 -5.0922e-001 35170 102761,102891,102865
 1.0000e-001 102963  1.7547e-002  6.9753e+000  9.2969e-001 35170 102787,102865,102813
 1.0000e-001 102940 -2.1863e+000  7.9299e+000  5.2037e-001 35170 102735,102891,102761
 1.0000e-001 102917  1.1740e+000  9.7351e+000  1.0774e+000 35170 102813,102865,102839
 1.0000e-001 103257 -2.7226e+000  1.2054e+001  3.0638e+000 34659 103280,103058,103032
 1.0000e-001 103234 -8.3442e-001  1.3300e+001  9.8955e-001 34659 103280,103032,103162
 1.0000e-001 103211  2.2435e+000  1.0984e+001  5.0988e-001 34659 103084,103162,103110
 1.0000e-001 103188  4.0412e+000  1.5485e+001  4.9842e-001 34659 103110,103162,103136
 1.0000e-001 103306  7.1052e-001  1.0557e+001  2.5571e+000 34659 103084,103058,103280
 1.0000e-001 103329  1.7960e+000  1.1784e+001  2.2302e-001 34659 103084,103280,103162
 1.0000e-001 103837 -3.2522e+000  8.3786e+000 -1.3225e+000 34247 103860,103566,103540
 1.0000e-001 103814 -1.9255e-001  9.1214e+000 -3.3750e-001 34247 103932,103860,103540
 1.0000e-001 103791  1.7247e-001  1.0131e+001  4.8872e-001 34247 103932,103540,103670
 1.0000e-001 103768 -2.5154e+000  1.0091e+001 -3.2598e-002 34247 103566,103618,103592
 1.0000e-001 103745  1.0543e+000  8.4794e+000  3.7116e-001 34247 103540,103696,103670
 1.0000e-001 103722  2.4823e+000  1.1775e+001  2.2142e-001 34247 103514,103696,103540
 1.0000e-001 103886 -5.5104e-001  1.0694e+001 -2.2721e-001 34247 103618,103566,103860
 1.0000e-001 103909 -1.8060e+000  9.5978e+000  2.8341e-001 34247 103618,103860,103644
 1.0000e-001 103958  9.7193e-002  1.1400e+001  1.0230e+000 34247 103644,103860,103932
 1.0000e-001 103981  6.4588e-001  1.2434e+001  1.9038e+000 34247 103644,103932,103670
 1.0000e-001 104300 -9.6440e-001  8.3157e+000  3.5171e-001 33843 104052,104182,104156
 1.0000e-001 104277 -2.2821e+000  8.6750e+000  5.0279e-001 33843 104026,104182,104052
 1.0000e-001 104254 -2.0020e+000  8.6409e+000 -1.2248e+000 33843 104078,104156,104130
 1.0000e-001 104231  1.2247e+000  9.5096e+000 -1.5197e-001 33843 104052,104156,104078
 1.0000e-001 104208 -6.9238e+000  1.1921e+001 -4.0808e+000 33843 104078,104130,104104
 1.0000e-001 104499 -4.7774e-001  9.7107e+000  1.0143e+000 33282 104594,104522,104375
 1.0000e-001 104476 -1.0255e+000  8.8620e+000  4.3089e-001 33282 104522,104323,104427
 1.0000e-001 104453 -1.0672e+000  1.0301e+001  9.0703e-001 33282 104594,104375,104349
 1.0000e-001 104548 -5.8120e-001  8.3371e+000  7.7103e-001 33282 104401,104375,104522
 1.0000e-001 104571 -1.0461e+000  8.4164e+000  6.9903e-002 33282 104401,104522,104427
 1.0000e-001 104620 -1.0654e+000  8.5457e+000  6.8208e-001 33282 104323,104522,104594
 1.0000e-001 104643 -1.3858e+000  9.4316e+000  6.8880e-001 33282 104323,104594,104349
 1.0000e-001 104942  1.8830e+000  1.3051e+001 -7.4026e-001 32728 104694,104772,104720
 1.0000e-001 104919  1.6304e+000  1.2971e+001 -7.6567e-001 32728 104694,104824,104772
 1.0000e-001 104896  2.2815e+000  1.2633e+001 -8.1480e-001 32728 104720,104772,104746
 1.0000e-001 104873  7.5617e-001  1.4933e+001 -9.3072e-001 32728 104772,104824,104798
 1.0000e-001 104850  5.9408e-001  1.4746e+001  4.9338e-001 32728 104668,104824,104694
 1.0000e-001 105373  9.9509e+000  2.1203e+001 -2.6590e-001 32274 105396,105102,105076
 1.0000e-001 105350  9.3874e+000  2.3461e+001 -7.7418e-001 32274 105396,105076,105206
 1.0000e-001 105327  1.0361e+001  2.3452e+001 -3.8299e+000 32274 105154,105206,105180
 1.0000e-001 105304  6.4827e+000  2.2340e+001 -6.3228e-001 32274 105076,105232,105206
 1.0000e-001 105281  1.1424e+001  1.9521e+001  2.1152e+000 32274 105102,105154,105128
 1.0000e-001 105258  7.9589e+000  2.7027e+001  3.9723e-001 32274 105050,105232,105076
 1.0000e-001 105422  1.0088e+001  1.8856e+001 -6.1554e-001 32274 105154,105102,105396
 1.0000e-001 105445  9.7069e+000  2.1362e+001 -9.3353e-001 32274 105154,105396,105206
 1.0000e-001 105644 -1.7929e-001  8.4713e+000  6.2054e-001 31620 105468,105546,105520
 1.0000e-001 105621  5.8653e-001  1.0787e+001  3.1895e-001 31620 105468,105572,105546
 1.0000e-001 105598  1.0023e+000  1.1129e+001  8.3541e-001 31620 105468,105520,105494
 1.0000e-001 105794  6.7505e+000  2.2811e+001  1.9643e-002 31158 105889,105817,105693
 1.0000e-001 105771  6.0109e+000  2.2871e+001  1.9478e-001 31158 105817,105667,105745
 1.0000e-001 105843  6.2502e+000  2.3293e+001 -4.5651e-001 31158 105719,105693,105817
 1.0000e-001 105866  5.0202e+000  2.2876e+001 -9.0983e-002 31158 105719,105817,105745
 1.0000e-001 105915  6.1828e+000  2.2568e+001  1.3397e-002 31158 105667,105817,105889
 1.0000e-001 106270  7.6300e+000  1.4866e+001 -3.0740e-001 30818 106293,106071,106045
 1.0000e-001 106247  7.1899e+000  1.3757e+001  7.7776e-001 30818 106293,106045,106175
 1.0000e-001 106224  4.7622e+000  1.5428e+001  4.4798e-001 30818 106123,106175,106149
 1.0000e-001 106201  8.2819e+000  1.5948e+001  1.7770e-001 30818 106071,106123,106097
 1.0000e-001 106319  6.4997e+000  1.5271e+001  3.6763e-001 30818 106123,106071,106293
 1.0000e-001 106342  5.7670e+000  1.4614e+001  1.2761e+000 30818 106123,106293,106175
 1.0000e-001 106492  6.3025e+000  2.2064e+001 -2.5694e+000 30414 106645,106391,106365
 1.0000e-001 106469  1.4794e+001  2.1636e+001 -5.0290e+000 30414 106515,106365,106443
 1.0000e-001 106541  1.0059e+001  1.9481e+001 -1.1274e+000 30414 106645,106365,106515
 1.0000e-001 106671  1.0289e+001  2.5449e+001 -3.9476e-001 30414 106417,106391,106645
 1.0000e-001 106694  1.4982e+001  2.2466e+001  5.7566e-001 30414 106417,106645,106515
 1.0000e-001 106942 -1.5641e+000  1.3195e+001  3.9720e-001 29910 106965,106795,106769
 1.0000e-001 106919  6.0448e-002  1.1055e+001  5.1041e-002 29910 106965,106769,106717
 1.0000e-001 106896 -3.3529e+000  8.6736e+000  1.8796e+000 29910 106795,106847,106821
 1.0000e-001 106873 -1.9087e-001  1.0872e+001 -4.4296e-001 29910 106717,106769,106743
 1.0000e-001 106991 -1.9594e+000  1.1616e+001  6.3000e-001 29910 106847,106795,106965
 1.0000e-001 107014 -1.0331e+000  8.5564e+000  5.3634e-001 29910 106847,106965,106717
 1.0000e-001 107213  2.1672e+000  1.4264e+001 -4.7342e-001 29413 107236,107063,107037
 1.0000e-001 107190  3.0200e+000  1.6680e+001 -1.4184e+000 29413 107236,107037,107141
 1.0000e-001 107167  9.7468e-002  1.1201e+001  6.5828e-002 29413 107063,107115,107089
 1.0000e-001 107262  2.5777e+000  1.2330e+001  4.5194e-001 29413 107115,107063,107236
 1.0000e-001 107285  3.1099e+000  1.4229e+001 -5.0299e-001 29413 107115,107236,107141
 1.0000e-001 107486  2.6568e+000  1.2190e+001 -4.8237e-001 29009 107336,107388,107362
 1.0000e-001 107463  2.4744e+000  1.2165e+001 -1.0880e+000 29009 107310,107388,107336
 1.0000e-001 107440  1.5583e+000  1.1195e+001 -7.0815e-001 29009 107310,107414,107388
 1.0000e-001 107736  1.6623e+000  1.1374e+001 -4.9668e-001 28491 107537,107615,107563
 1.0000e-001 107713  9.0840e-001  1.0939e+001 -1.0304e+000 28491 107537,107641,107615
 1.0000e-001 107690  1.6539e+000  1.1411e+001 -4.9527e-001 28491 107563,107615,107589
 1.0000e-001 107667  2.6969e+000  1.2329e+001 -3.7585e-001 28491 107511,107641,107537
 1.0000e-001 108118 -1.6898e-001  9.4593e+000 -7.7458e-001 27980 108141,107922,107844
 1.0000e-001 108095 -1.0065e+000  1.0645e+001 -6.9268e-001 27980 108141,107844,108000
 1.0000e-001 108072 -5.3515e-001  8.7284e+000 -2.8249e-002 27980 107844,107922,107870
 1.0000e-001 108049 -1.9789e-002  9.5598e+000 -2.4635e-001 27980 107870,107922,107896
 1.0000e-001 108026  4.3714e-001  7.7805e+000 -2.4479e+000 27980 107922,107974,107948
 1.0000e-001 108167 -7.9091e-001  9.5887e+000 -1.0695e+000 27980 107974,107922,108141
 1.0000e-001 108190 -3.0402e+000  9.4999e+000 -1.3453e+000 27980 107974,108141,108000
 1.0000e-001 108745  3.4307e+000  1.1787e+001 -3.7066e-001 27376 108840,108768,108477
 1.0000e-001 108722  4.4444e+000  1.1186e+001  1.0394e+000 27376 108768,108373,108581
 1.0000e-001 108699  4.3711e+000  1.1217e+001 -1.8662e+000 27376 108840,108477,108451
 1.0000e-001 108676  9.6132e+000  1.1822e+001  1.7520e+000 27376 108373,108451,108399
 1.0000e-001 108653  5.1337e+000  1.7643e+001 -5.4687e-002 27376 108503,108581,108529
 1.0000e-001 108630  2.6980e+000  1.7496e+001  6.5323e-001 27376 108529,108581,108555
 1.0000e-001 108607  1.1106e+001  1.3169e+001 -2.7494e-001 27376 108399,108451,108425
 1.0000e-001 108794  4.2629e+000  1.4387e+001 -5.8034e-001 27376 108503,108477,108768
 1.0000e-001 108817  3.6260e+000  1.3150e+001 -1.0459e-002 27376 108503,108768,108581
 1.0000e-001 108866  6.5345e+000  1.3274e+001  1.2483e-001 27376 108373,108768,108840
 1.0000e-001 108889  6.4615e+000  1.2254e+001 -1.3867e+000 27376 108373,108840,108451
 1.0000e-001 109186  3.4111e+000  1.4203e+001 -1.3175e+000 26722 109209,108938,108912
 1.0000e-001 109163  2.8385e+000  1.2696e+001 -7.7892e-001 26722 109281,109209,108912
 1.0000e-001 109140  2.7602e+000  1.2601e+001 -7.4397e-001 26722 109281,108912,109042
 1.0000e-001 109117  3.2390e+000  1.5293e+001 -1.4617e-002 26722 108938,108990,108964
 1.0000e-001 109094  2.2590e+000  1.2719e+001 -7.8388e-001 26722 108912,109068,109042
 1.0000e-001 109235  2.7940e+000  1.3082e+001 -3.3123e-001 26722 108990,108938,109209
 1.0000e-001 109258  3.0691e+000  1.2107e+001 -1.9027e-001 26722 108990,109209,109016
 1.0000e-001 109307  2.6810e+000  1.2824e+001 -6.1661e-001 26722 109016,109209,109281
 1.0000e-001 109330  2.5587e+000  1.2664e+001 -5.6331e-001 26722 109016,109281,109042
 1.0000e-001 109732 -6.5114e+000  5.7510e+000  1.8047e+000 26310 109458,109588,109484
 1.0000e-001 109709 -2.8494e+000  1.1507e+001 -1.4212e-001 26310 109458,109614,109588
 1.0000e-001 109686  2.6223e+000  8.5231e+000 -1.5150e+000 26310 109510,109562,109536
 1.0000e-001 109663  1.7987e+000  7.3604e+000 -1.7549e-001 26310 109484,109562,109510
 1.0000e-001 109640 -1.9494e+000  7.9255e+000  1.1628e+000 26310 109484,109588,109562
 1.0000e-001 110159  5.4463e+000  1.4174e+001 -3.1605e-001 25642 110182,109940,109914
 1.0000e-001 110136  5.2412e+000  1.4015e+001 -5.9460e-001 25642 110182,109914,109888
 1.0000e-001 110113  6.6971e+000  1.4360e+001  2.1703e+000 25642 109966,110018,109992
 1.0000e-001 110090  4.4434e+000  1.4383e+001 -3.9246e-001 25642 110254,109966,109940
 1.0000e-001 110067  5.7038e+000  1.3966e+001 -8.0709e-001 25642 109862,110018,109888
 1.0000e-001 110044  8.4019e+000  1.3098e+001 -1.3632e+000 25642 109836,110018,109862
 1.0000e-001 110208  5.0296e+000  1.4065e+001 -4.2788e-001 25642 110254,109940,110182
 1.0000e-001 110231  6.0541e+000  1.4198e+001 -5.7958e-001 25642 110018,110182,109888
 1.0000e-001 110280  5.1470e+000  1.4608e+001 -2.1554e-001 25642 110018,109966,110254
 1.0000e-001 110303  5.7463e+000  1.4330e+001 -2.0494e-001 25642 110018,110254,110182
 1.0000e-001 110632  4.9548e+000  9.7077e+000 -9.9462e-001 25188 110407,110485,110433
 1.0000e-001 110609  5.3498e+000  1.2066e+001 -1.4253e+000 25188 110407,110537,110485
 1.0000e-001 110586  5.2454e+000  9.9812e+000  1.0960e+000 25188 110433,110485,110459
 1.0000e-001 110563  6.2452e+000  1.6803e+001 -3.7535e+000 25188 110485,110537,110511
 1.0000e-001 110831  2.2175e+000  1.1822e+001 -7.6344e-001 24726 110854,110707,110655
 1.0000e-001 110808  2.0139e+000  1.1959e+001 -9.3067e-001 24726 110854,110655,110759
 1.0000e-001 110785  2.6270e+000  1.1311e+001 -1.1943e+000 24726 110655,110707,110681
 1.0000e-001 110880  2.0740e+000  1.1691e+001 -8.6213e-001 24726 110733,110707,110854
 1.0000e-001 110903  1.8359e+000  1.1746e+001 -1.0468e+000 24726 110733,110854,110759
 1.0000e-001 111234 -1.9369e+000  5.9294e+000  2.4479e-001 24222 111257,111087,111035
 1.0000e-001 111211 -3.9224e+000  5.0563e+000 -9.0426e-001 24222 111257,111035,111009
 1.0000e-001 111188 -4.3721e+000  2.8174e+000  1.5833e+000 24222 111035,111087,111061
 1.0000e-001 111165 -1.6717e+000  3.4951e+000 -1.2288e+000 24222 111087,111139,111113
 1.0000e-001 111283 -7.9141e-001  4.2377e+000 -5.7588e-001 24222 111139,111087,111257
 1.0000e-001 111306 -1.6154e+000  3.1630e+000 -1.3092e+000 24222 111139,111257,111009
 1.0000e-001 111625  7.4488e+000  1.8598e+001  5.5749e-001 23732 111648,111481,111455
 1.0000e-001 111602  7.2623e+000  1.8777e+001  6.8843e-001 23732 111648,111455,111377
 1.0000e-001 111579  3.8869e+000  1.3135e+001 -1.5471e+000 23732 111377,111429,111403
 1.0000e-001 111556  5.9308e+000  1.8625e+001  4.5425e-001 23732 111377,111455,111429
 1.0000e-001 111533  6.4934e+000  1.7809e+001  2.2277e-001 23732 111351,111507,111377
 1.0000e-001 111674  7.0932e+000  1.8187e+001  3.3795e-001 23732 111507,111481,111648
 1.0000e-001 111697  7.2586e+000  1.8655e+001  5.4257e-001 23732 111507,111648,111377
 1.0000e-001 112156  1.5020e+000  1.1989e+001 -7.6282e-002 23278 112179,111908,111882
 1.0000e-001 112133  1.1839e+000  1.1384e+001 -2.3446e-001 23278 112179,111882,112012
 1.0000e-001 112110  1.0108e+000  1.3769e+001  1.4606e-001 23278 111908,111960,111934
 1.0000e-001 112087 -5.3428e-001  1.0490e+001  4.1912e-001 23278 111882,112038,112012
 1.0000e-001 112064  1.3379e+000  1.0702e+001  5.5204e-002 23278 111960,112012,111986
 1.0000e-001 112205  1.7023e+000  1.1846e+001  3.7264e-001 23278 111960,111908,112179
 1.0000e-001 112228  1.4583e+000  1.1269e+001  2.3825e-001 23278 111960,112179,112012
 1.0000e-001 112685  1.2562e+001  2.3586e+001  2.1406e+000 22938 112489,112567,112541
 1.0000e-001 112662  1.2839e+001  2.3527e+001  2.9762e+000 22938 112437,112567,112489
 1.0000e-001 112639  9.5049e+000  1.9752e+001  7.9125e-001 22938 112489,112541,112515
 1.0000e-001 112616  1.3667e+001  2.0090e+001  1.8220e+000 22938 112411,112567,112437
 1.0000e-001 112593  1.1941e+001  2.9477e+001  1.2942e+000 22938 112437,112489,112463
 1.0000e-001 113191 -8.6048e-001  9.6341e+000  9.1434e-001 22534 113214,112998,112946
 1.0000e-001 113168  4.3833e-001  9.3668e+000  3.5830e-001 22534 113286,113214,112946
 1.0000e-001 113145  2.1376e-001  9.3115e+000  3.5491e-001 22534 113286,112946,112920
 1.0000e-001 113122  2.0634e+000  9.0279e+000  9.6322e-001 22534 113358,113024,112998
 1.0000e-001 113099  1.9635e+000  1.0513e+001  6.6355e-001 22534 112868,113050,112894
 1.0000e-001 113076 -2.4932e+000  1.4684e+001  7.3576e-001 22534 112946,112998,112972
 1.0000e-001 113240  1.3318e+000  1.0238e+001  1.0638e+000 22534 113358,112998,113214
 1.0000e-001 113263  4.7975e-001  9.8117e+000  1.7958e-001 22534 113050,113214,112894
 1.0000e-001 113312  5.0933e-002  9.6067e+000  3.3226e-001 22534 112894,113214,113286
 1.0000e-001 113335 -2.7477e-001  9.4667e+000  3.9247e-001 22534 112894,113286,112920
 1.0000e-001 113384  1.1332e+000  8.2646e+000  5.0021e-001 22534 113050,113024,113358
 1.0000e-001 113407 -3.2143e-002  9.1357e+000  5.1137e-001 22534 113050,113358,113214
 1.0000e-001 113785  8.6893e+000  1.8638e+001 -5.0754e-001 21978 113808,113615,113511
 1.0000e-001 113762  7.4817e+000  1.9661e+001 -2.1865e+000 21978 113808,113511,113667
 1.0000e-001 113739  6.2426e+000  1.5479e+001  5.5915e-001 21978 113511,113615,113537
 1.0000e-001 113716  1.6827e+000  1.3796e+001  6.0746e-001 21978 113537,113615,113589
 1.0000e-001 113693  2.8540e+000  2.0022e+001 -4.4679e-001 21978 113537,113589,113563
 1.0000e-001 113834  8.5474e+000  1.7857e+001 -1.8728e+000 21978 113641,113615,113808
 1.0000e-001 113857  5.1498e+000  1.6693e+001 -3.8524e+000 21978 113641,113808,113667
 1.0000e-001 114284  4.6660e+000  1.3279e+001 -2.6688e-001 21517 114013,114117,114039
 1.0000e-001 114261  3.5929e+000  1.2772e+001 -4.2558e-001 21517 113961,114117,114013
 1.0000e-001 114238  5.4601e+000  1.4799e+001  3.5011e-001 21517 113961,114013,113987
 1.0000e-001 114215  7.0907e+000  1.3773e+001  9.6256e-001 21517 114039,114117,114091
 1.0000e-001 114192  2.2155e+000  1.3038e+001  3.5369e-001 21517 113961,114143,114117
 1.0000e-001 114169  3.3542e-001  1.1633e+001  1.3083e+000 21517 114039,114091,114065
 1.0000e-001 114581  6.7994e+000  2.3020e+001  1.8976e-001 21027 114359,114463,114437
 1.0000e-001 114558  7.1915e+000  2.1775e+001 -2.2360e+000 21027 114333,114463,114359
 1.0000e-001 114535  6.4002e+000  2.3331e+001  2.1720e-001 21027 114359,114437,114385
 1.0000e-001 114512  5.2578e+000  2.1255e+001 -1.2498e+000 21027 114307,114463,114333
 1.0000e-001 114489  2.9029e+000  2.0348e+001  1.5885e+000 21027 114385,114437,114411
 1.0000e-001 114912  7.4161e+000  1.4516e+001  2.5566e-001 20623 114713,114791,114765
 1.0000e-001 114889  3.1317e+000  1.2712e+001  1.7025e+000 20623 114687,114791,114713
 1.0000e-001 114866  5.5582e+000  1.6530e+001  5.2407e-001 20623 114687,114817,114791
 1.0000e-001 114843  8.2851e+000  1.5617e+001 -1.2148e-001 20623 114713,114765,114739
 1.0000e-001 115290  2.9780e+000  1.2766e+001 -8.8781e-002 20375 115313,115146,115094
 1.0000e-001 115267  3.4496e+000  1.1459e+001 -4.0044e-001 20375 115313,115094,115042
 1.0000e-001 115244  3.7127e+000  1.3901e+001 -2.0076e-001 20375 115385,115016,115172
 1.0000e-001 115221 -5.0199e-001  9.9756e+000 -2.7238e-001 20375 115042,115094,115068
 1.0000e-001 115198  3.1995e+000  1.3553e+001 -3.2524e-001 20375 115094,115146,115120
 1.0000e-001 115339  3.3255e+000  1.2963e+001 -9.4000e-003 20375 115172,115146,115313
 1.0000e-001 115362  3.1558e+000  1.3285e+001 -4.4256e-001 20375 115385,115172,115313
 1.0000e-001 115411  4.7299e+000  1.3507e+001  5.5504e-001 20375 115042,115016,115385
 1.0000e-001 115434  4.1414e+000  1.2677e+001  2.9826e-001 20375 115042,115385,115313
 1.0000e-001 115891  3.6547e+000  7.9728e+000 -5.7594e-001 19971 115617,115747,115643
 1.0000e-001 115868  2.5461e+000  5.7584e+000 -1.2045e+000 19971 115617,115773,115747
 1.0000e-001 115845  1.6892e+000  1.3656e+001 -4.8810e-001 19971 115643,115721,115695
 1.0000e-001 115822 -1.9355e+000  6.1346e+000  6.1144e-001 19971 115643,115747,115721
 1.0000e-001 115799 -2.0775e+000  1.4857e+001  2.2304e-001 19971 115643,115695,115669
 1.0000e-001 115992  8.1463e+000  3.0581e+001  8.1672e+000 19659 115914,115966,115940
 1.0000e-001 116142 -5.6633e+000  3.6950e+000 -4.2792e-001 18997 116041,116093,116067
 1.0000e-001 116119 -5.8384e+000  3.9670e+000 -1.4321e+000 18997 116015,116093,116041
 1.0000e-001 116343 -5.9348e-001  1.1052e+001  2.9455e-001 18707 116193,116245,116219
 1.0000e-001 116320 -1.4360e-001  1.0983e+001 -1.3842e-002 18707 116193,116271,116245
 1.0000e-001 116297  4.2172e-001  1.0816e+001  1.4684e+000 18707 116167,116271,116193
 1.0000e-001 116747  1.3534e+000  1.1334e+001  3.5077e-001 18301 116525,116629,116551
 1.0000e-001 116724  1.6804e+000  9.8142e+000  1.9108e-001 18301 116473,116629,116525
 1.0000e-001 116701  1.4806e+000  1.0259e+001  1.2712e+000 18301 116473,116525,116499
 1.0000e-001 116678  5.8431e-001  1.1472e+001  2.0029e-001 18301 116551,116603,116577
 1.0000e-001 116655  1.7663e+000  1.2307e+001  5.7249e-001 18301 116551,116629,116603
 1.0000e-001 117147  1.2216e+001  2.3535e+001  1.0233e+000 17747 116899,117029,116925
 1.0000e-001 117124  8.1613e+000  1.7325e+001 -1.3200e+000 17747 116873,117029,116899
 1.0000e-001 117101  1.1139e+001  2.1183e+001  6.1376e-001 17747 116925,117029,116951
 1.0000e-001 117078  1.0640e+001  1.9066e+001 -4.5686e-002 17747 116951,117029,117003
 1.0000e-001 117055  1.4044e+001  2.2488e+001  1.3319e+000 17747 116951,117003,116977
 1.0000e-001 117368 -2.0664e+000  1.1135e+001 -4.2089e-001 17293 117244,117296,117270
 1.0000e-001 117345 -2.4746e-001  1.1977e+001  1.4116e-001 17293 117192,117296,117244
 1.0000e-001 117322  1.0390e+000  1.1111e+001  1.3144e-001 17293 117192,117244,117218
 1.0000e-001 117699  1.7212e+000  1.1859e+001 -5.6666e-002 16896 117526,117604,117552
 1.0000e-001 117676  4.3993e+000  1.3073e+001 -7.8728e-001 16896 117500,117604,117526
 1.0000e-001 117653  5.2707e+000  9.6578e+000  1.8584e+000 16896 117552,117604,117578
 1.0000e-001 117630  3.5351e+000  1.6958e+001 -1.6106e+000 16896 117474,117604,117500
 1.0000e-001 117849 -8.1678e+000  1.4692e+001  2.6914e+000 16534 117722,117774,117748
 1.0000e-001 117826 -2.8335e+000  3.5202e+001  2.8716e+000 16534 117722,117800,117774
 1.0000e-001 118070  2.3999e+000  1.1989e+001 -8.8860e-001 16194 117946,117998,117972
 1.0000e-001 118047  3.4515e+000  1.3635e+001 -4.3723e-001 16194 117894,117998,117946
 1.0000e-001 118024  4.3978e+000  1.2789e+001  3.1310e-001 16194 117894,117946,117920
 1.0000e-001 118173  6.6869e+000  2.4172e+001  0.0000e+000 15968 118095,118147,118121
 1.0000e-001 118276  5.5343e+000  1.5189e+001  6.5756e-001 15433 118299,118198,118250
 1.0000e-001 118325  4.9230e+000  1.3763e+001  6.7152e-001 15433 118224,118198,118299
 1.0000e-001 118450  1.0051e+001  2.3243e+001 -3.5237e+000 421 118372,118424,118398
 2.0000e-001 69891  3.9857e-001  3.5322e+001  4.9989e-001 68988 69447,69681,69629
 2.0000e-001 69868 -2.0640e+001  2.6327e+001  4.2450e-001 68988 69421,69681,69447
 2.0000e-001 69845 -4.0478e+000  1.8562e+001  6.5139e-001 68988 69447,69629,69577
 2.0000e-001 69822  8.9220e+000  3.9734e+001  6.1433e+000 68988 69447,69577,69473
 2.0000e-001 69799 -1.0473e+001  4.2700e+001 -1.0695e+001 68988 69629,69681,69655
 2.0000e-001 69776  4.4628e+000  2.1905e+001  2.2658e+000 68988 69577,69629,69603
 2.0000e-001 69753  5.7522e-001  3.1471e+001  1.3264e+001 68988 69473,69577,69551
 2.0000e-001 69730  9.0236e+000  1.0492e+002  1.5639e+001 68988 69473,69551,69525
 2.0000e-001 69707  1.0192e+001  5.5424e+001  1.2970e-001 68988 69473,69525,69499
 2.0000e-001 69992  1.8007e+001  2.3407e+001 -8.2387e+000 68676 69914,69966,69940
 2.0000e-001 70392  9.0857e-001  1.3482e+001 -1.0606e+000 68478 70118,70248,70144
 2.0000e-001 70369  1.4110e+001  1.3494e+001  2.7382e+000 68478 70118,70274,70248
 2.0000e-001 70346 -9.2163e+000  9.4797e+000 -1.7224e+000 68478 70144,70222,70196
 2.0000e-001 70323 -9.4142e+000  7.1878e+000  2.7920e+000 68478 70144,70248,70222
 2.0000e-001 70300 -5.7353e+000  1.1709e+001 -3.0473e-001 68478 70144,70196,70170
 2.0000e-001 70841  1.3387e+001  1.3628e+001 -7.5722e+000 68280 70570,70622,70596
 2.0000e-001 70818 -1.3802e+001  5.9106e+000  5.0506e-001 68280 70544,70622,70570
 2.0000e-001 70795 -1.4991e+001  9.7241e-001  1.6209e+000 68280 70544,70674,70622
 2.0000e-001 70772 -2.3484e+001  6.4030e+000  6.2676e+000 68280 70622,70674,70648
 2.0000e-001 70749 -7.9445e+000  6.5050e+000 -8.2466e-001 68280 70518,70674,70544
 2.0000e-001 70726 -2.3218e+000  1.1031e+001  1.3540e+000 68280 70518,70700,70674
 2.0000e-001 70991 -1.9174e+001  2.3508e+001 -3.3662e-001 67968 70864,70916,70890
 2.0000e-001 70968 -2.1380e+001  1.1807e+001 -1.1058e+001 67968 70864,70942,70916
 2.0000e-001 71141 -8.5886e+001 -6.0678e+001  3.1457e+001 67770 71040,71092,71066
 2.0000e-001 71118 -9.6100e+001 -2.0508e+001  1.1778e+001 67770 71014,71092,71040
 2.0000e-001 71651 -2.0660e+000  1.9673e+001  2.4690e+000 67366 71746,71674,71458
 2.0000e-001 71628 -6.7521e+000  9.6430e+000  4.5672e+000 67366 71674,71354,71510
 2.0000e-001 71605 -3.9955e+000  2.4371e+001  2.0969e+000 67366 71746,71458,71432
 2.0000e-001 71582  7.0287e-001  2.4526e+001 -4.7019e+000 67366 71354,71432,71380
 2.0000e-001 71559 -7.2050e+000  2.2064e+001 -3.7696e+000 67366 71380,71432,71406
 2.0000e-001 71536 -1.3415e+001  1.5718e+001  6.3175e+000 67366 71328,71510,71354
 2.0000e-001 71700 -1.0742e+000  1.6218e+001 -4.0270e-001 67366 71484,71458,71674
 2.0000e-001 71723 -3.6024e+000  1.5591e+001  1.1155e+000 67366 71484,71674,71510
 2.0000e-001 71772 -4.4939e+000  1.4062e+001  1.2866e+000 67366 71354,71674,71746
 2.0000e-001 71795 -6.3749e+000  1.8393e+001  1.4312e+000 67366 71354,71746,71432
 2.0000e-001 71896  8.9414e+000  5.4321e+001  0.0000e+000 67146 71818,71870,71844
 2.0000e-001 71997 -9.2048e+001 -3.8348e+001 -1.6591e+001 66948 71919,71971,71945
 2.0000e-001 72149  6.7310e+000  2.7885e+001 -2.6849e+000 66700 72172,72074,72048
 2.0000e-001 72126  2.5145e+000  2.6594e+001 -1.8076e+000 66700 72172,72048,72022
 2.0000e-001 72198  6.4443e+000  3.9743e+001 -5.5771e+000 66700 72244,72172,72100
 2.0000e-001 72221 -1.2940e+000  3.3827e+001 -5.0193e-001 66700 72100,72172,72022
 2.0000e-001 72270 -1.6491e+000  2.0799e+001 -5.7383e+000 66700 72074,72172,72244
 2.0000e-001 72623 -7.1470e+000  2.4146e+001 -4.0976e-002 66502 72424,72502,72450
 2.0000e-001 72600 -8.8655e+000  1.9508e+001  1.7199e-001 66502 72398,72502,72424
 2.0000e-001 72577 -1.2637e+001  2.4413e+001  1.6091e+000 66502 72398,72528,72502
 2.0000e-001 72554 -5.0670e+000  2.0359e+001  8.3717e-001 66502 72450,72502,72476
 2.0000e-001 72920 -4.3842e+000  1.6422e+001  2.9005e+000 65941 72672,72776,72750
 2.0000e-001 72897 -1.5789e+001  1.5625e+001  3.0120e+000 65941 72646,72776,72672
 2.0000e-001 72874  1.5552e+000  1.9404e+001  1.8752e+000 65941 72672,72750,72724
 2.0000e-001 72851  9.4895e-001  1.3574e+001  1.2945e+000 65941 72672,72724,72698
 2.0000e-001 72828 -2.2764e+001  3.0300e+001 -1.9587e+000 65941 72646,72802,72776
 2.0000e-001 73241  3.1521e+000  1.6636e+001  3.0584e+000 65743 73264,73071,73045
 2.0000e-001 73218  4.2452e+000  1.8533e+001  1.1994e+000 65743 73480,73264,73045
 2.0000e-001 73195 -2.2864e+000  1.9473e+001  1.3083e+000 65743 73336,72967,73097
 2.0000e-001 73172 -6.4028e-002  1.7098e+001  3.6042e+000 65743 73408,72993,72967
 2.0000e-001 73149 -6.2333e+000  1.8285e+001  7.9526e-001 65743 72967,73123,73097
 2.0000e-001 73290 -9.9493e-001  1.5423e+001  8.2913e-001 65743 73097,73071,73264
 2.0000e-001 73313 -3.0272e+000  1.6782e+001  1.9248e+000 65743 73336,73097,73264
 2.0000e-001 73362 -1.5856e+000  1.8533e+001  3.1964e+000 65743 73408,72967,73336
 2.0000e-001 73385 -4.3820e+000  1.6463e+001  3.2468e+000 65743 73019,73336,73264
 2.0000e-001 73434 -2.6959e+000  1.1515e+001  2.6665e+000 65743 73019,72993,73408
 2.0000e-001 73457 -3.7869e+000  1.5138e+001  2.2261e+000 65743 73019,73408,73336
 2.0000e-001 73506 -4.2338e+000  6.4017e+000  5.1751e+000 65743 73019,73264,73480
 2.0000e-001 73989 -1.1489e+001  1.0691e+001 -1.4749e+000 65453 73793,73845,73819
 2.0000e-001 73966 -4.7476e+000  1.1418e+001 -2.6534e+000 65453 73741,73845,73793
 2.0000e-001 73943 -1.0836e+001  6.5906e+000 -1.7560e-001 65453 73715,73845,73741
 2.0000e-001 73920 -4.1538e+000  2.7505e+001 -5.0963e+000 65453 73741,73793,73767
 2.0000e-001 73897 -1.3159e+001  4.6068e+000  1.4621e+000 65453 73715,73871,73845
 2.0000e-001 74357 -1.3312e+001  2.0232e+001 -1.3736e+000 65141 74380,74138,74086
 2.0000e-001 74334 -1.5338e+001  2.0611e+001  6.5823e-001 65141 74380,74086,74060
 2.0000e-001 74311 -1.6074e+001  2.5237e+001 -1.5236e+000 65141 74138,74190,74164
 2.0000e-001 74288 -1.5215e+001  2.8951e+001  3.0560e+000 65141 74060,74216,74190
 2.0000e-001 74265 -1.3438e+001  3.4691e+001 -2.8790e+000 65141 74034,74216,74060
 2.0000e-001 74242 -1.8034e+001  9.1551e-001 -9.9721e+000 65141 74086,74138,74112
 2.0000e-001 74406 -1.6467e+001  1.9776e+001 -1.4273e+000 65141 74190,74138,74380
 2.0000e-001 74429 -1.6615e+001  2.0350e+001  2.8477e-001 65141 74190,74380,74060
 2.0000e-001 74937  1.2585e+001  8.5452e+000 -3.4083e+000 64737 74614,74666,74640
 2.0000e-001 74914 -5.2718e-001  1.0656e+001 -7.4389e-001 64737 74614,74796,74666
 2.0000e-001 74891 -1.1800e+001  7.1998e+000 -5.2281e+000 64737 74960,74718,74666
 2.0000e-001 74868 -8.8826e+000  1.3209e+001 -1.0081e+000 64737 74960,74666,74770
 2.0000e-001 74845 -2.2025e+000  5.5001e+000  2.0589e+000 64737 74666,74796,74770
 2.0000e-001 74822 -2.9585e+001  1.9327e+001 -1.4532e+001 64737 74666,74718,74692
 2.0000e-001 74986 -1.3921e+001  1.2992e+001  2.6722e-001 64737 74744,74718,74960
 2.0000e-001 75009 -5.8412e+000  2.3015e+001  5.5363e+000 64737 74744,74960,74770
 2.0000e-001 75306  6.9543e+000  2.4856e+001 -1.3222e+000 64133 75329,75110,75084
 2.0000e-001 75283  5.5504e+000  2.5763e+001 -5.8886e-001 64133 75401,75329,75084
 2.0000e-001 75260  7.9684e+000  2.7604e+001  6.9194e-001 64133 75401,75084,75058
 2.0000e-001 75237  5.8402e+000  3.2455e+001 -6.3616e+000 64133 75473,75136,75110
 2.0000e-001 75214 -2.3365e+000  2.9612e+001 -2.6095e+000 64133 75032,75188,75162
 2.0000e-001 75355  8.8368e+000  2.8598e+001 -4.3307e+000 64133 75473,75110,75329
 2.0000e-001 75378  2.9024e+000  2.4337e+001 -2.0991e+000 64133 75162,75329,75032
 2.0000e-001 75427  2.8654e+000  2.3447e+001  3.9796e-001 64133 75032,75329,75401
 2.0000e-001 75450  1.0101e+001  3.0099e+001 -2.3335e+000 64133 75545,75401,75058
 2.0000e-001 75499 -1.1965e+000  2.7932e+001 -4.1121e+000 64133 75162,75136,75473
 2.0000e-001 75522  3.7508e+000  2.4243e+001 -2.4153e+000 64133 75162,75473,75329
 2.0000e-001 75571  2.1437e+000  1.2061e+001 -7.6275e-001 64133 75032,75401,75545
 2.0000e-001 75851 -2.4419e+000  1.9807e+001 -4.2441e+000 63843 75874,75753,75727
 2.0000e-001 75828 -6.1757e+000  1.7084e+001 -2.9192e-001 63843 75946,75874,75727
 2.0000e-001 75805 -5.7344e+000  1.4223e+001  1.0119e+000 63843 76018,75946,75727
 2.0000e-001 75900 -7.5749e+000  1.7652e+001 -4.9058e-001 63843 75779,75753,75874
 2.0000e-001 75923 -7.0202e+000  1.0215e+001  3.5383e+000 63843 75779,75874,75675
 2.0000e-001 75972 -3.7791e+000  1.6242e+001 -2.8359e-001 63843 75675,75874,75946
 2.0000e-001 75995  2.4305e-001  1.8192e+001 -2.6823e+000 63843 75675,75946,75701
 2.0000e-001 76044 -3.8836e+000  1.9971e+001 -7.8123e-001 63843 75701,75946,76018
 2.0000e-001 76454 -2.2396e+001  4.8778e-001  1.1044e+001 63439 76477,76255,76229
 2.0000e-001 76431 -1.4093e+001  1.5683e+001  6.7107e+000 63439 76477,76229,76359
 2.0000e-001 76408 -3.1281e+000  1.7699e+001 -1.5975e+000 63439 76307,76359,76333
 2.0000e-001 76385 -7.6676e+000  2.1154e+000 -5.1464e+000 63439 76255,76307,76281
 2.0000e-001 76503 -1.5717e+001  1.1680e+001  1.7499e+000 63439 76307,76255,76477
 2.0000e-001 76526 -1.5012e+001  1.8033e+001 -1.1364e+000 63439 76307,76477,76359
 2.0000e-001 76926 -5.3138e+000  2.0959e+001  7.9663e-001 63049 76704,76782,76756
 2.0000e-001 76903  2.9851e+000  2.4085e+001  2.3430e+000 63049 76704,76808,76782
 2.0000e-001 76880 -4.7512e+000  2.7525e+001 -6.5359e-001 63049 76704,76756,76730
 2.0000e-001 76857 -1.2664e+001  8.9337e+000 -4.0195e+000 63049 76678,76808,76704
 2.0000e-001 76834 -1.9835e+001  9.5837e+000 -3.9047e+000 63049 76652,76808,76678
 2.0000e-001 77076 -9.6836e+000  1.3460e+001  3.4675e-001 62737 76975,77027,77001
 2.0000e-001 77053 -1.1418e+001  1.6388e+001  1.9961e+000 62737 76949,77027,76975
 2.0000e-001 77324 -6.3984e-001  2.0506e+001 -2.2989e+000 62277 77347,77177,77125
 2.0000e-001 77301 -4.9466e+000  1.7892e+001 -8.2558e-001 62277 77347,77125,77229
 2.0000e-001 77278 -6.4793e+000  2.2383e+001  2.0301e+000 62277 77099,77229,77125
 2.0000e-001 77255  3.3026e+000  1.7206e+001 -3.4049e+000 62277 77125,77177,77151
 2.0000e-001 77373 -1.4186e-001  2.6970e+001 -8.3222e+000 62277 77203,77177,77347
 2.0000e-001 77396 -1.1100e+001  2.0380e+001 -5.4834e+000 62277 77203,77347,77229
 2.0000e-001 77857 -8.1336e+000  1.1219e+001  4.2119e+000 61758 77635,77739,77661
 2.0000e-001 77834 -1.1981e+001  1.8817e+001  1.6646e+000 61758 77583,77739,77635
 2.0000e-001 77811 -1.2191e+001  3.5100e+001  1.1247e+001 61758 77583,77635,77609
 2.0000e-001 77788 -9.3708e+000  1.7515e+001  1.8491e+000 61758 77661,77713,77687
 2.0000e-001 77765 -6.0763e+000  1.5375e+001  3.5431e+000 61758 77661,77739,77713
 2.0000e-001 78491  2.6519e+000  2.5830e+001 -1.1852e+000 61418 78171,78301,78249
 2.0000e-001 78468 -1.4087e+000  2.1518e+001 -2.9854e+000 61418 78145,78301,78171
 2.0000e-001 78445 -5.1630e+000  2.2684e+001 -1.0139e+000 61418 78171,78249,78223
 2.0000e-001 78422 -3.4337e+000  2.0774e+001 -5.7397e+000 61418 78145,78327,78301
 2.0000e-001 78399  8.7665e+000  4.2537e+001  3.7338e-001 61418 78249,78301,78275
 2.0000e-001 78376 -1.1796e+001  2.5711e+001  1.3136e-001 61418 78171,78223,78197
 2.0000e-001 78353 -1.5407e+001  2.3269e+001 -7.3619e+000 61418 78119,78327,78145
 2.0000e-001 78690  2.1558e+000  3.5778e+001  1.3504e+000 61014 78713,78566,78540
 2.0000e-001 78667  3.3367e+000  3.7379e+001  6.3725e-001 61014 78713,78540,78618
 2.0000e-001 78644  1.2248e+001  4.4389e+001  7.4982e+000 61014 78514,78618,78540
 2.0000e-001 78739  1.4731e+000  3.3686e+001  1.1467e+000 61014 78592,78566,78713
 2.0000e-001 78762  7.2731e+000  3.6654e+001  2.2576e+000 61014 78785,78713,78618
 2.0000e-001 78811 -6.1063e-001  3.3481e+001  2.7694e+000 61014 78592,78713,78785
 2.0000e-001 79398 -5.1314e+000  2.9626e+001  1.1774e+000 60624 79101,79179,79153
 2.0000e-001 79375  6.4246e-001  3.3930e+001 -6.9950e-001 60624 79101,79231,79179
 2.0000e-001 79352 -1.3817e+001  2.8450e+001 -5.8216e-001 60624 79075,79231,79101
 2.0000e-001 79329 -5.7532e+000  3.6341e+001 -5.1591e+000 60624 79075,79257,79231
 2.0000e-001 79306 -1.3827e+000  2.5079e+001  4.2432e+000 60624 79179,79231,79205
 2.0000e-001 79283 -5.1459e+000  2.9081e+001  3.9526e+000 60624 79101,79153,79127
 2.0000e-001 79776 -2.5582e+000  1.9515e+001  5.8091e-002 60070 79528,79658,79606
 2.0000e-001 79753 -9.1892e-001  2.3101e+001  4.3914e-001 60070 79502,79658,79528
 2.0000e-001 79730 -7.6781e+000  2.2785e+001  3.4334e+000 60070 79528,79606,79580
 2.0000e-001 79707 -7.7346e+000  2.7135e+001 -1.2946e+000 60070 79606,79658,79632
 2.0000e-001 79684 -9.4026e+000  2.5085e+001 -5.0087e-001 60070 79528,79580,79554
 2.0000e-001 80105 -3.0649e-002  2.3910e+001 -9.1732e-001 59758 80128,79958,79906
 2.0000e-001 80082 -9.3230e+000  1.7442e+001  1.9026e+000 59758 80128,79906,80010
 2.0000e-001 80059  3.4663e+000  2.7008e+001 -4.9737e+000 59758 79906,79958,79932
 2.0000e-001 80036 -2.6204e+001  2.5786e+001  6.0892e+000 59758 79880,80010,79906
 2.0000e-001 80154 -5.2586e+000  2.8634e+001 -5.8455e+000 59758 79984,79958,80128
 2.0000e-001 80177 -1.1278e+001  2.4390e+001 -3.9547e+000 59758 79984,80128,80010
 2.0000e-001 80376 -9.4116e-001  3.2097e+001 -1.2524e+000 59312 80226,80304,80252
 2.0000e-001 80353 -1.9144e+000  3.8834e+001 -1.0999e+000 59312 80200,80304,80226
 2.0000e-001 80330  7.7747e+000  3.1408e+001 -1.2813e+001 59312 80252,80304,80278
 2.0000e-001 80805 -1.1759e+001  3.6028e+000 -1.1620e-001 58908 80900,80828,80638
 2.0000e-001 80782 -4.8071e+000  2.1007e+000  1.5870e+000 58908 80828,80560,80508
 2.0000e-001 80759 -1.1654e+001  2.8980e+000 -1.1731e+000 58908 80900,80638,80612
 2.0000e-001 80736 -1.8135e+001  3.2819e-001  5.6433e+000 58908 80482,80664,80508
 2.0000e-001 80713 -2.0073e+001  4.6576e+000 -2.9934e+000 58908 80560,80612,80586
 2.0000e-001 80690 -3.0331e+000 -1.3800e+000 -4.7735e-001 58908 80508,80560,80534
 2.0000e-001 80854 -1.2478e+001  3.0091e+000  2.4156e-001 58908 80664,80638,80828
 2.0000e-001 80877 -1.1635e+001 -1.4112e+000  2.8840e+000 58908 80664,80828,80508
 2.0000e-001 80926 -1.2243e+001  1.6513e+000 -1.3971e-001 58908 80560,80828,80900
 2.0000e-001 80949 -1.1945e+001  1.5488e+000 -1.3485e+000 58908 80560,80900,80612
 2.0000e-001 81246 -9.3941e+000  1.1348e+001 -3.1757e-001 58482 81076,81128,81102
 2.0000e-001 81223 -5.4207e+000  1.6858e+001  1.4349e+000 58482 80972,81128,81076
 2.0000e-001 81200 -9.1932e+000  5.9162e+000  2.0499e+000 58482 80972,81076,81050
 2.0000e-001 81177  2.8950e+000  2.8604e+000  3.1789e+000 58482 80998,81050,81024
 2.0000e-001 81154 -4.9383e+000  3.9055e+000  5.8030e+000 58482 80972,81050,80998
 2.0000e-001 81754 -6.5796e+000  6.4244e+000  1.9917e+000 57828 81457,81613,81483
 2.0000e-001 81731 -1.9040e+000  1.4102e+001  6.2973e+000 57828 81431,81613,81457
 2.0000e-001 81708 -8.1866e+000  2.8721e+000  6.4984e+000 57828 81483,81613,81509
 2.0000e-001 81685 -2.3128e+000  3.4312e+000  4.2342e+000 57828 81509,81613,81587
 2.0000e-001 81662 -9.6834e-001  1.0148e+001  3.5326e+000 57828 81509,81587,81535
 2.0000e-001 81639  1.2713e+001  1.6186e+001 -1.1454e+000 57828 81535,81587,81561
 2.0000e-001 82002  5.7661e+000  3.1307e+001  1.3583e+000 57374 82025,81855,81829
 2.0000e-001 81979  3.3393e+000  2.8626e+001 -1.6123e-001 57374 82025,81829,81907
 2.0000e-001 81956  5.7559e+000  2.9404e+001  1.2488e+000 57374 81803,81907,81829
 2.0000e-001 81933 -3.8686e+000  2.4616e+001 -3.4302e-001 57374 81777,81907,81803
 2.0000e-001 82051  1.1567e+001  2.8649e+001 -7.1886e-001 57374 81881,81855,82025
 2.0000e-001 82074  3.5987e+000  2.3395e+001 -3.4962e+000 57374 81881,82025,81907
 2.0000e-001 82356  8.0288e+000  2.7241e+001 -1.4177e-001 56913 82180,82232,82206
 2.0000e-001 82333  3.9892e+000  1.8578e+001 -1.7282e+000 56913 82180,82284,82232
 2.0000e-001 82310  3.9260e+000  1.3996e+001 -2.2738e+000 56913 82379,82232,82284
 2.0000e-001 82405 -6.4608e-002  1.2462e+001 -2.0906e+000 56913 82258,82232,82379
 2.0000e-001 82764  3.3325e+000  1.4679e+001  1.1403e+000 56523 82614,82666,82640
 2.0000e-001 82741  1.3896e+000  8.2078e+000  1.7723e+000 56523 82614,82692,82666
 2.0000e-001 82718  5.8116e+000  1.0830e+001  3.1619e+000 56523 82588,82692,82614
 2.0000e-001 83368  5.2636e-001  3.0552e+001 -1.8861e-001 55969 82973,83155,83129
 2.0000e-001 83345  1.7685e+000  3.1083e+001  2.1237e-002 55969 82973,83181,83155
 2.0000e-001 83322 -2.9006e+000  2.4586e+001  1.7255e+000 55969 82973,83129,82999
 2.0000e-001 83299  1.3950e+001  3.2454e+001 -3.3516e+000 55969 83391,83025,82999
 2.0000e-001 83276  6.6495e+000  2.9339e+001 -4.6419e-001 55969 83391,82999,83129
 2.0000e-001 83253 -6.6365e-001  2.1162e+001 -4.4618e-002 55969 83077,83129,83103
 2.0000e-001 83230 -7.0024e-002  2.3755e+001  1.9666e+000 55969 83025,83077,83051
 2.0000e-001 83207 -1.9792e+001  2.1704e+001 -1.1078e+000 55969 82947,83181,82973
 2.0000e-001 83417  6.4131e+000  3.0922e+001 -1.3982e+000 55969 83077,83025,83391
 2.0000e-001 83440  3.4332e+000  3.1057e+001  1.2333e+000 55969 83077,83391,83129
 2.0000e-001 83946  3.3091e+000  8.7185e+000 -5.6054e+000 55771 83969,83779,83727
 2.0000e-001 83923  3.3352e+000  1.1088e+001 -7.9842e-001 55771 83969,83727,83623
 2.0000e-001 83900 -1.1196e+000  1.0770e+001  3.6677e-001 55771 83623,83727,83649
 2.0000e-001 83877  1.1377e+001  9.0281e+000 -3.5472e+000 55771 83727,83779,83753
 2.0000e-001 83854  3.0758e+000 -1.7056e+000 -5.7347e+000 55771 83675,83727,83701
 2.0000e-001 83831 -1.2136e+000  1.0440e+001  7.4513e-001 55771 83649,83727,83675
 2.0000e-001 83995 -3.9564e-001  6.7878e+000 -7.3804e+000 55771 83805,83779,83969
 2.0000e-001 84018 -2.2496e+000  9.4282e+000 -2.4536e+000 55771 83805,83969,83623
 2.0000e-001 84168 -3.3862e+000  1.2917e+001  3.7315e-001 55367 84191,84067,84041
 2.0000e-001 84145 -4.0854e+000  1.4515e+001  4.2193e-001 55367 84191,84041,84119
 2.0000e-001 84217 -3.6967e+000  1.2552e+001  2.4065e-001 55367 84093,84067,84191
 2.0000e-001 84240 -5.6128e+000  1.2997e+001 -1.9441e-001 55367 84093,84191,84119
 2.0000e-001 84571 -8.5170e+000  1.7755e+001  1.0325e-001 54913 84398,84450,84424
 2.0000e-001 84548 -5.3478e+000  1.7737e+001 -3.1729e-001 54913 84372,84450,84398
 2.0000e-001 84525 -5.6186e+000  1.8247e+001 -1.1519e+000 54913 84346,84450,84372
 2.0000e-001 84502 -4.1490e+000  2.1642e+001 -2.6693e+000 54913 84346,84476,84450
 2.0000e-001 85126 -1.3769e-001  1.6351e+001  3.9496e+000 54402 84858,84936,84910
 2.0000e-001 85103  7.5852e-001  1.4523e+001 -3.1118e+000 54402 84806,84936,84858
 2.0000e-001 85080  3.8551e+000  1.2928e+001 -3.4990e+000 54402 84780,84936,84806
 2.0000e-001 85057 -8.8470e+000  1.6680e+001 -5.5821e+000 54402 84806,84858,84832
 2.0000e-001 85034 -5.8791e+000  8.3004e+000 -5.8125e+000 54402 84780,84962,84936
 2.0000e-001 85011  4.1654e+000  2.6738e+001  6.3927e+000 54402 84858,84910,84884
 2.0000e-001 84988 -1.0644e+000  1.6978e+001 -3.8940e+000 54402 84754,84962,84780
 2.0000e-001 85396 -1.7456e+000  6.6120e+000  1.4771e+000 53998 85197,85249,85223
 2.0000e-001 85373 -4.6185e+000  9.7680e+000  9.1935e-001 53998 85197,85275,85249
 2.0000e-001 85350 -5.0735e+000  1.0570e+001  9.4451e-001 53998 85171,85275,85197
 2.0000e-001 85327 -8.3702e+000  9.6632e+000  1.1748e+000 53998 85171,85301,85275
 2.0000e-001 85749  1.8279e+000  3.1859e+001  1.6818e+000 53636 85524,85628,85550
 2.0000e-001 85726  8.2875e+000  4.0080e+001 -1.2022e+000 53636 85524,85654,85628
 2.0000e-001 85703  3.3039e-001  3.1702e+001 -8.4442e-001 53636 85550,85602,85576
 2.0000e-001 85680 -5.9422e+000  2.8500e+001  1.9940e+000 53636 85550,85628,85602
 2.0000e-001 86127 -1.9567e+000  2.7155e+001 -3.4371e+000 52982 86150,85957,85879
 2.0000e-001 86104  7.8780e-001  2.9814e+001 -2.2576e+000 52982 86150,85879,85853
 2.0000e-001 86081 -3.9688e+000  2.8798e+001 -8.7522e+000 52982 85957,86009,85983
 2.0000e-001 86058  3.9492e+000  2.8571e+001 -2.9241e+000 52982 85879,85957,85931
 2.0000e-001 86035 -4.8033e-001  2.2716e+001 -1.6745e-002 52982 85879,85931,85905
 2.0000e-001 86176 -3.9983e+000  2.9919e+001 -3.0240e+000 52982 86009,85957,86150
 2.0000e-001 86199 -2.3453e+000  3.2040e+001 -2.2690e+000 52982 86009,86150,85853
 2.0000e-001 86398 -6.0038e+000  4.1163e+000  2.0572e-001 52542 86421,86248,86222
 2.0000e-001 86375 -4.4359e+000  6.0778e+000  8.9605e-001 52542 86421,86222,86300
 2.0000e-001 86352 -2.0997e+000  1.0463e+001 -1.5674e-002 52542 86222,86326,86300
 2.0000e-001 86447 -8.5140e+000  5.0908e+000 -1.7982e+000 52542 86274,86248,86421
 2.0000e-001 86470 -6.3769e+000  8.2521e+000 -8.5082e-001 52542 86274,86421,86300
 2.0000e-001 86669 -7.9256e+000  2.6865e+000  2.6508e+000 52230 86692,86571,86545
 2.0000e-001 86646 -5.6264e+000  7.3709e+000  8.8211e-002 52230 86692,86545,86519
 2.0000e-001 86623  2.0100e+000  6.7811e+000 -3.5222e+000 52230 86493,86597,86519
 2.0000e-001 86718 -5.8812e+000  2.6538e+000 -1.6613e+000 52230 86597,86571,86692
 2.0000e-001 86741 -1.8563e+000  8.1265e+000 -4.4548e+000 52230 86597,86692,86519
 2.0000e-001 87153  9.6877e+000  1.4254e+001  9.1035e-001 51640 86980,87058,87032
 2.0000e-001 87130  6.7552e+000  1.3315e+001  4.5654e-001 51640 86928,87058,86980
 2.0000e-001 87107  4.0312e+000  3.0321e+001  9.9010e+000 51640 86928,86980,86954
 2.0000e-001 87084  6.7169e+000  1.2970e+001  5.2906e-001 51640 86980,87032,87006
 2.0000e-001 87659  2.9039e+000  1.2884e+001  9.1464e-003 51029 87682,87440,87362
 2.0000e-001 87636 -2.6011e+000  1.1563e+001  1.5148e+000 51029 87682,87362,87336
 2.0000e-001 87613  4.8300e+000  1.8543e+001 -3.4999e+000 51029 87440,87518,87466
 2.0000e-001 87590  5.2590e+000  1.5656e+001 -1.1178e+000 51029 87362,87440,87414
 2.0000e-001 87567  1.8985e+000  7.5219e+000 -2.3915e+000 51029 87362,87414,87388
 2.0000e-001 87544  1.5808e+001  1.2672e+001 -8.2598e+000 51029 87466,87518,87492
 2.0000e-001 87708  4.3737e+000  1.2372e+001 -1.3860e+000 51029 87518,87440,87682
 2.0000e-001 87731  2.0714e+000  1.4119e+001 -4.7640e-001 51029 87518,87682,87336
 2.0000e-001 87881 -4.1061e+000  9.5981e+000  1.7151e-001 50739 87780,87832,87806
 2.0000e-001 87858 -2.8530e+000  1.4318e+001 -2.9632e-001 50739 87754,87832,87780
 2.0000e-001 88468  3.0166e+000  1.4209e+001  1.0995e+000 50235 88171,88327,88197
 2.0000e-001 88445  8.0541e+000  1.7115e+001  3.1298e+000 50235 88145,88327,88171
 2.0000e-001 88422  4.6518e+000  6.1144e+000  4.8705e+000 50235 88275,88327,88301
 2.0000e-001 88399  8.1073e-001  4.4803e+000  1.4690e+000 50235 88197,88327,88275
 2.0000e-001 88376  5.9908e+000  1.6674e+001  4.6238e+000 50235 88197,88275,88223
 2.0000e-001 88353  1.7612e+000  1.8173e+001  1.0078e+001 50235 88223,88275,88249
 2.0000e-001 88895 -6.2139e-001  1.9447e+001 -2.4007e+000 49873 88918,88728,88676
 2.0000e-001 88872 -2.5438e+000  1.6800e+001 -1.3150e+000 49873 88918,88676,88624
 2.0000e-001 88849  5.5627e-001  1.7775e+001  2.0859e+000 49873 88598,88754,88624
 2.0000e-001 88826  5.4637e+000  2.1703e+001 -3.7993e+000 49873 88624,88676,88650
 2.0000e-001 88803 -3.2540e+000  3.0785e+001 -2.6330e+000 49873 88676,88728,88702
 2.0000e-001 88780 -1.2541e+001  1.7409e+001  3.0789e+000 49873 88572,88754,88598
 2.0000e-001 88944 -2.7944e+000  1.9428e+001 -7.3062e-001 49873 88754,88728,88918
 2.0000e-001 88967 -3.5891e+000  1.8297e+001  8.5134e-002 49873 88754,88918,88624
 2.0000e-001 89473  1.1269e+001  1.7964e+001  2.5849e+000 49583 89176,89306,89202
 2.0000e-001 89450  2.6698e+000  1.6121e+001 -1.4401e+000 49583 89176,89332,89306
 2.0000e-001 89427  6.0673e+000  1.5232e+001  1.1492e-001 49583 89496,89228,89202
 2.0000e-001 89404  3.6594e+000  1.5581e+001  6.0060e-002 49583 89496,89202,89280
 2.0000e-001 89381  8.1559e+000  1.8214e+001  2.1744e+000 49583 89202,89306,89280
 2.0000e-001 89358  3.9376e+000  1.1784e+001 -4.4417e+000 49583 89150,89332,89176
 2.0000e-001 89522  3.3413e+000  1.4396e+001 -1.8663e+000 49583 89254,89228,89496
 2.0000e-001 89545  1.8168e+000  1.5988e+001 -2.1418e-001 49583 89254,89496,89280
 2.0000e-001 89825 -1.5925e+000  1.3604e+001  1.5062e+000 49179 89701,89753,89727
 2.0000e-001 89802 -1.5847e+000  1.4940e+001  1.2010e+000 49179 89675,89753,89701
 2.0000e-001 89779 -3.3649e+000  1.2310e+001 -1.2840e+000 49179 89848,89753,89675
 2.0000e-001 89874  7.7229e+000  1.6305e+001  1.8321e+000 49179 89649,89753,89848
 2.0000e-001 90223  6.2469e+000  2.9533e+001 -3.5742e-001 48739 90024,90102,90076
 2.0000e-001 90200  3.9740e+000  2.8469e+001 -6.4320e-001 48739 90024,90128,90102
 2.0000e-001 90177  4.0609e+000  2.7810e+001  3.9882e-001 48739 90024,90076,90050
 2.0000e-001 90154  4.1472e+000  3.1440e+001 -7.7624e-001 48739 89998,90128,90024
 2.0000e-001 90603  1.1139e+001  2.7563e+001  9.4774e-002 48335 90381,90485,90459
 2.0000e-001 90580  1.5049e+001  3.3397e+001  1.8889e+000 48335 90355,90485,90381
 2.0000e-001 90557  2.2349e+000  5.0834e+000 -4.8222e-001 48335 90381,90433,90407
 2.0000e-001 90534  6.1684e+000  2.4576e+001 -1.3218e+000 48335 90381,90459,90433
 2.0000e-001 90511  4.1553e+000  2.2768e+001 -6.3011e+000 48335 90329,90485,90355
 2.0000e-001 90753 -8.2629e+000  8.0698e+000 -4.5641e+000 47824 90776,90652,90704
 2.0000e-001 90730 -4.6773e+000  1.7400e+001 -4.5724e+000 47824 90626,90704,90652
 2.0000e-001 90802  2.6526e-001  1.4253e+001 -1.8282e+000 47824 90678,90652,90776
 2.0000e-001 91131 -3.5187e+000  1.6653e+001 -1.8203e+000 47427 91154,90958,90906
 2.0000e-001 91108  3.6146e+000  1.9899e+001 -4.0944e+000 47427 91154,90906,91036
 2.0000e-001 91085 -3.5597e-001  9.3191e+000  1.9995e+000 47427 90958,91010,90984
 2.0000e-001 91062 -1.1413e+001  1.1375e+001  2.3629e+000 47427 90906,90958,90932
 2.0000e-001 91180 -1.1653e-001  1.3439e+001  3.1719e+000 47427 91010,90958,91154
 2.0000e-001 91203  6.4657e+000  1.6222e+001  9.8792e-001 47427 91010,91154,91036
 2.0000e-001 91583  8.6802e-001  2.0945e+001 -2.5902e+000 46873 91309,91439,91335
 2.0000e-001 91560  1.9939e+000  3.4576e+001 -4.0974e+000 46873 91309,91465,91439
 2.0000e-001 91537  1.0797e+001  1.2682e+001  3.3690e+000 46873 91361,91439,91413
 2.0000e-001 91514  1.3926e+001  2.7308e+001  2.3868e+000 46873 91335,91439,91361
 2.0000e-001 91491  2.3656e+001  4.6168e+001  2.6014e+001 46873 91361,91413,91387
 2.0000e-001 91880 -2.3903e+000  1.2566e+001  1.5910e+000 46526 91606,91710,91658
 2.0000e-001 91857 -3.5196e+000  1.4259e+001  2.2206e-001 46526 91606,91762,91710
 2.0000e-001 91834 -5.6789e+000  1.1151e+001  3.9284e+000 46526 91606,91658,91632
 2.0000e-001 91811 -1.5974e+000  9.4067e+000 -1.7247e-001 46526 91658,91710,91684
 2.0000e-001 91788 -5.7759e+000  6.9972e+000 -6.0380e-001 46526 91710,91762,91736
 2.0000e-001 92211 -1.4648e+000  1.5926e+001  4.9510e+000 45700 91986,92064,92038
 2.0000e-001 92188  8.0061e+000  2.0838e+001  1.4362e+000 45700 91986,92116,92064
 2.0000e-001 92165 -6.3854e+000  8.1630e+000  1.0316e+001 45700 91986,92038,92012
 2.0000e-001 92142  8.0708e+000  1.7048e+001  2.3970e+000 45700 92064,92116,92090
 2.0000e-001 92766 -1.7582e+001  1.1141e+001 -7.0787e+000 45452 92446,92602,92576
 2.0000e-001 92743 -1.3819e+001  1.6426e+001 -5.4033e+000 45452 92420,92602,92446
 2.0000e-001 92720 -5.5027e+000  1.2316e+001 -3.3773e+000 45452 92789,92524,92498
 2.0000e-001 92697 -6.1569e+000  1.5340e+001 -3.3523e+000 45452 92789,92498,92446
 2.0000e-001 92674 -4.4424e+000  1.6262e+001 -5.1758e+000 45452 92524,92576,92550
 2.0000e-001 92651 -6.9279e+000  1.4605e+001 -2.4072e+000 45452 92446,92498,92472
 2.0000e-001 92628 -3.2628e+001  5.7709e+000 -9.7025e+000 45452 92394,92602,92420
 2.0000e-001 92815 -4.7953e+000  1.4776e+001 -3.7404e+000 45452 92576,92524,92789
 2.0000e-001 92838 -5.9712e+000  1.7005e+001 -3.8180e+000 45452 92576,92789,92446
 2.0000e-001 92939 -1.1408e+000  1.5042e+001  5.0135e+000 44998 92861,92913,92887
 2.0000e-001 93319 -1.0870e-001  1.1070e+001  9.2094e-001 44601 93123,93201,93149
 2.0000e-001 93296  1.6167e+000  1.3640e+001  1.9327e+000 44601 93045,93201,93123
 2.0000e-001 93273 -3.9339e-001  1.0123e+001  2.8367e+000 44601 93045,93123,93071
 2.0000e-001 93250 -1.0196e+001  9.5474e+000  7.4749e+000 44601 93071,93123,93097
 2.0000e-001 93227  1.1112e+001  1.2667e+001 -5.4240e+000 44601 93149,93201,93175
 2.0000e-001 93697 -6.4970e+000  1.1189e+001  1.6965e-001 44026 93720,93553,93527
 2.0000e-001 93674 -6.2751e+000  8.7891e+000 -4.4572e-001 44026 93720,93527,93449
 2.0000e-001 93651 -9.0404e+000  3.2852e+000 -2.0480e+000 44026 93449,93527,93501
 2.0000e-001 93628 -8.1378e+000  3.9194e-001  1.0942e+001 44026 93423,93579,93449
 2.0000e-001 93605  1.1926e+000  3.6511e+000 -2.5056e+000 44026 93449,93501,93475
 2.0000e-001 93746 -5.6144e+000  8.6247e+000  3.6380e-001 44026 93579,93553,93720
 2.0000e-001 93769 -5.6855e+000  5.9290e+000 -4.0779e-001 44026 93579,93720,93449
 2.0000e-001 94066  8.9246e-001  1.3064e+001  4.4918e-001 43579 94089,93818,93792
 2.0000e-001 94043 -1.9239e+000  1.2001e+001  9.9683e-001 43579 94161,94089,93792
 2.0000e-001 94020 -1.9682e+000  1.1955e+001  1.1421e+000 43579 94161,93792,93948
 2.0000e-001 93997 -2.8176e+000  1.1578e+001  2.2121e-001 43579 94233,93870,93818
 2.0000e-001 93974 -6.1926e+000  1.3691e+001 -2.3541e+000 43579 93818,93870,93844
 2.0000e-001 94115 -2.2889e+000  1.1722e+001 -1.8160e-001 43579 94233,93818,94089
 2.0000e-001 94138  5.9311e-001  1.3328e+001  1.2257e+000 43579 93896,94089,93922
 2.0000e-001 94187 -1.8533e+000  1.2295e+001  7.8534e-001 43579 93922,94089,94161
 2.0000e-001 94210 -2.0312e+000  1.2207e+001  9.4989e-001 43579 93922,94161,93948
 2.0000e-001 94259 -5.1058e+000  1.0711e+001  2.3246e+000 43579 93896,93870,94233
 2.0000e-001 94282 -2.4792e+000  1.1857e+001  1.9061e+000 43579 93896,94233,94089
 2.0000e-001 94481 -1.6217e+000  1.3777e+001  1.7411e-001 43239 94305,94383,94357
 2.0000e-001 94458 -2.7179e+000  1.1729e+001 -2.7234e+000 43239 94305,94409,94383
 2.0000e-001 94435 -1.4150e+000  1.4197e+001  7.1424e-002 43239 94305,94357,94331
 2.0000e-001 94633  6.1057e+000  1.7077e+001 -6.1168e+000 42827 94656,94532,94506
 2.0000e-001 94610  6.0690e+000  1.6156e+001 -4.1943e+000 42827 94728,94656,94506
 2.0000e-001 94682  6.7966e+000  2.4553e+001 -4.8007e+000 42827 94558,94532,94656
 2.0000e-001 94705  1.1689e+001  1.7461e+001 -5.3772e+000 42827 94988,94860,94656
 2.0000e-001 94754  8.3805e+000  1.7519e+001 -6.4370e+000 42827 94988,94656,94728
 2.0000e-001 94886  4.2886e+000  1.6437e+001 -2.2983e+000 42827 94558,94656,94860
 2.0000e-001 95014  1.4324e+001  1.7411e+001 -5.3335e+000 42827 94584,94860,94988
 2.0000e-001 95037  1.2099e+001  1.8452e+001 -6.0208e+000 42827 94584,94988,94728
 2.0000e-001 95236  4.5778e+000  2.8136e+001  8.7735e-002 42537 95259,95112,95060
 2.0000e-001 95213  3.2155e+000  2.6904e+001  6.2345e-001 42537 95259,95060,95164
 2.0000e-001 95190  3.2216e+000  2.5656e+001  7.0488e-001 42537 95060,95112,95086
 2.0000e-001 95285  3.6634e+000  2.9095e+001 -7.0879e-001 42537 95138,95112,95259
 2.0000e-001 95308  2.8596e+000  2.8365e+001 -3.3332e-001 42537 95138,95259,95164
 2.0000e-001 95816  1.6442e+001  2.4003e+001 -2.7585e+000 41969 95493,95597,95519
 2.0000e-001 95793  1.9818e+001  2.4392e+001 -5.4820e+000 41969 95493,95649,95597
 2.0000e-001 95770  1.1975e+001  1.8073e+001 -1.5463e+000 41969 95493,95675,95649
 2.0000e-001 95747  1.7035e+001  2.8055e+001 -5.6880e+000 41969 95597,95649,95623
 2.0000e-001 95724  2.7703e+001  3.0335e+001 -5.4567e+000 41969 95519,95597,95571
 2.0000e-001 95701  2.7804e+001  3.6451e+001  1.3602e+001 41969 95519,95571,95545
 2.0000e-001 96371  6.5476e+000  2.0808e+001 -1.2327e-001 41579 96025,96207,96181
 2.0000e-001 96348  8.9009e+000  2.1416e+001  2.9486e+000 41579 95999,96207,96025
 2.0000e-001 96325 -3.3777e+000  2.1105e+001  2.3581e+000 41579 96129,96181,96155
 2.0000e-001 96302 -7.8357e-001  1.5616e+001  2.2222e+000 41579 96025,96181,96129
 2.0000e-001 96279  9.9712e+000  2.9507e+001 -7.4529e+000 41579 96025,96129,96051
 2.0000e-001 96256 -5.2134e-001  2.5786e+001 -4.6600e+000 41579 96051,96103,96077
 2.0000e-001 96233 -5.1520e+000  1.8560e+001 -2.6723e+000 41579 96051,96129,96103
 2.0000e-001 96877 -2.0984e+000  1.7656e+001  8.8730e-001 41182 96972,96900,96632
 2.0000e-001 96854 -2.9649e+000  1.9793e+001  1.5829e+000 41182 96900,96554,96736
 2.0000e-001 96831 -9.4280e-001  1.6496e+001  4.4080e+000 41182 96972,96632,96580
 2.0000e-001 96808 -3.9031e+000  1.7075e+001  1.3493e+000 41182 96632,96684,96658
 2.0000e-001 96785  1.5484e+000  1.9251e+001  3.4483e-001 41182 96684,96736,96710
 2.0000e-001 96762  6.7334e+000  2.5156e+001 -3.5751e-001 41182 96580,96632,96606
 2.0000e-001 96926 -1.8591e+000  1.7492e+001  9.6636e-001 41182 96684,96632,96900
 2.0000e-001 96949  5.5090e-001  1.7229e+001  1.2891e+000 41182 96684,96900,96736
 2.0000e-001 96998 -7.5667e+000  1.5870e+001  3.6251e+000 41182 96554,96900,96972
 2.0000e-001 97021 -8.2303e+000  1.2282e+001  7.5200e+000 41182 96554,96972,96580
 2.0000e-001 97576  1.9772e+000  1.7481e+001 -3.1634e+000 40678 97230,97412,97282
 2.0000e-001 97553 -7.5393e+000  1.3753e+001 -7.9571e-002 40678 97204,97412,97230
 2.0000e-001 97530 -3.2767e+000  2.6769e+001  2.0538e+000 40678 97282,97360,97308
 2.0000e-001 97507  2.7735e-001  2.7824e+001 -5.8538e-001 40678 97282,97412,97360
 2.0000e-001 97484 -3.4759e+001  3.0153e+001 -1.4601e+001 40678 97308,97360,97334
 2.0000e-001 97461  1.6754e+000  1.6533e+001 -1.3146e+000 40678 97360,97412,97386
 2.0000e-001 97438  2.8883e+001  4.5709e+001  2.6438e+001 40678 97230,97282,97256
 2.0000e-001 97976  2.5465e+000  1.4198e+001 -4.8943e-001 40244 97702,97832,97754
 2.0000e-001 97953 -1.2282e+000  1.4615e+001  1.6831e-001 40244 97702,97858,97832
 2.0000e-001 97930  4.9842e+000  2.0885e+001  2.7181e+000 40244 97702,97754,97728
 2.0000e-001 97907 -1.5118e-002  1.9001e+001 -1.7145e-002 40244 97780,97832,97806
 2.0000e-001 97884 -5.0123e+000  1.0081e+001 -2.2694e+000 40244 97754,97832,97780
 2.0000e-001 98482  1.4739e+000  1.3161e+001  3.9661e+000 39690 98505,98185,98159
 2.0000e-001 98459  4.0544e-001  1.4777e+001  3.3976e+000 39690 98505,98159,98289
 2.0000e-001 98436 -8.2066e-001  1.2602e+001  4.0581e+000 39690 98159,98315,98289
 2.0000e-001 98413 -1.8892e+001  7.8177e+000  3.0282e+000 39690 98211,98289,98263
 2.0000e-001 98390 -1.2746e+001  2.1059e+001  1.5666e-001 39690 98211,98263,98237
 2.0000e-001 98367  9.7477e+000  1.2059e+001  4.8592e+000 39690 98159,98341,98315
 2.0000e-001 98531  2.1310e+000  1.4181e+001  3.1518e+000 39690 98211,98185,98505
 2.0000e-001 98554  1.1168e+000  1.6324e+001  2.7659e+000 39690 98211,98505,98289
 2.0000e-001 99109 -1.5950e+000  1.8887e+001 -3.7235e-001 39072 99132,98867,98789
 2.0000e-001 99086 -9.5501e+000  1.7028e+001 -1.4318e-001 39072 99132,98789,98763
 2.0000e-001 99063  5.5324e+000  2.7463e+001 -4.8704e+000 39072 98867,98945,98919
 2.0000e-001 99040  3.1319e-001  1.9560e+001 -5.3253e-001 39072 98789,98867,98841
 2.0000e-001 99017  4.9479e+000  3.0059e+001 -5.3529e+000 39072 98867,98919,98893
 2.0000e-001 98994  3.3547e+000  1.9476e+001 -3.4992e+000 39072 98789,98841,98815
 2.0000e-001 98971  1.6953e+000  2.0079e+001 -1.3238e+000 39072 98737,98945,98763
 2.0000e-001 99158  1.5702e+000  1.6570e+001 -2.0132e+000 39072 98945,98867,99132
 2.0000e-001 99181 -1.8473e+000  1.8315e+001 -2.3049e+000 39072 98945,99132,98763
 2.0000e-001 99510 -4.5667e+000  1.8075e+001 -7.1459e-001 38668 99311,99389,99363
 2.0000e-001 99487 -1.1543e+000  1.9593e+001 -4.0977e-001 38668 99285,99389,99311
 2.0000e-001 99464  4.8483e+000  2.6100e+001 -2.9747e+000 38668 99285,99415,99389
 2.0000e-001 99441 -1.2315e+000  2.0076e+001 -1.5622e+000 38668 99311,99363,99337
 2.0000e-001 99758  1.3937e+000  3.0599e+001 -2.4710e+000 38164 99781,99611,99585
 2.0000e-001 99735 -3.8451e-001  2.2641e+001 -4.6302e+000 38164 99781,99585,99533
 2.0000e-001 99712  3.5565e+000  2.6216e+001 -8.5477e-001 38164 99611,99663,99637
 2.0000e-001 99689  7.0797e-001  2.6226e+001 -4.0476e+000 38164 99533,99585,99559
 2.0000e-001 99807  1.1535e+000  2.3017e+001 -2.5660e+000 38164 99663,99611,99781
 2.0000e-001 99830  2.5651e+000  1.8761e+001 -3.8254e+000 38164 99663,99781,99533
 2.0000e-001 100232  3.4923e+000  1.7427e+001 -1.0887e-001 37702 99984,100114,100088
 2.0000e-001 100209  3.7819e+000  1.8876e+001 -2.7568e-001 37702 99958,100114,99984
 2.0000e-001 100186  7.4489e+000  3.0093e+001  2.3578e+000 37702 100010,100088,100036
 2.0000e-001 100163  3.4443e+000  1.7429e+001  5.3573e-002 37702 99984,100088,100010
 2.0000e-001 100140  5.5567e+000  3.6869e+001  1.1087e+001 37702 100036,100088,100062
 2.0000e-001 100640  2.2201e+001  2.7159e+001 -2.4730e+000 37262 100493,100545,100519
 2.0000e-001 100617  1.7251e+001  2.8822e+001 -1.5606e+000 37262 100441,100545,100493
 2.0000e-001 100594  1.2413e+001  2.8492e+001 -3.9880e+000 37262 100415,100545,100441
 2.0000e-001 100571  2.3793e+001  4.2445e+001  7.5392e-001 37262 100441,100493,100467
 2.0000e-001 101146  4.1611e+000  1.1554e+001  1.6086e+000 36872 100823,100979,100849
 2.0000e-001 101123  6.0511e+000  1.7914e+001 -3.1167e+000 36872 100823,101005,100979
 2.0000e-001 101100  4.0703e+000  2.2688e+001 -4.5477e+000 36872 101169,100901,100849
 2.0000e-001 101077  2.0645e+000  1.8485e+001 -3.0779e+000 36872 101169,100849,100979
 2.0000e-001 101054 -2.7137e+000  2.1215e+001 -2.1834e+000 36872 100927,100979,100953
 2.0000e-001 101031  2.3480e+000  2.8861e+001 -4.6146e+000 36872 100849,100901,100875
 2.0000e-001 101195  1.2483e+000  2.3844e+001 -1.9213e+000 36872 100927,100901,101169
 2.0000e-001 101218 -2.3103e-002  2.1600e+001 -6.9951e-001 36872 100927,101169,100979
 2.0000e-001 101773  4.3110e+000  2.0002e+001 -1.1436e+001 36418 101479,101609,101583
 2.0000e-001 101750 -5.2262e+000  2.7095e+001 -2.3231e+001 36418 101453,101609,101479
 2.0000e-001 101727  1.4490e+000  2.3136e+001 -3.2428e+000 36418 101796,101531,101479
 2.0000e-001 101704  8.4322e+000  2.8150e+001 -7.1419e+000 36418 101796,101479,101583
 2.0000e-001 101681 -1.1949e+001  2.8335e+001  4.1581e+000 36418 101479,101531,101505
 2.0000e-001 101658 -6.6739e+001  5.4318e+000 -2.1440e+001 36418 101401,101609,101453
 2.0000e-001 101635  5.7202e+000  1.4160e+001 -1.2943e+001 36418 101401,101453,101427
 2.0000e-001 101822  2.9185e+000  1.9242e+001  3.4796e+000 36418 101557,101531,101796
 2.0000e-001 101845  1.0795e+001  2.0672e+001 -1.6049e-001 36418 101557,101796,101583
 2.0000e-001 102174  2.2379e+001  2.2519e+001 -1.6531e+000 35914 101949,102053,101975
 2.0000e-001 102151  2.0310e+001  1.6895e+001  5.3595e-002 35914 101949,102079,102053
 2.0000e-001 102128  1.1457e+001  1.7805e+001 -1.2710e+000 35914 101975,102053,102027
 2.0000e-001 102105  2.5960e+001  3.7585e+001 -7.8851e+000 35914 101975,102027,102001
 2.0000e-001 102631 -1.8025e+000  1.8403e+001 -7.5749e-001 35574 102383,102513,102487
 2.0000e-001 102608 -7.4884e+000  2.0036e+001 -9.7721e-001 35574 102357,102513,102383
 2.0000e-001 102585  1.8800e+000  2.1828e+001 -2.5917e+000 35574 102409,102487,102435
 2.0000e-001 102562  1.2583e+000  2.0802e+001 -3.0937e+000 35574 102383,102487,102409
 2.0000e-001 102539  4.4243e+000  2.7944e+001 -2.2380e+000 35574 102435,102487,102461
 2.0000e-001 103009  1.3339e+000  1.7283e+001  1.5031e+000 35170 102761,102865,102787
 2.0000e-001 102986 -5.5719e+000  1.3821e+001 -1.7344e+000 35170 102761,102891,102865
 2.0000e-001 102963  1.7415e+000  1.7247e+001  1.8480e+000 35170 102787,102865,102813
 2.0000e-001 102940 -4.6870e+000  1.8299e+001 -2.5786e-001 35170 102735,102891,102761
 2.0000e-001 102917  4.7957e+000  2.4706e+001  2.7530e+000 35170 102813,102865,102839
 2.0000e-001 103257 -4.9529e+000  1.8256e+001  3.5907e+000 34659 103280,103058,103032
 2.0000e-001 103234 -2.6416e+000  1.8447e+001  2.9323e-001 34659 103280,103032,103162
 2.0000e-001 103211  1.0745e+000  1.7019e+001  8.0916e-002 34659 103084,103162,103110
 2.0000e-001 103188  4.0412e+000  2.4713e+001  2.5354e-001 34659 103110,103162,103136
 2.0000e-001 103306 -1.0384e-002  1.8025e+001  3.6285e+000 34659 103084,103058,103280
 2.0000e-001 103329  7.6684e-001  1.7714e+001 -1.2525e-001 34659 103084,103280,103162
 2.0000e-001 103837 -7.2452e+000  1.9003e+001 -2.1464e+000 34247 103860,103566,103540
 2.0000e-001 103814 -2.8677e-001  2.0762e+001 -4.6592e-002 34247 103932,103860,103540
 2.0000e-001 103791  7.6651e-001  2.2581e+001  1.3262e+000 34247 103932,103540,103670
 2.0000e-001 103768 -4.9402e+000  2.4314e+001  2.2667e+000 34247 103566,103618,103592
 2.0000e-001 103745  4.1215e+000  1.9145e+001  1.4069e+000 34247 103540,103696,103670
 2.0000e-001 103722  6.4156e+000  2.4630e+001  1.4368e+000 34247 103514,103696,103540
 2.0000e-001 103886 -1.4635e+000  2.4148e+001  2.1048e-001 34247 103618,103566,103860
 2.0000e-001 103909 -4.1951e+000  2.1416e+001  1.5192e+000 34247 103618,103860,103644
 2.0000e-001 103958 -1.1839e-001  2.4637e+001  2.9632e+000 34247 103644,103860,103932
 2.0000e-001 103981  1.3542e+000  2.6553e+001  4.4348e+000 34247 103644,103932,103670
 2.0000e-001 104300 -1.2776e+000  2.1296e+001  5.6850e-001 33843 104052,104182,104156
 2.0000e-001 104277 -2.9830e+000  2.2458e+001  1.0649e+000 33843 104026,104182,104052
 2.0000e-001 104254 -6.0245e+000  2.3720e+001 -4.1456e+000 33843 104078,104156,104130
 2.0000e-001 104231  3.7857e+000  2.4947e+001 -1.0286e+000 33843 104052,104156,104078
 2.0000e-001 104208 -2.2104e+001  3.2861e+001 -1.2436e+001 33843 104078,104130,104104
 2.0000e-001 104499  2.4667e-001  2.2796e+001  2.1174e+000 33282 104594,104522,104375
 2.0000e-001 104476 -9.5488e-001  2.1150e+001  1.5846e+000 33282 104522,104323,104427
 2.0000e-001 104453  9.9341e-002  2.3546e+001  1.9134e+000 33282 104594,104375,104349
 2.0000e-001 104548  1.4200e-001  2.0481e+001  1.6498e+000 33282 104401,104375,104522
 2.0000e-001 104571 -5.8742e-001  2.0687e+001  3.3934e-001 33282 104401,104522,104427
 2.0000e-001 104620  4.6406e-001  2.1183e+001  1.8978e+000 33282 104323,104522,104594
 2.0000e-001 104643  4.9981e-001  2.2182e+001  1.7842e+000 33282 104323,104594,104349
 2.0000e-001 104942  6.9155e-001  2.3537e+001 -2.7395e+000 32728 104694,104772,104720
 2.0000e-001 104919  8.5206e-001  2.3044e+001 -1.9170e+000 32728 104694,104824,104772
 2.0000e-001 104896  1.9063e+000  2.4602e+001 -2.2899e+000 32728 104720,104772,104746
 2.0000e-001 104873 -4.8956e-001  2.8021e+001 -2.5252e+000 32728 104772,104824,104798
 2.0000e-001 104850  7.0119e-001  2.5615e+001 -2.6714e-001 32728 104668,104824,104694
 2.0000e-001 105373  1.5587e+001  3.6421e+001 -3.6962e+000 32274 105396,105102,105076
 2.0000e-001 105350  1.4834e+001  3.9899e+001 -4.4953e+000 32274 105396,105076,105206
 2.0000e-001 105327  1.6362e+001  3.9909e+001 -9.5148e+000 32274 105154,105206,105180
 2.0000e-001 105304  8.2864e+000  3.6138e+001 -6.8841e+000 32274 105076,105232,105206
 2.0000e-001 105281  1.9032e+001  3.4340e+001  6.9125e-001 32274 105102,105154,105128
 2.0000e-001 105258  1.4311e+001  5.7794e+001 -2.3472e+000 32274 105050,105232,105076
 2.0000e-001 105422  1.5857e+001  3.2812e+001 -4.2199e+000 32274 105154,105102,105396
 2.0000e-001 105445  1.5366e+001  3.6656e+001 -4.7303e+000 32274 105154,105396,105206
 2.0000e-001 105644  2.0727e+000  2.1234e+001  1.6268e-001 31620 105468,105546,105520
 2.0000e-001 105621  2.9084e+000  2.7041e+001 -7.9773e-002 31620 105468,105572,105546
 2.0000e-001 105598  4.7653e+000  2.6766e+001  1.0952e+000 31620 105468,105520,105494
 2.0000e-001 105794  3.2641e+000  3.8190e+001 -5.8513e-001 31158 105889,105817,105693
 2.0000e-001 105771  1.3013e+000  4.2179e+001  3.9707e-001 31158 105817,105667,105745
 2.0000e-001 105843  1.7226e+000  3.6625e+001 -1.4347e+000 31158 105719,105693,105817
 2.0000e-001 105866 -1.8606e+000  3.8826e+001 -9.0858e-001 31158 105719,105817,105745
 2.0000e-001 105915  1.4619e+000  3.7418e+001 -6.0503e-001 31158 105667,105817,105889
 2.0000e-001 106270  1.4301e+001  2.7983e+001 -2.2367e+000 30818 106293,106071,106045
 2.0000e-001 106247  1.3106e+001  2.5004e+001  2.1721e-001 30818 106293,106045,106175
 2.0000e-001 106224  7.7402e+000  2.7782e+001  6.6032e-002 30818 106123,106175,106149
 2.0000e-001 106201  1.4273e+001  2.9989e+001 -7.0642e-001 30818 106071,106123,106097
 2.0000e-001 106319  1.1544e+001  2.9075e+001 -4.9507e-001 30818 106123,106071,106293
 2.0000e-001 106342  9.7918e+000  2.7345e+001  1.5545e+000 30818 106123,106293,106175
 2.0000e-001 106492  1.2370e+001  4.1982e+001 -5.3788e+000 30414 106645,106391,106365
 2.0000e-001 106469  2.5823e+001  3.9941e+001 -6.5147e+000 30414 106515,106365,106443
 2.0000e-001 106541  1.9611e+001  3.7156e+001 -2.6755e+000 30414 106645,106365,106515
 2.0000e-001 106671  2.0104e+001  4.7867e+001 -1.0550e+000 30414 106417,106391,106645
 2.0000e-001 106694  2.9438e+001  4.2534e+001  6.4091e-001 30414 106417,106645,106515
 2.0000e-001 106942 -5.1838e-001  2.8545e+001 -5.3700e-001 29910 106965,106795,106769
 2.0000e-001 106919  3.6087e+000  2.5282e+001 -8.3812e-001 29910 106965,106769,106717
 2.0000e-001 106896 -4.9536e+000  2.1611e+001  3.4239e+000 29910 106795,106847,106821
 2.0000e-001 106873  3.6444e+000  2.4109e+001  6.3429e-001 29910 106717,106769,106743
 2.0000e-001 106991 -2.4021e+000  2.6773e+001  2.4410e-001 29910 106847,106795,106965
 2.0000e-001 107014  4.9829e-001  2.1961e+001  5.1169e-001 29910 106847,106965,106717
 2.0000e-001 107213  1.1513e+000  2.5922e+001 -2.2377e+000 29413 107236,107063,107037
 2.0000e-001 107190  3.1188e+000  3.0410e+001 -4.0101e+000 29413 107236,107037,107141
 2.0000e-001 107167 -1.7398e+000  2.1249e+001 -3.4109e-001 29413 107063,107115,107089
 2.0000e-001 107262  2.1195e+000  2.2166e+001 -2.8684e-001 29413 107115,107063,107236
 2.0000e-001 107285  3.4997e+000  2.5721e+001 -2.0518e+000 29413 107115,107236,107141
 2.0000e-001 107486  2.5079e+000  2.3871e+001 -2.2971e+000 29009 107336,107388,107362
 2.0000e-001 107463  1.6855e+000  2.3568e+001 -2.8474e+000 29009 107310,107388,107336
 2.0000e-001 107440  3.8192e-001  2.2691e+001 -2.3559e+000 29009 107310,107414,107388
 2.0000e-001 107736  2.1281e+000  2.3763e+001 -1.4124e+000 28491 107537,107615,107563
 2.0000e-001 107713  2.3111e-001  2.2510e+001 -3.5049e+000 28491 107537,107641,107615
 2.0000e-001 107690  2.5708e+000  2.2851e+001 -1.3756e+000 28491 107563,107615,107589
 2.0000e-001 107667  3.3328e+000  2.5693e+001 -2.2471e+000 28491 107511,107641,107537
 2.0000e-001 108118 -2.3304e+000  1.9134e+001 -1.2922e+000 27980 108141,107922,107844
 2.0000e-001 108095 -4.0732e+000  2.1728e+001 -1.1370e+000 27980 108141,107844,108000
 2.0000e-001 108072 -3.4331e+000  1.6752e+001 -1.2308e-001 27980 107844,107922,107870
 2.0000e-001 108049 -2.9162e+000  1.9255e+001 -1.5246e-001 27980 107870,107922,107896
 2.0000e-001 108026  8.9867e-001  1.8553e+001 -3.0509e+000 27980 107922,107974,107948
 2.0000e-001 108167 -3.6063e+000  1.9295e+001 -1.8946e+000 27980 107974,107922,108141
 2.0000e-001 108190 -8.3086e+000  1.9189e+001 -2.5237e+000 27980 107974,108141,108000
 2.0000e-001 108745  3.7196e+000  1.6927e+001 -1.8531e-001 27376 108840,108768,108477
 2.0000e-001 108722  5.6364e+000  1.6217e+001  2.5904e+000 27376 108768,108373,108581
 2.0000e-001 108699  5.0953e+000  1.5112e+001 -2.8483e+000 27376 108840,108477,108451
 2.0000e-001 108676  1.2456e+001  1.6549e+001  2.3274e+000 27376 108373,108451,108399
 2.0000e-001 108653  8.2057e+000  2.8375e+001 -4.5048e-001 27376 108503,108581,108529
 2.0000e-001 108630  2.9680e+000  3.1033e+001  7.1094e-001 27376 108529,108581,108555
 2.0000e-001 108607  1.4862e+001  1.8603e+001 -1.0428e+000 27376 108399,108451,108425
 2.0000e-001 108794  5.5495e+000  2.2832e+001 -7.4327e-001 27376 108503,108477,108768
 2.0000e-001 108817  4.1603e+000  1.9679e+001  7.1511e-001 27376 108503,108768,108581
 2.0000e-001 108866  8.9709e+000  2.0072e+001  1.1329e+000 27376 108373,108768,108840
 2.0000e-001 108889  8.6853e+000  1.7833e+001 -1.6634e+000 27376 108373,108840,108451
 2.0000e-001 109186  3.7669e+000  2.7066e+001 -2.9740e+000 26722 109209,108938,108912
 2.0000e-001 109163  2.4514e+000  2.3721e+001 -2.1225e+000 26722 109281,109209,108912
 2.0000e-001 109140  2.3124e+000  2.3526e+001 -2.0617e+000 26722 109281,108912,109042
 2.0000e-001 109117  4.3257e+000  2.8486e+001  1.0287e-002 26722 108938,108990,108964
 2.0000e-001 109094  1.7656e+000  2.5009e+001 -2.6617e+000 26722 108912,109068,109042
 2.0000e-001 109235  3.5254e+000  2.4699e+001 -4.9218e-001 26722 108990,108938,109209
 2.0000e-001 109258  3.2954e+000  2.1946e+001 -5.5521e-001 26722 108990,109209,109016
 2.0000e-001 109307  2.1143e+000  2.3993e+001 -1.7776e+000 26722 109016,109209,109281
 2.0000e-001 109330  1.8848e+000  2.3661e+001 -1.6774e+000 26722 109016,109281,109042
 2.0000e-001 109732 -2.3609e+001  8.2677e+000  6.1984e+000 26310 109458,109588,109484
 2.0000e-001 109709 -1.1067e+001  2.7120e+001 -8.6935e-001 26310 109458,109614,109588
 2.0000e-001 109686  3.6605e+000  1.4959e+001 -1.5923e+000 26310 109510,109562,109536
 2.0000e-001 109663 -1.1258e+000  1.0913e+001  1.8773e+000 26310 109484,109562,109510
 2.0000e-001 109640 -7.8322e+000  1.5738e+001  4.0684e+000 26310 109484,109588,109562
 2.0000e-001 110159  8.8237e+000  2.5934e+001 -6.7672e-001 25642 110182,109940,109914
 2.0000e-001 110136  8.2554e+000  2.4943e+001 -1.0104e+000 25642 110182,109914,109888
 2.0000e-001 110113  1.1126e+001  2.5624e+001  5.1419e+000 25642 109966,110018,109992
 2.0000e-001 110090  5.5487e+000  2.5963e+001 -5.5304e-001 25642 110254,109966,109940
 2.0000e-001 110067  9.3167e+000  2.4211e+001 -1.4063e+000 25642 109862,110018,109888
 2.0000e-001 110044  1.3491e+001  2.3400e+001 -2.0004e+000 25642 109836,110018,109862
 2.0000e-001 110208  7.2577e+000  2.5328e+001 -7.2050e-001 25642 110254,109940,110182
 2.0000e-001 110231  1.0251e+001  2.5447e+001 -9.3962e-001 25642 110018,110182,109888
 2.0000e-001 110280  7.8451e+000  2.6213e+001 -8.1459e-002 25642 110018,109966,110254
 2.0000e-001 110303  9.5129e+000  2.5606e+001 -9.9784e-002 25642 110018,110254,110182
 2.0000e-001 110632  1.3880e+001  2.3504e+001 -4.9078e+000 25188 110407,110485,110433
 2.0000e-001 110609  1.3791e+001  3.1433e+001 -5.9787e+000 25188 110407,110537,110485
 2.0000e-001 110586  1.4374e+001  2.4017e+001 -6.9867e-001 25188 110433,110485,110459
 2.0000e-001 110563  1.6505e+001  4.5056e+001 -1.2358e+001 25188 110485,110537,110511
 2.0000e-001 110831  2.4730e+000  2.2849e+001 -2.1774e+000 24726 110854,110707,110655
 2.0000e-001 110808  7.4400e-001  2.2598e+001 -2.4001e+000 24726 110854,110655,110759
 2.0000e-001 110785  3.4084e+000  2.1666e+001 -3.1654e+000 24726 110655,110707,110681
 2.0000e-001 110880  1.3489e+000  2.3115e+001 -3.3723e+000 24726 110733,110707,110854
 2.0000e-001 110903 -3.5635e-001  2.2737e+001 -3.6972e+000 24726 110733,110854,110759
 2.0000e-001 111234 -5.5646e-001  1.4048e+001 -3.6401e+000 24222 111257,111087,111035
 2.0000e-001 111211 -2.4782e+000  1.3190e+001 -5.4668e+000 24222 111257,111035,111009
 2.0000e-001 111188  6.5971e+000  1.2178e+001 -2.9268e+000 24222 111035,111087,111061
 2.0000e-001 111165 -2.4005e-001  1.2502e+001 -5.7695e+000 24222 111087,111139,111113
 2.0000e-001 111283  6.9224e-001  1.1850e+001 -4.5685e+000 24222 111139,111087,111257
 2.0000e-001 111306 -1.5523e-001  1.0271e+001 -5.7476e+000 24222 111139,111257,111009
 2.0000e-001 111625  1.0681e+001  3.3103e+001  1.2988e+000 23732 111648,111481,111455
 2.0000e-001 111602  8.5923e+000  3.5565e+001  2.8131e+000 23732 111648,111455,111377
 2.0000e-001 111579 -2.4901e+000  2.0482e+001 -2.3000e+000 23732 111377,111429,111403
 2.0000e-001 111556  3.1803e+000  3.5160e+001  1.6679e+000 23732 111377,111455,111429
 2.0000e-001 111533  3.8268e+000  3.3670e+001 -5.9153e-001 23732 111351,111507,111377
 2.0000e-001 111674  6.5219e+000  2.7645e+001 -1.7046e+000 23732 111507,111481,111648
 2.0000e-001 111697  8.7823e+000  3.3889e+001  7.0461e-001 23732 111507,111648,111377
 2.0000e-001 112156 -4.4770e-001  1.9083e+001 -5.7346e-001 23278 112179,111908,111882
 2.0000e-001 112133 -1.2131e+000  1.7614e+001 -9.4285e-001 23278 112179,111882,112012
 2.0000e-001 112110 -1.9576e+000  2.2506e+001  2.9734e-001 23278 111908,111960,111934
 2.0000e-001 112087 -3.6111e+000  1.7479e+001 -1.0941e-001 23278 111882,112038,112012
 2.0000e-001 112064 -9.7290e-001  1.7155e+001  2.1403e-001 23278 111960,112012,111986
 2.0000e-001 112205  5.4837e-002  1.8693e+001  6.1316e-001 23278 111960,111908,112179
 2.0000e-001 112228 -5.3790e-001  1.7293e+001  3.0219e-001 23278 111960,112179,112012
 2.0000e-001 112685  1.9775e+001  3.7962e+001  3.3435e+000 22938 112489,112567,112541
 2.0000e-001 112662  1.8222e+001  3.2595e+001  5.2166e+000 22938 112437,112567,112489
 2.0000e-001 112639  1.2676e+001  2.8004e+001  4.4478e-002 22938 112489,112541,112515
 2.0000e-001 112616  1.8419e+001  3.2685e+001  5.2610e+000 22938 112411,112567,112437
 2.0000e-001 112593  2.0941e+001  2.0753e+001  8.4643e+000 22938 112437,112489,112463
 2.0000e-001 113191 -8.9071e-001  1.2638e+001  2.2677e+000 22534 113214,112998,112946
 2.0000e-001 113168 -3.2856e-001  1.6588e+001  2.0055e+000 22534 113286,113214,112946
 2.0000e-001 113145 -1.4692e+000  1.6639e+001  1.7390e+000 22534 113286,112946,112920
 2.0000e-001 113122 -7.3576e-001  1.5227e+001 -9.9589e-002 22534 113358,113024,112998
 2.0000e-001 113099  1.5511e+000  1.7548e+001  1.0610e+000 22534 112868,113050,112894
 2.0000e-001 113076  1.1905e+001  8.7009e+000  6.3113e+000 22534 112946,112998,112972
 2.0000e-001 113240 -9.0570e-001  1.4811e+001 -5.1471e-003 22534 113358,112998,113214
 2.0000e-001 113263 -1.4219e+000  1.6801e+001  1.8700e-001 22534 113050,113214,112894
 2.0000e-001 113312 -1.8304e+000  1.6410e+001  1.6767e+000 22534 112894,113214,113286
 2.0000e-001 113335 -3.0451e+000  1.6512e+001  1.6230e+000 22534 112894,113286,112920
 2.0000e-001 113384 -1.0873e+000  1.6321e+001 -4.0331e-001 22534 113050,113024,113358
 2.0000e-001 113407 -1.5445e+000  1.5678e+001 -1.7870e-001 22534 113050,113358,113214
 2.0000e-001 113785  1.4680e+001  3.2329e+001 -1.8292e+000 21978 113808,113615,113511
 2.0000e-001 113762  1.2204e+001  3.3158e+001 -3.8027e+000 21978 113808,113511,113667
 2.0000e-001 113739  9.7369e+000  2.7306e+001  2.1411e-001 21978 113511,113615,113537
 2.0000e-001 113716 -7.2122e-001  2.3869e+001  9.0645e-001 21978 113537,113615,113589
 2.0000e-001 113693  3.3598e+000  3.5101e+001 -1.5692e+000 21978 113537,113589,113563
 2.0000e-001 113834  1.4962e+001  3.1958e+001 -4.9781e+000 21978 113641,113615,113808
 2.0000e-001 113857  8.2304e+000  2.9426e+001 -7.3267e+000 21978 113641,113808,113667
 2.0000e-001 114284  5.9475e+000  2.3415e+001 -7.1232e-001 21517 114013,114117,114039
 2.0000e-001 114261  4.3101e+000  2.2582e+001 -1.0996e+000 21517 113961,114117,114013
 2.0000e-001 114238  8.1372e+000  2.5519e+001  3.3666e-001 21517 113961,114013,113987
 2.0000e-001 114215  1.1041e+001  2.4263e+001  1.8818e+000 21517 114039,114117,114091
 2.0000e-001 114192  1.5011e+000  2.2769e+001  4.6144e-001 21517 113961,114143,114117
 2.0000e-001 114169 -2.4945e+000  1.9506e+001  2.0178e+000 21517 114039,114091,114065
 2.0000e-001 114581  1.5298e+000  2.9672e+001  4.3489e+000 21027 114359,114463,114437
 2.0000e-001 114558  4.7573e+000  2.7207e+001 -2.1488e+000 21027 114333,114463,114359
 2.0000e-001 114535  1.3365e+000  3.4805e+001  3.4355e+000 21027 114359,114437,114385
 2.0000e-001 114512  6.5910e+000  2.7829e+001 -2.6430e+000 21027 114307,114463,114333
 2.0000e-001 114489 -2.0968e+001  3.6363e+001  8.1891e-001 21027 114385,114437,114411
 2.0000e-001 114912  1.1070e+001  2.5544e+001 -3.9478e-001 20623 114713,114791,114765
 2.0000e-001 114889  2.6206e+000  2.1996e+001  2.9285e+000 20623 114687,114791,114713
 2.0000e-001 114866  8.4412e+000  2.8226e+001  5.2636e-001 20623 114687,114817,114791
 2.0000e-001 114843  1.4576e+001  2.9723e+001 -1.9089e+000 20623 114713,114765,114739
 2.0000e-001 115290  4.3527e+000  2.3290e+001 -5.1199e-001 20375 115313,115146,115094
 2.0000e-001 115267  4.6809e+000  2.0936e+001 -8.0618e-001 20375 115313,115094,115042
 2.0000e-001 115244  4.7647e+000  2.5568e+001 -5.3726e-001 20375 115385,115016,115172
 2.0000e-001 115221 -3.8840e+000  1.7578e+001 -3.7457e-001 20375 115042,115094,115068
 2.0000e-001 115198  5.4352e+000  2.4562e+001  7.9402e-001 20375 115094,115146,115120
 2.0000e-001 115339  4.0878e+000  2.3263e+001 -4.9652e-001 20375 115172,115146,115313
 2.0000e-001 115362  4.2162e+000  2.4377e+001 -9.3789e-001 20375 115385,115172,115313
 2.0000e-001 115411  6.2899e+000  2.4756e+001  8.2219e-001 20375 115042,115016,115385
 2.0000e-001 115434  5.4661e+000  2.3048e+001  4.6364e-001 20375 115042,115385,115313
 2.0000e-001 115891  3.6748e+000  6.5502e+000 -5.9248e-001 19971 115617,115747,115643
 2.0000e-001 115868  4.1264e+000  8.4514e+000 -1.8309e+000 19971 115617,115773,115747
 2.0000e-001 115845 -2.3121e+000  4.9795e+000 -5.3608e+000 19971 115643,115721,115695
 2.0000e-001 115822 -4.2485e+000  8.4297e+000 -2.0013e-001 19971 115643,115747,115721
 2.0000e-001 115799  9.3993e+000  1.0109e+001 -3.2730e+000 19971 115643,115695,115669
 2.0000e-001 115992  7.7220e+000  5.1713e+001  1.3680e+001 19659 115914,115966,115940
 2.0000e-001 116142 -1.3708e+001  5.7260e+000 -6.8674e-001 18997 116041,116093,116067
 2.0000e-001 116119 -1.3585e+001  6.9211e+000 -2.0035e+000 18997 116015,116093,116041
 2.0000e-001 116343  8.0302e+000  3.1204e+001  2.0922e+000 18707 116193,116245,116219
 2.0000e-001 116320  1.5420e+001  3.5230e+001  3.7609e+000 18707 116193,116271,116245
 2.0000e-001 116297  1.3009e+001  2.6816e+001  6.2037e+000 18707 116167,116271,116193
 2.0000e-001 116747 -9.4218e-001  2.2515e+001  8.6430e-001 18301 116525,116629,116551
 2.0000e-001 116724  1.2067e+000  1.9899e+001  9.7629e-001 18301 116473,116629,116525
 2.0000e-001 116701 -3.3523e-002  1.8741e+001  3.1066e+000 18301 116473,116525,116499
 2.0000e-001 116678 -2.3539e+000  2.4570e+001  7.8525e-001 18301 116551,116603,116577
 2.0000e-001 116655  5.2395e-001  2.5963e+001  1.4766e+000 18301 116551,116629,116603
 2.0000e-001 117147  2.6063e+001  3.5868e+001  3.1303e+000 17747 116899,117029,116925
 2.0000e-001 117124  1.9173e+001  2.9960e+001  6.1730e-001 17747 116873,117029,116899
 2.0000e-001 117101  2.1348e+001  3.5447e+001  5.7328e-001 17747 116925,117029,116951
 2.0000e-001 117078  2.0906e+001  3.4928e+001  1.0147e+000 17747 116951,117029,117003
 2.0000e-001 117055  2.1170e+001  3.7976e+001  1.4863e+000 17747 116951,117003,116977
 2.0000e-001 117368 -8.0303e+000  2.7483e+001  5.4972e-001 17293 117244,117296,117270
 2.0000e-001 117345 -4.3810e+000  2.6046e+001  1.1437e+000 17293 117192,117296,117244
 2.0000e-001 117322  6.3690e-002  2.5107e+001  6.2733e-001 17293 117192,117244,117218
 2.0000e-001 117699 -7.4714e-002  2.0682e+001 -9.7070e-001 16896 117526,117604,117552
 2.0000e-001 117676  4.2646e+000  2.5409e+001 -2.8010e+000 16896 117500,117604,117526
 2.0000e-001 117653  8.5330e+000  1.6809e+001  2.7269e+000 16896 117552,117604,117578
 2.0000e-001 117630 -9.5235e+000  3.2902e+001 -1.1233e+001 16896 117474,117604,117500
 2.0000e-001 117849 -1.7660e+001  2.7928e+001  5.2285e+000 16534 117722,117774,117748
 2.0000e-001 117826 -7.5427e+000  6.7640e+001  5.7401e+000 16534 117722,117800,117774
 2.0000e-001 118070  2.0042e+000  2.2885e+001 -1.8682e+000 16194 117946,117998,117972
 2.0000e-001 118047  4.1648e+000  2.6046e+001 -9.2816e-001 16194 117894,117998,117946
 2.0000e-001 118024  6.5404e+000  2.4475e+001  5.6852e-001 16194 117894,117946,117920
 2.0000e-001 118173  2.3710e+000  2.9114e+001  0.0000e+000 15968 118095,118147,118121
 2.0000e-001 118276  7.2129e+000  2.8465e+001  7.2517e-001 15433 118299,118198,118250
 2.0000e-001 118325  6.6568e+000  2.7167e+001  7.3788e-001 15433 118224,118198,118299
 2.0000e-001 118450  2.4853e+001  9.1859e+000  2.7936e+000 421 118372,118424,118398
 3.0000e-001 69891 -1.2053e+001  3.3196e+000  5.8471e+000 68988 69447,69681,69629
 3.0000e-001 69868 -2.3785e+001 -1.0332e+000 -5.6062e-001 68988 69421,69681,69447
 3.0000e-001 69845 -1.2233e+001  2.1803e+000  5.7700e+000 68988 69447,69629,69577
 3.0000e-001 69822 -6.4326e+000  1.4191e+001  8.0376e+000 68988 69447,69577,69473
 3.0000e-001 69799 -1.6897e+001 -3.0287e+000  3.3389e+000 68988 69629,69681,69655
 3.0000e-001 69776 -1.8229e+001 -1.4597e+000  1.2098e+001 68988 69577,69629,69603
 3.0000e-001 69753 -1.0927e+001  1.3460e+001  1.3766e+001 68988 69473,69577,69551
 3.0000e-001 69730 -5.8552e+000  7.1525e+001  1.4896e+001 68988 69473,69551,69525
 3.0000e-001 69707 -5.2774e+000  2.5608e+001  4.5231e-001 68988 69473,69525,69499
 3.0000e-001 69992  2.0056e-002  2.1444e-002  3.1525e-004 68676 69914,69966,69940
 3.0000e-001 70392  7.4323e+000  2.0673e+001 -2.5168e+000 68478 70118,70248,70144
 3.0000e-001 70369  2.7280e+001  2.2251e+001  3.3727e+000 68478 70118,70274,70248
 3.0000e-001 70346 -6.8875e+000  1.2931e+001 -3.8011e+000 68478 70144,70222,70196
 3.0000e-001 70323 -5.8468e+000  1.2853e+001  2.4149e+000 68478 70144,70248,70222
 3.0000e-001 70300 -1.9914e+000  1.5305e+001 -1.8395e+000 68478 70144,70196,70170
 3.0000e-001 70841  2.2482e+001  2.3012e+001 -1.1203e+001 68280 70570,70622,70596
 3.0000e-001 70818 -1.7105e+001  1.1812e+001  5.4433e-001 68280 70544,70622,70570
 3.0000e-001 70795 -1.8639e+001  4.9387e+000  2.2828e+000 68280 70544,70674,70622
 3.0000e-001 70772 -3.0412e+001  1.1460e+001  8.0757e+000 68280 70622,70674,70648
 3.0000e-001 70749 -7.4113e+000  1.4543e+001 -1.8177e+000 68280 70518,70674,70544
 3.0000e-001 70726  1.6429e+000  2.3487e+001  1.8635e+000 68280 70518,70700,70674
 3.0000e-001 70991 -2.5360e+001  4.3603e+001 -2.0559e-001 67968 70864,70916,70890
 3.0000e-001 70968 -3.2606e+001  2.2771e+001 -1.8252e+001 67968 70864,70942,70916
 3.0000e-001 71141 -1.1659e+002 -8.2189e+001  4.3908e+001 67770 71040,71092,71066
 3.0000e-001 71118 -1.2595e+002 -2.4889e+001  1.5934e+001 67770 71014,71092,71040
 3.0000e-001 71651  1.6492e-001  3.2004e+001  4.1088e+000 67366 71746,71674,71458
 3.0000e-001 71628 -6.0423e+000  1.7649e+001  6.2194e+000 67366 71674,71354,71510
 3.0000e-001 71605 -3.3981e+000  3.9581e+001  3.6119e+000 67366 71746,71458,71432
 3.0000e-001 71582  2.1619e+000  3.6297e+001 -7.0804e+000 67366 71354,71432,71380
 3.0000e-001 71559 -1.1391e+001  3.7939e+001 -8.3048e+000 67366 71380,71432,71406
 3.0000e-001 71536 -1.3924e+001  2.6877e+001  9.0104e+000 67366 71328,71510,71354
 3.0000e-001 71700  7.7392e-001  2.6142e+001  6.0022e-001 67366 71484,71458,71674
 3.0000e-001 71723 -2.0094e+000  2.5439e+001  2.2220e+000 67366 71484,71674,71510
 3.0000e-001 71772 -4.2229e+000  2.2964e+001  2.0287e+000 67366 71354,71674,71746
 3.0000e-001 71795 -7.5075e+000  3.0103e+001  2.3246e+000 67366 71354,71746,71432
 3.0000e-001 71896 -8.1007e+000  2.4119e+001  0.0000e+000 67146 71818,71870,71844
 3.0000e-001 71997 -9.1668e+001 -4.1451e+001 -1.8014e+001 66948 71919,71971,71945
 3.0000e-001 72149 -1.7041e+000  2.5024e+001 -4.1897e+000 66700 72172,72074,72048
 3.0000e-001 72126  8.4551e-004  1.9464e+001 -2.8185e+000 66700 72172,72048,72022
 3.0000e-001 72198  1.8679e+000  3.5062e+001 -7.3648e+000 66700 72244,72172,72100
 3.0000e-001 72221  2.9205e+000  3.1028e+001  5.8027e-001 66700 72100,72172,72022
 3.0000e-001 72270 -4.6711e+000  2.0063e+001 -5.8545e+000 66700 72074,72172,72244
 3.0000e-001 72623 -3.0472e+000  2.4505e+001 -1.2500e+000 66502 72424,72502,72450
 3.0000e-001 72600 -5.6081e+000  1.7120e+001 -6.0469e-001 66502 72398,72502,72424
 3.0000e-001 72577 -1.2444e+001  2.2878e+001  9.1843e-001 66502 72398,72528,72502
 3.0000e-001 72554 -5.8884e-001  1.9084e+001  6.4539e-002 66502 72450,72502,72476
 3.0000e-001 72920 -6.0392e-001  2.7657e+001  3.3690e+000 65941 72672,72776,72750
 3.0000e-001 72897 -1.5845e+001  2.7456e+001  3.9469e+000 65941 72646,72776,72672
 3.0000e-001 72874  8.1516e+000  3.2921e+001  6.3638e-001 65941 72672,72750,72724
 3.0000e-001 72851  1.4382e-001  1.8198e+001  3.7367e+000 65941 72672,72724,72698
 3.0000e-001 72828 -3.0230e+001  4.7333e+001 -2.5191e+000 65941 72646,72802,72776
 3.0000e-001 73241  1.2281e+001  1.9680e+001  3.6724e+000 65743 73264,73071,73045
 3.0000e-001 73218  9.8329e+000  2.1032e+001  8.8397e-001 65743 73480,73264,73045
 3.0000e-001 73195  3.3581e+000  1.9891e+001  8.4432e-001 65743 73336,72967,73097
 3.0000e-001 73172  4.8194e+000  1.8875e+001  1.5445e+000 65743 73408,72993,72967
 3.0000e-001 73149 -3.1197e+000  1.8480e+001  2.3938e-001 65743 72967,73123,73097
 3.0000e-001 73290  5.8759e+000  1.6627e+001  3.3144e-001 65743 73097,73071,73264
 3.0000e-001 73313  3.7179e+000  1.9792e+001  1.5798e+000 65743 73336,73097,73264
 3.0000e-001 73362  3.9110e+000  1.9834e+001  1.2658e+000 65743 73408,72967,73336
 3.0000e-001 73385  1.2757e+000  1.8762e+001  1.6185e+000 65743 73019,73336,73264
 3.0000e-001 73434  3.3741e+000  1.6143e+001  5.8715e-001 65743 73019,72993,73408
 3.0000e-001 73457  2.1437e+000  1.7991e+001  5.0781e-001 65743 73019,73408,73336
 3.0000e-001 73506  2.9363e+000  1.1334e+001  4.1540e+000 65743 73019,73264,73480
 3.0000e-001 73989 -1.4854e+001  2.0745e+001 -2.2557e+000 65453 73793,73845,73819
 3.0000e-001 73966 -3.2161e+000  2.1851e+001 -4.4227e+000 65453 73741,73845,73793
 3.0000e-001 73943 -1.4024e+001  1.3103e+001  1.1712e-001 65453 73715,73845,73741
 3.0000e-001 73920 -4.1805e+000  4.3104e+001 -8.9010e+000 65453 73741,73793,73767
 3.0000e-001 73897 -1.7470e+001  1.0793e+001  2.7519e+000 65453 73715,73871,73845
 3.0000e-001 74357 -9.1569e+000  2.1312e+001 -1.2011e+001 65141 74380,74138,74086
 3.0000e-001 74334 -1.1728e+001  5.4906e+000 -1.4433e+001 65141 74380,74086,74060
 3.0000e-001 74311 -3.3537e+000  1.5023e+001 -5.4407e+000 65141 74138,74190,74164
 3.0000e-001 74288  6.1264e+000  6.3497e+000 -5.2606e+000 65141 74060,74216,74190
 3.0000e-001 74265  3.9934e+000 -2.1764e-002 -2.3883e-001 65141 74034,74216,74060
 3.0000e-001 74242 -2.1865e+001  7.6347e+000 -1.8027e+001 65141 74086,74138,74112
 3.0000e-001 74406 -4.8050e+000  9.8491e+000 -4.8568e+000 65141 74190,74138,74380
 3.0000e-001 74429 -7.0745e+000  2.9937e+000 -7.6373e+000 65141 74190,74380,74060
 3.0000e-001 74937  4.0898e+000  3.3598e+000 -1.5342e-001 64737 74614,74666,74640
 3.0000e-001 74914 -2.7687e+000  3.6062e+000  1.3954e+000 64737 74614,74796,74666
 3.0000e-001 74891 -8.7034e+000  2.9404e+000 -4.9434e+000 64737 74960,74718,74666
 3.0000e-001 74868 -8.9595e+000  8.8689e+000 -2.7475e-002 64737 74960,74666,74770
 3.0000e-001 74845 -4.7035e+000 -1.1937e+000  1.9619e+000 64737 74666,74796,74770
 3.0000e-001 74822 -1.7713e+001  1.6317e+001 -1.3997e+001 64737 74666,74718,74692
 3.0000e-001 74986 -8.6717e+000  8.9497e+000 -2.1070e+000 64737 74744,74718,74960
 3.0000e-001 75009 -5.4963e+000  1.8397e+001  3.4288e+000 64737 74744,74960,74770
 3.0000e-001 75306  1.4413e+001  3.5519e+001 -4.4629e+000 64133 75329,75110,75084
 3.0000e-001 75283  1.1096e+001  3.6892e+001 -3.2048e+000 64133 75401,75329,75084
 3.0000e-001 75260  1.1847e+001  3.5450e+001 -2.5570e+000 64133 75401,75084,75058
 3.0000e-001 75237  1.2827e+001  4.6709e+001 -1.1927e+001 64133 75473,75136,75110
 3.0000e-001 75214  1.1682e+000  4.0535e+001 -3.8717e+000 64133 75032,75188,75162
 3.0000e-001 75355  1.7155e+001  4.0951e+001 -8.9806e+000 64133 75473,75110,75329
 3.0000e-001 75378  1.0145e+001  3.5840e+001 -4.0798e+000 64133 75162,75329,75032
 3.0000e-001 75427  8.6252e+000  3.1321e+001 -1.1100e+000 64133 75032,75329,75401
 3.0000e-001 75450  1.6386e+001  3.7945e+001 -3.8115e+000 64133 75545,75401,75058
 3.0000e-001 75499  3.3373e+000  3.9903e+001 -8.1326e+000 64133 75162,75136,75473
 3.0000e-001 75522  1.0147e+001  3.3856e+001 -5.8421e+000 64133 75162,75473,75329
 3.0000e-001 75571  8.4183e+000  1.9941e+001 -2.1011e+000 64133 75032,75401,75545
 3.0000e-001 75851  9.8161e-001  1.9325e+001 -7.1796e+000 63843 75874,75753,75727
 3.0000e-001 75828 -4.2990e+000  1.2228e+001 -3.4092e+000 63843 75946,75874,75727
 3.0000e-001 75805 -4.8058e+000  7.5950e+000 -1.3160e+000 63843 76018,75946,75727
 3.0000e-001 75900 -3.5564e+000  1.7448e+001 -6.3038e-001 63843 75779,75753,75874
 3.0000e-001 75923 -4.6809e+000  8.8588e+000  1.8422e+000 63843 75779,75874,75675
 3.0000e-001 75972 -3.0069e+000  1.5077e+001 -2.4172e+000 63843 75675,75874,75946
 3.0000e-001 75995 -1.4843e+000  1.4708e+001 -3.4953e+000 63843 75675,75946,75701
 3.0000e-001 76044 -1.1042e+000  1.6950e+001 -2.0101e+000 63843 75701,75946,76018
 3.0000e-001 76454  1.4889e+001  3.0353e+001 -1.2757e+001 63439 76477,76255,76229
 3.0000e-001 76431  3.5888e+000  1.7558e+001 -4.7967e-001 63439 76477,76229,76359
 3.0000e-001 76408  2.3584e+001  1.1917e+001  1.8273e+000 63439 76307,76359,76333
 3.0000e-001 76385  1.1687e+001  3.6180e+001 -1.4933e+001 63439 76255,76307,76281
 3.0000e-001 76503 -5.5267e+000  1.7207e+001 -6.2881e+000 63439 76307,76255,76477
 3.0000e-001 76526 -5.5500e-001  1.4404e+001  3.6151e+000 63439 76307,76477,76359
 3.0000e-001 76926 -1.3066e+001  1.0954e+001 -5.9049e+000 63049 76704,76782,76756
 3.0000e-001 76903 -1.5594e+001  8.0161e+000  1.7027e+000 63049 76704,76808,76782
 3.0000e-001 76880 -2.1739e+001  1.0440e+000 -2.1838e+000 63049 76704,76756,76730
 3.0000e-001 76857 -2.5679e+001 -7.7133e+000 -4.5492e+000 63049 76678,76808,76704
 3.0000e-001 76834 -3.5048e+001 -9.0258e+000 -3.5993e+000 63049 76652,76808,76678
 3.0000e-001 77076 -1.1788e+001  2.4574e+001  1.1251e+000 62737 76975,77027,77001
 3.0000e-001 77053 -1.8533e+001  2.6228e+001  2.4151e+000 62737 76949,77027,76975
 3.0000e-001 77324  1.9107e+000  2.6767e+001 -9.0103e+000 62277 77347,77177,77125
 3.0000e-001 77301 -1.4157e+000  2.2561e+001 -4.4593e+000 62277 77347,77125,77229
 3.0000e-001 77278 -4.1302e-001  2.7420e+001 -1.6552e+000 62277 77099,77229,77125
 3.0000e-001 77255  5.4299e+000  1.9963e+001 -9.7248e+000 62277 77125,77177,77151
 3.0000e-001 77373  4.1820e+000  3.8189e+001 -1.5778e+001 62277 77203,77177,77347
 3.0000e-001 77396 -7.7071e+000  2.7542e+001 -9.6151e+000 62277 77203,77347,77229
 3.0000e-001 77857 -9.6352e+000  1.9802e+001  3.8997e+000 61758 77635,77739,77661
 3.0000e-001 77834 -1.6192e+001  2.6406e+001 -2.1243e-002 61758 77583,77739,77635
 3.0000e-001 77811 -1.6723e+001  5.0364e+001  1.4438e+001 61758 77583,77635,77609
 3.0000e-001 77788 -1.0939e+001  2.8175e+001  2.1612e+000 61758 77661,77713,77687
 3.0000e-001 77765 -7.8432e+000  2.4461e+001  3.8149e+000 61758 77661,77739,77713
 3.0000e-001 78491 -9.4689e+000  6.6442e+000 -5.9387e+000 61418 78171,78301,78249
 3.0000e-001 78468 -1.9312e+001  4.7709e+000 -7.1026e+000 61418 78145,78301,78171
 3.0000e-001 78445 -1.0731e+001  8.9201e+000 -1.0221e+001 61418 78171,78249,78223
 3.0000e-001 78422 -1.8688e+001  5.1710e+000 -9.8432e+000 61418 78145,78327,78301
 3.0000e-001 78399  1.0774e+000  2.8250e+001 -9.7646e+000 61418 78249,78301,78275
 3.0000e-001 78376 -1.8320e+001  1.7223e+001 -9.6330e+000 61418 78171,78223,78197
 3.0000e-001 78353 -3.5298e+001 -5.5662e+000 -1.5192e+001 61418 78119,78327,78145
 3.0000e-001 78690 -2.0041e+001  4.9648e+000 -2.5817e+000 61014 78713,78566,78540
 3.0000e-001 78667 -5.4299e+000  8.2245e+000 -3.8568e+000 61014 78713,78540,78618
 3.0000e-001 78644 -3.5784e+000  4.8704e+000 -1.2094e+001 61014 78514,78618,78540
 3.0000e-001 78739 -1.5788e+000  1.7656e+001  6.7315e+000 61014 78592,78566,78713
 3.0000e-001 78762 -8.1407e-001 -4.4089e-001 -2.0661e+000 61014 78785,78713,78618
 3.0000e-001 78811 -6.0637e-001  8.5010e-001  2.1520e+000 61014 78592,78713,78785
 3.0000e-001 79398  4.1243e+000  2.1383e+001 -1.0142e+001 60624 79101,79179,79153
 3.0000e-001 79375  1.0887e+001  6.9357e+000 -4.4221e+000 60624 79101,79231,79179
 3.0000e-001 79352 -5.8474e-002  3.5643e+000 -3.1406e+000 60624 79075,79231,79101
 3.0000e-001 79329  2.4423e+001  4.2290e+000  2.1581e+000 60624 79075,79257,79231
 3.0000e-001 79306  2.1792e+001  2.4070e+001  6.4525e+000 60624 79179,79231,79205
 3.0000e-001 79283  1.2883e+001  4.0064e+001 -1.6829e+000 60624 79101,79153,79127
 3.0000e-001 79776  1.5660e-001  2.5869e+001 -2.8574e+000 60070 79528,79658,79606
 3.0000e-001 79753  7.9892e-001  2.7393e+001 -2.7975e+000 60070 79502,79658,79528
 3.0000e-001 79730 -1.2202e+001  3.2742e+001  4.5565e+000 60070 79528,79606,79580
 3.0000e-001 79707  3.2412e-001  3.7013e+001 -5.8668e+000 60070 79606,79658,79632
 3.0000e-001 79684 -3.9693e+001  1.9823e+001  8.0287e+000 60070 79528,79580,79554
 3.0000e-001 80105 -1.0609e+001  2.6020e+001 -1.2606e+001 59758 80128,79958,79906
 3.0000e-001 80082 -1.7069e+001  1.2161e+001 -5.9886e+000 59758 80128,79906,80010
 3.0000e-001 80059 -6.5877e+000  2.7557e+001 -1.8758e+001 59758 79906,79958,79932
 3.0000e-001 80036 -2.2072e+001  2.0622e+001 -1.9551e+000 59758 79880,80010,79906
 3.0000e-001 80154 -1.4195e+001  3.5368e+001 -1.7199e+001 59758 79984,79958,80128
 3.0000e-001 80177 -1.6383e+001  2.5522e+001 -1.1480e+001 59758 79984,80128,80010
 3.0000e-001 80376 -7.7138e+000  2.3327e+001 -4.8379e-001 59312 80226,80304,80252
 3.0000e-001 80353 -1.4586e+001  2.2353e+001 -2.9070e+000 59312 80200,80304,80226
 3.0000e-001 80330 -4.5930e+000  1.6765e+001 -7.6364e+000 59312 80252,80304,80278
 3.0000e-001 80805 -1.6280e+001  4.0032e+000  6.4983e-001 58908 80900,80828,80638
 3.0000e-001 80782 -7.3434e+000  7.6412e-001  3.1952e+000 58908 80828,80560,80508
 3.0000e-001 80759 -1.5885e+001  2.7423e+000 -1.3537e+000 58908 80900,80638,80612
 3.0000e-001 80736 -2.7276e+001 -3.2472e+000  8.9903e+000 58908 80482,80664,80508
 3.0000e-001 80713 -2.6235e+001  7.4652e+000 -5.0190e+000 58908 80560,80612,80586
 3.0000e-001 80690 -7.8764e+000 -6.5588e+000  2.0968e+000 58908 80508,80560,80534
 3.0000e-001 80854 -1.7130e+001  2.5190e+000  1.8678e+000 58908 80664,80638,80828
 3.0000e-001 80877 -1.6379e+001 -4.7129e+000  5.4947e+000 58908 80664,80828,80508
 3.0000e-001 80926 -1.7535e+001  3.2721e-001  8.6225e-001 58908 80560,80828,80900
 3.0000e-001 80949 -1.6653e+001  2.6765e-001 -1.4314e+000 58908 80560,80900,80612
 3.0000e-001 81246 -1.0022e+001  1.3056e+001  3.5747e-001 58482 81076,81128,81102
 3.0000e-001 81223 -7.9336e+000  2.1209e+001  1.6199e+000 58482 80972,81128,81076
 3.0000e-001 81200 -1.3745e+001  7.5114e+000  3.2253e+000 58482 80972,81076,81050
 3.0000e-001 81177  9.9583e+000  7.1254e+000  3.4255e+000 58482 80998,81050,81024
 3.0000e-001 81154 -6.7112e+000  4.5733e+000  9.3455e+000 58482 80972,81050,80998
 3.0000e-001 81754 -9.0510e+000  7.1495e+000  3.0473e+000 57828 81457,81613,81483
 3.0000e-001 81731 -3.8568e+000  1.5179e+001  8.4427e+000 57828 81431,81613,81457
 3.0000e-001 81708 -1.1020e+001  2.8556e+000  9.8847e+000 57828 81483,81613,81509
 3.0000e-001 81685 -3.0684e+000  4.4809e+000  6.7834e+000 57828 81509,81613,81587
 3.0000e-001 81662 -2.6035e+000  9.4353e+000  5.7865e+000 57828 81509,81587,81535
 3.0000e-001 81639  1.6570e+001  1.1366e+001 -1.2044e-002 57828 81535,81587,81561
 3.0000e-001 82002  9.2733e+000  5.2973e+001 -1.2545e+000 57374 82025,81855,81829
 3.0000e-001 81979  6.6242e+000  4.7326e+001 -4.9467e+000 57374 82025,81829,81907
 3.0000e-001 81956  6.2025e+000  3.7030e+001 -3.9509e+000 57374 81803,81907,81829
 3.0000e-001 81933  4.3605e+000  3.6315e+001 -4.0620e+000 57374 81777,81907,81803
 3.0000e-001 82051  1.7417e+001  4.7045e+001 -4.0914e+000 57374 81881,81855,82025
 3.0000e-001 82074  6.4918e+000  3.7947e+001 -1.0087e+001 57374 81881,82025,81907
 3.0000e-001 82356  1.3774e+001  3.8111e+001 -1.3288e+000 56913 82180,82232,82206
 3.0000e-001 82333  9.7827e+000  3.0336e+001 -4.2816e+000 56913 82180,82284,82232
 3.0000e-001 82310  1.6091e+001  1.9534e+001 -3.7052e+000 56913 82379,82232,82284
 3.0000e-001 82405  9.1622e+000  1.7108e+001 -2.8770e+000 56913 82258,82232,82379
 3.0000e-001 82764  7.3331e+000  2.3850e+001  5.7692e-001 56523 82614,82666,82640
 3.0000e-001 82741  4.1941e+000  1.3995e+001  1.6335e+000 56523 82614,82692,82666
 3.0000e-001 82718  1.0633e+001  1.6936e+001  2.3230e+000 56523 82588,82692,82614
 3.0000e-001 83368 -4.0296e+000  4.4551e+001 -1.2380e+000 55969 82973,83155,83129
 3.0000e-001 83345 -7.8241e+000  4.3277e+001  3.8892e+000 55969 82973,83181,83155
 3.0000e-001 83322 -1.9084e+000  3.2968e+001  8.3338e-001 55969 82973,83129,82999
 3.0000e-001 83299  1.3721e+001  4.0014e+001 -7.0298e+000 55969 83391,83025,82999
 3.0000e-001 83276  3.3641e+000  3.6521e+001 -2.9701e+000 55969 83391,82999,83129
 3.0000e-001 83253 -8.5627e+000  1.8075e+001 -2.8990e+000 55969 83077,83129,83103
 3.0000e-001 83230 -1.3095e+001  2.4726e+001  9.5255e-001 55969 83025,83077,83051
 3.0000e-001 83207 -3.6618e+001  3.0743e+001  2.3369e+000 55969 82947,83181,82973
 3.0000e-001 83417  3.0372e+000  3.7495e+001 -4.7585e+000 55969 83077,83025,83391
 3.0000e-001 83440 -1.0896e+000  3.8495e+001 -8.9151e-001 55969 83077,83391,83129
 3.0000e-001 83946  7.1514e+000  1.3387e+001 -1.0908e+001 55771 83969,83779,83727
 3.0000e-001 83923  6.8482e+000  1.6061e+001 -3.7819e+000 55771 83969,83727,83623
 3.0000e-001 83900 -4.4984e+000  1.7622e+001 -1.1585e+000 55771 83623,83727,83649
 3.0000e-001 83877  1.9384e+001  1.5384e+001 -7.5603e+000 55771 83727,83779,83753
 3.0000e-001 83854  9.7545e-001  8.1555e+000 -4.9451e+000 55771 83675,83727,83701
 3.0000e-001 83831 -3.6042e+000  1.7101e+001 -7.6657e-002 55771 83649,83727,83675
 3.0000e-001 83995  1.7708e+000  1.0774e+001 -1.2547e+001 55771 83805,83779,83969
 3.0000e-001 84018 -1.6322e+000  1.3103e+001 -5.1671e+000 55771 83805,83969,83623
 3.0000e-001 84168 -2.4589e+000  2.2113e+001  6.8153e-001 55367 84191,84067,84041
 3.0000e-001 84145 -3.7425e+000  2.5092e+001  7.6631e-001 55367 84191,84041,84119
 3.0000e-001 84217 -3.0333e+000  2.1444e+001  4.3733e-001 55367 84093,84067,84191
 3.0000e-001 84240 -6.5726e+000  2.2281e+001 -3.7496e-001 55367 84093,84191,84119
 3.0000e-001 84571 -2.4906e+001  2.2367e+001 -2.7002e+000 54913 84398,84450,84424
 3.0000e-001 84548 -2.3870e+001  2.0584e+001 -3.9635e+000 54913 84372,84450,84398
 3.0000e-001 84525 -1.2940e+001  2.7467e+001 -7.7320e+000 54913 84346,84450,84372
 3.0000e-001 84502 -1.8192e+001  1.5352e+001  9.7008e-001 54913 84346,84476,84450
 3.0000e-001 85126 -4.6743e+000  1.7529e+001  7.9358e+000 54402 84858,84936,84910
 3.0000e-001 85103 -1.6896e-002  1.9953e+001 -7.6527e+000 54402 84806,84936,84858
 3.0000e-001 85080  5.9182e+000  1.9178e+001 -7.5834e+000 54402 84780,84936,84806
 3.0000e-001 85057 -2.0509e+001  2.0018e+001 -1.0109e+001 54402 84806,84858,84832
 3.0000e-001 85034 -1.2545e+001  1.0409e+001 -1.1975e+001 54402 84780,84962,84936
 3.0000e-001 85011  1.7288e+001  1.2175e+001  1.3672e+001 54402 84858,84910,84884
 3.0000e-001 84988 -6.9881e+000  1.9112e+001 -9.3361e+000 54402 84754,84962,84780
 3.0000e-001 85396 -2.6665e+000  9.2143e+000  2.4696e+000 53998 85197,85249,85223
 3.0000e-001 85373 -7.0648e+000  1.5144e+001  1.3012e+000 53998 85197,85275,85249
 3.0000e-001 85350 -1.0833e+001  1.3965e+001  2.1789e-001 53998 85171,85275,85197
 3.0000e-001 85327 -9.0935e+000  1.4931e+001 -1.7688e-001 53998 85171,85301,85275
 3.0000e-001 85749 -1.4529e+001  3.5975e+001  3.2327e+000 53636 85524,85628,85550
 3.0000e-001 85726 -6.4613e+000  4.4225e+001 -3.1645e-002 53636 85524,85654,85628
 3.0000e-001 85703 -1.4414e+001  3.7196e+001 -2.2587e+000 53636 85550,85602,85576
 3.0000e-001 85680 -2.7920e+001  3.0165e+001  3.8503e+000 53636 85550,85628,85602
 3.0000e-001 86127  8.9580e+000  3.0754e+001 -5.8536e+000 52982 86150,85957,85879
 3.0000e-001 86104  2.3692e+001  4.3944e+001 -1.9606e-002 52982 86150,85879,85853
 3.0000e-001 86081  7.4149e+000  6.5500e+001 -5.8219e+000 52982 85957,86009,85983
 3.0000e-001 86058  2.3297e+001  3.3245e+001 -3.7077e+000 52982 85879,85957,85931
 3.0000e-001 86035  1.8436e+001  2.1164e+001 -3.2079e+000 52982 85879,85931,85905
 3.0000e-001 86176 -1.4686e+000  4.5137e+001 -3.7154e+000 52982 86009,85957,86150
 3.0000e-001 86199  7.3417e+000  5.5190e+001  6.1028e-002 52982 86009,86150,85853
 3.0000e-001 86398 -7.9682e+000  5.0195e+000  1.4206e+000 52542 86421,86248,86222
 3.0000e-001 86375 -6.9113e+000  7.6548e+000  1.8530e+000 52542 86421,86222,86300
 3.0000e-001 86352 -2.6590e+000  1.6291e+001  4.9493e-001 52542 86222,86326,86300
 3.0000e-001 86447 -1.0297e+001  6.3639e+000 -9.1598e-001 52542 86274,86248,86421
 3.0000e-001 86470 -8.4017e+000  1.0488e+001 -2.6624e-001 52542 86274,86421,86300
 3.0000e-001 86669 -8.8992e+000  5.6600e+000  2.6697e+000 52230 86692,86571,86545
 3.0000e-001 86646 -5.2449e+000  1.3544e+001  2.2192e-001 52230 86692,86545,86519
 3.0000e-001 86623  3.6303e+000  1.1370e+001 -5.9189e+000 52230 86493,86597,86519
 3.0000e-001 86718 -6.4664e+000  5.2750e+000 -4.1089e+000 52230 86597,86571,86692
 3.0000e-001 86741 -1.1801e+000  1.3929e+001 -6.9708e+000 52230 86597,86692,86519
 3.0000e-001 87153  1.1395e+001  1.5524e+001  6.5226e-001 51640 86980,87058,87032
 3.0000e-001 87130  9.5011e+000  1.8348e+001  1.7377e+000 51640 86928,87058,86980
 3.0000e-001 87107  4.6670e+000  3.0209e+000  1.1914e+000 51640 86928,86980,86954
 3.0000e-001 87084  1.8362e+000  1.1242e+001 -6.2559e+000 51640 86980,87032,87006
 3.0000e-001 87659 -2.8469e+000  1.4732e+001 -1.8121e+000 51029 87682,87440,87362
 3.0000e-001 87636 -1.5367e+001  1.3380e+001  4.5250e+000 51029 87682,87362,87336
 3.0000e-001 87613  7.1647e-001  2.3637e+001 -6.1771e+000 51029 87440,87518,87466
 3.0000e-001 87590  8.3690e-001  2.4769e+001 -5.5721e+000 51029 87362,87440,87414
 3.0000e-001 87567 -5.3300e+000  9.7282e+000 -8.5605e+000 51029 87362,87414,87388
 3.0000e-001 87544  1.8007e+001  1.4664e+001 -1.3694e+001 51029 87466,87518,87492
 3.0000e-001 87708  6.5264e-002  1.6455e+001 -3.8731e+000 51029 87518,87440,87682
 3.0000e-001 87731 -4.9919e+000  2.4252e+001  3.7535e-002 51029 87518,87682,87336
 3.0000e-001 87881 -6.2767e+000  1.1166e+001  2.5307e-001 50739 87780,87832,87806
 3.0000e-001 87858 -2.9187e+000  2.2388e+001 -4.3234e-001 50739 87754,87832,87780
 3.0000e-001 88468 -7.9159e-001  1.1929e+001  6.5433e+000 50235 88171,88327,88197
 3.0000e-001 88445  9.3333e+000  1.1922e+001  1.0346e+001 50235 88145,88327,88171
 3.0000e-001 88422  3.0573e+000  3.4054e+000  1.2203e+001 50235 88275,88327,88301
 3.0000e-001 88399  2.5499e+000  3.2347e+000  3.8190e+000 50235 88197,88327,88275
 3.0000e-001 88376  8.0485e+000  2.2745e+001  8.1833e+000 50235 88197,88275,88223
 3.0000e-001 88353  4.5037e+000  2.5322e+001  1.3305e+001 50235 88223,88275,88249
 3.0000e-001 88895 -2.3951e+000  2.8444e+001 -4.5580e+000 49873 88918,88728,88676
 3.0000e-001 88872 -4.4893e+000  2.6116e+001 -3.1667e+000 49873 88918,88676,88624
 3.0000e-001 88849  2.3814e+000  2.3287e+001  2.0695e+000 49873 88598,88754,88624
 3.0000e-001 88826  4.8508e+000  3.6190e+001 -1.1598e+001 49873 88624,88676,88650
 3.0000e-001 88803 -5.0173e+000  5.1744e+001 -4.0515e+000 49873 88676,88728,88702
 3.0000e-001 88780 -1.6685e+001  2.4414e+001  4.4734e+000 49873 88572,88754,88598
 3.0000e-001 88944 -4.9394e+000  2.8170e+001 -3.0911e+000 49873 88754,88728,88918
 3.0000e-001 88967 -5.7478e+000  2.7334e+001 -1.9389e+000 49873 88754,88918,88624
 3.0000e-001 89473  1.8585e+001  2.3830e+001  1.0363e+001 49583 89176,89306,89202
 3.0000e-001 89450 -7.3709e-001  2.0031e+001  6.1699e-001 49583 89176,89332,89306
 3.0000e-001 89427  1.3509e+001  1.5143e+001  4.3506e+000 49583 89496,89228,89202
 3.0000e-001 89404  7.5824e+000  1.5939e+001  4.2465e+000 49583 89496,89202,89280
 3.0000e-001 89381  8.6095e+000  1.7443e+001  7.2535e+000 49583 89202,89306,89280
 3.0000e-001 89358  8.5755e+000  1.3106e+001 -5.2533e+000 49583 89150,89332,89176
 3.0000e-001 89522  6.8512e+000  1.3431e+001 -5.5136e-001 49583 89254,89228,89496
 3.0000e-001 89545  2.9467e+000  1.7034e+001  3.5769e+000 49583 89254,89496,89280
 3.0000e-001 89825 -1.8522e+000  1.4107e+001  3.0650e+000 49179 89701,89753,89727
 3.0000e-001 89802  2.8729e-001  1.5515e+001  2.3738e+000 49179 89675,89753,89701
 3.0000e-001 89779  1.6461e+000  1.7767e+001  3.8760e+000 49179 89848,89753,89675
 3.0000e-001 89874  1.5810e+001  2.1042e+001  7.5027e+000 49179 89649,89753,89848
 3.0000e-001 90223 -8.5283e-001  2.9971e+001 -3.0784e+000 48739 90024,90102,90076
 3.0000e-001 90200 -6.1881e+000  2.9436e+001 -1.1152e+000 48739 90024,90128,90102
 3.0000e-001 90177 -5.2273e+000  2.0091e+001  1.4039e+000 48739 90024,90076,90050
 3.0000e-001 90154 -6.7301e+000  3.9687e+001 -2.1990e+000 48739 89998,90128,90024
 3.0000e-001 90603  2.2414e+001  3.1809e+001  5.1630e+000 48335 90381,90485,90459
 3.0000e-001 90580  2.6277e+001  4.3782e+001  5.5902e+000 48335 90355,90485,90381
 3.0000e-001 90557  1.7701e+001  1.9208e+001  1.8365e+000 48335 90381,90433,90407
 3.0000e-001 90534  1.7419e+001  2.7797e+001  2.5443e+000 48335 90381,90459,90433
 3.0000e-001 90511  6.1621e+000  2.2071e+001 -1.2152e+001 48335 90329,90485,90355
 3.0000e-001 90753  4.9694e-002  1.4020e+001 -1.9834e+000 47824 90776,90652,90704
 3.0000e-001 90730  5.3291e-001  1.3877e+001 -1.1805e+000 47824 90626,90704,90652
 3.0000e-001 90802  1.0157e+001  1.2882e+001 -1.5885e+000 47824 90678,90652,90776
 3.0000e-001 91131 -3.8672e+000  2.2658e+001  1.3251e-001 47427 91154,90958,90906
 3.0000e-001 91108  5.9713e+000  2.7277e+001 -4.7286e+000 47427 91154,90906,91036
 3.0000e-001 91085  8.5100e-001  8.4224e+000  4.8294e+000 47427 90958,91010,90984
 3.0000e-001 91062 -1.8857e+001  1.8050e+001  8.6816e+000 47427 90906,90958,90932
 3.0000e-001 91180  4.0261e-001  1.6833e+001  7.1022e+000 47427 91010,90958,91154
 3.0000e-001 91203  9.3751e+000  2.0594e+001  2.3549e+000 47427 91010,91154,91036
 3.0000e-001 91583 -1.7415e+001  1.5976e+001 -4.0550e+000 46873 91309,91439,91335
 3.0000e-001 91560 -1.2814e+001  3.9339e+001 -7.5052e+000 46873 91309,91465,91439
 3.0000e-001 91537 -2.7664e-001  1.2740e+001 -4.4384e+000 46873 91361,91439,91413
 3.0000e-001 91514  3.0240e+000  2.4600e+001 -4.5892e+000 46873 91335,91439,91361
 3.0000e-001 91491  1.6049e+000  1.2264e+001 -5.1778e+000 46873 91361,91413,91387
 3.0000e-001 91880 -1.4446e+000  1.4491e+001  3.1564e+000 46526 91606,91710,91658
 3.0000e-001 91857 -3.8424e+000  1.7944e+001  3.4820e-001 46526 91606,91762,91710
 3.0000e-001 91834 -7.0844e+000  1.0779e+001  6.8644e+000 46526 91606,91658,91632
 3.0000e-001 91811 -5.1205e-001  8.7882e+000  1.0055e-002 46526 91658,91710,91684
 3.0000e-001 91788 -6.1886e+000  1.0233e+001 -6.0375e-001 46526 91710,91762,91736
 3.0000e-001 92211  9.2550e+000  2.5913e+001  3.5989e+000 45700 91986,92064,92038
 3.0000e-001 92188  1.3546e+001  3.6335e+001  1.3206e+000 45700 91986,92116,92064
 3.0000e-001 92165  8.2197e+000  2.2505e+001  2.3330e+000 45700 91986,92038,92012
 3.0000e-001 92142  1.7655e+001  3.4227e+001  5.1895e+000 45700 92064,92116,92090
 3.0000e-001 92766 -3.9806e+001  4.2612e+000 -9.7772e+000 45452 92446,92602,92576
 3.0000e-001 92743 -3.3108e+001  1.4934e+001 -6.9281e+000 45452 92420,92602,92446
 3.0000e-001 92720 -1.9460e+001  3.5232e+000 -4.5653e+000 45452 92789,92524,92498
 3.0000e-001 92697 -2.1773e+001  9.9754e+000 -4.8075e+000 45452 92789,92498,92446
 3.0000e-001 92674 -1.8229e+001  8.6129e+000 -1.0527e+001 45452 92524,92576,92550
 3.0000e-001 92651 -2.7812e+001  5.8898e+000  4.0139e+000 45452 92446,92498,92472
 3.0000e-001 92628 -6.2857e+001  3.5112e+000 -1.0295e+001 45452 92394,92602,92420
 3.0000e-001 92815 -1.7265e+001  8.5983e+000 -5.5976e+000 45452 92576,92524,92789
 3.0000e-001 92838 -2.0459e+001  1.3541e+001 -5.9298e+000 45452 92576,92789,92446
 3.0000e-001 92939 -4.2611e-001  1.3865e+001  4.0912e+000 44998 92861,92913,92887
 3.0000e-001 93319  4.5237e+000  1.8821e+001 -5.7257e+000 44601 93123,93201,93149
 3.0000e-001 93296  1.0593e+001  2.1879e+001  7.5753e-001 44601 93045,93201,93123
 3.0000e-001 93273  7.6644e+000  1.3624e+001  2.1751e+000 44601 93045,93123,93071
 3.0000e-001 93250  1.1625e+001  1.3636e+001 -3.4804e-002 44601 93071,93123,93097
 3.0000e-001 93227  1.9101e+001  2.5309e+001 -1.3548e+001 44601 93149,93201,93175
 3.0000e-001 93697 -1.2707e+001  1.8531e+000  3.1828e+000 44026 93720,93553,93527
 3.0000e-001 93674 -1.3518e+001 -3.3695e-001  2.4845e+000 44026 93720,93527,93449
 3.0000e-001 93651 -1.7309e+001 -9.4758e+000  2.6785e+000 44026 93449,93527,93501
 3.0000e-001 93628 -1.8699e+001 -1.4142e+001  2.2299e+001 44026 93423,93579,93449
 3.0000e-001 93605 -1.2902e+001 -7.4931e+000  3.4469e+000 44026 93449,93501,93475
 3.0000e-001 93746 -1.0762e+001 -8.1534e-001  3.1359e+000 44026 93579,93553,93720
 3.0000e-001 93769 -1.2030e+001 -3.4215e+000  2.2434e+000 44026 93579,93720,93449
 3.0000e-001 94066  4.8116e+000  1.1135e+001  2.4491e+000 43579 94089,93818,93792
 3.0000e-001 94043 -1.3103e+000  9.3966e+000  3.4351e+000 43579 94161,94089,93792
 3.0000e-001 94020 -1.7688e+000  8.9742e+000  4.6221e+000 43579 94161,93792,93948
 3.0000e-001 93997 -1.1963e+000  8.4020e+000  4.6742e-001 43579 94233,93870,93818
 3.0000e-001 93974 -4.6788e+000  1.1142e+001 -2.6534e+000 43579 93818,93870,93844
 3.0000e-001 94115 -9.7352e-001  8.6612e+000  1.2887e+000 43579 94233,93818,94089
 3.0000e-001 94138  1.4373e+000  1.2369e+001  2.0666e+000 43579 93896,94089,93922
 3.0000e-001 94187 -6.9966e-001  1.1802e+001  1.8329e+000 43579 93922,94089,94161
 3.0000e-001 94210 -2.1682e+000  1.1080e+001  3.1750e+000 43579 93922,94161,93948
 3.0000e-001 94259 -1.9860e+000  9.9031e+000  1.8458e+000 43579 93896,93870,94233
 3.0000e-001 94282 -3.4979e-001  1.0553e+001  2.8360e+000 43579 93896,94233,94089
 3.0000e-001 94481 -5.9415e-001  1.4147e+001  8.3796e-002 43239 94305,94383,94357
 3.0000e-001 94458 -1.6809e+000  1.2154e+001 -2.7223e+000 43239 94305,94409,94383
 3.0000e-001 94435  4.4288e-001  1.2753e+001 -1.4400e-001 43239 94305,94357,94331
 3.0000e-001 94633  2.7123e-001  1.1266e+001 -4.0934e+000 42827 94656,94532,94506
 3.0000e-001 94610 -1.2533e+000  8.3415e+000  7.5780e-001 42827 94728,94656,94506
 3.0000e-001 94682  3.1625e+000  1.9680e+001 -2.0787e+000 42827 94558,94532,94656
 3.0000e-001 94705  1.0211e+001  1.1156e+001 -3.2048e+000 42827 94988,94860,94656
 3.0000e-001 94754  5.0751e+000  1.3822e+001 -4.6121e+000 42827 94988,94656,94728
 3.0000e-001 94886  7.1125e+000  1.1587e+001 -4.8725e-001 42827 94558,94656,94860
 3.0000e-001 95014  1.4459e+001  1.3411e+001 -4.1815e+000 42827 94584,94860,94988
 3.0000e-001 95037  1.0324e+001  1.6353e+001 -5.3781e+000 42827 94584,94988,94728
 3.0000e-001 95236 -2.9404e+000  1.6534e+001 -1.9271e-001 42537 95259,95112,95060
 3.0000e-001 95213 -3.2951e+000  2.4002e+001 -3.3866e+000 42537 95259,95060,95164
 3.0000e-001 95190 -2.6651e+000  1.8131e+001  3.5439e-001 42537 95060,95112,95086
 3.0000e-001 95285 -3.0977e+000  1.1849e+001  4.8146e-001 42537 95138,95112,95259
 3.0000e-001 95308 -5.6202e+000  1.5992e+001 -2.8652e+000 42537 95138,95259,95164
 3.0000e-001 95816  1.2832e+001  1.6090e+001  4.9881e+000 41969 95493,95597,95519
 3.0000e-001 95793  1.6980e+001  1.9795e+001  2.4278e+000 41969 95493,95649,95597
 3.0000e-001 95770  9.4960e+000  1.4832e+001  5.0030e+000 41969 95493,95675,95649
 3.0000e-001 95747  2.1760e+001  1.3192e+001  2.7140e+000 41969 95597,95649,95623
 3.0000e-001 95724  5.7150e+000  1.5069e+001  5.2854e+000 41969 95519,95597,95571
 3.0000e-001 95701  2.2032e+000  5.8989e+000  2.1519e+000 41969 95519,95571,95545
 3.0000e-001 96371  3.8426e-001  1.0010e+001  6.6510e+000 41579 96025,96207,96181
 3.0000e-001 96348 -1.2350e+000  8.3104e+000  1.4330e+001 41579 95999,96207,96025
 3.0000e-001 96325 -8.1681e+000  1.1426e+001  5.6930e+000 41579 96129,96181,96155
 3.0000e-001 96302  1.7888e-001  7.8843e+000  7.3071e+000 41579 96025,96181,96129
 3.0000e-001 96279  5.8141e-001  5.5707e+000  4.8153e+000 41579 96025,96129,96051
 3.0000e-001 96256  5.7679e+000  1.6796e+000  3.1454e+000 41579 96051,96103,96077
 3.0000e-001 96233  4.7855e+000  6.9927e+000  4.1509e+000 41579 96051,96129,96103
 3.0000e-001 96877 -4.8711e+000  1.6005e+001  1.3777e+000 41182 96972,96900,96632
 3.0000e-001 96854 -5.8191e+000  1.7659e+001  2.1588e+000 41182 96900,96554,96736
 3.0000e-001 96831 -3.4959e+000  1.4653e+001  5.5266e+000 41182 96972,96632,96580
 3.0000e-001 96808 -8.5456e+000  1.3913e+001  4.0813e-001 41182 96632,96684,96658
 3.0000e-001 96785 -1.1176e+000  1.5430e+001 -3.3661e-001 41182 96684,96736,96710
 3.0000e-001 96762  3.0379e+000  1.8425e+001  2.7593e-001 41182 96580,96632,96606
 3.0000e-001 96926 -4.7224e+000  1.6156e+001  1.4401e+000 41182 96684,96632,96900
 3.0000e-001 96949 -1.4511e+000  1.5450e+001  2.0669e+000 41182 96684,96900,96736
 3.0000e-001 96998 -1.1253e+001  1.3918e+001  4.5841e+000 41182 96554,96900,96972
 3.0000e-001 97021 -1.2016e+001  9.7184e+000  9.1705e+000 41182 96554,96972,96580
 3.0000e-001 97576  1.7473e+001  8.6204e+000 -6.9855e+000 40678 97230,97412,97282
 3.0000e-001 97553  1.8393e+001  9.8353e+000 -3.0000e-001 40678 97204,97412,97230
 3.0000e-001 97530 -1.1398e+000  1.1052e+001 -9.1069e+000 40678 97282,97360,97308
 3.0000e-001 97507  9.2407e+000  1.5997e+001 -6.0897e+000 40678 97282,97412,97360
 3.0000e-001 97484 -2.3076e+001  4.8910e+000 -2.0190e+001 40678 97308,97360,97334
 3.0000e-001 97461  1.4304e+000  1.8204e+001 -2.5657e+000 40678 97360,97412,97386
 3.0000e-001 97438  1.6237e+001  5.3965e-001 -3.1076e+000 40678 97230,97282,97256
 3.0000e-001 97976  6.0932e+000  1.8692e+001 -2.2441e+000 40244 97702,97832,97754
 3.0000e-001 97953 -1.7034e-001  1.6323e+001 -5.3097e-001 40244 97702,97858,97832
 3.0000e-001 97930  6.1688e+000  1.9941e+001  1.2713e+000 40244 97702,97754,97728
 3.0000e-001 97907 -3.5712e-002  3.1623e+001 -3.4278e+000 40244 97780,97832,97806
 3.0000e-001 97884 -8.6548e+000  1.1329e+001 -4.7463e+000 40244 97754,97832,97780
 3.0000e-001 98482  1.2116e+000  1.9042e+001  2.0456e+000 39690 98505,98185,98159
 3.0000e-001 98459  2.0497e+000  1.8400e+001  2.4711e+000 39690 98505,98159,98289
 3.0000e-001 98436 -2.9123e+000  9.2437e+000  4.8848e+000 39690 98159,98315,98289
 3.0000e-001 98413 -2.6524e+001  6.6567e+000  4.6608e+000 39690 98211,98289,98263
 3.0000e-001 98390 -1.3113e+001  2.6348e+001 -1.2588e+000 39690 98211,98263,98237
 3.0000e-001 98367  2.4980e+000  9.2878e+000  5.1266e+000 39690 98159,98341,98315
 3.0000e-001 98531  1.2036e-001  1.8656e+001  2.0646e+000 39690 98211,98185,98505
 3.0000e-001 98554  1.3072e+000  1.8258e+001  2.5503e+000 39690 98211,98505,98289
 3.0000e-001 99109 -9.2892e+000  7.3761e+000  6.7322e-001 39072 99132,98867,98789
 3.0000e-001 99086 -2.6288e+001  3.6966e+000  1.4078e+000 39072 99132,98789,98763
 3.0000e-001 99063 -6.3475e-001  5.9419e+000  1.8284e-001 39072 98867,98945,98919
 3.0000e-001 99040 -1.5476e+001  2.1728e+000  3.2145e+000 39072 98789,98867,98841
 3.0000e-001 99017  4.5997e+000  2.0861e+000  3.1980e+000 39072 98867,98919,98893
 3.0000e-001 98994 -8.5917e+000  9.4169e+000 -1.1656e+000 39072 98789,98841,98815
 3.0000e-001 98971 -4.4181e+000  9.0003e+000 -4.3622e+000 39072 98737,98945,98763
 3.0000e-001 99158 -2.6541e+000  2.7902e+000 -2.7755e+000 39072 98945,98867,99132
 3.0000e-001 99181 -9.9129e+000  6.9866e+000 -3.2823e+000 39072 98945,99132,98763
 3.0000e-001 99510 -6.5717e+000  9.2987e+000  1.3075e-001 38668 99311,99389,99363
 3.0000e-001 99487 -1.2315e+001  7.7306e+000  1.1106e+000 38668 99285,99389,99311
 3.0000e-001 99464  4.2462e-001  1.8959e+001 -4.2494e+000 38668 99285,99415,99389
 3.0000e-001 99441 -7.2892e+000  1.1878e+001 -1.2366e+000 38668 99311,99363,99337
 3.0000e-001 99758 -1.7314e-001  2.1607e+001  6.1628e-001 38164 99781,99611,99585
 3.0000e-001 99735 -6.1676e+000  1.1441e+001 -2.7726e+000 38164 99781,99585,99533
 3.0000e-001 99712  2.1696e+000  1.9944e+001 -4.4795e+000 38164 99611,99663,99637
 3.0000e-001 99689 -1.1373e+001  6.6030e-001 -1.1372e+000 38164 99533,99585,99559
 3.0000e-001 99807  1.5597e+000  1.1142e+001 -5.2181e-001 38164 99663,99611,99781
 3.0000e-001 99830  7.9250e-001  6.4527e+000 -2.1186e+000 38164 99663,99781,99533
 3.0000e-001 100232 -1.1059e+001  9.7220e+000 -3.1218e+000 37702 99984,100114,100088
 3.0000e-001 100209 -5.3461e+000  1.6279e+001  2.7261e-001 37702 99958,100114,99984
 3.0000e-001 100186  4.3888e+000  2.9061e+001  9.9101e-001 37702 100010,100088,100036
 3.0000e-001 100163 -2.4645e+000  1.3477e+001 -2.4951e+000 37702 99984,100088,100010
 3.0000e-001 100140  3.4931e+000  1.6035e+001 -7.1386e+000 37702 100036,100088,100062
 3.0000e-001 100640  6.1715e+001  3.4577e+000 -3.7360e+000 37262 100493,100545,100519
 3.0000e-001 100617  1.7904e+001  1.3933e+001  2.6550e+000 37262 100441,100545,100493
 3.0000e-001 100594  2.1462e+001  8.2202e+000  1.3583e+001 37262 100415,100545,100441
 3.0000e-001 100571  1.3104e+001  1.8955e+000  3.0560e+000 37262 100441,100493,100467
 3.0000e-001 101146  4.2781e+000  1.7391e+001 -2.6964e+000 36872 100823,100979,100849
 3.0000e-001 101123  3.7133e+000  1.4327e+001  1.4788e+000 36872 100823,101005,100979
 3.0000e-001 101100  3.0481e+000  2.9309e+001 -8.5809e+000 36872 101169,100901,100849
 3.0000e-001 101077 -4.6775e-001  2.1871e+001 -6.1517e+000 36872 101169,100849,100979
 3.0000e-001 101054 -1.2364e+001  2.2672e+001 -6.2820e+000 36872 100927,100979,100953
 3.0000e-001 101031 -4.9531e-001  3.8831e+001 -8.9614e+000 36872 100849,100901,100875
 3.0000e-001 101195 -1.7168e+000  3.1396e+001 -3.9572e+000 36872 100927,100901,101169
 3.0000e-001 101218 -3.9314e+000  2.7399e+001 -1.9463e+000 36872 100927,101169,100979
 3.0000e-001 101773 -1.5047e+001  9.2709e+000 -6.0398e+000 36418 101479,101609,101583
 3.0000e-001 101750 -1.6529e+001  4.9274e+000 -6.0713e+000 36418 101453,101609,101479
 3.0000e-001 101727 -2.3568e+000  4.0151e+001 -1.1776e+001 36418 101796,101531,101479
 3.0000e-001 101704 -1.0429e+001  2.7924e+001  4.1331e+000 36418 101796,101479,101583
 3.0000e-001 101681 -4.2354e+001  3.0967e+001  8.6699e+000 36418 101479,101531,101505
 3.0000e-001 101658 -5.0207e+001 -1.3972e+001 -1.4453e+001 36418 101401,101609,101453
 3.0000e-001 101635  2.0881e+001  8.9365e+000 -1.2637e+000 36418 101401,101453,101427
 3.0000e-001 101822 -8.1578e-001  5.0680e+001 -1.7974e+001 36418 101557,101531,101796
 3.0000e-001 101845 -2.3545e+000  5.8661e+001 -7.5286e-001 36418 101557,101796,101583
 3.0000e-001 102174  2.7674e+001  2.0720e+001 -9.4620e+000 35914 101949,102053,101975
 3.0000e-001 102151  1.3512e+001  1.0013e+001 -4.6270e+000 35914 101949,102079,102053
 3.0000e-001 102128  1.7055e+001  1.4763e+001  2.6021e-001 35914 101975,102053,102027
 3.0000e-001 102105  3.4776e+001  5.3614e+001 -5.9069e+000 35914 101975,102027,102001
 3.0000e-001 102631  9.4616e-001  2.4745e+001 -2.8086e-001 35574 102383,102513,102487
 3.0000e-001 102608  6.0580e+000  1.9079e+001 -1.2978e+000 35574 102357,102513,102383
 3.0000e-001 102585  5.7666e+000  3.2135e+001 -3.7871e+000 35574 102409,102487,102435
 3.0000e-001 102562  1.1533e+001  3.1207e+001 -4.6461e+000 35574 102383,102487,102409
 3.0000e-001 102539  1.0580e+001  4.6660e+001 -4.5435e+000 35574 102435,102487,102461
 3.0000e-001 103009  6.1088e+000  2.0068e+001 -1.1812e+000 35170 102761,102865,102787
 3.0000e-001 102986 -2.7790e+000  1.6097e+001 -2.3350e+000 35170 102761,102891,102865
 3.0000e-001 102963  1.6531e+000  1.7013e+001 -4.1215e+000 35170 102787,102865,102813
 3.0000e-001 102940 -1.6940e+000  1.6835e+001 -1.9991e+000 35170 102735,102891,102761
 3.0000e-001 102917  1.0052e+001  3.7094e+001 -2.9320e+000 35170 102813,102865,102839
 3.0000e-001 103257 -9.6856e+000  1.9234e+001  1.0766e+000 34659 103280,103058,103032
 3.0000e-001 103234 -1.0969e+001  2.0192e+000 -6.9271e+000 34659 103280,103032,103162
 3.0000e-001 103211 -4.8570e+000  1.5695e+001  3.1853e+000 34659 103084,103162,103110
 3.0000e-001 103188 -3.0243e+000  1.7684e+001  1.2976e+000 34659 103110,103162,103136
 3.0000e-001 103306 -2.8149e+000  4.0275e+001  9.7532e+000 34659 103084,103058,103280
 3.0000e-001 103329 -1.0310e+001  1.7248e+001  2.3114e-001 34659 103084,103280,103162
 3.0000e-001 103837 -1.6467e+001  2.7966e+001 -4.4793e+000 34247 103860,103566,103540
 3.0000e-001 103814 -3.7239e+000  3.1412e+001 -1.1082e+000 34247 103932,103860,103540
 3.0000e-001 103791 -2.0428e+000  3.3630e+001  4.5066e-001 34247 103932,103540,103670
 3.0000e-001 103768 -6.9720e+000  3.9266e+001  6.3034e+000 34247 103566,103618,103592
 3.0000e-001 103745  4.9062e-001  2.3576e+001 -8.8486e-001 34247 103540,103696,103670
 3.0000e-001 103722  3.7374e-001  2.3606e+001 -4.4161e-001 34247 103514,103696,103540
 3.0000e-001 103886 -5.6952e+000  3.5037e+001 -2.6618e-001 34247 103618,103566,103860
 3.0000e-001 103909 -7.1513e+000  3.1423e+001  1.6536e+000 34247 103618,103860,103644
 3.0000e-001 103958 -3.8515e+000  3.6119e+001  3.2820e+000 34247 103644,103860,103932
 3.0000e-001 103981 -1.5444e+000  3.8521e+001  4.9669e+000 34247 103644,103932,103670
 3.0000e-001 104300 -1.4639e+001  2.4830e+001 -3.6290e+000 33843 104052,104182,104156
 3.0000e-001 104277 -1.0847e+001  3.0630e+001 -1.1130e+000 33843 104026,104182,104052
 3.0000e-001 104254 -3.2283e+001  4.1746e+001 -8.4452e+000 33843 104078,104156,104130
 3.0000e-001 104231 -2.1550e+001  3.0003e+001 -6.3834e+000 33843 104052,104156,104078
 3.0000e-001 104208 -6.7030e+001  7.2341e+000  9.2307e+000 33843 104078,104130,104104
 3.0000e-001 104499  2.1813e+000  3.3322e+001  1.6083e+000 33282 104594,104522,104375
 3.0000e-001 104476  1.8720e+000  2.8926e+001 -5.2166e-001 33282 104522,104323,104427
 3.0000e-001 104453 -5.8029e-001  3.6194e+001  1.0786e+000 33282 104594,104375,104349
 3.0000e-001 104548 -1.9019e+000  2.6865e+001  3.4232e+000 33282 104401,104375,104522
 3.0000e-001 104571  1.4237e+000  2.9264e+001  7.9555e-001 33282 104401,104522,104427
 3.0000e-001 104620 -4.2422e-001  2.7580e+001  3.6831e-002 33282 104323,104522,104594
 3.0000e-001 104643 -1.9041e+000  3.1867e+001  5.2311e-002 33282 104323,104594,104349
 3.0000e-001 104942 -3.4745e+000  2.4804e+001 -5.6946e-001 32728 104694,104772,104720
 3.0000e-001 104919 -7.3183e+000  2.2622e+001  4.7188e-001 32728 104694,104824,104772
 3.0000e-001 104896 -1.1096e+001  2.3893e+001 -1.7125e+000 32728 104720,104772,104746
 3.0000e-001 104873 -1.9049e+001  3.1042e+001  1.5497e+000 32728 104772,104824,104798
 3.0000e-001 104850 -5.6417e+000  2.2243e+001  8.8682e-003 32728 104668,104824,104694
 3.0000e-001 105373  1.0651e+001  2.8247e+001 -6.0463e+000 32274 105396,105102,105076
 3.0000e-001 105350  5.7447e+000  2.9640e+001 -5.7128e+000 32274 105396,105076,105206
 3.0000e-001 105327  2.4722e+000  3.2180e+001 -2.1245e+001 32274 105154,105206,105180
 3.0000e-001 105304 -7.2725e+000  1.4693e+001 -2.6976e+001 32274 105076,105232,105206
 3.0000e-001 105281  1.5425e+001  3.1441e+001 -4.7868e-001 32274 105102,105154,105128
 3.0000e-001 105258 -1.6818e+001  9.2600e+000 -3.0253e+001 32274 105050,105232,105076
 3.0000e-001 105422  6.4415e+000  2.7348e+001 -7.1968e+000 32274 105154,105102,105396
 3.0000e-001 105445  2.5335e+000  2.9599e+001 -6.6375e+000 32274 105154,105396,105206
 3.0000e-001 105644  2.2578e+001  5.2598e+001 -5.6456e-001 31620 105468,105546,105520
 3.0000e-001 105621  2.7978e+001  4.1166e+001 -3.4298e+000 31620 105468,105572,105546
 3.0000e-001 105598  1.8348e+001  4.3709e+001 -1.8603e+000 31620 105468,105520,105494
 3.0000e-001 105794  1.9100e+000  3.7896e+001 -9.6745e-001 31158 105889,105817,105693
 3.0000e-001 105771 -1.0358e+000  4.0128e+001 -1.4107e+000 31158 105817,105667,105745
 3.0000e-001 105843  1.8001e-001  3.4228e+001 -1.5339e+000 31158 105719,105693,105817
 3.0000e-001 105866 -8.5783e-001  3.7024e+001 -1.7220e+000 31158 105719,105817,105745
 3.0000e-001 105915 -2.6445e+000  3.5943e+001 -1.0179e+000 31158 105667,105817,105889
 3.0000e-001 106270  1.3664e+001  8.8350e+000  8.0863e+000 30818 106293,106071,106045
 3.0000e-001 106247  2.1904e+001  2.7342e+001  1.7385e+001 30818 106293,106045,106175
 3.0000e-001 106224  2.1309e+000  1.2499e+001  2.4258e+000 30818 106123,106175,106149
 3.0000e-001 106201  8.6043e-001  9.9848e-001  5.1774e-001 30818 106071,106123,106097
 3.0000e-001 106319  1.2451e+001  1.4639e+000  1.8312e+000 30818 106123,106071,106293
 3.0000e-001 106342  1.2350e+001  1.1178e+001  9.6734e+000 30818 106123,106293,106175
 3.0000e-001 106492  2.0223e+001  4.5323e+001 -9.7779e-002 30414 106645,106391,106365
 3.0000e-001 106469  1.4183e+001  3.5382e+001  5.6259e+000 30414 106515,106365,106443
 3.0000e-001 106541  2.5545e+001  4.0334e+001  2.6198e+000 30414 106645,106365,106515
 3.0000e-001 106671  2.5027e+001  5.6384e+001  1.4166e+000 30414 106417,106391,106645
 3.0000e-001 106694  2.8506e+001  4.8098e+001  4.4968e+000 30414 106417,106645,106515
 3.0000e-001 106942  4.0497e+000  2.5958e+001 -3.3245e+000 29910 106965,106795,106769
 3.0000e-001 106919  4.1176e+000  2.9263e+001 -2.4330e+000 29910 106965,106769,106717
 3.0000e-001 106896  4.0323e+000  3.0327e+001 -1.2219e+001 29910 106795,106847,106821
 3.0000e-001 106873  8.7058e+000  3.4373e+001  4.4382e+000 29910 106717,106769,106743
 3.0000e-001 106991  2.6329e+000  2.9344e+001 -2.9996e+000 29910 106847,106795,106965
 3.0000e-001 107014  3.5208e+000  3.3830e+001 -2.2114e+000 29910 106847,106965,106717
 3.0000e-001 107213  7.0118e+000  2.2391e+001  5.1351e+000 29413 107236,107063,107037
 3.0000e-001 107190 -7.1767e-001  3.0784e+001  2.3761e+000 29413 107236,107037,107141
 3.0000e-001 107167  1.1840e+000  1.1656e+001 -2.1388e+000 29413 107063,107115,107089
 3.0000e-001 107262  2.6385e+000  1.8682e+001  2.2288e+000 29413 107115,107063,107236
 3.0000e-001 107285 -6.4763e+000  2.4472e+001 -1.2763e+000 29413 107115,107236,107141
 3.0000e-001 107486 -1.8193e+000  2.7124e+001 -5.4658e+000 29009 107336,107388,107362
 3.0000e-001 107463 -3.7403e+000  2.6434e+001 -6.9075e+000 29009 107310,107388,107336
 3.0000e-001 107440 -7.3759e+000  2.6033e+001 -5.7325e+000 29009 107310,107414,107388
 3.0000e-001 107736  6.1412e+000  3.1521e+001 -4.0835e+000 28491 107537,107615,107563
 3.0000e-001 107713  1.8002e-001  2.7488e+001 -1.1188e+001 28491 107537,107641,107615
 3.0000e-001 107690  5.2961e+000  2.8452e+001 -4.6650e+000 28491 107563,107615,107589
 3.0000e-001 107667  9.3462e+000  3.9789e+001 -7.0074e+000 28491 107511,107641,107537
 3.0000e-001 108118 -1.0245e+001  2.1952e+001 -3.7535e-001 27980 108141,107922,107844
 3.0000e-001 108095 -1.1095e+001  2.4480e+001 -4.5666e-001 27980 108141,107844,108000
 3.0000e-001 108072 -1.2752e+001  1.6174e+001  1.0167e-001 27980 107844,107922,107870
 3.0000e-001 108049 -9.9623e+000  2.2574e+001 -8.6133e-001 27980 107870,107922,107896
 3.0000e-001 108026 -8.8019e+000  2.4877e+001  1.6684e+000 27980 107922,107974,107948
 3.0000e-001 108167 -1.0622e+001  2.1153e+001 -5.3382e-001 27980 107974,107922,108141
 3.0000e-001 108190 -1.3141e+001  2.1868e+001 -1.3789e+000 27980 107974,108141,108000
 3.0000e-001 108745 -4.2582e+000  3.9926e+000  6.9845e+000 27376 108840,108768,108477
 3.0000e-001 108722 -5.3753e+000 -1.2949e+001  6.5524e+000 27376 108768,108373,108581
 3.0000e-001 108699 -1.8348e+000  8.3362e+000  5.9327e+000 27376 108840,108477,108451
 3.0000e-001 108676  8.0615e-001  1.6516e+000  4.8425e+000 27376 108373,108451,108399
 3.0000e-001 108653  5.2144e+000  5.8693e-001 -4.1812e-001 27376 108503,108581,108529
 3.0000e-001 108630  8.4734e+000  3.0684e+000 -1.6438e+000 27376 108529,108581,108555
 3.0000e-001 108607  2.9583e+000  7.1609e+000  5.0329e+000 27376 108399,108451,108425
 3.0000e-001 108794 -5.4468e+000  3.0000e+000  5.8490e+000 27376 108503,108477,108768
 3.0000e-001 108817 -1.4384e+000  2.1276e+000  6.3815e+000 27376 108503,108768,108581
 3.0000e-001 108866 -3.5233e-001  1.5978e+000  4.3732e+000 27376 108373,108768,108840
 3.0000e-001 108889  3.3594e-001  2.9978e+000  3.9733e+000 27376 108373,108840,108451
 3.0000e-001 109186  1.7929e+000  2.2893e+001 -5.3477e+000 26722 109209,108938,108912
 3.0000e-001 109163  2.4564e+000  2.4793e+001 -6.4511e+000 26722 109281,109209,108912
 3.0000e-001 109140 -1.4959e+000  2.6950e+001 -4.3544e+000 26722 109281,108912,109042
 3.0000e-001 109117  1.3203e+001  3.1108e+001 -1.0251e+001 26722 108938,108990,108964
 3.0000e-001 109094 -8.8615e+000  2.7544e+001 -4.4552e+000 26722 108912,109068,109042
 3.0000e-001 109235  5.3306e+000  2.3562e+001 -4.7426e+000 26722 108990,108938,109209
 3.0000e-001 109258  1.0083e+000  2.3999e+001 -6.7237e+000 26722 108990,109209,109016
 3.0000e-001 109307 -4.4827e+000  2.2650e+001 -6.4104e+000 26722 109016,109209,109281
 3.0000e-001 109330 -9.5996e+000  2.4047e+001 -4.2060e+000 26722 109016,109281,109042
 3.0000e-001 109732 -2.8406e+001  1.9777e+001  5.3367e+000 26310 109458,109588,109484
 3.0000e-001 109709 -1.6488e+001  2.8322e+001 -5.7079e+000 26310 109458,109614,109588
 3.0000e-001 109686  1.5436e+001  5.1789e+001 -7.4489e+000 26310 109510,109562,109536
 3.0000e-001 109663  9.1709e-002  4.2113e+001 -1.5852e+000 26310 109484,109562,109510
 3.0000e-001 109640 -1.3382e+001  2.6398e+001  4.1801e+000 26310 109484,109588,109562
 3.0000e-001 110159  5.1327e+000  2.3942e+001 -5.6806e+000 25642 110182,109940,109914
 3.0000e-001 110136  8.7521e+000  3.2724e+001 -5.5259e+000 25642 110182,109914,109888
 3.0000e-001 110113  7.9836e+000  9.4861e+000  1.5577e+000 25642 109966,110018,109992
 3.0000e-001 110090 -3.2080e+000  1.9634e+001 -6.9209e+000 25642 110254,109966,109940
 3.0000e-001 110067  1.7750e+001  7.5052e-001 -6.0497e+000 25642 109862,110018,109888
 3.0000e-001 110044  2.2628e+000  5.2358e+000 -3.0513e+000 25642 109836,110018,109862
 3.0000e-001 110208  2.0415e+000  2.4400e+001 -8.9157e+000 25642 110254,109940,110182
 3.0000e-001 110231  1.6787e+001  2.3898e+001 -1.1976e+001 25642 110018,110182,109888
 3.0000e-001 110280  6.5037e+000  1.2047e+001 -6.8384e+000 25642 110018,109966,110254
 3.0000e-001 110303  1.0218e+001  1.5169e+001 -8.1747e+000 25642 110018,110254,110182
 3.0000e-001 110632  1.0441e+001  2.0517e+001 -3.7509e+000 25188 110407,110485,110433
 3.0000e-001 110609  1.1267e+001  1.6627e+001 -3.4387e+000 25188 110407,110537,110485
 3.0000e-001 110586 -4.3418e+000  1.4310e+001 -1.9279e+000 25188 110433,110485,110459
 3.0000e-001 110563  1.9603e+001  2.0494e+001  1.1462e+001 25188 110485,110537,110511
 3.0000e-001 110831  1.2458e+000  2.6797e+001 -7.0391e+000 24726 110854,110707,110655
 3.0000e-001 110808 -4.5296e+000  2.7504e+001 -9.0776e+000 24726 110854,110655,110759
 3.0000e-001 110785  5.3110e+000  2.4079e+001 -1.0815e+001 24726 110655,110707,110681
 3.0000e-001 110880 -2.6269e+000  2.6228e+001 -1.0664e+001 24726 110733,110707,110854
 3.0000e-001 110903 -8.6718e+000  2.5890e+001 -1.3096e+001 24726 110733,110854,110759
 3.0000e-001 111234  7.9501e+000  2.3009e+001 -3.4930e+000 24222 111257,111087,111035
 3.0000e-001 111211  6.3733e+000  2.2308e+001 -5.0894e+000 24222 111257,111035,111009
 3.0000e-001 111188  1.9590e+001  2.1006e+001 -2.7843e+000 24222 111035,111087,111061
 3.0000e-001 111165  1.2551e+001  2.5897e+001 -2.2283e+000 24222 111087,111139,111113
 3.0000e-001 111283  8.9516e+000  2.1070e+001 -4.2586e+000 24222 111139,111087,111257
 3.0000e-001 111306  8.2434e+000  1.9704e+001 -5.2884e+000 24222 111139,111257,111009
 3.0000e-001 111625  6.6978e+000  3.8499e+001  3.3483e+000 23732 111648,111481,111455
 3.0000e-001 111602  4.1451e+000  4.3423e+001  5.3978e+000 23732 111648,111455,111377
 3.0000e-001 111579 -7.4574e+000  3.1879e+001 -2.1815e-001 23732 111377,111429,111403
 3.0000e-001 111556 -5.2402e-001  4.8160e+001 -1.5377e-001 23732 111377,111455,111429
 3.0000e-001 111533  2.3543e+000  3.4406e+001 -7.9214e-001 23732 111351,111507,111377
 3.0000e-001 111674  1.1196e+000  2.8362e+001 -2.5378e+000 23732 111507,111481,111648
 3.0000e-001 111697  5.5916e+000  4.0207e+001  8.8712e-001 23732 111507,111648,111377
 3.0000e-001 112156 -4.3012e+000  2.0115e+001 -4.8943e+000 23278 112179,111908,111882
 3.0000e-001 112133 -5.0556e+000  1.6788e+001 -3.5399e+000 23278 112179,111882,112012
 3.0000e-001 112110 -7.6514e+000  2.7147e+001 -3.2345e+000 23278 111908,111960,111934
 3.0000e-001 112087 -8.8691e+000  1.6213e+001 -2.1866e+000 23278 111882,112038,112012
 3.0000e-001 112064 -8.5768e+000  1.5801e+001 -6.1568e-001 23278 111960,112012,111986
 3.0000e-001 112205 -4.6832e+000  1.8618e+001 -2.2142e+000 23278 111960,111908,112179
 3.0000e-001 112228 -6.3165e+000  1.4888e+001 -6.4683e-001 23278 111960,112179,112012
 3.0000e-001 112685  8.0283e+000  4.5028e+001  1.3353e+001 22938 112489,112567,112541
 3.0000e-001 112662  7.1755e+000  4.1809e+001  1.4703e+001 22938 112437,112567,112489
 3.0000e-001 112639  9.5123e-001  3.0479e+001  9.3423e+000 22938 112489,112541,112515
 3.0000e-001 112616  7.0502e+000  3.5582e+001  1.2510e+001 22938 112411,112567,112437
 3.0000e-001 112593  4.4465e+000  1.7906e+001  2.2173e+001 22938 112437,112489,112463
 3.0000e-001 113191 -6.1925e+000  1.3330e+001 -4.6308e+000 22534 113214,112998,112946
 3.0000e-001 113168 -1.1961e+001  1.1908e+001 -2.1453e+000 22534 113286,113214,112946
 3.0000e-001 113145 -6.9203e+000  1.0757e+001 -2.7073e-001 22534 113286,112946,112920
 3.0000e-001 113122 -2.0252e+001  1.6353e+001 -4.8602e+000 22534 113358,113024,112998
 3.0000e-001 113099 -1.4740e+000  1.8288e+001  7.2143e-001 22534 112868,113050,112894
 3.0000e-001 113076 -2.2040e+001 -1.5749e+001 -1.2175e+001 22534 112946,112998,112972
 3.0000e-001 113240 -1.6292e+001  1.0732e+001 -5.5076e+000 22534 113358,112998,113214
 3.0000e-001 113263 -9.7919e+000  1.4678e+001 -1.9401e+000 22534 113050,113214,112894
 3.0000e-001 113312 -6.5308e+000  1.5825e+001 -2.8510e-001 22534 112894,113214,113286
 3.0000e-001 113335 -2.2381e+000  1.3264e+001  8.8075e-001 22534 112894,113286,112920
 3.0000e-001 113384 -1.5297e+001  1.9350e+001 -2.3001e+000 22534 113050,113024,113358
 3.0000e-001 113407 -8.9343e+000  1.5598e+001 -2.5963e+000 22534 113050,113358,113214
 3.0000e-001 113785  1.7386e+001  4.4309e+001 -2.3595e-001 21978 113808,113615,113511
 3.0000e-001 113762  1.0170e+001  2.9605e+001  1.3864e+001 21978 113808,113511,113667
 3.0000e-001 113739  5.0722e+000  3.2527e+001  4.7914e+000 21978 113511,113615,113537
 3.0000e-001 113716  9.4878e+000  2.3949e+001 -9.2640e+000 21978 113537,113615,113589
 3.0000e-001 113693  2.6946e+001  6.9654e+001 -1.9550e+001 21978 113537,113589,113563
 3.0000e-001 113834  2.5842e+001  5.9494e+001 -1.3923e+001 21978 113641,113615,113808
 3.0000e-001 113857  9.7458e+000  5.0432e+001  2.2773e+000 21978 113641,113808,113667
 3.0000e-001 114284  3.5026e+000  3.0240e+001 -4.0640e+000 21517 114013,114117,114039
 3.0000e-001 114261  4.8633e+000  2.9793e+001 -6.5303e+000 21517 113961,114117,114013
 3.0000e-001 114238  5.5063e+000  4.2059e+001 -4.8042e+000 21517 113961,114013,113987
 3.0000e-001 114215  1.0387e+001  3.0813e+001 -5.2816e-001 21517 114039,114117,114091
 3.0000e-001 114192  2.0750e-001  2.2152e+001 -4.5644e+000 21517 113961,114143,114117
 3.0000e-001 114169 -6.8531e+000  2.6317e+001  1.5032e+000 21517 114039,114091,114065
 3.0000e-001 114581 -5.9398e+000  2.0914e+001  5.9448e+000 21027 114359,114463,114437
 3.0000e-001 114558  9.4231e-001  1.6665e+001 -6.1779e+000 21027 114333,114463,114359
 3.0000e-001 114535 -3.5056e+000  3.0535e+001  3.6337e+000 21027 114359,114437,114385
 3.0000e-001 114512 -2.9279e+000  1.5682e+001 -3.9647e+000 21027 114307,114463,114333
 3.0000e-001 114489 -2.8082e+001  3.0736e+001  1.5872e+000 21027 114385,114437,114411
 3.0000e-001 114912  2.0204e+001  3.2959e+001 -4.0238e+000 20623 114713,114791,114765
 3.0000e-001 114889  1.6320e+001  3.1492e+001  4.4930e+000 20623 114687,114791,114713
 3.0000e-001 114866  1.5474e+001  5.1463e+001  1.8135e+000 20623 114687,114817,114791
 3.0000e-001 114843  2.2220e+001  4.4677e+001 -5.1596e+000 20623 114713,114765,114739
 3.0000e-001 115290  9.3609e-001  2.6267e+001 -5.2636e+000 20375 115313,115146,115094
 3.0000e-001 115267  1.2595e+000  2.5568e+001 -5.4674e+000 20375 115313,115094,115042
 3.0000e-001 115244  7.5832e-001  2.9156e+001 -6.4014e+000 20375 115385,115016,115172
 3.0000e-001 115221 -8.4349e+000  2.0628e+001 -3.7596e+000 20375 115042,115094,115068
 3.0000e-001 115198  1.1239e+000  2.6031e+001 -4.6020e+000 20375 115094,115146,115120
 3.0000e-001 115339  1.0232e+000  2.4700e+001 -6.2492e+000 20375 115172,115146,115313
 3.0000e-001 115362  2.0175e+000  2.7901e+001 -6.5929e+000 20375 115385,115172,115313
 3.0000e-001 115411  8.9460e-001  2.8122e+001 -5.2958e+000 20375 115042,115016,115385
 3.0000e-001 115434  1.1119e+000  2.5947e+001 -5.1979e+000 20375 115042,115385,115313
 3.0000e-001 115891  1.5403e+000  2.1347e+001 -7.7673e+000 19971 115617,115747,115643
 3.0000e-001 115868 -5.2127e+000  1.6442e+001 -2.4317e+001 19971 115617,115773,115747
 3.0000e-001 115845  1.2011e+001  1.4876e+001 -5.0402e+000 19971 115643,115721,115695
 3.0000e-001 115822  1.2432e+001  1.3213e+001 -6.7237e+000 19971 115643,115747,115721
 3.0000e-001 115799  2.2618e+001  1.9759e+001 -3.0369e+000 19971 115643,115695,115669
 3.0000e-001 115992 -1.2714e+001 -9.6882e-001  3.2214e-001 19659 115914,115966,115940
 3.0000e-001 116142 -2.1789e+001 -4.4034e+000 -1.0905e-001 18997 116041,116093,116067
 3.0000e-001 116119 -2.1083e+001 -6.8470e+000  5.8753e+000 18997 116015,116093,116041
 3.0000e-001 116343  1.3511e+001  1.1575e+001 -2.9303e+000 18707 116193,116245,116219
 3.0000e-001 116320  8.5050e+000  8.2240e+000 -4.8783e+000 18707 116193,116271,116245
 3.0000e-001 116297  1.7413e+001  2.8976e+001 -3.9647e+000 18707 116167,116271,116193
 3.0000e-001 116747 -7.5545e+000  2.1329e+001 -1.4733e-001 18301 116525,116629,116551
 3.0000e-001 116724 -6.8926e+000  1.4927e+001 -9.9568e-001 18301 116473,116629,116525
 3.0000e-001 116701 -5.8116e+000  1.9511e+001  1.3302e+000 18301 116473,116525,116499
 3.0000e-001 116678 -1.1782e+001  2.2219e+001  4.3115e-001 18301 116551,116603,116577
 3.0000e-001 116655 -6.8416e+000  2.3047e+001  1.0939e+000 18301 116551,116629,116603
 3.0000e-001 117147  7.5107e+000  3.2486e+001  7.3526e+000 17747 116899,117029,116925
 3.0000e-001 117124 -5.7930e+000  2.0695e+001  2.3798e+000 17747 116873,117029,116899
 3.0000e-001 117101  6.2650e+000  3.7446e+001  6.2803e+000 17747 116925,117029,116951
 3.0000e-001 117078 -9.7551e-001  2.1443e+001  7.8357e+000 17747 116951,117029,117003
 3.0000e-001 117055  1.8217e+001  7.0528e+001  1.9475e+001 17747 116951,117003,116977
 3.0000e-001 117368 -8.7925e+000  1.7716e+001 -5.1239e+000 17293 117244,117296,117270
 3.0000e-001 117345 -2.2734e+000  2.8171e+001 -1.8387e+000 17293 117192,117296,117244
 3.0000e-001 117322 -2.6001e+000  2.2010e+001 -3.3719e-001 17293 117192,117244,117218
 3.0000e-001 117699 -1.1075e+001  6.0599e-001  9.7016e-001 16896 117526,117604,117552
 3.0000e-001 117676 -4.6554e+000  8.8189e-001 -1.6513e-001 16896 117500,117604,117526
 3.0000e-001 117653 -9.4585e+000 -2.1103e-001  1.7212e+000 16896 117552,117604,117578
 3.0000e-001 117630 -1.4839e+000 -5.4988e-002  1.7039e+000 16896 117474,117604,117500
 3.0000e-001 117849 -2.1704e+001  5.5947e+000  2.7457e+000 16534 117722,117774,117748
 3.0000e-001 117826 -1.6199e+001  2.6546e+001  2.8867e+000 16534 117722,117800,117774
 3.0000e-001 118070 -2.3867e+000  2.3591e+001 -3.8300e+000 16194 117946,117998,117972
 3.0000e-001 118047  1.1521e+000  2.9895e+001 -2.3541e+000 16194 117894,117998,117946
 3.0000e-001 118024  3.9072e+000  2.8946e+001 -1.2285e+000 16194 117894,117946,117920
 3.0000e-001 118173 -2.2417e+000  2.5169e+001  0.0000e+000 15968 118095,118147,118121
 3.0000e-001 118276  1.4211e+001  3.7450e+001  2.2351e+000 15433 118299,118198,118250
 3.0000e-001 118325  1.2604e+001  3.3701e+001  2.2721e+000 15433 118224,118198,118299
 3.0000e-001 118450  3.8494e+000  1.1002e+001  4.2576e+000 421 118372,118424,118398
 4.0000e-001 69891 -1.9154e+001 -2.4607e-001  3.7442e+000 68988 69447,69681,69629
 4.0000e-001 69868 -3.2450e+001 -5.5220e+000 -8.0248e-001 68988 69421,69681,69447
 4.0000e-001 69845 -2.1962e+001 -1.2419e+000  5.5894e+000 68988 69447,69629,69577
 4.0000e-001 69822 -2.0535e+001  8.3756e+000  5.6563e+000 68988 69447,69577,69473
 4.0000e-001 69799 -2.5550e+001 -5.0179e+000 -4.9407e-001 68988 69629,69681,69655
 4.0000e-001 69776 -4.3557e+001 -9.5202e+000  3.8306e-001 68988 69577,69629,69603
 4.0000e-001 69753 -2.5337e+001  3.2745e+000  9.5745e+000 68988 69473,69577,69551
 4.0000e-001 69730 -1.6103e+001  5.5728e+001  1.2775e+001 68988 69473,69551,69525
 4.0000e-001 69707 -1.8912e+001  1.6657e+001  1.6454e-001 68988 69473,69525,69499
 4.0000e-001 69992 -2.2886e-004 -5.6464e-005 -8.3647e-007 68676 69914,69966,69940
 4.0000e-001 70392  3.4169e+000  1.8889e+001 -2.9554e+000 68478 70118,70248,70144
 4.0000e-001 70369  2.4991e+001  2.0583e+001  3.4417e+000 68478 70118,70274,70248
 4.0000e-001 70346 -1.2788e+001  9.6719e+000 -4.4953e+000 68478 70144,70222,70196
 4.0000e-001 70323 -1.1482e+001  9.8582e+000  2.6022e+000 68478 70144,70248,70222
 4.0000e-001 70300 -7.1437e+000  1.1894e+001 -2.2556e+000 68478 70144,70196,70170
 4.0000e-001 70841  1.9241e+001  2.1435e+001 -1.2277e+001 68280 70570,70622,70596
 4.0000e-001 70818 -2.5192e+001  9.1804e+000  8.5635e-001 68280 70544,70622,70570
 4.0000e-001 70795 -2.7275e+001  4.9361e-001  2.8316e+000 68280 70544,70674,70622
 4.0000e-001 70772 -4.1514e+001  8.5997e+000  9.9749e+000 68280 70622,70674,70648
 4.0000e-001 70749 -1.4170e+001  1.1794e+001 -1.9779e+000 68280 70518,70674,70544
 4.0000e-001 70726  9.9788e+000  7.6676e+000  4.8880e+000 68280 70518,70700,70674
 4.0000e-001 70991 -4.5916e+001  3.4550e+001  1.2769e+000 67968 70864,70916,70890
 4.0000e-001 70968 -6.0471e+001  2.5512e+001 -2.8692e+000 67968 70864,70942,70916
 4.0000e-001 71141 -1.3617e+002 -9.5278e+001  5.0036e+001 67770 71040,71092,71066
 4.0000e-001 71118 -1.4923e+002 -3.0474e+001  1.8284e+001 67770 71014,71092,71040
 4.0000e-001 71651 -5.6397e+000  3.1707e+001  4.8386e+000 67366 71746,71674,71458
 4.0000e-001 71628 -1.2791e+001  1.5054e+001  7.5504e+000 67366 71674,71354,71510
 4.0000e-001 71605 -9.5492e+000  4.0269e+001  4.2508e+000 67366 71746,71458,71432
 4.0000e-001 71582 -3.1500e+000  3.6194e+001 -7.9718e+000 67366 71354,71432,71380
 4.0000e-001 71559 -1.8663e+001  3.8656e+001 -9.6533e+000 67366 71380,71432,71406
 4.0000e-001 71536 -2.1863e+001  2.5101e+001  1.0556e+001 67366 71328,71510,71354
 4.0000e-001 71700 -4.8970e+000  2.5135e+001  8.3025e-001 67366 71484,71458,71674
 4.0000e-001 71723 -7.9594e+000  2.4445e+001  2.9050e+000 67366 71484,71674,71510
 4.0000e-001 71772 -1.0472e+001  2.1462e+001  2.5328e+000 67366 71354,71674,71746
 4.0000e-001 71795 -1.4125e+001  2.9483e+001  2.8545e+000 67366 71354,71746,71432
 4.0000e-001 71896 -1.9776e+001  1.6078e+001  0.0000e+000 67146 71818,71870,71844
 4.0000e-001 71997 -9.4459e+001 -4.6375e+001 -2.1695e+001 66948 71919,71971,71945
 4.0000e-001 72149 -2.5482e+000  3.4214e+001 -5.1154e+000 66700 72172,72074,72048
 4.0000e-001 72126 -4.2039e+000  2.6825e+001 -2.8170e+000 66700 72172,72048,72022
 4.0000e-001 72198 -6.6207e-001  5.1448e+001 -9.7146e+000 66700 72244,72172,72100
 4.0000e-001 72221 -4.3847e+000  4.3697e+001  1.4928e+000 66700 72100,72172,72022
 4.0000e-001 72270 -1.1617e+001  2.6070e+001 -8.5324e+000 66700 72074,72172,72244
 4.0000e-001 72623 -1.2141e+001  2.1045e+001  1.4776e+000 66502 72424,72502,72450
 4.0000e-001 72600 -1.1401e+001  2.0679e+001  3.0289e+000 66502 72398,72502,72424
 4.0000e-001 72577 -2.4329e+001  2.5458e+001  3.7903e+000 66502 72398,72528,72502
 4.0000e-001 72554 -4.6492e+000  1.9490e+001  1.0898e+000 66502 72450,72502,72476
 4.0000e-001 72920 -6.4178e+000  2.7049e+001  3.8337e+000 65941 72672,72776,72750
 4.0000e-001 72897 -2.5158e+001  2.6917e+001  4.5981e+000 65941 72646,72776,72672
 4.0000e-001 72874  3.2868e+000  3.2958e+001  7.0051e-001 65941 72672,72750,72724
 4.0000e-001 72851 -5.7216e+000  1.6129e+001  4.1422e+000 65941 72672,72724,72698
 4.0000e-001 72828 -4.2844e+001  5.0604e+001 -3.0799e+000 65941 72646,72802,72776
 4.0000e-001 73241  9.8815e+000  1.6503e+001  4.3229e+000 65743 73264,73071,73045
 4.0000e-001 73218  6.6838e+000  1.7957e+001  1.0694e+000 65743 73480,73264,73045
 4.0000e-001 73195 -6.0019e-001  1.6351e+001  1.1457e+000 65743 73336,72967,73097
 4.0000e-001 73172  1.0172e+000  1.5339e+001  1.6984e+000 65743 73408,72993,72967
 4.0000e-001 73149 -7.6471e+000  1.6192e+001  1.0925e+000 65743 72967,73123,73097
 4.0000e-001 73290  2.5227e+000  1.3177e+001  4.6885e-001 65743 73097,73071,73264
 4.0000e-001 73313 -9.5474e-002  1.6509e+001  1.9586e+000 65743 73336,73097,73264
 4.0000e-001 73362 -2.2079e-002  1.6422e+001  1.3845e+000 65743 73408,72967,73336
 4.0000e-001 73385 -2.6801e+000  1.5359e+001  1.6881e+000 65743 73019,73336,73264
 4.0000e-001 73434 -6.9964e-001  1.1973e+001  7.2133e-001 65743 73019,72993,73408
 4.0000e-001 73457 -1.9205e+000  1.4225e+001  5.6512e-001 65743 73019,73408,73336
 4.0000e-001 73506 -6.9501e-001  7.4528e+000  4.5419e+000 65743 73019,73264,73480
 4.0000e-001 73989 -2.2866e+001  2.0134e+001 -2.7192e+000 65453 73793,73845,73819
 4.0000e-001 73966 -8.2170e+000  2.2005e+001 -5.0260e+000 65453 73741,73845,73793
 4.0000e-001 73943 -2.1768e+001  1.1500e+001  2.9684e-001 65453 73715,73845,73741
 4.0000e-001 73920 -1.0466e+001  4.6145e+001 -1.0940e+001 65453 73741,73793,73767
 4.0000e-001 73897 -2.7051e+001  8.4591e+000  4.5009e+000 65453 73715,73871,73845
 4.0000e-001 74357 -3.0480e+000  2.5669e+001 -1.2820e+001 65141 74380,74138,74086
 4.0000e-001 74334 -4.2306e+000  1.3011e+001 -1.5579e+001 65141 74380,74086,74060
 4.0000e-001 74311 -1.3842e+000  2.3476e+001 -5.6131e+000 65141 74138,74190,74164
 4.0000e-001 74288  2.1794e+001  1.0425e+001 -8.0342e+000 65141 74060,74216,74190
 4.0000e-001 74265  1.8307e+001  2.1361e-001 -6.6391e-001 65141 74034,74216,74060
 4.0000e-001 74242 -2.8711e+001  7.2622e+000 -2.0840e+001 65141 74086,74138,74112
 4.0000e-001 74406  1.7062e+000  1.6795e+001 -7.1327e+000 65141 74190,74138,74380
 4.0000e-001 74429 -1.7450e-002  1.1150e+001 -1.0043e+001 65141 74190,74380,74060
 4.0000e-001 74937  5.0122e+000  4.0257e+000  7.0128e-001 64737 74614,74666,74640
 4.0000e-001 74914 -9.5314e+000  2.6368e+000  4.2989e+000 64737 74614,74796,74666
 4.0000e-001 74891 -2.1573e+001 -3.0493e+000 -1.3665e+000 64737 74960,74718,74666
 4.0000e-001 74868 -2.0397e+001  3.5887e+000  3.7835e+000 64737 74960,74666,74770
 4.0000e-001 74845 -1.3627e+001 -8.1423e+000  6.9190e+000 64737 74666,74796,74770
 4.0000e-001 74822 -2.7660e+001  7.1059e+000 -8.1738e+000 64737 74666,74718,74692
 4.0000e-001 74986 -2.2540e+001  3.5589e+000  3.0397e+000 64737 74744,74718,74960
 4.0000e-001 75009 -1.6730e+001  1.4350e+001  9.0813e+000 64737 74744,74960,74770
 4.0000e-001 75306  1.0573e+001  3.4114e+001 -6.0545e+000 64133 75329,75110,75084
 4.0000e-001 75283  7.9109e+000  3.6600e+001 -4.1854e+000 64133 75401,75329,75084
 4.0000e-001 75260  8.9895e+000  3.3702e+001 -3.1520e+000 64133 75401,75084,75058
 4.0000e-001 75237  9.0045e+000  4.8626e+001 -1.4279e+001 64133 75473,75136,75110
 4.0000e-001 75214 -3.6246e+000  4.0520e+001 -4.4806e+000 64133 75032,75188,75162
 4.0000e-001 75355  1.4205e+001  4.1595e+001 -1.0729e+001 64133 75473,75110,75329
 4.0000e-001 75378  6.1965e+000  3.5184e+001 -4.6591e+000 64133 75162,75329,75032
 4.0000e-001 75427  4.2355e+000  2.9571e+001 -1.5036e+000 64133 75032,75329,75401
 4.0000e-001 75450  1.2967e+001  3.5710e+001 -3.9218e+000 64133 75545,75401,75058
 4.0000e-001 75499 -2.1295e+000  4.0311e+001 -9.4717e+000 64133 75162,75136,75473
 4.0000e-001 75522  5.9120e+000  3.2700e+001 -6.7871e+000 64133 75162,75473,75329
 4.0000e-001 75571  4.9927e+000  1.7687e+001 -2.2168e+000 64133 75032,75401,75545
 4.0000e-001 75851  1.1849e-001  1.7306e+001 -5.3324e+000 63843 75874,75753,75727
 4.0000e-001 75828 -6.1074e+000  9.4629e+000 -5.9028e-001 63843 75946,75874,75727
 4.0000e-001 75805 -6.1236e+000  5.4560e+000  1.2243e+000 63843 76018,75946,75727
 4.0000e-001 75900 -7.1865e+000  1.4237e+001  5.8004e-001 63843 75779,75753,75874
 4.0000e-001 75923 -6.6944e+000  7.8396e+000  4.0562e+000 63843 75779,75874,75675
 4.0000e-001 75972 -5.0524e+000  1.2989e+001  5.7899e-001 63843 75675,75874,75946
 4.0000e-001 75995 -2.5173e+000  1.0941e+001 -1.4346e+000 63843 75675,75946,75701
 4.0000e-001 76044 -4.6698e+000  1.0747e+001 -1.2150e+000 63843 75701,75946,76018
 4.0000e-001 76454  1.8530e+001  3.6718e+001 -2.0087e+001 63439 76477,76255,76229
 4.0000e-001 76431  7.5547e+000  1.9252e+001 -1.2242e+001 63439 76477,76229,76359
 4.0000e-001 76408  2.2445e+001  1.7897e+001 -3.6108e+000 63439 76307,76359,76333
 4.0000e-001 76385  1.7389e+001  6.5966e+001 -1.0935e+001 63439 76255,76307,76281
 4.0000e-001 76503  5.9316e+000  2.2660e+001 -9.8614e+000 63439 76307,76255,76477
 4.0000e-001 76526  6.9253e+000  1.6151e+001 -4.0584e+000 63439 76307,76477,76359
 4.0000e-001 76926 -4.5226e+001  1.9035e+001 -4.4138e+000 63049 76704,76782,76756
 4.0000e-001 76903 -7.5738e+000  2.9531e+001  1.6964e+001 63049 76704,76808,76782
 4.0000e-001 76880 -2.6084e+001 -1.9683e+001 -3.6555e-001 63049 76704,76756,76730
 4.0000e-001 76857 -4.0889e+001  2.7546e+000  5.3970e+000 63049 76678,76808,76704
 4.0000e-001 76834 -3.4336e+001 -9.8260e-001  6.4473e+000 63049 76652,76808,76678
 4.0000e-001 77076 -2.0052e+001  2.3745e+001  8.9965e-001 62737 76975,77027,77001
 4.0000e-001 77053 -2.6779e+001  2.6126e+001  2.5712e+000 62737 76949,77027,76975
 4.0000e-001 77324  7.7965e-001  2.1709e+001 -1.0490e+001 62277 77347,77177,77125
 4.0000e-001 77301 -3.1053e+000  1.6299e+001 -4.4078e+000 62277 77347,77125,77229
 4.0000e-001 77278 -4.7544e+000  2.3404e+001  3.3641e-002 62277 77099,77229,77125
 4.0000e-001 77255  6.1778e+000  4.8736e+000 -1.1127e+001 62277 77125,77177,77151
 4.0000e-001 77373  3.8498e+000  3.6581e+001 -1.8971e+001 62277 77203,77177,77347
 4.0000e-001 77396 -1.0913e+001  2.2840e+001 -1.0862e+001 62277 77203,77347,77229
 4.0000e-001 77857 -1.8218e+001  1.6906e+001  4.8090e+000 61758 77635,77739,77661
 4.0000e-001 77834 -2.5853e+001  2.5072e+001  2.1232e-001 61758 77583,77739,77635
 4.0000e-001 77811 -2.6620e+001  5.2451e+001  1.6981e+001 61758 77583,77635,77609
 4.0000e-001 77788 -1.8854e+001  2.7150e+001  2.6963e+000 61758 77661,77713,77687
 4.0000e-001 77765 -1.5718e+001  2.2785e+001  4.3934e+000 61758 77661,77739,77713
 4.0000e-001 78491 -1.7205e+001  9.9336e-001 -3.1315e+000 61418 78171,78301,78249
 4.0000e-001 78468 -2.1089e+001  4.0002e-001 -3.5404e+000 61418 78145,78301,78171
 4.0000e-001 78445 -2.1980e+001 -8.4668e-001 -3.1546e+000 61418 78171,78249,78223
 4.0000e-001 78422 -2.0780e+001  8.2688e-001 -1.0012e+001 61418 78145,78327,78301
 4.0000e-001 78399 -1.1085e+001  1.8324e+001 -1.0163e+000 61418 78249,78301,78275
 4.0000e-001 78376 -2.1795e+001 -2.3415e+000 -2.9653e+000 61418 78171,78223,78197
 4.0000e-001 78353 -3.1480e+001 -4.6040e+000 -1.3132e+001 61418 78119,78327,78145
 4.0000e-001 78690 -1.1994e+001  2.4082e+000 -1.0714e+000 61014 78713,78566,78540
 4.0000e-001 78667 -1.0677e+001  5.3871e+000 -2.4043e+000 61014 78713,78540,78618
 4.0000e-001 78644  1.3235e+001  5.3600e+000 -2.2433e+001 61014 78514,78618,78540
 4.0000e-001 78739 -1.2281e+001 -9.1943e-001 -9.5096e-001 61014 78592,78566,78713
 4.0000e-001 78762 -6.8805e+000  2.4944e+000 -8.9360e-001 61014 78785,78713,78618
 4.0000e-001 78811 -1.3802e+001 -3.8788e-002  4.8408e-001 61014 78592,78713,78785
 4.0000e-001 79398  1.0932e+001  2.2949e-001  3.5540e-001 60624 79101,79179,79153
 4.0000e-001 79375  1.6617e+001  8.5264e-001 -6.0747e-003 60624 79101,79231,79179
 4.0000e-001 79352  1.4563e+001  8.0912e-001  1.1038e+000 60624 79075,79231,79101
 4.0000e-001 79329  2.1477e+001  4.2277e+000 -5.1682e-002 60624 79075,79257,79231
 4.0000e-001 79306  1.5599e+001  2.0028e-001 -2.2238e+000 60624 79179,79231,79205
 4.0000e-001 79283  1.0701e+001 -1.5738e-001 -3.3891e-001 60624 79101,79153,79127
 4.0000e-001 79776 -4.8462e+000  1.0145e+001 -2.8742e-001 60070 79528,79658,79606
 4.0000e-001 79753 -3.0853e+000  1.6226e+001 -1.5599e+000 60070 79502,79658,79528
 4.0000e-001 79730 -1.1807e+001  1.6169e+001  5.4803e+000 60070 79528,79606,79580
 4.0000e-001 79707 -2.9620e+000  2.4838e+001 -4.4789e+000 60070 79606,79658,79632
 4.0000e-001 79684 -2.6384e+001  1.2487e+001  3.1007e+000 60070 79528,79580,79554
 4.0000e-001 80105 -1.3913e+001  8.2180e+000 -8.9256e+000 59758 80128,79958,79906
 4.0000e-001 80082 -2.3133e+001  2.0378e-001 -5.3325e+000 59758 80128,79906,80010
 4.0000e-001 80059 -1.2999e+001  3.1396e+000 -1.4200e+001 59758 79906,79958,79932
 4.0000e-001 80036 -2.5690e+001  1.3405e+001  8.4634e-001 59758 79880,80010,79906
 4.0000e-001 80154 -1.9062e+001  1.3991e+001 -1.3995e+001 59758 79984,79958,80128
 4.0000e-001 80177 -2.4698e+001  8.6060e+000 -1.1368e+001 59758 79984,80128,80010
 4.0000e-001 80376 -1.4848e+001  4.1657e+000 -4.7501e+000 59312 80226,80304,80252
 4.0000e-001 80353 -2.1409e+001  4.9598e+001 -3.6761e+000 59312 80200,80304,80226
 4.0000e-001 80330 -1.6030e+001 -3.1324e-001 -5.3815e+000 59312 80252,80304,80278
 4.0000e-001 80805 -2.4521e+001 -1.0265e+000  9.8040e-001 58908 80900,80828,80638
 4.0000e-001 80782 -1.4843e+001 -5.2419e+000  4.1920e+000 58908 80828,80560,80508
 4.0000e-001 80759 -2.3799e+001 -2.6824e+000 -1.7602e+000 58908 80900,80638,80612
 4.0000e-001 80736 -3.8187e+001 -9.4987e+000  1.1187e+001 58908 80482,80664,80508
 4.0000e-001 80713 -3.5374e+001  2.5053e+000 -5.8584e+000 58908 80560,80612,80586
 4.0000e-001 80690 -1.6819e+001 -1.4385e+001  3.8187e+000 58908 80508,80560,80534
 4.0000e-001 80854 -2.5888e+001 -3.0786e+000  2.5991e+000 58908 80664,80638,80828
 4.0000e-001 80877 -2.5003e+001 -1.1455e+001  6.8160e+000 58908 80664,80828,80508
 4.0000e-001 80926 -2.6499e+001 -6.0004e+000  1.4776e+000 58908 80560,80828,80900
 4.0000e-001 80949 -2.5012e+001 -5.9621e+000 -1.6618e+000 58908 80560,80900,80612
 4.0000e-001 81246 -1.6895e+001  9.2996e+000  2.8184e-002 58482 81076,81128,81102
 4.0000e-001 81223 -1.4887e+001  1.9312e+001  1.3822e+000 58482 80972,81128,81076
 4.0000e-001 81200 -2.2226e+001  3.4810e+000  3.7155e+000 58482 80972,81076,81050
 4.0000e-001 81177  5.2330e+000  3.3022e+000  4.3914e+000 58482 80998,81050,81024
 4.0000e-001 81154 -1.3661e+001  1.1972e-001  1.1122e+001 58482 80972,81050,80998
 4.0000e-001 81754 -1.6767e+001  2.6693e+000  3.5197e+000 57828 81457,81613,81483
 4.0000e-001 81731 -1.0481e+001  1.2404e+001  1.0027e+001 57828 81431,81613,81457
 4.0000e-001 81708 -1.9027e+001 -2.2416e+000  1.1818e+001 57828 81483,81613,81509
 4.0000e-001 81685 -9.3509e+000 -1.0684e-001  8.0375e+000 57828 81509,81613,81587
 4.0000e-001 81662 -9.1963e+000  5.6316e+000  6.5328e+000 57828 81509,81587,81535
 4.0000e-001 81639  1.2254e+001  8.1371e+000  8.9719e-003 57828 81535,81587,81561
 4.0000e-001 82002 -5.6376e+000 -6.8761e+000 -8.5606e+000 57374 82025,81855,81829
 4.0000e-001 81979 -1.0419e+001 -2.9214e+000 -4.6900e+000 57374 82025,81829,81907
 4.0000e-001 81956 -5.9092e+000  2.5987e+000 -2.5619e+000 57374 81803,81907,81829
 4.0000e-001 81933 -1.3607e+001  2.5169e+000 -2.8828e-001 57374 81777,81907,81803
 4.0000e-001 82051  1.7392e-001 -1.5357e+000 -1.0992e+001 57374 81881,81855,82025
 4.0000e-001 82074 -8.3343e+000 -6.1019e-001 -6.4543e+000 57374 81881,82025,81907
 4.0000e-001 82356  1.3603e+001  3.1278e+001 -6.9739e+000 56913 82180,82232,82206
 4.0000e-001 82333  1.2288e+001  2.8757e+001 -8.0162e+000 56913 82180,82284,82232
 4.0000e-001 82310  2.1193e+001  1.8273e+001 -6.6595e+000 56913 82379,82232,82284
 4.0000e-001 82405  9.1030e+000  1.4200e+001 -4.8644e+000 56913 82258,82232,82379
 4.0000e-001 82764  2.2291e+000  2.1912e+001  8.9039e-001 56523 82614,82666,82640
 4.0000e-001 82741 -1.1631e+000  1.0239e+001  1.9717e+000 56523 82614,82692,82666
 4.0000e-001 82718  5.7489e+000  1.3482e+001  2.8430e+000 56523 82588,82692,82614
 4.0000e-001 83368 -5.1152e+000  1.3849e+001  5.4553e+000 55969 82973,83155,83129
 4.0000e-001 83345 -1.2962e+001  9.9435e+000 -1.7914e+000 55969 82973,83181,83155
 4.0000e-001 83322 -9.4084e+000  1.9233e+001  5.1195e+000 55969 82973,83129,82999
 4.0000e-001 83299  1.4044e+001  2.7223e+001 -9.0562e+000 55969 83391,83025,82999
 4.0000e-001 83276 -1.3035e+001  1.9019e+001  1.5452e+000 55969 83391,82999,83129
 4.0000e-001 83253  1.2215e+001  1.9395e+001  3.0758e+001 55969 83077,83129,83103
 4.0000e-001 83230 -2.9670e+001  8.3862e+000  1.5944e+000 55969 83025,83077,83051
 4.0000e-001 83207 -1.5459e+001  8.9986e+000 -1.4174e+000 55969 82947,83181,82973
 4.0000e-001 83417 -1.3719e+001  2.0305e+001 -3.6773e+000 55969 83077,83025,83391
 4.0000e-001 83440 -2.4469e+001  2.3652e+001  6.6120e+000 55969 83077,83391,83129
 4.0000e-001 83946  3.7272e+000  1.0318e+001 -1.5011e+001 55771 83969,83779,83727
 4.0000e-001 83923  2.8288e+000  1.1824e+001 -7.3663e+000 55771 83969,83727,83623
 4.0000e-001 83900 -1.2658e+001  1.4880e+001 -3.9162e+000 55771 83623,83727,83649
 4.0000e-001 83877  1.7283e+001  1.3820e+001 -1.1107e+001 55771 83727,83779,83753
 4.0000e-001 83854 -6.8267e-001  7.1567e+000 -6.7477e+000 55771 83675,83727,83701
 4.0000e-001 83831 -6.5947e+000  1.5634e+001 -2.0386e+000 55771 83649,83727,83675
 4.0000e-001 83995 -1.9240e+000  7.8833e+000 -1.5189e+001 55771 83805,83779,83969
 4.0000e-001 84018 -6.6564e+000  7.8197e+000 -7.1487e+000 55771 83805,83969,83623
 4.0000e-001 84168 -9.2095e+000  1.9327e+001  5.5224e-001 55367 84191,84067,84041
 4.0000e-001 84145 -1.0686e+001  2.2797e+001  6.4498e-001 55367 84191,84041,84119
 4.0000e-001 84217 -9.8459e+000  1.8522e+001  2.7374e-001 55367 84093,84067,84191
 4.0000e-001 84240 -1.3922e+001  1.9515e+001 -6.7901e-001 55367 84093,84191,84119
 4.0000e-001 84571 -4.6466e+001 -1.7646e+001 -1.7278e+001 54913 84398,84450,84424
 4.0000e-001 84548 -2.0041e+001 -2.4046e+000 -1.1064e+001 54913 84372,84450,84398
 4.0000e-001 84525 -2.6768e+001 -5.8223e+000 -9.8559e+000 54913 84346,84450,84372
 4.0000e-001 84502 -2.2879e+001  3.4423e+000  1.3632e+000 54913 84346,84476,84450
 4.0000e-001 85126 -8.4121e+000  1.3393e+001  4.8536e+000 54402 84858,84936,84910
 4.0000e-001 85103 -2.9020e+000  1.3261e+001 -1.9067e+001 54402 84806,84936,84858
 4.0000e-001 85080  1.9788e+001  1.1064e+001 -1.8529e+001 54402 84780,84936,84806
 4.0000e-001 85057 -3.7432e+001  2.0580e+001 -2.7613e+001 54402 84806,84858,84832
 4.0000e-001 85034 -5.7611e+000  9.3665e-001 -1.5220e+001 54402 84780,84962,84936
 4.0000e-001 85011  1.2629e+001  8.8556e+000  1.0404e+001 54402 84858,84910,84884
 4.0000e-001 84988  4.4283e+000  9.4028e+000 -7.9502e+000 54402 84754,84962,84780
 4.0000e-001 85396 -8.5565e+000  5.0389e+000  2.7555e+000 53998 85197,85249,85223
 4.0000e-001 85373 -1.4157e+001  1.1344e+001  1.6236e+000 53998 85197,85275,85249
 4.0000e-001 85350 -1.9166e+001  9.6696e+000  1.6595e-001 53998 85171,85275,85197
 4.0000e-001 85327 -1.5759e+001  1.1370e+001 -4.9921e-001 53998 85171,85301,85275
 4.0000e-001 85749 -1.5802e+001  2.1496e+001  8.0218e+000 53636 85524,85628,85550
 4.0000e-001 85726 -1.8541e+001  3.3468e+001  6.6738e+000 53636 85524,85654,85628
 4.0000e-001 85703 -2.2774e+001  1.3040e+001 -1.4848e+000 53636 85550,85602,85576
 4.0000e-001 85680 -4.2170e+001  1.0523e+001  7.4363e+000 53636 85550,85628,85602
 4.0000e-001 86127  1.6925e+001  7.6350e+000  5.0040e-001 52982 86150,85957,85879
 4.0000e-001 86104  1.0032e+001  2.7991e+000 -1.6074e+000 52982 86150,85879,85853
 4.0000e-001 86081  2.1010e+001  1.4583e+000  4.2070e-001 52982 85957,86009,85983
 4.0000e-001 86058  1.5247e+001  9.5374e+000 -1.8856e+000 52982 85879,85957,85931
 4.0000e-001 86035  1.4646e+001  2.1416e+001  4.5702e+000 52982 85879,85931,85905
 4.0000e-001 86176  2.1379e+001  2.1319e+000 -4.4881e-001 52982 86009,85957,86150
 4.0000e-001 86199  1.7294e+001 -1.0391e+000 -1.8971e+000 52982 86009,86150,85853
 4.0000e-001 86398 -1.5333e+001 -4.1591e-001  1.4308e+000 52542 86421,86248,86222
 4.0000e-001 86375 -1.3711e+001  2.6373e+000  2.1195e+000 52542 86421,86222,86300
 4.0000e-001 86352 -8.7483e+000  1.2514e+001  4.4186e-001 52542 86222,86326,86300
 4.0000e-001 86447 -1.8438e+001  1.1207e+000 -1.4068e+000 52542 86274,86248,86421
 4.0000e-001 86470 -1.5873e+001  5.9435e+000 -4.1742e-001 52542 86274,86421,86300
 4.0000e-001 86669 -1.6602e+001  1.2592e-001  2.8075e+000 52230 86692,86571,86545
 4.0000e-001 86646 -1.2525e+001  8.9749e+000  2.7044e-001 52230 86692,86545,86519
 4.0000e-001 86623 -3.5625e+000  7.3820e+000 -6.6645e+000 52230 86493,86597,86519
 4.0000e-001 86718 -1.3999e+001 -3.4907e-001 -4.7503e+000 52230 86597,86571,86692
 4.0000e-001 86741 -8.2338e+000  9.3011e+000 -7.7547e+000 52230 86597,86692,86519
 4.0000e-001 87153  4.1077e+001  9.5455e+000 -1.0010e+001 51640 86980,87058,87032
 4.0000e-001 87130 -8.7369e+000  3.1971e+001 -2.3802e+000 51640 86928,87058,86980
 4.0000e-001 87107  4.7563e-002  1.8832e+001 -1.6697e+001 51640 86928,86980,86954
 4.0000e-001 87084  1.2474e+001 -3.2951e+000 -3.5959e+001 51640 86980,87032,87006
 4.0000e-001 87659 -8.0215e+000  1.7159e+001 -7.2257e+000 51029 87682,87440,87362
 4.0000e-001 87636 -4.5813e+001  1.3645e+001  1.2959e+001 51029 87682,87362,87336
 4.0000e-001 87613  1.7316e+000  3.7319e+001 -1.7611e+001 51029 87440,87518,87466
 4.0000e-001 87590 -1.1095e+001  3.5787e+001 -1.3509e+001 51029 87362,87440,87414
 4.0000e-001 87567 -1.8218e+001  1.9796e+001 -1.0092e+001 51029 87362,87414,87388
 4.0000e-001 87544  2.3593e+001  2.2041e+001 -2.7128e+001 51029 87466,87518,87492
 4.0000e-001 87708  5.9585e-001  2.3438e+001 -1.3036e+001 51029 87518,87440,87682
 4.0000e-001 87731 -1.4564e+001  4.8321e+001 -5.7620e-001 51029 87518,87682,87336
 4.0000e-001 87881 -1.2983e+001  6.5716e+000  3.8505e-001 50739 87780,87832,87806
 4.0000e-001 87858 -9.3313e+000  1.9070e+001 -4.7815e-001 50739 87754,87832,87780
 4.0000e-001 88468 -8.4024e+000  5.1960e+000  7.9430e+000 50235 88171,88327,88197
 4.0000e-001 88445  1.3917e+000  4.8778e+000  1.1603e+001 50235 88145,88327,88171
 4.0000e-001 88422 -4.6194e+000 -3.6849e+000  1.4647e+001 50235 88275,88327,88301
 4.0000e-001 88399 -3.8159e+000 -3.2785e+000  4.5193e+000 50235 88197,88327,88275
 4.0000e-001 88376  1.6825e+000  1.8106e+001  9.1753e+000 50235 88197,88275,88223
 4.0000e-001 88353 -1.5041e+000  2.2161e+001  1.4494e+001 50235 88223,88275,88249
 4.0000e-001 88895 -9.3014e+000  2.5594e+001 -5.5857e+000 49873 88918,88728,88676
 4.0000e-001 88872 -1.1759e+001  2.3093e+001 -3.8658e+000 49873 88918,88676,88624
 4.0000e-001 88849 -4.5419e+000  1.8708e+001  1.7887e+000 49873 88598,88754,88624
 4.0000e-001 88826 -1.7326e+000  3.5005e+001 -1.4303e+001 49873 88624,88676,88650
 4.0000e-001 88803 -1.2498e+001  5.2615e+001 -5.0536e+000 49873 88676,88728,88702
 4.0000e-001 88780 -2.6227e+001  2.0200e+001  4.6481e+000 49873 88572,88754,88598
 4.0000e-001 88944 -1.2320e+001  2.5188e+001 -4.0031e+000 49873 88754,88728,88918
 4.0000e-001 88967 -1.3245e+001  2.4374e+001 -2.5386e+000 49873 88754,88918,88624
 4.0000e-001 89473  1.3913e+001  1.9377e+001  1.2705e+001 49583 89176,89306,89202
 4.0000e-001 89450 -6.3936e+000  1.5679e+001  1.7959e+000 49583 89176,89332,89306
 4.0000e-001 89427  1.2434e+001  8.1590e+000  4.5658e+000 49583 89496,89228,89202
 4.0000e-001 89404  4.3431e+000  9.5709e+000  4.3017e+000 49583 89496,89202,89280
 4.0000e-001 89381  3.7584e+000  1.1031e+001  9.0779e+000 49583 89202,89306,89280
 4.0000e-001 89358  2.7582e+000  8.3759e+000 -4.3085e+000 49583 89150,89332,89176
 4.0000e-001 89522  3.0542e+000  3.6814e+000 -1.8737e+000 49583 89254,89228,89496
 4.0000e-001 89545 -1.2861e+000  1.0448e+001  3.3984e+000 49583 89254,89496,89280
 4.0000e-001 89825 -8.2898e+000  8.9833e+000  3.0891e+000 49179 89701,89753,89727
 4.0000e-001 89802 -5.3694e+000  1.0815e+001  2.1660e+000 49179 89675,89753,89701
 4.0000e-001 89779 -3.7122e+000  1.2990e+001  4.8713e+000 49179 89848,89753,89675
 4.0000e-001 89874  1.1334e+001  1.7816e+001  8.9722e+000 49179 89649,89753,89848
 4.0000e-001 90223 -1.5083e+001  2.3755e+001  8.7855e-001 48739 90024,90102,90076
 4.0000e-001 90200 -1.5990e+001  2.2694e+001 -8.9029e-002 48739 90024,90128,90102
 4.0000e-001 90177 -1.7996e+001  1.9301e+001  2.8820e+000 48739 90024,90076,90050
 4.0000e-001 90154 -1.7865e+001  3.5854e+001 -2.1248e+000 48739 89998,90128,90024
 4.0000e-001 90603  3.7927e+001  3.4284e+001  8.7170e+000 48335 90381,90485,90459
 4.0000e-001 90580  1.6194e+001  2.9855e+001 -7.3932e+000 48335 90355,90485,90381
 4.0000e-001 90557  1.5651e+001  1.9355e+001  8.3037e-001 48335 90381,90433,90407
 4.0000e-001 90534  1.5359e+001  1.9642e+001  1.0118e+000 48335 90381,90459,90433
 4.0000e-001 90511  5.1161e+001  5.5456e+001  8.3072e+000 48335 90329,90485,90355
 4.0000e-001 90753  2.1241e+001  1.1092e+001  7.4220e+000 47824 90776,90652,90704
 4.0000e-001 90730  2.1006e+001  3.2606e+001 -5.2368e+000 47824 90626,90704,90652
 4.0000e-001 90802  1.4882e+001  3.4587e+001  1.4844e+001 47824 90678,90652,90776
 4.0000e-001 91131 -1.1275e+001  1.9539e+001 -1.3673e-001 47427 91154,90958,90906
 4.0000e-001 91108 -2.7971e-002  2.4802e+001 -5.4954e+000 47427 91154,90906,91036
 4.0000e-001 91085 -5.3397e+000  3.6020e+000  5.3412e+000 47427 90958,91010,90984
 4.0000e-001 91062 -2.7861e+001  1.4306e+001  9.3055e+000 47427 90906,90958,90932
 4.0000e-001 91180 -6.3417e+000  1.3041e+001  7.8288e+000 47427 91010,90958,91154
 4.0000e-001 91203  3.9296e+000  1.7350e+001  2.6002e+000 47427 91010,91154,91036
 4.0000e-001 91583 -3.1367e+001  1.6456e+001 -1.7280e+000 46873 91309,91439,91335
 4.0000e-001 91560 -3.3556e+001  3.5381e+001 -2.5861e+000 46873 91309,91465,91439
 4.0000e-001 91537 -6.7448e+000  1.2007e+001 -3.2461e+000 46873 91361,91439,91413
 4.0000e-001 91514 -4.8222e+000  2.7187e+001 -5.3530e+000 46873 91335,91439,91361
 4.0000e-001 91491  7.8776e-001  1.2104e+001 -4.7040e+000 46873 91361,91413,91387
 4.0000e-001 91880 -8.5650e+000  9.8624e+000  3.6427e+000 46526 91606,91710,91658
 4.0000e-001 91857 -1.1007e+001  1.3701e+001  5.5888e-001 46526 91606,91762,91710
 4.0000e-001 91834 -1.4928e+001  6.1762e+000  7.9437e+000 46526 91606,91658,91632
 4.0000e-001 91811 -7.3634e+000  3.6477e+000  2.0005e-001 46526 91658,91710,91684
 4.0000e-001 91788 -1.3733e+001  4.6064e+000 -6.2782e-001 46526 91710,91762,91736
 4.0000e-001 92211  2.1374e+001  1.8795e+001  6.1883e-001 45700 91986,92064,92038
 4.0000e-001 92188  1.9318e+001  4.4989e+001 -8.7879e-001 45700 91986,92116,92064
 4.0000e-001 92165  2.1380e+001  1.8343e+001 -1.0860e-002 45700 91986,92038,92012
 4.0000e-001 92142  2.9899e+001  4.0890e+001  8.7182e+000 45700 92064,92116,92090
 4.0000e-001 92766 -6.2041e+001 -4.8951e+000 -1.1697e+001 45452 92446,92602,92576
 4.0000e-001 92743 -5.9243e+001  9.2673e+000 -1.1514e+001 45452 92420,92602,92446
 4.0000e-001 92720 -3.6646e+001 -6.5311e+000 -2.4338e+000 45452 92789,92524,92498
 4.0000e-001 92697 -4.5427e+001  2.2492e+000 -4.6124e+000 45452 92789,92498,92446
 4.0000e-001 92674 -3.1962e+001 -2.8725e+000 -1.3199e+001 45452 92524,92576,92550
 4.0000e-001 92651 -5.5848e+001 -4.3639e-001  1.4296e+001 45452 92446,92498,92472
 4.0000e-001 92628 -1.1112e+002 -6.4920e+000 -1.4770e+001 45452 92394,92602,92420
 4.0000e-001 92815 -2.9794e+001 -1.4769e+000 -5.2822e+000 45452 92576,92524,92789
 4.0000e-001 92838 -3.8265e+001  6.5707e+000 -6.7523e+000 45452 92576,92789,92446
 4.0000e-001 92939 -6.6773e+000  1.0044e+001  5.4326e+000 44998 92861,92913,92887
 4.0000e-001 93319 -2.6772e-001  1.6582e+001 -8.0089e+000 44601 93123,93201,93149
 4.0000e-001 93296  6.1288e+000  1.8675e+001 -6.3284e-001 44601 93045,93201,93123
 4.0000e-001 93273  4.6626e+000  1.0330e+001  2.1109e-001 44601 93045,93123,93071
 4.0000e-001 93250  6.2246e+000  8.8066e+000 -2.9093e+000 44601 93071,93123,93097
 4.0000e-001 93227  1.5425e+001  2.4593e+001 -1.6335e+001 44601 93149,93201,93175
 4.0000e-001 93697 -2.1681e+001 -3.1307e+000  3.7557e+000 44026 93720,93553,93527
 4.0000e-001 93674 -2.3123e+001 -5.9395e+000  2.8058e+000 44026 93720,93527,93449
 4.0000e-001 93651 -2.7354e+001 -1.6130e+001  3.0070e+000 44026 93449,93527,93501
 4.0000e-001 93628 -2.7817e+001 -2.1943e+001  2.4818e+001 44026 93423,93579,93449
 4.0000e-001 93605 -2.3054e+001 -1.3048e+001  4.3637e+000 44026 93449,93501,93475
 4.0000e-001 93746 -1.8648e+001 -6.7079e+000  3.5892e+000 44026 93579,93553,93720
 4.0000e-001 93769 -2.0765e+001 -1.0119e+001  2.3655e+000 44026 93579,93720,93449
 4.0000e-001 94066 -2.6231e+000  5.8533e+000  3.2965e+000 43579 94089,93818,93792
 4.0000e-001 94043 -8.3811e+000  4.1560e+000  4.2462e+000 43579 94161,94089,93792
 4.0000e-001 94020 -8.9738e+000  3.6971e+000  5.3246e+000 43579 94161,93792,93948
 4.0000e-001 93997 -8.2860e+000  2.5558e+000  9.2305e-001 43579 94233,93870,93818
 4.0000e-001 93974 -1.2434e+001  5.1082e+000 -2.2020e+000 43579 93818,93870,93844
 4.0000e-001 94115 -8.0249e+000  2.8722e+000  1.9500e+000 43579 94233,93818,94089
 4.0000e-001 94138 -4.3791e+000  7.1486e+000  2.6586e+000 43579 93896,94089,93922
 4.0000e-001 94187 -7.8633e+000  6.4893e+000  2.3971e+000 43579 93922,94089,94161
 4.0000e-001 94210 -9.6336e+000  5.6456e+000  3.6265e+000 43579 93922,94161,93948
 4.0000e-001 94259 -8.9551e+000  4.4561e+000  2.3195e+000 43579 93896,93870,94233
 4.0000e-001 94282 -7.2543e+000  5.1209e+000  3.5488e+000 43579 93896,94233,94089
 4.0000e-001 94481 -7.1863e+000  9.1039e+000  4.6960e-001 43239 94305,94383,94357
 4.0000e-001 94458 -8.6984e+000  6.7002e+000 -2.7713e+000 43239 94305,94409,94383
 4.0000e-001 94435 -5.9583e+000  7.9455e+000  1.5935e-001 43239 94305,94357,94331
 4.0000e-001 94633  5.2092e+000  1.7208e+001  3.4092e+000 42827 94656,94532,94506
 4.0000e-001 94610 -5.6227e+000  1.3629e+001  1.7111e+000 42827 94728,94656,94506
 4.0000e-001 94682 -8.6865e-001  1.7889e+001  2.0215e+000 42827 94558,94532,94656
 4.0000e-001 94705  8.2511e+000  6.6543e+000 -4.2745e+000 42827 94988,94860,94656
 4.0000e-001 94754 -2.0995e+000  2.0902e+000 -7.9934e+000 42827 94988,94656,94728
 4.0000e-001 94886  1.0139e+001  1.1306e+001  2.2148e+000 42827 94558,94656,94860
 4.0000e-001 95014  1.6315e+001  2.4532e+000 -2.3603e+000 42827 94584,94860,94988
 4.0000e-001 95037  1.0581e+001  3.1581e+000 -4.2599e+000 42827 94584,94988,94728
 4.0000e-001 95236 -1.8564e+001  2.1735e+001  4.7734e-001 42537 95259,95112,95060
 4.0000e-001 95213 -1.6343e+001  3.0687e+001 -3.3673e+000 42537 95259,95060,95164
 4.0000e-001 95190 -1.6812e+001  2.6096e+001  3.9143e-001 42537 95060,95112,95086
 4.0000e-001 95285 -1.6840e+001  1.5579e+001  2.7037e+000 42537 95138,95112,95259
 4.0000e-001 95308 -1.7681e+001  2.0583e+001 -9.5585e-001 42537 95138,95259,95164
 4.0000e-001 95816  3.8014e+000  1.6383e+001  3.3798e+000 41969 95493,95597,95519
 4.0000e-001 95793  7.0886e+000  1.7696e+001  9.4407e-001 41969 95493,95649,95597
 4.0000e-001 95770 -2.5694e+000  1.7209e+001 -2.1840e+000 41969 95493,95675,95649
 4.0000e-001 95747 -3.7014e-001  3.0873e+001  9.0351e-001 41969 95597,95649,95623
 4.0000e-001 95724  7.2836e+000  1.7287e+001  3.0422e+000 41969 95519,95597,95571
 4.0000e-001 95701  4.8531e+000  1.2042e+001  4.4978e+000 41969 95519,95571,95545
 4.0000e-001 96371 -6.0542e+000  6.4108e+000  7.3593e+000 41579 96025,96207,96181
 4.0000e-001 96348 -8.9580e+000  3.9527e+000  1.6580e+001 41579 95999,96207,96025
 4.0000e-001 96325 -1.5461e+001  4.8922e+000  7.0212e+000 41579 96129,96181,96155
 4.0000e-001 96302 -8.3309e+000  3.1393e+000  8.5820e+000 41579 96025,96181,96129
 4.0000e-001 96279 -6.6216e+000  1.5498e+000  4.1765e+000 41579 96025,96129,96051
 4.0000e-001 96256  1.8275e-001  1.9791e-001  3.0723e-001 41579 96051,96103,96077
 4.0000e-001 96233 -5.1176e+000  3.0778e+000  3.5203e+000 41579 96051,96129,96103
 4.0000e-001 96877 -1.3922e+001  1.1060e+001  2.6086e+000 41182 96972,96900,96632
 4.0000e-001 96854 -1.5003e+001  1.2011e+001  3.1566e+000 41182 96900,96554,96736
 4.0000e-001 96831 -1.2102e+001  9.4122e+000  7.9627e+000 41182 96972,96632,96580
 4.0000e-001 96808 -1.5430e+001  1.0011e+001  2.6396e+000 41182 96632,96684,96658
 4.0000e-001 96785 -7.8141e+000  9.7739e+000  4.4388e-001 41182 96684,96736,96710
 4.0000e-001 96762 -5.1671e+000  1.4236e+001  2.6542e+000 41182 96580,96632,96606
 4.0000e-001 96926 -1.3672e+001  1.0680e+001  2.6795e+000 41182 96684,96632,96900
 4.0000e-001 96949 -8.1255e+000  1.0039e+001  3.4369e+000 41182 96684,96900,96736
 4.0000e-001 96998 -2.2176e+001  8.2842e+000  6.3761e+000 41182 96554,96900,96972
 4.0000e-001 97021 -2.3004e+001  3.2207e+000  1.2298e+001 41182 96554,96972,96580
 4.0000e-001 97576  2.5409e+001  1.3833e+001 -1.1619e+001 40678 97230,97412,97282
 4.0000e-001 97553  2.3805e+001  1.4583e+001 -6.2819e-001 40678 97204,97412,97230
 4.0000e-001 97530  1.5108e+001  1.5803e+001 -1.3491e+001 40678 97282,97360,97308
 4.0000e-001 97507  2.2871e+001  1.9645e+001 -1.0383e+001 40678 97282,97412,97360
 4.0000e-001 97484 -1.2624e+000  1.4156e+001 -2.1920e+001 40678 97308,97360,97334
 4.0000e-001 97461  2.5064e+001  3.3716e+001 -1.1237e+001 40678 97360,97412,97386
 4.0000e-001 97438  2.4039e+001  1.0877e+000 -4.4171e+000 40678 97230,97282,97256
 4.0000e-001 97976 -5.7804e-001  1.2806e+001 -2.0997e+000 40244 97702,97832,97754
 4.0000e-001 97953 -7.1135e+000  9.8645e+000 -2.1631e-001 40244 97702,97858,97832
 4.0000e-001 97930 -7.8693e-001  1.3704e+001  2.4575e+000 40244 97702,97754,97728
 4.0000e-001 97907 -6.9769e+000  2.6716e+001 -3.5770e+000 40244 97780,97832,97806
 4.0000e-001 97884 -1.5782e+001  5.2967e+000 -4.5635e+000 40244 97754,97832,97780
 4.0000e-001 98482 -4.6788e+000  3.2666e+001  2.9055e+000 39690 98505,98185,98159
 4.0000e-001 98459 -2.3428e+000  2.8653e+001  4.1607e+000 39690 98505,98159,98289
 4.0000e-001 98436 -9.3528e+000  1.5565e+001  7.4639e+000 39690 98159,98315,98289
 4.0000e-001 98413 -4.8604e+001  6.0633e+000  6.6789e+000 39690 98211,98289,98263
 4.0000e-001 98390 -3.0940e+001  2.3778e+001 -8.0816e-001 39690 98211,98263,98237
 4.0000e-001 98367  4.4092e+000  1.4602e+001  8.6255e+000 39690 98159,98341,98315
 4.0000e-001 98531 -5.9370e+000  3.0359e+001  4.8251e+000 39690 98211,98185,98505
 4.0000e-001 98554 -3.8029e+000  2.5051e+001  5.6227e+000 39690 98211,98505,98289
 4.0000e-001 99109 -1.1172e+001  9.9569e+000  4.5950e-002 39072 99132,98867,98789
 4.0000e-001 99086 -2.9236e+001  4.7140e+000 -1.9212e-001 39072 99132,98789,98763
 4.0000e-001 99063 -3.0038e+000  3.5307e+000 -1.7781e+000 39072 98867,98945,98919
 4.0000e-001 99040 -1.3723e+001  2.5720e+000  4.5886e+000 39072 98789,98867,98841
 4.0000e-001 99017  1.2603e+000  4.8417e-001  6.7016e-001 39072 98867,98919,98893
 4.0000e-001 98994 -8.5580e+000  1.6116e+001  3.8897e+000 39072 98789,98841,98815
 4.0000e-001 98971 -8.0812e+000  6.2604e+000 -8.3912e+000 39072 98737,98945,98763
 4.0000e-001 99158 -3.5762e+000  3.3790e+000 -3.9629e+000 39072 98945,98867,99132
 4.0000e-001 99181 -1.1410e+001  5.8054e+000 -4.9456e+000 39072 98945,99132,98763
 4.0000e-001 99510 -2.1574e+001  8.1644e+000  2.2893e+000 38668 99311,99389,99363
 4.0000e-001 99487 -1.8161e+001  1.0064e+001  3.1715e+000 38668 99285,99389,99311
 4.0000e-001 99464 -1.3811e+001  2.0878e+001  1.1092e+000 38668 99285,99415,99389
 4.0000e-001 99441 -1.8399e+001  1.5003e+001 -1.0561e+000 38668 99311,99363,99337
 4.0000e-001 99758 -6.7618e+000  6.1136e+000  4.1404e+000 38164 99781,99611,99585
 4.0000e-001 99735  8.1637e-001  6.0734e+000  5.3820e+000 38164 99781,99585,99533
 4.0000e-001 99712 -7.9904e+000  1.6946e+001  5.2988e+000 38164 99611,99663,99637
 4.0000e-001 99689  2.9014e+000  1.6321e+001  8.9266e+000 38164 99533,99585,99559
 4.0000e-001 99807 -1.0938e+001  7.5956e+000  6.1826e+000 38164 99663,99611,99781
 4.0000e-001 99830 -5.6535e+000  6.0703e+000  6.1278e+000 38164 99663,99781,99533
 4.0000e-001 100232 -3.3860e+001  8.1909e+000 -6.2174e+000 37702 99984,100114,100088
 4.0000e-001 100209 -2.0592e+001  2.6997e+001  5.8137e-001 37702 99958,100114,99984
 4.0000e-001 100186 -1.5401e+000  3.8544e+001  2.1557e+000 37702 100010,100088,100036
 4.0000e-001 100163 -1.5793e+001  1.6162e+001 -4.3465e+000 37702 99984,100088,100010
 4.0000e-001 100140 -8.4158e+000  9.3391e+000 -6.9030e+000 37702 100036,100088,100062
 4.0000e-001 100640  2.8979e-001  7.4539e+000  8.2322e+000 37262 100493,100545,100519
 4.0000e-001 100617  3.9006e+000  2.4730e+000  5.7574e+000 37262 100441,100545,100493
 4.0000e-001 100594 -6.6112e+000 -4.3165e+000  9.9534e+000 37262 100415,100545,100441
 4.0000e-001 100571  5.8839e+000  3.6534e+000  9.4687e+000 37262 100441,100493,100467
 4.0000e-001 101146  6.7581e-001  6.5500e+000 -5.8669e-001 36872 100823,100979,100849
 4.0000e-001 101123 -3.2726e-001  3.8059e+000  3.6920e-001 36872 100823,101005,100979
 4.0000e-001 101100 -2.5545e-001  1.1098e+001 -5.7690e+000 36872 101169,100901,100849
 4.0000e-001 101077 -3.6120e-001  1.1484e+001 -3.8432e+000 36872 101169,100849,100979
 4.0000e-001 101054 -9.5324e+000  1.8724e+001 -8.6341e+000 36872 100927,100979,100953
 4.0000e-001 101031  1.4288e+001  7.4182e+000 -1.3051e+000 36872 100849,100901,100875
 4.0000e-001 101195 -2.0854e+000  1.0465e+001 -5.7314e+000 36872 100927,100901,101169
 4.0000e-001 101218 -2.3807e+000  1.0863e+001 -3.9535e+000 36872 100927,101169,100979
 4.0000e-001 101773 -1.3780e+001  1.4597e+001  1.0450e+001 36418 101479,101609,101583
 4.0000e-001 101750 -2.3767e+001  2.1719e+001 -1.9241e+000 36418 101453,101609,101479
 4.0000e-001 101727 -1.7234e+001  4.0167e+000 -5.1376e+000 36418 101796,101531,101479
 4.0000e-001 101704 -6.0143e+000  3.5243e+000  3.4133e+000 36418 101796,101479,101583
 4.0000e-001 101681 -4.4609e+001  4.8658e+001  1.2340e+001 36418 101479,101531,101505
 4.0000e-001 101658 -3.6135e+001  7.1220e+000 -1.5144e+001 36418 101401,101609,101453
 4.0000e-001 101635  3.2764e+001  1.7836e+001 -6.2428e+000 36418 101401,101453,101427
 4.0000e-001 101822 -1.0774e+001  5.7670e+000  7.4163e+000 36418 101557,101531,101796
 4.0000e-001 101845  1.1413e+001  2.0144e+001  1.8555e+001 36418 101557,101796,101583
 4.0000e-001 102174  4.0403e+001  3.3338e+001 -1.0952e+001 35914 101949,102053,101975
 4.0000e-001 102151  3.0719e+001  2.3320e+001 -6.9840e+000 35914 101949,102079,102053
 4.0000e-001 102128  3.0819e+001  2.8483e+001 -5.8539e+000 35914 101975,102053,102027
 4.0000e-001 102105  4.6471e+001  6.0570e+001 -1.1580e+001 35914 101975,102027,102001
 4.0000e-001 102631 -1.1429e+001  1.2701e+001  8.7829e-002 35574 102383,102513,102487
 4.0000e-001 102608 -7.1094e+000  8.9937e+000 -4.6347e-001 35574 102357,102513,102383
 4.0000e-001 102585 -6.1047e+000  2.2161e+001 -3.5699e+000 35574 102409,102487,102435
 4.0000e-001 102562 -1.3454e+000  1.9476e+001 -5.2971e+000 35574 102383,102487,102409
 4.0000e-001 102539 -1.9986e+000  3.4840e+001 -4.3503e+000 35574 102435,102487,102461
 4.0000e-001 103009  1.2453e-001  1.4096e+001 -4.8118e-001 35170 102761,102865,102787
 4.0000e-001 102986 -1.0447e+001  9.4056e+000 -1.6489e+000 35170 102761,102891,102865
 4.0000e-001 102963 -4.8952e+000  1.1210e+001 -3.9261e+000 35170 102787,102865,102813
 4.0000e-001 102940 -9.8166e+000  1.1070e+001 -1.0702e+000 35170 102735,102891,102761
 4.0000e-001 102917  3.7619e+000  3.1618e+001 -3.5793e+000 35170 102813,102865,102839
 4.0000e-001 103257  1.5796e-001  8.7554e+000  4.7774e+000 34659 103280,103058,103032
 4.0000e-001 103234  5.3863e-001  7.8114e+000  3.6710e+000 34659 103280,103032,103162
 4.0000e-001 103211 -5.2021e+000  7.5862e+000  6.7574e-001 34659 103084,103162,103110
 4.0000e-001 103188 -1.9627e+000  1.7617e+001  2.0479e+000 34659 103110,103162,103136
 4.0000e-001 103306  1.5219e+000  9.9256e+000  5.2829e+000 34659 103084,103058,103280
 4.0000e-001 103329  1.2429e+000  8.5469e+000  4.0000e+000 34659 103084,103280,103162
 4.0000e-001 103837 -2.5084e+001  1.8135e+001 -3.7175e+000 34247 103860,103566,103540
 4.0000e-001 103814 -1.3142e+001  2.1097e+001 -3.4657e-002 34247 103932,103860,103540
 4.0000e-001 103791 -1.1643e+001  2.3177e+001  1.4525e+000 34247 103932,103540,103670
 4.0000e-001 103768 -1.5790e+001  2.9620e+001  6.0033e+000 34247 103566,103618,103592
 4.0000e-001 103745 -7.3717e+000  1.4278e+001  6.9934e-001 34247 103540,103696,103670
 4.0000e-001 103722 -7.0930e+000  1.5782e+001  1.9127e+000 34247 103514,103696,103540
 4.0000e-001 103886 -1.5123e+001  2.5753e+001  2.5186e-001 34247 103618,103566,103860
 4.0000e-001 103909 -1.6567e+001  2.1624e+001  2.4638e+000 34247 103618,103860,103644
 4.0000e-001 103958 -1.3166e+001  2.5585e+001  3.9487e+000 34247 103644,103860,103932
 4.0000e-001 103981 -1.1100e+001  2.7826e+001  5.5539e+000 34247 103644,103932,103670
 4.0000e-001 104300 -2.2076e+001  1.8381e+001 -3.6261e+000 33843 104052,104182,104156
 4.0000e-001 104277 -1.8701e+001  2.4197e+001 -1.1049e+000 33843 104026,104182,104052
 4.0000e-001 104254 -4.1950e+001  3.9302e+001 -9.7584e+000 33843 104078,104156,104130
 4.0000e-001 104231 -2.8840e+001  2.5268e+001 -7.2074e+000 33843 104052,104156,104078
 4.0000e-001 104208 -8.1106e+001  3.2041e+000  8.3231e+000 33843 104078,104130,104104
 4.0000e-001 104499 -5.4363e+000  2.6295e+001  2.4687e+000 33282 104594,104522,104375
 4.0000e-001 104476 -6.4087e+000  2.1347e+001  1.5043e+000 33282 104522,104323,104427
 4.0000e-001 104453 -6.7652e+000  2.8626e+001  1.9362e+000 33282 104594,104375,104349
 4.0000e-001 104548 -8.7163e+000  2.0524e+001  3.7866e+000 33282 104401,104375,104522
 4.0000e-001 104571 -5.9109e+000  2.2572e+001  1.5116e+000 33282 104401,104522,104427
 4.0000e-001 104620 -6.1102e+000  2.1445e+001  1.4954e+000 33282 104323,104522,104594
 4.0000e-001 104643 -6.6393e+000  2.4734e+001  1.3228e+000 33282 104323,104594,104349
 4.0000e-001 104942 -3.0739e+001 -4.3702e+000  6.6280e+000 32728 104694,104772,104720
 4.0000e-001 104919 -2.2716e+001  5.5403e-001  3.9112e+000 32728 104694,104824,104772
 4.0000e-001 104896 -3.7406e+001  7.5743e+000  9.3291e+000 32728 104720,104772,104746
 4.0000e-001 104873 -3.2092e+001 -9.2531e+000  7.7396e+000 32728 104772,104824,104798
 4.0000e-001 104850 -2.1843e+001  4.5914e+000  6.3682e+000 32728 104668,104824,104694
 4.0000e-001 105373  5.9562e+000  2.7665e+001 -1.0583e+000 32274 105396,105102,105076
 4.0000e-001 105350  8.0373e+000  2.9429e+001 -1.8141e+000 32274 105396,105076,105206
 4.0000e-001 105327  9.9067e+000  2.7918e+001 -8.3899e+000 32274 105154,105206,105180
 4.0000e-001 105304 -9.5561e+000  7.8894e+000 -3.3702e+001 32274 105076,105232,105206
 4.0000e-001 105281  1.1371e+001  2.6955e+001  4.6623e+000 32274 105102,105154,105128
 4.0000e-001 105258 -2.7535e+001  1.1039e+001 -3.8036e+001 32274 105050,105232,105076
 4.0000e-001 105422  8.3825e+000  2.5496e+001 -8.3617e-001 32274 105154,105102,105396
 4.0000e-001 105445  1.0115e+001  2.7062e+001 -1.5040e+000 32274 105154,105396,105206
 4.0000e-001 105644  1.7233e+001  4.8632e+001 -1.1220e+000 31620 105468,105546,105520
 4.0000e-001 105621  2.1605e+001  3.5074e+001 -3.5602e+000 31620 105468,105572,105546
 4.0000e-001 105598  1.2506e+001  3.7745e+001 -1.7662e+000 31620 105468,105520,105494
 4.0000e-001 105794 -7.0491e+000  3.6398e+001 -1.8478e+000 31158 105889,105817,105693
 4.0000e-001 105771 -1.3469e+001  4.0858e+001 -2.0945e+000 31158 105817,105667,105745
 4.0000e-001 105843 -1.0977e+001  3.1202e+001 -3.7686e+000 31158 105719,105693,105817
 4.0000e-001 105866 -1.5496e+001  3.5356e+001 -3.3234e+000 31158 105719,105817,105745
 4.0000e-001 105915 -1.5768e+001  3.2661e+001 -1.9448e+000 31158 105667,105817,105889
 4.0000e-001 106270  7.3726e+000  1.5393e+001  7.8631e+000 30818 106293,106071,106045
 4.0000e-001 106247  6.0977e+000  1.2484e+001  7.1131e+000 30818 106293,106045,106175
 4.0000e-001 106224  1.0087e+001  2.8318e+001  8.4946e+000 30818 106123,106175,106149
 4.0000e-001 106201  1.6029e+001  1.9002e+001  8.6339e+000 30818 106071,106123,106097
 4.0000e-001 106319  7.0264e+000  1.6535e+001  8.9869e+000 30818 106123,106071,106293
 4.0000e-001 106342  6.7279e+000  1.4990e+001  8.3510e+000 30818 106123,106293,106175
 4.0000e-001 106492  2.2299e+001  3.3942e+001  1.4823e+001 30414 106645,106391,106365
 4.0000e-001 106469  2.9797e+001  1.4648e+001 -3.0431e+000 30414 106515,106365,106443
 4.0000e-001 106541  3.7199e+001  1.6917e+001  2.3913e+001 30414 106645,106365,106515
 4.0000e-001 106671  3.2923e+001  7.9537e+001  1.4844e+001 30414 106417,106391,106645
 4.0000e-001 106694  3.4718e+001  4.6709e+001  2.7502e+001 30414 106417,106645,106515
 4.0000e-001 106942 -2.7557e+000  1.9194e+001 -4.6276e+000 29910 106965,106795,106769
 4.0000e-001 106919 -1.7232e+000  2.2118e+001 -3.7057e+000 29910 106965,106769,106717
 4.0000e-001 106896 -2.8634e+000  2.4661e+001 -1.3477e+001 29910 106795,106847,106821
 4.0000e-001 106873  2.5390e+000  2.5915e+001  3.7567e+000 29910 106717,106769,106743
 4.0000e-001 106991 -4.7531e+000  2.2555e+001 -4.0891e+000 29910 106847,106795,106965
 4.0000e-001 107014 -3.0919e+000  2.6435e+001 -3.1507e+000 29910 106847,106965,106717
 4.0000e-001 107213 -1.0651e+001  1.1279e+001  7.3903e+000 29413 107236,107063,107037
 4.0000e-001 107190 -2.9351e+000  1.1700e+001  6.8672e+000 29413 107236,107037,107141
 4.0000e-001 107167 -5.3496e+000  1.5566e+001  1.6088e+001 29413 107063,107115,107089
 4.0000e-001 107262 -6.4376e+000  8.8754e+000  1.1874e+001 29413 107115,107063,107236
 4.0000e-001 107285  1.3953e+000  9.7684e+000  1.1848e+001 29413 107115,107236,107141
 4.0000e-001 107486  2.0962e+000  1.2506e+001  5.8224e+000 29009 107336,107388,107362
 4.0000e-001 107463  1.4187e+001  1.9201e+001 -1.0957e+001 29009 107310,107388,107336
 4.0000e-001 107440  7.4288e+000  3.9497e+000 -7.3741e+000 29009 107310,107414,107388
 4.0000e-001 107736 -1.7747e+001  1.3320e+001 -9.2453e+000 28491 107537,107615,107563
 4.0000e-001 107713 -9.2380e+000  1.5969e+001 -1.3799e+001 28491 107537,107641,107615
 4.0000e-001 107690 -5.6643e+000  2.1207e+001 -4.7732e+000 28491 107563,107615,107589
 4.0000e-001 107667 -1.3596e+000  2.9209e+000 -1.4009e+001 28491 107511,107641,107537
 4.0000e-001 108118 -1.9995e+001  1.1987e+001 -1.8548e+000 27980 108141,107922,107844
 4.0000e-001 108095 -2.0993e+001  1.3900e+001 -1.8162e+000 27980 108141,107844,108000
 4.0000e-001 108072 -2.3274e+001  4.4232e+000 -1.2579e+000 27980 107844,107922,107870
 4.0000e-001 108049 -1.8344e+001  1.4340e+001 -3.1186e+000 27980 107870,107922,107896
 4.0000e-001 108026 -1.9428e+001  1.4511e+001 -5.5682e-001 27980 107922,107974,107948
 4.0000e-001 108167 -2.0649e+001  1.1831e+001 -2.1568e+000 27980 107974,107922,108141
 4.0000e-001 108190 -2.3433e+001  1.2019e+001 -2.6902e+000 27980 107974,108141,108000
 4.0000e-001 108745  7.9078e+000  7.1180e+000  1.9069e+001 27376 108840,108768,108477
 4.0000e-001 108722  2.4628e-001 -1.5352e+001  1.3437e+001 27376 108768,108373,108581
 4.0000e-001 108699  9.9274e+000  1.9315e+001  2.2313e+001 27376 108840,108477,108451
 4.0000e-001 108676  3.6930e+000  4.1472e+000  1.2692e+001 27376 108373,108451,108399
 4.0000e-001 108653  5.5302e+000 -2.3753e+000  1.2064e+001 27376 108503,108581,108529
 4.0000e-001 108630 -2.2384e+001 -1.1011e+000  1.9813e+001 27376 108529,108581,108555
 4.0000e-001 108607  7.8889e+000  1.3935e+001  1.2239e+001 27376 108399,108451,108425
 4.0000e-001 108794  8.5081e-001 -7.1534e+000  1.6762e+001 27376 108503,108477,108768
 4.0000e-001 108817  4.5965e+000 -2.9452e-001  1.3605e+001 27376 108503,108768,108581
 4.0000e-001 108866  5.1195e+000 -3.8128e+000  1.1324e+001 27376 108373,108768,108840
 4.0000e-001 108889  7.0881e+000  3.5135e+000  1.6119e+001 27376 108373,108840,108451
 4.0000e-001 109186 -8.8619e+000  2.0232e+001  2.5797e+000 26722 109209,108938,108912
 4.0000e-001 109163 -8.2466e+000  2.3489e+001 -3.1593e+000 26722 109281,109209,108912
 4.0000e-001 109140 -1.2386e+001  2.6191e+001 -9.4093e-001 26722 109281,108912,109042
 4.0000e-001 109117  1.4517e+001  1.6066e+001 -1.4677e+000 26722 108938,108990,108964
 4.0000e-001 109094 -1.8830e+001  3.3962e+001 -3.9959e+000 26722 108912,109068,109042
 4.0000e-001 109235  9.4700e+000  2.3181e+001  6.2676e+000 26722 108990,108938,109209
 4.0000e-001 109258 -5.8516e+000  1.6392e+001 -6.3641e-001 26722 108990,109209,109016
 4.0000e-001 109307 -1.5317e+001  2.0642e+001 -3.7219e+000 26722 109016,109209,109281
 4.0000e-001 109330 -2.0583e+001  2.2749e+001 -1.4537e+000 26722 109016,109281,109042
 4.0000e-001 109732 -4.2189e+001  1.2552e+001  6.5783e+000 26310 109458,109588,109484
 4.0000e-001 109709 -2.8377e+001  2.1897e+001 -6.4806e+000 26310 109458,109614,109588
 4.0000e-001 109686  1.0259e+001  5.1153e+001 -7.5275e+000 26310 109510,109562,109536
 4.0000e-001 109663 -9.7974e+000  3.9191e+001 -9.5383e-001 26310 109484,109562,109510
 4.0000e-001 109640 -2.4030e+001  2.0517e+001  5.2469e+000 26310 109484,109588,109562
 4.0000e-001 110159 -1.5428e+000  1.0254e+001  1.3388e+000 25642 110182,109940,109914
 4.0000e-001 110136  1.7382e-001  1.1082e+001  4.0651e+000 25642 110182,109914,109888
 4.0000e-001 110113 -4.2045e+000 -1.3032e+001  2.0723e+001 25642 109966,110018,109992
 4.0000e-001 110090 -1.7166e+001  2.2913e+000  3.4689e+000 25642 110254,109966,109940
 4.0000e-001 110067  1.1210e+001  2.1926e-001  3.0985e+000 25642 109862,110018,109888
 4.0000e-001 110044  1.1391e+001 -3.0488e+000  1.4424e+000 25642 109836,110018,109862
 4.0000e-001 110208 -9.3796e+000  7.3056e+000  9.6141e-001 25642 110254,109940,110182
 4.0000e-001 110231  8.0816e+000  5.2567e+000 -5.1255e-001 25642 110018,110182,109888
 4.0000e-001 110280 -3.5566e+000 -6.4725e+000  3.9974e+000 25642 110018,109966,110254
 4.0000e-001 110303  2.3693e+000 -3.3793e+000  2.4084e+000 25642 110018,110254,110182
 4.0000e-001 110632  4.1643e+000  1.5055e+001 -5.0645e+000 25188 110407,110485,110433
 4.0000e-001 110609  5.6387e+000  1.1753e+001 -5.0069e+000 25188 110407,110537,110485
 4.0000e-001 110586 -1.2699e+001  7.9125e+000 -3.8833e+000 25188 110433,110485,110459
 4.0000e-001 110563  1.4376e+001  1.6403e+001  1.0046e+001 25188 110485,110537,110511
 4.0000e-001 110831  1.4171e+001  3.6107e+001 -8.1717e+000 24726 110854,110707,110655
 4.0000e-001 110808  1.7184e+001  3.5638e+001 -7.0222e+000 24726 110854,110655,110759
 4.0000e-001 110785  1.4492e+001  2.7358e+001 -1.0326e+001 24726 110655,110707,110681
 4.0000e-001 110880  1.6199e+001  3.6503e+001 -6.3073e+000 24726 110733,110707,110854
 4.0000e-001 110903  1.9368e+001  3.6614e+001 -4.9506e+000 24726 110733,110854,110759
 4.0000e-001 111234 -6.9783e-002  1.7669e+001 -4.9728e+000 24222 111257,111087,111035
 4.0000e-001 111211 -3.1403e-001  1.7522e+001 -7.7898e+000 24222 111257,111035,111009
 4.0000e-001 111188  1.1700e+001  1.5440e+001 -4.1745e+000 24222 111035,111087,111061
 4.0000e-001 111165  5.5259e+000  2.0697e+001 -2.4362e+000 24222 111087,111139,111113
 4.0000e-001 111283  5.9913e-001  1.5190e+001 -5.5990e+000 24222 111139,111087,111257
 4.0000e-001 111306  3.6505e-001  1.3085e+001 -7.4287e+000 24222 111139,111257,111009
 4.0000e-001 111625 -2.8341e+000  1.4186e+000 -3.5190e+000 23732 111648,111481,111455
 4.0000e-001 111602 -7.3145e+000  1.1250e+000 -8.7012e-001 23732 111648,111455,111377
 4.0000e-001 111579 -9.1560e+000 -4.6278e+000 -2.9186e-001 23732 111377,111429,111403
 4.0000e-001 111556 -7.7373e+000 -9.1440e-001  8.3688e-001 23732 111377,111455,111429
 4.0000e-001 111533 -8.1729e+000  3.3877e+000  1.0258e+000 23732 111351,111507,111377
 4.0000e-001 111674 -9.9546e+000 -1.9687e-001 -3.5313e+000 23732 111507,111481,111648
 4.0000e-001 111697 -1.0054e+001  1.0142e+000  1.9577e-001 23732 111507,111648,111377
 4.0000e-001 112156 -1.1433e+001  5.1595e+000  4.6114e+000 23278 112179,111908,111882
 4.0000e-001 112133 -1.2220e+001  7.0655e+000  1.1107e+000 23278 112179,111882,112012
 4.0000e-001 112110 -5.9617e-001  1.4897e+001 -2.2089e-001 23278 111908,111960,111934
 4.0000e-001 112087 -1.6092e+001  1.9491e+001  1.5694e+000 23278 111882,112038,112012
 4.0000e-001 112064 -1.1868e+001  1.0848e+001 -5.6226e-001 23278 111960,112012,111986
 4.0000e-001 112205 -9.3649e+000  6.7167e+000  3.1740e+000 23278 111960,111908,112179
 4.0000e-001 112228 -8.0759e+000  9.5424e+000 -5.4753e-001 23278 111960,112179,112012
 4.0000e-001 112685 -7.7024e+000 -7.6531e+000  9.8216e+000 22938 112489,112567,112541
 4.0000e-001 112662 -5.0470e+000  2.0595e+000  6.0035e+000 22938 112437,112567,112489
 4.0000e-001 112639 -1.2003e+001  6.6131e+000  1.1007e+001 22938 112489,112541,112515
 4.0000e-001 112616 -6.6656e-001 -5.7301e+000  3.5487e+000 22938 112411,112567,112437
 4.0000e-001 112593 -9.6231e+000  6.0938e+000  5.2474e+000 22938 112437,112489,112463
 4.0000e-001 113191 -1.5797e+001  7.0616e+000 -4.3519e+000 22534 113214,112998,112946
 4.0000e-001 113168 -2.0752e+001  7.5618e+000 -2.2240e+000 22534 113286,113214,112946
 4.0000e-001 113145 -1.5221e+001  6.2362e+000 -1.2108e-001 22534 113286,112946,112920
 4.0000e-001 113122 -3.0049e+001  1.3344e+001 -5.6586e+000 22534 113358,113024,112998
 4.0000e-001 113099 -8.4651e+000  1.8636e+001  2.1087e+000 22534 112868,113050,112894
 4.0000e-001 113076 -3.2041e+001 -2.2435e+001 -1.2063e+001 22534 112946,112998,112972
 4.0000e-001 113240 -2.5455e+001  5.6390e+000 -6.2940e+000 22534 113358,112998,113214
 4.0000e-001 113263 -1.9340e+001  1.0420e+001 -1.8799e+000 22534 113050,113214,112894
 4.0000e-001 113312 -1.4876e+001  1.2068e+001 -1.5597e-001 22534 112894,113214,113286
 4.0000e-001 113335 -1.0237e+001  9.1167e+000  1.1847e+000 22534 112894,113286,112920
 4.0000e-001 113384 -2.4518e+001  1.8969e+001 -3.0126e+000 22534 113050,113024,113358
 4.0000e-001 113407 -1.7447e+001  1.3186e+001 -2.9861e+000 22534 113050,113358,113214
 4.0000e-001 113785  1.6524e+001  1.6819e+001  6.9324e+000 21978 113808,113615,113511
 4.0000e-001 113762  1.5806e+001  1.4875e+001  8.8834e+000 21978 113808,113511,113667
 4.0000e-001 113739  2.4378e+001  1.2541e+001  4.7000e+000 21978 113511,113615,113537
 4.0000e-001 113716  2.5743e+001  8.0930e+000 -2.0941e+000 21978 113537,113615,113589
 4.0000e-001 113693  1.8950e+001  8.4252e-001  7.1340e-001 21978 113537,113589,113563
 4.0000e-001 113834  1.7579e+001  1.8793e+001  5.4109e+000 21978 113641,113615,113808
 4.0000e-001 113857  1.6029e+001  1.7808e+001  7.6652e+000 21978 113641,113808,113667
 4.0000e-001 114284  2.7371e+000  1.7738e+001 -1.2504e+000 21517 114013,114117,114039
 4.0000e-001 114261 -1.7480e+000  1.4994e+001 -3.4448e+000 21517 113961,114117,114013
 4.0000e-001 114238  4.4847e+000  2.3098e+001 -6.8666e-001 21517 113961,114013,113987
 4.0000e-001 114215  1.3877e+000  1.2015e+001 -1.6239e+000 21517 114039,114117,114091
 4.0000e-001 114192 -6.4788e+000  1.3215e+001 -9.7647e-001 21517 113961,114143,114117
 4.0000e-001 114169  2.2009e+000  1.8844e+001  6.1217e+000 21517 114039,114091,114065
 4.0000e-001 114581 -7.9127e+000  5.2167e-001  7.8301e-001 21027 114359,114463,114437
 4.0000e-001 114558 -7.2409e+000 -7.9148e-001 -1.9521e+000 21027 114333,114463,114359
 4.0000e-001 114535 -8.0415e+000  9.1393e-001  7.3744e-001 21027 114359,114437,114385
 4.0000e-001 114512 -6.3470e+000 -5.4934e-001 -2.3822e+000 21027 114307,114463,114333
 4.0000e-001 114489 -1.3454e+001 -2.1893e-001  9.3059e-001 21027 114385,114437,114411
 4.0000e-001 114912  1.6091e+001  1.5866e+001  1.9406e+000 20623 114713,114791,114765
 4.0000e-001 114889  1.6136e+001  1.5940e+001  4.3528e+000 20623 114687,114791,114713
 4.0000e-001 114866  2.5560e+000  2.6455e+001  6.3378e+000 20623 114687,114817,114791
 4.0000e-001 114843  1.2665e+001  4.9277e+000  3.6189e+000 20623 114713,114765,114739
 4.0000e-001 115290  4.5837e+000  1.7104e+001 -5.2178e+000 20375 115313,115146,115094
 4.0000e-001 115267  1.7725e+000  1.4642e+001 -3.9065e+000 20375 115313,115094,115042
 4.0000e-001 115244  2.4591e+000  2.2218e+001 -5.2154e+000 20375 115385,115016,115172
 4.0000e-001 115221  6.5223e-001  1.2897e+001 -2.4526e+000 20375 115042,115094,115068
 4.0000e-001 115198  5.1168e+000  1.4162e+001 -1.1730e+000 20375 115094,115146,115120
 4.0000e-001 115339 -5.1710e+000  8.1687e+000 -9.5727e+000 20375 115172,115146,115313
 4.0000e-001 115362  1.5985e+000  1.9591e+001 -6.0563e+000 20375 115385,115172,115313
 4.0000e-001 115411  5.5272e+000  2.0377e+001 -2.2728e+000 20375 115042,115016,115385
 4.0000e-001 115434  3.9156e+000  1.6534e+001 -2.9741e+000 20375 115042,115385,115313
 4.0000e-001 115891 -7.9558e+000  1.6722e+001 -9.0668e+000 19971 115617,115747,115643
 4.0000e-001 115868 -1.6544e+001  9.0850e+000 -2.7992e+001 19971 115617,115773,115747
 4.0000e-001 115845  3.2474e+000  9.5697e+000 -6.1338e+000 19971 115643,115721,115695
 4.0000e-001 115822  2.3984e+000  5.7390e+000 -7.1481e+000 19971 115643,115747,115721
 4.0000e-001 115799  1.5291e+001  1.5516e+001 -3.6651e+000 19971 115643,115695,115669
 4.0000e-001 115992 -8.8252e+000 -2.3275e+000  1.2825e+000 19659 115914,115966,115940
 4.0000e-001 116142 -3.2890e+001 -1.1706e+001 -2.2281e-001 18997 116041,116093,116067
 4.0000e-001 116119 -3.2145e+001 -1.5200e+001  7.4152e+000 18997 116015,116093,116041
 4.0000e-001 116343  4.7940e+000  6.8075e+000 -1.8594e+000 18707 116193,116245,116219
 4.0000e-001 116320  1.8454e+000  3.5144e+000 -4.7283e+000 18707 116193,116271,116245
 4.0000e-001 116297  1.1978e+001  2.5713e+001 -2.3435e+000 18707 116167,116271,116193
 4.0000e-001 116747 -1.0350e+001  1.1903e+001  3.0196e-001 18301 116525,116629,116551
 4.0000e-001 116724 -1.4463e+000  9.3294e+000  2.0652e+000 18301 116473,116629,116525
 4.0000e-001 116701 -3.2852e-001  1.2094e+001  2.1571e+000 18301 116473,116525,116499
 4.0000e-001 116678 -1.4312e+001  1.3637e+001  2.5588e-001 18301 116551,116603,116577
 4.0000e-001 116655 -8.5342e+000  1.6197e+001  1.5639e+000 18301 116551,116629,116603
 4.0000e-001 117147 -1.1335e+001 -9.5035e-001  1.9960e+000 17747 116899,117029,116925
 4.0000e-001 117124 -1.1595e+001 -3.3577e+000  1.2099e+000 17747 116873,117029,116899
 4.0000e-001 117101 -1.1717e+001  1.2032e+000  1.6192e+000 17747 116925,117029,116951
 4.0000e-001 117078 -1.0704e+001  3.8820e-001 -9.0639e-001 17747 116951,117029,117003
 4.0000e-001 117055 -3.7974e+000  1.4201e+000  1.1151e+000 17747 116951,117003,116977
 4.0000e-001 117368 -2.0211e+001  1.1313e+001 -5.4560e+000 17293 117244,117296,117270
 4.0000e-001 117345 -1.1554e+001  2.2178e+001 -1.6095e+000 17293 117192,117296,117244
 4.0000e-001 117322 -1.0310e+001  1.4484e+001 -8.9679e-003 17293 117192,117244,117218
 4.0000e-001 117699 -2.1986e+001 -6.5339e+000  5.3837e-001 16896 117526,117604,117552
 4.0000e-001 117676 -1.4085e+001 -4.2077e+000 -1.3246e+000 16896 117500,117604,117526
 4.0000e-001 117653 -2.0160e+001 -7.0682e+000  1.1353e+000 16896 117552,117604,117578
 4.0000e-001 117630 -1.0971e+001 -5.2567e+000  5.2110e-001 16896 117474,117604,117500
 4.0000e-001 117849 -3.3220e+001  9.1469e-001  2.9498e+000 16534 117722,117774,117748
 4.0000e-001 117826 -2.7572e+001  2.3308e+001  3.2812e+000 16534 117722,117800,117774
 4.0000e-001 118070 -2.0805e+000  8.4895e+000 -2.5655e+000 16194 117946,117998,117972
 4.0000e-001 118047 -1.3265e+000  1.1276e+001 -2.3327e+000 16194 117894,117998,117946
 4.0000e-001 118024  1.4770e+000  2.1734e+001 -9.1491e+000 16194 117894,117946,117920
 4.0000e-001 118173 -7.4255e+000  5.3603e-001  0.0000e+000 15968 118095,118147,118121
 4.0000e-001 118276  8.4841e+000  1.6286e+001  2.9759e+000 15433 118299,118198,118250
 4.0000e-001 118325  6.2604e+000  1.1098e+001  3.0274e+000 15433 118224,118198,118299
 4.0000e-001 118450 -5.6001e+000 -1.4179e+000 -6.4170e-001 421 118372,118424,118398
 5.0000e-001 69891 -7.3335e+000  6.5154e+000  7.5058e+000 68988 69447,69681,69629
 5.0000e-001 69868 -1.6185e+001  3.5126e+000  1.6394e-001 68988 69421,69681,69447
 5.0000e-001 69845 -1.7413e+001  3.6536e+000  1.4255e+001 68988 69447,69629,69577
 5.0000e-001 69822 -1.8067e+001  2.7641e+001  1.2123e+001 68988 69447,69577,69473
 5.0000e-001 69799 -1.0005e+001  2.4773e-001  6.8345e+000 68988 69629,69681,69655
 5.0000e-001 69776 -2.6199e+001  5.4673e-001  1.0646e+001 68988 69577,69629,69603
 5.0000e-001 69753 -2.9448e+001  1.9470e+001  2.3395e+001 68988 69473,69577,69551
 5.0000e-001 69730 -1.9964e+001  1.2952e+002  2.5370e+001 68988 69473,69551,69525
 5.0000e-001 69707 -1.8472e+001  4.8662e+001  8.6917e-002 68988 69473,69525,69499
 5.0000e-001 69992  1.1077e+000 -4.6009e-002  3.6935e-001 68676 69914,69966,69940
 5.0000e-001 70392 -4.6056e+000  1.4343e+001 -2.5148e+000 68478 70118,70248,70144
 5.0000e-001 70369  1.7757e+001  1.4740e+001  3.9552e+000 68478 70118,70274,70248
 5.0000e-001 70346 -2.2930e+001  6.0839e+000 -2.7923e+000 68478 70144,70222,70196
 5.0000e-001 70323 -2.3206e+001  2.4821e+000  4.4784e+000 68478 70144,70248,70222
 5.0000e-001 70300 -1.9043e+001  8.2609e+000 -1.2226e+000 68478 70144,70196,70170
 5.0000e-001 70841  1.3304e+001  1.6505e+001 -1.2492e+001 68280 70570,70622,70596
 5.0000e-001 70818 -3.2206e+001  3.6903e+000  9.9725e-001 68280 70544,70622,70570
 5.0000e-001 70795 -3.4544e+001 -5.8341e+000  3.0798e+000 68280 70544,70674,70622
 5.0000e-001 70772 -4.9852e+001  2.2839e+000  1.0375e+001 68280 70622,70674,70648
 5.0000e-001 70749 -2.0635e+001  6.1179e+000 -2.0140e+000 68280 70518,70674,70544
 5.0000e-001 70726  3.6449e+000  2.7584e+000  4.9727e+000 68280 70518,70700,70674
 5.0000e-001 70991 -4.8580e+001  3.1955e+001  1.4708e+000 67968 70864,70916,70890
 5.0000e-001 70968 -6.5802e+001  2.0485e+001 -4.1938e+000 67968 70864,70942,70916
 5.0000e-001 71141 -1.4797e+002 -1.0242e+002  5.2849e+001 67770 71040,71092,71066
 5.0000e-001 71118 -1.6613e+002 -3.5448e+001  1.9868e+001 67770 71014,71092,71040
 5.0000e-001 71651 -1.2922e+001  2.6187e+001  5.3713e+000 67366 71746,71674,71458
 5.0000e-001 71628 -2.0469e+001  9.1562e+000  8.2434e+000 67366 71674,71354,71510
 5.0000e-001 71605 -1.6816e+001  3.4806e+001  4.7707e+000 67366 71746,71458,71432
 5.0000e-001 71582 -1.0091e+001  3.2188e+001 -7.1136e+000 67366 71354,71432,71380
 5.0000e-001 71559 -2.3510e+001  3.0427e+001 -6.6955e+000 67366 71380,71432,71406
 5.0000e-001 71536 -3.0766e+001  1.9263e+001  1.1195e+001 67366 71328,71510,71354
 5.0000e-001 71700 -1.1868e+001  1.9618e+001  9.6775e-001 67366 71484,71458,71674
 5.0000e-001 71723 -1.5477e+001  1.8716e+001  3.1047e+000 67366 71484,71674,71510
 5.0000e-001 71772 -1.7725e+001  1.5869e+001  3.0726e+000 67366 71354,71674,71746
 5.0000e-001 71795 -2.1386e+001  2.3924e+001  3.3938e+000 67366 71354,71746,71432
 5.0000e-001 71896 -1.9022e+001  4.7873e+001  0.0000e+000 67146 71818,71870,71844
 5.0000e-001 71997 -1.7727e+002 -8.0861e+001 -3.4755e+001 66948 71919,71971,71945
 5.0000e-001 72149  3.4091e+000  3.0737e+001 -4.2778e+000 66700 72172,72074,72048
 5.0000e-001 72126  1.2805e+000  2.5261e+001 -2.4647e+000 66700 72172,72048,72022
 5.0000e-001 72198  4.2083e+000  4.4422e+001 -7.6748e+000 66700 72244,72172,72100
 5.0000e-001 72221  9.3263e-001  3.8350e+001  8.4948e-001 66700 72100,72172,72022
 5.0000e-001 72270 -4.5853e+000  2.3965e+001 -7.1930e+000 66700 72074,72172,72244
 5.0000e-001 72623 -1.5191e+001  2.7699e+001 -1.0824e+000 66502 72424,72502,72450
 5.0000e-001 72600 -1.8393e+001  1.8223e+001 -1.0536e-001 66502 72398,72502,72424
 5.0000e-001 72577 -2.4172e+001  2.5979e+001  2.1807e+000 66502 72398,72528,72502
 5.0000e-001 72554 -1.5313e+001  2.0325e+001  1.0976e+000 66502 72450,72502,72476
 5.0000e-001 72920 -1.3364e+001  2.1880e+001  3.9519e+000 65941 72672,72776,72750
 5.0000e-001 72897 -3.2576e+001  2.1600e+001  4.6631e+000 65941 72646,72776,72672
 5.0000e-001 72874 -3.1389e+000  2.8254e+001  4.4173e-001 65941 72672,72750,72724
 5.0000e-001 72851 -1.2206e+001  1.0034e+001  3.6841e+000 65941 72672,72724,72698
 5.0000e-001 72828 -5.0818e+001  4.6349e+001 -3.3717e+000 65941 72646,72802,72776
 5.0000e-001 73241 -2.4640e+000  1.4940e+001  5.8314e+000 65743 73264,73071,73045
 5.0000e-001 73218 -2.9635e+000  1.7578e+001  2.3326e+000 65743 73480,73264,73045
 5.0000e-001 73195 -1.3415e+001  1.8854e+001  2.1781e+000 65743 73336,72967,73097
 5.0000e-001 73172 -9.9164e+000  1.5074e+001  5.6637e+000 65743 73408,72993,72967
 5.0000e-001 73149 -2.0956e+001  1.6837e+001  1.3084e+000 65743 72967,73123,73097
 5.0000e-001 73290 -1.0961e+001  1.1947e+001  1.3083e+000 65743 73097,73071,73264
 5.0000e-001 73313 -1.4483e+001  1.4755e+001  3.2296e+000 65743 73336,73097,73264
 5.0000e-001 73362 -1.2474e+001  1.7403e+001  5.0069e+000 65743 73408,72967,73336
 5.0000e-001 73385 -1.6601e+001  1.4208e+001  5.0545e+000 65743 73019,73336,73264
 5.0000e-001 73434 -1.4255e+001  5.7240e+000  4.3148e+000 65743 73019,72993,73408
 5.0000e-001 73457 -1.5833e+001  1.1825e+001  3.5169e+000 65743 73019,73408,73336
 5.0000e-001 73506 -1.6249e+001 -2.5370e+000  8.3338e+000 65743 73019,73264,73480
 5.0000e-001 73989 -2.9974e+001  1.4608e+001 -2.8742e+000 65453 73793,73845,73819
 5.0000e-001 73966 -1.4657e+001  1.6571e+001 -5.2806e+000 65453 73741,73845,73793
 5.0000e-001 73943 -2.8661e+001  5.6464e+000  2.7421e-001 65453 73715,73845,73741
 5.0000e-001 73920 -1.6705e+001  4.1870e+001 -1.1259e+001 65453 73741,73793,73767
 5.0000e-001 73897 -3.4093e+001  2.6313e+000  4.6335e+000 65453 73715,73871,73845
 5.0000e-001 74357  7.3217e+000  2.2974e+001 -9.4193e+000 65141 74380,74138,74086
 5.0000e-001 74334  6.9613e+000  1.4689e+001 -1.1614e+001 65141 74380,74086,74060
 5.0000e-001 74311  8.2826e+000  2.1588e+001 -4.3973e+000 65141 74138,74190,74164
 5.0000e-001 74288  2.5245e+001  9.6333e+000 -7.5929e+000 65141 74060,74216,74190
 5.0000e-001 74265  2.2030e+001  1.8266e-001 -6.5694e-001 65141 74034,74216,74060
 5.0000e-001 74242 -1.0681e+001  1.2943e+001 -1.3750e+001 65141 74086,74138,74112
 5.0000e-001 74406  1.1049e+001  1.7332e+001 -5.7302e+000 65141 74190,74138,74380
 5.0000e-001 74429  9.9548e+000  1.3544e+001 -7.9600e+000 65141 74190,74380,74060
 5.0000e-001 74937  7.8143e+000  5.8940e+000  1.0544e+000 64737 74614,74666,74640
 5.0000e-001 74914 -3.4715e+000  5.5704e+000  3.7168e+000 64737 74614,74796,74666
 5.0000e-001 74891 -1.3504e+001  6.6061e-001 -2.4272e+000 64737 74960,74718,74666
 5.0000e-001 74868 -1.4009e+001  7.4321e+000  3.2259e+000 64737 74960,74666,74770
 5.0000e-001 74845 -7.1299e+000 -4.2086e+000  6.4150e+000 64737 74666,74796,74770
 5.0000e-001 74822 -2.0437e+001  4.8937e+000 -5.7618e+000 64737 74666,74718,74692
 5.0000e-001 74986 -1.3330e+001  7.5024e+000  6.1350e-001 64737 74744,74718,74960
 5.0000e-001 75009 -1.0051e+001  1.8246e+001  6.9409e+000 64737 74744,74960,74770
 5.0000e-001 75306 -8.3318e-001  2.4194e+001 -2.4679e+000 64133 75329,75110,75084
 5.0000e-001 75283 -3.6590e+000  2.8101e+001  3.0142e-001 64133 75401,75329,75084
 5.0000e-001 75260 -6.8772e-001  3.0583e+001  1.8474e+000 64133 75401,75084,75058
 5.0000e-001 75237 -1.4034e+000  3.8682e+001 -1.0694e+001 64133 75473,75136,75110
 5.0000e-001 75214 -1.7182e+001  3.4595e+001 -2.4062e+000 64133 75032,75188,75162
 5.0000e-001 75355  3.2609e+000  3.2668e+001 -7.5340e+000 64133 75473,75110,75329
 5.0000e-001 75378 -7.0873e+000  2.7728e+001 -2.2452e+000 64133 75162,75329,75032
 5.0000e-001 75427 -7.9995e+000  2.4244e+001  1.9351e+000 64133 75032,75329,75401
 5.0000e-001 75450  4.0373e+000  3.5052e+001 -2.9016e+000 64133 75545,75401,75058
 5.0000e-001 75499 -1.2321e+001  3.1651e+001 -7.1896e+000 64133 75162,75136,75473
 5.0000e-001 75522 -4.6264e+000  2.5890e+001 -4.5533e+000 64133 75162,75473,75329
 5.0000e-001 75571 -8.6657e+000  6.5389e+000  2.7634e-001 64133 75032,75401,75545
 5.0000e-001 75851 -1.5028e+001  1.5272e+001 -4.5193e+000 63843 75874,75753,75727
 5.0000e-001 75828 -2.1485e+001  6.5357e+000  4.9339e-002 63843 75946,75874,75727
 5.0000e-001 75805 -1.8857e+001  2.9644e+000  1.7021e+000 63843 76018,75946,75727
 5.0000e-001 75900 -2.1712e+001  1.2486e+001  2.0864e+000 63843 75779,75753,75874
 5.0000e-001 75923 -2.1649e+001  3.6421e+000  6.1427e+000 63843 75779,75874,75675
 5.0000e-001 75972 -1.7479e+001  1.0710e+001  1.7308e+000 63843 75675,75874,75946
 5.0000e-001 75995 -1.4020e+001  7.7125e+000 -1.0428e+000 63843 75675,75946,75701
 5.0000e-001 76044 -1.7752e+001  7.3637e+000 -6.7304e-001 63843 75701,75946,76018
 5.0000e-001 76454  2.7891e+001  3.5661e+001 -1.2964e+001 63439 76477,76255,76229
 5.0000e-001 76431  1.9091e+001  2.0499e+001 -7.6111e+000 63439 76477,76229,76359
 5.0000e-001 76408  2.8524e+001  1.7756e+001 -3.9622e-001 63439 76307,76359,76333
 5.0000e-001 76385  2.5161e+001  6.1025e+001 -2.0229e+000 63439 76255,76307,76281
 5.0000e-001 76503  1.9449e+001  2.4071e+001 -3.8402e+000 63439 76307,76255,76477
 5.0000e-001 76526  1.9378e+001  1.8004e+001 -6.2773e-002 63439 76307,76477,76359
 5.0000e-001 76926 -5.1940e+001 -1.7550e+001 -1.7657e+000 63049 76704,76782,76756
 5.0000e-001 76903 -3.1443e+001 -9.4361e+000  4.2504e-001 63049 76704,76808,76782
 5.0000e-001 76880 -3.9244e+001 -2.0594e+001 -3.6352e+000 63049 76704,76756,76730
 5.0000e-001 76857 -6.0260e+001 -2.1188e+001 -5.4570e+000 63049 76678,76808,76704
 5.0000e-001 76834 -7.1426e+001 -2.1353e+001 -4.8438e+000 63049 76652,76808,76678
 5.0000e-001 77076 -2.6979e+001  1.8733e+001  1.0968e+000 62737 76975,77027,77001
 5.0000e-001 77053 -3.4533e+001  2.1003e+001  2.7613e+000 62737 76949,77027,76975
 5.0000e-001 77324 -1.5830e+001  1.7140e+001 -3.1347e+000 62277 77347,77177,77125
 5.0000e-001 77301 -1.9996e+001  1.3372e+001  2.2503e-001 62277 77347,77125,77229
 5.0000e-001 77278 -2.1485e+001  2.1296e+001  5.1331e+000 62277 77099,77229,77125
 5.0000e-001 77255 -1.1780e+001  1.4077e+001 -4.2988e+000 62277 77125,77177,77151
 5.0000e-001 77373 -1.4282e+001  2.7083e+001 -1.0221e+001 62277 77203,77177,77347
 5.0000e-001 77396 -2.6888e+001  1.7528e+001 -5.2130e+000 62277 77203,77347,77229
 5.0000e-001 77857 -2.4526e+001  1.0067e+001  4.7225e+000 61758 77635,77739,77661
 5.0000e-001 77834 -3.0826e+001  1.9739e+001  7.3556e-001 61758 77583,77739,77635
 5.0000e-001 77811 -3.2733e+001  4.4067e+001  1.7452e+001 61758 77583,77635,77609
 5.0000e-001 77788 -2.6483e+001  2.0658e+001  2.5413e+000 61758 77661,77713,77687
 5.0000e-001 77765 -2.1990e+001  1.7213e+001  4.8682e+000 61758 77661,77739,77713
 5.0000e-001 78491 -5.4739e+000  7.1999e+000  2.7737e-001 61418 78171,78301,78249
 5.0000e-001 78468 -9.9506e+000  5.0512e+000 -7.3941e-001 61418 78145,78301,78171
 5.0000e-001 78445 -1.1826e+001  4.9361e+000 -4.3343e-002 61418 78171,78249,78223
 5.0000e-001 78422 -6.5499e+000  6.7031e+000 -5.1732e+000 61418 78145,78327,78301
 5.0000e-001 78399 -2.3093e+000  1.6178e+001  1.3791e+000 61418 78249,78301,78275
 5.0000e-001 78376 -9.9217e+000  3.0055e+000 -2.0384e-001 61418 78171,78223,78197
 5.0000e-001 78353 -1.3167e+001  1.0537e+000 -7.6045e+000 61418 78119,78327,78145
 5.0000e-001 78690 -4.4987e+000  2.3379e+000  7.1095e+000 61014 78713,78566,78540
 5.0000e-001 78667 -2.3222e+001  1.8891e+001 -4.6066e-001 61014 78713,78540,78618
 5.0000e-001 78644  1.4340e+001  1.0432e+001 -5.1293e+001 61014 78514,78618,78540
 5.0000e-001 78739 -2.6551e+001 -4.2229e+000 -4.6391e+000 61014 78592,78566,78713
 5.0000e-001 78762 -3.1043e+001  4.0203e+000 -3.9677e+000 61014 78785,78713,78618
 5.0000e-001 78811 -4.3064e+001  2.7733e+000  1.0390e+001 61014 78592,78713,78785
 5.0000e-001 79398  2.5177e+001  1.5663e+000  1.3302e+000 60624 79101,79179,79153
 5.0000e-001 79375  2.6842e+001  1.3264e+000  1.3996e+000 60624 79101,79231,79179
 5.0000e-001 79352  3.4011e+001  6.7566e+000  5.3646e+000 60624 79075,79231,79101
 5.0000e-001 79329  3.0256e+001  8.8809e+000  2.6898e+000 60624 79075,79257,79231
 5.0000e-001 79306  2.6138e+001  3.6393e+000 -3.6082e+000 60624 79179,79231,79205
 5.0000e-001 79283  2.4349e+001  2.0339e-002 -6.8676e-001 60624 79101,79153,79127
 5.0000e-001 79776 -1.8249e+001  1.4142e+001 -1.8148e+000 60070 79528,79658,79606
 5.0000e-001 79753 -1.8250e+001  1.4162e+001 -1.8306e+000 60070 79502,79658,79528
 5.0000e-001 79730 -3.7501e+001  1.7734e+001  4.4778e+000 60070 79528,79606,79580
 5.0000e-001 79707 -2.4614e+001  2.2165e+001 -3.1109e+000 60070 79606,79658,79632
 5.0000e-001 79684 -5.5543e+001  9.9856e+000  5.7543e+000 60070 79528,79580,79554
 5.0000e-001 80105 -1.5896e+000  1.3356e+001 -3.7580e+000 59758 80128,79958,79906
 5.0000e-001 80082 -9.4786e+000  4.6892e+000  2.2231e-001 59758 80128,79906,80010
 5.0000e-001 80059 -2.8728e+000  7.6199e+000 -5.5483e+000 59758 79906,79958,79932
 5.0000e-001 80036 -1.5030e+001  1.1835e+001  3.6388e+000 59758 79880,80010,79906
 5.0000e-001 80154 -6.0153e+000  1.9425e+001 -8.3545e+000 59758 79984,79958,80128
 5.0000e-001 80177 -1.0441e+001  1.3486e+001 -5.2486e+000 59758 79984,80128,80010
 5.0000e-001 80376 -1.7743e+001 -7.3926e-001 -1.1107e+001 59312 80226,80304,80252
 5.0000e-001 80353 -2.5484e+001  7.7639e+001 -7.9998e+000 59312 80200,80304,80226
 5.0000e-001 80330 -2.3485e+001 -9.0997e+000 -7.6615e+000 59312 80252,80304,80278
 5.0000e-001 80805 -3.0228e+001 -5.4825e+000  1.1093e+000 58908 80900,80828,80638
 5.0000e-001 80782 -2.0415e+001 -1.0028e+001  4.4980e+000 58908 80828,80560,80508
 5.0000e-001 80759 -2.9445e+001 -7.3890e+000 -2.0215e+000 58908 80900,80638,80612
 5.0000e-001 80736 -4.3815e+001 -1.4924e+001  1.1044e+001 58908 80482,80664,80508
 5.0000e-001 80713 -4.0972e+001 -2.6723e+000 -6.1589e+000 58908 80560,80612,80586
 5.0000e-001 80690 -2.2200e+001 -1.8267e+001  4.1640e+000 58908 80508,80560,80534
 5.0000e-001 80854 -3.1615e+001 -7.7198e+000  2.9097e+000 58908 80664,80638,80828
 5.0000e-001 80877 -3.0795e+001 -1.6323e+001  7.1418e+000 58908 80664,80828,80508
 5.0000e-001 80926 -3.2434e+001 -1.1186e+001  1.6320e+000 58908 80560,80828,80900
 5.0000e-001 80949 -3.0798e+001 -1.1169e+001 -1.9544e+000 58908 80560,80900,80612
 5.0000e-001 81246 -2.5462e+001  4.9831e+000  1.0815e-001 58482 81076,81128,81102
 5.0000e-001 81223 -2.2824e+001  1.4492e+001  1.6508e+000 58482 80972,81128,81076
 5.0000e-001 81200 -2.9709e+001 -2.1320e+000  3.4712e+000 58482 80972,81076,81050
 5.0000e-001 81177 -1.1895e+000 -1.9980e+000  4.0631e+000 58482 80998,81050,81024
 5.0000e-001 81154 -2.0884e+001 -5.5675e+000  1.1097e+001 58482 80972,81050,80998
 5.0000e-001 81754 -2.5005e+001 -2.0791e+000  2.8900e+000 57828 81457,81613,81483
 5.0000e-001 81731 -1.9381e+001  6.2387e+000  9.1877e+000 57828 81431,81613,81457
 5.0000e-001 81708 -2.7737e+001 -8.0603e+000  1.1999e+001 57828 81483,81613,81509
 5.0000e-001 81685 -1.6388e+001 -5.7248e+000  7.5702e+000 57828 81509,81613,81587
 5.0000e-001 81662 -1.5844e+001  7.7381e-001  6.2022e+000 57828 81509,81587,81535
 5.0000e-001 81639  6.2477e+000  3.5175e+000 -5.3595e-001 57828 81535,81587,81561
 5.0000e-001 82002  2.5860e-001 -2.9319e+000 -5.1355e+000 57374 82025,81855,81829
 5.0000e-001 81979 -4.5141e+000 -7.7034e-001 -2.6028e+000 57374 82025,81829,81907
 5.0000e-001 81956 -3.4149e+000  1.4031e+000 -2.1866e+000 57374 81803,81907,81829
 5.0000e-001 81933 -8.6439e+000  2.7427e+000  6.7236e-001 57374 81777,81907,81803
 5.0000e-001 82051  7.1970e+000  3.8068e-001 -7.9047e+000 57374 81881,81855,82025
 5.0000e-001 82074 -2.7118e+000 -8.8184e-001 -5.3150e+000 57374 81881,82025,81907
 5.0000e-001 82356 -1.0869e+001  2.2198e+001  4.7134e-001 56913 82180,82232,82206
 5.0000e-001 82333 -1.5438e+001  1.1341e+001  5.7123e-001 56913 82180,82284,82232
 5.0000e-001 82310 -1.2283e+001 -2.1223e+000 -6.9113e-002 56913 82379,82232,82284
 5.0000e-001 82405 -1.5413e+001 -4.7228e+000 -2.8816e+000 56913 82258,82232,82379
 5.0000e-001 82764 -4.2439e+000  1.8871e+001  6.4765e-001 56523 82614,82666,82640
 5.0000e-001 82741 -8.0183e+000  5.2258e+000  1.8117e+000 56523 82614,82692,82666
 5.0000e-001 82718 -9.1059e-001  8.5639e+000  2.7125e+000 56523 82588,82692,82614
 5.0000e-001 83368 -2.4992e+001  3.8495e+000  6.0274e+000 55969 82973,83155,83129
 5.0000e-001 83345 -3.5433e+001 -1.1327e+000 -5.3590e-001 55969 82973,83181,83155
 5.0000e-001 83322 -1.5882e+001  1.3952e+001  2.1721e+000 55969 82973,83129,82999
 5.0000e-001 83299  6.1654e+000  2.1744e+001 -7.7173e+000 55969 83391,83025,82999
 5.0000e-001 83276 -1.4852e+001  1.4976e+001  5.1810e-001 55969 83391,82999,83129
 5.0000e-001 83253 -1.8390e+001  1.6897e+001  8.4446e+000 55969 83077,83129,83103
 5.0000e-001 83230 -2.6645e+001  6.7777e+000  1.2283e+000 55969 83025,83077,83051
 5.0000e-001 83207 -1.4672e+001  6.5007e+000 -5.2982e+000 55969 82947,83181,82973
 5.0000e-001 83417 -1.5431e+001  1.6582e+001 -3.2224e+000 55969 83077,83025,83391
 5.0000e-001 83440 -2.3775e+001  1.8914e+001  4.6830e+000 55969 83077,83391,83129
 5.0000e-001 83946 -5.7127e+000  2.7106e+000 -8.1510e+000 55771 83969,83779,83727
 5.0000e-001 83923 -6.4282e+000  4.8219e+000 -1.6722e-001 55771 83969,83727,83623
 5.0000e-001 83900 -1.5842e+001  1.0013e+000  2.7765e+000 55771 83623,83727,83649
 5.0000e-001 83877  4.8357e+000  3.2457e+000 -5.4454e+000 55771 83727,83779,83753
 5.0000e-001 83854 -1.3886e+001 -1.3314e+001 -7.6512e+000 55771 83675,83727,83701
 5.0000e-001 83831 -1.8877e+001  1.7454e+000  4.0544e-001 55771 83649,83727,83675
 5.0000e-001 83995 -1.1636e+001  3.4079e-002 -8.9575e+000 55771 83805,83779,83969
 5.0000e-001 84018 -1.6154e+001  9.7806e-001 -6.1115e-001 55771 83805,83969,83623
 5.0000e-001 84168 -1.7505e+001  1.4994e+001  4.1905e-001 55367 84191,84067,84041
 5.0000e-001 84145 -1.9072e+001  1.8478e+001  5.3793e-001 55367 84191,84041,84119
 5.0000e-001 84217 -1.8236e+001  1.4276e+001  1.2475e-001 55367 84093,84067,84191
 5.0000e-001 84240 -2.2515e+001  1.5204e+001 -8.0925e-001 55367 84093,84191,84119
 5.0000e-001 84571 -7.8036e+000 -2.4105e+000 -2.5350e+000 54913 84398,84450,84424
 5.0000e-001 84548 -6.9999e+000 -5.3161e+000 -4.4781e+000 54913 84372,84450,84398
 5.0000e-001 84525 -4.3980e+000 -4.6883e+000 -4.0021e+000 54913 84346,84450,84372
 5.0000e-001 84502 -1.8357e+000  1.3968e+000  5.3087e-001 54913 84346,84476,84450
 5.0000e-001 85126 -2.9138e+001  1.0700e-003  1.2502e+001 54402 84858,84936,84910
 5.0000e-001 85103 -2.6883e+001 -4.4872e+000 -5.3436e+000 54402 84806,84936,84858
 5.0000e-001 85080 -2.7682e+001 -2.7421e+000 -4.7637e+000 54402 84780,84936,84806
 5.0000e-001 85057 -5.6649e+001 -1.9620e+000 -1.0394e+001 54402 84806,84858,84832
 5.0000e-001 85034 -4.0244e+001 -8.6484e+000 -7.4569e+000 54402 84780,84962,84936
 5.0000e-001 85011 -4.6441e+000 -4.0404e+000  1.9118e+001 54402 84858,84910,84884
 5.0000e-001 84988 -3.4420e+001  6.8492e+000 -6.7661e+000 54402 84754,84962,84780
 5.0000e-001 85396 -1.6576e+001 -4.9491e-001  3.0625e+000 53998 85197,85249,85223
 5.0000e-001 85373 -2.2579e+001  6.6621e+000  1.7349e+000 53998 85197,85275,85249
 5.0000e-001 85350 -2.7608e+001  4.9243e+000  2.6215e-001 53998 85171,85275,85197
 5.0000e-001 85327 -2.4810e+001  6.3352e+000 -2.9232e-001 53998 85171,85301,85275
 5.0000e-001 85749 -1.4928e+001  1.3192e+001  8.9428e+000 53636 85524,85628,85550
 5.0000e-001 85726 -2.3185e+001  2.2494e+001  9.3365e+000 53636 85524,85654,85628
 5.0000e-001 85703 -2.3258e+001  5.6022e+000 -6.5997e-001 53636 85550,85602,85576
 5.0000e-001 85680 -4.3812e+001  1.0532e+000  8.7608e+000 53636 85550,85628,85602
 5.0000e-001 86127  2.8890e+001  1.5320e+001  2.5781e+000 52982 86150,85957,85879
 5.0000e-001 86104  1.9849e+001  4.5451e+000 -2.2426e+000 52982 86150,85879,85853
 5.0000e-001 86081  3.4668e+001  3.5440e-001  1.3468e+000 52982 85957,86009,85983
 5.0000e-001 86058  2.3855e+001  1.4898e+001  1.3775e+000 52982 85879,85957,85931
 5.0000e-001 86035  2.4102e+001  2.4436e+001  5.6006e+000 52982 85879,85931,85905
 5.0000e-001 86176  3.6255e+001  4.0282e+000  1.2154e+000 52982 86009,85957,86150
 5.0000e-001 86199  3.0799e+001 -5.2406e+000 -1.7249e+000 52982 86009,86150,85853
 5.0000e-001 86398 -2.4037e+001 -6.3819e+000  1.5126e+000 52542 86421,86248,86222
 5.0000e-001 86375 -2.2274e+001 -2.8741e+000  2.2564e+000 52542 86421,86222,86300
 5.0000e-001 86352 -1.6798e+001  7.8604e+000  3.3028e-001 52542 86222,86326,86300
 5.0000e-001 86447 -2.7473e+001 -4.6069e+000 -1.7076e+000 52542 86274,86248,86421
 5.0000e-001 86470 -2.4623e+001  9.1674e-001 -6.3249e-001 52542 86274,86421,86300
 5.0000e-001 86669 -2.4659e+001 -5.9423e+000  3.1131e+000 52230 86692,86571,86545
 5.0000e-001 86646 -2.0243e+001  3.6730e+000  4.7976e-001 52230 86692,86545,86519
 5.0000e-001 86623 -1.0820e+001  3.0822e+000 -6.9066e+000 52230 86493,86597,86519
 5.0000e-001 86718 -2.1945e+001 -6.5001e+000 -5.0644e+000 52230 86597,86571,86692
 5.0000e-001 86741 -1.5779e+001  3.9485e+000 -8.2069e+000 52230 86597,86692,86519
 5.0000e-001 87153  5.5605e+001  4.9061e-001 -1.5526e+001 51640 86980,87058,87032
 5.0000e-001 87130 -4.6220e+000  2.9606e+001 -5.6372e+000 51640 86928,87058,86980
 5.0000e-001 87107 -1.9314e+000  1.4844e+001 -1.3947e+001 51640 86928,86980,86954
 5.0000e-001 87084  4.4735e+001 -4.7381e+000 -3.7742e+001 51640 86980,87032,87006
 5.0000e-001 87659 -1.1589e+001 -5.3633e+000  5.9100e+000 51029 87682,87440,87362
 5.0000e-001 87636 -4.9221e+001 -1.0118e+001  2.3817e+001 51029 87682,87362,87336
 5.0000e-001 87613  2.5432e+000  3.0244e+000  3.8143e+000 51029 87440,87518,87466
 5.0000e-001 87590 -2.3533e+001 -7.0060e-001  5.0828e+000 51029 87362,87440,87414
 5.0000e-001 87567 -3.4867e+001 -2.3633e+001  2.3878e+001 51029 87362,87414,87388
 5.0000e-001 87544  4.6841e+000  3.7691e+000  2.8682e+000 51029 87466,87518,87492
 5.0000e-001 87708 -2.7783e+000 -1.2923e+000 -6.4616e-001 51029 87518,87440,87682
 5.0000e-001 87731 -1.8056e+001  2.0580e+001  1.0366e+001 51029 87518,87682,87336
 5.0000e-001 87881 -2.1507e+001  1.8094e+000  4.6034e-001 50739 87780,87832,87806
 5.0000e-001 87858 -1.7602e+001  1.5398e+001 -5.5140e-001 50739 87754,87832,87780
 5.0000e-001 88468 -1.3692e+001 -7.0077e-001  6.5309e+000 50235 88171,88327,88197
 5.0000e-001 88445 -3.3994e+000 -1.9763e+000  1.0336e+001 50235 88145,88327,88171
 5.0000e-001 88422 -1.0622e+001 -9.4231e+000  1.3752e+001 50235 88275,88327,88301
 5.0000e-001 88399 -1.0423e+001 -9.2796e+000  3.8562e+000 50235 88197,88327,88275
 5.0000e-001 88376 -4.7528e+000  1.0692e+001  8.3364e+000 50235 88197,88275,88223
 5.0000e-001 88353 -7.3444e+000  1.6853e+001  1.3832e+001 50235 88223,88275,88249
 5.0000e-001 88895 -1.7050e+001  2.1727e+001 -6.1626e+000 49873 88918,88728,88676
 5.0000e-001 88872 -1.9077e+001  1.8928e+001 -5.0197e+000 49873 88918,88676,88624
 5.0000e-001 88849 -1.0964e+001  1.2943e+001  1.0577e+000 49873 88598,88754,88624
 5.0000e-001 88826 -8.2579e+000  3.2312e+001 -1.6953e+001 49873 88624,88676,88650
 5.0000e-001 88803 -2.0945e+001  5.0998e+001 -5.7416e+000 49873 88676,88728,88702
 5.0000e-001 88780 -3.1742e+001  1.5175e+001  4.2589e+000 49873 88572,88754,88598
 5.0000e-001 88944 -1.9337e+001  2.1691e+001 -4.4329e+000 49873 88754,88728,88918
 5.0000e-001 88967 -2.0188e+001  2.0466e+001 -3.5732e+000 49873 88754,88918,88624
 5.0000e-001 89473  2.4025e+000  1.2365e+001  7.8513e+000 49583 89176,89306,89202
 5.0000e-001 89450 -1.5993e+001  8.8194e+000 -1.5546e+000 49583 89176,89332,89306
 5.0000e-001 89427 -6.5765e+000  5.6056e+000  2.3290e+000 49583 89496,89228,89202
 5.0000e-001 89404 -1.0217e+001  5.8453e+000  2.3644e+000 49583 89496,89202,89280
 5.0000e-001 89381 -5.4767e+000  9.0537e+000  5.8327e+000 49583 89202,89306,89280
 5.0000e-001 89358 -7.7995e+000 -4.0956e-001 -8.7897e+000 49583 89150,89332,89176
 5.0000e-001 89522 -1.0453e+001  6.2546e+000 -8.8450e-001 49583 89254,89228,89496
 5.0000e-001 89545 -1.3628e+001  7.0101e+000  1.9484e+000 49583 89254,89496,89280
 5.0000e-001 89825 -1.4427e+001  4.2369e+000  1.9811e+000 49179 89701,89753,89727
 5.0000e-001 89802 -1.2461e+001  5.7178e+000  1.3035e+000 49179 89675,89753,89701
 5.0000e-001 89779 -1.1924e+001  6.3794e+000  2.2477e+000 49179 89848,89753,89675
 5.0000e-001 89874  3.0146e+000  9.1655e+000  5.9437e+000 49179 89649,89753,89848
 5.0000e-001 90223 -1.4979e+001  1.3821e+001 -2.4529e+000 48739 90024,90102,90076
 5.0000e-001 90200 -2.0350e+001  1.3015e+001 -8.3491e-001 48739 90024,90128,90102
 5.0000e-001 90177 -2.0007e+001  4.6520e+000  1.6893e+000 48739 90024,90076,90050
 5.0000e-001 90154 -1.9581e+001  2.2807e+001 -1.1634e+000 48739 89998,90128,90024
 5.0000e-001 90603  8.6703e+000  2.5095e+000  1.5520e+000 48335 90381,90485,90459
 5.0000e-001 90580 -1.5005e-001  2.0776e+001 -9.3733e+000 48335 90355,90485,90381
 5.0000e-001 90557  7.3002e+000  1.0361e+001 -1.7992e+000 48335 90381,90433,90407
 5.0000e-001 90534  6.5922e+000 -1.3903e+000 -2.1654e+000 48335 90381,90459,90433
 5.0000e-001 90511  1.8650e+000  2.4427e+001 -5.7974e+000 48335 90329,90485,90355
 5.0000e-001 90753  3.5590e+001  1.6098e+001  1.6091e+001 47824 90776,90652,90704
 5.0000e-001 90730  3.2317e+001  2.9216e+001  3.6908e+000 47824 90626,90704,90652
 5.0000e-001 90802  2.6548e+001  3.9174e+001  2.3149e+001 47824 90678,90652,90776
 5.0000e-001 91131 -1.9004e+001  1.6028e+001 -6.2336e-001 47427 91154,90958,90906
 5.0000e-001 91108 -6.2720e+000  2.1961e+001 -6.4198e+000 47427 91154,90906,91036
 5.0000e-001 91085 -1.2178e+001 -1.1827e+000  5.7353e+000 47427 90958,91010,90984
 5.0000e-001 91062 -3.7070e+001  9.5081e+000  9.5656e+000 47427 90906,90958,90932
 5.0000e-001 91180 -1.3363e+001  8.8891e+000  8.3748e+000 47427 91010,90958,91154
 5.0000e-001 91203 -1.7163e+000  1.3780e+001  2.7256e+000 47427 91010,91154,91036
 5.0000e-001 91583 -2.7018e+001  2.0484e-001 -3.1205e+000 46873 91309,91439,91335
 5.0000e-001 91560 -2.0334e+001  2.0242e+001 -6.9820e+000 46873 91309,91465,91439
 5.0000e-001 91537 -1.1934e+001  6.7288e+000  1.2178e+000 46873 91361,91439,91413
 5.0000e-001 91514 -1.3404e+001  6.5086e+000  4.7602e-002 46873 91335,91439,91361
 5.0000e-001 91491  9.2544e-001  5.4657e+000 -2.3512e+000 46873 91361,91413,91387
 5.0000e-001 91880 -1.6470e+001  5.4598e+000  3.9373e+000 46526 91606,91710,91658
 5.0000e-001 91857 -1.9588e+001  9.6224e+000  5.1437e-001 46526 91606,91762,91710
 5.0000e-001 91834 -2.3460e+001  1.4904e+000  8.6795e+000 46526 91606,91658,91632
 5.0000e-001 91811 -1.5478e+001 -1.7118e+000 -7.1357e-003 46526 91658,91710,91684
 5.0000e-001 91788 -2.2814e+001 -1.1188e+000 -8.7623e-001 46526 91710,91762,91736
 5.0000e-001 92211  2.0300e+001 -3.5686e+000 -7.5647e-002 45700 91986,92064,92038
 5.0000e-001 92188  1.3106e+001 -1.0914e+000  2.0871e+000 45700 91986,92116,92064
 5.0000e-001 92165  2.2713e+001 -4.2602e-001 -3.6179e+000 45700 91986,92038,92012
 5.0000e-001 92142  4.0334e+001  1.9797e+001  1.9387e+001 45700 92064,92116,92090
 5.0000e-001 92766 -6.3380e+001 -3.6289e+000 -1.2410e+001 45452 92446,92602,92576
 5.0000e-001 92743 -5.5992e+001  7.7661e+000 -9.2280e+000 45452 92420,92602,92446
 5.0000e-001 92720 -3.7236e+001 -1.7540e+000 -7.4281e-001 45452 92789,92524,92498
 5.0000e-001 92697 -4.5221e+001  5.5629e+000 -2.7759e+000 45452 92789,92498,92446
 5.0000e-001 92674 -3.1902e+001  3.4497e+000 -1.0086e+001 45452 92524,92576,92550
 5.0000e-001 92651 -5.4052e+001  3.9816e+000  1.3826e+001 45452 92446,92498,92472
 5.0000e-001 92628 -1.0027e+002 -9.5032e+000 -1.4393e+001 45452 92394,92602,92420
 5.0000e-001 92815 -3.1064e+001  2.2356e+000 -3.2901e+000 45452 92576,92524,92789
 5.0000e-001 92838 -3.8609e+001  9.1009e+000 -4.6335e+000 45452 92576,92789,92446
 5.0000e-001 92939 -1.4386e+001  5.9098e+000  6.2538e+000 44998 92861,92913,92887
 5.0000e-001 93319 -5.8173e+000  1.4028e+001 -1.0707e+001 44601 93123,93201,93149
 5.0000e-001 93296  8.3858e-001  1.5596e+001 -2.7384e+000 44601 93045,93201,93123
 5.0000e-001 93273 -1.1176e+000  7.6061e+000 -1.7141e+000 44601 93045,93123,93071
 5.0000e-001 93250 -1.5357e+000  7.2254e+000 -2.0380e+000 44601 93071,93123,93097
 5.0000e-001 93227  1.0909e+001  2.4279e+001 -1.9417e+001 44601 93149,93201,93175
 5.0000e-001 93697 -3.0274e+001 -8.3905e+000  3.7234e+000 44026 93720,93553,93527
 5.0000e-001 93674 -3.1731e+001 -1.1419e+001  2.7125e+000 44026 93720,93527,93449
 5.0000e-001 93651 -3.6444e+001 -2.2495e+001  2.5247e+000 44026 93449,93527,93501
 5.0000e-001 93628 -3.6576e+001 -2.8395e+001  2.6360e+001 44026 93423,93579,93449
 5.0000e-001 93605 -3.2749e+001 -1.7750e+001  4.7993e+000 44026 93449,93501,93475
 5.0000e-001 93746 -2.7177e+001 -1.2198e+001  3.5781e+000 44026 93579,93553,93720
 5.0000e-001 93769 -2.9333e+001 -1.5854e+001  2.2801e+000 44026 93579,93720,93449
 5.0000e-001 94066 -9.7702e+000  1.0263e+000  3.3773e+000 43579 94089,93818,93792
 5.0000e-001 94043 -1.6429e+001 -7.9587e-001  4.4252e+000 43579 94161,94089,93792
 5.0000e-001 94020 -1.7034e+001 -1.2780e+000  5.5974e+000 43579 94161,93792,93948
 5.0000e-001 93997 -1.6383e+001 -2.7787e+000  8.2955e-001 43579 94233,93870,93818
 5.0000e-001 93974 -2.1113e+001  2.5138e-001 -2.8332e+000 43579 93818,93870,93844
 5.0000e-001 94115 -1.6023e+001 -2.4284e+000  1.8172e+000 43579 94233,93818,94089
 5.0000e-001 94138 -1.1911e+001  2.4312e+000  2.7493e+000 43579 93896,94089,93922
 5.0000e-001 94187 -1.5865e+001  1.7122e+000  2.4657e+000 43579 93922,94089,94161
 5.0000e-001 94210 -1.7717e+001  8.2647e-001  3.8004e+000 43579 93922,94161,93948
 5.0000e-001 94259 -1.7489e+001 -9.7578e-001  2.6524e+000 43579 93896,93870,94233
 5.0000e-001 94282 -1.5263e+001 -8.4455e-002  3.8461e+000 43579 93896,94233,94089
 5.0000e-001 94481 -1.4993e+001  4.4875e+000  3.6041e-001 43239 94305,94383,94357
 5.0000e-001 94458 -1.7267e+001  1.4247e+000 -3.5207e+000 43239 94305,94409,94383
 5.0000e-001 94435 -1.3957e+001  3.2749e+000  1.1799e-001 43239 94305,94357,94331
 5.0000e-001 94633  7.0062e+000  2.1320e+001  4.3589e+000 42827 94656,94532,94506
 5.0000e-001 94610 -2.0259e-001  2.0752e+001 -5.4674e-001 42827 94728,94656,94506
 5.0000e-001 94682  3.4188e-001  2.0612e+001  2.6096e+000 42827 94558,94532,94656
 5.0000e-001 94705  4.2869e+000  9.3012e+000 -4.2406e+000 42827 94988,94860,94656
 5.0000e-001 94754 -8.7570e-001  6.8115e+000 -6.1136e+000 42827 94988,94656,94728
 5.0000e-001 94886  5.1299e+000  1.4344e+001  3.5895e+000 42827 94558,94656,94860
 5.0000e-001 95014  8.3011e+000  7.0011e+000 -3.1991e+000 42827 94584,94860,94988
 5.0000e-001 95037  5.5007e+000  7.2468e+000 -4.1321e+000 42827 94584,94988,94728
 5.0000e-001 95236 -2.5434e+001  1.0743e+001  2.0889e+000 42537 95259,95112,95060
 5.0000e-001 95213 -1.7170e+001  1.4796e+001  3.0375e-001 42537 95259,95060,95164
 5.0000e-001 95190 -2.2911e+001  1.4779e+001  5.8395e-001 42537 95060,95112,95086
 5.0000e-001 95285 -1.9690e+001  6.7795e+000  6.7382e+000 42537 95138,95112,95259
 5.0000e-001 95308 -1.3940e+001  9.2218e+000  6.0072e+000 42537 95138,95259,95164
 5.0000e-001 95816  1.4676e+000  1.8561e+001  2.0976e+000 41969 95493,95597,95519
 5.0000e-001 95793  6.7486e+000  1.7087e+001 -2.7048e+000 41969 95493,95649,95597
 5.0000e-001 95770  5.2626e+000  1.7242e+001 -3.4391e+000 41969 95493,95675,95649
 5.0000e-001 95747  2.2620e+000  3.4503e+001 -1.3749e+000 41969 95597,95649,95623
 5.0000e-001 95724  8.1549e+000  2.2460e+001  4.2674e-001 41969 95519,95597,95571
 5.0000e-001 95701  5.6364e+000  1.8494e+001  6.8514e+000 41969 95519,95571,95545
 5.0000e-001 96371 -1.3217e+001  2.2340e+000  7.3655e+000 41579 96025,96207,96181
 5.0000e-001 96348 -1.7583e+001 -9.4320e-001  1.7291e+001 41579 95999,96207,96025
 5.0000e-001 96325 -2.4191e+001  1.4457e+000  7.8938e+000 41579 96129,96181,96155
 5.0000e-001 96302 -1.7065e+001 -2.3541e+000  9.1518e+000 41579 96025,96181,96129
 5.0000e-001 96279 -1.3824e+001 -1.7782e+000  3.4970e+000 41579 96025,96129,96051
 5.0000e-001 96256 -4.0772e+000 -1.2752e+000 -2.2331e+000 41579 96051,96103,96077
 5.0000e-001 96233 -1.3024e+001 -2.5811e-001  2.8577e+000 41579 96051,96129,96103
 5.0000e-001 96877 -2.2292e+001  6.4612e+000  2.3950e+000 41182 96972,96900,96632
 5.0000e-001 96854 -2.3499e+001  7.6401e+000  2.9976e+000 41182 96900,96554,96736
 5.0000e-001 96831 -2.0284e+001  4.6378e+000  8.3045e+000 41182 96972,96632,96580
 5.0000e-001 96808 -2.4480e+001  5.0530e+000  2.4157e+000 41182 96632,96684,96658
 5.0000e-001 96785 -1.5378e+001  5.6614e+000  1.1394e-001 41182 96684,96736,96710
 5.0000e-001 96762 -1.1658e+001  1.1281e+001  1.9129e+000 41182 96580,96632,96606
 5.0000e-001 96926 -2.2007e+001  5.9955e+000  2.4742e+000 41182 96684,96632,96900
 5.0000e-001 96949 -1.5957e+001  5.3525e+000  3.2696e+000 41182 96684,96900,96736
 5.0000e-001 96998 -3.1413e+001  3.3917e+000  6.5478e+000 41182 96554,96900,96972
 5.0000e-001 97021 -3.2327e+001 -2.1993e+000  1.3085e+001 41182 96554,96972,96580
 5.0000e-001 97576  2.0819e+001  1.3274e+001 -1.2239e+001 40678 97230,97412,97282
 5.0000e-001 97553  1.6142e+001  1.2708e+001 -1.2778e+000 40678 97204,97412,97230
 5.0000e-001 97530  1.6298e+001  1.4661e+001 -1.5594e+001 40678 97282,97360,97308
 5.0000e-001 97507  2.5355e+001  1.9484e+001 -9.9545e+000 40678 97282,97412,97360
 5.0000e-001 97484  6.2614e+000  2.0734e+001 -2.1160e+001 40678 97308,97360,97334
 5.0000e-001 97461  2.6099e+001  3.3097e+001 -1.0156e+001 40678 97360,97412,97386
 5.0000e-001 97438  2.0057e+001  4.0852e-001 -3.7834e+000 40678 97230,97282,97256
 5.0000e-001 97976 -7.9005e+000  7.7523e+000 -2.2163e+000 40244 97702,97832,97754
 5.0000e-001 97953 -1.4970e+001  4.9710e+000 -2.6053e-001 40244 97702,97858,97832
 5.0000e-001 97930 -7.5833e+000  1.0002e+001  2.7324e+000 40244 97702,97754,97728
 5.0000e-001 97907 -1.4640e+001  2.2513e+001 -3.5092e+000 40244 97780,97832,97806
 5.0000e-001 97884 -2.4400e+001 -4.7302e-001 -4.9993e+000 40244 97754,97832,97780
 5.0000e-001 98482 -1.1424e+001  2.7813e+001  3.0495e+000 39690 98505,98185,98159
 5.0000e-001 98459 -9.8509e+000  2.1483e+001  4.0073e+000 39690 98505,98159,98289
 5.0000e-001 98436 -1.3101e+001  1.6624e+001  6.4476e+000 39690 98159,98315,98289
 5.0000e-001 98413 -4.5054e+001 -1.0911e+000  5.1014e+000 39690 98211,98289,98263
 5.0000e-001 98390 -2.8922e+001  8.5099e+000 -1.4946e+000 39690 98211,98263,98237
 5.0000e-001 98367  6.8574e+000  1.4945e+001  8.2685e+000 39690 98159,98341,98315
 5.0000e-001 98531 -9.6364e+000  2.4334e+001  7.2051e+000 39690 98211,98185,98505
 5.0000e-001 98554 -9.9696e+000  1.4120e+001  6.8993e+000 39690 98211,98505,98289
 5.0000e-001 99109 -1.8045e+001  7.1921e+000  2.8052e+000 39072 99132,98867,98789
 5.0000e-001 99086 -3.3797e+001  2.5132e+000  2.5156e+000 39072 99132,98789,98763
 5.0000e-001 99063 -1.2149e+001 -1.7029e-001 -1.3624e+000 39072 98867,98945,98919
 5.0000e-001 99040 -2.2157e+001 -2.9251e+000  8.9367e+000 39072 98789,98867,98841
 5.0000e-001 99017 -6.5743e+000 -2.0475e+000  1.7055e+000 39072 98867,98919,98893
 5.0000e-001 98994 -1.5629e+001  1.2067e+001  7.3722e+000 39072 98789,98841,98815
 5.0000e-001 98971 -2.1405e+001  1.6843e+000 -2.4903e+000 39072 98737,98945,98763
 5.0000e-001 99158 -1.1369e+001  1.3198e+000 -7.2263e-001 39072 98945,98867,99132
 5.0000e-001 99181 -1.8210e+001  3.2716e+000 -1.6145e+000 39072 98945,99132,98763
 5.0000e-001 99510 -2.4683e+001  6.9313e+000  4.5508e+000 38668 99311,99389,99363
 5.0000e-001 99487 -2.0573e+001  8.3065e+000  4.2318e+000 38668 99285,99389,99311
 5.0000e-001 99464 -1.8965e+001  1.8818e+001  3.2535e+000 38668 99285,99415,99389
 5.0000e-001 99441 -2.2963e+001  1.0600e+001  2.7555e+000 38668 99311,99363,99337
 5.0000e-001 99758 -7.8907e+000  7.0482e+000  3.9376e+000 38164 99781,99611,99585
 5.0000e-001 99735  1.9094e+000  6.1111e+000  5.3374e+000 38164 99781,99585,99533
 5.0000e-001 99712 -1.0597e+001  1.5497e+001  6.6793e+000 38164 99611,99663,99637
 5.0000e-001 99689  5.0415e+000  1.9010e+001  8.8902e+000 38164 99533,99585,99559
 5.0000e-001 99807 -1.3431e+001  8.1743e+000  6.6186e+000 38164 99663,99611,99781
 5.0000e-001 99830 -6.3018e+000  5.6856e+000  6.4053e+000 38164 99663,99781,99533
 5.0000e-001 100232 -4.2788e+001 -3.0058e+000 -6.8260e+000 37702 99984,100114,100088
 5.0000e-001 100209 -2.8075e+001  1.6737e+001  1.0498e+000 37702 99958,100114,99984
 5.0000e-001 100186 -1.6061e+001  1.1116e+001 -2.1207e+000 37702 100010,100088,100036
 5.0000e-001 100163 -2.3038e+001  5.6930e+000 -4.8915e+000 37702 99984,100088,100010
 5.0000e-001 100140 -1.8389e+001  1.9458e+000 -4.6675e+000 37702 100036,100088,100062
 5.0000e-001 100640  2.8180e-001  8.8145e+000  9.1728e+000 37262 100493,100545,100519
 5.0000e-001 100617  3.0086e+000  3.4799e-001  5.0720e+000 37262 100441,100545,100493
 5.0000e-001 100594 -6.5277e+000 -5.4526e+000  8.3278e+000 37262 100415,100545,100441
 5.0000e-001 100571  7.7885e+000  4.8817e+000  1.2300e+001 37262 100441,100493,100467
 5.0000e-001 101146 -3.1988e+000  4.5140e+000 -6.7558e-001 36872 100823,100979,100849
 5.0000e-001 101123 -4.5523e+000  9.0207e-001  3.8312e-001 36872 100823,101005,100979
 5.0000e-001 101100 -3.1777e+000  1.0644e+001 -6.1565e+000 36872 101169,100901,100849
 5.0000e-001 101077 -4.0311e+000  9.3952e+000 -3.8711e+000 36872 101169,100849,100979
 5.0000e-001 101054 -1.3723e+001  1.7006e+001 -7.6443e+000 36872 100927,100979,100953
 5.0000e-001 101031  1.3901e+001  6.9625e+000 -8.6364e-001 36872 100849,100901,100875
 5.0000e-001 101195 -5.8823e+000  1.0508e+001 -5.1288e+000 36872 100927,100901,101169
 5.0000e-001 101218 -6.6302e+000  1.0009e+001 -3.0690e+000 36872 100927,101169,100979
 5.0000e-001 101773 -1.9762e+001  1.8009e+001  1.8928e+001 36418 101479,101609,101583
 5.0000e-001 101750 -3.8977e+001  3.0479e+001 -5.1968e+000 36418 101453,101609,101479
 5.0000e-001 101727 -1.6844e+001 -1.0941e+000 -1.0852e+001 36418 101796,101531,101479
 5.0000e-001 101704 -4.7700e+000 -5.0396e+000  4.7386e+000 36418 101796,101479,101583
 5.0000e-001 101681 -7.0287e+001 -1.0258e+001  1.6552e+001 36418 101479,101531,101505
 5.0000e-001 101658 -3.7785e+001  1.9844e+001 -1.9359e+001 36418 101401,101609,101453
 5.0000e-001 101635  9.7139e+000  1.8080e+001 -1.5910e+001 36418 101401,101453,101427
 5.0000e-001 101822 -8.2269e+000  4.2971e+000  3.5968e+000 36418 101557,101531,101796
 5.0000e-001 101845  1.9713e+001  2.5180e+001  2.2857e+001 36418 101557,101796,101583
 5.0000e-001 102174  3.9630e+001  3.4581e+001 -8.8457e+000 35914 101949,102053,101975
 5.0000e-001 102151  3.9070e+001  2.9323e+001 -7.4749e+000 35914 101949,102079,102053
 5.0000e-001 102128  2.7863e+001  3.0552e+001 -1.5206e+001 35914 101975,102053,102027
 5.0000e-001 102105  4.2065e+001  3.3584e+001 -2.3877e+001 35914 101975,102027,102001
 5.0000e-001 102631 -2.1956e+001  9.6812e+000  7.3113e-003 35574 102383,102513,102487
 5.0000e-001 102608 -1.7108e+001  5.9785e+000 -4.7986e-001 35574 102357,102513,102383
 5.0000e-001 102585 -1.4268e+001  1.8884e+001 -3.2347e+000 35574 102409,102487,102435
 5.0000e-001 102562 -1.0344e+001  1.6702e+001 -4.6409e+000 35574 102383,102487,102409
 5.0000e-001 102539 -9.4705e+000  3.1741e+001 -3.2026e+000 35574 102435,102487,102461
 5.0000e-001 103009 -7.6717e+000  9.4362e+000 -5.1952e-001 35170 102761,102865,102787
 5.0000e-001 102986 -1.9305e+001  4.2138e+000 -2.1853e+000 35170 102761,102891,102865
 5.0000e-001 102963 -1.2339e+001  6.8380e+000 -3.7432e+000 35170 102787,102865,102813
 5.0000e-001 102940 -1.8562e+001  6.4594e+000 -1.4149e+000 35170 102735,102891,102761
 5.0000e-001 102917 -3.1933e+000  2.8470e+001 -3.1584e+000 35170 102813,102865,102839
 5.0000e-001 103257  2.6375e+000  9.0613e+000  1.2240e+000 34659 103280,103058,103032
 5.0000e-001 103234 -6.7986e-001  4.8790e+000  3.7598e+000 34659 103280,103032,103162
 5.0000e-001 103211 -9.8972e+000  2.1529e+000  3.8235e+000 34659 103084,103162,103110
 5.0000e-001 103188 -6.9715e+000  1.3958e+001  7.0322e+000 34659 103110,103162,103136
 5.0000e-001 103306 -2.3187e+000  1.4154e+001  3.1407e+000 34659 103084,103058,103280
 5.0000e-001 103329 -5.0474e+000  9.2878e+000  5.9322e+000 34659 103084,103280,103162
 5.0000e-001 103837 -3.4939e+001  1.3958e+001 -4.0137e+000 34247 103860,103566,103540
 5.0000e-001 103814 -2.1351e+001  1.7561e+001 -2.8343e-001 34247 103932,103860,103540
 5.0000e-001 103791 -1.9619e+001  2.0276e+001  1.7229e+000 34247 103932,103540,103670
 5.0000e-001 103768 -2.4553e+001  2.5163e+001  5.8624e+000 34247 103566,103618,103592
 5.0000e-001 103745 -1.4644e+001  1.0887e+001  1.0292e+000 34247 103540,103696,103670
 5.0000e-001 103722 -1.3808e+001  1.3903e+001  2.5081e+000 34247 103514,103696,103540
 5.0000e-001 103886 -2.3316e+001  2.1826e+001  5.4697e-001 34247 103618,103566,103860
 5.0000e-001 103909 -2.5277e+001  1.7908e+001  2.5930e+000 34247 103618,103860,103644
 5.0000e-001 103958 -2.1206e+001  2.3422e+001  4.5411e+000 34247 103644,103860,103932
 5.0000e-001 103981 -1.8797e+001  2.6310e+001  6.6983e+000 34247 103644,103932,103670
 5.0000e-001 104300 -3.0150e+001  1.4383e+001 -3.4385e+000 33843 104052,104182,104156
 5.0000e-001 104277 -2.7135e+001  2.0410e+001 -8.2729e-001 33843 104026,104182,104052
 5.0000e-001 104254 -5.1547e+001  3.6279e+001 -1.0956e+001 33843 104078,104156,104130
 5.0000e-001 104231 -3.5573e+001  2.2388e+001 -7.5155e+000 33843 104052,104156,104078
 5.0000e-001 104208 -9.4886e+001 -1.0765e+000  7.3473e+000 33843 104078,104130,104104
 5.0000e-001 104499 -1.3389e+001  2.2531e+001  2.2802e+000 33282 104594,104522,104375
 5.0000e-001 104476 -1.4419e+001  1.7674e+001  1.2106e+000 33282 104522,104323,104427
 5.0000e-001 104453 -1.4863e+001  2.4884e+001  1.7582e+000 33282 104594,104375,104349
 5.0000e-001 104548 -1.6475e+001  1.6793e+001  3.4464e+000 33282 104401,104375,104522
 5.0000e-001 104571 -1.3979e+001  1.8712e+001  1.1755e+000 33282 104401,104522,104427
 5.0000e-001 104620 -1.4284e+001  1.7663e+001  1.2524e+000 33282 104323,104522,104594
 5.0000e-001 104643 -1.4915e+001  2.1010e+001  1.1055e+000 33282 104323,104594,104349
 5.0000e-001 104942 -3.6498e+001 -7.7694e+000  1.0342e+001 32728 104694,104772,104720
 5.0000e-001 104919 -2.7313e+001 -1.8734e+000  6.8470e+000 32728 104694,104824,104772
 5.0000e-001 104896 -4.7435e+001  1.3635e-001  1.1367e+001 32728 104720,104772,104746
 5.0000e-001 104873 -4.4580e+001 -1.2278e+001  1.2522e+001 32728 104772,104824,104798
 5.0000e-001 104850 -2.4338e+001  2.9977e+000  9.5543e+000 32728 104668,104824,104694
 5.0000e-001 105373 -1.1693e+000  3.1338e+001 -1.5733e+000 32274 105396,105102,105076
 5.0000e-001 105350  1.6742e+001  3.6619e+001 -5.5071e+000 32274 105396,105076,105206
 5.0000e-001 105327  2.3461e+001  4.6824e+000  1.0256e+001 32274 105154,105206,105180
 5.0000e-001 105304  3.7000e+000  2.0285e+001 -2.9927e+001 32274 105076,105232,105206
 5.0000e-001 105281  3.7518e+000  1.8111e+001  1.8674e+001 32274 105102,105154,105128
 5.0000e-001 105258 -1.4409e+001  1.3699e+001 -3.5635e+001 32274 105050,105232,105076
 5.0000e-001 105422  1.6929e+001  2.3259e+001  1.3695e+000 32274 105154,105102,105396
 5.0000e-001 105445  3.1466e+001  2.6104e+001 -2.5797e+000 32274 105154,105396,105206
 5.0000e-001 105644  9.2979e+000  4.5033e+001 -1.4436e+000 31620 105468,105546,105520
 5.0000e-001 105621  1.3697e+001  3.1957e+001 -3.8828e+000 31620 105468,105572,105546
 5.0000e-001 105598  4.4200e+000  3.3732e+001 -2.0534e+000 31620 105468,105520,105494
 5.0000e-001 105794 -1.0100e+001  4.3561e+001 -1.9252e+000 31158 105889,105817,105693
 5.0000e-001 105771 -1.7088e+001  5.7721e+001 -6.1274e-001 31158 105817,105667,105745
 5.0000e-001 105843 -1.5045e+001  3.0525e+001 -3.0272e+000 31158 105719,105693,105817
 5.0000e-001 105866 -2.1133e+001  4.3024e+001 -3.5060e+000 31158 105719,105817,105745
 5.0000e-001 105915 -1.9820e+001  3.9395e+001 -2.0334e+000 31158 105667,105817,105889
 5.0000e-001 106270  6.1152e+000 -1.1749e-002  4.3276e+000 30818 106293,106071,106045
 5.0000e-001 106247  1.3298e+001  1.6008e+001  1.5722e+001 30818 106293,106045,106175
 5.0000e-001 106224  2.6488e-001  4.4217e+000  8.2838e+000 30818 106123,106175,106149
 5.0000e-001 106201 -1.0254e+001 -5.5080e+000 -2.8751e+000 30818 106071,106123,106097
 5.0000e-001 106319  2.5442e+000 -6.4730e+000 -4.2828e-001 30818 106123,106071,106293
 5.0000e-001 106342  9.0526e-001  1.8083e+000  9.1582e+000 30818 106123,106293,106175
 5.0000e-001 106492 -6.1940e+000  6.4049e+000 -2.5047e+000 30414 106645,106391,106365
 5.0000e-001 106469  3.4586e+001  1.5507e+001 -9.0673e+000 30414 106515,106365,106443
 5.0000e-001 106541  6.5740e+000  3.1282e+000 -4.0797e-001 30414 106645,106365,106515
 5.0000e-001 106671  1.1503e+001 -7.4569e+000  1.1427e+001 30414 106417,106391,106645
 5.0000e-001 106694  4.0544e+001 -7.7795e-001  7.6343e+000 30414 106417,106645,106515
 5.0000e-001 106942 -1.0788e+001  1.6039e+001 -4.8518e+000 29910 106965,106795,106769
 5.0000e-001 106919 -9.7662e+000  1.8930e+001 -3.9396e+000 29910 106965,106769,106717
 5.0000e-001 106896 -1.0719e+001  2.1911e+001 -1.3465e+001 29910 106795,106847,106821
 5.0000e-001 106873 -5.5882e+000  2.2857e+001  3.1365e+000 29910 106717,106769,106743
 5.0000e-001 106991 -1.2772e+001  1.9360e+001 -4.3157e+000 29910 106847,106795,106965
 5.0000e-001 107014 -1.1128e+001  2.3198e+001 -3.3870e+000 29910 106847,106965,106717
 5.0000e-001 107213 -1.0262e+001  5.7394e+000  1.1953e+001 29413 107236,107063,107037
 5.0000e-001 107190 -6.2133e+000  1.2189e+001  9.3494e+000 29413 107236,107037,107141
 5.0000e-001 107167 -2.2512e+001 -2.2686e-001  1.7230e+001 29413 107063,107115,107089
 5.0000e-001 107262 -8.1758e+000  1.1961e-001  1.5446e+001 29413 107115,107063,107236
 5.0000e-001 107285 -4.9372e+000  5.3270e+000  1.2932e+001 29413 107115,107236,107141
 5.0000e-001 107486 -3.1272e+000  8.7996e+000  5.8402e+000 29009 107336,107388,107362
 5.0000e-001 107463  1.3594e+001  1.7497e+001 -1.1396e+001 29009 107310,107388,107336
 5.0000e-001 107440  2.9031e+000  1.3610e+000 -6.4960e+000 29009 107310,107414,107388
 5.0000e-001 107736 -2.4507e+001  1.0600e+001 -8.4485e+000 28491 107537,107615,107563
 5.0000e-001 107713 -1.5247e+001  1.3811e+001 -1.1841e+001 28491 107537,107641,107615
 5.0000e-001 107690 -1.2830e+001  1.7642e+001 -4.1886e+000 28491 107563,107615,107589
 5.0000e-001 107667 -6.1777e+000 -7.4631e-001 -1.2007e+001 28491 107511,107641,107537
 5.0000e-001 108118 -2.7711e+001  9.6155e+000 -1.5029e+000 27980 108141,107922,107844
 5.0000e-001 108095 -2.8959e+001  1.2550e+001 -1.5223e+000 27980 108141,107844,108000
 5.0000e-001 108072 -3.0880e+001  2.3319e+000 -7.5139e-001 27980 107844,107922,107870
 5.0000e-001 108049 -2.5816e+001  1.0808e+001 -2.8593e+000 27980 107870,107922,107896
 5.0000e-001 108026 -2.6809e+001  1.1673e+001 -2.9896e-001 27980 107922,107974,107948
 5.0000e-001 108167 -2.8434e+001  9.0104e+000 -1.8272e+000 27980 107974,107922,108141
 5.0000e-001 108190 -3.2010e+001  9.5801e+000 -2.7285e+000 27980 107974,108141,108000
 5.0000e-001 108745  1.4535e+001  1.8125e+001  2.2914e+001 27376 108840,108768,108477
 5.0000e-001 108722 -1.4602e+000 -6.7783e+000  1.6144e+001 27376 108768,108373,108581
 5.0000e-001 108699  1.6001e+001  3.4431e+001  2.8879e+001 27376 108840,108477,108451
 5.0000e-001 108676  1.1556e+001  1.5877e+001  2.0851e+001 27376 108373,108451,108399
 5.0000e-001 108653  9.5788e+000  1.7951e+000 -4.3023e+000 27376 108503,108581,108529
 5.0000e-001 108630  1.9964e+001  6.3541e+000 -7.7890e+000 27376 108529,108581,108555
 5.0000e-001 108607  1.7801e+001  2.3812e+001  1.4328e+001 27376 108399,108451,108425
 5.0000e-001 108794  2.4748e+000  1.8355e+000  1.4705e+001 27376 108503,108477,108768
 5.0000e-001 108817 -3.8127e+000  9.5195e+000  1.0881e+001 27376 108503,108768,108581
 5.0000e-001 108866  7.3548e+000  2.2466e+000  1.2285e+001 27376 108373,108768,108840
 5.0000e-001 108889  9.9388e+000  1.2751e+001  2.0275e+001 27376 108373,108840,108451
 5.0000e-001 109186 -1.0675e+001  1.6988e+001 -8.7260e-001 26722 109209,108938,108912
 5.0000e-001 109163 -9.6976e+000  1.9788e+001 -2.5177e+000 26722 109281,109209,108912
 5.0000e-001 109140 -1.5116e+001  2.4389e+001  4.2869e-001 26722 109281,108912,109042
 5.0000e-001 109117  2.6317e+000  1.2104e+001 -2.7704e+000 26722 108938,108990,108964
 5.0000e-001 109094 -2.2787e+001  3.6498e+001 -4.3866e+000 26722 108912,109068,109042
 5.0000e-001 109235 -5.7796e-001  1.7461e+001  2.4244e+000 26722 108990,108938,109209
 5.0000e-001 109258 -9.8985e+000  1.0184e+001 -1.7329e+000 26722 108990,109209,109016
 5.0000e-001 109307 -1.8399e+001  1.4535e+001 -4.8069e+000 26722 109016,109209,109281
 5.0000e-001 109330 -2.5045e+001  1.8876e+001 -1.9557e+000 26722 109016,109281,109042
 5.0000e-001 109732 -5.3995e+001  6.7310e+000  7.6482e+000 26310 109458,109588,109484
 5.0000e-001 109709 -3.8143e+001  1.7938e+001 -7.1176e+000 26310 109458,109614,109588
 5.0000e-001 109686  5.2449e+000  4.9389e+001 -7.1680e+000 26310 109510,109562,109536
 5.0000e-001 109663 -1.7937e+001  3.6127e+001 -4.6602e-001 26310 109484,109562,109510
 5.0000e-001 109640 -3.2845e+001  1.6030e+001  6.0571e+000 26310 109484,109588,109562
 5.0000e-001 110159 -6.0122e+000  6.0446e+000 -7.5944e-001 25642 110182,109940,109914
 5.0000e-001 110136 -9.5776e+000 -1.4879e+000 -1.8019e+000 25642 110182,109914,109888
 5.0000e-001 110113 -1.2054e+000  2.0340e+000  1.0914e+001 25642 109966,110018,109992
 5.0000e-001 110090 -1.5930e+001  3.3058e+000  1.5206e+000 25642 110254,109966,109940
 5.0000e-001 110067 -5.6243e+000  5.7411e-002 -2.8062e+000 25642 109862,110018,109888
 5.0000e-001 110044 -7.4289e+000  2.3135e+000 -1.5983e+000 25642 109836,110018,109862
 5.0000e-001 110208 -1.1281e+001  3.1567e+000  7.1850e-001 25642 110254,109940,110182
 5.0000e-001 110231 -2.1886e+000  2.0463e+000 -5.0928e-001 25642 110018,110182,109888
 5.0000e-001 110280 -9.0731e+000  1.9260e+000  2.4644e+000 25642 110018,109966,110254
 5.0000e-001 110303 -4.8776e+000  1.4349e+000  2.1182e+000 25642 110018,110254,110182
 5.0000e-001 110632 -2.7522e+000  1.1106e+001 -5.7288e+000 25188 110407,110485,110433
 5.0000e-001 110609 -1.7830e-001  9.2400e+000 -6.1612e+000 25188 110407,110537,110485
 5.0000e-001 110586 -2.0760e+001  3.4603e+000 -4.7485e+000 25188 110433,110485,110459
 5.0000e-001 110563  8.7433e+000  1.4077e+001  9.1147e+000 25188 110485,110537,110511
 5.0000e-001 110831  8.4246e+000  3.2012e+001 -8.6600e+000 24726 110854,110707,110655
 5.0000e-001 110808  1.3168e+001  3.1283e+001 -6.8548e+000 24726 110854,110655,110759
 5.0000e-001 110785  9.2141e+000  2.0475e+001 -1.1781e+001 24726 110655,110707,110681
 5.0000e-001 110880  1.1618e+001  3.2631e+001 -5.7211e+000 24726 110733,110707,110854
 5.0000e-001 110903  1.6603e+001  3.2811e+001 -3.5904e+000 24726 110733,110854,110759
 5.0000e-001 111234 -7.7433e+000  1.3834e+001 -5.1996e+000 24222 111257,111087,111035
 5.0000e-001 111211 -8.8146e+000  1.3339e+001 -7.6165e+000 24222 111257,111035,111009
 5.0000e-001 111188  4.8020e+000  1.0586e+001 -3.9833e+000 24222 111035,111087,111061
 5.0000e-001 111165 -1.0208e+000  1.7607e+001 -2.2200e+000 24222 111087,111139,111113
 5.0000e-001 111283 -6.7736e+000  1.1412e+001 -5.9948e+000 24222 111139,111087,111257
 5.0000e-001 111306 -7.3129e+000  9.5047e+000 -7.5612e+000 24222 111139,111257,111009
 5.0000e-001 111625 -1.7065e+001 -4.9659e+000  3.3521e+000 23732 111648,111481,111455
 5.0000e-001 111602 -1.4791e+001 -4.3067e+000  2.0616e+000 23732 111648,111455,111377
 5.0000e-001 111579 -1.8998e+001 -1.5706e+001 -6.1995e-001 23732 111377,111429,111403
 5.0000e-001 111556 -1.5756e+001 -6.5709e+000  3.8170e+000 23732 111377,111455,111429
 5.0000e-001 111533 -1.3175e+001  5.3533e+000  2.4572e+000 23732 111351,111507,111377
 5.0000e-001 111674 -1.3630e+001 -5.0854e+000  2.7632e+000 23732 111507,111481,111648
 5.0000e-001 111697 -1.3121e+001 -4.5720e+000  1.0045e+000 23732 111507,111648,111377
 5.0000e-001 112156 -1.6904e+001  1.6863e+000  4.6154e+000 23278 112179,111908,111882
 5.0000e-001 112133 -1.7553e+001  3.5806e+000  1.4312e+000 23278 112179,111882,112012
 5.0000e-001 112110 -8.1082e+000  1.0874e+001  2.3288e-001 23278 111908,111960,111934
 5.0000e-001 112087 -2.2547e+001  1.6506e+001  2.2399e+000 23278 111882,112038,112012
 5.0000e-001 112064 -1.7322e+001  6.2909e+000 -4.9552e-001 23278 111960,112012,111986
 5.0000e-001 112205 -1.5052e+001  3.1665e+000  3.1568e+000 23278 111960,111908,112179
 5.0000e-001 112228 -1.3808e+001  5.8994e+000 -2.3607e-001 23278 111960,112179,112012
 5.0000e-001 112685 -4.1555e+000 -9.8451e+000  1.0284e+001 22938 112489,112567,112541
 5.0000e-001 112662 -1.4482e+000  1.7299e+000  4.5033e+000 22938 112437,112567,112489
 5.0000e-001 112639 -7.9614e+000  1.0802e+001  1.2605e+001 22938 112489,112541,112515
 5.0000e-001 112616  6.8383e+000 -7.3888e+000  1.8215e+000 22938 112411,112567,112437
 5.0000e-001 112593  6.6939e-001  3.5173e+000  3.6945e+000 22938 112437,112489,112463
 5.0000e-001 113191 -2.3682e+001  2.3106e+000 -3.9784e+000 22534 113214,112998,112946
 5.0000e-001 113168 -2.8456e+001  3.0353e+000 -1.9296e+000 22534 113286,113214,112946
 5.0000e-001 113145 -2.3221e+001  1.7307e+000  9.8194e-002 22534 113286,112946,112920
 5.0000e-001 113122 -3.8318e+001  9.0810e+000 -5.4258e+000 22534 113358,113024,112998
 5.0000e-001 113099 -1.5797e+001  1.5274e+001  2.4191e+000 22534 112868,113050,112894
 5.0000e-001 113076 -3.9209e+001 -2.6829e+001 -1.1420e+001 22534 112946,112998,112972
 5.0000e-001 113240 -3.3518e+001  9.8538e-001 -6.0851e+000 22534 113358,112998,113214
 5.0000e-001 113263 -2.6901e+001  6.0413e+000 -1.7767e+000 22534 113050,113214,112894
 5.0000e-001 113312 -2.2948e+001  7.4569e+000  4.9567e-002 22534 112894,113214,113286
 5.0000e-001 113335 -1.8611e+001  4.5548e+000  1.3666e+000 22534 112894,113286,112920
 5.0000e-001 113384 -3.2539e+001  1.5035e+001 -2.6686e+000 22534 113050,113024,113358
 5.0000e-001 113407 -2.5161e+001  8.9406e+000 -2.6279e+000 22534 113050,113358,113214
 5.0000e-001 113785  2.1282e+001  1.7098e+001  7.6545e+000 21978 113808,113615,113511
 5.0000e-001 113762  2.0127e+001  1.3819e+001  1.0965e+001 21978 113808,113511,113667
 5.0000e-001 113739  3.1259e+001  1.5824e+001  4.4715e+000 21978 113511,113615,113537
 5.0000e-001 113716  3.4323e+001  1.2317e+001 -1.9191e+000 21978 113537,113615,113589
 5.0000e-001 113693  2.8864e+001  7.7455e-001  9.8983e-001 21978 113537,113589,113563
 5.0000e-001 113834  2.3039e+001  2.0417e+001  5.2126e+000 21978 113641,113615,113808
 5.0000e-001 113857  2.0621e+001  1.8835e+001  9.0393e+000 21978 113641,113808,113667
 5.0000e-001 114284 -5.9667e+000  1.5441e+001 -4.1161e+000 21517 114013,114117,114039
 5.0000e-001 114261 -5.3329e+000  1.5329e+001 -5.0251e+000 21517 113961,114117,114013
 5.0000e-001 114238 -7.8360e+000  2.3840e+001 -4.6549e+000 21517 113961,114013,113987
 5.0000e-001 114215 -2.0233e-001  1.1241e+001 -8.8434e-001 21517 114039,114117,114091
 5.0000e-001 114192 -8.3473e+000  1.3411e+001 -3.5163e+000 21517 113961,114143,114117
 5.0000e-001 114169  1.1434e+000  1.8867e+001  7.5755e+000 21517 114039,114091,114065
 5.0000e-001 114581 -1.7545e+001  3.9930e+000  1.7450e+000 21027 114359,114463,114437
 5.0000e-001 114558 -1.5084e+001  1.1981e+000 -4.8042e+000 21027 114333,114463,114359
 5.0000e-001 114535 -1.6661e+001  2.5954e+000  1.8156e+000 21027 114359,114437,114385
 5.0000e-001 114512 -1.3334e+001  2.3667e+000 -3.3011e+000 21027 114307,114463,114333
 5.0000e-001 114489 -2.9318e+001  2.3837e+000  9.2660e-001 21027 114385,114437,114411
 5.0000e-001 114912  1.6089e+001  2.2305e+001  1.3849e+000 20623 114713,114791,114765
 5.0000e-001 114889  4.3535e+000  1.7413e+001  7.1152e+000 20623 114687,114791,114713
 5.0000e-001 114866  3.7253e+000  3.4268e+001  4.8285e+000 20623 114687,114817,114791
 5.0000e-001 114843  7.5244e+000  5.3777e+000  5.2789e+000 20623 114713,114765,114739
 5.0000e-001 115290  5.4066e-001  1.5018e+001 -6.2719e+000 20375 115313,115146,115094
 5.0000e-001 115267 -2.1767e+000  1.3056e+001 -4.9826e+000 20375 115313,115094,115042
 5.0000e-001 115244 -4.0420e+000  2.1393e+001 -6.9392e+000 20375 115385,115016,115172
 5.0000e-001 115221 -7.7616e+000  1.0311e+001 -4.1078e+000 20375 115042,115094,115068
 5.0000e-001 115198  2.0952e+000  1.2332e+001 -9.1061e-002 20375 115094,115146,115120
 5.0000e-001 115339 -6.8079e+000  8.0781e+000 -9.6813e+000 20375 115172,115146,115313
 5.0000e-001 115362 -1.2449e+000  1.8520e+001 -7.3860e+000 20375 115385,115172,115313
 5.0000e-001 115411 -3.6571e+000  1.9026e+001 -4.3790e+000 20375 115042,115016,115385
 5.0000e-001 115434 -3.2129e+000  1.4062e+001 -4.1755e+000 20375 115042,115385,115313
 5.0000e-001 115891 -1.5995e+001  1.1732e+001 -9.1742e+000 19971 115617,115747,115643
 5.0000e-001 115868 -2.5542e+001  2.9599e+000 -2.9772e+001 19971 115617,115773,115747
 5.0000e-001 115845 -4.0112e+000  4.6598e+000 -6.7691e+000 19971 115643,115721,115695
 5.0000e-001 115822 -5.9499e+000 -4.8271e-001 -6.8694e+000 19971 115643,115747,115721
 5.0000e-001 115799  8.5856e+000  1.1119e+001 -4.0702e+000 19971 115643,115695,115669
 5.0000e-001 115992 -2.1895e+001 -1.0592e+001  5.1643e+000 19659 115914,115966,115940
 5.0000e-001 116142 -4.1976e+001 -1.7771e+001 -3.2314e-001 18997 116041,116093,116067
 5.0000e-001 116119 -4.1175e+001 -2.1720e+001  8.1640e+000 18997 116015,116093,116041
 5.0000e-001 116343 -2.5546e+000  3.3672e+000 -8.7772e-001 18707 116193,116245,116219
 5.0000e-001 116320 -4.1963e+000 -4.8705e-004 -4.4765e+000 18707 116193,116271,116245
 5.0000e-001 116297  6.1386e+000  2.2323e+001 -1.7393e+000 18707 116167,116271,116193
 5.0000e-001 116747 -1.5839e+001  8.4282e+000  6.1249e-001 18301 116525,116629,116551
 5.0000e-001 116724 -7.0256e+000  6.5364e+000  2.4617e+000 18301 116473,116629,116525
 5.0000e-001 116701 -6.8864e+000  7.2051e+000  2.8529e+000 18301 116473,116525,116499
 5.0000e-001 116678 -1.9700e+001  1.0357e+001  3.0818e-001 18301 116551,116603,116577
 5.0000e-001 116655 -1.3645e+001  1.3603e+001  1.8681e+000 18301 116551,116629,116603
 5.0000e-001 117147 -4.4696e+000  4.6765e+000  4.4308e-001 17747 116899,117029,116925
 5.0000e-001 117124 -4.2589e+000  1.0273e+000 -6.9394e-001 17747 116873,117029,116899
 5.0000e-001 117101 -8.3001e+000  2.9229e+000 -1.5245e+000 17747 116925,117029,116951
 5.0000e-001 117078 -9.4567e+000 -1.6102e+000 -2.7741e+000 17747 116951,117029,117003
 5.0000e-001 117055 -4.5230e+000  1.1691e+000 -1.0632e+000 17747 116951,117003,116977
 5.0000e-001 117368 -2.9001e+001  7.5647e+000 -5.6008e+000 17293 117244,117296,117270
 5.0000e-001 117345 -1.9673e+001  1.9152e+001 -1.4768e+000 17293 117192,117296,117244
 5.0000e-001 117322 -1.8256e+001  1.0905e+001  2.2504e-001 17293 117192,117244,117218
 5.0000e-001 117699 -3.0294e+001 -1.1850e+001  2.5863e-001 16896 117526,117604,117552
 5.0000e-001 117676 -2.1395e+001 -8.1467e+000 -2.0933e+000 16896 117500,117604,117526
 5.0000e-001 117653 -2.8007e+001 -1.2459e+001  9.6767e-001 16896 117552,117604,117578
 5.0000e-001 117630 -1.8639e+001 -9.5082e+000 -4.2319e-001 16896 117474,117604,117500
 5.0000e-001 117849 -4.2582e+001 -2.7406e+000  3.2848e+000 16534 117722,117774,117748
 5.0000e-001 117826 -3.6395e+001  2.2149e+001  3.7235e+000 16534 117722,117800,117774
 5.0000e-001 118070 -7.4585e+000  5.6300e+000 -2.2143e+000 16194 117946,117998,117972
 5.0000e-001 118047 -7.6893e+000  8.3542e+000 -2.4883e+000 16194 117894,117998,117946
 5.0000e-001 118024 -7.6026e+000  2.0955e+001 -1.1252e+001 16194 117894,117946,117920
 5.0000e-001 118173 -1.6001e+001  4.8438e-002  0.0000e+000 15968 118095,118147,118121
 5.0000e-001 118276  2.7336e+000  2.1401e+001  5.4054e+000 15433 118299,118198,118250
 5.0000e-001 118325 -1.4852e+000  1.1558e+001  5.5046e+000 15433 118224,118198,118299
 5.0000e-001 118450  3.9942e-001 -6.8452e+000 -1.6871e+000 421 118372,118424,118398
 6.0000e-001 69891 -2.2812e+000  4.3187e+000  6.3771e+000 68988 69447,69681,69629
 6.0000e-001 69868 -1.0108e+001  1.5320e+000  6.5490e-001 68988 69421,69681,69447
 6.0000e-001 69845 -8.6477e+000  2.1386e+000  1.0572e+001 68988 69447,69629,69577
 6.0000e-001 69822 -7.7981e+000  1.9639e+001  9.7396e+000 68988 69447,69577,69473
 6.0000e-001 69799 -5.3921e+000 -3.7521e-001  4.9264e+000 68988 69629,69681,69655
 6.0000e-001 69776 -1.0232e+001  1.5434e+000  1.0113e+001 68988 69577,69629,69603
 6.0000e-001 69753 -1.4566e+001  1.6451e+001  1.7297e+001 68988 69473,69577,69551
 6.0000e-001 69730 -9.9005e+000  9.0459e+001  1.7869e+001 68988 69473,69551,69525
 6.0000e-001 69707 -7.3751e+000  3.3109e+001  2.9452e-002 68988 69473,69525,69499
 6.0000e-001 69992  1.2114e+000  7.6283e-002  1.0112e-001 68676 69914,69966,69940
 6.0000e-001 70392  2.6091e+000  1.5820e+001 -1.8261e+000 68478 70118,70248,70144
 6.0000e-001 70369  2.0930e+001  1.5833e+001  3.4424e+000 68478 70118,70274,70248
 6.0000e-001 70346 -1.1605e+001  1.0202e+001 -1.9703e+000 68478 70144,70222,70196
 6.0000e-001 70323 -1.1902e+001  7.2579e+000  3.5641e+000 68478 70144,70248,70222
 6.0000e-001 70300 -9.2815e+000  1.1508e+001 -1.0319e+000 68478 70144,70196,70170
 6.0000e-001 70841  1.6493e+001  1.7432e+001 -9.8454e+000 68280 70570,70622,70596
 6.0000e-001 70818 -1.9045e+001  7.9405e+000  6.1898e-001 68280 70544,70622,70570
 6.0000e-001 70795 -2.0593e+001  1.0237e+000  2.3624e+000 68280 70544,70674,70622
 6.0000e-001 70772 -3.2373e+001  7.1297e+000  7.8896e+000 68280 70622,70674,70648
 6.0000e-001 70749 -9.5078e+000  1.0236e+001 -1.6166e+000 68280 70518,70674,70544
 6.0000e-001 70726  1.0247e+001  6.7376e+000  3.9921e+000 68280 70518,70700,70674
 6.0000e-001 70991 -3.0914e+001  2.8569e+001  1.1134e+000 67968 70864,70916,70890
 6.0000e-001 70968 -4.3194e+001  2.1628e+001 -1.7163e+000 67968 70864,70942,70916
 6.0000e-001 71141 -1.0503e+002 -7.4222e+001  3.9596e+001 67770 71040,71092,71066
 6.0000e-001 71118 -1.1441e+002 -2.3147e+001  1.4646e+001 67770 71014,71092,71040
 6.0000e-001 71651 -3.9554e+000  2.4932e+001  3.9086e+000 67366 71746,71674,71458
 6.0000e-001 71628 -9.7561e+000  1.1881e+001  6.3179e+000 67366 71674,71354,71510
 6.0000e-001 71605 -6.7965e+000  3.1350e+001  3.4469e+000 67366 71746,71458,71432
 6.0000e-001 71582 -1.7928e+000  2.9774e+001 -5.1261e+000 67366 71354,71432,71380
 6.0000e-001 71559 -1.1682e+001  2.7800e+001 -4.4927e+000 67366 71380,71432,71406
 6.0000e-001 71536 -1.6956e+001  2.0750e+001  9.0246e+000 67366 71328,71510,71354
 6.0000e-001 71700 -3.0586e+000  2.0097e+001  5.1443e-001 67366 71484,71458,71674
 6.0000e-001 71723 -5.8139e+000  1.9458e+001  2.3204e+000 67366 71484,71674,71510
 6.0000e-001 71772 -7.4665e+000  1.7235e+001  2.2205e+000 67366 71354,71674,71746
 6.0000e-001 71795 -1.0165e+001  2.3207e+001  2.4524e+000 67366 71354,71746,71432
 6.0000e-001 71896 -7.6292e+000  3.2631e+001  0.0000e+000 67146 71818,71870,71844
 6.0000e-001 71997 -1.2413e+002 -5.9957e+001 -2.4012e+001 66948 71919,71971,71945
 6.0000e-001 72149  1.0557e+001  2.4320e+001 -2.1324e+000 66700 72172,72074,72048
 6.0000e-001 72126  1.0607e+001  2.1268e+001 -1.2713e+000 66700 72172,72048,72022
 6.0000e-001 72198  1.1987e+001  3.0677e+001 -3.5945e+000 66700 72244,72172,72100
 6.0000e-001 72221  1.3918e+001  2.8790e+001  1.1445e+000 66700 72100,72172,72022
 6.0000e-001 72270  7.3450e+000  1.9803e+001 -3.7304e+000 66700 72074,72172,72244
 6.0000e-001 72623 -2.0546e+000  2.7872e+001 -2.0938e+000 66502 72424,72502,72450
 6.0000e-001 72600 -5.9328e+000  1.7088e+001 -1.3927e+000 66502 72398,72502,72424
 6.0000e-001 72577 -7.8050e+000  2.2723e+001  4.2892e-001 66502 72398,72528,72502
 6.0000e-001 72554 -5.9310e+000  2.0316e+001  5.6269e-001 66502 72450,72502,72476
 6.0000e-001 72920 -4.9762e+000  2.1349e+001  2.6465e+000 65941 72672,72776,72750
 6.0000e-001 72897 -1.9147e+001  2.1671e+001  3.4385e+000 65941 72646,72776,72672
 6.0000e-001 72874  3.3708e+000  2.6684e+001 -4.0311e-001 65941 72672,72750,72724
 6.0000e-001 72851 -3.4505e+000  1.2431e+001  1.9411e+000 65941 72672,72724,72698
 6.0000e-001 72828 -3.4392e+001  3.9651e+001 -2.2895e+000 65941 72646,72802,72776
 6.0000e-001 73241  3.3850e+000  1.6576e+001  4.5563e+000 65743 73264,73071,73045
 6.0000e-001 73218  3.6984e+000  1.8846e+001  1.8808e+000 65743 73480,73264,73045
 6.0000e-001 73195 -5.1544e+000  2.0437e+001  1.7256e+000 65743 73336,72967,73097
 6.0000e-001 73172 -1.8317e+000  1.6902e+001  4.9859e+000 65743 73408,72993,72967
 6.0000e-001 73149 -1.1062e+001  1.8408e+001  8.4719e-001 65743 72967,73123,73097
 6.0000e-001 73290 -3.2018e+000  1.4679e+001  1.0134e+000 65743 73097,73071,73264
 6.0000e-001 73313 -6.2036e+000  1.6587e+001  2.6270e+000 65743 73336,73097,73264
 6.0000e-001 73362 -4.2269e+000  1.9103e+001  4.3637e+000 65743 73408,72967,73336
 6.0000e-001 73385 -7.9948e+000  1.6155e+001  4.3285e+000 65743 73019,73336,73264
 6.0000e-001 73434 -5.9021e+000  8.1279e+000  3.7227e+000 65743 73019,72993,73408
 6.0000e-001 73457 -7.3730e+000  1.3874e+001  2.9680e+000 65743 73019,73408,73336
 6.0000e-001 73506 -7.6966e+000  1.9770e+000  7.1074e+000 65743 73019,73264,73480
 6.0000e-001 73989 -1.7249e+001  1.6456e+001 -1.9902e+000 65453 73793,73845,73819
 6.0000e-001 73966 -6.4702e+000  1.7570e+001 -3.9190e+000 65453 73741,73845,73793
 6.0000e-001 73943 -1.6206e+001  9.6476e+000  2.0433e-001 65453 73715,73845,73741
 6.0000e-001 73920 -8.2242e+000  3.6697e+001 -8.5823e+000 65453 73741,73793,73767
 6.0000e-001 73897 -2.0213e+001  7.4124e+000  3.4161e+000 65453 73715,73871,73845
 6.0000e-001 74357  1.4172e+001  1.7968e+001 -3.9463e+000 65141 74380,74138,74086
 6.0000e-001 74334  1.6671e+001  1.5655e+001 -7.0200e+000 65141 74380,74086,74060
 6.0000e-001 74311  1.8010e+001  1.8298e+001 -2.5855e+000 65141 74138,74190,74164
 6.0000e-001 74288  2.8470e+001  9.1855e+000 -6.7902e+000 65141 74060,74216,74190
 6.0000e-001 74265  2.5483e+001  5.3938e-001 -8.0452e-001 65141 74034,74216,74060
 6.0000e-001 74242  1.2126e+001  1.5269e+001 -5.1230e+000 65141 74086,74138,74112
 6.0000e-001 74406  1.9056e+001  1.7336e+001 -3.0796e+000 65141 74190,74138,74380
 6.0000e-001 74429  1.8998e+001  1.5757e+001 -5.7488e+000 65141 74190,74380,74060
 6.0000e-001 74937  9.7670e+000  6.1984e+000  2.0204e+000 64737 74614,74666,74640
 6.0000e-001 74914  4.3499e+000  6.1625e+000  3.2804e+000 64737 74614,74796,74666
 6.0000e-001 74891  2.8161e+000  5.8137e+000 -5.7904e-001 64737 74960,74718,74666
 6.0000e-001 74868  9.3117e-003  1.0102e+001  3.5927e+000 64737 74960,74666,74770
 6.0000e-001 74845  3.0207e+000  2.2834e+000  5.0118e+000 64737 74666,74796,74770
 6.0000e-001 74822  9.2988e-001  6.3006e+000 -1.0861e+000 64737 74666,74718,74692
 6.0000e-001 74986  4.6913e+000  1.0326e+001 -8.4320e-001 64737 74744,74718,74960
 6.0000e-001 75009  2.8629e+000  1.6730e+001  3.4053e+000 64737 74744,74960,74770
 6.0000e-001 75306  3.3565e+000  2.2709e+001 -1.4211e+000 64133 75329,75110,75084
 6.0000e-001 75283  1.2544e+000  2.5545e+001  5.9412e-001 64133 75401,75329,75084
 6.0000e-001 75260  3.9534e+000  2.8013e+001  1.9721e+000 64133 75401,75084,75058
 6.0000e-001 75237  2.9683e+000  3.3174e+001 -7.3064e+000 64133 75473,75136,75110
 6.0000e-001 75214 -9.0063e+000  3.0534e+001 -1.4174e+000 64133 75032,75188,75162
 6.0000e-001 75355  6.3185e+000  2.8847e+001 -5.0364e+000 64133 75473,75110,75329
 6.0000e-001 75378 -1.1635e+000  2.5368e+001 -1.3337e+000 64133 75162,75329,75032
 6.0000e-001 75427 -1.6813e+000  2.3208e+001  1.6054e+000 64133 75032,75329,75401
 6.0000e-001 75450  6.8293e+000  3.1209e+001 -1.7965e+000 64133 75545,75401,75058
 6.0000e-001 75499 -4.9948e+000  2.8153e+001 -4.8661e+000 64133 75162,75136,75473
 6.0000e-001 75522  5.8944e-001  2.4092e+001 -2.9481e+000 64133 75162,75473,75329
 6.0000e-001 75571 -2.6394e+000  9.7997e+000  2.0139e-001 64133 75032,75401,75545
 6.0000e-001 75851 -7.5483e+000  1.4793e+001 -3.3377e+000 63843 75874,75753,75727
 6.0000e-001 75828 -1.2744e+001  6.7293e+000 -2.4751e-001 63843 75946,75874,75727
 6.0000e-001 75805 -1.0547e+001  3.8111e+000  1.1060e+000 63843 76018,75946,75727
 6.0000e-001 75900 -1.2146e+001  1.2891e+001  2.2267e+000 63843 75779,75753,75874
 6.0000e-001 75923 -1.2555e+001  6.4043e+000  4.6449e+000 63843 75779,75874,75675
 6.0000e-001 75972 -9.7065e+000  1.1427e+001  1.4844e+000 63843 75675,75874,75946
 6.0000e-001 75995 -8.1048e+000  7.8151e+000 -1.3525e-001 63843 75675,75946,75701
 6.0000e-001 76044 -9.4816e+000  7.3454e+000 -2.3401e-001 63843 75701,75946,76018
 6.0000e-001 76454  2.8845e+001  3.4285e+001 -1.5308e+001 63439 76477,76255,76229
 6.0000e-001 76431  1.7331e+001  1.6490e+001 -6.6523e+000 63439 76477,76229,76359
 6.0000e-001 76408  2.2655e+001  1.2080e+001  8.6620e-001 63439 76307,76359,76333
 6.0000e-001 76385  2.3388e+001  4.9092e+001 -6.1518e+000 63439 76255,76307,76281
 6.0000e-001 76503  1.4874e+001  1.9619e+001 -4.9353e+000 63439 76307,76255,76477
 6.0000e-001 76526  1.6334e+001  1.3227e+001  1.5556e+000 63439 76307,76477,76359
 6.0000e-001 76926 -3.6103e+001 -1.1600e+001 -2.6024e+000 63049 76704,76782,76756
 6.0000e-001 76903 -2.1926e+001 -6.4997e+000  9.7704e-001 63049 76704,76808,76782
 6.0000e-001 76880 -2.7699e+001 -1.7992e+001 -2.9480e+000 63049 76704,76756,76730
 6.0000e-001 76857 -4.2960e+001 -1.6403e+001 -3.7949e+000 63049 76678,76808,76704
 6.0000e-001 76834 -5.0046e+001 -1.6809e+001 -3.2948e+000 63049 76652,76808,76678
 6.0000e-001 77076 -1.6072e+001  1.9494e+001  1.1323e+000 62737 76975,77027,77001
 6.0000e-001 77053 -2.2046e+001  2.0727e+001  2.1536e+000 62737 76949,77027,76975
 6.0000e-001 77324 -9.4222e+000  1.6118e+001 -2.7650e+000 62277 77347,77177,77125
 6.0000e-001 77301 -1.2212e+001  1.3331e+001 -9.8670e-002 62277 77347,77125,77229
 6.0000e-001 77278 -1.1491e+001  2.0141e+001  3.8992e+000 62277 77099,77229,77125
 6.0000e-001 77255 -6.7274e+000  1.4772e+001 -3.5882e+000 62277 77125,77177,77151
 6.0000e-001 77373 -8.1339e+000  2.3631e+001 -7.8055e+000 62277 77203,77177,77347
 6.0000e-001 77396 -1.7038e+001  1.6529e+001 -3.9569e+000 62277 77203,77347,77229
 6.0000e-001 77857 -1.4664e+001  1.1478e+001  3.8992e+000 61758 77635,77739,77661
 6.0000e-001 77834 -1.9119e+001  2.0070e+001  9.6462e-001 61758 77583,77739,77635
 6.0000e-001 77811 -2.0944e+001  3.8056e+001  1.3928e+001 61758 77583,77635,77609
 6.0000e-001 77788 -1.4460e+001  1.9746e+001  2.2311e+000 61758 77661,77713,77687
 6.0000e-001 77765 -1.2096e+001  1.7514e+001  3.4711e+000 61758 77661,77739,77713
 6.0000e-001 78491  4.4068e+000  7.8746e+000  2.0386e+000 61418 78171,78301,78249
 6.0000e-001 78468  5.0706e-001  6.5237e+000  1.3465e+000 61418 78145,78301,78171
 6.0000e-001 78445 -2.5896e+000  5.7178e+000  1.1603e+000 61418 78171,78249,78223
 6.0000e-001 78422  5.6558e+000  8.7816e+000  1.5187e-001 61418 78145,78327,78301
 6.0000e-001 78399  4.2698e+000  8.4058e+000  2.8180e+000 61418 78249,78301,78275
 6.0000e-001 78376 -3.7521e+000  3.3995e+000  1.8086e+000 61418 78171,78223,78197
 6.0000e-001 78353  2.1404e+000  2.9649e+000 -1.7539e+000 61418 78119,78327,78145
 6.0000e-001 78690  1.9599e+000  4.5341e-001  5.7217e+000 61014 78713,78566,78540
 6.0000e-001 78667 -1.3715e+001  1.2304e+001  2.5238e-001 61014 78713,78540,78618
 6.0000e-001 78644  1.9285e+001  7.8828e+000 -3.7448e+001 61014 78514,78618,78540
 6.0000e-001 78739 -1.6379e+001 -5.6210e+000 -4.0115e+000 61014 78592,78566,78713
 6.0000e-001 78762 -2.0592e+001  2.1096e+000 -2.7661e+000 61014 78785,78713,78618
 6.0000e-001 78811 -2.8492e+001  1.5352e+000  7.4563e+000 61014 78592,78713,78785
 6.0000e-001 79398  1.9465e+001  1.1986e+000  9.6777e-001 60624 79101,79179,79153
 6.0000e-001 79375  2.4171e+001  1.6429e+000  6.9969e-001 60624 79101,79231,79179
 6.0000e-001 79352  2.7017e+001  5.0607e+000  4.1470e+000 60624 79075,79231,79101
 6.0000e-001 79329  2.4768e+001  7.0028e+000  1.9913e+000 60624 79075,79257,79231
 6.0000e-001 79306  2.3162e+001  2.3222e+000 -3.1659e+000 60624 79179,79231,79205
 6.0000e-001 79283  1.8820e+001  1.0285e-001 -1.1537e+000 60624 79101,79153,79127
 6.0000e-001 79776 -1.1729e+001  1.4828e+001 -2.2631e+000 60070 79528,79658,79606
 6.0000e-001 79753 -1.2721e+001  1.2524e+001 -2.3918e+000 60070 79502,79658,79528
 6.0000e-001 79730 -2.8768e+001  1.8477e+001  3.6509e+000 60070 79528,79606,79580
 6.0000e-001 79707 -1.5430e+001  1.9918e+001 -3.1335e+000 60070 79606,79658,79632
 6.0000e-001 79684 -4.6399e+001  1.0128e+001  5.9279e+000 60070 79528,79580,79554
 6.0000e-001 80105  8.7173e+000  1.5671e+001 -2.7181e+000 59758 80128,79958,79906
 6.0000e-001 80082  4.1130e+000  6.2322e+000  1.7939e+000 59758 80128,79906,80010
 6.0000e-001 80059  5.2511e+000  7.0596e+000 -2.6484e+000 59758 79906,79958,79932
 6.0000e-001 80036 -1.3684e+000  8.0169e+000  2.7273e+000 59758 79880,80010,79906
 6.0000e-001 80154  6.1294e+000  2.2082e+001 -5.9877e+000 59758 79984,79958,80128
 6.0000e-001 80177  4.5005e+000  1.5398e+001 -2.1081e+000 59758 79984,80128,80010
 6.0000e-001 80376 -1.0646e+001 -5.9300e+000 -8.2958e+000 59312 80226,80304,80252
 6.0000e-001 80353 -1.8744e+001  5.7873e+001 -6.3914e+000 59312 80200,80304,80226
 6.0000e-001 80330 -1.6818e+001 -1.4006e+001 -4.1545e+000 59312 80252,80304,80278
 6.0000e-001 80805 -2.0262e+001 -9.5799e-001  1.1302e+000 58908 80900,80828,80638
 6.0000e-001 80782 -1.2164e+001 -4.7983e+000  3.9925e+000 58908 80828,80560,80508
 6.0000e-001 80759 -1.9641e+001 -2.7474e+000 -1.7470e+000 58908 80900,80638,80612
 6.0000e-001 80736 -3.0367e+001 -8.4047e+000  9.2307e+000 58908 80482,80664,80508
 6.0000e-001 80713 -2.8752e+001  8.3610e-001 -5.2794e+000 58908 80560,80612,80586
 6.0000e-001 80690 -1.2933e+001 -1.2159e+001  3.0662e+000 58908 80508,80560,80534
 6.0000e-001 80854 -2.1366e+001 -2.8510e+000  2.6768e+000 58908 80664,80638,80828
 6.0000e-001 80877 -2.0753e+001 -9.8214e+000  6.0497e+000 58908 80664,80828,80508
 6.0000e-001 80926 -2.2177e+001 -6.2273e+000  1.5214e+000 58908 80560,80828,80900
 6.0000e-001 80949 -2.0818e+001 -6.2723e+000 -1.7727e+000 58908 80560,80900,80612
 6.0000e-001 81246 -1.4792e+001  8.4929e+000  6.2981e-001 58482 81076,81128,81102
 6.0000e-001 81223 -1.3794e+001  1.5103e+001  1.4085e+000 58482 80972,81128,81076
 6.0000e-001 81200 -1.8843e+001  2.3607e+000  2.6283e+000 58482 80972,81076,81050
 6.0000e-001 81177  3.1653e+000  7.3644e-001  2.8132e+000 58482 80998,81050,81024
 6.0000e-001 81154 -1.2436e+001 -7.0343e-001  8.2872e+000 58482 80972,81050,80998
 6.0000e-001 81754 -1.7216e+001  1.6061e+000  2.1134e+000 57828 81457,81613,81483
 6.0000e-001 81731 -1.2476e+001  8.7470e+000  7.2587e+000 57828 81431,81613,81457
 6.0000e-001 81708 -1.9675e+001 -3.7935e+000  1.0019e+001 57828 81483,81613,81509
 6.0000e-001 81685 -9.4088e+000 -3.9394e-001  5.9595e+000 57828 81509,81613,81587
 6.0000e-001 81662 -1.0110e+001  2.6652e+000  4.4453e+000 57828 81509,81587,81535
 6.0000e-001 81639  8.2339e+000  6.2345e+000 -1.3050e+000 57828 81535,81587,81561
 6.0000e-001 82002  4.9353e+000 -2.3177e+000 -2.7914e+000 57374 82025,81855,81829
 6.0000e-001 81979 -1.3989e+000 -6.4570e-001 -3.1079e-001 57374 82025,81829,81907
 6.0000e-001 81956 -2.6110e+000  1.4001e+000 -1.3195e+000 57374 81803,81907,81829
 6.0000e-001 81933 -6.5002e+000  2.6318e+000  1.0426e+000 57374 81777,81907,81803
 6.0000e-001 82051  1.4925e+001  7.6524e-001 -6.7106e+000 57374 81881,81855,82025
 6.0000e-001 82074  8.2022e-001 -2.3764e+000 -4.5584e+000 57374 81881,82025,81907
 6.0000e-001 82356 -6.6694e+000  2.0739e+001  1.5249e+000 56913 82180,82232,82206
 6.0000e-001 82333 -1.0982e+001  1.0683e+001  1.2793e+000 56913 82180,82284,82232
 6.0000e-001 82310 -7.9008e+000 -2.8514e-001  9.1007e-001 56913 82379,82232,82284
 6.0000e-001 82405 -8.8242e+000 -1.9820e+000 -1.8824e+000 56913 82258,82232,82379
 6.0000e-001 82764 -5.0559e-001  1.8862e+001  3.1270e-001 56523 82614,82666,82640
 6.0000e-001 82741 -2.9320e+000  7.7793e+000  9.2495e-001 56523 82614,82692,82666
 6.0000e-001 82718  1.5599e+000  9.6944e+000  1.1985e+000 56523 82588,82692,82614
 6.0000e-001 83368 -1.6805e+001  1.4107e+000  4.2901e+000 55969 82973,83155,83129
 6.0000e-001 83345 -2.4303e+001 -2.2738e+000 -1.5763e+000 55969 82973,83181,83155
 6.0000e-001 83322 -7.8639e+000  8.5259e+000  1.1017e+000 55969 82973,83129,82999
 6.0000e-001 83299  2.3660e+000  8.5355e+000 -3.9624e+000 55969 83391,83025,82999
 6.0000e-001 83276 -1.0664e+001  7.3971e+000  1.0035e+000 55969 83391,82999,83129
 6.0000e-001 83253 -1.1280e+001  2.3959e+000  5.9445e+000 55969 83077,83129,83103
 6.0000e-001 83230 -2.0292e+001 -4.0070e+000  5.9874e-001 55969 83025,83077,83051
 6.0000e-001 83207 -6.4877e+000  4.7287e+000 -3.8464e+000 55969 82947,83181,82973
 6.0000e-001 83417 -1.0811e+001  4.1111e+000 -3.0713e+000 55969 83077,83025,83391
 6.0000e-001 83440 -1.5735e+001  8.0574e+000  2.2827e+000 55969 83077,83391,83129
 6.0000e-001 83946 -2.2135e+000  4.4390e+000 -5.4774e+000 55771 83969,83779,83727
 6.0000e-001 83923 -2.7282e+000  6.0822e+000  5.0396e-001 55771 83969,83727,83623
 6.0000e-001 83900 -1.0787e+001  2.5184e+000  3.0659e+000 55771 83623,83727,83649
 6.0000e-001 83877  6.2822e+000  4.5161e+000 -3.3502e+000 55771 83727,83779,83753
 6.0000e-001 83854 -1.1262e+001 -6.9884e+000 -4.8049e+000 55771 83675,83727,83701
 6.0000e-001 83831 -1.3994e+001  3.2518e+000  6.2219e-001 55771 83649,83727,83675
 6.0000e-001 83995 -6.6324e+000  2.4286e+000 -6.1460e+000 55771 83805,83779,83969
 6.0000e-001 84018 -9.9753e+000  3.2462e+000  9.9126e-002 55771 83805,83969,83623
 6.0000e-001 84168 -1.0779e+001  1.4749e+001  1.6008e-001 55367 84191,84067,84041
 6.0000e-001 84145 -1.1973e+001  1.6983e+001  2.9429e-001 55367 84191,84041,84119
 6.0000e-001 84217 -1.1458e+001  1.4469e+001 -6.4997e-002 55367 84093,84067,84191
 6.0000e-001 84240 -1.4616e+001  1.4911e+001 -6.1474e-001 55367 84093,84191,84119
 6.0000e-001 84571  2.4751e+000 -7.0317e-001 -4.0754e-001 54913 84398,84450,84424
 6.0000e-001 84548 -2.2865e+000 -6.2651e+000 -3.3115e+000 54913 84372,84450,84398
 6.0000e-001 84525  3.7247e+000 -6.0305e+000 -5.6226e-001 54913 84346,84450,84372
 6.0000e-001 84502  7.5534e+000  2.9438e+000  4.9980e-001 54913 84346,84476,84450
 6.0000e-001 85126 -2.3678e+001  1.0364e+000  9.7268e+000 54402 84858,84936,84910
 6.0000e-001 85103 -2.1571e+001 -1.7249e+000 -4.3246e+000 54402 84806,84936,84858
 6.0000e-001 85080 -2.4817e+001 -2.8049e+000 -4.9018e+000 54402 84780,84936,84806
 6.0000e-001 85057 -4.7586e+001 -3.5670e-001 -8.2262e+000 54402 84806,84858,84832
 6.0000e-001 85034 -3.5631e+001 -7.4390e+000 -5.1317e+000 54402 84780,84962,84936
 6.0000e-001 85011 -2.0418e+000 -2.0637e+000  1.5638e+001 54402 84858,84910,84884
 6.0000e-001 84988 -3.1141e+001  6.7212e+000 -5.3213e+000 54402 84754,84962,84780
 6.0000e-001 85396 -9.6830e+000  2.2585e+000  2.6483e+000 53998 85197,85249,85223
 6.0000e-001 85373 -1.4538e+001  8.1691e+000  1.5403e+000 53998 85197,85275,85249
 6.0000e-001 85350 -1.8601e+001  6.8834e+000  3.6995e-001 53998 85171,85275,85197
 6.0000e-001 85327 -1.6551e+001  7.9936e+000 -7.9051e-002 53998 85171,85301,85275
 6.0000e-001 85749 -9.3398e+000  1.5250e+000  7.1771e+000 53636 85524,85628,85550
 6.0000e-001 85726 -1.8515e+001  9.9375e+000  7.9311e+000 53636 85524,85654,85628
 6.0000e-001 85703 -1.7680e+001 -7.6154e+000 -1.7574e-001 53636 85550,85602,85576
 6.0000e-001 85680 -3.2071e+001 -7.8832e+000  6.4731e+000 53636 85550,85628,85602
 6.0000e-001 86127  2.4459e+001  1.3453e+001  3.8498e+000 52982 86150,85957,85879
 6.0000e-001 86104  1.1518e+001  3.5564e+000 -4.8751e-001 52982 86150,85879,85853
 6.0000e-001 86081  3.1754e+001 -7.5911e-001  1.1501e+000 52982 85957,86009,85983
 6.0000e-001 86058  1.5278e+001  1.2283e+001  2.0585e+000 52982 85879,85957,85931
 6.0000e-001 86035  1.5022e+001  1.4912e+001  3.6383e+000 52982 85879,85931,85905
 6.0000e-001 86176  3.3049e+001  2.4501e+000  2.0577e+000 52982 86009,85957,86150
 6.0000e-001 86199  2.5345e+001 -4.4684e+000 -8.6416e-001 52982 86009,86150,85853
 6.0000e-001 86398 -1.7036e+001 -2.8047e+000  1.2491e+000 52542 86421,86248,86222
 6.0000e-001 86375 -1.5331e+001 -1.1531e-001  1.9858e+000 52542 86421,86222,86300
 6.0000e-001 86352 -1.1032e+001  8.1412e+000  3.9415e-001 52542 86222,86326,86300
 6.0000e-001 86447 -2.0056e+001 -1.4616e+000 -1.3464e+000 52542 86274,86248,86421
 6.0000e-001 86470 -1.7538e+001  2.8212e+000 -3.1058e-001 52542 86274,86421,86300
 6.0000e-001 86669 -1.8174e+001 -2.6590e+000  2.7638e+000 52230 86692,86571,86545
 6.0000e-001 86646 -1.4484e+001  5.3330e+000  3.9737e-001 52230 86692,86545,86519
 6.0000e-001 86623 -5.9103e+000  5.7119e+000 -5.5682e+000 52230 86493,86597,86519
 6.0000e-001 86718 -1.5768e+001 -3.0696e+000 -4.0871e+000 52230 86597,86571,86692
 6.0000e-001 86741 -1.0501e+001  5.6692e+000 -6.8751e+000 52230 86597,86692,86519
 6.0000e-001 87153  4.1102e+001  6.7280e-001 -8.9885e+000 51640 86980,87058,87032
 6.0000e-001 87130  2.6968e-001  1.5303e+001 -4.1815e+000 51640 86928,87058,86980
 6.0000e-001 87107 -2.0867e+000  6.0802e+000 -5.1007e+000 51640 86928,86980,86954
 6.0000e-001 87084  3.9243e+001 -4.5192e-001 -2.3276e+001 51640 86980,87032,87006
 6.0000e-001 87659 -6.6110e+000 -2.7276e+000  4.7123e+000 51029 87682,87440,87362
 6.0000e-001 87636 -3.5898e+001 -7.7930e+000  1.6312e+001 51029 87682,87362,87336
 6.0000e-001 87613  4.7461e+000 -1.8583e-001  2.7195e+000 51029 87440,87518,87466
 6.0000e-001 87590 -1.4756e+001 -2.1958e+000  5.0727e+000 51029 87362,87440,87414
 6.0000e-001 87567 -2.1752e+001 -1.5253e+001  2.2406e+001 51029 87362,87414,87388
 6.0000e-001 87544  4.3284e+000  1.5908e+000  2.8983e+000 51029 87466,87518,87492
 6.0000e-001 87708  6.6837e-001 -1.8909e+000 -1.3750e+000 51029 87518,87440,87682
 6.0000e-001 87731 -1.1316e+001  1.2053e+001  5.7416e+000 51029 87518,87682,87336
 6.0000e-001 87881 -1.4634e+001  3.6822e+000  4.9190e-001 50739 87780,87832,87806
 6.0000e-001 87858 -1.1880e+001  1.3861e+001 -4.5922e-001 50739 87754,87832,87780
 6.0000e-001 88468 -8.6445e+000  4.9400e-001  6.0226e+000 50235 88171,88327,88197
 6.0000e-001 88445 -1.5916e+000 -5.8067e-002  8.6497e+000 50235 88145,88327,88171
 6.0000e-001 88422 -4.9112e+000 -4.9722e+000  1.1554e+001 50235 88275,88327,88301
 6.0000e-001 88399 -4.6768e+000 -4.8275e+000  3.2544e+000 50235 88197,88327,88275
 6.0000e-001 88376 -2.2106e-001  1.0597e+001  6.7314e+000 50235 88197,88275,88223
 6.0000e-001 88353 -2.1421e+000  1.6224e+001  1.1235e+001 50235 88223,88275,88249
 6.0000e-001 88895 -1.1965e+001  2.0817e+001 -5.4112e+000 49873 88918,88728,88676
 6.0000e-001 88872 -1.3352e+001  1.8211e+001 -4.8887e+000 49873 88918,88676,88624
 6.0000e-001 88849 -6.3809e+000  1.2182e+001  2.7769e-001 49873 88598,88754,88624
 6.0000e-001 88826 -4.7028e+000  3.0328e+001 -1.6235e+001 49873 88624,88676,88650
 6.0000e-001 88803 -1.5098e+001  4.6994e+001 -4.9090e+000 49873 88676,88728,88702
 6.0000e-001 88780 -2.2887e+001  1.4524e+001  3.1446e+000 49873 88572,88754,88598
 6.0000e-001 88944 -1.3268e+001  2.1105e+001 -3.8241e+000 49873 88754,88728,88918
 6.0000e-001 88967 -1.3935e+001  1.9746e+001 -3.5592e+000 49873 88754,88918,88624
 6.0000e-001 89473  2.1964e+000  1.0830e+001  6.4667e+000 49583 89176,89306,89202
 6.0000e-001 89450 -1.3594e+001  7.2190e+000 -2.9125e-001 49583 89176,89332,89306
 6.0000e-001 89427 -5.4146e+000  5.7740e+000  1.4842e+000 49583 89496,89228,89202
 6.0000e-001 89404 -8.2500e+000  5.7419e+000  1.5967e+000 49583 89496,89202,89280
 6.0000e-001 89381 -4.4422e+000  8.4977e+000  4.8807e+000 49583 89202,89306,89280
 6.0000e-001 89358 -8.9072e+000  2.5264e-001 -5.5247e+000 49583 89150,89332,89176
 6.0000e-001 89522 -8.2278e+000  7.6820e+000 -1.1676e+000 49583 89254,89228,89496
 6.0000e-001 89545 -1.1340e+001  7.0544e+000  1.2728e+000 49583 89254,89496,89280
 6.0000e-001 89825 -9.2752e+000  4.8351e+000  1.3154e+000 49179 89701,89753,89727
 6.0000e-001 89802 -8.8042e+000  5.4573e+000  1.0925e+000 49179 89675,89753,89701
 6.0000e-001 89779 -8.2629e+000  6.1848e+000  1.9521e+000 49179 89848,89753,89675
 6.0000e-001 89874  4.0745e+000  9.1847e+000  5.1383e+000 49179 89649,89753,89848
 6.0000e-001 90223 -1.4563e+001 -4.6483e+000 -1.2413e+000 48739 90024,90102,90076
 6.0000e-001 90200 -1.6939e+001 -4.7768e+000 -2.1931e-001 48739 90024,90128,90102
 6.0000e-001 90177 -1.6072e+001 -1.1042e+001  1.6829e+000 48739 90024,90076,90050
 6.0000e-001 90154 -1.6150e+001  5.7008e+000 -5.8899e-001 48739 89998,90128,90024
 6.0000e-001 90603  1.5205e+000 -1.2346e+001  2.7228e+000 48335 90381,90485,90459
 6.0000e-001 90580  3.0621e-001  3.6344e+000 -1.6837e+000 48335 90355,90485,90381
 6.0000e-001 90557 -6.1496e-001 -2.1017e+001  2.5667e+000 48335 90381,90433,90407
 6.0000e-001 90534 -7.2645e+000 -1.2177e+001  6.6575e+000 48335 90381,90459,90433
 6.0000e-001 90511  4.2337e-001  4.0548e+000 -1.1985e+000 48335 90329,90485,90355
 6.0000e-001 90753  3.0176e+001  1.2494e+001  1.7401e+001 47824 90776,90652,90704
 6.0000e-001 90730  2.2696e+001  1.1119e+001  7.0875e+000 47824 90626,90704,90652
 6.0000e-001 90802  2.5460e+001  1.8095e+001  1.8935e+001 47824 90678,90652,90776
 6.0000e-001 91131 -1.3530e+001  1.5896e+001 -6.9402e-002 47427 91154,90958,90906
 6.0000e-001 91108 -2.8168e+000  2.0924e+001 -5.3463e+000 47427 91154,90906,91036
 6.0000e-001 91085 -7.6227e+000  6.4392e-001  5.2042e+000 47427 90958,91010,90984
 6.0000e-001 91062 -2.9089e+001  1.0540e+001  8.7377e+000 47427 90906,90958,90932
 6.0000e-001 91180 -8.8788e+000  9.5693e+000  7.5170e+000 47427 91010,90958,91154
 6.0000e-001 91203  8.9408e-001  1.3666e+001  2.3635e+000 47427 91010,91154,91036
 6.0000e-001 91583 -2.3254e+001 -1.4832e+001 -1.6427e+000 46873 91309,91439,91335
 6.0000e-001 91560 -2.0005e+001 -5.9426e-001 -3.8942e+000 46873 91309,91465,91439
 6.0000e-001 91537 -1.4454e+001 -1.3535e+001  2.8280e+000 46873 91361,91439,91413
 6.0000e-001 91514 -1.8207e+001 -1.2507e+001 -5.4415e-001 46873 91335,91439,91361
 6.0000e-001 91491 -1.0355e+001 -8.6363e+000  5.7140e+000 46873 91361,91413,91387
 6.0000e-001 91880 -1.1353e+001  6.1771e+000  3.6946e+000 46526 91606,91710,91658
 6.0000e-001 91857 -1.3427e+001  1.0015e+001  6.7388e-001 46526 91606,91762,91710
 6.0000e-001 91834 -1.7061e+001  2.7789e+000  7.5310e+000 46526 91606,91658,91632
 6.0000e-001 91811 -9.7926e+000  3.1005e-001  4.1392e-001 46526 91658,91710,91684
 6.0000e-001 91788 -1.6162e+001  1.0900e+000 -3.9911e-001 46526 91710,91762,91736
 6.0000e-001 92211  1.2517e+001 -1.3800e+001  7.4239e+000 45700 91986,92064,92038
 6.0000e-001 92188  1.1862e+001 -1.0615e+001  7.3811e+000 45700 91986,92116,92064
 6.0000e-001 92165  1.9278e+001 -1.1990e+001 -1.2093e+001 45700 91986,92038,92012
 6.0000e-001 92142  2.6238e+001  7.3391e+000  1.4877e+001 45700 92064,92116,92090
 6.0000e-001 92766 -5.2988e+001 -2.6913e+000 -1.0115e+001 45452 92446,92602,92576
 6.0000e-001 92743 -4.7473e+001  4.7060e+000 -7.6258e+000 45452 92420,92602,92446
 6.0000e-001 92720 -3.1281e+001 -1.3314e-001 -8.6412e-001 45452 92789,92524,92498
 6.0000e-001 92697 -3.8122e+001  5.2551e+000 -2.6795e+000 45452 92789,92498,92446
 6.0000e-001 92674 -2.6534e+001  4.0061e+000 -8.7764e+000 45452 92524,92576,92550
 6.0000e-001 92651 -4.6080e+001  3.8714e+000  1.2307e+001 45452 92446,92498,92472
 6.0000e-001 92628 -8.4654e+001 -9.2823e+000 -1.1639e+001 45452 92394,92602,92420
 6.0000e-001 92815 -2.6025e+001  2.5002e+000 -3.0064e+000 45452 92576,92524,92789
 6.0000e-001 92838 -3.2272e+001  7.7896e+000 -4.1666e+000 45452 92576,92789,92446
 6.0000e-001 92939 -9.3060e+000  6.8067e+000  4.9571e+000 44998 92861,92913,92887
 6.0000e-001 93319 -2.9116e+000  1.3642e+001 -1.0191e+001 44601 93123,93201,93149
 6.0000e-001 93296  2.7244e+000  1.4690e+001 -3.3021e+000 44601 93045,93201,93123
 6.0000e-001 93273  1.0440e+000  8.2184e+000 -2.4342e+000 44601 93045,93123,93071
 6.0000e-001 93250  1.0317e+000  8.1535e+000 -2.5222e+000 44601 93071,93123,93097
 6.0000e-001 93227  1.1998e+001  2.3282e+001 -1.7906e+001 44601 93149,93201,93175
 6.0000e-001 93697 -2.4508e+001 -6.7253e+000  3.4722e+000 44026 93720,93553,93527
 6.0000e-001 93674 -2.5893e+001 -9.2855e+000  2.5970e+000 44026 93720,93527,93449
 6.0000e-001 93651 -3.0263e+001 -1.9346e+001  2.1094e+000 44026 93449,93527,93501
 6.0000e-001 93628 -2.9832e+001 -2.4079e+001  2.3292e+001 44026 93423,93579,93449
 6.0000e-001 93605 -2.7883e+001 -1.5107e+001  4.1995e+000 44026 93449,93501,93475
 6.0000e-001 93746 -2.1616e+001 -1.0010e+001  3.2935e+000 44026 93579,93553,93720
 6.0000e-001 93769 -2.3635e+001 -1.3133e+001  2.1632e+000 44026 93579,93720,93449
 6.0000e-001 94066 -5.8208e+000  1.8981e+000  3.0980e+000 43579 94089,93818,93792
 6.0000e-001 94043 -1.1699e+001  2.8637e-001  4.0242e+000 43579 94161,94089,93792
 6.0000e-001 94020 -1.2224e+001 -1.3645e-001  5.0653e+000 43579 94161,93792,93948
 6.0000e-001 93997 -1.1665e+001 -1.3045e+000  8.5240e-001 43579 94233,93870,93818
 6.0000e-001 93974 -1.6250e+001  1.1107e+000 -2.2658e+000 43579 93818,93870,93844
 6.0000e-001 94115 -1.1363e+001 -9.8979e-001  1.7835e+000 43579 94233,93818,94089
 6.0000e-001 94138 -8.1087e+000  3.1399e+000  2.5354e+000 43579 93896,94089,93922
 6.0000e-001 94187 -1.1200e+001  2.5117e+000  2.2839e+000 43579 93922,94089,94161
 6.0000e-001 94210 -1.2831e+001  1.7305e+000  3.4694e+000 43579 93922,94161,93948
 6.0000e-001 94259 -1.2448e+001  4.0063e-001  2.2981e+000 43579 93896,93870,94233
 6.0000e-001 94282 -1.0660e+001  1.1083e+000  3.4157e+000 43579 93896,94233,94089
 6.0000e-001 94481 -1.0800e+001  5.1081e+000  5.8603e-001 43239 94305,94383,94357
 6.0000e-001 94458 -1.2603e+001  2.6755e+000 -2.4983e+000 43239 94305,94409,94383
 6.0000e-001 94435 -9.5319e+000  3.8822e+000  2.6805e-001 43239 94305,94357,94331
 6.0000e-001 94633  7.8767e+000  1.6539e+001  4.6627e+000 42827 94656,94532,94506
 6.0000e-001 94610  2.0165e+000  1.5917e+001  1.0008e+000 42827 94728,94656,94506
 6.0000e-001 94682  2.1282e+000  1.6133e+001  3.1849e+000 42827 94558,94532,94656
 6.0000e-001 94705  4.2412e+000  7.0816e+000 -2.1706e+000 42827 94988,94860,94656
 6.0000e-001 94754  1.3892e+000  4.8868e+000 -3.2805e+000 42827 94988,94656,94728
 6.0000e-001 94886  6.5432e+000  1.1563e+001  3.7705e+000 42827 94558,94656,94860
 6.0000e-001 95014  6.4144e+000  5.0910e+000 -1.2753e+000 42827 94584,94860,94988
 6.0000e-001 95037  5.0784e+000  4.7926e+000 -1.7518e+000 42827 94584,94988,94728
 6.0000e-001 95236 -2.5568e+001 -7.4728e+000  2.8250e+000 42537 95259,95112,95060
 6.0000e-001 95213 -1.5528e+001 -4.1529e+000  1.3429e+000 42537 95259,95060,95164
 6.0000e-001 95190 -2.2210e+001 -3.4235e+000  8.2489e-003 42537 95060,95112,95086
 6.0000e-001 95285 -1.8623e+001 -1.1204e+001  8.2669e+000 42537 95138,95112,95259
 6.0000e-001 95308 -1.1146e+001 -9.1194e+000  8.0820e+000 42537 95138,95259,95164
 6.0000e-001 95816  2.9354e+000 -2.9808e-001  2.3826e+000 41969 95493,95597,95519
 6.0000e-001 95793  8.5369e+000  1.2433e+001  8.4183e-001 41969 95493,95649,95597
 6.0000e-001 95770  4.9809e+000  1.4323e+001 -2.5746e+000 41969 95493,95675,95649
 6.0000e-001 95747  2.9316e+000  2.1162e+001  6.3595e-001 41969 95597,95649,95623
 6.0000e-001 95724  2.0927e+000  2.0348e+001 -7.4083e+000 41969 95519,95597,95571
 6.0000e-001 95701  1.7185e+000  2.4113e+001  8.4210e+000 41969 95519,95571,95545
 6.0000e-001 96371 -1.0879e+001  2.5255e+000  6.5067e+000 41579 96025,96207,96181
 6.0000e-001 96348 -1.4459e+001 -1.2680e-001  1.5034e+001 41579 95999,96207,96025
 6.0000e-001 96325 -2.1132e+001  1.8853e+000  6.7980e+000 41579 96129,96181,96155
 6.0000e-001 96302 -1.4236e+001 -1.4740e+000  8.0644e+000 41579 96025,96181,96129
 6.0000e-001 96279 -1.1421e+001 -8.4235e-001  3.2586e+000 41579 96025,96129,96051
 6.0000e-001 96256 -3.0020e+000 -8.5794e-001 -1.5677e+000 41579 96051,96103,96077
 6.0000e-001 96233 -1.0546e+001  3.4333e-001  2.7548e+000 41579 96051,96129,96103
 6.0000e-001 96877 -1.8547e+001  6.3795e+000  2.0966e+000 41182 96972,96900,96632
 6.0000e-001 96854 -1.9480e+001  7.4428e+000  2.6204e+000 41182 96900,96554,96736
 6.0000e-001 96831 -1.6869e+001  4.8472e+000  7.0495e+000 41182 96972,96632,96580
 6.0000e-001 96808 -2.0899e+001  4.9464e+000  2.1216e+000 41182 96632,96684,96658
 6.0000e-001 96785 -1.2810e+001  5.1062e+000  1.3742e-001 41182 96684,96736,96710
 6.0000e-001 96762 -9.1761e+000  1.0914e+001  1.4004e+000 41182 96580,96632,96606
 6.0000e-001 96926 -1.8238e+001  5.9626e+000  2.1873e+000 41182 96684,96632,96900
 6.0000e-001 96949 -1.3043e+001  5.4596e+000  2.8443e+000 41182 96684,96900,96736
 6.0000e-001 96998 -2.6186e+001  3.8202e+000  5.6278e+000 41182 96554,96900,96972
 6.0000e-001 97021 -2.6970e+001 -9.0359e-001  1.1106e+001 41182 96554,96972,96580
 6.0000e-001 97576  1.2343e+001  8.7453e+000 -7.7233e+000 40678 97230,97412,97282
 6.0000e-001 97553  1.1111e+001  9.0970e+000 -5.1970e-001 40678 97204,97412,97230
 6.0000e-001 97530  3.3318e+000  7.2175e+000 -6.6344e+000 40678 97282,97360,97308
 6.0000e-001 97507  3.5471e+000  6.8333e+000 -9.4067e+000 40678 97282,97412,97360
 6.0000e-001 97484 -1.3913e+001  1.8624e+001 -1.6290e+001 40678 97308,97360,97334
 6.0000e-001 97461  1.2595e+001  3.0442e+001 -1.3243e+001 40678 97360,97412,97386
 6.0000e-001 97438  1.1892e+001  3.3120e-001 -2.1129e+000 40678 97230,97282,97256
 6.0000e-001 97976 -4.7672e+000  8.2153e+000 -1.9441e+000 40244 97702,97832,97754
 6.0000e-001 97953 -1.1312e+001  5.5718e+000 -1.1952e-001 40244 97702,97858,97832
 6.0000e-001 97930 -4.8738e+000  9.2311e+000  2.2116e+000 40244 97702,97754,97728
 6.0000e-001 97907 -1.1124e+001  2.1548e+001 -3.3807e+000 40244 97780,97832,97806
 6.0000e-001 97884 -1.9750e+001  7.6092e-001 -4.4501e+000 40244 97754,97832,97780
 6.0000e-001 98482 -1.5140e+001  1.6170e+001  2.4665e+000 39690 98505,98185,98159
 6.0000e-001 98459 -1.3732e+001  1.0515e+001  3.3244e+000 39690 98505,98159,98289
 6.0000e-001 98436 -1.6793e+001  6.5853e+000  6.1065e+000 39690 98159,98315,98289
 6.0000e-001 98413 -4.1159e+001 -8.0493e+000  4.8359e+000 39690 98211,98289,98263
 6.0000e-001 98390 -3.1393e+001 -1.9871e+000  8.3158e-001 39690 98211,98263,98237
 6.0000e-001 98367 -6.7094e+000  7.2485e+000  6.2559e+000 39690 98159,98341,98315
 6.0000e-001 98531 -1.3412e+001  1.3018e+001  6.2688e+000 39690 98211,98185,98505
 6.0000e-001 98554 -1.3778e+001  3.7868e+000  5.9661e+000 39690 98211,98505,98289
 6.0000e-001 99109 -1.5801e+001  6.9550e+000  2.5481e+000 39072 99132,98867,98789
 6.0000e-001 99086 -3.0128e+001  2.6714e+000  2.2617e+000 39072 99132,98789,98763
 6.0000e-001 99063 -1.0612e+001  1.2005e-002 -1.6391e+000 39072 98867,98945,98919
 6.0000e-001 99040 -2.0255e+001 -3.0572e+000  8.5602e+000 39072 98789,98867,98841
 6.0000e-001 99017 -5.0611e+000 -2.6660e+000  1.4688e+000 39072 98867,98919,98893
 6.0000e-001 98994 -1.5115e+001  1.0369e+001  7.8448e+000 39072 98789,98841,98815
 6.0000e-001 98971 -2.0281e+001  1.4935e+000 -1.5069e+000 39072 98737,98945,98763
 6.0000e-001 99158 -9.7142e+000  1.5996e+000 -6.6674e-001 39072 98945,98867,99132
 6.0000e-001 99181 -1.5945e+001  3.3261e+000 -1.4903e+000 39072 98945,99132,98763
 6.0000e-001 99510 -2.1328e+001  5.2496e+000  4.4046e+000 38668 99311,99389,99363
 6.0000e-001 99487 -1.8198e+001  6.0138e+000  3.7332e+000 38668 99285,99389,99311
 6.0000e-001 99464 -1.5590e+001  1.6091e+001  2.3770e+000 38668 99285,99415,99389
 6.0000e-001 99441 -2.1042e+001  8.8324e+000  2.5751e+000 38668 99311,99363,99337
 6.0000e-001 99758 -4.8094e+000  2.7828e+000  3.6063e+000 38164 99781,99611,99585
 6.0000e-001 99735  5.1155e+000  3.6385e+000  5.4496e+000 38164 99781,99585,99533
 6.0000e-001 99712 -8.1653e+000  1.2383e+001  5.3454e+000 38164 99611,99663,99637
 6.0000e-001 99689  7.6234e+000  1.2000e+001  6.8973e+000 38164 99533,99585,99559
 6.0000e-001 99807 -1.0141e+001  5.5732e+000  6.2367e+000 38164 99663,99611,99781
 6.0000e-001 99830 -3.5263e+000  4.0933e+000  6.3101e+000 38164 99663,99781,99533
 6.0000e-001 100232 -4.0668e+001 -9.0072e+000 -5.0208e+000 37702 99984,100114,100088
 6.0000e-001 100209 -2.8471e+001  6.6991e+000  1.7086e+000 37702 99958,100114,99984
 6.0000e-001 100186 -1.9683e+001  2.5332e+000 -1.0481e+000 37702 100010,100088,100036
 6.0000e-001 100163 -2.5875e+001 -2.4846e+000 -3.5220e+000 37702 99984,100088,100010
 6.0000e-001 100140 -2.3108e+001 -6.4993e+000 -1.4242e+000 37702 100036,100088,100062
 6.0000e-001 100640  3.6141e-001  8.5256e+000  8.4708e+000 37262 100493,100545,100519
 6.0000e-001 100617  1.5073e+000 -1.5425e+000  3.6534e+000 37262 100441,100545,100493
 6.0000e-001 100594 -1.9725e+000 -5.0304e+000  6.9665e+000 37262 100415,100545,100441
 6.0000e-001 100571  7.6548e+000  4.7926e+000  1.2431e+001 37262 100441,100493,100467
 6.0000e-001 101146 -3.0855e+000  4.1260e+000 -4.4465e-001 36872 100823,100979,100849
 6.0000e-001 101123 -4.5075e+000  3.7294e-001  5.7151e-001 36872 100823,101005,100979
 6.0000e-001 101100 -2.8034e+000  9.7018e+000 -4.8745e+000 36872 101169,100901,100849
 6.0000e-001 101077 -3.6267e+000  8.3325e+000 -3.1777e+000 36872 101169,100849,100979
 6.0000e-001 101054 -1.2134e+001  1.5654e+001 -6.5412e+000 36872 100927,100979,100953
 6.0000e-001 101031  1.2500e+001  6.2827e+000 -1.3626e-001 36872 100849,100901,100875
 6.0000e-001 101195 -4.9848e+000  9.7513e+000 -3.8532e+000 36872 100927,100901,101169
 6.0000e-001 101218 -5.6408e+000  9.1345e+000 -2.3393e+000 36872 100927,101169,100979
 6.0000e-001 101773 -2.1501e+001  1.1779e+001  1.2008e+001 36418 101479,101609,101583
 6.0000e-001 101750 -3.7761e+001  2.0670e+001 -7.6560e+000 36418 101453,101609,101479
 6.0000e-001 101727 -1.7949e+001 -2.9371e+000 -1.0112e+001 36418 101796,101531,101479
 6.0000e-001 101704 -7.5163e+000 -5.1976e+000  1.2369e+000 36418 101796,101479,101583
 6.0000e-001 101681 -6.2317e+001 -1.0284e+001  1.2687e+001 36418 101479,101531,101505
 6.0000e-001 101658 -4.9322e+001  8.0150e+000 -1.8455e+001 36418 101401,101609,101453
 6.0000e-001 101635  3.7279e+000  1.3581e+001 -1.2217e+001 36418 101401,101453,101427
 6.0000e-001 101822 -1.1076e+001  5.8386e-001  2.0753e+000 36418 101557,101531,101796
 6.0000e-001 101845  1.1729e+001  1.6855e+001  1.6305e+001 36418 101557,101796,101583
 6.0000e-001 102174  2.0181e+001  1.8216e+001 -6.0233e+000 35914 101949,102053,101975
 6.0000e-001 102151  2.0647e+001  1.5939e+001 -5.5422e+000 35914 101949,102079,102053
 6.0000e-001 102128  1.0637e+001  1.4487e+001 -8.2432e+000 35914 101975,102053,102027
 6.0000e-001 102105  2.4056e+001  2.1269e+001 -1.5900e+001 35914 101975,102027,102001
 6.0000e-001 102631 -1.9759e+001  9.2634e+000  1.3313e-001 35574 102383,102513,102487
 6.0000e-001 102608 -1.5578e+001  5.3309e+000 -4.9759e-001 35574 102357,102513,102383
 6.0000e-001 102585 -1.2563e+001  1.7341e+001 -2.5868e+000 35574 102409,102487,102435
 6.0000e-001 102562 -9.9045e+000  1.5246e+001 -3.8645e+000 35574 102383,102487,102409
 6.0000e-001 102539 -8.5735e+000  2.8028e+001 -2.5586e+000 35574 102435,102487,102461
 6.0000e-001 103009 -4.7587e+000  9.4774e+000 -5.9929e-001 35170 102761,102865,102787
 6.0000e-001 102986 -1.4881e+001  4.9663e+000 -1.8417e+000 35170 102761,102891,102865
 6.0000e-001 102963 -9.2973e+000  6.8216e+000 -3.7030e+000 35170 102787,102865,102813
 6.0000e-001 102940 -1.4405e+001  6.0703e+000 -1.4521e+000 35170 102735,102891,102761
 6.0000e-001 102917 -9.4871e-001  2.6564e+001 -3.1810e+000 35170 102813,102865,102839
 6.0000e-001 103257  5.3447e+000  9.0270e+000  1.3917e+000 34659 103280,103058,103032
 6.0000e-001 103234  2.1793e+000  5.1453e+000  3.8743e+000 34659 103280,103032,103162
 6.0000e-001 103211 -6.1997e+000  4.0427e+000  4.0216e+000 34659 103084,103162,103110
 6.0000e-001 103188 -4.8327e+000  1.2242e+001  7.4518e+000 34659 103110,103162,103136
 6.0000e-001 103306  5.5618e-001  1.3757e+001  3.1682e+000 34659 103084,103058,103280
 6.0000e-001 103329 -2.0020e+000  9.2619e+000  5.9060e+000 34659 103084,103280,103162
 6.0000e-001 103837 -3.1011e+001  1.2981e+001 -3.7526e+000 34247 103860,103566,103540
 6.0000e-001 103814 -1.8525e+001  1.6339e+001 -4.1641e-001 34247 103932,103860,103540
 6.0000e-001 103791 -1.6921e+001  1.8908e+001  1.4914e+000 34247 103932,103540,103670
 6.0000e-001 103768 -2.1225e+001  2.2953e+001  5.0608e+000 34247 103566,103618,103592
 6.0000e-001 103745 -1.2678e+001  1.0594e+001  8.4448e-001 34247 103540,103696,103670
 6.0000e-001 103722 -1.1982e+001  1.3016e+001  1.9452e+000 34247 103514,103696,103540
 6.0000e-001 103886 -2.0271e+001  2.0009e+001  4.4586e-001 34247 103618,103566,103860
 6.0000e-001 103909 -2.2046e+001  1.6615e+001  2.2120e+000 34247 103618,103860,103644
 6.0000e-001 103958 -1.8335e+001  2.1902e+001  4.0447e+000 34247 103644,103860,103932
 6.0000e-001 103981 -1.6105e+001  2.4626e+001  6.0944e+000 34247 103644,103932,103670
 6.0000e-001 104300 -2.6176e+001  1.3835e+001 -3.4462e+000 33843 104052,104182,104156
 6.0000e-001 104277 -2.3020e+001  1.9256e+001 -1.0959e+000 33843 104026,104182,104052
 6.0000e-001 104254 -4.6180e+001  3.4223e+001 -9.9988e+000 33843 104078,104156,104130
 6.0000e-001 104231 -3.2139e+001  2.0907e+001 -7.0892e+000 33843 104052,104156,104078
 6.0000e-001 104208 -8.6010e+001 -3.9923e-001  7.0111e+000 33843 104078,104130,104104
 6.0000e-001 104499 -1.0359e+001  2.1416e+001  2.0523e+000 33282 104594,104522,104375
 6.0000e-001 104476 -1.1050e+001  1.6918e+001  8.1094e-001 33282 104522,104323,104427
 6.0000e-001 104453 -1.1985e+001  2.3766e+001  1.5482e+000 33282 104594,104375,104349
 6.0000e-001 104548 -1.3765e+001  1.5744e+001  3.4977e+000 33282 104401,104375,104522
 6.0000e-001 104571 -1.0852e+001  1.7840e+001  1.2143e+000 33282 104401,104522,104427
 6.0000e-001 104620 -1.1472e+001  1.6588e+001  9.8079e-001 33282 104323,104522,104594
 6.0000e-001 104643 -1.2217e+001  1.9962e+001  8.6527e-001 33282 104323,104594,104349
 6.0000e-001 104942 -3.2429e+001 -7.5997e+000  1.0441e+001 32728 104694,104772,104720
 6.0000e-001 104919 -2.5419e+001 -2.8342e+000  7.3819e+000 32728 104694,104824,104772
 6.0000e-001 104896 -4.3576e+001 -3.2151e-001  1.1260e+001 32728 104720,104772,104746
 6.0000e-001 104873 -4.1081e+001 -1.1852e+001  1.2453e+001 32728 104772,104824,104798
 6.0000e-001 104850 -2.3166e+001  1.3350e+000  9.7376e+000 32728 104668,104824,104694
 6.0000e-001 105373 -1.0419e+001  1.8289e+001  7.5573e-001 32274 105396,105102,105076
 6.0000e-001 105350  1.6670e+000  2.3502e+001 -2.3247e+000 32274 105396,105076,105206
 6.0000e-001 105327  5.9607e+000 -8.4203e-001  5.7679e+000 32274 105154,105206,105180
 6.0000e-001 105304 -7.0957e+000  1.1386e+001 -2.1207e+001 32274 105076,105232,105206
 6.0000e-001 105281 -6.8592e+000  7.6399e+000  1.7118e+001 32274 105102,105154,105128
 6.0000e-001 105258 -1.9157e+001  5.9110e+000 -2.5156e+001 32274 105050,105232,105076
 6.0000e-001 105422  2.2270e+000  1.1088e+001  2.5681e+000 32274 105154,105102,105396
 6.0000e-001 105445  1.2105e+001  1.4783e+001 -3.9501e-001 32274 105154,105396,105206
 6.0000e-001 105644  1.0582e+001  4.2230e+001 -1.3085e+000 31620 105468,105546,105520
 6.0000e-001 105621  1.4775e+001  2.9928e+001 -3.6279e+000 31620 105468,105572,105546
 6.0000e-001 105598  6.1635e+000  3.2154e+001 -1.9950e+000 31620 105468,105520,105494
 6.0000e-001 105794 -2.0858e+001  2.4940e+001 -8.4901e-001 31158 105889,105817,105693
 6.0000e-001 105771 -2.4016e+001  3.2769e+001  4.0373e-001 31158 105817,105667,105745
 6.0000e-001 105843 -2.3318e+001  1.9230e+001 -1.5547e+000 31158 105719,105693,105817
 6.0000e-001 105866 -2.7495e+001  2.5241e+001 -1.4826e+000 31158 105719,105817,105745
 6.0000e-001 105915 -2.4654e+001  2.3312e+001 -8.9100e-001 31158 105667,105817,105889
 6.0000e-001 106270  3.7755e+000 -3.7755e+000  2.6452e+000 30818 106293,106071,106045
 6.0000e-001 106247  9.0135e+000  7.8223e+000  1.1775e+001 30818 106293,106045,106175
 6.0000e-001 106224 -1.5494e+000  3.8548e-001  6.2243e+000 30818 106123,106175,106149
 6.0000e-001 106201 -7.8613e+000 -6.1499e+000 -3.3276e+000 30818 106071,106123,106097
 6.0000e-001 106319  5.2590e-001 -8.4651e+000 -6.3104e-001 30818 106123,106071,106293
 6.0000e-001 106342 -1.0504e+000 -2.5101e+000  7.0464e+000 30818 106123,106293,106175
 6.0000e-001 106492 -3.9386e+000  3.9152e+000 -8.6102e-001 30414 106645,106391,106365
 6.0000e-001 106469  1.8419e+001  1.0511e+001 -7.3391e+000 30414 106515,106365,106443
 6.0000e-001 106541  1.9396e+000  3.1661e+000 -2.5834e-001 30414 106645,106365,106515
 6.0000e-001 106671  4.7793e+000 -6.0502e+000  6.5452e+000 30414 106417,106391,106645
 6.0000e-001 106694  2.0095e+001 -5.8081e-001  3.8305e+000 30414 106417,106645,106515
 6.0000e-001 106942 -8.8723e+000  1.5081e+001 -4.4455e+000 29910 106965,106795,106769
 6.0000e-001 106919 -7.9331e+000  1.7714e+001 -3.6141e+000 29910 106965,106769,106717
 6.0000e-001 106896 -9.0325e+000  1.9829e+001 -1.2371e+001 29910 106795,106847,106821
 6.0000e-001 106873 -4.0647e+000  2.1573e+001  2.6880e+000 29910 106717,106769,106743
 6.0000e-001 106991 -1.0659e+001  1.8099e+001 -3.9651e+000 29910 106847,106795,106965
 6.0000e-001 107014 -9.1563e+000  2.1591e+001 -3.1186e+000 29910 106847,106965,106717
 6.0000e-001 107213 -7.7622e+000  1.9161e+000  1.1747e+001 29413 107236,107063,107037
 6.0000e-001 107190 -5.6926e+000  5.2350e+000  1.0409e+001 29413 107236,107037,107141
 6.0000e-001 107167 -2.0243e+001 -1.0166e+000  1.5362e+001 29413 107063,107115,107089
 6.0000e-001 107262 -6.6933e+000 -9.2144e-001  1.3524e+001 29413 107115,107063,107236
 6.0000e-001 107285 -5.0400e+000  1.7569e+000  1.2230e+001 29413 107115,107236,107141
 6.0000e-001 107486 -2.3686e+000  7.6050e+000  5.8692e+000 29009 107336,107388,107362
 6.0000e-001 107463  1.1892e+001  1.5101e+001 -9.7322e+000 29009 107310,107388,107336
 6.0000e-001 107440  2.2390e+000  1.1224e+000 -5.3647e+000 29009 107310,107414,107388
 6.0000e-001 107736 -2.2161e+001  8.6508e+000 -7.1019e+000 28491 107537,107615,107563
 6.0000e-001 107713 -1.4584e+001  1.1302e+001 -9.7606e+000 28491 107537,107641,107615
 6.0000e-001 107690 -1.1951e+001  1.4731e+001 -3.3846e+000 28491 107563,107615,107589
 6.0000e-001 107667 -5.8674e+000 -9.8078e-001 -9.6387e+000 28491 107511,107641,107537
 6.0000e-001 108118 -2.4883e+001  8.5000e+000 -1.2180e+000 27980 108141,107922,107844
 6.0000e-001 108095 -2.6026e+001  1.1380e+001 -1.2607e+000 27980 108141,107844,108000
 6.0000e-001 108072 -2.7753e+001  1.9245e+000 -4.1175e-001 27980 107844,107922,107870
 6.0000e-001 108049 -2.3125e+001  9.1711e+000 -2.3955e+000 27980 107870,107922,107896
 6.0000e-001 108026 -2.3804e+001  1.0227e+001 -1.5316e-001 27980 107922,107974,107948
 6.0000e-001 108167 -2.5521e+001  7.8141e+000 -1.5009e+000 27980 107974,107922,108141
 6.0000e-001 108190 -2.8837e+001  8.4484e+000 -2.4077e+000 27980 107974,108141,108000
 6.0000e-001 108745  1.7972e+000  8.3970e+000  1.7517e+001 27376 108840,108768,108477
 6.0000e-001 108722 -9.9592e+000 -9.6870e+000  1.4074e+001 27376 108768,108373,108581
 6.0000e-001 108699  4.2393e+000  2.0728e+001  2.0292e+001 27376 108840,108477,108451
 6.0000e-001 108676  2.1038e+000  7.0311e+000  1.3114e+001 27376 108373,108451,108399
 6.0000e-001 108653 -3.7525e+000  3.4244e-001 -3.5973e+000 27376 108503,108581,108529
 6.0000e-001 108630  4.9949e+000  4.9054e-002 -6.0283e+000 27376 108529,108581,108555
 6.0000e-001 108607  7.1036e+000  1.3530e+001  8.0359e+000 27376 108399,108451,108425
 6.0000e-001 108794 -7.1208e+000 -1.9676e+000  1.0567e+001 27376 108503,108477,108768
 6.0000e-001 108817 -1.4546e+001  3.5764e+000  7.7318e+000 27376 108503,108768,108581
 6.0000e-001 108866  2.7784e-001 -2.4202e+000  9.5787e+000 27376 108373,108768,108840
 6.0000e-001 108889  2.1998e+000  4.5432e+000  1.3968e+001 27376 108373,108840,108451
 6.0000e-001 109186 -1.0502e+001  1.3338e+001 -9.5273e-003 26722 109209,108938,108912
 6.0000e-001 109163 -9.6962e+000  1.5699e+001 -1.5351e+000 26722 109281,109209,108912
 6.0000e-001 109140 -1.4411e+001  1.9721e+001  1.0287e+000 26722 109281,108912,109042
 6.0000e-001 109117  6.3129e-001  7.6703e+000 -1.0197e+000 26722 108938,108990,108964
 6.0000e-001 109094 -2.2396e+001  3.0971e+001 -3.4314e+000 26722 108912,109068,109042
 6.0000e-001 109235 -1.2683e+000  1.3717e+001  3.0645e+000 26722 108990,108938,109209
 6.0000e-001 109258 -9.7170e+000  7.0049e+000 -7.0205e-001 26722 108990,109209,109016
 6.0000e-001 109307 -1.7269e+001  1.1095e+001 -3.5569e+000 26722 109016,109209,109281
 6.0000e-001 109330 -2.3047e+001  1.4899e+001 -1.0788e+000 26722 109016,109281,109042
 6.0000e-001 109732 -4.8589e+001  6.5586e+000  6.9216e+000 26310 109458,109588,109484
 6.0000e-001 109709 -3.4170e+001  1.6772e+001 -6.5000e+000 26310 109458,109614,109588
 6.0000e-001 109686  4.4699e+000  4.4455e+001 -6.9146e+000 26310 109510,109562,109536
 6.0000e-001 109663 -1.5785e+001  3.2535e+001 -5.2957e-001 26310 109484,109562,109510
 6.0000e-001 109640 -2.9674e+001  1.4879e+001  5.4914e+000 26310 109484,109588,109562
 6.0000e-001 110159 -7.1204e+000  3.1872e+000  2.4584e-001 25642 110182,109940,109914
 6.0000e-001 110136 -9.8262e+000 -2.7276e+000 -3.8657e-001 25642 110182,109914,109888
 6.0000e-001 110113 -3.4199e+000  1.9516e-001  9.1434e+000 25642 109966,110018,109992
 6.0000e-001 110090 -1.5768e+001  9.8108e-001  2.0726e+000 25642 110254,109966,109940
 6.0000e-001 110067 -6.4494e+000 -7.5243e-001 -1.3389e+000 25642 109862,110018,109888
 6.0000e-001 110044 -6.2673e+000  1.0936e+000 -4.2385e-001 25642 109836,110018,109862
 6.0000e-001 110208 -1.1690e+001  7.5415e-001  1.3902e+000 25642 110254,109940,110182
 6.0000e-001 110231 -3.9186e+000 -8.5393e-002  5.3358e-001 25642 110018,110182,109888
 6.0000e-001 110280 -9.7842e+000 -1.1508e-001  2.9202e+000 25642 110018,109966,110254
 6.0000e-001 110303 -6.0844e+000 -6.1785e-001  2.6353e+000 25642 110018,110254,110182
 6.0000e-001 110632 -1.5733e+000  1.0339e+001 -5.1110e+000 25188 110407,110485,110433
 6.0000e-001 110609  8.2488e-001  8.7141e+000 -5.5287e+000 25188 110407,110537,110485
 6.0000e-001 110586 -1.7863e+001  3.4522e+000 -3.7829e+000 25188 110433,110485,110459
 6.0000e-001 110563  9.1062e+000  1.3107e+001  8.7585e+000 25188 110485,110537,110511
 6.0000e-001 110831  7.4065e+000  2.6381e+001 -6.6597e+000 24726 110854,110707,110655
 6.0000e-001 110808  1.1111e+001  2.5684e+001 -5.1421e+000 24726 110854,110655,110759
 6.0000e-001 110785  8.0102e+000  1.6789e+001 -9.2134e+000 24726 110655,110707,110681
 6.0000e-001 110880  9.9111e+000  2.6990e+001 -4.3939e+000 24726 110733,110707,110854
 6.0000e-001 110903  1.3834e+001  2.7055e+001 -2.6179e+000 24726 110733,110854,110759
 6.0000e-001 111234 -6.9326e+000  1.1949e+001 -4.4453e+000 24222 111257,111087,111035
 6.0000e-001 111211 -8.0294e+000  1.1444e+001 -6.7581e+000 24222 111257,111035,111009
 6.0000e-001 111188  4.3472e+000  8.6902e+000 -3.2070e+000 24222 111035,111087,111061
 6.0000e-001 111165 -9.8205e-001  1.5141e+001 -2.0147e+000 24222 111087,111139,111113
 6.0000e-001 111283 -5.9604e+000  9.6318e+000 -5.2311e+000 24222 111139,111087,111257
 6.0000e-001 111306 -6.5053e+000  7.7957e+000 -6.7314e+000 24222 111139,111257,111009
 6.0000e-001 111625 -2.8433e+001 -9.1535e+000  3.7479e+000 23732 111648,111481,111455
 6.0000e-001 111602 -2.5624e+001 -9.1597e+000  2.0651e+000 23732 111648,111455,111377
 6.0000e-001 111579 -3.0903e+001 -2.1691e+001 -1.2551e+000 23732 111377,111429,111403
 6.0000e-001 111556 -2.6677e+001 -1.0363e+001  2.8479e+000 23732 111377,111455,111429
 6.0000e-001 111533 -2.3877e+001 -4.0779e+000  2.3327e+000 23732 111351,111507,111377
 6.0000e-001 111674 -2.3892e+001 -7.8080e+000  3.9691e+000 23732 111507,111481,111648
 6.0000e-001 111697 -2.3991e+001 -8.9652e+000  1.5820e+000 23732 111507,111648,111377
 6.0000e-001 112156 -1.5293e+001 -1.2814e+000  4.5941e+000 23278 112179,111908,111882
 6.0000e-001 112133 -1.5837e+001  7.3173e-001  1.5329e+000 23278 112179,111882,112012
 6.0000e-001 112110 -6.2819e+000  6.2702e+000  3.7261e-001 23278 111908,111960,111934
 6.0000e-001 112087 -2.0144e+001  1.2810e+001  2.1634e+000 23278 111882,112038,112012
 6.0000e-001 112064 -1.5633e+001  3.7459e+000 -3.7000e-001 23278 111960,112012,111986
 6.0000e-001 112205 -1.3538e+001  2.0330e-001  3.0472e+000 23278 111960,111908,112179
 6.0000e-001 112228 -1.2259e+001  3.0260e+000 -2.2399e-001 23278 111960,112179,112012
 6.0000e-001 112685 -8.4583e+000 -9.9272e+000  8.7012e+000 22938 112489,112567,112541
 6.0000e-001 112662 -6.8367e+000 -2.4984e+000  4.6597e+000 22938 112437,112567,112489
 6.0000e-001 112639 -1.3741e+001  2.1639e+000  9.3101e+000 22938 112489,112541,112515
 6.0000e-001 112616  2.1730e-001 -5.8964e+000  3.9191e+000 22938 112411,112567,112437
 6.0000e-001 112593 -5.9444e+000 -8.5420e+000  6.3259e+000 22938 112437,112489,112463
 6.0000e-001 113191 -2.2047e+001  6.3030e-001 -3.2302e+000 22534 113214,112998,112946
 6.0000e-001 113168 -2.6190e+001  1.2565e+000 -1.4526e+000 22534 113286,113214,112946
 6.0000e-001 113145 -2.1613e+001  1.5775e-001  2.8953e-001 22534 113286,112946,112920
 6.0000e-001 113122 -3.4997e+001  6.4153e+000 -4.4956e+000 22534 113358,113024,112998
 6.0000e-001 113099 -1.4850e+001  1.1708e+001  2.2146e+000 22534 112868,113050,112894
 6.0000e-001 113076 -3.5541e+001 -2.4779e+001 -9.7027e+000 22534 112946,112998,112972
 6.0000e-001 113240 -3.0758e+001 -5.4407e-001 -5.0957e+000 22534 113358,112998,113214
 6.0000e-001 113263 -2.4565e+001  3.8328e+000 -1.4271e+000 22534 113050,113214,112894
 6.0000e-001 113312 -2.1297e+001  4.9767e+000  2.6279e-001 22534 112894,113214,113286
 6.0000e-001 113335 -1.7449e+001  2.5388e+000  1.3708e+000 22534 112894,113286,112920
 6.0000e-001 113384 -2.9840e+001  1.1253e+001 -1.9911e+000 22534 113050,113024,113358
 6.0000e-001 113407 -2.3254e+001  6.1190e+000 -2.0213e+000 22534 113050,113358,113214
 6.0000e-001 113785  8.5927e+000  1.0021e+001  5.4059e+000 21978 113808,113615,113511
 6.0000e-001 113762  7.2018e+000  8.8732e+000  6.1570e+000 21978 113808,113511,113667
 6.0000e-001 113739  1.4787e+001  6.6329e+000  3.6438e+000 21978 113511,113615,113537
 6.0000e-001 113716  1.4250e+001  2.2719e+000 -2.0563e+000 21978 113537,113615,113589
 6.0000e-001 113693  1.1172e+001 -6.4254e-001 -8.2853e-001 21978 113537,113589,113563
 6.0000e-001 113834  9.4750e+000  1.1367e+001  3.2055e+000 21978 113641,113615,113808
 6.0000e-001 113857  6.0085e+000  9.7661e+000  4.0518e+000 21978 113641,113808,113667
 6.0000e-001 114284 -6.6132e+000  8.7710e+000 -2.9569e+000 21517 114013,114117,114039
 6.0000e-001 114261 -6.6964e+000  8.5375e+000 -3.4432e+000 21517 113961,114117,114013
 6.0000e-001 114238 -7.9090e+000  1.4812e+001 -2.9923e+000 21517 113961,114013,113987
 6.0000e-001 114215 -2.4873e+000  5.7093e+000 -6.4111e-001 21517 114039,114117,114091
 6.0000e-001 114192 -8.4252e+000  8.1605e+000 -2.5216e+000 21517 113961,114143,114117
 6.0000e-001 114169 -1.9139e+000  1.0706e+001  5.0362e+000 21517 114039,114091,114065
 6.0000e-001 114581 -2.9055e+001 -7.2987e+000  2.1024e+000 21027 114359,114463,114437
 6.0000e-001 114558 -2.6061e+001 -9.4147e+000 -3.6291e+000 21027 114333,114463,114359
 6.0000e-001 114535 -2.7713e+001 -6.8248e+000  1.7268e+000 21027 114359,114437,114385
 6.0000e-001 114512 -2.5990e+001 -1.0295e+001 -6.7044e+000 21027 114307,114463,114333
 6.0000e-001 114489 -3.9844e+001 -7.7630e+000  1.2797e+000 21027 114385,114437,114411
 6.0000e-001 114912  6.2216e+000  1.1595e+001  4.9779e-001 20623 114713,114791,114765
 6.0000e-001 114889 -2.2513e+000  8.0684e+000  4.9520e+000 20623 114687,114791,114713
 6.0000e-001 114866 -1.7232e+000  1.9324e+001  3.1823e+000 20623 114687,114817,114791
 6.0000e-001 114843  4.8031e-001  1.3952e-001  3.1106e+000 20623 114713,114765,114739
 6.0000e-001 115290 -5.7986e-001  9.4069e+000 -4.9792e+000 20375 115313,115146,115094
 6.0000e-001 115267 -3.2047e+000  7.6154e+000 -3.7281e+000 20375 115313,115094,115042
 6.0000e-001 115244 -4.7752e+000  1.4971e+001 -5.4108e+000 20375 115385,115016,115172
 6.0000e-001 115221 -7.1012e+000  5.2984e+000 -2.6869e+000 20375 115042,115094,115068
 6.0000e-001 115198  5.1065e-001  6.7191e+000  1.2528e-001 20375 115094,115146,115120
 6.0000e-001 115339 -7.6468e+000  2.9854e+000 -8.1008e+000 20375 115172,115146,115313
 6.0000e-001 115362 -2.4765e+000  1.2440e+001 -5.8256e+000 20375 115385,115172,115313
 6.0000e-001 115411 -4.3054e+000  1.2903e+001 -3.1281e+000 20375 115042,115016,115385
 6.0000e-001 115434 -4.0115e+000  8.5638e+000 -2.9919e+000 20375 115042,115385,115313
 6.0000e-001 115891 -1.3992e+001  1.0446e+001 -8.4307e+000 19971 115617,115747,115643
 6.0000e-001 115868 -2.2411e+001  2.8856e+000 -2.6875e+001 19971 115617,115773,115747
 6.0000e-001 115845 -3.6150e+000  3.9574e+000 -6.2004e+000 19971 115643,115721,115695
 6.0000e-001 115822 -5.2720e+000 -5.0479e-001 -6.3270e+000 19971 115643,115747,115721
 6.0000e-001 115799  7.3602e+000  9.9264e+000 -3.6827e+000 19971 115643,115695,115669
 6.0000e-001 115992 -2.9331e+001 -1.1154e+001  5.5401e+000 19659 115914,115966,115940
 6.0000e-001 116142 -3.8194e+001 -1.6471e+001 -2.8542e-001 18997 116041,116093,116067
 6.0000e-001 116119 -3.7516e+001 -2.0033e+001  7.2230e+000 18997 116015,116093,116041
 6.0000e-001 116343 -2.2816e+000  2.8057e+000 -7.6611e-001 18707 116193,116245,116219
 6.0000e-001 116320 -3.8359e+000 -1.4096e-001 -3.8577e+000 18707 116193,116271,116245
 6.0000e-001 116297  5.4148e+000  1.9814e+001 -1.3814e+000 18707 116167,116271,116193
 6.0000e-001 116747 -1.4128e+001  5.8240e+000  4.9885e-001 18301 116525,116629,116551
 6.0000e-001 116724 -6.1077e+000  3.9950e+000  2.1649e+000 18301 116473,116629,116525
 6.0000e-001 116701 -5.7620e+000  4.4247e+000  1.6951e+000 18301 116473,116525,116499
 6.0000e-001 116678 -1.7660e+001  7.5959e+000  2.8424e-001 18301 116551,116603,116577
 6.0000e-001 116655 -1.2191e+001  1.0396e+001  1.6487e+000 18301 116551,116629,116603
 6.0000e-001 117147 -1.1583e+001 -1.7059e+000  7.3257e-001 17747 116899,117029,116925
 6.0000e-001 117124 -1.3272e+001 -7.2833e+000 -1.1913e+000 17747 116873,117029,116899
 6.0000e-001 117101 -1.3782e+001 -2.4727e+000 -4.1588e-001 17747 116925,117029,116951
 6.0000e-001 117078 -1.4766e+001 -6.9332e+000 -1.9367e+000 17747 116951,117029,117003
 6.0000e-001 117055 -8.1061e+000 -1.6981e+000  5.6756e-001 17747 116951,117003,116977
 6.0000e-001 117368 -2.7284e+001  5.4418e+000 -4.8664e+000 17293 117244,117296,117270
 6.0000e-001 117345 -1.8742e+001  1.5534e+001 -1.1787e+000 17293 117192,117296,117244
 6.0000e-001 117322 -1.7105e+001  8.1786e+000  2.7750e-001 17293 117192,117244,117218
 6.0000e-001 117699 -2.7322e+001 -1.0810e+001  2.6480e-001 16896 117526,117604,117552
 6.0000e-001 117676 -1.9148e+001 -7.5262e+000 -1.8677e+000 16896 117500,117604,117526
 6.0000e-001 117653 -2.5054e+001 -1.1536e+001  1.0469e+000 16896 117552,117604,117578
 6.0000e-001 117630 -1.6713e+001 -8.9864e+000 -3.6902e-001 16896 117474,117604,117500
 6.0000e-001 117849 -3.8784e+001 -2.5452e+000  3.0437e+000 16534 117722,117774,117748
 6.0000e-001 117826 -3.3068e+001  2.0512e+001  3.4616e+000 16534 117722,117800,117774
 6.0000e-001 118070 -6.6649e+000  2.4734e+000 -1.8067e+000 16194 117946,117998,117972
 6.0000e-001 118047 -6.7435e+000  4.4375e+000 -1.9589e+000 16194 117894,117998,117946
 6.0000e-001 118024 -6.9100e+000  1.2198e+001 -7.3968e+000 16194 117894,117946,117920
 6.0000e-001 118173 -2.6720e+001 -8.6808e+000  0.0000e+000 15968 118095,118147,118121
 6.0000e-001 118276 -1.8140e+000  1.2461e+001  3.4448e+000 15433 118299,118198,118250
 6.0000e-001 118325 -4.5612e+000  6.0519e+000  3.5086e+000 15433 118224,118198,118299
 6.0000e-001 118450 -1.3654e+001 -1.2286e+001 -3.4906e+000 421 118372,118424,118398
 7.0000e-001 69891 -1.3076e+000  3.2402e+000  5.3230e+000 68988 69447,69681,69629
 7.0000e-001 69868 -8.1801e+000  7.4616e-001  4.3942e-001 68988 69421,69681,69447
 7.0000e-001 69845 -5.1345e+000  1.7125e+000  7.8050e+000 68988 69447,69629,69577
 7.0000e-001 69822 -3.8069e+000  1.3743e+001  7.6382e+000 68988 69447,69577,69473
 7.0000e-001 69799 -4.0975e+000  2.6837e-001  3.7050e+000 68988 69629,69681,69655
 7.0000e-001 69776 -4.6309e+000  1.7118e+000  9.0381e+000 68988 69577,69629,69603
 7.0000e-001 69753 -8.3801e+000  1.2574e+001  1.3250e+001 68988 69473,69577,69551
 7.0000e-001 69730 -5.8345e+000  6.8523e+001  1.3247e+001 68988 69473,69551,69525
 7.0000e-001 69707 -2.7399e+000  2.5033e+001 -1.9046e-001 68988 69473,69525,69499
 7.0000e-001 69992  2.0569e+000 -5.9978e-001  8.6176e-001 68676 69914,69966,69940
 7.0000e-001 70392  3.4104e+000  1.3536e+001 -1.1676e+000 68478 70118,70248,70144
 7.0000e-001 70369  1.6960e+001  1.3437e+001  2.7204e+000 68478 70118,70274,70248
 7.0000e-001 70346 -7.5855e+000  9.7789e+000 -1.4753e+000 68478 70144,70222,70196
 7.0000e-001 70323 -8.1034e+000  6.7043e+000  3.1121e+000 68478 70144,70248,70222
 7.0000e-001 70300 -5.4891e+000  1.0368e+001 -6.5311e-001 68478 70144,70196,70170
 7.0000e-001 70841  1.4105e+001  1.4946e+001 -7.5840e+000 68280 70570,70622,70596
 7.0000e-001 70818 -1.3038e+001  7.3577e+000  4.6278e-001 68280 70544,70622,70570
 7.0000e-001 70795 -1.4264e+001  2.1234e+000  1.6976e+000 68280 70544,70674,70622
 7.0000e-001 70772 -2.3630e+001  6.5117e+000  5.7938e+000 68280 70622,70674,70648
 7.0000e-001 70749 -6.2653e+000  8.8279e+000 -1.1882e+000 68280 70518,70674,70544
 7.0000e-001 70726  9.0995e+000  6.1664e+000  3.1850e+000 68280 70518,70700,70674
 7.0000e-001 70991 -1.7953e+001  2.4072e+001  1.1684e+000 67968 70864,70916,70890
 7.0000e-001 70968 -3.0381e+001  1.7853e+001 -9.0955e-001 67968 70864,70942,70916
 7.0000e-001 71141 -7.9844e+001 -5.6290e+001  3.0058e+001 67770 71040,71092,71066
 7.0000e-001 71118 -8.5255e+001 -1.7539e+001  1.1212e+001 67770 71014,71092,71040
 7.0000e-001 71651 -1.6164e+000  2.0218e+001  2.9037e+000 67366 71746,71674,71458
 7.0000e-001 71628 -5.8387e+000  1.0661e+001  4.6214e+000 67366 71674,71354,71510
 7.0000e-001 71605 -3.9002e+000  2.4966e+001  2.6028e+000 67366 71746,71458,71432
 7.0000e-001 71582 -1.5386e-001  2.4152e+001 -3.8986e+000 67366 71354,71432,71380
 7.0000e-001 71559 -6.7208e+000  2.1964e+001 -3.0554e+000 67366 71380,71432,71406
 7.0000e-001 71536 -1.1293e+001  1.7374e+001  6.6718e+000 67366 71328,71510,71354
 7.0000e-001 71700 -9.5855e-001  1.6688e+001  4.2155e-001 67366 71484,71458,71674
 7.0000e-001 71723 -2.9586e+000  1.6251e+001  1.8267e+000 67366 71484,71674,71510
 7.0000e-001 71772 -4.4085e+000  1.4547e+001  1.5845e+000 67366 71354,71674,71746
 7.0000e-001 71795 -6.5015e+000  1.9032e+001  1.7781e+000 67366 71354,71746,71432
 7.0000e-001 71896 -1.6372e+000  2.5246e+001  0.0000e+000 67146 71818,71870,71844
 7.0000e-001 71997 -9.1110e+001 -4.2413e+001 -1.5514e+001 66948 71919,71971,71945
 7.0000e-001 72149  9.4273e+000  1.8348e+001 -1.4217e+000 66700 72172,72074,72048
 7.0000e-001 72126  9.5188e+000  1.6047e+001 -7.7883e-001 66700 72172,72048,72022
 7.0000e-001 72198  1.0193e+001  2.2266e+001 -2.2502e+000 66700 72244,72172,72100
 7.0000e-001 72221  1.2302e+001  2.1298e+001  9.7608e-001 66700 72100,72172,72022
 7.0000e-001 72270  7.2394e+000  1.5316e+001 -2.4991e+000 66700 72074,72172,72244
 7.0000e-001 72623  8.2366e-001  2.1544e+001 -1.7766e+000 66502 72424,72502,72450
 7.0000e-001 72600 -1.8291e+000  1.3698e+001 -9.6980e-001 66502 72398,72502,72424
 7.0000e-001 72577 -3.5275e+000  1.7623e+001  2.7160e-001 66502 72398,72528,72502
 7.0000e-001 72554 -2.9999e+000  1.5556e+001  4.1351e-001 66502 72450,72502,72476
 7.0000e-001 72920 -2.2036e+000  1.7707e+001  2.0725e+000 65941 72672,72776,72750
 7.0000e-001 72897 -1.3133e+001  1.7810e+001  2.6129e+000 65941 72646,72776,72672
 7.0000e-001 72874  3.4478e+000  2.1535e+001 -2.9584e-001 65941 72672,72750,72724
 7.0000e-001 72851 -1.1295e+000  1.0706e+001  1.0575e+000 65941 72672,72724,72698
 7.0000e-001 72828 -2.3419e+001  3.1842e+001 -1.9443e+000 65941 72646,72802,72776
 7.0000e-001 73241  3.4694e+000  1.3701e+001  3.3414e+000 65743 73264,73071,73045
 7.0000e-001 73218  3.4714e+000  1.5093e+001  1.6134e+000 65743 73480,73264,73045
 7.0000e-001 73195 -2.0496e+000  1.6408e+001  1.3092e+000 65743 73336,72967,73097
 7.0000e-001 73172  4.6335e-001  1.3880e+001  3.8306e+000 65743 73408,72993,72967
 7.0000e-001 73149 -6.1518e+000  1.4837e+001  6.2808e-001 65743 72967,73123,73097
 7.0000e-001 73290 -1.2723e+000  1.2154e+001  8.0625e-001 65743 73097,73071,73264
 7.0000e-001 73313 -2.9587e+000  1.3563e+001  1.7292e+000 65743 73336,73097,73264
 7.0000e-001 73362 -1.0832e+000  1.5457e+001  3.3742e+000 65743 73408,72967,73336
 7.0000e-001 73385 -4.3423e+000  1.3282e+001  3.3150e+000 65743 73019,73336,73264
 7.0000e-001 73434 -2.1510e+000  8.5658e+000  2.5904e+000 65743 73019,72993,73408
 7.0000e-001 73457 -3.6576e+000  1.2106e+001  2.2541e+000 65743 73019,73408,73336
 7.0000e-001 73506 -4.5682e+000  2.3697e+000  5.1294e+000 65743 73019,73264,73480
 7.0000e-001 73989 -1.2021e+001  1.3755e+001 -1.4138e+000 65453 73793,73845,73819
 7.0000e-001 73966 -3.1010e+000  1.4859e+001 -2.8492e+000 65453 73741,73845,73793
 7.0000e-001 73943 -1.0560e+001  8.7523e+000  3.3962e-001 65453 73715,73845,73741
 7.0000e-001 73920 -4.7926e+000  2.9061e+001 -6.5876e+000 65453 73741,73793,73767
 7.0000e-001 73897 -1.3538e+001  7.0966e+000  2.7275e+000 65453 73715,73871,73845
 7.0000e-001 74357  1.1302e+001  1.2947e+001 -2.1852e+000 65141 74380,74138,74086
 7.0000e-001 74334  1.4024e+001  1.2237e+001 -4.9780e+000 65141 74380,74086,74060
 7.0000e-001 74311  1.5195e+001  1.4194e+001 -1.7778e+000 65141 74138,74190,74164
 7.0000e-001 74288  2.3501e+001  7.1526e+000 -5.2637e+000 65141 74060,74216,74190
 7.0000e-001 74265  2.1079e+001  1.4902e-001 -3.9926e-001 65141 74034,74216,74060
 7.0000e-001 74242  1.2929e+001  1.0639e+001 -3.2149e+000 65141 74086,74138,74112
 7.0000e-001 74406  1.5714e+001  1.3441e+001 -2.0268e+000 65141 74190,74138,74380
 7.0000e-001 74429  1.5890e+001  1.2587e+001 -4.3811e+000 65141 74190,74380,74060
 7.0000e-001 74937  7.3004e+000  5.5811e+000  1.7357e+000 64737 74614,74666,74640
 7.0000e-001 74914  4.8902e+000  5.3430e+000  2.3358e+000 64737 74614,74796,74666
 7.0000e-001 74891  4.4037e+000  5.2285e+000 -2.5738e-001 64737 74960,74718,74666
 7.0000e-001 74868  2.1227e+000  8.2183e+000  2.7281e+000 64737 74960,74666,74770
 7.0000e-001 74845  4.0182e+000  2.7318e+000  3.6265e+000 64737 74666,74796,74770
 7.0000e-001 74822  3.4881e+000  6.0939e+000 -8.8457e-001 64737 74666,74718,74692
 7.0000e-001 74986  5.9024e+000  8.3746e+000 -6.8810e-001 64737 74744,74718,74960
 7.0000e-001 75009  4.1447e+000  1.2799e+001  2.3088e+000 64737 74744,74960,74770
 7.0000e-001 75306  3.2773e+000  1.8081e+001 -5.1109e-001 64133 75329,75110,75084
 7.0000e-001 75283  1.8265e+000  2.0071e+001  8.9841e-001 64133 75401,75329,75084
 7.0000e-001 75260  3.5068e+000  2.2691e+001  1.6211e+000 64133 75401,75084,75058
 7.0000e-001 75237  2.9694e+000  2.4887e+001 -4.5908e+000 64133 75473,75136,75110
 7.0000e-001 75214 -6.1287e+000  2.4570e+001 -1.0045e+000 64133 75032,75188,75162
 7.0000e-001 75355  5.2308e+000  2.2087e+001 -3.0684e+000 64133 75473,75110,75329
 7.0000e-001 75378 -2.9386e-001  2.0204e+001 -8.1086e-001 64133 75162,75329,75032
 7.0000e-001 75427 -4.6296e-001  1.9099e+001  1.3932e+000 64133 75032,75329,75401
 7.0000e-001 75450  6.3820e+000  2.5680e+001 -1.7716e+000 64133 75545,75401,75058
 7.0000e-001 75499 -2.7360e+000  2.1718e+001 -3.3044e+000 64133 75162,75136,75473
 7.0000e-001 75522  1.2322e+000  1.9433e+001 -1.9142e+000 64133 75162,75473,75329
 7.0000e-001 75571 -1.0515e+000  9.1300e+000  3.9237e-001 64133 75032,75401,75545
 7.0000e-001 75851 -4.3128e+000  1.1668e+001 -2.4668e+000 63843 75874,75753,75727
 7.0000e-001 75828 -7.8957e+000  6.0866e+000 -3.4834e-001 63843 75946,75874,75727
 7.0000e-001 75805 -6.3786e+000  3.8912e+000  6.6904e-001 63843 76018,75946,75727
 7.0000e-001 75900 -7.4882e+000  1.0355e+001  1.3545e+000 63843 75779,75753,75874
 7.0000e-001 75923 -7.7375e+000  5.8146e+000  3.0930e+000 63843 75779,75874,75675
 7.0000e-001 75972 -5.5544e+000  9.3712e+000  8.8599e-001 63843 75675,75874,75946
 7.0000e-001 75995 -4.4310e+000  7.0490e+000 -2.1726e-001 63843 75675,75946,75701
 7.0000e-001 76044 -5.3311e+000  6.9753e+000 -1.2124e-001 63843 75701,75946,76018
 7.0000e-001 76454  2.3733e+001  2.8830e+001 -1.3624e+001 63439 76477,76255,76229
 7.0000e-001 76431  1.3257e+001  1.2991e+001 -5.4637e+000 63439 76477,76229,76359
 7.0000e-001 76408  1.7735e+001  8.2059e+000  7.0727e-001 63439 76307,76359,76333
 7.0000e-001 76385  1.8684e+001  3.7451e+001 -6.6206e+000 63439 76255,76307,76281
 7.0000e-001 76503  1.0511e+001  1.5583e+001 -4.4730e+000 63439 76307,76255,76477
 7.0000e-001 76526  1.2104e+001  1.0025e+001  1.6966e+000 63439 76307,76477,76359
 7.0000e-001 76926 -2.2846e+001 -6.0826e+000 -3.6607e+000 63049 76704,76782,76756
 7.0000e-001 76903 -1.6283e+001 -4.4635e+000  9.9070e-001 63049 76704,76808,76782
 7.0000e-001 76880 -2.0571e+001 -1.5326e+001 -2.2229e+000 63049 76704,76756,76730
 7.0000e-001 76857 -3.1058e+001 -1.3390e+001 -3.0736e+000 63049 76678,76808,76704
 7.0000e-001 76834 -3.7249e+001 -1.2420e+001 -3.1271e+000 63049 76652,76808,76678
 7.0000e-001 77076 -1.1270e+001  1.6042e+001  9.2050e-001 62737 76975,77027,77001
 7.0000e-001 77053 -1.5611e+001  1.7039e+001  1.7158e+000 62737 76949,77027,76975
 7.0000e-001 77324 -6.2581e+000  1.3421e+001 -1.8954e+000 62277 77347,77177,77125
 7.0000e-001 77301 -8.7819e+000  1.1212e+001  3.0979e-002 62277 77347,77125,77229
 7.0000e-001 77278 -7.1322e+000  1.5536e+001  2.4388e+000 62277 77099,77229,77125
 7.0000e-001 77255 -2.5004e+000  1.3222e+001 -3.1631e+000 62277 77125,77177,77151
 7.0000e-001 77373 -5.3632e+000  1.9259e+001 -6.1176e+000 62277 77203,77177,77347
 7.0000e-001 77396 -1.2890e+001  1.3648e+001 -3.2094e+000 62277 77203,77347,77229
 7.0000e-001 77857 -9.8212e+000  9.2407e+000  2.4963e+000 61758 77635,77739,77661
 7.0000e-001 77834 -1.2318e+001  1.6537e+001  6.8701e-001 61758 77583,77739,77635
 7.0000e-001 77811 -1.3617e+001  2.9412e+001  9.9423e+000 61758 77583,77635,77609
 7.0000e-001 77788 -9.8283e+000  1.5969e+001  1.6944e+000 61758 77661,77713,77687
 7.0000e-001 77765 -7.8551e+000  1.4970e+001  2.6978e+000 61758 77661,77739,77713
 7.0000e-001 78491  5.1811e+000  6.0759e+000  1.6342e+000 61418 78171,78301,78249
 7.0000e-001 78468  2.0276e+000  5.6135e+000  1.3086e+000 61418 78145,78301,78171
 7.0000e-001 78445 -7.0454e-001  4.3879e+000  6.9773e-001 61418 78171,78249,78223
 7.0000e-001 78422  6.3572e+000  7.4871e+000  8.7464e-001 61418 78145,78327,78301
 7.0000e-001 78399  5.1811e+000  6.1970e+000  1.7426e+000 61418 78249,78301,78275
 7.0000e-001 78376 -2.7155e+000  2.5076e+000  1.4842e+000 61418 78171,78223,78197
 7.0000e-001 78353  4.1252e+000  2.9138e+000 -5.2579e-001 61418 78119,78327,78145
 7.0000e-001 78690  1.5938e+000  6.5424e-001  3.3348e+000 61014 78713,78566,78540
 7.0000e-001 78667 -8.6618e+000  8.2261e+000 -1.9109e-001 61014 78713,78540,78618
 7.0000e-001 78644  1.5014e+001  6.0708e+000 -2.4674e+001 61014 78514,78618,78540
 7.0000e-001 78739 -1.0788e+001 -5.2459e+000 -3.0997e+000 61014 78592,78566,78713
 7.0000e-001 78762 -1.2438e+001  2.0046e+000 -1.8595e+000 61014 78785,78713,78618
 7.0000e-001 78811 -1.7873e+001  1.3587e+000  4.1444e+000 61014 78592,78713,78785
 7.0000e-001 79398  1.3690e+001  3.4552e-001  5.5339e-001 60624 79101,79179,79153
 7.0000e-001 79375  1.8134e+001  1.1126e+000  1.5671e-001 60624 79101,79231,79179
 7.0000e-001 79352  1.8647e+001  3.1787e+000  2.9310e+000 60624 79075,79231,79101
 7.0000e-001 79329  1.8884e+001  5.1520e+000  1.3536e+000 60624 79075,79257,79231
 7.0000e-001 79306  1.7368e+001  1.0388e+000 -2.0351e+000 60624 79179,79231,79205
 7.0000e-001 79283  1.3423e+001 -6.6109e-002 -4.5291e-001 60624 79101,79153,79127
 7.0000e-001 79776 -8.3315e+000  1.1777e+001 -1.6132e+000 60070 79528,79658,79606
 7.0000e-001 79753 -9.2762e+000  9.3580e+000 -1.5652e+000 60070 79502,79658,79528
 7.0000e-001 79730 -2.2411e+001  1.5482e+001  3.7773e+000 60070 79528,79606,79580
 7.0000e-001 79707 -1.1734e+001  1.3961e+001 -1.7441e+000 60070 79606,79658,79632
 7.0000e-001 79684 -3.5719e+001  9.6557e+000  4.8403e+000 60070 79528,79580,79554
 7.0000e-001 80105  7.9738e+000  1.2761e+001 -2.3658e+000 59758 80128,79958,79906
 7.0000e-001 80082  4.0639e+000  4.4261e+000  1.6270e+000 59758 80128,79906,80010
 7.0000e-001 80059  4.2599e+000  4.6765e+000 -1.4768e+000 59758 79906,79958,79932
 7.0000e-001 80036  9.0968e-001  4.6012e+000  1.7712e+000 59758 79880,80010,79906
 7.0000e-001 80154  5.7965e+000  1.8380e+001 -5.1647e+000 59758 79984,79958,80128
 7.0000e-001 80177  4.4662e+000  1.2457e+001 -1.7133e+000 59758 79984,80128,80010
 7.0000e-001 80376 -6.4763e+000 -6.3584e+000 -5.5294e+000 59312 80226,80304,80252
 7.0000e-001 80353 -1.3214e+001  3.8165e+001 -4.5877e+000 59312 80200,80304,80226
 7.0000e-001 80330 -1.1854e+001 -1.1787e+001 -1.1515e+000 59312 80252,80304,80278
 7.0000e-001 80805 -1.4810e+001 -3.6850e-002  1.2051e+000 58908 80900,80828,80638
 7.0000e-001 80782 -8.5239e+000 -2.5388e+000  3.1074e+000 58908 80828,80560,80508
 7.0000e-001 80759 -1.4584e+001 -1.5641e+000 -1.0853e+000 58908 80900,80638,80612
 7.0000e-001 80736 -2.1011e+001 -4.8605e+000  6.3787e+000 58908 80482,80664,80508
 7.0000e-001 80713 -2.1194e+001  5.1015e-001 -3.9641e+000 58908 80560,80612,80586
 7.0000e-001 80690 -8.1741e+000 -9.0549e+000  1.5052e+000 58908 80508,80560,80534
 7.0000e-001 80854 -1.5145e+001 -1.1579e+000  2.2301e+000 58908 80664,80638,80828
 7.0000e-001 80877 -1.4888e+001 -5.8117e+000  4.3159e+000 58908 80664,80828,80508
 7.0000e-001 80926 -1.5881e+001 -4.3173e+000  1.1601e+000 58908 80560,80828,80900
 7.0000e-001 80949 -1.5238e+001 -4.5408e+000 -1.4611e+000 58908 80560,80900,80612
 7.0000e-001 81246 -1.0567e+001  7.5838e+000  2.9524e-001 58482 81076,81128,81102
 7.0000e-001 81223 -9.4528e+000  1.2583e+001  1.0098e+000 58482 80972,81128,81076
 7.0000e-001 81200 -1.3553e+001  2.7923e+000  2.1158e+000 58482 80972,81076,81050
 7.0000e-001 81177  3.2555e+000  2.2032e+000  2.3579e+000 58482 80998,81050,81024
 7.0000e-001 81154 -8.5443e+000  3.1876e-001  6.5557e+000 58482 80972,81050,80998
 7.0000e-001 81754 -1.1786e+001  2.1783e+000  1.4448e+000 57828 81457,81613,81483
 7.0000e-001 81731 -8.0915e+000  7.9480e+000  5.2117e+000 57828 81431,81613,81457
 7.0000e-001 81708 -1.3684e+001 -1.9808e+000  7.5938e+000 57828 81483,81613,81509
 7.0000e-001 81685 -6.5283e+000  9.7996e-001  4.7414e+000 57828 81509,81613,81587
 7.0000e-001 81662 -7.4002e+000  2.5728e+000  3.4918e+000 57828 81509,81587,81535
 7.0000e-001 81639  6.8806e+000  4.3775e+000 -8.7526e-001 57828 81535,81587,81561
 7.0000e-001 82002  4.6554e+000 -9.1933e-001 -1.5615e+000 57374 82025,81855,81829
 7.0000e-001 81979 -6.7321e-001 -3.1922e-002  1.3771e-001 57374 82025,81829,81907
 7.0000e-001 81956 -2.0949e+000  8.6169e-001 -8.5886e-001 57374 81803,81907,81829
 7.0000e-001 81933 -5.4429e+000  8.7859e-001  2.0380e-001 57374 81777,81907,81803
 7.0000e-001 82051  1.3379e+001  1.0778e+000 -4.9523e+000 57374 81881,81855,82025
 7.0000e-001 82074  1.1048e+000 -2.2013e+000 -3.7068e+000 57374 81881,82025,81907
 7.0000e-001 82356 -3.6464e+000  1.7965e+001  2.2214e+000 56913 82180,82232,82206
 7.0000e-001 82333 -7.5537e+000  9.2859e+000  1.2203e+000 56913 82180,82284,82232
 7.0000e-001 82310 -5.7136e+000  1.3468e+000  8.4410e-001 56913 82379,82232,82284
 7.0000e-001 82405 -4.4921e+000  1.7077e+000  5.5931e-001 56913 82258,82232,82379
 7.0000e-001 82764  1.2850e+000  1.5609e+001 -2.1146e-001 56523 82614,82666,82640
 7.0000e-001 82741 -1.3466e+000  7.1443e+000  6.6242e-001 56523 82614,82692,82666
 7.0000e-001 82718  2.9616e+000  8.7763e+000  6.1351e-001 56523 82588,82692,82614
 7.0000e-001 83368 -1.2502e+001 -7.8039e-001  3.0781e+000 55969 82973,83155,83129
 7.0000e-001 83345 -1.7902e+001 -3.5033e+000 -1.7022e+000 55969 82973,83181,83155
 7.0000e-001 83322 -5.3378e+000  3.2413e+000  8.8198e-001 55969 82973,83129,82999
 7.0000e-001 83299  1.8648e+000  4.4974e+000 -2.6170e+000 55969 83391,83025,82999
 7.0000e-001 83276 -7.4946e+000  2.2995e+000  1.0080e+000 55969 83391,82999,83129
 7.0000e-001 83253 -9.2295e+000  7.3771e-001  4.3841e+000 55969 83077,83129,83103
 7.0000e-001 83230 -1.4608e+001 -3.2724e+000  1.2269e+000 55969 83025,83077,83051
 7.0000e-001 83207 -4.8152e+000  1.7323e+000 -3.0434e+000 55969 82947,83181,82973
 7.0000e-001 83417 -7.7883e+000  1.8856e+000 -1.0525e+000 55969 83077,83025,83391
 7.0000e-001 83440 -1.1402e+001  3.6523e+000  2.5703e+000 55969 83077,83391,83129
 7.0000e-001 83946 -1.9957e+000  3.2548e+000 -3.1791e+000 55771 83969,83779,83727
 7.0000e-001 83923 -2.0594e+000  4.9655e+000  6.9474e-001 55771 83969,83727,83623
 7.0000e-001 83900 -6.2998e+000  2.8735e+000  2.0739e+000 55771 83623,83727,83649
 7.0000e-001 83877  4.1354e+000  2.4550e+000 -1.7717e+000 55771 83727,83779,83753
 7.0000e-001 83854 -1.1586e+001 -2.4229e+000  7.9548e-003 55771 83675,83727,83701
 7.0000e-001 83831 -9.6808e+000  1.6769e+000  2.0072e+000 55771 83649,83727,83675
 7.0000e-001 83995 -4.9280e+000  1.7664e+000 -4.3872e+000 55771 83805,83779,83969
 7.0000e-001 84018 -6.5769e+000  3.5272e+000 -4.0184e-001 55771 83805,83969,83623
 7.0000e-001 84168 -7.2337e+000  1.2368e+001  3.2515e-001 55367 84191,84067,84041
 7.0000e-001 84145 -8.2058e+000  1.4136e+001  4.3989e-001 55367 84191,84041,84119
 7.0000e-001 84217 -7.8077e+000  1.2184e+001  1.4127e-001 55367 84093,84067,84191
 7.0000e-001 84240 -1.0371e+001  1.2508e+001 -2.8505e-001 55367 84093,84191,84119
 7.0000e-001 84571  3.1928e+000  1.1564e+000  7.8928e-001 54913 84398,84450,84424
 7.0000e-001 84548 -1.9590e+000 -5.2222e+000 -2.5794e+000 54913 84372,84450,84398
 7.0000e-001 84525  3.9058e+000 -5.1116e+000  2.6841e-001 54913 84346,84450,84372
 7.0000e-001 84502  6.9676e+000  2.0570e+000  3.4359e-001 54913 84346,84476,84450
 7.0000e-001 85126 -1.7309e+001  1.1022e+000  5.6302e+000 54402 84858,84936,84910
 7.0000e-001 85103 -1.5522e+001  4.6448e-001 -3.1159e+000 54402 84806,84936,84858
 7.0000e-001 85080 -1.8120e+001 -2.0910e+000 -4.1843e+000 54402 84780,84936,84806
 7.0000e-001 85057 -3.5818e+001  1.0823e+000 -5.8998e+000 54402 84806,84858,84832
 7.0000e-001 85034 -2.8146e+001 -6.4178e+000 -4.5389e+000 54402 84780,84962,84936
 7.0000e-001 85011 -1.2049e+000 -9.8217e-001  1.0082e+001 54402 84858,84910,84884
 7.0000e-001 84988 -2.3925e+001  5.3100e+000 -4.2006e+000 54402 84754,84962,84780
 7.0000e-001 85396 -7.0768e+000  2.4668e+000  1.8741e+000 53998 85197,85249,85223
 7.0000e-001 85373 -1.0400e+001  6.9599e+000  9.8812e-001 53998 85197,85275,85249
 7.0000e-001 85350 -1.3086e+001  6.3418e+000  2.5264e-001 53998 85171,85275,85197
 7.0000e-001 85327 -1.1664e+001  7.2223e+000 -1.2062e-001 53998 85171,85301,85275
 7.0000e-001 85749 -6.7605e+000  1.0326e+000  5.3491e+000 53636 85524,85628,85550
 7.0000e-001 85726 -1.4625e+001  5.2297e+000  6.4922e+000 53636 85524,85654,85628
 7.0000e-001 85703 -1.2517e+001 -5.2967e+000 -2.0472e-001 53636 85550,85602,85576
 7.0000e-001 85680 -2.3555e+001 -5.9345e+000  4.8855e+000 53636 85550,85628,85602
 7.0000e-001 86127  1.7551e+001  1.1590e+001  2.9715e+000 52982 86150,85957,85879
 7.0000e-001 86104  8.3933e+000  3.7186e+000 -5.0045e-001 52982 86150,85879,85853
 7.0000e-001 86081  2.2809e+001  1.8942e-001  9.2550e-001 52982 85957,86009,85983
 7.0000e-001 86058  1.0148e+001  9.3047e+000  2.8299e+000 52982 85879,85957,85931
 7.0000e-001 86035  1.0893e+001  9.7612e+000  2.0817e+000 52982 85879,85931,85905
 7.0000e-001 86176  2.3948e+001  3.0004e+000  1.6744e+000 52982 86009,85957,86150
 7.0000e-001 86199  1.8479e+001 -2.8921e+000 -5.9510e-001 52982 86009,86150,85853
 7.0000e-001 86398 -1.2453e+001 -1.3046e+000  1.1023e+000 52542 86421,86248,86222
 7.0000e-001 86375 -1.1174e+001  6.4053e-001  1.6568e+000 52542 86421,86222,86300
 7.0000e-001 86352 -7.6304e+000  7.1913e+000  2.2716e-001 52542 86222,86326,86300
 7.0000e-001 86447 -1.4658e+001 -3.2852e-001 -7.8847e-001 52542 86274,86248,86421
 7.0000e-001 86470 -1.2797e+001  2.7718e+000 -1.3464e-002 52542 86274,86421,86300
 7.0000e-001 86669 -1.3081e+001 -1.2959e+000  2.0356e+000 52230 86692,86571,86545
 7.0000e-001 86646 -1.0243e+001  4.8296e+000  1.4569e-001 52230 86692,86545,86519
 7.0000e-001 86623 -3.5638e+000  5.5534e+000 -4.3969e+000 52230 86493,86597,86519
 7.0000e-001 86718 -1.1197e+001 -1.6001e+000 -3.2398e+000 52230 86597,86571,86692
 7.0000e-001 86741 -7.0975e+000  5.1219e+000 -5.4524e+000 52230 86597,86692,86519
 7.0000e-001 87153  3.0150e+001  3.5979e-002 -5.9542e+000 51640 86980,87058,87032
 7.0000e-001 87130  1.0151e+000  9.5658e+000 -2.8867e+000 51640 86928,87058,86980
 7.0000e-001 87107 -1.8768e+000  2.6653e+000 -2.3547e+000 51640 86928,86980,86954
 7.0000e-001 87084  2.9860e+001 -3.4648e-001 -1.6433e+001 51640 86980,87032,87006
 7.0000e-001 87659 -4.6372e+000 -2.4545e+000  3.4407e+000 51029 87682,87440,87362
 7.0000e-001 87636 -2.5280e+001 -6.1536e+000  1.1357e+001 51029 87682,87362,87336
 7.0000e-001 87613  3.2721e+000 -7.6966e-001  1.7185e+000 51029 87440,87518,87466
 7.0000e-001 87590 -9.7114e+000 -1.4185e+000  3.4141e+000 51029 87362,87440,87414
 7.0000e-001 87567 -1.5465e+001 -1.1854e+001  1.8684e+001 51029 87362,87414,87388
 7.0000e-001 87544  2.8589e+000  1.0226e+000  1.8934e+000 51029 87466,87518,87492
 7.0000e-001 87708  5.2713e-001 -2.1552e+000 -9.4448e-001 51029 87518,87440,87682
 7.0000e-001 87731 -7.9414e+000  7.3534e+000  3.9092e+000 51029 87518,87682,87336
 7.0000e-001 87881 -1.0372e+001  3.6574e+000  2.6574e-001 50739 87780,87832,87806
 7.0000e-001 87858 -8.1042e+000  1.1595e+001 -3.3972e-001 50739 87754,87832,87780
 7.0000e-001 88468 -5.2973e+000 -7.7818e-001  4.1669e+000 50235 88171,88327,88197
 7.0000e-001 88445 -1.6176e+000  6.7352e-001  5.6200e+000 50235 88145,88327,88171
 7.0000e-001 88422 -3.2015e+000 -2.7418e+000  8.2354e+000 50235 88275,88327,88301
 7.0000e-001 88399 -3.2924e+000 -2.7592e+000  2.8383e+000 50235 88197,88327,88275
 7.0000e-001 88376  9.2417e-001  7.2836e+000  5.4258e+000 50235 88197,88275,88223
 7.0000e-001 88353 -1.6654e-001  1.3018e+001  9.0120e+000 50235 88223,88275,88249
 7.0000e-001 88895 -8.0740e+000  1.6928e+001 -4.0905e+000 49873 88918,88728,88676
 7.0000e-001 88872 -9.0503e+000  1.4464e+001 -3.9579e+000 49873 88918,88676,88624
 7.0000e-001 88849 -4.0240e+000  1.0486e+001 -1.7982e-002 49873 88598,88754,88624
 7.0000e-001 88826 -2.7767e+000  2.3495e+001 -1.2508e+001 49873 88624,88676,88650
 7.0000e-001 88803 -1.0823e+001  3.7297e+001 -3.8105e+000 49873 88676,88728,88702
 7.0000e-001 88780 -1.5291e+001  1.3158e+001  2.5482e+000 49873 88572,88754,88598
 7.0000e-001 88944 -8.7977e+000  1.7389e+001 -2.6211e+000 49873 88754,88728,88918
 7.0000e-001 88967 -9.3477e+000  1.5949e+001 -2.7304e+000 49873 88754,88918,88624
 7.0000e-001 89473  1.4311e+000  7.9409e+000  5.0699e+000 49583 89176,89306,89202
 7.0000e-001 89450 -1.0051e+001  4.5252e+000  1.9870e+000 49583 89176,89332,89306
 7.0000e-001 89427 -4.2871e+000  4.3575e+000  1.1751e+000 49583 89496,89228,89202
 7.0000e-001 89404 -6.2746e+000  4.3884e+000  1.2320e+000 49583 89496,89202,89280
 7.0000e-001 89381 -2.0683e+000  7.2635e+000  4.3709e+000 49583 89202,89306,89280
 7.0000e-001 89358 -8.9435e+000  1.4719e+000 -1.6027e-001 49583 89150,89332,89176
 7.0000e-001 89522 -6.3037e+000  5.5161e+000 -6.8308e-001 49583 89254,89228,89496
 7.0000e-001 89545 -8.4015e+000  5.2743e+000  1.0035e+000 49583 89254,89496,89280
 7.0000e-001 89825 -7.1970e+000  4.8537e+000  1.1573e+000 49179 89701,89753,89727
 7.0000e-001 89802 -5.9472e+000  4.7305e+000  9.6842e-001 49179 89675,89753,89701
 7.0000e-001 89779 -6.0269e+000  4.6571e+000  7.8920e-001 49179 89848,89753,89675
 7.0000e-001 89874  2.2860e+000  8.4026e+000  3.2629e+000 49179 89649,89753,89848
 7.0000e-001 90223 -9.8746e+000 -4.8682e+000 -1.3273e+000 48739 90024,90102,90076
 7.0000e-001 90200 -1.2785e+001 -5.2266e+000 -3.4611e-001 48739 90024,90128,90102
 7.0000e-001 90177 -1.2705e+001 -1.1264e+001  1.5743e+000 48739 90024,90076,90050
 7.0000e-001 90154 -1.1810e+001  3.7266e+000 -4.9730e-001 48739 89998,90128,90024
 7.0000e-001 90603 -4.3387e-001 -1.2178e+001  2.8210e+000 48335 90381,90485,90459
 7.0000e-001 90580 -8.5860e-001 -9.4661e-002 -1.2779e-001 48335 90355,90485,90381
 7.0000e-001 90557 -4.1537e-001 -2.3437e+001  1.7050e+000 48335 90381,90433,90407
 7.0000e-001 90534 -6.3120e+000 -1.1969e+001  5.5637e+000 48335 90381,90459,90433
 7.0000e-001 90511 -2.6992e-001  4.2333e-001  2.6775e-001 48335 90329,90485,90355
 7.0000e-001 90753  2.2267e+001  9.5432e+000  1.3287e+001 47824 90776,90652,90704
 7.0000e-001 90730  1.5233e+001  5.4545e+000  5.1629e+000 47824 90626,90704,90652
 7.0000e-001 90802  2.0140e+001  1.1754e+001  1.3870e+001 47824 90678,90652,90776
 7.0000e-001 91131 -9.7457e+000  1.3162e+001 -7.6195e-002 47427 91154,90958,90906
 7.0000e-001 91108 -1.0159e+000  1.7259e+001 -4.3634e+000 47427 91154,90906,91036
 7.0000e-001 91085 -5.0420e+000  7.6990e-001  4.2081e+000 47427 90958,91010,90984
 7.0000e-001 91062 -2.1988e+001  8.8855e+000  6.8477e+000 47427 90906,90958,90932
 7.0000e-001 91180 -5.9507e+000  8.0242e+000  6.1017e+000 47427 91010,90958,91154
 7.0000e-001 91203  2.0114e+000  1.1361e+001  1.9163e+000 47427 91010,91154,91036
 7.0000e-001 91583 -1.8551e+001 -1.4126e+001 -9.4602e-001 46873 91309,91439,91335
 7.0000e-001 91560 -1.6053e+001 -3.6217e+000 -2.6415e+000 46873 91309,91465,91439
 7.0000e-001 91537 -1.2613e+001 -1.3430e+001  1.8723e+000 46873 91361,91439,91413
 7.0000e-001 91514 -1.5109e+001 -1.2574e+001 -4.1251e-001 46873 91335,91439,91361
 7.0000e-001 91491 -8.7493e+000 -8.8363e+000  4.5737e+000 46873 91361,91413,91387
 7.0000e-001 91880 -8.0980e+000  5.2374e+000  3.0708e+000 46526 91606,91710,91658
 7.0000e-001 91857 -9.8728e+000  8.4434e+000  5.3993e-001 46526 91606,91762,91710
 7.0000e-001 91834 -1.2334e+001  2.3889e+000  5.8415e+000 46526 91606,91658,91632
 7.0000e-001 91811 -7.0422e+000  2.9374e-001  3.2516e-001 46526 91658,91710,91684
 7.0000e-001 91788 -1.2132e+001  1.5923e+000 -4.2538e-002 46526 91710,91762,91736
 7.0000e-001 92211  8.9705e+000 -1.5858e+001  5.3495e+000 45700 91986,92064,92038
 7.0000e-001 92188  8.8943e+000 -1.1985e+001  5.0571e+000 45700 91986,92116,92064
 7.0000e-001 92165  1.4053e+001 -1.4560e+001 -9.3647e+000 45700 91986,92038,92012
 7.0000e-001 92142  1.7657e+001  2.5576e+000  8.7828e+000 45700 92064,92116,92090
 7.0000e-001 92766 -4.0117e+001 -3.0076e+000 -6.9132e+000 45452 92446,92602,92576
 7.0000e-001 92743 -3.6652e+001  1.2441e+000 -5.3064e+000 45452 92420,92602,92446
 7.0000e-001 92720 -2.4383e+001 -4.1849e-001 -5.4660e-001 45452 92789,92524,92498
 7.0000e-001 92697 -3.0039e+001  2.9287e+000 -2.1450e+000 45452 92789,92498,92446
 7.0000e-001 92674 -1.9910e+001  3.3161e+000 -6.4611e+000 45452 92524,92576,92550
 7.0000e-001 92651 -3.6106e+001  2.5836e+000  9.8066e+000 45452 92446,92498,92472
 7.0000e-001 92628 -6.3255e+001 -8.8858e+000 -8.2618e+000 45452 92394,92602,92420
 7.0000e-001 92815 -2.0137e+001  8.2611e-001 -2.2442e+000 45452 92576,92524,92789
 7.0000e-001 92838 -2.5063e+001  4.4214e+000 -3.2339e+000 45452 92576,92789,92446
 7.0000e-001 92939 -6.6491e+000  5.1806e+000  3.6998e+000 44998 92861,92913,92887
 7.0000e-001 93319 -1.2873e+000  1.0614e+001 -7.0786e+000 44601 93123,93201,93149
 7.0000e-001 93296  2.8004e+000  1.2679e+001 -2.7114e+000 44601 93045,93201,93123
 7.0000e-001 93273  3.5590e-001  6.5425e+000 -1.5518e+000 44601 93045,93123,93071
 7.0000e-001 93250  9.4109e-001  6.2939e+000 -2.2445e+000 44601 93071,93123,93097
 7.0000e-001 93227  9.7054e+000  1.7873e+001 -1.2750e+001 44601 93149,93201,93175
 7.0000e-001 93697 -1.8633e+001 -5.5402e+000  2.7015e+000 44026 93720,93553,93527
 7.0000e-001 93674 -1.9769e+001 -7.3267e+000  2.0681e+000 44026 93720,93527,93449
 7.0000e-001 93651 -2.3106e+001 -1.4823e+001  1.4190e+000 44026 93449,93527,93501
 7.0000e-001 93628 -2.2825e+001 -1.8616e+001  1.8218e+001 44026 93423,93579,93449
 7.0000e-001 93605 -2.0563e+001 -1.1642e+001  2.9393e+000 44026 93449,93501,93475
 7.0000e-001 93746 -1.6443e+001 -7.8906e+000  2.5452e+000 44026 93579,93553,93720
 7.0000e-001 93769 -1.8051e+001 -1.0093e+001  1.7258e+000 44026 93579,93720,93449
 7.0000e-001 94066 -3.3205e+000  1.7375e+000  2.5039e+000 43579 94089,93818,93792
 7.0000e-001 94043 -8.2660e+000  6.3145e-001  3.1933e+000 43579 94161,94089,93792
 7.0000e-001 94020 -8.6547e+000  3.0146e-001  4.0536e+000 43579 94161,93792,93948
 7.0000e-001 93997 -8.2268e+000 -1.0624e+000  6.4022e-001 43579 94233,93870,93818
 7.0000e-001 93974 -1.1577e+001  6.2062e-001 -1.5718e+000 43579 93818,93870,93844
 7.0000e-001 94115 -7.9397e+000 -7.9650e-001  1.3583e+000 43579 94233,93818,94089
 7.0000e-001 94138 -5.4408e+000  2.7594e+000  2.0019e+000 43579 93896,94089,93922
 7.0000e-001 94187 -7.8407e+000  2.4263e+000  1.8761e+000 43579 93922,94089,94161
 7.0000e-001 94210 -9.0643e+000  1.8345e+000  2.8526e+000 43579 93922,94161,93948
 7.0000e-001 94259 -8.9970e+000  2.5015e-001  1.9296e+000 43579 93896,93870,94233
 7.0000e-001 94282 -7.3886e+000  8.9460e-001  2.7960e+000 43579 93896,94233,94089
 7.0000e-001 94481 -7.5326e+000  4.3200e+000  4.2267e-001 43239 94305,94383,94357
 7.0000e-001 94458 -8.7797e+000  2.5199e+000 -1.9214e+000 43239 94305,94409,94383
 7.0000e-001 94435 -6.4522e+000  2.8395e+000  1.8756e-001 43239 94305,94357,94331
 7.0000e-001 94633  5.2556e+000  1.0108e+001  3.3543e+000 42827 94656,94532,94506
 7.0000e-001 94610  1.2886e+000  9.2283e+000  1.8210e+000 42827 94728,94656,94506
 7.0000e-001 94682  1.3197e+000  1.1561e+001  2.6072e+000 42827 94558,94532,94656
 7.0000e-001 94705  2.4963e+000  4.1625e+000 -7.9959e-001 42827 94988,94860,94656
 7.0000e-001 94754  1.1502e+000  1.6791e+000 -1.4551e+000 42827 94988,94656,94728
 7.0000e-001 94886  5.4753e+000  7.6654e+000  3.0580e+000 42827 94558,94656,94860
 7.0000e-001 95014  3.4639e+000  1.9557e+000  1.8901e-001 42827 94584,94860,94988
 7.0000e-001 95037  3.2133e+000  1.0552e+000  3.6791e-002 42827 94584,94988,94728
 7.0000e-001 95236 -1.9560e+001 -8.4318e+000  2.5390e+000 42537 95259,95112,95060
 7.0000e-001 95213 -1.1536e+001 -5.4928e+000  1.2321e+000 42537 95259,95060,95164
 7.0000e-001 95190 -1.6783e+001 -4.9981e+000  2.6058e-001 42537 95060,95112,95086
 7.0000e-001 95285 -1.3992e+001 -1.1530e+001  6.9213e+000 42537 95138,95112,95259
 7.0000e-001 95308 -8.0929e+000 -9.6977e+000  6.6443e+000 42537 95138,95259,95164
 7.0000e-001 95816  2.9631e+000 -9.3045e-002  1.4934e+000 41969 95493,95597,95519
 7.0000e-001 95793  6.4075e+000  7.2707e+000  4.3030e-001 41969 95493,95649,95597
 7.0000e-001 95770  3.7678e+000  7.6063e+000 -9.4430e-001 41969 95493,95675,95649
 7.0000e-001 95747  2.1283e+000  1.5402e+001  4.7830e-001 41969 95597,95649,95623
 7.0000e-001 95724  2.0439e+000  1.4476e+001 -5.4378e+000 41969 95519,95597,95571
 7.0000e-001 95701  2.0581e+000  1.7986e+001  6.1316e+000 41969 95519,95571,95545
 7.0000e-001 96371 -7.9732e+000  2.1108e+000  5.2409e+000 41579 96025,96207,96181
 7.0000e-001 96348 -1.0417e+001  1.9102e-001  1.1962e+001 41579 95999,96207,96025
 7.0000e-001 96325 -1.5136e+001  9.0758e-001  5.4827e+000 41579 96129,96181,96155
 7.0000e-001 96302 -1.0483e+001 -8.8858e-001  6.4088e+000 41579 96025,96181,96129
 7.0000e-001 96279 -8.4288e+000 -7.7382e-001  2.6521e+000 41579 96025,96129,96051
 7.0000e-001 96256 -1.9378e+000 -5.2911e-001 -1.2727e+000 41579 96051,96103,96077
 7.0000e-001 96233 -8.1468e+000  1.6396e-001  2.2610e+000 41579 96051,96129,96103
 7.0000e-001 96877 -1.3959e+001  5.1008e+000  1.7890e+000 41182 96972,96900,96632
 7.0000e-001 96854 -1.4499e+001  6.3108e+000  2.2010e+000 41182 96900,96554,96736
 7.0000e-001 96831 -1.2695e+001  3.9241e+000  5.5517e+000 41182 96972,96632,96580
 7.0000e-001 96808 -1.5365e+001  3.8919e+000  1.9645e+000 41182 96632,96684,96658
 7.0000e-001 96785 -9.3226e+000  3.9107e+000  3.8114e-001 41182 96684,96736,96710
 7.0000e-001 96762 -7.0369e+000  8.1951e+000  1.3395e+000 41182 96580,96632,96606
 7.0000e-001 96926 -1.3503e+001  4.5320e+000  1.9258e+000 41182 96684,96632,96900
 7.0000e-001 96949 -9.3778e+000  4.4206e+000  2.2926e+000 41182 96684,96900,96736
 7.0000e-001 96998 -1.9703e+001  3.1961e+000  4.5296e+000 41182 96554,96900,96972
 7.0000e-001 97021 -2.0327e+001 -4.4413e-001  8.6867e+000 41182 96554,96972,96580
 7.0000e-001 97576  8.9267e+000  7.4301e+000 -5.6229e+000 40678 97230,97412,97282
 7.0000e-001 97553  7.4828e+000  7.4986e+000  1.3325e-001 40678 97204,97412,97230
 7.0000e-001 97530  1.9608e+000  5.3669e+000 -4.5949e+000 40678 97282,97360,97308
 7.0000e-001 97507  2.5156e+000  5.1714e+000 -7.0871e+000 40678 97282,97412,97360
 7.0000e-001 97484 -1.2385e+001  1.3721e+001 -1.2571e+001 40678 97308,97360,97334
 7.0000e-001 97461  7.4241e+000  2.3427e+001 -9.1195e+000 40678 97360,97412,97386
 7.0000e-001 97438  8.3239e+000  6.7002e-001 -1.5496e+000 40678 97230,97282,97256
 7.0000e-001 97976 -3.0730e+000  6.4859e+000 -1.4707e+000 40244 97702,97832,97754
 7.0000e-001 97953 -7.7094e+000  4.9657e+000 -2.4976e-001 40244 97702,97858,97832
 7.0000e-001 97930 -3.0869e+000  7.3519e+000  1.4775e+000 40244 97702,97754,97728
 7.0000e-001 97907 -7.9226e+000  1.6051e+001 -2.5908e+000 40244 97780,97832,97806
 7.0000e-001 97884 -1.4278e+001  8.4646e-001 -3.4381e+000 40244 97754,97832,97780
 7.0000e-001 98482 -1.2183e+001  1.1401e+001  1.6824e+000 39690 98505,98185,98159
 7.0000e-001 98459 -1.1232e+001  7.1525e+000  2.2765e+000 39690 98505,98159,98289
 7.0000e-001 98436 -1.4209e+001  3.1049e+000  4.8090e+000 39690 98159,98315,98289
 7.0000e-001 98413 -3.2863e+001 -7.2018e+000  3.9293e+000 39690 98211,98289,98263
 7.0000e-001 98390 -2.5104e+001 -1.8805e+000  7.2881e-001 39690 98211,98263,98237
 7.0000e-001 98367 -6.6189e+000  4.8285e+000  4.3013e+000 39690 98159,98341,98315
 7.0000e-001 98531 -1.0789e+001  9.0543e+000  4.5511e+000 39690 98211,98185,98505
 7.0000e-001 98554 -1.1207e+001  2.0869e+000  4.2644e+000 39690 98211,98505,98289
 7.0000e-001 99109 -1.2513e+001  4.2794e+000  2.2129e+000 39072 99132,98867,98789
 7.0000e-001 99086 -2.4610e+001  1.0163e+000  2.2377e+000 39072 99132,98789,98763
 7.0000e-001 99063 -7.6476e+000  3.4791e-001 -1.1691e+000 39072 98867,98945,98919
 7.0000e-001 99040 -1.6166e+001 -2.9453e+000  6.4914e+000 39072 98789,98867,98841
 7.0000e-001 99017 -3.4148e+000 -2.5884e+000  1.2644e+000 39072 98867,98919,98893
 7.0000e-001 98994 -1.2607e+001  7.1907e+000  6.2607e+000 39072 98789,98841,98815
 7.0000e-001 98971 -1.4663e+001  1.4785e+000 -7.9426e-001 39072 98737,98945,98763
 7.0000e-001 99158 -7.5151e+000  2.4346e-001 -4.0454e-001 39072 98945,98867,99132
 7.0000e-001 99181 -1.2753e+001  2.2312e+000 -9.8847e-001 39072 98945,99132,98763
 7.0000e-001 99510 -1.6109e+001  4.0749e+000  3.1291e+000 38668 99311,99389,99363
 7.0000e-001 99487 -1.4734e+001  4.5409e+000  3.0318e+000 38668 99285,99389,99311
 7.0000e-001 99464 -1.2486e+001  1.1312e+001  1.9242e+000 38668 99285,99415,99389
 7.0000e-001 99441 -1.7139e+001  6.9420e+000  1.5934e+000 38668 99311,99363,99337
 7.0000e-001 99758 -3.8836e+000  2.2104e+000  2.8851e+000 38164 99781,99611,99585
 7.0000e-001 99735  3.3008e+000  1.7829e+000  3.9765e+000 38164 99781,99585,99533
 7.0000e-001 99712 -6.3435e+000  9.2184e+000  3.8195e+000 38164 99611,99663,99637
 7.0000e-001 99689  5.6385e+000  9.5622e+000  5.3092e+000 38164 99533,99585,99559
 7.0000e-001 99807 -7.9077e+000  3.2675e+000  4.8359e+000 38164 99663,99611,99781
 7.0000e-001 99830 -2.7677e+000  1.5926e+000  4.7258e+000 38164 99663,99781,99533
 7.0000e-001 100232 -3.3369e+001 -9.9820e+000 -4.1038e+000 37702 99984,100114,100088
 7.0000e-001 100209 -2.2479e+001  4.2083e+000  1.8522e+000 37702 99958,100114,99984
 7.0000e-001 100186 -1.6744e+001  5.9444e-001 -4.1250e-001 37702 100010,100088,100036
 7.0000e-001 100163 -2.2459e+001 -5.1408e+000 -2.7779e+000 37702 99984,100088,100010
 7.0000e-001 100140 -1.9809e+001 -6.9952e+000 -3.7710e-001 37702 100036,100088,100062
 7.0000e-001 100640  3.8172e-001  6.9334e+000  6.7988e+000 37262 100493,100545,100519
 7.0000e-001 100617  1.0826e+000 -1.2224e+000  2.9087e+000 37262 100441,100545,100493
 7.0000e-001 100594 -1.4262e+000 -3.7917e+000  5.3875e+000 37262 100415,100545,100441
 7.0000e-001 100571  6.0539e+000  4.1932e+000  9.7401e+000 37262 100441,100493,100467
 7.0000e-001 101146 -1.6762e+000  2.4511e+000 -3.2905e-001 36872 100823,100979,100849
 7.0000e-001 101123 -2.7722e+000 -4.2412e-001  4.3149e-001 36872 100823,101005,100979
 7.0000e-001 101100 -1.7914e+000  7.2113e+000 -3.7337e+000 36872 101169,100901,100849
 7.0000e-001 101077 -2.5392e+000  5.8406e+000 -2.5915e+000 36872 101169,100849,100979
 7.0000e-001 101054 -8.6729e+000  1.2388e+001 -4.9340e+000 36872 100927,100979,100953
 7.0000e-001 101031  9.4084e+000  4.7784e+000 -2.4855e-001 36872 100849,100901,100875
 7.0000e-001 101195 -3.3759e+000  7.4195e+000 -2.7857e+000 36872 100927,100901,101169
 7.0000e-001 101218 -3.9234e+000  6.7495e+000 -1.7787e+000 36872 100927,101169,100979
 7.0000e-001 101773 -1.6662e+001  7.5901e+000  7.9971e+000 36418 101479,101609,101583
 7.0000e-001 101750 -2.8158e+001  1.4675e+001 -6.0442e+000 36418 101453,101609,101479
 7.0000e-001 101727 -1.3637e+001 -2.3999e+000 -7.3772e+000 36418 101796,101531,101479
 7.0000e-001 101704 -5.9523e+000 -3.8629e+000  5.6440e-001 36418 101796,101479,101583
 7.0000e-001 101681 -4.6246e+001 -7.7006e+000  9.4143e+000 36418 101479,101531,101505
 7.0000e-001 101658 -3.8864e+001  4.0619e+000 -1.4695e+001 36418 101401,101609,101453
 7.0000e-001 101635  4.0704e+000  1.0508e+001 -9.0806e+000 36418 101401,101453,101427
 7.0000e-001 101822 -8.6728e+000 -1.8837e-002  1.5264e+000 36418 101557,101531,101796
 7.0000e-001 101845  7.8810e+000  1.1614e+001  1.1540e+001 36418 101557,101796,101583
 7.0000e-001 102174  1.4393e+001  1.2998e+001 -4.4838e+000 35914 101949,102053,101975
 7.0000e-001 102151  1.3955e+001  1.0125e+001 -3.7143e+000 35914 101949,102079,102053
 7.0000e-001 102128  6.3418e+000  9.7637e+000 -5.7921e+000 35914 101975,102053,102027
 7.0000e-001 102105  1.7128e+001  1.5400e+001 -1.1915e+001 35914 101975,102027,102001
 7.0000e-001 102631 -1.5088e+001  6.9908e+000  2.2306e-001 35574 102383,102513,102487
 7.0000e-001 102608 -1.2170e+001  3.8753e+000 -3.2040e-001 35574 102357,102513,102383
 7.0000e-001 102585 -9.4219e+000  1.3225e+001 -1.8338e+000 35574 102409,102487,102435
 7.0000e-001 102562 -7.8929e+000  1.1444e+001 -2.8715e+000 35574 102383,102487,102409
 7.0000e-001 102539 -6.4787e+000  2.1397e+001 -1.9539e+000 35574 102435,102487,102461
 7.0000e-001 103009 -3.2199e+000  7.3935e+000 -4.9301e-001 35170 102761,102865,102787
 7.0000e-001 102986 -1.0091e+001  4.3179e+000 -1.4172e+000 35170 102761,102891,102865
 7.0000e-001 102963 -6.6108e+000  4.9738e+000 -2.7079e+000 35170 102787,102865,102813
 7.0000e-001 102940 -9.9005e+000  5.2177e+000 -1.1192e+000 35170 102735,102891,102761
 7.0000e-001 102917 -1.7042e-001  2.0281e+001 -2.0718e+000 35170 102813,102865,102839
 7.0000e-001 103257  3.8073e+000  7.2799e+000  1.6477e+000 34659 103280,103058,103032
 7.0000e-001 103234  1.5835e+000  4.1725e+000  3.1729e+000 34659 103280,103032,103162
 7.0000e-001 103211 -4.7913e+000  3.2610e+000  3.1730e+000 34659 103084,103162,103110
 7.0000e-001 103188 -3.8899e+000  9.1291e+000  5.7602e+000 34659 103110,103162,103136
 7.0000e-001 103306  6.5834e-001  1.1078e+001  3.0902e+000 34659 103084,103058,103280
 7.0000e-001 103329 -1.2965e+000  7.4027e+000  4.7548e+000 34659 103084,103280,103162
 7.0000e-001 103837 -2.3587e+001  9.9341e+000 -2.8490e+000 34247 103860,103566,103540
 7.0000e-001 103814 -1.3943e+001  1.2496e+001 -1.9958e-001 34247 103932,103860,103540
 7.0000e-001 103791 -1.2661e+001  1.4493e+001  1.2726e+000 34247 103932,103540,103670
 7.0000e-001 103768 -1.6607e+001  1.7964e+001  4.2162e+000 34247 103566,103618,103592
 7.0000e-001 103745 -9.5942e+000  8.0055e+000  7.1895e-001 34247 103540,103696,103670
 7.0000e-001 103722 -9.1696e+000  9.8090e+000  1.8544e+000 34247 103514,103696,103540
 7.0000e-001 103886 -1.5378e+001  1.5680e+001  3.8796e-001 34247 103618,103566,103860
 7.0000e-001 103909 -1.7101e+001  1.2808e+001  1.8648e+000 34247 103618,103860,103644
 7.0000e-001 103958 -1.3832e+001  1.6817e+001  3.3361e+000 34247 103644,103860,103932
 7.0000e-001 103981 -1.2053e+001  1.8942e+001  4.9195e+000 34247 103644,103932,103670
 7.0000e-001 104300 -1.8748e+001  1.1531e+001 -2.8140e+000 33843 104052,104182,104156
 7.0000e-001 104277 -1.5714e+001  1.5569e+001 -1.0607e+000 33843 104026,104182,104052
 7.0000e-001 104254 -3.3806e+001  2.5194e+001 -7.3784e+000 33843 104078,104156,104130
 7.0000e-001 104231 -2.3637e+001  1.6120e+001 -5.2138e+000 33843 104052,104156,104078
 7.0000e-001 104208 -6.3472e+001 -3.4408e-001  5.1187e+000 33843 104078,104130,104104
 7.0000e-001 104499 -7.1589e+000  1.6788e+001  1.6847e+000 33282 104594,104522,104375
 7.0000e-001 104476 -7.5700e+000  1.3398e+001  4.3396e-001 33282 104522,104323,104427
 7.0000e-001 104453 -8.3799e+000  1.8711e+001  1.2583e+000 33282 104594,104375,104349
 7.0000e-001 104548 -1.0370e+001  1.1811e+001  3.1359e+000 33282 104401,104375,104522
 7.0000e-001 104571 -7.6096e+000  1.3819e+001  9.0928e-001 33282 104401,104522,104427
 7.0000e-001 104620 -7.8757e+000  1.2805e+001  8.4890e-001 33282 104323,104522,104594
 7.0000e-001 104643 -8.4046e+000  1.5543e+001  7.3065e-001 33282 104323,104594,104349
 7.0000e-001 104942 -2.5260e+001 -5.9634e+000  8.4602e+000 32728 104694,104772,104720
 7.0000e-001 104919 -1.9783e+001 -2.1679e+000  5.9604e+000 32728 104694,104824,104772
 7.0000e-001 104896 -3.4079e+001 -1.4256e+000  8.7506e+000 32728 104720,104772,104746
 7.0000e-001 104873 -3.1911e+001 -9.3513e+000  9.9204e+000 32728 104772,104824,104798
 7.0000e-001 104850 -1.8718e+001  1.1175e+000  7.9087e+000 32728 104668,104824,104694
 7.0000e-001 105373 -1.0039e+001  1.2013e+001  5.8735e-001 32274 105396,105102,105076
 7.0000e-001 105350 -1.2758e+000  1.5960e+001 -1.6892e+000 32274 105396,105076,105206
 7.0000e-001 105327  2.1777e+000 -1.2796e+000  4.3479e+000 32274 105154,105206,105180
 7.0000e-001 105304 -7.7087e+000  7.0007e+000 -1.5660e+001 32274 105076,105232,105206
 7.0000e-001 105281 -7.3975e+000  4.1100e+000  1.3182e+001 32274 105102,105154,105128
 7.0000e-001 105258 -1.6574e+001  5.0229e+000 -1.8283e+001 32274 105050,105232,105076
 7.0000e-001 105422 -8.0824e-001  6.5773e+000  1.8865e+000 32274 105154,105102,105396
 7.0000e-001 105445  6.3621e+000  9.4362e+000 -2.9079e-001 32274 105154,105396,105206
 7.0000e-001 105644  8.8346e+000  3.1535e+001 -6.7488e-001 31620 105468,105546,105520
 7.0000e-001 105621  1.2399e+001  2.3793e+001 -2.5708e+000 31620 105468,105572,105546
 7.0000e-001 105598  6.3116e+000  2.6283e+001 -1.4895e+000 31620 105468,105520,105494
 7.0000e-001 105794 -1.8309e+001  1.7660e+001 -7.0340e-001 31158 105889,105817,105693
 7.0000e-001 105771 -2.0551e+001  2.3614e+001  3.3882e-001 31158 105817,105667,105745
 7.0000e-001 105843 -2.0075e+001  1.4158e+001 -1.3312e+000 31158 105719,105693,105817
 7.0000e-001 105866 -2.3557e+001  1.8359e+001 -1.1444e+000 31158 105719,105817,105745
 7.0000e-001 105915 -2.0883e+001  1.6556e+001 -7.3186e-001 31158 105667,105817,105889
 7.0000e-001 106270  1.8561e+000 -3.7855e+000  2.4756e+000 30818 106293,106071,106045
 7.0000e-001 106247  5.4703e+000  4.1971e+000  8.8943e+000 30818 106293,106045,106175
 7.0000e-001 106224 -1.5878e+000  3.7884e-001  5.1288e+000 30818 106123,106175,106149
 7.0000e-001 106201 -5.0454e+000 -4.3452e+000 -2.1337e+000 30818 106071,106123,106097
 7.0000e-001 106319 -4.8535e-001 -7.0118e+000  2.4865e-001 30818 106123,106071,106293
 7.0000e-001 106342 -1.6274e+000 -2.9195e+000  5.6447e+000 30818 106123,106293,106175
 7.0000e-001 106492 -3.5134e+000  2.9550e+000 -2.0381e-001 30414 106645,106391,106365
 7.0000e-001 106469  1.2675e+001  7.6855e+000 -5.4388e+000 30414 106515,106365,106443
 7.0000e-001 106541  7.7414e-001  2.3683e+000  2.5895e-001 30414 106645,106365,106515
 7.0000e-001 106671  2.7725e+000 -4.0636e+000  5.1306e+000 30414 106417,106391,106645
 7.0000e-001 106694  1.3814e+001 -2.2898e-001  3.2219e+000 30414 106417,106645,106515
 7.0000e-001 106942 -7.0678e+000  1.2762e+001 -3.0995e+000 29910 106965,106795,106769
 7.0000e-001 106919 -6.0952e+000  1.4213e+001 -2.5798e+000 29910 106965,106769,106717
 7.0000e-001 106896 -8.0151e+000  1.4031e+001 -8.4113e+000 29910 106795,106847,106821
 7.0000e-001 106873 -3.3838e+000  1.6535e+001  2.3005e+000 29910 106717,106769,106743
 7.0000e-001 106991 -8.3845e+000  1.4588e+001 -2.7251e+000 29910 106847,106795,106965
 7.0000e-001 107014 -7.1488e+000  1.6468e+001 -2.1473e+000 29910 106847,106965,106717
 7.0000e-001 107213 -6.3838e+000  5.0243e-001  9.5553e+000 29413 107236,107063,107037
 7.0000e-001 107190 -4.8159e+000  2.2548e+000  8.8263e+000 29413 107236,107037,107141
 7.0000e-001 107167 -1.4848e+001 -5.0216e-001  1.2492e+001 29413 107063,107115,107089
 7.0000e-001 107262 -5.5636e+000 -1.1504e+000  1.0770e+001 29413 107115,107063,107236
 7.0000e-001 107285 -4.2055e+000  2.9810e-001  1.0096e+001 29413 107115,107236,107141
 7.0000e-001 107486 -1.3938e+000  5.8734e+000  4.8264e+000 29009 107336,107388,107362
 7.0000e-001 107463  9.1953e+000  1.1480e+001 -7.2824e+000 29009 107310,107388,107336
 7.0000e-001 107440  1.9482e+000  1.0266e+000 -4.0070e+000 29009 107310,107414,107388
 7.0000e-001 107736 -1.6812e+001  6.2390e+000 -5.0690e+000 28491 107537,107615,107563
 7.0000e-001 107713 -1.1288e+001  8.1508e+000 -7.0939e+000 28491 107537,107641,107615
 7.0000e-001 107690 -9.1806e+000  1.0876e+001 -2.2788e+000 28491 107563,107615,107589
 7.0000e-001 107667 -4.4669e+000 -1.6774e+000 -7.0232e+000 28491 107511,107641,107537
 7.0000e-001 108118 -1.9088e+001  6.2166e+000 -9.9049e-001 27980 108141,107922,107844
 7.0000e-001 108095 -2.0167e+001  8.3801e+000 -9.6256e-001 27980 108141,107844,108000
 7.0000e-001 108072 -2.1183e+001  1.4694e+000 -7.4900e-002 27980 107844,107922,107870
 7.0000e-001 108049 -1.7670e+001  6.9020e+000 -1.5886e+000 27980 107870,107922,107896
 7.0000e-001 108026 -1.7660e+001  7.8777e+000 -3.4012e-001 27980 107922,107974,107948
 7.0000e-001 108167 -1.9781e+001  5.9439e+000 -1.3088e+000 27980 107974,107922,108141
 7.0000e-001 108190 -2.2801e+001  6.2114e+000 -1.9319e+000 27980 107974,108141,108000
 7.0000e-001 108745  4.5810e-001  6.2704e+000  1.3345e+001 27376 108840,108768,108477
 7.0000e-001 108722 -8.9087e+000 -8.3276e+000  1.0344e+001 27376 108768,108373,108581
 7.0000e-001 108699  2.4667e+000  1.6480e+001  1.5659e+001 27376 108840,108477,108451
 7.0000e-001 108676  3.0130e-001  5.3404e+000  9.3001e+000 27376 108373,108451,108399
 7.0000e-001 108653 -4.9319e+000 -3.9294e-002 -2.2294e+000 27376 108503,108581,108529
 7.0000e-001 108630  5.1039e-001 -1.0559e+000 -3.6442e+000 27376 108529,108581,108555
 7.0000e-001 108607  3.1719e+000  7.9677e+000  5.4204e+000 27376 108399,108451,108425
 7.0000e-001 108794 -6.7882e+000 -2.7822e+000  8.0304e+000 27376 108503,108477,108768
 7.0000e-001 108817 -1.2283e+001  2.2133e+000  5.5088e+000 27376 108503,108768,108581
 7.0000e-001 108866 -8.1180e-001 -2.6701e+000  6.7900e+000 27376 108373,108768,108840
 7.0000e-001 108889  7.8111e-001  3.1149e+000  1.0439e+001 27376 108373,108840,108451
 7.0000e-001 109186 -8.5801e+000  9.0127e+000  5.2381e-001 26722 109209,108938,108912
 7.0000e-001 109163 -7.9495e+000  1.0943e+001 -9.4441e-001 26722 109281,109209,108912
 7.0000e-001 109140 -1.1460e+001  1.3977e+001  9.6451e-001 26722 109281,108912,109042
 7.0000e-001 109117  7.3106e-001  4.3545e+000 -4.6098e-001 26722 108938,108990,108964
 7.0000e-001 109094 -1.8408e+001  2.1811e+001 -2.1215e+000 26722 108912,109068,109042
 7.0000e-001 109235 -7.8562e-001  9.5179e+000  2.9183e+000 26722 108990,108938,109209
 7.0000e-001 109258 -7.7504e+000  4.2239e+000 -1.9037e-001 26722 108990,109209,109016
 7.0000e-001 109307 -1.3576e+001  7.5050e+000 -2.4626e+000 26722 109016,109209,109281
 7.0000e-001 109330 -1.7877e+001  1.0380e+001 -6.2031e-001 26722 109016,109281,109042
 7.0000e-001 109732 -3.4919e+001  6.8116e+000  4.4024e+000 26310 109458,109588,109484
 7.0000e-001 109709 -2.4699e+001  1.5016e+001 -4.6637e+000 26310 109458,109614,109588
 7.0000e-001 109686 -5.3810e-001  3.0045e+001 -7.4911e+000 26310 109510,109562,109536
 7.0000e-001 109663 -9.0318e+000  2.3393e+001 -2.1818e+000 26310 109484,109562,109510
 7.0000e-001 109640 -2.2572e+001  1.2305e+001  3.3600e+000 26310 109484,109588,109562
 7.0000e-001 110159 -6.4369e+000  4.2106e-001  8.3821e-001 25642 110182,109940,109914
 7.0000e-001 110136 -8.1002e+000 -3.2601e+000  4.8567e-001 25642 110182,109914,109888
 7.0000e-001 110113 -4.2190e+000 -2.6943e+000  7.9779e+000 25642 109966,110018,109992
 7.0000e-001 110090 -1.3159e+001 -1.3226e+000  2.0569e+000 25642 110254,109966,109940
 7.0000e-001 110067 -4.9808e+000 -1.8416e+000 -3.1814e-001 25642 109862,110018,109888
 7.0000e-001 110044 -4.4830e+000 -3.4532e-001  4.0832e-001 25642 109836,110018,109862
 7.0000e-001 110208 -9.9166e+000 -1.3071e+000  1.4709e+000 25642 110254,109940,110182
 7.0000e-001 110231 -3.6097e+000 -1.8928e+000  7.8910e-001 25642 110018,110182,109888
 7.0000e-001 110280 -8.3287e+000 -2.4181e+000  2.6953e+000 25642 110018,109966,110254
 7.0000e-001 110303 -5.4246e+000 -2.6693e+000  2.4303e+000 25642 110018,110254,110182
 7.0000e-001 110632  8.4937e-001  9.3040e+000 -4.1373e+000 25188 110407,110485,110433
 7.0000e-001 110609  9.1490e-001  7.7808e+000 -3.9458e+000 25188 110407,110537,110485
 7.0000e-001 110586 -1.3069e+001  3.5823e+000 -6.6598e-001 25188 110433,110485,110459
 7.0000e-001 110563  7.1781e+000  1.0825e+001  7.1638e+000 25188 110485,110537,110511
 7.0000e-001 110831  5.8695e+000  1.9353e+001 -4.6157e+000 24726 110854,110707,110655
 7.0000e-001 110808  8.3710e+000  1.8521e+001 -3.2851e+000 24726 110854,110655,110759
 7.0000e-001 110785  6.2737e+000  1.2366e+001 -6.4469e+000 24726 110655,110707,110681
 7.0000e-001 110880  7.5949e+000  2.0135e+001 -3.1712e+000 24726 110733,110707,110854
 7.0000e-001 110903  1.0325e+001  1.9962e+001 -1.6545e+000 24726 110733,110854,110759
 7.0000e-001 111234 -6.0582e+000  7.6776e+000 -3.1926e+000 24222 111257,111087,111035
 7.0000e-001 111211 -7.4092e+000  7.0632e+000 -5.2968e+000 24222 111257,111035,111009
 7.0000e-001 111188  2.4140e+000  6.3292e+000 -2.7209e+000 24222 111035,111087,111061
 7.0000e-001 111165 -2.3261e+000  1.1767e+001 -3.4968e+000 24222 111087,111139,111113
 7.0000e-001 111283 -4.9788e+000  5.4669e+000 -4.0279e+000 24222 111139,111087,111257
 7.0000e-001 111306 -5.6003e+000  3.7580e+000 -5.3898e+000 24222 111139,111257,111009
 7.0000e-001 111625 -2.4423e+001 -8.6492e+000  2.9402e+000 23732 111648,111481,111455
 7.0000e-001 111602 -2.2269e+001 -8.6667e+000  1.6493e+000 23732 111648,111455,111377
 7.0000e-001 111579 -2.6114e+001 -1.7691e+001 -6.3938e-001 23732 111377,111429,111403
 7.0000e-001 111556 -2.2830e+001 -9.1154e+000  1.8943e+000 23732 111377,111455,111429
 7.0000e-001 111533 -2.0621e+001 -5.7091e+000  1.7765e+000 23732 111351,111507,111377
 7.0000e-001 111674 -2.0938e+001 -7.6415e+000  3.0949e+000 23732 111507,111481,111648
 7.0000e-001 111697 -2.1011e+001 -8.5312e+000  1.2602e+000 23732 111507,111648,111377
 7.0000e-001 112156 -1.1694e+001 -2.4089e+000  4.0760e+000 23278 112179,111908,111882
 7.0000e-001 112133 -1.2130e+001 -6.7884e-001  1.5137e+000 23278 112179,111882,112012
 7.0000e-001 112110 -4.2830e+000  3.3098e+000  6.2909e-001 23278 111908,111960,111934
 7.0000e-001 112087 -1.5017e+001  8.4272e+000  1.8620e+000 23278 111882,112038,112012
 7.0000e-001 112064 -1.1598e+001  1.6054e+000 -1.7858e-001 23278 111960,112012,111986
 7.0000e-001 112205 -1.0238e+001 -1.1429e+000  2.7229e+000 23278 111960,111908,112179
 7.0000e-001 112228 -9.1464e+000  1.2651e+000 -1.7358e-002 23278 111960,112179,112012
 7.0000e-001 112685 -8.2645e+000 -1.0593e+001  6.1311e+000 22938 112489,112567,112541
 7.0000e-001 112662 -6.2540e+000 -3.6728e+000  3.7420e+000 22938 112437,112567,112489
 7.0000e-001 112639 -1.2141e+001 -2.3332e+000  6.4808e+000 22938 112489,112541,112515
 7.0000e-001 112616 -1.1779e+000 -5.2955e+000  3.4995e+000 22938 112411,112567,112437
 7.0000e-001 112593 -5.6610e+000 -1.2801e+001  6.3643e+000 22938 112437,112489,112463
 7.0000e-001 113191 -1.6591e+001 -9.7564e-002 -2.4503e+000 22534 113214,112998,112946
 7.0000e-001 113168 -1.9745e+001  1.3122e-001 -1.0966e+000 22534 113286,113214,112946
 7.0000e-001 113145 -1.6568e+001 -7.4349e-001  1.9773e-001 22534 113286,112946,112920
 7.0000e-001 113122 -2.5661e+001  4.0364e+000 -3.2321e+000 22534 113358,113024,112998
 7.0000e-001 113099 -1.1782e+001  8.1051e+000  1.8796e+000 22534 112868,113050,112894
 7.0000e-001 113076 -2.5878e+001 -1.9254e+001 -7.0283e+000 22534 112946,112998,112972
 7.0000e-001 113240 -2.2742e+001 -1.0797e+000 -3.6100e+000 22534 113358,112998,113214
 7.0000e-001 113263 -1.9029e+001  2.0870e+000 -8.5830e-001 22534 113050,113214,112894
 7.0000e-001 113312 -1.6469e+001  3.0326e+000  1.3661e-001 22534 112894,113214,113286
 7.0000e-001 113335 -1.3910e+001  1.1029e+000  1.0117e+000 22534 112894,113286,112920
 7.0000e-001 113384 -2.2196e+001  8.0364e+000 -1.6168e+000 22534 113050,113024,113358
 7.0000e-001 113407 -1.7765e+001  4.0901e+000 -1.5240e+000 22534 113050,113358,113214
 7.0000e-001 113785  3.9766e+000  3.7777e+000  4.4117e+000 21978 113808,113615,113511
 7.0000e-001 113762  2.8431e+000  3.0449e+000  4.7897e+000 21978 113808,113511,113667
 7.0000e-001 113739  9.3364e+000  2.5974e+000  2.7422e+000 21978 113511,113615,113537
 7.0000e-001 113716  8.6688e+000 -1.0476e+000 -1.9106e+000 21978 113537,113615,113589
 7.0000e-001 113693  7.4300e+000 -7.4201e-001 -1.5879e+000 21978 113537,113589,113563
 7.0000e-001 113834  4.5999e+000  4.6696e+000  2.6770e+000 21978 113641,113615,113808
 7.0000e-001 113857  1.7401e+000  3.3895e+000  3.0934e+000 21978 113641,113808,113667
 7.0000e-001 114284 -5.3512e+000  4.9983e+000 -2.0058e+000 21517 114013,114117,114039
 7.0000e-001 114261 -5.4183e+000  4.9467e+000 -2.0639e+000 21517 113961,114117,114013
 7.0000e-001 114238 -6.2478e+000  9.6002e+000 -1.7095e+000 21517 113961,114013,113987
 7.0000e-001 114215 -2.1620e+000  3.1082e+000 -2.4309e-001 21517 114039,114117,114091
 7.0000e-001 114192 -6.5311e+000  4.6471e+000 -1.4753e+000 21517 113961,114143,114117
 7.0000e-001 114169 -1.8384e+000  6.3178e+000  3.4240e+000 21517 114039,114091,114065
 7.0000e-001 114581 -2.4671e+001 -9.2411e+000  1.6185e+000 21027 114359,114463,114437
 7.0000e-001 114558 -2.1849e+001 -1.0449e+001 -2.4138e+000 21027 114333,114463,114359
 7.0000e-001 114535 -2.2791e+001 -8.4100e+000  1.0615e+000 21027 114359,114437,114385
 7.0000e-001 114512 -2.3131e+001 -1.1641e+001 -4.6049e+000 21027 114307,114463,114333
 7.0000e-001 114489 -3.0695e+001 -9.0045e+000  7.5808e-001 21027 114385,114437,114411
 7.0000e-001 114912  3.0526e+000  6.2161e+000  4.7403e-001 20623 114713,114791,114765
 7.0000e-001 114889 -2.4981e+000  3.9107e+000  3.6347e+000 20623 114687,114791,114713
 7.0000e-001 114866 -2.7441e+000  1.1046e+001  2.6624e+000 20623 114687,114817,114791
 7.0000e-001 114843 -1.1929e+000 -1.0154e+000  2.3701e+000 20623 114713,114765,114739
 7.0000e-001 115290 -5.1139e-001  5.6137e+000 -3.3729e+000 20375 115313,115146,115094
 7.0000e-001 115267 -2.5897e+000  4.2077e+000 -2.3818e+000 20375 115313,115094,115042
 7.0000e-001 115244 -3.8592e+000  9.9690e+000 -3.7101e+000 20375 115385,115016,115172
 7.0000e-001 115221 -5.3899e+000  2.5645e+000 -1.6570e+000 20375 115042,115094,115068
 7.0000e-001 115198  3.7421e-001  3.6547e+000  5.6244e-001 20375 115094,115146,115120
 7.0000e-001 115339 -6.0834e+000  5.7730e-001 -5.8174e+000 20375 115172,115146,115313
 7.0000e-001 115362 -2.0245e+000  7.9944e+000 -4.0281e+000 20375 115385,115172,115313
 7.0000e-001 115411 -3.5189e+000  8.3382e+000 -1.9206e+000 20375 115042,115016,115385
 7.0000e-001 115434 -3.2669e+000  4.9422e+000 -1.8043e+000 20375 115042,115385,115313
 7.0000e-001 115891 -8.9540e+000  4.6498e+000 -5.5273e+000 19971 115617,115747,115643
 7.0000e-001 115868 -1.2841e+001  3.7491e+000 -1.7945e+001 19971 115617,115773,115747
 7.0000e-001 115845 -3.2413e+000  2.1787e+000 -4.1658e+000 19971 115643,115721,115695
 7.0000e-001 115822 -3.6466e+000  4.9459e-002 -4.8332e+000 19971 115643,115747,115721
 7.0000e-001 115799  4.2121e+000  6.1990e+000 -2.4713e+000 19971 115643,115695,115669
 7.0000e-001 115992 -2.3187e+001 -8.7030e+000  4.0070e+000 19659 115914,115966,115940
 7.0000e-001 116142 -3.1168e+001 -1.4734e+001 -2.7963e-001 18997 116041,116093,116067
 7.0000e-001 116119 -3.0873e+001 -1.6331e+001  3.0658e+000 18997 116015,116093,116041
 7.0000e-001 116343 -2.0065e+000  1.8268e+000 -5.4522e-001 18707 116193,116245,116219
 7.0000e-001 116320 -3.7708e+000 -4.5791e-001 -2.6713e+000 18707 116193,116271,116245
 7.0000e-001 116297  2.7075e+000  1.3362e+001 -7.8807e-001 18707 116167,116271,116193
 7.0000e-001 116747 -1.0701e+001  2.9573e+000  4.0817e-001 18301 116525,116629,116551
 7.0000e-001 116724 -4.4389e+000  2.1624e+000  1.8094e+000 18301 116473,116629,116525
 7.0000e-001 116701 -4.0979e+000  2.3933e+000  1.1207e+000 18301 116473,116525,116499
 7.0000e-001 116678 -1.2950e+001  4.2844e+000  1.5978e-001 18301 116551,116603,116577
 7.0000e-001 116655 -9.2351e+000  6.4120e+000  1.1623e+000 18301 116551,116629,116603
 7.0000e-001 117147 -1.1341e+001 -4.6854e+000  4.3608e-001 17747 116899,117029,116925
 7.0000e-001 117124 -1.2602e+001 -9.4383e+000 -1.1864e+000 17747 116873,117029,116899
 7.0000e-001 117101 -1.2189e+001 -4.5257e+000 -4.1713e-002 17747 116925,117029,116951
 7.0000e-001 117078 -1.3318e+001 -8.8071e+000 -1.1517e+000 17747 116951,117029,117003
 7.0000e-001 117055 -7.4322e+000 -2.9115e+000  1.2280e+000 17747 116951,117003,116977
 7.0000e-001 117368 -2.0815e+001  3.3095e+000 -3.4032e+000 17293 117244,117296,117270
 7.0000e-001 117345 -1.4777e+001  1.0311e+001 -8.1935e-001 17293 117192,117296,117244
 7.0000e-001 117322 -1.3639e+001  4.9141e+000  2.5981e-001 17293 117192,117244,117218
 7.0000e-001 117699 -1.9540e+001 -6.6307e+000  5.3798e-001 16896 117526,117604,117552
 7.0000e-001 117676 -1.3147e+001 -5.3436e+000 -8.2991e-001 16896 117500,117604,117526
 7.0000e-001 117653 -1.5877e+001 -8.9479e+000  2.5418e+000 16896 117552,117604,117578
 7.0000e-001 117630 -1.1958e+001 -7.5529e+000  3.1795e-002 16896 117474,117604,117500
 7.0000e-001 117849 -3.2310e+001 -9.7631e-001  3.3316e+000 16534 117722,117774,117748
 7.0000e-001 117826 -2.5843e+001  2.4350e+001  3.6462e+000 16534 117722,117800,117774
 7.0000e-001 118070 -4.8932e+000  5.7775e-001 -9.9434e-001 16194 117946,117998,117972
 7.0000e-001 118047 -4.9415e+000  1.8664e+000 -1.0926e+000 16194 117894,117998,117946
 7.0000e-001 118024 -4.9322e+000  7.2015e+000 -4.8125e+000 16194 117894,117946,117920
 7.0000e-001 118173 -2.2387e+001 -9.7211e+000  0.0000e+000 15968 118095,118147,118121
 7.0000e-001 118276 -1.9812e+000  7.3673e+000  2.8079e+000 15433 118299,118198,118250
 7.0000e-001 118325 -4.2496e+000  2.0748e+000  2.8604e+000 15433 118224,118198,118299
 7.0000e-001 118450 -1.4484e+001 -1.1406e+001 -3.1016e+000 421 118372,118424,118398
 8.0000e-001 69891  8.9493e-001  2.5001e+000  4.3645e+000 68988 69447,69681,69629
 8.0000e-001 69868 -4.7079e+000  3.5920e-001  8.4910e-001 68988 69421,69681,69447
 8.0000e-001 69845 -1.5730e+000  8.1665e-002  5.7040e+000 68988 69447,69629,69577
 8.0000e-001 69822  1.0139e+000  1.0012e+001  6.3778e+000 68988 69447,69577,69473
 8.0000e-001 69799 -2.4403e+000  2.7703e-001  2.0889e+000 68988 69629,69681,69655
 8.0000e-001 69776  5.1805e+000  2.3182e+000  9.3828e+000 68988 69577,69629,69603
 8.0000e-001 69753 -2.0892e+000  1.0202e+001  1.0689e+001 68988 69473,69577,69551
 8.0000e-001 69730 -1.5452e+000  4.8189e+001  1.0150e+001 68988 69473,69551,69525
 8.0000e-001 69707 -4.0330e-001  1.5465e+001 -8.7466e-002 68988 69473,69525,69499
 8.0000e-001 69992  1.4368e+000 -3.3715e-001  4.9330e-001 68676 69914,69966,69940
 8.0000e-001 70392  4.7693e+000  1.0921e+001 -6.9005e-001 68478 70118,70248,70144
 8.0000e-001 70369  1.3867e+001  1.1415e+001  1.9902e+000 68478 70118,70274,70248
 8.0000e-001 70346 -2.0282e+000  8.4189e+000 -1.1944e+000 68478 70144,70222,70196
 8.0000e-001 70323 -2.2568e+000  6.6173e+000  1.9337e+000 68478 70144,70248,70222
 8.0000e-001 70300 -1.8801e-001  8.3956e+000 -4.9531e-001 68478 70144,70196,70170
 8.0000e-001 70841  1.2244e+001  1.2514e+001 -5.2401e+000 68280 70570,70622,70596
 8.0000e-001 70818 -6.4354e+000  7.2268e+000  3.1053e-001 68280 70544,70622,70570
 8.0000e-001 70795 -7.1754e+000  3.8880e+000  1.1635e+000 68280 70544,70674,70622
 8.0000e-001 70772 -1.3737e+001  7.2406e+000  4.2132e+000 68280 70622,70674,70648
 8.0000e-001 70749 -1.6821e+000  8.5782e+000 -8.4057e-001 68280 70518,70674,70544
 8.0000e-001 70726  9.2802e+000  6.4429e+000  2.2580e+000 68280 70518,70700,70674
 8.0000e-001 70991 -1.3076e+001  1.7773e+001  5.9017e-001 67968 70864,70916,70890
 8.0000e-001 70968 -1.9236e+001  1.4862e+001 -2.7116e-001 67968 70864,70942,70916
 8.0000e-001 71141 -5.3620e+001 -3.8086e+001  2.0463e+001 67770 71040,71092,71066
 8.0000e-001 71118 -5.3000e+001 -1.0249e+001  7.0862e+000 67770 71014,71092,71040
 8.0000e-001 71651  1.2244e+000  1.5753e+001  1.8128e+000 67366 71746,71674,71458
 8.0000e-001 71628 -1.2895e+000  9.7366e+000  2.8491e+000 67366 71674,71354,71510
 8.0000e-001 71605 -1.5917e-001  1.8790e+001  1.6021e+000 67366 71746,71458,71432
 8.0000e-001 71582  2.5230e+000  1.8454e+001 -2.6801e+000 67366 71354,71432,71380
 8.0000e-001 71559 -3.3702e+000  1.6876e+001 -2.1095e+000 67366 71380,71432,71406
 8.0000e-001 71536 -5.4923e+000  1.4033e+001  4.1190e+000 67366 71328,71510,71354
 8.0000e-001 71700  1.4176e+000  1.3402e+001  4.7018e-001 67366 71484,71458,71674
 8.0000e-001 71723  4.8403e-001  1.3238e+001  1.2660e+000 67366 71484,71674,71510
 8.0000e-001 71772 -4.6171e-001  1.2085e+001  1.0038e+000 67366 71354,71674,71746
 8.0000e-001 71795 -1.7731e+000  1.4910e+001  1.1228e+000 67366 71354,71746,71432
 8.0000e-001 71896  3.2126e-002  1.5436e+001  0.0000e+000 67146 71818,71870,71844
 8.0000e-001 71997 -6.0339e+001 -2.6946e+001 -1.0661e+001 66948 71919,71971,71945
 8.0000e-001 72149  7.6726e+000  1.1866e+001 -7.5545e-002 66700 72172,72074,72048
 8.0000e-001 72126  8.5121e+000  1.1851e+001 -1.7282e-001 66700 72172,72048,72022
 8.0000e-001 72198  9.7619e+000  1.4634e+001 -1.2203e+000 66700 72244,72172,72100
 8.0000e-001 72221  9.7898e+000  1.3690e+001  4.8590e-001 66700 72100,72172,72022
 8.0000e-001 72270  7.3087e+000  8.9767e+000 -8.2079e-001 66700 72074,72172,72244
 8.0000e-001 72623  2.6793e+000  1.5673e+001 -1.3776e+000 66502 72424,72502,72450
 8.0000e-001 72600  5.4378e-001  9.7254e+000 -9.8468e-001 66502 72398,72502,72424
 8.0000e-001 72577 -2.8271e-001  1.2544e+001 -6.6289e-002 66502 72398,72528,72502
 8.0000e-001 72554  3.6218e-002  1.1076e+001  2.7067e-001 66502 72450,72502,72476
 8.0000e-001 72920 -3.0400e-002  1.3846e+001  1.3355e+000 65941 72672,72776,72750
 8.0000e-001 72897 -7.5194e+000  1.4253e+001  1.8751e+000 65941 72646,72776,72672
 8.0000e-001 72874  4.6287e+000  1.6701e+001 -1.9474e-001 65941 72672,72750,72724
 8.0000e-001 72851  1.4192e+000  9.2272e+000  7.7408e-001 65941 72672,72724,72698
 8.0000e-001 72828 -1.5867e+001  2.3680e+001 -1.1091e+000 65941 72646,72802,72776
 8.0000e-001 73241  5.5342e+000  1.0346e+001  2.1107e+000 65743 73264,73071,73045
 8.0000e-001 73218  6.4017e+000  1.1445e+001  1.1395e+000 65743 73480,73264,73045
 8.0000e-001 73195  1.8567e+000  1.2630e+001  9.2655e-001 65743 73336,72967,73097
 8.0000e-001 73172  3.4381e+000  1.0915e+001  2.6852e+000 65743 73408,72993,72967
 8.0000e-001 73149 -1.1941e+000  1.1449e+001  4.1439e-001 65743 72967,73123,73097
 8.0000e-001 73290  2.6820e+000  9.8381e+000  5.4941e-001 65743 73097,73071,73264
 8.0000e-001 73313  1.3048e+000  1.0753e+001  1.2916e+000 65743 73336,73097,73264
 8.0000e-001 73362  2.5094e+000  1.1949e+001  2.3809e+000 65743 73408,72967,73336
 8.0000e-001 73385 -2.8781e-002  1.0416e+001  2.4760e+000 65743 73019,73336,73264
 8.0000e-001 73434  1.8023e+000  7.7131e+000  1.7462e+000 65743 73019,72993,73408
 8.0000e-001 73457  6.7808e-001  9.8439e+000  1.5907e+000 65743 73019,73408,73336
 8.0000e-001 73506  3.6624e-001  3.2453e+000  4.0598e+000 65743 73019,73264,73480
 8.0000e-001 73989 -6.1780e+000  1.1676e+001 -1.1625e+000 65453 73793,73845,73819
 8.0000e-001 73966 -4.2470e-001  1.2331e+001 -2.1386e+000 65453 73741,73845,73793
 8.0000e-001 73943 -5.6073e+000  8.1804e+000  3.5074e-003 65453 73715,73845,73741
 8.0000e-001 73920 -1.6963e+000  2.2557e+001 -4.8683e+000 65453 73741,73793,73767
 8.0000e-001 73897 -7.8048e+000  6.9261e+000  1.7542e+000 65453 73715,73871,73845
 8.0000e-001 74357  7.8536e+000  8.1601e+000 -4.6807e-001 65141 74380,74138,74086
 8.0000e-001 74334  1.0094e+001  8.5671e+000 -2.4629e+000 65141 74380,74086,74060
 8.0000e-001 74311  9.9074e+000  8.8495e+000 -3.4361e-001 65141 74138,74190,74164
 8.0000e-001 74288  1.6591e+001  4.2620e+000 -3.3453e+000 65141 74060,74216,74190
 8.0000e-001 74265  1.5185e+001  8.4855e-002 -8.2279e-002 65141 74034,74216,74060
 8.0000e-001 74242  1.0332e+001  6.6510e+000 -1.1444e+000 65141 74086,74138,74112
 8.0000e-001 74406  1.0945e+001  9.2808e+000 -8.1177e-001 65141 74190,74138,74380
 8.0000e-001 74429  1.1197e+001  8.9905e+000 -2.4531e+000 65141 74190,74380,74060
 8.0000e-001 74937  6.5497e+000  4.6802e+000  9.4426e-001 64737 74614,74666,74640
 8.0000e-001 74914  4.1232e+000  4.4889e+000  1.5405e+000 64737 74614,74796,74666
 8.0000e-001 74891  4.8104e+000  4.6421e+000 -2.3903e-001 64737 74960,74718,74666
 8.0000e-001 74868  3.4382e+000  6.3983e+000  1.5220e+000 64737 74960,74666,74770
 8.0000e-001 74845  4.0239e+000  4.1410e+000  1.8050e+000 64737 74666,74796,74770
 8.0000e-001 74822  3.3747e+000  4.0430e+000 -3.9811e-002 64737 74666,74718,74692
 8.0000e-001 74986  5.6771e+000  6.5323e+000 -4.5441e-001 64737 74744,74718,74960
 8.0000e-001 75009  4.6459e+000  9.1538e+000  1.3198e+000 64737 74744,74960,74770
 8.0000e-001 75306  4.7330e+000  1.4575e+001 -8.9537e-001 64133 75329,75110,75084
 8.0000e-001 75283  4.4895e+000  1.5862e+001 -6.8676e-002 64133 75401,75329,75084
 8.0000e-001 75260  7.0535e+000  1.7351e+001  1.3482e+000 64133 75401,75084,75058
 8.0000e-001 75237  4.1794e+000  1.9119e+001 -3.3035e+000 64133 75473,75136,75110
 8.0000e-001 75214 -2.2970e+000  1.8096e+001 -5.5000e-001 64133 75032,75188,75162
 8.0000e-001 75355  5.9290e+000  1.7097e+001 -2.1378e+000 64133 75473,75110,75329
 8.0000e-001 75378  2.7181e+000  1.5938e+001 -7.7976e-001 64133 75162,75329,75032
 8.0000e-001 75427  2.5734e+000  1.5262e+001  2.7150e-001 64133 75032,75329,75401
 8.0000e-001 75450  6.0479e+000  1.7976e+001 -5.4731e-001 64133 75545,75401,75058
 8.0000e-001 75499 -2.7034e-001  1.6814e+001 -2.4787e+000 64133 75162,75136,75473
 8.0000e-001 75522  2.8560e+000  1.5316e+001 -1.3696e+000 64133 75162,75473,75329
 8.0000e-001 75571  2.2289e+000  9.0840e+000 -3.4070e-001 64133 75032,75401,75545
 8.0000e-001 75851 -2.2655e+000  8.0690e+000 -1.0578e+000 63843 75874,75753,75727
 8.0000e-001 75828 -4.1481e+000  4.9216e+000 -6.5765e-002 63843 75946,75874,75727
 8.0000e-001 75805 -2.8918e+000  3.8646e+000  4.3107e-001 63843 76018,75946,75727
 8.0000e-001 75900 -3.5469e+000  7.5478e+000  1.1960e+000 63843 75779,75753,75874
 8.0000e-001 75923 -3.9420e+000  4.5797e+000  2.0457e+000 63843 75779,75874,75675
 8.0000e-001 75972 -2.5049e+000  6.8085e+000  6.7577e-001 63843 75675,75874,75946
 8.0000e-001 75995 -1.5936e+000  5.2394e+000 -1.7121e-001 63843 75675,75946,75701
 8.0000e-001 76044 -2.6644e+000  4.8975e+000 -2.3190e-001 63843 75701,75946,76018
 8.0000e-001 76454  1.5781e+001  1.8948e+001 -9.0474e+000 63439 76477,76255,76229
 8.0000e-001 76431  8.1297e+000  7.7428e+000 -2.7957e+000 63439 76477,76229,76359
 8.0000e-001 76408  1.0755e+001  4.1185e+000  1.3540e+000 63439 76307,76359,76333
 8.0000e-001 76385  1.3045e+001  2.0392e+001 -5.9699e+000 63439 76255,76307,76281
 8.0000e-001 76503  5.5856e+000  9.3602e+000 -2.6505e+000 63439 76307,76255,76477
 8.0000e-001 76526  7.0249e+000  5.5744e+000  2.1263e+000 63439 76307,76477,76359
 8.0000e-001 76926 -1.3129e+001 -3.4944e+000 -3.7491e+000 63049 76704,76782,76756
 8.0000e-001 76903 -1.2008e+001 -4.0037e+000  2.1941e-001 63049 76704,76808,76782
 8.0000e-001 76880 -1.4003e+001 -1.2064e+001 -1.8300e+000 63049 76704,76756,76730
 8.0000e-001 76857 -2.0739e+001 -1.0113e+001 -2.4840e+000 63049 76678,76808,76704
 8.0000e-001 76834 -2.3400e+001 -7.5744e+000 -3.2944e+000 63049 76652,76808,76678
 8.0000e-001 77076 -5.8865e+000  1.2925e+001  5.7514e-001 62737 76975,77027,77001
 8.0000e-001 77053 -9.1808e+000  1.3687e+001  1.1813e+000 62737 76949,77027,76975
 8.0000e-001 77324 -2.2667e+000  9.8082e+000 -6.3901e-001 62277 77347,77177,77125
 8.0000e-001 77301 -4.4455e+000  8.7131e+000 -2.4980e-001 62277 77347,77125,77229
 8.0000e-001 77278 -2.5955e+000  1.1404e+001  1.1597e+000 62277 77099,77229,77125
 8.0000e-001 77255  6.3213e-001  1.1760e+001 -1.7704e+000 62277 77125,77177,77151
 8.0000e-001 77373 -2.2058e+000  1.2423e+001 -3.4718e+000 62277 77203,77177,77347
 8.0000e-001 77396 -7.3987e+000  9.6641e+000 -2.4475e+000 62277 77203,77347,77229
 8.0000e-001 77857 -5.6028e+000  7.6627e+000  2.2597e+000 61758 77635,77739,77661
 8.0000e-001 77834 -7.4732e+000  1.2925e+001  9.1726e-001 61758 77583,77739,77635
 8.0000e-001 77811 -7.5817e+000  2.3071e+001  6.8471e+000 61758 77583,77635,77609
 8.0000e-001 77788 -4.5522e+000  1.2278e+001  1.4015e+000 61758 77661,77713,77687
 8.0000e-001 77765 -3.7722e+000  1.1658e+001  1.8069e+000 61758 77661,77739,77713
 8.0000e-001 78491  4.7821e+000  4.5041e+000  1.0139e+000 61418 78171,78301,78249
 8.0000e-001 78468  2.8692e+000  4.3945e+000  8.7961e-001 61418 78145,78301,78171
 8.0000e-001 78445  8.5914e-001  3.7655e+000 -2.1598e-001 61418 78171,78249,78223
 8.0000e-001 78422  5.6561e+000  5.5892e+000  8.5584e-001 61418 78145,78327,78301
 8.0000e-001 78399  4.6412e+000  4.3213e+000  1.1592e+000 61418 78249,78301,78275
 8.0000e-001 78376 -1.9743e+000  1.8820e+000  7.7169e-001 61418 78171,78223,78197
 8.0000e-001 78353  4.6272e+000  2.3313e+000 -3.7842e-002 61418 78119,78327,78145
 8.0000e-001 78690  3.5937e+000 -3.6567e-001  1.3563e+000 61014 78713,78566,78540
 8.0000e-001 78667 -1.4144e+000  2.4239e+000  2.7545e-002 61014 78713,78540,78618
 8.0000e-001 78644  1.4467e+001  3.4913e+000 -1.0935e+001 61014 78514,78618,78540
 8.0000e-001 78739 -2.2644e+000 -1.8968e+000 -1.8049e+000 61014 78592,78566,78713
 8.0000e-001 78762 -3.7229e+000  4.9927e-001 -9.5859e-001 61014 78785,78713,78618
 8.0000e-001 78811 -5.8231e+000  3.2156e-001  1.5634e+000 61014 78592,78713,78785
 8.0000e-001 79398  7.7609e+000  2.3900e-001  9.5770e-002 60624 79101,79179,79153
 8.0000e-001 79375  1.1914e+001  1.0170e+000 -3.0019e-001 60624 79101,79231,79179
 8.0000e-001 79352  1.0489e+001  1.6867e+000  1.5079e+000 60624 79075,79231,79101
 8.0000e-001 79329  1.2029e+001  3.1691e+000  6.5377e-001 60624 79075,79257,79231
 8.0000e-001 79306  1.1230e+001  2.6476e-001 -1.3949e+000 60624 79179,79231,79205
 8.0000e-001 79283  7.6850e+000  1.8178e-001 -3.9636e-001 60624 79101,79153,79127
 8.0000e-001 79776 -4.0833e+000  9.5047e+000 -1.2454e+000 60070 79528,79658,79606
 8.0000e-001 79753 -5.0580e+000  6.7967e+000 -1.0344e+000 60070 79502,79658,79528
 8.0000e-001 79730 -1.3604e+001  1.2115e+001  2.4789e+000 60070 79528,79606,79580
 8.0000e-001 79707 -8.0200e+000  9.9094e+000 -8.2606e-001 60070 79606,79658,79632
 8.0000e-001 79684 -2.2919e+001  7.7873e+000  3.5272e+000 60070 79528,79580,79554
 8.0000e-001 80105  7.2590e+000  9.8746e+000 -2.1750e+000 59758 80128,79958,79906
 8.0000e-001 80082  4.5718e+000  2.9451e+000  1.1708e+000 59758 80128,79906,80010
 8.0000e-001 80059  3.8855e+000  2.3744e+000 -1.4791e+000 59758 79906,79958,79932
 8.0000e-001 80036  2.3513e+000  3.3885e+000  1.4214e+000 59758 79880,80010,79906
 8.0000e-001 80154  5.7691e+000  1.4544e+001 -4.2594e+000 59758 79984,79958,80128
 8.0000e-001 80177  5.1163e+000  9.5914e+000 -1.3201e+000 59758 79984,80128,80010
 8.0000e-001 80376 -3.9137e+000 -3.5963e+000 -3.1734e+000 59312 80226,80304,80252
 8.0000e-001 80353 -8.8882e+000  1.9679e+001 -3.1891e+000 59312 80200,80304,80226
 8.0000e-001 80330 -6.0145e+000 -5.9666e+000 -1.5939e+000 59312 80252,80304,80278
 8.0000e-001 80805 -9.6079e+000 -1.3541e-001  1.4464e+000 58908 80900,80828,80638
 8.0000e-001 80782 -5.2344e+000 -1.4545e+000  2.6499e+000 58908 80828,80560,80508
 8.0000e-001 80759 -9.5867e+000 -1.2828e+000 -1.9279e-001 58908 80900,80638,80612
 8.0000e-001 80736 -1.3836e+001 -2.6536e+000  4.3749e+000 58908 80482,80664,80508
 8.0000e-001 80713 -1.4214e+001 -3.8649e-001 -2.2451e+000 58908 80560,80612,80586
 8.0000e-001 80690 -4.1161e+000 -5.3175e+000  1.0077e+000 58908 80508,80560,80534
 8.0000e-001 80854 -9.6849e+000 -6.3646e-001  1.9296e+000 58908 80664,80638,80828
 8.0000e-001 80877 -9.5100e+000 -3.1149e+000  3.0827e+000 58908 80664,80828,80508
 8.0000e-001 80926 -1.0154e+001 -3.3144e+000  1.2273e+000 58908 80560,80828,80900
 8.0000e-001 80949 -9.9286e+000 -3.5749e+000 -6.5053e-001 58908 80560,80900,80612
 8.0000e-001 81246 -6.4990e+000  5.7562e+000  9.5673e-002 58482 81076,81128,81102
 8.0000e-001 81223 -5.0625e+000  1.0162e+001  8.8456e-001 58482 80972,81128,81076
 8.0000e-001 81200 -7.4313e+000  3.3352e+000  1.2800e+000 58482 80972,81076,81050
 8.0000e-001 81177  4.2351e+000  2.7371e+000  1.6613e+000 58482 80998,81050,81024
 8.0000e-001 81154 -3.7240e+000  2.0358e+000  4.4529e+000 58482 80972,81050,80998
 8.0000e-001 81754 -7.2859e+000  1.5275e+000  1.2799e+000 57828 81457,81613,81483
 8.0000e-001 81731 -3.9474e+000  6.9893e+000  4.3808e+000 57828 81431,81613,81457
 8.0000e-001 81708 -8.4466e+000 -9.8721e-001  5.6644e+000 57828 81483,81613,81509
 8.0000e-001 81685 -3.1089e+000  2.1479e+000  3.4992e+000 57828 81509,81613,81587
 8.0000e-001 81662 -4.0336e+000  2.5322e+000  2.5478e+000 57828 81509,81587,81535
 8.0000e-001 81639  6.1198e+000  3.6340e+000 -5.3883e-001 57828 81535,81587,81561
 8.0000e-001 82002  5.2926e+000 -3.0591e-001 -4.6270e-001 57374 82025,81855,81829
 8.0000e-001 81979  5.9287e-001  1.6178e-001  8.0023e-001 57374 82025,81829,81907
 8.0000e-001 81956 -1.9008e+000  7.7724e-001 -8.3132e-001 57374 81803,81907,81829
 8.0000e-001 81933 -3.2103e+000  1.1524e+000 -4.5881e-002 57374 81777,81907,81803
 8.0000e-001 82051  1.3135e+001  1.0946e+000 -3.4919e+000 57374 81881,81855,82025
 8.0000e-001 82074  2.0994e+000 -2.1643e+000 -2.7305e+000 57374 81881,82025,81907
 8.0000e-001 82356 -1.1897e+000  1.3844e+001  2.0641e+000 56913 82180,82232,82206
 8.0000e-001 82333 -4.9116e+000  5.4626e+000  1.3166e+000 56913 82180,82284,82232
 8.0000e-001 82310 -4.7551e+000  1.5721e+000  9.1633e-001 56913 82379,82232,82284
 8.0000e-001 82405 -3.2339e+000  2.2524e+000  1.0475e+000 56913 82258,82232,82379
 8.0000e-001 82764  1.5338e+000  1.0955e+001 -2.2584e-001 56523 82614,82666,82640
 8.0000e-001 82741 -1.7355e-001  5.8279e+000  3.6287e-001 56523 82614,82692,82666
 8.0000e-001 82718  3.4687e+000  7.1954e+000  3.0323e-001 56523 82588,82692,82614
 8.0000e-001 83368 -3.9223e+000  4.6015e-001  9.1302e-001 55969 82973,83155,83129
 8.0000e-001 83345 -5.2446e+000 -3.3888e-001 -1.2321e+000 55969 82973,83181,83155
 8.0000e-001 83322 -2.0742e+000  2.8880e+000  5.0136e-002 55969 82973,83129,82999
 8.0000e-001 83299 -7.6344e-001  9.9669e-001 -9.2221e-001 55969 83391,83025,82999
 8.0000e-001 83276 -4.2664e+000  1.8675e+000  3.5600e-001 55969 83391,82999,83129
 8.0000e-001 83253 -4.3158e+000 -2.4374e+000  1.4622e+000 55969 83077,83129,83103
 8.0000e-001 83230 -9.2862e+000 -4.3339e+000  2.0566e-001 55969 83025,83077,83051
 8.0000e-001 83207 -4.0517e-001  1.0736e+000 -3.9191e+000 55969 82947,83181,82973
 8.0000e-001 83417 -4.1980e+000 -6.4909e-001 -1.4057e+000 55969 83077,83025,83391
 8.0000e-001 83440 -5.4296e+000  1.3758e+000  2.0628e-001 55969 83077,83391,83129
 8.0000e-001 83946  1.1428e+000  3.5516e+000 -2.6409e+000 55771 83969,83779,83727
 8.0000e-001 83923  1.2669e+000  5.1663e+000  1.0096e-001 55771 83969,83727,83623
 8.0000e-001 83900  4.4756e-001  2.9343e+000  6.4445e-001 55771 83623,83727,83649
 8.0000e-001 83877  4.7284e+000  3.1362e+000 -1.8074e+000 55771 83727,83779,83753
 8.0000e-001 83854 -6.7835e-002 -2.9447e-001 -6.5505e-001 55771 83675,83727,83701
 8.0000e-001 83831 -4.6163e-001  2.4868e+000  7.8746e-001 55771 83649,83727,83675
 8.0000e-001 83995 -9.5976e-001  2.3937e+000 -3.9527e+000 55771 83805,83779,83969
 8.0000e-001 84018 -1.8125e+000  4.3887e+000 -1.1686e+000 55771 83805,83969,83623
 8.0000e-001 84168 -3.5620e+000  9.4324e+000  1.3840e-001 55367 84191,84067,84041
 8.0000e-001 84145 -3.9990e+000  1.0741e+001  1.3699e-001 55367 84191,84041,84119
 8.0000e-001 84217 -3.6953e+000  9.0223e+000  4.9969e-002 55367 84093,84067,84191
 8.0000e-001 84240 -4.9797e+000  9.4874e+000 -3.3762e-001 55367 84093,84191,84119
 8.0000e-001 84571  1.5028e+000  1.3639e+000  1.4270e+000 54913 84398,84450,84424
 8.0000e-001 84548 -1.8791e+000 -4.4198e+000 -1.7929e+000 54913 84372,84450,84398
 8.0000e-001 84525  2.5226e+000 -4.8036e+000  9.8315e-001 54913 84346,84450,84372
 8.0000e-001 84502  4.2834e+000 -6.7977e-001  5.7385e-001 54913 84346,84476,84450
 8.0000e-001 85126 -1.1448e+001 -3.3788e-001  2.5025e+000 54402 84858,84936,84910
 8.0000e-001 85103 -9.9030e+000  8.4215e-001 -1.9151e+000 54402 84806,84936,84858
 8.0000e-001 85080 -1.2033e+001 -2.2225e+000 -3.1379e+000 54402 84780,84936,84806
 8.0000e-001 85057 -2.3676e+001  1.1262e+000 -3.7290e+000 54402 84806,84858,84832
 8.0000e-001 85034 -1.9779e+001 -5.5683e+000 -3.4273e+000 54402 84780,84962,84936
 8.0000e-001 85011 -1.1732e+000 -1.5097e+000  5.3744e+000 54402 84858,84910,84884
 8.0000e-001 84988 -1.6537e+001  2.1804e+000 -2.7551e+000 54402 84754,84962,84780
 8.0000e-001 85396 -3.0106e+000  2.6413e+000  1.2851e+000 53998 85197,85249,85223
 8.0000e-001 85373 -5.1187e+000  5.7106e+000  6.6073e-001 53998 85197,85275,85249
 8.0000e-001 85350 -6.8966e+000  5.5694e+000  2.1811e-001 53998 85171,85275,85197
 8.0000e-001 85327 -6.3766e+000  6.1077e+000 -3.9534e-002 53998 85171,85301,85275
 8.0000e-001 85749 -4.8366e+000 -1.6804e+000  2.8088e+000 53636 85524,85628,85550
 8.0000e-001 85726 -7.6345e+000  2.3421e+000  2.7912e+000 53636 85524,85654,85628
 8.0000e-001 85703 -7.4163e+000 -4.6354e+000 -2.7882e-001 53636 85550,85602,85576
 8.0000e-001 85680 -1.3692e+001 -5.3659e+000  2.6067e+000 53636 85550,85628,85602
 8.0000e-001 86127  1.1404e+001  5.0304e+000  2.1823e+000 52982 86150,85957,85879
 8.0000e-001 86104  3.7371e+000  1.4310e+000  6.6273e-001 52982 86150,85879,85853
 8.0000e-001 86081  1.4583e+001 -2.2369e+000  3.1497e-001 52982 85957,86009,85983
 8.0000e-001 86058  5.1716e+000  3.6856e+000  1.4976e+000 52982 85879,85957,85931
 8.0000e-001 86035  5.0432e+000  2.7985e+000  1.2334e+000 52982 85879,85931,85905
 8.0000e-001 86176  1.5736e+001  6.2996e-001  1.1788e+000 52982 86009,85957,86150
 8.0000e-001 86199  1.1215e+001 -8.6537e-001 -2.2081e-002 52982 86009,86150,85853
 8.0000e-001 86398 -7.0809e+000  6.5048e-002  6.3461e-001 52542 86421,86248,86222
 8.0000e-001 86375 -5.9435e+000  1.1458e+000  1.1440e+000 52542 86421,86222,86300
 8.0000e-001 86352 -3.6350e+000  5.6922e+000  3.4108e-001 52542 86222,86326,86300
 8.0000e-001 86447 -8.7289e+000  5.9363e-001 -5.6079e-001 52542 86274,86248,86421
 8.0000e-001 86470 -7.2982e+000  2.3662e+000  1.2307e-001 52542 86274,86421,86300
 8.0000e-001 86669 -7.9891e+000  8.3929e-002  1.3546e+000 52230 86692,86571,86545
 8.0000e-001 86646 -6.2349e+000  3.7089e+000 -4.0937e-001 52230 86692,86545,86519
 8.0000e-001 86623 -2.8346e-001  3.7923e+000 -2.9983e+000 52230 86493,86597,86519
 8.0000e-001 86718 -6.4958e+000  2.9734e-002 -1.9316e+000 52230 86597,86571,86692
 8.0000e-001 86741 -3.5541e+000  4.2007e+000 -3.8778e+000 52230 86597,86692,86519
 8.0000e-001 87153  1.8144e+001 -9.7316e-001 -3.8181e+000 51640 86980,87058,87032
 8.0000e-001 87130  7.5196e-001  4.3419e+000 -2.1388e+000 51640 86928,87058,86980
 8.0000e-001 87107 -9.4661e-001  4.2858e-001 -1.7768e+000 51640 86928,86980,86954
 8.0000e-001 87084  1.9040e+001 -7.5896e-001 -1.0199e+001 51640 86980,87032,87006
 8.0000e-001 87659 -2.6525e+000 -1.4162e+000  1.9272e+000 51029 87682,87440,87362
 8.0000e-001 87636 -1.5204e+001 -3.7299e+000  6.6083e+000 51029 87682,87362,87336
 8.0000e-001 87613  1.5802e+000 -2.9800e-001 -3.9687e-002 51029 87440,87518,87466
 8.0000e-001 87590 -5.4000e+000 -1.5108e+000  2.1394e+000 51029 87362,87440,87414
 8.0000e-001 87567 -7.2199e+000 -3.6792e+000  1.2279e+001 51029 87362,87414,87388
 8.0000e-001 87544  7.1002e-001  3.8293e-001  3.3231e-001 51029 87466,87518,87492
 8.0000e-001 87708  5.5861e-001 -1.3221e+000 -8.1699e-001 51029 87518,87440,87682
 8.0000e-001 87731 -4.5868e+000  4.2990e+000  2.0517e+000 51029 87518,87682,87336
 8.0000e-001 87881 -5.6324e+000  2.8702e+000  1.4453e-001 50739 87780,87832,87806
 8.0000e-001 87858 -3.9325e+000  8.5831e+000 -2.1477e-001 50739 87754,87832,87780
 8.0000e-001 88468 -2.4714e+000 -3.7946e+000  2.9501e+000 50235 88171,88327,88197
 8.0000e-001 88445 -7.9533e-001 -3.5646e+000  3.5945e+000 50235 88145,88327,88171
 8.0000e-001 88422 -1.3333e+000 -2.3354e+000  6.3658e+000 50235 88275,88327,88301
 8.0000e-001 88399 -1.8630e+000 -2.5517e+000  2.7161e+000 50235 88197,88327,88275
 8.0000e-001 88376  1.1686e+000  3.3927e+000  4.3797e+000 50235 88197,88275,88223
 8.0000e-001 88353  4.7030e-001  9.1104e+000  7.5035e+000 50235 88223,88275,88249
 8.0000e-001 88895 -4.5805e+000  1.2895e+001 -2.9543e+000 49873 88918,88728,88676
 8.0000e-001 88872 -5.1689e+000  1.0822e+001 -3.0941e+000 49873 88918,88676,88624
 8.0000e-001 88849 -1.7907e+000  8.3024e+000 -2.8776e-001 49873 88598,88754,88624
 8.0000e-001 88826 -1.3989e+000  1.6941e+001 -9.1185e+000 49873 88624,88676,88650
 8.0000e-001 88803 -6.4384e+000  2.7209e+001 -2.7307e+000 49873 88676,88728,88702
 8.0000e-001 88780 -8.7467e+000  1.0810e+001  1.7848e+000 49873 88572,88754,88598
 8.0000e-001 88944 -4.8703e+000  1.3409e+001 -1.7245e+000 49873 88754,88728,88918
 8.0000e-001 88967 -5.2699e+000  1.2103e+001 -2.0696e+000 49873 88754,88918,88624
 8.0000e-001 89473  2.3129e+000  6.0518e+000  4.1179e+000 49583 89176,89306,89202
 8.0000e-001 89450 -3.8547e+000  3.8920e+000  3.2240e+000 49583 89176,89332,89306
 8.0000e-001 89427 -5.6001e-001  3.9474e+000  9.1496e-001 49583 89496,89228,89202
 8.0000e-001 89404 -2.1525e+000  3.9981e+000  9.4960e-001 49583 89496,89202,89280
 8.0000e-001 89381  9.7696e-001  6.3987e+000  4.0020e+000 49583 89202,89306,89280
 8.0000e-001 89358 -2.7561e+000  2.6426e+000  2.2579e+000 49583 89150,89332,89176
 8.0000e-001 89522 -2.2055e+000  4.5925e+000 -5.3671e-001 49583 89254,89228,89496
 8.0000e-001 89545 -3.7645e+000  4.6128e+000  7.6366e-001 49583 89254,89496,89280
 8.0000e-001 89825 -3.8064e+000  4.6113e+000  7.2020e-001 49179 89701,89753,89727
 8.0000e-001 89802 -3.6504e+000  3.2900e+000  9.9372e-001 49179 89675,89753,89701
 8.0000e-001 89779 -3.9294e+000  3.4306e+000 -2.5716e-001 49179 89848,89753,89675
 8.0000e-001 89874  1.2871e+000  6.6971e+000  1.4673e+000 49179 89649,89753,89848
 8.0000e-001 90223 -7.2309e+000 -7.7627e+000 -1.4248e+000 48739 90024,90102,90076
 8.0000e-001 90200 -8.9911e+000 -7.5311e+000 -2.3034e-001 48739 90024,90128,90102
 8.0000e-001 90177 -9.0527e+000 -1.3033e+001  9.7611e-001 48739 90024,90076,90050
 8.0000e-001 90154 -8.5067e+000 -1.4597e+000 -4.2974e-001 48739 89998,90128,90024
 8.0000e-001 90603 -1.5677e+000 -1.0097e+001  2.6306e+000 48335 90381,90485,90459
 8.0000e-001 90580 -1.3473e+000 -2.5185e+000  1.1606e+000 48335 90355,90485,90381
 8.0000e-001 90557  2.0074e-001 -1.5942e+001  1.6815e+000 48335 90381,90433,90407
 8.0000e-001 90534 -5.1807e+000 -9.4267e+000  4.9552e+000 48335 90381,90459,90433
 8.0000e-001 90511  2.3498e-001 -2.2997e+000  7.4385e-001 48335 90329,90485,90355
 8.0000e-001 90753  1.3188e+001  4.8188e+000  8.7943e+000 47824 90776,90652,90704
 8.0000e-001 90730  8.7115e+000  8.6464e-001  4.3878e+000 47824 90626,90704,90652
 8.0000e-001 90802  1.3443e+001  5.4949e+000  9.0412e+000 47824 90678,90652,90776
 8.0000e-001 91131 -6.0029e+000  9.6200e+000  1.0676e-001 47427 91154,90958,90906
 8.0000e-001 91108  1.1691e-001  1.2507e+001 -3.0535e+000 47427 91154,90906,91036
 8.0000e-001 91085 -2.9214e+000  3.9558e-001  2.9766e+000 47427 90958,91010,90984
 8.0000e-001 91062 -1.5129e+001  6.9838e+000  5.3330e+000 47427 90906,90958,90932
 8.0000e-001 91180 -3.3789e+000  5.8967e+000  4.4417e+000 47427 91010,90958,91154
 8.0000e-001 91203  2.1906e+000  8.2278e+000  1.3533e+000 47427 91010,91154,91036
 8.0000e-001 91583 -1.1832e+001 -1.2475e+001 -5.9529e-001 46873 91309,91439,91335
 8.0000e-001 91560 -9.4118e+000 -6.0124e+000 -1.9307e+000 46873 91309,91465,91439
 8.0000e-001 91537 -9.6267e+000 -1.2275e+001  1.7465e+000 46873 91361,91439,91413
 8.0000e-001 91514 -1.1344e+001 -1.2128e+001  2.8053e-001 46873 91335,91439,91361
 8.0000e-001 91491 -7.8513e+000 -8.5443e+000  4.2170e+000 46873 91361,91413,91387
 8.0000e-001 91880 -4.2718e+000  3.8899e+000  2.3002e+000 46526 91606,91710,91658
 8.0000e-001 91857 -4.8993e+000  6.5297e+000  3.5622e-001 46526 91606,91762,91710
 8.0000e-001 91834 -7.0005e+000  1.9097e+000  4.0514e+000 46526 91606,91658,91632
 8.0000e-001 91811 -3.1733e+000  5.1545e-001  3.9906e-001 46526 91658,91710,91684
 8.0000e-001 91788 -6.4250e+000  1.8978e+000 -4.0927e-002 46526 91710,91762,91736
 8.0000e-001 92211  6.2479e+000 -1.2318e+001  3.0729e+000 45700 91986,92064,92038
 8.0000e-001 92188  4.4930e+000 -1.1198e+001  3.5579e+000 45700 91986,92116,92064
 8.0000e-001 92165  9.4391e+000 -1.1673e+001 -6.3500e+000 45700 91986,92038,92012
 8.0000e-001 92142  8.7400e+000  1.0184e-001  4.3557e+000 45700 92064,92116,92090
 8.0000e-001 92766 -2.6550e+001 -1.6614e+000 -4.3875e+000 45452 92446,92602,92576
 8.0000e-001 92743 -2.4490e+001 -3.1420e-001 -3.3081e+000 45452 92420,92602,92446
 8.0000e-001 92720 -1.6483e+001 -2.8305e-001 -6.3274e-001 45452 92789,92524,92498
 8.0000e-001 92697 -2.0607e+001  1.9711e+000 -1.8182e+000 45452 92789,92498,92446
 8.0000e-001 92674 -1.3376e+001  1.6580e+000 -4.4996e+000 45452 92524,92576,92550
 8.0000e-001 92651 -2.5109e+001  1.4329e+000  6.7771e+000 45452 92446,92498,92472
 8.0000e-001 92628 -4.1755e+001 -6.9523e+000 -5.2695e+000 45452 92394,92602,92420
 8.0000e-001 92815 -1.3389e+001  4.1421e-001 -1.8599e+000 45452 92576,92524,92789
 8.0000e-001 92838 -1.6925e+001  2.9245e+000 -2.5827e+000 45452 92576,92789,92446
 8.0000e-001 92939 -3.0731e+000  3.6733e+000  2.3559e+000 44998 92861,92913,92887
 8.0000e-001 93319  3.9544e-001  8.0835e+000 -4.3571e+000 44601 93123,93201,93149
 8.0000e-001 93296  3.3119e+000  1.0647e+001 -1.7720e+000 44601 93045,93201,93123
 8.0000e-001 93273  4.5886e-001  4.7678e+000 -4.5956e-001 44601 93045,93123,93071
 8.0000e-001 93250  1.6617e+000  4.6616e+000 -1.2883e+000 44601 93071,93123,93097
 8.0000e-001 93227  7.6602e+000  1.3037e+001 -8.0892e+000 44601 93149,93201,93175
 8.0000e-001 93697 -1.2597e+001 -3.9380e+000  2.0016e+000 44026 93720,93553,93527
 8.0000e-001 93674 -1.3300e+001 -5.1895e+000  1.5706e+000 44026 93720,93527,93449
 8.0000e-001 93651 -1.5503e+001 -9.8675e+000  7.3361e-001 44026 93449,93527,93501
 8.0000e-001 93628 -1.4801e+001 -1.2818e+001  1.3041e+001 44026 93423,93579,93449
 8.0000e-001 93605 -1.3047e+001 -8.0779e+000  1.5244e+000 44026 93449,93501,93475
 8.0000e-001 93746 -1.1162e+001 -5.5561e+000  1.9119e+000 44026 93579,93553,93720
 8.0000e-001 93769 -1.2179e+001 -7.0858e+000  1.3550e+000 44026 93579,93720,93449
 8.0000e-001 94066 -1.2896e+000  1.4523e+000  1.9359e+000 43579 94089,93818,93792
 8.0000e-001 94043 -4.4815e+000  9.8882e-001  2.2910e+000 43579 94161,94089,93792
 8.0000e-001 94020 -4.6832e+000  8.0282e-001  2.8149e+000 43579 94161,93792,93948
 8.0000e-001 93997 -4.4384e+000 -6.0266e-001  6.4098e-001 43579 94233,93870,93818
 8.0000e-001 93974 -7.1073e+000  4.4683e-002 -5.4639e-001 43579 93818,93870,93844
 8.0000e-001 94115 -4.2391e+000 -4.2546e-001  1.1026e+000 43579 94233,93818,94089
 8.0000e-001 94138 -2.6100e+000  2.1088e+000  1.5872e+000 43579 93896,94089,93922
 8.0000e-001 94187 -4.2132e+000  2.0508e+000  1.5772e+000 43579 93922,94089,94161
 8.0000e-001 94210 -4.8653e+000  1.7303e+000  2.1697e+000 43579 93922,94161,93948
 8.0000e-001 94259 -5.0712e+000  2.3443e-001  1.6127e+000 43579 93896,93870,94233
 8.0000e-001 94282 -3.8790e+000  7.1641e-001  2.1736e+000 43579 93896,94233,94089
 8.0000e-001 94481 -4.0963e+000  3.3524e+000  3.3909e-001 43239 94305,94383,94357
 8.0000e-001 94458 -3.9531e+000  2.6643e+000 -1.0006e+000 43239 94305,94409,94383
 8.0000e-001 94435 -3.0619e+000  1.8494e+000  1.2104e-001 43239 94305,94357,94331
 8.0000e-001 94633  2.7443e+000  6.0833e+000  1.8097e+000 42827 94656,94532,94506
 8.0000e-001 94610  4.4519e-001  5.3926e+000  1.2953e+000 42827 94728,94656,94506
 8.0000e-001 94682  4.4623e-001  7.7340e+000  1.4938e+000 42827 94558,94532,94656
 8.0000e-001 94705  9.8974e-001  2.5425e+000 -5.2729e-001 42827 94988,94860,94656
 8.0000e-001 94754  4.1460e-001  4.8414e-001 -8.9648e-001 42827 94988,94656,94728
 8.0000e-001 94886  3.8115e+000  5.0302e+000  1.7449e+000 42827 94558,94656,94860
 8.0000e-001 95014  1.3507e+000  7.2854e-001  2.8511e-001 42827 94584,94860,94988
 8.0000e-001 95037  1.5011e+000 -1.8345e-001  2.6960e-001 42827 94584,94988,94728
 8.0000e-001 95236 -1.4648e+001 -9.9898e+000  1.9833e+000 42537 95259,95112,95060
 8.0000e-001 95213 -8.1993e+000 -9.0406e+000  1.5380e+000 42537 95259,95060,95164
 8.0000e-001 95190 -1.2891e+001 -8.7188e+000 -1.2685e-002 42537 95060,95112,95086
 8.0000e-001 95285 -1.0196e+001 -1.1663e+001  5.3550e+000 42537 95138,95112,95259
 8.0000e-001 95308 -5.0477e+000 -1.0986e+001  5.7625e+000 42537 95138,95259,95164
 8.0000e-001 95816  1.8180e+000 -4.5335e-001  9.6821e-001 41969 95493,95597,95519
 8.0000e-001 95793  4.4043e+000  4.8590e+000  1.1584e-001 41969 95493,95649,95597
 8.0000e-001 95770  2.6806e+000  4.7578e+000 -4.3382e-001 41969 95493,95675,95649
 8.0000e-001 95747  1.8891e+000  1.0461e+001  2.5675e-001 41969 95597,95649,95623
 8.0000e-001 95724  1.3082e+000  9.8757e+000 -3.9558e+000 41969 95519,95597,95571
 8.0000e-001 95701  1.2582e+000  1.2286e+001  4.2192e+000 41969 95519,95571,95545
 8.0000e-001 96371 -5.1579e+000  1.9471e+000  4.1509e+000 41579 96025,96207,96181
 8.0000e-001 96348 -5.9622e+000  9.9876e-001  8.8309e+000 41579 95999,96207,96025
 8.0000e-001 96325 -9.4445e+000  5.8749e-001  4.3357e+000 41579 96129,96181,96155
 8.0000e-001 96302 -6.7208e+000 -9.9465e-002  4.9319e+000 41579 96025,96181,96129
 8.0000e-001 96279 -5.1857e+000 -1.5603e-001  2.0258e+000 41579 96025,96129,96051
 8.0000e-001 96256 -9.9613e-001  9.5880e-002 -5.5025e-001 41579 96051,96103,96077
 8.0000e-001 96233 -5.1757e+000  3.5094e-001  1.8165e+000 41579 96051,96129,96103
 8.0000e-001 96877 -9.1885e+000  4.1119e+000  1.5975e+000 41182 96972,96900,96632
 8.0000e-001 96854 -9.5004e+000  5.2417e+000  1.8617e+000 41182 96900,96554,96736
 8.0000e-001 96831 -8.3323e+000  3.3031e+000  4.1636e+000 41182 96972,96632,96580
 8.0000e-001 96808 -1.0740e+001  2.9142e+000  1.8618e+000 41182 96632,96684,96658
 8.0000e-001 96785 -6.1629e+000  2.7210e+000  1.0418e+000 41182 96684,96736,96710
 8.0000e-001 96762 -4.5000e+000  6.0203e+000  1.2564e+000 41182 96580,96632,96606
 8.0000e-001 96926 -8.7692e+000  3.5064e+000  1.7194e+000 41182 96684,96632,96900
 8.0000e-001 96949 -5.8825e+000  3.6515e+000  1.8555e+000 41182 96684,96900,96736
 8.0000e-001 96998 -1.3139e+001  2.8042e+000  3.4856e+000 41182 96554,96900,96972
 8.0000e-001 97021 -1.3575e+001  3.0277e-001  6.3221e+000 41182 96554,96972,96580
 8.0000e-001 97576  4.5489e+000  3.8420e+000 -3.5182e+000 40678 97230,97412,97282
 8.0000e-001 97553  4.0245e+000  3.9710e+000 -1.5311e-001 40678 97204,97412,97230
 8.0000e-001 97530 -2.9333e-001  2.2390e+000 -3.0303e+000 40678 97282,97360,97308
 8.0000e-001 97507  1.2641e+000  2.6847e+000 -4.2701e+000 40678 97282,97412,97360
 8.0000e-001 97484 -1.1168e+001  7.9177e+000 -9.0459e+000 40678 97308,97360,97334
 8.0000e-001 97461  2.9306e+000  1.4777e+001 -4.9114e+000 40678 97360,97412,97386
 8.0000e-001 97438  4.2546e+000  7.7234e-002 -1.1464e+000 40678 97230,97282,97256
 8.0000e-001 97976 -1.1624e+000  5.1176e+000 -1.0028e+000 40244 97702,97832,97754
 8.0000e-001 97953 -3.9430e+000  4.4224e+000 -3.1458e-001 40244 97702,97858,97832
 8.0000e-001 97930 -1.3850e+000  5.1527e+000  8.2211e-001 40244 97702,97754,97728
 8.0000e-001 97907 -4.1883e+000  1.1991e+001 -2.1391e+000 40244 97780,97832,97806
 8.0000e-001 97884 -8.3807e+000  1.3944e+000 -2.4013e+000 40244 97754,97832,97780
 8.0000e-001 98482 -1.0088e+001  5.8950e+000  1.2654e+000 39690 98505,98185,98159
 8.0000e-001 98459 -9.3572e+000  3.0040e+000  1.7109e+000 39690 98505,98159,98289
 8.0000e-001 98436 -1.1286e+001  2.9784e-001  3.2878e+000 39690 98159,98315,98289
 8.0000e-001 98413 -2.3742e+001 -6.6100e+000  2.9095e+000 39690 98211,98289,98263
 8.0000e-001 98390 -2.0306e+001 -5.8261e+000  1.5482e+000 39690 98211,98263,98237
 8.0000e-001 98367 -6.9020e+000  1.8021e+000  2.7351e+000 39690 98159,98341,98315
 8.0000e-001 98531 -9.2209e+000  4.2642e+000  3.2250e+000 39690 98211,98185,98505
 8.0000e-001 98554 -9.3985e+000 -4.6510e-001  3.0749e+000 39690 98211,98505,98289
 8.0000e-001 99109 -8.6334e+000  2.6084e+000  1.5946e+000 39072 99132,98867,98789
 8.0000e-001 99086 -1.7632e+001  1.3343e-001  1.5723e+000 39072 99132,98789,98763
 8.0000e-001 99063 -4.7130e+000  5.4629e-002 -5.5402e-001 39072 98867,98945,98919
 8.0000e-001 99040 -1.1679e+001 -2.4452e+000  4.5173e+000 39072 98789,98867,98841
 8.0000e-001 99017 -2.0603e+000 -1.4904e+000  9.5666e-001 39072 98867,98919,98893
 8.0000e-001 98994 -9.2946e+000  4.3242e+000  4.3544e+000 39072 98789,98841,98815
 8.0000e-001 98971 -1.0027e+001  5.8160e-001 -2.2647e-001 39072 98737,98945,98763
 8.0000e-001 99158 -4.8887e+000 -4.6459e-001 -3.6306e-001 39072 98945,98867,99132
 8.0000e-001 99181 -8.7880e+000  9.4231e-001 -8.1557e-001 39072 98945,99132,98763
 8.0000e-001 99510 -1.1121e+001  2.6272e+000  2.0021e+000 38668 99311,99389,99363
 8.0000e-001 99487 -1.0391e+001  2.7781e+000  1.8058e+000 38668 99285,99389,99311
 8.0000e-001 99464 -8.0401e+000  7.3830e+000  7.3027e-001 38668 99285,99415,99389
 8.0000e-001 99441 -1.2853e+001  4.2250e+000  1.0800e+000 38668 99311,99363,99337
 8.0000e-001 99758 -2.8172e+000  8.1413e-001  1.5309e+000 38164 99781,99611,99585
 8.0000e-001 99735  1.6222e+000  8.3095e-001  2.2739e+000 38164 99781,99585,99533
 8.0000e-001 99712 -4.1293e+000  6.4038e+000  1.7769e+000 38164 99611,99663,99637
 8.0000e-001 99689  3.1534e+000  6.5638e+000  3.5873e+000 38164 99533,99585,99559
 8.0000e-001 99807 -5.2616e+000  1.7252e+000  2.7210e+000 38164 99663,99611,99781
 8.0000e-001 99830 -2.1800e+000  8.5061e-001  2.7001e+000 38164 99663,99781,99533
 8.0000e-001 100232 -2.3478e+001 -8.7488e+000 -2.2148e+000 37702 99984,100114,100088
 8.0000e-001 100209 -1.7964e+001 -2.8663e+000  1.1960e+000 37702 99958,100114,99984
 8.0000e-001 100186 -1.3112e+001 -1.2710e+000  4.2380e-002 37702 100010,100088,100036
 8.0000e-001 100163 -1.7191e+001 -5.9932e+000 -1.6932e+000 37702 99984,100088,100010
 8.0000e-001 100140 -1.5498e+001 -6.7380e+000  4.0500e-001 37702 100036,100088,100062
 8.0000e-001 100640  3.8445e-001  4.8773e+000  4.5585e+000 37262 100493,100545,100519
 8.0000e-001 100617  8.1860e-001 -5.5463e-001  1.9732e+000 37262 100441,100545,100493
 8.0000e-001 100594 -8.8934e-001 -2.2747e+000  3.6202e+000 37262 100415,100545,100441
 8.0000e-001 100571  4.1069e+000  2.7099e+000  6.8486e+000 37262 100441,100493,100467
 8.0000e-001 101146 -1.1793e+000  8.5018e-001  2.7430e-002 36872 100823,100979,100849
 8.0000e-001 101123 -1.5795e+000 -2.0515e-001  3.4976e-001 36872 100823,101005,100979
 8.0000e-001 101100 -1.2640e+000  4.7494e+000 -2.6468e+000 36872 101169,100901,100849
 8.0000e-001 101077 -1.7517e+000  3.8423e+000 -1.9493e+000 36872 101169,100849,100979
 8.0000e-001 101054 -5.6104e+000  8.4595e+000 -3.4545e+000 36872 100927,100979,100953
 8.0000e-001 101031  6.1789e+000  3.8856e+000 -2.6042e-001 36872 100849,100901,100875
 8.0000e-001 101195 -2.2527e+000  4.9034e+000 -2.0278e+000 36872 100927,100901,101169
 8.0000e-001 101218 -2.6040e+000  4.4548e+000 -1.4151e+000 36872 100927,101169,100979
 8.0000e-001 101773 -1.1743e+001  4.5574e+000  4.3629e+000 36418 101479,101609,101583
 8.0000e-001 101750 -1.9136e+001  8.5592e+000 -4.4030e+000 36418 101453,101609,101479
 8.0000e-001 101727 -9.5771e+000 -1.7021e+000 -4.8216e+000 36418 101796,101531,101479
 8.0000e-001 101704 -4.6570e+000 -2.3800e+000 -2.2319e-001 36418 101796,101479,101583
 8.0000e-001 101681 -3.0140e+001 -5.1380e+000  5.7731e+000 36418 101479,101531,101505
 8.0000e-001 101658 -2.8766e+001  7.5764e-001 -9.9421e+000 36418 101401,101609,101453
 8.0000e-001 101635  2.1816e+000  6.6816e+000 -5.5114e+000 36418 101401,101453,101427
 8.0000e-001 101822 -6.5450e+000 -4.6398e-001  7.9086e-001 36418 101557,101531,101796
 8.0000e-001 101845  3.7499e+000  6.5797e+000  6.6504e+000 36418 101557,101796,101583
 8.0000e-001 102174  7.3931e+000  6.8381e+000 -2.8611e+000 35914 101949,102053,101975
 8.0000e-001 102151  7.7479e+000  5.0920e+000 -2.4911e+000 35914 101949,102079,102053
 8.0000e-001 102128  2.0870e+000  4.7197e+000 -3.8195e+000 35914 101975,102053,102027
 8.0000e-001 102105  9.4588e+000  8.4841e+000 -8.0111e+000 35914 101975,102027,102001
 8.0000e-001 102631 -1.0413e+001  4.5349e+000  3.5626e-001 35574 102383,102513,102487
 8.0000e-001 102608 -8.4540e+000  2.8081e+000  9.7673e-002 35574 102357,102513,102383
 8.0000e-001 102585 -6.3638e+000  9.1356e+000 -1.2455e+000 35574 102409,102487,102435
 8.0000e-001 102562 -5.8281e+000  7.6050e+000 -2.0865e+000 35574 102383,102487,102409
 8.0000e-001 102539 -4.4054e+000  1.5188e+001 -1.6256e+000 35574 102435,102487,102461
 8.0000e-001 103009 -5.8715e-001  5.9530e+000 -2.3444e-001 35170 102761,102865,102787
 8.0000e-001 102986 -5.3192e+000  3.8661e+000 -6.7651e-001 35170 102761,102891,102865
 8.0000e-001 102963 -3.3840e+000  3.2616e+000 -1.8943e+000 35170 102787,102865,102813
 8.0000e-001 102940 -5.4403e+000  4.3461e+000 -5.3955e-001 35170 102735,102891,102761
 8.0000e-001 102917  1.4919e+000  1.4833e+001 -1.4673e+000 35170 102813,102865,102839
 8.0000e-001 103257  2.0216e+000  4.6209e+000  1.2553e+000 34659 103280,103058,103032
 8.0000e-001 103234  6.3427e-001  2.5122e+000  2.1086e+000 34659 103280,103032,103162
 8.0000e-001 103211 -3.1469e+000  2.6311e+000  2.2373e+000 34659 103084,103162,103110
 8.0000e-001 103188 -2.5801e+000  6.6164e+000  4.0707e+000 34659 103110,103162,103136
 8.0000e-001 103306  1.4378e-001  7.2019e+000  2.2405e+000 34659 103084,103058,103280
 8.0000e-001 103329 -1.1465e+000  4.6774e+000  3.1634e+000 34659 103084,103280,103162
 8.0000e-001 103837 -1.6322e+001  7.4250e+000 -1.9900e+000 34247 103860,103566,103540
 8.0000e-001 103814 -9.4507e+000  9.2129e+000 -2.2370e-002 34247 103932,103860,103540
 8.0000e-001 103791 -8.5049e+000  1.0722e+001  1.0956e+000 34247 103932,103540,103670
 8.0000e-001 103768 -1.0880e+001  1.3599e+001  3.0379e+000 34247 103566,103618,103592
 8.0000e-001 103745 -6.2458e+000  6.1347e+000  7.2574e-001 34247 103540,103696,103670
 8.0000e-001 103722 -5.9514e+000  7.5688e+000  1.7712e+000 34247 103514,103696,103540
 8.0000e-001 103886 -1.0513e+001  1.1785e+001  3.2223e-001 34247 103618,103566,103860
 8.0000e-001 103909 -1.2004e+001  9.5729e+000  1.4461e+000 34247 103618,103860,103644
 8.0000e-001 103958 -9.3345e+000  1.2468e+001  2.5641e+000 34247 103644,103860,103932
 8.0000e-001 103981 -8.0249e+000  1.4068e+001  3.7651e+000 34247 103644,103932,103670
 8.0000e-001 104300 -1.2654e+001  8.9367e+000 -2.5580e+000 33843 104052,104182,104156
 8.0000e-001 104277 -9.3623e+000  1.2149e+001 -1.1599e+000 33843 104026,104182,104052
 8.0000e-001 104254 -2.4046e+001  1.7915e+001 -5.4047e+000 33843 104078,104156,104130
 8.0000e-001 104231 -1.7271e+001  1.1562e+001 -3.9949e+000 33843 104052,104156,104078
 8.0000e-001 104208 -4.5838e+001 -5.3144e-001  3.5648e+000 33843 104078,104130,104104
 8.0000e-001 104499 -3.4599e+000  1.2768e+001  1.8003e+000 33282 104594,104522,104375
 8.0000e-001 104476 -3.4610e+000  1.0441e+001  4.3567e-001 33282 104522,104323,104427
 8.0000e-001 104453 -4.4682e+000  1.4366e+001  1.4443e+000 33282 104594,104375,104349
 8.0000e-001 104548 -6.6732e+000  8.3699e+000  3.3917e+000 33282 104401,104375,104522
 8.0000e-001 104571 -3.8302e+000  1.0391e+001  1.2168e+000 33282 104401,104522,104427
 8.0000e-001 104620 -4.0412e+000  9.4541e+000  1.1093e+000 33282 104323,104522,104594
 8.0000e-001 104643 -4.4761e+000  1.1729e+001  1.0088e+000 33282 104323,104594,104349
 8.0000e-001 104942 -1.7856e+001 -4.3143e+000  5.9146e+000 32728 104694,104772,104720
 8.0000e-001 104919 -1.4219e+001 -1.9500e+000  4.4824e+000 32728 104694,104824,104772
 8.0000e-001 104896 -2.3357e+001 -1.0639e+000  6.2152e+000 32728 104720,104772,104746
 8.0000e-001 104873 -2.2479e+001 -6.2035e+000  7.0611e+000 32728 104772,104824,104798
 8.0000e-001 104850 -1.4191e+001 -2.4503e-001  5.5613e+000 32728 104668,104824,104694
 8.0000e-001 105373 -8.6872e+000  6.2380e+000  6.0540e-001 32274 105396,105102,105076
 8.0000e-001 105350 -3.2607e+000  8.9976e+000 -8.8600e-001 32274 105396,105076,105206
 8.0000e-001 105327 -1.1439e+000 -2.2027e+000  2.9634e+000 32274 105154,105206,105180
 8.0000e-001 105304 -7.5721e+000  2.9072e+000 -1.0413e+001 32274 105076,105232,105206
 8.0000e-001 105281 -7.5503e+000  8.4445e-001  9.3531e+000 32274 105102,105154,105128
 8.0000e-001 105258 -1.2599e+001  1.4004e+000 -1.1946e+001 32274 105050,105232,105076
 8.0000e-001 105422 -2.9050e+000  2.5763e+000  1.3808e+000 32274 105154,105102,105396
 8.0000e-001 105445  1.5520e+000  4.6900e+000 -2.5912e-002 32274 105154,105396,105206
 8.0000e-001 105644  8.7320e+000  2.2648e+001  2.6570e-001 31620 105468,105546,105520
 8.0000e-001 105621  1.2279e+001  1.8357e+001 -1.5283e+000 31620 105468,105572,105546
 8.0000e-001 105598  7.7808e+000  2.1914e+001 -1.0939e+000 31620 105468,105520,105494
 8.0000e-001 105794 -1.5083e+001  9.4556e+000 -3.0467e-001 31158 105889,105817,105693
 8.0000e-001 105771 -1.6715e+001  1.2592e+001  4.0351e-001 31158 105817,105667,105745
 8.0000e-001 105843 -1.6316e+001  7.9973e+000 -9.4219e-001 31158 105719,105693,105817
 8.0000e-001 105866 -1.9010e+001  9.8591e+000 -5.7916e-001 31158 105719,105817,105745
 8.0000e-001 105915 -1.6695e+001  8.7648e+000 -3.2245e-001 31158 105667,105817,105889
 8.0000e-001 106270  7.0484e-001 -2.8904e+000  1.3434e+000 30818 106293,106071,106045
 8.0000e-001 106247  2.6920e+000  1.4446e+000  5.5870e+000 30818 106293,106045,106175
 8.0000e-001 106224 -1.5441e+000  1.9610e-001  3.7901e+000 30818 106123,106175,106149
 8.0000e-001 106201 -3.6789e+000 -2.7590e+000 -1.3198e+000 30818 106071,106123,106097
 8.0000e-001 106319 -1.1442e+000 -4.6596e+000  2.7781e-001 30818 106123,106071,106293
 8.0000e-001 106342 -2.1043e+000 -2.4687e+000  3.8420e+000 30818 106123,106293,106175
 8.0000e-001 106492 -3.1065e+000  1.7163e+000 -1.6895e-002 30414 106645,106391,106365
 8.0000e-001 106469  6.4985e+000  4.7186e+000 -3.6193e+000 30414 106515,106365,106443
 8.0000e-001 106541 -5.9616e-001  1.5405e+000  1.7295e-001 30414 106645,106365,106515
 8.0000e-001 106671  7.2844e-001 -3.2633e+000  3.3593e+000 30414 106417,106391,106645
 8.0000e-001 106694  7.6748e+000 -4.5003e-001  2.0101e+000 30414 106417,106645,106515
 8.0000e-001 106942 -4.5260e+000  1.0644e+001 -2.2157e+000 29910 106965,106795,106769
 8.0000e-001 106919 -2.7994e+000  1.0842e+001 -1.9262e+000 29910 106965,106769,106717
 8.0000e-001 106896 -6.7701e+000  8.6842e+000 -5.1146e+000 29910 106795,106847,106821
 8.0000e-001 106873 -7.0703e-001  1.2770e+001  1.6942e+000 29910 106717,106769,106743
 8.0000e-001 106991 -5.9361e+000  1.1484e+001 -1.7534e+000 29910 106847,106795,106965
 8.0000e-001 107014 -4.3326e+000  1.1596e+001 -1.2793e+000 29910 106847,106965,106717
 8.0000e-001 107213 -5.1335e+000 -1.8817e-001  6.7245e+000 29413 107236,107063,107037
 8.0000e-001 107190 -3.7994e+000  1.0105e+000  6.2136e+000 29413 107236,107037,107141
 8.0000e-001 107167 -1.0476e+001 -4.1746e-001  9.1641e+000 29413 107063,107115,107089
 8.0000e-001 107262 -4.4451e+000 -1.3850e+000  7.6907e+000 29413 107115,107063,107236
 8.0000e-001 107285 -3.2467e+000 -3.7385e-001  7.2346e+000 29413 107115,107236,107141
 8.0000e-001 107486 -9.5909e-001  3.6596e+000  3.0965e+000 29009 107336,107388,107362
 8.0000e-001 107463  6.0464e+000  7.3673e+000 -4.9494e+000 29009 107310,107388,107336
 8.0000e-001 107440  1.1384e+000  2.7984e-001 -2.7302e+000 29009 107310,107414,107388
 8.0000e-001 107736 -1.1108e+001  3.9836e+000 -3.4026e+000 28491 107537,107615,107563
 8.0000e-001 107713 -8.0733e+000  4.9750e+000 -4.7824e+000 28491 107537,107641,107615
 8.0000e-001 107690 -5.8761e+000  7.0714e+000 -1.4984e+000 28491 107563,107615,107589
 8.0000e-001 107667 -2.7127e+000 -1.4122e+000 -4.5053e+000 28491 107511,107641,107537
 8.0000e-001 108118 -1.3287e+001  3.4544e+000 -9.5267e-001 27980 108141,107922,107844
 8.0000e-001 108095 -1.4477e+001  5.5368e+000 -8.8516e-001 27980 108141,107844,108000
 8.0000e-001 108072 -1.4753e+001  1.9366e-001  4.5709e-002 27980 107844,107922,107870
 8.0000e-001 108049 -1.2420e+001  3.8761e+000 -9.5071e-001 27980 107870,107922,107896
 8.0000e-001 108026 -1.1523e+001  4.2600e+000 -1.1455e+000 27980 107922,107974,107948
 8.0000e-001 108167 -1.4124e+001  3.3817e+000 -1.3431e+000 27980 107974,107922,108141
 8.0000e-001 108190 -1.7410e+001  3.4848e+000 -1.8986e+000 27980 107974,108141,108000
 8.0000e-001 108745 -4.3868e-001  3.6629e+000  8.3755e+000 27376 108840,108768,108477
 8.0000e-001 108722 -7.2516e+000 -7.5998e+000  6.2410e+000 27376 108768,108373,108581
 8.0000e-001 108699  8.3822e-001  1.0765e+001  1.0141e+001 27376 108840,108477,108451
 8.0000e-001 108676 -1.9408e+000  1.8469e+000  5.0830e+000 27376 108373,108451,108399
 8.0000e-001 108653 -4.8494e+000 -2.2963e-001 -1.7225e+000 27376 108503,108581,108529
 8.0000e-001 108630 -6.8625e-001 -1.6592e+000 -2.7277e+000 27376 108529,108581,108555
 8.0000e-001 108607  1.3024e-001  3.4437e+000  2.0272e+000 27376 108399,108451,108425
 8.0000e-001 108794 -5.5492e+000 -2.1538e+000  4.3301e+000 27376 108503,108477,108768
 8.0000e-001 108817 -9.3379e+000  7.0802e-001  2.8683e+000 27376 108503,108768,108581
 8.0000e-001 108866 -1.6978e+000 -2.6702e+000  3.8079e+000 27376 108373,108768,108840
 8.0000e-001 108889 -5.8934e-001  1.4414e+000  6.4924e+000 27376 108373,108840,108451
 8.0000e-001 109186 -6.4746e+000  4.7802e+000  5.9150e-001 26722 109209,108938,108912
 8.0000e-001 109163 -5.9547e+000  6.3622e+000 -5.9136e-001 26722 109281,109209,108912
 8.0000e-001 109140 -8.3378e+000  8.5076e+000  7.0758e-001 26722 109281,108912,109042
 8.0000e-001 109117  1.5231e-001  8.9727e-002 -3.1026e-001 26722 108938,108990,108964
 8.0000e-001 109094 -1.3001e+001  1.4236e+001 -1.5615e+000 26722 108912,109068,109042
 8.0000e-001 109235 -5.3821e-001  5.3260e+000  2.2410e+000 26722 108990,108938,109209
 8.0000e-001 109258 -5.6997e+000  1.3653e+000 -6.2165e-002 26722 108990,109209,109016
 8.0000e-001 109307 -9.7238e+000  3.8815e+000 -1.7699e+000 26722 109016,109209,109281
 8.0000e-001 109330 -1.2619e+001  5.9684e+000 -5.3137e-001 26722 109016,109281,109042
 8.0000e-001 109732 -2.4446e+001  4.2364e+000  3.0746e+000 26310 109458,109588,109484
 8.0000e-001 109709 -1.6567e+001  1.1710e+001 -3.3851e+000 26310 109458,109614,109588
 8.0000e-001 109686 -3.3518e+000  1.6020e+001 -7.2121e+000 26310 109510,109562,109536
 8.0000e-001 109663 -5.1965e+000  1.1920e+001 -1.8339e+000 26310 109484,109562,109510
 8.0000e-001 109640 -1.5719e+001  8.1920e+000  2.2091e+000 26310 109484,109588,109562
 8.0000e-001 110159 -5.3943e+000 -2.2833e+000  1.1238e+000 25642 110182,109940,109914
 8.0000e-001 110136 -6.5104e+000 -4.4823e+000  6.7058e-001 25642 110182,109914,109888
 8.0000e-001 110113 -4.0740e+000 -3.6190e+000  6.2062e+000 25642 109966,110018,109992
 8.0000e-001 110090 -9.9109e+000 -2.9214e+000  1.6870e+000 25642 110254,109966,109940
 8.0000e-001 110067 -4.0404e+000 -2.9629e+000  2.7177e-001 25642 109862,110018,109888
 8.0000e-001 110044 -3.7962e+000 -1.3101e+000  1.0878e+000 25642 109836,110018,109862
 8.0000e-001 110208 -7.6574e+000 -3.3211e+000  1.3703e+000 25642 110254,109940,110182
 8.0000e-001 110231 -3.4179e+000 -3.5168e+000  8.9434e-001 25642 110018,110182,109888
 8.0000e-001 110280 -6.7181e+000 -3.2108e+000  2.2043e+000 25642 110018,109966,110254
 8.0000e-001 110303 -4.6160e+000 -3.6932e+000  2.0998e+000 25642 110018,110254,110182
 8.0000e-001 110632  4.2536e+000  6.5770e+000 -2.9932e+000 25188 110407,110485,110433
 8.0000e-001 110609  2.9890e+000  5.9614e+000 -2.5727e+000 25188 110407,110537,110485
 8.0000e-001 110586 -3.0490e+000  3.7422e+000  1.1890e+000 25188 110433,110485,110459
 8.0000e-001 110563  7.4911e+000  8.5251e+000  5.1018e+000 25188 110485,110537,110511
 8.0000e-001 110831  4.1578e+000  1.2050e+001 -3.0766e+000 24726 110854,110707,110655
 8.0000e-001 110808  5.4682e+000  1.1104e+001 -1.9480e+000 24726 110854,110655,110759
 8.0000e-001 110785  4.4519e+000  7.4211e+000 -4.3096e+000 24726 110655,110707,110681
 8.0000e-001 110880  5.1131e+000  1.2964e+001 -2.4332e+000 24726 110733,110707,110854
 8.0000e-001 110903  6.6561e+000  1.2568e+001 -1.1904e+000 24726 110733,110854,110759
 8.0000e-001 111234 -4.3080e+000  3.1631e+000 -2.0110e+000 24222 111257,111087,111035
 8.0000e-001 111211 -6.7553e+000  2.0769e+000 -4.0842e+000 24222 111257,111035,111009
 8.0000e-001 111188  2.9773e-001  1.3254e+000 -1.2871e+000 24222 111035,111087,111061
 8.0000e-001 111165 -2.9001e+000  1.9343e+000 -3.8158e+000 24222 111087,111139,111113
 8.0000e-001 111283 -2.7293e+000  5.9852e-001 -3.1662e+000 24222 111139,111087,111257
 8.0000e-001 111306 -3.7784e+000 -1.2175e+000 -4.5024e+000 24222 111139,111257,111009
 8.0000e-001 111625 -1.9410e+001 -7.2828e+000  1.8898e+000 23732 111648,111481,111455
 8.0000e-001 111602 -1.7922e+001 -7.4845e+000  9.7854e-001 23732 111648,111455,111377
 8.0000e-001 111579 -2.0492e+001 -1.3674e+001 -5.9168e-001 23732 111377,111429,111403
 8.0000e-001 111556 -1.8098e+001 -7.5270e+000  9.6717e-001 23732 111377,111455,111429
 8.0000e-001 111533 -1.6715e+001 -6.4606e+000  1.1482e+000 23732 111351,111507,111377
 8.0000e-001 111674 -1.6949e+001 -6.2296e+000  2.2277e+000 23732 111507,111481,111648
 8.0000e-001 111697 -1.7169e+001 -7.2643e+000  9.1329e-001 23732 111507,111648,111377
 8.0000e-001 112156 -8.1355e+000 -3.4852e+000  2.8796e+000 23278 112179,111908,111882
 8.0000e-001 112133 -8.4154e+000 -2.2489e+000  1.1181e+000 23278 112179,111882,112012
 8.0000e-001 112110 -3.0606e+000  3.2159e-001  4.9808e-001 23278 111908,111960,111934
 8.0000e-001 112087 -9.7575e+000  4.1387e+000  1.1260e+000 23278 111882,112038,112012
 8.0000e-001 112064 -7.8493e+000 -5.2721e-001 -2.2500e-002 23278 111960,112012,111986
 8.0000e-001 112205 -7.1516e+000 -2.6025e+000  1.9103e+000 23278 111960,111908,112179
 8.0000e-001 112228 -6.3794e+000 -8.9907e-001  2.4019e-002 23278 111960,112179,112012
 8.0000e-001 112685 -7.4842e+000 -1.1223e+001  3.5942e+000 22938 112489,112567,112541
 8.0000e-001 112662 -4.8130e+000 -4.0162e+000  2.6986e+000 22938 112437,112567,112489
 8.0000e-001 112639 -9.0109e+000 -4.4687e+000  4.2812e+000 22938 112489,112541,112515
 8.0000e-001 112616 -2.3389e+000 -3.7440e+000  2.9548e+000 22938 112411,112567,112437
 8.0000e-001 112593 -5.0430e+000 -1.1645e+001  4.9607e+000 22938 112437,112489,112463
 8.0000e-001 113191 -1.1882e+001 -1.5666e+000 -1.0232e+000 22534 113214,112998,112946
 8.0000e-001 113168 -1.3649e+001 -9.7544e-001 -2.6752e-001 22534 113286,113214,112946
 8.0000e-001 113145 -1.2004e+001 -1.3877e+000  3.7282e-001 22534 113286,112946,112920
 8.0000e-001 113122 -1.6717e+001  5.7612e-001 -1.7195e+000 22534 113358,113024,112998
 8.0000e-001 113099 -8.7083e+000  3.4886e+000  1.2773e+000 22534 112868,113050,112894
 8.0000e-001 113076 -1.6066e+001 -1.1727e+001 -3.1976e+000 22534 112946,112998,112972
 8.0000e-001 113240 -1.5272e+001 -1.8669e+000 -1.9143e+000 22534 113358,112998,113214
 8.0000e-001 113263 -1.3312e+001 -6.6872e-002 -4.2365e-001 22534 113050,113214,112894
 8.0000e-001 113312 -1.1909e+001  4.1770e-001  3.5730e-001 22534 112894,113214,113286
 8.0000e-001 113335 -1.0543e+001 -4.9667e-001  7.7337e-001 22534 112894,113286,112920
 8.0000e-001 113384 -1.4975e+001  2.3459e+000 -8.8477e-001 22534 113050,113024,113358
 8.0000e-001 113407 -1.2745e+001  5.1217e-001 -8.7040e-001 22534 113050,113358,113214
 8.0000e-001 113785  6.4280e-001 -7.0353e-001  3.3046e+000 21978 113808,113615,113511
 8.0000e-001 113762 -2.6996e-001 -1.4918e+000  3.8376e+000 21978 113808,113511,113667
 8.0000e-001 113739  3.9961e+000 -1.2998e+000  2.2483e+000 21978 113511,113615,113537
 8.0000e-001 113716  4.8349e+000 -4.0508e+000 -1.9589e+000 21978 113537,113615,113589
 8.0000e-001 113693  5.3414e+000 -1.6392e+000 -2.3862e+000 21978 113537,113589,113563
 8.0000e-001 113834  1.2298e+000  1.9936e-001  1.8629e+000 21978 113641,113615,113808
 8.0000e-001 113857 -1.0261e+000 -8.4973e-001  2.4637e+000 21978 113641,113808,113667
 8.0000e-001 114284 -4.5793e+000  9.0357e-001 -1.6785e+000 21517 114013,114117,114039
 8.0000e-001 114261 -3.7848e+000  1.4719e+000 -1.0895e+000 21517 113961,114117,114013
 8.0000e-001 114238 -5.6154e+000  4.2845e+000 -1.2455e+000 21517 113961,114013,113987
 8.0000e-001 114215 -1.7559e+000  9.8092e-001 -2.1836e-001 21517 114039,114117,114091
 8.0000e-001 114192 -3.7405e+000  1.3737e+000 -1.1222e+000 21517 113961,114143,114117
 8.0000e-001 114169 -2.0233e+000  2.5620e+000  1.7714e+000 21517 114039,114091,114065
 8.0000e-001 114581 -2.0024e+001 -1.1780e+001  1.2207e+000 21027 114359,114463,114437
 8.0000e-001 114558 -1.7619e+001 -1.1733e+001 -3.4515e-001 21027 114333,114463,114359
 8.0000e-001 114535 -1.8114e+001 -1.0649e+001  6.0149e-001 21027 114359,114437,114385
 8.0000e-001 114512 -1.9205e+001 -1.3628e+001 -4.4817e+000 21027 114307,114463,114333
 8.0000e-001 114489 -2.2613e+001 -1.2156e+001  1.0721e+000 21027 114385,114437,114411
 8.0000e-001 114912  7.0785e-001  1.6715e+000  1.0834e-002 20623 114713,114791,114765
 8.0000e-001 114889 -2.6391e+000  2.9063e-001  2.3271e+000 20623 114687,114791,114713
 8.0000e-001 114866 -2.4023e+000  4.8106e+000  1.6101e+000 20623 114687,114817,114791
 8.0000e-001 114843 -2.7503e+000 -2.5919e+000  1.5081e+000 20623 114713,114765,114739
 8.0000e-001 115290 -2.5134e-001  1.9737e+000 -2.2186e+000 20375 115313,115146,115094
 8.0000e-001 115267 -1.9287e+000  1.2691e+000 -1.3958e+000 20375 115313,115094,115042
 8.0000e-001 115244 -3.1415e+000  4.9679e+000 -2.4624e+000 20375 115385,115016,115172
 8.0000e-001 115221 -3.7580e+000  2.5330e-001 -9.8413e-001 20375 115042,115094,115068
 8.0000e-001 115198  4.7938e-001  6.8491e-001  7.1729e-001 20375 115094,115146,115120
 8.0000e-001 115339 -4.3441e+000 -1.6431e+000 -3.9627e+000 20375 115172,115146,115313
 8.0000e-001 115362 -1.3880e+000  3.6616e+000 -2.6043e+000 20375 115385,115172,115313
 8.0000e-001 115411 -3.3383e+000  3.8205e+000 -1.3543e+000 20375 115042,115016,115385
 8.0000e-001 115434 -2.8549e+000  1.4603e+000 -1.1383e+000 20375 115042,115385,115313
 8.0000e-001 115891 -2.4183e+000  2.2441e+000 -4.4843e+000 19971 115617,115747,115643
 8.0000e-001 115868 -3.6549e+000  3.2680e+000 -1.0405e+001 19971 115617,115773,115747
 8.0000e-001 115845 -1.9341e+000  7.0021e-001 -2.9800e+000 19971 115643,115721,115695
 8.0000e-001 115822 -1.1549e+000  7.2030e-001 -4.1946e+000 19971 115643,115747,115721
 8.0000e-001 115799  1.3792e+000  3.3965e+000 -1.7847e+000 19971 115643,115695,115669
 8.0000e-001 115992 -1.6678e+001 -5.6747e+000  2.6965e+000 19659 115914,115966,115940
 8.0000e-001 116142 -2.3484e+001 -1.1983e+001 -2.4062e-001 18997 116041,116093,116067
 8.0000e-001 116119 -2.3488e+001 -1.2543e+001  5.6194e-001 18997 116015,116093,116041
 8.0000e-001 116343  3.5915e-002  1.3874e+000 -6.4496e-001 18707 116193,116245,116219
 8.0000e-001 116320 -2.2775e+000 -6.7879e-002 -1.4241e+000 18707 116193,116271,116245
 8.0000e-001 116297  1.9269e+000  8.6603e+000  2.9412e-002 18707 116167,116271,116193
 8.0000e-001 116747 -7.4026e+000  8.6490e-001  3.3202e-001 18301 116525,116629,116551
 8.0000e-001 116724 -3.0548e+000  6.9245e-001  1.3650e+000 18301 116473,116629,116525
 8.0000e-001 116701 -2.9199e+000  3.2354e-001  5.5526e-001 18301 116473,116525,116499
 8.0000e-001 116678 -8.8923e+000  1.8769e+000  6.0382e-002 18301 116551,116603,116577
 8.0000e-001 116655 -6.2384e+000  3.6045e+000  8.4608e-001 18301 116551,116629,116603
 8.0000e-001 117147 -1.0300e+001 -7.0453e+000  3.3979e-001 17747 116899,117029,116925
 8.0000e-001 117124 -1.1233e+001 -1.1103e+001 -1.0317e+000 17747 116873,117029,116899
 8.0000e-001 117101 -1.0305e+001 -7.1140e+000  3.4243e-001 17747 116925,117029,116951
 8.0000e-001 117078 -1.0101e+001 -7.6181e+000 -4.2604e-001 17747 116951,117029,117003
 8.0000e-001 117055 -5.8023e+000 -2.2617e+000  1.4500e+000 17747 116951,117003,116977
 8.0000e-001 117368 -1.4920e+001  1.9827e+000 -1.9553e+000 17293 117244,117296,117270
 8.0000e-001 117345 -1.1101e+001  5.9586e+000 -3.9829e-001 17293 117192,117296,117244
 8.0000e-001 117322 -1.0116e+001  2.6448e+000  2.1722e-001 17293 117192,117244,117218
 8.0000e-001 117699 -1.2277e+001 -3.4280e+000  7.7424e-001 16896 117526,117604,117552
 8.0000e-001 117676 -7.3070e+000 -3.6442e+000 -3.8747e-003 16896 117500,117604,117526
 8.0000e-001 117653 -8.3498e+000 -6.4825e+000  3.2925e+000 16896 117552,117604,117578
 8.0000e-001 117630 -7.5078e+000 -6.3814e+000  1.2140e-001 16896 117474,117604,117500
 8.0000e-001 117849 -2.4551e+001  5.1311e-002  3.1260e+000 16534 117722,117774,117748
 8.0000e-001 117826 -1.8315e+001  2.3888e+001  3.3073e+000 16534 117722,117800,117774
 8.0000e-001 118070 -3.3326e+000 -4.6490e-001 -4.6259e-001 16194 117946,117998,117972
 8.0000e-001 118047 -3.4299e+000 -2.8804e-002 -5.3782e-001 16194 117894,117998,117946
 8.0000e-001 118024 -3.2838e+000  2.8236e+000 -2.5041e+000 16194 117894,117946,117920
 8.0000e-001 118173 -1.7314e+001 -1.0497e+001  0.0000e+000 15968 118095,118147,118121
 8.0000e-001 118276 -2.1255e+000  2.1028e+000  1.9035e+000 15433 118299,118198,118250
 8.0000e-001 118325 -3.7254e+000 -1.6301e+000  1.9403e+000 15433 118224,118198,118299
 8.0000e-001 118450 -1.4639e+001 -9.2615e+000 -3.8613e+000 421 118372,118424,118398
 9.0000e-001 69891  1.1956e+000 -1.5987e-001  1.8162e+000 68988 69447,69681,69629
 9.0000e-001 69868 -2.4459e-001 -7.7143e-001  9.8170e-002 68988 69421,69681,69447
 9.0000e-001 69845  1.4152e-001 -1.2430e+000  2.3795e+000 68988 69447,69629,69577
 9.0000e-001 69822  1.5745e+000  3.7450e+000  2.7915e+000 68988 69447,69577,69473
 9.0000e-001 69799 -9.7658e-001 -1.7533e+000  3.7426e-001 68988 69629,69681,69655
 9.0000e-001 69776  3.9771e+000 -8.6270e-002  5.1084e+000 68988 69577,69629,69603
 9.0000e-001 69753  7.1738e-001  4.3411e+000  4.2609e+000 68988 69473,69577,69551
 9.0000e-001 69730  3.8942e-001  1.6906e+001  3.8570e+000 68988 69473,69551,69525
 9.0000e-001 69707  1.1380e+000  4.6647e+000  4.7872e-002 68988 69473,69525,69499
 9.0000e-001 69992  2.1210e-001 -1.4821e+000  2.2074e-001 68676 69914,69966,69940
 9.0000e-001 70392  5.1595e+000  7.8038e+000 -3.0488e-001 68478 70118,70248,70144
 9.0000e-001 70369  1.0934e+001  7.5670e+000  1.3343e+000 68478 70118,70274,70248
 9.0000e-001 70346  2.2142e+000  7.1488e+000 -8.5225e-001 68478 70144,70222,70196
 9.0000e-001 70323  2.0218e+000  6.0076e+000  8.5486e-001 68478 70144,70248,70222
 9.0000e-001 70300  3.4943e+000  6.8065e+000 -3.7956e-001 68478 70144,70196,70170
 9.0000e-001 70841  1.0463e+001  9.3060e+000 -3.1090e+000 68280 70570,70622,70596
 9.0000e-001 70818 -1.1619e+000  6.5863e+000  2.6333e-001 68280 70544,70622,70570
 9.0000e-001 70795 -1.6867e+000  4.4538e+000  7.2801e-001 68280 70544,70674,70622
 9.0000e-001 70772 -5.3127e+000  6.3473e+000  2.4403e+000 68280 70622,70674,70648
 9.0000e-001 70749  1.4190e+000  7.1205e+000 -4.0894e-001 68280 70518,70674,70544
 9.0000e-001 70726  7.0549e+000  4.7470e+000  1.0532e+000 68280 70518,70700,70674
 9.0000e-001 70991  1.3573e-001  1.2927e+001  8.9410e-001 67968 70864,70916,70890
 9.0000e-001 70968 -8.6883e+000  9.7347e+000  6.1236e-001 67968 70864,70942,70916
 9.0000e-001 71141 -2.4761e+001 -1.9287e+001  1.1385e+001 67770 71040,71092,71066
 9.0000e-001 71118 -2.1874e+001 -3.2160e+000  3.7478e+000 67770 71014,71092,71040
 9.0000e-001 71651  3.4890e+000  1.1288e+001  9.0182e-001 67366 71746,71674,71458
 9.0000e-001 71628  2.0832e+000  7.9261e+000  1.4841e+000 67366 71674,71354,71510
 9.0000e-001 71605  2.8908e+000  1.3024e+001  7.3722e-001 67366 71746,71458,71432
 9.0000e-001 71582  4.3252e+000  1.2475e+001 -1.4444e+000 67366 71354,71432,71380
 9.0000e-001 71559  1.1223e+000  1.2056e+001 -1.3462e+000 67366 71380,71432,71406
 9.0000e-001 71536  5.9419e-001  1.0670e+001  2.3697e+000 67366 71328,71510,71354
 9.0000e-001 71700  3.5637e+000  9.8961e+000  1.5732e-001 67366 71484,71458,71674
 9.0000e-001 71723  3.0494e+000  9.7689e+000  4.6771e-001 67366 71484,71674,71510
 9.0000e-001 71772  2.7596e+000  9.2197e+000  5.2729e-001 67366 71354,71674,71746
 9.0000e-001 71795  2.1142e+000  1.0773e+001  5.6912e-001 67366 71354,71746,71432
 9.0000e-001 71896  7.9955e-001  4.4475e+000  0.0000e+000 67146 71818,71870,71844
 9.0000e-001 71997 -2.4696e+001 -1.5653e+001 -4.6740e+000 66948 71919,71971,71945
 9.0000e-001 72149  7.7609e+000  5.4954e+000 -2.7190e-001 66700 72172,72074,72048
 9.0000e-001 72126  7.0275e+000  5.8485e+000 -2.8375e-001 66700 72172,72048,72022
 9.0000e-001 72198  6.9887e+000  5.6458e+000 -1.3368e-001 66700 72244,72172,72100
 9.0000e-001 72221  6.5416e+000  5.6242e+000 -4.1193e-001 66700 72100,72172,72022
 9.0000e-001 72270  6.8159e+000  5.1706e+000 -5.0298e-001 66700 72074,72172,72244
 9.0000e-001 72623  4.3342e+000  9.1799e+000 -8.6533e-001 66502 72424,72502,72450
 9.0000e-001 72600  2.9328e+000  5.7560e+000 -9.4078e-001 66502 72398,72502,72424
 9.0000e-001 72577  3.8409e+000  6.9363e+000 -4.6963e-001 66502 72398,72528,72502
 9.0000e-001 72554  2.6057e+000  6.9456e+000 -1.4152e-002 66502 72450,72502,72476
 9.0000e-001 72920  2.5196e+000  9.8378e+000  7.4817e-001 65941 72672,72776,72750
 9.0000e-001 72897 -1.2238e+000  1.0099e+001  1.0473e+000 65941 72646,72776,72672
 9.0000e-001 72874  5.0626e+000  1.1455e+001 -1.6899e-001 65941 72672,72750,72724
 9.0000e-001 72851  3.4284e+000  7.0793e+000  2.2455e-001 65941 72672,72724,72698
 9.0000e-001 72828 -6.2086e+000  1.5476e+001 -6.4268e-001 65941 72646,72802,72776
 9.0000e-001 73241  6.0523e+000  7.0725e+000  1.0944e+000 65743 73264,73071,73045
 9.0000e-001 73218  6.6816e+000  7.5412e+000  7.9794e-001 65743 73480,73264,73045
 9.0000e-001 73195  4.0144e+000  8.7912e+000  4.7687e-001 65743 73336,72967,73097
 9.0000e-001 73172  4.3346e+000  7.8001e+000  1.4666e+000 65743 73408,72993,72967
 9.0000e-001 73149  2.8182e+000  7.7948e+000  4.1734e-002 65743 72967,73123,73097
 9.0000e-001 73290  4.7096e+000  7.3251e+000  3.1704e-001 65743 73097,73071,73264
 9.0000e-001 73313  3.6453e+000  7.3513e+000  8.5731e-001 65743 73336,73097,73264
 9.0000e-001 73362  3.8235e+000  8.1364e+000  1.3811e+000 65743 73408,72967,73336
 9.0000e-001 73385  3.4004e+000  7.3834e+000  1.5594e+000 65743 73019,73336,73264
 9.0000e-001 73434  3.4906e+000  5.7402e+000  1.5268e+000 65743 73019,72993,73408
 9.0000e-001 73457  3.5918e+000  7.0511e+000  1.2617e+000 65743 73019,73408,73336
 9.0000e-001 73506  3.5309e+000  3.4637e+000  2.3643e+000 65743 73019,73264,73480
 9.0000e-001 73989 -7.2657e-001  8.7033e+000 -5.9282e-001 65453 73793,73845,73819
 9.0000e-001 73966  2.2756e+000  9.1012e+000 -1.0528e+000 65453 73741,73845,73793
 9.0000e-001 73943 -2.2928e-001  7.1120e+000 -3.0814e-002 65453 73715,73845,73741
 9.0000e-001 73920  1.8510e+000  1.4956e+001 -2.3981e+000 65453 73741,73793,73767
 9.0000e-001 73897 -1.9058e+000  6.0155e+000  1.2592e+000 65453 73715,73871,73845
 9.0000e-001 74357  5.8965e+000  2.6164e+000  6.5431e-001 65141 74380,74138,74086
 9.0000e-001 74334  7.3150e+000  4.6182e+000 -7.6022e-002 65141 74380,74086,74060
 9.0000e-001 74311  6.3076e+000  3.8813e+000 -8.3691e-003 65141 74138,74190,74164
 9.0000e-001 74288  8.7285e+000  2.3179e+000 -1.5232e+000 65141 74060,74216,74190
 9.0000e-001 74265  7.9900e+000  3.8137e-001 -7.2016e-001 65141 74034,74216,74060
 9.0000e-001 74242  7.3624e+000  1.7884e+000  2.9300e-001 65141 74086,74138,74112
 9.0000e-001 74406  6.9717e+000  4.4335e+000 -3.0396e-001 65141 74190,74138,74380
 9.0000e-001 74429  7.3720e+000  5.1048e+000 -8.1117e-001 65141 74190,74380,74060
 9.0000e-001 74937  5.3757e+000  4.3299e+000 -7.0413e-001 64737 74614,74666,74640
 9.0000e-001 74914  3.6011e+000  4.3221e+000 -2.8948e-001 64737 74614,74796,74666
 9.0000e-001 74891  5.1035e+000  3.8010e+000 -5.1598e-001 64737 74960,74718,74666
 9.0000e-001 74868  4.5754e+000  4.6755e+000  3.2395e-001 64737 74960,74666,74770
 9.0000e-001 74845  4.0354e+000  5.1852e+000  7.7548e-002 64737 74666,74796,74770
 9.0000e-001 74822  3.9729e+000  3.5603e+000 -4.9928e-001 64737 74666,74718,74692
 9.0000e-001 74986  5.4803e+000  4.7413e+000 -5.5333e-001 64737 74744,74718,74960
 9.0000e-001 75009  5.1635e+000  6.0506e+000  3.0755e-001 64737 74744,74960,74770
 9.0000e-001 75306  5.6463e+000  1.0046e+001 -5.0514e-001 64133 75329,75110,75084
 9.0000e-001 75283  5.2135e+000  1.0634e+001 -8.8614e-002 64133 75401,75329,75084
 9.0000e-001 75260  6.6621e+000  1.1285e+001  7.3569e-001 64133 75401,75084,75058
 9.0000e-001 75237  5.1281e+000  1.3118e+001 -2.1937e+000 64133 75473,75136,75110
 9.0000e-001 75214  1.7244e+000  1.2253e+001 -4.4744e-001 64133 75032,75188,75162
 9.0000e-001 75355  6.3774e+000  1.1568e+001 -1.3522e+000 64133 75473,75110,75329
 9.0000e-001 75378  4.4281e+000  1.0703e+001 -4.7470e-001 64133 75162,75329,75032
 9.0000e-001 75427  4.3854e+000  1.0439e+001  3.6198e-002 64133 75032,75329,75401
 9.0000e-001 75450  5.6136e+000  1.1277e+001 -2.3949e-002 64133 75545,75401,75058
 9.0000e-001 75499  1.8439e+000  1.1415e+001 -1.5835e+000 64133 75162,75136,75473
 9.0000e-001 75522  4.1053e+000  1.0253e+001 -7.8492e-001 64133 75162,75473,75329
 9.0000e-001 75571  4.1930e+000  7.8443e+000 -2.3625e-001 64133 75032,75401,75545
 9.0000e-001 75851  3.9131e-001  5.6642e+000 -5.8516e-001 63843 75874,75753,75727
 9.0000e-001 75828 -4.4639e-001  3.8890e+000 -3.5421e-001 63843 75946,75874,75727
 9.0000e-001 75805  4.9319e-002  3.1102e+000  6.3868e-003 63843 76018,75946,75727
 9.0000e-001 75900  2.9063e-001  5.6367e+000  6.5857e-001 63843 75779,75753,75874
 9.0000e-001 75923 -2.1112e-001  4.1220e+000  7.2188e-001 63843 75779,75874,75675
 9.0000e-001 75972  2.8659e-001  5.1081e+000  8.8968e-002 63843 75675,75874,75946
 9.0000e-001 75995  5.8685e-001  4.2558e+000 -2.4072e-001 63843 75675,75946,75701
 9.0000e-001 76044  4.5447e-001  4.2478e+000 -2.2452e-001 63843 75701,75946,76018
 9.0000e-001 76454  8.0903e+000  8.4988e+000 -4.8901e+000 63439 76477,76255,76229
 9.0000e-001 76431  3.9661e+000  2.5871e+000 -1.4129e+000 63439 76477,76229,76359
 9.0000e-001 76408  3.6118e+000  4.7455e-001  6.8420e-001 63439 76307,76359,76333
 9.0000e-001 76385  6.6475e+000  8.5273e+000 -3.6318e+000 63439 76255,76307,76281
 9.0000e-001 76503  2.3596e+000  3.3456e+000 -1.5454e+000 63439 76307,76255,76477
 9.0000e-001 76526  3.2360e+000  1.4005e+000  1.1257e+000 63439 76307,76477,76359
 9.0000e-001 76926 -7.3146e+000 -2.9587e+000 -1.7239e+000 63049 76704,76782,76756
 9.0000e-001 76903 -5.2334e+000 -2.6426e+000  5.4583e-001 63049 76704,76808,76782
 9.0000e-001 76880 -7.5365e+000 -7.4361e+000 -7.6690e-001 63049 76704,76756,76730
 9.0000e-001 76857 -9.8229e+000 -6.2638e+000 -1.0234e+000 63049 76678,76808,76704
 9.0000e-001 76834 -1.0385e+001 -6.2375e+000 -1.0087e+000 63049 76652,76808,76678
 9.0000e-001 77076 -7.0546e-002  9.2505e+000  5.5720e-001 62737 76975,77027,77001
 9.0000e-001 77053 -2.5733e+000  9.7483e+000  9.7533e-001 62737 76949,77027,76975
 9.0000e-001 77324  1.0446e+000  6.8823e+000 -3.2941e-001 62277 77347,77177,77125
 9.0000e-001 77301 -3.5920e-001  6.2393e+000 -1.7686e-001 62277 77347,77125,77229
 9.0000e-001 77278  2.2006e+000  7.5557e+000  3.3329e-001 62277 77099,77229,77125
 9.0000e-001 77255  2.3785e+000  8.3755e+000 -8.9368e-001 62277 77125,77177,77151
 9.0000e-001 77373  1.0201e+000  8.3911e+000 -2.1284e+000 62277 77203,77177,77347
 9.0000e-001 77396 -2.2628e+000  6.7563e+000 -1.5776e+000 62277 77203,77347,77229
 9.0000e-001 77857 -1.5159e+000  5.8580e+000  1.4717e+000 61758 77635,77739,77661
 9.0000e-001 77834 -2.3615e+000  9.5875e+000  7.7539e-001 61758 77583,77739,77635
 9.0000e-001 77811 -2.6717e+000  1.5065e+001  4.3457e+000 61758 77583,77635,77609
 9.0000e-001 77788 -5.2820e-004  8.8834e+000  8.9328e-001 61758 77661,77713,77687
 9.0000e-001 77765 -9.7367e-002  8.4155e+000  8.6354e-001 61758 77661,77739,77713
 9.0000e-001 78491  4.4503e+000  2.3785e+000 -1.8335e-001 61418 78171,78301,78249
 9.0000e-001 78468  3.7329e+000  3.5017e+000  1.9828e-001 61418 78145,78301,78171
 9.0000e-001 78445  2.7364e+000  2.3542e+000 -1.1890e+000 61418 78171,78249,78223
 9.0000e-001 78422  4.3459e+000  3.7200e+000  1.2338e+000 61418 78145,78327,78301
 9.0000e-001 78399  4.2174e+000  2.4766e+000  4.1630e-001 61418 78249,78301,78275
 9.0000e-001 78376 -1.0004e+000  3.0410e-001  4.4907e-002 61418 78171,78223,78197
 9.0000e-001 78353  5.6797e+000  2.7233e+000  1.2645e+000 61418 78119,78327,78145
 9.0000e-001 78690  2.9052e+000 -7.2580e-001  5.3764e-001 61014 78713,78566,78540
 9.0000e-001 78667  4.6197e-001  2.2007e-001  7.4275e-002 61014 78713,78540,78618
 9.0000e-001 78644  8.4497e+000  1.2621e+000 -4.3617e+000 61014 78514,78618,78540
 9.0000e-001 78739  1.6542e-001 -6.6231e-001 -1.0100e+000 61014 78592,78566,78713
 9.0000e-001 78762 -1.0782e+000 -2.7813e-001 -5.7160e-001 61014 78785,78713,78618
 9.0000e-001 78811 -1.6158e+000 -1.9235e-001  5.2827e-001 61014 78592,78713,78785
 9.0000e-001 79398  3.1317e+000 -3.9711e-001 -2.8123e-001 60624 79101,79179,79153
 9.0000e-001 79375  6.3747e+000  6.9908e-001 -7.9125e-001 60624 79101,79231,79179
 9.0000e-001 79352  3.9421e+000  7.1185e-001  6.1637e-001 60624 79075,79231,79101
 9.0000e-001 79329  3.7581e+000  1.2692e+000  1.1069e-001 60624 79075,79257,79231
 9.0000e-001 79306  5.8800e+000 -6.6499e-001 -5.5987e-001 60624 79179,79231,79205
 9.0000e-001 79283  3.3485e+000  1.9541e-001 -5.8279e-001 60624 79101,79153,79127
 9.0000e-001 79776 -2.9360e-001  6.4128e+000 -1.0405e+000 60070 79528,79658,79606
 9.0000e-001 79753 -1.0323e+000  4.3923e+000 -9.0458e-001 60070 79502,79658,79528
 9.0000e-001 79730 -3.4765e+000  7.2410e+000  1.7619e-001 60070 79528,79606,79580
 9.0000e-001 79707 -2.3036e+000  6.5730e+000 -8.1418e-001 60070 79606,79658,79632
 9.0000e-001 79684 -1.0983e+001  3.8504e+000  8.7145e-001 60070 79528,79580,79554
 9.0000e-001 80105  4.9419e+000  5.7784e+000 -1.8960e+000 59758 80128,79958,79906
 9.0000e-001 80082  3.8185e+000  1.1798e+000  3.5474e-001 59758 80128,79906,80010
 9.0000e-001 80059  2.2117e+000 -1.3334e+000 -2.0729e+000 59758 79906,79958,79932
 9.0000e-001 80036  3.1163e+000  3.2332e+000  1.3216e+000 59758 79880,80010,79906
 9.0000e-001 80154  4.3024e+000  8.8227e+000 -3.0036e+000 59758 79984,79958,80128
 9.0000e-001 80177  4.3996e+000  5.4988e+000 -9.6951e-001 59758 79984,80128,80010
 9.0000e-001 80376 -3.4352e+000 -4.1193e+000 -1.7403e+000 59312 80226,80304,80252
 9.0000e-001 80353 -4.8456e+000  7.4500e+000 -1.3875e+000 59312 80200,80304,80226
 9.0000e-001 80330 -4.7000e+000 -6.8731e+000 -1.4302e+000 59312 80252,80304,80278
 9.0000e-001 80805 -3.9407e+000  7.3528e-001  8.9257e-001 58908 80900,80828,80638
 9.0000e-001 80782 -1.2931e+000  1.5620e-001  1.6851e+000 58908 80828,80560,80508
 9.0000e-001 80759 -3.9230e+000  4.9466e-002 -8.9641e-002 58908 80900,80638,80612
 9.0000e-001 80736 -5.2866e+000  1.7186e-001  2.6471e+000 58908 80482,80664,80508
 9.0000e-001 80713 -6.3390e+000  9.9373e-001 -1.4518e+000 58908 80560,80612,80586
 9.0000e-001 80690 -1.5049e-002 -3.2472e+000  1.5634e-002 58908 80508,80560,80534
 9.0000e-001 80854 -4.2428e+000  5.1860e-001  1.0096e+000 58908 80664,80638,80828
 9.0000e-001 80877 -3.9572e+000 -5.9974e-001  1.7586e+000 58908 80664,80828,80508
 9.0000e-001 80926 -4.2959e+000 -1.1320e+000  7.8940e-001 58908 80560,80828,80900
 9.0000e-001 80949 -4.1414e+000 -1.2796e+000 -3.3386e-001 58908 80560,80900,80612
 9.0000e-001 81246 -1.0917e+000  5.2014e+000  6.1730e-001 58482 81076,81128,81102
 9.0000e-001 81223 -5.2897e-001  7.5891e+000  9.6819e-001 58482 80972,81128,81076
 9.0000e-001 81200 -1.5910e+000  3.5605e+000  9.4370e-001 58482 80972,81076,81050
 9.0000e-001 81177  4.1171e+000  2.9337e+000  8.8391e-001 58482 80998,81050,81024
 9.0000e-001 81154 -1.2317e-002  2.9530e+000  2.3066e+000 58482 80972,81050,80998
 9.0000e-001 81754 -2.6920e+000  1.7995e+000  7.3661e-001 57828 81457,81613,81483
 9.0000e-001 81731 -2.5001e-001  5.8194e+000  2.9737e+000 57828 81431,81613,81457
 9.0000e-001 81708 -3.2793e+000  5.4574e-001  3.3731e+000 57828 81483,81613,81509
 9.0000e-001 81685 -5.9170e-001  2.6120e+000  2.2630e+000 57828 81509,81613,81587
 9.0000e-001 81662 -1.3873e+000  1.9973e+000  1.7156e+000 57828 81509,81587,81535
 9.0000e-001 81639  5.2989e+000  3.3247e+000 -3.8902e-001 57828 81535,81587,81561
 9.0000e-001 82002  6.2614e+000 -1.7695e-001  2.7047e-001 57374 82025,81855,81829
 9.0000e-001 81979  2.4068e+000  7.6475e-001  1.7187e+000 57374 82025,81829,81907
 9.0000e-001 81956 -9.4639e-001  5.3530e-001 -3.4605e-001 57374 81803,81907,81829
 9.0000e-001 81933 -1.5198e+000  8.4734e-001  1.5897e-001 57374 81777,81907,81803
 9.0000e-001 82051  1.2420e+001  1.5971e+000 -2.1363e+000 57374 81881,81855,82025
 9.0000e-001 82074  3.7457e+000 -4.2520e-001 -9.2078e-001 57374 81881,82025,81907
 9.0000e-001 82356  3.7356e-001  7.2785e+000  1.2959e+000 56913 82180,82232,82206
 9.0000e-001 82333 -1.5900e+000  2.8836e+000  8.5328e-001 56913 82180,82284,82232
 9.0000e-001 82310 -2.0211e+000  1.5783e+000  5.7825e-001 56913 82379,82232,82284
 9.0000e-001 82405 -9.4013e-001  2.0517e+000  6.5044e-001 56913 82258,82232,82379
 9.0000e-001 82764  2.3728e+000  7.1822e+000 -2.0343e-001 56523 82614,82666,82640
 9.0000e-001 82741  1.1558e+000  4.4471e+000  2.7019e-001 56523 82614,82692,82666
 9.0000e-001 82718  3.2981e+000  5.1564e+000  9.0733e-002 56523 82588,82692,82614
 9.0000e-001 83368 -2.2853e+000 -2.4182e+000  2.5556e-001 55969 82973,83155,83129
 9.0000e-001 83345 -2.7355e+000 -2.6337e+000  9.7929e-001 55969 82973,83181,83155
 9.0000e-001 83322 -1.3832e+000 -1.0622e+000 -2.0208e-001 55969 82973,83129,82999
 9.0000e-001 83299 -2.7444e+000 -3.5020e+000  2.4721e-001 55969 83391,83025,82999
 9.0000e-001 83276 -2.9734e+000 -1.8873e+000  2.5961e-001 55969 83391,82999,83129
 9.0000e-001 83253 -1.8822e+000 -7.1275e+000  7.6884e-001 55969 83077,83129,83103
 9.0000e-001 83230 -6.5633e+000 -6.2510e+000  4.1001e-002 55969 83025,83077,83051
 9.0000e-001 83207 -2.8138e-001 -2.1039e+000 -1.2057e+000 55969 82947,83181,82973
 9.0000e-001 83417 -2.8405e+000 -4.2430e+000 -7.7302e-001 55969 83077,83025,83391
 9.0000e-001 83440 -2.8098e+000 -2.8586e+000 -4.3236e-001 55969 83077,83391,83129
 9.0000e-001 83946  3.5603e+000  3.4162e+000 -1.6642e+000 55771 83969,83779,83727
 9.0000e-001 83923  3.8319e+000  4.7737e+000 -1.7736e-001 55771 83969,83727,83623
 9.0000e-001 83900  3.0873e+000  2.5556e+000  3.4547e-001 55771 83623,83727,83649
 9.0000e-001 83877  4.9622e+000  3.1490e+000 -1.3526e+000 55771 83727,83779,83753
 9.0000e-001 83854  1.0910e+000  1.4520e+000  2.7199e-001 55771 83675,83727,83701
 9.0000e-001 83831  1.6778e+000  1.9290e+000  4.8092e-001 55771 83649,83727,83675
 9.0000e-001 83995  2.3577e+000  2.6479e+000 -2.9398e+000 55771 83805,83779,83969
 9.0000e-001 84018  2.2778e+000  4.6364e+000 -1.4726e+000 55771 83805,83969,83623
 9.0000e-001 84168 -4.9488e-002  6.1760e+000  3.2229e-001 55367 84191,84067,84041
 9.0000e-001 84145 -6.2470e-001  7.2703e+000  3.8525e-001 55367 84191,84041,84119
 9.0000e-001 84217 -3.7223e-001  6.0443e+000  2.1542e-001 55367 84093,84067,84191
 9.0000e-001 84240 -1.9011e+000  6.2655e+000 -5.4824e-002 55367 84093,84191,84119
 9.0000e-001 84571  1.0005e+000  1.1683e+000  1.6725e+000 54913 84398,84450,84424
 9.0000e-001 84548 -3.0368e+000 -4.2389e+000 -1.2230e+000 54913 84372,84450,84398
 9.0000e-001 84525  1.4392e+000 -3.9475e+000  6.7422e-001 54913 84346,84450,84372
 9.0000e-001 84502  2.7276e+000 -9.1184e-001  7.1288e-001 54913 84346,84476,84450
 9.0000e-001 85126 -5.5181e+000  2.8806e-001  1.2939e+000 54402 84858,84936,84910
 9.0000e-001 85103 -4.7298e+000  1.0018e+000 -7.5801e-001 54402 84806,84936,84858
 9.0000e-001 85080 -5.8465e+000 -1.0190e+000 -1.5469e+000 54402 84780,84936,84806
 9.0000e-001 85057 -1.2214e+001  1.3821e+000 -1.8852e+000 54402 84806,84858,84832
 9.0000e-001 85034 -9.4545e+000 -2.6691e+000 -2.1046e+000 54402 84780,84962,84936
 9.0000e-001 85011 -7.6355e-001 -4.8893e-001  2.6023e+000 54402 84858,84910,84884
 9.0000e-001 84988 -7.5533e+000  9.6428e-001 -1.4108e+000 54402 84754,84962,84780
 9.0000e-001 85396 -3.9163e-001  2.2558e+000  9.7945e-001 53998 85197,85249,85223
 9.0000e-001 85373 -1.5715e+000  4.3491e+000  5.2295e-001 53998 85197,85275,85249
 9.0000e-001 85350 -2.7142e+000  4.4882e+000  2.7646e-001 53998 85171,85275,85197
 9.0000e-001 85327 -2.3552e+000  4.9617e+000  4.1614e-002 53998 85171,85301,85275
 9.0000e-001 85749 -3.0530e+000 -4.7170e+000  9.4120e-001 53636 85524,85628,85550
 9.0000e-001 85726 -4.3593e+000 -2.6778e+000  9.0516e-001 53636 85524,85654,85628
 9.0000e-001 85703 -4.3799e+000 -6.4888e+000  1.9974e-001 53636 85550,85602,85576
 9.0000e-001 85680 -5.4839e+000 -5.6877e+000  7.2394e-001 53636 85550,85628,85602
 9.0000e-001 86127  4.9200e+000  4.2461e-001  5.3795e-001 52982 86150,85957,85879
 9.0000e-001 86104 -2.8975e-001 -3.5999e-001  2.7416e-001 52982 86150,85879,85853
 9.0000e-001 86081  7.5768e+000 -2.4407e-001  3.6861e-001 52982 85957,86009,85983
 9.0000e-001 86058  1.7721e+000 -2.8415e-001  2.1969e-001 52982 85879,85957,85931
 9.0000e-001 86035  1.8836e+000  9.0751e-001  6.3492e-001 52982 85879,85931,85905
 9.0000e-001 86176  7.3014e+000 -9.9697e-001 -1.0131e-001 52982 86009,85957,86150
 9.0000e-001 86199  4.2560e+000 -1.1221e-001 -5.3137e-001 52982 86009,86150,85853
 9.0000e-001 86398 -2.4263e+000  1.4419e+000  3.1974e-001 52542 86421,86248,86222
 9.0000e-001 86375 -1.7198e+000  1.7124e+000  6.4627e-001 52542 86421,86222,86300
 9.0000e-001 86352 -5.5834e-001  4.5188e+000  4.8127e-001 52542 86222,86326,86300
 9.0000e-001 86447 -3.2645e+000  1.5592e+000 -1.2397e-001 52542 86274,86248,86421
 9.0000e-001 86470 -2.5136e+000  2.0533e+000  2.9807e-001 52542 86274,86421,86300
 9.0000e-001 86669 -2.9001e+000  1.3732e+000  8.8583e-001 52230 86692,86571,86545
 9.0000e-001 86646 -1.9886e+000  3.1528e+000 -4.1566e-001 52230 86692,86545,86519
 9.0000e-001 86623  2.0764e+000  3.3985e+000 -1.6280e+000 52230 86493,86597,86519
 9.0000e-001 86718 -1.9051e+000  1.4341e+000 -8.3978e-001 52230 86597,86571,86692
 9.0000e-001 86741 -1.1283e-001  3.6124e+000 -2.2248e+000 52230 86597,86692,86519
 9.0000e-001 87153  6.2352e+000 -1.3808e+000 -1.0812e+000 51640 86980,87058,87032
 9.0000e-001 87130  1.6948e-001 -2.1368e+000 -1.5437e+000 51640 86928,87058,86980
 9.0000e-001 87107 -8.3067e-001 -6.3864e+000 -2.0700e+000 51640 86928,86980,86954
 9.0000e-001 87084  6.2585e+000 -1.4406e+000 -3.5148e+000 51640 86980,87032,87006
 9.0000e-001 87659 -8.3228e-001 -7.3710e-001  7.2317e-001 51029 87682,87440,87362
 9.0000e-001 87636 -3.9856e+000 -1.1206e+000  2.2401e+000 51029 87682,87362,87336
 9.0000e-001 87613  1.5975e-001 -3.2035e-001  3.1522e-001 51029 87440,87518,87466
 9.0000e-001 87590 -1.5366e+000 -6.3562e-001  7.3245e-001 51029 87362,87440,87414
 9.0000e-001 87567 -2.2573e+000 -1.2217e+000  5.8570e+000 51029 87362,87414,87388
 9.0000e-001 87544  3.1386e-003  3.8649e-001  3.7461e-001 51029 87466,87518,87492
 9.0000e-001 87708 -3.5835e-002 -4.1642e-001  1.2154e-001 51029 87518,87440,87682
 9.0000e-001 87731 -1.2693e+000  1.4717e+000  1.0682e+000 51029 87518,87682,87336
 9.0000e-001 87881 -1.9560e+000  2.3423e+000 -2.2349e-001 50739 87780,87832,87806
 9.0000e-001 87858 -3.8360e-001  6.2675e+000 -1.3336e-002 50739 87754,87832,87780
 9.0000e-001 88468  8.8839e-001 -1.2589e+000  1.5798e+000 50235 88171,88327,88197
 9.0000e-001 88445  1.6627e+000 -8.0551e-001  1.8930e+000 50235 88145,88327,88171
 9.0000e-001 88422  1.2619e+000 -2.4916e-001  4.0936e+000 50235 88275,88327,88301
 9.0000e-001 88399  9.4517e-001 -3.7829e-001  1.6276e+000 50235 88197,88327,88275
 9.0000e-001 88376  2.7921e+000  3.2295e+000  2.6388e+000 50235 88197,88275,88223
 9.0000e-001 88353  2.6141e+000  6.6878e+000  4.2463e+000 50235 88223,88275,88249
 9.0000e-001 88895 -1.4535e+000  8.5568e+000 -1.4135e+000 49873 88918,88728,88676
 9.0000e-001 88872 -1.4787e+000  7.4936e+000 -1.7834e+000 49873 88918,88676,88624
 9.0000e-001 88849  9.0385e-001  5.9983e+000 -1.5056e-001 49873 88598,88754,88624
 9.0000e-001 88826  6.8424e-001  1.0981e+001 -5.2147e+000 49873 88624,88676,88650
 9.0000e-001 88803 -1.8031e+000  1.6479e+001 -1.0482e+000 49873 88676,88728,88702
 9.0000e-001 88780 -2.9098e+000  7.4923e+000  1.0535e+000 49873 88572,88754,88598
 9.0000e-001 88944 -1.1588e+000  8.9907e+000 -7.9917e-001 49873 88754,88728,88918
 9.0000e-001 88967 -1.2951e+000  8.1988e+000 -1.2716e+000 49873 88754,88918,88624
 9.0000e-001 89473  1.8765e+000  3.7591e+000  2.4412e+000 49583 89176,89306,89202
 9.0000e-001 89450 -1.4573e+000  2.5855e+000  1.9711e+000 49583 89176,89332,89306
 9.0000e-001 89427  8.2152e-001  2.6640e+000  8.7194e-001 49583 89496,89228,89202
 9.0000e-001 89404 -1.5384e-001  2.6339e+000  9.1670e-001 49583 89496,89202,89280
 9.0000e-001 89381  1.4820e+000  3.8511e+000  2.4043e+000 49583 89202,89306,89280
 9.0000e-001 89358 -6.6967e-001  1.8574e+000  1.3886e+000 49583 89150,89332,89176
 9.0000e-001 89522 -1.1346e-001  3.6976e+000 -1.0346e-001 49583 89254,89228,89496
 9.0000e-001 89545 -1.3481e+000  3.2242e+000  8.0608e-001 49583 89254,89496,89280
 9.0000e-001 89825 -1.9198e+000  3.1410e+000  6.8401e-001 49179 89701,89753,89727
 9.0000e-001 89802 -6.6583e-001  2.5242e+000  6.0778e-001 49179 89675,89753,89701
 9.0000e-001 89779 -7.5255e-001  2.5786e+000  2.0149e-001 49179 89848,89753,89675
 9.0000e-001 89874  1.6715e+000  4.3961e+000  1.0587e+000 49179 89649,89753,89848
 9.0000e-001 90223 -5.4783e+000 -8.4449e+000 -4.3416e-001 48739 90024,90102,90076
 9.0000e-001 90200 -5.2419e+000 -7.9567e+000  1.0125e-001 48739 90024,90128,90102
 9.0000e-001 90177 -5.2197e+000 -1.0194e+001  3.7868e-001 48739 90024,90076,90050
 9.0000e-001 90154 -4.7749e+000 -5.1686e+000  1.4413e-001 48739 89998,90128,90024
 9.0000e-001 90603 -2.3662e+000 -8.0746e+000  2.4264e+000 48335 90381,90485,90459
 9.0000e-001 90580 -2.1114e+000 -6.1673e+000  2.2119e+000 48335 90355,90485,90381
 9.0000e-001 90557 -5.5424e+000 -1.0680e+001  1.8212e+000 48335 90381,90433,90407
 9.0000e-001 90534 -7.0577e+000 -9.5147e+000  2.7153e+000 48335 90381,90459,90433
 9.0000e-001 90511 -4.7194e-002 -5.5568e+000  2.0628e+000 48335 90329,90485,90355
 9.0000e-001 90753  6.7912e+000  3.4088e+000  5.2319e+000 47824 90776,90652,90704
 9.0000e-001 90730  3.3728e+000 -2.2446e+000  3.3728e+000 47824 90626,90704,90652
 9.0000e-001 90802  7.2533e+000 -1.1103e+000  3.7510e+000 47824 90678,90652,90776
 9.0000e-001 91131 -2.0528e+000  6.3711e+000  3.9187e-001 47427 91154,90958,90906
 9.0000e-001 91108  1.4302e+000  8.0212e+000 -1.4730e+000 47427 91154,90906,91036
 9.0000e-001 91085 -7.7393e-002  8.7773e-001  1.9986e+000 47427 90958,91010,90984
 9.0000e-001 91062 -6.6561e+000  5.2803e+000  3.0558e+000 47427 90906,90958,90932
 9.0000e-001 91180 -5.7176e-001  4.2125e+000  2.8589e+000 47427 91010,90958,91154
 9.0000e-001 91203  2.5926e+000  5.5355e+000  1.0352e+000 47427 91010,91154,91036
 9.0000e-001 91583 -7.1803e+000 -1.1258e+001 -2.1525e-001 46873 91309,91439,91335
 9.0000e-001 91560 -6.5050e+000 -8.0767e+000 -7.0502e-001 46873 91309,91465,91439
 9.0000e-001 91537 -5.2922e+000 -8.3467e+000  2.1285e+000 46873 91361,91439,91413
 9.0000e-001 91514 -8.7357e+000 -1.1867e+001  1.2221e-001 46873 91335,91439,91361
 9.0000e-001 91491 -7.2048e+000 -6.9016e+000  3.6150e+000 46873 91361,91413,91387
 9.0000e-001 91880 -9.9910e-001  2.8102e+000  1.3479e+000 46526 91606,91710,91658
 9.0000e-001 91857 -1.4688e+000  4.5874e+000  3.1023e-002 46526 91606,91762,91710
 9.0000e-001 91834 -2.6802e+000  1.2744e+000  2.3532e+000 46526 91606,91658,91632
 9.0000e-001 91811 -2.5662e-001  6.5415e-001  1.3053e-001 46526 91658,91710,91684
 9.0000e-001 91788 -2.3812e+000  2.5720e+000  2.3306e-001 46526 91710,91762,91736
 9.0000e-001 92211  3.8153e+000 -6.5501e+000  1.1218e+000 45700 91986,92064,92038
 9.0000e-001 92188  1.6828e+000 -6.8990e+000  1.8510e+000 45700 91986,92116,92064
 9.0000e-001 92165  5.9566e+000 -5.8975e+000 -4.8690e+000 45700 91986,92038,92012
 9.0000e-001 92142  7.2987e-001 -2.0958e+000 -7.8382e-002 45700 92064,92116,92090
 9.0000e-001 92766 -1.4406e+001 -3.6054e-001 -2.6486e+000 45452 92446,92602,92576
 9.0000e-001 92743 -1.2756e+001 -6.0731e-001 -1.6438e+000 45452 92420,92602,92446
 9.0000e-001 92720 -9.0397e+000  1.0150e-001 -6.8585e-001 45452 92789,92524,92498
 9.0000e-001 92697 -1.1254e+001  1.4564e+000 -1.3126e+000 45452 92789,92498,92446
 9.0000e-001 92674 -7.4076e+000  1.2602e+000 -2.9909e+000 45452 92524,92576,92550
 9.0000e-001 92651 -1.3582e+001  1.1729e+000  3.1084e+000 45452 92446,92498,92472
 9.0000e-001 92628 -2.1415e+001 -3.8210e+000 -2.5535e+000 45452 92394,92602,92420
 9.0000e-001 92815 -7.3651e+000  6.1335e-001 -1.3540e+000 45452 92576,92524,92789
 9.0000e-001 92838 -9.3003e+000  2.0571e+000 -1.7428e+000 45452 92576,92789,92446
 9.0000e-001 92939 -1.7438e-001  1.8004e+000  5.1968e-001 44998 92861,92913,92887
 9.0000e-001 93319  1.0029e+000  4.9928e+000 -2.1574e+000 44601 93123,93201,93149
 9.0000e-001 93296  2.6470e+000  6.8104e+000 -8.8152e-001 44601 93045,93201,93123
 9.0000e-001 93273  7.7458e-001  3.0798e+000 -2.3845e-002 44601 93045,93123,93071
 9.0000e-001 93250  1.4611e+000  2.9006e+000 -6.6861e-001 44601 93071,93123,93097
 9.0000e-001 93227  4.8920e+000  7.0085e+000 -4.2166e+000 44601 93149,93201,93175
 9.0000e-001 93697 -6.1622e+000 -2.2345e+000  1.4072e+000 44026 93720,93553,93527
 9.0000e-001 93674 -6.4750e+000 -2.6978e+000  1.2406e+000 44026 93720,93527,93449
 9.0000e-001 93651 -7.8839e+000 -5.4992e+000  4.1751e-001 44026 93449,93527,93501
 9.0000e-001 93628 -8.2313e+000 -6.9236e+000  7.5825e+000 44026 93423,93579,93449
 9.0000e-001 93605 -5.1889e+000 -4.8531e+000  5.8978e-001 44026 93449,93501,93475
 9.0000e-001 93746 -5.5447e+000 -2.8531e+000  1.3563e+000 44026 93579,93553,93720
 9.0000e-001 93769 -5.9870e+000 -3.4294e+000  1.1393e+000 44026 93579,93720,93449
 9.0000e-001 94066  7.9202e-001  1.2792e+000  1.3088e+000 43579 94089,93818,93792
 9.0000e-001 94043 -1.2441e+000  1.3679e+000  1.3975e+000 43579 94161,94089,93792
 9.0000e-001 94020 -1.3041e+000  1.2733e+000  1.7586e+000 43579 94161,93792,93948
 9.0000e-001 93997 -1.0957e+000 -1.0064e-001  4.8934e-001 43579 94233,93870,93818
 9.0000e-001 93974 -3.0522e+000 -3.2429e-001  1.9838e-001 43579 93818,93870,93844
 9.0000e-001 94115 -9.5401e-001  1.2812e-002  7.5485e-001 43579 94233,93818,94089
 9.0000e-001 94138 -5.3960e-001  1.6981e+000  9.6003e-001 43579 93896,94089,93922
 9.0000e-001 94187 -1.0386e+000  2.0248e+000  1.1122e+000 43579 93922,94089,94161
 9.0000e-001 94210 -1.2729e+000  1.8965e+000  1.5152e+000 43579 93922,94161,93948
 9.0000e-001 94259 -1.4537e+000  3.8632e-001  1.0436e+000 43579 93896,93870,94233
 9.0000e-001 94282 -7.4473e-001  6.7363e-001  1.3659e+000 43579 93896,94233,94089
 9.0000e-001 94481 -3.3499e-001  2.6408e+000 -1.3785e-002 43239 94305,94383,94357
 9.0000e-001 94458 -1.4829e-001  2.4047e+000 -5.7153e-001 43239 94305,94409,94383
 9.0000e-001 94435 -6.5014e-001  7.8173e-001  2.4277e-001 43239 94305,94357,94331
 9.0000e-001 94633  4.6257e-001  2.2097e+000  2.4920e-001 42827 94656,94532,94506
 9.0000e-001 94610  3.5177e-001  2.1192e+000  3.4566e-001 42827 94728,94656,94506
 9.0000e-001 94682 -2.4869e-002  3.7774e+000  3.6775e-001 42827 94558,94532,94656
 9.0000e-001 94705 -5.1539e-001  8.4631e-001 -4.2393e-001 42827 94988,94860,94656
 9.0000e-001 94754  1.5213e-001  2.2298e-001 -2.6467e-001 42827 94988,94656,94728
 9.0000e-001 94886  1.4076e+000  2.2160e+000  5.8553e-001 42827 94558,94656,94860
 9.0000e-001 95014 -1.0772e+000  3.2612e-001 -1.9612e-001 42827 94584,94860,94988
 9.0000e-001 95037 -4.6945e-001 -2.0823e-001 -2.7232e-002 42827 94584,94988,94728
 9.0000e-001 95236 -9.7720e+000 -9.1904e+000  1.1657e+000 42537 95259,95112,95060
 9.0000e-001 95213 -5.5099e+000 -8.6931e+000  9.2720e-001 42537 95259,95060,95164
 9.0000e-001 95190 -8.5204e+000 -7.7583e+000  6.7251e-002 42537 95060,95112,95086
 9.0000e-001 95285 -6.8478e+000 -1.0197e+001  3.3661e+000 42537 95138,95112,95259
 9.0000e-001 95308 -3.3964e+000 -9.8155e+000  3.6910e+000 42537 95138,95259,95164
 9.0000e-001 95816  2.7517e-001 -8.6246e-002  3.3574e-001 41969 95493,95597,95519
 9.0000e-001 95793  1.5569e+000  1.9720e+000 -2.2736e-001 41969 95493,95649,95597
 9.0000e-001 95770  1.1247e+000  2.4812e+000 -9.5490e-001 41969 95493,95675,95649
 9.0000e-001 95747  7.3271e-001  4.1979e+000 -1.2693e-001 41969 95597,95649,95623
 9.0000e-001 95724  4.6552e-001  4.3111e+000 -1.7556e+000 41969 95519,95597,95571
 9.0000e-001 95701  3.8399e-001  5.3318e+000  2.0276e+000 41969 95519,95571,95545
 9.0000e-001 96371 -2.2394e+000  1.5254e+000  2.7386e+000 41579 96025,96207,96181
 9.0000e-001 96348 -1.9134e+000  1.3279e+000  5.3663e+000 41579 95999,96207,96025
 9.0000e-001 96325 -3.6921e+000  1.6536e-001  2.8495e+000 41579 96129,96181,96155
 9.0000e-001 96302 -2.8493e+000  4.9707e-001  3.1124e+000 41579 96025,96181,96129
 9.0000e-001 96279 -2.0562e+000  2.2571e-001  1.4345e+000 41579 96025,96129,96051
 9.0000e-001 96256  8.1649e-001 -8.1683e-002 -6.7035e-002 41579 96051,96103,96077
 9.0000e-001 96233 -1.9084e+000  9.7803e-002  1.4840e+000 41579 96051,96129,96103
 9.0000e-001 96877 -4.4394e+000  2.9698e+000  1.3478e+000 41182 96972,96900,96632
 9.0000e-001 96854 -4.5166e+000  4.0216e+000  1.4577e+000 41182 96900,96554,96736
 9.0000e-001 96831 -3.9926e+000  2.5293e+000  2.7071e+000 41182 96972,96632,96580
 9.0000e-001 96808 -5.6938e+000  1.7781e+000  1.5320e+000 41182 96632,96684,96658
 9.0000e-001 96785 -2.7824e+000  1.8628e+000  1.1807e+000 41182 96684,96736,96710
 9.0000e-001 96762 -2.0273e+000  3.7454e+000  1.1599e+000 41182 96580,96632,96606
 9.0000e-001 96926 -4.0423e+000  2.3129e+000  1.4591e+000 41182 96684,96632,96900
 9.0000e-001 96949 -2.4349e+000  2.7341e+000  1.3497e+000 41182 96684,96900,96736
 9.0000e-001 96998 -6.5297e+000  2.2796e+000  2.3505e+000 41182 96554,96900,96972
 9.0000e-001 97021 -6.7679e+000  9.4098e-001  3.8530e+000 41182 96554,96972,96580
 9.0000e-001 97576 -8.2484e-001  1.7021e+000 -1.2641e+000 40678 97230,97412,97282
 9.0000e-001 97553 -1.9227e+000  1.2829e+000 -3.0310e-002 40678 97204,97412,97230
 9.0000e-001 97530 -1.5318e+000 -1.2267e-001 -1.0191e+000 40678 97282,97360,97308
 9.0000e-001 97507 -1.4342e-001  3.7780e-001 -1.5290e+000 40678 97282,97412,97360
 9.0000e-001 97484 -6.5322e+000  2.9932e+000 -3.8174e+000 40678 97308,97360,97334
 9.0000e-001 97461 -1.0488e+000  4.8968e+000 -1.0882e+000 40678 97360,97412,97386
 9.0000e-001 97438 -6.6064e-001  2.3249e-001  2.2176e-001 40678 97230,97282,97256
 9.0000e-001 97976  8.6095e-001  3.7746e+000 -5.3778e-001 40244 97702,97832,97754
 9.0000e-001 97953 -8.5930e-001  3.5103e+000 -1.4563e-001 40244 97702,97858,97832
 9.0000e-001 97930  5.1547e-001  3.1441e+000  4.8174e-002 40244 97702,97754,97728
 9.0000e-001 97907 -1.5140e+000  7.5170e+000 -1.4887e+000 40244 97780,97832,97806
 9.0000e-001 97884 -3.8129e+000  1.3585e+000 -1.4510e+000 40244 97754,97832,97780
 9.0000e-001 98482 -7.5817e+000  9.2940e-001  5.9994e-001 39690 98505,98185,98159
 9.0000e-001 98459 -6.8697e+000 -7.3232e-001  9.9717e-001 39690 98505,98159,98289
 9.0000e-001 98436 -7.4946e+000 -1.3219e+000  1.7208e+000 39690 98159,98315,98289
 9.0000e-001 98413 -1.5259e+001 -5.9658e+000  1.4305e+000 39690 98211,98289,98263
 9.0000e-001 98390 -1.2974e+001 -3.6312e+000  4.5538e-001 39690 98211,98263,98237
 9.0000e-001 98367 -7.1147e+000  4.6674e-001  8.2686e-001 39690 98159,98341,98315
 9.0000e-001 98531 -7.6710e+000 -5.4618e-002  1.5723e+000 39690 98211,98185,98505
 9.0000e-001 98554 -7.2487e+000 -2.5101e+000  1.7078e+000 39690 98211,98505,98289
 9.0000e-001 99109 -4.8657e+000  1.1621e+000  9.2745e-001 39072 99132,98867,98789
 9.0000e-001 99086 -1.0504e+001 -3.2387e-001  9.6057e-001 39072 99132,98789,98763
 9.0000e-001 99063 -2.0606e+000  4.9322e-001 -4.4951e-001 39072 98867,98945,98919
 9.0000e-001 99040 -7.1703e+000 -2.2100e+000  2.8386e+000 39072 98789,98867,98841
 9.0000e-001 99017 -7.5927e-001 -8.1312e-001  3.3058e-001 39072 98867,98919,98893
 9.0000e-001 98994 -5.8897e+000  1.2326e+000  2.6888e+000 39072 98789,98841,98815
 9.0000e-001 98971 -4.9076e+000  3.5775e-001 -4.9509e-001 39072 98737,98945,98763
 9.0000e-001 99158 -2.5098e+000 -6.5093e-001 -2.9654e-001 39072 98945,98867,99132
 9.0000e-001 99181 -4.9427e+000  3.2762e-001 -5.5926e-001 39072 98945,99132,98763
 9.0000e-001 99510 -6.1358e+000  7.3045e-001  1.2174e+000 38668 99311,99389,99363
 9.0000e-001 99487 -6.2862e+000  4.9925e-001  9.5717e-001 38668 99285,99389,99311
 9.0000e-001 99464 -4.3088e+000  3.7222e+000  7.4535e-002 38668 99285,99415,99389
 9.0000e-001 99441 -8.0970e+000  1.1832e+000  8.7245e-001 38668 99311,99363,99337
 9.0000e-001 99758 -1.8896e+000  7.6986e-002  5.6768e-001 38164 99781,99611,99585
 9.0000e-001 99735  2.4065e-001 -9.4540e-002  8.8341e-001 38164 99781,99585,99533
 9.0000e-001 99712 -2.3785e+000  3.3805e+000  5.0451e-001 38164 99611,99663,99637
 9.0000e-001 99689  1.3009e+000  3.5574e+000  1.5649e+000 38164 99533,99585,99559
 9.0000e-001 99807 -3.0873e+000  3.6662e-001  1.1452e+000 38164 99663,99611,99781
 9.0000e-001 99830 -1.5524e+000 -1.6243e-001  1.1058e+000 38164 99663,99781,99533
 9.0000e-001 100232 -1.4494e+001 -6.7204e+000 -1.2218e+000 37702 99984,100114,100088
 9.0000e-001 100209 -1.0944e+001 -2.7067e+000  9.0649e-001 37702 99958,100114,99984
 9.0000e-001 100186 -8.8845e+000 -3.5944e+000  1.7555e-001 37702 100010,100088,100036
 9.0000e-001 100163 -1.1578e+001 -5.4272e+000 -8.7409e-001 37702 99984,100088,100010
 9.0000e-001 100140 -9.7168e+000 -4.5823e+000  9.9601e-001 37702 100036,100088,100062
 9.0000e-001 100640  9.2696e-002  2.2808e+000  2.2329e+000 37262 100493,100545,100519
 9.0000e-001 100617  4.1548e-001 -3.8792e-001  9.6159e-001 37262 100441,100545,100493
 9.0000e-001 100594 -4.8333e-001 -1.0834e+000  1.5025e+000 37262 100415,100545,100441
 9.0000e-001 100571  1.9276e+000  1.0938e+000  3.2399e+000 37262 100441,100493,100467
 9.0000e-001 101146 -7.0578e-001 -9.1528e-001  4.0717e-001 36872 100823,100979,100849
 9.0000e-001 101123 -6.8757e-001 -8.6330e-001  4.3009e-001 36872 100823,101005,100979
 9.0000e-001 101100 -2.3969e-001  2.3843e+000 -1.5784e+000 36872 101169,100901,100849
 9.0000e-001 101077 -6.4688e-001  1.5705e+000 -1.1676e+000 36872 101169,100849,100979
 9.0000e-001 101054 -2.6249e+000  4.7286e+000 -1.7211e+000 36872 100927,100979,100953
 9.0000e-001 101031  3.5236e+000  2.1507e+000 -3.5093e-001 36872 100849,100901,100875
 9.0000e-001 101195 -9.1495e-001  2.5891e+000 -1.0368e+000 36872 100927,100901,101169
 9.0000e-001 101218 -1.1819e+000  2.1778e+000 -6.8536e-001 36872 100927,101169,100979
 9.0000e-001 101773 -5.8204e+000  8.5833e-001  1.2279e+000 36418 101479,101609,101583
 9.0000e-001 101750 -8.9798e+000  2.5710e+000 -2.4850e+000 36418 101453,101609,101479
 9.0000e-001 101727 -4.4603e+000 -1.3015e+000 -2.2472e+000 36418 101796,101531,101479
 9.0000e-001 101704 -2.4293e+000 -1.5311e+000 -4.5064e-001 36418 101796,101479,101583
 9.0000e-001 101681 -1.4712e+001 -2.5112e+000  3.0731e+000 36418 101479,101531,101505
 9.0000e-001 101658 -1.5814e+001 -1.4929e+000 -4.4741e+000 36418 101401,101609,101453
 9.0000e-001 101635 -5.5894e-002  2.1668e+000 -2.0183e+000 36418 101401,101453,101427
 9.0000e-001 101822 -3.2451e+000 -8.3558e-001  2.2021e-002 36418 101557,101531,101796
 9.0000e-001 101845  9.3732e-001  1.9856e+000  2.3273e+000 36418 101557,101796,101583
 9.0000e-001 102174  6.2462e-001  1.7385e+000 -1.5178e+000 35914 101949,102053,101975
 9.0000e-001 102151  1.5474e+000  8.4550e-001 -1.4455e+000 35914 101949,102079,102053
 9.0000e-001 102128 -1.7858e+000  6.7609e-001 -1.2857e+000 35914 101975,102053,102027
 9.0000e-001 102105  2.4838e+000  5.0492e+000 -3.4234e+000 35914 101975,102027,102001
 9.0000e-001 102631 -5.7287e+000  2.2900e+000  5.8240e-001 35574 102383,102513,102487
 9.0000e-001 102608 -4.8591e+000  1.2630e+000  3.9416e-001 35574 102357,102513,102383
 9.0000e-001 102585 -3.4138e+000  4.7441e+000 -5.1341e-001 35574 102409,102487,102435
 9.0000e-001 102562 -3.8087e+000  3.8363e+000 -9.6689e-001 35574 102383,102487,102409
 9.0000e-001 102539 -2.4417e+000  8.2227e+000 -9.3365e-001 35574 102435,102487,102461
 9.0000e-001 103009  1.0531e+000  3.9115e+000 -1.9697e-001 35170 102761,102865,102787
 9.0000e-001 102986 -1.2021e+000  2.9641e+000 -1.1395e-001 35170 102761,102891,102865
 9.0000e-001 102963 -9.6613e-001  1.6351e+000 -1.3153e+000 35170 102787,102865,102813
 9.0000e-001 102940 -1.8192e+000  3.3181e+000 -6.5146e-002 35170 102735,102891,102761
 9.0000e-001 102917  2.2463e+000  9.2596e+000 -1.0313e+000 35170 102813,102865,102839
 9.0000e-001 103257  2.3350e-001  2.2565e+000  1.3218e+000 34659 103280,103058,103032
 9.0000e-001 103234 -2.6631e-001  1.1982e+000  1.4597e+000 34659 103280,103032,103162
 9.0000e-001 103211 -2.0374e+000  9.1557e-001  1.4392e+000 34659 103084,103162,103110
 9.0000e-001 103188 -1.9544e+000  3.0634e+000  2.8232e+000 34659 103110,103162,103136
 9.0000e-001 103306 -2.7774e-001  3.5827e+000  1.8393e+000 34659 103084,103058,103280
 9.0000e-001 103329 -8.6698e-001  2.2645e+000  1.9717e+000 34659 103084,103280,103162
 9.0000e-001 103837 -9.2169e+000  4.1108e+000 -1.0823e+000 34247 103860,103566,103540
 9.0000e-001 103814 -4.9314e+000  5.2208e+000  1.5809e-001 34247 103932,103860,103540
 9.0000e-001 103791 -4.4170e+000  6.2592e+000  9.6707e-001 34247 103932,103540,103670
 9.0000e-001 103768 -6.4496e+000  7.3125e+000  1.6808e+000 34247 103566,103618,103592
 9.0000e-001 103745 -3.0849e+000  3.7952e+000  7.9499e-001 34247 103540,103696,103670
 9.0000e-001 103722 -3.1519e+000  4.2370e+000  1.6484e+000 34247 103514,103696,103540
 9.0000e-001 103886 -5.4836e+000  6.7503e+000  3.9323e-001 34247 103618,103566,103860
 9.0000e-001 103909 -6.3173e+000  5.5123e+000  1.0227e+000 34247 103618,103860,103644
 9.0000e-001 103958 -4.7312e+000  7.5532e+000  1.7572e+000 34247 103644,103860,103932
 9.0000e-001 103981 -3.9950e+000  8.6372e+000  2.6235e+000 34247 103644,103932,103670
 9.0000e-001 104300 -6.6484e+000  5.7047e+000 -1.8419e+000 33843 104052,104182,104156
 9.0000e-001 104277 -4.1343e+000  7.9597e+000 -8.5971e-001 33843 104026,104182,104052
 9.0000e-001 104254 -1.3985e+001  1.1570e+001 -3.3411e+000 33843 104078,104156,104130
 9.0000e-001 104231 -1.0274e+001  7.1428e+000 -2.6672e+000 33843 104052,104156,104078
 9.0000e-001 104208 -2.7837e+001 -5.5542e-002  2.2912e+000 33843 104078,104130,104104
 9.0000e-001 104499 -5.8102e-001  7.5103e+000  1.3399e+000 33282 104594,104522,104375
 9.0000e-001 104476 -1.5494e-001  6.7129e+000  3.1125e-001 33282 104522,104323,104427
 9.0000e-001 104453 -1.4103e+000  8.3943e+000  1.1732e+000 33282 104594,104375,104349
 9.0000e-001 104548 -2.6995e+000  5.1687e+000  2.5222e+000 33282 104401,104375,104522
 9.0000e-001 104571 -7.1287e-001  6.4554e+000  1.3233e+000 33282 104401,104522,104427
 9.0000e-001 104620 -1.3348e+000  5.7021e+000  8.6119e-001 33282 104323,104522,104594
 9.0000e-001 104643 -1.7758e+000  7.0168e+000  8.6053e-001 33282 104323,104594,104349
 9.0000e-001 104942 -1.0954e+001 -2.7563e+000  3.6275e+000 32728 104694,104772,104720
 9.0000e-001 104919 -8.2782e+000 -1.3227e+000  3.0258e+000 32728 104694,104824,104772
 9.0000e-001 104896 -1.3140e+001 -1.0872e+000  3.8555e+000 32728 104720,104772,104746
 9.0000e-001 104873 -1.3542e+001 -3.7133e+000  4.6089e+000 32728 104772,104824,104798
 9.0000e-001 104850 -8.6471e+000 -8.8991e-001  3.3489e+000 32728 104668,104824,104694
 9.0000e-001 105373 -6.6888e+000  6.2357e-002  9.1839e-001 32274 105396,105102,105076
 9.0000e-001 105350 -5.6132e+000  2.9768e+000  5.8918e-003 32274 105396,105076,105206
 9.0000e-001 105327 -5.3849e+000 -3.8187e+000  1.3825e+000 32274 105154,105206,105180
 9.0000e-001 105304 -6.9712e+000  3.7006e-001 -4.4950e+000 32274 105076,105232,105206
 9.0000e-001 105281 -7.6977e+000 -4.1510e+000  4.3274e+000 32274 105102,105154,105128
 9.0000e-001 105258 -7.7005e+000  1.3682e+000 -4.5360e+000 32274 105050,105232,105076
 9.0000e-001 105422 -4.8592e+000 -3.0498e+000  8.4676e-001 32274 105154,105102,105396
 9.0000e-001 105445 -3.8909e+000 -8.4455e-002  1.3285e-001 32274 105154,105396,105206
 9.0000e-001 105644  8.0979e+000  1.4509e+001  4.3712e-001 31620 105468,105546,105520
 9.0000e-001 105621  1.0909e+001  1.1636e+001 -9.7013e-001 31620 105468,105572,105546
 9.0000e-001 105598  7.4381e+000  1.4402e+001 -8.4643e-001 31620 105468,105520,105494
 9.0000e-001 105794 -1.1402e+001 -3.6593e-001  8.2034e-002 31158 105889,105817,105693
 9.0000e-001 105771 -1.1579e+001 -6.7206e-001  6.0381e-001 31158 105817,105667,105745
 9.0000e-001 105843 -1.1670e+001  1.8712e+000 -5.7463e-001 31158 105719,105693,105817
 9.0000e-001 105866 -1.3593e+001  3.2351e-001  1.3786e-001 31158 105719,105817,105745
 9.0000e-001 105915 -1.0719e+001 -7.3411e-002  8.9529e-002 31158 105667,105817,105889
 9.0000e-001 106270 -8.8289e-001 -1.6371e+000  5.7817e-001 30818 106293,106071,106045
 9.0000e-001 106247 -4.9980e-001 -8.8214e-001  2.5048e+000 30818 106293,106045,106175
 9.0000e-001 106224 -1.2052e+000  9.5829e-001  2.9083e+000 30818 106123,106175,106149
 9.0000e-001 106201 -2.9377e+000 -9.1506e-001 -1.8890e-001 30818 106071,106123,106097
 9.0000e-001 106319 -2.1006e+000 -1.9699e+000  6.1850e-001 30818 106123,106071,106293
 9.0000e-001 106342 -2.7999e+000 -1.6353e+000  2.2333e+000 30818 106123,106293,106175
 9.0000e-001 106492 -1.8457e+000  4.2356e-001  6.2466e-001 30414 106645,106391,106365
 9.0000e-001 106469  7.6514e-001  1.1576e+000 -1.0446e+000 30414 106515,106365,106443
 9.0000e-001 106541 -8.5146e-001  4.0467e-001  6.7515e-001 30414 106645,106365,106515
 9.0000e-001 106671 -2.7743e-001 -1.8045e+000  2.0421e+000 30414 106417,106391,106645
 9.0000e-001 106694  2.6246e+000 -5.1533e-001  1.4386e+000 30414 106417,106645,106515
 9.0000e-001 106942 -1.6181e+000  6.1071e+000 -1.3751e+000 29910 106965,106795,106769
 9.0000e-001 106919 -5.2927e-001  6.3713e+000 -1.1554e+000 29910 106965,106769,106717
 9.0000e-001 106896 -3.3603e+000  4.3880e+000 -3.0693e+000 29910 106795,106847,106821
 9.0000e-001 106873  3.4236e-001  6.4933e+000  1.1540e+000 29910 106717,106769,106743
 9.0000e-001 106991 -2.5557e+000  6.7759e+000 -1.0743e+000 29910 106847,106795,106965
 9.0000e-001 107014 -1.5108e+000  7.0349e+000 -7.4319e-001 29910 106847,106965,106717
 9.0000e-001 107213 -4.8396e+000 -1.2004e+000  4.0181e+000 29413 107236,107063,107037
 9.0000e-001 107190 -3.3081e+000 -9.6405e-001  3.8587e+000 29413 107236,107037,107141
 9.0000e-001 107167 -5.2975e+000  2.1642e-001  6.3699e+000 29413 107063,107115,107089
 9.0000e-001 107262 -4.0020e+000 -1.7220e+000  4.9278e+000 29413 107115,107063,107236
 9.0000e-001 107285 -2.4653e+000 -1.4258e+000  4.8624e+000 29413 107115,107236,107141
 9.0000e-001 107486 -4.8112e-001  1.6626e+000  1.8814e+000 29009 107336,107388,107362
 9.0000e-001 107463  2.8294e+000  3.4421e+000 -2.2559e+000 29009 107310,107388,107336
 9.0000e-001 107440  5.4060e-001  1.2681e-001 -1.2202e+000 29009 107310,107414,107388
 9.0000e-001 107736 -5.8642e+000  1.2873e+000 -1.6268e+000 28491 107537,107615,107563
 9.0000e-001 107713 -4.9505e+000  1.5697e+000 -2.1153e+000 28491 107537,107641,107615
 9.0000e-001 107690 -3.2186e+000  2.5691e+000 -6.9296e-001 28491 107563,107615,107589
 9.0000e-001 107667 -1.6731e+000 -1.8729e+000 -1.8674e+000 28491 107511,107641,107537
 9.0000e-001 108118 -7.3016e+000  9.8994e-001 -5.9322e-001 27980 108141,107922,107844
 9.0000e-001 108095 -7.9608e+000  2.8116e+000 -6.4121e-001 27980 108141,107844,108000
 9.0000e-001 108072 -8.0810e+000 -7.2122e-001  6.5093e-002 27980 107844,107922,107870
 9.0000e-001 108049 -6.9097e+000  1.0017e+000 -4.4946e-001 27980 107870,107922,107896
 9.0000e-001 108026 -5.7844e+000  8.9338e-001 -7.7952e-001 27980 107922,107974,107948
 9.0000e-001 108167 -7.6605e+000  5.1918e-001 -7.5062e-001 27980 107974,107922,108141
 9.0000e-001 108190 -9.6208e+000  9.6690e-001 -1.3392e+000 27980 107974,108141,108000
 9.0000e-001 108745 -6.2996e-002  1.2905e+000  3.5286e+000 27376 108840,108768,108477
 9.0000e-001 108722 -3.9823e+000 -4.3342e+000  2.0578e+000 27376 108768,108373,108581
 9.0000e-001 108699  2.7840e-001  5.0885e+000  4.9167e+000 27376 108840,108477,108451
 9.0000e-001 108676 -3.1922e+000 -4.1466e-001  1.0897e+000 27376 108373,108451,108399
 9.0000e-001 108653 -3.2652e+000 -2.2475e-001 -9.7250e-001 27376 108503,108581,108529
 9.0000e-001 108630 -3.3233e-001 -5.5113e-001 -1.7677e+000 27376 108529,108581,108555
 9.0000e-001 108607 -2.9869e+000 -2.5191e+000 -1.1909e+000 27376 108399,108451,108425
 9.0000e-001 108794 -2.9456e+000 -2.2157e+000  1.3673e+000 27376 108503,108477,108768
 9.0000e-001 108817 -4.9288e+000 -5.4884e-001  5.2338e-001 27376 108503,108768,108581
 9.0000e-001 108866 -1.7097e+000 -2.3900e+000  1.0623e+000 27376 108373,108768,108840
 9.0000e-001 108889 -1.1152e+000  5.1391e-002  2.9224e+000 27376 108373,108840,108451
 9.0000e-001 109186 -4.5938e+000  5.8745e-001  1.3229e+000 26722 109209,108938,108912
 9.0000e-001 109163 -4.3400e+000  1.5447e+000  1.4186e-001 26722 109281,109209,108912
 9.0000e-001 109140 -5.4599e+000  2.6647e+000  7.5688e-001 26722 109281,108912,109042
 9.0000e-001 109117  5.8341e-001 -4.4850e+000  3.6596e-001 26722 108938,108990,108964
 9.0000e-001 109094 -8.2014e+000  6.0653e+000 -5.9407e-001 26722 108912,109068,109042
 9.0000e-001 109235  3.5984e-001  1.1568e+000  2.5763e+000 26722 108990,108938,109209
 9.0000e-001 109258 -3.6372e+000 -1.9307e+000  7.9293e-001 26722 108990,109209,109016
 9.0000e-001 109307 -6.0716e+000  2.0648e-001 -5.8017e-001 26722 109016,109209,109281
 9.0000e-001 109330 -7.4066e+000  1.3537e+000 -1.0438e-002 26722 109016,109281,109042
 9.0000e-001 109732 -1.5143e+001  8.9541e-001  2.2406e+000 26310 109458,109588,109484
 9.0000e-001 109709 -9.6883e+000  6.3645e+000 -2.0951e+000 26310 109458,109614,109588
 9.0000e-001 109686 -1.5677e+000  7.7328e+000 -4.6400e+000 26310 109510,109562,109536
 9.0000e-001 109663 -2.6617e+000  4.8521e+000 -7.3583e-001 26310 109484,109562,109510
 9.0000e-001 109640 -8.9023e+000  3.7343e+000  1.6032e+000 26310 109484,109588,109562
 9.0000e-001 110159 -4.5616e+000 -5.3617e+000  1.4795e+000 25642 110182,109940,109914
 9.0000e-001 110136 -5.2812e+000 -7.0306e+000  1.3881e+000 25642 110182,109914,109888
 9.0000e-001 110113 -4.6319e+000 -7.6015e+000  5.9763e+000 25642 109966,110018,109992
 9.0000e-001 110090 -7.5851e+000 -6.1069e+000  2.0318e+000 25642 110254,109966,109940
 9.0000e-001 110067 -3.6194e+000 -6.3893e+000  1.3555e+000 25642 109862,110018,109888
 9.0000e-001 110044 -4.6619e+000 -3.6595e+000  2.7676e+000 25642 109836,110018,109862
 9.0000e-001 110208 -6.1350e+000 -6.1512e+000  1.7811e+000 25642 110254,109940,110182
 9.0000e-001 110231 -3.3961e+000 -6.4173e+000  1.5396e+000 25642 110018,110182,109888
 9.0000e-001 110280 -5.4430e+000 -6.5616e+000  2.3222e+000 25642 110018,109966,110254
 9.0000e-001 110303 -4.1350e+000 -6.7143e+000  2.2147e+000 25642 110018,110254,110182
 9.0000e-001 110632  4.2967e+000  2.9580e+000 -1.7324e+000 25188 110407,110485,110433
 9.0000e-001 110609  3.4326e+000  3.0778e+000 -1.5198e+000 25188 110407,110537,110485
 9.0000e-001 110586  1.0357e+000  1.7550e+000  1.0112e+000 25188 110433,110485,110459
 9.0000e-001 110563  6.2384e+000  4.9435e+000  3.0372e+000 25188 110485,110537,110511
 9.0000e-001 110831  2.2929e+000  4.5175e+000 -1.1690e+000 24726 110854,110707,110655
 9.0000e-001 110808  2.4131e+000  3.8033e+000 -5.3495e-001 24726 110854,110655,110759
 9.0000e-001 110785  2.0045e+000  1.3711e+000 -1.6249e+000 24726 110655,110707,110681
 9.0000e-001 110880  2.4409e+000  5.2367e+000 -1.2577e+000 24726 110733,110707,110854
 9.0000e-001 110903  2.7223e+000  4.8241e+000 -5.9295e-001 24726 110733,110854,110759
 9.0000e-001 111234 -2.3555e+000 -1.6422e-001 -9.9376e-001 24222 111257,111087,111035
 9.0000e-001 111211 -4.0762e+000 -9.2414e-001 -2.1752e+000 24222 111257,111035,111009
 9.0000e-001 111188 -7.1693e-001 -2.6102e+000  2.0084e-002 24222 111035,111087,111061
 9.0000e-001 111165 -1.7502e+000 -2.5321e+000 -1.9407e+000 24222 111087,111139,111113
 9.0000e-001 111283 -1.3084e+000 -1.7724e+000 -1.7502e+000 24222 111139,111087,111257
 9.0000e-001 111306 -2.0257e+000 -2.8391e+000 -2.5064e+000 24222 111139,111257,111009
 9.0000e-001 111625 -1.3871e+001 -6.4210e+000  1.1694e+000 23732 111648,111481,111455
 9.0000e-001 111602 -1.2734e+001 -6.4201e+000  4.9013e-001 23732 111648,111455,111377
 9.0000e-001 111579 -1.3746e+001 -9.1527e+000  6.5351e-002 23732 111377,111429,111403
 9.0000e-001 111556 -1.2176e+001 -5.5496e+000 -1.3456e-001 23732 111377,111455,111429
 9.0000e-001 111533 -1.1664e+001 -7.0542e+000  2.8094e-001 23732 111351,111507,111377
 9.0000e-001 111674 -1.2040e+001 -5.9042e+000  1.2450e+000 23732 111507,111481,111648
 9.0000e-001 111697 -1.2067e+001 -6.3507e+000  2.8071e-001 23732 111507,111648,111377
 9.0000e-001 112156 -4.5812e+000 -4.8051e+000  1.9005e+000 23278 112179,111908,111882
 9.0000e-001 112133 -4.6802e+000 -3.8761e+000  8.2526e-001 23278 112179,111882,112012
 9.0000e-001 112110 -1.6096e+000 -3.0167e+000  4.5917e-001 23278 111908,111960,111934
 9.0000e-001 112087 -5.2301e+000 -9.6174e-001  8.0669e-001 23278 111882,112038,112012
 9.0000e-001 112064 -4.0936e+000 -2.7703e+000  1.9024e-002 23278 111960,112012,111986
 9.0000e-001 112205 -3.9914e+000 -4.2079e+000  1.1829e+000 23278 111960,111908,112179
 9.0000e-001 112228 -3.4432e+000 -2.9904e+000  2.3021e-002 23278 111960,112179,112012
 9.0000e-001 112685 -7.0635e+000 -1.1937e+001  2.3383e+000 22938 112489,112567,112541
 9.0000e-001 112662 -3.7661e+000 -3.8017e+000  2.1071e+000 22938 112437,112567,112489
 9.0000e-001 112639 -7.0263e+000 -7.7833e+000  2.9996e+000 22938 112489,112541,112515
 9.0000e-001 112616 -3.6161e+000 -2.4100e+000  2.6063e+000 22938 112411,112567,112437
 9.0000e-001 112593 -6.0099e+000 -1.2083e+001  4.7813e+000 22938 112437,112489,112463
 9.0000e-001 113191 -6.7900e+000 -2.4872e+000  1.3659e-001 22534 113214,112998,112946
 9.0000e-001 113168 -7.3366e+000 -1.8232e+000  3.6763e-001 22534 113286,113214,112946
 9.0000e-001 113145 -7.0070e+000 -1.8834e+000  4.7905e-001 22534 113286,112946,112920
 9.0000e-001 113122 -8.6436e+000 -1.5181e+000 -3.0642e-001 22534 113358,113024,112998
 9.0000e-001 113099 -5.2727e+000  6.8899e-002  8.8892e-001 22534 112868,113050,112894
 9.0000e-001 113076 -7.0540e+000 -6.0116e+000 -2.1294e-001 22534 112946,112998,112972
 9.0000e-001 113240 -8.0828e+000 -2.4273e+000 -3.8555e-001 22534 113358,112998,113214
 9.0000e-001 113263 -7.2168e+000 -1.6793e+000  1.3477e-001 22534 113050,113214,112894
 9.0000e-001 113312 -6.9535e+000 -1.6179e+000  4.8434e-001 22534 112894,113214,113286
 9.0000e-001 113335 -6.6529e+000 -1.7496e+000  5.4501e-001 22534 112894,113286,112920
 9.0000e-001 113384 -7.9568e+000 -8.8805e-001  2.9127e-002 22534 113050,113024,113358
 9.0000e-001 113407 -7.0826e+000 -1.5546e+000  2.3523e-002 22534 113050,113358,113214
 9.0000e-001 113785 -2.6906e+000 -7.2665e+000  3.2495e+000 21978 113808,113615,113511
 9.0000e-001 113762 -3.4612e+000 -8.4688e+000  4.3189e+000 21978 113808,113511,113667
 9.0000e-001 113739  8.4811e-001 -6.3573e+000  2.0075e+000 21978 113511,113615,113537
 9.0000e-001 113716  3.8804e+000 -7.9726e+000 -1.7795e+000 21978 113537,113615,113589
 9.0000e-001 113693  7.9854e+000 -2.8085e+000 -3.5721e+000 21978 113537,113589,113563
 9.0000e-001 113834 -1.9584e+000 -5.9956e+000  1.8879e+000 21978 113641,113615,113808
 9.0000e-001 113857 -3.7598e+000 -6.9416e+000  3.1157e+000 21978 113641,113808,113667
 9.0000e-001 114284 -3.7385e+000 -2.9507e+000 -1.0065e+000 21517 114013,114117,114039
 9.0000e-001 114261 -2.3286e+000 -2.0753e+000 -2.8643e-001 21517 113961,114117,114013
 9.0000e-001 114238 -4.5710e+000 -1.2573e+000 -8.0798e-001 21517 113961,114013,113987
 9.0000e-001 114215 -1.9849e+000 -2.7925e+000 -1.0595e-001 21517 114039,114117,114091
 9.0000e-001 114192 -1.3482e+000 -2.2881e+000 -8.4326e-001 21517 113961,114143,114117
 9.0000e-001 114169 -2.2699e+000 -2.9046e+000 -1.1623e-001 21517 114039,114091,114065
 9.0000e-001 114581 -1.3574e+001 -1.4163e+001  4.5888e-001 21027 114359,114463,114437
 9.0000e-001 114558 -1.2469e+001 -1.3686e+001  5.3092e-001 21027 114333,114463,114359
 9.0000e-001 114535 -1.2554e+001 -1.4107e+001  2.3010e-001 21027 114359,114437,114385
 9.0000e-001 114512 -1.4442e+001 -1.5565e+001 -2.9869e+000 21027 114307,114463,114333
 9.0000e-001 114489 -1.4156e+001 -1.3902e+001 -1.5482e-002 21027 114385,114437,114411
 9.0000e-001 114912 -1.7465e+000 -3.3969e+000 -1.9563e-001 20623 114713,114791,114765
 9.0000e-001 114889 -2.0691e+000 -3.5137e+000  7.4071e-001 20623 114687,114791,114713
 9.0000e-001 114866 -2.9207e+000 -3.4448e+000  9.4973e-001 20623 114687,114817,114791
 9.0000e-001 114843 -4.2004e+000 -5.1711e+000  8.3067e-001 20623 114713,114765,114739
 9.0000e-001 115290 -6.8168e-001 -2.4303e+000 -9.4405e-001 20375 115313,115146,115094
 9.0000e-001 115267 -1.7767e+000 -2.5723e+000 -3.9004e-001 20375 115313,115094,115042
 9.0000e-001 115244 -2.7828e+000 -7.7621e-001 -1.0844e+000 20375 115385,115016,115172
 9.0000e-001 115221 -2.3961e+000 -2.8354e+000 -3.3724e-001 20375 115042,115094,115068
 9.0000e-001 115198 -9.0537e-002 -2.8796e+000  8.6482e-001 20375 115094,115146,115120
 9.0000e-001 115339 -2.9641e+000 -4.3664e+000 -1.8664e+000 20375 115172,115146,115313
 9.0000e-001 115362 -1.3153e+000 -1.4478e+000 -1.0858e+000 20375 115385,115172,115313
 9.0000e-001 115411 -3.3402e+000 -1.4170e+000 -6.2056e-001 20375 115042,115016,115385
 9.0000e-001 115434 -2.7563e+000 -2.7436e+000 -3.6224e-001 20375 115042,115385,115313
 9.0000e-001 115891  2.7319e-002  7.0577e-001 -3.0031e+000 19971 115617,115747,115643
 9.0000e-001 115868 -5.5137e-001  1.1348e+000 -5.6973e+000 19971 115617,115773,115747
 9.0000e-001 115845 -2.3258e-001 -2.1134e-001 -2.3540e+000 19971 115643,115721,115695
 9.0000e-001 115822  1.4185e-001  6.0343e-004 -2.8136e+000 19971 115643,115747,115721
 9.0000e-001 115799 -7.8618e-002  1.7626e+000 -1.4008e+000 19971 115643,115695,115669
 9.0000e-001 115992 -1.1525e+001 -1.0272e+001 -2.0466e+000 19659 115914,115966,115940
 9.0000e-001 116142 -1.3127e+001 -7.4638e+000 -1.3566e-001 18997 116041,116093,116067
 9.0000e-001 116119 -1.3251e+001 -8.0573e+000  2.9618e-001 18997 116015,116093,116041
 9.0000e-001 116343  9.0471e-001  1.0152e+000 -2.1514e-001 18707 116193,116245,116219
 9.0000e-001 116320 -9.5557e-002  5.0131e-001 -4.0320e-001 18707 116193,116271,116245
 9.0000e-001 116297  1.9668e+000  4.5855e+000  4.9963e-001 18707 116167,116271,116193
 9.0000e-001 116747 -4.1191e+000 -1.3652e+000  2.1218e-001 18301 116525,116629,116551
 9.0000e-001 116724 -1.6156e+000 -1.0114e+000  8.7850e-001 18301 116473,116629,116525
 9.0000e-001 116701 -1.6562e+000 -1.9431e+000 -9.4799e-002 18301 116473,116525,116499
 9.0000e-001 116678 -4.6821e+000 -5.9757e-001 -1.0607e-001 18301 116551,116603,116577
 9.0000e-001 116655 -3.2293e+000  7.2146e-001  4.4905e-001 18301 116551,116629,116603
 9.0000e-001 117147 -9.6593e+000 -1.0623e+001  3.4394e-001 17747 116899,117029,116925
 9.0000e-001 117124 -1.1105e+001 -1.3851e+001 -8.1241e-001 17747 116873,117029,116899
 9.0000e-001 117101 -8.7763e+000 -9.4913e+000  7.4174e-001 17747 116925,117029,116951
 9.0000e-001 117078 -9.8618e+000 -1.1758e+001  1.0743e+000 17747 116951,117029,117003
 9.0000e-001 117055 -6.6082e+000 -2.9106e+000  3.1229e+000 17747 116951,117003,116977
 9.0000e-001 117368 -9.1152e+000  4.1617e-001 -8.7943e-001 17293 117244,117296,117270
 9.0000e-001 117345 -7.0293e+000  2.0210e+000 -1.2589e-001 17293 117192,117296,117244
 9.0000e-001 117322 -6.1140e+000  4.4795e-001  9.2036e-002 17293 117192,117244,117218
 9.0000e-001 117699 -6.5531e+000 -2.3846e+000  4.6734e-001 16896 117526,117604,117552
 9.0000e-001 117676 -3.4107e+000 -2.4439e+000 -4.2622e-002 16896 117500,117604,117526
 9.0000e-001 117653 -4.0535e+000 -4.1731e+000  1.9696e+000 16896 117552,117604,117578
 9.0000e-001 117630 -3.0475e+000 -4.4669e+000  3.3865e-001 16896 117474,117604,117500
 9.0000e-001 117849 -1.3780e+001 -2.8027e-001  1.7879e+000 16534 117722,117774,117748
 9.0000e-001 117826 -1.0262e+001  1.3337e+001  1.9254e+000 16534 117722,117800,117774
 9.0000e-001 118070 -1.7577e+000 -2.2094e+000  1.0257e-001 16194 117946,117998,117972
 9.0000e-001 118047 -1.9800e+000 -2.6434e+000  1.1976e-002 16194 117894,117998,117946
 9.0000e-001 118024 -2.0792e+000 -2.5550e+000 -6.7219e-002 16194 117894,117946,117920
 9.0000e-001 118173 -1.2507e+001 -1.4524e+001  0.0000e+000 15968 118095,118147,118121
 9.0000e-001 118276 -2.3997e+000 -2.5491e+000  1.3063e+000 15433 118299,118198,118250
 9.0000e-001 118325 -3.4640e+000 -5.0323e+000  1.3307e+000 15433 118224,118198,118299
 9.0000e-001 118450 -1.3596e+001 -1.1860e+001 -6.6007e-001 421 118372,118424,118398
 1.0000e+000 69891  1.0733e+000 -7.4963e+000  1.0801e-001 68988 69447,69681,69629
 1.0000e+000 69868  3.7537e+000 -6.7751e+000  1.4734e+000 68988 69421,69681,69447
 1.0000e+000 69845  2.1855e+000 -4.7792e+000 -1.9843e-001 68988 69447,69629,69577
 1.0000e+000 69822  8.2150e-001 -7.6727e+000 -7.2747e-001 68988 69447,69577,69473
 1.0000e+000 69799  2.8186e+000 -5.6242e+000  1.1217e+000 68988 69629,69681,69655
 1.0000e+000 69776 -3.1566e-001 -5.7673e+000 -6.3970e-001 68988 69577,69629,69603
 1.0000e+000 69753  1.9233e+000 -8.2826e+000 -2.5393e+000 68988 69473,69577,69551
 1.0000e+000 69730  1.5323e+000 -1.5875e+001 -2.5679e+000 68988 69473,69551,69525
 1.0000e+000 69707  5.0847e+000 -9.1749e+000 -1.1286e-001 68988 69473,69525,69499
 1.0000e+000 69992  1.8367e+000 -3.5453e+000 -1.1913e+000 68676 69914,69966,69940
 1.0000e+000 70392  6.4534e+000  5.2716e+000 -1.1147e-001 68478 70118,70248,70144
 1.0000e+000 70369  8.7236e+000  5.5241e+000  5.7745e-001 68478 70118,70274,70248
 1.0000e+000 70346  5.8940e+000  4.9053e+000 -5.0440e-001 68478 70144,70222,70196
 1.0000e+000 70323  6.1728e+000  5.3698e+000 -3.2038e-002 68478 70144,70248,70222
 1.0000e+000 70300  6.2803e+000  4.2558e+000 -3.8466e-001 68478 70144,70196,70170
 1.0000e+000 70841  8.3142e+000  6.7081e+000 -1.0670e+000 68280 70570,70622,70596
 1.0000e+000 70818  4.6121e+000  5.9460e+000 -7.0339e-003 68280 70544,70622,70570
 1.0000e+000 70795  4.5353e+000  5.5650e+000  1.0239e-001 68280 70544,70674,70622
 1.0000e+000 70772  4.1105e+000  6.1828e+000  5.5818e-001 68280 70622,70674,70648
 1.0000e+000 70749  5.1396e+000  5.9555e+000 -8.5766e-002 68280 70518,70674,70544
 1.0000e+000 70726  7.2621e+000  5.1240e+000  4.7357e-001 68280 70518,70700,70674
 1.0000e+000 70991  8.6698e+000  7.7476e+000  4.6598e-001 67968 70864,70916,70890
 1.0000e+000 70968  4.5840e+000  7.2325e+000  1.2757e+000 67968 70864,70942,70916
 1.0000e+000 71141  6.9250e-002 -1.7495e+000  2.1449e+000 67770 71040,71092,71066
 1.0000e+000 71118  4.8613e+000  2.3688e+000  3.0672e-001 67770 71014,71092,71040
 1.0000e+000 71651  5.2221e+000  6.2885e+000  1.7223e-002 67366 71746,71674,71458
 1.0000e+000 71628  5.2756e+000  6.1923e+000  3.2444e-002 67366 71674,71354,71510
 1.0000e+000 71605  5.0206e+000  6.3479e+000  5.2717e-002 67366 71746,71458,71432
 1.0000e+000 71582  5.0464e+000  6.2645e+000 -3.0143e-001 67366 71354,71432,71380
 1.0000e+000 71559  4.1383e+000  6.9182e+000 -6.4607e-001 67366 71380,71432,71406
 1.0000e+000 71536  6.0465e+000  7.3898e+000  5.0668e-001 67366 71328,71510,71354
 1.0000e+000 71700  5.1847e+000  6.3094e+000  7.4433e-002 67366 71484,71458,71674
 1.0000e+000 71723  5.3362e+000  6.4171e+000  2.2793e-001 67366 71484,71674,71510
 1.0000e+000 71772  4.9916e+000  6.2224e+000 -7.1095e-002 67366 71354,71674,71746
 1.0000e+000 71795  4.8738e+000  6.3397e+000 -4.6812e-002 67366 71354,71746,71432
 1.0000e+000 71896  5.7568e+000 -8.7949e+000  0.0000e+000 67146 71818,71870,71844
 1.0000e+000 71997  4.5006e+000 -2.1756e+001  1.2078e+001 66948 71919,71971,71945
 1.0000e+000 72149  6.8195e+000  6.9493e-001  3.3370e-001 66700 72172,72074,72048
 1.0000e+000 72126  6.3139e+000  1.5787e+000  1.4328e-001 66700 72172,72048,72022
 1.0000e+000 72198  5.9858e+000 -6.6749e-001  9.0344e-001 66700 72244,72172,72100
 1.0000e+000 72221  6.0492e+000  2.8327e-002 -2.9386e-001 66700 72100,72172,72022
 1.0000e+000 72270  6.8121e+000  1.1753e+000  4.4724e-001 66700 72074,72172,72244
 1.0000e+000 72623  5.8121e+000  2.6050e+000 -9.2271e-002 66502 72424,72502,72450
 1.0000e+000 72600  5.9037e+000  3.0824e+000 -2.6408e-001 66502 72398,72502,72424
 1.0000e+000 72577  6.7918e+000  2.2567e+000 -4.8831e-001 66502 72398,72528,72502
 1.0000e+000 72554  5.6583e+000  3.2752e+000 -2.7195e-001 66502 72450,72502,72476
 1.0000e+000 72920  4.6713e+000  6.0180e+000  2.8472e-001 65941 72672,72776,72750
 1.0000e+000 72897  3.9365e+000  6.2700e+000  4.4423e-001 65941 72646,72776,72672
 1.0000e+000 72874  5.2479e+000  6.5826e+000 -2.0119e-001 65941 72672,72750,72724
 1.0000e+000 72851  5.0762e+000  5.4445e+000 -2.7954e-001 65941 72672,72724,72698
 1.0000e+000 72828  3.0149e+000  7.6266e+000 -7.6366e-004 65941 72646,72802,72776
 1.0000e+000 73241  6.6112e+000  3.6848e+000  2.0412e-002 65743 73264,73071,73045
 1.0000e+000 73218  6.0590e+000  3.1914e+000  3.8256e-001 65743 73480,73264,73045
 1.0000e+000 73195  6.3323e+000  4.1423e+000 -4.1526e-002 65743 73336,72967,73097
 1.0000e+000 73172  5.6364e+000  4.1884e+000 -4.9028e-002 65743 73408,72993,72967
 1.0000e+000 73149  6.1408e+000  3.5827e+000 -2.8697e-001 65743 72967,73123,73097
 1.0000e+000 73290  6.4597e+000  4.0995e+000 -1.0055e-001 65743 73097,73071,73264
 1.0000e+000 73313  6.2066e+000  3.7567e+000  1.0857e-002 65743 73336,73097,73264
 1.0000e+000 73362  5.8099e+000  3.8822e+000  4.7621e-002 65743 73408,72967,73336
 1.0000e+000 73385  6.8430e+000  4.0500e+000  1.2915e-001 65743 73019,73336,73264
 1.0000e+000 73434  5.9034e+000  4.4047e+000  5.1243e-001 65743 73019,72993,73408
 1.0000e+000 73457  6.6361e+000  4.2211e+000  3.8953e-001 65743 73019,73408,73336
 1.0000e+000 73506  6.7215e+000  4.0198e+000  4.7539e-002 65743 73019,73264,73480
 1.0000e+000 73989  5.0530e+000  6.4253e+000 -3.0593e-002 65453 73793,73845,73819
 1.0000e+000 73966  5.3852e+000  6.5175e+000 -3.9107e-002 65453 73741,73845,73793
 1.0000e+000 73943  5.0888e+000  6.3447e+000  3.2013e-002 65453 73715,73845,73741
 1.0000e+000 73920  5.4445e+000  7.9537e+000 -2.5192e-001 65453 73741,73793,73767
 1.0000e+000 73897  4.7329e+000  6.1294e+000  3.1066e-001 65453 73715,73871,73845
 1.0000e+000 74357  3.7551e+000 -1.6648e+000  1.1712e+000 65141 74380,74138,74086
 1.0000e+000 74334  4.4436e+000 -3.9626e-003  1.0272e+000 65141 74380,74086,74060
 1.0000e+000 74311  3.4383e+000  5.2976e-001  6.0878e-001 65141 74138,74190,74164
 1.0000e+000 74288  5.4004e+000 -8.5294e-001  8.8881e-002 65141 74060,74216,74190
 1.0000e+000 74265  4.8573e+000 -2.2180e+000  4.7428e-001 65141 74034,74216,74060
 1.0000e+000 74242  7.8720e+000 -2.0941e+000  9.7060e-001 65141 74086,74138,74112
 1.0000e+000 74406  3.9384e+000 -2.6657e-001  3.6794e-001 65141 74190,74138,74380
 1.0000e+000 74429  4.2050e+000  3.4295e-001  3.3076e-001 65141 74190,74380,74060
 1.0000e+000 74937  2.9251e+000 -3.1904e+000 -5.4366e-002 64737 74614,74666,74640
 1.0000e+000 74914  3.2519e+000 -6.5241e-001 -5.5687e-001 64737 74614,74796,74666
 1.0000e+000 74891  5.5560e+000  2.3079e+000 -2.3643e-002 64737 74960,74718,74666
 1.0000e+000 74868  5.3153e+000  1.8727e+000 -3.2255e-001 64737 74960,74666,74770
 1.0000e+000 74845  4.7389e+000  2.8591e+000 -5.8940e-001 64737 74666,74796,74770
 1.0000e+000 74822  7.3530e+000  1.3351e+000  7.6615e-001 64737 74666,74718,74692
 1.0000e+000 74986  5.7760e+000  1.9633e+000 -4.7087e-001 64737 74744,74718,74960
 1.0000e+000 75009  5.1333e+000  1.2319e+000 -8.4835e-001 64737 74744,74960,74770
 1.0000e+000 75306  5.3971e+000  4.9726e+000 -8.1391e-001 64133 75329,75110,75084
 1.0000e+000 75283  5.4479e+000  5.5532e+000 -4.6053e-001 64133 75401,75329,75084
 1.0000e+000 75260  5.1649e+000  5.0720e+000 -5.7709e-001 64133 75401,75084,75058
 1.0000e+000 75237  5.3041e+000  6.7306e+000 -1.0853e+000 64133 75473,75136,75110
 1.0000e+000 75214  5.1727e+000  5.9447e+000  8.9043e-003 64133 75032,75188,75162
 1.0000e+000 75355  5.8351e+000  6.0167e+000 -7.2320e-001 64133 75473,75110,75329
 1.0000e+000 75378  5.7282e+000  5.8416e+000 -5.0133e-002 64133 75162,75329,75032
 1.0000e+000 75427  5.4908e+000  5.4011e+000 -4.1092e-001 64133 75032,75329,75401
 1.0000e+000 75450  5.1390e+000  4.8597e+000 -2.0453e-001 64133 75545,75401,75058
 1.0000e+000 75499  4.0697e+000  5.9218e+000 -6.7449e-001 64133 75162,75136,75473
 1.0000e+000 75522  4.9437e+000  5.2306e+000 -3.7712e-001 64133 75162,75473,75329
 1.0000e+000 75571  5.7521e+000  6.2802e+000 -2.5309e-001 64133 75032,75401,75545
 1.0000e+000 75851  4.0169e+000  2.4789e+000 -3.0579e-002 63843 75874,75753,75727
 1.0000e+000 75828  3.9332e+000  1.3106e+000 -5.6384e-001 63843 75946,75874,75727
 1.0000e+000 75805  4.0200e+000  7.0567e-001 -2.8768e-001 63843 76018,75946,75727
 1.0000e+000 75900  4.6448e+000  2.7513e+000  2.2923e-001 63843 75779,75753,75874
 1.0000e+000 75923  4.2815e+000  3.3303e+000 -4.7990e-001 63843 75779,75874,75675
 1.0000e+000 75972  4.0363e+000  2.7748e+000 -1.1659e-001 63843 75675,75874,75946
 1.0000e+000 75995  3.5647e+000  1.6807e+000  3.3154e-002 63843 75675,75946,75701
 1.0000e+000 76044  4.4058e+000  1.5547e+000 -1.9029e-001 63843 75701,75946,76018
 1.0000e+000 76454  2.8786e+000  5.3875e-001 -1.9146e+000 63439 76477,76255,76229
 1.0000e+000 76431  1.4046e+000 -1.3903e+000 -5.2257e-001 63439 76477,76229,76359
 1.0000e+000 76408 -1.3149e+000 -1.5292e+000  4.0843e-001 63439 76307,76359,76333
 1.0000e+000 76385  5.2511e-001  6.7499e-001 -5.3730e-001 63439 76255,76307,76281
 1.0000e+000 76503  5.9182e-001 -1.2354e+000 -8.7522e-001 63439 76307,76255,76477
 1.0000e+000 76526  1.0434e+000 -1.7988e+000  2.1943e-001 63439 76307,76477,76359
 1.0000e+000 76926  1.5468e+000 -4.2731e+000 -1.8733e-001 63049 76704,76782,76756
 1.0000e+000 76903  6.8689e-001 -4.7534e+000  2.7829e-001 63049 76704,76808,76782
 1.0000e+000 76880  1.2665e+000 -6.4413e+000  3.1041e-001 63049 76704,76756,76730
 1.0000e+000 76857  1.8803e+000 -3.6541e+000  7.4316e-001 63049 76678,76808,76704
 1.0000e+000 76834  7.2839e+000 -2.2148e+000 -6.3496e-002 63049 76652,76808,76678
 1.0000e+000 77076  3.5588e+000  5.9523e+000  4.2162e-001 62737 76975,77027,77001
 1.0000e+000 77053  2.9016e+000  5.9958e+000  4.8557e-001 62737 76949,77027,76975
 1.0000e+000 77324  3.4251e+000  3.0178e+000 -4.7502e-001 62277 77347,77177,77125
 1.0000e+000 77301  3.6813e+000  2.9388e+000 -1.9422e-001 62277 77347,77125,77229
 1.0000e+000 77278  5.8000e+000  2.3473e+000 -7.7739e-001 62277 77099,77229,77125
 1.0000e+000 77255  3.5866e+000  1.9273e+000 -4.5054e-001 62277 77125,77177,77151
 1.0000e+000 77373  3.5931e+000  3.3145e+000 -3.5106e-001 62277 77203,77177,77347
 1.0000e+000 77396  3.8692e+000  3.1059e+000 -9.1764e-002 62277 77203,77347,77229
 1.0000e+000 77857  3.3423e+000  4.7133e+000  5.5851e-001 61758 77635,77739,77661
 1.0000e+000 77834  2.6039e+000  5.7019e+000  1.0033e-001 61758 77583,77739,77635
 1.0000e+000 77811  2.4689e+000  7.3284e+000  1.2221e+000 61758 77583,77635,77609
 1.0000e+000 77788  4.4958e+000  5.2226e+000  1.2492e-001 61758 77661,77713,77687
 1.0000e+000 77765  4.0922e+000  5.4017e+000 -7.9615e-002 61758 77661,77739,77713
 1.0000e+000 78491  2.1937e+000 -2.4430e+000  2.8824e-001 61418 78171,78301,78249
 1.0000e+000 78468  4.1731e+000 -1.1105e+000  8.7993e-001 61418 78145,78301,78171
 1.0000e+000 78445  1.2512e+000 -2.2742e+000 -5.5083e-001 61418 78171,78249,78223
 1.0000e+000 78422  5.4052e+000 -6.3141e-001  2.0164e+000 61418 78145,78327,78301
 1.0000e+000 78399  2.3080e+000 -2.0168e+000  4.1859e-001 61418 78249,78301,78275
 1.0000e+000 78376 -3.0771e-001 -3.9634e+000  9.5205e-002 61418 78171,78223,78197
 1.0000e+000 78353  5.9169e+000 -3.8664e-001  2.1692e+000 61418 78119,78327,78145
 1.0000e+000 78690 -5.2742e-001 -8.2907e+000 -2.6557e-002 61014 78713,78566,78540
 1.0000e+000 78667 -7.4932e-001 -8.0882e+000 -1.2227e-001 61014 78713,78540,78618
 1.0000e+000 78644 -1.4935e+000 -8.7010e+000 -7.5164e-001 61014 78514,78618,78540
 1.0000e+000 78739 -7.1217e-001 -7.3507e+000 -2.1107e-001 61014 78592,78566,78713
 1.0000e+000 78762 -1.2565e+000 -8.2836e+000 -3.3549e-001 61014 78785,78713,78618
 1.0000e+000 78811 -1.3273e+000 -8.1893e+000  9.5880e-002 61014 78592,78713,78785
 1.0000e+000 79398 -4.6404e-001 -3.4508e+000 -1.9642e-001 60624 79101,79179,79153
 1.0000e+000 79375  1.2720e+000 -3.2089e+000 -3.2728e-001 60624 79101,79231,79179
 1.0000e+000 79352  5.3065e-001 -4.0378e+000 -1.1339e+000 60624 79075,79231,79101
 1.0000e+000 79329 -1.9641e+000 -6.5303e+000  3.2675e-001 60624 79075,79257,79231
 1.0000e+000 79306  1.6460e+000 -3.4072e+000  1.0440e+000 60624 79179,79231,79205
 1.0000e+000 79283 -8.2346e-001 -4.1019e+000 -1.0631e+000 60624 79101,79153,79127
 1.0000e+000 79776  3.3326e+000  2.2184e+000 -2.1728e-001 60070 79528,79658,79606
 1.0000e+000 79753  3.1396e+000  2.0540e+000 -4.5777e-001 60070 79502,79658,79528
 1.0000e+000 79730  3.5392e+000  2.7331e+000  1.2623e-001 60070 79528,79606,79580
 1.0000e+000 79707  4.4342e+000  2.4034e+000 -4.1499e-001 60070 79606,79658,79632
 1.0000e+000 79684  2.9535e+000  3.0584e+000 -6.8635e-001 60070 79528,79580,79554
 1.0000e+000 80105  1.4323e+000  5.8735e-001 -1.0853e+000 59758 80128,79958,79906
 1.0000e+000 80082  3.0131e+000 -1.0743e-001 -6.6602e-001 59758 80128,79906,80010
 1.0000e+000 80059 -6.4227e-001 -4.0597e+000 -6.8219e-001 59758 79906,79958,79932
 1.0000e+000 80036  4.6146e+000  1.2554e+000 -6.1538e-002 59758 79880,80010,79906
 1.0000e+000 80154  2.2985e+000  9.5265e-001 -5.0138e-001 59758 79984,79958,80128
 1.0000e+000 80177  3.7178e+000  3.5701e-001  2.4342e-002 59758 79984,80128,80010
 1.0000e+000 80376 -7.5938e-001 -9.5041e+000  2.7633e-001 59312 80226,80304,80252
 1.0000e+000 80353 -5.8993e-001 -9.1583e+000  3.5958e-001 59312 80200,80304,80226
 1.0000e+000 80330 -1.6381e+000 -1.0175e+001  1.0839e+000 59312 80252,80304,80278
 1.0000e+000 80805  1.2053e+000  2.1653e+000  4.0905e-001 58908 80900,80828,80638
 1.0000e+000 80782  1.6983e+000  1.7811e+000  5.7455e-001 58908 80828,80560,80508
 1.0000e+000 80759  1.2100e+000  1.9568e+000  1.1053e-001 58908 80900,80638,80612
 1.0000e+000 80736  1.2354e+000  2.1773e+000  1.3439e+000 58908 80482,80664,80508
 1.0000e+000 80713  9.4720e-001  2.4317e+000 -3.4986e-001 58908 80560,80612,80586
 1.0000e+000 80690  1.9469e+000  8.8239e-001  1.9904e-001 58908 80508,80560,80534
 1.0000e+000 80854  1.2607e+000  1.9799e+000  6.1639e-001 58908 80664,80638,80828
 1.0000e+000 80877  1.1811e+000  1.4032e+000  7.5147e-001 58908 80664,80828,80508
 1.0000e+000 80926  1.0654e+000  1.6027e+000  4.0249e-001 58908 80560,80828,80900
 1.0000e+000 80949  1.1222e+000  1.5624e+000  6.2059e-002 58908 80560,80900,80612
 1.0000e+000 81246  1.6696e+000  4.2310e+000  1.1524e-001 58482 81076,81128,81102
 1.0000e+000 81223  2.6734e+000  4.9863e+000  5.1437e-001 58482 80972,81128,81076
 1.0000e+000 81200  2.3523e+000  3.6854e+000  4.8958e-001 58482 80972,81076,81050
 1.0000e+000 81177  4.2639e+000  3.0124e+000  1.9991e-001 58482 80998,81050,81024
 1.0000e+000 81154  2.6241e+000  3.5601e+000  7.2878e-001 58482 80972,81050,80998
 1.0000e+000 81754  1.3864e+000  2.5440e+000  3.3398e-001 57828 81457,81613,81483
 1.0000e+000 81731  2.2097e+000  3.9711e+000  9.9818e-001 57828 81431,81613,81457
 1.0000e+000 81708  1.2520e+000  2.2514e+000  8.5581e-001 57828 81483,81613,81509
 1.0000e+000 81685  2.0837e+000  3.1538e+000  5.0144e-001 57828 81509,81613,81587
 1.0000e+000 81662  1.6771e+000  2.2259e+000  3.9793e-001 57828 81509,81587,81535
 1.0000e+000 81639  3.3838e+000  2.0032e+000 -7.9175e-002 57828 81535,81587,81561
 1.0000e+000 82002  1.9774e+000 -2.3712e+000 -1.1916e-001 57374 82025,81855,81829
 1.0000e+000 81979  6.0101e-001 -1.6981e+000  6.4606e-001 57374 82025,81829,81907
 1.0000e+000 81956 -7.0695e-001 -2.8004e+000 -3.2871e-002 57374 81803,81907,81829
 1.0000e+000 81933 -1.9352e+000 -2.3360e+000  8.0974e-001 57374 81777,81907,81803
 1.0000e+000 82051  3.9651e+000 -1.2914e+000 -9.1720e-001 57374 81881,81855,82025
 1.0000e+000 82074  1.1587e+000 -1.5820e+000 -1.0806e-001 57374 81881,82025,81907
 1.0000e+000 82356  2.3092e+000  1.5263e+000 -6.8204e-001 56913 82180,82232,82206
 1.0000e+000 82333  2.8801e+000  2.7463e+000 -4.4895e-001 56913 82180,82284,82232
 1.0000e+000 82310  3.7234e+000  1.5532e+000 -3.3999e-001 56913 82379,82232,82284
 1.0000e+000 82405  3.3464e+000  1.6540e+000  1.9319e-001 56913 82258,82232,82379
 1.0000e+000 82764  2.9063e+000  4.1571e+000 -1.7884e-001 56523 82614,82666,82640
 1.0000e+000 82741  2.4882e+000  3.4794e+000 -7.9040e-004 56523 82614,82692,82666
 1.0000e+000 82718  3.2138e+000  3.7247e+000 -5.3858e-002 56523 82588,82692,82614
 1.0000e+000 83368 -1.9059e+000 -8.3300e+000  2.4765e-001 55969 82973,83155,83129
 1.0000e+000 83345 -1.7869e+000 -8.4419e+000 -7.4724e-001 55969 82973,83181,83155
 1.0000e+000 83322 -7.2969e-001 -8.0662e+000 -2.6591e-002 55969 82973,83129,82999
 1.0000e+000 83299 -5.1010e+000 -9.8448e+000  1.2320e+000 55969 83391,83025,82999
 1.0000e+000 83276 -3.3292e+000 -9.3495e+000  5.4411e-001 55969 83391,82999,83129
 1.0000e+000 83253  6.3437e-002 -8.1401e+000  1.8601e+000 55969 83077,83129,83103
 1.0000e+000 83230 -2.9960e+000 -7.8420e+000  2.2862e-001 55969 83025,83077,83051
 1.0000e+000 83207  1.7192e+000 -7.1113e+000 -1.5380e+000 55969 82947,83181,82973
 1.0000e+000 83417 -3.3383e+000 -9.3303e+000  1.0019e+000 55969 83077,83025,83391
 1.0000e+000 83440 -2.6046e+000 -9.5139e+000  3.1489e-001 55969 83077,83391,83129
 1.0000e+000 83946  5.0312e+000  3.4742e+000 -1.5083e+000 55771 83969,83779,83727
 1.0000e+000 83923  4.7752e+000  3.2597e+000 -7.0033e-001 55771 83969,83727,83623
 1.0000e+000 83900  3.6301e+000  2.4400e+000 -2.8962e-001 55771 83623,83727,83649
 1.0000e+000 83877  5.8001e+000  4.0327e+000 -1.2287e+000 55771 83727,83779,83753
 1.0000e+000 83854  2.3576e+000  2.7508e+000  1.0086e+000 55771 83675,83727,83701
 1.0000e+000 83831  2.4400e+000  1.4961e+000  3.5663e-001 55771 83649,83727,83675
 1.0000e+000 83995  4.4872e+000  3.3203e+000 -1.1267e+000 55771 83805,83779,83969
 1.0000e+000 84018  3.6994e+000  2.6377e+000 -2.4672e-001 55771 83805,83969,83623
 1.0000e+000 84168  2.4512e+000  3.8820e+000  2.6251e-001 55367 84191,84067,84041
 1.0000e+000 84145  2.2090e+000  4.0044e+000  3.2390e-001 55367 84191,84041,84119
 1.0000e+000 84217  2.2230e+000  4.0413e+000  2.1840e-001 55367 84093,84067,84191
 1.0000e+000 84240  1.6632e+000  3.9224e+000  2.3427e-001 55367 84093,84191,84119
 1.0000e+000 84571 -9.6129e-002 -9.3113e-002  2.8918e-001 54913 84398,84450,84424
 1.0000e+000 84548 -1.1597e+000 -1.5974e+000 -5.2361e-001 54913 84372,84450,84398
 1.0000e+000 84525  1.0172e-002 -2.2195e+000  9.2613e-001 54913 84346,84450,84372
 1.0000e+000 84502  4.3929e-001 -1.2050e+000  2.4730e-001 54913 84346,84476,84450
 1.0000e+000 85126  6.6038e-001  1.3297e-001  7.3544e-001 54402 84858,84936,84910
 1.0000e+000 85103  1.0164e+000  6.9329e-001  2.3353e-001 54402 84806,84936,84858
 1.0000e+000 85080  4.2607e-001  5.4254e-001  1.4569e-001 54402 84780,84936,84806
 1.0000e+000 85057  3.9198e-001  7.2606e-001  1.3645e-001 54402 84806,84858,84832
 1.0000e+000 85034  1.9358e+000  1.3259e+000  8.0589e-001 54402 84780,84962,84936
 1.0000e+000 85011  1.4401e+000 -4.7267e-001  9.0129e-001 54402 84858,84910,84884
 1.0000e+000 84988  1.7682e+000  1.8000e+000  4.8988e-001 54402 84754,84962,84780
 1.0000e+000 85396  2.1516e+000  2.8134e+000  2.8773e-001 53998 85197,85249,85223
 1.0000e+000 85373  1.8056e+000  3.3127e+000  1.8682e-001 53998 85197,85275,85249
 1.0000e+000 85350  1.8416e+000  3.7631e+000  2.6971e-001 53998 85171,85275,85197
 1.0000e+000 85327  1.4289e+000  3.8073e+000  2.1024e-001 53998 85171,85301,85275
 1.0000e+000 85749 -9.5487e-001 -9.1684e+000 -1.2468e-001 53636 85524,85628,85550
 1.0000e+000 85726 -3.4258e+000 -1.1712e+001  8.7816e-001 53636 85524,85654,85628
 1.0000e+000 85703 -1.5618e+000 -1.0122e+001  5.0015e-001 53636 85550,85602,85576
 1.0000e+000 85680  2.6649e-001 -8.6043e+000 -3.1677e-001 53636 85550,85628,85602
 1.0000e+000 86127 -5.5795e-001 -4.5051e+000  6.0254e-001 52982 86150,85957,85879
 1.0000e+000 86104 -2.6041e+000 -4.7280e+000  5.3796e-001 52982 86150,85879,85853
 1.0000e+000 86081  2.5708e-001 -4.9688e+000  1.7561e+000 52982 85957,86009,85983
 1.0000e+000 86058 -2.6734e+000 -5.9374e+000  1.3218e+000 52982 85879,85957,85931
 1.0000e+000 86035 -1.7740e+000 -6.4362e+000 -7.3826e-002 52982 85879,85931,85905
 1.0000e+000 86176  3.9917e-001 -4.9480e+000  3.3501e-001 52982 86009,85957,86150
 1.0000e+000 86199 -7.9342e-001 -4.5062e+000  1.8702e-001 52982 86009,86150,85853
 1.0000e+000 86398  1.4247e+000  2.3568e+000  2.5323e-001 52542 86421,86248,86222
 1.0000e+000 86375  1.5330e+000  2.3914e+000  3.0346e-001 52542 86421,86222,86300
 1.0000e+000 86352  1.9849e+000  3.2183e+000  1.1684e-001 52542 86222,86326,86300
 1.0000e+000 86447  1.3076e+000  2.3716e+000  1.9298e-001 52542 86274,86248,86421
 1.0000e+000 86470  1.4190e+000  2.4351e+000  2.5704e-001 52542 86274,86421,86300
 1.0000e+000 86669  1.5818e+000  2.4578e+000  1.6573e-001 52230 86692,86571,86545
 1.0000e+000 86646  1.8041e+000  2.9625e+000  1.0814e-001 52230 86692,86545,86519
 1.0000e+000 86623  2.4274e+000  3.0895e+000 -1.7863e-001 52230 86493,86597,86519
 1.0000e+000 86718  1.7055e+000  2.4250e+000 -2.4265e-001 52230 86597,86571,86692
 1.0000e+000 86741  1.9652e+000  2.9497e+000 -3.2845e-001 52230 86597,86692,86519
 1.0000e+000 87153  1.8325e+000 -3.2053e+000 -8.9538e-001 51640 86980,87058,87032
 1.0000e+000 87130 -7.5198e-001 -2.6764e+000 -7.5244e-001 51640 86928,87058,86980
 1.0000e+000 87107 -1.6398e+000 -8.1159e+000 -1.8504e+000 51640 86928,86980,86954
 1.0000e+000 87084  9.5051e-001 -3.6060e+000 -1.6906e+000 51640 86980,87032,87006
 1.0000e+000 87659 -1.2092e+000 -1.3363e+000 -2.4553e-001 51029 87682,87440,87362
 1.0000e+000 87636 -3.1084e+000 -1.7048e+000  4.2624e-001 51029 87682,87362,87336
 1.0000e+000 87613 -7.6887e-001 -1.4046e+000 -7.2287e-001 51029 87440,87518,87466
 1.0000e+000 87590 -1.1621e+000 -1.1424e+000 -3.1723e-001 51029 87362,87440,87414
 1.0000e+000 87567 -2.3919e+000 -3.3469e+000  2.7551e+000 51029 87362,87414,87388
 1.0000e+000 87544 -9.8160e-001 -9.2066e-001 -6.3933e-001 51029 87466,87518,87492
 1.0000e+000 87708 -7.2261e-001 -1.3881e+000 -6.7680e-001 51029 87518,87440,87682
 1.0000e+000 87731 -1.4985e+000 -5.7793e-001 -2.6321e-001 51029 87518,87682,87336
 1.0000e+000 87881  1.5664e+000  2.6580e+000  2.0796e-001 50739 87780,87832,87806
 1.0000e+000 87858  1.7812e+000  3.7348e+000  2.1078e-002 50739 87754,87832,87780
 1.0000e+000 88468  3.3782e+000  2.0142e+000 -1.2216e-001 50235 88171,88327,88197
 1.0000e+000 88445  2.6956e+000  2.8229e+000 -3.4513e-001 50235 88145,88327,88171
 1.0000e+000 88422  2.6982e+000  1.2097e+000  2.0528e+000 50235 88275,88327,88301
 1.0000e+000 88399  2.3077e+000  1.0475e+000  4.0073e-001 50235 88197,88327,88275
 1.0000e+000 88376  2.3334e+000  2.8224e+000  6.7855e-001 50235 88197,88275,88223
 1.0000e+000 88353  2.2016e+000  3.0485e+000  9.2029e-001 50235 88223,88275,88249
 1.0000e+000 88895  1.3492e+000  3.4501e+000 -1.4760e-001 49873 88918,88728,88676
 1.0000e+000 88872  1.2506e+000  3.1114e+000 -1.6771e-001 49873 88918,88676,88624
 1.0000e+000 88849  1.6951e+000  3.1870e+000  2.3053e-001 49873 88598,88754,88624
 1.0000e+000 88826  2.0909e+000  3.7666e+000 -6.0810e-001 49873 88624,88676,88650
 1.0000e+000 88803  8.8787e-001  5.3024e+000 -1.9643e-001 49873 88676,88728,88702
 1.0000e+000 88780  8.3984e-001  2.8098e+000  9.4446e-002 49873 88572,88754,88598
 1.0000e+000 88944  1.2951e+000  3.5337e+000  5.7769e-002 49873 88754,88728,88918
 1.0000e+000 88967  1.2308e+000  3.3249e+000  3.6792e-003 49873 88754,88918,88624
 1.0000e+000 89473  1.6331e+000  1.4750e+000  7.6563e-001 49583 89176,89306,89202
 1.0000e+000 89450  8.1955e-001  1.2798e+000  4.3329e-001 49583 89176,89332,89306
 1.0000e+000 89427  1.4793e+000  1.1813e+000  5.8073e-001 49583 89496,89228,89202
 1.0000e+000 89404  1.1009e+000  1.1647e+000  5.9999e-001 49583 89496,89202,89280
 1.0000e+000 89381  1.2772e+000  1.2587e+000  6.5748e-001 49583 89202,89306,89280
 1.0000e+000 89358  2.4495e-001  1.6297e+000  7.4114e-001 49583 89150,89332,89176
 1.0000e+000 89522  1.1213e+000  1.6928e+000  1.8119e-001 49583 89254,89228,89496
 1.0000e+000 89545  5.9309e-001  1.4331e+000  5.5642e-001 49583 89254,89496,89280
 1.0000e+000 89825  7.7264e-001  1.5612e+000  5.9639e-001 49179 89701,89753,89727
 1.0000e+000 89802  1.7283e+000  2.0936e+000  3.1003e-001 49179 89675,89753,89701
 1.0000e+000 89779  1.6806e+000  2.0155e+000  2.5550e-001 49179 89848,89753,89675
 1.0000e+000 89874  2.2475e+000  2.2146e+000  4.1403e-001 49179 89649,89753,89848
 1.0000e+000 90223 -3.9668e+000 -8.8876e+000  1.8543e-001 48739 90024,90102,90076
 1.0000e+000 90200 -2.9839e+000 -8.0944e+000  7.5479e-001 48739 90024,90128,90102
 1.0000e+000 90177 -3.3862e+000 -9.3215e+000  3.9627e-001 48739 90024,90076,90050
 1.0000e+000 90154 -3.7390e+000 -9.1012e+000  4.1873e-001 48739 89998,90128,90024
 1.0000e+000 90603 -2.8098e+000 -6.4637e+000  1.0912e+000 48335 90381,90485,90459
 1.0000e+000 90580 -4.9015e+000 -8.5292e+000 -9.8340e-002 48335 90355,90485,90381
 1.0000e+000 90557 -4.3491e+000 -8.1086e+000  5.5492e-002 48335 90381,90433,90407
 1.0000e+000 90534 -5.8885e+000 -7.7199e+000  9.1393e-001 48335 90381,90459,90433
 1.0000e+000 90511  7.3441e-001 -4.0239e+000  2.9372e+000 48335 90329,90485,90355
 1.0000e+000 90753  1.5414e+000 -2.0090e+000  2.4862e+000 47824 90776,90652,90704
 1.0000e+000 90730 -9.5894e-001 -5.6767e+000  8.5472e-001 47824 90626,90704,90652
 1.0000e+000 90802  1.7583e+000 -4.8720e+000  1.5439e+000 47824 90678,90652,90776
 1.0000e+000 91131  1.4877e+000  3.2410e+000  9.0283e-002 47427 91154,90958,90906
 1.0000e+000 91108  2.3361e+000  3.6472e+000 -4.0818e-001 47427 91154,90906,91036
 1.0000e+000 91085  1.9987e+000  1.8366e+000  4.8261e-001 47427 90958,91010,90984
 1.0000e+000 91062 -3.2378e-001  2.5975e+000  1.1148e+000 47427 90906,90958,90932
 1.0000e+000 91180  1.8378e+000  2.6750e+000  6.9424e-001 47427 91010,90958,91154
 1.0000e+000 91203  2.6051e+000  2.9951e+000  2.0583e-001 47427 91010,91154,91036
 1.0000e+000 91583 -3.0912e+000 -7.6394e+000  5.0737e-001 46873 91309,91439,91335
 1.0000e+000 91560 -2.8754e+000 -8.6983e+000  5.2231e-001 46873 91309,91465,91439
 1.0000e+000 91537 -3.8364e+000 -6.6282e+000  1.3271e+000 46873 91361,91439,91413
 1.0000e+000 91514 -5.3232e+000 -8.5807e+000  5.6648e-001 46873 91335,91439,91361
 1.0000e+000 91491 -5.2497e+000 -6.8576e+000  1.4452e+000 46873 91361,91413,91387
 1.0000e+000 91880  1.7213e+000  2.3438e+000  5.1470e-001 46526 91606,91710,91658
 1.0000e+000 91857  1.6124e+000  2.8374e+000  1.5263e-001 46526 91606,91762,91710
 1.0000e+000 91834  1.4674e+000  1.9576e+000  6.3058e-001 46526 91606,91658,91632
 1.0000e+000 91811  2.1377e+000  1.8675e+000  2.2775e-001 46526 91658,91710,91684
 1.0000e+000 91788  1.5263e+000  2.2857e+000 -4.0978e-002 46526 91710,91762,91736
 1.0000e+000 92211  5.9374e-001 -6.5731e+000 -2.5290e-003 45700 91986,92064,92038
 1.0000e+000 92188 -1.8832e+000 -7.3836e+000  8.7689e-001 45700 91986,92116,92064
 1.0000e+000 92165  1.6716e+000 -5.2355e+000 -1.6563e+000 45700 91986,92038,92012
 1.0000e+000 92142 -2.3865e+000 -6.0759e+000  1.5009e-001 45700 92064,92116,92090
 1.0000e+000 92766 -1.9986e+000 -3.1241e-001 -6.9074e-001 45452 92446,92602,92576
 1.0000e+000 92743 -1.0969e+000 -9.7299e-001 -8.5240e-002 45452 92420,92602,92446
 1.0000e+000 92720 -2.4949e+000 -4.1576e-001 -2.7299e-001 45452 92789,92524,92498
 1.0000e+000 92697 -3.2033e+000 -4.3566e-001 -5.1016e-001 45452 92789,92498,92446
 1.0000e+000 92674 -1.7778e+000 -9.7342e-002 -5.8137e-001 45452 92524,92576,92550
 1.0000e+000 92651 -3.0775e+000  7.1066e-001  1.5931e-001 45452 92446,92498,92472
 1.0000e+000 92628 -8.3671e-001  1.3640e-001  5.8518e-001 45452 92394,92602,92420
 1.0000e+000 92815 -1.9862e+000 -6.4231e-001 -4.6188e-001 45452 92576,92524,92789
 1.0000e+000 92838 -2.5000e+000 -4.9259e-001 -5.9272e-001 45452 92576,92789,92446
 1.0000e+000 92939  2.0177e+000  2.1095e+000  1.0957e-001 44998 92861,92913,92887
 1.0000e+000 93319  1.0505e+000  1.6837e+000  1.9063e-001 44601 93123,93201,93149
 1.0000e+000 93296  1.4212e+000  2.3997e+000  3.2744e-001 44601 93045,93201,93123
 1.0000e+000 93273  7.5372e-001  1.3142e+000  6.2501e-001 44601 93045,93123,93071
 1.0000e+000 93250  1.3429e+000  1.4380e+000  4.7703e-001 44601 93071,93123,93097
 1.0000e+000 93227  2.0098e+000  1.6985e+000 -3.6541e-001 44601 93149,93201,93175
 1.0000e+000 93697  1.0770e-001  6.2106e-001  5.2504e-001 44026 93720,93553,93527
 1.0000e+000 93674 -4.4510e-002  5.1324e-001  4.7556e-001 44026 93720,93527,93449
 1.0000e+000 93651 -3.9218e-001 -1.3855e-001  2.1327e-001 44026 93449,93527,93501
 1.0000e+000 93628 -3.8576e-001 -5.2623e-001  1.9599e+000 44026 93423,93579,93449
 1.0000e+000 93605  8.4720e-001  2.4762e-001  3.4025e-001 44026 93449,93501,93475
 1.0000e+000 93746  3.4157e-001  4.4943e-001  4.9574e-001 44026 93579,93553,93720
 1.0000e+000 93769  1.4419e-001  3.0368e-001  4.3036e-001 44026 93579,93720,93449
 1.0000e+000 94066  1.7254e+000  1.3717e+000  4.5146e-001 43579 94089,93818,93792
 1.0000e+000 94043  1.3763e+000  1.4861e+000  4.3115e-001 43579 94161,94089,93792
 1.0000e+000 94020  1.4290e+000  1.4831e+000  5.6403e-001 43579 94161,93792,93948
 1.0000e+000 93997  1.5001e+000  1.0349e+000  2.1612e-001 43579 94233,93870,93818
 1.0000e+000 93974  7.3207e-001  7.0476e-001  3.0320e-001 43579 93818,93870,93844
 1.0000e+000 94115  1.4901e+000  1.0511e+000  3.1802e-001 43579 94233,93818,94089
 1.0000e+000 94138  1.4948e+000  1.4875e+000  3.0174e-001 43579 93896,94089,93922
 1.0000e+000 94187  1.4600e+000  1.7034e+000  3.9934e-001 43579 93922,94089,94161
 1.0000e+000 94210  1.4974e+000  1.7092e+000  5.4644e-001 43579 93922,94161,93948
 1.0000e+000 94259  1.5168e+000  1.2346e+000  2.7081e-001 43579 93896,93870,94233
 1.0000e+000 94282  1.5661e+000  1.2496e+000  3.9180e-001 43579 93896,94233,94089
 1.0000e+000 94481  1.3377e+000  1.7694e+000  1.7091e-001 43239 94305,94383,94357
 1.0000e+000 94458  1.6333e+000  1.8934e+000  1.8242e-001 43239 94305,94409,94383
 1.0000e+000 94435  1.4938e+000  1.2865e+000  1.5897e-001 43239 94305,94357,94331
 1.0000e+000 94633  8.8784e-001 -9.5449e-002  8.8479e-002 42827 94656,94532,94506
 1.0000e+000 94610 -9.3765e-001 -9.2967e-001  2.8344e-001 42827 94728,94656,94506
 1.0000e+000 94682 -1.1440e+000  5.0462e-001 -3.2655e-001 42827 94558,94532,94656
 1.0000e+000 94705 -1.7064e+000 -6.5882e-001 -6.8505e-001 42827 94988,94860,94656
 1.0000e+000 94754 -5.9100e-001 -1.4945e+000 -3.9957e-001 42827 94988,94656,94728
 1.0000e+000 94886 -1.6890e-001  1.4048e-001 -3.6344e-001 42827 94558,94656,94860
 1.0000e+000 95014 -2.6368e+000 -1.3787e+000 -3.7080e-001 42827 94584,94860,94988
 1.0000e+000 95037 -1.6656e+000 -2.1463e+000 -9.3429e-002 42827 94584,94988,94728
 1.0000e+000 95236 -5.7878e+000 -8.5033e+000  4.4827e-001 42537 95259,95112,95060
 1.0000e+000 95213 -4.4427e+000 -8.6932e+000  5.2136e-001 42537 95259,95060,95164
 1.0000e+000 95190 -5.3302e+000 -8.6195e+000 -3.4795e-001 42537 95060,95112,95086
 1.0000e+000 95285 -4.8586e+000 -8.5871e+000  1.1085e+000 42537 95138,95112,95259
 1.0000e+000 95308 -3.6668e+000 -8.6590e+000  1.3641e+000 42537 95138,95259,95164
 1.0000e+000 95816 -1.8833e+000 -2.0443e+000 -3.9133e-001 41969 95493,95597,95519
 1.0000e+000 95793 -1.7793e+000 -2.6178e+000 -6.1731e-001 41969 95493,95649,95597
 1.0000e+000 95770 -2.2652e+000 -2.1422e+000 -1.3297e+000 41969 95493,95675,95649
 1.0000e+000 95747 -1.8893e+000 -3.6645e+000 -7.9242e-001 41969 95597,95649,95623
 1.0000e+000 95724 -7.0980e-001 -2.2967e+000 -2.3647e-001 41969 95519,95597,95571
 1.0000e+000 95701 -9.4180e-001 -2.9214e+000 -5.1189e-001 41969 95519,95571,95545
 1.0000e+000 96371  7.6482e-001  1.2452e+000  8.5153e-001 41579 96025,96207,96181
 1.0000e+000 96348  6.6462e-001  1.1321e+000  1.4022e+000 41579 95999,96207,96025
 1.0000e+000 96325  1.5557e+000 -3.7801e-001  9.9209e-001 41579 96129,96181,96155
 1.0000e+000 96302  6.4430e-001  9.5882e-001  9.5035e-001 41579 96025,96181,96129
 1.0000e+000 96279  6.3597e-001  6.2709e-001  7.1901e-001 41579 96025,96129,96051
 1.0000e+000 96256 -1.4128e-001  2.2850e-002  1.2857e+000 41579 96051,96103,96077
 1.0000e+000 96233  8.3529e-001  4.1921e-001  8.0058e-001 41579 96051,96129,96103
 1.0000e+000 96877  1.0463e-001  1.3072e+000  5.4359e-001 41182 96972,96900,96632
 1.0000e+000 96854  2.3884e-001  1.4601e+000  5.1690e-001 41182 96900,96554,96736
 1.0000e+000 96831  1.5637e-001  1.2488e+000  7.0783e-001 41182 96972,96632,96580
 1.0000e+000 96808  6.1448e-001  1.3976e+000  8.1762e-001 41182 96632,96684,96658
 1.0000e+000 96785  6.9125e-001  9.3144e-001  2.8686e-001 41182 96684,96736,96710
 1.0000e+000 96762  6.6378e-002  8.2063e-001  6.5637e-001 41182 96580,96632,96606
 1.0000e+000 96926  2.7029e-001  1.0850e+000  5.9281e-001 41182 96684,96632,96900
 1.0000e+000 96949  8.0019e-001  1.2693e+000  5.3196e-001 41182 96684,96900,96736
 1.0000e+000 96998 -1.3110e-001  1.2344e+000  6.8224e-001 41182 96554,96900,96972
 1.0000e+000 97021 -1.6758e-001  1.0554e+000  8.6275e-001 41182 96554,96972,96580
 1.0000e+000 97576 -3.4484e+000 -1.6592e+000  5.1171e-001 40678 97230,97412,97282
 1.0000e+000 97553 -4.6283e+000 -2.2314e+000  9.4252e-001 40678 97204,97412,97230
 1.0000e+000 97530 -1.6343e+000 -2.9526e+000  6.5309e-001 40678 97282,97360,97308
 1.0000e+000 97507 -1.4922e+000 -2.9311e+000  4.3384e-001 40678 97282,97412,97360
 1.0000e+000 97484 -2.8876e+000 -2.0966e+000 -4.9354e-002 40678 97308,97360,97334
 1.0000e+000 97461 -2.5321e+000 -2.0429e+000  9.0494e-001 40678 97360,97412,97386
 1.0000e+000 97438 -4.1207e+000 -4.9502e+000  1.8014e+000 40678 97230,97282,97256
 1.0000e+000 97976  1.5137e+000  1.6254e+000 -7.4023e-002 40244 97702,97832,97754
 1.0000e+000 97953  1.1044e+000  1.5277e+000  2.6385e-002 40244 97702,97858,97832
 1.0000e+000 97930  1.2254e+000  9.8890e-001  5.3123e-002 40244 97702,97754,97728
 1.0000e+000 97907  6.2386e-001  2.2226e+000 -4.6095e-001 40244 97780,97832,97806
 1.0000e+000 97884  3.1097e-001  1.0300e+000 -2.7086e-001 40244 97754,97832,97780
 1.0000e+000 98482 -6.1333e+000 -6.2329e+000 -4.2061e-001 39690 98505,98185,98159
 1.0000e+000 98459 -5.6046e+000 -6.6510e+000 -1.5192e-001 39690 98505,98159,98289
 1.0000e+000 98436 -5.6829e+000 -6.4501e+000  1.4269e-001 39690 98159,98315,98289
 1.0000e+000 98413 -6.4575e+000 -7.0919e+000  4.6114e-001 39690 98211,98289,98263
 1.0000e+000 98390 -6.3127e+000 -9.1355e+000  4.7603e-001 39690 98211,98263,98237
 1.0000e+000 98367 -6.4255e+000 -6.9653e+000  3.6102e-001 39690 98159,98341,98315
 1.0000e+000 98531 -6.6928e+000 -6.5621e+000 -2.7730e-001 39690 98211,98185,98505
 1.0000e+000 98554 -6.0360e+000 -6.9739e+000 -1.1490e-002 39690 98211,98505,98289
 1.0000e+000 99109 -1.8144e+000 -1.0341e+000  2.5728e-001 39072 99132,98867,98789
 1.0000e+000 99086 -3.2956e+000 -1.1762e+000  4.5552e-001 39072 99132,98789,98763
 1.0000e+000 99063 -1.0846e+000 -7.2271e-001  1.5211e-003 39072 98867,98945,98919
 1.0000e+000 99040 -3.5204e+000 -3.1805e+000  1.4381e+000 39072 98789,98867,98841
 1.0000e+000 99017 -1.1062e+000 -9.9795e-001  1.1144e-002 39072 98867,98919,98893
 1.0000e+000 98994 -2.9086e+000 -2.6248e+000  1.0230e+000 39072 98789,98841,98815
 1.0000e+000 98971 -1.5106e+000 -4.4292e-001 -2.4031e-001 39072 98737,98945,98763
 1.0000e+000 99158 -1.2747e+000 -1.1652e+000 -1.2011e-002 39072 98945,98867,99132
 1.0000e+000 99181 -1.8900e+000 -5.3260e-001  1.5381e-003 39072 98945,99132,98763
 1.0000e+000 99510 -2.1455e+000 -1.6366e+000  9.7060e-001 38668 99311,99389,99363
 1.0000e+000 99487 -2.8560e+000 -2.2266e+000  4.9624e-001 38668 99285,99389,99311
 1.0000e+000 99464 -2.2259e+000 -7.6600e-001  1.9959e-001 38668 99285,99415,99389
 1.0000e+000 99441 -2.7639e+000 -2.5171e+000  1.3915e+000 38668 99311,99363,99337
 1.0000e+000 99758 -1.2732e+000  1.2120e+000  5.4688e-002 38164 99781,99611,99585
 1.0000e+000 99735 -1.0210e+000 -1.5150e+000 -5.3999e-001 38164 99781,99585,99533
 1.0000e+000 99712 -2.0828e+000 -1.4747e+000  2.9768e-002 38164 99611,99663,99637
 1.0000e+000 99689 -3.6972e-001 -7.1037e-001 -1.1264e+000 38164 99533,99585,99559
 1.0000e+000 99807 -1.8222e+000 -1.1910e+000  2.4990e-001 38164 99663,99611,99781
 1.0000e+000 99830 -7.4155e-001 -2.8252e+000 -1.8636e-001 38164 99663,99781,99533
 1.0000e+000 100232 -6.8678e+000 -8.7302e+000 -6.0838e-002 37702 99984,100114,100088
 1.0000e+000 100209 -6.0639e+000 -6.4613e+000  8.6203e-003 37702 99958,100114,99984
 1.0000e+000 100186 -7.0079e+000 -9.0016e+000  2.3520e-001 37702 100010,100088,100036
 1.0000e+000 100163 -7.2307e+000 -8.8521e+000  1.7122e-001 37702 99984,100088,100010
 1.0000e+000 100140 -7.1289e+000 -8.9598e+000  4.9138e-001 37702 100036,100088,100062
 1.0000e+000 100640  2.4592e-001 -8.5461e-002 -2.6713e-001 37262 100493,100545,100519
 1.0000e+000 100617 -3.7318e-001 -7.5253e-001 -5.6859e-001 37262 100441,100545,100493
 1.0000e+000 100594 -9.5398e-001 -2.8518e-001 -1.6563e+000 37262 100415,100545,100441
 1.0000e+000 100571 -3.0540e-002 -2.6854e-001 -2.0428e-001 37262 100441,100493,100467
 1.0000e+000 101146 -2.3619e+000 -3.3447e+000  8.1761e-001 36872 100823,100979,100849
 1.0000e+000 101123 -1.8382e+000 -2.0652e+000  7.4347e-001 36872 100823,101005,100979
 1.0000e+000 101100 -2.5675e-001 -7.0433e-001 -6.5630e-002 36872 101169,100901,100849
 1.0000e+000 101077 -7.4325e-001 -1.8048e+000  5.0659e-002 36872 101169,100849,100979
 1.0000e+000 101054 -1.5490e+000 -1.1984e+000  3.7257e-001 36872 100927,100979,100953
 1.0000e+000 101031 -3.4150e-001  5.1144e-001  6.3291e-003 36872 100849,100901,100875
 1.0000e+000 101195 -7.2191e-001 -3.2999e-001  5.8717e-001 36872 100927,100901,101169
 1.0000e+000 101218 -9.9897e-001 -9.4096e-001  6.6058e-001 36872 100927,101169,100979
 1.0000e+000 101773 -1.0026e+000 -1.2284e+000 -1.2239e-001 36418 101479,101609,101583
 1.0000e+000 101750 -1.5721e+000 -1.2564e+000 -6.7556e-001 36418 101453,101609,101479
 1.0000e+000 101727  1.0020e-002 -2.0146e+000 -1.7692e-001 36418 101796,101531,101479
 1.0000e+000 101704 -2.7032e-001 -1.8962e+000 -5.7468e-001 36418 101796,101479,101583
 1.0000e+000 101681 -5.1765e-001 -3.9422e+000 -2.5713e-002 36418 101479,101531,101505
 1.0000e+000 101658 -1.5657e+000 -6.1763e-001  2.0389e-001 36418 101401,101609,101453
 1.0000e+000 101635  1.4252e+000 -4.1435e+000 -7.4880e-001 36418 101401,101453,101427
 1.0000e+000 101822 -2.0069e-001 -2.1617e+000 -4.9979e-001 36418 101557,101531,101796
 1.0000e+000 101845 -8.6656e-001 -2.6672e+000 -9.8848e-001 36418 101557,101796,101583
 1.0000e+000 102174 -4.6671e+000 -5.8227e+000 -6.3806e-001 35914 101949,102053,101975
 1.0000e+000 102151 -4.1547e+000 -6.2335e+000 -6.2085e-001 35914 101949,102079,102053
 1.0000e+000 102128 -5.6687e+000 -6.3998e+000  3.7864e-001 35914 101975,102053,102027
 1.0000e+000 102105 -4.5338e+000 -4.7423e+000 -1.2491e-001 35914 101975,102027,102001
 1.0000e+000 102631 -1.3861e+000 -8.5284e-001  3.4624e-001 35574 102383,102513,102487
 1.0000e+000 102608 -3.1197e-001 -2.4757e-001  6.4810e-001 35574 102357,102513,102383
 1.0000e+000 102585 -7.7342e-001 -7.0127e-001  5.3535e-001 35574 102409,102487,102435
 1.0000e+000 102562 -1.2865e+000 -8.7651e-001  4.7507e-001 35574 102383,102487,102409
 1.0000e+000 102539 -9.0908e-001 -9.0490e-001  4.5700e-001 35574 102435,102487,102461
 1.0000e+000 103009  1.4957e+000  1.2080e+000 -3.9172e-002 35170 102761,102865,102787
 1.0000e+000 102986  1.0471e+000  1.0532e+000  1.8622e-001 35170 102761,102891,102865
 1.0000e+000 102963  7.6925e-001  5.4980e-001 -4.8013e-001 35170 102787,102865,102813
 1.0000e+000 102940  9.5153e-001  1.1905e+000  2.1936e-001 35170 102735,102891,102761
 1.0000e+000 102917  1.5618e+000  2.3713e+000 -5.8958e-001 35170 102813,102865,102839
 1.0000e+000 103257 -3.0821e+000 -1.8874e+000  1.1968e+000 34659 103280,103058,103032
 1.0000e+000 103234 -2.9995e+000 -3.2129e+000  3.2650e-001 34659 103280,103032,103162
 1.0000e+000 103211 -2.5847e+000 -1.6391e+000  8.7893e-001 34659 103084,103162,103110
 1.0000e+000 103188 -3.4114e+000 -2.9954e+000  1.3921e+000 34659 103110,103162,103136
 1.0000e+000 103306 -2.1731e+000 -2.5833e-001  1.8733e+000 34659 103084,103058,103280
 1.0000e+000 103329 -2.6934e+000 -2.0793e+000  8.4947e-001 34659 103084,103280,103162
 1.0000e+000 103837 -6.9745e-001  5.2992e-002  3.4962e-001 34247 103860,103566,103540
 1.0000e+000 103814 -3.0839e-001  2.5055e-001  2.6880e-001 34247 103932,103860,103540
 1.0000e+000 103791 -1.9452e-001  4.1076e-001  3.8349e-001 34247 103932,103540,103670
 1.0000e+000 103768 -1.1207e-001 -1.6409e-001  7.8687e-003 34247 103566,103618,103592
 1.0000e+000 103745  4.3549e-001  7.4370e-001  5.8043e-001 34247 103540,103696,103670
 1.0000e+000 103722  2.4937e-001  8.0187e-001  1.2897e+000 34247 103514,103696,103540
 1.0000e+000 103886 -3.4124e-001  8.6662e-002  4.7562e-001 34247 103618,103566,103860
 1.0000e+000 103909 -6.9450e-001  1.5739e-001  4.0342e-001 34247 103618,103860,103644
 1.0000e+000 103958 -3.1273e-001  5.8174e-001  5.6555e-001 34247 103644,103860,103932
 1.0000e+000 103981 -1.5663e-001  7.5375e-001  6.8909e-001 34247 103644,103932,103670
 1.0000e+000 104300 -1.0389e+000  8.9267e-001 -5.3095e-001 33843 104052,104182,104156
 1.0000e+000 104277 -4.0860e-001  1.6171e+000 -2.1592e-001 33843 104026,104182,104052
 1.0000e+000 104254 -2.8784e+000  3.1676e+000 -7.7803e-001 33843 104078,104156,104130
 1.0000e+000 104231 -2.3356e+000  1.3537e+000 -8.0017e-001 33843 104052,104156,104078
 1.0000e+000 104208 -6.3566e+000  2.8162e-001  6.1056e-001 33843 104078,104130,104104
 1.0000e+000 104499  1.0346e+000  1.4274e+000  3.5508e-001 33282 104594,104522,104375
 1.0000e+000 104476  1.1658e+000  1.4255e+000  3.2015e-001 33282 104522,104323,104427
 1.0000e+000 104453  1.1594e+000  1.4442e+000  3.3611e-001 33282 104594,104375,104349
 1.0000e+000 104548  6.5083e-001  1.2108e+000  6.1880e-001 33282 104401,104375,104522
 1.0000e+000 104571  1.1193e+000  1.4659e+000  4.6075e-001 33282 104401,104522,104427
 1.0000e+000 104620  1.2282e+000  1.3602e+000  3.8904e-001 33282 104323,104522,104594
 1.0000e+000 104643  1.3233e+000  1.3557e+000  3.6047e-001 33282 104323,104594,104349
 1.0000e+000 104942 -3.5850e+000 -1.8963e+000  1.6154e+000 32728 104694,104772,104720
 1.0000e+000 104919 -2.8215e+000 -1.7234e+000  1.7941e+000 32728 104694,104824,104772
 1.0000e+000 104896 -3.6177e+000 -2.3469e+000  1.4818e+000 32728 104720,104772,104746
 1.0000e+000 104873 -5.4554e+000 -1.4632e+000  2.3197e+000 32728 104772,104824,104798
 1.0000e+000 104850 -3.1227e+000 -2.3356e+000  1.4467e+000 32728 104668,104824,104694
 1.0000e+000 105373 -6.5239e+000 -7.6925e+000  5.6121e-001 32274 105396,105102,105076
 1.0000e+000 105350 -7.4430e+000 -7.4054e+000  6.1687e-001 32274 105396,105076,105206
 1.0000e+000 105327 -7.9463e+000 -7.6001e+000  2.0518e+000 32274 105154,105206,105180
 1.0000e+000 105304 -6.5756e+000 -6.9926e+000  7.5377e-001 32274 105076,105232,105206
 1.0000e+000 105281 -8.9083e+000 -8.5248e+000  2.0840e+000 32274 105102,105154,105128
 1.0000e+000 105258 -7.8594e+000 -8.0946e+000  2.8183e-001 32274 105050,105232,105076
 1.0000e+000 105422 -7.2745e+000 -7.8822e+000  3.5175e-001 32274 105154,105102,105396
 1.0000e+000 105445 -8.0062e+000 -7.4326e+000  4.5232e-001 32274 105154,105396,105206
 1.0000e+000 105644  3.6029e+000  3.9339e+000 -1.0361e-001 31620 105468,105546,105520
 1.0000e+000 105621  3.9870e+000  2.2182e+000 -3.3071e-001 31620 105468,105572,105546
 1.0000e+000 105598  2.8646e+000  2.3947e+000 -3.4015e-001 31620 105468,105520,105494
 1.0000e+000 105794 -7.6863e+000 -8.4268e+000  9.7787e-002 31158 105889,105817,105693
 1.0000e+000 105771 -7.4034e+000 -8.9617e+000  4.5354e-001 31158 105817,105667,105745
 1.0000e+000 105843 -7.6126e+000 -6.6008e+000 -2.1643e-001 31158 105719,105693,105817
 1.0000e+000 105866 -8.5926e+000 -7.9233e+000  2.3103e-001 31158 105719,105817,105745
 1.0000e+000 105915 -6.6836e+000 -7.9970e+000  1.0880e-001 31158 105667,105817,105889
 1.0000e+000 106270 -2.5862e+000 -2.0332e+000  9.9101e-002 30818 106293,106071,106045
 1.0000e+000 106247 -3.1456e+000 -3.3803e+000  6.7331e-001 30818 106293,106045,106175
 1.0000e+000 106224 -2.3347e+000  7.5150e-001  1.9042e+000 30818 106123,106175,106149
 1.0000e+000 106201 -3.1167e+000 -5.1799e-001  1.6997e-001 30818 106071,106123,106097
 1.0000e+000 106319 -3.4344e+000 -1.5279e+000  7.8533e-001 30818 106123,106071,106293
 1.0000e+000 106342 -3.9861e+000 -2.2865e+000  1.2632e+000 30818 106123,106293,106175
 1.0000e+000 106492 -2.4586e+000 -5.5687e+000  1.6640e+000 30414 106645,106391,106365
 1.0000e+000 106469 -3.8354e+000 -4.8857e+000  8.6411e-001 30414 106515,106365,106443
 1.0000e+000 106541 -3.2633e+000 -4.6523e+000  1.1747e+000 30414 106645,106365,106515
 1.0000e+000 106671 -3.0935e+000 -7.8541e+000  1.5964e+000 30414 106417,106391,106645
 1.0000e+000 106694 -3.2883e+000 -6.1509e+000  9.5223e-001 30414 106417,106645,106515
 1.0000e+000 106942  6.9839e-001 -8.9479e-001 -2.4200e-001 29910 106965,106795,106769
 1.0000e+000 106919  4.3850e-002  1.0350e-001 -6.6554e-002 29910 106965,106769,106717
 1.0000e+000 106896  1.4464e+000  1.1586e+000 -1.5347e+000 29910 106795,106847,106821
 1.0000e+000 106873  3.6871e-001  8.0663e-001  2.5175e-002 29910 106717,106769,106743
 1.0000e+000 106991  7.8496e-001 -8.0204e-002 -3.1965e-001 29910 106847,106795,106965
 1.0000e+000 107014  4.4908e-001  1.3404e+000 -2.4903e-001 29910 106847,106965,106717
 1.0000e+000 107213 -3.8891e+000 -2.4903e+000  1.7326e+000 29413 107236,107063,107037
 1.0000e+000 107190 -3.2048e+000 -2.1457e+000  1.5718e+000 29413 107236,107037,107141
 1.0000e+000 107167 -1.0697e+000 -1.2407e+000  2.9221e+000 29413 107063,107115,107089
 1.0000e+000 107262 -3.5241e+000 -2.9023e+000  2.1822e+000 29413 107115,107063,107236
 1.0000e+000 107285 -2.8713e+000 -2.5887e+000  2.0569e+000 29413 107115,107236,107141
 1.0000e+000 107486 -9.0989e-001 -1.9338e+000  6.7957e-001 29009 107336,107388,107362
 1.0000e+000 107463 -1.3962e+000 -2.1112e+000  3.3388e-001 29009 107310,107388,107336
 1.0000e+000 107440 -1.2691e+000 -2.0494e+000  2.8762e-001 29009 107310,107414,107388
 1.0000e+000 107736 -1.3690e+000 -1.9523e+000  7.1362e-001 28491 107537,107615,107563
 1.0000e+000 107713 -1.8781e+000 -2.2056e+000  5.4020e-001 28491 107537,107641,107615
 1.0000e+000 107690 -1.7749e+000 -2.8755e+000  4.9356e-001 28491 107563,107615,107589
 1.0000e+000 107667 -7.4599e-001 -1.6385e+000  9.0704e-001 28491 107511,107641,107537
 1.0000e+000 108118 -1.0646e+000 -1.3060e+000  3.9422e-001 27980 108141,107922,107844
 1.0000e+000 108095 -1.1892e+000 -7.4254e-001  3.5716e-001 27980 108141,107844,108000
 1.0000e+000 108072 -8.6738e-001 -8.6824e-001  2.5709e-001 27980 107844,107922,107870
 1.0000e+000 108049 -1.1290e+000 -2.1136e+000  2.7485e-001 27980 107870,107922,107896
 1.0000e+000 108026 -1.4216e+000 -1.6029e+000  4.0023e-001 27980 107922,107974,107948
 1.0000e+000 108167 -1.0826e+000 -1.5406e+000  3.9130e-001 27980 107974,107922,108141
 1.0000e+000 108190 -1.4902e+000 -1.3230e+000  1.8596e-001 27980 107974,108141,108000
 1.0000e+000 108745 -1.7757e+000 -2.5582e+000 -1.5061e+000 27376 108840,108768,108477
 1.0000e+000 108722 -2.3410e+000 -2.5472e+000 -1.7369e+000 27376 108768,108373,108581
 1.0000e+000 108699 -2.1037e+000 -2.5250e+000 -1.0641e+000 27376 108840,108477,108451
 1.0000e+000 108676 -5.4696e+000 -4.6179e+000 -3.0991e+000 27376 108373,108451,108399
 1.0000e+000 108653 -2.2185e+000  2.7488e-002 -1.1621e+000 27376 108503,108581,108529
 1.0000e+000 108630  8.0141e-001 -2.5140e-001 -1.9896e+000 27376 108529,108581,108555
 1.0000e+000 108607 -5.8510e+000 -7.6787e+000 -4.9538e+000 27376 108399,108451,108425
 1.0000e+000 108794 -2.0294e+000 -2.5216e+000 -1.8759e+000 27376 108503,108477,108768
 1.0000e+000 108817 -2.4573e+000 -2.7249e+000 -1.7902e+000 27376 108503,108768,108581
 1.0000e+000 108866 -2.7624e+000 -2.8849e+000 -1.5521e+000 27376 108373,108768,108840
 1.0000e+000 108889 -2.7518e+000 -2.6231e+000 -1.1269e+000 27376 108373,108840,108451
 1.0000e+000 109186 -2.6845e+000 -4.1013e+000  1.5974e+000 26722 109209,108938,108912
 1.0000e+000 109163 -2.7010e+000 -3.9088e+000  8.4259e-001 26722 109281,109209,108912
 1.0000e+000 109140 -2.6059e+000 -3.7596e+000  8.0160e-001 26722 109281,108912,109042
 1.0000e+000 109117 -1.6485e-001 -8.5358e+000  8.7051e-001 26722 108938,108990,108964
 1.0000e+000 109094 -3.5076e+000 -2.7306e+000  3.9243e-001 26722 108912,109068,109042
 1.0000e+000 109235  9.0157e-002 -3.7652e+000  2.2810e+000 26722 108990,108938,109209
 1.0000e+000 109258 -1.8728e+000 -5.5731e+000  1.4098e+000 26722 108990,109209,109016
 1.0000e+000 109307 -2.4389e+000 -4.1287e+000  5.6734e-001 26722 109016,109209,109281
 1.0000e+000 109330 -2.2735e+000 -3.8711e+000  4.9498e-001 26722 109016,109281,109042
 1.0000e+000 109732 -3.9905e+000 -2.2035e+000  1.1304e+000 26310 109458,109588,109484
 1.0000e+000 109709 -1.8398e+000  4.7926e-002 -5.3657e-001 26310 109458,109614,109588
 1.0000e+000 109686  7.1962e-001  8.5714e-001 -2.6351e-001 26310 109510,109562,109536
 1.0000e+000 109663  5.7777e-001  5.1618e-001  1.9085e-001 26310 109484,109562,109510
 1.0000e+000 109640 -1.0014e+000 -8.5265e-001  8.4111e-001 26310 109484,109588,109562
 1.0000e+000 110159 -4.4865e+000 -8.6848e+000  1.6075e+000 25642 110182,109940,109914
 1.0000e+000 110136 -4.5139e+000 -8.8889e+000  1.7165e+000 25642 110182,109914,109888
 1.0000e+000 110113 -5.3935e+000 -1.1039e+001  4.0843e+000 25642 109966,110018,109992
 1.0000e+000 110090 -5.5489e+000 -9.2755e+000  1.8167e+000 25642 110254,109966,109940
 1.0000e+000 110067 -3.0030e+000 -9.1702e+000  2.1768e+000 25642 109862,110018,109888
 1.0000e+000 110044 -6.0348e+000 -5.5864e+000  4.1056e+000 25642 109836,110018,109862
 1.0000e+000 110208 -5.0358e+000 -8.9263e+000  1.6475e+000 25642 110254,109940,110182
 1.0000e+000 110231 -3.8267e+000 -9.1018e+000  1.5020e+000 25642 110018,110182,109888
 1.0000e+000 110280 -4.6328e+000 -9.8746e+000  1.8528e+000 25642 110018,109966,110254
 1.0000e+000 110303 -4.2464e+000 -9.6568e+000  1.7451e+000 25642 110018,110254,110182
 1.0000e+000 110632  7.1683e-001 -9.3996e-001 -1.3688e-001 25188 110407,110485,110433
 1.0000e+000 110609  1.9443e+000 -3.1701e-001 -5.4826e-001 25188 110407,110537,110485
 1.0000e+000 110586 -1.2196e-001 -1.2394e+000  7.0431e-001 25188 110433,110485,110459
 1.0000e+000 110563  2.6198e+000  5.9518e-001  1.3655e-001 25188 110485,110537,110511
 1.0000e+000 110831 -7.8045e-001 -3.6048e+000  8.7062e-001 24726 110854,110707,110655
 1.0000e+000 110808 -1.2829e+000 -4.0982e+000  1.1614e+000 24726 110854,110655,110759
 1.0000e+000 110785 -6.3276e-001 -3.6504e+000  7.4523e-001 24726 110655,110707,110681
 1.0000e+000 110880 -1.0587e+000 -3.1173e+000  4.3683e-001 24726 110733,110707,110854
 1.0000e+000 110903 -1.4624e+000 -3.4803e+000  7.1186e-001 24726 110733,110854,110759
 1.0000e+000 111234  1.6068e-002 -1.9892e+000 -2.8956e-001 24222 111257,111087,111035
 1.0000e+000 111211 -2.2142e-001 -2.0808e+000  2.3570e-001 24222 111257,111035,111009
 1.0000e+000 111188 -3.2252e-001 -4.1841e+000  6.3983e-001 24222 111035,111087,111061
 1.0000e+000 111165  1.1453e-001 -7.4198e-001 -4.9573e-001 24222 111087,111139,111113
 1.0000e+000 111283  3.5859e-002 -1.6225e+000 -2.6619e-001 24222 111139,111087,111257
 1.0000e+000 111306 -2.3305e-002 -1.2583e+000  7.6937e-002 24222 111139,111257,111009
 1.0000e+000 111625 -9.8655e+000 -5.1329e+000  9.2185e-001 23732 111648,111481,111455
 1.0000e+000 111602 -8.5192e+000 -5.6621e+000  6.0479e-002 23732 111648,111455,111377
 1.0000e+000 111579 -8.9245e+000 -5.8624e+000  1.0263e+000 23732 111377,111429,111403
 1.0000e+000 111556 -7.9845e+000 -4.3573e+000 -9.5997e-001 23732 111377,111455,111429
 1.0000e+000 111533 -7.8783e+000 -9.2497e+000 -1.7571e-001 23732 111351,111507,111377
 1.0000e+000 111674 -7.5389e+000 -3.5272e+000  1.6466e+000 23732 111507,111481,111648
 1.0000e+000 111697 -8.0505e+000 -5.2348e+000  3.6989e-001 23732 111507,111648,111377
 1.0000e+000 112156 -1.1369e+000 -4.8283e+000  4.8222e-001 23278 112179,111908,111882
 1.0000e+000 112133 -1.1422e+000 -4.6286e+000  2.8685e-001 23278 112179,111882,112012
 1.0000e+000 112110 -5.2031e-001 -5.7894e+000  4.1761e-001 23278 111908,111960,111934
 1.0000e+000 112087 -8.6152e-001 -3.7802e+000  1.3005e-001 23278 111882,112038,112012
 1.0000e+000 112064 -1.1559e+000 -4.0748e+000  1.9066e-001 23278 111960,112012,111986
 1.0000e+000 112205 -1.0349e+000 -4.7037e+000  3.1530e-001 23278 111960,111908,112179
 1.0000e+000 112228 -9.2185e-001 -4.4513e+000  1.0302e-001 23278 111960,112179,112012
 1.0000e+000 112685 -6.2596e+000 -1.1091e+001  1.5422e+000 22938 112489,112567,112541
 1.0000e+000 112662 -3.6965e+000 -4.7765e+000  1.3726e+000 22938 112437,112567,112489
 1.0000e+000 112639 -6.0550e+000 -1.1578e+001  1.5158e+000 22938 112489,112541,112515
 1.0000e+000 112616 -4.6347e+000 -1.3208e+000  2.5260e+000 22938 112411,112567,112437
 1.0000e+000 112593 -6.0308e+000 -1.2855e+001  3.9959e+000 22938 112437,112489,112463
 1.0000e+000 113191 -2.1370e+000 -4.4961e+000  1.2041e+000 22534 113214,112998,112946
 1.0000e+000 113168 -1.2463e+000 -2.8838e+000  8.1337e-001 22534 113286,113214,112946
 1.0000e+000 113145 -1.7262e+000 -2.7306e+000  6.0146e-001 22534 113286,112946,112920
 1.0000e+000 113122 -1.5617e+000 -3.4241e+000  3.2588e-001 22534 113358,113024,112998
 1.0000e+000 113099 -1.5603e+000 -3.1806e+000  1.9134e-002 22534 112868,113050,112894
 1.0000e+000 113076  6.3076e-001 -3.9941e-002  2.4774e+000 22534 112946,112998,112972
 1.0000e+000 113240 -1.5643e+000 -3.4640e+000  3.3073e-001 22534 113358,112998,113214
 1.0000e+000 113263 -1.2383e+000 -3.1331e+000  1.0905e-001 22534 113050,113214,112894
 1.0000e+000 113312 -1.7136e+000 -3.4091e+000  6.1456e-001 22534 112894,113214,113286
 1.0000e+000 113335 -2.0732e+000 -3.0663e+000  4.5935e-001 22534 112894,113286,112920
 1.0000e+000 113384 -1.5716e+000 -3.5062e+000  3.2791e-001 22534 113050,113024,113358
 1.0000e+000 113407 -1.5572e+000 -3.5244e+000  3.2952e-001 22534 113050,113358,113214
 1.0000e+000 113785 -5.8490e+000 -1.2792e+001  3.0564e+000 21978 113808,113615,113511
 1.0000e+000 113762 -6.8073e+000 -1.3993e+001  4.0460e+000 21978 113808,113511,113667
 1.0000e+000 113739 -2.3514e+000 -1.0412e+001  1.7066e+000 21978 113511,113615,113537
 1.0000e+000 113716  2.6514e+000 -1.0797e+001 -1.4140e+000 21978 113537,113615,113589
 1.0000e+000 113693  1.0512e+001 -3.8214e+000 -4.5112e+000 21978 113537,113589,113563
 1.0000e+000 113834 -5.0623e+000 -1.1475e+001  1.4406e+000 21978 113641,113615,113808
 1.0000e+000 113857 -7.3611e+000 -1.2620e+001  2.5733e+000 21978 113641,113808,113667
 1.0000e+000 114284 -3.5213e+000 -6.9721e+000 -4.4210e-001 21517 114013,114117,114039
 1.0000e+000 114261 -1.9537e+000 -6.0185e+000  3.1046e-001 21517 113961,114117,114013
 1.0000e+000 114238 -4.3664e+000 -6.7185e+000 -4.4954e-001 21517 113961,114013,113987
 1.0000e+000 114215 -2.8580e+000 -6.2619e+000 -1.3865e-001 21517 114039,114117,114091
 1.0000e+000 114192 -7.6952e-001 -5.8821e+000 -3.3147e-001 21517 113961,114143,114117
 1.0000e+000 114169 -9.2160e-001 -5.6985e+000 -2.9608e-001 21517 114039,114091,114065
 1.0000e+000 114581 -8.6173e+000 -1.6205e+001  9.4822e-002 21027 114359,114463,114437
 1.0000e+000 114558 -8.6392e+000 -1.5630e+001  1.1066e+000 21027 114333,114463,114359
 1.0000e+000 114535 -8.1590e+000 -1.6518e+001  5.5006e-002 21027 114359,114437,114385
 1.0000e+000 114512 -1.0173e+001 -1.7227e+001 -2.0689e+000 21027 114307,114463,114333
 1.0000e+000 114489 -7.1250e+000 -1.4282e+001 -1.1039e+000 21027 114385,114437,114411
 1.0000e+000 114912 -4.2577e+000 -7.6200e+000 -5.4259e-001 20623 114713,114791,114765
 1.0000e+000 114889 -2.2548e+000 -6.7655e+000 -7.1623e-001 20623 114687,114791,114713
 1.0000e+000 114866 -3.4856e+000 -1.0270e+001  1.0853e-001 20623 114687,114817,114791
 1.0000e+000 114843 -5.3705e+000 -6.4595e+000 -1.3384e-001 20623 114713,114765,114739
 1.0000e+000 115290 -1.4060e+000 -5.5683e+000  3.6552e-001 20375 115313,115146,115094
 1.0000e+000 115267 -1.6068e+000 -5.3034e+000  4.8260e-001 20375 115313,115094,115042
 1.0000e+000 115244 -2.0892e+000 -5.5917e+000  3.6945e-001 20375 115385,115016,115172
 1.0000e+000 115221 -6.8532e-001 -4.7306e+000  2.0962e-001 20375 115042,115094,115068
 1.0000e+000 115198 -9.1861e-001 -5.0564e+000  1.0128e+000 20375 115094,115146,115120
 1.0000e+000 115339 -1.3688e+000 -5.3723e+000  4.8263e-001 20375 115172,115146,115313
 1.0000e+000 115362 -1.4291e+000 -5.5149e+000  4.7422e-001 20375 115385,115172,115313
 1.0000e+000 115411 -2.6842e+000 -5.6080e+000  1.8007e-001 20375 115042,115016,115385
 1.0000e+000 115434 -2.2630e+000 -5.6266e+000  3.6485e-001 20375 115042,115385,115313
 1.0000e+000 115891 -8.9711e-001 -1.9797e+000 -5.3549e-001 19971 115617,115747,115643
 1.0000e+000 115868 -7.5948e-001 -1.2114e+000 -1.1931e+000 19971 115617,115773,115747
 1.0000e+000 115845  4.9794e-001 -5.5542e-001 -1.3487e+000 19971 115643,115721,115695
 1.0000e+000 115822 -2.2959e-001 -1.4671e+000 -7.6176e-001 19971 115643,115747,115721
 1.0000e+000 115799 -1.5748e+000  5.3323e-001 -7.4867e-001 19971 115643,115695,115669
 1.0000e+000 115992 -8.3279e+000 -1.5590e+001 -6.0638e+000 19659 115914,115966,115940
 1.0000e+000 116142 -4.9018e-001 -1.2718e+000 -7.8631e-003 18997 116041,116093,116067
 1.0000e+000 116119 -4.0081e-001 -1.5649e+000  7.2812e-001 18997 116015,116093,116041
 1.0000e+000 116343  8.0738e-001 -8.0580e-001 -6.3452e-002 18707 116193,116245,116219
 1.0000e+000 116320  1.0704e+000 -2.1633e-001  5.7442e-001 18707 116193,116271,116245
 1.0000e+000 116297  7.6626e-001 -1.3077e+000  9.1178e-001 18707 116167,116271,116193
 1.0000e+000 116747 -8.4650e-001 -3.0724e+000  3.8360e-003 18301 116525,116629,116551
 1.0000e+000 116724 -1.8157e-001 -2.3672e+000  2.7711e-001 18301 116473,116629,116525
 1.0000e+000 116701 -4.0084e-001 -3.4318e+000 -3.4961e-001 18301 116473,116525,116499
 1.0000e+000 116678 -7.2045e-001 -2.9853e+000 -9.8344e-002 18301 116551,116603,116577
 1.0000e+000 116655 -7.1037e-001 -2.7559e+000 -2.0733e-002 18301 116551,116629,116603
 1.0000e+000 117147 -9.1556e+000 -1.4391e+001  2.3917e-001 17747 116899,117029,116925
 1.0000e+000 117124 -1.1522e+001 -1.6717e+001 -7.1816e-001 17747 116873,117029,116899
 1.0000e+000 117101 -7.6219e+000 -1.2422e+001  9.2982e-001 17747 116925,117029,116951
 1.0000e+000 117078 -9.5270e+000 -1.5018e+001  2.5604e+000 17747 116951,117029,117003
 1.0000e+000 117055 -8.8403e+000 -4.6317e+000  4.1103e+000 17747 116951,117003,116977
 1.0000e+000 117368 -3.3842e+000 -2.4477e+000  2.0648e-001 17293 117244,117296,117270
 1.0000e+000 117345 -2.8301e+000 -2.9211e+000  2.5311e-001 17293 117192,117296,117244
 1.0000e+000 117322 -1.8452e+000 -2.6318e+000  2.1760e-002 17293 117192,117244,117218
 1.0000e+000 117699 -1.1490e+000 -2.0274e+000 -2.4746e-001 16896 117526,117604,117552
 1.0000e+000 117676 -1.0041e+000 -1.0953e+000 -4.9000e-001 16896 117500,117604,117526
 1.0000e+000 117653 -1.3329e+000 -1.6905e+000 -4.9071e-001 16896 117552,117604,117578
 1.0000e+000 117630 -5.4470e-001 -9.2980e-001 -2.4360e-001 16896 117474,117604,117500
 1.0000e+000 117849 -3.1761e-001 -1.2753e+000 -1.5570e-001 16534 117722,117774,117748
 1.0000e+000 117826 -6.7627e-001 -2.4842e+000 -1.3254e-001 16534 117722,117800,117774
 1.0000e+000 118070 -1.3411e+000 -4.5548e+000  3.9738e-001 16194 117946,117998,117972
 1.0000e+000 118047 -1.7649e+000 -5.2220e+000  2.1567e-001 16194 117894,117998,117946
 1.0000e+000 118024 -2.3795e+000 -5.4401e+000  2.6341e-001 16194 117894,117946,117920
 1.0000e+000 118173 -8.3439e+000 -1.7513e+001  0.0000e+000 15968 118095,118147,118121
 1.0000e+000 118276 -3.1275e+000 -6.9510e+000  4.6129e-001 15433 118299,118198,118250
 1.0000e+000 118325 -3.4783e+000 -7.7694e+000  4.6929e-001 15433 118224,118198,118299
 1.0000e+000 118450 -1.3296e+001 -1.5679e+001  2.2676e+000 421 118372,118424,118398
 1.1000e+000 69891 -4.0196e-001 -2.3507e+001  1.5783e-001 68988 69447,69681,69629
 1.1000e+000 69868  1.1519e+001 -1.8738e+001  6.4998e-001 68988 69421,69681,69447
 1.1000e+000 69845  3.9589e+000 -1.3190e+001 -1.1052e+000 68988 69447,69629,69577
 1.1000e+000 69822 -2.3694e+000 -2.7167e+001 -3.5196e+000 68988 69447,69577,69473
 1.1000e+000 69799  5.9837e+000 -3.0515e+001  7.3823e+000 68988 69629,69681,69655
 1.1000e+000 69776 -4.0171e+000 -1.6520e+001 -1.4728e+000 68988 69577,69629,69603
 1.1000e+000 69753 -9.4958e-001 -2.9859e+001 -6.8328e+000 68988 69473,69577,69551
 1.1000e+000 69730 -2.6496e-001 -5.0148e+001 -6.1212e+000 68988 69473,69551,69525
 1.1000e+000 69707  7.7405e-001 -3.1976e+001 -2.5039e-001 68988 69473,69525,69499
 1.1000e+000 69992 -4.6080e+000 -2.3764e+001 -5.0592e+000 68676 69914,69966,69940
 1.1000e+000 70392  4.0825e+000 -6.8773e+000  1.4444e+000 68478 70118,70248,70144
 1.1000e+000 70369  9.0824e+000 -9.5284e+000  2.5784e+000 68478 70118,70274,70248
 1.1000e+000 70346  9.7991e+000 -2.5638e+000 -2.4288e-001 68478 70144,70222,70196
 1.1000e+000 70323  1.0754e+001  1.1162e-001 -1.3184e+000 68478 70144,70248,70222
 1.1000e+000 70300  9.7339e+000 -5.0089e+000 -3.6998e-001 68478 70144,70196,70170
 1.1000e+000 70841  7.9973e+000 -2.2427e+000 -4.1202e-001 68280 70570,70622,70596
 1.1000e+000 70818  8.9967e+000 -1.1373e+000 -8.2863e-001 68280 70544,70622,70570
 1.1000e+000 70795  1.0185e+001  2.5805e+000 -1.2168e+000 68280 70544,70674,70622
 1.1000e+000 70772  1.3278e+001  9.2279e-001 -2.7063e+000 68280 70622,70674,70648
 1.1000e+000 70749  6.3679e+000 -1.5576e+000  4.0266e-001 68280 70518,70674,70544
 1.1000e+000 70726  3.9493e+000 -3.9064e+000 -5.7385e-001 68280 70518,70700,70674
 1.1000e+000 70991  1.3344e+001 -1.1698e+001 -1.6317e-001 67968 70864,70916,70890
 1.1000e+000 70968  1.8634e+001 -2.6264e+000  6.9803e+000 67968 70864,70942,70916
 1.1000e+000 71141  1.1449e+001 -1.0797e+001 -8.3359e+000 67770 71040,71092,71066
 1.1000e+000 71118  2.9301e+001 -3.4399e+001  3.5205e+000 67770 71014,71092,71040
 1.1000e+000 71651  7.2581e+000 -3.6727e+000 -1.2605e+000 67366 71746,71674,71458
 1.1000e+000 71628  9.9406e+000  9.4721e-001 -2.3679e+000 67366 71674,71354,71510
 1.1000e+000 71605  7.4318e+000 -5.7216e+000 -9.4477e-001 67366 71746,71458,71432
 1.1000e+000 71582  4.7423e+000 -6.4547e+000  1.3468e+000 67366 71354,71432,71380
 1.1000e+000 71559  6.3156e+000 -2.6157e+000 -4.5355e-001 67366 71380,71432,71406
 1.1000e+000 71536  1.6493e+001  2.5820e+000 -1.3841e+000 67366 71328,71510,71354
 1.1000e+000 71700  6.3947e+000 -2.0165e+000  6.0753e-001 67366 71484,71458,71674
 1.1000e+000 71723  8.5444e+000 -1.1754e+000  3.8832e-001 67366 71484,71674,71510
 1.1000e+000 71772  7.4398e+000 -1.2915e+000 -1.0721e+000 67366 71354,71674,71746
 1.1000e+000 71795  7.9292e+000 -2.9398e+000 -1.0557e+000 67366 71354,71746,71432
 1.1000e+000 71896  2.4744e+000 -3.0943e+001  0.0000e+000 67146 71818,71870,71844
 1.1000e+000 71997  1.7313e+001 -7.9515e+001  1.9284e+001 66948 71919,71971,71945
 1.1000e+000 72149  1.0925e+001 -9.7532e+000 -1.4358e+000 66700 72172,72074,72048
 1.1000e+000 72126  6.1469e+000 -1.1873e+001 -2.5568e-001 66700 72172,72048,72022
 1.1000e+000 72198  1.9763e+000 -1.5859e+001  2.8671e+000 66700 72244,72172,72100
 1.1000e+000 72221  6.2156e+000 -1.2361e+001 -3.7110e-001 66700 72100,72172,72022
 1.1000e+000 72270  7.3919e+000 -3.8804e+000 -6.2219e-001 66700 72074,72172,72244
 1.1000e+000 72623  5.7861e+000 -8.9111e+000  8.3943e-002 66502 72424,72502,72450
 1.1000e+000 72600  6.4333e+000 -7.4807e+000  2.2404e-001 66502 72398,72502,72424
 1.1000e+000 72577  6.9849e+000 -9.8265e+000 -5.4916e-001 66502 72398,72528,72502
 1.1000e+000 72554  4.3740e+000 -8.4073e+000  9.4747e-002 66502 72450,72502,72476
 1.1000e+000 72920  6.0939e+000 -3.0746e+000 -6.5687e-001 65941 72672,72776,72750
 1.1000e+000 72897  1.0017e+001 -2.6951e+000 -6.4485e-001 65941 72646,72776,72672
 1.1000e+000 72874  5.1823e+000 -3.3095e+000 -8.1234e-001 65941 72672,72750,72724
 1.1000e+000 72851  4.5961e+000 -1.3053e+000 -5.3231e-002 65941 72672,72724,72698
 1.1000e+000 72828  1.3173e+001 -7.5003e+000  9.3370e-001 65941 72646,72802,72776
 1.1000e+000 73241  7.2906e+000 -7.1983e+000 -7.7819e-001 65743 73264,73071,73045
 1.1000e+000 73218  5.5861e+000 -8.8724e+000  5.2780e-001 65743 73480,73264,73045
 1.1000e+000 73195  7.4847e+000 -7.5812e+000 -2.0953e-001 65743 73336,72967,73097
 1.1000e+000 73172  5.6128e+000 -6.3325e+000 -1.4045e+000 65743 73408,72993,72967
 1.1000e+000 73149  6.6208e+000 -7.0826e+000  1.1787e-002 65743 72967,73123,73097
 1.1000e+000 73290  8.1787e+000 -6.2850e+000 -3.5696e-001 65743 73097,73071,73264
 1.1000e+000 73313  7.9916e+000 -6.2438e+000 -2.6018e-001 65743 73336,73097,73264
 1.1000e+000 73362  6.6669e+000 -7.3072e+000 -1.1299e+000 65743 73408,72967,73336
 1.1000e+000 73385  8.5612e+000 -6.1150e+000 -8.4532e-001 65743 73019,73336,73264
 1.1000e+000 73434  7.3032e+000 -2.9442e+000 -5.4212e-001 65743 73019,72993,73408
 1.1000e+000 73457  8.4099e+000 -5.1320e+000 -3.7374e-001 65743 73019,73408,73336
 1.1000e+000 73506  9.7791e+000 -6.0750e-001 -9.6724e-001 65743 73019,73264,73480
 1.1000e+000 73989  7.9526e+000 -1.2472e+000  4.6465e-001 65453 73793,73845,73819
 1.1000e+000 73966  5.3419e+000 -1.6117e+000  8.4849e-001 65453 73741,73845,73793
 1.1000e+000 73943  9.6594e+000  1.0551e+000 -3.0517e-001 65453 73715,73845,73741
 1.1000e+000 73920  5.0743e+000 -7.1382e+000  1.6406e+000 65453 73741,73793,73767
 1.1000e+000 73897  1.0874e+001  1.6134e+000 -1.3173e+000 65453 73715,73871,73845
 1.1000e+000 74357  7.8778e+000 -1.4892e+001 -3.5728e-001 65141 74380,74138,74086
 1.1000e+000 74334  8.6102e+000 -1.3326e+001 -5.7162e-001 65141 74380,74086,74060
 1.1000e+000 74311  6.5437e+000 -1.3347e+001 -2.8744e-001 65141 74138,74190,74164
 1.1000e+000 74288  1.0567e+001 -1.6931e+001 -2.1373e+000 65141 74060,74216,74190
 1.1000e+000 74265  9.5054e+000 -1.9995e+001  2.7471e-002 65141 74034,74216,74060
 1.1000e+000 74242  1.8344e+001 -1.1246e+001  1.2215e+000 65141 74086,74138,74112
 1.1000e+000 74406  8.2112e+000 -1.3647e+001 -1.0551e+000 65141 74190,74138,74380
 1.1000e+000 74429  8.5055e+000 -1.3002e+001 -1.1484e+000 65141 74190,74380,74060
 1.1000e+000 74937  3.9556e-001 -1.8864e+001 -1.8153e+000 64737 74614,74666,74640
 1.1000e+000 74914 -7.0020e-001 -1.5676e+001 -2.1009e+000 64737 74614,74796,74666
 1.1000e+000 74891  8.4541e+000 -6.4989e+000  2.2286e+000 64737 74960,74718,74666
 1.1000e+000 74868  6.5083e+000 -9.0899e+000  5.7005e-001 64737 74960,74666,74770
 1.1000e+000 74845  3.8078e+000 -5.6903e+000 -6.7129e-001 64737 74666,74796,74770
 1.1000e+000 74822  1.5863e+001 -1.2128e+001  6.4751e+000 64737 74666,74718,74692
 1.1000e+000 74986  9.8441e+000 -8.8624e+000 -6.8267e-001 64737 74744,74718,74960
 1.1000e+000 75009  5.3212e+000 -1.3279e+001 -2.8801e+000 64737 74744,74960,74770
 1.1000e+000 75306  7.1239e+000 -4.2270e+000  7.8166e-001 64133 75329,75110,75084
 1.1000e+000 75283  4.0351e+000 -6.3523e+000 -1.5912e-001 64133 75401,75329,75084
 1.1000e+000 75260  3.1731e+000 -7.7286e+000 -5.2562e-001 64133 75401,75084,75058
 1.1000e+000 75237  6.2519e+000 -6.5413e+000 -8.7447e-002 64133 75473,75136,75110
 1.1000e+000 75214  9.7840e+000 -7.5790e+000 -2.2545e-001 64133 75032,75188,75162
 1.1000e+000 75355  6.2504e+000 -6.4626e+000 -9.5273e-002 64133 75473,75110,75329
 1.1000e+000 75378  7.2294e+000 -5.6000e+000 -3.2784e-001 64133 75162,75329,75032
 1.1000e+000 75427  7.3403e+000 -5.1916e+000 -7.8958e-001 64133 75032,75329,75401
 1.1000e+000 75450  5.8125e-001 -1.0225e+001  2.1728e+000 64133 75545,75401,75058
 1.1000e+000 75499  5.8038e+000 -6.3834e+000 -4.2395e-001 64133 75162,75136,75473
 1.1000e+000 75522  6.0202e+000 -5.9698e+000 -3.2408e-001 64133 75162,75473,75329
 1.1000e+000 75571  6.2831e+000  1.9929e+000 -5.6358e-001 64133 75032,75401,75545
 1.1000e+000 75851  1.5642e+000 -1.1195e+001  3.0800e+000 63843 75874,75753,75727
 1.1000e+000 75828  3.2620e+000 -1.1187e+001  5.9767e-001 63843 75946,75874,75727
 1.1000e+000 75805  1.8200e+000 -1.1012e+001  4.9873e-001 63843 76018,75946,75727
 1.1000e+000 75900  4.7200e+000 -9.8608e+000  1.5791e+000 63843 75779,75753,75874
 1.1000e+000 75923  3.9312e+000 -4.6598e+000 -1.7367e+000 63843 75779,75874,75675
 1.1000e+000 75972  4.6567e-001 -9.1316e+000  9.0272e-001 63843 75675,75874,75946
 1.1000e+000 75995 -5.2866e-001 -1.1778e+001  1.1676e+000 63843 75675,75946,75701
 1.1000e+000 76044 -1.0522e-001 -1.4612e+001 -8.4900e-001 63843 75701,75946,76018
 1.1000e+000 76454  1.2663e+001 -1.1527e+000 -6.7276e+000 63439 76477,76255,76229
 1.1000e+000 76431  7.5399e+000 -1.0560e+001 -4.0758e+000 63439 76477,76229,76359
 1.1000e+000 76408 -1.5249e-001 -9.5595e+000  2.2075e+000 63439 76307,76359,76333
 1.1000e+000 76385  4.1751e+000 -3.3189e+000  2.7232e+000 63439 76255,76307,76281
 1.1000e+000 76503  8.5161e+000 -8.1135e+000 -9.3029e-001 63439 76307,76255,76477
 1.1000e+000 76526  8.0539e+000 -1.2053e+001  8.3265e-001 63439 76307,76477,76359
 1.1000e+000 76926  4.2319e+000 -1.2655e+001 -1.0661e+000 63049 76704,76782,76756
 1.1000e+000 76903 -1.2221e+000 -1.5331e+001  4.2608e-001 63049 76704,76808,76782
 1.1000e+000 76880  2.1330e+000 -1.8648e+001  5.6752e-001 63049 76704,76756,76730
 1.1000e+000 76857  7.9268e+000 -1.0489e+001  2.6933e+000 63049 76678,76808,76704
 1.1000e+000 76834  1.1127e+001  1.2798e+001 -6.0643e+000 63049 76652,76808,76678
 1.1000e+000 77076  7.4483e+000 -1.9161e+000  2.1547e-001 62737 76975,77027,77001
 1.1000e+000 77053  7.1739e+000 -2.9258e+000 -2.9912e-001 62737 76949,77027,76975
 1.1000e+000 77324  2.5186e+000 -8.5998e+000 -1.4795e+000 62277 77347,77177,77125
 1.1000e+000 77301  3.9623e+000 -8.3430e+000 -1.0004e+000 62277 77347,77125,77229
 1.1000e+000 77278  7.9696e+000 -1.0464e+001 -2.7034e+000 62277 77099,77229,77125
 1.1000e+000 77255  3.2446e+000 -1.4580e+001 -1.2883e+000 62277 77125,77177,77151
 1.1000e+000 77373  2.8797e+000 -8.8679e+000 -1.7494e-001 62277 77203,77177,77347
 1.1000e+000 77396  5.4546e+000 -8.3003e+000  2.4052e-002 62277 77203,77347,77229
 1.1000e+000 77857  6.4952e+000 -2.1698e+000 -1.2847e+000 61758 77635,77739,77661
 1.1000e+000 77834  7.1852e+000 -5.0063e+000 -7.3030e-001 61758 77583,77739,77635
 1.1000e+000 77811  8.4141e+000 -8.5449e+000 -4.5572e+000 61758 77583,77635,77609
 1.1000e+000 77788  8.3649e+000 -5.0174e+000 -2.8405e-001 61758 77661,77713,77687
 1.1000e+000 77765  5.9734e+000 -4.0189e+000 -1.4942e+000 61758 77661,77739,77713
 1.1000e+000 78491  1.6785e+000 -1.5182e+001  1.1214e+000 61418 78171,78301,78249
 1.1000e+000 78468  5.6642e+000 -1.0682e+001  2.9863e+000 61418 78145,78301,78171
 1.1000e+000 78445  4.7416e+000 -1.2770e+001 -7.9403e-001 61418 78171,78249,78223
 1.1000e+000 78422  8.1836e+000 -9.6662e+000  4.5010e+000 61418 78145,78327,78301
 1.1000e+000 78399 -2.2852e+000 -2.4358e+001  1.6024e+000 61418 78249,78301,78275
 1.1000e+000 78376  6.4728e+000 -1.5632e+001 -7.6317e-001 61418 78171,78223,78197
 1.1000e+000 78353  1.0117e+001 -1.5305e+001  3.6298e+000 61418 78119,78327,78145
 1.1000e+000 78690  4.2792e-001 -2.1164e+001 -1.2328e+000 61014 78713,78566,78540
 1.1000e+000 78667 -6.9066e-001 -2.2272e+001 -7.4326e-001 61014 78713,78540,78618
 1.1000e+000 78644 -7.2551e+000 -2.6986e+001 -4.8890e+000 61014 78514,78618,78540
 1.1000e+000 78739  3.0216e-001 -2.2126e+001 -1.2185e+000 61014 78592,78566,78713
 1.1000e+000 78762 -2.7363e+000 -2.1672e+001 -1.5843e+000 61014 78785,78713,78618
 1.1000e+000 78811  2.6069e+000 -1.9685e+001 -2.5028e+000 61014 78592,78713,78785
 1.1000e+000 79398  1.6039e+000 -1.7205e+001 -1.3814e+000 60624 79101,79179,79153
 1.1000e+000 79375  1.0844e+000 -1.9314e+001 -5.0285e-001 60624 79101,79231,79179
 1.1000e+000 79352  6.5143e+000 -1.7419e+001 -7.8455e-001 60624 79075,79231,79101
 1.1000e+000 79329 -3.0941e-001 -2.4764e+001  3.6497e+000 60624 79075,79257,79231
 1.1000e+000 79306  1.3363e+000 -1.7512e+001 -1.9933e+000 60624 79179,79231,79205
 1.1000e+000 79283  2.9195e+000 -1.3744e+001 -3.3547e+000 60624 79101,79153,79127
 1.1000e+000 79776 -2.2708e+000 -1.3975e+001  1.3389e+000 60070 79528,79658,79606
 1.1000e+000 79753 -3.0156e+000 -1.2906e+001 -8.8420e-001 60070 79502,79658,79528
 1.1000e+000 79730 -2.8289e+000 -1.0691e+001  3.8626e+000 60070 79528,79606,79580
 1.1000e+000 79707  2.0971e+000 -1.3399e+001  5.9779e-001 60070 79606,79658,79632
 1.1000e+000 79684 -8.8930e-001 -4.8251e+000 -3.0583e+000 60070 79528,79580,79554
 1.1000e+000 80105  1.8036e+000 -1.1268e+001  2.5596e-001 59758 80128,79958,79906
 1.1000e+000 80082  7.4785e+000 -1.0476e+001  1.1792e-001 59758 80128,79906,80010
 1.1000e+000 80059 -1.7299e+000 -1.7677e+001  2.0083e+000 59758 79906,79958,79932
 1.1000e+000 80036  1.5421e+001 -1.4021e+001 -1.6607e+000 59758 79880,80010,79906
 1.1000e+000 80154  5.0021e+000 -1.2025e+001  2.8455e+000 59758 79984,79958,80128
 1.1000e+000 80177  9.3627e+000 -1.1751e+001  3.1808e+000 59758 79984,80128,80010
 1.1000e+000 80376 -1.8080e-001 -2.2781e+001  1.2762e+000 59312 80226,80304,80252
 1.1000e+000 80353 -4.4217e-001 -2.7091e+001  8.7685e-001 59312 80200,80304,80226
 1.1000e+000 80330 -2.6600e+000 -2.5292e+001  3.2694e+000 59312 80252,80304,80278
 1.1000e+000 80805  4.1514e+000 -3.6949e+000 -1.0785e+000 58908 80900,80828,80638
 1.1000e+000 80782  1.9322e+000 -4.2096e+000 -1.9679e+000 58908 80828,80560,80508
 1.1000e+000 80759  4.1098e+000 -3.0651e+000 -1.6208e-001 58908 80900,80638,80612
 1.1000e+000 80736  8.2045e+000 -1.9098e+000  5.8033e-001 58908 80482,80664,80508
 1.1000e+000 80713  5.7312e+000 -1.9565e+000  1.7113e-001 58908 80560,80612,80586
 1.1000e+000 80690  5.3874e+000 -9.9871e+000 -5.7800e+000 58908 80508,80560,80534
 1.1000e+000 80854  5.3010e+000 -3.9858e+000 -3.9021e-001 58908 80664,80638,80828
 1.1000e+000 80877  4.4018e+000 -4.9843e+000 -9.9814e-001 58908 80664,80828,80508
 1.1000e+000 80926  4.5017e+000 -1.9172e+000 -9.8892e-001 58908 80560,80828,80900
 1.1000e+000 80949  4.3295e+000 -1.7918e+000  6.1198e-002 58908 80560,80900,80612
 1.1000e+000 81246  6.3499e+000 -2.2573e+000  8.8058e-001 58482 81076,81128,81102
 1.1000e+000 81223  4.5619e+000 -3.9405e+000  1.4092e-001 58482 80972,81128,81076
 1.1000e+000 81200  5.9907e+000 -1.3877e+000 -4.2310e-001 58482 80972,81076,81050
 1.1000e+000 81177  5.2746e+000 -4.1304e+000 -8.8075e-001 58482 80998,81050,81024
 1.1000e+000 81154  5.0399e+000 -2.5899e+000 -9.0517e-001 58482 80972,81050,80998
 1.1000e+000 81754  5.9179e+000 -3.0514e+000 -1.7715e-001 57828 81457,81613,81483
 1.1000e+000 81731  4.9612e+000 -4.3809e+000 -1.3559e+000 57828 81431,81613,81457
 1.1000e+000 81708  6.6463e+000 -1.4296e+000 -1.8710e+000 57828 81483,81613,81509
 1.1000e+000 81685  2.7282e+000 -2.8964e+000 -3.1658e-001 57828 81509,81613,81587
 1.1000e+000 81662  2.2849e+000 -6.6878e+000  3.6632e-001 57828 81509,81587,81535
 1.1000e+000 81639  7.6005e+000 -7.7561e+000 -1.0664e+000 57828 81535,81587,81561
 1.1000e+000 82002 -1.1630e+000 -1.9061e+001 -8.4296e-001 57374 82025,81855,81829
 1.1000e+000 81979 -3.3199e-001 -1.7339e+001  2.7066e-001 57374 82025,81829,81907
 1.1000e+000 81956 -2.4469e+000 -1.8980e+001 -8.4656e-001 57374 81803,81907,81829
 1.1000e+000 81933  1.9323e+000 -1.5679e+001  9.6727e-001 57374 81777,81907,81803
 1.1000e+000 82051 -3.6309e+000 -1.7234e+001  6.8002e-003 57374 81881,81855,82025
 1.1000e+000 82074 -2.8982e-001 -1.4462e+001  1.8224e+000 57374 81881,82025,81907
 1.1000e+000 82356  3.5319e+000 -1.5780e+000 -1.4041e+000 56913 82180,82232,82206
 1.1000e+000 82333  3.1386e+000 -3.3260e+000  6.9265e-002 56913 82180,82284,82232
 1.1000e+000 82310  7.4232e+000 -3.8626e+000  1.2556e+000 56913 82379,82232,82284
 1.1000e+000 82405  1.4411e+001  1.2440e+000  6.0163e+000 56913 82258,82232,82379
 1.1000e+000 82764  1.8147e+000 -5.8561e+000 -6.2208e-001 56523 82614,82666,82640
 1.1000e+000 82741  2.3452e+000 -2.3180e+000 -6.9139e-001 56523 82614,82692,82666
 1.1000e+000 82718  5.5111e+000 -1.7772e+000 -1.7280e+000 56523 82588,82692,82614
 1.1000e+000 83368  2.1858e-001 -1.9484e+001  2.1076e-001 55969 82973,83155,83129
 1.1000e+000 83345  1.6657e+000 -1.9263e+001 -3.6348e+000 55969 82973,83181,83155
 1.1000e+000 83322  8.9017e-001 -1.8266e+001 -1.7497e-001 55969 82973,83129,82999
 1.1000e+000 83299 -9.7576e+000 -2.3270e+001  2.5791e+000 55969 83391,83025,82999
 1.1000e+000 83276 -5.5826e+000 -2.1347e+001  9.2458e-001 55969 83391,82999,83129
 1.1000e+000 83253  2.2820e+000 -1.4752e+001  2.7180e+000 55969 83077,83129,83103
 1.1000e+000 83230 -1.8058e+000 -1.5799e+001 -1.9077e+000 55969 83025,83077,83051
 1.1000e+000 83207  5.7364e+000 -1.7990e+001 -5.6307e+000 55969 82947,83181,82973
 1.1000e+000 83417 -5.4161e+000 -2.2445e+001  1.3740e+000 55969 83077,83025,83391
 1.1000e+000 83440 -3.7065e+000 -2.2412e+001 -1.0460e-001 55969 83077,83391,83129
 1.1000e+000 83946  2.0265e-001 -9.3320e+000  1.6272e+000 55771 83969,83779,83727
 1.1000e+000 83923  1.3327e+000 -7.3284e+000  2.6342e-001 55771 83969,83727,83623
 1.1000e+000 83900 -3.8353e+000 -2.8845e+000  8.8157e-001 55771 83623,83727,83649
 1.1000e+000 83877  5.5901e+000 -1.1833e+001  2.5912e+000 55771 83727,83779,83753
 1.1000e+000 83854 -4.4083e+000 -8.5713e+000  5.2237e+000 55771 83675,83727,83701
 1.1000e+000 83831 -8.3984e+000 -8.2471e+000  5.5959e+000 55771 83649,83727,83675
 1.1000e+000 83995  1.0393e+000 -9.4953e+000 -9.4399e-001 55771 83805,83779,83969
 1.1000e+000 84018  3.6783e+000 -5.2497e+000 -2.5814e+000 55771 83805,83969,83623
 1.1000e+000 84168  3.9652e+000 -4.0325e+000  1.6531e-001 55367 84191,84067,84041
 1.1000e+000 84145  4.1897e+000 -4.2749e+000  1.2171e-001 55367 84191,84041,84119
 1.1000e+000 84217  4.1321e+000 -4.0775e+000  2.0645e-001 55367 84093,84067,84191
 1.1000e+000 84240  4.6758e+000 -4.0540e+000  2.4365e-001 55367 84093,84191,84119
 1.1000e+000 84571  3.1622e+000 -1.0455e+001  2.1496e-001 54913 84398,84450,84424
 1.1000e+000 84548  9.6671e-001 -1.0556e+001  4.3419e-001 54913 84372,84450,84398
 1.1000e+000 84525  1.0295e+000 -1.1457e+001  1.6979e+000 54913 84346,84450,84372
 1.1000e+000 84502  4.6798e+000 -2.9565e+000 -4.9596e-002 54913 84346,84476,84450
 1.1000e+000 85126 -1.1621e+000 -1.3147e+001 -1.5249e+000 54402 84858,84936,84910
 1.1000e+000 85103  3.0637e-001 -8.3177e+000  9.1031e-001 54402 84806,84936,84858
 1.1000e+000 85080 -5.4261e+000 -7.2970e+000  9.3906e-001 54402 84780,84936,84806
 1.1000e+000 85057  6.9630e+000 -1.1253e+001  3.5057e+000 54402 84806,84858,84832
 1.1000e+000 85034 -2.4857e+000 -5.8335e+000  1.9375e+000 54402 84780,84962,84936
 1.1000e+000 85011 -1.5202e-001 -5.1895e+000 -3.1822e-001 54402 84858,84910,84884
 1.1000e+000 84988 -2.1075e+000 -1.0439e+000  7.5081e-001 54402 84754,84962,84780
 1.1000e+000 85396  2.8482e+000 -9.1338e-001 -8.5072e-001 53998 85197,85249,85223
 1.1000e+000 85373  3.8547e+000 -2.5873e+000 -4.9294e-001 53998 85197,85275,85249
 1.1000e+000 85350  5.2753e+000 -1.9240e+000 -4.8256e-002 53998 85171,85275,85197
 1.1000e+000 85327  4.9639e+000 -2.0296e+000 -1.5247e-002 53998 85171,85301,85275
 1.1000e+000 85749 -4.4700e-001 -2.2084e+001 -1.0922e+000 53636 85524,85628,85550
 1.1000e+000 85726 -6.6804e+000 -2.8551e+001  1.4458e+000 53636 85524,85654,85628
 1.1000e+000 85703 -1.2232e+000 -2.4113e+001  6.1856e-001 53636 85550,85602,85576
 1.1000e+000 85680  3.7195e+000 -2.0198e+001 -1.5928e+000 53636 85550,85628,85602
 1.1000e+000 86127  1.0552e-001 -1.7540e+001  2.1618e+000 52982 86150,85957,85879
 1.1000e+000 86104 -3.7972e+000 -1.9441e+001  1.3557e+000 52982 86150,85879,85853
 1.1000e+000 86081  2.8640e+000 -1.7947e+001  4.6088e+000 52982 85957,86009,85983
 1.1000e+000 86058 -5.4917e+000 -2.0054e+001  2.8182e+000 52982 85879,85957,85931
 1.1000e+000 86035 -2.1968e+000 -1.6230e+001  4.0150e-001 52982 85879,85931,85905
 1.1000e+000 86176  2.3922e+000 -1.9699e+001  1.6217e+000 52982 86009,85957,86150
 1.1000e+000 86199  7.5576e-002 -2.0562e+001  9.8756e-001 52982 86009,86150,85853
 1.1000e+000 86398  4.7501e+000  6.1631e-002 -1.2671e-001 52542 86421,86248,86222
 1.1000e+000 86375  4.2100e+000 -1.0481e+000 -3.5358e-001 52542 86421,86222,86300
 1.1000e+000 86352  3.3819e+000 -2.4244e+000  5.1216e-002 52542 86222,86326,86300
 1.1000e+000 86447  5.8410e+000 -4.9765e-001  8.9276e-001 52542 86274,86248,86421
 1.1000e+000 86470  4.9527e+000 -2.2485e+000  5.6213e-001 52542 86274,86421,86300
 1.1000e+000 86669  5.7345e+000  5.2668e-001 -1.8319e+000 52230 86692,86571,86545
 1.1000e+000 86646  4.6322e+000 -1.9939e+000 -1.6126e+000 52230 86692,86545,86519
 1.1000e+000 86623  3.8173e+000 -3.6585e+000  2.5140e-001 52230 86493,86597,86519
 1.1000e+000 86718  5.3072e+000  7.6556e-001  1.7953e-001 52230 86597,86571,86692
 1.1000e+000 86741  4.0640e+000 -1.8353e+000  5.4074e-001 52230 86597,86692,86519
 1.1000e+000 87153 -2.9850e+000 -1.2147e+001 -2.2614e+000 51640 86980,87058,87032
 1.1000e+000 87130 -4.0139e+000 -1.2648e+001 -2.4902e+000 51640 86928,87058,86980
 1.1000e+000 87107 -2.4359e+000 -2.5448e+001 -9.0375e+000 51640 86928,86980,86954
 1.1000e+000 87084 -2.2056e+000 -1.1810e+001 -2.1943e+000 51640 86980,87032,87006
 1.1000e+000 87659 -2.9578e+000 -1.1658e+001  1.6190e+000 51029 87682,87440,87362
 1.1000e+000 87636 -2.7221e+000 -1.2638e+001 -2.5418e-001 51029 87682,87362,87336
 1.1000e+000 87613 -5.1302e+000 -1.9017e+001  5.3482e-001 51029 87440,87518,87466
 1.1000e+000 87590 -5.3415e+000 -1.2242e+001  1.9767e+000 51029 87362,87440,87414
 1.1000e+000 87567 -5.3533e+000 -1.1299e+001  6.4117e+000 51029 87362,87414,87388
 1.1000e+000 87544 -5.5158e+000 -1.9297e+001  6.9398e-001 51029 87466,87518,87492
 1.1000e+000 87708 -2.7294e+000 -1.3391e+001  9.7499e-001 51029 87518,87440,87682
 1.1000e+000 87731 -2.7381e+000 -1.5857e+001 -2.0780e-001 51029 87518,87682,87336
 1.1000e+000 87881  3.9466e+000 -3.0542e+000 -2.1042e-002 50739 87780,87832,87806
 1.1000e+000 87858  3.7235e+000 -3.9472e+000  8.3245e-002 50739 87754,87832,87780
 1.1000e+000 88468  5.2773e+000  1.6243e+000 -8.9445e-001 50235 88171,88327,88197
 1.1000e+000 88445  1.6081e+000  1.8066e+000 -2.2751e+000 50235 88145,88327,88171
 1.1000e+000 88422  1.0873e+001  9.1042e-001  6.7933e-002 50235 88275,88327,88301
 1.1000e+000 88399  4.5656e+000 -1.7905e+000 -7.9934e-001 50235 88197,88327,88275
 1.1000e+000 88376  4.8686e+000  2.3321e-001 -4.1459e-001 50235 88197,88275,88223
 1.1000e+000 88353  3.2768e+000 -4.3119e+000 -4.4009e-001 50235 88223,88275,88249
 1.1000e+000 88895  3.5167e+000 -5.3268e+000  6.2258e-001 49873 88918,88728,88676
 1.1000e+000 88872  3.5087e+000 -5.5020e+000  5.6579e-001 49873 88918,88676,88624
 1.1000e+000 88849  3.4895e+000 -3.8588e+000  5.5566e-001 49873 88598,88754,88624
 1.1000e+000 88826  4.6290e+000 -4.1857e+000 -5.8643e-001 49873 88624,88676,88650
 1.1000e+000 88803  4.4833e+000 -7.4369e+000  8.3451e-001 49873 88676,88728,88702
 1.1000e+000 88780  3.5850e+000 -4.4325e+000  2.2048e-001 49873 88572,88754,88598
 1.1000e+000 88944  3.6059e+000 -5.2440e+000  7.1382e-001 49873 88754,88728,88918
 1.1000e+000 88967  3.5766e+000 -5.3836e+000  6.4370e-001 49873 88754,88918,88624
 1.1000e+000 89473 -5.6299e+000 -1.0318e+001 -2.5787e+000 49583 89176,89306,89202
 1.1000e+000 89450 -1.2168e+000 -9.0810e+000 -1.1997e+000 49583 89176,89332,89306
 1.1000e+000 89427  2.1929e-002 -8.9897e+000  7.0361e-002 49583 89496,89228,89202
 1.1000e+000 89404 -6.8490e-002 -8.8323e+000  1.1870e-002 49583 89496,89202,89280
 1.1000e+000 89381 -4.5723e+000 -1.1708e+001 -2.7655e+000 49583 89202,89306,89280
 1.1000e+000 89358 -2.8348e+000 -6.4982e+000  7.0094e-001 49583 89150,89332,89176
 1.1000e+000 89522 -2.2409e-001 -9.9889e+000  9.8922e-002 49583 89254,89228,89496
 1.1000e+000 89545  1.5510e-001 -9.1035e+000 -3.2909e-004 49583 89254,89496,89280
 1.1000e+000 89825  3.0938e+000 -8.3346e+000  2.1253e-001 49179 89701,89753,89727
 1.1000e+000 89802  4.6005e+000 -6.1998e+000 -5.3422e-001 49179 89675,89753,89701
 1.1000e+000 89779  5.8697e+000 -5.0289e+000  2.3442e+000 49179 89848,89753,89675
 1.1000e+000 89874 -4.0673e-001 -7.5241e+000  5.3558e-001 49179 89649,89753,89848
 1.1000e+000 90223 -6.6552e+000 -2.2017e+001  6.0060e-001 48739 90024,90102,90076
 1.1000e+000 90200 -3.7173e+000 -2.0448e+001  1.2289e+000 48739 90024,90128,90102
 1.1000e+000 90177 -4.6496e+000 -2.1265e+001  2.8948e-001 48739 90024,90076,90050
 1.1000e+000 90154 -5.4109e+000 -2.3069e+001  5.0206e-001 48739 89998,90128,90024
 1.1000e+000 90603 -6.1906e+000 -1.6573e+001  1.2541e+000 48335 90381,90485,90459
 1.1000e+000 90580 -1.0467e+001 -2.0662e+001 -1.2069e+000 48335 90355,90485,90381
 1.1000e+000 90557 -3.8497e+000 -4.5261e+000  4.6548e-001 48335 90381,90433,90407
 1.1000e+000 90534 -6.4656e+000 -1.6813e+001  1.0888e+000 48335 90381,90459,90433
 1.1000e+000 90511  2.1034e+000 -1.1159e+001  4.8601e+000 48335 90329,90485,90355
 1.1000e+000 90753  8.0486e+000 -3.7373e+000  5.0050e+000 47824 90776,90652,90704
 1.1000e+000 90730  2.3139e+000 -1.3868e+001  2.2551e+000 47824 90626,90704,90652
 1.1000e+000 90802  3.5143e+000 -7.9823e+000  3.2293e+000 47824 90678,90652,90776
 1.1000e+000 91131  2.8823e+000 -5.7651e+000  1.1968e+000 47427 91154,90958,90906
 1.1000e+000 91108 -2.5132e-001 -7.1520e+000  1.7257e+000 47427 91154,90906,91036
 1.1000e+000 91085  1.8570e+000 -3.6928e+000 -5.8639e-001 47427 90958,91010,90984
 1.1000e+000 91062  3.7044e+000 -3.1922e+000  9.9018e-001 47427 90906,90958,90932
 1.1000e+000 91180  1.2843e+000 -4.7531e+000 -9.5316e-001 47427 91010,90958,91154
 1.1000e+000 91203 -1.6389e+000 -5.9971e+000 -4.6757e-001 47427 91010,91154,91036
 1.1000e+000 91583 -1.5085e+000 -1.6977e+001  7.7961e-001 46873 91309,91439,91335
 1.1000e+000 91560 -2.7908e+000 -2.2976e+001  1.6994e+000 46873 91309,91465,91439
 1.1000e+000 91537 -8.0421e+000 -2.0311e+001 -8.9390e-001 46873 91361,91439,91413
 1.1000e+000 91514 -7.0562e+000 -1.9508e+001 -2.6942e-001 46873 91335,91439,91361
 1.1000e+000 91491  4.2083e+000 -1.7662e+001 -1.3659e+000 46873 91361,91413,91387
 1.1000e+000 91880  3.2541e+000 -4.7724e+000 -5.6093e-001 46526 91606,91710,91658
 1.1000e+000 91857  3.8370e+000 -5.2495e+000 -1.3079e-001 46526 91606,91762,91710
 1.1000e+000 91834  4.4199e+000 -4.7344e+000 -1.4973e+000 46526 91606,91658,91632
 1.1000e+000 91811  3.2576e+000 -3.3462e+000  2.0915e-001 46526 91658,91710,91684
 1.1000e+000 91788  4.9352e+000 -1.7816e+000  2.2981e-001 46526 91710,91762,91736
 1.1000e+000 92211  2.1299e+000 -1.0334e+001 -1.7605e+000 45700 91986,92064,92038
 1.1000e+000 92188 -4.6852e+000 -1.7048e+001  1.0364e+000 45700 91986,92116,92064
 1.1000e+000 92165  3.8743e+000 -8.1234e+000 -4.3726e+000 45700 91986,92038,92012
 1.1000e+000 92142 -3.8344e+000 -1.2499e+001  6.4721e-001 45700 92064,92116,92090
 1.1000e+000 92766  3.7653e+000 -7.3802e+000  9.4662e-001 45452 92446,92602,92576
 1.1000e+000 92743 -1.3686e+000 -9.4633e+000 -1.8816e+000 45452 92420,92602,92446
 1.1000e+000 92720 -2.8414e+000 -9.5194e+000  1.1509e+000 45452 92789,92524,92498
 1.1000e+000 92697 -3.5992e+000 -9.9076e+000  8.6787e-001 45452 92789,92498,92446
 1.1000e+000 92674 -3.0228e+000 -1.1365e+001  2.6400e-001 45452 92524,92576,92550
 1.1000e+000 92651 -4.8521e+000 -9.2124e+000  3.9259e+000 45452 92446,92498,92472
 1.1000e+000 92628  1.5448e+001 -7.0542e+000 -2.5137e+000 45452 92394,92602,92420
 1.1000e+000 92815 -2.3373e+000 -1.0075e+001  9.7578e-001 45452 92576,92524,92789
 1.1000e+000 92838 -2.8088e+000 -1.0173e+001  8.2821e-001 45452 92576,92789,92446
 1.1000e+000 92939  2.7865e+000 -6.5807e+000 -3.0521e+000 44998 92861,92913,92887
 1.1000e+000 93319  5.2716e-001 -1.1686e+001  2.0832e+000 44601 93123,93201,93149
 1.1000e+000 93296 -5.9729e-001 -1.1302e+001  4.0757e-001 44601 93045,93201,93123
 1.1000e+000 93273  1.8454e+000 -6.5225e+000 -7.0883e-001 44601 93045,93123,93071
 1.1000e+000 93250  2.8465e+000 -7.2855e+000 -2.3800e+000 44601 93071,93123,93097
 1.1000e+000 93227  2.5781e+000 -5.4454e+000  1.4949e+000 44601 93149,93201,93175
 1.1000e+000 93697  2.7750e+000 -7.5406e+000 -7.9426e-002 44026 93720,93553,93527
 1.1000e+000 93674  3.0081e+000 -6.6819e+000  1.8260e-001 44026 93720,93527,93449
 1.1000e+000 93651  2.3570e+000 -8.4552e+000  5.2350e-001 44026 93449,93527,93501
 1.1000e+000 93628  2.4471e+000 -4.7303e+000 -1.8094e+000 44026 93423,93579,93449
 1.1000e+000 93605  5.4166e+000 -8.0422e+000  5.4962e-001 44026 93449,93501,93475
 1.1000e+000 93746  2.1202e+000 -6.5341e+000 -8.1263e-002 44026 93579,93553,93720
 1.1000e+000 93769  2.5136e+000 -5.5275e+000  2.5154e-001 44026 93579,93720,93449
 1.1000e+000 94066  2.3414e+000 -5.6896e+000 -3.7446e-001 43579 94089,93818,93792
 1.1000e+000 94043  2.5564e+000 -5.7526e+000 -3.6459e-001 43579 94161,94089,93792
 1.1000e+000 94020  2.6444e+000 -5.7813e+000 -1.8440e-002 43579 94161,93792,93948
 1.1000e+000 93997  2.9547e+000 -4.9773e+000 -2.8600e-001 43579 94233,93870,93818
 1.1000e+000 93974  4.0889e+000 -5.7344e+000  6.1931e-001 43579 93818,93870,93844
 1.1000e+000 94115  2.7488e+000 -5.0278e+000 -1.0161e-001 43579 94233,93818,94089
 1.1000e+000 94138  1.2946e+000 -5.6097e+000 -5.7109e-001 43579 93896,94089,93922
 1.1000e+000 94187  2.7781e+000 -5.2045e+000 -4.0350e-001 43579 93922,94089,94161
 1.1000e+000 94210  2.8543e+000 -5.1984e+000 -2.2389e-002 43579 93922,94161,93948
 1.1000e+000 94259  3.8244e+000 -4.5757e+000 -1.0591e+000 43579 93896,93870,94233
 1.1000e+000 94282  2.8502e+000 -5.0030e+000 -8.6181e-001 43579 93896,94233,94089
 1.1000e+000 94481  2.4877e+000 -6.0502e+000 -6.0202e-002 43239 94305,94383,94357
 1.1000e+000 94458  3.2111e+000 -4.8256e+000  1.6219e+000 43239 94305,94409,94383
 1.1000e+000 94435  2.7090e+000 -6.1762e+000 -1.2289e-001 43239 94305,94357,94331
 1.1000e+000 94633  5.0433e-001 -8.8982e+000  2.5022e+000 42827 94656,94532,94506
 1.1000e+000 94610 -3.7627e+000 -1.1151e+001  3.6038e+000 42827 94728,94656,94506
 1.1000e+000 94682 -4.1943e-001 -1.1737e+001  1.8391e+000 42827 94558,94532,94656
 1.1000e+000 94705  9.5933e-001 -1.0700e+001  8.7227e-001 42827 94988,94860,94656
 1.1000e+000 94754 -4.6795e-001 -8.8559e+000  5.7393e-001 42827 94988,94656,94728
 1.1000e+000 94886  5.8307e+000 -9.1453e+000  2.9213e-001 42827 94558,94656,94860
 1.1000e+000 95014  2.1855e+000 -9.1097e+000  1.6922e-001 42827 94584,94860,94988
 1.1000e+000 95037  7.4710e-001 -7.7135e+000 -2.2562e-001 42827 94584,94988,94728
 1.1000e+000 95236 -6.0017e+000 -2.2487e+001  7.4282e-002 42537 95259,95112,95060
 1.1000e+000 95213 -6.0298e+000 -2.2615e+001  1.2906e-001 42537 95259,95060,95164
 1.1000e+000 95190 -6.7547e+000 -2.5462e+001 -5.6807e-001 42537 95060,95112,95086
 1.1000e+000 95285 -6.0066e+000 -2.2379e+001  5.2862e-002 42537 95138,95112,95259
 1.1000e+000 95308 -5.9938e+000 -2.2451e+001  1.0521e-001 42537 95138,95259,95164
 1.1000e+000 95816 -8.3171e+000 -1.8997e+001  1.7943e-001 41969 95493,95597,95519
 1.1000e+000 95793 -1.0512e+001 -1.7745e+001  2.3075e+000 41969 95493,95649,95597
 1.1000e+000 95770 -9.1027e+000 -1.5610e+001  4.9443e-001 41969 95493,95675,95649
 1.1000e+000 95747 -7.3164e+000 -2.3188e+001  2.3777e+000 41969 95597,95649,95623
 1.1000e+000 95724 -1.3484e+001 -1.9503e+001  2.6839e-001 41969 95519,95597,95571
 1.1000e+000 95701 -1.4137e+001 -2.1505e+001 -1.1983e+000 41969 95519,95571,95545
 1.1000e+000 96371 -7.0492e-001 -9.0927e+000  1.7959e-001 41579 96025,96207,96181
 1.1000e+000 96348  3.1901e+000 -7.2295e+000 -1.3951e+000 41579 95999,96207,96025
 1.1000e+000 96325  6.2213e+000 -1.0711e+001 -9.9369e-001 41579 96129,96181,96155
 1.1000e+000 96302  2.8867e+000 -5.9216e+000 -1.1573e+000 41579 96025,96181,96129
 1.1000e+000 96279 -1.5723e+000 -1.2129e+001  2.5130e+000 41579 96025,96129,96051
 1.1000e+000 96256 -6.9246e-001 -1.0541e+001  2.4141e+000 41579 96051,96103,96077
 1.1000e+000 96233  2.3404e+000 -8.4487e+000  9.2611e-001 41579 96051,96129,96103
 1.1000e+000 96877  1.2660e+000 -7.1045e+000  1.9373e-001 41182 96972,96900,96632
 1.1000e+000 96854  1.6863e+000 -6.5536e+000  4.2376e-002 41182 96900,96554,96736
 1.1000e+000 96831  8.8013e-001 -6.7928e+000 -9.2318e-001 41182 96972,96632,96580
 1.1000e+000 96808  2.8144e+000 -6.8189e+000  5.9896e-001 41182 96632,96684,96658
 1.1000e+000 96785 -4.0865e-001 -9.0830e+000 -2.7712e-001 41182 96684,96736,96710
 1.1000e+000 96762 -3.2568e+000 -1.1265e+001  1.7024e+000 41182 96580,96632,96606
 1.1000e+000 96926  1.5367e+000 -7.5559e+000  2.6978e-001 41182 96684,96632,96900
 1.1000e+000 96949  5.2670e-001 -6.8597e+000 -1.8646e-001 41182 96684,96900,96736
 1.1000e+000 96998  3.0676e+000 -6.4936e+000 -5.8527e-001 41182 96554,96900,96972
 1.1000e+000 97021  3.2284e+000 -5.4768e+000 -1.8234e+000 41182 96554,96972,96580
 1.1000e+000 97576 -9.4579e+000 -2.4476e+001 -2.4031e+000 40678 97230,97412,97282
 1.1000e+000 97553 -5.5177e-001 -2.0404e+001  5.0976e-001 40678 97204,97412,97230
 1.1000e+000 97530 -4.7568e-001 -1.9787e+001 -1.3320e+000 40678 97282,97360,97308
 1.1000e+000 97507 -1.8543e+000 -2.0175e+001 -2.2156e-001 40678 97282,97412,97360
 1.1000e+000 97484  9.2639e+000 -2.0620e+001  3.8142e+000 40678 97308,97360,97334
 1.1000e+000 97461 -4.8616e+000 -2.3674e+001  1.0956e+000 40678 97360,97412,97386
 1.1000e+000 97438 -4.1750e+000 -1.7583e+001  2.4995e+000 40678 97230,97282,97256
 1.1000e+000 97976  2.2791e-001 -5.7497e+000  1.3522e-001 40244 97702,97832,97754
 1.1000e+000 97953  2.0392e+000 -6.0506e+000 -1.6015e-001 40244 97702,97858,97832
 1.1000e+000 97930 -1.1067e+000 -9.3756e+000 -1.5063e+000 40244 97702,97754,97728
 1.1000e+000 97907  1.5469e+000 -7.6038e+000 -3.5720e-002 40244 97780,97832,97806
 1.1000e+000 97884  3.7016e+000 -3.8407e+000  9.7843e-001 40244 97754,97832,97780
 1.1000e+000 98482 -1.0270e+001 -2.2658e+001 -5.2477e-001 39690 98505,98185,98159
 1.1000e+000 98459 -8.5410e+000 -2.1023e+001  2.5620e-001 39690 98505,98159,98289
 1.1000e+000 98436 -1.1893e+001 -2.3368e+001  4.7447e+000 39690 98159,98315,98289
 1.1000e+000 98413 -9.1406e+000 -1.6527e+001  5.2173e-001 39690 98211,98289,98263
 1.1000e+000 98390 -8.6379e+000 -1.3594e+001  2.1088e-001 39690 98211,98263,98237
 1.1000e+000 98367  1.5799e+000 -1.9921e+001  3.6567e+000 39690 98159,98341,98315
 1.1000e+000 98531 -1.4570e+001 -2.1924e+001 -2.7509e+000 39690 98211,98185,98505
 1.1000e+000 98554 -1.0739e+001 -1.7421e+001 -1.0905e+000 39690 98211,98505,98289
 1.1000e+000 99109 -7.3818e-001 -8.9585e+000 -4.8033e-001 39072 99132,98867,98789
 1.1000e+000 99086  8.0414e-001 -8.7480e+000 -6.3863e-001 39072 99132,98789,98763
 1.1000e+000 99063 -2.3185e+000 -1.1940e+001  1.2603e+000 39072 98867,98945,98919
 1.1000e+000 99040 -2.1337e+000 -1.0762e+001  5.1809e-001 39072 98789,98867,98841
 1.1000e+000 99017 -2.7446e+000 -1.3523e+001  1.1408e+000 39072 98867,98919,98893
 1.1000e+000 98994 -3.8378e+000 -1.2101e+001  1.7400e+000 39072 98789,98841,98815
 1.1000e+000 98971 -5.9917e-001 -9.6251e+000 -1.4606e+000 39072 98737,98945,98763
 1.1000e+000 99158 -1.2885e+000 -8.7240e+000 -2.0210e-001 39072 98945,98867,99132
 1.1000e+000 99181 -6.3246e-001 -9.2834e+000 -1.9256e-001 39072 98945,99132,98763
 1.1000e+000 99510 -2.5761e-001 -1.1348e+001  9.5450e-001 38668 99311,99389,99363
 1.1000e+000 99487 -2.0526e+000 -1.2264e+001  6.1781e-001 38668 99285,99389,99311
 1.1000e+000 99464 -3.7948e+000 -1.1598e+001  1.2721e+000 38668 99285,99415,99389
 1.1000e+000 99441 -6.0565e-001 -1.1775e+001  1.1559e+000 38668 99311,99363,99337
 1.1000e+000 99758 -1.2522e-002 -1.3027e+001  1.1120e+000 38164 99781,99611,99585
 1.1000e+000 99735  1.4119e+000 -1.4796e+001  9.3709e-001 38164 99781,99585,99533
 1.1000e+000 99712 -1.3411e+000 -1.3861e+001  9.3549e-001 38164 99611,99663,99637
 1.1000e+000 99689  2.6079e+000 -1.4317e+001 -8.3330e-001 38164 99533,99585,99559
 1.1000e+000 99807 -1.0533e+000 -1.4259e+001  1.5727e+000 38164 99663,99611,99781
 1.1000e+000 99830  5.0450e-001 -1.5595e+001  1.2742e+000 38164 99663,99781,99533
 1.1000e+000 100232 -4.4959e-001 -1.7333e+001  1.6964e+000 37702 99984,100114,100088
 1.1000e+000 100209 -3.5662e+000 -2.0647e+001 -2.3442e-001 37702 99958,100114,99984
 1.1000e+000 100186 -9.4583e+000 -2.1592e+001  1.0379e-001 37702 100010,100088,100036
 1.1000e+000 100163 -6.1037e+000 -1.9789e+001  1.3751e+000 37702 99984,100088,100010
 1.1000e+000 100140 -7.4244e+000 -1.8240e+001 -1.2054e+000 37702 100036,100088,100062
 1.1000e+000 100640 -9.9202e+000 -1.4558e+001  5.4506e-001 37262 100493,100545,100519
 1.1000e+000 100617 -8.9009e+000 -1.5909e+001 -1.2074e-001 37262 100441,100545,100493
 1.1000e+000 100594 -5.1808e+000 -1.3435e+001 -1.7324e+000 37262 100415,100545,100441
 1.1000e+000 100571 -1.1725e+001 -2.1596e+001 -1.3218e+000 37262 100441,100493,100467
 1.1000e+000 101146 -3.2218e+000 -8.7558e+000 -6.6165e-001 36872 100823,100979,100849
 1.1000e+000 101123 -3.3349e+000 -9.8295e+000  1.3789e+000 36872 100823,101005,100979
 1.1000e+000 101100 -1.8359e+000 -1.0988e+001  1.3343e+000 36872 101169,100901,100849
 1.1000e+000 101077 -1.5691e+000 -1.0576e+001  7.1918e-001 36872 101169,100849,100979
 1.1000e+000 101054 -8.0043e-001 -1.1269e+001  5.4404e-001 36872 100927,100979,100953
 1.1000e+000 101031 -2.1025e+000 -1.2917e+001  1.0921e+000 36872 100849,100901,100875
 1.1000e+000 101195 -1.0923e+000 -1.0983e+001  1.0166e+000 36872 100927,100901,101169
 1.1000e+000 101218 -8.6875e-001 -1.0805e+001  4.6455e-001 36872 100927,101169,100979
 1.1000e+000 101773 -6.0174e+000 -1.3897e+001  2.8170e+000 36418 101479,101609,101583
 1.1000e+000 101750 -5.9697e+000 -1.6773e+001  3.8088e+000 36418 101453,101609,101479
 1.1000e+000 101727 -4.4759e+000 -1.4735e+001  2.7418e-001 36418 101796,101531,101479
 1.1000e+000 101704 -7.0426e+000 -1.6434e+001  1.4544e+000 36418 101796,101479,101583
 1.1000e+000 101681 -1.3494e+000 -1.7632e+001 -1.5656e+000 36418 101479,101531,101505
 1.1000e+000 101658  1.0541e+001 -8.6825e+000  6.3923e+000 36418 101401,101609,101453
 1.1000e+000 101635  9.3755e+000 -2.5706e+001  5.5340e-001 36418 101401,101453,101427
 1.1000e+000 101822 -5.0872e+000 -1.3448e+001 -2.2095e+000 36418 101557,101531,101796
 1.1000e+000 101845 -8.1295e+000 -1.4170e+001 -1.1626e+000 36418 101557,101796,101583
 1.1000e+000 102174 -1.4636e-001 -1.4613e+001 -2.0191e+000 35914 101949,102053,101975
 1.1000e+000 102151 -1.0125e+001 -1.9831e+001  8.1029e-001 35914 101949,102079,102053
 1.1000e+000 102128 -8.4720e+000 -1.8564e+001  6.9677e-001 35914 101975,102053,102027
 1.1000e+000 102105 -5.4832e+000 -1.2492e+001 -4.0588e-001 35914 101975,102027,102001
 1.1000e+000 102631  9.7537e-001 -9.3538e+000  3.0176e-002 35574 102383,102513,102487
 1.1000e+000 102608  3.6592e+000 -1.0342e+001  7.1933e-002 35574 102357,102513,102383
 1.1000e+000 102585 -1.2285e+000 -1.0862e+001  9.2604e-001 35574 102409,102487,102435
 1.1000e+000 102562 -5.3323e-001 -1.0485e+001  1.0811e+000 35574 102383,102487,102409
 1.1000e+000 102539 -2.6278e+000 -1.3719e+001  4.8533e-001 35574 102435,102487,102461
 1.1000e+000 103009  6.3609e-001 -7.0321e+000 -7.4397e-001 35170 102761,102865,102787
 1.1000e+000 102986  4.1421e+000 -5.2920e+000  7.8537e-001 35170 102761,102891,102865
 1.1000e+000 102963  4.0648e-001 -7.3150e+000 -8.6532e-001 35170 102787,102865,102813
 1.1000e+000 102940  2.5426e+000 -8.0122e+000 -2.1568e-001 35170 102735,102891,102761
 1.1000e+000 102917 -8.0633e-001 -1.0336e+001 -1.4017e+000 35170 102813,102865,102839
 1.1000e+000 103257  8.1629e-001 -1.1735e+001 -1.7442e+000 34659 103280,103058,103032
 1.1000e+000 103234 -3.8417e-001 -1.3246e+001 -8.2942e-001 34659 103280,103032,103162
 1.1000e+000 103211 -2.3561e+000 -9.6072e+000 -3.7944e-001 34659 103084,103162,103110
 1.1000e+000 103188 -3.7545e+000 -1.3344e+001 -5.3919e-001 34659 103110,103162,103136
 1.1000e+000 103306 -9.6599e-001 -9.8725e+000 -1.0462e+000 34659 103084,103058,103280
 1.1000e+000 103329 -1.9539e+000 -1.1631e+001 -3.9118e-002 34659 103084,103280,103162
 1.1000e+000 103837  3.7394e+000 -9.2491e+000  1.4225e+000 34247 103860,103566,103540
 1.1000e+000 103814 -1.0441e-001 -1.0344e+001  5.0641e-001 34247 103932,103860,103540
 1.1000e+000 103791 -6.1093e-001 -1.1456e+001 -3.7315e-001 34247 103932,103540,103670
 1.1000e+000 103768  2.0146e+000 -1.0778e+001 -1.1976e-001 34247 103566,103618,103592
 1.1000e+000 103745 -9.2994e-001 -9.0946e+000 -3.0384e-003 34247 103540,103696,103670
 1.1000e+000 103722 -2.3880e+000 -1.2188e+001  5.3122e-001 34247 103514,103696,103540
 1.1000e+000 103886  2.7752e-001 -1.1289e+001  8.1068e-002 34247 103618,103566,103860
 1.1000e+000 103909  1.3127e+000 -1.0441e+001 -3.0864e-001 34247 103618,103860,103644
 1.1000e+000 103958 -3.2031e-001 -1.2734e+001 -1.1067e+000 34247 103644,103860,103932
 1.1000e+000 103981 -1.0489e+000 -1.3886e+001 -2.0456e+000 34247 103644,103932,103670
 1.1000e+000 104300  1.3730e+000 -9.0041e+000 -3.4938e-001 33843 104052,104182,104156
 1.1000e+000 104277  2.3040e+000 -9.4886e+000 -5.5571e-001 33843 104026,104182,104052
 1.1000e+000 104254  1.5751e+000 -8.1821e+000  7.2119e-001 33843 104078,104156,104130
 1.1000e+000 104231 -6.7167e-001 -9.6364e+000 -1.1350e-001 33843 104052,104156,104078
 1.1000e+000 104208  5.0534e+000 -9.9054e+000  2.3472e+000 33843 104078,104130,104104
 1.1000e+000 104499  5.8319e-001 -1.0727e+001 -7.5576e-001 33282 104594,104522,104375
 1.1000e+000 104476  1.1196e+000 -9.7213e+000  4.7635e-002 33282 104522,104323,104427
 1.1000e+000 104453  1.4095e+000 -1.1490e+001 -6.2375e-001 33282 104594,104375,104349
 1.1000e+000 104548  1.0085e+000 -8.9367e+000 -6.7785e-001 33282 104401,104375,104522
 1.1000e+000 104571  1.2528e+000 -9.1889e+000  2.3569e-001 33282 104401,104522,104427
 1.1000e+000 104620  1.4020e+000 -9.2056e+000 -3.1009e-001 33282 104323,104522,104594
 1.1000e+000 104643  1.8640e+000 -1.0364e+001 -3.3140e-001 33282 104323,104594,104349
 1.1000e+000 104942 -1.9300e+000 -1.2466e+001  9.3399e-001 32728 104694,104772,104720
 1.1000e+000 104919 -2.3101e+000 -1.2511e+001  7.8420e-001 32728 104694,104824,104772
 1.1000e+000 104896 -2.6562e+000 -1.3249e+001  6.2340e-001 32728 104720,104772,104746
 1.1000e+000 104873 -2.2086e+000 -1.3284e+001  9.0031e-001 32728 104772,104824,104798
 1.1000e+000 104850 -1.5222e+000 -1.3866e+001 -1.7472e-001 32728 104668,104824,104694
 1.1000e+000 105373 -1.1383e+001 -2.1678e+001 -1.3496e-001 32274 105396,105102,105076
 1.1000e+000 105350 -1.2065e+001 -2.1973e+001  3.8597e-002 32274 105396,105076,105206
 1.1000e+000 105327 -1.3594e+001 -2.4276e+001  2.6523e+000 32274 105154,105206,105180
 1.1000e+000 105304 -1.0226e+001 -2.1176e+001  1.4934e-001 32274 105076,105232,105206
 1.1000e+000 105281 -1.5097e+001 -2.2628e+001 -1.2393e+000 32274 105102,105154,105128
 1.1000e+000 105258 -1.5920e+001 -1.9730e+001 -1.1659e+000 32274 105050,105232,105076
 1.1000e+000 105422 -1.2073e+001 -2.1296e+001 -2.3698e-001 32274 105154,105102,105396
 1.1000e+000 105445 -1.2634e+001 -2.1508e+001 -6.9015e-002 32274 105154,105396,105206
 1.1000e+000 105644  6.0925e-001 -9.0062e+000 -5.1292e-001 31620 105468,105546,105520
 1.1000e+000 105621  3.7457e-002 -1.1425e+001 -3.0583e-001 31620 105468,105572,105546
 1.1000e+000 105598 -7.0928e-001 -1.1732e+001 -9.5560e-001 31620 105468,105520,105494
 1.1000e+000 105794 -7.5351e+000 -2.1910e+001 -1.1161e-002 31158 105889,105817,105693
 1.1000e+000 105771 -6.7432e+000 -2.2101e+001 -4.2972e-002 31158 105817,105667,105745
 1.1000e+000 105843 -7.0059e+000 -2.1419e+001  2.8953e-001 31158 105719,105693,105817
 1.1000e+000 105866 -6.3108e+000 -2.1570e+001  1.4401e-001 31158 105719,105817,105745
 1.1000e+000 105915 -6.6558e+000 -2.1534e+001 -1.4960e-003 31158 105667,105817,105889
 1.1000e+000 106270 -7.7861e+000 -1.5317e+001 -5.4634e-001 30818 106293,106071,106045
 1.1000e+000 106247 -8.4424e+000 -1.6773e+001 -1.5467e+000 30818 106293,106045,106175
 1.1000e+000 106224 -6.0874e+000 -1.4264e+001 -2.6760e-001 30818 106123,106175,106149
 1.1000e+000 106201 -8.6683e+000 -1.2847e+001 -1.4913e+000 30818 106071,106123,106097
 1.1000e+000 106319 -7.4861e+000 -1.4726e+001 -1.0116e-001 30818 106123,106071,106293
 1.1000e+000 106342 -7.3522e+000 -1.5472e+001 -9.4268e-001 30818 106123,106293,106175
 1.1000e+000 106492 -1.4912e+000 -2.0292e+001  3.4865e+000 30414 106645,106391,106365
 1.1000e+000 106469 -3.9248e+000 -1.7243e+001  2.4127e+000 30414 106515,106365,106443
 1.1000e+000 106541 -4.5885e+000 -1.7514e+001  1.9764e+000 30414 106645,106365,106515
 1.1000e+000 106671 -4.3184e+000 -2.6112e+001  2.4871e+000 30414 106417,106391,106645
 1.1000e+000 106694 -6.6059e+000 -2.1646e+001  8.5900e-001 30414 106417,106645,106515
 1.1000e+000 106942  1.6002e+000 -1.4285e+001 -5.0771e-001 29910 106965,106795,106769
 1.1000e+000 106919  8.7675e-002 -1.1902e+001 -8.3017e-002 29910 106965,106769,106717
 1.1000e+000 106896  3.5173e+000 -8.7879e+000 -2.0918e+000 29910 106795,106847,106821
 1.1000e+000 106873  5.4205e-001 -1.1127e+001  2.8995e-001 29910 106717,106769,106743
 1.1000e+000 106991  1.8111e+000 -1.2422e+001 -6.9019e-001 29910 106847,106795,106965
 1.1000e+000 107014  1.0449e+000 -9.0465e+000 -5.1399e-001 29910 106847,106965,106717
 1.1000e+000 107213 -2.5608e+000 -1.4520e+001  9.5915e-001 29413 107236,107063,107037
 1.1000e+000 107190 -3.4432e+000 -1.6522e+001  1.7503e+000 29413 107236,107037,107141
 1.1000e+000 107167  3.4039e-002 -9.5241e+000  1.8140e+000 29413 107063,107115,107089
 1.1000e+000 107262 -2.9930e+000 -1.2833e+001  8.4840e-002 29413 107115,107063,107236
 1.1000e+000 107285 -3.6112e+000 -1.4417e+001  8.7192e-001 29413 107115,107236,107141
 1.1000e+000 107486 -1.9360e+000 -1.2286e+001  9.1130e-001 29009 107336,107388,107362
 1.1000e+000 107463 -2.3231e+000 -1.2419e+001  5.4885e-001 29009 107310,107388,107336
 1.1000e+000 107440 -1.8130e+000 -1.2797e+001  4.2683e-001 29009 107310,107414,107388
 1.1000e+000 107736 -1.5343e+000 -1.1921e+001  6.6818e-001 28491 107537,107615,107563
 1.1000e+000 107713 -1.0953e+000 -1.1720e+001  7.3420e-001 28491 107537,107641,107615
 1.1000e+000 107690 -1.7466e+000 -1.1855e+001  6.1096e-001 28491 107563,107615,107589
 1.1000e+000 107667 -1.2802e+000 -1.1973e+001  6.5135e-001 28491 107511,107641,107537
 1.1000e+000 108118 -4.8114e-004 -1.0557e+001  5.5794e-001 27980 108141,107922,107844
 1.1000e+000 108095  7.5440e-001 -1.1429e+001  4.5977e-001 27980 108141,107844,108000
 1.1000e+000 108072  5.8655e-001 -9.2761e+000  2.1581e-002 27980 107844,107922,107870
 1.1000e+000 108049  7.5411e-002 -1.0826e+001  1.5622e-001 27980 107870,107922,107896
 1.1000e+000 108026 -1.3056e+000 -9.4765e+000  1.9505e+000 27980 107922,107974,107948
 1.1000e+000 108167  5.9347e-001 -1.0732e+001  8.4104e-001 27980 107974,107922,108141
 1.1000e+000 108190  2.5626e+000 -1.0552e+001  1.0149e+000 27980 107974,108141,108000
 1.1000e+000 108745 -3.4242e+000 -8.8897e+000 -1.5709e+000 27376 108840,108768,108477
 1.1000e+000 108722 -3.4964e+000 -1.1062e+001 -1.8100e+000 27376 108768,108373,108581
 1.1000e+000 108699 -3.3960e+000 -8.5691e+000 -1.4534e+000 27376 108840,108477,108451
 1.1000e+000 108676 -8.5806e+000 -1.1140e+001 -5.7769e+000 27376 108373,108451,108399
 1.1000e+000 108653 -5.3023e+000 -1.2452e+001  3.0053e-001 27376 108503,108581,108529
 1.1000e+000 108630 -3.4415e+000 -1.3298e+001 -1.2920e-001 27376 108529,108581,108555
 1.1000e+000 108607 -1.0739e+001 -1.5920e+001 -5.3223e+000 27376 108399,108451,108425
 1.1000e+000 108794 -3.4446e+000 -8.8887e+000 -1.5985e+000 27376 108503,108477,108768
 1.1000e+000 108817 -2.4736e+000 -9.2369e+000 -1.4065e+000 27376 108503,108768,108581
 1.1000e+000 108866 -3.5676e+000 -9.1932e+000 -1.7726e+000 27376 108373,108768,108840
 1.1000e+000 108889 -3.5136e+000 -8.9786e+000 -1.6159e+000 27376 108373,108840,108451
 1.1000e+000 109186 -3.5202e+000 -1.4524e+001  1.4170e+000 26722 109209,108938,108912
 1.1000e+000 109163 -3.2140e+000 -1.3619e+001  8.0042e-001 26722 109281,109209,108912
 1.1000e+000 109140 -3.2912e+000 -1.3466e+001  8.4615e-001 26722 109281,108912,109042
 1.1000e+000 109117 -1.9350e+000 -1.7218e+001 -1.6854e-001 26722 108938,108990,108964
 1.1000e+000 109094 -3.9141e+000 -1.4499e+001  1.2817e+000 26722 108912,109068,109042
 1.1000e+000 109235 -2.0578e+000 -1.3784e+001  1.1645e+000 26722 108990,108938,109209
 1.1000e+000 109258 -3.0876e+000 -1.3861e+001  6.9391e-001 26722 108990,109209,109016
 1.1000e+000 109307 -3.3015e+000 -1.3812e+001  6.4968e-001 26722 109016,109209,109281
 1.1000e+000 109330 -3.3781e+000 -1.3624e+001  6.8173e-001 26722 109016,109281,109042
 1.1000e+000 109732  3.3171e+000 -8.9123e+000 -7.6944e-001 26310 109458,109588,109484
 1.1000e+000 109709  1.2403e+000 -1.3146e+001 -1.1508e-001 26310 109458,109614,109588
 1.1000e+000 109686 -1.1798e+000 -9.2420e+000  1.7713e+000 26310 109510,109562,109536
 1.1000e+000 109663 -6.2019e-001 -8.1006e+000  3.0304e-001 26310 109484,109562,109510
 1.1000e+000 109640  1.4453e+000 -9.8893e+000 -3.5543e-001 26310 109484,109588,109562
 1.1000e+000 110159 -6.6282e+000 -1.6239e+001  1.2777e+000 25642 110182,109940,109914
 1.1000e+000 110136 -5.5050e+000 -1.4524e+001  2.1321e+000 25642 110182,109914,109888
 1.1000e+000 110113 -9.2569e+000 -1.7173e+001  4.4597e-001 25642 109966,110018,109992
 1.1000e+000 110090 -6.7436e+000 -1.6121e+001  9.6769e-001 25642 110254,109966,109940
 1.1000e+000 110067 -4.3429e+000 -1.4111e+001  3.0807e+000 25642 109862,110018,109888
 1.1000e+000 110044 -9.9443e+000 -1.3219e+001  3.7800e+000 25642 109836,110018,109862
 1.1000e+000 110208 -6.6499e+000 -1.6071e+001  9.3993e-001 25642 110254,109940,110182
 1.1000e+000 110231 -6.8723e+000 -1.5880e+001  1.4592e+000 25642 110018,110182,109888
 1.1000e+000 110280 -6.5825e+000 -1.6236e+001  9.7218e-001 25642 110018,109966,110254
 1.1000e+000 110303 -6.5102e+000 -1.6209e+001  9.5610e-001 25642 110018,110254,110182
 1.1000e+000 110632 -3.5873e+000 -1.0899e+001  7.0781e-001 25188 110407,110485,110433
 1.1000e+000 110609 -2.8637e+000 -1.1359e+001  5.7998e-001 25188 110407,110537,110485
 1.1000e+000 110586 -4.6917e+000 -1.1464e+001 -5.9092e-001 25188 110433,110485,110459
 1.1000e+000 110563 -4.1251e+000 -1.4966e+001  1.0661e+000 25188 110485,110537,110511
 1.1000e+000 110831 -1.9911e+000 -1.2980e+001  8.9246e-001 24726 110854,110707,110655
 1.1000e+000 110808 -2.0232e+000 -1.3296e+001  1.1525e+000 24726 110854,110655,110759
 1.1000e+000 110785 -2.0110e+000 -1.2290e+001  1.0570e+000 24726 110655,110707,110681
 1.1000e+000 110880 -1.9767e+000 -1.2631e+001  7.9278e-001 24726 110733,110707,110854
 1.1000e+000 110903 -1.9378e+000 -1.2824e+001  1.0605e+000 24726 110733,110854,110759
 1.1000e+000 111234  1.8511e+000 -7.6506e+000 -4.1761e-001 24222 111257,111087,111035
 1.1000e+000 111211  3.3483e+000 -6.9804e+000  9.8953e-001 24222 111257,111035,111009
 1.1000e+000 111188  2.4202e+000 -7.2336e+000 -5.9956e-001 24222 111035,111087,111061
 1.1000e+000 111165  1.5708e+000 -5.2924e+000  7.7697e-001 24222 111087,111139,111113
 1.1000e+000 111283  8.9331e-001 -5.9284e+000  2.9743e-001 24222 111139,111087,111257
 1.1000e+000 111306  1.5523e+000 -4.7123e+000  1.2036e+000 24222 111139,111257,111009
 1.1000e+000 111625 -1.0718e+001 -1.5429e+001  5.4573e-001 23732 111648,111481,111455
 1.1000e+000 111602 -8.9583e+000 -1.6024e+001 -5.7032e-001 23732 111648,111455,111377
 1.1000e+000 111579 -5.8103e+000 -1.0815e+001  1.7591e+000 23732 111377,111429,111403
 1.1000e+000 111556 -7.0220e+000 -1.4700e+001 -1.2170e+000 23732 111377,111455,111429
 1.1000e+000 111533 -7.2985e+000 -1.7588e+001 -3.2413e-001 23732 111351,111507,111377
 1.1000e+000 111674 -7.7186e+000 -1.3531e+001  1.3650e+000 23732 111507,111481,111648
 1.1000e+000 111697 -8.2992e+000 -1.5544e+001 -2.7968e-001 23732 111507,111648,111377
 1.1000e+000 112156 -1.3580e+000 -1.2952e+001  2.9428e-001 23278 112179,111908,111882
 1.1000e+000 112133 -9.7374e-001 -1.2112e+001  3.8548e-001 23278 112179,111882,112012
 1.1000e+000 112110 -8.7900e-001 -1.4890e+001 -1.0078e-001 23278 111908,111960,111934
 1.1000e+000 112087  6.3964e-001 -1.1285e+001 -2.2720e-001 23278 111882,112038,112012
 1.1000e+000 112064 -8.7125e-001 -1.1493e+001 -1.8445e-001 23278 111960,112012,111986
 1.1000e+000 112205 -1.5548e+000 -1.2693e+001 -3.8392e-001 23278 111960,111908,112179
 1.1000e+000 112228 -1.2000e+000 -1.1862e+001 -3.3039e-001 23278 111960,112179,112012
 1.1000e+000 112685 -1.2533e+001 -2.1974e+001 -4.0632e-001 22938 112489,112567,112541
 1.1000e+000 112662 -8.7409e+000 -1.2761e+001 -5.0832e-001 22938 112437,112567,112489
 1.1000e+000 112639 -1.0758e+001 -2.0313e+001  2.8844e-001 22938 112489,112541,112515
 1.1000e+000 112616 -1.0878e+001 -1.1349e+001 -1.5028e-001 22938 112411,112567,112437
 1.1000e+000 112593 -1.1595e+001 -1.8582e+001  1.4949e+000 22938 112437,112489,112463
 1.1000e+000 113191  4.8174e-001 -1.1042e+001 -4.6049e-001 22534 113214,112998,112946
 1.1000e+000 113168 -2.8479e-001 -1.0405e+001 -1.3529e-001 22534 113286,113214,112946
 1.1000e+000 113145 -4.4126e-001 -1.0209e+001 -3.1398e-001 22534 113286,112946,112920
 1.1000e+000 113122 -1.3610e+000 -1.0661e+001 -5.9863e-001 22534 113358,113024,112998
 1.1000e+000 113099 -1.9496e+000 -1.1535e+001 -5.2761e-001 22534 112868,113050,112894
 1.1000e+000 113076  2.3482e+000 -1.3351e+001  4.5403e-003 22534 112946,112998,112972
 1.1000e+000 113240 -9.0754e-001 -1.1315e+001 -6.7068e-001 22534 113358,112998,113214
 1.1000e+000 113263 -3.9149e-001 -1.1192e+001 -7.6061e-002 22534 113050,113214,112894
 1.1000e+000 113312 -2.3151e-001 -1.1096e+001 -2.6693e-001 22534 112894,113214,113286
 1.1000e+000 113335 -1.7116e-001 -1.0646e+001 -4.6736e-001 22534 112894,113286,112920
 1.1000e+000 113384 -7.8274e-001 -1.0361e+001 -2.9450e-001 22534 113050,113024,113358
 1.1000e+000 113407 -4.0750e-002 -1.0787e+001 -3.3011e-001 22534 113050,113358,113214
 1.1000e+000 113785 -1.1173e+001 -2.3744e+001  3.1337e+000 21978 113808,113615,113511
 1.1000e+000 113762 -1.1614e+001 -2.5315e+001  4.7630e+000 21978 113808,113511,113667
 1.1000e+000 113739 -5.1948e+000 -1.9132e+001  7.8177e-001 21978 113511,113615,113537
 1.1000e+000 113716  8.6712e-001 -1.8512e+001 -1.5071e+000 21978 113537,113615,113589
 1.1000e+000 113693  8.0185e+000 -1.3346e+001 -4.1909e+000 21978 113537,113589,113563
 1.1000e+000 113834 -1.0351e+001 -2.2158e+001  2.0861e+000 21978 113641,113615,113808
 1.1000e+000 113857 -1.1244e+001 -2.2813e+001  3.9744e+000 21978 113641,113808,113667
 1.1000e+000 114284 -5.2265e+000 -1.4583e+001 -1.3050e-001 21517 114013,114117,114039
 1.1000e+000 114261 -3.2432e+000 -1.3545e+001  4.1204e-001 21517 113961,114117,114013
 1.1000e+000 114238 -5.6943e+000 -1.5840e+001 -5.5975e-001 21517 113961,114013,113987
 1.1000e+000 114215 -6.7139e+000 -1.5137e+001 -8.7024e-001 21517 114039,114117,114091
 1.1000e+000 114192 -1.4283e+000 -1.4568e+001 -6.6805e-001 21517 113961,114143,114117
 1.1000e+000 114169 -3.9587e-001 -1.3501e+001 -1.6269e+000 21517 114039,114091,114065
 1.1000e+000 114581 -5.7775e+000 -2.2182e+001 -6.2487e-001 21027 114359,114463,114437
 1.1000e+000 114558 -7.5637e+000 -2.1570e+001  1.6589e+000 21027 114333,114463,114359
 1.1000e+000 114535 -6.6831e+000 -2.3327e+001 -2.1801e-001 21027 114359,114437,114385
 1.1000e+000 114512 -9.3505e+000 -2.2713e+001  3.8291e-001 21027 114307,114463,114333
 1.1000e+000 114489 -3.2678e+000 -2.0256e+001 -1.6494e+000 21027 114385,114437,114411
 1.1000e+000 114912 -8.1495e+000 -1.6701e+001 -5.1805e-001 20623 114713,114791,114765
 1.1000e+000 114889 -2.9926e+000 -1.4540e+001 -2.6936e+000 20623 114687,114791,114713
 1.1000e+000 114866 -6.4329e+000 -2.1817e+001 -7.5340e-001 20623 114687,114817,114791
 1.1000e+000 114843 -9.6758e+000 -1.5747e+001  6.0911e-002 20623 114713,114765,114739
 1.1000e+000 115290 -3.0279e+000 -1.4152e+001  2.4133e-001 20375 115313,115146,115094
 1.1000e+000 115267 -3.4526e+000 -1.2999e+001  5.2041e-001 20375 115313,115094,115042
 1.1000e+000 115244 -4.0969e+000 -1.4814e+001  2.1609e-001 20375 115385,115016,115172
 1.1000e+000 115221 -9.9909e-003 -1.1524e+001  2.1291e-001 20375 115042,115094,115068
 1.1000e+000 115198 -3.3095e+000 -1.5264e+001  6.4955e-001 20375 115094,115146,115120
 1.1000e+000 115339 -3.1025e+000 -1.4158e+001  2.4653e-001 20375 115172,115146,115313
 1.1000e+000 115362 -3.0329e+000 -1.4375e+001  4.7256e-001 20375 115385,115172,115313
 1.1000e+000 115411 -5.3390e+000 -1.4600e+001 -4.3301e-001 20375 115042,115016,115385
 1.1000e+000 115434 -4.5269e+000 -1.4147e+001 -7.7597e-002 20375 115042,115385,115313
 1.1000e+000 115891 -3.5072e+000 -1.0116e+001  4.9001e-001 19971 115617,115747,115643
 1.1000e+000 115868 -2.3119e+000 -7.4982e+000  8.2388e-001 19971 115617,115773,115747
 1.1000e+000 115845 -1.5598e-001 -1.2297e+001 -4.0517e-001 19971 115643,115721,115695
 1.1000e+000 115822  2.0427e+000 -7.4871e+000 -9.2055e-001 19971 115643,115747,115721
 1.1000e+000 115799  5.6506e-001 -1.1151e+001  1.2706e-001 19971 115643,115695,115669
 1.1000e+000 115992 -8.1096e+000 -2.8392e+001 -9.2437e+000 19659 115914,115966,115940
 1.1000e+000 116142  5.3997e+000 -5.1453e+000  4.0731e-001 18997 116041,116093,116067
 1.1000e+000 116119  5.6648e+000 -5.2236e+000  1.4390e+000 18997 116015,116093,116041
 1.1000e+000 116343  8.4658e-001 -1.1855e+001 -4.9323e-001 18707 116193,116245,116219
 1.1000e+000 116320  1.6790e-001 -1.1662e+001  8.3912e-002 18707 116193,116271,116245
 1.1000e+000 116297 -3.0216e-001 -1.1429e+001 -1.2406e+000 18707 116167,116271,116193
 1.1000e+000 116747 -9.1650e-001 -1.1652e+001 -3.2922e-001 18301 116525,116629,116551
 1.1000e+000 116724 -1.2625e+000 -1.0146e+001 -1.7643e-001 18301 116473,116629,116525
 1.1000e+000 116701 -1.1344e+000 -1.0949e+001 -1.4702e+000 18301 116473,116525,116499
 1.1000e+000 116678 -4.8473e-001 -1.2339e+001 -2.5935e-001 18301 116551,116603,116577
 1.1000e+000 116655 -1.4480e+000 -1.2901e+001 -5.2289e-001 18301 116551,116629,116603
 1.1000e+000 117147 -1.3796e+001 -2.3919e+001  2.7610e-001 17747 116899,117029,116925
 1.1000e+000 117124 -1.5569e+001 -2.3804e+001  1.4584e-001 17747 116873,117029,116899
 1.1000e+000 117101 -1.1745e+001 -2.0328e+001  1.1257e+000 17747 116925,117029,116951
 1.1000e+000 117078 -1.2733e+001 -2.0160e+001  3.1183e+000 17747 116951,117029,117003
 1.1000e+000 117055 -1.4677e+001 -1.2937e+001  3.5362e+000 17747 116951,117003,116977
 1.1000e+000 117368  1.3140e+000 -1.2141e+001  4.6536e-001 17293 117244,117296,117270
 1.1000e+000 117345 -3.9028e-001 -1.3303e+001 -1.2511e-001 17293 117192,117296,117244
 1.1000e+000 117322 -1.3569e+000 -1.2357e+001 -1.8732e-001 17293 117192,117244,117218
 1.1000e+000 117699 -1.6392e+000 -1.2784e+001 -6.2081e-002 16896 117526,117604,117552
 1.1000e+000 117676 -4.1640e+000 -1.3581e+001  5.4503e-001 16896 117500,117604,117526
 1.1000e+000 117653 -4.9644e+000 -1.0743e+001 -1.8412e+000 16896 117552,117604,117578
 1.1000e+000 117630 -2.0273e+000 -1.6564e+001  2.0083e+000 16896 117474,117604,117500
 1.1000e+000 117849  7.6272e+000 -1.5157e+001 -2.4883e+000 16534 117722,117774,117748
 1.1000e+000 117826  2.6433e+000 -3.4168e+001 -2.6251e+000 16534 117722,117800,117774
 1.1000e+000 118070 -2.3980e+000 -1.2516e+001  8.5431e-001 16194 117946,117998,117972
 1.1000e+000 118047 -3.8431e+000 -1.5086e+001  2.5149e-001 16194 117894,117998,117946
 1.1000e+000 118024 -4.8338e+000 -1.4363e+001 -4.2124e-001 16194 117894,117946,117920
 1.1000e+000 118173 -7.0614e+000 -2.4278e+001  0.0000e+000 15968 118095,118147,118121
 1.1000e+000 118276 -5.3992e+000 -1.6016e+001  1.0249e-001 15433 118299,118198,118250
 1.1000e+000 118325 -5.6946e+000 -1.6705e+001  1.0921e-001 15433 118224,118198,118299
 1.1000e+000 118450 -1.4234e+001 -2.4068e+001  5.5620e+000 421 118372,118424,118398
 1.2000e+000 69891 -1.8176e+000 -3.8145e+001  2.9353e-001 68988 69447,69681,69629
 1.2000e+000 69868  1.6292e+001 -3.0910e+001  1.9684e+000 68988 69421,69681,69447
 1.2000e+000 69845  3.9883e+000 -2.1516e+001 -8.5787e-001 68988 69447,69629,69577
 1.2000e+000 69822 -6.3236e+000 -4.0758e+001 -5.0505e+000 68988 69447,69577,69473
 1.2000e+000 69799  9.7407e+000 -4.5513e+001  1.2000e+001 68988 69629,69681,69655
 1.2000e+000 69776 -7.3681e+000 -2.6191e+001 -1.7537e+000 68988 69577,69629,69603
 1.2000e+000 69753 -2.4521e+000 -4.1378e+001 -1.0643e+001 68988 69473,69577,69551
 1.2000e+000 69730  3.4880e+000 -7.5662e+001 -7.2465e+000 68988 69473,69551,69525
 1.2000e+000 69707 -7.5189e+000 -5.0790e+001 -3.3678e-001 68988 69473,69525,69499
 1.2000e+000 69992 -9.5234e+000 -3.9160e+001 -7.0449e+000 68676 69914,69966,69940
 1.2000e+000 70392  2.3570e-001 -1.8971e+001  1.5804e+000 68478 70118,70248,70144
 1.2000e+000 70369  1.4662e+001 -1.7871e+001  5.8690e+000 68478 70118,70274,70248
 1.2000e+000 70346  1.2556e+001 -1.2899e+001 -5.2073e-001 68478 70144,70222,70196
 1.2000e+000 70323  1.4726e+001 -6.3270e+000 -4.1817e+000 68478 70144,70248,70222
 1.2000e+000 70300  1.1881e+001 -1.5308e+001 -8.7840e-001 68478 70144,70196,70170
 1.2000e+000 70841  2.1688e+001 -7.0976e+000 -4.5604e+000 68280 70570,70622,70596
 1.2000e+000 70818  1.0463e+001 -1.0730e+001 -1.1547e+000 68280 70544,70622,70570
 1.2000e+000 70795  1.2669e+001 -3.8647e+000 -1.8534e+000 68280 70544,70674,70622
 1.2000e+000 70772  2.1007e+001 -7.7170e+000 -5.4753e+000 68280 70622,70674,70648
 1.2000e+000 70749  5.7657e+000 -1.1305e+001  1.0643e+000 68280 70518,70674,70544
 1.2000e+000 70726 -1.5396e+000 -1.8199e+001 -1.8695e+000 68280 70518,70700,70674
 1.2000e+000 70991  2.0375e+001 -3.3641e+001  8.6510e-002 67968 70864,70916,70890
 1.2000e+000 70968  2.6960e+001 -1.6623e+001  1.4534e+001 67968 70864,70942,70916
 1.2000e+000 71141 -4.4342e+001 -8.8388e+001 -4.2962e+000 67770 71040,71092,71066
 1.2000e+000 71118 -3.8976e+001 -1.0374e+002  3.2032e+000 67770 71014,71092,71040
 1.2000e+000 71651  3.5395e+000 -1.5684e+001 -1.5231e+000 67366 71746,71674,71458
 1.2000e+000 71628  7.3707e+000 -8.1992e+000 -3.7517e+000 67366 71674,71354,71510
 1.2000e+000 71605  4.2822e+000 -1.8627e+001 -1.1809e+000 67366 71746,71458,71432
 1.2000e+000 71582 -2.4648e-001 -2.2650e+001  2.4200e+000 67366 71354,71432,71380
 1.2000e+000 71559  3.1671e+000 -1.3603e+001 -1.8326e+000 67366 71380,71432,71406
 1.2000e+000 71536  4.0622e+000  5.8934e+000  1.0497e+000 67366 71328,71510,71354
 1.2000e+000 71700  2.2969e+000 -1.3656e+001  9.9809e-001 67366 71484,71458,71674
 1.2000e+000 71723  4.7113e+000 -1.3040e+001 -3.9723e-001 67366 71484,71674,71510
 1.2000e+000 71772  4.4460e+000 -1.2205e+001 -1.0119e+000 67366 71354,71674,71746
 1.2000e+000 71795  5.3974e+000 -1.4745e+001 -1.0464e+000 67366 71354,71746,71432
 1.2000e+000 71896 -5.0496e+000 -4.9191e+001  0.0000e+000 67146 71818,71870,71844
 1.2000e+000 71997 -6.4327e+001 -1.1744e+002  2.5756e+001 66948 71919,71971,71945
 1.2000e+000 72149  1.0740e+001 -2.2430e+001 -3.6101e+000 66700 72172,72074,72048
 1.2000e+000 72126 -1.8728e+000 -2.6203e+001 -1.0133e+000 66700 72172,72048,72022
 1.2000e+000 72198 -8.6245e+000 -3.0174e+001  4.1296e+000 66700 72244,72172,72100
 1.2000e+000 72221 -5.3013e+000 -2.5764e+001 -1.3982e+000 66700 72100,72172,72022
 1.2000e+000 72270 -6.7845e-001 -1.3071e+001 -3.2743e+000 66700 72074,72172,72244
 1.2000e+000 72623 -1.2670e+000 -2.6236e+001  1.5378e+000 66502 72424,72502,72450
 1.2000e+000 72600  1.5881e+000 -1.8840e+001  1.3975e+000 66502 72398,72502,72424
 1.2000e+000 72577  9.0039e-001 -2.3069e+001 -1.1218e-001 66502 72398,72528,72502
 1.2000e+000 72554  1.6481e+000 -2.1538e+001 -1.7133e-001 66502 72450,72502,72476
 1.2000e+000 72920  6.0476e+000 -1.5716e+001 -8.1025e-001 65941 72672,72776,72750
 1.2000e+000 72897  1.4379e+001 -1.5383e+001 -1.0245e+000 65941 72646,72776,72672
 1.2000e+000 72874  3.4535e+000 -1.7385e+001  1.5220e-001 65941 72672,72750,72724
 1.2000e+000 72851 -1.9537e+000 -1.3062e+001  4.7236e+000 65941 72672,72724,72698
 1.2000e+000 72828  2.2664e+001 -2.6587e+001  2.6057e+000 65941 72646,72802,72776
 1.2000e+000 73241  6.0381e+000 -2.0695e+001 -1.3489e+000 65743 73264,73071,73045
 1.2000e+000 73218  1.8913e+000 -2.4778e+001  1.8414e+000 65743 73480,73264,73045
 1.2000e+000 73195  6.5031e+000 -2.0867e+001 -6.1662e-001 65743 73336,72967,73097
 1.2000e+000 73172  2.5100e+000 -1.8360e+001 -2.7991e+000 65743 73408,72993,72967
 1.2000e+000 73149  5.3066e+000 -2.0355e+001 -3.8862e-001 65743 72967,73123,73097
 1.2000e+000 73290  7.4196e+000 -1.8733e+001 -7.4031e-001 65743 73097,73071,73264
 1.2000e+000 73313  7.4222e+000 -1.8418e+001 -7.2621e-001 65743 73336,73097,73264
 1.2000e+000 73362  4.8116e+000 -2.0510e+001 -2.1927e+000 65743 73408,72967,73336
 1.2000e+000 73385  8.2640e+000 -1.8193e+001 -1.4132e+000 65743 73019,73336,73264
 1.2000e+000 73434  6.3830e+000 -1.0338e+001 -1.1708e+000 65743 73019,72993,73408
 1.2000e+000 73457  8.3661e+000 -1.5517e+001 -6.3737e-001 65743 73019,73408,73336
 1.2000e+000 73506  1.0885e+001 -7.5196e+000 -1.4626e+000 65743 73019,73264,73480
 1.2000e+000 73989  1.0406e+001 -1.2157e+001  1.1405e+000 65453 73793,73845,73819
 1.2000e+000 73966  2.1924e+000 -1.3595e+001  2.0911e+000 65453 73741,73845,73793
 1.2000e+000 73943  1.1945e+001 -7.1381e+000 -8.6103e-001 65453 73715,73845,73741
 1.2000e+000 73920  2.9164e+000 -2.6558e+001  4.9110e+000 65453 73741,73793,73767
 1.2000e+000 73897  1.3715e+001 -6.4696e+000 -2.3823e+000 65453 73715,73871,73845
 1.2000e+000 74357  1.1578e+001 -2.9457e+001 -1.6501e-001 65141 74380,74138,74086
 1.2000e+000 74334  1.2187e+001 -2.6926e+001  3.1871e-002 65141 74380,74086,74060
 1.2000e+000 74311  9.0174e+000 -2.8561e+001 -3.6382e-001 65141 74138,74190,74164
 1.2000e+000 74288  1.1368e+001 -3.2101e+001 -2.7786e+000 65141 74060,74216,74190
 1.2000e+000 74265  1.0391e+001 -3.5253e+001  4.2860e-001 65141 74034,74216,74060
 1.2000e+000 74242  4.0766e+001 -1.9914e+001  3.9111e+000 65141 74086,74138,74112
 1.2000e+000 74406  1.1172e+001 -2.7538e+001 -1.3341e+000 65141 74190,74138,74380
 1.2000e+000 74429  1.1548e+001 -2.6493e+001 -1.0464e+000 65141 74190,74380,74060
 1.2000e+000 74937 -6.5556e+000 -4.4522e+001 -7.7538e+000 64737 74614,74666,74640
 1.2000e+000 74914 -1.3512e+001 -4.1473e+001 -6.6686e+000 64737 74614,74796,74666
 1.2000e+000 74891 -6.9317e+000 -2.2773e+001 -1.2476e+000 64737 74960,74718,74666
 1.2000e+000 74868 -5.2014e+000 -2.4501e+001 -3.0676e+000 64737 74960,74666,74770
 1.2000e+000 74845 -4.1243e+000 -2.1141e+001 -2.6137e+000 64737 74666,74796,74770
 1.2000e+000 74822 -7.0087e+000 -1.9445e+001 -3.2741e+000 64737 74666,74718,74692
 1.2000e+000 74986 -7.9911e+000 -2.4610e+001 -7.5985e-001 64737 74744,74718,74960
 1.2000e+000 75009 -6.4155e+000 -2.7140e+001 -2.5438e+000 64737 74744,74960,74770
 1.2000e+000 75306  9.6035e+000 -1.3649e+001  3.9965e+000 64133 75329,75110,75084
 1.2000e+000 75283  2.8978e+000 -2.0579e+001  5.1920e-001 64133 75401,75329,75084
 1.2000e+000 75260  1.2539e+000 -2.2524e+001 -2.6482e-001 64133 75401,75084,75058
 1.2000e+000 75237  6.6960e+000 -2.3834e+001  2.2370e+000 64133 75473,75136,75110
 1.2000e+000 75214  1.2948e+001 -2.4251e+001 -1.1321e-001 64133 75032,75188,75162
 1.2000e+000 75355  6.0683e+000 -2.2410e+001  1.7575e+000 64133 75473,75110,75329
 1.2000e+000 75378  8.4520e+000 -1.9354e+001 -6.4607e-001 64133 75162,75329,75032
 1.2000e+000 75427  9.0619e+000 -1.7860e+001 -8.4869e-001 64133 75032,75329,75401
 1.2000e+000 75450 -3.7996e+000 -2.7100e+001  4.4554e+000 64133 75545,75401,75058
 1.2000e+000 75499  6.4240e+000 -2.1962e+001  1.2285e-001 64133 75162,75136,75473
 1.2000e+000 75522  6.3275e+000 -1.9037e+001  2.1858e-001 64133 75162,75473,75329
 1.2000e+000 75571  6.7527e+000 -4.4626e+000 -5.4099e-001 64133 75032,75401,75545
 1.2000e+000 75851 -3.1731e+000 -2.3874e+001  5.1852e+000 63843 75874,75753,75727
 1.2000e+000 75828  1.6036e+000 -1.8364e+001  1.2800e+000 63843 75946,75874,75727
 1.2000e+000 75805 -2.0618e+000 -1.8116e+001  1.1179e+000 63843 76018,75946,75727
 1.2000e+000 75900  3.3065e+000 -2.1140e+001  1.4321e+000 63843 75779,75753,75874
 1.2000e+000 75923  1.8846e+000 -1.5208e+001 -2.9894e+000 63843 75779,75874,75675
 1.2000e+000 75972 -2.9570e+000 -2.0649e+001  1.0084e-001 63843 75675,75874,75946
 1.2000e+000 75995 -2.1420e+000 -1.9343e+001 -2.4640e-001 63843 75675,75946,75701
 1.2000e+000 76044 -4.0834e+000 -2.1217e+001 -1.2184e+000 63843 75701,75946,76018
 1.2000e+000 76454  2.1859e+001 -2.0193e+000 -9.9629e+000 63439 76477,76255,76229
 1.2000e+000 76431  1.3573e+001 -1.6337e+001 -4.9431e+000 63439 76477,76229,76359
 1.2000e+000 76408 -2.0283e+000 -7.7855e+000  7.8109e+000 63439 76307,76359,76333
 1.2000e+000 76385  7.2185e+000 -5.5084e+000  4.3715e+000 63439 76255,76307,76281
 1.2000e+000 76503  1.3868e+001 -1.3072e+001 -1.2593e+000 63439 76307,76255,76477
 1.2000e+000 76526  1.3811e+001 -1.8754e+001  2.2786e+000 63439 76307,76477,76359
 1.2000e+000 76926  3.3345e+000 -2.1174e+001 -2.1604e-001 63049 76704,76782,76756
 1.2000e+000 76903 -1.6286e+000 -2.3086e+001 -9.6878e-001 63049 76704,76808,76782
 1.2000e+000 76880  2.9175e+000 -2.4987e+001  6.4332e-001 63049 76704,76756,76730
 1.2000e+000 76857  9.7779e+000 -1.3629e+001  3.0961e+000 63049 76678,76808,76704
 1.2000e+000 76834  1.6977e+001  2.5142e+001 -1.1559e+001 63049 76652,76808,76678
 1.2000e+000 77076  1.0334e+001 -1.3976e+001  1.3552e-001 62737 76975,77027,77001
 1.2000e+000 77053  1.0520e+001 -1.5898e+001 -8.8833e-001 62737 76949,77027,76975
 1.2000e+000 77324  2.0419e+000 -1.9419e+001 -1.8947e+000 62277 77347,77177,77125
 1.2000e+000 77301  4.3130e+000 -1.8824e+001 -1.4417e+000 62277 77347,77125,77229
 1.2000e+000 77278  8.1264e+000 -2.3095e+001 -4.4111e+000 62277 77099,77229,77125
 1.2000e+000 77255  4.9829e+000 -3.0388e+001 -2.0898e+000 62277 77125,77177,77151
 1.2000e+000 77373  2.4482e+000 -2.0450e+001  4.0716e-001 62277 77203,77177,77347
 1.2000e+000 77396  6.8685e+000 -1.9034e+001  3.5869e-001 62277 77203,77347,77229
 1.2000e+000 77857  3.6938e+000 -1.1943e+001 -3.3793e+000 61758 77635,77739,77661
 1.2000e+000 77834  5.2901e+000 -1.9001e+001 -2.0633e+000 61758 77583,77739,77635
 1.2000e+000 77811  6.6677e+000 -3.1259e+001 -1.1044e+001 61758 77583,77635,77609
 1.2000e+000 77788  5.9813e+000 -1.7161e+001 -3.7625e-001 61758 77661,77713,77687
 1.2000e+000 77765  1.6160e+000 -1.5851e+001 -2.5662e+000 61758 77661,77739,77713
 1.2000e+000 78491  2.4097e+000 -1.6781e+001  2.7423e+000 61418 78171,78301,78249
 1.2000e+000 78468  1.3259e+001 -1.1560e+001  5.2142e+000 61418 78145,78301,78171
 1.2000e+000 78445  1.4136e+001 -9.1169e+000 -2.1312e+000 61418 78171,78249,78223
 1.2000e+000 78422  1.9313e+001 -9.2599e+000  1.2378e+001 61418 78145,78327,78301
 1.2000e+000 78399  4.7343e+000 -1.0384e+001  3.3676e+000 61418 78249,78301,78275
 1.2000e+000 78376  1.3390e+001 -2.0431e+001 -1.6003e-001 61418 78171,78223,78197
 1.2000e+000 78353  1.2824e+001 -2.7325e+001  7.2682e+000 61418 78119,78327,78145
 1.2000e+000 78690  2.0645e+000 -3.2928e+001 -1.7894e+000 61014 78713,78566,78540
 1.2000e+000 78667 -8.0283e-001 -3.4547e+001 -1.0919e+000 61014 78713,78540,78618
 1.2000e+000 78644 -1.2168e+001 -4.1459e+001 -5.7543e+000 61014 78514,78618,78540
 1.2000e+000 78739  7.4691e-001 -3.1063e+001 -2.6954e+000 61014 78592,78566,78713
 1.2000e+000 78762 -5.4718e+000 -3.3310e+001 -3.0152e+000 61014 78785,78713,78618
 1.2000e+000 78811  1.7906e+000 -3.0354e+001 -3.3633e+000 61014 78592,78713,78785
 1.2000e+000 79398  2.6762e+000 -2.6570e+001 -1.8447e+000 60624 79101,79179,79153
 1.2000e+000 79375 -9.5212e-001 -2.9412e+001 -6.0827e-001 60624 79101,79231,79179
 1.2000e+000 79352  8.6523e+000 -2.5810e+001 -7.3698e-001 60624 79075,79231,79101
 1.2000e+000 79329 -1.9043e+000 -3.4895e+001  4.2333e+000 60624 79075,79257,79231
 1.2000e+000 79306 -7.6354e-001 -2.4680e+001 -5.9676e+000 60624 79179,79231,79205
 1.2000e+000 79283  2.6017e+000 -2.6193e+001 -4.7533e+000 60624 79101,79153,79127
 1.2000e+000 79776 -5.3587e+000 -2.9514e+001  4.0239e+000 60070 79528,79658,79606
 1.2000e+000 79753 -4.2327e+000 -2.2271e+001  6.4896e-001 60070 79502,79658,79528
 1.2000e+000 79730 -8.2097e+000 -2.6186e+001  7.0151e+000 60070 79528,79606,79580
 1.2000e+000 79707  2.6594e+000 -2.4778e+001  1.6722e+000 60070 79606,79658,79632
 1.2000e+000 79684  1.4818e-001 -1.4839e+001 -4.0102e+000 60070 79528,79580,79554
 1.2000e+000 80105 -5.5220e+000 -2.4351e+001  5.4733e+000 59758 80128,79958,79906
 1.2000e+000 80082 -4.6937e+000 -2.2497e+001  4.5815e+000 59758 80128,79906,80010
 1.2000e+000 80059 -1.1218e+001 -3.5081e+001  8.0183e+000 59758 79906,79958,79932
 1.2000e+000 80036 -9.3627e+000 -1.8393e+001  6.5673e+000 59758 79880,80010,79906
 1.2000e+000 80154 -5.0409e+000 -2.5508e+001  6.0767e+000 59758 79984,79958,80128
 1.2000e+000 80177 -4.7648e+000 -2.4174e+001  5.2963e+000 59758 79984,80128,80010
 1.2000e+000 80376 -2.7450e+000 -3.6549e+001  6.1588e-002 59312 80226,80304,80252
 1.2000e+000 80353  1.1014e+000 -3.8409e+001  1.2449e+000 59312 80200,80304,80226
 1.2000e+000 80330 -9.0107e+000 -3.1273e+001  1.0686e+001 59312 80252,80304,80278
 1.2000e+000 80805  6.8032e+000 -6.6232e+000 -1.3947e+000 58908 80900,80828,80638
 1.2000e+000 80782  2.4709e+000 -9.8588e+000 -4.3270e+000 58908 80828,80560,80508
 1.2000e+000 80759  5.9936e+000 -6.1686e+000 -3.1048e-001 58908 80900,80638,80612
 1.2000e+000 80736  1.4308e+001 -7.8345e+000  2.5089e+000 58908 80482,80664,80508
 1.2000e+000 80713  9.9076e+000 -7.8830e+000  4.3768e-001 58908 80560,80612,80586
 1.2000e+000 80690  1.0396e+001 -2.4606e+001 -1.3364e+001 58908 80508,80560,80534
 1.2000e+000 80854  1.2846e+001 -7.9743e+000  2.0403e+000 58908 80664,80638,80828
 1.2000e+000 80877  8.4164e+000 -1.3570e+001 -6.9301e-001 58908 80664,80828,80508
 1.2000e+000 80926  8.2755e+000 -4.8349e+000 -2.1434e+000 58908 80560,80828,80900
 1.2000e+000 80949  6.8883e+000 -5.1895e+000 -8.9591e-001 58908 80560,80900,80612
 1.2000e+000 81246  8.3525e+000 -1.1855e+001  7.4065e-001 58482 81076,81128,81102
 1.2000e+000 81223  5.7005e+000 -1.6507e+001 -4.9583e-001 58482 80972,81128,81076
 1.2000e+000 81200  8.8661e+000 -1.0187e+001 -1.6071e+000 58482 80972,81076,81050
 1.2000e+000 81177  7.8255e+000 -2.2330e+001 -2.5288e+000 58482 80998,81050,81024
 1.2000e+000 81154  6.3467e+000 -1.5015e+001 -2.5310e+000 58482 80972,81050,80998
 1.2000e+000 81754 -1.5866e+000 -1.0754e+001 -2.0450e+000 57828 81457,81613,81483
 1.2000e+000 81731 -6.7045e+000 -2.1116e+001 -4.3815e+000 57828 81431,81613,81457
 1.2000e+000 81708 -2.7061e+000 -1.3320e+001 -8.9718e-001 57828 81483,81613,81509
 1.2000e+000 81685 -5.3978e+000 -1.9414e+001  3.7956e-001 57828 81509,81613,81587
 1.2000e+000 81662 -3.5020e+000 -2.6469e+001  4.1221e+000 57828 81509,81587,81535
 1.2000e+000 81639  1.6689e+001 -2.4924e+001 -1.9480e+000 57828 81535,81587,81561
 1.2000e+000 82002 -3.8153e+000 -3.4083e+001 -4.2377e-001 57374 82025,81855,81829
 1.2000e+000 81979 -1.1556e+000 -2.9712e+001  2.2963e+000 57374 82025,81829,81907
 1.2000e+000 81956 -6.2188e+000 -3.4054e+001 -3.2886e-001 57374 81803,81907,81829
 1.2000e+000 81933  1.1135e+000 -3.1377e+001  2.6746e-002 57374 81777,81907,81803
 1.2000e+000 82051 -1.1048e+001 -2.9622e+001  2.1081e+000 57374 81881,81855,82025
 1.2000e+000 82074 -1.2502e+000 -2.2155e+001  6.6736e+000 57374 81881,82025,81907
 1.2000e+000 82356  6.2430e+000 -6.3052e+000 -2.4010e+000 56913 82180,82232,82206
 1.2000e+000 82333  5.4417e+000 -9.6176e+000  1.5577e-001 56913 82180,82284,82232
 1.2000e+000 82310  1.4545e+001 -8.7296e+000  2.9084e+000 56913 82379,82232,82284
 1.2000e+000 82405  2.7545e+001  5.6156e-001  1.1326e+001 56913 82258,82232,82379
 1.2000e+000 82764  8.2959e-001 -4.9622e+000 -3.0703e+000 56523 82614,82666,82640
 1.2000e+000 82741  1.4024e+000 -6.2727e+000 -3.4450e+000 56523 82614,82692,82666
 1.2000e+000 82718  1.4133e+001 -4.1382e+000 -7.6758e+000 56523 82588,82692,82614
 1.2000e+000 83368  1.7636e+000 -3.4232e+001 -5.5039e-001 55969 82973,83155,83129
 1.2000e+000 83345  5.4927e+000 -3.2808e+001 -1.3578e+000 55969 82973,83181,83155
 1.2000e+000 83322 -8.9072e-001 -2.8373e+001 -1.3201e+000 55969 82973,83129,82999
 1.2000e+000 83299 -1.6181e+001 -3.5967e+001  4.7801e+000 55969 83391,83025,82999
 1.2000e+000 83276 -7.8831e+000 -3.2276e+001  1.4994e+000 55969 83391,82999,83129
 1.2000e+000 83253  4.9344e+000 -2.4275e+001  4.0324e+000 55969 83077,83129,83103
 1.2000e+000 83230 -2.8735e+000 -2.7009e+001 -1.0634e+000 55969 83025,83077,83051
 1.2000e+000 83207  2.0870e+001 -2.5726e+001  6.8410e-001 55969 82947,83181,82973
 1.2000e+000 83417 -7.5545e+000 -3.4268e+001  2.4742e+000 55969 83077,83025,83391
 1.2000e+000 83440 -4.1670e+000 -3.4305e+001 -4.8180e-001 55969 83077,83391,83129
 1.2000e+000 83946 -4.7670e+000 -2.3437e+001  4.6361e+000 55771 83969,83779,83727
 1.2000e+000 83923 -2.4127e+000 -1.9234e+001  1.8618e+000 55771 83969,83727,83623
 1.2000e+000 83900 -9.0947e+000 -8.8635e+000  1.9579e+000 55771 83623,83727,83649
 1.2000e+000 83877  5.2375e+000 -3.1043e+001  5.9695e+000 55771 83727,83779,83753
 1.2000e+000 83854 -9.9036e+000 -1.7383e+001  1.0578e+001 55771 83675,83727,83701
 1.2000e+000 83831 -1.8159e+001 -1.8731e+001  1.0317e+001 55771 83649,83727,83675
 1.2000e+000 83995 -3.0550e+000 -2.3814e+001 -8.3933e-001 55771 83805,83779,83969
 1.2000e+000 84018  2.4433e+000 -1.4870e+001 -4.1862e+000 55771 83805,83969,83623
 1.2000e+000 84168  5.2288e+000 -1.0374e+001  8.9880e-002 55367 84191,84067,84041
 1.2000e+000 84145  5.9658e+000 -1.1521e+001 -1.7381e-002 55367 84191,84041,84119
 1.2000e+000 84217  5.6827e+000 -1.0341e+001  2.2111e-001 55367 84093,84067,84191
 1.2000e+000 84240  7.5632e+000 -1.0475e+001  4.7361e-001 55367 84093,84191,84119
 1.2000e+000 84571 -1.6677e+000 -1.9706e+001  2.2282e-001 54913 84398,84450,84424
 1.2000e+000 84548 -2.7077e+000 -1.9931e+001  2.1432e-001 54913 84372,84450,84398
 1.2000e+000 84525 -4.4204e+000 -2.1825e+001  1.9198e+000 54913 84346,84450,84372
 1.2000e+000 84502 -6.8783e-001 -1.3158e+001 -8.1442e-001 54913 84346,84476,84450
 1.2000e+000 85126 -4.2261e+000 -2.9722e+001 -4.2551e+000 54402 84858,84936,84910
 1.2000e+000 85103  9.4963e-002 -1.7250e+001 -2.0373e-001 54402 84806,84936,84858
 1.2000e+000 85080 -8.2232e+000 -1.4616e+001  2.5179e-001 54402 84780,84936,84806
 1.2000e+000 85057  1.1410e+001 -2.5267e+001  6.0756e+000 54402 84806,84858,84832
 1.2000e+000 85034 -5.3619e+000 -1.3219e+001  1.0985e+000 54402 84780,84962,84936
 1.2000e+000 85011 -4.7864e+000 -1.2693e+001 -2.4824e+000 54402 84858,84910,84884
 1.2000e+000 84988 -4.6538e+000 -7.5223e+000 -5.8756e-002 54402 84754,84962,84780
 1.2000e+000 85396  2.8846e+000 -5.7522e+000 -1.4598e+000 53998 85197,85249,85223
 1.2000e+000 85373  4.6923e+000 -8.7178e+000 -8.2914e-001 53998 85197,85275,85249
 1.2000e+000 85350  4.9730e+000 -9.3866e+000 -8.7321e-001 53998 85171,85275,85197
 1.2000e+000 85327  8.4129e+000 -8.3132e+000 -1.1844e+000 53998 85171,85301,85275
 1.2000e+000 85749  9.9853e-002 -3.1867e+001 -2.1636e+000 53636 85524,85628,85550
 1.2000e+000 85726 -6.3377e+000 -3.7820e+001  3.3574e-001 53636 85524,85654,85628
 1.2000e+000 85703  1.5896e-001 -3.4895e+001  1.2589e+000 53636 85550,85602,85576
 1.2000e+000 85680  9.9424e+000 -2.7468e+001 -3.1238e+000 53636 85550,85628,85602
 1.2000e+000 86127  1.8834e+000 -2.8464e+001  3.9904e+000 52982 86150,85957,85879
 1.2000e+000 86104 -4.9001e+000 -3.0845e+001  3.0148e+000 52982 86150,85879,85853
 1.2000e+000 86081  6.3823e+000 -2.8142e+001  8.0531e+000 52982 85957,86009,85983
 1.2000e+000 86058 -6.9428e+000 -3.1342e+001  3.9618e+000 52982 85879,85957,85931
 1.2000e+000 86035 -1.3775e+000 -2.5276e+001 -2.9978e-001 52982 85879,85931,85905
 1.2000e+000 86176  5.3949e+000 -3.1518e+001  3.1390e+000 52982 86009,85957,86150
 1.2000e+000 86199  1.3831e+000 -3.1945e+001  2.2503e+000 52982 86009,86150,85853
 1.2000e+000 86398  7.6977e+000 -5.4479e+000  8.1407e-001 52542 86421,86248,86222
 1.2000e+000 86375  4.6495e+000 -7.4093e+000 -5.7449e-001 52542 86421,86222,86300
 1.2000e+000 86352  3.2543e+000 -1.0211e+001 -1.1491e-001 52542 86222,86326,86300
 1.2000e+000 86447  1.1586e+001 -6.3867e+000  3.3022e+000 52542 86274,86248,86421
 1.2000e+000 86470  8.0902e+000 -9.7026e+000  1.4830e+000 52542 86274,86421,86300
 1.2000e+000 86669  3.7412e+000 -6.0675e+000 -6.5802e+000 52230 86692,86571,86545
 1.2000e+000 86646  1.8203e+000 -9.5330e+000 -2.7289e+000 52230 86692,86545,86519
 1.2000e+000 86623 -5.2779e+000 -5.1757e+000  1.3102e+000 52230 86493,86597,86519
 1.2000e+000 86718  1.0826e+000 -6.4245e+000 -2.8925e+000 52230 86597,86571,86692
 1.2000e+000 86741 -3.4645e+000 -1.1071e+001  1.1058e+000 52230 86597,86692,86519
 1.2000e+000 87153 -6.3259e+000 -1.9790e+001 -2.1161e+000 51640 86980,87058,87032
 1.2000e+000 87130 -6.9520e+000 -2.1909e+001 -2.9829e+000 51640 86928,87058,86980
 1.2000e+000 87107 -4.8204e+000 -4.4755e+001 -1.3908e+001 51640 86928,86980,86954
 1.2000e+000 87084 -2.2222e+000 -1.8035e+001 -2.2667e+000 51640 86980,87032,87006
 1.2000e+000 87659 -6.0022e+000 -2.1700e+001  2.9823e+000 51029 87682,87440,87362
 1.2000e+000 87636 -7.5801e+000 -2.3774e+001  4.5146e-001 51029 87682,87362,87336
 1.2000e+000 87613 -1.1528e+001 -3.7805e+001 -6.1846e-001 51029 87440,87518,87466
 1.2000e+000 87590 -1.1016e+001 -2.4439e+001  4.2675e+000 51029 87362,87440,87414
 1.2000e+000 87567 -1.0069e+001 -2.0634e+001  1.1615e+001 51029 87362,87414,87388
 1.2000e+000 87544 -1.1911e+001 -3.7903e+001 -4.6084e-001 51029 87466,87518,87492
 1.2000e+000 87708 -5.1342e+000 -2.4837e+001  1.4262e+000 51029 87518,87440,87682
 1.2000e+000 87731 -5.9514e+000 -2.8232e+001 -1.7711e-001 51029 87518,87682,87336
 1.2000e+000 87881  4.6784e+000 -1.2778e+001  2.0566e-001 50739 87780,87832,87806
 1.2000e+000 87858  4.3301e+000 -1.4092e+001  3.3641e-001 50739 87754,87832,87780
 1.2000e+000 88468  7.8281e+000  1.6482e+000 -2.2695e+000 50235 88171,88327,88197
 1.2000e+000 88445  1.0499e-001  1.0818e+000 -5.2180e+000 50235 88145,88327,88171
 1.2000e+000 88422  2.0645e+001  1.0266e+000 -2.5089e+000 50235 88275,88327,88301
 1.2000e+000 88399  6.7204e+000 -4.9424e+000 -2.2375e+000 50235 88197,88327,88275
 1.2000e+000 88376  8.7201e+000 -3.1350e+000 -1.4634e+000 50235 88197,88275,88223
 1.2000e+000 88353  5.9485e+000 -1.1642e+001 -1.7476e+000 50235 88223,88275,88249
 1.2000e+000 88895  3.2522e+000 -1.5895e+001  2.0507e+000 49873 88918,88728,88676
 1.2000e+000 88872  3.6283e+000 -1.6482e+001  1.4260e+000 49873 88918,88676,88624
 1.2000e+000 88849  3.1981e+000 -1.2529e+001  1.1780e+000 49873 88598,88754,88624
 1.2000e+000 88826  6.0512e+000 -1.3732e+001 -9.4110e-001 49873 88624,88676,88650
 1.2000e+000 88803  4.0700e+000 -2.1096e+001  2.0173e+000 49873 88676,88728,88702
 1.2000e+000 88780  6.3485e+000 -1.3433e+001  3.7561e-001 49873 88572,88754,88598
 1.2000e+000 88944  3.9910e+000 -1.5442e+001  2.3557e+000 49873 88754,88728,88918
 1.2000e+000 88967  4.0112e+000 -1.6057e+001  1.6755e+000 49873 88754,88918,88624
 1.2000e+000 89473 -1.3347e+001 -2.3844e+001 -6.9839e+000 49583 89176,89306,89202
 1.2000e+000 89450 -3.5977e+000 -2.1430e+001 -3.1763e+000 49583 89176,89332,89306
 1.2000e+000 89427 -2.6357e-001 -2.0712e+001 -1.0610e+000 49583 89496,89228,89202
 1.2000e+000 89404 -9.9130e-002 -2.0549e+001 -1.1304e+000 49583 89496,89202,89280
 1.2000e+000 89381 -1.1167e+001 -2.7469e+001 -7.5602e+000 49583 89202,89306,89280
 1.2000e+000 89358 -8.9323e+000 -1.6399e+001  8.2384e-001 49583 89150,89332,89176
 1.2000e+000 89522 -2.3089e-001 -2.1681e+001 -8.1741e-001 49583 89254,89228,89496
 1.2000e+000 89545  3.5766e-001 -2.0846e+001 -1.1026e+000 49583 89254,89496,89280
 1.2000e+000 89825  5.6143e+000 -2.0419e+001  2.3992e-001 49179 89701,89753,89727
 1.2000e+000 89802  1.0335e+001 -1.4400e+001 -1.9473e+000 49179 89675,89753,89701
 1.2000e+000 89779  1.2123e+001 -1.4129e+001  4.2592e+000 49179 89848,89753,89675
 1.2000e+000 89874 -3.6644e+000 -2.0059e+001 -2.2478e-001 49179 89649,89753,89848
 1.2000e+000 90223 -7.4324e+000 -3.3621e+001  1.0249e+000 48739 90024,90102,90076
 1.2000e+000 90200 -3.5238e+000 -3.1906e+001  1.3624e+000 48739 90024,90128,90102
 1.2000e+000 90177 -4.9032e+000 -3.1687e+001  1.7693e-001 48739 90024,90076,90050
 1.2000e+000 90154 -4.2560e+000 -3.4948e+001  1.1952e+000 48739 89998,90128,90024
 1.2000e+000 90603 -1.0150e+001 -2.7801e+001  1.6258e+000 48335 90381,90485,90459
 1.2000e+000 90580 -1.6428e+001 -3.4920e+001 -1.7438e+000 48335 90355,90485,90381
 1.2000e+000 90557 -6.0813e+000 -7.3389e+000  6.1054e-001 48335 90381,90433,90407
 1.2000e+000 90534 -8.7216e+000 -2.8072e+001  7.0282e-001 48335 90381,90459,90433
 1.2000e+000 90511  3.5578e+000 -1.9457e+001  8.3191e+000 48335 90329,90485,90355
 1.2000e+000 90753  1.3787e+001 -7.6077e+000  8.3618e+000 47824 90776,90652,90704
 1.2000e+000 90730  5.5750e+000 -2.0901e+001  3.7236e+000 47824 90626,90704,90652
 1.2000e+000 90802  5.2614e+000 -1.4045e+001  5.5403e+000 47824 90678,90652,90776
 1.2000e+000 91131  5.1137e-001 -1.9259e+001  1.7741e+000 47427 91154,90958,90906
 1.2000e+000 91108 -6.3778e+000 -2.2232e+001  2.0667e+000 47427 91154,90906,91036
 1.2000e+000 91085 -1.8372e+000 -1.4534e+001 -1.8369e+000 47427 90958,91010,90984
 1.2000e+000 91062  9.6869e-001 -1.3773e+001  2.1213e+000 47427 90906,90958,90932
 1.2000e+000 91180 -3.2029e+000 -1.7746e+001 -2.9002e+000 47427 91010,90958,91154
 1.2000e+000 91203 -9.6907e+000 -2.0523e+001 -2.7073e+000 47427 91010,91154,91036
 1.2000e+000 91583  3.8685e-001 -2.7762e+001  1.9431e+000 46873 91309,91439,91335
 1.2000e+000 91560 -1.0994e+000 -3.5860e+001  3.1054e+000 46873 91309,91465,91439
 1.2000e+000 91537 -1.3016e+001 -3.6268e+001 -3.5504e+000 46873 91361,91439,91413
 1.2000e+000 91514 -8.2832e+000 -3.1874e+001 -6.8494e-001 46873 91335,91439,91361
 1.2000e+000 91491  1.2852e+001 -2.9596e+001 -3.7414e+000 46873 91361,91413,91387
 1.2000e+000 91880  3.7379e+000 -1.6714e+001 -1.7588e+000 46526 91606,91710,91658
 1.2000e+000 91857  4.6755e+000 -1.8727e+001 -1.9944e-001 46526 91606,91762,91710
 1.2000e+000 91834  7.8987e+000 -1.5708e+001 -4.8973e+000 46526 91606,91658,91632
 1.2000e+000 91811  2.6401e+000 -1.2952e+001  3.5125e-001 46526 91658,91710,91684
 1.2000e+000 91788  7.7993e+000 -9.3592e+000  5.3983e-001 46526 91710,91762,91736
 1.2000e+000 92211  8.3690e-001 -1.5168e+001 -7.8069e-001 45700 91986,92064,92038
 1.2000e+000 92188 -8.5533e+000 -2.8669e+001  3.4313e+000 45700 91986,92116,92064
 1.2000e+000 92165  4.3133e+000 -1.1504e+001 -6.9802e+000 45700 91986,92038,92012
 1.2000e+000 92142 -6.7354e+000 -2.3809e+001  3.7644e+000 45700 92064,92116,92090
 1.2000e+000 92766  8.2060e+000 -1.5161e+001  1.4403e+000 45452 92446,92602,92576
 1.2000e+000 92743 -6.1177e+000 -2.1910e+001 -6.3527e+000 45452 92420,92602,92446
 1.2000e+000 92720 -5.0010e+000 -2.1661e+001  2.0791e+000 45452 92789,92524,92498
 1.2000e+000 92697 -5.8935e+000 -2.1007e+001  1.8349e+000 45452 92789,92498,92446
 1.2000e+000 92674 -6.3269e+000 -2.5296e+001 -4.4433e-002 45452 92524,92576,92550
 1.2000e+000 92651 -8.2307e+000 -2.0097e+001  7.2381e+000 45452 92446,92498,92472
 1.2000e+000 92628  2.6963e+001 -1.7480e+001 -7.7972e+000 45452 92394,92602,92420
 1.2000e+000 92815 -4.2863e+000 -2.1329e+001  1.7900e+000 45452 92576,92524,92789
 1.2000e+000 92838 -5.0878e+000 -2.0676e+001  1.6354e+000 45452 92576,92789,92446
 1.2000e+000 92939  2.0236e+000 -2.0802e+001 -7.2297e+000 44998 92861,92913,92887
 1.2000e+000 93319  1.9572e-001 -2.6804e+001  4.0360e+000 44601 93123,93201,93149
 1.2000e+000 93296 -2.8267e+000 -2.6881e+001  7.7712e-002 44601 93045,93201,93123
 1.2000e+000 93273  2.5156e+000 -1.5839e+001 -2.3845e+000 44601 93045,93123,93071
 1.2000e+000 93250  6.5684e+000 -1.6727e+001 -5.9424e+000 44601 93071,93123,93097
 1.2000e+000 93227  2.9363e+000 -1.4320e+001  3.6516e+000 44601 93149,93201,93175
 1.2000e+000 93697  2.6913e+000 -2.0897e+001 -1.9589e-002 44026 93720,93553,93527
 1.2000e+000 93674  3.7345e+000 -1.8960e+001  6.4128e-001 44026 93720,93527,93449
 1.2000e+000 93651  2.6895e+000 -2.2111e+001  1.6479e+000 44026 93449,93527,93501
 1.2000e+000 93628  8.2174e-001 -1.5001e+001 -2.8143e+000 44026 93423,93579,93449
 1.2000e+000 93605  9.2497e+000 -2.1516e+001  1.5483e+000 44026 93449,93501,93475
 1.2000e+000 93746  5.2444e-001 -1.8370e+001  1.0258e-001 44026 93579,93553,93720
 1.2000e+000 93769  2.0469e+000 -1.6006e+001  9.5727e-001 44026 93579,93720,93449
 1.2000e+000 94066  1.1967e-001 -1.7104e+001 -1.4601e+000 43579 94089,93818,93792
 1.2000e+000 94043  2.2499e+000 -1.6738e+001 -1.7171e+000 43579 94161,94089,93792
 1.2000e+000 94020  2.3247e+000 -1.6722e+001 -1.6374e+000 43579 94161,93792,93948
 1.2000e+000 93997  3.0161e+000 -1.4868e+001 -9.2984e-001 43579 94233,93870,93818
 1.2000e+000 93974  4.1220e+000 -1.6576e+001  7.5917e-001 43579 93818,93870,93844
 1.2000e+000 94115  2.4814e+000 -1.5022e+001 -5.6598e-001 43579 94233,93818,94089
 1.2000e+000 94138 -1.1976e+000 -1.7290e+001 -1.8497e+000 43579 93896,94089,93922
 1.2000e+000 94187  2.3365e+000 -1.6615e+001 -1.5808e+000 43579 93922,94089,94161
 1.2000e+000 94210  2.5035e+000 -1.6549e+001 -1.4942e+000 43579 93922,94161,93948
 1.2000e+000 94259  5.3698e+000 -1.4091e+001 -3.1336e+000 43579 93896,93870,94233
 1.2000e+000 94282  2.6340e+000 -1.5281e+001 -2.7656e+000 43579 93896,94233,94089
 1.2000e+000 94481  2.6437e+000 -1.8395e+001 -2.4590e-001 43239 94305,94383,94357
 1.2000e+000 94458  4.2606e+000 -1.5519e+001  3.7599e+000 43239 94305,94409,94383
 1.2000e+000 94435  2.9471e+000 -1.8548e+001 -3.3347e-001 43239 94305,94357,94331
 1.2000e+000 94633  7.9279e-001 -1.4859e+001  3.6308e+000 42827 94656,94532,94506
 1.2000e+000 94610 -6.4271e+000 -1.8410e+001  4.9388e+000 42827 94728,94656,94506
 1.2000e+000 94682  1.7349e-002 -1.9715e+001  2.6964e+000 42827 94558,94532,94656
 1.2000e+000 94705  4.6055e+000 -1.8631e+001  4.1553e-001 42827 94988,94860,94656
 1.2000e+000 94754 -4.1334e-001 -1.4846e+001 -8.7129e-001 42827 94988,94656,94728
 1.2000e+000 94886  9.9541e+000 -1.6497e+001  4.7638e-001 42827 94558,94656,94860
 1.2000e+000 95014  8.8443e+000 -1.5340e+001 -1.0242e+000 42827 94584,94860,94988
 1.2000e+000 95037  4.4859e+000 -1.1869e+001 -2.2738e+000 42827 94584,94988,94728
 1.2000e+000 95236 -4.3587e+000 -3.5432e+001  2.5175e-001 42537 95259,95112,95060
 1.2000e+000 95213 -4.7540e+000 -3.4669e+001 -7.2450e-002 42537 95259,95060,95164
 1.2000e+000 95190 -4.9708e+000 -3.8858e+001 -8.9149e-001 42537 95060,95112,95086
 1.2000e+000 95285 -4.6330e+000 -3.5861e+001  1.3279e-001 42537 95138,95112,95259
 1.2000e+000 95308 -5.1913e+000 -3.5447e+001 -2.5523e-001 42537 95138,95259,95164
 1.2000e+000 95816 -7.1897e+000 -2.8542e+001 -2.2863e+000 41969 95493,95597,95519
 1.2000e+000 95793 -1.4170e+001 -2.7895e+001  3.6649e+000 41969 95493,95649,95597
 1.2000e+000 95770 -1.3042e+001 -2.5539e+001  1.4995e+000 41969 95493,95675,95649
 1.2000e+000 95747 -1.2961e+001 -3.3941e+001  3.1302e+000 41969 95597,95649,95623
 1.2000e+000 95724 -1.5963e+001 -2.7409e+001 -3.0907e+000 41969 95519,95597,95571
 1.2000e+000 95701 -1.3665e+001 -2.5402e+001 -1.3341e+001 41969 95519,95571,95545
 1.2000e+000 96371 -5.0824e+000 -2.3133e+001  4.0988e-001 41579 96025,96207,96181
 1.2000e+000 96348  5.4672e+000 -1.8096e+001 -3.7951e+000 41579 95999,96207,96025
 1.2000e+000 96325 -1.0650e+001 -2.0522e+001 -7.8945e+000 41579 96129,96181,96155
 1.2000e+000 96302  5.1483e+000 -1.5237e+001 -3.0564e+000 41579 96025,96181,96129
 1.2000e+000 96279 -4.5150e+000 -2.7737e+001  5.6000e+000 41579 96025,96129,96051
 1.2000e+000 96256 -1.2567e+001 -3.1920e+001  1.0464e+001 41579 96051,96103,96077
 1.2000e+000 96233  4.4760e+000 -1.9470e+001  2.0327e+000 41579 96051,96129,96103
 1.2000e+000 96877  2.4512e+000 -1.6983e+001 -2.8129e-001 41182 96972,96900,96632
 1.2000e+000 96854  3.2838e+000 -1.5565e+001 -3.6409e-001 41182 96900,96554,96736
 1.2000e+000 96831  1.5034e+000 -1.6241e+001 -3.0093e+000 41182 96972,96632,96580
 1.2000e+000 96808  5.1490e+000 -1.6286e+001  1.8868e-001 41182 96632,96684,96658
 1.2000e+000 96785 -2.4558e+000 -2.1374e+001 -1.1226e+000 41182 96684,96736,96710
 1.2000e+000 96762 -6.5766e+000 -2.5632e+001  1.8999e+000 41182 96580,96632,96606
 1.2000e+000 96926  2.8672e+000 -1.7392e+001 -1.4947e-001 41182 96684,96632,96900
 1.2000e+000 96949 -2.9526e-001 -1.6268e+001 -1.0022e+000 41182 96684,96900,96736
 1.2000e+000 96998  6.7352e+000 -1.5491e+001 -1.9332e+000 41182 96554,96900,96972
 1.2000e+000 97021  7.0475e+000 -1.3206e+001 -4.9518e+000 41182 96554,96972,96580
 1.2000e+000 97576 -1.7151e+001 -4.7590e+001 -5.5959e+000 40678 97230,97412,97282
 1.2000e+000 97553 -1.4376e+000 -4.0039e+001  1.3002e+000 40678 97204,97412,97230
 1.2000e+000 97530 -9.5842e+000 -3.8703e+001 -4.9844e+000 40678 97282,97360,97308
 1.2000e+000 97507 -6.1003e+000 -3.6532e+001 -1.1356e+000 40678 97282,97412,97360
 1.2000e+000 97484 -4.2735e+000 -2.5059e+001 -3.0211e+000 40678 97308,97360,97334
 1.2000e+000 97461 -1.8271e+001 -4.6707e+001  4.2232e+000 40678 97360,97412,97386
 1.2000e+000 97438 -9.1871e+000 -3.7466e+001  1.9925e+000 40678 97230,97282,97256
 1.2000e+000 97976 -2.1875e+000 -1.5797e+001  2.2156e-001 40244 97702,97832,97754
 1.2000e+000 97953  1.6032e+000 -1.6793e+001 -3.2232e-001 40244 97702,97858,97832
 1.2000e+000 97930 -5.2241e+000 -2.4194e+001 -3.9943e+000 40244 97702,97754,97728
 1.2000e+000 97907 -2.0199e-001 -1.9868e+001 -1.2142e-001 40244 97780,97832,97806
 1.2000e+000 97884  4.3289e+000 -1.2041e+001  2.0564e+000 40244 97754,97832,97780
 1.2000e+000 98482 -1.2568e+001 -3.6403e+001  3.2478e-002 39690 98505,98185,98159
 1.2000e+000 98459 -9.4582e+000 -3.2741e+001  1.4136e+000 39690 98505,98159,98289
 1.2000e+000 98436 -1.7570e+001 -4.1675e+001  9.8534e+000 39690 98159,98315,98289
 1.2000e+000 98413 -1.1229e+001 -2.4217e+001  7.8971e-001 39690 98211,98289,98263
 1.2000e+000 98390 -1.0733e+001 -1.8505e+001  3.7804e-001 39690 98211,98263,98237
 1.2000e+000 98367  1.4496e+001 -2.8577e+001  4.7878e+000 39690 98159,98341,98315
 1.2000e+000 98531 -2.0716e+001 -3.4772e+001 -4.4290e+000 39690 98211,98185,98505
 1.2000e+000 98554 -1.3551e+001 -2.5482e+001 -1.3100e+000 39690 98211,98505,98289
 1.2000e+000 99109 -8.2565e-001 -1.8016e+001 -1.6142e+000 39072 99132,98867,98789
 1.2000e+000 99086  2.7497e+000 -1.7357e+001 -1.8503e+000 39072 99132,98789,98763
 1.2000e+000 99063 -4.8246e+000 -2.5565e+001  3.0606e+000 39072 98867,98945,98919
 1.2000e+000 99040 -1.3137e+000 -1.9797e+001 -4.9111e-001 39072 98789,98867,98841
 1.2000e+000 99017 -5.4244e+000 -2.7268e+001  2.8564e+000 39072 98867,98919,98893
 1.2000e+000 98994 -4.5626e+000 -2.0283e+001  2.4885e+000 39072 98789,98841,98815
 1.2000e+000 98971 -6.3523e-001 -1.9211e+001 -4.5364e+000 39072 98737,98945,98763
 1.2000e+000 99158 -2.1576e+000 -1.7125e+001 -9.2896e-001 39072 98945,98867,99132
 1.2000e+000 99181 -6.4377e-001 -1.8190e+001 -8.5995e-001 39072 98945,99132,98763
 1.2000e+000 99510  1.1887e+000 -1.9467e+001  9.7612e-001 38668 99311,99389,99363
 1.2000e+000 99487 -1.4501e+000 -2.0638e+001  7.4423e-001 38668 99285,99389,99311
 1.2000e+000 99464 -6.9178e+000 -2.2627e+001  2.9419e+000 38668 99285,99415,99389
 1.2000e+000 99441  1.2009e+000 -2.0205e+001  1.3590e+000 38668 99311,99363,99337
 1.2000e+000 99758  1.6948e+000 -2.5253e+001  1.6857e+000 38164 99781,99611,99585
 1.2000e+000 99735  4.3025e+000 -2.5665e+001  2.0254e+000 38164 99781,99585,99533
 1.2000e+000 99712 -3.5470e-001 -2.4962e+001  1.5238e+000 38164 99611,99663,99637
 1.2000e+000 99689  5.5721e+000 -2.5204e+001  1.1193e-001 38164 99533,99585,99559
 1.2000e+000 99807  2.1931e-001 -2.5031e+001  2.3932e+000 38164 99663,99611,99781
 1.2000e+000 99830  2.1608e+000 -2.5807e+001  2.3089e+000 38164 99663,99781,99533
 1.2000e+000 100232  6.1628e+000 -2.3882e+001  3.1664e+000 37702 99984,100114,100088
 1.2000e+000 100209  5.1354e-001 -3.0163e+001 -2.5001e-001 37702 99958,100114,99984
 1.2000e+000 100186 -1.0164e+001 -3.2293e+001  4.5173e-002 37702 100010,100088,100036
 1.2000e+000 100163 -3.6636e+000 -2.8158e+001  2.5565e+000 37702 99984,100088,100010
 1.2000e+000 100140 -6.0066e+000 -2.6832e+001 -3.6801e+000 37702 100036,100088,100062
 1.2000e+000 100640 -1.7758e+001 -2.5626e+001  1.1802e+000 37262 100493,100545,100519
 1.2000e+000 100617 -1.4685e+001 -2.7253e+001  3.3246e-001 37262 100441,100545,100493
 1.2000e+000 100594 -7.4189e+000 -2.2096e+001 -3.3220e+000 37262 100415,100545,100441
 1.2000e+000 100571 -1.9473e+001 -3.5884e+001 -2.7679e+000 37262 100441,100493,100467
 1.2000e+000 101146 -9.3762e+000 -1.7214e+001 -6.0847e-001 36872 100823,100979,100849
 1.2000e+000 101123 -7.7301e+000 -1.2914e+001 -1.6265e+000 36872 100823,101005,100979
 1.2000e+000 101100 -6.1187e+000 -2.4611e+001  3.6935e+000 36872 101169,100901,100849
 1.2000e+000 101077 -4.4264e+000 -2.1058e+001  2.5054e+000 36872 101169,100849,100979
 1.2000e+000 101054 -2.3951e+000 -2.4055e+001  7.5564e-001 36872 100927,100979,100953
 1.2000e+000 101031 -4.8829e+000 -3.0369e+001  3.6428e+000 36872 100849,100901,100875
 1.2000e+000 101195 -3.8371e+000 -2.5615e+001  1.4989e+000 36872 100927,100901,101169
 1.2000e+000 101218 -2.7657e+000 -2.3701e+001  5.1474e-001 36872 100927,101169,100979
 1.2000e+000 101773 -1.5183e+001 -2.5531e+001  2.5806e+000 36418 101479,101609,101583
 1.2000e+000 101750 -1.5560e+001 -2.8478e+001  3.1754e+000 36418 101453,101609,101479
 1.2000e+000 101727 -9.8391e+000 -2.6081e+001 -1.6527e-001 36418 101796,101531,101479
 1.2000e+000 101704 -1.4220e+001 -2.8398e+001  8.4210e-001 36418 101796,101479,101583
 1.2000e+000 101681 -6.3414e+000 -2.9693e+001 -2.2469e+000 36418 101479,101531,101505
 1.2000e+000 101658  6.8847e+000 -2.3863e+001 -1.9311e+000 36418 101401,101609,101453
 1.2000e+000 101635 -3.9984e+000 -3.0163e+001 -4.8610e+000 36418 101401,101453,101427
 1.2000e+000 101822 -1.1159e+001 -2.4413e+001 -4.5427e+000 36418 101557,101531,101796
 1.2000e+000 101845 -1.7019e+001 -2.6480e+001 -3.9130e+000 36418 101557,101796,101583
 1.2000e+000 102174  7.9691e+000 -1.6891e+001 -2.9700e+000 35914 101949,102053,101975
 1.2000e+000 102151 -1.0318e+001 -1.9465e+001  4.9889e-001 35914 101949,102079,102053
 1.2000e+000 102128 -4.8342e+000 -2.2622e+001 -1.1255e+000 35914 101975,102053,102027
 1.2000e+000 102105 -3.8836e+000 -1.6728e+001 -9.5893e-001 35914 101975,102027,102001
 1.2000e+000 102631  5.7009e+000 -1.9883e+001 -1.3760e-001 35574 102383,102513,102487
 1.2000e+000 102608  1.0923e+001 -1.9886e+001  4.8996e-001 35574 102357,102513,102383
 1.2000e+000 102585 -4.5196e-001 -2.2695e+001  2.1956e+000 35574 102409,102487,102435
 1.2000e+000 102562  1.9658e+000 -2.2522e+001  2.1372e+000 35574 102383,102487,102409
 1.2000e+000 102539 -2.8932e+000 -2.7414e+001  1.2968e+000 35574 102435,102487,102461
 1.2000e+000 103009 -1.0283e+000 -1.7821e+001 -1.7310e+000 35170 102761,102865,102787
 1.2000e+000 102986  5.1732e+000 -1.4674e+001  1.4007e+000 35170 102761,102891,102865
 1.2000e+000 102963 -1.7541e+000 -1.7927e+001 -2.3043e+000 35170 102787,102865,102813
 1.2000e+000 102940  2.1175e+000 -2.0801e+001 -7.9974e-001 35170 102735,102891,102761
 1.2000e+000 102917 -4.7039e+000 -2.5069e+001 -2.9873e+000 35170 102813,102865,102839
 1.2000e+000 103257  6.1778e+000 -1.9908e+001 -4.0213e+000 34659 103280,103058,103032
 1.2000e+000 103234  3.5855e+000 -2.1913e+001 -1.3336e+000 34659 103280,103032,103162
 1.2000e+000 103211 -1.3091e+000 -1.7109e+001 -9.8397e-001 34659 103084,103162,103110
 1.2000e+000 103188 -4.2622e+000 -2.5222e+001 -1.4779e+000 34659 103110,103162,103136
 1.2000e+000 103306  1.6018e+000 -1.7460e+001 -3.1645e+000 34659 103084,103058,103280
 1.2000e+000 103329 -1.5401e-002 -1.9550e+001 -1.4673e-001 34659 103084,103280,103162
 1.2000e+000 103837  7.1010e+000 -1.9997e+001  2.5128e+000 34247 103860,103566,103540
 1.2000e+000 103814 -2.7666e-001 -2.1925e+001  4.0677e-001 34247 103932,103860,103540
 1.2000e+000 103791 -1.1383e+000 -2.4616e+001 -1.8295e+000 34247 103932,103540,103670
 1.2000e+000 103768  4.9186e+000 -2.3333e+001 -4.2831e-001 34247 103566,103618,103592
 1.2000e+000 103745 -4.4520e+000 -2.1934e+001 -2.0415e+000 34247 103540,103696,103670
 1.2000e+000 103722 -8.3653e+000 -2.1612e+001  1.1745e+001 34247 103514,103696,103540
 1.2000e+000 103886  3.4610e-001 -2.4870e+001 -1.6573e-001 34247 103618,103566,103860
 1.2000e+000 103909  3.1621e+000 -2.2905e+001 -1.0310e+000 34247 103618,103860,103644
 1.2000e+000 103958 -1.1700e+000 -2.7962e+001 -2.9234e+000 34247 103644,103860,103932
 1.2000e+000 103981 -2.4814e+000 -3.0702e+001 -5.3029e+000 34247 103644,103932,103670
 1.2000e+000 104300  1.4015e-001 -2.1537e+001 -8.5752e-001 33843 104052,104182,104156
 1.2000e+000 104277  2.2708e+000 -2.2753e+001 -1.3763e+000 33843 104026,104182,104052
 1.2000e+000 104254  1.2045e+000 -2.0165e+001  1.8594e+000 33843 104078,104156,104130
 1.2000e+000 104231 -4.5136e+000 -2.3228e+001 -1.9860e-001 33843 104052,104156,104078
 1.2000e+000 104208  1.0266e+001 -2.4963e+001  6.3077e+000 33843 104078,104130,104104
 1.2000e+000 104499 -1.1759e-001 -2.4292e+001 -2.0434e+000 33282 104594,104522,104375
 1.2000e+000 104476  9.7042e-001 -2.2389e+001 -5.4241e-001 33282 104522,104323,104427
 1.2000e+000 104453  1.4657e+000 -2.5726e+001 -1.7984e+000 33282 104594,104375,104349
 1.2000e+000 104548  4.0332e-001 -2.1014e+001 -1.6892e+000 33282 104401,104375,104522
 1.2000e+000 104571  1.1690e+000 -2.1339e+001 -2.9372e-002 33282 104401,104522,104427
 1.2000e+000 104620  1.5069e+000 -2.1450e+001 -1.1887e+000 33282 104323,104522,104594
 1.2000e+000 104643  2.3977e+000 -2.3632e+001 -1.2345e+000 33282 104323,104594,104349
 1.2000e+000 104942 -1.1921e+000 -2.4727e+001  2.1758e+000 32728 104694,104772,104720
 1.2000e+000 104919 -2.3949e+000 -2.4604e+001  1.3056e+000 32728 104694,104824,104772
 1.2000e+000 104896 -2.8480e+000 -2.6067e+001  1.5954e+000 32728 104720,104772,104746
 1.2000e+000 104873  3.0579e-001 -2.8820e+001  1.4821e+000 32728 104772,104824,104798
 1.2000e+000 104850 -2.0932e-001 -2.6414e+001 -1.2404e-001 32728 104668,104824,104694
 1.2000e+000 105373 -1.5270e+001 -3.5347e+001 -4.4841e-001 32274 105396,105102,105076
 1.2000e+000 105350 -1.4369e+001 -3.7669e+001  2.8382e-002 32274 105396,105076,105206
 1.2000e+000 105327 -1.6271e+001 -4.0846e+001  5.4400e+000 32274 105154,105206,105180
 1.2000e+000 105304 -1.1082e+001 -3.6981e+001 -1.3934e+000 32274 105076,105232,105206
 1.2000e+000 105281 -1.8223e+001 -3.4420e+001 -3.1758e+000 32274 105102,105154,105128
 1.2000e+000 105258 -2.3353e+001 -3.5294e+001 -4.4489e+000 32274 105050,105232,105076
 1.2000e+000 105422 -1.5108e+001 -3.2978e+001 -2.3554e-002 32274 105154,105102,105396
 1.2000e+000 105445 -1.4455e+001 -3.5600e+001  2.5004e-001 32274 105154,105396,105206
 1.2000e+000 105644 -1.1444e+000 -2.0897e+001 -1.6732e+000 31620 105468,105546,105520
 1.2000e+000 105621 -2.8476e+000 -2.6150e+001 -1.0048e+000 31620 105468,105572,105546
 1.2000e+000 105598 -3.9761e+000 -2.7384e+001 -2.0876e+000 31620 105468,105520,105494
 1.2000e+000 105794 -5.2269e+000 -3.4579e+001  1.6049e-001 31158 105889,105817,105693
 1.2000e+000 105771 -4.7034e+000 -3.4563e+001 -3.4205e-001 31158 105817,105667,105745
 1.2000e+000 105843 -4.7682e+000 -3.5954e+001  7.8528e-001 31158 105719,105693,105817
 1.2000e+000 105866 -2.8490e+000 -3.4911e+001  1.5310e-001 31158 105719,105817,105745
 1.2000e+000 105915 -5.4168e+000 -3.4660e+001  1.5839e-001 31158 105667,105817,105889
 1.2000e+000 106270 -1.2859e+001 -2.9140e+001 -1.3991e+000 30818 106293,106071,106045
 1.2000e+000 106247 -1.4287e+001 -3.2261e+001 -4.2065e+000 30818 106293,106045,106175
 1.2000e+000 106224 -9.1931e+000 -2.9301e+001 -1.6090e+000 30818 106123,106175,106149
 1.2000e+000 106201 -1.5961e+001 -2.9352e+001 -2.0891e-001 30818 106071,106123,106097
 1.2000e+000 106319 -1.1731e+001 -2.7869e+001 -5.7682e-001 30818 106123,106071,106293
 1.2000e+000 106342 -1.1148e+001 -2.9445e+001 -2.9362e+000 30818 106123,106293,106175
 1.2000e+000 106492  8.3454e-001 -3.4414e+001  7.0107e+000 30414 106645,106391,106365
 1.2000e+000 106469 -4.8240e+000 -3.0382e+001  6.0266e+000 30414 106515,106365,106443
 1.2000e+000 106541 -4.4489e+000 -3.0177e+001  4.6861e+000 30414 106645,106365,106515
 1.2000e+000 106671 -4.2887e+000 -4.2132e+001  4.7502e+000 30414 106417,106391,106645
 1.2000e+000 106694 -9.3280e+000 -3.6000e+001  2.5857e+000 30414 106417,106645,106515
 1.2000e+000 106942  2.8989e+000 -3.1478e+001 -1.4553e+000 29910 106965,106795,106769
 1.2000e+000 106919 -1.9077e-001 -2.6683e+001 -6.0843e-001 29910 106965,106769,106717
 1.2000e+000 106896  6.9604e+000 -2.0188e+001 -5.3778e+000 29910 106795,106847,106821
 1.2000e+000 106873  1.3111e+000 -2.3765e+001  2.0685e-001 29910 106717,106769,106743
 1.2000e+000 106991  3.3452e+000 -2.7738e+001 -1.8299e+000 29910 106847,106795,106965
 1.2000e+000 107014  1.7621e+000 -2.0942e+001 -1.4877e+000 29910 106847,106965,106717
 1.2000e+000 107213 -8.7695e-001 -2.8793e+001  2.0240e+000 29413 107236,107063,107037
 1.2000e+000 107190 -3.7410e+000 -3.3883e+001  4.0634e+000 29413 107236,107037,107141
 1.2000e+000 107167  1.8464e+000 -2.1324e+001  9.4727e-001 29413 107063,107115,107089
 1.2000e+000 107262 -2.3290e+000 -2.4483e+001 -5.2560e-001 29413 107115,107063,107236
 1.2000e+000 107285 -4.5400e+000 -2.8557e+001  1.4640e+000 29413 107115,107236,107141
 1.2000e+000 107486 -3.4663e+000 -2.5345e+001  1.1636e+000 29009 107336,107388,107362
 1.2000e+000 107463 -3.2198e+000 -2.5300e+001  1.8678e+000 29009 107310,107388,107336
 1.2000e+000 107440 -2.9878e+000 -2.3989e+001  1.6660e+000 29009 107310,107414,107388
 1.2000e+000 107736 -1.8952e+000 -2.4710e+001  1.0210e+000 28491 107537,107615,107563
 1.2000e+000 107713 -1.4315e+000 -2.4595e+001  6.4501e-001 28491 107537,107641,107615
 1.2000e+000 107690 -2.1281e+000 -2.3739e+001  1.0529e+000 28491 107563,107615,107589
 1.2000e+000 107667 -2.8065e+000 -2.3507e+001  4.8531e-001 28491 107511,107641,107537
 1.2000e+000 108118  9.2606e-001 -2.2237e+001  1.3134e+000 27980 108141,107922,107844
 1.2000e+000 108095  2.5436e+000 -2.4071e+001  1.0991e+000 27980 108141,107844,108000
 1.2000e+000 108072  2.1333e+000 -1.9613e+001  1.6164e-001 27980 107844,107922,107870
 1.2000e+000 108049  1.3281e+000 -2.1173e+001  4.7299e-001 27980 107870,107922,107896
 1.2000e+000 108026 -1.8088e+000 -1.8685e+001  5.2277e+000 27980 107922,107974,107948
 1.2000e+000 108167  2.1985e+000 -2.2794e+001  1.9244e+000 27980 107974,107922,108141
 1.2000e+000 108190  6.4471e+000 -2.2354e+001  2.2658e+000 27980 107974,108141,108000
 1.2000e+000 108745 -1.9242e+000 -1.6464e+001  9.1221e-001 27376 108840,108768,108477
 1.2000e+000 108722 -4.1830e+000 -2.2044e+001 -4.0132e-001 27376 108768,108373,108581
 1.2000e+000 108699 -1.8627e+000 -1.4015e+001  2.0137e+000 27376 108840,108477,108451
 1.2000e+000 108676 -1.1271e+001 -1.8021e+001 -6.8667e+000 27376 108373,108451,108399
 1.2000e+000 108653 -7.7088e+000 -2.6770e+001  1.2098e+000 27376 108503,108581,108529
 1.2000e+000 108630 -5.8153e+000 -2.3666e+001  2.9000e-001 27376 108529,108581,108555
 1.2000e+000 108607 -1.4638e+001 -2.3240e+001 -4.2087e+000 27376 108399,108451,108425
 1.2000e+000 108794 -3.5710e+000 -1.8783e+001 -1.5558e-001 27376 108503,108477,108768
 1.2000e+000 108817 -3.1718e+000 -1.8145e+001 -4.4648e-001 27376 108503,108768,108581
 1.2000e+000 108866 -3.4940e+000 -1.8997e+001 -6.9526e-001 27376 108373,108768,108840
 1.2000e+000 108889 -3.1076e+000 -1.7307e+001  6.9726e-001 27376 108373,108840,108451
 1.2000e+000 109186 -4.1621e+000 -2.8434e+001  1.9965e+000 26722 109209,108938,108912
 1.2000e+000 109163 -3.3890e+000 -2.6393e+001  1.2432e+000 26722 109281,109209,108912
 1.2000e+000 109140 -3.6956e+000 -2.6094e+001  1.4109e+000 26722 109281,108912,109042
 1.2000e+000 109117 -3.0107e+000 -3.1089e+001 -9.1481e-001 26722 108938,108990,108964
 1.2000e+000 109094 -3.9294e+000 -2.6709e+001  1.6670e+000 26722 108912,109068,109042
 1.2000e+000 109235 -3.2351e+000 -2.6976e+001  7.6133e-001 26722 108990,108938,109209
 1.2000e+000 109258 -3.8923e+000 -2.5554e+001  4.3813e-001 26722 108990,109209,109016
 1.2000e+000 109307 -3.9053e+000 -2.6728e+001  1.0860e+000 26722 109016,109209,109281
 1.2000e+000 109330 -4.2803e+000 -2.6438e+001  1.2458e+000 26722 109016,109281,109042
 1.2000e+000 109732  6.9480e+000 -1.7845e+001 -3.0467e+000 26310 109458,109588,109484
 1.2000e+000 109709  8.6450e-001 -2.8059e+001 -1.1652e-001 26310 109458,109614,109588
 1.2000e+000 109686 -8.1381e+000 -2.1348e+001  2.2907e+000 26310 109510,109562,109536
 1.2000e+000 109663 -5.1989e+000 -1.8515e+001 -3.9241e-001 26310 109484,109562,109510
 1.2000e+000 109640 -5.6900e-001 -2.1464e+001 -1.9248e+000 26310 109484,109588,109562
 1.2000e+000 110159 -9.6453e+000 -2.8096e+001  1.1185e+000 25642 110182,109940,109914
 1.2000e+000 110136 -7.2737e+000 -2.4103e+001  2.6229e+000 25642 110182,109914,109888
 1.2000e+000 110113 -1.3113e+001 -2.8451e+001 -4.4944e+000 25642 109966,110018,109992
 1.2000e+000 110090 -7.8895e+000 -2.7891e+001  3.5143e-001 25642 110254,109966,109940
 1.2000e+000 110067 -6.4676e+000 -2.2652e+001  3.4077e+000 25642 109862,110018,109888
 1.2000e+000 110044 -1.5584e+001 -2.6119e+001  2.0838e+000 25642 109836,110018,109862
 1.2000e+000 110208 -8.6751e+000 -2.7313e+001  3.6530e-001 25642 110254,109940,110182
 1.2000e+000 110231 -1.0445e+001 -2.7001e+001  1.2138e+000 25642 110018,110182,109888
 1.2000e+000 110280 -8.8028e+000 -2.8345e+001  8.6696e-002 25642 110018,109966,110254
 1.2000e+000 110303 -9.6311e+000 -2.7854e+001  4.0924e-002 25642 110018,110254,110182
 1.2000e+000 110632 -1.0522e+001 -2.4240e+001  9.4604e-001 25188 110407,110485,110433
 1.2000e+000 110609 -1.0768e+001 -2.7357e+001  1.4434e+000 25188 110407,110537,110485
 1.2000e+000 110586 -1.2315e+001 -2.5247e+001 -2.4006e+000 25188 110433,110485,110459
 1.2000e+000 110563 -1.2839e+001 -3.5493e+001  4.2670e+000 25188 110485,110537,110511
 1.2000e+000 110831 -2.8765e+000 -2.4604e+001  1.2956e+000 24726 110854,110707,110655
 1.2000e+000 110808 -2.6390e+000 -2.4639e+001  1.3853e+000 24726 110854,110655,110759
 1.2000e+000 110785 -4.0052e+000 -2.5054e+001  2.0797e+000 24726 110655,110707,110681
 1.2000e+000 110880 -2.7145e+000 -2.4573e+001  1.4458e+000 24726 110733,110707,110854
 1.2000e+000 110903 -2.4651e+000 -2.4563e+001  1.5518e+000 24726 110733,110854,110759
 1.2000e+000 111234  4.6095e+000 -1.5432e+001 -2.2388e-001 24222 111257,111087,111035
 1.2000e+000 111211  8.7279e+000 -1.3616e+001  2.1586e+000 24222 111257,111035,111009
 1.2000e+000 111188  7.0181e+000 -1.1929e+001 -1.7277e+000 24222 111035,111087,111061
 1.2000e+000 111165  3.1935e+000 -1.1593e+001  2.3253e+000 24222 111087,111139,111113
 1.2000e+000 111283  2.2348e+000 -1.1991e+001  1.4691e+000 24222 111139,111087,111257
 1.2000e+000 111306  3.9631e+000 -9.7492e+000  2.9955e+000 24222 111139,111257,111009
 1.2000e+000 111625 -8.8617e+000 -2.6399e+001 -1.6381e-001 23732 111648,111481,111455
 1.2000e+000 111602 -7.4044e+000 -2.7052e+001 -1.1053e+000 23732 111648,111455,111377
 1.2000e+000 111579 -1.1159e+000 -1.6895e+001  2.2794e+000 23732 111377,111429,111403
 1.2000e+000 111556 -4.4592e+000 -2.5972e+001 -1.2518e+000 23732 111377,111455,111429
 1.2000e+000 111533 -5.0649e+000 -2.6853e+001 -2.6539e-001 23732 111351,111507,111377
 1.2000e+000 111674 -6.3053e+000 -2.4520e+001  7.0830e-001 23732 111507,111481,111648
 1.2000e+000 111697 -6.9290e+000 -2.6540e+001 -6.9594e-001 23732 111507,111648,111377
 1.2000e+000 112156 -1.4656e+000 -2.4357e+001  1.6323e-001 23278 112179,111908,111882
 1.2000e+000 112133 -8.7713e-001 -2.3273e+001  4.8918e-001 23278 112179,111882,112012
 1.2000e+000 112110 -3.6087e-001 -2.8794e+001 -1.2227e-001 23278 111908,111960,111934
 1.2000e+000 112087  2.3623e+000 -2.2305e+001 -6.9151e-001 23278 111882,112038,112012
 1.2000e+000 112064 -1.2580e+000 -2.1906e+001 -7.5366e-002 23278 111960,112012,111986
 1.2000e+000 112205 -1.8557e+000 -2.4073e+001 -7.2233e-001 23278 111960,111908,112179
 1.2000e+000 112228 -1.4255e+000 -2.3053e+001 -4.3735e-001 23278 111960,112179,112012
 1.2000e+000 112685 -1.9388e+001 -4.3275e+001 -3.2143e+000 22938 112489,112567,112541
 1.2000e+000 112662 -1.4533e+001 -3.1411e+001 -3.4209e+000 22938 112437,112567,112489
 1.2000e+000 112639 -1.5993e+001 -3.5440e+001 -1.1536e+000 22938 112489,112541,112515
 1.2000e+000 112616 -1.7110e+001 -2.7187e+001 -2.1039e+000 22938 112411,112567,112437
 1.2000e+000 112593 -1.4532e+001 -3.6657e+001 -1.8994e+000 22938 112437,112489,112463
 1.2000e+000 113191  2.5679e+000 -2.0645e+001 -1.5319e+000 22534 113214,112998,112946
 1.2000e+000 113168 -1.1025e-002 -2.0515e+001 -4.2726e-001 22534 113286,113214,112946
 1.2000e+000 113145  2.0054e-001 -2.0278e+001 -5.6340e-001 22534 113286,112946,112920
 1.2000e+000 113122 -2.4579e+000 -2.0804e+001 -1.3374e+000 22534 113358,113024,112998
 1.2000e+000 113099 -2.6033e+000 -2.2920e+001 -1.0739e+000 22534 112868,113050,112894
 1.2000e+000 113076  4.9806e+000 -3.0598e+001 -1.4490e+000 22534 112946,112998,112972
 1.2000e+000 113240 -1.4126e+000 -2.1999e+001 -1.5348e+000 22534 113358,112998,113214
 1.2000e+000 113263  1.0532e-001 -2.1602e+001 -1.8440e-001 22534 113050,113214,112894
 1.2000e+000 113312  6.1499e-001 -2.1343e+001 -4.7525e-001 22534 112894,113214,113286
 1.2000e+000 113335  1.1373e+000 -2.0792e+001 -7.1707e-001 22534 112894,113286,112920
 1.2000e+000 113384 -1.0702e+000 -2.0546e+001 -5.6392e-001 22534 113050,113024,113358
 1.2000e+000 113407  6.9726e-001 -2.1180e+001 -7.3406e-001 22534 113050,113358,113214
 1.2000e+000 113785 -1.6048e+001 -3.8682e+001  3.7706e+000 21978 113808,113615,113511
 1.2000e+000 113762 -1.5202e+001 -4.0640e+001  6.3764e+000 21978 113808,113511,113667
 1.2000e+000 113739 -5.8526e+000 -3.0100e+001 -2.9879e-001 21978 113511,113615,113537
 1.2000e+000 113716  1.3537e+000 -2.8216e+001 -1.4428e+000 21978 113537,113615,113589
 1.2000e+000 113693  2.2708e+000 -3.2157e+001 -1.2654e+000 21978 113537,113589,113563
 1.2000e+000 113834 -1.5389e+001 -3.6932e+001  4.4027e+000 21978 113641,113615,113808
 1.2000e+000 113857 -1.2764e+001 -3.6257e+001  7.4536e+000 21978 113641,113808,113667
 1.2000e+000 114284 -6.8714e+000 -2.5847e+001  6.6818e-001 21517 114013,114117,114039
 1.2000e+000 114261 -4.1573e+000 -2.4556e+001  1.0914e+000 21517 113961,114117,114013
 1.2000e+000 114238 -8.2002e+000 -2.6848e+001 -3.2287e-001 21517 113961,114013,113987
 1.2000e+000 114215 -1.1165e+001 -2.7408e+001 -1.4694e+000 21517 114039,114117,114091
 1.2000e+000 114192 -8.4065e-001 -2.5853e+001 -8.3752e-001 21517 113961,114143,114117
 1.2000e+000 114169  2.1366e+000 -2.3479e+001 -2.4884e+000 21517 114039,114091,114065
 1.2000e+000 114581 -5.8104e+000 -3.6488e+001 -3.4426e-001 21027 114359,114463,114437
 1.2000e+000 114558 -6.4883e+000 -3.4564e+001  3.4474e+000 21027 114333,114463,114359
 1.2000e+000 114535 -5.1869e+000 -3.6276e+001 -5.1721e-001 21027 114359,114437,114385
 1.2000e+000 114512 -6.3769e+000 -3.5194e+001  1.2206e+000 21027 114307,114463,114333
 1.2000e+000 114489  8.7195e-001 -3.1715e+001 -2.5621e+000 21027 114385,114437,114411
 1.2000e+000 114912 -1.0911e+001 -2.7407e+001  4.7199e-002 20623 114713,114791,114765
 1.2000e+000 114889 -2.1773e+000 -2.3743e+001 -3.4693e+000 20623 114687,114791,114713
 1.2000e+000 114866 -8.0706e+000 -3.4340e+001 -4.1634e-001 20623 114687,114817,114791
 1.2000e+000 114843 -1.4751e+001 -3.0708e+001  1.6685e+000 20623 114713,114765,114739
 1.2000e+000 115290 -4.4236e+000 -2.6343e+001  6.6126e-001 20375 115313,115146,115094
 1.2000e+000 115267 -5.0594e+000 -2.3804e+001  1.1221e+000 20375 115313,115094,115042
 1.2000e+000 115244 -5.8926e+000 -2.7708e+001  3.2898e-001 20375 115385,115016,115172
 1.2000e+000 115221  2.2114e+000 -2.1033e+001  8.4250e-001 20375 115042,115094,115068
 1.2000e+000 115198 -5.2110e+000 -2.9169e+001  1.5311e+000 20375 115094,115146,115120
 1.2000e+000 115339 -4.4698e+000 -2.6944e+001  2.9438e-001 20375 115172,115146,115313
 1.2000e+000 115362 -4.0862e+000 -2.6836e+001  7.9999e-001 20375 115385,115172,115313
 1.2000e+000 115411 -8.1260e+000 -2.7261e+001 -9.0271e-001 20375 115042,115016,115385
 1.2000e+000 115434 -6.6937e+000 -2.6297e+001 -2.7609e-001 20375 115042,115385,115313
 1.2000e+000 115891 -6.1436e+000 -2.0082e+001  1.6421e+000 19971 115617,115747,115643
 1.2000e+000 115868 -4.2643e+000 -1.5388e+001  1.3028e+000 19971 115617,115773,115747
 1.2000e+000 115845 -1.1020e+000 -2.7954e+001  1.8141e-001 19971 115643,115721,115695
 1.2000e+000 115822  5.5998e+000 -1.3634e+001 -1.5975e+000 19971 115643,115747,115721
 1.2000e+000 115799  4.2029e+000 -2.9378e+001 -6.9021e-001 19971 115643,115695,115669
 1.2000e+000 115992 -8.3946e+000 -4.8085e+001 -1.5259e+001 19659 115914,115966,115940
 1.2000e+000 116142  7.2454e+000  6.4156e-001 -6.6311e-001 18997 116041,116093,116067
 1.2000e+000 116119  1.9354e+000 -1.2903e+001  6.5981e-001 18997 116015,116093,116041
 1.2000e+000 116343  2.5407e+000 -2.4526e+001 -1.0138e+000 18707 116193,116245,116219
 1.2000e+000 116320  1.1901e+000 -2.4288e+001 -5.2208e-002 18707 116193,116271,116245
 1.2000e+000 116297  5.2007e-001 -2.3062e+001 -2.8011e+000 18707 116167,116271,116193
 1.2000e+000 116747 -7.3676e-001 -2.2677e+001 -5.8447e-001 18301 116525,116629,116551
 1.2000e+000 116724 -1.3082e+000 -1.9312e+001 -1.9395e-001 18301 116473,116629,116525
 1.2000e+000 116701 -1.0601e+000 -2.0729e+001 -2.5373e+000 18301 116473,116525,116499
 1.2000e+000 116678  4.3028e-001 -2.3527e+001 -3.8662e-001 18301 116551,116603,116577
 1.2000e+000 116655 -1.6614e+000 -2.4852e+001 -9.9391e-001 18301 116551,116629,116603
 1.2000e+000 117147 -1.7411e+001 -3.6613e+001 -2.3667e-002 17747 116899,117029,116925
 1.2000e+000 117124 -1.3518e+001 -3.0683e+001  2.2150e+000 17747 116873,117029,116899
 1.2000e+000 117101 -1.5326e+001 -3.2855e+001  8.3115e-001 17747 116925,117029,116951
 1.2000e+000 117078 -1.3929e+001 -2.7752e+001  2.0559e+000 17747 116951,117029,117003
 1.2000e+000 117055 -2.0381e+001 -3.4048e+001 -5.2903e-001 17747 116951,117003,116977
 1.2000e+000 117368  4.2163e+000 -2.4796e+001  8.2067e-001 17293 117244,117296,117270
 1.2000e+000 117345  8.2614e-001 -2.6247e+001 -2.0728e-001 17293 117192,117296,117244
 1.2000e+000 117322 -1.4815e+000 -2.4283e+001 -2.8691e-001 17293 117192,117244,117218
 1.2000e+000 117699  6.9888e+000 -1.5327e+001 -4.5725e+000 16896 117526,117604,117552
 1.2000e+000 117676 -8.7343e+000 -2.9018e+001  1.2543e+000 16896 117500,117604,117526
 1.2000e+000 117653 -1.0323e+001 -2.2108e+001 -2.5810e+000 16896 117552,117604,117578
 1.2000e+000 117630 -5.0930e+000 -3.6102e+001  3.9182e+000 16896 117474,117604,117500
 1.2000e+000 117849 -3.5364e+001 -6.7140e+001 -2.9827e+000 16534 117722,117774,117748
 1.2000e+000 117826 -2.8398e+001 -8.4403e+001 -1.1904e+001 16534 117722,117800,117774
 1.2000e+000 118070 -3.4077e+000 -2.4801e+001  2.1083e+000 16194 117946,117998,117972
 1.2000e+000 118047 -5.5997e+000 -2.8053e+001  1.1571e+000 16194 117894,117998,117946
 1.2000e+000 118024 -8.0749e+000 -2.6773e+001 -1.5527e-001 16194 117894,117946,117920
 1.2000e+000 118173 -6.0150e+000 -3.7559e+001  0.0000e+000 15968 118095,118147,118121
 1.2000e+000 118276 -7.0694e+000 -2.8680e+001 -1.8578e-002 15433 118299,118198,118250
 1.2000e+000 118325 -6.9982e+000 -2.8514e+001 -2.0195e-002 15433 118224,118198,118299
 1.2000e+000 118450 -1.5381e+001 -3.6705e+001  9.8260e+000 421 118372,118424,118398
 1.3000e+000 69891  3.2183e+000 -5.5185e+001  2.9142e+000 68988 69447,69681,69629
 1.3000e+000 69868  3.3010e+001 -4.2744e+001  2.8722e+000 68988 69421,69681,69447
 1.3000e+000 69845  1.0908e+001 -2.6815e+001  2.5509e+000 68988 69447,69629,69577
 1.3000e+000 69822 -7.2328e+000 -5.4457e+001 -5.2763e+000 68988 69447,69577,69473
 1.3000e+000 69799  2.3529e+001 -7.0970e+001  2.4165e+001 68988 69629,69681,69655
 1.3000e+000 69776 -9.1565e+000 -3.5110e+001  1.1743e+000 68988 69577,69629,69603
 1.3000e+000 69753 -1.1280e+000 -5.3263e+001 -1.2978e+001 68988 69473,69577,69551
 1.3000e+000 69730  5.6143e+000 -1.0149e+002 -8.9592e+000 68988 69473,69551,69525
 1.3000e+000 69707 -8.6427e+000 -7.0145e+001 -2.7118e-001 68988 69473,69525,69499
 1.3000e+000 69992 -2.2649e+001 -6.4957e+001 -1.4580e+001 68676 69914,69966,69940
 1.3000e+000 70392 -7.2164e-001 -2.7354e+001  1.9046e+000 68478 70118,70248,70144
 1.3000e+000 70369  1.8807e+001 -2.5052e+001  7.8023e+000 68478 70118,70274,70248
 1.3000e+000 70346  1.1898e+001 -2.1675e+001 -1.6872e+000 68478 70144,70222,70196
 1.3000e+000 70323  1.6513e+001 -9.4100e+000 -5.2222e+000 68478 70144,70248,70222
 1.3000e+000 70300  1.2242e+001 -2.2827e+001 -1.6050e+000 68478 70144,70196,70170
 1.3000e+000 70841  1.8993e+001 -1.6392e+001 -7.8333e+000 68280 70570,70622,70596
 1.3000e+000 70818 -4.0906e+000 -1.9712e+001 -1.4451e+000 68280 70544,70622,70570
 1.3000e+000 70795 -4.1156e-001 -1.2118e+001 -3.0891e-001 68280 70544,70674,70622
 1.3000e+000 70772 -1.7678e+000 -6.7491e+000  3.3325e+000 68280 70622,70674,70648
 1.3000e+000 70749 -3.5419e+000 -2.4405e+001  3.3182e+000 68280 70518,70674,70544
 1.3000e+000 70726  3.2311e+001 -2.5969e+001  1.4005e+001 68280 70518,70700,70674
 1.3000e+000 70991 -1.6501e+000 -1.6364e+002  4.5097e+000 67968 70864,70916,70890
 1.3000e+000 70968 -3.9873e+001 -1.6462e+002  1.5760e+001 67968 70864,70942,70916
 1.3000e+000 71141 -5.9168e+001 -1.2358e+002 -4.1363e+000 67770 71040,71092,71066
 1.3000e+000 71118 -5.4940e+001 -1.4382e+002  5.6770e+000 67770 71014,71092,71040
 1.3000e+000 71651  5.0588e+000 -2.0793e+001 -1.1225e+000 67366 71746,71674,71458
 1.3000e+000 71628  5.8914e+000 -1.2585e+001 -1.5350e+000 67366 71674,71354,71510
 1.3000e+000 71605  3.0918e+000 -2.6947e+001  3.9002e-001 67366 71746,71458,71432
 1.3000e+000 71582 -5.0794e+000 -3.1220e+001  2.1590e+000 67366 71354,71432,71380
 1.3000e+000 71559 -2.5191e+000 -1.7103e+001 -4.5620e+000 67366 71380,71432,71406
 1.3000e+000 71536  2.9439e+000  3.9611e+000  4.1535e+000 67366 71328,71510,71354
 1.3000e+000 71700  9.5814e+000 -1.3632e+001 -3.5143e+000 67366 71484,71458,71674
 1.3000e+000 71723  4.7617e+000 -1.4776e+001 -4.3626e-001 67366 71484,71674,71510
 1.3000e+000 71772  2.5097e+000 -1.3454e+001 -1.6864e+000 67366 71354,71674,71746
 1.3000e+000 71795  2.7880e+000 -1.7415e+001 -1.3707e+000 67366 71354,71746,71432
 1.3000e+000 71896 -6.4843e+000 -6.8501e+001  0.0000e+000 67146 71818,71870,71844
 1.3000e+000 71997 -8.6008e+001 -1.5329e+002  3.3444e+001 66948 71919,71971,71945
 1.3000e+000 72149  8.6538e+000 -3.5279e+001 -5.6995e+000 66700 72172,72074,72048
 1.3000e+000 72126 -4.6944e+000 -4.0506e+001 -2.5988e+000 66700 72172,72048,72022
 1.3000e+000 72198 -1.3434e+001 -4.5518e+001  2.8973e+000 66700 72244,72172,72100
 1.3000e+000 72221 -1.2299e+001 -4.1271e+001 -3.8993e+000 66700 72100,72172,72022
 1.3000e+000 72270 -2.0157e+000 -2.0181e+001 -3.8812e+000 66700 72074,72172,72244
 1.3000e+000 72623 -2.8555e+000 -3.4041e+001  9.5020e-001 66502 72424,72502,72450
 1.3000e+000 72600 -8.7597e-001 -2.7633e+001 -4.1918e-002 66502 72398,72502,72424
 1.3000e+000 72577  3.7929e+000 -3.2231e+001 -1.3086e+000 66502 72398,72528,72502
 1.3000e+000 72554 -2.4028e+000 -2.9823e+001 -3.4075e-001 66502 72450,72502,72476
 1.3000e+000 72920 -1.5508e+001 -4.0753e+001  2.1612e+000 65941 72672,72776,72750
 1.3000e+000 72897 -1.5780e+001 -3.1427e+001  6.8537e+000 65941 72646,72776,72672
 1.3000e+000 72874 -1.1188e+001 -4.0071e+001  3.4972e+000 65941 72672,72750,72724
 1.3000e+000 72851 -1.4850e+001 -3.0811e+001  7.7043e+000 65941 72672,72724,72698
 1.3000e+000 72828 -1.0304e+001 -2.4712e+001  4.1070e+000 65941 72646,72802,72776
 1.3000e+000 73241  4.8178e+000 -3.0249e+001 -1.4328e+000 65743 73264,73071,73045
 1.3000e+000 73218 -3.3339e-001 -3.6842e+001  4.4230e+000 65743 73480,73264,73045
 1.3000e+000 73195  5.2309e+000 -2.6844e+001 -6.7801e-001 65743 73336,72967,73097
 1.3000e+000 73172 -1.3588e+000 -2.4540e+001 -2.4572e+000 65743 73408,72993,72967
 1.3000e+000 73149  5.3943e+000 -2.7012e+001 -7.5213e-001 65743 72967,73123,73097
 1.3000e+000 73290  6.8441e+000 -2.4996e+001 -7.4395e-001 65743 73097,73071,73264
 1.3000e+000 73313  5.7295e+000 -2.6193e+001 -2.3801e-001 65743 73336,73097,73264
 1.3000e+000 73362  1.5221e+000 -2.7744e+001 -1.5179e+000 65743 73408,72967,73336
 1.3000e+000 73385  7.7733e+000 -2.5293e+001 -7.1142e-002 65743 73019,73336,73264
 1.3000e+000 73434  3.3885e+000 -1.5808e+001  9.9424e-001 65743 73019,72993,73408
 1.3000e+000 73457  7.7478e+000 -2.1666e+001  1.1420e+000 65743 73019,73408,73336
 1.3000e+000 73506  1.1524e+001 -1.2724e+001  3.4852e-001 65743 73019,73264,73480
 1.3000e+000 73989  9.8407e+000 -1.4762e+001  3.4621e+000 65453 73793,73845,73819
 1.3000e+000 73966 -3.1282e+000 -1.7429e+001  4.6184e+000 65453 73741,73845,73793
 1.3000e+000 73943  6.7677e+000 -1.1588e+001  2.1905e+000 65453 73715,73845,73741
 1.3000e+000 73920  9.2554e-001 -1.7157e+001  7.4633e+000 65453 73741,73793,73767
 1.3000e+000 73897  9.6598e+000  8.5662e-001  3.3797e+000 65453 73715,73871,73845
 1.3000e+000 74357 -8.4697e+000 -3.9045e+001 -1.0962e+001 65141 74380,74138,74086
 1.3000e+000 74334 -1.3137e+001 -5.0747e+001 -1.0120e+001 65141 74380,74086,74060
 1.3000e+000 74311 -1.6026e+001 -4.4369e+001 -2.3534e+000 65141 74138,74190,74164
 1.3000e+000 74288  4.4918e+000 -5.4227e+001 -4.1055e+000 65141 74060,74216,74190
 1.3000e+000 74265  2.1678e+000 -6.1001e+001  7.8810e-001 65141 74034,74216,74060
 1.3000e+000 74242 -9.9567e+000 -2.6172e+001 -5.1470e+000 65141 74086,74138,74112
 1.3000e+000 74406 -9.3188e+000 -4.8510e+001 -5.4849e+000 65141 74190,74138,74380
 1.3000e+000 74429 -1.1261e+001 -5.3027e+001 -5.3547e+000 65141 74190,74380,74060
 1.3000e+000 74937 -1.0921e+001 -3.3621e+001 -1.0428e+001 64737 74614,74666,74640
 1.3000e+000 74914 -1.5266e+001 -3.9305e+001 -8.4526e+000 64737 74614,74796,74666
 1.3000e+000 74891 -8.5737e+000 -2.4014e+001 -2.1186e+000 64737 74960,74718,74666
 1.3000e+000 74868 -5.2428e+000 -2.7399e+001 -5.6668e+000 64737 74960,74666,74770
 1.3000e+000 74845 -5.9250e+000 -1.8364e+001 -6.0567e+000 64737 74666,74796,74770
 1.3000e+000 74822 -8.4664e+000 -2.4965e+001 -1.5331e+000 64737 74666,74718,74692
 1.3000e+000 74986 -1.0636e+001 -2.7566e+001 -1.1575e+000 64737 74744,74718,74960
 1.3000e+000 75009 -7.5959e+000 -3.2508e+001 -4.6341e+000 64737 74744,74960,74770
 1.3000e+000 75306  1.6289e+001 -1.6215e+001  8.9275e+000 64133 75329,75110,75084
 1.3000e+000 75283  4.2932e+000 -2.9227e+001  2.3260e+000 64133 75401,75329,75084
 1.3000e+000 75260  2.5848e+000 -2.9288e+001  1.2667e+000 64133 75401,75084,75058
 1.3000e+000 75237  1.1004e+001 -3.2263e+001  3.6443e+000 64133 75473,75136,75110
 1.3000e+000 75214  1.5685e+001 -3.2118e+001 -1.9816e+000 64133 75032,75188,75162
 1.3000e+000 75355  1.0581e+001 -3.0823e+001  3.2780e+000 64133 75473,75110,75329
 1.3000e+000 75378  1.1372e+001 -2.9628e+001 -1.9430e+000 64133 75162,75329,75032
 1.3000e+000 75427  1.4024e+001 -2.3988e+001 -1.6036e-001 64133 75032,75329,75401
 1.3000e+000 75450 -3.4391e+000 -3.4424e+001  6.3056e+000 64133 75545,75401,75058
 1.3000e+000 75499  8.9955e+000 -3.0315e+001  7.9693e-001 64133 75162,75136,75473
 1.3000e+000 75522  9.8138e+000 -2.6480e+001  1.2768e+000 64133 75162,75473,75329
 1.3000e+000 75571  9.0282e+000 -8.0970e+000 -5.4592e-001 64133 75032,75401,75545
 1.3000e+000 75851 -6.5849e+000 -2.9835e+001  6.0062e+000 63843 75874,75753,75727
 1.3000e+000 75828 -9.3983e-001 -2.3350e+001  1.3800e+000 63843 75946,75874,75727
 1.3000e+000 75805 -6.2212e+000 -2.3379e+001  1.3211e+000 63843 76018,75946,75727
 1.3000e+000 75900  8.5051e-001 -2.6703e+001  1.3835e+000 63843 75779,75753,75874
 1.3000e+000 75923 -6.7297e-001 -1.8551e+001 -4.1674e+000 63843 75779,75874,75675
 1.3000e+000 75972 -7.3570e+000 -2.5839e+001 -6.3922e-002 63843 75675,75874,75946
 1.3000e+000 75995 -7.0300e+000 -2.4221e+001 -3.8700e-002 63843 75675,75946,75701
 1.3000e+000 76044 -8.2393e+000 -2.6291e+001 -1.2642e+000 63843 75701,75946,76018
 1.3000e+000 76454  3.0542e+001  5.0814e-001 -3.0504e+000 63439 76477,76255,76229
 1.3000e+000 76431  2.4077e+001 -7.1872e+000  3.6704e+000 63439 76477,76229,76359
 1.3000e+000 76408 -5.0355e+000 -9.0120e+000  7.0601e+000 63439 76307,76359,76333
 1.3000e+000 76385  1.0173e+001 -4.0441e+000  7.6791e+000 63439 76255,76307,76281
 1.3000e+000 76503  1.9363e+001 -7.1947e+000  1.0183e+000 63439 76307,76255,76477
 1.3000e+000 76526  2.1947e+001 -9.0249e+000  6.4015e+000 63439 76307,76477,76359
 1.3000e+000 76926  1.9178e+000 -2.9257e+001  1.1812e-001 63049 76704,76782,76756
 1.3000e+000 76903 -3.0078e+000 -3.0913e+001 -1.5955e+000 63049 76704,76808,76782
 1.3000e+000 76880  2.8312e+000 -3.4990e+001  1.1064e+000 63049 76704,76756,76730
 1.3000e+000 76857  1.2012e+001 -1.6020e+001  4.6417e+000 63049 76678,76808,76704
 1.3000e+000 76834  2.3390e+001  3.2060e+001 -1.3640e+001 63049 76652,76808,76678
 1.3000e+000 77076  8.6087e+000 -3.0101e+001 -5.8791e-001 62737 76975,77027,77001
 1.3000e+000 77053  1.0430e+001 -3.2843e+001 -2.1453e+000 62737 76949,77027,76975
 1.3000e+000 77324 -5.2000e-002 -2.8734e+001 -9.1539e-001 62277 77347,77177,77125
 1.3000e+000 77301  6.7034e-001 -2.8167e+001 -1.3658e+000 62277 77347,77125,77229
 1.3000e+000 77278  7.7376e+000 -3.2611e+001 -4.7927e+000 62277 77099,77229,77125
 1.3000e+000 77255  4.4316e+000 -4.1155e+001 -1.5250e+000 62277 77125,77177,77151
 1.3000e+000 77373 -2.0555e-001 -3.0130e+001  2.6306e-001 62277 77203,77177,77347
 1.3000e+000 77396  1.8739e+000 -2.8683e+001 -4.4892e-001 62277 77203,77347,77229
 1.3000e+000 77857  1.1284e-002 -4.1922e+001  1.3392e+000 61758 77635,77739,77661
 1.3000e+000 77834 -1.9995e+000 -4.2564e+001  3.1150e-001 61758 77583,77739,77635
 1.3000e+000 77811 -4.2288e+000 -5.4326e+001 -3.0706e+000 61758 77583,77635,77609
 1.3000e+000 77788  9.2400e+000 -4.0598e+001  6.2437e+000 61758 77661,77713,77687
 1.3000e+000 77765 -1.9735e+000 -4.7938e+001  1.0267e+000 61758 77661,77739,77713
 1.3000e+000 78491 -7.3377e+000 -2.6395e+001 -5.9574e-001 61418 78171,78301,78249
 1.3000e+000 78468 -7.0233e-001 -1.9505e+001  2.2861e+000 61418 78145,78301,78171
 1.3000e+000 78445  7.6265e+000 -1.7948e+001 -4.7225e+000 61418 78171,78249,78223
 1.3000e+000 78422 -5.1405e+000 -2.1478e+001  4.0249e+000 61418 78145,78327,78301
 1.3000e+000 78399 -5.0414e+000 -2.4616e+001 -4.0337e+000 61418 78249,78301,78275
 1.3000e+000 78376  1.5483e+000 -3.1188e+001 -1.1498e+000 61418 78171,78223,78197
 1.3000e+000 78353 -8.8442e+000 -9.2305e+000  6.0219e+000 61418 78119,78327,78145
 1.3000e+000 78690  6.2444e-001 -4.1431e+001 -2.2421e+000 61014 78713,78566,78540
 1.3000e+000 78667 -1.9594e+000 -4.3979e+001 -1.1157e+000 61014 78713,78540,78618
 1.3000e+000 78644 -1.5570e+001 -5.3235e+001 -8.6629e+000 61014 78514,78618,78540
 1.3000e+000 78739 -4.9887e-001 -4.0297e+001 -2.9747e+000 61014 78592,78566,78713
 1.3000e+000 78762 -6.1990e+000 -4.1682e+001 -2.8463e+000 61014 78785,78713,78618
 1.3000e+000 78811  1.4154e+000 -3.8858e+001 -4.1724e+000 61014 78592,78713,78785
 1.3000e+000 79398  5.0400e+000 -3.4499e+001 -3.3451e-001 60624 79101,79179,79153
 1.3000e+000 79375 -4.4890e-001 -3.8488e+001  1.4078e+000 60624 79101,79231,79179
 1.3000e+000 79352  1.6240e+001 -3.1377e+001  2.4454e+000 60624 79075,79231,79101
 1.3000e+000 79329 -5.8342e+000 -4.6568e+001  9.6807e+000 60624 79075,79257,79231
 1.3000e+000 79306 -3.3696e-001 -3.2128e+001 -6.2178e+000 60624 79179,79231,79205
 1.3000e+000 79283  3.7602e+000 -3.6521e+001 -5.5757e+000 60624 79101,79153,79127
 1.3000e+000 79776 -1.2567e+001 -4.4051e+001  4.7099e+000 60070 79528,79658,79606
 1.3000e+000 79753 -1.1099e+001 -3.5771e+001  1.1885e+000 60070 79502,79658,79528
 1.3000e+000 79730 -1.5244e+001 -3.8867e+001  9.0255e+000 60070 79528,79606,79580
 1.3000e+000 79707 -4.5196e+000 -3.8918e+001  2.2479e+000 60070 79606,79658,79632
 1.3000e+000 79684 -1.7674e+000 -2.2627e+001 -5.9831e+000 60070 79528,79580,79554
 1.3000e+000 80105 -1.3582e+001 -3.7648e+001  3.7708e+000 59758 80128,79958,79906
 1.3000e+000 80082 -1.2383e+001 -3.7228e+001  3.6148e+000 59758 80128,79906,80010
 1.3000e+000 80059 -2.2015e+001 -5.1212e+001  9.1784e+000 59758 79906,79958,79932
 1.3000e+000 80036 -1.8424e+001 -3.2789e+001  5.7756e+000 59758 79880,80010,79906
 1.3000e+000 80154 -1.2947e+001 -3.7995e+001  4.3261e+000 59758 79984,79958,80128
 1.3000e+000 80177 -1.2067e+001 -3.7746e+001  4.2756e+000 59758 79984,80128,80010
 1.3000e+000 80376 -4.7112e+000 -4.6344e+001  5.7117e-001 59312 80226,80304,80252
 1.3000e+000 80353 -5.1479e-001 -5.0250e+001  1.7272e+000 59312 80200,80304,80226
 1.3000e+000 80330 -1.0116e+001 -3.9943e+001  1.0616e+001 59312 80252,80304,80278
 1.3000e+000 80805  2.3104e-001 -1.5976e+001 -2.2906e+000 58908 80900,80828,80638
 1.3000e+000 80782 -4.5044e+000 -2.3190e+001 -4.8179e+000 58908 80828,80560,80508
 1.3000e+000 80759  1.9913e-001 -1.5538e+001 -1.6508e+000 58908 80900,80638,80612
 1.3000e+000 80736  4.5095e+000 -1.3777e+001  1.5101e+001 58908 80482,80664,80508
 1.3000e+000 80713  1.7771e+000 -1.7747e+001 -5.2004e-003 58908 80560,80612,80586
 1.3000e+000 80690  1.1621e+001 -5.0522e+001 -2.2604e+001 58908 80508,80560,80534
 1.3000e+000 80854  7.1335e+000 -1.9630e+001  3.7880e+000 58908 80664,80638,80828
 1.3000e+000 80877  1.3952e+000 -3.1469e+001  2.0260e+000 58908 80664,80828,80508
 1.3000e+000 80926  4.4788e-001 -1.4764e+001 -2.2129e+000 58908 80560,80828,80900
 1.3000e+000 80949  3.2943e-001 -1.4676e+001 -1.4802e+000 58908 80560,80900,80612
 1.3000e+000 81246  7.5688e+000 -1.7541e+001  3.6578e-001 58482 81076,81128,81102
 1.3000e+000 81223 -1.3205e+000 -3.4935e+001 -3.8898e+000 58482 80972,81128,81076
 1.3000e+000 81200  3.3146e+000 -2.1608e+001 -4.6649e+000 58482 80972,81076,81050
 1.3000e+000 81177 -1.1919e+000 -3.0301e+001 -5.2852e+000 58482 80998,81050,81024
 1.3000e+000 81154  9.2993e-001 -2.0912e+001 -6.6713e+000 58482 80972,81050,80998
 1.3000e+000 81754 -5.7809e+000 -1.7774e+001  3.0449e+000 57828 81457,81613,81483
 1.3000e+000 81731 -5.7741e+000 -1.6410e+001  1.3966e+000 57828 81431,81613,81457
 1.3000e+000 81708 -6.6054e+000 -1.9649e+001  4.2940e+000 57828 81483,81613,81509
 1.3000e+000 81685 -8.6427e+000 -2.0572e+001  5.1093e+000 57828 81509,81613,81587
 1.3000e+000 81662 -7.6179e+000 -3.3730e+001  9.7938e+000 57828 81509,81587,81535
 1.3000e+000 81639  6.2436e+000 -2.3681e+001  4.5878e+000 57828 81535,81587,81561
 1.3000e+000 82002 -9.0569e+000 -5.0276e+001 -1.3135e+000 57374 82025,81855,81829
 1.3000e+000 81979 -7.2715e+000 -4.4202e+001  2.8337e+000 57374 82025,81829,81907
 1.3000e+000 81956 -1.0633e+001 -4.7358e+001  1.1255e+000 57374 81803,81907,81829
 1.3000e+000 81933 -7.2587e+000 -4.5092e+001  2.2766e+000 57374 81777,81907,81803
 1.3000e+000 82051 -1.5787e+001 -4.3662e+001  9.3522e-001 57374 81881,81855,82025
 1.3000e+000 82074 -6.7951e+000 -3.4834e+001  7.3877e+000 57374 81881,82025,81907
 1.3000e+000 82356  2.0822e+000 -1.8118e+001 -1.2562e+000 56913 82180,82232,82206
 1.3000e+000 82333  3.3635e-001 -2.3615e+001  1.2258e+000 56913 82180,82284,82232
 1.3000e+000 82310  1.2790e+001 -1.8778e+001  5.4110e+000 56913 82379,82232,82284
 1.3000e+000 82405  3.3052e+001 -5.1989e+000  1.6613e+001 56913 82258,82232,82379
 1.3000e+000 82764 -1.3842e+000 -7.1199e+000 -1.8782e+000 56523 82614,82666,82640
 1.3000e+000 82741 -3.3841e+000 -8.1518e+000 -8.9718e-001 56523 82614,82692,82666
 1.3000e+000 82718  1.0061e+001 -6.5108e+000 -6.3072e+000 56523 82588,82692,82614
 1.3000e+000 83368  6.3800e-001 -4.3322e+001 -1.1680e+000 55969 82973,83155,83129
 1.3000e+000 83345  5.7635e+000 -4.1390e+001 -2.9397e+000 55969 82973,83181,83155
 1.3000e+000 83322 -1.6207e+000 -3.5536e+001 -2.4261e+000 55969 82973,83129,82999
 1.3000e+000 83299 -1.9115e+001 -4.6063e+001  3.9126e+000 55969 83391,83025,82999
 1.3000e+000 83276 -1.3571e+001 -4.1943e+001  1.6449e+000 55969 83391,82999,83129
 1.3000e+000 83253  3.4218e+000 -3.3705e+001  7.2921e+000 55969 83077,83129,83103
 1.3000e+000 83230 -1.9307e+001 -3.2162e+001 -6.2173e+000 55969 83025,83077,83051
 1.3000e+000 83207  2.2663e+001 -3.4230e+001 -3.1302e+000 55969 82947,83181,82973
 1.3000e+000 83417 -1.3170e+001 -4.5640e+001  1.2462e+000 55969 83077,83025,83391
 1.3000e+000 83440 -1.0817e+001 -4.4393e+001 -4.6882e-001 55969 83077,83391,83129
 1.3000e+000 83946 -1.2075e+001 -4.4899e+001  8.7877e+000 55771 83969,83779,83727
 1.3000e+000 83923 -7.7255e+000 -3.6238e+001  5.5381e+000 55771 83969,83727,83623
 1.3000e+000 83900 -1.5401e+001 -1.8785e+001  4.7949e+000 55771 83623,83727,83649
 1.3000e+000 83877  9.0859e+000 -5.7354e+001  1.2167e+001 55771 83727,83779,83753
 1.3000e+000 83854 -1.9423e+001 -3.2415e+001  1.5933e+001 55771 83675,83727,83701
 1.3000e+000 83831 -3.1284e+001 -3.3410e+001  1.6038e+001 55771 83649,83727,83675
 1.3000e+000 83995 -1.0582e+001 -4.6497e+001 -2.2244e+000 55771 83805,83779,83969
 1.3000e+000 84018 -1.1111e+000 -2.8837e+001 -6.4773e+000 55771 83805,83969,83623
 1.3000e+000 84168  3.0624e+000 -1.1880e+001  1.0292e+000 55367 84191,84067,84041
 1.3000e+000 84145  3.0170e+000 -1.1519e+001  1.0060e+000 55367 84191,84041,84119
 1.3000e+000 84217  3.0981e+000 -1.2077e+001  1.0147e+000 55367 84093,84067,84191
 1.3000e+000 84240  2.9061e+000 -1.1888e+001  8.8806e-001 55367 84093,84191,84119
 1.3000e+000 84571 -1.0056e+001 -3.4499e+001 -3.7560e+000 54913 84398,84450,84424
 1.3000e+000 84548 -8.5185e+000 -3.2793e+001 -2.8774e+000 54913 84372,84450,84398
 1.3000e+000 84525 -1.2152e+001 -3.6598e+001  4.5228e-001 54913 84346,84450,84372
 1.3000e+000 84502 -6.4286e+000 -2.3324e+001 -3.4648e+000 54913 84346,84476,84450
 1.3000e+000 85126 -1.8551e+001 -4.5711e+001 -3.1678e+000 54402 84858,84936,84910
 1.3000e+000 85103 -1.1744e+001 -2.9514e+001 -2.9767e+000 54402 84806,84936,84858
 1.3000e+000 85080 -1.5470e+001 -2.9460e+001 -3.1765e+000 54402 84780,84936,84806
 1.3000e+000 85057 -1.3020e+001 -3.2390e+001 -1.3638e+000 54402 84806,84858,84832
 1.3000e+000 85034 -1.4026e+001 -2.8217e+001 -2.7096e-001 54402 84780,84962,84936
 1.3000e+000 85011 -1.2894e+001 -2.0483e+001  1.3570e+000 54402 84858,84910,84884
 1.3000e+000 84988 -1.1740e+001 -2.2490e+001  1.2290e-001 54402 84754,84962,84780
 1.3000e+000 85396 -3.1074e-001 -1.0387e+001 -9.2610e-001 53998 85197,85249,85223
 1.3000e+000 85373 -1.9144e-001 -1.2086e+001 -4.5467e-001 53998 85197,85275,85249
 1.3000e+000 85350 -4.0882e+000 -1.6129e+001 -2.0413e+000 53998 85171,85275,85197
 1.3000e+000 85327  6.1253e+000 -1.2958e+001 -2.9558e+000 53998 85171,85301,85275
 1.3000e+000 85749 -8.6167e-001 -4.4198e+001 -3.0315e+000 53636 85524,85628,85550
 1.3000e+000 85726 -8.2704e+000 -4.7804e+001 -6.9947e-001 53636 85524,85654,85628
 1.3000e+000 85703  5.8550e-001 -4.8653e+001  1.0680e+000 53636 85550,85602,85576
 1.3000e+000 85680  1.3218e+001 -3.7862e+001 -4.5691e+000 53636 85550,85628,85602
 1.3000e+000 86127  3.4662e-001 -4.0530e+001  6.1863e+000 52982 86150,85957,85879
 1.3000e+000 86104 -4.8600e+000 -4.4030e+001  4.6642e+000 52982 86150,85879,85853
 1.3000e+000 86081  3.9245e+000 -4.2377e+001  1.2607e+001 52982 85957,86009,85983
 1.3000e+000 86058 -1.0556e+001 -4.3526e+001  5.6059e+000 52982 85879,85957,85931
 1.3000e+000 86035 -3.6659e+000 -3.6167e+001  2.5917e-001 52982 85879,85931,85905
 1.3000e+000 86176  3.6391e+000 -4.4581e+001  5.4948e+000 52982 86009,85957,86150
 1.3000e+000 86199  5.5469e-001 -4.6796e+001  4.4368e+000 52982 86009,86150,85853
 1.3000e+000 86398  4.5284e+000 -1.3646e+001  2.8816e+000 52542 86421,86248,86222
 1.3000e+000 86375 -1.1775e+000 -1.5653e+001  2.4066e-001 52542 86421,86222,86300
 1.3000e+000 86352 -1.0234e+000 -1.6089e+001 -1.5351e-001 52542 86222,86326,86300
 1.3000e+000 86447  1.1069e+001 -1.4516e+001  6.2952e+000 52542 86274,86248,86421
 1.3000e+000 86470  5.0987e+000 -1.8200e+001  2.9001e+000 52542 86274,86421,86300
 1.3000e+000 86669  1.3051e+000 -1.3788e+001 -9.0452e+000 52230 86692,86571,86545
 1.3000e+000 86646 -1.0905e+000 -1.8353e+001 -5.1491e+000 52230 86692,86545,86519
 1.3000e+000 86623 -8.9184e+000 -1.1432e+001 -7.6229e-003 52230 86493,86597,86519
 1.3000e+000 86718 -1.5452e+000 -1.4041e+001 -4.4736e+000 52230 86597,86571,86692
 1.3000e+000 86741 -6.5962e+000 -1.9809e+001 -3.6731e-001 52230 86597,86692,86519
 1.3000e+000 87153 -1.1010e+001 -2.4532e+001 -8.4889e-001 51640 86980,87058,87032
 1.3000e+000 87130 -9.4938e+000 -2.5488e+001 -1.1933e+000 51640 86928,87058,86980
 1.3000e+000 87107 -6.4291e+000 -5.3659e+001 -1.5126e+001 51640 86928,86980,86954
 1.3000e+000 87084 -7.1058e+000 -2.2890e+001 -1.8977e+000 51640 86980,87032,87006
 1.3000e+000 87659 -8.4035e+000 -2.2650e+001  2.4162e+000 51029 87682,87440,87362
 1.3000e+000 87636 -1.1017e+001 -2.5167e+001 -1.6668e-001 51029 87682,87362,87336
 1.3000e+000 87613 -1.3510e+001 -3.9127e+001 -1.4657e+000 51029 87440,87518,87466
 1.3000e+000 87590 -1.3584e+001 -2.3890e+001  3.1835e+000 51029 87362,87440,87414
 1.3000e+000 87567 -1.3035e+001 -2.0969e+001  1.0721e+001 51029 87362,87414,87388
 1.3000e+000 87544 -1.4802e+001 -3.3052e+001 -9.1914e-001 51029 87466,87518,87492
 1.3000e+000 87708 -7.1975e+000 -2.6151e+001  4.7779e-001 51029 87518,87440,87682
 1.3000e+000 87731 -8.4841e+000 -2.9675e+001 -1.1723e+000 51029 87518,87682,87336
 1.3000e+000 87881 -7.4714e-002 -2.3744e+001  3.4658e-001 50739 87780,87832,87806
 1.3000e+000 87858  1.1974e+000 -2.0309e+001  4.1317e-001 50739 87754,87832,87780
 1.3000e+000 88468  8.7516e+000 -2.6912e+000 -2.2649e+000 50235 88171,88327,88197
 1.3000e+000 88445 -1.1340e+000 -6.1545e+000 -6.1587e+000 50235 88145,88327,88171
 1.3000e+000 88422  3.4388e+001 -1.4027e+000 -1.7221e+000 50235 88275,88327,88301
 1.3000e+000 88399  7.4867e+000 -1.2931e+001 -2.4733e+000 50235 88197,88327,88275
 1.3000e+000 88376  1.2435e+001 -6.5482e+000 -2.6608e-001 50235 88197,88275,88223
 1.3000e+000 88353  5.6446e+000 -1.7269e+001  3.1439e+000 50235 88223,88275,88249
 1.3000e+000 88895  1.7164e+000 -2.5736e+001  2.6163e+000 49873 88918,88728,88676
 1.3000e+000 88872  1.3221e+000 -2.6135e+001  2.8926e+000 49873 88918,88676,88624
 1.3000e+000 88849  1.1314e+000 -1.8524e+001  2.8899e+000 49873 88598,88754,88624
 1.3000e+000 88826  4.1519e+000 -2.3582e+001  9.6667e-001 49873 88624,88676,88650
 1.3000e+000 88803  3.8769e+000 -3.3765e+001  2.8833e+000 49873 88676,88728,88702
 1.3000e+000 88780  2.0104e+000 -1.9506e+001  2.2512e+000 49873 88572,88754,88598
 1.3000e+000 88944  1.2352e+000 -2.5806e+001  2.8579e+000 49873 88754,88728,88918
 1.3000e+000 88967  1.0830e+000 -2.5944e+001  3.0941e+000 49873 88754,88918,88624
 1.3000e+000 89473 -1.0413e+001 -2.7541e+001 -3.2264e+000 49583 89176,89306,89202
 1.3000e+000 89450 -5.2295e+000 -2.5066e+001 -4.0483e+000 49583 89176,89332,89306
 1.3000e+000 89427  9.6781e+000 -3.0231e+001  7.3628e-001 49583 89496,89228,89202
 1.3000e+000 89404  5.8676e+000 -2.8858e+001  3.2527e-001 49583 89496,89202,89280
 1.3000e+000 89381 -1.3852e+001 -3.9618e+001 -6.7676e+000 49583 89202,89306,89280
 1.3000e+000 89358 -1.2454e+001 -2.0451e+001 -5.2551e-002 49583 89150,89332,89176
 1.3000e+000 89522  4.6109e+000 -3.6937e+001 -1.7932e+000 49583 89254,89228,89496
 1.3000e+000 89545  4.6609e+000 -2.9766e+001 -9.6034e-002 49583 89254,89496,89280
 1.3000e+000 89825  6.3071e+000 -2.9077e+001  3.6124e-001 49179 89701,89753,89727
 1.3000e+000 89802  1.1685e+001 -2.1869e+001 -2.2112e+000 49179 89675,89753,89701
 1.3000e+000 89779  1.4728e+001 -1.9654e+001  5.6219e+000 49179 89848,89753,89675
 1.3000e+000 89874 -5.8159e+000 -3.0172e+001 -7.3512e-001 49179 89649,89753,89848
 1.3000e+000 90223 -3.1648e+000 -3.3473e+001 -6.2373e-001 48739 90024,90102,90076
 1.3000e+000 90200  1.1186e+000 -3.0320e+001  1.4506e+000 48739 90024,90128,90102
 1.3000e+000 90177  1.6224e+000 -3.2226e+001 -1.1120e+000 48739 90024,90076,90050
 1.3000e+000 90154 -1.2010e+000 -3.8360e+001  7.9679e-001 48739 89998,90128,90024
 1.3000e+000 90603 -1.0017e+001 -3.1637e+001  5.1298e+000 48335 90381,90485,90459
 1.3000e+000 90580 -1.4191e+001 -3.4600e+001  2.5042e+000 48335 90355,90485,90381
 1.3000e+000 90557 -1.2745e+000 -4.1696e+000  2.2465e+000 48335 90381,90433,90407
 1.3000e+000 90534 -6.9419e+000 -3.1926e+001  3.4887e+000 48335 90381,90459,90433
 1.3000e+000 90511  5.1247e+000 -2.0880e+001  1.0734e+001 48335 90329,90485,90355
 1.3000e+000 90753  1.3119e+001 -1.1428e+001  9.5205e+000 47824 90776,90652,90704
 1.3000e+000 90730  4.2299e+000 -2.6469e+001  4.8752e+000 47824 90626,90704,90652
 1.3000e+000 90802  2.4245e+000 -2.0331e+001  5.7040e+000 47824 90678,90652,90776
 1.3000e+000 91131 -4.0030e+000 -3.2807e+001  2.7011e+000 47427 91154,90958,90906
 1.3000e+000 91108 -1.3185e+001 -3.6787e+001  3.2829e+000 47427 91154,90906,91036
 1.3000e+000 91085 -7.5082e+000 -2.5980e+001 -2.0694e+000 47427 90958,91010,90984
 1.3000e+000 91062 -3.3812e+000 -2.3925e+001  3.3372e+000 47427 90906,90958,90932
 1.3000e+000 91180 -8.9025e+000 -3.0631e+001 -3.5340e+000 47427 91010,90958,91154
 1.3000e+000 91203 -1.7537e+001 -3.4323e+001 -3.0854e+000 47427 91010,91154,91036
 1.3000e+000 91583 -1.9967e+001 -4.2869e+001  2.2663e+000 46873 91309,91439,91335
 1.3000e+000 91560 -1.7615e+001 -3.8513e+001  1.1256e+000 46873 91309,91465,91439
 1.3000e+000 91537 -2.4972e+001 -5.2575e+001 -6.6391e+000 46873 91361,91439,91413
 1.3000e+000 91514 -1.5131e+001 -4.1360e+001 -1.1879e+000 46873 91335,91439,91361
 1.3000e+000 91491  1.9403e+001 -4.2641e+001 -8.1199e+000 46873 91361,91413,91387
 1.3000e+000 91880  1.6378e-001 -2.7888e+001 -2.1573e+000 46526 91606,91710,91658
 1.3000e+000 91857  1.1501e+000 -3.0639e+001 -7.5503e-002 46526 91606,91762,91710
 1.3000e+000 91834  5.9082e+000 -2.7837e+001 -6.8005e+000 46526 91606,91658,91632
 1.3000e+000 91811 -1.8073e+000 -2.3162e+001  5.3473e-001 46526 91658,91710,91684
 1.3000e+000 91788  5.5368e+000 -1.7617e+001  8.8554e-001 46526 91710,91762,91736
 1.3000e+000 92211  2.4809e+000 -1.4425e+001 -4.8648e-001 45700 91986,92064,92038
 1.3000e+000 92188 -9.3731e+000 -3.0384e+001  4.7395e+000 45700 91986,92116,92064
 1.3000e+000 92165  6.8355e+000 -9.9168e+000 -8.3417e+000 45700 91986,92038,92012
 1.3000e+000 92142 -9.5451e+000 -2.7975e+001  4.0207e+000 45700 92064,92116,92090
 1.3000e+000 92766 -1.8662e+001 -2.9399e+001 -1.8152e+000 45452 92446,92602,92576
 1.3000e+000 92743 -3.1535e+001 -3.0406e+001 -9.3566e+000 45452 92420,92602,92446
 1.3000e+000 92720 -2.1902e+001 -3.9116e+001  1.9125e+000 45452 92789,92524,92498
 1.3000e+000 92697 -2.5587e+001 -3.3543e+001  1.1353e+000 45452 92789,92498,92446
 1.3000e+000 92674 -2.4364e+001 -4.5217e+001 -6.1478e+000 45452 92524,92576,92550
 1.3000e+000 92651 -3.2525e+001 -3.2897e+001  1.5550e+001 45452 92446,92498,92472
 1.3000e+000 92628 -1.0447e+001 -2.3030e+001 -7.3963e+000 45452 92394,92602,92420
 1.3000e+000 92815 -1.8829e+001 -3.5255e+001  5.8119e-001 45452 92576,92524,92789
 1.3000e+000 92838 -2.2829e+001 -3.0598e+001 -2.6030e-002 45452 92576,92789,92446
 1.3000e+000 92939 -2.3738e+000 -3.3339e+001 -9.5801e+000 44998 92861,92913,92887
 1.3000e+000 93319 -1.8004e+000 -3.9995e+001  7.5375e+000 44601 93123,93201,93149
 1.3000e+000 93296 -5.7917e+000 -3.9040e+001  1.7811e+000 44601 93045,93201,93123
 1.3000e+000 93273  1.4306e+000 -2.5311e+001 -1.5086e+000 44601 93045,93123,93071
 1.3000e+000 93250  1.0357e+001 -2.6726e+001 -8.5492e+000 44601 93071,93123,93097
 1.3000e+000 93227  7.1374e-001 -2.2790e+001  7.7390e+000 44601 93149,93201,93175
 1.3000e+000 93697  1.5641e+000 -3.5373e+001  4.6656e-001 44026 93720,93553,93527
 1.3000e+000 93674  1.8748e+000 -3.1424e+001  1.5683e+000 44026 93720,93527,93449
 1.3000e+000 93651  1.0686e+000 -3.4722e+001  3.6545e+000 44026 93449,93527,93501
 1.3000e+000 93628 -6.5563e-001 -2.4553e+001 -3.9308e+000 44026 93423,93579,93449
 1.3000e+000 93605  9.1788e+000 -3.2741e+001  4.1890e+000 44026 93449,93501,93475
 1.3000e+000 93746 -6.4967e-001 -3.0952e+001  2.9865e-001 44026 93579,93553,93720
 1.3000e+000 93769  2.6403e-001 -2.6426e+001  1.6909e+000 44026 93579,93720,93449
 1.3000e+000 94066 -2.7229e+000 -2.8877e+001 -2.3152e+000 43579 94089,93818,93792
 1.3000e+000 94043 -1.1883e+000 -2.8748e+001 -2.4523e+000 43579 94161,94089,93792
 1.3000e+000 94020 -1.1943e+000 -2.8830e+001 -2.0336e+000 43579 94161,93792,93948
 1.3000e+000 93997  5.9903e-002 -2.5769e+001 -1.8380e+000 43579 94233,93870,93818
 1.3000e+000 93974  2.3306e+000 -2.8271e+001  7.9598e-001 43579 93818,93870,93844
 1.3000e+000 94115 -7.7870e-001 -2.5980e+001 -1.1155e+000 43579 94233,93818,94089
 1.3000e+000 94138 -6.6580e+000 -2.8902e+001 -2.9722e+000 43579 93896,94089,93922
 1.3000e+000 94187 -9.3252e-001 -2.8032e+001 -2.6368e+000 43579 93922,94089,94161
 1.3000e+000 94210 -1.0440e+000 -2.8112e+001 -2.1727e+000 43579 93922,94161,93948
 1.3000e+000 94259  3.6514e+000 -2.4241e+001 -5.0754e+000 43579 93896,93870,94233
 1.3000e+000 94282 -4.1097e-001 -2.6019e+001 -4.3130e+000 43579 93896,94233,94089
 1.3000e+000 94481 -2.5814e+000 -3.0428e+001 -3.5871e-001 43239 94305,94383,94357
 1.3000e+000 94458  9.2044e-001 -2.5978e+001  5.1232e+000 43239 94305,94409,94383
 1.3000e+000 94435 -1.3226e+000 -3.0567e+001 -7.6262e-001 43239 94305,94357,94331
 1.3000e+000 94633 -2.8413e+000 -2.4848e+001  6.5183e+000 42827 94656,94532,94506
 1.3000e+000 94610 -1.0685e+001 -2.8985e+001  8.5347e+000 42827 94728,94656,94506
 1.3000e+000 94682 -1.3863e+000 -3.1911e+001  5.8017e+000 42827 94558,94532,94656
 1.3000e+000 94705  4.6204e+000 -3.0295e+001  2.5881e+000 42827 94988,94860,94656
 1.3000e+000 94754 -2.3663e+000 -2.3006e+001  9.7381e-001 42827 94988,94656,94728
 1.3000e+000 94886  1.2823e+001 -2.7091e+001  2.5676e+000 42827 94558,94656,94860
 1.3000e+000 95014  1.0582e+001 -2.3972e+001 -1.9550e-001 42827 94584,94860,94988
 1.3000e+000 95037  3.9839e+000 -1.8079e+001 -2.0404e+000 42827 94584,94988,94728
 1.3000e+000 95236 -9.2018e+000 -5.1203e+001  2.1043e+000 42537 95259,95112,95060
 1.3000e+000 95213 -8.1314e+000 -5.5380e+001  3.8861e+000 42537 95259,95060,95164
 1.3000e+000 95190  2.6348e+000 -4.8769e+001 -1.5050e+001 42537 95060,95112,95086
 1.3000e+000 95285 -8.5284e+000 -4.8653e+001  2.1464e+000 42537 95138,95112,95259
 1.3000e+000 95308 -6.3594e+000 -5.0930e+001  4.1236e+000 42537 95138,95259,95164
 1.3000e+000 95816 -9.7738e+000 -4.1923e+001 -2.7333e+000 41969 95493,95597,95519
 1.3000e+000 95793 -2.0108e+001 -4.0174e+001  6.2618e+000 41969 95493,95649,95597
 1.3000e+000 95770 -1.8285e+001 -3.7296e+001  3.7892e+000 41969 95493,95675,95649
 1.3000e+000 95747 -1.9269e+001 -4.8541e+001  5.3024e+000 41969 95597,95649,95623
 1.3000e+000 95724 -2.2368e+001 -3.9722e+001 -4.1686e+000 41969 95519,95597,95571
 1.3000e+000 95701 -1.8328e+001 -3.5651e+001 -2.0356e+001 41969 95519,95571,95545
 1.3000e+000 96371 -9.4445e+000 -3.6902e+001  2.2798e+000 41579 96025,96207,96181
 1.3000e+000 96348  5.9613e+000 -2.9636e+001 -3.1747e+000 41579 95999,96207,96025
 1.3000e+000 96325 -1.7859e+001 -2.9205e+001 -1.0103e+001 41579 96129,96181,96155
 1.3000e+000 96302  6.4504e+000 -2.4511e+001 -3.1422e+000 41579 96025,96181,96129
 1.3000e+000 96279 -8.4460e+000 -4.5145e+001  9.1805e+000 41579 96025,96129,96051
 1.3000e+000 96256 -1.8258e+001 -5.0479e+001  1.6371e+001 41579 96051,96103,96077
 1.3000e+000 96233  8.2508e+000 -3.1390e+001  3.2142e+000 41579 96051,96129,96103
 1.3000e+000 96877  3.0081e+000 -2.6603e+001  1.4434e-001 41182 96972,96900,96632
 1.3000e+000 96854  4.3119e+000 -2.5087e+001 -2.1628e-001 41182 96900,96554,96736
 1.3000e+000 96831  1.3544e+000 -2.5192e+001 -4.7344e+000 41182 96972,96632,96580
 1.3000e+000 96808  7.9183e+000 -2.4707e+001  1.4065e+000 41182 96632,96684,96658
 1.3000e+000 96785 -5.5158e+000 -3.4072e+001 -2.2135e+000 41182 96684,96736,96710
 1.3000e+000 96762 -9.4665e+000 -3.6838e+001  2.1367e+000 41182 96580,96632,96606
 1.3000e+000 96926  3.4659e+000 -2.7259e+001  2.7914e-001 41182 96684,96632,96900
 1.3000e+000 96949 -2.0142e+000 -2.5485e+001 -1.1060e+000 41182 96684,96900,96736
 1.3000e+000 96998  1.0681e+001 -2.3991e+001 -3.0986e+000 41182 96554,96900,96972
 1.3000e+000 97021  1.1364e+001 -1.9620e+001 -8.4953e+000 41182 96554,96972,96580
 1.3000e+000 97576 -2.3859e+001 -7.2213e+001 -1.0482e+001 40678 97230,97412,97282
 1.3000e+000 97553  4.6567e+000 -5.8341e+001  2.2942e+000 40678 97204,97412,97230
 1.3000e+000 97530 -1.1688e+001 -5.6035e+001 -7.9133e+000 40678 97282,97360,97308
 1.3000e+000 97507 -7.3992e+000 -5.3364e+001 -3.2009e+000 40678 97282,97412,97360
 1.3000e+000 97484 -5.6823e+000 -3.5002e+001 -6.0348e+000 40678 97308,97360,97334
 1.3000e+000 97461 -2.4802e+001 -7.0922e+001  4.4390e+000 40678 97360,97412,97386
 1.3000e+000 97438 -8.9157e+000 -4.7506e+001 -7.3511e-001 40678 97230,97282,97256
 1.3000e+000 97976 -8.1305e+000 -2.5686e+001 -6.9748e-001 40244 97702,97832,97754
 1.3000e+000 97953 -4.5005e+000 -2.8674e+001 -8.0520e-001 40244 97702,97858,97832
 1.3000e+000 97930 -1.3437e+001 -4.0006e+001 -6.8903e+000 40244 97702,97754,97728
 1.3000e+000 97907  9.0828e-001 -2.5763e+001  1.2967e+001 40244 97780,97832,97806
 1.3000e+000 97884 -6.6927e+000 -2.3686e+001  1.4084e+000 40244 97754,97832,97780
 1.3000e+000 98482 -1.4985e+001 -4.1938e+001  1.1793e+000 39690 98505,98185,98159
 1.3000e+000 98459 -1.1245e+001 -3.9406e+001  2.9022e+000 39690 98505,98159,98289
 1.3000e+000 98436 -2.2954e+001 -5.4693e+001  1.3313e+001 39690 98159,98315,98289
 1.3000e+000 98413 -1.3337e+001 -3.1828e+001  2.4800e+000 39690 98211,98289,98263
 1.3000e+000 98390 -1.1433e+001 -2.2579e+001  1.3928e+000 39690 98211,98263,98237
 1.3000e+000 98367  2.2623e+001 -3.3343e+001  4.7264e+000 39690 98159,98341,98315
 1.3000e+000 98531 -2.3481e+001 -4.0924e+001 -2.7728e+000 39690 98211,98185,98505
 1.3000e+000 98554 -1.5728e+001 -3.3098e+001  5.6542e-001 39690 98211,98505,98289
 1.3000e+000 99109 -4.1869e+000 -2.7808e+001 -2.6923e+000 39072 99132,98867,98789
 1.3000e+000 99086 -4.3946e+000 -2.8501e+001 -3.1788e+000 39072 99132,98789,98763
 1.3000e+000 99063 -7.2328e+000 -4.0834e+001  4.8612e+000 39072 98867,98945,98919
 1.3000e+000 99040 -4.6663e+000 -3.0234e+001 -1.1333e+000 39072 98789,98867,98841
 1.3000e+000 99017 -8.1028e+000 -4.3232e+001  4.5588e+000 39072 98867,98919,98893
 1.3000e+000 98994 -9.8460e+000 -2.9866e+001  3.9767e+000 39072 98789,98841,98815
 1.3000e+000 98971 -3.5126e-001 -3.0519e+001 -1.1865e+001 39072 98737,98945,98763
 1.3000e+000 99158 -3.8458e+000 -2.8678e+001 -2.8914e+000 39072 98945,98867,99132
 1.3000e+000 99181 -3.9990e+000 -2.9617e+001 -3.1161e+000 39072 98945,99132,98763
 1.3000e+000 99510 -4.2484e+000 -2.8445e+001  1.1475e+000 38668 99311,99389,99363
 1.3000e+000 99487 -7.9296e+000 -2.9355e+001  1.9087e+000 38668 99285,99389,99311
 1.3000e+000 99464 -1.5631e+001 -3.0894e+001  4.9591e+000 38668 99285,99415,99389
 1.3000e+000 99441 -6.4711e+000 -3.0537e+001  2.1050e+000 38668 99311,99363,99337
 1.3000e+000 99758 -1.9690e+000 -3.9382e+001  3.4970e+000 38164 99781,99611,99585
 1.3000e+000 99735  4.4745e+000 -3.9711e+001  4.4971e+000 38164 99781,99585,99533
 1.3000e+000 99712 -4.2303e+000 -3.3427e+001  4.4571e+000 38164 99611,99663,99637
 1.3000e+000 99689  7.5522e+000 -3.6902e+001  1.0433e+000 38164 99533,99585,99559
 1.3000e+000 99807 -5.5646e+000 -3.8326e+001  5.2351e+000 38164 99663,99611,99781
 1.3000e+000 99830 -9.8419e-001 -3.9818e+001  5.1454e+000 38164 99663,99781,99533
 1.3000e+000 100232 -1.8640e+000 -3.5232e+001  4.2371e+000 37702 99984,100114,100088
 1.3000e+000 100209  1.3264e+001 -4.1229e+001  2.0241e+001 37702 99958,100114,99984
 1.3000e+000 100186 -1.5065e+001 -4.4030e+001 -8.0657e-001 37702 100010,100088,100036
 1.3000e+000 100163 -6.3360e+000 -3.7360e+001  2.6492e+000 37702 99984,100088,100010
 1.3000e+000 100140 -8.2281e+000 -3.6092e+001 -7.7133e+000 37702 100036,100088,100062
 1.3000e+000 100640 -2.7961e+001 -3.8665e+001  2.7869e+000 37262 100493,100545,100519
 1.3000e+000 100617 -2.1487e+001 -4.0313e+001  1.8442e+000 37262 100441,100545,100493
 1.3000e+000 100594 -1.1352e+001 -3.2918e+001 -3.5664e+000 37262 100415,100545,100441
 1.3000e+000 100571 -2.8260e+001 -5.2059e+001 -3.0311e+000 37262 100441,100493,100467
 1.3000e+000 101146 -1.3737e+001 -2.6185e+001 -1.2156e+000 36872 100823,100979,100849
 1.3000e+000 101123 -1.1651e+001 -2.0352e+001 -3.4813e+000 36872 100823,101005,100979
 1.3000e+000 101100 -1.1157e+001 -3.8123e+001  6.0892e+000 36872 101169,100901,100849
 1.3000e+000 101077 -8.3147e+000 -3.2382e+001  3.4697e+000 36872 101169,100849,100979
 1.3000e+000 101054 -3.6446e+000 -3.8518e+001  1.0452e+000 36872 100927,100979,100953
 1.3000e+000 101031 -8.5758e+000 -4.6406e+001  6.2840e+000 36872 100849,100901,100875
 1.3000e+000 101195 -6.7085e+000 -3.9573e+001  2.4221e+000 36872 100927,100901,101169
 1.3000e+000 101218 -4.8427e+000 -3.6570e+001  1.9571e-001 36872 100927,101169,100979
 1.3000e+000 101773 -2.0267e+001 -3.4557e+001  4.8653e+000 36418 101479,101609,101583
 1.3000e+000 101750 -1.9236e+001 -3.7477e+001  6.8432e+000 36418 101453,101609,101479
 1.3000e+000 101727 -1.3243e+001 -3.5396e+001  1.2426e+000 36418 101796,101531,101479
 1.3000e+000 101704 -1.9429e+001 -3.8563e+001  2.4844e+000 36418 101796,101479,101583
 1.3000e+000 101681 -1.0045e+001 -3.8699e+001 -6.6227e-001 36418 101479,101531,101505
 1.3000e+000 101658  1.5513e+001 -3.2065e+001 -3.4534e+000 36418 101401,101609,101453
 1.3000e+000 101635 -4.5562e+000 -3.8463e+001 -7.0922e+000 36418 101401,101453,101427
 1.3000e+000 101822 -1.5149e+001 -3.3134e+001 -4.9529e+000 36418 101557,101531,101796
 1.3000e+000 101845 -2.3541e+001 -3.6202e+001 -4.2723e+000 36418 101557,101796,101583
 1.3000e+000 102174  1.4510e+001 -2.0595e+001 -4.6067e+000 35914 101949,102053,101975
 1.3000e+000 102151 -1.0044e+001 -2.3289e+001 -1.2908e-001 35914 101949,102079,102053
 1.3000e+000 102128 -1.7079e+000 -2.7986e+001 -1.3826e+000 35914 101975,102053,102027
 1.3000e+000 102105 -8.3425e-001 -2.0844e+001 -1.0041e+000 35914 101975,102027,102001
 1.3000e+000 102631  1.2223e+001 -3.1404e+001  2.0083e-001 35574 102383,102513,102487
 1.3000e+000 102608  1.7260e+001 -3.2933e+001  3.7107e-001 35574 102357,102513,102383
 1.3000e+000 102585  2.3298e-001 -3.5250e+001  3.1761e+000 35574 102409,102487,102435
 1.3000e+000 102562  4.3142e+000 -3.5808e+001  2.6309e+000 35574 102383,102487,102409
 1.3000e+000 102539 -2.4968e+000 -4.1370e+001  2.5831e+000 35574 102435,102487,102461
 1.3000e+000 103009 -3.9621e+000 -2.8875e+001 -2.8692e+000 35170 102761,102865,102787
 1.3000e+000 102986  4.9730e+000 -2.4286e+001  1.9600e+000 35170 102761,102891,102865
 1.3000e+000 102963 -6.1681e+000 -2.8827e+001 -4.7019e+000 35170 102787,102865,102813
 1.3000e+000 102940  6.9509e-001 -3.3680e+001 -1.3719e+000 35170 102735,102891,102761
 1.3000e+000 102917 -8.0741e+000 -3.3762e+001 -6.0960e+000 35170 102813,102865,102839
 1.3000e+000 103257  7.8239e+000 -2.8859e+001 -5.6676e+000 34659 103280,103058,103032
 1.3000e+000 103234  4.2605e+000 -2.9909e+001 -1.0074e+000 34659 103280,103032,103162
 1.3000e+000 103211 -3.9835e+000 -2.1503e+001 -2.1181e+000 34659 103084,103162,103110
 1.3000e+000 103188 -1.0786e+001 -3.6478e+001 -6.0872e-001 34659 103110,103162,103136
 1.3000e+000 103306  5.9878e-001 -2.7625e+001 -5.3687e+000 34659 103084,103058,103280
 1.3000e+000 103329 -9.2065e-001 -2.8174e+001 -7.8438e-002 34659 103084,103280,103162
 1.3000e+000 103837  7.4504e+000 -3.2564e+001  3.0176e+000 34247 103860,103566,103540
 1.3000e+000 103814 -1.4159e+000 -3.4931e+001  5.8567e-001 34247 103932,103860,103540
 1.3000e+000 103791 -2.4155e+000 -3.9721e+001 -3.5536e+000 34247 103932,103540,103670
 1.3000e+000 103768  4.9893e+000 -3.5702e+001  5.2156e-001 34247 103566,103618,103592
 1.3000e+000 103745 -1.0678e+001 -3.7079e+001 -4.8330e+000 34247 103540,103696,103670
 1.3000e+000 103722 -1.5748e+001 -3.9151e+001  9.4531e+000 34247 103514,103696,103540
 1.3000e+000 103886 -1.3175e+000 -3.8789e+001 -4.5295e-001 34247 103618,103566,103860
 1.3000e+000 103909  4.4061e+000 -3.6837e+001 -1.0450e+000 34247 103618,103860,103644
 1.3000e+000 103958 -3.4674e+000 -4.5761e+001 -4.4253e+000 34247 103644,103860,103932
 1.3000e+000 103981 -5.1261e+000 -5.0558e+001 -8.8141e+000 34247 103644,103932,103670
 1.3000e+000 104300 -1.0291e+001 -3.8249e+001 -3.8077e+000 33843 104052,104182,104156
 1.3000e+000 104277 -2.7682e+001 -3.5779e+001 -2.8136e+000 33843 104026,104182,104052
 1.3000e+000 104254 -1.3833e+001 -3.6146e+001  1.0981e+000 33843 104078,104156,104130
 1.3000e+000 104231 -2.2694e+001 -4.2362e+001 -2.2437e+000 33843 104052,104156,104078
 1.3000e+000 104208 -2.1271e+001 -3.6759e+001  4.2830e-001 33843 104078,104130,104104
 1.3000e+000 104499 -7.2587e-001 -3.8929e+001 -2.6203e+000 33282 104594,104522,104375
 1.3000e+000 104476  1.3593e-002 -3.6353e+001  4.8095e-001 33282 104522,104323,104427
 1.3000e+000 104453  2.0860e+000 -4.1535e+001 -2.1667e+000 33282 104594,104375,104349
 1.3000e+000 104548  1.9924e+000 -3.2761e+001 -3.3819e+000 33282 104401,104375,104522
 1.3000e+000 104571  1.0779e+000 -3.4401e+001 -1.1122e-001 33282 104401,104522,104427
 1.3000e+000 104620  2.2513e+000 -3.3822e+001 -1.0714e+000 33282 104323,104522,104594
 1.3000e+000 104643  3.8216e+000 -3.7773e+001 -1.1398e+000 33282 104323,104594,104349
 1.3000e+000 104942 -4.5351e+000 -3.8152e+001  4.8973e+000 32728 104694,104772,104720
 1.3000e+000 104919 -8.0109e+000 -3.7956e+001  2.6215e+000 32728 104694,104824,104772
 1.3000e+000 104896 -7.2622e+000 -4.1799e+001  3.5256e+000 32728 104720,104772,104746
 1.3000e+000 104873 -2.4906e+000 -4.4541e+001  2.6154e+000 32728 104772,104824,104798
 1.3000e+000 104850 -8.9045e+000 -3.9805e+001  1.5684e+000 32728 104668,104824,104694
 1.3000e+000 105373 -1.9616e+001 -4.9733e+001 -1.3622e+000 32274 105396,105102,105076
 1.3000e+000 105350 -1.7772e+001 -5.4264e+001 -4.4402e-001 32274 105396,105076,105206
 1.3000e+000 105327 -1.9972e+001 -5.6639e+001  7.4765e+000 32274 105154,105206,105180
 1.3000e+000 105304 -1.3375e+001 -5.3790e+001 -3.3286e+000 32274 105076,105232,105206
 1.3000e+000 105281 -2.2347e+001 -4.6654e+001 -5.8997e+000 32274 105102,105154,105128
 1.3000e+000 105258 -3.2968e+001 -5.0057e+001 -8.0859e+000 32274 105050,105232,105076
 1.3000e+000 105422 -1.9200e+001 -4.5125e+001 -5.1164e-001 32274 105154,105102,105396
 1.3000e+000 105445 -1.7857e+001 -5.0255e+001  8.5291e-003 32274 105154,105396,105206
 1.3000e+000 105644 -2.6846e+000 -3.6797e+001 -2.6949e-001 31620 105468,105546,105520
 1.3000e+000 105621  2.2736e-001 -4.4699e+001 -1.8533e+000 31620 105468,105572,105546
 1.3000e+000 105598 -7.0787e+000 -4.4214e+001 -3.1563e+000 31620 105468,105520,105494
 1.3000e+000 105794 -5.0075e+000 -4.6740e+001 -2.8861e-001 31158 105889,105817,105693
 1.3000e+000 105771 -5.1039e+000 -4.5764e+001 -1.3551e+000 31158 105817,105667,105745
 1.3000e+000 105843 -4.8243e+000 -5.1444e+001  8.0117e-001 31158 105719,105693,105817
 1.3000e+000 105866 -1.4032e+000 -4.8105e+001 -5.5927e-001 31158 105719,105817,105745
 1.3000e+000 105915 -7.0085e+000 -4.7598e+001 -3.1068e-001 31158 105667,105817,105889
 1.3000e+000 106270 -1.6943e+001 -4.0263e+001 -3.0592e-001 30818 106293,106071,106045
 1.3000e+000 106247 -1.9174e+001 -4.5102e+001 -5.2668e+000 30818 106293,106045,106175
 1.3000e+000 106224 -6.9983e+000 -3.8064e+001  7.6367e-001 30818 106123,106175,106149
 1.3000e+000 106201 -2.0728e+001 -3.9431e+001  7.3792e-001 30818 106071,106123,106097
 1.3000e+000 106319 -1.4716e+001 -3.8288e+001  8.4071e-001 30818 106123,106071,106293
 1.3000e+000 106342 -1.3545e+001 -4.0717e+001 -3.3237e+000 30818 106123,106293,106175
 1.3000e+000 106492  4.4712e+000 -4.7150e+001  1.1557e+001 30414 106645,106391,106365
 1.3000e+000 106469 -5.5937e+000 -4.3089e+001  1.0891e+001 30414 106515,106365,106443
 1.3000e+000 106541 -2.7175e+000 -4.1780e+001  8.5915e+000 30414 106645,106365,106515
 1.3000e+000 106671 -2.7590e+000 -5.5871e+001  8.0222e+000 30414 106417,106391,106645
 1.3000e+000 106694 -1.0544e+001 -4.8719e+001  5.5697e+000 30414 106417,106645,106515
 1.3000e+000 106942  3.4716e+000 -4.5887e+001 -1.9908e+000 29910 106965,106795,106769
 1.3000e+000 106919  1.7194e-002 -3.9164e+001 -6.8542e-001 29910 106965,106769,106717
 1.3000e+000 106896  8.7333e+000 -2.8301e+001 -3.6526e+000 29910 106795,106847,106821
 1.3000e+000 106873  1.8608e+000 -3.6104e+001  9.3442e-001 29910 106717,106769,106743
 1.3000e+000 106991  3.4339e+000 -4.0354e+001 -2.2941e+000 29910 106847,106795,106965
 1.3000e+000 107014  1.9982e+000 -3.0912e+001 -1.6003e+000 29910 106847,106965,106717
 1.3000e+000 107213 -1.1236e+001 -4.5832e+001  2.6141e+000 29413 107236,107063,107037
 1.3000e+000 107190 -1.3292e+001 -5.3071e+001  5.4215e+000 29413 107236,107037,107141
 1.3000e+000 107167 -1.3030e+001 -2.9181e+001  7.4335e+000 29413 107063,107115,107089
 1.3000e+000 107262 -1.2226e+001 -4.0279e+001  1.3001e-001 29413 107115,107063,107236
 1.3000e+000 107285 -1.3301e+001 -4.5919e+001  2.9999e+000 29413 107115,107236,107141
 1.3000e+000 107486 -6.1312e+000 -3.9052e+001  2.5915e+000 29009 107336,107388,107362
 1.3000e+000 107463 -5.6739e+000 -3.8922e+001  3.3578e+000 29009 107310,107388,107336
 1.3000e+000 107440 -5.5922e+000 -3.6216e+001  3.0651e+000 29009 107310,107414,107388
 1.3000e+000 107736 -2.0280e+000 -3.7329e+001  1.0845e+000 28491 107537,107615,107563
 1.3000e+000 107713 -1.5767e+000 -3.7300e+001  3.3372e-001 28491 107537,107641,107615
 1.3000e+000 107690 -2.5177e+000 -3.5566e+001  1.1219e+000 28491 107563,107615,107589
 1.3000e+000 107667 -3.8816e+000 -3.5129e+001  1.1922e-001 28491 107511,107641,107537
 1.3000e+000 108118  3.2811e-001 -3.3311e+001  2.0118e+000 27980 108141,107922,107844
 1.3000e+000 108095  2.6550e+000 -3.6397e+001  1.7616e+000 27980 108141,107844,108000
 1.3000e+000 108072  1.3470e+000 -3.1211e+001  3.7603e-001 27980 107844,107922,107870
 1.3000e+000 108049  1.1041e+000 -3.1410e+001  5.0051e-001 27980 107870,107922,107896
 1.3000e+000 108026 -2.5596e+000 -2.8695e+001  6.9474e+000 27980 107922,107974,107948
 1.3000e+000 108167  2.1164e+000 -3.3839e+001  2.8649e+000 27980 107974,107922,108141
 1.3000e+000 108190  8.3377e+000 -3.3457e+001  3.5403e+000 27980 107974,108141,108000
 1.3000e+000 108745 -9.2810e-001 -2.4218e+001  1.9022e+000 27376 108840,108768,108477
 1.3000e+000 108722 -4.7707e+000 -3.1512e+001  3.1201e-002 27376 108768,108373,108581
 1.3000e+000 108699 -8.3968e-001 -2.0440e+001  3.6105e+000 27376 108840,108477,108451
 1.3000e+000 108676 -1.3990e+001 -2.5582e+001 -9.1671e+000 27376 108373,108451,108399
 1.3000e+000 108653 -1.0017e+001 -3.6187e+001  1.7798e+000 27376 108503,108581,108529
 1.3000e+000 108630 -7.8190e+000 -3.5684e+001  1.0904e+000 27376 108529,108581,108555
 1.3000e+000 108607 -1.9366e+001 -3.3082e+001 -4.2000e+000 27376 108399,108451,108425
 1.3000e+000 108794 -3.7043e+000 -2.7829e+001 -5.5517e-002 27376 108503,108477,108768
 1.3000e+000 108817 -4.3238e+000 -2.6561e+001 -6.7297e-001 27376 108503,108768,108581
 1.3000e+000 108866 -3.3140e+000 -2.8144e+001 -5.9985e-001 27376 108373,108768,108840
 1.3000e+000 108889 -2.7311e+000 -2.5563e+001  1.5635e+000 27376 108373,108840,108451
 1.3000e+000 109186 -8.3460e+000 -3.8613e+001  2.5622e+000 26722 109209,108938,108912
 1.3000e+000 109163 -8.4302e+000 -3.9122e+001  3.5806e+000 26722 109281,109209,108912
 1.3000e+000 109140 -7.6160e+000 -3.8756e+001  3.1883e+000 26722 109281,108912,109042
 1.3000e+000 109117 -9.3740e+000 -4.1318e+001  2.7285e+000 26722 108938,108990,108964
 1.3000e+000 109094 -6.2270e+000 -3.9696e+001  3.5497e+000 26722 108912,109068,109042
 1.3000e+000 109235 -9.1464e+000 -3.9436e+001  3.1550e+000 26722 108990,108938,109209
 1.3000e+000 109258 -7.9670e+000 -4.2151e+001  3.7379e+000 26722 108990,109209,109016
 1.3000e+000 109307 -6.6350e+000 -3.9734e+001  2.5090e+000 26722 109016,109209,109281
 1.3000e+000 109330 -5.4206e+000 -3.8864e+001  1.9824e+000 26722 109016,109281,109042
 1.3000e+000 109732 -1.2043e+001 -3.0895e+001  8.1340e-002 26310 109458,109588,109484
 1.3000e+000 109709 -9.7674e+000 -3.0563e+001 -2.6325e+000 26310 109458,109614,109588
 1.3000e+000 109686 -1.6272e+001 -3.2955e+001  4.7518e+000 26310 109510,109562,109536
 1.3000e+000 109663 -1.6964e+001 -3.1668e+001  2.2779e+000 26310 109484,109562,109510
 1.3000e+000 109640 -1.1145e+001 -3.0543e+001  9.1323e-002 26310 109484,109588,109562
 1.3000e+000 110159 -1.3360e+001 -3.5429e+001  1.4161e+000 25642 110182,109940,109914
 1.3000e+000 110136 -1.2312e+001 -3.5338e+001  3.4141e+000 25642 110182,109914,109888
 1.3000e+000 110113 -1.2516e+001 -4.1864e+001 -5.1097e+000 25642 109966,110018,109992
 1.3000e+000 110090 -1.3507e+001 -3.9902e+001  2.9365e+000 25642 110254,109966,109940
 1.3000e+000 110067 -1.0012e+001 -3.4415e+001  3.6446e+000 25642 109862,110018,109888
 1.3000e+000 110044 -1.9700e+001 -3.6754e+001  2.9130e+000 25642 109836,110018,109862
 1.3000e+000 110208 -1.3898e+001 -3.6031e+001  2.1530e+000 25642 110254,109940,110182
 1.3000e+000 110231 -1.2942e+001 -3.7679e+001  2.0421e+000 25642 110018,110182,109888
 1.3000e+000 110280 -1.2528e+001 -4.4536e+001  2.1025e+000 25642 110018,109966,110254
 1.3000e+000 110303 -1.3688e+001 -4.1623e+001  1.3948e+000 25642 110018,110254,110182
 1.3000e+000 110632 -1.2309e+001 -3.2039e+001  1.4024e-001 25188 110407,110485,110433
 1.3000e+000 110609 -1.4631e+001 -3.0595e+001  5.5350e-001 25188 110407,110537,110485
 1.3000e+000 110586 -1.5321e+001 -3.3743e+001 -5.6284e+000 25188 110433,110485,110459
 1.3000e+000 110563 -1.3968e+001 -3.2646e+001  3.9253e+000 25188 110485,110537,110511
 1.3000e+000 110831 -4.1643e+000 -3.6835e+001  9.0302e-001 24726 110854,110707,110655
 1.3000e+000 110808 -4.0868e+000 -3.7367e+001  1.3727e+000 24726 110854,110655,110759
 1.3000e+000 110785 -4.6877e+000 -3.6279e+001  1.4320e+000 24726 110655,110707,110681
 1.3000e+000 110880 -4.0541e+000 -3.6256e+001  8.2238e-001 24726 110733,110707,110854
 1.3000e+000 110903 -3.8550e+000 -3.6563e+001  1.3134e+000 24726 110733,110854,110759
 1.3000e+000 111234  6.4408e+000 -2.1852e+001 -2.3766e+000 24222 111257,111087,111035
 1.3000e+000 111211  1.2226e+001 -1.9279e+001  1.9061e+000 24222 111257,111035,111009
 1.3000e+000 111188  1.2973e+001 -1.3580e+001 -5.9373e+000 24222 111035,111087,111061
 1.3000e+000 111165  4.8037e+000 -1.4942e+001  1.6745e+000 24222 111087,111139,111113
 1.3000e+000 111283  2.9288e+000 -1.6222e+001  1.7804e-001 24222 111139,111087,111257
 1.3000e+000 111306  5.4059e+000 -1.2380e+001  2.9291e+000 24222 111139,111257,111009
 1.3000e+000 111625 -7.8333e+000 -3.8161e+001 -1.9203e+000 23732 111648,111481,111455
 1.3000e+000 111602 -6.9039e+000 -3.9738e+001 -2.6469e+000 23732 111648,111455,111377
 1.3000e+000 111579  2.3058e+000 -2.4894e+001  4.2664e+000 23732 111377,111429,111403
 1.3000e+000 111556 -3.4860e+000 -4.0361e+001 -1.1367e+000 23732 111377,111455,111429
 1.3000e+000 111533 -5.3170e+000 -3.7012e+001 -4.9652e-001 23732 111351,111507,111377
 1.3000e+000 111674 -5.8617e+000 -3.4914e+001 -5.2917e-002 23732 111507,111481,111648
 1.3000e+000 111697 -7.2788e+000 -3.8716e+001 -1.2487e+000 23732 111507,111648,111377
 1.3000e+000 112156 -1.5137e+000 -3.4248e+001 -5.8156e-001 23278 112179,111908,111882
 1.3000e+000 112133 -7.6025e-001 -3.3252e+001  1.9570e-001 23278 112179,111882,112012
 1.3000e+000 112110 -1.1373e+000 -4.0929e+001 -3.2528e-001 23278 111908,111960,111934
 1.3000e+000 112087  4.0279e+000 -3.3104e+001 -1.4579e+000 23278 111882,112038,112012
 1.3000e+000 112064 -1.7893e+000 -3.1604e+001 -1.4785e-001 23278 111960,112012,111986
 1.3000e+000 112205 -2.2012e+000 -3.4107e+001 -1.4196e+000 23278 111960,111908,112179
 1.3000e+000 112228 -1.8693e+000 -3.3292e+001 -6.6246e-001 23278 111960,112179,112012
 1.3000e+000 112685 -2.5863e+001 -6.1941e+001 -5.6088e+000 22938 112489,112567,112541
 1.3000e+000 112662 -2.0471e+001 -4.8016e+001 -6.6976e+000 22938 112437,112567,112489
 1.3000e+000 112639 -1.9708e+001 -4.8737e+001 -2.0292e+000 22938 112489,112541,112515
 1.3000e+000 112616 -2.2782e+001 -4.2928e+001 -5.0592e+000 22938 112411,112567,112437
 1.3000e+000 112593 -2.1509e+001 -6.0447e+001 -2.9148e+000 22938 112437,112489,112463
 1.3000e+000 113191  4.2723e+000 -3.2626e+001 -3.8567e+000 22534 113214,112998,112946
 1.3000e+000 113168 -5.3557e-001 -3.2097e+001 -1.7997e+000 22534 113286,113214,112946
 1.3000e+000 113145  6.5578e-001 -3.2082e+001 -1.5713e+000 22534 113286,112946,112920
 1.3000e+000 113122 -5.6518e+000 -3.0790e+001 -3.9257e+000 22534 113358,113024,112998
 1.3000e+000 113099 -4.2943e+000 -3.3847e+001 -2.0504e+000 22534 112868,113050,112894
 1.3000e+000 113076  7.9471e+000 -5.1602e+001 -4.0174e+000 22534 112946,112998,112972
 1.3000e+000 113240 -3.2317e+000 -3.4804e+001 -4.2557e+000 22534 113358,112998,113214
 1.3000e+000 113263 -9.5763e-001 -3.3019e+001 -1.0695e+000 22534 113050,113214,112894
 1.3000e+000 113312  1.0839e+000 -3.2088e+001 -1.4826e+000 22534 112894,113214,113286
 1.3000e+000 113335  2.4118e+000 -3.2059e+001 -1.4862e+000 22534 112894,113286,112920
 1.3000e+000 113384 -2.7526e+000 -2.7892e+001 -2.5311e+000 22534 113050,113024,113358
 1.3000e+000 113407  9.7669e-001 -3.0890e+001 -2.5189e+000 22534 113050,113358,113214
 1.3000e+000 113785 -2.0583e+001 -5.3617e+001  4.0944e+000 21978 113808,113615,113511
 1.3000e+000 113762 -1.8624e+001 -5.5729e+001  7.3349e+000 21978 113808,113511,113667
 1.3000e+000 113739 -6.0017e+000 -4.1037e+001 -1.7511e+000 21978 113511,113615,113537
 1.3000e+000 113716  5.3096e+000 -3.6595e+001 -1.5059e+000 21978 113537,113615,113589
 1.3000e+000 113693 -6.9956e-001 -5.4562e+001  2.2978e+000 21978 113537,113589,113563
 1.3000e+000 113834 -2.0126e+001 -5.1880e+001  6.1514e+000 21978 113641,113615,113808
 1.3000e+000 113857 -1.4573e+001 -5.0069e+001  9.9656e+000 21978 113641,113808,113667
 1.3000e+000 114284 -1.4709e+001 -3.8746e+001  4.5885e-001 21517 114013,114117,114039
 1.3000e+000 114261 -1.4816e+001 -3.8087e+001  2.1800e+000 21517 113961,114117,114013
 1.3000e+000 114238 -1.4755e+001 -4.4125e+001  1.4341e+000 21517 113961,114013,113987
 1.3000e+000 114215 -2.2082e+001 -4.3202e+001 -3.1099e+000 21517 114039,114117,114091
 1.3000e+000 114192 -1.6257e+001 -3.3760e+001  3.3123e+000 21517 113961,114143,114117
 1.3000e+000 114169  2.4571e+000 -3.3526e+001 -2.1104e+000 21517 114039,114091,114065
 1.3000e+000 114581 -6.7406e+000 -5.2782e+001  5.7084e-001 21027 114359,114463,114437
 1.3000e+000 114558 -5.8597e+000 -4.9345e+001  5.9104e+000 21027 114333,114463,114359
 1.3000e+000 114535 -4.2114e+000 -4.9571e+001 -5.6846e-001 21027 114359,114437,114385
 1.3000e+000 114512 -3.6912e+000 -4.9278e+001  3.1291e+000 21027 114307,114463,114333
 1.3000e+000 114489  2.3584e+000 -4.5200e+001 -2.4680e+000 21027 114385,114437,114411
 1.3000e+000 114912 -1.4981e+001 -4.0263e+001  2.7461e-001 20623 114713,114791,114765
 1.3000e+000 114889 -3.2566e+000 -3.5358e+001 -5.0697e+000 20623 114687,114791,114713
 1.3000e+000 114866 -1.1673e+001 -4.9387e+001 -8.7001e-001 20623 114687,114817,114791
 1.3000e+000 114843 -2.0833e+001 -4.7287e+001  2.8028e+000 20623 114713,114765,114739
 1.3000e+000 115290 -3.1879e+000 -3.3861e+001  1.8264e+000 20375 115313,115146,115094
 1.3000e+000 115267 -4.2157e+000 -3.4044e+001  2.3436e+000 20375 115313,115094,115042
 1.3000e+000 115244 -4.1615e+000 -3.1832e+001  1.3410e+000 20375 115385,115016,115172
 1.3000e+000 115221  1.0286e+001 -2.8786e+001  2.0742e+000 20375 115042,115094,115068
 1.3000e+000 115198 -5.6271e+000 -3.9949e+001  1.9662e+000 20375 115094,115146,115120
 1.3000e+000 115339 -6.6570e+000 -3.7871e+001 -2.3762e-001 20375 115172,115146,115313
 1.3000e+000 115362 -3.7851e+000 -3.2788e+001  1.1225e+000 20375 115385,115172,115313
 1.3000e+000 115411 -3.5577e+000 -3.2571e+001  2.3075e+000 20375 115042,115016,115385
 1.3000e+000 115434 -3.7403e+000 -3.4114e+001  2.2300e+000 20375 115042,115385,115313
 1.3000e+000 115891 -1.2977e+001 -3.5087e+001  4.5769e+000 19971 115617,115747,115643
 1.3000e+000 115868 -9.2287e+000 -2.5958e+001  4.2499e+000 19971 115617,115773,115747
 1.3000e+000 115845 -5.5221e+000 -4.7729e+001  1.1347e+000 19971 115643,115721,115695
 1.3000e+000 115822  5.1975e+000 -2.3498e+001 -9.0037e-001 19971 115643,115747,115721
 1.3000e+000 115799  8.2508e+000 -5.3126e+001 -1.9592e+000 19971 115643,115695,115669
 1.3000e+000 115992 -9.3001e+000 -7.2301e+001 -2.2197e+001 19659 115914,115966,115940
 1.3000e+000 116142  1.3019e+000 -6.9165e+000 -7.1181e-002 18997 116041,116093,116067
 1.3000e+000 116119 -4.4564e+000 -2.1902e+001  1.7930e+000 18997 116015,116093,116041
 1.3000e+000 116343  3.4466e-001 -3.8451e+001 -1.0483e+000 18707 116193,116245,116219
 1.3000e+000 116320  4.8716e-001 -3.7719e+001 -1.6569e-001 18707 116193,116271,116245
 1.3000e+000 116297 -1.4395e+000 -3.6428e+001 -5.9269e+000 18707 116167,116271,116193
 1.3000e+000 116747 -7.4035e-001 -3.4160e+001 -8.1846e-001 18301 116525,116629,116551
 1.3000e+000 116724 -1.0200e+000 -2.8451e+001  1.2124e-002 18301 116473,116629,116525
 1.3000e+000 116701 -6.3372e-001 -2.9401e+001 -2.1717e+000 18301 116473,116525,116499
 1.3000e+000 116678  7.5200e-001 -3.5641e+001 -4.5159e-001 18301 116551,116603,116577
 1.3000e+000 116655 -2.2599e+000 -3.7730e+001 -1.3863e+000 18301 116551,116629,116603
 1.3000e+000 117147 -2.0479e+001 -5.0333e+001  2.8456e-001 17747 116899,117029,116925
 1.3000e+000 117124 -1.2637e+001 -3.9625e+001  4.4033e+000 17747 116873,117029,116899
 1.3000e+000 117101 -1.9138e+001 -4.8240e+001  8.5999e-001 17747 116925,117029,116951
 1.3000e+000 117078 -1.5809e+001 -3.8214e+001  2.1642e+000 17747 116951,117029,117003
 1.3000e+000 117055 -2.7351e+001 -5.4403e+001 -3.1082e+000 17747 116951,117003,116977
 1.3000e+000 117368  8.3558e+000 -3.7820e+001  1.3162e+000 17293 117244,117296,117270
 1.3000e+000 117345  2.5219e+000 -3.9956e+001 -3.9133e-001 17293 117192,117296,117244
 1.3000e+000 117322 -1.8391e+000 -3.7069e+001 -3.4823e-001 17293 117192,117244,117218
 1.3000e+000 117699  2.3574e+000 -2.6539e+001 -4.7217e+000 16896 117526,117604,117552
 1.3000e+000 117676 -1.6082e+001 -4.4130e+001  2.4717e+000 16896 117500,117604,117526
 1.3000e+000 117653 -1.7531e+001 -3.4638e+001 -2.2342e+000 16896 117552,117604,117578
 1.3000e+000 117630 -1.1895e+001 -5.6212e+001  5.8737e+000 16896 117474,117604,117500
 1.3000e+000 117849 -4.5787e+001 -8.7738e+001 -3.7244e+000 16534 117722,117774,117748
 1.3000e+000 117826 -3.6471e+001 -1.0904e+002 -1.5276e+001 16534 117722,117800,117774
 1.3000e+000 118070 -1.4349e+000 -3.7528e+001  4.1605e+000 16194 117946,117998,117972
 1.3000e+000 118047 -5.5121e+000 -4.4545e+001  2.4468e+000 16194 117894,117998,117946
 1.3000e+000 118024 -7.8535e+000 -4.0541e+001 -7.4614e-001 16194 117894,117946,117920
 1.3000e+000 118173 -4.8564e+000 -5.0500e+001  0.0000e+000 15968 118095,118147,118121
 1.3000e+000 118276 -1.2357e+001 -4.1731e+001  6.0317e-001 15433 118299,118198,118250
 1.3000e+000 118325 -1.2959e+001 -4.3136e+001  6.1692e-001 15433 118224,118198,118299
 1.3000e+000 118450 -1.7083e+001 -5.0194e+001  1.2611e+001 421 118372,118424,118398
 1.4000e+000 69891  3.1015e+000 -6.9858e+001  3.9702e+000 68988 69447,69681,69629
 1.4000e+000 69868  3.8388e+001 -5.5126e+001  4.2150e+000 68988 69421,69681,69447
 1.4000e+000 69845  1.3476e+001 -3.2841e+001  3.2494e+000 68988 69447,69629,69577
 1.4000e+000 69822 -9.9420e+000 -6.9495e+001 -6.7847e+000 68988 69447,69577,69473
 1.4000e+000 69799  2.7541e+001 -8.9208e+001  2.9608e+001 68988 69629,69681,69655
 1.4000e+000 69776 -1.2610e+001 -4.3774e+001  2.3079e+000 68988 69577,69629,69603
 1.4000e+000 69753 -2.7014e+000 -6.7204e+001 -1.5476e+001 68988 69473,69577,69551
 1.4000e+000 69730  5.2945e+000 -1.2295e+002 -1.0757e+001 68988 69473,69551,69525
 1.4000e+000 69707 -1.1021e+001 -8.4868e+001 -9.4485e-002 68988 69473,69525,69499
 1.4000e+000 69992 -2.7913e+001 -8.0740e+001 -1.7068e+001 68676 69914,69966,69940
 1.4000e+000 70392 -3.6675e+000 -3.9356e+001  2.7485e+000 68478 70118,70248,70144
 1.4000e+000 70369  2.5234e+001 -3.6902e+001  1.1356e+001 68478 70118,70274,70248
 1.4000e+000 70346  1.2657e+001 -3.2166e+001 -1.6963e+000 68478 70144,70222,70196
 1.4000e+000 70323  1.9071e+001 -1.5079e+001 -6.7108e+000 68478 70144,70248,70222
 1.4000e+000 70300  1.2647e+001 -3.2467e+001 -1.7127e+000 68478 70144,70196,70170
 1.4000e+000 70841  2.3712e+001 -2.5073e+001 -1.0735e+001 68280 70570,70622,70596
 1.4000e+000 70818 -7.3268e+000 -2.9817e+001 -2.1085e+000 68280 70544,70622,70570
 1.4000e+000 70795 -2.3336e+000 -1.9194e+001 -7.5512e-001 68280 70544,70674,70622
 1.4000e+000 70772 -3.5441e+000 -1.2680e+001  3.6038e+000 68280 70622,70674,70648
 1.4000e+000 70749 -7.7725e+000 -3.7048e+001  4.6446e+000 68280 70518,70674,70544
 1.4000e+000 70726  4.1790e+001 -3.9687e+001  1.9350e+001 68280 70518,70700,70674
 1.4000e+000 70991 -1.5914e+000 -2.3041e+002  6.5014e+000 67968 70864,70916,70890
 1.4000e+000 70968 -5.6876e+001 -2.3203e+002  2.2552e+001 67968 70864,70942,70916
 1.4000e+000 71141 -8.2074e+001 -1.7085e+002 -6.5287e+000 67770 71040,71092,71066
 1.4000e+000 71118 -7.2565e+001 -1.9775e+002  6.6450e+000 67770 71014,71092,71040
 1.4000e+000 71651  4.4925e+000 -3.1310e+001 -1.7105e+000 67366 71746,71674,71458
 1.4000e+000 71628  5.4659e+000 -2.0390e+001 -1.9065e+000 67366 71674,71354,71510
 1.4000e+000 71605  1.9134e+000 -3.9862e+001  3.5526e-001 67366 71746,71458,71432
 1.4000e+000 71582 -9.2345e+000 -4.5360e+001  3.0154e+000 67366 71354,71432,71380
 1.4000e+000 71559 -6.2331e+000 -2.6786e+001 -5.8358e+000 67366 71380,71432,71406
 1.4000e+000 71536  1.1459e+000  2.9261e+000  6.0882e+000 67366 71328,71510,71354
 1.4000e+000 71700  1.0805e+001 -2.1313e+001 -5.0477e+000 67366 71484,71458,71674
 1.4000e+000 71723  4.1934e+000 -2.2793e+001 -5.1554e-001 67366 71484,71674,71510
 1.4000e+000 71772  1.1345e+000 -2.1135e+001 -2.4262e+000 67366 71354,71674,71746
 1.4000e+000 71795  1.5982e+000 -2.6695e+001 -2.0051e+000 67366 71354,71746,71432
 1.4000e+000 71896 -9.8245e+000 -8.3425e+001  0.0000e+000 67146 71818,71870,71844
 1.4000e+000 71997 -1.0217e+002 -1.8434e+002  3.9641e+001 66948 71919,71971,71945
 1.4000e+000 72149  9.3930e+000 -4.9055e+001 -6.1544e+000 66700 72172,72074,72048
 1.4000e+000 72126 -6.7841e+000 -5.4812e+001 -2.5614e+000 66700 72172,72048,72022
 1.4000e+000 72198 -1.7911e+001 -6.2919e+001  4.7393e+000 66700 72244,72172,72100
 1.4000e+000 72221 -1.5703e+001 -5.6939e+001 -4.4031e+000 66700 72100,72172,72022
 1.4000e+000 72270 -3.2452e+000 -3.0364e+001 -3.8181e+000 66700 72074,72172,72244
 1.4000e+000 72623 -7.2989e+000 -4.5918e+001  1.9455e+000 66502 72424,72502,72450
 1.4000e+000 72600 -4.5681e+000 -3.6688e+001  3.0186e-001 66502 72398,72502,72424
 1.4000e+000 72577  2.2273e+000 -4.3798e+001 -1.6850e+000 66502 72398,72528,72502
 1.4000e+000 72554 -6.2784e+000 -4.0121e+001  1.2606e-001 66502 72450,72502,72476
 1.4000e+000 72920 -2.3305e+001 -5.8371e+001  2.9032e+000 65941 72672,72776,72750
 1.4000e+000 72897 -2.3820e+001 -4.5778e+001  9.2526e+000 65941 72646,72776,72672
 1.4000e+000 72874 -1.7355e+001 -5.7465e+001  4.7850e+000 65941 72672,72750,72724
 1.4000e+000 72851 -2.2549e+001 -4.4785e+001  1.0688e+001 65941 72672,72724,72698
 1.4000e+000 72828 -1.5514e+001 -3.7390e+001  5.7427e+000 65941 72646,72802,72776
 1.4000e+000 73241  2.8378e+000 -4.1395e+001 -2.2896e+000 65743 73264,73071,73045
 1.4000e+000 73218 -1.8332e+000 -4.8843e+001  4.8513e+000 65743 73480,73264,73045
 1.4000e+000 73195  4.2434e+000 -3.7131e+001 -5.3072e-001 65743 73336,72967,73097
 1.4000e+000 73172 -3.7485e+000 -3.4098e+001 -2.6683e+000 65743 73408,72993,72967
 1.4000e+000 73149  3.0496e+000 -3.6771e+001 -3.6940e-001 65743 72967,73123,73097
 1.4000e+000 73290  6.1512e+000 -3.5032e+001 -9.7205e-001 65743 73097,73071,73264
 1.4000e+000 73313  4.6401e+000 -3.6482e+001 -2.7759e-001 65743 73336,73097,73264
 1.4000e+000 73362 -9.6485e-002 -3.8219e+001 -1.4573e+000 65743 73408,72967,73336
 1.4000e+000 73385  7.7864e+000 -3.5060e+001  1.5941e-001 65743 73019,73336,73264
 1.4000e+000 73434  2.3409e+000 -2.2748e+001  1.5536e+000 65743 73019,72993,73408
 1.4000e+000 73457  7.6143e+000 -3.0442e+001  1.8429e+000 65743 73019,73408,73336
 1.4000e+000 73506  1.1894e+001 -1.9845e+001  3.5580e-001 65743 73019,73264,73480
 1.4000e+000 73989  1.1928e+001 -2.3575e+001  5.1902e+000 65453 73793,73845,73819
 1.4000e+000 73966 -6.3500e+000 -2.7392e+001  6.7699e+000 65453 73741,73845,73793
 1.4000e+000 73943  7.6685e+000 -1.9111e+001  3.3249e+000 65453 73715,73845,73741
 1.4000e+000 73920 -1.1229e+000 -2.7687e+001  1.0552e+001 65453 73741,73793,73767
 1.4000e+000 73897  1.2601e+001 -1.8033e+000  4.0873e+000 65453 73715,73871,73845
 1.4000e+000 74357 -1.1034e+001 -5.0074e+001 -1.3513e+001 65141 74380,74138,74086
 1.4000e+000 74334 -1.7380e+001 -6.5036e+001 -1.2079e+001 65141 74380,74086,74060
 1.4000e+000 74311 -2.2376e+001 -5.9495e+001 -2.0211e+000 65141 74138,74190,74164
 1.4000e+000 74288  4.1032e+000 -6.9561e+001 -4.5835e+000 65141 74060,74216,74190
 1.4000e+000 74265  1.8123e+000 -7.6541e+001  1.3243e+000 65141 74034,74216,74060
 1.4000e+000 74242 -1.3976e+001 -3.5556e+001 -6.9442e+000 65141 74086,74138,74112
 1.4000e+000 74406 -1.2589e+001 -6.2207e+001 -6.5377e+000 65141 74190,74138,74380
 1.4000e+000 74429 -1.5132e+001 -6.7958e+001 -6.0673e+000 65141 74190,74380,74060
 1.4000e+000 74937 -1.7056e+001 -4.6834e+001 -1.2941e+001 64737 74614,74666,74640
 1.4000e+000 74914 -2.2533e+001 -5.4437e+001 -1.0376e+001 64737 74614,74796,74666
 1.4000e+000 74891 -1.1750e+001 -3.3081e+001 -2.8744e+000 64737 74960,74718,74666
 1.4000e+000 74868 -8.8253e+000 -3.7042e+001 -6.7951e+000 64737 74960,74666,74770
 1.4000e+000 74845 -1.0253e+001 -2.6773e+001 -7.5342e+000 64737 74666,74796,74770
 1.4000e+000 74822 -1.0584e+001 -3.3615e+001 -2.4216e+000 64737 74666,74718,74692
 1.4000e+000 74986 -1.3569e+001 -3.7126e+001 -2.4600e+000 64737 74744,74718,74960
 1.4000e+000 75009 -1.1434e+001 -4.3016e+001 -6.4130e+000 64737 74744,74960,74770
 1.4000e+000 75306  2.0377e+001 -2.3257e+001  1.1845e+001 64133 75329,75110,75084
 1.4000e+000 75283  3.7685e+000 -4.1036e+001  2.8499e+000 64133 75401,75329,75084
 1.4000e+000 75260  1.5103e+000 -4.0202e+001  1.3358e+000 64133 75401,75084,75058
 1.4000e+000 75237  1.2801e+001 -4.5518e+001  4.8006e+000 64133 75473,75136,75110
 1.4000e+000 75214  1.9409e+001 -4.3337e+001 -2.8042e+000 64133 75032,75188,75162
 1.4000e+000 75355  1.2384e+001 -4.3617e+001  4.3965e+000 64133 75473,75110,75329
 1.4000e+000 75378  1.4002e+001 -4.0712e+001 -2.6317e+000 64133 75162,75329,75032
 1.4000e+000 75427  1.7414e+001 -3.3317e+001 -7.6595e-001 64133 75032,75329,75401
 1.4000e+000 75450 -6.4435e+000 -4.6847e+001  7.7375e+000 64133 75545,75401,75058
 1.4000e+000 75499  9.2458e+000 -4.2777e+001  5.2019e-001 64133 75162,75136,75473
 1.4000e+000 75522  1.0907e+001 -3.7126e+001  1.3988e+000 64133 75162,75473,75329
 1.4000e+000 75571  9.9947e+000 -1.2255e+001 -1.5460e+000 64133 75032,75401,75545
 1.4000e+000 75851 -1.1511e+001 -4.2243e+001  7.6587e+000 63843 75874,75753,75727
 1.4000e+000 75828 -4.2929e+000 -3.3586e+001  1.9504e+000 63843 75946,75874,75727
 1.4000e+000 75805 -1.0048e+001 -3.3041e+001  1.6228e+000 63843 76018,75946,75727
 1.4000e+000 75900 -2.1995e+000 -3.8324e+001  1.6316e+000 63843 75779,75753,75874
 1.4000e+000 75923 -3.9278e+000 -2.8684e+001 -4.8403e+000 63843 75779,75874,75675
 1.4000e+000 75972 -1.1459e+001 -3.7277e+001  6.6501e-002 63843 75675,75874,75946
 1.4000e+000 75995 -1.0147e+001 -3.5154e+001 -4.8934e-001 63843 75675,75946,75701
 1.4000e+000 76044 -1.3363e+001 -3.8227e+001 -2.0780e+000 63843 75701,75946,76018
 1.4000e+000 76454  3.8765e+001  5.1127e-001 -3.3389e+000 63439 76477,76255,76229
 1.4000e+000 76431  3.0497e+001 -9.4540e+000  5.1507e+000 63439 76477,76229,76359
 1.4000e+000 76408 -5.2030e+000 -1.3182e+001  8.8672e+000 63439 76307,76359,76333
 1.4000e+000 76385  1.2607e+001 -5.3742e+000  1.0565e+001 63439 76255,76307,76281
 1.4000e+000 76503  2.4547e+001 -9.3725e+000  1.9295e+000 63439 76307,76255,76477
 1.4000e+000 76526  2.7732e+001 -1.1843e+001  8.7079e+000 63439 76307,76477,76359
 1.4000e+000 76926  2.0726e+000 -3.6869e+001  4.0685e-001 63049 76704,76782,76756
 1.4000e+000 76903 -5.4555e+000 -3.9562e+001 -1.5564e+000 63049 76704,76808,76782
 1.4000e+000 76880  3.6406e+000 -4.1869e+001  1.1173e+000 63049 76704,76756,76730
 1.4000e+000 76857  1.4777e+001 -2.2108e+001  5.9006e+000 63049 76678,76808,76704
 1.4000e+000 76834  2.8314e+001  3.7533e+001 -1.6719e+001 63049 76652,76808,76678
 1.4000e+000 77076  9.3993e+000 -4.4060e+001 -4.8202e-001 62737 76975,77027,77001
 1.4000e+000 77053  1.2308e+001 -4.8392e+001 -2.9463e+000 62737 76949,77027,76975
 1.4000e+000 77324 -2.1186e+000 -4.0223e+001 -1.4480e+000 62277 77347,77177,77125
 1.4000e+000 77301 -1.3717e+000 -3.9676e+001 -1.8500e+000 62277 77347,77125,77229
 1.4000e+000 77278  7.6219e+000 -4.5262e+001 -6.1714e+000 62277 77099,77229,77125
 1.4000e+000 77255  4.1391e+000 -5.5755e+001 -2.4284e+000 62277 77125,77177,77151
 1.4000e+000 77373 -2.3074e+000 -4.1654e+001 -3.2566e-001 62277 77203,77177,77347
 1.4000e+000 77396 -2.7002e-001 -4.0273e+001 -9.9012e-001 62277 77203,77347,77229
 1.4000e+000 77857 -1.3790e+000 -5.9536e+001  1.9410e+000 61758 77635,77739,77661
 1.4000e+000 77834 -4.5778e+000 -6.0690e+001  3.1559e-001 61758 77583,77739,77635
 1.4000e+000 77811 -7.1955e+000 -7.6065e+001 -4.5405e+000 61758 77583,77635,77609
 1.4000e+000 77788  1.1194e+001 -5.7455e+001  8.0082e+000 61758 77661,77713,77687
 1.4000e+000 77765 -3.8380e+000 -6.8055e+001  1.0446e+000 61758 77661,77739,77713
 1.4000e+000 78491 -1.0056e+001 -3.4787e+001 -6.4670e-001 61418 78171,78301,78249
 1.4000e+000 78468 -2.7685e+000 -2.5939e+001  2.9925e+000 61418 78145,78301,78171
 1.4000e+000 78445  9.3194e+000 -2.3721e+001 -6.1913e+000 61418 78171,78249,78223
 1.4000e+000 78422 -7.2084e+000 -2.7948e+001  5.6261e+000 61418 78145,78327,78301
 1.4000e+000 78399 -7.0885e+000 -3.2981e+001 -5.5264e+000 61418 78249,78301,78275
 1.4000e+000 78376  2.6898e+000 -3.9838e+001 -2.0292e+000 61418 78171,78223,78197
 1.4000e+000 78353 -1.1448e+001 -1.2416e+001  8.2335e+000 61418 78119,78327,78145
 1.4000e+000 78690  3.9544e-001 -5.2998e+001 -2.2985e+000 61014 78713,78566,78540
 1.4000e+000 78667 -2.7371e+000 -5.5485e+001 -1.2082e+000 61014 78713,78540,78618
 1.4000e+000 78644 -1.9286e+001 -6.6219e+001 -9.3396e+000 61014 78514,78618,78540
 1.4000e+000 78739 -7.8205e-001 -5.2409e+001 -3.0141e+000 61014 78592,78566,78713
 1.4000e+000 78762 -7.9978e+000 -5.3733e+001 -3.3724e+000 61014 78785,78713,78618
 1.4000e+000 78811  1.9723e+000 -4.9903e+001 -4.6412e+000 61014 78592,78713,78785
 1.4000e+000 79398  6.0175e+000 -4.4517e+001 -3.6462e-001 60624 79101,79179,79153
 1.4000e+000 79375 -1.0602e+000 -4.8752e+001  1.5077e+000 60624 79101,79231,79179
 1.4000e+000 79352  1.9751e+001 -3.9787e+001  2.9459e+000 60624 79075,79231,79101
 1.4000e+000 79329 -6.0921e+000 -5.8636e+001  1.2299e+001 60624 79075,79257,79231
 1.4000e+000 79306 -2.6092e+000 -4.4696e+001 -8.2203e+000 60624 79179,79231,79205
 1.4000e+000 79283  4.0302e+000 -4.8324e+001 -4.8393e+000 60624 79101,79153,79127
 1.4000e+000 79776 -1.6353e+001 -5.8789e+001  5.7041e+000 60070 79528,79658,79606
 1.4000e+000 79753 -1.4359e+001 -4.7801e+001  1.1094e+000 60070 79502,79658,79528
 1.4000e+000 79730 -1.9458e+001 -5.1770e+001  1.1443e+001 60070 79528,79606,79580
 1.4000e+000 79707 -6.6888e+000 -5.1778e+001  2.5191e+000 60070 79606,79658,79632
 1.4000e+000 79684 -1.5729e+000 -3.0774e+001 -7.7112e+000 60070 79528,79580,79554
 1.4000e+000 80105 -1.7239e+001 -4.9000e+001  4.6927e+000 59758 80128,79958,79906
 1.4000e+000 80082 -1.6076e+001 -4.8474e+001  4.4819e+000 59758 80128,79906,80010
 1.4000e+000 80059 -2.8210e+001 -6.5550e+001  1.2503e+001 59758 79906,79958,79932
 1.4000e+000 80036 -2.4316e+001 -4.3918e+001  6.7331e+000 59758 79880,80010,79906
 1.4000e+000 80154 -1.6601e+001 -4.9371e+001  5.2556e+000 59758 79984,79958,80128
 1.4000e+000 80177 -1.5773e+001 -4.9039e+001  5.1488e+000 59758 79984,80128,80010
 1.4000e+000 80376 -5.7826e+000 -5.7059e+001  4.6342e-001 59312 80226,80304,80252
 1.4000e+000 80353 -8.0532e-001 -6.1038e+001  1.8817e+000 59312 80200,80304,80226
 1.4000e+000 80330 -1.3751e+001 -5.0644e+001  1.3839e+001 59312 80252,80304,80278
 1.4000e+000 80805 -4.5403e-001 -2.3163e+001 -3.9365e+000 58908 80900,80828,80638
 1.4000e+000 80782 -6.6463e+000 -3.2849e+001 -7.5988e+000 58908 80828,80560,80508
 1.4000e+000 80759 -6.2657e-001 -2.2354e+001 -2.6932e+000 58908 80900,80638,80612
 1.4000e+000 80736  6.3841e+000 -1.9369e+001  2.0284e+001 58908 80482,80664,80508
 1.4000e+000 80713  3.2646e+000 -2.4778e+001 -5.5166e-001 58908 80560,80612,80586
 1.4000e+000 80690  1.4846e+001 -7.0438e+001 -3.1513e+001 58908 80508,80560,80534
 1.4000e+000 80854  9.2792e+000 -2.7997e+001  4.3102e+000 58908 80664,80638,80828
 1.4000e+000 80877  1.3711e+000 -4.4420e+001  1.9239e+000 58908 80664,80828,80508
 1.4000e+000 80926  1.6439e-001 -2.0853e+001 -3.9417e+000 58908 80560,80828,80900
 1.4000e+000 80949 -2.5134e-001 -2.0761e+001 -2.5181e+000 58908 80560,80900,80612
 1.4000e+000 81246  7.3501e+000 -2.5576e+001  2.1866e-001 58482 81076,81128,81102
 1.4000e+000 81223 -3.8319e+000 -5.0042e+001 -5.3035e+000 58482 80972,81128,81076
 1.4000e+000 81200  2.5042e+000 -3.1671e+001 -6.3285e+000 58482 80972,81076,81050
 1.4000e+000 81177 -2.8171e+000 -4.3019e+001 -7.5576e+000 58482 80998,81050,81024
 1.4000e+000 81154 -8.8795e-001 -3.1356e+001 -9.0351e+000 58482 80972,81050,80998
 1.4000e+000 81754 -7.9930e+000 -2.5151e+001  4.1007e+000 57828 81457,81613,81483
 1.4000e+000 81731 -8.3865e+000 -2.4339e+001  1.9582e+000 57828 81431,81613,81457
 1.4000e+000 81708 -9.0433e+000 -2.7560e+001  5.2124e+000 57828 81483,81613,81509
 1.4000e+000 81685 -1.2180e+001 -2.9984e+001  6.5088e+000 57828 81509,81613,81587
 1.4000e+000 81662 -1.0385e+001 -4.7497e+001  1.3124e+001 57828 81509,81587,81535
 1.4000e+000 81639  8.2518e+000 -3.3878e+001  6.1110e+000 57828 81535,81587,81561
 1.4000e+000 82002 -1.2146e+001 -6.6442e+001 -1.4695e+000 57374 82025,81855,81829
 1.4000e+000 81979 -9.7583e+000 -5.8698e+001  3.7943e+000 57374 82025,81829,81907
 1.4000e+000 81956 -1.2894e+001 -6.1844e+001  2.2256e+000 57374 81803,81907,81829
 1.4000e+000 81933 -1.3273e+001 -6.0897e+001  3.2643e+000 57374 81777,81907,81803
 1.4000e+000 82051 -2.1167e+001 -5.8196e+001  1.5728e+000 57374 81881,81855,82025
 1.4000e+000 82074 -9.3037e+000 -4.6807e+001  9.7918e+000 57374 81881,82025,81907
 1.4000e+000 82356  2.2964e+000 -2.4828e+001 -2.4753e+000 56913 82180,82232,82206
 1.4000e+000 82333 -1.9007e-001 -3.2673e+001  1.0959e+000 56913 82180,82284,82232
 1.4000e+000 82310  1.6770e+001 -2.6523e+001  6.7451e+000 56913 82379,82232,82284
 1.4000e+000 82405  4.3097e+001 -8.3884e+000  2.2318e+001 56913 82258,82232,82379
 1.4000e+000 82764 -2.1197e+000 -1.0584e+001 -2.7564e+000 56523 82614,82666,82640
 1.4000e+000 82741 -4.3736e+000 -1.2139e+001 -1.6738e+000 56523 82614,82692,82666
 1.4000e+000 82718  1.3565e+001 -1.0182e+001 -9.2528e+000 56523 82588,82692,82614
 1.4000e+000 83368 -4.1323e-001 -5.4124e+001 -6.3991e-001 55969 82973,83155,83129
 1.4000e+000 83345  3.9069e+000 -5.2388e+001 -4.5609e-001 55969 82973,83181,83155
 1.4000e+000 83322 -2.7470e+000 -4.5585e+001 -2.0480e+000 55969 82973,83129,82999
 1.4000e+000 83299 -2.3574e+001 -5.7318e+001  5.1454e+000 55969 83391,83025,82999
 1.4000e+000 83276 -1.6632e+001 -5.2907e+001  2.3408e+000 55969 83391,82999,83129
 1.4000e+000 83253  4.5044e+000 -3.9718e+001  9.4127e+000 55969 83077,83129,83103
 1.4000e+000 83230 -2.1303e+001 -3.7682e+001 -7.8827e+000 55969 83025,83077,83051
 1.4000e+000 83207  3.0405e+001 -4.1442e+001 -1.6938e+000 55969 82947,83181,82973
 1.4000e+000 83417 -1.6212e+001 -5.6477e+001  2.3030e+000 55969 83077,83025,83391
 1.4000e+000 83440 -1.3311e+001 -5.5500e+001  4.0051e-002 55969 83077,83391,83129
 1.4000e+000 83946 -1.9211e+001 -6.3073e+001  1.1344e+001 55771 83969,83779,83727
 1.4000e+000 83923 -1.3400e+001 -5.1539e+001  6.9460e+000 55771 83969,83727,83623
 1.4000e+000 83900 -2.1134e+001 -2.6884e+001  5.1142e+000 55771 83623,83727,83649
 1.4000e+000 83877  1.0720e+001 -8.1968e+001  1.5922e+001 55771 83727,83779,83753
 1.4000e+000 83854 -2.3847e+001 -4.3948e+001  2.0892e+001 55771 83675,83727,83701
 1.4000e+000 83831 -4.0681e+001 -4.6174e+001  2.0623e+001 55771 83649,83727,83675
 1.4000e+000 83995 -1.7082e+001 -6.5115e+001 -3.1754e+000 55771 83805,83779,83969
 1.4000e+000 84018 -4.4679e+000 -4.1697e+001 -8.9083e+000 55771 83805,83969,83623
 1.4000e+000 84168  3.2142e+000 -1.7905e+001  1.2075e+000 55367 84191,84067,84041
 1.4000e+000 84145  2.6827e+000 -1.7630e+001  1.3417e+000 55367 84191,84041,84119
 1.4000e+000 84217  2.7265e+000 -1.7572e+001  1.1126e+000 55367 84093,84067,84191
 1.4000e+000 84240  1.5022e+000 -1.7825e+001  1.1433e+000 55367 84093,84191,84119
 1.4000e+000 84571 -1.3629e+001 -4.7608e+001 -5.1419e+000 54913 84398,84450,84424
 1.4000e+000 84548 -9.8488e+000 -4.4745e+001 -3.8220e+000 54913 84372,84450,84398
 1.4000e+000 84525 -1.6663e+001 -5.0083e+001 -3.4565e-002 54913 84346,84450,84372
 1.4000e+000 84502 -8.6799e+000 -3.1548e+001 -4.4250e+000 54913 84346,84476,84450
 1.4000e+000 85126 -2.2728e+001 -5.7789e+001 -4.1487e+000 54402 84858,84936,84910
 1.4000e+000 85103 -1.4417e+001 -3.8455e+001 -4.7067e+000 54402 84806,84936,84858
 1.4000e+000 85080 -1.8509e+001 -3.7253e+001 -4.5164e+000 54402 84780,84936,84806
 1.4000e+000 85057 -1.6526e+001 -4.2067e+001 -2.7400e+000 54402 84806,84858,84832
 1.4000e+000 85034 -1.7346e+001 -3.6068e+001 -1.3334e+000 54402 84780,84962,84936
 1.4000e+000 85011 -1.4751e+001 -2.3705e+001  2.0588e+000 54402 84858,84910,84884
 1.4000e+000 84988 -1.4947e+001 -3.1767e+001 -3.6037e-001 54402 84754,84962,84780
 1.4000e+000 85396 -1.9948e+000 -1.5397e+001 -1.1570e+000 53998 85197,85249,85223
 1.4000e+000 85373 -1.6890e+000 -1.7687e+001 -5.3929e-001 53998 85197,85275,85249
 1.4000e+000 85350 -7.1287e+000 -2.3357e+001 -2.7585e+000 53998 85171,85275,85197
 1.4000e+000 85327  6.1289e+000 -1.9373e+001 -3.8713e+000 53998 85171,85301,85275
 1.4000e+000 85749 -6.0161e-001 -5.2788e+001 -3.6316e+000 53636 85524,85628,85550
 1.4000e+000 85726 -1.0420e+001 -5.9534e+001 -2.1159e-001 53636 85524,85654,85628
 1.4000e+000 85703  1.7019e+000 -5.7547e+001  1.3202e+000 53636 85550,85602,85576
 1.4000e+000 85680  1.6767e+001 -4.5004e+001 -5.4080e+000 53636 85550,85628,85602
 1.4000e+000 86127  1.8306e+000 -5.1755e+001  7.9280e+000 52982 86150,85957,85879
 1.4000e+000 86104 -4.0940e+000 -5.6050e+001  6.0522e+000 52982 86150,85879,85853
 1.4000e+000 86081  5.1623e+000 -5.5854e+001  1.6105e+001 52982 85957,86009,85983
 1.4000e+000 86058 -1.1705e+001 -5.6011e+001  7.7301e+000 52982 85879,85957,85931
 1.4000e+000 86035 -3.4458e+000 -4.6880e+001  1.4726e+000 52982 85879,85931,85905
 1.4000e+000 86176  5.7138e+000 -5.6511e+001  7.1116e+000 52982 86009,85957,86150
 1.4000e+000 86199  2.1830e+000 -5.9412e+001  5.8273e+000 52982 86009,86150,85853
 1.4000e+000 86398  4.8277e+000 -1.8778e+001  3.5073e+000 52542 86421,86248,86222
 1.4000e+000 86375 -2.5813e+000 -2.1304e+001  7.5987e-002 52542 86421,86222,86300
 1.4000e+000 86352 -2.9962e+000 -2.2315e+001  1.3040e-001 52542 86222,86326,86300
 1.4000e+000 86447  1.3297e+001 -1.9856e+001  7.8758e+000 52542 86274,86248,86421
 1.4000e+000 86470  5.5757e+000 -2.4514e+001  3.4681e+000 52542 86274,86421,86300
 1.4000e+000 86669  4.1606e-001 -2.0105e+001 -1.2459e+001 52230 86692,86571,86545
 1.4000e+000 86646 -2.6296e+000 -2.5945e+001 -7.6235e+000 52230 86692,86545,86519
 1.4000e+000 86623 -1.1886e+001 -1.8239e+001 -1.0772e+000 52230 86493,86597,86519
 1.4000e+000 86718 -3.0997e+000 -2.0381e+001 -6.6448e+000 52230 86597,86571,86692
 1.4000e+000 86741 -9.4443e+000 -2.7719e+001 -1.5374e+000 52230 86597,86692,86519
 1.4000e+000 87153 -1.5575e+001 -3.2301e+001 -5.0088e-001 51640 86980,87058,87032
 1.4000e+000 87130 -1.2660e+001 -3.4151e+001 -1.1674e+000 51640 86928,87058,86980
 1.4000e+000 87107 -7.4098e+000 -6.8904e+001 -1.9923e+001 51640 86928,86980,86954
 1.4000e+000 87084 -9.8717e+000 -2.9878e+001 -1.2433e+000 51640 86980,87032,87006
 1.4000e+000 87659 -9.9511e+000 -2.9897e+001  2.9033e+000 51029 87682,87440,87362
 1.4000e+000 87636 -1.3688e+001 -3.3118e+001 -1.3172e-001 51029 87682,87362,87336
 1.4000e+000 87613 -1.6993e+001 -5.1740e+001 -2.5388e+000 51029 87440,87518,87466
 1.4000e+000 87590 -1.6463e+001 -3.2274e+001  4.1563e+000 51029 87362,87440,87414
 1.4000e+000 87567 -1.6478e+001 -3.0323e+001  1.3330e+001 51029 87362,87414,87388
 1.4000e+000 87544 -1.8081e+001 -4.1392e+001 -2.0859e+000 51029 87466,87518,87492
 1.4000e+000 87708 -8.2746e+000 -3.4262e+001  3.3896e-001 51029 87518,87440,87682
 1.4000e+000 87731 -1.0037e+001 -3.8412e+001 -1.5962e+000 51029 87518,87682,87336
 1.4000e+000 87881 -1.5888e+000 -3.1532e+001  5.2282e-001 50739 87780,87832,87806
 1.4000e+000 87858 -1.9716e-001 -2.7609e+001  5.2964e-001 50739 87754,87832,87780
 1.4000e+000 88468  9.0166e+000 -1.0765e+001 -1.3378e+000 50235 88171,88327,88197
 1.4000e+000 88445 -1.5035e+001 -2.4477e-001 -1.0027e+001 50235 88145,88327,88171
 1.4000e+000 88422  4.6158e+001 -3.7805e+000 -3.0337e+000 50235 88275,88327,88301
 1.4000e+000 88399  1.0668e+001 -1.8992e+001 -3.0263e+000 50235 88197,88327,88275
 1.4000e+000 88376  1.4602e+001 -1.3499e+001 -1.2079e+000 50235 88197,88275,88223
 1.4000e+000 88353  7.9446e+000 -2.3354e+001  2.4002e+000 50235 88223,88275,88249
 1.4000e+000 88895  5.3313e-001 -3.4939e+001  3.5770e+000 49873 88918,88728,88676
 1.4000e+000 88872  5.7545e-001 -3.4901e+001  3.5455e+000 49873 88918,88676,88624
 1.4000e+000 88849 -3.5263e-001 -2.4800e+001  2.7342e+000 49873 88598,88754,88624
 1.4000e+000 88826  5.0784e+000 -3.1404e+001  1.2026e+000 49873 88624,88676,88650
 1.4000e+000 88803  4.0682e+000 -4.5509e+001  4.1722e+000 49873 88676,88728,88702
 1.4000e+000 88780  3.7591e+000 -2.5917e+001  1.7247e+000 49873 88572,88754,88598
 1.4000e+000 88944  6.3623e-001 -3.4911e+001  3.5496e+000 49873 88754,88728,88918
 1.4000e+000 88967  6.4783e-001 -3.4907e+001  3.5254e+000 49873 88754,88918,88624
 1.4000e+000 89473 -1.3482e+001 -3.6680e+001 -4.3414e+000 49583 89176,89306,89202
 1.4000e+000 89450 -1.2715e+001 -3.6309e+001 -4.4742e+000 49583 89176,89332,89306
 1.4000e+000 89427  1.3717e+001 -4.1453e+001  1.1874e+000 49583 89496,89228,89202
 1.4000e+000 89404  7.7347e+000 -3.9338e+001  5.5654e-001 49583 89496,89202,89280
 1.4000e+000 89381 -2.0844e+001 -5.5050e+001 -1.0053e+001 49583 89202,89306,89280
 1.4000e+000 89358 -1.2294e+000 -3.1348e+001 -2.8568e+000 49583 89150,89332,89176
 1.4000e+000 89522  5.7956e+000 -5.1979e+001 -2.7588e+000 49583 89254,89228,89496
 1.4000e+000 89545  5.8632e+000 -4.0789e+001 -1.0579e-001 49583 89254,89496,89280
 1.4000e+000 89825  1.0301e+001 -3.5433e+001  1.4873e-001 49179 89701,89753,89727
 1.4000e+000 89802  1.8031e+001 -2.6654e+001 -3.1878e+000 49179 89675,89753,89701
 1.4000e+000 89779  2.2710e+001 -2.3301e+001  8.9390e+000 49179 89848,89753,89675
 1.4000e+000 89874 -3.8558e+000 -3.4428e+001  1.1804e+000 49179 89649,89753,89848
 1.4000e+000 90223 -5.8316e+000 -4.2446e+001  6.0361e-001 48739 90024,90102,90076
 1.4000e+000 90200 -3.7326e-001 -3.9183e+001  2.2366e+000 48739 90024,90128,90102
 1.4000e+000 90177 -1.8208e+000 -4.0210e+001 -3.5618e-001 48739 90024,90076,90050
 1.4000e+000 90154 -3.9692e+000 -4.8770e+001  1.0015e+000 48739 89998,90128,90024
 1.4000e+000 90603 -1.1198e+001 -3.9795e+001  6.6450e+000 48335 90381,90485,90459
 1.4000e+000 90580 -1.5903e+001 -4.3445e+001  3.7529e+000 48335 90355,90485,90381
 1.4000e+000 90557  3.2356e-002 -5.1561e+000  3.5758e+000 48335 90381,90433,90407
 1.4000e+000 90534 -6.9739e+000 -3.9595e+001  5.0929e+000 48335 90381,90459,90433
 1.4000e+000 90511  9.6142e+000 -2.5388e+001  1.4532e+001 48335 90329,90485,90355
 1.4000e+000 90753  1.9296e+001 -1.4911e+001  1.2167e+001 47824 90776,90652,90704
 1.4000e+000 90730  8.8704e+000 -3.2712e+001  6.8112e+000 47824 90626,90704,90652
 1.4000e+000 90802  4.4028e+000 -2.5643e+001  7.4099e+000 47824 90678,90652,90776
 1.4000e+000 91131 -6.7401e+000 -4.3902e+001  3.1539e+000 47427 91154,90958,90906
 1.4000e+000 91108 -1.8685e+001 -4.9080e+001  3.9137e+000 47427 91154,90906,91036
 1.4000e+000 91085 -1.1299e+001 -3.4687e+001 -2.9579e+000 47427 90958,91010,90984
 1.4000e+000 91062 -5.6382e+000 -3.2257e+001  3.8159e+000 47427 90906,90958,90932
 1.4000e+000 91180 -1.3104e+001 -4.1059e+001 -4.9503e+000 47427 91010,90958,91154
 1.4000e+000 91203 -2.4337e+001 -4.5862e+001 -4.3653e+000 47427 91010,91154,91036
 1.4000e+000 91583 -2.5411e+001 -5.5425e+001  4.6072e+000 46873 91309,91439,91335
 1.4000e+000 91560 -2.1638e+001 -4.6924e+001  2.6539e+000 46873 91309,91465,91439
 1.4000e+000 91537 -3.1454e+001 -6.6964e+001 -9.2229e+000 46873 91361,91439,91413
 1.4000e+000 91514 -1.5867e+001 -5.2074e+001  1.1488e-001 46873 91335,91439,91361
 1.4000e+000 91491  3.0505e+001 -5.3885e+001 -1.1901e+001 46873 91361,91413,91387
 1.4000e+000 91880 -1.3120e+000 -3.7112e+001 -3.1157e+000 46526 91606,91710,91658
 1.4000e+000 91857 -4.3454e-001 -4.0969e+001 -2.8136e-001 46526 91606,91762,91710
 1.4000e+000 91834  6.2761e+000 -3.6790e+001 -9.1885e+000 46526 91606,91658,91632
 1.4000e+000 91811 -4.7581e+000 -3.1284e+001  2.7533e-001 46526 91658,91710,91684
 1.4000e+000 91788  4.9087e+000 -2.3725e+001  1.6957e+000 46526 91710,91762,91736
 1.4000e+000 92211  4.9982e+000 -1.8844e+001 -1.3664e+000 45700 91986,92064,92038
 1.4000e+000 92188 -9.7360e+000 -3.7355e+001  5.0174e+000 45700 91986,92116,92064
 1.4000e+000 92165  1.1234e+001 -1.1190e+001 -1.1003e+001 45700 91986,92038,92012
 1.4000e+000 92142 -9.3743e+000 -3.4737e+001  4.6884e+000 45700 92064,92116,92090
 1.4000e+000 92766 -2.5904e+001 -4.0796e+001 -2.9614e+000 45452 92446,92602,92576
 1.4000e+000 92743 -4.3344e+001 -4.0329e+001 -1.3376e+001 45452 92420,92602,92446
 1.4000e+000 92720 -2.9555e+001 -5.4179e+001  2.3862e+000 45452 92789,92524,92498
 1.4000e+000 92697 -3.3821e+001 -4.6207e+001  1.6080e+000 45452 92789,92498,92446
 1.4000e+000 92674 -3.3234e+001 -6.1438e+001 -8.7499e+000 45452 92524,92576,92550
 1.4000e+000 92651 -4.3460e+001 -4.6320e+001  2.0836e+001 45452 92446,92498,92472
 1.4000e+000 92628 -1.4893e+001 -3.3060e+001 -1.2419e+001 45452 92394,92602,92420
 1.4000e+000 92815 -2.5848e+001 -4.8375e+001  7.3892e-001 45452 92576,92524,92789
 1.4000e+000 92838 -3.0819e+001 -4.1932e+001  6.1428e-002 45452 92576,92789,92446
 1.4000e+000 92939 -5.4595e+000 -4.4707e+001 -1.2674e+001 44998 92861,92913,92887
 1.4000e+000 93319 -2.2503e+000 -5.3700e+001  9.8022e+000 44601 93123,93201,93149
 1.4000e+000 93296 -7.8105e+000 -5.4212e+001  2.6858e+000 44601 93045,93201,93123
 1.4000e+000 93273  3.7372e+000 -3.3867e+001 -2.5203e+000 44601 93045,93123,93071
 1.4000e+000 93250  1.4027e+001 -3.6013e+001 -1.1379e+001 44601 93071,93123,93097
 1.4000e+000 93227  6.4139e-001 -3.1514e+001  1.0264e+001 44601 93149,93201,93175
 1.4000e+000 93697  1.2406e+000 -4.7364e+001  6.4337e-001 44026 93720,93553,93527
 1.4000e+000 93674  2.2791e+000 -4.2131e+001  2.1872e+000 44026 93720,93527,93449
 1.4000e+000 93651  1.4252e+000 -4.5949e+001  4.8901e+000 44026 93449,93527,93501
 1.4000e+000 93628 -3.3927e+000 -3.3357e+001 -4.9767e+000 44026 93423,93579,93449
 1.4000e+000 93605  1.2145e+001 -4.3017e+001  5.7618e+000 44026 93449,93501,93475
 1.4000e+000 93746 -2.4788e+000 -4.1278e+001  5.7466e-001 44026 93579,93553,93720
 1.4000e+000 93769 -5.1272e-001 -3.5184e+001  2.5395e+000 44026 93579,93720,93449
 1.4000e+000 94066 -5.2439e+000 -3.8297e+001 -3.1242e+000 43579 94089,93818,93792
 1.4000e+000 94043 -3.2112e+000 -3.7898e+001 -3.3872e+000 43579 94161,94089,93792
 1.4000e+000 94020 -3.1911e+000 -3.7968e+001 -2.9772e+000 43579 94161,93792,93948
 1.4000e+000 93997 -1.5329e+000 -3.4396e+001 -2.4707e+000 43579 94233,93870,93818
 1.4000e+000 93974  2.8335e+000 -3.7150e+001  8.8611e-001 43579 93818,93870,93844
 1.4000e+000 94115 -2.5840e+000 -3.4671e+001 -1.6152e+000 43579 94233,93818,94089
 1.4000e+000 94138 -1.0227e+001 -3.8393e+001 -4.0301e+000 43579 93896,94089,93922
 1.4000e+000 94187 -2.9595e+000 -3.7198e+001 -3.5629e+000 43579 93922,94089,94161
 1.4000e+000 94210 -3.0393e+000 -3.7263e+001 -3.1083e+000 43579 93922,94161,93948
 1.4000e+000 94259  2.9864e+000 -3.2593e+001 -6.5860e+000 43579 93896,93870,94233
 1.4000e+000 94282 -2.1666e+000 -3.4844e+001 -5.6923e+000 43579 93896,94233,94089
 1.4000e+000 94481 -4.8727e+000 -4.0306e+001 -8.4193e-001 43239 94305,94383,94357
 1.4000e+000 94458 -1.2224e+000 -3.5033e+001  6.0052e+000 43239 94305,94409,94383
 1.4000e+000 94435 -3.3544e+000 -4.0539e+001 -1.3237e+000 43239 94305,94357,94331
 1.4000e+000 94633 -3.4342e+000 -3.3791e+001  8.3666e+000 42827 94656,94532,94506
 1.4000e+000 94610 -1.1670e+001 -3.8523e+001  1.1311e+001 42827 94728,94656,94506
 1.4000e+000 94682  5.1693e-001 -4.1852e+001  8.1171e+000 42827 94558,94532,94656
 1.4000e+000 94705  8.7273e+000 -4.1068e+001  3.8969e+000 42827 94988,94860,94656
 1.4000e+000 94754 -1.0173e+000 -3.0826e+001  1.6505e+000 42827 94988,94656,94728
 1.4000e+000 94886  1.8873e+001 -3.6865e+001  4.2662e+000 42827 94558,94656,94860
 1.4000e+000 95014  1.7145e+001 -3.2195e+001 -8.5723e-003 42827 94584,94860,94988
 1.4000e+000 95037  7.9609e+000 -2.3899e+001 -2.5694e+000 42827 94584,94988,94728
 1.4000e+000 95236 -1.4805e+001 -6.7819e+001  4.8590e+000 42537 95259,95112,95060
 1.4000e+000 95213 -1.2926e+001 -7.2002e+001  6.6369e+000 42537 95259,95060,95164
 1.4000e+000 95190 -8.2691e+000 -6.2266e+001 -2.0640e+000 42537 95060,95112,95086
 1.4000e+000 95285 -1.3607e+001 -6.5488e+001  5.3028e+000 42537 95138,95112,95259
 1.4000e+000 95308 -1.0759e+001 -6.7758e+001  7.3890e+000 42537 95138,95259,95164
 1.4000e+000 95816 -1.2540e+001 -5.6353e+001 -3.1834e+000 41969 95493,95597,95519
 1.4000e+000 95793 -2.5768e+001 -5.3205e+001  8.5398e+000 41969 95493,95649,95597
 1.4000e+000 95770 -2.1673e+001 -4.8213e+001  4.6100e+000 41969 95493,95675,95649
 1.4000e+000 95747 -2.4761e+001 -6.3118e+001  7.4068e+000 41969 95597,95649,95623
 1.4000e+000 95724 -2.8615e+001 -5.2252e+001 -5.6405e+000 41969 95519,95597,95571
 1.4000e+000 95701 -2.3303e+001 -4.6828e+001 -2.6541e+001 41969 95519,95571,95545
 1.4000e+000 96371 -1.3088e+001 -4.9898e+001  3.4021e+000 41579 96025,96207,96181
 1.4000e+000 96348  8.4030e+000 -3.9796e+001 -3.9828e+000 41579 95999,96207,96025
 1.4000e+000 96325 -2.3602e+001 -3.9221e+001 -1.2891e+001 41579 96129,96181,96155
 1.4000e+000 96302  8.0969e+000 -3.3351e+001 -3.8334e+000 41579 96025,96181,96129
 1.4000e+000 96279 -1.1853e+001 -6.1269e+001  1.2441e+001 41579 96025,96129,96051
 1.4000e+000 96256 -2.4042e+001 -6.7469e+001  2.1967e+001 41579 96051,96103,96077
 1.4000e+000 96233  1.1569e+001 -4.2366e+001  4.2329e+000 41579 96051,96129,96103
 1.4000e+000 96877  3.4874e+000 -3.5664e+001  5.1739e-001 41182 96972,96900,96632
 1.4000e+000 96854  5.4265e+000 -3.3096e+001  9.3307e-002 41182 96900,96554,96736
 1.4000e+000 96831  1.2574e+000 -3.3816e+001 -6.0343e+000 41182 96972,96632,96580
 1.4000e+000 96808  1.0351e+001 -3.3327e+001  2.2553e+000 41182 96632,96684,96658
 1.4000e+000 96785 -7.4869e+000 -4.5407e+001 -2.5834e+000 41182 96684,96736,96710
 1.4000e+000 96762 -1.3186e+001 -4.9514e+001  3.0752e+000 41182 96580,96632,96606
 1.4000e+000 96926  4.3593e+000 -3.6724e+001  7.8467e-001 41182 96684,96632,96900
 1.4000e+000 96949 -2.8608e+000 -3.4088e+001 -1.2062e+000 41182 96684,96900,96736
 1.4000e+000 96998  1.3827e+001 -3.2120e+001 -3.7124e+000 41182 96554,96900,96972
 1.4000e+000 97021  1.4694e+001 -2.6388e+001 -1.0960e+001 41182 96554,96972,96580
 1.4000e+000 97576 -2.8366e+001 -9.5472e+001 -1.5043e+001 40678 97230,97412,97282
 1.4000e+000 97553  1.1383e+001 -7.5691e+001  5.2228e+000 40678 97204,97412,97230
 1.4000e+000 97530 -1.4015e+001 -7.1975e+001 -1.1451e+001 40678 97282,97360,97308
 1.4000e+000 97507 -7.1128e+000 -6.7834e+001 -4.7586e+000 40678 97282,97412,97360
 1.4000e+000 97484 -5.6025e+000 -4.4500e+001 -8.7040e+000 40678 97308,97360,97334
 1.4000e+000 97461 -2.9643e+001 -9.1134e+001  5.1262e+000 40678 97360,97412,97386
 1.4000e+000 97438 -7.8367e+000 -6.0681e+001 -2.3310e+000 40678 97230,97282,97256
 1.4000e+000 97976 -1.2649e+001 -3.4712e+001 -1.1372e+000 40244 97702,97832,97754
 1.4000e+000 97953 -7.7933e+000 -3.8243e+001 -1.3759e+000 40244 97702,97858,97832
 1.4000e+000 97930 -1.9389e+001 -5.2959e+001 -9.1825e+000 40244 97702,97754,97728
 1.4000e+000 97907 -1.1390e+000 -3.5088e+001  1.6105e+001 40244 97780,97832,97806
 1.4000e+000 97884 -1.0600e+001 -3.2098e+001  1.5196e+000 40244 97754,97832,97780
 1.4000e+000 98482 -1.3861e+001 -4.2956e+001  2.7329e+000 39690 98505,98185,98159
 1.4000e+000 98459 -9.2684e+000 -4.3225e+001  4.9582e+000 39690 98505,98159,98289
 1.4000e+000 98436 -2.5875e+001 -6.8358e+001  1.7167e+001 39690 98159,98315,98289
 1.4000e+000 98413 -1.3166e+001 -3.9741e+001  4.4516e+000 39690 98211,98289,98263
 1.4000e+000 98390 -9.8364e+000 -2.6015e+001  2.6488e+000 39690 98211,98263,98237
 1.4000e+000 98367  3.6203e+001 -3.8660e+001  5.1567e+000 39690 98159,98341,98315
 1.4000e+000 98531 -2.1808e+001 -4.3539e+001  5.9679e-001 39690 98211,98185,98505
 1.4000e+000 98554 -1.3961e+001 -4.0152e+001  3.9012e+000 39690 98211,98505,98289
 1.4000e+000 99109 -5.7456e+000 -3.6846e+001 -3.4871e+000 39072 99132,98867,98789
 1.4000e+000 99086 -6.0937e+000 -3.7916e+001 -4.2328e+000 39072 99132,98789,98763
 1.4000e+000 99063 -1.0307e+001 -5.5843e+001  6.6551e+000 39072 98867,98945,98919
 1.4000e+000 99040 -6.4081e+000 -3.9652e+001 -1.6985e+000 39072 98789,98867,98841
 1.4000e+000 99017 -1.1455e+001 -5.9173e+001  6.2657e+000 39072 98867,98919,98893
 1.4000e+000 98994 -1.3417e+001 -3.8817e+001  5.3180e+000 39072 98789,98841,98815
 1.4000e+000 98971  3.0112e-001 -4.0691e+001 -1.6726e+001 39072 98737,98945,98763
 1.4000e+000 99158 -5.1922e+000 -3.8165e+001 -3.8062e+000 39072 98945,98867,99132
 1.4000e+000 99181 -5.4390e+000 -3.9603e+001 -4.1520e+000 39072 98945,99132,98763
 1.4000e+000 99510 -6.2543e+000 -3.7422e+001  1.6624e+000 38668 99311,99389,99363
 1.4000e+000 99487 -1.0912e+001 -3.8555e+001  2.6521e+000 38668 99285,99389,99311
 1.4000e+000 99464 -2.1248e+001 -4.1777e+001  6.7859e+000 38668 99285,99415,99389
 1.4000e+000 99441 -8.9979e+000 -4.0478e+001  3.0899e+000 38668 99311,99363,99337
 1.4000e+000 99758 -2.2918e+000 -5.2833e+001  5.1021e+000 38164 99781,99611,99585
 1.4000e+000 99735  6.9605e+000 -5.2415e+001  6.7460e+000 38164 99781,99585,99533
 1.4000e+000 99712 -6.2336e+000 -4.5509e+001  6.2959e+000 38164 99611,99663,99637
 1.4000e+000 99689  1.0924e+001 -4.9651e+001  1.7023e+000 38164 99533,99585,99559
 1.4000e+000 99807 -7.3126e+000 -5.0604e+001  7.5506e+000 38164 99663,99611,99781
 1.4000e+000 99830 -9.8998e-001 -5.2188e+001  7.5796e+000 38164 99663,99781,99533
 1.4000e+000 100232 -1.8925e+001 -4.7499e+001  2.3898e-001 37702 99984,100114,100088
 1.4000e+000 100209 -1.4851e+001 -4.9810e+001  4.7787e+000 37702 99958,100114,99984
 1.4000e+000 100186 -2.5790e+001 -6.1529e+001 -4.1631e+000 37702 100010,100088,100036
 1.4000e+000 100163 -1.7436e+001 -4.6929e+001 -2.3827e-001 37702 99984,100088,100010
 1.4000e+000 100140 -1.6130e+001 -5.2410e+001 -1.5503e+001 37702 100036,100088,100062
 1.4000e+000 100640 -3.7204e+001 -5.0859e+001  4.4818e+000 37262 100493,100545,100519
 1.4000e+000 100617 -2.8999e+001 -5.4159e+001  2.7164e+000 37262 100441,100545,100493
 1.4000e+000 100594 -1.4487e+001 -4.4113e+001 -4.1794e+000 37262 100415,100545,100441
 1.4000e+000 100571 -3.6938e+001 -6.6814e+001 -4.1695e+000 37262 100441,100493,100467
 1.4000e+000 101146 -1.9176e+001 -3.5243e+001 -1.2824e+000 36872 100823,100979,100849
 1.4000e+000 101123 -1.6409e+001 -2.7458e+001 -4.4420e+000 36872 100823,101005,100979
 1.4000e+000 101100 -1.5606e+001 -5.0327e+001  7.9311e+000 36872 101169,100901,100849
 1.4000e+000 101077 -1.1723e+001 -4.2493e+001  4.3561e+000 36872 101169,100849,100979
 1.4000e+000 101054 -4.9760e+000 -5.0099e+001  1.1960e+000 36872 100927,100979,100953
 1.4000e+000 101031 -1.2196e+001 -6.1958e+001  8.1371e+000 36872 100849,100901,100875
 1.4000e+000 101195 -9.5084e+000 -5.2291e+001  2.9402e+000 36872 100927,100901,101169
 1.4000e+000 101218 -6.9587e+000 -4.8188e+001 -9.5730e-002 36872 100927,101169,100979
 1.4000e+000 101773 -2.6030e+001 -4.5907e+001  8.4472e+000 36418 101479,101609,101583
 1.4000e+000 101750 -2.3983e+001 -4.7789e+001  1.1093e+001 36418 101453,101609,101479
 1.4000e+000 101727 -1.6943e+001 -4.7503e+001  2.1641e+000 36418 101796,101531,101479
 1.4000e+000 101704 -2.5057e+001 -5.2206e+001  4.7376e+000 36418 101796,101479,101583
 1.4000e+000 101681 -1.3136e+001 -4.9017e+001  5.0414e-002 36418 101479,101531,101505
 1.4000e+000 101658  1.8835e+001 -4.2392e+001 -3.3336e+000 36418 101401,101609,101453
 1.4000e+000 101635 -6.7465e+000 -4.9999e+001 -7.7849e+000 36418 101401,101453,101427
 1.4000e+000 101822 -1.9192e+001 -4.4086e+001 -5.8176e+000 36418 101557,101531,101796
 1.4000e+000 101845 -2.9571e+001 -4.7328e+001 -3.8443e+000 36418 101557,101796,101583
 1.4000e+000 102174  2.3680e+001 -2.0620e+001 -6.1953e+000 35914 101949,102053,101975
 1.4000e+000 102151 -1.1400e+001 -2.8104e+001  1.1022e+000 35914 101949,102079,102053
 1.4000e+000 102128  2.9633e+000 -3.0209e+001 -1.0691e+000 35914 101975,102053,102027
 1.4000e+000 102105  4.6084e+000 -1.9758e+001 -7.4866e-001 35914 101975,102027,102001
 1.4000e+000 102631  1.7056e+001 -4.1576e+001  5.5064e-001 35574 102383,102513,102487
 1.4000e+000 102608  2.3584e+001 -4.2286e+001  1.1339e+000 35574 102357,102513,102383
 1.4000e+000 102585  2.1897e-001 -4.7267e+001  4.1279e+000 35574 102409,102487,102435
 1.4000e+000 102562  5.9776e+000 -4.7573e+001  3.6121e+000 35574 102383,102487,102409
 1.4000e+000 102539 -3.0709e+000 -5.4547e+001  3.3668e+000 35574 102435,102487,102461
 1.4000e+000 103009 -6.4968e+000 -3.9188e+001 -3.9350e+000 35170 102761,102865,102787
 1.4000e+000 102986  4.6080e+000 -3.3401e+001  2.5716e+000 35170 102761,102891,102865
 1.4000e+000 102963 -9.8658e+000 -3.9761e+001 -6.5794e+000 35170 102787,102865,102813
 1.4000e+000 102940 -6.0489e-001 -4.4737e+001 -1.4527e+000 35170 102735,102891,102761
 1.4000e+000 102917 -1.2111e+001 -4.5600e+001 -8.2889e+000 35170 102813,102865,102839
 1.4000e+000 103257  1.1130e+001 -3.7160e+001 -6.8152e+000 34659 103280,103058,103032
 1.4000e+000 103234  6.1819e+000 -3.8563e+001 -3.1068e-001 34659 103280,103032,103162
 1.4000e+000 103211 -5.4469e+000 -2.8540e+001 -1.8329e+000 34659 103084,103162,103110
 1.4000e+000 103188 -1.3758e+001 -4.7086e+001 -1.6675e-001 34659 103110,103162,103136
 1.4000e+000 103306  1.0455e+000 -3.5473e+001 -6.4142e+000 34659 103084,103058,103280
 1.4000e+000 103329 -1.0491e+000 -3.6170e+001  9.7340e-001 34659 103084,103280,103162
 1.4000e+000 103837  9.6573e+000 -4.4696e+001  4.0914e+000 34247 103860,103566,103540
 1.4000e+000 103814 -2.1239e+000 -4.7948e+001  1.0704e+000 34247 103932,103860,103540
 1.4000e+000 103791 -3.3988e+000 -5.4516e+001 -4.6315e+000 34247 103932,103540,103670
 1.4000e+000 103768  6.6409e+000 -4.8389e+001  6.2096e-001 34247 103566,103618,103592
 1.4000e+000 103745 -1.5297e+001 -5.1113e+001 -6.5496e+000 34247 103540,103696,103670
 1.4000e+000 103722 -2.1792e+001 -5.3399e+001  1.2296e+001 34247 103514,103696,103540
 1.4000e+000 103886 -2.2227e+000 -5.2603e+001 -5.7711e-001 34247 103618,103566,103860
 1.4000e+000 103909  5.4000e+000 -5.0509e+001 -1.0759e+000 34247 103618,103860,103644
 1.4000e+000 103958 -5.0417e+000 -6.2940e+001 -5.6882e+000 34247 103644,103860,103932
 1.4000e+000 103981 -7.2108e+000 -6.9515e+001 -1.1735e+001 34247 103644,103932,103670
 1.4000e+000 104300 -1.5482e+001 -5.2371e+001 -5.2964e+000 33843 104052,104182,104156
 1.4000e+000 104277 -3.7168e+001 -4.8290e+001 -3.6350e+000 33843 104026,104182,104052
 1.4000e+000 104254 -1.9933e+001 -5.1158e+001  1.4386e+000 33843 104078,104156,104130
 1.4000e+000 104231 -3.1909e+001 -5.8374e+001 -2.9557e+000 33843 104052,104156,104078
 1.4000e+000 104208 -3.0094e+001 -5.2083e+001  5.8364e-001 33843 104078,104130,104104
 1.4000e+000 104499 -1.7324e+000 -5.3341e+001 -3.2756e+000 33282 104594,104522,104375
 1.4000e+000 104476 -7.6407e-001 -4.9364e+001  8.4532e-001 33282 104522,104323,104427
 1.4000e+000 104453  2.4302e+000 -5.7029e+001 -2.6519e+000 33282 104594,104375,104349
 1.4000e+000 104548  2.1232e+000 -4.4836e+001 -4.4144e+000 33282 104401,104375,104522
 1.4000e+000 104571  5.7381e-001 -4.7136e+001 -1.0410e-001 33282 104401,104522,104427
 1.4000e+000 104620  2.5429e+000 -4.6088e+001 -1.0653e+000 33282 104323,104522,104594
 1.4000e+000 104643  4.9024e+000 -5.1716e+001 -1.1975e+000 33282 104323,104594,104349
 1.4000e+000 104942 -6.2900e+000 -5.0034e+001  6.6520e+000 32728 104694,104772,104720
 1.4000e+000 104919 -1.0881e+001 -4.9732e+001  3.5798e+000 32728 104694,104824,104772
 1.4000e+000 104896 -9.8125e+000 -5.4448e+001  4.9660e+000 32728 104720,104772,104746
 1.4000e+000 104873 -3.0970e+000 -5.8012e+001  3.3924e+000 32728 104772,104824,104798
 1.4000e+000 104850 -1.1928e+001 -5.1998e+001  2.2825e+000 32728 104668,104824,104694
 1.4000e+000 105373 -2.4474e+001 -6.5047e+001 -3.1707e+000 32274 105396,105102,105076
 1.4000e+000 105350 -2.1420e+001 -7.2303e+001 -1.7136e+000 32274 105396,105076,105206
 1.4000e+000 105327 -2.4601e+001 -7.5230e+001  8.5022e+000 32274 105154,105206,105180
 1.4000e+000 105304 -1.4466e+001 -7.2046e+001 -7.3570e+000 32274 105076,105232,105206
 1.4000e+000 105281 -2.7186e+001 -5.9565e+001 -8.1623e+000 32274 105102,105154,105128
 1.4000e+000 105258 -4.7626e+001 -7.2966e+001 -1.6400e+001 32274 105050,105232,105076
 1.4000e+000 105422 -2.3698e+001 -5.7857e+001 -1.8140e+000 32274 105154,105102,105396
 1.4000e+000 105445 -2.1472e+001 -6.6098e+001 -9.9248e-001 32274 105154,105396,105206
 1.4000e+000 105644 -4.1889e+000 -5.0729e+001 -3.2969e-001 31620 105468,105546,105520
 1.4000e+000 105621  1.1868e-001 -6.0229e+001 -2.6128e+000 31620 105468,105572,105546
 1.4000e+000 105598 -9.9502e+000 -6.0406e+001 -4.1567e+000 31620 105468,105520,105494
 1.4000e+000 105794 -9.5498e+000 -6.1834e+001 -1.1184e+000 31158 105889,105817,105693
 1.4000e+000 105771 -1.0648e+001 -5.9842e+001 -2.8449e+000 31158 105817,105667,105745
 1.4000e+000 105843 -9.8122e+000 -6.9703e+001  2.7494e-001 31158 105719,105693,105817
 1.4000e+000 105866 -5.1481e+000 -6.4072e+001 -1.7497e+000 31158 105719,105817,105745
 1.4000e+000 105915 -1.3946e+001 -6.3718e+001 -1.1671e+000 31158 105667,105817,105889
 1.4000e+000 106270 -2.3649e+001 -5.4038e+001  1.0341e+000 30818 106293,106071,106045
 1.4000e+000 106247 -2.5981e+001 -5.8993e+001 -5.6039e+000 30818 106293,106045,106175
 1.4000e+000 106224 -9.9702e+000 -5.1458e+001  1.6186e+000 30818 106123,106175,106149
 1.4000e+000 106201 -2.5762e+001 -5.3581e+001  2.1793e+000 30818 106071,106123,106097
 1.4000e+000 106319 -2.0190e+001 -5.1974e+001  1.9189e+000 30818 106123,106071,106293
 1.4000e+000 106342 -1.8291e+001 -5.4395e+001 -3.6491e+000 30818 106123,106293,106175
 1.4000e+000 106492  1.0598e+001 -5.9640e+001  1.6618e+001 30414 106645,106391,106365
 1.4000e+000 106469 -6.9505e+000 -5.5263e+001  1.7377e+001 30414 106515,106365,106443
 1.4000e+000 106541  3.3650e-001 -5.1970e+001  1.2384e+001 30414 106645,106365,106515
 1.4000e+000 106671  2.6258e-001 -7.2082e+001  1.1559e+001 30414 106417,106391,106645
 1.4000e+000 106694 -1.0874e+001 -6.1881e+001  8.0605e+000 30414 106417,106645,106515
 1.4000e+000 106942  4.6301e+000 -6.2042e+001 -2.6194e+000 29910 106965,106795,106769
 1.4000e+000 106919 -2.3629e-001 -5.3139e+001 -9.3517e-001 29910 106965,106769,106717
 1.4000e+000 106896  1.1996e+001 -3.8402e+001 -5.1087e+000 29910 106795,106847,106821
 1.4000e+000 106873  2.0444e+000 -4.9565e+001  1.3255e+000 29910 106717,106769,106743
 1.4000e+000 106991  4.7646e+000 -5.4802e+001 -3.0836e+000 29910 106847,106795,106965
 1.4000e+000 107014  2.6029e+000 -4.2274e+001 -2.2401e+000 29910 106847,106965,106717
 1.4000e+000 107213 -1.3791e+001 -5.9464e+001  4.0020e+000 29413 107236,107063,107037
 1.4000e+000 107190 -1.6996e+001 -6.9118e+001  7.7675e+000 29413 107236,107037,107141
 1.4000e+000 107167 -1.6490e+001 -3.7944e+001  9.6104e+000 29413 107063,107115,107089
 1.4000e+000 107262 -1.5338e+001 -5.1878e+001  4.3049e-001 29413 107115,107063,107236
 1.4000e+000 107285 -1.7242e+001 -5.9429e+001  4.2478e+000 29413 107115,107236,107141
 1.4000e+000 107486 -8.4135e+000 -5.1357e+001  3.3746e+000 29009 107336,107388,107362
 1.4000e+000 107463 -8.1919e+000 -5.1362e+001  4.5471e+000 29009 107310,107388,107336
 1.4000e+000 107440 -7.1754e+000 -4.7090e+001  3.8095e+000 29009 107310,107414,107388
 1.4000e+000 107736 -2.2585e+000 -4.9684e+001  1.2551e+000 28491 107537,107615,107563
 1.4000e+000 107713 -2.0030e+000 -4.9779e+001  3.1869e-001 28491 107537,107641,107615
 1.4000e+000 107690 -2.9171e+000 -4.7560e+001  1.2789e+000 28491 107563,107615,107589
 1.4000e+000 107667 -5.0643e+000 -4.6350e+001  1.1820e-001 28491 107511,107641,107537
 1.4000e+000 108118  3.3798e-001 -4.4064e+001  2.5498e+000 27980 108141,107922,107844
 1.4000e+000 108095  3.5904e+000 -4.8448e+001  2.2113e+000 27980 108141,107844,108000
 1.4000e+000 108072  1.3680e+000 -4.2021e+001  4.4482e-001 27980 107844,107922,107870
 1.4000e+000 108049  1.3839e+000 -4.1686e+001  4.7278e-001 27980 107870,107922,107896
 1.4000e+000 108026 -3.0703e+000 -3.7456e+001  9.4374e+000 27980 107922,107974,107948
 1.4000e+000 108167  2.8261e+000 -4.4787e+001  3.7372e+000 27980 107974,107922,108141
 1.4000e+000 108190  1.1542e+001 -4.4288e+001  4.7098e+000 27980 107974,108141,108000
 1.4000e+000 108745 -3.7924e-001 -3.3444e+001  3.6440e+000 27376 108840,108768,108477
 1.4000e+000 108722 -5.1646e+000 -4.2542e+001  1.3851e+000 27376 108768,108373,108581
 1.4000e+000 108699 -9.1401e-003 -2.8423e+001  5.5848e+000 27376 108840,108477,108451
 1.4000e+000 108676 -1.6835e+001 -3.3515e+001 -1.1706e+001 27376 108373,108451,108399
 1.4000e+000 108653 -1.3097e+001 -4.9651e+001  3.9553e+000 27376 108503,108581,108529
 1.4000e+000 108630 -9.3344e+000 -4.9208e+001  2.8301e+000 27376 108529,108581,108555
 1.4000e+000 108607 -2.4231e+001 -4.2941e+001 -4.1106e+000 27376 108399,108451,108425
 1.4000e+000 108794 -3.9463e+000 -3.8262e+001  1.2213e+000 27376 108503,108477,108768
 1.4000e+000 108817 -4.9011e+000 -3.6301e+001  2.6565e-001 27376 108503,108768,108581
 1.4000e+000 108866 -2.8153e+000 -3.8406e+001  3.6294e-001 27376 108373,108768,108840
 1.4000e+000 108889 -2.0318e+000 -3.5130e+001  2.9220e+000 27376 108373,108840,108451
 1.4000e+000 109186 -1.1525e+001 -5.1355e+001  3.7831e+000 26722 109209,108938,108912
 1.4000e+000 109163 -1.1487e+001 -5.1611e+001  4.9173e+000 26722 109281,109209,108912
 1.4000e+000 109140 -1.0219e+001 -5.1253e+001  4.2968e+000 26722 109281,108912,109042
 1.4000e+000 109117 -1.2761e+001 -5.4725e+001  3.6610e+000 26722 108938,108990,108964
 1.4000e+000 109094 -8.7731e+000 -5.2223e+001  4.6698e+000 26722 108912,109068,109042
 1.4000e+000 109235 -1.2337e+001 -5.2001e+001  4.1795e+000 26722 108990,108938,109209
 1.4000e+000 109258 -1.0831e+001 -5.5331e+001  4.9226e+000 26722 108990,109209,109016
 1.4000e+000 109307 -8.7584e+000 -5.2366e+001  3.4496e+000 26722 109016,109209,109281
 1.4000e+000 109330 -6.8945e+000 -5.1287e+001  2.6427e+000 26722 109016,109281,109042
 1.4000e+000 109732 -1.5842e+001 -4.1901e+001  3.2503e-002 26310 109458,109588,109484
 1.4000e+000 109709 -1.2651e+001 -4.0591e+001 -3.3789e+000 26310 109458,109614,109588
 1.4000e+000 109686 -2.2419e+001 -4.5521e+001  6.6637e+000 26310 109510,109562,109536
 1.4000e+000 109663 -2.3106e+001 -4.3560e+001  3.1199e+000 26310 109484,109562,109510
 1.4000e+000 109640 -1.4824e+001 -4.1468e+001 -1.8628e-002 26310 109484,109588,109562
 1.4000e+000 110159 -1.7517e+001 -4.7368e+001  1.9474e+000 25642 110182,109940,109914
 1.4000e+000 110136 -1.6670e+001 -4.8378e+001  4.4237e+000 25642 110182,109914,109888
 1.4000e+000 110113 -1.6561e+001 -5.5831e+001 -6.6170e+000 25642 109966,110018,109992
 1.4000e+000 110090 -1.7696e+001 -5.3440e+001  4.2624e+000 25642 110254,109966,109940
 1.4000e+000 110067 -1.3968e+001 -4.6863e+001  4.8651e+000 25642 109862,110018,109888
 1.4000e+000 110044 -2.5330e+001 -4.7298e+001  5.1636e+000 25642 109836,110018,109862
 1.4000e+000 110208 -1.8339e+001 -4.8386e+001  3.2631e+000 25642 110254,109940,110182
 1.4000e+000 110231 -1.7304e+001 -5.0694e+001  3.0672e+000 25642 110018,110182,109888
 1.4000e+000 110280 -1.6591e+001 -5.9466e+001  3.1475e+000 25642 110018,109966,110254
 1.4000e+000 110303 -1.8226e+001 -5.5657e+001  2.2358e+000 25642 110018,110254,110182
 1.4000e+000 110632 -1.6848e+001 -4.3514e+001  1.7405e-001 25188 110407,110485,110433
 1.4000e+000 110609 -1.9948e+001 -4.1337e+001  6.9022e-001 25188 110407,110537,110485
 1.4000e+000 110586 -2.0555e+001 -4.5706e+001 -8.1953e+000 25188 110433,110485,110459
 1.4000e+000 110563 -1.8674e+001 -4.4281e+001  6.2487e+000 25188 110485,110537,110511
 1.4000e+000 110831 -5.5193e+000 -4.8609e+001  1.2205e+000 24726 110854,110707,110655
 1.4000e+000 110808 -5.2524e+000 -4.8847e+001  1.4896e+000 24726 110854,110655,110759
 1.4000e+000 110785 -6.6028e+000 -4.8023e+001  2.1930e+000 24726 110655,110707,110681
 1.4000e+000 110880 -5.3337e+000 -4.8387e+001  1.3311e+000 24726 110733,110707,110854
 1.4000e+000 110903 -5.0079e+000 -4.8494e+001  1.6250e+000 24726 110733,110854,110759
 1.4000e+000 111234  9.3695e+000 -2.8327e+001 -3.2125e+000 24222 111257,111087,111035
 1.4000e+000 111211  1.7308e+001 -2.4797e+001  2.3708e+000 24222 111257,111035,111009
 1.4000e+000 111188  1.9154e+001 -1.6316e+001 -8.3868e+000 24222 111035,111087,111061
 1.4000e+000 111165  6.8296e+000 -2.0108e+001  2.3030e+000 24222 111087,111139,111113
 1.4000e+000 111283  4.5858e+000 -2.0881e+001  2.4385e-001 24222 111139,111087,111257
 1.4000e+000 111306  7.9651e+000 -1.5828e+001  3.8283e+000 24222 111139,111257,111009
 1.4000e+000 111625 -9.3795e+000 -4.9560e+001 -2.6741e+000 23732 111648,111481,111455
 1.4000e+000 111602 -9.0327e+000 -5.0780e+001 -3.0132e+000 23732 111648,111455,111377
 1.4000e+000 111579  1.6749e+000 -3.1762e+001  5.3090e+000 23732 111377,111429,111403
 1.4000e+000 111556 -5.6885e+000 -5.1408e+001 -1.5187e+000 23732 111377,111455,111429
 1.4000e+000 111533 -8.3077e+000 -4.8265e+001 -1.2383e+000 23732 111351,111507,111377
 1.4000e+000 111674 -8.4435e+000 -4.7135e+001 -1.1985e+000 23732 111507,111481,111648
 1.4000e+000 111697 -9.5444e+000 -4.9965e+001 -1.8048e+000 23732 111507,111648,111377
 1.4000e+000 112156 -2.1743e+000 -4.5780e+001 -6.1115e-001 23278 112179,111908,111882
 1.4000e+000 112133 -9.2810e-001 -4.3914e+001  4.7433e-001 23278 112179,111882,112012
 1.4000e+000 112110 -1.9096e+000 -5.4458e+001 -6.9279e-001 23278 111908,111960,111934
 1.4000e+000 112087  5.3588e+000 -4.4083e+001 -1.6700e+000 23278 111882,112038,112012
 1.4000e+000 112064 -2.2393e+000 -4.2028e+001 -5.6602e-001 23278 111960,112012,111986
 1.4000e+000 112205 -3.2124e+000 -4.5424e+001 -2.1648e+000 23278 111960,111908,112179
 1.4000e+000 112228 -2.5413e+000 -4.3802e+001 -1.1305e+000 23278 111960,112179,112012
 1.4000e+000 112685 -3.3086e+001 -8.1908e+001 -7.2764e+000 22938 112489,112567,112541
 1.4000e+000 112662 -2.6669e+001 -6.5560e+001 -8.3148e+000 22938 112437,112567,112489
 1.4000e+000 112639 -2.2792e+001 -6.2511e+001 -1.7124e+000 22938 112489,112541,112515
 1.4000e+000 112616 -3.1244e+001 -5.8823e+001 -6.2451e+000 22938 112411,112567,112437
 1.4000e+000 112593 -2.7512e+001 -8.2805e+001 -3.1115e+000 22938 112437,112489,112463
 1.4000e+000 113191  7.1204e+000 -4.2938e+001 -5.9382e+000 22534 113214,112998,112946
 1.4000e+000 113168 -2.9361e-001 -4.2674e+001 -2.7647e+000 22534 113286,113214,112946
 1.4000e+000 113145  1.3198e+000 -4.2567e+001 -2.5209e+000 22534 113286,112946,112920
 1.4000e+000 113122 -7.6563e+000 -4.0778e+001 -5.6199e+000 22534 113358,113024,112998
 1.4000e+000 113099 -5.6362e+000 -4.5062e+001 -2.5730e+000 22534 112868,113050,112894
 1.4000e+000 113076  1.2133e+001 -7.0851e+001 -6.3096e+000 22534 112946,112998,112972
 1.4000e+000 113240 -4.1354e+000 -4.6627e+001 -6.0979e+000 22534 113358,112998,113214
 1.4000e+000 113263 -1.0579e+000 -4.4472e+001 -1.3056e+000 22534 113050,113214,112894
 1.4000e+000 113312  2.0341e+000 -4.2998e+001 -2.3778e+000 22534 112894,113214,113286
 1.4000e+000 113335  3.9456e+000 -4.2750e+001 -2.4754e+000 22534 112894,113286,112920
 1.4000e+000 113384 -3.4091e+000 -3.6583e+001 -3.5720e+000 22534 113050,113024,113358
 1.4000e+000 113407  2.0294e+000 -4.0941e+001 -3.5562e+000 22534 113050,113358,113214
 1.4000e+000 113785 -2.6434e+001 -6.9600e+001  5.3614e+000 21978 113808,113615,113511
 1.4000e+000 113762 -2.3093e+001 -7.1987e+001  9.4872e+000 21978 113808,113511,113667
 1.4000e+000 113739 -9.0534e+000 -5.4990e+001 -1.5743e+000 21978 113511,113615,113537
 1.4000e+000 113716  6.9287e+000 -4.9507e+001 -2.3189e+000 21978 113537,113615,113589
 1.4000e+000 113693 -2.3601e-001 -7.0388e+001  2.1544e+000 21978 113537,113589,113563
 1.4000e+000 113834 -2.6219e+001 -6.7858e+001  9.1944e+000 21978 113641,113615,113808
 1.4000e+000 113857 -1.6988e+001 -6.4634e+001  1.4063e+001 21978 113641,113808,113667
 1.4000e+000 114284 -1.9516e+001 -5.1478e+001  9.2011e-001 21517 114013,114117,114039
 1.4000e+000 114261 -1.9414e+001 -5.0477e+001  3.2698e+000 21517 113961,114117,114013
 1.4000e+000 114238 -1.9601e+001 -5.8611e+001  2.1896e+000 21517 113961,114013,113987
 1.4000e+000 114215 -2.9527e+001 -5.7049e+001 -3.9528e+000 21517 114039,114117,114091
 1.4000e+000 114192 -2.1334e+001 -4.4318e+001  4.8108e+000 21517 113961,114143,114117
 1.4000e+000 114169  3.0979e+000 -4.4608e+001 -3.1264e+000 21517 114039,114091,114065
 1.4000e+000 114581 -8.6783e+000 -6.5716e+001  3.1489e-001 21027 114359,114463,114437
 1.4000e+000 114558 -7.9513e+000 -6.1512e+001  7.0815e+000 21027 114333,114463,114359
 1.4000e+000 114535 -5.7077e+000 -6.2892e+001 -8.4658e-001 21027 114359,114437,114385
 1.4000e+000 114512 -3.1779e+000 -6.0399e+001  4.1468e+000 21027 114307,114463,114333
 1.4000e+000 114489  3.8774e+000 -5.6699e+001 -3.5138e+000 21027 114385,114437,114411
 1.4000e+000 114912 -2.0099e+001 -5.3736e+001  9.0303e-001 20623 114713,114791,114765
 1.4000e+000 114889 -4.2544e+000 -4.7107e+001 -6.2630e+000 20623 114687,114791,114713
 1.4000e+000 114866 -1.6484e+001 -6.5384e+001 -4.6581e-001 20623 114687,114817,114791
 1.4000e+000 114843 -2.7304e+001 -6.2288e+001  4.0127e+000 20623 114713,114765,114739
 1.4000e+000 115290 -4.5319e+000 -4.5253e+001  2.2494e+000 20375 115313,115146,115094
 1.4000e+000 115267 -6.0679e+000 -4.5543e+001  3.0214e+000 20375 115313,115094,115042
 1.4000e+000 115244 -6.1361e+000 -4.2907e+001  1.9223e+000 20375 115385,115016,115172
 1.4000e+000 115221  1.2659e+001 -3.9083e+001  3.0280e+000 20375 115042,115094,115068
 1.4000e+000 115198 -8.1671e+000 -5.4270e+001  2.4040e+000 20375 115094,115146,115120
 1.4000e+000 115339 -9.1948e+000 -5.0041e+001 -1.5134e-001 20375 115172,115146,115313
 1.4000e+000 115362 -5.6491e+000 -4.4022e+001  1.6734e+000 20375 115385,115172,115313
 1.4000e+000 115411 -5.5038e+000 -4.3768e+001  3.0239e+000 20375 115042,115016,115385
 1.4000e+000 115434 -5.6853e+000 -4.5573e+001  2.9474e+000 20375 115042,115385,115313
 1.4000e+000 115891 -1.7406e+001 -4.7671e+001  6.2613e+000 19971 115617,115747,115643
 1.4000e+000 115868 -1.2048e+001 -3.4842e+001  6.1251e+000 19971 115617,115773,115747
 1.4000e+000 115845 -7.6781e+000 -6.6025e+001  1.7313e+000 19971 115643,115721,115695
 1.4000e+000 115822  7.6022e+000 -3.1677e+001 -1.2883e+000 19971 115643,115747,115721
 1.4000e+000 115799  1.2414e+001 -7.4645e+001 -3.1503e+000 19971 115643,115695,115669
 1.4000e+000 115992 -1.1973e+001 -8.9024e+001 -2.6904e+001 19659 115914,115966,115940
 1.4000e+000 116142  1.9217e+000 -1.0150e+001 -1.2075e-001 18997 116041,116093,116067
 1.4000e+000 116119 -5.5602e+000 -2.9651e+001  2.3446e+000 18997 116015,116093,116041
 1.4000e+000 116343  1.0494e+000 -5.1846e+001 -1.3130e+000 18707 116193,116245,116219
 1.4000e+000 116320  1.1820e+000 -5.1035e+001 -3.2227e-001 18707 116193,116271,116245
 1.4000e+000 116297 -1.9034e+000 -4.9981e+001 -8.5800e+000 18707 116167,116271,116193
 1.4000e+000 116747 -1.1216e+000 -4.6408e+001 -1.0230e+000 18301 116525,116629,116551
 1.4000e+000 116724 -2.1128e+000 -3.9065e+001 -1.0896e-001 18301 116473,116629,116525
 1.4000e+000 116701 -1.4484e+000 -3.9888e+001 -2.9195e+000 18301 116473,116525,116499
 1.4000e+000 116678  1.0186e+000 -4.8530e+001 -7.9110e-001 18301 116551,116603,116577
 1.4000e+000 116655 -2.9587e+000 -5.0731e+001 -1.8386e+000 18301 116551,116629,116603
 1.4000e+000 117147 -2.6568e+001 -6.5764e+001 -6.2721e-001 17747 116899,117029,116925
 1.4000e+000 117124 -1.5228e+001 -5.0859e+001  5.1460e+000 17747 116873,117029,116899
 1.4000e+000 117101 -2.4918e+001 -6.2805e+001  5.0429e-002 17747 116925,117029,116951
 1.4000e+000 117078 -2.1030e+001 -5.1297e+001  1.4225e+000 17747 116951,117029,117003
 1.4000e+000 117055 -3.4222e+001 -7.0482e+001 -4.6941e+000 17747 116951,117003,116977
 1.4000e+000 117368  1.3079e+001 -5.0428e+001  1.7031e+000 17293 117244,117296,117270
 1.4000e+000 117345  4.6454e+000 -5.3210e+001 -7.1372e-001 17293 117192,117296,117244
 1.4000e+000 117322 -1.8558e+000 -4.9141e+001 -5.9479e-001 17293 117192,117244,117218
 1.4000e+000 117699  3.5162e+000 -3.6342e+001 -6.3060e+000 16896 117526,117604,117552
 1.4000e+000 117676 -2.1856e+001 -6.0465e+001  3.5725e+000 16896 117500,117604,117526
 1.4000e+000 117653 -2.3742e+001 -4.7213e+001 -3.0458e+000 16896 117552,117604,117578
 1.4000e+000 117630 -1.6641e+001 -7.7441e+001  7.9744e+000 16896 117474,117604,117500
 1.4000e+000 117849 -6.1786e+001 -1.1942e+002 -4.8713e+000 16534 117722,117774,117748
 1.4000e+000 117826 -4.8918e+001 -1.4702e+002 -2.0432e+001 16534 117722,117800,117774
 1.4000e+000 118070 -2.6941e+000 -5.0396e+001  5.4833e+000 16194 117946,117998,117972
 1.4000e+000 118047 -8.3394e+000 -5.9946e+001  3.1011e+000 16194 117894,117998,117946
 1.4000e+000 118024 -1.2009e+001 -5.4766e+001 -1.1379e+000 16194 117894,117946,117920
 1.4000e+000 118173 -6.6562e+000 -6.4193e+001  0.0000e+000 15968 118095,118147,118121
 1.4000e+000 118276 -1.6774e+001 -5.6375e+001  9.9237e-001 15433 118299,118198,118250
 1.4000e+000 118325 -1.7423e+001 -5.7890e+001  1.0072e+000 15433 118224,118198,118299
 1.4000e+000 118450 -2.0503e+001 -6.4894e+001  1.5022e+001 421 118372,118424,118398
 1.5000e+000 69891  8.2775e-001 -8.7475e+001  5.2207e+000 68988 69447,69681,69629
 1.5000e+000 69868  4.3490e+001 -6.9554e+001  5.0673e+000 68988 69421,69681,69447
 1.5000e+000 69845  1.4284e+001 -4.0624e+001  4.0733e+000 68988 69447,69629,69577
 1.5000e+000 69822 -1.4304e+001 -8.5608e+001 -8.1588e+000 68988 69447,69577,69473
 1.5000e+000 69799  3.0703e+001 -1.1037e+002  3.6336e+001 68988 69629,69681,69655
 1.5000e+000 69776 -1.7433e+001 -5.4188e+001  4.4575e+000 68988 69577,69629,69603
 1.5000e+000 69753 -6.0940e+000 -8.3158e+001 -1.8092e+001 68988 69473,69577,69551
 1.5000e+000 69730  3.1721e+000 -1.4883e+002 -1.2629e+001 68988 69473,69551,69525
 1.5000e+000 69707 -1.5937e+001 -1.0359e+002  8.4164e-002 68988 69473,69525,69499
 1.5000e+000 69992 -3.7804e+001 -1.0078e+002 -2.1394e+001 68676 69914,69966,69940
 1.5000e+000 70392 -6.6298e+000 -5.1072e+001  3.2101e+000 68478 70118,70248,70144
 1.5000e+000 70369  2.6783e+001 -4.7646e+001  1.3229e+001 68478 70118,70274,70248
 1.5000e+000 70346  1.3288e+001 -4.1310e+001 -2.0096e+000 68478 70144,70222,70196
 1.5000e+000 70323  2.0544e+001 -2.1802e+001 -8.1187e+000 68478 70144,70248,70222
 1.5000e+000 70300  1.2571e+001 -4.2595e+001 -2.3359e+000 68478 70144,70196,70170
 1.5000e+000 70841  2.6132e+001 -3.4726e+001 -1.3203e+001 68280 70570,70622,70596
 1.5000e+000 70818 -1.0749e+001 -4.0748e+001 -2.8976e+000 68280 70544,70622,70570
 1.5000e+000 70795 -4.2827e+000 -2.6649e+001 -1.3489e+000 68280 70544,70674,70622
 1.5000e+000 70772 -5.0135e+000 -1.8411e+001  4.0540e+000 68280 70622,70674,70648
 1.5000e+000 70749 -1.1938e+001 -4.9471e+001  5.6549e+000 68280 70518,70674,70544
 1.5000e+000 70726  4.9494e+001 -5.2613e+001  2.3876e+001 68280 70518,70700,70674
 1.5000e+000 70991 -2.6416e+000 -2.9209e+002  8.2522e+000 67968 70864,70916,70890
 1.5000e+000 70968 -7.2581e+001 -2.9338e+002  2.9265e+001 67968 70864,70942,70916
 1.5000e+000 71141 -1.0789e+002 -2.1680e+002 -8.6747e+000 67770 71040,71092,71066
 1.5000e+000 71118 -9.3893e+001 -2.5485e+002  1.0001e+001 67770 71014,71092,71040
 1.5000e+000 71651  3.8799e+000 -4.1753e+001 -1.8263e+000 67366 71746,71674,71458
 1.5000e+000 71628  5.1886e+000 -2.8154e+001 -2.2460e+000 67366 71674,71354,71510
 1.5000e+000 71605  7.6265e-001 -5.2217e+001  6.9188e-001 67366 71746,71458,71432
 1.5000e+000 71582 -1.3127e+001 -5.8886e+001  4.3133e+000 67366 71354,71432,71380
 1.5000e+000 71559 -9.7765e+000 -3.7100e+001 -6.0706e+000 67366 71380,71432,71406
 1.5000e+000 71536  1.2148e+000  7.5346e-001  7.7439e+000 67366 71328,71510,71354
 1.5000e+000 71700  1.1549e+001 -2.9636e+001 -5.8961e+000 67366 71484,71458,71674
 1.5000e+000 71723  3.4566e+000 -3.1504e+001 -5.4118e-001 67366 71484,71674,71510
 1.5000e+000 71772 -2.1283e-001 -2.9308e+001 -2.6954e+000 67366 71354,71674,71746
 1.5000e+000 71795  3.8581e-001 -3.6116e+001 -2.1889e+000 67366 71354,71746,71432
 1.5000e+000 71896 -1.5690e+001 -1.0237e+002  0.0000e+000 67146 71818,71870,71844
 1.5000e+000 71997 -1.1854e+002 -2.1829e+002  4.8380e+001 66948 71919,71971,71945
 1.5000e+000 72149  8.9755e+000 -5.9945e+001 -7.5827e+000 66700 72172,72074,72048
 1.5000e+000 72126 -1.2680e+001 -6.6864e+001 -2.9977e+000 66700 72172,72048,72022
 1.5000e+000 72198 -2.5773e+001 -7.5758e+001  5.8549e+000 66700 72244,72172,72100
 1.5000e+000 72221 -2.5204e+001 -6.9245e+001 -5.4284e+000 66700 72100,72172,72022
 1.5000e+000 72270 -8.3714e+000 -3.7329e+001 -5.1104e+000 66700 72074,72172,72244
 1.5000e+000 72623 -1.4207e+001 -6.1022e+001  3.2113e+000 66502 72424,72502,72450
 1.5000e+000 72600 -1.0306e+001 -4.8073e+001  1.0250e+000 66502 72398,72502,72424
 1.5000e+000 72577 -1.6578e+000 -5.6642e+001 -1.3356e+000 66502 72398,72528,72502
 1.5000e+000 72554 -1.1374e+001 -5.1802e+001  1.8115e-001 66502 72450,72502,72476
 1.5000e+000 72920 -3.0839e+001 -7.5746e+001  3.6463e+000 65941 72672,72776,72750
 1.5000e+000 72897 -3.0640e+001 -5.9688e+001  1.1709e+001 65941 72646,72776,72672
 1.5000e+000 72874 -2.3080e+001 -7.4569e+001  6.1024e+000 65941 72672,72750,72724
 1.5000e+000 72851 -3.0039e+001 -5.8095e+001  1.3938e+001 65941 72672,72724,72698
 1.5000e+000 72828 -2.1102e+001 -5.0181e+001  7.7247e+000 65941 72646,72802,72776
 1.5000e+000 73241  4.4920e-001 -5.4134e+001 -1.9591e+000 65743 73264,73071,73045
 1.5000e+000 73218 -7.5464e+000 -6.4469e+001  7.2580e+000 65743 73480,73264,73045
 1.5000e+000 73195  9.8898e-001 -4.9383e+001 -8.5980e-001 65743 73336,72967,73097
 1.5000e+000 73172 -8.2699e+000 -4.5552e+001 -3.6426e+000 65743 73408,72993,72967
 1.5000e+000 73149  9.7840e-001 -4.8746e+001 -5.7975e-001 65743 72967,73123,73097
 1.5000e+000 73290  3.3821e+000 -4.5793e+001 -1.0251e+000 65743 73097,73071,73264
 1.5000e+000 73313  2.0364e+000 -4.7359e+001 -4.2018e-001 65743 73336,73097,73264
 1.5000e+000 73362 -3.6628e+000 -5.0272e+001 -2.2842e+000 65743 73408,72967,73336
 1.5000e+000 73385  3.7310e+000 -4.6548e+001  4.6421e-002 65743 73019,73336,73264
 1.5000e+000 73434 -4.2156e-001 -2.9918e+001  4.6691e-001 65743 73019,72993,73408
 1.5000e+000 73457  4.5846e+000 -4.0181e+001  1.2885e+000 65743 73019,73408,73336
 1.5000e+000 73506  1.0277e+001 -2.7443e+001  1.2919e+000 65743 73019,73264,73480
 1.5000e+000 73989  1.4179e+001 -3.2126e+001  6.6915e+000 65453 73793,73845,73819
 1.5000e+000 73966 -9.3526e+000 -3.7184e+001  8.6005e+000 65453 73741,73845,73793
 1.5000e+000 73943  7.8288e+000 -2.6917e+001  4.2850e+000 65453 73715,73845,73741
 1.5000e+000 73920 -3.1430e+000 -3.8080e+001  1.3190e+001 65453 73741,73793,73767
 1.5000e+000 73897  1.4071e+001 -5.6495e+000  5.0457e+000 65453 73715,73871,73845
 1.5000e+000 74357 -1.4697e+001 -6.2528e+001 -1.5864e+001 65141 74380,74138,74086
 1.5000e+000 74334 -2.2413e+001 -8.0891e+001 -1.4172e+001 65141 74380,74086,74060
 1.5000e+000 74311 -2.8083e+001 -7.3942e+001 -1.9686e+000 65141 74138,74190,74164
 1.5000e+000 74288  3.0656e+000 -8.6661e+001 -5.0268e+000 65141 74060,74216,74190
 1.5000e+000 74265  6.0984e-001 -9.4449e+001  2.3895e+000 65141 74034,74216,74060
 1.5000e+000 74242 -1.7086e+001 -4.5005e+001 -7.9487e+000 65141 74086,74138,74112
 1.5000e+000 74406 -1.6679e+001 -7.7541e+001 -7.2368e+000 65141 74190,74138,74380
 1.5000e+000 74429 -1.9766e+001 -8.4558e+001 -6.7286e+000 65141 74190,74380,74060
 1.5000e+000 74937 -2.2160e+001 -5.6660e+001 -1.6247e+001 64737 74614,74666,74640
 1.5000e+000 74914 -2.9707e+001 -6.7151e+001 -1.2711e+001 64737 74614,74796,74666
 1.5000e+000 74891 -1.9321e+001 -4.3412e+001 -2.7046e+000 64737 74960,74718,74666
 1.5000e+000 74868 -1.5311e+001 -4.8741e+001 -7.9900e+000 64737 74960,74666,74770
 1.5000e+000 74845 -1.5763e+001 -3.6228e+001 -8.3149e+000 64737 74666,74796,74770
 1.5000e+000 74822 -2.1337e+001 -4.6411e+001 -1.1174e+000 64737 74666,74718,74692
 1.5000e+000 74986 -2.1798e+001 -4.8914e+001 -2.1357e+000 64737 74744,74718,74960
 1.5000e+000 75009 -1.8854e+001 -5.6851e+001 -7.4652e+000 64737 74744,74960,74770
 1.5000e+000 75306  2.2062e+001 -3.0423e+001  1.6557e+001 64133 75329,75110,75084
 1.5000e+000 75283  9.5658e-001 -5.3993e+001  4.5210e+000 64133 75401,75329,75084
 1.5000e+000 75260 -1.6647e+000 -5.1819e+001  2.6139e+000 64133 75401,75084,75058
 1.5000e+000 75237  1.2073e+001 -6.1352e+001  7.6259e+000 64133 75473,75136,75110
 1.5000e+000 75214  2.0602e+001 -5.6845e+001 -3.4068e+000 64133 75032,75188,75162
 1.5000e+000 75355  1.1151e+001 -5.8132e+001  6.8175e+000 64133 75473,75110,75329
 1.5000e+000 75378  1.2975e+001 -5.3582e+001 -3.0542e+000 64133 75162,75329,75032
 1.5000e+000 75427  1.7511e+001 -4.3903e+001 -1.1661e-001 64133 75032,75329,75401
 1.5000e+000 75450 -1.0733e+001 -5.9176e+001  9.5064e+000 64133 75545,75401,75058
 1.5000e+000 75499  7.6942e+000 -5.7025e+001  1.3258e+000 64133 75162,75136,75473
 1.5000e+000 75522  9.4986e+000 -4.8525e+001  2.3856e+000 64133 75162,75473,75329
 1.5000e+000 75571  8.1194e+000 -1.9571e+001 -1.2892e+000 64133 75032,75401,75545
 1.5000e+000 75851 -1.7917e+001 -5.4430e+001  8.7048e+000 63843 75874,75753,75727
 1.5000e+000 75828 -9.2565e+000 -4.5302e+001  1.1537e+000 63843 75946,75874,75727
 1.5000e+000 75805 -1.4123e+001 -4.5642e+001  1.2403e+000 63843 76018,75946,75727
 1.5000e+000 75900 -6.4318e+000 -4.9596e+001  1.0976e+000 63843 75779,75753,75874
 1.5000e+000 75923 -8.2927e+000 -3.7647e+001 -6.5760e+000 63843 75779,75874,75675
 1.5000e+000 75972 -1.5207e+001 -4.7945e+001 -2.8600e-001 63843 75675,75874,75946
 1.5000e+000 75995 -1.2780e+001 -4.6611e+001 -1.7034e+000 63843 75675,75946,75701
 1.5000e+000 76044 -1.7233e+001 -4.9819e+001 -3.1841e+000 63843 75701,75946,76018
 1.5000e+000 76454  4.5326e+001 -2.1749e+000 -3.9932e+000 63439 76477,76255,76229
 1.5000e+000 76431  3.5276e+001 -1.5381e+001  5.4389e+000 63439 76477,76229,76359
 1.5000e+000 76408 -4.6421e+000 -2.0540e+001  1.0504e+001 63439 76307,76359,76333
 1.5000e+000 76385  1.4940e+001 -8.6898e+000  1.4067e+001 63439 76255,76307,76281
 1.5000e+000 76503  2.9698e+001 -1.4446e+001  3.2747e+000 63439 76307,76255,76477
 1.5000e+000 76526  3.2739e+001 -1.8262e+001  1.0691e+001 63439 76307,76477,76359
 1.5000e+000 76926 -2.6189e-001 -4.4507e+001  1.0737e+000 63049 76704,76782,76756
 1.5000e+000 76903 -9.8854e+000 -4.7997e+001 -1.2400e+000 63049 76704,76808,76782
 1.5000e+000 76880  9.4250e-001 -4.9258e+001  1.8045e+000 63049 76704,76756,76730
 1.5000e+000 76857  1.5990e+001 -2.7576e+001  7.6076e+000 63049 76678,76808,76704
 1.5000e+000 76834  3.3169e+001  4.4961e+001 -1.9903e+001 63049 76652,76808,76678
 1.5000e+000 77076  1.0625e+001 -5.7858e+001 -3.4312e-001 62737 76975,77027,77001
 1.5000e+000 77053  1.3938e+001 -6.3621e+001 -3.5879e+000 62737 76949,77027,76975
 1.5000e+000 77324 -6.7557e+000 -4.9843e+001 -2.5983e+000 62277 77347,77177,77125
 1.5000e+000 77301 -5.8875e+000 -4.8942e+001 -3.4843e+000 62277 77347,77125,77229
 1.5000e+000 77278  6.2108e+000 -5.5470e+001 -8.7053e+000 62277 77099,77229,77125
 1.5000e+000 77255 -1.2231e+000 -6.6947e+001 -3.2103e+000 62277 77125,77177,77151
 1.5000e+000 77373 -7.1640e+000 -5.2180e+001 -1.0387e+000 62277 77203,77177,77347
 1.5000e+000 77396 -4.3883e+000 -4.9911e+001 -2.2877e+000 62277 77203,77347,77229
 1.5000e+000 77857 -3.1882e+000 -7.6737e+001  2.1900e+000 61758 77635,77739,77661
 1.5000e+000 77834 -6.0142e+000 -7.8346e+001  7.9301e-001 61758 77583,77739,77635
 1.5000e+000 77811 -9.2412e+000 -9.8265e+001 -5.7371e+000 61758 77583,77635,77609
 1.5000e+000 77788  1.2511e+001 -7.3978e+001  1.0339e+001 61758 77661,77713,77687
 1.5000e+000 77765 -6.5990e+000 -8.7422e+001  1.4868e+000 61758 77661,77739,77713
 1.5000e+000 78491 -1.7325e+001 -4.3540e+001 -2.8637e-001 61418 78171,78301,78249
 1.5000e+000 78468 -4.7320e+000 -3.5526e+001  3.3094e+000 61418 78145,78301,78171
 1.5000e+000 78445 -1.2543e+001 -3.7103e+001 -7.4989e+000 61418 78171,78249,78223
 1.5000e+000 78422 -9.9568e+000 -3.7851e+001  5.5301e+000 61418 78145,78327,78301
 1.5000e+000 78399 -1.7795e+001 -4.5449e+001 -9.5916e-001 61418 78249,78301,78275
 1.5000e+000 78376  2.8021e+001 -4.7967e+001 -1.5551e+001 61418 78171,78223,78197
 1.5000e+000 78353 -1.4458e+001 -2.3810e+001  7.7569e+000 61418 78119,78327,78145
 1.5000e+000 78690 -8.6992e-002 -6.3646e+001 -8.2693e-001 61014 78713,78566,78540
 1.5000e+000 78667 -5.1627e+000 -6.7557e+001  8.8565e-001 61014 78713,78540,78618
 1.5000e+000 78644 -2.4391e+001 -8.0871e+001 -1.0253e+001 61014 78514,78618,78540
 1.5000e+000 78739 -1.8827e+000 -6.3994e+001 -1.8102e+000 61014 78592,78566,78713
 1.5000e+000 78762 -1.3524e+001 -6.4956e+001 -2.5615e+000 61014 78785,78713,78618
 1.5000e+000 78811  3.5160e+000 -5.8452e+001 -4.8607e+000 61014 78592,78713,78785
 1.5000e+000 79398  7.0420e+000 -5.1097e+001  1.3206e-001 60624 79101,79179,79153
 1.5000e+000 79375 -3.1638e+000 -5.9846e+001  3.9200e+000 60624 79101,79231,79179
 1.5000e+000 79352  2.4812e+001 -4.8573e+001  4.7026e+000 60624 79075,79231,79101
 1.5000e+000 79329 -5.1043e+000 -7.1613e+001  1.6547e+001 60624 79075,79257,79231
 1.5000e+000 79306  6.0714e+000 -3.2348e+001 -2.8403e+000 60624 79179,79231,79205
 1.5000e+000 79283  4.1630e+000 -5.7139e+001 -3.5029e+000 60624 79101,79153,79127
 1.5000e+000 79776 -2.1037e+001 -6.8374e+001  5.6590e+000 60070 79528,79658,79606
 1.5000e+000 79753 -1.8658e+001 -5.5399e+001  2.6680e-001 60070 79502,79658,79528
 1.5000e+000 79730 -2.4329e+001 -6.1246e+001  1.1507e+001 60070 79528,79606,79580
 1.5000e+000 79707 -9.7297e+000 -5.8658e+001  1.5240e+000 60070 79606,79658,79632
 1.5000e+000 79684 -1.9841e+000 -3.7670e+001 -8.8992e+000 60070 79528,79580,79554
 1.5000e+000 80105 -1.7967e+001 -5.6789e+001  5.1449e+000 59758 80128,79958,79906
 1.5000e+000 80082 -1.8637e+001 -5.6468e+001  4.9522e+000 59758 80128,79906,80010
 1.5000e+000 80059 -2.9796e+001 -7.0351e+001  1.6581e+001 59758 79906,79958,79932
 1.5000e+000 80036 -2.6840e+001 -5.4316e+001  6.0928e+000 59758 79880,80010,79906
 1.5000e+000 80154 -1.8337e+001 -5.6944e+001  4.8941e+000 59758 79984,79958,80128
 1.5000e+000 80177 -1.8938e+001 -5.6667e+001  4.6553e+000 59758 79984,80128,80010
 1.5000e+000 80376 -1.0928e+001 -6.7823e+001  1.9530e+000 59312 80226,80304,80252
 1.5000e+000 80353 -6.8697e+000 -7.5767e+001  2.7711e+000 59312 80200,80304,80226
 1.5000e+000 80330 -2.3002e+001 -5.8896e+001  2.1875e+001 59312 80252,80304,80278
 1.5000e+000 80805 -1.7131e+000 -3.1734e+001 -3.9161e+000 58908 80900,80828,80638
 1.5000e+000 80782 -1.0394e+001 -4.3213e+001 -8.2423e+000 58908 80828,80560,80508
 1.5000e+000 80759 -1.6823e+000 -3.0673e+001 -2.4248e+000 58908 80900,80638,80612
 1.5000e+000 80736  6.2386e+000 -2.6548e+001  2.4673e+001 58908 80482,80664,80508
 1.5000e+000 80713  3.8370e+000 -3.5359e+001  1.3295e+000 58908 80560,80612,80586
 1.5000e+000 80690  1.8306e+001 -8.8821e+001 -3.9167e+001 58908 80508,80560,80534
 1.5000e+000 80854  9.3713e+000 -3.7592e+001  5.8419e+000 58908 80664,80638,80828
 1.5000e+000 80877  8.2562e-002 -5.6412e+001  2.8565e+000 58908 80664,80828,80508
 1.5000e+000 80926 -1.2981e+000 -2.8885e+001 -3.6622e+000 58908 80560,80828,80900
 1.5000e+000 80949 -1.4308e+000 -2.8620e+001 -1.9572e+000 58908 80560,80900,80612
 1.5000e+000 81246  8.3079e+000 -3.4489e+001  6.4662e-001 58482 81076,81128,81102
 1.5000e+000 81223 -5.9563e+000 -6.5272e+001 -6.3707e+000 58482 80972,81128,81076
 1.5000e+000 81200  2.3102e+000 -4.1790e+001 -7.8072e+000 58482 80972,81076,81050
 1.5000e+000 81177 -3.7717e+000 -5.7565e+001 -9.5226e+000 58482 80998,81050,81024
 1.5000e+000 81154 -2.1412e+000 -4.2377e+001 -1.1142e+001 58482 80972,81050,80998
 1.5000e+000 81754 -1.2159e+001 -3.4962e+001  5.9715e+000 57828 81457,81613,81483
 1.5000e+000 81731 -1.2484e+001 -3.3144e+001  2.8033e+000 57828 81431,81613,81457
 1.5000e+000 81708 -1.3590e+001 -3.8256e+001  7.2105e+000 57828 81483,81613,81509
 1.5000e+000 81685 -1.7843e+001 -4.1069e+001  8.9491e+000 57828 81509,81613,81587
 1.5000e+000 81662 -1.5928e+001 -6.4291e+001  1.7286e+001 57828 81509,81587,81535
 1.5000e+000 81639  1.0642e+001 -4.5500e+001  7.3569e+000 57828 81535,81587,81561
 1.5000e+000 82002 -2.5010e+001 -8.4007e+001 -6.3910e-001 57374 82025,81855,81829
 1.5000e+000 81979 -2.6725e+001 -7.7648e+001  4.3981e+000 57374 82025,81829,81907
 1.5000e+000 81956 -1.7463e+001 -7.8186e+001  1.0263e+001 57374 81803,81907,81829
 1.5000e+000 81933  2.7991e+001 -6.1376e+001  1.2406e+001 57374 81777,81907,81803
 1.5000e+000 82051 -2.5969e+001 -7.6499e+001 -6.0670e-001 57374 81881,81855,82025
 1.5000e+000 82074 -2.5183e+001 -7.0150e+001  6.3427e+000 57374 81881,82025,81907
 1.5000e+000 82356 -6.9207e-001 -3.2830e+001 -1.8045e+000 56913 82180,82232,82206
 1.5000e+000 82333 -4.1844e+000 -4.2900e+001  1.5078e+000 56913 82180,82284,82232
 1.5000e+000 82310  1.4990e+001 -3.2800e+001  8.2600e+000 56913 82379,82232,82284
 1.5000e+000 82405  4.4905e+001 -1.3035e+001  2.4161e+001 56913 82258,82232,82379
 1.5000e+000 82764 -3.9753e+000 -1.5728e+001 -3.5107e+000 56523 82614,82666,82640
 1.5000e+000 82741 -6.9658e+000 -1.7494e+001 -2.0570e+000 56523 82614,82692,82666
 1.5000e+000 82718  1.6844e+001 -1.4836e+001 -1.2032e+001 56523 82588,82692,82614
 1.5000e+000 83368  3.2275e+000 -6.2557e+001 -2.1981e+000 55969 82973,83155,83129
 1.5000e+000 83345  7.7027e+000 -6.0638e+001 -4.7475e-001 55969 82973,83181,83155
 1.5000e+000 83322  1.2246e+000 -5.1597e+001 -4.1874e+000 55969 82973,83129,82999
 1.5000e+000 83299 -2.2092e+001 -5.9924e+001  1.3951e+000 55969 83391,83025,82999
 1.5000e+000 83276 -1.7261e+001 -6.0631e+001 -3.8288e-001 55969 83391,82999,83129
 1.5000e+000 83253  6.2437e+000 -4.8936e+001  1.2322e+001 55969 83077,83129,83103
 1.5000e+000 83230 -2.5439e+001 -4.4649e+001 -5.6369e+000 55969 83025,83077,83051
 1.5000e+000 83207  4.2594e+001 -4.4610e+001  4.2373e+000 55969 82947,83181,82973
 1.5000e+000 83417 -1.7448e+001 -5.7866e+001  1.8053e+000 55969 83077,83025,83391
 1.5000e+000 83440 -1.5681e+001 -6.0211e+001 -3.4907e-001 55969 83077,83391,83129
 1.5000e+000 83946 -2.9641e+001 -8.1474e+001  1.7215e+001 55771 83969,83779,83727
 1.5000e+000 83923 -2.1494e+001 -6.5651e+001  1.0389e+001 55771 83969,83727,83623
 1.5000e+000 83900 -2.8097e+001 -3.2828e+001  7.0068e+000 55771 83623,83727,83649
 1.5000e+000 83877  7.6033e+000 -1.0872e+002  2.2346e+001 55771 83727,83779,83753
 1.5000e+000 83854 -3.0029e+001 -5.2540e+001  2.2032e+001 55771 83675,83727,83701
 1.5000e+000 83831 -4.9613e+001 -5.3037e+001  2.2782e+001 55771 83649,83727,83675
 1.5000e+000 83995 -2.6238e+001 -8.4127e+001 -2.9267e+000 55771 83805,83779,83969
 1.5000e+000 84018 -8.3212e+000 -5.1694e+001 -1.1626e+001 55771 83805,83969,83623
 1.5000e+000 84168  2.9083e+000 -2.5225e+001  1.6335e+000 55367 84191,84067,84041
 1.5000e+000 84145  2.0761e+000 -2.4751e+001  1.8395e+000 55367 84191,84041,84119
 1.5000e+000 84217  2.1603e+000 -2.4725e+001  1.4866e+000 55367 84093,84067,84191
 1.5000e+000 84240  2.3300e-001 -2.5094e+001  1.5187e+000 55367 84093,84191,84119
 1.5000e+000 84571 -1.3176e+001 -6.3430e+001 -7.6338e+000 54913 84398,84450,84424
 1.5000e+000 84548 -9.0465e+000 -5.8781e+001 -5.2310e+000 54913 84372,84450,84398
 1.5000e+000 84525 -1.8009e+001 -6.6519e+001  7.3334e-001 54913 84346,84450,84372
 1.5000e+000 84502 -6.3639e+000 -3.9536e+001 -6.3054e+000 54913 84346,84476,84450
 1.5000e+000 85126 -3.0864e+001 -6.9906e+001 -8.2379e+000 54402 84858,84936,84910
 1.5000e+000 85103 -2.3296e+001 -5.2397e+001 -8.9171e+000 54402 84806,84936,84858
 1.5000e+000 85080 -2.3859e+001 -5.0180e+001 -8.1551e+000 54402 84780,84936,84806
 1.5000e+000 85057 -1.9257e+001 -5.5675e+001 -6.4212e+000 54402 84806,84858,84832
 1.5000e+000 85034 -2.3420e+001 -4.8710e+001 -2.2704e+000 54402 84780,84962,84936
 1.5000e+000 85011 -2.2349e+001 -3.2162e+001 -1.4653e+000 54402 84858,84910,84884
 1.5000e+000 84988 -1.9111e+001 -4.0552e+001 -6.7075e-001 54402 84754,84962,84780
 1.5000e+000 85396 -4.4263e+000 -2.1468e+001 -1.5079e+000 53998 85197,85249,85223
 1.5000e+000 85373 -3.6412e+000 -2.4604e+001 -7.0582e-001 53998 85197,85275,85249
 1.5000e+000 85350 -1.0038e+001 -3.1489e+001 -3.3511e+000 53998 85171,85275,85197
 1.5000e+000 85327  6.5070e+000 -2.6505e+001 -4.7458e+000 53998 85171,85301,85275
 1.5000e+000 85749 -5.9162e+000 -6.2808e+001 -4.6049e+000 53636 85524,85628,85550
 1.5000e+000 85726 -2.2024e+001 -7.3244e+001  8.9997e-001 53636 85524,85654,85628
 1.5000e+000 85703  1.7049e+001 -6.2880e+001 -1.8945e+001 53636 85550,85602,85576
 1.5000e+000 85680 -9.3600e+000 -6.3699e+001 -6.8109e+000 53636 85550,85628,85602
 1.5000e+000 86127  6.2465e+000 -5.8512e+001  8.5167e+000 52982 86150,85957,85879
 1.5000e+000 86104 -6.5919e+000 -6.4088e+001  6.1772e+000 52982 86150,85879,85853
 1.5000e+000 86081  7.9210e+000 -7.4712e+001  2.3331e+001 52982 85957,86009,85983
 1.5000e+000 86058 -1.2025e+001 -6.6116e+001  1.0072e+001 52982 85879,85957,85931
 1.5000e+000 86035 -1.3551e+000 -5.4100e+001  2.0855e+000 52982 85879,85931,85905
 1.5000e+000 86176  1.3349e+001 -6.5510e+001  6.8652e+000 52982 86009,85957,86150
 1.5000e+000 86199  5.8057e+000 -6.7477e+001  4.9595e+000 52982 86009,86150,85853
 1.5000e+000 86398  5.0180e+000 -2.4747e+001  4.1847e+000 52542 86421,86248,86222
 1.5000e+000 86375 -4.1057e+000 -2.8007e+001 -3.7257e-002 52542 86421,86222,86300
 1.5000e+000 86352 -4.9987e+000 -2.9432e+001  4.2610e-001 52542 86222,86326,86300
 1.5000e+000 86447  1.5519e+001 -2.6154e+001  9.6800e+000 52542 86274,86248,86421
 1.5000e+000 86470  5.9638e+000 -3.2116e+001  4.2512e+000 52542 86274,86421,86300
 1.5000e+000 86669 -2.8587e-001 -2.6868e+001 -1.5799e+001 52230 86692,86571,86545
 1.5000e+000 86646 -4.5584e+000 -3.5462e+001 -1.0509e+001 52230 86692,86545,86519
 1.5000e+000 86623 -1.6713e+001 -2.4374e+001 -1.6578e+000 52230 86493,86597,86519
 1.5000e+000 86718 -4.4907e+000 -2.6958e+001 -7.6974e+000 52230 86597,86571,86692
 1.5000e+000 86741 -1.2372e+001 -3.7209e+001 -1.9813e+000 52230 86597,86692,86519
 1.5000e+000 87153 -2.2083e+001 -3.6388e+001  3.2206e+000 51640 86980,87058,87032
 1.5000e+000 87130 -1.4771e+001 -3.7344e+001  3.0270e+000 51640 86928,87058,86980
 1.5000e+000 87107 -1.0106e+001 -7.6345e+001 -1.6703e+001 51640 86928,86980,86954
 1.5000e+000 87084 -1.0732e+001 -3.1590e+001  1.0098e+000 51640 86980,87032,87006
 1.5000e+000 87659 -9.5398e+000 -3.4956e+001  3.8984e+000 51029 87682,87440,87362
 1.5000e+000 87636 -1.3326e+001 -3.8795e+001 -1.8356e-001 51029 87682,87362,87336
 1.5000e+000 87613 -1.7284e+001 -5.7658e+001 -3.0379e+000 51029 87440,87518,87466
 1.5000e+000 87590 -1.8152e+001 -3.6794e+001  5.0957e+000 51029 87362,87440,87414
 1.5000e+000 87567 -1.7306e+001 -3.2559e+001  1.5575e+001 51029 87362,87414,87388
 1.5000e+000 87544 -1.8270e+001 -4.8992e+001 -2.6310e+000 51029 87466,87518,87492
 1.5000e+000 87708 -7.7466e+000 -4.0459e+001  9.4123e-001 51029 87518,87440,87682
 1.5000e+000 87731 -9.6042e+000 -4.5993e+001 -1.6538e+000 51029 87518,87682,87336
 1.5000e+000 87881 -3.5175e+000 -4.0819e+001  4.8480e-001 50739 87780,87832,87806
 1.5000e+000 87858 -1.5599e+000 -3.5935e+001  7.4781e-001 50739 87754,87832,87780
 1.5000e+000 88468  3.5554e+000 -1.6618e+001  5.7223e-001 50235 88171,88327,88197
 1.5000e+000 88445 -1.6843e+001 -1.2204e+001 -6.9874e+000 50235 88145,88327,88171
 1.5000e+000 88422  5.6400e+001 -3.3371e+000 -4.5779e+000 50235 88275,88327,88301
 1.5000e+000 88399  8.3147e+000 -2.3947e+001 -2.8010e+000 50235 88197,88327,88275
 1.5000e+000 88376  1.8158e+001 -1.6784e+001  7.4732e-001 50235 88197,88275,88223
 1.5000e+000 88353  8.3954e+000 -3.3403e+001  5.1590e+000 50235 88223,88275,88249
 1.5000e+000 88895  4.5023e-001 -4.5759e+001  4.2118e+000 49873 88918,88728,88676
 1.5000e+000 88872  1.0066e+000 -4.7307e+001  3.0346e+000 49873 88918,88676,88624
 1.5000e+000 88849  3.7364e+000 -3.3806e+001  4.3116e+000 49873 88598,88754,88624
 1.5000e+000 88826  3.3812e+000 -4.1851e+001 -2.8113e+000 49873 88624,88676,88650
 1.5000e+000 88803  4.9238e+000 -6.0111e+001  4.9032e+000 49873 88676,88728,88702
 1.5000e+000 88780  5.6071e+000 -3.5595e+001  3.1241e+000 49873 88572,88754,88598
 1.5000e+000 88944  1.7791e+000 -4.4791e+001  5.0542e+000 49873 88754,88728,88918
 1.5000e+000 88967  1.7252e+000 -4.6217e+001  3.7310e+000 49873 88754,88918,88624
 1.5000e+000 89473 -3.2754e+001 -5.1390e+001 -8.1826e+000 49583 89176,89306,89202
 1.5000e+000 89450 -2.3779e+001 -4.8034e+001 -7.3814e+000 49583 89176,89332,89306
 1.5000e+000 89427 -2.3428e+001 -5.6948e+001  4.4542e-001 49583 89496,89228,89202
 1.5000e+000 89404 -2.1266e+001 -5.7893e+001  7.4513e-001 49583 89496,89202,89280
 1.5000e+000 89381 -3.5244e+001 -6.8630e+001 -1.2871e+001 49583 89202,89306,89280
 1.5000e+000 89358 -1.4016e+001 -4.2899e+001 -5.4102e+000 49583 89150,89332,89176
 1.5000e+000 89522 -2.0396e+001 -5.1922e+001  1.7321e+000 49583 89254,89228,89496
 1.5000e+000 89545 -2.0977e+001 -5.7010e+001  9.8275e-001 49583 89254,89496,89280
 1.5000e+000 89825  1.0040e+001 -4.9879e+001  1.6609e+000 49179 89701,89753,89727
 1.5000e+000 89802  1.4391e+001 -4.8092e+001  5.0488e-001 49179 89675,89753,89701
 1.5000e+000 89779  2.5586e+001 -3.0545e+001  1.4670e+001 49179 89848,89753,89675
 1.5000e+000 89874 -8.1187e+000 -4.5358e+001  4.6894e+000 49179 89649,89753,89848
 1.5000e+000 90223 -9.6033e+000 -4.8802e+001  6.1986e-001 48739 90024,90102,90076
 1.5000e+000 90200 -1.3895e+001 -4.8785e+001  2.7964e+000 48739 90024,90128,90102
 1.5000e+000 90177 -2.3818e+000 -4.7749e+001  2.6511e-001 48739 90024,90076,90050
 1.5000e+000 90154  1.3655e+001 -4.4359e+001  1.7530e+001 48739 89998,90128,90024
 1.5000e+000 90603 -1.3006e+001 -4.9025e+001  9.0813e+000 48335 90381,90485,90459
 1.5000e+000 90580 -1.7136e+001 -5.4952e+001  7.1363e+000 48335 90355,90485,90381
 1.5000e+000 90557  2.4159e+000 -4.3968e+000  4.7020e+000 48335 90381,90433,90407
 1.5000e+000 90534 -7.5940e+000 -4.8709e+001  7.1593e+000 48335 90381,90459,90433
 1.5000e+000 90511  1.2591e+001 -3.3879e+001  1.9749e+001 48335 90329,90485,90355
 1.5000e+000 90753  1.9862e+001 -1.9693e+001  1.5181e+001 47824 90776,90652,90704
 1.5000e+000 90730  8.8582e+000 -4.1983e+001  1.1551e+001 47824 90626,90704,90652
 1.5000e+000 90802  3.7704e+000 -3.1708e+001  9.9006e+000 47824 90678,90652,90776
 1.5000e+000 91131 -9.5797e+000 -5.6594e+001  3.4414e+000 47427 91154,90958,90906
 1.5000e+000 91108 -2.4639e+001 -6.3166e+001  4.9059e+000 47427 91154,90906,91036
 1.5000e+000 91085 -1.5506e+001 -4.3954e+001 -4.1497e+000 47427 90958,91010,90984
 1.5000e+000 91062 -7.1359e+000 -4.1526e+001  3.6824e+000 47427 90906,90958,90932
 1.5000e+000 91180 -1.7487e+001 -5.2616e+001 -6.7966e+000 47427 91010,90958,91154
 1.5000e+000 91203 -3.1614e+001 -5.8646e+001 -5.5527e+000 47427 91010,91154,91036
 1.5000e+000 91583 -3.1125e+001 -6.7281e+001  3.2696e+000 46873 91309,91439,91335
 1.5000e+000 91560 -2.8387e+001 -6.0440e+001  1.7954e+000 46873 91309,91465,91439
 1.5000e+000 91537 -3.8752e+001 -8.3383e+001 -1.2051e+001 46873 91361,91439,91413
 1.5000e+000 91514 -1.7979e+001 -6.2188e+001  5.8803e-002 46873 91335,91439,91361
 1.5000e+000 91491  3.7366e+001 -6.6753e+001 -1.4934e+001 46873 91361,91413,91387
 1.5000e+000 91880 -3.1514e+000 -4.7463e+001 -4.2060e+000 46526 91606,91710,91658
 1.5000e+000 91857 -1.6325e+000 -5.2433e+001 -4.8868e-001 46526 91606,91762,91710
 1.5000e+000 91834  6.8021e+000 -4.6821e+001 -1.2119e+001 46526 91606,91658,91632
 1.5000e+000 91811 -6.8106e+000 -3.9565e+001  3.1734e-001 46526 91658,91710,91684
 1.5000e+000 91788  5.2999e+000 -3.0687e+001  1.7108e+000 46526 91710,91762,91736
 1.5000e+000 92211  7.6784e+000 -2.0230e+001 -1.8713e+000 45700 91986,92064,92038
 1.5000e+000 92188 -1.0878e+001 -4.2960e+001  6.1192e+000 45700 91986,92116,92064
 1.5000e+000 92165  1.5201e+001 -1.1346e+001 -1.3965e+001 45700 91986,92038,92012
 1.5000e+000 92142 -1.1603e+001 -4.0470e+001  4.9269e+000 45700 92064,92116,92090
 1.5000e+000 92766 -2.7592e+001 -4.9745e+001 -1.3986e+000 45452 92446,92602,92576
 1.5000e+000 92743 -4.7840e+001 -4.8315e+001 -1.3602e+001 45452 92420,92602,92446
 1.5000e+000 92720 -3.2266e+001 -5.2461e+001  6.2301e+000 45452 92789,92524,92498
 1.5000e+000 92697 -3.9954e+001 -5.0885e+001  3.8011e+000 45452 92789,92498,92446
 1.5000e+000 92674 -3.0397e+001 -5.9007e+001 -2.3218e+000 45452 92524,92576,92550
 1.5000e+000 92651 -5.1620e+001 -5.0511e+001  2.7523e+001 45452 92446,92498,92472
 1.5000e+000 92628 -1.7593e+001 -4.2519e+001 -1.3785e+001 45452 92394,92602,92420
 1.5000e+000 92815 -2.6827e+001 -5.3537e+001  4.1600e+000 45452 92576,92524,92789
 1.5000e+000 92838 -3.2839e+001 -5.0668e+001  2.7581e+000 45452 92576,92789,92446
 1.5000e+000 92939 -7.5837e+000 -5.6096e+001 -1.5900e+001 44998 92861,92913,92887
 1.5000e+000 93319  3.3059e+000 -6.0320e+001  9.6413e+000 44601 93123,93201,93149
 1.5000e+000 93296 -2.9628e+000 -5.8294e+001  3.2968e-001 44601 93045,93201,93123
 1.5000e+000 93273  1.4332e+001 -3.3350e+001 -7.2766e+000 44601 93045,93123,93071
 1.5000e+000 93250  2.0487e+001 -3.6671e+001 -1.5527e+001 44601 93071,93123,93097
 1.5000e+000 93227  3.4066e+000 -3.7053e+001  1.1831e+001 44601 93149,93201,93175
 1.5000e+000 93697  1.0132e+000 -5.8004e+001  3.8593e-001 44026 93720,93553,93527
 1.5000e+000 93674  1.7727e+000 -5.1559e+001  2.2167e+000 44026 93720,93527,93449
 1.5000e+000 93651  6.4442e-001 -5.5773e+001  4.5356e+000 44026 93449,93527,93501
 1.5000e+000 93628 -2.4038e+000 -3.9699e+001 -7.8862e+000 44026 93423,93579,93449
 1.5000e+000 93605  1.1577e+001 -5.5180e+001  4.1597e+000 44026 93449,93501,93475
 1.5000e+000 93746 -2.8738e+000 -5.0734e+001  1.6962e-001 44026 93579,93553,93720
 1.5000e+000 93769 -1.0893e+000 -4.3322e+001  2.4857e+000 44026 93579,93720,93449
 1.5000e+000 94066 -8.2161e+000 -4.7726e+001 -4.4775e+000 43579 94089,93818,93792
 1.5000e+000 94043 -5.1703e+000 -4.7248e+001 -4.8285e+000 43579 94161,94089,93792
 1.5000e+000 94020 -5.0707e+000 -4.7263e+001 -4.5306e+000 43579 94161,93792,93948
 1.5000e+000 93997 -3.4372e+000 -4.2732e+001 -3.4071e+000 43579 94233,93870,93818
 1.5000e+000 93974  8.2411e-001 -4.6521e+001  7.8653e-001 43579 93818,93870,93844
 1.5000e+000 94115 -4.6332e+000 -4.3064e+001 -2.5322e+000 43579 94233,93818,94089
 1.5000e+000 94138 -1.3739e+001 -4.8011e+001 -5.2803e+000 43579 93896,94089,93922
 1.5000e+000 94187 -4.9710e+000 -4.6786e+001 -4.8134e+000 43579 93922,94089,94161
 1.5000e+000 94210 -4.8495e+000 -4.6756e+001 -4.4861e+000 43579 93922,94161,93948
 1.5000e+000 94259  1.8117e+000 -4.0862e+001 -8.2657e+000 43579 93896,93870,94233
 1.5000e+000 94282 -4.2324e+000 -4.3494e+001 -7.3693e+000 43579 93896,94233,94089
 1.5000e+000 94481 -6.8917e+000 -5.0415e+001 -1.1132e+000 43239 94305,94383,94357
 1.5000e+000 94458 -2.8050e+000 -4.4104e+001  7.2775e+000 43239 94305,94409,94383
 1.5000e+000 94435 -5.5292e+000 -5.0676e+001 -1.5412e+000 43239 94305,94357,94331
 1.5000e+000 94633 -2.3685e+000 -3.8459e+001  1.0367e+001 42827 94656,94532,94506
 1.5000e+000 94610 -1.1906e+001 -4.4177e+001  1.4281e+001 42827 94728,94656,94506
 1.5000e+000 94682  1.5664e+000 -4.6159e+001  1.0167e+001 42827 94558,94532,94656
 1.5000e+000 94705  1.0814e+001 -4.5992e+001  5.8070e+000 42827 94988,94860,94656
 1.5000e+000 94754 -2.6707e-001 -3.7440e+001  2.9773e+000 42827 94988,94656,94728
 1.5000e+000 94886  2.3913e+001 -4.0923e+001  5.7009e+000 42827 94558,94656,94860
 1.5000e+000 95014  2.0156e+001 -3.8570e+001  2.5592e+000 42827 94584,94860,94988
 1.5000e+000 95037  1.0479e+001 -3.0810e+001 -2.1463e-001 42827 94584,94988,94728
 1.5000e+000 95236 -1.7866e+001 -8.0772e+001  5.6592e+000 42537 95259,95112,95060
 1.5000e+000 95213 -1.6020e+001 -8.3970e+001  7.0154e+000 42537 95259,95060,95164
 1.5000e+000 95190 -1.0507e+001 -7.4745e+001 -2.2752e+000 42537 95060,95112,95086
 1.5000e+000 95285 -1.6647e+001 -7.9060e+001  6.2210e+000 42537 95138,95112,95259
 1.5000e+000 95308 -1.4134e+001 -8.0791e+001  7.8695e+000 42537 95138,95259,95164
 1.5000e+000 95816 -1.4446e+001 -6.6082e+001 -4.6922e+000 41969 95493,95597,95519
 1.5000e+000 95793 -3.0937e+001 -6.3530e+001  9.5854e+000 41969 95493,95649,95597
 1.5000e+000 95770 -2.6684e+001 -5.7988e+001  5.1112e+000 41969 95493,95675,95649
 1.5000e+000 95747 -2.8455e+001 -7.6232e+001  8.4425e+000 41969 95597,95649,95623
 1.5000e+000 95724 -3.4813e+001 -6.3535e+001 -6.5399e+000 41969 95519,95597,95571
 1.5000e+000 95701 -2.8217e+001 -5.7232e+001 -3.3508e+001 41969 95519,95571,95545
 1.5000e+000 96371 -1.4482e+001 -5.8457e+001  5.3551e+000 41579 96025,96207,96181
 1.5000e+000 96348  9.6707e+000 -4.7095e+001 -3.0482e+000 41579 95999,96207,96025
 1.5000e+000 96325 -2.8704e+001 -4.8323e+001 -1.5986e+001 41579 96129,96181,96155
 1.5000e+000 96302  1.3870e+001 -3.8828e+001 -3.5685e+000 41579 96025,96181,96129
 1.5000e+000 96279 -1.1826e+001 -7.6031e+001  1.6455e+001 41579 96025,96129,96051
 1.5000e+000 96256 -2.8152e+001 -8.6872e+001  2.8403e+001 41579 96051,96103,96077
 1.5000e+000 96233  1.6595e+001 -5.2680e+001  6.3253e+000 41579 96051,96129,96103
 1.5000e+000 96877  5.2013e+000 -4.2158e+001  1.7830e+000 41182 96972,96900,96632
 1.5000e+000 96854  6.3079e+000 -3.9427e+001  4.8536e-001 41182 96900,96554,96736
 1.5000e+000 96831  2.9268e+000 -3.9839e+001 -5.3068e+000 41182 96972,96632,96580
 1.5000e+000 96808  1.4589e+001 -3.9607e+001  3.9746e+000 41182 96632,96684,96658
 1.5000e+000 96785 -9.1042e+000 -5.5062e+001 -3.4680e+000 41182 96684,96736,96710
 1.5000e+000 96762 -1.5301e+001 -6.1197e+001  5.6781e+000 41182 96580,96632,96606
 1.5000e+000 96926  5.4943e+000 -4.4750e+001  1.7596e+000 41182 96684,96632,96900
 1.5000e+000 96949 -3.3631e+000 -4.0782e+001 -1.0876e+000 41182 96684,96900,96736
 1.5000e+000 96998  1.6099e+001 -3.8683e+001 -3.9539e+000 41182 96554,96900,96972
 1.5000e+000 97021  1.7525e+001 -3.1352e+001 -1.1777e+001 41182 96554,96972,96580
 1.5000e+000 97576 -3.3764e+001 -1.1641e+002 -1.8891e+001 40678 97230,97412,97282
 1.5000e+000 97553  1.5645e+001 -9.1941e+001  5.1575e+000 40678 97204,97412,97230
 1.5000e+000 97530 -1.6548e+001 -8.8455e+001 -1.3842e+001 40678 97282,97360,97308
 1.5000e+000 97507 -7.5704e+000 -8.3308e+001 -6.4737e+000 40678 97282,97412,97360
 1.5000e+000 97484 -5.1736e+000 -5.2662e+001 -1.0051e+001 40678 97308,97360,97334
 1.5000e+000 97461 -3.4261e+001 -1.0907e+002  5.2487e+000 40678 97360,97412,97386
 1.5000e+000 97438 -8.3760e+000 -7.2972e+001 -3.4997e+000 40678 97230,97282,97256
 1.5000e+000 97976 -1.6907e+001 -4.3632e+001 -1.2921e+000 40244 97702,97832,97754
 1.5000e+000 97953 -1.1125e+001 -4.8016e+001 -1.5403e+000 40244 97702,97858,97832
 1.5000e+000 97930 -2.5018e+001 -6.5671e+001 -1.1230e+001 40244 97702,97754,97728
 1.5000e+000 97907 -2.9950e+000 -4.4122e+001  1.9353e+001 40244 97780,97832,97806
 1.5000e+000 97884 -1.4210e+001 -4.0358e+001  1.9644e+000 40244 97754,97832,97780
 1.5000e+000 98482 -1.6798e+001 -5.1665e+001  3.1710e+000 39690 98505,98185,98159
 1.5000e+000 98459 -1.1057e+001 -5.2050e+001  5.9540e+000 39690 98505,98159,98289
 1.5000e+000 98436 -3.1649e+001 -8.3224e+001  2.1099e+001 39690 98159,98315,98289
 1.5000e+000 98413 -1.6569e+001 -4.8033e+001  5.7970e+000 39690 98211,98289,98263
 1.5000e+000 98390 -1.1529e+001 -3.0427e+001  3.1901e+000 39690 98211,98263,98237
 1.5000e+000 98367  4.5192e+001 -4.6617e+001  6.3070e+000 39690 98159,98341,98315
 1.5000e+000 98531 -2.6619e+001 -5.2415e+001  5.6176e-001 39690 98211,98185,98505
 1.5000e+000 98554 -1.6860e+001 -4.8303e+001  4.6691e+000 39690 98211,98505,98289
 1.5000e+000 99109 -1.5794e+001 -4.8565e+001 -3.3721e+000 39072 99132,98867,98789
 1.5000e+000 99086 -1.7423e+001 -4.8033e+001 -2.6302e+000 39072 99132,98789,98763
 1.5000e+000 99063 -2.3738e+001 -7.1148e+001  3.7617e+000 39072 98867,98945,98919
 1.5000e+000 99040 -1.5378e+001 -5.2511e+001 -6.4887e-001 39072 98789,98867,98841
 1.5000e+000 99017 -2.0755e+001 -7.4855e+001  5.5911e+000 39072 98867,98919,98893
 1.5000e+000 98994 -2.5765e+001 -5.2590e+001  9.3365e+000 39072 98789,98841,98815
 1.5000e+000 98971 -2.6921e+001 -5.1385e+001 -5.7843e+000 39072 98737,98945,98763
 1.5000e+000 99158 -1.5523e+001 -4.7873e+001 -3.4791e+000 39072 98945,98867,99132
 1.5000e+000 99181 -1.6142e+001 -4.6131e+001 -3.2368e+000 39072 98945,99132,98763
 1.5000e+000 99510 -6.4507e+000 -4.8249e+001  2.6270e+000 38668 99311,99389,99363
 1.5000e+000 99487 -1.6019e+001 -5.0871e+001  4.2200e+000 38668 99285,99389,99311
 1.5000e+000 99464 -2.4969e+001 -5.3174e+001  7.7823e+000 38668 99285,99415,99389
 1.5000e+000 99441 -1.2568e+001 -5.2056e+001  4.2517e+000 38668 99311,99363,99337
 1.5000e+000 99758 -9.7900e-001 -6.5980e+001  5.8850e+000 38164 99781,99611,99585
 1.5000e+000 99735  8.4112e+000 -6.5493e+001  7.5656e+000 38164 99781,99585,99533
 1.5000e+000 99712 -5.3241e+000 -5.4769e+001  4.5442e+000 38164 99611,99663,99637
 1.5000e+000 99689  1.3954e+001 -5.9722e+001  1.8365e+000 38164 99533,99585,99559
 1.5000e+000 99807 -6.0626e+000 -6.3625e+001  8.3695e+000 38164 99663,99611,99781
 1.5000e+000 99830  3.1926e-001 -6.5210e+001  8.4008e+000 38164 99663,99781,99533
 1.5000e+000 100232 -2.1188e+001 -5.5142e+001  1.0953e-001 37702 99984,100114,100088
 1.5000e+000 100209 -1.6074e+001 -5.6043e+001  5.2006e+000 37702 99958,100114,99984
 1.5000e+000 100186 -2.9070e+001 -7.1382e+001 -4.8792e+000 37702 100010,100088,100036
 1.5000e+000 100163 -1.9155e+001 -5.4323e+001 -2.4149e-001 37702 99984,100088,100010
 1.5000e+000 100140 -1.7645e+001 -6.1281e+001 -1.8798e+001 37702 100036,100088,100062
 1.5000e+000 100640 -4.5398e+001 -6.2184e+001  5.4395e+000 37262 100493,100545,100519
 1.5000e+000 100617 -3.3552e+001 -6.5689e+001  3.4847e+000 37262 100441,100545,100493
 1.5000e+000 100594 -1.5979e+001 -5.3294e+001 -5.2159e+000 37262 100415,100545,100441
 1.5000e+000 100571 -4.4295e+001 -8.3502e+001 -5.1042e+000 37262 100441,100493,100467
 1.5000e+000 101146 -2.8261e+001 -4.5893e+001 -2.6332e+000 36872 100823,100979,100849
 1.5000e+000 101123 -2.6086e+001 -3.9031e+001 -6.9660e+000 36872 100823,101005,100979
 1.5000e+000 101100 -2.4615e+001 -6.4156e+001  9.1698e+000 36872 101169,100901,100849
 1.5000e+000 101077 -2.0014e+001 -5.5085e+001  4.3588e+000 36872 101169,100849,100979
 1.5000e+000 101054 -1.3043e+001 -6.5448e+001 -7.5821e-002 36872 100927,100979,100953
 1.5000e+000 101031 -2.0065e+001 -7.5950e+001  9.7433e+000 36872 100849,100901,100875
 1.5000e+000 101195 -1.6850e+001 -6.6251e+001  3.3029e+000 36872 100927,100901,101169
 1.5000e+000 101218 -1.3760e+001 -6.1566e+001 -8.2534e-001 36872 100927,101169,100979
 1.5000e+000 101773 -3.1187e+001 -5.5920e+001  9.1015e+000 36418 101479,101609,101583
 1.5000e+000 101750 -2.7346e+001 -5.9087e+001  1.3936e+001 36418 101453,101609,101479
 1.5000e+000 101727 -1.9082e+001 -5.6988e+001  3.1082e+000 36418 101796,101531,101479
 1.5000e+000 101704 -2.9656e+001 -6.2403e+001  5.2301e+000 36418 101796,101479,101583
 1.5000e+000 101681 -1.3979e+001 -5.9801e+001  2.2536e-001 36418 101479,101531,101505
 1.5000e+000 101658  2.5307e+001 -5.2931e+001 -4.5613e+000 36418 101401,101609,101453
 1.5000e+000 101635 -7.6942e+000 -5.8599e+001 -8.8746e+000 36418 101401,101453,101427
 1.5000e+000 101822 -2.2362e+001 -5.3202e+001 -7.4605e+000 36418 101557,101531,101796
 1.5000e+000 101845 -3.6705e+001 -5.8448e+001 -6.3052e+000 36418 101557,101796,101583
 1.5000e+000 102174  3.0598e+001 -2.3289e+001 -7.6085e+000 35914 101949,102053,101975
 1.5000e+000 102151 -1.3347e+001 -3.1649e+001  1.2959e+000 35914 101949,102079,102053
 1.5000e+000 102128  5.5035e+000 -3.4781e+001 -2.2407e+000 35914 101975,102053,102027
 1.5000e+000 102105  6.6182e+000 -2.4931e+001 -1.6615e+000 35914 101975,102027,102001
 1.5000e+000 102631  2.3989e+001 -5.2988e+001 -1.3762e-001 35574 102383,102513,102487
 1.5000e+000 102608  3.0728e+001 -5.6126e+001 -2.2225e-001 35574 102357,102513,102383
 1.5000e+000 102585  1.0065e+000 -5.8943e+001  4.3938e+000 35574 102409,102487,102435
 1.5000e+000 102562  9.1953e+000 -6.0548e+001  3.0456e+000 35574 102383,102487,102409
 1.5000e+000 102539 -3.3954e+000 -6.8427e+001  3.2501e+000 35574 102435,102487,102461
 1.5000e+000 103009 -8.7606e+000 -4.8944e+001 -4.6167e+000 35170 102761,102865,102787
 1.5000e+000 102986  4.1189e+000 -4.2193e+001  3.1515e+000 35170 102761,102891,102865
 1.5000e+000 102963 -1.3289e+001 -5.0596e+001 -7.9594e+000 35170 102787,102865,102813
 1.5000e+000 102940 -2.4959e+000 -5.5637e+001 -1.6624e+000 35170 102735,102891,102761
 1.5000e+000 102917 -1.5801e+001 -5.7194e+001 -1.0064e+001 35170 102813,102865,102839
 1.5000e+000 103257  1.5004e+001 -4.6605e+001 -8.3414e+000 34659 103280,103058,103032
 1.5000e+000 103234  8.6270e+000 -4.8764e+001 -1.4871e-001 34659 103280,103032,103162
 1.5000e+000 103211 -5.4548e+000 -3.6651e+001 -1.4439e+000 34659 103084,103162,103110
 1.5000e+000 103188 -1.6660e+001 -5.9549e+001  2.3034e+000 34659 103110,103162,103136
 1.5000e+000 103306  2.1852e+000 -4.4024e+001 -7.6558e+000 34659 103084,103058,103280
 1.5000e+000 103329 -6.5954e-001 -4.5400e+001  1.6408e+000 34659 103084,103280,103162
 1.5000e+000 103837  1.2861e+001 -5.7048e+001  5.1089e+000 34247 103860,103566,103540
 1.5000e+000 103814 -2.3000e+000 -6.1437e+001  1.6292e+000 34247 103932,103860,103540
 1.5000e+000 103791 -3.9442e+000 -7.0182e+001 -5.9816e+000 34247 103932,103540,103670
 1.5000e+000 103768  9.0129e+000 -6.0516e+001  1.1048e+000 34247 103566,103618,103592
 1.5000e+000 103745 -1.8820e+001 -6.6656e+001 -8.5122e+000 34247 103540,103696,103670
 1.5000e+000 103722 -2.7592e+001 -7.0041e+001  1.6617e+001 34247 103514,103696,103540
 1.5000e+000 103886 -2.6911e+000 -6.6414e+001 -9.3784e-001 34247 103618,103566,103860
 1.5000e+000 103909  7.1720e+000 -6.4473e+001 -1.1420e+000 34247 103618,103860,103644
 1.5000e+000 103958 -6.2000e+000 -8.1303e+001 -7.2454e+000 34247 103644,103860,103932
 1.5000e+000 103981 -9.0258e+000 -9.0058e+001 -1.5315e+001 34247 103644,103932,103670
 1.5000e+000 104300 -2.0911e+001 -6.6680e+001 -6.4656e+000 33843 104052,104182,104156
 1.5000e+000 104277 -4.7033e+001 -6.0984e+001 -4.1384e+000 33843 104026,104182,104052
 1.5000e+000 104254 -2.6068e+001 -6.5975e+001  2.1875e+000 33843 104078,104156,104130
 1.5000e+000 104231 -4.1451e+001 -7.4513e+001 -3.3810e+000 33843 104052,104156,104078
 1.5000e+000 104208 -3.9392e+001 -6.7130e+001  1.0330e+000 33843 104078,104130,104104
 1.5000e+000 104499 -2.7449e+000 -6.7652e+001 -3.5129e+000 33282 104594,104522,104375
 1.5000e+000 104476 -2.1972e+000 -6.3584e+001  2.6036e+000 33282 104522,104323,104427
 1.5000e+000 104453  3.3075e+000 -7.2500e+001 -2.7551e+000 33282 104594,104375,104349
 1.5000e+000 104548  2.7840e+000 -5.6602e+001 -5.4190e+000 33282 104401,104375,104522
 1.5000e+000 104571  3.4891e-001 -5.9830e+001  3.6113e-001 33282 104401,104522,104427
 1.5000e+000 104620  3.8090e+000 -5.8196e+001 -4.0228e-001 33282 104323,104522,104594
 1.5000e+000 104643  7.3377e+000 -6.5716e+001 -6.9075e-001 33282 104323,104594,104349
 1.5000e+000 104942 -9.4075e+000 -6.1344e+001  9.9163e+000 32728 104694,104772,104720
 1.5000e+000 104919 -1.5860e+001 -6.1183e+001  5.9891e+000 32728 104694,104824,104772
 1.5000e+000 104896 -1.4725e+001 -6.7248e+001  7.5901e+000 32728 104720,104772,104746
 1.5000e+000 104873 -9.6266e+000 -7.0597e+001  6.3450e+000 32728 104772,104824,104798
 1.5000e+000 104850 -1.3969e+001 -6.3927e+001  4.0070e+000 32728 104668,104824,104694
 1.5000e+000 105373 -2.8843e+001 -8.0237e+001 -4.5250e+000 32274 105396,105102,105076
 1.5000e+000 105350 -2.4315e+001 -9.0344e+001 -2.5347e+000 32274 105396,105076,105206
 1.5000e+000 105327 -2.8265e+001 -9.3481e+001  9.6814e+000 32274 105154,105206,105180
 1.5000e+000 105304 -1.6968e+001 -9.1106e+001 -1.0764e+001 32274 105076,105232,105206
 1.5000e+000 105281 -3.0949e+001 -7.2037e+001 -1.0756e+001 32274 105102,105154,105128
 1.5000e+000 105258 -5.6639e+001 -8.8419e+001 -2.1084e+001 32274 105050,105232,105076
 1.5000e+000 105422 -2.7505e+001 -7.0291e+001 -2.5844e+000 32274 105154,105102,105396
 1.5000e+000 105445 -2.4184e+001 -8.1810e+001 -1.4853e+000 32274 105154,105396,105206
 1.5000e+000 105644 -5.7480e+000 -6.4888e+001 -1.1049e-001 31620 105468,105546,105520
 1.5000e+000 105621 -5.3954e-001 -7.6826e+001 -2.8806e+000 31620 105468,105572,105546
 1.5000e+000 105598 -1.3071e+001 -7.7184e+001 -4.9805e+000 31620 105468,105520,105494
 1.5000e+000 105794 -9.0163e+000 -7.3541e+001 -1.4801e+000 31158 105889,105817,105693
 1.5000e+000 105771 -1.1443e+001 -6.9589e+001 -3.7065e+000 31158 105817,105667,105745
 1.5000e+000 105843 -9.9981e+000 -8.5299e+001  1.5551e-001 31158 105719,105693,105817
 1.5000e+000 105866 -4.5459e+000 -7.6636e+001 -2.5385e+000 31158 105719,105817,105745
 1.5000e+000 105915 -1.6189e+001 -7.6615e+001 -1.5597e+000 31158 105667,105817,105889
 1.5000e+000 106270 -2.9017e+001 -6.7867e+001  1.5977e+000 30818 106293,106071,106045
 1.5000e+000 106247 -3.1652e+001 -7.3441e+001 -6.2316e+000 30818 106293,106045,106175
 1.5000e+000 106224 -1.2368e+001 -6.4309e+001  2.3583e+000 30818 106123,106175,106149
 1.5000e+000 106201 -3.1336e+001 -6.8441e+001  3.5127e+000 30818 106071,106123,106097
 1.5000e+000 106319 -2.4854e+001 -6.5529e+001  2.5317e+000 30818 106123,106071,106293
 1.5000e+000 106342 -2.2554e+001 -6.8232e+001 -4.0350e+000 30818 106123,106293,106175
 1.5000e+000 106492  1.5466e+001 -7.3970e+001  2.1224e+001 30414 106645,106391,106365
 1.5000e+000 106469 -5.9249e+000 -6.7494e+001  1.9916e+001 30414 106515,106365,106443
 1.5000e+000 106541  1.7996e+000 -6.4037e+001  1.5730e+001 30414 106645,106365,106515
 1.5000e+000 106671  1.5386e+000 -8.9231e+001  1.4166e+001 30414 106417,106391,106645
 1.5000e+000 106694 -1.3968e+001 -7.6506e+001  9.8628e+000 30414 106417,106645,106515
 1.5000e+000 106942  6.0726e+000 -7.8987e+001 -3.3302e+000 29910 106965,106795,106769
 1.5000e+000 106919  2.7828e-001 -6.7749e+001 -1.1610e+000 29910 106965,106769,106717
 1.5000e+000 106896  1.5156e+001 -4.8972e+001 -6.6446e+000 29910 106795,106847,106821
 1.5000e+000 106873  3.5186e+000 -6.2608e+001  1.9811e+000 29910 106717,106769,106743
 1.5000e+000 106991  5.9884e+000 -6.9698e+001 -3.8343e+000 29910 106847,106795,106965
 1.5000e+000 107014  3.5686e+000 -5.3924e+001 -2.6878e+000 29910 106847,106965,106717
 1.5000e+000 107213 -1.6699e+001 -7.4032e+001  6.3104e+000 29413 107236,107063,107037
 1.5000e+000 107190 -2.1189e+001 -8.7539e+001  1.1578e+001 29413 107236,107037,107141
 1.5000e+000 107167 -2.0794e+001 -4.6969e+001  1.2264e+001 29413 107063,107115,107089
 1.5000e+000 107262 -1.8879e+001 -6.3477e+001  1.3182e+000 29413 107115,107063,107236
 1.5000e+000 107285 -2.1546e+001 -7.4035e+001  6.6570e+000 29413 107115,107236,107141
 1.5000e+000 107486 -1.3358e+001 -6.4144e+001  4.5069e+000 29009 107336,107388,107362
 1.5000e+000 107463 -1.3382e+001 -6.4323e+001  6.4898e+000 29009 107310,107388,107336
 1.5000e+000 107440 -1.2822e+001 -5.7135e+001  5.6060e+000 29009 107310,107414,107388
 1.5000e+000 107736 -3.7565e+000 -6.1728e+001  1.1721e+000 28491 107537,107615,107563
 1.5000e+000 107713 -4.5176e+000 -6.2747e+001 -2.0293e+000 28491 107537,107641,107615
 1.5000e+000 107690 -4.1831e+000 -5.9062e+001  1.3225e+000 28491 107563,107615,107589
 1.5000e+000 107667 -8.0388e+000 -5.3616e+001 -1.4413e+000 28491 107511,107641,107537
 1.5000e+000 108118  1.4228e-001 -5.6704e+001  3.0335e+000 27980 108141,107922,107844
 1.5000e+000 108095  4.3547e+000 -6.2715e+001  2.6399e+000 27980 108141,107844,108000
 1.5000e+000 108072  1.6201e+000 -5.3722e+001  3.2376e-001 27980 107844,107922,107870
 1.5000e+000 108049  1.6485e+000 -5.2330e+001  4.6224e-001 27980 107870,107922,107896
 1.5000e+000 108026 -4.2671e+000 -4.7867e+001  1.1905e+001 27980 107922,107974,107948
 1.5000e+000 108167  3.3012e+000 -5.7368e+001  4.5356e+000 27980 107974,107922,108141
 1.5000e+000 108190  1.4637e+001 -5.6932e+001  5.9446e+000 27980 107974,108141,108000
 1.5000e+000 108745  4.1587e-001 -4.2412e+001  4.6217e+000 27376 108840,108768,108477
 1.5000e+000 108722 -5.2190e+000 -5.2971e+001  1.6568e+000 27376 108768,108373,108581
 1.5000e+000 108699  1.1486e+000 -3.5774e+001  6.8690e+000 27376 108840,108477,108451
 1.5000e+000 108676 -1.7791e+001 -4.0459e+001 -1.3921e+001 27376 108373,108451,108399
 1.5000e+000 108653 -1.5157e+001 -6.2092e+001  5.2111e+000 27376 108503,108581,108529
 1.5000e+000 108630 -9.5574e+000 -6.2255e+001  3.6396e+000 27376 108529,108581,108555
 1.5000e+000 108607 -2.6658e+001 -4.9979e+001 -3.2832e+000 27376 108399,108451,108425
 1.5000e+000 108794 -4.1523e+000 -4.9834e+001  2.1745e+000 27376 108503,108477,108768
 1.5000e+000 108817 -4.9636e+000 -4.6164e+001  4.1092e-001 27376 108503,108768,108581
 1.5000e+000 108866 -2.0712e+000 -4.8778e+001  2.8278e-001 27376 108373,108768,108840
 1.5000e+000 108889 -1.0485e+000 -4.4644e+001  3.3666e+000 27376 108373,108840,108451
 1.5000e+000 109186 -1.5222e+001 -6.3961e+001  5.3851e+000 26722 109209,108938,108912
 1.5000e+000 109163 -1.4814e+001 -6.3346e+001  6.5020e+000 26722 109281,109209,108912
 1.5000e+000 109140 -1.3868e+001 -6.2542e+001  6.0637e+000 26722 109281,108912,109042
 1.5000e+000 109117 -1.6655e+001 -6.8883e+001  4.7014e+000 26722 108938,108990,108964
 1.5000e+000 109094 -1.2749e+001 -6.3546e+001  6.4562e+000 26722 108912,109068,109042
 1.5000e+000 109235 -1.5824e+001 -6.4247e+001  5.4691e+000 26722 108990,108938,109209
 1.5000e+000 109258 -1.4473e+001 -6.7633e+001  6.1416e+000 26722 108990,109209,109016
 1.5000e+000 109307 -1.2525e+001 -6.4658e+001  4.6530e+000 26722 109016,109209,109281
 1.5000e+000 109330 -1.1018e+001 -6.3068e+001  3.9971e+000 26722 109016,109281,109042
 1.5000e+000 109732 -2.0123e+001 -5.3056e+001  5.4476e-003 26310 109458,109588,109484
 1.5000e+000 109709 -1.6122e+001 -5.1320e+001 -4.2280e+000 26310 109458,109614,109588
 1.5000e+000 109686 -2.8755e+001 -5.8230e+001  8.6545e+000 26310 109510,109562,109536
 1.5000e+000 109663 -2.9464e+001 -5.5579e+001  4.0027e+000 26310 109484,109562,109510
 1.5000e+000 109640 -1.8771e+001 -5.2475e+001 -7.1497e-002 26310 109484,109588,109562
 1.5000e+000 110159 -2.1438e+001 -5.8818e+001  2.5313e+000 25642 110182,109940,109914
 1.5000e+000 110136 -2.0664e+001 -6.0550e+001  5.4371e+000 25642 110182,109914,109888
 1.5000e+000 110113 -2.0365e+001 -6.9091e+001 -8.1543e+000 25642 109966,110018,109992
 1.5000e+000 110090 -2.1846e+001 -6.6324e+001  5.4802e+000 25642 110254,109966,109940
 1.5000e+000 110067 -1.7497e+001 -5.9187e+001  5.9428e+000 25642 109862,110018,109888
 1.5000e+000 110044 -3.0676e+001 -5.8118e+001  7.0799e+000 25642 109836,110018,109862
 1.5000e+000 110208 -2.2544e+001 -6.0160e+001  4.2460e+000 25642 110254,109940,110182
 1.5000e+000 110231 -2.1095e+001 -6.3048e+001  3.9427e+000 25642 110018,110182,109888
 1.5000e+000 110280 -2.0372e+001 -7.3673e+001  4.1433e+000 25642 110018,109966,110254
 1.5000e+000 110303 -2.2286e+001 -6.9028e+001  3.0233e+000 25642 110018,110254,110182
 1.5000e+000 110632 -2.1384e+001 -5.5548e+001  3.0266e-001 25188 110407,110485,110433
 1.5000e+000 110609 -2.5658e+001 -5.2959e+001  1.0703e+000 25188 110407,110537,110485
 1.5000e+000 110586 -2.6225e+001 -5.8397e+001 -1.0414e+001 25188 110433,110485,110459
 1.5000e+000 110563 -2.3724e+001 -5.6411e+001  8.5738e+000 25188 110485,110537,110511
 1.5000e+000 110831 -8.7280e+000 -5.9695e+001  1.5772e+000 24726 110854,110707,110655
 1.5000e+000 110808 -9.2441e+000 -5.9458e+001  1.2464e+000 24726 110854,110655,110759
 1.5000e+000 110785 -1.0417e+001 -5.9079e+001  3.0285e+000 24726 110655,110707,110681
 1.5000e+000 110880 -9.0868e+000 -5.9901e+001  1.2901e+000 24726 110733,110707,110854
 1.5000e+000 110903 -9.6640e+000 -5.9826e+001  9.1841e-001 24726 110733,110854,110759
 1.5000e+000 111234  1.2288e+001 -3.5774e+001 -4.3859e+000 24222 111257,111087,111035
 1.5000e+000 111211  2.2747e+001 -3.1128e+001  2.5389e+000 24222 111257,111035,111009
 1.5000e+000 111188  2.4968e+001 -1.9570e+001 -1.1363e+001 24222 111035,111087,111061
 1.5000e+000 111165  8.9539e+000 -2.5463e+001  2.7592e+000 24222 111087,111139,111113
 1.5000e+000 111283  6.0800e+000 -2.6327e+001  7.6931e-002 24222 111139,111087,111257
 1.5000e+000 111306  1.0514e+001 -1.9988e+001  4.5184e+000 24222 111139,111257,111009
 1.5000e+000 111625 -9.7398e+000 -6.2903e+001 -4.0928e+000 23732 111648,111481,111455
 1.5000e+000 111602 -9.7351e+000 -6.4647e+001 -4.2844e+000 23732 111648,111455,111377
 1.5000e+000 111579  5.1706e+000 -3.9738e+001  6.6132e+000 23732 111377,111429,111403
 1.5000e+000 111556 -4.7288e+000 -6.5874e+001 -1.7897e+000 23732 111377,111455,111429
 1.5000e+000 111533 -8.3919e+000 -5.9689e+001 -1.3447e+000 23732 111351,111507,111377
 1.5000e+000 111674 -9.2103e+000 -5.9738e+001 -2.0657e+000 23732 111507,111481,111648
 1.5000e+000 111697 -1.0757e+001 -6.3555e+001 -2.5177e+000 23732 111507,111648,111377
 1.5000e+000 112156 -4.0205e+000 -5.6678e+001 -1.3225e+000 23278 112179,111908,111882
 1.5000e+000 112133 -2.7295e+000 -5.5030e+001  6.4028e-002 23278 112179,111882,112012
 1.5000e+000 112110 -3.6219e+000 -6.6959e+001 -9.9615e-001 23278 111908,111960,111934
 1.5000e+000 112087  5.2828e+000 -5.5388e+001 -2.6583e+000 23278 111882,112038,112012
 1.5000e+000 112064 -4.2214e+000 -5.2130e+001 -3.7967e-001 23278 111960,112012,111986
 1.5000e+000 112205 -5.2066e+000 -5.6474e+001 -2.6902e+000 23278 111960,111908,112179
 1.5000e+000 112228 -4.6705e+000 -5.5150e+001 -1.3332e+000 23278 111960,112179,112012
 1.5000e+000 112685 -3.8493e+001 -9.9327e+001 -8.7482e+000 22938 112489,112567,112541
 1.5000e+000 112662 -3.0308e+001 -7.8518e+001 -1.0027e+001 22938 112437,112567,112489
 1.5000e+000 112639 -2.3603e+001 -7.4492e+001 -1.2076e+000 22938 112489,112541,112515
 1.5000e+000 112616 -3.6175e+001 -7.4360e+001 -8.9480e+000 22938 112411,112567,112437
 1.5000e+000 112593 -3.1769e+001 -1.0748e+002 -1.2346e+000 22938 112437,112489,112463
 1.5000e+000 113191  9.0948e+000 -5.4169e+001 -7.8106e+000 22534 113214,112998,112946
 1.5000e+000 113168 -5.9938e-001 -5.3799e+001 -3.6633e+000 22534 113286,113214,112946
 1.5000e+000 113145  1.7725e+000 -5.3910e+001 -3.1022e+000 22534 113286,112946,112920
 1.5000e+000 113122 -1.0179e+001 -5.0913e+001 -7.6999e+000 22534 113358,113024,112998
 1.5000e+000 113099 -6.6702e+000 -5.6203e+001 -3.5035e+000 22534 112868,113050,112894
 1.5000e+000 113076  1.6157e+001 -9.0116e+001 -8.0848e+000 22534 112946,112998,112972
 1.5000e+000 113240 -5.6012e+000 -5.8718e+001 -8.3004e+000 22534 113358,112998,113214
 1.5000e+000 113263 -1.6290e+000 -5.5283e+001 -2.0686e+000 22534 113050,113214,112894
 1.5000e+000 113312  2.5192e+000 -5.3384e+001 -2.9704e+000 22534 112894,113214,113286
 1.5000e+000 113335  5.0339e+000 -5.3617e+001 -2.8486e+000 22534 112894,113286,112920
 1.5000e+000 113384 -4.7154e+000 -4.5082e+001 -5.1062e+000 22534 113050,113024,113358
 1.5000e+000 113407  2.2928e+000 -5.0997e+001 -5.0186e+000 22534 113050,113358,113214
 1.5000e+000 113785 -3.1908e+001 -8.5639e+001  6.4917e+000 21978 113808,113615,113511
 1.5000e+000 113762 -2.6910e+001 -8.7597e+001  1.0807e+001 21978 113808,113511,113667
 1.5000e+000 113739 -1.1492e+001 -6.8665e+001 -1.6390e+000 21978 113511,113615,113537
 1.5000e+000 113716  1.0218e+001 -6.1991e+001 -3.7115e+000 21978 113537,113615,113589
 1.5000e+000 113693 -2.2367e-001 -8.8047e+001  2.3094e+000 21978 113537,113589,113563
 1.5000e+000 113834 -3.2319e+001 -8.4597e+001  1.2698e+001 21978 113641,113615,113808
 1.5000e+000 113857 -1.8781e+001 -7.9575e+001  1.7817e+001 21978 113641,113808,113667
 1.5000e+000 114284 -2.3458e+001 -6.2818e+001  1.4819e+000 21517 114013,114117,114039
 1.5000e+000 114261 -2.3672e+001 -6.1813e+001  4.1620e+000 21517 113961,114117,114013
 1.5000e+000 114238 -2.3749e+001 -7.1804e+001  2.8761e+000 21517 113961,114013,113987
 1.5000e+000 114215 -3.6181e+001 -6.9575e+001 -4.7292e+000 21517 114039,114117,114091
 1.5000e+000 114192 -2.6610e+001 -5.5710e+001  6.2610e+000 21517 113961,114143,114117
 1.5000e+000 114169  3.7064e+000 -5.4301e+001 -3.6437e+000 21517 114039,114091,114065
 1.5000e+000 114581 -9.7008e+000 -8.2397e+001  8.1798e-001 21027 114359,114463,114437
 1.5000e+000 114558 -8.2781e+000 -7.6993e+001  9.1730e+000 21027 114333,114463,114359
 1.5000e+000 114535 -5.7537e+000 -7.7266e+001 -9.8207e-001 21027 114359,114437,114385
 1.5000e+000 114512 -2.2537e+000 -7.4675e+001  8.5256e+000 21027 114307,114463,114333
 1.5000e+000 114489  6.5626e+000 -6.7731e+001 -5.2803e+000 21027 114385,114437,114411
 1.5000e+000 114912 -2.4528e+001 -6.6904e+001  8.1554e-001 20623 114713,114791,114765
 1.5000e+000 114889 -3.4866e+000 -5.8070e+001 -7.2958e+000 20623 114687,114791,114713
 1.5000e+000 114866 -1.9828e+001 -7.9030e+001 -5.0451e-002 20623 114687,114817,114791
 1.5000e+000 114843 -3.4494e+001 -7.9843e+001  5.1492e+000 20623 114713,114765,114739
 1.5000e+000 115290 -7.2176e+000 -5.5977e+001  2.6920e+000 20375 115313,115146,115094
 1.5000e+000 115267 -9.0897e+000 -5.6583e+001  3.6193e+000 20375 115313,115094,115042
 1.5000e+000 115244 -8.8126e+000 -5.3332e+001  2.4706e+000 20375 115385,115016,115172
 1.5000e+000 115221  1.3998e+001 -4.8741e+001  3.7597e+000 20375 115042,115094,115068
 1.5000e+000 115198 -1.1896e+001 -6.7126e+001  2.4549e+000 20375 115094,115146,115120
 1.5000e+000 115339 -1.3181e+001 -6.1863e+001 -2.3112e-001 20375 115172,115146,115313
 1.5000e+000 115362 -8.8259e+000 -5.4638e+001  2.1052e+000 20375 115385,115172,115313
 1.5000e+000 115411 -7.6009e+000 -5.4318e+001  3.9009e+000 20375 115042,115016,115385
 1.5000e+000 115434 -8.1624e+000 -5.6322e+001  3.6581e+000 20375 115042,115385,115313
 1.5000e+000 115891 -2.2157e+001 -6.0622e+001  7.9459e+000 19971 115617,115747,115643
 1.5000e+000 115868 -1.5259e+001 -4.4163e+001  7.8547e+000 19971 115617,115773,115747
 1.5000e+000 115845 -1.0291e+001 -8.4986e+001  2.3886e+000 19971 115643,115721,115695
 1.5000e+000 115822  9.7915e+000 -4.0086e+001 -1.7283e+000 19971 115643,115747,115721
 1.5000e+000 115799  1.6466e+001 -9.6447e+001 -4.1106e+000 19971 115643,115695,115669
 1.5000e+000 115992 -1.3768e+001 -1.1380e+002 -3.4228e+001 19659 115914,115966,115940
 1.5000e+000 116142  2.5778e+000 -1.3412e+001 -2.3058e-001 18997 116041,116093,116067
 1.5000e+000 116119 -6.6254e+000 -3.7496e+001  2.9420e+000 18997 116015,116093,116041
 1.5000e+000 116343  1.3146e+000 -6.6156e+001 -1.6525e+000 18707 116193,116245,116219
 1.5000e+000 116320  1.4173e+000 -6.5276e+001 -5.5822e-001 18707 116193,116271,116245
 1.5000e+000 116297 -2.2746e+000 -6.3368e+001 -1.1071e+001 18707 116167,116271,116193
 1.5000e+000 116747 -2.8494e+000 -5.7798e+001 -1.2381e+000 18301 116525,116629,116551
 1.5000e+000 116724 -4.0941e+000 -4.8711e+001 -1.1176e-001 18301 116473,116629,116525
 1.5000e+000 116701 -3.0753e+000 -4.9156e+001 -3.4700e+000 18301 116473,116525,116499
 1.5000e+000 116678  4.6016e-001 -5.9841e+001 -8.3154e-001 18301 116551,116603,116577
 1.5000e+000 116655 -5.1024e+000 -6.3105e+001 -2.3587e+000 18301 116551,116629,116603
 1.5000e+000 117147 -3.0584e+001 -7.9995e+001 -8.2053e-001 17747 116899,117029,116925
 1.5000e+000 117124 -1.6165e+001 -5.9380e+001  7.0450e+000 17747 116873,117029,116899
 1.5000e+000 117101 -2.8386e+001 -7.6445e+001  1.1255e-001 17747 116925,117029,116951
 1.5000e+000 117078 -2.4003e+001 -6.4040e+001  1.2293e+000 17747 116951,117029,117003
 1.5000e+000 117055 -3.8200e+001 -8.6791e+001 -5.6306e+000 17747 116951,117003,116977
 1.5000e+000 117368  1.7033e+001 -6.3880e+001  2.0661e+000 17293 117244,117296,117270
 1.5000e+000 117345  6.1195e+000 -6.7110e+001 -9.9948e-001 17293 117192,117296,117244
 1.5000e+000 117322 -2.5699e+000 -6.2059e+001 -7.5046e-001 17293 117192,117244,117218
 1.5000e+000 117699  4.6011e+000 -4.6454e+001 -8.0005e+000 16896 117526,117604,117552
 1.5000e+000 117676 -2.7897e+001 -7.7151e+001  4.6054e+000 16896 117500,117604,117526
 1.5000e+000 117653 -3.0145e+001 -6.0217e+001 -3.9066e+000 16896 117552,117604,117578
 1.5000e+000 117630 -2.1641e+001 -9.9160e+001  1.0025e+001 16896 117474,117604,117500
 1.5000e+000 117849 -7.8271e+001 -1.5185e+002 -6.0606e+000 16534 117722,117774,117748
 1.5000e+000 117826 -6.1755e+001 -1.8601e+002 -2.5749e+001 16534 117722,117800,117774
 1.5000e+000 118070 -4.5663e+000 -6.2381e+001  6.8305e+000 16194 117946,117998,117972
 1.5000e+000 118047 -1.1414e+001 -7.4065e+001  3.9469e+000 16194 117894,117998,117946
 1.5000e+000 118024 -1.5662e+001 -6.7677e+001 -1.2349e+000 16194 117894,117946,117920
 1.5000e+000 118173 -7.2899e+000 -7.9944e+001  0.0000e+000 15968 118095,118147,118121
 1.5000e+000 118276 -1.9377e+001 -6.8372e+001  1.1308e+000 15433 118299,118198,118250
 1.5000e+000 118325 -2.0445e+001 -7.0864e+001  1.1553e+000 15433 118224,118198,118299
 1.5000e+000 118450 -2.4551e+001 -7.8671e+001  1.7336e+001 421 118372,118424,118398
 1.6000e+000 69891  2.9253e-001 -1.0271e+002  6.3434e+000 68988 69447,69681,69629
 1.6000e+000 69868  5.1515e+001 -8.1045e+001  5.4199e+000 68988 69421,69681,69447
 1.6000e+000 69845  1.6114e+001 -4.8446e+001  4.8435e+000 68988 69447,69629,69577
 1.6000e+000 69822 -1.6908e+001 -1.0093e+002 -9.2482e+000 68988 69447,69577,69473
 1.6000e+000 69799  3.4779e+001 -1.3201e+002  4.2938e+001 68988 69629,69681,69655
 1.6000e+000 69776 -2.0943e+001 -6.4453e+001  6.1911e+000 68988 69577,69629,69603
 1.6000e+000 69753 -6.4253e+000 -9.8328e+001 -2.2199e+001 68988 69473,69577,69551
 1.6000e+000 69730  5.0712e+000 -1.7804e+002 -1.5473e+001 68988 69473,69551,69525
 1.6000e+000 69707 -1.8634e+001 -1.2489e+002 -6.3042e-001 68988 69473,69525,69499
 1.6000e+000 69992 -4.1834e+001 -1.1754e+002 -2.4823e+001 68676 69914,69966,69940
 1.6000e+000 70392 -9.3423e+000 -6.4628e+001  3.6853e+000 68478 70118,70248,70144
 1.6000e+000 70369  3.3492e+001 -5.9347e+001  1.6625e+001 68478 70118,70274,70248
 1.6000e+000 70346  1.4095e+001 -5.2543e+001 -2.7696e+000 68478 70144,70222,70196
 1.6000e+000 70323  2.2976e+001 -2.8815e+001 -9.8823e+000 68478 70144,70248,70222
 1.6000e+000 70300  1.3506e+001 -5.3243e+001 -3.0230e+000 68478 70144,70196,70170
 1.6000e+000 70841  3.0738e+001 -4.3490e+001 -1.6297e+001 68280 70570,70622,70596
 1.6000e+000 70818 -1.4529e+001 -5.1604e+001 -3.5472e+000 68280 70544,70622,70570
 1.6000e+000 70795 -6.5511e+000 -3.4202e+001 -1.6407e+000 68280 70544,70674,70622
 1.6000e+000 70772 -7.4381e+000 -2.5092e+001  4.3446e+000 68280 70622,70674,70648
 1.6000e+000 70749 -1.5794e+001 -6.1843e+001  6.8388e+000 68280 70518,70674,70544
 1.6000e+000 70726  5.7112e+001 -6.5986e+001  2.8399e+001 68280 70518,70700,70674
 1.6000e+000 70991 -3.0018e+000 -3.5292e+002  1.0083e+001 67968 70864,70916,70890
 1.6000e+000 70968 -8.8577e+001 -3.5452e+002  3.5734e+001 67968 70864,70942,70916
 1.6000e+000 71141 -1.3028e+002 -2.6393e+002 -1.1395e+001 67770 71040,71092,71066
 1.6000e+000 71118 -1.1687e+002 -3.1076e+002  1.1477e+001 67770 71014,71092,71040
 1.6000e+000 71651  3.2868e+000 -5.2302e+001 -2.2926e+000 67366 71746,71674,71458
 1.6000e+000 71628  4.8748e+000 -3.6079e+001 -2.8170e+000 67366 71674,71354,71510
 1.6000e+000 71605 -6.2082e-001 -6.4815e+001  7.5884e-001 67366 71746,71458,71432
 1.6000e+000 71582 -1.7749e+001 -7.3171e+001  5.3332e+000 67366 71354,71432,71380
 1.6000e+000 71559 -1.4048e+001 -4.6741e+001 -7.2715e+000 67366 71380,71432,71406
 1.6000e+000 71536  1.7894e+000 -6.1955e-001  9.5352e+000 67366 71328,71510,71354
 1.6000e+000 71700  1.2461e+001 -3.7816e+001 -7.1669e+000 67366 71484,71458,71674
 1.6000e+000 71723  2.8164e+000 -4.0013e+001 -6.8006e-001 67366 71484,71674,71510
 1.6000e+000 71772 -1.7976e+000 -3.7469e+001 -3.4039e+000 67366 71354,71674,71746
 1.6000e+000 71795 -1.1906e+000 -4.5560e+001 -2.7690e+000 67366 71354,71746,71432
 1.6000e+000 71896 -1.3796e+001 -1.2150e+002  0.0000e+000 67146 71818,71870,71844
 1.6000e+000 71997 -1.4454e+002 -2.6147e+002  5.7791e+001 66948 71919,71971,71945
 1.6000e+000 72149  1.3601e+000 -7.0765e+001 -8.6474e+000 66700 72172,72074,72048
 1.6000e+000 72126 -2.2920e+001 -7.9983e+001 -3.0911e+000 66700 72172,72048,72022
 1.6000e+000 72198 -3.8001e+001 -8.8024e+001  6.8380e+000 66700 72244,72172,72100
 1.6000e+000 72221 -3.3435e+001 -7.9843e+001 -4.5820e+000 66700 72100,72172,72022
 1.6000e+000 72270 -1.9202e+001 -4.6800e+001 -6.3931e+000 66700 72074,72172,72244
 1.6000e+000 72623 -1.8731e+001 -7.4016e+001  3.2419e+000 66502 72424,72502,72450
 1.6000e+000 72600 -1.2898e+001 -5.8165e+001  2.4316e+000 66502 72398,72502,72424
 1.6000e+000 72577 -8.3989e+000 -6.8068e+001 -6.7771e-001 66502 72398,72528,72502
 1.6000e+000 72554 -1.6520e+001 -6.4005e+001  4.8759e-002 66502 72450,72502,72476
 1.6000e+000 72920 -3.8274e+001 -9.3058e+001  4.3663e+000 65941 72672,72776,72750
 1.6000e+000 72897 -3.7781e+001 -7.4263e+001  1.3797e+001 65941 72646,72776,72672
 1.6000e+000 72874 -2.8815e+001 -9.1380e+001  7.0161e+000 65941 72672,72750,72724
 1.6000e+000 72851 -3.7762e+001 -7.1467e+001  1.6889e+001 65941 72672,72724,72698
 1.6000e+000 72828 -2.5798e+001 -6.3486e+001  9.2168e+000 65941 72646,72802,72776
 1.6000e+000 73241 -1.2555e+000 -6.7205e+001 -3.0941e+000 65743 73264,73071,73045
 1.6000e+000 73218 -9.4201e+000 -7.8782e+001  7.5928e+000 65743 73480,73264,73045
 1.6000e+000 73195 -2.6470e-001 -6.1548e+001 -1.3385e+000 65743 73336,72967,73097
 1.6000e+000 73172 -1.1614e+001 -5.6782e+001 -4.8333e+000 65743 73408,72993,72967
 1.6000e+000 73149 -1.1293e+000 -6.0635e+001 -9.3509e-001 65743 72967,73123,73097
 1.6000e+000 73290  2.8027e+000 -5.7558e+001 -1.6390e+000 65743 73097,73071,73264
 1.6000e+000 73313  1.0325e+000 -5.9014e+001 -8.1350e-001 65743 73336,73097,73264
 1.6000e+000 73362 -5.9055e+000 -6.2551e+001 -3.1809e+000 65743 73408,72967,73336
 1.6000e+000 73385  2.9586e+000 -5.8118e+001 -4.1046e-001 65743 73019,73336,73264
 1.6000e+000 73434 -2.1857e+000 -3.8017e+001  1.1518e-001 65743 73019,72993,73408
 1.6000e+000 73457  3.9653e+000 -5.0491e+001  1.0946e+000 65743 73019,73408,73336
 1.6000e+000 73506  1.0999e+001 -3.4628e+001  1.1160e+000 65743 73019,73264,73480
 1.6000e+000 73989  1.5179e+001 -4.0831e+001  7.9003e+000 65453 73793,73845,73819
 1.6000e+000 73966 -1.3286e+001 -4.7070e+001  1.0104e+001 65453 73741,73845,73793
 1.6000e+000 73943  7.9859e+000 -3.4508e+001  4.8799e+000 65453 73715,73845,73741
 1.6000e+000 73920 -5.6290e+000 -4.8904e+001  1.5891e+001 65453 73741,73793,73767
 1.6000e+000 73897  1.5525e+001 -9.2694e+000  5.6546e+000 65453 73715,73871,73845
 1.6000e+000 74357 -1.4933e+001 -7.1975e+001 -1.9454e+001 65141 74380,74138,74086
 1.6000e+000 74334 -2.4688e+001 -9.4257e+001 -1.7031e+001 65141 74380,74086,74060
 1.6000e+000 74311 -3.1806e+001 -8.6003e+001 -2.5619e+000 65141 74138,74190,74164
 1.6000e+000 74288  5.2780e+000 -1.0090e+002 -5.9951e+000 65141 74060,74216,74190
 1.6000e+000 74265  2.1877e+000 -1.1047e+002  2.4670e+000 65141 74034,74216,74060
 1.6000e+000 74242 -1.8167e+001 -4.9934e+001 -9.5070e+000 65141 74086,74138,74112
 1.6000e+000 74406 -1.7815e+001 -9.0214e+001 -9.0208e+000 65141 74190,74138,74380
 1.6000e+000 74429 -2.1626e+001 -9.8709e+001 -8.0885e+000 65141 74190,74380,74060
 1.6000e+000 74937 -3.1257e+001 -7.3745e+001 -1.8388e+001 64737 74614,74666,74640
 1.6000e+000 74914 -4.1786e+001 -8.4412e+001 -1.4138e+001 64737 74614,74796,74666
 1.6000e+000 74891 -2.7276e+001 -5.5533e+001 -1.4261e-001 64737 74960,74718,74666
 1.6000e+000 74868 -2.3846e+001 -6.2635e+001 -6.7417e+000 64737 74960,74666,74770
 1.6000e+000 74845 -2.6262e+001 -5.0538e+001 -7.9421e+000 64737 74666,74796,74770
 1.6000e+000 74822 -2.5952e+001 -5.7924e+001  1.4564e+000 64737 74666,74718,74692
 1.6000e+000 74986 -2.9345e+001 -6.2837e+001 -9.4685e-001 64737 74744,74718,74960
 1.6000e+000 75009 -2.8365e+001 -7.3712e+001 -7.8678e+000 64737 74744,74960,74770
 1.6000e+000 75306  2.4977e+001 -3.7355e+001  1.9010e+001 64133 75329,75110,75084
 1.6000e+000 75283 -6.2923e-001 -6.5982e+001  4.3857e+000 64133 75401,75329,75084
 1.6000e+000 75260 -3.5816e+000 -6.4536e+001  2.3644e+000 64133 75401,75084,75058
 1.6000e+000 75237  1.3063e+001 -7.4804e+001  8.6187e+000 64133 75473,75136,75110
 1.6000e+000 75214  2.3402e+001 -7.0182e+001 -4.2246e+000 64133 75032,75188,75162
 1.6000e+000 75355  1.1761e+001 -7.0855e+001  7.5292e+000 64133 75473,75110,75329
 1.6000e+000 75378  1.5036e+001 -6.5505e+001 -4.1110e+000 64133 75162,75329,75032
 1.6000e+000 75427  2.0164e+001 -5.4483e+001 -1.0349e+000 64133 75032,75329,75401
 1.6000e+000 75450 -1.5934e+001 -7.4679e+001  1.1972e+001 64133 75545,75401,75058
 1.6000e+000 75499  8.7498e+000 -6.9533e+001  1.3241e+000 64133 75162,75136,75473
 1.6000e+000 75522  1.0347e+001 -5.9653e+001  2.3673e+000 64133 75162,75473,75329
 1.6000e+000 75571  8.5122e+000 -2.3519e+001 -2.4344e+000 64133 75032,75401,75545
 1.6000e+000 75851 -2.2425e+001 -6.5673e+001  9.2069e+000 63843 75874,75753,75727
 1.6000e+000 75828 -1.2325e+001 -5.6463e+001 -4.0482e-001 63843 75946,75874,75727
 1.6000e+000 75805 -1.7588e+001 -5.8169e+001  2.9847e-001 63843 76018,75946,75727
 1.6000e+000 75900 -7.8394e+000 -5.9515e+001  7.6303e-001 63843 75779,75753,75874
 1.6000e+000 75923 -1.0657e+001 -4.5499e+001 -9.0138e+000 63843 75779,75874,75675
 1.6000e+000 75972 -1.8466e+001 -5.7737e+001 -1.4594e+000 63843 75675,75874,75946
 1.6000e+000 75995 -1.5706e+001 -5.7276e+001 -3.2278e+000 63843 75675,75946,75701
 1.6000e+000 76044 -2.0144e+001 -6.0563e+001 -4.7642e+000 63843 75701,75946,76018
 1.6000e+000 76454  5.2457e+001 -4.1940e+000 -5.1954e+000 63439 76477,76255,76229
 1.6000e+000 76431  4.0290e+001 -2.0789e+001  5.7308e+000 63439 76477,76229,76359
 1.6000e+000 76408 -4.3655e+000 -3.3614e+001  9.2470e+000 63439 76307,76359,76333
 1.6000e+000 76385  1.7352e+001 -1.2328e+001  1.6626e+001 63439 76255,76307,76281
 1.6000e+000 76503  3.4424e+001 -1.9227e+001  4.1117e+000 63439 76307,76255,76477
 1.6000e+000 76526  3.7648e+001 -2.4286e+001  1.2634e+001 63439 76307,76477,76359
 1.6000e+000 76926 -1.0620e-001 -4.9653e+001  1.4251e+000 63049 76704,76782,76756
 1.6000e+000 76903 -1.0370e+001 -5.3370e+001 -1.0577e+000 63049 76704,76808,76782
 1.6000e+000 76880  1.2298e+000 -5.4853e+001  2.2213e+000 63049 76704,76756,76730
 1.6000e+000 76857  1.8831e+001 -3.0758e+001  8.7699e+000 63049 76678,76808,76704
 1.6000e+000 76834  4.0243e+001  5.2461e+001 -2.2852e+001 63049 76652,76808,76678
 1.6000e+000 77076  1.2503e+001 -7.1627e+001 -5.6258e-001 62737 76975,77027,77001
 1.6000e+000 77053  1.5647e+001 -7.8831e+001 -4.5565e+000 62737 76949,77027,76975
 1.6000e+000 77324 -9.8383e+000 -5.9993e+001 -3.6267e+000 62277 77347,77177,77125
 1.6000e+000 77301 -8.3551e+000 -5.8428e+001 -5.1824e+000 62277 77347,77125,77229
 1.6000e+000 77278  6.6557e+000 -6.7339e+001 -1.2155e+001 62277 77099,77229,77125
 1.6000e+000 77255 -5.6807e+000 -7.9587e+001 -3.5865e+000 62277 77125,77177,77151
 1.6000e+000 77373 -1.0615e+001 -6.4207e+001 -9.2889e-001 62277 77203,77177,77347
 1.6000e+000 77396 -5.8106e+000 -6.0240e+001 -3.1250e+000 62277 77203,77347,77229
 1.6000e+000 77857 -5.8536e+000 -9.3861e+001  2.5535e+000 61758 77635,77739,77661
 1.6000e+000 77834 -9.2831e+000 -9.6068e+001  8.7526e-001 61758 77583,77739,77635
 1.6000e+000 77811 -1.3306e+001 -1.2051e+002 -7.0424e+000 61758 77583,77635,77609
 1.6000e+000 77788  1.4166e+001 -9.0420e+001  1.2812e+001 61758 77661,77713,77687
 1.6000e+000 77765 -1.0190e+001 -1.0770e+002  1.5370e+000 61758 77661,77739,77713
 1.6000e+000 78491 -2.5721e+001 -5.2223e+001  2.4953e+000 61418 78171,78301,78249
 1.6000e+000 78468 -1.9908e+001 -4.6115e+001  5.0458e+000 61418 78145,78301,78171
 1.6000e+000 78445 -2.1693e+001 -4.7287e+001 -2.8040e+000 61418 78171,78249,78223
 1.6000e+000 78422 -1.4312e+001 -4.3895e+001  9.5940e+000 61418 78145,78327,78301
 1.6000e+000 78399 -2.7231e+001 -5.8942e+001 -1.8788e-001 61418 78249,78301,78275
 1.6000e+000 78376 -1.3729e+001 -5.2459e+001 -3.9189e+000 61418 78171,78223,78197
 1.6000e+000 78353 -1.9336e+001 -2.8909e+001  1.1930e+001 61418 78119,78327,78145
 1.6000e+000 78690  7.0633e-001 -7.1312e+001 -2.5921e-001 61014 78713,78566,78540
 1.6000e+000 78667 -6.2977e+000 -7.6712e+001  2.1052e+000 61014 78713,78540,78618
 1.6000e+000 78644 -2.7559e+001 -9.1916e+001 -1.1182e+001 61014 78514,78618,78540
 1.6000e+000 78739 -2.8910e+000 -7.1332e+001 -2.2914e+000 61014 78592,78566,78713
 1.6000e+000 78762 -1.6367e+001 -7.2060e+001 -2.0280e+000 61014 78785,78713,78618
 1.6000e+000 78811  2.5334e+000 -6.5026e+001 -5.1892e+000 61014 78592,78713,78785
 1.6000e+000 79398  1.2986e+001 -5.7429e+001  1.3811e+000 60624 79101,79179,79153
 1.6000e+000 79375  5.8178e+000 -6.5724e+001  4.9283e+000 60624 79101,79231,79179
 1.6000e+000 79352  3.5928e+001 -5.3443e+001  5.9902e+000 60624 79075,79231,79101
 1.6000e+000 79329  3.5172e+000 -7.8494e+001  1.8898e+001 60624 79075,79257,79231
 1.6000e+000 79306  1.2223e+001 -4.6725e+001  3.3782e-001 60624 79179,79231,79205
 1.6000e+000 79283  9.8761e+000 -6.3529e+001 -4.9975e+000 60624 79101,79153,79127
 1.6000e+000 79776 -2.3868e+001 -7.7410e+001  5.2567e+000 60070 79528,79658,79606
 1.6000e+000 79753 -2.0966e+001 -6.2342e+001 -7.4894e-001 60070 79502,79658,79528
 1.6000e+000 79730 -2.9400e+001 -6.8256e+001  1.3002e+001 60070 79528,79606,79580
 1.6000e+000 79707 -1.1444e+001 -6.5141e+001  2.8242e-001 60070 79606,79658,79632
 1.6000e+000 79684 -2.3999e+000 -4.0082e+001 -1.1246e+001 60070 79528,79580,79554
 1.6000e+000 80105 -1.9685e+001 -6.2677e+001  6.3684e+000 59758 80128,79958,79906
 1.6000e+000 80082 -2.2108e+001 -5.9857e+001  4.8368e+000 59758 80128,79906,80010
 1.6000e+000 80059 -3.0781e+001 -6.9500e+001  2.1252e+001 59758 79906,79958,79932
 1.6000e+000 80036 -3.2202e+001 -6.2371e+001  3.8621e+000 59758 79880,80010,79906
 1.6000e+000 80154 -2.1066e+001 -6.4369e+001  5.6629e+000 59758 79984,79958,80128
 1.6000e+000 80177 -2.3592e+001 -6.2148e+001  4.0105e+000 59758 79984,80128,80010
 1.6000e+000 80376 -1.3936e+001 -7.8126e+001  1.8411e+000 59312 80226,80304,80252
 1.6000e+000 80353 -7.4584e+000 -8.6943e+001  3.4251e+000 59312 80200,80304,80226
 1.6000e+000 80330 -2.7359e+001 -6.7427e+001  2.4367e+001 59312 80252,80304,80278
 1.6000e+000 80805 -2.6315e+000 -3.9723e+001 -5.3880e+000 58908 80900,80828,80638
 1.6000e+000 80782 -1.2706e+001 -5.3346e+001 -1.0365e+001 58908 80828,80560,80508
 1.6000e+000 80759 -2.4587e+000 -3.8136e+001 -3.2247e+000 58908 80900,80638,80612
 1.6000e+000 80736  7.3196e+000 -3.3235e+001  2.9441e+001 58908 80482,80664,80508
 1.6000e+000 80713  4.8706e+000 -4.3568e+001  1.7377e+000 58908 80560,80612,80586
 1.6000e+000 80690  2.0008e+001 -1.0845e+002 -4.6222e+001 58908 80508,80560,80534
 1.6000e+000 80854  1.0148e+001 -4.6734e+001  6.1239e+000 58908 80664,80638,80828
 1.6000e+000 80877 -5.7054e-001 -6.9478e+001  3.0785e+000 58908 80664,80828,80508
 1.6000e+000 80926 -2.2358e+000 -3.5590e+001 -4.8641e+000 58908 80560,80828,80900
 1.6000e+000 80949 -2.2277e+000 -3.5122e+001 -2.3935e+000 58908 80560,80900,80612
 1.6000e+000 81246  1.0459e+001 -4.2085e+001  8.5567e-001 58482 81076,81128,81102
 1.6000e+000 81223 -7.7675e+000 -8.0525e+001 -8.0531e+000 58482 80972,81128,81076
 1.6000e+000 81200  2.2113e+000 -5.1806e+001 -9.7054e+000 58482 80972,81076,81050
 1.6000e+000 81177 -4.5841e+000 -7.0210e+001 -1.1845e+001 58482 80998,81050,81024
 1.6000e+000 81154 -3.0614e+000 -5.2859e+001 -1.3576e+001 58482 80972,81050,80998
 1.6000e+000 81754 -1.4218e+001 -4.2474e+001  6.7740e+000 57828 81457,81613,81483
 1.6000e+000 81731 -1.5007e+001 -4.1341e+001  3.0865e+000 57828 81431,81613,81457
 1.6000e+000 81708 -1.6146e+001 -4.6906e+001  8.5364e+000 57828 81483,81613,81509
 1.6000e+000 81685 -2.1884e+001 -5.1138e+001  1.0901e+001 57828 81509,81613,81587
 1.6000e+000 81662 -2.0206e+001 -7.9366e+001  2.0428e+001 57828 81509,81587,81535
 1.6000e+000 81639  1.3743e+001 -5.6047e+001  7.8158e+000 57828 81535,81587,81561
 1.6000e+000 82002 -3.3502e+001 -1.0253e+002 -1.4686e+000 57374 82025,81855,81829
 1.6000e+000 81979 -3.5888e+001 -9.4985e+001  4.5710e+000 57374 82025,81829,81907
 1.6000e+000 81956 -2.8256e+001 -8.8637e+001  8.5558e+000 57374 81803,81907,81829
 1.6000e+000 81933 -1.5793e+001 -7.3866e+001  1.8644e+001 57374 81777,81907,81803
 1.6000e+000 82051 -3.4096e+001 -9.3672e+001 -1.6350e+000 57374 81881,81855,82025
 1.6000e+000 82074 -3.4010e+001 -8.6431e+001  6.6114e+000 57374 81881,82025,81907
 1.6000e+000 82356 -1.1494e+000 -3.9569e+001 -1.7442e+000 56913 82180,82232,82206
 1.6000e+000 82333 -5.0917e+000 -5.1128e+001  2.3528e+000 56913 82180,82284,82232
 1.6000e+000 82310  1.7065e+001 -3.9637e+001  1.0135e+001 56913 82379,82232,82284
 1.6000e+000 82405  5.1851e+001 -1.6758e+001  2.8397e+001 56913 82258,82232,82379
 1.6000e+000 82764 -5.1148e+000 -2.0075e+001 -3.9113e+000 56523 82614,82666,82640
 1.6000e+000 82741 -8.4404e+000 -2.2543e+001 -2.3241e+000 56523 82614,82692,82666
 1.6000e+000 82718  1.9519e+001 -1.9689e+001 -1.4460e+001 56523 82588,82692,82614
 1.6000e+000 83368  6.3955e+000 -7.3718e+001 -3.3975e+000 55969 82973,83155,83129
 1.6000e+000 83345  9.8652e+000 -7.2196e+001 -1.2023e+000 55969 82973,83181,83155
 1.6000e+000 83322  1.2818e+000 -6.3238e+001 -4.7114e+000 55969 82973,83129,82999
 1.6000e+000 83299 -2.5509e+001 -7.1223e+001  1.5583e+000 55969 83391,83025,82999
 1.6000e+000 83276 -1.9931e+001 -7.3577e+001 -4.2321e-001 55969 83391,82999,83129
 1.6000e+000 83253  8.5426e+000 -5.4993e+001  1.5352e+001 55969 83077,83129,83103
 1.6000e+000 83230 -2.9641e+001 -5.0798e+001 -6.6556e+000 55969 83025,83077,83051
 1.6000e+000 83207  4.7745e+001 -5.5079e+001  2.8263e+000 55969 82947,83181,82973
 1.6000e+000 83417 -2.0178e+001 -6.8155e+001  3.0479e+000 55969 83077,83025,83391
 1.6000e+000 83440 -1.8240e+001 -7.2074e+001  3.3152e-001 55969 83077,83391,83129
 1.6000e+000 83946 -3.6568e+001 -9.7908e+001  2.0207e+001 55771 83969,83779,83727
 1.6000e+000 83923 -2.6989e+001 -7.9111e+001  1.2607e+001 55771 83969,83727,83623
 1.6000e+000 83900 -3.4530e+001 -4.1263e+001  8.6816e+000 55771 83623,83727,83649
 1.6000e+000 83877  8.3182e+000 -1.3262e+002  2.6092e+001 55771 83727,83779,83753
 1.6000e+000 83854 -3.6610e+001 -6.3832e+001  2.6176e+001 55771 83675,83727,83701
 1.6000e+000 83831 -6.0280e+001 -6.4890e+001  2.6847e+001 55771 83649,83727,83675
 1.6000e+000 83995 -3.2883e+001 -1.0121e+002 -3.7118e+000 55771 83805,83779,83969
 1.6000e+000 84018 -1.1975e+001 -6.2818e+001 -1.3501e+001 55771 83805,83969,83623
 1.6000e+000 84168  3.6546e+000 -3.1810e+001  1.6290e+000 55367 84191,84067,84041
 1.6000e+000 84145  2.4063e+000 -3.1609e+001  1.9903e+000 55367 84191,84041,84119
 1.6000e+000 84217  2.4090e+000 -3.0737e+001  1.4147e+000 55367 84093,84067,84191
 1.6000e+000 84240 -3.5070e-001 -3.1607e+001  1.6566e+000 55367 84093,84191,84119
 1.6000e+000 84571 -1.4963e+001 -7.6314e+001 -8.5451e+000 54913 84398,84450,84424
 1.6000e+000 84548 -7.7640e+000 -7.0124e+001 -5.5659e+000 54913 84372,84450,84398
 1.6000e+000 84525 -2.1260e+001 -8.0048e+001  1.0554e+000 54913 84346,84450,84372
 1.6000e+000 84502 -7.8353e+000 -4.8918e+001 -6.0783e+000 54913 84346,84476,84450
 1.6000e+000 85126 -3.7491e+001 -8.4607e+001 -8.8431e+000 54402 84858,84936,84910
 1.6000e+000 85103 -2.8489e+001 -6.3796e+001 -9.6791e+000 54402 84806,84936,84858
 1.6000e+000 85080 -2.9127e+001 -5.9642e+001 -8.2277e+000 54402 84780,84936,84806
 1.6000e+000 85057 -2.5041e+001 -6.8395e+001 -6.4401e+000 54402 84806,84858,84832
 1.6000e+000 85034 -2.7476e+001 -5.7622e+001 -2.1895e+000 54402 84780,84962,84936
 1.6000e+000 85011 -2.6817e+001 -4.0659e+001 -7.3773e-001 54402 84858,84910,84884
 1.6000e+000 84988 -2.2982e+001 -4.7174e+001 -1.1592e+000 54402 84754,84962,84780
 1.6000e+000 85396 -1.7831e+001 -2.3698e+001 -9.7174e-001 53998 85197,85249,85223
 1.6000e+000 85373 -4.6008e+000 -3.1213e+001 -4.1991e-001 53998 85197,85275,85249
 1.6000e+000 85350 -1.3519e+001 -3.9773e+001 -3.9366e+000 53998 85171,85275,85197
 1.6000e+000 85327  7.1335e+000 -3.3331e+001 -5.8002e+000 53998 85171,85301,85275
 1.6000e+000 85749 -6.6650e+000 -7.3055e+001 -6.0020e+000 53636 85524,85628,85550
 1.6000e+000 85726 -2.5807e+001 -8.6987e+001  7.9545e-001 53636 85524,85654,85628
 1.6000e+000 85703  2.2143e+001 -7.2766e+001 -2.3385e+001 53636 85550,85602,85576
 1.6000e+000 85680 -9.8270e+000 -7.3701e+001 -8.7072e+000 53636 85550,85628,85602
 1.6000e+000 86127  4.2980e+000 -7.0068e+001  1.2156e+001 52982 86150,85957,85879
 1.6000e+000 86104 -5.2455e+000 -7.9475e+001  7.9839e+000 52982 86150,85879,85853
 1.6000e+000 86081  7.9714e+000 -8.4167e+001  2.9291e+001 52982 85957,86009,85983
 1.6000e+000 86058 -1.5647e+001 -7.6809e+001  1.2328e+001 52982 85879,85957,85931
 1.6000e+000 86035 -3.3147e+000 -6.6162e+001  1.5792e+000 52982 85879,85931,85905
 1.6000e+000 86176  1.1380e+001 -8.0165e+001  1.0797e+001 52982 86009,85957,86150
 1.6000e+000 86199  5.6592e+000 -8.7678e+001  8.1562e+000 52982 86009,86150,85853
 1.6000e+000 86398  4.4650e+000 -3.3354e+001  4.8976e+000 52542 86421,86248,86222
 1.6000e+000 86375 -6.0138e+000 -3.6730e+001  3.9234e-002 52542 86421,86222,86300
 1.6000e+000 86352 -7.0000e+000 -3.8211e+001  5.9385e-001 52542 86222,86326,86300
 1.6000e+000 86447  1.6305e+001 -3.4782e+001  1.0922e+001 52542 86274,86248,86421
 1.6000e+000 86470  5.4679e+000 -4.1060e+001  4.6932e+000 52542 86274,86421,86300
 1.6000e+000 86669 -2.0773e+000 -3.5798e+001 -1.8078e+001 52230 86692,86571,86545
 1.6000e+000 86646 -6.6197e+000 -4.4768e+001 -1.1816e+001 52230 86692,86545,86519
 1.6000e+000 86623 -2.1846e+001 -3.1454e+001 -2.6177e+000 52230 86493,86597,86519
 1.6000e+000 86718 -6.8576e+000 -3.6019e+001 -9.4402e+000 52230 86597,86571,86692
 1.6000e+000 86741 -1.5678e+001 -4.6946e+001 -2.7424e+000 52230 86597,86692,86519
 1.6000e+000 87153 -2.9117e+001 -4.4393e+001  3.9329e+000 51640 86980,87058,87032
 1.6000e+000 87130 -1.9412e+001 -4.3488e+001  4.5501e+000 51640 86928,87058,86980
 1.6000e+000 87107 -1.6392e+001 -9.3394e+001 -1.7444e+001 51640 86928,86980,86954
 1.6000e+000 87084 -1.5139e+001 -3.8490e+001  1.0831e+000 51640 86980,87032,87006
 1.6000e+000 87659 -1.0395e+001 -4.2076e+001  4.9823e+000 51029 87682,87440,87362
 1.6000e+000 87636 -1.3261e+001 -4.6464e+001 -6.8895e-001 51029 87682,87362,87336
 1.6000e+000 87613 -2.0537e+001 -7.1509e+001 -2.6581e+000 51029 87440,87518,87466
 1.6000e+000 87590 -2.0996e+001 -4.2661e+001  5.8630e+000 51029 87362,87440,87414
 1.6000e+000 87567 -1.9858e+001 -3.7807e+001  1.6005e+001 51029 87362,87414,87388
 1.6000e+000 87544 -2.3932e+001 -6.0392e+001 -1.2096e+000 51029 87466,87518,87492
 1.6000e+000 87708 -8.6770e+000 -4.8887e+001  1.7566e+000 51029 87518,87440,87682
 1.6000e+000 87731 -1.0232e+001 -5.6479e+001 -1.8315e+000 51029 87518,87682,87336
 1.6000e+000 87881 -5.1204e+000 -5.2074e+001 -4.3163e-001 50739 87780,87832,87806
 1.6000e+000 87858 -8.4966e+000 -4.6238e+001 -6.5843e+000 50739 87754,87832,87780
 1.6000e+000 88468  3.8416e+000 -2.1573e+001  7.7235e-001 50235 88171,88327,88197
 1.6000e+000 88445 -2.0845e+001 -1.6082e+001 -8.3714e+000 50235 88145,88327,88171
 1.6000e+000 88422  6.7021e+001 -6.2689e+000 -5.7049e+000 50235 88275,88327,88301
 1.6000e+000 88399  9.1703e+000 -3.1065e+001 -3.1217e+000 50235 88197,88327,88275
 1.6000e+000 88376  1.9901e+001 -2.2173e+001  9.1142e-001 50235 88197,88275,88223
 1.6000e+000 88353  8.2912e+000 -4.2605e+001  5.8876e+000 50235 88223,88275,88249
 1.6000e+000 88895  2.6728e-001 -5.5275e+001  4.9799e+000 49873 88918,88728,88676
 1.6000e+000 88872  9.9102e-001 -5.7310e+001  3.4412e+000 49873 88918,88676,88624
 1.6000e+000 88849  4.5082e+000 -4.1406e+001  5.1510e+000 49873 88598,88754,88624
 1.6000e+000 88826  4.0885e+000 -5.0378e+001 -3.9490e+000 49873 88624,88676,88650
 1.6000e+000 88803  4.9927e+000 -7.2738e+001  5.5654e+000 49873 88676,88728,88702
 1.6000e+000 88780  6.8193e+000 -4.4052e+001  3.4357e+000 49873 88572,88754,88598
 1.6000e+000 88944  2.0087e+000 -5.3999e+001  6.0985e+000 49873 88754,88728,88918
 1.6000e+000 88967  1.9399e+000 -5.5862e+001  4.3678e+000 49873 88754,88918,88624
 1.6000e+000 89473 -3.8317e+001 -6.1623e+001 -9.8090e+000 49583 89176,89306,89202
 1.6000e+000 89450 -2.7127e+001 -5.7148e+001 -9.5055e+000 49583 89176,89332,89306
 1.6000e+000 89427 -2.7445e+001 -6.8239e+001  8.7353e-001 49583 89496,89228,89202
 1.6000e+000 89404 -2.5036e+001 -6.9373e+001  1.2400e+000 49583 89496,89202,89280
 1.6000e+000 89381 -4.1278e+001 -8.2142e+001 -1.5389e+001 49583 89202,89306,89280
 1.6000e+000 89358 -1.4725e+001 -5.0287e+001 -6.7824e+000 49583 89150,89332,89176
 1.6000e+000 89522 -2.3979e+001 -6.2049e+001  2.2441e+000 49583 89254,89228,89496
 1.6000e+000 89545 -2.4887e+001 -6.8207e+001  1.5080e+000 49583 89254,89496,89280
 1.6000e+000 89825  1.1627e+001 -6.1113e+001  2.2488e+000 49179 89701,89753,89727
 1.6000e+000 89802  1.6900e+001 -5.8953e+001  8.4935e-001 49179 89675,89753,89701
 1.6000e+000 89779  3.0734e+001 -3.7101e+001  1.8083e+001 49179 89848,89753,89675
 1.6000e+000 89874 -9.3931e+000 -5.5531e+001  6.0550e+000 49179 89649,89753,89848
 1.6000e+000 90223 -1.0763e+001 -5.7646e+001  1.0642e+000 48739 90024,90102,90076
 1.6000e+000 90200 -1.6513e+001 -5.8204e+001  3.2020e+000 48739 90024,90128,90102
 1.6000e+000 90177 -2.3285e+000 -5.5457e+001  2.0649e-001 48739 90024,90076,90050
 1.6000e+000 90154  1.8367e+001 -5.2788e+001  2.1859e+001 48739 89998,90128,90024
 1.6000e+000 90603 -1.4890e+001 -5.6711e+001  1.1579e+001 48335 90381,90485,90459
 1.6000e+000 90580 -2.0576e+001 -6.5722e+001  9.0848e+000 48335 90355,90485,90381
 1.6000e+000 90557  3.2348e+000 -3.2491e+000  5.6845e+000 48335 90381,90433,90407
 1.6000e+000 90534 -8.7053e+000 -5.7063e+001  8.5384e+000 48335 90381,90459,90433
 1.6000e+000 90511  1.7949e+001 -4.1042e+001  2.2192e+001 48335 90329,90485,90355
 1.6000e+000 90753  2.0094e+001 -2.4421e+001  1.7944e+001 47824 90776,90652,90704
 1.6000e+000 90730  7.4554e+000 -5.1875e+001  1.4847e+001 47824 90626,90704,90652
 1.6000e+000 90802  2.3074e+000 -3.8668e+001  1.1784e+001 47824 90678,90652,90776
 1.6000e+000 91131 -1.1334e+001 -6.8474e+001  3.6339e+000 47427 91154,90958,90906
 1.6000e+000 91108 -2.8103e+001 -7.5806e+001  5.4026e+000 47427 91154,90906,91036
 1.6000e+000 91085 -1.9567e+001 -5.4021e+001 -4.9531e+000 47427 90958,91010,90984
 1.6000e+000 91062 -8.9479e+000 -5.0645e+001  4.2297e+000 47427 90906,90958,90932
 1.6000e+000 91180 -2.0110e+001 -6.3959e+001 -7.7669e+000 47427 91010,90958,91154
 1.6000e+000 91203 -3.5832e+001 -7.0667e+001 -6.2446e+000 47427 91010,91154,91036
 1.6000e+000 91583 -3.7013e+001 -7.9334e+001  4.8209e+000 46873 91309,91439,91335
 1.6000e+000 91560 -3.2678e+001 -7.1900e+001  2.7724e+000 46873 91309,91465,91439
 1.6000e+000 91537 -4.6097e+001 -9.7715e+001 -1.4687e+001 46873 91361,91439,91413
 1.6000e+000 91514 -2.0989e+001 -7.3233e+001  2.2707e-001 46873 91335,91439,91361
 1.6000e+000 91491  4.4870e+001 -7.7741e+001 -1.8067e+001 46873 91361,91413,91387
 1.6000e+000 91880 -5.5930e+000 -5.8188e+001 -5.0057e+000 46526 91606,91710,91658
 1.6000e+000 91857 -3.7629e+000 -6.4060e+001 -6.0776e-001 46526 91606,91762,91710
 1.6000e+000 91834  5.8256e+000 -5.8281e+001 -1.4274e+001 46526 91606,91658,91632
 1.6000e+000 91811 -1.0996e+001 -4.9322e+001  1.6332e-001 46526 91658,91710,91684
 1.6000e+000 91788  3.3022e+000 -3.8959e+001  3.3487e+000 46526 91710,91762,91736
 1.6000e+000 92211  8.5718e+000 -2.2581e+001 -2.3358e+000 45700 91986,92064,92038
 1.6000e+000 92188 -1.2758e+001 -4.8306e+001  6.8148e+000 45700 91986,92116,92064
 1.6000e+000 92165  1.7427e+001 -1.1876e+001 -1.6216e+001 45700 91986,92038,92012
 1.6000e+000 92142 -1.3705e+001 -4.5522e+001  5.3669e+000 45700 92064,92116,92090
 1.6000e+000 92766 -3.2669e+001 -5.9576e+001 -2.0694e+000 45452 92446,92602,92576
 1.6000e+000 92743 -5.7450e+001 -5.7943e+001 -1.6999e+001 45452 92420,92602,92446
 1.6000e+000 92720 -3.8016e+001 -6.3172e+001  7.4098e+000 45452 92789,92524,92498
 1.6000e+000 92697 -4.6824e+001 -6.0935e+001  4.6616e+000 45452 92789,92498,92446
 1.6000e+000 92674 -3.6103e+001 -7.0724e+001 -2.8694e+000 45452 92524,92576,92550
 1.6000e+000 92651 -6.0249e+001 -5.9894e+001  3.2487e+001 45452 92446,92498,92472
 1.6000e+000 92628 -2.2409e+001 -5.1430e+001 -1.7333e+001 45452 92394,92602,92420
 1.6000e+000 92815 -3.1741e+001 -6.4016e+001  5.0069e+000 45452 92576,92524,92789
 1.6000e+000 92838 -3.8724e+001 -6.0432e+001  3.4072e+000 45452 92576,92789,92446
 1.6000e+000 92939 -1.1793e+001 -6.8465e+001 -1.8855e+001 44998 92861,92913,92887
 1.6000e+000 93319  4.3146e+000 -7.2554e+001  1.1073e+001 44601 93123,93201,93149
 1.6000e+000 93296 -2.6269e+000 -6.9389e+001  3.0132e-001 44601 93045,93201,93123
 1.6000e+000 93273  1.7345e+001 -4.1285e+001 -8.4581e+000 44601 93045,93123,93071
 1.6000e+000 93250  2.3809e+001 -4.5407e+001 -1.8038e+001 44601 93071,93123,93097
 1.6000e+000 93227  4.5922e+000 -4.3738e+001  1.3701e+001 44601 93149,93201,93175
 1.6000e+000 93697  8.3336e-001 -7.0690e+001  4.5415e-001 44026 93720,93553,93527
 1.6000e+000 93674  1.1857e+000 -6.2638e+001  2.6601e+000 44026 93720,93527,93449
 1.6000e+000 93651  1.9573e-001 -6.6767e+001  5.3520e+000 44026 93449,93527,93501
 1.6000e+000 93628 -3.6965e+000 -4.8140e+001 -1.0171e+001 44026 93423,93579,93449
 1.6000e+000 93605  1.3679e+001 -6.6978e+001  4.3910e+000 44026 93449,93501,93475
 1.6000e+000 93746 -3.3635e+000 -6.1777e+001  5.1596e-002 44026 93579,93553,93720
 1.6000e+000 93769 -1.8410e+000 -5.2601e+001  2.8348e+000 44026 93579,93720,93449
 1.6000e+000 94066 -1.0240e+001 -5.8726e+001 -5.1952e+000 43579 94089,93818,93792
 1.6000e+000 94043 -6.6029e+000 -5.8527e+001 -5.4810e+000 43579 94161,94089,93792
 1.6000e+000 94020 -6.6843e+000 -5.8667e+001 -4.9283e+000 43579 94161,93792,93948
 1.6000e+000 93997 -4.0917e+000 -5.2169e+001 -3.9157e+000 43579 94233,93870,93818
 1.6000e+000 93974  1.2364e+000 -5.7405e+001  1.7443e+000 43579 93818,93870,93844
 1.6000e+000 94115 -5.7740e+000 -5.2631e+001 -2.6592e+000 43579 94233,93818,94089
 1.6000e+000 94138 -1.7278e+001 -5.8983e+001 -6.4650e+000 43579 93896,94089,93922
 1.6000e+000 94187 -6.2977e+000 -5.7543e+001 -5.9211e+000 43579 93922,94089,94161
 1.6000e+000 94210 -6.6473e+000 -5.7734e+001 -5.3052e+000 43579 93922,94161,93948
 1.6000e+000 94259  3.0600e+000 -4.9486e+001 -1.0485e+001 43579 93896,93870,94233
 1.6000e+000 94282 -5.1726e+000 -5.3075e+001 -9.1856e+000 43579 93896,94233,94089
 1.6000e+000 94481 -1.1508e+001 -6.1423e+001 -1.6472e+000 43239 94305,94383,94357
 1.6000e+000 94458 -5.7310e+000 -5.3613e+001  8.2173e+000 43239 94305,94409,94383
 1.6000e+000 94435 -8.0514e+000 -6.1659e+001 -2.7676e+000 43239 94305,94357,94331
 1.6000e+000 94633 -3.8267e+000 -4.6780e+001  1.2200e+001 42827 94656,94532,94506
 1.6000e+000 94610 -1.6140e+001 -5.4417e+001  1.7797e+001 42827 94728,94656,94506
 1.6000e+000 94682  1.7146e+000 -5.6101e+001  1.2150e+001 42827 94558,94532,94656
 1.6000e+000 94705  1.4493e+001 -5.5461e+001  6.9451e+000 42827 94988,94860,94656
 1.6000e+000 94754 -2.4771e-001 -4.3292e+001  3.2436e+000 42827 94988,94656,94728
 1.6000e+000 94886  2.8950e+001 -4.9910e+001  6.7555e+000 42827 94558,94656,94860
 1.6000e+000 95014  2.6933e+001 -4.4914e+001  2.3229e+000 42827 94584,94860,94988
 1.6000e+000 95037  1.3852e+001 -3.4178e+001 -1.4130e+000 42827 94584,94988,94728
 1.6000e+000 95236 -2.0237e+001 -9.5067e+001  6.8100e+000 42537 95259,95112,95060
 1.6000e+000 95213 -1.8134e+001 -9.8946e+001  8.4549e+000 42537 95259,95060,95164
 1.6000e+000 95190 -1.1128e+001 -8.7151e+001 -2.7281e+000 42537 95060,95112,95086
 1.6000e+000 95285 -1.8843e+001 -9.2981e+001  7.4303e+000 42537 95138,95112,95259
 1.6000e+000 95308 -1.5916e+001 -9.5087e+001  9.4128e+000 42537 95138,95259,95164
 1.6000e+000 95816 -1.8388e+001 -8.0797e+001 -5.2264e+000 41969 95493,95597,95519
 1.6000e+000 95793 -3.7345e+001 -7.6079e+001  1.1606e+001 41969 95493,95649,95597
 1.6000e+000 95770 -3.1809e+001 -6.9659e+001  6.6581e+000 41969 95493,95675,95649
 1.6000e+000 95747 -3.4691e+001 -9.1830e+001  1.0076e+001 41969 95597,95649,95623
 1.6000e+000 95724 -4.0496e+001 -7.5510e+001 -8.4505e+000 41969 95519,95597,95571
 1.6000e+000 95701 -3.1967e+001 -6.6789e+001 -4.1358e+001 41969 95519,95571,95545
 1.6000e+000 96371 -1.7368e+001 -6.9299e+001  6.2153e+000 41579 96025,96207,96181
 1.6000e+000 96348  1.1639e+001 -5.5607e+001 -4.3012e+000 41579 95999,96207,96025
 1.6000e+000 96325 -3.5384e+001 -5.8728e+001 -1.9475e+001 41579 96129,96181,96155
 1.6000e+000 96302  1.6381e+001 -4.6459e+001 -4.2454e+000 41579 96025,96181,96129
 1.6000e+000 96279 -1.5216e+001 -9.2155e+001  2.0384e+001 41579 96025,96129,96051
 1.6000e+000 96256 -3.4465e+001 -1.0639e+002  3.4635e+001 41579 96051,96103,96077
 1.6000e+000 96233  1.9851e+001 -6.3477e+001  7.9400e+000 41579 96051,96129,96103
 1.6000e+000 96877  6.2602e+000 -5.0856e+001  2.4257e+000 41182 96972,96900,96632
 1.6000e+000 96854  7.7656e+000 -4.7984e+001  8.7760e-001 41182 96900,96554,96736
 1.6000e+000 96831  3.4574e+000 -4.8041e+001 -6.2966e+000 41182 96972,96632,96580
 1.6000e+000 96808  1.7232e+001 -4.8073e+001  4.6557e+000 41182 96632,96684,96658
 1.6000e+000 96785 -1.1011e+001 -6.6626e+001 -3.0312e+000 41182 96684,96736,96710
 1.6000e+000 96762 -1.8306e+001 -7.3990e+001  6.6603e+000 41182 96580,96632,96606
 1.6000e+000 96926  6.6380e+000 -5.3774e+001  2.4182e+000 41182 96684,96632,96900
 1.6000e+000 96949 -3.8889e+000 -4.9189e+001 -8.9847e-001 41182 96684,96900,96736
 1.6000e+000 96998  1.9752e+001 -4.6533e+001 -4.5486e+000 41182 96554,96900,96972
 1.6000e+000 97021  2.1471e+001 -3.7616e+001 -1.4175e+001 41182 96554,96972,96580
 1.6000e+000 97576 -4.0764e+001 -1.3875e+002 -2.3075e+001 40678 97230,97412,97282
 1.6000e+000 97553  1.7237e+001 -1.0952e+002  8.1542e+000 40678 97204,97412,97230
 1.6000e+000 97530 -1.8921e+001 -1.0440e+002 -1.7075e+001 40678 97282,97360,97308
 1.6000e+000 97507 -9.0847e+000 -9.8580e+001 -8.0229e+000 40678 97282,97412,97360
 1.6000e+000 97484 -6.9399e+000 -6.3514e+001 -1.3279e+001 40678 97308,97360,97334
 1.6000e+000 97461 -3.9928e+001 -1.2961e+002  5.5123e+000 40678 97360,97412,97386
 1.6000e+000 97438 -1.0688e+001 -8.7722e+001 -4.5131e+000 40678 97230,97282,97256
 1.6000e+000 97976 -2.3081e+001 -5.3430e+001 -3.4099e+000 40244 97702,97832,97754
 1.6000e+000 97953 -1.8893e+001 -6.0047e+001 -2.8892e+000 40244 97702,97858,97832
 1.6000e+000 97930 -3.4180e+001 -8.2807e+001 -1.4407e+001 40244 97702,97754,97728
 1.6000e+000 97907 -2.0270e+001 -4.9995e+001  5.2284e+000 40244 97780,97832,97806
 1.6000e+000 97884 -2.5504e+001 -5.2490e+001 -7.0349e-001 40244 97754,97832,97780
 1.6000e+000 98482 -1.9000e+001 -5.9921e+001  3.9216e+000 39690 98505,98185,98159
 1.6000e+000 98459 -1.2355e+001 -6.0382e+001  7.1445e+000 39690 98505,98159,98289
 1.6000e+000 98436 -3.7044e+001 -9.8336e+001  2.4881e+001 39690 98159,98315,98289
 1.6000e+000 98413 -1.8438e+001 -5.5567e+001  6.5834e+000 39690 98211,98289,98263
 1.6000e+000 98390 -1.3249e+001 -3.6383e+001  3.8623e+000 39690 98211,98263,98237
 1.6000e+000 98367  5.4879e+001 -5.3156e+001  6.4816e+000 39690 98159,98341,98315
 1.6000e+000 98531 -3.0410e+001 -6.0760e+001  8.5684e-001 39690 98211,98185,98505
 1.6000e+000 98554 -1.9077e+001 -5.5963e+001  5.6258e+000 39690 98211,98505,98289
 1.6000e+000 99109 -1.8692e+001 -5.8666e+001 -3.7926e+000 39072 99132,98867,98789
 1.6000e+000 99086 -2.0235e+001 -5.7951e+001 -2.9294e+000 39072 99132,98789,98763
 1.6000e+000 99063 -2.8551e+001 -8.6131e+001  5.0686e+000 39072 98867,98945,98919
 1.6000e+000 99040 -1.8089e+001 -6.2699e+001 -9.7963e-001 39072 98789,98867,98841
 1.6000e+000 99017 -2.5109e+001 -9.0123e+001  7.1597e+000 39072 98867,98919,98893
 1.6000e+000 98994 -3.1227e+001 -6.3715e+001  1.1359e+001 39072 98789,98841,98815
 1.6000e+000 98971 -3.1871e+001 -6.1848e+001 -6.2330e+000 39072 98737,98945,98763
 1.6000e+000 99158 -1.8516e+001 -5.7668e+001 -3.8419e+000 39072 98945,98867,99132
 1.6000e+000 99181 -1.9097e+001 -5.5714e+001 -3.5489e+000 39072 98945,99132,98763
 1.6000e+000 99510 -7.5561e+000 -5.8690e+001  2.8429e+000 38668 99311,99389,99363
 1.6000e+000 99487 -1.8942e+001 -6.1616e+001  5.0272e+000 38668 99285,99389,99311
 1.6000e+000 99464 -2.9839e+001 -6.4934e+001  9.3821e+000 38668 99285,99415,99389
 1.6000e+000 99441 -1.5726e+001 -6.3641e+001  4.9442e+000 38668 99311,99363,99337
 1.6000e+000 99758 -8.9363e-001 -7.9139e+001  7.1068e+000 38164 99781,99611,99585
 1.6000e+000 99735  1.0272e+001 -7.9134e+001  8.9698e+000 38164 99781,99585,99533
 1.6000e+000 99712 -5.8855e+000 -6.5355e+001  5.3944e+000 38164 99611,99663,99637
 1.6000e+000 99689  1.6872e+001 -7.1874e+001  2.4158e+000 38164 99533,99585,99559
 1.6000e+000 99807 -7.0157e+000 -7.6806e+001  1.0086e+001 38164 99663,99611,99781
 1.6000e+000 99830  7.5285e-001 -7.9038e+001  1.0024e+001 38164 99663,99781,99533
 1.6000e+000 100232 -2.5201e+001 -6.4404e+001 -2.1502e-001 37702 99984,100114,100088
 1.6000e+000 100209 -1.8177e+001 -6.5068e+001  6.6020e+000 37702 99958,100114,99984
 1.6000e+000 100186 -3.3793e+001 -8.3505e+001 -5.8761e+000 37702 100010,100088,100036
 1.6000e+000 100163 -2.2757e+001 -6.3419e+001 -6.3144e-001 37702 99984,100088,100010
 1.6000e+000 100140 -2.0262e+001 -7.2214e+001 -2.2856e+001 37702 100036,100088,100062
 1.6000e+000 100640 -5.4383e+001 -7.3939e+001  6.6103e+000 37262 100493,100545,100519
 1.6000e+000 100617 -4.1025e+001 -7.8963e+001  3.9003e+000 37262 100441,100545,100493
 1.6000e+000 100594 -1.9259e+001 -6.3781e+001 -6.6020e+000 37262 100415,100545,100441
 1.6000e+000 100571 -5.4094e+001 -1.0041e+002 -6.7866e+000 37262 100441,100493,100467
 1.6000e+000 101146 -3.3886e+001 -5.5208e+001 -3.1944e+000 36872 100823,100979,100849
 1.6000e+000 101123 -3.0733e+001 -4.5647e+001 -8.5580e+000 36872 100823,101005,100979
 1.6000e+000 101100 -2.9485e+001 -7.7146e+001  1.0918e+001 36872 101169,100901,100849
 1.6000e+000 101077 -2.3855e+001 -6.6037e+001  5.0946e+000 36872 101169,100849,100979
 1.6000e+000 101054 -1.5100e+001 -7.8368e+001 -2.4423e-001 36872 100927,100979,100953
 1.6000e+000 101031 -2.3777e+001 -9.1988e+001  1.1637e+001 36872 100849,100901,100875
 1.6000e+000 101195 -2.0015e+001 -7.9757e+001  3.7037e+000 36872 100927,100901,101169
 1.6000e+000 101218 -1.6258e+001 -7.4044e+001 -1.2835e+000 36872 100927,101169,100979
 1.6000e+000 101773 -3.6654e+001 -6.5817e+001  1.1671e+001 36418 101479,101609,101583
 1.6000e+000 101750 -3.2436e+001 -6.9388e+001  1.7010e+001 36418 101453,101609,101479
 1.6000e+000 101727 -2.2084e+001 -6.8464e+001  3.7167e+000 36418 101796,101531,101479
 1.6000e+000 101704 -3.5329e+001 -7.5138e+001  6.1858e+000 36418 101796,101479,101583
 1.6000e+000 101681 -1.5926e+001 -7.2040e+001  2.2507e-001 36418 101479,101531,101505
 1.6000e+000 101658  3.3214e+001 -6.1543e+001 -5.8883e+000 36418 101401,101609,101453
 1.6000e+000 101635 -9.1781e+000 -6.7979e+001 -1.1127e+001 36418 101401,101453,101427
 1.6000e+000 101822 -2.6243e+001 -6.3839e+001 -9.5217e+000 36418 101557,101531,101796
 1.6000e+000 101845 -4.4328e+001 -7.0565e+001 -8.2950e+000 36418 101557,101796,101583
 1.6000e+000 102174  3.6563e+001 -2.7916e+001 -9.0086e+000 35914 101949,102053,101975
 1.6000e+000 102151 -1.4340e+001 -3.6765e+001  1.1090e+000 35914 101949,102079,102053
 1.6000e+000 102128  7.5229e+000 -4.1194e+001 -2.9391e+000 35914 101975,102053,102027
 1.6000e+000 102105  9.3832e+000 -2.8217e+001 -2.4242e+000 35914 101975,102027,102001
 1.6000e+000 102631  2.9233e+001 -6.3999e+001 -3.8625e-002 35574 102383,102513,102487
 1.6000e+000 102608  3.6460e+001 -6.8082e+001 -3.3433e-001 35574 102357,102513,102383
 1.6000e+000 102585  1.1889e+000 -7.0958e+001  5.3425e+000 35574 102409,102487,102435
 1.6000e+000 102562  1.1162e+001 -7.3109e+001  3.5982e+000 35574 102383,102487,102409
 1.6000e+000 102539 -4.1955e+000 -8.2524e+001  3.9266e+000 35574 102435,102487,102461
 1.6000e+000 103009 -1.0160e+001 -5.7009e+001 -4.9920e+000 35170 102761,102865,102787
 1.6000e+000 102986  7.0108e+000 -4.8031e+001  5.2064e+000 35170 102761,102891,102865
 1.6000e+000 102963 -1.5751e+001 -5.5833e+001 -9.8976e+000 35170 102787,102865,102813
 1.6000e+000 102940 -2.6936e+000 -6.6461e+001 -1.4541e+000 35170 102735,102891,102761
 1.6000e+000 102917 -1.6468e+001 -5.7540e+001 -9.9717e+000 35170 102813,102865,102839
 1.6000e+000 103257  1.9008e+001 -5.5246e+001 -1.0541e+001 34659 103280,103058,103032
 1.6000e+000 103234  1.1347e+001 -5.7598e+001 -5.5362e-001 34659 103280,103032,103162
 1.6000e+000 103211 -5.3793e+000 -4.2718e+001 -2.1230e+000 34659 103084,103162,103110
 1.6000e+000 103188 -1.8865e+001 -7.0326e+001  2.3514e+000 34659 103110,103162,103136
 1.6000e+000 103306  3.4784e+000 -5.2448e+001 -9.8423e+000 34659 103084,103058,103280
 1.6000e+000 103329  1.5760e-001 -5.3774e+001  1.4984e+000 34659 103084,103280,103162
 1.6000e+000 103837  1.5840e+001 -6.8689e+001  5.9683e+000 34247 103860,103566,103540
 1.6000e+000 103814 -2.2567e+000 -7.3822e+001  1.5971e+000 34247 103932,103860,103540
 1.6000e+000 103791 -4.1142e+000 -8.4175e+001 -7.4420e+000 34247 103932,103540,103670
 1.6000e+000 103768  1.1571e+001 -7.2825e+001  1.1625e+000 34247 103566,103618,103592
 1.6000e+000 103745 -2.2264e+001 -7.9967e+001 -1.0546e+001 34247 103540,103696,103670
 1.6000e+000 103722 -3.2981e+001 -8.4348e+001  1.9867e+001 34247 103514,103696,103540
 1.6000e+000 103886 -2.7381e+000 -7.9986e+001 -1.2647e+000 34247 103618,103566,103860
 1.6000e+000 103909  8.4849e+000 -7.7563e+001 -1.6169e+000 34247 103618,103860,103644
 1.6000e+000 103958 -6.9612e+000 -9.7380e+001 -8.7477e+000 34247 103644,103860,103932
 1.6000e+000 103981 -1.0202e+001 -1.0774e+002 -1.8332e+001 34247 103644,103932,103670
 1.6000e+000 104300 -3.6381e+001 -8.3640e+001 -5.1685e+000 33843 104052,104182,104156
 1.6000e+000 104277 -5.0807e+001 -6.9928e+001  6.6552e-001 33843 104026,104182,104052
 1.6000e+000 104254 -3.5352e+001 -8.1401e+001  3.7716e+000 33843 104078,104156,104130
 1.6000e+000 104231 -5.3139e+001 -9.0223e+001 -2.5574e+000 33843 104052,104156,104078
 1.6000e+000 104208 -4.9763e+001 -8.2418e+001  2.3743e+000 33843 104078,104130,104104
 1.6000e+000 104499 -3.3799e+000 -8.1415e+001 -4.5516e+000 33282 104594,104522,104375
 1.6000e+000 104476 -3.1736e+000 -7.6670e+001  3.0290e+000 33282 104522,104323,104427
 1.6000e+000 104453  3.8942e+000 -8.7375e+001 -3.5989e+000 33282 104594,104375,104349
 1.6000e+000 104548  4.1272e+000 -6.7737e+001 -7.4551e+000 33282 104401,104375,104522
 1.6000e+000 104571  1.5058e-001 -7.2150e+001 -2.3880e-001 33282 104401,104522,104427
 1.6000e+000 104620  4.5013e+000 -6.9830e+001 -7.7599e-001 33282 104323,104522,104594
 1.6000e+000 104643  8.7169e+000 -7.9039e+001 -1.0941e+000 33282 104323,104594,104349
 1.6000e+000 104942 -1.0803e+001 -7.4077e+001  1.1826e+001 32728 104694,104772,104720
 1.6000e+000 104919 -1.8826e+001 -7.3929e+001  7.0201e+000 32728 104694,104824,104772
 1.6000e+000 104896 -1.7802e+001 -8.1878e+001  8.7551e+000 32728 104720,104772,104746
 1.6000e+000 104873 -1.1218e+001 -8.4926e+001  7.3668e+000 32728 104772,104824,104798
 1.6000e+000 104850 -1.7395e+001 -7.7980e+001  4.2699e+000 32728 104668,104824,104694
 1.6000e+000 105373 -3.3303e+001 -9.4505e+001 -5.3767e+000 32274 105396,105102,105076
 1.6000e+000 105350 -2.7934e+001 -1.0711e+002 -2.8524e+000 32274 105396,105076,105206
 1.6000e+000 105327 -3.3644e+001 -1.1202e+002  1.1555e+001 32274 105154,105206,105180
 1.6000e+000 105304 -1.8843e+001 -1.0821e+002 -1.3361e+001 32274 105076,105232,105206
 1.6000e+000 105281 -3.5108e+001 -8.3678e+001 -1.3007e+001 32274 105102,105154,105128
 1.6000e+000 105258 -6.7861e+001 -1.0506e+002 -2.6153e+001 32274 105050,105232,105076
 1.6000e+000 105422 -3.1907e+001 -8.1975e+001 -3.0017e+000 32274 105154,105102,105396
 1.6000e+000 105445 -2.7980e+001 -9.6287e+001 -1.5847e+000 32274 105154,105396,105206
 1.6000e+000 105644 -7.0533e+000 -7.8367e+001  4.3418e-001 31620 105468,105546,105520
 1.6000e+000 105621  4.1129e-001 -9.4172e+001 -3.4971e+000 31620 105468,105572,105546
 1.6000e+000 105598 -1.6136e+001 -9.4032e+001 -5.2554e+000 31620 105468,105520,105494
 1.6000e+000 105794 -9.2789e+000 -8.5637e+001 -1.7028e+000 31158 105889,105817,105693
 1.6000e+000 105771 -1.2340e+001 -8.1499e+001 -4.4327e+000 31158 105817,105667,105745
 1.6000e+000 105843 -1.0492e+001 -9.8884e+001  5.9218e-002 31158 105719,105693,105817
 1.6000e+000 105866 -4.2294e+000 -8.9210e+001 -2.9916e+000 31158 105719,105817,105745
 1.6000e+000 105915 -1.7969e+001 -8.9361e+001 -1.7993e+000 31158 105667,105817,105889
 1.6000e+000 106270 -3.3947e+001 -8.1078e+001  1.7906e+000 30818 106293,106071,106045
 1.6000e+000 106247 -3.7685e+001 -8.9098e+001 -7.8052e+000 30818 106293,106045,106175
 1.6000e+000 106224 -1.3890e+001 -7.6378e+001  3.3516e+000 30818 106123,106175,106149
 1.6000e+000 106201 -3.7322e+001 -8.0299e+001  3.9752e+000 30818 106071,106123,106097
 1.6000e+000 106319 -2.9222e+001 -7.7748e+001  3.4549e+000 30818 106123,106071,106293
 1.6000e+000 106342 -2.6654e+001 -8.1697e+001 -4.5966e+000 30818 106123,106293,106175
 1.6000e+000 106492  2.0256e+001 -8.7068e+001  2.5509e+001 30414 106645,106391,106365
 1.6000e+000 106469 -6.1990e+000 -7.8717e+001  2.4067e+001 30414 106515,106365,106443
 1.6000e+000 106541  3.2659e+000 -7.4466e+001  1.8554e+001 30414 106645,106365,106515
 1.6000e+000 106671  3.0557e+000 -1.0729e+002  1.7008e+001 30414 106417,106391,106645
 1.6000e+000 106694 -1.5640e+001 -9.0692e+001  1.1335e+001 30414 106417,106645,106515
 1.6000e+000 106942  7.7115e+000 -9.5168e+001 -3.9446e+000 29910 106965,106795,106769
 1.6000e+000 106919  9.1135e-001 -8.2039e+001 -1.4195e+000 29910 106965,106769,106717
 1.6000e+000 106896  1.8512e+001 -5.9759e+001 -7.5076e+000 29910 106795,106847,106821
 1.6000e+000 106873  5.1053e+000 -7.4922e+001  2.1044e+000 29910 106717,106769,106743
 1.6000e+000 106991  7.6592e+000 -8.4389e+001 -4.5472e+000 29910 106847,106795,106965
 1.6000e+000 107014  4.7964e+000 -6.5970e+001 -3.2228e+000 29910 106847,106965,106717
 1.6000e+000 107213 -1.9559e+001 -8.8922e+001  7.9338e+000 29413 107236,107063,107037
 1.6000e+000 107190 -2.4947e+001 -1.0346e+002  1.3629e+001 29413 107236,107037,107141
 1.6000e+000 107167 -2.5094e+001 -5.7580e+001  1.5472e+001 29413 107063,107115,107089
 1.6000e+000 107262 -2.2227e+001 -7.7450e+001  2.2349e+000 29413 107115,107063,107236
 1.6000e+000 107285 -2.5663e+001 -8.8854e+001  7.9708e+000 29413 107115,107236,107141
 1.6000e+000 107486 -1.5914e+001 -7.7358e+001  5.8127e+000 29009 107336,107388,107362
 1.6000e+000 107463 -1.5806e+001 -7.7470e+001  7.6693e+000 29009 107310,107388,107336
 1.6000e+000 107440 -1.5231e+001 -6.8786e+001  6.6325e+000 29009 107310,107414,107388
 1.6000e+000 107736 -4.0615e+000 -7.3909e+001  1.4612e+000 28491 107537,107615,107563
 1.6000e+000 107713 -5.1073e+000 -7.5199e+001 -2.4276e+000 28491 107537,107641,107615
 1.6000e+000 107690 -4.6686e+000 -7.0904e+001  1.5919e+000 28491 107563,107615,107589
 1.6000e+000 107667 -9.6130e+000 -6.4549e+001 -1.8413e+000 28491 107511,107641,107537
 1.6000e+000 108118  3.9848e-001 -6.8394e+001  3.5388e+000 27980 108141,107922,107844
 1.6000e+000 108095  5.6291e+000 -7.5939e+001  3.0631e+000 27980 108141,107844,108000
 1.6000e+000 108072  2.2584e+000 -6.4610e+001  3.2855e-001 27980 107844,107922,107870
 1.6000e+000 108049  2.3034e+000 -6.3137e+001  4.6586e-001 27980 107870,107922,107896
 1.6000e+000 108026 -5.0788e+000 -5.7733e+001  1.4323e+001 27980 107922,107974,107948
 1.6000e+000 108167  4.2588e+000 -6.9247e+001  5.3761e+000 27980 107974,107922,108141
 1.6000e+000 108190  1.8343e+001 -6.8748e+001  7.1580e+000 27980 107974,108141,108000
 1.6000e+000 108745  1.1430e+000 -5.1583e+001  5.6858e+000 27376 108840,108768,108477
 1.6000e+000 108722 -5.4075e+000 -6.1804e+001  2.1080e+000 27376 108768,108373,108581
 1.6000e+000 108699  1.7059e+000 -4.4111e+001  8.5540e+000 27376 108840,108477,108451
 1.6000e+000 108676 -2.0716e+001 -4.5733e+001 -1.6537e+001 27376 108373,108451,108399
 1.6000e+000 108653 -1.7585e+001 -7.4130e+001  6.6621e+000 27376 108503,108581,108529
 1.6000e+000 108630 -1.1372e+001 -7.4629e+001  4.9573e+000 27376 108529,108581,108555
 1.6000e+000 108607 -3.2965e+001 -5.9509e+001 -2.4138e+000 27376 108399,108451,108425
 1.6000e+000 108794 -4.1935e+000 -6.0650e+001  3.0348e+000 27376 108503,108477,108768
 1.6000e+000 108817 -5.5301e+000 -5.5965e+001  7.7458e-001 27376 108503,108768,108581
 1.6000e+000 108866 -2.4757e+000 -5.8941e+001  8.2502e-001 27376 108373,108768,108840
 1.6000e+000 108889 -1.2972e+000 -5.4047e+001  4.6108e+000 27376 108373,108840,108451
 1.6000e+000 109186 -1.8007e+001 -7.7201e+001  6.4703e+000 26722 109209,108938,108912
 1.6000e+000 109163 -1.7496e+001 -7.6502e+001  8.1151e+000 26722 109281,109209,108912
 1.6000e+000 109140 -1.6351e+001 -7.5431e+001  7.5893e+000 26722 109281,108912,109042
 1.6000e+000 109117 -1.9576e+001 -8.1698e+001  5.3653e+000 26722 108938,108990,108964
 1.6000e+000 109094 -1.5283e+001 -7.7198e+001  8.2972e+000 26722 108912,109068,109042
 1.6000e+000 109235 -1.9327e+001 -7.7697e+001  6.5109e+000 26722 108990,108938,109209
 1.6000e+000 109258 -1.7211e+001 -8.1869e+001  7.5472e+000 26722 108990,109209,109016
 1.6000e+000 109307 -1.4669e+001 -7.8227e+001  5.7375e+000 26722 109016,109209,109281
 1.6000e+000 109330 -1.2822e+001 -7.6157e+001  4.9335e+000 26722 109016,109281,109042
 1.6000e+000 109732 -2.3895e+001 -6.3460e+001 -8.2234e-002 26310 109458,109588,109484
 1.6000e+000 109709 -1.8985e+001 -6.0797e+001 -5.0296e+000 26310 109458,109614,109588
 1.6000e+000 109686 -3.4909e+001 -7.0392e+001  1.0501e+001 26310 109510,109562,109536
 1.6000e+000 109663 -3.5741e+001 -6.7180e+001  4.8821e+000 26310 109484,109562,109510
 1.6000e+000 109640 -2.2437e+001 -6.2805e+001 -2.1511e-001 26310 109484,109588,109562
 1.6000e+000 110159 -2.4962e+001 -6.9640e+001  2.9594e+000 25642 110182,109940,109914
 1.6000e+000 110136 -2.4510e+001 -7.2631e+001  6.2309e+000 25642 110182,109914,109888
 1.6000e+000 110113 -2.3620e+001 -8.1681e+001 -9.6930e+000 25642 109966,110018,109992
 1.6000e+000 110090 -2.5300e+001 -7.8648e+001  6.6991e+000 25642 110254,109966,109940
 1.6000e+000 110067 -2.0854e+001 -7.0370e+001  7.0289e+000 25642 109862,110018,109888
 1.6000e+000 110044 -3.5132e+001 -6.8922e+001  8.4061e+000 25642 109836,110018,109862
 1.6000e+000 110208 -2.6274e+001 -7.1376e+001  5.2696e+000 25642 110254,109940,110182
 1.6000e+000 110231 -2.4873e+001 -7.4929e+001  4.8516e+000 25642 110018,110182,109888
 1.6000e+000 110280 -2.3825e+001 -8.7276e+001  5.0835e+000 25642 110018,109966,110254
 1.6000e+000 110303 -2.6214e+001 -8.1781e+001  3.7726e+000 25642 110018,110254,110182
 1.6000e+000 110632 -2.6389e+001 -6.7148e+001  8.7811e-001 25188 110407,110485,110433
 1.6000e+000 110609 -3.2794e+001 -6.5564e+001  2.3464e+000 25188 110407,110537,110485
 1.6000e+000 110586 -3.2448e+001 -7.0695e+001 -1.2219e+001 25188 110433,110485,110459
 1.6000e+000 110563 -2.9336e+001 -6.8093e+001  1.2421e+001 25188 110485,110537,110511
 1.6000e+000 110831 -1.0342e+001 -7.2192e+001  2.1412e+000 24726 110854,110707,110655
 1.6000e+000 110808 -1.0820e+001 -7.1825e+001  1.7090e+000 24726 110854,110655,110759
 1.6000e+000 110785 -1.2195e+001 -7.0991e+001  3.8471e+000 24726 110655,110707,110681
 1.6000e+000 110880 -1.0687e+001 -7.2533e+001  1.9113e+000 24726 110733,110707,110854
 1.6000e+000 110903 -1.1255e+001 -7.2375e+001  1.4365e+000 24726 110733,110854,110759
 1.6000e+000 111234  1.4838e+001 -4.2911e+001 -4.9632e+000 24222 111257,111087,111035
 1.6000e+000 111211  2.7834e+001 -3.7148e+001  2.9405e+000 24222 111257,111035,111009
 1.6000e+000 111188  3.0422e+001 -2.2851e+001 -1.3602e+001 24222 111035,111087,111061
 1.6000e+000 111165  1.0711e+001 -3.0809e+001  3.6916e+000 24222 111087,111139,111113
 1.6000e+000 111283  7.2576e+000 -3.1780e+001  4.4413e-001 24222 111139,111087,111257
 1.6000e+000 111306  1.2733e+001 -2.4421e+001  5.5075e+000 24222 111139,111257,111009
 1.6000e+000 111625 -9.0725e+000 -7.2480e+001 -4.6447e+000 23732 111648,111481,111455
 1.6000e+000 111602 -9.6005e+000 -7.3881e+001 -4.4803e+000 23732 111648,111455,111377
 1.6000e+000 111579  6.8206e+000 -4.4788e+001  7.9364e+000 23732 111377,111429,111403
 1.6000e+000 111556 -4.5177e+000 -7.4884e+001 -2.1647e+000 23732 111377,111455,111429
 1.6000e+000 111533 -8.0733e+000 -6.9071e+001 -1.6862e+000 23732 111351,111507,111377
 1.6000e+000 111674 -9.4908e+000 -7.0150e+001 -3.0320e+000 23732 111507,111481,111648
 1.6000e+000 111697 -1.0722e+001 -7.3014e+001 -2.9431e+000 23732 111507,111648,111377
 1.6000e+000 112156 -4.5937e+000 -6.8445e+001 -1.4167e+000 23278 112179,111908,111882
 1.6000e+000 112133 -3.1260e+000 -6.6648e+001  2.2977e-001 23278 112179,111882,112012
 1.6000e+000 112110 -4.2841e+000 -8.1496e+001 -7.0644e-001 23278 111908,111960,111934
 1.6000e+000 112087  6.5622e+000 -6.6853e+001 -3.0775e+000 23278 111882,112038,112012
 1.6000e+000 112064 -4.8696e+000 -6.3754e+001 -2.8691e-001 23278 111960,112012,111986
 1.6000e+000 112205 -6.0092e+000 -6.8276e+001 -2.9005e+000 23278 111960,111908,112179
 1.6000e+000 112228 -5.4422e+000 -6.6866e+001 -1.2814e+000 23278 111960,112179,112012
 1.6000e+000 112685 -4.5523e+001 -1.2033e+002 -1.1106e+001 22938 112489,112567,112541
 1.6000e+000 112662 -3.6326e+001 -9.7141e+001 -1.2315e+001 22938 112437,112567,112489
 1.6000e+000 112639 -2.6434e+001 -8.8423e+001 -1.4292e+000 22938 112489,112541,112515
 1.6000e+000 112616 -4.3979e+001 -9.0038e+001 -1.0321e+001 22938 112411,112567,112437
 1.6000e+000 112593 -3.6535e+001 -1.2470e+002 -4.0798e+000 22938 112437,112489,112463
 1.6000e+000 113191  1.1083e+001 -6.5414e+001 -9.3101e+000 22534 113214,112998,112946
 1.6000e+000 113168 -6.7027e-001 -6.4923e+001 -4.2850e+000 22534 113286,113214,112946
 1.6000e+000 113145  2.2589e+000 -6.5016e+001 -3.6249e+000 22534 113286,112946,112920
 1.6000e+000 113122 -1.2293e+001 -6.1754e+001 -9.1160e+000 22534 113358,113024,112998
 1.6000e+000 113099 -8.0378e+000 -6.8171e+001 -4.1396e+000 22534 112868,113050,112894
 1.6000e+000 113076  1.9318e+001 -1.0865e+002 -9.7271e+000 22534 112946,112998,112972
 1.6000e+000 113240 -6.7560e+000 -7.0980e+001 -9.8625e+000 22534 113358,112998,113214
 1.6000e+000 113263 -1.7807e+000 -6.6898e+001 -2.3392e+000 22534 113050,113214,112894
 1.6000e+000 113312  3.2514e+000 -6.4592e+001 -3.4525e+000 22534 112894,113214,113286
 1.6000e+000 113335  6.4167e+000 -6.4771e+001 -3.3499e+000 22534 112894,113286,112920
 1.6000e+000 113384 -5.6615e+000 -5.5058e+001 -5.9321e+000 22534 113050,113024,113358
 1.6000e+000 113407  2.8580e+000 -6.1962e+001 -5.8888e+000 22534 113050,113358,113214
 1.6000e+000 113785 -3.7492e+001 -1.0111e+002  7.4736e+000 21978 113808,113615,113511
 1.6000e+000 113762 -3.1169e+001 -1.0364e+002  1.2994e+001 21978 113808,113511,113667
 1.6000e+000 113739 -1.4301e+001 -8.2463e+001 -1.7099e+000 21978 113511,113615,113537
 1.6000e+000 113716  1.2397e+001 -7.4360e+001 -4.4012e+000 21978 113537,113615,113589
 1.6000e+000 113693  1.3692e+000 -1.0107e+002  1.8653e+000 21978 113537,113589,113563
 1.6000e+000 113834 -3.7968e+001 -9.9715e+001  1.5262e+001 21978 113641,113615,113808
 1.6000e+000 113857 -2.0888e+001 -9.3394e+001  2.1811e+001 21978 113641,113808,113667
 1.6000e+000 114284 -2.7566e+001 -7.4971e+001  2.1496e+000 21517 114013,114117,114039
 1.6000e+000 114261 -2.7977e+001 -7.3920e+001  5.1419e+000 21517 113961,114117,114013
 1.6000e+000 114238 -2.7628e+001 -8.4982e+001  3.8386e+000 21517 113961,114013,113987
 1.6000e+000 114215 -4.3018e+001 -8.3599e+001 -5.3700e+000 21517 114039,114117,114091
 1.6000e+000 114192 -3.0787e+001 -6.4903e+001  7.4002e+000 21517 113961,114143,114117
 1.6000e+000 114169  4.8605e+000 -6.5319e+001 -4.1312e+000 21517 114039,114091,114065
 1.6000e+000 114581 -9.9398e+000 -9.5642e+001  9.1214e-001 21027 114359,114463,114437
 1.6000e+000 114558 -8.4247e+000 -8.9299e+001  1.0820e+001 21027 114333,114463,114359
 1.6000e+000 114535 -5.2879e+000 -9.0115e+001 -1.1125e+000 21027 114359,114437,114385
 1.6000e+000 114512 -8.2451e-001 -8.7027e+001  7.8128e+000 21027 114307,114463,114333
 1.6000e+000 114489  8.9609e+000 -8.0453e+001 -5.3269e+000 21027 114385,114437,114411
 1.6000e+000 114912 -2.8169e+001 -7.8463e+001  1.8008e+000 20623 114713,114791,114765
 1.6000e+000 114889 -3.6658e+000 -6.8199e+001 -8.5687e+000 20623 114687,114791,114713
 1.6000e+000 114866 -2.3712e+001 -9.4026e+001  3.3588e-001 20623 114687,114817,114791
 1.6000e+000 114843 -3.9924e+001 -9.3334e+001  6.9013e+000 20623 114713,114765,114739
 1.6000e+000 115290 -8.6855e+000 -6.7544e+001  3.5574e+000 20375 115313,115146,115094
 1.6000e+000 115267 -1.0760e+001 -6.8022e+001  4.5948e+000 20375 115313,115094,115042
 1.6000e+000 115244 -1.0310e+001 -6.4530e+001  3.1781e+000 20375 115385,115016,115172
 1.6000e+000 115221  1.7200e+001 -5.8348e+001  4.5771e+000 20375 115042,115094,115068
 1.6000e+000 115198 -1.3991e+001 -8.0192e+001  3.2927e+000 20375 115094,115146,115120
 1.6000e+000 115339 -1.5557e+001 -7.4627e+001  3.6386e-003 20375 115172,115146,115313
 1.6000e+000 115362 -1.0403e+001 -6.6037e+001  2.7471e+000 20375 115385,115172,115313
 1.6000e+000 115411 -8.8416e+000 -6.5614e+001  4.7975e+000 20375 115042,115016,115385
 1.6000e+000 115434 -9.5306e+000 -6.7900e+001  4.4992e+000 20375 115042,115385,115313
 1.6000e+000 115891 -2.6690e+001 -7.3210e+001  9.7116e+000 19971 115617,115747,115643
 1.6000e+000 115868 -1.8344e+001 -5.3376e+001  9.7187e+000 19971 115617,115773,115747
 1.6000e+000 115845 -1.2667e+001 -1.0312e+002  3.1250e+000 19971 115643,115721,115695
 1.6000e+000 115822  1.1974e+001 -4.8209e+001 -2.0381e+000 19971 115643,115747,115721
 1.6000e+000 115799  2.0149e+001 -1.1686e+002 -4.6968e+000 19971 115643,115695,115669
 1.6000e+000 115992 -1.4816e+001 -1.3188e+002 -4.0214e+001 19659 115914,115966,115940
 1.6000e+000 116142  3.1115e+000 -1.6601e+001 -2.6289e-001 18997 116041,116093,116067
 1.6000e+000 116119 -7.7240e+000 -4.4983e+001  3.5086e+000 18997 116015,116093,116041
 1.6000e+000 116343  1.6885e+000 -8.0091e+001 -1.9718e+000 18707 116193,116245,116219
 1.6000e+000 116320  1.8338e+000 -7.8940e+001 -5.4473e-001 18707 116193,116271,116245
 1.6000e+000 116297 -2.6610e+000 -7.6551e+001 -1.3419e+001 18707 116167,116271,116193
 1.6000e+000 116747 -3.1959e+000 -7.0094e+001 -1.5345e+000 18301 116525,116629,116551
 1.6000e+000 116724 -4.8039e+000 -5.9201e+001 -2.1291e-001 18301 116473,116629,116525
 1.6000e+000 116701 -3.6907e+000 -6.0078e+001 -4.3313e+000 18301 116473,116525,116499
 1.6000e+000 116678  4.3785e-001 -7.2797e+001 -9.9081e-001 18301 116551,116603,116577
 1.6000e+000 116655 -6.0219e+000 -7.6744e+001 -2.8167e+000 18301 116551,116629,116603
 1.6000e+000 117147 -3.6542e+001 -9.5081e+001 -1.0954e+000 17747 116899,117029,116925
 1.6000e+000 117124 -1.8222e+001 -7.0313e+001  8.4484e+000 17747 116873,117029,116899
 1.6000e+000 117101 -3.4810e+001 -9.2343e+001 -3.5570e-001 17747 116925,117029,116951
 1.6000e+000 117078 -2.9295e+001 -7.7404e+001  5.4251e-001 17747 116951,117029,117003
 1.6000e+000 117055 -4.4581e+001 -1.0320e+002 -7.0157e+000 17747 116951,117003,116977
 1.6000e+000 117368  2.1050e+001 -7.6875e+001  2.6490e+000 17293 117244,117296,117270
 1.6000e+000 117345  7.5465e+000 -8.1077e+001 -1.1798e+000 17293 117192,117296,117244
 1.6000e+000 117322 -3.1584e+000 -7.4939e+001 -8.5415e-001 17293 117192,117244,117218
 1.6000e+000 117699  5.6664e+000 -5.6208e+001 -9.5929e+000 16896 117526,117604,117552
 1.6000e+000 117676 -3.3660e+001 -9.3334e+001  5.6567e+000 16896 117500,117604,117526
 1.6000e+000 117653 -3.6202e+001 -7.2845e+001 -4.6259e+000 16896 117552,117604,117578
 1.6000e+000 117630 -2.6468e+001 -1.2044e+002  1.2040e+001 16896 117474,117604,117500
 1.6000e+000 117849 -9.4028e+001 -1.8295e+002 -7.1874e+000 16534 117722,117774,117748
 1.6000e+000 117826 -7.4038e+001 -2.2333e+002 -3.0793e+001 16534 117722,117800,117774
 1.6000e+000 118070 -4.9927e+000 -7.5321e+001  8.1817e+000 16194 117946,117998,117972
 1.6000e+000 118047 -1.3485e+001 -8.9819e+001  4.6063e+000 16194 117894,117998,117946
 1.6000e+000 118024 -1.9027e+001 -8.2554e+001 -1.4082e+000 16194 117894,117946,117920
 1.6000e+000 118173 -6.3283e+000 -9.2145e+001  0.0000e+000 15968 118095,118147,118121
 1.6000e+000 118276 -2.2648e+001 -8.1730e+001  1.8350e+000 15433 118299,118198,118250
 1.6000e+000 118325 -2.4004e+001 -8.4893e+001  1.8662e+000 15433 118224,118198,118299
 1.6000e+000 118450 -2.7599e+001 -9.3356e+001  2.1268e+001 421 118372,118424,118398
 1.7000e+000 69891 -1.2249e+000 -1.1802e+002  6.5828e+000 68988 69447,69681,69629
 1.7000e+000 69868  5.4647e+001 -9.4499e+001  6.4498e+000 68988 69421,69681,69447
 1.7000e+000 69845  1.5727e+001 -5.7040e+001  5.5015e+000 68988 69447,69629,69577
 1.7000e+000 69822 -2.2051e+001 -1.1519e+002 -1.0757e+001 68988 69447,69577,69473
 1.7000e+000 69799  3.7940e+001 -1.5176e+002  4.8198e+001 68988 69629,69681,69655
 1.7000e+000 69776 -2.3618e+001 -7.4078e+001  7.1697e+000 68988 69577,69629,69603
 1.7000e+000 69753 -1.0592e+001 -1.1244e+002 -2.4967e+001 68988 69473,69577,69551
 1.7000e+000 69730  3.2570e+000 -1.9951e+002 -1.7056e+001 68988 69473,69551,69525
 1.7000e+000 69707 -2.2139e+001 -1.3948e+002 -1.3928e-001 68988 69473,69525,69499
 1.7000e+000 69992 -4.9528e+001 -1.3549e+002 -2.6907e+001 68676 69914,69966,69940
 1.7000e+000 70392 -1.3932e+001 -7.7671e+001  4.3265e+000 68478 70118,70248,70144
 1.7000e+000 70369  3.5171e+001 -7.2334e+001  1.9069e+001 68478 70118,70274,70248
 1.7000e+000 70346  1.4712e+001 -6.3921e+001 -3.4084e+000 68478 70144,70222,70196
 1.7000e+000 70323  2.5757e+001 -3.4407e+001 -1.2268e+001 68478 70144,70248,70222
 1.7000e+000 70300  1.3986e+001 -6.4787e+001 -3.7209e+000 68478 70144,70196,70170
 1.7000e+000 70841  3.2292e+001 -5.4440e+001 -1.8942e+001 68280 70570,70622,70596
 1.7000e+000 70818 -1.9525e+001 -6.3655e+001 -4.3608e+000 68280 70544,70622,70570
 1.7000e+000 70795 -1.0057e+001 -4.2734e+001 -2.2576e+000 68280 70544,70674,70622
 1.7000e+000 70772 -9.8958e+000 -3.2280e+001  4.4507e+000 68280 70622,70674,70648
 1.7000e+000 70749 -2.1320e+001 -7.4870e+001  7.6754e+000 68280 70518,70674,70544
 1.7000e+000 70726  6.1439e+001 -7.9410e+001  3.2145e+001 68280 70518,70700,70674
 1.7000e+000 70991 -3.9069e+000 -4.0794e+002  1.1676e+001 67968 70864,70916,70890
 1.7000e+000 70968 -1.0270e+002 -4.0882e+002  4.2185e+001 67968 70864,70942,70916
 1.7000e+000 71141 -1.5568e+002 -3.1080e+002 -1.3531e+001 67770 71040,71092,71066
 1.7000e+000 71118 -1.3720e+002 -3.6584e+002  1.3460e+001 67770 71014,71092,71040
 1.7000e+000 71651  1.3596e+000 -6.3660e+001 -3.4486e+000 67366 71746,71674,71458
 1.7000e+000 71628  3.1961e+000 -4.5542e+001 -3.3907e+000 67366 71674,71354,71510
 1.7000e+000 71605 -2.3376e+000 -7.8102e+001 -1.1247e-001 67366 71746,71458,71432
 1.7000e+000 71582 -2.1094e+001 -8.7255e+001  5.5661e+000 67366 71354,71432,71380
 1.7000e+000 71559 -1.8432e+001 -5.6517e+001 -9.1380e+000 67366 71380,71432,71406
 1.7000e+000 71536 -1.1937e+000 -3.7406e+000  1.1109e+001 67366 71328,71510,71354
 1.7000e+000 71700  1.1641e+001 -4.6973e+001 -8.6999e+000 67366 71484,71458,71674
 1.7000e+000 71723  1.2435e+000 -4.9183e+001 -1.1496e+000 67366 71484,71674,71510
 1.7000e+000 71772 -3.4350e+000 -4.6517e+001 -4.3332e+000 67366 71354,71674,71746
 1.7000e+000 71795 -2.3412e+000 -5.6159e+001 -3.6898e+000 67366 71354,71746,71432
 1.7000e+000 71896 -2.0227e+001 -1.3716e+002  0.0000e+000 67146 71818,71870,71844
 1.7000e+000 71997 -1.6356e+002 -2.9225e+002  6.4094e+001 66948 71919,71971,71945
 1.7000e+000 72149 -7.9167e-001 -8.3126e+001 -9.4615e+000 66700 72172,72074,72048
 1.7000e+000 72126 -2.7264e+001 -9.2620e+001 -3.5617e+000 66700 72172,72048,72022
 1.7000e+000 72198 -4.3195e+001 -1.0112e+002  6.9676e+000 66700 72244,72172,72100
 1.7000e+000 72221 -4.0369e+001 -9.3016e+001 -5.5664e+000 66700 72100,72172,72022
 1.7000e+000 72270 -2.3003e+001 -5.6797e+001 -6.9296e+000 66700 72074,72172,72244
 1.7000e+000 72623 -2.3193e+001 -8.8652e+001  3.9876e+000 66502 72424,72502,72450
 1.7000e+000 72600 -1.6016e+001 -6.9419e+001  3.1777e+000 66502 72398,72502,72424
 1.7000e+000 72577 -1.2168e+001 -8.1600e+001 -7.6263e-001 66502 72398,72528,72502
 1.7000e+000 72554 -1.9416e+001 -7.5816e+001 -2.1247e-001 66502 72450,72502,72476
 1.7000e+000 72920 -4.6499e+001 -1.0993e+002  4.3951e+000 65941 72672,72776,72750
 1.7000e+000 72897 -4.5457e+001 -8.8167e+001  1.5303e+001 65941 72646,72776,72672
 1.7000e+000 72874 -3.4814e+001 -1.0754e+002  7.2167e+000 65941 72672,72750,72724
 1.7000e+000 72851 -4.5112e+001 -8.5622e+001  1.8424e+001 65941 72672,72724,72698
 1.7000e+000 72828 -3.1667e+001 -7.6824e+001  1.0417e+001 65941 72646,72802,72776
 1.7000e+000 73241 -2.8705e+000 -8.0365e+001 -3.6701e+000 65743 73264,73071,73045
 1.7000e+000 73218 -1.3654e+001 -9.4534e+001  9.0492e+000 65743 73480,73264,73045
 1.7000e+000 73195 -1.8455e+000 -7.3963e+001 -1.9082e+000 65743 73336,72967,73097
 1.7000e+000 73172 -1.5176e+001 -6.8257e+001 -6.0948e+000 65743 73408,72993,72967
 1.7000e+000 73149 -2.0878e+000 -7.2767e+001 -1.3815e+000 65743 72967,73123,73097
 1.7000e+000 73290  1.5618e+000 -6.9181e+001 -2.1361e+000 65743 73097,73071,73264
 1.7000e+000 73313 -3.1407e-001 -7.0992e+001 -1.2744e+000 65743 73336,73097,73264
 1.7000e+000 73362 -8.5216e+000 -7.5131e+001 -4.1184e+000 65743 73408,72967,73336
 1.7000e+000 73385  2.3539e+000 -6.9776e+001 -8.5281e-001 65743 73019,73336,73264
 1.7000e+000 73434 -4.0351e+000 -4.6232e+001 -6.2020e-002 65743 73019,72993,73408
 1.7000e+000 73457  3.3971e+000 -6.0870e+001  1.0365e+000 65743 73019,73408,73336
 1.7000e+000 73506  1.1516e+001 -4.1924e+001  6.8915e-001 65743 73019,73264,73480
 1.7000e+000 73989  1.4291e+001 -5.0388e+001  8.9180e+000 65453 73793,73845,73819
 1.7000e+000 73966 -1.7798e+001 -5.7327e+001  1.1488e+001 65453 73741,73845,73793
 1.7000e+000 73943  6.4534e+000 -4.2903e+001  5.4499e+000 65453 73715,73845,73741
 1.7000e+000 73920 -9.1327e+000 -6.0088e+001  1.8157e+001 65453 73741,73793,73767
 1.7000e+000 73897  1.5722e+001 -1.4433e+001  5.5736e+000 65453 73715,73871,73845
 1.7000e+000 74357 -1.8371e+001 -8.3621e+001 -2.1673e+001 65141 74380,74138,74086
 1.7000e+000 74334 -2.9030e+001 -1.0817e+002 -1.9086e+001 65141 74380,74086,74060
 1.7000e+000 74311 -3.7529e+001 -9.9517e+001 -2.7540e+000 65141 74138,74190,74164
 1.7000e+000 74288  4.5120e+000 -1.1705e+002 -7.3382e+000 65141 74060,74216,74190
 1.7000e+000 74265  6.6798e-001 -1.2874e+002  2.3540e+000 65141 74034,74216,74060
 1.7000e+000 74242 -2.3988e+001 -6.0122e+001 -1.1052e+001 65141 74086,74138,74112
 1.7000e+000 74406 -2.1433e+001 -1.0370e+002 -1.0173e+001 65141 74190,74138,74380
 1.7000e+000 74429 -2.5618e+001 -1.1306e+002 -9.2146e+000 65141 74190,74380,74060
 1.7000e+000 74937 -3.8116e+001 -8.6842e+001 -2.0196e+001 64737 74614,74666,74640
 1.7000e+000 74914 -5.0190e+001 -9.9662e+001 -1.5221e+001 64737 74614,74796,74666
 1.7000e+000 74891 -3.3752e+001 -6.7132e+001 -1.0310e-001 64737 74960,74718,74666
 1.7000e+000 74868 -2.9443e+001 -7.5285e+001 -7.7624e+000 64737 74960,74666,74770
 1.7000e+000 74845 -3.2282e+001 -6.0110e+001 -9.1851e+000 64737 74666,74796,74770
 1.7000e+000 74822 -3.3981e+001 -7.0346e+001  1.8186e+000 64737 74666,74718,74692
 1.7000e+000 74986 -3.6331e+001 -7.5548e+001 -7.7820e-001 64737 74744,74718,74960
 1.7000e+000 75009 -3.4680e+001 -8.7999e+001 -8.7653e+000 64737 74744,74960,74770
 1.7000e+000 75306  2.8253e+001 -4.5765e+001  2.1776e+001 64133 75329,75110,75084
 1.7000e+000 75283 -1.6179e+000 -7.8997e+001  4.8129e+000 64133 75401,75329,75084
 1.7000e+000 75260 -5.7443e+000 -7.7387e+001  2.0402e+000 64133 75401,75084,75058
 1.7000e+000 75237  1.4083e+001 -8.8355e+001  9.0296e+000 64133 75473,75136,75110
 1.7000e+000 75214  2.6634e+001 -8.2617e+001 -5.7732e+000 64133 75032,75188,75162
 1.7000e+000 75355  1.3080e+001 -8.4345e+001  8.1031e+000 64133 75473,75110,75329
 1.7000e+000 75378  1.6184e+001 -7.8561e+001 -5.1859e+000 64133 75162,75329,75032
 1.7000e+000 75427  2.2155e+001 -6.5798e+001 -1.4040e+000 64133 75032,75329,75401
 1.7000e+000 75450 -1.8739e+001 -8.8480e+001  1.2926e+001 64133 75545,75401,75058
 1.7000e+000 75499  7.7133e+000 -8.2920e+001  7.8562e-001 64133 75162,75136,75473
 1.7000e+000 75522  1.0494e+001 -7.1852e+001  2.3274e+000 64133 75162,75473,75329
 1.7000e+000 75571  9.0112e+000 -3.0195e+001 -2.9285e+000 64133 75032,75401,75545
 1.7000e+000 75851 -2.7398e+001 -7.8545e+001  1.0159e+001 63843 75874,75753,75727
 1.7000e+000 75828 -1.5848e+001 -6.8224e+001 -9.4844e-001 63843 75946,75874,75727
 1.7000e+000 75805 -2.1711e+001 -7.0623e+001  6.2261e-002 63843 76018,75946,75727
 1.7000e+000 75900 -1.0585e+001 -7.1443e+001  5.0465e-001 63843 75779,75753,75874
 1.7000e+000 75923 -1.3804e+001 -5.5469e+001 -1.0643e+001 63843 75779,75874,75675
 1.7000e+000 75972 -2.2334e+001 -6.9360e+001 -2.0012e+000 63843 75675,75874,75946
 1.7000e+000 75995 -1.8718e+001 -6.9010e+001 -4.3549e+000 63843 75675,75946,75701
 1.7000e+000 76044 -2.4483e+001 -7.2797e+001 -6.0194e+000 63843 75701,75946,76018
 1.7000e+000 76454  5.6150e+001 -7.4135e+000 -6.1533e+000 63439 76477,76255,76229
 1.7000e+000 76431  4.2194e+001 -2.6851e+001  6.0506e+000 63439 76477,76229,76359
 1.7000e+000 76408 -7.4279e+000 -3.9247e+001  1.1413e+001 63439 76307,76359,76333
 1.7000e+000 76385  1.7379e+001 -1.5410e+001  1.8780e+001 63439 76255,76307,76281
 1.7000e+000 76503  3.6105e+001 -2.4695e+001  4.7969e+000 63439 76307,76255,76477
 1.7000e+000 76526  3.9479e+001 -3.0833e+001  1.4267e+001 63439 76307,76477,76359
 1.7000e+000 76926 -1.3414e+000 -5.7081e+001  2.0508e+000 63049 76704,76782,76756
 1.7000e+000 76903 -1.3812e+001 -6.1385e+001 -1.8048e+000 63049 76704,76808,76782
 1.7000e+000 76880  7.4224e-001 -6.3490e+001  2.9444e+000 63049 76704,76756,76730
 1.7000e+000 76857  2.1581e+001 -3.1966e+001  1.0838e+001 63049 76678,76808,76704
 1.7000e+000 76834  4.4951e+001  6.2925e+001 -2.5113e+001 63049 76652,76808,76678
 1.7000e+000 77076  1.1746e+001 -8.4631e+001 -1.0042e+000 62737 76975,77027,77001
 1.7000e+000 77053  1.5487e+001 -9.3663e+001 -5.9991e+000 62737 76949,77027,76975
 1.7000e+000 77324 -1.1582e+001 -7.1414e+001 -4.2272e+000 62277 77347,77177,77125
 1.7000e+000 77301 -9.9578e+000 -6.9376e+001 -6.4405e+000 62277 77347,77125,77229
 1.7000e+000 77278  7.1930e+000 -8.0408e+001 -1.4921e+001 62277 77099,77229,77125
 1.7000e+000 77255 -7.4061e+000 -9.4282e+001 -3.9459e+000 62277 77125,77177,77151
 1.7000e+000 77373 -1.2676e+001 -7.6863e+001 -9.8606e-001 62277 77203,77177,77347
 1.7000e+000 77396 -6.9412e+000 -7.1717e+001 -3.9698e+000 62277 77203,77347,77229
 1.7000e+000 77857 -7.9912e+000 -1.1053e+002  2.8330e+000 61758 77635,77739,77661
 1.7000e+000 77834 -1.1889e+001 -1.1357e+002  9.6107e-001 61758 77583,77739,77635
 1.7000e+000 77811 -1.6085e+001 -1.4161e+002 -8.7354e+000 61758 77583,77635,77609
 1.7000e+000 77788  1.4402e+001 -1.0812e+002  1.3359e+001 61758 77661,77713,77687
 1.7000e+000 77765 -1.2315e+001 -1.2613e+002  9.5633e-001 61758 77661,77739,77713
 1.7000e+000 78491 -3.0498e+001 -6.0652e+001  3.7931e+000 61418 78171,78301,78249
 1.7000e+000 78468 -2.3554e+001 -5.5208e+001  6.1546e+000 61418 78145,78301,78171
 1.7000e+000 78445 -2.5004e+001 -5.4821e+001 -2.0224e+000 61418 78171,78249,78223
 1.7000e+000 78422 -1.8121e+001 -5.3105e+001  1.1960e+001 61418 78145,78327,78301
 1.7000e+000 78399 -3.2740e+001 -6.9528e+001  7.9169e-001 61418 78249,78301,78275
 1.7000e+000 78376 -1.6419e+001 -6.1781e+001 -3.0010e+000 61418 78171,78223,78197
 1.7000e+000 78353 -2.3558e+001 -3.5003e+001  1.4888e+001 61418 78119,78327,78145
 1.7000e+000 78690  3.9230e-001 -8.1987e+001  7.5311e-001 61014 78713,78566,78540
 1.7000e+000 78667 -7.6404e+000 -8.6630e+001  2.7558e+000 61014 78713,78540,78618
 1.7000e+000 78644 -3.2164e+001 -1.0461e+002 -1.3449e+001 61014 78514,78618,78540
 1.7000e+000 78739 -3.1731e+000 -7.9905e+001 -1.4491e+000 61014 78592,78566,78713
 1.7000e+000 78762 -2.0416e+001 -8.3637e+001 -2.5351e+000 61014 78785,78713,78618
 1.7000e+000 78811  1.8394e+000 -7.4789e+001 -4.2838e+000 61014 78592,78713,78785
 1.7000e+000 79398  1.4577e+001 -6.8905e+001  1.4684e+000 60624 79101,79179,79153
 1.7000e+000 79375  2.3245e+000 -7.7661e+001  5.2961e+000 60624 79101,79231,79179
 1.7000e+000 79352  4.0058e+001 -6.2427e+001  6.3991e+000 60624 79075,79231,79101
 1.7000e+000 79329  1.5841e+000 -9.0978e+001  2.0740e+001 60624 79075,79257,79231
 1.7000e+000 79306  1.0937e+001 -5.2484e+001 -4.3548e-001 60624 79179,79231,79205
 1.7000e+000 79283  1.1922e+001 -7.2924e+001 -1.1059e+001 60624 79101,79153,79127
 1.7000e+000 79776 -3.0211e+001 -9.2754e+001  6.8200e+000 60070 79528,79658,79606
 1.7000e+000 79753 -2.6295e+001 -7.3299e+001 -6.2733e-001 60070 79502,79658,79528
 1.7000e+000 79730 -3.6258e+001 -8.3148e+001  1.4987e+001 60070 79528,79606,79580
 1.7000e+000 79707 -1.3581e+001 -7.6316e+001  1.5751e-001 60070 79606,79658,79632
 1.7000e+000 79684 -2.9104e+000 -4.9703e+001 -1.3140e+001 60070 79528,79580,79554
 1.7000e+000 80105 -2.3725e+001 -7.2924e+001  8.2710e+000 59758 80128,79958,79906
 1.7000e+000 80082 -2.6274e+001 -6.9949e+001  6.6541e+000 59758 80128,79906,80010
 1.7000e+000 80059 -3.5665e+001 -7.9687e+001  2.4678e+001 59758 79906,79958,79932
 1.7000e+000 80036 -3.8004e+001 -7.6044e+001  4.0589e+000 59758 79880,80010,79906
 1.7000e+000 80154 -2.5159e+001 -7.4677e+001  7.5371e+000 59758 79984,79958,80128
 1.7000e+000 80177 -2.7820e+001 -7.2334e+001  5.7925e+000 59758 79984,80128,80010
 1.7000e+000 80376 -1.8742e+001 -8.8591e+001  2.1100e+000 59312 80226,80304,80252
 1.7000e+000 80353 -9.8969e+000 -1.0035e+002  4.2937e+000 59312 80200,80304,80226
 1.7000e+000 80330 -3.3151e+001 -7.6325e+001  2.6658e+001 59312 80252,80304,80278
 1.7000e+000 80805 -3.2435e+000 -4.8876e+001 -7.6141e+000 58908 80900,80828,80638
 1.7000e+000 80782 -1.6928e+001 -6.5073e+001 -1.2518e+001 58908 80828,80560,80508
 1.7000e+000 80759 -2.1916e+000 -4.6943e+001 -5.4360e+000 58908 80900,80638,80612
 1.7000e+000 80736  6.0886e+000 -4.1562e+001  3.3152e+001 58908 80482,80664,80508
 1.7000e+000 80713  6.8602e+000 -5.4092e+001  1.7938e+000 58908 80560,80612,80586
 1.7000e+000 80690  2.4184e+001 -1.2625e+002 -5.5865e+001 58908 80508,80560,80534
 1.7000e+000 80854  9.3279e+000 -5.7667e+001  5.6493e+000 58908 80664,80638,80828
 1.7000e+000 80877 -2.2214e+000 -8.3182e+001  2.7624e+000 58908 80664,80828,80508
 1.7000e+000 80926 -4.2135e+000 -4.4358e+001 -5.9903e+000 58908 80560,80828,80900
 1.7000e+000 80949 -2.7948e+000 -4.3288e+001 -3.5061e+000 58908 80560,80900,80612
 1.7000e+000 81246  8.0645e+000 -4.9501e+001  3.4662e-001 58482 81076,81128,81102
 1.7000e+000 81223 -1.2575e+001 -9.4991e+001 -9.8705e+000 58482 80972,81128,81076
 1.7000e+000 81200 -2.7220e-001 -6.1460e+001 -1.2299e+001 58482 80972,81076,81050
 1.7000e+000 81177 -8.0649e+000 -8.3358e+001 -1.4638e+001 58482 80998,81050,81024
 1.7000e+000 81154 -6.4018e+000 -6.3726e+001 -1.6574e+001 58482 80972,81050,80998
 1.7000e+000 81754 -1.7647e+001 -5.0131e+001  6.7101e+000 57828 81457,81613,81483
 1.7000e+000 81731 -1.8487e+001 -4.9451e+001  3.4245e+000 57828 81431,81613,81457
 1.7000e+000 81708 -1.9907e+001 -5.5320e+001  8.9159e+000 57828 81483,81613,81509
 1.7000e+000 81685 -2.6108e+001 -6.0262e+001  1.1486e+001 57828 81509,81613,81587
 1.7000e+000 81662 -2.4151e+001 -9.4006e+001  2.2818e+001 57828 81509,81587,81535
 1.7000e+000 81639  1.4588e+001 -6.6794e+001  8.3539e+000 57828 81535,81587,81561
 1.7000e+000 82002 -3.9158e+001 -1.1899e+002 -6.2489e-001 57374 82025,81855,81829
 1.7000e+000 81979 -4.2920e+001 -1.0927e+002  7.2853e+000 57374 82025,81829,81907
 1.7000e+000 81956 -3.7775e+001 -9.8112e+001  9.1016e+000 57374 81803,81907,81829
 1.7000e+000 81933 -1.9143e+001 -8.2675e+001  1.7969e+001 57374 81777,81907,81803
 1.7000e+000 82051 -3.8761e+001 -1.0736e+002 -1.2863e+000 57374 81881,81855,82025
 1.7000e+000 82074 -4.0260e+001 -9.8559e+001  9.3890e+000 57374 81881,82025,81907
 1.7000e+000 82356 -4.0854e+000 -4.9337e+001 -1.7725e+000 56913 82180,82232,82206
 1.7000e+000 82333 -8.4389e+000 -6.2293e+001  3.1104e+000 56913 82180,82284,82232
 1.7000e+000 82310  1.8255e+001 -4.9145e+001  1.2407e+001 56913 82379,82232,82284
 1.7000e+000 82405  5.9938e+001 -2.1785e+001  3.4165e+001 56913 82258,82232,82379
 1.7000e+000 82764 -6.8344e+000 -2.5120e+001 -4.8245e+000 56523 82614,82666,82640
 1.7000e+000 82741 -9.3750e+000 -2.7376e+001 -3.6337e+000 56523 82614,82692,82666
 1.7000e+000 82718  2.1240e+001 -2.4975e+001 -1.8032e+001 56523 82588,82692,82614
 1.7000e+000 83368  5.4296e+000 -8.8606e+001 -2.6775e+000 55969 82973,83155,83129
 1.7000e+000 83345  1.5740e+001 -8.4542e+001 -5.0253e+000 55969 82973,83181,83155
 1.7000e+000 83322 -4.6373e-001 -7.2968e+001 -4.9655e+000 55969 82973,83129,82999
 1.7000e+000 83299 -3.0380e+001 -8.2883e+001  8.4942e-001 55969 83391,83025,82999
 1.7000e+000 83276 -2.4517e+001 -8.4276e+001 -1.2827e+000 55969 83391,82999,83129
 1.7000e+000 83253  6.7814e+000 -6.1600e+001  1.5125e+001 55969 83077,83129,83103
 1.7000e+000 83230 -3.0397e+001 -5.7612e+001 -1.0452e+001 55969 83025,83077,83051
 1.7000e+000 83207  5.1917e+001 -6.7384e+001  1.8872e+000 55969 82947,83181,82973
 1.7000e+000 83417 -2.4794e+001 -8.0142e+001  1.7264e+000 55969 83077,83025,83391
 1.7000e+000 83440 -2.2673e+001 -8.3388e+001 -9.7198e-001 55969 83077,83391,83129
 1.7000e+000 83946 -4.2715e+001 -1.1621e+002  2.3422e+001 55771 83969,83779,83727
 1.7000e+000 83923 -3.1297e+001 -9.3893e+001  1.4215e+001 55771 83969,83727,83623
 1.7000e+000 83900 -4.0648e+001 -4.9794e+001  9.7674e+000 55771 83623,83727,83649
 1.7000e+000 83877  1.0909e+001 -1.5762e+002  3.0450e+001 55771 83727,83779,83753
 1.7000e+000 83854 -4.1974e+001 -7.6365e+001  3.0277e+001 55771 83675,83727,83701
 1.7000e+000 83831 -6.9743e+001 -7.7222e+001  3.1253e+001 55771 83649,83727,83675
 1.7000e+000 83995 -3.8270e+001 -1.2012e+002 -5.0193e+000 55771 83805,83779,83969
 1.7000e+000 84018 -1.3327e+001 -7.4494e+001 -1.6823e+001 55771 83805,83969,83623
 1.7000e+000 84168  1.2645e+000 -3.9130e+001  8.6802e-001 55367 84191,84067,84041
 1.7000e+000 84145 -7.5808e-001 -3.8929e+001  1.4661e+000 55367 84191,84041,84119
 1.7000e+000 84217 -8.0105e-001 -3.7314e+001  5.1715e-001 55367 84093,84067,84191
 1.7000e+000 84240 -5.2461e+000 -3.8803e+001  9.5752e-001 55367 84093,84191,84119
 1.7000e+000 84571 -1.4445e+001 -8.7981e+001 -1.0277e+001 54913 84398,84450,84424
 1.7000e+000 84548 -7.7895e+000 -8.0239e+001 -6.2475e+000 54913 84372,84450,84398
 1.7000e+000 84525 -2.2998e+001 -9.1672e+001  1.5555e+000 54913 84346,84450,84372
 1.7000e+000 84502 -6.9286e+000 -5.4482e+001 -8.5584e+000 54913 84346,84476,84450
 1.7000e+000 85126 -4.2709e+001 -9.8680e+001 -1.0597e+001 54402 84858,84936,84910
 1.7000e+000 85103 -3.2007e+001 -7.3548e+001 -1.0894e+001 54402 84806,84936,84858
 1.7000e+000 85080 -3.4886e+001 -7.0363e+001 -9.9220e+000 54402 84780,84936,84806
 1.7000e+000 85057 -2.8888e+001 -7.9337e+001 -6.9639e+000 54402 84806,84858,84832
 1.7000e+000 85034 -3.3278e+001 -6.7893e+001 -1.7381e+000 54402 84780,84962,84936
 1.7000e+000 85011 -3.1090e+001 -4.7539e+001 -1.4031e+000 54402 84858,84910,84884
 1.7000e+000 84988 -2.8340e+001 -5.8486e+001  7.5802e-002 54402 84754,84962,84780
 1.7000e+000 85396 -2.4186e+001 -3.1261e+001 -9.2058e-001 53998 85197,85249,85223
 1.7000e+000 85373 -9.5055e+000 -3.9249e+001 -4.0983e-001 53998 85197,85275,85249
 1.7000e+000 85350 -2.0103e+001 -4.8532e+001 -4.4423e+000 53998 85171,85275,85197
 1.7000e+000 85327  3.8833e+000 -4.0665e+001 -6.8218e+000 53998 85171,85301,85275
 1.7000e+000 85749 -8.9133e+000 -8.4842e+001 -7.5255e+000 53636 85524,85628,85550
 1.7000e+000 85726 -2.9823e+001 -1.0006e+002 -1.0156e-001 53636 85524,85654,85628
 1.7000e+000 85703  2.3739e+001 -8.6432e+001 -2.7357e+001 53636 85550,85602,85576
 1.7000e+000 85680 -1.1717e+001 -8.5127e+001 -1.1053e+001 53636 85550,85628,85602
 1.7000e+000 86127  6.1356e+000 -7.8940e+001  1.6185e+001 52982 86150,85957,85879
 1.7000e+000 86104 -5.9869e+000 -9.2546e+001  1.0123e+001 52982 86150,85879,85853
 1.7000e+000 86081  4.5574e+000 -1.1712e+002  2.3967e+001 52982 85957,86009,85983
 1.7000e+000 86058 -1.8738e+001 -8.3673e+001  1.2800e+001 52982 85879,85957,85931
 1.7000e+000 86035 -5.4869e+000 -7.1887e+001  1.4119e+000 52982 85879,85931,85905
 1.7000e+000 86176  1.5689e+001 -9.3238e+001  1.4429e+001 52982 86009,85957,86150
 1.7000e+000 86199  8.3744e+000 -1.0470e+002  1.0686e+001 52982 86009,86150,85853
 1.7000e+000 86398 -1.1949e+000 -4.4696e+001  4.6253e+000 52542 86421,86248,86222
 1.7000e+000 86375 -1.1632e+001 -4.7585e+001 -2.2678e-001 52542 86421,86222,86300
 1.7000e+000 86352 -1.2327e+001 -4.7662e+001  6.0886e-001 52542 86222,86326,86300
 1.7000e+000 86447  1.0374e+001 -4.5874e+001  1.0277e+001 52542 86274,86248,86421
 1.7000e+000 86470 -2.5800e-001 -5.1409e+001  4.0744e+000 52542 86274,86421,86300
 1.7000e+000 86669 -5.3242e+000 -4.8493e+001 -2.1598e+001 52230 86692,86571,86545
 1.7000e+000 86646 -9.9147e+000 -5.7354e+001 -1.4523e+001 52230 86692,86545,86519
 1.7000e+000 86623 -2.7452e+001 -4.2250e+001 -5.2985e+000 52230 86493,86597,86519
 1.7000e+000 86718 -1.0572e+001 -4.8877e+001 -1.2814e+001 52230 86597,86571,86692
 1.7000e+000 86741 -2.0001e+001 -5.9944e+001 -5.3204e+000 52230 86597,86692,86519
 1.7000e+000 87153 -3.3118e+001 -5.4915e+001  2.9981e+000 51640 86980,87058,87032
 1.7000e+000 87130 -3.0641e+001 -5.9677e+001  1.1485e+000 51640 86928,87058,86980
 1.7000e+000 87107 -2.5511e+001 -7.9354e+001 -1.1883e+001 51640 86928,86980,86954
 1.7000e+000 87084 -1.7768e+001 -4.8357e+001  2.2945e+000 51640 86980,87032,87006
 1.7000e+000 87659 -1.2093e+001 -4.9098e+001  5.6277e+000 51029 87682,87440,87362
 1.7000e+000 87636 -1.3880e+001 -5.5000e+001 -3.4450e+000 51029 87682,87362,87336
 1.7000e+000 87613 -2.4291e+001 -8.5690e+001 -3.9227e+000 51029 87440,87518,87466
 1.7000e+000 87590 -2.3644e+001 -4.9824e+001  6.6205e+000 51029 87362,87440,87414
 1.7000e+000 87567 -2.3531e+001 -4.6622e+001  2.0382e+001 51029 87362,87414,87388
 1.7000e+000 87544 -2.9185e+001 -7.1501e+001 -1.8267e+000 51029 87466,87518,87492
 1.7000e+000 87708 -1.0102e+001 -5.8783e+001  1.4273e+000 51029 87518,87440,87682
 1.7000e+000 87731 -1.1374e+001 -7.0825e+001 -4.3026e+000 51029 87518,87682,87336
 1.7000e+000 87881 -1.0804e+001 -6.3804e+001 -1.3948e+000 50739 87780,87832,87806
 1.7000e+000 87858 -1.3432e+001 -5.6894e+001 -7.1329e+000 50739 87754,87832,87780
 1.7000e+000 88468  4.7152e+000 -2.6395e+001  4.3240e-001 50235 88171,88327,88197
 1.7000e+000 88445 -2.3303e+001 -1.9181e+001 -9.9146e+000 50235 88145,88327,88171
 1.7000e+000 88422  7.7812e+001 -8.1890e+000 -6.8426e+000 50235 88275,88327,88301
 1.7000e+000 88399  1.0816e+001 -3.6904e+001 -3.9898e+000 50235 88197,88327,88275
 1.7000e+000 88376  2.3385e+001 -2.7836e+001  5.3029e-001 50235 88197,88275,88223
 1.7000e+000 88353  1.0539e+001 -5.2311e+001  5.2810e+000 50235 88223,88275,88249
 1.7000e+000 88895  1.4836e+000 -6.5372e+001  5.8323e+000 49873 88918,88728,88676
 1.7000e+000 88872  2.0236e+000 -6.7840e+001  4.3320e+000 49873 88918,88676,88624
 1.7000e+000 88849  4.2939e+000 -5.1159e+001  5.6876e+000 49873 88598,88754,88624
 1.7000e+000 88826  2.8736e+000 -6.1464e+001 -3.4125e+000 49873 88624,88676,88650
 1.7000e+000 88803  3.5539e+000 -8.9555e+001  5.0619e+000 49873 88676,88728,88702
 1.7000e+000 88780  8.6141e+000 -5.4769e+001  3.2445e+000 49873 88572,88754,88598
 1.7000e+000 88944  3.0299e+000 -6.4040e+001  7.2112e+000 49873 88754,88728,88918
 1.7000e+000 88967  2.8654e+000 -6.6146e+001  5.4728e+000 49873 88754,88918,88624
 1.7000e+000 89473 -4.2700e+001 -7.0408e+001 -1.0758e+001 49583 89176,89306,89202
 1.7000e+000 89450 -3.2260e+001 -6.6309e+001 -1.0289e+001 49583 89176,89332,89306
 1.7000e+000 89427 -3.0430e+001 -7.8156e+001  1.5977e+000 49583 89496,89228,89202
 1.7000e+000 89404 -2.8308e+001 -7.9583e+001  2.0895e+000 49583 89496,89202,89280
 1.7000e+000 89381 -4.7597e+001 -9.4728e+001 -1.7582e+001 49583 89202,89306,89280
 1.7000e+000 89358 -1.6728e+001 -6.0103e+001 -8.4258e+000 49583 89150,89332,89176
 1.7000e+000 89522 -2.7009e+001 -6.9815e+001  2.4459e+000 49583 89254,89228,89496
 1.7000e+000 89545 -2.9146e+001 -7.7724e+001  2.3054e+000 49583 89254,89496,89280
 1.7000e+000 89825  1.3168e+001 -7.1846e+001  3.2970e+000 49179 89701,89753,89727
 1.7000e+000 89802  1.9722e+001 -6.8575e+001  1.4244e+000 49179 89675,89753,89701
 1.7000e+000 89779  3.5618e+001 -4.3249e+001  2.0924e+001 49179 89848,89753,89675
 1.7000e+000 89874 -1.0739e+001 -6.4595e+001  7.0145e+000 49179 89649,89753,89848
 1.7000e+000 90223 -5.2625e+000 -7.4341e+001 -4.7925e+000 48739 90024,90102,90076
 1.7000e+000 90200 -2.0017e+001 -7.4976e+001  1.7608e+000 48739 90024,90128,90102
 1.7000e+000 90177  1.8878e+000 -8.1298e+001 -1.4501e+000 48739 90024,90076,90050
 1.7000e+000 90154  2.1931e+001 -6.8800e+001  2.4223e+001 48739 89998,90128,90024
 1.7000e+000 90603 -2.2011e+001 -7.2319e+001  1.5166e+001 48335 90381,90485,90459
 1.7000e+000 90580 -3.1091e+001 -7.8580e+001  9.4225e+000 48335 90355,90485,90381
 1.7000e+000 90557 -8.4481e+000 -1.9901e+001  1.0980e+001 48335 90381,90433,90407
 1.7000e+000 90534 -2.3731e+001 -7.2484e+001  1.5702e+001 48335 90381,90459,90433
 1.7000e+000 90511  1.3791e+001 -5.0140e+001  2.4302e+001 48335 90329,90485,90355
 1.7000e+000 90753  2.2861e+001 -3.4333e+001  2.3833e+001 47824 90776,90652,90704
 1.7000e+000 90730  8.4878e+000 -6.2135e+001  1.8337e+001 47824 90626,90704,90652
 1.7000e+000 90802  4.0621e-002 -5.0842e+001  1.6523e+001 47824 90678,90652,90776
 1.7000e+000 91131 -1.2583e+001 -7.9893e+001  9.6356e-001 47427 91154,90958,90906
 1.7000e+000 91108 -3.0704e+001 -8.7847e+001  3.2320e+000 47427 91154,90906,91036
 1.7000e+000 91085 -2.7403e+001 -6.2125e+001 -8.6066e+000 47427 90958,91010,90984
 1.7000e+000 91062 -1.3201e+001 -6.3386e+001  3.2343e+000 47427 90906,90958,90932
 1.7000e+000 91180 -2.1973e+001 -7.4714e+001 -1.1378e+001 47427 91010,90958,91154
 1.7000e+000 91203 -3.8936e+001 -8.1943e+001 -9.3754e+000 47427 91010,91154,91036
 1.7000e+000 91583 -4.7496e+001 -9.1837e+001 -3.6587e+000 46873 91309,91439,91335
 1.7000e+000 91560 -4.8694e+001 -8.8679e+001 -3.5362e+000 46873 91309,91465,91439
 1.7000e+000 91537 -7.0517e+001 -1.0602e+002 -2.3388e+001 46873 91361,91439,91413
 1.7000e+000 91514 -5.1347e+001 -9.4526e+001 -1.0222e+001 46873 91335,91439,91361
 1.7000e+000 91491 -1.9850e+001 -8.3218e+001 -1.6372e+001 46873 91361,91413,91387
 1.7000e+000 91880 -1.2227e+001 -7.1279e+001 -3.9390e+000 46526 91606,91710,91658
 1.7000e+000 91857 -8.5451e+000 -7.4710e+001 -9.2847e-001 46526 91606,91762,91710
 1.7000e+000 91834  1.2596e+000 -6.8457e+001 -1.4199e+001 46526 91606,91658,91632
 1.7000e+000 91811 -1.4156e+001 -6.1960e+001  1.2255e+000 46526 91658,91710,91684
 1.7000e+000 91788 -1.0932e+000 -4.8350e+001  3.1762e+000 46526 91710,91762,91736
 1.7000e+000 92211  1.1611e+001 -3.6157e+001 -2.0248e+000 45700 91986,92064,92038
 1.7000e+000 92188 -1.5083e+001 -5.8757e+001  8.6216e+000 45700 91986,92116,92064
 1.7000e+000 92165  2.1288e+001 -2.4351e+001 -1.7077e+001 45700 91986,92038,92012
 1.7000e+000 92142 -1.7637e+001 -5.3624e+001  5.2955e+000 45700 92064,92116,92090
 1.7000e+000 92766 -3.9877e+001 -6.8339e+001 -3.6352e+000 45452 92446,92602,92576
 1.7000e+000 92743 -6.8565e+001 -6.6789e+001 -2.0893e+001 45452 92420,92602,92446
 1.7000e+000 92720 -4.4787e+001 -7.2054e+001  8.1424e+000 45452 92789,92524,92498
 1.7000e+000 92697 -5.4935e+001 -6.9260e+001  4.9917e+000 45452 92789,92498,92446
 1.7000e+000 92674 -4.2642e+001 -8.0567e+001 -4.0983e+000 45452 92524,92576,92550
 1.7000e+000 92651 -7.0879e+001 -6.8760e+001  3.7459e+001 45452 92446,92498,92472
 1.7000e+000 92628 -2.7001e+001 -6.2194e+001 -2.3251e+001 45452 92394,92602,92420
 1.7000e+000 92815 -3.7544e+001 -7.2832e+001  5.3627e+000 45452 92576,92524,92789
 1.7000e+000 92838 -4.5641e+001 -6.8555e+001  3.5200e+000 45452 92576,92789,92446
 1.7000e+000 92939 -1.5061e+001 -8.4513e+001 -2.2031e+001 44998 92861,92913,92887
 1.7000e+000 93319  4.6694e+000 -8.4129e+001  1.4743e+001 44601 93123,93201,93149
 1.7000e+000 93296 -3.8231e+000 -8.0167e+001  1.5016e+000 44601 93045,93201,93123
 1.7000e+000 93273  2.0040e+001 -4.6597e+001 -8.9652e+000 44601 93045,93123,93071
 1.7000e+000 93250  2.7178e+001 -5.2036e+001 -2.0816e+001 44601 93071,93123,93097
 1.7000e+000 93227  4.9695e+000 -5.2119e+001  1.7665e+001 44601 93149,93201,93175
 1.7000e+000 93697  4.9139e+000 -7.9069e+001  3.1550e+000 44026 93720,93553,93527
 1.7000e+000 93674  1.8222e+000 -7.1192e+001  4.8459e+000 44026 93720,93527,93449
 1.7000e+000 93651 -5.5961e-001 -7.8259e+001  6.9857e+000 44026 93449,93527,93501
 1.7000e+000 93628 -6.0706e+000 -5.9478e+001 -1.3581e+001 44026 93423,93579,93449
 1.7000e+000 93605  1.5397e+001 -7.7826e+001  6.2124e+000 44026 93449,93501,93475
 1.7000e+000 93746  4.9011e+000 -7.1553e+001  1.9601e+000 44026 93579,93553,93720
 1.7000e+000 93769  2.2774e+000 -6.3097e+001  4.0283e+000 44026 93579,93720,93449
 1.7000e+000 94066 -6.1343e+000 -7.2121e+001 -1.0732e+001 43579 94089,93818,93792
 1.7000e+000 94043 -1.8809e+001 -7.3899e+001 -9.3555e+000 43579 94161,94089,93792
 1.7000e+000 94020 -1.7366e+001 -7.3628e+001 -7.5395e+000 43579 94161,93792,93948
 1.7000e+000 93997 -2.2414e+001 -7.2823e+001 -1.1603e+001 43579 94233,93870,93818
 1.7000e+000 93974  3.8747e+001 -6.0151e+001 -7.0478e+000 43579 93818,93870,93844
 1.7000e+000 94115 -2.1224e+001 -7.2257e+001 -1.1307e+001 43579 94233,93818,94089
 1.7000e+000 94138 -2.8900e+001 -7.0685e+001 -5.5563e+000 43579 93896,94089,93922
 1.7000e+000 94187 -1.7300e+001 -7.2128e+001 -6.3118e+000 43579 93922,94089,94161
 1.7000e+000 94210 -1.3785e+001 -7.0754e+001 -4.3962e+000 43579 93922,94161,93948
 1.7000e+000 94259 -2.7029e+001 -7.2465e+001 -6.6321e+000 43579 93896,93870,94233
 1.7000e+000 94282 -2.0827e+001 -6.9830e+001 -6.1638e+000 43579 93896,94233,94089
 1.7000e+000 94481 -1.3203e+001 -7.4477e+001 -1.0303e+000 43239 94305,94383,94357
 1.7000e+000 94458 -7.6978e+000 -6.5881e+001  1.0434e+001 43239 94305,94409,94383
 1.7000e+000 94435 -1.1098e+001 -8.1375e+001 -1.1560e+000 43239 94305,94357,94331
 1.7000e+000 94633 -3.8057e+000 -5.0249e+001  1.2855e+001 42827 94656,94532,94506
 1.7000e+000 94610 -1.7476e+001 -5.8753e+001  1.9121e+001 42827 94728,94656,94506
 1.7000e+000 94682  2.5533e+000 -5.8892e+001  1.3110e+001 42827 94558,94532,94656
 1.7000e+000 94705  1.7961e+001 -6.0959e+001  6.5838e+000 42827 94988,94860,94656
 1.7000e+000 94754  4.3204e-001 -4.7654e+001  2.0779e+000 42827 94988,94656,94728
 1.7000e+000 94886  3.3134e+001 -5.4337e+001  7.6876e+000 42827 94558,94656,94860
 1.7000e+000 95014  3.2735e+001 -4.9479e+001  1.5636e+000 42827 94584,94860,94988
 1.7000e+000 95037  1.7517e+001 -3.7287e+001 -2.8071e+000 42827 94584,94988,94728
 1.7000e+000 95236 -1.8487e+001 -8.1401e+001  5.8691e+000 42537 95259,95112,95060
 1.7000e+000 95213 -9.8652e-001 -9.0736e+001  9.7660e+000 42537 95259,95060,95164
 1.7000e+000 95190 -1.2550e+001 -7.9956e+001 -2.6383e+000 42537 95060,95112,95086
 1.7000e+000 95285 -6.6702e+000 -7.8283e+001  1.3543e+001 42537 95138,95112,95259
 1.7000e+000 95308  1.0871e+001 -8.3053e+001  1.9895e+001 42537 95138,95259,95164
 1.7000e+000 95816 -2.2751e+001 -8.1249e+001 -5.8001e+000 41969 95493,95597,95519
 1.7000e+000 95793 -4.2793e+001 -8.0779e+001  1.0913e+001 41969 95493,95649,95597
 1.7000e+000 95770 -3.6103e+001 -7.2847e+001  4.7459e+000 41969 95493,95675,95649
 1.7000e+000 95747 -3.9639e+001 -9.0713e+001  1.0337e+001 41969 95597,95649,95623
 1.7000e+000 95724 -4.3013e+001 -7.7423e+001 -8.2614e+000 41969 95519,95597,95571
 1.7000e+000 95701 -3.4238e+001 -7.0249e+001 -4.7152e+001 41969 95519,95571,95545
 1.7000e+000 96371 -2.0166e+001 -7.9332e+001  7.8705e+000 41579 96025,96207,96181
 1.7000e+000 96348  1.3702e+001 -6.3508e+001 -3.1658e+000 41579 95999,96207,96025
 1.7000e+000 96325 -4.0170e+001 -6.5984e+001 -2.1348e+001 41579 96129,96181,96155
 1.7000e+000 96302  1.8506e+001 -5.2937e+001 -4.1813e+000 41579 96025,96181,96129
 1.7000e+000 96279 -1.6585e+001 -1.0415e+002  2.2800e+001 41579 96025,96129,96051
 1.7000e+000 96256 -3.8211e+001 -1.1862e+002  3.8615e+001 41579 96051,96103,96077
 1.7000e+000 96233  2.1975e+001 -7.2183e+001  8.9374e+000 41579 96051,96129,96103
 1.7000e+000 96877  7.6221e+000 -5.7777e+001  3.2204e+000 41182 96972,96900,96632
 1.7000e+000 96854  8.4933e+000 -5.2131e+001  1.9439e+000 41182 96900,96554,96736
 1.7000e+000 96831  4.3401e+000 -5.4483e+001 -7.0168e+000 41182 96972,96632,96580
 1.7000e+000 96808  2.0834e+001 -5.3393e+001  5.9138e+000 41182 96632,96684,96658
 1.7000e+000 96785 -3.6808e+000 -4.5810e+001 -5.4629e+000 41182 96684,96736,96710
 1.7000e+000 96762 -2.0684e+001 -8.4082e+001  7.9455e+000 41182 96580,96632,96606
 1.7000e+000 96926  7.5359e+000 -6.0599e+001  3.0470e+000 41182 96684,96632,96900
 1.7000e+000 96949 -8.4027e+000 -5.5359e+001 -1.0471e+000 41182 96684,96900,96736
 1.7000e+000 96998  2.3476e+001 -5.2681e+001 -4.8686e+000 41182 96554,96900,96972
 1.7000e+000 97021  2.5466e+001 -4.2300e+001 -1.6166e+001 41182 96554,96972,96580
 1.7000e+000 97576 -3.8214e+001 -1.4143e+002 -2.4211e+001 40678 97230,97412,97282
 1.7000e+000 97553  1.2771e+001 -1.1508e+002  7.9434e+000 40678 97204,97412,97230
 1.7000e+000 97530 -1.6166e+001 -1.0805e+002 -1.6956e+001 40678 97282,97360,97308
 1.7000e+000 97507 -6.2453e+000 -1.0247e+002 -9.4429e+000 40678 97282,97412,97360
 1.7000e+000 97484 -4.7368e+000 -6.5694e+001 -1.3539e+001 40678 97308,97360,97334
 1.7000e+000 97461 -3.6943e+001 -1.3005e+002  4.0549e+000 40678 97360,97412,97386
 1.7000e+000 97438 -1.2182e+001 -1.0159e+002 -4.7762e+000 40678 97230,97282,97256
 1.7000e+000 97976 -2.5594e+001 -5.7153e+001 -1.7190e+000 40244 97702,97832,97754
 1.7000e+000 97953 -1.7652e+001 -6.0852e+001 -2.5306e+000 40244 97702,97858,97832
 1.7000e+000 97930 -3.4286e+001 -8.1504e+001 -1.4703e+001 40244 97702,97754,97728
 1.7000e+000 97907 -1.4595e+001 -4.4170e+001  3.9296e+000 40244 97780,97832,97806
 1.7000e+000 97884 -2.0739e+001 -5.3797e+001  4.5921e-001 40244 97754,97832,97780
 1.7000e+000 98482 -2.3126e+001 -7.3884e+001  1.4390e+001 39690 98505,98185,98159
 1.7000e+000 98459 -2.0220e+001 -7.2112e+001  1.5732e+001 39690 98505,98159,98289
 1.7000e+000 98436 -5.0225e+001 -1.0894e+002  4.4416e+001 39690 98159,98315,98289
 1.7000e+000 98413 -2.5783e+001 -6.8499e+001  1.4811e+001 39690 98211,98289,98263
 1.7000e+000 98390 -1.4664e+001 -4.7160e+001  9.7157e+000 39690 98211,98263,98237
 1.7000e+000 98367 -1.1800e+001 -6.4785e+001  2.4024e+001 39690 98159,98341,98315
 1.7000e+000 98531 -2.9455e+001 -7.3256e+001  1.1587e+001 39690 98211,98185,98505
 1.7000e+000 98554 -2.3608e+001 -6.7662e+001  1.4098e+001 39690 98211,98505,98289
 1.7000e+000 99109 -2.2088e+001 -6.6751e+001 -4.4765e+000 39072 99132,98867,98789
 1.7000e+000 99086 -2.5460e+001 -6.6135e+001 -3.3133e+000 39072 99132,98789,98763
 1.7000e+000 99063 -3.2301e+001 -9.7530e+001  5.7386e+000 39072 98867,98945,98919
 1.7000e+000 99040 -2.0511e+001 -7.0988e+001 -1.3730e+000 39072 98789,98867,98841
 1.7000e+000 99017 -2.8467e+001 -1.0170e+002  8.0492e+000 39072 98867,98919,98893
 1.7000e+000 98994 -3.6092e+001 -7.1675e+001  1.3418e+001 39072 98789,98841,98815
 1.7000e+000 98971 -3.7060e+001 -6.9980e+001 -7.4789e+000 39072 98737,98945,98763
 1.7000e+000 99158 -2.1308e+001 -6.5931e+001 -4.8274e+000 39072 98945,98867,99132
 1.7000e+000 99181 -2.2629e+001 -6.3060e+001 -4.4882e+000 39072 98945,99132,98763
 1.7000e+000 99510 -9.2739e+000 -6.4848e+001  3.3345e+000 38668 99311,99389,99363
 1.7000e+000 99487 -2.2439e+001 -6.8309e+001  5.7421e+000 38668 99285,99389,99311
 1.7000e+000 99464 -3.4127e+001 -7.2843e+001  1.0447e+001 38668 99285,99415,99389
 1.7000e+000 99441 -1.9094e+001 -7.1379e+001  6.1604e+000 38668 99311,99363,99337
 1.7000e+000 99758 -1.0646e+000 -8.9383e+001  8.4666e+000 38164 99781,99611,99585
 1.7000e+000 99735  1.0864e+001 -8.7662e+001  1.0858e+001 38164 99781,99585,99533
 1.7000e+000 99712 -6.2286e+000 -7.2083e+001  5.8525e+000 38164 99611,99663,99637
 1.7000e+000 99689  1.9938e+001 -7.2662e+001  5.3563e+000 38164 99533,99585,99559
 1.7000e+000 99807 -7.3601e+000 -8.5409e+001  1.1575e+001 38164 99663,99611,99781
 1.7000e+000 99830  3.8418e-001 -8.6778e+001  1.1791e+001 38164 99663,99781,99533
 1.7000e+000 100232 -2.9592e+001 -8.3129e+001  6.3247e-001 37702 99984,100114,100088
 1.7000e+000 100209 -2.0627e+001 -7.8245e+001  7.5929e+000 37702 99958,100114,99984
 1.7000e+000 100186 -4.4402e+001 -1.0325e+002 -5.8537e+000 37702 100010,100088,100036
 1.7000e+000 100163 -2.9342e+001 -8.3003e+001  7.6552e-001 37702 99984,100088,100010
 1.7000e+000 100140 -2.9394e+001 -8.9982e+001 -2.4108e+001 37702 100036,100088,100062
 1.7000e+000 100640 -6.2855e+001 -8.2734e+001  1.0679e+001 37262 100493,100545,100519
 1.7000e+000 100617 -4.7518e+001 -9.0818e+001  6.4713e+000 37262 100441,100545,100493
 1.7000e+000 100594 -2.5498e+001 -7.6087e+001 -3.1676e+000 37262 100415,100545,100441
 1.7000e+000 100571 -6.1703e+001 -1.1452e+002 -4.6623e+000 37262 100441,100493,100467
 1.7000e+000 101146 -3.8372e+001 -6.2794e+001 -4.2570e+000 36872 100823,100979,100849
 1.7000e+000 101123 -3.4960e+001 -5.2629e+001 -9.6202e+000 36872 100823,101005,100979
 1.7000e+000 101100 -3.4060e+001 -8.9052e+001  1.2780e+001 36872 101169,100901,100849
 1.7000e+000 101077 -2.7554e+001 -7.6299e+001  5.8642e+000 36872 101169,100849,100979
 1.7000e+000 101054 -1.7978e+001 -9.0848e+001 -6.5753e-001 36872 100927,100979,100953
 1.7000e+000 101031 -2.6916e+001 -1.0598e+002  1.3816e+001 36872 100849,100901,100875
 1.7000e+000 101195 -2.2942e+001 -9.2004e+001  4.4546e+000 36872 100927,100901,101169
 1.7000e+000 101218 -1.8584e+001 -8.5483e+001 -1.4785e+000 36872 100927,101169,100979
 1.7000e+000 101773 -4.1405e+001 -7.7196e+001  1.2529e+001 36418 101479,101609,101583
 1.7000e+000 101750 -3.6832e+001 -8.3567e+001  1.9124e+001 36418 101453,101609,101479
 1.7000e+000 101727 -2.5455e+001 -7.9189e+001  4.7708e+000 36418 101796,101531,101479
 1.7000e+000 101704 -4.1395e+001 -8.6791e+001  7.0048e+000 36418 101796,101479,101583
 1.7000e+000 101681 -1.7240e+001 -8.2816e+001  1.8672e-001 36418 101479,101531,101505
 1.7000e+000 101658  4.1772e+001 -7.3138e+001 -7.0087e+000 36418 101401,101609,101453
 1.7000e+000 101635 -1.1023e+001 -8.1088e+001 -1.3482e+001 36418 101401,101453,101427
 1.7000e+000 101822 -3.0641e+001 -7.3990e+001 -1.1234e+001 36418 101557,101531,101796
 1.7000e+000 101845 -5.2889e+001 -8.2694e+001 -1.0607e+001 36418 101557,101796,101583
 1.7000e+000 102174  2.9954e+001 -3.2833e+001 -1.5782e+001 35914 101949,102053,101975
 1.7000e+000 102151 -1.5425e+001 -4.7605e+001 -5.0629e+000 35914 101949,102079,102053
 1.7000e+000 102128  5.6926e+000 -4.5110e+001 -2.7611e+000 35914 101975,102053,102027
 1.7000e+000 102105  8.0767e+000 -3.1885e+001 -2.5467e+000 35914 101975,102027,102001
 1.7000e+000 102631  3.2661e+001 -7.2243e+001 -8.5387e-001 35574 102383,102513,102487
 1.7000e+000 102608  4.1189e+001 -7.5939e+001 -8.8324e-001 35574 102357,102513,102383
 1.7000e+000 102585  1.9637e+000 -8.1833e+001  5.1648e+000 35574 102409,102487,102435
 1.7000e+000 102562  1.2697e+001 -8.2737e+001  4.0305e+000 35574 102383,102487,102409
 1.7000e+000 102539 -5.2329e+000 -9.4974e+001  2.1373e+000 35574 102435,102487,102461
 1.7000e+000 103009 -2.9024e+001 -6.4940e+001 -8.1346e+000 35170 102761,102865,102787
 1.7000e+000 102986 -1.6630e+001 -5.7058e+001  8.0779e+000 35170 102761,102891,102865
 1.7000e+000 102963 -1.8950e+001 -5.9678e+001 -1.1159e+000 35170 102787,102865,102813
 1.7000e+000 102940  2.7433e+001 -6.0150e+001  1.1449e+001 35170 102735,102891,102761
 1.7000e+000 102917 -1.6498e+001 -6.0952e+001 -2.2534e+001 35170 102813,102865,102839
 1.7000e+000 103257  2.3406e+001 -6.1374e+001 -1.1473e+001 34659 103280,103058,103032
 1.7000e+000 103234  1.4480e+001 -6.4089e+001  1.7828e-001 34659 103280,103032,103162
 1.7000e+000 103211 -5.3899e+000 -4.6319e+001 -1.8691e+000 34659 103084,103162,103110
 1.7000e+000 103188 -2.1522e+001 -7.9253e+001  3.5467e+000 34659 103110,103162,103136
 1.7000e+000 103306  5.2626e+000 -5.8143e+001 -1.0676e+001 34659 103084,103058,103280
 1.7000e+000 103329  1.3956e+000 -5.9660e+001  2.5587e+000 34659 103084,103280,103162
 1.7000e+000 103837  1.9666e+001 -7.7403e+001  6.2255e+000 34247 103860,103566,103540
 1.7000e+000 103814 -3.3332e+000 -8.3681e+001  1.8185e-001 34247 103932,103860,103540
 1.7000e+000 103791 -5.8176e+000 -9.4336e+001 -8.9575e+000 34247 103932,103540,103670
 1.7000e+000 103768  1.3861e+001 -8.3891e+001 -1.2878e-001 34247 103566,103618,103592
 1.7000e+000 103745 -2.5541e+001 -8.9131e+001 -1.2211e+001 34247 103540,103696,103670
 1.7000e+000 103722 -3.7697e+001 -9.4351e+001  2.2005e+001 34247 103514,103696,103540
 1.7000e+000 103886 -2.6835e+000 -9.1881e+001 -2.5364e+000 34247 103618,103566,103860
 1.7000e+000 103909  8.2535e+000 -8.7459e+001 -4.0592e+000 34247 103618,103860,103644
 1.7000e+000 103958 -7.6802e+000 -1.0777e+002 -1.1386e+001 34247 103644,103860,103932
 1.7000e+000 103981 -1.1741e+001 -1.1853e+002 -2.1092e+001 34247 103644,103932,103670
 1.7000e+000 104300 -4.6417e+001 -9.4501e+001 -5.1458e+000 33843 104052,104182,104156
 1.7000e+000 104277 -5.8621e+001 -8.3099e+001 -2.9119e-001 33843 104026,104182,104052
 1.7000e+000 104254 -4.4972e+001 -1.0488e+002  4.5531e+000 33843 104078,104156,104130
 1.7000e+000 104231 -6.2088e+001 -1.0486e+002 -6.5953e-001 33843 104052,104156,104078
 1.7000e+000 104208 -6.4820e+001 -1.0632e+002  2.6632e+000 33843 104078,104130,104104
 1.7000e+000 104499  3.1887e+000 -8.9475e+001 -6.8165e+000 33282 104594,104522,104375
 1.7000e+000 104476  4.9920e+000 -8.1857e+001  3.4976e+000 33282 104522,104323,104427
 1.7000e+000 104453  1.0611e+001 -9.7634e+001 -5.2385e+000 33282 104594,104375,104349
 1.7000e+000 104548  1.4324e+001 -6.7779e+001 -1.0788e+001 33282 104401,104375,104522
 1.7000e+000 104571  8.6568e+000 -7.4913e+001  1.6649e+000 33282 104401,104522,104427
 1.7000e+000 104620  9.8682e+000 -7.3151e+001 -2.5303e+000 33282 104323,104522,104594
 1.7000e+000 104643  1.3782e+001 -8.5211e+001 -2.4622e+000 33282 104323,104594,104349
 1.7000e+000 104942 -1.1673e+001 -8.5760e+001  1.4328e+001 32728 104694,104772,104720
 1.7000e+000 104919 -2.2641e+001 -8.6006e+001  8.4197e+000 32728 104694,104824,104772
 1.7000e+000 104896 -2.0246e+001 -9.5352e+001  1.0557e+001 32728 104720,104772,104746
 1.7000e+000 104873 -1.2169e+001 -9.8537e+001  8.4258e+000 32728 104772,104824,104798
 1.7000e+000 104850 -2.2088e+001 -8.9344e+001  6.2360e+000 32728 104668,104824,104694
 1.7000e+000 105373 -3.8920e+001 -1.0839e+002 -6.5639e+000 32274 105396,105102,105076
 1.7000e+000 105350 -3.3200e+001 -1.2229e+002 -3.7506e+000 32274 105396,105076,105206
 1.7000e+000 105327 -4.0963e+001 -1.3061e+002  1.1662e+001 32274 105154,105206,105180
 1.7000e+000 105304 -2.3536e+001 -1.2318e+002 -1.4311e+001 32274 105076,105232,105206
 1.7000e+000 105281 -4.1074e+001 -9.6410e+001 -1.5203e+001 32274 105102,105154,105128
 1.7000e+000 105258 -7.7631e+001 -1.1924e+002 -2.8386e+001 32274 105050,105232,105076
 1.7000e+000 105422 -3.7570e+001 -9.4535e+001 -3.9849e+000 32274 105154,105102,105396
 1.7000e+000 105445 -3.3397e+001 -1.1028e+002 -2.3881e+000 32274 105154,105396,105206
 1.7000e+000 105644 -2.6168e+001 -9.7828e+001  7.3179e-001 31620 105468,105546,105520
 1.7000e+000 105621  7.8730e+000 -1.1512e+002 -1.5711e+001 31620 105468,105572,105546
 1.7000e+000 105598 -3.3956e+001 -1.2074e+002  3.8859e+000 31620 105468,105520,105494
 1.7000e+000 105794 -1.5883e+001 -1.0111e+002 -1.9446e+000 31158 105889,105817,105693
 1.7000e+000 105771 -1.9798e+001 -9.6492e+001 -4.8195e+000 31158 105817,105667,105745
 1.7000e+000 105843 -1.7568e+001 -1.1537e+002 -3.3577e-001 31158 105719,105693,105817
 1.7000e+000 105866 -1.1562e+001 -1.0499e+002 -3.4344e+000 31158 105719,105817,105745
 1.7000e+000 105915 -2.5873e+001 -1.0539e+002 -2.0557e+000 31158 105667,105817,105889
 1.7000e+000 106270 -3.9363e+001 -9.4756e+001  1.6214e+000 30818 106293,106071,106045
 1.7000e+000 106247 -4.3636e+001 -1.0392e+002 -9.5893e+000 30818 106293,106045,106175
 1.7000e+000 106224 -1.5941e+001 -8.9683e+001  3.3459e+000 30818 106123,106175,106149
 1.7000e+000 106201 -4.3385e+001 -9.4330e+001  4.3267e+000 30818 106071,106123,106097
 1.7000e+000 106319 -3.3774e+001 -9.0945e+001  3.4762e+000 30818 106123,106071,106293
 1.7000e+000 106342 -3.0725e+001 -9.5441e+001 -5.9287e+000 30818 106123,106293,106175
 1.7000e+000 106492  2.1840e+001 -1.0080e+002  2.8941e+001 30414 106645,106391,106365
 1.7000e+000 106469 -8.8087e+000 -9.0744e+001  2.5028e+001 30414 106515,106365,106443
 1.7000e+000 106541  1.6820e+000 -8.6096e+001  2.0812e+001 30414 106645,106365,106515
 1.7000e+000 106671  1.3276e+000 -1.2365e+002  1.8597e+001 30414 106417,106391,106645
 1.7000e+000 106694 -2.1428e+001 -1.0470e+002  1.2168e+001 30414 106417,106645,106515
 1.7000e+000 106942  8.7592e+000 -1.1164e+002 -2.7548e+000 29910 106965,106795,106769
 1.7000e+000 106919  2.1391e+000 -9.9997e+001 -5.9352e-001 29910 106965,106769,106717
 1.7000e+000 106896  2.2595e+001 -7.0964e+001 -4.2156e+000 29910 106795,106847,106821
 1.7000e+000 106873  7.7351e+000 -8.8654e+001  1.9025e+000 29910 106717,106769,106743
 1.7000e+000 106991  9.1282e+000 -1.0227e+002 -3.4272e+000 29910 106847,106795,106965
 1.7000e+000 107014  6.0676e+000 -8.5872e+001 -2.3941e+000 29910 106847,106965,106717
 1.7000e+000 107213 -2.2362e+001 -1.0489e+002  9.5583e+000 29413 107236,107063,107037
 1.7000e+000 107190 -2.9562e+001 -1.2270e+002  1.6563e+001 29413 107236,107037,107141
 1.7000e+000 107167 -2.9327e+001 -6.7480e+001  1.7661e+001 29413 107063,107115,107089
 1.7000e+000 107262 -2.5929e+001 -9.0631e+001  2.2465e+000 29413 107115,107063,107236
 1.7000e+000 107285 -3.0745e+001 -1.0463e+002  9.2591e+000 29413 107115,107236,107141
 1.7000e+000 107486 -1.7591e+001 -8.9500e+001  6.1282e+000 29009 107336,107388,107362
 1.7000e+000 107463 -1.7741e+001 -8.9806e+001  9.0026e+000 29009 107310,107388,107336
 1.7000e+000 107440 -1.7478e+001 -7.9101e+001  7.8614e+000 29009 107310,107414,107388
 1.7000e+000 107736 -2.8474e+000 -8.5956e+001  1.0279e+000 28491 107537,107615,107563
 1.7000e+000 107713 -5.3079e+000 -8.8035e+001 -3.7259e+000 28491 107537,107641,107615
 1.7000e+000 107690 -3.8402e+000 -8.3789e+001  9.5353e-001 28491 107563,107615,107589
 1.7000e+000 107667 -9.4618e+000 -7.3655e+001 -2.4679e+000 28491 107511,107641,107537
 1.7000e+000 108118  1.9351e-001 -8.1938e+001  2.9652e+000 27980 108141,107922,107844
 1.7000e+000 108095  6.3671e+000 -8.8725e+001  2.1339e+000 27980 108141,107844,108000
 1.7000e+000 108072  2.5524e+000 -7.7103e+001 -8.7264e-001 27980 107844,107922,107870
 1.7000e+000 108049  2.5901e+000 -7.5971e+001 -7.6944e-001 27980 107870,107922,107896
 1.7000e+000 108026 -9.3889e+000 -7.1706e+001  1.5846e+001 27980 107922,107974,107948
 1.7000e+000 108167  5.1774e+000 -8.4394e+001  5.3707e+000 27980 107974,107922,108141
 1.7000e+000 108190  2.1422e+001 -8.2529e+001  6.5658e+000 27980 107974,108141,108000
 1.7000e+000 108745 -6.5233e-001 -6.2101e+001  5.8838e+000 27376 108840,108768,108477
 1.7000e+000 108722 -7.5098e+000 -7.2008e+001  1.7624e+000 27376 108768,108373,108581
 1.7000e+000 108699 -2.0879e-001 -5.4097e+001  9.1609e+000 27376 108840,108477,108451
 1.7000e+000 108676 -2.5095e+001 -5.5033e+001 -1.8569e+001 27376 108373,108451,108399
 1.7000e+000 108653 -2.0457e+001 -8.6975e+001  6.9859e+000 27376 108503,108581,108529
 1.7000e+000 108630 -1.3380e+001 -8.8618e+001  5.1767e+000 27376 108529,108581,108555
 1.7000e+000 108607 -3.9280e+001 -7.0718e+001 -2.0079e+000 27376 108399,108451,108425
 1.7000e+000 108794 -6.4018e+000 -7.2732e+001  3.4806e+000 27376 108503,108477,108768
 1.7000e+000 108817 -7.4578e+000 -6.7036e+001  7.4709e-001 27376 108503,108768,108581
 1.7000e+000 108866 -4.9895e+000 -7.0135e+001  6.5788e-001 27376 108373,108768,108840
 1.7000e+000 108889 -3.7291e+000 -6.4784e+001  4.9093e+000 27376 108373,108840,108451
 1.7000e+000 109186 -2.0007e+001 -8.9844e+001  7.2656e+000 26722 109209,108938,108912
 1.7000e+000 109163 -1.9542e+001 -8.9430e+001  9.4951e+000 26722 109281,109209,108912
 1.7000e+000 109140 -1.8080e+001 -8.8164e+001  8.8192e+000 26722 109281,108912,109042
 1.7000e+000 109117 -2.2634e+001 -9.6097e+001  6.4918e+000 26722 108938,108990,108964
 1.7000e+000 109094 -1.7235e+001 -8.9823e+001  9.4869e+000 26722 108912,109068,109042
 1.7000e+000 109235 -2.1906e+001 -9.0805e+001  7.5929e+000 26722 108990,108938,109209
 1.7000e+000 109258 -1.9092e+001 -9.6244e+001  8.9710e+000 26722 108990,109209,109016
 1.7000e+000 109307 -1.5947e+001 -9.1490e+001  6.5943e+000 26722 109016,109209,109281
 1.7000e+000 109330 -1.3608e+001 -8.8991e+001  5.5765e+000 26722 109016,109281,109042
 1.7000e+000 109732 -2.9759e+001 -7.4367e+001 -4.3331e-001 26310 109458,109588,109484
 1.7000e+000 109709 -2.4335e+001 -7.2819e+001 -6.5390e+000 26310 109458,109614,109588
 1.7000e+000 109686 -4.2846e+001 -8.2311e+001  1.1882e+001 26310 109510,109562,109536
 1.7000e+000 109663 -4.3664e+001 -7.8484e+001  5.2939e+000 26310 109484,109562,109510
 1.7000e+000 109640 -2.8695e+001 -7.3952e+001 -4.2068e-001 26310 109484,109588,109562
 1.7000e+000 110159 -2.9170e+001 -8.0774e+001  2.7930e+000 25642 110182,109940,109914
 1.7000e+000 110136 -2.9435e+001 -8.5989e+001  6.4161e+000 25642 110182,109914,109888
 1.7000e+000 110113 -2.7521e+001 -9.6010e+001 -1.1529e+001 25642 109966,110018,109992
 1.7000e+000 110090 -2.9233e+001 -9.2048e+001  7.7587e+000 25642 110254,109966,109940
 1.7000e+000 110067 -2.6043e+001 -8.4451e+001  7.2856e+000 25642 109862,110018,109888
 1.7000e+000 110044 -4.1551e+001 -8.2029e+001  9.2077e+000 25642 109836,110018,109862
 1.7000e+000 110208 -3.0727e+001 -8.3104e+001  6.0521e+000 25642 110254,109940,110182
 1.7000e+000 110231 -2.9400e+001 -8.7712e+001  5.3441e+000 25642 110018,110182,109888
 1.7000e+000 110280 -2.7830e+001 -1.0258e+002  5.7170e+000 25642 110018,109966,110254
 1.7000e+000 110303 -3.1035e+001 -9.5794e+001  4.1286e+000 25642 110018,110254,110182
 1.7000e+000 110632 -3.8197e+001 -8.1357e+001  3.0604e+000 25188 110407,110485,110433
 1.7000e+000 110609 -4.0652e+001 -7.5059e+001  2.8282e+000 25188 110407,110537,110485
 1.7000e+000 110586 -4.0514e+001 -8.3527e+001 -1.3071e+001 25188 110433,110485,110459
 1.7000e+000 110563 -3.7912e+001 -8.3774e+001  1.6958e+001 25188 110485,110537,110511
 1.7000e+000 110831 -1.0336e+001 -8.4001e+001  2.1484e+000 24726 110854,110707,110655
 1.7000e+000 110808 -1.1410e+001 -8.3200e+001  1.1983e+000 24726 110854,110655,110759
 1.7000e+000 110785 -1.2871e+001 -8.2736e+001  4.3986e+000 24726 110655,110707,110681
 1.7000e+000 110880 -1.1100e+001 -8.4747e+001  1.6373e+000 24726 110733,110707,110854
 1.7000e+000 110903 -1.2373e+001 -8.4408e+001  5.9250e-001 24726 110733,110854,110759
 1.7000e+000 111234  1.5735e+001 -5.3432e+001 -3.8036e+000 24222 111257,111087,111035
 1.7000e+000 111211  3.4177e+001 -4.5339e+001  3.7914e+000 24222 111257,111035,111009
 1.7000e+000 111188  3.2031e+001 -3.0757e+001 -1.3557e+001 24222 111035,111087,111061
 1.7000e+000 111165  8.9850e+000 -3.9243e+001  6.0426e+000 24222 111087,111139,111113
 1.7000e+000 111283  5.7143e+000 -4.0696e+001  3.1568e+000 24222 111139,111087,111257
 1.7000e+000 111306  1.3321e+001 -3.2928e+001  7.9946e+000 24222 111139,111257,111009
 1.7000e+000 111625 -1.3046e+001 -8.4988e+001 -5.9590e+000 23732 111648,111481,111455
 1.7000e+000 111602 -1.4193e+001 -8.6550e+001 -5.4419e+000 23732 111648,111455,111377
 1.7000e+000 111579  4.8450e+000 -5.3632e+001  8.9084e+000 23732 111377,111429,111403
 1.7000e+000 111556 -7.9918e+000 -8.7744e+001 -2.6431e+000 23732 111377,111455,111429
 1.7000e+000 111533 -1.3359e+001 -8.0849e+001 -2.3579e+000 23732 111351,111507,111377
 1.7000e+000 111674 -1.4421e+001 -8.2727e+001 -4.2500e+000 23732 111507,111481,111648
 1.7000e+000 111697 -1.5761e+001 -8.5658e+001 -3.6791e+000 23732 111507,111648,111377
 1.7000e+000 112156 -3.9069e+000 -8.0756e+001 -1.6369e+000 23278 112179,111908,111882
 1.7000e+000 112133 -2.0704e+000 -7.8515e+001  4.3160e-001 23278 112179,111882,112012
 1.7000e+000 112110 -4.3372e+000 -9.6245e+001 -7.9379e-001 23278 111908,111960,111934
 1.7000e+000 112087  8.9044e+000 -8.0935e+001 -3.1560e+000 23278 111882,112038,112012
 1.7000e+000 112064 -4.3048e+000 -7.4867e+001 -2.6988e-001 23278 111960,112012,111986
 1.7000e+000 112205 -5.6939e+000 -8.0524e+001 -3.5487e+000 23278 111960,111908,112179
 1.7000e+000 112228 -4.9897e+000 -7.8771e+001 -1.5136e+000 23278 111960,112179,112012
 1.7000e+000 112685 -5.3139e+001 -1.3704e+002 -1.2686e+001 22938 112489,112567,112541
 1.7000e+000 112662 -4.4496e+001 -1.1460e+002 -1.4565e+001 22938 112437,112567,112489
 1.7000e+000 112639 -3.0631e+001 -1.0334e+002 -1.8911e+000 22938 112489,112541,112515
 1.7000e+000 112616 -5.2792e+001 -1.0725e+002 -1.2525e+001 22938 112411,112567,112437
 1.7000e+000 112593 -4.5362e+001 -1.4252e+002 -6.1517e+000 22938 112437,112489,112463
 1.7000e+000 113191  2.4270e+001 -8.0477e+001 -1.2377e+001 22534 113214,112998,112946
 1.7000e+000 113168  1.2321e+000 -7.4372e+001 -2.6029e+000 22534 113286,113214,112946
 1.7000e+000 113145  3.0252e+000 -7.2945e+001 -3.3198e+000 22534 113286,112946,112920
 1.7000e+000 113122 -2.2601e+001 -7.5259e+001 -1.4214e+001 22534 113358,113024,112998
 1.7000e+000 113099 -7.5775e+000 -8.3675e+001 -4.6282e+000 22534 112868,113050,112894
 1.7000e+000 113076 -2.5136e+001 -1.6784e+002 -3.5573e+001 22534 112946,112998,112972
 1.7000e+000 113240 -1.2434e+001 -8.9778e+001 -1.5815e+001 22534 113358,112998,113214
 1.7000e+000 113263 -8.0059e-002 -8.1355e+001 -2.3547e+000 22534 113050,113214,112894
 1.7000e+000 113312  5.4615e+000 -7.8941e+001 -2.7109e+000 22534 112894,113214,113286
 1.7000e+000 113335  9.0465e+000 -7.5747e+001 -4.1109e+000 22534 112894,113286,112920
 1.7000e+000 113384 -9.9566e+000 -6.7285e+001 -7.6924e+000 22534 113050,113024,113358
 1.7000e+000 113407  6.2890e+000 -7.7057e+001 -8.3624e+000 22534 113050,113358,113214
 1.7000e+000 113785 -4.3814e+001 -1.1687e+002  7.7925e+000 21978 113808,113615,113511
 1.7000e+000 113762 -3.6326e+001 -1.1953e+002  1.3954e+001 21978 113808,113511,113667
 1.7000e+000 113739 -1.8458e+001 -9.4596e+001 -2.4026e+000 21978 113511,113615,113537
 1.7000e+000 113716  1.3753e+001 -8.4467e+001 -5.1693e+000 21978 113537,113615,113589
 1.7000e+000 113693 -4.1960e-001 -1.1975e+002  2.9936e+000 21978 113537,113589,113563
 1.7000e+000 113834 -4.4526e+001 -1.1554e+002  1.7090e+001 21978 113641,113615,113808
 1.7000e+000 113857 -2.4383e+001 -1.0803e+002  2.4403e+001 21978 113641,113808,113667
 1.7000e+000 114284 -3.2414e+001 -8.7875e+001  2.1985e+000 21517 114013,114117,114039
 1.7000e+000 114261 -3.3085e+001 -8.6726e+001  5.6935e+000 21517 113961,114117,114013
 1.7000e+000 114238 -3.2824e+001 -9.9621e+001  4.1329e+000 21517 113961,114013,113987
 1.7000e+000 114215 -5.0249e+001 -9.7329e+001 -6.5092e+000 21517 114039,114117,114091
 1.7000e+000 114192 -3.6944e+001 -7.6961e+001  8.5909e+000 21517 113961,114143,114117
 1.7000e+000 114169  7.3108e+000 -7.5331e+001 -4.9956e+000 21517 114039,114091,114065
 1.7000e+000 114581 -1.4620e+001 -1.1128e+002  8.5645e-001 21027 114359,114463,114437
 1.7000e+000 114558 -1.2876e+001 -1.0409e+002  1.2056e+001 21027 114333,114463,114359
 1.7000e+000 114535 -9.4974e+000 -1.0480e+002 -1.4464e+000 21027 114359,114437,114385
 1.7000e+000 114512 -4.2594e+000 -1.0186e+002  7.4980e+000 21027 114307,114463,114333
 1.7000e+000 114489  7.0137e+000 -9.4086e+001 -6.0607e+000 21027 114385,114437,114411
 1.7000e+000 114912 -3.4143e+001 -9.2560e+001  1.5353e+000 20623 114713,114791,114765
 1.7000e+000 114889 -5.5833e+000 -8.0591e+001 -1.0290e+001 20623 114687,114791,114713
 1.7000e+000 114866 -2.8062e+001 -1.1061e+002 -1.5152e-001 20623 114687,114817,114791
 1.7000e+000 114843 -4.7232e+001 -1.0813e+002  7.1848e+000 20623 114713,114765,114739
 1.7000e+000 115290 -8.3256e+000 -7.8872e+001  4.0813e+000 20375 115313,115146,115094
 1.7000e+000 115267 -1.0992e+001 -7.9283e+001  5.4252e+000 20375 115313,115094,115042
 1.7000e+000 115244 -1.0633e+001 -7.5295e+001  3.6670e+000 20375 115385,115016,115172
 1.7000e+000 115221  2.1735e+001 -6.8146e+001  5.6062e+000 20375 115042,115094,115068
 1.7000e+000 115198 -1.4373e+001 -9.4029e+001  4.4914e+000 20375 115094,115146,115120
 1.7000e+000 115339 -1.6779e+001 -8.7441e+001 -2.0138e-001 20375 115172,115146,115313
 1.7000e+000 115362 -1.0495e+001 -7.7058e+001  3.1939e+000 20375 115385,115172,115313
 1.7000e+000 115411 -9.1279e+000 -7.6590e+001  5.5172e+000 20375 115042,115016,115385
 1.7000e+000 115434 -9.7877e+000 -7.9315e+001  5.2327e+000 20375 115042,115385,115313
 1.7000e+000 115891 -3.1917e+001 -8.3139e+001  1.1700e+001 19971 115617,115747,115643
 1.7000e+000 115868 -2.3288e+001 -6.2514e+001  1.1532e+001 19971 115617,115773,115747
 1.7000e+000 115845 -1.4954e+001 -1.1635e+002  5.0347e+000 19971 115643,115721,115695
 1.7000e+000 115822  1.2197e+001 -5.6618e+001 -1.1267e+000 19971 115643,115747,115721
 1.7000e+000 115799  2.0117e+001 -1.2532e+002 -5.3593e-001 19971 115643,115695,115669
 1.7000e+000 115992 -1.9774e+001 -1.5269e+002 -4.5790e+001 19659 115914,115966,115940
 1.7000e+000 116142  6.3070e-003 -2.3221e+001  3.2436e-002 18997 116041,116093,116067
 1.7000e+000 116119 -1.1779e+001 -5.4016e+001  4.0235e+000 18997 116015,116093,116041
 1.7000e+000 116343 -6.5917e+000 -9.4269e+001 -3.2154e+000 18707 116193,116245,116219
 1.7000e+000 116320 -1.1779e+001 -9.8500e+001 -6.2241e+000 18707 116193,116271,116245
 1.7000e+000 116297  1.4544e-001 -7.2251e+001 -3.5364e+000 18707 116167,116271,116193
 1.7000e+000 116747 -2.5535e+000 -8.1646e+001 -1.7043e+000 18301 116525,116629,116551
 1.7000e+000 116724 -4.3061e+000 -6.8724e+001 -9.9386e-002 18301 116473,116629,116525
 1.7000e+000 116701 -3.2616e+000 -7.0401e+001 -4.9474e+000 18301 116473,116525,116499
 1.7000e+000 116678  1.6138e+000 -8.5541e+001 -1.3925e+000 18301 116551,116603,116577
 1.7000e+000 116655 -5.8468e+000 -8.9399e+001 -3.2668e+000 18301 116551,116629,116603
 1.7000e+000 117147 -4.2781e+001 -1.1037e+002 -1.6108e+000 17747 116899,117029,116925
 1.7000e+000 117124 -2.2743e+001 -8.1963e+001  9.2437e+000 17747 116873,117029,116899
 1.7000e+000 117101 -4.0977e+001 -1.0790e+002 -8.1054e-001 17747 116925,117029,116951
 1.7000e+000 117078 -3.6410e+001 -9.4422e+001  7.7268e-001 17747 116951,117029,117003
 1.7000e+000 117055 -5.3734e+001 -1.2139e+002 -7.4958e+000 17747 116951,117003,116977
 1.7000e+000 117368  2.8265e+001 -9.4195e+001  1.4608e-001 17293 117244,117296,117270
 1.7000e+000 117345  1.2963e+001 -9.2146e+001 -3.0333e+000 17293 117192,117296,117244
 1.7000e+000 117322 -3.8433e+000 -8.8320e+001 -1.1550e+000 17293 117192,117244,117218
 1.7000e+000 117699  3.5209e+000 -6.6965e+001 -9.8568e+000 16896 117526,117604,117552
 1.7000e+000 117676 -3.9682e+001 -1.0989e+002  7.3992e+000 16896 117500,117604,117526
 1.7000e+000 117653 -4.3416e+001 -8.5430e+001 -4.4099e+000 16896 117552,117604,117578
 1.7000e+000 117630 -2.8727e+001 -1.4290e+002  1.6403e+001 16896 117474,117604,117500
 1.7000e+000 117849 -1.0640e+002 -2.0785e+002 -7.9890e+000 16534 117722,117774,117748
 1.7000e+000 117826 -8.3476e+001 -2.5247e+002 -3.4692e+001 16534 117722,117800,117774
 1.7000e+000 118070 -4.8154e+000 -8.8685e+001  9.8575e+000 16194 117946,117998,117972
 1.7000e+000 118047 -1.4765e+001 -1.0536e+002  5.6514e+000 16194 117894,117998,117946
 1.7000e+000 118024 -2.1561e+001 -9.6374e+001 -1.7811e+000 16194 117894,117946,117920
 1.7000e+000 118173 -1.1105e+001 -1.0706e+002  0.0000e+000 15968 118095,118147,118121
 1.7000e+000 118276 -2.6893e+001 -9.5219e+001  1.6641e+000 15433 118299,118198,118250
 1.7000e+000 118325 -2.8773e+001 -9.9606e+001  1.7073e+000 15433 118224,118198,118299
 1.7000e+000 118450 -3.3613e+001 -1.0894e+002  2.4250e+001 421 118372,118424,118398
 1.8000e+000 69891 -1.2393e+001 -1.3244e+002  9.9877e-001 68988 69447,69681,69629
 1.8000e+000 69868  5.9201e+001 -1.0342e+002  9.6279e+000 68988 69421,69681,69447
 1.8000e+000 69845  1.1800e+001 -6.2686e+001 -3.6904e+000 68988 69447,69629,69577
 1.8000e+000 69822 -3.2355e+001 -1.4505e+002 -2.1669e+001 68988 69447,69577,69473
 1.8000e+000 69799  3.7069e+001 -1.4730e+002  4.6461e+001 68988 69629,69681,69655
 1.8000e+000 69776 -3.4082e+001 -8.3241e+001  2.0950e+000 68988 69577,69629,69603
 1.8000e+000 69753 -2.5211e+001 -1.2972e+002 -2.3549e+001 68988 69473,69577,69551
 1.8000e+000 69730 -4.7788e+001 -2.8472e+002 -3.1631e+001 68988 69473,69551,69525
 1.8000e+000 69707 -8.4984e+001 -1.7581e+002  1.5817e-001 68988 69473,69525,69499
 1.8000e+000 69992 -7.0075e+001 -1.5070e+002 -3.4237e+001 68676 69914,69966,69940
 1.8000e+000 70392 -4.3554e+001 -1.1599e+002  1.0770e+001 68478 70118,70248,70144
 1.8000e+000 70369  3.2897e+001 -1.1779e+002  3.2497e+001 68478 70118,70274,70248
 1.8000e+000 70346 -2.6965e+001 -8.0678e+001 -6.5067e-001 68478 70144,70222,70196
 1.8000e+000 70323 -2.0960e+001 -6.6414e+001 -1.0333e+000 68478 70144,70248,70222
 1.8000e+000 70300 -3.1562e+001 -9.1166e+001 -2.8394e+000 68478 70144,70196,70170
 1.8000e+000 70841  6.3892e+001 -6.2594e+001 -3.0522e+001 68280 70570,70622,70596
 1.8000e+000 70818 -1.9438e+001 -7.5650e+001 -7.3693e+000 68280 70544,70622,70570
 1.8000e+000 70795 -6.2003e+000 -4.5494e+001 -4.9675e+000 68280 70544,70674,70622
 1.8000e+000 70772 -1.0696e+001 -3.3951e+001  3.0782e+000 68280 70622,70674,70648
 1.8000e+000 70749 -2.1498e+001 -8.4801e+001  7.3975e+000 68280 70518,70674,70544
 1.8000e+000 70726  7.2979e+001 -8.6897e+001  3.5625e+001 68280 70518,70700,70674
 1.8000e+000 70991 -4.5943e+000 -4.6247e+002  1.3182e+001 67968 70864,70916,70890
 1.8000e+000 70968 -1.1619e+002 -4.6335e+002  4.7717e+001 67968 70864,70942,70916
 1.8000e+000 71141 -2.2326e+002 -4.5279e+002 -1.7026e+001 67770 71040,71092,71066
 1.8000e+000 71118 -2.0074e+002 -5.3257e+002  2.2058e+001 67770 71014,71092,71040
 1.8000e+000 71651  5.9047e+000 -6.7681e+001 -1.2466e+001 67366 71746,71674,71458
 1.8000e+000 71628  1.0387e+001 -4.7152e+001 -1.7434e+001 67366 71674,71354,71510
 1.8000e+000 71605 -4.4935e+000 -7.9680e+001 -8.0248e+000 67366 71746,71458,71432
 1.8000e+000 71582 -2.3682e+001 -7.2041e+001 -4.0693e+000 67366 71354,71432,71380
 1.8000e+000 71559 -2.3000e+001 -5.0041e+001 -1.4622e+001 67366 71380,71432,71406
 1.8000e+000 71536  2.6146e+000  2.9131e+000 -2.8073e-001 67366 71328,71510,71354
 1.8000e+000 71700  1.4040e+001 -5.2793e+001 -1.5833e+001 67366 71484,71458,71674
 1.8000e+000 71723  5.8058e+000 -5.4227e+001 -8.7348e+000 67366 71484,71674,71510
 1.8000e+000 71772 -7.2896e+000 -5.3541e+001 -1.6603e+001 67366 71354,71674,71746
 1.8000e+000 71795 -1.0036e+001 -5.8846e+001 -1.5222e+001 67366 71354,71746,71432
 1.8000e+000 71896 -8.3853e+001 -1.7343e+002  0.0000e+000 67146 71818,71870,71844
 1.8000e+000 71997 -6.2507e+001 -1.1913e+002  2.2495e+001 66948 71919,71971,71945
 1.8000e+000 72149  2.5765e+000 -8.3161e+001 -1.4300e+001 66700 72172,72074,72048
 1.8000e+000 72126 -2.7138e+001 -9.9282e+001 -6.1194e+000 66700 72172,72048,72022
 1.8000e+000 72198 -4.7043e+001 -1.0169e+002  4.1224e+000 66700 72244,72172,72100
 1.8000e+000 72221 -4.2103e+001 -9.3621e+001 -6.8354e+000 66700 72100,72172,72022
 1.8000e+000 72270 -2.3817e+001 -5.0519e+001 -1.0959e+001 66700 72074,72172,72244
 1.8000e+000 72623 -2.9918e+001 -8.9586e+001  3.9273e+000 66502 72424,72502,72450
 1.8000e+000 72600 -2.3363e+001 -7.1299e+001  2.6808e+000 66502 72398,72502,72424
 1.8000e+000 72577 -1.6542e+001 -8.2534e+001 -7.2563e-001 66502 72398,72528,72502
 1.8000e+000 72554 -2.7804e+001 -7.8277e+001  3.6256e-001 66502 72450,72502,72476
 1.8000e+000 72920 -5.3857e+001 -1.2274e+002  2.3315e+000 65941 72672,72776,72750
 1.8000e+000 72897 -5.1767e+001 -9.9512e+001  1.3936e+001 65941 72646,72776,72672
 1.8000e+000 72874 -4.1262e+001 -1.2108e+002  6.6497e+000 65941 72672,72750,72724
 1.8000e+000 72851 -5.2065e+001 -9.6163e+001  1.8763e+001 65941 72672,72724,72698
 1.8000e+000 72828 -3.7584e+001 -9.0663e+001  9.9350e+000 65941 72646,72802,72776
 1.8000e+000 73241  1.7853e+001 -7.4784e+001  1.2885e+001 65743 73264,73071,73045
 1.8000e+000 73218 -1.3091e+001 -8.8477e+001  1.5832e+001 65743 73480,73264,73045
 1.8000e+000 73195 -1.0025e+001 -7.2245e+001  5.6389e-001 65743 73336,72967,73097
 1.8000e+000 73172 -4.0534e+001 -6.4234e+001 -7.6095e+000 65743 73408,72993,72967
 1.8000e+000 73149 -1.0615e+001 -7.5340e+001 -7.9489e-001 65743 72967,73123,73097
 1.8000e+000 73290  7.4350e-001 -8.3622e+001  4.0169e+000 65743 73097,73071,73264
 1.8000e+000 73313 -5.3399e+000 -7.0291e+001  7.7522e+000 65743 73336,73097,73264
 1.8000e+000 73362 -3.0986e+001 -7.7769e+001 -3.4947e+000 65743 73408,72967,73336
 1.8000e+000 73385 -8.5039e-002 -6.8508e+001  5.3995e+000 65743 73019,73336,73264
 1.8000e+000 73434 -2.4510e+001 -4.0653e+001  1.1470e+001 65743 73019,72993,73408
 1.8000e+000 73457 -3.9618e-001 -5.7540e+001  9.3240e+000 65743 73019,73408,73336
 1.8000e+000 73506  7.7270e+000 -5.0533e+001  7.7689e+000 65743 73019,73264,73480
 1.8000e+000 73989  1.7608e+001 -5.4785e+001  1.0321e+001 65453 73793,73845,73819
 1.8000e+000 73966 -1.8687e+001 -6.3143e+001  1.2782e+001 65453 73741,73845,73793
 1.8000e+000 73943  8.8617e+000 -4.7418e+001  6.4499e+000 65453 73715,73845,73741
 1.8000e+000 73920 -1.0174e+001 -6.8795e+001  1.9851e+001 65453 73741,73793,73767
 1.8000e+000 73897  1.9423e+001 -1.4566e+001  6.7263e+000 65453 73715,73871,73845
 1.8000e+000 74357 -5.0237e+000 -7.5692e+001 -3.1383e+001 65141 74380,74138,74086
 1.8000e+000 74334 -2.4661e+001 -1.1378e+002 -2.4436e+001 65141 74380,74086,74060
 1.8000e+000 74311 -2.6953e+001 -1.0735e+002 -7.5286e+000 65141 74138,74190,74164
 1.8000e+000 74288 -1.2198e+001 -1.2953e+002 -1.0738e+001 65141 74060,74216,74190
 1.8000e+000 74265 -1.8109e+001 -1.4647e+002  2.9654e-001 65141 74034,74216,74060
 1.8000e+000 74242 -1.5257e+001 -3.5343e+001 -1.3139e+001 65141 74086,74138,74112
 1.8000e+000 74406 -1.4401e+001 -1.0818e+002 -1.3292e+001 65141 74190,74138,74380
 1.8000e+000 74429 -2.1156e+001 -1.2201e+002 -9.3484e+000 65141 74190,74380,74060
 1.8000e+000 74937 -4.0298e+001 -7.9927e+001 -2.1987e+001 64737 74614,74666,74640
 1.8000e+000 74914 -5.1805e+001 -1.0077e+002 -1.5766e+001 64737 74614,74796,74666
 1.8000e+000 74891 -3.7026e+001 -6.8635e+001 -1.6801e+000 64737 74960,74718,74666
 1.8000e+000 74868 -3.2894e+001 -7.6102e+001 -8.7328e+000 64737 74960,74666,74770
 1.8000e+000 74845 -3.3812e+001 -6.1201e+001 -9.2917e+000 64737 74666,74796,74770
 1.8000e+000 74822 -3.5610e+001 -7.5989e+001  2.9525e+000 64737 74666,74718,74692
 1.8000e+000 74986 -3.9552e+001 -7.6335e+001 -2.0850e+000 64737 74744,74718,74960
 1.8000e+000 75009 -3.7706e+001 -8.7684e+001 -9.4037e+000 64737 74744,74960,74770
 1.8000e+000 75306  1.6756e+001 -6.4116e+001  2.4370e+001 64133 75329,75110,75084
 1.8000e+000 75283 -2.1851e+000 -8.7489e+001  1.2185e+001 64133 75401,75329,75084
 1.8000e+000 75260  1.6431e+000 -9.0142e+001  1.4898e+001 64133 75401,75084,75058
 1.8000e+000 75237  2.7909e+000 -9.8151e+001  1.1237e+001 64133 75473,75136,75110
 1.8000e+000 75214 -2.0665e+001 -6.7564e+001  1.1019e+000 64133 75032,75188,75162
 1.8000e+000 75355  4.3641e+000 -9.5891e+001  1.1928e+001 64133 75473,75110,75329
 1.8000e+000 75378 -1.6309e+000 -8.3274e+001  2.0554e+000 64133 75162,75329,75032
 1.8000e+000 75427  8.7083e-001 -7.9790e+001  9.3198e+000 64133 75032,75329,75401
 1.8000e+000 75450 -2.0365e+001 -1.0272e+002  2.1842e+001 64133 75545,75401,75058
 1.8000e+000 75499 -1.4457e+001 -9.4431e+001  7.9158e-001 64133 75162,75136,75473
 1.8000e+000 75522 -4.9541e+000 -8.1022e+001  4.9709e+000 64133 75162,75473,75329
 1.8000e+000 75571  2.5667e+000 -5.2998e+001  1.2058e+001 64133 75032,75401,75545
 1.8000e+000 75851 -2.2930e+001 -7.4467e+001  6.7909e-001 63843 75874,75753,75727
 1.8000e+000 75828 -2.0279e+001 -7.5478e+001 -3.7673e+000 63843 75946,75874,75727
 1.8000e+000 75805 -2.5210e+001 -8.0505e+001 -1.5460e+000 63843 76018,75946,75727
 1.8000e+000 75900 -1.9355e+001 -7.2985e+001 -3.6408e+000 63843 75779,75753,75874
 1.8000e+000 75923 -1.8952e+001 -5.8504e+001 -9.6645e+000 63843 75779,75874,75675
 1.8000e+000 75972 -2.6141e+001 -6.9764e+001 -2.7151e+000 63843 75675,75874,75946
 1.8000e+000 75995 -2.4104e+001 -7.4820e+001 -4.8274e+000 63843 75675,75946,75701
 1.8000e+000 76044 -2.6746e+001 -7.9653e+001 -7.7119e+000 63843 75701,75946,76018
 1.8000e+000 76454  5.4379e+001 -8.7881e+000 -1.1105e+001 63439 76477,76255,76229
 1.8000e+000 76431  3.6901e+001 -1.9372e+001  1.5564e+001 63439 76477,76229,76359
 1.8000e+000 76408  2.6275e+001 -3.5676e+000  2.4054e+001 63439 76307,76359,76333
 1.8000e+000 76385  1.5751e+000 -3.6391e+001 -4.6979e+000 63439 76255,76307,76281
 1.8000e+000 76503  8.9325e+000 -2.7048e+001 -8.2114e+000 63439 76307,76255,76477
 1.8000e+000 76526  2.3949e+001 -2.4298e+001  1.4269e+001 63439 76307,76477,76359
 1.8000e+000 76926 -1.0931e+001 -6.2348e+001  9.6861e-001 63049 76704,76782,76756
 1.8000e+000 76903 -2.0464e+001 -6.3105e+001 -1.2142e+001 63049 76704,76808,76782
 1.8000e+000 76880 -1.1270e+001 -6.1250e+001  8.1235e-001 63049 76704,76756,76730
 1.8000e+000 76857 -1.1124e+001 -3.1762e+001 -2.5649e-001 63049 76678,76808,76704
 1.8000e+000 76834 -7.7872e+000 -9.6866e+000 -8.5954e+000 63049 76652,76808,76678
 1.8000e+000 77076  1.2421e+001 -9.4735e+001 -1.5602e+000 62737 76975,77027,77001
 1.8000e+000 77053  1.7075e+001 -1.0698e+002 -8.3095e+000 62737 76949,77027,76975
 1.8000e+000 77324 -3.7946e+001 -9.7796e+001  3.6679e+000 62277 77347,77177,77125
 1.8000e+000 77301 -3.7132e+001 -9.4668e+001 -7.5157e-001 62277 77347,77125,77229
 1.8000e+000 77278 -3.6744e+001 -9.9177e+001 -3.4907e+000 62277 77099,77229,77125
 1.8000e+000 77255 -4.1136e+001 -1.1529e+002  6.0434e+000 62277 77125,77177,77151
 1.8000e+000 77373 -4.0335e+001 -1.0677e+002  7.3759e+000 62277 77203,77177,77347
 1.8000e+000 77396 -3.4091e+001 -9.8781e+001  2.0229e+000 62277 77203,77347,77229
 1.8000e+000 77857 -1.0523e+001 -1.1895e+002  4.0768e-001 61758 77635,77739,77661
 1.8000e+000 77834 -1.9577e+001 -1.2941e+002 -3.7183e+000 61758 77583,77739,77635
 1.8000e+000 77811 -2.0889e+001 -1.4697e+002 -1.1736e+001 61758 77583,77635,77609
 1.8000e+000 77788  1.2917e+001 -1.2022e+002  1.2408e+001 61758 77661,77713,77687
 1.8000e+000 77765 -1.6427e+001 -1.3842e+002 -1.2748e+000 61758 77661,77739,77713
 1.8000e+000 78491 -3.3904e+001 -7.0932e+001  7.0922e+000 61418 78171,78301,78249
 1.8000e+000 78468 -2.3951e+001 -4.6844e+001  1.6472e+001 61418 78145,78301,78171
 1.8000e+000 78445 -2.7885e+001 -6.3552e+001 -8.6314e-001 61418 78171,78249,78223
 1.8000e+000 78422 -2.3214e+001 -4.5879e+001 -1.0202e+000 61418 78145,78327,78301
 1.8000e+000 78399 -3.3961e+001 -7.3809e+001  4.6739e+000 61418 78249,78301,78275
 1.8000e+000 78376 -1.5664e+001 -7.1884e+001 -2.4923e+000 61418 78171,78223,78197
 1.8000e+000 78353 -3.0695e+001 -6.8418e+001 -7.2761e+000 61418 78119,78327,78145
 1.8000e+000 78690  8.0102e+000 -8.1856e+001 -2.1916e+000 61014 78713,78566,78540
 1.8000e+000 78667  6.8307e+000 -8.1111e+001 -2.5514e+000 61014 78713,78540,78618
 1.8000e+000 78644 -2.8893e+001 -1.0261e+002 -1.6706e+001 61014 78514,78618,78540
 1.8000e+000 78739  1.1798e+001 -8.3921e+001  1.3838e-001 61014 78592,78566,78713
 1.8000e+000 78762 -2.7845e-001 -8.6799e+001 -5.5967e+000 61014 78785,78713,78618
 1.8000e+000 78811  1.9551e+001 -7.8218e+001 -4.7477e+000 61014 78592,78713,78785
 1.8000e+000 79398 -1.8877e+001 -8.4246e+001 -2.2896e+000 60624 79101,79179,79153
 1.8000e+000 79375 -1.8191e+000 -8.2617e+001 -3.2379e+000 60624 79101,79231,79179
 1.8000e+000 79352 -1.5092e+001 -9.2013e+001 -9.5631e+000 60624 79075,79231,79101
 1.8000e+000 79329  2.8780e+001 -1.0542e+002  1.2591e+001 60624 79075,79257,79231
 1.8000e+000 79306  5.2663e+000 -6.7379e+001 -1.0371e+000 60624 79179,79231,79205
 1.8000e+000 79283 -1.5815e+001 -7.9362e+001  1.1143e+001 60624 79101,79153,79127
 1.8000e+000 79776 -3.4779e+001 -1.0499e+002  1.1077e+001 60070 79528,79658,79606
 1.8000e+000 79753 -3.2591e+001 -8.4195e+001 -6.7254e-001 60070 79502,79658,79528
 1.8000e+000 79730 -4.5339e+001 -1.0188e+002  1.5363e+001 60070 79528,79606,79580
 1.8000e+000 79707 -5.6324e+000 -9.6079e+001  4.7835e+000 60070 79606,79658,79632
 1.8000e+000 79684 -3.3743e+000 -6.2029e+001 -1.6880e+001 60070 79528,79580,79554
 1.8000e+000 80105 -2.4517e+001 -8.5424e+001  1.1340e+001 59758 80128,79958,79906
 1.8000e+000 80082 -2.5111e+001 -7.7384e+001  7.2591e+000 59758 80128,79906,80010
 1.8000e+000 80059 -3.7324e+001 -9.1182e+001  2.9949e+001 59758 79906,79958,79932
 1.8000e+000 80036 -3.9759e+001 -8.2528e+001  5.1485e+000 59758 79880,80010,79906
 1.8000e+000 80154 -2.4913e+001 -9.0618e+001  1.2116e+001 59758 79984,79958,80128
 1.8000e+000 80177 -2.7086e+001 -8.4637e+001  8.2010e+000 59758 79984,80128,80010
 1.8000e+000 80376 -2.5129e+001 -9.0315e+001 -2.2863e-001 59312 80226,80304,80252
 1.8000e+000 80353 -1.6754e+001 -9.5323e+001  2.2803e+000 59312 80200,80304,80226
 1.8000e+000 80330 -3.7991e+001 -8.1953e+001  2.0428e+001 59312 80252,80304,80278
 1.8000e+000 80805 -9.4173e+000 -5.8051e+001 -9.9472e+000 58908 80900,80828,80638
 1.8000e+000 80782 -2.3239e+001 -7.3021e+001 -1.3193e+001 58908 80828,80560,80508
 1.8000e+000 80759 -7.3764e+000 -5.5696e+001 -7.7073e+000 58908 80900,80638,80612
 1.8000e+000 80736 -3.3584e+000 -5.0671e+001  2.9161e+001 58908 80482,80664,80508
 1.8000e+000 80713  2.6215e+000 -6.5583e+001  2.4452e+000 58908 80560,80612,80586
 1.8000e+000 80690  1.5840e+001 -1.4110e+002 -5.6347e+001 58908 80508,80560,80534
 1.8000e+000 80854 -1.0366e+000 -6.6661e+001  1.7064e+000 58908 80664,80638,80828
 1.8000e+000 80877 -9.9885e+000 -8.9409e+001  6.2775e-001 58908 80664,80828,80508
 1.8000e+000 80926 -1.1893e+001 -5.3039e+001 -7.1000e+000 58908 80560,80828,80900
 1.8000e+000 80949 -8.9022e+000 -5.1287e+001 -4.5504e+000 58908 80560,80900,80612
 1.8000e+000 81246  7.4831e+000 -5.6454e+001 -3.8615e-001 58482 81076,81128,81102
 1.8000e+000 81223 -1.6499e+001 -1.0906e+002 -1.2241e+001 58482 80972,81128,81076
 1.8000e+000 81200 -2.2100e+000 -7.0023e+001 -1.5040e+001 58482 80972,81076,81050
 1.8000e+000 81177 -1.1891e+001 -9.4807e+001 -1.7146e+001 58482 80998,81050,81024
 1.8000e+000 81154 -8.8596e+000 -7.2026e+001 -1.9772e+001 58482 80972,81050,80998
 1.8000e+000 81754 -2.0922e+001 -5.6927e+001  6.0888e+000 57828 81457,81613,81483
 1.8000e+000 81731 -2.2934e+001 -5.8325e+001  1.9056e+000 57828 81431,81613,81457
 1.8000e+000 81708 -2.3407e+001 -6.2635e+001  8.4630e+000 57828 81483,81613,81509
 1.8000e+000 81685 -3.0499e+001 -6.8451e+001  1.1409e+001 57828 81509,81613,81587
 1.8000e+000 81662 -2.8397e+001 -1.0635e+002  2.4049e+001 57828 81509,81587,81535
 1.8000e+000 81639  1.3246e+001 -7.4173e+001  8.1694e+000 57828 81535,81587,81561
 1.8000e+000 82002 -4.8224e+001 -1.3668e+002 -1.0715e+000 57374 82025,81855,81829
 1.8000e+000 81979 -5.1194e+001 -1.2663e+002  6.9213e+000 57374 82025,81829,81907
 1.8000e+000 81956 -5.1480e+001 -1.1720e+002  5.5431e+000 57374 81803,81907,81829
 1.8000e+000 81933 -2.2854e+001 -9.4175e+001  1.8480e+001 57374 81777,81907,81803
 1.8000e+000 82051 -4.9350e+001 -1.2484e+002 -1.1701e+000 57374 81881,81855,82025
 1.8000e+000 82074 -4.8725e+001 -1.1502e+002  9.8005e+000 57374 81881,82025,81907
 1.8000e+000 82356 -2.9180e+001 -6.7316e+001 -2.0303e+000 56913 82180,82232,82206
 1.8000e+000 82333 -2.3999e+001 -6.2636e+001  1.1691e+001 56913 82180,82284,82232
 1.8000e+000 82310 -8.9093e+000 -4.4465e+001  1.8174e+001 56913 82379,82232,82284
 1.8000e+000 82405  9.1428e+000 -4.5606e+001  2.6559e-001 56913 82258,82232,82379
 1.8000e+000 82764 -9.0849e+000 -3.1705e+001 -5.7206e+000 56523 82614,82666,82640
 1.8000e+000 82741 -1.1078e+001 -3.3500e+001 -4.7881e+000 56523 82614,82692,82666
 1.8000e+000 82718  2.1373e+001 -3.1385e+001 -2.0704e+001 56523 82588,82692,82614
 1.8000e+000 83368 -3.7805e+000 -1.0278e+002  1.6052e+000 55969 82973,83155,83129
 1.8000e+000 83345  1.6396e+001 -9.4428e+001  1.6559e-001 55969 82973,83181,83155
 1.8000e+000 83322 -2.1448e+000 -8.1145e+001 -3.3649e+000 55969 82973,83129,82999
 1.8000e+000 83299 -3.7492e+001 -9.3978e+001  3.2828e+000 55969 83391,83025,82999
 1.8000e+000 83276 -3.0545e+001 -9.4397e+001  6.9950e-001 55969 83391,82999,83129
 1.8000e+000 83253  3.2314e+000 -7.0116e+001  1.7526e+001 55969 83077,83129,83103
 1.8000e+000 83230 -3.8622e+001 -6.6887e+001 -9.6935e+000 55969 83025,83077,83051
 1.8000e+000 83207  6.0721e+001 -7.6004e+001 -1.3163e+000 55969 82947,83181,82973
 1.8000e+000 83417 -3.0644e+001 -9.1180e+001  3.5452e+000 55969 83077,83025,83391
 1.8000e+000 83440 -2.8056e+001 -9.4046e+001  5.4082e-001 55969 83077,83391,83129
 1.8000e+000 83946 -5.0839e+001 -1.2297e+002  2.9131e+001 55771 83969,83779,83727
 1.8000e+000 83923 -3.5904e+001 -9.4667e+001  1.5412e+001 55771 83969,83727,83623
 1.8000e+000 83900 -3.7945e+001 -4.2741e+001  7.9112e+000 55771 83623,83727,83649
 1.8000e+000 83877 -1.4245e+000 -1.7290e+002  3.3825e+001 55771 83727,83779,83753
 1.8000e+000 83854 -6.1304e+001 -1.1797e+002  3.1329e+001 55771 83675,83727,83701
 1.8000e+000 83831 -7.3206e+001 -8.6544e+001  4.7833e+001 55771 83649,83727,83675
 1.8000e+000 83995 -4.3660e+001 -1.2735e+002 -7.3883e+000 55771 83805,83779,83969
 1.8000e+000 84018 -1.0498e+001 -6.8793e+001 -2.4515e+001 55771 83805,83969,83623
 1.8000e+000 84168 -8.4492e-001 -4.7963e+001 -2.5302e-002 55367 84191,84067,84041
 1.8000e+000 84145 -3.4187e+000 -4.8008e+001  7.6652e-001 55367 84191,84041,84119
 1.8000e+000 84217 -3.5543e+000 -4.5452e+001 -4.6988e-001 55367 84093,84067,84191
 1.8000e+000 84240 -9.1372e+000 -4.7537e+001  2.0625e-001 55367 84093,84191,84119
 1.8000e+000 84571 -8.5036e+000 -1.0105e+002 -1.0752e+001 54913 84398,84450,84424
 1.8000e+000 84548 -5.6972e+000 -9.1079e+001 -4.8168e+000 54913 84372,84450,84398
 1.8000e+000 84525 -2.0848e+001 -1.0426e+002  5.4049e+000 54913 84346,84450,84372
 1.8000e+000 84502 -4.2456e+000 -6.5960e+001 -7.6267e+000 54913 84346,84476,84450
 1.8000e+000 85126 -5.0495e+001 -1.1529e+002 -4.4008e+000 54402 84858,84936,84910
 1.8000e+000 85103 -3.7014e+001 -8.6000e+001 -9.0665e+000 54402 84806,84936,84858
 1.8000e+000 85080 -4.9077e+001 -7.8379e+001 -7.0306e+000 54402 84780,84936,84806
 1.8000e+000 85057 -3.9059e+001 -9.5864e+001 -3.2626e+000 54402 84806,84858,84832
 1.8000e+000 85034 -3.9818e+001 -7.1541e+001  6.3381e+000 54402 84780,84962,84936
 1.8000e+000 85011 -6.2651e+001 -6.2628e+001 -1.9566e+000 54402 84858,84910,84884
 1.8000e+000 84988 -4.0143e+001 -6.6446e+001  4.3515e+000 54402 84754,84962,84780
 1.8000e+000 85396 -3.0185e+001 -3.8872e+001 -9.1875e-001 53998 85197,85249,85223
 1.8000e+000 85373 -1.2872e+001 -4.8355e+001 -3.0183e-001 53998 85197,85275,85249
 1.8000e+000 85350 -2.5450e+001 -5.8098e+001 -4.8775e+000 53998 85171,85275,85197
 1.8000e+000 85327  1.6787e+000 -4.8687e+001 -7.8553e+000 53998 85171,85301,85275
 1.8000e+000 85749 -1.2859e+001 -9.5555e+001 -8.6962e+000 53636 85524,85628,85550
 1.8000e+000 85726 -3.3418e+001 -1.1104e+002 -1.3103e+000 53636 85524,85654,85628
 1.8000e+000 85703  2.2821e+001 -9.6880e+001 -2.9466e+001 53636 85550,85602,85576
 1.8000e+000 85680 -1.4081e+001 -9.5104e+001 -1.2500e+001 53636 85550,85628,85602
 1.8000e+000 86127  2.5118e+000 -8.6843e+001  1.5781e+001 52982 86150,85957,85879
 1.8000e+000 86104 -2.0709e+001 -1.0305e+002  8.7185e+000 52982 86150,85879,85853
 1.8000e+000 86081  5.8587e+000 -1.2896e+002  2.6663e+001 52982 85957,86009,85983
 1.8000e+000 86058 -2.5972e+001 -9.3356e+001  1.2971e+001 52982 85879,85957,85931
 1.8000e+000 86035 -1.3097e+001 -8.0450e+001  2.5951e+000 52982 85879,85931,85905
 1.8000e+000 86176  1.7477e+001 -1.0497e+002  1.2656e+001 52982 86009,85957,86150
 1.8000e+000 86199  3.7004e+000 -1.1559e+002  7.7701e+000 52982 86009,86150,85853
 1.8000e+000 86398 -4.6754e+000 -5.7742e+001  4.4683e+000 52542 86421,86248,86222
 1.8000e+000 86375 -1.5920e+001 -6.0088e+001 -7.8023e-001 52542 86421,86222,86300
 1.8000e+000 86352 -1.6693e+001 -5.9421e+001  4.9327e-001 52542 86222,86326,86300
 1.8000e+000 86447  7.4112e+000 -5.8607e+001  9.9765e+000 52542 86274,86248,86421
 1.8000e+000 86470 -3.7743e+000 -6.3402e+001  3.2994e+000 52542 86274,86421,86300
 1.8000e+000 86669 -1.0532e+001 -6.2808e+001 -2.4289e+001 52230 86692,86571,86545
 1.8000e+000 86646 -1.4816e+001 -7.0875e+001 -1.6963e+001 52230 86692,86545,86519
 1.8000e+000 86623 -3.5208e+001 -5.4556e+001 -8.9188e+000 52230 86493,86597,86519
 1.8000e+000 86718 -1.5849e+001 -6.3333e+001 -1.6058e+001 52230 86597,86571,86692
 1.8000e+000 86741 -2.5145e+001 -7.3674e+001 -8.3622e+000 52230 86597,86692,86519
 1.8000e+000 87153 -4.1534e+001 -6.4190e+001  2.6560e+000 51640 86980,87058,87032
 1.8000e+000 87130 -3.9285e+001 -6.9006e+001  7.7946e-001 51640 86928,87058,86980
 1.8000e+000 87107 -3.5850e+001 -9.3100e+001 -1.2069e+001 51640 86928,86980,86954
 1.8000e+000 87084 -2.4899e+001 -5.7131e+001  2.5830e-001 51640 86980,87032,87006
 1.8000e+000 87659 -1.4283e+001 -6.1804e+001  5.9462e+000 51029 87682,87440,87362
 1.8000e+000 87636 -1.5218e+001 -6.7349e+001 -3.1081e+000 51029 87682,87362,87336
 1.8000e+000 87613 -2.7849e+001 -1.0369e+002 -2.1593e+000 51029 87440,87518,87466
 1.8000e+000 87590 -2.9317e+001 -6.2898e+001  7.2962e+000 51029 87362,87440,87414
 1.8000e+000 87567 -2.7930e+001 -5.6923e+001  2.0279e+001 51029 87362,87414,87388
 1.8000e+000 87544 -3.7372e+001 -8.9745e+001  1.9676e+000 51029 87466,87518,87492
 1.8000e+000 87708 -1.2609e+001 -7.1269e+001  2.0664e+000 51029 87518,87440,87682
 1.8000e+000 87731 -1.3501e+001 -8.3227e+001 -3.6409e+000 51029 87518,87682,87336
 1.8000e+000 87881 -1.4718e+001 -7.7605e+001 -2.9695e+000 50739 87780,87832,87806
 1.8000e+000 87858 -1.7192e+001 -7.0444e+001 -8.6394e+000 50739 87754,87832,87780
 1.8000e+000 88468  2.9278e+000 -4.6875e+001  3.2694e+000 50235 88171,88327,88197
 1.8000e+000 88445 -3.9717e+001 -4.1632e+001 -1.2812e+001 50235 88145,88327,88171
 1.8000e+000 88422  7.2216e+001 -1.5011e+001 -6.9333e+000 50235 88275,88327,88301
 1.8000e+000 88399  1.0561e+001 -4.1433e+001 -5.7995e-001 50235 88197,88327,88275
 1.8000e+000 88376  1.7165e+001 -3.9297e+001  1.3979e+000 50235 88197,88275,88223
 1.8000e+000 88353  4.8428e+000 -6.4354e+001  5.3162e+000 50235 88223,88275,88249
 1.8000e+000 88895 -1.8025e+000 -7.8622e+001  5.3502e+000 49873 88918,88728,88676
 1.8000e+000 88872 -1.4213e+000 -8.1308e+001  3.9420e+000 49873 88918,88676,88624
 1.8000e+000 88849  1.4844e-001 -6.3937e+001  5.0894e+000 49873 88598,88754,88624
 1.8000e+000 88826  1.5640e+000 -7.2837e+001 -5.4795e+000 49873 88624,88676,88650
 1.8000e+000 88803  1.3526e-001 -1.0844e+002  4.1876e+000 49873 88676,88728,88702
 1.8000e+000 88780  4.2429e+000 -6.6314e+001  3.3730e+000 49873 88572,88754,88598
 1.8000e+000 88944 -4.3196e-001 -7.7291e+001  6.8630e+000 49873 88754,88728,88918
 1.8000e+000 88967 -6.6228e-001 -7.9491e+001  5.1948e+000 49873 88754,88918,88624
 1.8000e+000 89473 -5.3477e+001 -8.1157e+001 -1.1923e+001 49583 89176,89306,89202
 1.8000e+000 89450 -5.3287e+001 -8.0472e+001 -1.3370e+001 49583 89176,89332,89306
 1.8000e+000 89427 -3.6493e+001 -9.0348e+001  2.0434e+000 49583 89496,89228,89202
 1.8000e+000 89404 -3.4881e+001 -9.1450e+001  2.4240e+000 49583 89496,89202,89280
 1.8000e+000 89381 -6.4243e+001 -1.1225e+002 -2.1339e+001 49583 89202,89306,89280
 1.8000e+000 89358 -4.0708e+001 -7.8985e+001 -1.4163e+001 49583 89150,89332,89176
 1.8000e+000 89522 -3.3858e+001 -8.3899e+001  2.6912e+000 49583 89254,89228,89496
 1.8000e+000 89545 -3.5521e+001 -8.9996e+001  2.5962e+000 49583 89254,89496,89280
 1.8000e+000 89825  1.0610e+001 -8.7051e+001  2.9057e+000 49179 89701,89753,89727
 1.8000e+000 89802  2.1182e+001 -8.0257e+001 -4.6196e-001 49179 89675,89753,89701
 1.8000e+000 89779  3.6799e+001 -5.6296e+001  2.0201e+001 49179 89848,89753,89675
 1.8000e+000 89874 -1.8851e+001 -8.4145e+001  3.0825e+000 49179 89649,89753,89848
 1.8000e+000 90223 -1.1591e+001 -8.6522e+001 -4.0148e+000 48739 90024,90102,90076
 1.8000e+000 90200 -2.5444e+001 -8.6597e+001  2.8409e+000 48739 90024,90128,90102
 1.8000e+000 90177 -1.9492e+000 -9.2458e+001 -1.0999e+000 48739 90024,90076,90050
 1.8000e+000 90154  1.9928e+001 -8.0097e+001  2.7137e+001 48739 89998,90128,90024
 1.8000e+000 90603 -2.8672e+001 -8.3062e+001  1.7291e+001 48335 90381,90485,90459
 1.8000e+000 90580 -3.7715e+001 -8.9317e+001  1.1577e+001 48335 90355,90485,90381
 1.8000e+000 90557 -1.2726e+001 -2.7863e+001  1.1626e+001 48335 90381,90433,90407
 1.8000e+000 90534 -3.0689e+001 -8.3557e+001  1.7564e+001 48335 90381,90459,90433
 1.8000e+000 90511  9.0167e+000 -5.9726e+001  2.7047e+001 48335 90329,90485,90355
 1.8000e+000 90753  1.9448e+001 -4.1976e+001  2.6608e+001 47824 90776,90652,90704
 1.8000e+000 90730  3.0104e+000 -7.4850e+001  2.0945e+001 47824 90626,90704,90652
 1.8000e+000 90802 -4.1978e+000 -6.1085e+001  1.8363e+001 47824 90678,90652,90776
 1.8000e+000 91131 -1.4352e+001 -9.3942e+001 -1.1527e+000 47427 91154,90958,90906
 1.8000e+000 91108 -3.3619e+001 -1.0241e+002  1.3616e+000 47427 91154,90906,91036
 1.8000e+000 91085 -3.3056e+001 -7.3328e+001 -1.1242e+001 47427 90958,91010,90984
 1.8000e+000 91062 -1.6981e+001 -7.7025e+001  2.3892e+000 47427 90906,90958,90932
 1.8000e+000 91180 -2.4287e+001 -8.8375e+001 -1.4252e+001 47427 91010,90958,91154
 1.8000e+000 91203 -4.2318e+001 -9.6056e+001 -1.2021e+001 47427 91010,91154,91036
 1.8000e+000 91583 -5.4509e+001 -1.0340e+002 -3.0602e+000 46873 91309,91439,91335
 1.8000e+000 91560 -5.6231e+001 -1.0212e+002 -2.6082e+000 46873 91309,91465,91439
 1.8000e+000 91537 -7.9834e+001 -1.1880e+002 -2.4947e+001 46873 91361,91439,91413
 1.8000e+000 91514 -5.8673e+001 -1.0634e+002 -1.0358e+001 46873 91335,91439,91361
 1.8000e+000 91491 -2.2797e+001 -9.5029e+001 -1.8483e+001 46873 91361,91413,91387
 1.8000e+000 91880 -1.7637e+001 -8.4879e+001 -4.7991e+000 46526 91606,91710,91658
 1.8000e+000 91857 -1.3209e+001 -8.8297e+001 -1.6705e+000 46526 91606,91762,91710
 1.8000e+000 91834 -1.9204e+000 -8.2531e+001 -1.6965e+001 46526 91606,91658,91632
 1.8000e+000 91811 -2.0317e+001 -7.4753e+001  8.5115e-001 46526 91658,91710,91684
 1.8000e+000 91788 -6.1877e+000 -5.9278e+001  4.6365e+000 46526 91710,91762,91736
 1.8000e+000 92211  7.9399e+000 -4.4236e+001 -2.2181e+000 45700 91986,92064,92038
 1.8000e+000 92188 -2.0848e+001 -6.7351e+001  9.1597e+000 45700 91986,92116,92064
 1.8000e+000 92165  1.8281e+001 -3.1650e+001 -1.8349e+001 45700 91986,92038,92012
 1.8000e+000 92142 -2.3087e+001 -6.5836e+001  6.9605e+000 45700 92064,92116,92090
 1.8000e+000 92766 -4.7964e+001 -8.0141e+001 -2.4100e+000 45452 92446,92602,92576
 1.8000e+000 92743 -7.9403e+001 -8.0105e+001 -2.1131e+001 45452 92420,92602,92446
 1.8000e+000 92720 -5.4890e+001 -8.4283e+001  9.3501e+000 45452 92789,92524,92498
 1.8000e+000 92697 -6.5034e+001 -8.1734e+001  6.1856e+000 45452 92789,92498,92446
 1.8000e+000 92674 -5.4045e+001 -9.4576e+001 -6.0938e+000 45452 92524,92576,92550
 1.8000e+000 92651 -8.3016e+001 -8.1709e+001  4.2481e+001 45452 92446,92498,92472
 1.8000e+000 92628 -3.5620e+001 -8.1921e+001 -2.7816e+001 45452 92394,92602,92420
 1.8000e+000 92815 -4.7674e+001 -8.5309e+001  6.5870e+000 45452 92576,92524,92789
 1.8000e+000 92838 -5.5704e+001 -8.1191e+001  4.7492e+000 45452 92576,92789,92446
 1.8000e+000 92939 -2.1115e+001 -1.0075e+002 -2.6148e+001 44998 92861,92913,92887
 1.8000e+000 93319  5.5577e-001 -1.0151e+002  1.5088e+001 44601 93123,93201,93149
 1.8000e+000 93296 -9.5240e+000 -9.7915e+001 -9.7730e-002 44601 93045,93201,93123
 1.8000e+000 93273  1.6425e+001 -5.7218e+001 -1.1630e+001 44601 93045,93123,93071
 1.8000e+000 93250  2.6120e+001 -6.2008e+001 -2.3949e+001 44601 93071,93123,93097
 1.8000e+000 93227  3.0615e+000 -6.3317e+001  1.7325e+001 44601 93149,93201,93175
 1.8000e+000 93697  3.4472e+000 -9.5663e+001  1.8793e+000 44026 93720,93553,93527
 1.8000e+000 93674 -2.1261e-001 -8.6201e+001  3.9130e+000 44026 93720,93527,93449
 1.8000e+000 93651 -2.8695e+000 -9.4618e+001  7.1216e+000 44026 93449,93527,93501
 1.8000e+000 93628 -1.0346e+001 -7.2122e+001 -1.8904e+001 44026 93423,93579,93449
 1.8000e+000 93605  1.5151e+001 -9.5326e+001  5.6200e+000 44026 93449,93501,93475
 1.8000e+000 93746  3.3802e+000 -8.6651e+001  4.5710e-001 44026 93579,93553,93720
 1.8000e+000 93769  2.8644e-001 -7.6494e+001  2.9450e+000 44026 93579,93720,93449
 1.8000e+000 94066 -7.1218e+000 -8.7608e+001 -1.4027e+001 43579 94089,93818,93792
 1.8000e+000 94043 -2.4404e+001 -9.0469e+001 -1.1997e+001 43579 94161,94089,93792
 1.8000e+000 94020 -2.2695e+001 -9.0320e+001 -8.9199e+000 43579 94161,93792,93948
 1.8000e+000 93997 -2.8160e+001 -8.7937e+001 -1.4846e+001 43579 94233,93870,93818
 1.8000e+000 93974  4.5922e+001 -7.2427e+001 -9.4031e+000 43579 93818,93870,93844
 1.8000e+000 94115 -2.6774e+001 -8.7297e+001 -1.4595e+001 43579 94233,93818,94089
 1.8000e+000 94138 -3.7729e+001 -8.5541e+001 -7.9817e+000 43579 93896,94089,93922
 1.8000e+000 94187 -2.2049e+001 -8.6839e+001 -8.7044e+000 43579 93922,94089,94161
 1.8000e+000 94210 -1.8059e+001 -8.5352e+001 -5.4135e+000 43579 93922,94161,93948
 1.8000e+000 94259 -3.3539e+001 -8.7712e+001 -9.1348e+000 43579 93896,93870,94233
 1.8000e+000 94282 -2.6396e+001 -8.4671e+001 -8.7003e+000 43579 93896,94233,94089
 1.8000e+000 94481 -2.0187e+001 -8.9076e+001 -1.9084e+000 43239 94305,94383,94357
 1.8000e+000 94458 -1.2726e+001 -7.8705e+001  1.1326e+001 43239 94305,94409,94383
 1.8000e+000 94435 -1.6646e+001 -9.7231e+001 -2.4020e+000 43239 94305,94357,94331
 1.8000e+000 94633 -6.9839e+000 -6.1012e+001  1.5662e+001 42827 94656,94532,94506
 1.8000e+000 94610 -2.1329e+001 -6.9712e+001  2.1750e+001 42827 94728,94656,94506
 1.8000e+000 94682 -4.1066e-001 -7.1668e+001  1.5655e+001 42827 94558,94532,94656
 1.8000e+000 94705  1.4552e+001 -7.3028e+001  8.5436e+000 42827 94988,94860,94656
 1.8000e+000 94754 -3.0056e+000 -5.8730e+001  4.1252e+000 42827 94988,94656,94728
 1.8000e+000 94886  3.2843e+001 -6.5342e+001  9.3846e+000 42827 94558,94656,94860
 1.8000e+000 95014  2.9367e+001 -6.0674e+001  3.1327e+000 42827 94584,94860,94988
 1.8000e+000 95037  1.3858e+001 -4.7966e+001 -1.2907e+000 42827 94584,94988,94728
 1.8000e+000 95236 -2.4372e+001 -9.4291e+001  6.4565e+000 42537 95259,95112,95060
 1.8000e+000 95213 -6.4428e+000 -1.0450e+002  1.0725e+001 42537 95259,95060,95164
 1.8000e+000 95190 -1.8136e+001 -9.5136e+001 -3.9340e+000 42537 95060,95112,95086
 1.8000e+000 95285 -1.2270e+001 -9.0813e+001  1.4266e+001 42537 95138,95112,95259
 1.8000e+000 95308  5.8671e+000 -9.6079e+001  2.1066e+001 42537 95138,95259,95164
 1.8000e+000 95816 -2.9879e+001 -9.5994e+001 -4.8894e+000 41969 95493,95597,95519
 1.8000e+000 95793 -5.1370e+001 -9.4599e+001  1.3261e+001 41969 95493,95649,95597
 1.8000e+000 95770 -4.3762e+001 -8.5977e+001  6.6925e+000 41969 95493,95675,95649
 1.8000e+000 95747 -4.7808e+001 -1.0472e+002  1.2759e+001 41969 95597,95649,95623
 1.8000e+000 95724 -5.2262e+001 -9.0552e+001 -8.1846e+000 41969 95519,95597,95571
 1.8000e+000 95701 -4.3336e+001 -8.3467e+001 -4.8559e+001 41969 95519,95571,95545
 1.8000e+000 96371 -2.5762e+001 -9.4741e+001  7.6570e+000 41579 96025,96207,96181
 1.8000e+000 96348  1.2516e+001 -7.6725e+001 -5.9944e+000 41579 95999,96207,96025
 1.8000e+000 96325 -4.7832e+001 -7.7301e+001 -2.5017e+001 41579 96129,96181,96155
 1.8000e+000 96302  1.6880e+001 -6.3820e+001 -6.1788e+000 41579 96025,96181,96129
 1.8000e+000 96279 -2.2068e+001 -1.1931e+002  2.4730e+001 41579 96025,96129,96051
 1.8000e+000 96256 -4.6774e+001 -1.3545e+002  4.2159e+001 41579 96051,96103,96077
 1.8000e+000 96233  1.9207e+001 -8.4444e+001  9.6239e+000 41579 96051,96129,96103
 1.8000e+000 96877  6.3218e+000 -7.0163e+001  2.9262e+000 41182 96972,96900,96632
 1.8000e+000 96854  7.5994e+000 -6.5410e+001  1.0491e+000 41182 96900,96554,96736
 1.8000e+000 96831  2.5861e+000 -6.6317e+001 -8.8642e+000 41182 96972,96632,96580
 1.8000e+000 96808  2.1941e+001 -6.3885e+001  7.5770e+000 41182 96632,96684,96658
 1.8000e+000 96785 -6.1432e+000 -6.0618e+001 -9.4823e+000 41182 96684,96736,96710
 1.8000e+000 96762 -2.6066e+001 -9.7432e+001  9.1399e+000 41182 96580,96632,96606
 1.8000e+000 96926  6.2743e+000 -7.3618e+001  2.7371e+000 41182 96684,96632,96900
 1.8000e+000 96949 -1.0299e+001 -6.7680e+001 -1.8005e+000 41182 96684,96900,96736
 1.8000e+000 96998  2.4546e+001 -6.4371e+001 -6.6276e+000 41182 96554,96900,96972
 1.8000e+000 97021  2.6946e+001 -5.2203e+001 -1.9634e+001 41182 96554,96972,96580
 1.8000e+000 97576 -4.6147e+001 -1.5925e+002 -2.6807e+001 40678 97230,97412,97282
 1.8000e+000 97553  1.0117e+001 -1.3033e+002  7.5921e+000 40678 97204,97412,97230
 1.8000e+000 97530 -2.2622e+001 -1.2200e+002 -1.9795e+001 40678 97282,97360,97308
 1.8000e+000 97507 -1.1620e+001 -1.1564e+002 -1.0445e+001 40678 97282,97412,97360
 1.8000e+000 97484 -9.5023e+000 -7.9780e+001 -1.5476e+001 40678 97308,97360,97334
 1.8000e+000 97461 -4.4969e+001 -1.4553e+002  4.2195e+000 40678 97360,97412,97386
 1.8000e+000 97438 -1.8025e+001 -1.1640e+002 -5.6941e+000 40678 97230,97282,97256
 1.8000e+000 97976 -3.5639e+001 -7.1244e+001 -3.3266e+000 40244 97702,97832,97754
 1.8000e+000 97953 -2.8554e+001 -7.4377e+001 -4.0828e+000 40244 97702,97858,97832
 1.8000e+000 97930 -4.5207e+001 -9.8698e+001 -1.9578e+001 40244 97702,97754,97728
 1.8000e+000 97907 -2.8977e+001 -6.9251e+001  7.1582e+000 40244 97780,97832,97806
 1.8000e+000 97884 -3.4864e+001 -6.9307e+001 -9.4725e-001 40244 97754,97832,97780
 1.8000e+000 98482 -2.9985e+001 -8.4756e+001  1.3690e+001 39690 98505,98185,98159
 1.8000e+000 98459 -2.6362e+001 -8.3491e+001  1.5393e+001 39690 98505,98159,98289
 1.8000e+000 98436 -5.8289e+001 -1.2109e+002  4.7166e+001 39690 98159,98315,98289
 1.8000e+000 98413 -3.4353e+001 -8.0624e+001  1.5434e+001 39690 98211,98289,98263
 1.8000e+000 98390 -2.1186e+001 -6.3271e+001  9.6888e+000 39690 98211,98263,98237
 1.8000e+000 98367 -1.3136e+001 -7.2933e+001  2.5084e+001 39690 98159,98341,98315
 1.8000e+000 98531 -3.7245e+001 -8.4442e+001  1.0890e+001 39690 98211,98185,98505
 1.8000e+000 98554 -3.0377e+001 -7.9132e+001  1.3817e+001 39690 98211,98505,98289
 1.8000e+000 99109 -2.7803e+001 -7.6363e+001 -5.6121e+000 39072 99132,98867,98789
 1.8000e+000 99086 -3.1738e+001 -7.6105e+001 -4.6063e+000 39072 99132,98789,98763
 1.8000e+000 99063 -3.8742e+001 -1.1057e+002  5.4436e+000 39072 98867,98945,98919
 1.8000e+000 99040 -2.5151e+001 -8.0402e+001 -2.4748e+000 39072 98789,98867,98841
 1.8000e+000 99017 -3.4661e+001 -1.1461e+002  7.8766e+000 39072 98867,98919,98893
 1.8000e+000 98994 -4.2077e+001 -8.0398e+001  1.3830e+001 39072 98789,98841,98815
 1.8000e+000 98971 -4.5793e+001 -8.1738e+001 -9.4769e+000 39072 98737,98945,98763
 1.8000e+000 99158 -2.6722e+001 -7.6014e+001 -6.1273e+000 39072 98945,98867,99132
 1.8000e+000 99181 -2.8307e+001 -7.3363e+001 -5.8848e+000 39072 98945,99132,98763
 1.8000e+000 99510 -1.4254e+001 -7.5330e+001  3.3504e+000 38668 99311,99389,99363
 1.8000e+000 99487 -2.7237e+001 -7.8432e+001  6.1924e+000 38668 99285,99389,99311
 1.8000e+000 99464 -4.1784e+001 -8.4225e+001  1.2055e+001 38668 99285,99415,99389
 1.8000e+000 99441 -2.3045e+001 -8.0909e+001  5.7419e+000 38668 99311,99363,99337
 1.8000e+000 99758 -3.7347e+000 -1.0386e+002  9.6755e+000 38164 99781,99611,99585
 1.8000e+000 99735  1.0667e+001 -1.0180e+002  1.2553e+001 38164 99781,99585,99533
 1.8000e+000 99712 -1.0529e+001 -8.5751e+001  7.2815e+000 38164 99611,99663,99637
 1.8000e+000 99689  1.9795e+001 -8.7287e+001  6.6080e+000 38164 99533,99585,99559
 1.8000e+000 99807 -1.1345e+001 -9.9062e+001  1.3438e+001 38164 99663,99611,99781
 1.8000e+000 99830 -1.9991e+000 -1.0074e+002  1.3687e+001 38164 99663,99781,99533
 1.8000e+000 100232 -3.2568e+001 -9.3144e+001  1.1172e+000 37702 99984,100114,100088
 1.8000e+000 100209 -2.3587e+001 -8.8782e+001  8.2493e+000 37702 99958,100114,99984
 1.8000e+000 100186 -4.8767e+001 -1.1283e+002 -5.7205e+000 37702 100010,100088,100036
 1.8000e+000 100163 -3.2739e+001 -9.3207e+001  1.1795e+000 37702 99984,100088,100010
 1.8000e+000 100140 -3.4753e+001 -1.0283e+002 -2.4563e+001 37702 100036,100088,100062
 1.8000e+000 100640 -7.1688e+001 -9.5482e+001  1.2732e+001 37262 100493,100545,100519
 1.8000e+000 100617 -5.6233e+001 -1.0500e+002  7.8321e+000 37262 100441,100545,100493
 1.8000e+000 100594 -3.0594e+001 -8.8254e+001 -2.7370e+000 37262 100415,100545,100441
 1.8000e+000 100571 -7.1239e+001 -1.2979e+002 -4.2105e+000 37262 100441,100493,100467
 1.8000e+000 101146 -4.4984e+001 -7.1932e+001 -5.4542e+000 36872 100823,100979,100849
 1.8000e+000 101123 -4.1438e+001 -6.1256e+001 -1.1327e+001 36872 100823,101005,100979
 1.8000e+000 101100 -4.1137e+001 -1.0146e+002  1.3821e+001 36872 101169,100901,100849
 1.8000e+000 101077 -3.3852e+001 -8.7262e+001  5.8889e+000 36872 101169,100849,100979
 1.8000e+000 101054 -2.3373e+001 -1.0408e+002 -1.5943e+000 36872 100927,100979,100953
 1.8000e+000 101031 -3.2928e+001 -1.2046e+002  1.5050e+001 36872 100849,100901,100875
 1.8000e+000 101195 -2.8484e+001 -1.0469e+002  4.5082e+000 36872 100927,100901,101169
 1.8000e+000 101218 -2.3589e+001 -9.7467e+001 -2.3055e+000 36872 100927,101169,100979
 1.8000e+000 101773 -4.6570e+001 -8.8679e+001  1.9322e+001 36418 101479,101609,101583
 1.8000e+000 101750 -3.6854e+001 -9.0085e+001  2.9356e+001 36418 101453,101609,101479
 1.8000e+000 101727 -2.6070e+001 -9.3705e+001  3.4566e+000 36418 101796,101531,101479
 1.8000e+000 101704 -4.6290e+001 -1.0534e+002  9.6899e+000 36418 101796,101479,101583
 1.8000e+000 101681 -3.8188e+000 -7.8128e+001 -7.3466e+000 36418 101479,101531,101505
 1.8000e+000 101658  3.7183e+001 -8.6388e+001 -3.8078e+000 36418 101401,101609,101453
 1.8000e+000 101635 -1.4772e+001 -8.5139e+001 -7.0103e+000 36418 101401,101453,101427
 1.8000e+000 101822 -3.1798e+001 -8.5324e+001 -1.6442e+001 36418 101557,101531,101796
 1.8000e+000 101845 -5.7780e+001 -9.3568e+001 -1.1750e+001 36418 101557,101796,101583
 1.8000e+000 102174  2.9807e+001 -3.6676e+001 -1.7899e+001 35914 101949,102053,101975
 1.8000e+000 102151 -2.2379e+001 -5.4644e+001 -5.3198e+000 35914 101949,102079,102053
 1.8000e+000 102128  5.8158e+000 -4.8092e+001 -9.9893e+000 35914 101975,102053,102027
 1.8000e+000 102105  6.2798e+000 -4.8660e+001 -1.0359e+001 35914 101975,102027,102001
 1.8000e+000 102631  3.3589e+001 -8.3336e+001 -1.3747e+000 35574 102383,102513,102487
 1.8000e+000 102608  4.2254e+001 -8.8392e+001 -1.7759e+000 35574 102357,102513,102383
 1.8000e+000 102585 -6.0412e-001 -9.3898e+001  4.7303e+000 35574 102409,102487,102435
 1.8000e+000 102562  1.1738e+001 -9.4631e+001  3.5874e+000 35574 102383,102487,102409
 1.8000e+000 102539 -9.0208e+000 -1.0728e+002  2.1525e-001 35574 102435,102487,102461
 1.8000e+000 103009 -3.4570e+001 -8.0541e+001 -1.0937e+001 35170 102761,102865,102787
 1.8000e+000 102986 -2.1529e+001 -7.2116e+001  6.7141e+000 35170 102761,102891,102865
 1.8000e+000 102963 -3.0334e+001 -6.3657e+001 -1.1502e+001 35170 102787,102865,102813
 1.8000e+000 102940  3.2110e+001 -7.7455e+001  1.0357e+001 35170 102735,102891,102761
 1.8000e+000 102917 -3.6826e+001 -8.0626e+001 -1.6721e+001 35170 102813,102865,102839
 1.8000e+000 103257  2.4551e+001 -7.0455e+001 -1.3181e+001 34659 103280,103058,103032
 1.8000e+000 103234  1.4549e+001 -7.3785e+001 -2.6542e-001 34659 103280,103032,103162
 1.8000e+000 103211 -8.5418e+000 -5.3768e+001 -2.8627e+000 34659 103084,103162,103110
 1.8000e+000 103188 -2.6464e+001 -9.1012e+001  2.6889e+000 34659 103110,103162,103136
 1.8000e+000 103306  4.3357e+000 -6.6497e+001 -1.2143e+001 34659 103084,103058,103280
 1.8000e+000 103329 -1.1154e-001 -6.8588e+001  2.5205e+000 34659 103084,103280,103162
 1.8000e+000 103837  2.0562e+001 -8.8277e+001  5.9855e+000 34247 103860,103566,103540
 1.8000e+000 103814 -6.4514e+000 -9.5728e+001 -9.6492e-001 34247 103932,103860,103540
 1.8000e+000 103791 -9.6519e+000 -1.0688e+002 -1.0349e+001 34247 103932,103540,103670
 1.8000e+000 103768  1.4570e+001 -9.5599e+001 -1.1021e+000 34247 103566,103618,103592
 1.8000e+000 103745 -3.1196e+001 -1.0241e+002 -1.4131e+001 34247 103540,103696,103670
 1.8000e+000 103722 -4.5010e+001 -1.0832e+002  2.4857e+001 34247 103514,103696,103540
 1.8000e+000 103886 -4.9036e+000 -1.0506e+002 -4.0201e+000 34247 103618,103566,103860
 1.8000e+000 103909  7.0135e+000 -9.9278e+001 -6.2332e+000 34247 103618,103860,103644
 1.8000e+000 103958 -1.0439e+001 -1.2075e+002 -1.4089e+001 34247 103644,103860,103932
 1.8000e+000 103981 -1.5459e+001 -1.3211e+002 -2.4073e+001 34247 103644,103932,103670
 1.8000e+000 104300 -4.9711e+001 -1.0964e+002 -1.0191e+000 33843 104052,104182,104156
 1.8000e+000 104277 -6.9425e+001 -1.0097e+002  2.6404e+000 33843 104026,104182,104052
 1.8000e+000 104254 -4.6580e+001 -1.1586e+002  2.6668e+000 33843 104078,104156,104130
 1.8000e+000 104231 -5.3344e+001 -1.1371e+002  8.2915e-001 33843 104052,104156,104078
 1.8000e+000 104208 -7.1428e+001 -1.2017e+002  1.9343e+000 33843 104078,104130,104104
 1.8000e+000 104499  4.9968e+000 -1.0005e+002 -9.9334e+000 33282 104594,104522,104375
 1.8000e+000 104476  6.7561e+000 -9.2837e+001  5.9092e+000 33282 104522,104323,104427
 1.8000e+000 104453  1.2912e+001 -1.1062e+002 -7.7041e+000 33282 104594,104375,104349
 1.8000e+000 104548  2.2683e+001 -6.8105e+001 -1.6841e+001 33282 104401,104375,104522
 1.8000e+000 104571  1.3133e+001 -7.9875e+001  3.5195e+000 33282 104401,104522,104427
 1.8000e+000 104620  1.0956e+001 -7.8513e+001 -4.9447e+000 33282 104323,104522,104594
 1.8000e+000 104643  1.4786e+001 -9.3762e+001 -4.5173e+000 33282 104323,104594,104349
 1.8000e+000 104942 -1.5564e+001 -9.6816e+001  1.5445e+001 32728 104694,104772,104720
 1.8000e+000 104919 -2.7944e+001 -9.7047e+001  8.7062e+000 32728 104694,104824,104772
 1.8000e+000 104896 -2.4883e+001 -1.0725e+002  1.1344e+001 32728 104720,104772,104746
 1.8000e+000 104873 -1.5162e+001 -1.1121e+002  8.5080e+000 32728 104772,104824,104798
 1.8000e+000 104850 -2.5971e+001 -1.0058e+002  6.2110e+000 32728 104668,104824,104694
 1.8000e+000 105373 -4.0691e+001 -1.1463e+002 -8.0988e+000 32274 105396,105102,105076
 1.8000e+000 105350 -3.1324e+001 -1.2884e+002 -5.7235e+000 32274 105396,105076,105206
 1.8000e+000 105327 -3.2941e+001 -1.3198e+002  2.2292e+001 32274 105154,105206,105180
 1.8000e+000 105304 -2.4294e+001 -1.3019e+002 -1.4925e+001 32274 105076,105232,105206
 1.8000e+000 105281 -4.4159e+001 -1.0487e+002 -1.8556e+001 32274 105102,105154,105128
 1.8000e+000 105258 -8.4602e+001 -1.3000e+002 -3.1203e+001 32274 105050,105232,105076
 1.8000e+000 105422 -3.6033e+001 -1.0095e+002 -4.7577e+000 32274 105154,105102,105396
 1.8000e+000 105445 -2.8941e+001 -1.1759e+002 -3.7094e+000 32274 105154,105396,105206
 1.8000e+000 105644 -4.5456e+001 -1.2387e+002  1.6204e+000 31620 105468,105546,105520
 1.8000e+000 105621 -3.6337e+001 -1.3218e+002 -2.9025e+000 31620 105468,105572,105546
 1.8000e+000 105598 -5.2628e+001 -1.5052e+002  9.2033e+000 31620 105468,105520,105494
 1.8000e+000 105794 -1.7375e+001 -1.0898e+002 -2.6860e+000 31158 105889,105817,105693
 1.8000e+000 105771 -2.3089e+001 -1.0131e+002 -5.2122e+000 31158 105817,105667,105745
 1.8000e+000 105843 -2.0317e+001 -1.2548e+002 -1.5735e+000 31158 105719,105693,105817
 1.8000e+000 105866 -1.6242e+001 -1.1273e+002 -4.5729e+000 31158 105719,105817,105745
 1.8000e+000 105915 -2.9680e+001 -1.1426e+002 -2.8235e+000 31158 105667,105817,105889
 1.8000e+000 106270 -4.4345e+001 -1.0371e+002 -1.2832e-001 30818 106293,106071,106045
 1.8000e+000 106247 -5.1548e+001 -1.1954e+002 -1.3152e+001 30818 106293,106045,106175
 1.8000e+000 106224 -2.0682e+001 -9.9927e+001  3.7344e+000 30818 106123,106175,106149
 1.8000e+000 106201 -4.4019e+001 -1.0539e+002  8.8512e+000 30818 106071,106123,106097
 1.8000e+000 106319 -3.9469e+001 -9.7308e+001  4.2421e+000 30818 106123,106071,106293
 1.8000e+000 106342 -3.7058e+001 -1.0535e+002 -6.6949e+000 30818 106123,106293,106175
 1.8000e+000 106492 -4.5084e+001 -1.1172e+002  2.1280e+001 30414 106645,106391,106365
 1.8000e+000 106469 -3.2033e+001 -1.1129e+002  3.0898e+001 30414 106515,106365,106443
 1.8000e+000 106541 -3.6329e+001 -1.1280e+002  2.2157e+001 30414 106645,106365,106515
 1.8000e+000 106671 -3.2026e+001 -1.2663e+002  3.2330e+001 30414 106417,106391,106645
 1.8000e+000 106694 -9.1890e+000 -1.1841e+002  2.8245e+001 30414 106417,106645,106515
 1.8000e+000 106942  7.9370e+000 -1.2908e+002 -2.8024e+000 29910 106965,106795,106769
 1.8000e+000 106919  1.1870e+000 -1.1798e+002 -8.0377e-001 29910 106965,106769,106717
 1.8000e+000 106896  2.4258e+001 -8.2519e+001  1.1268e+000 29910 106795,106847,106821
 1.8000e+000 106873  8.0501e+000 -1.0350e+002  1.5805e+000 29910 106717,106769,106743
 1.8000e+000 106991  8.6250e+000 -1.2030e+002 -3.5567e+000 29910 106847,106795,106965
 1.8000e+000 107014  5.3157e+000 -1.0462e+002 -2.6821e+000 29910 106847,106965,106717
 1.8000e+000 107213 -2.5882e+001 -1.1707e+002  1.0642e+001 29413 107236,107063,107037
 1.8000e+000 107190 -3.4322e+001 -1.3662e+002  1.8352e+001 29413 107236,107037,107141
 1.8000e+000 107167 -3.3427e+001 -7.5366e+001  1.9528e+001 29413 107063,107115,107089
 1.8000e+000 107262 -3.0090e+001 -1.0132e+002  2.3219e+000 29413 107115,107063,107236
 1.8000e+000 107285 -3.5925e+001 -1.1672e+002  1.0004e+001 29413 107115,107236,107141
 1.8000e+000 107486 -2.2119e+001 -1.0135e+002  7.1599e+000 29009 107336,107388,107362
 1.8000e+000 107463 -2.2606e+001 -1.0178e+002  9.8166e+000 29009 107310,107388,107336
 1.8000e+000 107440 -2.1978e+001 -8.9915e+001  8.4463e+000 29009 107310,107414,107388
 1.8000e+000 107736 -4.5036e+000 -9.7757e+001  5.8279e-001 28491 107537,107615,107563
 1.8000e+000 107713 -8.6566e+000 -1.0078e+002 -5.2203e+000 28491 107537,107641,107615
 1.8000e+000 107690 -5.3296e+000 -9.5701e+001  5.4703e-001 28491 107563,107615,107589
 1.8000e+000 107667 -1.2116e+001 -8.3611e+001 -3.3539e+000 28491 107511,107641,107537
 1.8000e+000 108118 -1.8154e+000 -9.4705e+001  2.4151e+000 27980 108141,107922,107844
 1.8000e+000 108095  5.5925e+000 -1.0166e+002  1.2687e+000 27980 108141,107844,108000
 1.8000e+000 108072  9.4884e-001 -8.8973e+001 -1.6769e+000 27980 107844,107922,107870
 1.8000e+000 108049  5.5306e-001 -8.7250e+001 -1.2470e+000 27980 107870,107922,107896
 1.8000e+000 108026 -1.2251e+001 -8.3053e+001  1.8053e+001 27980 107922,107974,107948
 1.8000e+000 108167  4.4016e+000 -9.8547e+001  5.4361e+000 27980 107974,107922,108141
 1.8000e+000 108190  2.3696e+001 -9.5579e+001  6.3547e+000 27980 107974,108141,108000
 1.8000e+000 108745 -6.6741e+000 -6.6729e+001 -7.3169e-001 27376 108840,108768,108477
 1.8000e+000 108722 -1.3808e+001 -7.5492e+001 -1.3805e+001 27376 108768,108373,108581
 1.8000e+000 108699 -1.4852e+001 -6.1420e+001  1.2392e+001 27376 108840,108477,108451
 1.8000e+000 108676 -4.6295e+001 -7.1403e+001 -3.5146e+000 27376 108373,108451,108399
 1.8000e+000 108653 -1.7888e+001 -9.2457e+001  1.4088e+001 27376 108503,108581,108529
 1.8000e+000 108630 -2.0487e+001 -9.5601e+001  1.5202e+001 27376 108529,108581,108555
 1.8000e+000 108607 -5.4076e+001 -8.0214e+001  5.3999e+000 27376 108399,108451,108425
 1.8000e+000 108794 -1.2218e+001 -8.5891e+001  1.6656e+000 27376 108503,108477,108768
 1.8000e+000 108817  1.6929e+000 -7.9982e+001 -7.5393e-001 27376 108503,108768,108581
 1.8000e+000 108866 -3.4271e+001 -7.9581e+001 -4.8676e+000 27376 108373,108768,108840
 1.8000e+000 108889 -3.3393e+001 -6.9957e+001  8.3914e+000 27376 108373,108840,108451
 1.8000e+000 109186 -2.5087e+001 -1.0251e+002  8.5597e+000 26722 109209,108938,108912
 1.8000e+000 109163 -2.4480e+001 -1.0172e+002  1.0659e+001 26722 109281,109209,108912
 1.8000e+000 109140 -2.2747e+001 -1.0028e+002  9.8555e+000 26722 109281,108912,109042
 1.8000e+000 109117 -2.6631e+001 -1.1024e+002  7.3242e+000 26722 108938,108990,108964
 1.8000e+000 109094 -2.2013e+001 -1.0211e+002  1.0594e+001 26722 108912,109068,109042
 1.8000e+000 109235 -2.5925e+001 -1.0324e+002  9.0440e+000 26722 108990,108938,109209
 1.8000e+000 109258 -2.3627e+001 -1.1003e+002  1.0208e+001 26722 108990,109209,109016
 1.8000e+000 109307 -2.0212e+001 -1.0415e+002  7.2304e+000 26722 109016,109209,109281
 1.8000e+000 109330 -1.7437e+001 -1.0125e+002  6.0233e+000 26722 109016,109281,109042
 1.8000e+000 109732 -3.8878e+001 -8.7287e+001 -5.8319e-001 26310 109458,109588,109484
 1.8000e+000 109709 -3.4296e+001 -9.3262e+001 -9.0990e+000 26310 109458,109614,109588
 1.8000e+000 109686 -5.2668e+001 -9.6079e+001  1.3541e+001 26310 109510,109562,109536
 1.8000e+000 109663 -5.3297e+001 -9.1588e+001  6.0182e+000 26310 109484,109562,109510
 1.8000e+000 109640 -3.7720e+001 -8.7205e+001  8.8094e-002 26310 109484,109588,109562
 1.8000e+000 110159 -3.2848e+001 -9.2746e+001  4.0738e+000 25642 110182,109940,109914
 1.8000e+000 110136 -3.3290e+001 -9.8576e+001  7.8401e+000 25642 110182,109914,109888
 1.8000e+000 110113 -3.2491e+001 -1.0822e+002 -1.2619e+001 25642 109966,110018,109992
 1.8000e+000 110090 -3.4010e+001 -1.0452e+002  9.3307e+000 25642 110254,109966,109940
 1.8000e+000 110067 -2.9445e+001 -9.6998e+001  8.6841e+000 25642 109862,110018,109888
 1.8000e+000 110044 -4.3467e+001 -8.7884e+001  1.3887e+001 25642 109836,110018,109862
 1.8000e+000 110208 -3.5025e+001 -9.5412e+001  7.5002e+000 25642 110254,109940,110182
 1.8000e+000 110231 -3.2747e+001 -1.0020e+002  6.7711e+000 25642 110018,110182,109888
 1.8000e+000 110280 -3.1795e+001 -1.1540e+002  7.3613e+000 25642 110018,109966,110254
 1.8000e+000 110303 -3.4607e+001 -1.0853e+002  5.7015e+000 25642 110018,110254,110182
 1.8000e+000 110632 -4.8717e+001 -9.5481e+001  4.0362e+000 25188 110407,110485,110433
 1.8000e+000 110609 -4.8695e+001 -8.0048e+001  1.8755e+000 25188 110407,110537,110485
 1.8000e+000 110586 -4.9928e+001 -9.7366e+001 -1.4614e+001 25188 110433,110485,110459
 1.8000e+000 110563 -5.2250e+001 -1.0202e+002  1.4038e+001 25188 110485,110537,110511
 1.8000e+000 110831 -1.3368e+001 -9.6308e+001  2.4304e+000 24726 110854,110707,110655
 1.8000e+000 110808 -1.5374e+001 -9.5346e+001  1.1089e+000 24726 110854,110655,110759
 1.8000e+000 110785 -1.6235e+001 -9.4544e+001  5.0476e+000 24726 110655,110707,110681
 1.8000e+000 110880 -1.4751e+001 -9.7171e+001  1.3455e+000 24726 110733,110707,110854
 1.8000e+000 110903 -1.7008e+001 -9.6858e+001 -1.3579e-001 24726 110733,110854,110759
 1.8000e+000 111234  1.4522e+001 -6.3486e+001 -4.0074e+000 24222 111257,111087,111035
 1.8000e+000 111211  3.9308e+001 -5.2684e+001  2.9081e+000 24222 111257,111035,111009
 1.8000e+000 111188  3.6493e+001 -3.2292e+001 -1.7426e+001 24222 111035,111087,111061
 1.8000e+000 111165  5.1370e+000 -4.9540e+001  8.4017e+000 24222 111087,111139,111113
 1.8000e+000 111283  1.6939e+000 -4.9202e+001  4.7031e+000 24222 111139,111087,111257
 1.8000e+000 111306  1.1773e+001 -4.1187e+001  9.0722e+000 24222 111139,111257,111009
 1.8000e+000 111625 -1.5342e+001 -9.7469e+001 -6.5203e+000 23732 111648,111481,111455
 1.8000e+000 111602 -1.6133e+001 -9.7658e+001 -6.0668e+000 23732 111648,111455,111377
 1.8000e+000 111579  1.0585e+001 -5.0219e+001  1.0584e+001 23732 111377,111429,111403
 1.8000e+000 111556 -8.0004e+000 -9.8520e+001 -3.0258e+000 23732 111377,111455,111429
 1.8000e+000 111533 -1.4500e+001 -8.6978e+001 -3.6585e+000 23732 111351,111507,111377
 1.8000e+000 111674 -1.6521e+001 -9.7540e+001 -6.3871e+000 23732 111507,111481,111648
 1.8000e+000 111697 -1.6644e+001 -9.7594e+001 -5.7674e+000 23732 111507,111648,111377
 1.8000e+000 112156 -6.3498e+000 -9.3785e+001 -1.9215e+000 23278 112179,111908,111882
 1.8000e+000 112133 -4.3465e+000 -9.1387e+001  3.7714e-001 23278 112179,111882,112012
 1.8000e+000 112110 -6.1855e+000 -1.1093e+002 -1.0238e+000 23278 111908,111960,111934
 1.8000e+000 112087  8.6925e+000 -9.3577e+001 -3.9334e+000 23278 111882,112038,112012
 1.8000e+000 112064 -6.7336e+000 -8.6699e+001 -7.7237e-002 23278 111960,112012,111986
 1.8000e+000 112205 -8.3101e+000 -9.3571e+001 -3.9364e+000 23278 111960,111908,112179
 1.8000e+000 112228 -7.5669e+000 -9.1715e+001 -1.6704e+000 23278 111960,112179,112012
 1.8000e+000 112685 -6.6532e+001 -1.5458e+002 -1.4292e+001 22938 112489,112567,112541
 1.8000e+000 112662 -5.7276e+001 -1.3229e+002 -1.4318e+001 22938 112437,112567,112489
 1.8000e+000 112639 -4.0731e+001 -1.1792e+002 -2.2307e+000 22938 112489,112541,112515
 1.8000e+000 112616 -6.7089e+001 -1.2657e+002 -1.2956e+001 22938 112411,112567,112437
 1.8000e+000 112593 -5.5263e+001 -1.6928e+002 -3.4726e+000 22938 112437,112489,112463
 1.8000e+000 113191  2.7673e+001 -9.3144e+001 -1.4977e+001 22534 113214,112998,112946
 1.8000e+000 113168  6.4185e-002 -8.6181e+001 -3.2768e+000 22534 113286,113214,112946
 1.8000e+000 113145  2.5510e+000 -8.4702e+001 -3.8929e+000 22534 113286,112946,112920
 1.8000e+000 113122 -2.8163e+001 -8.6823e+001 -1.7233e+001 22534 113358,113024,112998
 1.8000e+000 113099 -9.5702e+000 -9.6444e+001 -5.4676e+000 22534 112868,113050,112894
 1.8000e+000 113076 -2.9659e+001 -1.9771e+002 -4.2114e+001 22534 112946,112998,112972
 1.8000e+000 113240 -1.6087e+001 -1.0422e+002 -1.9115e+001 22534 113358,112998,113214
 1.8000e+000 113263 -1.5950e+000 -9.3894e+001 -3.0370e+000 22534 113050,113214,112894
 1.8000e+000 113312  5.3203e+000 -9.0919e+001 -3.2174e+000 22534 112894,113214,113286
 1.8000e+000 113335  9.7403e+000 -8.7600e+001 -4.6671e+000 22534 112894,113286,112920
 1.8000e+000 113384 -1.3201e+001 -7.7078e+001 -9.5462e+000 22534 113050,113024,113358
 1.8000e+000 113407  6.0345e+000 -8.8871e+001 -1.0287e+001 22534 113050,113358,113214
 1.8000e+000 113785 -5.1186e+001 -1.3244e+002  6.5011e+000 21978 113808,113615,113511
 1.8000e+000 113762 -4.1027e+001 -1.3438e+002  1.2938e+001 21978 113808,113511,113667
 1.8000e+000 113739 -2.6873e+001 -1.0943e+002 -3.4076e+000 21978 113511,113615,113537
 1.8000e+000 113716  9.2041e+000 -9.8407e+001 -6.9331e+000 21978 113537,113615,113589
 1.8000e+000 113693 -1.0420e+001 -1.3535e+002  3.0136e+000 21978 113537,113589,113563
 1.8000e+000 113834 -5.2894e+001 -1.3220e+002  1.9583e+001 21978 113641,113615,113808
 1.8000e+000 113857 -2.5875e+001 -1.2181e+002  2.7267e+001 21978 113641,113808,113667
 1.8000e+000 114284 -3.6977e+001 -1.0248e+002  2.8177e+000 21517 114013,114117,114039
 1.8000e+000 114261 -3.7661e+001 -1.0094e+002  7.2872e+000 21517 113961,114117,114013
 1.8000e+000 114238 -3.7805e+001 -1.1531e+002  5.4281e+000 21517 113961,114013,113987
 1.8000e+000 114215 -5.7413e+001 -1.1278e+002 -7.1901e+000 21517 114039,114117,114091
 1.8000e+000 114192 -4.1853e+001 -8.9089e+001  1.0535e+001 21517 113961,114143,114117
 1.8000e+000 114169  7.8887e+000 -8.8294e+001 -6.0288e+000 21517 114039,114091,114065
 1.8000e+000 114581 -2.0533e+001 -1.3021e+002  1.1533e+000 21027 114359,114463,114437
 1.8000e+000 114558 -1.1411e+001 -1.1826e+002  1.5525e+001 21027 114333,114463,114359
 1.8000e+000 114535 -8.9737e+000 -1.1929e+002 -3.3531e+000 21027 114359,114437,114385
 1.8000e+000 114512 -7.6287e+000 -1.1758e+002  1.2566e+001 21027 114307,114463,114333
 1.8000e+000 114489  1.9820e+001 -1.1016e+002 -6.0999e+000 21027 114385,114437,114411
 1.8000e+000 114912 -3.9972e+001 -1.0657e+002  1.9007e+000 20623 114713,114791,114765
 1.8000e+000 114889 -6.5156e+000 -9.2532e+001 -1.1111e+001 20623 114687,114791,114713
 1.8000e+000 114866 -3.1589e+001 -1.2582e+002  1.7000e-001 20623 114687,114817,114791
 1.8000e+000 114843 -5.5777e+001 -1.2502e+002  8.7122e+000 20623 114713,114765,114739
 1.8000e+000 115290 -1.0927e+001 -9.1150e+001  4.6216e+000 20375 115313,115146,115094
 1.8000e+000 115267 -1.3991e+001 -9.1866e+001  6.1533e+000 20375 115313,115094,115042
 1.8000e+000 115244 -1.3592e+001 -8.6918e+001  4.1825e+000 20375 115385,115016,115172
 1.8000e+000 115221  2.3546e+001 -7.9052e+001  6.3214e+000 20375 115042,115094,115068
 1.8000e+000 115198 -1.8142e+001 -1.0880e+002  4.6901e+000 20375 115094,115146,115120
 1.8000e+000 115339 -2.0697e+001 -1.0094e+002 -2.5397e-001 20375 115172,115146,115313
 1.8000e+000 115362 -1.3497e+001 -8.9001e+001  3.6148e+000 20375 115385,115172,115313
 1.8000e+000 115411 -1.1741e+001 -8.8475e+001  6.4212e+000 20375 115042,115016,115385
 1.8000e+000 115434 -1.2566e+001 -9.1690e+001  6.0651e+000 20375 115042,115385,115313
 1.8000e+000 115891 -3.8916e+001 -9.3847e+001  1.3399e+001 19971 115617,115747,115643
 1.8000e+000 115868 -3.0395e+001 -7.3867e+001  1.3806e+001 19971 115617,115773,115747
 1.8000e+000 115845 -2.3378e+001 -1.3952e+002  7.5179e+000 19971 115643,115721,115695
 1.8000e+000 115822  9.6478e+000 -6.6975e+001 -4.8899e-002 19971 115643,115747,115721
 1.8000e+000 115799  2.1171e+001 -1.5331e+002 -7.3091e-001 19971 115643,115695,115669
 1.8000e+000 115992 -7.6736e+001 -1.9862e+002 -3.5744e+001 19659 115914,115966,115940
 1.8000e+000 116142 -5.7778e+000 -3.2360e+001  5.9573e-001 18997 116041,116093,116067
 1.8000e+000 116119 -1.8086e+001 -6.4480e+001  4.7002e+000 18997 116015,116093,116041
 1.8000e+000 116343 -1.2083e+001 -1.1008e+002 -3.1351e+000 18707 116193,116245,116219
 1.8000e+000 116320 -1.7131e+001 -1.1475e+002 -6.7904e+000 18707 116193,116271,116245
 1.8000e+000 116297 -4.4279e+000 -8.7316e+001 -3.4265e+000 18707 116167,116271,116193
 1.8000e+000 116747 -4.4104e+000 -9.4888e+001 -1.9038e+000 18301 116525,116629,116551
 1.8000e+000 116724 -6.5414e+000 -8.0275e+001 -1.2556e-001 18301 116473,116629,116525
 1.8000e+000 116701 -5.0819e+000 -8.1592e+001 -5.7067e+000 18301 116473,116525,116499
 1.8000e+000 116678  4.8640e-001 -9.9709e+001 -1.6262e+000 18301 116551,116603,116577
 1.8000e+000 116655 -8.3042e+000 -1.0406e+002 -3.7680e+000 18301 116551,116629,116603
 1.8000e+000 117147 -5.2566e+001 -1.2320e+002  2.1335e-001 17747 116899,117029,116925
 1.8000e+000 117124 -3.0526e+001 -9.2817e+001  1.1876e+001 17747 116873,117029,116899
 1.8000e+000 117101 -5.1017e+001 -1.2089e+002  8.8665e-001 17747 116925,117029,116951
 1.8000e+000 117078 -4.4079e+001 -1.0248e+002  1.7252e+000 17747 116951,117029,117003
 1.8000e+000 117055 -6.2595e+001 -1.3509e+002 -7.6094e+000 17747 116951,117003,116977
 1.8000e+000 117368  3.2389e+001 -1.0979e+002  4.8954e-001 17293 117244,117296,117270
 1.8000e+000 117345  1.4043e+001 -1.0788e+002 -3.4191e+000 17293 117192,117296,117244
 1.8000e+000 117322 -5.6431e+000 -1.0282e+002 -1.3575e+000 17293 117192,117244,117218
 1.8000e+000 117699 -1.8513e+000 -7.9521e+001 -9.7683e+000 16896 117526,117604,117552
 1.8000e+000 117676 -4.7684e+001 -1.2691e+002  8.9734e+000 16896 117500,117604,117526
 1.8000e+000 117653 -5.2270e+001 -9.9014e+001 -4.1384e+000 16896 117552,117604,117578
 1.8000e+000 117630 -3.7667e+001 -1.6588e+002  1.7966e+001 16896 117474,117604,117500
 1.8000e+000 117849 -1.1751e+002 -2.2996e+002 -8.7089e+000 16534 117722,117774,117748
 1.8000e+000 117826 -9.2008e+001 -2.7842e+002 -3.8147e+001 16534 117722,117800,117774
 1.8000e+000 118070 -6.6732e+000 -1.0235e+002  1.1288e+001 16194 117946,117998,117972
 1.8000e+000 118047 -1.7985e+001 -1.2148e+002  6.5160e+000 16194 117894,117998,117946
 1.8000e+000 118024 -2.5438e+001 -1.1123e+002 -1.9091e+000 16194 117894,117946,117920
 1.8000e+000 118173 -1.0888e+001 -1.1792e+002  0.0000e+000 15968 118095,118147,118121
 1.8000e+000 118276 -3.1175e+001 -1.1145e+002  1.8970e+000 15433 118299,118198,118250
 1.8000e+000 118325 -3.2694e+001 -1.1499e+002  1.9319e+000 15433 118224,118198,118299
 1.8000e+000 118450 -6.3279e+001 -1.3634e+002  1.2967e+001 421 118372,118424,118398
 1.9000e+000 69891 -1.5768e+001 -1.4613e+002  5.7854e-001 68988 69447,69681,69629
 1.9000e+000 69868  6.2066e+001 -1.1434e+002  8.3081e+000 68988 69421,69681,69447
 1.9000e+000 69845  1.0049e+001 -7.1372e+001 -4.3616e+000 68988 69447,69629,69577
 1.9000e+000 69822 -3.7702e+001 -1.6023e+002 -2.3822e+001 68988 69447,69577,69473
 1.9000e+000 69799  3.9247e+001 -1.6240e+002  5.1009e+001 68988 69629,69681,69655
 1.9000e+000 69776 -3.9197e+001 -9.3066e+001 -2.2008e-001 68988 69577,69629,69603
 1.9000e+000 69753 -3.0252e+001 -1.4428e+002 -2.5796e+001 68988 69473,69577,69551
 1.9000e+000 69730 -5.3848e+001 -3.1192e+002 -3.4232e+001 68988 69473,69551,69525
 1.9000e+000 69707 -9.5203e+001 -1.9367e+002  2.6868e-001 68988 69473,69525,69499
 1.9000e+000 69992 -8.2560e+001 -1.7048e+002 -3.9388e+001 68676 69914,69966,69940
 1.9000e+000 70392 -5.0000e+001 -1.3075e+002  1.2051e+001 68478 70118,70248,70144
 1.9000e+000 70369  3.5585e+001 -1.3283e+002  3.6352e+001 68478 70118,70274,70248
 1.9000e+000 70346 -3.1853e+001 -9.3053e+001 -7.5213e-001 68478 70144,70222,70196
 1.9000e+000 70323 -2.4116e+001 -7.4607e+001 -1.4108e+000 68478 70144,70248,70222
 1.9000e+000 70300 -3.6919e+001 -1.0395e+002 -3.1364e+000 68478 70144,70196,70170
 1.9000e+000 70841  6.8406e+001 -7.1973e+001 -3.3823e+001 68280 70570,70622,70596
 1.9000e+000 70818 -2.3330e+001 -8.6356e+001 -8.3412e+000 68280 70544,70622,70570
 1.9000e+000 70795 -8.3101e+000 -5.2210e+001 -5.5730e+000 68280 70544,70674,70622
 1.9000e+000 70772 -1.3269e+001 -3.9805e+001  3.0921e+000 68280 70622,70674,70648
 1.9000e+000 70749 -2.4983e+001 -9.5560e+001  8.0350e+000 68280 70518,70674,70544
 1.9000e+000 70726  7.8344e+001 -9.7579e+001  3.8913e+001 68280 70518,70700,70674
 1.9000e+000 70991 -5.2097e+000 -5.1010e+002  1.4608e+001 67968 70864,70916,70890
 1.9000e+000 70968 -1.2895e+002 -5.1094e+002  5.2978e+001 67968 70864,70942,70916
 1.9000e+000 71141 -2.4927e+002 -5.0432e+002 -1.9847e+001 67770 71040,71092,71066
 1.9000e+000 71118 -2.2423e+002 -5.9479e+002  2.4484e+001 67770 71014,71092,71040
 1.9000e+000 71651  4.7163e+000 -7.7162e+001 -1.4181e+001 67366 71746,71674,71458
 1.9000e+000 71628  9.8168e+000 -5.4738e+001 -1.9602e+001 67366 71674,71354,71510
 1.9000e+000 71605 -6.4505e+000 -9.0164e+001 -9.3914e+000 67366 71746,71458,71432
 1.9000e+000 71582 -2.6957e+001 -8.0908e+001 -4.9690e+000 67366 71354,71432,71380
 1.9000e+000 71559 -2.7208e+001 -5.7120e+001 -1.6406e+001 67366 71380,71432,71406
 1.9000e+000 71536 -1.4136e-001  2.8012e+000  1.6329e-002 67366 71328,71510,71354
 1.9000e+000 71700  1.3359e+001 -6.0994e+001 -1.7592e+001 67366 71484,71458,71674
 1.9000e+000 71723  4.8075e+000 -6.2397e+001 -9.9145e+000 67366 71484,71674,71510
 1.9000e+000 71772 -9.5303e+000 -6.1788e+001 -1.8643e+001 67366 71354,71674,71746
 1.9000e+000 71795 -1.2418e+001 -6.7538e+001 -1.7173e+001 67366 71354,71746,71432
 1.9000e+000 71896 -9.4528e+001 -1.9128e+002  0.0000e+000 67146 71818,71870,71844
 1.9000e+000 71997 -7.5996e+001 -1.3742e+002  2.6586e+001 66948 71919,71971,71945
 1.9000e+000 72149  1.5815e+000 -9.6737e+001 -1.5835e+001 66700 72172,72074,72048
 1.9000e+000 72126 -3.1670e+001 -1.1449e+002 -6.7605e+000 66700 72172,72048,72022
 1.9000e+000 72198 -5.4590e+001 -1.1922e+002  5.3798e+000 66700 72244,72172,72100
 1.9000e+000 72221 -4.8360e+001 -1.0938e+002 -7.8655e+000 66700 72100,72172,72022
 1.9000e+000 72270 -2.7316e+001 -5.9051e+001 -1.1733e+001 66700 72074,72172,72244
 1.9000e+000 72623 -3.1216e+001 -1.0215e+002  3.5028e+000 66502 72424,72502,72450
 1.9000e+000 72600 -2.4007e+001 -8.3388e+001  3.0816e+000 66502 72398,72502,72424
 1.9000e+000 72577 -1.9537e+001 -9.6731e+001 -1.2169e+000 66502 72398,72528,72502
 1.9000e+000 72554 -3.0127e+001 -8.9824e+001 -2.4446e-001 66502 72450,72502,72476
 1.9000e+000 72920 -6.1010e+001 -1.3790e+002  2.1522e+000 65941 72672,72776,72750
 1.9000e+000 72897 -5.8373e+001 -1.1207e+002  1.5053e+001 65941 72646,72776,72672
 1.9000e+000 72874 -4.6404e+001 -1.3542e+002  6.3713e+000 65941 72672,72750,72724
 1.9000e+000 72851 -5.7958e+001 -1.0772e+002  1.9535e+001 65941 72672,72724,72698
 1.9000e+000 72828 -4.2753e+001 -1.0279e+002  1.0815e+001 65941 72646,72802,72776
 1.9000e+000 73241  1.9387e+001 -8.4971e+001  1.4534e+001 65743 73264,73071,73045
 1.9000e+000 73218 -1.5540e+001 -1.0017e+002  1.7545e+001 65743 73480,73264,73045
 1.9000e+000 73195 -1.1928e+001 -8.2216e+001  2.7381e-001 65743 73336,72967,73097
 1.9000e+000 73172 -4.6426e+001 -7.3296e+001 -8.9189e+000 65743 73408,72993,72967
 1.9000e+000 73149 -1.1296e+001 -8.6233e+001 -1.4931e+000 65743 72967,73123,73097
 1.9000e+000 73290  9.9873e-003 -9.5379e+001  4.5246e+000 65743 73097,73071,73264
 1.9000e+000 73313 -6.5711e+000 -8.0135e+001  8.6061e+000 65743 73336,73097,73264
 1.9000e+000 73362 -3.5773e+001 -8.8540e+001 -4.2820e+000 65743 73408,72967,73336
 1.9000e+000 73385 -9.2059e-001 -7.8260e+001  5.8519e+000 65743 73019,73336,73264
 1.9000e+000 73434 -2.8589e+001 -4.7404e+001  1.2719e+001 65743 73019,72993,73408
 1.9000e+000 73457 -1.2325e+000 -6.6082e+001  1.0180e+001 65743 73019,73408,73336
 1.9000e+000 73506  7.7185e+000 -5.8224e+001  8.4442e+000 65743 73019,73264,73480
 1.9000e+000 73989  1.8002e+001 -6.2144e+001  1.1338e+001 65453 73793,73845,73819
 1.9000e+000 73966 -2.2561e+001 -7.1708e+001  1.3894e+001 65453 73741,73845,73793
 1.9000e+000 73943  8.2674e+000 -5.4232e+001  6.9053e+000 65453 73715,73845,73741
 1.9000e+000 73920 -1.3039e+001 -7.8342e+001  2.1856e+001 65453 73741,73793,73767
 1.9000e+000 73897  1.9921e+001 -1.8501e+001  7.0422e+000 65453 73715,73871,73845
 1.9000e+000 74357 -8.4561e+000 -8.8878e+001 -3.3898e+001 65141 74380,74138,74086
 1.9000e+000 74334 -3.0234e+001 -1.2945e+002 -2.5680e+001 65141 74380,74086,74060
 1.9000e+000 74311 -3.3574e+001 -1.2396e+002 -8.2159e+000 65141 74138,74190,74164
 1.9000e+000 74288 -2.0651e+001 -1.4890e+002 -1.2341e+001 65141 74060,74216,74190
 1.9000e+000 74265 -2.6865e+001 -1.6688e+002 -2.1984e-001 65141 74034,74216,74060
 1.9000e+000 74242 -1.9846e+001 -4.7721e+001 -1.5269e+001 65141 74086,74138,74112
 1.9000e+000 74406 -1.9589e+001 -1.2370e+002 -1.4620e+001 65141 74190,74138,74380
 1.9000e+000 74429 -2.6890e+001 -1.3830e+002 -9.7286e+000 65141 74190,74380,74060
 1.9000e+000 74937 -4.5132e+001 -9.2560e+001 -2.5661e+001 64737 74614,74666,74640
 1.9000e+000 74914 -5.9102e+001 -1.1653e+002 -1.8337e+001 64737 74614,74796,74666
 1.9000e+000 74891 -4.2070e+001 -8.1076e+001 -1.9444e+000 64737 74960,74718,74666
 1.9000e+000 74868 -3.6776e+001 -8.9521e+001 -1.0068e+001 64737 74960,74666,74770
 1.9000e+000 74845 -3.8920e+001 -7.2089e+001 -1.1204e+001 64737 74666,74796,74770
 1.9000e+000 74822 -4.1818e+001 -8.8348e+001  2.5044e+000 64737 74666,74718,74692
 1.9000e+000 74986 -4.5250e+001 -8.9794e+001 -1.9942e+000 64737 74744,74718,74960
 1.9000e+000 75009 -4.2282e+001 -1.0257e+002 -1.0347e+001 64737 74744,74960,74770
 1.9000e+000 75306  1.7971e+001 -7.2274e+001  2.6279e+001 64133 75329,75110,75084
 1.9000e+000 75283 -3.2179e+000 -9.7790e+001  1.3038e+001 64133 75401,75329,75084
 1.9000e+000 75260  7.4656e-001 -1.0113e+002  1.5919e+001 64133 75401,75084,75058
 1.9000e+000 75237  2.3739e+000 -1.0894e+002  1.1288e+001 64133 75473,75136,75110
 1.9000e+000 75214 -2.2999e+001 -7.5067e+001  7.1175e-001 64133 75032,75188,75162
 1.9000e+000 75355  4.5023e+000 -1.0691e+002  1.2314e+001 64133 75473,75110,75329
 1.9000e+000 75378 -2.4917e+000 -9.2787e+001  1.9293e+000 64133 75162,75329,75032
 1.9000e+000 75427  1.9468e-002 -8.9541e+001  9.9711e+000 64133 75032,75329,75401
 1.9000e+000 75450 -2.3420e+001 -1.1512e+002  2.3869e+001 64133 75545,75401,75058
 1.9000e+000 75499 -1.7701e+001 -1.0533e+002 -1.0512e-001 64133 75162,75136,75473
 1.9000e+000 75522 -6.4772e+000 -9.0824e+001  4.7707e+000 64133 75162,75473,75329
 1.9000e+000 75571  2.2681e+000 -5.9306e+001  1.3174e+001 64133 75032,75401,75545
 1.9000e+000 75851 -2.5344e+001 -8.4355e+001 -1.0538e-001 63843 75874,75753,75727
 1.9000e+000 75828 -2.2683e+001 -8.5900e+001 -4.8658e+000 63843 75946,75874,75727
 1.9000e+000 75805 -2.9596e+001 -9.1960e+001 -2.2004e+000 63843 76018,75946,75727
 1.9000e+000 75900 -2.1411e+001 -8.2717e+001 -4.2580e+000 63843 75779,75753,75874
 1.9000e+000 75923 -2.1392e+001 -6.6662e+001 -1.1468e+001 63843 75779,75874,75675
 1.9000e+000 75972 -3.0807e+001 -7.9419e+001 -3.8368e+000 63843 75675,75874,75946
 1.9000e+000 75995 -2.8759e+001 -8.5076e+001 -6.0447e+000 63843 75675,75946,75701
 1.9000e+000 76044 -3.1396e+001 -9.0858e+001 -9.5785e+000 63843 75701,75946,76018
 1.9000e+000 76454  5.3800e+001 -1.5300e+001 -9.8266e+000 63439 76477,76255,76229
 1.9000e+000 76431  3.5009e+001 -2.6614e+001  1.8939e+001 63439 76477,76229,76359
 1.9000e+000 76408  3.1239e+001 -9.6556e+000  2.7678e+001 63439 76307,76359,76333
 1.9000e+000 76385 -3.1995e+000 -4.4043e+001 -2.9069e+000 63439 76255,76307,76281
 1.9000e+000 76503  4.7821e+000 -3.4840e+001 -6.8637e+000 63439 76307,76255,76477
 1.9000e+000 76526  2.0996e+001 -3.1886e+001  1.7384e+001 63439 76307,76477,76359
 1.9000e+000 76926 -1.1520e+001 -7.1134e+001 -1.3737e+000 63049 76704,76782,76756
 1.9000e+000 76903 -2.3786e+001 -7.3289e+001 -1.3465e+001 63049 76704,76808,76782
 1.9000e+000 76880 -1.1391e+001 -7.7755e+001 -5.0101e-002 63049 76704,76756,76730
 1.9000e+000 76857 -1.3208e+001 -3.7547e+001  8.9182e-002 63049 76678,76808,76704
 1.9000e+000 76834 -7.8834e+000 -1.0930e+001 -1.0024e+001 63049 76652,76808,76678
 1.9000e+000 77076  1.0737e+001 -1.0606e+002 -1.9764e+000 62737 76975,77027,77001
 1.9000e+000 77053  1.7058e+001 -1.1962e+002 -9.5228e+000 62737 76949,77027,76975
 1.9000e+000 77324 -4.4400e+001 -1.1170e+002  3.1239e+000 62277 77347,77177,77125
 1.9000e+000 77301 -4.2933e+001 -1.0826e+002 -1.3868e+000 62277 77347,77125,77229
 1.9000e+000 77278 -4.2138e+001 -1.1376e+002 -4.7655e+000 62277 77099,77229,77125
 1.9000e+000 77255 -4.8669e+001 -1.3108e+002  6.0065e+000 62277 77125,77177,77151
 1.9000e+000 77373 -4.6788e+001 -1.2142e+002  7.6905e+000 62277 77203,77177,77347
 1.9000e+000 77396 -3.8984e+001 -1.1263e+002  2.0554e+000 62277 77203,77347,77229
 1.9000e+000 77857 -1.2228e+001 -1.3267e+002 -1.2973e-002 61758 77635,77739,77661
 1.9000e+000 77834 -2.2300e+001 -1.4476e+002 -4.5725e+000 61758 77583,77739,77635
 1.9000e+000 77811 -2.4053e+001 -1.6422e+002 -1.3017e+001 61758 77583,77635,77609
 1.9000e+000 77788  1.3512e+001 -1.3574e+002  1.2913e+001 61758 77661,77713,77687
 1.9000e+000 77765 -1.8614e+001 -1.5432e+002 -2.1148e+000 61758 77661,77739,77713
 1.9000e+000 78491 -3.8087e+001 -8.0866e+001  6.7924e+000 61418 78171,78301,78249
 1.9000e+000 78468 -2.9173e+001 -5.5757e+001  1.6493e+001 61418 78145,78301,78171
 1.9000e+000 78445 -3.0038e+001 -7.1886e+001 -2.4375e+000 61418 78171,78249,78223
 1.9000e+000 78422 -2.7116e+001 -5.4209e+001 -1.5697e+000 61418 78145,78327,78301
 1.9000e+000 78399 -3.8540e+001 -8.4968e+001  4.1468e+000 61418 78249,78301,78275
 1.9000e+000 78376 -1.9103e+001 -8.0419e+001 -3.7267e+000 61418 78171,78223,78197
 1.9000e+000 78353 -3.4947e+001 -8.2094e+001 -9.0554e+000 61418 78119,78327,78145
 1.9000e+000 78690 -3.8159e+001 -9.1167e+001 -2.1034e+000 61014 78713,78566,78540
 1.9000e+000 78667 -4.5582e+000 -9.4097e+001 -2.7763e-001 61014 78713,78540,78618
 1.9000e+000 78644 -3.8251e+001 -1.1592e+002 -1.6745e+001 61014 78514,78618,78540
 1.9000e+000 78739  1.1429e+001 -8.9335e+001  2.5514e+001 61014 78592,78566,78713
 1.9000e+000 78762 -7.6457e-001 -1.1101e+002  1.0559e+000 61014 78785,78713,78618
 1.9000e+000 78811  4.6981e+001 -9.2308e+001 -3.8230e+000 61014 78592,78713,78785
 1.9000e+000 79398 -1.7435e+001 -8.5348e+001 -8.9706e+000 60624 79101,79179,79153
 1.9000e+000 79375 -1.6841e+000 -9.2684e+001 -6.1900e+000 60624 79101,79231,79179
 1.9000e+000 79352 -1.4776e+001 -1.0229e+002 -1.2923e+001 60624 79075,79231,79101
 1.9000e+000 79329  3.7205e+001 -1.1699e+002  1.2359e+001 60624 79075,79257,79231
 1.9000e+000 79306  6.9547e+000 -7.2710e+001 -5.2884e+000 60624 79179,79231,79205
 1.9000e+000 79283 -8.3115e+000 -6.5132e+001 -2.3240e+000 60624 79101,79153,79127
 1.9000e+000 79776 -3.8974e+001 -1.1942e+002  1.2439e+001 60070 79528,79658,79606
 1.9000e+000 79753 -3.6605e+001 -9.5313e+001 -1.5133e+000 60070 79502,79658,79528
 1.9000e+000 79730 -5.1042e+001 -1.1572e+002  1.7440e+001 60070 79528,79606,79580
 1.9000e+000 79707 -4.5900e+000 -1.0842e+002  4.8847e+000 60070 79606,79658,79632
 1.9000e+000 79684 -3.7744e+000 -7.0719e+001 -1.9009e+001 60070 79528,79580,79554
 1.9000e+000 80105 -2.9070e+001 -9.6594e+001  1.2282e+001 59758 80128,79958,79906
 1.9000e+000 80082 -2.9993e+001 -8.7584e+001  7.6948e+000 59758 80128,79906,80010
 1.9000e+000 80059 -4.2663e+001 -1.0131e+002  3.3001e+001 59758 79906,79958,79932
 1.9000e+000 80036 -4.5248e+001 -9.5326e+001  4.4005e+000 59758 79880,80010,79906
 1.9000e+000 80154 -2.9629e+001 -1.0242e+002  1.3067e+001 59758 79984,79958,80128
 1.9000e+000 80177 -3.2285e+001 -9.5716e+001  8.6486e+000 59758 79984,80128,80010
 1.9000e+000 80376 -1.9567e+001 -9.3881e+001 -1.0981e+000 59312 80226,80304,80252
 1.9000e+000 80353 -1.3649e+001 -9.5898e+001  7.8467e-001 59312 80200,80304,80226
 1.9000e+000 80330 -3.8102e+001 -8.5363e+001  2.7051e+001 59312 80252,80304,80278
 1.9000e+000 80805 -1.1772e+001 -6.6902e+001 -1.2383e+001 58908 80900,80828,80638
 1.9000e+000 80782 -2.7211e+001 -8.3400e+001 -1.5676e+001 58908 80828,80560,80508
 1.9000e+000 80759 -9.2634e+000 -6.4049e+001 -9.6903e+000 58908 80900,80638,80612
 1.9000e+000 80736 -4.4459e+000 -5.8148e+001  3.1387e+001 58908 80482,80664,80508
 1.9000e+000 80713  3.2790e+000 -7.5411e+001  2.3254e+000 58908 80560,80612,80586
 1.9000e+000 80690  1.7134e+001 -1.5781e+002 -6.4015e+001 58908 80508,80560,80534
 1.9000e+000 80854 -3.2689e+000 -7.6511e+001  3.3584e-001 58908 80664,80638,80828
 1.9000e+000 80877 -1.2715e+001 -1.0157e+002 -3.9026e-001 58908 80664,80828,80508
 1.9000e+000 80926 -1.4832e+001 -6.0917e+001 -8.9053e+000 58908 80560,80828,80900
 1.9000e+000 80949 -1.1158e+001 -5.8779e+001 -5.8436e+000 58908 80560,80900,80612
 1.9000e+000 81246  4.8548e+000 -6.1832e+001 -1.5358e+000 58482 81076,81128,81102
 1.9000e+000 81223 -2.0651e+001 -1.2126e+002 -1.4372e+001 58482 80972,81128,81076
 1.9000e+000 81200 -4.8244e+000 -7.8864e+001 -1.7646e+001 58482 80972,81076,81050
 1.9000e+000 81177 -1.4265e+001 -1.0563e+002 -2.0192e+001 58482 80998,81050,81024
 1.9000e+000 81154 -1.1986e+001 -8.1414e+001 -2.2657e+001 58482 80972,81050,80998
 1.9000e+000 81754 -2.3622e+001 -6.3443e+001  6.1756e+000 57828 81457,81613,81483
 1.9000e+000 81731 -2.6426e+001 -6.6172e+001  1.3016e+000 57828 81431,81613,81457
 1.9000e+000 81708 -2.6365e+001 -6.9750e+001  8.6304e+000 57828 81483,81613,81509
 1.9000e+000 81685 -3.3918e+001 -7.6163e+001  1.1777e+001 57828 81509,81613,81587
 1.9000e+000 81662 -3.2077e+001 -1.1895e+002  2.5546e+001 57828 81509,81587,81535
 1.9000e+000 81639  1.3731e+001 -8.4593e+001  8.1900e+000 57828 81535,81587,81561
 1.9000e+000 82002 -5.5083e+001 -1.5473e+002 -7.3521e-001 57374 82025,81855,81829
 1.9000e+000 81979 -5.8447e+001 -1.4331e+002  8.3365e+000 57374 82025,81829,81907
 1.9000e+000 81956 -5.8339e+001 -1.2917e+002  6.6003e+000 57374 81803,81907,81829
 1.9000e+000 81933 -2.7979e+001 -1.0835e+002  1.6982e+001 57374 81777,81907,81803
 1.9000e+000 82051 -5.6374e+001 -1.4132e+002 -8.4098e-001 57374 81881,81855,82025
 1.9000e+000 82074 -5.5663e+001 -1.3017e+002  1.1606e+001 57374 81881,82025,81907
 1.9000e+000 82356 -3.2955e+001 -7.6246e+001 -2.0464e+000 56913 82180,82232,82206
 1.9000e+000 82333 -2.7071e+001 -7.0683e+001  1.3103e+001 56913 82180,82284,82232
 1.9000e+000 82310 -1.0765e+001 -5.1700e+001  2.0034e+001 56913 82379,82232,82284
 1.9000e+000 82405  9.4698e+000 -5.2719e+001  4.9168e-001 56913 82258,82232,82379
 1.9000e+000 82764 -1.1193e+001 -3.6594e+001 -6.3897e+000 56523 82614,82666,82640
 1.9000e+000 82741 -1.2337e+001 -3.8061e+001 -5.8799e+000 56523 82614,82692,82666
 1.9000e+000 82718  2.1707e+001 -3.6364e+001 -2.3383e+001 56523 82588,82692,82614
 1.9000e+000 83368  5.6665e+000 -1.1091e+002 -6.1050e+000 55969 82973,83155,83129
 1.9000e+000 83345  4.5171e+001 -9.4579e+001 -1.0585e+001 55969 82973,83181,83155
 1.9000e+000 83322 -2.7807e+001 -9.6688e+001 -3.0946e+000 55969 82973,83129,82999
 1.9000e+000 83299 -5.9904e+001 -1.0736e+002  7.7192e+000 55969 83391,83025,82999
 1.9000e+000 83276 -4.0566e+001 -1.0318e+002  3.0102e-001 55969 83391,82999,83129
 1.9000e+000 83253  4.5275e+000 -7.9356e+001  1.7946e+001 55969 83077,83129,83103
 1.9000e+000 83230 -4.2609e+001 -7.3658e+001 -9.9745e+000 55969 83025,83077,83051
 1.9000e+000 83207 -7.5384e-001 -1.0787e+002  1.1488e+001 55969 82947,83181,82973
 1.9000e+000 83417 -4.0166e+001 -1.0176e+002  4.9305e+000 55969 83077,83025,83391
 1.9000e+000 83440 -3.2665e+001 -1.0558e+002 -2.5785e+000 55969 83077,83391,83129
 1.9000e+000 83946 -5.7617e+001 -1.3866e+002  3.1780e+001 55771 83969,83779,83727
 1.9000e+000 83923 -4.0946e+001 -1.0697e+002  1.6721e+001 55771 83969,83727,83623
 1.9000e+000 83900 -4.3264e+001 -4.9658e+001  8.4426e+000 55771 83623,83727,83649
 1.9000e+000 83877 -1.8991e+000 -1.9640e+002  3.6841e+001 55771 83727,83779,83753
 1.9000e+000 83854 -6.8902e+001 -1.3102e+002  3.5068e+001 55771 83675,83727,83701
 1.9000e+000 83831 -8.1625e+001 -9.7760e+001  5.2510e+001 55771 83649,83727,83675
 1.9000e+000 83995 -4.9757e+001 -1.4366e+002 -9.1788e+000 55771 83805,83779,83969
 1.9000e+000 84018 -1.2846e+001 -7.8149e+001 -2.8026e+001 55771 83805,83969,83623
 1.9000e+000 84168 -4.5783e+000 -5.4437e+001 -5.9273e-001 55367 84191,84067,84041
 1.9000e+000 84145 -6.9455e+000 -5.5166e+001  2.0593e-001 55367 84191,84041,84119
 1.9000e+000 84217 -7.2785e+000 -5.1680e+001 -1.0040e+000 55367 84093,84067,84191
 1.9000e+000 84240 -1.2250e+001 -5.4034e+001 -1.1669e-001 55367 84093,84191,84119
 1.9000e+000 84571 -1.1498e+001 -1.1488e+002 -1.1757e+001 54913 84398,84450,84424
 1.9000e+000 84548 -8.5104e+000 -1.0375e+002 -5.1128e+000 54913 84372,84450,84398
 1.9000e+000 84525 -2.4839e+001 -1.1740e+002  5.1467e+000 54913 84346,84450,84372
 1.9000e+000 84502 -5.7505e+000 -7.3358e+001 -9.1915e+000 54913 84346,84476,84450
 1.9000e+000 85126 -5.6784e+001 -1.2963e+002 -5.0391e+000 54402 84858,84936,84910
 1.9000e+000 85103 -4.2083e+001 -9.7572e+001 -9.9193e+000 54402 84806,84936,84858
 1.9000e+000 85080 -5.6280e+001 -8.8649e+001 -7.5375e+000 54402 84780,84936,84806
 1.9000e+000 85057 -4.4500e+001 -1.0840e+002 -3.5709e+000 54402 84806,84858,84832
 1.9000e+000 85034 -4.5935e+001 -8.1219e+001  6.4345e+000 54402 84780,84962,84936
 1.9000e+000 85011 -7.1608e+001 -6.9879e+001 -2.5728e+000 54402 84858,84910,84884
 1.9000e+000 84988 -4.6105e+001 -7.8428e+001  5.3615e+000 54402 84754,84962,84780
 1.9000e+000 85396 -3.1096e+001 -3.9231e+001 -4.8534e+000 53998 85197,85249,85223
 1.9000e+000 85373 -2.1051e+001 -5.6627e+001 -1.1052e+000 53998 85197,85275,85249
 1.9000e+000 85350 -3.3678e+001 -6.6876e+001 -5.7762e+000 53998 85171,85275,85197
 1.9000e+000 85327 -3.4460e+000 -5.6383e+001 -9.0963e+000 53998 85171,85301,85275
 1.9000e+000 85749 -7.4110e+000 -1.0410e+002 -1.0112e+001 53636 85524,85628,85550
 1.9000e+000 85726 -3.4138e+001 -1.2583e+002 -2.4076e-001 53636 85524,85654,85628
 1.9000e+000 85703  3.4299e+001 -1.0201e+002 -3.4409e+001 53636 85550,85602,85576
 1.9000e+000 85680 -1.1066e+001 -1.0474e+002 -1.3654e+001 53636 85550,85628,85602
 1.9000e+000 86127  6.0558e+000 -1.0278e+002  1.9757e+001 52982 86150,85957,85879
 1.9000e+000 86104 -1.7710e+001 -1.1355e+002  1.5203e+001 52982 86150,85879,85853
 1.9000e+000 86081  4.3282e+000 -1.4793e+002  3.0706e+001 52982 85957,86009,85983
 1.9000e+000 86058 -2.8719e+001 -1.0873e+002  1.4345e+001 52982 85879,85957,85931
 1.9000e+000 86035 -1.1654e+001 -9.2835e+001  4.7483e-002 52982 85879,85931,85905
 1.9000e+000 86176  1.9303e+001 -1.1611e+002  1.6758e+001 52982 86009,85957,86150
 1.9000e+000 86199  5.3434e+000 -1.2026e+002  1.3104e+001 52982 86009,86150,85853
 1.9000e+000 86398 -8.8165e+000 -6.6591e+001  4.0639e+000 52542 86421,86248,86222
 1.9000e+000 86375 -2.0938e+001 -6.8453e+001 -1.6097e+000 52542 86421,86222,86300
 1.9000e+000 86352 -1.8707e+001 -6.3401e+001 -2.0830e+000 52542 86222,86326,86300
 1.9000e+000 86447  3.8864e+000 -6.7176e+001  9.4983e+000 52542 86274,86248,86421
 1.9000e+000 86470 -7.9377e+000 -7.1330e+001  2.3073e+000 52542 86274,86421,86300
 1.9000e+000 86669 -1.5123e+001 -7.4102e+001 -2.6765e+001 52230 86692,86571,86545
 1.9000e+000 86646 -1.9398e+001 -8.2222e+001 -1.9731e+001 52230 86692,86545,86519
 1.9000e+000 86623 -4.0983e+001 -6.3994e+001 -1.1926e+001 52230 86493,86597,86519
 1.9000e+000 86718 -2.0299e+001 -7.4568e+001 -1.8549e+001 52230 86597,86571,86692
 1.9000e+000 86741 -2.9384e+001 -8.4875e+001 -1.1139e+001 52230 86597,86692,86519
 1.9000e+000 87153 -4.7933e+001 -7.3655e+001  2.8432e+000 51640 86980,87058,87032
 1.9000e+000 87130 -4.4502e+001 -7.8093e+001  1.1479e+000 51640 86928,87058,86980
 1.9000e+000 87107 -4.0772e+001 -1.0634e+002 -1.3589e+001 51640 86928,86980,86954
 1.9000e+000 87084 -2.8917e+001 -6.5554e+001  1.1540e+000 51640 86980,87032,87006
 1.9000e+000 87659 -1.7263e+001 -7.0725e+001  6.8410e+000 51029 87682,87440,87362
 1.9000e+000 87636 -1.8780e+001 -7.7162e+001 -3.3754e+000 51029 87682,87362,87336
 1.9000e+000 87613 -3.2734e+001 -1.1883e+002 -2.5235e+000 51029 87440,87518,87466
 1.9000e+000 87590 -3.4485e+001 -7.3782e+001  9.0227e+000 51029 87362,87440,87414
 1.9000e+000 87567 -3.2556e+001 -6.6200e+001  2.3673e+001 51029 87362,87414,87388
 1.9000e+000 87544 -4.3856e+001 -1.0313e+002  2.3001e+000 51029 87466,87518,87492
 1.9000e+000 87708 -1.5211e+001 -8.1491e+001  2.3027e+000 51029 87518,87440,87682
 1.9000e+000 87731 -1.6438e+001 -9.5023e+001 -4.1488e+000 51029 87518,87682,87336
 1.9000e+000 87881 -4.0058e+001 -9.7261e+001 -9.8403e-002 50739 87780,87832,87806
 1.9000e+000 87858 -3.7862e+001 -8.0038e+001 -4.4991e+000 50739 87754,87832,87780
 1.9000e+000 88468  2.5243e+000 -5.3582e+001  3.0325e+000 50235 88171,88327,88197
 1.9000e+000 88445 -4.3900e+001 -4.7143e+001 -1.4467e+001 50235 88145,88327,88171
 1.9000e+000 88422  7.9760e+001 -1.8356e+001 -8.8039e+000 50235 88275,88327,88301
 1.9000e+000 88399  1.0758e+001 -4.7922e+001 -1.1370e+000 50235 88197,88327,88275
 1.9000e+000 88376  1.7458e+001 -4.6056e+001  8.2509e-001 50235 88197,88275,88223
 1.9000e+000 88353  3.3415e+000 -7.5163e+001  5.1525e+000 50235 88223,88275,88249
 1.9000e+000 88895 -3.7401e+000 -8.8878e+001  5.2415e+000 49873 88918,88728,88676
 1.9000e+000 88872 -2.9571e+000 -9.1870e+001  3.2897e+000 49873 88918,88676,88624
 1.9000e+000 88849 -3.3797e-001 -7.2685e+001  4.8561e+000 49873 88598,88754,88624
 1.9000e+000 88826  2.0106e+000 -8.2190e+001 -6.7551e+000 49873 88624,88676,88650
 1.9000e+000 88803 -3.9075e+000 -1.2431e+002  2.9892e+000 49873 88676,88728,88702
 1.9000e+000 88780  4.2061e+000 -7.5893e+001  2.6300e+000 49873 88572,88754,88598
 1.9000e+000 88944 -1.6797e+000 -8.7179e+001  6.9260e+000 49873 88754,88728,88918
 1.9000e+000 88967 -1.8365e+000 -8.9770e+001  4.6844e+000 49873 88754,88918,88624
 1.9000e+000 89473 -6.0446e+001 -9.1664e+001 -1.3044e+001 49583 89176,89306,89202
 1.9000e+000 89450 -6.0844e+001 -9.1090e+001 -1.4807e+001 49583 89176,89332,89306
 1.9000e+000 89427 -4.0563e+001 -1.0174e+002  3.0503e+000 49583 89496,89228,89202
 1.9000e+000 89404 -3.9396e+001 -1.0280e+002  3.4317e+000 49583 89496,89202,89280
 1.9000e+000 89381 -7.2712e+001 -1.2644e+002 -2.3609e+001 49583 89202,89306,89280
 1.9000e+000 89358 -4.5445e+001 -9.0496e+001 -1.6576e+001 49583 89150,89332,89176
 1.9000e+000 89522 -3.8402e+001 -9.4920e+001  3.2346e+000 49583 89254,89228,89496
 1.9000e+000 89545 -4.0581e+001 -1.0109e+002  3.5489e+000 49583 89254,89496,89280
 1.9000e+000 89825  1.1209e+001 -9.7787e+001  2.9009e+000 49179 89701,89753,89727
 1.9000e+000 89802  2.2554e+001 -9.1180e+001 -5.5466e-001 49179 89675,89753,89701
 1.9000e+000 89779  3.9815e+001 -6.4751e+001  2.2420e+001 49179 89848,89753,89675
 1.9000e+000 89874 -2.1772e+001 -9.5550e+001  3.4739e+000 49179 89649,89753,89848
 1.9000e+000 90223 -1.3774e+001 -9.7008e+001 -4.4488e+000 48739 90024,90102,90076
 1.9000e+000 90200 -3.1495e+001 -9.7371e+001  3.9546e+000 48739 90024,90128,90102
 1.9000e+000 90177 -3.1456e+000 -1.0256e+002 -1.6909e+000 48739 90024,90076,90050
 1.9000e+000 90154  2.6018e+001 -9.5341e+001  3.5191e+001 48739 89998,90128,90024
 1.9000e+000 90603 -3.2250e+001 -9.4239e+001  1.8498e+001 48335 90381,90485,90459
 1.9000e+000 90580 -4.4878e+001 -1.0442e+002  1.0830e+001 48335 90355,90485,90381
 1.9000e+000 90557 -1.6094e+001 -3.2791e+001  1.3007e+001 48335 90381,90433,90407
 1.9000e+000 90534 -3.4971e+001 -9.4774e+001  1.9022e+001 48335 90381,90459,90433
 1.9000e+000 90511  1.4262e+001 -6.7088e+001  3.0247e+001 48335 90329,90485,90355
 1.9000e+000 90753  2.3276e+001 -4.9100e+001  3.0905e+001 47824 90776,90652,90704
 1.9000e+000 90730  3.4244e+000 -8.6555e+001  2.2766e+001 47824 90626,90704,90652
 1.9000e+000 90802 -4.1256e+000 -7.0368e+001  2.1643e+001 47824 90678,90652,90776
 1.9000e+000 91131 -1.7533e+001 -1.0440e+002 -3.4231e+000 47427 91154,90958,90906
 1.9000e+000 91108 -3.7659e+001 -1.1321e+002 -1.1934e+000 47427 91154,90906,91036
 1.9000e+000 91085 -3.8893e+001 -8.2032e+001 -1.3850e+001 47427 90958,91010,90984
 1.9000e+000 91062 -2.0654e+001 -8.8382e+001  3.1312e-001 47427 90906,90958,90932
 1.9000e+000 91180 -2.7993e+001 -9.8907e+001 -1.7081e+001 47427 91010,90958,91154
 1.9000e+000 91203 -4.6859e+001 -1.0695e+002 -1.5150e+001 47427 91010,91154,91036
 1.9000e+000 91583 -6.2495e+001 -1.1757e+002 -4.1366e+000 46873 91309,91439,91335
 1.9000e+000 91560 -6.4753e+001 -1.1548e+002 -3.5773e+000 46873 91309,91465,91439
 1.9000e+000 91537 -9.0568e+001 -1.3367e+002 -2.8685e+001 46873 91361,91439,91413
 1.9000e+000 91514 -6.6885e+001 -1.2071e+002 -1.2106e+001 46873 91335,91439,91361
 1.9000e+000 91491 -2.6988e+001 -1.0754e+002 -2.1747e+001 46873 91361,91413,91387
 1.9000e+000 91880 -2.5326e+001 -9.4908e+001 -5.4413e+000 46526 91606,91710,91658
 1.9000e+000 91857 -2.0895e+001 -1.0002e+002 -1.1327e+000 46526 91606,91762,91710
 1.9000e+000 91834 -7.1344e+000 -9.3507e+001 -1.9821e+001 46526 91606,91658,91632
 1.9000e+000 91811 -2.9211e+001 -8.4442e+001  4.7732e-001 46526 91658,91710,91684
 1.9000e+000 91788 -1.0373e+001 -5.7880e+001  7.5377e+000 46526 91710,91762,91736
 1.9000e+000 92211  9.4276e+000 -5.0511e+001 -2.0942e+000 45700 91986,92064,92038
 1.9000e+000 92188 -2.3348e+001 -7.7987e+001  1.0957e+001 45700 91986,92116,92064
 1.9000e+000 92165  2.0494e+001 -3.7931e+001 -2.0518e+001 45700 91986,92038,92012
 1.9000e+000 92142 -2.5134e+001 -7.5414e+001  8.8775e+000 45700 92064,92116,92090
 1.9000e+000 92766 -5.5389e+001 -9.1568e+001 -2.4023e+000 45452 92446,92602,92576
 1.9000e+000 92743 -8.9992e+001 -9.0910e+001 -2.3085e+001 45452 92420,92602,92446
 1.9000e+000 92720 -6.3783e+001 -9.5745e+001  1.0441e+001 45452 92789,92524,92498
 1.9000e+000 92697 -7.4393e+001 -9.3344e+001  7.1085e+000 45452 92789,92498,92446
 1.9000e+000 92674 -6.3232e+001 -1.0734e+002 -6.1395e+000 45452 92524,92576,92550
 1.9000e+000 92651 -9.4200e+001 -9.3320e+001  4.7110e+001 45452 92446,92498,92472
 1.9000e+000 92628 -4.2205e+001 -9.5103e+001 -3.1763e+001 45452 92394,92602,92420
 1.9000e+000 92815 -5.6254e+001 -9.7090e+001  7.5689e+000 45452 92576,92524,92789
 1.9000e+000 92838 -6.4580e+001 -9.2952e+001  5.6461e+000 45452 92576,92789,92446
 1.9000e+000 92939 -2.9457e+001 -1.1090e+002 -2.6994e+001 44998 92861,92913,92887
 1.9000e+000 93319 -1.2756e+000 -1.1581e+002  1.6676e+001 44601 93123,93201,93149
 1.9000e+000 93296 -1.1612e+001 -1.1079e+002  4.0922e-001 44601 93045,93201,93123
 1.9000e+000 93273  1.6797e+001 -6.5662e+001 -1.2240e+001 44601 93045,93123,93071
 1.9000e+000 93250  2.9036e+001 -6.9962e+001 -2.5235e+001 44601 93071,93123,93097
 1.9000e+000 93227  1.7448e+000 -7.3110e+001  1.9042e+001 44601 93149,93201,93175
 1.9000e+000 93697  3.3559e+000 -1.1016e+002  1.5759e-001 44026 93720,93553,93527
 1.9000e+000 93674 -4.2409e-001 -9.8192e+001  2.8361e+000 44026 93720,93527,93449
 1.9000e+000 93651 -2.8480e+000 -1.0709e+002  7.6492e+000 44026 93449,93527,93501
 1.9000e+000 93628 -1.3475e+001 -8.0597e+001 -2.3576e+001 44026 93423,93579,93449
 1.9000e+000 93605  1.6831e+001 -1.0828e+002  5.7961e+000 44026 93449,93501,93475
 1.9000e+000 93746  2.2667e+000 -9.8444e+001 -1.4524e+000 44026 93579,93553,93720
 1.9000e+000 93769 -6.3506e-001 -8.5478e+001  1.8469e+000 44026 93579,93720,93449
 1.9000e+000 94066 -9.9980e+000 -9.9793e+001 -1.6956e+001 43579 94089,93818,93792
 1.9000e+000 94043 -3.1015e+001 -1.0323e+002 -1.4507e+001 43579 94161,94089,93792
 1.9000e+000 94020 -2.9146e+001 -1.0320e+002 -1.0406e+001 43579 94161,93792,93948
 1.9000e+000 93997 -3.4376e+001 -9.9290e+001 -1.7231e+001 43579 94233,93870,93818
 1.9000e+000 93974  4.5576e+001 -8.2600e+001 -1.1263e+001 43579 93818,93870,93844
 1.9000e+000 94115 -3.2943e+001 -9.8706e+001 -1.7348e+001 43579 94233,93818,94089
 1.9000e+000 94138 -4.7930e+001 -9.7368e+001 -1.0692e+001 43579 93896,94089,93922
 1.9000e+000 94187 -2.7990e+001 -9.8037e+001 -1.1164e+001 43579 93922,94089,94161
 1.9000e+000 94210 -2.3769e+001 -9.6523e+001 -6.7531e+000 43579 93922,94161,93948
 1.9000e+000 94259 -4.0035e+001 -9.9743e+001 -1.1482e+001 43579 93896,93870,94233
 1.9000e+000 94282 -3.2815e+001 -9.6649e+001 -1.1471e+001 43579 93896,94233,94089
 1.9000e+000 94481 -3.0576e+001 -1.0076e+002 -2.3130e+000 43239 94305,94383,94357
 1.9000e+000 94458 -2.1353e+001 -8.9325e+001  1.1567e+001 43239 94305,94409,94383
 1.9000e+000 94435 -2.6271e+001 -1.0955e+002 -3.0051e+000 43239 94305,94357,94331
 1.9000e+000 94633 -7.9051e+000 -6.9568e+001  1.7686e+001 42827 94656,94532,94506
 1.9000e+000 94610 -2.4587e+001 -7.9516e+001  2.4404e+001 42827 94728,94656,94506
 1.9000e+000 94682 -1.5669e+000 -8.1119e+001  1.7482e+001 42827 94558,94532,94656
 1.9000e+000 94705  1.5009e+001 -8.2814e+001  9.5935e+000 42827 94988,94860,94656
 1.9000e+000 94754 -4.1692e+000 -6.7324e+001  4.7516e+000 42827 94988,94656,94728
 1.9000e+000 94886  3.4821e+001 -7.4389e+001  1.0671e+001 42827 94558,94656,94860
 1.9000e+000 95014  3.1158e+001 -6.9461e+001  3.7458e+000 42827 94584,94860,94988
 1.9000e+000 95037  1.4252e+001 -5.5640e+001 -1.0821e+000 42827 94584,94988,94728
 1.9000e+000 95236 -2.7653e+001 -1.0453e+002  6.8426e+000 42537 95259,95112,95060
 1.9000e+000 95213 -7.8604e+000 -1.1603e+002  1.1655e+001 42537 95259,95060,95164
 1.9000e+000 95190 -2.0609e+001 -1.0453e+002 -4.3082e+000 42537 95060,95112,95086
 1.9000e+000 95285 -1.4313e+001 -1.0055e+002  1.5425e+001 42537 95138,95112,95259
 1.9000e+000 95308  5.7765e+000 -1.0649e+002  2.3035e+001 42537 95138,95259,95164
 1.9000e+000 95816 -3.3829e+001 -1.0989e+002 -5.8295e+000 41969 95493,95597,95519
 1.9000e+000 95793 -5.8367e+001 -1.0851e+002  1.4826e+001 41969 95493,95649,95597
 1.9000e+000 95770 -4.9544e+001 -9.8393e+001  7.0815e+000 41969 95493,95675,95649
 1.9000e+000 95747 -5.3879e+001 -1.1970e+002  1.4416e+001 41969 95597,95649,95623
 1.9000e+000 95724 -5.9246e+001 -1.0476e+002 -9.0807e+000 41969 95519,95597,95571
 1.9000e+000 95701 -4.9363e+001 -9.7363e+001 -5.4574e+001 41969 95519,95571,95545
 1.9000e+000 96371 -2.9033e+001 -1.0762e+002  9.0502e+000 41579 96025,96207,96181
 1.9000e+000 96348  1.2389e+001 -8.7974e+001 -7.0841e+000 41579 95999,96207,96025
 1.9000e+000 96325 -5.3685e+001 -8.6104e+001 -2.7122e+001 41579 96129,96181,96155
 1.9000e+000 96302  1.8263e+001 -7.2999e+001 -6.3884e+000 41579 96025,96181,96129
 1.9000e+000 96279 -2.5641e+001 -1.3478e+002  2.8952e+001 41579 96025,96129,96051
 1.9000e+000 96256 -5.2176e+001 -1.5293e+002  4.7588e+001 41579 96051,96103,96077
 1.9000e+000 96233  2.0774e+001 -9.5030e+001  1.1742e+001 41579 96051,96129,96103
 1.9000e+000 96877  8.9984e+000 -7.8355e+001  1.9484e+000 41182 96972,96900,96632
 1.9000e+000 96854  8.5809e+000 -7.2582e+001 -5.2755e-001 41182 96900,96554,96736
 1.9000e+000 96831  5.1383e+000 -7.3948e+001 -1.0706e+001 41182 96972,96632,96580
 1.9000e+000 96808  2.9038e+001 -7.0093e+001  6.8280e+000 41182 96632,96684,96658
 1.9000e+000 96785 -9.7385e+000 -6.8329e+001 -1.0967e+001 41182 96684,96736,96710
 1.9000e+000 96762 -2.8245e+001 -1.0861e+002  1.0741e+001 41182 96580,96632,96606
 1.9000e+000 96926  7.6225e+000 -8.2538e+001  1.2331e+000 41182 96684,96632,96900
 1.9000e+000 96949 -1.3908e+001 -7.5718e+001 -4.1971e+000 41182 96684,96900,96736
 1.9000e+000 96998  2.8380e+001 -7.2482e+001 -9.4953e+000 41182 96554,96900,96972
 1.9000e+000 97021  3.1457e+001 -5.8319e+001 -2.3439e+001 41182 96554,96972,96580
 1.9000e+000 97576 -5.2646e+001 -1.8043e+002 -3.0095e+001 40678 97230,97412,97282
 1.9000e+000 97553  1.1629e+001 -1.4736e+002  8.9753e+000 40678 97204,97412,97230
 1.9000e+000 97530 -2.5499e+001 -1.3827e+002 -2.1137e+001 40678 97282,97360,97308
 1.9000e+000 97507 -1.3066e+001 -1.3125e+002 -1.1559e+001 40678 97282,97412,97360
 1.9000e+000 97484 -1.0875e+001 -8.9627e+001 -1.6429e+001 40678 97308,97360,97334
 1.9000e+000 97461 -5.1278e+001 -1.6605e+002  5.2368e+000 40678 97360,97412,97386
 1.9000e+000 97438 -1.9964e+001 -1.2935e+002 -6.5537e+000 40678 97230,97282,97256
 1.9000e+000 97976 -4.9431e+001 -8.9421e+001 -2.7341e+000 40244 97702,97832,97754
 1.9000e+000 97953 -3.9662e+001 -8.7967e+001 -4.9494e+000 40244 97702,97858,97832
 1.9000e+000 97930 -5.7181e+001 -1.1404e+002 -2.3367e+001 40244 97702,97754,97728
 1.9000e+000 97907 -3.8952e+001 -9.0143e+001  9.7481e+000 40244 97780,97832,97806
 1.9000e+000 97884 -4.5437e+001 -8.6700e+001 -1.0035e+000 40244 97754,97832,97780
 1.9000e+000 98482 -3.3163e+001 -9.3952e+001  1.5268e+001 39690 98505,98185,98159
 1.9000e+000 98459 -2.8969e+001 -9.2182e+001  1.7230e+001 39690 98505,98159,98289
 1.9000e+000 98436 -6.5101e+001 -1.3528e+002  5.2817e+001 39690 98159,98315,98289
 1.9000e+000 98413 -3.8196e+001 -8.8392e+001  1.6751e+001 39690 98211,98289,98263
 1.9000e+000 98390 -2.4927e+001 -6.9295e+001  1.0904e+001 39690 98211,98263,98237
 1.9000e+000 98367 -1.4760e+001 -8.2731e+001  2.8784e+001 39690 98159,98341,98315
 1.9000e+000 98531 -4.1830e+001 -9.3409e+001  1.1757e+001 39690 98211,98185,98505
 1.9000e+000 98554 -3.3706e+001 -8.6669e+001  1.5227e+001 39690 98211,98505,98289
 1.9000e+000 99109 -3.3517e+001 -8.5793e+001 -4.5076e+000 39072 99132,98867,98789
 1.9000e+000 99086 -3.7415e+001 -8.6102e+001 -3.9428e+000 39072 99132,98789,98763
 1.9000e+000 99063 -4.5603e+001 -1.2495e+002  8.2875e+000 39072 98867,98945,98919
 1.9000e+000 99040 -3.2168e+001 -9.2480e+001  2.2043e-001 39072 98789,98867,98841
 1.9000e+000 99017 -4.0084e+001 -1.2952e+002  1.1519e+001 39072 98867,98919,98893
 1.9000e+000 98994 -4.9446e+001 -8.5372e+001  1.9083e+001 39072 98789,98841,98815
 1.9000e+000 98971 -5.1865e+001 -9.3438e+001 -1.0406e+001 39072 98737,98945,98763
 1.9000e+000 99158 -3.2184e+001 -8.6101e+001 -5.1688e+000 39072 98945,98867,99132
 1.9000e+000 99181 -3.3809e+001 -8.4343e+001 -5.1199e+000 39072 98945,99132,98763
 1.9000e+000 99510 -2.1909e+001 -8.4833e+001  3.8749e+000 38668 99311,99389,99363
 1.9000e+000 99487 -3.3086e+001 -8.7266e+001  6.6732e+000 38668 99285,99389,99311
 1.9000e+000 99464 -5.0933e+001 -9.5447e+001  1.3900e+001 38668 99285,99415,99389
 1.9000e+000 99441 -3.1657e+001 -8.4241e+001  3.0163e+000 38668 99311,99363,99337
 1.9000e+000 99758 -5.8984e+000 -1.1894e+002  9.5726e+000 38164 99781,99611,99585
 1.9000e+000 99735  1.2900e+001 -1.1597e+002  1.3400e+001 38164 99781,99585,99533
 1.9000e+000 99712 -1.4321e+001 -9.7403e+001  8.2950e+000 38164 99611,99663,99637
 1.9000e+000 99689  2.3417e+001 -9.8475e+001  7.0930e+000 38164 99533,99585,99559
 1.9000e+000 99807 -1.5780e+001 -1.1242e+002  1.4464e+001 38164 99663,99611,99781
 1.9000e+000 99830 -3.6565e+000 -1.1443e+002  1.4839e+001 38164 99663,99781,99533
 1.9000e+000 100232 -3.7010e+001 -1.0423e+002  1.3468e+000 37702 99984,100114,100088
 1.9000e+000 100209 -2.7662e+001 -1.0069e+002  9.0730e+000 37702 99958,100114,99984
 1.9000e+000 100186 -5.4796e+001 -1.2571e+002 -6.2568e+000 37702 100010,100088,100036
 1.9000e+000 100163 -3.7253e+001 -1.0434e+002  1.2873e+000 37702 99984,100088,100010
 1.9000e+000 100140 -3.9216e+001 -1.1444e+002 -2.7075e+001 37702 100036,100088,100062
 1.9000e+000 100640 -8.0869e+001 -1.0900e+002  1.4525e+001 37262 100493,100545,100519
 1.9000e+000 100617 -6.3495e+001 -1.1919e+002  9.2630e+000 37262 100441,100545,100493
 1.9000e+000 100594 -3.4663e+001 -9.9611e+001 -3.7925e+000 37262 100415,100545,100441
 1.9000e+000 100571 -8.1424e+001 -1.4967e+002 -4.2403e+000 37262 100441,100493,100467
 1.9000e+000 101146 -4.8547e+001 -7.8434e+001 -3.8935e+000 36872 100823,100979,100849
 1.9000e+000 101123 -4.5558e+001 -6.8038e+001 -1.2412e+001 36872 100823,101005,100979
 1.9000e+000 101100 -4.8829e+001 -1.1839e+002  1.3723e+001 36872 101169,100901,100849
 1.9000e+000 101077 -3.7423e+001 -9.3895e+001  7.5408e+000 36872 101169,100849,100979
 1.9000e+000 101054 -2.3800e+001 -1.0436e+002 -4.6302e+000 36872 100927,100979,100953
 1.9000e+000 101031 -2.9679e+001 -1.3192e+002  1.9040e+001 36872 100849,100901,100875
 1.9000e+000 101195 -3.4756e+001 -1.2590e+002 -1.3075e+000 36872 100927,100901,101169
 1.9000e+000 101218 -2.7860e+001 -1.1267e+002 -6.1951e+000 36872 100927,101169,100979
 1.9000e+000 101773 -5.3282e+001 -9.8997e+001  2.1162e+001 36418 101479,101609,101583
 1.9000e+000 101750 -4.2149e+001 -1.0262e+002  3.3303e+001 36418 101453,101609,101479
 1.9000e+000 101727 -3.0753e+001 -1.0312e+002  3.7762e+000 36418 101796,101531,101479
 1.9000e+000 101704 -5.2742e+001 -1.1616e+002  1.1213e+001 36418 101796,101479,101583
 1.9000e+000 101681 -7.7158e+000 -8.6836e+001 -7.4027e+000 36418 101479,101531,101505
 1.9000e+000 101658  4.1986e+001 -9.8262e+001 -4.3291e+000 36418 101401,101609,101453
 1.9000e+000 101635 -1.7216e+001 -9.6425e+001 -7.7898e+000 36418 101401,101453,101427
 1.9000e+000 101822 -3.6793e+001 -9.3675e+001 -1.7723e+001 36418 101557,101531,101796
 1.9000e+000 101845 -6.4587e+001 -1.0209e+002 -1.1869e+001 36418 101557,101796,101583
 1.9000e+000 102174  3.2897e+001 -4.1201e+001 -1.9597e+001 35914 101949,102053,101975
 1.9000e+000 102151 -2.5227e+001 -5.9412e+001 -6.0164e+000 35914 101949,102079,102053
 1.9000e+000 102128  5.7484e+000 -5.4054e+001 -1.1092e+001 35914 101975,102053,102027
 1.9000e+000 102105  6.7560e+000 -5.2841e+001 -1.1573e+001 35914 101975,102027,102001
 1.9000e+000 102631  3.6813e+001 -9.1477e+001  7.3341e-001 35574 102383,102513,102487
 1.9000e+000 102608  4.3924e+001 -9.7529e+001 -1.3789e-001 35574 102357,102513,102383
 1.9000e+000 102585  1.4521e-001 -9.6123e+001  6.8381e+000 35574 102409,102487,102435
 1.9000e+000 102562  9.8178e+000 -1.0326e+002  2.4910e+000 35574 102383,102487,102409
 1.9000e+000 102539 -1.0655e+001 -1.1385e+002  1.3170e+000 35574 102435,102487,102461
 1.9000e+000 103009 -4.7226e+001 -8.9552e+001 -5.9630e+000 35170 102761,102865,102787
 1.9000e+000 102986 -2.6591e+001 -7.8414e+001  8.3030e+000 35170 102761,102891,102865
 1.9000e+000 102963 -4.0403e+001 -8.4338e+001 -1.5832e+000 35170 102787,102865,102813
 1.9000e+000 102940  2.9936e+001 -8.7173e+001  1.1193e+001 35170 102735,102891,102761
 1.9000e+000 102917 -4.2954e+001 -9.1964e+001 -6.4995e+000 35170 102813,102865,102839
 1.9000e+000 103257  2.8138e+001 -7.9570e+001 -1.4217e+001 34659 103280,103058,103032
 1.9000e+000 103234  1.7660e+001 -8.4013e+001 -1.2387e+000 34659 103280,103032,103162
 1.9000e+000 103211 -1.1717e+001 -6.8297e+001 -5.9874e+000 34659 103084,103162,103110
 1.9000e+000 103188 -2.5856e+001 -9.5582e+001 -1.2041e-001 34659 103110,103162,103136
 1.9000e+000 103306  7.5048e+000 -7.4185e+001 -1.2625e+001 34659 103084,103058,103280
 1.9000e+000 103329  2.4382e+000 -7.7685e+001  2.0858e+000 34659 103084,103280,103162
 1.9000e+000 103837  2.0713e+001 -9.3643e+001  5.8690e+000 34247 103860,103566,103540
 1.9000e+000 103814 -4.1005e+000 -1.0225e+002  3.0155e+000 34247 103932,103860,103540
 1.9000e+000 103791 -7.8371e+000 -1.1810e+002 -1.0541e+001 34247 103932,103540,103670
 1.9000e+000 103768  2.6522e+001 -9.8908e+001 -1.0022e+001 34247 103566,103618,103592
 1.9000e+000 103745 -3.4025e+001 -1.1454e+002 -1.5493e+001 34247 103540,103696,103670
 1.9000e+000 103722 -4.9295e+001 -1.2064e+002  2.8194e+001 34247 103514,103696,103540
 1.9000e+000 103886 -5.1496e+000 -1.0649e+002 -4.0184e+000 34247 103618,103566,103860
 1.9000e+000 103909  1.6664e+001 -1.0581e+002 -2.3734e+000 34247 103618,103860,103644
 1.9000e+000 103958 -1.0415e+001 -1.3801e+002 -1.4314e+001 34247 103644,103860,103932
 1.9000e+000 103981 -1.6573e+001 -1.5409e+002 -2.8725e+001 34247 103644,103932,103670
 1.9000e+000 104300 -5.0456e+001 -1.0745e+002 -2.7628e+000 33843 104052,104182,104156
 1.9000e+000 104277 -6.6560e+001 -9.9664e+001  5.2764e-001 33843 104026,104182,104052
 1.9000e+000 104254 -4.6684e+001 -1.1908e+002  3.9084e+000 33843 104078,104156,104130
 1.9000e+000 104231 -5.8374e+001 -1.1524e+002  7.4396e-001 33843 104052,104156,104078
 1.9000e+000 104208 -6.9550e+001 -1.2061e+002  1.6484e+000 33843 104078,104130,104104
 1.9000e+000 104499 -1.6237e+001 -9.6563e+001 -2.0859e+001 33282 104594,104522,104375
 1.9000e+000 104476 -6.5051e+000 -1.0764e+002 -7.0370e-001 33282 104522,104323,104427
 1.9000e+000 104453  9.8954e+000 -1.0282e+002 -2.1780e+001 33282 104594,104375,104349
 1.9000e+000 104548 -4.2611e+001 -9.5381e+001  8.6203e-001 33282 104401,104375,104522
 1.9000e+000 104571  3.3166e+000 -7.7736e+001  4.4915e+000 33282 104401,104522,104427
 1.9000e+000 104620  2.0673e+001 -8.7716e+001 -1.0648e+001 33282 104323,104522,104594
 1.9000e+000 104643  3.8601e+001 -1.0137e+002 -1.4581e+001 33282 104323,104594,104349
 1.9000e+000 104942 -4.7945e+001 -1.2327e+002  1.9530e+001 32728 104694,104772,104720
 1.9000e+000 104919 -4.1576e+001 -1.1427e+002  9.7698e+000 32728 104694,104824,104772
 1.9000e+000 104896 -6.5343e+001 -1.1291e+002  2.0440e+001 32728 104720,104772,104746
 1.9000e+000 104873 -3.3282e+001 -1.3044e+002  1.0915e+001 32728 104772,104824,104798
 1.9000e+000 104850 -3.9635e+001 -1.1559e+002  8.6824e+000 32728 104668,104824,104694
 1.9000e+000 105373 -4.5379e+001 -1.2722e+002 -9.2073e+000 32274 105396,105102,105076
 1.9000e+000 105350 -3.5285e+001 -1.4251e+002 -6.6535e+000 32274 105396,105076,105206
 1.9000e+000 105327 -3.7221e+001 -1.4643e+002  2.3851e+001 32274 105154,105206,105180
 1.9000e+000 105304 -2.6916e+001 -1.4349e+002 -1.6258e+001 32274 105076,105232,105206
 1.9000e+000 105281 -4.9265e+001 -1.1682e+002 -2.0192e+001 32274 105102,105154,105128
 1.9000e+000 105258 -9.3969e+001 -1.4444e+002 -3.4525e+001 32274 105050,105232,105076
 1.9000e+000 105422 -4.0381e+001 -1.1255e+002 -5.6237e+000 32274 105154,105102,105396
 1.9000e+000 105445 -3.2737e+001 -1.3045e+002 -4.4976e+000 32274 105154,105396,105206
 1.9000e+000 105644 -3.9279e+001 -1.2057e+002  8.9616e-001 31620 105468,105546,105520
 1.9000e+000 105621 -3.2545e+001 -1.2603e+002 -2.4214e+000 31620 105468,105572,105546
 1.9000e+000 105598 -4.1525e+001 -1.4075e+002  1.3293e+001 31620 105468,105520,105494
 1.9000e+000 105794 -1.9734e+001 -1.2171e+002 -3.0050e+000 31158 105889,105817,105693
 1.9000e+000 105771 -2.6289e+001 -1.1319e+002 -5.8222e+000 31158 105817,105667,105745
 1.9000e+000 105843 -2.3156e+001 -1.4028e+002 -1.8371e+000 31158 105719,105693,105817
 1.9000e+000 105866 -1.8741e+001 -1.2606e+002 -5.1498e+000 31158 105719,105817,105745
 1.9000e+000 105915 -3.3647e+001 -1.2768e+002 -3.1608e+000 31158 105667,105817,105889
 1.9000e+000 106270 -4.8790e+001 -1.1165e+002 -1.1923e-001 30818 106293,106071,106045
 1.9000e+000 106247 -5.6531e+001 -1.2867e+002 -1.3894e+001 30818 106293,106045,106175
 1.9000e+000 106224 -2.3042e+001 -1.0571e+002  4.3665e+000 30818 106123,106175,106149
 1.9000e+000 106201 -4.9402e+001 -1.1147e+002  8.1909e+000 30818 106071,106123,106097
 1.9000e+000 106319 -4.3716e+001 -1.0476e+002  4.6317e+000 30818 106123,106071,106293
 1.9000e+000 106342 -4.1224e+001 -1.1342e+002 -6.9362e+000 30818 106123,106293,106175
 1.9000e+000 106492 -5.0299e+001 -1.2607e+002  2.3861e+001 30414 106645,106391,106365
 1.9000e+000 106469 -3.6831e+001 -1.2589e+002  3.3800e+001 30414 106515,106365,106443
 1.9000e+000 106541 -4.0888e+001 -1.2728e+002  2.4827e+001 30414 106645,106365,106515
 1.9000e+000 106671 -3.6288e+001 -1.4186e+002  3.5669e+001 30414 106417,106391,106645
 1.9000e+000 106694 -1.1873e+001 -1.3319e+002  3.1340e+001 30414 106417,106645,106515
 1.9000e+000 106942 -1.3473e+001 -1.5295e+002 -1.5539e+000 29910 106965,106795,106769
 1.9000e+000 106919  1.1489e+001 -1.4370e+002  4.3279e+000 29910 106965,106769,106717
 1.9000e+000 106896 -2.6887e+001 -1.1668e+002 -1.4795e+001 29910 106795,106847,106821
 1.9000e+000 106873  2.1671e+001 -1.1171e+002 -4.4793e+000 29910 106717,106769,106743
 1.9000e+000 106991 -3.6680e+001 -1.3453e+002  5.8290e+000 29910 106847,106795,106965
 1.9000e+000 107014 -1.1783e+001 -1.2422e+002  1.4162e+001 29910 106847,106965,106717
 1.9000e+000 107213 -2.6080e+001 -1.2063e+002  1.2479e+001 29413 107236,107063,107037
 1.9000e+000 107190 -2.7724e+001 -1.4905e+002  2.3206e+001 29413 107236,107037,107141
 1.9000e+000 107167 -3.3783e+001 -7.9218e+001  2.1311e+001 29413 107063,107115,107089
 1.9000e+000 107262 -2.6447e+001 -1.0065e+002  6.4486e+000 29413 107115,107063,107236
 1.9000e+000 107285 -2.4028e+001 -1.2223e+002  1.7838e+001 29413 107115,107236,107141
 1.9000e+000 107486 -1.4508e+001 -1.0461e+002  1.2498e+001 29009 107336,107388,107362
 1.9000e+000 107463 -7.2279e+000 -1.0082e+002  4.4001e+000 29009 107310,107388,107336
 1.9000e+000 107440 -1.3538e+001 -9.0925e+001  5.3796e+000 29009 107310,107414,107388
 1.9000e+000 107736 -3.2328e+001 -1.1519e+002 -1.7684e+000 28491 107537,107615,107563
 1.9000e+000 107713 -1.7448e+001 -1.0998e+002 -6.7836e+000 28491 107537,107641,107615
 1.9000e+000 107690  8.1043e+000 -1.0958e+002  1.1024e+001 28491 107563,107615,107589
 1.9000e+000 107667 -3.4523e+001 -9.8288e+001 -9.0994e+000 28491 107511,107641,107537
 1.9000e+000 108118 -3.8537e-001 -1.0406e+002 -1.0379e+000 27980 108141,107922,107844
 1.9000e+000 108095  1.1062e+001 -1.0649e+002 -3.8871e+000 27980 108141,107844,108000
 1.9000e+000 108072  5.2375e-001 -1.0258e+002 -4.7464e+000 27980 107844,107922,107870
 1.9000e+000 108049  5.8147e+000 -9.1184e+001 -6.6660e+000 27980 107870,107922,107896
 1.9000e+000 108026 -1.6320e+001 -9.2765e+001  2.3683e+001 27980 107922,107974,107948
 1.9000e+000 108167  1.0810e+001 -1.1585e+002  4.4955e+000 27980 107974,107922,108141
 1.9000e+000 108190  3.9127e+001 -1.0623e+002  2.3208e+000 27980 107974,108141,108000
 1.9000e+000 108745 -8.2942e+000 -7.5757e+001 -8.2628e-001 27376 108840,108768,108477
 1.9000e+000 108722 -1.6687e+001 -8.5136e+001 -1.5362e+001 27376 108768,108373,108581
 1.9000e+000 108699 -1.7133e+001 -6.9317e+001  1.3688e+001 27376 108840,108477,108451
 1.9000e+000 108676 -5.1236e+001 -7.9869e+001 -4.0494e+000 27376 108373,108451,108399
 1.9000e+000 108653 -2.0583e+001 -1.0279e+002  1.4006e+001 27376 108503,108581,108529
 1.9000e+000 108630 -2.5120e+001 -1.0533e+002  1.5596e+001 27376 108529,108581,108555
 1.9000e+000 108607 -6.0252e+001 -9.0844e+001  5.6118e+000 27376 108399,108451,108425
 1.9000e+000 108794 -1.4943e+001 -9.7862e+001  1.5873e+000 27376 108503,108477,108768
 1.9000e+000 108817 -3.9131e-001 -9.0536e+001 -1.4886e+000 27376 108503,108768,108581
 1.9000e+000 108866 -3.8604e+001 -9.0432e+001 -5.7940e+000 27376 108373,108768,108840
 1.9000e+000 108889 -3.7563e+001 -7.9569e+001  8.9549e+000 27376 108373,108840,108451
 1.9000e+000 109186 -4.3113e+001 -1.2192e+002  1.4543e+001 26722 109209,108938,108912
 1.9000e+000 109163 -3.9100e+001 -1.1157e+002  1.1374e+001 26722 109281,109209,108912
 1.9000e+000 109140 -3.8335e+001 -1.0783e+002  1.1160e+001 26722 109281,108912,109042
 1.9000e+000 109117 -3.0591e+001 -1.2640e+002  8.8364e+000 26722 108938,108990,108964
 1.9000e+000 109094 -5.6341e+001 -9.8769e+001  7.7429e+000 26722 108912,109068,109042
 1.9000e+000 109235 -3.0338e+001 -1.1550e+002  1.2388e+001 26722 108990,108938,109209
 1.9000e+000 109258 -3.7329e+001 -1.2440e+002  9.3232e+000 26722 108990,109209,109016
 1.9000e+000 109307 -3.5628e+001 -1.1705e+002  5.3985e+000 26722 109016,109209,109281
 1.9000e+000 109330 -3.3699e+001 -1.1119e+002  4.5419e+000 26722 109016,109281,109042
 1.9000e+000 109732 -4.6526e+001 -1.0070e+002 -1.1750e+000 26310 109458,109588,109484
 1.9000e+000 109709 -4.2275e+001 -1.1084e+002 -1.1193e+001 26310 109458,109614,109588
 1.9000e+000 109686 -6.1330e+001 -1.0822e+002  1.4970e+001 26310 109510,109562,109536
 1.9000e+000 109663 -6.3662e+001 -1.0377e+002  6.4587e+000 26310 109484,109562,109510
 1.9000e+000 109640 -4.6145e+001 -1.0116e+002 -8.7702e-002 26310 109484,109588,109562
 1.9000e+000 110159 -3.7788e+001 -1.0683e+002  4.8012e+000 25642 110182,109940,109914
 1.9000e+000 110136 -3.8161e+001 -1.1256e+002  8.6223e+000 25642 110182,109914,109888
 1.9000e+000 110113 -3.4489e+001 -1.2398e+002 -1.4666e+001 25642 109966,110018,109992
 1.9000e+000 110090 -3.7276e+001 -1.2023e+002  1.0495e+001 25642 110254,109966,109940
 1.9000e+000 110067 -3.4504e+001 -1.1170e+002  8.7967e+000 25642 109862,110018,109888
 1.9000e+000 110044 -4.9022e+001 -1.0247e+002  1.4087e+001 25642 109836,110018,109862
 1.9000e+000 110208 -3.9231e+001 -1.0931e+002  8.4333e+000 25642 110254,109940,110182
 1.9000e+000 110231 -3.7439e+001 -1.1479e+002  7.1531e+000 25642 110018,110182,109888
 1.9000e+000 110280 -3.5783e+001 -1.3299e+002  7.9848e+000 25642 110018,109966,110254
 1.9000e+000 110303 -3.9805e+001 -1.2469e+002  6.0512e+000 25642 110018,110254,110182
 1.9000e+000 110632 -4.6185e+001 -9.9577e+001 -8.3802e+000 25188 110407,110485,110433
 1.9000e+000 110609 -5.4530e+001 -1.0926e+002 -4.8300e+000 25188 110407,110537,110485
 1.9000e+000 110586 -5.5078e+001 -1.0398e+002 -1.6797e+001 25188 110433,110485,110459
 1.9000e+000 110563 -5.1282e+001 -1.1293e+002  5.7937e+000 25188 110485,110537,110511
 1.9000e+000 110831 -5.7160e+000 -9.7461e+001  1.2959e-001 24726 110854,110707,110655
 1.9000e+000 110808 -4.0245e+000 -1.0190e+002  4.3211e+000 24726 110854,110655,110759
 1.9000e+000 110785 -8.2211e+000 -1.0122e+002  1.2734e+000 24726 110655,110707,110681
 1.9000e+000 110880 -4.2277e+000 -9.3155e+001  1.9108e-001 24726 110733,110707,110854
 1.9000e+000 110903 -1.5163e+000 -9.5592e+001  4.6336e+000 24726 110733,110854,110759
 1.9000e+000 111234  1.1319e+001 -6.9390e+001 -4.0705e+000 24222 111257,111087,111035
 1.9000e+000 111211  4.1101e+001 -5.6341e+001  7.2492e+000 24222 111257,111035,111009
 1.9000e+000 111188  3.6880e+001 -4.0936e+001 -1.6359e+001 24222 111035,111087,111061
 1.9000e+000 111165 -9.2693e+000 -5.7325e+001  4.9252e+000 24222 111087,111139,111113
 1.9000e+000 111283 -4.6602e+000 -4.9648e+001  6.9993e+000 24222 111139,111087,111257
 1.9000e+000 111306  7.5832e+000 -3.7820e+001  1.4196e+001 24222 111139,111257,111009
 1.9000e+000 111625 -1.6866e+001 -1.0881e+002 -7.4593e+000 23732 111648,111481,111455
 1.9000e+000 111602 -1.7978e+001 -1.0917e+002 -6.8331e+000 23732 111648,111455,111377
 1.9000e+000 111579  1.1110e+001 -5.6666e+001  1.1859e+001 23732 111377,111429,111403
 1.9000e+000 111556 -9.5301e+000 -1.1036e+002 -3.4155e+000 23732 111377,111455,111429
 1.9000e+000 111533 -1.6170e+001 -9.7935e+001 -3.9931e+000 23732 111351,111507,111377
 1.9000e+000 111674 -1.8546e+001 -1.0872e+002 -7.1498e+000 23732 111507,111481,111648
 1.9000e+000 111697 -1.8816e+001 -1.0904e+002 -6.3013e+000 23732 111507,111648,111377
 1.9000e+000 112156 -2.4742e+001 -1.1951e+002  7.5152e+000 23278 112179,111908,111882
 1.9000e+000 112133 -2.4140e+001 -1.1089e+002  8.9454e-001 23278 112179,111882,112012
 1.9000e+000 112110 -9.4942e+000 -1.2641e+002  3.1451e-001 23278 111908,111960,111934
 1.9000e+000 112087  2.4912e+001 -9.8097e+001 -1.6734e+001 23278 111882,112038,112012
 1.9000e+000 112064 -3.6034e+000 -9.8620e+001 -3.5517e+000 23278 111960,112012,111986
 1.9000e+000 112205 -2.1582e+001 -1.1477e+002  5.6789e-001 23278 111960,111908,112179
 1.9000e+000 112228 -1.6944e+001 -1.0435e+002 -6.7083e+000 23278 111960,112179,112012
 1.9000e+000 112685 -7.4031e+001 -1.7373e+002 -1.6547e+001 22938 112489,112567,112541
 1.9000e+000 112662 -6.3376e+001 -1.4844e+002 -1.6153e+001 22938 112437,112567,112489
 1.9000e+000 112639 -4.4263e+001 -1.3190e+002 -2.7041e+000 22938 112489,112541,112515
 1.9000e+000 112616 -7.4086e+001 -1.4156e+002 -1.4442e+001 22938 112411,112567,112437
 1.9000e+000 112593 -6.1551e+001 -1.8780e+002 -4.5718e+000 22938 112437,112489,112463
 1.9000e+000 113191  2.9766e+001 -1.0717e+002 -1.5111e+001 22534 113214,112998,112946
 1.9000e+000 113168  1.7616e-001 -1.0061e+002 -2.5719e+000 22534 113286,113214,112946
 1.9000e+000 113145  3.6537e+000 -9.8493e+001 -3.4674e+000 22534 113286,112946,112920
 1.9000e+000 113122 -3.3932e+001 -9.8444e+001 -1.6031e+001 22534 113358,113024,112998
 1.9000e+000 113099 -5.0557e+000 -1.0020e+002  7.1772e-001 22534 112868,113050,112894
 1.9000e+000 113076 -3.4951e+001 -2.2340e+002 -4.5608e+001 22534 112946,112998,112972
 1.9000e+000 113240 -1.8694e+001 -1.2069e+002 -1.8374e+001 22534 113358,112998,113214
 1.9000e+000 113263 -7.4091e-001 -1.1125e+002  2.5223e-001 22534 113050,113214,112894
 1.9000e+000 113312  7.5423e+000 -1.0732e+002 -2.5036e+000 22534 112894,113214,113286
 1.9000e+000 113335  1.3751e+001 -1.0260e+002 -4.5671e+000 22534 112894,113286,112920
 1.9000e+000 113384 -1.5102e+001 -8.5602e+001 -6.4164e+000 22534 113050,113024,113358
 1.9000e+000 113407  9.0704e+000 -1.0085e+002 -7.2570e+000 22534 113050,113358,113214
 1.9000e+000 113785 -5.8095e+001 -1.4924e+002  6.9664e+000 21978 113808,113615,113511
 1.9000e+000 113762 -4.6356e+001 -1.5102e+002  1.3883e+001 21978 113808,113511,113667
 1.9000e+000 113739 -3.1079e+001 -1.2379e+002 -4.0343e+000 21978 113511,113615,113537
 1.9000e+000 113716  1.0865e+001 -1.1079e+002 -7.8844e+000 21978 113537,113615,113589
 1.9000e+000 113693 -1.1550e+001 -1.5268e+002  3.4427e+000 21978 113537,113589,113563
 1.9000e+000 113834 -6.0252e+001 -1.4938e+002  2.2137e+001 21978 113641,113615,113808
 1.9000e+000 113857 -2.9195e+001 -1.3736e+002  3.0407e+001 21978 113641,113808,113667
 1.9000e+000 114284 -4.2717e+001 -1.1579e+002  2.9383e+000 21517 114013,114117,114039
 1.9000e+000 114261 -4.3032e+001 -1.1370e+002  8.3841e+000 21517 113961,114117,114013
 1.9000e+000 114238 -4.3604e+001 -1.3154e+002  5.9650e+000 21517 113961,114013,113987
 1.9000e+000 114215 -6.5807e+001 -1.2779e+002 -8.3477e+000 21517 114039,114117,114091
 1.9000e+000 114192 -4.8195e+001 -1.0113e+002  1.2224e+001 21517 113961,114143,114117
 1.9000e+000 114169  7.5572e+000 -1.0010e+002 -6.8316e+000 21517 114039,114091,114065
 1.9000e+000 114581 -2.2785e+001 -1.4546e+002  1.0844e+000 21027 114359,114463,114437
 1.9000e+000 114558 -1.3211e+001 -1.3226e+002  1.7293e+001 21027 114333,114463,114359
 1.9000e+000 114535 -1.0325e+001 -1.3417e+002 -3.6833e+000 21027 114359,114437,114385
 1.9000e+000 114512 -7.7949e+000 -1.3121e+002  1.3273e+001 21027 114307,114463,114333
 1.9000e+000 114489  2.2040e+001 -1.2366e+002 -6.9048e+000 21027 114385,114437,114411
 1.9000e+000 114912 -4.5497e+001 -1.2061e+002  2.2377e+000 20623 114713,114791,114765
 1.9000e+000 114889 -8.2582e+000 -1.0500e+002 -1.2572e+001 20623 114687,114791,114713
 1.9000e+000 114866 -3.6469e+001 -1.4196e+002  4.7381e-002 20623 114687,114817,114791
 1.9000e+000 114843 -6.3175e+001 -1.4159e+002  9.8659e+000 20623 114713,114765,114739
 1.9000e+000 115290 -1.3511e+001 -1.0602e+002  2.8890e+000 20375 115313,115146,115094
 1.9000e+000 115267 -1.9457e+001 -1.0552e+002  5.9582e+000 20375 115313,115094,115042
 1.9000e+000 115244 -1.9683e+001 -9.7822e+001  1.1452e+000 20375 115385,115016,115172
 1.9000e+000 115221  2.2409e+001 -9.0683e+001  5.5589e+000 20375 115042,115094,115068
 1.9000e+000 115198 -1.9734e+001 -1.2409e+002  5.6920e+000 20375 115094,115146,115120
 1.9000e+000 115339 -3.1364e+001 -1.2537e+002 -6.9282e+000 20375 115172,115146,115313
 1.9000e+000 115362 -1.7287e+001 -1.0161e+002  3.9242e-001 20375 115385,115172,115313
 1.9000e+000 115411 -1.8099e+001 -1.0085e+002  4.7990e+000 20375 115042,115016,115385
 1.9000e+000 115434 -1.8286e+001 -1.0715e+002  4.7293e+000 20375 115042,115385,115313
 1.9000e+000 115891 -4.9882e+001 -1.0598e+002  1.4805e+001 19971 115617,115747,115643
 1.9000e+000 115868 -4.2149e+001 -8.6263e+001  1.2824e+001 19971 115617,115773,115747
 1.9000e+000 115845 -3.0525e+001 -1.5562e+002  8.2094e+000 19971 115643,115721,115695
 1.9000e+000 115822  4.1164e+000 -7.8902e+001  6.5491e-001 19971 115643,115747,115721
 1.9000e+000 115799  1.9773e+001 -1.6677e+002  1.0359e+000 19971 115643,115695,115669
 1.9000e+000 115992 -8.5099e+001 -2.2157e+002 -4.0135e+001 19659 115914,115966,115940
 1.9000e+000 116142 -1.1674e+001 -4.1530e+001  1.1770e+000 18997 116041,116093,116067
 1.9000e+000 116119 -2.4649e+001 -7.5569e+001  5.7550e+000 18997 116015,116093,116041
 1.9000e+000 116343 -1.9189e+001 -1.2530e+002 -3.4000e+000 18707 116193,116245,116219
 1.9000e+000 116320 -2.1076e+001 -1.2892e+002 -7.2125e+000 18707 116193,116271,116245
 1.9000e+000 116297 -6.7539e+000 -9.9408e+001 -2.0658e+000 18707 116167,116271,116193
 1.9000e+000 116747 -1.2014e+001 -1.0931e+002 -1.2269e+000 18301 116525,116629,116551
 1.9000e+000 116724 -1.1992e+001 -9.4408e+001  1.1220e+000 18301 116473,116629,116525
 1.9000e+000 116701 -9.7766e+000 -9.6614e+001 -7.5772e+000 18301 116473,116525,116499
 1.9000e+000 116678  7.3075e-001 -1.1456e+002 -1.9897e+000 18301 116551,116603,116577
 1.9000e+000 116655 -1.6636e+001 -1.2028e+002 -5.2588e+000 18301 116551,116629,116603
 1.9000e+000 117147 -5.8439e+001 -1.3735e+002 -8.0306e-002 17747 116899,117029,116925
 1.9000e+000 117124 -3.2689e+001 -1.0281e+002  1.3244e+001 17747 116873,117029,116899
 1.9000e+000 117101 -5.7262e+001 -1.3600e+002  4.6246e-001 17747 116925,117029,116951
 1.9000e+000 117078 -4.9822e+001 -1.1652e+002  1.1640e+000 17747 116951,117029,117003
 1.9000e+000 117055 -6.8891e+001 -1.5089e+002 -8.5545e+000 17747 116951,117003,116977
 1.9000e+000 117368  3.5007e+001 -1.2497e+002  6.1556e-001 17293 117244,117296,117270
 1.9000e+000 117345  1.5572e+001 -1.2416e+002 -3.7308e+000 17293 117192,117296,117244
 1.9000e+000 117322 -4.4248e+000 -1.1817e+002 -1.8359e+000 17293 117192,117244,117218
 1.9000e+000 117699 -1.0275e+001 -9.2773e+001 -1.0327e+001 16896 117526,117604,117552
 1.9000e+000 117676 -5.8274e+001 -1.4211e+002  9.2323e+000 16896 117500,117604,117526
 1.9000e+000 117653 -6.4599e+001 -1.1230e+002 -5.2149e+000 16896 117552,117604,117578
 1.9000e+000 117630 -4.5507e+001 -1.8207e+002  1.9851e+001 16896 117474,117604,117500
 1.9000e+000 117849 -1.2927e+002 -2.5053e+002 -9.8432e+000 16534 117722,117774,117748
 1.9000e+000 117826 -1.0183e+002 -3.0593e+002 -4.2165e+001 16534 117722,117800,117774
 1.9000e+000 118070 -1.0469e+001 -1.1788e+002  1.2959e+001 16194 117946,117998,117972
 1.9000e+000 118047 -2.3557e+001 -1.3955e+002  7.4108e+000 16194 117894,117998,117946
 1.9000e+000 118024 -3.3281e+001 -1.2850e+002 -1.9695e+000 16194 117894,117946,117920
 1.9000e+000 118173 -1.2239e+001 -1.3267e+002  0.0000e+000 15968 118095,118147,118121
 1.9000e+000 118276 -3.6164e+001 -1.2630e+002  2.1743e+000 15433 118299,118198,118250
 1.9000e+000 118325 -3.7954e+001 -1.3047e+002  2.2156e+000 15433 118224,118198,118299
 1.9000e+000 118450 -6.9864e+001 -1.5202e+002  1.5023e+001 421 118372,118424,118398
 2.0000e+000 69891 -2.5756e+001 -1.6394e+002  2.0681e+000 68988 69447,69681,69629
 2.0000e+000 69868  5.9844e+001 -1.2888e+002  1.0070e+001 68988 69421,69681,69447
 2.0000e+000 69845  6.2212e-001 -8.5104e+001 -2.5300e+000 68988 69447,69629,69577
 2.0000e+000 69822 -4.9540e+001 -1.7568e+002 -2.3170e+001 68988 69447,69577,69473
 2.0000e+000 69799  3.4516e+001 -1.8036e+002  5.6937e+001 68988 69629,69681,69655
 2.0000e+000 69776 -5.0689e+001 -1.0754e+002  8.2533e-001 68988 69577,69629,69603
 2.0000e+000 69753 -4.0641e+001 -1.6057e+002 -2.7573e+001 68988 69473,69577,69551
 2.0000e+000 69730 -6.0283e+001 -3.2540e+002 -3.4206e+001 68988 69473,69551,69525
 2.0000e+000 69707 -9.9925e+001 -2.0872e+002 -8.3873e-002 68988 69473,69525,69499
 2.0000e+000 69992 -9.7906e+001 -1.9286e+002 -3.9815e+001 68676 69914,69966,69940
 2.0000e+000 70392 -5.6793e+001 -1.4265e+002  1.2297e+001 68478 70118,70248,70144
 2.0000e+000 70369  3.3838e+001 -1.4459e+002  3.8049e+001 68478 70118,70274,70248
 2.0000e+000 70346 -3.7995e+001 -1.0468e+002 -1.0780e+000 68478 70144,70222,70196
 2.0000e+000 70323 -2.9309e+001 -8.3929e+001 -1.9133e+000 68478 70144,70248,70222
 2.0000e+000 70300 -4.2557e+001 -1.1439e+002 -3.2212e+000 68478 70144,70196,70170
 2.0000e+000 70841  6.4050e+001 -8.5247e+001 -3.5240e+001 68280 70570,70622,70596
 2.0000e+000 70818 -3.0163e+001 -1.0012e+002 -9.0540e+000 68280 70544,70622,70570
 2.0000e+000 70795 -1.3962e+001 -6.3136e+001 -6.1554e+000 68280 70544,70674,70622
 2.0000e+000 70772 -1.8098e+001 -5.0006e+001  2.8648e+000 68280 70622,70674,70648
 2.0000e+000 70749 -3.2450e+001 -1.1032e+002  8.7064e+000 68280 70518,70674,70544
 2.0000e+000 70726  7.7273e+001 -1.1306e+002  4.1415e+001 68280 70518,70700,70674
 2.0000e+000 70991 -5.5874e+000 -5.5580e+002  1.6101e+001 67968 70864,70916,70890
 2.0000e+000 70968 -1.4191e+002 -5.5624e+002  5.8785e+001 67968 70864,70942,70916
 2.0000e+000 71141 -2.6905e+002 -5.3825e+002 -2.2224e+001 67770 71040,71092,71066
 2.0000e+000 71118 -2.3886e+002 -6.3562e+002  2.5609e+001 67770 71014,71092,71040
 2.0000e+000 71651 -2.7558e-002 -9.0485e+001 -1.3434e+001 67366 71746,71674,71458
 2.0000e+000 71628  4.7730e+000 -6.5737e+001 -1.8954e+001 67366 71674,71354,71510
 2.0000e+000 71605 -1.2324e+001 -1.0542e+002 -8.0545e+000 67366 71746,71458,71432
 2.0000e+000 71582 -3.5651e+001 -9.6785e+001 -3.2822e+000 67366 71354,71432,71380
 2.0000e+000 71559 -3.6051e+001 -7.2218e+001 -1.5091e+001 67366 71380,71432,71406
 2.0000e+000 71536 -4.7588e+000 -5.2728e+000  1.7204e+000 67366 71328,71510,71354
 2.0000e+000 71700  1.0684e+001 -7.1863e+001 -1.8328e+001 67366 71484,71458,71674
 2.0000e+000 71723 -4.7301e-001 -7.3998e+001 -9.3653e+000 67366 71484,71674,71510
 2.0000e+000 71772 -1.5717e+001 -7.2793e+001 -1.8300e+001 67366 71354,71674,71746
 2.0000e+000 71795 -1.8766e+001 -7.9579e+001 -1.6676e+001 67366 71354,71746,71432
 2.0000e+000 71896 -9.6891e+001 -2.0516e+002  0.0000e+000 67146 71818,71870,71844
 2.0000e+000 71997 -1.0126e+002 -1.7816e+002  3.6309e+001 66948 71919,71971,71945
 2.0000e+000 72149  4.0547e+000 -1.1416e+002 -1.7039e+001 66700 72172,72074,72048
 2.0000e+000 72126 -3.4481e+001 -1.3289e+002 -7.0491e+000 66700 72172,72048,72022
 2.0000e+000 72198 -6.0409e+001 -1.4111e+002  7.6739e+000 66700 72244,72172,72100
 2.0000e+000 72221 -5.3274e+001 -1.2911e+002 -8.8035e+000 66700 72100,72172,72022
 2.0000e+000 72270 -2.8870e+001 -7.1670e+001 -1.2505e+001 66700 72074,72172,72244
 2.0000e+000 72623 -3.6562e+001 -1.1874e+002  4.1919e+000 66502 72424,72502,72450
 2.0000e+000 72600 -2.8219e+001 -9.6388e+001  3.2516e+000 66502 72398,72502,72424
 2.0000e+000 72577 -2.0012e+001 -1.1229e+002 -1.6693e+000 66502 72398,72528,72502
 2.0000e+000 72554 -3.6564e+001 -1.0448e+002 -3.4077e-003 66502 72450,72502,72476
 2.0000e+000 72920 -7.0250e+001 -1.5537e+002  2.8541e+000 65941 72672,72776,72750
 2.0000e+000 72897 -6.7712e+001 -1.2761e+002  1.6742e+001 65941 72646,72776,72672
 2.0000e+000 72874 -5.4475e+001 -1.5185e+002  6.2278e+000 65941 72672,72750,72724
 2.0000e+000 72851 -6.9185e+001 -1.2243e+002  2.1995e+001 65941 72672,72724,72698
 2.0000e+000 72828 -5.0171e+001 -1.1900e+002  1.2637e+001 65941 72646,72802,72776
 2.0000e+000 73241  8.9941e+000 -9.8756e+001  1.2975e+001 65743 73264,73071,73045
 2.0000e+000 73218 -2.4495e+001 -1.1372e+002  1.6344e+001 65743 73480,73264,73045
 2.0000e+000 73195 -2.0273e+001 -9.7705e+001 -2.0161e-001 65743 73336,72967,73097
 2.0000e+000 73172 -5.5731e+001 -8.7654e+001 -1.0645e+001 65743 73408,72993,72967
 2.0000e+000 73149 -1.7165e+001 -1.0006e+002 -1.2413e+000 65743 72967,73123,73097
 2.0000e+000 73290 -7.9864e+000 -1.0748e+002  4.1685e+000 65743 73097,73071,73264
 2.0000e+000 73313 -1.4296e+001 -9.3932e+001  8.0287e+000 65743 73336,73097,73264
 2.0000e+000 73362 -4.4407e+001 -1.0342e+002 -5.8709e+000 65743 73408,72967,73336
 2.0000e+000 73385 -8.5226e+000 -9.2183e+001  4.3463e+000 65743 73019,73336,73264
 2.0000e+000 73434 -3.6781e+001 -5.9405e+001  1.1355e+001 65743 73019,72993,73408
 2.0000e+000 73457 -8.9851e+000 -7.9537e+001  8.9799e+000 65743 73019,73408,73336
 2.0000e+000 73506  5.2974e-001 -6.8480e+001  6.5741e+000 65743 73019,73264,73480
 2.0000e+000 73989  1.4581e+001 -7.3817e+001  1.2162e+001 65453 73793,73845,73819
 2.0000e+000 73966 -2.9910e+001 -8.4353e+001  1.4926e+001 65453 73741,73845,73793
 2.0000e+000 73943  4.3530e+000 -6.4847e+001  7.0910e+000 65453 73715,73845,73741
 2.0000e+000 73920 -1.9737e+001 -9.2900e+001  2.3688e+001 65453 73741,73793,73767
 2.0000e+000 73897  1.8047e+001 -2.6695e+001  6.0073e+000 65453 73715,73871,73845
 2.0000e+000 74357 -1.2166e+001 -1.0448e+002 -3.6831e+001 65141 74380,74138,74086
 2.0000e+000 74334 -3.8264e+001 -1.4925e+002 -2.5790e+001 65141 74380,74086,74060
 2.0000e+000 74311 -4.3972e+001 -1.4588e+002 -7.9451e+000 65141 74138,74190,74164
 2.0000e+000 74288 -3.4230e+001 -1.7063e+002 -1.1678e+001 65141 74060,74216,74190
 2.0000e+000 74265 -4.1407e+001 -1.9106e+002  1.1602e+000 65141 74034,74216,74060
 2.0000e+000 74242 -2.4248e+001 -6.1069e+001 -1.7184e+001 65141 74086,74138,74112
 2.0000e+000 74406 -2.7562e+001 -1.4366e+002 -1.5428e+001 65141 74190,74138,74380
 2.0000e+000 74429 -3.5825e+001 -1.5938e+002 -8.3920e+000 65141 74190,74380,74060
 2.0000e+000 74937 -5.1055e+001 -1.0667e+002 -2.9352e+001 64737 74614,74666,74640
 2.0000e+000 74914 -6.5526e+001 -1.3287e+002 -2.1526e+001 64737 74614,74796,74666
 2.0000e+000 74891 -4.7114e+001 -9.2450e+001 -2.9923e+000 64737 74960,74718,74666
 2.0000e+000 74868 -4.0962e+001 -1.0204e+002 -1.2241e+001 64737 74960,74666,74770
 2.0000e+000 74845 -4.1988e+001 -8.1138e+001 -1.2915e+001 64737 74666,74796,74770
 2.0000e+000 74822 -4.6581e+001 -1.0097e+002  2.2562e+000 64737 74666,74718,74692
 2.0000e+000 74986 -5.0875e+001 -1.0240e+002 -2.8773e+000 64737 74744,74718,74960
 2.0000e+000 75009 -4.7254e+001 -1.1688e+002 -1.2363e+001 64737 74744,74960,74770
 2.0000e+000 75306 -1.5249e+000 -8.8139e+001  2.1572e+001 64133 75329,75110,75084
 2.0000e+000 75283 -1.2079e+001 -1.0904e+002  9.9017e+000 64133 75401,75329,75084
 2.0000e+000 75260 -7.4929e+000 -1.1375e+002  1.3341e+001 64133 75401,75084,75058
 2.0000e+000 75237 -1.1504e+001 -1.2748e+002  1.8518e+001 64133 75473,75136,75110
 2.0000e+000 75214 -2.6969e+001 -8.8576e+001  1.3444e+000 64133 75032,75188,75162
 2.0000e+000 75355 -1.4646e+001 -1.2005e+002  1.6087e+001 64133 75473,75110,75329
 2.0000e+000 75378 -1.1824e+001 -1.0599e+002  3.3072e+000 64133 75162,75329,75032
 2.0000e+000 75427 -9.0054e+000 -1.0051e+002  6.7495e+000 64133 75032,75329,75401
 2.0000e+000 75450 -3.5098e+001 -1.2985e+002  2.2655e+001 64133 75545,75401,75058
 2.0000e+000 75499 -1.4843e+001 -1.1783e+002  6.9234e+000 64133 75162,75136,75473
 2.0000e+000 75522 -1.4578e+001 -1.0184e+002  7.7554e+000 64133 75162,75473,75329
 2.0000e+000 75571 -5.9406e+000 -6.6513e+001  1.0522e+001 64133 75032,75401,75545
 2.0000e+000 75851 -2.9553e+001 -9.6938e+001  2.0289e-001 63843 75874,75753,75727
 2.0000e+000 75828 -2.6218e+001 -9.9195e+001 -5.9393e+000 63843 75946,75874,75727
 2.0000e+000 75805 -3.2509e+001 -1.0561e+002 -3.1012e+000 63843 76018,75946,75727
 2.0000e+000 75900 -2.3504e+001 -9.4395e+001 -4.0369e+000 63843 75779,75753,75874
 2.0000e+000 75923 -2.4352e+001 -7.7675e+001 -1.2622e+001 63843 75779,75874,75675
 2.0000e+000 75972 -3.3857e+001 -9.1222e+001 -4.4177e+000 63843 75675,75874,75946
 2.0000e+000 75995 -3.1923e+001 -9.8268e+001 -6.7532e+000 63843 75675,75946,75701
 2.0000e+000 76044 -3.4355e+001 -1.0452e+002 -1.0637e+001 63843 75701,75946,76018
 2.0000e+000 76454  4.9343e+001 -2.4926e+001 -7.5375e+000 63439 76477,76255,76229
 2.0000e+000 76431  2.7260e+001 -3.8887e+001  2.5774e+001 63439 76477,76229,76359
 2.0000e+000 76408  3.6025e+001 -2.4760e+001  3.3509e+001 63439 76307,76359,76333
 2.0000e+000 76385 -1.3915e+001 -5.5567e+001 -2.9876e-001 63439 76255,76307,76281
 2.0000e+000 76503 -7.4138e+000 -4.8106e+001 -3.5270e+000 63439 76307,76255,76477
 2.0000e+000 76526  1.1189e+001 -4.5114e+001  2.4507e+001 63439 76307,76477,76359
 2.0000e+000 76926 -2.1179e+001 -8.3843e+001 -1.1804e+000 63049 76704,76782,76756
 2.0000e+000 76903 -3.5749e+001 -8.7310e+001 -1.1881e+001 63049 76704,76808,76782
 2.0000e+000 76880 -2.3819e+001 -9.5477e+001  1.7057e+000 63049 76704,76756,76730
 2.0000e+000 76857 -2.1410e+001 -4.9941e+001  2.4805e+000 63049 76678,76808,76704
 2.0000e+000 76834 -1.0753e+001 -1.3507e+001 -1.1511e+001 63049 76652,76808,76678
 2.0000e+000 77076  7.6056e+000 -1.2015e+002 -2.0587e+000 62737 76975,77027,77001
 2.0000e+000 77053  1.3132e+001 -1.3601e+002 -1.0766e+001 62737 76949,77027,76975
 2.0000e+000 77324 -4.9714e+001 -1.2493e+002  2.6997e+000 62277 77347,77177,77125
 2.0000e+000 77301 -4.8556e+001 -1.2064e+002 -3.3452e+000 62277 77347,77125,77229
 2.0000e+000 77278 -4.7674e+001 -1.2516e+002 -6.1452e+000 62277 77099,77229,77125
 2.0000e+000 77255 -5.5324e+001 -1.4767e+002  6.2915e+000 62277 77125,77177,77151
 2.0000e+000 77373 -5.2977e+001 -1.3733e+002  7.9259e+000 62277 77203,77177,77347
 2.0000e+000 77396 -4.4225e+001 -1.2629e+002  5.7265e-001 62277 77203,77347,77229
 2.0000e+000 77857 -1.7653e+001 -1.4985e+002  2.3364e+000 61758 77635,77739,77661
 2.0000e+000 77834 -3.1526e+001 -1.6131e+002 -4.2795e+000 61758 77583,77739,77635
 2.0000e+000 77811 -3.3152e+001 -1.8614e+002 -1.5960e+001 61758 77583,77635,77609
 2.0000e+000 77788  1.2483e+001 -1.5147e+002  1.4954e+001 61758 77661,77713,77687
 2.0000e+000 77765 -2.3395e+001 -1.7389e+002 -1.7536e+000 61758 77661,77739,77713
 2.0000e+000 78491 -4.2738e+001 -8.8626e+001  5.6596e+000 61418 78171,78301,78249
 2.0000e+000 78468 -3.5577e+001 -6.4623e+001  1.4856e+001 61418 78145,78301,78171
 2.0000e+000 78445 -3.3849e+001 -7.9350e+001 -3.5367e+000 61418 78171,78249,78223
 2.0000e+000 78422 -3.1326e+001 -6.2097e+001 -4.6253e+000 61418 78145,78327,78301
 2.0000e+000 78399 -4.4293e+001 -9.5615e+001  2.8621e+000 61418 78249,78301,78275
 2.0000e+000 78376 -2.1732e+001 -8.8126e+001 -5.0655e+000 61418 78171,78223,78197
 2.0000e+000 78353 -3.8769e+001 -9.8681e+001 -1.3938e+001 61418 78119,78327,78145
 2.0000e+000 78690 -4.4822e+001 -1.0700e+002 -1.4969e+000 61014 78713,78566,78540
 2.0000e+000 78667 -2.8511e+001 -1.1212e+002  1.0892e+000 61014 78713,78540,78618
 2.0000e+000 78644 -5.3109e+001 -1.3085e+002 -1.6552e+001 61014 78514,78618,78540
 2.0000e+000 78739 -2.1126e+001 -9.6839e+001  1.0980e+001 61014 78592,78566,78713
 2.0000e+000 78762 -2.7869e+001 -1.1437e+002  1.3275e+000 61014 78785,78713,78618
 2.0000e+000 78811 -7.8312e+000 -1.0688e+002 -1.9295e+000 61014 78592,78713,78785
 2.0000e+000 79398 -9.1850e+000 -9.4409e+001 -1.1657e+001 60624 79101,79179,79153
 2.0000e+000 79375  7.9925e-001 -1.0365e+002 -7.9777e+000 60624 79101,79231,79179
 2.0000e+000 79352 -1.1031e+001 -1.1288e+002 -1.4859e+001 60624 79075,79231,79101
 2.0000e+000 79329  4.9367e+001 -1.2525e+002  1.0644e+001 60624 79075,79257,79231
 2.0000e+000 79306  1.2676e+001 -7.7677e+001 -4.8391e+000 60624 79179,79231,79205
 2.0000e+000 79283 -2.4883e+000 -7.9813e+001 -5.0982e+000 60624 79101,79153,79127
 2.0000e+000 79776 -4.4063e+001 -1.3278e+002  1.3705e+001 60070 79528,79658,79606
 2.0000e+000 79753 -4.1379e+001 -1.0660e+002 -1.2607e+000 60070 79502,79658,79528
 2.0000e+000 79730 -5.8018e+001 -1.2708e+002  2.0512e+001 60070 79528,79606,79580
 2.0000e+000 79707 -5.6191e+000 -1.2064e+002  5.3106e+000 60070 79606,79658,79632
 2.0000e+000 79684 -5.8155e+000 -7.6751e+001 -2.0614e+001 60070 79528,79580,79554
 2.0000e+000 80105 -3.3048e+001 -1.0695e+002  1.2900e+001 59758 80128,79958,79906
 2.0000e+000 80082 -3.4110e+001 -9.7704e+001  8.1789e+000 59758 80128,79906,80010
 2.0000e+000 80059 -4.7723e+001 -1.1236e+002  3.5016e+001 59758 79906,79958,79932
 2.0000e+000 80036 -5.0990e+001 -1.0727e+002  4.0717e+000 59758 79880,80010,79906
 2.0000e+000 80154 -3.3693e+001 -1.1289e+002  1.3643e+001 59758 79984,79958,80128
 2.0000e+000 80177 -3.6500e+001 -1.0599e+002  9.0827e+000 59758 79984,80128,80010
 2.0000e+000 80376 -2.9749e+001 -1.0134e+002  3.0720e+000 59312 80226,80304,80252
 2.0000e+000 80353 -2.9426e+001 -1.1302e+002  2.3424e+000 59312 80200,80304,80226
 2.0000e+000 80330 -4.4357e+001 -9.0766e+001  2.7089e+001 59312 80252,80304,80278
 2.0000e+000 80805 -1.3962e+001 -7.3671e+001 -1.6905e+001 58908 80900,80828,80638
 2.0000e+000 80782 -6.2581e+000 -9.3210e+001 -1.8600e+001 58908 80828,80560,80508
 2.0000e+000 80759 -1.2241e+001 -6.6841e+001 -8.1111e+000 58908 80900,80638,80612
 2.0000e+000 80736 -5.1432e+000 -8.0300e+001  4.4491e+001 58908 80482,80664,80508
 2.0000e+000 80713  1.0997e+001 -8.0438e+001  9.5704e+000 58908 80560,80612,80586
 2.0000e+000 80690 -1.9128e+001 -2.5098e+002 -4.1314e+001 58908 80508,80560,80534
 2.0000e+000 80854 -3.5890e+000 -8.3785e+001 -3.1015e+000 58908 80664,80638,80828
 2.0000e+000 80877 -1.1141e+001 -1.3060e+002  6.6369e+000 58908 80664,80828,80508
 2.0000e+000 80926 -1.3835e+001 -5.6339e+001 -1.3532e+001 58908 80560,80828,80900
 2.0000e+000 80949 -1.2199e+001 -5.3791e+001 -3.5005e+000 58908 80560,80900,80612
 2.0000e+000 81246 -5.9781e-001 -7.1742e+001 -2.5140e+000 58482 81076,81128,81102
 2.0000e+000 81223 -2.6890e+001 -1.3707e+002 -1.6014e+001 58482 80972,81128,81076
 2.0000e+000 81200 -1.0371e+001 -9.0028e+001 -1.8836e+001 58482 80972,81076,81050
 2.0000e+000 81177 -2.0263e+001 -1.1714e+002 -2.1382e+001 58482 80998,81050,81024
 2.0000e+000 81154 -1.8012e+001 -9.5107e+001 -2.3676e+001 58482 80972,81050,80998
 2.0000e+000 81754 -2.5794e+001 -6.9977e+001  3.9605e+000 57828 81457,81613,81483
 2.0000e+000 81731 -3.2584e+001 -8.2646e+001 -4.1810e-001 57828 81431,81613,81457
 2.0000e+000 81708 -2.9675e+001 -7.8963e+001  6.1509e+000 57828 81483,81613,81509
 2.0000e+000 81685 -4.0358e+001 -9.2695e+001  1.0790e+001 57828 81509,81613,81587
 2.0000e+000 81662 -3.7033e+001 -1.3181e+002  2.4805e+001 57828 81509,81587,81535
 2.0000e+000 81639  1.3189e+001 -1.0181e+002  6.6224e+000 57828 81535,81587,81561
 2.0000e+000 82002 -6.0825e+001 -1.6834e+002 -1.1462e+000 57374 82025,81855,81829
 2.0000e+000 81979 -6.4434e+001 -1.5640e+002  8.3522e+000 57374 82025,81829,81907
 2.0000e+000 81956 -6.5862e+001 -1.4259e+002  5.6864e+000 57374 81803,81907,81829
 2.0000e+000 81933 -2.9195e+001 -1.1684e+002  1.8758e+001 57374 81777,81907,81803
 2.0000e+000 82051 -6.1960e+001 -1.5432e+002 -1.3413e+000 57374 81881,81855,82025
 2.0000e+000 82074 -6.1495e+001 -1.4277e+002  1.1662e+001 57374 81881,82025,81907
 2.0000e+000 82356 -3.5492e+001 -8.3474e+001 -3.1522e+000 56913 82180,82232,82206
 2.0000e+000 82333 -2.8792e+001 -7.6824e+001  1.3576e+001 56913 82180,82284,82232
 2.0000e+000 82310 -1.2052e+001 -5.7993e+001  2.0616e+001 56913 82379,82232,82284
 2.0000e+000 82405  9.8681e+000 -5.8211e+001  1.3366e+000 56913 82258,82232,82379
 2.0000e+000 82764 -1.7776e+001 -4.3944e+001 -5.9923e+000 56523 82614,82666,82640
 2.0000e+000 82741 -1.7221e+001 -4.6782e+001 -6.4487e+000 56523 82614,82692,82666
 2.0000e+000 82718  1.7398e+001 -4.5445e+001 -2.4897e+001 56523 82588,82692,82614
 2.0000e+000 83368 -8.1084e+000 -1.1571e+002 -3.5183e+000 55969 82973,83155,83129
 2.0000e+000 83345  1.2444e+000 -1.1231e+002 -8.4194e+000 55969 82973,83181,83155
 2.0000e+000 83322 -3.1281e+001 -1.0035e+002 -2.5950e+000 55969 82973,83129,82999
 2.0000e+000 83299 -5.3804e+001 -1.0509e+002  5.0053e+000 55969 83391,83025,82999
 2.0000e+000 83276 -4.1771e+001 -1.0582e+002  5.3578e-001 55969 83391,82999,83129
 2.0000e+000 83253 -5.1939e+000 -7.9666e+001  1.7513e+001 55969 83077,83129,83103
 2.0000e+000 83230 -4.4392e+001 -7.6542e+001 -7.2929e+000 55969 83025,83077,83051
 2.0000e+000 83207 -1.0040e+000 -1.0813e+002  1.0485e+001 55969 82947,83181,82973
 2.0000e+000 83417 -4.1836e+001 -1.0029e+002  5.3409e+000 55969 83077,83025,83391
 2.0000e+000 83440 -3.7403e+001 -1.0535e+002  1.6113e-001 55969 83077,83391,83129
 2.0000e+000 83946 -5.9208e+001 -1.4758e+002  2.8221e+001 55771 83969,83779,83727
 2.0000e+000 83923 -4.2693e+001 -1.1485e+002  1.6047e+001 55771 83969,83727,83623
 2.0000e+000 83900 -5.0687e+001 -5.5682e+001  8.8619e+000 55771 83623,83727,83649
 2.0000e+000 83877 -3.0956e+001 -2.4279e+002  2.0806e+001 55771 83727,83779,83753
 2.0000e+000 83854 -7.6289e+001 -1.3898e+002  3.5800e+001 55771 83675,83727,83701
 2.0000e+000 83831 -9.1261e+001 -1.0513e+002  5.3644e+001 55771 83649,83727,83675
 2.0000e+000 83995 -5.3435e+001 -1.5368e+002 -1.3330e+001 55771 83805,83779,83969
 2.0000e+000 84018 -1.7891e+001 -8.7265e+001 -2.9202e+001 55771 83805,83969,83623
 2.0000e+000 84168 -1.1165e+001 -6.3823e+001 -1.1809e+000 55367 84191,84067,84041
 2.0000e+000 84145 -1.2879e+001 -6.7713e+001 -2.5921e-001 55367 84191,84041,84119
 2.0000e+000 84217 -1.3973e+001 -5.9690e+001 -1.4474e+000 55367 84093,84067,84191
 2.0000e+000 84240 -1.6715e+001 -6.3488e+001  4.7574e-001 55367 84093,84191,84119
 2.0000e+000 84571 -1.3665e+001 -1.2722e+002 -1.3013e+001 54913 84398,84450,84424
 2.0000e+000 84548 -1.0052e+001 -1.1510e+002 -5.8278e+000 54913 84372,84450,84398
 2.0000e+000 84525 -2.9285e+001 -1.3055e+002  5.4144e+000 54913 84346,84450,84372
 2.0000e+000 84502 -9.1925e+000 -8.4245e+001 -9.9950e+000 54913 84346,84476,84450
 2.0000e+000 85126 -6.3149e+001 -1.4450e+002 -6.6522e+000 54402 84858,84936,84910
 2.0000e+000 85103 -4.6406e+001 -1.0794e+002 -1.2119e+001 54402 84806,84936,84858
 2.0000e+000 85080 -5.9549e+001 -9.8447e+001 -9.4779e+000 54402 84780,84936,84806
 2.0000e+000 85057 -4.8888e+001 -1.2044e+002 -4.7472e+000 54402 84806,84858,84832
 2.0000e+000 85034 -5.0002e+001 -9.1113e+001  5.5388e+000 54402 84780,84962,84936
 2.0000e+000 85011 -7.9021e+001 -8.3457e+001 -4.3699e+000 54402 84858,84910,84884
 2.0000e+000 84988 -4.9244e+001 -8.6413e+001  4.7555e+000 54402 84754,84962,84780
 2.0000e+000 85396 -3.6688e+001 -4.5838e+001 -4.9622e+000 53998 85197,85249,85223
 2.0000e+000 85373 -2.6546e+001 -6.6020e+001 -4.3690e-001 53998 85197,85275,85249
 2.0000e+000 85350 -4.1214e+001 -7.8271e+001 -5.9197e+000 53998 85171,85275,85197
 2.0000e+000 85327 -8.5231e+000 -6.7298e+001 -9.3005e+000 53998 85171,85301,85275
 2.0000e+000 85749 -3.0198e+001 -1.0803e+002 -3.8240e+000 53636 85524,85628,85550
 2.0000e+000 85726 -4.5537e+001 -1.2394e+002  2.4195e+000 53636 85524,85654,85628
 2.0000e+000 85703 -1.6985e+001 -1.1120e+002 -1.0941e+001 53636 85550,85602,85576
 2.0000e+000 85680 -2.7657e+001 -1.0642e+002 -5.9386e+000 53636 85550,85628,85602
 2.0000e+000 86127  5.8616e+000 -1.0248e+002  1.8470e+001 52982 86150,85957,85879
 2.0000e+000 86104 -2.4635e+001 -1.2217e+002  9.9255e+000 52982 86150,85879,85853
 2.0000e+000 86081  9.7893e+000 -1.5593e+002  3.2807e+001 52982 85957,86009,85983
 2.0000e+000 86058 -3.0628e+001 -1.1032e+002  1.4356e+001 52982 85879,85957,85931
 2.0000e+000 86035 -1.4381e+001 -9.4498e+001  1.0647e+000 52982 85879,85931,85905
 2.0000e+000 86176  2.4831e+001 -1.2501e+002  1.4506e+001 52982 86009,85957,86150
 2.0000e+000 86199  6.7902e+000 -1.3710e+002  8.4573e+000 52982 86009,86150,85853
 2.0000e+000 86398 -1.3190e+001 -7.8769e+001  6.0994e+000 52542 86421,86248,86222
 2.0000e+000 86375 -2.7529e+001 -7.9811e+001 -6.3665e-001 52542 86421,86222,86300
 2.0000e+000 86352 -2.4135e+001 -7.5945e+001 -3.1115e+000 52542 86222,86326,86300
 2.0000e+000 86447  1.2591e+000 -7.8866e+001  1.1653e+001 52542 86274,86248,86421
 2.0000e+000 86470 -1.2322e+001 -8.2013e+001  3.1612e+000 52542 86274,86421,86300
 2.0000e+000 86669 -2.2140e+001 -8.3442e+001 -2.5656e+001 52230 86692,86571,86545
 2.0000e+000 86646 -2.5936e+001 -9.0296e+001 -1.7982e+001 52230 86692,86545,86519
 2.0000e+000 86623 -4.8273e+001 -7.3191e+001 -1.1196e+001 52230 86493,86597,86519
 2.0000e+000 86718 -2.7500e+001 -8.4176e+001 -1.8282e+001 52230 86597,86571,86692
 2.0000e+000 86741 -3.6548e+001 -9.3400e+001 -1.0314e+001 52230 86597,86692,86519
 2.0000e+000 87153 -5.2162e+001 -7.8632e+001  3.6963e+000 51640 86980,87058,87032
 2.0000e+000 87130 -4.8206e+001 -8.3139e+001  1.9882e+000 51640 86928,87058,86980
 2.0000e+000 87107 -4.6012e+001 -1.1271e+002 -1.1568e+001 51640 86928,86980,86954
 2.0000e+000 87084 -3.1125e+001 -6.9680e+001  1.5280e+000 51640 86980,87032,87006
 2.0000e+000 87659 -1.7985e+001 -7.6579e+001  8.2406e+000 51029 87682,87440,87362
 2.0000e+000 87636 -2.1059e+001 -8.4096e+001 -2.7811e+000 51029 87682,87362,87336
 2.0000e+000 87613 -3.5132e+001 -1.2893e+002 -3.4977e+000 51029 87440,87518,87466
 2.0000e+000 87590 -3.7725e+001 -7.9858e+001  1.0661e+001 51029 87362,87440,87414
 2.0000e+000 87567 -3.6836e+001 -7.4275e+001  2.7410e+001 51029 87362,87414,87388
 2.0000e+000 87544 -4.6440e+001 -1.1104e+002  1.3928e+000 51029 87466,87518,87492
 2.0000e+000 87708 -1.5334e+001 -8.8756e+001  2.8301e+000 51029 87518,87440,87682
 2.0000e+000 87731 -1.7281e+001 -1.0342e+002 -4.1369e+000 51029 87518,87682,87336
 2.0000e+000 87881 -4.7141e+001 -1.1181e+002  9.1439e-001 50739 87780,87832,87806
 2.0000e+000 87858 -4.6876e+001 -9.6055e+001 -5.0848e+000 50739 87754,87832,87780
 2.0000e+000 88468 -2.2353e+001 -6.0334e+001  8.0224e+000 50235 88171,88327,88197
 2.0000e+000 88445 -5.5151e+001 -6.7355e+001 -4.8214e+000 50235 88145,88327,88171
 2.0000e+000 88422  2.0577e+001 -2.9945e+001  1.7641e+001 50235 88275,88327,88301
 2.0000e+000 88399  9.9315e-001 -3.8548e+001 -3.2648e+000 50235 88197,88327,88275
 2.0000e+000 88376  1.2310e+001 -5.4198e+001 -2.7655e+000 50235 88197,88275,88223
 2.0000e+000 88353 -5.9536e+000 -8.9309e+001  3.8582e+000 50235 88223,88275,88249
 2.0000e+000 88895 -6.9308e+000 -1.0094e+002  8.6110e+000 49873 88918,88728,88676
 2.0000e+000 88872 -6.1144e+000 -1.0491e+002  6.2596e+000 49873 88918,88676,88624
 2.0000e+000 88849 -4.6941e+000 -8.1619e+001  7.5060e+000 49873 88598,88754,88624
 2.0000e+000 88826 -2.6132e+000 -9.8900e+001  2.2127e-001 49873 88624,88676,88650
 2.0000e+000 88803 -6.6331e+000 -1.4206e+002  6.1587e+000 49873 88676,88728,88702
 2.0000e+000 88780  8.9938e+000 -8.4974e+001  4.3784e+000 49873 88572,88754,88598
 2.0000e+000 88944 -4.5229e+000 -9.8812e+001  1.0860e+001 49873 88754,88728,88918
 2.0000e+000 88967 -4.7869e+000 -1.0215e+002  8.1242e+000 49873 88754,88918,88624
 2.0000e+000 89473 -7.0511e+001 -1.0613e+002 -1.3687e+001 49583 89176,89306,89202
 2.0000e+000 89450 -7.3704e+001 -1.0706e+002 -1.4614e+001 49583 89176,89332,89306
 2.0000e+000 89427 -4.7689e+001 -1.1577e+002  2.0711e-001 49583 89496,89228,89202
 2.0000e+000 89404 -4.6287e+001 -1.1635e+002  3.9025e-001 49583 89496,89202,89280
 2.0000e+000 89381 -8.6329e+001 -1.4226e+002 -2.5116e+001 49583 89202,89306,89280
 2.0000e+000 89358 -6.0217e+001 -1.0579e+002 -1.5666e+001 49583 89150,89332,89176
 2.0000e+000 89522 -4.5738e+001 -1.1253e+002  1.0341e+000 49583 89254,89228,89496
 2.0000e+000 89545 -4.6089e+001 -1.1575e+002  5.5080e-001 49583 89254,89496,89280
 2.0000e+000 89825  1.3415e+000 -1.0814e+002  1.6072e+000 49179 89701,89753,89727
 2.0000e+000 89802  1.2556e+001 -9.9109e+001 -2.3827e+000 49179 89675,89753,89701
 2.0000e+000 89779  2.8270e+001 -7.6226e+001  2.0526e+001 49179 89848,89753,89675
 2.0000e+000 89874 -3.4841e+001 -1.0873e+002  9.1888e-001 49179 89649,89753,89848
 2.0000e+000 90223 -2.4422e+001 -1.1022e+002 -9.7011e+000 48739 90024,90102,90076
 2.0000e+000 90200 -4.1743e+001 -1.1195e+002 -3.3491e+000 48739 90024,90128,90102
 2.0000e+000 90177 -2.1466e+001 -1.2085e+002 -4.7326e+000 48739 90024,90076,90050
 2.0000e+000 90154 -1.7703e+001 -1.0793e+002  9.5268e+000 48739 89998,90128,90024
 2.0000e+000 90603 -3.7904e+001 -1.0408e+002  1.8485e+001 48335 90381,90485,90459
 2.0000e+000 90580 -4.7331e+001 -1.1166e+002  1.2760e+001 48335 90355,90485,90381
 2.0000e+000 90557 -1.6935e+001 -3.3846e+001  1.3758e+001 48335 90381,90433,90407
 2.0000e+000 90534 -3.6486e+001 -1.0256e+002  1.9684e+001 48335 90381,90459,90433
 2.0000e+000 90511  6.9164e+000 -7.8221e+001  2.9602e+001 48335 90329,90485,90355
 2.0000e+000 90753  2.3636e+001 -5.1454e+001  3.2674e+001 47824 90776,90652,90704
 2.0000e+000 90730  3.6216e+000 -9.2220e+001  2.6203e+001 47824 90626,90704,90652
 2.0000e+000 90802 -4.6159e+000 -7.3519e+001  2.3078e+001 47824 90678,90652,90776
 2.0000e+000 91131 -2.3635e+001 -1.1609e+002 -1.7848e+000 47427 91154,90958,90906
 2.0000e+000 91108 -4.5156e+001 -1.2550e+002  4.1136e-001 47427 91154,90906,91036
 2.0000e+000 91085 -4.5216e+001 -8.9664e+001 -1.1993e+001 47427 90958,91010,90984
 2.0000e+000 91062 -2.5700e+001 -1.0258e+002  1.0308e+000 47427 90906,90958,90932
 2.0000e+000 91180 -3.4874e+001 -1.1036e+002 -1.6360e+001 47427 91010,90958,91154
 2.0000e+000 91203 -5.5064e+001 -1.1898e+002 -1.4485e+001 47427 91010,91154,91036
 2.0000e+000 91583 -6.8932e+001 -1.2951e+002 -8.0098e+000 46873 91309,91439,91335
 2.0000e+000 91560 -7.2600e+001 -1.2857e+002 -6.8931e+000 46873 91309,91465,91439
 2.0000e+000 91537 -1.0340e+002 -1.5043e+002 -3.5437e+001 46873 91361,91439,91413
 2.0000e+000 91514 -7.5831e+001 -1.3381e+002 -1.6501e+001 46873 91335,91439,91361
 2.0000e+000 91491 -3.1817e+001 -1.2012e+002 -2.6950e+001 46873 91361,91413,91387
 2.0000e+000 91880 -2.7552e+001 -1.0895e+002 -3.8194e+000 46526 91606,91710,91658
 2.0000e+000 91857 -2.5661e+001 -1.1463e+002  4.5410e-001 46526 91606,91762,91710
 2.0000e+000 91834 -1.2342e+001 -1.0217e+002 -1.4555e+001 46526 91606,91658,91632
 2.0000e+000 91811 -3.2732e+001 -9.8783e+001  2.0313e+000 46526 91658,91710,91684
 2.0000e+000 91788 -1.2812e+001 -6.9557e+001  7.3190e+000 46526 91710,91762,91736
 2.0000e+000 92211  7.7281e+000 -5.5446e+001 -2.6350e+000 45700 91986,92064,92038
 2.0000e+000 92188 -2.7618e+001 -8.6716e+001  1.1576e+001 45700 91986,92116,92064
 2.0000e+000 92165  2.1080e+001 -3.9404e+001 -2.3680e+001 45700 91986,92038,92012
 2.0000e+000 92142 -2.8240e+001 -8.3760e+001  1.0361e+001 45700 92064,92116,92090
 2.0000e+000 92766 -6.2457e+001 -1.0335e+002 -5.0846e-001 45452 92446,92602,92576
 2.0000e+000 92743 -1.0085e+002 -1.0517e+002 -2.3214e+001 45452 92420,92602,92446
 2.0000e+000 92720 -7.1244e+001 -1.0828e+002  1.4940e+001 45452 92789,92524,92498
 2.0000e+000 92697 -8.7115e+001 -1.0526e+002  9.9108e+000 45452 92789,92498,92446
 2.0000e+000 92674 -6.5676e+001 -1.1795e+002 -2.6402e+000 45452 92524,92576,92550
 2.0000e+000 92651 -1.1070e+002 -1.0614e+002  5.6879e+001 45452 92446,92498,92472
 2.0000e+000 92628 -4.8361e+001 -1.1338e+002 -3.4996e+001 45452 92394,92602,92420
 2.0000e+000 92815 -6.0064e+001 -1.1074e+002  1.0690e+001 45452 92576,92524,92789
 2.0000e+000 92838 -7.2399e+001 -1.0496e+002  7.7967e+000 45452 92576,92789,92446
 2.0000e+000 92939 -3.3192e+001 -1.2855e+002 -2.9921e+001 44998 92861,92913,92887
 2.0000e+000 93319 -1.6330e+001 -1.3085e+002  2.3276e+001 44601 93123,93201,93149
 2.0000e+000 93296 -3.3541e+001 -1.2729e+002 -1.4355e+000 44601 93045,93201,93123
 2.0000e+000 93273  5.8529e+000 -7.3852e+001 -1.8647e+001 44601 93045,93123,93071
 2.0000e+000 93250 -2.5893e+001 -8.0558e+001 -1.0932e+001 44601 93071,93123,93097
 2.0000e+000 93227 -1.0405e+001 -9.1749e+001  2.3615e+001 44601 93149,93201,93175
 2.0000e+000 93697  5.6087e+000 -1.4615e+002 -1.0158e-001 44026 93720,93553,93527
 2.0000e+000 93674 -1.3816e+000 -1.2141e+002  5.5503e+000 44026 93720,93527,93449
 2.0000e+000 93651  1.7804e+000 -1.1964e+002  1.4367e+001 44026 93449,93527,93501
 2.0000e+000 93628 -1.6484e+001 -8.9574e+001 -2.3773e+001 44026 93423,93579,93449
 2.0000e+000 93605  1.6599e+001 -1.2405e+002  1.1126e+001 44026 93449,93501,93475
 2.0000e+000 93746  2.4778e+000 -1.2174e+002 -3.2268e+000 44026 93579,93553,93720
 2.0000e+000 93769 -2.6038e+000 -9.4902e+001  3.7430e+000 44026 93579,93720,93449
 2.0000e+000 94066 -2.8929e+001 -1.1360e+002 -1.5267e+001 43579 94089,93818,93792
 2.0000e+000 94043 -3.8991e+001 -1.2225e+002 -1.1570e+001 43579 94161,94089,93792
 2.0000e+000 94020 -3.7465e+001 -1.2253e+002 -6.6867e+000 43579 94161,93792,93948
 2.0000e+000 93997 -4.1370e+001 -1.0239e+002 -9.2582e+000 43579 94233,93870,93818
 2.0000e+000 93974 -1.8658e+001 -8.9263e+001 -1.4638e+001 43579 93818,93870,93844
 2.0000e+000 94115 -4.1083e+001 -1.0272e+002 -1.1432e+001 43579 94233,93818,94089
 2.0000e+000 94138 -5.6244e+001 -1.1282e+002 -8.0310e+000 43579 93896,94089,93922
 2.0000e+000 94187 -3.5582e+001 -1.1547e+002 -9.4081e+000 43579 93922,94089,94161
 2.0000e+000 94210 -3.2450e+001 -1.1448e+002 -4.1112e+000 43579 93922,94161,93948
 2.0000e+000 94259 -4.3378e+001 -1.0651e+002 -8.6297e+000 43579 93896,93870,94233
 2.0000e+000 94282 -4.2538e+001 -1.0604e+002 -1.1142e+001 43579 93896,94233,94089
 2.0000e+000 94481 -3.0762e+001 -1.1344e+002 -1.3039e+000 43239 94305,94383,94357
 2.0000e+000 94458 -2.2842e+001 -1.0171e+002  1.4020e+001 43239 94305,94409,94383
 2.0000e+000 94435 -2.0719e+001 -1.1860e+002 -4.1853e+000 43239 94305,94357,94331
 2.0000e+000 94633 -1.0234e+001 -7.9386e+001  2.1475e+001 42827 94656,94532,94506
 2.0000e+000 94610 -2.6558e+001 -8.9784e+001  2.9458e+001 42827 94728,94656,94506
 2.0000e+000 94682 -2.8999e-001 -9.1725e+001  2.2039e+001 42827 94558,94532,94656
 2.0000e+000 94705  1.7998e+001 -9.5310e+001  1.2872e+001 42827 94988,94860,94656
 2.0000e+000 94754 -4.3555e+000 -7.8810e+001  7.0812e+000 42827 94988,94656,94728
 2.0000e+000 94886  4.4315e+001 -8.4354e+001  1.3917e+001 42827 94558,94656,94860
 2.0000e+000 95014  3.6810e+001 -8.0968e+001  6.6030e+000 42827 94584,94860,94988
 2.0000e+000 95037  1.7492e+001 -6.5733e+001  1.0351e+000 42827 94584,94988,94728
 2.0000e+000 95236 -3.7000e+001 -1.1396e+002  4.0562e+000 42537 95259,95112,95060
 2.0000e+000 95213 -1.4455e+001 -1.2235e+002  7.5310e+000 42537 95259,95060,95164
 2.0000e+000 95190 -2.9896e+001 -1.1274e+002 -6.4231e+000 42537 95060,95112,95086
 2.0000e+000 95285 -2.1716e+001 -1.1239e+002  1.4390e+001 42537 95138,95112,95259
 2.0000e+000 95308 -2.5474e-001 -1.1656e+002  2.0985e+001 42537 95138,95259,95164
 2.0000e+000 95816 -3.9070e+001 -1.2254e+002 -5.1577e+000 41969 95493,95597,95519
 2.0000e+000 95793 -6.6288e+001 -1.2158e+002  1.7612e+001 41969 95493,95649,95597
 2.0000e+000 95770 -5.4637e+001 -1.1027e+002  9.6459e+000 41969 95493,95675,95649
 2.0000e+000 95747 -6.0521e+001 -1.3667e+002  1.6980e+001 41969 95597,95649,95623
 2.0000e+000 95724 -7.3721e+001 -1.2079e+002 -7.0753e+000 41969 95519,95597,95571
 2.0000e+000 95701 -6.7792e+001 -1.1591e+002 -3.3690e+001 41969 95519,95571,95545
 2.0000e+000 96371 -5.4183e+001 -1.2820e+002  2.7231e+001 41579 96025,96207,96181
 2.0000e+000 96348  5.4381e+000 -9.9117e+001 -2.8669e+000 41579 95999,96207,96025
 2.0000e+000 96325 -6.2585e+001 -9.5021e+001 -1.5539e+000 41579 96129,96181,96155
 2.0000e+000 96302 -1.8094e+001 -8.7553e+001  1.1122e+001 41579 96025,96181,96129
 2.0000e+000 96279 -4.5674e+001 -1.3865e+002  2.4250e+001 41579 96025,96129,96051
 2.0000e+000 96256 -5.9574e+001 -1.3617e+002  2.4371e+001 41579 96051,96103,96077
 2.0000e+000 96233 -2.1548e+001 -9.6966e+001  6.5803e+000 41579 96051,96129,96103
 2.0000e+000 96877  2.4366e+001 -7.5894e+001 -1.7324e+000 41182 96972,96900,96632
 2.0000e+000 96854  2.8983e+001 -6.3006e+001 -3.2542e-001 41182 96900,96554,96736
 2.0000e+000 96831  1.7809e+001 -7.1102e+001 -2.0809e+001 41182 96972,96632,96580
 2.0000e+000 96808  4.3709e+001 -6.2947e+001  5.5076e+000 41182 96632,96684,96658
 2.0000e+000 96785 -6.9397e+000 -7.9983e+001 -1.0183e+001 41182 96684,96736,96710
 2.0000e+000 96762 -1.4595e+001 -9.2460e+001  3.9217e+000 41182 96580,96632,96606
 2.0000e+000 96926  2.6060e+001 -7.4864e+001 -1.0529e+000 41182 96684,96632,96900
 2.0000e+000 96949 -3.1462e+000 -6.9682e+001 -6.1755e+000 41182 96684,96900,96736
 2.0000e+000 96998  5.5052e+001 -6.5016e+001 -1.2169e+001 41182 96554,96900,96972
 2.0000e+000 97021  5.6886e+001 -5.0299e+001 -3.3274e+001 41182 96554,96972,96580
 2.0000e+000 97576 -6.0007e+001 -2.0116e+002 -3.5252e+001 40678 97230,97412,97282
 2.0000e+000 97553  1.4836e+001 -1.6229e+002  1.1877e+001 40678 97204,97412,97230
 2.0000e+000 97530 -2.9586e+001 -1.5132e+002 -2.7714e+001 40678 97282,97360,97308
 2.0000e+000 97507 -1.7107e+001 -1.4353e+002 -1.4008e+001 40678 97282,97412,97360
 2.0000e+000 97484 -1.3738e+001 -1.0510e+002 -2.2212e+001 40678 97308,97360,97334
 2.0000e+000 97461 -6.2585e+001 -1.8397e+002  5.9806e+000 40678 97360,97412,97386
 2.0000e+000 97438 -2.4420e+001 -1.4279e+002 -1.1741e+001 40678 97230,97282,97256
 2.0000e+000 97976 -4.9944e+001 -8.4706e+001 -3.0546e+000 40244 97702,97832,97754
 2.0000e+000 97953 -4.1690e+001 -8.2194e+001 -5.1871e+000 40244 97702,97858,97832
 2.0000e+000 97930 -5.3206e+001 -9.8873e+001 -2.3829e+001 40244 97702,97754,97728
 2.0000e+000 97907 -4.3435e+001 -9.5029e+001  1.0613e+001 40244 97780,97832,97806
 2.0000e+000 97884 -4.7370e+001 -8.2537e+001 -1.3373e+000 40244 97754,97832,97780
 2.0000e+000 98482 -4.0380e+001 -1.0476e+002  1.4613e+001 39690 98505,98185,98159
 2.0000e+000 98459 -3.5345e+001 -1.0305e+002  1.6982e+001 39690 98505,98159,98289
 2.0000e+000 98436 -7.3455e+001 -1.4990e+002  5.3469e+001 39690 98159,98315,98289
 2.0000e+000 98413 -4.4174e+001 -9.8226e+001  1.6442e+001 39690 98211,98289,98263
 2.0000e+000 98390 -3.0181e+001 -7.5659e+001  1.0188e+001 39690 98211,98263,98237
 2.0000e+000 98367 -1.7829e+001 -9.2146e+001  2.7075e+001 39690 98159,98341,98315
 2.0000e+000 98531 -5.0447e+001 -1.0435e+002  1.0754e+001 39690 98211,98185,98505
 2.0000e+000 98554 -4.0916e+001 -9.7041e+001  1.4814e+001 39690 98211,98505,98289
 2.0000e+000 99109 -2.7951e+001 -8.4208e+001 -8.2298e+000 39072 99132,98867,98789
 2.0000e+000 99086 -3.7011e+001 -8.4040e+001 -6.2355e+000 39072 99132,98789,98763
 2.0000e+000 99063 -4.4166e+001 -1.4235e+002  1.5931e+001 39072 98867,98945,98919
 2.0000e+000 99040 -2.6942e+001 -9.5201e+001 -6.5854e-001 39072 98789,98867,98841
 2.0000e+000 99017 -6.0854e+001 -1.1445e+002  5.2757e+000 39072 98867,98919,98893
 2.0000e+000 98994 -4.4151e+001 -8.5561e+001  1.8964e+001 39072 98789,98841,98815
 2.0000e+000 98971 -5.0587e+001 -8.7674e+001 -9.3946e+000 39072 98737,98945,98763
 2.0000e+000 99158 -2.5281e+001 -8.3949e+001 -9.5252e+000 39072 98945,98867,99132
 2.0000e+000 99181 -2.8963e+001 -7.8488e+001 -9.1047e+000 39072 98945,99132,98763
 2.0000e+000 99510 -2.7836e+001 -8.8002e+001  3.3550e+000 38668 99311,99389,99363
 2.0000e+000 99487 -3.3788e+001 -8.7945e+001  6.8733e+000 38668 99285,99389,99311
 2.0000e+000 99464 -5.6954e+001 -9.4511e+001  1.6121e+001 38668 99285,99415,99389
 2.0000e+000 99441 -3.5926e+001 -8.6574e+001  2.1596e+000 38668 99311,99363,99337
 2.0000e+000 99758 -8.1479e+000 -1.2858e+002  1.0068e+001 38164 99781,99611,99585
 2.0000e+000 99735  1.6321e+001 -1.2497e+002  1.4985e+001 38164 99781,99585,99533
 2.0000e+000 99712 -1.5677e+001 -9.9188e+001  1.2618e+001 38164 99611,99663,99637
 2.0000e+000 99689  2.7792e+001 -1.0866e+002  6.1578e+000 38164 99533,99585,99559
 2.0000e+000 99807 -2.1096e+001 -1.2041e+002  1.6473e+001 38164 99663,99611,99781
 2.0000e+000 99830 -5.2208e+000 -1.2314e+002  1.6920e+001 38164 99663,99781,99533
 2.0000e+000 100232 -4.2341e+001 -1.1377e+002  1.5564e+000 37702 99984,100114,100088
 2.0000e+000 100209 -3.1511e+001 -1.1127e+002  1.0986e+001 37702 99958,100114,99984
 2.0000e+000 100186 -6.1896e+001 -1.3883e+002 -7.1787e+000 37702 100010,100088,100036
 2.0000e+000 100163 -4.2412e+001 -1.1384e+002  1.2949e+000 37702 99984,100088,100010
 2.0000e+000 100140 -4.3604e+001 -1.2359e+002 -3.0099e+001 37702 100036,100088,100062
 2.0000e+000 100640 -8.6822e+001 -1.1508e+002  1.5634e+001 37262 100493,100545,100519
 2.0000e+000 100617 -7.0728e+001 -1.2733e+002  9.4299e+000 37262 100441,100545,100493
 2.0000e+000 100594 -3.6010e+001 -1.0367e+002 -6.3966e+000 37262 100415,100545,100441
 2.0000e+000 100571 -8.4973e+001 -1.4784e+002 -5.1634e+000 37262 100441,100493,100467
 2.0000e+000 101146 -5.6851e+001 -9.3151e+001 -8.8952e-002 36872 100823,100979,100849
 2.0000e+000 101123 -5.6151e+001 -8.7747e+001 -9.5116e+000 36872 100823,101005,100979
 2.0000e+000 101100 -5.3785e+001 -1.3489e+002  1.8945e+001 36872 101169,100901,100849
 2.0000e+000 101077 -4.2049e+001 -1.0970e+002  1.2530e+001 36872 101169,100849,100979
 2.0000e+000 101054 -2.5218e+001 -1.1712e+002  1.2977e+000 36872 100927,100979,100953
 2.0000e+000 101031 -2.8383e+001 -1.5273e+002  2.5989e+001 36872 100849,100901,100875
 2.0000e+000 101195 -3.9225e+001 -1.4255e+002  3.5118e+000 36872 100927,100901,101169
 2.0000e+000 101218 -3.2116e+001 -1.2893e+002 -1.5666e+000 36872 100927,101169,100979
 2.0000e+000 101773 -6.4667e+001 -1.1018e+002  2.1034e+001 36418 101479,101609,101583
 2.0000e+000 101750 -5.6979e+001 -1.0960e+002  2.8434e+001 36418 101453,101609,101479
 2.0000e+000 101727 -3.7503e+001 -1.1600e+002  1.2987e+000 36418 101796,101531,101479
 2.0000e+000 101704 -6.0565e+001 -1.2981e+002  9.3273e+000 36418 101796,101479,101583
 2.0000e+000 101681 -1.5313e+001 -9.9551e+001 -9.4214e+000 36418 101479,101531,101505
 2.0000e+000 101658 -2.5758e+000 -1.1029e+002 -4.2522e-001 36418 101401,101609,101453
 2.0000e+000 101635 -2.0938e+001 -1.2364e+002 -6.2872e+000 36418 101401,101453,101427
 2.0000e+000 101822 -4.3752e+001 -1.0594e+002 -2.1199e+001 36418 101557,101531,101796
 2.0000e+000 101845 -7.2740e+001 -1.1457e+002 -1.4797e+001 36418 101557,101796,101583
 2.0000e+000 102174  3.2965e+001 -4.9062e+001 -2.2821e+001 35914 101949,102053,101975
 2.0000e+000 102151 -2.8548e+001 -7.1545e+001 -7.6679e+000 35914 101949,102079,102053
 2.0000e+000 102128  4.9891e+000 -6.2402e+001 -1.3397e+001 35914 101975,102053,102027
 2.0000e+000 102105  4.0784e+000 -6.0271e+001 -1.2539e+001 35914 101975,102027,102001
 2.0000e+000 102631 -2.4597e+001 -1.1154e+002 -3.0793e+000 35574 102383,102513,102487
 2.0000e+000 102608 -1.3558e+001 -1.0779e+002 -6.7803e-001 35574 102357,102513,102383
 2.0000e+000 102585 -3.3645e+001 -1.1971e+002  8.1033e-001 35574 102409,102487,102435
 2.0000e+000 102562 -3.3209e+001 -1.1750e+002  1.9410e+000 35574 102383,102487,102409
 2.0000e+000 102539 -5.5066e+001 -1.4099e+002 -1.6984e+001 35574 102435,102487,102461
 2.0000e+000 103009 -5.3784e+001 -9.2489e+001 -1.1568e+001 35170 102761,102865,102787
 2.0000e+000 102986 -3.3369e+001 -8.2058e+001 -1.1641e+000 35170 102761,102891,102865
 2.0000e+000 102963 -4.9007e+001 -9.5785e+001 -6.8102e+000 35170 102787,102865,102813
 2.0000e+000 102940 -2.3468e+001 -9.0789e+001 -2.8488e+000 35170 102735,102891,102761
 2.0000e+000 102917 -5.0705e+001 -1.0091e+002 -1.0165e+001 35170 102813,102865,102839
 2.0000e+000 103257  3.0956e+001 -8.4117e+001 -1.6386e+001 34659 103280,103058,103032
 2.0000e+000 103234  1.9875e+001 -8.7994e+001 -2.1841e+000 34659 103280,103032,103162
 2.0000e+000 103211 -1.2909e+001 -7.1337e+001 -8.4242e+000 34659 103084,103162,103110
 2.0000e+000 103188 -2.6860e+001 -9.9115e+001 -3.2455e+000 34659 103110,103162,103136
 2.0000e+000 103306  8.6588e+000 -7.9456e+001 -1.5128e+001 34659 103084,103058,103280
 2.0000e+000 103329  3.6421e+000 -8.2038e+001  9.9484e-001 34659 103084,103280,103162
 2.0000e+000 103837  4.4320e+001 -1.0216e+002  6.7532e+000 34247 103860,103566,103540
 2.0000e+000 103814  1.2380e+001 -1.1372e+002  4.0117e+000 34247 103932,103860,103540
 2.0000e+000 103791  8.2722e+000 -1.3061e+002 -1.0378e+001 34247 103932,103540,103670
 2.0000e+000 103768  3.3901e+001 -1.0948e+002 -1.3513e+001 34247 103566,103618,103592
 2.0000e+000 103745 -1.8283e+001 -1.1432e+002 -1.3086e+001 34247 103540,103696,103670
 2.0000e+000 103722 -2.8820e+001 -1.1460e+002  2.2105e+001 34247 103514,103696,103540
 2.0000e+000 103886  1.0875e+001 -1.1240e+002 -5.6427e+000 34247 103618,103566,103860
 2.0000e+000 103909  2.8242e+001 -1.1475e+002 -2.6371e+000 34247 103618,103860,103644
 2.0000e+000 103958  5.8907e+000 -1.5165e+002 -1.4703e+001 34247 103644,103860,103932
 2.0000e+000 103981 -8.5057e-001 -1.6884e+002 -3.0008e+001 34247 103644,103932,103670
 2.0000e+000 104300 -5.7127e+001 -1.2141e+002 -5.1337e+000 33843 104052,104182,104156
 2.0000e+000 104277 -7.3317e+001 -1.1075e+002 -6.1697e-001 33843 104026,104182,104052
 2.0000e+000 104254 -5.5037e+001 -1.3519e+002  4.6205e+000 33843 104078,104156,104130
 2.0000e+000 104231 -7.1822e+001 -1.3257e+002 -2.2354e-001 33843 104052,104156,104078
 2.0000e+000 104208 -8.0848e+001 -1.3820e+002  2.9125e+000 33843 104078,104130,104104
 2.0000e+000 104499 -2.5876e+001 -1.0717e+002 -2.0631e+001 33282 104594,104522,104375
 2.0000e+000 104476 -1.8646e+001 -1.1952e+002  5.3516e+000 33282 104522,104323,104427
 2.0000e+000 104453  6.2359e+000 -1.1639e+002 -2.1264e+001 33282 104594,104375,104349
 2.0000e+000 104548 -4.7212e+001 -1.0028e+002 -1.7211e+000 33282 104401,104375,104522
 2.0000e+000 104571 -4.6424e+000 -8.5267e+001  5.2645e+000 33282 104401,104522,104427
 2.0000e+000 104620  1.8525e+001 -9.2902e+001 -7.7347e+000 33282 104323,104522,104594
 2.0000e+000 104643  4.0240e+001 -1.1168e+002 -1.2227e+001 33282 104323,104594,104349
 2.0000e+000 104942 -5.3828e+001 -1.4006e+002  2.1387e+001 32728 104694,104772,104720
 2.0000e+000 104919 -4.5816e+001 -1.2855e+002  8.8536e+000 32728 104694,104824,104772
 2.0000e+000 104896 -7.3346e+001 -1.2701e+002  2.2820e+001 32728 104720,104772,104746
 2.0000e+000 104873 -3.3424e+001 -1.5035e+002  1.0128e+001 32728 104772,104824,104798
 2.0000e+000 104850 -4.7840e+001 -1.2847e+002  9.1708e+000 32728 104668,104824,104694
 2.0000e+000 105373 -5.1452e+001 -1.4043e+002 -9.6811e+000 32274 105396,105102,105076
 2.0000e+000 105350 -4.0394e+001 -1.5639e+002 -7.0869e+000 32274 105396,105076,105206
 2.0000e+000 105327 -4.1574e+001 -1.5983e+002  2.6041e+001 32274 105154,105206,105180
 2.0000e+000 105304 -3.1579e+001 -1.5821e+002 -1.8905e+001 32274 105076,105232,105206
 2.0000e+000 105281 -5.5225e+001 -1.2980e+002 -2.3260e+001 32274 105102,105154,105128
 2.0000e+000 105258 -1.0232e+002 -1.5904e+002 -3.8153e+001 32274 105050,105232,105076
 2.0000e+000 105422 -4.5742e+001 -1.2519e+002 -5.8358e+000 32274 105154,105102,105396
 2.0000e+000 105445 -3.7344e+001 -1.4397e+002 -4.7442e+000 32274 105154,105396,105206
 2.0000e+000 105644 -4.2945e+001 -1.3487e+002  1.8905e+000 31620 105468,105546,105520
 2.0000e+000 105621 -3.5277e+001 -1.3846e+002 -1.8181e+000 31620 105468,105572,105546
 2.0000e+000 105598 -4.6600e+001 -1.5734e+002  1.3296e+001 31620 105468,105520,105494
 2.0000e+000 105794 -2.2027e+001 -1.3411e+002 -3.0060e+000 31158 105889,105817,105693
 2.0000e+000 105771 -2.9605e+001 -1.2605e+002 -6.3142e+000 31158 105817,105667,105745
 2.0000e+000 105843 -2.5879e+001 -1.5352e+002 -1.9912e+000 31158 105719,105693,105817
 2.0000e+000 105866 -2.1197e+001 -1.3905e+002 -5.4088e+000 31158 105719,105817,105745
 2.0000e+000 105915 -3.7683e+001 -1.4082e+002 -3.1813e+000 31158 105667,105817,105889
 2.0000e+000 106270 -5.2968e+001 -1.2368e+002 -2.5667e+000 30818 106293,106071,106045
 2.0000e+000 106247 -6.1722e+001 -1.4300e+002 -1.7303e+001 30818 106293,106045,106175
 2.0000e+000 106224 -2.4833e+001 -1.1903e+002  3.7483e+000 30818 106123,106175,106149
 2.0000e+000 106201 -5.8507e+001 -1.2220e+002  5.5827e+000 30818 106071,106123,106097
 2.0000e+000 106319 -4.7873e+001 -1.1590e+002  2.9810e+000 30818 106123,106071,106293
 2.0000e+000 106342 -4.5446e+001 -1.2576e+002 -9.3954e+000 30818 106123,106293,106175
 2.0000e+000 106492 -5.5244e+001 -1.3750e+002  2.4321e+001 30414 106645,106391,106365
 2.0000e+000 106469 -4.2798e+001 -1.3769e+002  3.9205e+001 30414 106515,106365,106443
 2.0000e+000 106541 -4.5774e+001 -1.3842e+002  2.5142e+001 30414 106645,106365,106515
 2.0000e+000 106671 -4.0899e+001 -1.5482e+002  3.6573e+001 30414 106417,106391,106645
 2.0000e+000 106694 -1.5584e+001 -1.4515e+002  3.1822e+001 30414 106417,106645,106515
 2.0000e+000 106942 -1.2822e+001 -1.7581e+002 -9.4855e-001 29910 106965,106795,106769
 2.0000e+000 106919  1.3811e+001 -1.6122e+002  6.5910e+000 29910 106965,106769,106717
 2.0000e+000 106896 -2.7725e+001 -1.2962e+002 -1.6001e+001 29910 106795,106847,106821
 2.0000e+000 106873  2.0841e+001 -1.3582e+002 -3.4414e+000 29910 106717,106769,106743
 2.0000e+000 106991 -3.9491e+001 -1.5139e+002  7.3398e+000 29910 106847,106795,106965
 2.0000e+000 107014 -1.1764e+001 -1.3400e+002  1.7333e+001 29910 106847,106965,106717
 2.0000e+000 107213 -3.0340e+001 -1.3538e+002  1.2872e+001 29413 107236,107063,107037
 2.0000e+000 107190 -3.1138e+001 -1.6636e+002  2.4510e+001 29413 107236,107037,107141
 2.0000e+000 107167 -3.8281e+001 -9.0283e+001  2.3220e+001 29413 107063,107115,107089
 2.0000e+000 107262 -3.0225e+001 -1.1388e+002  6.8551e+000 29413 107115,107063,107236
 2.0000e+000 107285 -2.6566e+001 -1.3731e+002  1.9279e+001 29413 107115,107236,107141
 2.0000e+000 107486 -1.7016e+001 -1.1685e+002  1.3482e+001 29009 107336,107388,107362
 2.0000e+000 107463 -7.4371e+000 -1.1216e+002  6.4600e+000 29009 107310,107388,107336
 2.0000e+000 107440 -1.8419e+001 -1.0946e+002  9.5997e+000 29009 107310,107414,107388
 2.0000e+000 107736 -4.1745e+001 -1.2316e+002 -4.9209e-002 28491 107537,107615,107563
 2.0000e+000 107713 -3.0757e+001 -1.1791e+002  2.6707e+000 28491 107537,107641,107615
 2.0000e+000 107690 -6.4633e+000 -1.2046e+002  1.0883e+001 28491 107563,107615,107589
 2.0000e+000 107667 -4.4317e+001 -1.2605e+002 -1.9162e+000 28491 107511,107641,107537
 2.0000e+000 108118 -8.5945e+000 -1.2300e+002 -5.9330e+000 27980 108141,107922,107844
 2.0000e+000 108095  8.1595e+000 -1.3524e+002 -8.9649e+000 27980 108141,107844,108000
 2.0000e+000 108072 -2.3172e+000 -1.0945e+002 -1.2224e+001 27980 107844,107922,107870
 2.0000e+000 108049 -7.0824e+000 -1.0416e+002 -8.7640e+000 27980 107870,107922,107896
 2.0000e+000 108026 -2.0636e+001 -1.0805e+002  2.2224e+001 27980 107922,107974,107948
 2.0000e+000 108167  6.0516e+000 -1.3405e+002  1.2154e+000 27980 107974,107922,108141
 2.0000e+000 108190  4.8893e+001 -1.2532e+002  1.8075e+000 27980 107974,108141,108000
 2.0000e+000 108745 -9.6321e+000 -8.3840e+001 -1.1757e+000 27376 108840,108768,108477
 2.0000e+000 108722 -1.9403e+001 -9.1849e+001 -1.6835e+001 27376 108768,108373,108581
 2.0000e+000 108699 -1.9026e+001 -7.6377e+001  1.4549e+001 27376 108840,108477,108451
 2.0000e+000 108676 -5.6337e+001 -8.8766e+001 -5.1641e+000 27376 108373,108451,108399
 2.0000e+000 108653 -2.4100e+001 -1.1284e+002  1.2671e+001 27376 108503,108581,108529
 2.0000e+000 108630 -2.6763e+001 -1.0999e+002  1.3074e+001 27376 108529,108581,108555
 2.0000e+000 108607 -6.6221e+001 -1.0071e+002  5.5093e+000 27376 108399,108451,108425
 2.0000e+000 108794 -1.7414e+001 -1.0861e+002  1.0677e+000 27376 108503,108477,108768
 2.0000e+000 108817 -3.5855e+000 -9.9601e+001 -2.8316e+000 27376 108503,108768,108581
 2.0000e+000 108866 -4.2313e+001 -1.0006e+002 -6.8340e+000 27376 108373,108768,108840
 2.0000e+000 108889 -4.1091e+001 -8.8039e+001  9.2114e+000 27376 108373,108840,108451
 2.0000e+000 109186 -4.8277e+001 -1.3617e+002  1.5918e+001 26722 109209,108938,108912
 2.0000e+000 109163 -4.4800e+001 -1.2708e+002  1.2814e+001 26722 109281,109209,108912
 2.0000e+000 109140 -4.3407e+001 -1.2379e+002  1.2266e+001 26722 109281,108912,109042
 2.0000e+000 109117 -3.4703e+001 -1.4285e+002  9.8763e+000 26722 108938,108990,108964
 2.0000e+000 109094 -6.3724e+001 -1.1134e+002  7.5024e+000 26722 108912,109068,109042
 2.0000e+000 109235 -3.5092e+001 -1.3040e+002  1.4628e+001 26722 108990,108938,109209
 2.0000e+000 109258 -4.2236e+001 -1.4056e+002  1.1513e+001 26722 108990,109209,109016
 2.0000e+000 109307 -4.0292e+001 -1.3208e+002  6.9837e+000 26722 109016,109209,109281
 2.0000e+000 109330 -3.7577e+001 -1.2659e+002  5.7914e+000 26722 109016,109281,109042
 2.0000e+000 109732 -5.1700e+001 -1.1290e+002 -1.5999e+000 26310 109458,109588,109484
 2.0000e+000 109709 -4.6731e+001 -1.2307e+002 -1.2525e+001 26310 109458,109614,109588
 2.0000e+000 109686 -7.0033e+001 -1.2275e+002  1.6771e+001 26310 109510,109562,109536
 2.0000e+000 109663 -7.2268e+001 -1.1758e+002  7.1820e+000 26310 109484,109562,109510
 2.0000e+000 109640 -5.1986e+001 -1.1367e+002 -4.4504e-001 26310 109484,109588,109562
 2.0000e+000 110159 -4.3214e+001 -1.1935e+002  4.2267e+000 25642 110182,109940,109914
 2.0000e+000 110136 -4.4148e+001 -1.2676e+002  8.2723e+000 25642 110182,109914,109888
 2.0000e+000 110113 -3.8496e+001 -1.4126e+002 -1.7159e+001 25642 109966,110018,109992
 2.0000e+000 110090 -4.2494e+001 -1.3578e+002  1.1154e+001 25642 110254,109966,109940
 2.0000e+000 110067 -3.9645e+001 -1.2646e+002  7.8826e+000 25642 109862,110018,109888
 2.0000e+000 110044 -5.7875e+001 -1.1805e+002  1.2933e+001 25642 109836,110018,109862
 2.0000e+000 110208 -4.4876e+001 -1.2231e+002  8.6051e+000 25642 110254,109940,110182
 2.0000e+000 110231 -4.2083e+001 -1.2914e+002  6.5425e+000 25642 110018,110182,109888
 2.0000e+000 110280 -4.0527e+001 -1.5157e+002  8.0694e+000 25642 110018,109966,110254
 2.0000e+000 110303 -4.5469e+001 -1.4132e+002  5.6854e+000 25642 110018,110254,110182
 2.0000e+000 110632 -5.3498e+001 -1.1358e+002 -7.7566e+000 25188 110407,110485,110433
 2.0000e+000 110609 -6.3591e+001 -1.2309e+002 -3.7696e+000 25188 110407,110537,110485
 2.0000e+000 110586 -6.3238e+001 -1.1857e+002 -1.9240e+001 25188 110433,110485,110459
 2.0000e+000 110563 -5.9231e+001 -1.2674e+002  9.3308e+000 25188 110485,110537,110511
 2.0000e+000 110831 -1.3338e+001 -1.1337e+002  2.8854e+000 24726 110854,110707,110655
 2.0000e+000 110808 -1.2640e+001 -1.2100e+002  9.5258e+000 24726 110854,110655,110759
 2.0000e+000 110785 -1.4501e+001 -1.1594e+002  3.2376e+000 24726 110655,110707,110681
 2.0000e+000 110880 -1.2222e+001 -1.0592e+002  1.5531e+000 24726 110733,110707,110854
 2.0000e+000 110903 -9.8058e+000 -1.1039e+002  8.4830e+000 24726 110733,110854,110759
 2.0000e+000 111234  1.1196e+001 -7.9992e+001 -5.9467e+000 24222 111257,111087,111035
 2.0000e+000 111211  4.4735e+001 -6.5305e+001  5.9504e+000 24222 111257,111035,111009
 2.0000e+000 111188  3.8033e+001 -4.6542e+001 -2.0365e+001 24222 111035,111087,111061
 2.0000e+000 111165 -9.7052e+000 -6.5123e+001  5.4869e+000 24222 111087,111139,111113
 2.0000e+000 111283 -6.6433e+000 -5.8541e+001  6.3428e+000 24222 111139,111087,111257
 2.0000e+000 111306  7.1201e+000 -4.5837e+001  1.3897e+001 24222 111139,111257,111009
 2.0000e+000 111625 -1.8752e+001 -1.2147e+002 -9.1535e+000 23732 111648,111481,111455
 2.0000e+000 111602 -2.0048e+001 -1.2239e+002 -8.4775e+000 23732 111648,111455,111377
 2.0000e+000 111579  1.3455e+001 -6.4311e+001  1.2900e+001 23732 111377,111429,111403
 2.0000e+000 111556 -9.7898e+000 -1.2456e+002 -3.6764e+000 23732 111377,111455,111429
 2.0000e+000 111533 -1.7995e+001 -1.0747e+002 -4.4324e+000 23732 111351,111507,111377
 2.0000e+000 111674 -2.0555e+001 -1.2054e+002 -8.2640e+000 23732 111507,111481,111648
 2.0000e+000 111697 -2.1294e+001 -1.2195e+002 -7.4052e+000 23732 111507,111648,111377
 2.0000e+000 112156 -3.1864e+001 -1.3137e+002  8.1875e+000 23278 112179,111908,111882
 2.0000e+000 112133 -3.0978e+001 -1.2234e+002  1.8415e+000 23278 112179,111882,112012
 2.0000e+000 112110 -1.5361e+001 -1.3857e+002  3.9954e-001 23278 111908,111960,111934
 2.0000e+000 112087  1.3292e+001 -1.1031e+002 -1.4115e+001 23278 111882,112038,112012
 2.0000e+000 112064 -1.2600e+001 -1.0872e+002 -2.7473e+000 23278 111960,112012,111986
 2.0000e+000 112205 -2.8956e+001 -1.2655e+002  8.9539e-001 23278 111960,111908,112179
 2.0000e+000 112228 -2.4182e+001 -1.1580e+002 -6.1159e+000 23278 111960,112179,112012
 2.0000e+000 112685 -8.1878e+001 -1.9212e+002 -1.8573e+001 22938 112489,112567,112541
 2.0000e+000 112662 -6.9684e+001 -1.6313e+002 -1.8172e+001 22938 112437,112567,112489
 2.0000e+000 112639 -4.7215e+001 -1.4465e+002 -2.6474e+000 22938 112489,112541,112515
 2.0000e+000 112616 -8.1563e+001 -1.5718e+002 -1.6860e+001 22938 112411,112567,112437
 2.0000e+000 112593 -6.5422e+001 -2.0747e+002 -5.3491e+000 22938 112437,112489,112463
 2.0000e+000 113191  2.8692e+001 -1.1963e+002 -1.8072e+001 22534 113214,112998,112946
 2.0000e+000 113168 -3.7586e+000 -1.1200e+002 -4.3357e+000 22534 113286,113214,112946
 2.0000e+000 113145 -3.6822e-001 -1.1038e+002 -4.8794e+000 22534 113286,112946,112920
 2.0000e+000 113122 -3.8531e+001 -1.0891e+002 -1.9884e+001 22534 113358,113024,112998
 2.0000e+000 113099 -1.2870e+001 -1.1218e+002 -1.6010e+000 22534 112868,113050,112894
 2.0000e+000 113076 -3.8626e+001 -2.4746e+002 -5.0286e+001 22534 112946,112998,112972
 2.0000e+000 113240 -2.2936e+001 -1.3354e+002 -2.2085e+001 22534 113358,112998,113214
 2.0000e+000 113263 -7.2068e+000 -1.2183e+002 -1.5137e+000 22534 113050,113214,112894
 2.0000e+000 113312  2.8960e+000 -1.1715e+002 -4.0856e+000 22534 112894,113214,113286
 2.0000e+000 113335  8.4707e+000 -1.1352e+002 -5.6690e+000 22534 112894,113286,112920
 2.0000e+000 113384 -1.9690e+001 -9.2328e+001 -1.0610e+001 22534 113050,113024,113358
 2.0000e+000 113407  4.5354e+000 -1.1019e+002 -1.0861e+001 22534 113050,113358,113214
 2.0000e+000 113785 -6.4954e+001 -1.6628e+002  7.4367e+000 21978 113808,113615,113511
 2.0000e+000 113762 -5.1996e+001 -1.6719e+002  1.3839e+001 21978 113808,113511,113667
 2.0000e+000 113739 -3.5128e+001 -1.3772e+002 -4.7463e+000 21978 113511,113615,113537
 2.0000e+000 113716  1.2772e+001 -1.2247e+002 -8.5967e+000 21978 113537,113615,113589
 2.0000e+000 113693 -1.2430e+001 -1.7077e+002  4.2758e+000 21978 113537,113589,113563
 2.0000e+000 113834 -6.7800e+001 -1.6746e+002  2.4442e+001 21978 113641,113615,113808
 2.0000e+000 113857 -3.3749e+001 -1.5408e+002  3.2136e+001 21978 113641,113808,113667
 2.0000e+000 114284 -4.9421e+001 -1.3039e+002  3.1941e+000 21517 114013,114117,114039
 2.0000e+000 114261 -4.9371e+001 -1.2810e+002  8.7657e+000 21517 113961,114117,114013
 2.0000e+000 114238 -4.9985e+001 -1.4628e+002  6.2883e+000 21517 113961,114013,113987
 2.0000e+000 114215 -7.5379e+001 -1.4384e+002 -9.4935e+000 21517 114039,114117,114091
 2.0000e+000 114192 -5.5188e+001 -1.1403e+002  1.3090e+001 21517 113961,114143,114117
 2.0000e+000 114169  4.0107e+000 -1.1351e+002 -7.4193e+000 21517 114039,114091,114065
 2.0000e+000 114581 -2.5761e+001 -1.6284e+002  1.4583e+000 21027 114359,114463,114437
 2.0000e+000 114558 -1.4232e+001 -1.4793e+002  1.9253e+001 21027 114333,114463,114359
 2.0000e+000 114535 -1.1194e+001 -1.4884e+002 -4.2644e+000 21027 114359,114437,114385
 2.0000e+000 114512 -9.0327e+000 -1.4713e+002  1.4756e+001 21027 114307,114463,114333
 2.0000e+000 114489  2.4975e+001 -1.3751e+002 -7.6346e+000 21027 114385,114437,114411
 2.0000e+000 114912 -5.1724e+001 -1.3590e+002  2.2612e+000 20623 114713,114791,114765
 2.0000e+000 114889 -1.0656e+001 -1.1868e+002 -1.4197e+001 20623 114687,114791,114713
 2.0000e+000 114866 -4.1763e+001 -1.5950e+002 -2.7300e-001 20623 114687,114817,114791
 2.0000e+000 114843 -7.1196e+001 -1.5893e+002  1.0661e+001 20623 114713,114765,114739
 2.0000e+000 115290 -2.0470e+001 -1.1966e+002  4.3918e+000 20375 115313,115146,115094
 2.0000e+000 115267 -2.5292e+001 -1.1924e+002  6.8830e+000 20375 115313,115094,115042
 2.0000e+000 115244 -2.4594e+001 -1.1137e+002  2.0517e+000 20375 115385,115016,115172
 2.0000e+000 115221  2.1548e+001 -1.0257e+002  6.3733e+000 20375 115042,115094,115068
 2.0000e+000 115198 -2.7525e+001 -1.3832e+002  5.8167e+000 20375 115094,115146,115120
 2.0000e+000 115339 -3.6574e+001 -1.3876e+002 -5.4909e+000 20375 115172,115146,115313
 2.0000e+000 115362 -2.3048e+001 -1.1527e+002  1.1612e+000 20375 115385,115172,115313
 2.0000e+000 115411 -2.2252e+001 -1.1437e+002  5.9368e+000 20375 115042,115016,115385
 2.0000e+000 115434 -2.2981e+001 -1.2065e+002  5.6284e+000 20375 115042,115385,115313
 2.0000e+000 115891 -5.7044e+001 -1.2050e+002  1.5975e+001 19971 115617,115747,115643
 2.0000e+000 115868 -4.7788e+001 -9.7378e+001  1.4312e+001 19971 115617,115773,115747
 2.0000e+000 115845 -3.6042e+001 -1.7533e+002  8.5119e+000 19971 115643,115721,115695
 2.0000e+000 115822  2.7908e+000 -8.9420e+001 -1.1962e-002 19971 115643,115747,115721
 2.0000e+000 115799  1.9833e+001 -1.9035e+002 -7.4660e-001 19971 115643,115695,115669
 2.0000e+000 115992 -9.6065e+001 -2.4865e+002 -4.3832e+001 19659 115914,115966,115940
 2.0000e+000 116142 -1.3544e+001 -4.7765e+001  1.3694e+000 18997 116041,116093,116067
 2.0000e+000 116119 -2.7955e+001 -8.5447e+001  6.2698e+000 18997 116015,116093,116041
 2.0000e+000 116343 -2.2581e+001 -1.4022e+002 -3.8730e+000 18707 116193,116245,116219
 2.0000e+000 116320 -2.5782e+001 -1.4468e+002 -8.1440e+000 18707 116193,116271,116245
 2.0000e+000 116297 -1.0975e+001 -1.1244e+002 -4.4704e+000 18707 116167,116271,116193
 2.0000e+000 116747 -1.9283e+001 -1.2147e+002 -1.3709e+000 18301 116525,116629,116551
 2.0000e+000 116724 -1.8284e+001 -1.0587e+002  1.3272e+000 18301 116473,116629,116525
 2.0000e+000 116701 -1.6078e+001 -1.0851e+002 -7.8474e+000 18301 116473,116525,116499
 2.0000e+000 116678 -6.3906e+000 -1.2658e+002 -1.8570e+000 18301 116551,116603,116577
 2.0000e+000 116655 -2.4182e+001 -1.3309e+002 -5.4248e+000 18301 116551,116629,116603
 2.0000e+000 117147 -6.3536e+001 -1.5273e+002 -1.4198e-001 17747 116899,117029,116925
 2.0000e+000 117124 -3.4580e+001 -1.1322e+002  1.5053e+001 17747 116873,117029,116899
 2.0000e+000 117101 -6.2394e+001 -1.5169e+002  4.0526e-001 17747 116925,117029,116951
 2.0000e+000 117078 -5.4674e+001 -1.3109e+002  1.4273e+000 17747 116951,117029,117003
 2.0000e+000 117055 -7.5741e+001 -1.6789e+002 -9.1563e+000 17747 116951,117003,116977
 2.0000e+000 117368  3.5541e+001 -1.3917e+002  5.6166e-001 17293 117244,117296,117270
 2.0000e+000 117345  1.3252e+001 -1.3729e+002 -4.2638e+000 17293 117192,117296,117244
 2.0000e+000 117322 -1.0381e+001 -1.3094e+002 -1.8565e+000 17293 117192,117244,117218
 2.0000e+000 117699 -1.2435e+001 -1.0530e+002 -1.1810e+001 16896 117526,117604,117552
 2.0000e+000 117676 -6.6802e+001 -1.6032e+002  1.0140e+001 16896 117500,117604,117526
 2.0000e+000 117653 -7.3250e+001 -1.2720e+002 -6.0641e+000 16896 117552,117604,117578
 2.0000e+000 117630 -5.3522e+001 -2.0505e+002  2.1454e+001 16896 117474,117604,117500
 2.0000e+000 117849 -1.4577e+002 -2.8239e+002 -1.1064e+001 16534 117722,117774,117748
 2.0000e+000 117826 -1.1483e+002 -3.4469e+002 -4.7439e+001 16534 117722,117800,117774
 2.0000e+000 118070 -1.6473e+001 -1.3201e+002  1.3707e+001 16194 117946,117998,117972
 2.0000e+000 118047 -3.0399e+001 -1.5610e+002  7.8645e+000 16194 117894,117998,117946
 2.0000e+000 118024 -3.8709e+001 -1.4348e+002 -2.3621e+000 16194 117894,117946,117920
 2.0000e+000 118173 -1.3755e+001 -1.4712e+002  0.0000e+000 15968 118095,118147,118121
 2.0000e+000 118276 -4.1307e+001 -1.4208e+002  2.1004e+000 15433 118299,118198,118250
 2.0000e+000 118325 -4.3428e+001 -1.4703e+002  2.1493e+000 15433 118224,118198,118299
 2.0000e+000 118450 -7.7008e+001 -1.6939e+002  1.6212e+001 421 118372,118424,118398
 2.1000e+000 69891 -2.4661e+001 -1.9265e+002  8.0110e+000 68988 69447,69681,69629
 2.1000e+000 69868  1.7469e+001 -1.7509e+002  8.0759e+000 68988 69421,69681,69447
 2.1000e+000 69845  9.3308e+000 -8.8380e+001  2.5531e+000 68988 69447,69629,69577
 2.1000e+000 69822 -5.2608e+001 -1.9895e+002 -2.3021e+001 68988 69447,69577,69473
 2.1000e+000 69799 -2.6611e+000 -2.3114e+002  3.6436e+001 68988 69629,69681,69655
 2.1000e+000 69776 -5.7716e+001 -1.1690e+002  2.5229e+000 68988 69577,69629,69603
 2.1000e+000 69753 -4.0029e+001 -1.7613e+002 -2.8492e+001 68988 69473,69577,69551
 2.1000e+000 69730 -6.3969e+001 -3.6356e+002 -3.6828e+001 68988 69473,69551,69525
 2.1000e+000 69707 -1.0705e+002 -2.3705e+002  2.3748e-001 68988 69473,69525,69499
 2.1000e+000 69992 -9.8393e+001 -2.0192e+002 -3.9022e+001 68676 69914,69966,69940
 2.1000e+000 70392 -6.3701e+001 -1.5490e+002  1.2700e+001 68478 70118,70248,70144
 2.1000e+000 70369  3.2944e+001 -1.5648e+002  4.0206e+001 68478 70118,70274,70248
 2.1000e+000 70346 -4.3304e+001 -1.1551e+002 -1.5777e+000 68478 70144,70222,70196
 2.1000e+000 70323 -3.3608e+001 -9.2277e+001 -2.7017e+000 68478 70144,70248,70222
 2.1000e+000 70300 -4.7847e+001 -1.2554e+002 -3.7270e+000 68478 70144,70196,70170
 2.1000e+000 70841  6.4272e+001 -9.4951e+001 -3.7003e+001 68280 70570,70622,70596
 2.1000e+000 70818 -3.4152e+001 -1.1051e+002 -9.6467e+000 68280 70544,70622,70570
 2.1000e+000 70795 -1.7065e+001 -7.1033e+001 -6.8727e+000 68280 70544,70674,70622
 2.1000e+000 70772 -2.0713e+001 -5.6647e+001  2.8891e+000 68280 70622,70674,70648
 2.1000e+000 70749 -3.8368e+001 -1.2260e+002  9.5288e+000 68280 70518,70674,70544
 2.1000e+000 70726  7.8965e+001 -1.2597e+002  4.4439e+001 68280 70518,70700,70674
 2.1000e+000 70991 -5.6183e+000 -6.0048e+002  1.7533e+001 67968 70864,70916,70890
 2.1000e+000 70968 -1.5417e+002 -6.0085e+002  6.4091e+001 67968 70864,70942,70916
 2.1000e+000 71141 -2.8897e+002 -5.7511e+002 -2.4488e+001 67770 71040,71092,71066
 2.1000e+000 71118 -2.5756e+002 -6.8064e+002  2.7328e+001 67770 71014,71092,71040
 2.1000e+000 71651 -3.6310e+000 -1.0106e+002 -1.4270e+001 67366 71746,71674,71458
 2.1000e+000 71628  1.5522e+000 -7.4088e+001 -1.9637e+001 67366 71674,71354,71510
 2.1000e+000 71605 -1.6433e+001 -1.1789e+002 -8.4492e+000 67366 71746,71458,71432
 2.1000e+000 71582 -4.1320e+001 -1.0828e+002 -3.1444e+000 67366 71354,71432,71380
 2.1000e+000 71559 -4.4336e+001 -8.3239e+001 -1.5255e+001 67366 71380,71432,71406
 2.1000e+000 71536 -7.8187e+000 -9.6372e+000  2.4426e+000 67366 71328,71510,71354
 2.1000e+000 71700  8.2350e+000 -8.0186e+001 -1.9580e+001 67366 71484,71458,71674
 2.1000e+000 71723 -3.8106e+000 -8.2353e+001 -9.4019e+000 67366 71484,71674,71510
 2.1000e+000 71772 -2.0025e+001 -8.1148e+001 -1.9276e+001 67366 71354,71674,71746
 2.1000e+000 71795 -2.2929e+001 -8.9186e+001 -1.7568e+001 67366 71354,71746,71432
 2.1000e+000 71896 -1.0578e+002 -2.3391e+002  0.0000e+000 67146 71818,71870,71844
 2.1000e+000 71997 -1.0820e+002 -1.8891e+002  3.8310e+001 66948 71919,71971,71945
 2.1000e+000 72149  3.3067e+000 -1.2253e+002 -2.0248e+001 66700 72172,72074,72048
 2.1000e+000 72126 -3.6561e+001 -1.4690e+002 -8.4909e+000 66700 72172,72048,72022
 2.1000e+000 72198 -6.6401e+001 -1.5149e+002  6.3629e+000 66700 72244,72172,72100
 2.1000e+000 72221 -5.6159e+001 -1.3875e+002 -9.2366e+000 66700 72100,72172,72022
 2.1000e+000 72270 -3.1058e+001 -7.3277e+001 -1.4346e+001 66700 72074,72172,72244
 2.1000e+000 72623 -3.9280e+001 -1.3276e+002  5.1439e+000 66502 72424,72502,72450
 2.1000e+000 72600 -2.9047e+001 -1.0607e+002  4.4926e+000 66502 72398,72502,72424
 2.1000e+000 72577 -2.1401e+001 -1.2381e+002 -1.0986e+000 66502 72398,72528,72502
 2.1000e+000 72554 -3.8440e+001 -1.1566e+002  1.5626e-002 66502 72450,72502,72476
 2.1000e+000 72920 -7.7996e+001 -1.6832e+002  5.6342e+000 65941 72672,72776,72750
 2.1000e+000 72897 -7.6821e+001 -1.4113e+002  1.9315e+001 65941 72646,72776,72672
 2.1000e+000 72874 -7.1239e+001 -1.6875e+002  9.7509e+000 65941 72672,72750,72724
 2.1000e+000 72851 -7.6568e+001 -1.2998e+002  2.0493e+001 65941 72672,72724,72698
 2.1000e+000 72828 -5.5943e+001 -1.3345e+002  1.5364e+001 65941 72646,72802,72776
 2.1000e+000 73241  3.5105e+000 -1.1150e+002  1.2422e+001 65743 73264,73071,73045
 2.1000e+000 73218 -3.1561e+001 -1.2782e+002  1.6754e+001 65743 73480,73264,73045
 2.1000e+000 73195 -2.5203e+001 -1.1140e+002 -5.1567e-001 65743 73336,72967,73097
 2.1000e+000 73172 -6.2954e+001 -9.9882e+001 -1.2187e+001 65743 73408,72993,72967
 2.1000e+000 73149 -2.1108e+001 -1.1295e+002 -1.2083e+000 65743 72967,73123,73097
 2.1000e+000 73290 -1.2743e+001 -1.1948e+002  3.9620e+000 65743 73097,73071,73264
 2.1000e+000 73313 -1.8750e+001 -1.0634e+002  7.6495e+000 65743 73336,73097,73264
 2.1000e+000 73362 -5.0321e+001 -1.1694e+002 -7.0562e+000 65743 73408,72967,73336
 2.1000e+000 73385 -1.2418e+001 -1.0444e+002  3.5389e+000 65743 73019,73336,73264
 2.1000e+000 73434 -4.1923e+001 -6.7452e+001  1.0782e+001 65743 73019,72993,73408
 2.1000e+000 73457 -1.2918e+001 -9.0447e+001  8.6545e+000 65743 73019,73408,73336
 2.1000e+000 73506 -2.9844e+000 -7.7138e+001  5.3922e+000 65743 73019,73264,73480
 2.1000e+000 73989  1.3264e+001 -8.4581e+001  1.3332e+001 65453 73793,73845,73819
 2.1000e+000 73966 -3.4774e+001 -9.5513e+001  1.6711e+001 65453 73741,73845,73793
 2.1000e+000 73943  2.1680e+000 -7.3882e+001  7.7854e+000 65453 73715,73845,73741
 2.1000e+000 73920 -2.3571e+001 -1.0501e+002  2.6374e+001 65453 73741,73793,73767
 2.1000e+000 73897  1.7438e+001 -3.3263e+001  5.9530e+000 65453 73715,73871,73845
 2.1000e+000 74357 -7.3528e+000 -1.0239e+002 -4.6886e+001 65141 74380,74138,74086
 2.1000e+000 74334 -4.4022e+001 -1.6559e+002 -3.1445e+001 65141 74380,74086,74060
 2.1000e+000 74311 -3.9928e+001 -1.5824e+002 -1.1515e+001 65141 74138,74190,74164
 2.1000e+000 74288 -5.1624e+001 -1.7926e+002 -7.6873e+000 65141 74060,74216,74190
 2.1000e+000 74265 -5.6695e+001 -1.9379e+002  1.9007e+000 65141 74034,74216,74060
 2.1000e+000 74242 -1.6454e+001 -4.4742e+001 -2.0773e+001 65141 74086,74138,74112
 2.1000e+000 74406 -2.8770e+001 -1.5786e+002 -1.6628e+001 65141 74190,74138,74380
 2.1000e+000 74429 -4.0370e+001 -1.8000e+002 -6.7752e+000 65141 74190,74380,74060
 2.1000e+000 74937 -5.9975e+001 -1.1064e+002 -3.0002e+001 64737 74614,74666,74640
 2.1000e+000 74914 -7.0115e+001 -1.4669e+002 -2.1483e+001 64737 74614,74796,74666
 2.1000e+000 74891 -5.0696e+001 -9.9152e+001 -2.4949e+000 64737 74960,74718,74666
 2.1000e+000 74868 -4.3491e+001 -1.1029e+002 -1.3240e+001 64737 74960,74666,74770
 2.1000e+000 74845 -4.4329e+001 -8.9280e+001 -1.3830e+001 64737 74666,74796,74770
 2.1000e+000 74822 -4.9773e+001 -1.0894e+002  3.5784e+000 64737 74666,74718,74692
 2.1000e+000 74986 -5.5095e+001 -1.1067e+002 -2.3027e+000 64737 74744,74718,74960
 2.1000e+000 75009 -5.0786e+001 -1.2746e+002 -1.3313e+001 64737 74744,74960,74770
 2.1000e+000 75306 -8.3054e+000 -1.0384e+002  1.7904e+001 64133 75329,75110,75084
 2.1000e+000 75283 -1.6352e+001 -1.2117e+002  8.1460e+000 64133 75401,75329,75084
 2.1000e+000 75260 -1.0503e+001 -1.2667e+002  1.2472e+001 64133 75401,75084,75058
 2.1000e+000 75237 -1.7208e+001 -1.3753e+002  1.5790e+001 64133 75473,75136,75110
 2.1000e+000 75214 -3.1087e+001 -9.8839e+001 -1.6982e-001 64133 75032,75188,75162
 2.1000e+000 75355 -1.9599e+001 -1.3115e+002  1.3877e+001 64133 75473,75110,75329
 2.1000e+000 75378 -1.7558e+001 -1.1752e+002  2.3548e+000 64133 75162,75329,75032
 2.1000e+000 75427 -1.4775e+001 -1.1180e+002  4.8090e+000 64133 75032,75329,75401
 2.1000e+000 75450 -4.2503e+001 -1.4496e+002  2.2588e+001 64133 75545,75401,75058
 2.1000e+000 75499 -2.2191e+001 -1.2912e+002  4.9146e+000 64133 75162,75136,75473
 2.1000e+000 75522 -2.0756e+001 -1.1426e+002  6.1339e+000 64133 75162,75473,75329
 2.1000e+000 75571 -9.8438e+000 -7.3803e+001  9.5200e+000 64133 75032,75401,75545
 2.1000e+000 75851 -3.1190e+001 -1.0721e+002  1.8965e+000 63843 75874,75753,75727
 2.1000e+000 75828 -2.5978e+001 -1.0679e+002 -5.4876e+000 63843 75946,75874,75727
 2.1000e+000 75805 -3.3841e+001 -1.1367e+002 -2.4598e+000 63843 76018,75946,75727
 2.1000e+000 75900 -2.2784e+001 -1.0367e+002 -3.7420e+000 63843 75779,75753,75874
 2.1000e+000 75923 -2.4094e+001 -8.5441e+001 -1.3582e+001 63843 75779,75874,75675
 2.1000e+000 75972 -3.5006e+001 -1.0041e+002 -4.5945e+000 63843 75675,75874,75946
 2.1000e+000 75995 -3.1846e+001 -1.0595e+002 -7.5177e+000 63843 75675,75946,75701
 2.1000e+000 76044 -3.5908e+001 -1.1226e+002 -1.1179e+001 63843 75701,75946,76018
 2.1000e+000 76454  1.7164e+001 -4.9228e+000 -1.6759e+001 63439 76477,76255,76229
 2.1000e+000 76431 -9.1471e+000 -5.0073e+001 -4.9569e-002 63439 76477,76229,76359
 2.1000e+000 76408  3.0856e+001 -2.8501e+001  3.5113e+001 63439 76307,76359,76333
 2.1000e+000 76385  1.4690e+000 -5.6348e+001  4.8799e-001 63439 76255,76307,76281
 2.1000e+000 76503 -9.1037e+000 -4.0127e+001  1.0220e+001 63439 76307,76255,76477
 2.1000e+000 76526 -8.5477e+000 -5.7984e+001  2.2169e+001 63439 76307,76477,76359
 2.1000e+000 76926 -2.5497e+001 -8.7689e+001 -1.3174e+000 63049 76704,76782,76756
 2.1000e+000 76903 -3.5018e+001 -8.9327e+001 -1.0769e+001 63049 76704,76808,76782
 2.1000e+000 76880 -2.5274e+001 -1.0425e+002  2.0031e+000 63049 76704,76756,76730
 2.1000e+000 76857 -2.3258e+001 -5.1413e+001  3.6542e+000 63049 76678,76808,76704
 2.1000e+000 76834 -1.0256e+001 -1.2107e+001 -1.1510e+001 63049 76652,76808,76678
 2.1000e+000 77076  7.2474e+000 -1.3609e+002 -1.8722e+000 62737 76975,77027,77001
 2.1000e+000 77053  1.2882e+001 -1.5158e+002 -1.0398e+001 62737 76949,77027,76975
 2.1000e+000 77324 -5.3411e+001 -1.3939e+002  5.5489e+000 62277 77347,77177,77125
 2.1000e+000 77301 -5.2138e+001 -1.3354e+002 -2.8952e+000 62277 77347,77125,77229
 2.1000e+000 77278 -5.2215e+001 -1.3756e+002 -5.2888e+000 62277 77099,77229,77125
 2.1000e+000 77255 -5.8921e+001 -1.6140e+002  9.0565e+000 62277 77125,77177,77151
 2.1000e+000 77373 -5.7996e+001 -1.5637e+002  1.2408e+001 62277 77203,77177,77347
 2.1000e+000 77396 -4.6558e+001 -1.4131e+002  2.2321e+000 62277 77203,77347,77229
 2.1000e+000 77857 -2.1565e+001 -1.5905e+002  3.8186e+000 61758 77635,77739,77661
 2.1000e+000 77834 -3.8328e+001 -1.7260e+002 -4.1920e+000 61758 77583,77739,77635
 2.1000e+000 77811 -3.8889e+001 -1.9720e+002 -1.7332e+001 61758 77583,77635,77609
 2.1000e+000 77788  1.1913e+001 -1.5998e+002  1.6935e+001 61758 77661,77713,77687
 2.1000e+000 77765 -2.8125e+001 -1.8804e+002 -1.5938e+000 61758 77661,77739,77713
 2.1000e+000 78491 -4.9607e+001 -9.7658e+001  3.6507e+000 61418 78171,78301,78249
 2.1000e+000 78468 -4.1844e+001 -7.5572e+001  1.2177e+001 61418 78145,78301,78171
 2.1000e+000 78445 -3.7977e+001 -8.7077e+001 -5.9155e+000 61418 78171,78249,78223
 2.1000e+000 78422 -3.9081e+001 -7.3552e+001 -1.0240e+001 61418 78145,78327,78301
 2.1000e+000 78399 -5.2061e+001 -1.1028e+002 -2.1646e+000 61418 78249,78301,78275
 2.1000e+000 78376 -2.5096e+001 -9.4962e+001 -7.7733e+000 61418 78171,78223,78197
 2.1000e+000 78353 -5.1187e+001 -1.3523e+002 -2.5932e+001 61418 78119,78327,78145
 2.1000e+000 78690 -4.6640e+001 -1.1549e+002  1.6008e+000 61014 78713,78566,78540
 2.1000e+000 78667 -3.3149e+001 -1.2293e+002  5.1829e+000 61014 78713,78540,78618
 2.1000e+000 78644 -4.9470e+001 -1.3933e+002 -1.4601e+001 61014 78514,78618,78540
 2.1000e+000 78739 -2.4657e+001 -1.0553e+002  1.3109e+001 61014 78592,78566,78713
 2.1000e+000 78762 -3.6166e+001 -1.2294e+002  3.9288e+000 61014 78785,78713,78618
 2.1000e+000 78811 -9.4700e+000 -1.1305e+002 -7.7943e-001 61014 78592,78713,78785
 2.1000e+000 79398 -9.3964e+000 -1.0031e+002 -1.3572e+001 60624 79101,79179,79153
 2.1000e+000 79375 -1.9356e+000 -1.1150e+002 -9.0527e+000 60624 79101,79231,79179
 2.1000e+000 79352 -1.2199e+001 -1.1953e+002 -1.5065e+001 60624 79075,79231,79101
 2.1000e+000 79329  4.5762e+001 -1.3146e+002  9.4087e+000 60624 79075,79257,79231
 2.1000e+000 79306  9.1251e+000 -8.4331e+001 -9.9494e+000 60624 79179,79231,79205
 2.1000e+000 79283 -1.8655e+000 -8.4111e+001 -5.1266e+000 60624 79101,79153,79127
 2.1000e+000 79776 -4.5659e+001 -1.4551e+002  1.6301e+001 60070 79528,79658,79606
 2.1000e+000 79753 -4.3666e+001 -1.1832e+002 -8.0733e-001 60070 79502,79658,79528
 2.1000e+000 79730 -6.1018e+001 -1.4111e+002  2.2427e+001 60070 79528,79606,79580
 2.1000e+000 79707 -4.1495e+000 -1.3522e+002  8.0060e+000 60070 79606,79658,79632
 2.1000e+000 79684 -5.0022e+000 -8.5696e+001 -2.3539e+001 60070 79528,79580,79554
 2.1000e+000 80105 -3.9946e+001 -1.1901e+002  1.1755e+001 59758 80128,79958,79906
 2.1000e+000 80082 -4.0547e+001 -1.1048e+002  7.4140e+000 59758 80128,79906,80010
 2.1000e+000 80059 -5.6641e+001 -1.2443e+002  3.7419e+001 59758 79906,79958,79932
 2.1000e+000 80036 -5.9206e+001 -1.2094e+002  2.9266e+000 59758 79880,80010,79906
 2.1000e+000 80154 -4.0326e+001 -1.2455e+002  1.2619e+001 59758 79984,79958,80128
 2.1000e+000 80177 -4.2625e+001 -1.1821e+002  8.4592e+000 59758 79984,80128,80010
 2.1000e+000 80376 -3.2075e+001 -1.1498e+002  2.3068e+000 59312 80226,80304,80252
 2.1000e+000 80353 -3.0570e+001 -1.1913e+002  2.5237e+000 59312 80200,80304,80226
 2.1000e+000 80330 -5.0001e+001 -1.0300e+002  3.1388e+001 59312 80252,80304,80278
 2.1000e+000 80805 -3.8322e+001 -8.6862e+001 -1.7667e+001 58908 80900,80828,80638
 2.1000e+000 80782 -1.9647e+001 -1.0548e+002 -2.6343e+001 58908 80828,80560,80508
 2.1000e+000 80759 -4.2189e+001 -7.9436e+001 -4.9424e+000 58908 80900,80638,80612
 2.1000e+000 80736 -1.3451e+001 -9.4814e+001  4.4557e+001 58908 80482,80664,80508
 2.1000e+000 80713 -2.8019e+001 -7.7749e+001  1.6737e-001 58908 80560,80612,80586
 2.1000e+000 80690 -3.4696e+001 -2.9733e+002 -5.4413e+001 58908 80508,80560,80534
 2.1000e+000 80854 -1.1487e+001 -9.3822e+001 -1.5142e+000 58908 80664,80638,80828
 2.1000e+000 80877 -2.6404e+001 -1.5059e+002  3.9183e+000 58908 80664,80828,80508
 2.1000e+000 80926 -2.8291e+001 -6.4115e+001 -2.0658e+001 58908 80560,80828,80900
 2.1000e+000 80949 -3.6055e+001 -6.4740e+001 -6.1119e+000 58908 80560,80900,80612
 2.1000e+000 81246 -5.3058e-001 -7.1741e+001 -3.6428e+000 58482 81076,81128,81102
 2.1000e+000 81223 -2.7616e+001 -1.4820e+002 -1.8156e+001 58482 80972,81128,81076
 2.1000e+000 81200 -6.0692e+000 -9.0851e+001 -2.2673e+001 58482 80972,81076,81050
 2.1000e+000 81177 -5.7832e+001 -1.7613e+002  1.4923e+000 58482 80998,81050,81024
 2.1000e+000 81154 -9.7283e+000 -1.2229e+002 -1.8871e+001 58482 80972,81050,80998
 2.1000e+000 81754 -3.0361e+001 -8.3583e+001  8.6343e+000 57828 81457,81613,81483
 2.1000e+000 81731 -3.8811e+001 -9.8580e+001  2.2717e+000 57828 81431,81613,81457
 2.1000e+000 81708 -3.4645e+001 -9.3511e+001  1.1016e+001 57828 81483,81613,81509
 2.1000e+000 81685 -4.3398e+001 -1.1545e+002  1.5238e+001 57828 81509,81613,81587
 2.1000e+000 81662 -4.3611e+001 -1.7075e+002  3.0607e+001 57828 81509,81587,81535
 2.1000e+000 81639 -2.2972e+001 -1.1872e+002  1.8748e+001 57828 81535,81587,81561
 2.1000e+000 82002 -6.8306e+001 -1.8301e+002 -2.0421e+000 57374 82025,81855,81829
 2.1000e+000 81979 -7.2157e+001 -1.7088e+002  7.6455e+000 57374 82025,81829,81907
 2.1000e+000 81956 -7.3248e+001 -1.5620e+002  5.0784e+000 57374 81803,81907,81829
 2.1000e+000 81933 -3.6660e+001 -1.3251e+002  1.6278e+001 57374 81777,81907,81803
 2.1000e+000 82051 -6.9210e+001 -1.6876e+002 -2.3354e+000 57374 81881,81855,82025
 2.1000e+000 82074 -6.9137e+001 -1.5714e+002  1.0893e+001 57374 81881,82025,81907
 2.1000e+000 82356 -3.7883e+001 -9.1069e+001 -2.1394e+000 56913 82180,82232,82206
 2.1000e+000 82333 -3.0488e+001 -8.3894e+001  1.6681e+001 56913 82180,82284,82232
 2.1000e+000 82310 -1.5304e+001 -6.2549e+001  2.3554e+001 56913 82379,82232,82284
 2.1000e+000 82405  1.0016e+001 -6.2522e+001  1.9060e+000 56913 82258,82232,82379
 2.1000e+000 82764 -2.2324e+001 -4.7845e+001 -8.9195e+000 56523 82614,82666,82640
 2.1000e+000 82741 -1.1688e+001 -4.4554e+001 -1.4266e+001 56523 82614,82692,82666
 2.1000e+000 82718 -1.9001e+001 -4.7395e+001 -1.4289e+001 56523 82588,82692,82614
 2.1000e+000 83368 -8.7432e+000 -1.2502e+002 -3.8816e+000 55969 82973,83155,83129
 2.1000e+000 83345  5.5023e-001 -1.2163e+002 -8.5358e+000 55969 82973,83181,83155
 2.1000e+000 83322 -3.3259e+001 -1.0826e+002 -3.0159e+000 55969 82973,83129,82999
 2.1000e+000 83299 -5.7097e+001 -1.1324e+002  5.5940e+000 55969 83391,83025,82999
 2.1000e+000 83276 -4.4356e+001 -1.1424e+002  8.7231e-001 55969 83391,82999,83129
 2.1000e+000 83253 -6.7512e+000 -8.7068e+001  1.8352e+001 55969 83077,83129,83103
 2.1000e+000 83230 -4.7467e+001 -8.2397e+001 -7.5272e+000 55969 83025,83077,83051
 2.1000e+000 83207 -1.5696e+000 -1.1732e+002  1.0613e+001 55969 82947,83181,82973
 2.1000e+000 83417 -4.4432e+001 -1.0804e+002  6.1229e+000 55969 83077,83025,83391
 2.1000e+000 83440 -3.9749e+001 -1.1357e+002  6.0113e-001 55969 83077,83391,83129
 2.1000e+000 83946 -5.9200e+001 -1.5875e+002  3.1143e+001 55771 83969,83779,83727
 2.1000e+000 83923 -4.1106e+001 -1.2260e+002  1.8484e+001 55771 83969,83727,83623
 2.1000e+000 83900 -5.0279e+001 -5.8663e+001  1.0806e+001 55771 83623,83727,83649
 2.1000e+000 83877 -2.7645e+001 -2.7553e+002  2.1289e+001 55771 83727,83779,83753
 2.1000e+000 83854 -7.9747e+001 -1.4990e+002  3.8826e+001 55771 83675,83727,83701
 2.1000e+000 83831 -9.5278e+001 -1.1204e+002  5.8678e+001 55771 83649,83727,83675
 2.1000e+000 83995 -5.3355e+001 -1.6575e+002 -1.4552e+001 55771 83805,83779,83969
 2.1000e+000 84018 -1.4721e+001 -9.2736e+001 -3.1235e+001 55771 83805,83969,83623
 2.1000e+000 84168 -1.5078e+001 -7.1798e+001 -2.0159e+000 55367 84191,84067,84041
 2.1000e+000 84145 -1.6346e+001 -7.8022e+001 -9.9366e-001 55367 84191,84041,84119
 2.1000e+000 84217 -1.8050e+001 -6.6595e+001 -2.1922e+000 55367 84093,84067,84191
 2.1000e+000 84240 -1.9240e+001 -7.1498e+001  5.0893e-001 55367 84093,84191,84119
 2.1000e+000 84571 -2.0196e+001 -1.4047e+002 -1.5199e+001 54913 84398,84450,84424
 2.1000e+000 84548 -1.4414e+001 -1.2721e+002 -7.5766e+000 54913 84372,84450,84398
 2.1000e+000 84525 -3.5497e+001 -1.4420e+002  4.8229e+000 54913 84346,84450,84372
 2.1000e+000 84502 -1.2996e+001 -9.2389e+001 -1.2592e+001 54913 84346,84476,84450
 2.1000e+000 85126 -6.9235e+001 -1.5631e+002 -8.2805e+000 54402 84858,84936,84910
 2.1000e+000 85103 -5.1982e+001 -1.1901e+002 -1.4587e+001 54402 84806,84936,84858
 2.1000e+000 85080 -6.4622e+001 -1.0912e+002 -1.1780e+001 54402 84780,84936,84806
 2.1000e+000 85057 -5.2644e+001 -1.3224e+002 -6.5451e+000 54402 84806,84858,84832
 2.1000e+000 85034 -5.5410e+001 -1.0167e+002  4.3847e+000 54402 84780,84962,84936
 2.1000e+000 85011 -8.6129e+001 -9.0785e+001 -5.8089e+000 54402 84858,84910,84884
 2.1000e+000 84988 -5.4004e+001 -9.7831e+001  4.5302e+000 54402 84754,84962,84780
 2.1000e+000 85396 -3.9949e+001 -4.9746e+001 -5.7790e+000 53998 85197,85249,85223
 2.1000e+000 85373 -2.8336e+001 -7.1099e+001 -1.0975e+000 53998 85197,85275,85249
 2.1000e+000 85350 -3.9795e+001 -8.2299e+001 -5.6494e+000 53998 85171,85275,85197
 2.1000e+000 85327 -1.0468e+001 -7.2931e+001 -8.4167e+000 53998 85171,85301,85275
 2.1000e+000 85749 -3.1610e+001 -1.1736e+002 -3.0772e+000 53636 85524,85628,85550
 2.1000e+000 85726 -4.9319e+001 -1.3371e+002  3.7936e+000 53636 85524,85654,85628
 2.1000e+000 85703 -1.7927e+001 -1.2165e+002 -1.1507e+001 53636 85550,85602,85576
 2.1000e+000 85680 -3.0868e+001 -1.1644e+002 -5.4520e+000 53636 85550,85628,85602
 2.1000e+000 86127  5.8928e+000 -1.1180e+002  1.9732e+001 52982 86150,85957,85879
 2.1000e+000 86104 -2.4275e+001 -1.3216e+002  1.0877e+001 52982 86150,85879,85853
 2.1000e+000 86081  8.2159e+000 -1.6941e+002  3.5757e+001 52982 85957,86009,85983
 2.1000e+000 86058 -3.2490e+001 -1.2033e+002  1.5687e+001 52982 85879,85957,85931
 2.1000e+000 86035 -1.3787e+001 -1.0212e+002  3.9414e-001 52982 85879,85931,85905
 2.1000e+000 86176  2.4962e+001 -1.3488e+002  1.5788e+001 52982 86009,85957,86150
 2.1000e+000 86199  7.0920e+000 -1.4785e+002  9.6021e+000 52982 86009,86150,85853
 2.1000e+000 86398 -1.4590e+001 -7.9678e+001  6.1253e+000 52542 86421,86248,86222
 2.1000e+000 86375 -3.0312e+001 -8.3286e+001 -1.1980e+000 52542 86421,86222,86300
 2.1000e+000 86352 -2.7887e+001 -8.3554e+001 -4.3578e+000 52542 86222,86326,86300
 2.1000e+000 86447  2.4861e+000 -8.1067e+001  1.4079e+001 52542 86274,86248,86421
 2.1000e+000 86470 -1.3253e+001 -8.8262e+001  4.7478e+000 52542 86274,86421,86300
 2.1000e+000 86669 -2.0752e+001 -7.9567e+001 -2.3605e+001 52230 86692,86571,86545
 2.1000e+000 86646 -2.0479e+001 -7.5727e+001 -1.1623e+001 52230 86692,86545,86519
 2.1000e+000 86623 -4.5849e+001 -7.7503e+001 -1.4380e+001 52230 86493,86597,86519
 2.1000e+000 86718 -2.7304e+001 -8.2333e+001 -2.3539e+001 52230 86597,86571,86692
 2.1000e+000 86741 -3.5232e+001 -8.2059e+001 -1.1937e+001 52230 86597,86692,86519
 2.1000e+000 87153 -5.8886e+001 -8.5990e+001  5.2807e+000 51640 86980,87058,87032
 2.1000e+000 87130 -5.3852e+001 -9.1887e+001  3.0456e+000 51640 86928,87058,86980
 2.1000e+000 87107 -5.1343e+001 -1.2265e+002 -1.1290e+001 51640 86928,86980,86954
 2.1000e+000 87084 -3.6411e+001 -7.6458e+001  1.9662e+000 51640 86980,87032,87006
 2.1000e+000 87659 -2.1332e+001 -8.4380e+001  8.4907e+000 51029 87682,87440,87362
 2.1000e+000 87636 -2.6618e+001 -9.2455e+001 -1.9593e+000 51029 87682,87362,87336
 2.1000e+000 87613 -3.9280e+001 -1.3962e+002 -4.3333e+000 51029 87440,87518,87466
 2.1000e+000 87590 -4.2161e+001 -8.7754e+001  1.1012e+001 51029 87362,87440,87414
 2.1000e+000 87567 -4.1252e+001 -8.1934e+001  2.8622e+001 51029 87362,87414,87388
 2.1000e+000 87544 -5.1422e+001 -1.1962e+002  9.1106e-001 51029 87466,87518,87492
 2.1000e+000 87708 -1.8100e+001 -9.6833e+001  2.5168e+000 51029 87518,87440,87682
 2.1000e+000 87731 -2.0973e+001 -1.1084e+002 -4.1021e+000 51029 87518,87682,87336
 2.1000e+000 87881 -4.9388e+001 -1.1833e+002  1.8176e+000 50739 87780,87832,87806
 2.1000e+000 87858 -5.1481e+001 -1.0589e+002 -5.5206e+000 50739 87754,87832,87780
 2.1000e+000 88468 -2.0110e+001 -6.0940e+001  9.1337e+000 50235 88171,88327,88197
 2.1000e+000 88445 -5.9113e+001 -6.7311e+001 -6.0932e+000 50235 88145,88327,88171
 2.1000e+000 88422  2.8927e+001 -2.5567e+001  2.4738e+001 50235 88275,88327,88301
 2.1000e+000 88399  5.3194e+000 -3.6034e+001 -3.0494e+000 50235 88197,88327,88275
 2.1000e+000 88376  1.9886e+001 -5.3685e+001 -2.0199e+000 50235 88197,88275,88223
 2.1000e+000 88353  6.0477e-002 -5.6694e+001  1.9345e+001 50235 88223,88275,88249
 2.1000e+000 88895 -2.4083e+001 -1.2484e+002  4.2684e+000 49873 88918,88728,88676
 2.1000e+000 88872 -2.5716e+001 -1.2462e+002  6.1012e+000 49873 88918,88676,88624
 2.1000e+000 88849 -2.9468e+001 -9.2143e+001  3.8342e+000 49873 88598,88754,88624
 2.1000e+000 88826 -1.5992e+001 -1.1711e+002  1.0769e+000 49873 88624,88676,88650
 2.1000e+000 88803 -1.8582e+001 -1.7062e+002  3.3964e+000 49873 88676,88728,88702
 2.1000e+000 88780 -2.3549e+001 -6.6996e+001  1.7521e+001 49873 88572,88754,88598
 2.1000e+000 88944 -2.6635e+001 -1.2588e+002  4.2441e+000 49873 88754,88728,88918
 2.1000e+000 88967 -2.7024e+001 -1.2499e+002  6.0904e+000 49873 88754,88918,88624
 2.1000e+000 89473 -7.7280e+001 -1.1525e+002 -1.7305e+001 49583 89176,89306,89202
 2.1000e+000 89450 -8.0098e+001 -1.1617e+002 -1.7871e+001 49583 89176,89332,89306
 2.1000e+000 89427 -5.2140e+001 -1.2867e+002 -2.2495e-001 49583 89496,89228,89202
 2.1000e+000 89404 -4.9848e+001 -1.2973e+002  1.1836e-001 49583 89496,89202,89280
 2.1000e+000 89381 -9.3936e+001 -1.5931e+002 -3.0844e+001 49583 89202,89306,89280
 2.1000e+000 89358 -6.3567e+001 -1.1507e+002 -1.9457e+001 49583 89150,89332,89176
 2.1000e+000 89522 -4.8921e+001 -1.2293e+002  1.0481e+000 49583 89254,89228,89496
 2.1000e+000 89545 -4.9749e+001 -1.2868e+002  3.5104e-001 49583 89254,89496,89280
 2.1000e+000 89825  1.0174e+001 -1.1651e+002  1.1216e+000 49179 89701,89753,89727
 2.1000e+000 89802  2.0808e+001 -1.0722e+002 -2.8299e+000 49179 89675,89753,89701
 2.1000e+000 89779  3.7844e+001 -8.2804e+001  2.2615e+001 49179 89848,89753,89675
 2.1000e+000 89874 -3.6435e+001 -1.1725e+002  2.3870e-001 49179 89649,89753,89848
 2.1000e+000 90223 -2.6291e+001 -1.2076e+002 -1.0196e+001 48739 90024,90102,90076
 2.1000e+000 90200 -4.4800e+001 -1.2303e+002 -3.9549e+000 48739 90024,90128,90102
 2.1000e+000 90177 -2.3693e+001 -1.3153e+002 -5.1716e+000 48739 90024,90076,90050
 2.1000e+000 90154 -1.8520e+001 -1.1798e+002  1.0070e+001 48739 89998,90128,90024
 2.1000e+000 90603 -4.1858e+001 -1.1373e+002  2.0334e+001 48335 90381,90485,90459
 2.1000e+000 90580 -5.1360e+001 -1.2146e+002  1.4582e+001 48335 90355,90485,90381
 2.1000e+000 90557 -1.7130e+001 -3.7501e+001  1.4588e+001 48335 90381,90433,90407
 2.1000e+000 90534 -3.9841e+001 -1.1173e+002  2.1834e+001 48335 90381,90459,90433
 2.1000e+000 90511  5.8300e+000 -8.6715e+001  3.1704e+001 48335 90329,90485,90355
 2.1000e+000 90753  2.2448e+001 -5.7732e+001  3.4674e+001 47824 90776,90652,90704
 2.1000e+000 90730  2.0100e+000 -1.0088e+002  2.8945e+001 47824 90626,90704,90652
 2.1000e+000 90802 -7.9747e+000 -8.0963e+001  2.4518e+001 47824 90678,90652,90776
 2.1000e+000 91131 -2.0247e+001 -1.2800e+002  4.6775e-001 47427 91154,90958,90906
 2.1000e+000 91108 -4.8499e+001 -1.4049e+002  4.8719e+000 47427 91154,90906,91036
 2.1000e+000 91085 -4.7933e+001 -9.6859e+001 -1.4298e+001 47427 90958,91010,90984
 2.1000e+000 91062 -1.3627e+001 -1.1406e+002 -1.9588e+000 47427 90906,90958,90932
 2.1000e+000 91180 -3.4658e+001 -1.1929e+002 -1.8747e+001 47427 91010,90958,91154
 2.1000e+000 91203 -6.1044e+001 -1.3051e+002 -1.4769e+001 47427 91010,91154,91036
 2.1000e+000 91583 -7.5788e+001 -1.4170e+002 -8.6862e+000 46873 91309,91439,91335
 2.1000e+000 91560 -7.9086e+001 -1.4052e+002 -7.7121e+000 46873 91309,91465,91439
 2.1000e+000 91537 -1.1315e+002 -1.6350e+002 -3.9098e+001 46873 91361,91439,91413
 2.1000e+000 91514 -8.2992e+001 -1.4629e+002 -1.8140e+001 46873 91335,91439,91361
 2.1000e+000 91491 -3.4395e+001 -1.3059e+002 -3.0086e+001 46873 91361,91413,91387
 2.1000e+000 91880 -2.8985e+001 -1.1979e+002 -3.6082e+000 46526 91606,91710,91658
 2.1000e+000 91857 -2.7937e+001 -1.2545e+002  5.1880e-001 46526 91606,91762,91710
 2.1000e+000 91834 -1.3065e+001 -1.1357e+002 -1.5044e+001 46526 91606,91658,91632
 2.1000e+000 91811 -3.5232e+001 -1.0976e+002  2.2397e+000 46526 91658,91710,91684
 2.1000e+000 91788 -1.3130e+001 -7.5493e+001  7.2754e+000 46526 91710,91762,91736
 2.1000e+000 92211  7.1689e+000 -6.1592e+001 -3.5687e+000 45700 91986,92064,92038
 2.1000e+000 92188 -3.1022e+001 -9.4386e+001  1.1700e+001 45700 91986,92116,92064
 2.1000e+000 92165  2.1433e+001 -4.4332e+001 -2.5834e+001 45700 91986,92038,92012
 2.1000e+000 92142 -3.1030e+001 -9.0521e+001  1.0772e+001 45700 92064,92116,92090
 2.1000e+000 92766 -6.7023e+001 -1.1279e+002 -6.3372e-001 45452 92446,92602,92576
 2.1000e+000 92743 -1.0893e+002 -1.1298e+002 -2.5625e+001 45452 92420,92602,92446
 2.1000e+000 92720 -7.6353e+001 -1.1674e+002  1.5160e+001 45452 92789,92524,92498
 2.1000e+000 92697 -9.2829e+001 -1.1437e+002  9.8774e+000 45452 92789,92498,92446
 2.1000e+000 92674 -7.1188e+001 -1.2867e+002 -3.3512e+000 45452 92524,92576,92550
 2.1000e+000 92651 -1.1792e+002 -1.1478e+002  6.0348e+001 45452 92446,92498,92472
 2.1000e+000 92628 -5.3120e+001 -1.2336e+002 -3.9161e+001 45452 92394,92602,92420
 2.1000e+000 92815 -6.4828e+001 -1.2006e+002  1.0807e+001 45452 92576,92524,92789
 2.1000e+000 92838 -7.7438e+001 -1.1456e+002  7.8011e+000 45452 92576,92789,92446
 2.1000e+000 92939 -3.6003e+001 -1.4405e+002 -3.3946e+001 44998 92861,92913,92887
 2.1000e+000 93319 -1.6922e+001 -1.4008e+002  2.8339e+001 44601 93123,93201,93149
 2.1000e+000 93296 -3.9152e+001 -1.4690e+002  2.0557e+000 44601 93045,93201,93123
 2.1000e+000 93273  7.5960e+000 -8.0484e+001 -1.8482e+001 44601 93045,93123,93071
 2.1000e+000 93250 -2.8231e+001 -8.9022e+001 -1.1183e+001 44601 93071,93123,93097
 2.1000e+000 93227 -1.4963e+001 -9.6910e+001  3.1357e+001 44601 93149,93201,93175
 2.1000e+000 93697 -1.3821e+000 -1.6549e+002 -3.3648e+000 44026 93720,93553,93527
 2.1000e+000 93674 -1.2981e+001 -1.3699e+002  2.6496e+000 44026 93720,93527,93449
 2.1000e+000 93651 -6.8042e+000 -1.2929e+002  1.3404e+001 44026 93449,93527,93501
 2.1000e+000 93628 -1.8434e+001 -9.5547e+001 -3.9710e+001 44026 93423,93579,93449
 2.1000e+000 93605  6.0539e+000 -1.3060e+002  1.1923e+001 44026 93449,93501,93475
 2.1000e+000 93746 -8.1405e-001 -1.3859e+002 -7.7839e+000 44026 93579,93553,93720
 2.1000e+000 93769 -1.0907e+001 -1.0822e+002 -4.4312e-001 44026 93579,93720,93449
 2.1000e+000 94066 -2.7615e+001 -1.2809e+002 -1.9070e+001 43579 94089,93818,93792
 2.1000e+000 94043 -4.2600e+001 -1.4055e+002 -1.3719e+001 43579 94161,94089,93792
 2.1000e+000 94020 -4.0758e+001 -1.4112e+002 -6.5177e+000 43579 94161,93792,93948
 2.1000e+000 93997 -4.5847e+001 -1.1505e+002 -1.2081e+001 43579 94233,93870,93818
 2.1000e+000 93974 -1.9122e+001 -9.9275e+001 -1.8684e+001 43579 93818,93870,93844
 2.1000e+000 94115 -4.5217e+001 -1.1532e+002 -1.4691e+001 43579 94233,93818,94089
 2.1000e+000 94138 -6.1822e+001 -1.2650e+002 -9.7418e+000 43579 93896,94089,93922
 2.1000e+000 94187 -3.7687e+001 -1.3017e+002 -1.1605e+001 43579 93922,94089,94161
 2.1000e+000 94210 -3.4184e+001 -1.2920e+002 -3.7697e+000 43579 93922,94161,93948
 2.1000e+000 94259 -4.9332e+001 -1.2006e+002 -1.0224e+001 43579 93896,93870,94233
 2.1000e+000 94282 -4.6928e+001 -1.1889e+002 -1.3214e+001 43579 93896,94233,94089
 2.1000e+000 94481 -3.2833e+001 -1.2735e+002 -1.4091e+000 43239 94305,94383,94357
 2.1000e+000 94458 -2.4795e+001 -1.1442e+002  1.5966e+001 43239 94305,94409,94383
 2.1000e+000 94435 -2.0896e+001 -1.3347e+002 -4.8336e+000 43239 94305,94357,94331
 2.1000e+000 94633 -1.2212e+001 -8.7426e+001  2.2379e+001 42827 94656,94532,94506
 2.1000e+000 94610 -2.9806e+001 -9.8533e+001  3.0772e+001 42827 94728,94656,94506
 2.1000e+000 94682 -1.3104e+000 -1.0183e+002  2.2862e+001 42827 94558,94532,94656
 2.1000e+000 94705  1.8664e+001 -1.0386e+002  1.3463e+001 42827 94988,94860,94656
 2.1000e+000 94754 -6.0452e+000 -8.6476e+001  6.9810e+000 42827 94988,94656,94728
 2.1000e+000 94886  4.6329e+001 -9.2768e+001  1.3871e+001 42827 94558,94656,94860
 2.1000e+000 95014  3.9336e+001 -8.8905e+001  6.9337e+000 42827 94584,94860,94988
 2.1000e+000 95037  1.8231e+001 -7.2451e+001  8.2986e-001 42827 94584,94988,94728
 2.1000e+000 95236 -4.0773e+001 -1.2454e+002  4.2931e+000 42537 95259,95112,95060
 2.1000e+000 95213 -1.7009e+001 -1.3416e+002  8.2877e+000 42537 95259,95060,95164
 2.1000e+000 95190 -3.2846e+001 -1.2301e+002 -7.2937e+000 42537 95060,95112,95086
 2.1000e+000 95285 -2.4740e+001 -1.2238e+002  1.5048e+001 42537 95138,95112,95259
 2.1000e+000 95308 -1.8672e+000 -1.2719e+002  2.2335e+001 42537 95138,95259,95164
 2.1000e+000 95816 -4.3653e+001 -1.3471e+002 -5.7162e+000 41969 95493,95597,95519
 2.1000e+000 95793 -7.3425e+001 -1.3393e+002  1.9099e+001 41969 95493,95649,95597
 2.1000e+000 95770 -6.0491e+001 -1.2123e+002  1.0083e+001 41969 95493,95675,95649
 2.1000e+000 95747 -6.5572e+001 -1.5260e+002  1.8504e+001 41969 95597,95649,95623
 2.1000e+000 95724 -8.1400e+001 -1.3290e+002 -7.7679e+000 41969 95519,95597,95571
 2.1000e+000 95701 -7.5243e+001 -1.2849e+002 -3.7120e+001 41969 95519,95571,95545
 2.1000e+000 96371 -6.1613e+001 -1.4110e+002  3.0500e+001 41579 96025,96207,96181
 2.1000e+000 96348  1.8926e+000 -1.1056e+002  1.8547e+000 41579 95999,96207,96025
 2.1000e+000 96325 -7.0288e+001 -1.0670e+002 -1.6233e+000 41579 96129,96181,96155
 2.1000e+000 96302 -2.0924e+001 -9.6556e+001  1.2725e+001 41579 96025,96181,96129
 2.1000e+000 96279 -5.2973e+001 -1.5537e+002  2.8378e+001 41579 96025,96129,96051
 2.1000e+000 96256 -6.7997e+001 -1.5360e+002  2.8646e+001 41579 96051,96103,96077
 2.1000e+000 96233 -2.4522e+001 -1.0814e+002  8.3399e+000 41579 96051,96129,96103
 2.1000e+000 96877  2.2900e+001 -8.3648e+001 -2.7871e+000 41182 96972,96900,96632
 2.1000e+000 96854  2.7204e+001 -6.5761e+001 -1.0178e+000 41182 96900,96554,96736
 2.1000e+000 96831  1.6481e+001 -7.9094e+001 -2.1394e+001 41182 96972,96632,96580
 2.1000e+000 96808  4.4887e+001 -7.1229e+001  5.0699e+000 41182 96632,96684,96658
 2.1000e+000 96785 -1.0571e+001 -8.9618e+001 -1.3960e+001 41182 96684,96736,96710
 2.1000e+000 96762 -1.8598e+001 -1.0389e+002  4.8135e+000 41182 96580,96632,96606
 2.1000e+000 96926  2.5262e+001 -8.4239e+001 -1.9372e+000 41182 96684,96632,96900
 2.1000e+000 96949 -6.0728e+000 -7.7085e+001 -8.3207e+000 41182 96684,96900,96736
 2.1000e+000 96998  5.2866e+001 -7.2989e+001 -1.2722e+001 41182 96554,96900,96972
 2.1000e+000 97021  5.4564e+001 -5.8916e+001 -3.3311e+001 41182 96554,96972,96580
 2.1000e+000 97576 -6.6602e+001 -2.2094e+002 -3.8950e+001 40678 97230,97412,97282
 2.1000e+000 97553  1.5539e+001 -1.7859e+002  1.0409e+001 40678 97204,97412,97230
 2.1000e+000 97530 -3.1997e+001 -1.6564e+002 -3.0384e+001 40678 97282,97360,97308
 2.1000e+000 97507 -1.9680e+001 -1.5772e+002 -1.5670e+001 40678 97282,97412,97360
 2.1000e+000 97484 -1.4970e+001 -1.1360e+002 -2.4626e+001 40678 97308,97360,97334
 2.1000e+000 97461 -6.7672e+001 -2.0097e+002  5.4137e+000 40678 97360,97412,97386
 2.1000e+000 97438 -2.6927e+001 -1.5462e+002 -1.3708e+001 40678 97230,97282,97256
 2.1000e+000 97976 -5.4960e+001 -9.4681e+001 -3.7763e+000 40244 97702,97832,97754
 2.1000e+000 97953 -4.5205e+001 -9.2620e+001 -6.1111e+000 40244 97702,97858,97832
 2.1000e+000 97930 -5.9292e+001 -1.1230e+002 -2.7486e+001 40244 97702,97754,97728
 2.1000e+000 97907 -4.7852e+001 -1.0594e+002  1.1747e+001 40244 97780,97832,97806
 2.1000e+000 97884 -5.2257e+001 -9.2107e+001 -1.5452e+000 40244 97754,97832,97780
 2.1000e+000 98482 -4.4901e+001 -1.1424e+002  1.5176e+001 39690 98505,98185,98159
 2.1000e+000 98459 -3.9360e+001 -1.1240e+002  1.7785e+001 39690 98505,98159,98289
 2.1000e+000 98436 -7.9444e+001 -1.6099e+002  5.6706e+001 39690 98159,98315,98289
 2.1000e+000 98413 -4.8535e+001 -1.0678e+002  1.7486e+001 39690 98211,98289,98263
 2.1000e+000 98390 -3.4033e+001 -8.2694e+001  1.0979e+001 39690 98211,98263,98237
 2.1000e+000 98367 -1.8399e+001 -9.9567e+001  2.8724e+001 39690 98159,98341,98315
 2.1000e+000 98531 -5.6036e+001 -1.1378e+002  1.0913e+001 39690 98211,98185,98505
 2.1000e+000 98554 -4.5522e+001 -1.0576e+002  1.5391e+001 39690 98211,98505,98289
 2.1000e+000 99109 -3.0764e+001 -9.5349e+001 -8.6195e+000 39072 99132,98867,98789
 2.1000e+000 99086 -4.0674e+001 -9.4800e+001 -6.1612e+000 39072 99132,98789,98763
 2.1000e+000 99063 -4.9130e+001 -1.5996e+002  1.8550e+001 39072 98867,98945,98919
 2.1000e+000 99040 -3.0708e+001 -1.0694e+002 -7.9173e-001 39072 98789,98867,98841
 2.1000e+000 99017 -6.7787e+001 -1.2854e+002  6.6294e+000 39072 98867,98919,98893
 2.1000e+000 98994 -4.9348e+001 -9.6168e+001  2.0567e+001 39072 98789,98841,98815
 2.1000e+000 98971 -5.5297e+001 -9.8076e+001 -1.0047e+001 39072 98737,98945,98763
 2.1000e+000 99158 -2.8005e+001 -9.4601e+001 -9.9400e+000 39072 98945,98867,99132
 2.1000e+000 99181 -3.2003e+001 -8.8076e+001 -9.3615e+000 39072 98945,99132,98763
 2.1000e+000 99510 -3.0100e+001 -9.8095e+001  2.6915e+000 38668 99311,99389,99363
 2.1000e+000 99487 -3.6939e+001 -9.7776e+001  7.1125e+000 38668 99285,99389,99311
 2.1000e+000 99464 -6.1739e+001 -1.0611e+002  1.7055e+001 38668 99285,99415,99389
 2.1000e+000 99441 -4.0289e+001 -9.6516e+001  1.3003e+000 38668 99311,99363,99337
 2.1000e+000 99758 -8.8631e+000 -1.4105e+002  1.0209e+001 38164 99781,99611,99585
 2.1000e+000 99735  1.6935e+001 -1.3766e+002  1.5295e+001 38164 99781,99585,99533
 2.1000e+000 99712 -1.7157e+001 -1.1084e+002  1.2709e+001 38164 99611,99663,99637
 2.1000e+000 99689  2.7895e+001 -1.2292e+002  6.2701e+000 38164 99533,99585,99559
 2.1000e+000 99807 -2.2581e+001 -1.3284e+002  1.6984e+001 38164 99663,99611,99781
 2.1000e+000 99830 -5.6894e+000 -1.3595e+002  1.7391e+001 38164 99663,99781,99533
 2.1000e+000 100232 -4.6731e+001 -1.2359e+002  1.7553e+000 37702 99984,100114,100088
 2.1000e+000 100209 -3.5319e+001 -1.2175e+002  1.1930e+001 37702 99958,100114,99984
 2.1000e+000 100186 -6.7816e+001 -1.4967e+002 -7.5124e+000 37702 100010,100088,100036
 2.1000e+000 100163 -4.7282e+001 -1.2388e+002  1.3756e+000 37702 99984,100088,100010
 2.1000e+000 100140 -4.8843e+001 -1.3499e+002 -3.2123e+001 37702 100036,100088,100062
 2.1000e+000 100640 -9.5394e+001 -1.2694e+002  1.5746e+001 37262 100493,100545,100519
 2.1000e+000 100617 -7.7409e+001 -1.3932e+002  9.4331e+000 37262 100441,100545,100493
 2.1000e+000 100594 -3.8308e+001 -1.1284e+002 -8.1193e+000 37262 100415,100545,100441
 2.1000e+000 100571 -9.3428e+001 -1.6251e+002 -6.8501e+000 37262 100441,100493,100467
 2.1000e+000 101146 -6.3174e+001 -1.0308e+002  1.3276e-001 36872 100823,100979,100849
 2.1000e+000 101123 -6.2237e+001 -9.6792e+001 -1.0157e+001 36872 100823,101005,100979
 2.1000e+000 101100 -5.9567e+001 -1.4854e+002  2.0806e+001 36872 101169,100901,100849
 2.1000e+000 101077 -4.6604e+001 -1.2073e+002  1.3714e+001 36872 101169,100849,100979
 2.1000e+000 101054 -2.8274e+001 -1.3015e+002  1.1915e+000 36872 100927,100979,100953
 2.1000e+000 101031 -3.0828e+001 -1.6876e+002  2.8778e+001 36872 100849,100901,100875
 2.1000e+000 101195 -4.3443e+001 -1.5705e+002  3.6904e+000 36872 100927,100901,101169
 2.1000e+000 101218 -3.5619e+001 -1.4208e+002 -1.9156e+000 36872 100927,101169,100979
 2.1000e+000 101773 -7.1409e+001 -1.2065e+002  2.1825e+001 36418 101479,101609,101583
 2.1000e+000 101750 -6.4015e+001 -1.2183e+002  2.9507e+001 36418 101453,101609,101479
 2.1000e+000 101727 -4.1711e+001 -1.2722e+002  1.8581e-001 36418 101796,101531,101479
 2.1000e+000 101704 -6.6599e+001 -1.4219e+002  8.9502e+000 36418 101796,101479,101583
 2.1000e+000 101681 -1.7992e+001 -1.1068e+002 -1.1345e+001 36418 101479,101531,101505
 2.1000e+000 101658 -3.3819e+000 -1.2167e+002 -1.4349e+000 36418 101401,101609,101453
 2.1000e+000 101635 -2.4503e+001 -1.3866e+002 -8.7448e+000 36418 101401,101453,101427
 2.1000e+000 101822 -4.8456e+001 -1.1632e+002 -2.4110e+001 36418 101557,101531,101796
 2.1000e+000 101845 -7.9682e+001 -1.2555e+002 -1.7091e+001 36418 101557,101796,101583
 2.1000e+000 102174  3.3318e+001 -5.4873e+001 -2.5047e+001 35914 101949,102053,101975
 2.1000e+000 102151 -3.0667e+001 -7.7093e+001 -9.5633e+000 35914 101949,102079,102053
 2.1000e+000 102128  3.6821e+000 -6.9079e+001 -1.4584e+001 35914 101975,102053,102027
 2.1000e+000 102105  1.8579e+000 -6.7753e+001 -1.3252e+001 35914 101975,102027,102001
 2.1000e+000 102631 -2.7136e+001 -1.2438e+002 -3.1822e+000 35574 102383,102513,102487
 2.1000e+000 102608 -1.5350e+001 -1.1932e+002 -3.1808e-001 35574 102357,102513,102383
 2.1000e+000 102585 -3.7874e+001 -1.3315e+002  1.0185e+000 35574 102409,102487,102435
 2.1000e+000 102562 -3.6623e+001 -1.3085e+002  2.1462e+000 35574 102383,102487,102409
 2.1000e+000 102539 -6.1309e+001 -1.5676e+002 -1.8297e+001 35574 102435,102487,102461
 2.1000e+000 103009 -5.9841e+001 -1.0323e+002 -1.3623e+001 35170 102761,102865,102787
 2.1000e+000 102986 -3.7990e+001 -9.1967e+001 -1.9295e+000 35170 102761,102891,102865
 2.1000e+000 102963 -5.5043e+001 -1.0680e+002 -8.7802e+000 35170 102787,102865,102813
 2.1000e+000 102940 -2.6408e+001 -1.0359e+002 -4.3316e+000 35170 102735,102891,102761
 2.1000e+000 102917 -5.7141e+001 -1.1306e+002 -1.2727e+001 35170 102813,102865,102839
 2.1000e+000 103257  3.4028e+001 -9.2201e+001 -1.8841e+001 34659 103280,103058,103032
 2.1000e+000 103234  2.2115e+001 -9.6466e+001 -3.6177e+000 34659 103280,103032,103162
 2.1000e+000 103211 -1.3770e+001 -7.8614e+001 -1.0618e+001 34659 103084,103162,103110
 2.1000e+000 103188 -2.9825e+001 -1.1074e+002 -4.7747e+000 34659 103110,103162,103136
 2.1000e+000 103306  1.0072e+001 -8.7109e+001 -1.7455e+001 34659 103084,103058,103280
 2.1000e+000 103329  4.6373e+000 -9.0016e+001 -1.7370e-001 34659 103084,103280,103162
 2.1000e+000 103837  4.6400e+001 -1.1365e+002  7.0895e+000 34247 103860,103566,103540
 2.1000e+000 103814  1.0833e+001 -1.2648e+002  3.9343e+000 34247 103932,103860,103540
 2.1000e+000 103791  6.0749e+000 -1.4467e+002 -1.1464e+001 34247 103932,103540,103670
 2.1000e+000 103768  3.5447e+001 -1.2225e+002 -1.5307e+001 34247 103566,103618,103592
 2.1000e+000 103745 -2.2535e+001 -1.2760e+002 -1.4473e+001 34247 103540,103696,103670
 2.1000e+000 103722 -3.4164e+001 -1.2792e+002  2.4381e+001 34247 103514,103696,103540
 2.1000e+000 103886  9.6874e+000 -1.2555e+002 -6.5677e+000 34247 103618,103566,103860
 2.1000e+000 103909  2.8962e+001 -1.2748e+002 -3.6188e+000 34247 103618,103860,103644
 2.1000e+000 103958  4.1602e+000 -1.6721e+002 -1.6740e+001 34247 103644,103860,103932
 2.1000e+000 103981 -3.5357e+000 -1.8579e+002 -3.3130e+001 34247 103644,103932,103670
 2.1000e+000 104300 -6.5157e+001 -1.3691e+002 -5.6406e+000 33843 104052,104182,104156
 2.1000e+000 104277 -8.3378e+001 -1.2570e+002 -9.0470e-001 33843 104026,104182,104052
 2.1000e+000 104254 -6.2605e+001 -1.5220e+002  5.3337e+000 33843 104078,104156,104130
 2.1000e+000 104231 -8.1579e+001 -1.4938e+002 -1.5498e-001 33843 104052,104156,104078
 2.1000e+000 104208 -9.1946e+001 -1.5579e+002  3.4979e+000 33843 104078,104130,104104
 2.1000e+000 104499 -2.9057e+001 -1.1933e+002 -2.3481e+001 33282 104594,104522,104375
 2.1000e+000 104476 -2.1145e+001 -1.3207e+002  4.1597e+000 33282 104522,104323,104427
 2.1000e+000 104453  5.6553e+000 -1.2922e+002 -2.4163e+001 33282 104594,104375,104349
 2.1000e+000 104548 -5.2395e+001 -1.1214e+002 -2.9060e+000 33282 104401,104375,104522
 2.1000e+000 104571 -6.3477e+000 -9.5724e+001  4.1927e+000 33282 104401,104522,104427
 2.1000e+000 104620  1.8923e+001 -1.0388e+002 -9.5280e+000 33282 104323,104522,104594
 2.1000e+000 104643  4.2398e+001 -1.2409e+002 -1.4374e+001 33282 104323,104594,104349
 2.1000e+000 104942 -5.9709e+001 -1.5528e+002  2.3102e+001 32728 104694,104772,104720
 2.1000e+000 104919 -5.0214e+001 -1.4249e+002  9.5090e+000 32728 104694,104824,104772
 2.1000e+000 104896 -8.0839e+001 -1.4058e+002  2.4811e+001 32728 104720,104772,104746
 2.1000e+000 104873 -3.8188e+001 -1.6651e+002  1.1270e+001 32728 104772,104824,104798
 2.1000e+000 104850 -5.3209e+001 -1.4324e+002  9.4260e+000 32728 104668,104824,104694
 2.1000e+000 105373 -5.7173e+001 -1.5322e+002 -1.1062e+001 32274 105396,105102,105076
 2.1000e+000 105350 -4.5505e+001 -1.7075e+002 -8.1451e+000 32274 105396,105076,105206
 2.1000e+000 105327 -4.7044e+001 -1.7397e+002  2.7079e+001 32274 105154,105206,105180
 2.1000e+000 105304 -3.5971e+001 -1.7226e+002 -1.9929e+001 32274 105076,105232,105206
 2.1000e+000 105281 -6.0820e+001 -1.4108e+002 -2.5197e+001 32274 105102,105154,105128
 2.1000e+000 105258 -1.1206e+002 -1.7402e+002 -4.0759e+001 32274 105050,105232,105076
 2.1000e+000 105422 -5.1349e+001 -1.3645e+002 -6.9399e+000 32274 105154,105102,105396
 2.1000e+000 105445 -4.2507e+001 -1.5700e+002 -5.6615e+000 32274 105154,105396,105206
 2.1000e+000 105644 -4.9339e+001 -1.5131e+002  1.9164e+000 31620 105468,105546,105520
 2.1000e+000 105621 -4.0491e+001 -1.5622e+002 -2.3794e+000 31620 105468,105572,105546
 2.1000e+000 105598 -5.3249e+001 -1.7592e+002  1.4598e+001 31620 105468,105520,105494
 2.1000e+000 105794 -2.5469e+001 -1.4544e+002 -3.6372e+000 31158 105889,105817,105693
 2.1000e+000 105771 -3.3260e+001 -1.3519e+002 -6.9756e+000 31158 105817,105667,105745
 2.1000e+000 105843 -2.9533e+001 -1.6758e+002 -2.2285e+000 31158 105719,105693,105817
 2.1000e+000 105866 -2.4277e+001 -1.5057e+002 -6.1849e+000 31158 105719,105817,105745
 2.1000e+000 105915 -4.2022e+001 -1.5253e+002 -3.8232e+000 31158 105667,105817,105889
 2.1000e+000 106270 -5.7639e+001 -1.3594e+002 -4.0453e+000 30818 106293,106071,106045
 2.1000e+000 106247 -6.7972e+001 -1.5881e+002 -2.0415e+001 30818 106293,106045,106175
 2.1000e+000 106224 -2.6489e+001 -1.3014e+002  3.8884e+000 30818 106123,106175,106149
 2.1000e+000 106201 -6.4920e+001 -1.3334e+002  5.2551e+000 30818 106071,106123,106097
 2.1000e+000 106319 -5.2431e+001 -1.2676e+002  2.7318e+000 30818 106123,106071,106293
 2.1000e+000 106342 -5.0031e+001 -1.3845e+002 -1.1020e+001 30818 106123,106293,106175
 2.1000e+000 106492 -6.0724e+001 -1.5098e+002  2.5458e+001 30414 106645,106391,106365
 2.1000e+000 106469 -4.6844e+001 -1.4979e+002  4.1156e+001 30414 106515,106365,106443
 2.1000e+000 106541 -5.1519e+001 -1.5120e+002  2.5923e+001 30414 106645,106365,106515
 2.1000e+000 106671 -4.6252e+001 -1.7105e+002  3.8202e+001 30414 106417,106391,106645
 2.1000e+000 106694 -1.9961e+001 -1.5952e+002  3.2702e+001 30414 106417,106645,106515
 2.1000e+000 106942 -1.5525e+001 -1.9507e+002 -1.1728e+000 29910 106965,106795,106769
 2.1000e+000 106919  1.3560e+001 -1.7936e+002  7.0004e+000 29910 106965,106769,106717
 2.1000e+000 106896 -3.1540e+001 -1.4457e+002 -1.8018e+001 29910 106795,106847,106821
 2.1000e+000 106873  2.2015e+001 -1.4957e+002 -4.1803e+000 29910 106717,106769,106743
 2.1000e+000 106991 -4.4558e+001 -1.6867e+002  7.8696e+000 29910 106847,106795,106965
 2.1000e+000 107014 -1.4323e+001 -1.4999e+002  1.8728e+001 29910 106847,106965,106717
 2.1000e+000 107213 -3.4371e+001 -1.4973e+002  1.3549e+001 29413 107236,107063,107037
 2.1000e+000 107190 -3.4542e+001 -1.8330e+002  2.6131e+001 29413 107236,107037,107141
 2.1000e+000 107167 -4.2499e+001 -1.0116e+002  2.5081e+001 29413 107063,107115,107089
 2.1000e+000 107262 -3.3867e+001 -1.2663e+002  7.4304e+000 29413 107115,107063,107236
 2.1000e+000 107285 -2.9185e+001 -1.5196e+002  2.0909e+001 29413 107115,107236,107141
 2.1000e+000 107486 -1.8511e+001 -1.2816e+002  1.4392e+001 29009 107336,107388,107362
 2.1000e+000 107463 -7.7386e+000 -1.2292e+002  6.8529e+000 29009 107310,107388,107336
 2.1000e+000 107440 -2.0136e+001 -1.2068e+002  1.0476e+001 29009 107310,107414,107388
 2.1000e+000 107736 -4.6549e+001 -1.3699e+002 -1.1842e-001 28491 107537,107615,107563
 2.1000e+000 107713 -3.4545e+001 -1.3122e+002  3.0131e+000 28491 107537,107641,107615
 2.1000e+000 107690 -8.2231e+000 -1.3437e+002  1.1723e+001 28491 107563,107615,107589
 2.1000e+000 107667 -4.9089e+001 -1.3982e+002 -1.8875e+000 28491 107511,107641,107537
 2.1000e+000 108118 -1.0795e+001 -1.3628e+002 -6.4216e+000 27980 108141,107922,107844
 2.1000e+000 108095  7.6355e+000 -1.4923e+002 -9.8180e+000 27980 108141,107844,108000
 2.1000e+000 108072 -4.1627e+000 -1.2203e+002 -1.3372e+001 27980 107844,107922,107870
 2.1000e+000 108049 -9.3314e+000 -1.1601e+002 -9.5910e+000 27980 107870,107922,107896
 2.1000e+000 108026 -2.3943e+001 -1.2059e+002  2.4293e+001 27980 107922,107974,107948
 2.1000e+000 108167  5.3915e+000 -1.4874e+002  1.4850e+000 27980 107974,107922,108141
 2.1000e+000 108190  5.2380e+001 -1.3886e+002  1.9262e+000 27980 107974,108141,108000
 2.1000e+000 108745 -1.2109e+001 -9.3288e+001 -1.3483e+000 27376 108840,108768,108477
 2.1000e+000 108722 -2.2922e+001 -1.0177e+002 -1.8473e+001 27376 108768,108373,108581
 2.1000e+000 108699 -2.2286e+001 -8.4950e+001  1.5803e+001 27376 108840,108477,108451
 2.1000e+000 108676 -6.2443e+001 -9.7677e+001 -5.7112e+000 27376 108373,108451,108399
 2.1000e+000 108653 -2.7627e+001 -1.2502e+002  1.2795e+001 27376 108503,108581,108529
 2.1000e+000 108630 -3.0289e+001 -1.2154e+002  1.3121e+001 27376 108529,108581,108555
 2.1000e+000 108607 -7.3243e+001 -1.1085e+002  5.8296e+000 27376 108399,108451,108425
 2.1000e+000 108794 -2.0790e+001 -1.2078e+002  1.0800e+000 27376 108503,108477,108768
 2.1000e+000 108817 -5.9964e+000 -1.1053e+002 -3.3820e+000 27376 108503,108768,108581
 2.1000e+000 108866 -4.7645e+001 -1.1117e+002 -7.6850e+000 27376 108373,108768,108840
 2.1000e+000 108889 -4.6306e+001 -9.8008e+001  9.8523e+000 27376 108373,108840,108451
 2.1000e+000 109186 -5.3456e+001 -1.5020e+002  1.7273e+001 26722 109209,108938,108912
 2.1000e+000 109163 -4.9676e+001 -1.4028e+002  1.3747e+001 26722 109281,109209,108912
 2.1000e+000 109140 -4.8053e+001 -1.3681e+002  1.3091e+001 26722 109281,108912,109042
 2.1000e+000 109117 -3.8684e+001 -1.5738e+002  1.0803e+001 26722 108938,108990,108964
 2.1000e+000 109094 -7.0290e+001 -1.2287e+002  7.7494e+000 26722 108912,109068,109042
 2.1000e+000 109235 -3.8924e+001 -1.4379e+002  1.5797e+001 26722 108990,108938,109209
 2.1000e+000 109258 -4.6810e+001 -1.5471e+002  1.2355e+001 26722 108990,109209,109016
 2.1000e+000 109307 -4.4593e+001 -1.4557e+002  7.4824e+000 26722 109016,109209,109281
 2.1000e+000 109330 -4.1512e+001 -1.3972e+002  6.1310e+000 26722 109016,109281,109042
 2.1000e+000 109732 -5.8149e+001 -1.2539e+002 -1.9064e+000 26310 109458,109588,109484
 2.1000e+000 109709 -5.2791e+001 -1.3734e+002 -1.4133e+001 26310 109458,109614,109588
 2.1000e+000 109686 -7.8804e+001 -1.3697e+002  1.8731e+001 26310 109510,109562,109536
 2.1000e+000 109663 -8.1666e+001 -1.3138e+002  8.0922e+000 26310 109484,109562,109510
 2.1000e+000 109640 -5.8757e+001 -1.2640e+002 -5.5414e-001 26310 109484,109588,109562
 2.1000e+000 110159 -4.8308e+001 -1.3201e+002  4.7317e+000 25642 110182,109940,109914
 2.1000e+000 110136 -4.8888e+001 -1.3899e+002  9.1319e+000 25642 110182,109914,109888
 2.1000e+000 110113 -4.2911e+001 -1.5528e+002 -1.9886e+001 25642 109966,110018,109992
 2.1000e+000 110090 -4.7149e+001 -1.4967e+002  1.1969e+001 25642 110254,109966,109940
 2.1000e+000 110067 -4.4602e+001 -1.3943e+002  8.0540e+000 25642 109862,110018,109888
 2.1000e+000 110044 -6.3567e+001 -1.3040e+002  1.3449e+001 25642 109836,110018,109862
 2.1000e+000 110208 -4.9828e+001 -1.3496e+002  9.1987e+000 25642 110254,109940,110182
 2.1000e+000 110231 -4.6838e+001 -1.4220e+002  6.8950e+000 25642 110018,110182,109888
 2.1000e+000 110280 -4.5166e+001 -1.6691e+002  8.5707e+000 25642 110018,109966,110254
 2.1000e+000 110303 -5.0625e+001 -1.5572e+002  5.9725e+000 25642 110018,110254,110182
 2.1000e+000 110632 -6.0637e+001 -1.2676e+002 -8.7214e+000 25188 110407,110485,110433
 2.1000e+000 110609 -7.2156e+001 -1.3782e+002 -4.1423e+000 25188 110407,110537,110485
 2.1000e+000 110586 -7.1133e+001 -1.3216e+002 -2.1408e+001 25188 110433,110485,110459
 2.1000e+000 110563 -6.6957e+001 -1.4164e+002  1.0993e+001 25188 110485,110537,110511
 2.1000e+000 110831 -1.4878e+001 -1.2498e+002  3.0558e+000 24726 110854,110707,110655
 2.1000e+000 110808 -1.3955e+001 -1.3295e+002  1.0043e+001 24726 110854,110655,110759
 2.1000e+000 110785 -1.6222e+001 -1.2781e+002  3.4957e+000 24726 110655,110707,110681
 2.1000e+000 110880 -1.3583e+001 -1.1720e+002  1.7880e+000 24726 110733,110707,110854
 2.1000e+000 110903 -1.0861e+001 -1.2184e+002  9.0895e+000 24726 110733,110854,110759
 2.1000e+000 111234  1.0986e+001 -8.9541e+001 -6.5625e+000 24222 111257,111087,111035
 2.1000e+000 111211  4.8133e+001 -7.3275e+001  6.3135e+000 24222 111257,111035,111009
 2.1000e+000 111188  4.0691e+001 -5.2812e+001 -2.2398e+001 24222 111035,111087,111061
 2.1000e+000 111165 -1.2000e+001 -7.2716e+001  5.9319e+000 24222 111087,111139,111113
 2.1000e+000 111283 -8.7128e+000 -6.6046e+001  6.9901e+000 24222 111139,111087,111257
 2.1000e+000 111306  6.5197e+000 -5.2202e+001  1.5160e+001 24222 111139,111257,111009
 2.1000e+000 111625 -2.1528e+001 -1.3182e+002 -9.8217e+000 23732 111648,111481,111455
 2.1000e+000 111602 -2.2966e+001 -1.3284e+002 -9.0709e+000 23732 111648,111455,111377
 2.1000e+000 111579  1.2683e+001 -7.0765e+001  1.3890e+001 23732 111377,111429,111403
 2.1000e+000 111556 -1.2205e+001 -1.3527e+002 -3.8885e+000 23732 111377,111455,111429
 2.1000e+000 111533 -2.1092e+001 -1.1723e+002 -4.7630e+000 23732 111351,111507,111377
 2.1000e+000 111674 -2.3503e+001 -1.3068e+002 -8.7647e+000 23732 111507,111481,111648
 2.1000e+000 111697 -2.4345e+001 -1.3229e+002 -7.8080e+000 23732 111507,111648,111377
 2.1000e+000 112156 -3.5393e+001 -1.4527e+002  8.7771e+000 23278 112179,111908,111882
 2.1000e+000 112133 -3.4474e+001 -1.3555e+002  1.8558e+000 23278 112179,111882,112012
 2.1000e+000 112110 -1.7427e+001 -1.5387e+002  5.2558e-001 23278 111908,111960,111934
 2.1000e+000 112087  1.3592e+001 -1.2300e+002 -1.5421e+001 23278 111882,112038,112012
 2.1000e+000 112064 -1.4313e+001 -1.2078e+002 -3.0714e+000 23278 111960,112012,111986
 2.1000e+000 112205 -3.2167e+001 -1.4004e+002  9.0610e-001 23278 111960,111908,112179
 2.1000e+000 112228 -2.7014e+001 -1.2844e+002 -6.7342e+000 23278 111960,112179,112012
 2.1000e+000 112685 -9.0589e+001 -2.1054e+002 -2.0941e+001 22938 112489,112567,112541
 2.1000e+000 112662 -7.7738e+001 -1.7997e+002 -2.0539e+001 22938 112437,112567,112489
 2.1000e+000 112639 -5.2057e+001 -1.5840e+002 -3.3360e+000 22938 112489,112541,112515
 2.1000e+000 112616 -8.9438e+001 -1.7147e+002 -1.8322e+001 22938 112411,112567,112437
 2.1000e+000 112593 -7.2209e+001 -2.2413e+002 -7.9078e+000 22938 112437,112489,112463
 2.1000e+000 113191  3.0131e+001 -1.3325e+002 -1.9695e+001 22534 113214,112998,112946
 2.1000e+000 113168 -5.2026e+000 -1.2471e+002 -4.7550e+000 22534 113286,113214,112946
 2.1000e+000 113145 -1.2732e+000 -1.2292e+002 -5.3172e+000 22534 113286,112946,112920
 2.1000e+000 113122 -4.3512e+001 -1.2124e+002 -2.1803e+001 22534 113358,113024,112998
 2.1000e+000 113099 -1.5084e+001 -1.2459e+002 -1.7249e+000 22534 112868,113050,112894
 2.1000e+000 113076 -4.3373e+001 -2.7432e+002 -5.4966e+001 22534 112946,112998,112972
 2.1000e+000 113240 -2.6313e+001 -1.4833e+002 -2.4233e+001 22534 113358,112998,113214
 2.1000e+000 113263 -8.8563e+000 -1.3553e+002 -1.6745e+000 22534 113050,113214,112894
 2.1000e+000 113312  2.3642e+000 -1.3036e+002 -4.4263e+000 22534 112894,113214,113286
 2.1000e+000 113335  8.7099e+000 -1.2635e+002 -6.1671e+000 22534 112894,113286,112920
 2.1000e+000 113384 -2.2733e+001 -1.0309e+002 -1.1562e+001 22534 113050,113024,113358
 2.1000e+000 113407  3.9918e+000 -1.2271e+002 -1.1857e+001 22534 113050,113358,113214
 2.1000e+000 113785 -7.1928e+001 -1.8203e+002  7.4035e+000 21978 113808,113615,113511
 2.1000e+000 113762 -5.7758e+001 -1.8334e+002  1.4770e+001 21978 113808,113511,113667
 2.1000e+000 113739 -4.0281e+001 -1.5130e+002 -5.5584e+000 21978 113511,113615,113537
 2.1000e+000 113716  1.2998e+001 -1.3350e+002 -8.6833e+000 21978 113537,113615,113589
 2.1000e+000 113693 -1.3766e+001 -1.8593e+002  5.1179e+000 21978 113537,113589,113563
 2.1000e+000 113834 -7.4884e+001 -1.8300e+002  2.5878e+001 21978 113641,113615,113808
 2.1000e+000 113857 -3.7640e+001 -1.6843e+002  3.4713e+001 21978 113641,113808,113667
 2.1000e+000 114284 -5.5362e+001 -1.4386e+002  3.4339e+000 21517 114013,114117,114039
 2.1000e+000 114261 -5.5204e+001 -1.4139e+002  9.3558e+000 21517 113961,114117,114013
 2.1000e+000 114238 -5.5899e+001 -1.6199e+002  6.5475e+000 21517 113961,114013,113987
 2.1000e+000 114215 -8.3242e+001 -1.5791e+002 -1.0217e+001 21517 114039,114117,114091
 2.1000e+000 114192 -6.1504e+001 -1.2545e+002  1.4097e+001 21517 113961,114143,114117
 2.1000e+000 114169  4.5518e+000 -1.2500e+002 -8.6853e+000 21517 114039,114091,114065
 2.1000e+000 114581 -2.9520e+001 -1.7707e+002  1.6770e+000 21027 114359,114463,114437
 2.1000e+000 114558 -1.6867e+001 -1.6094e+002  2.0796e+001 21027 114333,114463,114359
 2.1000e+000 114535 -1.3577e+001 -1.6184e+002 -4.5686e+000 21027 114359,114437,114385
 2.1000e+000 114512 -1.1140e+001 -1.6057e+002  1.4129e+001 21027 114307,114463,114333
 2.1000e+000 114489  2.4933e+001 -1.5067e+002 -7.6567e+000 21027 114385,114437,114411
 2.1000e+000 114912 -5.7346e+001 -1.4852e+002  2.3924e+000 20623 114713,114791,114765
 2.1000e+000 114889 -1.2961e+001 -1.2992e+002 -1.5703e+001 20623 114687,114791,114713
 2.1000e+000 114866 -4.5778e+001 -1.7423e+002 -8.3343e-001 20623 114687,114817,114791
 2.1000e+000 114843 -7.8594e+001 -1.7432e+002  1.1579e+001 20623 114713,114765,114739
 2.1000e+000 115290 -2.2660e+001 -1.3171e+002  4.7655e+000 20375 115313,115146,115094
 2.1000e+000 115267 -2.7937e+001 -1.3122e+002  7.4924e+000 20375 115313,115094,115042
 2.1000e+000 115244 -2.7152e+001 -1.2265e+002  2.1736e+000 20375 115385,115016,115172
 2.1000e+000 115221  2.3058e+001 -1.1338e+002  7.2612e+000 20375 115042,115094,115068
 2.1000e+000 115198 -3.0086e+001 -1.5170e+002  6.5958e+000 20375 115094,115146,115120
 2.1000e+000 115339 -4.0294e+001 -1.5270e+002 -6.0921e+000 20375 115172,115146,115313
 2.1000e+000 115362 -2.5455e+001 -1.2691e+002  1.2018e+000 20375 115385,115172,115313
 2.1000e+000 115411 -2.4595e+001 -1.2594e+002  6.4275e+000 20375 115042,115016,115385
 2.1000e+000 115434 -2.5389e+001 -1.3280e+002  6.0920e+000 20375 115042,115385,115313
 2.1000e+000 115891 -6.4754e+001 -1.3505e+002  1.7833e+001 19971 115617,115747,115643
 2.1000e+000 115868 -5.4292e+001 -1.0882e+002  1.5806e+001 19971 115617,115773,115747
 2.1000e+000 115845 -4.1163e+001 -1.9476e+002  9.3361e+000 19971 115643,115721,115695
 2.1000e+000 115822  1.5561e+000 -1.0019e+002 -5.8304e-003 19971 115643,115747,115721
 2.1000e+000 115799  2.0994e+001 -2.1122e+002 -8.5531e-001 19971 115643,115695,115669
 2.1000e+000 115992 -1.0369e+002 -2.6873e+002 -4.7784e+001 19659 115914,115966,115940
 2.1000e+000 116142 -1.6580e+001 -5.4844e+001  1.6620e+000 18997 116041,116093,116067
 2.1000e+000 116119 -3.2150e+001 -9.5539e+001  6.9299e+000 18997 116015,116093,116041
 2.1000e+000 116343 -2.6199e+001 -1.5640e+002 -4.2748e+000 18707 116193,116245,116219
 2.1000e+000 116320 -2.9401e+001 -1.6106e+002 -8.8128e+000 18707 116193,116271,116245
 2.1000e+000 116297 -1.3007e+001 -1.2513e+002 -4.9713e+000 18707 116167,116271,116193
 2.1000e+000 116747 -2.1637e+001 -1.3475e+002 -1.4658e+000 18301 116525,116629,116551
 2.1000e+000 116724 -2.0535e+001 -1.1723e+002  1.5595e+000 18301 116473,116629,116525
 2.1000e+000 116701 -1.7670e+001 -1.1904e+002 -8.4840e+000 18301 116473,116525,116499
 2.1000e+000 116678 -7.6178e+000 -1.4094e+002 -2.0945e+000 18301 116551,116603,116577
 2.1000e+000 116655 -2.7179e+001 -1.4789e+002 -5.9470e+000 18301 116551,116629,116603
 2.1000e+000 117147 -7.0747e+001 -1.6817e+002 -3.6849e-001 17747 116899,117029,116925
 2.1000e+000 117124 -3.9391e+001 -1.2541e+002  1.6077e+001 17747 116873,117029,116899
 2.1000e+000 117101 -6.9686e+001 -1.6727e+002  1.4497e-001 17747 116925,117029,116951
 2.1000e+000 117078 -6.1877e+001 -1.4605e+002  1.4691e+000 17747 116951,117029,117003
 2.1000e+000 117055 -8.4242e+001 -1.8391e+002 -9.6082e+000 17747 116951,117003,116977
 2.1000e+000 117368  3.8044e+001 -1.5462e+002  7.6998e-001 17293 117244,117296,117270
 2.1000e+000 117345  1.3603e+001 -1.5265e+002 -4.5392e+000 17293 117192,117296,117244
 2.1000e+000 117322 -1.2083e+001 -1.4523e+002 -2.0467e+000 17293 117192,117244,117218
 2.1000e+000 117699 -1.5767e+001 -1.1801e+002 -1.2935e+001 16896 117526,117604,117552
 2.1000e+000 117676 -7.5468e+001 -1.7829e+002  1.1139e+001 16896 117500,117604,117526
 2.1000e+000 117653 -8.2446e+001 -1.4195e+002 -6.6799e+000 16896 117552,117604,117578
 2.1000e+000 117630 -6.0668e+001 -2.2766e+002  2.3700e+001 16896 117474,117604,117500
 2.1000e+000 117849 -1.6109e+002 -3.1174e+002 -1.2204e+001 16534 117722,117774,117748
 2.1000e+000 117826 -1.2694e+002 -3.8053e+002 -5.2313e+001 16534 117722,117800,117774
 2.1000e+000 118070 -1.8184e+001 -1.4559e+002  1.5367e+001 16194 117946,117998,117972
 2.1000e+000 118047 -3.3747e+001 -1.7238e+002  8.8301e+000 16194 117894,117998,117946
 2.1000e+000 118024 -4.3100e+001 -1.5789e+002 -2.8848e+000 16194 117894,117946,117920
 2.1000e+000 118173 -1.5983e+001 -1.5937e+002  0.0000e+000 15968 118095,118147,118121
 2.1000e+000 118276 -4.6580e+001 -1.5561e+002  2.1692e+000 15433 118299,118198,118250
 2.1000e+000 118325 -4.8728e+001 -1.6062e+002  2.2188e+000 15433 118224,118198,118299
 2.1000e+000 118450 -8.4226e+001 -1.8574e+002  1.7759e+001 421 118372,118424,118398
 2.2000e+000 69891 -2.7401e+001 -2.1276e+002  9.4381e+000 68988 69447,69681,69629
 2.2000e+000 69868  1.8964e+001 -1.9324e+002  8.3518e+000 68988 69421,69681,69447
 2.2000e+000 69845  1.0871e+001 -9.7379e+001  2.9190e+000 68988 69447,69629,69577
 2.2000e+000 69822 -5.6817e+001 -2.1968e+002 -2.4928e+001 68988 69447,69577,69473
 2.2000e+000 69799 -3.3701e+000 -2.5614e+002  4.0810e+001 68988 69629,69681,69655
 2.2000e+000 69776 -6.2706e+001 -1.2869e+002  3.0142e+000 68988 69577,69629,69603
 2.2000e+000 69753 -4.2622e+001 -1.9324e+002 -3.0745e+001 68988 69473,69577,69551
 2.2000e+000 69730 -7.0210e+001 -4.0149e+002 -4.0564e+001 68988 69473,69551,69525
 2.2000e+000 69707 -1.1804e+002 -2.6242e+002  2.4493e-001 68988 69473,69525,69499
 2.2000e+000 69992 -1.1033e+002 -2.2292e+002 -4.4279e+001 68676 69914,69966,69940
 2.2000e+000 70392 -7.0736e+001 -1.6777e+002  1.3055e+001 68478 70118,70248,70144
 2.2000e+000 70369  2.9969e+001 -1.6879e+002  4.1782e+001 68478 70118,70274,70248
 2.2000e+000 70346 -4.8389e+001 -1.2689e+002 -1.7682e+000 68478 70144,70222,70196
 2.2000e+000 70323 -3.8158e+001 -1.0219e+002 -3.4096e+000 68478 70144,70248,70222
 2.2000e+000 70300 -5.3147e+001 -1.3736e+002 -4.0179e+000 68478 70144,70196,70170
 2.2000e+000 70841  5.9857e+001 -1.0565e+002 -3.8212e+001 68280 70570,70622,70596
 2.2000e+000 70818 -4.0900e+001 -1.2235e+002 -1.0092e+001 68280 70544,70622,70570
 2.2000e+000 70795 -2.2812e+001 -8.0489e+001 -7.1975e+000 68280 70544,70674,70622
 2.2000e+000 70772 -2.6081e+001 -6.6054e+001  2.5451e+000 68280 70622,70674,70648
 2.2000e+000 70749 -4.5262e+001 -1.3448e+002  9.9971e+000 68280 70518,70674,70544
 2.2000e+000 70726  7.6098e+001 -1.3866e+002  4.6018e+001 68280 70518,70700,70674
 2.2000e+000 70991 -6.5761e+000 -6.3289e+002  1.8518e+001 67968 70864,70916,70890
 2.2000e+000 70968 -1.6324e+002 -6.3248e+002  6.8351e+001 67968 70864,70942,70916
 2.2000e+000 71141 -3.0612e+002 -6.0344e+002 -2.6923e+001 67770 71040,71092,71066
 2.2000e+000 71118 -2.7181e+002 -7.1582e+002  2.8298e+001 67770 71014,71092,71040
 2.2000e+000 71651 -9.0512e+000 -1.1205e+002 -1.4595e+001 67366 71746,71674,71458
 2.2000e+000 71628 -3.2715e+000 -8.3409e+001 -2.0423e+001 67366 71674,71354,71510
 2.2000e+000 71605 -2.2419e+001 -1.2971e+002 -8.5017e+000 67366 71746,71458,71432
 2.2000e+000 71582 -4.8580e+001 -1.2065e+002 -3.1908e+000 67366 71354,71432,71380
 2.2000e+000 71559 -5.1067e+001 -9.3680e+001 -1.6210e+001 67366 71380,71432,71406
 2.2000e+000 71536 -1.2245e+001 -1.5349e+001  2.9386e+000 67366 71328,71510,71354
 2.2000e+000 71700  3.1107e+000 -9.0280e+001 -1.9863e+001 67366 71484,71458,71674
 2.2000e+000 71723 -9.1009e+000 -9.2440e+001 -9.4093e+000 67366 71484,71674,71510
 2.2000e+000 71772 -2.6135e+001 -9.1157e+001 -1.9804e+001 67366 71354,71674,71746
 2.2000e+000 71795 -2.9162e+001 -9.9626e+001 -1.8015e+001 67366 71354,71746,71432
 2.2000e+000 71896 -1.1653e+002 -2.5891e+002  0.0000e+000 67146 71818,71870,71844
 2.2000e+000 71997 -1.2011e+002 -2.0543e+002  4.1952e+001 66948 71919,71971,71945
 2.2000e+000 72149  4.6171e+000 -1.3614e+002 -2.2562e+001 66700 72172,72074,72048
 2.2000e+000 72126 -4.0201e+001 -1.6282e+002 -9.5473e+000 66700 72172,72048,72022
 2.2000e+000 72198 -7.3356e+001 -1.6830e+002  7.1638e+000 66700 72244,72172,72100
 2.2000e+000 72221 -6.1880e+001 -1.5397e+002 -1.0414e+001 66700 72100,72172,72022
 2.2000e+000 72270 -3.4280e+001 -8.1998e+001 -1.6285e+001 66700 72074,72172,72244
 2.2000e+000 72623 -4.3866e+001 -1.4754e+002  5.5503e+000 66502 72424,72502,72450
 2.2000e+000 72600 -3.2879e+001 -1.1864e+002  4.6800e+000 66502 72398,72502,72424
 2.2000e+000 72577 -2.4751e+001 -1.3810e+002 -1.4706e+000 66502 72398,72528,72502
 2.2000e+000 72554 -4.1667e+001 -1.2744e+002 -6.1393e-001 66502 72450,72502,72476
 2.2000e+000 72920 -8.6594e+001 -1.8244e+002  5.7003e+000 65941 72672,72776,72750
 2.2000e+000 72897 -8.3937e+001 -1.5341e+002  2.0241e+001 65941 72646,72776,72672
 2.2000e+000 72874 -7.8887e+001 -1.8282e+002  1.0261e+001 65941 72672,72750,72724
 2.2000e+000 72851 -8.5356e+001 -1.4237e+002  2.2135e+001 65941 72672,72724,72698
 2.2000e+000 72828 -6.2244e+001 -1.4668e+002  1.6590e+001 65941 72646,72802,72776
 2.2000e+000 73241 -1.2897e+000 -1.2368e+002  1.2156e+001 65743 73264,73071,73045
 2.2000e+000 73218 -3.7186e+001 -1.4090e+002  1.7232e+001 65743 73480,73264,73045
 2.2000e+000 73195 -3.0195e+001 -1.2279e+002 -1.2224e+000 65743 73336,72967,73097
 2.2000e+000 73172 -7.0079e+001 -1.1087e+002 -1.3359e+001 65743 73408,72993,72967
 2.2000e+000 73149 -2.3780e+001 -1.2419e+002 -1.8511e+000 65743 72967,73123,73097
 2.2000e+000 73290 -1.7237e+001 -1.3137e+002  3.8432e+000 65743 73097,73071,73264
 2.2000e+000 73313 -2.3414e+001 -1.1786e+002  7.6354e+000 65743 73336,73097,73264
 2.2000e+000 73362 -5.6975e+001 -1.2887e+002 -7.9300e+000 65743 73408,72967,73336
 2.2000e+000 73385 -1.6791e+001 -1.1586e+002  3.3580e+000 65743 73019,73336,73264
 2.2000e+000 73434 -4.8185e+001 -7.7557e+001  1.1097e+001 65743 73019,72993,73408
 2.2000e+000 73457 -1.7340e+001 -1.0133e+002  8.7027e+000 65743 73019,73408,73336
 2.2000e+000 73506 -6.5794e+000 -8.5701e+001  5.2544e+000 65743 73019,73264,73480
 2.2000e+000 73989  1.0275e+001 -9.4537e+001  1.4220e+001 65453 73793,73845,73819
 2.2000e+000 73966 -4.1320e+001 -1.0646e+002  1.7691e+001 65453 73741,73845,73793
 2.2000e+000 73943 -1.8283e+000 -8.3215e+001  8.0530e+000 65453 73715,73845,73741
 2.2000e+000 73920 -2.9340e+001 -1.1651e+002  2.8005e+001 65453 73741,73793,73767
 2.2000e+000 73897  1.4811e+001 -4.1577e+001  5.2054e+000 65453 73715,73871,73845
 2.2000e+000 74357 -6.4049e+000 -1.1536e+002 -5.1777e+001 65141 74380,74138,74086
 2.2000e+000 74334 -4.7607e+001 -1.8448e+002 -3.3832e+001 65141 74380,74086,74060
 2.2000e+000 74311 -4.4512e+001 -1.7691e+002 -1.2652e+001 65141 74138,74190,74164
 2.2000e+000 74288 -5.8254e+001 -1.9970e+002 -8.1186e+000 65141 74060,74216,74190
 2.2000e+000 74265 -6.2881e+001 -2.1354e+002  2.6876e+000 65141 74034,74216,74060
 2.2000e+000 74242 -2.0110e+001 -5.1138e+001 -2.2669e+001 65141 74086,74138,74112
 2.2000e+000 74406 -3.1523e+001 -1.7647e+002 -1.8606e+001 65141 74190,74138,74380
 2.2000e+000 74429 -4.4320e+001 -2.0048e+002 -6.9489e+000 65141 74190,74380,74060
 2.2000e+000 74937 -6.5603e+001 -1.2541e+002 -3.4452e+001 64737 74614,74666,74640
 2.2000e+000 74914 -7.8855e+001 -1.6347e+002 -2.4865e+001 64737 74614,74796,74666
 2.2000e+000 74891 -5.5522e+001 -1.0888e+002 -2.2800e+000 64737 74960,74718,74666
 2.2000e+000 74868 -4.7517e+001 -1.2176e+002 -1.4627e+001 64737 74960,74666,74770
 2.2000e+000 74845 -4.9864e+001 -9.9057e+001 -1.5917e+001 64737 74666,74796,74770
 2.2000e+000 74822 -5.3521e+001 -1.1813e+002  3.5898e+000 64737 74666,74718,74692
 2.2000e+000 74986 -6.0375e+001 -1.2220e+002 -2.3547e+000 64737 74744,74718,74960
 2.2000e+000 75009 -5.5923e+001 -1.4169e+002 -1.5059e+001 64737 74744,74960,74770
 2.2000e+000 75306 -1.2705e+001 -1.1393e+002  1.8706e+001 64133 75329,75110,75084
 2.2000e+000 75283 -2.1632e+001 -1.3285e+002  8.0720e+000 64133 75401,75329,75084
 2.2000e+000 75260 -1.5357e+001 -1.3832e+002  1.2660e+001 64133 75401,75084,75058
 2.2000e+000 75237 -2.2304e+001 -1.5014e+002  1.6597e+001 64133 75473,75136,75110
 2.2000e+000 75214 -3.4882e+001 -1.1052e+002 -4.8958e-001 64133 75032,75188,75162
 2.2000e+000 75355 -2.4880e+001 -1.4333e+002  1.4540e+001 64133 75473,75110,75329
 2.2000e+000 75378 -2.2022e+001 -1.2907e+002  2.1072e+000 64133 75162,75329,75032
 2.2000e+000 75427 -1.8905e+001 -1.2248e+002  4.3120e+000 64133 75032,75329,75401
 2.2000e+000 75450 -4.9810e+001 -1.5808e+002  2.3662e+001 64133 75545,75401,75058
 2.2000e+000 75499 -2.7379e+001 -1.4121e+002  5.1246e+000 64133 75162,75136,75473
 2.2000e+000 75522 -2.5987e+001 -1.2551e+002  6.3664e+000 64133 75162,75473,75329
 2.2000e+000 75571 -1.4590e+001 -8.1573e+001  9.0512e+000 64133 75032,75401,75545
 2.2000e+000 75851 -3.6785e+001 -1.1895e+002  2.7155e+000 63843 75874,75753,75727
 2.2000e+000 75828 -3.0646e+001 -1.1771e+002 -5.5529e+000 63843 75946,75874,75727
 2.2000e+000 75805 -3.8316e+001 -1.2435e+002 -2.6320e+000 63843 76018,75946,75727
 2.2000e+000 75900 -2.7197e+001 -1.1492e+002 -3.9253e+000 63843 75779,75753,75874
 2.2000e+000 75923 -2.8567e+001 -9.5367e+001 -1.4442e+001 63843 75779,75874,75675
 2.2000e+000 75972 -3.9686e+001 -1.1141e+002 -4.6902e+000 63843 75675,75874,75946
 2.2000e+000 75995 -3.5910e+001 -1.1724e+002 -8.0613e+000 63843 75675,75946,75701
 2.2000e+000 76044 -4.1162e+001 -1.2430e+002 -1.2045e+001 63843 75701,75946,76018
 2.2000e+000 76454  1.7399e+001 -4.8483e+000 -1.7683e+001 63439 76477,76255,76229
 2.2000e+000 76431 -1.1344e+001 -5.5585e+001 -5.5281e-001 63439 76477,76229,76359
 2.2000e+000 76408  3.5769e+001 -3.0710e+001  3.9601e+001 63439 76307,76359,76333
 2.2000e+000 76385  4.3389e+000 -6.2440e+001  6.1252e-001 63439 76255,76307,76281
 2.2000e+000 76503 -9.3177e+000 -4.3749e+001  1.2849e+001 63439 76307,76255,76477
 2.2000e+000 76526 -9.7504e+000 -6.4321e+001  2.4862e+001 63439 76307,76477,76359
 2.2000e+000 76926 -2.7453e+001 -9.5588e+001 -1.7051e+000 63049 76704,76782,76756
 2.2000e+000 76903 -3.8808e+001 -9.7901e+001 -1.1531e+001 63049 76704,76808,76782
 2.2000e+000 76880 -2.7158e+001 -1.1435e+002  2.0481e+000 63049 76704,76756,76730
 2.2000e+000 76857 -2.5956e+001 -5.6979e+001  4.0494e+000 63049 76678,76808,76704
 2.2000e+000 76834 -1.1309e+001 -1.3550e+001 -1.2713e+001 63049 76652,76808,76678
 2.2000e+000 77076  3.2008e+000 -1.4827e+002 -1.3275e+000 62737 76975,77027,77001
 2.2000e+000 77053  7.9383e+000 -1.6527e+002 -1.0598e+001 62737 76949,77027,76975
 2.2000e+000 77324 -5.8229e+001 -1.5187e+002  4.4938e+000 62277 77347,77177,77125
 2.2000e+000 77301 -5.7576e+001 -1.4602e+002 -4.3257e+000 62277 77347,77125,77229
 2.2000e+000 77278 -5.7429e+001 -1.4998e+002 -6.7080e+000 62277 77099,77229,77125
 2.2000e+000 77255 -6.1569e+001 -1.7674e+002  7.4851e+000 62277 77125,77177,77151
 2.2000e+000 77373 -6.3050e+001 -1.6902e+002  1.0911e+001 62277 77203,77177,77347
 2.2000e+000 77396 -5.2537e+001 -1.5393e+002  4.5400e-001 62277 77203,77347,77229
 2.2000e+000 77857 -2.7158e+001 -1.7296e+002  3.8795e+000 61758 77635,77739,77661
 2.2000e+000 77834 -4.4892e+001 -1.8712e+002 -4.6062e+000 61758 77583,77739,77635
 2.2000e+000 77811 -4.5312e+001 -2.1444e+002 -1.9487e+001 61758 77583,77635,77609
 2.2000e+000 77788  7.2343e+000 -1.7384e+002  1.7495e+001 61758 77661,77713,77687
 2.2000e+000 77765 -3.3965e+001 -2.0270e+002 -1.5711e+000 61758 77661,77739,77713
 2.2000e+000 78491 -5.3904e+001 -1.0637e+002  3.4231e+000 61418 78171,78301,78249
 2.2000e+000 78468 -4.5705e+001 -8.1427e+001  1.3019e+001 61418 78145,78301,78171
 2.2000e+000 78445 -4.0527e+001 -9.4971e+001 -6.3605e+000 61418 78171,78249,78223
 2.2000e+000 78422 -4.3170e+001 -7.9477e+001 -1.0425e+001 61418 78145,78327,78301
 2.2000e+000 78399 -5.6602e+001 -1.2140e+002 -3.9742e+000 61418 78249,78301,78275
 2.2000e+000 78376 -2.7296e+001 -1.0354e+002 -8.1912e+000 61418 78171,78223,78197
 2.2000e+000 78353 -5.6152e+001 -1.4911e+002 -2.8021e+001 61418 78119,78327,78145
 2.2000e+000 78690 -5.1522e+001 -1.2794e+002  1.7346e+000 61014 78713,78566,78540
 2.2000e+000 78667 -3.6372e+001 -1.3552e+002  5.4029e+000 61014 78713,78540,78618
 2.2000e+000 78644 -5.3162e+001 -1.5274e+002 -1.5669e+001 61014 78514,78618,78540
 2.2000e+000 78739 -2.6781e+001 -1.1630e+002  1.4642e+001 61014 78592,78566,78713
 2.2000e+000 78762 -3.9774e+001 -1.3648e+002  3.9754e+000 61014 78785,78713,78618
 2.2000e+000 78811 -1.0439e+001 -1.2543e+002 -5.5103e-001 61014 78592,78713,78785
 2.2000e+000 79398 -9.4606e+000 -1.0917e+002 -1.4952e+001 60624 79101,79179,79153
 2.2000e+000 79375 -1.3622e+000 -1.2167e+002 -9.8978e+000 60624 79101,79231,79179
 2.2000e+000 79352 -1.2107e+001 -1.3079e+002 -1.7224e+001 60624 79075,79231,79101
 2.2000e+000 79329  5.2510e+001 -1.4439e+002  1.0373e+001 60624 79075,79257,79231
 2.2000e+000 79306  1.0682e+001 -9.2379e+001 -1.0501e+001 60624 79179,79231,79205
 2.2000e+000 79283 -1.4370e+000 -9.1954e+001 -5.7097e+000 60624 79101,79153,79127
 2.2000e+000 79776 -5.1476e+001 -1.6216e+002  1.7602e+001 60070 79528,79658,79606
 2.2000e+000 79753 -4.7949e+001 -1.3005e+002 -3.9533e-001 60070 79502,79658,79528
 2.2000e+000 79730 -6.8444e+001 -1.5582e+002  2.5430e+001 60070 79528,79606,79580
 2.2000e+000 79707 -6.6536e+000 -1.4877e+002  8.0375e+000 60070 79606,79658,79632
 2.2000e+000 79684 -4.7021e+000 -9.4594e+001 -2.4496e+001 60070 79528,79580,79554
 2.2000e+000 80105 -4.3602e+001 -1.2981e+002  1.3037e+001 59758 80128,79958,79906
 2.2000e+000 80082 -4.4721e+001 -1.2069e+002  8.3657e+000 59758 80128,79906,80010
 2.2000e+000 80059 -6.1741e+001 -1.3457e+002  4.1663e+001 59758 79906,79958,79932
 2.2000e+000 80036 -6.4651e+001 -1.3470e+002  2.2686e+000 59758 79880,80010,79906
 2.2000e+000 80154 -4.4264e+001 -1.3570e+002  1.3762e+001 59758 79984,79958,80128
 2.2000e+000 80177 -4.7106e+001 -1.2890e+002  9.2472e+000 59758 79984,80128,80010
 2.2000e+000 80376 -3.4073e+001 -1.2744e+002  2.5275e+000 59312 80226,80304,80252
 2.2000e+000 80353 -3.3156e+001 -1.3066e+002  2.6099e+000 59312 80200,80304,80226
 2.2000e+000 80330 -5.3281e+001 -1.1307e+002  3.4471e+001 59312 80252,80304,80278
 2.2000e+000 80805 -4.3626e+001 -9.5324e+001 -2.0194e+001 58908 80900,80828,80638
 2.2000e+000 80782 -2.2879e+001 -1.1494e+002 -2.9568e+001 58908 80828,80560,80508
 2.2000e+000 80759 -4.7880e+001 -8.7035e+001 -6.0213e+000 58908 80900,80638,80612
 2.2000e+000 80736 -1.6052e+001 -1.0417e+002  4.6371e+001 58908 80482,80664,80508
 2.2000e+000 80713 -3.1330e+001 -8.5533e+001 -3.7356e-002 58908 80560,80612,80586
 2.2000e+000 80690 -3.9791e+001 -3.2277e+002 -5.9527e+001 58908 80508,80560,80534
 2.2000e+000 80854 -1.4862e+001 -1.0261e+002 -3.0554e+000 58908 80664,80638,80828
 2.2000e+000 80877 -3.0664e+001 -1.6379e+002  3.0968e+000 58908 80664,80828,80508
 2.2000e+000 80926 -3.2566e+001 -6.9988e+001 -2.3438e+001 58908 80560,80828,80900
 2.2000e+000 80949 -4.1122e+001 -7.0648e+001 -7.2404e+000 58908 80560,80900,80612
 2.2000e+000 81246 -7.5468e+000 -8.3969e+001 -3.7576e+000 58482 81076,81128,81102
 2.2000e+000 81223 -3.3726e+001 -1.6180e+002 -1.8046e+001 58482 80972,81128,81076
 2.2000e+000 81200 -1.2805e+001 -1.0425e+002 -2.2033e+001 58482 80972,81076,81050
 2.2000e+000 81177 -6.3123e+001 -1.8096e+002 -4.6806e-001 58482 80998,81050,81024
 2.2000e+000 81154 -1.7259e+001 -1.3128e+002 -1.9772e+001 58482 80972,81050,80998
 2.2000e+000 81754 -3.7378e+001 -9.2148e+001  6.9870e+000 57828 81457,81613,81483
 2.2000e+000 81731 -4.6144e+001 -1.0836e+002  1.1802e+000 57828 81431,81613,81457
 2.2000e+000 81708 -4.1426e+001 -1.0151e+002  9.8541e+000 57828 81483,81613,81509
 2.2000e+000 81685 -5.1430e+001 -1.2427e+002  1.4587e+001 57828 81509,81613,81587
 2.2000e+000 81662 -4.9605e+001 -1.7897e+002  3.1600e+001 57828 81509,81587,81535
 2.2000e+000 81639 -2.7017e+001 -1.3065e+002  1.9572e+001 57828 81535,81587,81561
 2.2000e+000 82002 -7.4442e+001 -1.9850e+002 -1.5255e+000 57374 82025,81855,81829
 2.2000e+000 81979 -7.8457e+001 -1.8567e+002  8.7030e+000 57374 82025,81829,81907
 2.2000e+000 81956 -7.8913e+001 -1.6909e+002  6.2869e+000 57374 81803,81907,81829
 2.2000e+000 81933 -3.9762e+001 -1.4438e+002  1.7669e+001 57374 81777,81907,81803
 2.2000e+000 82051 -7.5452e+001 -1.8346e+002 -1.8162e+000 57374 81881,81855,82025
 2.2000e+000 82074 -7.5284e+001 -1.7115e+002  1.2154e+001 57374 81881,82025,81907
 2.2000e+000 82356 -4.0847e+001 -9.9756e+001 -3.6913e+000 56913 82180,82232,82206
 2.2000e+000 82333 -3.3072e+001 -9.2335e+001  1.6408e+001 56913 82180,82284,82232
 2.2000e+000 82310 -1.4969e+001 -6.8657e+001  2.4400e+001 56913 82379,82232,82284
 2.2000e+000 82405  1.1719e+001 -6.8633e+001  1.6005e+000 56913 82258,82232,82379
 2.2000e+000 82764 -3.1481e+001 -5.9177e+001 -6.7161e+000 56523 82614,82666,82640
 2.2000e+000 82741 -2.2043e+001 -5.6308e+001 -1.1465e+001 56523 82614,82692,82666
 2.2000e+000 82718 -2.2239e+001 -5.8308e+001 -1.4385e+001 56523 82588,82692,82614
 2.2000e+000 83368 -9.4123e+000 -1.3764e+002 -4.6597e+000 55969 82973,83155,83129
 2.2000e+000 83345  1.2863e+000 -1.3369e+002 -9.7393e+000 55969 82973,83181,83155
 2.2000e+000 83322 -3.6739e+001 -1.1988e+002 -3.5007e+000 55969 82973,83129,82999
 2.2000e+000 83299 -6.2740e+001 -1.2481e+002  6.4635e+000 55969 83391,83025,82999
 2.2000e+000 83276 -4.8741e+001 -1.2656e+002  1.3069e+000 55969 83391,82999,83129
 2.2000e+000 83253 -6.3467e+000 -9.5836e+001  2.1564e+001 55969 83077,83129,83103
 2.2000e+000 83230 -5.3491e+001 -9.1294e+001 -7.2159e+000 55969 83025,83077,83051
 2.2000e+000 83207 -1.4739e+000 -1.2894e+002  1.2010e+001 55969 82947,83181,82973
 2.2000e+000 83417 -4.8924e+001 -1.1881e+002  7.5085e+000 55969 83077,83025,83391
 2.2000e+000 83440 -4.3802e+001 -1.2536e+002  1.3376e+000 55969 83077,83391,83129
 2.2000e+000 83946 -6.8182e+001 -1.7481e+002  3.2881e+001 55771 83969,83779,83727
 2.2000e+000 83923 -4.8503e+001 -1.3590e+002  1.8443e+001 55771 83969,83727,83623
 2.2000e+000 83900 -5.8447e+001 -6.7021e+001  1.0146e+001 55771 83623,83727,83649
 2.2000e+000 83877 -3.5440e+001 -3.0439e+002  2.1403e+001 55771 83727,83779,83753
 2.2000e+000 83854 -8.8566e+001 -1.6390e+002  4.3129e+001 55771 83675,83727,83701
 2.2000e+000 83831 -1.0523e+002 -1.2511e+002  6.3438e+001 55771 83649,83727,83675
 2.2000e+000 83995 -6.1219e+001 -1.8215e+002 -1.6519e+001 55771 83805,83779,83969
 2.2000e+000 84018 -1.9006e+001 -1.0327e+002 -3.5338e+001 55771 83805,83969,83623
 2.2000e+000 84168 -1.7901e+001 -8.2098e+001 -8.7727e-001 55367 84191,84067,84041
 2.2000e+000 84145 -1.9602e+001 -8.8384e+001  2.8353e-001 55367 84191,84041,84119
 2.2000e+000 84217 -2.1359e+001 -7.6426e+001 -1.1298e+000 55367 84093,84067,84191
 2.2000e+000 84240 -2.3480e+001 -8.1719e+001  1.7081e+000 55367 84093,84191,84119
 2.2000e+000 84571 -2.1890e+001 -1.5368e+002 -1.6396e+001 54913 84398,84450,84424
 2.2000e+000 84548 -1.5895e+001 -1.3899e+002 -7.9022e+000 54913 84372,84450,84398
 2.2000e+000 84525 -3.8058e+001 -1.5668e+002  4.9116e+000 54913 84346,84450,84372
 2.2000e+000 84502 -1.4072e+001 -1.0148e+002 -1.3440e+001 54913 84346,84476,84450
 2.2000e+000 85126 -7.4965e+001 -1.7097e+002 -9.4377e+000 54402 84858,84936,84910
 2.2000e+000 85103 -5.5524e+001 -1.2884e+002 -1.6357e+001 54402 84806,84936,84858
 2.2000e+000 85080 -6.8806e+001 -1.1858e+002 -1.3456e+001 54402 84780,84936,84806
 2.2000e+000 85057 -5.7165e+001 -1.4405e+002 -7.2101e+000 54402 84806,84858,84832
 2.2000e+000 85034 -5.9901e+001 -1.1098e+002  3.8697e+000 54402 84780,84962,84936
 2.2000e+000 85011 -9.4360e+001 -9.6029e+001 -6.6757e+000 54402 84858,84910,84884
 2.2000e+000 84988 -5.8045e+001 -1.0800e+002  4.7445e+000 54402 84754,84962,84780
 2.2000e+000 85396 -4.4972e+001 -5.6218e+001 -6.0080e+000 53998 85197,85249,85223
 2.2000e+000 85373 -3.3363e+001 -8.3118e+001  2.4113e-001 53998 85197,85275,85249
 2.2000e+000 85350 -4.9228e+001 -9.5466e+001 -5.5402e+000 53998 85171,85275,85197
 2.2000e+000 85327 -1.7703e+001 -8.4781e+001 -8.8592e+000 53998 85171,85301,85275
 2.2000e+000 85749 -3.3422e+001 -1.2833e+002 -3.2087e+000 53636 85524,85628,85550
 2.2000e+000 85726 -5.4288e+001 -1.4662e+002  4.7225e+000 53636 85524,85654,85628
 2.2000e+000 85703 -1.9308e+001 -1.3374e+002 -1.2484e+001 53636 85550,85602,85576
 2.2000e+000 85680 -3.3437e+001 -1.2766e+002 -5.8670e+000 53636 85550,85628,85602
 2.2000e+000 86127  5.8682e+000 -1.2078e+002  2.1984e+001 52982 86150,85957,85879
 2.2000e+000 86104 -2.6541e+001 -1.4418e+002  1.1769e+001 52982 86150,85879,85853
 2.2000e+000 86081  8.3549e+000 -1.8538e+002  3.8866e+001 52982 85957,86009,85983
 2.2000e+000 86058 -3.5826e+001 -1.3023e+002  1.7764e+001 52982 85879,85957,85931
 2.2000e+000 86035 -1.6377e+001 -1.1108e+002  1.9631e+000 52982 85879,85931,85905
 2.2000e+000 86176  2.6919e+001 -1.4693e+002  1.7705e+001 52982 86009,85957,86150
 2.2000e+000 86199  7.6901e+000 -1.6263e+002  1.0706e+001 52982 86009,86150,85853
 2.2000e+000 86398 -1.8061e+001 -9.5732e+001  8.1158e+000 52542 86421,86248,86222
 2.2000e+000 86375 -3.4855e+001 -9.9516e+001  2.9407e-001 52542 86421,86222,86300
 2.2000e+000 86352 -2.9985e+001 -9.6800e+001 -4.5567e+000 52542 86222,86326,86300
 2.2000e+000 86447  1.5255e-001 -9.7178e+001  1.6555e+001 52542 86274,86248,86421
 2.2000e+000 86470 -1.6631e+001 -1.0475e+002  6.5911e+000 52542 86274,86421,86300
 2.2000e+000 86669 -3.2676e+001 -9.2482e+001 -1.9914e+001 52230 86692,86571,86545
 2.2000e+000 86646 -3.1835e+001 -8.7570e+001 -8.9144e+000 52230 86692,86545,86519
 2.2000e+000 86623 -5.5954e+001 -8.7434e+001 -1.2694e+001 52230 86493,86597,86519
 2.2000e+000 86718 -3.8492e+001 -9.5169e+001 -2.0963e+001 52230 86597,86571,86692
 2.2000e+000 86741 -4.5176e+001 -9.3514e+001 -1.0392e+001 52230 86597,86692,86519
 2.2000e+000 87153 -6.3687e+001 -9.4065e+001  5.4245e+000 51640 86980,87058,87032
 2.2000e+000 87130 -5.8408e+001 -9.9263e+001  3.4760e+000 51640 86928,87058,86980
 2.2000e+000 87107 -5.5681e+001 -1.3196e+002 -1.1820e+001 51640 86928,86980,86954
 2.2000e+000 87084 -3.8564e+001 -8.3374e+001  2.9446e+000 51640 86980,87032,87006
 2.2000e+000 87659 -2.3258e+001 -9.0492e+001  9.4179e+000 51029 87682,87440,87362
 2.2000e+000 87636 -2.8021e+001 -9.9397e+001 -2.8413e+000 51029 87682,87362,87336
 2.2000e+000 87613 -4.2958e+001 -1.5085e+002 -4.6859e+000 51029 87440,87518,87466
 2.2000e+000 87590 -4.6069e+001 -9.4604e+001  1.2323e+001 51029 87362,87440,87414
 2.2000e+000 87567 -4.5826e+001 -9.0005e+001  3.1506e+001 51029 87362,87414,87388
 2.2000e+000 87544 -5.5596e+001 -1.3045e+002  7.6277e-001 51029 87466,87518,87492
 2.2000e+000 87708 -1.9873e+001 -1.0452e+002  2.9152e+000 51029 87518,87440,87682
 2.2000e+000 87731 -2.2622e+001 -1.2091e+002 -4.8410e+000 51029 87518,87682,87336
 2.2000e+000 87881 -5.9261e+001 -1.3972e+002  1.2811e+000 50739 87780,87832,87806
 2.2000e+000 87858 -6.0206e+001 -1.2350e+002 -6.2742e+000 50739 87754,87832,87780
 2.2000e+000 88468 -2.3323e+001 -6.8502e+001  8.0769e+000 50235 88171,88327,88197
 2.2000e+000 88445 -6.6819e+001 -7.2050e+001 -8.8155e+000 50235 88145,88327,88171
 2.2000e+000 88422  2.5764e+001 -3.1517e+001  2.2389e+001 50235 88275,88327,88301
 2.2000e+000 88399  3.8640e+000 -4.1304e+001 -4.8859e+000 50235 88197,88327,88275
 2.2000e+000 88376  1.7574e+001 -6.4488e+001 -4.8776e+000 50235 88197,88275,88223
 2.2000e+000 88353 -4.6422e-001 -7.8243e+001  1.0062e+001 50235 88223,88275,88249
 2.2000e+000 88895 -4.5055e+001 -1.3346e+002  5.2806e+000 49873 88918,88728,88676
 2.2000e+000 88872 -4.2038e+001 -1.3785e+002  4.1489e-001 49873 88918,88676,88624
 2.2000e+000 88849 -3.7353e+001 -1.0043e+002  1.9575e+000 49873 88598,88754,88624
 2.2000e+000 88826 -3.2668e+001 -1.2292e+002 -1.4284e+001 49873 88624,88676,88650
 2.2000e+000 88803 -2.7898e+001 -1.6605e+002  9.3317e+000 49873 88676,88728,88702
 2.2000e+000 88780 -3.4904e+001 -9.0486e+001  7.3689e+000 49873 88572,88754,88598
 2.2000e+000 88944 -3.9114e+001 -1.2986e+002  7.6258e+000 49873 88754,88728,88918
 2.2000e+000 88967 -3.8875e+001 -1.3449e+002  2.3503e+000 49873 88754,88918,88624
 2.2000e+000 89473 -8.3104e+001 -1.2680e+002 -1.7584e+001 49583 89176,89306,89202
 2.2000e+000 89450 -8.7478e+001 -1.2808e+002 -1.8849e+001 49583 89176,89332,89306
 2.2000e+000 89427 -5.5656e+001 -1.4062e+002  7.1931e-001 49583 89496,89228,89202
 2.2000e+000 89404 -5.3325e+001 -1.4252e+002  1.3956e+000 49583 89496,89202,89280
 2.2000e+000 89381 -1.0328e+002 -1.7579e+002 -3.2875e+001 49583 89202,89306,89280
 2.2000e+000 89358 -6.5690e+001 -1.2919e+002 -2.2592e+001 49583 89150,89332,89176
 2.2000e+000 89522 -5.1562e+001 -1.2925e+002  1.4109e+000 49583 89254,89228,89496
 2.2000e+000 89545 -5.4897e+001 -1.3981e+002  1.6324e+000 49583 89254,89496,89280
 2.2000e+000 89825  9.1863e+000 -1.2556e+002 -2.9101e+000 49179 89701,89753,89727
 2.2000e+000 89802  2.1351e+001 -1.2686e+002 -4.6690e+000 49179 89675,89753,89701
 2.2000e+000 89779  4.3848e+001 -9.2013e+001  2.5056e+001 49179 89848,89753,89675
 2.2000e+000 89874 -3.9712e+001 -1.3319e+002 -5.9457e-001 49179 89649,89753,89848
 2.2000e+000 90223 -2.9507e+001 -1.3168e+002 -1.0661e+001 48739 90024,90102,90076
 2.2000e+000 90200 -4.8847e+001 -1.3377e+002 -3.7683e+000 48739 90024,90128,90102
 2.2000e+000 90177 -2.5663e+001 -1.4287e+002 -5.4171e+000 48739 90024,90076,90050
 2.2000e+000 90154 -2.0616e+001 -1.2892e+002  1.1339e+001 48739 89998,90128,90024
 2.2000e+000 90603 -4.5667e+001 -1.2348e+002  2.2295e+001 48335 90381,90485,90459
 2.2000e+000 90580 -5.5374e+001 -1.3288e+002  1.6746e+001 48335 90355,90485,90381
 2.2000e+000 90557 -1.8935e+001 -4.2880e+001  1.5678e+001 48335 90381,90433,90407
 2.2000e+000 90534 -4.4429e+001 -1.2150e+002  2.4115e+001 48335 90381,90459,90433
 2.2000e+000 90511  6.2936e+000 -9.4756e+001  3.6025e+001 48335 90329,90485,90355
 2.2000e+000 90753  2.3297e+001 -6.3430e+001  3.8104e+001 47824 90776,90652,90704
 2.2000e+000 90730  1.7391e+000 -1.0962e+002  3.2450e+001 47824 90626,90704,90652
 2.2000e+000 90802 -9.0568e+000 -8.8390e+001  2.7218e+001 47824 90678,90652,90776
 2.2000e+000 91131 -2.4804e+001 -1.4067e+002  6.4212e+000 47427 91154,90958,90906
 2.2000e+000 91108 -5.3992e+001 -1.5330e+002  8.0334e+000 47427 91154,90906,91036
 2.2000e+000 91085 -5.1668e+001 -1.1489e+002 -9.4480e+000 47427 90958,91010,90984
 2.2000e+000 91062 -3.1622e+001 -1.2378e+002  1.2541e+001 47427 90906,90958,90932
 2.2000e+000 91180 -4.0358e+001 -1.3402e+002 -1.3250e+001 47427 91010,90958,91154
 2.2000e+000 91203 -6.7852e+001 -1.4578e+002 -1.2088e+001 47427 91010,91154,91036
 2.2000e+000 91583 -8.2706e+001 -1.5504e+002 -9.5118e+000 46873 91309,91439,91335
 2.2000e+000 91560 -8.6811e+001 -1.5456e+002 -8.2148e+000 46873 91309,91465,91439
 2.2000e+000 91537 -1.2297e+002 -1.7810e+002 -4.1195e+001 46873 91361,91439,91413
 2.2000e+000 91514 -9.0482e+001 -1.5981e+002 -1.8546e+001 46873 91335,91439,91361
 2.2000e+000 91491 -3.8204e+001 -1.4341e+002 -3.2047e+001 46873 91361,91413,91387
 2.2000e+000 91880 -3.0219e+001 -1.3252e+002 -3.0834e+000 46526 91606,91710,91658
 2.2000e+000 91857 -2.9928e+001 -1.3914e+002  1.5804e+000 46526 91606,91762,91710
 2.2000e+000 91834 -1.5212e+001 -1.3031e+002 -1.4710e+001 46526 91606,91658,91632
 2.2000e+000 91811 -3.7285e+001 -1.2175e+002  3.2265e+000 46526 91658,91710,91684
 2.2000e+000 91788 -1.4015e+001 -8.4123e+001  9.6272e+000 46526 91710,91762,91736
 2.2000e+000 92211  6.9625e+000 -6.5776e+001 -3.1696e+000 45700 91986,92064,92038
 2.2000e+000 92188 -3.4094e+001 -1.0190e+002  1.3319e+001 45700 91986,92116,92064
 2.2000e+000 92165  2.1640e+001 -4.9355e+001 -2.7835e+001 45700 91986,92038,92012
 2.2000e+000 92142 -3.4547e+001 -9.7395e+001  1.1872e+001 45700 92064,92116,92090
 2.2000e+000 92766 -7.4054e+001 -1.2495e+002  2.5932e-001 45452 92446,92602,92576
 2.2000e+000 92743 -1.1888e+002 -1.2702e+002 -2.6312e+001 45452 92420,92602,92446
 2.2000e+000 92720 -8.3955e+001 -1.2626e+002  1.7449e+001 45452 92789,92524,92498
 2.2000e+000 92697 -1.0271e+002 -1.2544e+002  1.1282e+001 45452 92789,92498,92446
 2.2000e+000 92674 -7.6972e+001 -1.3907e+002 -2.4353e+000 45452 92524,92576,92550
 2.2000e+000 92651 -1.3020e+002 -1.2587e+002  6.6604e+001 45452 92446,92498,92472
 2.2000e+000 92628 -6.1546e+001 -1.4047e+002 -4.1939e+001 45452 92394,92602,92420
 2.2000e+000 92815 -7.0999e+001 -1.3174e+002  1.2625e+001 45452 92576,92524,92789
 2.2000e+000 92838 -8.4908e+001 -1.2675e+002  9.1753e+000 45452 92576,92789,92446
 2.2000e+000 92939 -3.8399e+001 -1.5792e+002 -3.8474e+001 44998 92861,92913,92887
 2.2000e+000 93319 -1.5030e+001 -1.6682e+002  3.1471e+001 44601 93123,93201,93149
 2.2000e+000 93296 -3.4746e+001 -1.5738e+002  3.0634e-001 44601 93045,93201,93123
 2.2000e+000 93273  1.1449e+001 -8.6954e+001 -2.0179e+001 44601 93045,93123,93071
 2.2000e+000 93250 -2.9224e+001 -9.5572e+001 -1.0440e+001 44601 93071,93123,93097
 2.2000e+000 93227  1.4137e+000 -9.7459e+001  2.8608e+001 44601 93149,93201,93175
 2.2000e+000 93697 -2.2313e+001 -1.8564e+002  1.2349e+001 44026 93720,93553,93527
 2.2000e+000 93674 -5.9463e+001 -1.5477e+002  1.5802e+001 44026 93720,93527,93449
 2.2000e+000 93651 -7.0707e+001 -1.6696e+002 -6.1556e+000 44026 93449,93527,93501
 2.2000e+000 93628 -3.7999e+001 -1.2685e+002 -2.1889e+001 44026 93423,93579,93449
 2.2000e+000 93605 -2.3169e+001 -1.3993e+002  5.1233e+000 44026 93449,93501,93475
 2.2000e+000 93746  7.2833e+000 -1.6513e+002  1.8741e+000 44026 93579,93553,93720
 2.2000e+000 93769 -3.2776e+001 -1.3574e+002  5.4259e+000 44026 93579,93720,93449
 2.2000e+000 94066 -1.6084e+001 -1.3324e+002 -2.4941e+001 43579 94089,93818,93792
 2.2000e+000 94043 -4.3107e+001 -1.5939e+002 -1.3975e+001 43579 94161,94089,93792
 2.2000e+000 94020 -4.1972e+001 -1.6116e+002 -2.1855e+000 43579 94161,93792,93948
 2.2000e+000 93997 -4.6744e+001 -1.0747e+002 -6.9662e+000 43579 94233,93870,93818
 2.2000e+000 93974 -2.6435e+001 -1.0644e+002 -2.7689e+000 43579 93818,93870,93844
 2.2000e+000 94115 -4.5385e+001 -1.0886e+002 -1.6397e+001 43579 94233,93818,94089
 2.2000e+000 94138 -6.7276e+001 -1.3196e+002 -1.0888e+001 43579 93896,94089,93922
 2.2000e+000 94187 -3.5593e+001 -1.4088e+002 -1.5183e+001 43579 93922,94089,94161
 2.2000e+000 94210 -3.4797e+001 -1.4142e+002 -2.2486e+000 43579 93922,94161,93948
 2.2000e+000 94259 -5.5765e+001 -1.2541e+002 -3.9325e+000 43579 93896,93870,94233
 2.2000e+000 94282 -5.1704e+001 -1.2320e+002 -1.4835e+001 43579 93896,94233,94089
 2.2000e+000 94481 -3.5739e+001 -1.3580e+002 -1.6349e+000 43239 94305,94383,94357
 2.2000e+000 94458 -2.6299e+001 -1.2167e+002  1.6883e+001 43239 94305,94409,94383
 2.2000e+000 94435 -2.1332e+001 -1.4011e+002 -6.0216e+000 43239 94305,94357,94331
 2.2000e+000 94633 -1.4435e+001 -9.6141e+001  2.4344e+001 42827 94656,94532,94506
 2.2000e+000 94610 -3.2751e+001 -1.0829e+002  3.4337e+001 42827 94728,94656,94506
 2.2000e+000 94682 -2.0205e+000 -1.0974e+002  2.5323e+001 42827 94558,94532,94656
 2.2000e+000 94705  1.9441e+001 -1.1333e+002  1.5406e+001 42827 94988,94860,94656
 2.2000e+000 94754 -6.9401e+000 -9.5421e+001  8.4145e+000 42827 94988,94656,94728
 2.2000e+000 94886  5.0407e+001 -1.0098e+002  1.5750e+001 42827 94558,94656,94860
 2.2000e+000 95014  4.1515e+001 -9.7895e+001  8.6740e+000 42827 94584,94860,94988
 2.2000e+000 95037  1.9154e+001 -8.0681e+001  2.1780e+000 42827 94584,94988,94728
 2.2000e+000 95236 -4.5099e+001 -1.3599e+002  4.8560e+000 42537 95259,95112,95060
 2.2000e+000 95213 -1.9956e+001 -1.4734e+002  9.5838e+000 42537 95259,95060,95164
 2.2000e+000 95190 -3.6376e+001 -1.3425e+002 -7.8535e+000 42537 95060,95112,95086
 2.2000e+000 95285 -2.8104e+001 -1.3294e+002  1.6127e+001 42537 95138,95112,95259
 2.2000e+000 95308 -3.5763e+000 -1.3869e+002  2.4353e+001 42537 95138,95259,95164
 2.2000e+000 95816 -4.7692e+001 -1.4555e+002 -6.3949e+000 41969 95493,95597,95519
 2.2000e+000 95793 -7.9720e+001 -1.4476e+002  2.0282e+001 41969 95493,95649,95597
 2.2000e+000 95770 -6.5707e+001 -1.3133e+002  1.0883e+001 41969 95493,95675,95649
 2.2000e+000 95747 -7.2416e+001 -1.6419e+002  1.9436e+001 41969 95597,95649,95623
 2.2000e+000 95724 -8.8684e+001 -1.4499e+002 -7.9544e+000 41969 95519,95597,95571
 2.2000e+000 95701 -8.2260e+001 -1.4100e+002 -4.0159e+001 41969 95519,95571,95545
 2.2000e+000 96371 -5.4401e+001 -1.4002e+002  3.0299e+001 41579 96025,96207,96181
 2.2000e+000 96348  1.7979e+001 -1.0564e+002  2.3659e-001 41579 95999,96207,96025
 2.2000e+000 96325 -6.1262e+001 -1.0645e+002 -1.1127e+000 41579 96129,96181,96155
 2.2000e+000 96302 -1.6267e+001 -9.4302e+001  1.2409e+001 41579 96025,96181,96129
 2.2000e+000 96279 -4.8486e+001 -1.5485e+002  2.7045e+001 41579 96025,96129,96051
 2.2000e+000 96256 -6.2171e+001 -1.4349e+002  2.3815e+001 41579 96051,96103,96077
 2.2000e+000 96233 -2.2837e+001 -1.0371e+002  5.3722e+000 41579 96051,96129,96103
 2.2000e+000 96877 -1.2606e+000 -7.2992e+001 -1.5020e+001 41182 96972,96900,96632
 2.2000e+000 96854 -7.4893e+000 -5.4439e+001 -1.8366e+001 41182 96900,96554,96736
 2.2000e+000 96831  2.5021e+000 -7.4160e+001 -5.2481e+000 41182 96972,96632,96580
 2.2000e+000 96808 -1.1952e+001 -7.1385e+001  1.0328e+001 41182 96632,96684,96658
 2.2000e+000 96785 -1.0694e+001 -9.1082e+001  4.4821e+000 41182 96684,96736,96710
 2.2000e+000 96762 -3.8744e+001 -1.0431e+002  2.5086e+001 41182 96580,96632,96606
 2.2000e+000 96926 -3.5350e-002 -8.9510e+001 -1.5279e+001 41182 96684,96632,96900
 2.2000e+000 96949  3.9554e-001 -7.5470e+001 -2.3092e+001 41182 96684,96900,96736
 2.2000e+000 96998 -1.7703e+001 -7.9718e+001 -1.3958e+001 41182 96554,96900,96972
 2.2000e+000 97021 -1.7019e+001 -8.3062e+001 -3.0639e+000 41182 96554,96972,96580
 2.2000e+000 97576 -7.3801e+001 -2.3926e+002 -4.1515e+001 40678 97230,97412,97282
 2.2000e+000 97553  1.4578e+001 -1.9364e+002  1.1574e+001 40678 97204,97412,97230
 2.2000e+000 97530 -3.6134e+001 -1.8063e+002 -3.2159e+001 40678 97282,97360,97308
 2.2000e+000 97507 -2.2581e+001 -1.7203e+002 -1.6580e+001 40678 97282,97412,97360
 2.2000e+000 97484 -1.7233e+001 -1.2337e+002 -2.5741e+001 40678 97308,97360,97334
 2.2000e+000 97461 -7.4223e+001 -2.1679e+002  6.1155e+000 40678 97360,97412,97386
 2.2000e+000 97438 -3.1350e+001 -1.6819e+002 -1.4580e+001 40678 97230,97282,97256
 2.2000e+000 97976 -5.8914e+001 -9.5972e+001 -2.9746e+000 40244 97702,97832,97754
 2.2000e+000 97953 -4.9290e+001 -8.7149e+001 -6.6607e+000 40244 97702,97858,97832
 2.2000e+000 97930 -5.8514e+001 -1.0416e+002 -3.1495e+001 40244 97702,97754,97728
 2.2000e+000 97907 -5.2373e+001 -1.1506e+002  1.3170e+001 40244 97780,97832,97806
 2.2000e+000 97884 -5.6013e+001 -9.4566e+001 -2.5431e+000 40244 97754,97832,97780
 2.2000e+000 98482 -4.9638e+001 -1.2429e+002  1.6168e+001 39690 98505,98185,98159
 2.2000e+000 98459 -4.3649e+001 -1.2240e+002  1.8989e+001 39690 98505,98159,98289
 2.2000e+000 98436 -8.6239e+001 -1.7378e+002  6.0582e+001 39690 98159,98315,98289
 2.2000e+000 98413 -5.3002e+001 -1.1632e+002  1.8347e+001 39690 98211,98289,98263
 2.2000e+000 98390 -3.8109e+001 -9.0469e+001  1.1626e+001 39690 98211,98263,98237
 2.2000e+000 98367 -2.0562e+001 -1.1009e+002  3.1679e+001 39690 98159,98341,98315
 2.2000e+000 98531 -6.1542e+001 -1.2385e+002  1.1653e+001 39690 98211,98185,98505
 2.2000e+000 98554 -5.0245e+001 -1.1538e+002  1.6460e+001 39690 98211,98505,98289
 2.2000e+000 99109 -3.2341e+001 -9.7497e+001 -1.1019e+001 39072 99132,98867,98789
 2.2000e+000 99086 -4.2798e+001 -9.6882e+001 -8.4027e+000 39072 99132,98789,98763
 2.2000e+000 99063 -5.0190e+001 -1.6142e+002  1.6712e+001 39072 98867,98945,98919
 2.2000e+000 99040 -2.7268e+001 -1.0600e+002 -4.4877e+000 39072 98789,98867,98841
 2.2000e+000 99017 -7.0030e+001 -1.2206e+002  3.6145e+000 39072 98867,98919,98893
 2.2000e+000 98994 -5.0089e+001 -9.8320e+001  1.9916e+001 39072 98789,98841,98815
 2.2000e+000 98971 -5.8519e+001 -9.9825e+001 -1.0538e+001 39072 98737,98945,98763
 2.2000e+000 99158 -2.9431e+001 -9.6647e+001 -1.2408e+001 39072 98945,98867,99132
 2.2000e+000 99181 -3.3646e+001 -8.9712e+001 -1.1790e+001 39072 98945,99132,98763
 2.2000e+000 99510 -3.6351e+001 -1.0332e+002  1.9063e+000 38668 99311,99389,99363
 2.2000e+000 99487 -3.9839e+001 -1.0100e+002  7.3913e+000 38668 99285,99389,99311
 2.2000e+000 99464 -6.7370e+001 -1.1055e+002  1.8437e+001 38668 99285,99415,99389
 2.2000e+000 99441 -4.3153e+001 -9.8599e+001 -9.2160e-001 38668 99311,99363,99337
 2.2000e+000 99758 -1.1632e+001 -1.5046e+002  1.0688e+001 38164 99781,99611,99585
 2.2000e+000 99735  1.7577e+001 -1.4734e+002  1.6278e+001 38164 99781,99585,99533
 2.2000e+000 99712 -2.0195e+001 -1.1733e+002  1.5133e+001 38164 99611,99663,99637
 2.2000e+000 99689  2.9537e+001 -1.3080e+002  6.7444e+000 38164 99533,99585,99559
 2.2000e+000 99807 -2.7228e+001 -1.4167e+002  1.8373e+001 38164 99663,99611,99781
 2.2000e+000 99830 -7.8712e+000 -1.4564e+002  1.8705e+001 38164 99663,99781,99533
 2.2000e+000 100232 -5.1004e+001 -1.3351e+002  1.7913e+000 37702 99984,100114,100088
 2.2000e+000 100209 -3.8071e+001 -1.3126e+002  1.3269e+001 37702 99958,100114,99984
 2.2000e+000 100186 -7.3748e+001 -1.6250e+002 -8.3163e+000 37702 100010,100088,100036
 2.2000e+000 100163 -5.1473e+001 -1.3376e+002  1.3835e+000 37702 99984,100088,100010
 2.2000e+000 100140 -5.3475e+001 -1.4780e+002 -3.5340e+001 37702 100036,100088,100062
 2.2000e+000 100640 -1.0342e+002 -1.3801e+002  1.6356e+001 37262 100493,100545,100519
 2.2000e+000 100617 -8.4026e+001 -1.5016e+002  1.0112e+001 37262 100441,100545,100493
 2.2000e+000 100594 -4.2843e+001 -1.2200e+002 -8.8031e+000 37262 100415,100545,100441
 2.2000e+000 100571 -1.0231e+002 -1.7794e+002 -7.1113e+000 37262 100441,100493,100467
 2.2000e+000 101146 -6.3658e+001 -1.1292e+002 -1.0385e+000 36872 100823,100979,100849
 2.2000e+000 101123 -6.1066e+001 -1.0307e+002 -1.0492e+001 36872 100823,101005,100979
 2.2000e+000 101100 -6.5217e+001 -1.6625e+002  2.2149e+001 36872 101169,100901,100849
 2.2000e+000 101077 -5.0709e+001 -1.3490e+002  1.4834e+001 36872 101169,100849,100979
 2.2000e+000 101054 -2.6472e+001 -1.4481e+002  3.1018e+000 36872 100927,100979,100953
 2.2000e+000 101031 -3.4580e+001 -1.8867e+002  3.0579e+001 36872 100849,100901,100875
 2.2000e+000 101195 -4.7707e+001 -1.7602e+002  2.9396e+000 36872 100927,100901,101169
 2.2000e+000 101218 -3.9034e+001 -1.5908e+002 -2.7526e+000 36872 100927,101169,100979
 2.2000e+000 101773 -7.8353e+001 -1.3129e+002  2.2632e+001 36418 101479,101609,101583
 2.2000e+000 101750 -6.9741e+001 -1.3359e+002  3.1879e+001 36418 101453,101609,101479
 2.2000e+000 101727 -4.5310e+001 -1.3760e+002  9.2138e-002 36418 101796,101531,101479
 2.2000e+000 101704 -7.2290e+001 -1.5359e+002  9.1911e+000 36418 101796,101479,101583
 2.2000e+000 101681 -1.9323e+001 -1.2077e+002 -1.2630e+001 36418 101479,101531,101505
 2.2000e+000 101658 -4.0884e+000 -1.3293e+002 -1.0434e+000 36418 101401,101609,101453
 2.2000e+000 101635 -2.9221e+001 -1.4966e+002 -8.5398e+000 36418 101401,101453,101427
 2.2000e+000 101822 -5.2740e+001 -1.2609e+002 -2.6204e+001 36418 101557,101531,101796
 2.2000e+000 101845 -8.6823e+001 -1.3642e+002 -1.9062e+001 36418 101557,101796,101583
 2.2000e+000 102174  3.5117e+001 -5.9453e+001 -2.6812e+001 35914 101949,102053,101975
 2.2000e+000 102151 -3.4103e+001 -8.4221e+001 -9.8759e+000 35914 101949,102079,102053
 2.2000e+000 102128  2.6448e+000 -7.4927e+001 -1.5975e+001 35914 101975,102053,102027
 2.2000e+000 102105  1.0984e+000 -7.3840e+001 -1.4851e+001 35914 101975,102027,102001
 2.2000e+000 102631 -2.9631e+001 -1.3848e+002 -2.4006e+000 35574 102383,102513,102487
 2.2000e+000 102608 -1.7036e+001 -1.3091e+002  1.2730e+000 35574 102357,102513,102383
 2.2000e+000 102585 -4.5422e+001 -1.5034e+002  2.5855e+000 35574 102409,102487,102435
 2.2000e+000 102562 -4.2584e+001 -1.4698e+002  4.1787e+000 35574 102383,102487,102409
 2.2000e+000 102539 -6.6707e+001 -1.7789e+002 -1.1924e+001 35574 102435,102487,102461
 2.2000e+000 103009 -6.3312e+001 -1.1530e+002 -1.9081e+001 35170 102761,102865,102787
 2.2000e+000 102986 -2.9552e+001 -9.7817e+001 -1.0531e+000 35170 102761,102891,102865
 2.2000e+000 102963 -5.6054e+001 -1.1644e+002 -1.2760e+001 35170 102787,102865,102813
 2.2000e+000 102940 -2.2975e+001 -9.2589e+001  1.2216e+000 35170 102735,102891,102761
 2.2000e+000 102917 -5.7214e+001 -1.1806e+002 -9.5813e+000 35170 102813,102865,102839
 2.2000e+000 103257  3.4473e+001 -9.9786e+001 -2.1054e+001 34659 103280,103058,103032
 2.2000e+000 103234  2.2264e+001 -1.0338e+002 -5.0098e+000 34659 103280,103032,103162
 2.2000e+000 103211 -1.6788e+001 -8.4728e+001 -1.3707e+001 34659 103084,103162,103110
 2.2000e+000 103188 -3.2426e+001 -1.1703e+002 -8.7274e+000 34659 103110,103162,103136
 2.2000e+000 103306  9.4881e+000 -9.5522e+001 -2.0028e+001 34659 103084,103058,103280
 2.2000e+000 103329  4.2374e+000 -9.7442e+001 -1.7936e+000 34659 103084,103280,103162
 2.2000e+000 103837  3.3191e+001 -1.4064e+002  1.3336e+001 34247 103860,103566,103540
 2.2000e+000 103814  3.3187e+000 -1.4736e+002  2.6208e+000 34247 103932,103860,103540
 2.2000e+000 103791  9.5453e+000 -1.6534e+002 -1.5940e+001 34247 103932,103540,103670
 2.2000e+000 103768  1.8927e+001 -1.3907e+002 -1.5186e+001 34247 103566,103618,103592
 2.2000e+000 103745 -3.6326e+001 -1.2912e+002 -1.9009e+001 34247 103540,103696,103670
 2.2000e+000 103722 -5.3896e+001 -1.3952e+002  2.5944e+001 34247 103514,103696,103540
 2.2000e+000 103886 -8.1941e+000 -1.3896e+002 -1.0486e+000 34247 103618,103566,103860
 2.2000e+000 103909 -3.5203e+001 -1.5312e+002  4.5568e+000 34247 103618,103860,103644
 2.2000e+000 103958 -1.3373e+001 -1.9101e+002  3.3653e-001 34247 103644,103860,103932
 2.2000e+000 103981 -6.9856e+000 -2.0750e+002 -1.9105e+001 34247 103644,103932,103670
 2.2000e+000 104300 -6.6860e+001 -1.4671e+002 -7.7542e+000 33843 104052,104182,104156
 2.2000e+000 104277 -8.4328e+001 -1.2936e+002 -3.8749e-001 33843 104026,104182,104052
 2.2000e+000 104254 -6.6354e+001 -1.6674e+002  4.9945e+000 33843 104078,104156,104130
 2.2000e+000 104231 -8.7362e+001 -1.6220e+002 -9.4136e-001 33843 104052,104156,104078
 2.2000e+000 104208 -9.9443e+001 -1.7087e+002  2.9815e+000 33843 104078,104130,104104
 2.2000e+000 104499 -2.2453e+001 -1.2240e+002 -3.3365e+001 33282 104594,104522,104375
 2.2000e+000 104476 -1.1519e+001 -1.4964e+002  1.5961e-001 33282 104522,104323,104427
 2.2000e+000 104453  9.0788e+000 -1.2876e+002 -3.4717e+001 33282 104594,104375,104349
 2.2000e+000 104548 -5.5422e+001 -1.1773e+002 -5.7068e+000 33282 104401,104375,104522
 2.2000e+000 104571  6.7863e+000 -9.6688e+001  7.0928e+000 33282 104401,104522,104427
 2.2000e+000 104620  2.2632e+001 -1.1414e+002 -2.1205e+001 33282 104323,104522,104594
 2.2000e+000 104643  4.4470e+001 -1.2913e+002 -2.6071e+001 33282 104323,104594,104349
 2.2000e+000 104942 -6.6734e+001 -1.7111e+002  2.3023e+001 32728 104694,104772,104720
 2.2000e+000 104919 -5.5667e+001 -1.5635e+002  7.4127e+000 32728 104694,104824,104772
 2.2000e+000 104896 -8.7750e+001 -1.5516e+002  2.5100e+001 32728 104720,104772,104746
 2.2000e+000 104873 -3.2298e+001 -1.8257e+002  7.1169e+000 32728 104772,104824,104798
 2.2000e+000 104850 -6.0189e+001 -1.5525e+002  8.7065e+000 32728 104668,104824,104694
 2.2000e+000 105373 -6.2163e+001 -1.6554e+002 -1.2248e+001 32274 105396,105102,105076
 2.2000e+000 105350 -4.9623e+001 -1.8497e+002 -8.9593e+000 32274 105396,105076,105206
 2.2000e+000 105327 -5.1899e+001 -1.8870e+002  2.9050e+001 32274 105154,105206,105180
 2.2000e+000 105304 -3.9745e+001 -1.8653e+002 -2.1162e+001 32274 105076,105232,105206
 2.2000e+000 105281 -6.5429e+001 -1.5142e+002 -2.7787e+001 32274 105102,105154,105128
 2.2000e+000 105258 -1.2369e+002 -1.9148e+002 -4.4567e+001 32274 105050,105232,105076
 2.2000e+000 105422 -5.6107e+001 -1.4680e+002 -7.7492e+000 32274 105154,105102,105396
 2.2000e+000 105445 -4.6609e+001 -1.6949e+002 -6.2698e+000 32274 105154,105396,105206
 2.2000e+000 105644 -5.0732e+001 -1.6549e+002  1.2886e+000 31620 105468,105546,105520
 2.2000e+000 105621 -4.2559e+001 -1.6704e+002 -2.6010e+000 31620 105468,105572,105546
 2.2000e+000 105598 -5.5337e+001 -1.9371e+002  1.5614e+001 31620 105468,105520,105494
 2.2000e+000 105794 -2.7853e+001 -1.5858e+002 -3.9190e+000 31158 105889,105817,105693
 2.2000e+000 105771 -3.6588e+001 -1.4749e+002 -7.5700e+000 31158 105817,105667,105745
 2.2000e+000 105843 -3.2419e+001 -1.8265e+002 -2.5019e+000 31158 105719,105693,105817
 2.2000e+000 105866 -2.6921e+001 -1.6422e+002 -6.7403e+000 31158 105719,105817,105745
 2.2000e+000 105915 -4.6160e+001 -1.6643e+002 -4.1250e+000 31158 105667,105817,105889
 2.2000e+000 106270 -6.2279e+001 -1.4723e+002 -4.8123e+000 30818 106293,106071,106045
 2.2000e+000 106247 -7.3628e+001 -1.7235e+002 -2.2735e+001 30818 106293,106045,106175
 2.2000e+000 106224 -2.7642e+001 -1.4173e+002  4.4363e+000 30818 106123,106175,106149
 2.2000e+000 106201 -7.0396e+001 -1.4376e+002  4.9976e+000 30818 106071,106123,106097
 2.2000e+000 106319 -5.6597e+001 -1.3715e+002  2.6380e+000 30818 106123,106071,106293
 2.2000e+000 106342 -5.3984e+001 -1.5000e+002 -1.2416e+001 30818 106123,106293,106175
 2.2000e+000 106492 -6.5869e+001 -1.6346e+002  2.7405e+001 30414 106645,106391,106365
 2.2000e+000 106469 -5.0778e+001 -1.6154e+002  4.2887e+001 30414 106515,106365,106443
 2.2000e+000 106541 -5.6409e+001 -1.6335e+002  2.7715e+001 30414 106645,106365,106515
 2.2000e+000 106671 -5.0703e+001 -1.8574e+002  4.0934e+001 30414 106417,106391,106645
 2.2000e+000 106694 -2.2821e+001 -1.7280e+002  3.4830e+001 30414 106417,106645,106515
 2.2000e+000 106942 -2.3676e+001 -2.0752e+002 -5.2794e+000 29910 106965,106795,106769
 2.2000e+000 106919  8.0900e+000 -1.9897e+002  1.3494e+000 29910 106965,106769,106717
 2.2000e+000 106896 -3.8390e+001 -1.6247e+002 -2.3569e+001 29910 106795,106847,106821
 2.2000e+000 106873  2.2118e+001 -1.5496e+002 -1.0718e+001 29910 106717,106769,106743
 2.2000e+000 106991 -5.1917e+001 -1.8736e+002  3.8307e+000 29910 106847,106795,106965
 2.2000e+000 107014 -2.0991e+001 -1.7857e+002  1.3687e+001 29910 106847,106965,106717
 2.2000e+000 107213 -3.8823e+001 -1.6246e+002  1.3103e+001 29413 107236,107063,107037
 2.2000e+000 107190 -3.7272e+001 -1.9805e+002  2.6362e+001 29413 107236,107037,107141
 2.2000e+000 107167 -4.7433e+001 -1.1125e+002  2.6531e+001 29413 107063,107115,107089
 2.2000e+000 107262 -3.7357e+001 -1.3841e+002  7.5918e+000 29413 107115,107063,107236
 2.2000e+000 107285 -3.0618e+001 -1.6514e+002  2.1914e+001 29413 107115,107236,107141
 2.2000e+000 107486 -2.0469e+001 -1.4181e+002  1.5144e+001 29009 107336,107388,107362
 2.2000e+000 107463 -6.8885e+000 -1.3533e+002  7.2233e+000 29009 107310,107388,107336
 2.2000e+000 107440 -2.2236e+001 -1.3361e+002  1.1816e+001 29009 107310,107414,107388
 2.2000e+000 107736 -5.4229e+001 -1.5259e+002  1.6650e+000 28491 107537,107615,107563
 2.2000e+000 107713 -3.6922e+001 -1.4434e+002  5.8331e+000 28491 107537,107641,107615
 2.2000e+000 107690 -1.7169e+001 -1.4887e+002  1.3230e+001 28491 107563,107615,107589
 2.2000e+000 107667 -5.8114e+001 -1.5794e+002 -1.4736e+000 28491 107511,107641,107537
 2.2000e+000 108118 -1.9594e+001 -1.4633e+002 -5.8558e+000 27980 108141,107922,107844
 2.2000e+000 108095 -3.0374e+000 -1.4991e+002 -9.9608e+000 27980 108141,107844,108000
 2.2000e+000 108072 -1.2633e+001 -1.3107e+002 -1.1523e+001 27980 107844,107922,107870
 2.2000e+000 108049 -1.5673e+001 -1.2868e+002 -9.4245e+000 27980 107870,107922,107896
 2.2000e+000 108026 -3.6138e+001 -1.3280e+002  2.6988e+001 27980 107922,107974,107948
 2.2000e+000 108167 -3.4814e+000 -1.6331e+002  2.1065e+000 27980 107974,107922,108141
 2.2000e+000 108190  3.7385e+001 -1.4949e+002 -1.0012e+000 27980 107974,108141,108000
 2.2000e+000 108745 -1.2648e+001 -1.0038e+002 -2.0800e+000 27376 108840,108768,108477
 2.2000e+000 108722 -2.4468e+001 -1.0818e+002 -2.0882e+001 27376 108768,108373,108581
 2.2000e+000 108699 -2.3829e+001 -9.1244e+001  1.6739e+001 27376 108840,108477,108451
 2.2000e+000 108676 -6.7858e+001 -1.0484e+002 -6.8590e+000 27376 108373,108451,108399
 2.2000e+000 108653 -2.9763e+001 -1.3462e+002  1.3100e+001 27376 108503,108581,108529
 2.2000e+000 108630 -3.2121e+001 -1.3036e+002  1.3245e+001 27376 108529,108581,108555
 2.2000e+000 108607 -8.0724e+001 -1.2091e+002  6.5627e+000 27376 108399,108451,108425
 2.2000e+000 108794 -2.2251e+001 -1.3106e+002  7.5432e-001 27376 108503,108477,108768
 2.2000e+000 108817 -6.4438e+000 -1.1925e+002 -4.4193e+000 27376 108503,108768,108581
 2.2000e+000 108866 -5.1716e+001 -1.1998e+002 -9.0008e+000 27376 108373,108768,108840
 2.2000e+000 108889 -5.0238e+001 -1.0550e+002  1.0236e+001 27376 108373,108840,108451
 2.2000e+000 109186 -5.8572e+001 -1.6552e+002  1.8282e+001 26722 109209,108938,108912
 2.2000e+000 109163 -5.4786e+001 -1.5547e+002  1.4402e+001 26722 109281,109209,108912
 2.2000e+000 109140 -5.2739e+001 -1.5216e+002  1.3526e+001 26722 109281,108912,109042
 2.2000e+000 109117 -4.2851e+001 -1.7295e+002  1.1810e+001 26722 108938,108990,108964
 2.2000e+000 109094 -7.6952e+001 -1.3492e+002  6.8752e+000 26722 108912,109068,109042
 2.2000e+000 109235 -4.3018e+001 -1.5885e+002  1.6913e+001 26722 108990,108938,109209
 2.2000e+000 109258 -5.1434e+001 -1.7034e+002  1.3237e+001 26722 108990,109209,109016
 2.2000e+000 109307 -4.8918e+001 -1.6060e+002  8.0594e+000 26722 109016,109209,109281
 2.2000e+000 109330 -4.5280e+001 -1.5480e+002  6.4684e+000 26722 109016,109281,109042
 2.2000e+000 109732 -6.4370e+001 -1.3885e+002 -2.5560e+000 26310 109458,109588,109484
 2.2000e+000 109709 -5.8854e+001 -1.5234e+002 -1.5688e+001 26310 109458,109614,109588
 2.2000e+000 109686 -8.9018e+001 -1.5287e+002  2.0255e+001 26310 109510,109562,109536
 2.2000e+000 109663 -9.1665e+001 -1.4659e+002  8.6524e+000 26310 109484,109562,109510
 2.2000e+000 109640 -6.6210e+001 -1.4046e+002 -9.8619e-001 26310 109484,109588,109562
 2.2000e+000 110159 -5.2473e+001 -1.4595e+002  5.0339e+000 25642 110182,109940,109914
 2.2000e+000 110136 -5.3193e+001 -1.5324e+002  9.4020e+000 25642 110182,109914,109888
 2.2000e+000 110113 -4.5599e+001 -1.6917e+002 -2.2243e+001 25642 109966,110018,109992
 2.2000e+000 110090 -5.1199e+001 -1.6436e+002  1.2528e+001 25642 110254,109966,109940
 2.2000e+000 110067 -4.8393e+001 -1.5290e+002  8.0605e+000 25642 109862,110018,109888
 2.2000e+000 110044 -6.9218e+001 -1.4370e+002  1.3631e+001 25642 109836,110018,109862
 2.2000e+000 110208 -5.3994e+001 -1.4897e+002  9.6314e+000 25642 110254,109940,110182
 2.2000e+000 110231 -5.0683e+001 -1.5654e+002  7.0528e+000 25642 110018,110182,109888
 2.2000e+000 110280 -4.9102e+001 -1.8239e+002  8.9768e+000 25642 110018,109966,110254
 2.2000e+000 110303 -5.4807e+001 -1.7067e+002  6.2606e+000 25642 110018,110254,110182
 2.2000e+000 110632 -6.4047e+001 -1.3847e+002 -1.3064e+001 25188 110407,110485,110433
 2.2000e+000 110609 -7.8477e+001 -1.5286e+002 -7.2544e+000 25188 110407,110537,110485
 2.2000e+000 110586 -7.8257e+001 -1.4554e+002 -2.6705e+001 25188 110433,110485,110459
 2.2000e+000 110563 -7.1325e+001 -1.5477e+002  1.0513e+001 25188 110485,110537,110511
 2.2000e+000 110831 -1.9010e+001 -1.4007e+002  4.1765e+000 24726 110854,110707,110655
 2.2000e+000 110808 -1.6813e+001 -1.4842e+002  1.1796e+001 24726 110854,110655,110759
 2.2000e+000 110785 -1.9379e+001 -1.4189e+002  4.0724e+000 24726 110655,110707,110681
 2.2000e+000 110880 -1.6852e+001 -1.3195e+002  3.6516e+000 24726 110733,110707,110854
 2.2000e+000 110903 -1.2753e+001 -1.3665e+002  1.1678e+001 24726 110733,110854,110759
 2.2000e+000 111234  7.1911e+000 -9.6909e+001 -9.3159e+000 24222 111257,111087,111035
 2.2000e+000 111211  4.5292e+001 -8.0236e+001  3.6190e+000 24222 111257,111035,111009
 2.2000e+000 111188  4.1493e+001 -5.6670e+001 -2.6680e+001 24222 111035,111087,111061
 2.2000e+000 111165 -1.6307e+001 -7.9413e+001  3.3014e+000 24222 111087,111139,111113
 2.2000e+000 111283 -1.2947e+001 -7.3021e+001  4.5341e+000 24222 111139,111087,111257
 2.2000e+000 111306  2.6640e+000 -5.9024e+001  1.2737e+001 24222 111139,111257,111009
 2.2000e+000 111625 -2.2384e+001 -1.4281e+002 -1.0770e+001 23732 111648,111481,111455
 2.2000e+000 111602 -2.4555e+001 -1.4389e+002 -9.5871e+000 23732 111648,111455,111377
 2.2000e+000 111579  1.3297e+001 -7.6538e+001  1.5126e+001 23732 111377,111429,111403
 2.2000e+000 111556 -1.3716e+001 -1.4655e+002 -4.1783e+000 23732 111377,111455,111429
 2.2000e+000 111533 -2.3336e+001 -1.2846e+002 -5.2065e+000 23732 111351,111507,111377
 2.2000e+000 111674 -2.5568e+001 -1.4201e+002 -9.7556e+000 23732 111507,111481,111648
 2.2000e+000 111697 -2.6422e+001 -1.4341e+002 -8.1921e+000 23732 111507,111648,111377
 2.2000e+000 112156 -4.0424e+001 -1.5860e+002  9.2708e+000 23278 112179,111908,111882
 2.2000e+000 112133 -3.9539e+001 -1.4881e+002  2.2257e+000 23278 112179,111882,112012
 2.2000e+000 112110 -2.0014e+001 -1.6965e+002  9.6745e-001 23278 111908,111960,111934
 2.2000e+000 112087  7.8670e+000 -1.3405e+002 -1.5000e+001 23278 111882,112038,112012
 2.2000e+000 112064 -2.0665e+001 -1.3355e+002 -2.7684e+000 23278 111960,112012,111986
 2.2000e+000 112205 -3.7152e+001 -1.5333e+002  1.3647e+000 23278 111960,111908,112179
 2.2000e+000 112228 -3.1960e+001 -1.4163e+002 -6.4072e+000 23278 111960,112179,112012
 2.2000e+000 112685 -9.8470e+001 -2.2945e+002 -2.2601e+001 22938 112489,112567,112541
 2.2000e+000 112662 -8.3888e+001 -1.9542e+002 -2.1385e+001 22938 112437,112567,112489
 2.2000e+000 112639 -5.5518e+001 -1.7157e+002 -3.0165e+000 22938 112489,112541,112515
 2.2000e+000 112616 -9.8441e+001 -1.8786e+002 -1.9687e+001 22938 112411,112567,112437
 2.2000e+000 112593 -7.9404e+001 -2.4899e+002 -5.7931e+000 22938 112437,112489,112463
 2.2000e+000 113191  2.3305e+001 -1.4623e+002 -2.1778e+001 22534 113214,112998,112946
 2.2000e+000 113168 -1.4087e+001 -1.3795e+002 -5.9566e+000 22534 113286,113214,112946
 2.2000e+000 113145 -8.3846e+000 -1.3657e+002 -5.8441e+000 22534 113286,112946,112920
 2.2000e+000 113122 -5.6945e+001 -1.3176e+002 -2.4079e+001 22534 113358,113024,112998
 2.2000e+000 113099 -2.2754e+001 -1.3627e+002 -2.5274e+000 22534 112868,113050,112894
 2.2000e+000 113076 -4.9835e+001 -2.9566e+002 -5.7532e+001 22534 112946,112998,112972
 2.2000e+000 113240 -3.7549e+001 -1.6233e+002 -2.6833e+001 22534 113358,112998,113214
 2.2000e+000 113263 -1.6859e+001 -1.4779e+002 -2.6495e+000 22534 113050,113214,112894
 2.2000e+000 113312 -4.5960e+000 -1.4223e+002 -4.9744e+000 22534 112894,113214,113286
 2.2000e+000 113335  3.2592e+000 -1.3914e+002 -6.2942e+000 22534 112894,113286,112920
 2.2000e+000 113384 -3.3508e+001 -1.1124e+002 -1.2543e+001 22534 113050,113024,113358
 2.2000e+000 113407 -3.3959e+000 -1.3338e+002 -1.2885e+001 22534 113050,113358,113214
 2.2000e+000 113785 -7.7936e+001 -1.9761e+002  8.2676e+000 21978 113808,113615,113511
 2.2000e+000 113762 -6.2035e+001 -1.9790e+002  1.5180e+001 21978 113808,113511,113667
 2.2000e+000 113739 -4.3973e+001 -1.6502e+002 -5.6088e+000 21978 113511,113615,113537
 2.2000e+000 113716  1.4367e+001 -1.4655e+002 -1.0423e+001 21978 113537,113615,113589
 2.2000e+000 113693 -1.5988e+001 -2.0344e+002  4.9356e+000 21978 113537,113589,113563
 2.2000e+000 113834 -8.1733e+001 -1.9975e+002  2.9236e+001 21978 113641,113615,113808
 2.2000e+000 113857 -4.0246e+001 -1.8330e+002  3.7578e+001 21978 113641,113808,113667
 2.2000e+000 114284 -6.0350e+001 -1.5791e+002  4.1829e+000 21517 114013,114117,114039
 2.2000e+000 114261 -6.0435e+001 -1.5536e+002  1.0548e+001 21517 113961,114117,114013
 2.2000e+000 114238 -6.0968e+001 -1.7784e+002  7.5442e+000 21517 113961,114013,113987
 2.2000e+000 114215 -9.1561e+001 -1.7401e+002 -1.1077e+001 21517 114039,114117,114091
 2.2000e+000 114192 -6.7133e+001 -1.3787e+002  1.5634e+001 21517 113961,114143,114117
 2.2000e+000 114169  4.7360e+000 -1.3769e+002 -9.1188e+000 21517 114039,114091,114065
 2.2000e+000 114581 -3.1638e+001 -1.9055e+002  1.5733e+000 21027 114359,114463,114437
 2.2000e+000 114558 -1.8336e+001 -1.7320e+002  2.2346e+001 21027 114333,114463,114359
 2.2000e+000 114535 -1.4633e+001 -1.7512e+002 -4.9369e+000 21027 114359,114437,114385
 2.2000e+000 114512 -1.1030e+001 -1.7163e+002  1.7456e+001 21027 114307,114463,114333
 2.2000e+000 114489  2.7248e+001 -1.6296e+002 -8.3014e+000 21027 114385,114437,114411
 2.2000e+000 114912 -6.3075e+001 -1.6400e+002  2.6819e+000 20623 114713,114791,114765
 2.2000e+000 114889 -1.3693e+001 -1.4330e+002 -1.7143e+001 20623 114687,114791,114713
 2.2000e+000 114866 -5.0089e+001 -1.9198e+002 -7.1891e-001 20623 114687,114817,114791
 2.2000e+000 114843 -8.6083e+001 -1.9125e+002  1.2608e+001 20623 114713,114765,114739
 2.2000e+000 115290 -2.6853e+001 -1.4515e+002  6.1248e+000 20375 115313,115146,115094
 2.2000e+000 115267 -3.1762e+001 -1.4490e+002  8.6503e+000 20375 115313,115094,115042
 2.2000e+000 115244 -3.0418e+001 -1.3477e+002  2.7492e+000 20375 115385,115016,115172
 2.2000e+000 115221  2.4627e+001 -1.2514e+002  8.3631e+000 20375 115042,115094,115068
 2.2000e+000 115198 -3.5643e+001 -1.6804e+002  7.5588e+000 20375 115094,115146,115120
 2.2000e+000 115339 -4.4795e+001 -1.6791e+002 -5.8038e+000 20375 115172,115146,115313
 2.2000e+000 115362 -2.8955e+001 -1.3966e+002  1.5704e+000 20375 115385,115172,115313
 2.2000e+000 115411 -2.7058e+001 -1.3851e+002  7.7426e+000 20375 115042,115016,115385
 2.2000e+000 115434 -2.8262e+001 -1.4631e+002  7.2289e+000 20375 115042,115385,115313
 2.2000e+000 115891 -7.4481e+001 -1.5075e+002  1.8472e+001 19971 115617,115747,115643
 2.2000e+000 115868 -6.2848e+001 -1.2177e+002  1.6506e+001 19971 115617,115773,115747
 2.2000e+000 115845 -4.9298e+001 -2.1427e+002  9.6330e+000 19971 115643,115721,115695
 2.2000e+000 115822 -2.9908e+000 -1.1251e+002 -9.4726e-001 19971 115643,115747,115721
 2.2000e+000 115799  2.0424e+001 -2.3539e+002 -3.1216e+000 19971 115643,115695,115669
 2.2000e+000 115992 -1.1192e+002 -2.8887e+002 -5.0814e+001 19659 115914,115966,115940
 2.2000e+000 116142 -2.0286e+001 -6.3331e+001  2.1138e+000 18997 116041,116093,116067
 2.2000e+000 116119 -3.7129e+001 -1.0706e+002  7.3801e+000 18997 116015,116093,116041
 2.2000e+000 116343 -3.2084e+001 -1.7230e+002 -4.6252e+000 18707 116193,116245,116219
 2.2000e+000 116320 -3.4921e+001 -1.7711e+002 -9.5266e+000 18707 116193,116271,116245
 2.2000e+000 116297 -1.8772e+001 -1.3949e+002 -7.8635e+000 18707 116167,116271,116193
 2.2000e+000 116747 -2.6619e+001 -1.4903e+002 -1.7127e+000 18301 116525,116629,116551
 2.2000e+000 116724 -2.3870e+001 -1.2923e+002  2.0726e+000 18301 116473,116629,116525
 2.2000e+000 116701 -2.0883e+001 -1.3149e+002 -8.8143e+000 18301 116473,116525,116499
 2.2000e+000 116678 -1.3790e+001 -1.5552e+002 -2.2988e+000 18301 116551,116603,116577
 2.2000e+000 116655 -3.2109e+001 -1.6203e+002 -5.9076e+000 18301 116551,116629,116603
 2.2000e+000 117147 -7.6551e+001 -1.8145e+002 -6.4985e-001 17747 116899,117029,116925
 2.2000e+000 117124 -4.2391e+001 -1.3536e+002  1.7110e+001 17747 116873,117029,116899
 2.2000e+000 117101 -7.5313e+001 -1.8007e+002 -7.5560e-002 17747 116925,117029,116951
 2.2000e+000 117078 -6.6664e+001 -1.5723e+002  8.8649e-001 17747 116951,117029,117003
 2.2000e+000 117055 -9.0028e+001 -1.9906e+002 -1.0986e+001 17747 116951,117003,116977
 2.2000e+000 117368  3.2413e+001 -1.6966e+002  2.8226e-001 17293 117244,117296,117270
 2.2000e+000 117345  7.7165e+000 -1.6690e+002 -4.9494e+000 17293 117192,117296,117244
 2.2000e+000 117322 -1.8840e+001 -1.5991e+002 -2.2108e+000 17293 117192,117244,117218
 2.2000e+000 117699 -2.0990e+001 -1.3249e+002 -1.4375e+001 16896 117526,117604,117552
 2.2000e+000 117676 -8.6404e+001 -1.9734e+002  1.1720e+001 16896 117500,117604,117526
 2.2000e+000 117653 -9.3667e+001 -1.5825e+002 -7.7765e+000 16896 117552,117604,117578
 2.2000e+000 117630 -7.0719e+001 -2.4977e+002  2.5037e+001 16896 117474,117604,117500
 2.2000e+000 117849 -1.7783e+002 -3.4305e+002 -1.3551e+001 16534 117722,117774,117748
 2.2000e+000 117826 -1.4039e+002 -4.1972e+002 -5.7738e+001 16534 117722,117800,117774
 2.2000e+000 118070 -2.1093e+001 -1.6039e+002  1.6587e+001 16194 117946,117998,117972
 2.2000e+000 118047 -3.7715e+001 -1.8923e+002  9.6195e+000 16194 117894,117998,117946
 2.2000e+000 118024 -4.7338e+001 -1.7378e+002 -2.8226e+000 16194 117894,117946,117920
 2.2000e+000 118173 -1.7129e+001 -1.7239e+002  0.0000e+000 15968 118095,118147,118121
 2.2000e+000 118276 -5.0501e+001 -1.7093e+002  2.5729e+000 15433 118299,118198,118250
 2.2000e+000 118325 -5.2907e+001 -1.7655e+002  2.6286e+000 15433 118224,118198,118299
 2.2000e+000 118450 -9.0862e+001 -2.0071e+002  1.8992e+001 421 118372,118424,118398
 2.3000e+000 69891 -2.9642e+001 -2.3099e+002  1.0341e+001 68988 69447,69681,69629
 2.3000e+000 69868  2.1431e+001 -2.0944e+002  9.0042e+000 68988 69421,69681,69447
 2.3000e+000 69845  1.1913e+001 -1.0551e+002  3.3022e+000 68988 69447,69629,69577
 2.3000e+000 69822 -6.1675e+001 -2.3818e+002 -2.6996e+001 68988 69447,69577,69473
 2.3000e+000 69799 -3.4243e+000 -2.7703e+002  4.4225e+001 68988 69629,69681,69655
 2.3000e+000 69776 -6.8546e+001 -1.3964e+002  2.8097e+000 68988 69577,69629,69603
 2.3000e+000 69753 -4.6519e+001 -2.1000e+002 -3.3227e+001 68988 69473,69577,69551
 2.3000e+000 69730 -7.5881e+001 -4.3537e+002 -4.3734e+001 68988 69473,69551,69525
 2.3000e+000 69707 -1.2807e+002 -2.8497e+002  4.6503e-001 68988 69473,69525,69499
 2.3000e+000 69992 -1.1914e+002 -2.4176e+002 -4.8375e+001 68676 69914,69966,69940
 2.3000e+000 70392 -7.7104e+001 -1.8153e+002  1.4046e+001 68478 70118,70248,70144
 2.3000e+000 70369  3.1322e+001 -1.8296e+002  4.4920e+001 68478 70118,70274,70248
 2.3000e+000 70346 -5.2486e+001 -1.3773e+002 -1.9979e+000 68478 70144,70222,70196
 2.3000e+000 70323 -4.1300e+001 -1.1067e+002 -3.9358e+000 68478 70144,70248,70222
 2.3000e+000 70300 -5.7358e+001 -1.4885e+002 -4.3181e+000 68478 70144,70196,70170
 2.3000e+000 70841  6.3818e+001 -1.1484e+002 -4.1135e+001 68280 70570,70622,70596
 2.3000e+000 70818 -4.5137e+001 -1.3251e+002 -1.0797e+001 68280 70544,70622,70570
 2.3000e+000 70795 -2.5961e+001 -8.8024e+001 -7.7919e+000 68280 70544,70674,70622
 2.3000e+000 70772 -2.9133e+001 -7.2736e+001  2.4878e+000 68280 70622,70674,70648
 2.3000e+000 70749 -5.0221e+001 -1.4579e+002  1.0637e+001 68280 70518,70674,70544
 2.3000e+000 70726  7.8590e+001 -1.4984e+002  4.8888e+001 68280 70518,70700,70674
 2.3000e+000 70991 -7.2005e+000 -6.7662e+002  1.9839e+001 67968 70864,70916,70890
 2.3000e+000 70968 -1.7486e+002 -6.7536e+002  7.3892e+001 67968 70864,70942,70916
 2.3000e+000 71141 -3.3327e+002 -6.5553e+002 -2.9495e+001 67770 71040,71092,71066
 2.3000e+000 71118 -2.9331e+002 -7.7929e+002  3.1446e+001 67770 71014,71092,71040
 2.3000e+000 71651 -1.1062e+001 -1.2182e+002 -1.5621e+001 67366 71746,71674,71458
 2.3000e+000 71628 -5.0244e+000 -9.1379e+001 -2.1619e+001 67366 71674,71354,71510
 2.3000e+000 71605 -2.5199e+001 -1.4087e+002 -9.1141e+000 67366 71746,71458,71432
 2.3000e+000 71582 -5.3330e+001 -1.3170e+002 -3.3107e+000 67366 71354,71432,71380
 2.3000e+000 71559 -5.5434e+001 -1.0199e+002 -1.7629e+001 67366 71380,71432,71406
 2.3000e+000 71536 -1.3753e+001 -1.8650e+001  3.3790e+000 67366 71328,71510,71354
 2.3000e+000 71700  2.0777e+000 -9.8436e+001 -2.1376e+001 67366 71484,71458,71674
 2.3000e+000 71723 -1.1103e+001 -1.0076e+002 -1.0050e+001 67366 71484,71674,71510
 2.3000e+000 71772 -2.9169e+001 -9.9381e+001 -2.1125e+001 67366 71354,71674,71746
 2.3000e+000 71795 -3.2302e+001 -1.0863e+002 -1.9224e+001 67366 71354,71746,71432
 2.3000e+000 71896 -1.2769e+002 -2.8171e+002  0.0000e+000 67146 71818,71870,71844
 2.3000e+000 71997 -1.3324e+002 -2.2493e+002  4.4855e+001 66948 71919,71971,71945
 2.3000e+000 72149  5.7379e+000 -1.4886e+002 -2.4622e+001 66700 72172,72074,72048
 2.3000e+000 72126 -4.3770e+001 -1.7722e+002 -1.0560e+001 66700 72172,72048,72022
 2.3000e+000 72198 -8.0247e+001 -1.8538e+002  8.6460e+000 66700 72244,72172,72100
 2.3000e+000 72221 -6.6655e+001 -1.6868e+002 -1.1680e+001 66700 72100,72172,72022
 2.3000e+000 72270 -3.6792e+001 -8.9534e+001 -1.7757e+001 66700 72074,72172,72244
 2.3000e+000 72623 -4.7015e+001 -1.6026e+002  5.5148e+000 66502 72424,72502,72450
 2.3000e+000 72600 -3.4912e+001 -1.2857e+002  4.6573e+000 66502 72398,72502,72424
 2.3000e+000 72577 -2.6081e+001 -1.5065e+002 -2.3474e+000 66502 72398,72528,72502
 2.3000e+000 72554 -4.6171e+001 -1.4057e+002 -3.7637e-001 66502 72450,72502,72476
 2.3000e+000 72920 -9.3534e+001 -1.9698e+002  6.0282e+000 65941 72672,72776,72750
 2.3000e+000 72897 -9.1979e+001 -1.6630e+002  2.1465e+001 65941 72646,72776,72672
 2.3000e+000 72874 -8.5263e+001 -1.9709e+002  1.0497e+001 65941 72672,72750,72724
 2.3000e+000 72851 -9.1429e+001 -1.5331e+002  2.2774e+001 65941 72672,72724,72698
 2.3000e+000 72828 -6.7060e+001 -1.5916e+002  1.7485e+001 65941 72646,72802,72776
 2.3000e+000 73241 -2.0869e+000 -1.3425e+002  1.2971e+001 65743 73264,73071,73045
 2.3000e+000 73218 -4.0781e+001 -1.5267e+002  1.8268e+001 65743 73480,73264,73045
 2.3000e+000 73195 -3.3171e+001 -1.3436e+002 -1.2473e+000 65743 73336,72967,73097
 2.3000e+000 73172 -7.6140e+001 -1.2111e+002 -1.4761e+001 65743 73408,72993,72967
 2.3000e+000 73149 -2.6460e+001 -1.3511e+002 -1.5906e+000 65743 72967,73123,73097
 2.3000e+000 73290 -1.9126e+001 -1.4238e+002  4.0809e+000 65743 73097,73071,73264
 2.3000e+000 73313 -2.5599e+001 -1.2807e+002  8.0626e+000 65743 73336,73097,73264
 2.3000e+000 73362 -6.1681e+001 -1.4046e+002 -8.9548e+000 65743 73408,72967,73336
 2.3000e+000 73385 -1.8956e+001 -1.2618e+002  3.1635e+000 65743 73019,73336,73264
 2.3000e+000 73434 -5.2009e+001 -8.3656e+001  1.1171e+001 65743 73019,72993,73408
 2.3000e+000 73457 -1.9320e+001 -1.1010e+002  8.8420e+000 65743 73019,73408,73336
 2.3000e+000 73506 -7.7485e+000 -9.3337e+001  5.2924e+000 65743 73019,73264,73480
 2.3000e+000 73989  8.9641e+000 -1.0287e+002  1.5010e+001 65453 73793,73845,73819
 2.3000e+000 73966 -4.6109e+001 -1.1553e+002  1.8776e+001 65453 73741,73845,73793
 2.3000e+000 73943 -3.6094e+000 -9.0444e+001  8.3473e+000 65453 73715,73845,73741
 2.3000e+000 73920 -3.3522e+001 -1.2655e+002  2.9693e+001 65453 73741,73793,73767
 2.3000e+000 73897  1.4584e+001 -4.6204e+001  4.8159e+000 65453 73715,73871,73845
 2.3000e+000 74357 -5.8405e+000 -1.2406e+002 -5.6916e+001 65141 74380,74138,74086
 2.3000e+000 74334 -5.1480e+001 -2.0001e+002 -3.6835e+001 65141 74380,74086,74060
 2.3000e+000 74311 -4.9163e+001 -1.9213e+002 -1.3521e+001 65141 74138,74190,74164
 2.3000e+000 74288 -6.3031e+001 -2.1669e+002 -8.5501e+000 65141 74060,74216,74190
 2.3000e+000 74265 -6.7729e+001 -2.3094e+002  3.1061e+000 65141 74034,74216,74060
 2.3000e+000 74242 -2.2277e+001 -5.5415e+001 -2.5778e+001 65141 74086,74138,74112
 2.3000e+000 74406 -3.4010e+001 -1.9133e+002 -2.0463e+001 65141 74190,74138,74380
 2.3000e+000 74429 -4.8122e+001 -2.1767e+002 -7.3443e+000 65141 74190,74380,74060
 2.3000e+000 74937 -6.9488e+001 -1.3504e+002 -3.8843e+001 64737 74614,74666,74640
 2.3000e+000 74914 -8.5944e+001 -1.7832e+002 -2.7619e+001 64737 74614,74796,74666
 2.3000e+000 74891 -6.0994e+001 -1.1880e+002 -2.5497e+000 64737 74960,74718,74666
 2.3000e+000 74868 -5.1886e+001 -1.3283e+002 -1.6081e+001 64737 74960,74666,74770
 2.3000e+000 74845 -5.3931e+001 -1.0738e+002 -1.7267e+001 64737 74666,74796,74770
 2.3000e+000 74822 -5.9198e+001 -1.2987e+002  4.4127e+000 64737 74666,74718,74692
 2.3000e+000 74986 -6.6463e+001 -1.3335e+002 -2.4130e+000 64737 74744,74718,74960
 2.3000e+000 75009 -6.1094e+001 -1.5456e+002 -1.6297e+001 64737 74744,74960,74770
 2.3000e+000 75306 -1.4922e+001 -1.2401e+002  2.0140e+001 64133 75329,75110,75084
 2.3000e+000 75283 -2.4168e+001 -1.4437e+002  8.6509e+000 64133 75401,75329,75084
 2.3000e+000 75260 -1.7632e+001 -1.5012e+002  1.3434e+001 64133 75401,75084,75058
 2.3000e+000 75237 -2.5122e+001 -1.6288e+002  1.8097e+001 64133 75473,75136,75110
 2.3000e+000 75214 -3.8231e+001 -1.2094e+002 -5.7726e-001 64133 75032,75188,75162
 2.3000e+000 75355 -2.7975e+001 -1.5550e+002  1.5832e+001 64133 75473,75110,75329
 2.3000e+000 75378 -2.4737e+001 -1.4066e+002  2.2061e+000 64133 75162,75329,75032
 2.3000e+000 75427 -2.1139e+001 -1.3299e+002  4.5198e+000 64133 75032,75329,75401
 2.3000e+000 75450 -5.4560e+001 -1.7128e+002  2.5205e+001 64133 75545,75401,75058
 2.3000e+000 75499 -3.0230e+001 -1.5325e+002  5.8616e+000 64133 75162,75136,75473
 2.3000e+000 75522 -2.8964e+001 -1.3647e+002  7.1065e+000 64133 75162,75473,75329
 2.3000e+000 75571 -1.6613e+001 -8.8794e+001  9.5959e+000 64133 75032,75401,75545
 2.3000e+000 75851 -3.9112e+001 -1.2923e+002  2.7737e+000 63843 75874,75753,75727
 2.3000e+000 75828 -3.2365e+001 -1.2808e+002 -6.4363e+000 63843 75946,75874,75727
 2.3000e+000 75805 -4.0824e+001 -1.3584e+002 -3.0139e+000 63843 76018,75946,75727
 2.3000e+000 75900 -2.8378e+001 -1.2471e+002 -4.3924e+000 63843 75779,75753,75874
 2.3000e+000 75923 -3.0020e+001 -1.0332e+002 -1.6071e+001 63843 75779,75874,75675
 2.3000e+000 75972 -4.2132e+001 -1.2088e+002 -5.3884e+000 63843 75675,75874,75946
 2.3000e+000 75995 -3.7971e+001 -1.2728e+002 -9.0968e+000 63843 75675,75946,75701
 2.3000e+000 76044 -4.3438e+001 -1.3465e+002 -1.3256e+001 63843 75701,75946,76018
 2.3000e+000 76454  1.9564e+001 -5.9553e+000 -1.9493e+001 63439 76477,76255,76229
 2.3000e+000 76431 -1.1810e+001 -6.0931e+001 -3.9396e-001 63439 76477,76229,76359
 2.3000e+000 76408  4.0783e+001 -3.5339e+001  4.2258e+001 63439 76307,76359,76333
 2.3000e+000 76385  4.2365e+000 -6.6988e+001  6.7169e-001 63439 76255,76307,76281
 2.3000e+000 76503 -1.0234e+001 -4.8316e+001  1.3472e+001 63439 76307,76255,76477
 2.3000e+000 76526 -1.0340e+001 -7.0482e+001  2.6957e+001 63439 76307,76477,76359
 2.3000e+000 76926 -2.9282e+001 -1.0461e+002 -1.7320e+000 63049 76704,76782,76756
 2.3000e+000 76903 -4.1562e+001 -1.0696e+002 -1.2927e+001 63049 76704,76808,76782
 2.3000e+000 76880 -2.8635e+001 -1.2360e+002  1.9972e+000 63049 76704,76756,76730
 2.3000e+000 76857 -2.7087e+001 -6.2132e+001  4.1676e+000 63049 76678,76808,76704
 2.3000e+000 76834 -1.2026e+001 -1.5923e+001 -1.3636e+001 63049 76652,76808,76678
 2.3000e+000 77076  2.3432e+000 -1.6045e+002 -1.9196e+000 62737 76975,77027,77001
 2.3000e+000 77053  7.8011e+000 -1.7851e+002 -1.1789e+001 62737 76949,77027,76975
 2.3000e+000 77324 -6.3827e+001 -1.6423e+002  5.1542e+000 62277 77347,77177,77125
 2.3000e+000 77301 -6.2769e+001 -1.5737e+002 -5.0121e+000 62277 77347,77125,77229
 2.3000e+000 77278 -6.3042e+001 -1.6168e+002 -7.5527e+000 62277 77099,77229,77125
 2.3000e+000 77255 -6.7383e+001 -1.9088e+002  8.3581e+000 62277 77125,77177,77151
 2.3000e+000 77373 -6.9376e+001 -1.8424e+002  1.2863e+001 62277 77203,77177,77347
 2.3000e+000 77396 -5.6635e+001 -1.6657e+002  7.3611e-001 62277 77203,77347,77229
 2.3000e+000 77857 -3.0889e+001 -1.8719e+002  4.0790e+000 61758 77635,77739,77661
 2.3000e+000 77834 -4.9611e+001 -2.0144e+002 -4.9238e+000 61758 77583,77739,77635
 2.3000e+000 77811 -5.0078e+001 -2.3236e+002 -2.1764e+001 61758 77583,77635,77609
 2.3000e+000 77788  7.7191e+000 -1.8767e+002  1.9302e+001 61758 77661,77713,77687
 2.3000e+000 77765 -3.8019e+001 -2.1888e+002 -1.8901e+000 61758 77661,77739,77713
 2.3000e+000 78491 -5.8482e+001 -1.1564e+002  3.9266e+000 61418 78171,78301,78249
 2.3000e+000 78468 -5.0625e+001 -8.7824e+001  1.4550e+001 61418 78145,78301,78171
 2.3000e+000 78445 -4.4399e+001 -1.0345e+002 -6.6872e+000 61418 78171,78249,78223
 2.3000e+000 78422 -4.6072e+001 -8.4914e+001 -1.2071e+001 61418 78145,78327,78301
 2.3000e+000 78399 -6.1542e+001 -1.3241e+002 -4.2074e+000 61418 78249,78301,78275
 2.3000e+000 78376 -3.0088e+001 -1.1394e+002 -8.4648e+000 61418 78171,78223,78197
 2.3000e+000 78353 -6.1636e+001 -1.6014e+002 -3.1359e+001 61418 78119,78327,78145
 2.3000e+000 78690 -5.6201e+001 -1.4095e+002  1.9053e+000 61014 78713,78566,78540
 2.3000e+000 78667 -3.9462e+001 -1.4856e+002  5.6038e+000 61014 78713,78540,78618
 2.3000e+000 78644 -5.8447e+001 -1.6716e+002 -1.6472e+001 61014 78514,78618,78540
 2.3000e+000 78739 -2.9398e+001 -1.2652e+002  1.5730e+001 61014 78592,78566,78713
 2.3000e+000 78762 -4.2624e+001 -1.4973e+002  4.2727e+000 61014 78785,78713,78618
 2.3000e+000 78811 -1.3476e+001 -1.3864e+002  1.9302e-001 61014 78592,78713,78785
 2.3000e+000 79398 -9.7341e+000 -1.1698e+002 -1.6005e+001 60624 79101,79179,79153
 2.3000e+000 79375 -1.7276e+000 -1.3063e+002 -1.0461e+001 60624 79101,79231,79179
 2.3000e+000 79352 -1.3379e+001 -1.4090e+002 -1.8958e+001 60624 79075,79231,79101
 2.3000e+000 79329  5.7990e+001 -1.5655e+002  1.2127e+001 60624 79075,79257,79231
 2.3000e+000 79306  1.1244e+001 -9.9358e+001 -1.0767e+001 60624 79179,79231,79205
 2.3000e+000 79283 -1.4228e+000 -9.9059e+001 -6.7984e+000 60624 79101,79153,79127
 2.3000e+000 79776 -5.5490e+001 -1.7480e+002  1.9255e+001 60070 79528,79658,79606
 2.3000e+000 79753 -5.2015e+001 -1.4102e+002 -1.6509e-001 60070 79502,79658,79528
 2.3000e+000 79730 -7.4138e+001 -1.6819e+002  2.7583e+001 60070 79528,79606,79580
 2.3000e+000 79707 -8.2935e+000 -1.6155e+002  9.4215e+000 60070 79606,79658,79632
 2.3000e+000 79684 -6.3224e+000 -1.0223e+002 -2.6651e+001 60070 79528,79580,79554
 2.3000e+000 80105 -4.7615e+001 -1.4204e+002  1.4360e+001 59758 80128,79958,79906
 2.3000e+000 80082 -4.8933e+001 -1.3233e+002  9.3722e+000 59758 80128,79906,80010
 2.3000e+000 80059 -6.7804e+001 -1.4759e+002  4.6014e+001 59758 79906,79958,79932
 2.3000e+000 80036 -7.1833e+001 -1.4836e+002  2.3978e+000 59758 79880,80010,79906
 2.3000e+000 80154 -4.8362e+001 -1.4818e+002  1.5075e+001 59758 79984,79958,80128
 2.3000e+000 80177 -5.1476e+001 -1.4092e+002  1.0236e+001 59758 79984,80128,80010
 2.3000e+000 80376 -3.5673e+001 -1.3752e+002  2.5762e+000 59312 80226,80304,80252
 2.3000e+000 80353 -3.5007e+001 -1.4063e+002  2.5799e+000 59312 80200,80304,80226
 2.3000e+000 80330 -5.6617e+001 -1.2305e+002  3.6849e+001 59312 80252,80304,80278
 2.3000e+000 80805 -4.7783e+001 -1.0368e+002 -2.1690e+001 58908 80900,80828,80638
 2.3000e+000 80782 -2.7055e+001 -1.2539e+002 -3.1916e+001 58908 80828,80560,80508
 2.3000e+000 80759 -5.2122e+001 -9.4711e+001 -6.4784e+000 58908 80900,80638,80612
 2.3000e+000 80736 -1.7964e+001 -1.1364e+002  5.0279e+001 58908 80482,80664,80508
 2.3000e+000 80713 -3.3236e+001 -9.2675e+001  5.2680e-002 58908 80560,80612,80586
 2.3000e+000 80690 -4.3718e+001 -3.4959e+002 -6.5472e+001 58908 80508,80560,80534
 2.3000e+000 80854 -1.6664e+001 -1.1196e+002 -2.7727e+000 58908 80664,80638,80828
 2.3000e+000 80877 -3.4057e+001 -1.7812e+002  3.5402e+000 58908 80664,80828,80508
 2.3000e+000 80926 -3.6235e+001 -7.6462e+001 -2.4920e+001 58908 80560,80828,80900
 2.3000e+000 80949 -4.5074e+001 -7.7042e+001 -7.5417e+000 58908 80560,80900,80612
 2.3000e+000 81246 -7.6449e+000 -9.0445e+001 -4.6270e+000 58482 81076,81128,81102
 2.3000e+000 81223 -3.6367e+001 -1.7472e+002 -2.0229e+001 58482 80972,81128,81076
 2.3000e+000 81200 -1.4384e+001 -1.1219e+002 -2.3977e+001 58482 80972,81076,81050
 2.3000e+000 81177 -6.8522e+001 -1.9704e+002 -9.6679e-001 58482 80998,81050,81024
 2.3000e+000 81154 -1.9760e+001 -1.4346e+002 -2.1544e+001 58482 80972,81050,80998
 2.3000e+000 81754 -4.1685e+001 -1.0116e+002  7.3595e+000 57828 81457,81613,81483
 2.3000e+000 81731 -5.1113e+001 -1.1832e+002  7.8096e-001 57828 81431,81613,81457
 2.3000e+000 81708 -4.5721e+001 -1.1048e+002  1.1165e+001 57828 81483,81613,81509
 2.3000e+000 81685 -5.5887e+001 -1.3530e+002  1.6037e+001 57828 81509,81613,81587
 2.3000e+000 81662 -5.4443e+001 -1.9548e+002  3.4207e+001 57828 81509,81587,81535
 2.3000e+000 81639 -2.9075e+001 -1.4460e+002  2.1081e+001 57828 81535,81587,81561
 2.3000e+000 82002 -8.0715e+001 -2.1534e+002 -1.7714e+000 57374 82025,81855,81829
 2.3000e+000 81979 -8.5034e+001 -2.0170e+002  9.1019e+000 57374 82025,81829,81907
 2.3000e+000 81956 -8.4527e+001 -1.8487e+002  7.2567e+000 57374 81803,81907,81829
 2.3000e+000 81933 -4.1817e+001 -1.5802e+002  1.9566e+001 57374 81777,81907,81803
 2.3000e+000 82051 -8.1824e+001 -1.9928e+002 -2.0717e+000 57374 81881,81855,82025
 2.3000e+000 82074 -8.1646e+001 -1.8617e+002  1.2799e+001 57374 81881,82025,81907
 2.3000e+000 82356 -4.3988e+001 -1.0730e+002 -3.7693e+000 56913 82180,82232,82206
 2.3000e+000 82333 -3.5543e+001 -9.8989e+001  1.7674e+001 56913 82180,82284,82232
 2.3000e+000 82310 -1.5036e+001 -7.5097e+001  2.6392e+001 56913 82379,82232,82284
 2.3000e+000 82405  1.2945e+001 -7.5227e+001  2.1525e+000 56913 82258,82232,82379
 2.3000e+000 82764 -3.3336e+001 -6.5713e+001 -7.3615e+000 56523 82614,82666,82640
 2.3000e+000 82741 -2.1255e+001 -6.1238e+001 -1.3398e+001 56523 82614,82692,82666
 2.3000e+000 82718 -2.4250e+001 -6.3784e+001 -1.5507e+001 56523 82588,82692,82614
 2.3000e+000 83368 -1.1084e+001 -1.4887e+002 -4.7683e+000 55969 82973,83155,83129
 2.3000e+000 83345  1.2466e+000 -1.4423e+002 -9.7532e+000 55969 82973,83181,83155
 2.3000e+000 83322 -4.0410e+001 -1.2946e+002 -3.6118e+000 55969 82973,83129,82999
 2.3000e+000 83299 -6.7484e+001 -1.3431e+002  6.8368e+000 55969 83391,83025,82999
 2.3000e+000 83276 -5.2703e+001 -1.3634e+002  1.4031e+000 55969 83391,82999,83129
 2.3000e+000 83253 -8.5082e+000 -1.0393e+002  2.2500e+001 55969 83077,83129,83103
 2.3000e+000 83230 -5.7705e+001 -9.8995e+001 -7.4941e+000 55969 83025,83077,83051
 2.3000e+000 83207 -1.2115e+000 -1.3890e+002  1.3540e+001 55969 82947,83181,82973
 2.3000e+000 83417 -5.2922e+001 -1.2795e+002  7.9994e+000 55969 83077,83025,83391
 2.3000e+000 83440 -4.7540e+001 -1.3504e+002  1.4650e+000 55969 83077,83391,83129
 2.3000e+000 83946 -7.3734e+001 -1.8923e+002  3.5285e+001 55771 83969,83779,83727
 2.3000e+000 83923 -5.2831e+001 -1.4792e+002  1.9979e+001 55771 83969,83727,83623
 2.3000e+000 83900 -6.2760e+001 -7.4058e+001  1.0876e+001 55771 83623,83727,83649
 2.3000e+000 83877 -3.7523e+001 -3.2993e+002  2.2980e+001 55771 83727,83779,83753
 2.3000e+000 83854 -9.7465e+001 -1.7709e+002  4.7115e+001 55771 83675,83727,83701
 2.3000e+000 83831 -1.1408e+002 -1.3680e+002  6.8133e+001 55771 83649,83727,83675
 2.3000e+000 83995 -6.6324e+001 -1.9705e+002 -1.7181e+001 55771 83805,83779,83969
 2.3000e+000 84018 -2.1534e+001 -1.1332e+002 -3.7129e+001 55771 83805,83969,83623
 2.3000e+000 84168 -2.2910e+001 -8.9065e+001 -1.4479e+000 55367 84191,84067,84041
 2.3000e+000 84145 -2.3328e+001 -9.8172e+001 -3.9517e-001 55367 84191,84041,84119
 2.3000e+000 84217 -2.5744e+001 -8.2820e+001 -1.4516e+000 55367 84093,84067,84191
 2.3000e+000 84240 -2.4360e+001 -8.8848e+001  2.1306e+000 55367 84093,84191,84119
 2.3000e+000 84571 -2.3586e+001 -1.6544e+002 -1.7823e+001 54913 84398,84450,84424
 2.3000e+000 84548 -1.7675e+001 -1.5014e+002 -8.9337e+000 54913 84372,84450,84398
 2.3000e+000 84525 -4.2184e+001 -1.7030e+002  6.0750e+000 54913 84346,84450,84372
 2.3000e+000 84502 -1.6823e+001 -1.1205e+002 -1.4379e+001 54913 84346,84476,84450
 2.3000e+000 85126 -8.1024e+001 -1.8514e+002 -9.4083e+000 54402 84858,84936,84910
 2.3000e+000 85103 -5.9945e+001 -1.4012e+002 -1.8090e+001 54402 84806,84936,84858
 2.3000e+000 85080 -7.3599e+001 -1.2906e+002 -1.4928e+001 54402 84780,84936,84806
 2.3000e+000 85057 -6.1734e+001 -1.5613e+002 -8.4615e+000 54402 84806,84858,84832
 2.3000e+000 85034 -6.3850e+001 -1.2060e+002  4.6155e+000 54402 84780,84962,84936
 2.3000e+000 85011 -1.0193e+002 -1.0245e+002 -6.2281e+000 54402 84858,84910,84884
 2.3000e+000 84988 -6.1290e+001 -1.1436e+002  5.1125e+000 54402 84754,84962,84780
 2.3000e+000 85396 -4.8958e+001 -6.0867e+001 -6.6383e+000 53998 85197,85249,85223
 2.3000e+000 85373 -3.6609e+001 -9.0264e+001  2.2755e-001 53998 85197,85275,85249
 2.3000e+000 85350 -5.3469e+001 -1.0414e+002 -6.0408e+000 53998 85171,85275,85197
 2.3000e+000 85327 -1.8895e+001 -9.2713e+001 -9.5179e+000 53998 85171,85301,85275
 2.3000e+000 85749 -3.6183e+001 -1.3907e+002 -3.2881e+000 53636 85524,85628,85550
 2.3000e+000 85726 -5.8208e+001 -1.5872e+002  5.1430e+000 53636 85524,85654,85628
 2.3000e+000 85703 -2.1088e+001 -1.4393e+002 -1.3133e+001 53636 85550,85602,85576
 2.3000e+000 85680 -3.6566e+001 -1.3856e+002 -5.9083e+000 53636 85550,85628,85602
 2.3000e+000 86127  6.9628e+000 -1.3160e+002  2.3282e+001 52982 86150,85957,85879
 2.3000e+000 86104 -2.9218e+001 -1.5602e+002  1.2658e+001 52982 86150,85879,85853
 2.3000e+000 86081  8.9331e+000 -2.0252e+002  4.2703e+001 52982 85957,86009,85983
 2.3000e+000 86058 -3.8653e+001 -1.4258e+002  1.9288e+001 52982 85879,85957,85931
 2.3000e+000 86035 -1.7384e+001 -1.2249e+002  1.6184e+000 52982 85879,85931,85905
 2.3000e+000 86176  2.9882e+001 -1.5921e+002  1.8555e+001 52982 86009,85957,86150
 2.3000e+000 86199  8.4668e+000 -1.7478e+002  1.1133e+001 52982 86009,86150,85853
 2.3000e+000 86398 -1.9063e+001 -1.0525e+002  9.7988e+000 52542 86421,86248,86222
 2.3000e+000 86375 -3.9552e+001 -1.0821e+002  2.2130e-001 52542 86421,86222,86300
 2.3000e+000 86352 -3.4139e+001 -1.0719e+002 -6.0845e+000 52542 86222,86326,86300
 2.3000e+000 86447  2.2927e+000 -1.0615e+002  1.8813e+001 52542 86274,86248,86421
 2.3000e+000 86470 -1.7584e+001 -1.1284e+002  6.6837e+000 52542 86274,86421,86300
 2.3000e+000 86669 -3.7316e+001 -1.0166e+002 -1.9481e+001 52230 86692,86571,86545
 2.3000e+000 86646 -3.5976e+001 -9.5771e+001 -9.1449e+000 52230 86692,86545,86519
 2.3000e+000 86623 -6.0338e+001 -9.4265e+001 -1.4094e+001 52230 86493,86597,86519
 2.3000e+000 86718 -4.2648e+001 -1.0434e+002 -2.1463e+001 52230 86597,86571,86692
 2.3000e+000 86741 -4.8378e+001 -1.0149e+002 -1.1602e+001 52230 86597,86692,86519
 2.3000e+000 87153 -6.9384e+001 -1.0095e+002  6.1805e+000 51640 86980,87058,87032
 2.3000e+000 87130 -6.3006e+001 -1.0742e+002  3.7508e+000 51640 86928,87058,86980
 2.3000e+000 87107 -5.9977e+001 -1.4162e+002 -1.2437e+001 51640 86928,86980,86954
 2.3000e+000 87084 -4.1522e+001 -8.9140e+001  1.9304e+000 51640 86980,87032,87006
 2.3000e+000 87659 -2.5400e+001 -9.8717e+001  9.8248e+000 51029 87682,87440,87362
 2.3000e+000 87636 -3.1243e+001 -1.0837e+002 -2.9896e+000 51029 87682,87362,87336
 2.3000e+000 87613 -4.5874e+001 -1.6206e+002 -5.4331e+000 51029 87440,87518,87466
 2.3000e+000 87590 -5.0016e+001 -1.0181e+002  1.2488e+001 51029 87362,87440,87414
 2.3000e+000 87567 -4.8993e+001 -9.5080e+001  3.3289e+001 51029 87362,87414,87388
 2.3000e+000 87544 -6.0295e+001 -1.3967e+002  7.8373e-001 51029 87466,87518,87492
 2.3000e+000 87708 -2.1586e+001 -1.1368e+002  2.7203e+000 51029 87518,87440,87682
 2.3000e+000 87731 -2.4843e+001 -1.3085e+002 -5.3952e+000 51029 87518,87682,87336
 2.3000e+000 87881 -6.6089e+001 -1.5207e+002  2.0060e+000 50739 87780,87832,87806
 2.3000e+000 87858 -6.8663e+001 -1.3750e+002 -6.7316e+000 50739 87754,87832,87780
 2.3000e+000 88468 -3.3923e+001 -7.7967e+001  5.8505e+000 50235 88171,88327,88197
 2.3000e+000 88445 -7.7651e+001 -7.9486e+001 -1.1091e+001 50235 88145,88327,88171
 2.3000e+000 88422  2.7182e+001 -3.4272e+001  2.4943e+001 50235 88275,88327,88301
 2.3000e+000 88399 -1.0521e+001 -5.0912e+001 -4.9886e+000 50235 88197,88327,88275
 2.3000e+000 88376  1.5030e+001 -7.3028e+001 -1.8248e+000 50235 88197,88275,88223
 2.3000e+000 88353 -5.9473e-001 -8.5353e+001  1.0958e+001 50235 88223,88275,88249
 2.3000e+000 88895 -5.0260e+001 -1.4499e+002  5.9815e+000 49873 88918,88728,88676
 2.3000e+000 88872 -4.5958e+001 -1.4896e+002 -1.0356e-001 49873 88918,88676,88624
 2.3000e+000 88849 -4.0240e+001 -1.1196e+002  1.2585e+000 49873 88598,88754,88624
 2.3000e+000 88826 -3.8065e+001 -1.3496e+002 -1.4330e+001 49873 88624,88676,88650
 2.3000e+000 88803 -3.2230e+001 -1.8097e+002  1.0130e+001 49873 88676,88728,88702
 2.3000e+000 88780 -3.8014e+001 -9.8372e+001  8.7426e+000 49873 88572,88754,88598
 2.3000e+000 88944 -4.2505e+001 -1.4081e+002  8.0395e+000 49873 88754,88728,88918
 2.3000e+000 88967 -4.1876e+001 -1.4566e+002  1.5897e+000 49873 88754,88918,88624
 2.3000e+000 89473 -8.9997e+001 -1.3865e+002 -1.5647e+001 49583 89176,89306,89202
 2.3000e+000 89450 -8.9280e+001 -1.3685e+002 -1.9285e+001 49583 89176,89332,89306
 2.3000e+000 89427 -5.9031e+001 -1.4377e+002 -1.8742e+000 49583 89496,89228,89202
 2.3000e+000 89404 -5.7716e+001 -1.4407e+002 -1.7971e+000 49583 89496,89202,89280
 2.3000e+000 89381 -1.1098e+002 -1.7583e+002 -2.8105e+001 49583 89202,89306,89280
 2.3000e+000 89358 -6.5485e+001 -1.3813e+002 -2.3423e+001 49583 89150,89332,89176
 2.3000e+000 89522 -5.7302e+001 -1.4351e+002 -5.4351e-001 49583 89254,89228,89496
 2.3000e+000 89545 -5.6292e+001 -1.4437e+002 -1.5763e+000 49583 89254,89496,89280
 2.3000e+000 89825  7.8323e+000 -1.4298e+002 -3.2511e-001 49179 89701,89753,89727
 2.3000e+000 89802 -2.9202e+001 -1.3425e+002  4.0031e+000 49179 89675,89753,89701
 2.3000e+000 89779 -2.6458e+001 -1.2379e+002 -2.2246e+000 49179 89848,89753,89675
 2.3000e+000 89874 -7.0063e+001 -1.4632e+002 -1.5801e+001 49179 89649,89753,89848
 2.3000e+000 90223 -3.1411e+001 -1.4158e+002 -1.1620e+001 48739 90024,90102,90076
 2.3000e+000 90200 -5.3062e+001 -1.4451e+002 -4.7007e+000 48739 90024,90128,90102
 2.3000e+000 90177 -2.7116e+001 -1.5272e+002 -6.3928e+000 48739 90024,90076,90050
 2.3000e+000 90154 -2.1676e+001 -1.3897e+002  1.2084e+001 48739 89998,90128,90024
 2.3000e+000 90603 -5.0281e+001 -1.3573e+002  2.4274e+001 48335 90381,90485,90459
 2.3000e+000 90580 -6.0864e+001 -1.4492e+002  1.7991e+001 48335 90355,90485,90381
 2.3000e+000 90557 -1.9856e+001 -4.5186e+001  1.6832e+001 48335 90381,90433,90407
 2.3000e+000 90534 -4.8748e+001 -1.3335e+002  2.6444e+001 48335 90381,90459,90433
 2.3000e+000 90511  6.2171e+000 -1.0324e+002  3.9207e+001 48335 90329,90485,90355
 2.3000e+000 90753  2.5758e+001 -6.8034e+001  4.0963e+001 47824 90776,90652,90704
 2.3000e+000 90730  1.5189e+000 -1.1977e+002  3.4492e+001 47824 90626,90704,90652
 2.3000e+000 90802 -9.5994e+000 -9.5965e+001  2.8848e+001 47824 90678,90652,90776
 2.3000e+000 91131 -2.6090e+001 -1.5152e+002  7.3068e+000 47427 91154,90958,90906
 2.3000e+000 91108 -5.8470e+001 -1.6532e+002  6.7975e+000 47427 91154,90906,91036
 2.3000e+000 91085 -5.7253e+001 -1.2545e+002 -1.0448e+001 47427 90958,91010,90984
 2.3000e+000 91062 -3.3755e+001 -1.3557e+002  1.3839e+001 47427 90906,90958,90932
 2.3000e+000 91180 -4.3854e+001 -1.4599e+002 -1.4363e+001 47427 91010,90958,91154
 2.3000e+000 91203 -7.4544e+001 -1.5916e+002 -1.5383e+001 47427 91010,91154,91036
 2.3000e+000 91583 -8.9701e+001 -1.6788e+002 -9.7165e+000 46873 91309,91439,91335
 2.3000e+000 91560 -9.4082e+001 -1.6725e+002 -8.3423e+000 46873 91309,91465,91439
 2.3000e+000 91537 -1.3364e+002 -1.9290e+002 -4.5097e+001 46873 91361,91439,91413
 2.3000e+000 91514 -9.7902e+001 -1.7305e+002 -2.0101e+001 46873 91335,91439,91361
 2.3000e+000 91491 -4.2557e+001 -1.5628e+002 -3.5758e+001 46873 91361,91413,91387
 2.3000e+000 91880 -3.2604e+001 -1.4413e+002 -3.4234e+000 46526 91606,91710,91658
 2.3000e+000 91857 -3.3386e+001 -1.5215e+002  2.0351e+000 46526 91606,91762,91710
 2.3000e+000 91834 -1.5861e+001 -1.4146e+002 -1.6346e+001 46526 91606,91658,91632
 2.3000e+000 91811 -4.1446e+001 -1.3252e+002  3.4619e+000 46526 91658,91710,91684
 2.3000e+000 91788 -1.5186e+001 -9.1546e+001  9.8832e+000 46526 91710,91762,91736
 2.3000e+000 92211  7.3777e+000 -7.2129e+001 -3.1425e+000 45700 91986,92064,92038
 2.3000e+000 92188 -3.6874e+001 -1.1000e+002  1.4540e+001 45700 91986,92116,92064
 2.3000e+000 92165  2.3108e+001 -5.4532e+001 -2.9542e+001 45700 91986,92038,92012
 2.3000e+000 92142 -3.7902e+001 -1.0664e+002  1.2893e+001 45700 92064,92116,92090
 2.3000e+000 92766 -7.8929e+001 -1.3296e+002  6.4797e-001 45452 92446,92602,92576
 2.3000e+000 92743 -1.2624e+002 -1.3439e+002 -2.7500e+001 45452 92420,92602,92446
 2.3000e+000 92720 -8.9233e+001 -1.3555e+002  1.8259e+001 45452 92789,92524,92498
 2.3000e+000 92697 -1.0938e+002 -1.3409e+002  1.1679e+001 45452 92789,92498,92446
 2.3000e+000 92674 -8.0573e+001 -1.4638e+002 -2.5868e+000 45452 92524,92576,92550
 2.3000e+000 92651 -1.3969e+002 -1.3538e+002  7.2071e+001 45452 92446,92498,92472
 2.3000e+000 92628 -6.7066e+001 -1.5246e+002 -4.6232e+001 45452 92394,92602,92420
 2.3000e+000 92815 -7.5233e+001 -1.4077e+002  1.3021e+001 45452 92576,92524,92789
 2.3000e+000 92838 -9.0325e+001 -1.3506e+002  9.3112e+000 45452 92576,92789,92446
 2.3000e+000 92939 -4.2423e+001 -1.7217e+002 -4.0993e+001 44998 92861,92913,92887
 2.3000e+000 93319 -1.4649e+001 -1.8562e+002  3.4443e+001 44601 93123,93201,93149
 2.3000e+000 93296 -5.1406e+001 -1.7356e+002 -2.1446e+001 44601 93045,93201,93123
 2.3000e+000 93273 -4.7766e+001 -1.0775e+002 -2.5521e+001 44601 93045,93123,93071
 2.3000e+000 93250 -4.2207e+001 -9.7573e+001 -1.4097e+001 44601 93071,93123,93097
 2.3000e+000 93227  2.0904e+000 -1.0499e+002  3.2459e+001 44601 93149,93201,93175
 2.3000e+000 93697 -2.4659e+001 -2.0285e+002  1.3427e+001 44026 93720,93553,93527
 2.3000e+000 93674 -6.4956e+001 -1.6898e+002  1.7293e+001 44026 93720,93527,93449
 2.3000e+000 93651 -7.7597e+001 -1.8292e+002 -7.0793e+000 44026 93449,93527,93501
 2.3000e+000 93628 -4.1360e+001 -1.3784e+002 -2.3893e+001 44026 93423,93579,93449
 2.3000e+000 93605 -2.3856e+001 -1.4998e+002  6.9187e+000 44026 93449,93501,93475
 2.3000e+000 93746  7.1863e+000 -1.8015e+002  2.0550e+000 44026 93579,93553,93720
 2.3000e+000 93769 -3.6193e+001 -1.4783e+002  6.0564e+000 44026 93579,93720,93449
 2.3000e+000 94066 -1.7292e+001 -1.4528e+002 -2.7379e+001 43579 94089,93818,93792
 2.3000e+000 94043 -4.7139e+001 -1.7366e+002 -1.5446e+001 43579 94161,94089,93792
 2.3000e+000 94020 -4.6014e+001 -1.7557e+002 -2.9016e+000 43579 94161,93792,93948
 2.3000e+000 93997 -5.1192e+001 -1.1723e+002 -7.8192e+000 43579 94233,93870,93818
 2.3000e+000 93974 -2.8948e+001 -1.1611e+002 -3.2028e+000 43579 93818,93870,93844
 2.3000e+000 94115 -4.9714e+001 -1.1877e+002 -1.8114e+001 43579 94233,93818,94089
 2.3000e+000 94138 -7.3810e+001 -1.4393e+002 -1.2085e+001 43579 93896,94089,93922
 2.3000e+000 94187 -3.9158e+001 -1.5390e+002 -1.6874e+001 43579 93922,94089,94161
 2.3000e+000 94210 -3.8486e+001 -1.5455e+002 -3.1088e+000 43579 93922,94161,93948
 2.3000e+000 94259 -6.1061e+001 -1.3681e+002 -4.4844e+000 43579 93896,93870,94233
 2.3000e+000 94282 -5.6611e+001 -1.3441e+002 -1.6386e+001 43579 93896,94233,94089
 2.3000e+000 94481 -3.8906e+001 -1.4822e+002 -1.6363e+000 43239 94305,94383,94357
 2.3000e+000 94458 -2.8432e+001 -1.3281e+002  1.8429e+001 43239 94305,94409,94383
 2.3000e+000 94435 -2.2831e+001 -1.5263e+002 -6.5627e+000 43239 94305,94357,94331
 2.3000e+000 94633 -1.6018e+001 -1.0409e+002  2.6981e+001 42827 94656,94532,94506
 2.3000e+000 94610 -3.5521e+001 -1.1667e+002  3.6844e+001 42827 94728,94656,94506
 2.3000e+000 94682 -2.7110e+000 -1.2007e+002  2.7812e+001 42827 94558,94532,94656
 2.3000e+000 94705  1.9970e+001 -1.2337e+002  1.6956e+001 42827 94988,94860,94656
 2.3000e+000 94754 -8.8210e+000 -1.0522e+002  9.1997e+000 42827 94988,94656,94728
 2.3000e+000 94886  5.4380e+001 -1.0975e+002  1.7177e+001 42827 94558,94656,94860
 2.3000e+000 95014  4.3963e+001 -1.0773e+002  1.0149e+001 42827 94584,94860,94988
 2.3000e+000 95037  1.9917e+001 -8.9691e+001  3.1225e+000 42827 94584,94988,94728
 2.3000e+000 95236 -4.8556e+001 -1.4697e+002  5.0076e+000 42537 95259,95112,95060
 2.3000e+000 95213 -2.1152e+001 -1.5907e+002  1.0050e+001 42537 95259,95060,95164
 2.3000e+000 95190 -3.9228e+001 -1.4488e+002 -8.4446e+000 42537 95060,95112,95086
 2.3000e+000 95285 -3.0055e+001 -1.4380e+002  1.7299e+001 42537 95138,95112,95259
 2.3000e+000 95308 -3.4008e+000 -1.4992e+002  2.6147e+001 42537 95138,95259,95164
 2.3000e+000 95816 -5.3209e+001 -1.5761e+002 -6.3028e+000 41969 95493,95597,95519
 2.3000e+000 95793 -8.7463e+001 -1.5705e+002  2.2152e+001 41969 95493,95649,95597
 2.3000e+000 95770 -7.1635e+001 -1.4297e+002  1.2730e+001 41969 95493,95675,95649
 2.3000e+000 95747 -7.9051e+001 -1.7708e+002  2.1507e+001 41969 95597,95649,95623
 2.3000e+000 95724 -9.7030e+001 -1.5596e+002 -8.4808e+000 41969 95519,95597,95571
 2.3000e+000 95701 -9.0305e+001 -1.5273e+002 -4.4827e+001 41969 95519,95571,95545
 2.3000e+000 96371 -6.6325e+001 -1.6232e+002  2.8933e+001 41579 96025,96207,96181
 2.3000e+000 96348  2.1539e+001 -1.2148e+002 -2.6091e-001 41579 95999,96207,96025
 2.3000e+000 96325 -7.0641e+001 -1.1315e+002 -3.2523e+000 41579 96129,96181,96155
 2.3000e+000 96302 -2.5249e+001 -1.1099e+002  9.0153e+000 41579 96025,96181,96129
 2.3000e+000 96279 -5.6953e+001 -1.6494e+002  2.7469e+001 41579 96025,96129,96051
 2.3000e+000 96256 -7.0715e+001 -1.5846e+002  2.6902e+001 41579 96051,96103,96077
 2.3000e+000 96233 -2.7041e+001 -1.1525e+002  6.3383e+000 41579 96051,96129,96103
 2.3000e+000 96877 -1.8212e+000 -8.0582e+001 -1.6705e+001 41182 96972,96900,96632
 2.3000e+000 96854 -8.3627e+000 -5.9798e+001 -2.0056e+001 41182 96900,96554,96736
 2.3000e+000 96831  2.1358e+000 -8.1726e+001 -6.4513e+000 41182 96972,96632,96580
 2.3000e+000 96808 -1.3649e+001 -7.8141e+001  1.1291e+001 41182 96632,96684,96658
 2.3000e+000 96785 -1.2511e+001 -9.9730e+001  4.3915e+000 41182 96684,96736,96710
 2.3000e+000 96762 -4.3016e+001 -1.1344e+002  2.7103e+001 41182 96580,96632,96606
 2.3000e+000 96926 -3.7474e-001 -9.8149e+001 -1.6911e+001 41182 96684,96632,96900
 2.3000e+000 96949 -5.7147e-001 -8.3061e+001 -2.5381e+001 41182 96684,96900,96736
 2.3000e+000 96998 -1.9126e+001 -8.7616e+001 -1.5405e+001 41182 96554,96900,96972
 2.3000e+000 97021 -1.8459e+001 -9.1177e+001 -3.9734e+000 41182 96554,96972,96580
 2.3000e+000 97576 -8.0032e+001 -2.5833e+002 -4.5310e+001 40678 97230,97412,97282
 2.3000e+000 97553  1.5025e+001 -2.0909e+002  1.2562e+001 40678 97204,97412,97230
 2.3000e+000 97530 -3.8644e+001 -1.9496e+002 -3.5342e+001 40678 97282,97360,97308
 2.3000e+000 97507 -2.4461e+001 -1.8583e+002 -1.8379e+001 40678 97282,97412,97360
 2.3000e+000 97484 -1.9336e+001 -1.3322e+002 -2.8988e+001 40678 97308,97360,97334
 2.3000e+000 97461 -7.9458e+001 -2.3389e+002  5.7865e+000 40678 97360,97412,97386
 2.3000e+000 97438 -3.4282e+001 -1.8137e+002 -1.6572e+001 40678 97230,97282,97256
 2.3000e+000 97976 -6.3860e+001 -1.0429e+002 -3.4645e+000 40244 97702,97832,97754
 2.3000e+000 97953 -5.4234e+001 -9.5167e+001 -7.2128e+000 40244 97702,97858,97832
 2.3000e+000 97930 -6.3600e+001 -1.1366e+002 -3.4514e+001 40244 97702,97754,97728
 2.3000e+000 97907 -5.7923e+001 -1.2626e+002  1.4218e+001 40244 97780,97832,97806
 2.3000e+000 97884 -6.1607e+001 -1.0308e+002 -2.9536e+000 40244 97754,97832,97780
 2.3000e+000 98482 -5.3843e+001 -1.3459e+002  1.7587e+001 39690 98505,98185,98159
 2.3000e+000 98459 -4.7462e+001 -1.3260e+002  2.0594e+001 39690 98505,98159,98289
 2.3000e+000 98436 -9.2967e+001 -1.8709e+002  6.5386e+001 39690 98159,98315,98289
 2.3000e+000 98413 -5.7475e+001 -1.2623e+002  1.9947e+001 39690 98211,98289,98263
 2.3000e+000 98390 -4.0903e+001 -9.6395e+001  1.2432e+001 39690 98211,98263,98237
 2.3000e+000 98367 -2.2548e+001 -1.1725e+002  3.3641e+001 39690 98159,98341,98315
 2.3000e+000 98531 -6.6487e+001 -1.3416e+002  1.2827e+001 39690 98211,98185,98505
 2.3000e+000 98554 -5.4481e+001 -1.2521e+002  1.7935e+001 39690 98211,98505,98289
 2.3000e+000 99109 -3.8245e+001 -1.0809e+002 -1.0286e+001 39072 99132,98867,98789
 2.3000e+000 99086 -4.4894e+001 -1.0779e+002 -8.6905e+000 39072 99132,98789,98763
 2.3000e+000 99063 -5.5811e+001 -1.6871e+002  1.6994e+001 39072 98867,98945,98919
 2.3000e+000 99040 -2.9294e+001 -1.1366e+002 -5.1251e+000 39072 98789,98867,98841
 2.3000e+000 99017 -7.5426e+001 -1.3185e+002  4.1626e+000 39072 98867,98919,98893
 2.3000e+000 98994 -5.4528e+001 -1.0718e+002  2.1220e+001 39072 98789,98841,98815
 2.3000e+000 98971 -5.4355e+001 -1.1041e+002 -1.2767e+001 39072 98737,98945,98763
 2.3000e+000 99158 -3.6409e+001 -1.0771e+002 -1.1168e+001 39072 98945,98867,99132
 2.3000e+000 99181 -3.9105e+001 -1.0343e+002 -1.0806e+001 39072 98945,99132,98763
 2.3000e+000 99510 -3.8908e+001 -1.1251e+002  1.8135e+000 38668 99311,99389,99363
 2.3000e+000 99487 -4.2871e+001 -1.1013e+002  7.6547e+000 38668 99285,99389,99311
 2.3000e+000 99464 -7.2091e+001 -1.2002e+002  1.9368e+001 38668 99285,99415,99389
 2.3000e+000 99441 -4.6506e+001 -1.0687e+002 -1.5356e+000 38668 99311,99363,99337
 2.3000e+000 99758 -1.2523e+001 -1.6404e+002  1.1803e+001 38164 99781,99611,99585
 2.3000e+000 99735  1.8963e+001 -1.6024e+002  1.7929e+001 38164 99781,99585,99533
 2.3000e+000 99712 -2.2214e+001 -1.2833e+002  1.6030e+001 38164 99611,99663,99637
 2.3000e+000 99689  3.1539e+001 -1.4250e+002  8.1387e+000 38164 99533,99585,99559
 2.3000e+000 99807 -2.9312e+001 -1.5433e+002  2.0087e+001 38164 99663,99611,99781
 2.3000e+000 99830 -8.5557e+000 -1.5830e+002  2.0530e+001 38164 99663,99781,99533
 2.3000e+000 100232 -5.5347e+001 -1.4373e+002  2.1040e+000 37702 99984,100114,100088
 2.3000e+000 100209 -4.2021e+001 -1.4287e+002  1.4370e+001 37702 99958,100114,99984
 2.3000e+000 100186 -8.0037e+001 -1.7523e+002 -9.0685e+000 37702 100010,100088,100036
 2.3000e+000 100163 -5.5735e+001 -1.4398e+002  1.5062e+000 37702 99984,100088,100010
 2.3000e+000 100140 -5.7793e+001 -1.5795e+002 -3.7847e+001 37702 100036,100088,100062
 2.3000e+000 100640 -1.1161e+002 -1.5124e+002  1.7841e+001 37262 100493,100545,100519
 2.3000e+000 100617 -9.2454e+001 -1.6472e+002  1.0964e+001 37262 100441,100545,100493
 2.3000e+000 100594 -4.7447e+001 -1.3517e+002 -7.7640e+000 37262 100415,100545,100441
 2.3000e+000 100571 -1.1228e+002 -1.9478e+002 -7.7415e+000 37262 100441,100493,100467
 2.3000e+000 101146 -6.8903e+001 -1.2262e+002 -1.6382e+000 36872 100823,100979,100849
 2.3000e+000 101123 -6.5914e+001 -1.1183e+002 -1.1140e+001 36872 100823,101005,100979
 2.3000e+000 101100 -7.1062e+001 -1.8017e+002  2.3544e+001 36872 101169,100901,100849
 2.3000e+000 101077 -5.5425e+001 -1.4646e+002  1.5509e+001 36872 101169,100849,100979
 2.3000e+000 101054 -2.9049e+001 -1.5708e+002  2.9344e+000 36872 100927,100979,100953
 2.3000e+000 101031 -3.7692e+001 -2.0423e+002  3.2761e+001 36872 100849,100901,100875
 2.3000e+000 101195 -5.1991e+001 -1.9062e+002  2.8639e+000 36872 100927,100901,101169
 2.3000e+000 101218 -4.2630e+001 -1.7242e+002 -3.4030e+000 36872 100927,101169,100979
 2.3000e+000 101773 -8.8856e+001 -1.4358e+002  2.7560e+001 36418 101479,101609,101583
 2.3000e+000 101750 -8.2652e+001 -1.4494e+002  3.4119e+001 36418 101453,101609,101479
 2.3000e+000 101727 -4.5861e+001 -1.5004e+002  1.5960e+000 36418 101796,101531,101479
 2.3000e+000 101704 -7.7349e+001 -1.6859e+002  1.1994e+001 36418 101796,101479,101583
 2.3000e+000 101681 -4.7866e+001 -1.3695e+002  3.5544e+000 36418 101479,101531,101505
 2.3000e+000 101658 -3.6104e+000 -1.4203e+002 -2.7078e+000 36418 101401,101609,101453
 2.3000e+000 101635 -2.7735e+001 -1.6016e+002 -1.0618e+001 36418 101401,101453,101427
 2.3000e+000 101822 -5.4613e+001 -1.3663e+002 -2.9096e+001 36418 101557,101531,101796
 2.3000e+000 101845 -9.4537e+001 -1.4888e+002 -2.1018e+001 36418 101557,101796,101583
 2.3000e+000 102174  3.6930e+001 -6.5875e+001 -2.8681e+001 35914 101949,102053,101975
 2.3000e+000 102151 -3.7409e+001 -8.9534e+001 -1.1194e+001 35914 101949,102079,102053
 2.3000e+000 102128  7.5859e-001 -8.3266e+001 -1.5589e+001 35914 101975,102053,102027
 2.3000e+000 102105  9.2271e-001 -7.8747e+001 -1.5101e+001 35914 101975,102027,102001
 2.3000e+000 102631 -3.1979e+001 -1.4971e+002 -3.0180e+000 35574 102383,102513,102487
 2.3000e+000 102608 -1.7990e+001 -1.4060e+002  1.2627e+000 35574 102357,102513,102383
 2.3000e+000 102585 -4.8992e+001 -1.6244e+002  2.5736e+000 35574 102409,102487,102435
 2.3000e+000 102562 -4.5507e+001 -1.5879e+002  4.2735e+000 35574 102383,102487,102409
 2.3000e+000 102539 -7.2129e+001 -1.9232e+002 -1.3229e+001 35574 102435,102487,102461
 2.3000e+000 103009 -6.9041e+001 -1.2580e+002 -2.0936e+001 35170 102761,102865,102787
 2.3000e+000 102986 -3.1879e+001 -1.0660e+002 -1.4720e+000 35170 102761,102891,102865
 2.3000e+000 102963 -6.1326e+001 -1.2684e+002 -1.4251e+001 35170 102787,102865,102813
 2.3000e+000 102940 -2.4764e+001 -1.0127e+002  8.9096e-001 35170 102735,102891,102761
 2.3000e+000 102917 -6.2679e+001 -1.2873e+002 -1.0581e+001 35170 102813,102865,102839
 2.3000e+000 103257  3.8499e+001 -1.0730e+002 -2.3805e+001 34659 103280,103058,103032
 2.3000e+000 103234  2.5017e+001 -1.1209e+002 -6.5339e+000 34659 103280,103032,103162
 2.3000e+000 103211 -1.7811e+001 -9.1005e+001 -1.5652e+001 34659 103084,103162,103110
 2.3000e+000 103188 -3.4501e+001 -1.2588e+002 -1.0625e+001 34659 103110,103162,103136
 2.3000e+000 103306  1.1300e+001 -1.0158e+002 -2.2254e+001 34659 103084,103058,103280
 2.3000e+000 103329  5.1591e+000 -1.0483e+002 -2.6428e+000 34659 103084,103280,103162
 2.3000e+000 103837  3.6636e+001 -1.5259e+002  1.4503e+001 34247 103860,103566,103540
 2.3000e+000 103814  4.0216e+000 -1.5988e+002  2.6923e+000 34247 103932,103860,103540
 2.3000e+000 103791  1.0807e+001 -1.7945e+002 -1.7531e+001 34247 103932,103540,103670
 2.3000e+000 103768  2.1184e+001 -1.5088e+002 -1.6435e+001 34247 103566,103618,103592
 2.3000e+000 103745 -3.9683e+001 -1.4065e+002 -2.1101e+001 34247 103540,103696,103670
 2.3000e+000 103722 -5.9003e+001 -1.5198e+002  2.8539e+001 34247 103514,103696,103540
 2.3000e+000 103886 -8.4811e+000 -1.5092e+002 -1.2008e+000 34247 103618,103566,103860
 2.3000e+000 103909 -3.8137e+001 -1.6624e+002  4.8215e+000 34247 103618,103860,103644
 2.3000e+000 103958 -1.4188e+001 -2.0739e+002  2.9247e-001 34247 103644,103860,103932
 2.3000e+000 103981 -7.2194e+000 -2.2534e+002 -2.0893e+001 34247 103644,103932,103670
 2.3000e+000 104300 -7.2672e+001 -1.5992e+002 -8.6245e+000 33843 104052,104182,104156
 2.3000e+000 104277 -9.1791e+001 -1.4092e+002 -5.6464e-001 33843 104026,104182,104052
 2.3000e+000 104254 -7.2248e+001 -1.8218e+002  5.2258e+000 33843 104078,104156,104130
 2.3000e+000 104231 -9.4950e+001 -1.7690e+002 -1.1510e+000 33843 104052,104156,104078
 2.3000e+000 104208 -1.0842e+002 -1.8680e+002  3.0983e+000 33843 104078,104130,104104
 2.3000e+000 104499 -2.4043e+001 -1.3278e+002 -3.6676e+001 33282 104594,104522,104375
 2.3000e+000 104476 -1.2236e+001 -1.6305e+002  6.4873e-002 33282 104522,104323,104427
 2.3000e+000 104453  1.0286e+001 -1.3953e+002 -3.8168e+001 33282 104594,104375,104349
 2.3000e+000 104548 -6.0221e+001 -1.2791e+002 -6.4415e+000 33282 104401,104375,104522
 2.3000e+000 104571  7.9031e+000 -1.0485e+002  7.5898e+000 33282 104401,104522,104427
 2.3000e+000 104620  2.5082e+001 -1.2410e+002 -2.3451e+001 33282 104323,104522,104594
 2.3000e+000 104643  4.8876e+001 -1.4020e+002 -2.8751e+001 33282 104323,104594,104349
 2.3000e+000 104942 -7.1847e+001 -1.8459e+002  2.4644e+001 32728 104694,104772,104720
 2.3000e+000 104919 -5.9659e+001 -1.6828e+002  7.3640e+000 32728 104694,104824,104772
 2.3000e+000 104896 -9.4855e+001 -1.6682e+002  2.6995e+001 32728 104720,104772,104746
 2.3000e+000 104873 -3.3976e+001 -1.9689e+002  7.0060e+000 32728 104772,104824,104798
 2.3000e+000 104850 -6.4022e+001 -1.6744e+002  8.4687e+000 32728 104668,104824,104694
 2.3000e+000 105373 -6.6671e+001 -1.7814e+002 -1.3565e+001 32274 105396,105102,105076
 2.3000e+000 105350 -5.3957e+001 -1.9750e+002 -1.0318e+001 32274 105396,105076,105206
 2.3000e+000 105327 -5.7425e+001 -2.0489e+002  2.9088e+001 32274 105154,105206,105180
 2.3000e+000 105304 -4.3828e+001 -1.9893e+002 -2.2448e+001 32274 105076,105232,105206
 2.3000e+000 105281 -7.1042e+001 -1.6482e+002 -3.1326e+001 32274 105102,105154,105128
 2.3000e+000 105258 -1.3277e+002 -2.0416e+002 -4.7258e+001 32274 105050,105232,105076
 2.3000e+000 105422 -6.0423e+001 -1.5959e+002 -9.0507e+000 32274 105154,105102,105396
 2.3000e+000 105445 -5.0791e+001 -1.8225e+002 -7.6099e+000 32274 105154,105396,105206
 2.3000e+000 105644 -5.5250e+001 -1.8069e+002  1.5695e+000 31620 105468,105546,105520
 2.3000e+000 105621 -4.6222e+001 -1.8218e+002 -2.7187e+000 31620 105468,105572,105546
 2.3000e+000 105598 -5.9892e+001 -2.1054e+002  1.7213e+001 31620 105468,105520,105494
 2.3000e+000 105794 -2.9929e+001 -1.6985e+002 -4.1639e+000 31158 105889,105817,105693
 2.3000e+000 105771 -3.9980e+001 -1.5793e+002 -8.1444e+000 31158 105817,105667,105745
 2.3000e+000 105843 -3.5238e+001 -1.9596e+002 -2.8946e+000 31158 105719,105693,105817
 2.3000e+000 105866 -2.9797e+001 -1.7612e+002 -7.3388e+000 31158 105719,105817,105745
 2.3000e+000 105915 -5.0422e+001 -1.7863e+002 -4.3949e+000 31158 105667,105817,105889
 2.3000e+000 106270 -6.5750e+001 -1.5539e+002 -7.4856e+000 30818 106293,106071,106045
 2.3000e+000 106247 -7.9624e+001 -1.8626e+002 -2.6822e+001 30818 106293,106045,106175
 2.3000e+000 106224 -2.9982e+001 -1.5107e+002  4.5655e+000 30818 106123,106175,106149
 2.3000e+000 106201 -7.3196e+001 -1.5466e+002  7.9818e+000 30818 106071,106123,106097
 2.3000e+000 106319 -6.0812e+001 -1.4307e+002  2.1843e+000 30818 106123,106071,106293
 2.3000e+000 106342 -5.8797e+001 -1.5894e+002 -1.4065e+001 30818 106123,106293,106175
 2.3000e+000 106492 -7.1883e+001 -1.7279e+002  2.8338e+001 30414 106645,106391,106365
 2.3000e+000 106469 -5.0420e+001 -1.7052e+002  4.7167e+001 30414 106515,106365,106443
 2.3000e+000 106541 -5.8796e+001 -1.7338e+002  2.9126e+001 30414 106645,106365,106515
 2.3000e+000 106671 -5.1508e+001 -1.9992e+002  4.6015e+001 30414 106417,106391,106645
 2.3000e+000 106694 -1.4961e+001 -1.8446e+002  3.8560e+001 30414 106417,106645,106515
 2.3000e+000 106942 -2.5494e+001 -2.2571e+002 -5.6724e+000 29910 106965,106795,106769
 2.3000e+000 106919  9.1159e+000 -2.1625e+002  1.5901e+000 29910 106965,106769,106717
 2.3000e+000 106896 -4.1517e+001 -1.7641e+002 -2.5730e+001 29910 106795,106847,106821
 2.3000e+000 106873  2.4437e+001 -1.6809e+002 -1.1695e+001 29910 106717,106769,106743
 2.3000e+000 106991 -5.6291e+001 -2.0360e+002  4.2618e+000 29910 106847,106795,106965
 2.3000e+000 107014 -2.2541e+001 -1.9381e+002  1.5033e+001 29910 106847,106965,106717
 2.3000e+000 107213 -4.1479e+001 -1.7438e+002  1.3947e+001 29413 107236,107063,107037
 2.3000e+000 107190 -3.9803e+001 -2.1299e+002  2.8334e+001 29413 107236,107037,107141
 2.3000e+000 107167 -5.0255e+001 -1.1788e+002  2.9100e+001 29413 107063,107115,107089
 2.3000e+000 107262 -3.9894e+001 -1.4836e+002  7.9846e+000 29413 107115,107063,107236
 2.3000e+000 107285 -3.2582e+001 -1.7735e+002  2.3523e+001 29413 107115,107236,107141
 2.3000e+000 107486 -2.2362e+001 -1.5370e+002  1.6585e+001 29009 107336,107388,107362
 2.3000e+000 107463 -7.5258e+000 -1.4663e+002  7.8711e+000 29009 107310,107388,107336
 2.3000e+000 107440 -2.3947e+001 -1.4439e+002  1.2746e+001 29009 107310,107414,107388
 2.3000e+000 107736 -5.8248e+001 -1.6470e+002  1.7298e+000 28491 107537,107615,107563
 2.3000e+000 107713 -3.9624e+001 -1.5585e+002  6.1395e+000 28491 107537,107641,107615
 2.3000e+000 107690 -1.7818e+001 -1.6073e+002  1.4335e+001 28491 107563,107615,107589
 2.3000e+000 107667 -6.3055e+001 -1.7031e+002 -1.8515e+000 28491 107511,107641,107537
 2.3000e+000 108118 -2.0995e+001 -1.5888e+002 -6.3742e+000 27980 108141,107922,107844
 2.3000e+000 108095 -2.9820e+000 -1.6300e+002 -1.0808e+001 27980 108141,107844,108000
 2.3000e+000 108072 -1.3318e+001 -1.4202e+002 -1.2451e+001 27980 107844,107922,107870
 2.3000e+000 108049 -1.6510e+001 -1.3932e+002 -1.0226e+001 27980 107870,107922,107896
 2.3000e+000 108026 -3.8896e+001 -1.4356e+002  2.9557e+001 27980 107922,107974,107948
 2.3000e+000 108167 -3.5220e+000 -1.7716e+002  2.2565e+000 27980 107974,107922,108141
 2.3000e+000 108190  4.0942e+001 -1.6228e+002 -1.0207e+000 27980 107974,108141,108000
 2.3000e+000 108745 -1.7761e+001 -1.1042e+002  8.9157e-001 27376 108840,108768,108477
 2.3000e+000 108722 -3.3671e+001 -1.2723e+002 -1.8543e+001 27376 108768,108373,108581
 2.3000e+000 108699 -2.8960e+001 -9.8760e+001  2.0905e+001 27376 108840,108477,108451
 2.3000e+000 108676 -7.5350e+001 -1.1506e+002 -5.1525e+000 27376 108373,108451,108399
 2.3000e+000 108653 -3.1410e+001 -1.4334e+002  6.9095e+000 27376 108503,108581,108529
 2.3000e+000 108630 -1.0023e+001 -1.2507e+002 -1.3729e+000 27376 108529,108581,108555
 2.3000e+000 108607 -8.8178e+001 -1.3012e+002  9.0349e+000 27376 108399,108451,108425
 2.3000e+000 108794 -2.9414e+001 -1.3999e+002  2.7672e-001 27376 108503,108477,108768
 2.3000e+000 108817 -1.5843e+001 -1.3039e+002 -3.9091e+000 27376 108503,108768,108581
 2.3000e+000 108866 -5.8656e+001 -1.3266e+002 -7.6620e+000 27376 108373,108768,108840
 2.3000e+000 108889 -5.6775e+001 -1.1634e+002  1.3068e+001 27376 108373,108840,108451
 2.3000e+000 109186 -6.3023e+001 -1.7748e+002  1.9606e+001 26722 109209,108938,108912
 2.3000e+000 109163 -5.9313e+001 -1.6763e+002  1.5778e+001 26722 109281,109209,108912
 2.3000e+000 109140 -5.6963e+001 -1.6411e+002  1.4760e+001 26722 109281,108912,109042
 2.3000e+000 109117 -4.6438e+001 -1.8845e+002  1.2994e+001 26722 108938,108990,108964
 2.3000e+000 109094 -8.2883e+001 -1.4553e+002  7.5883e+000 26722 108912,109068,109042
 2.3000e+000 109235 -4.6282e+001 -1.7103e+002  1.8918e+001 26722 108990,108938,109209
 2.3000e+000 109258 -5.5321e+001 -1.8474e+002  1.4991e+001 26722 108990,109209,109016
 2.3000e+000 109307 -5.2698e+001 -1.7320e+002  8.8236e+000 26722 109016,109209,109281
 2.3000e+000 109330 -4.8572e+001 -1.6693e+002  7.0204e+000 26722 109016,109281,109042
 2.3000e+000 109732 -7.0130e+001 -1.5042e+002 -2.8180e+000 26310 109458,109588,109484
 2.3000e+000 109709 -6.4473e+001 -1.6632e+002 -1.7227e+001 26310 109458,109614,109588
 2.3000e+000 109686 -9.6962e+001 -1.6645e+002  2.2174e+001 26310 109510,109562,109536
 2.3000e+000 109663 -1.0028e+002 -1.5985e+002  9.6530e+000 26310 109484,109562,109510
 2.3000e+000 109640 -7.2252e+001 -1.5229e+002 -1.0051e+000 26310 109484,109588,109562
 2.3000e+000 110159 -5.4949e+001 -1.5600e+002  5.8065e+000 25642 110182,109940,109914
 2.3000e+000 110136 -5.7015e+001 -1.6646e+002  1.0034e+001 25642 110182,109914,109888
 2.3000e+000 110113 -4.9142e+001 -1.8105e+002 -2.3207e+001 25642 109966,110018,109992
 2.3000e+000 110090 -5.4403e+001 -1.7600e+002  1.4500e+001 25642 110254,109966,109940
 2.3000e+000 110067 -5.2399e+001 -1.6679e+002  8.8760e+000 25642 109862,110018,109888
 2.3000e+000 110044 -7.2708e+001 -1.5004e+002  1.8189e+001 25642 109836,110018,109862
 2.3000e+000 110208 -5.7156e+001 -1.5983e+002  1.1418e+001 25642 110254,109940,110182
 2.3000e+000 110231 -5.3254e+001 -1.6818e+002  8.5066e+000 25642 110018,110182,109888
 2.3000e+000 110280 -5.1897e+001 -1.9502e+002  1.0810e+001 25642 110018,109966,110254
 2.3000e+000 110303 -5.7727e+001 -1.8272e+002  7.9382e+000 25642 110018,110254,110182
 2.3000e+000 110632 -6.9458e+001 -1.5043e+002 -1.4513e+001 25188 110407,110485,110433
 2.3000e+000 110609 -8.5827e+001 -1.6621e+002 -7.9989e+000 25188 110407,110537,110485
 2.3000e+000 110586 -8.4855e+001 -1.5810e+002 -2.9351e+001 25188 110433,110485,110459
 2.3000e+000 110563 -7.7818e+001 -1.6802e+002  1.1591e+001 25188 110485,110537,110511
 2.3000e+000 110831 -2.0266e+001 -1.5129e+002  4.3471e+000 24726 110854,110707,110655
 2.3000e+000 110808 -1.7920e+001 -1.6045e+002  1.2693e+001 24726 110854,110655,110759
 2.3000e+000 110785 -2.0982e+001 -1.5377e+002  4.3697e+000 24726 110655,110707,110681
 2.3000e+000 110880 -1.7958e+001 -1.4244e+002  3.7318e+000 24726 110733,110707,110854
 2.3000e+000 110903 -1.3527e+001 -1.4760e+002  1.2520e+001 24726 110733,110854,110759
 2.3000e+000 111234  8.2020e+000 -1.0518e+002 -1.0273e+001 24222 111257,111087,111035
 2.3000e+000 111211  4.9606e+001 -8.7043e+001  4.0587e+000 24222 111257,111035,111009
 2.3000e+000 111188  4.5811e+001 -6.1300e+001 -2.9210e+001 24222 111035,111087,111061
 2.3000e+000 111165 -1.7357e+001 -8.5527e+001  3.3877e+000 24222 111087,111139,111113
 2.3000e+000 111283 -1.3751e+001 -7.9025e+001  4.8353e+000 24222 111139,111087,111257
 2.3000e+000 111306  3.2259e+000 -6.3616e+001  1.3926e+001 24222 111139,111257,111009
 2.3000e+000 111625 -2.4743e+001 -1.5533e+002 -1.1419e+001 23732 111648,111481,111455
 2.3000e+000 111602 -2.7040e+001 -1.5558e+002 -1.0071e+001 23732 111648,111455,111377
 2.3000e+000 111579  1.4447e+001 -8.2599e+001  1.6265e+001 23732 111377,111429,111403
 2.3000e+000 111556 -1.4544e+001 -1.5778e+002 -4.6074e+000 23732 111377,111455,111429
 2.3000e+000 111533 -2.4694e+001 -1.3722e+002 -5.7533e+000 23732 111351,111507,111377
 2.3000e+000 111674 -2.8384e+001 -1.5599e+002 -1.1315e+001 23732 111507,111481,111648
 2.3000e+000 111697 -2.8517e+001 -1.5558e+002 -9.4290e+000 23732 111507,111648,111377
 2.3000e+000 112156 -4.3332e+001 -1.7144e+002  1.0282e+001 23278 112179,111908,111882
 2.3000e+000 112133 -4.2215e+001 -1.6034e+002  2.5475e+000 23278 112179,111882,112012
 2.3000e+000 112110 -2.1465e+001 -1.8333e+002  9.5420e-001 23278 111908,111960,111934
 2.3000e+000 112087  9.6358e+000 -1.4462e+002 -1.6251e+001 23278 111882,112038,112012
 2.3000e+000 112064 -2.1895e+001 -1.4440e+002 -3.5673e+000 23278 111960,112012,111986
 2.3000e+000 112205 -3.9787e+001 -1.6552e+002  1.3090e+000 23278 111960,111908,112179
 2.3000e+000 112228 -3.3936e+001 -1.5233e+002 -7.2393e+000 23278 111960,112179,112012
 2.3000e+000 112685 -1.0872e+002 -2.4757e+002 -2.4397e+001 22938 112489,112567,112541
 2.3000e+000 112662 -9.3654e+001 -2.1285e+002 -2.2632e+001 22938 112437,112567,112489
 2.3000e+000 112639 -6.2730e+001 -1.8690e+002 -3.6318e+000 22938 112489,112541,112515
 2.3000e+000 112616 -1.0800e+002 -2.0345e+002 -2.0281e+001 22938 112411,112567,112437
 2.3000e+000 112593 -8.7304e+001 -2.6883e+002 -6.5014e+000 22938 112437,112489,112463
 2.3000e+000 113191  2.6351e+001 -1.5804e+002 -2.4221e+001 22534 113214,112998,112946
 2.3000e+000 113168 -1.4618e+001 -1.4918e+002 -6.9006e+000 22534 113286,113214,112946
 2.3000e+000 113145 -8.3207e+000 -1.4760e+002 -6.8181e+000 22534 113286,112946,112920
 2.3000e+000 113122 -6.1371e+001 -1.4230e+002 -2.6440e+001 22534 113358,113024,112998
 2.3000e+000 113099 -2.3829e+001 -1.4684e+002 -2.3938e+000 22534 112868,113050,112894
 2.3000e+000 113076 -5.3933e+001 -3.2211e+002 -6.3457e+001 22534 112946,112998,112972
 2.3000e+000 113240 -4.0092e+001 -1.7591e+002 -2.9447e+001 22534 113358,112998,113214
 2.3000e+000 113263 -1.7882e+001 -1.6037e+002 -2.7877e+000 22534 113050,113214,112894
 2.3000e+000 113312 -4.0919e+000 -1.5405e+002 -5.8366e+000 22534 112894,113214,113286
 2.3000e+000 113335  4.6315e+000 -1.5053e+002 -7.3441e+000 22534 112894,113286,112920
 2.3000e+000 113384 -3.5740e+001 -1.1960e+002 -1.3849e+001 22534 113050,113024,113358
 2.3000e+000 113407 -2.7691e+000 -1.4401e+002 -1.4185e+001 22534 113050,113358,113214
 2.3000e+000 113785 -8.3613e+001 -2.1393e+002  7.3742e+000 21978 113808,113615,113511
 2.3000e+000 113762 -6.5532e+001 -2.1475e+002  1.5822e+001 21978 113808,113511,113667
 2.3000e+000 113739 -4.9142e+001 -1.7823e+002 -6.9261e+000 21978 113511,113615,113537
 2.3000e+000 113716  1.4378e+001 -1.5798e+002 -1.1983e+001 21978 113537,113615,113589
 2.3000e+000 113693 -2.0093e+001 -2.1919e+002  5.0710e+000 21978 113537,113589,113563
 2.3000e+000 113834 -8.7753e+001 -2.1597e+002  3.1075e+001 21978 113641,113615,113808
 2.3000e+000 113857 -4.0519e+001 -1.9733e+002  4.1230e+001 21978 113641,113808,113667
 2.3000e+000 114284 -6.4483e+001 -1.7085e+002  4.5478e+000 21517 114013,114117,114039
 2.3000e+000 114261 -6.4260e+001 -1.6793e+002  1.1515e+001 21517 113961,114117,114013
 2.3000e+000 114238 -6.5539e+001 -1.9194e+002  8.1096e+000 21517 113961,114013,113987
 2.3000e+000 114215 -9.8464e+001 -1.8856e+002 -1.2056e+001 21517 114039,114117,114091
 2.3000e+000 114192 -7.2356e+001 -1.4895e+002  1.7496e+001 21517 113961,114143,114117
 2.3000e+000 114169  6.0026e+000 -1.4916e+002 -9.9481e+000 21517 114039,114091,114065
 2.3000e+000 114581 -3.4795e+001 -2.0712e+002  1.5444e+000 21027 114359,114463,114437
 2.3000e+000 114558 -2.0998e+001 -1.8841e+002  2.4293e+001 21027 114333,114463,114359
 2.3000e+000 114535 -1.6923e+001 -1.9125e+002 -5.2317e+000 21027 114359,114437,114385
 2.3000e+000 114512 -1.2581e+001 -1.8647e+002  1.9136e+001 21027 114307,114463,114333
 2.3000e+000 114489  2.8167e+001 -1.7652e+002 -9.7647e+000 21027 114385,114437,114411
 2.3000e+000 114912 -6.7540e+001 -1.7749e+002  2.6702e+000 20623 114713,114791,114765
 2.3000e+000 114889 -1.4282e+001 -1.5517e+002 -1.8354e+001 20623 114687,114791,114713
 2.3000e+000 114866 -5.2873e+001 -2.0673e+002 -9.4744e-001 20623 114687,114817,114791
 2.3000e+000 114843 -9.2785e+001 -2.0629e+002  1.3527e+001 20623 114713,114765,114739
 2.3000e+000 115290 -2.8534e+001 -1.5721e+002  6.4408e+000 20375 115313,115146,115094
 2.3000e+000 115267 -3.3994e+001 -1.5698e+002  9.2475e+000 20375 115313,115094,115042
 2.3000e+000 115244 -3.2823e+001 -1.4605e+002  2.9566e+000 20375 115385,115016,115172
 2.3000e+000 115221  2.7070e+001 -1.3576e+002  9.1314e+000 20375 115042,115094,115068
 2.3000e+000 115198 -3.7546e+001 -1.8086e+002  8.0788e+000 20375 115094,115146,115120
 2.3000e+000 115339 -4.8010e+001 -1.8150e+002 -6.2463e+000 20375 115172,115146,115313
 2.3000e+000 115362 -3.1018e+001 -1.5130e+002  1.7222e+000 20375 115385,115172,115313
 2.3000e+000 115411 -2.9414e+001 -1.5008e+002  8.2608e+000 20375 115042,115016,115385
 2.3000e+000 115434 -3.0564e+001 -1.5849e+002  7.7718e+000 20375 115042,115385,115313
 2.3000e+000 115891 -8.1185e+001 -1.6468e+002  2.0293e+001 19971 115617,115747,115643
 2.3000e+000 115868 -6.8260e+001 -1.3243e+002  1.8022e+001 19971 115617,115773,115747
 2.3000e+000 115845 -5.3428e+001 -2.3336e+002  1.0316e+001 19971 115643,115721,115695
 2.3000e+000 115822 -3.0583e+000 -1.2245e+002 -1.0572e+000 19971 115643,115747,115721
 2.3000e+000 115799  2.3638e+001 -2.5712e+002 -4.0104e+000 19971 115643,115695,115669
 2.3000e+000 115992 -1.2153e+002 -3.1371e+002 -5.5550e+001 19659 115914,115966,115940
 2.3000e+000 116142 -2.2244e+001 -6.9200e+001  2.3226e+000 18997 116041,116093,116067
 2.3000e+000 116119 -4.0378e+001 -1.1629e+002  8.0056e+000 18997 116015,116093,116041
 2.3000e+000 116343 -3.4498e+001 -1.8716e+002 -5.0395e+000 18707 116193,116245,116219
 2.3000e+000 116320 -3.7444e+001 -1.9235e+002 -1.0386e+001 18707 116193,116271,116245
 2.3000e+000 116297 -1.9960e+001 -1.5112e+002 -9.0570e+000 18707 116167,116271,116193
 2.3000e+000 116747 -2.8413e+001 -1.6093e+002 -2.0231e+000 18301 116525,116629,116551
 2.3000e+000 116724 -2.5650e+001 -1.4025e+002  1.9031e+000 18301 116473,116629,116525
 2.3000e+000 116701 -2.2256e+001 -1.4234e+002 -9.9085e+000 18301 116473,116525,116499
 2.3000e+000 116678 -1.4374e+001 -1.6798e+002 -2.3880e+000 18301 116551,116603,116577
 2.3000e+000 116655 -3.4715e+001 -1.7584e+002 -6.6070e+000 18301 116551,116629,116603
 2.3000e+000 117147 -8.4724e+001 -1.9660e+002 -6.9937e-001 17747 116899,117029,116925
 2.3000e+000 117124 -4.7507e+001 -1.4628e+002  1.8683e+001 17747 116873,117029,116899
 2.3000e+000 117101 -8.3204e+001 -1.9461e+002 -1.7767e-002 17747 116925,117029,116951
 2.3000e+000 117078 -7.3857e+001 -1.6999e+002  9.7938e-001 17747 116951,117029,117003
 2.3000e+000 117055 -9.8921e+001 -2.1501e+002 -1.1779e+001 17747 116951,117003,116977
 2.3000e+000 117368  3.6449e+001 -1.8366e+002  3.5305e-001 17293 117244,117296,117270
 2.3000e+000 117345  9.3859e+000 -1.8073e+002 -5.3991e+000 17293 117192,117296,117244
 2.3000e+000 117322 -1.9769e+001 -1.7328e+002 -2.3418e+000 17293 117192,117244,117218
 2.3000e+000 117699 -2.2919e+001 -1.4415e+002 -1.5636e+001 16896 117526,117604,117552
 2.3000e+000 117676 -9.4098e+001 -2.1466e+002  1.2746e+001 16896 117500,117604,117526
 2.3000e+000 117653 -1.0187e+002 -1.7223e+002 -8.4067e+000 16896 117552,117604,117578
 2.3000e+000 117630 -7.6979e+001 -2.7177e+002  2.7266e+001 16896 117474,117604,117500
 2.3000e+000 117849 -1.9324e+002 -3.7270e+002 -1.4672e+001 16534 117722,117774,117748
 2.3000e+000 117826 -1.5257e+002 -4.5572e+002 -6.2579e+001 16534 117722,117800,117774
 2.3000e+000 118070 -2.2837e+001 -1.7412e+002  1.7592e+001 16194 117946,117998,117972
 2.3000e+000 118047 -4.0771e+001 -2.0530e+002  1.0079e+001 16194 117894,117998,117946
 2.3000e+000 118024 -5.1215e+001 -1.8900e+002 -3.0969e+000 16194 117894,117946,117920
 2.3000e+000 118173 -2.0026e+001 -1.8938e+002  0.0000e+000 15968 118095,118147,118121
 2.3000e+000 118276 -5.3300e+001 -1.8469e+002  2.8816e+000 15433 118299,118198,118250
 2.3000e+000 118325 -5.6057e+001 -1.9112e+002  2.9455e+000 15433 118224,118198,118299
 2.3000e+000 118450 -9.8403e+001 -2.1613e+002  2.1245e+001 421 118372,118424,118398
 2.4000e+000 69891 -3.0092e+001 -2.4942e+002  1.1525e+001 68988 69447,69681,69629
 2.4000e+000 69868  2.2176e+001 -2.2709e+002  8.0874e+000 68988 69421,69681,69447
 2.4000e+000 69845  1.5159e+001 -1.1304e+002  3.8116e+000 68988 69447,69629,69577
 2.4000e+000 69822 -6.4695e+001 -2.5734e+002 -2.9047e+001 68988 69447,69577,69473
 2.4000e+000 69799 -3.7904e+000 -3.0112e+002  4.6903e+001 68988 69629,69681,69655
 2.4000e+000 69776 -7.0825e+001 -1.4960e+002  3.7436e+000 68988 69577,69629,69603
 2.4000e+000 69753 -4.7992e+001 -2.2505e+002 -3.5283e+001 68988 69473,69577,69551
 2.4000e+000 69730 -8.1470e+001 -4.7095e+002 -4.7532e+001 68988 69473,69551,69525
 2.4000e+000 69707 -1.3866e+002 -3.0793e+002  4.4315e-001 68988 69473,69525,69499
 2.4000e+000 69992 -1.2753e+002 -2.6135e+002 -5.2759e+001 68676 69914,69966,69940
 2.4000e+000 70392 -8.5262e+001 -1.9707e+002  1.5959e+001 68478 70118,70248,70144
 2.4000e+000 70369  1.6460e+001 -2.0112e+002  4.4642e+001 68478 70118,70274,70248
 2.4000e+000 70346 -5.2163e+001 -1.4552e+002 -9.7320e-002 68478 70144,70222,70196
 2.4000e+000 70323 -4.3000e+001 -1.2225e+002 -4.4388e+000 68478 70144,70248,70222
 2.4000e+000 70300 -5.9367e+001 -1.6079e+002 -3.4784e+000 68478 70144,70196,70170
 2.4000e+000 70841  5.4865e+001 -1.2183e+002 -3.9969e+001 68280 70570,70622,70596
 2.4000e+000 70818 -5.7247e+001 -1.4193e+002 -8.4967e+000 68280 70544,70622,70570
 2.4000e+000 70795 -3.8923e+001 -1.0215e+002 -4.0043e+000 68280 70544,70674,70622
 2.4000e+000 70772 -3.3561e+001 -8.7711e+001  4.5664e+000 68280 70622,70674,70648
 2.4000e+000 70749 -5.8457e+001 -1.6252e+002  1.4430e+001 68280 70518,70674,70544
 2.4000e+000 70726  8.6608e+001 -1.7182e+002  5.6964e+001 68280 70518,70700,70674
 2.4000e+000 70991 -7.5890e+000 -7.6787e+002  2.2683e+001 67968 70864,70916,70890
 2.4000e+000 70968 -1.9954e+002 -7.6615e+002  8.4686e+001 67968 70864,70942,70916
 2.4000e+000 71141 -3.3466e+002 -6.5855e+002 -2.8551e+001 67770 71040,71092,71066
 2.4000e+000 71118 -2.9817e+002 -7.8624e+002  3.4203e+001 67770 71014,71092,71040
 2.4000e+000 71651 -3.6193e+001 -1.2637e+002 -2.6916e+001 67366 71746,71674,71458
 2.4000e+000 71628 -1.8490e+001 -1.0218e+002 -2.8336e+001 67366 71674,71354,71510
 2.4000e+000 71605 -3.0933e+001 -1.3945e+002 -2.5803e+001 67366 71746,71458,71432
 2.4000e+000 71582 -5.4712e+001 -1.4097e+002  5.4764e+000 67366 71354,71432,71380
 2.4000e+000 71559 -6.1588e+001 -9.5452e+001 -1.6559e+001 67366 71380,71432,71406
 2.4000e+000 71536 -2.3915e+001 -2.8716e+001 -2.9325e+000 67366 71328,71510,71354
 2.4000e+000 71700 -4.4017e+001 -1.1492e+002 -1.1717e+001 67366 71484,71458,71674
 2.4000e+000 71723 -2.3338e+001 -1.0574e+002 -9.9982e+000 67366 71484,71674,71510
 2.4000e+000 71772 -2.9816e+001 -1.1080e+002 -2.3786e+001 67366 71354,71674,71746
 2.4000e+000 71795 -2.4550e+001 -1.2276e+002 -2.4152e+001 67366 71354,71746,71432
 2.4000e+000 71896 -1.3787e+002 -3.0422e+002  0.0000e+000 67146 71818,71870,71844
 2.4000e+000 71997 -1.3985e+002 -2.3487e+002  4.6756e+001 66948 71919,71971,71945
 2.4000e+000 72149  5.3969e+000 -1.6235e+002 -2.6421e+001 66700 72172,72074,72048
 2.4000e+000 72126 -4.7633e+001 -1.9250e+002 -1.1424e+001 66700 72172,72048,72022
 2.4000e+000 72198 -8.6665e+001 -2.0165e+002  9.1493e+000 66700 72244,72172,72100
 2.4000e+000 72221 -7.2964e+001 -1.8397e+002 -1.2900e+001 66700 72100,72172,72022
 2.4000e+000 72270 -3.9836e+001 -9.8339e+001 -1.8926e+001 66700 72074,72172,72244
 2.4000e+000 72623 -5.3612e+001 -1.7287e+002  5.6743e+000 66502 72424,72502,72450
 2.4000e+000 72600 -4.1147e+001 -1.3978e+002  4.4658e+000 66502 72398,72502,72424
 2.4000e+000 72577 -2.9708e+001 -1.6316e+002 -2.8037e+000 66502 72398,72528,72502
 2.4000e+000 72554 -5.2961e+001 -1.5036e+002 -1.0289e+000 66502 72450,72502,72476
 2.4000e+000 72920 -9.5390e+001 -2.0798e+002  7.6528e+000 65941 72672,72776,72750
 2.4000e+000 72897 -9.3851e+001 -1.7585e+002  2.3840e+001 65941 72646,72776,72672
 2.4000e+000 72874 -8.4010e+001 -2.0572e+002  1.0458e+001 65941 72672,72750,72724
 2.4000e+000 72851 -8.4443e+001 -1.6083e+002  1.8842e+001 65941 72672,72724,72698
 2.4000e+000 72828 -7.0948e+001 -1.6750e+002  1.9525e+001 65941 72646,72802,72776
 2.4000e+000 73241 -7.0877e+000 -1.4357e+002  1.4126e+001 65743 73264,73071,73045
 2.4000e+000 73218 -5.0410e+001 -1.6310e+002  1.8704e+001 65743 73480,73264,73045
 2.4000e+000 73195 -4.1245e+001 -1.4505e+002 -1.9149e+000 65743 73336,72967,73097
 2.4000e+000 73172 -8.3496e+001 -1.3166e+002 -1.6059e+001 65743 73408,72993,72967
 2.4000e+000 73149 -3.3621e+001 -1.4588e+002 -2.2976e+000 65743 72967,73123,73097
 2.4000e+000 73290 -2.6648e+001 -1.5329e+002  3.9572e+000 65743 73097,73071,73264
 2.4000e+000 73313 -3.2924e+001 -1.3758e+002  7.9091e+000 65743 73336,73097,73264
 2.4000e+000 73362 -6.9644e+001 -1.5064e+002 -1.0349e+001 65743 73408,72967,73336
 2.4000e+000 73385 -2.7417e+001 -1.3640e+002  1.7993e+000 65743 73019,73336,73264
 2.4000e+000 73434 -6.0363e+001 -9.6464e+001  9.6974e+000 65743 73019,72993,73408
 2.4000e+000 73457 -2.7886e+001 -1.2158e+002  7.1689e+000 65743 73019,73408,73336
 2.4000e+000 73506 -1.5025e+001 -1.0146e+002  4.4042e+000 65743 73019,73264,73480
 2.4000e+000 73989  8.2546e+000 -1.1013e+002  1.5739e+001 65453 73793,73845,73819
 2.4000e+000 73966 -5.1710e+001 -1.2572e+002  1.8254e+001 65453 73741,73845,73793
 2.4000e+000 73943 -3.2833e+000 -9.9724e+001  8.4347e+000 65453 73715,73845,73741
 2.4000e+000 73920 -3.5901e+001 -1.3543e+002  3.1221e+001 65453 73741,73793,73767
 2.4000e+000 73897  1.6168e+001 -4.9717e+001  5.5369e+000 65453 73715,73871,73845
 2.4000e+000 74357 -7.1874e+000 -1.3819e+002 -6.0163e+001 65141 74380,74138,74086
 2.4000e+000 74334 -5.5548e+001 -2.1773e+002 -3.8589e+001 65141 74380,74086,74060
 2.4000e+000 74311 -5.3864e+001 -2.0904e+002 -1.4501e+001 65141 74138,74190,74164
 2.4000e+000 74288 -6.8318e+001 -2.3549e+002 -9.1539e+000 65141 74060,74216,74190
 2.4000e+000 74265 -7.2428e+001 -2.4859e+002  3.2430e+000 65141 74034,74216,74060
 2.4000e+000 74242 -2.4632e+001 -6.7854e+001 -2.8244e+001 65141 74086,74138,74112
 2.4000e+000 74406 -3.7534e+001 -2.0878e+002 -2.1993e+001 65141 74190,74138,74380
 2.4000e+000 74429 -5.2396e+001 -2.3633e+002 -7.8021e+000 65141 74190,74380,74060
 2.4000e+000 74937 -7.5275e+001 -1.4689e+002 -4.1127e+001 64737 74614,74666,74640
 2.4000e+000 74914 -9.3458e+001 -1.9281e+002 -2.9046e+001 64737 74614,74796,74666
 2.4000e+000 74891 -6.6571e+001 -1.2994e+002 -2.8613e+000 64737 74960,74718,74666
 2.4000e+000 74868 -5.7529e+001 -1.4488e+002 -1.7105e+001 64737 74960,74666,74770
 2.4000e+000 74845 -5.9402e+001 -1.1723e+002 -1.8243e+001 64737 74666,74796,74770
 2.4000e+000 74822 -6.4231e+001 -1.4216e+002  4.8819e+000 64737 74666,74718,74692
 2.4000e+000 74986 -7.2061e+001 -1.4523e+002 -3.0441e+000 64737 74744,74718,74960
 2.4000e+000 75009 -6.7185e+001 -1.6782e+002 -1.7715e+001 64737 74744,74960,74770
 2.4000e+000 75306 -1.8805e+001 -1.3453e+002  2.1242e+001 64133 75329,75110,75084
 2.4000e+000 75283 -3.3318e+001 -1.5632e+002  9.4877e+000 64133 75401,75329,75084
 2.4000e+000 75260 -3.0867e+001 -1.6170e+002  1.1673e+001 64133 75401,75084,75058
 2.4000e+000 75237 -2.8641e+001 -1.8371e+002  2.0914e+001 64133 75473,75136,75110
 2.4000e+000 75214 -4.1597e+001 -1.3604e+002  3.2435e+000 64133 75032,75188,75162
 2.4000e+000 75355 -3.4402e+001 -1.7201e+002  1.6648e+001 64133 75473,75110,75329
 2.4000e+000 75378 -2.7323e+001 -1.4641e+002  3.5847e+000 64133 75162,75329,75032
 2.4000e+000 75427 -2.6175e+001 -1.4412e+002  4.7902e+000 64133 75032,75329,75401
 2.4000e+000 75450 -6.1814e+001 -1.8084e+002  2.4107e+001 64133 75545,75401,75058
 2.4000e+000 75499 -2.8956e+001 -1.6873e+002  4.8006e+000 64133 75162,75136,75473
 2.4000e+000 75522 -3.1484e+001 -1.4621e+002  4.9209e+000 64133 75162,75473,75329
 2.4000e+000 75571 -2.3668e+001 -9.7465e+001  9.4173e+000 64133 75032,75401,75545
 2.4000e+000 75851 -4.6809e+001 -1.4050e+002  2.1288e+000 63843 75874,75753,75727
 2.4000e+000 75828 -4.0391e+001 -1.4230e+002 -8.2498e+000 63843 75946,75874,75727
 2.4000e+000 75805 -4.8529e+001 -1.5280e+002 -3.5701e+000 63843 76018,75946,75727
 2.4000e+000 75900 -3.4815e+001 -1.3543e+002 -4.4079e+000 63843 75779,75753,75874
 2.4000e+000 75923 -3.7176e+001 -1.1311e+002 -1.7401e+001 63843 75779,75874,75675
 2.4000e+000 75972 -4.9051e+001 -1.3153e+002 -6.0259e+000 63843 75675,75874,75946
 2.4000e+000 75995 -4.4517e+001 -1.4018e+002 -1.0308e+001 63843 75675,75946,75701
 2.4000e+000 76044 -4.9510e+001 -1.4733e+002 -1.4388e+001 63843 75701,75946,76018
 2.4000e+000 76454  2.1752e+001 -4.7563e+000 -2.1522e+001 63439 76477,76255,76229
 2.4000e+000 76431 -1.2905e+001 -6.5707e+001 -5.4903e-001 63439 76477,76229,76359
 2.4000e+000 76408  4.2187e+001 -3.7091e+001  4.7072e+001 63439 76307,76359,76333
 2.4000e+000 76385  5.0428e+000 -7.2003e+001  9.7018e-001 63439 76255,76307,76281
 2.4000e+000 76503 -1.0963e+001 -5.1710e+001  1.5077e+001 63439 76307,76255,76477
 2.4000e+000 76526 -1.1191e+001 -7.6345e+001  2.9863e+001 63439 76307,76477,76359
 2.4000e+000 76926 -3.0837e+001 -1.1197e+002 -1.3580e+000 63049 76704,76782,76756
 2.4000e+000 76903 -4.3450e+001 -1.1415e+002 -1.3769e+001 63049 76704,76808,76782
 2.4000e+000 76880 -2.9957e+001 -1.3147e+002  2.4284e+000 63049 76704,76756,76730
 2.4000e+000 76857 -2.9360e+001 -6.6452e+001  4.3523e+000 63049 76678,76808,76704
 2.4000e+000 76834 -1.3138e+001 -1.6718e+001 -1.4804e+001 63049 76652,76808,76678
 2.4000e+000 77076  1.8064e+000 -1.6964e+002 -1.5046e+000 62737 76975,77027,77001
 2.4000e+000 77053  4.9794e+000 -1.9033e+002 -1.2622e+001 62737 76949,77027,76975
 2.4000e+000 77324 -7.3819e+001 -1.7556e+002 -6.3988e-001 62277 77347,77177,77125
 2.4000e+000 77301 -6.9818e+001 -1.6954e+002 -7.6682e+000 62277 77347,77125,77229
 2.4000e+000 77278 -6.7037e+001 -1.7194e+002 -9.4015e+000 62277 77099,77229,77125
 2.4000e+000 77255 -7.5032e+001 -2.1622e+002  2.8163e+000 62277 77125,77177,77151
 2.4000e+000 77373 -7.7392e+001 -1.9200e+002  8.3854e+000 62277 77203,77177,77347
 2.4000e+000 77396 -6.1591e+001 -1.7670e+002 -8.1705e-001 62277 77203,77347,77229
 2.4000e+000 77857 -2.6330e+001 -2.1700e+002  3.0233e+000 61758 77635,77739,77661
 2.4000e+000 77834 -5.1611e+001 -2.0903e+002 -1.0781e+001 61758 77583,77739,77635
 2.4000e+000 77811 -6.1196e+001 -2.6069e+002 -2.6062e+001 61758 77583,77635,77609
 2.4000e+000 77788 -5.2329e+001 -2.0180e+002  1.8064e+001 61758 77661,77713,77687
 2.4000e+000 77765 -4.8369e+001 -2.3920e+002  2.1181e+001 61758 77661,77739,77713
 2.4000e+000 78491 -6.3303e+001 -1.2576e+002  5.5602e+000 61418 78171,78301,78249
 2.4000e+000 78468 -5.4294e+001 -9.5117e+001  1.7272e+001 61418 78145,78301,78171
 2.4000e+000 78445 -4.8059e+001 -1.1208e+002 -6.7095e+000 61418 78171,78249,78223
 2.4000e+000 78422 -5.0384e+001 -9.2437e+001 -1.1347e+001 61418 78145,78327,78301
 2.4000e+000 78399 -6.6372e+001 -1.4298e+002 -2.9276e+000 61418 78249,78301,78275
 2.4000e+000 78376 -3.2031e+001 -1.2310e+002 -8.8114e+000 61418 78171,78223,78197
 2.4000e+000 78353 -6.5708e+001 -1.7314e+002 -3.1787e+001 61418 78119,78327,78145
 2.4000e+000 78690 -5.9537e+001 -1.4861e+002  1.7116e+000 61014 78713,78566,78540
 2.4000e+000 78667 -4.1868e+001 -1.5837e+002  6.4081e+000 61014 78713,78540,78618
 2.4000e+000 78644 -6.2366e+001 -1.7880e+002 -1.8118e+001 61014 78514,78618,78540
 2.4000e+000 78739 -3.0788e+001 -1.3331e+002  1.6554e+001 61014 78592,78566,78713
 2.4000e+000 78762 -4.5877e+001 -1.5786e+002  4.7483e+000 61014 78785,78713,78618
 2.4000e+000 78811 -1.2429e+001 -1.4542e+002 -9.3597e-001 61014 78592,78713,78785
 2.4000e+000 79398 -1.1415e+001 -1.2648e+002 -1.6855e+001 60624 79101,79179,79153
 2.4000e+000 79375 -1.4912e+000 -1.4110e+002 -1.0930e+001 60624 79101,79231,79179
 2.4000e+000 79352 -1.5578e+001 -1.5223e+002 -1.9302e+001 60624 79075,79231,79101
 2.4000e+000 79329  6.1593e+001 -1.6883e+002  1.4143e+001 60624 79075,79257,79231
 2.4000e+000 79306  1.2872e+001 -1.0723e+002 -1.0302e+001 60624 79179,79231,79205
 2.4000e+000 79283 -1.6037e+000 -1.0520e+002 -6.7603e+000 60624 79101,79153,79127
 2.4000e+000 79776 -6.3404e+001 -1.9243e+002  1.8801e+001 60070 79528,79658,79606
 2.4000e+000 79753 -5.7569e+001 -1.5175e+002 -1.4491e+000 60070 79502,79658,79528
 2.4000e+000 79730 -8.2933e+001 -1.8403e+002  2.8587e+001 60070 79528,79606,79580
 2.4000e+000 79707 -1.0168e+001 -1.6808e+002  5.1551e+000 60070 79606,79658,79632
 2.4000e+000 79684 -7.0350e+000 -1.1307e+002 -2.8344e+001 60070 79528,79580,79554
 2.4000e+000 80105 -5.1670e+001 -1.5357e+002  1.6143e+001 59758 80128,79958,79906
 2.4000e+000 80082 -5.2485e+001 -1.4332e+002  1.0904e+001 59758 80128,79906,80010
 2.4000e+000 80059 -7.3353e+001 -1.5975e+002  4.9949e+001 59758 79906,79958,79932
 2.4000e+000 80036 -7.7306e+001 -1.5938e+002  3.9422e+000 59758 79880,80010,79906
 2.4000e+000 80154 -5.2186e+001 -1.6016e+002  1.7133e+001 59758 79984,79958,80128
 2.4000e+000 80177 -5.5008e+001 -1.5253e+002  1.2100e+001 59758 79984,80128,80010
 2.4000e+000 80376 -3.8704e+001 -1.4640e+002  3.0612e+000 59312 80226,80304,80252
 2.4000e+000 80353 -3.7666e+001 -1.5110e+002  3.0780e+000 59312 80200,80304,80226
 2.4000e+000 80330 -6.1551e+001 -1.3201e+002  3.9793e+001 59312 80252,80304,80278
 2.4000e+000 80805 -4.9019e+001 -1.1839e+002 -1.7289e+001 58908 80900,80828,80638
 2.4000e+000 80782 -4.0840e+001 -1.4181e+002 -2.8373e+001 58908 80828,80560,80508
 2.4000e+000 80759 -5.2224e+001 -1.1055e+002 -4.1860e+000 58908 80900,80638,80612
 2.4000e+000 80736 -1.8959e+001 -1.2156e+002  5.4937e+001 58908 80482,80664,80508
 2.4000e+000 80713 -3.5211e+001 -9.9813e+001 -2.0211e+000 58908 80560,80612,80586
 2.4000e+000 80690 -4.7300e+001 -3.5498e+002 -6.7706e+001 58908 80508,80560,80534
 2.4000e+000 80854 -1.7994e+001 -1.2847e+002  3.2538e+000 58908 80664,80638,80828
 2.4000e+000 80877 -3.7371e+001 -1.8996e+002  5.5191e+000 58908 80664,80828,80508
 2.4000e+000 80926 -3.9825e+001 -9.4768e+001 -1.9448e+001 58908 80560,80828,80900
 2.4000e+000 80949 -4.6610e+001 -9.5002e+001 -4.4889e+000 58908 80560,80900,80612
 2.4000e+000 81246 -8.2037e+000 -1.0042e+002 -5.6328e+000 58482 81076,81128,81102
 2.4000e+000 81223 -3.8262e+001 -1.8866e+002 -2.1961e+001 58482 80972,81128,81076
 2.4000e+000 81200 -1.5290e+001 -1.1890e+002 -2.4937e+001 58482 80972,81076,81050
 2.4000e+000 81177 -7.3043e+001 -2.2314e+002  2.2248e+000 58482 80998,81050,81024
 2.4000e+000 81154 -2.1230e+001 -1.6591e+002 -1.9668e+001 58482 80972,81050,80998
 2.4000e+000 81754 -5.2010e+001 -1.1786e+002  1.2953e+001 57828 81457,81613,81483
 2.4000e+000 81731 -6.0147e+001 -1.3336e+002  8.1760e+000 57828 81431,81613,81457
 2.4000e+000 81708 -5.7562e+001 -1.3080e+002  1.4135e+001 57828 81483,81613,81509
 2.4000e+000 81685 -7.0689e+001 -1.5496e+002  2.0108e+001 57828 81509,81613,81587
 2.4000e+000 81662 -7.9392e+001 -2.3431e+002  3.4343e+001 57828 81509,81587,81535
 2.4000e+000 81639 -4.4626e+001 -2.0101e+002  2.0320e+001 57828 81535,81587,81561
 2.4000e+000 82002 -8.7475e+001 -2.3236e+002 -3.7632e-001 57374 82025,81855,81829
 2.4000e+000 81979 -9.1930e+001 -2.1770e+002  1.1264e+001 57374 82025,81829,81907
 2.4000e+000 81956 -9.1095e+001 -1.9880e+002  9.3551e+000 57374 81803,81907,81829
 2.4000e+000 81933 -4.4954e+001 -1.6978e+002  2.2659e+001 57374 81777,81907,81803
 2.4000e+000 82051 -8.8920e+001 -2.1518e+002 -6.0120e-001 57374 81881,81855,82025
 2.4000e+000 82074 -8.8352e+001 -2.0098e+002  1.5344e+001 57374 81881,82025,81907
 2.4000e+000 82356 -4.7060e+001 -1.1641e+002 -1.0770e+001 56913 82180,82232,82206
 2.4000e+000 82333 -3.5605e+001 -1.0268e+002  1.3766e+001 56913 82180,82284,82232
 2.4000e+000 82310 -1.0932e+001 -8.7186e+001  2.2736e+001 56913 82379,82232,82284
 2.4000e+000 82405  1.6486e+001 -8.6165e+001  1.2926e+000 56913 82258,82232,82379
 2.4000e+000 82764 -4.0148e+001 -7.2027e+001 -1.0389e+001 56523 82614,82666,82640
 2.4000e+000 82741 -2.4138e+001 -6.8606e+001 -1.8558e+001 56523 82614,82692,82666
 2.4000e+000 82718 -3.6172e+001 -7.8091e+001 -2.5938e+001 56523 82588,82692,82614
 2.4000e+000 83368 -1.1601e+001 -1.5698e+002 -5.5462e+000 55969 82973,83155,83129
 2.4000e+000 83345  1.6401e+000 -1.5192e+002 -1.0078e+001 55969 82973,83181,83155
 2.4000e+000 83322 -4.2609e+001 -1.3667e+002 -4.2862e+000 55969 82973,83129,82999
 2.4000e+000 83299 -7.3599e+001 -1.4388e+002  7.9888e+000 55969 83391,83025,82999
 2.4000e+000 83276 -5.6600e+001 -1.4458e+002  1.6666e+000 55969 83391,82999,83129
 2.4000e+000 83253 -8.3128e+000 -1.1127e+002  2.3820e+001 55969 83077,83129,83103
 2.4000e+000 83230 -6.0619e+001 -1.0527e+002 -8.7146e+000 55969 83025,83077,83051
 2.4000e+000 83207 -1.8140e+000 -1.4642e+002  1.5302e+001 55969 82947,83181,82973
 2.4000e+000 83417 -5.6716e+001 -1.3722e+002  8.2935e+000 55969 83077,83025,83391
 2.4000e+000 83440 -5.0416e+001 -1.4408e+002  1.0264e+000 55969 83077,83391,83129
 2.4000e+000 83946 -9.3987e+001 -2.0260e+002  3.8773e+001 55771 83969,83779,83727
 2.4000e+000 83923 -7.2617e+001 -1.6290e+002  1.8001e+001 55771 83969,83727,83623
 2.4000e+000 83900 -8.8116e+001 -8.6730e+001  9.9916e+000 55771 83623,83727,83649
 2.4000e+000 83877 -4.0388e+001 -3.3507e+002  3.1758e+001 55771 83727,83779,83753
 2.4000e+000 83854 -1.2915e+002 -1.9142e+002  5.2814e+001 55771 83675,83727,83701
 2.4000e+000 83831 -1.4351e+002 -1.5474e+002  7.1948e+001 55771 83649,83727,83675
 2.4000e+000 83995 -8.2466e+001 -2.0831e+002 -1.2930e+001 55771 83805,83779,83969
 2.4000e+000 84018 -3.4828e+001 -1.2571e+002 -3.8549e+001 55771 83805,83969,83623
 2.4000e+000 84168 -3.2702e+001 -1.0469e+002 -5.0421e+000 55367 84191,84067,84041
 2.4000e+000 84145 -3.0596e+001 -1.2258e+002 -3.8850e+000 55367 84191,84041,84119
 2.4000e+000 84217 -3.5167e+001 -9.5280e+001 -4.5337e+000 55367 84093,84067,84191
 2.4000e+000 84240 -2.6060e+001 -1.0477e+002  1.7319e+000 55367 84093,84191,84119
 2.4000e+000 84571 -2.2738e+001 -1.7770e+002 -1.8348e+001 54913 84398,84450,84424
 2.4000e+000 84548 -1.8399e+001 -1.6101e+002 -8.3789e+000 54913 84372,84450,84398
 2.4000e+000 84525 -4.3705e+001 -1.8132e+002  6.4159e+000 54913 84346,84450,84372
 2.4000e+000 84502 -1.7284e+001 -1.2066e+002 -1.5228e+001 54913 84346,84476,84450
 2.4000e+000 85126 -8.5708e+001 -2.0107e+002 -7.0920e+000 54402 84858,84936,84910
 2.4000e+000 85103 -6.1957e+001 -1.5137e+002 -1.8805e+001 54402 84806,84936,84858
 2.4000e+000 85080 -7.9785e+001 -1.3784e+002 -1.4999e+001 54402 84780,84936,84806
 2.4000e+000 85057 -6.5139e+001 -1.6790e+002 -9.0341e+000 54402 84806,84858,84832
 2.4000e+000 85034 -6.6931e+001 -1.2789e+002  5.3466e+000 54402 84780,84962,84936
 2.4000e+000 85011 -1.0931e+002 -1.0642e+002 -3.3233e+000 54402 84858,84910,84884
 2.4000e+000 84988 -6.4538e+001 -1.2055e+002  5.3125e+000 54402 84754,84962,84780
 2.4000e+000 85396 -5.4678e+001 -6.8079e+001 -8.1598e+000 53998 85197,85249,85223
 2.4000e+000 85373 -3.9167e+001 -1.0013e+002 -9.2285e-001 53998 85197,85275,85249
 2.4000e+000 85350 -5.2231e+001 -1.1562e+002 -6.5604e+000 53998 85171,85275,85197
 2.4000e+000 85327 -2.0502e+001 -1.0705e+002 -8.6761e+000 53998 85171,85301,85275
 2.4000e+000 85749 -3.9268e+001 -1.4966e+002 -3.6765e+000 53636 85524,85628,85550
 2.4000e+000 85726 -6.2173e+001 -1.6926e+002  4.9506e+000 53636 85524,85654,85628
 2.4000e+000 85703 -2.2649e+001 -1.5415e+002 -1.4192e+001 53636 85550,85602,85576
 2.4000e+000 85680 -3.9445e+001 -1.4905e+002 -6.3671e+000 53636 85550,85628,85602
 2.4000e+000 86127  5.7797e+000 -1.4057e+002  2.5337e+001 52982 86150,85957,85879
 2.4000e+000 86104 -3.2146e+001 -1.6797e+002  1.3375e+001 52982 86150,85879,85853
 2.4000e+000 86081  8.1331e+000 -2.1716e+002  4.5459e+001 52982 85957,86009,85983
 2.4000e+000 86058 -4.2682e+001 -1.5100e+002  1.9883e+001 52982 85879,85957,85931
 2.4000e+000 86035 -2.1724e+001 -1.3079e+002  2.6604e+000 52982 85879,85931,85905
 2.4000e+000 86176  3.0371e+001 -1.7112e+002  2.0369e+001 52982 86009,85957,86150
 2.4000e+000 86199  7.8619e+000 -1.8953e+002  1.2166e+001 52982 86009,86150,85853
 2.4000e+000 86398 -2.1179e+001 -1.0777e+002  1.0047e+001 52542 86421,86248,86222
 2.4000e+000 86375 -4.4533e+001 -1.1125e+002 -8.5564e-001 52542 86421,86222,86300
 2.4000e+000 86352 -4.1826e+001 -1.1969e+002 -8.1288e+000 52542 86222,86326,86300
 2.4000e+000 86447  3.2150e+000 -1.0887e+002  2.0397e+001 52542 86274,86248,86421
 2.4000e+000 86470 -1.9464e+001 -1.1664e+002  6.5825e+000 52542 86274,86421,86300
 2.4000e+000 86669 -4.1411e+001 -1.0705e+002 -2.0301e+001 52230 86692,86571,86545
 2.4000e+000 86646 -3.9201e+001 -9.9124e+001 -9.7343e+000 52230 86692,86545,86519
 2.4000e+000 86623 -6.3037e+001 -1.0189e+002 -1.6673e+001 52230 86493,86597,86519
 2.4000e+000 86718 -4.6597e+001 -1.0998e+002 -2.3838e+001 52230 86597,86571,86692
 2.4000e+000 86741 -5.1609e+001 -1.0514e+002 -1.3863e+001 52230 86597,86692,86519
 2.4000e+000 87153 -7.4339e+001 -1.0683e+002  7.2748e+000 51640 86980,87058,87032
 2.4000e+000 87130 -6.7739e+001 -1.1365e+002  4.7081e+000 51640 86928,87058,86980
 2.4000e+000 87107 -6.6110e+001 -1.5116e+002 -1.1218e+001 51640 86928,86980,86954
 2.4000e+000 87084 -4.5198e+001 -9.4493e+001  2.1800e+000 51640 86980,87032,87006
 2.4000e+000 87659 -2.7146e+001 -1.0443e+002  1.0196e+001 51029 87682,87440,87362
 2.4000e+000 87636 -3.4569e+001 -1.1441e+002 -2.0991e+000 51029 87682,87362,87336
 2.4000e+000 87613 -4.6298e+001 -1.6928e+002 -3.7118e+000 51029 87440,87518,87466
 2.4000e+000 87590 -5.3813e+001 -1.0826e+002  1.3255e+001 51029 87362,87440,87414
 2.4000e+000 87567 -5.3423e+001 -1.0295e+002  3.4567e+001 51029 87362,87414,87388
 2.4000e+000 87544 -6.2886e+001 -1.4542e+002  3.4696e+000 51029 87466,87518,87492
 2.4000e+000 87708 -2.2938e+001 -1.1949e+002  2.7186e+000 51029 87518,87440,87682
 2.4000e+000 87731 -2.6839e+001 -1.3603e+002 -5.0786e+000 51029 87518,87682,87336
 2.4000e+000 87881 -6.9296e+001 -1.5461e+002  3.8089e+000 50739 87780,87832,87806
 2.4000e+000 87858 -7.8319e+001 -1.5339e+002 -6.8786e+000 50739 87754,87832,87780
 2.4000e+000 88468 -3.7482e+001 -9.3648e+001  5.4121e+000 50235 88171,88327,88197
 2.4000e+000 88445 -9.3275e+001 -9.3870e+001 -1.6011e+001 50235 88145,88327,88171
 2.4000e+000 88422  3.3302e+001 -4.2358e+001  2.9006e+001 50235 88275,88327,88301
 2.4000e+000 88399 -2.0407e+001 -6.5633e+001 -1.7848e+000 50235 88197,88327,88275
 2.4000e+000 88376  1.7147e+001 -8.2932e+001  4.9658e+000 50235 88197,88275,88223
 2.4000e+000 88353  9.0185e+000 -8.7231e+001  1.2543e+001 50235 88223,88275,88249
 2.4000e+000 88895 -5.6245e+001 -1.4960e+002  6.3433e+000 49873 88918,88728,88676
 2.4000e+000 88872 -4.7121e+001 -1.4409e+002 -1.3999e+000 49873 88918,88676,88624
 2.4000e+000 88849 -3.5448e+001 -1.2286e+002 -2.7006e+000 49873 88598,88754,88624
 2.4000e+000 88826 -2.7580e+001 -1.3452e+002 -4.4092e+000 49873 88624,88676,88650
 2.4000e+000 88803 -3.9971e+001 -1.8415e+002  9.9605e+000 49873 88676,88728,88702
 2.4000e+000 88780 -3.9269e+001 -1.0237e+002  9.2484e+000 49873 88572,88754,88598
 2.4000e+000 88944 -4.3856e+001 -1.4656e+002  2.5700e+000 49873 88754,88728,88918
 2.4000e+000 88967 -4.0914e+001 -1.4646e+002 -4.5759e+000 49873 88754,88918,88624
 2.4000e+000 89473 -9.3613e+001 -1.4592e+002 -1.9047e+001 49583 89176,89306,89202
 2.4000e+000 89450 -9.0989e+001 -1.4356e+002 -2.2118e+001 49583 89176,89332,89306
 2.4000e+000 89427 -5.5420e+001 -1.6071e+002  7.1525e+000 49583 89496,89228,89202
 2.4000e+000 89404 -5.4516e+001 -1.6461e+002  8.6669e+000 49583 89496,89202,89280
 2.4000e+000 89381 -1.1242e+002 -2.0518e+002 -3.6725e+001 49583 89202,89306,89280
 2.4000e+000 89358 -7.3036e+001 -1.4305e+002 -2.4286e+001 49583 89150,89332,89176
 2.4000e+000 89522 -5.0954e+001 -1.3488e+002  4.8315e+000 49583 89254,89228,89496
 2.4000e+000 89545 -6.2102e+001 -1.5733e+002  8.6390e+000 49583 89254,89496,89280
 2.4000e+000 89825  3.1448e+001 -1.4512e+002  7.9358e+000 49179 89701,89753,89727
 2.4000e+000 89802 -1.6971e+001 -1.2862e+002  1.2650e+001 49179 89675,89753,89701
 2.4000e+000 89779 -1.3801e+001 -1.1543e+002  4.1149e+000 49179 89848,89753,89675
 2.4000e+000 89874 -8.1660e+001 -1.3262e+002 -1.3570e+001 49179 89649,89753,89848
 2.4000e+000 90223 -3.4455e+001 -1.5283e+002 -1.2180e+001 48739 90024,90102,90076
 2.4000e+000 90200 -5.6978e+001 -1.5566e+002 -4.6835e+000 48739 90024,90128,90102
 2.4000e+000 90177 -3.0854e+001 -1.6523e+002 -6.3774e+000 48739 90024,90076,90050
 2.4000e+000 90154 -2.4559e+001 -1.5027e+002  1.2678e+001 48739 89998,90128,90024
 2.4000e+000 90603 -5.3640e+001 -1.4318e+002  2.6217e+001 48335 90381,90485,90459
 2.4000e+000 90580 -6.5821e+001 -1.5349e+002  1.8932e+001 48335 90355,90485,90381
 2.4000e+000 90557 -2.2756e+001 -4.9743e+001  1.7848e+001 48335 90381,90433,90407
 2.4000e+000 90534 -5.1549e+001 -1.4165e+002  2.7143e+001 48335 90381,90459,90433
 2.4000e+000 90511  5.5474e+000 -1.0946e+002  4.1122e+001 48335 90329,90485,90355
 2.4000e+000 90753  2.5047e+001 -7.4831e+001  4.3511e+001 47824 90776,90652,90704
 2.4000e+000 90730  5.9096e-001 -1.2674e+002  3.6816e+001 47824 90626,90704,90652
 2.4000e+000 90802 -1.1651e+001 -1.0415e+002  3.0828e+001 47824 90678,90652,90776
 2.4000e+000 91131 -3.1483e+001 -1.5583e+002  9.9154e+000 47427 91154,90958,90906
 2.4000e+000 91108 -6.8204e+001 -1.7105e+002  4.7660e+000 47427 91154,90906,91036
 2.4000e+000 91085 -6.5928e+001 -1.3338e+002 -1.0698e+001 47427 90958,91010,90984
 2.4000e+000 91062 -3.6149e+001 -1.3879e+002  1.4743e+001 47427 90906,90958,90932
 2.4000e+000 91180 -5.2686e+001 -1.5320e+002 -1.4430e+001 47427 91010,90958,91154
 2.4000e+000 91203 -8.7868e+001 -1.6839e+002 -2.0182e+001 47427 91010,91154,91036
 2.4000e+000 91583 -9.6386e+001 -1.7903e+002 -9.9829e+000 46873 91309,91439,91335
 2.4000e+000 91560 -9.9982e+001 -1.7897e+002 -8.8185e+000 46873 91309,91465,91439
 2.4000e+000 91537 -1.4227e+002 -2.0737e+002 -4.7096e+001 46873 91361,91439,91413
 2.4000e+000 91514 -1.0524e+002 -1.8469e+002 -2.1727e+001 46873 91335,91439,91361
 2.4000e+000 91491 -4.4649e+001 -1.6826e+002 -3.7193e+001 46873 91361,91413,91387
 2.4000e+000 91880 -3.6658e+001 -1.5265e+002 -3.2923e+000 46526 91606,91710,91658
 2.4000e+000 91857 -3.9440e+001 -1.6174e+002  2.5794e+000 46526 91606,91762,91710
 2.4000e+000 91834 -1.8258e+001 -1.4825e+002 -1.7154e+001 46526 91606,91658,91632
 2.4000e+000 91811 -4.7537e+001 -1.4134e+002  3.5716e+000 46526 91658,91710,91684
 2.4000e+000 91788 -1.9263e+001 -9.9224e+001  8.5492e+000 46526 91710,91762,91736
 2.4000e+000 92211  6.3052e+000 -7.8613e+001 -4.1432e+000 45700 91986,92064,92038
 2.4000e+000 92188 -4.0359e+001 -1.1712e+002  1.4388e+001 45700 91986,92116,92064
 2.4000e+000 92165  2.3830e+001 -5.8064e+001 -3.2335e+001 45700 91986,92038,92012
 2.4000e+000 92142 -4.0513e+001 -1.1251e+002  1.3164e+001 45700 92064,92116,92090
 2.4000e+000 92766 -8.0116e+001 -1.4071e+002  3.0544e+000 45452 92446,92602,92576
 2.4000e+000 92743 -1.3006e+002 -1.4095e+002 -2.6729e+001 45452 92420,92602,92446
 2.4000e+000 92720 -9.6246e+001 -1.4438e+002  1.9880e+001 45452 92789,92524,92498
 2.4000e+000 92697 -1.1384e+002 -1.4380e+002  1.4090e+001 45452 92789,92498,92446
 2.4000e+000 92674 -9.0601e+001 -1.5666e+002 -2.8748e+000 45452 92524,92576,92550
 2.4000e+000 92651 -1.4401e+002 -1.4444e+002  7.5003e+001 45452 92446,92498,92472
 2.4000e+000 92628 -6.9249e+001 -1.6031e+002 -4.6546e+001 45452 92394,92602,92420
 2.4000e+000 92815 -8.4114e+001 -1.4958e+002  1.5355e+001 45452 92576,92524,92789
 2.4000e+000 92838 -9.7148e+001 -1.4507e+002  1.2114e+001 45452 92576,92789,92446
 2.4000e+000 92939 -4.8063e+001 -1.8218e+002 -4.1988e+001 44998 92861,92913,92887
 2.4000e+000 93319  3.7572e+000 -1.9617e+002  4.4445e+001 44601 93123,93201,93149
 2.4000e+000 93296 -4.3701e+001 -1.9690e+002 -2.0233e+001 44601 93045,93201,93123
 2.4000e+000 93273 -4.4275e+001 -1.0899e+002 -2.3817e+001 44601 93045,93123,93071
 2.4000e+000 93250 -3.7689e+001 -1.0161e+002 -1.6943e+001 44601 93071,93123,93097
 2.4000e+000 93227  1.5777e+001 -9.7111e+001  4.6786e+001 44601 93149,93201,93175
 2.4000e+000 93697 -2.7965e+001 -2.1871e+002  1.7619e+001 44026 93720,93553,93527
 2.4000e+000 93674 -7.1279e+001 -1.7979e+002  2.2419e+001 44026 93720,93527,93449
 2.4000e+000 93651 -8.3140e+001 -1.8934e+002 -6.0498e+000 44026 93449,93527,93501
 2.4000e+000 93628 -4.7513e+001 -1.4271e+002 -2.4090e+001 44026 93423,93579,93449
 2.4000e+000 93605 -1.2743e+001 -1.4040e+002  1.5322e+001 44026 93449,93501,93475
 2.4000e+000 93746  5.0491e+000 -1.9162e+002  5.2791e+000 44026 93579,93553,93720
 2.4000e+000 93769 -4.1245e+001 -1.5406e+002  1.0397e+001 44026 93579,93720,93449
 2.4000e+000 94066 -2.0121e+001 -1.5465e+002 -2.6801e+001 43579 94089,93818,93792
 2.4000e+000 94043 -5.2546e+001 -1.8119e+002 -1.5372e+001 43579 94161,94089,93792
 2.4000e+000 94020 -5.1675e+001 -1.8291e+002 -4.3964e+000 43579 94161,93792,93948
 2.4000e+000 93997 -5.6351e+001 -1.2715e+002 -6.6580e+000 43579 94233,93870,93818
 2.4000e+000 93974 -3.3214e+001 -1.2843e+002  2.3625e-001 43579 93818,93870,93844
 2.4000e+000 94115 -5.4704e+001 -1.2883e+002 -1.7904e+001 43579 94233,93818,94089
 2.4000e+000 94138 -8.1657e+001 -1.5385e+002 -1.2133e+001 43579 93896,94089,93922
 2.4000e+000 94187 -4.5603e+001 -1.6382e+002 -1.6926e+001 43579 93922,94089,94161
 2.4000e+000 94210 -4.5328e+001 -1.6452e+002 -4.8749e+000 43579 93922,94161,93948
 2.4000e+000 94259 -6.7234e+001 -1.4853e+002 -2.9051e+000 43579 93896,93870,94233
 2.4000e+000 94282 -6.2231e+001 -1.4586e+002 -1.5905e+001 43579 93896,94233,94089
 2.4000e+000 94481 -4.3428e+001 -1.5782e+002 -1.4727e+000 43239 94305,94383,94357
 2.4000e+000 94458 -3.3531e+001 -1.4225e+002  1.9285e+001 43239 94305,94409,94383
 2.4000e+000 94435 -2.5577e+001 -1.6436e+002 -6.8044e+000 43239 94305,94357,94331
 2.4000e+000 94633 -1.8271e+001 -1.1116e+002  2.7867e+001 42827 94656,94532,94506
 2.4000e+000 94610 -3.7967e+001 -1.2413e+002  3.8377e+001 42827 94728,94656,94506
 2.4000e+000 94682 -3.9392e+000 -1.2762e+002  2.8862e+001 42827 94558,94532,94656
 2.4000e+000 94705  1.9274e+001 -1.3035e+002  1.7872e+001 42827 94988,94860,94656
 2.4000e+000 94754 -9.9972e+000 -1.1045e+002  1.0134e+001 42827 94988,94656,94728
 2.4000e+000 94886  5.4431e+001 -1.1659e+002  1.7839e+001 42827 94558,94656,94860
 2.4000e+000 95014  4.3774e+001 -1.1322e+002  1.0401e+001 42827 94584,94860,94988
 2.4000e+000 95037  1.8976e+001 -9.4083e+001  3.2156e+000 42827 94584,94988,94728
 2.4000e+000 95236 -5.2702e+001 -1.5883e+002  5.7040e+000 42537 95259,95112,95060
 2.4000e+000 95213 -2.3931e+001 -1.7170e+002  1.1068e+001 42537 95259,95060,95164
 2.4000e+000 95190 -4.2358e+001 -1.5644e+002 -9.1650e+000 42537 95060,95112,95086
 2.4000e+000 95285 -3.3294e+001 -1.5544e+002  1.8583e+001 42537 95138,95112,95259
 2.4000e+000 95308 -5.2702e+000 -1.6197e+002  2.7944e+001 42537 95138,95259,95164
 2.4000e+000 95816 -5.8140e+001 -1.6796e+002 -7.1743e+000 41969 95493,95597,95519
 2.4000e+000 95793 -9.4743e+001 -1.6815e+002  2.3062e+001 41969 95493,95649,95597
 2.4000e+000 95770 -7.6875e+001 -1.5210e+002  1.2277e+001 41969 95493,95675,95649
 2.4000e+000 95747 -8.3530e+001 -1.9047e+002  2.2809e+001 41969 95597,95649,95623
 2.4000e+000 95724 -1.0409e+002 -1.6646e+002 -9.3375e+000 41969 95519,95597,95571
 2.4000e+000 95701 -9.7344e+001 -1.6401e+002 -4.8103e+001 41969 95519,95571,95545
 2.4000e+000 96371 -6.2890e+001 -1.7568e+002  2.7159e+001 41579 96025,96207,96181
 2.4000e+000 96348  4.1235e+001 -1.2834e+002  5.0326e-001 41579 95999,96207,96025
 2.4000e+000 96325 -7.4105e+001 -1.2965e+002 -1.0198e+001 41579 96129,96181,96155
 2.4000e+000 96302 -2.4961e+001 -1.1548e+002  4.7789e+000 41579 96025,96181,96129
 2.4000e+000 96279 -6.2317e+001 -1.7884e+002  2.6546e+001 41579 96025,96129,96051
 2.4000e+000 96256 -7.6450e+001 -1.6554e+002  2.5971e+001 41579 96051,96103,96077
 2.4000e+000 96233 -2.8956e+001 -1.2406e+002  3.1956e+000 41579 96051,96129,96103
 2.4000e+000 96877 -4.8830e+000 -9.6134e+001 -1.9695e+001 41182 96972,96900,96632
 2.4000e+000 96854 -7.5688e+000 -6.4065e+001 -1.8801e+001 41182 96900,96554,96736
 2.4000e+000 96831 -2.1161e+000 -9.8444e+001 -1.0984e+001 41182 96972,96632,96580
 2.4000e+000 96808 -1.9519e+001 -9.3749e+001  8.6020e+000 41182 96632,96684,96658
 2.4000e+000 96785 -1.5039e+001 -1.0903e+002  8.5539e+000 41182 96684,96736,96710
 2.4000e+000 96762 -5.4475e+001 -1.3163e+002  2.8883e+001 41182 96580,96632,96606
 2.4000e+000 96926  4.4338e-001 -1.1037e+002 -1.8254e+001 41182 96684,96632,96900
 2.4000e+000 96949 -3.5026e+000 -9.5710e+001 -2.6843e+001 41182 96684,96900,96736
 2.4000e+000 96998 -1.8637e+001 -1.0064e+002 -1.4005e+001 41182 96554,96900,96972
 2.4000e+000 97021 -2.0097e+001 -1.0826e+002 -4.3433e+000 41182 96554,96972,96580
 2.4000e+000 97576 -8.4980e+001 -2.7321e+002 -4.8057e+001 40678 97230,97412,97282
 2.4000e+000 97553  1.7892e+001 -2.1994e+002  1.4117e+001 40678 97204,97412,97230
 2.4000e+000 97530 -4.0983e+001 -2.0800e+002 -3.8490e+001 40678 97282,97360,97308
 2.4000e+000 97507 -2.6760e+001 -1.9862e+002 -2.0207e+001 40678 97282,97412,97360
 2.4000e+000 97484 -1.9619e+001 -1.4354e+002 -3.1217e+001 40678 97308,97360,97334
 2.4000e+000 97461 -8.3968e+001 -2.4679e+002  4.9439e+000 40678 97360,97412,97386
 2.4000e+000 97438 -3.6831e+001 -1.9257e+002 -1.7551e+001 40678 97230,97282,97256
 2.4000e+000 97976 -7.0675e+001 -1.1356e+002 -3.2354e+000 40244 97702,97832,97754
 2.4000e+000 97953 -5.9440e+001 -1.0087e+002 -8.0261e+000 40244 97702,97858,97832
 2.4000e+000 97930 -6.8855e+001 -1.2054e+002 -3.7958e+001 40244 97702,97754,97728
 2.4000e+000 97907 -6.2616e+001 -1.3727e+002  1.5347e+001 40244 97780,97832,97806
 2.4000e+000 97884 -6.6744e+001 -1.1219e+002 -3.4254e+000 40244 97754,97832,97780
 2.4000e+000 98482 -5.8709e+001 -1.4368e+002  1.7883e+001 39690 98505,98185,98159
 2.4000e+000 98459 -5.1665e+001 -1.4242e+002  2.1232e+001 39690 98505,98159,98289
 2.4000e+000 98436 -1.0062e+002 -2.0147e+002  6.9165e+001 39690 98159,98315,98289
 2.4000e+000 98413 -6.1657e+001 -1.3628e+002  2.1130e+001 39690 98211,98289,98263
 2.4000e+000 98390 -4.3451e+001 -1.0223e+002  1.2831e+001 39690 98211,98263,98237
 2.4000e+000 98367 -2.3579e+001 -1.2843e+002  3.6129e+001 39690 98159,98341,98315
 2.4000e+000 98531 -7.1994e+001 -1.4369e+002  1.3360e+001 39690 98211,98185,98505
 2.4000e+000 98554 -5.9189e+001 -1.3552e+002  1.8783e+001 39690 98211,98505,98289
 2.4000e+000 99109 -4.6625e+001 -1.1986e+002 -7.9351e+000 39072 99132,98867,98789
 2.4000e+000 99086 -4.7435e+001 -1.1992e+002 -7.8140e+000 39072 99132,98789,98763
 2.4000e+000 99063 -6.7073e+001 -1.8228e+002  1.7051e+001 39072 98867,98945,98919
 2.4000e+000 99040 -3.7419e+001 -1.2376e+002 -3.8618e+000 39072 98789,98867,98841
 2.4000e+000 99017 -8.5345e+001 -1.4085e+002  4.5991e+000 39072 98867,98919,98893
 2.4000e+000 98994 -6.6960e+001 -1.1870e+002  2.6205e+001 39072 98789,98841,98815
 2.4000e+000 98971 -6.5006e+001 -1.2804e+002 -1.1062e+001 39072 98737,98945,98763
 2.4000e+000 99158 -4.6347e+001 -1.1984e+002 -8.0700e+000 39072 98945,98867,99132
 2.4000e+000 99181 -4.6700e+001 -1.1948e+002 -8.0651e+000 39072 98945,99132,98763
 2.4000e+000 99510 -3.9863e+001 -1.2392e+002  3.4454e+000 38668 99311,99389,99363
 2.4000e+000 99487 -4.7466e+001 -1.2326e+002  8.8148e+000 38668 99285,99389,99311
 2.4000e+000 99464 -7.8170e+001 -1.3670e+002  2.1240e+001 38668 99285,99415,99389
 2.4000e+000 99441 -4.9323e+001 -1.1885e+002  2.9544e-001 38668 99311,99363,99337
 2.4000e+000 99758 -1.2734e+001 -1.7745e+002  1.2700e+001 38164 99781,99611,99585
 2.4000e+000 99735  1.8406e+001 -1.7365e+002  1.8755e+001 38164 99781,99585,99533
 2.4000e+000 99712 -2.2933e+001 -1.4102e+002  1.5389e+001 38164 99611,99663,99637
 2.4000e+000 99689  3.1395e+001 -1.5589e+002  8.2194e+000 38164 99533,99585,99559
 2.4000e+000 99807 -2.9291e+001 -1.6776e+002  2.0892e+001 38164 99663,99611,99781
 2.4000e+000 99830 -8.7890e+000 -1.7167e+002  2.1323e+001 38164 99663,99781,99533
 2.4000e+000 100232 -5.9229e+001 -1.5343e+002  2.1615e+000 37702 99984,100114,100088
 2.4000e+000 100209 -4.4509e+001 -1.5410e+002  1.6194e+001 37702 99958,100114,99984
 2.4000e+000 100186 -8.5826e+001 -1.8902e+002 -1.0397e+001 37702 100010,100088,100036
 2.4000e+000 100163 -5.9123e+001 -1.5351e+002  1.3104e+000 37702 99984,100088,100010
 2.4000e+000 100140 -6.0586e+001 -1.6829e+002 -4.2181e+001 37702 100036,100088,100062
 2.4000e+000 100640 -1.1988e+002 -1.6296e+002  1.9174e+001 37262 100493,100545,100519
 2.4000e+000 100617 -9.9605e+001 -1.7752e+002  1.1739e+001 37262 100441,100545,100493
 2.4000e+000 100594 -5.0885e+001 -1.4521e+002 -9.0040e+000 37262 100415,100545,100441
 2.4000e+000 100571 -1.2073e+002 -2.0903e+002 -8.6849e+000 37262 100441,100493,100467
 2.4000e+000 101146 -7.6152e+001 -1.3372e+002 -1.7671e+000 36872 100823,100979,100849
 2.4000e+000 101123 -7.2933e+001 -1.2174e+002 -1.2969e+001 36872 100823,101005,100979
 2.4000e+000 101100 -8.0634e+001 -1.9322e+002  2.4991e+001 36872 101169,100901,100849
 2.4000e+000 101077 -6.3925e+001 -1.5762e+002  1.5268e+001 36872 101169,100849,100979
 2.4000e+000 101054 -3.4913e+001 -1.6936e+002  1.8975e+000 36872 100927,100979,100953
 2.4000e+000 101031 -4.4831e+001 -2.1880e+002  3.4893e+001 36872 100849,100901,100875
 2.4000e+000 101195 -5.9252e+001 -2.0396e+002  2.9660e+000 36872 100927,100901,101169
 2.4000e+000 101218 -4.9127e+001 -1.8489e+002 -4.7816e+000 36872 100927,101169,100979
 2.4000e+000 101773 -9.6199e+001 -1.5336e+002  2.9906e+001 36418 101479,101609,101583
 2.4000e+000 101750 -9.1862e+001 -1.5711e+002  3.5394e+001 36418 101453,101609,101479
 2.4000e+000 101727 -4.9087e+001 -1.6079e+002 -1.7040e-002 36418 101796,101531,101479
 2.4000e+000 101704 -8.3295e+001 -1.8159e+002  1.2313e+001 36418 101796,101479,101583
 2.4000e+000 101681 -5.3706e+001 -1.5133e+002  3.1101e+000 36418 101479,101531,101505
 2.4000e+000 101658 -4.2520e+000 -1.5179e+002 -2.6815e+000 36418 101401,101609,101453
 2.4000e+000 101635 -3.1611e+001 -1.7511e+002 -1.2607e+001 36418 101401,101453,101427
 2.4000e+000 101822 -5.8389e+001 -1.4570e+002 -3.3199e+001 36418 101557,101531,101796
 2.4000e+000 101845 -1.0106e+002 -1.5818e+002 -2.3238e+001 36418 101557,101796,101583
 2.4000e+000 102174  3.8695e+001 -7.2549e+001 -3.1474e+001 35914 101949,102053,101975
 2.4000e+000 102151 -4.0764e+001 -9.6791e+001 -1.3017e+001 35914 101949,102079,102053
 2.4000e+000 102128 -3.7618e-001 -9.1337e+001 -1.7364e+001 35914 101975,102053,102027
 2.4000e+000 102105  6.3097e-001 -8.7130e+001 -1.7451e+001 35914 101975,102027,102001
 2.4000e+000 102631 -3.5078e+001 -1.6275e+002 -2.3197e+000 35574 102383,102513,102487
 2.4000e+000 102608 -2.0201e+001 -1.5393e+002  1.9841e+000 35574 102357,102513,102383
 2.4000e+000 102585 -5.4158e+001 -1.7486e+002  1.6923e+000 35574 102409,102487,102435
 2.4000e+000 102562 -4.9927e+001 -1.7149e+002  3.2064e+000 35574 102383,102487,102409
 2.4000e+000 102539 -7.8690e+001 -2.0514e+002 -1.5763e+001 35574 102435,102487,102461
 2.4000e+000 103009 -7.5187e+001 -1.3793e+002 -2.3922e+001 35170 102761,102865,102787
 2.4000e+000 102986 -3.3563e+001 -1.1621e+002 -1.0581e+000 35170 102761,102891,102865
 2.4000e+000 102963 -6.6360e+001 -1.3870e+002 -1.6366e+001 35170 102787,102865,102813
 2.4000e+000 102940 -2.6609e+001 -1.0797e+002  2.1688e+000 35170 102735,102891,102761
 2.4000e+000 102917 -6.7730e+001 -1.3993e+002 -1.0723e+001 35170 102813,102865,102839
 2.4000e+000 103257  3.9122e+001 -1.1806e+002 -2.3485e+001 34659 103280,103058,103032
 2.4000e+000 103234  2.4861e+001 -1.2381e+002 -5.5554e+000 34659 103280,103032,103162
 2.4000e+000 103211 -1.9540e+001 -1.0022e+002 -1.4500e+001 34659 103084,103162,103110
 2.4000e+000 103188 -3.8497e+001 -1.4007e+002 -8.9585e+000 34659 103110,103162,103136
 2.4000e+000 103306  1.0693e+001 -1.1120e+002 -2.1492e+001 34659 103084,103058,103280
 2.4000e+000 103329  3.9341e+000 -1.1555e+002 -1.1534e+000 34659 103084,103280,103162
 2.4000e+000 103837  3.5141e+001 -1.6502e+002  1.3490e+001 34247 103860,103566,103540
 2.4000e+000 103814  1.9911e+000 -1.7233e+002  1.2744e+000 34247 103932,103860,103540
 2.4000e+000 103791  9.3360e+000 -1.9278e+002 -1.9932e+001 34247 103932,103540,103670
 2.4000e+000 103768  2.0126e+001 -1.6277e+002 -1.8750e+001 34247 103566,103618,103592
 2.4000e+000 103745 -4.8354e+001 -1.5254e+002 -2.4794e+001 34247 103540,103696,103670
 2.4000e+000 103722 -7.0855e+001 -1.6704e+002  3.1089e+001 34247 103514,103696,103540
 2.4000e+000 103886 -1.1321e+001 -1.6284e+002 -2.6637e+000 34247 103618,103566,103860
 2.4000e+000 103909 -4.2544e+001 -1.7915e+002  3.7793e+000 34247 103618,103860,103644
 2.4000e+000 103958 -1.7230e+001 -2.2203e+002 -8.6167e-001 34247 103644,103860,103932
 2.4000e+000 103981 -9.6336e+000 -2.4075e+002 -2.3075e+001 34247 103644,103932,103670
 2.4000e+000 104300 -7.8966e+001 -1.7428e+002 -9.5031e+000 33843 104052,104182,104156
 2.4000e+000 104277 -9.9525e+001 -1.5339e+002 -6.5243e-001 33843 104026,104182,104052
 2.4000e+000 104254 -7.9043e+001 -1.9895e+002  5.4807e+000 33843 104078,104156,104130
 2.4000e+000 104231 -1.0336e+002 -1.9289e+002 -1.3098e+000 33843 104052,104156,104078
 2.4000e+000 104208 -1.1903e+002 -2.0433e+002  3.3122e+000 33843 104078,104130,104104
 2.4000e+000 104499 -2.5750e+001 -1.4470e+002 -4.1446e+001 33282 104594,104522,104375
 2.4000e+000 104476 -1.2238e+001 -1.7886e+002 -2.1980e+000 33282 104522,104323,104427
 2.4000e+000 104453  7.9388e+000 -1.5078e+002 -4.3046e+001 33282 104594,104375,104349
 2.4000e+000 104548 -6.5139e+001 -1.3927e+002 -8.5689e+000 33282 104401,104375,104522
 2.4000e+000 104571  8.9263e+000 -1.1471e+002  8.1940e+000 33282 104401,104522,104427
 2.4000e+000 104620  2.2639e+001 -1.3733e+002 -2.8574e+001 33282 104323,104522,104594
 2.4000e+000 104643  4.6103e+001 -1.5243e+002 -3.3855e+001 33282 104323,104594,104349
 2.4000e+000 104942 -7.7130e+001 -1.9809e+002  2.7175e+001 32728 104694,104772,104720
 2.4000e+000 104919 -6.6873e+001 -1.8273e+002  1.0220e+001 32728 104694,104824,104772
 2.4000e+000 104896 -1.0255e+002 -1.7958e+002  2.9457e+001 32728 104720,104772,104746
 2.4000e+000 104873 -4.0756e+001 -2.0987e+002  9.4868e+000 32728 104772,104824,104798
 2.4000e+000 104850 -6.7388e+001 -1.8272e+002  1.0295e+001 32728 104668,104824,104694
 2.4000e+000 105373 -7.1520e+001 -1.9300e+002 -1.5635e+001 32274 105396,105102,105076
 2.4000e+000 105350 -5.7812e+001 -2.1373e+002 -1.2169e+001 32274 105396,105076,105206
 2.4000e+000 105327 -6.1793e+001 -2.2252e+002  3.0507e+001 32274 105154,105206,105180
 2.4000e+000 105304 -4.6455e+001 -2.1532e+002 -2.5753e+001 32274 105076,105232,105206
 2.4000e+000 105281 -7.5446e+001 -1.7845e+002 -3.4876e+001 32274 105102,105154,105128
 2.4000e+000 105258 -1.4224e+002 -2.2247e+002 -5.2682e+001 32274 105050,105232,105076
 2.4000e+000 105422 -6.4747e+001 -1.7313e+002 -1.0781e+001 32274 105154,105102,105396
 2.4000e+000 105445 -5.4354e+001 -1.9740e+002 -9.2524e+000 32274 105154,105396,105206
 2.4000e+000 105644 -6.1041e+001 -1.9717e+002  1.3334e+000 31620 105468,105546,105520
 2.4000e+000 105621 -5.1259e+001 -1.9893e+002 -3.3135e+000 31620 105468,105572,105546
 2.4000e+000 105598 -6.6570e+001 -2.2953e+002  1.7264e+001 31620 105468,105520,105494
 2.4000e+000 105794 -3.0898e+001 -1.8335e+002 -4.7211e+000 31158 105889,105817,105693
 2.4000e+000 105771 -4.1789e+001 -1.6981e+002 -9.0922e+000 31158 105817,105667,105745
 2.4000e+000 105843 -3.6670e+001 -2.1263e+002 -3.1615e+000 31158 105719,105693,105817
 2.4000e+000 105866 -3.0391e+001 -1.9028e+002 -8.2043e+000 31158 105719,105817,105745
 2.4000e+000 105915 -5.3365e+001 -1.9298e+002 -4.9751e+000 31158 105667,105817,105889
 2.4000e+000 106270 -7.4110e+001 -1.6830e+002 -7.7886e+000 30818 106293,106071,106045
 2.4000e+000 106247 -8.9133e+001 -2.0174e+002 -2.7393e+001 30818 106293,106045,106175
 2.4000e+000 106224 -3.5275e+001 -1.6358e+002  7.8048e+000 30818 106123,106175,106149
 2.4000e+000 106201 -8.6803e+001 -1.6857e+002  9.3887e+000 30818 106071,106123,106097
 2.4000e+000 106319 -6.9791e+001 -1.5499e+002  2.9569e+000 30818 106123,106071,106293
 2.4000e+000 106342 -6.8234e+001 -1.7223e+002 -1.3525e+001 30818 106123,106293,106175
 2.4000e+000 106492 -7.8989e+001 -1.8796e+002  2.9111e+001 30414 106645,106391,106365
 2.4000e+000 106469 -5.3461e+001 -1.8332e+002  4.9156e+001 30414 106515,106365,106443
 2.4000e+000 106541 -6.5235e+001 -1.8755e+002  2.9428e+001 30414 106645,106365,106515
 2.4000e+000 106671 -5.6707e+001 -2.2146e+002  4.8962e+001 30414 106417,106391,106645
 2.4000e+000 106694 -1.5715e+001 -2.0194e+002  3.9760e+001 30414 106417,106645,106515
 2.4000e+000 106942 -2.9641e+001 -2.4290e+002 -6.5975e+000 29910 106965,106795,106769
 2.4000e+000 106919  6.8988e+000 -2.3374e+002  8.4742e-001 29910 106965,106769,106717
 2.4000e+000 106896 -4.5993e+001 -1.9115e+002 -2.7916e+001 29910 106795,106847,106821
 2.4000e+000 106873  2.3394e+001 -1.8221e+002 -1.3072e+001 29910 106717,106769,106743
 2.4000e+000 106991 -6.1850e+001 -2.2044e+002  3.8323e+000 29910 106847,106795,106965
 2.4000e+000 107014 -2.6409e+001 -2.1123e+002  1.5009e+001 29910 106847,106965,106717
 2.4000e+000 107213 -4.3438e+001 -1.8865e+002  1.6393e+001 29413 107236,107063,107037
 2.4000e+000 107190 -4.3376e+001 -2.3154e+002  3.2432e+001 29413 107236,107037,107141
 2.4000e+000 107167 -5.4227e+001 -1.2627e+002  3.1687e+001 29413 107063,107115,107089
 2.4000e+000 107262 -4.2677e+001 -1.5928e+002  8.7553e+000 29413 107115,107063,107236
 2.4000e+000 107285 -3.6370e+001 -1.9159e+002  2.5953e+001 29413 107115,107236,107141
 2.4000e+000 107486 -2.6075e+001 -1.6508e+002  1.7330e+001 29009 107336,107388,107362
 2.4000e+000 107463 -1.2712e+001 -1.5869e+002  9.3468e+000 29009 107310,107388,107336
 2.4000e+000 107440 -2.8905e+001 -1.5460e+002  1.3972e+001 29009 107310,107414,107388
 2.4000e+000 107736 -6.3313e+001 -1.7655e+002  1.1357e+000 28491 107537,107615,107563
 2.4000e+000 107713 -4.5196e+001 -1.6803e+002  5.0008e+000 28491 107537,107641,107615
 2.4000e+000 107690 -2.0780e+001 -1.7227e+002  1.4404e+001 28491 107563,107615,107589
 2.4000e+000 107667 -6.8721e+001 -1.8073e+002 -2.7350e+000 28491 107511,107641,107537
 2.4000e+000 108118 -2.5048e+001 -1.7168e+002 -7.6272e+000 27980 108141,107922,107844
 2.4000e+000 108095 -5.4182e+000 -1.7586e+002 -1.2494e+001 27980 108141,107844,108000
 2.4000e+000 108072 -1.7065e+001 -1.5414e+002 -1.3907e+001 27980 107844,107922,107870
 2.4000e+000 108049 -2.0909e+001 -1.5072e+002 -1.1210e+001 27980 107870,107922,107896
 2.4000e+000 108026 -4.3630e+001 -1.5687e+002  3.0284e+001 27980 107922,107974,107948
 2.4000e+000 108167 -5.9774e+000 -1.9177e+002  1.7959e+000 27980 107974,107922,108141
 2.4000e+000 108190  4.2382e+001 -1.7540e+002 -1.8956e+000 27980 107974,108141,108000
 2.4000e+000 108745 -1.7902e+001 -1.2014e+002 -4.0330e-001 27376 108840,108768,108477
 2.4000e+000 108722 -3.6324e+001 -1.3484e+002 -2.2523e+001 27376 108768,108373,108581
 2.4000e+000 108699 -3.0280e+001 -1.0621e+002  2.2183e+001 27376 108840,108477,108451
 2.4000e+000 108676 -8.0533e+001 -1.2367e+002 -6.3289e+000 27376 108373,108451,108399
 2.4000e+000 108653 -3.3658e+001 -1.4983e+002  5.2196e+000 27376 108503,108581,108529
 2.4000e+000 108630 -5.9500e+000 -1.3276e+002 -4.6927e+000 27376 108529,108581,108555
 2.4000e+000 108607 -9.5266e+001 -1.4179e+002  9.2335e+000 27376 108399,108451,108425
 2.4000e+000 108794 -3.1912e+001 -1.5625e+002 -8.3460e-001 27376 108503,108477,108768
 2.4000e+000 108817 -1.8579e+001 -1.4268e+002 -6.9284e+000 27376 108503,108768,108581
 2.4000e+000 108866 -6.3791e+001 -1.4585e+002 -1.0566e+001 27376 108373,108768,108840
 2.4000e+000 108889 -6.1568e+001 -1.2708e+002  1.2947e+001 27376 108373,108840,108451
 2.4000e+000 109186 -6.8535e+001 -1.9465e+002  2.2419e+001 26722 109209,108938,108912
 2.4000e+000 109163 -6.3134e+001 -1.8019e+002  1.6483e+001 26722 109281,109209,108912
 2.4000e+000 109140 -6.1501e+001 -1.7595e+002  1.5857e+001 26722 109281,108912,109042
 2.4000e+000 109117 -4.7814e+001 -1.9904e+002  1.4054e+001 26722 108938,108990,108964
 2.4000e+000 109094 -9.0715e+001 -1.5874e+002  9.3230e+000 26722 108912,109068,109042
 2.4000e+000 109235 -4.8115e+001 -1.8475e+002  1.9371e+001 26722 108990,108938,109209
 2.4000e+000 109258 -5.9761e+001 -1.9628e+002  1.4216e+001 26722 108990,109209,109016
 2.4000e+000 109307 -5.7613e+001 -1.8662e+002  9.0520e+000 26722 109016,109209,109281
 2.4000e+000 109330 -5.4335e+001 -1.7960e+002  7.6113e+000 26722 109016,109281,109042
 2.4000e+000 109732 -7.6667e+001 -1.6285e+002 -3.3039e+000 26310 109458,109588,109484
 2.4000e+000 109709 -7.0796e+001 -1.8067e+002 -1.8855e+001 26310 109458,109614,109588
 2.4000e+000 109686 -1.0599e+002 -1.8049e+002  2.3812e+001 26310 109510,109562,109536
 2.4000e+000 109663 -1.0968e+002 -1.7342e+002  1.0314e+001 26310 109484,109562,109510
 2.4000e+000 109640 -7.9218e+001 -1.6501e+002 -1.2819e+000 26310 109484,109588,109562
 2.4000e+000 110159 -4.4988e+001 -1.6347e+002 -4.1259e+000 25642 110182,109940,109914
 2.4000e+000 110136 -4.0957e+001 -1.8722e+002  2.2181e+001 25642 110182,109914,109888
 2.4000e+000 110113 -5.1566e+001 -2.0013e+002 -2.6241e+001 25642 109966,110018,109992
 2.4000e+000 110090 -6.1008e+001 -1.9450e+002  1.4891e+001 25642 110254,109966,109940
 2.4000e+000 110067 -8.5113e+001 -1.8337e+002  7.5098e+000 25642 109862,110018,109888
 2.4000e+000 110044 -8.8134e+001 -1.5646e+002  2.1152e+001 25642 109836,110018,109862
 2.4000e+000 110208 -6.0519e+001 -1.7773e+002  1.1105e+001 25642 110254,109940,110182
 2.4000e+000 110231 -6.6224e+001 -1.8964e+002  2.3850e+001 25642 110018,110182,109888
 2.4000e+000 110280 -5.3399e+001 -2.1534e+002  1.1712e+001 25642 110018,109966,110254
 2.4000e+000 110303 -5.6443e+001 -2.0285e+002  8.4743e+000 25642 110018,110254,110182
 2.4000e+000 110632 -7.6469e+001 -1.6343e+002 -1.5986e+001 25188 110407,110485,110433
 2.4000e+000 110609 -9.4122e+001 -1.8015e+002 -9.0020e+000 25188 110407,110537,110485
 2.4000e+000 110586 -9.2748e+001 -1.7160e+002 -3.2432e+001 25188 110433,110485,110459
 2.4000e+000 110563 -8.5334e+001 -1.8258e+002  1.2906e+001 25188 110485,110537,110511
 2.4000e+000 110831 -2.3779e+001 -1.6216e+002  4.4015e+000 24726 110854,110707,110655
 2.4000e+000 110808 -2.2417e+001 -1.7199e+002  1.3071e+001 24726 110854,110655,110759
 2.4000e+000 110785 -2.3573e+001 -1.6310e+002  4.0349e+000 24726 110655,110707,110681
 2.4000e+000 110880 -2.2056e+001 -1.5263e+002  2.9917e+000 24726 110733,110707,110854
 2.4000e+000 110903 -1.8472e+001 -1.5833e+002  1.2063e+001 24726 110733,110854,110759
 2.4000e+000 111234  6.7415e+000 -1.1388e+002 -1.1567e+001 24222 111257,111087,111035
 2.4000e+000 111211  5.0908e+001 -9.4535e+001  3.4800e+000 24222 111257,111035,111009
 2.4000e+000 111188  4.6429e+001 -6.7076e+001 -3.1764e+001 24222 111035,111087,111061
 2.4000e+000 111165 -2.0128e+001 -9.2822e+001  3.1950e+000 24222 111087,111139,111113
 2.4000e+000 111283 -1.6624e+001 -8.6208e+001  4.4980e+000 24222 111139,111087,111257
 2.4000e+000 111306  1.4839e+000 -6.9948e+001  1.4039e+001 24222 111139,111257,111009
 2.4000e+000 111625 -2.4737e+001 -1.6626e+002 -1.2554e+001 23732 111648,111481,111455
 2.4000e+000 111602 -2.7060e+001 -1.6688e+002 -1.1230e+001 23732 111648,111455,111377
 2.4000e+000 111579  1.7133e+001 -8.8714e+001  1.7517e+001 23732 111377,111429,111403
 2.4000e+000 111556 -1.4243e+001 -1.7000e+002 -4.8517e+000 23732 111377,111455,111429
 2.4000e+000 111533 -2.5314e+001 -1.4693e+002 -6.3964e+000 23732 111351,111507,111377
 2.4000e+000 111674 -2.8322e+001 -1.6623e+002 -1.1998e+001 23732 111507,111481,111648
 2.4000e+000 111697 -2.8790e+001 -1.6663e+002 -1.0181e+001 23732 111507,111648,111377
 2.4000e+000 112156 -4.8444e+001 -1.8322e+002  1.0337e+001 23278 112179,111908,111882
 2.4000e+000 112133 -4.7432e+001 -1.7197e+002  2.2247e+000 23278 112179,111882,112012
 2.4000e+000 112110 -2.5419e+001 -1.9572e+002  8.2947e-001 23278 111908,111960,111934
 2.4000e+000 112087  7.2902e+000 -1.5602e+002 -1.7564e+001 23278 111882,112038,112012
 2.4000e+000 112064 -2.6109e+001 -1.5469e+002 -3.6726e+000 23278 111960,112012,111986
 2.4000e+000 112205 -4.4652e+001 -1.7713e+002  1.2231e+000 23278 111960,111908,112179
 2.4000e+000 112228 -3.8687e+001 -1.6369e+002 -7.7231e+000 23278 111960,112179,112012
 2.4000e+000 112685 -1.1603e+002 -2.6390e+002 -2.6848e+001 22938 112489,112567,112541
 2.4000e+000 112662 -1.0051e+002 -2.2836e+002 -2.4781e+001 22938 112437,112567,112489
 2.4000e+000 112639 -6.6757e+001 -1.9945e+002 -4.6882e+000 22938 112489,112541,112515
 2.4000e+000 112616 -1.1611e+002 -2.1825e+002 -2.2265e+001 22938 112411,112567,112437
 2.4000e+000 112593 -9.3103e+001 -2.8755e+002 -7.7872e+000 22938 112437,112489,112463
 2.4000e+000 113191  2.5796e+001 -1.6976e+002 -2.6161e+001 22534 113214,112998,112946
 2.4000e+000 113168 -1.7749e+001 -1.6064e+002 -7.7573e+000 22534 113286,113214,112946
 2.4000e+000 113145 -1.0729e+001 -1.5919e+002 -7.4320e+000 22534 113286,112946,112920
 2.4000e+000 113122 -6.7182e+001 -1.5283e+002 -2.8568e+001 22534 113358,113024,112998
 2.4000e+000 113099 -2.7636e+001 -1.5799e+002 -3.0287e+000 22534 112868,113050,112894
 2.4000e+000 113076 -5.8079e+001 -3.4508e+002 -6.7426e+001 22534 112946,112998,112972
 2.4000e+000 113240 -4.4641e+001 -1.8869e+002 -3.1726e+001 22534 113358,112998,113214
 2.4000e+000 113263 -2.1349e+001 -1.7193e+002 -3.3918e+000 22534 113050,113214,112894
 2.4000e+000 113312 -6.3873e+000 -1.6512e+002 -6.4472e+000 22534 112894,113214,113286
 2.4000e+000 113335  3.0027e+000 -1.6187e+002 -7.8266e+000 22534 112894,113286,112920
 2.4000e+000 113384 -4.0082e+001 -1.2838e+002 -1.5299e+001 22534 113050,113024,113358
 2.4000e+000 113407 -5.2211e+000 -1.5453e+002 -1.5578e+001 22534 113050,113358,113214
 2.4000e+000 113785 -8.2849e+001 -2.2380e+002  4.1479e+000 21978 113808,113615,113511
 2.4000e+000 113762 -6.6305e+001 -2.2827e+002  1.6216e+001 21978 113808,113511,113667
 2.4000e+000 113739 -4.8295e+001 -1.8945e+002 -1.0066e+001 21978 113511,113615,113537
 2.4000e+000 113716  2.7960e+001 -1.6654e+002 -1.8050e+001 21978 113537,113615,113589
 2.4000e+000 113693 -1.7600e+001 -2.4602e+002  4.3227e+000 21978 113537,113589,113563
 2.4000e+000 113834 -8.4993e+001 -2.2211e+002  2.4793e+001 21978 113641,113615,113808
 2.4000e+000 113857 -4.1130e+001 -2.0550e+002  3.9126e+001 21978 113641,113808,113667
 2.4000e+000 114284 -6.5979e+001 -1.8359e+002  6.8945e+000 21517 114013,114117,114039
 2.4000e+000 114261 -7.0916e+001 -1.8214e+002  1.5478e+001 21517 113961,114117,114013
 2.4000e+000 114238 -6.7789e+001 -1.8633e+002  1.5816e+001 21517 113961,114013,113987
 2.4000e+000 114215 -1.0500e+002 -2.0289e+002 -1.2231e+001 21517 114039,114117,114091
 2.4000e+000 114192 -7.4102e+001 -1.5596e+002  1.9317e+001 21517 113961,114143,114117
 2.4000e+000 114169  6.6532e+000 -1.6137e+002 -1.0674e+001 21517 114039,114091,114065
 2.4000e+000 114581 -3.6547e+001 -2.2335e+002  1.7166e+000 21027 114359,114463,114437
 2.4000e+000 114558 -2.1321e+001 -2.0285e+002  2.6553e+001 21027 114333,114463,114359
 2.4000e+000 114535 -1.6881e+001 -2.0614e+002 -5.6918e+000 21027 114359,114437,114385
 2.4000e+000 114512 -1.2064e+001 -2.0084e+002  2.0463e+001 21027 114307,114463,114333
 2.4000e+000 114489  3.1678e+001 -1.9155e+002 -9.8578e+000 21027 114385,114437,114411
 2.4000e+000 114912 -8.4080e+001 -1.8772e+002  3.2004e+000 20623 114713,114791,114765
 2.4000e+000 114889 -5.9093e+001 -1.7747e+002 -1.3235e+001 20623 114687,114791,114713
 2.4000e+000 114866 -3.9711e+001 -1.9829e+002 -1.5128e+001 20623 114687,114817,114791
 2.4000e+000 114843 -1.2411e+002 -2.2867e+002  2.0260e+001 20623 114713,114765,114739
 2.4000e+000 115290 -3.1932e+001 -1.6736e+002  7.3549e+000 20375 115313,115146,115094
 2.4000e+000 115267 -3.7683e+001 -1.6872e+002  1.0228e+001 20375 115313,115094,115042
 2.4000e+000 115244 -3.6183e+001 -1.5362e+002  3.5161e+000 20375 115385,115016,115172
 2.4000e+000 115221  2.8065e+001 -1.4624e+002  1.0502e+001 20375 115042,115094,115068
 2.4000e+000 115198 -4.2437e+001 -1.9432e+002  8.6808e+000 20375 115094,115146,115120
 2.4000e+000 115339 -5.3593e+001 -1.9419e+002 -6.6437e+000 20375 115172,115146,115313
 2.4000e+000 115362 -3.4769e+001 -1.6018e+002  1.8663e+000 20375 115385,115172,115313
 2.4000e+000 115411 -3.1246e+001 -1.5856e+002  1.0292e+001 20375 115042,115016,115385
 2.4000e+000 115434 -3.3181e+001 -1.6891e+002  9.4621e+000 20375 115042,115385,115313
 2.4000e+000 115891 -8.9159e+001 -1.7844e+002  2.1576e+001 19971 115617,115747,115643
 2.4000e+000 115868 -7.5096e+001 -1.4340e+002  1.9171e+001 19971 115617,115773,115747
 2.4000e+000 115845 -5.9552e+001 -2.5130e+002  1.0870e+001 19971 115643,115721,115695
 2.4000e+000 115822 -5.8173e+000 -1.3304e+002 -1.3012e+000 19971 115643,115747,115721
 2.4000e+000 115799  2.3220e+001 -2.7771e+002 -4.9724e+000 19971 115643,115695,115669
 2.4000e+000 115992 -1.3099e+002 -3.3986e+002 -6.0232e+001 19659 115914,115966,115940
 2.4000e+000 116142 -2.6237e+001 -7.7066e+001  2.6407e+000 18997 116041,116093,116067
 2.4000e+000 116119 -4.5267e+001 -1.2639e+002  8.4666e+000 18997 116015,116093,116041
 2.4000e+000 116343 -3.9200e+001 -2.0173e+002 -5.3430e+000 18707 116193,116245,116219
 2.4000e+000 116320 -4.1842e+001 -2.0711e+002 -1.1090e+001 18707 116193,116271,116245
 2.4000e+000 116297 -2.3206e+001 -1.6301e+002 -9.8255e+000 18707 116167,116271,116193
 2.4000e+000 116747 -3.2576e+001 -1.7257e+002 -2.1371e+000 18301 116525,116629,116551
 2.4000e+000 116724 -2.9409e+001 -1.5085e+002  2.0525e+000 18301 116473,116629,116525
 2.4000e+000 116701 -2.6010e+001 -1.5306e+002 -9.9152e+000 18301 116473,116525,116499
 2.4000e+000 116678 -1.7748e+001 -1.7993e+002 -2.4844e+000 18301 116551,116603,116577
 2.4000e+000 116655 -3.9225e+001 -1.8831e+002 -6.9673e+000 18301 116551,116629,116603
 2.4000e+000 117147 -8.9108e+001 -2.1050e+002 -9.9409e-001 17747 116899,117029,116925
 2.4000e+000 117124 -4.8727e+001 -1.5512e+002  2.0283e+001 17747 116873,117029,116899
 2.4000e+000 117101 -8.7921e+001 -2.0915e+002 -4.4575e-001 17747 116925,117029,116951
 2.4000e+000 117078 -7.6596e+001 -1.8038e+002 -4.5319e-002 17747 116951,117029,117003
 2.4000e+000 117055 -1.0558e+002 -2.3676e+002 -1.5373e+001 17747 116951,117003,116977
 2.4000e+000 117368  3.6940e+001 -1.9733e+002  2.9468e-001 17293 117244,117296,117270
 2.4000e+000 117345  8.2974e+000 -1.9363e+002 -5.6945e+000 17293 117192,117296,117244
 2.4000e+000 117322 -2.2750e+001 -1.8550e+002 -2.4901e+000 17293 117192,117244,117218
 2.4000e+000 117699 -2.7606e+001 -1.5665e+002 -1.6517e+001 16896 117526,117604,117552
 2.4000e+000 117676 -1.0310e+002 -2.3130e+002  1.3552e+001 16896 117500,117604,117526
 2.4000e+000 117653 -1.1127e+002 -1.8621e+002 -8.9837e+000 16896 117552,117604,117578
 2.4000e+000 117630 -8.4814e+001 -2.9199e+002  2.9029e+001 16896 117474,117604,117500
 2.4000e+000 117849 -2.0691e+002 -3.9855e+002 -1.5720e+001 16534 117722,117774,117748
 2.4000e+000 117826 -1.6342e+002 -4.8762e+002 -6.6961e+001 16534 117722,117800,117774
 2.4000e+000 118070 -2.5928e+001 -1.8751e+002  1.8756e+001 16194 117946,117998,117972
 2.4000e+000 118047 -4.4772e+001 -2.2045e+002  1.0873e+001 16194 117894,117998,117946
 2.4000e+000 118024 -5.5497e+001 -2.0340e+002 -2.8767e+000 16194 117894,117946,117920
 2.4000e+000 118173 -1.9863e+001 -2.0328e+002  0.0000e+000 15968 118095,118147,118121
 2.4000e+000 118276 -5.7309e+001 -2.0321e+002  3.0145e+000 15433 118299,118198,118250
 2.4000e+000 118325 -5.9599e+001 -2.0855e+002  3.0675e+000 15433 118224,118198,118299
 2.4000e+000 118450 -1.0465e+002 -2.3303e+002  2.2892e+001 421 118372,118424,118398
 2.5000e+000 69891 -3.3224e+001 -2.6463e+002  1.1699e+001 68988 69447,69681,69629
 2.5000e+000 69868  2.4625e+001 -2.4011e+002  9.4938e+000 68988 69421,69681,69447
 2.5000e+000 69845  1.4398e+001 -1.2107e+002  3.5963e+000 68988 69447,69629,69577
 2.5000e+000 69822 -6.9887e+001 -2.7325e+002 -3.1099e+001 68988 69447,69577,69473
 2.5000e+000 69799 -3.7226e+000 -3.1932e+002  5.0499e+001 68988 69629,69681,69655
 2.5000e+000 69776 -7.7304e+001 -1.6004e+002  3.4019e+000 68988 69577,69629,69603
 2.5000e+000 69753 -5.2508e+001 -2.3980e+002 -3.7662e+001 68988 69473,69577,69551
 2.5000e+000 69730 -8.6959e+001 -4.9943e+002 -5.0299e+001 68988 69473,69551,69525
 2.5000e+000 69707 -1.4861e+002 -3.2679e+002  5.2034e-001 68988 69473,69525,69499
 2.5000e+000 69992 -1.3628e+002 -2.7877e+002 -5.4649e+001 68676 69914,69966,69940
 2.5000e+000 70392 -9.2448e+001 -2.1108e+002  1.7364e+001 68478 70118,70248,70144
 2.5000e+000 70369  1.6886e+001 -2.1607e+002  4.8105e+001 68478 70118,70274,70248
 2.5000e+000 70346 -5.6272e+001 -1.5561e+002 -1.9466e-001 68478 70144,70222,70196
 2.5000e+000 70323 -4.6288e+001 -1.3029e+002 -4.8294e+000 68478 70144,70248,70222
 2.5000e+000 70300 -6.3605e+001 -1.7238e+002 -3.6880e+000 68478 70144,70196,70170
 2.5000e+000 70841  5.8042e+001 -1.3340e+002 -4.2846e+001 68280 70570,70622,70596
 2.5000e+000 70818 -6.1186e+001 -1.5374e+002 -9.5387e+000 68280 70544,70622,70570
 2.5000e+000 70795 -4.1130e+001 -1.1025e+002 -4.5890e+000 68280 70544,70674,70622
 2.5000e+000 70772 -3.4799e+001 -9.4591e+001  4.6405e+000 68280 70622,70674,70648
 2.5000e+000 70749 -6.2313e+001 -1.7613e+002  1.5505e+001 68280 70518,70674,70544
 2.5000e+000 70726  9.7023e+001 -1.8483e+002  6.2330e+001 68280 70518,70700,70674
 2.5000e+000 70991 -8.8603e+000 -8.3912e+002  2.4711e+001 67968 70864,70916,70890
 2.5000e+000 70968 -2.1799e+002 -8.3653e+002  9.2824e+001 67968 70864,70942,70916
 2.5000e+000 71141 -3.6402e+002 -7.1229e+002 -3.0488e+001 67770 71040,71092,71066
 2.5000e+000 71118 -3.2037e+002 -8.4949e+002  3.7164e+001 67770 71014,71092,71040
 2.5000e+000 71651 -3.8370e+001 -1.3557e+002 -2.9325e+001 67366 71746,71674,71458
 2.5000e+000 71628 -1.9357e+001 -1.1053e+002 -3.0347e+001 67366 71674,71354,71510
 2.5000e+000 71605 -3.1913e+001 -1.4927e+002 -2.8371e+001 67366 71746,71458,71432
 2.5000e+000 71582 -5.6906e+001 -1.5141e+002  5.8534e+000 67366 71354,71432,71380
 2.5000e+000 71559 -6.5590e+001 -1.0246e+002 -1.7863e+001 67366 71380,71432,71406
 2.5000e+000 71536 -2.5419e+001 -3.2213e+001 -3.3021e+000 67366 71328,71510,71354
 2.5000e+000 71700 -4.7301e+001 -1.2380e+002 -1.2576e+001 67366 71484,71458,71674
 2.5000e+000 71723 -2.4196e+001 -1.1361e+002 -1.0930e+001 67366 71484,71674,71510
 2.5000e+000 71772 -3.0507e+001 -1.1931e+002 -2.5610e+001 67366 71354,71674,71746
 2.5000e+000 71795 -2.4534e+001 -1.3219e+002 -2.6093e+001 67366 71354,71746,71432
 2.5000e+000 71896 -1.4807e+002 -3.2300e+002  0.0000e+000 67146 71818,71870,71844
 2.5000e+000 71997 -1.5559e+002 -2.5068e+002  5.0138e+001 66948 71919,71971,71945
 2.5000e+000 72149  5.0125e+000 -1.7325e+002 -2.8669e+001 66700 72172,72074,72048
 2.5000e+000 72126 -5.2304e+001 -2.0650e+002 -1.2269e+001 66700 72172,72048,72022
 2.5000e+000 72198 -9.5075e+001 -2.1607e+002  9.8386e+000 66700 72244,72172,72100
 2.5000e+000 72221 -8.0239e+001 -1.9702e+002 -1.3877e+001 66700 72100,72172,72022
 2.5000e+000 72270 -4.3920e+001 -1.0319e+002 -2.0396e+001 66700 72074,72172,72244
 2.5000e+000 72623 -5.9023e+001 -1.8582e+002  5.8978e+000 66502 72424,72502,72450
 2.5000e+000 72600 -4.6287e+001 -1.5134e+002  4.1959e+000 66502 72398,72502,72424
 2.5000e+000 72577 -3.3894e+001 -1.7409e+002 -2.7918e+000 66502 72398,72528,72502
 2.5000e+000 72554 -5.6717e+001 -1.6260e+002 -1.1950e+000 66502 72450,72502,72476
 2.5000e+000 72920 -1.0229e+002 -2.2490e+002  8.4877e+000 65941 72672,72776,72750
 2.5000e+000 72897 -1.0170e+002 -1.9039e+002  2.5947e+001 65941 72646,72776,72672
 2.5000e+000 72874 -8.9925e+001 -2.2202e+002  1.0942e+001 65941 72672,72750,72724
 2.5000e+000 72851 -8.9883e+001 -1.7251e+002  1.9857e+001 65941 72672,72724,72698
 2.5000e+000 72828 -7.6770e+001 -1.8204e+002  2.1516e+001 65941 72646,72802,72776
 2.5000e+000 73241 -6.0975e+000 -1.5330e+002  1.5930e+001 65743 73264,73071,73045
 2.5000e+000 73218 -5.3343e+001 -1.7400e+002  2.0185e+001 65743 73480,73264,73045
 2.5000e+000 73195 -4.4420e+001 -1.5566e+002 -1.8171e+000 65743 73336,72967,73097
 2.5000e+000 73172 -9.0006e+001 -1.4109e+002 -1.7399e+001 65743 73408,72993,72967
 2.5000e+000 73149 -3.6743e+001 -1.5703e+002 -2.4356e+000 65743 72967,73123,73097
 2.5000e+000 73290 -2.8040e+001 -1.6409e+002  4.5130e+000 65743 73097,73071,73264
 2.5000e+000 73313 -3.5133e+001 -1.4705e+002  8.9439e+000 65743 73336,73097,73264
 2.5000e+000 73362 -7.5059e+001 -1.6146e+002 -1.1282e+001 65743 73408,72967,73336
 2.5000e+000 73385 -2.9487e+001 -1.4600e+002  1.8529e+000 65743 73019,73336,73264
 2.5000e+000 73434 -6.5198e+001 -1.0357e+002  1.0423e+001 65743 73019,72993,73408
 2.5000e+000 73457 -3.0045e+001 -1.3036e+002  7.5911e+000 65743 73019,73408,73336
 2.5000e+000 73506 -1.5781e+001 -1.0870e+002  4.9779e+000 65743 73019,73264,73480
 2.5000e+000 73989  1.0021e+001 -1.1891e+002  1.7491e+001 65453 73793,73845,73819
 2.5000e+000 73966 -5.5193e+001 -1.3594e+002  2.0167e+001 65453 73741,73845,73793
 2.5000e+000 73943 -2.2709e+000 -1.0770e+002  9.5788e+000 65453 73715,73845,73741
 2.5000e+000 73920 -3.8459e+001 -1.4670e+002  3.3972e+001 65453 73741,73793,73767
 2.5000e+000 73897  1.8832e+001 -5.2831e+001  6.6378e+000 65453 73715,73871,73845
 2.5000e+000 74357 -9.1034e+000 -1.4871e+002 -6.3672e+001 65141 74380,74138,74086
 2.5000e+000 74334 -5.9582e+001 -2.3209e+002 -4.1259e+001 65141 74380,74086,74060
 2.5000e+000 74311 -5.7548e+001 -2.2258e+002 -1.5871e+001 65141 74138,74190,74164
 2.5000e+000 74288 -7.2309e+001 -2.5039e+002 -1.0137e+001 65141 74060,74216,74190
 2.5000e+000 74265 -7.7831e+001 -2.6704e+002  3.0957e+000 65141 74034,74216,74060
 2.5000e+000 74242 -2.8506e+001 -7.6290e+001 -3.0769e+001 65141 74086,74138,74112
 2.5000e+000 74406 -4.0703e+001 -2.2279e+002 -2.3610e+001 65141 74190,74138,74380
 2.5000e+000 74429 -5.6233e+001 -2.5165e+002 -8.8999e+000 65141 74190,74380,74060
 2.5000e+000 74937 -7.9239e+001 -1.5683e+002 -4.5151e+001 64737 74614,74666,74640
 2.5000e+000 74914 -9.9672e+001 -2.0624e+002 -3.1952e+001 64737 74614,74796,74666
 2.5000e+000 74891 -7.0965e+001 -1.3909e+002 -4.5792e+000 64737 74960,74718,74666
 2.5000e+000 74868 -6.1165e+001 -1.5445e+002 -1.9332e+001 64737 74960,74666,74770
 2.5000e+000 74845 -6.3103e+001 -1.2500e+002 -2.0521e+001 64737 74666,74796,74770
 2.5000e+000 74822 -6.9892e+001 -1.5222e+002  3.5678e+000 64737 74666,74718,74692
 2.5000e+000 74986 -7.6932e+001 -1.5493e+002 -4.4111e+000 64737 74744,74718,74960
 2.5000e+000 75009 -7.1195e+001 -1.7811e+002 -1.9550e+001 64737 74744,74960,74770
 2.5000e+000 75306 -2.0002e+001 -1.4447e+002  2.2735e+001 64133 75329,75110,75084
 2.5000e+000 75283 -3.5785e+001 -1.6798e+002  1.0056e+001 64133 75401,75329,75084
 2.5000e+000 75260 -3.3286e+001 -1.7394e+002  1.2340e+001 64133 75401,75084,75058
 2.5000e+000 75237 -3.0550e+001 -1.9797e+002  2.2549e+001 64133 75473,75136,75110
 2.5000e+000 75214 -4.4675e+001 -1.4500e+002  3.1809e+000 64133 75032,75188,75162
 2.5000e+000 75355 -3.6919e+001 -1.8508e+002  1.7842e+001 64133 75473,75110,75329
 2.5000e+000 75378 -2.9122e+001 -1.5707e+002  3.7305e+000 64133 75162,75329,75032
 2.5000e+000 75427 -2.7969e+001 -1.5478e+002  4.9684e+000 64133 75032,75329,75401
 2.5000e+000 75450 -6.6645e+001 -1.9469e+002  2.5936e+001 64133 75545,75401,75058
 2.5000e+000 75499 -3.0527e+001 -1.8151e+002  5.0005e+000 64133 75162,75136,75473
 2.5000e+000 75522 -3.3502e+001 -1.5694e+002  5.0609e+000 64133 75162,75473,75329
 2.5000e+000 75571 -2.5121e+001 -1.0387e+002  1.0063e+001 64133 75032,75401,75545
 2.5000e+000 75851 -5.0975e+001 -1.5062e+002  1.4777e+000 63843 75874,75753,75727
 2.5000e+000 75828 -4.4703e+001 -1.5277e+002 -8.8917e+000 63843 75946,75874,75727
 2.5000e+000 75805 -5.4070e+001 -1.6399e+002 -3.9050e+000 63843 76018,75946,75727
 2.5000e+000 75900 -3.8714e+001 -1.4543e+002 -4.6038e+000 63843 75779,75753,75874
 2.5000e+000 75923 -4.1486e+001 -1.2282e+002 -1.8230e+001 63843 75779,75874,75675
 2.5000e+000 75972 -5.4877e+001 -1.4176e+002 -6.7615e+000 63843 75675,75874,75946
 2.5000e+000 75995 -4.9280e+001 -1.5082e+002 -1.1810e+001 63843 75675,75946,75701
 2.5000e+000 76044 -5.5900e+001 -1.5925e+002 -1.6498e+001 63843 75701,75946,76018
 2.5000e+000 76454  2.2743e+001 -6.0409e+000 -2.2812e+001 63439 76477,76255,76229
 2.5000e+000 76431 -1.4034e+001 -7.0620e+001 -4.1285e-001 63439 76477,76229,76359
 2.5000e+000 76408  4.4550e+001 -4.0577e+001  4.9879e+001 63439 76307,76359,76333
 2.5000e+000 76385  4.9004e+000 -7.5852e+001  1.1442e+000 63439 76255,76307,76281
 2.5000e+000 76503 -1.2166e+001 -5.5886e+001  1.5935e+001 63439 76307,76255,76477
 2.5000e+000 76526 -1.2268e+001 -8.1942e+001  3.1761e+001 63439 76307,76477,76359
 2.5000e+000 76926 -3.3524e+001 -1.2053e+002 -1.9239e+000 63049 76704,76782,76756
 2.5000e+000 76903 -4.7427e+001 -1.2310e+002 -1.4914e+001 63049 76704,76808,76782
 2.5000e+000 76880 -3.2247e+001 -1.4166e+002  2.1150e+000 63049 76704,76756,76730
 2.5000e+000 76857 -3.1727e+001 -7.2098e+001  4.5023e+000 63049 76678,76808,76704
 2.5000e+000 76834 -1.4411e+001 -1.7639e+001 -1.6442e+001 63049 76652,76808,76678
 2.5000e+000 77076  2.8141e+000 -1.8289e+002 -1.2229e+000 62737 76975,77027,77001
 2.5000e+000 77053  5.9616e+000 -2.0609e+002 -1.3664e+001 62737 76949,77027,76975
 2.5000e+000 77324 -7.8835e+001 -1.8769e+002 -4.7819e-001 62277 77347,77177,77125
 2.5000e+000 77301 -7.4555e+001 -1.8113e+002 -8.1837e+000 62277 77347,77125,77229
 2.5000e+000 77278 -7.2740e+001 -1.8506e+002 -1.0733e+001 62277 77099,77229,77125
 2.5000e+000 77255 -8.1323e+001 -2.3230e+002  3.7033e+000 62277 77125,77177,77151
 2.5000e+000 77373 -8.2782e+001 -2.0574e+002  9.3473e+000 62277 77203,77177,77347
 2.5000e+000 77396 -6.5621e+001 -1.8902e+002 -7.3196e-001 62277 77203,77347,77229
 2.5000e+000 77857 -2.7112e+001 -2.3473e+002  3.0331e+000 61758 77635,77739,77661
 2.5000e+000 77834 -5.4471e+001 -2.2555e+002 -1.1917e+001 61758 77583,77739,77635
 2.5000e+000 77811 -6.5262e+001 -2.8145e+002 -2.7861e+001 61758 77583,77635,77609
 2.5000e+000 77788 -5.5675e+001 -2.1745e+002  1.9848e+001 61758 77661,77713,77687
 2.5000e+000 77765 -5.1190e+001 -2.5824e+002  2.3293e+001 61758 77661,77739,77713
 2.5000e+000 78491 -6.7854e+001 -1.3506e+002  5.3620e+000 61418 78171,78301,78249
 2.5000e+000 78468 -5.8587e+001 -1.0255e+002  1.7770e+001 61418 78145,78301,78171
 2.5000e+000 78445 -5.0900e+001 -1.2031e+002 -7.5514e+000 61418 78171,78249,78223
 2.5000e+000 78422 -5.3949e+001 -9.9550e+001 -1.1430e+001 61418 78145,78327,78301
 2.5000e+000 78399 -7.0543e+001 -1.5280e+002 -4.3814e+000 61418 78249,78301,78275
 2.5000e+000 78376 -3.4043e+001 -1.3017e+002 -1.0040e+001 61418 78171,78223,78197
 2.5000e+000 78353 -6.9701e+001 -1.8671e+002 -3.3370e+001 61418 78119,78327,78145
 2.5000e+000 78690 -6.4333e+001 -1.5939e+002  1.6688e+000 61014 78713,78566,78540
 2.5000e+000 78667 -4.5674e+001 -1.6982e+002  6.6825e+000 61014 78713,78540,78618
 2.5000e+000 78644 -6.7875e+001 -1.9160e+002 -1.9167e+001 61014 78514,78618,78540
 2.5000e+000 78739 -3.3983e+001 -1.4620e+002  1.7582e+001 61014 78592,78566,78713
 2.5000e+000 78762 -4.9631e+001 -1.6956e+002  5.0405e+000 61014 78785,78713,78618
 2.5000e+000 78811 -1.2665e+001 -1.5595e+002 -1.7614e+000 61014 78592,78713,78785
 2.5000e+000 79398 -1.3493e+001 -1.3683e+002 -1.7942e+001 60624 79101,79179,79153
 2.5000e+000 79375 -2.2344e+000 -1.5183e+002 -1.1881e+001 60624 79101,79231,79179
 2.5000e+000 79352 -1.6752e+001 -1.6291e+002 -1.9943e+001 60624 79075,79231,79101
 2.5000e+000 79329  6.4557e+001 -1.7993e+002  1.4933e+001 60624 79075,79257,79231
 2.5000e+000 79306  1.2183e+001 -1.1790e+002 -1.1154e+001 60624 79179,79231,79205
 2.5000e+000 79283 -2.7118e+000 -1.1333e+002 -7.5887e+000 60624 79101,79153,79127
 2.5000e+000 79776 -6.9135e+001 -2.0709e+002  2.1164e+001 60070 79528,79658,79606
 2.5000e+000 79753 -6.2764e+001 -1.6263e+002 -1.0053e+000 60070 79502,79658,79528
 2.5000e+000 79730 -8.9242e+001 -1.9941e+002  3.0537e+001 60070 79528,79606,79580
 2.5000e+000 79707 -1.2990e+001 -1.7933e+002  6.2081e+000 60070 79606,79658,79632
 2.5000e+000 79684 -7.3920e+000 -1.2180e+002 -3.2215e+001 60070 79528,79580,79554
 2.5000e+000 80105 -5.4713e+001 -1.6270e+002  1.7843e+001 59758 80128,79958,79906
 2.5000e+000 80082 -5.5393e+001 -1.5166e+002  1.2206e+001 59758 80128,79906,80010
 2.5000e+000 80059 -7.8121e+001 -1.6937e+002  5.4311e+001 59758 79906,79958,79932
 2.5000e+000 80036 -8.4169e+001 -1.7129e+002  3.6708e+000 59758 79880,80010,79906
 2.5000e+000 80154 -5.5176e+001 -1.6985e+002  1.8995e+001 59758 79984,79958,80128
 2.5000e+000 80177 -5.8060e+001 -1.6165e+002  1.3598e+001 59758 79984,80128,80010
 2.5000e+000 80376 -4.2224e+001 -1.5779e+002  3.0373e+000 59312 80226,80304,80252
 2.5000e+000 80353 -4.2013e+001 -1.6286e+002  2.7442e+000 59312 80200,80304,80226
 2.5000e+000 80330 -6.6148e+001 -1.4156e+002  4.2087e+001 59312 80252,80304,80278
 2.5000e+000 80805 -5.2625e+001 -1.2746e+002 -1.8178e+001 58908 80900,80828,80638
 2.5000e+000 80782 -4.3952e+001 -1.5258e+002 -3.0354e+001 58908 80828,80560,80508
 2.5000e+000 80759 -5.6220e+001 -1.1903e+002 -3.9811e+000 58908 80900,80638,80612
 2.5000e+000 80736 -1.9180e+001 -1.3048e+002  5.9479e+001 58908 80482,80664,80508
 2.5000e+000 80713 -3.7978e+001 -1.0756e+002 -1.7435e+000 58908 80560,80612,80586
 2.5000e+000 80690 -5.0446e+001 -3.8057e+002 -7.2849e+001 58908 80508,80560,80534
 2.5000e+000 80854 -1.8751e+001 -1.3825e+002  3.9984e+000 58908 80664,80638,80828
 2.5000e+000 80877 -3.9849e+001 -2.0446e+002  6.1608e+000 58908 80664,80828,80508
 2.5000e+000 80926 -4.2515e+001 -1.0193e+002 -2.0639e+001 58908 80560,80828,80900
 2.5000e+000 80949 -5.0050e+001 -1.0229e+002 -4.4336e+000 58908 80560,80900,80612
 2.5000e+000 81246 -8.2960e+000 -1.0753e+002 -6.0183e+000 58482 81076,81128,81102
 2.5000e+000 81223 -4.0755e+001 -2.0385e+002 -2.3722e+001 58482 80972,81128,81076
 2.5000e+000 81200 -1.5877e+001 -1.2734e+002 -2.6725e+001 58482 80972,81076,81050
 2.5000e+000 81177 -7.8412e+001 -2.4137e+002  2.9605e+000 58482 80998,81050,81024
 2.5000e+000 81154 -2.2285e+001 -1.7959e+002 -2.0747e+001 58482 80972,81050,80998
 2.5000e+000 81754 -5.6134e+001 -1.2756e+002  1.4069e+001 57828 81457,81613,81483
 2.5000e+000 81731 -6.4564e+001 -1.4327e+002  8.7156e+000 57828 81431,81613,81457
 2.5000e+000 81708 -6.1977e+001 -1.4118e+002  1.5613e+001 57828 81483,81613,81509
 2.5000e+000 81685 -7.6032e+001 -1.6682e+002  2.1995e+001 57828 81509,81613,81587
 2.5000e+000 81662 -8.5688e+001 -2.5280e+002  3.7142e+001 57828 81509,81587,81535
 2.5000e+000 81639 -4.7853e+001 -2.1829e+002  2.2061e+001 57828 81535,81587,81561
 2.5000e+000 82002 -9.3868e+001 -2.4879e+002 -7.3268e-001 57374 82025,81855,81829
 2.5000e+000 81979 -9.8778e+001 -2.3226e+002  1.2368e+001 57374 82025,81829,81907
 2.5000e+000 81956 -9.7456e+001 -2.1193e+002  1.0578e+001 57374 81803,81907,81829
 2.5000e+000 81933 -4.9145e+001 -1.8217e+002  2.3925e+001 57374 81777,81907,81803
 2.5000e+000 82051 -9.5628e+001 -2.2933e+002 -9.3829e-001 57374 81881,81855,82025
 2.5000e+000 82074 -9.4729e+001 -2.1324e+002  1.7041e+001 57374 81881,82025,81907
 2.5000e+000 82356 -5.0252e+001 -1.2491e+002 -1.1164e+001 56913 82180,82232,82206
 2.5000e+000 82333 -3.8358e+001 -1.1107e+002  1.5080e+001 56913 82180,82284,82232
 2.5000e+000 82310 -1.1843e+001 -9.4090e+001  2.4756e+001 56913 82379,82232,82284
 2.5000e+000 82405  1.7150e+001 -9.3395e+001  1.2209e+000 56913 82258,82232,82379
 2.5000e+000 82764 -4.2298e+001 -7.7980e+001 -1.1562e+001 56523 82614,82666,82640
 2.5000e+000 82741 -2.4701e+001 -7.3449e+001 -2.0505e+001 56523 82614,82692,82666
 2.5000e+000 82718 -3.8698e+001 -8.3659e+001 -2.7844e+001 56523 82588,82692,82614
 2.5000e+000 83368 -1.2137e+001 -1.6971e+002 -5.9300e+000 55969 82973,83155,83129
 2.5000e+000 83345  2.0451e+000 -1.6436e+002 -1.1545e+001 55969 82973,83181,83155
 2.5000e+000 83322 -4.6781e+001 -1.4853e+002 -4.2006e+000 55969 82973,83129,82999
 2.5000e+000 83299 -7.8200e+001 -1.5470e+002  7.9767e+000 55969 83391,83025,82999
 2.5000e+000 83276 -6.0913e+001 -1.5644e+002  1.5938e+000 55969 83391,82999,83129
 2.5000e+000 83253 -9.5595e+000 -1.2055e+002  2.5962e+001 55969 83077,83129,83103
 2.5000e+000 83230 -6.8890e+001 -1.1511e+002 -8.4568e+000 55969 83025,83077,83051
 2.5000e+000 83207 -2.9112e+000 -1.5918e+002  1.4931e+001 55969 82947,83181,82973
 2.5000e+000 83417 -6.1076e+001 -1.4746e+002  8.9876e+000 55969 83077,83025,83391
 2.5000e+000 83440 -5.4728e+001 -1.5522e+002  1.4390e+000 55969 83077,83391,83129
 2.5000e+000 83946 -1.0066e+002 -2.1731e+002  4.1487e+001 55771 83969,83779,83727
 2.5000e+000 83923 -7.7819e+001 -1.7486e+002  1.9373e+001 55771 83969,83727,83623
 2.5000e+000 83900 -9.4323e+001 -9.4487e+001  1.0949e+001 55771 83623,83727,83649
 2.5000e+000 83877 -4.2383e+001 -3.6028e+002  3.3965e+001 55771 83727,83779,83753
 2.5000e+000 83854 -1.4700e+002 -1.9543e+002  6.1644e+001 55771 83675,83727,83701
 2.5000e+000 83831 -1.5357e+002 -1.6660e+002  7.6421e+001 55771 83649,83727,83675
 2.5000e+000 83995 -8.8461e+001 -2.2346e+002 -1.3821e+001 55771 83805,83779,83969
 2.5000e+000 84018 -3.7625e+001 -1.3519e+002 -4.1092e+001 55771 83805,83969,83623
 2.5000e+000 84168 -3.8362e+001 -1.1265e+002 -5.5319e+000 55367 84191,84067,84041
 2.5000e+000 84145 -3.4909e+001 -1.3426e+002 -4.4251e+000 55367 84191,84041,84119
 2.5000e+000 84217 -4.0372e+001 -1.0220e+002 -4.7578e+000 55367 84093,84067,84191
 2.5000e+000 84240 -2.7385e+001 -1.1292e+002  2.5589e+000 55367 84093,84191,84119
 2.5000e+000 84571 -2.2891e+001 -1.8951e+002 -2.0215e+001 54913 84398,84450,84424
 2.5000e+000 84548 -1.8928e+001 -1.7127e+002 -9.2120e+000 54913 84372,84450,84398
 2.5000e+000 84525 -4.5527e+001 -1.9351e+002  7.5743e+000 54913 84346,84450,84372
 2.5000e+000 84502 -1.5519e+001 -1.2461e+002 -1.6065e+001 54913 84346,84476,84450
 2.5000e+000 85126 -9.1417e+001 -2.1412e+002 -7.3105e+000 54402 84858,84936,84910
 2.5000e+000 85103 -6.6237e+001 -1.6173e+002 -2.0338e+001 54402 84806,84936,84858
 2.5000e+000 85080 -8.4519e+001 -1.4785e+002 -1.6424e+001 54402 84780,84936,84806
 2.5000e+000 85057 -7.0727e+001 -1.8118e+002 -8.9369e+000 54402 84806,84858,84832
 2.5000e+000 85034 -7.0902e+001 -1.3699e+002  6.6435e+000 54402 84780,84962,84936
 2.5000e+000 85011 -1.1251e+002 -1.2453e+002 -3.3069e+000 54402 84858,84910,84884
 2.5000e+000 84988 -6.9940e+001 -1.2824e+002  4.7162e+000 54402 84754,84962,84780
 2.5000e+000 85396 -5.8307e+001 -7.2697e+001 -8.5108e+000 53998 85197,85249,85223
 2.5000e+000 85373 -4.1894e+001 -1.0666e+002 -8.4529e-001 53998 85197,85275,85249
 2.5000e+000 85350 -5.5464e+001 -1.2445e+002 -6.9841e+000 53998 85171,85275,85197
 2.5000e+000 85327 -2.2166e+001 -1.1628e+002 -8.7462e+000 53998 85171,85301,85275
 2.5000e+000 85749 -4.3021e+001 -1.5865e+002 -4.0296e+000 53636 85524,85628,85550
 2.5000e+000 85726 -6.8420e+001 -1.8072e+002  5.5923e+000 53636 85524,85654,85628
 2.5000e+000 85703 -2.5111e+001 -1.6552e+002 -1.5310e+001 53636 85550,85602,85576
 2.5000e+000 85680 -4.1913e+001 -1.5732e+002 -7.4299e+000 53636 85550,85628,85602
 2.5000e+000 86127  4.5688e+000 -1.5187e+002  2.7908e+001 52982 86150,85957,85879
 2.5000e+000 86104 -3.5293e+001 -1.8158e+002  1.4914e+001 52982 86150,85879,85853
 2.5000e+000 86081  7.3618e+000 -2.3295e+002  4.9515e+001 52982 85957,86009,85983
 2.5000e+000 86058 -4.7010e+001 -1.6265e+002  2.1792e+001 52982 85879,85957,85931
 2.5000e+000 86035 -2.5128e+001 -1.3960e+002  4.7200e+000 52982 85879,85931,85905
 2.5000e+000 86176  3.0721e+001 -1.8474e+002  2.2670e+001 52982 86009,85957,86150
 2.5000e+000 86199  7.0283e+000 -2.0517e+002  1.3830e+001 52982 86009,86150,85853
 2.5000e+000 86398 -2.1207e+001 -1.1496e+002  1.2236e+001 52542 86421,86248,86222
 2.5000e+000 86375 -4.9037e+001 -1.1789e+002 -7.7413e-001 52542 86421,86222,86300
 2.5000e+000 86352 -4.6450e+001 -1.2949e+002 -9.3460e+000 52542 86222,86326,86300
 2.5000e+000 86447  7.2375e+000 -1.1564e+002  2.3632e+001 52542 86274,86248,86421
 2.5000e+000 86470 -1.9340e+001 -1.2303e+002  7.1982e+000 52542 86274,86421,86300
 2.5000e+000 86669 -4.4855e+001 -1.1408e+002 -2.0782e+001 52230 86692,86571,86545
 2.5000e+000 86646 -4.2600e+001 -1.0623e+002 -1.0798e+001 52230 86692,86545,86519
 2.5000e+000 86623 -6.6960e+001 -1.0793e+002 -1.8084e+001 52230 86493,86597,86519
 2.5000e+000 86718 -4.9721e+001 -1.1689e+002 -2.4430e+001 52230 86597,86571,86692
 2.5000e+000 86741 -5.4290e+001 -1.1196e+002 -1.5025e+001 52230 86597,86692,86519
 2.5000e+000 87153 -7.9654e+001 -1.1538e+002  8.0239e+000 51640 86980,87058,87032
 2.5000e+000 87130 -7.2982e+001 -1.2206e+002  5.5120e+000 51640 86928,87058,86980
 2.5000e+000 87107 -6.9739e+001 -1.5925e+002 -1.2049e+001 51640 86928,86980,86954
 2.5000e+000 87084 -4.9712e+001 -1.0268e+002  3.2861e+000 51640 86980,87032,87006
 2.5000e+000 87659 -2.8639e+001 -1.1186e+002  1.1714e+001 51029 87682,87440,87362
 2.5000e+000 87636 -3.6326e+001 -1.2252e+002 -1.6054e+000 51029 87682,87362,87336
 2.5000e+000 87613 -4.9541e+001 -1.8195e+002 -3.2193e+000 51029 87440,87518,87466
 2.5000e+000 87590 -5.7848e+001 -1.1740e+002  1.5542e+001 51029 87362,87440,87414
 2.5000e+000 87567 -5.6741e+001 -1.1010e+002  3.8573e+001 51029 87362,87414,87388
 2.5000e+000 87544 -6.7624e+001 -1.5381e+002  4.6172e+000 51029 87466,87518,87492
 2.5000e+000 87708 -2.4209e+001 -1.2799e+002  3.7683e+000 51029 87518,87440,87682
 2.5000e+000 87731 -2.8315e+001 -1.4592e+002 -4.6862e+000 51029 87518,87682,87336
 2.5000e+000 87881 -7.4476e+001 -1.6387e+002  5.3288e+000 50739 87780,87832,87806
 2.5000e+000 87858 -8.6353e+001 -1.6621e+002 -7.1563e+000 50739 87754,87832,87780
 2.5000e+000 88468 -3.9726e+001 -1.0160e+002  6.2860e+000 50235 88171,88327,88197
 2.5000e+000 88445 -1.0063e+002 -1.0241e+002 -1.7132e+001 50235 88145,88327,88171
 2.5000e+000 88422  3.6006e+001 -4.6094e+001  3.1011e+001 50235 88275,88327,88301
 2.5000e+000 88399 -2.0938e+001 -7.0779e+001 -1.6334e+000 50235 88197,88327,88275
 2.5000e+000 88376  1.7978e+001 -8.9937e+001  5.1691e+000 50235 88197,88275,88223
 2.5000e+000 88353  7.9032e+000 -9.3829e+001  1.5161e+001 50235 88223,88275,88249
 2.5000e+000 88895 -6.0608e+001 -1.6089e+002  6.9606e+000 49873 88918,88728,88676
 2.5000e+000 88872 -5.0587e+001 -1.5484e+002 -1.5487e+000 49873 88918,88676,88624
 2.5000e+000 88849 -3.7394e+001 -1.3180e+002 -2.7950e+000 49873 88598,88754,88624
 2.5000e+000 88826 -2.9337e+001 -1.4456e+002 -4.6573e+000 49873 88624,88676,88650
 2.5000e+000 88803 -4.3859e+001 -1.9787e+002  1.0587e+001 49873 88676,88728,88702
 2.5000e+000 88780 -4.0858e+001 -1.0884e+002  1.0515e+001 49873 88572,88754,88598
 2.5000e+000 88944 -4.6958e+001 -1.5752e+002  2.8258e+000 49873 88754,88728,88918
 2.5000e+000 88967 -4.3731e+001 -1.5742e+002 -5.0257e+000 49873 88754,88918,88624
 2.5000e+000 89473 -1.0039e+002 -1.5652e+002 -2.0006e+001 49583 89176,89306,89202
 2.5000e+000 89450 -9.8801e+001 -1.5413e+002 -2.4160e+001 49583 89176,89332,89306
 2.5000e+000 89427 -5.9420e+001 -1.7262e+002  8.1188e+000 49583 89496,89228,89202
 2.5000e+000 89404 -5.8605e+001 -1.7703e+002  9.8367e+000 49583 89496,89202,89280
 2.5000e+000 89381 -1.2088e+002 -2.2073e+002 -3.9187e+001 49583 89202,89306,89280
 2.5000e+000 89358 -7.9460e+001 -1.5412e+002 -2.6854e+001 49583 89150,89332,89176
 2.5000e+000 89522 -5.4592e+001 -1.4375e+002  5.3869e+000 49583 89254,89228,89496
 2.5000e+000 89545 -6.7230e+001 -1.6888e+002  9.7773e+000 49583 89254,89496,89280
 2.5000e+000 89825  3.4598e+001 -1.5623e+002  8.3115e+000 49179 89701,89753,89727
 2.5000e+000 89802 -1.8893e+001 -1.3882e+002  1.3726e+001 49179 89675,89753,89701
 2.5000e+000 89779 -1.5409e+001 -1.2441e+002  4.5057e+000 49179 89848,89753,89675
 2.5000e+000 89874 -8.7655e+001 -1.4258e+002 -1.4282e+001 49179 89649,89753,89848
 2.5000e+000 90223 -3.8649e+001 -1.6484e+002 -1.3405e+001 48739 90024,90102,90076
 2.5000e+000 90200 -6.0742e+001 -1.6651e+002 -4.5785e+000 48739 90024,90128,90102
 2.5000e+000 90177 -3.2355e+001 -1.7832e+002 -7.0573e+000 48739 90024,90076,90050
 2.5000e+000 90154 -2.6877e+001 -1.6103e+002  1.3566e+001 48739 89998,90128,90024
 2.5000e+000 90603 -5.8327e+001 -1.5304e+002  2.7486e+001 48335 90381,90485,90459
 2.5000e+000 90580 -7.0597e+001 -1.6453e+002  2.0389e+001 48335 90355,90485,90381
 2.5000e+000 90557 -2.4389e+001 -5.2362e+001  1.8776e+001 48335 90381,90433,90407
 2.5000e+000 90534 -5.5234e+001 -1.5089e+002  2.8717e+001 48335 90381,90459,90433
 2.5000e+000 90511  2.9940e+000 -1.1742e+002  4.5367e+001 48335 90329,90485,90355
 2.5000e+000 90753  2.4861e+001 -7.9713e+001  4.5876e+001 47824 90776,90652,90704
 2.5000e+000 90730 -1.1904e+000 -1.3536e+002  3.8947e+001 47824 90626,90704,90652
 2.5000e+000 90802 -1.4573e+001 -1.1147e+002  3.2161e+001 47824 90678,90652,90776
 2.5000e+000 91131 -3.4348e+001 -1.6682e+002  1.1323e+001 47427 91154,90958,90906
 2.5000e+000 91108 -7.4990e+001 -1.8351e+002  3.9682e+000 47427 91154,90906,91036
 2.5000e+000 91085 -7.2002e+001 -1.4336e+002 -1.1282e+001 47427 90958,91010,90984
 2.5000e+000 91062 -3.7706e+001 -1.4804e+002  1.5562e+001 47427 90906,90958,90932
 2.5000e+000 91180 -5.8170e+001 -1.6522e+002 -1.5494e+001 47427 91010,90958,91154
 2.5000e+000 91203 -9.7265e+001 -1.8213e+002 -2.3529e+001 47427 91010,91154,91036
 2.5000e+000 91583 -1.0358e+002 -1.9176e+002 -1.1656e+001 46873 91309,91439,91335
 2.5000e+000 91560 -1.0873e+002 -1.9224e+002 -9.9363e+000 46873 91309,91465,91439
 2.5000e+000 91537 -1.5367e+002 -2.2283e+002 -5.0388e+001 46873 91361,91439,91413
 2.5000e+000 91514 -1.1420e+002 -1.9818e+002 -2.3456e+001 46873 91335,91439,91361
 2.5000e+000 91491 -4.8120e+001 -1.8207e+002 -4.0829e+001 46873 91361,91413,91387
 2.5000e+000 91880 -3.8345e+001 -1.6329e+002 -3.8888e+000 46526 91606,91710,91658
 2.5000e+000 91857 -4.3009e+001 -1.7462e+002  3.2241e+000 46526 91606,91762,91710
 2.5000e+000 91834 -1.7985e+001 -1.5801e+002 -1.9133e+001 46526 91606,91658,91632
 2.5000e+000 91811 -5.1740e+001 -1.5101e+002  3.6764e+000 46526 91658,91710,91684
 2.5000e+000 91788 -2.0113e+001 -1.0681e+002  8.1642e+000 46526 91710,91762,91736
 2.5000e+000 92211  3.0499e+000 -8.2294e+001 -2.9701e+000 45700 91986,92064,92038
 2.5000e+000 92188 -4.5359e+001 -1.2631e+002  1.6595e+001 45700 91986,92116,92064
 2.5000e+000 92165  2.1250e+001 -6.2795e+001 -3.4661e+001 45700 91986,92038,92012
 2.5000e+000 92142 -4.3540e+001 -1.2196e+002  1.7052e+001 45700 92064,92116,92090
 2.5000e+000 92766 -8.6202e+001 -1.4992e+002  2.7716e+000 45452 92446,92602,92576
 2.5000e+000 92743 -1.3812e+002 -1.5033e+002 -2.8167e+001 45452 92420,92602,92446
 2.5000e+000 92720 -1.0278e+002 -1.5484e+002  2.0720e+001 45452 92789,92524,92498
 2.5000e+000 92697 -1.2086e+002 -1.5341e+002  1.4837e+001 45452 92789,92498,92446
 2.5000e+000 92674 -9.7731e+001 -1.6820e+002 -3.9049e+000 45452 92524,92576,92550
 2.5000e+000 92651 -1.5332e+002 -1.5560e+002  7.9220e+001 45452 92446,92498,92472
 2.5000e+000 92628 -7.4770e+001 -1.7439e+002 -5.1285e+001 45452 92394,92602,92420
 2.5000e+000 92815 -9.0222e+001 -1.5948e+002  1.6008e+001 45452 92576,92524,92789
 2.5000e+000 92838 -1.0380e+002 -1.5425e+002  1.2697e+001 45452 92576,92789,92446
 2.5000e+000 92939 -5.2251e+001 -1.9458e+002 -4.4524e+001 44998 92861,92913,92887
 2.5000e+000 93319  4.6942e+000 -2.0967e+002  4.7790e+001 44601 93123,93201,93149
 2.5000e+000 93296 -4.6315e+001 -2.1057e+002 -2.1817e+001 44601 93045,93201,93123
 2.5000e+000 93273 -4.7398e+001 -1.1737e+002 -2.5493e+001 44601 93045,93123,93071
 2.5000e+000 93250 -4.0625e+001 -1.0962e+002 -1.8233e+001 44601 93071,93123,93097
 2.5000e+000 93227  1.7605e+001 -1.0291e+002  5.0338e+001 44601 93149,93201,93175
 2.5000e+000 93697 -3.0467e+001 -2.3357e+002  1.8871e+001 44026 93720,93553,93527
 2.5000e+000 93674 -7.6402e+001 -1.9228e+002  2.3981e+001 44026 93720,93527,93449
 2.5000e+000 93651 -8.9004e+001 -2.0225e+002 -6.5452e+000 44026 93449,93527,93501
 2.5000e+000 93628 -5.1283e+001 -1.5267e+002 -2.6070e+001 44026 93423,93579,93449
 2.5000e+000 93605 -1.2632e+001 -1.4993e+002  1.6239e+001 44026 93449,93501,93475
 2.5000e+000 93746  4.5725e+000 -2.0480e+002  5.7691e+000 44026 93579,93553,93720
 2.5000e+000 93769 -4.4512e+001 -1.6497e+002  1.1215e+001 44026 93579,93720,93449
 2.5000e+000 94066 -2.1297e+001 -1.6530e+002 -2.8560e+001 43579 94089,93818,93792
 2.5000e+000 94043 -5.6227e+001 -1.9325e+002 -1.6480e+001 43579 94161,94089,93792
 2.5000e+000 94020 -5.5482e+001 -1.9503e+002 -5.4500e+000 43579 94161,93792,93948
 2.5000e+000 93997 -6.0452e+001 -1.3616e+002 -7.2982e+000 43579 94233,93870,93818
 2.5000e+000 93974 -3.5084e+001 -1.3743e+002  1.5985e-001 43579 93818,93870,93844
 2.5000e+000 94115 -5.8694e+001 -1.3793e+002 -1.9160e+001 43579 94233,93818,94089
 2.5000e+000 94138 -8.7799e+001 -1.6459e+002 -1.3075e+001 43579 93896,94089,93922
 2.5000e+000 94187 -4.9294e+001 -1.7568e+002 -1.8389e+001 43579 93922,94089,94161
 2.5000e+000 94210 -4.9373e+001 -1.7654e+002 -6.2702e+000 43579 93922,94161,93948
 2.5000e+000 94259 -7.1822e+001 -1.5870e+002 -3.4485e+000 43579 93896,93870,94233
 2.5000e+000 94282 -6.6634e+001 -1.5593e+002 -1.7164e+001 43579 93896,94233,94089
 2.5000e+000 94481 -4.6904e+001 -1.6948e+002 -1.4951e+000 43239 94305,94383,94357
 2.5000e+000 94458 -3.7301e+001 -1.5326e+002  2.0622e+001 43239 94305,94409,94383
 2.5000e+000 94435 -2.7429e+001 -1.7568e+002 -7.3878e+000 43239 94305,94357,94331
 2.5000e+000 94633 -1.7146e+001 -1.1863e+002  2.9588e+001 42827 94656,94532,94506
 2.5000e+000 94610 -3.9086e+001 -1.3274e+002  4.0577e+001 42827 94728,94656,94506
 2.5000e+000 94682 -3.2756e+000 -1.3556e+002  3.0388e+001 42827 94558,94532,94656
 2.5000e+000 94705  2.1599e+001 -1.3938e+002  1.8520e+001 42827 94988,94860,94656
 2.5000e+000 94754 -9.2548e+000 -1.1829e+002  1.0379e+001 42827 94988,94656,94728
 2.5000e+000 94886  5.7476e+001 -1.2493e+002  1.9131e+001 42827 94558,94656,94860
 2.5000e+000 95014  4.7379e+001 -1.2117e+002  1.0580e+001 42827 94584,94860,94988
 2.5000e+000 95037  2.1180e+001 -1.0099e+002  2.9921e+000 42827 94584,94988,94728
 2.5000e+000 95236 -5.5010e+001 -1.7392e+002  5.4707e+000 42537 95259,95112,95060
 2.5000e+000 95213 -2.7171e+001 -1.8799e+002  1.1359e+001 42537 95259,95060,95164
 2.5000e+000 95190 -4.3416e+001 -1.6849e+002 -9.5047e+000 42537 95060,95112,95086
 2.5000e+000 95285 -3.6267e+001 -1.6966e+002  1.7749e+001 42537 95138,95112,95259
 2.5000e+000 95308 -8.6712e+000 -1.7687e+002  2.7530e+001 42537 95138,95259,95164
 2.5000e+000 95816 -5.8715e+001 -1.7952e+002 -7.6530e+000 41969 95493,95597,95519
 2.5000e+000 95793 -9.8782e+001 -1.8020e+002  2.5327e+001 41969 95493,95649,95597
 2.5000e+000 95770 -8.0433e+001 -1.6261e+002  1.3039e+001 41969 95493,95675,95649
 2.5000e+000 95747 -8.8130e+001 -2.0898e+002  2.3997e+001 41969 95597,95649,95623
 2.5000e+000 95724 -1.0885e+002 -1.8196e+002 -8.0689e+000 41969 95519,95597,95571
 2.5000e+000 95701 -1.0118e+002 -1.7905e+002 -5.1379e+001 41969 95519,95571,95545
 2.5000e+000 96371 -6.7899e+001 -1.8790e+002  2.8940e+001 41579 96025,96207,96181
 2.5000e+000 96348  4.3711e+001 -1.3721e+002  5.6332e-001 41579 95999,96207,96025
 2.5000e+000 96325 -7.9945e+001 -1.3913e+002 -1.0988e+001 41579 96129,96181,96155
 2.5000e+000 96302 -2.7157e+001 -1.2398e+002  5.1138e+000 41579 96025,96181,96129
 2.5000e+000 96279 -6.7039e+001 -1.9161e+002  2.8323e+001 41579 96025,96129,96051
 2.5000e+000 96256 -8.2788e+001 -1.7875e+002  2.8205e+001 41579 96051,96103,96077
 2.5000e+000 96233 -3.1189e+001 -1.3338e+002  3.4815e+000 41579 96051,96129,96103
 2.5000e+000 96877 -5.7385e+000 -1.0359e+002 -2.0714e+001 41182 96972,96900,96632
 2.5000e+000 96854 -8.4993e+000 -6.9480e+001 -1.9747e+001 41182 96900,96554,96736
 2.5000e+000 96831 -2.9440e+000 -1.0598e+002 -1.1821e+001 41182 96972,96632,96580
 2.5000e+000 96808 -2.0906e+001 -1.0073e+002  9.2967e+000 41182 96632,96684,96658
 2.5000e+000 96785 -1.6783e+001 -1.1677e+002  8.8186e+000 41182 96684,96736,96710
 2.5000e+000 96762 -5.8745e+001 -1.4163e+002  3.0512e+001 41182 96580,96632,96606
 2.5000e+000 96926 -8.8171e-002 -1.1854e+002 -1.9166e+001 41182 96684,96632,96900
 2.5000e+000 96949 -4.7325e+000 -1.0302e+002 -2.8321e+001 41182 96684,96900,96736
 2.5000e+000 96998 -1.9785e+001 -1.0816e+002 -1.4844e+001 41182 96554,96900,96972
 2.5000e+000 97021 -2.1328e+001 -1.1602e+002 -4.9784e+000 41182 96554,96972,96580
 2.5000e+000 97576 -9.5029e+001 -2.9310e+002 -5.1810e+001 40678 97230,97412,97282
 2.5000e+000 97553  1.5388e+001 -2.3593e+002  1.4447e+001 40678 97204,97412,97230
 2.5000e+000 97530 -5.4510e+001 -2.2213e+002 -3.6803e+001 40678 97282,97360,97308
 2.5000e+000 97507 -3.3835e+001 -2.1052e+002 -2.1427e+001 40678 97282,97412,97360
 2.5000e+000 97484 -3.1474e+001 -1.6273e+002 -2.8355e+001 40678 97308,97360,97334
 2.5000e+000 97461 -1.0146e+002 -2.6748e+002  8.2915e+000 40678 97360,97412,97386
 2.5000e+000 97438 -4.1971e+001 -2.0046e+002 -2.1121e+001 40678 97230,97282,97256
 2.5000e+000 97976 -7.5607e+001 -1.2179e+002 -3.5774e+000 40244 97702,97832,97754
 2.5000e+000 97953 -6.3711e+001 -1.0881e+002 -8.5559e+000 40244 97702,97858,97832
 2.5000e+000 97930 -7.3804e+001 -1.2957e+002 -4.0532e+001 40244 97702,97754,97728
 2.5000e+000 97907 -6.6968e+001 -1.4692e+002  1.6559e+001 40244 97780,97832,97806
 2.5000e+000 97884 -7.1505e+001 -1.2024e+002 -3.6087e+000 40244 97754,97832,97780
 2.5000e+000 98482 -6.2191e+001 -1.5598e+002  1.6756e+001 39690 98505,98185,98159
 2.5000e+000 98459 -6.0347e+001 -1.5515e+002  1.7618e+001 39690 98505,98159,98289
 2.5000e+000 98436 -1.1001e+002 -2.1237e+002  6.8183e+001 39690 98159,98315,98289
 2.5000e+000 98413 -4.8269e+001 -1.4593e+002  2.2336e+001 39690 98211,98289,98263
 2.5000e+000 98390 -2.9696e+001 -9.0177e+001  1.3096e+001 39690 98211,98263,98237
 2.5000e+000 98367 -2.7013e+001 -1.3434e+002  3.2912e+001 39690 98159,98341,98315
 2.5000e+000 98531 -6.6015e+001 -1.5574e+002  1.5201e+001 39690 98211,98185,98505
 2.5000e+000 98554 -6.2442e+001 -1.5271e+002  1.6730e+001 39690 98211,98505,98289
 2.5000e+000 99109 -5.0461e+001 -1.2796e+002 -8.2996e+000 39072 99132,98867,98789
 2.5000e+000 99086 -5.2080e+001 -1.2822e+002 -8.1638e+000 39072 99132,98789,98763
 2.5000e+000 99063 -7.2096e+001 -1.9543e+002  1.8593e+001 39072 98867,98945,98919
 2.5000e+000 99040 -4.0962e+001 -1.3266e+002 -3.6400e+000 39072 98789,98867,98841
 2.5000e+000 99017 -9.1776e+001 -1.5120e+002  5.2110e+000 39072 98867,98919,98893
 2.5000e+000 98994 -7.3049e+001 -1.2773e+002  2.8839e+001 39072 98789,98841,98815
 2.5000e+000 98971 -7.1195e+001 -1.3738e+002 -1.1923e+001 39072 98737,98945,98763
 2.5000e+000 99158 -4.9859e+001 -1.2829e+002 -8.6049e+000 39072 98945,98867,99132
 2.5000e+000 99181 -5.0540e+001 -1.2775e+002 -8.6247e+000 39072 98945,99132,98763
 2.5000e+000 99510 -4.2458e+001 -1.3213e+002  4.0945e+000 38668 99311,99389,99363
 2.5000e+000 99487 -5.1087e+001 -1.3197e+002  9.3204e+000 38668 99285,99389,99311
 2.5000e+000 99464 -8.3355e+001 -1.4648e+002  2.2394e+001 38668 99285,99415,99389
 2.5000e+000 99441 -5.3285e+001 -1.2735e+002  1.0196e+000 38668 99311,99363,99337
 2.5000e+000 99758 -1.2726e+001 -1.8814e+002  1.2732e+001 38164 99781,99611,99585
 2.5000e+000 99735  2.0655e+001 -1.8509e+002  1.8973e+001 38164 99781,99585,99533
 2.5000e+000 99712 -2.4533e+001 -1.5124e+002  1.5347e+001 38164 99611,99663,99637
 2.5000e+000 99689  3.5572e+001 -1.6490e+002  6.7213e+000 38164 99533,99585,99559
 2.5000e+000 99807 -3.0633e+001 -1.7863e+002  2.1571e+001 38164 99663,99611,99781
 2.5000e+000 99830 -8.3246e+000 -1.8343e+002  2.1851e+001 38164 99663,99781,99533
 2.5000e+000 100232 -6.4084e+001 -1.5988e+002  2.7855e+000 37702 99984,100114,100088
 2.5000e+000 100209 -5.0888e+001 -1.6837e+002  1.7744e+001 37702 99958,100114,99984
 2.5000e+000 100186 -9.6091e+001 -1.9940e+002 -1.2229e+001 37702 100010,100088,100036
 2.5000e+000 100163 -6.5493e+001 -1.6073e+002  1.0338e+000 37702 99984,100088,100010
 2.5000e+000 100140 -6.1027e+001 -1.4553e+002 -3.7588e+001 37702 100036,100088,100062
 2.5000e+000 100640 -1.2552e+002 -1.7125e+002  1.9337e+001 37262 100493,100545,100519
 2.5000e+000 100617 -1.0260e+002 -1.8599e+002  1.1747e+001 37262 100441,100545,100493
 2.5000e+000 100594 -5.0938e+001 -1.5061e+002 -1.1951e+001 37262 100415,100545,100441
 2.5000e+000 100571 -1.2588e+002 -2.2018e+002 -1.1323e+001 37262 100441,100493,100467
 2.5000e+000 101146 -8.1862e+001 -1.4335e+002 -2.1013e+000 36872 100823,100979,100849
 2.5000e+000 101123 -7.8346e+001 -1.3056e+002 -1.3606e+001 36872 100823,101005,100979
 2.5000e+000 101100 -8.6645e+001 -2.0686e+002  2.7137e+001 36872 101169,100901,100849
 2.5000e+000 101077 -6.9024e+001 -1.6949e+002  1.6466e+001 36872 101169,100849,100979
 2.5000e+000 101054 -3.7778e+001 -1.8125e+002  2.5097e+000 36872 100927,100979,100953
 2.5000e+000 101031 -4.8588e+001 -2.3380e+002  3.7686e+001 36872 100849,100901,100875
 2.5000e+000 101195 -6.3684e+001 -2.1801e+002  3.9417e+000 36872 100927,100901,101169
 2.5000e+000 101218 -5.2967e+001 -1.9806e+002 -4.6088e+000 36872 100927,101169,100979
 2.5000e+000 101773 -1.0208e+002 -1.6039e+002  2.7896e+001 36418 101479,101609,101583
 2.5000e+000 101750 -9.9703e+001 -1.6935e+002  3.3142e+001 36418 101453,101609,101479
 2.5000e+000 101727 -5.2897e+001 -1.6722e+002  2.5310e-001 36418 101796,101531,101479
 2.5000e+000 101704 -8.7601e+001 -1.8723e+002  1.0951e+001 36418 101796,101479,101583
 2.5000e+000 101681 -5.5460e+001 -1.5264e+002  2.6267e+000 36418 101479,101531,101505
 2.5000e+000 101658 -4.7356e+000 -1.6016e+002 -3.4436e+000 36418 101401,101609,101453
 2.5000e+000 101635 -3.3105e+001 -1.8738e+002 -1.4793e+001 36418 101401,101453,101427
 2.5000e+000 101822 -6.2794e+001 -1.5284e+002 -3.3628e+001 36418 101557,101531,101796
 2.5000e+000 101845 -1.0730e+002 -1.6700e+002 -2.5605e+001 36418 101557,101796,101583
 2.5000e+000 102174  3.2893e+001 -7.4262e+001 -3.1838e+001 35914 101949,102053,101975
 2.5000e+000 102151 -5.8122e+001 -1.0548e+002 -9.8832e+000 35914 101949,102079,102053
 2.5000e+000 102128 -4.3533e+001 -1.1049e+002 -7.2286e+000 35914 101975,102053,102027
 2.5000e+000 102105  4.9548e+000 -7.3168e+001 -3.2996e+001 35914 101975,102027,102001
 2.5000e+000 102631 -3.7792e+001 -1.7394e+002 -2.2026e+000 35574 102383,102513,102487
 2.5000e+000 102608 -2.1818e+001 -1.6594e+002  2.0035e+000 35574 102357,102513,102383
 2.5000e+000 102585 -5.7840e+001 -1.8683e+002  2.4697e+000 35574 102409,102487,102435
 2.5000e+000 102562 -5.3948e+001 -1.8353e+002  3.9627e+000 35574 102383,102487,102409
 2.5000e+000 102539 -8.4083e+001 -2.1951e+002 -1.6061e+001 35574 102435,102487,102461
 2.5000e+000 103009 -8.0608e+001 -1.4777e+002 -2.5449e+001 35170 102761,102865,102787
 2.5000e+000 102986 -3.6314e+001 -1.2463e+002 -1.1282e+000 35170 102761,102891,102865
 2.5000e+000 102963 -7.1204e+001 -1.4834e+002 -1.7452e+001 35170 102787,102865,102813
 2.5000e+000 102940 -2.8883e+001 -1.1645e+002  2.1301e+000 35170 102735,102891,102761
 2.5000e+000 102917 -7.2647e+001 -1.4968e+002 -1.1630e+001 35170 102813,102865,102839
 2.5000e+000 103257  4.1401e+001 -1.2509e+002 -2.4240e+001 34659 103280,103058,103032
 2.5000e+000 103234  2.6178e+001 -1.3178e+002 -5.4118e+000 34659 103280,103032,103162
 2.5000e+000 103211 -2.0692e+001 -1.0693e+002 -1.4413e+001 34659 103084,103162,103110
 2.5000e+000 103188 -4.1035e+001 -1.4898e+002 -7.9538e+000 34659 103110,103162,103136
 2.5000e+000 103306  1.1331e+001 -1.1705e+002 -2.1822e+001 34659 103084,103058,103280
 2.5000e+000 103329  3.8756e+000 -1.2247e+002 -4.7569e-001 34659 103084,103280,103162
 2.5000e+000 103837  3.6450e+001 -1.7676e+002  1.4669e+001 34247 103860,103566,103540
 2.5000e+000 103814  1.0595e+000 -1.8452e+002  1.5564e+000 34247 103932,103860,103540
 2.5000e+000 103791  8.8332e+000 -2.0633e+002 -2.1049e+001 34247 103932,103540,103670
 2.5000e+000 103768  2.0958e+001 -1.7476e+002 -1.9879e+001 34247 103566,103618,103592
 2.5000e+000 103745 -5.2186e+001 -1.6335e+002 -2.6111e+001 34247 103540,103696,103670
 2.5000e+000 103722 -7.6177e+001 -1.7881e+002  3.3511e+001 34247 103514,103696,103540
 2.5000e+000 103886 -1.3000e+001 -1.7486e+002 -2.5636e+000 34247 103618,103566,103860
 2.5000e+000 103909 -4.5868e+001 -1.9190e+002  4.1412e+000 34247 103618,103860,103644
 2.5000e+000 103958 -1.9345e+001 -2.3743e+002 -8.4205e-001 34247 103644,103860,103932
 2.5000e+000 103981 -1.1329e+001 -2.5742e+002 -2.4525e+001 34247 103644,103932,103670
 2.5000e+000 104300 -8.4889e+001 -1.8644e+002 -1.0097e+001 33843 104052,104182,104156
 2.5000e+000 104277 -1.0696e+002 -1.6450e+002 -8.0885e-001 33843 104026,104182,104052
 2.5000e+000 104254 -8.4922e+001 -2.1309e+002  5.9182e+000 33843 104078,104156,104130
 2.5000e+000 104231 -1.1088e+002 -2.0640e+002 -1.3068e+000 33843 104052,104156,104078
 2.5000e+000 104208 -1.2843e+002 -2.1957e+002  3.9709e+000 33843 104078,104130,104104
 2.5000e+000 104499 -2.8114e+001 -1.5559e+002 -4.3918e+001 33282 104594,104522,104375
 2.5000e+000 104476 -1.3750e+001 -1.9120e+002 -2.1457e+000 33282 104522,104323,104427
 2.5000e+000 104453  7.9199e+000 -1.6233e+002 -4.5533e+001 33282 104594,104375,104349
 2.5000e+000 104548 -6.9598e+001 -1.4926e+002 -9.1979e+000 33282 104401,104375,104522
 2.5000e+000 104571  8.6389e+000 -1.2339e+002  8.7604e+000 33282 104401,104522,104427
 2.5000e+000 104620  2.3468e+001 -1.4716e+002 -3.0084e+001 33282 104323,104522,104594
 2.5000e+000 104643  4.8510e+001 -1.6364e+002 -3.5661e+001 33282 104323,104594,104349
 2.5000e+000 104942 -8.1903e+001 -2.1058e+002  2.9528e+001 32728 104694,104772,104720
 2.5000e+000 104919 -7.1048e+001 -1.9423e+002  1.1438e+001 32728 104694,104824,104772
 2.5000e+000 104896 -1.0917e+002 -1.9109e+002  3.1865e+001 32728 104720,104772,104746
 2.5000e+000 104873 -4.4366e+001 -2.2371e+002  1.1010e+001 32728 104772,104824,104798
 2.5000e+000 104850 -7.1868e+001 -1.9405e+002  1.1664e+001 32728 104668,104824,104694
 2.5000e+000 105373 -6.6584e+001 -2.1457e+002 -7.8962e+000 32274 105396,105102,105076
 2.5000e+000 105350 -7.4491e+001 -2.3629e+002 -1.1491e+000 32274 105396,105076,105206
 2.5000e+000 105327 -9.9608e+001 -2.4553e+002  1.6134e+001 32274 105154,105206,105180
 2.5000e+000 105304 -2.1658e+001 -2.2301e+002 -1.9774e+001 32274 105076,105232,105206
 2.5000e+000 105281 -8.8220e+001 -1.9480e+002 -2.8187e+001 32274 105102,105154,105128
 2.5000e+000 105258 -1.2198e+002 -1.8446e+002 -4.1468e+001 32274 105050,105232,105076
 2.5000e+000 105422 -8.0037e+001 -1.9070e+002 -7.1441e+000 32274 105154,105102,105396
 2.5000e+000 105445 -8.7072e+001 -2.1263e+002 -1.8941e+000 32274 105154,105396,105206
 2.5000e+000 105644 -6.5912e+001 -2.1083e+002  1.3633e+000 31620 105468,105546,105520
 2.5000e+000 105621 -5.5254e+001 -2.1324e+002 -3.7088e+000 31620 105468,105572,105546
 2.5000e+000 105598 -7.1673e+001 -2.4504e+002  1.8392e+001 31620 105468,105520,105494
 2.5000e+000 105794 -2.8424e+001 -1.9085e+002 -6.1970e+000 31158 105889,105817,105693
 2.5000e+000 105771 -4.1942e+001 -1.6737e+002 -1.1994e+001 31158 105817,105667,105745
 2.5000e+000 105843 -3.5635e+001 -2.3712e+002 -2.2988e+000 31158 105719,105693,105817
 2.5000e+000 105866 -2.4234e+001 -2.0054e+002 -1.0805e+001 31158 105719,105817,105745
 2.5000e+000 105915 -5.8748e+001 -2.0385e+002 -6.5426e+000 31158 105667,105817,105889
 2.5000e+000 106270 -8.0440e+001 -1.8149e+002 -5.3438e+000 30818 106293,106071,106045
 2.5000e+000 106247 -9.5242e+001 -2.1430e+002 -2.6535e+001 30818 106293,106045,106175
 2.5000e+000 106224 -3.7784e+001 -1.7578e+002  9.3205e+000 30818 106123,106175,106149
 2.5000e+000 106201 -8.8124e+001 -1.8301e+002  1.2479e+001 30818 106071,106123,106097
 2.5000e+000 106319 -7.4711e+001 -1.6835e+002  4.8483e+000 30818 106123,106071,106293
 2.5000e+000 106342 -7.2301e+001 -1.8517e+002 -1.2960e+001 30818 106123,106293,106175
 2.5000e+000 106492 -7.8979e+001 -1.8846e+002  3.5133e+001 30414 106645,106391,106365
 2.5000e+000 106469 -4.3463e+001 -1.8214e+002  5.0096e+001 30414 106515,106365,106443
 2.5000e+000 106541 -6.0963e+001 -1.8906e+002  3.6108e+001 30414 106645,106365,106515
 2.5000e+000 106671 -5.0641e+001 -2.2683e+002  5.9704e+001 30414 106417,106391,106645
 2.5000e+000 106694  1.2168e-001 -2.0489e+002  4.9136e+001 30414 106417,106645,106515
 2.5000e+000 106942 -3.2234e+001 -2.5969e+002 -6.8847e+000 29910 106965,106795,106769
 2.5000e+000 106919  6.3870e+000 -2.5005e+002  9.7215e-001 29910 106965,106769,106717
 2.5000e+000 106896 -4.9185e+001 -2.0438e+002 -2.9630e+001 29910 106795,106847,106821
 2.5000e+000 106873  2.3948e+001 -1.9514e+002 -1.3907e+001 29910 106717,106769,106743
 2.5000e+000 106991 -6.6261e+001 -2.3603e+002  4.1423e+000 29910 106847,106795,106965
 2.5000e+000 107014 -2.8797e+001 -2.2635e+002  1.5944e+001 29910 106847,106965,106717
 2.5000e+000 107213 -4.5015e+001 -2.0160e+002  1.8438e+001 29413 107236,107063,107037
 2.5000e+000 107190 -4.5698e+001 -2.4663e+002  3.5310e+001 29413 107236,107037,107141
 2.5000e+000 107167 -5.7062e+001 -1.3477e+002  3.4844e+001 29413 107063,107115,107089
 2.5000e+000 107262 -4.4618e+001 -1.7058e+002  1.0001e+001 29413 107115,107063,107236
 2.5000e+000 107285 -3.8750e+001 -2.0454e+002  2.8039e+001 29413 107115,107236,107141
 2.5000e+000 107486 -2.7862e+001 -1.7661e+002  1.9854e+001 29009 107336,107388,107362
 2.5000e+000 107463 -1.4700e+001 -1.7019e+002  1.0436e+001 29009 107310,107388,107336
 2.5000e+000 107440 -3.1200e+001 -1.6600e+002  1.5146e+001 29009 107310,107414,107388
 2.5000e+000 107736 -6.8159e+001 -1.8927e+002  1.3446e+000 28491 107537,107615,107563
 2.5000e+000 107713 -4.8880e+001 -1.8012e+002  5.8324e+000 28491 107537,107641,107615
 2.5000e+000 107690 -2.2981e+001 -1.8498e+002  1.5409e+001 28491 107563,107615,107589
 2.5000e+000 107667 -7.4587e+001 -1.9410e+002 -2.6381e+000 28491 107511,107641,107537
 2.5000e+000 108118 -2.7184e+001 -1.8387e+002 -7.9938e+000 27980 108141,107922,107844
 2.5000e+000 108095 -6.3450e+000 -1.8855e+002 -1.3127e+001 27980 108141,107844,108000
 2.5000e+000 108072 -1.8758e+001 -1.6539e+002 -1.4748e+001 27980 107844,107922,107870
 2.5000e+000 108049 -2.2615e+001 -1.6136e+002 -1.1977e+001 27980 107870,107922,107896
 2.5000e+000 108026 -4.6983e+001 -1.6773e+002  3.2388e+001 27980 107922,107974,107948
 2.5000e+000 108167 -7.0014e+000 -2.0505e+002  1.9759e+000 27980 107974,107922,108141
 2.5000e+000 108190  4.4360e+001 -1.8782e+002 -1.8377e+000 27980 107974,108141,108000
 2.5000e+000 108745 -2.3558e+001 -1.3119e+002 -4.9055e+000 27376 108840,108768,108477
 2.5000e+000 108722 -4.2354e+001 -1.5673e+002 -3.2248e+001 27376 108768,108373,108581
 2.5000e+000 108699 -3.8624e+001 -1.1538e+002  2.2008e+001 27376 108840,108477,108451
 2.5000e+000 108676 -9.4313e+001 -1.3739e+002 -6.7564e+000 27376 108373,108451,108399
 2.5000e+000 108653 -3.4092e+001 -1.6162e+002  9.9220e+000 27376 108503,108581,108529
 2.5000e+000 108630 -1.2641e+001 -1.5157e+002  2.6339e+000 27376 108529,108581,108555
 2.5000e+000 108607 -1.0778e+002 -1.5074e+002  1.0253e+001 27376 108399,108451,108425
 2.5000e+000 108794 -3.8287e+001 -1.7359e+002 -2.9786e+000 27376 108503,108477,108768
 2.5000e+000 108817 -1.3516e+001 -1.5948e+002 -8.9887e+000 27376 108503,108768,108581
 2.5000e+000 108866 -7.8545e+001 -1.6129e+002 -1.6553e+001 27376 108373,108768,108840
 2.5000e+000 108889 -7.6051e+001 -1.3928e+002  1.1368e+001 27376 108373,108840,108451
 2.5000e+000 109186 -7.3259e+001 -2.0978e+002  2.5314e+001 26722 109209,108938,108912
 2.5000e+000 109163 -6.7168e+001 -1.9360e+002  1.9005e+001 26722 109281,109209,108912
 2.5000e+000 109140 -6.5378e+001 -1.8875e+002  1.8328e+001 26722 109281,108912,109042
 2.5000e+000 109117 -5.1104e+001 -2.1620e+002  1.5628e+001 26722 108938,108990,108964
 2.5000e+000 109094 -9.8004e+001 -1.7085e+002  1.1572e+001 26722 108912,109068,109042
 2.5000e+000 109235 -5.1192e+001 -1.9887e+002  2.1787e+001 26722 108990,108938,109209
 2.5000e+000 109258 -6.3638e+001 -2.1171e+002  1.6285e+001 26722 108990,109209,109016
 2.5000e+000 109307 -6.1019e+001 -2.0095e+002  1.0553e+001 26722 109016,109209,109281
 2.5000e+000 109330 -5.7375e+001 -1.9296e+002  8.9510e+000 26722 109016,109281,109042
 2.5000e+000 109732 -8.2364e+001 -1.7370e+002 -3.5855e+000 26310 109458,109588,109484
 2.5000e+000 109709 -7.6366e+001 -1.9369e+002 -2.0290e+001 26310 109458,109614,109588
 2.5000e+000 109686 -1.1412e+002 -1.9347e+002  2.5559e+001 26310 109510,109562,109536
 2.5000e+000 109663 -1.1799e+002 -1.8589e+002  1.1134e+001 26310 109484,109562,109510
 2.5000e+000 109640 -8.5336e+001 -1.7615e+002 -1.3343e+000 26310 109484,109588,109562
 2.5000e+000 110159 -4.7238e+001 -1.7511e+002 -3.9901e+000 25642 110182,109940,109914
 2.5000e+000 110136 -4.3324e+001 -2.0139e+002  2.4015e+001 25642 110182,109914,109888
 2.5000e+000 110113 -5.4318e+001 -2.1641e+002 -2.8067e+001 25642 109966,110018,109992
 2.5000e+000 110090 -6.4596e+001 -2.0947e+002  1.6845e+001 25642 110254,109966,109940
 2.5000e+000 110067 -9.0829e+001 -1.9860e+002  7.6582e+000 25642 109862,110018,109888
 2.5000e+000 110044 -8.9950e+001 -1.6714e+002  2.3405e+001 25642 109836,110018,109862
 2.5000e+000 110208 -6.4088e+001 -1.9061e+002  1.2593e+001 25642 110254,109940,110182
 2.5000e+000 110231 -6.9400e+001 -2.0385e+002  2.5769e+001 25642 110018,110182,109888
 2.5000e+000 110280 -5.6080e+001 -2.3290e+002  1.3265e+001 25642 110018,109966,110254
 2.5000e+000 110303 -5.9539e+001 -2.1885e+002  9.6269e+000 25642 110018,110254,110182
 2.5000e+000 110632 -8.2447e+001 -1.7472e+002 -1.6969e+001 25188 110407,110485,110433
 2.5000e+000 110609 -1.0167e+002 -1.9231e+002 -9.4506e+000 25188 110407,110537,110485
 2.5000e+000 110586 -9.9505e+001 -1.8332e+002 -3.4711e+001 25188 110433,110485,110459
 2.5000e+000 110563 -9.2101e+001 -1.9503e+002  1.4467e+001 25188 110485,110537,110511
 2.5000e+000 110831 -2.5580e+001 -1.7466e+002  5.4559e+000 24726 110854,110707,110655
 2.5000e+000 110808 -2.4299e+001 -1.8514e+002  1.4656e+001 24726 110854,110655,110759
 2.5000e+000 110785 -2.5618e+001 -1.7670e+002  5.0434e+000 24726 110655,110707,110681
 2.5000e+000 110880 -2.3858e+001 -1.6449e+002  3.8371e+000 24726 110733,110707,110854
 2.5000e+000 110903 -2.0208e+001 -1.7059e+002  1.3454e+001 24726 110733,110854,110759
 2.5000e+000 111234  6.2733e+000 -1.2229e+002 -1.2116e+001 24222 111257,111087,111035
 2.5000e+000 111211  5.3279e+001 -1.0169e+002  3.9133e+000 24222 111257,111035,111009
 2.5000e+000 111188  4.8849e+001 -7.2235e+001 -3.3719e+001 24222 111035,111087,111061
 2.5000e+000 111165 -2.2198e+001 -9.9258e+001  3.5139e+000 24222 111087,111139,111113
 2.5000e+000 111283 -1.8596e+001 -9.2822e+001  4.9811e+000 24222 111139,111087,111257
 2.5000e+000 111306  6.7616e-001 -7.5511e+001  1.5141e+001 24222 111139,111257,111009
 2.5000e+000 111625 -3.3621e+001 -1.8043e+002 -8.9175e+000 23732 111648,111481,111455
 2.5000e+000 111602 -3.2519e+001 -1.8176e+002 -9.7203e+000 23732 111648,111455,111377
 2.5000e+000 111579  1.5165e+001 -9.8152e+001  1.8283e+001 23732 111377,111429,111403
 2.5000e+000 111556 -1.7763e+001 -1.8316e+002 -4.3458e+000 23732 111377,111455,111429
 2.5000e+000 111533 -2.6550e+001 -1.6256e+002 -4.4159e+000 23732 111351,111507,111377
 2.5000e+000 111674 -3.1439e+001 -1.7764e+002 -7.3842e+000 23732 111507,111481,111648
 2.5000e+000 111697 -3.2621e+001 -1.8092e+002 -8.6661e+000 23732 111507,111648,111377
 2.5000e+000 112156 -5.1942e+001 -1.9694e+002  1.1287e+001 23278 112179,111908,111882
 2.5000e+000 112133 -5.0836e+001 -1.8479e+002  2.5505e+000 23278 112179,111882,112012
 2.5000e+000 112110 -2.6813e+001 -2.1057e+002  1.0001e+000 23278 111908,111960,111934
 2.5000e+000 112087  7.1853e+000 -1.6813e+002 -1.8403e+001 23278 111882,112038,112012
 2.5000e+000 112064 -2.7918e+001 -1.6629e+002 -3.8545e+000 23278 111960,112012,111986
 2.5000e+000 112205 -4.7855e+001 -1.9038e+002  1.4575e+000 23278 111960,111908,112179
 2.5000e+000 112228 -4.1418e+001 -1.7587e+002 -8.1785e+000 23278 111960,112179,112012
 2.5000e+000 112685 -1.2687e+002 -2.8169e+002 -2.8478e+001 22938 112489,112567,112541
 2.5000e+000 112662 -1.1042e+002 -2.4506e+002 -2.5072e+001 22938 112437,112567,112489
 2.5000e+000 112639 -7.3411e+001 -2.1357e+002 -4.7171e+000 22938 112489,112541,112515
 2.5000e+000 112616 -1.2602e+002 -2.3423e+002 -2.2305e+001 22938 112411,112567,112437
 2.5000e+000 112593 -1.0080e+002 -3.0810e+002 -7.1403e+000 22938 112437,112489,112463
 2.5000e+000 113191  2.6432e+001 -1.8262e+002 -2.7632e+001 22534 113214,112998,112946
 2.5000e+000 113168 -1.9781e+001 -1.7269e+002 -8.1204e+000 22534 113286,113214,112946
 2.5000e+000 113145 -1.2362e+001 -1.7105e+002 -7.8555e+000 22534 113286,112946,112920
 2.5000e+000 113122 -7.2425e+001 -1.6464e+002 -3.0257e+001 22534 113358,113024,112998
 2.5000e+000 113099 -3.0203e+001 -1.6988e+002 -3.0360e+000 22534 112868,113050,112894
 2.5000e+000 113076 -6.3302e+001 -3.7062e+002 -7.1795e+001 22534 112946,112998,112972
 2.5000e+000 113240 -4.8427e+001 -2.0268e+002 -3.3626e+001 22534 113358,112998,113214
 2.5000e+000 113263 -2.3563e+001 -1.8498e+002 -3.4709e+000 22534 113050,113214,112894
 2.5000e+000 113312 -7.6081e+000 -1.7771e+002 -6.7607e+000 22534 112894,113214,113286
 2.5000e+000 113335  2.4324e+000 -1.7405e+002 -8.3197e+000 22534 112894,113286,112920
 2.5000e+000 113384 -4.3544e+001 -1.3880e+002 -1.6097e+001 22534 113050,113024,113358
 2.5000e+000 113407 -6.4176e+000 -1.6649e+002 -1.6426e+001 22534 113050,113358,113214
 2.5000e+000 113785 -8.9806e+001 -2.3901e+002  2.8974e+000 21978 113808,113615,113511
 2.5000e+000 113762 -7.1375e+001 -2.4248e+002  1.4601e+001 21978 113808,113511,113667
 2.5000e+000 113739 -5.5717e+001 -2.0429e+002 -1.1193e+001 21978 113511,113615,113537
 2.5000e+000 113716  2.7423e+001 -1.7910e+002 -1.9598e+001 21978 113537,113615,113589
 2.5000e+000 113693 -2.2371e+001 -2.6217e+002  4.4213e+000 21978 113537,113589,113563
 2.5000e+000 113834 -9.2853e+001 -2.3852e+002  2.6266e+001 21978 113641,113615,113808
 2.5000e+000 113857 -4.4319e+001 -2.1987e+002  4.0209e+001 21978 113641,113808,113667
 2.5000e+000 114284 -7.0812e+001 -1.9872e+002  7.3515e+000 21517 114013,114117,114039
 2.5000e+000 114261 -7.5838e+001 -1.9685e+002  1.7054e+001 21517 113961,114117,114013
 2.5000e+000 114238 -7.2501e+001 -2.0142e+002  1.7402e+001 21517 113961,114013,113987
 2.5000e+000 114215 -1.1305e+002 -2.1939e+002 -1.3358e+001 21517 114039,114117,114091
 2.5000e+000 114192 -7.9349e+001 -1.6790e+002  2.1296e+001 21517 113961,114143,114117
 2.5000e+000 114169  6.7508e+000 -1.7490e+002 -1.1754e+001 21517 114039,114091,114065
 2.5000e+000 114581 -4.2484e+001 -2.3857e+002  2.6645e+000 21027 114359,114463,114437
 2.5000e+000 114558 -2.4568e+001 -2.1661e+002  2.8183e+001 21027 114333,114463,114359
 2.5000e+000 114535 -1.9994e+001 -2.1860e+002 -5.8624e+000 21027 114359,114437,114385
 2.5000e+000 114512 -1.7405e+001 -2.1527e+002  2.2780e+001 21027 114307,114463,114333
 2.5000e+000 114489  3.0119e+001 -2.0391e+002 -9.9597e+000 21027 114385,114437,114411
 2.5000e+000 114912 -9.0604e+001 -2.0221e+002  3.4795e+000 20623 114713,114791,114765
 2.5000e+000 114889 -6.3675e+001 -1.9117e+002 -1.4365e+001 20623 114687,114791,114713
 2.5000e+000 114866 -4.2285e+001 -2.1429e+002 -1.6427e+001 20623 114687,114817,114791
 2.5000e+000 114843 -1.3362e+002 -2.4608e+002  2.1806e+001 20623 114713,114765,114739
 2.5000e+000 115290 -3.4557e+001 -1.8071e+002  8.2289e+000 20375 115313,115146,115094
 2.5000e+000 115267 -4.0568e+001 -1.8229e+002  1.1223e+001 20375 115313,115094,115042
 2.5000e+000 115244 -3.8875e+001 -1.6616e+002  4.1636e+000 20375 115385,115016,115172
 2.5000e+000 115221  3.0575e+001 -1.5763e+002  1.1164e+001 20375 115042,115094,115068
 2.5000e+000 115198 -4.5620e+001 -2.0879e+002  9.3187e+000 20375 115094,115146,115120
 2.5000e+000 115339 -5.7380e+001 -2.0905e+002 -6.5605e+000 20375 115172,115146,115313
 2.5000e+000 115362 -3.7516e+001 -1.7312e+002  2.3941e+000 20375 115385,115172,115313
 2.5000e+000 115411 -3.3501e+001 -1.7140e+002  1.1396e+001 20375 115042,115016,115385
 2.5000e+000 115434 -3.5642e+001 -1.8235e+002  1.0478e+001 20375 115042,115385,115313
 2.5000e+000 115891 -9.5941e+001 -1.9152e+002  2.3212e+001 19971 115617,115747,115643
 2.5000e+000 115868 -8.0731e+001 -1.5354e+002  2.0500e+001 19971 115617,115773,115747
 2.5000e+000 115845 -6.4110e+001 -2.6866e+002  1.1607e+001 19971 115643,115721,115695
 2.5000e+000 115822 -6.7615e+000 -1.4247e+002 -1.3988e+000 19971 115643,115747,115721
 2.5000e+000 115799  2.3926e+001 -2.9668e+002 -5.2199e+000 19971 115643,115695,115669
 2.5000e+000 115992 -1.3868e+002 -3.5890e+002 -6.2429e+001 19659 115914,115966,115940
 2.5000e+000 116142 -2.8770e+001 -8.3184e+001  2.8730e+000 18997 116041,116093,116067
 2.5000e+000 116119 -4.8945e+001 -1.3543e+002  8.9853e+000 18997 116015,116093,116041
 2.5000e+000 116343 -4.2387e+001 -2.1611e+002 -5.7415e+000 18707 116193,116245,116219
 2.5000e+000 116320 -4.5269e+001 -2.2183e+002 -1.1831e+001 18707 116193,116271,116245
 2.5000e+000 116297 -2.5478e+001 -1.7500e+002 -1.0489e+001 18707 116167,116271,116193
 2.5000e+000 116747 -3.4820e+001 -1.8572e+002 -2.4137e+000 18301 116525,116629,116551
 2.5000e+000 116724 -3.1304e+001 -1.6219e+002  2.1451e+000 18301 116473,116629,116525
 2.5000e+000 116701 -2.7520e+001 -1.6437e+002 -1.0832e+001 18301 116473,116525,116499
 2.5000e+000 116678 -1.9329e+001 -1.9353e+002 -2.7724e+000 18301 116551,116603,116577
 2.5000e+000 116655 -4.1837e+001 -2.0232e+002 -7.4746e+000 18301 116551,116629,116603
 2.5000e+000 117147 -9.8556e+001 -2.2681e+002 -1.0107e+000 17747 116899,117029,116925
 2.5000e+000 117124 -5.5493e+001 -1.6796e+002  2.1612e+001 17747 116873,117029,116899
 2.5000e+000 117101 -9.6830e+001 -2.2427e+002 -2.5893e-001 17747 116925,117029,116951
 2.5000e+000 117078 -8.5046e+001 -1.9471e+002 -1.2484e-001 17747 116951,117029,117003
 2.5000e+000 117055 -1.1462e+002 -2.5377e+002 -1.5968e+001 17747 116951,117003,116977
 2.5000e+000 117368  3.8585e+001 -2.1141e+002  2.8068e-001 17293 117244,117296,117270
 2.5000e+000 117345  8.0499e+000 -2.0779e+002 -6.1601e+000 17293 117192,117296,117244
 2.5000e+000 117322 -2.4950e+001 -1.9923e+002 -2.7354e+000 17293 117192,117244,117218
 2.5000e+000 117699 -3.0143e+001 -1.6789e+002 -1.7652e+001 16896 117526,117604,117552
 2.5000e+000 117676 -1.1076e+002 -2.4749e+002  1.4430e+001 16896 117500,117604,117526
 2.5000e+000 117653 -1.1934e+002 -1.9954e+002 -9.5333e+000 16896 117552,117604,117578
 2.5000e+000 117630 -9.1142e+001 -3.1235e+002  3.1006e+001 16896 117474,117604,117500
 2.5000e+000 117849 -2.2118e+002 -4.2573e+002 -1.6777e+001 16534 117722,117774,117748
 2.5000e+000 117826 -1.7475e+002 -5.2088e+002 -7.1440e+001 16534 117722,117800,117774
 2.5000e+000 118070 -2.7935e+001 -2.0182e+002  2.0098e+001 16194 117946,117998,117972
 2.5000e+000 118047 -4.8093e+001 -2.3713e+002  1.1670e+001 16194 117894,117998,117946
 2.5000e+000 118024 -5.9369e+001 -2.1869e+002 -3.1489e+000 16194 117894,117946,117920
 2.5000e+000 118173 -2.2831e+001 -2.1532e+002  0.0000e+000 15968 118095,118147,118121
 2.5000e+000 118276 -6.1698e+001 -2.1995e+002  2.7723e+000 15433 118299,118198,118250
 2.5000e+000 118325 -6.4184e+001 -2.2575e+002  2.8298e+000 15433 118224,118198,118299
 2.5000e+000 118450 -1.1334e+002 -2.4931e+002  2.4624e+001 421 118372,118424,118398
 2.6000e+000 69891 -4.2648e+001 -2.7902e+002  1.0517e+001 68988 69447,69681,69629
 2.6000e+000 69868  2.3040e+001 -2.5124e+002  8.8848e+000 68988 69421,69681,69447
 2.6000e+000 69845  7.6056e+000 -1.3365e+002  8.4585e-001 68988 69447,69629,69577
 2.6000e+000 69822 -7.6460e+001 -2.9040e+002 -3.3415e+001 68988 69447,69577,69473
 2.6000e+000 69799 -7.8590e+000 -3.3172e+002  5.3226e+001 68988 69629,69681,69655
 2.6000e+000 69776 -8.2827e+001 -1.7254e+002  3.1624e+000 68988 69577,69629,69603
 2.6000e+000 69753 -5.9032e+001 -2.5817e+002 -4.0686e+001 68988 69473,69577,69551
 2.6000e+000 69730 -9.3839e+001 -5.3037e+002 -5.3444e+001 68988 69473,69551,69525
 2.6000e+000 69707 -1.5803e+002 -3.4755e+002  5.6715e-001 68988 69473,69525,69499
 2.6000e+000 69992 -1.4264e+002 -2.9422e+002 -5.5742e+001 68676 69914,69966,69940
 2.6000e+000 70392 -1.0184e+002 -2.2978e+002  1.9773e+001 68478 70118,70248,70144
 2.6000e+000 70369  1.7942e+001 -2.3641e+002  5.3300e+001 68478 70118,70274,70248
 2.6000e+000 70346 -5.9614e+001 -1.6625e+002 -4.7749e-002 68478 70144,70222,70196
 2.6000e+000 70323 -4.9344e+001 -1.4003e+002 -5.2699e+000 68478 70144,70248,70222
 2.6000e+000 70300 -6.7445e+001 -1.8647e+002 -3.8749e+000 68478 70144,70196,70170
 2.6000e+000 70841  6.3925e+001 -1.4385e+002 -4.7060e+001 68280 70570,70622,70596
 2.6000e+000 70818 -6.6947e+001 -1.6656e+002 -1.0462e+001 68280 70544,70622,70570
 2.6000e+000 70795 -4.5420e+001 -1.1956e+002 -5.3392e+000 68280 70544,70674,70622
 2.6000e+000 70772 -3.9697e+001 -1.0358e+002  4.1837e+000 68280 70622,70674,70648
 2.6000e+000 70749 -6.8708e+001 -1.8993e+002  1.6222e+001 68280 70518,70674,70544
 2.6000e+000 70726  9.9806e+001 -1.9884e+002  6.5737e+001 68280 70518,70700,70674
 2.6000e+000 70991 -9.6688e+000 -8.9107e+002  2.6298e+001 67968 70864,70916,70890
 2.6000e+000 70968 -2.3244e+002 -8.8820e+002  9.8862e+001 67968 70864,70942,70916
 2.6000e+000 71141 -3.9461e+002 -7.7344e+002 -3.3191e+001 67770 71040,71092,71066
 2.6000e+000 71118 -3.4903e+002 -9.2284e+002  4.0460e+001 67770 71014,71092,71040
 2.6000e+000 71651 -4.1140e+001 -1.4678e+002 -3.1887e+001 67366 71746,71674,71458
 2.6000e+000 71628 -1.9708e+001 -1.1804e+002 -3.3856e+001 67366 71674,71354,71510
 2.6000e+000 71605 -3.3599e+001 -1.6186e+002 -3.0922e+001 67366 71746,71458,71432
 2.6000e+000 71582 -6.2223e+001 -1.6542e+002  8.2220e+000 67366 71354,71432,71380
 2.6000e+000 71559 -7.1762e+001 -1.1245e+002 -1.7439e+001 67366 71380,71432,71406
 2.6000e+000 71536 -2.6121e+001 -3.4689e+001 -5.1161e+000 67366 71328,71510,71354
 2.6000e+000 71700 -5.1425e+001 -1.3426e+002 -1.3109e+001 67366 71484,71458,71674
 2.6000e+000 71723 -2.5856e+001 -1.2331e+002 -1.2423e+001 67366 71484,71674,71510
 2.6000e+000 71772 -3.1978e+001 -1.2886e+002 -2.7611e+001 67366 71354,71674,71746
 2.6000e+000 71795 -2.5175e+001 -1.4320e+002 -2.8186e+001 67366 71354,71746,71432
 2.6000e+000 71896 -1.5756e+002 -3.4358e+002  0.0000e+000 67146 71818,71870,71844
 2.6000e+000 71997 -1.6994e+002 -2.7773e+002  5.5267e+001 66948 71919,71971,71945
 2.6000e+000 72149 -4.1294e-001 -1.9289e+002 -2.4721e+001 66700 72172,72074,72048
 2.6000e+000 72126 -6.0251e+001 -2.1944e+002 -9.9307e+000 66700 72172,72048,72022
 2.6000e+000 72198 -1.0201e+002 -2.4071e+002  1.5570e+001 66700 72244,72172,72100
 2.6000e+000 72221 -8.8875e+001 -2.1911e+002 -1.3996e+001 66700 72100,72172,72022
 2.6000e+000 72270 -4.9133e+001 -1.2441e+002 -1.6868e+001 66700 72074,72172,72244
 2.6000e+000 72623 -6.1539e+001 -1.9934e+002  5.4224e+000 66502 72424,72502,72450
 2.6000e+000 72600 -4.9372e+001 -1.6576e+002  3.3416e+000 66502 72398,72502,72424
 2.6000e+000 72577 -3.4727e+001 -1.8968e+002 -3.8922e+000 66502 72398,72528,72502
 2.6000e+000 72554 -6.0600e+001 -1.7612e+002 -1.5200e+000 66502 72450,72502,72476
 2.6000e+000 72920 -1.1011e+002 -2.4206e+002  8.0444e+000 65941 72672,72776,72750
 2.6000e+000 72897 -1.0996e+002 -2.0503e+002  2.6797e+001 65941 72646,72776,72672
 2.6000e+000 72874 -9.5781e+001 -2.3843e+002  1.0483e+001 65941 72672,72750,72724
 2.6000e+000 72851 -9.5754e+001 -1.8379e+002  2.0351e+001 65941 72672,72724,72698
 2.6000e+000 72828 -8.2478e+001 -1.9592e+002  2.1951e+001 65941 72646,72802,72776
 2.6000e+000 73241 -6.7066e+000 -1.6485e+002  1.6800e+001 65743 73264,73071,73045
 2.6000e+000 73218 -5.8010e+001 -1.8712e+002  2.1167e+001 65743 73480,73264,73045
 2.6000e+000 73195 -4.8071e+001 -1.6857e+002 -2.4172e+000 65743 73336,72967,73097
 2.6000e+000 73172 -9.6859e+001 -1.5237e+002 -1.9675e+001 65743 73408,72993,72967
 2.6000e+000 73149 -3.9427e+001 -1.6934e+002 -2.7749e+000 65743 72967,73123,73097
 2.6000e+000 73290 -3.0361e+001 -1.7664e+002  4.5072e+000 65743 73097,73071,73264
 2.6000e+000 73313 -3.7602e+001 -1.5802e+002  9.0918e+000 65743 73336,73097,73264
 2.6000e+000 73362 -8.0510e+001 -1.7425e+002 -1.3138e+001 65743 73408,72967,73336
 2.6000e+000 73385 -3.2619e+001 -1.5742e+002  1.0890e+000 65743 73019,73336,73264
 2.6000e+000 73434 -6.9691e+001 -1.1045e+002  9.6295e+000 65743 73019,72993,73408
 2.6000e+000 73457 -3.2732e+001 -1.4020e+002  6.9151e+000 65743 73019,73408,73336
 2.6000e+000 73506 -1.7325e+001 -1.1642e+002  4.6903e+000 65743 73019,73264,73480
 2.6000e+000 73989  8.8081e+000 -1.2828e+002  1.8807e+001 65453 73793,73845,73819
 2.6000e+000 73966 -6.1429e+001 -1.4688e+002  2.1463e+001 65453 73741,73845,73793
 2.6000e+000 73943 -4.2309e+000 -1.1646e+002  1.0097e+001 65453 73715,73845,73741
 2.6000e+000 73920 -4.4766e+001 -1.5765e+002  3.5220e+001 65453 73741,73793,73767
 2.6000e+000 73897  1.8772e+001 -5.8751e+001  6.2102e+000 65453 73715,73871,73845
 2.6000e+000 74357 -3.7646e+001 -1.7541e+002 -5.3657e+001 65141 74380,74138,74086
 2.6000e+000 74334 -7.7783e+001 -2.4313e+002 -3.6313e+001 65141 74380,74086,74060
 2.6000e+000 74311 -8.5767e+001 -2.3370e+002 -1.0197e+001 65141 74138,74190,74164
 2.6000e+000 74288 -6.7066e+001 -2.6383e+002 -1.0699e+001 65141 74060,74216,74190
 2.6000e+000 74265 -7.1868e+001 -2.7922e+002  4.0048e+000 65141 74034,74216,74060
 2.6000e+000 74242 -4.8080e+001 -1.2199e+002 -2.9454e+001 65141 74086,74138,74112
 2.6000e+000 74406 -6.2008e+001 -2.3518e+002 -2.1100e+001 65141 74190,74138,74380
 2.6000e+000 74429 -7.4543e+001 -2.5873e+002 -9.9001e+000 65141 74190,74380,74060
 2.6000e+000 74937 -8.3461e+001 -1.7901e+002 -4.9389e+001 64737 74614,74666,74640
 2.6000e+000 74914 -1.0638e+002 -2.2189e+002 -3.6740e+001 64737 74614,74796,74666
 2.6000e+000 74891 -7.3440e+001 -1.4849e+002 -6.4825e+000 64737 74960,74718,74666
 2.6000e+000 74868 -6.2973e+001 -1.6491e+002 -2.2261e+001 64737 74960,74666,74770
 2.6000e+000 74845 -6.6276e+001 -1.3283e+002 -2.4095e+001 64737 74666,74796,74770
 2.6000e+000 74822 -7.0356e+001 -1.6059e+002  1.2760e+000 64737 74666,74718,74692
 2.6000e+000 74986 -7.9760e+001 -1.6544e+002 -6.3875e+000 64737 74744,74718,74960
 2.6000e+000 75009 -7.3704e+001 -1.9027e+002 -2.2592e+001 64737 74744,74960,74770
 2.6000e+000 75306 -2.2419e+001 -1.5623e+002  2.4356e+001 64133 75329,75110,75084
 2.6000e+000 75283 -3.9388e+001 -1.8065e+002  1.1260e+001 64133 75401,75329,75084
 2.6000e+000 75260 -3.7225e+001 -1.8711e+002  1.3396e+001 64133 75401,75084,75058
 2.6000e+000 75237 -3.3281e+001 -2.1188e+002  2.4119e+001 64133 75473,75136,75110
 2.6000e+000 75214 -4.7490e+001 -1.5898e+002  4.7719e+000 64133 75032,75188,75162
 2.6000e+000 75355 -3.9983e+001 -1.9842e+002  1.9181e+001 64133 75473,75110,75329
 2.6000e+000 75378 -3.1686e+001 -1.6891e+002  4.7524e+000 64133 75162,75329,75032
 2.6000e+000 75427 -3.0656e+001 -1.6688e+002  5.9162e+000 64133 75032,75329,75401
 2.6000e+000 75450 -7.1771e+001 -2.0887e+002  2.7956e+001 64133 75545,75401,75058
 2.6000e+000 75499 -3.2977e+001 -1.9463e+002  5.8554e+000 64133 75162,75136,75473
 2.6000e+000 75522 -3.6231e+001 -1.6908e+002  5.8659e+000 64133 75162,75473,75329
 2.6000e+000 75571 -2.7944e+001 -1.1300e+002  1.1214e+001 64133 75032,75401,75545
 2.6000e+000 75851 -5.5132e+001 -1.6240e+002  5.5688e-001 63843 75874,75753,75727
 2.6000e+000 75828 -4.8001e+001 -1.6474e+002 -1.1179e+001 63843 75946,75874,75727
 2.6000e+000 75805 -5.7991e+001 -1.7708e+002 -5.6893e+000 63843 76018,75946,75727
 2.6000e+000 75900 -4.0796e+001 -1.5632e+002 -5.7905e+000 63843 75779,75753,75874
 2.6000e+000 75923 -4.4377e+001 -1.3237e+002 -2.1013e+001 63843 75779,75874,75675
 2.6000e+000 75972 -5.8680e+001 -1.5259e+002 -8.7704e+000 63843 75675,75874,75946
 2.6000e+000 75995 -5.3835e+001 -1.6207e+002 -1.3379e+001 63843 75675,75946,75701
 2.6000e+000 76044 -5.8599e+001 -1.6974e+002 -1.7851e+001 63843 75701,75946,76018
 2.6000e+000 76454  1.7213e+001 -2.3758e+001 -2.2324e+001 63439 76477,76255,76229
 2.6000e+000 76431 -1.2478e+001 -7.5455e+001 -4.0820e+000 63439 76477,76229,76359
 2.6000e+000 76408 -2.2056e+001 -5.9642e+001  3.3783e+001 63439 76307,76359,76333
 2.6000e+000 76385 -6.2758e+000 -8.6682e+001  1.6423e+000 63439 76255,76307,76281
 2.6000e+000 76503 -1.1360e+001 -6.3696e+001  8.7076e+000 63439 76307,76255,76477
 2.6000e+000 76526 -1.1320e+001 -8.4426e+001  2.1628e+001 63439 76307,76477,76359
 2.6000e+000 76926 -3.5462e+001 -1.2744e+002 -2.9789e+000 63049 76704,76782,76756
 2.6000e+000 76903 -5.3021e+001 -1.3175e+002 -1.5217e+001 63049 76704,76808,76782
 2.6000e+000 76880 -3.5993e+001 -1.5082e+002  1.8718e+000 63049 76704,76756,76730
 2.6000e+000 76857 -3.3776e+001 -7.9535e+001  4.8344e+000 63049 76678,76808,76704
 2.6000e+000 76834 -1.5208e+001 -2.0081e+001 -1.8003e+001 63049 76652,76808,76678
 2.6000e+000 77076  1.8398e+000 -1.9817e+002 -3.4372e-001 62737 76975,77027,77001
 2.6000e+000 77053  1.5318e+000 -2.2368e+002 -1.3791e+001 62737 76949,77027,76975
 2.6000e+000 77324 -8.6315e+001 -2.0042e+002 -1.0004e+000 62277 77347,77177,77125
 2.6000e+000 77301 -8.1349e+001 -1.9322e+002 -9.2960e+000 62277 77347,77125,77229
 2.6000e+000 77278 -7.8829e+001 -1.9772e+002 -1.2266e+001 62277 77099,77229,77125
 2.6000e+000 77255 -9.2126e+001 -2.4613e+002  4.3902e+000 62277 77125,77177,77151
 2.6000e+000 77373 -9.0509e+001 -2.2011e+002  1.0026e+001 62277 77203,77177,77347
 2.6000e+000 77396 -7.1223e+001 -2.0175e+002 -9.1896e-001 62277 77203,77347,77229
 2.6000e+000 77857 -2.8904e+001 -2.5096e+002  4.0831e+000 61758 77635,77739,77661
 2.6000e+000 77834 -5.8615e+001 -2.4046e+002 -1.2161e+001 61758 77583,77739,77635
 2.6000e+000 77811 -6.9959e+001 -3.0132e+002 -3.0136e+001 61758 77583,77635,77609
 2.6000e+000 77788 -5.9379e+001 -2.3081e+002  2.2967e+001 61758 77661,77713,77687
 2.6000e+000 77765 -5.5486e+001 -2.7736e+002  2.6279e+001 61758 77661,77739,77713
 2.6000e+000 78491 -6.5208e+001 -1.3633e+002  6.6261e+000 61418 78171,78301,78249
 2.6000e+000 78468 -5.1224e+001 -1.1282e+002  1.5990e+001 61418 78145,78301,78171
 2.6000e+000 78445 -4.6443e+001 -1.2031e+002 -7.1728e+000 61418 78171,78249,78223
 2.6000e+000 78422 -4.7024e+001 -1.1069e+002  6.3147e+000 61418 78145,78327,78301
 2.6000e+000 78399 -6.8424e+001 -1.5547e+002 -3.2176e+000 61418 78249,78301,78275
 2.6000e+000 78376 -2.9031e+001 -1.2738e+002 -1.0248e+001 61418 78171,78223,78197
 2.6000e+000 78353 -6.2147e+001 -1.3964e+002 -2.7017e+000 61418 78119,78327,78145
 2.6000e+000 78690 -7.1265e+001 -1.6885e+002 -2.7927e+000 61014 78713,78566,78540
 2.6000e+000 78667 -4.3938e+001 -1.7275e+002 -6.4415e-001 61014 78713,78540,78618
 2.6000e+000 78644 -7.6007e+001 -1.9540e+002 -2.0213e+001 61014 78514,78618,78540
 2.6000e+000 78739 -3.3936e+001 -1.6253e+002  1.7575e+001 61014 78592,78566,78713
 2.6000e+000 78762 -3.7679e+001 -1.8131e+002  1.8243e+000 61014 78785,78713,78618
 2.6000e+000 78811 -1.1551e+001 -1.7155e+002 -2.5462e+000 61014 78592,78713,78785
 2.6000e+000 79398 -2.7055e+001 -1.4494e+002 -1.6423e+001 60624 79101,79179,79153
 2.6000e+000 79375 -3.8431e+001 -1.6425e+002 -8.2459e+000 60624 79101,79231,79179
 2.6000e+000 79352 -3.2315e+001 -1.6550e+002 -1.3540e+001 60624 79075,79231,79101
 2.6000e+000 79329 -9.2261e+000 -2.0005e+002  2.1141e+001 60624 79075,79257,79231
 2.6000e+000 79306 -3.0010e+001 -1.2369e+002 -3.4508e+001 60624 79179,79231,79205
 2.6000e+000 79283 -1.7177e+001 -1.2367e+002 -5.7859e+000 60624 79101,79153,79127
 2.6000e+000 79776 -7.4331e+001 -2.1741e+002  2.1939e+001 60070 79528,79658,79606
 2.6000e+000 79753 -6.6842e+001 -1.6905e+002 -1.1122e+000 60070 79502,79658,79528
 2.6000e+000 79730 -9.6162e+001 -2.0932e+002  3.1924e+001 60070 79528,79606,79580
 2.6000e+000 79707 -1.1980e+001 -1.8709e+002  5.4710e+000 60070 79606,79658,79632
 2.6000e+000 79684 -7.6422e+000 -1.2699e+002 -3.3825e+001 60070 79528,79580,79554
 2.6000e+000 80105 -5.1697e+001 -1.6881e+002  2.0791e+001 59758 80128,79958,79906
 2.6000e+000 80082 -5.5375e+001 -1.5586e+002  1.4032e+001 59758 80128,79906,80010
 2.6000e+000 80059 -7.6186e+001 -1.7264e+002  6.1112e+001 59758 79906,79958,79932
 2.6000e+000 80036 -8.5715e+001 -1.7707e+002  4.8020e+000 59758 79880,80010,79906
 2.6000e+000 80154 -5.3828e+001 -1.7709e+002  2.0897e+001 59758 79984,79958,80128
 2.6000e+000 80177 -5.9529e+001 -1.6733e+002  1.4194e+001 59758 79984,80128,80010
 2.6000e+000 80376 -4.2551e+001 -1.6884e+002  2.3246e+000 59312 80226,80304,80252
 2.6000e+000 80353 -4.2662e+001 -1.6711e+002  2.4126e+000 59312 80200,80304,80226
 2.6000e+000 80330 -6.9008e+001 -1.5123e+002  4.5460e+001 59312 80252,80304,80278
 2.6000e+000 80805 -5.6348e+001 -1.3759e+002 -1.9664e+001 58908 80900,80828,80638
 2.6000e+000 80782 -4.6616e+001 -1.6356e+002 -3.2935e+001 58908 80828,80560,80508
 2.6000e+000 80759 -6.0354e+001 -1.2831e+002 -3.9826e+000 58908 80900,80638,80612
 2.6000e+000 80736 -2.0946e+001 -1.3947e+002  6.3086e+001 58908 80482,80664,80508
 2.6000e+000 80713 -4.0198e+001 -1.1569e+002 -1.7096e+000 58908 80560,80612,80586
 2.6000e+000 80690 -5.4314e+001 -4.0787e+002 -7.8012e+001 58908 80508,80560,80534
 2.6000e+000 80854 -1.9974e+001 -1.4863e+002  3.5577e+000 58908 80664,80638,80828
 2.6000e+000 80877 -4.2338e+001 -2.1870e+002  5.7848e+000 58908 80664,80828,80508
 2.6000e+000 80926 -4.5023e+001 -1.0949e+002 -2.2517e+001 58908 80560,80828,80900
 2.6000e+000 80949 -5.3443e+001 -1.0995e+002 -4.6280e+000 58908 80560,80900,80612
 2.6000e+000 81246 -7.1728e+000 -1.2720e+002 -3.5146e+000 58482 81076,81128,81102
 2.6000e+000 81223 -4.5774e+001 -2.2592e+002 -2.3533e+001 58482 80972,81128,81076
 2.6000e+000 81200 -2.4059e+001 -1.5009e+002 -2.4225e+001 58482 80972,81076,81050
 2.6000e+000 81177 -8.1097e+001 -2.4348e+002  6.7285e-001 58482 80998,81050,81024
 2.6000e+000 81154 -3.0363e+001 -1.9097e+002 -2.0536e+001 58482 80972,81050,80998
 2.6000e+000 81754 -6.0016e+001 -1.3702e+002  1.4992e+001 57828 81457,81613,81483
 2.6000e+000 81731 -6.8640e+001 -1.5267e+002  9.0446e+000 57828 81431,81613,81457
 2.6000e+000 81708 -6.6547e+001 -1.5226e+002  1.5572e+001 57828 81483,81613,81509
 2.6000e+000 81685 -8.1785e+001 -1.7529e+002  2.2314e+001 57828 81509,81613,81587
 2.6000e+000 81662 -8.8000e+001 -2.6094e+002  4.0323e+001 57828 81509,81587,81535
 2.6000e+000 81639 -5.1431e+001 -2.4797e+002  2.7912e+001 57828 81535,81587,81561
 2.6000e+000 82002 -1.0514e+002 -2.6271e+002 -3.3328e+000 57374 82025,81855,81829
 2.6000e+000 81979 -1.1064e+002 -2.4905e+002  7.7826e+000 57374 82025,81829,81907
 2.6000e+000 81956 -1.1174e+002 -2.2729e+002  4.2828e+000 57374 81803,81907,81829
 2.6000e+000 81933 -7.4552e+001 -2.1221e+002  7.3603e+000 57374 81777,81907,81803
 2.6000e+000 82051 -1.0422e+002 -2.4652e+002 -4.4041e+000 57374 81881,81855,82025
 2.6000e+000 82074 -1.0692e+002 -2.3437e+002  1.0531e+001 57374 81881,82025,81907
 2.6000e+000 82356 -5.6356e+001 -1.3589e+002 -9.6427e+000 56913 82180,82232,82206
 2.6000e+000 82333 -4.3552e+001 -1.2004e+002  1.6864e+001 56913 82180,82284,82232
 2.6000e+000 82310 -1.5133e+001 -1.0333e+002  2.7065e+001 56913 82379,82232,82284
 2.6000e+000 82405  1.8127e+001 -1.0133e+002  2.5717e+000 56913 82258,82232,82379
 2.6000e+000 82764 -5.3397e+001 -8.5210e+001 -7.7121e+000 56523 82614,82666,82640
 2.6000e+000 82741 -4.4004e+001 -8.6593e+001 -1.2718e+001 56523 82614,82692,82666
 2.6000e+000 82718 -3.9134e+001 -9.4167e+001 -2.7260e+001 56523 82588,82692,82614
 2.6000e+000 83368 -1.4685e+001 -1.7657e+002 -4.5640e+000 55969 82973,83155,83129
 2.6000e+000 83345  1.4763e+000 -1.7050e+002 -1.1723e+001 55969 82973,83181,83155
 2.6000e+000 83322 -4.7414e+001 -1.5428e+002 -3.3973e+000 55969 82973,83129,82999
 2.6000e+000 83299 -8.0892e+001 -1.6164e+002  1.0334e+001 55969 83391,83025,82999
 2.6000e+000 83276 -6.3567e+001 -1.6357e+002  3.9371e+000 55969 83391,82999,83129
 2.6000e+000 83253 -9.0177e+000 -1.2879e+002  3.0579e+001 55969 83077,83129,83103
 2.6000e+000 83230 -7.6283e+001 -1.2260e+002 -5.9368e+000 55969 83025,83077,83051
 2.6000e+000 83207 -1.3724e+000 -1.6418e+002  1.5875e+001 55969 82947,83181,82973
 2.6000e+000 83417 -6.3711e+001 -1.5432e+002  1.1435e+001 55969 83077,83025,83391
 2.6000e+000 83440 -5.7378e+001 -1.6227e+002  3.8393e+000 55969 83077,83391,83129
 2.6000e+000 83946 -1.0773e+002 -2.3274e+002  4.4834e+001 55771 83969,83779,83727
 2.6000e+000 83923 -8.3328e+001 -1.8745e+002  2.1172e+001 55771 83969,83727,83623
 2.6000e+000 83900 -1.0076e+002 -1.0275e+002  1.2292e+001 55771 83623,83727,83649
 2.6000e+000 83877 -4.6700e+001 -3.8795e+002  3.6055e+001 55771 83727,83779,83753
 2.6000e+000 83854 -1.5994e+002 -2.0716e+002  6.7382e+001 55771 83675,83727,83701
 2.6000e+000 83831 -1.6465e+002 -1.7942e+002  8.1505e+001 55771 83649,83727,83675
 2.6000e+000 83995 -9.4683e+001 -2.3930e+002 -1.4306e+001 55771 83805,83779,83969
 2.6000e+000 84018 -4.0403e+001 -1.4507e+002 -4.3458e+001 55771 83805,83969,83623
 2.6000e+000 84168 -3.0086e+001 -1.1757e+002 -2.7802e+000 55367 84191,84067,84041
 2.6000e+000 84145 -2.9385e+001 -1.3406e+002 -1.3430e+000 55367 84191,84041,84119
 2.6000e+000 84217 -3.3674e+001 -1.0772e+002 -2.5211e+000 55367 84093,84067,84191
 2.6000e+000 84240 -2.7977e+001 -1.1745e+002  3.5613e+000 55367 84093,84191,84119
 2.6000e+000 84571 -1.9411e+001 -2.0543e+002 -2.2101e+001 54913 84398,84450,84424
 2.6000e+000 84548 -1.3289e+001 -1.8481e+002 -9.8793e+000 54913 84372,84450,84398
 2.6000e+000 84525 -4.4336e+001 -2.0960e+002  8.0940e+000 54913 84346,84450,84372
 2.6000e+000 84502 -9.7683e+000 -1.3015e+002 -1.7178e+001 54913 84346,84476,84450
 2.6000e+000 85126 -9.9299e+001 -2.3020e+002 -7.6763e+000 54402 84858,84936,84910
 2.6000e+000 85103 -7.3137e+001 -1.7541e+002 -2.0609e+001 54402 84806,84936,84858
 2.6000e+000 85080 -9.2994e+001 -1.6036e+002 -1.6353e+001 54402 84780,84936,84806
 2.6000e+000 85057 -7.7057e+001 -1.9507e+002 -9.0229e+000 54402 84806,84858,84832
 2.6000e+000 85034 -7.8492e+001 -1.4882e+002  8.0940e+000 54402 84780,84962,84936
 2.6000e+000 85011 -1.2212e+002 -1.3479e+002 -3.5035e+000 54402 84858,84910,84884
 2.6000e+000 84988 -7.7109e+001 -1.3954e+002  6.4122e+000 54402 84754,84962,84780
 2.6000e+000 85396 -6.3252e+001 -7.8428e+001 -9.1312e+000 53998 85197,85249,85223
 2.6000e+000 85373 -4.4941e+001 -1.1230e+002 -1.7178e+000 53998 85197,85275,85249
 2.6000e+000 85350 -6.1559e+001 -1.3460e+002 -9.3184e+000 53998 85171,85275,85197
 2.6000e+000 85327 -1.8810e+001 -1.2401e+002 -1.1632e+001 53998 85171,85301,85275
 2.6000e+000 85749 -4.3121e+001 -1.6396e+002 -3.2215e+000 53636 85524,85628,85550
 2.6000e+000 85726 -7.0451e+001 -1.8364e+002  6.4516e+000 53636 85524,85654,85628
 2.6000e+000 85703 -2.6001e+001 -1.7448e+002 -1.5944e+001 53636 85550,85602,85576
 2.6000e+000 85680 -4.4271e+001 -1.6339e+002 -7.3363e+000 53636 85550,85628,85602
 2.6000e+000 86127 -1.1642e+001 -1.6397e+002  2.8529e+001 52982 86150,85957,85879
 2.6000e+000 86104 -4.7708e+001 -1.9053e+002  1.6917e+001 52982 86150,85879,85853
 2.6000e+000 86081 -1.1387e+001 -2.4231e+002  4.8309e+001 52982 85957,86009,85983
 2.6000e+000 86058 -6.1461e+001 -1.7613e+002  2.4364e+001 52982 85879,85957,85931
 2.6000e+000 86035 -4.5939e+001 -1.5055e+002  1.6580e+001 52982 85879,85931,85905
 2.6000e+000 86176  1.1924e+001 -1.9353e+002  2.3758e+001 52982 86009,85957,86150
 2.6000e+000 86199 -9.4928e+000 -2.1163e+002  1.5843e+001 52982 86009,86150,85853
 2.6000e+000 86398 -1.8916e+001 -1.1727e+002  1.2892e+001 52542 86421,86248,86222
 2.6000e+000 86375 -4.8141e+001 -1.2117e+002 -7.5953e-001 52542 86421,86222,86300
 2.6000e+000 86352 -4.6111e+001 -1.2982e+002 -7.2723e+000 52542 86222,86326,86300
 2.6000e+000 86447  1.1335e+001 -1.1841e+002  2.5494e+001 52542 86274,86248,86421
 2.6000e+000 86470 -1.6841e+001 -1.2742e+002  8.2227e+000 52542 86274,86421,86300
 2.6000e+000 86669 -5.2051e+001 -1.2410e+002 -2.1662e+001 52230 86692,86571,86545
 2.6000e+000 86646 -4.9788e+001 -1.1564e+002 -9.3948e+000 52230 86692,86545,86519
 2.6000e+000 86623 -7.5851e+001 -1.2106e+002 -1.6627e+001 52230 86493,86597,86519
 2.6000e+000 86718 -5.8179e+001 -1.2742e+002 -2.5200e+001 52230 86597,86571,86692
 2.6000e+000 86741 -6.4298e+001 -1.2256e+002 -1.3575e+001 52230 86597,86692,86519
 2.6000e+000 87153 -8.9997e+001 -1.2553e+002  8.0014e+000 51640 86980,87058,87032
 2.6000e+000 87130 -8.2530e+001 -1.3202e+002  5.5895e+000 51640 86928,87058,86980
 2.6000e+000 87107 -8.0567e+001 -1.7558e+002 -1.2955e+001 51640 86928,86980,86954
 2.6000e+000 87084 -5.8511e+001 -1.1221e+002  1.9593e+000 51640 86980,87032,87006
 2.6000e+000 87659 -2.8224e+001 -1.2167e+002  1.1017e+001 51029 87682,87440,87362
 2.6000e+000 87636 -3.2449e+001 -1.3191e+002 -3.9832e+000 51029 87682,87362,87336
 2.6000e+000 87613 -5.2063e+001 -1.9704e+002 -3.8039e+000 51029 87440,87518,87466
 2.6000e+000 87590 -6.0802e+001 -1.2559e+002  1.4491e+001 51029 87362,87440,87414
 2.6000e+000 87567 -5.8553e+001 -1.1607e+002  3.5322e+001 51029 87362,87414,87388
 2.6000e+000 87544 -7.3311e+001 -1.6540e+002  5.4178e+000 51029 87466,87518,87492
 2.6000e+000 87708 -2.4566e+001 -1.3816e+002  3.6437e+000 51029 87518,87440,87682
 2.6000e+000 87731 -2.7264e+001 -1.5816e+002 -5.8477e+000 51029 87518,87682,87336
 2.6000e+000 87881 -7.3406e+001 -1.7078e+002  5.6873e+000 50739 87780,87832,87806
 2.6000e+000 87858 -8.3094e+001 -1.6424e+002 -7.8756e+000 50739 87754,87832,87780
 2.6000e+000 88468 -4.2121e+001 -1.0882e+002  6.5558e+000 50235 88171,88327,88197
 2.6000e+000 88445 -1.0600e+002 -1.0950e+002 -1.8012e+001 50235 88145,88327,88171
 2.6000e+000 88422  3.8517e+001 -4.9324e+001  3.3158e+001 50235 88275,88327,88301
 2.6000e+000 88399 -2.2204e+001 -7.5664e+001 -1.7965e+000 50235 88197,88327,88275
 2.6000e+000 88376  1.9587e+001 -9.6036e+001  5.5337e+000 50235 88197,88275,88223
 2.6000e+000 88353  9.6074e+000 -1.0047e+002  1.5202e+001 50235 88223,88275,88249
 2.6000e+000 88895 -6.6570e+001 -1.7391e+002  8.3039e+000 49873 88918,88728,88676
 2.6000e+000 88872 -5.6335e+001 -1.6767e+002 -3.6063e-001 49873 88918,88676,88624
 2.6000e+000 88849 -4.2826e+001 -1.4421e+002 -1.6443e+000 49873 88598,88754,88624
 2.6000e+000 88826 -3.3403e+001 -1.5711e+002 -3.0253e+000 49873 88624,88676,88650
 2.6000e+000 88803 -5.1315e+001 -2.1253e+002  1.1304e+001 49873 88676,88728,88702
 2.6000e+000 88780 -4.4968e+001 -1.2010e+002  1.2196e+001 49873 88572,88754,88598
 2.6000e+000 88944 -5.2614e+001 -1.7048e+002  4.0579e+000 49873 88754,88728,88918
 2.6000e+000 88967 -4.9307e+001 -1.7032e+002 -3.9268e+000 49873 88754,88918,88624
 2.6000e+000 89473 -1.0759e+002 -1.6782e+002 -2.0925e+001 49583 89176,89306,89202
 2.6000e+000 89450 -1.0598e+002 -1.6493e+002 -2.6276e+001 49583 89176,89332,89306
 2.6000e+000 89427 -6.3395e+001 -1.8579e+002  9.1992e+000 49583 89496,89228,89202
 2.6000e+000 89404 -6.2860e+001 -1.9031e+002  1.0968e+001 49583 89496,89202,89280
 2.6000e+000 89381 -1.2958e+002 -2.3714e+002 -4.1616e+001 49583 89202,89306,89280
 2.6000e+000 89358 -8.5098e+001 -1.6594e+002 -2.9849e+001 49583 89150,89332,89176
 2.6000e+000 89522 -5.8740e+001 -1.5580e+002  6.0644e+000 49583 89254,89228,89496
 2.6000e+000 89545 -7.2112e+001 -1.8172e+002  1.0867e+001 49583 89254,89496,89280
 2.6000e+000 89825  3.7613e+001 -1.6840e+002  9.8802e+000 49179 89701,89753,89727
 2.6000e+000 89802 -1.9670e+001 -1.4845e+002  1.5399e+001 49179 89675,89753,89701
 2.6000e+000 89779 -1.6295e+001 -1.3356e+002  5.1078e+000 49179 89848,89753,89675
 2.6000e+000 89874 -9.3731e+001 -1.5342e+002 -1.5091e+001 49179 89649,89753,89848
 2.6000e+000 90223 -4.4092e+001 -1.7626e+002 -1.2337e+001 48739 90024,90102,90076
 2.6000e+000 90200 -6.4332e+001 -1.7757e+002 -3.9471e+000 48739 90024,90128,90102
 2.6000e+000 90177 -3.5072e+001 -1.8859e+002 -6.4718e+000 48739 90024,90076,90050
 2.6000e+000 90154 -2.8417e+001 -1.6812e+002  1.5009e+001 48739 89998,90128,90024
 2.6000e+000 90603 -6.5665e+001 -1.6174e+002  3.0425e+001 48335 90381,90485,90459
 2.6000e+000 90580 -7.5623e+001 -1.7232e+002  2.4941e+001 48335 90355,90485,90381
 2.6000e+000 90557 -2.9736e+001 -6.1401e+001  2.0335e+001 48335 90381,90433,90407
 2.6000e+000 90534 -6.1416e+001 -1.5998e+002  3.0701e+001 48335 90381,90459,90433
 2.6000e+000 90511 -1.1628e+001 -1.2590e+002  5.3392e+001 48335 90329,90485,90355
 2.6000e+000 90753  1.2522e+001 -8.9105e+001  4.5716e+001 47824 90776,90652,90704
 2.6000e+000 90730 -1.1427e+001 -1.4423e+002  4.1641e+001 47824 90626,90704,90652
 2.6000e+000 90802 -2.3666e+001 -1.1943e+002  3.2735e+001 47824 90678,90652,90776
 2.6000e+000 91131 -3.9431e+001 -1.7834e+002  1.1656e+001 47427 91154,90958,90906
 2.6000e+000 91108 -8.4588e+001 -1.9690e+002  3.5888e+000 47427 91154,90906,91036
 2.6000e+000 91085 -7.8776e+001 -1.5357e+002 -1.3544e+001 47427 90958,91010,90984
 2.6000e+000 91062 -4.3179e+001 -1.6070e+002  1.5998e+001 47427 90906,90958,90932
 2.6000e+000 91180 -6.5837e+001 -1.7647e+002 -1.8141e+001 47427 91010,90958,91154
 2.6000e+000 91203 -1.0929e+002 -1.9528e+002 -2.6970e+001 47427 91010,91154,91036
 2.6000e+000 91583 -1.0968e+002 -2.0272e+002 -1.0991e+001 46873 91309,91439,91335
 2.6000e+000 91560 -1.1461e+002 -2.0387e+002 -9.2897e+000 46873 91309,91465,91439
 2.6000e+000 91537 -1.6232e+002 -2.3519e+002 -5.2834e+001 46873 91361,91439,91413
 2.6000e+000 91514 -1.2043e+002 -2.0941e+002 -2.4167e+001 46873 91335,91439,91361
 2.6000e+000 91491 -5.1309e+001 -1.9290e+002 -4.3221e+001 46873 91361,91413,91387
 2.6000e+000 91880 -3.9621e+001 -1.7510e+002 -4.9483e+000 46526 91606,91710,91658
 2.6000e+000 91857 -4.2644e+001 -1.8668e+002  2.6192e+000 46526 91606,91762,91710
 2.6000e+000 91834 -1.6400e+001 -1.6863e+002 -2.2223e+001 46526 91606,91658,91632
 2.6000e+000 91811 -5.2577e+001 -1.6080e+002  3.6715e+000 46526 91658,91710,91684
 2.6000e+000 91788 -1.8037e+001 -1.1284e+002  8.4908e+000 46526 91710,91762,91736
 2.6000e+000 92211 -1.8979e+000 -8.8097e+001 -3.5731e+000 45700 91986,92064,92038
 2.6000e+000 92188 -5.1035e+001 -1.3114e+002  1.6152e+001 45700 91986,92116,92064
 2.6000e+000 92165  1.6515e+001 -6.8382e+001 -3.5682e+001 45700 91986,92038,92012
 2.6000e+000 92142 -5.1102e+001 -1.2976e+002  1.5772e+001 45700 92064,92116,92090
 2.6000e+000 92766 -9.3467e+001 -1.6154e+002  3.1471e+000 45452 92446,92602,92576
 2.6000e+000 92743 -1.4909e+002 -1.6076e+002 -3.0142e+001 45452 92420,92602,92446
 2.6000e+000 92720 -1.1053e+002 -1.6669e+002  2.2108e+001 45452 92789,92524,92498
 2.6000e+000 92697 -1.2960e+002 -1.6506e+002  1.5914e+001 45452 92789,92498,92446
 2.6000e+000 92674 -1.0554e+002 -1.8131e+002 -4.2931e+000 45452 92524,92576,92550
 2.6000e+000 92651 -1.6401e+002 -1.6656e+002  8.4954e+001 45452 92446,92498,92472
 2.6000e+000 92628 -8.4021e+001 -1.9348e+002 -5.8928e+001 45452 92394,92602,92420
 2.6000e+000 92815 -9.7294e+001 -1.7154e+002  1.7137e+001 45452 92576,92524,92789
 2.6000e+000 92838 -1.1162e+002 -1.6593e+002  1.3652e+001 45452 92576,92789,92446
 2.6000e+000 92939 -5.3431e+001 -2.0888e+002 -4.8812e+001 44998 92861,92913,92887
 2.6000e+000 93319  4.9428e+000 -2.2346e+002  5.1811e+001 44601 93123,93201,93149
 2.6000e+000 93296 -5.0375e+001 -2.2695e+002 -2.2590e+001 44601 93045,93201,93123
 2.6000e+000 93273 -5.1605e+001 -1.2633e+002 -2.6607e+001 44601 93045,93123,93071
 2.6000e+000 93250 -4.3895e+001 -1.1794e+002 -1.8959e+001 44601 93071,93123,93097
 2.6000e+000 93227  1.5707e+001 -1.1151e+002  5.6055e+001 44601 93149,93201,93175
 2.6000e+000 93697 -3.4458e+001 -2.4958e+002  1.9303e+001 44026 93720,93553,93527
 2.6000e+000 93674 -8.2745e+001 -2.0543e+002  2.4868e+001 44026 93720,93527,93449
 2.6000e+000 93651 -9.5024e+001 -2.1470e+002 -5.6469e+000 44026 93449,93527,93501
 2.6000e+000 93628 -5.7750e+001 -1.6338e+002 -2.7705e+001 44026 93423,93579,93449
 2.6000e+000 93605 -1.5628e+001 -1.5951e+002  1.8454e+001 44026 93449,93501,93475
 2.6000e+000 93746  1.9513e+000 -2.1854e+002  5.5118e+000 44026 93579,93553,93720
 2.6000e+000 93769 -4.9536e+001 -1.7584e+002  1.1482e+001 44026 93579,93720,93449
 2.6000e+000 94066 -2.5368e+001 -1.7728e+002 -3.1491e+001 43579 94089,93818,93792
 2.6000e+000 94043 -6.0345e+001 -2.0569e+002 -1.9242e+001 43579 94161,94089,93792
 2.6000e+000 94020 -5.9302e+001 -2.0732e+002 -8.3363e+000 43579 94161,93792,93948
 2.6000e+000 93997 -6.5282e+001 -1.4675e+002 -8.8204e+000 43579 94233,93870,93818
 2.6000e+000 93974 -3.7294e+001 -1.4753e+002 -1.0910e+000 43579 93818,93870,93844
 2.6000e+000 94115 -6.3287e+001 -1.4863e+002 -2.1627e+001 43579 94233,93818,94089
 2.6000e+000 94138 -9.3486e+001 -1.7697e+002 -1.4805e+001 43579 93896,94089,93922
 2.6000e+000 94187 -5.3416e+001 -1.8861e+002 -2.0369e+001 43579 93922,94089,94161
 2.6000e+000 94210 -5.2691e+001 -1.8911e+002 -8.4071e+000 43579 93922,94161,93948
 2.6000e+000 94259 -7.7943e+001 -1.7109e+002 -4.2669e+000 43579 93896,93870,94233
 2.6000e+000 94282 -7.1844e+001 -1.6790e+002 -1.9067e+001 43579 93896,94233,94089
 2.6000e+000 94481 -4.8989e+001 -1.8250e+002 -1.9804e+000 43239 94305,94383,94357
 2.6000e+000 94458 -3.7188e+001 -1.6407e+002  2.2487e+001 43239 94305,94409,94383
 2.6000e+000 94435 -2.8048e+001 -1.8896e+002 -8.3306e+000 43239 94305,94357,94331
 2.6000e+000 94633 -1.9835e+001 -1.2829e+002  3.0757e+001 42827 94656,94532,94506
 2.6000e+000 94610 -4.1763e+001 -1.4315e+002  4.3330e+001 42827 94728,94656,94506
 2.6000e+000 94682 -3.4250e+000 -1.4484e+002  3.2233e+001 42827 94558,94532,94656
 2.6000e+000 94705  2.3385e+001 -1.4968e+002  1.9876e+001 42827 94988,94860,94656
 2.6000e+000 94754 -9.7653e+000 -1.2732e+002  1.1097e+001 42827 94988,94656,94728
 2.6000e+000 94886  6.2072e+001 -1.3424e+002  2.0313e+001 42827 94558,94656,94860
 2.6000e+000 95014  5.1145e+001 -1.3034e+002  1.1440e+001 42827 94584,94860,94988
 2.6000e+000 95037  2.3090e+001 -1.0881e+002  3.3025e+000 42827 94584,94988,94728
 2.6000e+000 95236 -5.8711e+001 -1.8358e+002  5.8683e+000 42537 95259,95112,95060
 2.6000e+000 95213 -2.9766e+001 -1.9667e+002  1.1325e+001 42537 95259,95060,95164
 2.6000e+000 95190 -4.6719e+001 -1.7848e+002 -9.9354e+000 42537 95060,95112,95086
 2.6000e+000 95285 -3.9209e+001 -1.8007e+002  1.8791e+001 42537 95138,95112,95259
 2.6000e+000 95308 -1.0964e+001 -1.8670e+002  2.8268e+001 42537 95138,95259,95164
 2.6000e+000 95816 -6.5179e+001 -1.9178e+002 -8.2890e+000 41969 95493,95597,95519
 2.6000e+000 95793 -1.0723e+002 -1.9267e+002  2.6294e+001 41969 95493,95649,95597
 2.6000e+000 95770 -8.8963e+001 -1.7428e+002  1.3103e+001 41969 95493,95675,95649
 2.6000e+000 95747 -9.4981e+001 -2.2229e+002  2.5250e+001 41969 95597,95649,95623
 2.6000e+000 95724 -1.1776e+002 -1.9553e+002 -8.1502e+000 41969 95519,95597,95571
 2.6000e+000 95701 -1.0910e+002 -1.9146e+002 -5.4579e+001 41969 95519,95571,95545
 2.6000e+000 96371 -7.4036e+001 -2.0170e+002  3.1142e+001 41579 96025,96207,96181
 2.6000e+000 96348  4.5054e+001 -1.4776e+002  1.8396e+000 41579 95999,96207,96025
 2.6000e+000 96325 -8.7017e+001 -1.5038e+002 -1.1837e+001 41579 96129,96181,96155
 2.6000e+000 96302 -2.9894e+001 -1.3361e+002  5.6683e+000 41579 96025,96181,96129
 2.6000e+000 96279 -7.2974e+001 -2.0634e+002  3.0930e+001 41579 96025,96129,96051
 2.6000e+000 96256 -8.9918e+001 -1.9367e+002  3.1427e+001 41579 96051,96103,96077
 2.6000e+000 96233 -3.3880e+001 -1.4459e+002  4.5578e+000 41579 96051,96129,96103
 2.6000e+000 96877 -6.7321e+000 -1.1188e+002 -2.1757e+001 41182 96972,96900,96632
 2.6000e+000 96854 -9.8020e+000 -7.4708e+001 -2.0576e+001 41182 96900,96554,96736
 2.6000e+000 96831 -3.9204e+000 -1.1428e+002 -1.2765e+001 41182 96972,96632,96580
 2.6000e+000 96808 -2.3332e+001 -1.0906e+002  9.7157e+000 41182 96632,96684,96658
 2.6000e+000 96785 -2.0022e+001 -1.2573e+002  8.0121e+000 41182 96684,96736,96710
 2.6000e+000 96762 -6.3493e+001 -1.5277e+002  3.2215e+001 41182 96580,96632,96606
 2.6000e+000 96926 -8.1528e-001 -1.2757e+002 -2.0121e+001 41182 96684,96632,96900
 2.6000e+000 96949 -7.3539e+000 -1.1101e+002 -3.0049e+001 41182 96684,96900,96736
 2.6000e+000 96998 -2.0949e+001 -1.1647e+002 -1.5719e+001 41182 96554,96900,96972
 2.6000e+000 97021 -2.2556e+001 -1.2447e+002 -5.7440e+000 41182 96554,96972,96580
 2.6000e+000 97576 -1.0075e+002 -3.1014e+002 -5.3830e+001 40678 97230,97412,97282
 2.6000e+000 97553  1.5917e+001 -2.4947e+002  1.7712e+001 40678 97204,97412,97230
 2.6000e+000 97530 -5.9403e+001 -2.3636e+002 -3.8042e+001 40678 97282,97360,97308
 2.6000e+000 97507 -3.9292e+001 -2.2499e+002 -2.2723e+001 40678 97282,97412,97360
 2.6000e+000 97484 -3.5657e+001 -1.7455e+002 -2.9368e+001 40678 97308,97360,97334
 2.6000e+000 97461 -1.0876e+002 -2.8345e+002  7.8115e+000 40678 97360,97412,97386
 2.6000e+000 97438 -4.4564e+001 -2.1168e+002 -2.1642e+001 40678 97230,97282,97256
 2.6000e+000 97976 -8.1410e+001 -1.3150e+002 -4.1130e+000 40244 97702,97832,97754
 2.6000e+000 97953 -6.7959e+001 -1.1782e+002 -9.5402e+000 40244 97702,97858,97832
 2.6000e+000 97930 -7.9746e+001 -1.4058e+002 -4.3859e+001 40244 97702,97754,97728
 2.6000e+000 97907 -7.1800e+001 -1.5819e+002  1.7926e+001 40244 97780,97832,97806
 2.6000e+000 97884 -7.6885e+001 -1.2967e+002 -3.9555e+000 40244 97754,97832,97780
 2.6000e+000 98482 -6.5639e+001 -1.6409e+002  1.7736e+001 39690 98505,98185,98159
 2.6000e+000 98459 -6.3602e+001 -1.6350e+002  1.8698e+001 39690 98505,98159,98289
 2.6000e+000 98436 -1.1712e+002 -2.2582e+002  7.2756e+001 39690 98159,98315,98289
 2.6000e+000 98413 -5.1791e+001 -1.5460e+002  2.3752e+001 39690 98211,98289,98263
 2.6000e+000 98390 -3.1960e+001 -9.4272e+001  1.3861e+001 39690 98211,98263,98237
 2.6000e+000 98367 -2.7810e+001 -1.4196e+002  3.4869e+001 39690 98159,98341,98315
 2.6000e+000 98531 -6.9546e+001 -1.6401e+002  1.6322e+001 39690 98211,98185,98505
 2.6000e+000 98554 -6.5796e+001 -1.6133e+002  1.7918e+001 39690 98211,98505,98289
 2.6000e+000 99109 -5.5084e+001 -1.3914e+002 -8.5777e+000 39072 99132,98867,98789
 2.6000e+000 99086 -5.6254e+001 -1.3956e+002 -8.6614e+000 39072 99132,98789,98763
 2.6000e+000 99063 -7.8061e+001 -2.1084e+002  2.0343e+001 39072 98867,98945,98919
 2.6000e+000 99040 -4.5058e+001 -1.4334e+002 -4.1733e+000 39072 98789,98867,98841
 2.6000e+000 99017 -9.9094e+001 -1.6328e+002  6.0201e+000 39072 98867,98919,98893
 2.6000e+000 98994 -7.8724e+001 -1.3767e+002  3.0063e+001 39072 98789,98841,98815
 2.6000e+000 98971 -7.6101e+001 -1.4955e+002 -1.2865e+001 39072 98737,98945,98763
 2.6000e+000 99158 -5.4539e+001 -1.3959e+002 -8.8594e+000 39072 98945,98867,99132
 2.6000e+000 99181 -5.5068e+001 -1.3959e+002 -8.9599e+000 39072 98945,99132,98763
 2.6000e+000 99510 -4.5302e+001 -1.4239e+002  3.9629e+000 38668 99311,99389,99363
 2.6000e+000 99487 -5.5181e+001 -1.4231e+002  9.7922e+000 38668 99285,99389,99311
 2.6000e+000 99464 -8.9647e+001 -1.5852e+002  2.3782e+001 38668 99285,99415,99389
 2.6000e+000 99441 -5.6769e+001 -1.3727e+002  6.7741e-001 38668 99311,99363,99337
 2.6000e+000 99758 -1.4187e+001 -2.0098e+002  1.3489e+001 38164 99781,99611,99585
 2.6000e+000 99735  2.0919e+001 -1.9928e+002  1.9689e+001 38164 99781,99585,99533
 2.6000e+000 99712 -2.6541e+001 -1.6253e+002  1.6164e+001 38164 99611,99663,99637
 2.6000e+000 99689  3.5970e+001 -1.7981e+002  6.6733e+000 38164 99533,99585,99559
 2.6000e+000 99807 -3.3257e+001 -1.9242e+002  2.2865e+001 38164 99663,99611,99781
 2.6000e+000 99830 -9.2684e+000 -1.9831e+002  2.2918e+001 38164 99663,99781,99533
 2.6000e+000 100232 -6.7040e+001 -1.6771e+002  2.9194e+000 37702 99984,100114,100088
 2.6000e+000 100209 -5.3610e+001 -1.7734e+002  1.8439e+001 37702 99958,100114,99984
 2.6000e+000 100186 -1.0040e+002 -2.0994e+002 -1.3123e+001 37702 100010,100088,100036
 2.6000e+000 100163 -6.7839e+001 -1.6832e+002  1.0246e+000 37702 99984,100088,100010
 2.6000e+000 100140 -6.2416e+001 -1.5117e+002 -4.0261e+001 37702 100036,100088,100062
 2.6000e+000 100640 -1.3519e+002 -1.8464e+002  2.0283e+001 37262 100493,100545,100519
 2.6000e+000 100617 -1.1079e+002 -1.9972e+002  1.2480e+001 37262 100441,100545,100493
 2.6000e+000 100594 -5.5747e+001 -1.6140e+002 -1.3722e+001 37262 100415,100545,100441
 2.6000e+000 100571 -1.3573e+002 -2.3658e+002 -1.1978e+001 37262 100441,100493,100467
 2.6000e+000 101146 -8.8391e+001 -1.5444e+002 -2.3622e+000 36872 100823,100979,100849
 2.6000e+000 101123 -8.4511e+001 -1.4041e+002 -1.4901e+001 36872 100823,101005,100979
 2.6000e+000 101100 -9.3630e+001 -2.2180e+002  2.8832e+001 36872 101169,100901,100849
 2.6000e+000 101077 -7.4921e+001 -1.8219e+002  1.7342e+001 36872 101169,100849,100979
 2.6000e+000 101054 -4.1506e+001 -1.9440e+002  2.5646e+000 36872 100927,100979,100953
 2.6000e+000 101031 -5.3012e+001 -2.5069e+002  4.0085e+001 36872 100849,100901,100875
 2.6000e+000 101195 -6.9070e+001 -2.3357e+002  4.2154e+000 36872 100927,100901,101169
 2.6000e+000 101218 -5.7684e+001 -2.1246e+002 -5.0041e+000 36872 100927,101169,100979
 2.6000e+000 101773 -1.0965e+002 -1.7154e+002  2.9301e+001 36418 101479,101609,101583
 2.6000e+000 101750 -1.0565e+002 -1.8108e+002  3.6326e+001 36418 101453,101609,101479
 2.6000e+000 101727 -5.6497e+001 -1.7870e+002  4.4536e-001 36418 101796,101531,101479
 2.6000e+000 101704 -9.3568e+001 -1.9979e+002  1.1365e+001 36418 101796,101479,101583
 2.6000e+000 101681 -5.8004e+001 -1.6143e+002  2.4489e+000 36418 101479,101531,101505
 2.6000e+000 101658 -4.6952e+000 -1.7176e+002 -3.3498e+000 36418 101401,101609,101453
 2.6000e+000 101635 -3.2948e+001 -1.9655e+002 -1.3852e+001 36418 101401,101453,101427
 2.6000e+000 101822 -6.7236e+001 -1.6366e+002 -3.5749e+001 36418 101557,101531,101796
 2.6000e+000 101845 -1.1510e+002 -1.7920e+002 -2.7767e+001 36418 101557,101796,101583
 2.6000e+000 102174  3.5520e+001 -7.7767e+001 -3.2969e+001 35914 101949,102053,101975
 2.6000e+000 102151 -6.3742e+001 -1.1152e+002 -9.0761e+000 35914 101949,102079,102053
 2.6000e+000 102128 -4.5700e+001 -1.1608e+002 -8.1718e+000 35914 101975,102053,102027
 2.6000e+000 102105  5.6164e+000 -7.8792e+001 -3.5728e+001 35914 101975,102027,102001
 2.6000e+000 102631 -4.0481e+001 -1.8639e+002 -2.4536e+000 35574 102383,102513,102487
 2.6000e+000 102608 -2.3515e+001 -1.7749e+002  2.1239e+000 35574 102357,102513,102383
 2.6000e+000 102585 -6.2326e+001 -2.0020e+002  2.6685e+000 35574 102409,102487,102435
 2.6000e+000 102562 -5.7813e+001 -1.9670e+002  4.2282e+000 35574 102383,102487,102409
 2.6000e+000 102539 -8.9982e+001 -2.3435e+002 -1.7015e+001 35574 102435,102487,102461
 2.6000e+000 103009 -8.6683e+001 -1.5850e+002 -2.7196e+001 35170 102761,102865,102787
 2.6000e+000 102986 -3.9850e+001 -1.3399e+002 -1.3900e+000 35170 102761,102891,102865
 2.6000e+000 102963 -7.6941e+001 -1.5952e+002 -1.8799e+001 35170 102787,102865,102813
 2.6000e+000 102940 -3.1044e+001 -1.2643e+002  1.8268e+000 35170 102735,102891,102761
 2.6000e+000 102917 -7.8380e+001 -1.6074e+002 -1.2675e+001 35170 102813,102865,102839
 2.6000e+000 103257  4.3168e+001 -1.3550e+002 -2.6619e+001 34659 103280,103058,103032
 2.6000e+000 103234  2.6850e+001 -1.4301e+002 -6.6010e+000 34659 103280,103032,103162
 2.6000e+000 103211 -2.2887e+001 -1.1546e+002 -1.5865e+001 34659 103084,103162,103110
 2.6000e+000 103188 -4.4704e+001 -1.6111e+002 -9.3322e+000 34659 103110,103162,103136
 2.6000e+000 103306  1.1070e+001 -1.2648e+002 -2.3850e+001 34659 103084,103058,103280
 2.6000e+000 103329  2.9399e+000 -1.3274e+002 -1.1620e+000 34659 103084,103280,103162
 2.6000e+000 103837  3.7915e+001 -1.8873e+002  1.5494e+001 34247 103860,103566,103540
 2.6000e+000 103814  2.1617e-001 -1.9697e+002  1.4520e+000 34247 103932,103860,103540
 2.6000e+000 103791  8.4427e+000 -2.2019e+002 -2.2608e+001 34247 103932,103540,103670
 2.6000e+000 103768  2.1733e+001 -1.8686e+002 -2.1135e+001 34247 103566,103618,103592
 2.6000e+000 103745 -5.6554e+001 -1.7508e+002 -2.8123e+001 34247 103540,103696,103670
 2.6000e+000 103722 -8.2307e+001 -1.9164e+002  3.5991e+001 34247 103514,103696,103540
 2.6000e+000 103886 -1.4550e+001 -1.8709e+002 -2.8270e+000 34247 103618,103566,103860
 2.6000e+000 103909 -4.9063e+001 -2.0486e+002  4.1390e+000 34247 103618,103860,103644
 2.6000e+000 103958 -2.1405e+001 -2.5320e+002 -1.2294e+000 34247 103644,103860,103932
 2.6000e+000 103981 -1.2948e+001 -2.7450e+002 -2.6442e+001 34247 103644,103932,103670
 2.6000e+000 104300 -9.2024e+001 -2.0031e+002 -1.0790e+001 33843 104052,104182,104156
 2.6000e+000 104277 -1.1580e+002 -1.7740e+002 -1.1073e+000 33843 104026,104182,104052
 2.6000e+000 104254 -9.1853e+001 -2.2890e+002  6.3586e+000 33843 104078,104156,104130
 2.6000e+000 104231 -1.1969e+002 -2.2165e+002 -1.3826e+000 33843 104052,104156,104078
 2.6000e+000 104208 -1.3786e+002 -2.3592e+002  4.4117e+000 33843 104078,104130,104104
 2.6000e+000 104499 -3.0852e+001 -1.6691e+002 -4.6748e+001 33282 104594,104522,104375
 2.6000e+000 104476 -1.5774e+001 -2.0471e+002 -2.3908e+000 33282 104522,104323,104427
 2.6000e+000 104453  7.4274e+000 -1.7403e+002 -4.8447e+001 33282 104594,104375,104349
 2.6000e+000 104548 -7.4758e+001 -1.6021e+002 -1.0060e+001 33282 104401,104375,104522
 2.6000e+000 104571  8.0169e+000 -1.3283e+002  8.9825e+000 33282 104401,104522,104427
 2.6000e+000 104620  2.3897e+001 -1.5796e+002 -3.2042e+001 33282 104323,104522,104594
 2.6000e+000 104643  5.0493e+001 -1.7542e+002 -3.7946e+001 33282 104323,104594,104349
 2.6000e+000 104942 -8.7976e+001 -2.2558e+002  3.1484e+001 32728 104694,104772,104720
 2.6000e+000 104919 -7.6805e+001 -2.0812e+002  1.1926e+001 32728 104694,104824,104772
 2.6000e+000 104896 -1.1699e+002 -2.0529e+002  3.3835e+001 32728 104720,104772,104746
 2.6000e+000 104873 -4.8662e+001 -2.3941e+002  1.1513e+001 32728 104772,104824,104798
 2.6000e+000 104850 -7.6786e+001 -2.0788e+002  1.2078e+001 32728 104668,104824,104694
 2.6000e+000 105373 -6.9511e+001 -2.2821e+002 -8.2395e+000 32274 105396,105102,105076
 2.6000e+000 105350 -7.8244e+001 -2.5184e+002 -8.8416e-001 32274 105396,105076,105206
 2.6000e+000 105327 -1.0505e+002 -2.6043e+002  1.7668e+001 32274 105154,105206,105180
 2.6000e+000 105304 -2.1515e+001 -2.3781e+002 -2.1436e+001 32274 105076,105232,105206
 2.6000e+000 105281 -9.2859e+001 -2.0659e+002 -3.0459e+001 32274 105102,105154,105128
 2.6000e+000 105258 -1.2740e+002 -1.9456e+002 -4.3959e+001 32274 105050,105232,105076
 2.6000e+000 105422 -8.4277e+001 -2.0227e+002 -7.4492e+000 32274 105154,105102,105396
 2.6000e+000 105445 -9.2033e+001 -2.2611e+002 -1.7187e+000 32274 105154,105396,105206
 2.6000e+000 105644 -7.1483e+001 -2.2607e+002  1.5450e+000 31620 105468,105546,105520
 2.6000e+000 105621 -5.9757e+001 -2.2914e+002 -4.0418e+000 31620 105468,105572,105546
 2.6000e+000 105598 -7.7726e+001 -2.6257e+002  1.9515e+001 31620 105468,105520,105494
 2.6000e+000 105794 -2.8447e+001 -2.0193e+002 -6.8874e+000 31158 105889,105817,105693
 2.6000e+000 105771 -4.2470e+001 -1.7587e+002 -1.2916e+001 31158 105817,105667,105745
 2.6000e+000 105843 -3.5952e+001 -2.5229e+002 -2.3859e+000 31158 105719,105693,105817
 2.6000e+000 105866 -2.3400e+001 -2.1221e+002 -1.1714e+001 31158 105719,105817,105745
 2.6000e+000 105915 -6.0402e+001 -2.1563e+002 -7.2530e+000 31158 105667,105817,105889
 2.6000e+000 106270 -8.5956e+001 -1.9412e+002 -5.9151e+000 30818 106293,106071,106045
 2.6000e+000 106247 -1.0222e+002 -2.3019e+002 -2.8700e+001 30818 106293,106045,106175
 2.6000e+000 106224 -4.0798e+001 -1.8761e+002  9.8780e+000 30818 106123,106175,106149
 2.6000e+000 106201 -9.4157e+001 -1.9535e+002  1.3526e+001 30818 106071,106123,106097
 2.6000e+000 106319 -8.0020e+001 -1.7972e+002  5.3664e+000 30818 106123,106071,106293
 2.6000e+000 106342 -7.7605e+001 -1.9823e+002 -1.3778e+001 30818 106123,106293,106175
 2.6000e+000 106492 -8.3677e+001 -1.9930e+002  3.7631e+001 30414 106645,106391,106365
 2.6000e+000 106469 -4.5018e+001 -1.9198e+002  5.2531e+001 30414 106515,106365,106443
 2.6000e+000 106541 -6.4535e+001 -1.9975e+002  3.8566e+001 30414 106645,106365,106515
 2.6000e+000 106671 -5.3322e+001 -2.4117e+002  6.3996e+001 30414 106417,106391,106645
 2.6000e+000 106694  1.1550e+000 -2.1717e+002  5.2470e+001 30414 106417,106645,106515
 2.6000e+000 106942 -3.5051e+001 -2.7765e+002 -7.2515e+000 29910 106965,106795,106769
 2.6000e+000 106919  5.6200e+000 -2.6721e+002  1.0957e+000 29910 106965,106769,106717
 2.6000e+000 106896 -5.2814e+001 -2.1880e+002 -3.1595e+001 29910 106795,106847,106821
 2.6000e+000 106873  2.4634e+001 -2.0808e+002 -1.4641e+001 29910 106717,106769,106743
 2.6000e+000 106991 -7.0983e+001 -2.5247e+002  4.3884e+000 29910 106847,106795,106965
 2.6000e+000 107014 -3.1448e+001 -2.4190e+002  1.6879e+001 29910 106847,106965,106717
 2.6000e+000 107213 -4.8458e+001 -2.1473e+002  1.9593e+001 29413 107236,107063,107037
 2.6000e+000 107190 -4.9353e+001 -2.6282e+002  3.7611e+001 29413 107236,107037,107141
 2.6000e+000 107167 -6.1363e+001 -1.4358e+002  3.6859e+001 29413 107063,107115,107089
 2.6000e+000 107262 -4.8117e+001 -1.8157e+002  1.0505e+001 29413 107115,107063,107236
 2.6000e+000 107285 -4.2005e+001 -2.1782e+002  2.9755e+001 29413 107115,107236,107141
 2.6000e+000 107486 -3.0957e+001 -1.8976e+002  2.0646e+001 29009 107336,107388,107362
 2.6000e+000 107463 -1.6673e+001 -1.8286e+002  1.1270e+001 29009 107310,107388,107336
 2.6000e+000 107440 -3.4231e+001 -1.7772e+002  1.6215e+001 29009 107310,107414,107388
 2.6000e+000 107736 -7.3263e+001 -2.0261e+002  1.5209e+000 28491 107537,107615,107563
 2.6000e+000 107713 -5.2728e+001 -1.9293e+002  5.9665e+000 28491 107537,107641,107615
 2.6000e+000 107690 -2.4997e+001 -1.9799e+002  1.6549e+001 28491 107563,107615,107589
 2.6000e+000 107667 -7.9937e+001 -2.0762e+002 -2.9829e+000 28491 107511,107641,107537
 2.6000e+000 108118 -2.9600e+001 -1.9651e+002 -8.2948e+000 27980 108141,107922,107844
 2.6000e+000 108095 -7.4469e+000 -2.0158e+002 -1.3735e+001 27980 108141,107844,108000
 2.6000e+000 108072 -2.0673e+001 -1.7694e+002 -1.5489e+001 27980 107844,107922,107870
 2.6000e+000 108049 -2.4906e+001 -1.7278e+002 -1.2478e+001 27980 107870,107922,107896
 2.6000e+000 108026 -5.0648e+001 -1.7922e+002  3.4615e+001 27980 107922,107974,107948
 2.6000e+000 108167 -8.1767e+000 -2.1892e+002  2.2868e+000 27980 107974,107922,108141
 2.6000e+000 108190  4.6401e+001 -2.0069e+002 -1.7193e+000 27980 107974,108141,108000
 2.6000e+000 108745 -2.4236e+001 -1.3888e+002 -5.3546e+000 27376 108840,108768,108477
 2.6000e+000 108722 -4.4602e+001 -1.6727e+002 -3.4829e+001 27376 108768,108373,108581
 2.6000e+000 108699 -4.0233e+001 -1.2143e+002  2.3521e+001 27376 108840,108477,108451
 2.6000e+000 108676 -9.9228e+001 -1.4523e+002 -7.0423e+000 27376 108373,108451,108399
 2.6000e+000 108653 -3.6271e+001 -1.7231e+002  1.0780e+001 27376 108503,108581,108529
 2.6000e+000 108630 -1.3549e+001 -1.6167e+002  3.0613e+000 27376 108529,108581,108555
 2.6000e+000 108607 -1.1333e+002 -1.5888e+002  1.1041e+001 27376 108399,108451,108425
 2.6000e+000 108794 -4.0269e+001 -1.8481e+002 -3.3690e+000 27376 108503,108477,108768
 2.6000e+000 108817 -1.3546e+001 -1.6942e+002 -9.9325e+000 27376 108503,108768,108581
 2.6000e+000 108866 -8.3080e+001 -1.7154e+002 -1.8159e+001 27376 108373,108768,108840
 2.6000e+000 108889 -8.0328e+001 -1.4768e+002  1.1873e+001 27376 108373,108840,108451
 2.6000e+000 109186 -7.8388e+001 -2.2333e+002  2.6383e+001 26722 109209,108938,108912
 2.6000e+000 109163 -7.2281e+001 -2.0706e+002  1.9895e+001 26722 109281,109209,108912
 2.6000e+000 109140 -7.0372e+001 -2.0206e+002  1.9165e+001 26722 109281,108912,109042
 2.6000e+000 109117 -5.5354e+001 -2.3122e+002  1.6720e+001 26722 108938,108990,108964
 2.6000e+000 109094 -1.0471e+002 -1.8249e+002  1.1764e+001 26722 108912,109068,109042
 2.6000e+000 109235 -5.5212e+001 -2.1234e+002  2.3183e+001 26722 108990,108938,109209
 2.6000e+000 109258 -6.8326e+001 -2.2631e+002  1.7392e+001 26722 108990,109209,109016
 2.6000e+000 109307 -6.5796e+001 -2.1463e+002  1.1146e+001 26722 109016,109209,109281
 2.6000e+000 109330 -6.1952e+001 -2.0637e+002  9.4570e+000 26722 109016,109281,109042
 2.6000e+000 109732 -8.8529e+001 -1.8545e+002 -3.8894e+000 26310 109458,109588,109484
 2.6000e+000 109709 -8.2334e+001 -2.0791e+002 -2.1966e+001 26310 109458,109614,109588
 2.6000e+000 109686 -1.2256e+002 -2.0718e+002  2.7447e+001 26310 109510,109562,109536
 2.6000e+000 109663 -1.2685e+002 -1.9912e+002  1.2024e+001 26310 109484,109562,109510
 2.6000e+000 109640 -9.1802e+001 -1.8817e+002 -1.3863e+000 26310 109484,109588,109562
 2.6000e+000 110159 -5.0082e+001 -1.8618e+002 -4.7511e+000 25642 110182,109940,109914
 2.6000e+000 110136 -4.6130e+001 -2.1534e+002  2.5515e+001 25642 110182,109914,109888
 2.6000e+000 110113 -5.8178e+001 -2.3117e+002 -2.9812e+001 25642 109966,110018,109992
 2.6000e+000 110090 -6.9047e+001 -2.2341e+002  1.7997e+001 25642 110254,109966,109940
 2.6000e+000 110067 -9.7361e+001 -2.1222e+002  8.2992e+000 25642 109862,110018,109888
 2.6000e+000 110044 -9.5725e+001 -1.7858e+002  2.5109e+001 25642 109836,110018,109862
 2.6000e+000 110208 -6.8457e+001 -2.0312e+002  1.3414e+001 25642 110254,109940,110182
 2.6000e+000 110231 -7.4270e+001 -2.1751e+002  2.7719e+001 25642 110018,110182,109888
 2.6000e+000 110280 -5.9842e+001 -2.4865e+002  1.4146e+001 25642 110018,109966,110254
 2.6000e+000 110303 -6.3516e+001 -2.3352e+002  1.0228e+001 25642 110018,110254,110182
 2.6000e+000 110632 -8.8835e+001 -1.8733e+002 -1.8002e+001 25188 110407,110485,110433
 2.6000e+000 110609 -1.0963e+002 -2.0568e+002 -9.9640e+000 25188 110407,110537,110485
 2.6000e+000 110586 -1.0700e+002 -1.9651e+002 -3.7150e+001 25188 110433,110485,110459
 2.6000e+000 110563 -9.9361e+001 -2.0873e+002  1.5815e+001 25188 110485,110537,110511
 2.6000e+000 110831 -2.8100e+001 -1.8648e+002  5.6509e+000 24726 110854,110707,110655
 2.6000e+000 110808 -2.6721e+001 -1.9773e+002  1.5531e+001 24726 110854,110655,110759
 2.6000e+000 110785 -2.8457e+001 -1.8887e+002  5.4115e+000 24726 110655,110707,110681
 2.6000e+000 110880 -2.6246e+001 -1.7556e+002  3.9162e+000 24726 110733,110707,110854
 2.6000e+000 110903 -2.2321e+001 -1.8210e+002  1.4244e+001 24726 110733,110854,110759
 2.6000e+000 111234  5.9530e+000 -1.3146e+002 -1.2944e+001 24222 111257,111087,111035
 2.6000e+000 111211  5.5959e+001 -1.0953e+002  4.2347e+000 24222 111257,111035,111009
 2.6000e+000 111188  5.1244e+001 -7.7951e+001 -3.6038e+001 24222 111035,111087,111061
 2.6000e+000 111165 -2.4188e+001 -1.0643e+002  3.6884e+000 24222 111087,111139,111113
 2.6000e+000 111283 -2.0515e+001 -1.0007e+002  5.2544e+000 24222 111139,111087,111257
 2.6000e+000 111306  1.7174e-002 -8.1549e+001  1.6148e+001 24222 111139,111257,111009
 2.6000e+000 111625 -3.4623e+001 -1.9193e+002 -9.3673e+000 23732 111648,111481,111455
 2.6000e+000 111602 -3.3155e+001 -1.9341e+002 -1.0407e+001 23732 111648,111455,111377
 2.6000e+000 111579  1.8472e+001 -1.0347e+002  1.9557e+001 23732 111377,111429,111403
 2.6000e+000 111556 -1.7052e+001 -1.9503e+002 -4.4597e+000 23732 111377,111455,111429
 2.6000e+000 111533 -2.6754e+001 -1.7243e+002 -4.5786e+000 23732 111351,111507,111377
 2.6000e+000 111674 -3.1782e+001 -1.8851e+002 -7.5142e+000 23732 111507,111481,111648
 2.6000e+000 111697 -3.3148e+001 -1.9236e+002 -9.1417e+000 23732 111507,111648,111377
 2.6000e+000 112156 -5.5831e+001 -2.1011e+002  1.2000e+001 23278 112179,111908,111882
 2.6000e+000 112133 -5.4668e+001 -1.9723e+002  2.7083e+000 23278 112179,111882,112012
 2.6000e+000 112110 -2.9134e+001 -2.2465e+002  1.0541e+000 23278 111908,111960,111934
 2.6000e+000 112087  7.3701e+000 -1.7897e+002 -1.9720e+001 23278 111882,112038,112012
 2.6000e+000 112064 -3.0514e+001 -1.7754e+002 -4.1484e+000 23278 111960,112012,111986
 2.6000e+000 112205 -5.1481e+001 -2.0312e+002  1.5224e+000 23278 111960,111908,112179
 2.6000e+000 112228 -4.4654e+001 -1.8773e+002 -8.7236e+000 23278 111960,112179,112012
 2.6000e+000 112685 -1.3469e+002 -3.0025e+002 -3.0480e+001 22938 112489,112567,112541
 2.6000e+000 112662 -1.1665e+002 -2.6022e+002 -2.6608e+001 22938 112437,112567,112489
 2.6000e+000 112639 -7.6901e+001 -2.2539e+002 -4.6070e+000 22938 112489,112541,112515
 2.6000e+000 112616 -1.3295e+002 -2.4931e+002 -2.3856e+001 22938 112411,112567,112437
 2.6000e+000 112593 -1.0402e+002 -3.2382e+002 -8.8204e+000 22938 112437,112489,112463
 2.6000e+000 113191  2.7243e+001 -1.9536e+002 -2.9458e+001 22534 113214,112998,112946
 2.6000e+000 113168 -2.1713e+001 -1.8471e+002 -8.8051e+000 22534 113286,113214,112946
 2.6000e+000 113145 -1.3703e+001 -1.8303e+002 -8.4528e+000 22534 113286,112946,112920
 2.6000e+000 113122 -7.7638e+001 -1.7597e+002 -3.2318e+001 22534 113358,113024,112998
 2.6000e+000 113099 -3.2865e+001 -1.8182e+002 -3.3398e+000 22534 112868,113050,112894
 2.6000e+000 113076 -6.8298e+001 -3.9724e+002 -7.6589e+001 22534 112946,112998,112972
 2.6000e+000 113240 -5.2113e+001 -2.1658e+002 -3.5882e+001 22534 113358,112998,113214
 2.6000e+000 113263 -2.5892e+001 -1.9772e+002 -3.8009e+000 22534 113050,113214,112894
 2.6000e+000 113312 -8.7248e+000 -1.8990e+002 -7.3193e+000 22534 112894,113214,113286
 2.6000e+000 113335  2.0144e+000 -1.8614e+002 -8.9172e+000 22534 112894,113286,112920
 2.6000e+000 113384 -4.6990e+001 -1.4826e+002 -1.7319e+001 22534 113050,113024,113358
 2.6000e+000 113407 -7.5577e+000 -1.7788e+002 -1.7620e+001 22534 113050,113358,113214
 2.6000e+000 113785 -9.5372e+001 -2.5471e+002  3.0677e+000 21978 113808,113615,113511
 2.6000e+000 113762 -7.5632e+001 -2.5825e+002  1.5406e+001 21978 113808,113511,113667
 2.6000e+000 113739 -5.9393e+001 -2.1908e+002 -1.1718e+001 21978 113511,113615,113537
 2.6000e+000 113716  2.9375e+001 -1.9271e+002 -2.1398e+001 21978 113537,113615,113589
 2.6000e+000 113693 -2.3317e+001 -2.7920e+002  3.8570e+000 21978 113537,113589,113563
 2.6000e+000 113834 -9.8702e+001 -2.5435e+002  2.8085e+001 21978 113641,113615,113808
 2.6000e+000 113857 -4.6826e+001 -2.3439e+002  4.2787e+001 21978 113641,113808,113667
 2.6000e+000 114284 -7.5062e+001 -2.1140e+002  7.9486e+000 21517 114013,114117,114039
 2.6000e+000 114261 -8.0597e+001 -2.0953e+002  1.8171e+001 21517 113961,114117,114013
 2.6000e+000 114238 -7.7040e+001 -2.1459e+002  1.8518e+001 21517 113961,114013,113987
 2.6000e+000 114215 -1.2022e+002 -2.3369e+002 -1.4179e+001 21517 114039,114117,114091
 2.6000e+000 114192 -8.4490e+001 -1.7933e+002  2.2728e+001 21517 113961,114143,114117
 2.6000e+000 114169  7.1786e+000 -1.8615e+002 -1.2205e+001 21517 114039,114091,114065
 2.6000e+000 114581 -4.4389e+001 -2.5499e+002  3.0006e+000 21027 114359,114463,114437
 2.6000e+000 114558 -2.4919e+001 -2.3136e+002  3.0318e+001 21027 114333,114463,114359
 2.6000e+000 114535 -2.0198e+001 -2.3355e+002 -6.1654e+000 21027 114359,114437,114385
 2.6000e+000 114512 -1.7353e+001 -2.3015e+002  2.3973e+001 21027 114307,114463,114333
 2.6000e+000 114489  3.2615e+001 -2.1724e+002 -1.0937e+001 21027 114385,114437,114411
 2.6000e+000 114912 -9.6748e+001 -2.1623e+002  3.5357e+000 20623 114713,114791,114765
 2.6000e+000 114889 -6.7762e+001 -2.0435e+002 -1.5463e+001 20623 114687,114791,114713
 2.6000e+000 114866 -4.4423e+001 -2.2864e+002 -1.7842e+001 20623 114687,114817,114791
 2.6000e+000 114843 -1.4337e+002 -2.6415e+002  2.3408e+001 20623 114713,114765,114739
 2.6000e+000 115290 -3.7051e+001 -1.9264e+002  8.6980e+000 20375 115313,115146,115094
 2.6000e+000 115267 -4.3452e+001 -1.9431e+002  1.1886e+001 20375 115313,115094,115042
 2.6000e+000 115244 -4.1699e+001 -1.7713e+002  4.3238e+000 20375 115385,115016,115172
 2.6000e+000 115221  3.2307e+001 -1.6807e+002  1.1848e+001 20375 115042,115094,115068
 2.6000e+000 115198 -4.8951e+001 -2.2291e+002  9.9410e+000 20375 115094,115146,115120
 2.6000e+000 115339 -6.1387e+001 -2.2289e+002 -7.0929e+000 20375 115172,115146,115313
 2.6000e+000 115362 -4.0207e+001 -1.8455e+002  2.4402e+000 20375 115385,115172,115313
 2.6000e+000 115411 -3.5998e+001 -1.8273e+002  1.2038e+001 20375 115042,115016,115385
 2.6000e+000 115434 -3.8260e+001 -1.9443e+002  1.1068e+001 20375 115042,115385,115313
 2.6000e+000 115891 -1.0321e+002 -2.0546e+002  2.4790e+001 19971 115617,115747,115643
 2.6000e+000 115868 -8.6748e+001 -1.6434e+002  2.1832e+001 19971 115617,115773,115747
 2.6000e+000 115845 -6.9196e+001 -2.8712e+002  1.2304e+001 19971 115643,115721,115695
 2.6000e+000 115822 -8.1119e+000 -1.5274e+002 -1.5736e+000 19971 115643,115747,115721
 2.6000e+000 115799  2.4696e+001 -3.1764e+002 -5.9798e+000 19971 115643,115695,115669
 2.6000e+000 115992 -1.4738e+002 -3.8351e+002 -6.6682e+001 19659 115914,115966,115940
 2.6000e+000 116142 -3.1516e+001 -8.9865e+001  3.1822e+000 18997 116041,116093,116067
 2.6000e+000 116119 -5.2779e+001 -1.4490e+002  9.5686e+000 18997 116015,116093,116041
 2.6000e+000 116343 -4.5893e+001 -2.3126e+002 -6.1283e+000 18707 116193,116245,116219
 2.6000e+000 116320 -4.8917e+001 -2.3731e+002 -1.2573e+001 18707 116193,116271,116245
 2.6000e+000 116297 -2.7786e+001 -1.8739e+002 -1.1060e+001 18707 116167,116271,116193
 2.6000e+000 116747 -3.7772e+001 -1.9852e+002 -2.4353e+000 18301 116525,116629,116551
 2.6000e+000 116724 -3.3654e+001 -1.7303e+002  2.5786e+000 18301 116473,116629,116525
 2.6000e+000 116701 -2.9629e+001 -1.7520e+002 -1.1044e+001 18301 116473,116525,116499
 2.6000e+000 116678 -2.1188e+001 -2.0673e+002 -2.8357e+000 18301 116551,116603,116577
 2.6000e+000 116655 -4.5185e+001 -2.1607e+002 -7.8360e+000 18301 116551,116629,116603
 2.6000e+000 117147 -1.0413e+002 -2.4069e+002 -9.8420e-001 17747 116899,117029,116925
 2.6000e+000 117124 -5.7576e+001 -1.7715e+002  2.3443e+001 17747 116873,117029,116899
 2.6000e+000 117101 -1.0239e+002 -2.3817e+002 -2.2179e-001 17747 116925,117029,116951
 2.6000e+000 117078 -8.8695e+001 -2.0447e+002 -5.7051e-001 17747 116951,117029,117003
 2.6000e+000 117055 -1.2015e+002 -2.6949e+002 -1.7715e+001 17747 116951,117003,116977
 2.6000e+000 117368  4.0397e+001 -2.2627e+002  3.2475e-001 17293 117244,117296,117270
 2.6000e+000 117345  7.9805e+000 -2.2216e+002 -6.4702e+000 17293 117192,117296,117244
 2.6000e+000 117322 -2.7193e+001 -2.1307e+002 -2.8164e+000 17293 117192,117244,117218
 2.6000e+000 117699 -3.3218e+001 -1.7998e+002 -1.8793e+001 16896 117526,117604,117552
 2.6000e+000 117676 -1.1910e+002 -2.6464e+002  1.5354e+001 16896 117500,117604,117526
 2.6000e+000 117653 -1.2802e+002 -2.1366e+002 -1.0139e+001 16896 117552,117604,117578
 2.6000e+000 117630 -9.8174e+001 -3.3386e+002  3.3029e+001 16896 117474,117604,117500
 2.6000e+000 117849 -2.3612e+002 -4.5413e+002 -1.7870e+001 16534 117722,117774,117748
 2.6000e+000 117826 -1.8658e+002 -5.5553e+002 -7.6115e+001 16534 117722,117800,117774
 2.6000e+000 118070 -2.9770e+001 -2.1504e+002  2.1616e+001 16194 117946,117998,117972
 2.6000e+000 118047 -5.0913e+001 -2.5186e+002  1.2764e+001 16194 117894,117998,117946
 2.6000e+000 118024 -6.3045e+001 -2.3234e+002 -2.9605e+000 16194 117894,117946,117920
 2.6000e+000 118173 -2.3517e+001 -2.3066e+002  0.0000e+000 15968 118095,118147,118121
 2.6000e+000 118276 -6.5360e+001 -2.3445e+002  3.1683e+000 15433 118299,118198,118250
 2.6000e+000 118325 -6.7839e+001 -2.4023e+002  3.2258e+000 15433 118224,118198,118299
 2.6000e+000 118450 -1.1995e+002 -2.6440e+002  2.5655e+001 421 118372,118424,118398
 2.7000e+000 69891 -4.6491e+001 -2.9803e+002  1.0985e+001 68988 69447,69681,69629
 2.7000e+000 69868  2.3101e+001 -2.6872e+002  1.0279e+001 68988 69421,69681,69447
 2.7000e+000 69845  7.1872e+000 -1.4339e+002  5.4306e-001 68988 69447,69629,69577
 2.7000e+000 69822 -8.2461e+001 -3.1125e+002 -3.5950e+001 68988 69447,69577,69473
 2.7000e+000 69799 -8.7550e+000 -3.5459e+002  5.7111e+001 68988 69629,69681,69655
 2.7000e+000 69776 -8.7695e+001 -1.8427e+002  3.3916e+000 68988 69577,69629,69603
 2.7000e+000 69753 -6.3746e+001 -2.7547e+002 -4.3145e+001 68988 69473,69577,69551
 2.7000e+000 69730 -1.0117e+002 -5.6474e+002 -5.7061e+001 68988 69473,69551,69525
 2.7000e+000 69707 -1.7026e+002 -3.6966e+002  6.6758e-001 68988 69473,69525,69499
 2.7000e+000 69992 -1.5424e+002 -3.1594e+002 -5.8070e+001 68676 69914,69966,69940
 2.7000e+000 70392 -1.0911e+002 -2.4314e+002  2.0382e+001 68478 70118,70248,70144
 2.7000e+000 70369  1.5511e+001 -2.4961e+002  5.5305e+001 68478 70118,70274,70248
 2.7000e+000 70346 -6.5127e+001 -1.7800e+002 -1.7085e-001 68478 70144,70222,70196
 2.7000e+000 70323 -5.4083e+001 -1.4980e+002 -5.7991e+000 68478 70144,70248,70222
 2.7000e+000 70300 -7.3070e+001 -1.9842e+002 -4.0492e+000 68478 70144,70196,70170
 2.7000e+000 70841  6.1669e+001 -1.5522e+002 -4.9027e+001 68280 70570,70622,70596
 2.7000e+000 70818 -7.3817e+001 -1.7909e+002 -1.1091e+001 68280 70544,70622,70570
 2.7000e+000 70795 -5.1253e+001 -1.2953e+002 -5.8981e+000 68280 70544,70674,70622
 2.7000e+000 70772 -4.4805e+001 -1.1309e+002  3.8197e+000 68280 70622,70674,70648
 2.7000e+000 70749 -7.6397e+001 -2.0349e+002  1.6861e+001 68280 70518,70674,70544
 2.7000e+000 70726  9.7726e+001 -2.1330e+002  6.7933e+001 68280 70518,70700,70674
 2.7000e+000 70991 -1.0079e+001 -9.3288e+002  2.7641e+001 67968 70864,70916,70890
 2.7000e+000 70968 -2.4411e+002 -9.2904e+002  1.0457e+002 67968 70864,70942,70916
 2.7000e+000 71141 -4.1524e+002 -8.0981e+002 -3.5240e+001 67770 71040,71092,71066
 2.7000e+000 71118 -3.6601e+002 -9.6735e+002  4.2506e+001 67770 71014,71092,71040
 2.7000e+000 71651 -4.6321e+001 -1.5823e+002 -3.3030e+001 67366 71746,71674,71458
 2.7000e+000 71628 -2.4227e+001 -1.2783e+002 -3.5176e+001 67366 71674,71354,71510
 2.7000e+000 71605 -3.9041e+001 -1.7436e+002 -3.1822e+001 67366 71746,71458,71432
 2.7000e+000 71582 -6.9228e+001 -1.7832e+002  8.1718e+000 67366 71354,71432,71380
 2.7000e+000 71559 -7.6928e+001 -1.2177e+002 -1.9139e+001 67366 71380,71432,71406
 2.7000e+000 71536 -3.0386e+001 -4.0948e+001 -5.2025e+000 67366 71328,71510,71354
 2.7000e+000 71700 -5.6345e+001 -1.4460e+002 -1.4063e+001 67366 71484,71458,71674
 2.7000e+000 71723 -3.0689e+001 -1.3350e+002 -1.2956e+001 67366 71484,71674,71510
 2.7000e+000 71772 -3.7462e+001 -1.3909e+002 -2.8807e+001 67366 71354,71674,71746
 2.7000e+000 71795 -3.0587e+001 -1.5413e+002 -2.9328e+001 67366 71354,71746,71432
 2.7000e+000 71896 -1.7011e+002 -3.6556e+002  0.0000e+000 67146 71818,71870,71844
 2.7000e+000 71997 -1.8574e+002 -2.9782e+002  5.9085e+001 66948 71919,71971,71945
 2.7000e+000 72149 -9.4301e-001 -2.0725e+002 -2.6438e+001 66700 72172,72074,72048
 2.7000e+000 72126 -6.4618e+001 -2.3546e+002 -1.0707e+001 66700 72172,72048,72022
 2.7000e+000 72198 -1.0865e+002 -2.5688e+002  1.5949e+001 66700 72244,72172,72100
 2.7000e+000 72221 -9.5631e+001 -2.3459e+002 -1.4977e+001 66700 72100,72172,72022
 2.7000e+000 72270 -5.3206e+001 -1.3506e+002 -1.8336e+001 66700 72074,72172,72244
 2.7000e+000 72623 -6.8077e+001 -2.1415e+002  5.8288e+000 66502 72424,72502,72450
 2.7000e+000 72600 -5.5087e+001 -1.7805e+002  3.4270e+000 66502 72398,72502,72424
 2.7000e+000 72577 -3.7906e+001 -2.0302e+002 -3.9881e+000 66502 72398,72528,72502
 2.7000e+000 72554 -6.7620e+001 -1.8941e+002 -1.5091e+000 66502 72450,72502,72476
 2.7000e+000 72920 -1.1886e+002 -2.5731e+002  7.9702e+000 65941 72672,72776,72750
 2.7000e+000 72897 -1.1797e+002 -2.1884e+002  2.7433e+001 65941 72646,72776,72672
 2.7000e+000 72874 -1.0259e+002 -2.5278e+002  1.0171e+001 65941 72672,72750,72724
 2.7000e+000 72851 -1.0286e+002 -1.9565e+002  2.0724e+001 65941 72672,72724,72698
 2.7000e+000 72828 -9.0135e+001 -2.1178e+002  2.3309e+001 65941 72646,72802,72776
 2.7000e+000 73241 -1.1081e+001 -1.7714e+002  1.6916e+001 65743 73264,73071,73045
 2.7000e+000 73218 -6.4658e+001 -2.0070e+002  2.1842e+001 65743 73480,73264,73045
 2.7000e+000 73195 -5.3191e+001 -1.8123e+002 -2.5695e+000 65743 73336,72967,73097
 2.7000e+000 73172 -1.0419e+002 -1.6412e+002 -2.0835e+001 65743 73408,72993,72967
 2.7000e+000 73149 -4.4323e+001 -1.8189e+002 -2.8803e+000 65743 72967,73123,73097
 2.7000e+000 73290 -3.4917e+001 -1.8936e+002  4.5570e+000 65743 73097,73071,73264
 2.7000e+000 73313 -4.2336e+001 -1.7015e+002  9.2609e+000 65743 73336,73097,73264
 2.7000e+000 73362 -8.7202e+001 -1.8708e+002 -1.3968e+001 65743 73408,72967,73336
 2.7000e+000 73385 -3.6276e+001 -1.6921e+002  6.3710e-001 65743 73019,73336,73264
 2.7000e+000 73434 -7.5810e+001 -1.2062e+002  1.0076e+001 65743 73019,72993,73408
 2.7000e+000 73457 -3.6905e+001 -1.5155e+002  7.1290e+000 65743 73019,73408,73336
 2.7000e+000 73506 -2.0461e+001 -1.2416e+002  3.8857e+000 65743 73019,73264,73480
 2.7000e+000 73989  5.4162e+000 -1.3881e+002  1.9574e+001 65453 73793,73845,73819
 2.7000e+000 73966 -6.8430e+001 -1.5844e+002  2.2301e+001 65453 73741,73845,73793
 2.7000e+000 73943 -8.3946e+000 -1.2635e+002  1.0239e+001 65453 73715,73845,73741
 2.7000e+000 73920 -5.0971e+001 -1.7031e+002  3.6813e+001 65453 73741,73793,73767
 2.7000e+000 73897  1.5927e+001 -6.7352e+001  5.4717e+000 65453 73715,73871,73845
 2.7000e+000 74357 -4.1058e+001 -1.8878e+002 -5.6863e+001 65141 74380,74138,74086
 2.7000e+000 74334 -8.3207e+001 -2.5972e+002 -3.8593e+001 65141 74380,74086,74060
 2.7000e+000 74311 -9.2459e+001 -2.5110e+002 -1.0976e+001 65141 74138,74190,74164
 2.7000e+000 74288 -7.1545e+001 -2.8097e+002 -1.1594e+001 65141 74060,74216,74190
 2.7000e+000 74265 -7.7948e+001 -3.0046e+002  4.2997e+000 65141 74034,74216,74060
 2.7000e+000 74242 -5.0571e+001 -1.3555e+002 -3.2727e+001 65141 74086,74138,74112
 2.7000e+000 74406 -6.6722e+001 -2.5141e+002 -2.2768e+001 65141 74190,74138,74380
 2.7000e+000 74429 -7.9874e+001 -2.7609e+002 -1.0947e+001 65141 74190,74380,74060
 2.7000e+000 74937 -8.9746e+001 -1.9050e+002 -5.2505e+001 64737 74614,74666,74640
 2.7000e+000 74914 -1.1407e+002 -2.3691e+002 -3.8919e+001 64737 74614,74796,74666
 2.7000e+000 74891 -7.8912e+001 -1.5968e+002 -7.5530e+000 64737 74960,74718,74666
 2.7000e+000 74868 -6.8153e+001 -1.7662e+002 -2.3801e+001 64737 74960,74666,74770
 2.7000e+000 74845 -7.1190e+001 -1.4160e+002 -2.5554e+001 64737 74666,74796,74770
 2.7000e+000 74822 -7.6332e+001 -1.7335e+002  1.1138e+000 64737 74666,74718,74692
 2.7000e+000 74986 -8.5390e+001 -1.7718e+002 -7.5102e+000 64737 74744,74718,74960
 2.7000e+000 75009 -7.9222e+001 -2.0280e+002 -2.4207e+001 64737 74744,74960,74770
 2.7000e+000 75306 -2.5756e+001 -1.6729e+002  2.5610e+001 64133 75329,75110,75084
 2.7000e+000 75283 -4.4482e+001 -1.9355e+002  1.1580e+001 64133 75401,75329,75084
 2.7000e+000 75260 -4.3103e+001 -1.9956e+002  1.3172e+001 64133 75401,75084,75058
 2.7000e+000 75237 -3.7362e+001 -2.2560e+002  2.4964e+001 64133 75473,75136,75110
 2.7000e+000 75214 -5.2315e+001 -1.7122e+002  4.6544e+000 64133 75032,75188,75162
 2.7000e+000 75355 -4.4248e+001 -2.1176e+002  1.9889e+001 64133 75473,75110,75329
 2.7000e+000 75378 -3.5440e+001 -1.8146e+002  4.5430e+000 64133 75162,75329,75032
 2.7000e+000 75427 -3.3931e+001 -1.7828e+002  5.5894e+000 64133 75032,75329,75401
 2.7000e+000 75450 -7.8067e+001 -2.2183e+002  2.8360e+001 64133 75545,75401,75058
 2.7000e+000 75499 -3.7403e+001 -2.0781e+002  6.0061e+000 64133 75162,75136,75473
 2.7000e+000 75522 -4.0600e+001 -1.8134e+002  6.0843e+000 64133 75162,75473,75329
 2.7000e+000 75571 -3.2044e+001 -1.2111e+002  1.0883e+001 64133 75032,75401,75545
 2.7000e+000 75851 -6.1228e+001 -1.7510e+002  7.7909e-001 63843 75874,75753,75727
 2.7000e+000 75828 -5.3063e+001 -1.7672e+002 -1.2057e+001 63843 75946,75874,75727
 2.7000e+000 75805 -6.3327e+001 -1.9009e+002 -6.0973e+000 63843 76018,75946,75727
 2.7000e+000 75900 -4.4906e+001 -1.6818e+002 -6.0665e+000 63843 75779,75753,75874
 2.7000e+000 75923 -4.9123e+001 -1.4386e+002 -2.2242e+001 63843 75779,75874,75675
 2.7000e+000 75972 -6.3571e+001 -1.6460e+002 -9.6409e+000 63843 75675,75874,75946
 2.7000e+000 75995 -5.7314e+001 -1.7381e+002 -1.5143e+001 63843 75675,75946,75701
 2.7000e+000 76044 -6.3719e+001 -1.8148e+002 -1.9346e+001 63843 75701,75946,76018
 2.7000e+000 76454  1.9022e+001 -2.7269e+001 -2.4028e+001 63439 76477,76255,76229
 2.7000e+000 76431 -1.3065e+001 -8.2780e+001 -3.9813e+000 63439 76477,76229,76359
 2.7000e+000 76408 -2.3950e+001 -6.5437e+001  3.6830e+001 63439 76307,76359,76333
 2.7000e+000 76385 -6.8070e+000 -9.2418e+001  1.9662e+000 63439 76255,76307,76281
 2.7000e+000 76503 -1.2463e+001 -7.0411e+001  9.2658e+000 63439 76307,76255,76477
 2.7000e+000 76526 -1.2106e+001 -9.2523e+001  2.3540e+001 63439 76307,76477,76359
 2.7000e+000 76926 -3.8584e+001 -1.3756e+002 -3.1944e+000 63049 76704,76782,76756
 2.7000e+000 76903 -5.7930e+001 -1.4248e+002 -1.5994e+001 63049 76704,76808,76782
 2.7000e+000 76880 -4.0153e+001 -1.6282e+002  2.2396e+000 63049 76704,76756,76730
 2.7000e+000 76857 -3.6554e+001 -8.7020e+001  5.3590e+000 63049 76678,76808,76704
 2.7000e+000 76834 -1.6861e+001 -2.0971e+001 -1.9947e+001 63049 76652,76808,76678
 2.7000e+000 77076 -2.0064e+000 -2.1071e+002 -3.1496e-001 62737 76975,77027,77001
 2.7000e+000 77053 -2.6202e+000 -2.3799e+002 -1.4682e+001 62737 76949,77027,76975
 2.7000e+000 77324 -9.2817e+001 -2.1320e+002 -1.6100e+000 62277 77347,77177,77125
 2.7000e+000 77301 -8.7422e+001 -2.0577e+002 -9.9988e+000 62277 77347,77125,77229
 2.7000e+000 77278 -8.4477e+001 -2.1119e+002 -1.3564e+001 62277 77099,77229,77125
 2.7000e+000 77255 -9.8418e+001 -2.6078e+002  3.8536e+000 62277 77125,77177,77151
 2.7000e+000 77373 -9.7043e+001 -2.3344e+002  9.9712e+000 62277 77203,77177,77347
 2.7000e+000 77396 -7.6729e+001 -2.1451e+002 -1.1948e+000 62277 77203,77347,77229
 2.7000e+000 77857 -3.3325e+001 -2.6596e+002  4.0215e+000 61758 77635,77739,77661
 2.7000e+000 77834 -6.4682e+001 -2.5544e+002 -1.3079e+001 61758 77583,77739,77635
 2.7000e+000 77811 -7.6520e+001 -3.2010e+002 -3.2487e+001 61758 77583,77635,77609
 2.7000e+000 77788 -6.3331e+001 -2.4586e+002  2.3695e+001 61758 77661,77713,77687
 2.7000e+000 77765 -6.0469e+001 -2.9327e+002  2.6526e+001 61758 77661,77739,77713
 2.7000e+000 78491 -6.9695e+001 -1.4534e+002  6.4246e+000 61418 78171,78301,78249
 2.7000e+000 78468 -5.5266e+001 -1.2131e+002  1.6001e+001 61418 78145,78301,78171
 2.7000e+000 78445 -5.0616e+001 -1.2885e+002 -7.9338e+000 61418 78171,78249,78223
 2.7000e+000 78422 -5.2087e+001 -1.1965e+002  6.9628e+000 61418 78145,78327,78301
 2.7000e+000 78399 -7.2875e+001 -1.6474e+002 -3.7087e+000 61418 78249,78301,78275
 2.7000e+000 78376 -3.0783e+001 -1.3594e+002 -1.1585e+001 61418 78171,78223,78197
 2.7000e+000 78353 -6.7336e+001 -1.5163e+002 -2.7289e+000 61418 78119,78327,78145
 2.7000e+000 78690 -7.7398e+001 -1.8392e+002 -2.6828e+000 61014 78713,78566,78540
 2.7000e+000 78667 -4.8105e+001 -1.8639e+002 -1.1586e+000 61014 78713,78540,78618
 2.7000e+000 78644 -8.3795e+001 -2.1114e+002 -2.1987e+001 61014 78514,78618,78540
 2.7000e+000 78739 -3.6860e+001 -1.7693e+002  1.9422e+001 61014 78592,78566,78713
 2.7000e+000 78762 -4.1900e+001 -1.9797e+002  1.2412e+000 61014 78785,78713,78618
 2.7000e+000 78811 -1.3162e+001 -1.8678e+002 -1.9536e+000 61014 78592,78713,78785
 2.7000e+000 79398 -2.9164e+001 -1.5697e+002 -1.7296e+001 60624 79101,79179,79153
 2.7000e+000 79375 -4.2092e+001 -1.7654e+002 -8.9864e+000 60624 79101,79231,79179
 2.7000e+000 79352 -3.3689e+001 -1.7736e+002 -1.4945e+001 60624 79075,79231,79101
 2.7000e+000 79329 -9.9790e+000 -2.1419e+002  2.1828e+001 60624 79075,79257,79231
 2.7000e+000 79306 -3.3518e+001 -1.3439e+002 -3.6900e+001 60624 79179,79231,79205
 2.7000e+000 79283 -2.0996e+001 -1.3948e+002 -7.7971e+000 60624 79101,79153,79127
 2.7000e+000 79776 -7.9684e+001 -2.3052e+002  2.2694e+001 60070 79528,79658,79606
 2.7000e+000 79753 -7.2021e+001 -1.7985e+002 -1.8658e+000 60070 79502,79658,79528
 2.7000e+000 79730 -1.0280e+002 -2.2296e+002  3.2535e+001 60070 79528,79606,79580
 2.7000e+000 79707 -1.4214e+001 -1.9698e+002  4.9414e+000 60070 79606,79658,79632
 2.7000e+000 79684 -8.1609e+000 -1.3599e+002 -3.6359e+001 60070 79528,79580,79554
 2.7000e+000 80105 -5.6364e+001 -1.7876e+002  2.1460e+001 59758 80128,79958,79906
 2.7000e+000 80082 -6.0308e+001 -1.6598e+002  1.4765e+001 59758 80128,79906,80010
 2.7000e+000 80059 -8.2588e+001 -1.8444e+002  6.3510e+001 59758 79906,79958,79932
 2.7000e+000 80036 -9.2706e+001 -1.8921e+002  4.6421e+000 59758 79880,80010,79906
 2.7000e+000 80154 -5.8631e+001 -1.8692e+002  2.1434e+001 59758 79984,79958,80128
 2.7000e+000 80177 -6.4512e+001 -1.7726e+002  1.4769e+001 59758 79984,80128,80010
 2.7000e+000 80376 -4.5145e+001 -1.7950e+002  3.5107e+000 59312 80226,80304,80252
 2.7000e+000 80353 -4.6867e+001 -1.8048e+002  2.8520e+000 59312 80200,80304,80226
 2.7000e+000 80330 -7.3691e+001 -1.6316e+002  4.8786e+001 59312 80252,80304,80278
 2.7000e+000 80805 -6.1916e+001 -1.4809e+002 -2.2126e+001 58908 80900,80828,80638
 2.7000e+000 80782 -5.2410e+001 -1.7580e+002 -3.5488e+001 58908 80828,80560,80508
 2.7000e+000 80759 -6.5636e+001 -1.3825e+002 -5.7829e+000 58908 80900,80638,80612
 2.7000e+000 80736 -2.3808e+001 -1.4924e+002  6.6315e+001 58908 80482,80664,80508
 2.7000e+000 80713 -4.4222e+001 -1.2638e+002 -2.0127e+000 58908 80560,80612,80586
 2.7000e+000 80690 -5.9810e+001 -4.3219e+002 -8.3359e+001 58908 80508,80560,80534
 2.7000e+000 80854 -2.4931e+001 -1.6019e+002  2.3451e+000 58908 80664,80638,80828
 2.7000e+000 80877 -4.7902e+001 -2.3395e+002  5.3097e+000 58908 80664,80828,80508
 2.7000e+000 80926 -5.0866e+001 -1.1858e+002 -2.4474e+001 58908 80560,80828,80900
 2.7000e+000 80949 -5.8896e+001 -1.1876e+002 -5.8310e+000 58908 80560,80900,80612
 2.7000e+000 81246 -1.3057e+001 -1.3645e+002 -3.1742e+000 58482 81076,81128,81102
 2.7000e+000 81223 -5.3787e+001 -2.4020e+002 -2.4274e+001 58482 80972,81128,81076
 2.7000e+000 81200 -3.0166e+001 -1.6083e+002 -2.5679e+001 58482 80972,81076,81050
 2.7000e+000 81177 -8.7329e+001 -2.5657e+002 -2.0316e+000 58482 80998,81050,81024
 2.7000e+000 81154 -3.7957e+001 -2.0326e+002 -2.2814e+001 58482 80972,81050,80998
 2.7000e+000 81754 -6.5850e+001 -1.4670e+002  1.5067e+001 57828 81457,81613,81483
 2.7000e+000 81731 -7.5255e+001 -1.6398e+002  8.8480e+000 57828 81431,81613,81457
 2.7000e+000 81708 -7.2956e+001 -1.6329e+002  1.5267e+001 57828 81483,81613,81509
 2.7000e+000 81685 -9.0044e+001 -1.8706e+002  2.2753e+001 57828 81509,81613,81587
 2.7000e+000 81662 -9.7285e+001 -2.7728e+002  4.1070e+001 57828 81509,81587,81535
 2.7000e+000 81639 -5.7290e+001 -2.6602e+002  2.7802e+001 57828 81535,81587,81561
 2.7000e+000 82002 -1.1274e+002 -2.7849e+002 -4.1549e+000 57374 82025,81855,81829
 2.7000e+000 81979 -1.1848e+002 -2.6468e+002  7.1046e+000 57374 82025,81829,81907
 2.7000e+000 81956 -1.2069e+002 -2.4385e+002  3.0163e+000 57374 81803,81907,81829
 2.7000e+000 81933 -7.9652e+001 -2.2593e+002  7.5944e+000 57374 81777,81907,81803
 2.7000e+000 82051 -1.1150e+002 -2.6209e+002 -5.3585e+000 57374 81881,81855,82025
 2.7000e+000 82074 -1.1467e+002 -2.4996e+002  9.7357e+000 57374 81881,82025,81907
 2.7000e+000 82356 -6.1578e+001 -1.4619e+002 -1.0586e+001 56913 82180,82232,82206
 2.7000e+000 82333 -4.7664e+001 -1.2849e+002  1.7374e+001 56913 82180,82284,82232
 2.7000e+000 82310 -1.6977e+001 -1.1178e+002  2.8235e+001 56913 82379,82232,82284
 2.7000e+000 82405  1.8041e+001 -1.0936e+002  3.1177e+000 56913 82258,82232,82379
 2.7000e+000 82764 -5.9734e+001 -9.3796e+001 -9.0613e+000 56523 82614,82666,82640
 2.7000e+000 82741 -5.0353e+001 -9.4986e+001 -1.4050e+001 56523 82614,82692,82666
 2.7000e+000 82718 -4.4445e+001 -1.0316e+002 -3.0146e+001 56523 82588,82692,82614
 2.7000e+000 83368 -1.4554e+001 -1.8809e+002 -6.5389e+000 55969 82973,83155,83129
 2.7000e+000 83345  1.6883e+000 -1.8197e+002 -1.3340e+001 55969 82973,83181,83155
 2.7000e+000 83322 -5.0582e+001 -1.6624e+002 -4.6802e+000 55969 82973,83129,82999
 2.7000e+000 83299 -8.5754e+001 -1.7370e+002  9.8889e+000 55969 83391,83025,82999
 2.7000e+000 83276 -6.7584e+001 -1.7608e+002  3.1997e+000 55969 83391,82999,83129
 2.7000e+000 83253 -1.0204e+001 -1.3855e+002  3.1411e+001 55969 83077,83129,83103
 2.7000e+000 83230 -8.0560e+001 -1.3093e+002 -7.7176e+000 55969 83025,83077,83051
 2.7000e+000 83207 -2.7056e+000 -1.7537e+002  1.7564e+001 55969 82947,83181,82973
 2.7000e+000 83417 -6.7807e+001 -1.6584e+002  1.1336e+001 55969 83077,83025,83391
 2.7000e+000 83440 -6.1164e+001 -1.7442e+002  3.3098e+000 55969 83077,83391,83129
 2.7000e+000 83946 -1.1577e+002 -2.4823e+002  4.6847e+001 55771 83969,83779,83727
 2.7000e+000 83923 -9.0226e+001 -2.0083e+002  2.2114e+001 55771 83969,83727,83623
 2.7000e+000 83900 -1.0872e+002 -1.1187e+002  1.2816e+001 55771 83623,83727,83649
 2.7000e+000 83877 -5.1461e+001 -4.1265e+002  3.7433e+001 55771 83727,83779,83753
 2.7000e+000 83854 -1.7269e+002 -2.1799e+002  7.2001e+001 55771 83675,83727,83701
 2.7000e+000 83831 -1.7653e+002 -1.9227e+002  8.5049e+001 55771 83649,83727,83675
 2.7000e+000 83995 -1.0207e+002 -2.5509e+002 -1.5116e+001 55771 83805,83779,83969
 2.7000e+000 84018 -4.5287e+001 -1.5648e+002 -4.5585e+001 55771 83805,83969,83623
 2.7000e+000 84168 -3.8969e+001 -1.2781e+002 -3.2926e+000 55367 84191,84067,84041
 2.7000e+000 84145 -3.8504e+001 -1.4510e+002 -1.7036e+000 55367 84191,84041,84119
 2.7000e+000 84217 -4.3015e+001 -1.1722e+002 -3.0652e+000 55367 84093,84067,84191
 2.7000e+000 84240 -3.7624e+001 -1.2765e+002  3.3817e+000 55367 84093,84191,84119
 2.7000e+000 84571 -2.4808e+001 -2.2086e+002 -2.2954e+001 54913 84398,84450,84424
 2.7000e+000 84548 -1.8040e+001 -1.9836e+002 -9.6220e+000 54913 84372,84450,84398
 2.7000e+000 84525 -4.8335e+001 -2.2320e+002  8.8111e+000 54913 84346,84450,84372
 2.7000e+000 84502 -1.2686e+001 -1.4133e+002 -1.8066e+001 54913 84346,84476,84450
 2.7000e+000 85126 -1.0644e+002 -2.4483e+002 -8.4262e+000 54402 84858,84936,84910
 2.7000e+000 85103 -7.9078e+001 -1.8775e+002 -2.2374e+001 54402 84806,84936,84858
 2.7000e+000 85080 -9.7877e+001 -1.7098e+002 -1.7439e+001 54402 84780,84936,84806
 2.7000e+000 85057 -8.2387e+001 -2.0822e+002 -1.0225e+001 54402 84806,84858,84832
 2.7000e+000 85034 -8.5465e+001 -1.5996e+002  8.6770e+000 54402 84780,84962,84936
 2.7000e+000 85011 -1.3010e+002 -1.4331e+002 -3.8042e+000 54402 84858,84910,84884
 2.7000e+000 84988 -8.4437e+001 -1.5168e+002  6.9697e+000 54402 84754,84962,84780
 2.7000e+000 85396 -7.3305e+001 -9.0248e+001 -8.4451e+000 53998 85197,85249,85223
 2.7000e+000 85373 -5.3864e+001 -1.2191e+002 -1.7944e+000 53998 85197,85275,85249
 2.7000e+000 85350 -7.0426e+001 -1.4464e+002 -9.4529e+000 53998 85171,85275,85197
 2.7000e+000 85327 -2.6108e+001 -1.3361e+002 -1.1880e+001 53998 85171,85301,85275
 2.7000e+000 85749 -4.6141e+001 -1.7662e+002 -3.2366e+000 53636 85524,85628,85550
 2.7000e+000 85726 -7.5631e+001 -1.9763e+002  7.1641e+000 53636 85524,85654,85628
 2.7000e+000 85703 -2.6872e+001 -1.8737e+002 -1.7502e+001 53636 85550,85602,85576
 2.7000e+000 85680 -4.7961e+001 -1.7627e+002 -7.5991e+000 53636 85550,85628,85602
 2.7000e+000 86127 -1.3842e+001 -1.7555e+002  2.8416e+001 52982 86150,85957,85879
 2.7000e+000 86104 -5.1572e+001 -2.0337e+002  1.6260e+001 52982 86150,85879,85853
 2.7000e+000 86081 -1.2798e+001 -2.5528e+002  5.0859e+001 52982 85957,86009,85983
 2.7000e+000 86058 -6.4894e+001 -1.8875e+002  2.4858e+001 52982 85879,85957,85931
 2.7000e+000 86035 -4.6365e+001 -1.5988e+002  1.4785e+001 52982 85879,85931,85905
 2.7000e+000 86176  1.0814e+001 -2.0647e+002  2.3433e+001 52982 86009,85957,86150
 2.7000e+000 86199 -1.1593e+001 -2.2544e+002  1.5146e+001 52982 86009,86150,85853
 2.7000e+000 86398 -2.8826e+001 -1.2758e+002  1.2908e+001 52542 86421,86248,86222
 2.7000e+000 86375 -5.8586e+001 -1.3113e+002 -1.0051e+000 52542 86421,86222,86300
 2.7000e+000 86352 -5.7595e+001 -1.4065e+002 -6.6188e+000 52542 86222,86326,86300
 2.7000e+000 86447  1.7661e+000 -1.2851e+002  2.5406e+001 52542 86274,86248,86421
 2.7000e+000 86470 -2.6773e+001 -1.3703e+002  7.8231e+000 52542 86274,86421,86300
 2.7000e+000 86669 -5.9517e+001 -1.3502e+002 -2.4358e+001 52230 86692,86571,86545
 2.7000e+000 86646 -5.7326e+001 -1.2678e+002 -1.2252e+001 52230 86692,86545,86519
 2.7000e+000 86623 -8.4028e+001 -1.3365e+002 -1.9764e+001 52230 86493,86597,86519
 2.7000e+000 86718 -6.5588e+001 -1.3829e+002 -2.7772e+001 52230 86597,86571,86692
 2.7000e+000 86741 -7.1669e+001 -1.3360e+002 -1.6294e+001 52230 86597,86692,86519
 2.7000e+000 87153 -9.7096e+001 -1.3472e+002  6.1796e+000 51640 86980,87058,87032
 2.7000e+000 87130 -9.0272e+001 -1.4097e+002  3.8449e+000 51640 86928,87058,86980
 2.7000e+000 87107 -8.7636e+001 -1.9313e+002 -1.8646e+001 51640 86928,86980,86954
 2.7000e+000 87084 -6.9743e+001 -1.2318e+002 -2.6613e-002 51640 86980,87032,87006
 2.7000e+000 87659 -3.3902e+001 -1.2859e+002  1.1094e+001 51029 87682,87440,87362
 2.7000e+000 87636 -3.8740e+001 -1.3927e+002 -4.2624e+000 51029 87682,87362,87336
 2.7000e+000 87613 -5.6352e+001 -2.0370e+002 -3.1834e+000 51029 87440,87518,87466
 2.7000e+000 87590 -7.0846e+001 -1.3211e+002  1.4720e+001 51029 87362,87440,87414
 2.7000e+000 87567 -6.9632e+001 -1.2597e+002  3.0971e+001 51029 87362,87414,87388
 2.7000e+000 87544 -7.7751e+001 -1.7397e+002  6.1179e+000 51029 87466,87518,87492
 2.7000e+000 87708 -2.9960e+001 -1.4568e+002  3.3159e+000 51029 87518,87440,87682
 2.7000e+000 87731 -3.2908e+001 -1.6615e+002 -6.3985e+000 51029 87518,87682,87336
 2.7000e+000 87881 -8.1935e+001 -1.7983e+002  6.2410e+000 50739 87780,87832,87806
 2.7000e+000 87858 -9.2381e+001 -1.7402e+002 -7.8841e+000 50739 87754,87832,87780
 2.7000e+000 88468 -4.6775e+001 -1.1702e+002  6.7993e+000 50235 88171,88327,88197
 2.7000e+000 88445 -1.1487e+002 -1.1726e+002 -1.9388e+001 50235 88145,88327,88171
 2.7000e+000 88422  3.9432e+001 -5.5062e+001  3.3774e+001 50235 88275,88327,88301
 2.7000e+000 88399 -2.5592e+001 -8.3272e+001 -2.2176e+000 50235 88197,88327,88275
 2.7000e+000 88376  1.6969e+001 -1.0491e+002  5.1158e+000 50235 88197,88275,88223
 2.7000e+000 88353  6.1597e+000 -1.1161e+002  1.4810e+001 50235 88223,88275,88249
 2.7000e+000 88895 -7.0914e+001 -1.8559e+002  7.4700e+000 49873 88918,88728,88676
 2.7000e+000 88872 -6.0535e+001 -1.7862e+002 -1.0701e+000 49873 88918,88676,88624
 2.7000e+000 88849 -4.6325e+001 -1.5518e+002 -2.3861e+000 49873 88598,88754,88624
 2.7000e+000 88826 -3.6950e+001 -1.6824e+002 -3.1958e+000 49873 88624,88676,88650
 2.7000e+000 88803 -5.7132e+001 -2.2852e+002  9.6920e+000 49873 88676,88728,88702
 2.7000e+000 88780 -4.9722e+001 -1.3232e+002  1.0856e+001 49873 88572,88754,88598
 2.7000e+000 88944 -5.6969e+001 -1.8240e+002  2.7845e+000 49873 88754,88728,88918
 2.7000e+000 88967 -5.3537e+001 -1.8175e+002 -5.0030e+000 49873 88754,88918,88624
 2.7000e+000 89473 -1.1580e+002 -1.8178e+002 -2.2535e+001 49583 89176,89306,89202
 2.7000e+000 89450 -1.1508e+002 -1.7924e+002 -2.7903e+001 49583 89176,89332,89306
 2.7000e+000 89427 -6.8727e+001 -2.0035e+002  8.3039e+000 49583 89496,89228,89202
 2.7000e+000 89404 -6.7458e+001 -2.0528e+002  1.0214e+001 49583 89496,89202,89280
 2.7000e+000 89381 -1.4103e+002 -2.5588e+002 -4.4922e+001 49583 89202,89306,89280
 2.7000e+000 89358 -9.2186e+001 -1.7948e+002 -3.1262e+001 49583 89150,89332,89176
 2.7000e+000 89522 -6.2967e+001 -1.6821e+002  5.5676e+000 49583 89254,89228,89496
 2.7000e+000 89545 -7.6740e+001 -1.9628e+002  1.0190e+001 49583 89254,89496,89280
 2.7000e+000 89825  3.6607e+001 -1.8115e+002  9.6495e+000 49179 89701,89753,89727
 2.7000e+000 89802 -2.1168e+001 -1.5908e+002  1.4780e+001 49179 89675,89753,89701
 2.7000e+000 89779 -1.7154e+001 -1.4368e+002  6.0206e+000 49179 89848,89753,89675
 2.7000e+000 89874 -1.0085e+002 -1.6659e+002 -1.6072e+001 49179 89649,89753,89848
 2.7000e+000 90223 -4.4901e+001 -1.8825e+002 -1.4141e+001 48739 90024,90102,90076
 2.7000e+000 90200 -6.7884e+001 -1.9004e+002 -5.0288e+000 48739 90024,90128,90102
 2.7000e+000 90177 -3.5876e+001 -2.0230e+002 -7.4784e+000 48739 90024,90076,90050
 2.7000e+000 90154 -2.8908e+001 -1.7925e+002  1.5502e+001 48739 89998,90128,90024
 2.7000e+000 90603 -7.0476e+001 -1.7436e+002  3.1443e+001 48335 90381,90485,90459
 2.7000e+000 90580 -8.0180e+001 -1.8458e+002  2.6079e+001 48335 90355,90485,90381
 2.7000e+000 90557 -3.0437e+001 -6.3642e+001  2.1124e+001 48335 90381,90433,90407
 2.7000e+000 90534 -6.5474e+001 -1.7153e+002  3.2664e+001 48335 90381,90459,90433
 2.7000e+000 90511 -1.2001e+001 -1.3531e+002  5.6140e+001 48335 90329,90485,90355
 2.7000e+000 90753  1.2292e+001 -9.7859e+001  4.6892e+001 47824 90776,90652,90704
 2.7000e+000 90730 -1.2430e+001 -1.5455e+002  4.2565e+001 47824 90626,90704,90652
 2.7000e+000 90802 -2.7897e+001 -1.3141e+002  3.2519e+001 47824 90678,90652,90776
 2.7000e+000 91131 -4.9038e+001 -1.9101e+002  9.9283e+000 47427 91154,90958,90906
 2.7000e+000 91108 -9.5339e+001 -2.1009e+002  2.2097e+000 47427 91154,90906,91036
 2.7000e+000 91085 -8.9211e+001 -1.6393e+002 -1.5596e+001 47427 90958,91010,90984
 2.7000e+000 91062 -5.0322e+001 -1.7342e+002  1.2756e+001 47427 90906,90958,90932
 2.7000e+000 91180 -7.5991e+001 -1.8867e+002 -2.0656e+001 47427 91010,90958,91154
 2.7000e+000 91203 -1.2050e+002 -2.0793e+002 -2.9155e+001 47427 91010,91154,91036
 2.7000e+000 91583 -1.1725e+002 -2.1651e+002 -1.2527e+001 46873 91309,91439,91335
 2.7000e+000 91560 -1.2301e+002 -2.1907e+002 -1.0435e+001 46873 91309,91465,91439
 2.7000e+000 91537 -1.7395e+002 -2.5166e+002 -5.6666e+001 46873 91361,91439,91413
 2.7000e+000 91514 -1.2854e+002 -2.2343e+002 -2.5632e+001 46873 91335,91439,91361
 2.7000e+000 91491 -5.5588e+001 -2.0673e+002 -4.6526e+001 46873 91361,91413,91387
 2.7000e+000 91880 -5.1666e+001 -1.8822e+002 -5.3844e+000 46526 91606,91710,91658
 2.7000e+000 91857 -5.4446e+001 -2.0023e+002  2.5181e+000 46526 91606,91762,91710
 2.7000e+000 91834 -2.6676e+001 -1.8128e+002 -2.3978e+001 46526 91606,91658,91632
 2.7000e+000 91811 -6.5032e+001 -1.7321e+002  3.6466e+000 46526 91658,91710,91684
 2.7000e+000 91788 -2.9447e+001 -1.2669e+002  7.6129e+000 46526 91710,91762,91736
 2.7000e+000 92211 -2.9721e+000 -9.6827e+001 -5.0806e+000 45700 91986,92064,92038
 2.7000e+000 92188 -5.5863e+001 -1.3867e+002  1.5771e+001 45700 91986,92116,92064
 2.7000e+000 92165  1.7750e+001 -7.3026e+001 -3.8942e+001 45700 91986,92038,92012
 2.7000e+000 92142 -5.8013e+001 -1.4006e+002  1.4341e+001 45700 92064,92116,92090
 2.7000e+000 92766 -9.8058e+001 -1.7492e+002  6.6417e+000 45452 92446,92602,92576
 2.7000e+000 92743 -1.5524e+002 -1.7459e+002 -2.7501e+001 45452 92420,92602,92446
 2.7000e+000 92720 -1.1506e+002 -1.7644e+002  2.5551e+001 45452 92789,92524,92498
 2.7000e+000 92697 -1.3672e+002 -1.7716e+002  1.8326e+001 45452 92789,92498,92446
 2.7000e+000 92674 -1.0869e+002 -1.9284e+002 -4.5935e+000 45452 92524,92576,92550
 2.7000e+000 92651 -1.8063e+002 -1.8158e+002  1.0528e+002 45452 92446,92498,92472
 2.7000e+000 92628 -8.9457e+001 -2.1069e+002 -5.8557e+001 45452 92394,92602,92420
 2.7000e+000 92815 -1.0027e+002 -1.8413e+002  2.0061e+001 45452 92576,92524,92789
 2.7000e+000 92838 -1.1597e+002 -1.7955e+002  1.6069e+001 45452 92576,92789,92446
 2.7000e+000 92939 -6.5464e+001 -2.2205e+002 -4.8391e+001 44998 92861,92913,92887
 2.7000e+000 93319  4.0912e-001 -2.3550e+002  5.1339e+001 44601 93123,93201,93149
 2.7000e+000 93296 -5.8752e+001 -2.4403e+002 -2.5892e+001 44601 93045,93201,93123
 2.7000e+000 93273 -5.3080e+001 -1.3522e+002 -3.2935e+001 44601 93045,93123,93071
 2.7000e+000 93250 -4.9551e+001 -1.2714e+002 -2.3534e+001 44601 93071,93123,93097
 2.7000e+000 93227  8.4787e+000 -1.2268e+002  5.7188e+001 44601 93149,93201,93175
 2.7000e+000 93697 -3.9906e+001 -2.6112e+002  1.8534e+001 44026 93720,93553,93527
 2.7000e+000 93674 -8.8100e+001 -2.1635e+002  2.4228e+001 44026 93720,93527,93449
 2.7000e+000 93651 -1.0006e+002 -2.2575e+002 -5.0684e+000 44026 93449,93527,93501
 2.7000e+000 93628 -6.3257e+001 -1.7188e+002 -3.2417e+001 44026 93423,93579,93449
 2.7000e+000 93605 -1.9936e+001 -1.7233e+002  1.8060e+001 44026 93449,93501,93475
 2.7000e+000 93746 -3.8019e+000 -2.2938e+002  4.7135e+000 44026 93579,93553,93720
 2.7000e+000 93769 -5.5113e+001 -1.8598e+002  1.0856e+001 44026 93579,93720,93449
 2.7000e+000 94066 -3.9258e+001 -1.9305e+002 -3.1081e+001 43579 94089,93818,93792
 2.7000e+000 94043 -7.2590e+001 -2.1908e+002 -1.9782e+001 43579 94161,94089,93792
 2.7000e+000 94020 -7.1288e+001 -2.2047e+002 -9.4730e+000 43579 94161,93792,93948
 2.7000e+000 93997 -7.7593e+001 -1.6535e+002 -1.0344e+001 43579 94233,93870,93818
 2.7000e+000 93974 -4.3053e+001 -1.6825e+002  8.5152e-001 43579 93818,93870,93844
 2.7000e+000 94115 -7.5558e+001 -1.6701e+002 -2.2197e+001 43579 94233,93818,94089
 2.7000e+000 94138 -1.0390e+002 -1.9257e+002 -1.5141e+001 43579 93896,94089,93922
 2.7000e+000 94187 -6.5980e+001 -2.0317e+002 -2.0213e+001 43579 93922,94089,94161
 2.7000e+000 94210 -6.4563e+001 -2.0332e+002 -8.9203e+000 43579 93922,94161,93948
 2.7000e+000 94259 -9.0049e+001 -1.8780e+002 -5.3393e+000 43579 93896,93870,94233
 2.7000e+000 94282 -8.3403e+001 -1.8442e+002 -1.9006e+001 43579 93896,94233,94089
 2.7000e+000 94481 -6.2479e+001 -2.0033e+002 -1.4778e+000 43239 94305,94383,94357
 2.7000e+000 94458 -5.1685e+001 -1.8190e+002  2.3703e+001 43239 94305,94409,94383
 2.7000e+000 94435 -4.2234e+001 -2.0693e+002 -7.5895e+000 43239 94305,94357,94331
 2.7000e+000 94633 -4.3870e+001 -1.3934e+002  3.0843e+001 42827 94656,94532,94506
 2.7000e+000 94610 -4.8372e+001 -1.4828e+002  4.5820e+001 42827 94728,94656,94506
 2.7000e+000 94682 -8.0288e+000 -1.5133e+002  3.7754e+001 42827 94558,94532,94656
 2.7000e+000 94705  1.8653e+001 -1.6278e+002  2.5051e+001 42827 94988,94860,94656
 2.7000e+000 94754 -2.0004e+001 -1.4014e+002  1.4552e+001 42827 94988,94656,94728
 2.7000e+000 94886  6.9034e+001 -1.4317e+002  2.4780e+001 42827 94558,94656,94860
 2.7000e+000 95014  5.0678e+001 -1.4342e+002  1.6638e+001 42827 94584,94860,94988
 2.7000e+000 95037  1.8899e+001 -1.2004e+002  7.3715e+000 42827 94584,94988,94728
 2.7000e+000 95236 -6.2222e+001 -1.9613e+002  6.3378e+000 42537 95259,95112,95060
 2.7000e+000 95213 -3.1057e+001 -2.1245e+002  1.3180e+001 42537 95259,95060,95164
 2.7000e+000 95190 -4.9187e+001 -1.9013e+002 -1.0559e+001 42537 95060,95112,95086
 2.7000e+000 95285 -4.1277e+001 -1.9092e+002  1.9978e+001 42537 95138,95112,95259
 2.7000e+000 95308 -1.0209e+001 -1.9931e+002  3.1174e+001 42537 95138,95259,95164
 2.7000e+000 95816 -7.1788e+001 -2.0704e+002 -1.3316e+001 41969 95493,95597,95519
 2.7000e+000 95793 -1.1545e+002 -2.0454e+002  2.3387e+001 41969 95493,95649,95597
 2.7000e+000 95770 -9.7250e+001 -1.8644e+002  1.0480e+001 41969 95493,95675,95649
 2.7000e+000 95747 -1.0615e+002 -2.6496e+002  1.7135e+001 41969 95597,95649,95623
 2.7000e+000 95724 -1.2411e+002 -2.1300e+002 -1.2129e+001 41969 95519,95597,95571
 2.7000e+000 95701 -1.1240e+002 -2.0190e+002 -5.8501e+001 41969 95519,95571,95545
 2.7000e+000 96371 -8.5894e+001 -2.1477e+002  2.7198e+001 41579 96025,96207,96181
 2.7000e+000 96348  3.9810e+001 -1.5819e+002 -5.5016e-001 41579 95999,96207,96025
 2.7000e+000 96325 -9.9021e+001 -1.6746e+002 -1.7365e+001 41579 96129,96181,96155
 2.7000e+000 96302 -3.5933e+001 -1.4934e+002  1.9614e+000 41579 96025,96181,96129
 2.7000e+000 96279 -8.0430e+001 -2.2315e+002  2.8915e+001 41579 96025,96129,96051
 2.7000e+000 96256 -9.8168e+001 -2.1106e+002  3.1390e+001 41579 96051,96103,96077
 2.7000e+000 96233 -3.7609e+001 -1.6067e+002  2.1644e+000 41579 96051,96129,96103
 2.7000e+000 96877 -2.4206e+001 -1.3014e+002 -1.7212e+001 41182 96972,96900,96632
 2.7000e+000 96854 -2.1197e+001 -9.2558e+001 -1.3901e+001 41182 96900,96554,96736
 2.7000e+000 96831 -2.4125e+001 -1.3175e+002 -1.5453e+001 41182 96972,96632,96580
 2.7000e+000 96808 -3.4612e+001 -1.3121e+002  5.6383e+000 41182 96632,96684,96658
 2.7000e+000 96785 -3.4621e+001 -1.3978e+002  1.0891e+001 41182 96684,96736,96710
 2.7000e+000 96762 -7.9878e+001 -1.7735e+002  2.3609e+001 41182 96580,96632,96606
 2.7000e+000 96926 -1.5226e+001 -1.4191e+002 -1.4263e+001 41182 96684,96632,96900
 2.7000e+000 96949 -2.3372e+001 -1.2683e+002 -2.3472e+001 41182 96684,96900,96736
 2.7000e+000 96998 -2.6165e+001 -1.2969e+002 -1.1769e+001 41182 96554,96900,96972
 2.7000e+000 97021 -2.8252e+001 -1.3540e+002 -9.8627e+000 41182 96554,96972,96580
 2.7000e+000 97576 -1.0706e+002 -3.2978e+002 -5.8941e+001 40678 97230,97412,97282
 2.7000e+000 97553  1.7158e+001 -2.6514e+002  1.6747e+001 40678 97204,97412,97230
 2.7000e+000 97530 -6.1011e+001 -2.5191e+002 -4.2456e+001 40678 97282,97360,97308
 2.7000e+000 97507 -4.1698e+001 -2.4071e+002 -2.6266e+001 40678 97282,97412,97360
 2.7000e+000 97484 -3.5012e+001 -1.8253e+002 -3.3079e+001 40678 97308,97360,97334
 2.7000e+000 97461 -1.1185e+002 -2.9673e+002  4.5710e+000 40678 97360,97412,97386
 2.7000e+000 97438 -4.7637e+001 -2.2603e+002 -2.4564e+001 40678 97230,97282,97256
 2.7000e+000 97976 -9.6369e+001 -1.5562e+002 -3.2458e+000 40244 97702,97832,97754
 2.7000e+000 97953 -7.8378e+001 -1.4429e+002 -9.0829e+000 40244 97702,97858,97832
 2.7000e+000 97930 -9.8546e+001 -1.7326e+002 -4.2048e+001 40244 97702,97754,97728
 2.7000e+000 97907 -7.7528e+001 -1.7227e+002  1.9922e+001 40244 97780,97832,97806
 2.7000e+000 97884 -8.4731e+001 -1.5002e+002 -1.5817e+000 40244 97754,97832,97780
 2.7000e+000 98482 -6.9950e+001 -1.7439e+002  1.9412e+001 39690 98505,98185,98159
 2.7000e+000 98459 -6.7459e+001 -1.7372e+002  2.0591e+001 39690 98505,98159,98289
 2.7000e+000 98436 -1.2419e+002 -2.4143e+002  7.6659e+001 39690 98159,98315,98289
 2.7000e+000 98413 -5.6353e+001 -1.6432e+002  2.5643e+001 39690 98211,98289,98263
 2.7000e+000 98390 -3.6157e+001 -1.0339e+002  1.5589e+001 39690 98211,98263,98237
 2.7000e+000 98367 -3.0197e+001 -1.5228e+002  3.6353e+001 39690 98159,98341,98315
 2.7000e+000 98531 -7.4800e+001 -1.7428e+002  1.7645e+001 39690 98211,98185,98505
 2.7000e+000 98554 -7.0176e+001 -1.7100e+002  1.9612e+001 39690 98211,98505,98289
 2.7000e+000 99109 -5.5421e+001 -1.3977e+002 -8.7926e+000 39072 99132,98867,98789
 2.7000e+000 99086 -5.7678e+001 -1.4297e+002 -1.0760e+001 39072 99132,98789,98763
 2.7000e+000 99063 -8.0233e+001 -2.2490e+002  2.2872e+001 39072 98867,98945,98919
 2.7000e+000 99040 -4.8001e+001 -1.4957e+002 -1.0155e+000 39072 98789,98867,98841
 2.7000e+000 99017 -1.0388e+002 -1.7007e+002  6.6999e+000 39072 98867,98919,98893
 2.7000e+000 98994 -7.7987e+001 -1.3838e+002  3.1406e+001 39072 98789,98841,98815
 2.7000e+000 98971 -7.9518e+001 -1.5851e+002 -1.3260e+001 39072 98737,98945,98763
 2.7000e+000 99158 -5.3385e+001 -1.4379e+002 -9.9301e+000 39072 98945,98867,99132
 2.7000e+000 99181 -5.4595e+001 -1.4735e+002 -1.0899e+001 39072 98945,99132,98763
 2.7000e+000 99510 -4.4485e+001 -1.4020e+002  7.7223e+000 38668 99311,99389,99363
 2.7000e+000 99487 -4.7333e+001 -1.4260e+002  5.7592e+000 38668 99285,99389,99311
 2.7000e+000 99464 -9.0563e+001 -1.7096e+002  2.3614e+001 38668 99285,99415,99389
 2.7000e+000 99441 -4.3024e+001 -1.4101e+002  8.2234e+000 38668 99311,99363,99337
 2.7000e+000 99758 -2.5135e+001 -2.1039e+002  3.5873e+001 38164 99781,99611,99585
 2.7000e+000 99735 -3.8367e+001 -2.1398e+002  3.2886e+001 38164 99781,99585,99533
 2.7000e+000 99712 -1.6931e+001 -1.7624e+002  1.3179e+001 38164 99611,99663,99637
 2.7000e+000 99689 -1.3187e+001 -2.1209e+002 -1.1045e+001 38164 99533,99585,99559
 2.7000e+000 99807 -1.8514e+001 -2.1624e+002  3.2462e+001 38164 99663,99611,99781
 2.7000e+000 99830 -2.6517e+001 -2.1573e+002  3.1984e+001 38164 99663,99781,99533
 2.7000e+000 100232 -7.2436e+001 -1.7824e+002  3.4279e+000 37702 99984,100114,100088
 2.7000e+000 100209 -5.8859e+001 -1.9165e+002  2.0223e+001 37702 99958,100114,99984
 2.7000e+000 100186 -1.0764e+002 -2.2175e+002 -1.3576e+001 37702 100010,100088,100036
 2.7000e+000 100163 -7.3873e+001 -1.7918e+002  1.0530e+000 37702 99984,100088,100010
 2.7000e+000 100140 -6.8208e+001 -1.6159e+002 -4.2393e+001 37702 100036,100088,100062
 2.7000e+000 100640 -1.3708e+002 -1.9474e+002  2.2813e+001 37262 100493,100545,100519
 2.7000e+000 100617 -1.1782e+002 -2.1399e+002  1.3223e+001 37262 100441,100545,100493
 2.7000e+000 100594 -6.6319e+001 -1.7136e+002 -2.1784e+001 37262 100415,100545,100441
 2.7000e+000 100571 -1.4138e+002 -2.4725e+002 -1.1650e+001 37262 100441,100493,100467
 2.7000e+000 101146 -9.2310e+001 -1.5463e+002 -4.1563e-001 36872 100823,100979,100849
 2.7000e+000 101123 -8.9930e+001 -1.4396e+002 -1.3459e+001 36872 100823,101005,100979
 2.7000e+000 101100 -9.4596e+001 -2.2149e+002  3.0114e+001 36872 101169,100901,100849
 2.7000e+000 101077 -7.4549e+001 -1.7908e+002  1.7777e+001 36872 101169,100849,100979
 2.7000e+000 101054 -4.9554e+001 -1.8294e+002 -4.9333e+000 36872 100927,100979,100953
 2.7000e+000 101031 -5.0136e+001 -2.4980e+002  4.2705e+001 36872 100849,100901,100875
 2.7000e+000 101195 -6.8302e+001 -2.3408e+002  3.7981e+000 36872 100927,100901,101169
 2.7000e+000 101218 -5.6092e+001 -2.1145e+002 -6.1018e+000 36872 100927,101169,100979
 2.7000e+000 101773 -1.1775e+002 -1.7858e+002  2.7615e+001 36418 101479,101609,101583
 2.7000e+000 101750 -1.1645e+002 -1.9365e+002  3.3805e+001 36418 101453,101609,101479
 2.7000e+000 101727 -7.6525e+001 -1.8663e+002 -1.2519e-001 36418 101796,101531,101479
 2.7000e+000 101704 -1.0794e+002 -2.0562e+002  1.1043e+001 36418 101796,101479,101583
 2.7000e+000 101681 -6.5265e+001 -1.5823e+002 -4.2241e+000 36418 101479,101531,101505
 2.7000e+000 101658 -6.0319e+000 -1.8125e+002 -6.4009e+000 36418 101401,101609,101453
 2.7000e+000 101635 -3.5860e+001 -2.1991e+002 -2.1833e+001 36418 101401,101453,101427
 2.7000e+000 101822 -8.5053e+001 -1.7287e+002 -3.0616e+001 36418 101557,101531,101796
 2.7000e+000 101845 -1.2434e+002 -1.8443e+002 -2.1644e+001 36418 101557,101796,101583
 2.7000e+000 102174  3.7508e+001 -8.5470e+001 -3.5754e+001 35914 101949,102053,101975
 2.7000e+000 102151 -6.3647e+001 -1.1833e+002 -1.1780e+001 35914 101949,102079,102053
 2.7000e+000 102128 -4.5873e+001 -1.2532e+002 -6.6480e+000 35914 101975,102053,102027
 2.7000e+000 102105  3.8754e+000 -8.1853e+001 -3.2409e+001 35914 101975,102027,102001
 2.7000e+000 102631 -3.5282e+001 -1.8137e+002  3.5257e+000 35574 102383,102513,102487
 2.7000e+000 102608 -2.2755e+001 -1.8656e+002  3.5694e+000 35574 102357,102513,102383
 2.7000e+000 102585 -4.9776e+001 -1.8537e+002  8.4770e+000 35574 102409,102487,102435
 2.7000e+000 102562 -5.9421e+001 -1.9212e+002  5.5217e+000 35574 102383,102487,102409
 2.7000e+000 102539 -6.8466e+001 -1.9628e+002 -1.0842e+001 35574 102435,102487,102461
 2.7000e+000 103009 -9.6949e+001 -1.7196e+002 -1.6259e+001 35170 102761,102865,102787
 2.7000e+000 102986 -5.2110e+001 -1.4817e+002  1.0835e+001 35170 102761,102891,102865
 2.7000e+000 102963 -8.4743e+001 -1.7330e+002 -5.7793e+000 35170 102787,102865,102813
 2.7000e+000 102940 -4.3315e+001 -1.3935e+002  1.4433e+001 35170 102735,102891,102761
 2.7000e+000 102917 -8.4507e+001 -1.7360e+002 -8.2315e+000 35170 102813,102865,102839
 2.7000e+000 103257 -2.6765e+001 -1.4292e+002 -1.7281e+001 34659 103280,103058,103032
 2.7000e+000 103234 -2.4247e+001 -1.4804e+002 -2.3799e+001 34659 103280,103032,103162
 2.7000e+000 103211 -1.9211e+001 -1.3275e+002 -2.2510e+001 34659 103084,103162,103110
 2.7000e+000 103188 -4.3125e+001 -1.6858e+002 -5.3839e+000 34659 103110,103162,103136
 2.7000e+000 103306 -1.8514e+001 -1.3657e+002 -1.4521e+001 34659 103084,103058,103280
 2.7000e+000 103329 -1.9822e+001 -1.4414e+002 -2.2077e+001 34659 103084,103280,103162
 2.7000e+000 103837 -1.2843e+001 -1.9100e+002  8.4166e+000 34247 103860,103566,103540
 2.7000e+000 103814 -2.6131e+001 -1.9324e+002  2.0667e+000 34247 103932,103860,103540
 2.7000e+000 103791 -1.9331e+001 -2.1697e+002 -2.1842e+001 34247 103932,103540,103670
 2.7000e+000 103768 -1.8958e+001 -1.7750e+002  5.6091e+000 34247 103566,103618,103592
 2.7000e+000 103745 -7.9519e+001 -1.8654e+002 -2.9216e+001 34247 103540,103696,103670
 2.7000e+000 103722 -1.0470e+002 -2.0552e+002  2.8613e+001 34247 103514,103696,103540
 2.7000e+000 103886 -4.0666e+001 -1.9079e+002 -1.3536e+000 34247 103618,103566,103860
 2.7000e+000 103909 -4.4542e+001 -2.0519e+002  6.5971e+000 34247 103618,103860,103644
 2.7000e+000 103958 -4.6636e+001 -2.5019e+002 -3.4513e+000 34247 103644,103860,103932
 2.7000e+000 103981 -4.0102e+001 -2.7228e+002 -2.8553e+001 34247 103644,103932,103670
 2.7000e+000 104300 -9.2397e+001 -1.9803e+002 -9.3158e+000 33843 104052,104182,104156
 2.7000e+000 104277 -1.1687e+002 -1.8196e+002 -2.5493e+000 33843 104026,104182,104052
 2.7000e+000 104254 -9.3936e+001 -2.2745e+002  4.6950e+000 33843 104078,104156,104130
 2.7000e+000 104231 -1.1517e+002 -2.1731e+002 -7.3737e-001 33843 104052,104156,104078
 2.7000e+000 104208 -1.4298e+002 -2.4045e+002  6.2094e+000 33843 104078,104130,104104
 2.7000e+000 104499 -5.0052e+001 -2.0444e+002 -1.9832e+001 33282 104594,104522,104375
 2.7000e+000 104476 -3.1307e+001 -2.1048e+002  8.3416e+000 33282 104522,104323,104427
 2.7000e+000 104453 -3.8033e+001 -2.1381e+002 -1.8275e+001 33282 104594,104375,104349
 2.7000e+000 104548 -6.3232e+001 -1.7239e+002 -1.7404e+000 33282 104401,104375,104522
 2.7000e+000 104571 -2.2736e+001 -1.6663e+002  2.7925e+001 33282 104401,104522,104427
 2.7000e+000 104620 -3.7144e+001 -1.8612e+002 -1.3779e+001 33282 104323,104522,104594
 2.7000e+000 104643 -3.0073e+001 -2.0074e+002 -1.4275e+001 33282 104323,104594,104349
 2.7000e+000 104942 -9.4567e+001 -2.3593e+002  3.1091e+001 32728 104694,104772,104720
 2.7000e+000 104919 -7.5020e+001 -2.1560e+002  1.2009e+001 32728 104694,104824,104772
 2.7000e+000 104896 -1.2226e+002 -2.1813e+002  3.2868e+001 32728 104720,104772,104746
 2.7000e+000 104873 -5.9902e+001 -2.4504e+002  1.4102e+001 32728 104772,104824,104798
 2.7000e+000 104850 -6.0257e+001 -2.1062e+002  1.3247e+001 32728 104668,104824,104694
 2.7000e+000 105373 -7.4854e+001 -2.3850e+002 -9.9750e+000 32274 105396,105102,105076
 2.7000e+000 105350 -8.4023e+001 -2.6283e+002 -2.3775e+000 32274 105396,105076,105206
 2.7000e+000 105327 -1.0974e+002 -2.6688e+002  1.6691e+001 32274 105154,105206,105180
 2.7000e+000 105304 -2.8275e+001 -2.4880e+002 -2.2031e+001 32274 105076,105232,105206
 2.7000e+000 105281 -9.6581e+001 -2.1519e+002 -3.5356e+001 32274 105102,105154,105128
 2.7000e+000 105258 -1.3715e+002 -2.0762e+002 -4.5670e+001 32274 105050,105232,105076
 2.7000e+000 105422 -9.0210e+001 -2.1173e+002 -9.1908e+000 32274 105154,105102,105396
 2.7000e+000 105445 -9.8336e+001 -2.3624e+002 -3.2623e+000 32274 105154,105396,105206
 2.7000e+000 105644 -7.8332e+001 -2.2283e+002 -2.7209e+000 31620 105468,105546,105520
 2.7000e+000 105621 -6.5009e+001 -2.2975e+002 -9.1420e+000 31620 105468,105572,105546
 2.7000e+000 105598 -7.8554e+001 -2.4241e+002  1.3501e+001 31620 105468,105520,105494
 2.7000e+000 105794 -3.1964e+001 -2.1337e+002 -7.2880e+000 31158 105889,105817,105693
 2.7000e+000 105771 -4.7685e+001 -1.8644e+002 -1.3583e+001 31158 105817,105667,105745
 2.7000e+000 105843 -4.0449e+001 -2.6527e+002 -3.2140e+000 31158 105719,105693,105817
 2.7000e+000 105866 -2.8630e+001 -2.2407e+002 -1.2538e+001 31158 105719,105817,105745
 2.7000e+000 105915 -6.6439e+001 -2.2815e+002 -7.6834e+000 31158 105667,105817,105889
 2.7000e+000 106270 -1.0372e+002 -2.0391e+002  5.8451e-001 30818 106293,106071,106045
 2.7000e+000 106247 -1.1850e+002 -2.3625e+002 -2.6678e+001 30818 106293,106045,106175
 2.7000e+000 106224 -5.0337e+001 -1.9365e+002  1.0309e+001 30818 106123,106175,106149
 2.7000e+000 106201 -1.0070e+002 -2.0153e+002  1.5287e+001 30818 106071,106123,106097
 2.7000e+000 106319 -9.3202e+001 -1.9082e+002  9.3976e+000 30818 106123,106071,106293
 2.7000e+000 106342 -8.7979e+001 -2.0716e+002 -1.3476e+001 30818 106123,106293,106175
 2.7000e+000 106492 -8.6036e+001 -2.0192e+002  4.0594e+001 30414 106645,106391,106365
 2.7000e+000 106469 -4.0507e+001 -2.0041e+002  5.6544e+001 30414 106515,106365,106443
 2.7000e+000 106541 -5.9247e+001 -2.0795e+002  4.4551e+001 30414 106645,106365,106515
 2.7000e+000 106671 -4.7974e+001 -2.3426e+002  7.0624e+001 30414 106417,106391,106645
 2.7000e+000 106694  1.4409e+001 -2.1800e+002  6.1615e+001 30414 106417,106645,106515
 2.7000e+000 106942 -4.2650e+001 -2.8691e+002 -7.2363e+000 29910 106965,106795,106769
 2.7000e+000 106919 -3.1412e+001 -2.5727e+002  2.1329e+000 29910 106965,106769,106717
 2.7000e+000 106896 -4.4113e+001 -2.1472e+002 -2.8755e+001 29910 106795,106847,106821
 2.7000e+000 106873 -1.2078e+001 -2.2317e+002  1.6931e+001 29910 106717,106769,106743
 2.7000e+000 106991 -6.3451e+001 -2.5298e+002 -1.6999e+000 29910 106847,106795,106965
 2.7000e+000 107014 -4.6076e+001 -2.1399e+002  7.9015e+000 29910 106847,106965,106717
 2.7000e+000 107213 -6.4829e+001 -2.2385e+002  8.7007e+000 29413 107236,107063,107037
 2.7000e+000 107190 -5.2223e+001 -2.7293e+002  2.6594e+001 29413 107236,107037,107141
 2.7000e+000 107167 -7.0390e+001 -1.5362e+002  3.4527e+001 29413 107063,107115,107089
 2.7000e+000 107262 -5.7176e+001 -1.9352e+002  6.9997e+000 29413 107115,107063,107236
 2.7000e+000 107285 -3.7190e+001 -2.2958e+002  2.7030e+001 29413 107115,107236,107141
 2.7000e+000 107486 -2.8931e+001 -1.9989e+002  1.8250e+001 29009 107336,107388,107362
 2.7000e+000 107463 -1.5658e+001 -1.9321e+002  6.1436e+000 29009 107310,107388,107336
 2.7000e+000 107440 -2.8050e+001 -1.8459e+002  9.1341e+000 29009 107310,107414,107388
 2.7000e+000 107736 -8.1158e+001 -2.2546e+002 -3.5837e+000 28491 107537,107615,107563
 2.7000e+000 107713 -7.2284e+001 -2.2151e+002 -2.7410e+000 28491 107537,107641,107615
 2.7000e+000 107690 -1.9569e+001 -2.2263e+002  1.5278e+001 28491 107563,107615,107589
 2.7000e+000 107667 -8.2430e+001 -2.2394e+002 -5.5977e+000 28491 107511,107641,107537
 2.7000e+000 108118 -6.0095e+001 -2.2364e+002  5.2638e+000 27980 108141,107922,107844
 2.7000e+000 108095 -4.6797e+001 -2.4488e+002  4.3330e+000 27980 108141,107844,108000
 2.7000e+000 108072 -5.8016e+001 -2.2048e+002 -4.3711e+000 27980 107844,107922,107870
 2.7000e+000 108049 -4.7088e+001 -1.9260e+002 -7.8556e+000 27980 107870,107922,107896
 2.7000e+000 108026 -7.7586e+001 -1.8374e+002  3.9999e+001 27980 107922,107974,107948
 2.7000e+000 108167 -5.0794e+001 -2.2408e+002  9.6466e+000 27980 107974,107922,108141
 2.7000e+000 108190 -1.4833e+001 -2.2418e+002  1.5113e+001 27980 107974,108141,108000
 2.7000e+000 108745 -2.9406e+001 -1.5001e+002 -3.0192e+000 27376 108840,108768,108477
 2.7000e+000 108722 -4.9511e+001 -1.8373e+002 -3.4030e+001 27376 108768,108373,108581
 2.7000e+000 108699 -4.5528e+001 -1.3126e+002  2.6646e+001 27376 108840,108477,108451
 2.7000e+000 108676 -1.0767e+002 -1.5734e+002 -6.5240e+000 27376 108373,108451,108399
 2.7000e+000 108653 -4.6430e+001 -1.8622e+002  2.2497e+001 27376 108503,108581,108529
 2.7000e+000 108630 -5.1614e+001 -1.8208e+002  2.3455e+001 27376 108529,108581,108555
 2.7000e+000 108607 -1.2272e+002 -1.7252e+002  1.2265e+001 27376 108399,108451,108425
 2.7000e+000 108794 -4.5667e+001 -1.9842e+002 -3.2438e-002 27376 108503,108477,108768
 2.7000e+000 108817 -1.4477e+001 -1.8240e+002 -6.7585e+000 27376 108503,108768,108581
 2.7000e+000 108866 -8.9591e+001 -1.8417e+002 -1.6679e+001 27376 108373,108768,108840
 2.7000e+000 108889 -8.6613e+001 -1.5926e+002  1.4289e+001 27376 108373,108840,108451
 2.7000e+000 109186 -8.5896e+001 -2.3737e+002  2.4956e+001 26722 109209,108938,108912
 2.7000e+000 109163 -8.0074e+001 -2.2190e+002  1.8882e+001 26722 109281,109209,108912
 2.7000e+000 109140 -7.6023e+001 -2.1767e+002  1.7044e+001 26722 109281,108912,109042
 2.7000e+000 109117 -6.2680e+001 -2.4338e+002  1.5864e+001 26722 108938,108990,108964
 2.7000e+000 109094 -1.1072e+002 -1.9400e+002  7.9343e+000 26722 108912,109068,109042
 2.7000e+000 109235 -6.2977e+001 -2.2669e+002  2.2001e+001 26722 108990,108938,109209
 2.7000e+000 109258 -7.4821e+001 -2.4289e+002  1.6828e+001 26722 108990,109209,109016
 2.7000e+000 109307 -6.9562e+001 -2.2890e+002  9.5191e+000 26722 109016,109209,109281
 2.7000e+000 109330 -6.2862e+001 -2.2081e+002  6.6000e+000 26722 109016,109281,109042
 2.7000e+000 109732 -9.0657e+001 -1.9328e+002 -3.9962e+000 26310 109458,109588,109484
 2.7000e+000 109709 -8.4166e+001 -2.1143e+002 -2.0470e+001 26310 109458,109614,109588
 2.7000e+000 109686 -1.3033e+002 -2.2254e+002  2.8814e+001 26310 109510,109562,109536
 2.7000e+000 109663 -1.3086e+002 -2.1225e+002  1.2129e+001 26310 109484,109562,109510
 2.7000e+000 109640 -9.5070e+001 -1.9626e+002 -1.8164e+000 26310 109484,109588,109562
 2.7000e+000 110159 -5.9066e+001 -1.9887e+002 -4.6390e+000 25642 110182,109940,109914
 2.7000e+000 110136 -5.4050e+001 -2.2655e+002  2.6548e+001 25642 110182,109914,109888
 2.7000e+000 110113 -6.4517e+001 -2.4325e+002 -3.1555e+001 25642 109966,110018,109992
 2.7000e+000 110090 -7.5143e+001 -2.3633e+002  1.8013e+001 25642 110254,109966,109940
 2.7000e+000 110067 -1.0520e+002 -2.2294e+002  1.0934e+001 25642 109862,110018,109888
 2.7000e+000 110044 -1.0559e+002 -1.8974e+002  2.7622e+001 25642 109836,110018,109862
 2.7000e+000 110208 -7.6142e+001 -2.1530e+002  1.3548e+001 25642 110254,109940,110182
 2.7000e+000 110231 -8.4979e+001 -2.2980e+002  2.8432e+001 25642 110018,110182,109888
 2.7000e+000 110280 -6.7994e+001 -2.6194e+002  1.3719e+001 25642 110018,109966,110254
 2.7000e+000 110303 -7.3247e+001 -2.4613e+002  9.7825e+000 25642 110018,110254,110182
 2.7000e+000 110632 -9.1728e+001 -1.9566e+002 -1.5340e+001 25188 110407,110485,110433
 2.7000e+000 110609 -1.1384e+002 -2.0119e+002 -8.7675e+000 25188 110407,110537,110485
 2.7000e+000 110586 -1.1487e+002 -2.0753e+002 -4.1149e+001 25188 110433,110485,110459
 2.7000e+000 110563 -1.0604e+002 -2.1198e+002  1.8687e+001 25188 110485,110537,110511
 2.7000e+000 110831 -3.0166e+001 -2.0316e+002  4.9368e+000 24726 110854,110707,110655
 2.7000e+000 110808 -2.5651e+001 -2.1628e+002  1.7196e+001 24726 110854,110655,110759
 2.7000e+000 110785 -2.9932e+001 -2.0453e+002  4.4572e+000 24726 110655,110707,110681
 2.7000e+000 110880 -2.6126e+001 -1.9052e+002  4.7930e+000 24726 110733,110707,110854
 2.7000e+000 110903 -1.8599e+001 -1.9776e+002  1.7756e+001 24726 110733,110854,110759
 2.7000e+000 111234 -6.0552e+000 -1.3735e+002 -1.5805e+001 24222 111257,111087,111035
 2.7000e+000 111211  3.3002e+001 -1.2008e+002  1.6223e+000 24222 111257,111035,111009
 2.7000e+000 111188  4.3840e+001 -8.0546e+001 -4.0354e+001 24222 111035,111087,111061
 2.7000e+000 111165 -2.5064e+001 -1.1101e+002  2.3760e+000 24222 111087,111139,111113
 2.7000e+000 111283 -2.7606e+001 -1.0941e+002 -8.2478e-001 24222 111139,111087,111257
 2.7000e+000 111306 -1.1435e+001 -9.1998e+001  1.0266e+001 24222 111139,111257,111009
 2.7000e+000 111625 -3.5501e+001 -2.0356e+002 -1.1606e+001 23732 111648,111481,111455
 2.7000e+000 111602 -3.5040e+001 -2.0555e+002 -1.2098e+001 23732 111648,111455,111377
 2.7000e+000 111579  1.9724e+001 -1.1020e+002  2.1009e+001 23732 111377,111429,111403
 2.7000e+000 111556 -1.8254e+001 -2.0821e+002 -5.0329e+000 23732 111377,111455,111429
 2.7000e+000 111533 -2.9020e+001 -1.8278e+002 -5.2897e+000 23732 111351,111507,111377
 2.7000e+000 111674 -3.4082e+001 -1.9975e+002 -9.2825e+000 23732 111507,111481,111648
 2.7000e+000 111697 -3.5852e+001 -2.0427e+002 -1.0193e+001 23732 111507,111648,111377
 2.7000e+000 112156 -5.9007e+001 -2.2732e+002  1.2503e+001 23278 112179,111908,111882
 2.7000e+000 112133 -5.7490e+001 -2.1368e+002  3.3119e+000 23278 112179,111882,112012
 2.7000e+000 112110 -3.1366e+001 -2.4490e+002  1.3260e+000 23278 111908,111960,111934
 2.7000e+000 112087  1.0277e+001 -1.9169e+002 -2.1330e+001 23278 111882,112038,112012
 2.7000e+000 112064 -3.3880e+001 -1.9409e+002 -4.3455e+000 23278 111960,112012,111986
 2.7000e+000 112205 -5.4838e+001 -2.2008e+002  1.3869e+000 23278 111960,111908,112179
 2.7000e+000 112228 -4.7698e+001 -2.0395e+002 -8.7903e+000 23278 111960,112179,112012
 2.7000e+000 112685 -1.4731e+002 -3.2287e+002 -3.1151e+001 22938 112489,112567,112541
 2.7000e+000 112662 -1.2812e+002 -2.7951e+002 -2.7921e+001 22938 112437,112567,112489
 2.7000e+000 112639 -8.8194e+001 -2.4342e+002 -4.2336e+000 22938 112489,112541,112515
 2.7000e+000 112616 -1.4407e+002 -2.6832e+002 -2.5049e+001 22938 112411,112567,112437
 2.7000e+000 112593 -1.1529e+002 -3.4870e+002 -8.4570e+000 22938 112437,112489,112463
 2.7000e+000 113191  2.7189e+000 -2.0728e+002 -3.3818e+001 22534 113214,112998,112946
 2.7000e+000 113168 -5.1571e+001 -2.0083e+002 -1.0863e+001 22534 113286,113214,112946
 2.7000e+000 113145 -4.0115e+001 -1.9934e+002 -9.6630e+000 22534 113286,112946,112920
 2.7000e+000 113122 -1.0836e+002 -1.9137e+002 -3.3994e+001 22534 113358,113024,112998
 2.7000e+000 113099 -5.7420e+001 -1.9868e+002 -9.9485e-001 22534 112868,113050,112894
 2.7000e+000 113076 -7.5263e+001 -4.0251e+002 -7.4479e+001 22534 112946,112998,112972
 2.7000e+000 113240 -8.1824e+001 -2.3261e+002 -3.7789e+001 22534 113358,112998,113214
 2.7000e+000 113263 -5.5726e+001 -2.1520e+002 -2.9197e+000 22534 113050,113214,112894
 2.7000e+000 113312 -3.4183e+001 -2.0523e+002 -8.3592e+000 22534 112894,113214,113286
 2.7000e+000 113335 -1.9881e+001 -2.0193e+002 -9.7272e+000 22534 112894,113286,112920
 2.7000e+000 113384 -7.6380e+001 -1.6417e+002 -1.8184e+001 22534 113050,113024,113358
 2.7000e+000 113407 -3.5205e+001 -1.9385e+002 -1.8779e+001 22534 113050,113358,113214
 2.7000e+000 113785 -1.0661e+002 -2.7209e+002  6.0573e+000 21978 113808,113615,113511
 2.7000e+000 113762 -8.7259e+001 -2.7645e+002  1.9181e+001 21978 113808,113511,113667
 2.7000e+000 113739 -6.5000e+001 -2.3199e+002 -1.0952e+001 21978 113511,113615,113537
 2.7000e+000 113716  2.3343e+001 -2.0590e+002 -2.0809e+001 21978 113537,113615,113589
 2.7000e+000 113693 -2.9813e+001 -2.9644e+002  5.0439e+000 21978 113537,113589,113563
 2.7000e+000 113834 -1.0947e+002 -2.7089e+002  3.0328e+001 21978 113641,113615,113808
 2.7000e+000 113857 -5.8469e+001 -2.5144e+002  4.5935e+001 21978 113641,113808,113667
 2.7000e+000 114284 -8.2725e+001 -2.2600e+002  8.2768e+000 21517 114013,114117,114039
 2.7000e+000 114261 -8.8642e+001 -2.2407e+002  1.9026e+001 21517 113961,114117,114013
 2.7000e+000 114238 -8.5419e+001 -2.3058e+002  1.9097e+001 21517 113961,114013,113987
 2.7000e+000 114215 -1.2997e+002 -2.4965e+002 -1.4860e+001 21517 114039,114117,114091
 2.7000e+000 114192 -9.2773e+001 -1.9338e+002  2.3751e+001 21517 113961,114143,114117
 2.7000e+000 114169  5.4386e+000 -1.9949e+002 -1.3206e+001 21517 114039,114091,114065
 2.7000e+000 114581 -4.7589e+001 -2.7387e+002  3.1019e+000 21027 114359,114463,114437
 2.7000e+000 114558 -2.7244e+001 -2.4864e+002  3.2540e+001 21027 114333,114463,114359
 2.7000e+000 114535 -2.2124e+001 -2.5135e+002 -6.5365e+000 21027 114359,114437,114385
 2.7000e+000 114512 -1.8318e+001 -2.4682e+002  2.6331e+001 21027 114307,114463,114333
 2.7000e+000 114489  3.4240e+001 -2.3356e+002 -1.1838e+001 21027 114385,114437,114411
 2.7000e+000 114912 -1.0571e+002 -2.3046e+002  4.0168e+000 20623 114713,114791,114765
 2.7000e+000 114889 -7.4065e+001 -2.1746e+002 -1.5936e+001 20623 114687,114791,114713
 2.7000e+000 114866 -5.3113e+001 -2.4477e+002 -1.7264e+001 20623 114687,114817,114791
 2.7000e+000 114843 -1.5252e+002 -2.7829e+002  2.3960e+001 20623 114713,114765,114739
 2.7000e+000 115290 -3.9716e+001 -2.0755e+002  8.7898e+000 20375 115313,115146,115094
 2.7000e+000 115267 -4.6859e+001 -2.0826e+002  1.2406e+001 20375 115313,115094,115042
 2.7000e+000 115244 -4.6248e+001 -1.9066e+002  3.6718e+000 20375 115385,115016,115172
 2.7000e+000 115221  3.1664e+001 -1.8128e+002  1.2602e+001 20375 115042,115094,115068
 2.7000e+000 115198 -5.1731e+001 -2.4007e+002  1.1928e+001 20375 115094,115146,115120
 2.7000e+000 115339 -6.5212e+001 -2.3981e+002 -8.1014e+000 20375 115172,115146,115313
 2.7000e+000 115362 -4.2550e+001 -1.9852e+002  1.9481e+000 20375 115385,115172,115313
 2.7000e+000 115411 -4.1917e+001 -1.9679e+002  1.1463e+001 20375 115042,115016,115385
 2.7000e+000 115434 -4.3060e+001 -2.0960e+002  1.0988e+001 20375 115042,115385,115313
 2.7000e+000 115891 -1.1242e+002 -2.2262e+002  2.3331e+001 19971 115617,115747,115643
 2.7000e+000 115868 -9.2644e+001 -1.7572e+002  2.3500e+001 19971 115617,115773,115747
 2.7000e+000 115845 -8.0758e+001 -3.0872e+002  1.1350e+001 19971 115643,115721,115695
 2.7000e+000 115822 -1.4516e+001 -1.6483e+002 -4.8111e+000 19971 115643,115747,115721
 2.7000e+000 115799  1.5919e+001 -3.4919e+002 -1.1910e+001 19971 115643,115695,115669
 2.7000e+000 115992 -1.5928e+002 -4.1219e+002 -7.1725e+001 19659 115914,115966,115940
 2.7000e+000 116142 -3.0708e+001 -9.5673e+001  2.9298e+000 18997 116041,116093,116067
 2.7000e+000 116119 -5.4323e+001 -1.5571e+002  8.4677e+000 18997 116015,116093,116041
 2.7000e+000 116343 -5.1978e+001 -2.4641e+002 -6.2012e+000 18707 116193,116245,116219
 2.7000e+000 116320 -6.1076e+001 -2.5469e+002 -1.2605e+001 18707 116193,116271,116245
 2.7000e+000 116297 -4.2797e+001 -2.0408e+002 -1.8392e+001 18707 116167,116271,116193
 2.7000e+000 116747 -4.0734e+001 -2.1387e+002 -2.8944e+000 18301 116525,116629,116551
 2.7000e+000 116724 -3.5889e+001 -1.8527e+002  2.7852e+000 18301 116473,116629,116525
 2.7000e+000 116701 -3.2039e+001 -1.8890e+002 -1.2017e+001 18301 116473,116525,116499
 2.7000e+000 116678 -2.5113e+001 -2.2312e+002 -3.9369e+000 18301 116551,116603,116577
 2.7000e+000 116655 -4.7741e+001 -2.3046e+002 -8.1586e+000 18301 116551,116629,116603
 2.7000e+000 117147 -1.1350e+002 -2.5723e+002 -3.8014e-001 17747 116899,117029,116925
 2.7000e+000 117124 -6.2559e+001 -1.8954e+002  2.5771e+001 17747 116873,117029,116899
 2.7000e+000 117101 -1.1208e+002 -2.5521e+002  2.4906e-001 17747 116925,117029,116951
 2.7000e+000 117078 -9.7904e+001 -2.2000e+002  1.4937e-001 17747 116951,117029,117003
 2.7000e+000 117055 -1.3065e+002 -2.8609e+002 -1.7485e+001 17747 116951,117003,116977
 2.7000e+000 117368  2.1923e+001 -2.4269e+002  8.1307e-001 17293 117244,117296,117270
 2.7000e+000 117345 -1.2662e+001 -2.3862e+002 -6.4936e+000 17293 117192,117296,117244
 2.7000e+000 117322 -5.0401e+001 -2.2973e+002 -2.3717e+000 17293 117192,117244,117218
 2.7000e+000 117699 -3.3945e+001 -1.9439e+002 -2.1821e+001 16896 117526,117604,117552
 2.7000e+000 117676 -1.3146e+002 -2.8694e+002  1.6106e+001 16896 117500,117604,117526
 2.7000e+000 117653 -1.3815e+002 -2.3166e+002 -1.2163e+001 16896 117552,117604,117578
 2.7000e+000 117630 -1.1301e+002 -3.6020e+002  3.2744e+001 16896 117474,117604,117500
 2.7000e+000 117849 -2.5980e+002 -4.9917e+002 -1.9543e+001 16534 117722,117774,117748
 2.7000e+000 117826 -2.0524e+002 -6.1007e+002 -8.3441e+001 16534 117722,117800,117774
 2.7000e+000 118070 -3.2813e+001 -2.3088e+002  2.3009e+001 16194 117946,117998,117972
 2.7000e+000 118047 -5.5670e+001 -2.6993e+002  1.3396e+001 16194 117894,117998,117946
 2.7000e+000 118024 -7.0343e+001 -2.4959e+002 -3.3366e+000 16194 117894,117946,117920
 2.7000e+000 118173 -2.5659e+001 -2.4846e+002  0.0000e+000 15968 118095,118147,118121
 2.7000e+000 118276 -7.3737e+001 -2.4981e+002  3.1154e+000 15433 118299,118198,118250
 2.7000e+000 118325 -7.6180e+001 -2.5551e+002  3.1721e+000 15433 118224,118198,118299
 2.7000e+000 118450 -1.2899e+002 -2.8211e+002  2.8436e+001 421 118372,118424,118398
 2.8000e+000 69891 -5.0526e+001 -3.1914e+002  1.1734e+001 68988 69447,69681,69629
 2.8000e+000 69868  2.2871e+001 -2.8823e+002  1.1072e+001 68988 69421,69681,69447
 2.8000e+000 69845  6.9661e+000 -1.5449e+002  3.7342e-001 68988 69447,69629,69577
 2.8000e+000 69822 -8.8074e+001 -3.3323e+002 -3.8265e+001 68988 69447,69577,69473
 2.8000e+000 69799 -1.0104e+001 -3.7802e+002  6.0681e+001 68988 69629,69681,69655
 2.8000e+000 69776 -9.3941e+001 -1.9790e+002  3.0992e+000 68988 69577,69629,69603
 2.8000e+000 69753 -6.7886e+001 -2.9512e+002 -4.6282e+001 68988 69473,69577,69551
 2.8000e+000 69730 -1.0763e+002 -6.0388e+002 -6.1195e+001 68988 69473,69551,69525
 2.8000e+000 69707 -1.8169e+002 -3.9604e+002  4.2382e-001 68988 69473,69525,69499
 2.8000e+000 69992 -1.6387e+002 -3.3535e+002 -6.2135e+001 68676 69914,69966,69940
 2.8000e+000 70392 -1.1862e+002 -2.5863e+002  2.0707e+001 68478 70118,70248,70144
 2.8000e+000 70369  1.0162e+001 -2.6437e+002  5.6897e+001 68478 70118,70274,70248
 2.8000e+000 70346 -7.1815e+001 -1.9267e+002 -6.5468e-001 68478 70144,70222,70196
 2.8000e+000 70323 -5.9338e+001 -1.6072e+002 -7.2467e+000 68478 70144,70248,70222
 2.8000e+000 70300 -7.9503e+001 -2.1234e+002 -4.4049e+000 68478 70144,70196,70170
 2.8000e+000 70841  5.5700e+001 -1.6787e+002 -5.0019e+001 68280 70570,70622,70596
 2.8000e+000 70818 -8.1683e+001 -1.9204e+002 -1.1555e+001 68280 70544,70622,70570
 2.8000e+000 70795 -5.8268e+001 -1.4005e+002 -6.5032e+000 68280 70544,70674,70622
 2.8000e+000 70772 -5.1437e+001 -1.2367e+002  3.1219e+000 68280 70622,70674,70648
 2.8000e+000 70749 -8.5112e+001 -2.1571e+002  1.6939e+001 68280 70518,70674,70544
 2.8000e+000 70726  8.8095e+001 -2.2611e+002  6.7678e+001 68280 70518,70700,70674
 2.8000e+000 70991 -1.0092e+001 -9.4683e+002  2.8248e+001 67968 70864,70916,70890
 2.8000e+000 70968 -2.4911e+002 -9.4227e+002  1.0739e+002 67968 70864,70942,70916
 2.8000e+000 71141 -4.3067e+002 -8.3756e+002 -3.8057e+001 67770 71040,71092,71066
 2.8000e+000 71118 -3.8125e+002 -1.0043e+003  4.4140e+001 67770 71014,71092,71040
 2.8000e+000 71651 -5.3624e+001 -1.7187e+002 -3.3105e+001 67366 71746,71674,71458
 2.8000e+000 71628 -3.1214e+001 -1.3963e+002 -3.5563e+001 67366 71674,71354,71510
 2.8000e+000 71605 -4.7181e+001 -1.8926e+002 -3.1490e+001 67366 71746,71458,71432
 2.8000e+000 71582 -7.8344e+001 -1.9297e+002  7.7994e+000 67366 71354,71432,71380
 2.8000e+000 71559 -8.6369e+001 -1.3473e+002 -2.0325e+001 67366 71380,71432,71406
 2.8000e+000 71536 -3.6715e+001 -4.9076e+001 -4.2767e+000 67366 71328,71510,71354
 2.8000e+000 71700 -6.2737e+001 -1.5677e+002 -1.4591e+001 67366 71484,71458,71674
 2.8000e+000 71723 -3.8017e+001 -1.4585e+002 -1.2752e+001 67366 71484,71674,71510
 2.8000e+000 71772 -4.5831e+001 -1.5130e+002 -2.9208e+001 67366 71354,71674,71746
 2.8000e+000 71795 -3.9122e+001 -1.6701e+002 -2.9608e+001 67366 71354,71746,71432
 2.8000e+000 71896 -1.7973e+002 -3.9089e+002  0.0000e+000 67146 71818,71870,71844
 2.8000e+000 71997 -2.0160e+002 -3.1581e+002  6.2823e+001 66948 71919,71971,71945
 2.8000e+000 72149 -1.3731e+000 -2.2239e+002 -2.8233e+001 66700 72172,72074,72048
 2.8000e+000 72126 -6.9374e+001 -2.5248e+002 -1.1445e+001 66700 72172,72048,72022
 2.8000e+000 72198 -1.1696e+002 -2.7668e+002  1.7437e+001 66700 72244,72172,72100
 2.8000e+000 72221 -1.0311e+002 -2.5249e+002 -1.6338e+001 66700 72100,72172,72022
 2.8000e+000 72270 -5.6519e+001 -1.4381e+002 -1.9162e+001 66700 72074,72172,72244
 2.8000e+000 72623 -7.3550e+001 -2.2923e+002  5.9663e+000 66502 72424,72502,72450
 2.8000e+000 72600 -5.9734e+001 -1.9143e+002  3.8254e+000 66502 72398,72502,72424
 2.8000e+000 72577 -4.2344e+001 -2.1925e+002 -4.5564e+000 66502 72398,72528,72502
 2.8000e+000 72554 -7.4562e+001 -2.0349e+002 -1.5027e+000 66502 72450,72502,72476
 2.8000e+000 72920 -1.2871e+002 -2.7128e+002  7.3917e+000 65941 72672,72776,72750
 2.8000e+000 72897 -1.2745e+002 -2.3208e+002  2.7207e+001 65941 72646,72776,72672
 2.8000e+000 72874 -1.1281e+002 -2.6706e+002  9.8309e+000 65941 72672,72750,72724
 2.8000e+000 72851 -1.1328e+002 -2.0921e+002  2.0665e+001 65941 72672,72724,72698
 2.8000e+000 72828 -9.6228e+001 -2.2591e+002  2.3218e+001 65941 72646,72802,72776
 2.8000e+000 73241 -1.7212e+001 -1.9145e+002  1.6874e+001 65743 73264,73071,73045
 2.8000e+000 73218 -7.2300e+001 -2.1642e+002  2.2863e+001 65743 73480,73264,73045
 2.8000e+000 73195 -5.9762e+001 -1.9477e+002 -2.6977e+000 65743 73336,72967,73097
 2.8000e+000 73172 -1.1269e+002 -1.7714e+002 -2.1474e+001 65743 73408,72993,72967
 2.8000e+000 73149 -5.0225e+001 -1.9517e+002 -2.8983e+000 65743 72967,73123,73097
 2.8000e+000 73290 -4.0872e+001 -2.0266e+002  4.5278e+000 65743 73097,73071,73264
 2.8000e+000 73313 -4.8755e+001 -1.8375e+002  9.4530e+000 65743 73336,73097,73264
 2.8000e+000 73362 -9.5102e+001 -2.0097e+002 -1.4348e+001 65743 73408,72967,73336
 2.8000e+000 73385 -4.1923e+001 -1.8251e+002  6.6493e-001 65743 73019,73336,73264
 2.8000e+000 73434 -8.3341e+001 -1.3238e+002  1.0737e+001 65743 73019,72993,73408
 2.8000e+000 73457 -4.2786e+001 -1.6426e+002  7.5872e+000 65743 73019,73408,73336
 2.8000e+000 73506 -2.5433e+001 -1.3479e+002  3.9193e+000 65743 73019,73264,73480
 2.8000e+000 73989 -1.4381e+000 -1.5018e+002  1.9704e+001 65453 73793,73845,73819
 2.8000e+000 73966 -7.6839e+001 -1.7010e+002  2.2599e+001 65453 73741,73845,73793
 2.8000e+000 73943 -1.5164e+001 -1.3672e+002  9.8827e+000 65453 73715,73845,73741
 2.8000e+000 73920 -5.9189e+001 -1.8273e+002  3.7383e+001 65453 73741,73793,73767
 2.8000e+000 73897  1.0278e+001 -7.8469e+001  3.7724e+000 65453 73715,73871,73845
 2.8000e+000 74357 -4.4677e+001 -2.0292e+002 -6.0075e+001 65141 74380,74138,74086
 2.8000e+000 74334 -8.9061e+001 -2.7765e+002 -4.0843e+001 65141 74380,74086,74060
 2.8000e+000 74311 -9.8657e+001 -2.6788e+002 -1.1707e+001 65141 74138,74190,74164
 2.8000e+000 74288 -7.6195e+001 -2.9976e+002 -1.2150e+001 65141 74060,74216,74190
 2.8000e+000 74265 -8.2078e+001 -3.1831e+002  4.6530e+000 65141 74034,74216,74060
 2.8000e+000 74242 -5.7208e+001 -1.4371e+002 -3.3242e+001 65141 74086,74138,74112
 2.8000e+000 74406 -7.1695e+001 -2.6905e+002 -2.4074e+001 65141 74190,74138,74380
 2.8000e+000 74429 -8.5509e+001 -2.9495e+002 -1.1624e+001 65141 74190,74380,74060
 2.8000e+000 74937 -9.8114e+001 -2.0513e+002 -5.4556e+001 64737 74614,74666,74640
 2.8000e+000 74914 -1.2269e+002 -2.5291e+002 -4.0668e+001 64737 74614,74796,74666
 2.8000e+000 74891 -8.5566e+001 -1.7248e+002 -6.8921e+000 64737 74960,74718,74666
 2.8000e+000 74868 -7.3982e+001 -1.9110e+002 -2.4687e+001 64737 74960,74666,74770
 2.8000e+000 74845 -7.7452e+001 -1.5229e+002 -2.6689e+001 64737 74666,74796,74770
 2.8000e+000 74822 -8.4170e+001 -1.8598e+002  1.5378e+000 64737 74666,74718,74692
 2.8000e+000 74986 -9.2593e+001 -1.9165e+002 -6.9303e+000 64737 74744,74718,74960
 2.8000e+000 75009 -8.6103e+001 -2.1982e+002 -2.5237e+001 64737 74744,74960,74770
 2.8000e+000 75306 -3.0499e+001 -1.7899e+002  2.6428e+001 64133 75329,75110,75084
 2.8000e+000 75283 -5.0140e+001 -2.0700e+002  1.1425e+001 64133 75401,75329,75084
 2.8000e+000 75260 -4.8244e+001 -2.1395e+002  1.3453e+001 64133 75401,75084,75058
 2.8000e+000 75237 -4.3070e+001 -2.3902e+002  2.4917e+001 64133 75473,75136,75110
 2.8000e+000 75214 -5.7199e+001 -1.8523e+002  3.8165e+000 64133 75032,75188,75162
 2.8000e+000 75355 -4.9706e+001 -2.2530e+002  1.9988e+001 64133 75473,75110,75329
 2.8000e+000 75378 -4.1218e+001 -1.9537e+002  3.8208e+000 64133 75162,75329,75032
 2.8000e+000 75427 -3.9292e+001 -1.9135e+002  5.2848e+000 64133 75032,75329,75401
 2.8000e+000 75450 -8.6070e+001 -2.3803e+002  2.9861e+001 64133 75545,75401,75058
 2.8000e+000 75499 -4.4234e+001 -2.2139e+002  5.7055e+000 64133 75162,75136,75473
 2.8000e+000 75522 -4.6761e+001 -1.9461e+002  6.0438e+000 64133 75162,75473,75329
 2.8000e+000 75571 -3.7036e+001 -1.3085e+002  1.0968e+001 64133 75032,75401,75545
 2.8000e+000 75851 -6.8919e+001 -1.8837e+002  1.8380e+000 63843 75874,75753,75727
 2.8000e+000 75828 -5.9627e+001 -1.9050e+002 -1.2918e+001 63843 75946,75874,75727
 2.8000e+000 75805 -6.9100e+001 -2.0431e+002 -6.7426e+000 63843 76018,75946,75727
 2.8000e+000 75900 -4.9904e+001 -1.8031e+002 -5.7640e+000 63843 75779,75753,75874
 2.8000e+000 75923 -5.4840e+001 -1.5409e+002 -2.3692e+001 63843 75779,75874,75675
 2.8000e+000 75972 -6.9458e+001 -1.7649e+002 -9.8769e+000 63843 75675,75874,75946
 2.8000e+000 75995 -6.3193e+001 -1.8740e+002 -1.5622e+001 63843 75675,75946,75701
 2.8000e+000 76044 -6.9594e+001 -1.9576e+002 -2.0296e+001 63843 75701,75946,76018
 2.8000e+000 76454  2.0050e+001 -2.9647e+001 -2.6232e+001 63439 76477,76255,76229
 2.8000e+000 76431 -1.4524e+001 -8.9521e+001 -4.6353e+000 63439 76477,76229,76359
 2.8000e+000 76408 -2.6591e+001 -7.0239e+001  3.9712e+001 63439 76307,76359,76333
 2.8000e+000 76385 -7.6808e+000 -9.8767e+001  1.9823e+000 63439 76255,76307,76281
 2.8000e+000 76503 -1.3804e+001 -7.6184e+001  9.6929e+000 63439 76307,76255,76477
 2.8000e+000 76526 -1.3419e+001 -1.0004e+002  2.5077e+001 63439 76307,76477,76359
 2.8000e+000 76926 -4.0718e+001 -1.4733e+002 -3.3096e+000 63049 76704,76782,76756
 2.8000e+000 76903 -6.1311e+001 -1.5249e+002 -1.7194e+001 63049 76704,76808,76782
 2.8000e+000 76880 -4.2030e+001 -1.7352e+002  2.2634e+000 63049 76704,76756,76730
 2.8000e+000 76857 -3.8913e+001 -9.3466e+001  5.5160e+000 63049 76678,76808,76704
 2.8000e+000 76834 -1.8566e+001 -2.2932e+001 -2.1461e+001 63049 76652,76808,76678
 2.8000e+000 77076 -1.0595e+001 -2.2364e+002 -8.5138e-001 62737 76975,77027,77001
 2.8000e+000 77053 -9.5430e+000 -2.5099e+002 -1.5359e+001 62737 76949,77027,76975
 2.8000e+000 77324 -9.9568e+001 -2.2684e+002 -1.9886e+000 62277 77347,77177,77125
 2.8000e+000 77301 -9.3724e+001 -2.1869e+002 -1.1250e+001 62277 77347,77125,77229
 2.8000e+000 77278 -9.0217e+001 -2.2502e+002 -1.5420e+001 62277 77099,77229,77125
 2.8000e+000 77255 -1.0492e+002 -2.7733e+002  3.6195e+000 62277 77125,77177,77151
 2.8000e+000 77373 -1.0427e+002 -2.4906e+002  1.0559e+001 62277 77203,77177,77347
 2.8000e+000 77396 -8.2197e+001 -2.2832e+002 -1.7238e+000 62277 77203,77347,77229
 2.8000e+000 77857 -4.1771e+001 -2.7931e+002  3.1346e+000 61758 77635,77739,77661
 2.8000e+000 77834 -7.1727e+001 -2.7092e+002 -1.3112e+001 61758 77583,77739,77635
 2.8000e+000 77811 -8.3010e+001 -3.3698e+002 -3.4122e+001 61758 77583,77635,77609
 2.8000e+000 77788 -6.8146e+001 -2.6135e+002  2.3086e+001 61758 77661,77713,77687
 2.8000e+000 77765 -6.8404e+001 -3.0769e+002  2.4403e+001 61758 77661,77739,77713
 2.8000e+000 78491 -7.4975e+001 -1.5800e+002  7.6965e+000 61418 78171,78301,78249
 2.8000e+000 78468 -6.0549e+001 -1.3112e+002  1.8307e+001 61418 78145,78301,78171
 2.8000e+000 78445 -5.3807e+001 -1.3921e+002 -9.0344e+000 61418 78171,78249,78223
 2.8000e+000 78422 -5.6153e+001 -1.2887e+002  7.0593e+000 61418 78145,78327,78301
 2.8000e+000 78399 -7.8060e+001 -1.7754e+002 -2.7348e+000 61418 78249,78301,78275
 2.8000e+000 78376 -3.3321e+001 -1.4648e+002 -1.2807e+001 61418 78171,78223,78197
 2.8000e+000 78353 -7.1858e+001 -1.6323e+002 -3.2223e+000 61418 78119,78327,78145
 2.8000e+000 78690 -8.3269e+001 -1.9616e+002 -2.4924e+000 61014 78713,78566,78540
 2.8000e+000 78667 -5.2456e+001 -1.9885e+002 -8.3929e-001 61014 78713,78540,78618
 2.8000e+000 78644 -8.9146e+001 -2.2488e+002 -2.3425e+001 61014 78514,78618,78540
 2.8000e+000 78739 -4.0553e+001 -1.9017e+002  2.0914e+001 61014 78592,78566,78713
 2.8000e+000 78762 -4.5817e+001 -2.1119e+002  1.7315e+000 61014 78785,78713,78618
 2.8000e+000 78811 -1.4677e+001 -1.9914e+002 -2.0188e+000 61014 78592,78713,78785
 2.8000e+000 79398 -3.1148e+001 -1.6911e+002 -1.8628e+001 60624 79101,79179,79153
 2.8000e+000 79375 -4.4954e+001 -1.8901e+002 -1.0165e+001 60624 79101,79231,79179
 2.8000e+000 79352 -3.6927e+001 -1.8970e+002 -1.5718e+001 60624 79075,79231,79101
 2.8000e+000 79329 -1.0287e+001 -2.2996e+002  2.4739e+001 60624 79075,79257,79231
 2.8000e+000 79306 -3.5888e+001 -1.4470e+002 -3.9417e+001 60624 79179,79231,79205
 2.8000e+000 79283 -2.1244e+001 -1.4767e+002 -8.4530e+000 60624 79101,79153,79127
 2.8000e+000 79776 -8.6573e+001 -2.4499e+002  2.3337e+001 60070 79528,79658,79606
 2.8000e+000 79753 -7.8004e+001 -1.9137e+002 -1.8402e+000 60070 79502,79658,79528
 2.8000e+000 79730 -1.1135e+002 -2.3625e+002  3.4320e+001 60070 79528,79606,79580
 2.8000e+000 79707 -1.7885e+001 -2.0787e+002  4.1968e+000 60070 79606,79658,79632
 2.8000e+000 79684 -9.7302e+000 -1.4402e+002 -3.8223e+001 60070 79528,79580,79554
 2.8000e+000 80105 -6.0823e+001 -1.9093e+002  2.2468e+001 59758 80128,79958,79906
 2.8000e+000 80082 -6.5084e+001 -1.7795e+002  1.5647e+001 59758 80128,79906,80010
 2.8000e+000 80059 -8.8645e+001 -1.9663e+002  6.7211e+001 59758 79906,79958,79932
 2.8000e+000 80036 -9.8641e+001 -2.0303e+002  4.6962e+000 59758 79880,80010,79906
 2.8000e+000 80154 -6.3272e+001 -1.9919e+002  2.2328e+001 59758 79984,79958,80128
 2.8000e+000 80177 -6.9445e+001 -1.8937e+002  1.5517e+001 59758 79984,80128,80010
 2.8000e+000 80376 -4.8116e+001 -1.8948e+002  3.9659e+000 59312 80226,80304,80252
 2.8000e+000 80353 -5.0505e+001 -1.9312e+002  2.8866e+000 59312 80200,80304,80226
 2.8000e+000 80330 -7.7644e+001 -1.7108e+002  5.1541e+001 59312 80252,80304,80278
 2.8000e+000 80805 -6.8029e+001 -1.5827e+002 -2.4747e+001 58908 80900,80828,80638
 2.8000e+000 80782 -5.7583e+001 -1.8744e+002 -3.8090e+001 58908 80828,80560,80508
 2.8000e+000 80759 -7.1558e+001 -1.4787e+002 -7.6968e+000 58908 80900,80638,80612
 2.8000e+000 80736 -2.9338e+001 -1.6159e+002  6.7402e+001 58908 80482,80664,80508
 2.8000e+000 80713 -4.7588e+001 -1.3647e+002 -2.7296e+000 58908 80560,80612,80586
 2.8000e+000 80690 -6.5205e+001 -4.5473e+002 -8.8014e+001 58908 80508,80560,80534
 2.8000e+000 80854 -3.0471e+001 -1.7116e+002  7.3100e-001 58908 80664,80638,80828
 2.8000e+000 80877 -5.3847e+001 -2.4866e+002  4.6852e+000 58908 80664,80828,80508
 2.8000e+000 80926 -5.7050e+001 -1.2739e+002 -2.6759e+001 58908 80560,80828,80900
 2.8000e+000 80949 -6.4872e+001 -1.2733e+002 -7.3132e+000 58908 80560,80900,80612
 2.8000e+000 81246 -2.0491e+001 -1.4650e+002 -3.6841e+000 58482 81076,81128,81102
 2.8000e+000 81223 -6.2415e+001 -2.5271e+002 -2.5362e+001 58482 80972,81128,81076
 2.8000e+000 81200 -3.7284e+001 -1.7082e+002 -2.7404e+001 58482 80972,81076,81050
 2.8000e+000 81177 -9.5115e+001 -2.6839e+002 -3.2019e+000 58482 80998,81050,81024
 2.8000e+000 81154 -4.5066e+001 -2.1460e+002 -2.4253e+001 58482 80972,81050,80998
 2.8000e+000 81754 -7.1694e+001 -1.5507e+002  1.3578e+001 57828 81457,81613,81483
 2.8000e+000 81731 -8.2234e+001 -1.7486e+002  7.0924e+000 57828 81431,81613,81457
 2.8000e+000 81708 -7.8776e+001 -1.7160e+002  1.4291e+001 57828 81483,81613,81509
 2.8000e+000 81685 -9.6340e+001 -1.9710e+002  2.2024e+001 57828 81509,81613,81587
 2.8000e+000 81662 -1.0272e+002 -2.8943e+002  4.1695e+001 57828 81509,81587,81535
 2.8000e+000 81639 -5.9505e+001 -2.7427e+002  2.7044e+001 57828 81535,81587,81561
 2.8000e+000 82002 -1.2086e+002 -2.9763e+002 -4.3052e+000 57374 82025,81855,81829
 2.8000e+000 81979 -1.2714e+002 -2.8289e+002  7.7225e+000 57374 82025,81829,81907
 2.8000e+000 81956 -1.2926e+002 -2.5924e+002  3.3103e+000 57374 81803,81907,81829
 2.8000e+000 81933 -8.6476e+001 -2.4288e+002  5.9487e+000 57374 81777,81907,81803
 2.8000e+000 82051 -1.1924e+002 -2.8011e+002 -5.7049e+000 57374 81881,81855,82025
 2.8000e+000 82074 -1.2302e+002 -2.6729e+002  1.0389e+001 57374 81881,82025,81907
 2.8000e+000 82356 -6.5645e+001 -1.5572e+002 -1.1848e+001 56913 82180,82232,82206
 2.8000e+000 82333 -5.1617e+001 -1.3857e+002  1.7762e+001 56913 82180,82284,82232
 2.8000e+000 82310 -1.8881e+001 -1.2109e+002  2.9310e+001 56913 82379,82232,82284
 2.8000e+000 82405  1.7895e+001 -1.1790e+002  4.3416e+000 56913 82258,82232,82379
 2.8000e+000 82764 -6.4562e+001 -1.0153e+002 -1.0363e+001 56523 82614,82666,82640
 2.8000e+000 82741 -5.4588e+001 -1.0230e+002 -1.5634e+001 56523 82614,82692,82666
 2.8000e+000 82718 -4.6629e+001 -1.0981e+002 -3.1924e+001 56523 82588,82692,82614
 2.8000e+000 83368 -1.4981e+001 -2.0092e+002 -7.1067e+000 55969 82973,83155,83129
 2.8000e+000 83345  1.6026e+000 -1.9469e+002 -1.4197e+001 55969 82973,83181,83155
 2.8000e+000 83322 -5.4029e+001 -1.7670e+002 -5.2281e+000 55969 82973,83129,82999
 2.8000e+000 83299 -9.0682e+001 -1.8338e+002  1.0729e+001 55969 83391,83025,82999
 2.8000e+000 83276 -7.1316e+001 -1.8700e+002  3.6553e+000 55969 83391,82999,83129
 2.8000e+000 83253 -1.0905e+001 -1.4636e+002  3.3822e+001 55969 83077,83129,83103
 2.8000e+000 83230 -8.3367e+001 -1.3826e+002 -6.8054e+000 55969 83025,83077,83051
 2.8000e+000 83207 -2.1218e+000 -1.8745e+002  1.7869e+001 55969 82947,83181,82973
 2.8000e+000 83417 -7.1657e+001 -1.7459e+002  1.2937e+001 55969 83077,83025,83391
 2.8000e+000 83440 -6.4656e+001 -1.8461e+002  4.2265e+000 55969 83077,83391,83129
 2.8000e+000 83946 -1.2506e+002 -2.6460e+002  4.9111e+001 55771 83969,83779,83727
 2.8000e+000 83923 -9.8248e+001 -2.1482e+002  2.3359e+001 55771 83969,83727,83623
 2.8000e+000 83900 -1.1678e+002 -1.2061e+002  1.3210e+001 55771 83623,83727,83649
 2.8000e+000 83877 -5.6712e+001 -4.3787e+002  3.9347e+001 55771 83727,83779,83753
 2.8000e+000 83854 -1.8718e+002 -2.2860e+002  7.7952e+001 55771 83675,83727,83701
 2.8000e+000 83831 -1.8728e+002 -2.0514e+002  8.9670e+001 55771 83649,83727,83675
 2.8000e+000 83995 -1.1082e+002 -2.7190e+002 -1.5869e+001 55771 83805,83779,83969
 2.8000e+000 84018 -5.1399e+001 -1.6851e+002 -4.7614e+001 55771 83805,83969,83623
 2.8000e+000 84168 -4.7096e+001 -1.3702e+002 -3.9834e+000 55367 84191,84067,84041
 2.8000e+000 84145 -4.6375e+001 -1.5433e+002 -2.4697e+000 55367 84191,84041,84119
 2.8000e+000 84217 -5.0842e+001 -1.2668e+002 -3.7057e+000 55367 84093,84067,84191
 2.8000e+000 84240 -4.4875e+001 -1.3691e+002  2.6808e+000 55367 84093,84191,84119
 2.8000e+000 84571 -2.6931e+001 -2.3544e+002 -2.3564e+001 54913 84398,84450,84424
 2.8000e+000 84548 -2.0288e+001 -2.1283e+002 -1.0152e+001 54913 84372,84450,84398
 2.8000e+000 84525 -5.2159e+001 -2.3900e+002  9.3177e+000 54913 84346,84450,84372
 2.8000e+000 84502 -1.3066e+001 -1.4932e+002 -2.0073e+001 54913 84346,84476,84450
 2.8000e+000 85126 -1.1337e+002 -2.5996e+002 -9.1882e+000 54402 84858,84936,84910
 2.8000e+000 85103 -8.4979e+001 -2.0082e+002 -2.3763e+001 54402 84806,84936,84858
 2.8000e+000 85080 -1.0361e+002 -1.8176e+002 -1.8006e+001 54402 84780,84936,84806
 2.8000e+000 85057 -8.6823e+001 -2.2236e+002 -1.0772e+001 54402 84806,84858,84832
 2.8000e+000 85034 -9.0611e+001 -1.7028e+002  8.9065e+000 54402 84780,84962,84936
 2.8000e+000 85011 -1.3922e+002 -1.5285e+002 -4.6158e+000 54402 84858,84910,84884
 2.8000e+000 84988 -8.9552e+001 -1.6220e+002  7.2909e+000 54402 84754,84962,84780
 2.8000e+000 85396 -8.1706e+001 -1.0022e+002 -8.4090e+000 53998 85197,85249,85223
 2.8000e+000 85373 -6.1105e+001 -1.3115e+002 -2.1045e+000 53998 85197,85275,85249
 2.8000e+000 85350 -7.7863e+001 -1.5419e+002 -9.8599e+000 53998 85171,85275,85197
 2.8000e+000 85327 -3.2737e+001 -1.4292e+002 -1.2347e+001 53998 85171,85301,85275
 2.8000e+000 85749 -4.9414e+001 -1.8835e+002 -3.7985e+000 53636 85524,85628,85550
 2.8000e+000 85726 -8.0079e+001 -2.1045e+002  7.0592e+000 53636 85524,85654,85628
 2.8000e+000 85703 -2.8834e+001 -1.9942e+002 -1.8351e+001 53636 85550,85602,85576
 2.8000e+000 85680 -5.0012e+001 -1.8742e+002 -8.3952e+000 53636 85550,85628,85602
 2.8000e+000 86127 -1.5377e+001 -1.8615e+002  3.0792e+001 52982 86150,85957,85879
 2.8000e+000 86104 -5.5399e+001 -2.1648e+002  1.7517e+001 52982 86150,85879,85853
 2.8000e+000 86081 -1.4056e+001 -2.7137e+002  5.5075e+001 52982 85957,86009,85983
 2.8000e+000 86058 -6.9663e+001 -2.0026e+002  2.7071e+001 52982 85879,85957,85931
 2.8000e+000 86035 -5.0818e+001 -1.7167e+002  1.6466e+001 52982 85879,85931,85905
 2.8000e+000 86176  1.1056e+001 -2.1963e+002  2.5506e+001 52982 86009,85957,86150
 2.8000e+000 86199 -1.2742e+001 -2.4072e+002  1.6518e+001 52982 86009,86150,85853
 2.8000e+000 86398 -3.5837e+001 -1.3717e+002  1.2784e+001 52542 86421,86248,86222
 2.8000e+000 86375 -6.6342e+001 -1.4111e+002 -1.4726e+000 52542 86421,86222,86300
 2.8000e+000 86352 -6.6003e+001 -1.5186e+002 -6.8338e+000 52542 86222,86326,86300
 2.8000e+000 86447 -4.3130e+000 -1.3828e+002  2.5830e+001 52542 86274,86248,86421
 2.8000e+000 86470 -3.3664e+001 -1.4747e+002  7.8008e+000 52542 86274,86421,86300
 2.8000e+000 86669 -6.5627e+001 -1.4577e+002 -2.6418e+001 52230 86692,86571,86545
 2.8000e+000 86646 -6.3372e+001 -1.3745e+002 -1.4628e+001 52230 86692,86545,86519
 2.8000e+000 86623 -9.1152e+001 -1.4433e+002 -2.2740e+001 52230 86493,86597,86519
 2.8000e+000 86718 -7.1485e+001 -1.4899e+002 -2.9983e+001 52230 86597,86571,86692
 2.8000e+000 86741 -7.7286e+001 -1.4412e+002 -1.8823e+001 52230 86597,86692,86519
 2.8000e+000 87153 -1.0397e+002 -1.4339e+002  7.6028e+000 51640 86980,87058,87032
 2.8000e+000 87130 -9.5930e+001 -1.5003e+002  5.1476e+000 51640 86928,87058,86980
 2.8000e+000 87107 -9.3741e+001 -2.0384e+002 -1.7448e+001 51640 86928,86980,86954
 2.8000e+000 87084 -7.5456e+001 -1.3141e+002 -4.1452e-001 51640 86980,87032,87006
 2.8000e+000 87659 -3.6511e+001 -1.3807e+002  1.1936e+001 51029 87682,87440,87362
 2.8000e+000 87636 -4.2864e+001 -1.4929e+002 -3.2965e+000 51029 87682,87362,87336
 2.8000e+000 87613 -6.0408e+001 -2.1633e+002 -3.8738e+000 51029 87440,87518,87466
 2.8000e+000 87590 -7.5842e+001 -1.4076e+002  1.5421e+001 51029 87362,87440,87414
 2.8000e+000 87567 -7.5329e+001 -1.3602e+002  3.2889e+001 51029 87362,87414,87388
 2.8000e+000 87544 -8.3435e+001 -1.8458e+002  6.1238e+000 51029 87466,87518,87492
 2.8000e+000 87708 -3.2124e+001 -1.5554e+002  3.6887e+000 51029 87518,87440,87682
 2.8000e+000 87731 -3.5752e+001 -1.7594e+002 -5.9656e+000 51029 87518,87682,87336
 2.8000e+000 87881 -8.5124e+001 -1.8902e+002  5.2139e+000 50739 87780,87832,87806
 2.8000e+000 87858 -9.6154e+001 -1.8570e+002 -8.5830e+000 50739 87754,87832,87780
 2.8000e+000 88468 -4.9824e+001 -1.2478e+002  6.8286e+000 50235 88171,88327,88197
 2.8000e+000 88445 -1.2153e+002 -1.2458e+002 -2.0781e+001 50235 88145,88327,88171
 2.8000e+000 88422  3.9231e+001 -6.0964e+001  3.3579e+001 50235 88275,88327,88301
 2.8000e+000 88399 -2.7739e+001 -9.0054e+001 -2.6138e+000 50235 88197,88327,88275
 2.8000e+000 88376  1.5363e+001 -1.1265e+002  4.7342e+000 50235 88197,88275,88223
 2.8000e+000 88353  4.7794e+000 -1.2345e+002  1.2476e+001 50235 88223,88275,88249
 2.8000e+000 88895 -7.6060e+001 -1.9739e+002  7.2791e+000 49873 88918,88728,88676
 2.8000e+000 88872 -6.5267e+001 -1.8985e+002 -1.4820e+000 49873 88918,88676,88624
 2.8000e+000 88849 -5.0838e+001 -1.6505e+002 -3.1921e+000 49873 88598,88754,88624
 2.8000e+000 88826 -3.9881e+001 -1.7789e+002 -4.7803e+000 49873 88624,88676,88650
 2.8000e+000 88803 -6.2859e+001 -2.4325e+002  9.1357e+000 49873 88676,88728,88702
 2.8000e+000 88780 -5.5182e+001 -1.4403e+002  9.0712e+000 49873 88572,88754,88598
 2.8000e+000 88944 -6.1614e+001 -1.9420e+002  2.2160e+000 49873 88754,88728,88918
 2.8000e+000 88967 -5.8016e+001 -1.9332e+002 -5.7295e+000 49873 88754,88918,88624
 2.8000e+000 89473 -1.2468e+002 -1.9392e+002 -2.4554e+001 49583 89176,89306,89202
 2.8000e+000 89450 -1.2314e+002 -1.9099e+002 -3.0071e+001 49583 89176,89332,89306
 2.8000e+000 89427 -7.3142e+001 -2.1275e+002  8.0155e+000 49583 89496,89228,89202
 2.8000e+000 89404 -7.2173e+001 -2.1758e+002  9.8955e+000 49583 89496,89202,89280
 2.8000e+000 89381 -1.4986e+002 -2.7079e+002 -4.7612e+001 49583 89202,89306,89280
 2.8000e+000 89358 -9.8750e+001 -1.9169e+002 -3.3931e+001 49583 89150,89332,89176
 2.8000e+000 89522 -6.7767e+001 -1.8121e+002  5.0932e+000 49583 89254,89228,89496
 2.8000e+000 89545 -8.1506e+001 -2.0868e+002  9.8338e+000 49583 89254,89496,89280
 2.8000e+000 89825  3.5140e+001 -1.9199e+002  9.5040e+000 49179 89701,89753,89727
 2.8000e+000 89802 -2.3449e+001 -1.6869e+002  1.4472e+001 49179 89675,89753,89701
 2.8000e+000 89779 -1.9436e+001 -1.5392e+002  6.6325e+000 49179 89848,89753,89675
 2.8000e+000 89874 -1.0739e+002 -1.7779e+002 -1.6561e+001 49179 89649,89753,89848
 2.8000e+000 90223 -4.8100e+001 -1.9809e+002 -1.4661e+001 48739 90024,90102,90076
 2.8000e+000 90200 -7.3043e+001 -2.0028e+002 -5.1000e+000 48739 90024,90128,90102
 2.8000e+000 90177 -3.8412e+001 -2.1197e+002 -8.0625e+000 48739 90024,90076,90050
 2.8000e+000 90154 -3.1464e+001 -1.9119e+002  1.6986e+001 48739 89998,90128,90024
 2.8000e+000 90603 -7.3890e+001 -1.8236e+002  3.3608e+001 48335 90381,90485,90459
 2.8000e+000 90580 -8.6102e+001 -1.9674e+002  2.7182e+001 48335 90355,90485,90381
 2.8000e+000 90557 -3.2850e+001 -6.7961e+001  2.2330e+001 48335 90381,90433,90407
 2.8000e+000 90534 -6.9288e+001 -1.8010e+002  3.4329e+001 48335 90381,90459,90433
 2.8000e+000 90511 -1.1698e+001 -1.4297e+002  5.9971e+001 48335 90329,90485,90355
 2.8000e+000 90753  1.2400e+001 -1.0329e+002  5.0133e+001 47824 90776,90652,90704
 2.8000e+000 90730 -1.3942e+001 -1.6399e+002  4.5692e+001 47824 90626,90704,90652
 2.8000e+000 90802 -2.9061e+001 -1.3879e+002  3.5011e+001 47824 90678,90652,90776
 2.8000e+000 91131 -5.5600e+001 -2.0280e+002  9.1792e+000 47427 91154,90958,90906
 2.8000e+000 91108 -1.0300e+002 -2.2231e+002  9.8730e-001 47427 91154,90906,91036
 2.8000e+000 91085 -9.9020e+001 -1.7539e+002 -1.7269e+001 47427 90958,91010,90984
 2.8000e+000 91062 -5.6658e+001 -1.8580e+002  1.1794e+001 47427 90906,90958,90932
 2.8000e+000 91180 -8.3224e+001 -2.0063e+002 -2.2114e+001 47427 91010,90958,91154
 2.8000e+000 91203 -1.2883e+002 -2.2037e+002 -3.1108e+001 47427 91010,91154,91036
 2.8000e+000 91583 -1.2454e+002 -2.2904e+002 -1.3178e+001 46873 91309,91439,91335
 2.8000e+000 91560 -1.3051e+002 -2.3252e+002 -1.0937e+001 46873 91309,91465,91439
 2.8000e+000 91537 -1.8351e+002 -2.6460e+002 -5.9940e+001 46873 91361,91439,91413
 2.8000e+000 91514 -1.3588e+002 -2.3612e+002 -2.7099e+001 46873 91335,91439,91361
 2.8000e+000 91491 -5.8944e+001 -2.1818e+002 -4.9908e+001 46873 91361,91413,91387
 2.8000e+000 91880 -5.9246e+001 -2.0197e+002 -5.1520e+000 46526 91606,91710,91658
 2.8000e+000 91857 -6.1473e+001 -2.1257e+002  1.8694e+000 46526 91606,91762,91710
 2.8000e+000 91834 -3.3237e+001 -1.9426e+002 -2.4381e+001 46526 91606,91658,91632
 2.8000e+000 91811 -7.1243e+001 -1.8675e+002  3.8878e+000 46526 91658,91710,91684
 2.8000e+000 91788 -3.6634e+001 -1.3913e+002  7.1484e+000 46526 91710,91762,91736
 2.8000e+000 92211 -3.1097e+000 -1.0251e+002 -5.6079e+000 45700 91986,92064,92038
 2.8000e+000 92188 -5.8525e+001 -1.4633e+002  1.6238e+001 45700 91986,92116,92064
 2.8000e+000 92165  1.8593e+001 -7.7519e+001 -4.0963e+001 45700 91986,92038,92012
 2.8000e+000 92142 -6.0373e+001 -1.4741e+002  1.4981e+001 45700 92064,92116,92090
 2.8000e+000 92766 -1.0464e+002 -1.8651e+002  7.5120e+000 45452 92446,92602,92576
 2.8000e+000 92743 -1.6451e+002 -1.8611e+002 -2.8274e+001 45452 92420,92602,92446
 2.8000e+000 92720 -1.2196e+002 -1.8742e+002  2.7831e+001 45452 92789,92524,92498
 2.8000e+000 92697 -1.4582e+002 -1.8840e+002  1.9857e+001 45452 92789,92498,92446
 2.8000e+000 92674 -1.1483e+002 -2.0563e+002 -4.6216e+000 45452 92524,92576,92550
 2.8000e+000 92651 -1.9249e+002 -1.9334e+002  1.1215e+002 45452 92446,92498,92472
 2.8000e+000 92628 -9.7988e+001 -2.2809e+002 -6.3092e+001 45452 92394,92602,92420
 2.8000e+000 92815 -1.0572e+002 -1.9608e+002  2.1811e+001 45452 92576,92524,92789
 2.8000e+000 92838 -1.2296e+002 -1.9116e+002  1.7410e+001 45452 92576,92789,92446
 2.8000e+000 92939 -7.1245e+001 -2.3866e+002 -5.1528e+001 44998 92861,92913,92887
 2.8000e+000 93319  2.7516e-001 -2.4768e+002  5.2101e+001 44601 93123,93201,93149
 2.8000e+000 93296 -6.1466e+001 -2.5724e+002 -2.8418e+001 44601 93045,93201,93123
 2.8000e+000 93273 -5.4756e+001 -1.4314e+002 -3.6173e+001 44601 93045,93123,93071
 2.8000e+000 93250 -5.2518e+001 -1.3454e+002 -2.5410e+001 44601 93071,93123,93097
 2.8000e+000 93227  8.5205e+000 -1.3218e+002  5.8042e+001 44601 93149,93201,93175
 2.8000e+000 93697 -4.3780e+001 -2.7427e+002  1.9254e+001 44026 93720,93553,93527
 2.8000e+000 93674 -9.3005e+001 -2.2852e+002  2.5024e+001 44026 93720,93527,93449
 2.8000e+000 93651 -1.0494e+002 -2.3790e+002 -4.4082e+000 44026 93449,93527,93501
 2.8000e+000 93628 -6.9042e+001 -1.8278e+002 -3.5068e+001 44026 93423,93579,93449
 2.8000e+000 93605 -1.9732e+001 -1.8389e+002  1.8734e+001 44026 93449,93501,93475
 2.8000e+000 93746 -6.9633e+000 -2.4184e+002  5.1533e+000 44026 93579,93553,93720
 2.8000e+000 93769 -5.9358e+001 -1.9748e+002  1.1385e+001 44026 93579,93720,93449
 2.8000e+000 94066 -4.8339e+001 -2.0939e+002 -3.0952e+001 43579 94089,93818,93792
 2.8000e+000 94043 -8.1538e+001 -2.3344e+002 -2.0371e+001 43579 94161,94089,93792
 2.8000e+000 94020 -7.9948e+001 -2.3464e+002 -1.0433e+001 43579 94161,93792,93948
 2.8000e+000 93997 -8.6370e+001 -1.8214e+002 -9.9256e+000 43579 94233,93870,93818
 2.8000e+000 93974 -4.8088e+001 -1.8542e+002  2.5771e+000 43579 93818,93870,93844
 2.8000e+000 94115 -8.4162e+001 -1.8385e+002 -2.2280e+001 43579 94233,93818,94089
 2.8000e+000 94138 -1.1481e+002 -2.0922e+002 -1.5285e+001 43579 93896,94089,93922
 2.8000e+000 94187 -7.5051e+001 -2.1845e+002 -1.9747e+001 43579 93922,94089,94161
 2.8000e+000 94210 -7.2670e+001 -2.1816e+002 -8.8869e+000 43579 93922,94161,93948
 2.8000e+000 94259 -9.9494e+001 -2.0560e+002 -4.5872e+000 43579 93896,93870,94233
 2.8000e+000 94282 -9.2363e+001 -2.0201e+002 -1.8836e+001 43579 93896,94233,94089
 2.8000e+000 94481 -6.6838e+001 -2.1452e+002 -1.5202e+000 43239 94305,94383,94357
 2.8000e+000 94458 -5.5881e+001 -1.9516e+002  2.5201e+001 43239 94305,94409,94383
 2.8000e+000 94435 -4.8789e+001 -2.2626e+002 -6.4818e+000 43239 94305,94357,94331
 2.8000e+000 94633 -4.7540e+001 -1.4881e+002  3.3273e+001 42827 94656,94532,94506
 2.8000e+000 94610 -5.2287e+001 -1.5835e+002  4.9304e+001 42827 94728,94656,94506
 2.8000e+000 94682 -9.3054e+000 -1.6116e+002  4.0706e+001 42827 94558,94532,94656
 2.8000e+000 94705  1.9014e+001 -1.7408e+002  2.6997e+001 42827 94988,94860,94656
 2.8000e+000 94754 -2.2215e+001 -1.5077e+002  1.5709e+001 42827 94988,94656,94728
 2.8000e+000 94886  7.3912e+001 -1.5267e+002  2.6773e+001 42827 94558,94656,94860
 2.8000e+000 95014  5.3182e+001 -1.5396e+002  1.8264e+001 42827 94584,94860,94988
 2.8000e+000 95037  1.9466e+001 -1.2957e+002  8.3870e+000 42827 94584,94988,94728
 2.8000e+000 95236 -6.5652e+001 -2.0610e+002  6.5684e+000 42537 95259,95112,95060
 2.8000e+000 95213 -3.2948e+001 -2.2309e+002  1.3688e+001 42537 95259,95060,95164
 2.8000e+000 95190 -5.1913e+001 -1.9982e+002 -1.1264e+001 42537 95060,95112,95086
 2.8000e+000 95285 -4.3677e+001 -2.0066e+002  2.0880e+001 42537 95138,95112,95259
 2.8000e+000 95308 -1.1112e+001 -2.0938e+002  3.2558e+001 42537 95138,95259,95164
 2.8000e+000 95816 -7.6016e+001 -2.1805e+002 -1.3481e+001 41969 95493,95597,95519
 2.8000e+000 95793 -1.2222e+002 -2.1612e+002  2.5173e+001 41969 95493,95649,95597
 2.8000e+000 95770 -1.0302e+002 -1.9697e+002  1.1506e+001 41969 95493,95675,95649
 2.8000e+000 95747 -1.1329e+002 -2.7813e+002  1.8598e+001 41969 95597,95649,95623
 2.8000e+000 95724 -1.3023e+002 -2.2343e+002 -1.2643e+001 41969 95519,95597,95571
 2.8000e+000 95701 -1.1832e+002 -2.1278e+002 -6.1365e+001 41969 95519,95571,95545
 2.8000e+000 96371 -9.2501e+001 -2.2615e+002  2.7688e+001 41579 96025,96207,96181
 2.8000e+000 96348  3.9963e+001 -1.6660e+002 -1.4155e+000 41579 95999,96207,96025
 2.8000e+000 96325 -1.0745e+002 -1.7835e+002 -1.9962e+001 41579 96129,96181,96155
 2.8000e+000 96302 -3.9089e+001 -1.5774e+002  1.1661e+000 41579 96025,96181,96129
 2.8000e+000 96279 -8.6379e+001 -2.3610e+002  2.9790e+001 41579 96025,96129,96051
 2.8000e+000 96256 -1.0498e+002 -2.2537e+002  3.3362e+001 41579 96051,96103,96077
 2.8000e+000 96233 -4.0285e+001 -1.7168e+002  2.1579e+000 41579 96051,96129,96103
 2.8000e+000 96877 -2.6088e+001 -1.3705e+002 -1.8389e+001 41182 96972,96900,96632
 2.8000e+000 96854 -2.1929e+001 -9.8316e+001 -1.4464e+001 41182 96900,96554,96736
 2.8000e+000 96831 -2.6397e+001 -1.3878e+002 -1.7432e+001 41182 96972,96632,96580
 2.8000e+000 96808 -3.8476e+001 -1.3922e+002  4.1791e+000 41182 96632,96684,96658
 2.8000e+000 96785 -3.4634e+001 -1.4242e+002  1.4572e+001 41182 96684,96736,96710
 2.8000e+000 96762 -8.4383e+001 -1.8766e+002  2.2652e+001 41182 96580,96632,96606
 2.8000e+000 96926 -1.6111e+001 -1.4830e+002 -1.5021e+001 41182 96684,96632,96900
 2.8000e+000 96949 -2.4221e+001 -1.3328e+002 -2.4214e+001 41182 96684,96900,96736
 2.8000e+000 96998 -2.6526e+001 -1.3584e+002 -1.2471e+001 41182 96554,96900,96972
 2.8000e+000 97021 -2.8919e+001 -1.4188e+002 -1.1465e+001 41182 96554,96972,96580
 2.8000e+000 97576 -1.1329e+002 -3.4796e+002 -6.2057e+001 40678 97230,97412,97282
 2.8000e+000 97553  1.7142e+001 -2.8000e+002  1.7574e+001 40678 97204,97412,97230
 2.8000e+000 97530 -6.4398e+001 -2.6577e+002 -4.4364e+001 40678 97282,97360,97308
 2.8000e+000 97507 -4.4227e+001 -2.5410e+002 -2.7604e+001 40678 97282,97412,97360
 2.8000e+000 97484 -3.7206e+001 -1.9236e+002 -3.4614e+001 40678 97308,97360,97334
 2.8000e+000 97461 -1.1774e+002 -3.1396e+002  4.6995e+000 40678 97360,97412,97386
 2.8000e+000 97438 -5.0000e+001 -2.3679e+002 -2.5989e+001 40678 97230,97282,97256
 2.8000e+000 97976 -1.0212e+002 -1.6840e+002 -3.1678e+000 40244 97702,97832,97754
 2.8000e+000 97953 -8.5017e+001 -1.5658e+002 -8.9310e+000 40244 97702,97858,97832
 2.8000e+000 97930 -1.0519e+002 -1.8909e+002 -4.4739e+001 40244 97702,97754,97728
 2.8000e+000 97907 -8.4544e+001 -1.8833e+002  2.0695e+001 40244 97780,97832,97806
 2.8000e+000 97884 -9.1250e+001 -1.6318e+002 -1.6300e+000 40244 97754,97832,97780
 2.8000e+000 98482 -7.3443e+001 -1.8334e+002  2.0385e+001 39690 98505,98185,98159
 2.8000e+000 98459 -7.0769e+001 -1.8228e+002  2.1639e+001 39690 98505,98159,98289
 2.8000e+000 98436 -1.3029e+002 -2.5341e+002  8.0445e+001 39690 98159,98315,98289
 2.8000e+000 98413 -5.8205e+001 -1.7133e+002  2.6700e+001 39690 98211,98289,98263
 2.8000e+000 98390 -3.6842e+001 -1.0675e+002  1.6066e+001 39690 98211,98263,98237
 2.8000e+000 98367 -3.1560e+001 -1.5994e+002  3.8205e+001 39690 98159,98341,98315
 2.8000e+000 98531 -7.8962e+001 -1.8301e+002  1.8162e+001 39690 98211,98185,98505
 2.8000e+000 98554 -7.3791e+001 -1.7880e+002  2.0371e+001 39690 98211,98505,98289
 2.8000e+000 99109 -5.6454e+001 -1.4620e+002 -9.0387e+000 39072 99132,98867,98789
 2.8000e+000 99086 -6.0128e+001 -1.5004e+002 -1.1203e+001 39072 99132,98789,98763
 2.8000e+000 99063 -8.2953e+001 -2.3899e+002  2.4644e+001 39072 98867,98945,98919
 2.8000e+000 99040 -4.9123e+001 -1.5571e+002 -1.4661e+000 39072 98789,98867,98841
 2.8000e+000 99017 -1.0875e+002 -1.7783e+002  6.8831e+000 39072 98867,98919,98893
 2.8000e+000 98994 -8.0717e+001 -1.4350e+002  3.2813e+001 39072 98789,98841,98815
 2.8000e+000 98971 -8.5031e+001 -1.6774e+002 -1.3617e+001 39072 98737,98945,98763
 2.8000e+000 99158 -5.3748e+001 -1.5109e+002 -1.0532e+001 39072 98945,98867,99132
 2.8000e+000 99181 -5.5590e+001 -1.5479e+002 -1.1654e+001 39072 98945,99132,98763
 2.8000e+000 99510 -4.7916e+001 -1.4700e+002  7.7353e+000 38668 99311,99389,99363
 2.8000e+000 99487 -4.9460e+001 -1.4844e+002  6.4614e+000 38668 99285,99389,99311
 2.8000e+000 99464 -9.6920e+001 -1.8034e+002  2.6087e+001 38668 99285,99415,99389
 2.8000e+000 99441 -4.6208e+001 -1.4656e+002  7.6036e+000 38668 99311,99363,99337
 2.8000e+000 99758 -2.7279e+001 -2.2270e+002  3.8280e+001 38164 99781,99611,99585
 2.8000e+000 99735 -3.9767e+001 -2.2634e+002  3.5400e+001 38164 99781,99585,99533
 2.8000e+000 99712 -1.8855e+001 -1.8567e+002  1.5223e+001 38164 99611,99663,99637
 2.8000e+000 99689 -1.3733e+001 -2.2518e+002 -1.0621e+001 38164 99533,99585,99559
 2.8000e+000 99807 -2.1052e+001 -2.2836e+002  3.5063e+001 38164 99663,99611,99781
 2.8000e+000 99830 -2.8540e+001 -2.2806e+002  3.4560e+001 38164 99663,99781,99533
 2.8000e+000 100232 -7.6493e+001 -1.8805e+002  3.4984e+000 37702 99984,100114,100088
 2.8000e+000 100209 -6.1732e+001 -2.0054e+002  2.1122e+001 37702 99958,100114,99984
 2.8000e+000 100186 -1.1356e+002 -2.3392e+002 -1.4212e+001 37702 100010,100088,100036
 2.8000e+000 100163 -7.8066e+001 -1.8905e+002  1.1737e+000 37702 99984,100088,100010
 2.8000e+000 100140 -7.2269e+001 -1.7071e+002 -4.4211e+001 37702 100036,100088,100062
 2.8000e+000 100640 -1.4455e+002 -2.0567e+002  2.3768e+001 37262 100493,100545,100519
 2.8000e+000 100617 -1.2443e+002 -2.2549e+002  1.3888e+001 37262 100441,100545,100493
 2.8000e+000 100594 -6.9998e+001 -1.8083e+002 -2.2487e+001 37262 100415,100545,100441
 2.8000e+000 100571 -1.4910e+002 -2.6024e+002 -1.2259e+001 37262 100441,100493,100467
 2.8000e+000 101146 -9.5912e+001 -1.6327e+002  1.0762e+000 36872 100823,100979,100849
 2.8000e+000 101123 -9.4006e+001 -1.5300e+002 -1.3973e+001 36872 100823,101005,100979
 2.8000e+000 101100 -9.8716e+001 -2.3229e+002  3.1845e+001 36872 101169,100901,100849
 2.8000e+000 101077 -7.6860e+001 -1.8608e+002  1.8416e+001 36872 101169,100849,100979
 2.8000e+000 101054 -5.1656e+001 -1.8814e+002 -7.7265e+000 36872 100927,100979,100953
 2.8000e+000 101031 -5.1293e+001 -2.6397e+002  4.5169e+001 36872 100849,100901,100875
 2.8000e+000 101195 -7.0027e+001 -2.4606e+002  3.1212e+000 36872 100927,100901,101169
 2.8000e+000 101218 -5.6746e+001 -2.2144e+002 -7.6389e+000 36872 100927,101169,100979
 2.8000e+000 101773 -1.2407e+002 -1.8806e+002  2.9050e+001 36418 101479,101609,101583
 2.8000e+000 101750 -1.2249e+002 -2.0344e+002  3.5615e+001 36418 101453,101609,101479
 2.8000e+000 101727 -8.0893e+001 -1.9691e+002 -5.5581e-001 36418 101796,101531,101479
 2.8000e+000 101704 -1.1381e+002 -2.1694e+002  1.1363e+001 36418 101796,101479,101583
 2.8000e+000 101681 -6.9202e+001 -1.6621e+002 -4.7244e+000 36418 101479,101531,101505
 2.8000e+000 101658 -5.8099e+000 -1.9058e+002 -7.2711e+000 36418 101401,101609,101453
 2.8000e+000 101635 -3.7294e+001 -2.3059e+002 -2.3290e+001 36418 101401,101453,101427
 2.8000e+000 101822 -8.9799e+001 -1.8246e+002 -3.2433e+001 36418 101557,101531,101796
 2.8000e+000 101845 -1.3081e+002 -1.9440e+002 -2.2789e+001 36418 101557,101796,101583
 2.8000e+000 102174  3.9271e+001 -9.0446e+001 -3.7617e+001 35914 101949,102053,101975
 2.8000e+000 102151 -6.7504e+001 -1.2536e+002 -1.2244e+001 35914 101949,102079,102053
 2.8000e+000 102128 -4.8593e+001 -1.3246e+002 -6.7997e+000 35914 101975,102053,102027
 2.8000e+000 102105  4.4326e+000 -8.4816e+001 -3.4085e+001 35914 101975,102027,102001
 2.8000e+000 102631 -3.6656e+001 -1.9096e+002  5.1134e+000 35574 102383,102513,102487
 2.8000e+000 102608 -2.5524e+001 -1.9755e+002  4.5976e+000 35574 102357,102513,102383
 2.8000e+000 102585 -4.6794e+001 -1.9049e+002  9.1231e+000 35574 102409,102487,102435
 2.8000e+000 102562 -6.2532e+001 -2.0113e+002  4.5022e+000 35574 102383,102487,102409
 2.8000e+000 102539 -6.8031e+001 -2.0170e+002 -1.3446e+001 35574 102435,102487,102461
 2.8000e+000 103009 -1.0228e+002 -1.8238e+002 -1.5500e+001 35170 102761,102865,102787
 2.8000e+000 102986 -5.4793e+001 -1.5707e+002  1.3865e+001 35170 102761,102891,102865
 2.8000e+000 102963 -8.8340e+001 -1.8197e+002 -4.0148e+000 35170 102787,102865,102813
 2.8000e+000 102940 -4.6430e+001 -1.4857e+002  1.7317e+001 35170 102735,102891,102761
 2.8000e+000 102917 -8.7470e+001 -1.8101e+002 -7.1481e+000 35170 102813,102865,102839
 2.8000e+000 103257 -2.7709e+001 -1.5099e+002 -1.8974e+001 34659 103280,103058,103032
 2.8000e+000 103234 -2.5057e+001 -1.5601e+002 -2.5625e+001 34659 103280,103032,103162
 2.8000e+000 103211 -2.0307e+001 -1.3834e+002 -2.4788e+001 34659 103084,103162,103110
 2.8000e+000 103188 -4.5901e+001 -1.7693e+002 -6.6435e+000 34659 103110,103162,103136
 2.8000e+000 103306 -1.9232e+001 -1.4472e+002 -1.6241e+001 34659 103084,103058,103280
 2.8000e+000 103329 -2.0459e+001 -1.5219e+002 -2.3946e+001 34659 103084,103280,103162
 2.8000e+000 103837 -1.4360e+001 -2.0087e+002  7.5254e+000 34247 103860,103566,103540
 2.8000e+000 103814 -2.4440e+001 -2.0153e+002  5.6303e-001 34247 103932,103860,103540
 2.8000e+000 103791 -1.6217e+001 -2.2522e+002 -2.3695e+001 34247 103932,103540,103670
 2.8000e+000 103768 -1.8700e+001 -1.8463e+002  7.5765e+000 34247 103566,103618,103592
 2.8000e+000 103745 -7.8190e+001 -1.8977e+002 -3.0580e+001 34247 103540,103696,103670
 2.8000e+000 103722 -1.0530e+002 -2.1100e+002  3.0214e+001 34247 103514,103696,103540
 2.8000e+000 103886 -4.0245e+001 -1.9943e+002 -1.4977e+000 34247 103618,103566,103860
 2.8000e+000 103909 -4.7872e+001 -2.1479e+002  6.6566e+000 34247 103618,103860,103644
 2.8000e+000 103958 -4.6207e+001 -2.5865e+002 -2.4407e+000 34247 103644,103860,103932
 2.8000e+000 103981 -3.7815e+001 -2.8045e+002 -2.7876e+001 34247 103644,103932,103670
 2.8000e+000 104300 -9.6367e+001 -2.0504e+002 -9.3794e+000 33843 104052,104182,104156
 2.8000e+000 104277 -1.2077e+002 -1.9123e+002 -3.5795e+000 33843 104026,104182,104052
 2.8000e+000 104254 -9.6670e+001 -2.3324e+002  5.0032e+000 33843 104078,104156,104130
 2.8000e+000 104231 -1.1915e+002 -2.2409e+002 -9.0996e-001 33843 104052,104156,104078
 2.8000e+000 104208 -1.4693e+002 -2.4829e+002  7.6777e+000 33843 104078,104130,104104
 2.8000e+000 104499 -5.2733e+001 -2.1665e+002 -2.1460e+001 33282 104594,104522,104375
 2.8000e+000 104476 -3.0875e+001 -2.1956e+002  7.7649e+000 33282 104522,104323,104427
 2.8000e+000 104453 -3.9690e+001 -2.2750e+002 -1.9557e+001 33282 104594,104375,104349
 2.8000e+000 104548 -6.7631e+001 -1.8115e+002 -1.1817e+000 33282 104401,104375,104522
 2.8000e+000 104571 -2.3219e+001 -1.7446e+002  3.0321e+001 33282 104401,104522,104427
 2.8000e+000 104620 -3.9043e+001 -1.9545e+002 -1.4758e+001 33282 104323,104522,104594
 2.8000e+000 104643 -3.1496e+001 -2.1220e+002 -1.5153e+001 33282 104323,104594,104349
 2.8000e+000 104942 -9.9968e+001 -2.4873e+002  3.1720e+001 32728 104694,104772,104720
 2.8000e+000 104919 -7.9979e+001 -2.2776e+002  1.1919e+001 32728 104694,104824,104772
 2.8000e+000 104896 -1.2981e+002 -2.2968e+002  3.3590e+001 32728 104720,104772,104746
 2.8000e+000 104873 -6.2286e+001 -2.5850e+002  1.3697e+001 32728 104772,104824,104798
 2.8000e+000 104850 -6.4833e+001 -2.2187e+002  1.3676e+001 32728 104668,104824,104694
 2.8000e+000 105373 -7.8596e+001 -2.5081e+002 -1.0610e+001 32274 105396,105102,105076
 2.8000e+000 105350 -8.8616e+001 -2.7528e+002 -2.8530e+000 32274 105396,105076,105206
 2.8000e+000 105327 -1.1508e+002 -2.7934e+002  1.6666e+001 32274 105154,105206,105180
 2.8000e+000 105304 -2.9098e+001 -2.5996e+002 -2.3084e+001 32274 105076,105232,105206
 2.8000e+000 105281 -1.0180e+002 -2.2763e+002 -3.8130e+001 32274 105102,105154,105128
 2.8000e+000 105258 -1.4282e+002 -2.1658e+002 -4.7720e+001 32274 105050,105232,105076
 2.8000e+000 105422 -9.4780e+001 -2.2385e+002 -9.9862e+000 32274 105154,105102,105396
 2.8000e+000 105445 -1.0360e+002 -2.4838e+002 -3.8880e+000 32274 105154,105396,105206
 2.8000e+000 105644 -8.0815e+001 -2.2770e+002 -4.6269e+000 31620 105468,105546,105520
 2.8000e+000 105621 -6.8905e+001 -2.3837e+002 -1.0471e+001 31620 105468,105572,105546
 2.8000e+000 105598 -8.0736e+001 -2.4815e+002  1.2972e+001 31620 105468,105520,105494
 2.8000e+000 105794 -3.2999e+001 -2.2405e+002 -7.4347e+000 31158 105889,105817,105693
 2.8000e+000 105771 -4.9569e+001 -1.9634e+002 -1.4141e+001 31158 105817,105667,105745
 2.8000e+000 105843 -4.1912e+001 -2.7815e+002 -3.2403e+000 31158 105719,105693,105817
 2.8000e+000 105866 -2.9471e+001 -2.3536e+002 -1.2963e+001 31158 105719,105817,105745
 2.8000e+000 105915 -6.9254e+001 -2.3959e+002 -7.8508e+000 31158 105667,105817,105889
 2.8000e+000 106270 -1.0818e+002 -2.1404e+002 -3.3610e-002 30818 106293,106071,106045
 2.8000e+000 106247 -1.2410e+002 -2.4889e+002 -2.8908e+001 30818 106293,106045,106175
 2.8000e+000 106224 -5.1244e+001 -2.0276e+002  1.0947e+001 30818 106123,106175,106149
 2.8000e+000 106201 -1.0609e+002 -2.1071e+002  1.5310e+001 30818 106071,106123,106097
 2.8000e+000 106319 -9.7238e+001 -1.9994e+002  9.5666e+000 30818 106123,106071,106293
 2.8000e+000 106342 -9.1828e+001 -2.1755e+002 -1.4660e+001 30818 106123,106293,106175
 2.8000e+000 106492 -9.0189e+001 -2.1140e+002  4.2016e+001 30414 106645,106391,106365
 2.8000e+000 106469 -4.2029e+001 -2.0982e+002  5.9425e+001 30414 106515,106365,106443
 2.8000e+000 106541 -6.1939e+001 -2.1781e+002  4.6203e+001 30414 106645,106365,106515
 2.8000e+000 106671 -4.9994e+001 -2.4552e+002  7.3669e+001 30414 106417,106391,106645
 2.8000e+000 106694  1.5759e+001 -2.2843e+002  6.4170e+001 30414 106417,106645,106515
 2.8000e+000 106942 -4.0547e+001 -3.0304e+002 -8.2307e+000 29910 106965,106795,106769
 2.8000e+000 106919 -2.9860e+001 -2.6937e+002  2.1056e+000 29910 106965,106769,106717
 2.8000e+000 106896 -4.1646e+001 -2.2408e+002 -3.2183e+001 29910 106795,106847,106821
 2.8000e+000 106873 -8.1976e+000 -2.3276e+002  2.0668e+001 29910 106717,106769,106743
 2.8000e+000 106991 -6.2530e+001 -2.6522e+002 -2.5097e+000 29910 106847,106795,106965
 2.8000e+000 107014 -4.4698e+001 -2.2080e+002  7.8589e+000 29910 106847,106965,106717
 2.8000e+000 107213 -6.9550e+001 -2.3498e+002  7.9820e+000 29413 107236,107063,107037
 2.8000e+000 107190 -5.5121e+001 -2.8605e+002  2.6548e+001 29413 107236,107037,107141
 2.8000e+000 107167 -7.4622e+001 -1.6151e+002  3.6087e+001 29413 107063,107115,107089
 2.8000e+000 107262 -6.0879e+001 -2.0378e+002  6.9603e+000 29413 107115,107063,107236
 2.8000e+000 107285 -3.8749e+001 -2.4120e+002  2.7834e+001 29413 107115,107236,107141
 2.8000e+000 107486 -2.8136e+001 -2.1059e+002  1.7544e+001 29009 107336,107388,107362
 2.8000e+000 107463 -1.5156e+001 -2.0398e+002  4.6361e+000 29009 107310,107388,107336
 2.8000e+000 107440 -2.5600e+001 -1.9495e+002  6.9821e+000 29009 107310,107414,107388
 2.8000e+000 107736 -8.5645e+001 -2.4063e+002 -5.8795e+000 28491 107537,107615,107563
 2.8000e+000 107713 -7.8198e+001 -2.3728e+002 -5.0390e+000 28491 107537,107641,107615
 2.8000e+000 107690 -1.6786e+001 -2.3827e+002  1.5116e+001 28491 107563,107615,107589
 2.8000e+000 107667 -8.6624e+001 -2.3929e+002 -7.4104e+000 28491 107511,107641,107537
 2.8000e+000 108118 -6.2976e+001 -2.4055e+002  5.2322e+000 27980 108141,107922,107844
 2.8000e+000 108095 -4.9840e+001 -2.6513e+002  4.7838e+000 27980 108141,107844,108000
 2.8000e+000 108072 -6.1567e+001 -2.3905e+002 -4.8491e+000 27980 107844,107922,107870
 2.8000e+000 108049 -5.1648e+001 -2.0496e+002 -7.0353e+000 27980 107870,107922,107896
 2.8000e+000 108026 -8.5006e+001 -1.9546e+002  4.1804e+001 27980 107922,107974,107948
 2.8000e+000 108167 -5.4363e+001 -2.3844e+002  9.2333e+000 27980 107974,107922,108141
 2.8000e+000 108190 -1.8146e+001 -2.4067e+002  1.6179e+001 27980 107974,108141,108000
 2.8000e+000 108745 -3.0325e+001 -1.5780e+002 -3.3940e+000 27376 108840,108768,108477
 2.8000e+000 108722 -5.1830e+001 -1.9235e+002 -3.6227e+001 27376 108768,108373,108581
 2.8000e+000 108699 -4.7464e+001 -1.3794e+002  2.8095e+001 27376 108840,108477,108451
 2.8000e+000 108676 -1.1252e+002 -1.6416e+002 -6.6763e+000 27376 108373,108451,108399
 2.8000e+000 108653 -4.8342e+001 -1.9476e+002  2.2839e+001 27376 108503,108581,108529
 2.8000e+000 108630 -5.5138e+001 -1.9057e+002  2.4248e+001 27376 108529,108581,108555
 2.8000e+000 108607 -1.2875e+002 -1.8131e+002  1.2895e+001 27376 108399,108451,108425
 2.8000e+000 108794 -4.7754e+001 -2.0940e+002 -3.3082e-001 27376 108503,108477,108768
 2.8000e+000 108817 -1.5458e+001 -1.9208e+002 -7.6512e+000 27376 108503,108768,108581
 2.8000e+000 108866 -9.4226e+001 -1.9405e+002 -1.7885e+001 27376 108373,108768,108840
 2.8000e+000 108889 -9.1084e+001 -1.6763e+002  1.4988e+001 27376 108373,108840,108451
 2.8000e+000 109186 -9.0154e+001 -2.4962e+002  2.5139e+001 26722 109209,108938,108912
 2.8000e+000 109163 -8.4550e+001 -2.3460e+002  1.8894e+001 26722 109281,109209,108912
 2.8000e+000 109140 -7.9545e+001 -2.3057e+002  1.6569e+001 26722 109281,108912,109042
 2.8000e+000 109117 -6.6342e+001 -2.5789e+002  1.6961e+001 26722 108938,108990,108964
 2.8000e+000 109094 -1.1620e+002 -2.0415e+002  6.3788e+000 26722 108912,109068,109042
 2.8000e+000 109235 -6.5725e+001 -2.3907e+002  2.2901e+001 26722 108990,108938,109209
 2.8000e+000 109258 -7.8188e+001 -2.5756e+002  1.7480e+001 26722 108990,109209,109016
 2.8000e+000 109307 -7.2199e+001 -2.4150e+002  9.0871e+000 26722 109016,109209,109281
 2.8000e+000 109330 -6.4206e+001 -2.3329e+002  5.6101e+000 26722 109016,109281,109042
 2.8000e+000 109732 -9.3181e+001 -2.0278e+002 -4.1359e+000 26310 109458,109588,109484
 2.8000e+000 109709 -8.5177e+001 -2.2121e+002 -2.2623e+001 26310 109458,109614,109588
 2.8000e+000 109686 -1.3705e+002 -2.3631e+002  3.2873e+001 26310 109510,109562,109536
 2.8000e+000 109663 -1.3584e+002 -2.2350e+002  1.3272e+001 26310 109484,109562,109510
 2.8000e+000 109640 -9.6962e+001 -2.0554e+002 -1.9063e+000 26310 109484,109588,109562
 2.8000e+000 110159 -6.0764e+001 -2.0902e+002 -5.7328e+000 25642 110182,109940,109914
 2.8000e+000 110136 -5.5667e+001 -2.3939e+002  2.7636e+001 25642 110182,109914,109888
 2.8000e+000 110113 -6.6656e+001 -2.5713e+002 -3.3086e+001 25642 109966,110018,109992
 2.8000e+000 110090 -7.8406e+001 -2.4932e+002  1.8738e+001 25642 110254,109966,109940
 2.8000e+000 110067 -1.1108e+002 -2.3647e+002  1.0757e+001 25642 109862,110018,109888
 2.8000e+000 110044 -1.1151e+002 -2.0206e+002  2.8057e+001 25642 109836,110018,109862
 2.8000e+000 110208 -7.9344e+001 -2.2684e+002  1.3943e+001 25642 110254,109940,110182
 2.8000e+000 110231 -8.8549e+001 -2.4248e+002  2.9878e+001 25642 110018,110182,109888
 2.8000e+000 110280 -7.0521e+001 -2.7677e+002  1.4175e+001 25642 110018,109966,110254
 2.8000e+000 110303 -7.6021e+001 -2.5988e+002  9.9606e+000 25642 110018,110254,110182
 2.8000e+000 110632 -9.5499e+001 -2.0533e+002 -1.5823e+001 25188 110407,110485,110433
 2.8000e+000 110609 -1.1952e+002 -2.1032e+002 -8.8353e+000 25188 110407,110537,110485
 2.8000e+000 110586 -1.2057e+002 -2.1823e+002 -4.3886e+001 25188 110433,110485,110459
 2.8000e+000 110563 -1.1115e+002 -2.2117e+002  1.9975e+001 25188 110485,110537,110511
 2.8000e+000 110831 -3.0879e+001 -2.1531e+002  4.4076e+000 24726 110854,110707,110655
 2.8000e+000 110808 -2.5337e+001 -2.2987e+002  1.8144e+001 24726 110854,110655,110759
 2.8000e+000 110785 -3.0227e+001 -2.1593e+002  3.7640e+000 24726 110655,110707,110681
 2.8000e+000 110880 -2.6062e+001 -2.0129e+002  4.5827e+000 24726 110733,110707,110854
 2.8000e+000 110903 -1.7166e+001 -2.0925e+002  1.9132e+001 24726 110733,110854,110759
 2.8000e+000 111234 -3.0595e+000 -1.4509e+002 -1.6959e+001 24222 111257,111087,111035
 2.8000e+000 111211  3.8858e+001 -1.2657e+002  6.8772e-001 24222 111257,111035,111009
 2.8000e+000 111188  4.7227e+001 -8.3404e+001 -4.3599e+001 24222 111035,111087,111061
 2.8000e+000 111165 -2.2699e+001 -1.1710e+002  2.6660e+000 24222 111087,111139,111113
 2.8000e+000 111283 -2.5973e+001 -1.1602e+002 -1.1209e+000 24222 111139,111087,111257
 2.8000e+000 111306 -8.6485e+000 -9.8094e+001  1.0095e+001 24222 111139,111257,111009
 2.8000e+000 111625 -3.6070e+001 -2.1463e+002 -1.2107e+001 23732 111648,111481,111455
 2.8000e+000 111602 -3.6141e+001 -2.1564e+002 -1.2174e+001 23732 111648,111455,111377
 2.8000e+000 111579  2.1999e+001 -1.1452e+002  2.2294e+001 23732 111377,111429,111403
 2.8000e+000 111556 -1.8052e+001 -2.1786e+002 -5.1408e+000 23732 111377,111455,111429
 2.8000e+000 111533 -2.9353e+001 -1.9049e+002 -5.5502e+000 23732 111351,111507,111377
 2.8000e+000 111674 -3.5903e+001 -2.1272e+002 -1.0861e+001 23732 111507,111481,111648
 2.8000e+000 111697 -3.6821e+001 -2.1496e+002 -1.1056e+001 23732 111507,111648,111377
 2.8000e+000 112156 -6.1846e+001 -2.4047e+002  1.3101e+001 23278 112179,111908,111882
 2.8000e+000 112133 -6.0338e+001 -2.2629e+002  3.3984e+000 23278 112179,111882,112012
 2.8000e+000 112110 -3.2796e+001 -2.5898e+002  1.4862e+000 23278 111908,111960,111934
 2.8000e+000 112087  1.1243e+001 -2.0217e+002 -2.2694e+001 23278 111882,112038,112012
 2.8000e+000 112064 -3.6030e+001 -2.0518e+002 -4.4197e+000 23278 111960,112012,111986
 2.8000e+000 112205 -5.7404e+001 -2.3289e+002  1.5407e+000 23278 111960,111908,112179
 2.8000e+000 112228 -4.9968e+001 -2.1610e+002 -9.1913e+000 23278 111960,112179,112012
 2.8000e+000 112685 -1.5416e+002 -3.4003e+002 -3.2753e+001 22938 112489,112567,112541
 2.8000e+000 112662 -1.3512e+002 -2.9720e+002 -2.9321e+001 22938 112437,112567,112489
 2.8000e+000 112639 -9.1416e+001 -2.5665e+002 -4.3320e+000 22938 112489,112541,112515
 2.8000e+000 112616 -1.5201e+002 -2.8372e+002 -2.5709e+001 22938 112411,112567,112437
 2.8000e+000 112593 -1.2019e+002 -3.7236e+002 -8.2585e+000 22938 112437,112489,112463
 2.8000e+000 113191 -7.6127e-001 -2.1872e+002 -3.5832e+001 22534 113214,112998,112946
 2.8000e+000 113168 -5.8622e+001 -2.1105e+002 -1.1382e+001 22534 113286,113214,112946
 2.8000e+000 113145 -4.7114e+001 -2.0966e+002 -1.0096e+001 22534 113286,112946,112920
 2.8000e+000 113122 -1.1487e+002 -2.0225e+002 -3.6543e+001 22534 113358,113024,112998
 2.8000e+000 113099 -6.4591e+001 -2.1029e+002 -1.7154e-001 22534 112868,113050,112894
 2.8000e+000 113076 -7.8179e+001 -4.2118e+002 -7.6811e+001 22534 112946,112998,112972
 2.8000e+000 113240 -8.8471e+001 -2.4482e+002 -4.0150e+001 22534 113358,112998,113214
 2.8000e+000 113263 -6.5848e+001 -2.2638e+002 -2.8014e+000 22534 113050,113214,112894
 2.8000e+000 113312 -4.1293e+001 -2.1504e+002 -8.8078e+000 22534 112894,113214,113286
 2.8000e+000 113335 -2.7063e+001 -2.1198e+002 -1.0069e+001 22534 112894,113286,112920
 2.8000e+000 113384 -8.3352e+001 -1.7251e+002 -2.1231e+001 22534 113050,113024,113358
 2.8000e+000 113407 -4.2753e+001 -2.0386e+002 -2.1330e+001 22534 113050,113358,113214
 2.8000e+000 113785 -1.1191e+002 -2.8708e+002  5.5789e+000 21978 113808,113615,113511
 2.8000e+000 113762 -9.1489e+001 -2.9144e+002  1.9150e+001 21978 113808,113511,113667
 2.8000e+000 113739 -6.8802e+001 -2.4649e+002 -1.1962e+001 21978 113511,113615,113537
 2.8000e+000 113716  2.5882e+001 -2.1892e+002 -2.3069e+001 21978 113537,113615,113589
 2.8000e+000 113693 -3.1167e+001 -3.1618e+002  4.6848e+000 21978 113537,113589,113563
 2.8000e+000 113834 -1.1500e+002 -2.8599e+002  3.1153e+001 21978 113641,113615,113808
 2.8000e+000 113857 -6.1339e+001 -2.6548e+002  4.7300e+001 21978 113641,113808,113667
 2.8000e+000 114284 -8.6937e+001 -2.3902e+002  8.4033e+000 21517 114013,114117,114039
 2.8000e+000 114261 -9.3433e+001 -2.3692e+002  2.0184e+001 21517 113961,114117,114013
 2.8000e+000 114238 -8.9992e+001 -2.4422e+002  2.0214e+001 21517 113961,114013,113987
 2.8000e+000 114215 -1.3695e+002 -2.6392e+002 -1.6091e+001 21517 114039,114117,114091
 2.8000e+000 114192 -9.7635e+001 -2.0484e+002  2.5061e+001 21517 113961,114143,114117
 2.8000e+000 114169  5.9279e+000 -2.1116e+002 -1.4547e+001 21517 114039,114091,114065
 2.8000e+000 114581 -4.8955e+001 -2.8622e+002  3.2758e+000 21027 114359,114463,114437
 2.8000e+000 114558 -2.6586e+001 -2.5929e+002  3.4250e+001 21027 114333,114463,114359
 2.8000e+000 114535 -2.1084e+001 -2.6224e+002 -7.1480e+000 21027 114359,114437,114385
 2.8000e+000 114512 -1.7339e+001 -2.5736e+002  2.7989e+001 21027 114307,114463,114333
 2.8000e+000 114489  3.8809e+001 -2.4486e+002 -1.1934e+001 21027 114385,114437,114411
 2.8000e+000 114912 -1.1089e+002 -2.4297e+002  3.8180e+000 20623 114713,114791,114765
 2.8000e+000 114889 -7.7897e+001 -2.2945e+002 -1.7471e+001 20623 114687,114791,114713
 2.8000e+000 114866 -5.4118e+001 -2.5861e+002 -1.9237e+001 20623 114687,114817,114791
 2.8000e+000 114843 -1.6114e+002 -2.9417e+002  2.5221e+001 20623 114713,114765,114739
 2.8000e+000 115290 -4.0028e+001 -2.1822e+002  9.4327e+000 20375 115313,115146,115094
 2.8000e+000 115267 -4.7472e+001 -2.1918e+002  1.3190e+001 20375 115313,115094,115042
 2.8000e+000 115244 -4.7063e+001 -1.9960e+002  3.6798e+000 20375 115385,115016,115172
 2.8000e+000 115221  3.5739e+001 -1.9064e+002  1.3455e+001 20375 115042,115094,115068
 2.8000e+000 115198 -5.2869e+001 -2.5360e+002  1.3384e+001 20375 115094,115146,115120
 2.8000e+000 115339 -6.6848e+001 -2.5264e+002 -8.6409e+000 20375 115172,115146,115313
 2.8000e+000 115362 -4.2698e+001 -2.0822e+002  1.8277e+000 20375 115385,115172,115313
 2.8000e+000 115411 -4.2521e+001 -2.0639e+002  1.2213e+001 20375 115042,115016,115385
 2.8000e+000 115434 -4.3599e+001 -2.2051e+002  1.1770e+001 20375 115042,115385,115313
 2.8000e+000 115891 -1.1689e+002 -2.3556e+002  2.4271e+001 19971 115617,115747,115643
 2.8000e+000 115868 -9.5591e+001 -1.8553e+002  2.5152e+001 19971 115617,115773,115747
 2.8000e+000 115845 -8.2419e+001 -3.2573e+002  1.2329e+001 19971 115643,115721,115695
 2.8000e+000 115822 -9.4919e+000 -1.7014e+002 -7.1719e+000 19971 115643,115747,115721
 2.8000e+000 115799  1.8704e+001 -3.7154e+002 -1.3723e+001 19971 115643,115695,115669
 2.8000e+000 115992 -1.6710e+002 -4.3172e+002 -7.4241e+001 19659 115914,115966,115940
 2.8000e+000 116142 -2.4342e+001 -9.4487e+001  2.5243e+000 18997 116041,116093,116067
 2.8000e+000 116119 -5.0693e+001 -1.6189e+002  9.2834e+000 18997 116015,116093,116041
 2.8000e+000 116343 -4.9619e+001 -2.6184e+002 -7.2466e+000 18707 116193,116245,116219
 2.8000e+000 116320 -6.3975e+001 -2.7201e+002 -1.3575e+001 18707 116193,116271,116245
 2.8000e+000 116297 -4.5392e+001 -2.1853e+002 -2.1416e+001 18707 116167,116271,116193
 2.8000e+000 116747 -4.2821e+001 -2.2384e+002 -3.1285e+000 18301 116525,116629,116551
 2.8000e+000 116724 -3.5920e+001 -1.9319e+002  3.3763e+000 18301 116473,116629,116525
 2.8000e+000 116701 -3.2214e+001 -1.9801e+002 -1.2387e+001 18301 116473,116525,116499
 2.8000e+000 116678 -2.7651e+001 -2.3325e+002 -4.3284e+000 18301 116551,116603,116577
 2.8000e+000 116655 -4.9630e+001 -2.3996e+002 -8.2900e+000 18301 116551,116629,116603
 2.8000e+000 117147 -1.1902e+002 -2.7215e+002 -7.5325e-001 17747 116899,117029,116925
 2.8000e+000 117124 -6.5115e+001 -2.0088e+002  2.6804e+001 17747 116873,117029,116899
 2.8000e+000 117101 -1.1792e+002 -2.7050e+002 -2.7333e-001 17747 116925,117029,116951
 2.8000e+000 117078 -1.0323e+002 -2.3392e+002 -3.0379e-001 17747 116951,117029,117003
 2.8000e+000 117055 -1.3850e+002 -3.0505e+002 -1.9295e+001 17747 116951,117003,116977
 2.8000e+000 117368  1.3564e+001 -2.5453e+002 -3.3923e-001 17293 117244,117296,117270
 2.8000e+000 117345 -1.9900e+001 -2.4787e+002 -6.9440e+000 17293 117192,117296,117244
 2.8000e+000 117322 -5.8248e+001 -2.4044e+002 -2.3776e+000 17293 117192,117244,117218
 2.8000e+000 117699 -2.6367e+001 -2.0464e+002 -2.5480e+001 16896 117526,117604,117552
 2.8000e+000 117676 -1.3813e+002 -3.0864e+002  1.7498e+001 16896 117500,117604,117526
 2.8000e+000 117653 -1.4310e+002 -2.4709e+002 -1.4214e+001 16896 117552,117604,117578
 2.8000e+000 117630 -1.1802e+002 -3.8973e+002  3.5723e+001 16896 117474,117604,117500
 2.8000e+000 117849 -2.8578e+002 -5.5040e+002 -2.1311e+001 16534 117722,117774,117748
 2.8000e+000 117826 -2.2561e+002 -6.7125e+002 -9.1361e+001 16534 117722,117800,117774
 2.8000e+000 118070 -3.3127e+001 -2.4252e+002  2.4055e+001 16194 117946,117998,117972
 2.8000e+000 118047 -5.7247e+001 -2.8404e+002  1.3929e+001 16194 117894,117998,117946
 2.8000e+000 118024 -7.1945e+001 -2.6186e+002 -4.0915e+000 16194 117894,117946,117920
 2.8000e+000 118173 -2.4984e+001 -2.5844e+002  0.0000e+000 15968 118095,118147,118121
 2.8000e+000 118276 -7.6995e+001 -2.6415e+002  2.9923e+000 15433 118299,118198,118250
 2.8000e+000 118325 -7.9495e+001 -2.6998e+002  3.0503e+000 15433 118224,118198,118299
 2.8000e+000 118450 -1.3510e+002 -2.9866e+002  2.8510e+001 421 118372,118424,118398
 2.9000e+000 69891 -5.3069e+001 -3.3630e+002  1.1833e+001 68988 69447,69681,69629
 2.9000e+000 69868  2.6523e+001 -3.0288e+002  1.2153e+001 68988 69421,69681,69447
 2.9000e+000 69845  6.9718e+000 -1.6378e+002  8.1432e-002 68988 69447,69629,69577
 2.9000e+000 69822 -9.3409e+001 -3.5215e+002 -4.0766e+001 68988 69447,69577,69473
 2.9000e+000 69799 -9.7305e+000 -3.9922e+002  6.4198e+001 68988 69629,69681,69655
 2.9000e+000 69776 -1.0059e+002 -2.1024e+002  3.9642e+000 68988 69577,69629,69603
 2.9000e+000 69753 -7.2741e+001 -3.1280e+002 -4.8803e+001 68988 69473,69577,69551
 2.9000e+000 69730 -1.1467e+002 -6.3902e+002 -6.4705e+001 68988 69473,69551,69525
 2.9000e+000 69707 -1.9383e+002 -4.1918e+002  5.6531e-001 68988 69473,69525,69499
 2.9000e+000 69992 -1.7316e+002 -3.5632e+002 -6.4401e+001 68676 69914,69966,69940
 2.9000e+000 70392 -1.2555e+002 -2.7142e+002  2.1223e+001 68478 70118,70248,70144
 2.9000e+000 70369  8.9000e+000 -2.7674e+002  5.9071e+001 68478 70118,70274,70248
 2.9000e+000 70346 -7.6953e+001 -2.0394e+002 -8.5806e-001 68478 70144,70222,70196
 2.9000e+000 70323 -6.3831e+001 -1.7033e+002 -7.8030e+000 68478 70144,70248,70222
 2.9000e+000 70300 -8.5027e+001 -2.2492e+002 -4.8108e+000 68478 70144,70196,70170
 2.9000e+000 70841  5.4985e+001 -1.7808e+002 -5.2143e+001 68280 70570,70622,70596
 2.9000e+000 70818 -8.7938e+001 -2.0385e+002 -1.2043e+001 68280 70544,70622,70570
 2.9000e+000 70795 -6.3468e+001 -1.4945e+002 -6.7949e+000 68280 70544,70674,70622
 2.9000e+000 70772 -5.5326e+001 -1.3213e+002  3.2598e+000 68280 70622,70674,70648
 2.9000e+000 70749 -9.1715e+001 -2.2869e+002  1.7776e+001 68280 70518,70674,70544
 2.9000e+000 70726  8.8164e+001 -2.3969e+002  7.0422e+001 68280 70518,70700,70674
 2.9000e+000 70991 -1.0770e+001 -9.8891e+002  2.9533e+001 67968 70864,70916,70890
 2.9000e+000 70968 -2.6071e+002 -9.8369e+002  1.1262e+002 67968 70864,70942,70916
 2.9000e+000 71141 -4.5282e+002 -8.7651e+002 -3.9944e+001 67770 71040,71092,71066
 2.9000e+000 71118 -3.9748e+002 -1.0506e+003  4.6069e+001 67770 71014,71092,71040
 2.9000e+000 71651 -5.7775e+001 -1.8224e+002 -3.3857e+001 67366 71746,71674,71458
 2.9000e+000 71628 -3.4970e+001 -1.4849e+002 -3.6400e+001 67366 71674,71354,71510
 2.9000e+000 71605 -5.1474e+001 -2.0065e+002 -3.2033e+001 67366 71746,71458,71432
 2.9000e+000 71582 -8.4212e+001 -2.0495e+002  8.1216e+000 67366 71354,71432,71380
 2.9000e+000 71559 -9.2546e+001 -1.4449e+002 -2.1069e+001 67366 71380,71432,71406
 2.9000e+000 71536 -4.0222e+001 -5.5567e+001 -4.2794e+000 67366 71328,71510,71354
 2.9000e+000 71700 -6.6418e+001 -1.6600e+002 -1.5401e+001 67366 71484,71458,71674
 2.9000e+000 71723 -4.2015e+001 -1.5509e+002 -1.3131e+001 67366 71484,71674,71510
 2.9000e+000 71772 -5.0209e+001 -1.6042e+002 -2.9984e+001 67366 71354,71674,71746
 2.9000e+000 71795 -4.3339e+001 -1.7683e+002 -3.0360e+001 67366 71354,71746,71432
 2.9000e+000 71896 -1.9247e+002 -4.1405e+002  0.0000e+000 67146 71818,71870,71844
 2.9000e+000 71997 -2.1634e+002 -3.3114e+002  6.6282e+001 66948 71919,71971,71945
 2.9000e+000 72149 -8.9991e-001 -2.3643e+002 -2.9308e+001 66700 72172,72074,72048
 2.9000e+000 72126 -7.3025e+001 -2.6745e+002 -1.1759e+001 66700 72172,72048,72022
 2.9000e+000 72198 -1.2284e+002 -2.9301e+002  1.8514e+001 66700 72244,72172,72100
 2.9000e+000 72221 -1.1006e+002 -2.6815e+002 -1.7309e+001 66700 72100,72172,72022
 2.9000e+000 72270 -5.9520e+001 -1.5395e+002 -1.9955e+001 66700 72074,72172,72244
 2.9000e+000 72623 -7.8107e+001 -2.4339e+002  6.3526e+000 66502 72424,72502,72450
 2.9000e+000 72600 -6.3416e+001 -2.0337e+002  4.2019e+000 66502 72398,72502,72424
 2.9000e+000 72577 -4.5046e+001 -2.3235e+002 -4.5074e+000 66502 72398,72528,72502
 2.9000e+000 72554 -7.8984e+001 -2.1524e+002 -1.8416e+000 66502 72450,72502,72476
 2.9000e+000 72920 -1.3657e+002 -2.8626e+002  7.7108e+000 65941 72672,72776,72750
 2.9000e+000 72897 -1.3497e+002 -2.4521e+002  2.8458e+001 65941 72646,72776,72672
 2.9000e+000 72874 -1.2004e+002 -2.8178e+002  1.0113e+001 65941 72672,72750,72724
 2.9000e+000 72851 -1.2162e+002 -2.2206e+002  2.2114e+001 65941 72672,72724,72698
 2.9000e+000 72828 -1.0332e+002 -2.4023e+002  2.4869e+001 65941 72646,72802,72776
 2.9000e+000 73241 -1.9379e+001 -2.0351e+002  1.7368e+001 65743 73264,73071,73045
 2.9000e+000 73218 -7.6183e+001 -2.2882e+002  2.3002e+001 65743 73480,73264,73045
 2.9000e+000 73195 -6.4210e+001 -2.0763e+002 -3.0396e+000 65743 73336,72967,73097
 2.9000e+000 73172 -1.2044e+002 -1.8889e+002 -2.3088e+001 65743 73408,72993,72967
 2.9000e+000 73149 -5.4372e+001 -2.0835e+002 -3.3799e+000 65743 72967,73123,73097
 2.9000e+000 73290 -4.3976e+001 -2.1567e+002  4.5764e+000 65743 73097,73071,73264
 2.9000e+000 73313 -5.2463e+001 -1.9578e+002  9.8576e+000 65743 73336,73097,73264
 2.9000e+000 73362 -1.0173e+002 -2.1411e+002 -1.5565e+001 65743 73408,72967,73336
 2.9000e+000 73385 -4.5259e+001 -1.9452e+002  3.3170e-001 65743 73019,73336,73264
 2.9000e+000 73434 -8.9311e+001 -1.4154e+002  1.1112e+001 65743 73019,72993,73408
 2.9000e+000 73457 -4.6215e+001 -1.7522e+002  7.7017e+000 65743 73019,73408,73336
 2.9000e+000 73506 -2.8111e+001 -1.4462e+002  3.6706e+000 65743 73019,73264,73480
 2.9000e+000 73989 -3.9845e+000 -1.6006e+002  2.0435e+001 65453 73793,73845,73819
 2.9000e+000 73966 -8.2931e+001 -1.8083e+002  2.3545e+001 65453 73741,73845,73793
 2.9000e+000 73943 -1.7887e+001 -1.4544e+002  9.9815e+000 65453 73715,73845,73741
 2.9000e+000 73920 -6.4194e+001 -1.9416e+002  3.9224e+001 65453 73741,73793,73767
 2.9000e+000 73897  8.8227e+000 -8.5505e+001  3.1719e+000 65453 73715,73871,73845
 2.9000e+000 74357 -4.7582e+001 -2.1498e+002 -6.3097e+001 65141 74380,74138,74086
 2.9000e+000 74334 -9.4220e+001 -2.9384e+002 -4.2992e+001 65141 74380,74086,74060
 2.9000e+000 74311 -1.0513e+002 -2.8450e+002 -1.1666e+001 65141 74138,74190,74164
 2.9000e+000 74288 -7.9984e+001 -3.1930e+002 -1.3306e+001 65141 74060,74216,74190
 2.9000e+000 74265 -8.6626e+001 -3.3997e+002  4.6309e+000 65141 74034,74216,74060
 2.9000e+000 74242 -6.1331e+001 -1.5568e+002 -3.6193e+001 65141 74086,74138,74112
 2.9000e+000 74406 -7.5743e+001 -2.8467e+002 -2.5124e+001 65141 74190,74138,74380
 2.9000e+000 74429 -9.0311e+001 -3.1205e+002 -1.2135e+001 65141 74190,74380,74060
 2.9000e+000 74937 -1.0379e+002 -2.1702e+002 -5.8061e+001 64737 74614,74666,74640
 2.9000e+000 74914 -1.3042e+002 -2.6864e+002 -4.3029e+001 64737 74614,74796,74666
 2.9000e+000 74891 -9.1882e+001 -1.8409e+002 -7.6921e+000 64737 74960,74718,74666
 2.9000e+000 74868 -7.8849e+001 -2.0354e+002 -2.6477e+001 64737 74960,74666,74770
 2.9000e+000 74845 -8.2191e+001 -1.6119e+002 -2.8472e+001 64737 74666,74796,74770
 2.9000e+000 74822 -8.9856e+001 -2.0012e+002  2.3778e+000 64737 74666,74718,74692
 2.9000e+000 74986 -9.9803e+001 -2.0420e+002 -7.0324e+000 64737 74744,74718,74960
 2.9000e+000 75009 -9.1638e+001 -2.3350e+002 -2.6238e+001 64737 74744,74960,74770
 2.9000e+000 75306 -3.4183e+001 -1.8917e+002  2.7605e+001 64133 75329,75110,75084
 2.9000e+000 75283 -5.4737e+001 -2.1905e+002  1.1549e+001 64133 75401,75329,75084
 2.9000e+000 75260 -5.2584e+001 -2.2587e+002  1.3720e+001 64133 75401,75084,75058
 2.9000e+000 75237 -4.7510e+001 -2.5316e+002  2.6365e+001 64133 75473,75136,75110
 2.9000e+000 75214 -6.0836e+001 -1.9694e+002  3.5681e+000 64133 75032,75188,75162
 2.9000e+000 75355 -5.4653e+001 -2.3845e+002  2.1064e+001 64133 75473,75110,75329
 2.9000e+000 75378 -4.5172e+001 -2.0694e+002  3.5852e+000 64133 75162,75329,75032
 2.9000e+000 75427 -4.2922e+001 -2.0211e+002  4.8969e+000 64133 75032,75329,75401
 2.9000e+000 75450 -9.2722e+001 -2.5128e+002  3.0868e+001 64133 75545,75401,75058
 2.9000e+000 75499 -4.8312e+001 -2.3430e+002  5.9790e+000 64133 75162,75136,75473
 2.9000e+000 75522 -5.1239e+001 -2.0585e+002  6.2511e+000 64133 75162,75473,75329
 2.9000e+000 75571 -4.1030e+001 -1.3839e+002  1.0722e+001 64133 75032,75401,75545
 2.9000e+000 75851 -7.4481e+001 -2.0120e+002  2.8438e+000 63843 75874,75753,75727
 2.9000e+000 75828 -6.3914e+001 -2.0234e+002 -1.3215e+001 63843 75946,75874,75727
 2.9000e+000 75805 -7.5070e+001 -2.1772e+002 -6.3470e+000 63843 76018,75946,75727
 2.9000e+000 75900 -5.3487e+001 -1.9230e+002 -5.7346e+000 63843 75779,75753,75874
 2.9000e+000 75923 -5.8915e+001 -1.6395e+002 -2.5234e+001 63843 75779,75874,75675
 2.9000e+000 75972 -7.5121e+001 -1.8825e+002 -1.0309e+001 63843 75675,75874,75946
 2.9000e+000 75995 -6.7731e+001 -1.9891e+002 -1.6755e+001 63843 75675,75946,75701
 2.9000e+000 76044 -7.5309e+001 -2.0751e+002 -2.1399e+001 63843 75701,75946,76018
 2.9000e+000 76454  2.2207e+001 -3.1306e+001 -2.7871e+001 63439 76477,76255,76229
 2.9000e+000 76431 -1.4465e+001 -9.4765e+001 -4.8893e+000 63439 76477,76229,76359
 2.9000e+000 76408 -2.7503e+001 -7.5117e+001  4.1728e+001 63439 76307,76359,76333
 2.9000e+000 76385 -8.7732e+000 -1.0485e+002  2.9328e+000 63439 76255,76307,76281
 2.9000e+000 76503 -1.3832e+001 -8.0671e+001  1.0174e+001 63439 76307,76255,76477
 2.9000e+000 76526 -1.3366e+001 -1.0596e+002  2.6561e+001 63439 76307,76477,76359
 2.9000e+000 76926 -4.2921e+001 -1.5528e+002 -3.6222e+000 63049 76704,76782,76756
 2.9000e+000 76903 -6.4601e+001 -1.6079e+002 -1.7896e+001 63049 76704,76808,76782
 2.9000e+000 76880 -4.4527e+001 -1.8312e+002  2.3425e+000 63049 76704,76756,76730
 2.9000e+000 76857 -4.1016e+001 -9.9263e+001  5.7960e+000 63049 76678,76808,76704
 2.9000e+000 76834 -1.9309e+001 -2.4364e+001 -2.2846e+001 63049 76652,76808,76678
 2.9000e+000 77076 -1.3029e+001 -2.3608e+002 -1.0091e+000 62737 76975,77027,77001
 2.9000e+000 77053 -1.2300e+001 -2.6510e+002 -1.6385e+001 62737 76949,77027,76975
 2.9000e+000 77324 -1.0611e+002 -2.4014e+002 -2.5569e+000 62277 77347,77177,77125
 2.9000e+000 77301 -9.9971e+001 -2.3165e+002 -1.2171e+001 62277 77347,77125,77229
 2.9000e+000 77278 -9.6116e+001 -2.3827e+002 -1.6550e+001 62277 77099,77229,77125
 2.9000e+000 77255 -1.1198e+002 -2.9469e+002  3.5394e+000 62277 77125,77177,77151
 2.9000e+000 77373 -1.1096e+002 -2.6326e+002  1.0634e+001 62277 77203,77177,77347
 2.9000e+000 77396 -8.7801e+001 -2.4162e+002 -2.1446e+000 62277 77203,77347,77229
 2.9000e+000 77857 -4.6313e+001 -2.9477e+002  3.4808e+000 61758 77635,77739,77661
 2.9000e+000 77834 -7.7911e+001 -2.8601e+002 -1.3637e+001 61758 77583,77739,77635
 2.9000e+000 77811 -8.9041e+001 -3.5529e+002 -3.6714e+001 61758 77583,77635,77609
 2.9000e+000 77788 -7.2399e+001 -2.7603e+002  2.4170e+001 61758 77661,77713,77687
 2.9000e+000 77765 -7.3617e+001 -3.2433e+002  2.5073e+001 61758 77661,77739,77713
 2.9000e+000 78491 -7.9957e+001 -1.6754e+002  8.5920e+000 61418 78171,78301,78249
 2.9000e+000 78468 -6.4449e+001 -1.3937e+002  1.9726e+001 61418 78145,78301,78171
 2.9000e+000 78445 -5.7650e+001 -1.4758e+002 -9.3130e+000 61418 78171,78249,78223
 2.9000e+000 78422 -5.9747e+001 -1.3698e+002  7.7934e+000 61418 78145,78327,78301
 2.9000e+000 78399 -8.3112e+001 -1.8757e+002 -2.0821e+000 61418 78249,78301,78275
 2.9000e+000 78376 -3.6248e+001 -1.5531e+002 -1.3226e+001 61418 78171,78223,78197
 2.9000e+000 78353 -7.7031e+001 -1.7338e+002 -3.2140e+000 61418 78119,78327,78145
 2.9000e+000 78690 -8.7568e+001 -2.0603e+002 -3.4434e+000 61014 78713,78566,78540
 2.9000e+000 78667 -5.4421e+001 -2.1016e+002 -1.1060e+000 61014 78713,78540,78618
 2.9000e+000 78644 -9.4726e+001 -2.3829e+002 -2.4972e+001 61014 78514,78618,78540
 2.9000e+000 78739 -4.1905e+001 -1.9812e+002  2.1432e+001 61014 78592,78566,78713
 2.9000e+000 78762 -4.7188e+001 -2.2148e+002  1.7282e+000 61014 78785,78713,78618
 2.9000e+000 78811 -1.4780e+001 -2.0918e+002 -3.0084e+000 61014 78592,78713,78785
 2.9000e+000 79398 -3.3256e+001 -1.7686e+002 -2.0401e+001 60624 79101,79179,79153
 2.9000e+000 79375 -4.8285e+001 -1.9977e+002 -1.0666e+001 60624 79101,79231,79179
 2.9000e+000 79352 -4.0333e+001 -2.0089e+002 -1.6795e+001 60624 79075,79231,79101
 2.9000e+000 79329 -1.1383e+001 -2.4369e+002  2.6427e+001 60624 79075,79257,79231
 2.9000e+000 79306 -3.7823e+001 -1.5070e+002 -4.1865e+001 60624 79179,79231,79205
 2.9000e+000 79283 -2.2645e+001 -1.5393e+002 -9.2500e+000 60624 79101,79153,79127
 2.9000e+000 79776 -9.2194e+001 -2.6035e+002  2.5325e+001 60070 79528,79658,79606
 2.9000e+000 79753 -8.2620e+001 -2.0174e+002 -1.8568e+000 60070 79502,79658,79528
 2.9000e+000 79730 -1.1752e+002 -2.5144e+002  3.6520e+001 60070 79528,79606,79580
 2.9000e+000 79707 -1.9669e+001 -2.2043e+002  4.9247e+000 60070 79606,79658,79632
 2.9000e+000 79684 -1.0145e+001 -1.5296e+002 -4.1475e+001 60070 79528,79580,79554
 2.9000e+000 80105 -6.3610e+001 -2.0171e+002  2.3975e+001 59758 80128,79958,79906
 2.9000e+000 80082 -6.9144e+001 -1.8875e+002  1.7086e+001 59758 80128,79906,80010
 2.9000e+000 80059 -9.3116e+001 -2.0789e+002  7.1280e+001 59758 79906,79958,79932
 2.9000e+000 80036 -1.0477e+002 -2.1616e+002  5.1054e+000 59758 79880,80010,79906
 2.9000e+000 80154 -6.6775e+001 -2.0986e+002  2.3255e+001 59758 79984,79958,80128
 2.9000e+000 80177 -7.3951e+001 -1.9998e+002  1.6270e+001 59758 79984,80128,80010
 2.9000e+000 80376 -4.9901e+001 -2.0156e+002  4.0228e+000 59312 80226,80304,80252
 2.9000e+000 80353 -5.2248e+001 -2.0377e+002  3.0617e+000 59312 80200,80304,80226
 2.9000e+000 80330 -8.1258e+001 -1.8119e+002  5.5022e+001 59312 80252,80304,80278
 2.9000e+000 80805 -7.2854e+001 -1.6815e+002 -2.6449e+001 58908 80900,80828,80638
 2.9000e+000 80782 -6.2180e+001 -1.9873e+002 -4.0529e+001 58908 80828,80560,80508
 2.9000e+000 80759 -7.6482e+001 -1.5707e+002 -8.3259e+000 58908 80900,80638,80612
 2.9000e+000 80736 -3.2496e+001 -1.7110e+002  7.0855e+001 58908 80482,80664,80508
 2.9000e+000 80713 -5.1236e+001 -1.4541e+002 -2.7315e+000 58908 80560,80612,80586
 2.9000e+000 80690 -6.9551e+001 -4.7995e+002 -9.3601e+001 58908 80508,80560,80534
 2.9000e+000 80854 -3.3453e+001 -1.8173e+002  3.0134e-001 58908 80664,80638,80828
 2.9000e+000 80877 -5.7987e+001 -2.6314e+002  4.4685e+000 58908 80664,80828,80508
 2.9000e+000 80926 -6.1321e+001 -1.3533e+002 -2.8477e+001 58908 80560,80828,80900
 2.9000e+000 80949 -6.9460e+001 -1.3521e+002 -7.8156e+000 58908 80560,80900,80612
 2.9000e+000 81246 -2.3303e+001 -1.5509e+002 -3.6384e+000 58482 81076,81128,81102
 2.9000e+000 81223 -6.7867e+001 -2.6667e+002 -2.6598e+001 58482 80972,81128,81076
 2.9000e+000 81200 -4.1341e+001 -1.8062e+002 -2.8825e+001 58482 80972,81076,81050
 2.9000e+000 81177 -1.0036e+002 -2.8137e+002 -4.0439e+000 58482 80998,81050,81024
 2.9000e+000 81154 -4.9439e+001 -2.2660e+002 -2.5469e+001 58482 80972,81050,80998
 2.9000e+000 81754 -7.6343e+001 -1.6456e+002  1.4338e+001 57828 81457,81613,81483
 2.9000e+000 81731 -8.7479e+001 -1.8534e+002  7.3566e+000 57828 81431,81613,81457
 2.9000e+000 81708 -8.3785e+001 -1.8192e+002  1.4835e+001 57828 81483,81613,81509
 2.9000e+000 81685 -1.0189e+002 -2.0826e+002  2.2810e+001 57828 81509,81613,81587
 2.9000e+000 81662 -1.0756e+002 -3.0394e+002  4.3973e+001 57828 81509,81587,81535
 2.9000e+000 81639 -6.3585e+001 -2.8874e+002  2.9068e+001 57828 81535,81587,81561
 2.9000e+000 82002 -1.2788e+002 -3.1403e+002 -4.4678e+000 57374 82025,81855,81829
 2.9000e+000 81979 -1.3439e+002 -2.9902e+002  7.8004e+000 57374 82025,81829,81907
 2.9000e+000 81956 -1.3616e+002 -2.7478e+002  3.5307e+000 57374 81803,81907,81829
 2.9000e+000 81933 -9.1944e+001 -2.5750e+002  6.5988e+000 57374 81777,81907,81803
 2.9000e+000 82051 -1.2608e+002 -2.9620e+002 -5.9540e+000 57374 81881,81855,82025
 2.9000e+000 82074 -1.3018e+002 -2.8323e+002  1.0438e+001 57374 81881,82025,81907
 2.9000e+000 82356 -6.9726e+001 -1.6476e+002 -1.2170e+001 56913 82180,82232,82206
 2.9000e+000 82333 -5.5121e+001 -1.4699e+002  1.8905e+001 56913 82180,82284,82232
 2.9000e+000 82310 -2.0604e+001 -1.2902e+002  3.1033e+001 56913 82379,82232,82284
 2.9000e+000 82405  1.8491e+001 -1.2510e+002  5.6224e+000 56913 82258,82232,82379
 2.9000e+000 82764 -6.9110e+001 -1.0820e+002 -1.1268e+001 56523 82614,82666,82640
 2.9000e+000 82741 -5.8961e+001 -1.0914e+002 -1.6644e+001 56523 82614,82692,82666
 2.9000e+000 82718 -5.0137e+001 -1.1722e+002 -3.4336e+001 56523 82588,82692,82614
 2.9000e+000 83368 -1.5140e+001 -2.1118e+002 -7.8390e+000 55969 82973,83155,83129
 2.9000e+000 83345  2.7718e+000 -2.0428e+002 -1.3584e+001 55969 82973,83181,83155
 2.9000e+000 83322 -5.6562e+001 -1.8456e+002 -6.0611e+000 55969 82973,83129,82999
 2.9000e+000 83299 -9.6678e+001 -1.9388e+002  1.1647e+001 55969 83391,83025,82999
 2.9000e+000 83276 -7.5605e+001 -1.9595e+002  3.8662e+000 55969 83391,82999,83129
 2.9000e+000 83253 -1.0801e+001 -1.5381e+002  3.5167e+001 55969 83077,83129,83103
 2.9000e+000 83230 -9.0184e+001 -1.4655e+002 -8.2125e+000 55969 83025,83077,83051
 2.9000e+000 83207 -2.7780e+000 -1.9703e+002  2.1092e+001 55969 82947,83181,82973
 2.9000e+000 83417 -7.5774e+001 -1.8508e+002  1.2836e+001 55969 83077,83025,83391
 2.9000e+000 83440 -6.8041e+001 -1.9451e+002  3.6483e+000 55969 83077,83391,83129
 2.9000e+000 83946 -1.3312e+002 -2.7943e+002  5.1148e+001 55771 83969,83779,83727
 2.9000e+000 83923 -1.0508e+002 -2.2738e+002  2.4323e+001 55771 83969,83727,83623
 2.9000e+000 83900 -1.2535e+002 -1.2967e+002  1.4020e+001 55771 83623,83727,83649
 2.9000e+000 83877 -6.0755e+001 -4.6337e+002  4.0727e+001 55771 83727,83779,83753
 2.9000e+000 83854 -1.9954e+002 -2.3823e+002  8.3233e+001 55771 83675,83727,83701
 2.9000e+000 83831 -1.9877e+002 -2.1753e+002  9.3516e+001 55771 83649,83727,83675
 2.9000e+000 83995 -1.1828e+002 -2.8716e+002 -1.6973e+001 55771 83805,83779,83969
 2.9000e+000 84018 -5.6186e+001 -1.7898e+002 -5.0053e+001 55771 83805,83969,83623
 2.9000e+000 84168 -5.2525e+001 -1.4574e+002 -4.3437e+000 55367 84191,84067,84041
 2.9000e+000 84145 -5.1600e+001 -1.6420e+002 -2.7807e+000 55367 84191,84041,84119
 2.9000e+000 84217 -5.6383e+001 -1.3484e+002 -4.0231e+000 55367 84093,84067,84191
 2.9000e+000 84240 -4.9692e+001 -1.4562e+002  2.7475e+000 55367 84093,84191,84119
 2.9000e+000 84571 -2.9009e+001 -2.5037e+002 -2.5436e+001 54913 84398,84450,84424
 2.9000e+000 84548 -2.2160e+001 -2.2604e+002 -1.0977e+001 54913 84372,84450,84398
 2.9000e+000 84525 -5.6085e+001 -2.5351e+002  9.2239e+000 54913 84346,84450,84372
 2.9000e+000 84502 -1.5047e+001 -1.5940e+002 -2.1059e+001 54913 84346,84476,84450
 2.9000e+000 85126 -1.2097e+002 -2.7528e+002 -9.9183e+000 54402 84858,84936,84910
 2.9000e+000 85103 -9.1193e+001 -2.1342e+002 -2.5540e+001 54402 84806,84936,84858
 2.9000e+000 85080 -1.0987e+002 -1.9349e+002 -1.9473e+001 54402 84780,84936,84806
 2.9000e+000 85057 -9.2001e+001 -2.3607e+002 -1.1742e+001 54402 84806,84858,84832
 2.9000e+000 85034 -9.6577e+001 -1.8153e+002  8.9316e+000 54402 84780,84962,84936
 2.9000e+000 85011 -1.4813e+002 -1.6244e+002 -5.1015e+000 54402 84858,84910,84884
 2.9000e+000 84988 -9.4525e+001 -1.7365e+002  8.3738e+000 54402 84754,84962,84780
 2.9000e+000 85396 -8.8179e+001 -1.0796e+002 -8.5126e+000 53998 85197,85249,85223
 2.9000e+000 85373 -6.6434e+001 -1.3923e+002 -2.2508e+000 53998 85197,85275,85249
 2.9000e+000 85350 -8.3739e+001 -1.6334e+002 -1.0311e+001 53998 85171,85275,85197
 2.9000e+000 85327 -3.6717e+001 -1.5168e+002 -1.2855e+001 53998 85171,85301,85275
 2.9000e+000 85749 -5.1754e+001 -2.0063e+002 -3.8074e+000 53636 85524,85628,85550
 2.9000e+000 85726 -8.3820e+001 -2.2210e+002  7.2705e+000 53636 85524,85654,85628
 2.9000e+000 85703 -3.1052e+001 -2.1166e+002 -1.8824e+001 53636 85550,85602,85576
 2.9000e+000 85680 -5.3301e+001 -2.0011e+002 -8.3839e+000 53636 85550,85628,85602
 2.9000e+000 86127 -1.5442e+001 -1.9682e+002  3.2056e+001 52982 86150,85957,85879
 2.9000e+000 86104 -5.8027e+001 -2.2816e+002  1.8359e+001 52982 86150,85879,85853
 2.9000e+000 86081 -1.3100e+001 -2.8383e+002  5.7620e+001 52982 85957,86009,85983
 2.9000e+000 86058 -7.2430e+001 -2.1118e+002  2.7701e+001 52982 85879,85957,85931
 2.9000e+000 86035 -5.3163e+001 -1.8155e+002  1.7046e+001 52982 85879,85931,85905
 2.9000e+000 86176  1.2420e+001 -2.3155e+002  2.6444e+001 52982 86009,85957,86150
 2.9000e+000 86199 -1.2864e+001 -2.5291e+002  1.7096e+001 52982 86009,86150,85853
 2.9000e+000 86398 -4.0395e+001 -1.4636e+002  1.3464e+001 52542 86421,86248,86222
 2.9000e+000 86375 -7.2741e+001 -1.5010e+002 -1.6619e+000 52542 86421,86222,86300
 2.9000e+000 86352 -7.2646e+001 -1.6155e+002 -7.0367e+000 52542 86222,86326,86300
 2.9000e+000 86447 -7.1844e+000 -1.4731e+002  2.6970e+001 52542 86274,86248,86421
 2.9000e+000 86470 -3.8145e+001 -1.5639e+002  7.8604e+000 52542 86274,86421,86300
 2.9000e+000 86669 -7.1660e+001 -1.5566e+002 -2.7650e+001 52230 86692,86571,86545
 2.9000e+000 86646 -6.9160e+001 -1.4672e+002 -1.5654e+001 52230 86692,86545,86519
 2.9000e+000 86623 -9.7115e+001 -1.5370e+002 -2.4244e+001 52230 86493,86597,86519
 2.9000e+000 86718 -7.7543e+001 -1.5898e+002 -3.1662e+001 52230 86597,86571,86692
 2.9000e+000 86741 -8.3239e+001 -1.5354e+002 -2.0333e+001 52230 86597,86692,86519
 2.9000e+000 87153 -1.0934e+002 -1.4980e+002  7.9881e+000 51640 86980,87058,87032
 2.9000e+000 87130 -1.0085e+002 -1.5820e+002  4.8414e+000 51640 86928,87058,86980
 2.9000e+000 87107 -9.8605e+001 -2.1549e+002 -1.9106e+001 51640 86928,86980,86954
 2.9000e+000 87084 -7.7950e+001 -1.3662e+002 -8.8346e-001 51640 86980,87032,87006
 2.9000e+000 87659 -3.8283e+001 -1.4577e+002  1.2592e+001 51029 87682,87440,87362
 2.9000e+000 87636 -4.5362e+001 -1.5788e+002 -3.6852e+000 51029 87682,87362,87336
 2.9000e+000 87613 -6.2793e+001 -2.2736e+002 -4.1294e+000 51029 87440,87518,87466
 2.9000e+000 87590 -7.9523e+001 -1.4808e+002  1.6065e+001 51029 87362,87440,87414
 2.9000e+000 87567 -7.8240e+001 -1.4133e+002  3.4643e+001 51029 87362,87414,87388
 2.9000e+000 87544 -8.7009e+001 -1.9269e+002  6.3759e+000 51029 87466,87518,87492
 2.9000e+000 87708 -3.3563e+001 -1.6460e+002  3.7149e+000 51029 87518,87440,87682
 2.9000e+000 87731 -3.7593e+001 -1.8643e+002 -6.6043e+000 51029 87518,87682,87336
 2.9000e+000 87881 -9.0991e+001 -1.9894e+002  5.4089e+000 50739 87780,87832,87806
 2.9000e+000 87858 -1.0278e+002 -1.9644e+002 -8.9220e+000 50739 87754,87832,87780
 2.9000e+000 88468 -5.3591e+001 -1.3233e+002  6.6570e+000 50235 88171,88327,88197
 2.9000e+000 88445 -1.2766e+002 -1.3235e+002 -2.1898e+001 50235 88145,88327,88171
 2.9000e+000 88422  4.0223e+001 -6.5988e+001  3.3904e+001 50235 88275,88327,88301
 2.9000e+000 88399 -3.0484e+001 -9.6724e+001 -3.2857e+000 50235 88197,88327,88275
 2.9000e+000 88376  1.4633e+001 -1.2109e+002  4.3086e+000 50235 88197,88275,88223
 2.9000e+000 88353  3.5557e+000 -1.3458e+002  1.1518e+001 50235 88223,88275,88249
 2.9000e+000 88895 -8.2389e+001 -2.0879e+002  7.5144e+000 49873 88918,88728,88676
 2.9000e+000 88872 -7.0471e+001 -2.0054e+002 -2.1826e+000 49873 88918,88676,88624
 2.9000e+000 88849 -5.4111e+001 -1.7455e+002 -3.7502e+000 49873 88598,88754,88624
 2.9000e+000 88826 -4.2680e+001 -1.8772e+002 -5.4515e+000 49873 88624,88676,88650
 2.9000e+000 88803 -6.9011e+001 -2.5714e+002  9.2873e+000 49873 88676,88728,88702
 2.9000e+000 88780 -6.0257e+001 -1.5590e+002  7.3261e+000 49873 88572,88754,88598
 2.9000e+000 88944 -6.6472e+001 -2.0525e+002  1.9892e+000 49873 88754,88728,88918
 2.9000e+000 88967 -6.2500e+001 -2.0433e+002 -6.8188e+000 49873 88754,88918,88624
 2.9000e+000 89473 -1.3330e+002 -2.0592e+002 -2.6351e+001 49583 89176,89306,89202
 2.9000e+000 89450 -1.3171e+002 -2.0264e+002 -3.2672e+001 49583 89176,89332,89306
 2.9000e+000 89427 -7.8587e+001 -2.2647e+002  8.0366e+000 49583 89496,89228,89202
 2.9000e+000 89404 -7.7125e+001 -2.3136e+002  9.9301e+000 49583 89496,89202,89280
 2.9000e+000 89381 -1.5988e+002 -2.8792e+002 -5.0895e+001 49583 89202,89306,89280
 2.9000e+000 89358 -1.0569e+002 -2.0380e+002 -3.7055e+001 49583 89150,89332,89176
 2.9000e+000 89522 -7.2634e+001 -1.9460e+002  5.4932e+000 49583 89254,89228,89496
 2.9000e+000 89545 -8.6115e+001 -2.2247e+002  9.9289e+000 49583 89254,89496,89280
 2.9000e+000 89825  3.5250e+001 -2.0246e+002  9.3536e+000 49179 89701,89753,89727
 2.9000e+000 89802 -2.5102e+001 -1.7914e+002  1.4620e+001 49179 89675,89753,89701
 2.9000e+000 89779 -2.0415e+001 -1.6309e+002  7.2612e+000 49179 89848,89753,89675
 2.9000e+000 89874 -1.1334e+002 -1.8786e+002 -1.7165e+001 49179 89649,89753,89848
 2.9000e+000 90223 -5.0924e+001 -2.0994e+002 -1.5441e+001 48739 90024,90102,90076
 2.9000e+000 90200 -7.7234e+001 -2.1251e+002 -5.7084e+000 48739 90024,90128,90102
 2.9000e+000 90177 -4.0929e+001 -2.2422e+002 -8.6487e+000 48739 90024,90076,90050
 2.9000e+000 90154 -3.3172e+001 -2.0227e+002  1.7650e+001 48739 89998,90128,90024
 2.9000e+000 90603 -7.8276e+001 -1.9301e+002  3.5471e+001 48335 90381,90485,90459
 2.9000e+000 90580 -8.9603e+001 -2.0639e+002  2.9522e+001 48335 90355,90485,90381
 2.9000e+000 90557 -3.4166e+001 -7.2391e+001  2.3261e+001 48335 90381,90433,90407
 2.9000e+000 90534 -7.2456e+001 -1.9061e+002  3.5835e+001 48335 90381,90459,90433
 2.9000e+000 90511 -1.2512e+001 -1.5145e+002  6.2557e+001 48335 90329,90485,90355
 2.9000e+000 90753  1.2291e+001 -1.1014e+002  5.2705e+001 47824 90776,90652,90704
 2.9000e+000 90730 -1.4948e+001 -1.7264e+002  4.7966e+001 47824 90626,90704,90652
 2.9000e+000 90802 -3.1811e+001 -1.4718e+002  3.6858e+001 47824 90678,90652,90776
 2.9000e+000 91131 -6.0513e+001 -2.1412e+002  9.3071e+000 47427 91154,90958,90906
 2.9000e+000 91108 -1.0984e+002 -2.3437e+002  2.0291e-001 47427 91154,90906,91036
 2.9000e+000 91085 -1.0643e+002 -1.8646e+002 -1.8360e+001 47427 90958,91010,90984
 2.9000e+000 91062 -6.2431e+001 -1.9755e+002  1.2398e+001 47427 90906,90958,90932
 2.9000e+000 91180 -8.9365e+001 -2.1233e+002 -2.3204e+001 47427 91010,90958,91154
 2.9000e+000 91203 -1.3688e+002 -2.3292e+002 -3.3149e+001 47427 91010,91154,91036
 2.9000e+000 91583 -1.3146e+002 -2.4147e+002 -1.3599e+001 46873 91309,91439,91335
 2.9000e+000 91560 -1.3723e+002 -2.4500e+002 -1.1423e+001 46873 91309,91465,91439
 2.9000e+000 91537 -1.9397e+002 -2.8015e+002 -6.3549e+001 46873 91361,91439,91413
 2.9000e+000 91514 -1.4320e+002 -2.4892e+002 -2.8761e+001 46873 91335,91439,91361
 2.9000e+000 91491 -6.2336e+001 -2.3070e+002 -5.2642e+001 46873 91361,91413,91387
 2.9000e+000 91880 -6.4915e+001 -2.1306e+002 -5.7023e+000 46526 91606,91710,91658
 2.9000e+000 91857 -6.7505e+001 -2.2420e+002  1.6263e+000 46526 91606,91762,91710
 2.9000e+000 91834 -3.7232e+001 -2.0554e+002 -2.6318e+001 46526 91606,91658,91632
 2.9000e+000 91811 -7.7892e+001 -1.9736e+002  3.6658e+000 46526 91658,91710,91684
 2.9000e+000 91788 -4.2152e+001 -1.4890e+002  7.2050e+000 46526 91710,91762,91736
 2.9000e+000 92211 -3.2299e+000 -1.0733e+002 -5.6773e+000 45700 91986,92064,92038
 2.9000e+000 92188 -6.1650e+001 -1.5485e+002  1.7464e+001 45700 91986,92116,92064
 2.9000e+000 92165  1.9640e+001 -8.1368e+001 -4.3381e+001 45700 91986,92038,92012
 2.9000e+000 92142 -6.3780e+001 -1.5609e+002  1.6013e+001 45700 92064,92116,92090
 2.9000e+000 92766 -1.1112e+002 -1.9730e+002  8.1380e+000 45452 92446,92602,92576
 2.9000e+000 92743 -1.7386e+002 -1.9691e+002 -2.9390e+001 45452 92420,92602,92446
 2.9000e+000 92720 -1.2861e+002 -1.9806e+002  2.9347e+001 45452 92789,92524,92498
 2.9000e+000 92697 -1.5405e+002 -1.9909e+002  2.0845e+001 45452 92789,92498,92446
 2.9000e+000 92674 -1.2118e+002 -2.1774e+002 -5.5190e+000 45452 92524,92576,92550
 2.9000e+000 92651 -2.0293e+002 -2.0353e+002  1.1828e+002 45452 92446,92498,92472
 2.9000e+000 92628 -1.0631e+002 -2.4423e+002 -6.7676e+001 45452 92394,92602,92420
 2.9000e+000 92815 -1.1130e+002 -2.0724e+002  2.2933e+001 45452 92576,92524,92789
 2.9000e+000 92838 -1.2970e+002 -2.0199e+002  1.8234e+001 45452 92576,92789,92446
 2.9000e+000 92939 -7.7458e+001 -2.5111e+002 -5.3317e+001 44998 92861,92913,92887
 2.9000e+000 93319 -1.5387e+000 -2.6169e+002  5.3549e+001 44601 93123,93201,93149
 2.9000e+000 93296 -6.6398e+001 -2.7262e+002 -3.0829e+001 44601 93045,93201,93123
 2.9000e+000 93273 -5.7547e+001 -1.5258e+002 -3.9747e+001 44601 93045,93123,93071
 2.9000e+000 93250 -5.6262e+001 -1.4345e+002 -2.7780e+001 44601 93071,93123,93097
 2.9000e+000 93227  7.7214e+000 -1.3995e+002  5.9440e+001 44601 93149,93201,93175
 2.9000e+000 93697 -4.7806e+001 -2.8977e+002  1.9436e+001 44026 93720,93553,93527
 2.9000e+000 93674 -9.8237e+001 -2.4187e+002  2.5611e+001 44026 93720,93527,93449
 2.9000e+000 93651 -1.1056e+002 -2.5147e+002 -4.9856e+000 44026 93449,93527,93501
 2.9000e+000 93628 -7.4684e+001 -1.9352e+002 -3.7131e+001 44026 93423,93579,93449
 2.9000e+000 93605 -2.0433e+001 -1.9496e+002  1.9169e+001 44026 93449,93501,93475
 2.9000e+000 93746 -1.0643e+001 -2.5542e+002  4.9508e+000 44026 93579,93553,93720
 2.9000e+000 93769 -6.4180e+001 -2.0881e+002  1.1672e+001 44026 93579,93720,93449
 2.9000e+000 94066 -5.2055e+001 -2.2121e+002 -3.2756e+001 43579 94089,93818,93792
 2.9000e+000 94043 -8.7735e+001 -2.4601e+002 -2.1764e+001 43579 94161,94089,93792
 2.9000e+000 94020 -8.6105e+001 -2.4726e+002 -1.1428e+001 43579 94161,93792,93948
 2.9000e+000 93997 -9.2606e+001 -1.9326e+002 -1.1269e+001 43579 94233,93870,93818
 2.9000e+000 93974 -5.0598e+001 -1.9670e+002  2.3559e+000 43579 93818,93870,93844
 2.9000e+000 94115 -9.0374e+001 -1.9504e+002 -2.3945e+001 43579 94233,93818,94089
 2.9000e+000 94138 -1.2290e+002 -2.2088e+002 -1.6650e+001 43579 93896,94089,93922
 2.9000e+000 94187 -8.1012e+001 -2.3040e+002 -2.1244e+001 43579 93922,94089,94161
 2.9000e+000 94210 -7.8644e+001 -2.3013e+002 -9.9478e+000 43579 93922,94161,93948
 2.9000e+000 94259 -1.0621e+002 -2.1735e+002 -5.6524e+000 43579 93896,93870,94233
 2.9000e+000 94282 -9.8792e+001 -2.1363e+002 -2.0267e+001 43579 93896,94233,94089
 2.9000e+000 94481 -7.3868e+001 -2.2654e+002 -1.9409e+000 43239 94305,94383,94357
 2.9000e+000 94458 -6.0858e+001 -2.0572e+002  2.5912e+001 43239 94305,94409,94383
 2.9000e+000 94435 -5.4968e+001 -2.3914e+002 -7.1072e+000 43239 94305,94357,94331
 2.9000e+000 94633 -4.9329e+001 -1.5632e+002  3.5049e+001 42827 94656,94532,94506
 2.9000e+000 94610 -5.4593e+001 -1.6651e+002  5.1984e+001 42827 94728,94656,94506
 2.9000e+000 94682 -9.2918e+000 -1.6933e+002  4.2813e+001 42827 94558,94532,94656
 2.9000e+000 94705  2.0742e+001 -1.8288e+002  2.8472e+001 42827 94988,94860,94656
 2.9000e+000 94754 -2.2900e+001 -1.5883e+002  1.6458e+001 42827 94988,94656,94728
 2.9000e+000 94886  7.8500e+001 -1.6042e+002  2.8120e+001 42827 94558,94656,94860
 2.9000e+000 95014  5.6895e+001 -1.6218e+002  1.9497e+001 42827 94584,94860,94988
 2.9000e+000 95037  2.1405e+001 -1.3665e+002  9.0768e+000 42827 94584,94988,94728
 2.9000e+000 95236 -6.9243e+001 -2.1748e+002  6.8368e+000 42537 95259,95112,95060
 2.9000e+000 95213 -3.4711e+001 -2.3544e+002  1.4364e+001 42537 95259,95060,95164
 2.9000e+000 95190 -5.4752e+001 -2.1033e+002 -1.1647e+001 42537 95060,95112,95086
 2.9000e+000 95285 -4.6063e+001 -2.1177e+002  2.1934e+001 42537 95138,95112,95259
 2.9000e+000 95308 -1.1686e+001 -2.2099e+002  3.4274e+001 42537 95138,95259,95164
 2.9000e+000 95816 -8.0341e+001 -2.3012e+002 -1.4357e+001 41969 95493,95597,95519
 2.9000e+000 95793 -1.2920e+002 -2.2845e+002  2.6399e+001 41969 95493,95649,95597
 2.9000e+000 95770 -1.0821e+002 -2.0806e+002  1.2058e+001 41969 95493,95675,95649
 2.9000e+000 95747 -1.1883e+002 -2.9102e+002  2.0112e+001 41969 95597,95649,95623
 2.9000e+000 95724 -1.3752e+002 -2.3651e+002 -1.3141e+001 41969 95519,95597,95571
 2.9000e+000 95701 -1.2403e+002 -2.2333e+002 -6.4797e+001 41969 95519,95571,95545
 2.9000e+000 96371 -9.9539e+001 -2.4010e+002  2.8285e+001 41579 96025,96207,96181
 2.9000e+000 96348  4.0005e+001 -1.7734e+002 -3.2184e+000 41579 95999,96207,96025
 2.9000e+000 96325 -1.1567e+002 -1.9189e+002 -2.2229e+001 41579 96129,96181,96155
 2.9000e+000 96302 -4.2618e+001 -1.6890e+002  5.2958e-001 41579 96025,96181,96129
 2.9000e+000 96279 -9.2217e+001 -2.5076e+002  3.0692e+001 41579 96025,96129,96051
 2.9000e+000 96256 -1.1202e+002 -2.3998e+002  3.5266e+001 41579 96051,96103,96077
 2.9000e+000 96233 -4.2865e+001 -1.8363e+002  1.8530e+000 41579 96051,96129,96103
 2.9000e+000 96877 -2.8672e+001 -1.4778e+002 -1.9342e+001 41182 96972,96900,96632
 2.9000e+000 96854 -2.4831e+001 -1.0714e+002 -1.5646e+001 41182 96900,96554,96736
 2.9000e+000 96831 -2.9058e+001 -1.4930e+002 -1.8772e+001 41182 96972,96632,96580
 2.9000e+000 96808 -4.2183e+001 -1.5061e+002  4.0977e+000 41182 96632,96684,96658
 2.9000e+000 96785 -3.9436e+001 -1.5370e+002  1.3929e+001 41182 96684,96736,96710
 2.9000e+000 96762 -9.0486e+001 -2.0141e+002  2.3498e+001 41182 96580,96632,96606
 2.9000e+000 96926 -1.8618e+001 -1.6011e+002 -1.5967e+001 41182 96684,96632,96900
 2.9000e+000 96949 -2.8466e+001 -1.4387e+002 -2.6027e+001 41182 96684,96900,96736
 2.9000e+000 96998 -2.8574e+001 -1.4646e+002 -1.4001e+001 41182 96554,96900,96972
 2.9000e+000 97021 -3.0757e+001 -1.5183e+002 -1.3419e+001 41182 96554,96972,96580
 2.9000e+000 97576 -1.2044e+002 -3.6782e+002 -6.5524e+001 40678 97230,97412,97282
 2.9000e+000 97553  1.8877e+001 -2.9509e+002  1.9649e+001 40678 97204,97412,97230
 2.9000e+000 97530 -6.8283e+001 -2.8083e+002 -4.6450e+001 40678 97282,97360,97308
 2.9000e+000 97507 -4.6762e+001 -2.6845e+002 -2.8977e+001 40678 97282,97412,97360
 2.9000e+000 97484 -3.9863e+001 -2.0409e+002 -3.6268e+001 40678 97308,97360,97334
 2.9000e+000 97461 -1.2441e+002 -3.3117e+002  5.1416e+000 40678 97360,97412,97386
 2.9000e+000 97438 -5.2761e+001 -2.4808e+002 -2.7601e+001 40678 97230,97282,97256
 2.9000e+000 97976 -1.1035e+002 -1.7996e+002 -3.6661e+000 40244 97702,97832,97754
 2.9000e+000 97953 -9.2097e+001 -1.6732e+002 -9.8217e+000 40244 97702,97858,97832
 2.9000e+000 97930 -1.1373e+002 -2.0218e+002 -4.7483e+001 40244 97702,97754,97728
 2.9000e+000 97907 -9.1924e+001 -2.0233e+002  2.2415e+001 40244 97780,97832,97806
 2.9000e+000 97884 -9.9127e+001 -1.7451e+002 -1.9780e+000 40244 97754,97832,97780
 2.9000e+000 98482 -7.7339e+001 -1.9309e+002  2.1859e+001 39690 98505,98185,98159
 2.9000e+000 98459 -7.4729e+001 -1.9200e+002  2.3081e+001 39690 98505,98159,98289
 2.9000e+000 98436 -1.3730e+002 -2.6694e+002  8.4804e+001 39690 98159,98315,98289
 2.9000e+000 98413 -6.1812e+001 -1.8106e+002  2.8250e+001 39690 98211,98289,98263
 2.9000e+000 98390 -3.8582e+001 -1.1330e+002  1.6774e+001 39690 98211,98263,98237
 2.9000e+000 98367 -3.4127e+001 -1.6980e+002  4.0943e+001 39690 98159,98341,98315
 2.9000e+000 98531 -8.2696e+001 -1.9279e+002  1.9719e+001 39690 98211,98185,98505
 2.9000e+000 98554 -7.7673e+001 -1.8865e+002  2.1866e+001 39690 98211,98505,98289
 2.9000e+000 99109 -5.8812e+001 -1.5424e+002 -9.8310e+000 39072 99132,98867,98789
 2.9000e+000 99086 -6.3456e+001 -1.5829e+002 -1.1963e+001 39072 99132,98789,98763
 2.9000e+000 99063 -8.6915e+001 -2.5340e+002  2.6404e+001 39072 98867,98945,98919
 2.9000e+000 99040 -5.1245e+001 -1.6416e+002 -1.9303e+000 39072 98789,98867,98841
 2.9000e+000 99017 -1.1518e+002 -1.8747e+002  6.9975e+000 39072 98867,98919,98893
 2.9000e+000 98994 -8.5073e+001 -1.5166e+002  3.4570e+001 39072 98789,98841,98815
 2.9000e+000 98971 -9.0344e+001 -1.7697e+002 -1.4512e+001 39072 98737,98945,98763
 2.9000e+000 99158 -5.5711e+001 -1.5933e+002 -1.1522e+001 39072 98945,98867,99132
 2.9000e+000 99181 -5.7978e+001 -1.6282e+002 -1.2683e+001 39072 98945,99132,98763
 2.9000e+000 99510 -5.0393e+001 -1.5514e+002  8.2177e+000 38668 99311,99389,99363
 2.9000e+000 99487 -5.1418e+001 -1.5649e+002  6.7846e+000 38668 99285,99389,99311
 2.9000e+000 99464 -1.0193e+002 -1.9150e+002  2.7707e+001 38668 99285,99415,99389
 2.9000e+000 99441 -4.8328e+001 -1.5490e+002  8.2115e+000 38668 99311,99363,99337
 2.9000e+000 99758 -2.8413e+001 -2.3496e+002  4.0725e+001 38164 99781,99611,99585
 2.9000e+000 99735 -4.2187e+001 -2.3818e+002  3.7745e+001 38164 99781,99585,99533
 2.9000e+000 99712 -1.9401e+001 -1.9551e+002  1.5836e+001 38164 99611,99663,99637
 2.9000e+000 99689 -1.5642e+001 -2.3936e+002 -1.0896e+001 38164 99533,99585,99559
 2.9000e+000 99807 -2.1425e+001 -2.4050e+002  3.7138e+001 38164 99663,99611,99781
 2.9000e+000 99830 -2.9937e+001 -2.3970e+002  3.6723e+001 38164 99663,99781,99533
 2.9000e+000 100232 -8.0366e+001 -1.9625e+002  3.6584e+000 37702 99984,100114,100088
 2.9000e+000 100209 -6.4657e+001 -2.1054e+002  2.2709e+001 37702 99958,100114,99984
 2.9000e+000 100186 -1.1928e+002 -2.4449e+002 -1.5185e+001 37702 100010,100088,100036
 2.9000e+000 100163 -8.1762e+001 -1.9721e+002  1.0665e+000 37702 99984,100088,100010
 2.9000e+000 100140 -7.5902e+001 -1.7826e+002 -4.6830e+001 37702 100036,100088,100062
 2.9000e+000 100640 -1.5232e+002 -2.1646e+002  2.5290e+001 37262 100493,100545,100519
 2.9000e+000 100617 -1.3134e+002 -2.3718e+002  1.4969e+001 37262 100441,100545,100493
 2.9000e+000 100594 -7.3990e+001 -1.9003e+002 -2.3501e+001 37262 100415,100545,100441
 2.9000e+000 100571 -1.5776e+002 -2.7452e+002 -1.2907e+001 37262 100441,100493,100467
 2.9000e+000 101146 -1.0069e+002 -1.7283e+002  1.2560e+000 36872 100823,100979,100849
 2.9000e+000 101123 -9.8588e+001 -1.6167e+002 -1.5025e+001 36872 100823,101005,100979
 2.9000e+000 101100 -1.0425e+002 -2.4610e+002  3.4151e+001 36872 101169,100901,100849
 2.9000e+000 101077 -8.1136e+001 -1.9732e+002  1.9783e+001 36872 101169,100849,100979
 2.9000e+000 101054 -5.2996e+001 -1.9954e+002 -7.0832e+000 36872 100927,100979,100953
 2.9000e+000 101031 -5.4314e+001 -2.8030e+002  4.8137e+001 36872 100849,100901,100875
 2.9000e+000 101195 -7.3721e+001 -2.6060e+002  3.7952e+000 36872 100927,100901,101169
 2.9000e+000 101218 -5.9672e+001 -2.3466e+002 -7.7267e+000 36872 100927,101169,100979
 2.9000e+000 101773 -1.3147e+002 -1.9781e+002  3.0630e+001 36418 101479,101609,101583
 2.9000e+000 101750 -1.2950e+002 -2.1501e+002  3.8171e+001 36418 101453,101609,101479
 2.9000e+000 101727 -8.5205e+001 -2.0713e+002 -7.0356e-001 36418 101796,101531,101479
 2.9000e+000 101704 -1.1993e+002 -2.2828e+002  1.1906e+001 36418 101796,101479,101583
 2.9000e+000 101681 -7.3301e+001 -1.7588e+002 -4.9465e+000 36418 101479,101531,101505
 2.9000e+000 101658 -6.6790e+000 -2.0193e+002 -7.6912e+000 36418 101401,101609,101453
 2.9000e+000 101635 -3.9687e+001 -2.4450e+002 -2.4716e+001 36418 101401,101453,101427
 2.9000e+000 101822 -9.4564e+001 -1.9178e+002 -3.4325e+001 36418 101557,101531,101796
 2.9000e+000 101845 -1.3779e+002 -2.0434e+002 -2.4112e+001 36418 101557,101796,101583
 2.9000e+000 102174  4.1157e+001 -9.5292e+001 -3.9220e+001 35914 101949,102053,101975
 2.9000e+000 102151 -7.2332e+001 -1.3155e+002 -1.2447e+001 35914 101949,102079,102053
 2.9000e+000 102128 -5.0662e+001 -1.3918e+002 -7.0976e+000 35914 101975,102053,102027
 2.9000e+000 102105  4.7395e+000 -8.9754e+001 -3.5641e+001 35914 101975,102027,102001
 2.9000e+000 102631 -3.8595e+001 -2.0218e+002  5.4930e+000 35574 102383,102513,102487
 2.9000e+000 102608 -2.7075e+001 -2.0924e+002  4.8970e+000 35574 102357,102513,102383
 2.9000e+000 102585 -5.0743e+001 -2.0335e+002  9.2625e+000 35574 102409,102487,102435
 2.9000e+000 102562 -6.6943e+001 -2.1340e+002  4.9782e+000 35574 102383,102487,102409
 2.9000e+000 102539 -6.9970e+001 -2.1331e+002 -1.1271e+001 35574 102435,102487,102461
 2.9000e+000 103009 -1.1034e+002 -1.9621e+002 -1.7409e+001 35170 102761,102865,102787
 2.9000e+000 102986 -5.9848e+001 -1.6928e+002  1.3737e+001 35170 102761,102891,102865
 2.9000e+000 102963 -9.6521e+001 -1.9602e+002 -5.9526e+000 35170 102787,102865,102813
 2.9000e+000 102940 -4.9876e+001 -1.6101e+002  1.7290e+001 35170 102735,102891,102761
 2.9000e+000 102917 -9.5714e+001 -1.9504e+002 -8.5952e+000 35170 102813,102865,102839
 2.9000e+000 103257 -2.8979e+001 -1.5858e+002 -1.9614e+001 34659 103280,103058,103032
 2.9000e+000 103234 -2.6102e+001 -1.6404e+002 -2.6831e+001 34659 103280,103032,103162
 2.9000e+000 103211 -2.0671e+001 -1.4521e+002 -2.5765e+001 34659 103084,103162,103110
 2.9000e+000 103188 -4.8136e+001 -1.8732e+002 -6.8128e+000 34659 103110,103162,103136
 2.9000e+000 103306 -1.9776e+001 -1.5179e+002 -1.6651e+001 34659 103084,103058,103280
 2.9000e+000 103329 -2.1106e+001 -1.5990e+002 -2.5013e+001 34659 103084,103280,103162
 2.9000e+000 103837 -1.8986e+001 -2.1332e+002  7.1026e+000 34247 103860,103566,103540
 2.9000e+000 103814 -2.7239e+001 -2.1353e+002  7.1955e-001 34247 103932,103860,103540
 2.9000e+000 103791 -1.8601e+001 -2.3848e+002 -2.4808e+001 34247 103932,103540,103670
 2.9000e+000 103768 -2.3617e+001 -2.0020e+002  2.6592e+000 34247 103566,103618,103592
 2.9000e+000 103745 -8.4765e+001 -2.0151e+002 -3.2347e+001 34247 103540,103696,103670
 2.9000e+000 103722 -1.1378e+002 -2.2482e+002  3.1746e+001 34247 103514,103696,103540
 2.9000e+000 103886 -4.4089e+001 -2.1103e+002 -1.5966e+000 34247 103618,103566,103860
 2.9000e+000 103909 -5.0047e+001 -2.2753e+002  7.3861e+000 34247 103618,103860,103644
 2.9000e+000 103958 -5.0117e+001 -2.7366e+002 -2.5028e+000 34247 103644,103860,103932
 2.9000e+000 103981 -4.1319e+001 -2.9664e+002 -2.9276e+001 34247 103644,103932,103670
 2.9000e+000 104300 -1.0623e+002 -2.2281e+002 -1.0399e+001 33843 104052,104182,104156
 2.9000e+000 104277 -1.3302e+002 -2.0749e+002 -3.9716e+000 33843 104026,104182,104052
 2.9000e+000 104254 -1.0581e+002 -2.5383e+002  6.2290e+000 33843 104078,104156,104130
 2.9000e+000 104231 -1.3228e+002 -2.4430e+002 -8.6119e-001 33843 104052,104156,104078
 2.9000e+000 104208 -1.5882e+002 -2.6921e+002  8.7415e+000 33843 104078,104130,104104
 2.9000e+000 104499 -5.6688e+001 -2.3077e+002 -2.3551e+001 33282 104594,104522,104375
 2.9000e+000 104476 -3.2997e+001 -2.3345e+002  7.3756e+000 33282 104522,104323,104427
 2.9000e+000 104453 -4.2892e+001 -2.4227e+002 -2.1517e+001 33282 104594,104375,104349
 2.9000e+000 104548 -7.3118e+001 -1.9308e+002 -1.5624e+000 33282 104401,104375,104522
 2.9000e+000 104571 -2.5193e+001 -1.8561e+002  3.1860e+001 33282 104401,104522,104427
 2.9000e+000 104620 -4.2208e+001 -2.0819e+002 -1.6441e+001 33282 104323,104522,104594
 2.9000e+000 104643 -3.4226e+001 -2.2593e+002 -1.6839e+001 33282 104323,104594,104349
 2.9000e+000 104942 -1.0501e+002 -2.6286e+002  3.3797e+001 32728 104694,104772,104720
 2.9000e+000 104919 -8.3896e+001 -2.4073e+002  1.2904e+001 32728 104694,104824,104772
 2.9000e+000 104896 -1.3603e+002 -2.4121e+002  3.6247e+001 32728 104720,104772,104746
 2.9000e+000 104873 -6.4140e+001 -2.7283e+002  1.4495e+001 32728 104772,104824,104798
 2.9000e+000 104850 -6.8576e+001 -2.3435e+002  1.4953e+001 32728 104668,104824,104694
 2.9000e+000 105373 -8.2466e+001 -2.6370e+002 -1.1097e+001 32274 105396,105102,105076
 2.9000e+000 105350 -9.3248e+001 -2.8965e+002 -2.8521e+000 32274 105396,105076,105206
 2.9000e+000 105327 -1.2171e+002 -2.9438e+002  1.7634e+001 32274 105154,105206,105180
 2.9000e+000 105304 -3.0424e+001 -2.7361e+002 -2.4555e+001 32274 105076,105232,105206
 2.9000e+000 105281 -1.0681e+002 -2.3882e+002 -3.9912e+001 32274 105102,105154,105128
 2.9000e+000 105258 -1.4988e+002 -2.2834e+002 -5.0461e+001 32274 105050,105232,105076
 2.9000e+000 105422 -9.9799e+001 -2.3501e+002 -1.0457e+001 32274 105154,105102,105396
 2.9000e+000 105445 -1.0927e+002 -2.6098e+002 -3.9692e+000 32274 105154,105396,105206
 2.9000e+000 105644 -8.7078e+001 -2.4511e+002 -1.5827e+000 31620 105468,105546,105520
 2.9000e+000 105621 -7.1650e+001 -2.5834e+002 -9.1379e+000 31620 105468,105572,105546
 2.9000e+000 105598 -8.8754e+001 -2.6943e+002  1.5607e+001 31620 105468,105520,105494
 2.9000e+000 105794 -3.4124e+001 -2.3374e+002 -7.8065e+000 31158 105889,105817,105693
 2.9000e+000 105771 -5.1767e+001 -2.0504e+002 -1.5082e+001 31158 105817,105667,105745
 2.9000e+000 105843 -4.3566e+001 -2.9078e+002 -3.4177e+000 31158 105719,105693,105817
 2.9000e+000 105866 -3.0193e+001 -2.4588e+002 -1.3696e+001 31158 105719,105817,105745
 2.9000e+000 105915 -7.2702e+001 -2.5027e+002 -8.2503e+000 31158 105667,105817,105889
 2.9000e+000 106270 -1.1429e+002 -2.2556e+002  4.0611e-001 30818 106293,106071,106045
 2.9000e+000 106247 -1.3114e+002 -2.6247e+002 -3.0198e+001 30818 106293,106045,106175
 2.9000e+000 106224 -5.4038e+001 -2.1277e+002  1.1810e+001 30818 106123,106175,106149
 2.9000e+000 106201 -1.1147e+002 -2.2121e+002  1.6194e+001 30818 106071,106123,106097
 2.9000e+000 106319 -1.0266e+002 -2.1063e+002  1.0569e+001 30818 106123,106071,106293
 2.9000e+000 106342 -9.6909e+001 -2.2926e+002 -1.5106e+001 30818 106123,106293,106175
 2.9000e+000 106492 -9.4858e+001 -2.2247e+002  4.4089e+001 30414 106645,106391,106365
 2.9000e+000 106469 -4.4705e+001 -2.2106e+002  6.2609e+001 30414 106515,106365,106443
 2.9000e+000 106541 -6.5187e+001 -2.2925e+002  4.8503e+001 30414 106645,106365,106515
 2.9000e+000 106671 -5.2650e+001 -2.5792e+002  7.7225e+001 30414 106417,106391,106645
 2.9000e+000 106694  1.6183e+001 -2.4019e+002  6.7322e+001 30414 106417,106645,106515
 2.9000e+000 106942 -4.5643e+001 -3.1326e+002 -1.5366e+000 29910 106965,106795,106769
 2.9000e+000 106919 -3.9211e+001 -2.8097e+002  7.8700e+000 29910 106965,106769,106717
 2.9000e+000 106896 -4.1554e+001 -2.3553e+002 -3.1973e+001 29910 106795,106847,106821
 2.9000e+000 106873 -2.2029e+001 -2.4594e+002  1.5353e+001 29910 106717,106769,106743
 2.9000e+000 106991 -6.3741e+001 -2.7845e+002  3.0149e+000 29910 106847,106795,106965
 2.9000e+000 107014 -5.0079e+001 -2.3548e+002  1.2029e+001 29910 106847,106965,106717
 2.9000e+000 107213 -7.2894e+001 -2.4792e+002  8.9429e+000 29413 107236,107063,107037
 2.9000e+000 107190 -5.7858e+001 -3.0140e+002  2.8407e+001 29413 107236,107037,107141
 2.9000e+000 107167 -7.8395e+001 -1.7121e+002  3.8209e+001 29413 107063,107115,107089
 2.9000e+000 107262 -6.3873e+001 -2.1530e+002  7.8299e+000 29413 107115,107063,107236
 2.9000e+000 107285 -4.0770e+001 -2.5449e+002  2.9703e+001 29413 107115,107236,107141
 2.9000e+000 107486 -2.9499e+001 -2.2211e+002  2.0041e+001 29009 107336,107388,107362
 2.9000e+000 107463 -1.4943e+001 -2.1475e+002  6.1545e+000 29009 107310,107388,107336
 2.9000e+000 107440 -2.6133e+001 -2.0475e+002  8.6319e+000 29009 107310,107414,107388
 2.9000e+000 107736 -9.0095e+001 -2.5324e+002 -6.5166e+000 28491 107537,107615,107563
 2.9000e+000 107713 -8.0900e+001 -2.4876e+002 -3.8773e+000 28491 107537,107641,107615
 2.9000e+000 107690 -1.6708e+001 -2.5244e+002  1.5667e+001 28491 107563,107615,107589
 2.9000e+000 107667 -9.2780e+001 -2.5267e+002 -7.3928e+000 28491 107511,107641,107537
 2.9000e+000 108118 -6.4416e+001 -2.4828e+002  5.3446e+000 27980 108141,107922,107844
 2.9000e+000 108095 -5.0447e+001 -2.7513e+002  4.9472e+000 27980 108141,107844,108000
 2.9000e+000 108072 -6.4033e+001 -2.4956e+002 -7.0223e+000 27980 107844,107922,107870
 2.9000e+000 108049 -5.4700e+001 -2.1991e+002 -9.3481e+000 27980 107870,107922,107896
 2.9000e+000 108026 -9.0333e+001 -2.2359e+002  2.9088e+001 27980 107922,107974,107948
 2.9000e+000 108167 -5.5385e+001 -2.4562e+002  9.5247e+000 27980 107974,107922,108141
 2.9000e+000 108190 -1.6723e+001 -2.4841e+002  1.7195e+001 27980 107974,108141,108000
 2.9000e+000 108745 -3.2172e+001 -1.6621e+002 -3.4001e+000 27376 108840,108768,108477
 2.9000e+000 108722 -5.4832e+001 -2.0281e+002 -3.8052e+001 27376 108768,108373,108581
 2.9000e+000 108699 -5.0072e+001 -1.4503e+002  2.9666e+001 27376 108840,108477,108451
 2.9000e+000 108676 -1.1806e+002 -1.7327e+002 -6.6367e+000 27376 108373,108451,108399
 2.9000e+000 108653 -5.1669e+001 -2.0580e+002  2.4424e+001 27376 108503,108581,108529
 2.9000e+000 108630 -5.7841e+001 -2.0189e+002  2.5690e+001 27376 108529,108581,108555
 2.9000e+000 108607 -1.3494e+002 -1.9096e+002  1.3840e+001 27376 108399,108451,108425
 2.9000e+000 108794 -5.0653e+001 -2.2107e+002 -6.7156e-002 27376 108503,108477,108768
 2.9000e+000 108817 -1.6549e+001 -2.0242e+002 -7.9671e+000 27376 108503,108768,108581
 2.9000e+000 108866 -9.9240e+001 -2.0459e+002 -1.8859e+001 27376 108373,108768,108840
 2.9000e+000 108889 -9.5909e+001 -1.7670e+002  1.5712e+001 27376 108373,108840,108451
 2.9000e+000 109186 -9.5140e+001 -2.6368e+002  2.7134e+001 26722 109209,108938,108912
 2.9000e+000 109163 -8.8739e+001 -2.4672e+002  2.0588e+001 26722 109281,109209,108912
 2.9000e+000 109140 -8.3878e+001 -2.4204e+002  1.8364e+001 26722 109281,108912,109042
 2.9000e+000 109117 -7.0274e+001 -2.7170e+002  1.7683e+001 26722 108938,108990,108964
 2.9000e+000 109094 -1.2224e+002 -2.1475e+002  7.8382e+000 26722 108912,109068,109042
 2.9000e+000 109235 -6.9761e+001 -2.5200e+002  2.4029e+001 26722 108990,108938,109209
 2.9000e+000 109258 -8.2650e+001 -2.7072e+002  1.8417e+001 26722 108990,109209,109016
 2.9000e+000 109307 -7.6381e+001 -2.5452e+002  9.9650e+000 26722 109016,109209,109281
 2.9000e+000 109330 -6.8445e+001 -2.4542e+002  6.5095e+000 26722 109016,109281,109042
 2.9000e+000 109732 -9.6122e+001 -2.0907e+002 -4.5835e+000 26310 109458,109588,109484
 2.9000e+000 109709 -8.9560e+001 -2.3282e+002 -2.3705e+001 26310 109458,109614,109588
 2.9000e+000 109686 -1.4187e+002 -2.4366e+002  3.5305e+001 26310 109510,109562,109536
 2.9000e+000 109663 -1.4031e+002 -2.2934e+002  1.3516e+001 26310 109484,109562,109510
 2.9000e+000 109640 -1.0071e+002 -2.1242e+002 -1.8737e+000 26310 109484,109588,109562
 2.9000e+000 110159 -6.4041e+001 -2.1918e+002 -6.1581e+000 25642 110182,109940,109914
 2.9000e+000 110136 -5.8832e+001 -2.5140e+002  2.8823e+001 25642 110182,109914,109888
 2.9000e+000 110113 -6.9697e+001 -2.6897e+002 -3.5843e+001 25642 109966,110018,109992
 2.9000e+000 110090 -8.2301e+001 -2.6152e+002  1.9640e+001 25642 110254,109966,109940
 2.9000e+000 110067 -1.1638e+002 -2.4683e+002  1.1634e+001 25642 109862,110018,109888
 2.9000e+000 110044 -1.1674e+002 -2.1081e+002  2.9737e+001 25642 109836,110018,109862
 2.9000e+000 110208 -8.3463e+001 -2.3792e+002  1.4636e+001 25642 110254,109940,110182
 2.9000e+000 110231 -9.3464e+001 -2.5435e+002  3.1387e+001 25642 110018,110182,109888
 2.9000e+000 110280 -7.4293e+001 -2.9024e+002  1.4825e+001 25642 110018,109966,110254
 2.9000e+000 110303 -8.0218e+001 -2.7249e+002  1.0412e+001 25642 110018,110254,110182
 2.9000e+000 110632 -1.0733e+002 -2.1928e+002 -1.1443e+001 25188 110407,110485,110433
 2.9000e+000 110609 -1.2772e+002 -2.2256e+002 -5.6442e+000 25188 110407,110537,110485
 2.9000e+000 110586 -1.2387e+002 -2.2866e+002 -4.1657e+001 25188 110433,110485,110459
 2.9000e+000 110563 -1.1804e+002 -2.3277e+002  2.5460e+001 25188 110485,110537,110511
 2.9000e+000 110831 -3.2789e+001 -2.2563e+002  5.1216e+000 24726 110854,110707,110655
 2.9000e+000 110808 -2.4952e+001 -2.4035e+002  1.9586e+001 24726 110854,110655,110759
 2.9000e+000 110785 -3.1996e+001 -2.2697e+002  4.2120e+000 24726 110655,110707,110681
 2.9000e+000 110880 -2.6479e+001 -2.1149e+002  6.7315e+000 24726 110733,110707,110854
 2.9000e+000 110903 -1.5221e+001 -2.1926e+002  2.2157e+001 24726 110733,110854,110759
 2.9000e+000 111234 -7.5344e+000 -1.5145e+002 -4.0521e+000 24222 111257,111087,111035
 2.9000e+000 111211  1.6256e+001 -1.4076e+002  1.4962e+001 24222 111257,111035,111009
 2.9000e+000 111188 -2.4434e+001 -7.9947e+001 -3.3858e+001 24222 111035,111087,111061
 2.9000e+000 111165 -2.4094e+001 -1.2639e+002  4.4561e+000 24222 111087,111139,111113
 2.9000e+000 111283 -2.2279e+001 -1.2747e+002  6.7175e+000 24222 111139,111087,111257
 2.9000e+000 111306 -1.1997e+001 -1.1066e+002  1.8944e+001 24222 111139,111257,111009
 2.9000e+000 111625 -3.7928e+001 -2.2428e+002 -1.3027e+001 23732 111648,111481,111455
 2.9000e+000 111602 -3.7985e+001 -2.2591e+002 -1.3169e+001 23732 111648,111455,111377
 2.9000e+000 111579  2.2618e+001 -1.2119e+002  2.2811e+001 23732 111377,111429,111403
 2.9000e+000 111556 -1.9179e+001 -2.2884e+002 -5.2919e+000 23732 111377,111455,111429
 2.9000e+000 111533 -3.1551e+001 -1.9937e+002 -5.8839e+000 23732 111351,111507,111377
 2.9000e+000 111674 -3.7509e+001 -2.2138e+002 -1.1152e+001 23732 111507,111481,111648
 2.9000e+000 111697 -3.8941e+001 -2.2489e+002 -1.1524e+001 23732 111507,111648,111377
 2.9000e+000 112156 -6.2370e+001 -2.4710e+002  1.2337e+001 23278 112179,111908,111882
 2.9000e+000 112133 -6.0628e+001 -2.3234e+002  2.6225e+000 23278 112179,111882,112012
 2.9000e+000 112110 -3.1088e+001 -2.6700e+002  6.3518e-002 23278 111908,111960,111934
 2.9000e+000 112087  1.4502e+001 -2.0425e+002 -2.4973e+001 23278 111882,112038,112012
 2.9000e+000 112064 -3.5476e+001 -2.1299e+002 -6.2085e+000 23278 111960,112012,111986
 2.9000e+000 112205 -5.8011e+001 -2.3931e+002  2.9143e-001 23278 111960,111908,112179
 2.9000e+000 112228 -5.0322e+001 -2.2192e+002 -1.0482e+001 23278 111960,112179,112012
 2.9000e+000 112685 -1.6217e+002 -3.5720e+002 -3.5018e+001 22938 112489,112567,112541
 2.9000e+000 112662 -1.4111e+002 -3.1024e+002 -3.0735e+001 22938 112437,112567,112489
 2.9000e+000 112639 -9.5366e+001 -2.6797e+002 -4.6875e+000 22938 112489,112541,112515
 2.9000e+000 112616 -1.5950e+002 -2.9758e+002 -2.7510e+001 22938 112411,112567,112437
 2.9000e+000 112593 -1.2488e+002 -3.8729e+002 -9.2336e+000 22938 112437,112489,112463
 2.9000e+000 113191 -1.3043e+001 -2.4930e+002 -3.0374e+001 22534 113214,112998,112946
 2.9000e+000 113168 -4.9974e+001 -2.2224e+002 -1.4885e+001 22534 113286,113214,112946
 2.9000e+000 113145 -3.8508e+001 -2.2246e+002 -1.2401e+001 22534 113286,112946,112920
 2.9000e+000 113122 -1.0393e+002 -2.0290e+002 -4.2342e+001 22534 113358,113024,112998
 2.9000e+000 113099 -6.5035e+001 -2.0757e+002 -3.4351e+000 22534 112868,113050,112894
 2.9000e+000 113076 -7.2965e+001 -3.6462e+002 -5.9126e+001 22534 112946,112998,112972
 2.9000e+000 113240 -7.7301e+001 -2.5752e+002 -4.4963e+001 22534 113358,112998,113214
 2.9000e+000 113263 -6.5083e+001 -2.3463e+002 -7.3331e+000 22534 113050,113214,112894
 2.9000e+000 113312 -3.4734e+001 -2.2106e+002 -1.1672e+001 22534 112894,113214,113286
 2.9000e+000 113335 -2.2345e+001 -2.2158e+002 -1.1352e+001 22534 112894,113286,112920
 2.9000e+000 113384 -7.4350e+001 -1.5246e+002 -3.0053e+001 22534 113050,113024,113358
 2.9000e+000 113407 -3.6136e+001 -1.9783e+002 -2.6678e+001 22534 113050,113358,113214
 2.9000e+000 113785 -1.1766e+002 -3.0161e+002  6.2283e+000 21978 113808,113615,113511
 2.9000e+000 113762 -9.6190e+001 -3.0642e+002  2.0773e+001 21978 113808,113511,113667
 2.9000e+000 113739 -7.2139e+001 -2.5776e+002 -1.2375e+001 21978 113511,113615,113537
 2.9000e+000 113716  2.7148e+001 -2.2880e+002 -2.3955e+001 21978 113537,113615,113589
 2.9000e+000 113693 -3.2606e+001 -3.3036e+002  5.0787e+000 21978 113537,113589,113563
 2.9000e+000 113834 -1.2081e+002 -3.0026e+002  3.3050e+001 21978 113641,113615,113808
 2.9000e+000 113857 -6.4373e+001 -2.7873e+002  5.0341e+001 21978 113641,113808,113667
 2.9000e+000 114284 -9.1367e+001 -2.5130e+002  8.4904e+000 21517 114013,114117,114039
 2.9000e+000 114261 -9.8330e+001 -2.4905e+002  2.1109e+001 21517 113961,114117,114013
 2.9000e+000 114238 -9.4983e+001 -2.5657e+002  2.1086e+001 21517 113961,114013,113987
 2.9000e+000 114215 -1.4428e+002 -2.7773e+002 -1.7415e+001 21517 114039,114117,114091
 2.9000e+000 114192 -1.0276e+002 -2.1536e+002  2.6242e+001 21517 113961,114143,114117
 2.9000e+000 114169  8.7714e+000 -2.2076e+002 -1.5221e+001 21517 114039,114091,114065
 2.9000e+000 114581 -5.2088e+001 -3.0091e+002  3.3558e+000 21027 114359,114463,114437
 2.9000e+000 114558 -2.8767e+001 -2.7272e+002  3.5820e+001 21027 114333,114463,114359
 2.9000e+000 114535 -2.3026e+001 -2.7632e+002 -7.4342e+000 21027 114359,114437,114385
 2.9000e+000 114512 -1.8803e+001 -2.7065e+002  2.9026e+001 21027 114307,114463,114333
 2.9000e+000 114489  4.0165e+001 -2.5701e+002 -1.3023e+001 21027 114385,114437,114411
 2.9000e+000 114912 -1.1681e+002 -2.5604e+002  3.7004e+000 20623 114713,114791,114765
 2.9000e+000 114889 -8.2139e+001 -2.4181e+002 -1.7968e+001 20623 114687,114791,114713
 2.9000e+000 114866 -5.6977e+001 -2.7139e+002 -2.0017e+001 20623 114687,114817,114791
 2.9000e+000 114843 -1.6968e+002 -3.0995e+002  2.6219e+001 20623 114713,114765,114739
 2.9000e+000 115290 -4.2892e+001 -2.2944e+002  8.8640e+000 20375 115313,115146,115094
 2.9000e+000 115267 -5.0447e+001 -2.3144e+002  1.2624e+001 20375 115313,115094,115042
 2.9000e+000 115244 -4.9959e+001 -2.1016e+002  3.3556e+000 20375 115385,115016,115172
 2.9000e+000 115221  3.8864e+001 -2.0121e+002  1.3353e+001 20375 115042,115094,115068
 2.9000e+000 115198 -5.8178e+001 -2.6830e+002  1.0439e+001 20375 115094,115146,115120
 2.9000e+000 115339 -7.0377e+001 -2.6397e+002 -9.1918e+000 20375 115172,115146,115313
 2.9000e+000 115362 -4.6048e+001 -2.1918e+002  1.3339e+000 20375 115385,115172,115313
 2.9000e+000 115411 -4.4676e+001 -2.1718e+002  1.2393e+001 20375 115042,115016,115385
 2.9000e+000 115434 -4.6194e+001 -2.3184e+002  1.1760e+001 20375 115042,115385,115313
 2.9000e+000 115891 -1.1631e+002 -2.3069e+002  2.7848e+001 19971 115617,115747,115643
 2.9000e+000 115868 -1.0037e+002 -1.9235e+002  2.7186e+001 19971 115617,115773,115747
 2.9000e+000 115845 -7.4980e+001 -3.5132e+002  5.0845e+000 19971 115643,115721,115695
 2.9000e+000 115822 -2.2941e+000 -1.7488e+002 -1.5670e+000 19971 115643,115747,115721
 2.9000e+000 115799 -6.3135e+001 -4.2848e+002 -3.2505e+001 19971 115643,115695,115669
 2.9000e+000 115992 -1.7447e+002 -4.5222e+002 -7.8061e+001 19659 115914,115966,115940
 2.9000e+000 116142 -2.3028e+001 -9.6359e+001  2.3003e+000 18997 116041,116093,116067
 2.9000e+000 116119 -5.1082e+001 -1.6857e+002  1.0137e+001 18997 116015,116093,116041
 2.9000e+000 116343 -4.5216e+001 -2.6464e+002 -7.7051e+000 18707 116193,116245,116219
 2.9000e+000 116320 -1.0160e+002 -2.8829e+002 -1.1219e+001 18707 116193,116271,116245
 2.9000e+000 116297 -9.2354e+001 -2.5809e+002 -1.8596e+001 18707 116167,116271,116193
 2.9000e+000 116747 -4.1974e+001 -2.3999e+002 -4.1126e+000 18301 116525,116629,116551
 2.9000e+000 116724 -3.8172e+001 -2.0851e+002  1.7647e+000 18301 116473,116629,116525
 2.9000e+000 116701 -3.2795e+001 -2.0963e+002 -1.4351e+001 18301 116473,116525,116499
 2.9000e+000 116678 -2.5821e+001 -2.5081e+002 -4.3027e+000 18301 116551,116603,116577
 2.9000e+000 116655 -5.0906e+001 -2.6107e+002 -9.6963e+000 18301 116551,116629,116603
 2.9000e+000 117147 -1.2499e+002 -2.8456e+002 -7.6521e-001 17747 116899,117029,116925
 2.9000e+000 117124 -6.8174e+001 -2.0987e+002  2.8147e+001 17747 116873,117029,116899
 2.9000e+000 117101 -1.2370e+002 -2.8245e+002 -2.1876e-001 17747 116925,117029,116951
 2.9000e+000 117078 -1.0813e+002 -2.4401e+002 -4.9878e-001 17747 116951,117029,117003
 2.9000e+000 117055 -1.4416e+002 -3.1780e+002 -2.0050e+001 17747 116951,117003,116977
 2.9000e+000 117368  1.2448e+001 -2.6658e+002  6.2444e+000 17293 117244,117296,117270
 2.9000e+000 117345 -2.2324e+001 -2.7683e+002 -3.5376e+000 17293 117192,117296,117244
 2.9000e+000 117322 -4.9750e+001 -2.5980e+002 -3.0318e+000 17293 117192,117244,117218
 2.9000e+000 117699 -2.1479e+001 -2.1180e+002 -2.5561e+001 16896 117526,117604,117552
 2.9000e+000 117676 -1.3857e+002 -3.2627e+002  2.0771e+001 16896 117500,117604,117526
 2.9000e+000 117653 -1.4713e+002 -2.5772e+002 -1.3285e+001 16896 117552,117604,117578
 2.9000e+000 117630 -1.2714e+002 -4.2236e+002  3.5445e+001 16896 117474,117604,117500
 2.9000e+000 117849 -3.0076e+002 -5.8116e+002 -2.2130e+001 16534 117722,117774,117748
 2.9000e+000 117826 -2.3688e+002 -7.0617e+002 -9.5767e+001 16534 117722,117800,117774
 2.9000e+000 118070 -3.3561e+001 -2.5888e+002  2.5490e+001 16194 117946,117998,117972
 2.9000e+000 118047 -5.9266e+001 -3.0201e+002  1.4635e+001 16194 117894,117998,117946
 2.9000e+000 118024 -7.7011e+001 -2.7899e+002 -4.5064e+000 16194 117894,117946,117920
 2.9000e+000 118173 -2.7153e+001 -2.7285e+002  0.0000e+000 15968 118095,118147,118121
 2.9000e+000 118276 -8.1262e+001 -2.7823e+002  3.0515e+000 15433 118299,118198,118250
 2.9000e+000 118325 -8.3627e+001 -2.8375e+002  3.1063e+000 15433 118224,118198,118299
 2.9000e+000 118450 -1.4118e+002 -3.1201e+002  3.0214e+001 421 118372,118424,118398
 3.0000e+000 69891 -5.5674e+001 -3.5401e+002  1.2538e+001 68988 69447,69681,69629
 3.0000e+000 69868  2.8066e+001 -3.1889e+002  1.3234e+001 68988 69421,69681,69447
 3.0000e+000 69845  8.0093e+000 -1.7172e+002 -5.2081e-002 68988 69447,69629,69577
 3.0000e+000 69822 -9.7697e+001 -3.7061e+002 -4.3038e+001 68988 69447,69577,69473
 3.0000e+000 69799 -1.0347e+001 -4.2255e+002  6.7942e+001 68988 69629,69681,69655
 3.0000e+000 69776 -1.0568e+002 -2.2090e+002  4.4488e+000 68988 69577,69629,69603
 3.0000e+000 69753 -7.5573e+001 -3.2783e+002 -5.1299e+001 68988 69473,69577,69551
 3.0000e+000 69730 -1.1999e+002 -6.7055e+002 -6.8339e+001 68988 69473,69551,69525
 3.0000e+000 69707 -2.0357e+002 -4.3915e+002  5.0064e-001 68988 69473,69525,69499
 3.0000e+000 69992 -1.8692e+002 -3.7743e+002 -6.7962e+001 68676 69914,69966,69940
 3.0000e+000 70392 -1.3285e+002 -2.8645e+002  2.2516e+001 68478 70118,70248,70144
 3.0000e+000 70369  9.6775e+000 -2.9221e+002  6.2603e+001 68478 70118,70274,70248
 3.0000e+000 70346 -8.1144e+001 -2.1483e+002 -1.0096e+000 68478 70144,70222,70196
 3.0000e+000 70323 -6.7412e+001 -1.7969e+002 -8.2179e+000 68478 70144,70248,70222
 3.0000e+000 70300 -8.9069e+001 -2.3673e+002 -4.9436e+000 68478 70144,70196,70170
 3.0000e+000 70841  5.7336e+001 -1.8766e+002 -5.4933e+001 68280 70570,70622,70596
 3.0000e+000 70818 -9.3288e+001 -2.1533e+002 -1.2612e+001 68280 70544,70622,70570
 3.0000e+000 70795 -6.7627e+001 -1.5817e+002 -7.1786e+000 68280 70544,70674,70622
 3.0000e+000 70772 -5.9231e+001 -1.4012e+002  3.3148e+000 68280 70622,70674,70648
 3.0000e+000 70749 -9.7578e+001 -2.4142e+002  1.8678e+001 68280 70518,70674,70544
 3.0000e+000 70726  9.1108e+001 -2.5297e+002  7.3860e+001 68280 70518,70700,70674
 3.0000e+000 70991 -1.1549e+001 -1.0372e+003  3.0937e+001 67968 70864,70916,70890
 3.0000e+000 70968 -2.7357e+002 -1.0315e+003  1.1812e+002 67968 70864,70942,70916
 3.0000e+000 71141 -4.7772e+002 -9.2377e+002 -4.2552e+001 67770 71040,71092,71066
 3.0000e+000 71118 -4.1857e+002 -1.1073e+003  4.8187e+001 67770 71014,71092,71040
 3.0000e+000 71651 -6.1424e+001 -1.9270e+002 -3.5771e+001 67366 71746,71674,71458
 3.0000e+000 71628 -3.7080e+001 -1.5640e+002 -3.8571e+001 67366 71674,71354,71510
 3.0000e+000 71605 -5.4670e+001 -2.1250e+002 -3.3796e+001 67366 71746,71458,71432
 3.0000e+000 71582 -8.9688e+001 -2.1718e+002  9.1555e+000 67366 71354,71432,71380
 3.0000e+000 71559 -9.7905e+001 -1.5285e+002 -2.1874e+001 67366 71380,71432,71406
 3.0000e+000 71536 -4.2233e+001 -5.9090e+001 -4.9485e+000 67366 71328,71510,71354
 3.0000e+000 71700 -7.0516e+001 -1.7522e+002 -1.6184e+001 67366 71484,71458,71674
 3.0000e+000 71723 -4.4694e+001 -1.6370e+002 -1.3873e+001 67366 71484,71674,71510
 3.0000e+000 71772 -5.3253e+001 -1.6925e+002 -3.1595e+001 67366 71354,71674,71746
 3.0000e+000 71795 -4.5898e+001 -1.8691e+002 -3.1981e+001 67366 71354,71746,71432
 3.0000e+000 71896 -2.0155e+002 -4.3349e+002  0.0000e+000 67146 71818,71870,71844
 3.0000e+000 71997 -2.3093e+002 -3.4966e+002  6.9091e+001 66948 71919,71971,71945
 3.0000e+000 72149 -3.5704e-001 -2.4865e+002 -3.0714e+001 66700 72172,72074,72048
 3.0000e+000 72126 -7.7043e+001 -2.8130e+002 -1.2151e+001 66700 72172,72048,72022
 3.0000e+000 72198 -1.3029e+002 -3.1016e+002  2.0712e+001 66700 72244,72172,72100
 3.0000e+000 72221 -1.1559e+002 -2.8287e+002 -1.8144e+001 66700 72100,72172,72022
 3.0000e+000 72270 -6.2075e+001 -1.6041e+002 -2.0594e+001 66700 72074,72172,72244
 3.0000e+000 72623 -8.2631e+001 -2.5713e+002  6.7730e+000 66502 72424,72502,72450
 3.0000e+000 72600 -6.7003e+001 -2.1407e+002  4.1378e+000 66502 72398,72502,72424
 3.0000e+000 72577 -4.6535e+001 -2.4451e+002 -4.9232e+000 66502 72398,72528,72502
 3.0000e+000 72554 -8.3057e+001 -2.2740e+002 -1.9383e+000 66502 72450,72502,72476
 3.0000e+000 72920 -1.4372e+002 -3.0137e+002  7.9007e+000 65941 72672,72776,72750
 3.0000e+000 72897 -1.4239e+002 -2.5831e+002  2.9696e+001 65941 72646,72776,72672
 3.0000e+000 72874 -1.2663e+002 -2.9680e+002  1.0459e+001 65941 72672,72750,72724
 3.0000e+000 72851 -1.2778e+002 -2.3327e+002  2.2870e+001 65941 72672,72724,72698
 3.0000e+000 72828 -1.0895e+002 -2.5442e+002  2.6402e+001 65941 72646,72802,72776
 3.0000e+000 73241 -2.1527e+001 -2.1493e+002  1.8363e+001 65743 73264,73071,73045
 3.0000e+000 73218 -8.1751e+001 -2.4210e+002  2.4760e+001 65743 73480,73264,73045
 3.0000e+000 73195 -6.8378e+001 -2.1844e+002 -3.1530e+000 65743 73336,72967,73097
 3.0000e+000 73172 -1.2700e+002 -1.9924e+002 -2.3815e+001 65743 73408,72993,72967
 3.0000e+000 73149 -5.7294e+001 -2.1910e+002 -3.4692e+000 65743 72967,73123,73097
 3.0000e+000 73290 -4.7350e+001 -2.2721e+002  4.8928e+000 65743 73097,73071,73264
 3.0000e+000 73313 -5.6298e+001 -2.0670e+002  1.0438e+001 65743 73336,73097,73264
 3.0000e+000 73362 -1.0774e+002 -2.2543e+002 -1.5993e+001 65743 73408,72967,73336
 3.0000e+000 73385 -4.8151e+001 -2.0511e+002  5.3405e-001 65743 73019,73336,73264
 3.0000e+000 73434 -9.4987e+001 -1.5131e+002  1.2258e+001 65743 73019,72993,73408
 3.0000e+000 73457 -4.9489e+001 -1.8550e+002  8.3938e+000 65743 73019,73408,73336
 3.0000e+000 73506 -3.0216e+001 -1.5236e+002  3.9264e+000 65743 73019,73264,73480
 3.0000e+000 73989 -4.5883e+000 -1.6874e+002  2.1477e+001 65453 73793,73845,73819
 3.0000e+000 73966 -8.7597e+001 -1.9068e+002  2.4657e+001 65453 73741,73845,73793
 3.0000e+000 73943 -1.9328e+001 -1.5353e+002  1.0412e+001 65453 73715,73845,73741
 3.0000e+000 73920 -6.8159e+001 -2.0420e+002  4.0864e+001 65453 73741,73793,73767
 3.0000e+000 73897  8.4614e+000 -9.1454e+001  3.2344e+000 65453 73715,73871,73845
 3.0000e+000 74357 -5.0636e+001 -2.2707e+002 -6.6231e+001 65141 74380,74138,74086
 3.0000e+000 74334 -9.9215e+001 -3.0976e+002 -4.5455e+001 65141 74380,74086,74060
 3.0000e+000 74311 -1.1144e+002 -3.0118e+002 -1.1923e+001 65141 74138,74190,74164
 3.0000e+000 74288 -8.2698e+001 -3.3651e+002 -1.4141e+001 65141 74060,74216,74190
 3.0000e+000 74265 -9.0052e+001 -3.5936e+002  5.4930e+000 65141 74034,74216,74060
 3.0000e+000 74242 -6.6104e+001 -1.6831e+002 -3.9535e+001 65141 74086,74138,74112
 3.0000e+000 74406 -7.9764e+001 -3.0009e+002 -2.6410e+001 65141 74190,74138,74380
 3.0000e+000 74429 -9.5003e+001 -3.2885e+002 -1.3044e+001 65141 74190,74380,74060
 3.0000e+000 74937 -1.0823e+002 -2.2658e+002 -6.1369e+001 64737 74614,74666,74640
 3.0000e+000 74914 -1.3573e+002 -2.8226e+002 -4.5429e+001 64737 74614,74796,74666
 3.0000e+000 74891 -9.6123e+001 -1.9383e+002 -8.2619e+000 64737 74960,74718,74666
 3.0000e+000 74868 -8.2586e+001 -2.1418e+002 -2.7877e+001 64737 74960,74666,74770
 3.0000e+000 74845 -8.5282e+001 -1.7009e+002 -2.9607e+001 64737 74666,74796,74770
 3.0000e+000 74822 -9.5318e+001 -2.1038e+002  1.9952e+000 64737 74666,74718,74692
 3.0000e+000 74986 -1.0430e+002 -2.1480e+002 -7.6705e+000 64737 74744,74718,74960
 3.0000e+000 75009 -9.5922e+001 -2.4546e+002 -2.7738e+001 64737 74744,74960,74770
 3.0000e+000 75306 -3.6124e+001 -1.9982e+002  2.8914e+001 64133 75329,75110,75084
 3.0000e+000 75283 -5.7828e+001 -2.3111e+002  1.2121e+001 64133 75401,75329,75084
 3.0000e+000 75260 -5.5947e+001 -2.3859e+002  1.4200e+001 64133 75401,75084,75058
 3.0000e+000 75237 -5.0224e+001 -2.6660e+002  2.7437e+001 64133 75473,75136,75110
 3.0000e+000 75214 -6.4121e+001 -2.0837e+002  4.0759e+000 64133 75032,75188,75162
 3.0000e+000 75355 -5.7548e+001 -2.5142e+002  2.1994e+001 64133 75473,75110,75329
 3.0000e+000 75378 -4.7692e+001 -2.1819e+002  3.9253e+000 64133 75162,75329,75032
 3.0000e+000 75427 -4.5555e+001 -2.1363e+002  5.2505e+000 64133 75032,75329,75401
 3.0000e+000 75450 -9.7478e+001 -2.6508e+002  3.2298e+001 64133 75545,75401,75058
 3.0000e+000 75499 -5.1542e+001 -2.4702e+002  6.1115e+000 64133 75162,75136,75473
 3.0000e+000 75522 -5.4288e+001 -2.1735e+002  6.5156e+000 64133 75162,75473,75329
 3.0000e+000 75571 -4.3319e+001 -1.4669e+002  1.1458e+001 64133 75032,75401,75545
 3.0000e+000 75851 -7.8544e+001 -2.1095e+002  2.1101e+000 63843 75874,75753,75727
 3.0000e+000 75828 -6.8122e+001 -2.1364e+002 -1.4603e+001 63843 75946,75874,75727
 3.0000e+000 75805 -7.8973e+001 -2.3051e+002 -7.0472e+000 63843 76018,75946,75727
 3.0000e+000 75900 -5.6565e+001 -2.0162e+002 -5.9886e+000 63843 75779,75753,75874
 3.0000e+000 75923 -6.2592e+001 -1.7321e+002 -2.6262e+001 63843 75779,75874,75675
 3.0000e+000 75972 -7.8747e+001 -1.9779e+002 -1.1114e+001 63843 75675,75874,75946
 3.0000e+000 75995 -7.0420e+001 -2.0970e+002 -1.8355e+001 63843 75675,75946,75701
 3.0000e+000 76044 -7.8765e+001 -2.1857e+002 -2.3065e+001 63843 75701,75946,76018
 3.0000e+000 76454  2.2958e+001 -3.3982e+001 -2.9198e+001 63439 76477,76255,76229
 3.0000e+000 76431 -1.5484e+001 -1.0093e+002 -5.4314e+000 63439 76477,76229,76359
 3.0000e+000 76408 -2.8243e+001 -8.0195e+001  4.3855e+001 63439 76307,76359,76333
 3.0000e+000 76385 -8.9302e+000 -1.1041e+002  3.5236e+000 63439 76255,76307,76281
 3.0000e+000 76503 -1.4246e+001 -8.5873e+001  1.1001e+001 63439 76307,76255,76477
 3.0000e+000 76526 -1.4063e+001 -1.1271e+002  2.7880e+001 63439 76307,76477,76359
 3.0000e+000 76926 -4.4387e+001 -1.6332e+002 -4.1458e+000 63049 76704,76782,76756
 3.0000e+000 76903 -6.8271e+001 -1.6966e+002 -1.8801e+001 63049 76704,76808,76782
 3.0000e+000 76880 -4.7623e+001 -1.9321e+002  2.5555e+000 63049 76704,76756,76730
 3.0000e+000 76857 -4.2590e+001 -1.0532e+002  6.0333e+000 63049 76678,76808,76704
 3.0000e+000 76834 -2.0467e+001 -2.5840e+001 -2.4299e+001 63049 76652,76808,76678
 3.0000e+000 77076 -1.3787e+001 -2.4844e+002 -1.1133e+000 62737 76975,77027,77001
 3.0000e+000 77053 -1.3037e+001 -2.7904e+002 -1.7322e+001 62737 76949,77027,76975
 3.0000e+000 77324 -1.1104e+002 -2.5216e+002 -2.6127e+000 62277 77347,77177,77125
 3.0000e+000 77301 -1.0490e+002 -2.4326e+002 -1.2876e+001 62277 77347,77125,77229
 3.0000e+000 77278 -9.9852e+001 -2.5087e+002 -1.7981e+001 62277 77099,77229,77125
 3.0000e+000 77255 -1.1660e+002 -3.0906e+002  3.5621e+000 62277 77125,77177,77151
 3.0000e+000 77373 -1.1627e+002 -2.7646e+002  1.0877e+001 62277 77203,77177,77347
 3.0000e+000 77396 -9.2564e+001 -2.5381e+002 -2.6420e+000 62277 77203,77347,77229
 3.0000e+000 77857 -4.8936e+001 -3.1019e+002  3.6327e+000 61758 77635,77739,77661
 3.0000e+000 77834 -8.2181e+001 -3.0123e+002 -1.4346e+001 61758 77583,77739,77635
 3.0000e+000 77811 -9.4506e+001 -3.7450e+002 -3.7946e+001 61758 77583,77635,77609
 3.0000e+000 77788 -7.5944e+001 -2.9051e+002  2.4889e+001 61758 77661,77713,77687
 3.0000e+000 77765 -7.7333e+001 -3.4162e+002  2.5782e+001 61758 77661,77739,77713
 3.0000e+000 78491 -8.3690e+001 -1.7641e+002  8.9973e+000 61418 78171,78301,78249
 3.0000e+000 78468 -6.7628e+001 -1.4775e+002  2.0335e+001 61418 78145,78301,78171
 3.0000e+000 78445 -5.9908e+001 -1.5536e+002 -9.7479e+000 61418 78171,78249,78223
 3.0000e+000 78422 -6.3441e+001 -1.4560e+002  8.7160e+000 61418 78145,78327,78301
 3.0000e+000 78399 -8.6773e+001 -1.9727e+002 -2.5275e+000 61418 78249,78301,78275
 3.0000e+000 78376 -3.7098e+001 -1.6251e+002 -1.4088e+001 61418 78171,78223,78197
 3.0000e+000 78353 -8.0462e+001 -1.8314e+002 -2.4840e+000 61418 78119,78327,78145
 3.0000e+000 78690 -9.2850e+001 -2.1701e+002 -4.0848e+000 61014 78713,78566,78540
 3.0000e+000 78667 -5.7086e+001 -2.2145e+002 -1.5799e+000 61014 78713,78540,78618
 3.0000e+000 78644 -9.9420e+001 -2.5059e+002 -2.5858e+001 61014 78514,78618,78540
 3.0000e+000 78739 -4.4181e+001 -2.0857e+002  2.2404e+001 61014 78592,78566,78713
 3.0000e+000 78762 -4.8555e+001 -2.3296e+002  1.7883e+000 61014 78785,78713,78618
 3.0000e+000 78811 -1.5595e+001 -2.2056e+002 -3.4584e+000 61014 78592,78713,78785
 3.0000e+000 79398 -3.4717e+001 -1.8535e+002 -2.1513e+001 60624 79101,79179,79153
 3.0000e+000 79375 -5.0518e+001 -2.1050e+002 -1.0840e+001 60624 79101,79231,79179
 3.0000e+000 79352 -4.1817e+001 -2.1172e+002 -1.7538e+001 60624 79075,79231,79101
 3.0000e+000 79329 -1.1612e+001 -2.5691e+002  2.8023e+001 60624 79075,79257,79231
 3.0000e+000 79306 -3.9470e+001 -1.5825e+002 -4.4409e+001 60624 79179,79231,79205
 3.0000e+000 79283 -2.4760e+001 -1.6418e+002 -9.0727e+000 60624 79101,79153,79127
 3.0000e+000 79776 -9.7810e+001 -2.7470e+002  2.6612e+001 60070 79528,79658,79606
 3.0000e+000 79753 -8.7486e+001 -2.1227e+002 -2.1659e+000 60070 79502,79658,79528
 3.0000e+000 79730 -1.2427e+002 -2.6580e+002  3.8002e+001 60070 79528,79606,79580
 3.0000e+000 79707 -2.0675e+001 -2.3035e+002  4.4032e+000 60070 79606,79658,79632
 3.0000e+000 79684 -1.0093e+001 -1.6289e+002 -4.2578e+001 60070 79528,79580,79554
 3.0000e+000 80105 -6.7210e+001 -2.1224e+002  2.5496e+001 59758 80128,79958,79906
 3.0000e+000 80082 -7.3121e+001 -1.9889e+002  1.8379e+001 59758 80128,79906,80010
 3.0000e+000 80059 -9.8347e+001 -2.1878e+002  7.5335e+001 59758 79906,79958,79932
 3.0000e+000 80036 -1.1131e+002 -2.2873e+002  5.3242e+000 59758 79880,80010,79906
 3.0000e+000 80154 -7.0553e+001 -2.2059e+002  2.4684e+001 59758 79984,79958,80128
 3.0000e+000 80177 -7.8121e+001 -2.1040e+002  1.7450e+001 59758 79984,80128,80010
 3.0000e+000 80376 -5.3580e+001 -2.1476e+002  3.9897e+000 59312 80226,80304,80252
 3.0000e+000 80353 -5.5463e+001 -2.1500e+002  3.3294e+000 59312 80200,80304,80226
 3.0000e+000 80330 -8.5753e+001 -1.9110e+002  5.7733e+001 59312 80252,80304,80278
 3.0000e+000 80805 -7.6933e+001 -1.7700e+002 -2.7944e+001 58908 80900,80828,80638
 3.0000e+000 80782 -6.5629e+001 -2.0923e+002 -4.2587e+001 58908 80828,80560,80508
 3.0000e+000 80759 -8.0653e+001 -1.6536e+002 -8.9527e+000 58908 80900,80638,80612
 3.0000e+000 80736 -3.3855e+001 -1.8076e+002  7.4165e+001 58908 80482,80664,80508
 3.0000e+000 80713 -5.3694e+001 -1.5310e+002 -2.9385e+000 58908 80560,80612,80586
 3.0000e+000 80690 -7.3110e+001 -5.0330e+002 -9.8326e+001 58908 80508,80560,80534
 3.0000e+000 80854 -3.5711e+001 -1.9139e+002  2.0811e-001 58908 80664,80638,80828
 3.0000e+000 80877 -6.1378e+001 -2.7717e+002  4.7884e+000 58908 80664,80828,80508
 3.0000e+000 80926 -6.4995e+001 -1.4254e+002 -2.9939e+001 58908 80560,80828,80900
 3.0000e+000 80949 -7.3384e+001 -1.4238e+002 -8.2891e+000 58908 80560,80900,80612
 3.0000e+000 81246 -2.5619e+001 -1.6383e+002 -3.7882e+000 58482 81076,81128,81102
 3.0000e+000 81223 -7.2236e+001 -2.8090e+002 -2.7832e+001 58482 80972,81128,81076
 3.0000e+000 81200 -4.4364e+001 -1.9075e+002 -3.0219e+001 58482 80972,81076,81050
 3.0000e+000 81177 -1.0594e+002 -2.9789e+002 -4.5733e+000 58482 80998,81050,81024
 3.0000e+000 81154 -5.3193e+001 -2.3938e+002 -2.6881e+001 58482 80972,81050,80998
 3.0000e+000 81754 -8.1381e+001 -1.7364e+002  1.5261e+001 57828 81457,81613,81483
 3.0000e+000 81731 -9.3022e+001 -1.9532e+002  7.9184e+000 57828 81431,81613,81457
 3.0000e+000 81708 -8.9203e+001 -1.9190e+002  1.5263e+001 57828 81483,81613,81509
 3.0000e+000 81685 -1.0816e+002 -2.1985e+002  2.3622e+001 57828 81509,81613,81587
 3.0000e+000 81662 -1.1408e+002 -3.2088e+002  4.5975e+001 57828 81509,81587,81535
 3.0000e+000 81639 -6.7074e+001 -3.0583e+002  3.0158e+001 57828 81535,81587,81561
 3.0000e+000 82002 -1.3506e+002 -3.3018e+002 -4.6288e+000 57374 82025,81855,81829
 3.0000e+000 81979 -1.4185e+002 -3.1476e+002  7.9874e+000 57374 82025,81829,81907
 3.0000e+000 81956 -1.4292e+002 -2.9007e+002  4.0903e+000 57374 81803,81907,81829
 3.0000e+000 81933 -9.6618e+001 -2.7232e+002  6.9849e+000 57374 81777,81907,81803
 3.0000e+000 82051 -1.3305e+002 -3.1182e+002 -6.2191e+000 57374 81881,81855,82025
 3.0000e+000 82074 -1.3749e+002 -2.9855e+002  1.0627e+001 57374 81881,82025,81907
 3.0000e+000 82356 -7.3509e+001 -1.7369e+002 -1.3269e+001 56913 82180,82232,82206
 3.0000e+000 82333 -5.8270e+001 -1.5553e+002  1.9948e+001 56913 82180,82284,82232
 3.0000e+000 82310 -2.2786e+001 -1.3752e+002  3.2363e+001 56913 82379,82232,82284
 3.0000e+000 82405  1.9317e+001 -1.3280e+002  6.0287e+000 56913 82258,82232,82379
 3.0000e+000 82764 -7.3051e+001 -1.1497e+002 -1.1718e+001 56523 82614,82666,82640
 3.0000e+000 82741 -6.1925e+001 -1.1565e+002 -1.7592e+001 56523 82614,82692,82666
 3.0000e+000 82718 -5.3049e+001 -1.2418e+002 -3.6013e+001 56523 82588,82692,82614
 3.0000e+000 83368 -1.7443e+001 -2.2355e+002 -7.6774e+000 55969 82973,83155,83129
 3.0000e+000 83345  2.0143e+000 -2.1623e+002 -1.5915e+001 55969 82973,83181,83155
 3.0000e+000 83322 -5.9334e+001 -1.9502e+002 -6.2251e+000 55969 82973,83129,82999
 3.0000e+000 83299 -9.9867e+001 -2.0286e+002  1.1850e+001 55969 83391,83025,82999
 3.0000e+000 83276 -7.8995e+001 -2.0687e+002  4.2316e+000 55969 83391,82999,83129
 3.0000e+000 83253 -1.3262e+001 -1.6368e+002  3.7231e+001 55969 83077,83129,83103
 3.0000e+000 83230 -9.2727e+001 -1.5426e+002 -7.0457e+000 55969 83025,83077,83051
 3.0000e+000 83207 -2.5338e+000 -2.0818e+002  2.0187e+001 55969 82947,83181,82973
 3.0000e+000 83417 -7.9330e+001 -1.9336e+002  1.4241e+001 55969 83077,83025,83391
 3.0000e+000 83440 -7.1811e+001 -2.0429e+002  4.8479e+000 55969 83077,83391,83129
 3.0000e+000 83946 -1.4025e+002 -2.9420e+002  5.3959e+001 55771 83969,83779,83727
 3.0000e+000 83923 -1.1059e+002 -2.3934e+002  2.5296e+001 55771 83969,83727,83623
 3.0000e+000 83900 -1.3223e+002 -1.3677e+002  1.4539e+001 55771 83623,83727,83649
 3.0000e+000 83877 -6.3734e+001 -4.8882e+002  4.2875e+001 55771 83727,83779,83753
 3.0000e+000 83854 -2.1437e+002 -2.4763e+002  8.9240e+001 55771 83675,83727,83701
 3.0000e+000 83831 -2.0944e+002 -2.2915e+002  9.8212e+001 55771 83649,83727,83675
 3.0000e+000 83995 -1.2433e+002 -3.0225e+002 -1.7962e+001 55771 83805,83779,83969
 3.0000e+000 84018 -5.8620e+001 -1.8814e+002 -5.3221e+001 55771 83805,83969,83623
 3.0000e+000 84168 -5.5875e+001 -1.5419e+002 -4.6347e+000 55367 84191,84067,84041
 3.0000e+000 84145 -5.4947e+001 -1.7367e+002 -2.9722e+000 55367 84191,84041,84119
 3.0000e+000 84217 -5.9988e+001 -1.4266e+002 -4.3028e+000 55367 84093,84067,84191
 3.0000e+000 84240 -5.3019e+001 -1.5407e+002  2.8521e+000 55367 84093,84191,84119
 3.0000e+000 84571 -3.0260e+001 -2.6374e+002 -2.6551e+001 54913 84398,84450,84424
 3.0000e+000 84548 -2.2691e+001 -2.3788e+002 -1.1220e+001 54913 84372,84450,84398
 3.0000e+000 84525 -5.9163e+001 -2.6698e+002  9.9226e+000 54913 84346,84450,84372
 3.0000e+000 84502 -1.5499e+001 -1.6687e+002 -2.1679e+001 54913 84346,84476,84450
 3.0000e+000 85126 -1.2747e+002 -2.8997e+002 -1.0301e+001 54402 84858,84936,84910
 3.0000e+000 85103 -9.6604e+001 -2.2615e+002 -2.7064e+001 54402 84806,84936,84858
 3.0000e+000 85080 -1.1574e+002 -2.0417e+002 -2.0292e+001 54402 84780,84936,84806
 3.0000e+000 85057 -9.8166e+001 -2.4942e+002 -1.2974e+001 54402 84806,84858,84832
 3.0000e+000 85034 -1.0178e+002 -1.9164e+002  9.3867e+000 54402 84780,84962,84936
 3.0000e+000 85011 -1.5663e+002 -1.7102e+002 -5.3866e+000 54402 84858,84910,84884
 3.0000e+000 84988 -9.9736e+001 -1.8270e+002  8.4715e+000 54402 84754,84962,84780
 3.0000e+000 85396 -9.3269e+001 -1.1411e+002 -8.8668e+000 53998 85197,85249,85223
 3.0000e+000 85373 -7.0204e+001 -1.4719e+002 -2.2567e+000 53998 85197,85275,85249
 3.0000e+000 85350 -8.8810e+001 -1.7264e+002 -1.0845e+001 53998 85171,85275,85197
 3.0000e+000 85327 -4.0036e+001 -1.6063e+002 -1.3436e+001 53998 85171,85301,85275
 3.0000e+000 85749 -5.4021e+001 -2.0944e+002 -3.8016e+000 53636 85524,85628,85550
 3.0000e+000 85726 -8.8692e+001 -2.3212e+002  8.0874e+000 53636 85524,85654,85628
 3.0000e+000 85703 -3.2961e+001 -2.2388e+002 -2.0145e+001 53636 85550,85602,85576
 3.0000e+000 85680 -5.6214e+001 -2.0899e+002 -9.1864e+000 53636 85550,85628,85602
 3.0000e+000 86127 -1.6560e+001 -2.0715e+002  3.3794e+001 52982 86150,85957,85879
 3.0000e+000 86104 -6.0378e+001 -2.4062e+002  1.9141e+001 52982 86150,85879,85853
 3.0000e+000 86081 -1.4287e+001 -2.9879e+002  6.0529e+001 52982 85957,86009,85983
 3.0000e+000 86058 -7.6482e+001 -2.2265e+002  2.9612e+001 52982 85879,85957,85931
 3.0000e+000 86035 -5.6192e+001 -1.9090e+002  1.8654e+001 52982 85879,85931,85905
 3.0000e+000 86176  1.2450e+001 -2.4401e+002  2.8022e+001 52982 86009,85957,86150
 3.0000e+000 86199 -1.3614e+001 -2.6741e+002  1.8118e+001 52982 86009,86150,85853
 3.0000e+000 86398 -4.2568e+001 -1.5465e+002  1.4088e+001 52542 86421,86248,86222
 3.0000e+000 86375 -7.6649e+001 -1.5850e+002 -1.8492e+000 52542 86421,86222,86300
 3.0000e+000 86352 -7.6718e+001 -1.7085e+002 -7.4360e+000 52542 86222,86326,86300
 3.0000e+000 86447 -7.6244e+000 -1.5560e+002  2.8234e+001 52542 86274,86248,86421
 3.0000e+000 86470 -4.0194e+001 -1.6499e+002  8.1049e+000 52542 86274,86421,86300
 3.0000e+000 86669 -7.6028e+001 -1.6470e+002 -2.8594e+001 52230 86692,86571,86545
 3.0000e+000 86646 -7.3183e+001 -1.5489e+002 -1.6381e+001 52230 86692,86545,86519
 3.0000e+000 86623 -1.0176e+002 -1.6294e+002 -2.5870e+001 52230 86493,86597,86519
 3.0000e+000 86718 -8.1975e+001 -1.6817e+002 -3.3234e+001 52230 86597,86571,86692
 3.0000e+000 86741 -8.7471e+001 -1.6193e+002 -2.1740e+001 52230 86597,86692,86519
 3.0000e+000 87153 -1.1633e+002 -1.5954e+002  8.1062e+000 51640 86980,87058,87032
 3.0000e+000 87130 -1.0635e+002 -1.6702e+002  5.3711e+000 51640 86928,87058,86980
 3.0000e+000 87107 -1.0319e+002 -2.2666e+002 -2.0418e+001 51640 86928,86980,86954
 3.0000e+000 87084 -8.2515e+001 -1.4533e+002 -1.1292e+000 51640 86980,87032,87006
 3.0000e+000 87659 -3.9597e+001 -1.5313e+002  1.3056e+001 51029 87682,87440,87362
 3.0000e+000 87636 -4.6742e+001 -1.6567e+002 -3.9246e+000 51029 87682,87362,87336
 3.0000e+000 87613 -6.5995e+001 -2.3989e+002 -4.4955e+000 51029 87440,87518,87466
 3.0000e+000 87590 -8.3246e+001 -1.5622e+002  1.6954e+001 51029 87362,87440,87414
 3.0000e+000 87567 -8.1509e+001 -1.4833e+002  3.5855e+001 51029 87362,87414,87388
 3.0000e+000 87544 -9.2691e+001 -2.0273e+002  7.0896e+000 51029 87466,87518,87492
 3.0000e+000 87708 -3.4729e+001 -1.7270e+002  3.8676e+000 51029 87518,87440,87682
 3.0000e+000 87731 -3.8817e+001 -1.9546e+002 -6.8925e+000 51029 87518,87682,87336
 3.0000e+000 87881 -9.5589e+001 -2.0967e+002  5.5315e+000 50739 87780,87832,87806
 3.0000e+000 87858 -1.0818e+002 -2.0773e+002 -9.4756e+000 50739 87754,87832,87780
 3.0000e+000 88468 -5.6681e+001 -1.3991e+002  7.0137e+000 50235 88171,88327,88197
 3.0000e+000 88445 -1.3482e+002 -1.3985e+002 -2.3136e+001 50235 88145,88327,88171
 3.0000e+000 88422  4.1307e+001 -7.0113e+001  3.5847e+001 50235 88275,88327,88301
 3.0000e+000 88399 -3.2604e+001 -1.0227e+002 -3.2992e+000 50235 88197,88327,88275
 3.0000e+000 88376  1.4541e+001 -1.2795e+002  4.6080e+000 50235 88197,88275,88223
 3.0000e+000 88353  2.9308e+000 -1.4235e+002  1.2057e+001 50235 88223,88275,88249
 3.0000e+000 88895 -8.7533e+001 -2.2021e+002  8.0088e+000 49873 88918,88728,88676
 3.0000e+000 88872 -7.4773e+001 -2.1130e+002 -2.3369e+000 49873 88918,88676,88624
 3.0000e+000 88849 -5.7160e+001 -1.8417e+002 -3.9851e+000 49873 88598,88754,88624
 3.0000e+000 88826 -4.5283e+001 -1.9761e+002 -5.8984e+000 49873 88624,88676,88650
 3.0000e+000 88803 -7.3505e+001 -2.7142e+002  9.8411e+000 49873 88676,88728,88702
 3.0000e+000 88780 -6.3183e+001 -1.6464e+002  7.5655e+000 49873 88572,88754,88598
 3.0000e+000 88944 -7.0479e+001 -2.1643e+002  2.0589e+000 49873 88754,88728,88918
 3.0000e+000 88967 -6.6214e+001 -2.1538e+002 -7.3242e+000 49873 88754,88918,88624
 3.0000e+000 89473 -1.4098e+002 -2.1711e+002 -2.7545e+001 49583 89176,89306,89202
 3.0000e+000 89450 -1.3850e+002 -2.1294e+002 -3.5117e+001 49583 89176,89332,89306
 3.0000e+000 89427 -8.3034e+001 -2.3900e+002  8.4715e+000 49583 89496,89228,89202
 3.0000e+000 89404 -8.1386e+001 -2.4413e+002  1.0457e+001 49583 89496,89202,89280
 3.0000e+000 89381 -1.6863e+002 -3.0368e+002 -5.3394e+001 49583 89202,89306,89280
 3.0000e+000 89358 -1.1093e+002 -2.1450e+002 -3.9973e+001 49583 89150,89332,89176
 3.0000e+000 89522 -7.6705e+001 -2.0545e+002  5.8354e+000 49583 89254,89228,89496
 3.0000e+000 89545 -9.0829e+001 -2.3480e+002  1.0449e+001 49583 89254,89496,89280
 3.0000e+000 89825  3.6818e+001 -2.1321e+002  1.0055e+001 49179 89701,89753,89727
 3.0000e+000 89802 -2.6410e+001 -1.8915e+002  1.5663e+001 49179 89675,89753,89701
 3.0000e+000 89779 -2.1205e+001 -1.7157e+002  7.8571e+000 49179 89848,89753,89675
 3.0000e+000 89874 -1.1862e+002 -1.9781e+002 -1.7800e+001 49179 89649,89753,89848
 3.0000e+000 90223 -5.3457e+001 -2.2021e+002 -1.6037e+001 48739 90024,90102,90076
 3.0000e+000 90200 -8.0607e+001 -2.2257e+002 -5.5985e+000 48739 90024,90128,90102
 3.0000e+000 90177 -4.2137e+001 -2.3488e+002 -9.0402e+000 48739 90024,90076,90050
 3.0000e+000 90154 -3.4790e+001 -2.1292e+002  1.8764e+001 48739 89998,90128,90024
 3.0000e+000 90603 -8.2782e+001 -2.0300e+002  3.7323e+001 48335 90381,90485,90459
 3.0000e+000 90580 -9.5563e+001 -2.1860e+002  3.0718e+001 48335 90355,90485,90381
 3.0000e+000 90557 -3.5214e+001 -7.6791e+001  2.4561e+001 48335 90381,90433,90407
 3.0000e+000 90534 -7.6858e+001 -1.9980e+002  3.8600e+001 48335 90381,90459,90433
 3.0000e+000 90511 -1.3894e+001 -1.6025e+002  6.5892e+001 48335 90329,90485,90355
 3.0000e+000 90753  1.3843e+001 -1.1352e+002  5.5206e+001 47824 90776,90652,90704
 3.0000e+000 90730 -1.5097e+001 -1.8148e+002  5.1071e+001 47824 90626,90704,90652
 3.0000e+000 90802 -3.2357e+001 -1.5323e+002  3.8300e+001 47824 90678,90652,90776
 3.0000e+000 91131 -6.3742e+001 -2.2543e+002  9.7496e+000 47427 91154,90958,90906
 3.0000e+000 91108 -1.1555e+002 -2.4666e+002 -1.9781e-001 47427 91154,90906,91036
 3.0000e+000 91085 -1.1227e+002 -1.9679e+002 -1.9340e+001 47427 90958,91010,90984
 3.0000e+000 91062 -6.6231e+001 -2.0877e+002  1.3200e+001 47427 90906,90958,90932
 3.0000e+000 91180 -9.4112e+001 -2.2386e+002 -2.4357e+001 47427 91010,90958,91154
 3.0000e+000 91203 -1.4406e+002 -2.4551e+002 -3.5194e+001 47427 91010,91154,91036
 3.0000e+000 91583 -1.3869e+002 -2.5532e+002 -1.4390e+001 46873 91309,91439,91335
 3.0000e+000 91560 -1.4524e+002 -2.5892e+002 -1.1953e+001 46873 91309,91465,91439
 3.0000e+000 91537 -2.0360e+002 -2.9295e+002 -6.6171e+001 46873 91361,91439,91413
 3.0000e+000 91514 -1.5144e+002 -2.6324e+002 -2.9824e+001 46873 91335,91439,91361
 3.0000e+000 91491 -6.4468e+001 -2.4135e+002 -5.5132e+001 46873 91361,91413,91387
 3.0000e+000 91880 -6.8720e+001 -2.2467e+002 -5.9147e+000 46526 91606,91710,91658
 3.0000e+000 91857 -7.0927e+001 -2.3611e+002  1.6944e+000 46526 91606,91762,91710
 3.0000e+000 91834 -3.9000e+001 -2.1654e+002 -2.8027e+001 46526 91606,91658,91632
 3.0000e+000 91811 -8.2273e+001 -2.0821e+002  3.8991e+000 46526 91658,91710,91684
 3.0000e+000 91788 -4.4328e+001 -1.5649e+002  7.9137e+000 46526 91710,91762,91736
 3.0000e+000 92211 -4.2369e+000 -1.1277e+002 -5.6020e+000 45700 91986,92064,92038
 3.0000e+000 92188 -6.4058e+001 -1.6200e+002  1.8142e+001 45700 91986,92116,92064
 3.0000e+000 92165  1.9375e+001 -8.6580e+001 -4.5298e+001 45700 91986,92038,92012
 3.0000e+000 92142 -6.6205e+001 -1.6264e+002  1.6535e+001 45700 92064,92116,92090
 3.0000e+000 92766 -1.1712e+002 -2.0711e+002  8.6356e+000 45452 92446,92602,92576
 3.0000e+000 92743 -1.8241e+002 -2.0669e+002 -3.0442e+001 45452 92420,92602,92446
 3.0000e+000 92720 -1.3495e+002 -2.0937e+002  3.0781e+001 45452 92789,92524,92498
 3.0000e+000 92697 -1.6128e+002 -2.0943e+002  2.2060e+001 45452 92789,92498,92446
 3.0000e+000 92674 -1.2758e+002 -2.2965e+002 -5.7015e+000 45452 92524,92576,92550
 3.0000e+000 92651 -2.1329e+002 -2.1531e+002  1.2487e+002 45452 92446,92498,92472
 3.0000e+000 92628 -1.1449e+002 -2.6116e+002 -7.3273e+001 45452 92394,92602,92420
 3.0000e+000 92815 -1.1695e+002 -2.1797e+002  2.4078e+001 45452 92576,92524,92789
 3.0000e+000 92838 -1.3622e+002 -2.1186e+002  1.9226e+001 45452 92576,92789,92446
 3.0000e+000 92939 -8.1939e+001 -2.6477e+002 -5.6185e+001 44998 92861,92913,92887
 3.0000e+000 93319 -2.4564e+000 -2.7633e+002  5.6863e+001 44601 93123,93201,93149
 3.0000e+000 93296 -7.0633e+001 -2.8756e+002 -3.2234e+001 44601 93045,93201,93123
 3.0000e+000 93273 -6.0494e+001 -1.6019e+002 -4.2064e+001 44601 93045,93123,93071
 3.0000e+000 93250 -5.8636e+001 -1.5010e+002 -2.9119e+001 44601 93071,93123,93097
 3.0000e+000 93227  8.2018e+000 -1.4755e+002  6.2568e+001 44601 93149,93201,93175
 3.0000e+000 93697 -5.0581e+001 -3.0531e+002  2.0550e+001 44026 93720,93553,93527
 3.0000e+000 93674 -1.0352e+002 -2.5502e+002  2.7033e+001 44026 93720,93527,93449
 3.0000e+000 93651 -1.1653e+002 -2.6529e+002 -5.1732e+000 44026 93449,93527,93501
 3.0000e+000 93628 -7.8913e+001 -2.0424e+002 -3.8934e+001 44026 93423,93579,93449
 3.0000e+000 93605 -2.2486e+001 -2.0595e+002  2.0230e+001 44026 93449,93501,93475
 3.0000e+000 93746 -1.1640e+001 -2.6924e+002  5.3606e+000 44026 93579,93553,93720
 3.0000e+000 93769 -6.7817e+001 -2.2031e+002  1.2417e+001 44026 93579,93720,93449
 3.0000e+000 94066 -5.4907e+001 -2.3340e+002 -3.4422e+001 43579 94089,93818,93792
 3.0000e+000 94043 -9.2823e+001 -2.5933e+002 -2.2890e+001 43579 94161,94089,93792
 3.0000e+000 94020 -9.1087e+001 -2.6064e+002 -1.1988e+001 43579 94161,93792,93948
 3.0000e+000 93997 -9.7961e+001 -2.0436e+002 -1.2054e+001 43579 94233,93870,93818
 3.0000e+000 93974 -5.3824e+001 -2.0814e+002  2.4395e+000 43579 93818,93870,93844
 3.0000e+000 94115 -9.5558e+001 -2.0621e+002 -2.5312e+001 43579 94233,93818,94089
 3.0000e+000 94138 -1.2978e+002 -2.3300e+002 -1.7526e+001 43579 93896,94089,93922
 3.0000e+000 94187 -8.5726e+001 -2.4288e+002 -2.2295e+001 43579 93922,94089,94161
 3.0000e+000 94210 -8.3181e+001 -2.4258e+002 -1.0382e+001 43579 93922,94161,93948
 3.0000e+000 94259 -1.1241e+002 -2.2957e+002 -5.9656e+000 43579 93896,93870,94233
 3.0000e+000 94282 -1.0436e+002 -2.2557e+002 -2.1248e+001 43579 93896,94233,94089
 3.0000e+000 94481 -7.8517e+001 -2.3898e+002 -2.0616e+000 43239 94305,94383,94357
 3.0000e+000 94458 -6.4686e+001 -2.1697e+002  2.7303e+001 43239 94305,94409,94383
 3.0000e+000 94435 -5.8201e+001 -2.5248e+002 -7.6155e+000 43239 94305,94357,94331
 3.0000e+000 94633 -5.2254e+001 -1.6507e+002  3.7031e+001 42827 94656,94532,94506
 3.0000e+000 94610 -5.7443e+001 -1.7560e+002  5.4754e+001 42827 94728,94656,94506
 3.0000e+000 94682 -9.9503e+000 -1.7823e+002  4.5319e+001 42827 94558,94532,94656
 3.0000e+000 94705  2.1398e+001 -1.9321e+002  3.0041e+001 42827 94988,94860,94656
 3.0000e+000 94754 -2.4263e+001 -1.6778e+002  1.7485e+001 42827 94988,94656,94728
 3.0000e+000 94886  8.2137e+001 -1.6938e+002  3.0031e+001 42827 94558,94656,94860
 3.0000e+000 95014  5.9240e+001 -1.7142e+002  2.0591e+001 42827 94584,94860,94988
 3.0000e+000 95037  2.2080e+001 -1.4450e+002  9.6836e+000 42827 94584,94988,94728
 3.0000e+000 95236 -7.2403e+001 -2.2824e+002  7.2329e+000 42537 95259,95112,95060
 3.0000e+000 95213 -3.6111e+001 -2.4705e+002  1.5121e+001 42537 95259,95060,95164
 3.0000e+000 95190 -5.6794e+001 -2.2022e+002 -1.2482e+001 42537 95060,95112,95086
 3.0000e+000 95285 -4.8043e+001 -2.2228e+002  2.3103e+001 42537 95138,95112,95259
 3.0000e+000 95308 -1.1944e+001 -2.3195e+002  3.6046e+001 42537 95138,95259,95164
 3.0000e+000 95816 -8.4603e+001 -2.4196e+002 -1.5057e+001 41969 95493,95597,95519
 3.0000e+000 95793 -1.3609e+002 -2.4073e+002  2.7750e+001 41969 95493,95649,95597
 3.0000e+000 95770 -1.1473e+002 -2.2017e+002  1.3359e+001 41969 95493,95675,95649
 3.0000e+000 95747 -1.2569e+002 -3.0809e+002  2.0770e+001 41969 95597,95649,95623
 3.0000e+000 95724 -1.4399e+002 -2.4841e+002 -1.3893e+001 41969 95519,95597,95571
 3.0000e+000 95701 -1.3006e+002 -2.3511e+002 -6.7864e+001 41969 95519,95571,95545
 3.0000e+000 96371 -1.0516e+002 -2.5360e+002  2.9912e+001 41579 96025,96207,96181
 3.0000e+000 96348  4.1410e+001 -1.8773e+002 -3.2496e+000 41579 95999,96207,96025
 3.0000e+000 96325 -1.2249e+002 -2.0181e+002 -2.3296e+001 41579 96129,96181,96155
 3.0000e+000 96302 -4.5223e+001 -1.7863e+002  6.6835e-001 41579 96025,96181,96129
 3.0000e+000 96279 -9.6687e+001 -2.6363e+002  3.1849e+001 41579 96025,96129,96051
 3.0000e+000 96256 -1.1869e+002 -2.5373e+002  3.7239e+001 41579 96051,96103,96077
 3.0000e+000 96233 -4.5568e+001 -1.9404e+002  1.9323e+000 41579 96051,96129,96103
 3.0000e+000 96877 -3.0622e+001 -1.5630e+002 -2.0471e+001 41182 96972,96900,96632
 3.0000e+000 96854 -2.6340e+001 -1.1365e+002 -1.6638e+001 41182 96900,96554,96736
 3.0000e+000 96831 -3.1074e+001 -1.5788e+002 -1.9986e+001 41182 96972,96632,96580
 3.0000e+000 96808 -4.4689e+001 -1.5912e+002  4.3720e+000 41182 96632,96684,96658
 3.0000e+000 96785 -4.1177e+001 -1.6190e+002  1.4628e+001 41182 96684,96736,96710
 3.0000e+000 96762 -9.5556e+001 -2.1229e+002  2.4389e+001 41182 96580,96632,96606
 3.0000e+000 96926 -1.9908e+001 -1.6929e+002 -1.6848e+001 41182 96684,96632,96900
 3.0000e+000 96949 -2.9819e+001 -1.5215e+002 -2.7452e+001 41182 96684,96900,96736
 3.0000e+000 96998 -3.0359e+001 -1.5483e+002 -1.4845e+001 41182 96554,96900,96972
 3.0000e+000 97021 -3.2671e+001 -1.6045e+002 -1.4357e+001 41182 96554,96972,96580
 3.0000e+000 97576 -1.2637e+002 -3.8695e+002 -6.8873e+001 40678 97230,97412,97282
 3.0000e+000 97553  1.9560e+001 -3.1091e+002  1.9162e+001 40678 97204,97412,97230
 3.0000e+000 97530 -7.1262e+001 -2.9513e+002 -4.8933e+001 40678 97282,97360,97308
 3.0000e+000 97507 -4.9466e+001 -2.8245e+002 -3.0522e+001 40678 97282,97412,97360
 3.0000e+000 97484 -4.1741e+001 -2.1384e+002 -3.8461e+001 40678 97308,97360,97334
 3.0000e+000 97461 -1.3155e+002 -3.4857e+002  5.5387e+000 40678 97360,97412,97386
 3.0000e+000 97438 -5.4606e+001 -2.5979e+002 -2.8816e+001 40678 97230,97282,97256
 3.0000e+000 97976 -1.1697e+002 -1.9005e+002 -4.0301e+000 40244 97702,97832,97754
 3.0000e+000 97953 -9.7602e+001 -1.7653e+002 -1.0582e+001 40244 97702,97858,97832
 3.0000e+000 97930 -1.2058e+002 -2.1364e+002 -5.0228e+001 40244 97702,97754,97728
 3.0000e+000 97907 -9.7604e+001 -2.1422e+002  2.3789e+001 40244 97780,97832,97806
 3.0000e+000 97884 -1.0523e+002 -1.8434e+002 -2.2554e+000 40244 97754,97832,97780
 3.0000e+000 98482 -8.1110e+001 -2.0255e+002  2.2698e+001 39690 98505,98185,98159
 3.0000e+000 98459 -7.8408e+001 -2.0164e+002  2.3970e+001 39690 98505,98159,98289
 3.0000e+000 98436 -1.4400e+002 -2.8018e+002  8.8774e+001 39690 98159,98315,98289
 3.0000e+000 98413 -6.5190e+001 -1.9045e+002  3.0080e+001 39690 98211,98289,98263
 3.0000e+000 98390 -4.0090e+001 -1.1816e+002  1.7716e+001 39690 98211,98263,98237
 3.0000e+000 98367 -3.4997e+001 -1.7841e+002  4.2881e+001 39690 98159,98341,98315
 3.0000e+000 98531 -8.6618e+001 -2.0231e+002  2.0579e+001 39690 98211,98185,98505
 3.0000e+000 98554 -8.1460e+001 -1.9834e+002  2.2778e+001 39690 98211,98505,98289
 3.0000e+000 99109 -6.1563e+001 -1.6215e+002 -1.0454e+001 39072 99132,98867,98789
 3.0000e+000 99086 -6.6820e+001 -1.6643e+002 -1.2632e+001 39072 99132,98789,98763
 3.0000e+000 99063 -9.0915e+001 -2.6632e+002  2.7745e+001 39072 98867,98945,98919
 3.0000e+000 99040 -5.3599e+001 -1.7251e+002 -2.1927e+000 39072 98789,98867,98841
 3.0000e+000 99017 -1.2101e+002 -1.9594e+002  7.0636e+000 39072 98867,98919,98893
 3.0000e+000 98994 -8.9789e+001 -1.6075e+002  3.6344e+001 39072 98789,98841,98815
 3.0000e+000 98971 -9.4734e+001 -1.8578e+002 -1.5273e+001 39072 98737,98945,98763
 3.0000e+000 99158 -5.8168e+001 -1.6746e+002 -1.2295e+001 39072 98945,98867,99132
 3.0000e+000 99181 -6.0715e+001 -1.7096e+002 -1.3510e+001 39072 98945,99132,98763
 3.0000e+000 99510 -5.3172e+001 -1.6401e+002  8.5809e+000 38668 99311,99389,99363
 3.0000e+000 99487 -5.5015e+001 -1.6564e+002  7.2027e+000 38668 99285,99389,99311
 3.0000e+000 99464 -1.0688e+002 -2.0105e+002  2.8667e+001 38668 99285,99415,99389
 3.0000e+000 99441 -5.1303e+001 -1.6353e+002  8.4353e+000 38668 99311,99363,99337
 3.0000e+000 99758 -3.0028e+001 -2.4695e+002  4.2582e+001 38164 99781,99611,99585
 3.0000e+000 99735 -4.4677e+001 -2.5110e+002  3.9242e+001 38164 99781,99585,99533
 3.0000e+000 99712 -2.0357e+001 -2.0578e+002  1.6554e+001 38164 99611,99663,99637
 3.0000e+000 99689 -1.5884e+001 -2.5012e+002 -1.1968e+001 38164 99533,99585,99559
 3.0000e+000 99807 -2.2713e+001 -2.5346e+002  3.8797e+001 38164 99663,99611,99781
 3.0000e+000 99830 -3.1538e+001 -2.5304e+002  3.8230e+001 38164 99663,99781,99533
 3.0000e+000 100232 -8.4936e+001 -2.0701e+002  3.7876e+000 37702 99984,100114,100088
 3.0000e+000 100209 -6.8408e+001 -2.2218e+002  2.3870e+001 37702 99958,100114,99984
 3.0000e+000 100186 -1.2540e+002 -2.5697e+002 -1.5854e+001 37702 100010,100088,100036
 3.0000e+000 100163 -8.6349e+001 -2.0799e+002  1.0446e+000 37702 99984,100088,100010
 3.0000e+000 100140 -7.8773e+001 -1.8550e+002 -4.9642e+001 37702 100036,100088,100062
 3.0000e+000 100640 -1.6019e+002 -2.2726e+002  2.6713e+001 37262 100493,100545,100519
 3.0000e+000 100617 -1.3861e+002 -2.4982e+002  1.5510e+001 37262 100441,100545,100493
 3.0000e+000 100594 -7.8179e+001 -2.0011e+002 -2.5042e+001 37262 100415,100545,100441
 3.0000e+000 100571 -1.6561e+002 -2.8710e+002 -1.3926e+001 37262 100441,100493,100467
 3.0000e+000 101146 -1.0570e+002 -1.8192e+002  1.0195e+000 36872 100823,100979,100849
 3.0000e+000 101123 -1.0348e+002 -1.7027e+002 -1.5857e+001 36872 100823,101005,100979
 3.0000e+000 101100 -1.0995e+002 -2.5949e+002  3.5904e+001 36872 101169,100901,100849
 3.0000e+000 101077 -8.5572e+001 -2.0810e+002  2.0734e+001 36872 101169,100849,100979
 3.0000e+000 101054 -5.5426e+001 -2.0926e+002 -7.4197e+000 36872 100927,100979,100953
 3.0000e+000 101031 -5.6724e+001 -2.9576e+002  5.0834e+001 36872 100849,100901,100875
 3.0000e+000 101195 -7.7683e+001 -2.7474e+002  3.9342e+000 36872 100927,100901,101169
 3.0000e+000 101218 -6.2873e+001 -2.4742e+002 -8.2251e+000 36872 100927,101169,100979
 3.0000e+000 101773 -1.3839e+002 -2.0746e+002  3.1973e+001 36418 101479,101609,101583
 3.0000e+000 101750 -1.3596e+002 -2.2532e+002  4.0174e+001 36418 101453,101609,101479
 3.0000e+000 101727 -8.9501e+001 -2.1692e+002 -6.4438e-001 36418 101796,101531,101479
 3.0000e+000 101704 -1.2574e+002 -2.3900e+002  1.2518e+001 36418 101796,101479,101583
 3.0000e+000 101681 -7.6600e+001 -1.8418e+002 -5.3175e+000 36418 101479,101531,101505
 3.0000e+000 101658 -7.5429e+000 -2.1158e+002 -7.7530e+000 36418 101401,101609,101453
 3.0000e+000 101635 -4.2635e+001 -2.5968e+002 -2.6857e+001 36418 101401,101453,101427
 3.0000e+000 101822 -9.9287e+001 -2.0099e+002 -3.5682e+001 36418 101557,101531,101796
 3.0000e+000 101845 -1.4437e+002 -2.1409e+002 -2.5027e+001 36418 101557,101796,101583
 3.0000e+000 102174  4.3637e+001 -1.0012e+002 -4.2022e+001 35914 101949,102053,101975
 3.0000e+000 102151 -7.4805e+001 -1.3784e+002 -1.4095e+001 35914 101949,102079,102053
 3.0000e+000 102128 -5.2891e+001 -1.4636e+002 -7.5043e+000 35914 101975,102053,102027
 3.0000e+000 102105  4.9687e+000 -9.4819e+001 -3.7314e+001 35914 101975,102027,102001
 3.0000e+000 102631 -4.0223e+001 -2.1195e+002  6.0906e+000 35574 102383,102513,102487
 3.0000e+000 102608 -2.8575e+001 -2.2109e+002  4.9225e+000 35574 102357,102513,102383
 3.0000e+000 102585 -5.3260e+001 -2.1357e+002  9.5872e+000 35574 102409,102487,102435
 3.0000e+000 102562 -7.0206e+001 -2.2370e+002  5.3058e+000 35574 102383,102487,102409
 3.0000e+000 102539 -7.3632e+001 -2.2401e+002 -1.2242e+001 35574 102435,102487,102461
 3.0000e+000 103009 -1.1657e+002 -2.0720e+002 -1.8368e+001 35170 102761,102865,102787
 3.0000e+000 102986 -6.2979e+001 -1.7864e+002  1.4368e+001 35170 102761,102891,102865
 3.0000e+000 102963 -1.0235e+002 -2.0741e+002 -6.4703e+000 35170 102787,102865,102813
 3.0000e+000 102940 -5.2151e+001 -1.6981e+002  1.8182e+001 35170 102735,102891,102761
 3.0000e+000 102917 -1.0118e+002 -2.0546e+002 -8.7761e+000 35170 102813,102865,102839
 3.0000e+000 103257 -3.0376e+001 -1.6682e+002 -2.0667e+001 34659 103280,103058,103032
 3.0000e+000 103234 -2.7397e+001 -1.7247e+002 -2.8134e+001 34659 103280,103032,103162
 3.0000e+000 103211 -2.2147e+001 -1.5385e+002 -2.7176e+001 34659 103084,103162,103110
 3.0000e+000 103188 -5.0723e+001 -1.9719e+002 -7.1311e+000 34659 103110,103162,103136
 3.0000e+000 103306 -2.0871e+001 -1.5982e+002 -1.7611e+001 34659 103084,103058,103280
 3.0000e+000 103329 -2.2244e+001 -1.6821e+002 -2.6263e+001 34659 103084,103280,103162
 3.0000e+000 103837 -2.0114e+001 -2.2492e+002  7.2044e+000 34247 103860,103566,103540
 3.0000e+000 103814 -2.8447e+001 -2.2511e+002  7.1340e-001 34247 103932,103860,103540
 3.0000e+000 103791 -1.9270e+001 -2.5119e+002 -2.5999e+001 34247 103932,103540,103670
 3.0000e+000 103768 -2.4760e+001 -2.1067e+002  2.5880e+000 34247 103566,103618,103592
 3.0000e+000 103745 -8.9280e+001 -2.1238e+002 -3.4056e+001 34247 103540,103696,103670
 3.0000e+000 103722 -1.1975e+002 -2.3693e+002  3.3029e+001 34247 103514,103696,103540
 3.0000e+000 103886 -4.6232e+001 -2.2200e+002 -1.8216e+000 34247 103618,103566,103860
 3.0000e+000 103909 -5.2896e+001 -2.3966e+002  7.7771e+000 34247 103618,103860,103644
 3.0000e+000 103958 -5.2434e+001 -2.8792e+002 -2.4538e+000 34247 103644,103860,103932
 3.0000e+000 103981 -4.3061e+001 -3.1193e+002 -3.0472e+001 34247 103644,103932,103670
 3.0000e+000 104300 -1.1228e+002 -2.3484e+002 -1.1084e+001 33843 104052,104182,104156
 3.0000e+000 104277 -1.4041e+002 -2.1891e+002 -4.4108e+000 33843 104026,104182,104052
 3.0000e+000 104254 -1.1139e+002 -2.6795e+002  6.5937e+000 33843 104078,104156,104130
 3.0000e+000 104231 -1.3962e+002 -2.5764e+002 -9.5510e-001 33843 104052,104156,104078
 3.0000e+000 104208 -1.6737e+002 -2.8425e+002  9.2857e+000 33843 104078,104130,104104
 3.0000e+000 104499 -6.0165e+001 -2.4364e+002 -2.4884e+001 33282 104594,104522,104375
 3.0000e+000 104476 -3.5101e+001 -2.4627e+002  7.9033e+000 33282 104522,104323,104427
 3.0000e+000 104453 -4.5494e+001 -2.5590e+002 -2.2699e+001 33282 104594,104375,104349
 3.0000e+000 104548 -7.7367e+001 -2.0356e+002 -1.7517e+000 33282 104401,104375,104522
 3.0000e+000 104571 -2.6882e+001 -1.9575e+002  3.3708e+001 33282 104401,104522,104427
 3.0000e+000 104620 -4.4810e+001 -2.1956e+002 -1.7325e+001 33282 104323,104522,104594
 3.0000e+000 104643 -3.6325e+001 -2.3846e+002 -1.7731e+001 33282 104323,104594,104349
 3.0000e+000 104942 -1.1129e+002 -2.7764e+002  3.5557e+001 32728 104694,104772,104720
 3.0000e+000 104919 -8.8444e+001 -2.5395e+002  1.3328e+001 32728 104694,104824,104772
 3.0000e+000 104896 -1.4381e+002 -2.5578e+002  3.7882e+001 32728 104720,104772,104746
 3.0000e+000 104873 -6.7387e+001 -2.8791e+002  1.4980e+001 32728 104772,104824,104798
 3.0000e+000 104850 -7.2665e+001 -2.4744e+002  1.5398e+001 32728 104668,104824,104694
 3.0000e+000 105373 -8.7448e+001 -2.7729e+002 -1.1601e+001 32274 105396,105102,105076
 3.0000e+000 105350 -9.8090e+001 -3.0573e+002 -2.7367e+000 32274 105396,105076,105206
 3.0000e+000 105327 -1.2777e+002 -3.0960e+002  1.8346e+001 32274 105154,105206,105180
 3.0000e+000 105304 -3.2295e+001 -2.8942e+002 -2.6605e+001 32274 105076,105232,105206
 3.0000e+000 105281 -1.1365e+002 -2.5057e+002 -4.3197e+001 32274 105102,105154,105128
 3.0000e+000 105258 -1.5793e+002 -2.4001e+002 -5.3602e+001 32274 105050,105232,105076
 3.0000e+000 105422 -1.0534e+002 -2.4615e+002 -1.0682e+001 32274 105154,105102,105396
 3.0000e+000 105445 -1.1477e+002 -2.7479e+002 -3.7681e+000 32274 105154,105396,105206
 3.0000e+000 105644 -9.2129e+001 -2.5851e+002 -1.6282e+000 31620 105468,105546,105520
 3.0000e+000 105621 -7.5599e+001 -2.7253e+002 -9.7130e+000 31620 105468,105572,105546
 3.0000e+000 105598 -9.3802e+001 -2.8361e+002  1.6240e+001 31620 105468,105520,105494
 3.0000e+000 105794 -3.6628e+001 -2.4649e+002 -8.3062e+000 31158 105889,105817,105693
 3.0000e+000 105771 -5.5120e+001 -2.1603e+002 -1.5927e+001 31158 105817,105667,105745
 3.0000e+000 105843 -4.6535e+001 -3.0710e+002 -3.5494e+000 31158 105719,105693,105817
 3.0000e+000 105866 -3.2252e+001 -2.5944e+002 -1.4477e+001 31158 105719,105817,105745
 3.0000e+000 105915 -7.7159e+001 -2.6387e+002 -8.7737e+000 31158 105667,105817,105889
 3.0000e+000 106270 -1.2031e+002 -2.3712e+002  6.0927e-001 30818 106293,106071,106045
 3.0000e+000 106247 -1.3769e+002 -2.7515e+002 -3.1452e+001 30818 106293,106045,106175
 3.0000e+000 106224 -5.6874e+001 -2.2410e+002  1.2321e+001 30818 106123,106175,106149
 3.0000e+000 106201 -1.1728e+002 -2.3295e+002  1.6927e+001 30818 106071,106123,106097
 3.0000e+000 106319 -1.0791e+002 -2.2173e+002  1.0966e+001 30818 106123,106071,106293
 3.0000e+000 106342 -1.0175e+002 -2.4091e+002 -1.5925e+001 30818 106123,106293,106175
 3.0000e+000 106492 -9.9853e+001 -2.3391e+002  4.6660e+001 30414 106645,106391,106365
 3.0000e+000 106469 -4.7209e+001 -2.3257e+002  6.5877e+001 30414 106515,106365,106443
 3.0000e+000 106541 -6.8524e+001 -2.4109e+002  5.1327e+001 30414 106645,106365,106515
 3.0000e+000 106671 -5.5322e+001 -2.7110e+002  8.1540e+001 30414 106417,106391,106645
 3.0000e+000 106694  1.7162e+001 -2.5254e+002  7.1133e+001 30414 106417,106645,106515
 3.0000e+000 106942 -4.7885e+001 -3.2993e+002 -1.6719e+000 29910 106965,106795,106769
 3.0000e+000 106919 -4.1075e+001 -2.9587e+002  8.2492e+000 29910 106965,106769,106717
 3.0000e+000 106896 -4.3312e+001 -2.4744e+002 -3.4103e+001 29910 106795,106847,106821
 3.0000e+000 106873 -2.2785e+001 -2.5848e+002  1.6102e+001 29910 106717,106769,106743
 3.0000e+000 106991 -6.6969e+001 -2.9321e+002  3.1252e+000 29910 106847,106795,106965
 3.0000e+000 107014 -5.2549e+001 -2.4791e+002  1.2634e+001 29910 106847,106965,106717
 3.0000e+000 107213 -7.7039e+001 -2.6139e+002  9.2584e+000 29413 107236,107063,107037
 3.0000e+000 107190 -6.1145e+001 -3.1774e+002  2.9768e+001 29413 107236,107037,107141
 3.0000e+000 107167 -8.3304e+001 -1.8072e+002  4.0045e+001 29413 107063,107115,107089
 3.0000e+000 107262 -6.7520e+001 -2.2701e+002  8.0941e+000 29413 107115,107063,107236
 3.0000e+000 107285 -4.3113e+001 -2.6826e+002  3.1142e+001 29413 107115,107236,107141
 3.0000e+000 107486 -3.1044e+001 -2.3387e+002  2.1032e+001 29009 107336,107388,107362
 3.0000e+000 107463 -1.5623e+001 -2.2607e+002  6.2741e+000 29009 107310,107388,107336
 3.0000e+000 107440 -2.7123e+001 -2.1537e+002  8.7777e+000 29009 107310,107414,107388
 3.0000e+000 107736 -9.4881e+001 -2.6650e+002 -6.9959e+000 28491 107537,107615,107563
 3.0000e+000 107713 -8.5442e+001 -2.6190e+002 -4.2981e+000 28491 107537,107641,107615
 3.0000e+000 107690 -1.7407e+001 -2.6613e+002  1.6370e+001 28491 107563,107615,107589
 3.0000e+000 107667 -9.8184e+001 -2.6637e+002 -8.1147e+000 28491 107511,107641,107537
 3.0000e+000 108118 -6.7905e+001 -2.6153e+002  5.5759e+000 27980 108141,107922,107844
 3.0000e+000 108095 -5.3187e+001 -2.8996e+002  5.1787e+000 27980 108141,107844,108000
 3.0000e+000 108072 -6.7628e+001 -2.6318e+002 -7.4395e+000 27980 107844,107922,107870
 3.0000e+000 108049 -5.7743e+001 -2.3143e+002 -9.8654e+000 27980 107870,107922,107896
 3.0000e+000 108026 -9.5027e+001 -2.3511e+002  3.0655e+001 27980 107922,107974,107948
 3.0000e+000 108167 -5.8442e+001 -2.5854e+002  9.9511e+000 27980 107974,107922,108141
 3.0000e+000 108190 -1.7729e+001 -2.6158e+002  1.8107e+001 27980 107974,108141,108000
 3.0000e+000 108745 -3.3676e+001 -1.7455e+002 -3.5818e+000 27376 108840,108768,108477
 3.0000e+000 108722 -5.7229e+001 -2.1255e+002 -3.9962e+001 27376 108768,108373,108581
 3.0000e+000 108699 -5.2349e+001 -1.5221e+002  3.0999e+001 27376 108840,108477,108451
 3.0000e+000 108676 -1.2521e+002 -1.8387e+002 -8.1242e+000 27376 108373,108451,108399
 3.0000e+000 108653 -5.3929e+001 -2.1613e+002  2.5552e+001 27376 108503,108581,108529
 3.0000e+000 108630 -6.1242e+001 -2.1193e+002  2.7106e+001 27376 108529,108581,108555
 3.0000e+000 108607 -1.4225e+002 -1.9841e+002  1.5376e+001 27376 108399,108451,108425
 3.0000e+000 108794 -5.3044e+001 -2.3241e+002  1.2573e-001 27376 108503,108477,108768
 3.0000e+000 108817 -1.7121e+001 -2.1246e+002 -8.3429e+000 27376 108503,108768,108581
 3.0000e+000 108866 -1.0381e+002 -2.1482e+002 -1.9847e+001 27376 108373,108768,108840
 3.0000e+000 108889 -1.0030e+002 -1.8551e+002  1.6334e+001 27376 108373,108840,108451
 3.0000e+000 109186 -1.0002e+002 -2.7741e+002  2.8437e+001 26722 109209,108938,108912
 3.0000e+000 109163 -9.3466e+001 -2.5998e+002  2.1566e+001 26722 109281,109209,108912
 3.0000e+000 109140 -8.8234e+001 -2.5527e+002  1.9158e+001 26722 109281,108912,109042
 3.0000e+000 109117 -7.3899e+001 -2.8543e+002  1.8804e+001 26722 108938,108990,108964
 3.0000e+000 109094 -1.2877e+002 -2.2713e+002  8.3204e+000 26722 108912,109068,109042
 3.0000e+000 109235 -7.3423e+001 -2.6531e+002  2.5335e+001 26722 108990,108938,109209
 3.0000e+000 109258 -8.6913e+001 -2.8505e+002  1.9463e+001 26722 108990,109209,109016
 3.0000e+000 109307 -8.0236e+001 -2.6795e+002  1.0549e+001 26722 109016,109209,109281
 3.0000e+000 109330 -7.1755e+001 -2.5861e+002  6.8580e+000 26722 109016,109281,109042
 3.0000e+000 109732 -1.0148e+002 -2.1976e+002 -4.8440e+000 26310 109458,109588,109484
 3.0000e+000 109709 -9.4879e+001 -2.4603e+002 -2.5155e+001 26310 109458,109614,109588
 3.0000e+000 109686 -1.4979e+002 -2.5709e+002  3.7420e+001 26310 109510,109562,109536
 3.0000e+000 109663 -1.4801e+002 -2.4189e+002  1.4373e+001 26310 109484,109562,109510
 3.0000e+000 109640 -1.0626e+002 -2.2333e+002 -1.8907e+000 26310 109484,109588,109562
 3.0000e+000 110159 -6.7259e+001 -2.3080e+002 -6.5416e+000 25642 110182,109940,109914
 3.0000e+000 110136 -6.1900e+001 -2.6496e+002  3.0180e+001 25642 110182,109914,109888
 3.0000e+000 110113 -7.3271e+001 -2.8363e+002 -3.7771e+001 25642 109966,110018,109992
 3.0000e+000 110090 -8.6452e+001 -2.7557e+002  2.0709e+001 25642 110254,109966,109940
 3.0000e+000 110067 -1.2272e+002 -2.6081e+002  1.1923e+001 25642 109862,110018,109888
 3.0000e+000 110044 -1.2285e+002 -2.2269e+002  3.1074e+001 25642 109836,110018,109862
 3.0000e+000 110208 -8.7721e+001 -2.5057e+002  1.5414e+001 25642 110254,109940,110182
 3.0000e+000 110231 -9.8113e+001 -2.6797e+002  3.2917e+001 25642 110018,110182,109888
 3.0000e+000 110280 -7.8007e+001 -3.0601e+002  1.5597e+001 25642 110018,109966,110254
 3.0000e+000 110303 -8.4316e+001 -2.8721e+002  1.0926e+001 25642 110018,110254,110182
 3.0000e+000 110632 -1.1233e+002 -2.3077e+002 -1.2432e+001 25188 110407,110485,110433
 3.0000e+000 110609 -1.3460e+002 -2.3425e+002 -6.1125e+000 25188 110407,110537,110485
 3.0000e+000 110586 -1.3038e+002 -2.4093e+002 -4.4284e+001 25188 110433,110485,110459
 3.0000e+000 110563 -1.2398e+002 -2.4445e+002  2.7122e+001 25188 110485,110537,110511
 3.0000e+000 110831 -3.4500e+001 -2.3740e+002  5.5006e+000 24726 110854,110707,110655
 3.0000e+000 110808 -2.6225e+001 -2.5283e+002  2.0677e+001 24726 110854,110655,110759
 3.0000e+000 110785 -3.3310e+001 -2.3859e+002  4.3142e+000 24726 110655,110707,110681
 3.0000e+000 110880 -2.7857e+001 -2.2262e+002  7.2266e+000 24726 110733,110707,110854
 3.0000e+000 110903 -1.5997e+001 -2.3075e+002  2.3414e+001 24726 110733,110854,110759
 3.0000e+000 111234 -7.7270e+000 -1.5930e+002 -4.3981e+000 24222 111257,111087,111035
 3.0000e+000 111211  1.6940e+001 -1.4819e+002  1.5893e+001 24222 111257,111035,111009
 3.0000e+000 111188 -2.5572e+001 -8.3994e+001 -3.5778e+001 24222 111035,111087,111061
 3.0000e+000 111165 -2.4674e+001 -1.3209e+002  4.5976e+000 24222 111087,111139,111113
 3.0000e+000 111283 -2.3116e+001 -1.3397e+002  6.8705e+000 24222 111139,111087,111257
 3.0000e+000 111306 -1.2420e+001 -1.1610e+002  1.9921e+001 24222 111139,111257,111009
 3.0000e+000 111625 -4.0375e+001 -2.3697e+002 -1.3887e+001 23732 111648,111481,111455
 3.0000e+000 111602 -4.0391e+001 -2.3889e+002 -1.4087e+001 23732 111648,111455,111377
 3.0000e+000 111579  2.3383e+001 -1.2853e+002  2.4256e+001 23732 111377,111429,111403
 3.0000e+000 111556 -2.0854e+001 -2.4245e+002 -5.4542e+000 23732 111377,111455,111429
 3.0000e+000 111533 -3.3380e+001 -2.1039e+002 -6.0476e+000 23732 111351,111507,111377
 3.0000e+000 111674 -3.9800e+001 -2.3348e+002 -1.1651e+001 23732 111507,111481,111648
 3.0000e+000 111697 -4.1507e+001 -2.3768e+002 -1.2135e+001 23732 111507,111648,111377
 3.0000e+000 112156 -6.5441e+001 -2.6019e+002  1.2988e+001 23278 112179,111908,111882
 3.0000e+000 112133 -6.3659e+001 -2.4475e+002  2.7363e+000 23278 112179,111882,112012
 3.0000e+000 112110 -3.2518e+001 -2.8199e+002  3.5680e-001 23278 111908,111960,111934
 3.0000e+000 112087  1.5365e+001 -2.1521e+002 -2.6278e+001 23278 111882,112038,112012
 3.0000e+000 112064 -3.7072e+001 -2.2440e+002 -6.4310e+000 23278 111960,112012,111986
 3.0000e+000 112205 -6.0802e+001 -2.5202e+002  4.2186e-001 23278 111960,111908,112179
 3.0000e+000 112228 -5.2751e+001 -2.3382e+002 -1.0939e+001 23278 111960,112179,112012
 3.0000e+000 112685 -1.7080e+002 -3.7446e+002 -3.6835e+001 22938 112489,112567,112541
 3.0000e+000 112662 -1.4892e+002 -3.2582e+002 -3.2228e+001 22938 112437,112567,112489
 3.0000e+000 112639 -1.0020e+002 -2.8231e+002 -5.1195e+000 22938 112489,112541,112515
 3.0000e+000 112616 -1.6762e+002 -3.1304e+002 -2.8985e+001 22938 112411,112567,112437
 3.0000e+000 112593 -1.3100e+002 -4.0799e+002 -9.3370e+000 22938 112437,112489,112463
 3.0000e+000 113191 -1.3928e+001 -2.6329e+002 -3.1756e+001 22534 113214,112998,112946
 3.0000e+000 113168 -5.2608e+001 -2.3411e+002 -1.5556e+001 22534 113286,113214,112946
 3.0000e+000 113145 -4.0584e+001 -2.3434e+002 -1.2955e+001 22534 113286,112946,112920
 3.0000e+000 113122 -1.0952e+002 -2.1396e+002 -4.4720e+001 22534 113358,113024,112998
 3.0000e+000 113099 -6.8451e+001 -2.1884e+002 -3.5887e+000 22534 112868,113050,112894
 3.0000e+000 113076 -7.7783e+001 -3.8678e+002 -6.2429e+001 22534 112946,112998,112972
 3.0000e+000 113240 -8.1461e+001 -2.7157e+002 -4.7479e+001 22534 113358,112998,113214
 3.0000e+000 113263 -6.8733e+001 -2.4738e+002 -7.7570e+000 22534 113050,113214,112894
 3.0000e+000 113312 -3.6570e+001 -2.3301e+002 -1.2204e+001 22534 112894,113214,113286
 3.0000e+000 113335 -2.3538e+001 -2.3352e+002 -1.1888e+001 22534 112894,113286,112920
 3.0000e+000 113384 -7.8403e+001 -1.6073e+002 -3.1805e+001 22534 113050,113024,113358
 3.0000e+000 113407 -3.8152e+001 -2.0859e+002 -2.8231e+001 22534 113050,113358,113214
 3.0000e+000 113785 -1.2356e+002 -3.1685e+002  5.9713e+000 21978 113808,113615,113511
 3.0000e+000 113762 -1.0086e+002 -3.2194e+002  2.1367e+001 21978 113808,113511,113667
 3.0000e+000 113739 -7.6325e+001 -2.7103e+002 -1.3360e+001 21978 113511,113615,113537
 3.0000e+000 113716  2.8736e+001 -2.4029e+002 -2.5482e+001 21978 113537,113615,113589
 3.0000e+000 113693 -3.3066e+001 -3.4552e+002  4.5655e+000 21978 113537,113589,113563
 3.0000e+000 113834 -1.2689e+002 -3.1545e+002  3.4282e+001 21978 113641,113615,113808
 3.0000e+000 113857 -6.7287e+001 -2.9272e+002  5.2575e+001 21978 113641,113808,113667
 3.0000e+000 114284 -9.6345e+001 -2.6484e+002  8.8858e+000 21517 114013,114117,114039
 3.0000e+000 114261 -1.0361e+002 -2.6249e+002  2.2066e+001 21517 113961,114117,114013
 3.0000e+000 114238 -1.0005e+002 -2.7064e+002  2.2024e+001 21517 113961,114013,113987
 3.0000e+000 114215 -1.5176e+002 -2.9210e+002 -1.8271e+001 21517 114039,114117,114091
 3.0000e+000 114192 -1.0859e+002 -2.2705e+002  2.7649e+001 21517 113961,114143,114117
 3.0000e+000 114169  9.9071e+000 -2.3213e+002 -1.6201e+001 21517 114039,114091,114065
 3.0000e+000 114581 -5.5225e+001 -3.1725e+002  3.8575e+000 21027 114359,114463,114437
 3.0000e+000 114558 -3.0625e+001 -2.8766e+002  3.7840e+001 21027 114333,114463,114359
 3.0000e+000 114535 -2.4716e+001 -2.9060e+002 -7.6273e+000 21027 114359,114437,114385
 3.0000e+000 114512 -2.0094e+001 -2.8528e+002  3.1295e+001 21027 114307,114463,114333
 3.0000e+000 114489  4.0545e+001 -2.7084e+002 -1.3293e+001 21027 114385,114437,114411
 3.0000e+000 114912 -1.2291e+002 -2.6910e+002  3.7467e+000 20623 114713,114791,114765
 3.0000e+000 114889 -8.6222e+001 -2.5406e+002 -1.9332e+001 20623 114687,114791,114713
 3.0000e+000 114866 -5.9631e+001 -2.8619e+002 -2.1362e+001 20623 114687,114817,114791
 3.0000e+000 114843 -1.7814e+002 -3.2500e+002  2.7252e+001 20623 114713,114765,114739
 3.0000e+000 115290 -4.5304e+001 -2.4084e+002  9.3898e+000 20375 115313,115146,115094
 3.0000e+000 115267 -5.3115e+001 -2.4261e+002  1.3292e+001 20375 115313,115094,115042
 3.0000e+000 115244 -5.2419e+001 -2.2096e+002  3.4876e+000 20375 115385,115016,115172
 3.0000e+000 115221  4.1308e+001 -2.1042e+002  1.3830e+001 20375 115042,115094,115068
 3.0000e+000 115198 -6.1009e+001 -2.8061e+002  1.0855e+001 20375 115094,115146,115120
 3.0000e+000 115339 -7.3882e+001 -2.7714e+002 -9.6292e+000 20375 115172,115146,115313
 3.0000e+000 115362 -4.8402e+001 -2.3025e+002  1.4033e+000 20375 115385,115172,115313
 3.0000e+000 115411 -4.6963e+001 -2.2822e+002  1.2832e+001 20375 115042,115016,115385
 3.0000e+000 115434 -4.8538e+001 -2.4332e+002  1.2174e+001 20375 115042,115385,115313
 3.0000e+000 115891 -1.2251e+002 -2.4358e+002  2.9598e+001 19971 115617,115747,115643
 3.0000e+000 115868 -1.0544e+002 -2.0234e+002  2.8620e+001 19971 115617,115773,115747
 3.0000e+000 115845 -7.8583e+001 -3.7002e+002  5.3213e+000 19971 115643,115721,115695
 3.0000e+000 115822 -2.0606e+000 -1.8413e+002 -1.6134e+000 19971 115643,115747,115721
 3.0000e+000 115799 -6.6581e+001 -4.5117e+002 -3.4182e+001 19971 115643,115695,115669
 3.0000e+000 115992 -1.8536e+002 -4.7768e+002 -8.1456e+001 19659 115914,115966,115940
 3.0000e+000 116142 -2.4169e+001 -1.0166e+002  2.4485e+000 18997 116041,116093,116067
 3.0000e+000 116119 -5.3665e+001 -1.7752e+002  1.0599e+001 18997 116015,116093,116041
 3.0000e+000 116343 -4.7457e+001 -2.7918e+002 -8.2216e+000 18707 116193,116245,116219
 3.0000e+000 116320 -1.0717e+002 -3.0425e+002 -1.1981e+001 18707 116193,116271,116245
 3.0000e+000 116297 -9.7016e+001 -2.7185e+002 -1.9358e+001 18707 116167,116271,116193
 3.0000e+000 116747 -4.3962e+001 -2.5233e+002 -4.3615e+000 18301 116525,116629,116551
 3.0000e+000 116724 -4.0584e+001 -2.2025e+002  1.5073e+000 18301 116473,116629,116525
 3.0000e+000 116701 -3.4432e+001 -2.2050e+002 -1.5740e+001 18301 116473,116525,116499
 3.0000e+000 116678 -2.7121e+001 -2.6412e+002 -4.4587e+000 18301 116551,116603,116577
 3.0000e+000 116655 -5.3656e+001 -2.7521e+002 -1.0241e+001 18301 116551,116629,116603
 3.0000e+000 117147 -1.3141e+002 -3.0014e+002 -9.5197e-001 17747 116899,117029,116925
 3.0000e+000 117124 -7.1700e+001 -2.2075e+002  2.9711e+001 17747 116873,117029,116899
 3.0000e+000 117101 -1.3024e+002 -2.9864e+002 -4.2786e-001 17747 116925,117029,116951
 3.0000e+000 117078 -1.1425e+002 -2.5900e+002 -6.0726e-001 17747 116951,117029,117003
 3.0000e+000 117055 -1.5250e+002 -3.3701e+002 -2.1323e+001 17747 116951,117003,116977
 3.0000e+000 117368  1.3474e+001 -2.8072e+002  6.4457e+000 17293 117244,117296,117270
 3.0000e+000 117345 -2.3041e+001 -2.9091e+002 -3.7310e+000 17293 117192,117296,117244
 3.0000e+000 117322 -5.2212e+001 -2.7321e+002 -3.0979e+000 17293 117192,117244,117218
 3.0000e+000 117699 -2.2459e+001 -2.2324e+002 -2.7108e+001 16896 117526,117604,117552
 3.0000e+000 117676 -1.4622e+002 -3.4412e+002  2.1837e+001 16896 117500,117604,117526
 3.0000e+000 117653 -1.5508e+002 -2.7197e+002 -1.3982e+001 16896 117552,117604,117578
 3.0000e+000 117630 -1.3387e+002 -4.4549e+002  3.7476e+001 16896 117474,117604,117500
 3.0000e+000 117849 -3.1777e+002 -6.1336e+002 -2.3361e+001 16534 117722,117774,117748
 3.0000e+000 117826 -2.5038e+002 -7.4549e+002 -1.0101e+002 16534 117722,117800,117774
 3.0000e+000 118070 -3.5071e+001 -2.7217e+002  2.6623e+001 16194 117946,117998,117972
 3.0000e+000 118047 -6.2128e+001 -3.1750e+002  1.5193e+001 16194 117894,117998,117946
 3.0000e+000 118024 -8.1087e+001 -2.9362e+002 -4.7577e+000 16194 117894,117946,117920
 3.0000e+000 118173 -2.8666e+001 -2.8675e+002  0.0000e+000 15968 118095,118147,118121
 3.0000e+000 118276 -8.5708e+001 -2.9271e+002  3.0912e+000 15433 118299,118198,118250
 3.0000e+000 118325 -8.8028e+001 -2.9812e+002  3.1450e+000 15433 118224,118198,118299
 3.0000e+000 118450 -1.4867e+002 -3.2871e+002  3.1971e+001 421 118372,118424,118398
 3.1000e+000 69891 -5.9636e+001 -3.7280e+002  1.3190e+001 68988 69447,69681,69629
 3.1000e+000 69868  2.7071e+001 -3.3610e+002  1.1471e+001 68988 69421,69681,69447
 3.1000e+000 69845  7.2718e+000 -1.8151e+002 -7.5457e-002 68988 69447,69629,69577
 3.1000e+000 69822 -1.0347e+002 -3.9003e+002 -4.5103e+001 68988 69447,69577,69473
 3.1000e+000 69799 -1.2103e+001 -4.4380e+002  7.1038e+001 68988 69629,69681,69655
 3.1000e+000 69776 -1.1049e+002 -2.3238e+002  4.2419e+000 68988 69577,69629,69603
 3.1000e+000 69753 -8.0524e+001 -3.4582e+002 -5.3753e+001 68988 69473,69577,69551
 3.1000e+000 69730 -1.2638e+002 -7.0434e+002 -7.1469e+001 68988 69473,69551,69525
 3.1000e+000 69707 -2.1405e+002 -4.6217e+002  7.2801e-001 68988 69473,69525,69499
 3.1000e+000 69992 -1.9318e+002 -3.9559e+002 -7.2465e+001 68676 69914,69966,69940
 3.1000e+000 70392 -1.3994e+002 -3.0023e+002  2.3444e+001 68478 70118,70248,70144
 3.1000e+000 70369  9.3475e+000 -3.0615e+002  6.5430e+001 68478 70118,70274,70248
 3.1000e+000 70346 -8.5411e+001 -2.2564e+002 -9.1509e-001 68478 70144,70222,70196
 3.1000e+000 70323 -7.1153e+001 -1.8900e+002 -8.7739e+000 68478 70144,70248,70222
 3.1000e+000 70300 -9.4007e+001 -2.4885e+002 -5.1595e+000 68478 70144,70196,70170
 3.1000e+000 70841  5.8726e+001 -1.9865e+002 -5.7357e+001 68280 70570,70622,70596
 3.1000e+000 70818 -9.8170e+001 -2.2722e+002 -1.3322e+001 68280 70544,70622,70570
 3.1000e+000 70795 -7.1169e+001 -1.6713e+002 -7.5725e+000 68280 70544,70674,70622
 3.1000e+000 70772 -6.1980e+001 -1.4822e+002  3.3657e+000 68280 70622,70674,70648
 3.1000e+000 70749 -1.0248e+002 -2.5450e+002  1.9549e+001 68280 70518,70674,70544
 3.1000e+000 70726  9.5120e+001 -2.6617e+002  7.7344e+001 68280 70518,70700,70674
 3.1000e+000 70991 -1.2164e+001 -1.0884e+003  3.2456e+001 67968 70864,70916,70890
 3.1000e+000 70968 -2.8718e+002 -1.0820e+003  1.2424e+002 67968 70864,70942,70916
 3.1000e+000 71141 -5.0202e+002 -9.6906e+002 -4.4598e+001 67770 71040,71092,71066
 3.1000e+000 71118 -4.4200e+002 -1.1616e+003  5.0570e+001 67770 71014,71092,71040
 3.1000e+000 71651 -6.5128e+001 -2.0326e+002 -3.7305e+001 67366 71746,71674,71458
 3.1000e+000 71628 -3.9513e+001 -1.6466e+002 -4.0377e+001 67366 71674,71354,71510
 3.1000e+000 71605 -5.8093e+001 -2.2430e+002 -3.5173e+001 67366 71746,71458,71432
 3.1000e+000 71582 -9.5007e+001 -2.2952e+002  9.6409e+000 67366 71354,71432,71380
 3.1000e+000 71559 -1.0258e+002 -1.6160e+002 -2.3072e+001 67366 71380,71432,71406
 3.1000e+000 71536 -4.4534e+001 -6.2944e+001 -5.2344e+000 67366 71328,71510,71354
 3.1000e+000 71700 -7.4466e+001 -1.8467e+002 -1.6893e+001 67366 71484,71458,71674
 3.1000e+000 71723 -4.7670e+001 -1.7271e+002 -1.4444e+001 67366 71484,71674,71510
 3.1000e+000 71772 -5.6677e+001 -1.7831e+002 -3.2954e+001 67366 71354,71674,71746
 3.1000e+000 71795 -4.8904e+001 -1.9701e+002 -3.3356e+001 67366 71354,71746,71432
 3.1000e+000 71896 -2.1319e+002 -4.5675e+002  0.0000e+000 67146 71818,71870,71844
 3.1000e+000 71997 -2.4735e+002 -3.6454e+002  7.2812e+001 66948 71919,71971,71945
 3.1000e+000 72149 -9.9133e-001 -2.6278e+002 -3.2127e+001 66700 72172,72074,72048
 3.1000e+000 72126 -8.1160e+001 -2.9658e+002 -1.2812e+001 66700 72172,72048,72022
 3.1000e+000 72198 -1.3623e+002 -3.2593e+002  2.1162e+001 66700 72244,72172,72100
 3.1000e+000 72221 -1.2184e+002 -2.9802e+002 -1.9077e+001 66700 72100,72172,72022
 3.1000e+000 72270 -6.5784e+001 -1.7144e+002 -2.1838e+001 66700 72074,72172,72244
 3.1000e+000 72623 -8.7287e+001 -2.7011e+002  7.2761e+000 66502 72424,72502,72450
 3.1000e+000 72600 -7.1040e+001 -2.2517e+002  4.4071e+000 66502 72398,72502,72424
 3.1000e+000 72577 -4.9395e+001 -2.5722e+002 -5.1236e+000 66502 72398,72528,72502
 3.1000e+000 72554 -8.7484e+001 -2.3858e+002 -1.9918e+000 66502 72450,72502,72476
 3.1000e+000 72920 -1.5208e+002 -3.1714e+002  8.5024e+000 65941 72672,72776,72750
 3.1000e+000 72897 -1.5065e+002 -2.7225e+002  3.1237e+001 65941 72646,72776,72672
 3.1000e+000 72874 -1.3376e+002 -3.1217e+002  1.1143e+001 65941 72672,72750,72724
 3.1000e+000 72851 -1.3518e+002 -2.4619e+002  2.4234e+001 65941 72672,72724,72698
 3.1000e+000 72828 -1.1576e+002 -2.6909e+002  2.8122e+001 65941 72646,72802,72776
 3.1000e+000 73241 -2.3552e+001 -2.2587e+002  1.8907e+001 65743 73264,73071,73045
 3.1000e+000 73218 -8.6447e+001 -2.5416e+002  2.5481e+001 65743 73480,73264,73045
 3.1000e+000 73195 -7.2252e+001 -2.3007e+002 -3.3580e+000 65743 73336,72967,73097
 3.1000e+000 73172 -1.3365e+002 -2.0963e+002 -2.5247e+001 65743 73408,72993,72967
 3.1000e+000 73149 -6.1155e+001 -2.3055e+002 -3.5948e+000 65743 72967,73123,73097
 3.1000e+000 73290 -5.0333e+001 -2.3896e+002  4.9682e+000 65743 73097,73071,73264
 3.1000e+000 73313 -5.9529e+001 -2.1736e+002  1.0694e+001 65743 73336,73097,73264
 3.1000e+000 73362 -1.1333e+002 -2.3719e+002 -1.7033e+001 65743 73408,72967,73336
 3.1000e+000 73385 -5.1130e+001 -2.1576e+002  1.9588e-001 65743 73019,73336,73264
 3.1000e+000 73434 -9.9802e+001 -1.5859e+002  1.2345e+001 65743 73019,72993,73408
 3.1000e+000 73457 -5.2473e+001 -1.9501e+002  8.4516e+000 65743 73019,73408,73336
 3.1000e+000 73506 -3.2407e+001 -1.6008e+002  3.6296e+000 65743 73019,73264,73480
 3.1000e+000 73989 -5.6814e+000 -1.7842e+002  2.2372e+001 65453 73793,73845,73819
 3.1000e+000 73966 -9.3001e+001 -2.0139e+002  2.5823e+001 65453 73741,73845,73793
 3.1000e+000 73943 -2.0503e+001 -1.6179e+002  1.0586e+001 65453 73715,73845,73741
 3.1000e+000 73920 -7.2283e+001 -2.1555e+002  4.3053e+001 65453 73741,73793,73767
 3.1000e+000 73897  8.4311e+000 -9.7276e+001  3.0748e+000 65453 73715,73871,73845
 3.1000e+000 74357 -5.3035e+001 -2.3832e+002 -6.9334e+001 65141 74380,74138,74086
 3.1000e+000 74334 -1.0410e+002 -3.2501e+002 -4.7422e+001 65141 74380,74086,74060
 3.1000e+000 74311 -1.1672e+002 -3.1483e+002 -1.2428e+001 65141 74138,74190,74164
 3.1000e+000 74288 -8.6646e+001 -3.5349e+002 -1.4703e+001 65141 74060,74216,74190
 3.1000e+000 74265 -9.3276e+001 -3.7478e+002  5.3758e+000 65141 74034,74216,74060
 3.1000e+000 74242 -6.7817e+001 -1.8092e+002 -4.3227e+001 65141 74086,74138,74112
 3.1000e+000 74406 -8.3658e+001 -3.1493e+002 -2.7567e+001 65141 74190,74138,74380
 3.1000e+000 74429 -9.9644e+001 -3.4503e+002 -1.3429e+001 65141 74190,74380,74060
 3.1000e+000 74937 -1.1524e+002 -2.3788e+002 -6.4034e+001 64737 74614,74666,74640
 3.1000e+000 74914 -1.4359e+002 -2.9732e+002 -4.7238e+001 64737 74614,74796,74666
 3.1000e+000 74891 -1.0188e+002 -2.0450e+002 -8.5103e+000 64737 74960,74718,74666
 3.1000e+000 74868 -8.7497e+001 -2.2573e+002 -2.9019e+001 64737 74960,74666,74770
 3.1000e+000 74845 -9.0227e+001 -1.7853e+002 -3.0812e+001 64737 74666,74796,74770
 3.1000e+000 74822 -1.0019e+002 -2.2242e+002  2.7013e+000 64737 74666,74718,74692
 3.1000e+000 74986 -1.1056e+002 -2.2640e+002 -7.7170e+000 64737 74744,74718,74960
 3.1000e+000 75009 -1.0145e+002 -2.5837e+002 -2.8669e+001 64737 74744,74960,74770
 3.1000e+000 75306 -3.7770e+001 -2.0993e+002  3.0733e+001 64133 75329,75110,75084
 3.1000e+000 75283 -6.1406e+001 -2.4333e+002  1.2862e+001 64133 75401,75329,75084
 3.1000e+000 75260 -5.9964e+001 -2.5072e+002  1.4657e+001 64133 75401,75084,75058
 3.1000e+000 75237 -5.2819e+001 -2.7969e+002  2.8399e+001 64133 75473,75136,75110
 3.1000e+000 75214 -6.7820e+001 -2.2023e+002  4.1553e+000 64133 75032,75188,75162
 3.1000e+000 75355 -6.0225e+001 -2.6414e+002  2.2878e+001 64133 75473,75110,75329
 3.1000e+000 75378 -5.0361e+001 -2.3018e+002  3.8695e+000 64133 75162,75329,75032
 3.1000e+000 75427 -4.7799e+001 -2.2474e+002  5.5195e+000 64133 75032,75329,75401
 3.1000e+000 75450 -1.0249e+002 -2.7803e+002  3.3509e+001 64133 75545,75401,75058
 3.1000e+000 75499 -5.4808e+001 -2.5965e+002  6.3342e+000 64133 75162,75136,75473
 3.1000e+000 75522 -5.7279e+001 -2.2896e+002  6.8926e+000 64133 75162,75473,75329
 3.1000e+000 75571 -4.6087e+001 -1.5471e+002  1.1810e+001 64133 75032,75401,75545
 3.1000e+000 75851 -8.2871e+001 -2.2263e+002  2.6437e+000 63843 75874,75753,75727
 3.1000e+000 75828 -7.1845e+001 -2.2545e+002 -1.5024e+001 63843 75946,75874,75727
 3.1000e+000 75805 -8.3576e+001 -2.4343e+002 -6.9754e+000 63843 76018,75946,75727
 3.1000e+000 75900 -5.9742e+001 -2.1281e+002 -5.9698e+000 63843 75779,75753,75874
 3.1000e+000 75923 -6.6046e+001 -1.8255e+002 -2.7419e+001 63843 75779,75874,75675
 3.1000e+000 75972 -8.3180e+001 -2.0864e+002 -1.1334e+001 63843 75675,75874,75946
 3.1000e+000 75995 -7.4302e+001 -2.2123e+002 -1.9032e+001 63843 75675,75946,75701
 3.1000e+000 76044 -8.3378e+001 -2.3077e+002 -2.4071e+001 63843 75701,75946,76018
 3.1000e+000 76454  2.3572e+001 -3.7246e+001 -3.0627e+001 63439 76477,76255,76229
 3.1000e+000 76431 -1.6650e+001 -1.0753e+002 -5.9254e+000 63439 76477,76229,76359
 3.1000e+000 76408 -3.0407e+001 -8.4227e+001  4.6706e+001 63439 76307,76359,76333
 3.1000e+000 76385 -9.4650e+000 -1.1612e+002  4.0378e+000 63439 76255,76307,76281
 3.1000e+000 76503 -1.5019e+001 -9.1680e+001  1.1664e+001 63439 76307,76255,76477
 3.1000e+000 76526 -1.4964e+001 -1.1990e+002  2.9181e+001 63439 76307,76477,76359
 3.1000e+000 76926 -4.7040e+001 -1.7316e+002 -4.4050e+000 63049 76704,76782,76756
 3.1000e+000 76903 -7.2742e+001 -1.8007e+002 -1.9834e+001 63049 76704,76808,76782
 3.1000e+000 76880 -5.0022e+001 -2.0468e+002  2.5739e+000 63049 76704,76756,76730
 3.1000e+000 76857 -4.5518e+001 -1.1207e+002  6.4236e+000 63049 76678,76808,76704
 3.1000e+000 76834 -2.1310e+001 -2.8395e+001 -2.5547e+001 63049 76652,76808,76678
 3.1000e+000 77076 -1.6083e+001 -2.6229e+002 -1.2593e+000 62737 76975,77027,77001
 3.1000e+000 77053 -1.5250e+001 -2.9436e+002 -1.8255e+001 62737 76949,77027,76975
 3.1000e+000 77324 -1.1758e+002 -2.6441e+002 -3.3105e+000 62277 77347,77177,77125
 3.1000e+000 77301 -1.1050e+002 -2.5491e+002 -1.3946e+001 62277 77347,77125,77229
 3.1000e+000 77278 -1.0610e+002 -2.6280e+002 -1.9142e+001 62277 77099,77229,77125
 3.1000e+000 77255 -1.2268e+002 -3.2438e+002  2.9501e+000 62277 77125,77177,77151
 3.1000e+000 77373 -1.2291e+002 -2.9012e+002  1.1526e+001 62277 77203,77177,77347
 3.1000e+000 77396 -9.6769e+001 -2.6596e+002 -2.6673e+000 62277 77203,77347,77229
 3.1000e+000 77857 -5.2494e+001 -3.2623e+002  3.4943e+000 61758 77635,77739,77661
 3.1000e+000 77834 -8.6425e+001 -3.1688e+002 -1.4859e+001 61758 77583,77739,77635
 3.1000e+000 77811 -9.8634e+001 -3.9328e+002 -4.0422e+001 61758 77583,77635,77609
 3.1000e+000 77788 -8.0053e+001 -3.0611e+002  2.6522e+001 61758 77661,77713,77687
 3.1000e+000 77765 -8.2435e+001 -3.5914e+002  2.6982e+001 61758 77661,77739,77713
 3.1000e+000 78491 -8.7836e+001 -1.8532e+002  9.2588e+000 61418 78171,78301,78249
 3.1000e+000 78468 -7.1474e+001 -1.5529e+002  2.1110e+001 61418 78145,78301,78171
 3.1000e+000 78445 -6.3307e+001 -1.6332e+002 -1.0556e+001 61418 78171,78249,78223
 3.1000e+000 78422 -6.6798e+001 -1.5291e+002  8.4339e+000 61418 78145,78327,78301
 3.1000e+000 78399 -9.0571e+001 -2.0536e+002 -2.2780e+000 61418 78249,78301,78275
 3.1000e+000 78376 -3.9773e+001 -1.7167e+002 -1.4870e+001 61418 78171,78223,78197
 3.1000e+000 78353 -8.5179e+001 -1.9444e+002 -3.8745e+000 61418 78119,78327,78145
 3.1000e+000 78690 -9.7945e+001 -2.2989e+002 -4.1329e+000 61014 78713,78566,78540
 3.1000e+000 78667 -6.0466e+001 -2.3370e+002 -1.8856e+000 61014 78713,78540,78618
 3.1000e+000 78644 -1.0518e+002 -2.6431e+002 -2.7167e+001 61014 78514,78618,78540
 3.1000e+000 78739 -4.6904e+001 -2.2295e+002  2.3794e+001 61014 78592,78566,78713
 3.1000e+000 78762 -5.1191e+001 -2.4721e+002  1.7592e+000 61014 78785,78713,78618
 3.1000e+000 78811 -1.6384e+001 -2.3403e+002 -3.4423e+000 61014 78592,78713,78785
 3.1000e+000 79398 -3.6900e+001 -1.9433e+002 -2.2746e+001 60624 79101,79179,79153
 3.1000e+000 79375 -5.3430e+001 -2.2064e+002 -1.1576e+001 60624 79101,79231,79179
 3.1000e+000 79352 -4.4412e+001 -2.2224e+002 -1.9009e+001 60624 79075,79231,79101
 3.1000e+000 79329 -1.2222e+001 -2.7028e+002  2.9501e+001 60624 79075,79257,79231
 3.1000e+000 79306 -4.1431e+001 -1.6478e+002 -4.6982e+001 60624 79179,79231,79205
 3.1000e+000 79283 -2.5288e+001 -1.6940e+002 -9.6166e+000 60624 79101,79153,79127
 3.1000e+000 79776 -1.0274e+002 -2.8839e+002  2.8123e+001 60070 79528,79658,79606
 3.1000e+000 79753 -9.1500e+001 -2.2245e+002 -1.6812e+000 60070 79502,79658,79528
 3.1000e+000 79730 -1.3016e+002 -2.7861e+002  4.0308e+001 60070 79528,79606,79580
 3.1000e+000 79707 -2.3295e+001 -2.4104e+002  4.7975e+000 60070 79606,79658,79632
 3.1000e+000 79684 -1.0684e+001 -1.7121e+002 -4.3682e+001 60070 79528,79580,79554
 3.1000e+000 80105 -6.9718e+001 -2.2223e+002  2.6919e+001 59758 80128,79958,79906
 3.1000e+000 80082 -7.7289e+001 -2.0838e+002  1.9458e+001 59758 80128,79906,80010
 3.1000e+000 80059 -1.0255e+002 -2.2921e+002  7.9350e+001 59758 79906,79958,79932
 3.1000e+000 80036 -1.1665e+002 -2.4026e+002  5.4992e+000 59758 79880,80010,79906
 3.1000e+000 80154 -7.3971e+001 -2.3087e+002  2.5463e+001 59758 79984,79958,80128
 3.1000e+000 80177 -8.2990e+001 -2.2025e+002  1.7771e+001 59758 79984,80128,80010
 3.1000e+000 80376 -5.5192e+001 -2.2545e+002  4.3779e+000 59312 80226,80304,80252
 3.1000e+000 80353 -5.7783e+001 -2.2697e+002  3.3831e+000 59312 80200,80304,80226
 3.1000e+000 80330 -8.9395e+001 -2.0194e+002  6.0748e+001 59312 80252,80304,80278
 3.1000e+000 80805 -8.1246e+001 -1.8628e+002 -2.9226e+001 58908 80900,80828,80638
 3.1000e+000 80782 -6.9487e+001 -2.2015e+002 -4.4754e+001 58908 80828,80560,80508
 3.1000e+000 80759 -8.5203e+001 -1.7411e+002 -9.3026e+000 58908 80900,80638,80612
 3.1000e+000 80736 -3.5381e+001 -1.9041e+002  7.7730e+001 58908 80482,80664,80508
 3.1000e+000 80713 -5.6839e+001 -1.6162e+002 -2.9986e+000 58908 80560,80612,80586
 3.1000e+000 80690 -7.7784e+001 -5.2759e+002 -1.0273e+002 58908 80508,80560,80534
 3.1000e+000 80854 -3.7614e+001 -2.0144e+002  4.6697e-001 58908 80664,80638,80828
 3.1000e+000 80877 -6.4798e+001 -2.9159e+002  5.0433e+000 58908 80664,80828,80508
 3.1000e+000 80926 -6.8610e+001 -1.5025e+002 -3.1422e+001 58908 80560,80828,80900
 3.1000e+000 80949 -7.7518e+001 -1.5014e+002 -8.7169e+000 58908 80560,80900,80612
 3.1000e+000 81246 -2.7695e+001 -1.7273e+002 -4.4873e+000 58482 81076,81128,81102
 3.1000e+000 81223 -7.6060e+001 -2.9552e+002 -2.9521e+001 58482 80972,81128,81076
 3.1000e+000 81200 -4.7140e+001 -2.0067e+002 -3.1708e+001 58482 80972,81076,81050
 3.1000e+000 81177 -1.1132e+002 -3.1305e+002 -4.7475e+000 58482 80998,81050,81024
 3.1000e+000 81154 -5.6292e+001 -2.5235e+002 -2.8003e+001 58482 80972,81050,80998
 3.1000e+000 81754 -8.5924e+001 -1.8358e+002  1.5238e+001 57828 81457,81613,81483
 3.1000e+000 81731 -9.7953e+001 -2.0596e+002  7.6317e+000 57828 81431,81613,81457
 3.1000e+000 81708 -9.4033e+001 -2.0251e+002  1.6386e+001 57828 81483,81613,81509
 3.1000e+000 81685 -1.1346e+002 -2.3138e+002  2.4961e+001 57828 81509,81613,81587
 3.1000e+000 81662 -1.1941e+002 -3.3761e+002  4.8642e+001 57828 81509,81587,81535
 3.1000e+000 81639 -6.9959e+001 -3.2102e+002  3.1901e+001 57828 81535,81587,81561
 3.1000e+000 82002 -1.4112e+002 -3.4600e+002 -5.2662e+000 57374 82025,81855,81829
 3.1000e+000 81979 -1.4864e+002 -3.3016e+002  7.7848e+000 57374 82025,81829,81907
 3.1000e+000 81956 -1.4988e+002 -3.0607e+002  3.8591e+000 57374 81803,81907,81829
 3.1000e+000 81933 -1.0111e+002 -2.8755e+002  6.7394e+000 57374 81777,81907,81803
 3.1000e+000 82051 -1.3807e+002 -3.2711e+002 -7.2724e+000 57374 81881,81855,82025
 3.1000e+000 82074 -1.4402e+002 -3.1397e+002  1.0027e+001 57374 81881,82025,81907
 3.1000e+000 82356 -7.6851e+001 -1.8140e+002 -1.4498e+001 56913 82180,82232,82206
 3.1000e+000 82333 -6.0825e+001 -1.6219e+002  2.0314e+001 56913 82180,82284,82232
 3.1000e+000 82310 -2.3722e+001 -1.4480e+002  3.3132e+001 56913 82379,82232,82284
 3.1000e+000 82405  2.0615e+001 -1.3901e+002  7.1658e+000 56913 82258,82232,82379
 3.1000e+000 82764 -7.6934e+001 -1.2129e+002 -1.2374e+001 56523 82614,82666,82640
 3.1000e+000 82741 -6.5202e+001 -1.2179e+002 -1.8557e+001 56523 82614,82692,82666
 3.1000e+000 82718 -5.5189e+001 -1.3052e+002 -3.7992e+001 56523 82588,82692,82614
 3.1000e+000 83368 -1.7964e+001 -2.3505e+002 -8.9197e+000 55969 82973,83155,83129
 3.1000e+000 83345  2.6306e+000 -2.2715e+002 -1.6121e+001 55969 82973,83181,83155
 3.1000e+000 83322 -6.2607e+001 -2.0644e+002 -6.9874e+000 55969 82973,83129,82999
 3.1000e+000 83299 -1.0390e+002 -2.1372e+002  1.1504e+001 55969 83391,83025,82999
 3.1000e+000 83276 -8.2539e+001 -2.1849e+002  3.7399e+000 55969 83391,82999,83129
 3.1000e+000 83253 -1.4148e+001 -1.7190e+002  3.8282e+001 55969 83077,83129,83103
 3.1000e+000 83230 -9.7400e+001 -1.6183e+002 -8.4706e+000 55969 83025,83077,83051
 3.1000e+000 83207 -2.3276e+000 -2.1890e+002  2.1233e+001 55969 82947,83181,82973
 3.1000e+000 83417 -8.2922e+001 -2.0374e+002  1.4342e+001 55969 83077,83025,83391
 3.1000e+000 83440 -7.5287e+001 -2.1549e+002  4.6327e+000 55969 83077,83391,83129
 3.1000e+000 83946 -1.4753e+002 -3.0915e+002  5.6572e+001 55771 83969,83779,83727
 3.1000e+000 83923 -1.1637e+002 -2.5153e+002  2.6521e+001 55771 83969,83727,83623
 3.1000e+000 83900 -1.3856e+002 -1.4419e+002  1.5129e+001 55771 83623,83727,83649
 3.1000e+000 83877 -6.8699e+001 -5.1326e+002  4.4560e+001 55771 83727,83779,83753
 3.1000e+000 83854 -2.2789e+002 -2.5622e+002  9.5544e+001 55771 83675,83727,83701
 3.1000e+000 83831 -2.2046e+002 -2.4121e+002  1.0267e+002 55771 83649,83727,83675
 3.1000e+000 83995 -1.3079e+002 -3.1758e+002 -1.8887e+001 55771 83805,83779,83969
 3.1000e+000 84018 -6.1892e+001 -1.9787e+002 -5.5838e+001 55771 83805,83969,83623
 3.1000e+000 84168 -5.8795e+001 -1.6201e+002 -4.8783e+000 55367 84191,84067,84041
 3.1000e+000 84145 -5.7651e+001 -1.8275e+002 -3.1600e+000 55367 84191,84041,84119
 3.1000e+000 84217 -6.3036e+001 -1.4988e+002 -4.5020e+000 55367 84093,84067,84191
 3.1000e+000 84240 -5.5284e+001 -1.6191e+002  3.0740e+000 55367 84093,84191,84119
 3.1000e+000 84571 -3.3287e+001 -2.7793e+002 -2.8339e+001 54913 84398,84450,84424
 3.1000e+000 84548 -2.3776e+001 -2.5033e+002 -1.2166e+001 54913 84372,84450,84398
 3.1000e+000 84525 -6.2743e+001 -2.8172e+002  1.0848e+001 54913 84346,84450,84372
 3.1000e+000 84502 -1.7654e+001 -1.7845e+002 -2.2268e+001 54913 84346,84476,84450
 3.1000e+000 85126 -1.3354e+002 -3.0262e+002 -1.0476e+001 54402 84858,84936,84910
 3.1000e+000 85103 -1.0143e+002 -2.3651e+002 -2.8447e+001 54402 84806,84936,84858
 3.1000e+000 85080 -1.2108e+002 -2.1458e+002 -2.1728e+001 54402 84780,84936,84806
 3.1000e+000 85057 -1.0282e+002 -2.6144e+002 -1.3310e+001 54402 84806,84858,84832
 3.1000e+000 85034 -1.0640e+002 -2.0126e+002  1.0024e+001 54402 84780,84962,84936
 3.1000e+000 85011 -1.6318e+002 -1.7827e+002 -5.1060e+000 54402 84858,84910,84884
 3.1000e+000 84988 -1.0381e+002 -1.8980e+002  8.8085e+000 54402 84754,84962,84780
 3.1000e+000 85396 -9.7711e+001 -1.1959e+002 -9.3611e+000 53998 85197,85249,85223
 3.1000e+000 85373 -7.3813e+001 -1.5487e+002 -2.2299e+000 53998 85197,85275,85249
 3.1000e+000 85350 -9.3735e+001 -1.8193e+002 -1.1395e+001 53998 85171,85275,85197
 3.1000e+000 85327 -4.1756e+001 -1.6908e+002 -1.4183e+001 53998 85171,85301,85275
 3.1000e+000 85749 -5.7703e+001 -2.1991e+002 -3.9191e+000 53636 85524,85628,85550
 3.1000e+000 85726 -9.4178e+001 -2.4400e+002  8.6265e+000 53636 85524,85654,85628
 3.1000e+000 85703 -3.4904e+001 -2.3533e+002 -2.1299e+001 53636 85550,85602,85576
 3.1000e+000 85680 -5.9481e+001 -2.1918e+002 -9.7128e+000 53636 85550,85628,85602
 3.1000e+000 86127 -1.7635e+001 -2.1795e+002  3.4550e+001 52982 86150,85957,85879
 3.1000e+000 86104 -6.3839e+001 -2.5324e+002  1.9096e+001 52982 86150,85879,85853
 3.1000e+000 86081 -1.5691e+001 -3.1551e+002  6.3683e+001 52982 85957,86009,85983
 3.1000e+000 86058 -7.9532e+001 -2.3444e+002  3.0696e+001 52982 85879,85957,85931
 3.1000e+000 86035 -5.7230e+001 -2.0040e+002  1.8245e+001 52982 85879,85931,85905
 3.1000e+000 86176  1.2998e+001 -2.5683e+002  2.8461e+001 52982 86009,85957,86150
 3.1000e+000 86199 -1.4467e+001 -2.8151e+002  1.8021e+001 52982 86009,86150,85853
 3.1000e+000 86398 -4.4745e+001 -1.6345e+002  1.5077e+001 52542 86421,86248,86222
 3.1000e+000 86375 -8.0794e+001 -1.6737e+002 -1.7802e+000 52542 86421,86222,86300
 3.1000e+000 86352 -8.0509e+001 -1.8028e+002 -8.0590e+000 52542 86222,86326,86300
 3.1000e+000 86447 -7.8578e+000 -1.6439e+002  2.9934e+001 52542 86274,86248,86421
 3.1000e+000 86470 -4.2244e+001 -1.7409e+002  8.6486e+000 52542 86274,86421,86300
 3.1000e+000 86669 -8.0373e+001 -1.7382e+002 -2.9609e+001 52230 86692,86571,86545
 3.1000e+000 86646 -7.7187e+001 -1.6306e+002 -1.6784e+001 52230 86692,86545,86519
 3.1000e+000 86623 -1.0818e+002 -1.7186e+002 -2.7478e+001 52230 86493,86597,86519
 3.1000e+000 86718 -8.6525e+001 -1.7750e+002 -3.4846e+001 52230 86597,86571,86692
 3.1000e+000 86741 -9.2096e+001 -1.7047e+002 -2.2800e+001 52230 86597,86692,86519
 3.1000e+000 87153 -1.2195e+002 -1.6752e+002  8.7042e+000 51640 86980,87058,87032
 3.1000e+000 87130 -1.1211e+002 -1.7668e+002  5.2923e+000 51640 86928,87058,86980
 3.1000e+000 87107 -1.0960e+002 -2.4064e+002 -2.1404e+001 51640 86928,86980,86954
 3.1000e+000 87084 -8.6398e+001 -1.5258e+002 -1.0687e+000 51640 86980,87032,87006
 3.1000e+000 87659 -4.3097e+001 -1.6148e+002  1.3670e+001 51029 87682,87440,87362
 3.1000e+000 87636 -5.0171e+001 -1.7460e+002 -4.3704e+000 51029 87682,87362,87336
 3.1000e+000 87613 -7.0385e+001 -2.5146e+002 -4.5305e+000 51029 87440,87518,87466
 3.1000e+000 87590 -8.8367e+001 -1.6419e+002  1.7537e+001 51029 87362,87440,87414
 3.1000e+000 87567 -8.6305e+001 -1.5529e+002  3.7700e+001 51029 87362,87414,87388
 3.1000e+000 87544 -9.9055e+001 -2.1139e+002  7.9035e+000 51029 87466,87518,87492
 3.1000e+000 87708 -3.8053e+001 -1.8196e+002  4.1065e+000 51029 87518,87440,87682
 3.1000e+000 87731 -4.2202e+001 -2.0616e+002 -7.3308e+000 51029 87518,87682,87336
 3.1000e+000 87881 -1.0115e+002 -2.2169e+002  5.9294e+000 50739 87780,87832,87806
 3.1000e+000 87858 -1.1456e+002 -2.1980e+002 -9.9912e+000 50739 87754,87832,87780
 3.1000e+000 88468 -5.9386e+001 -1.4696e+002  7.2312e+000 50235 88171,88327,88197
 3.1000e+000 88445 -1.4122e+002 -1.4620e+002 -2.4346e+001 50235 88145,88327,88171
 3.1000e+000 88422  4.3306e+001 -7.3737e+001  3.7395e+001 50235 88275,88327,88301
 3.1000e+000 88399 -3.4294e+001 -1.0752e+002 -3.4969e+000 50235 88197,88327,88275
 3.1000e+000 88376  1.4826e+001 -1.3415e+002  4.7620e+000 50235 88197,88275,88223
 3.1000e+000 88353  2.6176e+000 -1.4802e+002  1.3117e+001 50235 88223,88275,88249
 3.1000e+000 88895 -9.0895e+001 -2.3140e+002  8.1521e+000 49873 88918,88728,88676
 3.1000e+000 88872 -7.7971e+001 -2.2236e+002 -2.3160e+000 49873 88918,88676,88624
 3.1000e+000 88849 -5.9907e+001 -1.9397e+002 -3.9019e+000 49873 88598,88754,88624
 3.1000e+000 88826 -4.7775e+001 -2.0852e+002 -5.7370e+000 49873 88624,88676,88650
 3.1000e+000 88803 -7.6709e+001 -2.8496e+002  9.9006e+000 49873 88676,88728,88702
 3.1000e+000 88780 -6.6165e+001 -1.7176e+002  9.1715e+000 49873 88572,88754,88598
 3.1000e+000 88944 -7.3684e+001 -2.2761e+002  2.1079e+000 49873 88754,88728,88918
 3.1000e+000 88967 -6.9361e+001 -2.2654e+002 -7.3865e+000 49873 88754,88918,88624
 3.1000e+000 89473 -1.4797e+002 -2.2835e+002 -2.8202e+001 49583 89176,89306,89202
 3.1000e+000 89450 -1.4575e+002 -2.2386e+002 -3.6804e+001 49583 89176,89332,89306
 3.1000e+000 89427 -8.6997e+001 -2.5168e+002  9.2812e+000 49583 89496,89228,89202
 3.1000e+000 89404 -8.5814e+001 -2.5713e+002  1.1409e+001 49583 89496,89202,89280
 3.1000e+000 89381 -1.7695e+002 -3.1938e+002 -5.5362e+001 49583 89202,89306,89280
 3.1000e+000 89358 -1.1654e+002 -2.2556e+002 -4.1983e+001 49583 89150,89332,89176
 3.1000e+000 89522 -8.0835e+001 -2.1615e+002  6.0416e+000 49583 89254,89228,89496
 3.1000e+000 89545 -9.6255e+001 -2.4714e+002  1.1328e+001 49583 89254,89496,89280
 3.1000e+000 89825  3.7940e+001 -2.2446e+002  1.0820e+001 49179 89701,89753,89727
 3.1000e+000 89802 -2.8952e+001 -1.9979e+002  1.6937e+001 49179 89675,89753,89701
 3.1000e+000 89779 -2.3146e+001 -1.8038e+002  8.5504e+000 49179 89848,89753,89675
 3.1000e+000 89874 -1.2458e+002 -2.0753e+002 -1.8129e+001 49179 89649,89753,89848
 3.1000e+000 90223 -5.5573e+001 -2.3181e+002 -1.6665e+001 48739 90024,90102,90076
 3.1000e+000 90200 -8.4409e+001 -2.3487e+002 -6.3282e+000 48739 90024,90128,90102
 3.1000e+000 90177 -4.3847e+001 -2.4659e+002 -9.6085e+000 48739 90024,90076,90050
 3.1000e+000 90154 -3.5685e+001 -2.2328e+002  1.9477e+001 48739 89998,90128,90024
 3.1000e+000 90603 -8.6713e+001 -2.1412e+002  3.8850e+001 48335 90381,90485,90459
 3.1000e+000 90580 -9.8946e+001 -2.2732e+002  3.2157e+001 48335 90355,90485,90381
 3.1000e+000 90557 -3.7183e+001 -8.0429e+001  2.5665e+001 48335 90381,90433,90407
 3.1000e+000 90534 -8.0207e+001 -2.1086e+002  3.9935e+001 48335 90381,90459,90433
 3.1000e+000 90511 -1.5200e+001 -1.6737e+002  6.8362e+001 48335 90329,90485,90355
 3.1000e+000 90753  1.4456e+001 -1.2074e+002  5.7910e+001 47824 90776,90652,90704
 3.1000e+000 90730 -1.5629e+001 -1.9093e+002  5.3349e+001 47824 90626,90704,90652
 3.1000e+000 90802 -3.4446e+001 -1.6174e+002  4.0363e+001 47824 90678,90652,90776
 3.1000e+000 91131 -6.6466e+001 -2.3700e+002  1.0294e+001 47427 91154,90958,90906
 3.1000e+000 91108 -1.2075e+002 -2.5920e+002 -4.5652e-001 47427 91154,90906,91036
 3.1000e+000 91085 -1.1788e+002 -2.0738e+002 -2.0252e+001 47427 90958,91010,90984
 3.1000e+000 91062 -6.8542e+001 -2.1917e+002  1.3629e+001 47427 90906,90958,90932
 3.1000e+000 91180 -9.8331e+001 -2.3561e+002 -2.5394e+001 47427 91010,90958,91154
 3.1000e+000 91203 -1.5072e+002 -2.5833e+002 -3.7083e+001 47427 91010,91154,91036
 3.1000e+000 91583 -1.4594e+002 -2.6779e+002 -1.5052e+001 46873 91309,91439,91335
 3.1000e+000 91560 -1.5305e+002 -2.7150e+002 -1.2420e+001 46873 91309,91465,91439
 3.1000e+000 91537 -2.1421e+002 -3.0919e+002 -7.0069e+001 46873 91361,91439,91413
 3.1000e+000 91514 -1.5880e+002 -2.7598e+002 -3.1846e+001 46873 91335,91439,91361
 3.1000e+000 91491 -6.8698e+001 -2.5436e+002 -5.7873e+001 46873 91361,91413,91387
 3.1000e+000 91880 -7.1653e+001 -2.3637e+002 -5.9966e+000 46526 91606,91710,91658
 3.1000e+000 91857 -7.4010e+001 -2.4835e+002  1.9636e+000 46526 91606,91762,91710
 3.1000e+000 91834 -4.0858e+001 -2.2841e+002 -2.9012e+001 46526 91606,91658,91632
 3.1000e+000 91811 -8.5675e+001 -2.1903e+002  4.3218e+000 46526 91658,91710,91684
 3.1000e+000 91788 -4.5882e+001 -1.6465e+002  8.2498e+000 46526 91710,91762,91736
 3.1000e+000 92211 -4.0869e+000 -1.1821e+002 -5.6828e+000 45700 91986,92064,92038
 3.1000e+000 92188 -6.7360e+001 -1.7114e+002  1.9502e+001 45700 91986,92116,92064
 3.1000e+000 92165  2.1100e+001 -9.0015e+001 -4.7626e+001 45700 91986,92038,92012
 3.1000e+000 92142 -7.0292e+001 -1.7159e+002  1.7205e+001 45700 92064,92116,92090
 3.1000e+000 92766 -1.2352e+002 -2.1744e+002  9.3955e+000 45452 92446,92602,92576
 3.1000e+000 92743 -1.9058e+002 -2.1711e+002 -3.0751e+001 45452 92420,92602,92446
 3.1000e+000 92720 -1.4215e+002 -2.2023e+002  3.3464e+001 45452 92789,92524,92498
 3.1000e+000 92697 -1.7060e+002 -2.1987e+002  2.4077e+001 45452 92789,92498,92446
 3.1000e+000 92674 -1.3387e+002 -2.4187e+002 -4.3517e+000 45452 92524,92576,92550
 3.1000e+000 92651 -2.2262e+002 -2.2319e+002  1.2910e+002 45452 92446,92498,92472
 3.1000e+000 92628 -1.2137e+002 -2.7802e+002 -7.7810e+001 45452 92394,92602,92420
 3.1000e+000 92815 -1.2269e+002 -2.2921e+002  2.6205e+001 45452 92576,92524,92789
 3.1000e+000 92838 -1.4358e+002 -2.2229e+002  2.0976e+001 45452 92576,92789,92446
 3.1000e+000 92939 -8.5692e+001 -2.7856e+002 -5.9508e+001 44998 92861,92913,92887
 3.1000e+000 93319 -2.5164e+000 -2.9038e+002  5.9903e+001 44601 93123,93201,93149
 3.1000e+000 93296 -7.3544e+001 -3.0140e+002 -3.3522e+001 44601 93045,93201,93123
 3.1000e+000 93273 -6.3694e+001 -1.6967e+002 -4.3535e+001 44601 93045,93123,93071
 3.1000e+000 93250 -6.2472e+001 -1.5950e+002 -3.0176e+001 44601 93071,93123,93097
 3.1000e+000 93227  8.1410e+000 -1.5497e+002  6.6194e+001 44601 93149,93201,93175
 3.1000e+000 93697 -5.3071e+001 -3.2145e+002  2.1635e+001 44026 93720,93553,93527
 3.1000e+000 93674 -1.0958e+002 -2.6828e+002  2.8422e+001 44026 93720,93527,93449
 3.1000e+000 93651 -1.2308e+002 -2.7880e+002 -5.2534e+000 44026 93449,93527,93501
 3.1000e+000 93628 -8.2449e+001 -2.1447e+002 -4.1694e+001 44026 93423,93579,93449
 3.1000e+000 93605 -2.3301e+001 -2.1647e+002  2.1375e+001 44026 93449,93501,93475
 3.1000e+000 93746 -1.1317e+001 -2.8346e+002  5.4535e+000 44026 93579,93553,93720
 3.1000e+000 93769 -7.1322e+001 -2.3180e+002  1.2820e+001 44026 93579,93720,93449
 3.1000e+000 94066 -5.7384e+001 -2.4554e+002 -3.6131e+001 43579 94089,93818,93792
 3.1000e+000 94043 -9.6974e+001 -2.7268e+002 -2.4067e+001 43579 94161,94089,93792
 3.1000e+000 94020 -9.5098e+001 -2.7402e+002 -1.2688e+001 43579 94161,93792,93948
 3.1000e+000 93997 -1.0260e+002 -2.1494e+002 -1.2540e+001 43579 94233,93870,93818
 3.1000e+000 93974 -5.6797e+001 -2.1908e+002  2.7166e+000 43579 93818,93870,93844
 3.1000e+000 94115 -9.9987e+001 -2.1687e+002 -2.6529e+001 43579 94233,93818,94089
 3.1000e+000 94138 -1.3608e+002 -2.4519e+002 -1.8178e+001 43579 93896,94089,93922
 3.1000e+000 94187 -8.9548e+001 -2.5561e+002 -2.3201e+001 43579 93922,94089,94161
 3.1000e+000 94210 -8.6668e+001 -2.5519e+002 -1.0774e+001 43579 93922,94161,93948
 3.1000e+000 94259 -1.1793e+002 -2.4152e+002 -6.0226e+000 43579 93896,93870,94233
 3.1000e+000 94282 -1.0926e+002 -2.3724e+002 -2.2147e+001 43579 93896,94233,94089
 3.1000e+000 94481 -8.2184e+001 -2.5119e+002 -2.0678e+000 43239 94305,94383,94357
 3.1000e+000 94458 -6.8443e+001 -2.2836e+002  2.8826e+001 43239 94305,94409,94383
 3.1000e+000 94435 -6.0612e+001 -2.6563e+002 -7.9549e+000 43239 94305,94357,94331
 3.1000e+000 94633 -5.4590e+001 -1.7337e+002  3.8452e+001 42827 94656,94532,94506
 3.1000e+000 94610 -6.1132e+001 -1.8477e+002  5.6862e+001 42827 94728,94656,94506
 3.1000e+000 94682 -1.1997e+001 -1.8655e+002  4.6806e+001 42827 94558,94532,94656
 3.1000e+000 94705  2.0767e+001 -2.0272e+002  3.0810e+001 42827 94988,94860,94656
 3.1000e+000 94754 -2.6359e+001 -1.7657e+002  1.7830e+001 42827 94988,94656,94728
 3.1000e+000 94886  8.3050e+001 -1.7805e+002  3.1195e+001 42827 94558,94656,94860
 3.1000e+000 95014  5.9802e+001 -1.8027e+002  2.1072e+001 42827 94584,94860,94988
 3.1000e+000 95037  2.1456e+001 -1.5257e+002  9.7981e+000 42827 94584,94988,94728
 3.1000e+000 95236 -7.6025e+001 -2.3944e+002  7.5764e+000 42537 95259,95112,95060
 3.1000e+000 95213 -3.7766e+001 -2.5970e+002  1.6080e+001 42537 95259,95060,95164
 3.1000e+000 95190 -6.0113e+001 -2.3179e+002 -1.2843e+001 42537 95060,95112,95086
 3.1000e+000 95285 -5.0389e+001 -2.3287e+002  2.4225e+001 42537 95138,95112,95259
 3.1000e+000 95308 -1.2204e+001 -2.4331e+002  3.8056e+001 42537 95138,95259,95164
 3.1000e+000 95816 -8.8733e+001 -2.5396e+002 -1.6519e+001 41969 95493,95597,95519
 3.1000e+000 95793 -1.4269e+002 -2.5358e+002  2.8072e+001 41969 95493,95649,95597
 3.1000e+000 95770 -1.2163e+002 -2.3168e+002  1.2091e+001 41969 95493,95675,95649
 3.1000e+000 95747 -1.3450e+002 -3.2431e+002  2.0057e+001 41969 95597,95649,95623
 3.1000e+000 95724 -1.5024e+002 -2.6174e+002 -1.4807e+001 41969 95519,95597,95571
 3.1000e+000 95701 -1.3506e+002 -2.4633e+002 -7.0423e+001 41969 95519,95571,95545
 3.1000e+000 96371 -1.1122e+002 -2.6625e+002  3.1834e+001 41579 96025,96207,96181
 3.1000e+000 96348  4.3481e+001 -1.9680e+002 -2.9252e+000 41579 95999,96207,96025
 3.1000e+000 96325 -1.2879e+002 -2.1324e+002 -2.4228e+001 41579 96129,96181,96155
 3.1000e+000 96302 -4.7685e+001 -1.8776e+002  1.1251e+000 41579 96025,96181,96129
 3.1000e+000 96279 -1.0234e+002 -2.7802e+002  3.4175e+001 41579 96025,96129,96051
 3.1000e+000 96256 -1.2563e+002 -2.6907e+002  4.0348e+001 41579 96051,96103,96077
 3.1000e+000 96233 -4.7955e+001 -2.0529e+002  2.8807e+000 41579 96051,96129,96103
 3.1000e+000 96877 -3.1629e+001 -1.6382e+002 -2.1369e+001 41182 96972,96900,96632
 3.1000e+000 96854 -2.7422e+001 -1.1931e+002 -1.7540e+001 41182 96900,96554,96736
 3.1000e+000 96831 -3.2072e+001 -1.6545e+002 -2.0817e+001 41182 96972,96632,96580
 3.1000e+000 96808 -4.6831e+001 -1.6726e+002  4.3485e+000 41182 96632,96684,96658
 3.1000e+000 96785 -4.3323e+001 -1.7010e+002  1.5631e+001 41182 96684,96736,96710
 3.1000e+000 96762 -9.9816e+001 -2.2274e+002  2.5678e+001 41182 96580,96632,96606
 3.1000e+000 96926 -2.0584e+001 -1.7766e+002 -1.7630e+001 41182 96684,96632,96900
 3.1000e+000 96949 -3.1178e+001 -1.5961e+002 -2.8845e+001 41182 96684,96900,96736
 3.1000e+000 96998 -3.1480e+001 -1.6238e+002 -1.5700e+001 41182 96554,96900,96972
 3.1000e+000 97021 -3.3815e+001 -1.6809e+002 -1.5136e+001 41182 96554,96972,96580
 3.1000e+000 97576 -1.3306e+002 -4.0615e+002 -7.1869e+001 40678 97230,97412,97282
 3.1000e+000 97553  2.1183e+001 -3.2542e+002  2.2414e+001 40678 97204,97412,97230
 3.1000e+000 97530 -7.4446e+001 -3.1046e+002 -5.0008e+001 40678 97282,97360,97308
 3.1000e+000 97507 -5.1555e+001 -2.9732e+002 -3.1747e+001 40678 97282,97412,97360
 3.1000e+000 97484 -4.4133e+001 -2.2394e+002 -3.9462e+001 40678 97308,97360,97334
 3.1000e+000 97461 -1.3767e+002 -3.6731e+002  6.0725e+000 40678 97360,97412,97386
 3.1000e+000 97438 -5.7205e+001 -2.7195e+002 -2.9341e+001 40678 97230,97282,97256
 3.1000e+000 97976 -1.2217e+002 -1.9914e+002 -4.3821e+000 40244 97702,97832,97754
 3.1000e+000 97953 -1.0227e+002 -1.8509e+002 -1.1146e+001 40244 97702,97858,97832
 3.1000e+000 97930 -1.2586e+002 -2.2373e+002 -5.2864e+001 40244 97702,97754,97728
 3.1000e+000 97907 -1.0294e+002 -2.2564e+002  2.4980e+001 40244 97780,97832,97806
 3.1000e+000 97884 -1.1079e+002 -1.9352e+002 -2.5399e+000 40244 97754,97832,97780
 3.1000e+000 98482 -8.5394e+001 -2.1272e+002  2.4447e+001 39690 98505,98185,98159
 3.1000e+000 98459 -8.2009e+001 -2.1143e+002  2.6035e+001 39690 98505,98159,98289
 3.1000e+000 98436 -1.5033e+002 -2.9309e+002  9.3707e+001 39690 98159,98315,98289
 3.1000e+000 98413 -6.9082e+001 -1.9920e+002  3.1500e+001 39690 98211,98289,98263
 3.1000e+000 98390 -4.3072e+001 -1.2618e+002  1.8762e+001 39690 98211,98263,98237
 3.1000e+000 98367 -3.6869e+001 -1.8794e+002  4.6332e+001 39690 98159,98341,98315
 3.1000e+000 98531 -9.2275e+001 -2.1239e+002  2.1758e+001 39690 98211,98185,98505
 3.1000e+000 98554 -8.5809e+001 -2.0724e+002  2.4517e+001 39690 98211,98505,98289
 3.1000e+000 99109 -6.3520e+001 -1.7217e+002 -1.0147e+001 39072 99132,98867,98789
 3.1000e+000 99086 -6.6682e+001 -1.7569e+002 -1.2178e+001 39072 99132,98789,98763
 3.1000e+000 99063 -9.5699e+001 -2.8083e+002  3.0390e+001 39072 98867,98945,98919
 3.1000e+000 99040 -5.5873e+001 -1.8267e+002 -1.8227e+000 39072 98789,98867,98841
 3.1000e+000 99017 -1.2708e+002 -2.0676e+002  8.7708e+000 39072 98867,98919,98893
 3.1000e+000 98994 -9.4654e+001 -1.7600e+002  3.7571e+001 39072 98789,98841,98815
 3.1000e+000 98971 -9.8137e+001 -1.9599e+002 -1.5802e+001 39072 98737,98945,98763
 3.1000e+000 99158 -6.1094e+001 -1.7661e+002 -1.1483e+001 39072 98945,98867,99132
 3.1000e+000 99181 -6.2707e+001 -1.8015e+002 -1.2524e+001 39072 98945,99132,98763
 3.1000e+000 99510 -5.5855e+001 -1.7381e+002  1.0982e+001 38668 99311,99389,99363
 3.1000e+000 99487 -5.9096e+001 -1.7570e+002  1.0024e+001 38668 99285,99389,99311
 3.1000e+000 99464 -1.1461e+002 -2.1083e+002  3.2899e+001 38668 99285,99415,99389
 3.1000e+000 99441 -5.2899e+001 -1.8259e+002  1.5698e+001 38668 99311,99363,99337
 3.1000e+000 99758 -3.5635e+001 -2.5128e+002  4.2948e+001 38164 99781,99611,99585
 3.1000e+000 99735 -4.2752e+001 -2.6194e+002  3.9241e+001 38164 99781,99585,99533
 3.1000e+000 99712 -2.9484e+001 -2.1832e+002  2.3331e+001 38164 99611,99663,99637
 3.1000e+000 99689 -1.4493e+001 -2.6288e+002 -1.2355e+001 38164 99533,99585,99559
 3.1000e+000 99807 -3.3373e+001 -2.6230e+002  4.1472e+001 38164 99663,99611,99781
 3.1000e+000 99830 -3.4766e+001 -2.6710e+002  3.9766e+001 38164 99663,99781,99533
 3.1000e+000 100232 -8.8785e+001 -2.1611e+002  4.1336e+000 37702 99984,100114,100088
 3.1000e+000 100209 -7.1967e+001 -2.3241e+002  2.4824e+001 37702 99958,100114,99984
 3.1000e+000 100186 -1.3140e+002 -2.6895e+002 -1.6539e+001 37702 100010,100088,100036
 3.1000e+000 100163 -9.0380e+001 -2.1720e+002  1.2350e+000 37702 99984,100088,100010
 3.1000e+000 100140 -8.3677e+001 -1.9608e+002 -5.1328e+001 37702 100036,100088,100062
 3.1000e+000 100640 -1.5995e+002 -2.3935e+002  2.8555e+001 37262 100493,100545,100519
 3.1000e+000 100617 -1.4418e+002 -2.6471e+002  1.6214e+001 37262 100441,100545,100493
 3.1000e+000 100594 -8.5745e+001 -2.1219e+002 -2.9928e+001 37262 100415,100545,100441
 3.1000e+000 100571 -1.7082e+002 -3.0288e+002 -1.1463e+001 37262 100441,100493,100467
 3.1000e+000 101146 -1.0985e+002 -1.9068e+002  7.5676e-001 36872 100823,100979,100849
 3.1000e+000 101123 -1.0757e+002 -1.7871e+002 -1.6659e+001 36872 100823,101005,100979
 3.1000e+000 101100 -1.1532e+002 -2.7300e+002  3.7203e+001 36872 101169,100901,100849
 3.1000e+000 101077 -8.9793e+001 -2.1899e+002  2.1859e+001 36872 101169,100849,100979
 3.1000e+000 101054 -5.8414e+001 -2.2068e+002 -7.5220e+000 36872 100927,100979,100953
 3.1000e+000 101031 -6.1603e+001 -3.1175e+002  5.2127e+001 36872 100849,100901,100875
 3.1000e+000 101195 -8.2006e+001 -2.8925e+002  3.6367e+000 36872 100927,100901,101169
 3.1000e+000 101218 -6.6581e+001 -2.6051e+002 -8.5831e+000 36872 100927,101169,100979
 3.1000e+000 101773 -1.4626e+002 -2.1359e+002  3.4528e+001 36418 101479,101609,101583
 3.1000e+000 101750 -1.4464e+002 -2.3705e+002  4.3745e+001 36418 101453,101609,101479
 3.1000e+000 101727 -9.6073e+001 -2.2283e+002 -3.2642e+000 36418 101796,101531,101479
 3.1000e+000 101704 -1.3319e+002 -2.4750e+002  1.3646e+001 36418 101796,101479,101583
 3.1000e+000 101681 -8.4361e+001 -1.9525e+002 -7.6480e+000 36418 101479,101531,101505
 3.1000e+000 101658 -7.3173e+000 -2.2229e+002 -7.6120e+000 36418 101401,101609,101453
 3.1000e+000 101635 -4.5381e+001 -2.6894e+002 -2.6418e+001 36418 101401,101453,101427
 3.1000e+000 101822 -1.0523e+002 -2.0468e+002 -3.8723e+001 36418 101557,101531,101796
 3.1000e+000 101845 -1.4909e+002 -2.1527e+002 -2.3870e+001 36418 101557,101796,101583
 3.1000e+000 102174  4.5458e+001 -1.0377e+002 -4.2124e+001 35914 101949,102053,101975
 3.1000e+000 102151 -7.8409e+001 -1.4119e+002 -1.3396e+001 35914 101949,102079,102053
 3.1000e+000 102128 -5.5469e+001 -1.5187e+002 -7.8129e+000 35914 101975,102053,102027
 3.1000e+000 102105  4.3006e+000 -9.9172e+001 -3.8678e+001 35914 101975,102027,102001
 3.1000e+000 102631 -4.2246e+001 -2.2171e+002  6.2598e+000 35574 102383,102513,102487
 3.1000e+000 102608 -2.9844e+001 -2.3147e+002  5.0089e+000 35574 102357,102513,102383
 3.1000e+000 102585 -5.5516e+001 -2.2369e+002  9.8757e+000 35574 102409,102487,102435
 3.1000e+000 102562 -7.3427e+001 -2.3399e+002  5.5646e+000 35574 102383,102487,102409
 3.1000e+000 102539 -7.6354e+001 -2.3352e+002 -1.2885e+001 35574 102435,102487,102461
 3.1000e+000 103009 -1.2226e+002 -2.1733e+002 -1.9228e+001 35170 102761,102865,102787
 3.1000e+000 102986 -6.5882e+001 -1.8726e+002  1.5181e+001 35170 102761,102891,102865
 3.1000e+000 102963 -1.0751e+002 -2.1723e+002 -6.9606e+000 35170 102787,102865,102813
 3.1000e+000 102940 -5.5016e+001 -1.7799e+002  1.9133e+001 35170 102735,102891,102761
 3.1000e+000 102917 -1.0620e+002 -2.1491e+002 -9.1187e+000 35170 102813,102865,102839
 3.1000e+000 103257 -2.4729e+001 -1.7368e+002 -3.4918e+001 34659 103280,103058,103032
 3.1000e+000 103234 -3.5535e+001 -1.9051e+002 -2.8585e+001 34659 103280,103032,103162
 3.1000e+000 103211 -3.9790e+001 -1.8644e+002 -1.4251e+001 34659 103084,103162,103110
 3.1000e+000 103188 -6.0685e+001 -2.1540e+002  2.2955e+000 34659 103110,103162,103136
 3.1000e+000 103306 -3.9162e+001 -1.5291e+002 -2.7212e+001 34659 103084,103058,103280
 3.1000e+000 103329 -4.9494e+001 -1.7318e+002 -2.0355e+001 34659 103084,103280,103162
 3.1000e+000 103837 -2.1038e+001 -2.3559e+002  7.6202e+000 34247 103860,103566,103540
 3.1000e+000 103814 -2.9398e+001 -2.3564e+002  8.2380e-001 34247 103932,103860,103540
 3.1000e+000 103791 -1.9608e+001 -2.6312e+002 -2.7349e+001 34247 103932,103540,103670
 3.1000e+000 103768 -2.5879e+001 -2.2053e+002  2.6090e+000 34247 103566,103618,103592
 3.1000e+000 103745 -9.3348e+001 -2.2217e+002 -3.5835e+001 34247 103540,103696,103670
 3.1000e+000 103722 -1.2510e+002 -2.4728e+002  3.4652e+001 34247 103514,103696,103540
 3.1000e+000 103886 -4.8323e+001 -2.3221e+002 -1.7961e+000 34247 103618,103566,103860
 3.1000e+000 103909 -5.5615e+001 -2.5101e+002  8.4047e+000 34247 103618,103860,103644
 3.1000e+000 103958 -5.4777e+001 -3.0183e+002 -2.2913e+000 34247 103644,103860,103932
 3.1000e+000 103981 -4.4751e+001 -3.2712e+002 -3.1844e+001 34247 103644,103932,103670
 3.1000e+000 104300 -1.1785e+002 -2.4627e+002 -1.1464e+001 33843 104052,104182,104156
 3.1000e+000 104277 -1.4729e+002 -2.2989e+002 -4.6102e+000 33843 104026,104182,104052
 3.1000e+000 104254 -1.1707e+002 -2.8139e+002  6.8355e+000 33843 104078,104156,104130
 3.1000e+000 104231 -1.4610e+002 -2.7011e+002 -8.5807e-001 33843 104052,104156,104078
 3.1000e+000 104208 -1.7650e+002 -2.9902e+002  9.9050e+000 33843 104078,104130,104104
 3.1000e+000 104499 -6.3110e+001 -2.5569e+002 -2.6122e+001 33282 104594,104522,104375
 3.1000e+000 104476 -3.6436e+001 -2.5801e+002  8.2940e+000 33282 104522,104323,104427
 3.1000e+000 104453 -4.7684e+001 -2.6867e+002 -2.3785e+001 33282 104594,104375,104349
 3.1000e+000 104548 -8.1415e+001 -2.1333e+002 -1.6041e+000 33282 104401,104375,104522
 3.1000e+000 104571 -2.8033e+001 -2.0498e+002  3.5742e+001 33282 104401,104522,104427
 3.1000e+000 104620 -4.7043e+001 -2.3017e+002 -1.8166e+001 33282 104323,104522,104594
 3.1000e+000 104643 -3.8135e+001 -2.5017e+002 -1.8562e+001 33282 104323,104594,104349
 3.1000e+000 104942 -1.1634e+002 -2.9125e+002  3.4366e+001 32728 104694,104772,104720
 3.1000e+000 104919 -8.6843e+001 -2.6618e+002  1.3885e+001 32728 104694,104824,104772
 3.1000e+000 104896 -1.4880e+002 -2.6468e+002  3.8023e+001 32728 104720,104772,104746
 3.1000e+000 104873 -6.7372e+001 -2.9804e+002  1.5512e+001 32728 104772,104824,104798
 3.1000e+000 104850 -6.7910e+001 -2.5757e+002  1.6879e+001 32728 104668,104824,104694
 3.1000e+000 105373 -9.1882e+001 -2.9005e+002 -1.2606e+001 32274 105396,105102,105076
 3.1000e+000 105350 -1.0284e+002 -3.1906e+002 -3.5520e+000 32274 105396,105076,105206
 3.1000e+000 105327 -1.3338e+002 -3.2363e+002  1.9051e+001 32274 105154,105206,105180
 3.1000e+000 105304 -3.5037e+001 -3.0183e+002 -2.7232e+001 32274 105076,105232,105206
 3.1000e+000 105281 -1.1864e+002 -2.6274e+002 -4.5515e+001 32274 105102,105154,105128
 3.1000e+000 105258 -1.6584e+002 -2.5179e+002 -5.5529e+001 32274 105050,105232,105076
 3.1000e+000 105422 -1.1024e+002 -2.5826e+002 -1.1684e+001 32274 105154,105102,105396
 3.1000e+000 105445 -1.1995e+002 -2.8746e+002 -4.6170e+000 32274 105154,105396,105206
 3.1000e+000 105644 -9.6723e+001 -2.7103e+002 -1.5310e+000 31620 105468,105546,105520
 3.1000e+000 105621 -7.9055e+001 -2.8616e+002 -1.0169e+001 31620 105468,105572,105546
 3.1000e+000 105598 -9.8333e+001 -2.9700e+002  1.7206e+001 31620 105468,105520,105494
 3.1000e+000 105794 -3.8244e+001 -2.5865e+002 -8.9242e+000 31158 105889,105817,105693
 3.1000e+000 105771 -5.7894e+001 -2.2562e+002 -1.6641e+001 31158 105817,105667,105745
 3.1000e+000 105843 -4.8890e+001 -3.2253e+002 -4.0635e+000 31158 105719,105693,105817
 3.1000e+000 105866 -3.4653e+001 -2.7192e+002 -1.5434e+001 31158 105719,105817,105745
 3.1000e+000 105915 -8.0918e+001 -2.7694e+002 -9.4181e+000 31158 105667,105817,105889
 3.1000e+000 106270 -1.1290e+002 -2.5370e+002 -4.4322e+000 30818 106293,106071,106045
 3.1000e+000 106247 -1.3223e+002 -2.9745e+002 -1.8190e+001 30818 106293,106045,106175
 3.1000e+000 106224 -9.3261e+001 -2.3215e+002  1.4014e+001 30818 106123,106175,106149
 3.1000e+000 106201 -1.2261e+002 -2.5155e+002  2.0770e+001 30818 106071,106123,106097
 3.1000e+000 106319 -1.1625e+002 -2.3658e+002  1.1982e+001 30818 106123,106071,106293
 3.1000e+000 106342 -1.1958e+002 -2.5958e+002  3.7210e-001 30818 106123,106293,106175
 3.1000e+000 106492 -1.0466e+002 -2.4362e+002  4.8301e+001 30414 106645,106391,106365
 3.1000e+000 106469 -4.8793e+001 -2.4136e+002  6.9275e+001 30414 106515,106365,106443
 3.1000e+000 106541 -7.1957e+001 -2.5058e+002  5.2890e+001 30414 106645,106365,106515
 3.1000e+000 106671 -5.7763e+001 -2.8480e+002  8.5226e+001 30414 106417,106391,106645
 3.1000e+000 106694  1.9026e+001 -2.6385e+002  7.3681e+001 30414 106417,106645,106515
 3.1000e+000 106942 -5.0332e+001 -3.4581e+002 -1.7046e+000 29910 106965,106795,106769
 3.1000e+000 106919 -4.3142e+001 -3.1024e+002  8.6651e+000 29910 106965,106769,106717
 3.1000e+000 106896 -4.5540e+001 -2.5952e+002 -3.5780e+001 29910 106795,106847,106821
 3.1000e+000 106873 -2.3795e+001 -2.7053e+002  1.6781e+001 29910 106717,106769,106743
 3.1000e+000 106991 -7.0327e+001 -3.0744e+002  3.3281e+000 29910 106847,106795,106965
 3.1000e+000 107014 -5.5205e+001 -2.6015e+002  1.3276e+001 29910 106847,106965,106717
 3.1000e+000 107213 -6.9947e+001 -2.6594e+002  1.4100e+001 29413 107236,107063,107037
 3.1000e+000 107190 -5.5708e+001 -3.1648e+002  3.2501e+001 29413 107236,107037,107141
 3.1000e+000 107167 -8.2723e+001 -1.8979e+002  4.5056e+001 29413 107063,107115,107089
 3.1000e+000 107262 -6.1447e+001 -2.3511e+002  1.3017e+001 29413 107115,107063,107236
 3.1000e+000 107285 -3.9584e+001 -2.7214e+002  3.3698e+001 29413 107115,107236,107141
 3.1000e+000 107486 -3.2452e+001 -2.4373e+002  2.2033e+001 29009 107336,107388,107362
 3.1000e+000 107463 -1.6010e+001 -2.3550e+002  7.3847e+000 29009 107310,107388,107336
 3.1000e+000 107440 -2.8243e+001 -2.2314e+002  9.9505e+000 29009 107310,107414,107388
 3.1000e+000 107736 -9.9499e+001 -2.7898e+002 -7.6691e+000 28491 107537,107615,107563
 3.1000e+000 107713 -8.8958e+001 -2.7387e+002 -4.7807e+000 28491 107537,107641,107615
 3.1000e+000 107690 -1.8077e+001 -2.7840e+002  1.6902e+001 28491 107563,107615,107589
 3.1000e+000 107667 -1.0395e+002 -2.7859e+002 -9.1883e+000 28491 107511,107641,107537
 3.1000e+000 108118 -7.1307e+001 -2.7390e+002  5.7188e+000 27980 108141,107922,107844
 3.1000e+000 108095 -5.5890e+001 -3.0379e+002  5.3214e+000 27980 108141,107844,108000
 3.1000e+000 108072 -7.1101e+001 -2.7583e+002 -7.9740e+000 27980 107844,107922,107870
 3.1000e+000 108049 -6.0798e+001 -2.4229e+002 -1.0454e+001 27980 107870,107922,107896
 3.1000e+000 108026 -9.9551e+001 -2.4660e+002  3.1659e+001 27980 107922,107974,107948
 3.1000e+000 108167 -6.1430e+001 -2.7071e+002  1.0284e+001 27980 107974,107922,108141
 3.1000e+000 108190 -1.8761e+001 -2.7397e+002  1.8879e+001 27980 107974,108141,108000
 3.1000e+000 108745 -3.6011e+001 -1.8482e+002 -3.4896e+000 27376 108840,108768,108477
 3.1000e+000 108722 -6.0651e+001 -2.2445e+002 -4.1984e+001 27376 108768,108373,108581
 3.1000e+000 108699 -5.5656e+001 -1.6114e+002  3.2981e+001 27376 108840,108477,108451
 3.1000e+000 108676 -1.3173e+002 -1.9357e+002 -7.9489e+000 27376 108373,108451,108399
 3.1000e+000 108653 -5.8564e+001 -2.3056e+002  2.8110e+001 27376 108503,108581,108529
 3.1000e+000 108630 -6.3594e+001 -2.2190e+002  2.8481e+001 27376 108529,108581,108555
 3.1000e+000 108607 -1.4988e+002 -2.1031e+002  1.6022e+001 27376 108399,108451,108425
 3.1000e+000 108794 -5.6452e+001 -2.4638e+002  6.9070e-001 27376 108503,108477,108768
 3.1000e+000 108817 -1.8292e+001 -2.2483e+002 -8.4743e+000 27376 108503,108768,108581
 3.1000e+000 108866 -1.0993e+002 -2.2737e+002 -2.0714e+001 27376 108373,108768,108840
 3.1000e+000 108889 -1.0619e+002 -1.9639e+002  1.7469e+001 27376 108373,108840,108451
 3.1000e+000 109186 -9.9565e+001 -2.8846e+002  3.1551e+001 26722 109209,108938,108912
 3.1000e+000 109163 -9.2125e+001 -2.6913e+002  2.5183e+001 26722 109281,109209,108912
 3.1000e+000 109140 -8.7466e+001 -2.6301e+002  2.3126e+001 26722 109281,108912,109042
 3.1000e+000 109117 -7.3648e+001 -2.9998e+002  2.0460e+001 26722 108938,108990,108964
 3.1000e+000 109094 -1.3232e+002 -2.3199e+002  1.1193e+001 26722 108912,109068,109042
 3.1000e+000 109235 -7.2762e+001 -2.7584e+002  2.7958e+001 26722 108990,108938,109209
 3.1000e+000 109258 -8.6142e+001 -2.9720e+002  2.2162e+001 26722 108990,109209,109016
 3.1000e+000 109307 -7.9358e+001 -2.7895e+002  1.2619e+001 26722 109016,109209,109281
 3.1000e+000 109330 -7.1369e+001 -2.6779e+002  9.1320e+000 26722 109016,109281,109042
 3.1000e+000 109732 -1.0686e+002 -2.2994e+002 -5.0832e+000 26310 109458,109588,109484
 3.1000e+000 109709 -1.0029e+002 -2.5883e+002 -2.6563e+001 26310 109458,109614,109588
 3.1000e+000 109686 -1.5738e+002 -2.6955e+002  3.9343e+001 26310 109510,109562,109536
 3.1000e+000 109663 -1.5532e+002 -2.5349e+002  1.5103e+001 26310 109484,109562,109510
 3.1000e+000 109640 -1.1179e+002 -2.3370e+002 -1.8808e+000 26310 109484,109588,109562
 3.1000e+000 110159 -7.8406e+001 -2.4295e+002 -6.5031e+000 25642 110182,109940,109914
 3.1000e+000 110136 -7.2326e+001 -2.7851e+002  3.2661e+001 25642 110182,109914,109888
 3.1000e+000 110113 -9.1947e+001 -3.0171e+002 -3.9134e+001 25642 109966,110018,109992
 3.1000e+000 110090 -1.0214e+002 -2.9039e+002  2.2199e+001 25642 110254,109966,109940
 3.1000e+000 110067 -1.3193e+002 -2.7464e+002  1.5479e+001 25642 109862,110018,109888
 3.1000e+000 110044 -1.2901e+002 -2.3461e+002  3.5478e+001 25642 109836,110018,109862
 3.1000e+000 110208 -1.0164e+002 -2.6431e+002  1.6345e+001 25642 110254,109940,110182
 3.1000e+000 110231 -1.0946e+002 -2.8250e+002  3.4911e+001 25642 110018,110182,109888
 3.1000e+000 110280 -9.0602e+001 -3.2278e+002  1.7224e+001 25642 110018,109966,110254
 3.1000e+000 110303 -9.5554e+001 -3.0329e+002  1.2201e+001 25642 110018,110254,110182
 3.1000e+000 110632 -1.1756e+002 -2.4202e+002 -1.3154e+001 25188 110407,110485,110433
 3.1000e+000 110609 -1.4140e+002 -2.4544e+002 -6.4379e+000 25188 110407,110537,110485
 3.1000e+000 110586 -1.3673e+002 -2.5279e+002 -4.6492e+001 25188 110433,110485,110459
 3.1000e+000 110563 -1.3011e+002 -2.5569e+002  2.8323e+001 25188 110485,110537,110511
 3.1000e+000 110831 -3.5473e+001 -2.4753e+002  6.7188e+000 24726 110854,110707,110655
 3.1000e+000 110808 -2.6814e+001 -2.6298e+002  2.2014e+001 24726 110854,110655,110759
 3.1000e+000 110785 -3.5532e+001 -2.4831e+002  6.5961e+000 24726 110655,110707,110681
 3.1000e+000 110880 -2.8585e+001 -2.3271e+002  8.6740e+000 24726 110733,110707,110854
 3.1000e+000 110903 -1.6327e+001 -2.4080e+002  2.5004e+001 24726 110733,110854,110759
 3.1000e+000 111234 -7.8851e+000 -1.6648e+002 -4.7308e+000 24222 111257,111087,111035
 3.1000e+000 111211  1.8318e+001 -1.5470e+002  1.6203e+001 24222 111257,111035,111009
 3.1000e+000 111188 -2.6683e+001 -8.8242e+001 -3.7320e+001 24222 111035,111087,111061
 3.1000e+000 111165 -2.5762e+001 -1.3815e+002  4.7414e+000 24222 111087,111139,111113
 3.1000e+000 111283 -2.4115e+001 -1.4008e+002  7.1245e+000 24222 111139,111087,111257
 3.1000e+000 111306 -1.2793e+001 -1.2157e+002  2.0582e+001 24222 111139,111257,111009
 3.1000e+000 111625 -4.1537e+001 -2.4866e+002 -1.4599e+001 23732 111648,111481,111455
 3.1000e+000 111602 -4.1385e+001 -2.5072e+002 -1.4914e+001 23732 111648,111455,111377
 3.1000e+000 111579  2.5709e+001 -1.3504e+002  2.5211e+001 23732 111377,111429,111403
 3.1000e+000 111556 -2.0698e+001 -2.5447e+002 -5.7799e+000 23732 111377,111455,111429
 3.1000e+000 111533 -3.4624e+001 -2.2072e+002 -6.6393e+000 23732 111351,111507,111377
 3.1000e+000 111674 -4.0677e+001 -2.4489e+002 -1.2213e+001 23732 111507,111481,111648
 3.1000e+000 111697 -4.2503e+001 -2.4944e+002 -1.2873e+001 23732 111507,111648,111377
 3.1000e+000 112156 -6.7791e+001 -2.7245e+002  1.4178e+001 23278 112179,111908,111882
 3.1000e+000 112133 -6.6118e+001 -2.5636e+002  3.0825e+000 23278 112179,111882,112012
 3.1000e+000 112110 -3.2214e+001 -2.9641e+002  1.0358e+000 23278 111908,111960,111934
 3.1000e+000 112087  1.6041e+001 -2.2548e+002 -2.7087e+001 23278 111882,112038,112012
 3.1000e+000 112064 -3.8087e+001 -2.3515e+002 -6.6172e+000 23278 111960,112012,111986
 3.1000e+000 112205 -6.2666e+001 -2.6380e+002  1.0371e+000 23278 111960,111908,112179
 3.1000e+000 112228 -5.4229e+001 -2.4474e+002 -1.1227e+001 23278 111960,112179,112012
 3.1000e+000 112685 -1.8159e+002 -3.9880e+002 -3.8690e+001 22938 112489,112567,112541
 3.1000e+000 112662 -1.5804e+002 -3.4628e+002 -3.3930e+001 22938 112437,112567,112489
 3.1000e+000 112639 -1.0711e+002 -2.9824e+002 -4.7071e+000 22938 112489,112541,112515
 3.1000e+000 112616 -1.7740e+002 -3.3237e+002 -3.0331e+001 22938 112411,112567,112437
 3.1000e+000 112593 -1.3765e+002 -4.2977e+002 -1.0898e+001 22938 112437,112489,112463
 3.1000e+000 113191 -1.4326e+001 -2.7448e+002 -3.3545e+001 22534 113214,112998,112946
 3.1000e+000 113168 -5.5137e+001 -2.4498e+002 -1.6449e+001 22534 113286,113214,112946
 3.1000e+000 113145 -4.2276e+001 -2.4530e+002 -1.3606e+001 22534 113286,112946,112920
 3.1000e+000 113122 -1.1440e+002 -2.2353e+002 -4.6632e+001 22534 113358,113024,112998
 3.1000e+000 113099 -7.1774e+001 -2.2880e+002 -3.6972e+000 22534 112868,113050,112894
 3.1000e+000 113076 -8.0728e+001 -4.0486e+002 -6.5577e+001 22534 112946,112998,112972
 3.1000e+000 113240 -8.5106e+001 -2.8366e+002 -4.9514e+001 22534 113358,112998,113214
 3.1000e+000 113263 -7.1924e+001 -2.5856e+002 -8.0056e+000 22534 113050,113214,112894
 3.1000e+000 113312 -3.8138e+001 -2.4346e+002 -1.2822e+001 22534 112894,113214,113286
 3.1000e+000 113335 -2.4321e+001 -2.4420e+002 -1.2392e+001 22534 112894,113286,112920
 3.1000e+000 113384 -8.1922e+001 -1.6801e+002 -3.3153e+001 22534 113050,113024,113358
 3.1000e+000 113407 -3.9909e+001 -2.1795e+002 -2.9429e+001 22534 113050,113358,113214
 3.1000e+000 113785 -1.3265e+002 -3.3523e+002  8.0490e+000 21978 113808,113615,113511
 3.1000e+000 113762 -1.0833e+002 -3.4026e+002  2.4046e+001 21978 113808,113511,113667
 3.1000e+000 113739 -8.1602e+001 -2.8654e+002 -1.2773e+001 21978 113511,113615,113537
 3.1000e+000 113716  2.6009e+001 -2.5527e+002 -2.5485e+001 21978 113537,113615,113589
 3.1000e+000 113693 -3.7870e+001 -3.6561e+002  5.7533e+000 21978 113537,113589,113563
 3.1000e+000 113834 -1.3637e+002 -3.3408e+002  3.8455e+001 21978 113641,113615,113808
 3.1000e+000 113857 -7.2657e+001 -3.0972e+002  5.7472e+001 21978 113641,113808,113667
 3.1000e+000 114284 -1.0378e+002 -2.7704e+002  9.1180e+000 21517 114013,114117,114039
 3.1000e+000 114261 -1.1300e+002 -2.7560e+002  2.2034e+001 21517 113961,114117,114013
 3.1000e+000 114238 -1.0851e+002 -2.8354e+002  2.2274e+001 21517 113961,114013,113987
 3.1000e+000 114215 -1.6288e+002 -3.0837e+002 -1.9718e+001 21517 114039,114117,114091
 3.1000e+000 114192 -1.1655e+002 -2.4089e+002  2.6763e+001 21517 113961,114143,114117
 3.1000e+000 114169  1.0960e+001 -2.4361e+002 -1.7173e+001 21517 114039,114091,114065
 3.1000e+000 114581 -5.7560e+001 -3.3499e+002  3.8611e+000 21027 114359,114463,114437
 3.1000e+000 114558 -3.1671e+001 -3.0357e+002  4.0078e+001 21027 114333,114463,114359
 3.1000e+000 114535 -2.5350e+001 -3.0772e+002 -8.1011e+000 21027 114359,114437,114385
 3.1000e+000 114512 -2.0072e+001 -3.0124e+002  3.1932e+001 21027 114307,114463,114333
 3.1000e+000 114489  4.3773e+001 -2.8654e+002 -1.4239e+001 21027 114385,114437,114411
 3.1000e+000 114912 -1.3177e+002 -2.8349e+002  4.7716e+000 20623 114713,114791,114765
 3.1000e+000 114889 -9.1838e+001 -2.6709e+002 -1.9123e+001 20623 114687,114791,114713
 3.1000e+000 114866 -7.0627e+001 -3.0011e+002 -1.9657e+001 20623 114687,114817,114791
 3.1000e+000 114843 -1.8833e+002 -3.4245e+002  2.8898e+001 20623 114713,114765,114739
 3.1000e+000 115290 -4.5069e+001 -2.5229e+002  1.1026e+001 20375 115313,115146,115094
 3.1000e+000 115267 -5.2829e+001 -2.5512e+002  1.4845e+001 20375 115313,115094,115042
 3.1000e+000 115244 -5.1543e+001 -2.3172e+002  5.3053e+000 20375 115385,115016,115172
 3.1000e+000 115221  4.7419e+001 -2.2098e+002  1.5463e+001 20375 115042,115094,115068
 3.1000e+000 115198 -6.1800e+001 -2.9486e+002  1.2787e+001 20375 115094,115146,115120
 3.1000e+000 115339 -7.4518e+001 -2.8919e+002 -8.2568e+000 20375 115172,115146,115313
 3.1000e+000 115362 -4.8602e+001 -2.4148e+002  2.9569e+000 20375 115385,115172,115313
 3.1000e+000 115411 -4.4794e+001 -2.3917e+002  1.5296e+001 20375 115042,115016,115385
 3.1000e+000 115434 -4.7195e+001 -2.5476e+002  1.4278e+001 20375 115042,115385,115313
 3.1000e+000 115891 -1.2885e+002 -2.5586e+002  3.1151e+001 19971 115617,115747,115643
 3.1000e+000 115868 -1.1084e+002 -2.1208e+002  2.9701e+001 19971 115617,115773,115747
 3.1000e+000 115845 -8.2375e+001 -3.8756e+002  5.3796e+000 19971 115643,115721,115695
 3.1000e+000 115822 -2.4516e+000 -1.9311e+002 -1.7039e+000 19971 115643,115747,115721
 3.1000e+000 115799 -6.9461e+001 -4.7383e+002 -3.6623e+001 19971 115643,115695,115669
 3.1000e+000 115992 -1.9568e+002 -5.0472e+002 -8.6240e+001 19659 115914,115966,115940
 3.1000e+000 116142 -2.5703e+001 -1.0696e+002  2.5470e+000 18997 116041,116093,116067
 3.1000e+000 116119 -5.6407e+001 -1.8593e+002  1.1031e+001 18997 116015,116093,116041
 3.1000e+000 116343 -4.9795e+001 -2.9226e+002 -8.5767e+000 18707 116193,116245,116219
 3.1000e+000 116320 -1.1212e+002 -3.1841e+002 -1.2473e+001 18707 116193,116271,116245
 3.1000e+000 116297 -1.0139e+002 -2.8403e+002 -2.0400e+001 18707 116167,116271,116193
 3.1000e+000 116747 -4.4793e+001 -2.6512e+002 -4.3570e+000 18301 116525,116629,116551
 3.1000e+000 116724 -3.9953e+001 -2.2943e+002  2.4343e+000 18301 116473,116629,116525
 3.1000e+000 116701 -3.3746e+001 -2.3033e+002 -1.5691e+001 18301 116473,116525,116499
 3.1000e+000 116678 -2.7305e+001 -2.7734e+002 -4.8565e+000 18301 116551,116603,116577
 3.1000e+000 116655 -5.4385e+001 -2.8777e+002 -1.0461e+001 18301 116551,116629,116603
 3.1000e+000 117147 -1.3967e+002 -3.1692e+002 -7.9483e-001 17747 116899,117029,116925
 3.1000e+000 117124 -7.5188e+001 -2.3344e+002  3.1609e+001 17747 116873,117029,116899
 3.1000e+000 117101 -1.3818e+002 -3.1447e+002 -1.6743e-001 17747 116925,117029,116951
 3.1000e+000 117078 -1.2170e+002 -2.7385e+002 -5.2848e-001 17747 116951,117029,117003
 3.1000e+000 117055 -1.6024e+002 -3.5330e+002 -2.1516e+001 17747 116951,117003,116977
 3.1000e+000 117368  1.3892e+001 -2.9445e+002  6.9179e+000 17293 117244,117296,117270
 3.1000e+000 117345 -2.4353e+001 -3.0564e+002 -3.8306e+000 17293 117192,117296,117244
 3.1000e+000 117322 -5.4473e+001 -2.8667e+002 -3.3437e+000 17293 117192,117244,117218
 3.1000e+000 117699 -2.3868e+001 -2.3406e+002 -2.8443e+001 16896 117526,117604,117552
 3.1000e+000 117676 -1.5353e+002 -3.6055e+002  2.2799e+001 16896 117500,117604,117526
 3.1000e+000 117653 -1.6268e+002 -2.8525e+002 -1.4584e+001 16896 117552,117604,117578
 3.1000e+000 117630 -1.4035e+002 -4.6625e+002  3.9267e+001 16896 117474,117604,117500
 3.1000e+000 117849 -3.3307e+002 -6.4242e+002 -2.4452e+001 16534 117722,117774,117748
 3.1000e+000 117826 -2.6252e+002 -7.8085e+002 -1.0568e+002 16534 117722,117800,117774
 3.1000e+000 118070 -3.4318e+001 -2.8646e+002  2.9200e+001 16194 117946,117998,117972
 3.1000e+000 118047 -6.3791e+001 -3.3610e+002  1.6767e+001 16194 117894,117998,117946
 3.1000e+000 118024 -8.3548e+001 -3.0889e+002 -5.6540e+000 16194 117894,117946,117920
 3.1000e+000 118173 -2.9751e+001 -3.0388e+002  0.0000e+000 15968 118095,118147,118121
 3.1000e+000 118276 -9.4217e+001 -3.0726e+002  3.6384e+000 15433 118299,118198,118250
 3.1000e+000 118325 -9.6975e+001 -3.1369e+002  3.7026e+000 15433 118224,118198,118299
 3.1000e+000 118450 -1.5733e+002 -3.4721e+002  3.3852e+001 421 118372,118424,118398
 3.2000e+000 69891 -6.1936e+001 -3.8782e+002  1.3519e+001 68988 69447,69681,69629
 3.2000e+000 69868  2.9357e+001 -3.4925e+002  1.2324e+001 68988 69421,69681,69447
 3.2000e+000 69845  7.3747e+000 -1.8963e+002 -2.1278e-001 68988 69447,69629,69577
 3.2000e+000 69822 -1.0767e+002 -4.0624e+002 -4.6998e+001 68988 69447,69577,69473
 3.2000e+000 69799 -1.1903e+001 -4.6131e+002  7.4047e+001 68988 69629,69681,69655
 3.2000e+000 69776 -1.1560e+002 -2.4282e+002  4.6221e+000 68988 69577,69629,69603
 3.2000e+000 69753 -8.4040e+001 -3.6067e+002 -5.5891e+001 68988 69473,69577,69551
 3.2000e+000 69730 -1.3201e+002 -7.3476e+002 -7.4586e+001 68988 69473,69551,69525
 3.2000e+000 69707 -2.2407e+002 -4.8259e+002  6.7892e-001 68988 69473,69525,69499
 3.2000e+000 69992 -2.0024e+002 -4.1156e+002 -7.5387e+001 68676 69914,69966,69940
 3.2000e+000 70392 -1.4779e+002 -3.1590e+002  2.4440e+001 68478 70118,70248,70144
 3.2000e+000 70369  9.8566e+000 -3.2171e+002  6.8803e+001 68478 70118,70274,70248
 3.2000e+000 70346 -9.0197e+001 -2.3771e+002 -1.1351e+000 68478 70144,70222,70196
 3.2000e+000 70323 -7.5089e+001 -1.9885e+002 -9.5633e+000 68478 70144,70248,70222
 3.2000e+000 70300 -9.9215e+001 -2.6191e+002 -5.5820e+000 68478 70144,70196,70170
 3.2000e+000 70841  6.0749e+001 -2.0856e+002 -6.0124e+001 68280 70570,70622,70596
 3.2000e+000 70818 -1.0357e+002 -2.3899e+002 -1.3946e+001 68280 70544,70622,70570
 3.2000e+000 70795 -7.5421e+001 -1.7618e+002 -8.0555e+000 68280 70544,70674,70622
 3.2000e+000 70772 -6.5815e+001 -1.5622e+002  3.5032e+000 68280 70622,70674,70648
 3.2000e+000 70749 -1.0865e+002 -2.6776e+002  2.0429e+001 68280 70518,70674,70544
 3.2000e+000 70726  9.7392e+001 -2.8011e+002  8.0630e+001 68280 70518,70700,70674
 3.2000e+000 70991 -1.2535e+001 -1.1377e+003  3.3953e+001 67968 70864,70916,70890
 3.2000e+000 70968 -3.0046e+002 -1.1308e+003  1.3018e+002 67968 70864,70942,70916
 3.2000e+000 71141 -5.2562e+002 -1.0149e+003 -4.7398e+001 67770 71040,71092,71066
 3.2000e+000 71118 -4.6124e+002 -1.2171e+003  5.2637e+001 67770 71014,71092,71040
 3.2000e+000 71651 -6.8975e+001 -2.1348e+002 -3.8747e+001 67366 71746,71674,71458
 3.2000e+000 71628 -4.2376e+001 -1.7365e+002 -4.1962e+001 67366 71674,71354,71510
 3.2000e+000 71605 -6.1837e+001 -2.3510e+002 -3.6532e+001 67366 71746,71458,71432
 3.2000e+000 71582 -1.0036e+002 -2.4136e+002  9.7261e+000 67366 71354,71432,71380
 3.2000e+000 71559 -1.0938e+002 -1.7005e+002 -2.4633e+001 67366 71380,71432,71406
 3.2000e+000 71536 -4.7867e+001 -6.6963e+001 -5.1527e+000 67366 71328,71510,71354
 3.2000e+000 71700 -7.8766e+001 -1.9435e+002 -1.7515e+001 67366 71484,71458,71674
 3.2000e+000 71723 -5.0800e+001 -1.8186e+002 -1.4957e+001 67366 71484,71674,71510
 3.2000e+000 71772 -6.0368e+001 -1.8782e+002 -3.4305e+001 67366 71354,71674,71746
 3.2000e+000 71795 -5.2432e+001 -2.0700e+002 -3.4702e+001 67366 71354,71746,71432
 3.2000e+000 71896 -2.2267e+002 -4.7673e+002  0.0000e+000 67146 71818,71870,71844
 3.2000e+000 71997 -2.6098e+002 -3.7941e+002  7.5844e+001 66948 71919,71971,71945
 3.2000e+000 72149 -1.2587e+000 -2.7559e+002 -3.4286e+001 66700 72172,72074,72048
 3.2000e+000 72126 -8.5472e+001 -3.1175e+002 -1.3808e+001 66700 72172,72048,72022
 3.2000e+000 72198 -1.4482e+002 -3.4402e+002  2.2422e+001 66700 72244,72172,72100
 3.2000e+000 72221 -1.2879e+002 -3.1391e+002 -2.0638e+001 66700 72100,72172,72022
 3.2000e+000 72270 -6.8841e+001 -1.7725e+002 -2.2882e+001 66700 72074,72172,72244
 3.2000e+000 72623 -9.3109e+001 -2.8570e+002  7.5822e+000 66502 72424,72502,72450
 3.2000e+000 72600 -7.5647e+001 -2.3722e+002  4.3598e+000 66502 72398,72502,72424
 3.2000e+000 72577 -5.2976e+001 -2.7153e+002 -5.8798e+000 66502 72398,72528,72502
 3.2000e+000 72554 -9.2256e+001 -2.5190e+002 -2.4728e+000 66502 72450,72502,72476
 3.2000e+000 72920 -1.5955e+002 -3.3275e+002  8.7379e+000 65941 72672,72776,72750
 3.2000e+000 72897 -1.5881e+002 -2.8606e+002  3.2436e+001 65941 72646,72776,72672
 3.2000e+000 72874 -1.4028e+002 -3.2730e+002  1.1208e+001 65941 72672,72750,72724
 3.2000e+000 72851 -1.4167e+002 -2.5750e+002  2.5008e+001 65941 72672,72724,72698
 3.2000e+000 72828 -1.2236e+002 -2.8403e+002  2.9641e+001 65941 72646,72802,72776
 3.2000e+000 73241 -2.5128e+001 -2.3781e+002  1.9754e+001 65743 73264,73071,73045
 3.2000e+000 73218 -9.0627e+001 -2.6713e+002  2.6417e+001 65743 73480,73264,73045
 3.2000e+000 73195 -7.6652e+001 -2.4244e+002 -3.7005e+000 65743 73336,72967,73097
 3.2000e+000 73172 -1.4116e+002 -2.2092e+002 -2.6800e+001 65743 73408,72993,72967
 3.2000e+000 73149 -6.4719e+001 -2.4337e+002 -4.1370e+000 65743 72967,73123,73097
 3.2000e+000 73290 -5.3176e+001 -2.5125e+002  5.1329e+000 65743 73097,73071,73264
 3.2000e+000 73313 -6.3066e+001 -2.2879e+002  1.1253e+001 65743 73336,73097,73264
 3.2000e+000 73362 -1.1983e+002 -2.4985e+002 -1.8183e+001 65743 73408,72967,73336
 3.2000e+000 73385 -5.4688e+001 -2.2735e+002  3.0107e-002 65743 73019,73336,73264
 3.2000e+000 73434 -1.0566e+002 -1.6751e+002  1.2669e+001 65743 73019,72993,73408
 3.2000e+000 73457 -5.5985e+001 -2.0569e+002  8.5463e+000 65743 73019,73408,73336
 3.2000e+000 73506 -3.4662e+001 -1.6902e+002  3.9279e+000 65743 73019,73264,73480
 3.2000e+000 73989 -6.9578e+000 -1.8784e+002  2.3225e+001 65453 73793,73845,73819
 3.2000e+000 73966 -9.8342e+001 -2.1188e+002  2.6834e+001 65453 73741,73845,73793
 3.2000e+000 73943 -2.2504e+001 -1.7031e+002  1.0773e+001 65453 73715,73845,73741
 3.2000e+000 73920 -7.6698e+001 -2.2623e+002  4.4753e+001 65453 73741,73793,73767
 3.2000e+000 73897  7.7177e+000 -1.0395e+002  2.5940e+000 65453 73715,73871,73845
 3.2000e+000 74357 -5.7203e+001 -2.5156e+002 -7.2055e+001 65141 74380,74138,74086
 3.2000e+000 74334 -1.0982e+002 -3.4073e+002 -4.9425e+001 65141 74380,74086,74060
 3.2000e+000 74311 -1.2279e+002 -3.2944e+002 -1.3660e+001 65141 74138,74190,74164
 3.2000e+000 74288 -9.1629e+001 -3.6908e+002 -1.5512e+001 65141 74060,74216,74190
 3.2000e+000 74265 -9.8643e+001 -3.9149e+002  5.2815e+000 65141 74034,74216,74060
 3.2000e+000 74242 -7.4166e+001 -1.8944e+002 -4.3809e+001 65141 74086,74138,74112
 3.2000e+000 74406 -8.8970e+001 -3.3031e+002 -2.9160e+001 65141 74190,74138,74380
 3.2000e+000 74429 -1.0547e+002 -3.6137e+002 -1.4553e+001 65141 74190,74380,74060
 3.2000e+000 74937 -1.2080e+002 -2.5008e+002 -6.6834e+001 64737 74614,74666,74640
 3.2000e+000 74914 -1.5025e+002 -3.1024e+002 -4.9656e+001 64737 74614,74796,74666
 3.2000e+000 74891 -1.0771e+002 -2.1604e+002 -9.6034e+000 64737 74960,74718,74666
 3.2000e+000 74868 -9.2746e+001 -2.3804e+002 -3.0865e+001 64737 74960,74666,74770
 3.2000e+000 74845 -9.5323e+001 -1.8798e+002 -3.2631e+001 64737 74666,74796,74770
 3.2000e+000 74822 -1.0543e+002 -2.3467e+002  2.1247e+000 64737 74666,74718,74692
 3.2000e+000 74986 -1.1674e+002 -2.3871e+002 -8.7231e+000 64737 74744,74718,74960
 3.2000e+000 75009 -1.0720e+002 -2.7183e+002 -3.0435e+001 64737 74744,74960,74770
 3.2000e+000 75306 -4.0875e+001 -2.2116e+002  3.1761e+001 64133 75329,75110,75084
 3.2000e+000 75283 -6.5087e+001 -2.5592e+002  1.3107e+001 64133 75401,75329,75084
 3.2000e+000 75260 -6.3064e+001 -2.6355e+002  1.5289e+001 64133 75401,75084,75058
 3.2000e+000 75237 -5.6409e+001 -2.9456e+002  2.9997e+001 64133 75473,75136,75110
 3.2000e+000 75214 -7.1282e+001 -2.3218e+002  4.3331e+000 64133 75032,75188,75162
 3.2000e+000 75355 -6.4441e+001 -2.7793e+002  2.4035e+001 64133 75473,75110,75329
 3.2000e+000 75378 -5.3400e+001 -2.4204e+002  3.9533e+000 64133 75162,75329,75032
 3.2000e+000 75427 -5.0736e+001 -2.3627e+002  5.3479e+000 64133 75032,75329,75401
 3.2000e+000 75450 -1.0862e+002 -2.9263e+002  3.5161e+001 64133 75545,75401,75058
 3.2000e+000 75499 -5.7616e+001 -2.7311e+002  6.7482e+000 64133 75162,75136,75473
 3.2000e+000 75522 -6.0735e+001 -2.4075e+002  7.1542e+000 64133 75162,75473,75329
 3.2000e+000 75571 -4.9098e+001 -1.6265e+002  1.1913e+001 64133 75032,75401,75545
 3.2000e+000 75851 -8.8231e+001 -2.3465e+002  2.3885e+000 63843 75874,75753,75727
 3.2000e+000 75828 -7.6685e+001 -2.3757e+002 -1.6100e+001 63843 75946,75874,75727
 3.2000e+000 75805 -8.9257e+001 -2.5715e+002 -7.3286e+000 63843 76018,75946,75727
 3.2000e+000 75900 -6.3542e+001 -2.2416e+002 -6.1727e+000 63843 75779,75753,75874
 3.2000e+000 75923 -7.0612e+001 -1.9356e+002 -2.8716e+001 63843 75779,75874,75675
 3.2000e+000 75972 -8.8578e+001 -2.2028e+002 -1.2330e+001 63843 75675,75874,75946
 3.2000e+000 75995 -7.7947e+001 -2.3310e+002 -2.1213e+001 63843 75675,75946,75701
 3.2000e+000 76044 -8.9040e+001 -2.4315e+002 -2.6280e+001 63843 75701,75946,76018
 3.2000e+000 76454  2.4818e+001 -3.9164e+001 -3.2908e+001 63439 76477,76255,76229
 3.2000e+000 76431 -1.7826e+001 -1.1353e+002 -6.5413e+000 63439 76477,76229,76359
 3.2000e+000 76408 -3.2259e+001 -8.8471e+001  4.9355e+001 63439 76307,76359,76333
 3.2000e+000 76385 -1.0960e+001 -1.2181e+002  4.2247e+000 63439 76255,76307,76281
 3.2000e+000 76503 -1.6394e+001 -9.6912e+001  1.1843e+001 63439 76307,76255,76477
 3.2000e+000 76526 -1.6165e+001 -1.2669e+002  3.0585e+001 63439 76307,76477,76359
 3.2000e+000 76926 -4.8826e+001 -1.8069e+002 -4.4541e+000 63049 76704,76782,76756
 3.2000e+000 76903 -7.5486e+001 -1.8784e+002 -2.0513e+001 63049 76704,76808,76782
 3.2000e+000 76880 -5.1948e+001 -2.1277e+002  2.6657e+000 63049 76704,76756,76730
 3.2000e+000 76857 -4.7679e+001 -1.1784e+002  6.5062e+000 63049 76678,76808,76704
 3.2000e+000 76834 -2.2825e+001 -2.8935e+001 -2.7403e+001 63049 76652,76808,76678
 3.2000e+000 77076 -1.6122e+001 -2.7478e+002 -1.3343e+000 62737 76975,77027,77001
 3.2000e+000 77053 -1.6609e+001 -3.0900e+002 -1.9381e+001 62737 76949,77027,76975
 3.2000e+000 77324 -1.2418e+002 -2.7769e+002 -3.6882e+000 62277 77347,77177,77125
 3.2000e+000 77301 -1.1683e+002 -2.6774e+002 -1.4860e+001 62277 77347,77125,77229
 3.2000e+000 77278 -1.1103e+002 -2.7603e+002 -2.0447e+001 62277 77099,77229,77125
 3.2000e+000 77255 -1.2939e+002 -3.4010e+002  2.7992e+000 62277 77125,77177,77151
 3.2000e+000 77373 -1.2981e+002 -3.0472e+002  1.1817e+001 62277 77203,77177,77347
 3.2000e+000 77396 -1.0250e+002 -2.7939e+002 -3.0806e+000 62277 77203,77347,77229
 3.2000e+000 77857 -5.5963e+001 -3.4194e+002  3.5944e+000 61758 77635,77739,77661
 3.2000e+000 77834 -9.2083e+001 -3.3235e+002 -1.5900e+001 61758 77583,77739,77635
 3.2000e+000 77811 -1.0494e+002 -4.1194e+002 -4.2338e+001 61758 77583,77635,77609
 3.2000e+000 77788 -8.4048e+001 -3.2069e+002  2.8014e+001 61758 77661,77713,77687
 3.2000e+000 77765 -8.7327e+001 -3.7666e+002  2.8111e+001 61758 77661,77739,77713
 3.2000e+000 78491 -9.2044e+001 -1.9479e+002  9.5412e+000 61418 78171,78301,78249
 3.2000e+000 78468 -7.5004e+001 -1.6296e+002  2.2080e+001 61418 78145,78301,78171
 3.2000e+000 78445 -6.6307e+001 -1.7200e+002 -1.0791e+001 61418 78171,78249,78223
 3.2000e+000 78422 -6.9382e+001 -1.6017e+002  8.9579e+000 61418 78145,78327,78301
 3.2000e+000 78399 -9.5414e+001 -2.1642e+002 -2.0007e+000 61418 78249,78301,78275
 3.2000e+000 78376 -4.1459e+001 -1.7979e+002 -1.5504e+001 61418 78171,78223,78197
 3.2000e+000 78353 -8.9568e+001 -2.0590e+002 -4.5812e+000 61418 78119,78327,78145
 3.2000e+000 78690 -1.0282e+002 -2.4036e+002 -3.9483e+000 61014 78713,78566,78540
 3.2000e+000 78667 -6.3669e+001 -2.4365e+002 -1.9168e+000 61014 78713,78540,78618
 3.2000e+000 78644 -1.0969e+002 -2.7522e+002 -2.8090e+001 61014 78514,78618,78540
 3.2000e+000 78739 -4.8966e+001 -2.3084e+002  2.5332e+001 61014 78592,78566,78713
 3.2000e+000 78762 -5.4996e+001 -2.5883e+002  1.4535e+000 61014 78785,78713,78618
 3.2000e+000 78811 -1.8057e+001 -2.4448e+002 -2.8064e+000 61014 78592,78713,78785
 3.2000e+000 79398 -3.8492e+001 -2.0487e+002 -2.3358e+001 60624 79101,79179,79153
 3.2000e+000 79375 -5.6190e+001 -2.3097e+002 -1.2251e+001 60624 79101,79231,79179
 3.2000e+000 79352 -4.6057e+001 -2.3247e+002 -2.0147e+001 60624 79075,79231,79101
 3.2000e+000 79329 -1.2973e+001 -2.8332e+002  3.1013e+001 60624 79075,79257,79231
 3.2000e+000 79306 -4.3605e+001 -1.7241e+002 -4.9468e+001 60624 79179,79231,79205
 3.2000e+000 79283 -2.6913e+001 -1.8010e+002 -9.6173e+000 60624 79101,79153,79127
 3.2000e+000 79776 -1.0827e+002 -3.0258e+002  2.9676e+001 60070 79528,79658,79606
 3.2000e+000 79753 -9.6022e+001 -2.3130e+002 -2.4165e+000 60070 79502,79658,79528
 3.2000e+000 79730 -1.3746e+002 -2.9271e+002  4.2247e+001 60070 79528,79606,79580
 3.2000e+000 79707 -2.4447e+001 -2.5121e+002  4.6813e+000 60070 79606,79658,79632
 3.2000e+000 79684 -1.2244e+001 -1.7907e+002 -4.7201e+001 60070 79528,79580,79554
 3.2000e+000 80105 -7.3142e+001 -2.3270e+002  2.8483e+001 59758 80128,79958,79906
 3.2000e+000 80082 -8.1258e+001 -2.1858e+002  2.0842e+001 59758 80128,79906,80010
 3.2000e+000 80059 -1.0759e+002 -2.4063e+002  8.2994e+001 59758 79906,79958,79932
 3.2000e+000 80036 -1.2361e+002 -2.5465e+002  5.0146e+000 59758 79880,80010,79906
 3.2000e+000 80154 -7.7718e+001 -2.4150e+002  2.6810e+001 59758 79984,79958,80128
 3.2000e+000 80177 -8.7224e+001 -2.3064e+002  1.8900e+001 59758 79984,80128,80010
 3.2000e+000 80376 -5.8737e+001 -2.3397e+002  4.5133e+000 59312 80226,80304,80252
 3.2000e+000 80353 -6.1179e+001 -2.3666e+002  3.4848e+000 59312 80200,80304,80226
 3.2000e+000 80330 -9.6166e+001 -2.1258e+002  6.4109e+001 59312 80252,80304,80278
 3.2000e+000 80805 -8.5855e+001 -1.9590e+002 -3.0653e+001 58908 80900,80828,80638
 3.2000e+000 80782 -7.3694e+001 -2.3110e+002 -4.6792e+001 58908 80828,80560,80508
 3.2000e+000 80759 -8.9869e+001 -1.8310e+002 -9.7615e+000 58908 80900,80638,80612
 3.2000e+000 80736 -3.8702e+001 -2.0054e+002  8.0859e+001 58908 80482,80664,80508
 3.2000e+000 80713 -6.0240e+001 -1.7059e+002 -2.6870e+000 58908 80560,80612,80586
 3.2000e+000 80690 -8.1393e+001 -5.5116e+002 -1.0795e+002 58908 80508,80560,80534
 3.2000e+000 80854 -4.0538e+001 -2.1173e+002  2.4740e-001 58908 80664,80638,80828
 3.2000e+000 80877 -6.8732e+001 -3.0572e+002  5.1623e+000 58908 80664,80828,80508
 3.2000e+000 80926 -7.2753e+001 -1.5800e+002 -3.2813e+001 58908 80560,80828,80900
 3.2000e+000 80949 -8.1890e+001 -1.5783e+002 -9.0090e+000 58908 80560,80900,80612
 3.2000e+000 81246 -2.8954e+001 -1.8105e+002 -4.4357e+000 58482 81076,81128,81102
 3.2000e+000 81223 -7.9974e+001 -3.0995e+002 -3.0806e+001 58482 80972,81128,81076
 3.2000e+000 81200 -4.9786e+001 -2.1063e+002 -3.3008e+001 58482 80972,81076,81050
 3.2000e+000 81177 -1.1735e+002 -3.2942e+002 -5.1470e+000 58482 80998,81050,81024
 3.2000e+000 81154 -5.9884e+001 -2.6489e+002 -2.9505e+001 58482 80972,81050,80998
 3.2000e+000 81754 -9.0761e+001 -1.9322e+002  1.6886e+001 57828 81457,81613,81483
 3.2000e+000 81731 -1.0354e+002 -2.1644e+002  8.1844e+000 57828 81431,81613,81457
 3.2000e+000 81708 -9.9337e+001 -2.1324e+002  1.7427e+001 57828 81483,81613,81509
 3.2000e+000 81685 -1.2020e+002 -2.4391e+002  2.6621e+001 57828 81509,81613,81587
 3.2000e+000 81662 -1.2682e+002 -3.5512e+002  5.0987e+001 57828 81509,81587,81535
 3.2000e+000 81639 -7.3660e+001 -3.3876e+002  3.3128e+001 57828 81535,81587,81561
 3.2000e+000 82002 -1.4877e+002 -3.6311e+002 -5.6309e+000 57374 82025,81855,81829
 3.2000e+000 81979 -1.5644e+002 -3.4628e+002  8.1705e+000 57374 82025,81829,81907
 3.2000e+000 81956 -1.5816e+002 -3.2022e+002  3.6723e+000 57374 81803,81907,81829
 3.2000e+000 81933 -1.0781e+002 -3.0181e+002  6.0019e+000 57374 81777,81907,81803
 3.2000e+000 82051 -1.4620e+002 -3.4311e+002 -7.5111e+000 57374 81881,81855,82025
 3.2000e+000 82074 -1.5166e+002 -3.2884e+002  1.0862e+001 57374 81881,82025,81907
 3.2000e+000 82356 -8.0798e+001 -1.8962e+002 -1.4853e+001 56913 82180,82232,82206
 3.2000e+000 82333 -6.4372e+001 -1.7039e+002  2.1749e+001 56913 82180,82284,82232
 3.2000e+000 82310 -2.5956e+001 -1.5290e+002  3.4962e+001 56913 82379,82232,82284
 3.2000e+000 82405  2.0805e+001 -1.4667e+002  7.7999e+000 56913 82258,82232,82379
 3.2000e+000 82764 -8.0569e+001 -1.2746e+002 -1.2907e+001 56523 82614,82666,82640
 3.2000e+000 82741 -6.8473e+001 -1.2851e+002 -1.9318e+001 56523 82614,82692,82666
 3.2000e+000 82718 -5.8391e+001 -1.3795e+002 -3.9915e+001 56523 82588,82692,82614
 3.2000e+000 83368 -1.8519e+001 -2.4612e+002 -9.0127e+000 55969 82973,83155,83129
 3.2000e+000 83345  3.3024e+000 -2.3784e+002 -1.7609e+001 55969 82973,83181,83155
 3.2000e+000 83322 -6.5785e+001 -2.1575e+002 -6.9964e+000 55969 82973,83129,82999
 3.2000e+000 83299 -1.0793e+002 -2.2275e+002  1.2178e+001 55969 83391,83025,82999
 3.2000e+000 83276 -8.6015e+001 -2.2810e+002  4.2327e+000 55969 83391,82999,83129
 3.2000e+000 83253 -1.5029e+001 -1.7830e+002  4.0295e+001 55969 83077,83129,83103
 3.2000e+000 83230 -1.0212e+002 -1.6762e+002 -8.8735e+000 55969 83025,83077,83051
 3.2000e+000 83207 -3.0969e+000 -2.2900e+002  2.3969e+001 55969 82947,83181,82973
 3.2000e+000 83417 -8.6496e+001 -2.1230e+002  1.5446e+001 55969 83077,83025,83391
 3.2000e+000 83440 -7.8662e+001 -2.2466e+002  5.4067e+000 55969 83077,83391,83129
 3.2000e+000 83946 -1.5566e+002 -3.2401e+002  5.9120e+001 55771 83969,83779,83727
 3.2000e+000 83923 -1.2315e+002 -2.6399e+002  2.7697e+001 55771 83969,83727,83623
 3.2000e+000 83900 -1.4654e+002 -1.5293e+002  1.5988e+001 55771 83623,83727,83649
 3.2000e+000 83877 -7.1894e+001 -5.3778e+002  4.6784e+001 55771 83727,83779,83753
 3.2000e+000 83854 -2.4400e+002 -2.6450e+002  1.0251e+002 55771 83675,83727,83701
 3.2000e+000 83831 -2.3206e+002 -2.5401e+002  1.0720e+002 55771 83649,83727,83675
 3.2000e+000 83995 -1.3794e+002 -3.3271e+002 -1.9657e+001 55771 83805,83779,83969
 3.2000e+000 84018 -6.6075e+001 -2.0793e+002 -5.8272e+001 55771 83805,83969,83623
 3.2000e+000 84168 -6.2344e+001 -1.7063e+002 -5.0637e+000 55367 84191,84067,84041
 3.2000e+000 84145 -6.1180e+001 -1.9267e+002 -3.2265e+000 55367 84191,84041,84119
 3.2000e+000 84217 -6.6890e+001 -1.5768e+002 -4.6641e+000 55367 84093,84067,84191
 3.2000e+000 84240 -5.8756e+001 -1.7051e+002  3.3943e+000 55367 84093,84191,84119
 3.2000e+000 84571 -3.4697e+001 -2.8992e+002 -2.8858e+001 54913 84398,84450,84424
 3.2000e+000 84548 -2.6200e+001 -2.6271e+002 -1.2807e+001 54913 84372,84450,84398
 3.2000e+000 84525 -6.6253e+001 -2.9530e+002  1.1307e+001 54913 84346,84450,84372
 3.2000e+000 84502 -1.8685e+001 -1.8645e+002 -2.4018e+001 54913 84346,84476,84450
 3.2000e+000 85126 -1.4039e+002 -3.1715e+002 -1.0512e+001 54402 84858,84936,84910
 3.2000e+000 85103 -1.0748e+002 -2.4982e+002 -2.9711e+001 54402 84806,84936,84858
 3.2000e+000 85080 -1.2770e+002 -2.2502e+002 -2.1996e+001 54402 84780,84936,84806
 3.2000e+000 85057 -1.0796e+002 -2.7497e+002 -1.4332e+001 54402 84806,84858,84832
 3.2000e+000 85034 -1.1088e+002 -2.1059e+002  1.0598e+001 54402 84780,84962,84936
 3.2000e+000 85011 -1.7263e+002 -1.8825e+002 -5.3945e+000 54402 84858,84910,84884
 3.2000e+000 84988 -1.0856e+002 -1.9884e+002  9.0091e+000 54402 84754,84962,84780
 3.2000e+000 85396 -1.0343e+002 -1.2647e+002 -9.7961e+000 53998 85197,85249,85223
 3.2000e+000 85373 -7.8315e+001 -1.6331e+002 -2.3765e+000 53998 85197,85275,85249
 3.2000e+000 85350 -9.8589e+001 -1.9127e+002 -1.1774e+001 53998 85171,85275,85197
 3.2000e+000 85327 -4.4504e+001 -1.7791e+002 -1.4671e+001 53998 85171,85301,85275
 3.2000e+000 85749 -5.9826e+001 -2.2864e+002 -4.5277e+000 53636 85524,85628,85550
 3.2000e+000 85726 -9.7443e+001 -2.5343e+002  8.4005e+000 53636 85524,85654,85628
 3.2000e+000 85703 -3.6422e+001 -2.4469e+002 -2.2246e+001 53636 85550,85602,85576
 3.2000e+000 85680 -6.1250e+001 -2.2771e+002 -1.0534e+001 53636 85550,85628,85602
 3.2000e+000 86127 -1.9373e+001 -2.2852e+002  3.6225e+001 52982 86150,85957,85879
 3.2000e+000 86104 -6.7571e+001 -2.6597e+002  1.9813e+001 52982 86150,85879,85853
 3.2000e+000 86081 -1.7038e+001 -3.3063e+002  6.6379e+001 52982 85957,86009,85983
 3.2000e+000 86058 -8.4404e+001 -2.4590e+002  3.2224e+001 52982 85879,85957,85931
 3.2000e+000 86035 -6.0833e+001 -2.0932e+002  1.9355e+001 52982 85879,85931,85905
 3.2000e+000 86176  1.2798e+001 -2.6965e+002  2.9883e+001 52982 86009,85957,86150
 3.2000e+000 86199 -1.5865e+001 -2.9612e+002  1.8845e+001 52982 86009,86150,85853
 3.2000e+000 86398 -4.7582e+001 -1.7243e+002  1.5987e+001 52542 86421,86248,86222
 3.2000e+000 86375 -8.5719e+001 -1.7638e+002 -1.8480e+000 52542 86421,86222,86300
 3.2000e+000 86352 -8.5340e+001 -1.8972e+002 -8.4437e+000 52542 86222,86326,86300
 3.2000e+000 86447 -8.6675e+000 -1.7331e+002  3.1537e+001 52542 86274,86248,86421
 3.2000e+000 86470 -4.4953e+001 -1.8325e+002  9.0280e+000 52542 86274,86421,86300
 3.2000e+000 86669 -8.5227e+001 -1.8347e+002 -3.0364e+001 52230 86692,86571,86545
 3.2000e+000 86646 -8.1736e+001 -1.7191e+002 -1.7170e+001 52230 86692,86545,86519
 3.2000e+000 86623 -1.1315e+002 -1.8093e+002 -2.8473e+001 52230 86493,86597,86519
 3.2000e+000 86718 -9.1497e+001 -1.8731e+002 -3.6152e+001 52230 86597,86571,86692
 3.2000e+000 86741 -9.7012e+001 -1.7958e+002 -2.3786e+001 52230 86597,86692,86519
 3.2000e+000 87153 -1.2780e+002 -1.7589e+002  8.8379e+000 51640 86980,87058,87032
 3.2000e+000 87130 -1.1740e+002 -1.8495e+002  5.4797e+000 51640 86928,87058,86980
 3.2000e+000 87107 -1.1394e+002 -2.5076e+002 -2.2906e+001 51640 86928,86980,86954
 3.2000e+000 87084 -9.1307e+001 -1.6057e+002 -1.4840e+000 51640 86980,87032,87006
 3.2000e+000 87659 -4.4523e+001 -1.6919e+002  1.3883e+001 51029 87682,87440,87362
 3.2000e+000 87636 -5.1906e+001 -1.8278e+002 -4.7674e+000 51029 87682,87362,87336
 3.2000e+000 87613 -7.3006e+001 -2.6338e+002 -4.8506e+000 51029 87440,87518,87466
 3.2000e+000 87590 -9.2746e+001 -1.7257e+002  1.8174e+001 51029 87362,87440,87414
 3.2000e+000 87567 -9.0435e+001 -1.6300e+002  3.8839e+001 51029 87362,87414,87388
 3.2000e+000 87544 -1.0306e+002 -2.1966e+002  8.1907e+000 51029 87466,87518,87492
 3.2000e+000 87708 -3.9273e+001 -1.9041e+002  3.9579e+000 51029 87518,87440,87682
 3.2000e+000 87731 -4.3583e+001 -2.1542e+002 -7.8630e+000 51029 87518,87682,87336
 3.2000e+000 87881 -1.0712e+002 -2.3296e+002  6.1122e+000 50739 87780,87832,87806
 3.2000e+000 87858 -1.2112e+002 -2.3126e+002 -1.0400e+001 50739 87754,87832,87780
 3.2000e+000 88468 -6.2101e+001 -1.5396e+002  7.2631e+000 50235 88171,88327,88197
 3.2000e+000 88445 -1.4733e+002 -1.5430e+002 -2.5694e+001 50235 88145,88327,88171
 3.2000e+000 88422  4.4655e+001 -7.8160e+001  3.8248e+001 50235 88275,88327,88301
 3.2000e+000 88399 -3.6826e+001 -1.1364e+002 -3.4924e+000 50235 88197,88327,88275
 3.2000e+000 88376  1.3769e+001 -1.4173e+002  4.9191e+000 50235 88197,88275,88223
 3.2000e+000 88353  3.1515e-001 -1.5674e+002  1.4241e+001 50235 88223,88275,88249
 3.2000e+000 88895 -9.6159e+001 -2.4365e+002  9.0322e+000 49873 88918,88728,88676
 3.2000e+000 88872 -8.2498e+001 -2.3432e+002 -2.1068e+000 49873 88918,88676,88624
 3.2000e+000 88849 -6.4090e+001 -2.0442e+002 -4.0499e+000 49873 88598,88754,88624
 3.2000e+000 88826 -5.0677e+001 -2.1955e+002 -5.9484e+000 49873 88624,88676,88650
 3.2000e+000 88803 -8.1809e+001 -2.9969e+002  1.0691e+001 49873 88676,88728,88702
 3.2000e+000 88780 -6.9644e+001 -1.8031e+002  1.0015e+001 49873 88572,88754,88598
 3.2000e+000 88944 -7.7856e+001 -2.3955e+002  2.7597e+000 49873 88754,88728,88918
 3.2000e+000 88967 -7.3317e+001 -2.3859e+002 -7.3668e+000 49873 88754,88918,88624
 3.2000e+000 89473 -1.5560e+002 -2.3915e+002 -2.9449e+001 49583 89176,89306,89202
 3.2000e+000 89450 -1.5378e+002 -2.3439e+002 -3.9103e+001 49583 89176,89332,89306
 3.2000e+000 89427 -9.1709e+001 -2.6434e+002  9.6714e+000 49583 89496,89228,89202
 3.2000e+000 89404 -9.0264e+001 -2.6998e+002  1.1872e+001 49583 89496,89202,89280
 3.2000e+000 89381 -1.8575e+002 -3.3521e+002 -5.8039e+001 49583 89202,89306,89280
 3.2000e+000 89358 -1.2281e+002 -2.3680e+002 -4.4991e+001 49583 89150,89332,89176
 3.2000e+000 89522 -8.5083e+001 -2.2731e+002  6.4511e+000 49583 89254,89228,89496
 3.2000e+000 89545 -1.0097e+002 -2.5958e+002  1.1815e+001 49583 89254,89496,89280
 3.2000e+000 89825  3.9122e+001 -2.3614e+002  1.1636e+001 49179 89701,89753,89727
 3.2000e+000 89802 -3.0292e+001 -2.0982e+002  1.7825e+001 49179 89675,89753,89701
 3.2000e+000 89779 -2.4221e+001 -1.8959e+002  9.1827e+000 49179 89848,89753,89675
 3.2000e+000 89874 -1.3043e+002 -2.1754e+002 -1.8662e+001 49179 89649,89753,89848
 3.2000e+000 90223 -5.7280e+001 -2.4185e+002 -1.7796e+001 48739 90024,90102,90076
 3.2000e+000 90200 -8.7702e+001 -2.4491e+002 -6.6712e+000 48739 90024,90128,90102
 3.2000e+000 90177 -4.5752e+001 -2.5797e+002 -1.0124e+001 48739 90024,90076,90050
 3.2000e+000 90154 -3.7804e+001 -2.3404e+002  1.9833e+001 48739 89998,90128,90024
 3.2000e+000 90603 -9.0745e+001 -2.2373e+002  4.1035e+001 48335 90381,90485,90459
 3.2000e+000 90580 -1.0408e+002 -2.3878e+002  3.3879e+001 48335 90355,90485,90381
 3.2000e+000 90557 -3.9462e+001 -8.3876e+001  2.7292e+001 48335 90381,90433,90407
 3.2000e+000 90534 -8.3494e+001 -2.2060e+002  4.1659e+001 48335 90381,90459,90433
 3.2000e+000 90511 -1.5186e+001 -1.7602e+002  7.1233e+001 48335 90329,90485,90355
 3.2000e+000 90753  1.5683e+001 -1.2532e+002  6.0440e+001 47824 90776,90652,90704
 3.2000e+000 90730 -1.6244e+001 -2.0017e+002  5.5807e+001 47824 90626,90704,90652
 3.2000e+000 90802 -3.5643e+001 -1.6903e+002  4.1797e+001 47824 90678,90652,90776
 3.2000e+000 91131 -7.0342e+001 -2.4906e+002  1.1125e+001 47427 91154,90958,90906
 3.2000e+000 91108 -1.2713e+002 -2.7224e+002 -6.0987e-001 47427 91154,90906,91036
 3.2000e+000 91085 -1.2420e+002 -2.1836e+002 -2.0774e+001 47427 90958,91010,90984
 3.2000e+000 91062 -7.2778e+001 -2.3183e+002  1.4612e+001 47427 90906,90958,90932
 3.2000e+000 91180 -1.0377e+002 -2.4798e+002 -2.6171e+001 47427 91010,90958,91154
 3.2000e+000 91203 -1.5863e+002 -2.7179e+002 -3.8895e+001 47427 91010,91154,91036
 3.2000e+000 91583 -1.5241e+002 -2.7977e+002 -1.5479e+001 46873 91309,91439,91335
 3.2000e+000 91560 -1.5833e+002 -2.8475e+002 -1.3132e+001 46873 91309,91465,91439
 3.2000e+000 91537 -2.2375e+002 -3.2347e+002 -7.3191e+001 46873 91361,91439,91413
 3.2000e+000 91514 -1.6566e+002 -2.8828e+002 -3.3222e+001 46873 91335,91439,91361
 3.2000e+000 91491 -7.1255e+001 -2.6627e+002 -6.0597e+001 46873 91361,91413,91387
 3.2000e+000 91880 -7.5660e+001 -2.4849e+002 -6.2846e+000 46526 91606,91710,91658
 3.2000e+000 91857 -7.8835e+001 -2.6111e+002  1.9821e+000 46526 91606,91762,91710
 3.2000e+000 91834 -4.3610e+001 -2.4061e+002 -3.0323e+001 46526 91606,91658,91632
 3.2000e+000 91811 -9.1233e+001 -2.3092e+002  4.2626e+000 46526 91658,91710,91684
 3.2000e+000 91788 -4.9328e+001 -1.7322e+002  8.6262e+000 46526 91710,91762,91736
 3.2000e+000 92211 -4.6969e+000 -1.2256e+002 -6.2516e+000 45700 91986,92064,92038
 3.2000e+000 92188 -7.0558e+001 -1.7859e+002  2.0042e+001 45700 91986,92116,92064
 3.2000e+000 92165  2.1196e+001 -9.4210e+001 -5.0166e+001 45700 91986,92038,92012
 3.2000e+000 92142 -7.3843e+001 -1.7997e+002  1.7678e+001 45700 92064,92116,92090
 3.2000e+000 92766 -1.3011e+002 -2.2818e+002  1.0292e+001 45452 92446,92602,92576
 3.2000e+000 92743 -1.9944e+002 -2.2571e+002 -3.1472e+001 45452 92420,92602,92446
 3.2000e+000 92720 -1.4912e+002 -2.3050e+002  3.5380e+001 45452 92789,92524,92498
 3.2000e+000 92697 -1.7957e+002 -2.3040e+002  2.5315e+001 45452 92789,92498,92446
 3.2000e+000 92674 -1.3996e+002 -2.5342e+002 -4.4750e+000 45452 92524,92576,92550
 3.2000e+000 92651 -2.3376e+002 -2.3340e+002  1.3533e+002 45452 92446,92498,92472
 3.2000e+000 92628 -1.3005e+002 -2.9550e+002 -8.4139e+001 45452 92394,92602,92420
 3.2000e+000 92815 -1.2833e+002 -2.4039e+002  2.7631e+001 45452 92576,92524,92789
 3.2000e+000 92838 -1.5061e+002 -2.3316e+002  2.2035e+001 45452 92576,92789,92446
 3.2000e+000 92939 -9.0777e+001 -2.9353e+002 -6.2364e+001 44998 92861,92913,92887
 3.2000e+000 93319 -3.2960e+000 -3.0546e+002  6.3150e+001 44601 93123,93201,93149
 3.2000e+000 93296 -7.7687e+001 -3.1676e+002 -3.5112e+001 44601 93045,93201,93123
 3.2000e+000 93273 -6.6729e+001 -1.7783e+002 -4.5978e+001 44601 93045,93123,93071
 3.2000e+000 93250 -6.5180e+001 -1.6722e+002 -3.2228e+001 44601 93071,93123,93097
 3.2000e+000 93227  7.5595e+000 -1.6474e+002  6.9782e+001 44601 93149,93201,93175
 3.2000e+000 93697 -5.5774e+001 -3.3753e+002  2.2897e+001 44026 93720,93553,93527
 3.2000e+000 93674 -1.1514e+002 -2.8191e+002  2.9969e+001 44026 93720,93527,93449
 3.2000e+000 93651 -1.2949e+002 -2.9341e+002 -5.4172e+000 44026 93449,93527,93501
 3.2000e+000 93628 -8.7518e+001 -2.2626e+002 -4.3256e+001 44026 93423,93579,93449
 3.2000e+000 93605 -2.4910e+001 -2.2750e+002  2.2794e+001 44026 93449,93501,93475
 3.2000e+000 93746 -1.1835e+001 -2.9791e+002  5.9238e+000 44026 93579,93553,93720
 3.2000e+000 93769 -7.4884e+001 -2.4391e+002  1.3586e+001 44026 93579,93720,93449
 3.2000e+000 94066 -5.9587e+001 -2.5808e+002 -3.7787e+001 43579 94089,93818,93792
 3.2000e+000 94043 -1.0220e+002 -2.8667e+002 -2.5025e+001 43579 94161,94089,93792
 3.2000e+000 94020 -1.0027e+002 -2.8811e+002 -1.2934e+001 43579 94161,93792,93948
 3.2000e+000 93997 -1.0807e+002 -2.2641e+002 -1.3247e+001 43579 94233,93870,93818
 3.2000e+000 93974 -5.9690e+001 -2.3046e+002  2.6336e+000 43579 93818,93870,93844
 3.2000e+000 94115 -1.0525e+002 -2.2842e+002 -2.7927e+001 43579 94233,93818,94089
 3.2000e+000 94138 -1.4298e+002 -2.5756e+002 -1.9017e+001 43579 93896,94089,93922
 3.2000e+000 94187 -9.4338e+001 -2.6849e+002 -2.4279e+001 43579 93922,94089,94161
 3.2000e+000 94210 -9.1448e+001 -2.6812e+002 -1.1071e+001 43579 93922,94161,93948
 3.2000e+000 94259 -1.2447e+002 -2.5430e+002 -6.0892e+000 43579 93896,93870,94233
 3.2000e+000 94282 -1.1498e+002 -2.4965e+002 -2.3002e+001 43579 93896,94233,94089
 3.2000e+000 94481 -8.5755e+001 -2.6393e+002 -2.3215e+000 43239 94305,94383,94357
 3.2000e+000 94458 -7.1367e+001 -2.3998e+002  3.0080e+001 43239 94305,94409,94383
 3.2000e+000 94435 -6.3393e+001 -2.7924e+002 -8.3928e+000 43239 94305,94357,94331
 3.2000e+000 94633 -5.7427e+001 -1.8188e+002  4.0558e+001 42827 94656,94532,94506
 3.2000e+000 94610 -6.4291e+001 -1.9378e+002  5.9725e+001 42827 94728,94656,94506
 3.2000e+000 94682 -1.3062e+001 -1.9606e+002  4.9178e+001 42827 94558,94532,94656
 3.2000e+000 94705  2.0848e+001 -2.1215e+002  3.2822e+001 42827 94988,94860,94656
 3.2000e+000 94754 -2.8343e+001 -1.8573e+002  1.9188e+001 42827 94988,94656,94728
 3.2000e+000 94886  8.6329e+001 -1.8654e+002  3.2675e+001 42827 94558,94656,94860
 3.2000e+000 95014  6.1537e+001 -1.8944e+002  2.2987e+001 42827 94584,94860,94988
 3.2000e+000 95037  2.1737e+001 -1.6102e+002  1.1252e+001 42827 94584,94988,94728
 3.2000e+000 95236 -7.9160e+001 -2.5089e+002  8.0799e+000 42537 95259,95112,95060
 3.2000e+000 95213 -3.8939e+001 -2.7206e+002  1.6963e+001 42537 95259,95060,95164
 3.2000e+000 95190 -6.2363e+001 -2.4258e+002 -1.3327e+001 42537 95060,95112,95086
 3.2000e+000 95285 -5.2203e+001 -2.4407e+002  2.5595e+001 42537 95138,95112,95259
 3.2000e+000 95308 -1.2115e+001 -2.5497e+002  4.0073e+001 42537 95138,95259,95164
 3.2000e+000 95816 -9.2905e+001 -2.6569e+002 -1.7039e+001 41969 95493,95597,95519
 3.2000e+000 95793 -1.4915e+002 -2.6566e+002  2.9337e+001 41969 95493,95649,95597
 3.2000e+000 95770 -1.2793e+002 -2.4358e+002  1.3211e+001 41969 95493,95675,95649
 3.2000e+000 95747 -1.4105e+002 -3.3852e+002  2.0987e+001 41969 95597,95649,95623
 3.2000e+000 95724 -1.5715e+002 -2.7400e+002 -1.5169e+001 41969 95519,95597,95571
 3.2000e+000 95701 -1.4123e+002 -2.5810e+002 -7.4007e+001 41969 95519,95571,95545
 3.2000e+000 96371 -1.1694e+002 -2.8005e+002  3.3661e+001 41579 96025,96207,96181
 3.2000e+000 96348  4.5411e+001 -2.0723e+002 -2.7400e+000 41579 95999,96207,96025
 3.2000e+000 96325 -1.3514e+002 -2.2383e+002 -2.5267e+001 41579 96129,96181,96155
 3.2000e+000 96302 -5.0160e+001 -1.9737e+002  1.3104e+000 41579 96025,96181,96129
 3.2000e+000 96279 -1.0673e+002 -2.9086e+002  3.5406e+001 41579 96025,96129,96051
 3.2000e+000 96256 -1.3286e+002 -2.8396e+002  4.2604e+001 41579 96051,96103,96077
 3.2000e+000 96233 -5.0877e+001 -2.1589e+002  3.1313e+000 41579 96051,96129,96103
 3.2000e+000 96877 -3.3248e+001 -1.7205e+002 -2.2663e+001 41182 96972,96900,96632
 3.2000e+000 96854 -2.8817e+001 -1.2561e+002 -1.8751e+001 41182 96900,96554,96736
 3.2000e+000 96831 -3.3619e+001 -1.7375e+002 -2.1856e+001 41182 96972,96632,96580
 3.2000e+000 96808 -4.9013e+001 -1.7569e+002  4.2402e+000 41182 96632,96684,96658
 3.2000e+000 96785 -4.4616e+001 -1.7767e+002  1.6800e+001 41182 96684,96736,96710
 3.2000e+000 96762 -1.0452e+002 -2.3305e+002  2.6918e+001 41182 96580,96632,96606
 3.2000e+000 96926 -2.1660e+001 -1.8666e+002 -1.8722e+001 41182 96684,96632,96900
 3.2000e+000 96949 -3.2154e+001 -1.6773e+002 -3.0457e+001 41182 96684,96900,96736
 3.2000e+000 96998 -3.3462e+001 -1.7066e+002 -1.6621e+001 41182 96554,96900,96972
 3.2000e+000 97021 -3.5913e+001 -1.7674e+002 -1.5774e+001 41182 96554,96972,96580
 3.2000e+000 97576 -1.4045e+002 -4.2576e+002 -7.5468e+001 40678 97230,97412,97282
 3.2000e+000 97553  2.1870e+001 -3.4100e+002  2.2150e+001 40678 97204,97412,97230
 3.2000e+000 97530 -7.7653e+001 -3.2437e+002 -5.2344e+001 40678 97282,97360,97308
 3.2000e+000 97507 -5.4589e+001 -3.1099e+002 -3.3174e+001 40678 97282,97412,97360
 3.2000e+000 97484 -4.6167e+001 -2.3378e+002 -4.1445e+001 40678 97308,97360,97334
 3.2000e+000 97461 -1.4412e+002 -3.8310e+002  6.1424e+000 40678 97360,97412,97386
 3.2000e+000 97438 -5.9986e+001 -2.8304e+002 -3.0650e+001 40678 97230,97282,97256
 3.2000e+000 97976 -1.2827e+002 -2.0905e+002 -4.5706e+000 40244 97702,97832,97754
 3.2000e+000 97953 -1.0726e+002 -1.9408e+002 -1.1741e+001 40244 97702,97858,97832
 3.2000e+000 97930 -1.3207e+002 -2.3478e+002 -5.5542e+001 40244 97702,97754,97728
 3.2000e+000 97907 -1.0781e+002 -2.3704e+002  2.6448e+001 40244 97780,97832,97806
 3.2000e+000 97884 -1.1614e+002 -2.0310e+002 -2.6604e+000 40244 97754,97832,97780
 3.2000e+000 98482 -8.9234e+001 -2.2210e+002  2.5677e+001 39690 98505,98185,98159
 3.2000e+000 98459 -8.5897e+001 -2.2070e+002  2.7240e+001 39690 98505,98159,98289
 3.2000e+000 98436 -1.5777e+002 -3.0717e+002  9.8060e+001 39690 98159,98315,98289
 3.2000e+000 98413 -7.1778e+001 -2.0782e+002  3.2523e+001 39690 98211,98289,98263
 3.2000e+000 98390 -4.5497e+001 -1.2901e+002  1.9478e+001 39690 98211,98263,98237
 3.2000e+000 98367 -3.8615e+001 -1.9766e+002  4.8783e+001 39690 98159,98341,98315
 3.2000e+000 98531 -9.6112e+001 -2.2167e+002  2.2893e+001 39690 98211,98185,98505
 3.2000e+000 98554 -8.9658e+001 -2.1634e+002  2.5651e+001 39690 98211,98505,98289
 3.2000e+000 99109 -6.5910e+001 -1.7941e+002 -1.0615e+001 39072 99132,98867,98789
 3.2000e+000 99086 -6.9122e+001 -1.8361e+002 -1.3148e+001 39072 99132,98789,98763
 3.2000e+000 99063 -9.9746e+001 -2.9477e+002  3.1971e+001 39072 98867,98945,98919
 3.2000e+000 99040 -5.7801e+001 -1.9058e+002 -1.7680e+000 39072 98789,98867,98841
 3.2000e+000 99017 -1.3309e+002 -2.1614e+002  9.0002e+000 39072 98867,98919,98893
 3.2000e+000 98994 -9.8272e+001 -1.8407e+002  3.9193e+001 39072 98789,98841,98815
 3.2000e+000 98971 -1.0237e+002 -2.0581e+002 -1.6194e+001 39072 98737,98945,98763
 3.2000e+000 99158 -6.3166e+001 -1.8469e+002 -1.2134e+001 39072 98945,98867,99132
 3.2000e+000 99181 -6.4859e+001 -1.8922e+002 -1.3396e+001 39072 98945,99132,98763
 3.2000e+000 99510 -5.8377e+001 -1.8202e+002  1.1672e+001 38668 99311,99389,99363
 3.2000e+000 99487 -6.1640e+001 -1.8436e+002  1.0048e+001 38668 99285,99389,99311
 3.2000e+000 99464 -1.2011e+002 -2.2099e+002  3.4130e+001 38668 99285,99415,99389
 3.2000e+000 99441 -5.5237e+001 -1.9137e+002  1.6700e+001 38668 99311,99363,99337
 3.2000e+000 99758 -3.7958e+001 -2.6454e+002  4.4593e+001 38164 99781,99611,99585
 3.2000e+000 99735 -4.4935e+001 -2.7457e+002  4.1060e+001 38164 99781,99585,99533
 3.2000e+000 99712 -3.1397e+001 -2.2820e+002  2.4069e+001 38164 99611,99663,99637
 3.2000e+000 99689 -1.5209e+001 -2.7521e+002 -1.3009e+001 38164 99533,99585,99559
 3.2000e+000 99807 -3.5666e+001 -2.7493e+002  4.3119e+001 38164 99663,99611,99781
 3.2000e+000 99830 -3.7172e+001 -2.7940e+002  4.1513e+001 38164 99663,99781,99533
 3.2000e+000 100232 -9.3255e+001 -2.2591e+002  4.0697e+000 37702 99984,100114,100088
 3.2000e+000 100209 -7.4946e+001 -2.4236e+002  2.6196e+001 37702 99958,100114,99984
 3.2000e+000 100186 -1.3791e+002 -2.8217e+002 -1.7576e+001 37702 100010,100088,100036
 3.2000e+000 100163 -9.5042e+001 -2.2709e+002  1.0737e+000 37702 99984,100088,100010
 3.2000e+000 100140 -8.7735e+001 -2.0535e+002 -5.3997e+001 37702 100036,100088,100062
 3.2000e+000 100640 -1.6807e+002 -2.4864e+002  2.9665e+001 37262 100493,100545,100519
 3.2000e+000 100617 -1.4981e+002 -2.7576e+002  1.6438e+001 37262 100441,100545,100493
 3.2000e+000 100594 -9.0085e+001 -2.2154e+002 -3.1542e+001 37262 100415,100545,100441
 3.2000e+000 100571 -1.7810e+002 -3.1759e+002 -1.1618e+001 37262 100441,100493,100467
 3.2000e+000 101146 -1.1503e+002 -1.9996e+002  1.2030e+000 36872 100823,100979,100849
 3.2000e+000 101123 -1.1263e+002 -1.8736e+002 -1.7218e+001 36872 100823,101005,100979
 3.2000e+000 101100 -1.2086e+002 -2.8591e+002  3.8728e+001 36872 101169,100901,100849
 3.2000e+000 101077 -9.3813e+001 -2.2862e+002  2.2712e+001 36872 101169,100849,100979
 3.2000e+000 101054 -6.0540e+001 -2.3066e+002 -8.2846e+000 36872 100927,100979,100953
 3.2000e+000 101031 -6.3566e+001 -3.2683e+002  5.4683e+001 36872 100849,100901,100875
 3.2000e+000 101195 -8.5755e+001 -3.0322e+002  3.1435e+000 36872 100927,100901,101169
 3.2000e+000 101218 -6.9460e+001 -2.7273e+002 -9.5706e+000 36872 100927,101169,100979
 3.2000e+000 101773 -1.5284e+002 -2.2486e+002  3.6472e+001 36418 101479,101609,101583
 3.2000e+000 101750 -1.5086e+002 -2.4747e+002  4.5754e+001 36418 101453,101609,101479
 3.2000e+000 101727 -1.0010e+002 -2.3216e+002 -3.7347e+000 36418 101796,101531,101479
 3.2000e+000 101704 -1.4012e+002 -2.5926e+002  1.5325e+001 36418 101796,101479,101583
 3.2000e+000 101681 -8.8419e+001 -2.0454e+002 -8.0967e+000 36418 101479,101531,101505
 3.2000e+000 101658 -7.9911e+000 -2.3268e+002 -8.5798e+000 36418 101401,101609,101453
 3.2000e+000 101635 -4.6681e+001 -2.8094e+002 -2.8003e+001 36418 101401,101453,101427
 3.2000e+000 101822 -1.0978e+002 -2.1222e+002 -4.1824e+001 36418 101557,101531,101796
 3.2000e+000 101845 -1.5649e+002 -2.2294e+002 -2.4871e+001 36418 101557,101796,101583
 3.2000e+000 102174  4.7705e+001 -1.0815e+002 -4.3837e+001 35914 101949,102053,101975
 3.2000e+000 102151 -8.2274e+001 -1.4653e+002 -1.3889e+001 35914 101949,102079,102053
 3.2000e+000 102128 -5.7701e+001 -1.5834e+002 -8.2749e+000 35914 101975,102053,102027
 3.2000e+000 102105  4.6196e+000 -1.0324e+002 -4.0432e+001 35914 101975,102027,102001
 3.2000e+000 102631 -4.4150e+001 -2.3359e+002  7.0782e+000 35574 102383,102513,102487
 3.2000e+000 102608 -3.1692e+001 -2.4411e+002  5.6220e+000 35574 102357,102513,102383
 3.2000e+000 102585 -5.8502e+001 -2.3482e+002  1.0097e+001 35574 102409,102487,102435
 3.2000e+000 102562 -7.7184e+001 -2.4610e+002  5.3181e+000 35574 102383,102487,102409
 3.2000e+000 102539 -8.0268e+001 -2.4451e+002 -1.3972e+001 35574 102435,102487,102461
 3.2000e+000 103009 -1.2840e+002 -2.2821e+002 -2.0286e+001 35170 102761,102865,102787
 3.2000e+000 102986 -6.9149e+001 -1.9657e+002  1.5971e+001 35170 102761,102891,102865
 3.2000e+000 102963 -1.1272e+002 -2.2778e+002 -7.3251e+000 35170 102787,102865,102813
 3.2000e+000 102940 -5.7827e+001 -1.8660e+002  2.0180e+001 35170 102735,102891,102761
 3.2000e+000 102917 -1.1121e+002 -2.2497e+002 -9.3948e+000 35170 102813,102865,102839
 3.2000e+000 103257 -2.5600e+001 -1.8243e+002 -3.7289e+001 34659 103280,103058,103032
 3.2000e+000 103234 -3.7209e+001 -2.0010e+002 -3.0266e+001 34659 103280,103032,103162
 3.2000e+000 103211 -4.2409e+001 -1.9624e+002 -1.5362e+001 34659 103084,103162,103110
 3.2000e+000 103188 -6.4353e+001 -2.2634e+002  2.2142e+000 34659 103110,103162,103136
 3.2000e+000 103306 -4.1300e+001 -1.6067e+002 -2.9245e+001 34659 103084,103058,103280
 3.2000e+000 103329 -5.2238e+001 -1.8188e+002 -2.1617e+001 34659 103084,103280,103162
 3.2000e+000 103837 -2.2096e+001 -2.4734e+002  7.9073e+000 34247 103860,103566,103540
 3.2000e+000 103814 -3.0608e+001 -2.4729e+002  7.7065e-001 34247 103932,103860,103540
 3.2000e+000 103791 -2.0274e+001 -2.7588e+002 -2.8576e+001 34247 103932,103540,103670
 3.2000e+000 103768 -2.7259e+001 -2.3152e+002  2.9486e+000 34247 103566,103618,103592
 3.2000e+000 103745 -9.7570e+001 -2.3250e+002 -3.7403e+001 34247 103540,103696,103670
 3.2000e+000 103722 -1.3086e+002 -2.5886e+002  3.6383e+001 34247 103514,103696,103540
 3.2000e+000 103886 -5.0363e+001 -2.4374e+002 -1.8486e+000 34247 103618,103566,103860
 3.2000e+000 103909 -5.8237e+001 -2.6334e+002  8.7673e+000 34247 103618,103860,103644
 3.2000e+000 103958 -5.7099e+001 -3.1617e+002 -2.2903e+000 34247 103644,103860,103932
 3.2000e+000 103981 -4.6495e+001 -3.4247e+002 -3.3076e+001 34247 103644,103932,103670
 3.2000e+000 104300 -1.2372e+002 -2.5791e+002 -1.1962e+001 33843 104052,104182,104156
 3.2000e+000 104277 -1.5445e+002 -2.4128e+002 -5.0155e+000 33843 104026,104182,104052
 3.2000e+000 104254 -1.2292e+002 -2.9522e+002  7.0999e+000 33843 104078,104156,104130
 3.2000e+000 104231 -1.5303e+002 -2.8293e+002 -8.2000e-001 33843 104052,104156,104078
 3.2000e+000 104208 -1.8436e+002 -3.1353e+002  1.0330e+001 33843 104078,104130,104104
 3.2000e+000 104499 -6.5948e+001 -2.6794e+002 -2.7590e+001 33282 104594,104522,104375
 3.2000e+000 104476 -3.7892e+001 -2.7068e+002  8.6492e+000 33282 104522,104323,104427
 3.2000e+000 104453 -5.0141e+001 -2.8141e+002 -2.5133e+001 33282 104594,104375,104349
 3.2000e+000 104548 -8.5109e+001 -2.2337e+002 -1.9003e+000 33282 104401,104375,104522
 3.2000e+000 104571 -2.9073e+001 -2.1469e+002  3.7632e+001 33282 104401,104522,104427
 3.2000e+000 104620 -4.9589e+001 -2.4137e+002 -1.9399e+001 33282 104323,104522,104594
 3.2000e+000 104643 -4.0490e+001 -2.6207e+002 -1.9760e+001 33282 104323,104594,104349
 3.2000e+000 104942 -1.2237e+002 -3.0576e+002  3.5803e+001 32728 104694,104772,104720
 3.2000e+000 104919 -9.1033e+001 -2.7916e+002  1.4078e+001 32728 104694,104824,104772
 3.2000e+000 104896 -1.5629e+002 -2.7734e+002  3.9797e+001 32728 104720,104772,104746
 3.2000e+000 104873 -6.9739e+001 -3.1201e+002  1.5495e+001 32728 104772,104824,104798
 3.2000e+000 104850 -7.0259e+001 -2.6922e+002  1.7675e+001 32728 104668,104824,104694
 3.2000e+000 105373 -9.5608e+001 -3.0290e+002 -1.3136e+001 32274 105396,105102,105076
 3.2000e+000 105350 -1.0759e+002 -3.3245e+002 -3.7992e+000 32274 105396,105076,105206
 3.2000e+000 105327 -1.3951e+002 -3.3754e+002  1.9684e+001 32274 105154,105206,105180
 3.2000e+000 105304 -3.5574e+001 -3.1396e+002 -2.8576e+001 32274 105076,105232,105206
 3.2000e+000 105281 -1.2364e+002 -2.7507e+002 -4.9099e+001 32274 105102,105154,105128
 3.2000e+000 105258 -1.7214e+002 -2.6183e+002 -5.8125e+001 32274 105050,105232,105076
 3.2000e+000 105422 -1.1506e+002 -2.7046e+002 -1.2359e+001 32274 105154,105102,105396
 3.2000e+000 105445 -1.2561e+002 -3.0006e+002 -5.0257e+000 32274 105154,105396,105206
 3.2000e+000 105644 -1.0163e+002 -2.8394e+002 -1.6748e+000 31620 105468,105546,105520
 3.2000e+000 105621 -8.3130e+001 -3.0021e+002 -1.0724e+001 31620 105468,105572,105546
 3.2000e+000 105598 -1.0304e+002 -3.1078e+002  1.8230e+001 31620 105468,105520,105494
 3.2000e+000 105794 -4.0100e+001 -2.7065e+002 -9.1162e+000 31158 105889,105817,105693
 3.2000e+000 105771 -6.0460e+001 -2.3674e+002 -1.7344e+001 31158 105817,105667,105745
 3.2000e+000 105843 -5.1030e+001 -3.3648e+002 -4.0783e+000 31158 105719,105693,105817
 3.2000e+000 105866 -3.5954e+001 -2.8420e+002 -1.5912e+001 31158 105719,105817,105745
 3.2000e+000 105915 -8.4580e+001 -2.8972e+002 -9.6316e+000 31158 105667,105817,105889
 3.2000e+000 106270 -1.1712e+002 -2.6516e+002 -5.0908e+000 30818 106293,106071,106045
 3.2000e+000 106247 -1.3779e+002 -3.1196e+002 -1.9275e+001 30818 106293,106045,106175
 3.2000e+000 106224 -9.7792e+001 -2.4251e+002  1.4550e+001 30818 106123,106175,106149
 3.2000e+000 106201 -1.2827e+002 -2.6274e+002  2.1833e+001 30818 106071,106123,106097
 3.2000e+000 106319 -1.2111e+002 -2.4688e+002  1.2578e+001 30818 106123,106071,106293
 3.2000e+000 106342 -1.2492e+002 -2.7148e+002  6.0575e-001 30818 106123,106293,106175
 3.2000e+000 106492 -1.0923e+002 -2.5410e+002  5.0219e+001 30414 106645,106391,106365
 3.2000e+000 106469 -5.0680e+001 -2.5163e+002  7.2215e+001 30414 106515,106365,106443
 3.2000e+000 106541 -7.4975e+001 -2.6129e+002  5.4963e+001 30414 106645,106365,106515
 3.2000e+000 106671 -5.9895e+001 -2.9795e+002  8.9063e+001 30414 106417,106391,106645
 3.2000e+000 106694  2.0858e+001 -2.7559e+002  7.6771e+001 30414 106417,106645,106515
 3.2000e+000 106942 -5.2741e+001 -3.6268e+002 -1.7044e+000 29910 106965,106795,106769
 3.2000e+000 106919 -4.5565e+001 -3.2530e+002  9.1355e+000 29910 106965,106769,106717
 3.2000e+000 106896 -4.7467e+001 -2.7227e+002 -3.7661e+001 29910 106795,106847,106821
 3.2000e+000 106873 -2.5210e+001 -2.8377e+002  1.7996e+001 29910 106717,106769,106743
 3.2000e+000 106991 -7.3470e+001 -3.2250e+002  3.4895e+000 29910 106847,106795,106965
 3.2000e+000 107014 -5.7934e+001 -2.7279e+002  1.3843e+001 29910 106847,106965,106717
 3.2000e+000 107213 -7.3705e+001 -2.7940e+002  1.4538e+001 29413 107236,107063,107037
 3.2000e+000 107190 -5.8404e+001 -3.3213e+002  3.3728e+001 29413 107236,107037,107141
 3.2000e+000 107167 -8.6850e+001 -1.9838e+002  4.8151e+001 29413 107063,107115,107089
 3.2000e+000 107262 -6.4569e+001 -2.4731e+002  1.3674e+001 29413 107115,107063,107236
 3.2000e+000 107285 -4.1303e+001 -2.8590e+002  3.5270e+001 29413 107115,107236,107141
 3.2000e+000 107486 -3.3676e+001 -2.5551e+002  2.3341e+001 29009 107336,107388,107362
 3.2000e+000 107463 -1.6192e+001 -2.4676e+002  7.6191e+000 29009 107310,107388,107336
 3.2000e+000 107440 -2.9370e+001 -2.3368e+002  1.0407e+001 29009 107310,107414,107388
 3.2000e+000 107736 -1.0418e+002 -2.9223e+002 -8.1407e+000 28491 107537,107615,107563
 3.2000e+000 107713 -9.3409e+001 -2.8701e+002 -5.1585e+000 28491 107537,107641,107615
 3.2000e+000 107690 -1.8485e+001 -2.9209e+002  1.7658e+001 28491 107563,107615,107589
 3.2000e+000 107667 -1.0858e+002 -2.9148e+002 -9.5720e+000 28491 107511,107641,107537
 3.2000e+000 108118 -7.4863e+001 -2.8728e+002  5.7945e+000 27980 108141,107922,107844
 3.2000e+000 108095 -5.8680e+001 -3.1915e+002  5.4438e+000 27980 108141,107844,108000
 3.2000e+000 108072 -7.4740e+001 -2.8952e+002 -8.4794e+000 27980 107844,107922,107870
 3.2000e+000 108049 -6.3896e+001 -2.5357e+002 -1.1019e+001 27980 107870,107922,107896
 3.2000e+000 108026 -1.0413e+002 -2.5802e+002  3.3046e+001 27980 107922,107974,107948
 3.2000e+000 108167 -6.4588e+001 -2.8357e+002  1.0534e+001 27980 107974,107922,108141
 3.2000e+000 108190 -1.9730e+001 -2.8729e+002  1.9771e+001 27980 107974,108141,108000
 3.2000e+000 108745 -3.6716e+001 -1.9322e+002 -3.5961e+000 27376 108840,108768,108477
 3.2000e+000 108722 -6.2990e+001 -2.3553e+002 -4.3991e+001 27376 108768,108373,108581
 3.2000e+000 108699 -5.7491e+001 -1.6847e+002  3.4840e+001 27376 108840,108477,108451
 3.2000e+000 108676 -1.3808e+002 -2.0189e+002 -8.7170e+000 27376 108373,108451,108399
 3.2000e+000 108653 -6.0709e+001 -2.4091e+002  2.9379e+001 27376 108503,108581,108529
 3.2000e+000 108630 -6.6731e+001 -2.3299e+002  3.0121e+001 27376 108529,108581,108555
 3.2000e+000 108607 -1.5659e+002 -2.1866e+002  1.5939e+001 27376 108399,108451,108425
 3.2000e+000 108794 -5.8287e+001 -2.5731e+002  3.4665e-001 27376 108503,108477,108768
 3.2000e+000 108817 -1.8601e+001 -2.3531e+002 -8.9852e+000 27376 108503,108768,108581
 3.2000e+000 108866 -1.1476e+002 -2.3799e+002 -2.1662e+001 27376 108373,108768,108840
 3.2000e+000 108889 -1.1086e+002 -2.0544e+002  1.8556e+001 27376 108373,108840,108451
 3.2000e+000 109186 -1.0437e+002 -3.0283e+002  3.3231e+001 26722 109209,108938,108912
 3.2000e+000 109163 -9.6387e+001 -2.8219e+002  2.6690e+001 26722 109281,109209,108912
 3.2000e+000 109140 -9.1497e+001 -2.7562e+002  2.4537e+001 26722 109281,108912,109042
 3.2000e+000 109117 -7.6967e+001 -3.1442e+002  2.1320e+001 26722 108938,108990,108964
 3.2000e+000 109094 -1.3867e+002 -2.4259e+002  1.1829e+001 26722 108912,109068,109042
 3.2000e+000 109235 -7.6323e+001 -2.8950e+002  2.9334e+001 26722 108990,108938,109209
 3.2000e+000 109258 -9.0173e+001 -3.1220e+002  2.3346e+001 26722 108990,109209,109016
 3.2000e+000 109307 -8.2859e+001 -2.9279e+002  1.3201e+001 26722 109016,109209,109281
 3.2000e+000 109330 -7.4420e+001 -2.8082e+002  9.5169e+000 26722 109016,109281,109042
 3.2000e+000 109732 -1.1234e+002 -2.4058e+002 -5.2254e+000 26310 109458,109588,109484
 3.2000e+000 109709 -1.0560e+002 -2.7198e+002 -2.8057e+001 26310 109458,109614,109588
 3.2000e+000 109686 -1.6497e+002 -2.8254e+002  4.1398e+001 26310 109510,109562,109536
 3.2000e+000 109663 -1.6259e+002 -2.6558e+002  1.5911e+001 26310 109484,109562,109510
 3.2000e+000 109640 -1.1730e+002 -2.4450e+002 -1.7842e+000 26310 109484,109588,109562
 3.2000e+000 110159 -8.1766e+001 -2.5378e+002 -7.2308e+000 25642 110182,109940,109914
 3.2000e+000 110136 -7.5772e+001 -2.9196e+002  3.3718e+001 25642 110182,109914,109888
 3.2000e+000 110113 -9.5553e+001 -3.1622e+002 -4.1864e+001 25642 109966,110018,109992
 3.2000e+000 110090 -1.0621e+002 -3.0419e+002  2.3254e+001 25642 110254,109966,109940
 3.2000e+000 110067 -1.3803e+002 -2.8787e+002  1.6011e+001 25642 109862,110018,109888
 3.2000e+000 110044 -1.3472e+002 -2.4561e+002  3.7118e+001 25642 109836,110018,109862
 3.2000e+000 110208 -1.0603e+002 -2.7631e+002  1.7059e+001 25642 110254,109940,110182
 3.2000e+000 110231 -1.1444e+002 -2.9573e+002  3.6311e+001 25642 110018,110182,109888
 3.2000e+000 110280 -9.4403e+001 -3.3871e+002  1.7864e+001 25642 110018,109966,110254
 3.2000e+000 110303 -1.0001e+002 -3.1784e+002  1.2523e+001 25642 110018,110254,110182
 3.2000e+000 110632 -1.2302e+002 -2.5355e+002 -1.3879e+001 25188 110407,110485,110433
 3.2000e+000 110609 -1.4826e+002 -2.5650e+002 -6.8667e+000 25188 110407,110537,110485
 3.2000e+000 110586 -1.4320e+002 -2.6490e+002 -4.9047e+001 25188 110433,110485,110459
 3.2000e+000 110563 -1.3607e+002 -2.6684e+002  3.0025e+001 25188 110485,110537,110511
 3.2000e+000 110831 -3.6934e+001 -2.5949e+002  6.6607e+000 24726 110854,110707,110655
 3.2000e+000 110808 -2.7749e+001 -2.7594e+002  2.2939e+001 24726 110854,110655,110759
 3.2000e+000 110785 -3.7716e+001 -2.6234e+002  6.6553e+000 24726 110655,110707,110681
 3.2000e+000 110880 -2.9634e+001 -2.4373e+002  8.7175e+000 24726 110733,110707,110854
 3.2000e+000 110903 -1.6618e+001 -2.5235e+002  2.6095e+001 24726 110733,110854,110759
 3.2000e+000 111234 -8.2787e+000 -1.7474e+002 -5.2934e+000 24222 111257,111087,111035
 3.2000e+000 111211  1.8928e+001 -1.6248e+002  1.6957e+001 24222 111257,111035,111009
 3.2000e+000 111188 -2.8188e+001 -9.2542e+001 -3.9510e+001 24222 111035,111087,111061
 3.2000e+000 111165 -2.6511e+001 -1.4354e+002  4.5859e+000 24222 111087,111139,111113
 3.2000e+000 111283 -2.5232e+001 -1.4696e+002  7.1118e+000 24222 111139,111087,111257
 3.2000e+000 111306 -1.3440e+001 -1.2735e+002  2.1422e+001 24222 111139,111257,111009
 3.2000e+000 111625 -4.3099e+001 -2.6141e+002 -1.6122e+001 23732 111648,111481,111455
 3.2000e+000 111602 -4.3327e+001 -2.6372e+002 -1.6237e+001 23732 111648,111455,111377
 3.2000e+000 111579  2.8027e+001 -1.4205e+002  2.6736e+001 23732 111377,111429,111403
 3.2000e+000 111556 -2.1129e+001 -2.6845e+002 -5.8125e+000 23732 111377,111455,111429
 3.2000e+000 111533 -3.6448e+001 -2.3023e+002 -6.9316e+000 23732 111351,111507,111377
 3.2000e+000 111674 -4.2770e+001 -2.5722e+002 -1.3381e+001 23732 111507,111481,111648
 3.2000e+000 111697 -4.4836e+001 -2.6224e+002 -1.3779e+001 23732 111507,111648,111377
 3.2000e+000 112156 -7.0921e+001 -2.8555e+002  1.4604e+001 23278 112179,111908,111882
 3.2000e+000 112133 -6.9188e+001 -2.6885e+002  3.0738e+000 23278 112179,111882,112012
 3.2000e+000 112110 -3.3861e+001 -3.1077e+002  9.7039e-001 23278 111908,111960,111934
 3.2000e+000 112087  1.7113e+001 -2.3584e+002 -2.8652e+001 23278 111882,112038,112012
 3.2000e+000 112064 -4.0139e+001 -2.4633e+002 -6.8997e+000 23278 111960,112012,111986
 3.2000e+000 112205 -6.5585e+001 -2.7654e+002  9.2313e-001 23278 111960,111908,112179
 3.2000e+000 112228 -5.6829e+001 -2.5675e+002 -1.1821e+001 23278 111960,112179,112012
 3.2000e+000 112685 -1.8908e+002 -4.1677e+002 -4.0524e+001 22938 112489,112567,112541
 3.2000e+000 112662 -1.6416e+002 -3.6070e+002 -3.6066e+001 22938 112437,112567,112489
 3.2000e+000 112639 -1.1083e+002 -3.1080e+002 -4.7710e+000 22938 112489,112541,112515
 3.2000e+000 112616 -1.8620e+002 -3.4692e+002 -3.2688e+001 22938 112411,112567,112437
 3.2000e+000 112593 -1.4431e+002 -4.5255e+002 -1.0432e+001 22938 112437,112489,112463
 3.2000e+000 113191 -1.5362e+001 -2.8799e+002 -3.5032e+001 22534 113214,112998,112946
 3.2000e+000 113168 -5.7663e+001 -2.5627e+002 -1.7333e+001 22534 113286,113214,112946
 3.2000e+000 113145 -4.4160e+001 -2.5665e+002 -1.4309e+001 22534 113286,112946,112920
 3.2000e+000 113122 -1.1961e+002 -2.3379e+002 -4.9265e+001 22534 113358,113024,112998
 3.2000e+000 113099 -7.4980e+001 -2.3939e+002 -4.1103e+000 22534 112868,113050,112894
 3.2000e+000 113076 -8.5529e+001 -4.2627e+002 -6.8909e+001 22534 112946,112998,112972
 3.2000e+000 113240 -8.8983e+001 -2.9697e+002 -5.2255e+001 22534 113358,112998,113214
 3.2000e+000 113263 -7.5570e+001 -2.7038e+002 -8.7087e+000 22534 113050,113214,112894
 3.2000e+000 113312 -3.9866e+001 -2.5446e+002 -1.3493e+001 22534 112894,113214,113286
 3.2000e+000 113335 -2.5421e+001 -2.5536e+002 -1.2989e+001 22534 112894,113286,112920
 3.2000e+000 113384 -8.5752e+001 -1.7522e+002 -3.5273e+001 22534 113050,113024,113358
 3.2000e+000 113407 -4.1904e+001 -2.2779e+002 -3.1291e+001 22534 113050,113358,113214
 3.2000e+000 113785 -1.3844e+002 -3.5079e+002  7.8634e+000 21978 113808,113615,113511
 3.2000e+000 113762 -1.1305e+002 -3.5601e+002  2.4531e+001 21978 113808,113511,113667
 3.2000e+000 113739 -8.5359e+001 -3.0006e+002 -1.3794e+001 21978 113511,113615,113537
 3.2000e+000 113716  2.8621e+001 -2.6648e+002 -2.6628e+001 21978 113537,113615,113589
 3.2000e+000 113693 -3.7961e+001 -3.8254e+002  6.0508e+000 21978 113537,113589,113563
 3.2000e+000 113834 -1.4230e+002 -3.4958e+002  3.9523e+001 21978 113641,113615,113808
 3.2000e+000 113857 -7.5901e+001 -3.2420e+002  5.9337e+001 21978 113641,113808,113667
 3.2000e+000 114284 -1.0879e+002 -2.9054e+002  8.7653e+000 21517 114013,114117,114039
 3.2000e+000 114261 -1.1823e+002 -2.8879e+002  2.2707e+001 21517 113961,114117,114013
 3.2000e+000 114238 -1.1460e+002 -2.9718e+002  2.2648e+001 21517 113961,114013,113987
 3.2000e+000 114215 -1.7087e+002 -3.2228e+002 -2.1582e+001 21517 114039,114117,114091
 3.2000e+000 114192 -1.2247e+002 -2.5167e+002  2.8021e+001 21517 113961,114143,114117
 3.2000e+000 114169  1.1617e+001 -2.5365e+002 -1.8145e+001 21517 114039,114091,114065
 3.2000e+000 114581 -6.0488e+001 -3.5203e+002  4.1916e+000 21027 114359,114463,114437
 3.2000e+000 114558 -3.2918e+001 -3.1885e+002  4.2263e+001 21027 114333,114463,114359
 3.2000e+000 114535 -2.6209e+001 -3.2301e+002 -8.5374e+000 21027 114359,114437,114385
 3.2000e+000 114512 -2.0658e+001 -3.1614e+002  3.4466e+001 21027 114307,114463,114333
 3.2000e+000 114489  4.6951e+001 -3.0004e+002 -1.5340e+001 21027 114385,114437,114411
 3.2000e+000 114912 -1.3760e+002 -2.9679e+002  4.5930e+000 20623 114713,114791,114765
 3.2000e+000 114889 -9.5973e+001 -2.7970e+002 -2.0507e+001 20623 114687,114791,114713
 3.2000e+000 114866 -7.2660e+001 -3.1360e+002 -2.1443e+001 20623 114687,114817,114791
 3.2000e+000 114843 -1.9709e+002 -3.5912e+002  2.9974e+001 20623 114713,114765,114739
 3.2000e+000 115290 -4.6953e+001 -2.6487e+002  1.1326e+001 20375 115313,115146,115094
 3.2000e+000 115267 -5.5036e+001 -2.6746e+002  1.5323e+001 20375 115313,115094,115042
 3.2000e+000 115244 -5.3555e+001 -2.4361e+002  5.2222e+000 20375 115385,115016,115172
 3.2000e+000 115221  5.0653e+001 -2.3116e+002  1.5641e+001 20375 115042,115094,115068
 3.2000e+000 115198 -6.4264e+001 -3.0903e+002  1.3262e+001 20375 115094,115146,115120
 3.2000e+000 115339 -7.7747e+001 -3.0375e+002 -9.0228e+000 20375 115172,115146,115313
 3.2000e+000 115362 -5.0516e+001 -2.5368e+002  2.7953e+000 20375 115385,115172,115313
 3.2000e+000 115411 -4.6569e+001 -2.5131e+002  1.5553e+001 20375 115042,115016,115385
 3.2000e+000 115434 -4.9051e+001 -2.6742e+002  1.4500e+001 20375 115042,115385,115313
 3.2000e+000 115891 -1.3492e+002 -2.6815e+002  3.2692e+001 19971 115617,115747,115643
 3.2000e+000 115868 -1.1595e+002 -2.2186e+002  3.0877e+001 19971 115617,115773,115747
 3.2000e+000 115845 -8.6103e+001 -4.0544e+002  5.5869e+000 19971 115643,115721,115695
 3.2000e+000 115822 -2.5409e+000 -2.0210e+002 -1.8100e+000 19971 115643,115747,115721
 3.2000e+000 115799 -7.3018e+001 -4.9604e+002 -3.8497e+001 19971 115643,115695,115669
 3.2000e+000 115992 -2.0513e+002 -5.3091e+002 -9.0244e+001 19659 115914,115966,115940
 3.2000e+000 116142 -2.6912e+001 -1.1219e+002  2.7261e+000 18997 116041,116093,116067
 3.2000e+000 116119 -5.8995e+001 -1.9463e+002  1.1480e+001 18997 116015,116093,116041
 3.2000e+000 116343 -5.2078e+001 -3.0624e+002 -9.1265e+000 18707 116193,116245,116219
 3.2000e+000 116320 -1.1744e+002 -3.3368e+002 -1.3230e+001 18707 116193,116271,116245
 3.2000e+000 116297 -1.0600e+002 -2.9776e+002 -2.0984e+001 18707 116167,116271,116193
 3.2000e+000 116747 -4.6946e+001 -2.7730e+002 -4.6052e+000 18301 116525,116629,116551
 3.2000e+000 116724 -4.1823e+001 -2.4052e+002  2.4271e+000 18301 116473,116629,116525
 3.2000e+000 116701 -3.5423e+001 -2.4182e+002 -1.6683e+001 18301 116473,116525,116499
 3.2000e+000 116678 -2.8916e+001 -2.8998e+002 -5.1005e+000 18301 116551,116603,116577
 3.2000e+000 116655 -5.6905e+001 -3.0081e+002 -1.0909e+001 18301 116551,116629,116603
 3.2000e+000 117147 -1.4552e+002 -3.3291e+002 -1.1513e+000 17747 116899,117029,116925
 3.2000e+000 117124 -7.7539e+001 -2.4449e+002  3.3138e+001 17747 116873,117029,116899
 3.2000e+000 117101 -1.4378e+002 -3.2991e+002 -4.2610e-001 17747 116925,117029,116951
 3.2000e+000 117078 -1.2652e+002 -2.8687e+002 -4.2151e-001 17747 116951,117029,117003
 3.2000e+000 117055 -1.6804e+002 -3.7036e+002 -2.2756e+001 17747 116951,117003,116977
 3.2000e+000 117368  1.4441e+001 -3.0812e+002  6.9608e+000 17293 117244,117296,117270
 3.2000e+000 117345 -2.5290e+001 -3.1946e+002 -4.1581e+000 17293 117192,117296,117244
 3.2000e+000 117322 -5.6805e+001 -2.9993e+002 -3.5755e+000 17293 117192,117244,117218
 3.2000e+000 117699 -2.5082e+001 -2.4513e+002 -2.9940e+001 16896 117526,117604,117552
 3.2000e+000 117676 -1.6103e+002 -3.7760e+002  2.3750e+001 16896 117500,117604,117526
 3.2000e+000 117653 -1.7048e+002 -2.9896e+002 -1.5287e+001 16896 117552,117604,117578
 3.2000e+000 117630 -1.4691e+002 -4.8833e+002  4.1166e+001 16896 117474,117604,117500
 3.2000e+000 117849 -3.4944e+002 -6.7313e+002 -2.5648e+001 16534 117722,117774,117748
 3.2000e+000 117826 -2.7558e+002 -8.1855e+002 -1.1069e+002 16534 117722,117800,117774
 3.2000e+000 118070 -3.5862e+001 -3.0044e+002  3.0369e+001 16194 117946,117998,117972
 3.2000e+000 118047 -6.6492e+001 -3.5186e+002  1.7439e+001 16194 117894,117998,117946
 3.2000e+000 118024 -8.6957e+001 -3.2277e+002 -6.4206e+000 16194 117894,117946,117920
 3.2000e+000 118173 -3.0984e+001 -3.1931e+002  0.0000e+000 15968 118095,118147,118121
 3.2000e+000 118276 -9.8884e+001 -3.2381e+002  3.0417e+000 15433 118299,118198,118250
 3.2000e+000 118325 -1.0127e+002 -3.2937e+002  3.0970e+000 15433 118224,118198,118299
 3.2000e+000 118450 -1.6333e+002 -3.6405e+002  3.5579e+001 421 118372,118424,118398
 3.3000e+000 69891 -6.7879e+001 -4.0511e+002  1.4828e+001 68988 69447,69681,69629
 3.3000e+000 69868  3.1593e+001 -3.6290e+002  1.2423e+001 68988 69421,69681,69447
 3.3000e+000 69845  3.7080e+000 -1.9965e+002  7.8317e-001 68988 69447,69629,69577
 3.3000e+000 69822 -1.1523e+002 -4.2237e+002 -4.7672e+001 68988 69447,69577,69473
 3.3000e+000 69799 -1.6068e+001 -4.8020e+002  7.7247e+001 68988 69629,69681,69655
 3.3000e+000 69776 -1.2339e+002 -2.5448e+002  5.0298e+000 68988 69577,69629,69603
 3.3000e+000 69753 -9.0542e+001 -3.7581e+002 -5.7511e+001 68988 69473,69577,69551
 3.3000e+000 69730 -1.3803e+002 -7.5725e+002 -7.5995e+001 68988 69473,69551,69525
 3.3000e+000 69707 -2.3134e+002 -5.0017e+002  8.6037e-001 68988 69473,69525,69499
 3.3000e+000 69992 -2.2841e+002 -4.3497e+002 -5.9179e+001 68676 69914,69966,69940
 3.3000e+000 70392 -1.5610e+002 -3.3231e+002  2.5492e+001 68478 70118,70248,70144
 3.3000e+000 70369  9.1782e+000 -3.3760e+002  7.2079e+001 68478 70118,70274,70248
 3.3000e+000 70346 -9.4681e+001 -2.5005e+002 -1.3925e+000 68478 70144,70222,70196
 3.3000e+000 70323 -7.8761e+001 -2.0899e+002 -1.0567e+001 68478 70144,70248,70222
 3.3000e+000 70300 -1.0425e+002 -2.7580e+002 -6.1129e+000 68478 70144,70196,70170
 3.3000e+000 70841  6.2972e+001 -2.1995e+002 -6.3058e+001 68280 70570,70622,70596
 3.3000e+000 70818 -1.0871e+002 -2.5144e+002 -1.4868e+001 68280 70544,70622,70570
 3.3000e+000 70795 -7.9090e+001 -1.8505e+002 -8.8463e+000 68280 70544,70674,70622
 3.3000e+000 70772 -6.9284e+001 -1.6414e+002  3.2985e+000 68280 70622,70674,70648
 3.3000e+000 70749 -1.1471e+002 -2.8142e+002  2.1224e+001 68280 70518,70674,70544
 3.3000e+000 70726  1.0079e+002 -2.9337e+002  8.4247e+001 68280 70518,70700,70674
 3.3000e+000 70991 -1.2886e+001 -1.1878e+003  3.5490e+001 67968 70864,70916,70890
 3.3000e+000 70968 -3.1419e+002 -1.1805e+003  1.3608e+002 67968 70864,70942,70916
 3.3000e+000 71141 -5.5676e+002 -1.0699e+003 -4.9946e+001 67770 71040,71092,71066
 3.3000e+000 71118 -4.8638e+002 -1.2839e+003  5.6152e+001 67770 71014,71092,71040
 3.3000e+000 71651 -7.2405e+001 -2.2444e+002 -4.0887e+001 67366 71746,71674,71458
 3.3000e+000 71628 -4.4349e+001 -1.8244e+002 -4.4161e+001 67366 71674,71354,71510
 3.3000e+000 71605 -6.4682e+001 -2.4733e+002 -3.8575e+001 67366 71746,71458,71432
 3.3000e+000 71582 -1.0455e+002 -2.5320e+002  9.8549e+000 67366 71354,71432,71380
 3.3000e+000 71559 -1.1540e+002 -1.7854e+002 -2.6144e+001 67366 71380,71432,71406
 3.3000e+000 71536 -5.0546e+001 -7.1070e+001 -5.8037e+000 67366 71328,71510,71354
 3.3000e+000 71700 -8.2732e+001 -2.0424e+002 -1.8485e+001 67366 71484,71458,71674
 3.3000e+000 71723 -5.3200e+001 -1.9106e+002 -1.5788e+001 67366 71484,71674,71510
 3.3000e+000 71772 -6.3086e+001 -1.9728e+002 -3.6109e+001 67366 71354,71674,71746
 3.3000e+000 71795 -5.4599e+001 -2.1765e+002 -3.6543e+001 67366 71354,71746,71432
 3.3000e+000 71896 -2.3086e+002 -4.9450e+002  0.0000e+000 67146 71818,71870,71844
 3.3000e+000 71997 -2.7720e+002 -4.0306e+002  8.0391e+001 66948 71919,71971,71945
 3.3000e+000 72149 -5.9930e+000 -2.8868e+002 -3.4177e+001 66700 72172,72074,72048
 3.3000e+000 72126 -9.3295e+001 -3.2498e+002 -1.3289e+001 66700 72172,72048,72022
 3.3000e+000 72198 -1.5329e+002 -3.5781e+002  2.4030e+001 66700 72244,72172,72100
 3.3000e+000 72221 -1.3666e+002 -3.2691e+002 -2.0071e+001 66700 72100,72172,72022
 3.3000e+000 72270 -7.6601e+001 -1.8994e+002 -2.3242e+001 66700 72074,72172,72244
 3.3000e+000 72623 -9.8905e+001 -3.0065e+002  8.3464e+000 66502 72424,72502,72450
 3.3000e+000 72600 -8.1272e+001 -2.5133e+002  4.8392e+000 66502 72398,72502,72424
 3.3000e+000 72577 -5.8773e+001 -2.8492e+002 -5.1598e+000 66502 72398,72528,72502
 3.3000e+000 72554 -9.5796e+001 -2.6531e+002 -2.4159e+000 66502 72450,72502,72476
 3.3000e+000 72920 -1.6756e+002 -3.4866e+002  8.6960e+000 65941 72672,72776,72750
 3.3000e+000 72897 -1.6722e+002 -2.9986e+002  3.3506e+001 65941 72646,72776,72672
 3.3000e+000 72874 -1.4727e+002 -3.4305e+002  1.1448e+001 65941 72672,72750,72724
 3.3000e+000 72851 -1.4895e+002 -2.7042e+002  2.6009e+001 65941 72672,72724,72698
 3.3000e+000 72828 -1.2799e+002 -2.9886e+002  3.0927e+001 65941 72646,72802,72776
 3.3000e+000 73241 -2.5422e+001 -2.5046e+002  2.1140e+001 65743 73264,73071,73045
 3.3000e+000 73218 -9.5750e+001 -2.8170e+002  2.8003e+001 65743 73480,73264,73045
 3.3000e+000 73195 -8.0531e+001 -2.5528e+002 -3.8859e+000 65743 73336,72967,73097
 3.3000e+000 73172 -1.4863e+002 -2.3268e+002 -2.8252e+001 65743 73408,72993,72967
 3.3000e+000 73149 -6.8292e+001 -2.5547e+002 -3.9981e+000 65743 72967,73123,73097
 3.3000e+000 73290 -5.5760e+001 -2.6512e+002  5.3382e+000 65743 73097,73071,73264
 3.3000e+000 73313 -6.6303e+001 -2.4112e+002  1.1868e+001 65743 73336,73097,73264
 3.3000e+000 73362 -1.2627e+002 -2.6315e+002 -1.9181e+001 65743 73408,72967,73336
 3.3000e+000 73385 -5.7125e+001 -2.3947e+002 -1.3107e-001 65743 73019,73336,73264
 3.3000e+000 73434 -1.1145e+002 -1.7725e+002  1.3580e+001 65743 73019,72993,73408
 3.3000e+000 73457 -5.8798e+001 -2.1701e+002  9.0438e+000 65743 73019,73408,73336
 3.3000e+000 73506 -3.6150e+001 -1.7801e+002  3.8886e+000 65743 73019,73264,73480
 3.3000e+000 73989 -7.6098e+000 -1.9704e+002  2.4338e+001 65453 73793,73845,73819
 3.3000e+000 73966 -1.0304e+002 -2.2211e+002  2.8143e+001 65453 73741,73845,73793
 3.3000e+000 73943 -2.3728e+001 -1.7855e+002  1.1276e+001 65453 73715,73845,73741
 3.3000e+000 73920 -8.0760e+001 -2.3677e+002  4.6566e+001 65453 73741,73793,73767
 3.3000e+000 73897  7.7369e+000 -1.0976e+002  2.6642e+000 65453 73715,73871,73845
 3.3000e+000 74357 -5.9910e+001 -2.6260e+002 -7.3967e+001 65141 74380,74138,74086
 3.3000e+000 74334 -1.1530e+002 -3.5503e+002 -4.9696e+001 65141 74380,74086,74060
 3.3000e+000 74311 -1.3052e+002 -3.4566e+002 -1.2674e+001 65141 74138,74190,74164
 3.3000e+000 74288 -9.8669e+001 -3.8603e+002 -1.5178e+001 65141 74060,74216,74190
 3.3000e+000 74265 -1.0521e+002 -4.0744e+002  5.9557e+000 65141 74034,74216,74060
 3.3000e+000 74242 -7.9900e+001 -2.0458e+002 -4.7524e+001 65141 74086,74138,74112
 3.3000e+000 74406 -9.3995e+001 -3.4462e+002 -2.9375e+001 65141 74190,74138,74380
 3.3000e+000 74429 -1.1115e+002 -3.7656e+002 -1.3542e+001 65141 74190,74380,74060
 3.3000e+000 74937 -1.2975e+002 -2.6635e+002 -6.9037e+001 64737 74614,74666,74640
 3.3000e+000 74914 -1.5919e+002 -3.2803e+002 -5.1593e+001 64737 74614,74796,74666
 3.3000e+000 74891 -1.1377e+002 -2.2832e+002 -9.9131e+000 64737 74960,74718,74666
 3.3000e+000 74868 -9.8542e+001 -2.5069e+002 -3.1534e+001 64737 74960,74666,74770
 3.3000e+000 74845 -1.0136e+002 -1.9942e+002 -3.3420e+001 64737 74666,74796,74770
 3.3000e+000 74822 -1.1184e+002 -2.4788e+002  2.3459e+000 64737 74666,74718,74692
 3.3000e+000 74986 -1.2299e+002 -2.5141e+002 -8.9984e+000 64737 74744,74718,74960
 3.3000e+000 75009 -1.1326e+002 -2.8509e+002 -3.1077e+001 64737 74744,74960,74770
 3.3000e+000 75306 -4.2710e+001 -2.3261e+002  3.2435e+001 64133 75329,75110,75084
 3.3000e+000 75283 -6.7773e+001 -2.6839e+002  1.3240e+001 64133 75401,75329,75084
 3.3000e+000 75260 -6.6165e+001 -2.7781e+002  1.5378e+001 64133 75401,75084,75058
 3.3000e+000 75237 -5.8949e+001 -3.0727e+002  2.9981e+001 64133 75473,75136,75110
 3.3000e+000 75214 -7.5398e+001 -2.4437e+002  4.6523e+000 64133 75032,75188,75162
 3.3000e+000 75355 -6.6804e+001 -2.9072e+002  2.4130e+001 64133 75473,75110,75329
 3.3000e+000 75378 -5.5898e+001 -2.5421e+002  4.0073e+000 64133 75162,75329,75032
 3.3000e+000 75427 -5.3521e+001 -2.4920e+002  5.6487e+000 64133 75032,75329,75401
 3.3000e+000 75450 -1.1304e+002 -3.0823e+002  3.6710e+001 64133 75545,75401,75058
 3.3000e+000 75499 -6.1216e+001 -2.8592e+002  6.4561e+000 64133 75162,75136,75473
 3.3000e+000 75522 -6.3764e+001 -2.5321e+002  7.0977e+000 64133 75162,75473,75329
 3.3000e+000 75571 -5.0835e+001 -1.7218e+002  1.2852e+001 64133 75032,75401,75545
 3.3000e+000 75851 -9.1556e+001 -2.4663e+002  2.3854e+000 63843 75874,75753,75727
 3.3000e+000 75828 -8.0252e+001 -2.5007e+002 -1.6051e+001 63843 75946,75874,75727
 3.3000e+000 75805 -9.4158e+001 -2.6985e+002 -7.2100e+000 63843 76018,75946,75727
 3.3000e+000 75900 -6.6873e+001 -2.3613e+002 -5.6659e+000 63843 75779,75753,75874
 3.3000e+000 75923 -7.4321e+001 -2.0500e+002 -2.8913e+001 63843 75779,75874,75675
 3.3000e+000 75972 -9.3970e+001 -2.3237e+002 -1.2364e+001 63843 75675,75874,75946
 3.3000e+000 75995 -8.3810e+001 -2.4576e+002 -2.1021e+001 63843 75675,75946,75701
 3.3000e+000 76044 -9.4471e+001 -2.5667e+002 -2.6741e+001 63843 75701,75946,76018
 3.3000e+000 76454  2.3698e+001 -4.3642e+001 -3.3513e+001 63439 76477,76255,76229
 3.3000e+000 76431 -2.0585e+001 -1.2079e+002 -6.0377e+000 63439 76477,76229,76359
 3.3000e+000 76408 -3.4623e+001 -9.4014e+001  5.2204e+001 63439 76307,76359,76333
 3.3000e+000 76385 -1.4121e+001 -1.2785e+002  5.5066e+000 63439 76255,76307,76281
 3.3000e+000 76503 -1.9247e+001 -1.0354e+002  1.2826e+001 63439 76307,76255,76477
 3.3000e+000 76526 -1.8949e+001 -1.3447e+002  3.2373e+001 63439 76307,76477,76359
 3.3000e+000 76926 -5.4721e+001 -1.9161e+002 -4.4938e+000 63049 76704,76782,76756
 3.3000e+000 76903 -8.3222e+001 -1.9937e+002 -2.1195e+001 63049 76704,76808,76782
 3.3000e+000 76880 -5.7549e+001 -2.2452e+002  2.7350e+000 63049 76704,76756,76730
 3.3000e+000 76857 -5.1567e+001 -1.2558e+002  7.4237e+000 63049 76678,76808,76704
 3.3000e+000 76834 -2.5249e+001 -3.0564e+001 -2.8778e+001 63049 76652,76808,76678
 3.3000e+000 77076 -1.8150e+001 -2.8827e+002 -1.5722e+000 62737 76975,77027,77001
 3.3000e+000 77053 -1.7881e+001 -3.2409e+002 -2.0517e+001 62737 76949,77027,76975
 3.3000e+000 77324 -1.2915e+002 -2.9298e+002 -4.8484e+000 62277 77347,77177,77125
 3.3000e+000 77301 -1.2196e+002 -2.8331e+002 -1.5672e+001 62277 77347,77125,77229
 3.3000e+000 77278 -1.1731e+002 -2.9118e+002 -2.0891e+001 62277 77099,77229,77125
 3.3000e+000 77255 -1.3360e+002 -3.6137e+002  1.8293e+000 62277 77125,77177,77151
 3.3000e+000 77373 -1.3458e+002 -3.1919e+002  1.0213e+001 62277 77203,77177,77347
 3.3000e+000 77396 -1.0802e+002 -2.9459e+002 -4.2318e+000 62277 77203,77347,77229
 3.3000e+000 77857 -5.8800e+001 -3.5826e+002  3.4159e+000 61758 77635,77739,77661
 3.3000e+000 77834 -9.6330e+001 -3.4845e+002 -1.6812e+001 61758 77583,77739,77635
 3.3000e+000 77811 -1.0972e+002 -4.3149e+002 -4.4452e+001 61758 77583,77635,77609
 3.3000e+000 77788 -8.8464e+001 -3.3621e+002  2.8486e+001 61758 77661,77713,77687
 3.3000e+000 77765 -9.1535e+001 -3.9506e+002  2.8751e+001 61758 77661,77739,77713
 3.3000e+000 78491 -9.7726e+001 -2.0449e+002  1.1354e+001 61418 78171,78301,78249
 3.3000e+000 78468 -8.1029e+001 -1.7125e+002  2.4389e+001 61418 78145,78301,78171
 3.3000e+000 78445 -7.2212e+001 -1.8011e+002 -1.1604e+001 61418 78171,78249,78223
 3.3000e+000 78422 -7.6397e+001 -1.6885e+002  1.0110e+001 61418 78145,78327,78301
 3.3000e+000 78399 -1.0045e+002 -2.2541e+002 -9.6538e-001 61418 78249,78301,78275
 3.3000e+000 78376 -4.5837e+001 -1.9012e+002 -1.6341e+001 61418 78171,78223,78197
 3.3000e+000 78353 -9.5676e+001 -2.1744e+002 -3.8847e+000 61418 78119,78327,78145
 3.3000e+000 78690 -1.0904e+002 -2.5459e+002 -4.8723e+000 61014 78713,78566,78540
 3.3000e+000 78667 -6.9371e+001 -2.5843e+002 -2.5885e+000 61014 78713,78540,78618
 3.3000e+000 78644 -1.1987e+002 -2.9197e+002 -2.9093e+001 61014 78514,78618,78540
 3.3000e+000 78739 -5.3423e+001 -2.4685e+002  2.5520e+001 61014 78592,78566,78713
 3.3000e+000 78762 -6.1792e+001 -2.7436e+002  3.1491e-001 61014 78785,78713,78618
 3.3000e+000 78811 -1.9104e+001 -2.5783e+002 -4.7893e+000 61014 78592,78713,78785
 3.3000e+000 79398 -4.3896e+001 -2.1951e+002 -2.4850e+001 60624 79101,79179,79153
 3.3000e+000 79375 -6.3336e+001 -2.4568e+002 -1.3688e+001 60624 79101,79231,79179
 3.3000e+000 79352 -5.0425e+001 -2.4522e+002 -2.0284e+001 60624 79075,79231,79101
 3.3000e+000 79329 -1.4951e+001 -2.9813e+002  3.3209e+001 60624 79075,79257,79231
 3.3000e+000 79306 -4.6666e+001 -1.8000e+002 -4.7298e+001 60624 79179,79231,79205
 3.3000e+000 79283 -3.2036e+001 -1.9401e+002 -1.1546e+001 60624 79101,79153,79127
 3.3000e+000 79776 -1.1472e+002 -3.2204e+002  3.1487e+001 60070 79528,79658,79606
 3.3000e+000 79753 -1.0212e+002 -2.4791e+002 -2.1341e+000 60070 79502,79658,79528
 3.3000e+000 79730 -1.4394e+002 -3.1101e+002  4.4922e+001 60070 79528,79606,79580
 3.3000e+000 79707 -2.5696e+001 -2.6850e+002  5.2153e+000 60070 79606,79658,79632
 3.3000e+000 79684 -1.2590e+001 -1.9140e+002 -4.9311e+001 60070 79528,79580,79554
 3.3000e+000 80105 -7.7421e+001 -2.4647e+002  3.1466e+001 59758 80128,79958,79906
 3.3000e+000 80082 -8.5825e+001 -2.3248e+002  2.3887e+001 59758 80128,79906,80010
 3.3000e+000 80059 -1.1517e+002 -2.5683e+002  9.0230e+001 59758 79906,79958,79932
 3.3000e+000 80036 -1.3071e+002 -2.6912e+002  7.8349e+000 59758 79880,80010,79906
 3.3000e+000 80154 -8.2145e+001 -2.5521e+002  2.9666e+001 59758 79984,79958,80128
 3.3000e+000 80177 -9.1867e+001 -2.4444e+002  2.1795e+001 59758 79984,80128,80010
 3.3000e+000 80376 -6.4721e+001 -2.5026e+002  4.4798e+000 59312 80226,80304,80252
 3.3000e+000 80353 -6.7093e+001 -2.5057e+002  3.6473e+000 59312 80200,80304,80226
 3.3000e+000 80330 -1.0309e+002 -2.2449e+002  6.7561e+001 59312 80252,80304,80278
 3.3000e+000 80805 -9.0596e+001 -2.0542e+002 -3.2711e+001 58908 80900,80828,80638
 3.3000e+000 80782 -7.7585e+001 -2.4214e+002 -4.9373e+001 58908 80828,80560,80508
 3.3000e+000 80759 -9.4665e+001 -1.9197e+002 -1.0803e+001 58908 80900,80638,80612
 3.3000e+000 80736 -4.0713e+001 -2.1091e+002  8.3502e+001 58908 80482,80664,80508
 3.3000e+000 80713 -6.2928e+001 -1.7904e+002 -3.1153e+000 58908 80560,80612,80586
 3.3000e+000 80690 -8.5796e+001 -5.7261e+002 -1.1245e+002 58908 80508,80560,80534
 3.3000e+000 80854 -4.3652e+001 -2.2201e+002 -5.4171e-001 58908 80664,80638,80828
 3.3000e+000 80877 -7.2831e+001 -3.2032e+002  4.9218e+000 58908 80664,80828,80508
 3.3000e+000 80926 -7.7058e+001 -1.6568e+002 -3.4814e+001 58908 80560,80828,80900
 3.3000e+000 80949 -8.6429e+001 -1.6543e+002 -9.8593e+000 58908 80560,80900,80612
 3.3000e+000 81246 -3.0114e+001 -1.8977e+002 -4.6468e+000 58482 81076,81128,81102
 3.3000e+000 81223 -8.4273e+001 -3.2488e+002 -3.2528e+001 58482 80972,81128,81076
 3.3000e+000 81200 -5.2730e+001 -2.2098e+002 -3.4792e+001 58482 80972,81076,81050
 3.3000e+000 81177 -1.2269e+002 -3.4438e+002 -5.8250e+000 58482 80998,81050,81024
 3.3000e+000 81154 -6.3166e+001 -2.7774e+002 -3.1046e+001 58482 80972,81050,80998
 3.3000e+000 81754 -9.5711e+001 -2.0239e+002  1.6653e+001 57828 81457,81613,81483
 3.3000e+000 81731 -1.0893e+002 -2.2692e+002  8.2545e+000 57828 81431,81613,81457
 3.3000e+000 81708 -1.0460e+002 -2.2315e+002  1.7599e+001 57828 81483,81613,81509
 3.3000e+000 81685 -1.2563e+002 -2.5481e+002  2.6890e+001 57828 81509,81613,81587
 3.3000e+000 81662 -1.3223e+002 -3.7148e+002  5.2691e+001 57828 81509,81587,81535
 3.3000e+000 81639 -7.7761e+001 -3.5513e+002  3.4413e+001 57828 81535,81587,81561
 3.3000e+000 82002 -1.5741e+002 -3.8305e+002 -2.2675e+000 57374 82025,81855,81829
 3.3000e+000 81979 -1.6837e+002 -3.6383e+002  1.3986e+001 57374 82025,81829,81907
 3.3000e+000 81956 -1.7650e+002 -3.3563e+002  5.1783e+000 57374 81803,81907,81829
 3.3000e+000 81933 -1.1081e+002 -3.1211e+002  7.7304e+000 57374 81777,81907,81803
 3.3000e+000 82051 -1.5070e+002 -3.5979e+002 -5.8284e+000 57374 81881,81855,82025
 3.3000e+000 82074 -1.6222e+002 -3.4529e+002  1.5337e+001 57374 81881,82025,81907
 3.3000e+000 82356 -8.1697e+001 -1.9782e+002 -1.7309e+001 56913 82180,82232,82206
 3.3000e+000 82333 -6.4543e+001 -1.7781e+002  2.0926e+001 56913 82180,82284,82232
 3.3000e+000 82310 -2.4230e+001 -1.5792e+002  3.4959e+001 56913 82379,82232,82284
 3.3000e+000 82405  2.1564e+001 -1.5219e+002  7.4893e+000 56913 82258,82232,82379
 3.3000e+000 82764 -8.4866e+001 -1.3423e+002 -1.3436e+001 56523 82614,82666,82640
 3.3000e+000 82741 -7.1515e+001 -1.3495e+002 -2.0488e+001 56523 82614,82692,82666
 3.3000e+000 82718 -6.1520e+001 -1.4515e+002 -4.2214e+001 56523 82588,82692,82614
 3.3000e+000 83368 -2.1469e+001 -2.6222e+002 -1.2746e+001 55969 82973,83155,83129
 3.3000e+000 83345  3.4803e+000 -2.5209e+002 -1.5560e+001 55969 82973,83181,83155
 3.3000e+000 83322 -6.9251e+001 -2.3061e+002 -1.0920e+001 55969 82973,83129,82999
 3.3000e+000 83299 -1.1070e+002 -2.3774e+002  6.7417e+000 55969 83391,83025,82999
 3.3000e+000 83276 -9.1165e+001 -2.4345e+002 -2.9184e-001 55969 83391,82999,83129
 3.3000e+000 83253 -2.4281e+001 -2.0073e+002  3.5095e+001 55969 83077,83129,83103
 3.3000e+000 83230 -1.0805e+002 -1.8482e+002 -1.3375e+001 55969 83025,83077,83051
 3.3000e+000 83207 -2.2749e+000 -2.4325e+002  2.4672e+001 55969 82947,83181,82973
 3.3000e+000 83417 -9.1791e+001 -2.2807e+002  1.0266e+001 55969 83077,83025,83391
 3.3000e+000 83440 -8.4855e+001 -2.3983e+002  1.1712e+000 55969 83077,83391,83129
 3.3000e+000 83946 -1.6208e+002 -3.3896e+002  5.9892e+001 55771 83969,83779,83727
 3.3000e+000 83923 -1.2798e+002 -2.7618e+002  2.6630e+001 55771 83969,83727,83623
 3.3000e+000 83900 -1.5462e+002 -1.6017e+002  1.4942e+001 55771 83623,83727,83649
 3.3000e+000 83877 -7.5203e+001 -5.6049e+002  4.7048e+001 55771 83727,83779,83753
 3.3000e+000 83854 -2.5487e+002 -2.6938e+002  1.0652e+002 55771 83675,83727,83701
 3.3000e+000 83831 -2.3979e+002 -2.6324e+002  1.0892e+002 55771 83649,83727,83675
 3.3000e+000 83995 -1.4331e+002 -3.4794e+002 -2.2585e+001 55771 83805,83779,83969
 3.3000e+000 84018 -6.7913e+001 -2.1737e+002 -6.3363e+001 55771 83805,83969,83623
 3.3000e+000 84168 -6.6640e+001 -1.7958e+002 -5.5740e+000 55367 84191,84067,84041
 3.3000e+000 84145 -6.5423e+001 -2.0268e+002 -3.6505e+000 55367 84191,84041,84119
 3.3000e+000 84217 -7.1398e+001 -1.6603e+002 -5.1538e+000 55367 84093,84067,84191
 3.3000e+000 84240 -6.2874e+001 -1.7947e+002  3.2860e+000 55367 84093,84191,84119
 3.3000e+000 84571 -3.6320e+001 -2.9948e+002 -3.1450e+001 54913 84398,84450,84424
 3.3000e+000 84548 -2.3387e+001 -2.7192e+002 -1.5711e+001 54913 84372,84450,84398
 3.3000e+000 84525 -6.7574e+001 -3.0819e+002  1.1270e+001 54913 84346,84450,84372
 3.3000e+000 84502 -1.8097e+001 -1.9484e+002 -2.5275e+001 54913 84346,84476,84450
 3.3000e+000 85126 -1.4555e+002 -3.2827e+002 -1.3261e+001 54402 84858,84936,84910
 3.3000e+000 85103 -1.1070e+002 -2.5681e+002 -3.3386e+001 54402 84806,84936,84858
 3.3000e+000 85080 -1.2803e+002 -2.3286e+002 -2.5788e+001 54402 84780,84936,84806
 3.3000e+000 85057 -1.1094e+002 -2.8401e+002 -1.6737e+001 54402 84806,84858,84832
 3.3000e+000 85034 -1.1459e+002 -2.1951e+002  8.5643e+000 54402 84780,84962,84936
 3.3000e+000 85011 -1.7957e+002 -1.9474e+002 -8.1000e+000 54402 84858,84910,84884
 3.3000e+000 84988 -1.1154e+002 -2.0943e+002  8.2809e+000 54402 84754,84962,84780
 3.3000e+000 85396 -1.0864e+002 -1.3306e+002 -9.9687e+000 53998 85197,85249,85223
 3.3000e+000 85373 -8.2405e+001 -1.7166e+002 -2.1910e+000 53998 85197,85275,85249
 3.3000e+000 85350 -1.0477e+002 -2.0142e+002 -1.2380e+001 53998 85171,85275,85197
 3.3000e+000 85327 -4.7296e+001 -1.8707e+002 -1.5544e+001 53998 85171,85301,85275
 3.3000e+000 85749 -6.6947e+001 -2.4734e+002 -4.9029e+000 53636 85524,85628,85550
 3.3000e+000 85726 -1.0781e+002 -2.7313e+002  8.9520e+000 53636 85524,85654,85628
 3.3000e+000 85703 -3.8963e+001 -2.6646e+002 -2.5079e+001 53636 85550,85602,85576
 3.3000e+000 85680 -6.6350e+001 -2.4524e+002 -1.2125e+001 53636 85550,85628,85602
 3.3000e+000 86127 -2.4769e+001 -2.3707e+002  3.6796e+001 52982 86150,85957,85879
 3.3000e+000 86104 -7.5119e+001 -2.7601e+002  1.9736e+001 52982 86150,85879,85853
 3.3000e+000 86081 -2.3528e+001 -3.4583e+002  6.9737e+001 52982 85957,86009,85983
 3.3000e+000 86058 -9.6009e+001 -2.5270e+002  2.9104e+001 52982 85879,85957,85931
 3.3000e+000 86035 -5.6831e+001 -2.4025e+002 -1.4846e+001 52982 85879,85931,85905
 3.3000e+000 86176  8.7725e+000 -2.7979e+002  3.0159e+001 52982 86009,85957,86150
 3.3000e+000 86199 -2.1174e+001 -3.0725e+002  1.8665e+001 52982 86009,86150,85853
 3.3000e+000 86398 -5.0529e+001 -1.8095e+002  1.6433e+001 52542 86421,86248,86222
 3.3000e+000 86375 -9.0063e+001 -1.8509e+002 -2.0516e+000 52542 86421,86222,86300
 3.3000e+000 86352 -9.0162e+001 -1.9976e+002 -8.6580e+000 52542 86222,86326,86300
 3.3000e+000 86447 -1.0207e+001 -1.8189e+002  3.2576e+001 52542 86274,86248,86421
 3.3000e+000 86470 -4.7818e+001 -1.9225e+002  9.2489e+000 52542 86274,86421,86300
 3.3000e+000 86669 -9.0339e+001 -1.9328e+002 -3.1832e+001 52230 86692,86571,86545
 3.3000e+000 86646 -8.6541e+001 -1.8095e+002 -1.8397e+001 52230 86692,86545,86519
 3.3000e+000 86623 -1.1943e+002 -1.9023e+002 -3.0658e+001 52230 86493,86597,86519
 3.3000e+000 86718 -9.6665e+001 -1.9726e+002 -3.8176e+001 52230 86597,86571,86692
 3.3000e+000 86741 -1.0203e+002 -1.8882e+002 -2.5617e+001 52230 86597,86692,86519
 3.3000e+000 87153 -1.2442e+002 -1.9471e+002  1.0859e+001 51640 86980,87058,87032
 3.3000e+000 87130 -1.2507e+002 -1.9946e+002  8.9221e+000 51640 86928,87058,86980
 3.3000e+000 87107 -1.3313e+002 -2.6335e+002 -6.5385e+000 51640 86928,86980,86954
 3.3000e+000 87084 -6.7823e+001 -1.7073e+002 -7.9910e-001 51640 86980,87032,87006
 3.3000e+000 87659 -4.5447e+001 -1.7113e+002  1.1009e+001 51029 87682,87440,87362
 3.3000e+000 87636 -4.6075e+001 -1.8518e+002 -1.3231e+001 51029 87682,87362,87336
 3.3000e+000 87613 -7.7030e+001 -2.7091e+002 -8.6421e+000 51029 87440,87518,87466
 3.3000e+000 87590 -9.3973e+001 -1.7427e+002  1.5251e+001 51029 87362,87440,87414
 3.3000e+000 87567 -7.8071e+001 -1.3350e+002  3.3279e+001 51029 87362,87414,87388
 3.3000e+000 87544 -1.0855e+002 -2.2939e+002  5.0572e+000 51029 87466,87518,87492
 3.3000e+000 87708 -4.1450e+001 -1.9550e+002  1.3298e+000 51029 87518,87440,87682
 3.3000e+000 87731 -4.3171e+001 -2.2759e+002 -1.3982e+001 51029 87518,87682,87336
 3.3000e+000 87881 -1.1265e+002 -2.4422e+002  5.9772e+000 50739 87780,87832,87806
 3.3000e+000 87858 -1.2727e+002 -2.4332e+002 -1.0912e+001 50739 87754,87832,87780
 3.3000e+000 88468 -6.5423e+001 -1.6010e+002  7.2182e+000 50235 88171,88327,88197
 3.3000e+000 88445 -1.5226e+002 -1.5970e+002 -2.6339e+001 50235 88145,88327,88171
 3.3000e+000 88422  4.5722e+001 -8.2457e+001  3.9073e+001 50235 88275,88327,88301
 3.3000e+000 88399 -3.9145e+001 -1.1942e+002 -4.0727e+000 50235 88197,88327,88275
 3.3000e+000 88376  1.2867e+001 -1.4840e+002  4.5585e+000 50235 88197,88275,88223
 3.3000e+000 88353 -6.8153e-001 -1.6524e+002  1.3238e+001 50235 88223,88275,88249
 3.3000e+000 88895 -1.0117e+002 -2.5505e+002  9.2628e+000 49873 88918,88728,88676
 3.3000e+000 88872 -8.7088e+001 -2.4502e+002 -2.0679e+000 49873 88918,88676,88624
 3.3000e+000 88849 -6.7495e+001 -2.1375e+002 -3.9525e+000 49873 88598,88754,88624
 3.3000e+000 88826 -5.2895e+001 -2.2935e+002 -5.9390e+000 49873 88624,88676,88650
 3.3000e+000 88803 -8.6223e+001 -3.1343e+002  1.0994e+001 49873 88676,88728,88702
 3.3000e+000 88780 -7.3970e+001 -1.9206e+002  8.8315e+000 49873 88572,88754,88598
 3.3000e+000 88944 -8.2440e+001 -2.5100e+002  2.5613e+000 49873 88754,88728,88918
 3.3000e+000 88967 -7.7712e+001 -2.4971e+002 -7.6866e+000 49873 88754,88918,88624
 3.3000e+000 89473 -1.6192e+002 -2.4846e+002 -3.0214e+001 49583 89176,89306,89202
 3.3000e+000 89450 -1.6177e+002 -2.4375e+002 -4.1405e+001 49583 89176,89332,89306
 3.3000e+000 89427 -9.6001e+001 -2.7478e+002  1.0483e+001 49583 89496,89228,89202
 3.3000e+000 89404 -9.4660e+001 -2.8047e+002  1.2710e+001 49583 89496,89202,89280
 3.3000e+000 89381 -1.9446e+002 -3.4860e+002 -6.0188e+001 49583 89202,89306,89280
 3.3000e+000 89358 -1.3022e+002 -2.4762e+002 -4.8332e+001 49583 89150,89332,89176
 3.3000e+000 89522 -8.9448e+001 -2.3746e+002  7.1285e+000 49583 89254,89228,89496
 3.3000e+000 89545 -1.0557e+002 -2.6998e+002  1.2625e+001 49583 89254,89496,89280
 3.3000e+000 89825  3.8783e+001 -2.4570e+002  1.2088e+001 49179 89701,89753,89727
 3.3000e+000 89802 -3.2556e+001 -2.1923e+002  1.8583e+001 49179 89675,89753,89701
 3.3000e+000 89779 -2.5749e+001 -1.9736e+002  1.0097e+001 49179 89848,89753,89675
 3.3000e+000 89874 -1.3529e+002 -2.2728e+002 -1.8824e+001 49179 89649,89753,89848
 3.3000e+000 90223 -5.9034e+001 -2.4474e+002 -1.6761e+001 48739 90024,90102,90076
 3.3000e+000 90200 -8.8737e+001 -2.4816e+002 -6.4779e+000 48739 90024,90128,90102
 3.3000e+000 90177 -4.7075e+001 -2.5892e+002 -9.9773e+000 48739 90024,90076,90050
 3.3000e+000 90154 -3.7897e+001 -2.3717e+002  2.0531e+001 48739 89998,90128,90024
 3.3000e+000 90603 -8.5693e+001 -2.1682e+002  4.1358e+001 48335 90381,90485,90459
 3.3000e+000 90580 -1.0304e+002 -2.4363e+002  3.3603e+001 48335 90355,90485,90381
 3.3000e+000 90557 -4.1917e+001 -8.9758e+001  2.5542e+001 48335 90381,90433,90407
 3.3000e+000 90534 -7.8171e+001 -2.1839e+002  3.6305e+001 48335 90381,90459,90433
 3.3000e+000 90511  1.6754e+001 -1.7867e+002  5.9845e+001 48335 90329,90485,90355
 3.3000e+000 90753 -1.0835e+001 -1.3485e+002  7.8026e+001 47824 90776,90652,90704
 3.3000e+000 90730 -7.1977e+001 -2.2776e+002  4.0171e+001 47824 90626,90704,90652
 3.3000e+000 90802 -3.7888e+001 -1.7604e+002  6.2048e+001 47824 90678,90652,90776
 3.3000e+000 91131 -7.4445e+001 -2.6060e+002  1.1180e+001 47427 91154,90958,90906
 3.3000e+000 91108 -1.3360e+002 -2.8472e+002 -1.2464e+000 47427 91154,90906,91036
 3.3000e+000 91085 -1.3071e+002 -2.2879e+002 -2.2062e+001 47427 90958,91010,90984
 3.3000e+000 91062 -7.7281e+001 -2.4294e+002  1.4963e+001 47427 90906,90958,90932
 3.3000e+000 91180 -1.0930e+002 -2.5964e+002 -2.7656e+001 47427 91010,90958,91154
 3.3000e+000 91203 -1.6649e+002 -2.8447e+002 -4.1118e+001 47427 91010,91154,91036
 3.3000e+000 91583 -1.5315e+002 -2.8057e+002 -1.5288e+001 46873 91309,91439,91335
 3.3000e+000 91560 -1.5815e+002 -2.8844e+002 -1.2991e+001 46873 91309,91465,91439
 3.3000e+000 91537 -2.2077e+002 -3.2426e+002 -7.1982e+001 46873 91361,91439,91413
 3.3000e+000 91514 -1.6560e+002 -2.8898e+002 -3.4484e+001 46873 91335,91439,91361
 3.3000e+000 91491 -7.0367e+001 -2.6856e+002 -6.0117e+001 46873 91361,91413,91387
 3.3000e+000 91880 -8.0889e+001 -2.6096e+002 -6.5241e+000 46526 91606,91710,91658
 3.3000e+000 91857 -8.4114e+001 -2.7404e+002  2.0579e+000 46526 91606,91762,91710
 3.3000e+000 91834 -4.6710e+001 -2.5192e+002 -3.2006e+001 46526 91606,91658,91632
 3.3000e+000 91811 -9.6638e+001 -2.4249e+002  4.5180e+000 46526 91658,91710,91684
 3.3000e+000 91788 -5.3358e+001 -1.8222e+002  9.1051e+000 46526 91710,91762,91736
 3.3000e+000 92211 -5.2761e+001 -1.2470e+002 -1.3343e+001 45700 91986,92064,92038
 3.3000e+000 92188 -7.9775e+001 -1.7443e+002 -2.3446e-001 45700 91986,92116,92064
 3.3000e+000 92165 -3.5316e+001 -9.9001e+001 -3.3825e+001 45700 91986,92038,92012
 3.3000e+000 92142 -5.1926e+001 -1.9373e+002  2.7625e+001 45700 92064,92116,92090
 3.3000e+000 92766 -1.3659e+002 -2.3761e+002  1.0454e+001 45452 92446,92602,92576
 3.3000e+000 92743 -2.0685e+002 -2.3598e+002 -3.1773e+001 45452 92420,92602,92446
 3.3000e+000 92720 -1.5649e+002 -2.4304e+002  3.7685e+001 45452 92789,92524,92498
 3.3000e+000 92697 -1.8788e+002 -2.4097e+002  2.7464e+001 45452 92789,92498,92446
 3.3000e+000 92674 -1.4725e+002 -2.6532e+002 -4.3269e+000 45452 92524,92576,92550
 3.3000e+000 92651 -2.4416e+002 -2.4425e+002  1.4160e+002 45452 92446,92498,92472
 3.3000e+000 92628 -1.3807e+002 -3.1186e+002 -8.8237e+001 45452 92394,92602,92420
 3.3000e+000 92815 -1.3490e+002 -2.5138e+002  2.9574e+001 45452 92576,92524,92789
 3.3000e+000 92838 -1.5835e+002 -2.4262e+002  2.3816e+001 45452 92576,92789,92446
 3.3000e+000 92939 -9.5923e+001 -3.0771e+002 -6.5035e+001 44998 92861,92913,92887
 3.3000e+000 93319 -4.7856e+000 -3.1853e+002  6.6256e+001 44601 93123,93201,93149
 3.3000e+000 93296 -8.1742e+001 -3.3078e+002 -3.5283e+001 44601 93045,93201,93123
 3.3000e+000 93273 -7.1104e+001 -1.8755e+002 -4.6300e+001 44601 93045,93123,93071
 3.3000e+000 93250 -6.8231e+001 -1.7581e+002 -3.1716e+001 44601 93071,93123,93097
 3.3000e+000 93227  8.1079e+000 -1.7123e+002  7.2303e+001 44601 93149,93201,93175
 3.3000e+000 93697 -5.8322e+001 -3.5224e+002  2.4055e+001 44026 93720,93553,93527
 3.3000e+000 93674 -1.2018e+002 -2.9439e+002  3.1395e+001 44026 93720,93527,93449
 3.3000e+000 93651 -1.3481e+002 -3.0578e+002 -5.2780e+000 44026 93449,93527,93501
 3.3000e+000 93628 -9.2153e+001 -2.3673e+002 -4.5131e+001 44026 93423,93579,93449
 3.3000e+000 93605 -2.5199e+001 -2.3772e+002  2.3760e+001 44026 93449,93501,93475
 3.3000e+000 93746 -1.2548e+001 -3.1106e+002  6.3867e+000 44026 93579,93553,93720
 3.3000e+000 93769 -7.8239e+001 -2.5490e+002  1.4335e+001 44026 93579,93720,93449
 3.3000e+000 94066 -6.4571e+001 -2.7099e+002 -3.9201e+001 43579 94089,93818,93792
 3.3000e+000 94043 -1.0834e+002 -3.0026e+002 -2.6128e+001 43579 94161,94089,93792
 3.3000e+000 94020 -1.0633e+002 -3.0172e+002 -1.3769e+001 43579 94161,93792,93948
 3.3000e+000 93997 -1.1440e+002 -2.3834e+002 -1.3817e+001 43579 94233,93870,93818
 3.3000e+000 93974 -6.2466e+001 -2.4302e+002  3.5548e+000 43579 93818,93870,93844
 3.3000e+000 94115 -1.1151e+002 -2.4046e+002 -2.9067e+001 43579 94233,93818,94089
 3.3000e+000 94138 -1.5045e+002 -2.7052e+002 -1.9902e+001 43579 93896,94089,93922
 3.3000e+000 94187 -1.0029e+002 -2.8172e+002 -2.5281e+001 43579 93922,94089,94161
 3.3000e+000 94210 -9.7255e+001 -2.8130e+002 -1.1784e+001 43579 93922,94161,93948
 3.3000e+000 94259 -1.3140e+002 -2.6727e+002 -6.3988e+000 43579 93896,93870,94233
 3.3000e+000 94282 -1.2159e+002 -2.6248e+002 -2.3965e+001 43579 93896,94233,94089
 3.3000e+000 94481 -9.0832e+001 -2.7710e+002 -2.3168e+000 43239 94305,94383,94357
 3.3000e+000 94458 -7.6095e+001 -2.5220e+002  3.1524e+001 43239 94305,94409,94383
 3.3000e+000 94435 -6.7822e+001 -2.9358e+002 -8.5010e+000 43239 94305,94357,94331
 3.3000e+000 94633 -5.6209e+001 -1.8162e+002  4.7824e+001 42827 94656,94532,94506
 3.3000e+000 94610 -6.6098e+001 -1.9191e+002  6.1038e+001 42827 94728,94656,94506
 3.3000e+000 94682 -1.4284e+001 -2.0678e+002  5.4157e+001 42827 94558,94532,94656
 3.3000e+000 94705  1.8250e+001 -2.1975e+002  3.4202e+001 42827 94988,94860,94656
 3.3000e+000 94754 -3.2590e+001 -1.9124e+002  2.0209e+001 42827 94988,94656,94728
 3.3000e+000 94886  8.8190e+001 -1.9139e+002  3.5698e+001 42827 94558,94656,94860
 3.3000e+000 95014  6.0369e+001 -1.9519e+002  2.3550e+001 42827 94584,94860,94988
 3.3000e+000 95037  1.8911e+001 -1.6521e+002  1.1352e+001 42827 94584,94988,94728
 3.3000e+000 95236 -8.0320e+001 -2.5134e+002  7.8726e+000 42537 95259,95112,95060
 3.3000e+000 95213 -3.9899e+001 -2.7186e+002  1.6475e+001 42537 95259,95060,95164
 3.3000e+000 95190 -6.4335e+001 -2.4511e+002 -1.3531e+001 42537 95060,95112,95086
 3.3000e+000 95285 -5.3229e+001 -2.4497e+002  2.5551e+001 42537 95138,95112,95259
 3.3000e+000 95308 -1.3162e+001 -2.5550e+002  3.9765e+001 42537 95138,95259,95164
 3.3000e+000 95816 -1.0612e+002 -2.9049e+002 -1.8766e+001 41969 95493,95597,95519
 3.3000e+000 95793 -1.6145e+002 -2.8613e+002  2.7625e+001 41969 95493,95649,95597
 3.3000e+000 95770 -1.1965e+002 -2.5775e+002  1.2407e+001 41969 95493,95675,95649
 3.3000e+000 95747 -1.4217e+002 -3.6940e+002  2.0786e+001 41969 95597,95649,95623
 3.3000e+000 95724 -1.7319e+002 -2.9023e+002 -2.1236e+001 41969 95519,95597,95571
 3.3000e+000 95701 -1.5578e+002 -2.7093e+002 -7.9276e+001 41969 95519,95571,95545
 3.3000e+000 96371 -1.2357e+002 -2.9195e+002  3.5720e+001 41579 96025,96207,96181
 3.3000e+000 96348  4.5395e+001 -2.1619e+002 -2.3618e+000 41579 95999,96207,96025
 3.3000e+000 96325 -1.4237e+002 -2.3419e+002 -2.5822e+001 41579 96129,96181,96155
 3.3000e+000 96302 -5.3389e+001 -2.0625e+002  2.0800e+000 41579 96025,96181,96129
 3.3000e+000 96279 -1.1288e+002 -3.0395e+002  3.8307e+001 41579 96025,96129,96051
 3.3000e+000 96256 -1.4016e+002 -3.0095e+002  4.6952e+001 41579 96051,96103,96077
 3.3000e+000 96233 -5.3135e+001 -2.2711e+002  5.1876e+000 41579 96051,96129,96103
 3.3000e+000 96877 -3.6059e+001 -1.8073e+002 -2.1630e+001 41182 96972,96900,96632
 3.3000e+000 96854 -3.1056e+001 -1.3367e+002 -1.7820e+001 41182 96900,96554,96736
 3.3000e+000 96831 -3.6775e+001 -1.8221e+002 -2.1884e+001 41182 96972,96632,96580
 3.3000e+000 96808 -5.0362e+001 -1.8335e+002  6.6495e+000 41182 96632,96684,96658
 3.3000e+000 96785 -4.7650e+001 -1.8603e+002  1.8216e+001 41182 96684,96736,96710
 3.3000e+000 96762 -1.1034e+002 -2.4377e+002  2.8627e+001 41182 96580,96632,96606
 3.3000e+000 96926 -2.4031e+001 -1.9581e+002 -1.7520e+001 41182 96684,96632,96900
 3.3000e+000 96949 -3.5067e+001 -1.7620e+002 -2.9711e+001 41182 96684,96900,96736
 3.3000e+000 96998 -3.4603e+001 -1.7876e+002 -1.6147e+001 41182 96554,96900,96972
 3.3000e+000 97021 -3.6923e+001 -1.8407e+002 -1.6476e+001 41182 96554,96972,96580
 3.3000e+000 97576 -1.5414e+002 -4.4407e+002 -7.1477e+001 40678 97230,97412,97282
 3.3000e+000 97553 -7.3521e-001 -3.6362e+002  2.3381e+001 40678 97204,97412,97230
 3.3000e+000 97530 -8.7176e+001 -3.3848e+002 -5.3008e+001 40678 97282,97360,97308
 3.3000e+000 97507 -8.4786e+001 -3.3363e+002 -3.2616e+001 40678 97282,97412,97360
 3.3000e+000 97484 -5.4344e+001 -2.4652e+002 -4.1499e+001 40678 97308,97360,97334
 3.3000e+000 97461 -1.3701e+002 -3.9639e+002 -9.7965e+000 40678 97360,97412,97386
 3.3000e+000 97438 -6.7280e+001 -3.0075e+002 -1.4841e+001 40678 97230,97282,97256
 3.3000e+000 97976 -1.3505e+002 -2.2038e+002 -4.6723e+000 40244 97702,97832,97754
 3.3000e+000 97953 -1.1291e+002 -2.0508e+002 -1.2131e+001 40244 97702,97858,97832
 3.3000e+000 97930 -1.3928e+002 -2.4793e+002 -5.7886e+001 40244 97702,97754,97728
 3.3000e+000 97907 -1.1362e+002 -2.5012e+002  2.8130e+001 40244 97780,97832,97806
 3.3000e+000 97884 -1.2221e+002 -2.1396e+002 -2.4729e+000 40244 97754,97832,97780
 3.3000e+000 98482 -9.1930e+001 -2.3584e+002  3.0506e+001 39690 98505,98185,98159
 3.3000e+000 98459 -8.8137e+001 -2.3359e+002  3.2259e+001 39690 98505,98159,98289
 3.3000e+000 98436 -1.6741e+002 -3.3126e+002  1.0873e+002 39690 98159,98315,98289
 3.3000e+000 98413 -7.8931e+001 -2.2109e+002  3.6651e+001 39690 98211,98289,98263
 3.3000e+000 98390 -4.8973e+001 -1.4351e+002  2.2226e+001 39690 98211,98263,98237
 3.3000e+000 98367 -4.3486e+001 -2.1682e+002  5.7243e+001 39690 98159,98341,98315
 3.3000e+000 98531 -1.0026e+002 -2.3503e+002  2.6838e+001 39690 98211,98185,98505
 3.3000e+000 98554 -9.2604e+001 -2.2776e+002  3.0124e+001 39690 98211,98505,98289
 3.3000e+000 99109 -7.1271e+001 -1.9094e+002 -9.9984e+000 39072 99132,98867,98789
 3.3000e+000 99086 -7.2811e+001 -1.9482e+002 -1.2628e+001 39072 99132,98789,98763
 3.3000e+000 99063 -1.0693e+002 -3.0918e+002  3.3921e+001 39072 98867,98945,98919
 3.3000e+000 99040 -6.3431e+001 -2.0194e+002 -1.2944e+000 39072 98789,98867,98841
 3.3000e+000 99017 -1.4106e+002 -2.2922e+002  1.0408e+001 39072 98867,98919,98893
 3.3000e+000 98994 -1.0522e+002 -1.9669e+002  4.0490e+001 39072 98789,98841,98815
 3.3000e+000 98971 -1.0729e+002 -2.1762e+002 -1.6389e+001 39072 98737,98945,98763
 3.3000e+000 99158 -6.9173e+001 -1.9585e+002 -1.1188e+001 39072 98945,98867,99132
 3.3000e+000 99181 -7.0149e+001 -2.0085e+002 -1.2404e+001 39072 98945,99132,98763
 3.3000e+000 99510 -6.0788e+001 -1.9313e+002  1.2607e+001 38668 99311,99389,99363
 3.3000e+000 99487 -6.5207e+001 -1.9564e+002  1.1389e+001 38668 99285,99389,99311
 3.3000e+000 99464 -1.2769e+002 -2.3433e+002  3.7102e+001 38668 99285,99415,99389
 3.3000e+000 99441 -5.8915e+001 -2.0555e+002  1.9159e+001 38668 99311,99363,99337
 3.3000e+000 99758 -3.9329e+001 -2.7895e+002  4.6233e+001 38164 99781,99611,99585
 3.3000e+000 99735 -4.3334e+001 -2.8839e+002  4.3316e+001 38164 99781,99585,99533
 3.3000e+000 99712 -3.3879e+001 -2.4007e+002  2.6205e+001 38164 99611,99663,99637
 3.3000e+000 99689 -1.2163e+001 -2.9477e+002 -1.7283e+001 38164 99533,99585,99559
 3.3000e+000 99807 -3.8511e+001 -2.8822e+002  4.5517e+001 38164 99663,99611,99781
 3.3000e+000 99830 -3.8119e+001 -2.9291e+002  4.3987e+001 38164 99663,99781,99533
 3.3000e+000 100232 -9.8770e+001 -2.4059e+002  4.5437e+000 37702 99984,100114,100088
 3.3000e+000 100209 -7.9737e+001 -2.5878e+002  2.7863e+001 37702 99958,100114,99984
 3.3000e+000 100186 -1.4540e+002 -2.9726e+002 -1.7770e+001 37702 100010,100088,100036
 3.3000e+000 100163 -1.0133e+002 -2.4214e+002  1.2873e+000 37702 99984,100088,100010
 3.3000e+000 100140 -9.4109e+001 -2.2052e+002 -5.6308e+001 37702 100036,100088,100062
 3.3000e+000 100640 -1.7655e+002 -2.6474e+002  2.5723e+001 37262 100493,100545,100519
 3.3000e+000 100617 -1.6111e+002 -2.9339e+002  1.1890e+001 37262 100441,100545,100493
 3.3000e+000 100594 -8.7808e+001 -2.3279e+002 -3.7977e+001 37262 100415,100545,100441
 3.3000e+000 100571 -1.9030e+002 -3.3746e+002 -1.6241e+001 37262 100441,100493,100467
 3.3000e+000 101146 -1.2255e+002 -2.0988e+002  4.4121e-001 36872 100823,100979,100849
 3.3000e+000 101123 -1.1972e+002 -1.9640e+002 -1.7752e+001 36872 100823,101005,100979
 3.3000e+000 101100 -1.2782e+002 -2.9962e+002  4.1158e+001 36872 101169,100901,100849
 3.3000e+000 101077 -9.9237e+001 -2.3961e+002  2.2972e+001 36872 101169,100849,100979
 3.3000e+000 101054 -6.8360e+001 -2.3617e+002 -1.3187e+001 36872 100927,100979,100953
 3.3000e+000 101031 -7.2472e+001 -3.4159e+002  5.6418e+001 36872 100849,100901,100875
 3.3000e+000 101195 -8.9509e+001 -3.1736e+002  3.7239e+000 36872 100927,100901,101169
 3.3000e+000 101218 -7.2156e+001 -2.8558e+002 -1.0864e+001 36872 100927,101169,100979
 3.3000e+000 101773 -1.6007e+002 -2.3369e+002  3.9175e+001 36418 101479,101609,101583
 3.3000e+000 101750 -1.5618e+002 -2.5791e+002  5.0896e+001 36418 101453,101609,101479
 3.3000e+000 101727 -1.0542e+002 -2.4251e+002 -3.7897e+000 36418 101796,101531,101479
 3.3000e+000 101704 -1.4699e+002 -2.7089e+002  1.6408e+001 36418 101796,101479,101583
 3.3000e+000 101681 -9.3257e+001 -2.1542e+002 -8.4465e+000 36418 101479,101531,101505
 3.3000e+000 101658 -7.8117e+000 -2.4382e+002 -7.2996e+000 36418 101401,101609,101453
 3.3000e+000 101635 -4.8688e+001 -2.8803e+002 -2.5442e+001 36418 101401,101453,101427
 3.3000e+000 101822 -1.1532e+002 -2.2160e+002 -4.3282e+001 36418 101557,101531,101796
 3.3000e+000 101845 -1.6354e+002 -2.3237e+002 -2.5226e+001 36418 101557,101796,101583
 3.3000e+000 102174  4.4908e+001 -1.1365e+002 -4.1272e+001 35914 101949,102053,101975
 3.3000e+000 102151 -8.9492e+001 -1.5135e+002 -1.0808e+001 35914 101949,102079,102053
 3.3000e+000 102128 -6.0495e+001 -1.6366e+002 -6.6983e+000 35914 101975,102053,102027
 3.3000e+000 102105 -8.4410e-001 -1.0952e+002 -3.7289e+001 35914 101975,102027,102001
 3.3000e+000 102631 -4.7157e+001 -2.4380e+002  7.9934e+000 35574 102383,102513,102487
 3.3000e+000 102608 -3.3215e+001 -2.5572e+002  6.3275e+000 35574 102357,102513,102383
 3.3000e+000 102585 -6.2858e+001 -2.3960e+002  1.4813e+001 35574 102409,102487,102435
 3.3000e+000 102562 -8.2550e+001 -2.5747e+002  6.6495e+000 35574 102383,102487,102409
 3.3000e+000 102539 -8.6752e+001 -2.6419e+002 -4.7204e+000 35574 102435,102487,102461
 3.3000e+000 103009 -1.3521e+002 -2.3983e+002 -2.0023e+001 35170 102761,102865,102787
 3.3000e+000 102986 -7.3272e+001 -2.0671e+002  1.8072e+001 35170 102761,102891,102865
 3.3000e+000 102963 -1.1863e+002 -2.3933e+002 -6.3232e+000 35170 102787,102865,102813
 3.3000e+000 102940 -6.1577e+001 -1.9620e+002  2.2482e+001 35170 102735,102891,102761
 3.3000e+000 102917 -1.1672e+002 -2.3594e+002 -9.4015e+000 35170 102813,102865,102839
 3.3000e+000 103257 -2.6443e+001 -1.9585e+002 -4.3189e+001 34659 103280,103058,103032
 3.3000e+000 103234 -4.0928e+001 -2.1435e+002 -3.2495e+001 34659 103280,103032,103162
 3.3000e+000 103211 -4.8155e+001 -2.0844e+002 -1.5744e+001 34659 103084,103162,103110
 3.3000e+000 103188 -7.3439e+001 -2.4286e+002  4.6575e+000 34659 103110,103162,103136
 3.3000e+000 103306 -4.7875e+001 -1.7300e+002 -3.4948e+001 34659 103084,103058,103280
 3.3000e+000 103329 -6.0136e+001 -1.9469e+002 -2.3131e+001 34659 103084,103280,103162
 3.3000e+000 103837 -2.6007e+001 -2.6107e+002  1.0439e+001 34247 103860,103566,103540
 3.3000e+000 103814 -3.5240e+001 -2.6078e+002  2.1906e+000 34247 103932,103860,103540
 3.3000e+000 103791 -2.4657e+001 -2.9094e+002 -2.8649e+001 34247 103932,103540,103670
 3.3000e+000 103768 -2.9808e+001 -2.4965e+002  1.4382e+000 34247 103566,103618,103592
 3.3000e+000 103745 -1.0416e+002 -2.4609e+002 -3.7719e+001 34247 103540,103696,103670
 3.3000e+000 103722 -1.3831e+002 -2.7197e+002  3.9466e+001 34247 103514,103696,103540
 3.3000e+000 103886 -5.5208e+001 -2.6012e+002  1.6938e-001 34247 103618,103566,103860
 3.3000e+000 103909 -6.0878e+001 -2.7851e+002  1.0312e+001 34247 103618,103860,103644
 3.3000e+000 103958 -6.2791e+001 -3.3328e+002 -1.7049e+000 34247 103644,103860,103932
 3.3000e+000 103981 -5.2051e+001 -3.6112e+002 -3.4073e+001 34247 103644,103932,103670
 3.3000e+000 104300 -1.2951e+002 -2.7016e+002 -1.2084e+001 33843 104052,104182,104156
 3.3000e+000 104277 -1.6235e+002 -2.5369e+002 -5.2204e+000 33843 104026,104182,104052
 3.3000e+000 104254 -1.2806e+002 -3.0916e+002  7.3264e+000 33843 104078,104156,104130
 3.3000e+000 104231 -1.5870e+002 -2.9577e+002 -6.4626e-001 33843 104052,104156,104078
 3.3000e+000 104208 -1.9338e+002 -3.2837e+002  1.0599e+001 33843 104078,104130,104104
 3.3000e+000 104499 -7.0138e+001 -2.8307e+002 -2.7493e+001 33282 104594,104522,104375
 3.3000e+000 104476 -4.0488e+001 -2.8377e+002  1.0925e+001 33282 104522,104323,104427
 3.3000e+000 104453 -5.2213e+001 -2.9831e+002 -2.4706e+001 33282 104594,104375,104349
 3.3000e+000 104548 -8.9171e+001 -2.3451e+002 -1.0015e+000 33282 104401,104375,104522
 3.3000e+000 104571 -3.1364e+001 -2.2591e+002  4.0787e+001 33282 104401,104522,104427
 3.3000e+000 104620 -5.1565e+001 -2.5304e+002 -1.8216e+001 33282 104323,104522,104594
 3.3000e+000 104643 -4.1236e+001 -2.7647e+002 -1.8621e+001 33282 104323,104594,104349
 3.3000e+000 104942 -1.2636e+002 -3.1668e+002  3.6925e+001 32728 104694,104772,104720
 3.3000e+000 104919 -9.4906e+001 -2.9045e+002  1.5809e+001 32728 104694,104824,104772
 3.3000e+000 104896 -1.6186e+002 -2.8576e+002  4.1413e+001 32728 104720,104772,104746
 3.3000e+000 104873 -7.3303e+001 -3.2441e+002  1.7384e+001 32728 104772,104824,104798
 3.3000e+000 104850 -7.3945e+001 -2.8197e+002  1.8461e+001 32728 104668,104824,104694
 3.3000e+000 105373 -1.0483e+002 -3.1901e+002 -1.3587e+001 32274 105396,105102,105076
 3.3000e+000 105350 -1.1614e+002 -3.5048e+002 -3.8504e+000 32274 105396,105076,105206
 3.3000e+000 105327 -1.4774e+002 -3.5315e+002  2.1134e+001 32274 105154,105206,105180
 3.3000e+000 105304 -4.5400e+001 -3.3283e+002 -2.9277e+001 32274 105076,105232,105206
 3.3000e+000 105281 -1.3195e+002 -2.8898e+002 -5.0660e+001 32274 105102,105154,105128
 3.3000e+000 105258 -1.8541e+002 -2.8110e+002 -5.9868e+001 32274 105050,105232,105076
 3.3000e+000 105422 -1.2420e+002 -2.8466e+002 -1.2485e+001 32274 105154,105102,105396
 3.3000e+000 105445 -1.3425e+002 -3.1640e+002 -4.9172e+000 32274 105154,105396,105206
 3.3000e+000 105644 -1.0678e+002 -2.9763e+002 -1.4867e+000 31620 105468,105546,105520
 3.3000e+000 105621 -8.7276e+001 -3.1568e+002 -1.1042e+001 31620 105468,105572,105546
 3.3000e+000 105598 -1.0768e+002 -3.2492e+002  1.9871e+001 31620 105468,105520,105494
 3.3000e+000 105794 -4.5525e+001 -2.8538e+002 -8.9961e+000 31158 105889,105817,105693
 3.3000e+000 105771 -6.6132e+001 -2.5332e+002 -1.7729e+001 31158 105817,105667,105745
 3.3000e+000 105843 -5.6436e+001 -3.5106e+002 -3.9747e+000 31158 105719,105693,105817
 3.3000e+000 105866 -4.0548e+001 -2.9975e+002 -1.5858e+001 31158 105719,105817,105745
 3.3000e+000 105915 -9.0524e+001 -3.0467e+002 -9.5172e+000 31158 105667,105817,105889
 3.3000e+000 106270 -1.2069e+002 -2.7765e+002 -5.3231e+000 30818 106293,106071,106045
 3.3000e+000 106247 -1.4144e+002 -3.2468e+002 -1.9269e+001 30818 106293,106045,106175
 3.3000e+000 106224 -1.0142e+002 -2.5527e+002  1.4965e+001 30818 106123,106175,106149
 3.3000e+000 106201 -1.3327e+002 -2.7676e+002  2.2666e+001 30818 106071,106123,106097
 3.3000e+000 106319 -1.2495e+002 -2.5927e+002  1.2509e+001 30818 106123,106071,106293
 3.3000e+000 106342 -1.2890e+002 -2.8398e+002  7.3326e-001 30818 106123,106293,106175
 3.3000e+000 106492 -1.1327e+002 -2.6630e+002  5.4044e+001 30414 106645,106391,106365
 3.3000e+000 106469 -5.9692e+001 -2.6486e+002  7.7303e+001 30414 106515,106365,106443
 3.3000e+000 106541 -7.9826e+001 -2.7267e+002  5.8361e+001 30414 106645,106365,106515
 3.3000e+000 106671 -6.4522e+001 -3.1233e+002  9.2835e+001 30414 106417,106391,106645
 3.3000e+000 106694  1.6038e+001 -2.8838e+002  7.9964e+001 30414 106417,106645,106515
 3.3000e+000 106942 -5.5634e+001 -3.7903e+002 -1.3587e+000 29910 106965,106795,106769
 3.3000e+000 106919 -4.7652e+001 -3.4063e+002  9.8646e+000 29910 106965,106769,106717
 3.3000e+000 106896 -5.0343e+001 -2.8541e+002 -3.8883e+001 29910 106795,106847,106821
 3.3000e+000 106873 -2.7055e+001 -2.9764e+002  1.7659e+001 29910 106717,106769,106743
 3.3000e+000 106991 -7.7368e+001 -3.3757e+002  4.1327e+000 29910 106847,106795,106965
 3.3000e+000 107014 -6.0866e+001 -2.8657e+002  1.4922e+001 29910 106847,106965,106717
 3.3000e+000 107213 -8.8201e+001 -2.9135e+002  1.1388e+001 29413 107236,107063,107037
 3.3000e+000 107190 -6.9751e+001 -3.4720e+002  3.1636e+001 29413 107236,107037,107141
 3.3000e+000 107167 -1.0145e+002 -2.1130e+002  4.4997e+001 29413 107063,107115,107089
 3.3000e+000 107262 -7.7339e+001 -2.5797e+002  1.1720e+001 29413 107115,107063,107236
 3.3000e+000 107285 -5.0419e+001 -2.9868e+002  3.4656e+001 29413 107115,107236,107141
 3.3000e+000 107486 -3.8116e+001 -2.7322e+002  3.2072e+001 29009 107336,107388,107362
 3.3000e+000 107463 -2.2466e+001 -2.6487e+002  1.1402e+001 29009 107310,107388,107336
 3.3000e+000 107440 -2.3556e+001 -2.4525e+002  9.7945e+000 29009 107310,107414,107388
 3.3000e+000 107736 -1.2138e+002 -3.1698e+002 -1.3097e+001 28491 107537,107615,107563
 3.3000e+000 107713 -1.0906e+002 -3.1073e+002 -8.4594e+000 28491 107537,107641,107615
 3.3000e+000 107690 -6.8141e+001 -2.9996e+002  4.8255e+000 28491 107563,107615,107589
 3.3000e+000 107667 -1.1646e+002 -3.1153e+002 -1.0398e+001 28491 107511,107641,107537
 3.3000e+000 108118 -7.2551e+001 -2.9971e+002  9.2179e+000 27980 108141,107922,107844
 3.3000e+000 108095 -5.7272e+001 -3.2960e+002  8.8552e+000 27980 108141,107844,108000
 3.3000e+000 108072 -7.0980e+001 -2.9831e+002 -3.7155e+000 27980 107844,107922,107870
 3.3000e+000 108049 -6.0057e+001 -2.7314e+002 -7.4981e+000 27980 107870,107922,107896
 3.3000e+000 108026 -1.0554e+002 -2.7333e+002  3.5036e+001 27980 107922,107974,107948
 3.3000e+000 108167 -6.2825e+001 -2.9636e+002  1.3708e+001 27980 107974,107922,108141
 3.3000e+000 108190 -2.0497e+001 -2.9976e+002  2.2339e+001 27980 107974,108141,108000
 3.3000e+000 108745 -4.0764e+001 -2.0411e+002 -3.8538e+000 27376 108840,108768,108477
 3.3000e+000 108722 -6.7655e+001 -2.4729e+002 -4.5744e+001 27376 108768,108373,108581
 3.3000e+000 108699 -6.2261e+001 -1.7847e+002  3.5874e+001 27376 108840,108477,108451
 3.3000e+000 108676 -1.4598e+002 -2.1238e+002 -9.7976e+000 27376 108373,108451,108399
 3.3000e+000 108653 -6.4972e+001 -2.5274e+002  3.0321e+001 27376 108503,108581,108529
 3.3000e+000 108630 -7.0355e+001 -2.4485e+002  3.0884e+001 27376 108529,108581,108555
 3.3000e+000 108607 -1.6600e+002 -2.3086e+002  1.6533e+001 27376 108399,108451,108425
 3.3000e+000 108794 -6.3072e+001 -2.7096e+002  5.5553e-001 27376 108503,108477,108768
 3.3000e+000 108817 -2.1702e+001 -2.4774e+002 -9.3089e+000 27376 108503,108768,108581
 3.3000e+000 108866 -1.2147e+002 -2.5044e+002 -2.2565e+001 27376 108373,108768,108840
 3.3000e+000 108889 -1.1745e+002 -2.1674e+002  1.9019e+001 27376 108373,108840,108451
 3.3000e+000 109186 -1.1798e+002 -3.1346e+002  3.2931e+001 26722 109209,108938,108912
 3.3000e+000 109163 -1.0938e+002 -2.9263e+002  3.0635e+001 26722 109281,109209,108912
 3.3000e+000 109140 -1.0472e+002 -2.8490e+002  2.8653e+001 26722 109281,108912,109042
 3.3000e+000 109117 -9.8600e+001 -3.3411e+002  1.4303e+001 26722 108938,108990,108964
 3.3000e+000 109094 -1.4942e+002 -2.5922e+002  1.8932e+001 26722 108912,109068,109042
 3.3000e+000 109235 -1.0022e+002 -3.0198e+002  2.7151e+001 26722 108990,108938,109209
 3.3000e+000 109258 -1.0613e+002 -3.2307e+002  2.4771e+001 26722 108990,109209,109016
 3.3000e+000 109307 -9.5757e+001 -3.0490e+002  1.5572e+001 26722 109016,109209,109281
 3.3000e+000 109330 -8.7377e+001 -2.9128e+002  1.1907e+001 26722 109016,109281,109042
 3.3000e+000 109732 -1.1777e+002 -2.5034e+002 -5.3529e+000 26310 109458,109588,109484
 3.3000e+000 109709 -1.1127e+002 -2.8525e+002 -2.9481e+001 26310 109458,109614,109588
 3.3000e+000 109686 -1.7170e+002 -2.9380e+002  4.2978e+001 26310 109510,109562,109536
 3.3000e+000 109663 -1.6941e+002 -2.7636e+002  1.6696e+001 26310 109484,109562,109510
 3.3000e+000 109640 -1.2260e+002 -2.5437e+002 -1.6048e+000 26310 109484,109588,109562
 3.3000e+000 110159 -8.3261e+001 -2.6444e+002 -8.6197e+000 25642 110182,109940,109914
 3.3000e+000 110136 -7.7389e+001 -3.0476e+002  3.3684e+001 25642 110182,109914,109888
 3.3000e+000 110113 -9.8856e+001 -3.2610e+002 -4.2872e+001 25642 109966,110018,109992
 3.3000e+000 110090 -1.0889e+002 -3.1503e+002  2.2715e+001 25642 110254,109966,109940
 3.3000e+000 110067 -1.4371e+002 -2.9985e+002  1.5702e+001 25642 109862,110018,109888
 3.3000e+000 110044 -1.3940e+002 -2.5500e+002  3.8065e+001 25642 109836,110018,109862
 3.3000e+000 110208 -1.0856e+002 -2.8792e+002  1.6665e+001 25642 110254,109940,110182
 3.3000e+000 110231 -1.1841e+002 -3.0744e+002  3.7278e+001 25642 110018,110182,109888
 3.3000e+000 110280 -9.7160e+001 -3.4863e+002  1.7507e+001 25642 110018,109966,110254
 3.3000e+000 110303 -1.0247e+002 -3.2835e+002  1.2303e+001 25642 110018,110254,110182
 3.3000e+000 110632 -1.2740e+002 -2.6437e+002 -1.4809e+001 25188 110407,110485,110433
 3.3000e+000 110609 -1.5436e+002 -2.6714e+002 -7.3728e+000 25188 110407,110537,110485
 3.3000e+000 110586 -1.4876e+002 -2.7635e+002 -5.1451e+001 25188 110433,110485,110459
 3.3000e+000 110563 -1.4171e+002 -2.7790e+002  3.0898e+001 25188 110485,110537,110511
 3.3000e+000 110831 -3.2996e+001 -2.6101e+002  7.7634e+000 24726 110854,110707,110655
 3.3000e+000 110808 -1.8514e+001 -2.8258e+002  2.9718e+001 24726 110854,110655,110759
 3.3000e+000 110785 -4.2972e+001 -2.6844e+002  1.3962e+001 24726 110655,110707,110681
 3.3000e+000 110880 -2.1878e+001 -2.4030e+002  1.1973e+001 24726 110733,110707,110854
 3.3000e+000 110903 -2.3445e+000 -2.5131e+002  3.5509e+001 24726 110733,110854,110759
 3.3000e+000 111234 -7.7759e+000 -1.8241e+002 -5.5752e+000 24222 111257,111087,111035
 3.3000e+000 111211  2.0334e+001 -1.6970e+002  1.8877e+001 24222 111257,111035,111009
 3.3000e+000 111188 -2.9456e+001 -9.6150e+001 -4.1436e+001 24222 111035,111087,111061
 3.3000e+000 111165 -2.7365e+001 -1.4856e+002  4.2617e+000 24222 111087,111139,111113
 3.3000e+000 111283 -2.5551e+001 -1.5249e+002  7.5182e+000 24222 111139,111087,111257
 3.3000e+000 111306 -1.3290e+001 -1.3116e+002  2.3253e+001 24222 111139,111257,111009
 3.3000e+000 111625 -4.8103e+001 -2.7251e+002 -1.6157e+001 23732 111648,111481,111455
 3.3000e+000 111602 -4.8694e+001 -2.7442e+002 -1.6010e+001 23732 111648,111455,111377
 3.3000e+000 111579  2.3910e+001 -1.4911e+002  2.7582e+001 23732 111377,111429,111403
 3.3000e+000 111556 -2.6212e+001 -2.7823e+002 -6.3216e+000 23732 111377,111455,111429
 3.3000e+000 111533 -4.1331e+001 -2.4231e+002 -7.1241e+000 23732 111351,111507,111377
 3.3000e+000 111674 -4.8491e+001 -2.6928e+002 -1.3943e+001 23732 111507,111481,111648
 3.3000e+000 111697 -5.0174e+001 -2.7323e+002 -1.3928e+001 23732 111507,111648,111377
 3.3000e+000 112156 -7.4783e+001 -3.0417e+002  2.0923e+001 23278 112179,111908,111882
 3.3000e+000 112133 -7.0357e+001 -2.8270e+002  1.1152e+001 23278 112179,111882,112012
 3.3000e+000 112110 -2.8187e+001 -3.3043e+002  1.2517e+000 23278 111908,111960,111934
 3.3000e+000 112087 -3.0368e+001 -2.4784e+002 -5.0504e+000 23278 111882,112038,112012
 3.3000e+000 112064 -6.2471e+001 -2.5618e+002 -3.9872e+000 23278 111960,112012,111986
 3.3000e+000 112205 -7.1494e+001 -2.9392e+002  3.2474e+000 23278 111960,111908,112179
 3.3000e+000 112228 -6.0941e+001 -2.6974e+002 -7.9019e+000 23278 111960,112179,112012
 3.3000e+000 112685 -1.9885e+002 -4.3455e+002 -4.2293e+001 22938 112489,112567,112541
 3.3000e+000 112662 -1.7375e+002 -3.7844e+002 -3.7388e+001 22938 112437,112567,112489
 3.3000e+000 112639 -1.1759e+002 -3.2639e+002 -5.4625e+000 22938 112489,112541,112515
 3.3000e+000 112616 -1.9658e+002 -3.6252e+002 -3.3321e+001 22938 112411,112567,112437
 3.3000e+000 112593 -1.5229e+002 -4.6911e+002 -1.2266e+001 22938 112437,112489,112463
 3.3000e+000 113191 -1.3474e+001 -2.9833e+002 -3.6547e+001 22534 113214,112998,112946
 3.3000e+000 113168 -5.6153e+001 -2.6601e+002 -1.8692e+001 22534 113286,113214,112946
 3.3000e+000 113145 -4.1632e+001 -2.6665e+002 -1.5262e+001 22534 113286,112946,112920
 3.3000e+000 113122 -1.2150e+002 -2.4330e+002 -5.1797e+001 22534 113358,113024,112998
 3.3000e+000 113099 -7.3644e+001 -2.5593e+002 -9.2084e+000 22534 112868,113050,112894
 3.3000e+000 113076 -8.7857e+001 -4.4319e+002 -7.2338e+001 22534 112946,112998,112972
 3.3000e+000 113240 -8.9706e+001 -3.0692e+002 -5.5126e+001 22534 113358,112998,113214
 3.3000e+000 113263 -7.1741e+001 -2.7830e+002 -1.1934e+001 22534 113050,113214,112894
 3.3000e+000 113312 -3.7362e+001 -2.6327e+002 -1.4467e+001 22534 112894,113214,113286
 3.3000e+000 113335 -2.2113e+001 -2.6478e+002 -1.3684e+001 22534 112894,113286,112920
 3.3000e+000 113384 -8.5990e+001 -1.8595e+002 -3.6750e+001 22534 113050,113024,113358
 3.3000e+000 113407 -4.0019e+001 -2.3821e+002 -3.3255e+001 22534 113050,113358,113214
 3.3000e+000 113785 -1.4459e+002 -3.6541e+002  7.4537e+000 21978 113808,113615,113511
 3.3000e+000 113762 -1.1812e+002 -3.7092e+002  2.4931e+001 21978 113808,113511,113667
 3.3000e+000 113739 -9.0395e+001 -3.1289e+002 -1.4716e+001 21978 113511,113615,113537
 3.3000e+000 113716  2.9059e+001 -2.7807e+002 -2.8671e+001 21978 113537,113615,113589
 3.3000e+000 113693 -4.2228e+001 -4.0159e+002  6.2308e+000 21978 113537,113589,113563
 3.3000e+000 113834 -1.4858e+002 -3.6408e+002  4.0392e+001 21978 113641,113615,113808
 3.3000e+000 113857 -7.9416e+001 -3.3766e+002  6.1157e+001 21978 113641,113808,113667
 3.3000e+000 114284 -1.0786e+002 -3.0223e+002  6.1858e+000 21517 114013,114117,114039
 3.3000e+000 114261 -1.2026e+002 -3.0075e+002  2.2515e+001 21517 113961,114117,114013
 3.3000e+000 114238 -1.1803e+002 -3.0794e+002  2.2222e+001 21517 113961,114013,113987
 3.3000e+000 114215 -1.6989e+002 -3.4372e+002 -2.3546e+001 21517 114039,114117,114091
 3.3000e+000 114192 -1.2210e+002 -2.5837e+002  2.6928e+001 21517 113961,114143,114117
 3.3000e+000 114169 -2.9573e+001 -2.9531e+002 -2.6166e+001 21517 114039,114091,114065
 3.3000e+000 114581 -6.5459e+001 -3.6447e+002  4.1115e+000 21027 114359,114463,114437
 3.3000e+000 114558 -3.7761e+001 -3.3067e+002  4.3138e+001 21027 114333,114463,114359
 3.3000e+000 114535 -3.0675e+001 -3.3496e+002 -8.8182e+000 21027 114359,114437,114385
 3.3000e+000 114512 -2.4641e+001 -3.2799e+002  3.4095e+001 21027 114307,114463,114333
 3.3000e+000 114489  4.4583e+001 -3.1192e+002 -1.5481e+001 21027 114385,114437,114411
 3.3000e+000 114912 -1.4252e+002 -3.1031e+002  3.8863e+000 20623 114713,114791,114765
 3.3000e+000 114889 -9.9451e+001 -2.9265e+002 -2.2497e+001 20623 114687,114791,114713
 3.3000e+000 114866 -7.3899e+001 -3.2804e+002 -2.3770e+001 20623 114687,114817,114791
 3.3000e+000 114843 -2.0535e+002 -3.7434e+002  3.0634e+001 20623 114713,114765,114739
 3.3000e+000 115290 -4.2744e+001 -2.7661e+002  1.4535e+001 20375 115313,115146,115094
 3.3000e+000 115267 -6.4713e+001 -2.6474e+002  2.6473e+001 20375 115313,115094,115042
 3.3000e+000 115244 -8.1636e+001 -2.5541e+002  8.6734e+000 20375 115385,115016,115172
 3.3000e+000 115221 -2.7399e+001 -2.4748e+002  2.1772e+001 20375 115042,115094,115068
 3.3000e+000 115198 -6.2411e+001 -3.2781e+002  1.7670e+001 20375 115094,115146,115120
 3.3000e+000 115339 -8.8175e+001 -3.2326e+002 -8.8801e+000 20375 115172,115146,115313
 3.3000e+000 115362 -5.2021e+001 -2.6300e+002  1.0245e+001 20375 115385,115172,115313
 3.3000e+000 115411 -9.8215e+001 -2.6406e+002  1.1799e+001 20375 115042,115016,115385
 3.3000e+000 115434 -8.3889e+001 -2.8176e+002  1.8050e+001 20375 115042,115385,115313
 3.3000e+000 115891 -1.4101e+002 -2.7849e+002  3.3883e+001 19971 115617,115747,115643
 3.3000e+000 115868 -1.2109e+002 -2.3000e+002  3.2151e+001 19971 115617,115773,115747
 3.3000e+000 115845 -8.9065e+001 -4.2103e+002  5.2879e+000 19971 115643,115721,115695
 3.3000e+000 115822 -2.6935e+000 -2.1017e+002 -1.9654e+000 19971 115643,115747,115721
 3.3000e+000 115799 -7.5768e+001 -5.1703e+002 -4.1397e+001 19971 115643,115695,115669
 3.3000e+000 115992 -2.1313e+002 -5.4745e+002 -9.3237e+001 19659 115914,115966,115940
 3.3000e+000 116142 -2.8991e+001 -1.1737e+002  2.9003e+000 18997 116041,116093,116067
 3.3000e+000 116119 -6.1967e+001 -2.0215e+002  1.1948e+001 18997 116015,116093,116041
 3.3000e+000 116343 -5.3727e+001 -3.1584e+002 -9.3348e+000 18707 116193,116245,116219
 3.3000e+000 116320 -1.2169e+002 -3.4469e+002 -1.4023e+001 18707 116193,116271,116245
 3.3000e+000 116297 -1.1009e+002 -3.0768e+002 -2.2455e+001 18707 116167,116271,116193
 3.3000e+000 116747 -5.4971e+001 -2.8938e+002 -5.1614e+000 18301 116525,116629,116551
 3.3000e+000 116724 -3.4869e+001 -2.4625e+002  6.5336e+000 18301 116473,116629,116525
 3.3000e+000 116701 -2.5899e+001 -2.4137e+002 -1.2668e+001 18301 116473,116525,116499
 3.3000e+000 116678 -4.5888e+001 -3.0010e+002 -3.6927e+000 18301 116551,116603,116577
 3.3000e+000 116655 -6.4232e+001 -3.1115e+002 -8.8218e+000 18301 116551,116629,116603
 3.3000e+000 117147 -1.5369e+002 -3.4701e+002 -1.5060e+000 17747 116899,117029,116925
 3.3000e+000 117124 -8.4195e+001 -2.5583e+002  3.3798e+001 17747 116873,117029,116899
 3.3000e+000 117101 -1.5219e+002 -3.4451e+002 -8.7699e-001 17747 116925,117029,116951
 3.3000e+000 117078 -1.3490e+002 -3.0166e+002 -1.0859e+000 17747 116951,117029,117003
 3.3000e+000 117055 -1.7689e+002 -3.8756e+002 -2.3871e+001 17747 116951,117003,116977
 3.3000e+000 117368  1.9626e+001 -3.1722e+002  7.2871e+000 17293 117244,117296,117270
 3.3000e+000 117345 -2.1999e+001 -3.2875e+002 -4.3048e+000 17293 117192,117296,117244
 3.3000e+000 117322 -5.5359e+001 -3.0865e+002 -3.5543e+000 17293 117192,117244,117218
 3.3000e+000 117699 -2.7520e+001 -2.5449e+002 -3.0731e+001 16896 117526,117604,117552
 3.3000e+000 117676 -1.6762e+002 -3.9143e+002  2.4700e+001 16896 117500,117604,117526
 3.3000e+000 117653 -1.7789e+002 -3.0980e+002 -1.5816e+001 16896 117552,117604,117578
 3.3000e+000 117630 -1.5421e+002 -5.0670e+002  4.2110e+001 16896 117474,117604,117500
 3.3000e+000 117849 -3.6168e+002 -6.9600e+002 -2.6557e+001 16534 117722,117774,117748
 3.3000e+000 117826 -2.8537e+002 -8.4676e+002 -1.1447e+002 16534 117722,117800,117774
 3.3000e+000 118070 -8.9097e+000 -3.2704e+002  4.0621e+001 16194 117946,117998,117972
 3.3000e+000 118047 -5.9785e+001 -3.7063e+002  1.6558e+001 16194 117894,117998,117946
 3.3000e+000 118024 -1.8655e+002 -3.7723e+002 -6.7407e-001 16194 117894,117946,117920
 3.3000e+000 118173 -3.5434e+001 -3.3075e+002  0.0000e+000 15968 118095,118147,118121
 3.3000e+000 118276 -1.0198e+002 -3.4455e+002  1.3792e+000 15433 118299,118198,118250
 3.3000e+000 118325 -1.0318e+002 -3.4734e+002  1.4067e+000 15433 118224,118198,118299
 3.3000e+000 118450 -1.7148e+002 -3.7888e+002  3.6352e+001 421 118372,118424,118398
 3.4000e+000 69891 -7.1308e+001 -4.2074e+002  1.4964e+001 68988 69447,69681,69629
 3.4000e+000 69868  3.2420e+001 -3.7676e+002  1.2724e+001 68988 69421,69681,69447
 3.4000e+000 69845  2.4255e+000 -2.0854e+002  6.1383e-001 68988 69447,69629,69577
 3.4000e+000 69822 -1.2091e+002 -4.3903e+002 -4.9675e+001 68988 69447,69577,69473
 3.4000e+000 69799 -1.5678e+001 -4.9866e+002  8.1223e+001 68988 69629,69681,69655
 3.4000e+000 69776 -1.2957e+002 -2.6559e+002  5.5653e+000 68988 69577,69629,69603
 3.4000e+000 69753 -9.5310e+001 -3.9094e+002 -5.9989e+001 68988 69473,69577,69551
 3.4000e+000 69730 -1.4420e+002 -7.8368e+002 -7.9156e+001 68988 69473,69551,69525
 3.4000e+000 69707 -2.4106e+002 -5.1798e+002  3.5903e-001 68988 69473,69525,69499
 3.4000e+000 69992 -2.4398e+002 -4.5644e+002 -6.2409e+001 68676 69914,69966,69940
 3.4000e+000 70392 -1.6334e+002 -3.4712e+002  2.6454e+001 68478 70118,70248,70144
 3.4000e+000 70369  8.9380e+000 -3.5223e+002  7.5044e+001 68478 70118,70274,70248
 3.4000e+000 70346 -9.9686e+001 -2.6193e+002 -1.5354e+000 68478 70144,70222,70196
 3.4000e+000 70323 -8.3174e+001 -2.1940e+002 -1.0917e+001 68478 70144,70248,70222
 3.4000e+000 70300 -1.0935e+002 -2.8875e+002 -6.3375e+000 68478 70144,70196,70170
 3.4000e+000 70841  6.4076e+001 -2.3036e+002 -6.5838e+001 68280 70570,70622,70596
 3.4000e+000 70818 -1.1443e+002 -2.6392e+002 -1.5620e+001 68280 70544,70622,70570
 3.4000e+000 70795 -8.3425e+001 -1.9429e+002 -9.3854e+000 68280 70544,70674,70622
 3.4000e+000 70772 -7.3010e+001 -1.7269e+002  3.1250e+000 68280 70622,70674,70648
 3.4000e+000 70749 -1.2098e+002 -2.9516e+002  2.2128e+001 68280 70518,70674,70544
 3.4000e+000 70726  1.0386e+002 -3.0742e+002  8.7852e+001 68280 70518,70700,70674
 3.4000e+000 70991 -1.4017e+001 -1.2387e+003  3.6954e+001 67968 70864,70916,70890
 3.4000e+000 70968 -3.2800e+002 -1.2309e+003  1.4187e+002 67968 70864,70942,70916
 3.4000e+000 71141 -5.8124e+002 -1.1154e+003 -5.2903e+001 67770 71040,71092,71066
 3.4000e+000 71118 -5.0997e+002 -1.3411e+003  5.8928e+001 67770 71014,71092,71040
 3.4000e+000 71651 -7.6261e+001 -2.3495e+002 -4.2659e+001 67366 71746,71674,71458
 3.4000e+000 71628 -4.6920e+001 -1.9108e+002 -4.6160e+001 67366 71674,71354,71510
 3.4000e+000 71605 -6.8244e+001 -2.5881e+002 -4.0238e+001 67366 71746,71458,71432
 3.4000e+000 71582 -1.0988e+002 -2.6525e+002  1.0040e+001 67366 71354,71432,71380
 3.4000e+000 71559 -1.1991e+002 -1.8688e+002 -2.7697e+001 67366 71380,71432,71406
 3.4000e+000 71536 -5.2672e+001 -7.5641e+001 -6.3866e+000 67366 71328,71510,71354
 3.4000e+000 71700 -8.7100e+001 -2.1391e+002 -1.9223e+001 67366 71484,71458,71674
 3.4000e+000 71723 -5.6197e+001 -2.0011e+002 -1.6430e+001 67366 71484,71674,71510
 3.4000e+000 71772 -6.6653e+001 -2.0667e+002 -3.7721e+001 67366 71354,71674,71746
 3.4000e+000 71795 -5.7807e+001 -2.2787e+002 -3.8172e+001 67366 71354,71746,71432
 3.4000e+000 71896 -2.3725e+002 -5.1069e+002  0.0000e+000 67146 71818,71870,71844
 3.4000e+000 71997 -2.9833e+002 -4.2209e+002  8.3949e+001 66948 71919,71971,71945
 3.4000e+000 72149 -8.0898e+000 -3.0364e+002 -3.6038e+001 66700 72172,72074,72048
 3.4000e+000 72126 -9.8935e+001 -3.4119e+002 -1.4364e+001 66700 72172,72048,72022
 3.4000e+000 72198 -1.6140e+002 -3.7609e+002  2.4657e+001 66700 72244,72172,72100
 3.4000e+000 72221 -1.4379e+002 -3.4368e+002 -2.1500e+001 66700 72100,72172,72022
 3.4000e+000 72270 -8.1382e+001 -2.0102e+002 -2.4687e+001 66700 72074,72172,72244
 3.4000e+000 72623 -1.0359e+002 -3.1348e+002  8.5445e+000 66502 72424,72502,72450
 3.4000e+000 72600 -8.5199e+001 -2.6216e+002  4.9576e+000 66502 72398,72502,72424
 3.4000e+000 72577 -6.1981e+001 -2.9910e+002 -6.1461e+000 66502 72398,72528,72502
 3.4000e+000 72554 -1.0175e+002 -2.7801e+002 -2.1133e+000 66502 72450,72502,72476
 3.4000e+000 72920 -1.7546e+002 -3.6444e+002  8.9741e+000 65941 72672,72776,72750
 3.4000e+000 72897 -1.7535e+002 -3.1398e+002  3.4655e+001 65941 72646,72776,72672
 3.4000e+000 72874 -1.5391e+002 -3.5842e+002  1.1823e+001 65941 72672,72750,72724
 3.4000e+000 72851 -1.5546e+002 -2.8237e+002  2.6960e+001 65941 72672,72724,72698
 3.4000e+000 72828 -1.3486e+002 -3.1465e+002  3.2604e+001 65941 72646,72802,72776
 3.4000e+000 73241 -2.6476e+001 -2.6263e+002  2.2058e+001 65743 73264,73071,73045
 3.4000e+000 73218 -9.8478e+001 -2.9377e+002  2.8029e+001 65743 73480,73264,73045
 3.4000e+000 73195 -8.5007e+001 -2.6891e+002 -3.7520e+000 65743 73336,72967,73097
 3.4000e+000 73172 -1.5640e+002 -2.4486e+002 -2.9777e+001 65743 73408,72993,72967
 3.4000e+000 73149 -7.4022e+001 -2.6889e+002 -3.7685e+000 65743 72967,73123,73097
 3.4000e+000 73290 -5.8167e+001 -2.7870e+002  5.6158e+000 65743 73097,73071,73264
 3.4000e+000 73313 -6.9784e+001 -2.5331e+002  1.2761e+001 65743 73336,73097,73264
 3.4000e+000 73362 -1.3286e+002 -2.7678e+002 -2.0301e+001 65743 73408,72967,73336
 3.4000e+000 73385 -6.0100e+001 -2.5165e+002 -4.0410e-001 65743 73019,73336,73264
 3.4000e+000 73434 -1.1733e+002 -1.8673e+002  1.4145e+001 65743 73019,72993,73408
 3.4000e+000 73457 -6.2030e+001 -2.2837e+002  9.3152e+000 65743 73019,73408,73336
 3.4000e+000 73506 -3.8144e+001 -1.8761e+002  3.8648e+000 65743 73019,73264,73480
 3.4000e+000 73989 -8.6374e+000 -2.0669e+002  2.5577e+001 65453 73793,73845,73819
 3.4000e+000 73966 -1.0839e+002 -2.3306e+002  2.9417e+001 65453 73741,73845,73793
 3.4000e+000 73943 -2.5306e+001 -1.8751e+002  1.1809e+001 65453 73715,73845,73741
 3.4000e+000 73920 -8.5504e+001 -2.4825e+002  4.8356e+001 65453 73741,73793,73767
 3.4000e+000 73897  7.5576e+000 -1.1650e+002  2.5426e+000 65453 73715,73871,73845
 3.4000e+000 74357 -6.4146e+001 -2.7470e+002 -7.6934e+001 65141 74380,74138,74086
 3.4000e+000 74334 -1.2113e+002 -3.7019e+002 -5.2082e+001 65141 74380,74086,74060
 3.4000e+000 74311 -1.3665e+002 -3.5929e+002 -1.3615e+001 65141 74138,74190,74164
 3.4000e+000 74288 -1.0216e+002 -4.0198e+002 -1.6168e+001 65141 74060,74216,74190
 3.4000e+000 74265 -1.0931e+002 -4.2531e+002  6.6074e+000 65141 74034,74216,74060
 3.4000e+000 74242 -8.5533e+001 -2.1771e+002 -5.0918e+001 65141 74086,74138,74112
 3.4000e+000 74406 -9.8939e+001 -3.5934e+002 -3.0881e+001 65141 74190,74138,74380
 3.4000e+000 74429 -1.1665e+002 -3.9239e+002 -1.4698e+001 65141 74190,74380,74060
 3.4000e+000 74937 -1.3517e+002 -2.7685e+002 -7.2178e+001 64737 74614,74666,74640
 3.4000e+000 74914 -1.6654e+002 -3.4357e+002 -5.3408e+001 64737 74614,74796,74666
 3.4000e+000 74891 -1.1978e+002 -2.3964e+002 -1.0418e+001 64737 74960,74718,74666
 3.4000e+000 74868 -1.0401e+002 -2.6286e+002 -3.2828e+001 64737 74960,74666,74770
 3.4000e+000 74845 -1.0622e+002 -2.0939e+002 -3.4478e+001 64737 74666,74796,74770
 3.4000e+000 74822 -1.1722e+002 -2.5958e+002  2.1574e+000 64737 74666,74718,74692
 3.4000e+000 74986 -1.2933e+002 -2.6352e+002 -9.4345e+000 64737 74744,74718,74960
 3.4000e+000 75009 -1.1924e+002 -2.9844e+002 -3.2313e+001 64737 74744,74960,74770
 3.4000e+000 75306 -4.5052e+001 -2.4401e+002  3.3644e+001 64133 75329,75110,75084
 3.4000e+000 75283 -7.2106e+001 -2.8115e+002  1.3848e+001 64133 75401,75329,75084
 3.4000e+000 75260 -6.9947e+001 -2.9003e+002  1.6262e+001 64133 75401,75084,75058
 3.4000e+000 75237 -6.1706e+001 -3.2146e+002  3.0855e+001 64133 75473,75136,75110
 3.4000e+000 75214 -7.9362e+001 -2.5545e+002  4.3403e+000 64133 75032,75188,75162
 3.4000e+000 75355 -6.9975e+001 -3.0420e+002  2.4710e+001 64133 75473,75110,75329
 3.4000e+000 75378 -5.9094e+001 -2.6605e+002  3.7576e+000 64133 75162,75329,75032
 3.4000e+000 75427 -5.6297e+001 -2.6010e+002  5.5085e+000 64133 75032,75329,75401
 3.4000e+000 75450 -1.2007e+002 -3.2225e+002  3.8480e+001 64133 75545,75401,75058
 3.4000e+000 75499 -6.4004e+001 -2.9909e+002  6.2464e+000 64133 75162,75136,75473
 3.4000e+000 75522 -6.6749e+001 -2.6495e+002  6.8909e+000 64133 75162,75473,75329
 3.4000e+000 75571 -5.4516e+001 -1.7914e+002  1.2736e+001 64133 75032,75401,75545
 3.4000e+000 75851 -9.5667e+001 -2.5844e+002  2.7898e+000 63843 75874,75753,75727
 3.4000e+000 75828 -8.3702e+001 -2.6248e+002 -1.6957e+001 63843 75946,75874,75727
 3.4000e+000 75805 -9.8305e+001 -2.8266e+002 -7.9468e+000 63843 76018,75946,75727
 3.4000e+000 75900 -6.9356e+001 -2.4724e+002 -5.7695e+000 63843 75779,75753,75874
 3.4000e+000 75923 -7.7301e+001 -2.1342e+002 -3.0836e+001 63843 75779,75874,75675
 3.4000e+000 75972 -9.8733e+001 -2.4309e+002 -1.2920e+001 63843 75675,75874,75946
 3.4000e+000 75995 -8.9533e+001 -2.5822e+002 -2.1191e+001 63843 75675,75946,75701
 3.4000e+000 76044 -9.8981e+001 -2.7013e+002 -2.7779e+001 63843 75701,75946,76018
 3.4000e+000 76454  2.4114e+001 -4.7653e+001 -3.4534e+001 63439 76477,76255,76229
 3.4000e+000 76431 -2.1822e+001 -1.2722e+002 -5.5989e+000 63439 76477,76229,76359
 3.4000e+000 76408 -3.5832e+001 -9.9163e+001  5.4561e+001 63439 76307,76359,76333
 3.4000e+000 76385 -1.6374e+001 -1.3416e+002  6.0595e+000 63439 76255,76307,76281
 3.4000e+000 76503 -2.1175e+001 -1.0971e+002  1.3182e+001 63439 76307,76255,76477
 3.4000e+000 76526 -2.0464e+001 -1.4143e+002  3.3863e+001 63439 76307,76477,76359
 3.4000e+000 76926 -5.7598e+001 -2.0051e+002 -4.4248e+000 63049 76704,76782,76756
 3.4000e+000 76903 -8.7477e+001 -2.0873e+002 -2.1577e+001 63049 76704,76808,76782
 3.4000e+000 76880 -6.0920e+001 -2.3402e+002  3.0228e+000 63049 76704,76756,76730
 3.4000e+000 76857 -5.3752e+001 -1.3274e+002  7.9585e+000 63049 76678,76808,76704
 3.4000e+000 76834 -2.5517e+001 -3.2307e+001 -3.0312e+001 63049 76652,76808,76678
 3.4000e+000 77076 -1.9364e+001 -3.0151e+002 -1.3728e+000 62737 76975,77027,77001
 3.4000e+000 77053 -1.9554e+001 -3.3922e+002 -2.1288e+001 62737 76949,77027,76975
 3.4000e+000 77324 -1.3581e+002 -3.0638e+002 -5.5016e+000 62277 77347,77177,77125
 3.4000e+000 77301 -1.2836e+002 -2.9669e+002 -1.6186e+001 62277 77347,77125,77229
 3.4000e+000 77278 -1.2339e+002 -3.0668e+002 -2.2706e+001 62277 77099,77229,77125
 3.4000e+000 77255 -1.4006e+002 -3.7814e+002  1.3646e+000 62277 77125,77177,77151
 3.4000e+000 77373 -1.4114e+002 -3.3253e+002  9.7971e+000 62277 77203,77177,77347
 3.4000e+000 77396 -1.1413e+002 -3.0791e+002 -4.5543e+000 62277 77203,77347,77229
 3.4000e+000 77857 -6.2135e+001 -3.7387e+002  3.1664e+000 61758 77635,77739,77661
 3.4000e+000 77834 -1.0171e+002 -3.6456e+002 -1.8084e+001 61758 77583,77739,77635
 3.4000e+000 77811 -1.1521e+002 -4.4959e+002 -4.6721e+001 61758 77583,77635,77609
 3.4000e+000 77788 -9.2548e+001 -3.5125e+002  2.9446e+001 61758 77661,77713,77687
 3.4000e+000 77765 -9.6260e+001 -4.1252e+002  2.9459e+001 61758 77661,77739,77713
 3.4000e+000 78491 -1.0312e+002 -2.1449e+002  1.2244e+001 61418 78171,78301,78249
 3.4000e+000 78468 -8.5832e+001 -1.7982e+002  2.5828e+001 61418 78145,78301,78171
 3.4000e+000 78445 -7.6284e+001 -1.8913e+002 -1.1479e+001 61418 78171,78249,78223
 3.4000e+000 78422 -8.0746e+001 -1.7721e+002  1.0673e+001 61418 78145,78327,78301
 3.4000e+000 78399 -1.0580e+002 -2.3621e+002 -8.4034e-001 61418 78249,78301,78275
 3.4000e+000 78376 -4.7027e+001 -2.0046e+002 -1.6687e+001 61418 78171,78223,78197
 3.4000e+000 78353 -1.0190e+002 -2.2933e+002 -4.4232e+000 61418 78119,78327,78145
 3.4000e+000 78690 -1.1441e+002 -2.6584e+002 -4.7688e+000 61014 78713,78566,78540
 3.4000e+000 78667 -7.3970e+001 -2.7018e+002 -2.2380e+000 61014 78713,78540,78618
 3.4000e+000 78644 -1.2505e+002 -3.0479e+002 -3.0399e+001 61014 78514,78618,78540
 3.4000e+000 78739 -5.7634e+001 -2.5986e+002  2.6414e+001 61014 78592,78566,78713
 3.4000e+000 78762 -6.5889e+001 -2.8603e+002  8.7844e-001 61014 78785,78713,78618
 3.4000e+000 78811 -2.1192e+001 -2.6892e+002 -5.1714e+000 61014 78592,78713,78785
 3.4000e+000 79398 -4.6111e+001 -2.2868e+002 -2.6154e+001 60624 79101,79179,79153
 3.4000e+000 79375 -6.7266e+001 -2.5733e+002 -1.3939e+001 60624 79101,79231,79179
 3.4000e+000 79352 -5.2443e+001 -2.5613e+002 -2.0517e+001 60624 79075,79231,79101
 3.4000e+000 79329 -1.5899e+001 -3.1069e+002  3.4705e+001 60624 79075,79257,79231
 3.4000e+000 79306 -4.9094e+001 -1.8785e+002 -4.7904e+001 60624 79179,79231,79205
 3.4000e+000 79283 -3.4618e+001 -2.0387e+002 -1.3797e+001 60624 79101,79153,79127
 3.4000e+000 79776 -1.1940e+002 -3.3696e+002  3.3649e+001 60070 79528,79658,79606
 3.4000e+000 79753 -1.0549e+002 -2.5806e+002 -1.1701e+000 60070 79502,79658,79528
 3.4000e+000 79730 -1.5030e+002 -3.2545e+002  4.7730e+001 60070 79528,79606,79580
 3.4000e+000 79707 -2.4216e+001 -2.7915e+002  5.4089e+000 60070 79606,79658,79632
 3.4000e+000 79684 -1.3880e+001 -1.9877e+002 -5.3338e+001 60070 79528,79580,79554
 3.4000e+000 80105 -8.1126e+001 -2.5789e+002  3.2896e+001 59758 80128,79958,79906
 3.4000e+000 80082 -8.9950e+001 -2.4398e+002  2.5328e+001 59758 80128,79906,80010
 3.4000e+000 80059 -1.2124e+002 -2.7043e+002  9.4256e+001 59758 79906,79958,79932
 3.4000e+000 80036 -1.3891e+002 -2.8218e+002  8.6208e+000 59758 79880,80010,79906
 3.4000e+000 80154 -8.6087e+001 -2.6654e+002  3.0892e+001 59758 79984,79958,80128
 3.4000e+000 80177 -9.6125e+001 -2.5581e+002  2.2996e+001 59758 79984,80128,80010
 3.4000e+000 80376 -6.8513e+001 -2.5988e+002  5.1029e+000 59312 80226,80304,80252
 3.4000e+000 80353 -7.1109e+001 -2.6248e+002  4.0284e+000 59312 80200,80304,80226
 3.4000e+000 80330 -1.0823e+002 -2.3429e+002  6.9876e+001 59312 80252,80304,80278
 3.4000e+000 80805 -9.5148e+001 -2.1479e+002 -3.4443e+001 58908 80900,80828,80638
 3.4000e+000 80782 -8.2388e+001 -2.5324e+002 -5.1806e+001 58908 80828,80560,80508
 3.4000e+000 80759 -9.9245e+001 -2.0068e+002 -1.1540e+001 58908 80900,80638,80612
 3.4000e+000 80736 -4.2652e+001 -2.2107e+002  8.6486e+001 58908 80482,80664,80508
 3.4000e+000 80713 -6.6261e+001 -1.8746e+002 -3.1112e+000 58908 80560,80612,80586
 3.4000e+000 80690 -9.0672e+001 -5.9586e+002 -1.1746e+002 58908 80508,80560,80534
 3.4000e+000 80854 -4.6376e+001 -2.3232e+002 -7.5881e-001 58908 80664,80638,80828
 3.4000e+000 80877 -7.6829e+001 -3.3487e+002  4.9139e+000 58908 80664,80828,80508
 3.4000e+000 80926 -8.1271e+001 -1.7320e+002 -3.6412e+001 58908 80560,80828,80900
 3.4000e+000 80949 -9.0810e+001 -1.7285e+002 -1.0329e+001 58908 80560,80900,80612
 3.4000e+000 81246 -3.4989e+001 -1.9934e+002 -5.3551e+000 58482 81076,81128,81102
 3.4000e+000 81223 -8.9156e+001 -3.3970e+002 -3.3591e+001 58482 80972,81128,81076
 3.4000e+000 81200 -5.5564e+001 -2.3117e+002 -3.6442e+001 58482 80972,81076,81050
 3.4000e+000 81177 -1.2816e+002 -3.5961e+002 -6.5523e+000 58482 80998,81050,81024
 3.4000e+000 81154 -6.6561e+001 -2.9010e+002 -3.2689e+001 58482 80972,81050,80998
 3.4000e+000 81754 -1.0006e+002 -2.1181e+002  1.7731e+001 57828 81457,81613,81483
 3.4000e+000 81731 -1.1410e+002 -2.3763e+002  8.5331e+000 57828 81431,81613,81457
 3.4000e+000 81708 -1.0949e+002 -2.3384e+002  1.8234e+001 57828 81483,81613,81509
 3.4000e+000 81685 -1.3183e+002 -2.6688e+002  2.8087e+001 57828 81509,81613,81587
 3.4000e+000 81662 -1.3842e+002 -3.8867e+002  5.5219e+001 57828 81509,81587,81535
 3.4000e+000 81639 -8.1313e+001 -3.7120e+002  3.5999e+001 57828 81535,81587,81561
 3.4000e+000 82002 -1.6522e+002 -4.0077e+002 -1.9075e+000 57374 82025,81855,81829
 3.4000e+000 81979 -1.7665e+002 -3.8137e+002  1.4566e+001 57374 82025,81829,81907
 3.4000e+000 81956 -1.8438e+002 -3.5266e+002  5.9416e+000 57374 81803,81907,81829
 3.4000e+000 81933 -1.1481e+002 -3.2751e+002  8.8588e+000 57374 81777,81907,81803
 3.4000e+000 82051 -1.5784e+002 -3.7721e+002 -5.7367e+000 57374 81881,81855,82025
 3.4000e+000 82074 -1.7033e+002 -3.6287e+002  1.5648e+001 57374 81881,82025,81907
 3.4000e+000 82356 -8.5090e+001 -2.0619e+002 -1.7799e+001 56913 82180,82232,82206
 3.4000e+000 82333 -6.6955e+001 -1.8468e+002  2.2018e+001 56913 82180,82284,82232
 3.4000e+000 82310 -2.4427e+001 -1.6586e+002  3.6573e+001 56913 82379,82232,82284
 3.4000e+000 82405  2.2369e+001 -1.5946e+002  9.6426e+000 56913 82258,82232,82379
 3.4000e+000 82764 -8.8682e+001 -1.4077e+002 -1.4556e+001 56523 82614,82666,82640
 3.4000e+000 82741 -7.5360e+001 -1.4155e+002 -2.1597e+001 56523 82614,82692,82666
 3.4000e+000 82718 -6.4366e+001 -1.5196e+002 -4.4265e+001 56523 82588,82692,82614
 3.4000e+000 83368 -2.3436e+001 -2.7175e+002 -1.3822e+001 55969 82973,83155,83129
 3.4000e+000 83345  3.2508e+000 -2.6090e+002 -1.6827e+001 55969 82973,83181,83155
 3.4000e+000 83322 -7.1503e+001 -2.3957e+002 -1.2070e+001 55969 82973,83129,82999
 3.4000e+000 83299 -1.1496e+002 -2.4726e+002  6.4026e+000 55969 83391,83025,82999
 3.4000e+000 83276 -9.4852e+001 -2.5322e+002 -8.3270e-001 55969 83391,82999,83129
 3.4000e+000 83253 -2.5895e+001 -2.1075e+002  3.5826e+001 55969 83077,83129,83103
 3.4000e+000 83230 -1.1251e+002 -1.9336e+002 -1.3993e+001 55969 83025,83077,83051
 3.4000e+000 83207 -2.5367e+000 -2.5146e+002  2.5587e+001 55969 82947,83181,82973
 3.4000e+000 83417 -9.5389e+001 -2.3727e+002  1.0035e+001 55969 83077,83025,83391
 3.4000e+000 83440 -8.8279e+001 -2.4947e+002  6.7362e-001 55969 83077,83391,83129
 3.4000e+000 83946 -1.6954e+002 -3.5423e+002  6.2026e+001 55771 83969,83779,83727
 3.4000e+000 83923 -1.3406e+002 -2.8901e+002  2.7366e+001 55771 83969,83727,83623
 3.4000e+000 83900 -1.6282e+002 -1.6932e+002  1.5594e+001 55771 83623,83727,83649
 3.4000e+000 83877 -7.9032e+001 -5.8549e+002  4.8508e+001 55771 83727,83779,83753
 3.4000e+000 83854 -2.6966e+002 -2.7487e+002  1.1330e+002 55771 83675,83727,83701
 3.4000e+000 83831 -2.5125e+002 -2.7556e+002  1.1219e+002 55771 83649,83727,83675
 3.4000e+000 83995 -1.4994e+002 -3.6355e+002 -2.3879e+001 55771 83805,83779,83969
 3.4000e+000 84018 -7.1528e+001 -2.2781e+002 -6.6338e+001 55771 83805,83969,83623
 3.4000e+000 84168 -7.0696e+001 -1.8789e+002 -5.7232e+000 55367 84191,84067,84041
 3.4000e+000 84145 -6.9225e+001 -2.1216e+002 -3.7652e+000 55367 84191,84041,84119
 3.4000e+000 84217 -7.5496e+001 -1.7384e+002 -5.2478e+000 55367 84093,84067,84191
 3.4000e+000 84240 -6.6119e+001 -1.8781e+002  3.5660e+000 55367 84093,84191,84119
 3.4000e+000 84571 -3.9312e+001 -3.1349e+002 -3.2464e+001 54913 84398,84450,84424
 3.4000e+000 84548 -2.4599e+001 -2.8454e+002 -1.6084e+001 54913 84372,84450,84398
 3.4000e+000 84525 -7.2212e+001 -3.2280e+002  1.1855e+001 54913 84346,84450,84372
 3.4000e+000 84502 -2.0333e+001 -2.0397e+002 -2.6127e+001 54913 84346,84476,84450
 3.4000e+000 85126 -1.5253e+002 -3.4309e+002 -1.2932e+001 54402 84858,84936,84910
 3.4000e+000 85103 -1.1619e+002 -2.6866e+002 -3.4119e+001 54402 84806,84936,84858
 3.4000e+000 85080 -1.3468e+002 -2.4402e+002 -2.6341e+001 54402 84780,84936,84806
 3.4000e+000 85057 -1.1660e+002 -2.9769e+002 -1.6360e+001 54402 84806,84858,84832
 3.4000e+000 85034 -1.2021e+002 -2.3004e+002  8.8537e+000 54402 84780,84962,84936
 3.4000e+000 85011 -1.8865e+002 -2.0336e+002 -7.6939e+000 54402 84858,84910,84884
 3.4000e+000 84988 -1.1617e+002 -2.1899e+002  9.2350e+000 54402 84754,84962,84780
 3.4000e+000 85396 -1.1416e+002 -1.3979e+002 -1.0484e+001 53998 85197,85249,85223
 3.4000e+000 85373 -8.6580e+001 -1.7987e+002 -2.4510e+000 53998 85197,85275,85249
 3.4000e+000 85350 -1.0914e+002 -2.1037e+002 -1.2805e+001 53998 85171,85275,85197
 3.4000e+000 85327 -5.0945e+001 -1.9604e+002 -1.5894e+001 53998 85171,85301,85275
 3.4000e+000 85749 -7.0402e+001 -2.5852e+002 -5.1546e+000 53636 85524,85628,85550
 3.4000e+000 85726 -1.1133e+002 -2.8311e+002  8.5135e+000 53636 85524,85654,85628
 3.4000e+000 85703 -4.1971e+001 -2.8027e+002 -2.6364e+001 53636 85550,85602,85576
 3.4000e+000 85680 -7.0115e+001 -2.5638e+002 -1.3021e+001 53636 85550,85628,85602
 3.4000e+000 86127 -2.4706e+001 -2.4682e+002  3.7749e+001 52982 86150,85957,85879
 3.4000e+000 86104 -7.8463e+001 -2.8815e+002  1.9646e+001 52982 86150,85879,85853
 3.4000e+000 86081 -2.3197e+001 -3.6214e+002  7.2607e+001 52982 85957,86009,85983
 3.4000e+000 86058 -9.9337e+001 -2.6353e+002  3.0019e+001 52982 85879,85957,85931
 3.4000e+000 86035 -5.7226e+001 -2.4969e+002 -1.7002e+001 52982 85879,85931,85905
 3.4000e+000 86176  1.0973e+001 -2.9229e+002  3.0698e+001 52982 86009,85957,86150
 3.4000e+000 86199 -2.0979e+001 -3.2133e+002  1.8485e+001 52982 86009,86150,85853
 3.4000e+000 86398 -5.3503e+001 -1.9001e+002  1.7383e+001 52542 86421,86248,86222
 3.4000e+000 86375 -9.5125e+001 -1.9417e+002 -2.0790e+000 52542 86421,86222,86300
 3.4000e+000 86352 -9.5094e+001 -2.0928e+002 -9.0525e+000 52542 86222,86326,86300
 3.4000e+000 86447 -1.1121e+001 -1.9089e+002  3.4228e+001 52542 86274,86248,86421
 3.4000e+000 86470 -5.0633e+001 -2.0148e+002  9.6759e+000 52542 86274,86421,86300
 3.4000e+000 86669 -9.4829e+001 -2.0233e+002 -3.3231e+001 52230 86692,86571,86545
 3.4000e+000 86646 -9.0831e+001 -1.8930e+002 -1.8884e+001 52230 86692,86545,86519
 3.4000e+000 86623 -1.2603e+002 -1.9997e+002 -3.1964e+001 52230 86493,86597,86519
 3.4000e+000 86718 -1.0165e+002 -2.0658e+002 -3.9901e+001 52230 86597,86571,86692
 3.4000e+000 86741 -1.0744e+002 -1.9771e+002 -2.6480e+001 52230 86597,86692,86519
 3.4000e+000 87153 -1.2904e+002 -2.0291e+002  1.1556e+001 51640 86980,87058,87032
 3.4000e+000 87130 -1.3129e+002 -2.0901e+002  9.0384e+000 51640 86928,87058,86980
 3.4000e+000 87107 -1.3872e+002 -2.7358e+002 -7.3831e+000 51640 86928,86980,86954
 3.4000e+000 87084 -6.8622e+001 -1.7730e+002 -4.1795e-001 51640 86980,87032,87006
 3.4000e+000 87659 -4.8467e+001 -1.7920e+002  1.1499e+001 51029 87682,87440,87362
 3.4000e+000 87636 -4.9453e+001 -1.9416e+002 -1.4092e+001 51029 87682,87362,87336
 3.4000e+000 87613 -8.0654e+001 -2.8248e+002 -9.0542e+000 51029 87440,87518,87466
 3.4000e+000 87590 -9.8211e+001 -1.8201e+002  1.5709e+001 51029 87362,87440,87414
 3.4000e+000 87567 -8.1825e+001 -1.3992e+002  3.4838e+001 51029 87362,87414,87388
 3.4000e+000 87544 -1.1378e+002 -2.3696e+002  5.3501e+000 51029 87466,87518,87492
 3.4000e+000 87708 -4.4137e+001 -2.0503e+002  1.1602e+000 51029 87518,87440,87682
 3.4000e+000 87731 -4.6100e+001 -2.3894e+002 -1.5009e+001 51029 87518,87682,87336
 3.4000e+000 87881 -1.1767e+002 -2.5501e+002  6.6311e+000 50739 87780,87832,87806
 3.4000e+000 87858 -1.3342e+002 -2.5433e+002 -1.1447e+001 50739 87754,87832,87780
 3.4000e+000 88468 -6.9547e+001 -1.6725e+002  7.3774e+000 50235 88171,88327,88197
 3.4000e+000 88445 -1.5846e+002 -1.6684e+002 -2.6997e+001 50235 88145,88327,88171
 3.4000e+000 88422  4.6703e+001 -8.7027e+001  3.9825e+001 50235 88275,88327,88301
 3.4000e+000 88399 -4.1974e+001 -1.2567e+002 -4.5650e+000 50235 88197,88327,88275
 3.4000e+000 88376  1.2266e+001 -1.5517e+002  4.5486e+000 50235 88197,88275,88223
 3.4000e+000 88353 -2.2300e+000 -1.7324e+002  1.3816e+001 50235 88223,88275,88249
 3.4000e+000 88895 -1.0547e+002 -2.6666e+002  9.6847e+000 49873 88918,88728,88676
 3.4000e+000 88872 -9.0991e+001 -2.5617e+002 -1.8932e+000 49873 88918,88676,88624
 3.4000e+000 88849 -7.1165e+001 -2.2393e+002 -4.0260e+000 49873 88598,88754,88624
 3.4000e+000 88826 -5.6451e+001 -2.4066e+002 -5.3909e+000 49873 88624,88676,88650
 3.4000e+000 88803 -9.0496e+001 -3.2808e+002  1.1244e+001 49873 88676,88728,88702
 3.4000e+000 88780 -7.7320e+001 -2.0001e+002  9.9737e+000 49873 88572,88754,88598
 3.4000e+000 88944 -8.6296e+001 -2.6257e+002  2.7255e+000 49873 88754,88728,88918
 3.4000e+000 88967 -8.1400e+001 -2.6108e+002 -7.7247e+000 49873 88754,88918,88624
 3.4000e+000 89473 -1.6976e+002 -2.6025e+002 -3.0964e+001 49583 89176,89306,89202
 3.4000e+000 89450 -1.6943e+002 -2.5497e+002 -4.3367e+001 49583 89176,89332,89306
 3.4000e+000 89427 -1.0046e+002 -2.8771e+002  1.1190e+001 49583 89496,89228,89202
 3.4000e+000 89404 -9.9184e+001 -2.9367e+002  1.3525e+001 49583 89496,89202,89280
 3.4000e+000 89381 -2.0366e+002 -3.6481e+002 -6.2240e+001 49583 89202,89306,89280
 3.4000e+000 89358 -1.3626e+002 -2.5944e+002 -5.0913e+001 49583 89150,89332,89176
 3.4000e+000 89522 -9.3737e+001 -2.4870e+002  7.5690e+000 49583 89254,89228,89496
 3.4000e+000 89545 -1.1070e+002 -2.8268e+002  1.3412e+001 49583 89254,89496,89280
 3.4000e+000 89825  3.9339e+001 -2.5669e+002  1.2689e+001 49179 89701,89753,89727
 3.4000e+000 89802 -3.4982e+001 -2.3004e+002  1.9665e+001 49179 89675,89753,89701
 3.4000e+000 89779 -2.7605e+001 -2.0675e+002  1.1110e+001 49179 89848,89753,89675
 3.4000e+000 89874 -1.4095e+002 -2.3775e+002 -1.8818e+001 49179 89649,89753,89848
 3.4000e+000 90223 -6.1352e+001 -2.5561e+002 -1.7760e+001 48739 90024,90102,90076
 3.4000e+000 90200 -9.2918e+001 -2.5915e+002 -6.7033e+000 48739 90024,90128,90102
 3.4000e+000 90177 -4.9153e+001 -2.7101e+002 -1.0410e+001 48739 90024,90076,90050
 3.4000e+000 90154 -4.0046e+001 -2.4836e+002  2.1431e+001 48739 89998,90128,90024
 3.4000e+000 90603 -8.8934e+001 -2.2618e+002  4.3702e+001 48335 90381,90485,90459
 3.4000e+000 90580 -1.0755e+002 -2.5465e+002  3.5315e+001 48335 90355,90485,90381
 3.4000e+000 90557 -4.2183e+001 -9.3790e+001  2.6397e+001 48335 90381,90433,90407
 3.4000e+000 90534 -8.1182e+001 -2.2800e+002  3.8239e+001 48335 90381,90459,90433
 3.4000e+000 90511  1.6513e+001 -1.8688e+002  6.3092e+001 48335 90329,90485,90355
 3.4000e+000 90753 -1.1179e+001 -1.4049e+002  8.1828e+001 47824 90776,90652,90704
 3.4000e+000 90730 -7.5306e+001 -2.3725e+002  4.1749e+001 47824 90626,90704,90652
 3.4000e+000 90802 -3.9070e+001 -1.8364e+002  6.5118e+001 47824 90678,90652,90776
 3.4000e+000 91131 -7.8360e+001 -2.7281e+002  1.1347e+001 47427 91154,90958,90906
 3.4000e+000 91108 -1.3970e+002 -2.9780e+002 -1.8172e+000 47427 91154,90906,91036
 3.4000e+000 91085 -1.3757e+002 -2.3963e+002 -2.3090e+001 47427 90958,91010,90984
 3.4000e+000 91062 -8.1332e+001 -2.5403e+002  1.5344e+001 47427 90906,90958,90932
 3.4000e+000 91180 -1.1453e+002 -2.7203e+002 -2.8880e+001 47427 91010,90958,91154
 3.4000e+000 91203 -1.7388e+002 -2.9781e+002 -4.3125e+001 47427 91010,91154,91036
 3.4000e+000 91583 -1.5930e+002 -2.9165e+002 -1.5671e+001 46873 91309,91439,91335
 3.4000e+000 91560 -1.6427e+002 -2.9969e+002 -1.3372e+001 46873 91309,91465,91439
 3.4000e+000 91537 -2.2938e+002 -3.3603e+002 -7.5179e+001 46873 91361,91439,91413
 3.4000e+000 91514 -1.7247e+002 -3.0060e+002 -3.6267e+001 46873 91335,91439,91361
 3.4000e+000 91491 -7.1353e+001 -2.7838e+002 -6.3382e+001 46873 91361,91413,91387
 3.4000e+000 91880 -8.5086e+001 -2.7317e+002 -6.6745e+000 46526 91606,91710,91658
 3.4000e+000 91857 -8.8450e+001 -2.8651e+002  2.0661e+000 46526 91606,91762,91710
 3.4000e+000 91834 -4.9649e+001 -2.6409e+002 -3.3154e+001 46526 91606,91658,91632
 3.4000e+000 91811 -1.0197e+002 -2.5436e+002  4.6264e+000 46526 91658,91710,91684
 3.4000e+000 91788 -5.6976e+001 -1.9145e+002  9.9189e+000 46526 91710,91762,91736
 3.4000e+000 92211 -5.4787e+001 -1.2985e+002 -1.4096e+001 45700 91986,92064,92038
 3.4000e+000 92188 -8.1413e+001 -1.8149e+002 -9.3785e-001 45700 91986,92116,92064
 3.4000e+000 92165 -3.6890e+001 -1.0356e+002 -3.5166e+001 45700 91986,92038,92012
 3.4000e+000 92142 -5.1760e+001 -2.0147e+002  2.8608e+001 45700 92064,92116,92090
 3.4000e+000 92766 -1.4328e+002 -2.4696e+002  1.0886e+001 45452 92446,92602,92576
 3.4000e+000 92743 -2.1617e+002 -2.4618e+002 -3.2841e+001 45452 92420,92602,92446
 3.4000e+000 92720 -1.6318e+002 -2.5178e+002  3.8779e+001 45452 92789,92524,92498
 3.4000e+000 92697 -1.9563e+002 -2.4998e+002  2.8185e+001 45452 92789,92498,92446
 3.4000e+000 92674 -1.5390e+002 -2.7586e+002 -4.4502e+000 45452 92524,92576,92550
 3.4000e+000 92651 -2.5463e+002 -2.5506e+002  1.4661e+002 45452 92446,92498,92472
 3.4000e+000 92628 -1.4640e+002 -3.3105e+002 -9.5128e+001 45452 92394,92602,92420
 3.4000e+000 92815 -1.4088e+002 -2.6074e+002  3.0411e+001 45452 92576,92524,92789
 3.4000e+000 92838 -1.6502e+002 -2.5189e+002  2.4460e+001 45452 92576,92789,92446
 3.4000e+000 92939 -1.0136e+002 -3.2268e+002 -6.8281e+001 44998 92861,92913,92887
 3.4000e+000 93319 -6.8338e+000 -3.3367e+002  6.9641e+001 44601 93123,93201,93149
 3.4000e+000 93296 -8.6585e+001 -3.4617e+002 -3.5988e+001 44601 93045,93201,93123
 3.4000e+000 93273 -7.4890e+001 -1.9651e+002 -4.7811e+001 44601 93045,93123,93071
 3.4000e+000 93250 -7.1879e+001 -1.8429e+002 -3.2684e+001 44601 93071,93123,93097
 3.4000e+000 93227  5.6427e+000 -1.8216e+002  7.6270e+001 44601 93149,93201,93175
 3.4000e+000 93697 -6.1642e+001 -3.6796e+002  2.5301e+001 44026 93720,93553,93527
 3.4000e+000 93674 -1.2620e+002 -3.0793e+002  3.2863e+001 44026 93720,93527,93449
 3.4000e+000 93651 -1.4145e+002 -3.2019e+002 -4.8413e+000 44026 93449,93527,93501
 3.4000e+000 93628 -9.6989e+001 -2.4809e+002 -4.7286e+001 44026 93423,93579,93449
 3.4000e+000 93605 -2.8457e+001 -2.4910e+002  2.5577e+001 44026 93449,93501,93475
 3.4000e+000 93746 -1.3778e+001 -3.2534e+002  6.8939e+000 44026 93579,93553,93720
 3.4000e+000 93769 -8.2351e+001 -2.6711e+002  1.5068e+001 44026 93579,93720,93449
 3.4000e+000 94066 -6.8051e+001 -2.8415e+002 -4.0696e+001 43579 94089,93818,93792
 3.4000e+000 94043 -1.1392e+002 -3.1401e+002 -2.7292e+001 43579 94161,94089,93792
 3.4000e+000 94020 -1.1173e+002 -3.1547e+002 -1.4472e+001 43579 94161,93792,93948
 3.4000e+000 93997 -1.2029e+002 -2.5061e+002 -1.4533e+001 43579 94233,93870,93818
 3.4000e+000 93974 -6.5625e+001 -2.5525e+002  3.5544e+000 43579 93818,93870,93844
 3.4000e+000 94115 -1.1715e+002 -2.5275e+002 -3.0325e+001 43579 94233,93818,94089
 3.4000e+000 94138 -1.5838e+002 -2.8364e+002 -2.0652e+001 43579 93896,94089,93922
 3.4000e+000 94187 -1.0556e+002 -2.9494e+002 -2.6087e+001 43579 93922,94089,94161
 3.4000e+000 94210 -1.0209e+002 -2.9436e+002 -1.2099e+001 43579 93922,94161,93948
 3.4000e+000 94259 -1.3813e+002 -2.8059e+002 -6.6276e+000 43579 93896,93870,94233
 3.4000e+000 94282 -1.2760e+002 -2.7548e+002 -2.4816e+001 43579 93896,94233,94089
 3.4000e+000 94481 -9.5976e+001 -2.9042e+002 -2.5645e+000 43239 94305,94383,94357
 3.4000e+000 94458 -8.1019e+001 -2.6459e+002  3.2746e+001 43239 94305,94409,94383
 3.4000e+000 94435 -7.1934e+001 -3.0823e+002 -8.9727e+000 43239 94305,94357,94331
 3.4000e+000 94633 -5.8525e+001 -1.8867e+002  4.9752e+001 42827 94656,94532,94506
 3.4000e+000 94610 -6.9166e+001 -1.9932e+002  6.3088e+001 42827 94728,94656,94506
 3.4000e+000 94682 -1.5282e+001 -2.1535e+002  5.6159e+001 42827 94558,94532,94656
 3.4000e+000 94705  1.8685e+001 -2.2843e+002  3.5348e+001 42827 94988,94860,94656
 3.4000e+000 94754 -3.4523e+001 -1.9915e+002  2.0651e+001 42827 94988,94656,94728
 3.4000e+000 94886  9.0977e+001 -1.9910e+002  3.6930e+001 42827 94558,94656,94860
 3.4000e+000 95014  6.2727e+001 -2.0317e+002  2.4394e+001 42827 94584,94860,94988
 3.4000e+000 95037  1.9474e+001 -1.7211e+002  1.1645e+001 42827 94584,94988,94728
 3.4000e+000 95236 -8.3084e+001 -2.6219e+002  8.2316e+000 42537 95259,95112,95060
 3.4000e+000 95213 -4.0564e+001 -2.8333e+002  1.7093e+001 42537 95259,95060,95164
 3.4000e+000 95190 -6.6365e+001 -2.5586e+002 -1.4270e+001 42537 95060,95112,95086
 3.4000e+000 95285 -5.4598e+001 -2.5573e+002  2.6855e+001 42537 95138,95112,95259
 3.4000e+000 95308 -1.2584e+001 -2.6657e+002  4.1607e+001 42537 95138,95259,95164
 3.4000e+000 95816 -1.0997e+002 -3.0148e+002 -1.9628e+001 41969 95493,95597,95519
 3.4000e+000 95793 -1.6790e+002 -2.9818e+002  2.8617e+001 41969 95493,95649,95597
 3.4000e+000 95770 -1.2354e+002 -2.6858e+002  1.3051e+001 41969 95493,95675,95649
 3.4000e+000 95747 -1.4774e+002 -3.8210e+002  2.1923e+001 41969 95597,95649,95623
 3.4000e+000 95724 -1.7927e+002 -3.0137e+002 -2.2115e+001 41969 95519,95597,95571
 3.4000e+000 95701 -1.6150e+002 -2.8206e+002 -8.2061e+001 41969 95519,95571,95545
 3.4000e+000 96371 -1.3005e+002 -3.0591e+002  3.7906e+001 41579 96025,96207,96181
 3.4000e+000 96348  4.6508e+001 -2.2682e+002 -1.7048e+000 41579 95999,96207,96025
 3.4000e+000 96325 -1.4910e+002 -2.4518e+002 -2.6467e+001 41579 96129,96181,96155
 3.4000e+000 96302 -5.6204e+001 -2.1632e+002  2.6707e+000 41579 96025,96181,96129
 3.4000e+000 96279 -1.1799e+002 -3.1759e+002  4.0355e+001 41579 96025,96129,96051
 3.4000e+000 96256 -1.4899e+002 -3.1742e+002  5.0442e+001 41579 96051,96103,96077
 3.4000e+000 96233 -5.6836e+001 -2.3858e+002  6.2798e+000 41579 96051,96129,96103
 3.4000e+000 96877 -3.7915e+001 -1.8924e+002 -2.2168e+001 41182 96972,96900,96632
 3.4000e+000 96854 -3.2738e+001 -1.4037e+002 -1.8411e+001 41182 96900,96554,96736
 3.4000e+000 96831 -3.8677e+001 -1.9071e+002 -2.2547e+001 41182 96972,96632,96580
 3.4000e+000 96808 -5.2042e+001 -1.9179e+002  7.4859e+000 41182 96632,96684,96658
 3.4000e+000 96785 -4.9820e+001 -1.9459e+002  1.9000e+001 41182 96684,96736,96710
 3.4000e+000 96762 -1.1544e+002 -2.5466e+002  3.0155e+001 41182 96580,96632,96606
 3.4000e+000 96926 -2.5382e+001 -2.0529e+002 -1.7875e+001 41182 96684,96632,96900
 3.4000e+000 96949 -3.6789e+001 -1.8461e+002 -3.0737e+001 41182 96684,96900,96736
 3.4000e+000 96998 -3.6254e+001 -1.8717e+002 -1.6716e+001 41182 96554,96900,96972
 3.4000e+000 97021 -3.8574e+001 -1.9243e+002 -1.7182e+001 41182 96554,96972,96580
 3.4000e+000 97576 -1.6046e+002 -4.6398e+002 -7.5149e+001 40678 97230,97412,97282
 3.4000e+000 97553  1.5718e+000 -3.7915e+002  2.3799e+001 40678 97204,97412,97230
 3.4000e+000 97530 -9.0936e+001 -3.5299e+002 -5.5132e+001 40678 97282,97360,97308
 3.4000e+000 97507 -8.8406e+001 -3.4802e+002 -3.4455e+001 40678 97282,97412,97360
 3.4000e+000 97484 -5.6008e+001 -2.5641e+002 -4.2817e+001 40678 97308,97360,97334
 3.4000e+000 97461 -1.4290e+002 -4.1390e+002 -1.0644e+001 40678 97360,97412,97386
 3.4000e+000 97438 -6.6962e+001 -3.0893e+002 -1.4840e+001 40678 97230,97282,97256
 3.4000e+000 97976 -1.4155e+002 -2.3091e+002 -5.1575e+000 40244 97702,97832,97754
 3.4000e+000 97953 -1.1855e+002 -2.1488e+002 -1.2932e+001 40244 97702,97858,97832
 3.4000e+000 97930 -1.4603e+002 -2.5993e+002 -6.0847e+001 40244 97702,97754,97728
 3.4000e+000 97907 -1.1951e+002 -2.6257e+002  2.9289e+001 40244 97780,97832,97806
 3.4000e+000 97884 -1.2845e+002 -2.2433e+002 -2.8760e+000 40244 97754,97832,97780
 3.4000e+000 98482 -9.5476e+001 -2.4561e+002  3.2368e+001 39690 98505,98185,98159
 3.4000e+000 98459 -9.1562e+001 -2.4363e+002  3.4189e+001 39690 98505,98159,98289
 3.4000e+000 98436 -1.7398e+002 -3.4509e+002  1.1384e+002 39690 98159,98315,98289
 3.4000e+000 98413 -8.2028e+001 -2.3112e+002  3.8641e+001 39690 98211,98289,98263
 3.4000e+000 98390 -5.0514e+001 -1.5026e+002  2.3495e+001 39690 98211,98263,98237
 3.4000e+000 98367 -4.3402e+001 -2.2417e+002  5.9439e+001 39690 98159,98341,98315
 3.4000e+000 98531 -1.0389e+002 -2.4492e+002  2.8790e+001 39690 98211,98185,98505
 3.4000e+000 98554 -9.6110e+001 -2.3797e+002  3.2122e+001 39690 98211,98505,98289
 3.4000e+000 99109 -7.4474e+001 -1.9951e+002 -9.9064e+000 39072 99132,98867,98789
 3.4000e+000 99086 -7.5009e+001 -2.0363e+002 -1.2924e+001 39072 99132,98789,98763
 3.4000e+000 99063 -1.1227e+002 -3.2339e+002  3.5703e+001 39072 98867,98945,98919
 3.4000e+000 99040 -6.6600e+001 -2.1109e+002 -7.9628e-001 39072 98789,98867,98841
 3.4000e+000 99017 -1.4729e+002 -2.3940e+002  1.1431e+001 39072 98867,98919,98893
 3.4000e+000 98994 -1.1009e+002 -2.0581e+002  4.2619e+001 39072 98789,98841,98815
 3.4000e+000 98971 -1.1273e+002 -2.2875e+002 -1.7670e+001 39072 98737,98945,98763
 3.4000e+000 99158 -7.2559e+001 -2.0461e+002 -1.1013e+001 39072 98945,98867,99132
 3.4000e+000 99181 -7.3166e+001 -2.1058e+002 -1.2356e+001 39072 98945,99132,98763
 3.4000e+000 99510 -6.3180e+001 -2.0091e+002  1.3231e+001 38668 99311,99389,99363
 3.4000e+000 99487 -6.8295e+001 -2.0378e+002  1.1876e+001 38668 99285,99389,99311
 3.4000e+000 99464 -1.3335e+002 -2.4343e+002  3.8622e+001 38668 99285,99415,99389
 3.4000e+000 99441 -6.2133e+001 -2.1377e+002  1.9970e+001 38668 99311,99363,99337
 3.4000e+000 99758 -4.1174e+001 -2.9128e+002  4.8144e+001 38164 99781,99611,99585
 3.4000e+000 99735 -4.4514e+001 -3.0044e+002  4.5401e+001 38164 99781,99585,99533
 3.4000e+000 99712 -3.6403e+001 -2.5128e+002  2.7492e+001 38164 99611,99663,99637
 3.4000e+000 99689 -1.1774e+001 -3.0713e+002 -1.8232e+001 38164 99533,99585,99559
 3.4000e+000 99807 -4.0730e+001 -3.0017e+002  4.7621e+001 38164 99663,99611,99781
 3.4000e+000 99830 -4.0000e+001 -3.0485e+002  4.6122e+001 38164 99663,99781,99533
 3.4000e+000 100232 -1.0344e+002 -2.5119e+002  4.9027e+000 37702 99984,100114,100088
 3.4000e+000 100209 -8.4926e+001 -2.7411e+002  2.9155e+001 37702 99958,100114,99984
 3.4000e+000 100186 -1.5183e+002 -3.1045e+002 -1.8860e+001 37702 100010,100088,100036
 3.4000e+000 100163 -1.0569e+002 -2.5268e+002  1.0984e+000 37702 99984,100088,100010
 3.4000e+000 100140 -9.8090e+001 -2.2970e+002 -5.8962e+001 37702 100036,100088,100062
 3.4000e+000 100640 -1.8414e+002 -2.7534e+002  2.6821e+001 37262 100493,100545,100519
 3.4000e+000 100617 -1.6818e+002 -3.0489e+002  1.2561e+001 37262 100441,100545,100493
 3.4000e+000 100594 -9.1233e+001 -2.4160e+002 -3.9303e+001 37262 100415,100545,100441
 3.4000e+000 100571 -1.9799e+002 -3.4916e+002 -1.6994e+001 37262 100441,100493,100467
 3.4000e+000 101146 -1.2761e+002 -2.1856e+002  5.6382e-001 36872 100823,100979,100849
 3.4000e+000 101123 -1.2431e+002 -2.0359e+002 -1.8796e+001 36872 100823,101005,100979
 3.4000e+000 101100 -1.3317e+002 -3.1283e+002  4.3494e+001 36872 101169,100901,100849
 3.4000e+000 101077 -1.0309e+002 -2.4977e+002  2.4251e+001 36872 101169,100849,100979
 3.4000e+000 101054 -7.0289e+001 -2.4587e+002 -1.3734e+001 36872 100927,100979,100953
 3.4000e+000 101031 -7.4496e+001 -3.5720e+002  5.9696e+001 36872 100849,100901,100875
 3.4000e+000 101195 -9.2699e+001 -3.3149e+002  4.0784e+000 36872 100927,100901,101169
 3.4000e+000 101218 -7.4460e+001 -2.9817e+002 -1.1353e+001 36872 100927,101169,100979
 3.4000e+000 101773 -1.6589e+002 -2.4127e+002  4.0916e+001 36418 101479,101609,101583
 3.4000e+000 101750 -1.6177e+002 -2.6706e+002  5.3378e+001 36418 101453,101609,101479
 3.4000e+000 101727 -1.0886e+002 -2.5055e+002 -4.0652e+000 36418 101796,101531,101479
 3.4000e+000 101704 -1.5164e+002 -2.8001e+002  1.7156e+001 36418 101796,101479,101583
 3.4000e+000 101681 -9.6138e+001 -2.2251e+002 -8.9598e+000 36418 101479,101531,101505
 3.4000e+000 101658 -8.0793e+000 -2.5278e+002 -7.3973e+000 36418 101401,101609,101453
 3.4000e+000 101635 -5.1390e+001 -3.0068e+002 -2.7000e+001 36418 101401,101453,101427
 3.4000e+000 101822 -1.1894e+002 -2.2883e+002 -4.4630e+001 36418 101557,101531,101796
 3.4000e+000 101845 -1.6825e+002 -2.3954e+002 -2.5553e+001 36418 101557,101796,101583
 3.4000e+000 102174  4.8559e+001 -1.1686e+002 -4.3200e+001 35914 101949,102053,101975
 3.4000e+000 102151 -9.2856e+001 -1.5677e+002 -1.1074e+001 35914 101949,102079,102053
 3.4000e+000 102128 -6.1561e+001 -1.6918e+002 -6.5527e+000 35914 101975,102053,102027
 3.4000e+000 102105  1.0661e+000 -1.1167e+002 -3.8573e+001 35914 101975,102027,102001
 3.4000e+000 102631 -4.9242e+001 -2.5481e+002  8.8991e+000 35574 102383,102513,102487
 3.4000e+000 102608 -3.5103e+001 -2.6759e+002  7.0151e+000 35574 102357,102513,102383
 3.4000e+000 102585 -6.5197e+001 -2.4965e+002  1.6378e+001 35574 102409,102487,102435
 3.4000e+000 102562 -8.6487e+001 -2.6918e+002  7.4431e+000 35574 102383,102487,102409
 3.4000e+000 102539 -9.0108e+001 -2.7526e+002 -4.0159e+000 35574 102435,102487,102461
 3.4000e+000 103009 -1.4148e+002 -2.5082e+002 -2.0802e+001 35170 102761,102865,102787
 3.4000e+000 102986 -7.6648e+001 -2.1615e+002  1.8900e+001 35170 102761,102891,102865
 3.4000e+000 102963 -1.2415e+002 -2.5039e+002 -6.4481e+000 35170 102787,102865,102813
 3.4000e+000 102940 -6.4076e+001 -2.0512e+002  2.3560e+001 35170 102735,102891,102761
 3.4000e+000 102917 -1.2183e+002 -2.4603e+002 -9.5436e+000 35170 102813,102865,102839
 3.4000e+000 103257 -2.6955e+001 -2.0373e+002 -4.5545e+001 34659 103280,103058,103032
 3.4000e+000 103234 -4.2293e+001 -2.2329e+002 -3.4214e+001 34659 103280,103032,103162
 3.4000e+000 103211 -5.0755e+001 -2.1766e+002 -1.6878e+001 34659 103084,103162,103110
 3.4000e+000 103188 -7.6524e+001 -2.5206e+002  4.3549e+000 34659 103110,103162,103136
 3.4000e+000 103306 -4.9672e+001 -1.7958e+002 -3.6857e+001 34659 103084,103058,103280
 3.4000e+000 103329 -6.2655e+001 -2.0250e+002 -2.4332e+001 34659 103084,103280,103162
 3.4000e+000 103837 -2.7109e+001 -2.7266e+002  1.1390e+001 34247 103860,103566,103540
 3.4000e+000 103814 -3.6805e+001 -2.7237e+002  2.7323e+000 34247 103932,103860,103540
 3.4000e+000 103791 -2.5738e+001 -3.0419e+002 -2.9760e+001 34247 103932,103540,103670
 3.4000e+000 103768 -3.1344e+001 -2.6165e+002  1.1479e+000 34247 103566,103618,103592
 3.4000e+000 103745 -1.0859e+002 -2.5717e+002 -3.9182e+001 34247 103540,103696,103670
 3.4000e+000 103722 -1.4413e+002 -2.8396e+002  4.1245e+001 34247 103514,103696,103540
 3.4000e+000 103886 -5.7685e+001 -2.7193e+002  6.0965e-001 34247 103618,103566,103860
 3.4000e+000 103909 -6.3184e+001 -2.9106e+002  1.1208e+001 34247 103618,103860,103644
 3.4000e+000 103958 -6.5704e+001 -3.4861e+002 -1.4933e+000 34247 103644,103860,103932
 3.4000e+000 103981 -5.4506e+001 -3.7802e+002 -3.5603e+001 34247 103644,103932,103670
 3.4000e+000 104300 -1.3556e+002 -2.8252e+002 -1.2591e+001 33843 104052,104182,104156
 3.4000e+000 104277 -1.6977e+002 -2.6569e+002 -5.5880e+000 33843 104026,104182,104052
 3.4000e+000 104254 -1.3410e+002 -3.2376e+002  7.4923e+000 33843 104078,104156,104130
 3.4000e+000 104231 -1.6564e+002 -3.0925e+002 -6.3729e-001 33843 104052,104156,104078
 3.4000e+000 104208 -2.0197e+002 -3.4372e+002  1.0897e+001 33843 104078,104130,104104
 3.4000e+000 104499 -7.3819e+001 -2.9679e+002 -2.8579e+001 33282 104594,104522,104375
 3.4000e+000 104476 -4.2613e+001 -2.9692e+002  1.2031e+001 33282 104522,104323,104427
 3.4000e+000 104453 -5.4396e+001 -3.1319e+002 -2.5578e+001 33282 104594,104375,104349
 3.4000e+000 104548 -9.3556e+001 -2.4520e+002 -8.6292e-001 33282 104401,104375,104522
 3.4000e+000 104571 -3.3008e+001 -2.3624e+002  4.3149e+001 33282 104401,104522,104427
 3.4000e+000 104620 -5.3658e+001 -2.6454e+002 -1.8569e+001 33282 104323,104522,104594
 3.4000e+000 104643 -4.2439e+001 -2.8977e+002 -1.9014e+001 33282 104323,104594,104349
 3.4000e+000 104942 -1.3230e+002 -3.3071e+002  3.9104e+001 32728 104694,104772,104720
 3.4000e+000 104919 -9.8690e+001 -3.0250e+002  1.6247e+001 32728 104694,104824,104772
 3.4000e+000 104896 -1.6905e+002 -2.9936e+002  4.3546e+001 32728 104720,104772,104746
 3.4000e+000 104873 -7.6886e+001 -3.3807e+002  1.8082e+001 32728 104772,104824,104798
 3.4000e+000 104850 -7.6670e+001 -2.9368e+002  1.8983e+001 32728 104668,104824,104694
 3.4000e+000 105373 -1.0845e+002 -3.3167e+002 -1.4303e+001 32274 105396,105102,105076
 3.4000e+000 105350 -1.2061e+002 -3.6453e+002 -4.0859e+000 32274 105396,105076,105206
 3.4000e+000 105327 -1.5397e+002 -3.6729e+002  2.1455e+001 32274 105154,105206,105180
 3.4000e+000 105304 -4.5423e+001 -3.4566e+002 -3.0880e+001 32274 105076,105232,105206
 3.4000e+000 105281 -1.3704e+002 -3.0017e+002 -5.2937e+001 32274 105102,105154,105128
 3.4000e+000 105258 -1.9264e+002 -2.9278e+002 -6.3247e+001 32274 105050,105232,105076
 3.4000e+000 105422 -1.2902e+002 -2.9570e+002 -1.3216e+001 32274 105154,105102,105396
 3.4000e+000 105445 -1.3978e+002 -3.2879e+002 -5.2571e+000 32274 105154,105396,105206
 3.4000e+000 105644 -1.1178e+002 -3.1140e+002 -1.5533e+000 31620 105468,105546,105520
 3.4000e+000 105621 -9.1305e+001 -3.3051e+002 -1.1581e+001 31620 105468,105572,105546
 3.4000e+000 105598 -1.1250e+002 -3.3969e+002  2.1046e+001 31620 105468,105520,105494
 3.4000e+000 105794 -4.8107e+001 -2.9800e+002 -9.5578e+000 31158 105889,105817,105693
 3.4000e+000 105771 -6.9317e+001 -2.6470e+002 -1.8706e+001 31158 105817,105667,105745
 3.4000e+000 105843 -5.9287e+001 -3.6609e+002 -4.2515e+000 31158 105719,105693,105817
 3.4000e+000 105866 -4.2499e+001 -3.1273e+002 -1.6672e+001 31158 105719,105817,105745
 3.4000e+000 105915 -9.4746e+001 -3.1799e+002 -1.0099e+001 31158 105667,105817,105889
 3.4000e+000 106270 -1.2462e+002 -2.8862e+002 -5.9155e+000 30818 106293,106071,106045
 3.4000e+000 106247 -1.4651e+002 -3.3826e+002 -2.0234e+001 30818 106293,106045,106175
 3.4000e+000 106224 -1.0480e+002 -2.6459e+002  1.5812e+001 30818 106123,106175,106149
 3.4000e+000 106201 -1.3820e+002 -2.8776e+002  2.3733e+001 30818 106071,106123,106097
 3.4000e+000 106319 -1.2943e+002 -2.6924e+002  1.2976e+001 30818 106123,106071,106293
 3.4000e+000 106342 -1.3377e+002 -2.9535e+002  8.8630e-001 30818 106123,106293,106175
 3.4000e+000 106492 -1.1818e+002 -2.7716e+002  5.6538e+001 30414 106645,106391,106365
 3.4000e+000 106469 -6.3055e+001 -2.7649e+002  8.1232e+001 30414 106515,106365,106443
 3.4000e+000 106541 -8.2871e+001 -2.8412e+002  6.1204e+001 30414 106645,106365,106515
 3.4000e+000 106671 -6.6864e+001 -3.2446e+002  9.7147e+001 30414 106417,106391,106645
 3.4000e+000 106694  1.7476e+001 -2.9999e+002  8.3877e+001 30414 106417,106645,106515
 3.4000e+000 106942 -5.8219e+001 -3.9636e+002 -1.4479e+000 29910 106965,106795,106769
 3.4000e+000 106919 -4.9798e+001 -3.5642e+002  1.0240e+001 29910 106965,106769,106717
 3.4000e+000 106896 -5.2517e+001 -2.9836e+002 -4.0799e+001 29910 106795,106847,106821
 3.4000e+000 106873 -2.8581e+001 -3.1225e+002  1.8406e+001 29910 106717,106769,106743
 3.4000e+000 106991 -8.0924e+001 -3.5321e+002  4.3003e+000 29910 106847,106795,106965
 3.4000e+000 107014 -6.3663e+001 -3.0020e+002  1.5549e+001 29910 106847,106965,106717
 3.4000e+000 107213 -9.2390e+001 -3.0266e+002  1.1600e+001 29413 107236,107063,107037
 3.4000e+000 107190 -7.2761e+001 -3.6144e+002  3.2922e+001 29413 107236,107037,107141
 3.4000e+000 107167 -1.0537e+002 -2.2088e+002  4.5413e+001 29413 107063,107115,107089
 3.4000e+000 107262 -8.0833e+001 -2.6757e+002  1.2075e+001 29413 107115,107063,107236
 3.4000e+000 107285 -5.2280e+001 -3.1039e+002  3.6237e+001 29413 107115,107236,107141
 3.4000e+000 107486 -3.8545e+001 -2.8544e+002  3.3716e+001 29009 107336,107388,107362
 3.4000e+000 107463 -2.1714e+001 -2.7648e+002  1.1661e+001 29009 107310,107388,107336
 3.4000e+000 107440 -2.2943e+001 -2.5635e+002  1.0044e+001 29009 107310,107414,107388
 3.4000e+000 107736 -1.2675e+002 -3.3128e+002 -1.3821e+001 28491 107537,107615,107563
 3.4000e+000 107713 -1.1322e+002 -3.2432e+002 -8.3158e+000 28491 107537,107641,107615
 3.4000e+000 107690 -7.0409e+001 -3.1374e+002  5.0966e+000 28491 107563,107615,107589
 3.4000e+000 107667 -1.2160e+002 -3.2599e+002 -1.0629e+001 28491 107511,107641,107537
 3.4000e+000 108118 -7.4878e+001 -3.1344e+002  9.8177e+000 27980 108141,107922,107844
 3.4000e+000 108095 -5.9294e+001 -3.4456e+002  9.5263e+000 27980 108141,107844,108000
 3.4000e+000 108072 -7.3323e+001 -3.1220e+002 -3.8603e+000 27980 107844,107922,107870
 3.4000e+000 108049 -6.1770e+001 -2.8594e+002 -7.9017e+000 27980 107870,107922,107896
 3.4000e+000 108026 -1.0971e+002 -2.8532e+002  3.6714e+001 27980 107922,107974,107948
 3.4000e+000 108167 -6.5078e+001 -3.0955e+002  1.4329e+001 27980 107974,107922,108141
 3.4000e+000 108190 -2.1802e+001 -3.1340e+002  2.3404e+001 27980 107974,108141,108000
 3.4000e+000 108745 -4.1767e+001 -2.1146e+002 -4.2302e+000 27376 108840,108768,108477
 3.4000e+000 108722 -6.9742e+001 -2.5688e+002 -4.8101e+001 27376 108768,108373,108581
 3.4000e+000 108699 -6.4172e+001 -1.8449e+002  3.7239e+001 27376 108840,108477,108451
 3.4000e+000 108676 -1.5130e+002 -2.2094e+002 -1.0086e+001 27376 108373,108451,108399
 3.4000e+000 108653 -6.7052e+001 -2.6213e+002  3.1904e+001 27376 108503,108581,108529
 3.4000e+000 108630 -7.2613e+001 -2.5388e+002  3.2474e+001 27376 108529,108581,108555
 3.4000e+000 108607 -1.7187e+002 -2.3946e+002  1.7345e+001 27376 108399,108451,108425
 3.4000e+000 108794 -6.5093e+001 -2.8168e+002  5.6879e-001 27376 108503,108477,108768
 3.4000e+000 108817 -2.1514e+001 -2.5713e+002 -9.8588e+000 27376 108503,108768,108581
 3.4000e+000 108866 -1.2597e+002 -2.6002e+002 -2.3915e+001 27376 108373,108768,108840
 3.4000e+000 108889 -1.2178e+002 -2.2474e+002  1.9532e+001 27376 108373,108840,108451
 3.4000e+000 109186 -1.2235e+002 -3.2520e+002  3.3823e+001 26722 109209,108938,108912
 3.4000e+000 109163 -1.1367e+002 -3.0431e+002  3.1910e+001 26722 109281,109209,108912
 3.4000e+000 109140 -1.0864e+002 -2.9623e+002  2.9757e+001 26722 109281,108912,109042
 3.4000e+000 109117 -1.0251e+002 -3.4747e+002  1.4886e+001 26722 108938,108990,108964
 3.4000e+000 109094 -1.5523e+002 -2.6968e+002  1.9716e+001 26722 108912,109068,109042
 3.4000e+000 109235 -1.0430e+002 -3.1394e+002  2.8385e+001 26722 108990,108938,109209
 3.4000e+000 109258 -1.1005e+002 -3.3700e+002  2.6111e+001 26722 108990,109209,109016
 3.4000e+000 109307 -9.9080e+001 -3.1716e+002  1.6040e+001 26722 109016,109209,109281
 3.4000e+000 109330 -9.0092e+001 -3.0286e+002  1.2112e+001 26722 109016,109281,109042
 3.4000e+000 109732 -1.2343e+002 -2.6105e+002 -5.5435e+000 26310 109458,109588,109484
 3.4000e+000 109709 -1.1702e+002 -2.9899e+002 -3.0948e+001 26310 109458,109614,109588
 3.4000e+000 109686 -1.7943e+002 -3.0681e+002  4.5032e+001 26310 109510,109562,109536
 3.4000e+000 109663 -1.7694e+002 -2.8851e+002  1.7494e+001 26310 109484,109562,109510
 3.4000e+000 109640 -1.2839e+002 -2.6529e+002 -1.5123e+000 26310 109484,109588,109562
 3.4000e+000 110159 -8.5502e+001 -2.7534e+002 -9.2725e+000 25642 110182,109940,109914
 3.4000e+000 110136 -7.9780e+001 -3.1887e+002  3.5134e+001 25642 110182,109914,109888
 3.4000e+000 110113 -1.0199e+002 -3.4073e+002 -4.4722e+001 25642 109966,110018,109992
 3.4000e+000 110090 -1.1220e+002 -3.2892e+002  2.4066e+001 25642 110254,109966,109940
 3.4000e+000 110067 -1.5017e+002 -3.1330e+002  1.6225e+001 25642 109862,110018,109888
 3.4000e+000 110044 -1.4518e+002 -2.6648e+002  3.9546e+001 25642 109836,110018,109862
 3.4000e+000 110208 -1.1211e+002 -3.0025e+002  1.7712e+001 25642 110254,109940,110182
 3.4000e+000 110231 -1.2291e+002 -3.2100e+002  3.9361e+001 25642 110018,110182,109888
 3.4000e+000 110280 -1.0021e+002 -3.6435e+002  1.8511e+001 25642 110018,109966,110254
 3.4000e+000 110303 -1.0605e+002 -3.4287e+002  1.3023e+001 25642 110018,110254,110182
 3.4000e+000 110632 -1.3286e+002 -2.7603e+002 -1.5812e+001 25188 110407,110485,110433
 3.4000e+000 110609 -1.6137e+002 -2.7873e+002 -7.9877e+000 25188 110407,110537,110485
 3.4000e+000 110586 -1.5540e+002 -2.8864e+002 -5.4056e+001 25188 110433,110485,110459
 3.4000e+000 110563 -1.4776e+002 -2.8935e+002  3.2316e+001 25188 110485,110537,110511
 3.4000e+000 110831 -3.2392e+001 -2.7176e+002  7.7294e+000 24726 110854,110707,110655
 3.4000e+000 110808 -1.6799e+001 -2.9484e+002  3.1247e+001 24726 110854,110655,110759
 3.4000e+000 110785 -4.3670e+001 -2.7989e+002  1.4801e+001 24726 110655,110707,110681
 3.4000e+000 110880 -2.0422e+001 -2.4970e+002  1.2332e+001 24726 110733,110707,110854
 3.4000e+000 110903  5.6614e-001 -2.6146e+002  3.7546e+001 24726 110733,110854,110759
 3.4000e+000 111234 -8.3370e+000 -1.9083e+002 -5.8562e+000 24222 111257,111087,111035
 3.4000e+000 111211  2.0870e+001 -1.7761e+002  1.9808e+001 24222 111257,111035,111009
 3.4000e+000 111188 -3.0597e+001 -1.0047e+002 -4.3408e+001 24222 111035,111087,111061
 3.4000e+000 111165 -2.8614e+001 -1.5463e+002  4.2763e+000 24222 111087,111139,111113
 3.4000e+000 111283 -2.6868e+001 -1.5954e+002  7.8062e+000 24222 111139,111087,111257
 3.4000e+000 111306 -1.4126e+001 -1.3721e+002  2.4319e+001 24222 111139,111257,111009
 3.4000e+000 111625 -4.9545e+001 -2.8323e+002 -1.7204e+001 23732 111648,111481,111455
 3.4000e+000 111602 -5.0372e+001 -2.8577e+002 -1.6985e+001 23732 111648,111455,111377
 3.4000e+000 111579  2.4460e+001 -1.5575e+002  2.8844e+001 23732 111377,111429,111403
 3.4000e+000 111556 -2.7795e+001 -2.9037e+002 -6.5582e+000 23732 111377,111455,111429
 3.4000e+000 111533 -4.3691e+001 -2.5344e+002 -7.5026e+000 23732 111351,111507,111377
 3.4000e+000 111674 -5.0108e+001 -2.7897e+002 -1.4283e+001 23732 111507,111481,111648
 3.4000e+000 111697 -5.2342e+001 -2.8421e+002 -1.4233e+001 23732 111507,111648,111377
 3.4000e+000 112156 -7.7018e+001 -3.1839e+002  2.2369e+001 23278 112179,111908,111882
 3.4000e+000 112133 -7.2256e+001 -2.9543e+002  1.1986e+001 23278 112179,111882,112012
 3.4000e+000 112110 -2.7780e+001 -3.4558e+002  1.2639e+000 23278 111908,111960,111934
 3.4000e+000 112087 -3.0547e+001 -2.5892e+002 -4.9246e+000 23278 111882,112038,112012
 3.4000e+000 112064 -6.4338e+001 -2.6756e+002 -4.3870e+000 23278 111960,112012,111986
 3.4000e+000 112205 -7.3532e+001 -3.0743e+002  3.4615e+000 23278 111960,111908,112179
 3.4000e+000 112228 -6.2263e+001 -2.8160e+002 -8.3919e+000 23278 111960,112179,112012
 3.4000e+000 112685 -2.0641e+002 -4.5122e+002 -4.4111e+001 22938 112489,112567,112541
 3.4000e+000 112662 -1.7951e+002 -3.9136e+002 -3.8507e+001 22938 112437,112567,112489
 3.4000e+000 112639 -1.2012e+002 -3.3549e+002 -4.8690e+000 22938 112489,112541,112515
 3.4000e+000 112616 -2.0474e+002 -3.7764e+002 -3.5371e+001 22938 112411,112567,112437
 3.4000e+000 112593 -1.5852e+002 -4.8428e+002 -1.2638e+001 22938 112437,112489,112463
 3.4000e+000 113191 -1.3740e+001 -3.1158e+002 -3.8256e+001 22534 113214,112998,112946
 3.4000e+000 113168 -5.8087e+001 -2.7797e+002 -1.9712e+001 22534 113286,113214,112946
 3.4000e+000 113145 -4.2689e+001 -2.7864e+002 -1.6089e+001 22534 113286,112946,112920
 3.4000e+000 113122 -1.2631e+002 -2.5400e+002 -5.4020e+001 22534 113358,113024,112998
 3.4000e+000 113099 -7.6053e+001 -2.6712e+002 -9.2930e+000 22534 112868,113050,112894
 3.4000e+000 113076 -9.2060e+001 -4.6402e+002 -7.5931e+001 22534 112946,112998,112972
 3.4000e+000 113240 -9.3026e+001 -3.2059e+002 -5.7513e+001 22534 113358,112998,113214
 3.4000e+000 113263 -7.4425e+001 -2.9106e+002 -1.2317e+001 22534 113050,113214,112894
 3.4000e+000 113312 -3.8124e+001 -2.7515e+002 -1.5243e+001 22534 112894,113214,113286
 3.4000e+000 113335 -2.1929e+001 -2.7671e+002 -1.4435e+001 22534 112894,113286,112920
 3.4000e+000 113384 -8.9168e+001 -1.9398e+002 -3.8287e+001 22534 113050,113024,113358
 3.4000e+000 113407 -4.1061e+001 -2.4867e+002 -3.4636e+001 22534 113050,113358,113214
 3.4000e+000 113785 -1.5025e+002 -3.8004e+002  7.6860e+000 21978 113808,113615,113511
 3.4000e+000 113762 -1.2244e+002 -3.8542e+002  2.5599e+001 21978 113808,113511,113667
 3.4000e+000 113739 -9.4458e+001 -3.2752e+002 -1.5006e+001 21978 113511,113615,113537
 3.4000e+000 113716  3.0230e+001 -2.9217e+002 -3.0921e+001 21978 113537,113615,113589
 3.4000e+000 113693 -4.3488e+001 -4.1544e+002  4.6592e+000 21978 113537,113589,113563
 3.4000e+000 113834 -1.5460e+002 -3.7896e+002  4.2311e+001 21978 113641,113615,113808
 3.4000e+000 113857 -8.2105e+001 -3.5119e+002  6.3606e+001 21978 113641,113808,113667
 3.4000e+000 114284 -1.1135e+002 -3.1561e+002  5.7500e+000 21517 114013,114117,114039
 3.4000e+000 114261 -1.2398e+002 -3.1363e+002  2.3555e+001 21517 113961,114117,114013
 3.4000e+000 114238 -1.2221e+002 -3.2113e+002  2.3090e+001 21517 113961,114013,113987
 3.4000e+000 114215 -1.7569e+002 -3.5760e+002 -2.5141e+001 21517 114039,114117,114091
 3.4000e+000 114192 -1.2568e+002 -2.6743e+002  2.8210e+001 21517 113961,114143,114117
 3.4000e+000 114169 -2.9121e+001 -3.0647e+002 -2.7217e+001 21517 114039,114091,114065
 3.4000e+000 114581 -6.8531e+001 -3.7976e+002  4.6240e+000 21027 114359,114463,114437
 3.4000e+000 114558 -3.9322e+001 -3.4458e+002  4.4979e+001 21027 114333,114463,114359
 3.4000e+000 114535 -3.2303e+001 -3.4803e+002 -9.0287e+000 21027 114359,114437,114385
 3.4000e+000 114512 -2.6361e+001 -3.4195e+002  3.6000e+001 21027 114307,114463,114333
 3.4000e+000 114489  4.5170e+001 -3.2321e+002 -1.6494e+001 21027 114385,114437,114411
 3.4000e+000 114912 -1.4796e+002 -3.2431e+002  3.7584e+000 20623 114713,114791,114765
 3.4000e+000 114889 -1.0353e+002 -3.0611e+002 -2.3555e+001 20623 114687,114791,114713
 3.4000e+000 114866 -7.5736e+001 -3.4214e+002 -2.5293e+001 20623 114687,114817,114791
 3.4000e+000 114843 -2.1468e+002 -3.9259e+002  3.2170e+001 20623 114713,114765,114739
 3.4000e+000 115290 -4.2487e+001 -2.8850e+002  1.5155e+001 20375 115313,115146,115094
 3.4000e+000 115267 -6.5856e+001 -2.7574e+002  2.7867e+001 20375 115313,115094,115042
 3.4000e+000 115244 -8.4182e+001 -2.6611e+002  8.9652e+000 20375 115385,115016,115172
 3.4000e+000 115221 -2.8093e+001 -2.5814e+002  2.2970e+001 20375 115042,115094,115068
 3.4000e+000 115198 -6.3194e+001 -3.4264e+002  1.8673e+001 20375 115094,115146,115120
 3.4000e+000 115339 -9.0450e+001 -3.3761e+002 -9.4793e+000 20375 115172,115146,115313
 3.4000e+000 115362 -5.2311e+001 -2.7407e+002  1.0709e+001 20375 115385,115172,115313
 3.4000e+000 115411 -1.0222e+002 -2.7527e+002  1.2105e+001 20375 115042,115016,115385
 3.4000e+000 115434 -8.6711e+001 -2.9400e+002  1.8868e+001 20375 115042,115385,115313
 3.4000e+000 115891 -1.4748e+002 -2.9107e+002  3.5472e+001 19971 115617,115747,115643
 3.4000e+000 115868 -1.2644e+002 -2.3974e+002  3.3471e+001 19971 115617,115773,115747
 3.4000e+000 115845 -9.2834e+001 -4.3917e+002  5.3716e+000 19971 115643,115721,115695
 3.4000e+000 115822 -2.8881e+000 -2.1938e+002 -2.0771e+000 19971 115643,115747,115721
 3.4000e+000 115799 -7.9065e+001 -5.4014e+002 -4.3719e+001 19971 115643,115695,115669
 3.4000e+000 115992 -2.2231e+002 -5.7073e+002 -9.7038e+001 19659 115914,115966,115940
 3.4000e+000 116142 -3.0575e+001 -1.2285e+002  3.0238e+000 18997 116041,116093,116067
 3.4000e+000 116119 -6.4849e+001 -2.1094e+002  1.2383e+001 18997 116015,116093,116041
 3.4000e+000 116343 -5.5938e+001 -3.2934e+002 -9.7762e+000 18707 116193,116245,116219
 3.4000e+000 116320 -1.2691e+002 -3.5946e+002 -1.4658e+001 18707 116193,116271,116245
 3.4000e+000 116297 -1.1464e+002 -3.2040e+002 -2.3486e+001 18707 116167,116271,116193
 3.4000e+000 116747 -5.6361e+001 -3.0241e+002 -5.4662e+000 18301 116525,116629,116551
 3.4000e+000 116724 -3.4575e+001 -2.5729e+002  6.9540e+000 18301 116473,116629,116525
 3.4000e+000 116701 -2.5028e+001 -2.5172e+002 -1.3047e+001 18301 116473,116525,116499
 3.4000e+000 116678 -4.7294e+001 -3.1358e+002 -3.9098e+000 18301 116551,116603,116577
 3.4000e+000 116655 -6.5954e+001 -3.2495e+002 -9.1734e+000 18301 116551,116629,116603
 3.4000e+000 117147 -1.5956e+002 -3.5972e+002 -1.2779e+000 17747 116899,117029,116925
 3.4000e+000 117124 -8.7300e+001 -2.6433e+002  3.5608e+001 17747 116873,117029,116899
 3.4000e+000 117101 -1.5766e+002 -3.5656e+002 -4.8160e-001 17747 116925,117029,116951
 3.4000e+000 117078 -1.3761e+002 -3.0789e+002 -1.5016e+000 17747 116951,117029,117003
 3.4000e+000 117055 -1.8190e+002 -4.0211e+002 -2.6019e+001 17747 116951,117003,116977
 3.4000e+000 117368  2.1046e+001 -3.3079e+002  7.6853e+000 17293 117244,117296,117270
 3.4000e+000 117345 -2.2295e+001 -3.4308e+002 -4.4346e+000 17293 117192,117296,117244
 3.4000e+000 117322 -5.6803e+001 -3.2192e+002 -3.7482e+000 17293 117192,117244,117218
 3.4000e+000 117699 -2.9032e+001 -2.6558e+002 -3.2093e+001 16896 117526,117604,117552
 3.4000e+000 117676 -1.7513e+002 -4.0843e+002  2.5723e+001 16896 117500,117604,117526
 3.4000e+000 117653 -1.8587e+002 -3.2342e+002 -1.6438e+001 16896 117552,117604,117578
 3.4000e+000 117630 -1.6105e+002 -5.2868e+002  4.3932e+001 16896 117474,117604,117500
 3.4000e+000 117849 -3.7769e+002 -7.2602e+002 -2.7717e+001 16534 117722,117774,117748
 3.4000e+000 117826 -2.9815e+002 -8.8357e+002 -1.1933e+002 16534 117722,117800,117774
 3.4000e+000 118070 -6.2556e+000 -3.4337e+002  4.3059e+001 16194 117946,117998,117972
 3.4000e+000 118047 -5.9927e+001 -3.8784e+002  1.7567e+001 16194 117894,117998,117946
 3.4000e+000 118024 -1.9664e+002 -3.9562e+002 -5.8833e-001 16194 117894,117946,117920
 3.4000e+000 118173 -3.7502e+001 -3.4440e+002  0.0000e+000 15968 118095,118147,118121
 3.4000e+000 118276 -1.0560e+002 -3.6133e+002  1.0890e+000 15433 118299,118198,118250
 3.4000e+000 118325 -1.0673e+002 -3.6397e+002  1.1150e+000 15433 118224,118198,118299
 3.4000e+000 118450 -1.7748e+002 -3.9174e+002  3.8288e+001 421 118372,118424,118398
 3.5000e+000 69891 -7.5508e+001 -4.3953e+002  1.6279e+001 68988 69447,69681,69629
 3.5000e+000 69868  3.0786e+001 -3.9483e+002  1.6765e+001 68988 69421,69681,69447
 3.5000e+000 69845  2.0382e+000 -2.1810e+002  8.5901e-001 68988 69447,69629,69577
 3.5000e+000 69822 -1.2568e+002 -4.5816e+002 -5.1124e+001 68988 69447,69577,69473
 3.5000e+000 69799 -1.9119e+001 -5.2099e+002  8.4056e+001 68988 69629,69681,69655
 3.5000e+000 69776 -1.3641e+002 -2.7797e+002  6.2810e+000 68988 69577,69629,69603
 3.5000e+000 69753 -9.8671e+001 -4.0721e+002 -6.1887e+001 68988 69473,69577,69551
 3.5000e+000 69730 -1.4941e+002 -8.1751e+002 -8.1940e+001 68988 69473,69551,69525
 3.5000e+000 69707 -2.5099e+002 -5.4167e+002  7.1954e-001 68988 69473,69525,69499
 3.5000e+000 69992 -2.4927e+002 -4.7099e+002 -6.4268e+001 68676 69914,69966,69940
 3.5000e+000 70392 -1.7028e+002 -3.6184e+002  2.7464e+001 68478 70118,70248,70144
 3.5000e+000 70369  1.0804e+001 -3.6673e+002  7.8565e+001 68478 70118,70274,70248
 3.5000e+000 70346 -1.0382e+002 -2.7321e+002 -1.7264e+000 68478 70144,70222,70196
 3.5000e+000 70323 -8.6717e+001 -2.2914e+002 -1.1452e+001 68478 70144,70248,70222
 3.5000e+000 70300 -1.1363e+002 -3.0121e+002 -6.6338e+000 68478 70144,70196,70170
 3.5000e+000 70841  6.6836e+001 -2.4063e+002 -6.8626e+001 68280 70570,70622,70596
 3.5000e+000 70818 -1.1988e+002 -2.7544e+002 -1.6166e+001 68280 70544,70622,70570
 3.5000e+000 70795 -8.7598e+001 -2.0312e+002 -9.5801e+000 68280 70544,70674,70622
 3.5000e+000 70772 -7.6009e+001 -1.8038e+002  3.5033e+000 68280 70622,70674,70648
 3.5000e+000 70749 -1.2619e+002 -3.0775e+002  2.3060e+001 68280 70518,70674,70544
 3.5000e+000 70726  1.0810e+002 -3.2020e+002  9.1534e+001 68280 70518,70700,70674
 3.5000e+000 70991 -1.4655e+001 -1.2910e+003  3.8503e+001 67968 70864,70916,70890
 3.5000e+000 70968 -3.4198e+002 -1.2823e+003  1.4822e+002 67968 70864,70942,70916
 3.5000e+000 71141 -6.0528e+002 -1.1628e+003 -5.4742e+001 67770 71040,71092,71066
 3.5000e+000 71118 -5.3062e+002 -1.3955e+003  6.0681e+001 67770 71014,71092,71040
 3.5000e+000 71651 -7.9783e+001 -2.4565e+002 -4.4277e+001 67366 71746,71674,71458
 3.5000e+000 71628 -4.9490e+001 -1.9969e+002 -4.7674e+001 67366 71674,71354,71510
 3.5000e+000 71605 -7.1326e+001 -2.7100e+002 -4.1686e+001 67366 71746,71458,71432
 3.5000e+000 71582 -1.1510e+002 -2.7796e+002  1.0932e+001 67366 71354,71432,71380
 3.5000e+000 71559 -1.2580e+002 -1.9528e+002 -2.8859e+001 67366 71380,71432,71406
 3.5000e+000 71536 -5.5489e+001 -7.9016e+001 -6.1355e+000 67366 71328,71510,71354
 3.5000e+000 71700 -9.0496e+001 -2.2317e+002 -2.0333e+001 67366 71484,71458,71674
 3.5000e+000 71723 -5.9050e+001 -2.0903e+002 -1.7123e+001 67366 71484,71674,71510
 3.5000e+000 71772 -6.9680e+001 -2.1561e+002 -3.9071e+001 67366 71354,71674,71746
 3.5000e+000 71795 -6.0298e+001 -2.3811e+002 -3.9542e+001 67366 71354,71746,71432
 3.5000e+000 71896 -2.4913e+002 -5.3496e+002  0.0000e+000 67146 71818,71870,71844
 3.5000e+000 71997 -3.1073e+002 -4.3670e+002  8.7390e+001 66948 71919,71971,71945
 3.5000e+000 72149 -8.0761e+000 -3.1598e+002 -3.7406e+001 66700 72172,72074,72048
 3.5000e+000 72126 -1.0324e+002 -3.5478e+002 -1.4855e+001 66700 72172,72048,72022
 3.5000e+000 72198 -1.6883e+002 -3.9259e+002  2.6388e+001 66700 72244,72172,72100
 3.5000e+000 72221 -1.5084e+002 -3.5844e+002 -2.2691e+001 66700 72100,72172,72022
 3.5000e+000 72270 -8.4286e+001 -2.0764e+002 -2.5289e+001 66700 72074,72172,72244
 3.5000e+000 72623 -1.0833e+002 -3.2698e+002  8.8365e+000 66502 72424,72502,72450
 3.5000e+000 72600 -8.9194e+001 -2.7346e+002  5.0145e+000 66502 72398,72502,72424
 3.5000e+000 72577 -6.5286e+001 -3.1190e+002 -6.5543e+000 66502 72398,72528,72502
 3.5000e+000 72554 -1.0627e+002 -2.9106e+002 -1.9817e+000 66502 72450,72502,72476
 3.5000e+000 72920 -1.8298e+002 -3.8010e+002  9.4182e+000 65941 72672,72776,72750
 3.5000e+000 72897 -1.8329e+002 -3.2761e+002  3.6173e+001 65941 72646,72776,72672
 3.5000e+000 72874 -1.6080e+002 -3.7378e+002  1.2162e+001 65941 72672,72750,72724
 3.5000e+000 72851 -1.6290e+002 -2.9450e+002  2.8343e+001 65941 72672,72724,72698
 3.5000e+000 72828 -1.4127e+002 -3.2946e+002  3.4459e+001 65941 72646,72802,72776
 3.5000e+000 73241 -2.8653e+001 -2.7419e+002  2.2919e+001 65743 73264,73071,73045
 3.5000e+000 73218 -1.0495e+002 -3.0743e+002  2.9558e+001 65743 73480,73264,73045
 3.5000e+000 73195 -8.9431e+001 -2.8117e+002 -3.8947e+000 65743 73336,72967,73097
 3.5000e+000 73172 -1.6325e+002 -2.5584e+002 -3.1173e+001 65743 73408,72993,72967
 3.5000e+000 73149 -7.8015e+001 -2.8035e+002 -3.5642e+000 65743 72967,73123,73097
 3.5000e+000 73290 -6.1755e+001 -2.9054e+002  5.7089e+000 65743 73097,73071,73264
 3.5000e+000 73313 -7.3562e+001 -2.6445e+002  1.2985e+001 65743 73336,73097,73264
 3.5000e+000 73362 -1.3879e+002 -2.8904e+002 -2.1329e+001 65743 73408,72967,73336
 3.5000e+000 73385 -6.3524e+001 -2.6277e+002 -8.6854e-001 65743 73019,73336,73264
 3.5000e+000 73434 -1.2250e+002 -1.9488e+002  1.4133e+001 65743 73019,72993,73408
 3.5000e+000 73457 -6.5581e+001 -2.3859e+002  9.2852e+000 65743 73019,73408,73336
 3.5000e+000 73506 -4.0513e+001 -1.9517e+002  3.5220e+000 65743 73019,73264,73480
 3.5000e+000 73989 -9.4802e+000 -2.1570e+002  2.6504e+001 65453 73793,73845,73819
 3.5000e+000 73966 -1.1345e+002 -2.4307e+002  3.0606e+001 65453 73741,73845,73793
 3.5000e+000 73943 -2.6627e+001 -1.9532e+002  1.2092e+001 65453 73715,73845,73741
 3.5000e+000 73920 -8.9205e+001 -2.5831e+002  5.0517e+001 65453 73741,73793,73767
 3.5000e+000 73897  7.2371e+000 -1.2187e+002  2.6371e+000 65453 73715,73871,73845
 3.5000e+000 74357 -6.7454e+001 -2.8675e+002 -7.9566e+001 65141 74380,74138,74086
 3.5000e+000 74334 -1.2650e+002 -3.8576e+002 -5.3836e+001 65141 74380,74086,74060
 3.5000e+000 74311 -1.4282e+002 -3.7448e+002 -1.3853e+001 65141 74138,74190,74164
 3.5000e+000 74288 -1.0593e+002 -4.1717e+002 -1.5982e+001 65141 74060,74216,74190
 3.5000e+000 74265 -1.1374e+002 -4.4227e+002  7.4888e+000 65141 74034,74216,74060
 3.5000e+000 74242 -8.8483e+001 -2.2885e+002 -5.3130e+001 65141 74086,74138,74112
 3.5000e+000 74406 -1.0361e+002 -3.7455e+002 -3.1799e+001 65141 74190,74138,74380
 3.5000e+000 74429 -1.2198e+002 -4.0884e+002 -1.5060e+001 65141 74190,74380,74060
 3.5000e+000 74937 -1.4143e+002 -2.8878e+002 -7.5150e+001 64737 74614,74666,74640
 3.5000e+000 74914 -1.7357e+002 -3.5762e+002 -5.5829e+001 64737 74614,74796,74666
 3.5000e+000 74891 -1.2522e+002 -2.5024e+002 -1.0979e+001 64737 74960,74718,74666
 3.5000e+000 74868 -1.0855e+002 -2.7442e+002 -3.4366e+001 64737 74960,74666,74770
 3.5000e+000 74845 -1.1101e+002 -2.1841e+002 -3.6165e+001 64737 74666,74796,74770
 3.5000e+000 74822 -1.2366e+002 -2.7173e+002  2.4438e+000 64737 74666,74718,74692
 3.5000e+000 74986 -1.3536e+002 -2.7514e+002 -9.7376e+000 64737 74744,74718,74960
 3.5000e+000 75009 -1.2446e+002 -3.1148e+002 -3.3580e+001 64737 74744,74960,74770
 3.5000e+000 75306 -4.7228e+001 -2.5431e+002  3.4939e+001 64133 75329,75110,75084
 3.5000e+000 75283 -7.4725e+001 -2.9326e+002  1.4066e+001 64133 75401,75329,75084
 3.5000e+000 75260 -7.3123e+001 -3.0302e+002  1.6238e+001 64133 75401,75084,75058
 3.5000e+000 75237 -6.4611e+001 -3.3537e+002  3.2319e+001 64133 75473,75136,75110
 3.5000e+000 75214 -8.2712e+001 -2.6782e+002  4.6195e+000 64133 75032,75188,75162
 3.5000e+000 75355 -7.3348e+001 -3.1733e+002  2.5849e+001 64133 75473,75110,75329
 3.5000e+000 75378 -6.1619e+001 -2.7798e+002  3.7915e+000 64133 75162,75329,75032
 3.5000e+000 75427 -5.8778e+001 -2.7196e+002  5.6359e+000 64133 75032,75329,75401
 3.5000e+000 75450 -1.2391e+002 -3.3597e+002  3.9294e+001 64133 75545,75401,75058
 3.5000e+000 75499 -6.6579e+001 -3.1199e+002  6.7881e+000 64133 75162,75136,75473
 3.5000e+000 75522 -6.9738e+001 -2.7655e+002  7.3506e+000 64133 75162,75473,75329
 3.5000e+000 75571 -5.6347e+001 -1.8822e+002  1.3322e+001 64133 75032,75401,75545
 3.5000e+000 75851 -1.0034e+002 -2.6976e+002  3.1388e+000 63843 75874,75753,75727
 3.5000e+000 75828 -8.7878e+001 -2.7422e+002 -1.7572e+001 63843 75946,75874,75727
 3.5000e+000 75805 -1.0371e+002 -2.9595e+002 -7.8695e+000 63843 76018,75946,75727
 3.5000e+000 75900 -7.2853e+001 -2.5806e+002 -5.8726e+000 63843 75779,75753,75874
 3.5000e+000 75923 -8.1148e+001 -2.2222e+002 -3.2275e+001 63843 75779,75874,75675
 3.5000e+000 75972 -1.0391e+002 -2.5365e+002 -1.3304e+001 63843 75675,75874,75946
 3.5000e+000 75995 -9.3939e+001 -2.6933e+002 -2.2157e+001 63843 75675,75946,75701
 3.5000e+000 76044 -1.0410e+002 -2.8182e+002 -2.9024e+001 63843 75701,75946,76018
 3.5000e+000 76454  2.4795e+001 -5.0319e+001 -3.5526e+001 63439 76477,76255,76229
 3.5000e+000 76431 -2.2807e+001 -1.3349e+002 -6.1172e+000 63439 76477,76229,76359
 3.5000e+000 76408 -3.7677e+001 -1.0390e+002  5.7147e+001 63439 76307,76359,76333
 3.5000e+000 76385 -1.6745e+001 -1.4099e+002  7.3876e+000 63439 76255,76307,76281
 3.5000e+000 76503 -2.1129e+001 -1.1488e+002  1.4491e+001 63439 76307,76255,76477
 3.5000e+000 76526 -2.0922e+001 -1.4828e+002  3.5396e+001 63439 76307,76477,76359
 3.5000e+000 76926 -5.9490e+001 -2.0728e+002 -5.3885e+000 63049 76704,76782,76756
 3.5000e+000 76903 -9.1883e+001 -2.1666e+002 -2.2131e+001 63049 76704,76808,76782
 3.5000e+000 76880 -6.4890e+001 -2.4470e+002  3.2587e+000 63049 76704,76756,76730
 3.5000e+000 76857 -5.6880e+001 -1.3864e+002  8.2200e+000 63049 76678,76808,76704
 3.5000e+000 76834 -2.7245e+001 -3.4318e+001 -3.1535e+001 63049 76652,76808,76678
 3.5000e+000 77076 -2.1493e+001 -3.1475e+002 -1.7586e+000 62737 76975,77027,77001
 3.5000e+000 77053 -2.0698e+001 -3.5365e+002 -2.2371e+001 62737 76949,77027,76975
 3.5000e+000 77324 -1.4194e+002 -3.1979e+002 -5.5976e+000 62277 77347,77177,77125
 3.5000e+000 77301 -1.3401e+002 -3.0934e+002 -1.7195e+001 62277 77347,77125,77229
 3.5000e+000 77278 -1.2923e+002 -3.1859e+002 -2.3259e+001 62277 77099,77229,77125
 3.5000e+000 77255 -1.4718e+002 -3.9526e+002  1.8888e+000 62277 77125,77177,77151
 3.5000e+000 77373 -1.4773e+002 -3.4804e+002  1.0833e+001 62277 77203,77177,77347
 3.5000e+000 77396 -1.1874e+002 -3.2145e+002 -4.7076e+000 62277 77203,77347,77229
 3.5000e+000 77857 -6.5893e+001 -3.9000e+002  3.3534e+000 61758 77635,77739,77661
 3.5000e+000 77834 -1.0689e+002 -3.8051e+002 -1.8629e+001 61758 77583,77739,77635
 3.5000e+000 77811 -1.2042e+002 -4.6926e+002 -4.9357e+001 61758 77583,77635,77609
 3.5000e+000 77788 -9.6863e+001 -3.6674e+002  3.0791e+001 61758 77661,77713,77687
 3.5000e+000 77765 -1.0135e+002 -4.3061e+002  3.0486e+001 61758 77661,77739,77713
 3.5000e+000 78491 -1.0712e+002 -2.2329e+002  1.2688e+001 61418 78171,78301,78249
 3.5000e+000 78468 -8.9325e+001 -1.8742e+002  2.6729e+001 61418 78145,78301,78171
 3.5000e+000 78445 -7.9816e+001 -1.9693e+002 -1.2356e+001 61418 78171,78249,78223
 3.5000e+000 78422 -8.4623e+001 -1.8496e+002  1.0795e+001 61418 78145,78327,78301
 3.5000e+000 78399 -1.0968e+002 -2.4491e+002 -5.5075e-001 61418 78249,78301,78275
 3.5000e+000 78376 -4.9424e+001 -2.0764e+002 -1.7930e+001 61418 78171,78223,78197
 3.5000e+000 78353 -1.0391e+002 -2.3973e+002 -4.5235e+000 61418 78119,78327,78145
 3.5000e+000 78690 -1.1911e+002 -2.7764e+002 -4.9635e+000 61014 78713,78566,78540
 3.5000e+000 78667 -7.6367e+001 -2.8092e+002 -2.8887e+000 61014 78713,78540,78618
 3.5000e+000 78644 -1.3050e+002 -3.1711e+002 -3.1775e+001 61014 78514,78618,78540
 3.5000e+000 78739 -5.9000e+001 -2.6916e+002  2.7850e+001 61014 78592,78566,78713
 3.5000e+000 78762 -6.8175e+001 -2.9928e+002  2.2997e-001 61014 78785,78713,78618
 3.5000e+000 78811 -2.2569e+001 -2.8142e+002 -4.4942e+000 61014 78592,78713,78785
 3.5000e+000 79398 -4.8640e+001 -2.3850e+002 -2.6940e+001 60624 79101,79179,79153
 3.5000e+000 79375 -7.0279e+001 -2.6702e+002 -1.4768e+001 60624 79101,79231,79179
 3.5000e+000 79352 -5.4959e+001 -2.6647e+002 -2.2573e+001 60624 79075,79231,79101
 3.5000e+000 79329 -1.7074e+001 -3.2510e+002  3.6464e+001 60624 79075,79257,79231
 3.5000e+000 79306 -5.2116e+001 -1.9616e+002 -5.0641e+001 60624 79179,79231,79205
 3.5000e+000 79283 -3.6127e+001 -2.1154e+002 -1.3207e+001 60624 79101,79153,79127
 3.5000e+000 79776 -1.2589e+002 -3.5152e+002  3.5163e+001 60070 79528,79658,79606
 3.5000e+000 79753 -1.1112e+002 -2.6841e+002 -1.3439e+000 60070 79502,79658,79528
 3.5000e+000 79730 -1.5781e+002 -3.3986e+002  4.9529e+001 60070 79528,79606,79580
 3.5000e+000 79707 -2.7361e+001 -2.9075e+002  5.6791e+000 60070 79606,79658,79632
 3.5000e+000 79684 -1.2390e+001 -2.0711e+002 -5.5175e+001 60070 79528,79580,79554
 3.5000e+000 80105 -8.4348e+001 -2.6827e+002  3.4672e+001 59758 80128,79958,79906
 3.5000e+000 80082 -9.3836e+001 -2.5385e+002  2.6806e+001 59758 80128,79906,80010
 3.5000e+000 80059 -1.2520e+002 -2.7941e+002  9.8206e+001 59758 79906,79958,79932
 3.5000e+000 80036 -1.4417e+002 -2.9501e+002  8.7749e+000 59758 79880,80010,79906
 3.5000e+000 80154 -8.9704e+001 -2.7721e+002  3.2424e+001 59758 79984,79958,80128
 3.5000e+000 80177 -1.0037e+002 -2.6607e+002  2.4189e+001 59758 79984,80128,80010
 3.5000e+000 80376 -7.0757e+001 -2.7197e+002  5.5258e+000 59312 80226,80304,80252
 3.5000e+000 80353 -7.3912e+001 -2.7342e+002  4.3435e+000 59312 80200,80304,80226
 3.5000e+000 80330 -1.1092e+002 -2.4307e+002  7.2599e+001 59312 80252,80304,80278
 3.5000e+000 80805 -9.9373e+001 -2.2425e+002 -3.5872e+001 58908 80900,80828,80638
 3.5000e+000 80782 -8.5181e+001 -2.6398e+002 -5.3946e+001 58908 80828,80560,80508
 3.5000e+000 80759 -1.0372e+002 -2.0944e+002 -1.1767e+001 58908 80900,80638,80612
 3.5000e+000 80736 -4.3930e+001 -2.3070e+002  9.0274e+001 58908 80482,80664,80508
 3.5000e+000 80713 -6.9012e+001 -1.9568e+002 -2.8946e+000 58908 80560,80612,80586
 3.5000e+000 80690 -9.4020e+001 -6.2025e+002 -1.2219e+002 58908 80508,80560,80534
 3.5000e+000 80854 -4.8482e+001 -2.4235e+002 -9.5507e-001 58908 80664,80638,80828
 3.5000e+000 80877 -8.0021e+001 -3.4943e+002  5.2232e+000 58908 80664,80828,80508
 3.5000e+000 80926 -8.4703e+001 -1.8048e+002 -3.7987e+001 58908 80560,80828,80900
 3.5000e+000 80949 -9.4800e+001 -1.8017e+002 -1.0540e+001 58908 80560,80900,80612
 3.5000e+000 81246 -3.5341e+001 -2.0751e+002 -5.7317e+000 58482 81076,81128,81102
 3.5000e+000 81223 -9.2796e+001 -3.5400e+002 -3.5523e+001 58482 80972,81128,81076
 3.5000e+000 81200 -5.8655e+001 -2.4105e+002 -3.7841e+001 58482 80972,81076,81050
 3.5000e+000 81177 -1.3299e+002 -3.7548e+002 -7.0538e+000 58482 80998,81050,81024
 3.5000e+000 81154 -7.0086e+001 -3.0283e+002 -3.3851e+001 58482 80972,81050,80998
 3.5000e+000 81754 -1.0454e+002 -2.2131e+002  1.8095e+001 57828 81457,81613,81483
 3.5000e+000 81731 -1.1916e+002 -2.4839e+002  8.7828e+000 57828 81431,81613,81457
 3.5000e+000 81708 -1.1425e+002 -2.4397e+002  1.9058e+001 57828 81483,81613,81509
 3.5000e+000 81685 -1.3762e+002 -2.7917e+002  2.9387e+001 57828 81509,81613,81587
 3.5000e+000 81662 -1.4437e+002 -4.0553e+002  5.7535e+001 57828 81509,81587,81535
 3.5000e+000 81639 -8.4931e+001 -3.8838e+002  3.7614e+001 57828 81535,81587,81561
 3.5000e+000 82002 -1.7197e+002 -4.1685e+002 -2.2403e+000 57374 82025,81855,81829
 3.5000e+000 81979 -1.8377e+002 -3.9624e+002  1.5187e+001 57374 82025,81829,81907
 3.5000e+000 81956 -1.9204e+002 -3.6628e+002  6.0429e+000 57374 81803,81907,81829
 3.5000e+000 81933 -1.2122e+002 -3.4154e+002  8.2255e+000 57374 81777,81907,81803
 3.5000e+000 82051 -1.6469e+002 -3.9188e+002 -6.0909e+000 57374 81881,81855,82025
 3.5000e+000 82074 -1.7715e+002 -3.7637e+002  1.6599e+001 57374 81881,82025,81907
 3.5000e+000 82356 -8.9316e+001 -2.1534e+002 -1.9417e+001 56913 82180,82232,82206
 3.5000e+000 82333 -7.0610e+001 -1.9354e+002  2.2387e+001 56913 82180,82284,82232
 3.5000e+000 82310 -2.4876e+001 -1.7457e+002  3.7886e+001 56913 82379,82232,82284
 3.5000e+000 82405  2.2375e+001 -1.6789e+002  1.1119e+001 56913 82258,82232,82379
 3.5000e+000 82764 -9.2863e+001 -1.4729e+002 -1.4822e+001 56523 82614,82666,82640
 3.5000e+000 82741 -7.8465e+001 -1.4807e+002 -2.2432e+001 56523 82614,82692,82666
 3.5000e+000 82718 -6.7185e+001 -1.5896e+002 -4.6028e+001 56523 82588,82692,82614
 3.5000e+000 83368 -2.5016e+001 -2.8294e+002 -1.4259e+001 55969 82973,83155,83129
 3.5000e+000 83345  3.2488e+000 -2.7161e+002 -1.9214e+001 55969 82973,83181,83155
 3.5000e+000 83322 -7.4836e+001 -2.4950e+002 -1.2472e+001 55969 82973,83129,82999
 3.5000e+000 83299 -1.1959e+002 -2.5703e+002  7.0810e+000 55969 83391,83025,82999
 3.5000e+000 83276 -9.8639e+001 -2.6361e+002 -4.3847e-001 55969 83391,82999,83129
 3.5000e+000 83253 -2.7394e+001 -2.1826e+002  3.7625e+001 55969 83077,83129,83103
 3.5000e+000 83230 -1.1618e+002 -2.0034e+002 -1.3936e+001 55969 83025,83077,83051
 3.5000e+000 83207 -2.7197e+000 -2.6119e+002  2.6855e+001 55969 82947,83181,82973
 3.5000e+000 83417 -9.9368e+001 -2.4643e+002  1.1222e+001 55969 83077,83025,83391
 3.5000e+000 83440 -9.1930e+001 -2.5935e+002  1.3944e+000 55969 83077,83391,83129
 3.5000e+000 83946 -1.7679e+002 -3.6926e+002  6.4110e+001 55771 83969,83779,83727
 3.5000e+000 83923 -1.4001e+002 -3.0165e+002  2.8260e+001 55771 83969,83727,83623
 3.5000e+000 83900 -1.6910e+002 -1.7602e+002  1.5621e+001 55771 83623,83727,83649
 3.5000e+000 83877 -8.2217e+001 -6.1025e+002  5.0014e+001 55771 83727,83779,83753
 3.5000e+000 83854 -2.8490e+002 -2.8213e+002  1.2008e+002 55771 83675,83727,83701
 3.5000e+000 83831 -2.6071e+002 -2.8685e+002  1.1677e+002 55771 83649,83727,83675
 3.5000e+000 83995 -1.5648e+002 -3.7892e+002 -2.4936e+001 55771 83805,83779,83969
 3.5000e+000 84018 -7.5305e+001 -2.3829e+002 -6.8844e+001 55771 83805,83969,83623
 3.5000e+000 84168 -7.4438e+001 -1.9664e+002 -6.0611e+000 55367 84191,84067,84041
 3.5000e+000 84145 -7.2882e+001 -2.2219e+002 -4.0075e+000 55367 84191,84041,84119
 3.5000e+000 84217 -7.9492e+001 -1.8187e+002 -5.5598e+000 55367 84093,84067,84191
 3.5000e+000 84240 -6.9602e+001 -1.9657e+002  3.7104e+000 55367 84093,84191,84119
 3.5000e+000 84571 -3.9352e+001 -3.2573e+002 -3.4221e+001 54913 84398,84450,84424
 3.5000e+000 84548 -2.5312e+001 -2.9532e+002 -1.6825e+001 54913 84372,84450,84398
 3.5000e+000 84525 -7.3653e+001 -3.3467e+002  1.2256e+001 54913 84346,84450,84372
 3.5000e+000 84502 -2.0148e+001 -2.1223e+002 -2.7703e+001 54913 84346,84476,84450
 3.5000e+000 85126 -1.5956e+002 -3.5793e+002 -1.3128e+001 54402 84858,84936,84910
 3.5000e+000 85103 -1.2183e+002 -2.8086e+002 -3.5562e+001 54402 84806,84936,84858
 3.5000e+000 85080 -1.4063e+002 -2.5549e+002 -2.7530e+001 54402 84780,84936,84806
 3.5000e+000 85057 -1.2290e+002 -3.1110e+002 -1.7149e+001 54402 84806,84858,84832
 3.5000e+000 85034 -1.2563e+002 -2.4077e+002  9.9199e+000 54402 84780,84962,84936
 3.5000e+000 85011 -1.9770e+002 -2.1228e+002 -7.7940e+000 54402 84858,84910,84884
 3.5000e+000 84988 -1.2120e+002 -2.2833e+002  1.0221e+001 54402 84754,84962,84780
 3.5000e+000 85396 -1.1972e+002 -1.4633e+002 -1.0988e+001 53998 85197,85249,85223
 3.5000e+000 85373 -9.1046e+001 -1.8802e+002 -2.6341e+000 53998 85197,85275,85249
 3.5000e+000 85350 -1.1470e+002 -2.1997e+002 -1.3488e+001 53998 85171,85275,85197
 3.5000e+000 85327 -5.2705e+001 -2.0451e+002 -1.6883e+001 53998 85171,85301,85275
 3.5000e+000 85749 -7.3001e+001 -2.6939e+002 -5.0001e+000 53636 85524,85628,85550
 3.5000e+000 85726 -1.1706e+002 -2.9589e+002  9.7188e+000 53636 85524,85654,85628
 3.5000e+000 85703 -4.3639e+001 -2.9090e+002 -2.7234e+001 53636 85550,85602,85576
 3.5000e+000 85680 -7.4043e+001 -2.6782e+002 -1.2867e+001 53636 85550,85628,85602
 3.5000e+000 86127 -2.6398e+001 -2.5655e+002  3.9400e+001 52982 86150,85957,85879
 3.5000e+000 86104 -8.1522e+001 -2.9999e+002  2.0352e+001 52982 86150,85879,85853
 3.5000e+000 86081 -2.4520e+001 -3.7591e+002  7.5729e+001 52982 85957,86009,85983
 3.5000e+000 86058 -1.0354e+002 -2.7415e+002  3.1722e+001 52982 85879,85957,85931
 3.5000e+000 86035 -6.0498e+001 -2.6036e+002 -1.6477e+001 52982 85879,85931,85905
 3.5000e+000 86176  1.0689e+001 -3.0411e+002  3.2120e+001 52982 86009,85957,86150
 3.5000e+000 86199 -2.2076e+001 -3.3510e+002  1.9362e+001 52982 86009,86150,85853
 3.5000e+000 86398 -5.6763e+001 -1.9891e+002  1.8120e+001 52542 86421,86248,86222
 3.5000e+000 86375 -1.0024e+002 -2.0327e+002 -2.2063e+000 52542 86421,86222,86300
 3.5000e+000 86352 -1.0003e+002 -2.1912e+002 -9.7344e+000 52542 86222,86326,86300
 3.5000e+000 86447 -1.2504e+001 -1.9984e+002  3.5720e+001 52542 86274,86248,86421
 3.5000e+000 86470 -5.3762e+001 -2.1091e+002  1.0079e+001 52542 86274,86421,86300
 3.5000e+000 86669 -9.9678e+001 -2.1192e+002 -3.3972e+001 52230 86692,86571,86545
 3.5000e+000 86646 -9.5355e+001 -1.9805e+002 -1.9281e+001 52230 86692,86545,86519
 3.5000e+000 86623 -1.3187e+002 -2.0907e+002 -3.3327e+001 52230 86493,86597,86519
 3.5000e+000 86718 -1.0652e+002 -2.1630e+002 -4.1244e+001 52230 86597,86571,86692
 3.5000e+000 86741 -1.1221e+002 -2.0668e+002 -2.7530e+001 52230 86597,86692,86519
 3.5000e+000 87153 -1.3440e+002 -2.1154e+002  1.1370e+001 51640 86980,87058,87032
 3.5000e+000 87130 -1.3607e+002 -2.1674e+002  9.2253e+000 51640 86928,87058,86980
 3.5000e+000 87107 -1.4486e+002 -2.8625e+002 -7.5975e+000 51640 86928,86980,86954
 3.5000e+000 87084 -7.3110e+001 -1.8554e+002 -6.5667e-001 51640 86980,87032,87006
 3.5000e+000 87659 -4.9899e+001 -1.8672e+002  1.1897e+001 51029 87682,87440,87362
 3.5000e+000 87636 -5.0447e+001 -2.0219e+002 -1.4911e+001 51029 87682,87362,87336
 3.5000e+000 87613 -8.3492e+001 -2.9444e+002 -9.3130e+000 51029 87440,87518,87466
 3.5000e+000 87590 -1.0216e+002 -1.9041e+002  1.6582e+001 51029 87362,87440,87414
 3.5000e+000 87567 -8.4434e+001 -1.4508e+002  3.6321e+001 51029 87362,87414,87388
 3.5000e+000 87544 -1.1912e+002 -2.4710e+002  6.1917e+000 51029 87466,87518,87492
 3.5000e+000 87708 -4.5470e+001 -2.1356e+002  1.2152e+000 51029 87518,87440,87682
 3.5000e+000 87731 -4.7308e+001 -2.4907e+002 -1.5720e+001 51029 87518,87682,87336
 3.5000e+000 87881 -1.2392e+002 -2.6695e+002  6.6716e+000 50739 87780,87832,87806
 3.5000e+000 87858 -1.4027e+002 -2.6655e+002 -1.1974e+001 50739 87754,87832,87780
 3.5000e+000 88468 -7.1521e+001 -1.7373e+002  7.7188e+000 50235 88171,88327,88197
 3.5000e+000 88445 -1.6501e+002 -1.7279e+002 -2.8442e+001 50235 88145,88327,88171
 3.5000e+000 88422  4.8446e+001 -9.0685e+001  4.1073e+001 50235 88275,88327,88301
 3.5000e+000 88399 -4.2958e+001 -1.3054e+002 -4.6421e+000 50235 88197,88327,88275
 3.5000e+000 88376  1.2489e+001 -1.6189e+002  4.4972e+000 50235 88197,88275,88223
 3.5000e+000 88353 -2.8055e+000 -1.8041e+002  1.4503e+001 50235 88223,88275,88249
 3.5000e+000 88895 -1.1051e+002 -2.7867e+002  1.0564e+001 49873 88918,88728,88676
 3.5000e+000 88872 -9.5318e+001 -2.6771e+002 -1.5971e+000 49873 88918,88676,88624
 3.5000e+000 88849 -7.4757e+001 -2.3381e+002 -3.9720e+000 49873 88598,88754,88624
 3.5000e+000 88826 -5.9739e+001 -2.5150e+002 -5.5029e+000 49873 88624,88676,88650
 3.5000e+000 88803 -9.4948e+001 -3.4252e+002  1.2187e+001 49873 88676,88728,88702
 3.5000e+000 88780 -8.0405e+001 -2.0890e+002  1.0532e+001 49873 88572,88754,88598
 3.5000e+000 88944 -9.0323e+001 -2.7434e+002  3.2736e+000 49873 88754,88728,88918
 3.5000e+000 88967 -8.5201e+001 -2.7283e+002 -7.7042e+000 49873 88754,88918,88624
 3.5000e+000 89473 -1.7730e+002 -2.7114e+002 -3.1731e+001 49583 89176,89306,89202
 3.5000e+000 89450 -1.7790e+002 -2.6561e+002 -4.5656e+001 49583 89176,89332,89306
 3.5000e+000 89427 -1.0524e+002 -3.0013e+002  1.1756e+001 49583 89496,89228,89202
 3.5000e+000 89404 -1.0380e+002 -3.0620e+002  1.4132e+001 49583 89496,89202,89280
 3.5000e+000 89381 -2.1295e+002 -3.8034e+002 -6.4429e+001 49583 89202,89306,89280
 3.5000e+000 89358 -1.4336e+002 -2.7058e+002 -5.3719e+001 49583 89150,89332,89176
 3.5000e+000 89522 -9.8251e+001 -2.6035e+002  8.1640e+000 49583 89254,89228,89496
 3.5000e+000 89545 -1.1543e+002 -2.9502e+002  1.4029e+001 49583 89254,89496,89280
 3.5000e+000 89825  4.0250e+001 -2.6833e+002  1.3410e+001 49179 89701,89753,89727
 3.5000e+000 89802 -3.6776e+001 -2.4018e+002  2.0526e+001 49179 89675,89753,89701
 3.5000e+000 89779 -2.8471e+001 -2.1451e+002  1.1712e+001 49179 89848,89753,89675
 3.5000e+000 89874 -1.4601e+002 -2.4717e+002 -1.9417e+001 49179 89649,89753,89848
 3.5000e+000 90223 -6.2783e+001 -2.6461e+002 -1.8466e+001 48739 90024,90102,90076
 3.5000e+000 90200 -9.5984e+001 -2.6868e+002 -7.2926e+000 48739 90024,90128,90102
 3.5000e+000 90177 -5.0392e+001 -2.8023e+002 -1.1009e+001 48739 90024,90076,90050
 3.5000e+000 90154 -4.0919e+001 -2.5734e+002  2.2002e+001 48739 89998,90128,90024
 3.5000e+000 90603 -9.2646e+001 -2.3594e+002  4.5577e+001 48335 90381,90485,90459
 3.5000e+000 90580 -1.1180e+002 -2.6515e+002  3.6930e+001 48335 90355,90485,90381
 3.5000e+000 90557 -4.3832e+001 -9.7001e+001  2.7056e+001 48335 90381,90433,90407
 3.5000e+000 90534 -8.4423e+001 -2.3833e+002  3.9251e+001 48335 90381,90459,90433
 3.5000e+000 90511  1.5135e+001 -1.9463e+002  6.6799e+001 48335 90329,90485,90355
 3.5000e+000 90753 -1.1093e+001 -1.4607e+002  8.4999e+001 47824 90776,90652,90704
 3.5000e+000 90730 -7.7826e+001 -2.4666e+002  4.3235e+001 47824 90626,90704,90652
 3.5000e+000 90802 -4.0111e+001 -1.9044e+002  6.7787e+001 47824 90678,90652,90776
 3.5000e+000 91131 -8.1211e+001 -2.8434e+002  1.2345e+001 47427 91154,90958,90906
 3.5000e+000 91108 -1.4582e+002 -3.1063e+002 -1.7651e+000 47427 91154,90906,91036
 3.5000e+000 91085 -1.4341e+002 -2.5034e+002 -2.4096e+001 47427 90958,91010,90984
 3.5000e+000 91062 -8.4896e+001 -2.6594e+002  1.6738e+001 47427 90906,90958,90932
 3.5000e+000 91180 -1.1935e+002 -2.8372e+002 -3.0005e+001 47427 91010,90958,91154
 3.5000e+000 91203 -1.8191e+002 -3.1090e+002 -4.5262e+001 47427 91010,91154,91036
 3.5000e+000 91583 -1.6637e+002 -3.0386e+002 -1.6559e+001 46873 91309,91439,91335
 3.5000e+000 91560 -1.7121e+002 -3.1203e+002 -1.4292e+001 46873 91309,91465,91439
 3.5000e+000 91537 -2.3969e+002 -3.5196e+002 -7.8561e+001 46873 91361,91439,91413
 3.5000e+000 91514 -1.8021e+002 -3.1328e+002 -3.8288e+001 46873 91335,91439,91361
 3.5000e+000 91491 -7.5661e+001 -2.9157e+002 -6.5893e+001 46873 91361,91413,91387
 3.5000e+000 91880 -8.8709e+001 -2.8513e+002 -6.9740e+000 46526 91606,91710,91658
 3.5000e+000 91857 -9.2677e+001 -2.9915e+002  2.1380e+000 46526 91606,91762,91710
 3.5000e+000 91834 -5.1383e+001 -2.7566e+002 -3.4875e+001 46526 91606,91658,91632
 3.5000e+000 91811 -1.0661e+002 -2.6573e+002  4.7171e+000 46526 91658,91710,91684
 3.5000e+000 91788 -5.9429e+001 -2.0008e+002  9.6423e+000 46526 91710,91762,91736
 3.5000e+000 92211 -5.6939e+001 -1.3483e+002 -1.4734e+001 45700 91986,92064,92038
 3.5000e+000 92188 -8.4763e+001 -1.8850e+002 -1.0071e+000 45700 91986,92116,92064
 3.5000e+000 92165 -3.8538e+001 -1.0828e+002 -3.6965e+001 45700 91986,92038,92012
 3.5000e+000 92142 -5.3759e+001 -2.0885e+002  2.9761e+001 45700 92064,92116,92090
 3.5000e+000 92766 -1.5008e+002 -2.5791e+002  1.1584e+001 45452 92446,92602,92576
 3.5000e+000 92743 -2.2468e+002 -2.5650e+002 -3.3259e+001 45452 92420,92602,92446
 3.5000e+000 92720 -1.6996e+002 -2.6269e+002  4.0761e+001 45452 92789,92524,92498
 3.5000e+000 92697 -2.0411e+002 -2.6078e+002  2.9612e+001 45452 92789,92498,92446
 3.5000e+000 92674 -1.6045e+002 -2.8863e+002 -4.5259e+000 45452 92524,92576,92550
 3.5000e+000 92651 -2.6551e+002 -2.6605e+002  1.5307e+002 45452 92446,92498,92472
 3.5000e+000 92628 -1.5595e+002 -3.4920e+002 -1.0036e+002 45452 92394,92602,92420
 3.5000e+000 92815 -1.4650e+002 -2.7201e+002  3.1952e+001 45452 92576,92524,92789
 3.5000e+000 92838 -1.7193e+002 -2.6272e+002  2.5678e+001 45452 92576,92789,92446
 3.5000e+000 92939 -1.0555e+002 -3.3664e+002 -7.1106e+001 44998 92861,92913,92887
 3.5000e+000 93319 -6.8457e+000 -3.4722e+002  7.2887e+001 44601 93123,93201,93149
 3.5000e+000 93296 -9.0511e+001 -3.6136e+002 -3.7683e+001 44601 93045,93201,93123
 3.5000e+000 93273 -7.7860e+001 -2.0464e+002 -5.0312e+001 44601 93045,93123,93071
 3.5000e+000 93250 -7.4947e+001 -1.9176e+002 -3.4268e+001 44601 93071,93123,93097
 3.5000e+000 93227  6.0712e+000 -1.9078e+002  7.9678e+001 44601 93149,93201,93175
 3.5000e+000 93697 -6.4377e+001 -3.8424e+002  2.6759e+001 44026 93720,93553,93527
 3.5000e+000 93674 -1.3183e+002 -3.2189e+002  3.4573e+001 44026 93720,93527,93449
 3.5000e+000 93651 -1.4787e+002 -3.3502e+002 -4.7640e+000 44026 93449,93527,93501
 3.5000e+000 93628 -1.0218e+002 -2.6034e+002 -4.8819e+001 44026 93423,93579,93449
 3.5000e+000 93605 -3.0589e+001 -2.6061e+002  2.7138e+001 44026 93449,93501,93475
 3.5000e+000 93746 -1.4238e+001 -3.4010e+002  7.5535e+000 44026 93579,93553,93720
 3.5000e+000 93769 -8.5905e+001 -2.7968e+002  1.5982e+001 44026 93579,93720,93449
 3.5000e+000 94066 -7.1095e+001 -2.9679e+002 -4.2470e+001 43579 94089,93818,93792
 3.5000e+000 94043 -1.1901e+002 -3.2788e+002 -2.8510e+001 43579 94161,94089,93792
 3.5000e+000 94020 -1.1669e+002 -3.2938e+002 -1.5115e+001 43579 94161,93792,93948
 3.5000e+000 93997 -1.2566e+002 -2.6198e+002 -1.5246e+001 43579 94233,93870,93818
 3.5000e+000 93974 -6.8686e+001 -2.6685e+002  3.6898e+000 43579 93818,93870,93844
 3.5000e+000 94115 -1.2238e+002 -2.6423e+002 -3.1746e+001 43579 94233,93818,94089
 3.5000e+000 94138 -1.6517e+002 -2.9625e+002 -2.1601e+001 43579 93896,94089,93922
 3.5000e+000 94187 -1.1029e+002 -3.0799e+002 -2.7237e+001 43579 93922,94089,94161
 3.5000e+000 94210 -1.0662e+002 -3.0735e+002 -1.2623e+001 43579 93922,94161,93948
 3.5000e+000 94259 -1.4442e+002 -2.9329e+002 -6.8603e+000 43579 93896,93870,94233
 3.5000e+000 94282 -1.3329e+002 -2.8791e+002 -2.5860e+001 43579 93896,94233,94089
 3.5000e+000 94481 -1.0007e+002 -3.0292e+002 -2.7681e+000 43239 94305,94383,94357
 3.5000e+000 94458 -8.3606e+001 -2.7555e+002  3.4178e+001 43239 94305,94409,94383
 3.5000e+000 94435 -7.4965e+001 -3.2168e+002 -9.4426e+000 43239 94305,94357,94331
 3.5000e+000 94633 -6.0874e+001 -1.9691e+002  5.2395e+001 42827 94656,94532,94506
 3.5000e+000 94610 -7.2206e+001 -2.0808e+002  6.6230e+001 42827 94728,94656,94506
 3.5000e+000 94682 -1.6163e+001 -2.2492e+002  5.8943e+001 42827 94558,94532,94656
 3.5000e+000 94705  1.8872e+001 -2.3836e+002  3.7295e+001 42827 94988,94860,94656
 3.5000e+000 94754 -3.6161e+001 -2.0788e+002  2.2103e+001 42827 94988,94656,94728
 3.5000e+000 94886  9.4456e+001 -2.0775e+002  3.8847e+001 42827 94558,94656,94860
 3.5000e+000 95014  6.4391e+001 -2.1220e+002  2.5952e+001 42827 94584,94860,94988
 3.5000e+000 95037  1.9644e+001 -1.7990e+002  1.2767e+001 42827 94584,94988,94728
 3.5000e+000 95236 -8.6557e+001 -2.7222e+002  8.4237e+000 42537 95259,95112,95060
 3.5000e+000 95213 -4.2334e+001 -2.9393e+002  1.7527e+001 42537 95259,95060,95164
 3.5000e+000 95190 -6.8730e+001 -2.6446e+002 -1.4946e+001 42537 95060,95112,95086
 3.5000e+000 95285 -5.6924e+001 -2.6568e+002  2.7824e+001 42537 95138,95112,95259
 3.5000e+000 95308 -1.3326e+001 -2.7682e+002  4.3049e+001 42537 95138,95259,95164
 3.5000e+000 95816 -1.1463e+002 -3.1339e+002 -2.0576e+001 41969 95493,95597,95519
 3.5000e+000 95793 -1.7463e+002 -3.0952e+002  2.9473e+001 41969 95493,95649,95597
 3.5000e+000 95770 -1.2945e+002 -2.7939e+002  1.3642e+001 41969 95493,95675,95649
 3.5000e+000 95747 -1.5393e+002 -3.9725e+002  2.2366e+001 41969 95597,95649,95623
 3.5000e+000 95724 -1.8624e+002 -3.1304e+002 -2.3276e+001 41969 95519,95597,95571
 3.5000e+000 95701 -1.6741e+002 -2.9214e+002 -8.5320e+001 41969 95519,95571,95545
 3.5000e+000 96371 -1.3564e+002 -3.1910e+002  3.9420e+001 41579 96025,96207,96181
 3.5000e+000 96348  4.8845e+001 -2.3651e+002 -2.0970e+000 41579 95999,96207,96025
 3.5000e+000 96325 -1.5561e+002 -2.5632e+002 -2.7608e+001 41579 96129,96181,96155
 3.5000e+000 96302 -5.8945e+001 -2.2602e+002  2.7975e+000 41579 96025,96181,96129
 3.5000e+000 96279 -1.2251e+002 -3.3028e+002  4.1446e+001 41579 96025,96129,96051
 3.5000e+000 96256 -1.5629e+002 -3.3250e+002  5.3168e+001 41579 96051,96103,96077
 3.5000e+000 96233 -5.9532e+001 -2.5000e+002  6.7975e+000 41579 96051,96129,96103
 3.5000e+000 96877 -3.9562e+001 -1.9763e+002 -2.3344e+001 41182 96972,96900,96632
 3.5000e+000 96854 -3.4206e+001 -1.4727e+002 -1.9542e+001 41182 96900,96554,96736
 3.5000e+000 96831 -4.0357e+001 -1.9909e+002 -2.3816e+001 41182 96972,96632,96580
 3.5000e+000 96808 -5.4662e+001 -2.0034e+002  7.2976e+000 41182 96632,96684,96658
 3.5000e+000 96785 -5.1909e+001 -2.0267e+002  1.9812e+001 41182 96684,96736,96710
 3.5000e+000 96762 -1.2015e+002 -2.6499e+002  3.1037e+001 41182 96580,96632,96606
 3.5000e+000 96926 -2.6659e+001 -2.1421e+002 -1.8903e+001 41182 96684,96632,96900
 3.5000e+000 96949 -3.8463e+001 -1.9285e+002 -3.2224e+001 41182 96684,96900,96736
 3.5000e+000 96998 -3.7708e+001 -1.9545e+002 -1.7816e+001 41182 96554,96900,96972
 3.5000e+000 97021 -4.0057e+001 -2.0074e+002 -1.8387e+001 41182 96554,96972,96580
 3.5000e+000 97576 -1.6771e+002 -4.8268e+002 -7.8051e+001 40678 97230,97412,97282
 3.5000e+000 97553  1.4419e+000 -3.9375e+002  2.6667e+001 40678 97204,97412,97230
 3.5000e+000 97530 -9.4814e+001 -3.6804e+002 -5.7865e+001 40678 97282,97360,97308
 3.5000e+000 97507 -9.2160e+001 -3.6275e+002 -3.5832e+001 40678 97282,97412,97360
 3.5000e+000 97484 -5.7780e+001 -2.6691e+002 -4.4730e+001 40678 97308,97360,97334
 3.5000e+000 97461 -1.4833e+002 -4.2997e+002 -1.1291e+001 40678 97360,97412,97386
 3.5000e+000 97438 -7.0806e+001 -3.2150e+002 -1.5897e+001 40678 97230,97282,97256
 3.5000e+000 97976 -1.4783e+002 -2.4103e+002 -5.5559e+000 40244 97702,97832,97754
 3.5000e+000 97953 -1.2409e+002 -2.2426e+002 -1.3626e+001 40244 97702,97858,97832
 3.5000e+000 97930 -1.5270e+002 -2.7180e+002 -6.3524e+001 40244 97702,97754,97728
 3.5000e+000 97907 -1.2548e+002 -2.7513e+002  3.0675e+001 40244 97780,97832,97806
 3.5000e+000 97884 -1.3473e+002 -2.3440e+002 -3.2034e+000 40244 97754,97832,97780
 3.5000e+000 98482 -9.9228e+001 -2.5561e+002  3.3833e+001 39690 98505,98185,98159
 3.5000e+000 98459 -9.5020e+001 -2.5316e+002  3.5780e+001 39690 98505,98159,98289
 3.5000e+000 98436 -1.8042e+002 -3.5821e+002  1.1845e+002 39690 98159,98315,98289
 3.5000e+000 98413 -8.5457e+001 -2.3981e+002  4.0274e+001 39690 98211,98289,98263
 3.5000e+000 98390 -5.1943e+001 -1.5609e+002  2.4251e+001 39690 98211,98263,98237
 3.5000e+000 98367 -4.6100e+001 -2.3382e+002  6.2501e+001 39690 98159,98341,98315
 3.5000e+000 98531 -1.0835e+002 -2.5477e+002  2.9855e+001 39690 98211,98185,98505
 3.5000e+000 98554 -9.9924e+001 -2.4685e+002  3.3471e+001 39690 98211,98505,98289
 3.5000e+000 99109 -7.7462e+001 -2.0788e+002 -1.0327e+001 39072 99132,98867,98789
 3.5000e+000 99086 -7.8604e+001 -2.1233e+002 -1.3476e+001 39072 99132,98789,98763
 3.5000e+000 99063 -1.1664e+002 -3.3730e+002  3.7154e+001 39072 98867,98945,98919
 3.5000e+000 99040 -6.9011e+001 -2.1938e+002 -1.1728e+000 39072 98789,98867,98841
 3.5000e+000 99017 -1.5375e+002 -2.4907e+002  1.1470e+001 39072 98867,98919,98893
 3.5000e+000 98994 -1.1431e+002 -2.1364e+002  4.4113e+001 39072 98789,98841,98815
 3.5000e+000 98971 -1.1726e+002 -2.3849e+002 -1.8481e+001 39072 98737,98945,98763
 3.5000e+000 99158 -7.5256e+001 -2.1351e+002 -1.1592e+001 39072 98945,98867,99132
 3.5000e+000 99181 -7.6132e+001 -2.1962e+002 -1.3016e+001 39072 98945,99132,98763
 3.5000e+000 99510 -6.6036e+001 -2.0889e+002  1.3580e+001 38668 99311,99389,99363
 3.5000e+000 99487 -7.0612e+001 -2.1157e+002  1.2196e+001 38668 99285,99389,99311
 3.5000e+000 99464 -1.3871e+002 -2.5417e+002  4.0234e+001 38668 99285,99415,99389
 3.5000e+000 99441 -6.4549e+001 -2.2226e+002  2.0606e+001 38668 99311,99363,99337
 3.5000e+000 99758 -4.3240e+001 -3.0340e+002  4.9781e+001 38164 99781,99611,99585
 3.5000e+000 99735 -4.6904e+001 -3.1330e+002  4.6804e+001 38164 99781,99585,99533
 3.5000e+000 99712 -3.7984e+001 -2.6120e+002  2.8092e+001 38164 99611,99663,99637
 3.5000e+000 99689 -1.4263e+001 -3.2266e+002 -1.8659e+001 38164 99533,99585,99559
 3.5000e+000 99807 -4.2722e+001 -3.1304e+002  4.9192e+001 38164 99663,99611,99781
 3.5000e+000 99830 -4.1960e+001 -3.1808e+002  4.7574e+001 38164 99663,99781,99533
 3.5000e+000 100232 -1.0782e+002 -2.6129e+002  5.0221e+000 37702 99984,100114,100088
 3.5000e+000 100209 -8.8020e+001 -2.8396e+002  3.0403e+001 37702 99958,100114,99984
 3.5000e+000 100186 -1.5777e+002 -3.2254e+002 -1.9479e+001 37702 100010,100088,100036
 3.5000e+000 100163 -1.1000e+002 -2.6275e+002  1.1836e+000 37702 99984,100088,100010
 3.5000e+000 100140 -1.0145e+002 -2.3758e+002 -6.1252e+001 37702 100036,100088,100062
 3.5000e+000 100640 -1.9123e+002 -2.8644e+002  2.7557e+001 37262 100493,100545,100519
 3.5000e+000 100617 -1.7438e+002 -3.1694e+002  1.2833e+001 37262 100441,100545,100493
 3.5000e+000 100594 -9.4389e+001 -2.5060e+002 -4.1892e+001 37262 100415,100545,100441
 3.5000e+000 100571 -2.0514e+002 -3.6263e+002 -1.7638e+001 37262 100441,100493,100467
 3.5000e+000 101146 -1.3329e+002 -2.2894e+002  9.8267e-001 36872 100823,100979,100849
 3.5000e+000 101123 -1.3028e+002 -2.1424e+002 -1.9561e+001 36872 100823,101005,100979
 3.5000e+000 101100 -1.3927e+002 -3.2650e+002  4.5297e+001 36872 101169,100901,100849
 3.5000e+000 101077 -1.0783e+002 -2.6062e+002  2.5133e+001 36872 101169,100849,100979
 3.5000e+000 101054 -7.3337e+001 -2.5703e+002 -1.4370e+001 36872 100927,100979,100953
 3.5000e+000 101031 -7.7521e+001 -3.7290e+002  6.2382e+001 36872 100849,100901,100875
 3.5000e+000 101195 -9.6922e+001 -3.4596e+002  4.1509e+000 36872 100927,100901,101169
 3.5000e+000 101218 -7.7854e+001 -3.1114e+002 -1.2016e+001 36872 100927,101169,100979
 3.5000e+000 101773 -1.7283e+002 -2.5067e+002  4.2125e+001 36418 101479,101609,101583
 3.5000e+000 101750 -1.6821e+002 -2.7749e+002  5.5404e+001 36418 101453,101609,101479
 3.5000e+000 101727 -1.1334e+002 -2.6019e+002 -4.2068e+000 36418 101796,101531,101479
 3.5000e+000 101704 -1.5792e+002 -2.9069e+002  1.7549e+001 36418 101796,101479,101583
 3.5000e+000 101681 -9.9390e+001 -2.3099e+002 -9.6753e+000 36418 101479,101531,101505
 3.5000e+000 101658 -8.5058e+000 -2.6321e+002 -8.6897e+000 36418 101401,101609,101453
 3.5000e+000 101635 -5.3410e+001 -3.1261e+002 -2.8931e+001 36418 101401,101453,101427
 3.5000e+000 101822 -1.2393e+002 -2.3768e+002 -4.6509e+001 36418 101557,101531,101796
 3.5000e+000 101845 -1.7555e+002 -2.4914e+002 -2.7045e+001 36418 101557,101796,101583
 3.5000e+000 102174  5.0191e+001 -1.2290e+002 -4.4919e+001 35914 101949,102053,101975
 3.5000e+000 102151 -9.7678e+001 -1.6330e+002 -1.1626e+001 35914 101949,102079,102053
 3.5000e+000 102128 -6.4925e+001 -1.7749e+002 -7.3788e+000 35914 101975,102053,102027
 3.5000e+000 102105  4.5417e-001 -1.1789e+002 -4.0858e+001 35914 101975,102027,102001
 3.5000e+000 102631 -5.1029e+001 -2.6612e+002  9.6181e+000 35574 102383,102513,102487
 3.5000e+000 102608 -3.6791e+001 -2.7914e+002  7.6856e+000 35574 102357,102513,102383
 3.5000e+000 102585 -6.8114e+001 -2.6053e+002  1.6847e+001 35574 102409,102487,102435
 3.5000e+000 102562 -9.0231e+001 -2.8096e+002  7.4946e+000 35574 102383,102487,102409
 3.5000e+000 102539 -9.3879e+001 -2.8657e+002 -4.4802e+000 35574 102435,102487,102461
 3.5000e+000 103009 -1.4759e+002 -2.6184e+002 -2.1526e+001 35170 102761,102865,102787
 3.5000e+000 102986 -8.0173e+001 -2.2572e+002  1.9932e+001 35170 102761,102891,102865
 3.5000e+000 102963 -1.2982e+002 -2.6101e+002 -6.8974e+000 35170 102787,102865,102813
 3.5000e+000 102940 -6.6877e+001 -2.1466e+002  2.4679e+001 35170 102735,102891,102761
 3.5000e+000 102917 -1.2735e+002 -2.5624e+002 -9.8263e+000 35170 102813,102865,102839
 3.5000e+000 103257 -2.7965e+001 -2.1185e+002 -4.7652e+001 34659 103280,103058,103032
 3.5000e+000 103234 -4.3995e+001 -2.3252e+002 -3.5944e+001 34659 103280,103032,103162
 3.5000e+000 103211 -5.3038e+001 -2.2754e+002 -1.7750e+001 34659 103084,103162,103110
 3.5000e+000 103188 -7.9274e+001 -2.6171e+002  4.4527e+000 34659 103110,103162,103136
 3.5000e+000 103306 -5.1593e+001 -1.8628e+002 -3.8455e+001 34659 103084,103058,103280
 3.5000e+000 103329 -6.5266e+001 -2.1055e+002 -2.5520e+001 34659 103084,103280,103162
 3.5000e+000 103837 -2.8359e+001 -2.8421e+002  1.1695e+001 34247 103860,103566,103540
 3.5000e+000 103814 -3.8309e+001 -2.8385e+002  2.6814e+000 34247 103932,103860,103540
 3.5000e+000 103791 -2.6736e+001 -3.1673e+002 -3.0917e+001 34247 103932,103540,103670
 3.5000e+000 103768 -3.2541e+001 -2.7249e+002  1.1723e+000 34247 103566,103618,103592
 3.5000e+000 103745 -1.1319e+002 -2.6773e+002 -4.0782e+001 34247 103540,103696,103670
 3.5000e+000 103722 -1.5026e+002 -2.9574e+002  4.2891e+001 34247 103514,103696,103540
 3.5000e+000 103886 -5.9963e+001 -2.8323e+002  5.5763e-001 34247 103618,103566,103860
 3.5000e+000 103909 -6.6150e+001 -3.0312e+002  1.1542e+001 34247 103618,103860,103644
 3.5000e+000 103958 -6.8252e+001 -3.6261e+002 -1.4784e+000 34247 103644,103860,103932
 3.5000e+000 103981 -5.6514e+001 -3.9297e+002 -3.6752e+001 34247 103644,103932,103670
 3.5000e+000 104300 -1.4127e+002 -2.9439e+002 -1.3075e+001 33843 104052,104182,104156
 3.5000e+000 104277 -1.7703e+002 -2.7723e+002 -5.9422e+000 33843 104026,104182,104052
 3.5000e+000 104254 -1.4010e+002 -3.3775e+002  7.6617e+000 33843 104078,104156,104130
 3.5000e+000 104231 -1.7243e+002 -3.2225e+002 -6.1290e-001 33843 104052,104156,104078
 3.5000e+000 104208 -2.1139e+002 -3.5917e+002  1.1537e+001 33843 104078,104130,104104
 3.5000e+000 104499 -7.6945e+001 -3.0900e+002 -2.9938e+001 33282 104594,104522,104375
 3.5000e+000 104476 -4.4226e+001 -3.0918e+002  1.2298e+001 33282 104522,104323,104427
 3.5000e+000 104453 -5.6897e+001 -3.2594e+002 -2.6817e+001 33282 104594,104375,104349
 3.5000e+000 104548 -9.7874e+001 -2.5544e+002 -8.4709e-001 33282 104401,104375,104522
 3.5000e+000 104571 -3.4378e+001 -2.4589e+002  4.4994e+001 33282 104401,104522,104427
 3.5000e+000 104620 -5.6184e+001 -2.7562e+002 -1.9609e+001 33282 104323,104522,104594
 3.5000e+000 104643 -4.4606e+001 -3.0170e+002 -2.0048e+001 33282 104323,104594,104349
 3.5000e+000 104942 -1.3785e+002 -3.4433e+002  4.0829e+001 32728 104694,104772,104720
 3.5000e+000 104919 -1.0239e+002 -3.1459e+002  1.6735e+001 32728 104694,104824,104772
 3.5000e+000 104896 -1.7608e+002 -3.1269e+002  4.5161e+001 32728 104720,104772,104746
 3.5000e+000 104873 -7.9444e+001 -3.5146e+002  1.8566e+001 32728 104772,104824,104798
 3.5000e+000 104850 -7.9725e+001 -3.0575e+002  1.9393e+001 32728 104668,104824,104694
 3.5000e+000 105373 -1.1315e+002 -3.4623e+002 -1.4820e+001 32274 105396,105102,105076
 3.5000e+000 105350 -1.2584e+002 -3.8089e+002 -4.0675e+000 32274 105396,105076,105206
 3.5000e+000 105327 -1.6040e+002 -3.8265e+002  2.2935e+001 32274 105154,105206,105180
 3.5000e+000 105304 -4.7846e+001 -3.6163e+002 -3.2643e+001 32274 105076,105232,105206
 3.5000e+000 105281 -1.4309e+002 -3.1298e+002 -5.5008e+001 32274 105102,105154,105128
 3.5000e+000 105258 -2.0052e+002 -3.0543e+002 -6.6002e+001 32274 105050,105232,105076
 3.5000e+000 105422 -1.3473e+002 -3.0835e+002 -1.3646e+001 32274 105154,105102,105396
 3.5000e+000 105445 -1.4596e+002 -3.4325e+002 -5.2780e+000 32274 105154,105396,105206
 3.5000e+000 105644 -1.1680e+002 -3.2460e+002 -1.5225e+000 31620 105468,105546,105520
 3.5000e+000 105621 -9.5174e+001 -3.4497e+002 -1.2108e+001 31620 105468,105572,105546
 3.5000e+000 105598 -1.1728e+002 -3.5353e+002  2.2101e+001 31620 105468,105520,105494
 3.5000e+000 105794 -4.9537e+001 -3.0952e+002 -9.9736e+000 31158 105889,105817,105693
 3.5000e+000 105771 -7.1662e+001 -2.7437e+002 -1.9431e+001 31158 105817,105667,105745
 3.5000e+000 105843 -6.1240e+001 -3.8099e+002 -4.3821e+000 31158 105719,105693,105817
 3.5000e+000 105866 -4.3757e+001 -3.2492e+002 -1.7389e+001 31158 105719,105817,105745
 3.5000e+000 105915 -9.8171e+001 -3.3036e+002 -1.0540e+001 31158 105667,105817,105889
 3.5000e+000 106270 -1.2907e+002 -2.9999e+002 -6.2043e+000 30818 106293,106071,106045
 3.5000e+000 106247 -1.5210e+002 -3.5220e+002 -2.1012e+001 30818 106293,106045,106175
 3.5000e+000 106224 -1.0875e+002 -2.7448e+002  1.6704e+001 30818 106123,106175,106149
 3.5000e+000 106201 -1.4281e+002 -2.9793e+002  2.4372e+001 30818 106071,106123,106097
 3.5000e+000 106319 -1.3429e+002 -2.7961e+002  1.3719e+001 30818 106123,106071,106293
 3.5000e+000 106342 -1.3897e+002 -3.0707e+002  1.2184e+000 30818 106123,106293,106175
 3.5000e+000 106492 -1.2267e+002 -2.8817e+002  5.8967e+001 30414 106645,106391,106365
 3.5000e+000 106469 -6.4877e+001 -2.8741e+002  8.4189e+001 30414 106515,106365,106443
 3.5000e+000 106541 -8.5840e+001 -2.9550e+002  6.3858e+001 30414 106645,106365,106515
 3.5000e+000 106671 -6.9127e+001 -3.3729e+002  1.0122e+002 30414 106417,106391,106645
 3.5000e+000 106694  1.8658e+001 -3.1197e+002  8.7435e+001 30414 106417,106645,106515
 3.5000e+000 106942 -6.0745e+001 -4.1326e+002 -1.2451e+000 29910 106965,106795,106769
 3.5000e+000 106919 -5.2197e+001 -3.7160e+002  1.0906e+001 29910 106965,106769,106717
 3.5000e+000 106896 -5.4743e+001 -3.1159e+002 -4.2466e+001 29910 106795,106847,106821
 3.5000e+000 106873 -2.9572e+001 -3.2424e+002  1.9299e+001 29910 106717,106769,106743
 3.5000e+000 106991 -8.4212e+001 -3.6839e+002  4.6804e+000 29910 106847,106795,106965
 3.5000e+000 107014 -6.6440e+001 -3.1310e+002  1.6346e+001 29910 106847,106965,106717
 3.5000e+000 107213 -9.6255e+001 -3.1518e+002  1.2190e+001 29413 107236,107063,107037
 3.5000e+000 107190 -7.5566e+001 -3.7617e+002  3.4308e+001 29413 107236,107037,107141
 3.5000e+000 107167 -1.0993e+002 -2.3009e+002  4.7664e+001 29413 107063,107115,107089
 3.5000e+000 107262 -8.4109e+001 -2.7885e+002  1.2845e+001 29413 107115,107063,107236
 3.5000e+000 107285 -5.4150e+001 -3.2324e+002  3.7926e+001 29413 107115,107236,107141
 3.5000e+000 107486 -4.0383e+001 -2.9755e+002  3.5054e+001 29009 107336,107388,107362
 3.5000e+000 107463 -2.2785e+001 -2.8821e+002  1.2190e+001 29009 107310,107388,107336
 3.5000e+000 107440 -2.3959e+001 -2.6718e+002  1.0466e+001 29009 107310,107414,107388
 3.5000e+000 107736 -1.3230e+002 -3.4576e+002 -1.4501e+001 28491 107537,107615,107563
 3.5000e+000 107713 -1.1858e+002 -3.3866e+002 -8.7131e+000 28491 107537,107641,107615
 3.5000e+000 107690 -7.3925e+001 -3.2750e+002  5.1101e+000 28491 107563,107615,107589
 3.5000e+000 107667 -1.2699e+002 -3.4072e+002 -1.1099e+001 28491 107511,107641,107537
 3.5000e+000 108118 -7.8215e+001 -3.2663e+002  1.0310e+001 27980 108141,107922,107844
 3.5000e+000 108095 -6.1884e+001 -3.5950e+002  1.0043e+001 27980 108141,107844,108000
 3.5000e+000 108072 -7.6703e+001 -3.2560e+002 -3.9678e+000 27980 107844,107922,107870
 3.5000e+000 108049 -6.4699e+001 -2.9765e+002 -8.0943e+000 27980 107870,107922,107896
 3.5000e+000 108026 -1.1417e+002 -2.9690e+002  3.8416e+001 27980 107922,107974,107948
 3.5000e+000 108167 -6.7998e+001 -3.2236e+002  1.5008e+001 27980 107974,107922,108141
 3.5000e+000 108190 -2.2612e+001 -3.2656e+002  2.4635e+001 27980 107974,108141,108000
 3.5000e+000 108745 -4.3636e+001 -2.2078e+002 -4.4330e+000 27376 108840,108768,108477
 3.5000e+000 108722 -7.2880e+001 -2.6825e+002 -5.0229e+001 27376 108768,108373,108581
 3.5000e+000 108699 -6.7128e+001 -1.9274e+002  3.8916e+001 27376 108840,108477,108451
 3.5000e+000 108676 -1.5817e+002 -2.3081e+002 -1.0312e+001 27376 108373,108451,108399
 3.5000e+000 108653 -6.9637e+001 -2.7361e+002  3.2861e+001 27376 108503,108581,108529
 3.5000e+000 108630 -7.5580e+001 -2.6370e+002  3.3339e+001 27376 108529,108581,108555
 3.5000e+000 108607 -1.7958e+002 -2.5020e+002  1.8132e+001 27376 108399,108451,108425
 3.5000e+000 108794 -6.7984e+001 -2.9382e+002  4.5302e-001 27376 108503,108477,108768
 3.5000e+000 108817 -2.2562e+001 -2.6847e+002 -1.0304e+001 27376 108503,108768,108581
 3.5000e+000 108866 -1.3178e+002 -2.7144e+002 -2.4915e+001 27376 108373,108768,108840
 3.5000e+000 108889 -1.2743e+002 -2.3461e+002  2.0483e+001 27376 108373,108840,108451
 3.5000e+000 109186 -1.2753e+002 -3.3898e+002  3.5126e+001 26722 109209,108938,108912
 3.5000e+000 109163 -1.1859e+002 -3.1749e+002  3.3237e+001 26722 109281,109209,108912
 3.5000e+000 109140 -1.1324e+002 -3.0915e+002  3.0930e+001 26722 109281,108912,109042
 3.5000e+000 109117 -1.0741e+002 -3.6359e+002  1.5582e+001 26722 108938,108990,108964
 3.5000e+000 109094 -1.6168e+002 -2.8081e+002  2.0194e+001 26722 108912,109068,109042
 3.5000e+000 109235 -1.0885e+002 -3.2744e+002  2.9627e+001 26722 108990,108938,109209
 3.5000e+000 109258 -1.1471e+002 -3.5169e+002  2.7324e+001 26722 108990,109209,109016
 3.5000e+000 109307 -1.0317e+002 -3.3079e+002  1.6717e+001 26722 109016,109209,109281
 3.5000e+000 109330 -9.3653e+001 -3.1595e+002  1.2558e+001 26722 109016,109281,109042
 3.5000e+000 109732 -1.2931e+002 -2.7189e+002 -5.7398e+000 26310 109458,109588,109484
 3.5000e+000 109709 -1.2291e+002 -3.1283e+002 -3.2492e+001 26310 109458,109614,109588
 3.5000e+000 109686 -1.8750e+002 -3.2016e+002  4.7125e+001 26310 109510,109562,109536
 3.5000e+000 109663 -1.8464e+002 -3.0093e+002  1.8333e+001 26310 109484,109562,109510
 3.5000e+000 109640 -1.3422e+002 -2.7627e+002 -1.4363e+000 26310 109484,109588,109562
 3.5000e+000 110159 -8.8505e+001 -2.8581e+002 -9.7388e+000 25642 110182,109940,109914
 3.5000e+000 110136 -8.2412e+001 -3.3115e+002  3.6707e+001 25642 110182,109914,109888
 3.5000e+000 110113 -1.0557e+002 -3.5426e+002 -4.7046e+001 25642 109966,110018,109992
 3.5000e+000 110090 -1.1661e+002 -3.4189e+002  2.5079e+001 25642 110254,109966,109940
 3.5000e+000 110067 -1.5580e+002 -3.2546e+002  1.6842e+001 25642 109862,110018,109888
 3.5000e+000 110044 -1.5017e+002 -2.7625e+002  4.1333e+001 25642 109836,110018,109862
 3.5000e+000 110208 -1.1643e+002 -3.1185e+002  1.8401e+001 25642 110254,109940,110182
 3.5000e+000 110231 -1.2736e+002 -3.3360e+002  4.0986e+001 25642 110018,110182,109888
 3.5000e+000 110280 -1.0384e+002 -3.7913e+002  1.9274e+001 25642 110018,109966,110254
 3.5000e+000 110303 -1.0988e+002 -3.5663e+002  1.3519e+001 25642 110018,110254,110182
 3.5000e+000 110632 -1.3843e+002 -2.8806e+002 -1.6511e+001 25188 110407,110485,110433
 3.5000e+000 110609 -1.6878e+002 -2.9017e+002 -8.2954e+000 25188 110407,110537,110485
 3.5000e+000 110586 -1.6273e+002 -3.0158e+002 -5.6576e+001 25188 110433,110485,110459
 3.5000e+000 110563 -1.5448e+002 -3.0101e+002  3.3735e+001 25188 110485,110537,110511
 3.5000e+000 110831 -3.3796e+001 -2.8327e+002  8.1386e+000 24726 110854,110707,110655
 3.5000e+000 110808 -1.7607e+001 -3.0727e+002  3.2589e+001 24726 110854,110655,110759
 3.5000e+000 110785 -4.5342e+001 -2.9199e+002  1.5290e+001 24726 110655,110707,110681
 3.5000e+000 110880 -2.1387e+001 -2.6036e+002  1.2900e+001 24726 110733,110707,110854
 3.5000e+000 110903  4.1140e-001 -2.7259e+002  3.9112e+001 24726 110733,110854,110759
 3.5000e+000 111234 -8.7768e+000 -1.9910e+002 -6.1663e+000 24222 111257,111087,111035
 3.5000e+000 111211  2.1723e+001 -1.8529e+002  2.0755e+001 24222 111257,111035,111009
 3.5000e+000 111188 -3.1984e+001 -1.0516e+002 -4.5192e+001 24222 111035,111087,111061
 3.5000e+000 111165 -2.9845e+001 -1.6056e+002  4.3266e+000 24222 111087,111139,111113
 3.5000e+000 111283 -2.8146e+001 -1.6637e+002  8.1195e+000 24222 111139,111087,111257
 3.5000e+000 111306 -1.4826e+001 -1.4296e+002  2.5444e+001 24222 111139,111257,111009
 3.5000e+000 111625 -5.1088e+001 -2.9412e+002 -1.7629e+001 23732 111648,111481,111455
 3.5000e+000 111602 -5.1837e+001 -2.9661e+002 -1.7452e+001 23732 111648,111455,111377
 3.5000e+000 111579  2.6175e+001 -1.6122e+002  2.9855e+001 23732 111377,111429,111403
 3.5000e+000 111556 -2.8219e+001 -3.0124e+002 -6.7140e+000 23732 111377,111455,111429
 3.5000e+000 111533 -4.4961e+001 -2.6292e+002 -7.7798e+000 23732 111351,111507,111377
 3.5000e+000 111674 -5.1557e+001 -2.8990e+002 -1.4749e+001 23732 111507,111481,111648
 3.5000e+000 111697 -5.3756e+001 -2.9508e+002 -1.4752e+001 23732 111507,111648,111377
 3.5000e+000 112156 -8.0277e+001 -3.3173e+002  2.3260e+001 23278 112179,111908,111882
 3.5000e+000 112133 -7.5313e+001 -3.0784e+002  1.2489e+001 23278 112179,111882,112012
 3.5000e+000 112110 -2.8448e+001 -3.5949e+002  1.0200e+000 23278 111908,111960,111934
 3.5000e+000 112087 -3.1977e+001 -2.6924e+002 -5.1285e+000 23278 111882,112038,112012
 3.5000e+000 112064 -6.7032e+001 -2.7795e+002 -4.3140e+000 23278 111960,112012,111986
 3.5000e+000 112205 -7.6677e+001 -3.2030e+002  3.5390e+000 23278 111960,111908,112179
 3.5000e+000 112228 -6.4966e+001 -2.9344e+002 -8.7592e+000 23278 111960,112179,112012
 3.5000e+000 112685 -2.1581e+002 -4.7199e+002 -4.6049e+001 22938 112489,112567,112541
 3.5000e+000 112662 -1.8770e+002 -4.0959e+002 -4.0022e+001 22938 112437,112567,112489
 3.5000e+000 112639 -1.2598e+002 -3.5206e+002 -5.2815e+000 22938 112489,112541,112515
 3.5000e+000 112616 -2.1404e+002 -3.9467e+002 -3.6542e+001 22938 112411,112567,112437
 3.5000e+000 112593 -1.6525e+002 -5.0764e+002 -1.2734e+001 22938 112437,112489,112463
 3.5000e+000 113191 -1.4519e+001 -3.2490e+002 -3.9717e+001 22534 113214,112998,112946
 3.5000e+000 113168 -6.0608e+001 -2.8987e+002 -2.0458e+001 22534 113286,113214,112946
 3.5000e+000 113145 -4.4450e+001 -2.9062e+002 -1.6610e+001 22534 113286,112946,112920
 3.5000e+000 113122 -1.3159e+002 -2.6482e+002 -5.6253e+001 22534 113358,113024,112998
 3.5000e+000 113099 -7.9195e+001 -2.7888e+002 -9.7808e+000 22534 112868,113050,112894
 3.5000e+000 113076 -9.6687e+001 -4.8603e+002 -7.9320e+001 22534 112946,112998,112972
 3.5000e+000 113240 -9.6958e+001 -3.3413e+002 -5.9891e+001 22534 113358,112998,113214
 3.5000e+000 113263 -7.7636e+001 -3.0326e+002 -1.2885e+001 22534 113050,113214,112894
 3.5000e+000 113312 -3.9758e+001 -2.8669e+002 -1.5743e+001 22534 112894,113214,113286
 3.5000e+000 113335 -2.2841e+001 -2.8847e+002 -1.4832e+001 22534 112894,113286,112920
 3.5000e+000 113384 -9.3002e+001 -2.0237e+002 -3.9916e+001 22534 113050,113024,113358
 3.5000e+000 113407 -4.2964e+001 -2.5929e+002 -3.6114e+001 22534 113050,113358,113214
 3.5000e+000 113785 -1.5642e+002 -3.9552e+002  8.1274e+000 21978 113808,113615,113511
 3.5000e+000 113762 -1.2742e+002 -4.0093e+002  2.6580e+001 21978 113808,113511,113667
 3.5000e+000 113739 -9.7718e+001 -3.3920e+002 -1.5834e+001 21978 113511,113615,113537
 3.5000e+000 113716  3.2847e+001 -3.0204e+002 -3.2300e+001 21978 113537,113615,113589
 3.5000e+000 113693 -4.6077e+001 -4.3589e+002  6.0055e+000 21978 113537,113589,113563
 3.5000e+000 113834 -1.6105e+002 -3.9462e+002  4.4272e+001 21978 113641,113615,113808
 3.5000e+000 113857 -8.5528e+001 -3.6566e+002  6.6205e+001 21978 113641,113808,113667
 3.5000e+000 114284 -1.1602e+002 -3.2902e+002  6.1909e+000 21517 114013,114117,114039
 3.5000e+000 114261 -1.2928e+002 -3.2717e+002  2.4356e+001 21517 113961,114117,114013
 3.5000e+000 114238 -1.2719e+002 -3.3441e+002  2.4015e+001 21517 113961,114013,113987
 3.5000e+000 114215 -1.8388e+002 -3.7453e+002 -2.6316e+001 21517 114039,114117,114091
 3.5000e+000 114192 -1.3165e+002 -2.7987e+002  2.9474e+001 21517 113961,114143,114117
 3.5000e+000 114169 -3.1007e+001 -3.2154e+002 -2.8902e+001 21517 114039,114091,114065
 3.5000e+000 114581 -7.0724e+001 -3.9425e+002  4.5505e+000 21027 114359,114463,114437
 3.5000e+000 114558 -4.0658e+001 -3.5767e+002  4.6682e+001 21027 114333,114463,114359
 3.5000e+000 114535 -3.3158e+001 -3.6241e+002 -9.4053e+000 21027 114359,114437,114385
 3.5000e+000 114512 -2.6052e+001 -3.5440e+002  3.7572e+001 21027 114307,114463,114333
 3.5000e+000 114489  4.7510e+001 -3.3734e+002 -1.6750e+001 21027 114385,114437,114411
 3.5000e+000 114912 -1.5412e+002 -3.3772e+002  3.6835e+000 20623 114713,114791,114765
 3.5000e+000 114889 -1.0759e+002 -3.1865e+002 -2.4389e+001 20623 114687,114791,114713
 3.5000e+000 114866 -7.8088e+001 -3.5547e+002 -2.6437e+001 20623 114687,114817,114791
 3.5000e+000 114843 -2.2325e+002 -4.0818e+002  3.3108e+001 20623 114713,114765,114739
 3.5000e+000 115290 -4.4133e+001 -3.0059e+002  1.5628e+001 20375 115313,115146,115094
 3.5000e+000 115267 -6.8479e+001 -2.8736e+002  2.8872e+001 20375 115313,115094,115042
 3.5000e+000 115244 -8.7667e+001 -2.7732e+002  9.2501e+000 20375 115385,115016,115172
 3.5000e+000 115221 -2.9294e+001 -2.6909e+002  2.3779e+001 20375 115042,115094,115068
 3.5000e+000 115198 -6.5883e+001 -3.5730e+002  1.9174e+001 20375 115094,115146,115120
 3.5000e+000 115339 -9.3964e+001 -3.5147e+002 -9.8772e+000 20375 115172,115146,115313
 3.5000e+000 115362 -5.4398e+001 -2.8559e+002  1.1079e+001 20375 115385,115172,115313
 3.5000e+000 115411 -1.0656e+002 -2.8685e+002  1.2480e+001 20375 115042,115016,115385
 3.5000e+000 115434 -9.0343e+001 -3.0634e+002  1.9544e+001 20375 115042,115385,115313
 3.5000e+000 115891 -1.5423e+002 -3.0424e+002  3.7134e+001 19971 115617,115747,115643
 3.5000e+000 115868 -1.3207e+002 -2.4994e+002  3.4651e+001 19971 115617,115773,115747
 3.5000e+000 115845 -9.6928e+001 -4.5794e+002  5.5312e+000 19971 115643,115721,115695
 3.5000e+000 115822 -3.2238e+000 -2.2891e+002 -2.2093e+000 19971 115643,115747,115721
 3.5000e+000 115799 -8.2620e+001 -5.6350e+002 -4.5780e+001 19971 115643,115695,115669
 3.5000e+000 115992 -2.3048e+002 -5.9163e+002 -1.0030e+002 19659 115914,115966,115940
 3.5000e+000 116142 -3.2106e+001 -1.2850e+002  3.2558e+000 18997 116041,116093,116067
 3.5000e+000 116119 -6.7663e+001 -2.1981e+002  1.2858e+001 18997 116015,116093,116041
 3.5000e+000 116343 -5.8771e+001 -3.4400e+002 -1.0286e+001 18707 116193,116245,116219
 3.5000e+000 116320 -1.3247e+002 -3.7533e+002 -1.5418e+001 18707 116193,116271,116245
 3.5000e+000 116297 -1.1952e+002 -3.3470e+002 -2.4154e+001 18707 116167,116271,116193
 3.5000e+000 116747 -5.8275e+001 -3.1447e+002 -5.6662e+000 18301 116525,116629,116551
 3.5000e+000 116724 -3.5524e+001 -2.6745e+002  7.2887e+000 18301 116473,116629,116525
 3.5000e+000 116701 -2.5238e+001 -2.6092e+002 -1.3642e+001 18301 116473,116525,116499
 3.5000e+000 116678 -4.9101e+001 -3.2645e+002 -4.1455e+000 18301 116551,116603,116577
 3.5000e+000 116655 -6.8270e+001 -3.3796e+002 -9.4944e+000 18301 116551,116629,116603
 3.5000e+000 117147 -1.6612e+002 -3.7486e+002 -1.6188e+000 17747 116899,117029,116925
 3.5000e+000 117124 -9.0520e+001 -2.7598e+002  3.6682e+001 17747 116873,117029,116899
 3.5000e+000 117101 -1.6452e+002 -3.7210e+002 -9.5614e-001 17747 116925,117029,116951
 3.5000e+000 117078 -1.4519e+002 -3.2490e+002 -1.7213e+000 17747 116951,117029,117003
 3.5000e+000 117055 -1.9007e+002 -4.1944e+002 -2.6441e+001 17747 116951,117003,116977
 3.5000e+000 117368  2.1688e+001 -3.4505e+002  7.7478e+000 17293 117244,117296,117270
 3.5000e+000 117345 -2.3190e+001 -3.5738e+002 -4.7372e+000 17293 117192,117296,117244
 3.5000e+000 117322 -5.9123e+001 -3.3548e+002 -3.9953e+000 17293 117192,117244,117218
 3.5000e+000 117699 -3.0693e+001 -2.7711e+002 -3.3585e+001 16896 117526,117604,117552
 3.5000e+000 117676 -1.8311e+002 -4.2598e+002  2.6692e+001 16896 117500,117604,117526
 3.5000e+000 117653 -1.9412e+002 -3.3763e+002 -1.7123e+001 16896 117552,117604,117578
 3.5000e+000 117630 -1.6814e+002 -5.5127e+002  4.5820e+001 16896 117474,117604,117500
 3.5000e+000 117849 -3.9427e+002 -7.5700e+002 -2.8919e+001 16534 117722,117774,117748
 3.5000e+000 117826 -3.1141e+002 -9.2161e+002 -1.2435e+002 16534 117722,117800,117774
 3.5000e+000 118070 -6.0165e+000 -3.5670e+002  4.4887e+001 16194 117946,117998,117972
 3.5000e+000 118047 -6.2257e+001 -4.0368e+002  1.8189e+001 16194 117894,117998,117946
 3.5000e+000 118024 -2.0515e+002 -4.1216e+002 -5.5840e-001 16194 117894,117946,117920
 3.5000e+000 118173 -3.8234e+001 -3.5808e+002  0.0000e+000 15968 118095,118147,118121
 3.5000e+000 118276 -1.0979e+002 -3.7578e+002  1.0237e+000 15433 118299,118198,118250
 3.5000e+000 118325 -1.1084e+002 -3.7821e+002  1.0476e+000 15433 118224,118198,118299
 3.5000e+000 118450 -1.8412e+002 -4.0857e+002  3.9887e+001 421 118372,118424,118398
 3.6000e+000 69891 -7.8131e+001 -4.5511e+002  1.6218e+001 68988 69447,69681,69629
 3.6000e+000 69868  3.4604e+001 -4.0732e+002  1.4079e+001 68988 69421,69681,69447
 3.6000e+000 69845  1.8796e+000 -2.2611e+002  4.1865e-001 68988 69447,69629,69577
 3.6000e+000 69822 -1.3079e+002 -4.7500e+002 -5.3627e+001 68988 69447,69577,69473
 3.6000e+000 69799 -1.9087e+001 -5.3998e+002  8.7001e+001 68988 69629,69681,69655
 3.6000e+000 69776 -1.4111e+002 -2.8796e+002  6.0717e+000 68988 69577,69629,69603
 3.6000e+000 69753 -1.0354e+002 -4.2310e+002 -6.4246e+001 68988 69473,69577,69551
 3.6000e+000 69730 -1.5655e+002 -8.4795e+002 -8.5424e+001 68988 69473,69551,69525
 3.6000e+000 69707 -2.6250e+002 -5.6133e+002  6.1304e-001 68988 69473,69525,69499
 3.6000e+000 69992 -2.6048e+002 -4.9166e+002 -6.6164e+001 68676 69914,69966,69940
 3.6000e+000 70392 -1.7702e+002 -3.7693e+002  2.8105e+001 68478 70118,70248,70144
 3.6000e+000 70369  1.1104e+001 -3.8104e+002  8.1283e+001 68478 70118,70274,70248
 3.6000e+000 70346 -1.0834e+002 -2.8549e+002 -1.7885e+000 68478 70144,70222,70196
 3.6000e+000 70323 -9.0649e+001 -2.3981e+002 -1.2115e+001 68478 70144,70248,70222
 3.6000e+000 70300 -1.1911e+002 -3.1460e+002 -7.1086e+000 68478 70144,70196,70170
 3.6000e+000 70841  6.8602e+001 -2.5067e+002 -7.1161e+001 68280 70570,70622,70596
 3.6000e+000 70818 -1.2479e+002 -2.8703e+002 -1.6794e+001 68280 70544,70622,70570
 3.6000e+000 70795 -9.1270e+001 -2.1198e+002 -9.9236e+000 68280 70544,70674,70622
 3.6000e+000 70772 -7.8965e+001 -1.8858e+002  3.4883e+000 68280 70622,70674,70648
 3.6000e+000 70749 -1.3135e+002 -3.2089e+002  2.4038e+001 68280 70518,70674,70544
 3.6000e+000 70726  1.1257e+002 -3.3322e+002  9.5342e+001 68280 70518,70700,70674
 3.6000e+000 70991 -1.5085e+001 -1.3425e+003  4.0028e+001 67968 70864,70916,70890
 3.6000e+000 70968 -3.5563e+002 -1.3332e+003  1.5438e+002 67968 70864,70942,70916
 3.6000e+000 71141 -6.3078e+002 -1.2100e+003 -5.7629e+001 67770 71040,71092,71066
 3.6000e+000 71118 -5.5477e+002 -1.4543e+003  6.3464e+001 67770 71014,71092,71040
 3.6000e+000 71651 -8.3572e+001 -2.5600e+002 -4.6081e+001 67366 71746,71674,71458
 3.6000e+000 71628 -5.1713e+001 -2.0772e+002 -4.9812e+001 67366 71674,71354,71510
 3.6000e+000 71605 -7.4809e+001 -2.8252e+002 -4.3349e+001 67366 71746,71458,71432
 3.6000e+000 71582 -1.2056e+002 -2.8995e+002  1.1433e+001 67366 71354,71432,71380
 3.6000e+000 71559 -1.3204e+002 -2.0328e+002 -3.0266e+001 67366 71380,71432,71406
 3.6000e+000 71536 -5.7840e+001 -8.3126e+001 -6.9600e+000 67366 71328,71510,71354
 3.6000e+000 71700 -9.4868e+001 -2.3257e+002 -2.0963e+001 67366 71484,71458,71674
 3.6000e+000 71723 -6.1859e+001 -2.1776e+002 -1.7716e+001 67366 71484,71674,71510
 3.6000e+000 71772 -7.3099e+001 -2.2460e+002 -4.0675e+001 67366 71354,71674,71746
 3.6000e+000 71795 -6.3331e+001 -2.4811e+002 -4.1151e+001 67366 71354,71746,71432
 3.6000e+000 71896 -2.5975e+002 -5.5410e+002  0.0000e+000 67146 71818,71870,71844
 3.6000e+000 71997 -3.2495e+002 -4.5335e+002  9.0602e+001 66948 71919,71971,71945
 3.6000e+000 72149 -7.9631e+000 -3.2923e+002 -3.9045e+001 66700 72172,72074,72048
 3.6000e+000 72126 -1.0657e+002 -3.7031e+002 -1.5430e+001 66700 72172,72048,72022
 3.6000e+000 72198 -1.7504e+002 -4.0877e+002  2.7186e+001 66700 72244,72172,72100
 3.6000e+000 72221 -1.5581e+002 -3.7335e+002 -2.3344e+001 66700 72100,72172,72022
 3.6000e+000 72270 -8.7041e+001 -2.1631e+002 -2.6393e+001 66700 72074,72172,72244
 3.6000e+000 72623 -1.1281e+002 -3.4018e+002  9.1987e+000 66502 72424,72502,72450
 3.6000e+000 72600 -9.2819e+001 -2.8433e+002  5.2545e+000 66502 72398,72502,72424
 3.6000e+000 72577 -6.7286e+001 -3.2397e+002 -6.6067e+000 66502 72398,72528,72502
 3.6000e+000 72554 -1.1104e+002 -3.0235e+002 -2.1505e+000 66502 72450,72502,72476
 3.6000e+000 72920 -1.9075e+002 -3.9556e+002  1.0025e+001 65941 72672,72776,72750
 3.6000e+000 72897 -1.9121e+002 -3.4156e+002  3.7574e+001 65941 72646,72776,72672
 3.6000e+000 72874 -1.6766e+002 -3.8897e+002  1.2863e+001 65941 72672,72750,72724
 3.6000e+000 72851 -1.6953e+002 -3.0736e+002  2.9341e+001 65941 72672,72724,72698
 3.6000e+000 72828 -1.4780e+002 -3.4424e+002  3.6077e+001 65941 72646,72802,72776
 3.6000e+000 73241 -2.9791e+001 -2.8576e+002  2.3960e+001 65743 73264,73071,73045
 3.6000e+000 73218 -1.0950e+002 -3.2059e+002  3.1027e+001 65743 73480,73264,73045
 3.6000e+000 73195 -9.3470e+001 -2.9228e+002 -4.0467e+000 65743 73336,72967,73097
 3.6000e+000 73172 -1.7052e+002 -2.6634e+002 -3.2171e+001 65743 73408,72993,72967
 3.6000e+000 73149 -8.1370e+001 -2.9179e+002 -3.8607e+000 65743 72967,73123,73097
 3.6000e+000 73290 -6.4416e+001 -3.0224e+002  5.9067e+000 65743 73097,73071,73264
 3.6000e+000 73313 -7.7182e+001 -2.7569e+002  1.3693e+001 65743 73336,73097,73264
 3.6000e+000 73362 -1.4531e+002 -3.0082e+002 -2.1942e+001 65743 73408,72967,73336
 3.6000e+000 73385 -6.6096e+001 -2.7367e+002 -7.4031e-001 65743 73019,73336,73264
 3.6000e+000 73434 -1.2866e+002 -2.0475e+002  1.5510e+001 65743 73019,72993,73408
 3.6000e+000 73457 -6.8675e+001 -2.4913e+002  1.0066e+001 65743 73019,73408,73336
 3.6000e+000 73506 -4.2252e+001 -2.0362e+002  3.8135e+000 65743 73019,73264,73480
 3.6000e+000 73989 -1.0296e+001 -2.2500e+002  2.7436e+001 65453 73793,73845,73819
 3.6000e+000 73966 -1.1814e+002 -2.5322e+002  3.1841e+001 65453 73741,73845,73793
 3.6000e+000 73943 -2.7366e+001 -2.0319e+002  1.2399e+001 65453 73715,73845,73741
 3.6000e+000 73920 -9.2469e+001 -2.6893e+002  5.2845e+001 65453 73741,73793,73767
 3.6000e+000 73897  7.7584e+000 -1.2710e+002  2.5584e+000 65453 73715,73871,73845
 3.6000e+000 74357 -7.0803e+001 -3.0039e+002 -8.2286e+001 65141 74380,74138,74086
 3.6000e+000 74334 -1.3154e+002 -4.0221e+002 -5.5809e+001 65141 74380,74086,74060
 3.6000e+000 74311 -1.4807e+002 -3.9060e+002 -1.4743e+001 65141 74138,74190,74164
 3.6000e+000 74288 -1.1127e+002 -4.3574e+002 -1.7265e+001 65141 74060,74216,74190
 3.6000e+000 74265 -1.1920e+002 -4.6133e+002  6.9092e+000 65141 74034,74216,74060
 3.6000e+000 74242 -9.5380e+001 -2.4127e+002 -5.5254e+001 65141 74086,74138,74112
 3.6000e+000 74406 -1.0798e+002 -3.9082e+002 -3.3097e+001 65141 74190,74138,74380
 3.6000e+000 74429 -1.2683e+002 -4.2599e+002 -1.5855e+001 65141 74190,74380,74060
 3.6000e+000 74937 -1.4776e+002 -3.0090e+002 -7.7699e+001 64737 74614,74666,74640
 3.6000e+000 74914 -1.8117e+002 -3.7213e+002 -5.7665e+001 64737 74614,74796,74666
 3.6000e+000 74891 -1.3080e+002 -2.6091e+002 -1.1446e+001 64737 74960,74718,74666
 3.6000e+000 74868 -1.1349e+002 -2.8591e+002 -3.5626e+001 64737 74960,74666,74770
 3.6000e+000 74845 -1.1599e+002 -2.2697e+002 -3.7493e+001 64737 74666,74796,74770
 3.6000e+000 74822 -1.2949e+002 -2.8281e+002  2.2132e+000 64737 74666,74718,74692
 3.6000e+000 74986 -1.4132e+002 -2.8664e+002 -1.0110e+001 64737 74744,74718,74960
 3.6000e+000 75009 -1.2994e+002 -3.2420e+002 -3.4752e+001 64737 74744,74960,74770
 3.6000e+000 75306 -4.9311e+001 -2.6454e+002  3.6083e+001 64133 75329,75110,75084
 3.6000e+000 75283 -7.7616e+001 -3.0513e+002  1.4273e+001 64133 75401,75329,75084
 3.6000e+000 75260 -7.5947e+001 -3.1563e+002  1.6571e+001 64133 75401,75084,75058
 3.6000e+000 75237 -6.7548e+001 -3.4909e+002  3.3360e+001 64133 75473,75136,75110
 3.6000e+000 75214 -8.5996e+001 -2.7909e+002  4.5737e+000 64133 75032,75188,75162
 3.6000e+000 75355 -7.6590e+001 -3.3033e+002  2.6658e+001 64133 75473,75110,75329
 3.6000e+000 75378 -6.4369e+001 -2.8947e+002  3.7096e+000 64133 75162,75329,75032
 3.6000e+000 75427 -6.1534e+001 -2.8353e+002  5.7285e+000 64133 75032,75329,75401
 3.6000e+000 75450 -1.2861e+002 -3.4988e+002  4.0612e+001 64133 75545,75401,75058
 3.6000e+000 75499 -6.9588e+001 -3.2479e+002  6.8360e+000 64133 75162,75136,75473
 3.6000e+000 75522 -7.2833e+001 -2.8796e+002  7.4414e+000 64133 75162,75473,75329
 3.6000e+000 75571 -5.8634e+001 -1.9678e+002  1.3827e+001 64133 75032,75401,75545
 3.6000e+000 75851 -1.0453e+002 -2.8051e+002  2.8299e+000 63843 75874,75753,75727
 3.6000e+000 75828 -9.1864e+001 -2.8568e+002 -1.8571e+001 63843 75946,75874,75727
 3.6000e+000 75805 -1.0764e+002 -3.0803e+002 -8.5829e+000 63843 76018,75946,75727
 3.6000e+000 75900 -7.5857e+001 -2.6830e+002 -5.9693e+000 63843 75779,75753,75874
 3.6000e+000 75923 -8.4733e+001 -2.3213e+002 -3.3245e+001 63843 75779,75874,75675
 3.6000e+000 75972 -1.0791e+002 -2.6404e+002 -1.3993e+001 63843 75675,75874,75946
 3.6000e+000 75995 -9.7600e+001 -2.8079e+002 -2.3217e+001 63843 75675,75946,75701
 3.6000e+000 76044 -1.0820e+002 -2.9386e+002 -3.0406e+001 63843 75701,75946,76018
 3.6000e+000 76454  2.6933e+001 -5.1800e+001 -3.7935e+001 63439 76477,76255,76229
 3.6000e+000 76431 -2.3023e+001 -1.3884e+002 -6.7955e+000 63439 76477,76229,76359
 3.6000e+000 76408 -3.9923e+001 -1.0752e+002  5.9552e+001 63439 76307,76359,76333
 3.6000e+000 76385 -1.7283e+001 -1.4576e+002  7.2062e+000 63439 76255,76307,76281
 3.6000e+000 76503 -2.1665e+001 -1.1951e+002  1.4336e+001 63439 76307,76255,76477
 3.6000e+000 76526 -2.1196e+001 -1.5439e+002  3.6535e+001 63439 76307,76477,76359
 3.6000e+000 76926 -6.2714e+001 -2.1633e+002 -5.5521e+000 63049 76704,76782,76756
 3.6000e+000 76903 -9.4869e+001 -2.2548e+002 -2.2774e+001 63049 76704,76808,76782
 3.6000e+000 76880 -6.7241e+001 -2.5510e+002  3.1934e+000 63049 76704,76756,76730
 3.6000e+000 76857 -5.8587e+001 -1.4466e+002  8.6752e+000 63049 76678,76808,76704
 3.6000e+000 76834 -2.8288e+001 -3.5333e+001 -3.2927e+001 63049 76652,76808,76678
 3.6000e+000 77076 -2.2485e+001 -3.2795e+002 -1.7872e+000 62737 76975,77027,77001
 3.6000e+000 77053 -2.2272e+001 -3.6848e+002 -2.3226e+001 62737 76949,77027,76975
 3.6000e+000 77324 -1.4802e+002 -3.3313e+002 -6.2605e+000 62277 77347,77177,77125
 3.6000e+000 77301 -1.3932e+002 -3.2212e+002 -1.8261e+001 62277 77347,77125,77229
 3.6000e+000 77278 -1.3377e+002 -3.3157e+002 -2.4531e+001 62277 77099,77229,77125
 3.6000e+000 77255 -1.5150e+002 -4.1059e+002  7.8960e-001 62277 77125,77177,77151
 3.6000e+000 77373 -1.5396e+002 -3.6274e+002  1.1300e+001 62277 77203,77177,77347
 3.6000e+000 77396 -1.2290e+002 -3.3475e+002 -4.9049e+000 62277 77203,77347,77229
 3.6000e+000 77857 -6.8134e+001 -4.0527e+002  3.3672e+000 61758 77635,77739,77661
 3.6000e+000 77834 -1.1092e+002 -3.9586e+002 -1.9528e+001 61758 77583,77739,77635
 3.6000e+000 77811 -1.2559e+002 -4.8845e+002 -5.0807e+001 61758 77583,77635,77609
 3.6000e+000 77788 -1.0061e+002 -3.8109e+002  3.1791e+001 61758 77661,77713,77687
 3.6000e+000 77765 -1.0519e+002 -4.4820e+002  3.1516e+001 61758 77661,77739,77713
 3.6000e+000 78491 -1.1149e+002 -2.3179e+002  1.3070e+001 61418 78171,78301,78249
 3.6000e+000 78468 -9.3207e+001 -1.9487e+002  2.7514e+001 61418 78145,78301,78171
 3.6000e+000 78445 -8.2617e+001 -2.0425e+002 -1.2900e+001 61418 78171,78249,78223
 3.6000e+000 78422 -8.8435e+001 -1.9239e+002  1.1462e+001 61418 78145,78327,78301
 3.6000e+000 78399 -1.1401e+002 -2.5368e+002 -4.4973e-001 61418 78249,78301,78275
 3.6000e+000 78376 -5.1101e+001 -2.1528e+002 -1.8687e+001 61418 78171,78223,78197
 3.6000e+000 78353 -1.0904e+002 -2.5033e+002 -4.7743e+000 61418 78119,78327,78145
 3.6000e+000 78690 -1.2459e+002 -2.9002e+002 -5.4925e+000 61014 78713,78566,78540
 3.6000e+000 78667 -7.9325e+001 -2.9268e+002 -3.6751e+000 61014 78713,78540,78618
 3.6000e+000 78644 -1.3700e+002 -3.3053e+002 -3.3040e+001 61014 78514,78618,78540
 3.6000e+000 78739 -6.1619e+001 -2.8226e+002  2.8947e+001 61014 78592,78566,78713
 3.6000e+000 78762 -6.9698e+001 -3.1257e+002  1.0254e-002 61014 78785,78713,78618
 3.6000e+000 78811 -2.3599e+001 -2.9449e+002 -4.7170e+000 61014 78592,78713,78785
 3.6000e+000 79398 -5.0250e+001 -2.4578e+002 -2.8323e+001 60624 79101,79179,79153
 3.6000e+000 79375 -7.3219e+001 -2.7605e+002 -1.5401e+001 60624 79101,79231,79179
 3.6000e+000 79352 -5.6900e+001 -2.7564e+002 -2.3974e+001 60624 79075,79231,79101
 3.6000e+000 79329 -1.7235e+001 -3.3712e+002  3.7950e+001 60624 79075,79257,79231
 3.6000e+000 79306 -5.3977e+001 -2.0134e+002 -5.3005e+001 60624 79179,79231,79205
 3.6000e+000 79283 -3.6633e+001 -2.1630e+002 -1.4192e+001 60624 79101,79153,79127
 3.6000e+000 79776 -1.3115e+002 -3.6666e+002  3.6731e+001 60070 79528,79658,79606
 3.6000e+000 79753 -1.1537e+002 -2.7910e+002 -1.3780e+000 60070 79502,79658,79528
 3.6000e+000 79730 -1.6388e+002 -3.5403e+002  5.1943e+001 60070 79528,79606,79580
 3.6000e+000 79707 -2.6284e+001 -3.0110e+002  5.1151e+000 60070 79606,79658,79632
 3.6000e+000 79684 -1.3861e+001 -2.1684e+002 -5.6409e+001 60070 79528,79580,79554
 3.6000e+000 80105 -8.7263e+001 -2.7891e+002  3.6578e+001 59758 80128,79958,79906
 3.6000e+000 80082 -9.7761e+001 -2.6413e+002  2.8467e+001 59758 80128,79906,80010
 3.6000e+000 80059 -1.2999e+002 -2.9104e+002  1.0267e+002 59758 79906,79958,79932
 3.6000e+000 80036 -1.5132e+002 -3.0830e+002  9.1126e+000 59758 79880,80010,79906
 3.6000e+000 80154 -9.3149e+001 -2.8807e+002  3.3963e+001 59758 79984,79958,80128
 3.6000e+000 80177 -1.0472e+002 -2.7662e+002  2.5416e+001 59758 79984,80128,80010
 3.6000e+000 80376 -7.3653e+001 -2.8470e+002  5.3726e+000 59312 80226,80304,80252
 3.6000e+000 80353 -7.6614e+001 -2.8516e+002  4.3286e+000 59312 80200,80304,80226
 3.6000e+000 80330 -1.1694e+002 -2.5602e+002  7.6548e+001 59312 80252,80304,80278
 3.6000e+000 80805 -1.0408e+002 -2.3357e+002 -3.7470e+001 58908 80900,80828,80638
 3.6000e+000 80782 -8.9394e+001 -2.7496e+002 -5.6283e+001 58908 80828,80560,80508
 3.6000e+000 80759 -1.0855e+002 -2.1819e+002 -1.2417e+001 58908 80900,80638,80612
 3.6000e+000 80736 -4.6963e+001 -2.4086e+002  9.3613e+001 58908 80482,80664,80508
 3.6000e+000 80713 -7.1980e+001 -2.0462e+002 -2.8159e+000 58908 80560,80612,80586
 3.6000e+000 80690 -9.8931e+001 -6.4403e+002 -1.2680e+002 58908 80508,80560,80534
 3.6000e+000 80854 -5.1087e+001 -2.5247e+002 -1.1032e+000 58908 80664,80638,80828
 3.6000e+000 80877 -8.3941e+001 -3.6399e+002  5.3068e+000 58908 80664,80828,80508
 3.6000e+000 80926 -8.8860e+001 -1.8808e+002 -3.9632e+001 58908 80560,80828,80900
 3.6000e+000 80949 -9.9293e+001 -1.8775e+002 -1.1112e+001 58908 80560,80900,80612
 3.6000e+000 81246 -3.8135e+001 -2.1633e+002 -5.8778e+000 58482 81076,81128,81102
 3.6000e+000 81223 -9.7538e+001 -3.6878e+002 -3.6750e+001 58482 80972,81128,81076
 3.6000e+000 81200 -6.1874e+001 -2.5139e+002 -3.9285e+001 58482 80972,81076,81050
 3.6000e+000 81177 -1.3929e+002 -3.9088e+002 -7.4764e+000 58482 80998,81050,81024
 3.6000e+000 81154 -7.3998e+001 -3.1599e+002 -3.5261e+001 58482 80972,81050,80998
 3.6000e+000 81754 -1.0983e+002 -2.3094e+002  1.8560e+001 57828 81457,81613,81483
 3.6000e+000 81731 -1.2485e+002 -2.5882e+002  9.0756e+000 57828 81431,81613,81457
 3.6000e+000 81708 -1.1987e+002 -2.5437e+002  1.9541e+001 57828 81483,81613,81509
 3.6000e+000 81685 -1.4382e+002 -2.9066e+002  3.0130e+001 57828 81509,81613,81587
 3.6000e+000 81662 -1.5040e+002 -4.2226e+002  5.9755e+001 57828 81509,81587,81535
 3.6000e+000 81639 -8.8564e+001 -4.0440e+002  3.9005e+001 57828 81535,81587,81561
 3.6000e+000 82002 -1.7919e+002 -4.3353e+002 -1.9978e+000 57374 82025,81855,81829
 3.6000e+000 81979 -1.9155e+002 -4.1241e+002  1.5913e+001 57374 82025,81829,81907
 3.6000e+000 81956 -1.9951e+002 -3.8059e+002  6.7225e+000 57374 81803,81907,81829
 3.6000e+000 81933 -1.2515e+002 -3.5551e+002  8.1999e+000 57374 81777,81907,81803
 3.6000e+000 82051 -1.7128e+002 -4.0794e+002 -6.1169e+000 57374 81881,81855,82025
 3.6000e+000 82074 -1.8471e+002 -3.9228e+002  1.7139e+001 57374 81881,82025,81907
 3.6000e+000 82356 -9.2607e+001 -2.2354e+002 -2.0269e+001 56913 82180,82232,82206
 3.6000e+000 82333 -7.2819e+001 -2.0006e+002  2.3265e+001 56913 82180,82284,82232
 3.6000e+000 82310 -2.5692e+001 -1.8244e+002  3.9016e+001 56913 82379,82232,82284
 3.6000e+000 82405  2.3556e+001 -1.7504e+002  1.1998e+001 56913 82258,82232,82379
 3.6000e+000 82764 -9.6849e+001 -1.5398e+002 -1.5442e+001 56523 82614,82666,82640
 3.6000e+000 82741 -8.1651e+001 -1.5452e+002 -2.3462e+001 56523 82614,82692,82666
 3.6000e+000 82718 -7.0699e+001 -1.6616e+002 -4.8051e+001 56523 82588,82692,82614
 3.6000e+000 83368 -2.5193e+001 -2.9635e+002 -1.5210e+001 55969 82973,83155,83129
 3.6000e+000 83345  3.6021e+000 -2.8464e+002 -1.8416e+001 55969 82973,83181,83155
 3.6000e+000 83322 -7.8443e+001 -2.6046e+002 -1.3337e+001 55969 82973,83129,82999
 3.6000e+000 83299 -1.2339e+002 -2.6767e+002  6.7428e+000 55969 83391,83025,82999
 3.6000e+000 83276 -1.0250e+002 -2.7488e+002 -7.2519e-001 55969 83391,82999,83129
 3.6000e+000 83253 -2.9513e+001 -2.2768e+002  3.8472e+001 55969 83077,83129,83103
 3.6000e+000 83230 -1.2050e+002 -2.0868e+002 -1.5085e+001 55969 83025,83077,83051
 3.6000e+000 83207 -3.1213e+000 -2.7464e+002  2.7116e+001 55969 82947,83181,82973
 3.6000e+000 83417 -1.0315e+002 -2.5686e+002  1.1189e+001 55969 83077,83025,83391
 3.6000e+000 83440 -9.5824e+001 -2.7033e+002  1.3104e+000 55969 83077,83391,83129
 3.6000e+000 83946 -1.8421e+002 -3.8409e+002  6.6280e+001 55771 83969,83779,83727
 3.6000e+000 83923 -1.4612e+002 -3.1402e+002  2.9310e+001 55771 83969,83727,83623
 3.6000e+000 83900 -1.7615e+002 -1.8438e+002  1.6249e+001 55771 83623,83727,83649
 3.6000e+000 83877 -8.6006e+001 -6.3521e+002  5.1447e+001 55771 83727,83779,83753
 3.6000e+000 83854 -3.0033e+002 -2.8730e+002  1.2746e+002 55771 83675,83727,83701
 3.6000e+000 83831 -2.7154e+002 -2.9897e+002  1.2057e+002 55771 83649,83727,83675
 3.6000e+000 83995 -1.6326e+002 -3.9414e+002 -2.6014e+001 55771 83805,83779,83969
 3.6000e+000 84018 -7.9308e+001 -2.4850e+002 -7.1302e+001 55771 83805,83969,83623
 3.6000e+000 84168 -7.7432e+001 -2.0455e+002 -6.3861e+000 55367 84191,84067,84041
 3.6000e+000 84145 -7.5817e+001 -2.3141e+002 -4.2252e+000 55367 84191,84041,84119
 3.6000e+000 84217 -8.2779e+001 -1.8899e+002 -5.8601e+000 55367 84093,84067,84191
 3.6000e+000 84240 -7.2424e+001 -2.0445e+002  3.8896e+000 55367 84093,84191,84119
 3.6000e+000 84571 -4.1111e+001 -3.3915e+002 -3.5049e+001 54913 84398,84450,84424
 3.6000e+000 84548 -2.5862e+001 -3.0803e+002 -1.7367e+001 54913 84372,84450,84398
 3.6000e+000 84525 -7.7116e+001 -3.4926e+002  1.2778e+001 54913 84346,84450,84372
 3.6000e+000 84502 -2.0902e+001 -2.2055e+002 -2.7736e+001 54913 84346,84476,84450
 3.6000e+000 85126 -1.6619e+002 -3.7187e+002 -1.3016e+001 54402 84858,84936,84910
 3.6000e+000 85103 -1.2726e+002 -2.9266e+002 -3.6774e+001 54402 84806,84936,84858
 3.6000e+000 85080 -1.4664e+002 -2.6558e+002 -2.8160e+001 54402 84780,84936,84806
 3.6000e+000 85057 -1.2801e+002 -3.2427e+002 -1.7487e+001 54402 84806,84858,84832
 3.6000e+000 85034 -1.3088e+002 -2.5036e+002  1.0061e+001 54402 84780,84962,84936
 3.6000e+000 85011 -2.0647e+002 -2.2164e+002 -7.7911e+000 54402 84858,84910,84884
 3.6000e+000 84988 -1.2720e+002 -2.3808e+002  9.6589e+000 54402 84754,84962,84780
 3.6000e+000 85396 -1.2469e+002 -1.5230e+002 -1.1447e+001 53998 85197,85249,85223
 3.6000e+000 85373 -9.5206e+001 -1.9607e+002 -2.6086e+000 53998 85197,85275,85249
 3.6000e+000 85350 -1.1955e+002 -2.2914e+002 -1.3809e+001 53998 85171,85275,85197
 3.6000e+000 85327 -5.5937e+001 -2.1343e+002 -1.7214e+001 53998 85171,85301,85275
 3.6000e+000 85749 -7.6188e+001 -2.7906e+002 -5.1128e+000 53636 85524,85628,85550
 3.6000e+000 85726 -1.2182e+002 -3.0561e+002  9.9817e+000 53636 85524,85654,85628
 3.6000e+000 85703 -4.5665e+001 -3.0199e+002 -2.8182e+001 53636 85550,85602,85576
 3.6000e+000 85680 -7.6845e+001 -2.7721e+002 -1.3432e+001 53636 85550,85628,85602
 3.6000e+000 86127 -2.7275e+001 -2.6700e+002  4.1120e+001 52982 86150,85957,85879
 3.6000e+000 86104 -8.4990e+001 -3.1237e+002  2.1226e+001 52982 86150,85879,85853
 3.6000e+000 86081 -2.5756e+001 -3.9248e+002  7.8786e+001 52982 85957,86009,85983
 3.6000e+000 86058 -1.0768e+002 -2.8515e+002  3.2943e+001 52982 85879,85957,85931
 3.6000e+000 86035 -6.2833e+001 -2.7064e+002 -1.7213e+001 52982 85879,85931,85905
 3.6000e+000 86176  1.1390e+001 -3.1658e+002  3.3542e+001 52982 86009,85957,86150
 3.6000e+000 86199 -2.2953e+001 -3.4896e+002  2.0190e+001 52982 86009,86150,85853
 3.6000e+000 86398 -5.9255e+001 -2.0793e+002  1.9016e+001 52542 86421,86248,86222
 3.6000e+000 86375 -1.0451e+002 -2.1221e+002 -2.1432e+000 52542 86421,86222,86300
 3.6000e+000 86352 -1.0386e+002 -2.2821e+002 -1.0296e+001 52542 86222,86326,86300
 3.6000e+000 86447 -1.3298e+001 -2.0876e+002  3.7134e+001 52542 86274,86248,86421
 3.6000e+000 86470 -5.6137e+001 -2.1988e+002  1.0454e+001 52542 86274,86421,86300
 3.6000e+000 86669 -1.0414e+002 -2.2114e+002 -3.5088e+001 52230 86692,86571,86545
 3.6000e+000 86646 -9.9457e+001 -2.0634e+002 -1.9967e+001 52230 86692,86545,86519
 3.6000e+000 86623 -1.3726e+002 -2.1758e+002 -3.4909e+001 52230 86493,86597,86519
 3.6000e+000 86718 -1.1118e+002 -2.2574e+002 -4.2992e+001 52230 86597,86571,86692
 3.6000e+000 86741 -1.1680e+002 -2.1529e+002 -2.8905e+001 52230 86597,86692,86519
 3.6000e+000 87153 -1.3947e+002 -2.2173e+002  1.1709e+001 51640 86980,87058,87032
 3.6000e+000 87130 -1.4202e+002 -2.2680e+002  9.5933e+000 51640 86928,87058,86980
 3.6000e+000 87107 -1.5098e+002 -2.9709e+002 -7.3519e+000 51640 86928,86980,86954
 3.6000e+000 87084 -7.5768e+001 -1.9470e+002 -8.4040e-001 51640 86980,87032,87006
 3.6000e+000 87659 -5.2043e+001 -1.9415e+002  1.2068e+001 51029 87682,87440,87362
 3.6000e+000 87636 -5.2076e+001 -2.1018e+002 -1.6100e+001 51029 87682,87362,87336
 3.6000e+000 87613 -8.7191e+001 -3.0610e+002 -1.0042e+001 51029 87440,87518,87466
 3.6000e+000 87590 -1.0671e+002 -1.9797e+002  1.6955e+001 51029 87362,87440,87414
 3.6000e+000 87567 -8.7920e+001 -1.4999e+002  3.7584e+001 51029 87362,87414,87388
 3.6000e+000 87544 -1.2491e+002 -2.5614e+002  6.3776e+000 51029 87466,87518,87492
 3.6000e+000 87708 -4.7536e+001 -2.2202e+002  1.0567e+000 51029 87518,87440,87682
 3.6000e+000 87731 -4.9271e+001 -2.5934e+002 -1.6748e+001 51029 87518,87682,87336
 3.6000e+000 87881 -1.2945e+002 -2.7832e+002  6.9723e+000 50739 87780,87832,87806
 3.6000e+000 87858 -1.4632e+002 -2.7776e+002 -1.2329e+001 50739 87754,87832,87780
 3.6000e+000 88468 -7.4466e+001 -1.8093e+002  7.7752e+000 50235 88171,88327,88197
 3.6000e+000 88445 -1.7083e+002 -1.7951e+002 -2.9508e+001 50235 88145,88327,88171
 3.6000e+000 88422  5.0218e+001 -9.4801e+001  4.2325e+001 50235 88275,88327,88301
 3.6000e+000 88399 -4.5190e+001 -1.3642e+002 -4.8732e+000 50235 88197,88327,88275
 3.6000e+000 88376  1.1956e+001 -1.6863e+002  4.5645e+000 50235 88197,88275,88223
 3.6000e+000 88353 -4.0007e+000 -1.8874e+002  1.4679e+001 50235 88223,88275,88249
 3.6000e+000 88895 -1.1596e+002 -2.9037e+002  1.1162e+001 49873 88918,88728,88676
 3.6000e+000 88872 -9.9707e+001 -2.7859e+002 -1.8202e+000 49873 88918,88676,88624
 3.6000e+000 88849 -7.7427e+001 -2.4344e+002 -4.2207e+000 49873 88598,88754,88624
 3.6000e+000 88826 -6.1374e+001 -2.6148e+002 -5.5626e+000 49873 88624,88676,88650
 3.6000e+000 88803 -1.0002e+002 -3.5659e+002  1.2780e+001 49873 88676,88728,88702
 3.6000e+000 88780 -8.4354e+001 -2.1892e+002  1.0165e+001 49873 88572,88754,88598
 3.6000e+000 88944 -9.4354e+001 -2.8576e+002  3.3299e+000 49873 88754,88728,88918
 3.6000e+000 88967 -8.8867e+001 -2.8410e+002 -8.3760e+000 49873 88754,88918,88624
 3.6000e+000 89473 -1.8447e+002 -2.8195e+002 -3.2750e+001 49583 89176,89306,89202
 3.6000e+000 89450 -1.8586e+002 -2.7609e+002 -4.8265e+001 49583 89176,89332,89306
 3.6000e+000 89427 -1.0890e+002 -3.1258e+002  1.2304e+001 49583 89496,89228,89202
 3.6000e+000 89404 -1.0774e+002 -3.1906e+002  1.4853e+001 49583 89496,89202,89280
 3.6000e+000 89381 -2.2195e+002 -3.9656e+002 -6.7072e+001 49583 89202,89306,89280
 3.6000e+000 89358 -1.4956e+002 -2.8181e+002 -5.7066e+001 49583 89150,89332,89176
 3.6000e+000 89522 -1.0178e+002 -2.6993e+002  8.1322e+000 49583 89254,89228,89496
 3.6000e+000 89545 -1.2050e+002 -3.0696e+002  1.4697e+001 49583 89254,89496,89280
 3.6000e+000 89825  4.1692e+001 -2.7853e+002  1.3887e+001 49179 89701,89753,89727
 3.6000e+000 89802 -3.8746e+001 -2.5051e+002  2.1632e+001 49179 89675,89753,89701
 3.6000e+000 89779 -3.0201e+001 -2.2402e+002  1.2472e+001 49179 89848,89753,89675
 3.6000e+000 89874 -1.5187e+002 -2.5756e+002 -1.9700e+001 49179 89649,89753,89848
 3.6000e+000 90223 -6.5153e+001 -2.7565e+002 -1.9104e+001 48739 90024,90102,90076
 3.6000e+000 90200 -9.9412e+001 -2.7992e+002 -7.6655e+000 48739 90024,90128,90102
 3.6000e+000 90177 -5.2285e+001 -2.9196e+002 -1.1321e+001 48739 90024,90076,90050
 3.6000e+000 90154 -4.2670e+001 -2.6714e+002  2.2436e+001 48739 89998,90128,90024
 3.6000e+000 90603 -9.6326e+001 -2.4556e+002  4.7413e+001 48335 90381,90485,90459
 3.6000e+000 90580 -1.1613e+002 -2.7440e+002  3.8183e+001 48335 90355,90485,90381
 3.6000e+000 90557 -4.6631e+001 -1.0390e+002  2.8464e+001 48335 90381,90433,90407
 3.6000e+000 90534 -8.8140e+001 -2.4807e+002  4.0948e+001 48335 90381,90459,90433
 3.6000e+000 90511  1.6493e+001 -2.0235e+002  6.7395e+001 48335 90329,90485,90355
 3.6000e+000 90753 -1.1595e+001 -1.5154e+002  8.8319e+001 47824 90776,90652,90704
 3.6000e+000 90730 -8.1211e+001 -2.5588e+002  4.4431e+001 47824 90626,90704,90652
 3.6000e+000 90802 -4.1075e+001 -1.9825e+002  7.0271e+001 47824 90678,90652,90776
 3.6000e+000 91131 -8.4880e+001 -2.9584e+002  1.2901e+001 47427 91154,90958,90906
 3.6000e+000 91108 -1.5158e+002 -3.2293e+002 -2.2357e+000 47427 91154,90906,91036
 3.6000e+000 91085 -1.4979e+002 -2.6110e+002 -2.4732e+001 47427 90958,91010,90984
 3.6000e+000 91062 -8.9337e+001 -2.7844e+002  1.7649e+001 47427 90906,90958,90932
 3.6000e+000 91180 -1.2435e+002 -2.9564e+002 -3.0763e+001 47427 91010,90958,91154
 3.6000e+000 91203 -1.8901e+002 -3.2375e+002 -4.7091e+001 47427 91010,91154,91036
 3.6000e+000 91583 -1.7300e+002 -3.1531e+002 -1.6800e+001 46873 91309,91439,91335
 3.6000e+000 91560 -1.7754e+002 -3.2460e+002 -1.4534e+001 46873 91309,91465,91439
 3.6000e+000 91537 -2.4866e+002 -3.6477e+002 -8.1419e+001 46873 91361,91439,91413
 3.6000e+000 91514 -1.8712e+002 -3.2504e+002 -3.9679e+001 46873 91335,91439,91361
 3.6000e+000 91491 -7.9059e+001 -3.0292e+002 -6.8766e+001 46873 91361,91413,91387
 3.6000e+000 91880 -9.2917e+001 -2.9710e+002 -6.9846e+000 46526 91606,91710,91658
 3.6000e+000 91857 -9.6840e+001 -3.1139e+002  2.3311e+000 46526 91606,91762,91710
 3.6000e+000 91834 -5.4279e+001 -2.8767e+002 -3.5948e+001 46526 91606,91658,91632
 3.6000e+000 91811 -1.1062e+002 -2.7674e+002  5.2023e+000 46526 91658,91710,91684
 3.6000e+000 91788 -6.2384e+001 -2.0868e+002  1.0140e+001 46526 91710,91762,91736
 3.6000e+000 92211 -5.9445e+001 -1.4001e+002 -1.4970e+001 45700 91986,92064,92038
 3.6000e+000 92188 -8.8132e+001 -1.9667e+002 -6.9676e-001 45700 91986,92116,92064
 3.6000e+000 92165 -4.0036e+001 -1.1211e+002 -3.8522e+001 45700 91986,92038,92012
 3.6000e+000 92142 -5.6404e+001 -2.1842e+002  3.1035e+001 45700 92064,92116,92090
 3.6000e+000 92766 -1.5651e+002 -2.6800e+002  1.2426e+001 45452 92446,92602,92576
 3.6000e+000 92743 -2.3263e+002 -2.6671e+002 -3.3333e+001 45452 92420,92602,92446
 3.6000e+000 92720 -1.7661e+002 -2.7355e+002  4.2243e+001 45452 92789,92524,92498
 3.6000e+000 92697 -2.1180e+002 -2.7109e+002  3.0794e+001 45452 92789,92498,92446
 3.6000e+000 92674 -1.6669e+002 -2.9952e+002 -4.9882e+000 45452 92524,92576,92550
 3.6000e+000 92651 -2.7535e+002 -2.7607e+002  1.5916e+002 45452 92446,92498,92472
 3.6000e+000 92628 -1.6485e+002 -3.6824e+002 -1.0591e+002 45452 92394,92602,92420
 3.6000e+000 92815 -1.5242e+002 -2.8286e+002  3.3150e+001 45452 92576,92524,92789
 3.6000e+000 92838 -1.7871e+002 -2.7290e+002  2.6703e+001 45452 92576,92789,92446
 3.6000e+000 92939 -1.0962e+002 -3.5052e+002 -7.3868e+001 44998 92861,92913,92887
 3.6000e+000 93319 -8.9764e+000 -3.6313e+002  7.6578e+001 44601 93123,93201,93149
 3.6000e+000 93296 -9.5619e+001 -3.7670e+002 -3.8856e+001 44601 93045,93201,93123
 3.6000e+000 93273 -8.0838e+001 -2.1279e+002 -5.2759e+001 44601 93045,93123,93071
 3.6000e+000 93250 -7.7659e+001 -1.9918e+002 -3.5918e+001 44601 93071,93123,93097
 3.6000e+000 93227  5.6053e+000 -1.9925e+002  8.3048e+001 44601 93149,93201,93175
 3.6000e+000 93697 -6.6750e+001 -3.9964e+002  2.7704e+001 44026 93720,93553,93527
 3.6000e+000 93674 -1.3665e+002 -3.3488e+002  3.5840e+001 44026 93720,93527,93449
 3.6000e+000 93651 -1.5371e+002 -3.4925e+002 -5.4541e+000 44026 93449,93527,93501
 3.6000e+000 93628 -1.0661e+002 -2.7113e+002 -5.0561e+001 44026 93423,93579,93449
 3.6000e+000 93605 -3.0547e+001 -2.7066e+002  2.8275e+001 44026 93449,93501,93475
 3.6000e+000 93746 -1.4946e+001 -3.5372e+002  7.8111e+000 44026 93579,93553,93720
 3.6000e+000 93769 -8.9171e+001 -2.9094e+002  1.6597e+001 44026 93579,93720,93449
 3.6000e+000 94066 -7.3872e+001 -3.0911e+002 -4.3931e+001 43579 94089,93818,93792
 3.6000e+000 94043 -1.2396e+002 -3.4139e+002 -2.9413e+001 43579 94161,94089,93792
 3.6000e+000 94020 -1.2162e+002 -3.4299e+002 -1.5484e+001 43579 94161,93792,93948
 3.6000e+000 93997 -1.3088e+002 -2.7304e+002 -1.5653e+001 43579 94233,93870,93818
 3.6000e+000 93974 -7.1654e+001 -2.7813e+002  4.0903e+000 43579 93818,93870,93844
 3.6000e+000 94115 -1.2743e+002 -2.7540e+002 -3.2859e+001 43579 94233,93818,94089
 3.6000e+000 94138 -1.7191e+002 -3.0853e+002 -2.2323e+001 43579 93896,94089,93922
 3.6000e+000 94187 -1.1490e+002 -3.2069e+002 -2.8154e+001 43579 93922,94089,94161
 3.6000e+000 94210 -1.1120e+002 -3.2008e+002 -1.2958e+001 43579 93922,94161,93948
 3.6000e+000 94259 -1.5048e+002 -3.0567e+002 -6.8632e+000 43579 93896,93870,94233
 3.6000e+000 94282 -1.3879e+002 -3.0005e+002 -2.6675e+001 43579 93896,94233,94089
 3.6000e+000 94481 -1.0408e+002 -3.1539e+002 -2.6279e+000 43239 94305,94383,94357
 3.6000e+000 94458 -8.7347e+001 -2.8711e+002  3.5732e+001 43239 94305,94409,94383
 3.6000e+000 94435 -7.7766e+001 -3.3496e+002 -9.6282e+000 43239 94305,94357,94331
 3.6000e+000 94633 -6.2860e+001 -2.0451e+002  5.4810e+001 42827 94656,94532,94506
 3.6000e+000 94610 -7.5128e+001 -2.1616e+002  6.8847e+001 42827 94728,94656,94506
 3.6000e+000 94682 -1.7201e+001 -2.3372e+002  6.1392e+001 42827 94558,94532,94656
 3.6000e+000 94705  1.8913e+001 -2.4789e+002  3.8763e+001 42827 94988,94860,94656
 3.6000e+000 94754 -3.8029e+001 -2.1696e+002  2.2984e+001 42827 94988,94656,94728
 3.6000e+000 94886  9.7695e+001 -2.1590e+002  4.0515e+001 42827 94558,94656,94860
 3.6000e+000 95014  6.5975e+001 -2.2128e+002  2.7236e+001 42827 94584,94860,94988
 3.6000e+000 95037  1.9822e+001 -1.8823e+002  1.3609e+001 42827 94584,94988,94728
 3.6000e+000 95236 -8.9617e+001 -2.8282e+002  8.9115e+000 42537 95259,95112,95060
 3.6000e+000 95213 -4.3530e+001 -3.0560e+002  1.8466e+001 42537 95259,95060,95164
 3.6000e+000 95190 -7.1269e+001 -2.7482e+002 -1.5127e+001 42537 95060,95112,95086
 3.6000e+000 95285 -5.8739e+001 -2.7587e+002  2.9099e+001 42537 95138,95112,95259
 3.6000e+000 95308 -1.3268e+001 -2.8757e+002  4.5027e+001 42537 95138,95259,95164
 3.6000e+000 95816 -1.2003e+002 -3.2711e+002 -2.1579e+001 41969 95493,95597,95519
 3.6000e+000 95793 -1.8249e+002 -3.2334e+002  3.0425e+001 41969 95493,95649,95597
 3.6000e+000 95770 -1.3569e+002 -2.9254e+002  1.4466e+001 41969 95493,95675,95649
 3.6000e+000 95747 -1.6048e+002 -4.1467e+002  2.3136e+001 41969 95597,95649,95623
 3.6000e+000 95724 -1.9396e+002 -3.2673e+002 -2.4398e+001 41969 95519,95597,95571
 3.6000e+000 95701 -1.7405e+002 -3.0440e+002 -8.9069e+001 41969 95519,95571,95545
 3.6000e+000 96371 -1.4168e+002 -3.3199e+002  4.0934e+001 41579 96025,96207,96181
 3.6000e+000 96348  5.1768e+001 -2.4541e+002 -3.0699e+000 41579 95999,96207,96025
 3.6000e+000 96325 -1.6275e+002 -2.6780e+002 -2.9048e+001 41579 96129,96181,96155
 3.6000e+000 96302 -6.1637e+001 -2.3551e+002  2.8991e+000 41579 96025,96181,96129
 3.6000e+000 96279 -1.2802e+002 -3.4434e+002  4.3181e+001 41579 96025,96129,96051
 3.6000e+000 96256 -1.6234e+002 -3.4617e+002  5.5288e+001 41579 96051,96103,96077
 3.6000e+000 96233 -6.1803e+001 -2.6085e+002  7.1078e+000 41579 96051,96129,96103
 3.6000e+000 96877 -4.1087e+001 -2.0607e+002 -2.4307e+001 41182 96972,96900,96632
 3.6000e+000 96854 -3.5461e+001 -1.5332e+002 -2.0315e+001 41182 96900,96554,96736
 3.6000e+000 96831 -4.1919e+001 -2.0767e+002 -2.4737e+001 41182 96972,96632,96580
 3.6000e+000 96808 -5.6949e+001 -2.0918e+002  7.4205e+000 41182 96632,96684,96658
 3.6000e+000 96785 -5.3525e+001 -2.1043e+002  2.1305e+001 41182 96684,96736,96710
 3.6000e+000 96762 -1.2516e+002 -2.7698e+002  3.2210e+001 41182 96580,96632,96606
 3.6000e+000 96926 -2.7521e+001 -2.2338e+002 -1.9607e+001 41182 96684,96632,96900
 3.6000e+000 96949 -3.9701e+001 -2.0108e+002 -3.3541e+001 41182 96684,96900,96736
 3.6000e+000 96998 -3.9280e+001 -2.0381e+002 -1.8405e+001 41182 96554,96900,96972
 3.6000e+000 97021 -4.1793e+001 -2.0950e+002 -1.8926e+001 41182 96554,96972,96580
 3.6000e+000 97576 -1.7537e+002 -5.0208e+002 -8.1226e+001 40678 97230,97412,97282
 3.6000e+000 97553 -7.3487e-001 -4.1015e+002  2.7145e+001 40678 97204,97412,97230
 3.6000e+000 97530 -9.8671e+001 -3.8245e+002 -5.9821e+001 40678 97282,97360,97308
 3.6000e+000 97507 -9.5963e+001 -3.7700e+002 -3.7119e+001 40678 97282,97412,97360
 3.6000e+000 97484 -6.1362e+001 -2.7762e+002 -4.6786e+001 40678 97308,97360,97334
 3.6000e+000 97461 -1.5472e+002 -4.4710e+002 -1.1448e+001 40678 97360,97412,97386
 3.6000e+000 97438 -7.3228e+001 -3.3235e+002 -1.5610e+001 40678 97230,97282,97256
 3.6000e+000 97976 -1.5387e+002 -2.5072e+002 -5.7159e+000 40244 97702,97832,97754
 3.6000e+000 97953 -1.2963e+002 -2.3339e+002 -1.3999e+001 40244 97702,97858,97832
 3.6000e+000 97930 -1.5878e+002 -2.8251e+002 -6.6254e+001 40244 97702,97754,97728
 3.6000e+000 97907 -1.3156e+002 -2.8719e+002  3.1974e+001 40244 97780,97832,97806
 3.6000e+000 97884 -1.4093e+002 -2.4410e+002 -3.2888e+000 40244 97754,97832,97780
 3.6000e+000 98482 -1.0272e+002 -2.6534e+002  3.5402e+001 39690 98505,98185,98159
 3.6000e+000 98459 -9.8459e+001 -2.6277e+002  3.7369e+001 39690 98505,98159,98289
 3.6000e+000 98436 -1.8762e+002 -3.7293e+002  1.2339e+002 39690 98159,98315,98289
 3.6000e+000 98413 -8.8455e+001 -2.4858e+002  4.2138e+001 39690 98211,98289,98263
 3.6000e+000 98390 -5.4892e+001 -1.6289e+002  2.6028e+001 39690 98211,98263,98237
 3.6000e+000 98367 -4.7979e+001 -2.4426e+002  6.5563e+001 39690 98159,98341,98315
 3.6000e+000 98531 -1.1221e+002 -2.6432e+002  3.1122e+001 39690 98211,98185,98505
 3.6000e+000 98554 -1.0350e+002 -2.5594e+002  3.4860e+001 39690 98211,98505,98289
 3.6000e+000 99109 -8.0565e+001 -2.1608e+002 -1.1206e+001 39072 99132,98867,98789
 3.6000e+000 99086 -8.1865e+001 -2.2047e+002 -1.4273e+001 39072 99132,98789,98763
 3.6000e+000 99063 -1.2134e+002 -3.5107e+002  3.9638e+001 39072 98867,98945,98919
 3.6000e+000 99040 -7.1170e+001 -2.2835e+002 -1.3740e+000 39072 98789,98867,98841
 3.6000e+000 99017 -1.6005e+002 -2.5682e+002  1.2700e+001 39072 98867,98919,98893
 3.6000e+000 98994 -1.1847e+002 -2.2192e+002  4.6021e+001 39072 98789,98841,98815
 3.6000e+000 98971 -1.2234e+002 -2.4713e+002 -1.9087e+001 39072 98737,98945,98763
 3.6000e+000 99158 -7.8315e+001 -2.2157e+002 -1.2486e+001 39072 98945,98867,99132
 3.6000e+000 99181 -7.9252e+001 -2.2751e+002 -1.3885e+001 39072 98945,99132,98763
 3.6000e+000 99510 -6.8730e+001 -2.1736e+002  1.4108e+001 38668 99311,99389,99363
 3.6000e+000 99487 -7.3364e+001 -2.2019e+002  1.2543e+001 38668 99285,99389,99311
 3.6000e+000 99464 -1.4430e+002 -2.6439e+002  4.1740e+001 38668 99285,99415,99389
 3.6000e+000 99441 -6.6992e+001 -2.3131e+002  2.1449e+001 38668 99311,99363,99337
 3.6000e+000 99758 -4.4639e+001 -3.1496e+002  5.1873e+001 38164 99781,99611,99585
 3.6000e+000 99735 -4.8728e+001 -3.2577e+002  4.8607e+001 38164 99781,99585,99533
 3.6000e+000 99712 -3.9057e+001 -2.7122e+002  2.9147e+001 38164 99611,99663,99637
 3.6000e+000 99689 -1.3273e+001 -3.3246e+002 -2.0070e+001 38164 99533,99585,99559
 3.6000e+000 99807 -4.4019e+001 -3.2548e+002  5.1200e+001 38164 99663,99611,99781
 3.6000e+000 99830 -4.3253e+001 -3.3097e+002  4.9430e+001 38164 99663,99781,99533
 3.6000e+000 100232 -1.1190e+002 -2.7175e+002  5.1731e+000 37702 99984,100114,100088
 3.6000e+000 100209 -9.1359e+001 -2.9525e+002  3.1489e+001 37702 99958,100114,99984
 3.6000e+000 100186 -1.6370e+002 -3.3448e+002 -2.0161e+001 37702 100010,100088,100036
 3.6000e+000 100163 -1.1420e+002 -2.7328e+002  1.1936e+000 37702 99984,100088,100010
 3.6000e+000 100140 -1.0554e+002 -2.4694e+002 -6.3423e+001 37702 100036,100088,100062
 3.6000e+000 100640 -1.9940e+002 -2.9874e+002  2.9276e+001 37262 100493,100545,100519
 3.6000e+000 100617 -1.8273e+002 -3.3077e+002  1.3849e+001 37262 100441,100545,100493
 3.6000e+000 100594 -9.8955e+001 -2.6144e+002 -4.3224e+001 37262 100415,100545,100441
 3.6000e+000 100571 -2.1470e+002 -3.7795e+002 -1.8202e+001 37262 100441,100493,100467
 3.6000e+000 101146 -1.3910e+002 -2.3741e+002  1.2968e+000 36872 100823,100979,100849
 3.6000e+000 101123 -1.3627e+002 -2.2272e+002 -2.0389e+001 36872 100823,101005,100979
 3.6000e+000 101100 -1.4432e+002 -3.3948e+002  4.7112e+001 36872 101169,100901,100849
 3.6000e+000 101077 -1.1149e+002 -2.7049e+002  2.6688e+001 36872 101169,100849,100979
 3.6000e+000 101054 -7.6399e+001 -2.6670e+002 -1.4888e+001 36872 100927,100979,100953
 3.6000e+000 101031 -8.1269e+001 -3.8901e+002  6.4416e+001 36872 100849,100901,100875
 3.6000e+000 101195 -1.0059e+002 -3.6007e+002  4.0875e+000 36872 100927,100901,101169
 3.6000e+000 101218 -8.0780e+001 -3.2357e+002 -1.2195e+001 36872 100927,101169,100979
 3.6000e+000 101773 -1.8043e+002 -2.6113e+002  4.4088e+001 36418 101479,101609,101583
 3.6000e+000 101750 -1.7539e+002 -2.8969e+002  5.8342e+001 36418 101453,101609,101479
 3.6000e+000 101727 -1.1809e+002 -2.7144e+002 -4.4935e+000 36418 101796,101531,101479
 3.6000e+000 101704 -1.6443e+002 -3.0321e+002  1.8212e+001 36418 101796,101479,101583
 3.6000e+000 101681 -1.0441e+002 -2.4122e+002 -9.7424e+000 36418 101479,101531,101505
 3.6000e+000 101658 -8.3555e+000 -2.7522e+002 -9.4834e+000 36418 101401,101609,101453
 3.6000e+000 101635 -5.5974e+001 -3.2706e+002 -3.0765e+001 36418 101401,101453,101427
 3.6000e+000 101822 -1.2910e+002 -2.4811e+002 -4.8390e+001 36418 101557,101531,101796
 3.6000e+000 101845 -1.8266e+002 -2.5992e+002 -2.8061e+001 36418 101557,101796,101583
 3.6000e+000 102174  5.2745e+001 -1.2712e+002 -4.6337e+001 35914 101949,102053,101975
 3.6000e+000 102151 -1.0120e+002 -1.6817e+002 -1.1900e+001 35914 101949,102079,102053
 3.6000e+000 102128 -6.6903e+001 -1.8390e+002 -7.0257e+000 35914 101975,102053,102027
 3.6000e+000 102105  1.1604e+000 -1.2105e+002 -4.1769e+001 35914 101975,102027,102001
 3.6000e+000 102631 -5.3530e+001 -2.7666e+002  1.0283e+001 35574 102383,102513,102487
 3.6000e+000 102608 -3.8216e+001 -2.9158e+002  7.9486e+000 35574 102357,102513,102383
 3.6000e+000 102585 -7.0697e+001 -2.7060e+002  1.7711e+001 35574 102409,102487,102435
 3.6000e+000 102562 -9.4145e+001 -2.9197e+002  7.9441e+000 35574 102383,102487,102409
 3.6000e+000 102539 -9.7579e+001 -2.9772e+002 -4.5810e+000 35574 102435,102487,102461
 3.6000e+000 103009 -1.5396e+002 -2.7272e+002 -2.2343e+001 35170 102761,102865,102787
 3.6000e+000 102986 -8.3607e+001 -2.3502e+002  2.0806e+001 35170 102761,102891,102865
 3.6000e+000 102963 -1.3556e+002 -2.7203e+002 -7.1482e+000 35170 102787,102865,102813
 3.6000e+000 102940 -6.9442e+001 -2.2321e+002  2.5873e+001 35170 102735,102891,102761
 3.6000e+000 102917 -1.3263e+002 -2.6618e+002 -1.0018e+001 35170 102813,102865,102839
 3.6000e+000 103257 -2.9261e+001 -2.2060e+002 -4.9652e+001 34659 103280,103058,103032
 3.6000e+000 103234 -4.5876e+001 -2.4189e+002 -3.7453e+001 34659 103280,103032,103162
 3.6000e+000 103211 -5.4878e+001 -2.3605e+002 -1.8516e+001 34659 103084,103162,103110
 3.6000e+000 103188 -8.2469e+001 -2.7229e+002  4.5949e+000 34659 103110,103162,103136
 3.6000e+000 103306 -5.3819e+001 -1.9430e+002 -4.0221e+001 34659 103084,103058,103280
 3.6000e+000 103329 -6.7947e+001 -2.1928e+002 -2.6735e+001 34659 103084,103280,103162
 3.6000e+000 103837 -2.9672e+001 -2.9590e+002  1.2287e+001 34247 103860,103566,103540
 3.6000e+000 103814 -3.9851e+001 -2.9549e+002  2.9729e+000 34247 103932,103860,103540
 3.6000e+000 103791 -2.7775e+001 -3.2975e+002 -3.2029e+001 34247 103932,103540,103670
 3.6000e+000 103768 -3.4285e+001 -2.8414e+002  9.6516e-001 34247 103566,103618,103592
 3.6000e+000 103745 -1.1795e+002 -2.7860e+002 -4.2338e+001 34247 103540,103696,103670
 3.6000e+000 103722 -1.5622e+002 -3.0716e+002  4.4370e+001 34247 103514,103696,103540
 3.6000e+000 103886 -6.2425e+001 -2.9485e+002  7.3338e-001 34247 103618,103566,103860
 3.6000e+000 103909 -6.8753e+001 -3.1561e+002  1.2214e+001 34247 103618,103860,103644
 3.6000e+000 103958 -7.1041e+001 -3.7752e+002 -1.3368e+000 34247 103644,103860,103932
 3.6000e+000 103981 -5.8801e+001 -4.0918e+002 -3.8091e+001 34247 103644,103932,103670
 3.6000e+000 104300 -1.4763e+002 -3.0642e+002 -1.3627e+001 33843 104052,104182,104156
 3.6000e+000 104277 -1.8488e+002 -2.8908e+002 -6.4314e+000 33843 104026,104182,104052
 3.6000e+000 104254 -1.4620e+002 -3.5216e+002  7.8693e+000 33843 104078,104156,104130
 3.6000e+000 104231 -1.7963e+002 -3.3546e+002 -6.1900e-001 33843 104052,104156,104078
 3.6000e+000 104208 -2.2002e+002 -3.7448e+002  1.1976e+001 33843 104078,104130,104104
 3.6000e+000 104499 -8.0316e+001 -3.2219e+002 -3.1173e+001 33282 104594,104522,104375
 3.6000e+000 104476 -4.5874e+001 -3.2172e+002  1.2949e+001 33282 104522,104323,104427
 3.6000e+000 104453 -5.9347e+001 -3.4009e+002 -2.7840e+001 33282 104594,104375,104349
 3.6000e+000 104548 -1.0206e+002 -2.6575e+002 -8.0252e-001 33282 104401,104375,104522
 3.6000e+000 104571 -3.5847e+001 -2.5586e+002  4.7301e+001 33282 104401,104522,104427
 3.6000e+000 104620 -5.8749e+001 -2.8689e+002 -2.0349e+001 33282 104323,104522,104594
 3.6000e+000 104643 -4.6665e+001 -3.1438e+002 -2.0757e+001 33282 104323,104594,104349
 3.6000e+000 104942 -1.4377e+002 -3.5839e+002  4.2434e+001 32728 104694,104772,104720
 3.6000e+000 104919 -1.0607e+002 -3.2712e+002  1.7332e+001 32728 104694,104824,104772
 3.6000e+000 104896 -1.8325e+002 -3.2543e+002  4.6970e+001 32728 104720,104772,104746
 3.6000e+000 104873 -8.2685e+001 -3.6504e+002  1.9274e+001 32728 104772,104824,104798
 3.6000e+000 104850 -8.2956e+001 -3.1796e+002  2.0135e+001 32728 104668,104824,104694
 3.6000e+000 105373 -1.1714e+002 -3.5916e+002 -1.5540e+001 32274 105396,105102,105076
 3.6000e+000 105350 -1.3055e+002 -3.9494e+002 -4.3973e+000 32274 105396,105076,105206
 3.6000e+000 105327 -1.6651e+002 -3.9693e+002  2.3358e+001 32274 105154,105206,105180
 3.6000e+000 105304 -4.8822e+001 -3.7433e+002 -3.3402e+001 32274 105076,105232,105206
 3.6000e+000 105281 -1.4809e+002 -3.2478e+002 -5.7620e+001 32274 105102,105154,105128
 3.6000e+000 105258 -2.0940e+002 -3.1812e+002 -6.8890e+001 32274 105050,105232,105076
 3.6000e+000 105422 -1.3966e+002 -3.2008e+002 -1.4388e+001 32274 105154,105102,105396
 3.6000e+000 105445 -1.5152e+002 -3.5606e+002 -5.6965e+000 32274 105154,105396,105206
 3.6000e+000 105644 -1.2192e+002 -3.3788e+002 -1.5850e+000 31620 105468,105546,105520
 3.6000e+000 105621 -9.9264e+001 -3.5958e+002 -1.2672e+001 31620 105468,105572,105546
 3.6000e+000 105598 -1.2219e+002 -3.6762e+002  2.3181e+001 31620 105468,105520,105494
 3.6000e+000 105794 -5.1173e+001 -3.2059e+002 -1.0450e+001 31158 105889,105817,105693
 3.6000e+000 105771 -7.4025e+001 -2.8430e+002 -2.0314e+001 31158 105817,105667,105745
 3.6000e+000 105843 -6.3245e+001 -3.9496e+002 -4.5530e+000 31158 105719,105693,105817
 3.6000e+000 105866 -4.4809e+001 -3.3675e+002 -1.8124e+001 31158 105719,105817,105745
 3.6000e+000 105915 -1.0154e+002 -3.4218e+002 -1.1038e+001 31158 105667,105817,105889
 3.6000e+000 106270 -1.3460e+002 -3.1305e+002 -6.2601e+000 30818 106293,106071,106045
 3.6000e+000 106247 -1.5862e+002 -3.6748e+002 -2.1771e+001 30818 106293,106045,106175
 3.6000e+000 106224 -1.1329e+002 -2.8562e+002  1.7460e+001 30818 106123,106175,106149
 3.6000e+000 106201 -1.4951e+002 -3.1110e+002  2.5652e+001 30818 106071,106123,106097
 3.6000e+000 106319 -1.4000e+002 -2.9181e+002  1.4507e+001 30818 106123,106071,106293
 3.6000e+000 106342 -1.4485e+002 -3.2041e+002  1.4131e+000 30818 106123,106293,106175
 3.6000e+000 106492 -1.2754e+002 -2.9966e+002  6.1301e+001 30414 106645,106391,106365
 3.6000e+000 106469 -6.7840e+001 -2.9894e+002  8.7923e+001 30414 106515,106365,106443
 3.6000e+000 106541 -8.9341e+001 -3.0720e+002  6.6330e+001 30414 106645,106365,106515
 3.6000e+000 106671 -7.1930e+001 -3.5083e+002  1.0514e+002 30414 106417,106391,106645
 3.6000e+000 106694  1.9173e+001 -3.2441e+002  9.0753e+001 30414 106417,106645,106515
 3.6000e+000 106942 -6.3322e+001 -4.3043e+002 -1.2132e+000 29910 106965,106795,106769
 3.6000e+000 106919 -5.4613e+001 -3.8698e+002  1.1429e+001 29910 106965,106769,106717
 3.6000e+000 106896 -5.6714e+001 -3.2410e+002 -4.4422e+001 29910 106795,106847,106821
 3.6000e+000 106873 -3.0831e+001 -3.3708e+002  2.0116e+001 29910 106717,106769,106743
 3.6000e+000 106991 -8.7635e+001 -3.8372e+002  4.9135e+000 29910 106847,106795,106965
 3.6000e+000 107014 -6.9298e+001 -3.2606e+002  1.7025e+001 29910 106847,106965,106717
 3.6000e+000 107213 -1.0036e+002 -3.2765e+002  1.2640e+001 29413 107236,107063,107037
 3.6000e+000 107190 -7.8720e+001 -3.9098e+002  3.5618e+001 29413 107236,107037,107141
 3.6000e+000 107167 -1.1473e+002 -2.3895e+002  4.9832e+001 29413 107063,107115,107089
 3.6000e+000 107262 -8.7654e+001 -2.8997e+002  1.3418e+001 29413 107115,107063,107236
 3.6000e+000 107285 -5.6380e+001 -3.3604e+002  3.9480e+001 29413 107115,107236,107141
 3.6000e+000 107486 -4.2198e+001 -3.0980e+002  3.6317e+001 29009 107336,107388,107362
 3.6000e+000 107463 -2.3676e+001 -3.0000e+002  1.2619e+001 29009 107310,107388,107336
 3.6000e+000 107440 -2.4697e+001 -2.7746e+002  1.0696e+001 29009 107310,107414,107388
 3.6000e+000 107736 -1.3769e+002 -3.5930e+002 -1.5315e+001 28491 107537,107615,107563
 3.6000e+000 107713 -1.2308e+002 -3.5173e+002 -9.1010e+000 28491 107537,107641,107615
 3.6000e+000 107690 -7.6606e+001 -3.4071e+002  5.1516e+000 28491 107563,107615,107589
 3.6000e+000 107667 -1.3217e+002 -3.5409e+002 -1.1700e+001 28491 107511,107641,107537
 3.6000e+000 108118 -8.1410e+001 -3.4029e+002  1.0717e+001 27980 108141,107922,107844
 3.6000e+000 108095 -6.4479e+001 -3.7483e+002  1.0503e+001 27980 108141,107844,108000
 3.6000e+000 108072 -7.9930e+001 -3.3946e+002 -4.2509e+000 27980 107844,107922,107870
 3.6000e+000 108049 -6.7440e+001 -3.0974e+002 -8.4732e+000 27980 107870,107922,107896
 3.6000e+000 108026 -1.1887e+002 -3.0894e+002  3.9912e+001 27980 107922,107974,107948
 3.6000e+000 108167 -7.0929e+001 -3.3551e+002  1.5527e+001 27980 107974,107922,108141
 3.6000e+000 108190 -2.3815e+001 -3.4015e+002  2.5713e+001 27980 107974,108141,108000
 3.6000e+000 108745 -4.5185e+001 -2.2952e+002 -4.5337e+000 27376 108840,108768,108477
 3.6000e+000 108722 -7.5526e+001 -2.7892e+002 -5.2228e+001 27376 108768,108373,108581
 3.6000e+000 108699 -6.9643e+001 -2.0036e+002  4.0557e+001 27376 108840,108477,108451
 3.6000e+000 108676 -1.6416e+002 -2.4006e+002 -1.0414e+001 27376 108373,108451,108399
 3.6000e+000 108653 -7.1910e+001 -2.8385e+002  3.4341e+001 27376 108503,108581,108529
 3.6000e+000 108630 -7.8397e+001 -2.7468e+002  3.5063e+001 27376 108529,108581,108555
 3.6000e+000 108607 -1.8611e+002 -2.5961e+002  1.8992e+001 27376 108399,108451,108425
 3.6000e+000 108794 -7.0504e+001 -3.0558e+002  6.2026e-001 27376 108503,108477,108768
 3.6000e+000 108817 -2.3104e+001 -2.7915e+002 -1.0592e+001 27376 108503,108768,108581
 3.6000e+000 108866 -1.3695e+002 -2.8226e+002 -2.5858e+001 27376 108373,108768,108840
 3.6000e+000 108889 -1.3243e+002 -2.4393e+002  2.1370e+001 27376 108373,108840,108451
 3.6000e+000 109186 -1.3292e+002 -3.5283e+002  3.6546e+001 26722 109209,108938,108912
 3.6000e+000 109163 -1.2365e+002 -3.3060e+002  3.4761e+001 26722 109281,109209,108912
 3.6000e+000 109140 -1.1800e+002 -3.2187e+002  3.2323e+001 26722 109281,108912,109042
 3.6000e+000 109117 -1.1207e+002 -3.7845e+002  1.6261e+001 26722 108938,108990,108964
 3.6000e+000 109094 -1.6807e+002 -2.9251e+002  2.1195e+001 26722 108912,109068,109042
 3.6000e+000 109235 -1.1368e+002 -3.4098e+002  3.0924e+001 26722 108990,108938,109209
 3.6000e+000 109258 -1.1957e+002 -3.6660e+002  2.8631e+001 26722 108990,109209,109016
 3.6000e+000 109307 -1.0739e+002 -3.4453e+002  1.7427e+001 26722 109016,109209,109281
 3.6000e+000 109330 -9.7360e+001 -3.2898e+002  1.3047e+001 26722 109016,109281,109042
 3.6000e+000 109732 -1.3507e+002 -2.8267e+002 -5.8679e+000 26310 109458,109588,109484
 3.6000e+000 109709 -1.2867e+002 -3.2653e+002 -3.3943e+001 26310 109458,109614,109588
 3.6000e+000 109686 -1.9550e+002 -3.3352e+002  4.9321e+001 26310 109510,109562,109536
 3.6000e+000 109663 -1.9219e+002 -3.1326e+002  1.9174e+001 26310 109484,109562,109510
 3.6000e+000 109640 -1.4006e+002 -2.8724e+002 -1.2913e+000 26310 109484,109588,109562
 3.6000e+000 110159 -9.2193e+001 -2.9717e+002 -1.0293e+001 25642 110182,109940,109914
 3.6000e+000 110136 -8.5822e+001 -3.4451e+002  3.8150e+001 25642 110182,109914,109888
 3.6000e+000 110113 -1.0972e+002 -3.6930e+002 -4.8647e+001 25642 109966,110018,109992
 3.6000e+000 110090 -1.2118e+002 -3.5597e+002  2.6132e+001 25642 110254,109966,109940
 3.6000e+000 110067 -1.6246e+002 -3.3924e+002  1.7555e+001 25642 109862,110018,109888
 3.6000e+000 110044 -1.5665e+002 -2.8814e+002  4.2998e+001 25642 109836,110018,109862
 3.6000e+000 110208 -1.2122e+002 -3.2434e+002  1.9138e+001 25642 110254,109940,110182
 3.6000e+000 110231 -1.3276e+002 -3.4710e+002  4.2609e+001 25642 110018,110182,109888
 3.6000e+000 110280 -1.0806e+002 -3.9511e+002  1.9982e+001 25642 110018,109966,110254
 3.6000e+000 110303 -1.1461e+002 -3.7138e+002  1.3936e+001 25642 110018,110254,110182
 3.6000e+000 110632 -1.4407e+002 -2.9977e+002 -1.7403e+001 25188 110407,110485,110433
 3.6000e+000 110609 -1.7606e+002 -3.0172e+002 -8.7866e+000 25188 110407,110537,110485
 3.6000e+000 110586 -1.6968e+002 -3.1400e+002 -5.9082e+001 25188 110433,110485,110459
 3.6000e+000 110563 -1.6080e+002 -3.1248e+002  3.5342e+001 25188 110485,110537,110511
 3.6000e+000 110831 -3.5164e+001 -2.9459e+002  8.2412e+000 24726 110854,110707,110655
 3.6000e+000 110808 -1.8063e+001 -3.1964e+002  3.3821e+001 24726 110854,110655,110759
 3.6000e+000 110785 -4.7741e+001 -3.0451e+002  1.5941e+001 24726 110655,110707,110681
 3.6000e+000 110880 -2.2100e+001 -2.7070e+002  1.3327e+001 24726 110733,110707,110854
 3.6000e+000 110903  8.5758e-001 -2.8344e+002  4.0756e+001 24726 110733,110854,110759
 3.6000e+000 111234 -9.1025e+000 -2.0719e+002 -6.4633e+000 24222 111257,111087,111035
 3.6000e+000 111211  2.2827e+001 -1.9273e+002  2.1580e+001 24222 111257,111035,111009
 3.6000e+000 111188 -3.3089e+001 -1.0943e+002 -4.7061e+001 24222 111035,111087,111061
 3.6000e+000 111165 -3.0970e+001 -1.6632e+002  4.4297e+000 24222 111087,111139,111113
 3.6000e+000 111283 -2.9348e+001 -1.7305e+002  8.4636e+000 24222 111139,111087,111257
 3.6000e+000 111306 -1.5414e+001 -1.4864e+002  2.6507e+001 24222 111139,111257,111009
 3.6000e+000 111625 -5.2705e+001 -3.0547e+002 -1.8733e+001 23732 111648,111481,111455
 3.6000e+000 111602 -5.3643e+001 -3.0819e+002 -1.8467e+001 23732 111648,111455,111377
 3.6000e+000 111579  2.7838e+001 -1.6728e+002  3.1262e+001 23732 111377,111429,111403
 3.6000e+000 111556 -2.8929e+001 -3.1340e+002 -6.9045e+000 23732 111377,111455,111429
 3.6000e+000 111533 -4.6547e+001 -2.7226e+002 -8.0910e+000 23732 111351,111507,111377
 3.6000e+000 111674 -5.3414e+001 -3.0091e+002 -1.5591e+001 23732 111507,111481,111648
 3.6000e+000 111697 -5.5815e+001 -3.0652e+002 -1.5492e+001 23732 111507,111648,111377
 3.6000e+000 112156 -8.3546e+001 -3.4542e+002  2.4201e+001 23278 112179,111908,111882
 3.6000e+000 112133 -7.8365e+001 -3.2054e+002  1.3015e+001 23278 112179,111882,112012
 3.6000e+000 112110 -2.9869e+001 -3.7442e+002  1.1084e+000 23278 111908,111960,111934
 3.6000e+000 112087 -3.3322e+001 -2.8044e+002 -5.2949e+000 23278 111882,112038,112012
 3.6000e+000 112064 -6.9763e+001 -2.8946e+002 -4.4935e+000 23278 111960,112012,111986
 3.6000e+000 112205 -7.9811e+001 -3.3351e+002  3.6583e+000 23278 111960,111908,112179
 3.6000e+000 112228 -6.7628e+001 -3.0556e+002 -9.1151e+000 23278 111960,112179,112012
 3.6000e+000 112685 -2.2427e+002 -4.9023e+002 -4.8276e+001 22938 112489,112567,112541
 3.6000e+000 112662 -1.9502e+002 -4.2539e+002 -4.1928e+001 22938 112437,112567,112489
 3.6000e+000 112639 -1.3007e+002 -3.6486e+002 -5.5889e+000 22938 112489,112541,112515
 3.6000e+000 112616 -2.2230e+002 -4.0986e+002 -3.8295e+001 22938 112411,112567,112437
 3.6000e+000 112593 -1.7087e+002 -5.2566e+002 -1.4137e+001 22938 112437,112489,112463
 3.6000e+000 113191 -1.5222e+001 -3.3768e+002 -4.1526e+001 22534 113214,112998,112946
 3.6000e+000 113168 -6.3246e+001 -3.0172e+002 -2.1463e+001 22534 113286,113214,112946
 3.6000e+000 113145 -4.6248e+001 -3.0259e+002 -1.7360e+001 22534 113286,112946,112920
 3.6000e+000 113122 -1.3673e+002 -2.7546e+002 -5.8504e+001 22534 113358,113024,112998
 3.6000e+000 113099 -8.2434e+001 -2.8994e+002 -1.0045e+001 22534 112868,113050,112894
 3.6000e+000 113076 -1.0054e+002 -5.0723e+002 -8.2800e+001 22534 112946,112998,112972
 3.6000e+000 113240 -1.0081e+002 -3.4748e+002 -6.2268e+001 22534 113358,112998,113214
 3.6000e+000 113263 -8.1061e+001 -3.1550e+002 -1.3367e+001 22534 113050,113214,112894
 3.6000e+000 113312 -4.1406e+001 -2.9814e+002 -1.6473e+001 22534 112894,113214,113286
 3.6000e+000 113335 -2.3695e+001 -3.0017e+002 -1.5441e+001 22534 112894,113286,112920
 3.6000e+000 113384 -9.6736e+001 -2.1046e+002 -4.1597e+001 22534 113050,113024,113358
 3.6000e+000 113407 -4.4876e+001 -2.6964e+002 -3.7619e+001 22534 113050,113358,113214
 3.6000e+000 113785 -1.6214e+002 -4.1104e+002  8.0346e+000 21978 113808,113615,113511
 3.6000e+000 113762 -1.3201e+002 -4.1690e+002  2.7498e+001 21978 113808,113511,113667
 3.6000e+000 113739 -1.0201e+002 -3.5339e+002 -1.6503e+001 21978 113511,113615,113537
 3.6000e+000 113716  3.4055e+001 -3.1417e+002 -3.2975e+001 21978 113537,113615,113589
 3.6000e+000 113693 -4.6007e+001 -4.5033e+002  5.9259e+000 21978 113537,113589,113563
 3.6000e+000 113834 -1.6682e+002 -4.0988e+002  4.5426e+001 21978 113641,113615,113808
 3.6000e+000 113857 -8.8440e+001 -3.7987e+002  6.8543e+001 21978 113641,113808,113667
 3.6000e+000 114284 -1.2072e+002 -3.4223e+002  6.5143e+000 21517 114013,114117,114039
 3.6000e+000 114261 -1.3466e+002 -3.4032e+002  2.5498e+001 21517 113961,114117,114013
 3.6000e+000 114238 -1.3307e+002 -3.4912e+002  2.4819e+001 21517 113961,114013,113987
 3.6000e+000 114215 -1.9123e+002 -3.8919e+002 -2.7278e+001 21517 114039,114117,114091
 3.6000e+000 114192 -1.3705e+002 -2.9168e+002  3.0743e+001 21517 113961,114143,114117
 3.6000e+000 114169 -3.1413e+001 -3.3412e+002 -3.0371e+001 21517 114039,114091,114065
 3.6000e+000 114581 -7.3660e+001 -4.1014e+002  5.1113e+000 21027 114359,114463,114437
 3.6000e+000 114558 -4.1415e+001 -3.7183e+002  4.8701e+001 21027 114333,114463,114359
 3.6000e+000 114535 -3.3792e+001 -3.7553e+002 -9.8527e+000 21027 114359,114437,114385
 3.6000e+000 114512 -2.7114e+001 -3.6903e+002  3.8506e+001 21027 114307,114463,114333
 3.6000e+000 114489  4.9634e+001 -3.5095e+002 -1.6687e+001 21027 114385,114437,114411
 3.6000e+000 114912 -1.6019e+002 -3.5075e+002  3.9240e+000 20623 114713,114791,114765
 3.6000e+000 114889 -1.1207e+002 -3.3105e+002 -2.5516e+001 20623 114687,114791,114713
 3.6000e+000 114866 -8.0445e+001 -3.6909e+002 -2.7911e+001 20623 114687,114817,114791
 3.6000e+000 114843 -2.3228e+002 -4.2452e+002  3.4614e+001 20623 114713,114765,114739
 3.6000e+000 115290 -4.5948e+001 -3.1307e+002  1.6239e+001 20375 115313,115146,115094
 3.6000e+000 115267 -7.1328e+001 -2.9954e+002  3.0033e+001 20375 115313,115094,115042
 3.6000e+000 115244 -9.1438e+001 -2.8861e+002  9.6203e+000 20375 115385,115016,115172
 3.6000e+000 115221 -3.0605e+001 -2.8087e+002  2.5070e+001 20375 115042,115094,115068
 3.6000e+000 115198 -6.8507e+001 -3.7235e+002  2.0350e+001 20375 115094,115146,115120
 3.6000e+000 115339 -9.7991e+001 -3.6607e+002 -1.0313e+001 20375 115172,115146,115313
 3.6000e+000 115362 -5.6752e+001 -2.9734e+002  1.1492e+001 20375 115385,115172,115313
 3.6000e+000 115411 -1.1100e+002 -2.9862e+002  1.3108e+001 20375 115042,115016,115385
 3.6000e+000 115434 -9.4145e+001 -3.1911e+002  2.0451e+001 20375 115042,115385,115313
 3.6000e+000 115891 -1.6088e+002 -3.1706e+002  3.8717e+001 19971 115617,115747,115643
 3.6000e+000 115868 -1.3763e+002 -2.5991e+002  3.5855e+001 19971 115617,115773,115747
 3.6000e+000 115845 -1.0086e+002 -4.7627e+002  5.7061e+000 19971 115643,115721,115695
 3.6000e+000 115822 -3.4959e+000 -2.3830e+002 -2.3567e+000 19971 115643,115747,115721
 3.6000e+000 115799 -8.5771e+001 -5.8725e+002 -4.8235e+001 19971 115643,115695,115669
 3.6000e+000 115992 -2.4048e+002 -6.1630e+002 -1.0398e+002 19659 115914,115966,115940
 3.6000e+000 116142 -3.3632e+001 -1.3413e+002  3.3462e+000 18997 116041,116093,116067
 3.6000e+000 116119 -7.0487e+001 -2.2880e+002  1.3326e+001 18997 116015,116093,116041
 3.6000e+000 116343 -6.1153e+001 -3.5772e+002 -1.0675e+001 18707 116193,116245,116219
 3.6000e+000 116320 -1.3764e+002 -3.9029e+002 -1.6091e+001 18707 116193,116271,116245
 3.6000e+000 116297 -1.2410e+002 -3.4790e+002 -2.5142e+001 18707 116167,116271,116193
 3.6000e+000 116747 -6.0862e+001 -3.2766e+002 -5.8124e+000 18301 116525,116629,116551
 3.6000e+000 116724 -3.6988e+001 -2.7855e+002  7.7444e+000 18301 116473,116629,116525
 3.6000e+000 116701 -2.6380e+001 -2.7180e+002 -1.3805e+001 18301 116473,116525,116499
 3.6000e+000 116678 -5.1570e+001 -3.4054e+002 -4.3035e+000 18301 116551,116603,116577
 3.6000e+000 116655 -7.1341e+001 -3.5228e+002 -9.7759e+000 18301 116551,116629,116603
 3.6000e+000 117147 -1.7239e+002 -3.8972e+002 -1.2776e+000 17747 116899,117029,116925
 3.6000e+000 117124 -9.3833e+001 -2.8727e+002  3.8427e+001 17747 116873,117029,116899
 3.6000e+000 117101 -1.7116e+002 -3.8802e+002 -7.3316e-001 17747 116925,117029,116951
 3.6000e+000 117078 -1.5086e+002 -3.3835e+002 -1.4579e+000 17747 116951,117029,117003
 3.6000e+000 117055 -1.9813e+002 -4.3746e+002 -2.7436e+001 17747 116951,117003,116977
 3.6000e+000 117368  2.2527e+001 -3.5899e+002  8.0002e+000 17293 117244,117296,117270
 3.6000e+000 117345 -2.4073e+001 -3.7178e+002 -4.9635e+000 17293 117192,117296,117244
 3.6000e+000 117322 -6.1487e+001 -3.4923e+002 -4.1321e+000 17293 117192,117244,117218
 3.6000e+000 117699 -3.2280e+001 -2.8865e+002 -3.5021e+001 16896 117526,117604,117552
 3.6000e+000 117676 -1.9099e+002 -4.4361e+002  2.7730e+001 16896 117500,117604,117526
 3.6000e+000 117653 -2.0233e+002 -3.5174e+002 -1.7817e+001 16896 117552,117604,117578
 3.6000e+000 117630 -1.7520e+002 -5.7359e+002  4.7712e+001 16896 117474,117604,117500
 3.6000e+000 117849 -4.1107e+002 -7.8838e+002 -3.0116e+001 16534 117722,117774,117748
 3.6000e+000 117826 -3.2480e+002 -9.6001e+002 -1.2941e+002 16534 117722,117800,117774
 3.6000e+000 118070 -6.1609e+000 -3.7212e+002  4.7004e+001 16194 117946,117998,117972
 3.6000e+000 118047 -6.4781e+001 -4.2075e+002  1.9144e+001 16194 117894,117998,117946
 3.6000e+000 118024 -2.1433e+002 -4.2943e+002 -6.4238e-001 16194 117894,117946,117920
 3.6000e+000 118173 -3.8925e+001 -3.7025e+002  0.0000e+000 15968 118095,118147,118121
 3.6000e+000 118276 -1.1434e+002 -3.9083e+002  1.1503e+000 15433 118299,118198,118250
 3.6000e+000 118325 -1.1522e+002 -3.9288e+002  1.1704e+000 15433 118224,118198,118299
 3.6000e+000 118450 -1.9287e+002 -4.2568e+002  4.1192e+001 421 118372,118424,118398
 3.7000e+000 69891 -8.1934e+001 -4.7154e+002  1.6812e+001 68988 69447,69681,69629
 3.7000e+000 69868  3.3890e+001 -4.2230e+002  1.3562e+001 68988 69421,69681,69447
 3.7000e+000 69845  3.7510e-001 -2.3558e+002  6.3348e-001 68988 69447,69629,69577
 3.7000e+000 69822 -1.3658e+002 -4.9217e+002 -5.5184e+001 68988 69447,69577,69473
 3.7000e+000 69799 -2.0856e+001 -5.6174e+002  9.0563e+001 68988 69629,69681,69655
 3.7000e+000 69776 -1.4657e+002 -2.9922e+002  6.9236e+000 68988 69577,69629,69603
 3.7000e+000 69753 -1.0797e+002 -4.3791e+002 -6.6442e+001 68988 69473,69577,69551
 3.7000e+000 69730 -1.6203e+002 -8.7577e+002 -8.8168e+001 68988 69473,69551,69525
 3.7000e+000 69707 -2.7064e+002 -5.8010e+002  8.0560e-001 68988 69473,69525,69499
 3.7000e+000 69992 -2.7060e+002 -5.0938e+002 -7.1607e+001 68676 69914,69966,69940
 3.7000e+000 70392 -1.8612e+002 -3.9225e+002  2.9388e+001 68478 70118,70248,70144
 3.7000e+000 70369  1.1106e+001 -3.9635e+002  8.5135e+001 68478 70118,70274,70248
 3.7000e+000 70346 -1.1325e+002 -2.9671e+002 -1.9581e+000 68478 70144,70222,70196
 3.7000e+000 70323 -9.4853e+001 -2.4911e+002 -1.2948e+001 68478 70144,70248,70222
 3.7000e+000 70300 -1.2406e+002 -3.2737e+002 -7.3584e+000 68478 70144,70196,70170
 3.7000e+000 70841  6.9120e+001 -2.6268e+002 -7.3760e+001 68280 70570,70622,70596
 3.7000e+000 70818 -1.3017e+002 -3.0035e+002 -1.7710e+001 68280 70544,70622,70570
 3.7000e+000 70795 -9.5061e+001 -2.2135e+002 -1.0736e+001 68280 70544,70674,70622
 3.7000e+000 70772 -8.2920e+001 -1.9681e+002  3.4348e+000 68280 70622,70674,70648
 3.7000e+000 70749 -1.3766e+002 -3.3494e+002  2.4800e+001 68280 70518,70674,70544
 3.7000e+000 70726  1.1562e+002 -3.4779e+002  9.8772e+001 68280 70518,70700,70674
 3.7000e+000 70991 -1.6066e+001 -1.3976e+003  4.1668e+001 67968 70864,70916,70890
 3.7000e+000 70968 -3.7087e+002 -1.3875e+003  1.6101e+002 67968 70864,70942,70916
 3.7000e+000 71141 -6.5828e+002 -1.2595e+003 -6.0995e+001 67770 71040,71092,71066
 3.7000e+000 71118 -5.7834e+002 -1.5158e+003  6.6131e+001 67770 71014,71092,71040
 3.7000e+000 71651 -8.7019e+001 -2.6687e+002 -4.7637e+001 67366 71746,71674,71458
 3.7000e+000 71628 -5.4294e+001 -2.1729e+002 -5.1197e+001 67366 71674,71354,71510
 3.7000e+000 71605 -7.7788e+001 -2.9434e+002 -4.4840e+001 67366 71746,71458,71432
 3.7000e+000 71582 -1.2465e+002 -3.0233e+002  1.1398e+001 67366 71354,71432,71380
 3.7000e+000 71559 -1.3722e+002 -2.1274e+002 -3.1701e+001 67366 71380,71432,71406
 3.7000e+000 71536 -6.0263e+001 -8.7553e+001 -6.5738e+000 67366 71328,71510,71354
 3.7000e+000 71700 -9.8565e+001 -2.4255e+002 -2.1787e+001 67366 71484,71458,71674
 3.7000e+000 71723 -6.4553e+001 -2.2725e+002 -1.8283e+001 67366 71484,71674,71510
 3.7000e+000 71772 -7.5959e+001 -2.3437e+002 -4.1959e+001 67366 71354,71674,71746
 3.7000e+000 71795 -6.5776e+001 -2.5878e+002 -4.2463e+001 67366 71354,71746,71432
 3.7000e+000 71896 -2.6887e+002 -5.7301e+002  0.0000e+000 67146 71818,71870,71844
 3.7000e+000 71997 -3.4567e+002 -4.6936e+002  9.3365e+001 66948 71919,71971,71945
 3.7000e+000 72149 -1.0130e+001 -3.4287e+002 -4.0307e+001 66700 72172,72074,72048
 3.7000e+000 72126 -1.1264e+002 -3.8564e+002 -1.5740e+001 66700 72172,72048,72022
 3.7000e+000 72198 -1.8415e+002 -4.2593e+002  2.8659e+001 66700 72244,72172,72100
 3.7000e+000 72221 -1.6407e+002 -3.8900e+002 -2.4053e+001 66700 72100,72172,72022
 3.7000e+000 72270 -9.2248e+001 -2.2502e+002 -2.7089e+001 66700 72074,72172,72244
 3.7000e+000 72623 -1.1841e+002 -3.5419e+002  9.4522e+000 66502 72424,72502,72450
 3.7000e+000 72600 -9.7691e+001 -2.9657e+002  5.5401e+000 66502 72398,72502,72424
 3.7000e+000 72577 -7.2165e+001 -3.3711e+002 -6.6302e+000 66502 72398,72528,72502
 3.7000e+000 72554 -1.1606e+002 -3.1472e+002 -2.4464e+000 66502 72450,72502,72476
 3.7000e+000 72920 -1.9958e+002 -4.1209e+002  1.0110e+001 65941 72672,72776,72750
 3.7000e+000 72897 -2.0021e+002 -3.5566e+002  3.8927e+001 65941 72646,72776,72672
 3.7000e+000 72874 -1.7524e+002 -4.0518e+002  1.3157e+001 65941 72672,72750,72724
 3.7000e+000 72851 -1.7742e+002 -3.2074e+002  3.0433e+001 65941 72672,72724,72698
 3.7000e+000 72828 -1.5470e+002 -3.6017e+002  3.7970e+001 65941 72646,72802,72776
 3.7000e+000 73241 -3.1714e+001 -2.9777e+002  2.4731e+001 65743 73264,73071,73045
 3.7000e+000 73218 -1.1419e+002 -3.3343e+002  3.1578e+001 65743 73480,73264,73045
 3.7000e+000 73195 -9.7847e+001 -3.0490e+002 -4.2921e+000 65743 73336,72967,73097
 3.7000e+000 73172 -1.7730e+002 -2.7811e+002 -3.3422e+001 65743 73408,72993,72967
 3.7000e+000 73149 -8.6111e+001 -3.0471e+002 -4.2345e+000 65743 72967,73123,73097
 3.7000e+000 73290 -6.7781e+001 -3.1567e+002  5.9896e+000 65743 73097,73071,73264
 3.7000e+000 73313 -8.0933e+001 -2.8757e+002  1.4050e+001 65743 73336,73097,73264
 3.7000e+000 73362 -1.5135e+002 -3.1362e+002 -2.2899e+001 65743 73408,72967,73336
 3.7000e+000 73385 -6.9548e+001 -2.8555e+002 -1.0455e+000 65743 73019,73336,73264
 3.7000e+000 73434 -1.3415e+002 -2.1479e+002  1.5801e+001 65743 73019,72993,73408
 3.7000e+000 73457 -7.2269e+001 -2.6040e+002  1.0120e+001 65743 73019,73408,73336
 3.7000e+000 73506 -4.5001e+001 -2.1306e+002  3.5817e+000 65743 73019,73264,73480
 3.7000e+000 73989 -1.0256e+001 -2.3462e+002  2.8644e+001 65453 73793,73845,73819
 3.7000e+000 73966 -1.2305e+002 -2.6424e+002  3.3171e+001 65453 73741,73845,73793
 3.7000e+000 73943 -2.8941e+001 -2.1216e+002  1.2845e+001 65453 73715,73845,73741
 3.7000e+000 73920 -9.6687e+001 -2.7969e+002  5.4621e+001 65453 73741,73793,73767
 3.7000e+000 73897  7.3007e+000 -1.3436e+002  2.4593e+000 65453 73715,73871,73845
 3.7000e+000 74357 -7.4353e+001 -3.1181e+002 -8.4893e+001 65141 74380,74138,74086
 3.7000e+000 74334 -1.3671e+002 -4.1627e+002 -5.7690e+001 65141 74380,74086,74060
 3.7000e+000 74311 -1.5483e+002 -4.0461e+002 -1.5048e+001 65141 74138,74190,74164
 3.7000e+000 74288 -1.1460e+002 -4.5187e+002 -1.8318e+001 65141 74060,74216,74190
 3.7000e+000 74265 -1.2160e+002 -4.7569e+002  7.1583e+000 65141 74034,74216,74060
 3.7000e+000 74242 -1.0081e+002 -2.5592e+002 -5.9278e+001 65141 74086,74138,74112
 3.7000e+000 74406 -1.1260e+002 -4.0468e+002 -3.4380e+001 65141 74190,74138,74380
 3.7000e+000 74429 -1.3193e+002 -4.4072e+002 -1.6656e+001 65141 74190,74380,74060
 3.7000e+000 74937 -1.5341e+002 -3.1189e+002 -8.1030e+001 64737 74614,74666,74640
 3.7000e+000 74914 -1.8829e+002 -3.8677e+002 -6.0015e+001 64737 74614,74796,74666
 3.7000e+000 74891 -1.3665e+002 -2.7242e+002 -1.2418e+001 64737 74960,74718,74666
 3.7000e+000 74868 -1.1852e+002 -2.9805e+002 -3.7287e+001 64737 74960,74666,74770
 3.7000e+000 74845 -1.2085e+002 -2.3656e+002 -3.9118e+001 64737 74666,74796,74770
 3.7000e+000 74822 -1.3584e+002 -2.9553e+002  1.9349e+000 64737 74666,74718,74692
 3.7000e+000 74986 -1.4762e+002 -2.9874e+002 -1.0779e+001 64737 74744,74718,74960
 3.7000e+000 75009 -1.3538e+002 -3.3719e+002 -3.6072e+001 64737 74744,74960,74770
 3.7000e+000 75306 -5.1798e+001 -2.7712e+002  3.7880e+001 64133 75329,75110,75084
 3.7000e+000 75283 -8.2021e+001 -3.1917e+002  1.5397e+001 64133 75401,75329,75084
 3.7000e+000 75260 -8.0808e+001 -3.2913e+002  1.7348e+001 64133 75401,75084,75058
 3.7000e+000 75237 -7.0517e+001 -3.6410e+002  3.4827e+001 64133 75473,75136,75110
 3.7000e+000 75214 -8.9530e+001 -2.9185e+002  4.9269e+000 64133 75032,75188,75162
 3.7000e+000 75355 -7.9847e+001 -3.4482e+002  2.7923e+001 64133 75473,75110,75329
 3.7000e+000 75378 -6.7380e+001 -3.0274e+002  4.0972e+000 64133 75162,75329,75032
 3.7000e+000 75427 -6.3974e+001 -2.9541e+002  5.9788e+000 64133 75032,75329,75401
 3.7000e+000 75450 -1.3518e+002 -3.6453e+002  4.2236e+001 64133 75545,75401,75058
 3.7000e+000 75499 -7.2894e+001 -3.3905e+002  7.4145e+000 64133 75162,75136,75473
 3.7000e+000 75522 -7.6159e+001 -3.0105e+002  8.0797e+000 64133 75162,75473,75329
 3.7000e+000 75571 -6.1848e+001 -2.0409e+002  1.4205e+001 64133 75032,75401,75545
 3.7000e+000 75851 -1.1045e+002 -2.9292e+002  3.2592e+000 63843 75874,75753,75727
 3.7000e+000 75828 -9.6709e+001 -2.9734e+002 -1.9298e+001 63843 75946,75874,75727
 3.7000e+000 75805 -1.1309e+002 -3.2063e+002 -8.8862e+000 63843 76018,75946,75727
 3.7000e+000 75900 -7.9918e+001 -2.7991e+002 -6.2743e+000 63843 75779,75753,75874
 3.7000e+000 75923 -8.9303e+001 -2.4259e+002 -3.4693e+001 63843 75779,75874,75675
 3.7000e+000 75972 -1.1312e+002 -2.7560e+002 -1.4735e+001 63843 75675,75874,75946
 3.7000e+000 75995 -1.0201e+002 -2.9214e+002 -2.4451e+001 63843 75675,75946,75701
 3.7000e+000 76044 -1.1331e+002 -3.0512e+002 -3.1468e+001 63843 75701,75946,76018
 3.7000e+000 76454  2.6717e+001 -5.5294e+001 -3.8482e+001 63439 76477,76255,76229
 3.7000e+000 76431 -2.4632e+001 -1.4495e+002 -6.6141e+000 63439 76477,76229,76359
 3.7000e+000 76408 -4.0926e+001 -1.1285e+002  6.1740e+001 63439 76307,76359,76333
 3.7000e+000 76385 -1.8988e+001 -1.5222e+002  8.4044e+000 63439 76255,76307,76281
 3.7000e+000 76503 -2.2992e+001 -1.2501e+002  1.5430e+001 63439 76307,76255,76477
 3.7000e+000 76526 -2.2635e+001 -1.6099e+002  3.8123e+001 63439 76307,76477,76359
 3.7000e+000 76926 -6.4447e+001 -2.2388e+002 -6.3001e+000 63049 76704,76782,76756
 3.7000e+000 76903 -9.9579e+001 -2.3433e+002 -2.3329e+001 63049 76704,76808,76782
 3.7000e+000 76880 -7.0607e+001 -2.6638e+002  3.5198e+000 63049 76704,76756,76730
 3.7000e+000 76857 -6.1631e+001 -1.5082e+002  9.1971e+000 63049 76678,76808,76704
 3.7000e+000 76834 -2.9125e+001 -3.6790e+001 -3.4225e+001 63049 76652,76808,76678
 3.7000e+000 77076 -2.3609e+001 -3.4185e+002 -1.6445e+000 62737 76975,77027,77001
 3.7000e+000 77053 -2.4072e+001 -3.8476e+002 -2.4299e+001 62737 76949,77027,76975
 3.7000e+000 77324 -1.5395e+002 -3.4631e+002 -6.3096e+000 62277 77347,77177,77125
 3.7000e+000 77301 -1.4500e+002 -3.3508e+002 -1.8496e+001 62277 77347,77125,77229
 3.7000e+000 77278 -1.3946e+002 -3.4616e+002 -2.5744e+001 62277 77099,77229,77125
 3.7000e+000 77255 -1.5905e+002 -4.2838e+002  1.6387e+000 62277 77125,77177,77151
 3.7000e+000 77373 -1.6001e+002 -3.7643e+002  1.1495e+001 62277 77203,77177,77347
 3.7000e+000 77396 -1.2838e+002 -3.4796e+002 -4.9666e+000 62277 77203,77347,77229
 3.7000e+000 77857 -7.1053e+001 -4.2226e+002  3.8804e+000 61758 77635,77739,77661
 3.7000e+000 77834 -1.1633e+002 -4.1239e+002 -2.0318e+001 61758 77583,77739,77635
 3.7000e+000 77811 -1.3175e+002 -5.0908e+002 -5.2843e+001 61758 77583,77635,77609
 3.7000e+000 77788 -1.0478e+002 -3.9700e+002  3.2733e+001 61758 77661,77713,77687
 3.7000e+000 77765 -1.0921e+002 -4.6710e+002  3.2588e+001 61758 77661,77739,77713
 3.7000e+000 78491 -1.1568e+002 -2.4108e+002  1.3924e+001 61418 78171,78301,78249
 3.7000e+000 78468 -9.6808e+001 -2.0310e+002  2.8780e+001 61418 78145,78301,78171
 3.7000e+000 78445 -8.6149e+001 -2.1249e+002 -1.3319e+001 61418 78171,78249,78223
 3.7000e+000 78422 -9.3110e+001 -2.0107e+002  1.2069e+001 61418 78145,78327,78301
 3.7000e+000 78399 -1.1873e+002 -2.6483e+002 -4.4476e-002 61418 78249,78301,78275
 3.7000e+000 78376 -5.4225e+001 -2.2524e+002 -1.8921e+001 61418 78171,78223,78197
 3.7000e+000 78353 -1.1354e+002 -2.6281e+002 -4.9484e+000 61418 78119,78327,78145
 3.7000e+000 78690 -1.2857e+002 -2.9782e+002 -5.5877e+000 61014 78713,78566,78540
 3.7000e+000 78667 -8.3157e+001 -3.0194e+002 -3.1019e+000 61014 78713,78540,78618
 3.7000e+000 78644 -1.4135e+002 -3.4108e+002 -3.4642e+001 61014 78514,78618,78540
 3.7000e+000 78739 -6.4587e+001 -2.9175e+002  2.9546e+001 61014 78592,78566,78713
 3.7000e+000 78762 -7.4126e+001 -3.2099e+002  3.5431e-001 61014 78785,78713,78618
 3.7000e+000 78811 -2.3649e+001 -3.0151e+002 -5.9172e+000 61014 78592,78713,78785
 3.7000e+000 79398 -5.2380e+001 -2.5609e+002 -2.9393e+001 60624 79101,79179,79153
 3.7000e+000 79375 -7.6439e+001 -2.8867e+002 -1.5498e+001 60624 79101,79231,79179
 3.7000e+000 79352 -5.9710e+001 -2.8784e+002 -2.3693e+001 60624 79075,79231,79101
 3.7000e+000 79329 -1.8276e+001 -3.5062e+002  3.9832e+001 60624 79075,79257,79231
 3.7000e+000 79306 -5.4903e+001 -2.0803e+002 -5.3734e+001 60624 79179,79231,79205
 3.7000e+000 79283 -3.8415e+001 -2.2587e+002 -1.4877e+001 60624 79101,79153,79127
 3.7000e+000 79776 -1.3852e+002 -3.8197e+002  3.7993e+001 60070 79528,79658,79606
 3.7000e+000 79753 -1.2153e+002 -2.9009e+002 -1.2207e+000 60070 79502,79658,79528
 3.7000e+000 79730 -1.7229e+002 -3.6906e+002  5.3584e+001 60070 79528,79606,79580
 3.7000e+000 79707 -3.0539e+001 -3.1391e+002  5.2934e+000 60070 79606,79658,79632
 3.7000e+000 79684 -1.5084e+001 -2.2627e+002 -5.8676e+001 60070 79528,79580,79554
 3.7000e+000 80105 -9.2326e+001 -2.9159e+002  3.9022e+001 59758 80128,79958,79906
 3.7000e+000 80082 -1.0282e+002 -2.7688e+002  3.0937e+001 59758 80128,79906,80010
 3.7000e+000 80059 -1.3706e+002 -3.0473e+002  1.0787e+002 59758 79906,79958,79932
 3.7000e+000 80036 -1.5871e+002 -3.2396e+002  1.0292e+001 59758 79880,80010,79906
 3.7000e+000 80154 -9.8214e+001 -3.0073e+002  3.6400e+001 59758 79984,79958,80128
 3.7000e+000 80177 -1.0977e+002 -2.8933e+002  2.7879e+001 59758 79984,80128,80010
 3.7000e+000 80376 -7.8313e+001 -2.9580e+002  6.2285e+000 59312 80226,80304,80252
 3.7000e+000 80353 -8.2203e+001 -2.9894e+002  4.6727e+000 59312 80200,80304,80226
 3.7000e+000 80330 -1.2201e+002 -2.6525e+002  7.8880e+001 59312 80252,80304,80278
 3.7000e+000 80805 -1.0823e+002 -2.4327e+002 -3.9504e+001 58908 80900,80828,80638
 3.7000e+000 80782 -9.3174e+001 -2.8643e+002 -5.9058e+001 58908 80828,80560,80508
 3.7000e+000 80759 -1.1275e+002 -2.2710e+002 -1.3231e+001 58908 80900,80638,80612
 3.7000e+000 80736 -4.8341e+001 -2.5102e+002  9.7366e+001 58908 80482,80664,80508
 3.7000e+000 80713 -7.4760e+001 -2.1253e+002 -3.1113e+000 58908 80560,80612,80586
 3.7000e+000 80690 -1.0329e+002 -6.6977e+002 -1.3231e+002 58908 80508,80560,80534
 3.7000e+000 80854 -5.3200e+001 -2.6311e+002 -1.5804e+000 58908 80664,80638,80828
 3.7000e+000 80877 -8.7342e+001 -3.7953e+002  5.2546e+000 58908 80664,80828,80508
 3.7000e+000 80926 -9.2519e+001 -1.9554e+002 -4.1563e+001 58908 80560,80828,80900
 3.7000e+000 80949 -1.0321e+002 -1.9512e+002 -1.1663e+001 58908 80560,80900,80612
 3.7000e+000 81246 -3.9342e+001 -2.2469e+002 -5.8312e+000 58482 81076,81128,81102
 3.7000e+000 81223 -1.0152e+002 -3.8392e+002 -3.8131e+001 58482 80972,81128,81076
 3.7000e+000 81200 -6.4233e+001 -2.6154e+002 -4.0842e+001 58482 80972,81076,81050
 3.7000e+000 81177 -1.4552e+002 -4.0653e+002 -7.4034e+000 58482 80998,81050,81024
 3.7000e+000 81154 -7.6823e+001 -3.2930e+002 -3.6546e+001 58482 80972,81050,80998
 3.7000e+000 81754 -1.1404e+002 -2.4014e+002  1.9511e+001 57828 81457,81613,81483
 3.7000e+000 81731 -1.2995e+002 -2.6988e+002  9.7022e+000 57828 81431,81613,81457
 3.7000e+000 81708 -1.2457e+002 -2.6474e+002  2.0019e+001 57828 81483,81613,81509
 3.7000e+000 81685 -1.4901e+002 -3.0263e+002  3.0850e+001 57828 81509,81613,81587
 3.7000e+000 81662 -1.5514e+002 -4.3908e+002  6.2082e+001 57828 81509,81587,81535
 3.7000e+000 81639 -9.2170e+001 -4.2009e+002  4.0837e+001 57828 81535,81587,81561
 3.7000e+000 82002 -1.8711e+002 -4.5162e+002 -1.8950e+000 57374 82025,81855,81829
 3.7000e+000 81979 -2.0043e+002 -4.2916e+002  1.7198e+001 57374 82025,81829,81907
 3.7000e+000 81956 -2.0908e+002 -3.9762e+002  7.6077e+000 57374 81803,81907,81829
 3.7000e+000 81933 -1.2999e+002 -3.7038e+002  9.6893e+000 57374 81777,81907,81803
 3.7000e+000 82051 -1.7845e+002 -4.2431e+002 -6.3695e+000 57374 81881,81855,82025
 3.7000e+000 82074 -1.9308e+002 -4.0776e+002  1.8400e+001 57374 81881,82025,81907
 3.7000e+000 82356 -9.7332e+001 -2.3394e+002 -2.1771e+001 56913 82180,82232,82206
 3.7000e+000 82333 -7.6417e+001 -2.0895e+002  2.3928e+001 56913 82180,82284,82232
 3.7000e+000 82310 -2.7224e+001 -1.9158e+002  4.0245e+001 56913 82379,82232,82284
 3.7000e+000 82405  2.3821e+001 -1.8341e+002  1.3283e+001 56913 82258,82232,82379
 3.7000e+000 82764 -1.0039e+002 -1.5946e+002 -1.6202e+001 56523 82614,82666,82640
 3.7000e+000 82741 -8.4776e+001 -1.6052e+002 -2.4476e+001 56523 82614,82692,82666
 3.7000e+000 82718 -7.3040e+001 -1.7252e+002 -5.0097e+001 56523 82588,82692,82614
 3.7000e+000 83368 -2.5221e+001 -3.0706e+002 -1.4659e+001 55969 82973,83155,83129
 3.7000e+000 83345  3.8384e+000 -2.9548e+002 -2.0348e+001 55969 82973,83181,83155
 3.7000e+000 83322 -8.1855e+001 -2.6880e+002 -1.2694e+001 55969 82973,83129,82999
 3.7000e+000 83299 -1.3032e+002 -2.7891e+002  7.4819e+000 55969 83391,83025,82999
 3.7000e+000 83276 -1.0889e+002 -2.8439e+002 -2.7097e-001 55969 83391,82999,83129
 3.7000e+000 83253 -2.7870e+001 -2.3637e+002  4.2684e+001 55969 83077,83129,83103
 3.7000e+000 83230 -1.2944e+002 -2.2032e+002 -1.5734e+001 55969 83025,83077,83051
 3.7000e+000 83207 -3.0551e+000 -2.8472e+002  2.8087e+001 55969 82947,83181,82973
 3.7000e+000 83417 -1.0939e+002 -2.6866e+002  1.0754e+001 55969 83077,83025,83391
 3.7000e+000 83440 -1.0177e+002 -2.8099e+002  9.1167e-001 55969 83077,83391,83129
 3.7000e+000 83946 -1.9176e+002 -4.0031e+002  6.9120e+001 55771 83969,83779,83727
 3.7000e+000 83923 -1.5210e+002 -3.2760e+002  3.0248e+001 55771 83969,83727,83623
 3.7000e+000 83900 -1.8334e+002 -1.9232e+002  1.6576e+001 55771 83623,83727,83649
 3.7000e+000 83877 -9.0875e+001 -6.6410e+002  5.2873e+001 55771 83727,83779,83753
 3.7000e+000 83854 -3.1703e+002 -2.9333e+002  1.3474e+002 55771 83675,83727,83701
 3.7000e+000 83831 -2.8232e+002 -3.1107e+002  1.2466e+002 55771 83649,83727,83675
 3.7000e+000 83995 -1.6966e+002 -4.1058e+002 -2.6758e+001 55771 83805,83779,83969
 3.7000e+000 84018 -8.2239e+001 -2.5938e+002 -7.4261e+001 55771 83805,83969,83623
 3.7000e+000 84168 -8.0395e+001 -2.1262e+002 -6.6052e+000 55367 84191,84067,84041
 3.7000e+000 84145 -7.8995e+001 -2.4037e+002 -4.2940e+000 55367 84191,84041,84119
 3.7000e+000 84217 -8.6195e+001 -1.9630e+002 -6.1028e+000 55367 84093,84067,84191
 3.7000e+000 84240 -7.6068e+001 -2.1249e+002  4.0348e+000 55367 84093,84191,84119
 3.7000e+000 84571 -4.1895e+001 -3.5195e+002 -3.6174e+001 54913 84398,84450,84424
 3.7000e+000 84548 -2.7172e+001 -3.2014e+002 -1.7970e+001 54913 84372,84450,84398
 3.7000e+000 84525 -7.9308e+001 -3.6327e+002  1.4328e+001 54913 84346,84450,84372
 3.7000e+000 84502 -2.0358e+001 -2.2843e+002 -2.9382e+001 54913 84346,84476,84450
 3.7000e+000 85126 -1.7304e+002 -3.8558e+002 -1.3859e+001 54402 84858,84936,84910
 3.7000e+000 85103 -1.3343e+002 -3.0500e+002 -3.8135e+001 54402 84806,84936,84858
 3.7000e+000 85080 -1.5345e+002 -2.7692e+002 -2.9187e+001 54402 84780,84936,84806
 3.7000e+000 85057 -1.3287e+002 -3.3726e+002 -1.8311e+001 54402 84806,84858,84832
 3.7000e+000 85034 -1.3640e+002 -2.6059e+002  1.1615e+001 54402 84780,84962,84936
 3.7000e+000 85011 -2.1463e+002 -2.3034e+002 -8.4098e+000 54402 84858,84910,84884
 3.7000e+000 84988 -1.3244e+002 -2.4741e+002  1.1195e+001 54402 84754,84962,84780
 3.7000e+000 85396 -1.2968e+002 -1.5849e+002 -1.1727e+001 53998 85197,85249,85223
 3.7000e+000 85373 -9.9335e+001 -2.0358e+002 -2.6225e+000 53998 85197,85275,85249
 3.7000e+000 85350 -1.2490e+002 -2.3828e+002 -1.4381e+001 53998 85171,85275,85197
 3.7000e+000 85327 -5.8648e+001 -2.2200e+002 -1.7876e+001 53998 85171,85301,85275
 3.7000e+000 85749 -8.1142e+001 -2.9120e+002 -5.2161e+000 53636 85524,85628,85550
 3.7000e+000 85726 -1.2746e+002 -3.1700e+002  9.9144e+000 53636 85524,85654,85628
 3.7000e+000 85703 -4.8165e+001 -3.1648e+002 -3.0195e+001 53636 85550,85602,85576
 3.7000e+000 85680 -8.1705e+001 -2.8910e+002 -1.4323e+001 53636 85550,85628,85602
 3.7000e+000 86127 -2.8824e+001 -2.7804e+002  4.4061e+001 52982 86150,85957,85879
 3.7000e+000 86104 -9.2623e+001 -3.2447e+002  2.3781e+001 52982 86150,85879,85853
 3.7000e+000 86081 -2.4598e+001 -4.0533e+002  8.1313e+001 52982 85957,86009,85983
 3.7000e+000 86058 -1.1563e+002 -2.9720e+002  3.4839e+001 52982 85879,85957,85931
 3.7000e+000 86035 -7.2891e+001 -2.8021e+002 -1.1608e+001 52982 85879,85931,85905
 3.7000e+000 86176  1.2600e+001 -3.2939e+002  3.5765e+001 52982 86009,85957,86150
 3.7000e+000 86199 -2.5241e+001 -3.6086e+002  2.1860e+001 52982 86009,86150,85853
 3.7000e+000 86398 -6.1399e+001 -2.1571e+002  1.9731e+001 52542 86421,86248,86222
 3.7000e+000 86375 -1.0860e+002 -2.2002e+002 -2.3391e+000 52542 86421,86222,86300
 3.7000e+000 86352 -1.0823e+002 -2.3683e+002 -1.0506e+001 52542 86222,86326,86300
 3.7000e+000 86447 -1.3599e+001 -2.1651e+002  3.8498e+001 52542 86274,86248,86421
 3.7000e+000 86470 -5.8198e+001 -2.2784e+002  1.0680e+001 52542 86274,86421,86300
 3.7000e+000 86669 -1.0897e+002 -2.3057e+002 -3.6545e+001 52230 86692,86571,86545
 3.7000e+000 86646 -1.0386e+002 -2.1460e+002 -2.0798e+001 52230 86692,86545,86519
 3.7000e+000 86623 -1.4256e+002 -2.2787e+002 -3.6854e+001 52230 86493,86597,86519
 3.7000e+000 86718 -1.1621e+002 -2.3540e+002 -4.5218e+001 52230 86597,86571,86692
 3.7000e+000 86741 -1.2183e+002 -2.2396e+002 -3.0579e+001 52230 86597,86692,86519
 3.7000e+000 87153 -1.4437e+002 -2.3011e+002  1.3190e+001 51640 86980,87058,87032
 3.7000e+000 87130 -1.4760e+002 -2.3712e+002  1.0278e+001 51640 86928,87058,86980
 3.7000e+000 87107 -1.5946e+002 -3.1034e+002 -4.6594e+000 51640 86928,86980,86954
 3.7000e+000 87084 -7.6341e+001 -2.0126e+002 -1.1292e+000 51640 86980,87032,87006
 3.7000e+000 87659 -5.4658e+001 -2.0443e+002  1.3756e+001 51029 87682,87440,87362
 3.7000e+000 87636 -5.6594e+001 -2.2139e+002 -1.4749e+001 51029 87682,87362,87336
 3.7000e+000 87613 -9.1003e+001 -3.1977e+002 -1.0368e+001 51029 87440,87518,87466
 3.7000e+000 87590 -1.1145e+002 -2.0731e+002  1.8469e+001 51029 87362,87440,87414
 3.7000e+000 87567 -9.4321e+001 -1.6275e+002  4.2008e+001 51029 87362,87414,87388
 3.7000e+000 87544 -1.3144e+002 -2.6475e+002  7.2630e+000 51029 87466,87518,87492
 3.7000e+000 87708 -4.9533e+001 -2.3340e+002  1.9217e+000 51029 87518,87440,87682
 3.7000e+000 87731 -5.2110e+001 -2.7123e+002 -1.6111e+001 51029 87518,87682,87336
 3.7000e+000 87881 -1.3463e+002 -2.8881e+002  6.7436e+000 50739 87780,87832,87806
 3.7000e+000 87858 -1.5169e+002 -2.8815e+002 -1.2818e+001 50739 87754,87832,87780
 3.7000e+000 88468 -7.7109e+001 -1.8778e+002  8.1512e+000 50235 88171,88327,88197
 3.7000e+000 88445 -1.7667e+002 -1.8659e+002 -3.0401e+001 50235 88145,88327,88171
 3.7000e+000 88422  5.1439e+001 -9.8698e+001  4.4044e+001 50235 88275,88327,88301
 3.7000e+000 88399 -4.6353e+001 -1.4139e+002 -5.1694e+000 50235 88197,88327,88275
 3.7000e+000 88376  1.3085e+001 -1.7524e+002  4.5930e+000 50235 88197,88275,88223
 3.7000e+000 88353 -2.8388e+000 -1.9629e+002  1.4288e+001 50235 88223,88275,88249
 3.7000e+000 88895 -1.1986e+002 -3.0116e+002  1.0861e+001 49873 88918,88728,88676
 3.7000e+000 88872 -1.0325e+002 -2.8848e+002 -2.1584e+000 49873 88918,88676,88624
 3.7000e+000 88849 -8.0104e+001 -2.5289e+002 -4.7163e+000 49873 88598,88754,88624
 3.7000e+000 88826 -6.2954e+001 -2.7076e+002 -5.7529e+000 49873 88624,88676,88650
 3.7000e+000 88803 -1.0414e+002 -3.6987e+002  1.2256e+001 49873 88676,88728,88702
 3.7000e+000 88780 -8.7957e+001 -2.2830e+002  9.7767e+000 49873 88572,88754,88598
 3.7000e+000 88944 -9.7954e+001 -2.9674e+002  2.4570e+000 49873 88754,88728,88918
 3.7000e+000 88967 -9.2285e+001 -2.9459e+002 -9.1926e+000 49873 88754,88918,88624
 3.7000e+000 89473 -1.9120e+002 -2.9233e+002 -3.4235e+001 49583 89176,89306,89202
 3.7000e+000 89450 -1.9376e+002 -2.8642e+002 -5.1024e+001 49583 89176,89332,89306
 3.7000e+000 89427 -1.1286e+002 -3.2420e+002  1.2673e+001 49583 89496,89228,89202
 3.7000e+000 89404 -1.1132e+002 -3.3111e+002  1.5384e+001 49583 89496,89202,89280
 3.7000e+000 89381 -2.3049e+002 -4.1196e+002 -7.0094e+001 49583 89202,89306,89280
 3.7000e+000 89358 -1.5629e+002 -2.9293e+002 -6.0516e+001 49583 89150,89332,89176
 3.7000e+000 89522 -1.0501e+002 -2.7883e+002  8.4494e+000 49583 89254,89228,89496
 3.7000e+000 89545 -1.2471e+002 -3.1832e+002  1.5233e+001 49583 89254,89496,89280
 3.7000e+000 89825  4.3843e+001 -2.8882e+002  1.4234e+001 49179 89701,89753,89727
 3.7000e+000 89802 -3.9201e+001 -2.5888e+002  2.2026e+001 49179 89675,89753,89701
 3.7000e+000 89779 -3.0365e+001 -2.3158e+002  1.2719e+001 49179 89848,89753,89675
 3.7000e+000 89874 -1.5722e+002 -2.6684e+002 -2.0859e+001 49179 89649,89753,89848
 3.7000e+000 90223 -7.1191e+001 -2.9215e+002 -2.1716e+001 48739 90024,90102,90076
 3.7000e+000 90200 -1.0599e+002 -2.9433e+002 -7.2062e+000 48739 90024,90128,90102
 3.7000e+000 90177 -5.5270e+001 -3.1301e+002 -1.1778e+001 48739 90024,90076,90050
 3.7000e+000 90154 -4.5740e+001 -2.7982e+002  2.4670e+001 48739 89998,90128,90024
 3.7000e+000 90603 -1.0258e+002 -2.4909e+002  5.1669e+001 48335 90381,90485,90459
 3.7000e+000 90580 -1.3032e+002 -2.8551e+002  3.7896e+001 48335 90355,90485,90381
 3.7000e+000 90557 -5.9394e+001 -1.1593e+002  2.6497e+001 48335 90381,90433,90407
 3.7000e+000 90534 -1.0129e+002 -2.5916e+002  3.9114e+001 48335 90381,90459,90433
 3.7000e+000 90511  1.1733e+001 -2.0552e+002  7.2686e+001 48335 90329,90485,90355
 3.7000e+000 90753 -1.2402e+001 -1.5716e+002  9.3059e+001 47824 90776,90652,90704
 3.7000e+000 90730 -8.4510e+001 -2.6641e+002  4.8359e+001 47824 90626,90704,90652
 3.7000e+000 90802 -4.1408e+001 -2.0430e+002  7.4884e+001 47824 90678,90652,90776
 3.7000e+000 91131 -8.8428e+001 -3.0696e+002  1.2890e+001 47427 91154,90958,90906
 3.7000e+000 91108 -1.5735e+002 -3.3492e+002 -2.9808e+000 47427 91154,90906,91036
 3.7000e+000 91085 -1.5566e+002 -2.7107e+002 -2.5941e+001 47427 90958,91010,90984
 3.7000e+000 91062 -9.1939e+001 -2.8815e+002  1.7224e+001 47427 90906,90958,90932
 3.7000e+000 91180 -1.2923e+002 -3.0694e+002 -3.2186e+001 47427 91010,90958,91154
 3.7000e+000 91203 -1.9609e+002 -3.3601e+002 -4.9295e+001 47427 91010,91154,91036
 3.7000e+000 91583 -1.8110e+002 -3.2869e+002 -1.8763e+001 46873 91309,91439,91335
 3.7000e+000 91560 -1.8628e+002 -3.3702e+002 -1.6371e+001 46873 91309,91465,91439
 3.7000e+000 91537 -2.6218e+002 -3.8397e+002 -8.4220e+001 46873 91361,91439,91413
 3.7000e+000 91514 -2.0492e+002 -3.4328e+002 -4.6408e+001 46873 91335,91439,91361
 3.7000e+000 91491 -9.2771e+001 -3.3698e+002 -8.2917e+001 46873 91361,91413,91387
 3.7000e+000 91880 -9.6553e+001 -3.0814e+002 -7.4210e+000 46526 91606,91710,91658
 3.7000e+000 91857 -1.0064e+002 -3.2309e+002  2.3313e+000 46526 91606,91762,91710
 3.7000e+000 91834 -5.6310e+001 -2.9854e+002 -3.7629e+001 46526 91606,91658,91632
 3.7000e+000 91811 -1.1524e+002 -2.8717e+002  5.1542e+000 46526 91658,91710,91684
 3.7000e+000 91788 -6.4480e+001 -2.1546e+002  1.0430e+001 46526 91710,91762,91736
 3.7000e+000 92211 -6.1986e+001 -1.4469e+002 -9.6386e+000 45700 91986,92064,92038
 3.7000e+000 92188 -8.5172e+001 -2.0835e+002  3.4230e+000 45700 91986,92116,92064
 3.7000e+000 92165 -4.7586e+001 -1.2509e+002 -2.8909e+001 45700 91986,92038,92012
 3.7000e+000 92142 -5.7761e+001 -2.2252e+002  2.9594e+001 45700 92064,92116,92090
 3.7000e+000 92766 -1.6468e+002 -2.7804e+002  1.2100e+001 45452 92446,92602,92576
 3.7000e+000 92743 -2.4333e+002 -2.7710e+002 -3.5123e+001 45452 92420,92602,92446
 3.7000e+000 92720 -1.8379e+002 -2.8212e+002  4.2693e+001 45452 92789,92524,92498
 3.7000e+000 92697 -2.1987e+002 -2.8023e+002  3.0914e+001 45452 92789,92498,92446
 3.7000e+000 92674 -1.7446e+002 -3.1065e+002 -6.7572e+000 45452 92524,92576,92550
 3.7000e+000 92651 -2.8495e+002 -2.8327e+002  1.6455e+002 45452 92446,92498,92472
 3.7000e+000 92628 -1.7531e+002 -3.8976e+002 -1.1488e+002 45452 92394,92602,92420
 3.7000e+000 92815 -1.5901e+002 -2.9213e+002  3.3390e+001 45452 92576,92524,92789
 3.7000e+000 92838 -1.8582e+002 -2.8238e+002  2.6775e+001 45452 92576,92789,92446
 3.7000e+000 92939 -1.1416e+002 -3.6342e+002 -7.6711e+001 44998 92861,92913,92887
 3.7000e+000 93319 -8.2728e+000 -3.7555e+002  7.8862e+001 44601 93123,93201,93149
 3.7000e+000 93296 -9.8511e+001 -3.9119e+002 -4.0877e+001 44601 93045,93201,93123
 3.7000e+000 93273 -8.3894e+001 -2.2132e+002 -5.5127e+001 44601 93045,93123,93071
 3.7000e+000 93250 -8.0286e+001 -2.0675e+002 -3.7255e+001 44601 93071,93123,93097
 3.7000e+000 93227  7.0247e+000 -2.0460e+002  8.5528e+001 44601 93149,93201,93175
 3.7000e+000 93697 -6.9723e+001 -4.1370e+002  2.8249e+001 44026 93720,93553,93527
 3.7000e+000 93674 -1.4206e+002 -3.4690e+002  3.6601e+001 44026 93720,93527,93449
 3.7000e+000 93651 -1.5943e+002 -3.6147e+002 -5.6712e+000 44026 93449,93527,93501
 3.7000e+000 93628 -1.1049e+002 -2.8078e+002 -5.3470e+001 44026 93423,93579,93449
 3.7000e+000 93605 -3.0641e+001 -2.8050e+002  2.8979e+001 44026 93449,93501,93475
 3.7000e+000 93746 -1.6035e+001 -3.6643e+002  7.6813e+000 44026 93579,93553,93720
 3.7000e+000 93769 -9.2846e+001 -3.0169e+002  1.6688e+001 44026 93579,93720,93449
 3.7000e+000 94066 -7.6742e+001 -3.2079e+002 -4.5583e+001 43579 94089,93818,93792
 3.7000e+000 94043 -1.2887e+002 -3.5362e+002 -3.0751e+001 43579 94161,94089,93792
 3.7000e+000 94020 -1.2637e+002 -3.5518e+002 -1.6592e+001 43579 94161,93792,93948
 3.7000e+000 93997 -1.3625e+002 -2.8416e+002 -1.6734e+001 43579 94233,93870,93818
 3.7000e+000 93974 -7.4843e+001 -2.8991e+002  4.1982e+000 43579 93818,93870,93844
 3.7000e+000 94115 -1.3256e+002 -2.8654e+002 -3.4412e+001 43579 94233,93818,94089
 3.7000e+000 94138 -1.7857e+002 -3.2018e+002 -2.3220e+001 43579 93896,94089,93922
 3.7000e+000 94187 -1.1964e+002 -3.3268e+002 -2.9204e+001 43579 93922,94089,94161
 3.7000e+000 94210 -1.1558e+002 -3.3193e+002 -1.3764e+001 43579 93922,94161,93948
 3.7000e+000 94259 -1.5682e+002 -3.1770e+002 -7.2639e+000 43579 93896,93870,94233
 3.7000e+000 94282 -1.4422e+002 -3.1169e+002 -2.7608e+001 43579 93896,94233,94089
 3.7000e+000 94481 -1.0865e+002 -3.2728e+002 -2.9499e+000 43239 94305,94383,94357
 3.7000e+000 94458 -9.1195e+001 -2.9789e+002  3.6860e+001 43239 94305,94409,94383
 3.7000e+000 94435 -8.1188e+001 -3.4798e+002 -1.0228e+001 43239 94305,94357,94331
 3.7000e+000 94633 -6.3590e+001 -2.1431e+002  5.4825e+001 42827 94656,94532,94506
 3.7000e+000 94610 -7.8205e+001 -2.2846e+002  7.2024e+001 42827 94728,94656,94506
 3.7000e+000 94682 -1.7604e+001 -2.3936e+002  6.2080e+001 42827 94558,94532,94656
 3.7000e+000 94705  2.1668e+001 -2.5722e+002  3.9193e+001 42827 94988,94860,94656
 3.7000e+000 94754 -3.7446e+001 -2.2677e+002  2.2697e+001 42827 94988,94656,94728
 3.7000e+000 94886  1.0166e+002 -2.2453e+002  4.1316e+001 42827 94558,94656,94860
 3.7000e+000 95014  7.0465e+001 -2.3095e+002  2.7823e+001 42827 94584,94860,94988
 3.7000e+000 95037  2.2983e+001 -1.9752e+002  1.3779e+001 42827 94584,94988,94728
 3.7000e+000 95236 -8.9019e+001 -2.9973e+002  7.5841e+000 42537 95259,95112,95060
 3.7000e+000 95213 -4.1850e+001 -3.1792e+002  1.5170e+001 42537 95259,95060,95164
 3.7000e+000 95190 -6.9934e+001 -2.8706e+002 -1.4745e+001 42537 95060,95112,95086
 3.7000e+000 95285 -5.7402e+001 -2.9579e+002  2.8783e+001 42537 95138,95112,95259
 3.7000e+000 95308 -1.2350e+001 -3.0490e+002  4.2817e+001 42537 95138,95259,95164
 3.7000e+000 95816 -1.2484e+002 -3.4127e+002 -2.5905e+001 41969 95493,95597,95519
 3.7000e+000 95793 -1.8736e+002 -3.3473e+002  2.7052e+001 41969 95493,95649,95597
 3.7000e+000 95770 -1.4245e+002 -3.0863e+002  1.5581e+001 41969 95493,95675,95649
 3.7000e+000 95747 -1.6816e+002 -4.1198e+002  2.0942e+001 41969 95597,95649,95623
 3.7000e+000 95724 -1.9477e+002 -3.2153e+002 -3.7813e+001 41969 95519,95597,95571
 3.7000e+000 95701 -1.7068e+002 -2.8078e+002 -8.2456e+001 41969 95519,95571,95545
 3.7000e+000 96371 -1.4700e+002 -3.4320e+002  4.1823e+001 41579 96025,96207,96181
 3.7000e+000 96348  5.4089e+001 -2.5329e+002 -3.8212e+000 41579 95999,96207,96025
 3.7000e+000 96325 -1.6850e+002 -2.7783e+002 -3.0367e+001 41579 96129,96181,96155
 3.7000e+000 96302 -6.4286e+001 -2.4408e+002  2.6794e+000 41579 96025,96181,96129
 3.7000e+000 96279 -1.3346e+002 -3.5692e+002  4.4949e+001 41579 96025,96129,96051
 3.7000e+000 96256 -1.6915e+002 -3.5988e+002  5.7756e+001 41579 96051,96103,96077
 3.7000e+000 96233 -6.4388e+001 -2.7055e+002  7.6096e+000 41579 96051,96129,96103
 3.7000e+000 96877 -4.2620e+001 -2.1369e+002 -2.4969e+001 41182 96972,96900,96632
 3.7000e+000 96854 -3.7097e+001 -1.5949e+002 -2.1162e+001 41182 96900,96554,96736
 3.7000e+000 96831 -4.3443e+001 -2.1521e+002 -2.5457e+001 41182 96972,96632,96580
 3.7000e+000 96808 -5.9614e+001 -2.1722e+002  7.7842e+000 41182 96632,96684,96658
 3.7000e+000 96785 -5.6092e+001 -2.1832e+002  2.2130e+001 41182 96684,96736,96710
 3.7000e+000 96762 -1.2969e+002 -2.8683e+002  3.3484e+001 41182 96580,96632,96606
 3.7000e+000 96926 -2.8841e+001 -2.3191e+002 -2.0189e+001 41182 96684,96632,96900
 3.7000e+000 96949 -4.1682e+001 -2.0865e+002 -3.4773e+001 41182 96684,96900,96736
 3.7000e+000 96998 -4.0708e+001 -2.1143e+002 -1.9299e+001 41182 96554,96900,96972
 3.7000e+000 97021 -4.3123e+001 -2.1687e+002 -1.9886e+001 41182 96554,96972,96580
 3.7000e+000 97576 -2.1398e+002 -5.1929e+002 -7.3439e+001 40678 97230,97412,97282
 3.7000e+000 97553 -3.0025e+001 -4.2589e+002  2.5406e+001 40678 97204,97412,97230
 3.7000e+000 97530 -7.6258e+001 -3.9979e+002 -6.1807e+001 40678 97282,97360,97308
 3.7000e+000 97507 -1.0162e+002 -4.0465e+002 -2.7491e+001 40678 97282,97412,97360
 3.7000e+000 97484 -4.1346e+001 -2.5258e+002 -5.2229e+001 40678 97308,97360,97334
 3.7000e+000 97461 -1.3573e+002 -4.8111e+002 -1.2799e+001 40678 97360,97412,97386
 3.7000e+000 97438 -1.2384e+002 -3.3883e+002 -3.9505e+001 40678 97230,97282,97256
 3.7000e+000 97976 -1.6016e+002 -2.6075e+002 -6.2843e+000 40244 97702,97832,97754
 3.7000e+000 97953 -1.3491e+002 -2.4269e+002 -1.4914e+001 40244 97702,97858,97832
 3.7000e+000 97930 -1.6528e+002 -2.9382e+002 -6.8882e+001 40244 97702,97754,97728
 3.7000e+000 97907 -1.3710e+002 -2.9903e+002  3.3139e+001 40244 97780,97832,97806
 3.7000e+000 97884 -1.4690e+002 -2.5394e+002 -3.7591e+000 40244 97754,97832,97780
 3.7000e+000 98482 -9.9277e+001 -2.6765e+002  3.6957e+001 39690 98505,98185,98159
 3.7000e+000 98459 -9.5969e+001 -2.6066e+002  3.8325e+001 39690 98505,98159,98289
 3.7000e+000 98436 -1.7565e+002 -3.7337e+002  1.0352e+002 39690 98159,98315,98289
 3.7000e+000 98413 -8.5212e+001 -2.4167e+002  3.5120e+001 39690 98211,98289,98263
 3.7000e+000 98390 -5.5697e+001 -1.6482e+002  2.0894e+001 39690 98211,98263,98237
 3.7000e+000 98367 -5.0002e+001 -2.4243e+002  4.3834e+001 39690 98159,98341,98315
 3.7000e+000 98531 -1.1026e+002 -2.6422e+002  2.9709e+001 39690 98211,98185,98505
 3.7000e+000 98554 -1.0109e+002 -2.4862e+002  3.3765e+001 39690 98211,98505,98289
 3.7000e+000 99109 -8.4449e+001 -2.2349e+002 -1.1471e+001 39072 99132,98867,98789
 3.7000e+000 99086 -8.6774e+001 -2.2858e+002 -1.4858e+001 39072 99132,98789,98763
 3.7000e+000 99063 -1.2630e+002 -3.6452e+002  4.1206e+001 39072 98867,98945,98919
 3.7000e+000 99040 -7.4897e+001 -2.3659e+002 -1.0517e+000 39072 98789,98867,98841
 3.7000e+000 99017 -1.6697e+002 -2.6559e+002  1.2902e+001 39072 98867,98919,98893
 3.7000e+000 98994 -1.2357e+002 -2.2854e+002  4.8175e+001 39072 98789,98841,98815
 3.7000e+000 98971 -1.2821e+002 -2.5694e+002 -2.0358e+001 39072 98737,98945,98763
 3.7000e+000 99158 -8.1593e+001 -2.2990e+002 -1.3075e+001 39072 98945,98867,99132
 3.7000e+000 99181 -8.3005e+001 -2.3629e+002 -1.4660e+001 39072 98945,99132,98763
 3.7000e+000 99510 -7.2081e+001 -2.2356e+002  1.5056e+001 38668 99311,99389,99363
 3.7000e+000 99487 -7.6884e+001 -2.2710e+002  1.2523e+001 38668 99285,99389,99311
 3.7000e+000 99464 -1.4957e+002 -2.7425e+002  4.2514e+001 38668 99285,99415,99389
 3.7000e+000 99441 -7.0801e+001 -2.3762e+002  2.2429e+001 38668 99311,99363,99337
 3.7000e+000 99758 -4.6771e+001 -3.2290e+002  5.3763e+001 38164 99781,99611,99585
 3.7000e+000 99735 -5.2398e+001 -3.3764e+002  4.9295e+001 38164 99781,99585,99533
 3.7000e+000 99712 -4.1490e+001 -2.8129e+002  2.9126e+001 38164 99611,99663,99637
 3.7000e+000 99689 -1.3333e+001 -3.3533e+002 -1.9794e+001 38164 99533,99585,99559
 3.7000e+000 99807 -4.5904e+001 -3.3729e+002  5.2822e+001 38164 99663,99611,99781
 3.7000e+000 99830 -4.4881e+001 -3.4475e+002  5.0408e+001 38164 99663,99781,99533
 3.7000e+000 100232 -1.1054e+002 -2.6982e+002  4.6821e+000 37702 99984,100114,100088
 3.7000e+000 100209 -9.0886e+001 -2.9722e+002  3.1349e+001 37702 99958,100114,99984
 3.7000e+000 100186 -1.5616e+002 -3.3040e+002 -1.9359e+001 37702 100010,100088,100036
 3.7000e+000 100163 -1.1134e+002 -2.7078e+002  2.9098e-001 37702 99984,100088,100010
 3.7000e+000 100140 -9.8147e+001 -2.5173e+002 -6.8920e+001 37702 100036,100088,100062
 3.7000e+000 100640 -2.1173e+002 -3.0292e+002  3.4523e+001 37262 100493,100545,100519
 3.7000e+000 100617 -1.9687e+002 -3.4166e+002  1.5968e+001 37262 100441,100545,100493
 3.7000e+000 100594 -1.0774e+002 -2.6684e+002 -4.6212e+001 37262 100415,100545,100441
 3.7000e+000 100571 -2.1823e+002 -3.6751e+002 -1.1356e+001 37262 100441,100493,100467
 3.7000e+000 101146 -1.4481e+002 -2.4603e+002  1.5349e+000 36872 100823,100979,100849
 3.7000e+000 101123 -1.4257e+002 -2.3243e+002 -2.1102e+001 36872 100823,101005,100979
 3.7000e+000 101100 -1.4999e+002 -3.5089e+002  4.9339e+001 36872 101169,100901,100849
 3.7000e+000 101077 -1.1612e+002 -2.7999e+002  2.7677e+001 36872 101169,100849,100979
 3.7000e+000 101054 -7.9595e+001 -2.7654e+002 -1.5230e+001 36872 100927,100979,100953
 3.7000e+000 101031 -8.4541e+001 -4.0239e+002  6.7304e+001 36872 100849,100901,100875
 3.7000e+000 101195 -1.0431e+002 -3.7192e+002  4.9880e+000 36872 100927,100901,101169
 3.7000e+000 101218 -8.3833e+001 -3.3452e+002 -1.2344e+001 36872 100927,101169,100979
 3.7000e+000 101773 -1.7806e+002 -2.6956e+002  5.0005e+001 36418 101479,101609,101583
 3.7000e+000 101750 -1.7794e+002 -2.9237e+002  5.7594e+001 36418 101453,101609,101479
 3.7000e+000 101727 -1.2292e+002 -2.8301e+002 -2.2923e+000 36418 101796,101531,101479
 3.7000e+000 101704 -1.6995e+002 -3.1616e+002  2.2323e+001 36418 101796,101479,101583
 3.7000e+000 101681 -1.0682e+002 -2.5380e+002 -8.9189e+000 36418 101479,101531,101505
 3.7000e+000 101658 -5.6062e+000 -2.6784e+002  1.7473e+000 36418 101401,101609,101453
 3.7000e+000 101635 -5.4249e+001 -2.8017e+002 -5.7574e+000 36418 101401,101453,101427
 3.7000e+000 101822 -1.3361e+002 -2.5855e+002 -4.6598e+001 36418 101557,101531,101796
 3.7000e+000 101845 -1.8685e+002 -2.6917e+002 -2.4176e+001 36418 101557,101796,101583
 3.7000e+000 102174 -1.8706e+001 -1.4099e+002 -3.1993e+001 35914 101949,102053,101975
 3.7000e+000 102151 -8.1460e+001 -1.4111e+002 -2.2390e+001 35914 101949,102079,102053
 3.7000e+000 102128 -7.0453e+001 -1.6544e+002 -1.4269e+001 35914 101975,102053,102027
 3.7000e+000 102105 -4.9902e+001 -1.3000e+002 -2.2683e+001 35914 101975,102027,102001
 3.7000e+000 102631 -5.5944e+001 -2.8697e+002  1.0901e+001 35574 102383,102513,102487
 3.7000e+000 102608 -3.9919e+001 -3.0221e+002  8.5659e+000 35574 102357,102513,102383
 3.7000e+000 102585 -7.3058e+001 -2.8026e+002  1.8671e+001 35574 102409,102487,102435
 3.7000e+000 102562 -9.8013e+001 -3.0279e+002  8.3942e+000 35574 102383,102487,102409
 3.7000e+000 102539 -1.0081e+002 -3.0839e+002 -4.2784e+000 35574 102435,102487,102461
 3.7000e+000 103009 -1.6013e+002 -2.8359e+002 -2.3234e+001 35170 102761,102865,102787
 3.7000e+000 102986 -8.7040e+001 -2.4438e+002  2.1680e+001 35170 102761,102891,102865
 3.7000e+000 102963 -1.4115e+002 -2.8248e+002 -7.6514e+000 35170 102787,102865,102813
 3.7000e+000 102940 -7.2655e+001 -2.3217e+002  2.6887e+001 35170 102735,102891,102761
 3.7000e+000 102917 -1.3787e+002 -2.7575e+002 -1.0342e+001 35170 102813,102865,102839
 3.7000e+000 103257 -3.0029e+001 -2.2594e+002 -4.9771e+001 34659 103280,103058,103032
 3.7000e+000 103234 -4.6848e+001 -2.4875e+002 -3.8108e+001 34659 103280,103032,103162
 3.7000e+000 103211 -5.6460e+001 -2.4125e+002 -1.8820e+001 34659 103084,103162,103110
 3.7000e+000 103188 -8.5598e+001 -2.8056e+002  4.8523e+000 34659 103110,103162,103136
 3.7000e+000 103306 -5.4225e+001 -1.9777e+002 -3.9593e+001 34659 103084,103058,103280
 3.7000e+000 103329 -6.9027e+001 -2.2474e+002 -2.6754e+001 34659 103084,103280,103162
 3.7000e+000 103837 -3.1127e+001 -3.0716e+002  1.2602e+001 34247 103860,103566,103540
 3.7000e+000 103814 -4.1403e+001 -3.0662e+002  2.9073e+000 34247 103932,103860,103540
 3.7000e+000 103791 -2.8794e+001 -3.4206e+002 -3.3316e+001 34247 103932,103540,103670
 3.7000e+000 103768 -3.5523e+001 -2.9497e+002  1.0893e+000 34247 103566,103618,103592
 3.7000e+000 103745 -1.2241e+002 -2.8894e+002 -4.4047e+001 34247 103540,103696,103670
 3.7000e+000 103722 -1.6218e+002 -3.1873e+002  4.5795e+001 34247 103514,103696,103540
 3.7000e+000 103886 -6.4776e+001 -3.0620e+002  7.1426e-001 34247 103618,103566,103860
 3.7000e+000 103909 -7.1275e+001 -3.2753e+002  1.2518e+001 34247 103618,103860,103644
 3.7000e+000 103958 -7.3671e+001 -3.9137e+002 -1.4446e+000 34247 103644,103860,103932
 3.7000e+000 103981 -6.0881e+001 -4.2413e+002 -3.9486e+001 34247 103644,103932,103670
 3.7000e+000 104300 -1.5340e+002 -3.1771e+002 -1.4095e+001 33843 104052,104182,104156
 3.7000e+000 104277 -1.9178e+002 -3.0011e+002 -6.8041e+000 33843 104026,104182,104052
 3.7000e+000 104254 -1.5207e+002 -3.6609e+002  8.0126e+000 33843 104078,104156,104130
 3.7000e+000 104231 -1.8618e+002 -3.4793e+002 -5.3430e-001 33843 104052,104156,104078
 3.7000e+000 104208 -2.2965e+002 -3.9004e+002  1.2656e+001 33843 104078,104130,104104
 3.7000e+000 104499 -8.3474e+001 -3.3467e+002 -3.2528e+001 33282 104594,104522,104375
 3.7000e+000 104476 -4.7430e+001 -3.3390e+002  1.3280e+001 33282 104522,104323,104427
 3.7000e+000 104453 -6.1871e+001 -3.5330e+002 -2.9017e+001 33282 104594,104375,104349
 3.7000e+000 104548 -1.0617e+002 -2.7584e+002 -8.8354e-001 33282 104401,104375,104522
 3.7000e+000 104571 -3.7241e+001 -2.6553e+002  4.9268e+001 33282 104401,104522,104427
 3.7000e+000 104620 -6.1384e+001 -2.9792e+002 -2.1353e+001 33282 104323,104522,104594
 3.7000e+000 104643 -4.8966e+001 -3.2650e+002 -2.1716e+001 33282 104323,104594,104349
 3.7000e+000 104942 -1.4773e+002 -3.6974e+002  4.5043e+001 32728 104694,104772,104720
 3.7000e+000 104919 -1.1140e+002 -3.3808e+002  1.8560e+001 32728 104694,104824,104772
 3.7000e+000 104896 -1.9005e+002 -3.3602e+002  4.9429e+001 32728 104720,104772,104746
 3.7000e+000 104873 -8.7041e+001 -3.7758e+002  2.0584e+001 32728 104772,104824,104798
 3.7000e+000 104850 -8.6663e+001 -3.2747e+002  2.2071e+001 32728 104668,104824,104694
 3.7000e+000 105373 -1.4001e+002 -3.7448e+002 -1.5905e+001 32274 105396,105102,105076
 3.7000e+000 105350 -1.4711e+002 -4.0942e+002 -5.8619e+000 32274 105396,105076,105206
 3.7000e+000 105327 -1.7676e+002 -4.1072e+002  2.3879e+001 32274 105154,105206,105180
 3.7000e+000 105304 -8.7299e+001 -3.9648e+002 -3.1611e+001 32274 105076,105232,105206
 3.7000e+000 105281 -1.5962e+002 -3.3970e+002 -6.0674e+001 32274 105102,105154,105128
 3.7000e+000 105258 -2.3096e+002 -3.4958e+002 -6.4033e+001 32274 105050,105232,105076
 3.7000e+000 105422 -1.5648e+002 -3.3712e+002 -1.3652e+001 32274 105154,105102,105396
 3.7000e+000 105445 -1.6320e+002 -3.7319e+002 -6.1464e+000 32274 105154,105396,105206
 3.7000e+000 105644 -1.2693e+002 -3.5063e+002 -1.5611e+000 31620 105468,105546,105520
 3.7000e+000 105621 -1.0333e+002 -3.7372e+002 -1.3114e+001 31620 105468,105572,105546
 3.7000e+000 105598 -1.2699e+002 -3.8123e+002  2.4389e+001 31620 105468,105520,105494
 3.7000e+000 105794 -5.4228e+001 -3.3929e+002 -9.0833e+000 31158 105889,105817,105693
 3.7000e+000 105771 -7.2787e+001 -3.1330e+002 -2.0184e+001 31158 105817,105667,105745
 3.7000e+000 105843 -6.3098e+001 -4.0457e+002 -2.6057e+000 31158 105719,105693,105817
 3.7000e+000 105866 -4.0464e+001 -3.5535e+002 -1.5827e+001 31158 105719,105817,105745
 3.7000e+000 105915 -9.8864e+001 -3.5842e+002 -9.6004e+000 31158 105667,105817,105889
 3.7000e+000 106270 -1.3927e+002 -3.2655e+002 -4.7900e+000 30818 106293,106071,106045
 3.7000e+000 106247 -1.6308e+002 -3.8051e+002 -2.0560e+001 30818 106293,106045,106175
 3.7000e+000 106224 -1.1615e+002 -2.9865e+002  1.9269e+001 30818 106123,106175,106149
 3.7000e+000 106201 -1.5436e+002 -3.2532e+002  2.7177e+001 30818 106071,106123,106097
 3.7000e+000 106319 -1.4434e+002 -3.0546e+002  1.5728e+001 30818 106123,106071,106293
 3.7000e+000 106342 -1.4895e+002 -3.3379e+002  2.4164e+000 30818 106123,106293,106175
 3.7000e+000 106492 -1.3511e+002 -3.1308e+002  5.9670e+001 30414 106645,106391,106365
 3.7000e+000 106469 -6.7895e+001 -3.1093e+002  8.9760e+001 30414 106515,106365,106443
 3.7000e+000 106541 -9.4314e+001 -3.2126e+002  6.5162e+001 30414 106645,106365,106515
 3.7000e+000 106671 -7.6063e+001 -3.6645e+002  1.0622e+002 30414 106417,106391,106645
 3.7000e+000 106694  2.0519e+001 -3.3900e+002  9.1217e+001 30414 106417,106645,106515
 3.7000e+000 106942 -6.5569e+001 -4.4713e+002 -9.5067e-001 29910 106965,106795,106769
 3.7000e+000 106919 -5.6919e+001 -4.0177e+002  1.2181e+001 29910 106965,106769,106717
 3.7000e+000 106896 -5.8450e+001 -3.3667e+002 -4.6208e+001 29910 106795,106847,106821
 3.7000e+000 106873 -3.2095e+001 -3.4942e+002  2.0943e+001 29910 106717,106769,106743
 3.7000e+000 106991 -9.0594e+001 -3.9857e+002  5.3278e+000 29910 106847,106795,106965
 3.7000e+000 107014 -7.1868e+001 -3.3835e+002  1.7854e+001 29910 106847,106965,106717
 3.7000e+000 107213 -1.0254e+002 -3.4009e+002  1.5112e+001 29413 107236,107063,107037
 3.7000e+000 107190 -8.1839e+001 -4.0431e+002  3.8476e+001 29413 107236,107037,107141
 3.7000e+000 107167 -1.1846e+002 -2.4962e+002  5.2387e+001 29413 107063,107115,107089
 3.7000e+000 107262 -9.0332e+001 -3.0166e+002  1.5216e+001 29413 107115,107063,107236
 3.7000e+000 107285 -5.9878e+001 -3.4844e+002  4.1626e+001 29413 107115,107236,107141
 3.7000e+000 107486 -4.3175e+001 -3.2089e+002  3.9248e+001 29009 107336,107388,107362
 3.7000e+000 107463 -2.5657e+001 -3.1141e+002  1.3938e+001 29009 107310,107388,107336
 3.7000e+000 107440 -2.5642e+001 -2.8798e+002  1.1606e+001 29009 107310,107414,107388
 3.7000e+000 107736 -1.4325e+002 -3.7342e+002 -1.5441e+001 28491 107537,107615,107563
 3.7000e+000 107713 -1.2861e+002 -3.6574e+002 -8.8359e+000 28491 107537,107641,107615
 3.7000e+000 107690 -7.9882e+001 -3.5456e+002  5.7491e+000 28491 107563,107615,107589
 3.7000e+000 107667 -1.3698e+002 -3.6726e+002 -1.1132e+001 28491 107511,107641,107537
 3.7000e+000 108118 -8.4005e+001 -3.5255e+002  1.1456e+001 27980 108141,107922,107844
 3.7000e+000 108095 -6.6469e+001 -3.8886e+002  1.1307e+001 27980 108141,107844,108000
 3.7000e+000 108072 -8.2640e+001 -3.5209e+002 -4.0682e+000 27980 107844,107922,107870
 3.7000e+000 108049 -6.9245e+001 -3.2146e+002 -8.7358e+000 27980 107870,107922,107896
 3.7000e+000 108026 -1.2307e+002 -3.2019e+002  4.1317e+001 27980 107922,107974,107948
 3.7000e+000 108167 -7.3278e+001 -3.4723e+002  1.6368e+001 27980 107974,107922,108141
 3.7000e+000 108190 -2.4402e+001 -3.5236e+002  2.7155e+001 27980 107974,108141,108000
 3.7000e+000 108745 -5.0628e+001 -2.4178e+002 -5.2630e+000 27376 108840,108768,108477
 3.7000e+000 108722 -8.0912e+001 -2.9164e+002 -5.4227e+001 27376 108768,108373,108581
 3.7000e+000 108699 -7.5492e+001 -2.1177e+002  4.0645e+001 27376 108840,108477,108451
 3.7000e+000 108676 -1.7407e+002 -2.5286e+002 -1.3607e+001 27376 108373,108451,108399
 3.7000e+000 108653 -7.7665e+001 -2.9779e+002  3.5489e+001 27376 108503,108581,108529
 3.7000e+000 108630 -8.3867e+001 -2.9082e+002  3.6393e+001 27376 108529,108581,108555
 3.7000e+000 108607 -1.9718e+002 -2.7122e+002  1.9145e+001 27376 108399,108451,108425
 3.7000e+000 108794 -7.6400e+001 -3.2063e+002  7.9189e-001 27376 108503,108477,108768
 3.7000e+000 108817 -2.6916e+001 -2.9263e+002 -1.1104e+001 27376 108503,108768,108581
 3.7000e+000 108866 -1.4405e+002 -2.9573e+002 -2.7162e+001 27376 108373,108768,108840
 3.7000e+000 108889 -1.3944e+002 -2.5649e+002  2.0969e+001 27376 108373,108840,108451
 3.7000e+000 109186 -1.3725e+002 -3.6683e+002  3.8709e+001 26722 109209,108938,108912
 3.7000e+000 109163 -1.2732e+002 -3.4307e+002  3.7056e+001 26722 109281,109209,108912
 3.7000e+000 109140 -1.2181e+002 -3.3362e+002  3.4722e+001 26722 109281,108912,109042
 3.7000e+000 109117 -1.1653e+002 -3.9486e+002  1.7231e+001 26722 108938,108990,108964
 3.7000e+000 109094 -1.7539e+002 -3.0420e+002  2.3634e+001 26722 108912,109068,109042
 3.7000e+000 109235 -1.1769e+002 -3.5431e+002  3.2485e+001 26722 108990,108938,109209
 3.7000e+000 109258 -1.2349e+002 -3.8067e+002  3.0244e+001 26722 108990,109209,109016
 3.7000e+000 109307 -1.1091e+002 -3.5803e+002  1.8754e+001 26722 109016,109209,109281
 3.7000e+000 109330 -1.0091e+002 -3.4145e+002  1.4380e+001 26722 109016,109281,109042
 3.7000e+000 109732 -1.4050e+002 -2.9302e+002 -6.0537e+000 26310 109458,109588,109484
 3.7000e+000 109709 -1.3420e+002 -3.3995e+002 -3.5408e+001 26310 109458,109614,109588
 3.7000e+000 109686 -2.0306e+002 -3.4635e+002  5.1418e+001 26310 109510,109562,109536
 3.7000e+000 109663 -1.9932e+002 -3.2509e+002  1.9946e+001 26310 109484,109562,109510
 3.7000e+000 109640 -1.4555e+002 -2.9776e+002 -1.1948e+000 26310 109484,109588,109562
 3.7000e+000 110159 -9.5178e+001 -3.0964e+002 -1.0522e+001 25642 110182,109940,109914
 3.7000e+000 110136 -8.9420e+001 -3.6002e+002  3.9036e+001 25642 110182,109914,109888
 3.7000e+000 110113 -1.1255e+002 -3.8487e+002 -5.0459e+001 25642 109966,110018,109992
 3.7000e+000 110090 -1.2466e+002 -3.7105e+002  2.7580e+001 25642 110254,109966,109940
 3.7000e+000 110067 -1.6878e+002 -3.5415e+002  1.7467e+001 25642 109862,110018,109888
 3.7000e+000 110044 -1.6166e+002 -3.0058e+002  4.4078e+001 25642 109836,110018,109862
 3.7000e+000 110208 -1.2506e+002 -3.3789e+002  2.0308e+001 25642 110254,109940,110182
 3.7000e+000 110231 -1.3704e+002 -3.6182e+002  4.4090e+001 25642 110018,110182,109888
 3.7000e+000 110280 -1.1143e+002 -4.1203e+002  2.1053e+001 25642 110018,109966,110254
 3.7000e+000 110303 -1.1863e+002 -3.8713e+002  1.4744e+001 25642 110018,110254,110182
 3.7000e+000 110632 -1.4931e+002 -3.1126e+002 -1.8052e+001 25188 110407,110485,110433
 3.7000e+000 110609 -1.8279e+002 -3.1241e+002 -9.1659e+000 25188 110407,110537,110485
 3.7000e+000 110586 -1.7618e+002 -3.2619e+002 -6.1579e+001 25188 110433,110485,110459
 3.7000e+000 110563 -1.6676e+002 -3.2327e+002  3.6779e+001 25188 110485,110537,110511
 3.7000e+000 110831 -3.5991e+001 -3.0605e+002  9.4105e+000 24726 110854,110707,110655
 3.7000e+000 110808 -1.8485e+001 -3.3193e+002  3.5800e+001 24726 110854,110655,110759
 3.7000e+000 110785 -4.9415e+001 -3.1674e+002  1.7607e+001 24726 110655,110707,110681
 3.7000e+000 110880 -2.2614e+001 -2.8140e+002  1.4556e+001 24726 110733,110707,110854
 3.7000e+000 110903  9.3967e-001 -2.9458e+002  4.2844e+001 24726 110733,110854,110759
 3.7000e+000 111234 -8.9309e+000 -2.1462e+002 -6.6720e+000 24222 111257,111087,111035
 3.7000e+000 111211  2.4196e+001 -1.9961e+002  2.2319e+001 24222 111257,111035,111009
 3.7000e+000 111188 -3.4178e+001 -1.1331e+002 -4.8717e+001 24222 111035,111087,111061
 3.7000e+000 111165 -3.1593e+001 -1.7189e+002  4.4554e+000 24222 111087,111139,111113
 3.7000e+000 111283 -2.9919e+001 -1.7934e+002  8.7944e+000 24222 111139,111087,111257
 3.7000e+000 111306 -1.5459e+001 -1.5410e+002  2.7450e+001 24222 111139,111257,111009
 3.7000e+000 111625 -5.8283e+001 -3.1981e+002 -1.8703e+001 23732 111648,111481,111455
 3.7000e+000 111602 -6.0168e+001 -3.2380e+002 -1.8009e+001 23732 111648,111455,111377
 3.7000e+000 111579  2.2531e+001 -1.7877e+002  3.2012e+001 23732 111377,111429,111403
 3.7000e+000 111556 -3.5330e+001 -3.2788e+002 -7.4154e+000 23732 111377,111455,111429
 3.7000e+000 111533 -5.0888e+001 -2.9436e+002 -6.2615e+000 23732 111351,111507,111377
 3.7000e+000 111674 -6.0157e+001 -3.1327e+002 -1.4078e+001 23732 111507,111481,111648
 3.7000e+000 111697 -6.3687e+001 -3.2135e+002 -1.3495e+001 23732 111507,111648,111377
 3.7000e+000 112156 -8.6595e+001 -3.5960e+002  2.5516e+001 23278 112179,111908,111882
 3.7000e+000 112133 -8.1206e+001 -3.3359e+002  1.3753e+001 23278 112179,111882,112012
 3.7000e+000 112110 -3.0388e+001 -3.8996e+002  1.3791e+000 23278 111908,111960,111934
 3.7000e+000 112087 -3.4226e+001 -2.9112e+002 -5.3896e+000 23278 111882,112038,112012
 3.7000e+000 112064 -7.2237e+001 -3.0145e+002 -4.6842e+000 23278 111960,112012,111986
 3.7000e+000 112205 -8.2629e+001 -3.4713e+002  4.0387e+000 23278 111960,111908,112179
 3.7000e+000 112228 -6.9889e+001 -3.1789e+002 -9.3845e+000 23278 111960,112179,112012
 3.7000e+000 112685 -2.3486e+002 -5.0643e+002 -4.9663e+001 22938 112489,112567,112541
 3.7000e+000 112662 -2.0472e+002 -4.4022e+002 -4.2392e+001 22938 112437,112567,112489
 3.7000e+000 112639 -1.3698e+002 -3.7872e+002 -5.7109e+000 22938 112489,112541,112515
 3.7000e+000 112616 -2.3433e+002 -4.2415e+002 -3.8739e+001 22938 112411,112567,112437
 3.7000e+000 112593 -1.8155e+002 -5.4357e+002 -1.3530e+001 22938 112437,112489,112463
 3.7000e+000 113191 -1.5577e+001 -3.5102e+002 -4.3121e+001 22534 113214,112998,112946
 3.7000e+000 113168 -6.5388e+001 -3.1383e+002 -2.2323e+001 22534 113286,113214,112946
 3.7000e+000 113145 -4.7701e+001 -3.1476e+002 -1.8033e+001 22534 113286,112946,112920
 3.7000e+000 113122 -1.4185e+002 -2.8628e+002 -6.0684e+001 22534 113358,113024,112998
 3.7000e+000 113099 -8.5527e+001 -3.0154e+002 -1.0442e+001 22534 112868,113050,112894
 3.7000e+000 113076 -1.0469e+002 -5.2883e+002 -8.6272e+001 22534 112946,112998,112972
 3.7000e+000 113240 -1.0445e+002 -3.6126e+002 -6.4613e+001 22534 113358,112998,113214
 3.7000e+000 113263 -8.3891e+001 -3.2811e+002 -1.3839e+001 22534 113050,113214,112894
 3.7000e+000 113312 -4.2680e+001 -3.1005e+002 -1.7123e+001 22534 112894,113214,113286
 3.7000e+000 113335 -2.4273e+001 -3.1222e+002 -1.6026e+001 22534 112894,113286,112920
 3.7000e+000 113384 -1.0026e+002 -2.1866e+002 -4.3101e+001 22534 113050,113024,113358
 3.7000e+000 113407 -4.6269e+001 -2.8025e+002 -3.8971e+001 22534 113050,113358,113214
 3.7000e+000 113785 -1.7008e+002 -4.2715e+002  7.5745e+000 21978 113808,113615,113511
 3.7000e+000 113762 -1.3850e+002 -4.3240e+002  2.6957e+001 21978 113808,113511,113667
 3.7000e+000 113739 -1.0952e+002 -3.6820e+002 -1.7214e+001 21978 113511,113615,113537
 3.7000e+000 113716  3.1755e+001 -3.2795e+002 -3.4942e+001 21978 113537,113615,113589
 3.7000e+000 113693 -5.3935e+001 -4.7047e+002  6.3285e+000 21978 113537,113589,113563
 3.7000e+000 113834 -1.7536e+002 -4.2668e+002  4.6942e+001 21978 113641,113615,113808
 3.7000e+000 113857 -9.3449e+001 -3.9516e+002  6.9993e+001 21978 113641,113808,113667
 3.7000e+000 114284 -1.2491e+002 -3.5651e+002  7.1402e+000 21517 114013,114117,114039
 3.7000e+000 114261 -1.3909e+002 -3.5429e+002  2.7151e+001 21517 113961,114117,114013
 3.7000e+000 114238 -1.3742e+002 -3.6357e+002  2.6433e+001 21517 113961,114013,113987
 3.7000e+000 114215 -1.9788e+002 -4.0509e+002 -2.7829e+001 21517 114039,114117,114091
 3.7000e+000 114192 -1.4124e+002 -3.0309e+002  3.2463e+001 21517 113961,114143,114117
 3.7000e+000 114169 -3.1880e+001 -3.4816e+002 -3.1372e+001 21517 114039,114091,114065
 3.7000e+000 114581 -8.0858e+001 -4.2698e+002  5.3300e+000 21027 114359,114463,114437
 3.7000e+000 114558 -4.8727e+001 -3.8801e+002  5.0082e+001 21027 114333,114463,114359
 3.7000e+000 114535 -4.1049e+001 -3.9113e+002 -9.8521e+000 21027 114359,114437,114385
 3.7000e+000 114512 -3.2964e+001 -3.8425e+002  4.1014e+001 21027 114307,114463,114333
 3.7000e+000 114489  4.4129e+001 -3.6380e+002 -1.8078e+001 21027 114385,114437,114411
 3.7000e+000 114912 -1.6734e+002 -3.6630e+002  3.9478e+000 20623 114713,114791,114765
 3.7000e+000 114889 -1.1688e+002 -3.4565e+002 -2.6597e+001 20623 114687,114791,114713
 3.7000e+000 114866 -8.4413e+001 -3.8697e+002 -2.8705e+001 20623 114687,114817,114791
 3.7000e+000 114843 -2.4260e+002 -4.4200e+002  3.5939e+001 20623 114713,114765,114739
 3.7000e+000 115290 -4.7153e+001 -3.2527e+002  1.7300e+001 20375 115313,115146,115094
 3.7000e+000 115267 -7.3376e+001 -3.1131e+002  3.1552e+001 20375 115313,115094,115042
 3.7000e+000 115244 -9.4471e+001 -2.9965e+002  1.0294e+001 20375 115385,115016,115172
 3.7000e+000 115221 -3.1653e+001 -2.9213e+002  2.6413e+001 20375 115042,115094,115068
 3.7000e+000 115198 -7.1004e+001 -3.8801e+002  2.1715e+001 20375 115094,115146,115120
 3.7000e+000 115339 -1.0079e+002 -3.8005e+002 -1.0164e+001 20375 115172,115146,115313
 3.7000e+000 115362 -5.8155e+001 -3.0879e+002  1.2256e+001 20375 115385,115172,115313
 3.7000e+000 115411 -1.1494e+002 -3.1015e+002  1.3965e+001 20375 115042,115016,115385
 3.7000e+000 115434 -9.7287e+001 -3.3160e+002  2.1654e+001 20375 115042,115385,115313
 3.7000e+000 115891 -1.6697e+002 -3.2941e+002  4.0367e+001 19971 115617,115747,115643
 3.7000e+000 115868 -1.4263e+002 -2.6942e+002  3.7151e+001 19971 115617,115773,115747
 3.7000e+000 115845 -1.0422e+002 -4.9425e+002  5.8466e+000 19971 115643,115721,115695
 3.7000e+000 115822 -3.1351e+000 -2.4708e+002 -2.4851e+000 19971 115643,115747,115721
 3.7000e+000 115799 -8.9052e+001 -6.1016e+002 -5.0462e+001 19971 115643,115695,115669
 3.7000e+000 115992 -2.5117e+002 -6.4067e+002 -1.0830e+002 19659 115914,115966,115940
 3.7000e+000 116142 -3.4531e+001 -1.3902e+002  3.4828e+000 18997 116041,116093,116067
 3.7000e+000 116119 -7.2765e+001 -2.3717e+002  1.3736e+001 18997 116015,116093,116041
 3.7000e+000 116343 -6.2847e+001 -3.7129e+002 -1.1100e+001 18707 116193,116245,116219
 3.7000e+000 116320 -1.4274e+002 -4.0528e+002 -1.6702e+001 18707 116193,116271,116245
 3.7000e+000 116297 -1.2875e+002 -3.6185e+002 -2.5703e+001 18707 116167,116271,116193
 3.7000e+000 116747 -6.2655e+001 -3.4096e+002 -6.0165e+000 18301 116525,116629,116551
 3.7000e+000 116724 -3.7702e+001 -2.8952e+002  8.1709e+000 18301 116473,116629,116525
 3.7000e+000 116701 -2.6926e+001 -2.8307e+002 -1.4178e+001 18301 116473,116525,116499
 3.7000e+000 116678 -5.2643e+001 -3.5392e+002 -4.4113e+000 18301 116551,116603,116577
 3.7000e+000 116655 -7.3446e+001 -3.6632e+002 -1.0183e+001 18301 116551,116629,116603
 3.7000e+000 117147 -1.8203e+002 -4.0492e+002 -1.6002e+000 17747 116899,117029,116925
 3.7000e+000 117124 -1.0148e+002 -2.9752e+002  3.9846e+001 17747 116873,117029,116899
 3.7000e+000 117101 -1.7965e+002 -4.0075e+002 -6.1525e-001 17747 116925,117029,116951
 3.7000e+000 117078 -1.5867e+002 -3.5010e+002 -1.8802e+000 17747 116951,117029,117003
 3.7000e+000 117055 -2.0581e+002 -4.5174e+002 -2.8157e+001 17747 116951,117003,116977
 3.7000e+000 117368  2.3535e+001 -3.7374e+002  8.3478e+000 17293 117244,117296,117270
 3.7000e+000 117345 -2.4879e+001 -3.8710e+002 -5.1337e+000 17293 117192,117296,117244
 3.7000e+000 117322 -6.3792e+001 -3.6381e+002 -4.2331e+000 17293 117192,117244,117218
 3.7000e+000 117699 -3.2944e+001 -2.9936e+002 -3.6580e+001 16896 117526,117604,117552
 3.7000e+000 117676 -1.9819e+002 -4.6075e+002  2.8767e+001 16896 117500,117604,117526
 3.7000e+000 117653 -2.0992e+002 -3.6538e+002 -1.8446e+001 16896 117552,117604,117578
 3.7000e+000 117630 -1.8147e+002 -5.9558e+002  4.9679e+001 16896 117474,117604,117500
 3.7000e+000 117849 -4.2776e+002 -8.1955e+002 -3.1339e+001 16534 117722,117774,117748
 3.7000e+000 117826 -3.3820e+002 -9.9842e+002 -1.3445e+002 16534 117722,117800,117774
 3.7000e+000 118070 -5.4686e+000 -3.8715e+002  4.9101e+001 16194 117946,117998,117972
 3.7000e+000 118047 -6.6678e+001 -4.3803e+002  2.0007e+001 16194 117894,117998,117946
 3.7000e+000 118024 -2.2304e+002 -4.4771e+002 -2.8852e-001 16194 117894,117946,117920
 3.7000e+000 118173 -4.6439e+001 -3.8700e+002  0.0000e+000 15968 118095,118147,118121
 3.7000e+000 118276 -1.1834e+002 -4.0659e+002  1.6037e+000 15433 118299,118198,118250
 3.7000e+000 118325 -1.1944e+002 -4.0916e+002  1.6291e+000 15433 118224,118198,118299
 3.7000e+000 118450 -2.0019e+002 -4.3933e+002  4.3560e+001 421 118372,118424,118398
 3.8000e+000 69891 -8.5517e+001 -4.9048e+002  1.8077e+001 68988 69447,69681,69629
 3.8000e+000 69868  3.2235e+001 -4.4064e+002  1.6361e+001 68988 69421,69681,69447
 3.8000e+000 69845  4.6518e-001 -2.4478e+002  1.0272e+000 68988 69447,69629,69577
 3.8000e+000 69822 -1.4194e+002 -5.1239e+002 -5.6963e+001 68988 69447,69577,69473
 3.8000e+000 69799 -2.2623e+001 -5.8362e+002  9.4064e+001 68988 69629,69681,69655
 3.8000e+000 69776 -1.5369e+002 -3.1161e+002  7.9271e+000 68988 69577,69629,69603
 3.8000e+000 69753 -1.1199e+002 -4.5531e+002 -6.8599e+001 68988 69473,69577,69551
 3.8000e+000 69730 -1.6814e+002 -9.1008e+002 -9.1366e+001 68988 69473,69551,69525
 3.8000e+000 69707 -2.8183e+002 -6.0407e+002  8.1955e-001 68988 69473,69525,69499
 3.8000e+000 69992 -2.7523e+002 -5.2680e+002 -6.9185e+001 68676 69914,69966,69940
 3.8000e+000 70392 -1.9190e+002 -4.0440e+002  3.1222e+001 68478 70118,70248,70144
 3.8000e+000 70369  1.1907e+001 -4.0970e+002  8.8694e+001 68478 70118,70274,70248
 3.8000e+000 70346 -1.1525e+002 -3.0491e+002 -5.9419e-001 68478 70144,70222,70196
 3.8000e+000 70323 -9.7128e+001 -2.5757e+002 -1.2572e+001 68478 70144,70248,70222
 3.8000e+000 70300 -1.2661e+002 -3.3609e+002 -6.2230e+000 68478 70144,70196,70170
 3.8000e+000 70841  6.8143e+001 -2.7243e+002 -7.5327e+001 68280 70570,70622,70596
 3.8000e+000 70818 -1.3561e+002 -3.1220e+002 -1.7847e+001 68280 70544,70622,70570
 3.8000e+000 70795 -9.9369e+001 -2.3120e+002 -1.0337e+001 68280 70544,70674,70622
 3.8000e+000 70772 -8.5357e+001 -2.0527e+002  4.4760e+000 68280 70622,70674,70648
 3.8000e+000 70749 -1.4293e+002 -3.5011e+002  2.6723e+001 68280 70518,70674,70544
 3.8000e+000 70726  1.2586e+002 -3.6308e+002  1.0522e+002 68280 70518,70700,70674
 3.8000e+000 70991 -1.6725e+001 -1.4729e+003  4.3888e+001 67968 70864,70916,70890
 3.8000e+000 70968 -3.9103e+002 -1.4620e+003  1.6970e+002 67968 70864,70942,70916
 3.8000e+000 71141 -6.8201e+002 -1.2990e+003 -6.3502e+001 67770 71040,71092,71066
 3.8000e+000 71118 -5.9478e+002 -1.5624e+003  6.7423e+001 67770 71014,71092,71040
 3.8000e+000 71651 -9.2060e+001 -2.7987e+002 -4.8563e+001 67366 71746,71674,71458
 3.8000e+000 71628 -5.7545e+001 -2.2671e+002 -5.1123e+001 67366 71674,71354,71510
 3.8000e+000 71605 -8.0709e+001 -3.1040e+002 -4.5684e+001 67366 71746,71458,71432
 3.8000e+000 71582 -1.2881e+002 -3.1618e+002  1.5047e+001 67366 71354,71432,71380
 3.8000e+000 71559 -1.4083e+002 -2.3145e+002 -2.5744e+001 67366 71380,71432,71406
 3.8000e+000 71536 -6.3839e+001 -9.1914e+001 -4.8170e+000 67366 71328,71510,71354
 3.8000e+000 71700 -1.0359e+002 -2.5277e+002 -2.1455e+001 67366 71484,71458,71674
 3.8000e+000 71723 -6.7951e+001 -2.3658e+002 -1.7259e+001 67366 71484,71674,71510
 3.8000e+000 71772 -7.8377e+001 -2.4369e+002 -4.1735e+001 67366 71354,71674,71746
 3.8000e+000 71795 -6.6517e+001 -2.7122e+002 -4.2405e+001 67366 71354,71746,71432
 3.8000e+000 71896 -2.7985e+002 -5.9663e+002  0.0000e+000 67146 71818,71870,71844
 3.8000e+000 71997 -3.6064e+002 -4.8519e+002  9.6960e+001 66948 71919,71971,71945
 3.8000e+000 72149 -9.2455e+000 -3.5634e+002 -4.1152e+001 66700 72172,72074,72048
 3.8000e+000 72126 -1.1602e+002 -3.9887e+002 -1.6141e+001 66700 72172,72048,72022
 3.8000e+000 72198 -1.8898e+002 -4.4142e+002  2.9826e+001 66700 72244,72172,72100
 3.8000e+000 72221 -1.7058e+002 -4.0385e+002 -2.5328e+001 66700 72100,72172,72022
 3.8000e+000 72270 -9.4734e+001 -2.3571e+002 -2.7941e+001 66700 72074,72172,72244
 3.8000e+000 72623 -1.2508e+002 -3.6953e+002  9.8366e+000 66502 72424,72502,72450
 3.8000e+000 72600 -1.0298e+002 -3.0890e+002  6.2262e+000 66502 72398,72502,72424
 3.8000e+000 72577 -7.5106e+001 -3.5284e+002 -6.9432e+000 66502 72398,72528,72502
 3.8000e+000 72554 -1.2561e+002 -3.2746e+002 -2.5100e+000 66502 72450,72502,72476
 3.8000e+000 72920 -2.0706e+002 -4.3025e+002  1.0522e+001 65941 72672,72776,72750
 3.8000e+000 72897 -2.0833e+002 -3.7088e+002  4.0907e+001 65941 72646,72776,72672
 3.8000e+000 72874 -1.8016e+002 -4.2215e+002  1.3232e+001 65941 72672,72750,72724
 3.8000e+000 72851 -1.8013e+002 -3.3473e+002  2.9501e+001 65941 72672,72724,72698
 3.8000e+000 72828 -1.6257e+002 -3.7662e+002  4.0374e+001 65941 72646,72802,72776
 3.8000e+000 73241 -4.6851e+001 -3.1041e+002  2.1026e+001 65743 73264,73071,73045
 3.8000e+000 73218 -1.2482e+002 -3.4605e+002  2.9863e+001 65743 73480,73264,73045
 3.8000e+000 73195 -1.0533e+002 -3.1713e+002 -4.7974e+000 65743 73336,72967,73097
 3.8000e+000 73172 -1.8569e+002 -2.8967e+002 -3.4093e+001 65743 73408,72993,72967
 3.8000e+000 73149 -9.1117e+001 -3.1658e+002 -4.5900e+000 65743 72967,73123,73097
 3.8000e+000 73290 -7.7198e+001 -3.2547e+002  5.2531e+000 65743 73097,73071,73264
 3.8000e+000 73313 -8.9216e+001 -3.0047e+002  1.2584e+001 65743 73336,73097,73264
 3.8000e+000 73362 -1.5901e+002 -3.2595e+002 -2.3354e+001 65743 73408,72967,73336
 3.8000e+000 73385 -7.4889e+001 -2.9711e+002 -1.9944e+000 65743 73019,73336,73264
 3.8000e+000 73434 -1.4124e+002 -2.2386e+002  1.5905e+001 65743 73019,72993,73408
 3.8000e+000 73457 -7.8446e+001 -2.7106e+002  1.0303e+001 65743 73019,73408,73336
 3.8000e+000 73506 -5.2543e+001 -2.2119e+002  4.3154e-001 65743 73019,73264,73480
 3.8000e+000 73989 -8.6168e+000 -2.4357e+002  2.9949e+001 65453 73793,73845,73819
 3.8000e+000 73966 -1.2716e+002 -2.7477e+002  3.4655e+001 65453 73741,73845,73793
 3.8000e+000 73943 -2.7716e+001 -2.1995e+002  1.3343e+001 65453 73715,73845,73741
 3.8000e+000 73920 -9.9161e+001 -2.9037e+002  5.7285e+001 65453 73741,73793,73767
 3.8000e+000 73897  9.7728e+000 -1.3797e+002  3.0901e+000 65453 73715,73871,73845
 3.8000e+000 74357 -7.5997e+001 -3.2291e+002 -8.7888e+001 65141 74380,74138,74086
 3.8000e+000 74334 -1.4111e+002 -4.3168e+002 -5.9381e+001 65141 74380,74086,74060
 3.8000e+000 74311 -1.6120e+002 -4.2094e+002 -1.4597e+001 65141 74138,74190,74164
 3.8000e+000 74288 -1.1727e+002 -4.6811e+002 -1.8045e+001 65141 74060,74216,74190
 3.8000e+000 74265 -1.2539e+002 -4.9462e+002  7.5600e+000 65141 74034,74216,74060
 3.8000e+000 74242 -1.0657e+002 -2.6774e+002 -6.2555e+001 65141 74086,74138,74112
 3.8000e+000 74406 -1.1605e+002 -4.1973e+002 -3.5233e+001 65141 74190,74138,74380
 3.8000e+000 74429 -1.3620e+002 -4.5719e+002 -1.6616e+001 65141 74190,74380,74060
 3.8000e+000 74937 -1.5818e+002 -3.2153e+002 -8.3840e+001 64737 74614,74666,74640
 3.8000e+000 74914 -1.9450e+002 -4.0056e+002 -6.1754e+001 64737 74614,74796,74666
 3.8000e+000 74891 -1.4245e+002 -2.8280e+002 -1.2044e+001 64737 74960,74718,74666
 3.8000e+000 74868 -1.2341e+002 -3.0999e+002 -3.8336e+001 64737 74960,74666,74770
 3.8000e+000 74845 -1.2491e+002 -2.4562e+002 -3.9846e+001 64737 74666,74796,74770
 3.8000e+000 74822 -1.4120e+002 -3.0676e+002  2.9112e+000 64737 74666,74718,74692
 3.8000e+000 74986 -1.5392e+002 -3.1066e+002 -1.0480e+001 64737 74744,74718,74960
 3.8000e+000 75009 -1.4125e+002 -3.5147e+002 -3.7248e+001 64737 74744,74960,74770
 3.8000e+000 75306 -6.9987e+001 -2.8040e+002  3.9933e+001 64133 75329,75110,75084
 3.8000e+000 75283 -8.7470e+001 -3.3048e+002  1.0990e+001 64133 75401,75329,75084
 3.8000e+000 75260 -8.0464e+001 -3.3958e+002  1.6439e+001 64133 75401,75084,75058
 3.8000e+000 75237 -9.0819e+001 -3.9757e+002  5.0731e+001 64133 75473,75136,75110
 3.8000e+000 75214 -9.6092e+001 -3.0515e+002  3.3511e+000 64133 75032,75188,75162
 3.8000e+000 75355 -1.0728e+002 -3.6785e+002  3.8855e+001 64133 75473,75110,75329
 3.8000e+000 75378 -8.0324e+001 -3.1457e+002  3.1828e+000 64133 75162,75329,75032
 3.8000e+000 75427 -7.6401e+001 -3.0475e+002  1.3906e+000 64133 75032,75329,75401
 3.8000e+000 75450 -1.4505e+002 -3.7807e+002  3.9593e+001 64133 75545,75401,75058
 3.8000e+000 75499 -8.0269e+001 -3.5976e+002  1.4479e+001 64133 75162,75136,75473
 3.8000e+000 75522 -9.3460e+001 -3.0874e+002  1.2081e+001 64133 75162,75473,75329
 3.8000e+000 75571 -6.9607e+001 -2.1291e+002  1.1147e+001 64133 75032,75401,75545
 3.8000e+000 75851 -1.1831e+002 -3.0817e+002  4.4950e+000 63843 75874,75753,75727
 3.8000e+000 75828 -1.0238e+002 -3.0854e+002 -1.8909e+001 63843 75946,75874,75727
 3.8000e+000 75805 -1.1771e+002 -3.3081e+002 -8.9339e+000 63843 76018,75946,75727
 3.8000e+000 75900 -8.7415e+001 -2.9506e+002 -8.8541e+000 63843 75779,75753,75874
 3.8000e+000 75923 -9.4928e+001 -2.5432e+002 -3.6542e+001 63843 75779,75874,75675
 3.8000e+000 75972 -1.1727e+002 -2.8918e+002 -1.4898e+001 63843 75675,75874,75946
 3.8000e+000 75995 -1.0486e+002 -3.0386e+002 -2.5177e+001 63843 75675,75946,75701
 3.8000e+000 76044 -1.1822e+002 -3.1618e+002 -3.1414e+001 63843 75701,75946,76018
 3.8000e+000 76454  2.7195e+001 -5.7226e+001 -3.9619e+001 63439 76477,76255,76229
 3.8000e+000 76431 -2.6254e+001 -1.5043e+002 -6.2840e+000 63439 76477,76229,76359
 3.8000e+000 76408 -4.2452e+001 -1.1734e+002  6.4593e+001 63439 76307,76359,76333
 3.8000e+000 76385 -2.0110e+001 -1.5792e+002  8.6957e+000 63439 76255,76307,76281
 3.8000e+000 76503 -2.4861e+001 -1.2981e+002  1.6374e+001 63439 76307,76255,76477
 3.8000e+000 76526 -2.4351e+001 -1.6719e+002  4.0146e+001 63439 76307,76477,76359
 3.8000e+000 76926 -6.8178e+001 -2.3256e+002 -5.5508e+000 63049 76704,76782,76756
 3.8000e+000 76903 -1.0375e+002 -2.4292e+002 -2.3652e+001 63049 76704,76808,76782
 3.8000e+000 76880 -7.3698e+001 -2.7295e+002  3.7155e+000 63049 76704,76756,76730
 3.8000e+000 76857 -6.4520e+001 -1.5794e+002  9.4839e+000 63049 76678,76808,76704
 3.8000e+000 76834 -3.1501e+001 -3.8290e+001 -3.5997e+001 63049 76652,76808,76678
 3.8000e+000 77076 -2.2683e+001 -3.5480e+002 -2.1506e+000 62737 76975,77027,77001
 3.8000e+000 77053 -2.1871e+001 -3.9985e+002 -2.6024e+001 62737 76949,77027,76975
 3.8000e+000 77324 -1.5423e+002 -3.6041e+002 -5.1778e+000 62277 77347,77177,77125
 3.8000e+000 77301 -1.5244e+002 -3.4909e+002 -2.1984e+001 62277 77347,77125,77229
 3.8000e+000 77278 -1.4675e+002 -3.6019e+002 -2.9233e+001 62277 77099,77229,77125
 3.8000e+000 77255 -1.5763e+002 -4.3524e+002  1.7384e+000 62277 77125,77177,77151
 3.8000e+000 77373 -1.6334e+002 -3.9312e+002  7.4096e+000 62277 77203,77177,77347
 3.8000e+000 77396 -1.4239e+002 -3.6400e+002 -1.2597e+001 62277 77203,77347,77229
 3.8000e+000 77857 -7.0754e+001 -4.4873e+002  4.2672e+000 61758 77635,77739,77661
 3.8000e+000 77834 -1.1228e+002 -4.2846e+002 -1.8575e+001 61758 77583,77739,77635
 3.8000e+000 77811 -1.3392e+002 -5.4408e+002 -5.2632e+001 61758 77583,77635,77609
 3.8000e+000 77788 -1.0905e+002 -4.1954e+002  3.3738e+001 61758 77661,77713,77687
 3.8000e+000 77765 -1.0899e+002 -4.8853e+002  3.5666e+001 61758 77661,77739,77713
 3.8000e+000 78491 -1.2049e+002 -2.5089e+002  1.5370e+001 61418 78171,78301,78249
 3.8000e+000 78468 -1.0129e+002 -2.1207e+002  3.0537e+001 61418 78145,78301,78171
 3.8000e+000 78445 -9.0184e+001 -2.2130e+002 -1.3046e+001 61418 78171,78249,78223
 3.8000e+000 78422 -9.5764e+001 -2.0928e+002  1.3910e+001 61418 78145,78327,78301
 3.8000e+000 78399 -1.2310e+002 -2.7474e+002  4.3572e-001 61418 78249,78301,78275
 3.8000e+000 78376 -5.6124e+001 -2.3418e+002 -1.9120e+001 61418 78171,78223,78197
 3.8000e+000 78353 -1.1912e+002 -2.6975e+002 -3.3521e+000 61418 78119,78327,78145
 3.8000e+000 78690 -1.3293e+002 -3.0926e+002 -5.5708e+000 61014 78713,78566,78540
 3.8000e+000 78667 -8.6047e+001 -3.1369e+002 -2.9235e+000 61014 78713,78540,78618
 3.8000e+000 78644 -1.4851e+002 -3.5483e+002 -3.5021e+001 61014 78514,78618,78540
 3.8000e+000 78739 -6.6611e+001 -3.0057e+002  3.0643e+001 61014 78592,78566,78713
 3.8000e+000 78762 -7.7517e+001 -3.3325e+002  3.1948e-001 61014 78785,78713,78618
 3.8000e+000 78811 -2.5412e+001 -3.1300e+002 -5.6497e+000 61014 78592,78713,78785
 3.8000e+000 79398 -5.9094e+001 -2.6548e+002 -2.7896e+001 60624 79101,79179,79153
 3.8000e+000 79375 -7.9139e+001 -2.9852e+002 -1.3871e+001 60624 79101,79231,79179
 3.8000e+000 79352 -6.3996e+001 -2.9958e+002 -2.3935e+001 60624 79075,79231,79101
 3.8000e+000 79329 -1.9024e+001 -3.6493e+002  4.2745e+001 60624 79075,79257,79231
 3.8000e+000 79306 -5.7350e+001 -2.1840e+002 -5.0725e+001 60624 79179,79231,79205
 3.8000e+000 79283 -4.5233e+001 -2.3492e+002 -1.6659e+001 60624 79101,79153,79127
 3.8000e+000 79776 -1.4276e+002 -3.9751e+002  3.9741e+001 60070 79528,79658,79606
 3.8000e+000 79753 -1.2465e+002 -3.0449e+002  1.5221e+000 60070 79502,79658,79528
 3.8000e+000 79730 -1.7537e+002 -3.8236e+002  5.6651e+001 60070 79528,79606,79580
 3.8000e+000 79707 -3.7919e+001 -3.2987e+002  7.5936e+000 60070 79606,79658,79632
 3.8000e+000 79684 -1.4646e+001 -2.3389e+002 -6.1828e+001 60070 79528,79580,79554
 3.8000e+000 80105 -9.6526e+001 -3.0200e+002  4.2000e+001 59758 80128,79958,79906
 3.8000e+000 80082 -1.0854e+002 -2.8849e+002  3.4427e+001 59758 80128,79906,80010
 3.8000e+000 80059 -1.4380e+002 -3.1687e+002  1.1392e+002 59758 79906,79958,79932
 3.8000e+000 80036 -1.6862e+002 -3.3909e+002  1.2246e+001 59758 79880,80010,79906
 3.8000e+000 80154 -1.0325e+002 -3.1028e+002  3.8536e+001 59758 79984,79958,80128
 3.8000e+000 80177 -1.1577e+002 -2.9969e+002  3.0373e+001 59758 79984,80128,80010
 3.8000e+000 80376 -8.1960e+001 -3.0581e+002  6.3467e+000 59312 80226,80304,80252
 3.8000e+000 80353 -8.5250e+001 -3.0853e+002  5.0260e+000 59312 80200,80304,80226
 3.8000e+000 80330 -1.2814e+002 -2.7586e+002  8.2047e+001 59312 80252,80304,80278
 3.8000e+000 80805 -1.0387e+002 -2.4463e+002 -3.6556e+001 58908 80900,80828,80638
 3.8000e+000 80782 -8.8180e+001 -2.8795e+002 -5.6039e+001 58908 80828,80560,80508
 3.8000e+000 80759 -1.0909e+002 -2.3093e+002 -1.3507e+001 58908 80900,80638,80612
 3.8000e+000 80736 -4.6171e+001 -2.4530e+002  1.0203e+002 58908 80482,80664,80508
 3.8000e+000 80713 -7.0969e+001 -2.1330e+002 -8.7389e+000 58908 80560,80612,80586
 3.8000e+000 80690 -1.0113e+002 -7.1210e+002 -1.3473e+002 58908 80508,80560,80534
 3.8000e+000 80854 -4.7416e+001 -2.6422e+002  1.6302e+000 58908 80664,80638,80828
 3.8000e+000 80877 -8.2670e+001 -3.7803e+002  6.3105e+000 58908 80664,80828,80508
 3.8000e+000 80926 -8.8207e+001 -2.0326e+002 -3.9928e+001 58908 80560,80828,80900
 3.8000e+000 80949 -9.9549e+001 -2.0370e+002 -1.3680e+001 58908 80560,80900,80612
 3.8000e+000 81246 -4.0390e+001 -2.2987e+002 -6.4027e+000 58482 81076,81128,81102
 3.8000e+000 81223 -1.0549e+002 -3.9806e+002 -4.0324e+001 58482 80972,81128,81076
 3.8000e+000 81200 -6.5893e+001 -2.7040e+002 -4.3680e+001 58482 80972,81076,81050
 3.8000e+000 81177 -1.5121e+002 -4.1483e+002 -9.7856e+000 58482 80998,81050,81024
 3.8000e+000 81154 -7.9374e+001 -3.3862e+002 -3.9981e+001 58482 80972,81050,80998
 3.8000e+000 81754 -1.1641e+002 -2.4465e+002  2.1320e+001 57828 81457,81613,81483
 3.8000e+000 81731 -1.2970e+002 -2.6743e+002  1.0785e+001 57828 81431,81613,81457
 3.8000e+000 81708 -1.2692e+002 -2.6920e+002  2.1754e+001 57828 81483,81613,81509
 3.8000e+000 81685 -1.4967e+002 -3.0210e+002  3.1755e+001 57828 81509,81613,81587
 3.8000e+000 81662 -1.5878e+002 -4.4975e+002  6.3284e+001 57828 81509,81587,81535
 3.8000e+000 81639 -9.3228e+001 -4.2860e+002  4.0996e+001 57828 81535,81587,81561
 3.8000e+000 82002 -1.9281e+002 -4.6580e+002 -4.7688e-001 57374 82025,81855,81829
 3.8000e+000 81979 -2.0659e+002 -4.4199e+002  1.9677e+001 57374 82025,81829,81907
 3.8000e+000 81956 -2.1164e+002 -4.1115e+002  1.2451e+001 57374 81803,81907,81829
 3.8000e+000 81933 -1.3032e+002 -3.8319e+002  1.4538e+001 57374 81777,81907,81803
 3.8000e+000 82051 -1.8407e+002 -4.3703e+002 -5.0432e+000 57374 81881,81855,82025
 3.8000e+000 82074 -1.9894e+002 -4.1931e+002  2.1133e+001 57374 81881,82025,81907
 3.8000e+000 82356 -9.8897e+001 -2.4101e+002 -1.8127e+001 56913 82180,82232,82206
 3.8000e+000 82333 -8.3377e+001 -2.2790e+002  2.6831e+001 56913 82180,82284,82232
 3.8000e+000 82310 -2.7257e+001 -1.8887e+002  4.7703e+001 56913 82379,82232,82284
 3.8000e+000 82405  3.4022e+001 -1.8435e+002  4.4216e+000 56913 82258,82232,82379
 3.8000e+000 82764 -1.0096e+002 -1.6051e+002 -1.6571e+001 56523 82614,82666,82640
 3.8000e+000 82741 -8.6160e+001 -1.6201e+002 -2.4443e+001 56523 82614,82692,82666
 3.8000e+000 82718 -7.4270e+001 -1.7512e+002 -5.1922e+001 56523 82588,82692,82614
 3.8000e+000 83368 -3.0449e+001 -3.1735e+002 -1.4682e+001 55969 82973,83155,83129
 3.8000e+000 83345  2.7716e+000 -3.0413e+002 -2.1608e+001 55969 82973,83181,83155
 3.8000e+000 83322 -8.6630e+001 -2.7796e+002 -1.3066e+001 55969 82973,83129,82999
 3.8000e+000 83299 -1.4042e+002 -2.8910e+002  1.0090e+001 55969 83391,83025,82999
 3.8000e+000 83276 -1.1861e+002 -2.9663e+002  2.3049e+000 55969 83391,82999,83129
 3.8000e+000 83253 -2.7817e+001 -2.4906e+002  5.2916e+001 55969 83077,83129,83103
 3.8000e+000 83230 -1.4745e+002 -2.3564e+002 -9.0719e+000 55969 83025,83077,83051
 3.8000e+000 83207 -3.4921e+000 -2.9259e+002  2.8564e+001 55969 82947,83181,82973
 3.8000e+000 83417 -1.1930e+002 -2.7782e+002  1.4730e+001 55969 83077,83025,83391
 3.8000e+000 83440 -1.1165e+002 -2.9189e+002  4.4261e+000 55969 83077,83391,83129
 3.8000e+000 83946 -1.9353e+002 -4.3832e+002  6.9031e+001 55771 83969,83779,83727
 3.8000e+000 83923 -1.5011e+002 -3.5008e+002  4.3820e+001 55771 83969,83727,83623
 3.8000e+000 83900 -1.8983e+002 -1.8260e+002  2.6534e+001 55771 83623,83727,83649
 3.8000e+000 83877 -1.5688e+002 -7.7532e+002  2.7706e+001 55771 83727,83779,83753
 3.8000e+000 83854 -3.3225e+002 -2.9222e+002  1.2686e+002 55771 83675,83727,83701
 3.8000e+000 83831 -3.0058e+002 -2.9687e+002  1.2332e+002 55771 83649,83727,83675
 3.8000e+000 83995 -1.8257e+002 -4.5833e+002 -4.3507e+001 55771 83805,83779,83969
 3.8000e+000 84018 -9.2604e+001 -2.8163e+002 -7.7831e+001 55771 83805,83969,83623
 3.8000e+000 84168 -8.2645e+001 -2.1559e+002 -6.9320e+000 55367 84191,84067,84041
 3.8000e+000 84145 -8.1504e+001 -2.4364e+002 -4.5148e+000 55367 84191,84041,84119
 3.8000e+000 84217 -8.8801e+001 -1.9883e+002 -6.4692e+000 55367 84093,84067,84191
 3.8000e+000 84240 -7.9165e+001 -2.1541e+002  3.8436e+000 55367 84093,84191,84119
 3.8000e+000 84571 -4.3677e+001 -3.6162e+002 -3.7579e+001 54913 84398,84450,84424
 3.8000e+000 84548 -2.9295e+001 -3.2867e+002 -1.8630e+001 54913 84372,84450,84398
 3.8000e+000 84525 -8.2594e+001 -3.7399e+002  1.6140e+001 54913 84346,84450,84372
 3.8000e+000 84502 -2.3576e+001 -2.3930e+002 -2.9179e+001 54913 84346,84476,84450
 3.8000e+000 85126 -1.7502e+002 -3.8620e+002 -1.4476e+001 54402 84858,84936,84910
 3.8000e+000 85103 -1.3751e+002 -3.1219e+002 -4.1836e+001 54402 84806,84936,84858
 3.8000e+000 85080 -1.5891e+002 -2.8048e+002 -3.1681e+001 54402 84780,84936,84806
 3.8000e+000 85057 -1.3354e+002 -3.4385e+002 -2.1964e+001 54402 84806,84858,84832
 3.8000e+000 85034 -1.4320e+002 -2.6378e+002  1.2893e+001 54402 84780,84962,84936
 3.8000e+000 85011 -2.1093e+002 -2.3131e+002 -7.3288e+000 54402 84858,84910,84884
 3.8000e+000 84988 -1.4063e+002 -2.5666e+002  1.3111e+001 54402 84754,84962,84780
 3.8000e+000 85396 -1.3376e+002 -1.6348e+002 -1.1250e+001 53998 85197,85249,85223
 3.8000e+000 85373 -1.0262e+002 -2.0718e+002 -2.6354e+000 53998 85197,85275,85249
 3.8000e+000 85350 -1.3012e+002 -2.4374e+002 -1.5156e+001 53998 85171,85275,85197
 3.8000e+000 85327 -5.9717e+001 -2.2620e+002 -1.9001e+001 53998 85171,85301,85275
 3.8000e+000 85749 -8.4316e+001 -3.0301e+002 -5.8797e+000 53636 85524,85628,85550
 3.8000e+000 85726 -1.3318e+002 -3.3009e+002  1.0059e+001 53636 85524,85654,85628
 3.8000e+000 85703 -4.9096e+001 -3.2492e+002 -3.1146e+001 53636 85550,85602,85576
 3.8000e+000 85680 -8.4611e+001 -3.0094e+002 -1.4433e+001 53636 85550,85628,85602
 3.8000e+000 86127 -3.5755e+001 -2.9060e+002  4.6687e+001 52982 86150,85957,85879
 3.8000e+000 86104 -1.0001e+002 -3.3873e+002  2.5635e+001 52982 86150,85879,85853
 3.8000e+000 86081 -3.3401e+001 -4.2544e+002  8.4943e+001 52982 85957,86009,85983
 3.8000e+000 86058 -1.2472e+002 -3.1216e+002  3.9097e+001 52982 85879,85957,85931
 3.8000e+000 86035 -8.3286e+001 -2.9642e+002 -6.2475e+000 52982 85879,85931,85905
 3.8000e+000 86176  6.4370e+000 -3.4363e+002  3.8322e+001 52982 86009,85957,86150
 3.8000e+000 86199 -3.1702e+001 -3.7691e+002  2.4007e+001 52982 86009,86150,85853
 3.8000e+000 86398 -6.4362e+001 -2.2172e+002  2.0884e+001 52542 86421,86248,86222
 3.8000e+000 86375 -1.1353e+002 -2.2676e+002 -2.0937e+000 52542 86421,86222,86300
 3.8000e+000 86352 -1.1292e+002 -2.4329e+002 -1.0430e+001 52542 86222,86326,86300
 3.8000e+000 86447 -1.4287e+001 -2.2284e+002  4.0842e+001 52542 86274,86248,86421
 3.8000e+000 86470 -6.0902e+001 -2.3544e+002  1.1863e+001 52542 86274,86421,86300
 3.8000e+000 86669 -1.0418e+002 -2.3332e+002 -3.8103e+001 52230 86692,86571,86545
 3.8000e+000 86646 -9.9622e+001 -2.1783e+002 -1.9013e+001 52230 86692,86545,86519
 3.8000e+000 86623 -1.4452e+002 -2.2811e+002 -3.3786e+001 52230 86493,86597,86519
 3.8000e+000 86718 -1.1351e+002 -2.3880e+002 -4.5552e+001 52230 86597,86571,86692
 3.8000e+000 86741 -1.2197e+002 -2.2884e+002 -2.7580e+001 52230 86597,86692,86519
 3.8000e+000 87153 -1.4972e+002 -2.3708e+002  1.2698e+001 51640 86980,87058,87032
 3.8000e+000 87130 -1.5248e+002 -2.4434e+002  9.6936e+000 51640 86928,87058,86980
 3.8000e+000 87107 -1.6203e+002 -3.2315e+002 -9.8704e+000 51640 86928,86980,86954
 3.8000e+000 87084 -8.3708e+001 -2.0911e+002 -2.5402e+000 51640 86980,87032,87006
 3.8000e+000 87659 -5.6382e+001 -2.0894e+002  1.3067e+001 51029 87682,87440,87362
 3.8000e+000 87636 -6.0528e+001 -2.2707e+002 -1.5982e+001 51029 87682,87362,87336
 3.8000e+000 87613 -9.3047e+001 -3.2672e+002 -1.3001e+001 51029 87440,87518,87466
 3.8000e+000 87590 -1.1408e+002 -2.0954e+002  1.7048e+001 51029 87362,87440,87414
 3.8000e+000 87567 -9.8191e+001 -1.6776e+002  4.1383e+001 51029 87362,87414,87388
 3.8000e+000 87544 -1.3450e+002 -2.6313e+002  5.0801e+000 51029 87466,87518,87492
 3.8000e+000 87708 -5.0445e+001 -2.3929e+002  1.8593e-001 51029 87518,87440,87682
 3.8000e+000 87731 -5.3988e+001 -2.7793e+002 -1.8199e+001 51029 87518,87682,87336
 3.8000e+000 87881 -1.3663e+002 -2.9703e+002  7.2241e+000 50739 87780,87832,87806
 3.8000e+000 87858 -1.5414e+002 -2.9510e+002 -1.3361e+001 50739 87754,87832,87780
 3.8000e+000 88468 -7.2328e+001 -1.9771e+002  6.7789e+000 50235 88171,88327,88197
 3.8000e+000 88445 -1.7701e+002 -1.9313e+002 -3.3389e+001 50235 88145,88327,88171
 3.8000e+000 88422 -1.8512e-001 -1.0110e+002 -1.4312e-001 50235 88275,88327,88301
 3.8000e+000 88399 -5.3310e+001 -1.2387e+002  2.6065e+000 50235 88197,88327,88275
 3.8000e+000 88376 -3.2106e+001 -1.7820e+002 -5.9278e-001 50235 88197,88275,88223
 3.8000e+000 88353 -3.0808e+001 -2.2912e+002 -2.3067e+001 50235 88223,88275,88249
 3.8000e+000 88895 -1.3094e+002 -3.2049e+002  7.0338e+000 49873 88918,88728,88676
 3.8000e+000 88872 -1.1242e+002 -2.9875e+002 -4.7041e+000 49873 88918,88676,88624
 3.8000e+000 88849 -9.0207e+001 -2.7265e+002 -1.1995e+001 49873 88598,88754,88624
 3.8000e+000 88826 -6.8246e+001 -2.7985e+002 -7.9552e+000 49873 88624,88676,88650
 3.8000e+000 88803 -1.1141e+002 -3.9033e+002  9.7194e+000 49873 88676,88728,88702
 3.8000e+000 88780 -1.1003e+002 -2.7097e+002 -9.3130e+000 49873 88572,88754,88598
 3.8000e+000 88944 -1.0872e+002 -3.1872e+002 -6.7312e+000 49873 88754,88728,88918
 3.8000e+000 88967 -1.0151e+002 -3.1061e+002 -1.6190e+001 49873 88754,88918,88624
 3.8000e+000 89473 -1.9780e+002 -3.0427e+002 -3.3725e+001 49583 89176,89306,89202
 3.8000e+000 89450 -1.9366e+002 -2.9438e+002 -5.3351e+001 49583 89176,89332,89306
 3.8000e+000 89427 -1.1747e+002 -3.3765e+002  1.4974e+001 49583 89496,89228,89202
 3.8000e+000 89404 -1.1663e+002 -3.4490e+002  1.7835e+001 49583 89496,89202,89280
 3.8000e+000 89381 -2.3653e+002 -4.2688e+002 -7.0309e+001 49583 89202,89306,89280
 3.8000e+000 89358 -1.5525e+002 -2.9817e+002 -6.1247e+001 49583 89150,89332,89176
 3.8000e+000 89522 -1.1004e+002 -2.8973e+002  9.8356e+000 49583 89254,89228,89496
 3.8000e+000 89545 -1.3150e+002 -3.3121e+002  1.7581e+001 49583 89254,89496,89280
 3.8000e+000 89825  2.5101e+001 -3.0131e+002  1.9040e+001 49179 89701,89753,89727
 3.8000e+000 89802 -4.6923e+001 -2.7325e+002  2.5487e+001 49179 89675,89753,89701
 3.8000e+000 89779 -3.4840e+001 -2.3883e+002  1.7198e+001 49179 89848,89753,89675
 3.8000e+000 89874 -1.5985e+002 -2.7285e+002 -1.5633e+001 49179 89649,89753,89848
 3.8000e+000 90223 -1.1057e+002 -3.1995e+002 -3.1101e+001 48739 90024,90102,90076
 3.8000e+000 90200 -1.1179e+002 -3.0511e+002 -1.0683e+001 48739 90024,90128,90102
 3.8000e+000 90177 -2.3202e+001 -3.1445e+002 -3.1907e+001 48739 90024,90076,90050
 3.8000e+000 90154 -4.5513e+001 -2.9442e+002  2.4815e+001 48739 89998,90128,90024
 3.8000e+000 90603 -1.0403e+002 -2.5153e+002  5.2982e+001 48335 90381,90485,90459
 3.8000e+000 90580 -1.3284e+002 -2.9628e+002  4.0174e+001 48335 90355,90485,90381
 3.8000e+000 90557 -5.9920e+001 -1.1763e+002  2.6472e+001 48335 90381,90433,90407
 3.8000e+000 90534 -1.0223e+002 -2.6246e+002  3.9141e+001 48335 90381,90459,90433
 3.8000e+000 90511  1.3712e+001 -2.1103e+002  7.9457e+001 48335 90329,90485,90355
 3.8000e+000 90753 -1.1651e+001 -1.6098e+002  9.3379e+001 47824 90776,90652,90704
 3.8000e+000 90730 -8.6280e+001 -2.7659e+002  4.8573e+001 47824 90626,90704,90652
 3.8000e+000 90802 -4.4198e+001 -2.1142e+002  7.3817e+001 47824 90678,90652,90776
 3.8000e+000 91131 -8.6876e+001 -3.2010e+002  1.3927e+001 47427 91154,90958,90906
 3.8000e+000 91108 -1.6077e+002 -3.5041e+002  5.3497e-001 47427 91154,90906,91036
 3.8000e+000 91085 -1.5905e+002 -2.7816e+002 -2.7814e+001 47427 90958,91010,90984
 3.8000e+000 91062 -8.7587e+001 -2.9913e+002  1.6810e+001 47427 90906,90958,90932
 3.8000e+000 91180 -1.2978e+002 -3.1723e+002 -3.4535e+001 47427 91010,90958,91154
 3.8000e+000 91203 -2.0117e+002 -3.4820e+002 -4.9255e+001 47427 91010,91154,91036
 3.8000e+000 91583 -1.8430e+002 -3.3666e+002 -1.6774e+001 46873 91309,91439,91335
 3.8000e+000 91560 -1.8986e+002 -3.4478e+002 -1.4278e+001 46873 91309,91465,91439
 3.8000e+000 91537 -2.6592e+002 -3.8953e+002 -8.7228e+001 46873 91361,91439,91413
 3.8000e+000 91514 -2.0326e+002 -3.4919e+002 -4.4901e+001 46873 91335,91439,91361
 3.8000e+000 91491 -9.2820e+001 -3.3825e+002 -8.3476e+001 46873 91361,91413,91387
 3.8000e+000 91880 -9.9427e+001 -3.1996e+002 -7.4146e+000 46526 91606,91710,91658
 3.8000e+000 91857 -1.0424e+002 -3.3479e+002  2.1274e+000 46526 91606,91762,91710
 3.8000e+000 91834 -5.8532e+001 -3.0939e+002 -3.7917e+001 46526 91606,91658,91632
 3.8000e+000 91811 -1.1947e+002 -2.9906e+002  5.2133e+000 46526 91658,91710,91684
 3.8000e+000 91788 -6.7564e+001 -2.2540e+002  1.0462e+001 46526 91710,91762,91736
 3.8000e+000 92211 -6.2975e+001 -1.4552e+002 -9.4945e+000 45700 91986,92064,92038
 3.8000e+000 92188 -8.7072e+001 -2.1192e+002  4.0789e+000 45700 91986,92116,92064
 3.8000e+000 92165 -4.8682e+001 -1.2682e+002 -2.9707e+001 45700 91986,92038,92012
 3.8000e+000 92142 -6.2559e+001 -2.2713e+002  2.8059e+001 45700 92064,92116,92090
 3.8000e+000 92766 -1.7149e+002 -2.8928e+002  1.2117e+001 45452 92446,92602,92576
 3.8000e+000 92743 -2.5300e+002 -2.8559e+002 -3.7053e+001 45452 92420,92602,92446
 3.8000e+000 92720 -1.9105e+002 -2.9518e+002  4.4337e+001 45452 92789,92524,92498
 3.8000e+000 92697 -2.2809e+002 -2.9208e+002  3.2366e+001 45452 92789,92498,92446
 3.8000e+000 92674 -1.8247e+002 -3.2535e+002 -7.3244e+000 45452 92524,92576,92550
 3.8000e+000 92651 -2.9575e+002 -2.9634e+002  1.7102e+002 45452 92446,92498,92472
 3.8000e+000 92628 -1.8418e+002 -4.0733e+002 -1.2285e+002 45452 92394,92602,92420
 3.8000e+000 92815 -1.6557e+002 -3.0439e+002  3.4703e+001 45452 92576,92524,92789
 3.8000e+000 92838 -1.9336e+002 -2.9359e+002  2.7948e+001 45452 92576,92789,92446
 3.8000e+000 92939 -1.1832e+002 -3.7962e+002 -8.0182e+001 44998 92861,92913,92887
 3.8000e+000 93319 -1.9467e+001 -3.8940e+002  7.8268e+001 44601 93123,93201,93149
 3.8000e+000 93296 -1.0717e+002 -4.0188e+002 -3.9432e+001 44601 93045,93201,93123
 3.8000e+000 93273 -8.8138e+001 -2.3060e+002 -5.5337e+001 44601 93045,93123,93071
 3.8000e+000 93250 -8.3697e+001 -2.1534e+002 -3.6940e+001 44601 93071,93123,93097
 3.8000e+000 93227 -1.1743e+000 -2.2085e+002  8.3012e+001 44601 93149,93201,93175
 3.8000e+000 93697 -7.4371e+001 -4.2896e+002  2.5537e+001 44026 93720,93553,93527
 3.8000e+000 93674 -1.4799e+002 -3.6135e+002  3.3919e+001 44026 93720,93527,93449
 3.8000e+000 93651 -1.6472e+002 -3.7571e+002 -6.2774e+000 44026 93449,93527,93501
 3.8000e+000 93628 -1.1466e+002 -2.9103e+002 -6.4976e+001 44026 93423,93579,93449
 3.8000e+000 93605 -3.7765e+001 -2.9528e+002  2.8195e+001 44026 93449,93501,93475
 3.8000e+000 93746 -1.9591e+001 -3.8119e+002  4.6254e+000 44026 93579,93553,93720
 3.8000e+000 93769 -9.7794e+001 -3.1572e+002  1.3651e+001 44026 93579,93720,93449
 3.8000e+000 94066 -7.7888e+001 -3.3565e+002 -4.8003e+001 43579 94089,93818,93792
 3.8000e+000 94043 -1.3387e+002 -3.7150e+002 -3.1863e+001 43579 94161,94089,93792
 3.8000e+000 94020 -1.3123e+002 -3.7333e+002 -1.5875e+001 43579 94161,93792,93948
 3.8000e+000 93997 -1.4152e+002 -2.9725e+002 -1.8288e+001 43579 94233,93870,93818
 3.8000e+000 93974 -7.6165e+001 -3.0134e+002  2.2871e+000 43579 93818,93870,93844
 3.8000e+000 94115 -1.3772e+002 -2.9968e+002 -3.6332e+001 43579 94233,93818,94089
 3.8000e+000 94138 -1.8525e+002 -3.3442e+002 -2.4339e+001 43579 93896,94089,93922
 3.8000e+000 94187 -1.2353e+002 -3.4772e+002 -3.0687e+001 43579 93922,94089,94161
 3.8000e+000 94210 -1.1950e+002 -3.4710e+002 -1.3245e+001 43579 93922,94161,93948
 3.8000e+000 94259 -1.6284e+002 -3.3147e+002 -8.2977e+000 43579 93896,93870,94233
 3.8000e+000 94282 -1.4961e+002 -3.2519e+002 -2.9053e+001 43579 93896,94233,94089
 3.8000e+000 94481 -1.1148e+002 -3.4155e+002 -3.1055e+000 43239 94305,94383,94357
 3.8000e+000 94458 -9.3686e+001 -3.1090e+002  3.8675e+001 43239 94305,94409,94383
 3.8000e+000 94435 -8.2562e+001 -3.6327e+002 -1.0771e+001 43239 94305,94357,94331
 3.8000e+000 94633 -6.6352e+001 -2.2214e+002  5.5333e+001 42827 94656,94532,94506
 3.8000e+000 94610 -8.1438e+001 -2.3710e+002  7.3792e+001 42827 94728,94656,94506
 3.8000e+000 94682 -1.6456e+001 -2.4819e+002  6.3336e+001 42827 94558,94532,94656
 3.8000e+000 94705  2.7088e+001 -2.6691e+002  3.9230e+001 42827 94988,94860,94656
 3.8000e+000 94754 -3.7450e+001 -2.3368e+002  2.1241e+001 42827 94988,94656,94728
 3.8000e+000 94886  1.0847e+002 -2.3344e+002  4.1733e+001 42827 94558,94656,94860
 3.8000e+000 95014  8.0368e+001 -2.3822e+002  2.6806e+001 42827 94584,94860,94988
 3.8000e+000 95037  2.8566e+001 -2.0174e+002  1.1502e+001 42827 94584,94988,94728
 3.8000e+000 95236 -7.1501e+001 -3.0643e+002  3.3111e+001 42537 95259,95112,95060
 3.8000e+000 95213 -7.5850e+001 -3.0808e+002  3.3848e+001 42537 95259,95060,95164
 3.8000e+000 95190 -4.5764e+001 -3.0913e+002 -9.5364e+000 42537 95060,95112,95086
 3.8000e+000 95285 -7.4489e+001 -3.0460e+002  3.0763e+001 42537 95138,95112,95259
 3.8000e+000 95308 -7.7681e+001 -3.0562e+002  3.0937e+001 42537 95138,95259,95164
 3.8000e+000 95816 -1.2784e+002 -3.5079e+002 -2.6980e+001 41969 95493,95597,95519
 3.8000e+000 95793 -1.9278e+002 -3.4477e+002  2.7908e+001 41969 95493,95649,95597
 3.8000e+000 95770 -1.4813e+002 -3.1861e+002  1.6283e+001 41969 95493,95675,95649
 3.8000e+000 95747 -1.7388e+002 -4.2050e+002  2.1898e+001 41969 95597,95649,95623
 3.8000e+000 95724 -1.9909e+002 -3.3017e+002 -3.9329e+001 41969 95519,95597,95571
 3.8000e+000 95701 -1.7380e+002 -2.8657e+002 -8.4148e+001 41969 95519,95571,95545
 3.8000e+000 96371 -1.5409e+002 -3.5500e+002  4.2360e+001 41579 96025,96207,96181
 3.8000e+000 96348  4.6889e+001 -2.6487e+002 -6.2461e+000 41579 95999,96207,96025
 3.8000e+000 96325 -1.7587e+002 -2.8722e+002 -3.1581e+001 41579 96129,96181,96155
 3.8000e+000 96302 -6.8261e+001 -2.5405e+002  2.3449e+000 41579 96025,96181,96129
 3.8000e+000 96279 -1.3910e+002 -3.6809e+002  4.6672e+001 41579 96025,96129,96051
 3.8000e+000 96256 -1.7678e+002 -3.7753e+002  6.1961e+001 41579 96051,96103,96077
 3.8000e+000 96233 -6.6826e+001 -2.8205e+002  9.4505e+000 41579 96051,96129,96103
 3.8000e+000 96877 -4.6386e+001 -2.2314e+002 -2.6371e+001 41182 96972,96900,96632
 3.8000e+000 96854 -4.1496e+001 -1.6985e+002 -2.3466e+001 41182 96900,96554,96736
 3.8000e+000 96831 -4.7105e+001 -2.2435e+002 -2.6921e+001 41182 96972,96632,96580
 3.8000e+000 96808 -6.3190e+001 -2.2697e+002  6.9677e+000 41182 96632,96684,96658
 3.8000e+000 96785 -6.0471e+001 -2.2861e+002  1.9363e+001 41182 96684,96736,96710
 3.8000e+000 96762 -1.3527e+002 -2.9737e+002  3.3357e+001 41182 96580,96632,96606
 3.8000e+000 96926 -3.3091e+001 -2.4266e+002 -2.1816e+001 41182 96684,96632,96900
 3.8000e+000 96949 -4.5962e+001 -2.1852e+002 -3.6922e+001 41182 96684,96900,96736
 3.8000e+000 96998 -4.4580e+001 -2.2121e+002 -2.1826e+001 41182 96554,96900,96972
 3.8000e+000 97021 -4.6531e+001 -2.2554e+002 -2.2473e+001 41182 96554,96972,96580
 3.8000e+000 97576 -2.2078e+002 -5.3177e+002 -7.2941e+001 40678 97230,97412,97282
 3.8000e+000 97553 -2.7829e+001 -4.3469e+002  2.5795e+001 40678 97204,97412,97230
 3.8000e+000 97530 -7.6572e+001 -4.1170e+002 -6.2715e+001 40678 97282,97360,97308
 3.8000e+000 97507 -1.0498e+002 -4.1763e+002 -2.6661e+001 40678 97282,97412,97360
 3.8000e+000 97484 -4.1496e+001 -2.5849e+002 -5.3336e+001 40678 97308,97360,97334
 3.8000e+000 97461 -1.3940e+002 -4.9521e+002 -1.1855e+001 40678 97360,97412,97386
 3.8000e+000 97438 -1.2637e+002 -3.3741e+002 -4.1565e+001 40678 97230,97282,97256
 3.8000e+000 97976 -1.6511e+002 -2.7072e+002 -7.0105e+000 40244 97702,97832,97754
 3.8000e+000 97953 -1.3880e+002 -2.5323e+002 -1.5731e+001 40244 97702,97858,97832
 3.8000e+000 97930 -1.7118e+002 -3.0690e+002 -7.2037e+001 40244 97702,97754,97728
 3.8000e+000 97907 -1.4178e+002 -3.1096e+002  3.4689e+001 40244 97780,97832,97806
 3.8000e+000 97884 -1.5199e+002 -2.6358e+002 -3.9379e+000 40244 97754,97832,97780
 3.8000e+000 98482 -1.0869e+002 -2.7858e+002  3.9098e+001 39690 98505,98185,98159
 3.8000e+000 98459 -1.0782e+002 -2.7107e+002  3.9277e+001 39690 98505,98159,98289
 3.8000e+000 98436 -1.8881e+002 -3.9027e+002  1.0204e+002 39690 98159,98315,98289
 3.8000e+000 98413 -9.1462e+001 -2.5173e+002  3.6686e+001 39690 98211,98289,98263
 3.8000e+000 98390 -6.0954e+001 -1.7313e+002  2.2012e+001 39690 98211,98263,98237
 3.8000e+000 98367 -5.3144e+001 -2.6123e+002  4.3690e+001 39690 98159,98341,98315
 3.8000e+000 98531 -1.1579e+002 -2.7462e+002  3.2654e+001 39690 98211,98185,98505
 3.8000e+000 98554 -1.1058e+002 -2.6010e+002  3.5060e+001 39690 98211,98505,98289
 3.8000e+000 99109 -9.0102e+001 -2.3239e+002 -1.0627e+001 39072 99132,98867,98789
 3.8000e+000 99086 -9.0162e+001 -2.3821e+002 -1.5030e+001 39072 99132,98789,98763
 3.8000e+000 99063 -1.3377e+002 -3.7781e+002  4.2189e+001 39072 98867,98945,98919
 3.8000e+000 99040 -7.9944e+001 -2.4642e+002  5.2582e-001 39072 98789,98867,98841
 3.8000e+000 99017 -1.7430e+002 -2.7773e+002  1.3893e+001 39072 98867,98919,98893
 3.8000e+000 98994 -1.3065e+002 -2.3806e+002  5.1820e+001 39072 98789,98841,98815
 3.8000e+000 98971 -1.3626e+002 -2.7091e+002 -2.1447e+001 39072 98737,98945,98763
 3.8000e+000 99158 -8.7618e+001 -2.3974e+002 -1.2084e+001 39072 98945,98867,99132
 3.8000e+000 99181 -8.8169e+001 -2.4854e+002 -1.3995e+001 39072 98945,99132,98763
 3.8000e+000 99510 -7.4849e+001 -2.3154e+002  1.6899e+001 38668 99311,99389,99363
 3.8000e+000 99487 -7.8339e+001 -2.3557e+002  1.2882e+001 38668 99285,99389,99311
 3.8000e+000 99464 -1.5649e+002 -2.8627e+002  4.5147e+001 38668 99285,99415,99389
 3.8000e+000 99441 -7.3763e+001 -2.4658e+002  2.4766e+001 38668 99311,99363,99337
 3.8000e+000 99758 -4.7796e+001 -3.3630e+002  5.6922e+001 38164 99781,99611,99585
 3.8000e+000 99735 -5.5930e+001 -3.4986e+002  5.2335e+001 38164 99781,99585,99533
 3.8000e+000 99712 -4.1364e+001 -2.9280e+002  3.0451e+001 38164 99611,99663,99637
 3.8000e+000 99689 -1.4332e+001 -3.4436e+002 -1.9228e+001 38164 99533,99585,99559
 3.8000e+000 99807 -4.5394e+001 -3.5003e+002  5.5243e+001 38164 99663,99611,99781
 3.8000e+000 99830 -4.6526e+001 -3.5636e+002  5.3034e+001 38164 99663,99781,99533
 3.8000e+000 100232 -1.1593e+002 -2.8136e+002  5.0100e+000 37702 99984,100114,100088
 3.8000e+000 100209 -9.4877e+001 -3.0843e+002  3.2873e+001 37702 99958,100114,99984
 3.8000e+000 100186 -1.6389e+002 -3.4251e+002 -1.9609e+001 37702 100010,100088,100036
 3.8000e+000 100163 -1.1754e+002 -2.8267e+002  5.7795e-001 37702 99984,100088,100010
 3.8000e+000 100140 -1.0477e+002 -2.6267e+002 -7.0342e+001 37702 100036,100088,100062
 3.8000e+000 100640 -2.1999e+002 -3.1379e+002  3.8716e+001 37262 100493,100545,100519
 3.8000e+000 100617 -2.0419e+002 -3.5479e+002  1.9061e+001 37262 100441,100545,100493
 3.8000e+000 100594 -1.1299e+002 -2.7778e+002 -4.5159e+001 37262 100415,100545,100441
 3.8000e+000 100571 -2.2535e+002 -3.7896e+002 -9.4936e+000 37262 100441,100493,100467
 3.8000e+000 101146 -1.5154e+002 -2.5545e+002  1.5840e+000 36872 100823,100979,100849
 3.8000e+000 101123 -1.4852e+002 -2.3969e+002 -2.1996e+001 36872 100823,101005,100979
 3.8000e+000 101100 -1.5619e+002 -3.6315e+002  5.1379e+001 36872 101169,100901,100849
 3.8000e+000 101077 -1.2135e+002 -2.9043e+002  2.8609e+001 36872 101169,100849,100979
 3.8000e+000 101054 -8.3511e+001 -2.8612e+002 -1.5598e+001 36872 100927,100979,100953
 3.8000e+000 101031 -8.7490e+001 -4.1521e+002  7.0387e+001 36872 100849,100901,100875
 3.8000e+000 101195 -1.0875e+002 -3.8455e+002  5.8245e+000 36872 100927,100901,101169
 3.8000e+000 101218 -8.7637e+001 -3.4627e+002 -1.2447e+001 36872 100927,101169,100979
 3.8000e+000 101773 -1.8711e+002 -2.8285e+002  5.0014e+001 36418 101479,101609,101583
 3.8000e+000 101750 -1.8826e+002 -3.0813e+002  5.7153e+001 36418 101453,101609,101479
 3.8000e+000 101727 -1.2878e+002 -2.9562e+002 -3.3927e+000 36418 101796,101531,101479
 3.8000e+000 101704 -1.7752e+002 -3.2988e+002  2.1923e+001 36418 101796,101479,101583
 3.8000e+000 101681 -1.1269e+002 -2.6581e+002 -9.9680e+000 36418 101479,101531,101505
 3.8000e+000 101658 -6.2786e+000 -2.8099e+002 -2.3392e-001 36418 101401,101609,101453
 3.8000e+000 101635 -5.6485e+001 -2.9971e+002 -1.0057e+001 36418 101401,101453,101427
 3.8000e+000 101822 -1.3996e+002 -2.7046e+002 -4.9291e+001 36418 101557,101531,101796
 3.8000e+000 101845 -1.9525e+002 -2.8164e+002 -2.6281e+001 36418 101557,101796,101583
 3.8000e+000 102174 -2.1680e+001 -1.5051e+002 -3.5883e+001 35914 101949,102053,101975
 3.8000e+000 102151 -8.4957e+001 -1.4964e+002 -2.6452e+001 35914 101949,102079,102053
 3.8000e+000 102128 -7.4857e+001 -1.7575e+002 -1.6817e+001 35914 101975,102053,102027
 3.8000e+000 102105 -5.4396e+001 -1.3858e+002 -2.4964e+001 35914 101975,102027,102001
 3.8000e+000 102631 -5.8066e+001 -2.9725e+002  1.1232e+001 35574 102383,102513,102487
 3.8000e+000 102608 -4.1503e+001 -3.1350e+002  8.6755e+000 35574 102357,102513,102383
 3.8000e+000 102585 -7.6195e+001 -2.9056e+002  1.9607e+001 35574 102409,102487,102435
 3.8000e+000 102562 -1.0194e+002 -3.1391e+002  8.9472e+000 35574 102383,102487,102409
 3.8000e+000 102539 -1.0565e+002 -3.2118e+002 -4.3808e+000 35574 102435,102487,102461
 3.8000e+000 103009 -1.6637e+002 -2.9486e+002 -2.5067e+001 35170 102761,102865,102787
 3.8000e+000 102986 -9.1781e+001 -2.5476e+002  2.1132e+001 35170 102761,102891,102865
 3.8000e+000 102963 -1.4755e+002 -2.9350e+002 -9.6707e+000 35170 102787,102865,102813
 3.8000e+000 102940 -7.5304e+001 -2.4486e+002  2.5873e+001 35170 102735,102891,102761
 3.8000e+000 102917 -1.4439e+002 -2.8709e+002 -1.2511e+001 35170 102813,102865,102839
 3.8000e+000 103257 -3.0023e+001 -2.3132e+002 -5.0377e+001 34659 103280,103058,103032
 3.8000e+000 103234 -4.7204e+001 -2.5529e+002 -3.8841e+001 34659 103280,103032,103162
 3.8000e+000 103211 -5.5883e+001 -2.4723e+002 -1.8252e+001 34659 103084,103162,103110
 3.8000e+000 103188 -8.7779e+001 -2.8991e+002  7.8994e+000 34659 103110,103162,103136
 3.8000e+000 103306 -5.4408e+001 -2.0166e+002 -3.9640e+001 34659 103084,103058,103280
 3.8000e+000 103329 -6.9806e+001 -2.3014e+002 -2.6968e+001 34659 103084,103280,103162
 3.8000e+000 103837 -3.2390e+001 -3.1798e+002  1.3192e+001 34247 103860,103566,103540
 3.8000e+000 103814 -4.4497e+001 -3.1789e+002  2.9081e+000 34247 103932,103860,103540
 3.8000e+000 103791 -3.1923e+001 -3.5420e+002 -3.4110e+001 34247 103932,103540,103670
 3.8000e+000 103768 -3.7196e+001 -3.0642e+002  5.3899e-001 34247 103566,103618,103592
 3.8000e+000 103745 -1.2739e+002 -2.9968e+002 -4.4988e+001 34247 103540,103696,103670
 3.8000e+000 103722 -1.6847e+002 -3.3020e+002  4.8209e+001 34247 103514,103696,103540
 3.8000e+000 103886 -6.7964e+001 -3.1793e+002  5.6051e-001 34247 103618,103566,103860
 3.8000e+000 103909 -7.4408e+001 -3.3915e+002  1.2315e+001 34247 103618,103860,103644
 3.8000e+000 103958 -7.7265e+001 -4.0463e+002 -2.0740e+000 34247 103644,103860,103932
 3.8000e+000 103981 -6.4609e+001 -4.3826e+002 -4.0961e+001 34247 103644,103932,103670
 3.8000e+000 104300 -1.6187e+002 -3.3263e+002 -1.4437e+001 33843 104052,104182,104156
 3.8000e+000 104277 -2.0226e+002 -3.1556e+002 -7.3866e+000 33843 104026,104182,104052
 3.8000e+000 104254 -1.6030e+002 -3.8209e+002  8.5605e+000 33843 104078,104156,104130
 3.8000e+000 104231 -1.9599e+002 -3.6382e+002 -4.5497e-001 33843 104052,104156,104078
 3.8000e+000 104208 -2.4116e+002 -4.0763e+002  1.3779e+001 33843 104078,104130,104104
 3.8000e+000 104499 -8.8108e+001 -3.4765e+002 -3.4467e+001 33282 104594,104522,104375
 3.8000e+000 104476 -5.1345e+001 -3.4581e+002  1.2399e+001 33282 104522,104323,104427
 3.8000e+000 104453 -6.5160e+001 -3.6719e+002 -3.0803e+001 33282 104594,104375,104349
 3.8000e+000 104548 -1.1084e+002 -2.8707e+002 -2.4178e+000 33282 104401,104375,104522
 3.8000e+000 104571 -4.0968e+001 -2.7667e+002  4.8594e+001 33282 104401,104522,104427
 3.8000e+000 104620 -6.4497e+001 -3.0914e+002 -2.2646e+001 33282 104323,104522,104594
 3.8000e+000 104643 -5.1259e+001 -3.3917e+002 -2.3073e+001 33282 104323,104594,104349
 3.8000e+000 104942 -1.5363e+002 -3.8390e+002  4.8675e+001 32728 104694,104772,104720
 3.8000e+000 104919 -1.1710e+002 -3.5106e+002  2.0546e+001 32728 104694,104824,104772
 3.8000e+000 104896 -1.9759e+002 -3.5154e+002  5.2474e+001 32728 104720,104772,104746
 3.8000e+000 104873 -9.4021e+001 -3.9113e+002  2.2941e+001 32728 104772,104824,104798
 3.8000e+000 104850 -9.0843e+001 -3.3881e+002  2.4898e+001 32728 104668,104824,104694
 3.8000e+000 105373 -1.4534e+002 -3.8781e+002 -1.7482e+001 32274 105396,105102,105076
 3.8000e+000 105350 -1.5250e+002 -4.2418e+002 -7.0637e+000 32274 105396,105076,105206
 3.8000e+000 105327 -1.8311e+002 -4.2551e+002  2.4121e+001 32274 105154,105206,105180
 3.8000e+000 105304 -9.1269e+001 -4.1060e+002 -3.2682e+001 32274 105076,105232,105206
 3.8000e+000 105281 -1.6479e+002 -3.5128e+002 -6.2790e+001 32274 105102,105154,105128
 3.8000e+000 105258 -2.4007e+002 -3.6435e+002 -6.6583e+001 32274 105050,105232,105076
 3.8000e+000 105422 -1.6225e+002 -3.4896e+002 -1.5082e+001 32274 105154,105102,105396
 3.8000e+000 105445 -1.6906e+002 -3.8654e+002 -7.3109e+000 32274 105154,105396,105206
 3.8000e+000 105644 -1.3400e+002 -3.6544e+002 -1.4941e+000 31620 105468,105546,105520
 3.8000e+000 105621 -1.0867e+002 -3.9092e+002 -1.3903e+001 31620 105468,105572,105546
 3.8000e+000 105598 -1.3410e+002 -3.9677e+002  2.5004e+001 31620 105468,105520,105494
 3.8000e+000 105794 -5.7099e+001 -3.5086e+002 -9.8297e+000 31158 105889,105817,105693
 3.8000e+000 105771 -7.7084e+001 -3.2174e+002 -2.1131e+001 31158 105817,105667,105745
 3.8000e+000 105843 -6.6823e+001 -4.2014e+002 -3.1894e+000 31158 105719,105693,105817
 3.8000e+000 105866 -4.4091e+001 -3.6725e+002 -1.7000e+001 31158 105719,105817,105745
 3.8000e+000 105915 -1.0449e+002 -3.7117e+002 -1.0381e+001 31158 105667,105817,105889
 3.8000e+000 106270 -1.4513e+002 -3.3976e+002 -5.4868e+000 30818 106293,106071,106045
 3.8000e+000 106247 -1.7027e+002 -3.9672e+002 -2.1894e+001 30818 106293,106045,106175
 3.8000e+000 106224 -1.2171e+002 -3.1018e+002  1.9657e+001 30818 106123,106175,106149
 3.8000e+000 106201 -1.6138e+002 -3.3774e+002  2.7813e+001 30818 106071,106123,106097
 3.8000e+000 106319 -1.5066e+002 -3.1751e+002  1.6222e+001 30818 106123,106071,106293
 3.8000e+000 106342 -1.5564e+002 -3.4741e+002  2.3736e+000 30818 106123,106293,106175
 3.8000e+000 106492 -1.4172e+002 -3.2606e+002  5.9644e+001 30414 106645,106391,106365
 3.8000e+000 106469 -6.6706e+001 -3.2222e+002  9.0121e+001 30414 106515,106365,106443
 3.8000e+000 106541 -9.8612e+001 -3.3490e+002  6.5531e+001 30414 106645,106365,106515
 3.8000e+000 106671 -7.9419e+001 -3.8144e+002  1.0854e+002 30414 106417,106391,106645
 3.8000e+000 106694  2.2029e+001 -3.5311e+002  9.2931e+001 30414 106417,106645,106515
 3.8000e+000 106942 -6.9323e+001 -4.6338e+002 -1.0658e+000 29910 106965,106795,106769
 3.8000e+000 106919 -6.0314e+001 -4.1731e+002  1.2298e+001 29910 106965,106769,106717
 3.8000e+000 106896 -6.1645e+001 -3.4986e+002 -4.7620e+001 29910 106795,106847,106821
 3.8000e+000 106873 -3.4012e+001 -3.6173e+002  2.1432e+001 29910 106717,106769,106743
 3.8000e+000 106991 -9.4910e+001 -4.1399e+002  5.3719e+000 29910 106847,106795,106965
 3.8000e+000 107014 -7.5697e+001 -3.5288e+002  1.8146e+001 29910 106847,106965,106717
 3.8000e+000 107213 -1.0557e+002 -3.5478e+002  1.7231e+001 29413 107236,107063,107037
 3.8000e+000 107190 -8.5450e+001 -4.2234e+002  4.1883e+001 29413 107236,107037,107141
 3.8000e+000 107167 -1.2420e+002 -2.6045e+002  5.4780e+001 29413 107063,107115,107089
 3.8000e+000 107262 -9.3675e+001 -3.1397e+002  1.6369e+001 29413 107115,107063,107236
 3.8000e+000 107285 -6.3294e+001 -3.6327e+002  4.4115e+001 29413 107115,107236,107141
 3.8000e+000 107486 -4.5695e+001 -3.3354e+002  4.1200e+001 29009 107336,107388,107362
 3.8000e+000 107463 -2.7175e+001 -3.2355e+002  1.4804e+001 29009 107310,107388,107336
 3.8000e+000 107440 -2.8001e+001 -2.9896e+002  1.2616e+001 29009 107310,107414,107388
 3.8000e+000 107736 -1.4869e+002 -3.8668e+002 -1.5572e+001 28491 107537,107615,107563
 3.8000e+000 107713 -1.3361e+002 -3.7882e+002 -9.0388e+000 28491 107537,107641,107615
 3.8000e+000 107690 -8.3213e+001 -3.6788e+002  6.2476e+000 28491 107563,107615,107589
 3.8000e+000 107667 -1.4141e+002 -3.7939e+002 -1.1048e+001 28491 107511,107641,107537
 3.8000e+000 108118 -8.7406e+001 -3.6573e+002  1.1756e+001 27980 108141,107922,107844
 3.8000e+000 108095 -6.9272e+001 -4.0282e+002  1.1544e+001 27980 108141,107844,108000
 3.8000e+000 108072 -8.5781e+001 -3.6474e+002 -4.1622e+000 27980 107844,107922,107870
 3.8000e+000 108049 -7.1817e+001 -3.3274e+002 -9.0219e+000 27980 107870,107922,107896
 3.8000e+000 108026 -1.2804e+002 -3.3154e+002  4.3418e+001 27980 107922,107974,107948
 3.8000e+000 108167 -7.6224e+001 -3.6056e+002  1.6885e+001 27980 107974,107922,108141
 3.8000e+000 108190 -2.5767e+001 -3.6559e+002  2.7841e+001 27980 107974,108141,108000
 3.8000e+000 108745 -5.3223e+001 -2.5200e+002 -5.3760e+000 27376 108840,108768,108477
 3.8000e+000 108722 -8.4882e+001 -3.0410e+002 -5.6358e+001 27376 108768,108373,108581
 3.8000e+000 108699 -7.9123e+001 -2.2071e+002  4.2437e+001 27376 108840,108477,108451
 3.8000e+000 108676 -1.8104e+002 -2.6316e+002 -1.3523e+001 27376 108373,108451,108399
 3.8000e+000 108653 -8.0863e+001 -3.0983e+002  3.6363e+001 27376 108503,108581,108529
 3.8000e+000 108630 -8.7192e+001 -3.0144e+002  3.7131e+001 27376 108529,108581,108555
 3.8000e+000 108607 -2.0549e+002 -2.8371e+002  2.0163e+001 27376 108399,108451,108425
 3.8000e+000 108794 -8.0157e+001 -3.3414e+002  8.2619e-001 27376 108503,108477,108768
 3.8000e+000 108817 -2.8804e+001 -3.0500e+002 -1.1561e+001 27376 108503,108768,108581
 3.8000e+000 108866 -1.5052e+002 -3.0828e+002 -2.8250e+001 27376 108373,108768,108840
 3.8000e+000 108889 -1.4573e+002 -2.6740e+002  2.1898e+001 27376 108373,108840,108451
 3.8000e+000 109186 -1.4293e+002 -3.8192e+002  4.0621e+001 26722 109209,108938,108912
 3.8000e+000 109163 -1.3248e+002 -3.5699e+002  3.9024e+001 26722 109281,109209,108912
 3.8000e+000 109140 -1.2669e+002 -3.4707e+002  3.6569e+001 26722 109281,108912,109042
 3.8000e+000 109117 -1.2157e+002 -4.1123e+002  1.7983e+001 26722 108938,108990,108964
 3.8000e+000 109094 -1.8192e+002 -3.1568e+002  2.4701e+001 26722 108912,109068,109042
 3.8000e+000 109235 -1.2284e+002 -3.6885e+002  3.3982e+001 26722 108990,108938,109209
 3.8000e+000 109258 -1.2862e+002 -3.9639e+002  3.1771e+001 26722 108990,109209,109016
 3.8000e+000 109307 -1.1524e+002 -3.7272e+002  1.9782e+001 26722 109016,109209,109281
 3.8000e+000 109330 -1.0473e+002 -3.5531e+002  1.5183e+001 26722 109016,109281,109042
 3.8000e+000 109732 -1.4743e+002 -3.0447e+002 -6.3618e+000 26310 109458,109588,109484
 3.8000e+000 109709 -1.4113e+002 -3.5486e+002 -3.7275e+001 26310 109458,109614,109588
 3.8000e+000 109686 -2.1201e+002 -3.5992e+002  5.3366e+001 26310 109510,109562,109536
 3.8000e+000 109663 -2.0806e+002 -3.3779e+002  2.0636e+001 26310 109484,109562,109510
 3.8000e+000 109640 -1.5259e+002 -3.0945e+002 -1.1792e+000 26310 109484,109588,109562
 3.8000e+000 110159 -9.9508e+001 -3.2134e+002 -1.0721e+001 25642 110182,109940,109914
 3.8000e+000 110136 -9.3171e+001 -3.7281e+002  4.0721e+001 25642 110182,109914,109888
 3.8000e+000 110113 -1.1714e+002 -3.9933e+002 -5.2852e+001 25642 109966,110018,109992
 3.8000e+000 110090 -1.2963e+002 -3.8505e+002  2.8616e+001 25642 110254,109966,109940
 3.8000e+000 110067 -1.7541e+002 -3.6743e+002  1.8348e+001 25642 109862,110018,109888
 3.8000e+000 110044 -1.6820e+002 -3.1224e+002  4.5782e+001 25642 109836,110018,109862
 3.8000e+000 110208 -1.3023e+002 -3.5043e+002  2.1054e+001 25642 110254,109940,110182
 3.8000e+000 110231 -1.4277e+002 -3.7520e+002  4.5678e+001 25642 110018,110182,109888
 3.8000e+000 110280 -1.1608e+002 -4.2775e+002  2.1778e+001 25642 110018,109966,110254
 3.8000e+000 110303 -1.2375e+002 -4.0172e+002  1.5202e+001 25642 110018,110254,110182
 3.8000e+000 110632 -1.5667e+002 -3.2414e+002 -1.8347e+001 25188 110407,110485,110433
 3.8000e+000 110609 -1.9175e+002 -3.2534e+002 -9.0412e+000 25188 110407,110537,110485
 3.8000e+000 110586 -1.8475e+002 -3.3971e+002 -6.3285e+001 25188 110433,110485,110459
 3.8000e+000 110563 -1.7513e+002 -3.3652e+002  3.8529e+001 25188 110485,110537,110511
 3.8000e+000 110831 -3.8052e+001 -3.1784e+002  9.9860e+000 24726 110854,110707,110655
 3.8000e+000 110808 -2.0005e+001 -3.4450e+002  3.7170e+001 24726 110854,110655,110759
 3.8000e+000 110785 -5.1915e+001 -3.2959e+002  1.8297e+001 24726 110655,110707,110681
 3.8000e+000 110880 -2.4283e+001 -2.9246e+002  1.5278e+001 24726 110733,110707,110854
 3.8000e+000 110903 -6.1609e-003 -3.0603e+002  4.4417e+001 24726 110733,110854,110759
 3.8000e+000 111234 -1.1137e+001 -2.2408e+002 -6.7578e+000 24222 111257,111087,111035
 3.8000e+000 111211  2.3516e+001 -2.0837e+002  2.3427e+001 24222 111257,111035,111009
 3.8000e+000 111188 -3.5713e+001 -1.1999e+002 -4.9971e+001 24222 111035,111087,111061
 3.8000e+000 111165 -3.4533e+001 -1.7931e+002  5.0438e+000 24222 111087,111139,111113
 3.8000e+000 111283 -3.3046e+001 -1.8731e+002  9.3831e+000 24222 111139,111087,111257
 3.8000e+000 111306 -1.7920e+001 -1.6101e+002  2.8805e+001 24222 111139,111257,111009
 3.8000e+000 111625 -5.9856e+001 -3.3071e+002 -1.9863e+001 23732 111648,111481,111455
 3.8000e+000 111602 -6.1834e+001 -3.3516e+002 -1.9162e+001 23732 111648,111455,111377
 3.8000e+000 111579  2.4457e+001 -1.8427e+002  3.3062e+001 23732 111377,111429,111403
 3.8000e+000 111556 -3.5955e+001 -3.3983e+002 -7.7515e+000 23732 111377,111455,111429
 3.8000e+000 111533 -5.3064e+001 -3.0442e+002 -6.8094e+000 23732 111351,111507,111377
 3.8000e+000 111674 -6.1767e+001 -3.2337e+002 -1.4698e+001 23732 111507,111481,111648
 3.8000e+000 111697 -6.5705e+001 -3.3242e+002 -1.4150e+001 23732 111507,111648,111377
 3.8000e+000 112156 -8.9976e+001 -3.7295e+002  2.6406e+001 23278 112179,111908,111882
 3.8000e+000 112133 -8.4480e+001 -3.4618e+002  1.4189e+001 23278 112179,111882,112012
 3.8000e+000 112110 -3.1588e+001 -4.0484e+002  1.5384e+000 23278 111908,111960,111934
 3.8000e+000 112087 -3.5981e+001 -3.0310e+002 -5.5165e+000 23278 111882,112038,112012
 3.8000e+000 112064 -7.5290e+001 -3.1345e+002 -4.9973e+000 23278 111960,112012,111986
 3.8000e+000 112205 -8.5824e+001 -3.6004e+002  4.2398e+000 23278 111960,111908,112179
 3.8000e+000 112228 -7.2705e+001 -3.2994e+002 -9.6889e+000 23278 111960,112179,112012
 3.8000e+000 112685 -2.4510e+002 -5.2802e+002 -5.2053e+001 22938 112489,112567,112541
 3.8000e+000 112662 -2.1391e+002 -4.5967e+002 -4.4355e+001 22938 112437,112567,112489
 3.8000e+000 112639 -1.4287e+002 -3.9486e+002 -6.1838e+000 22938 112489,112541,112515
 3.8000e+000 112616 -2.4456e+002 -4.4317e+002 -4.0620e+001 22938 112411,112567,112437
 3.8000e+000 112593 -1.8715e+002 -5.6648e+002 -1.4801e+001 22938 112437,112489,112463
 3.8000e+000 113191 -1.6820e+001 -3.6344e+002 -4.4561e+001 22534 113214,112998,112946
 3.8000e+000 113168 -6.8606e+001 -3.2567e+002 -2.2945e+001 22534 113286,113214,112946
 3.8000e+000 113145 -5.0293e+001 -3.2646e+002 -1.8628e+001 22534 113286,112946,112920
 3.8000e+000 113122 -1.4746e+002 -2.9783e+002 -6.2218e+001 22534 113358,113024,112998
 3.8000e+000 113099 -8.8781e+001 -3.1327e+002 -1.0429e+001 22534 112868,113050,112894
 3.8000e+000 113076 -1.0955e+002 -5.5081e+002 -8.9624e+001 22534 112946,112998,112972
 3.8000e+000 113240 -1.0891e+002 -3.7455e+002 -6.6321e+001 22534 113358,112998,113214
 3.8000e+000 113263 -8.7332e+001 -3.4086e+002 -1.4021e+001 22534 113050,113214,112894
 3.8000e+000 113312 -4.4898e+001 -3.2224e+002 -1.7622e+001 22534 112894,113214,113286
 3.8000e+000 113335 -2.5671e+001 -3.2413e+002 -1.6645e+001 22534 112894,113286,112920
 3.8000e+000 113384 -1.0451e+002 -2.2911e+002 -4.3960e+001 22534 113050,113024,113358
 3.8000e+000 113407 -4.8737e+001 -2.9193e+002 -3.9873e+001 22534 113050,113358,113214
 3.8000e+000 113785 -1.7662e+002 -4.4348e+002  7.9882e+000 21978 113808,113615,113511
 3.8000e+000 113762 -1.4377e+002 -4.4904e+002  2.8284e+001 21978 113808,113511,113667
 3.8000e+000 113739 -1.1369e+002 -3.8120e+002 -1.7853e+001 21978 113511,113615,113537
 3.8000e+000 113716  3.2914e+001 -3.3926e+002 -3.6020e+001 21978 113537,113615,113589
 3.8000e+000 113693 -5.5526e+001 -4.8787e+002  6.7450e+000 21978 113537,113589,113563
 3.8000e+000 113834 -1.8207e+002 -4.4292e+002  4.8848e+001 21978 113641,113615,113808
 3.8000e+000 113857 -9.6932e+001 -4.1018e+002  7.2969e+001 21978 113641,113808,113667
 3.8000e+000 114284 -1.3049e+002 -3.7097e+002  7.2660e+000 21517 114013,114117,114039
 3.8000e+000 114261 -1.4492e+002 -3.6856e+002  2.8011e+001 21517 113961,114117,114013
 3.8000e+000 114238 -1.4354e+002 -3.7772e+002  2.7228e+001 21517 113961,114013,113987
 3.8000e+000 114215 -2.0607e+002 -4.2091e+002 -2.8976e+001 21517 114039,114117,114091
 3.8000e+000 114192 -1.4741e+002 -3.1547e+002  3.3676e+001 21517 113961,114143,114117
 3.8000e+000 114169 -3.3903e+001 -3.6213e+002 -3.2982e+001 21517 114039,114091,114065
 3.8000e+000 114581 -8.3436e+001 -4.4364e+002  5.1133e+000 21027 114359,114463,114437
 3.8000e+000 114558 -5.0287e+001 -4.0310e+002  5.1845e+001 21027 114333,114463,114359
 3.8000e+000 114535 -4.2089e+001 -4.0773e+002 -1.0408e+001 21027 114359,114437,114385
 3.8000e+000 114512 -3.3140e+001 -3.9898e+002  4.2099e+001 21027 114307,114463,114333
 3.8000e+000 114489  4.6848e+001 -3.7970e+002 -1.8712e+001 21027 114385,114437,114411
 3.8000e+000 114912 -1.7397e+002 -3.7989e+002  3.7744e+000 20623 114713,114791,114765
 3.8000e+000 114889 -1.2145e+002 -3.5840e+002 -2.7385e+001 20623 114687,114791,114713
 3.8000e+000 114866 -8.7680e+001 -4.0074e+002 -2.9660e+001 20623 114687,114817,114791
 3.8000e+000 114843 -2.5178e+002 -4.5818e+002  3.6846e+001 20623 114713,114765,114739
 3.8000e+000 115290 -4.9763e+001 -3.3835e+002  1.7988e+001 20375 115313,115146,115094
 3.8000e+000 115267 -7.6852e+001 -3.2388e+002  3.2715e+001 20375 115313,115094,115042
 3.8000e+000 115244 -9.8498e+001 -3.1226e+002  1.0849e+001 20375 115385,115016,115172
 3.8000e+000 115221 -3.3357e+001 -3.0382e+002  2.7279e+001 20375 115042,115094,115068
 3.8000e+000 115198 -7.4100e+001 -4.0246e+002  2.2565e+001 20375 115094,115146,115120
 3.8000e+000 115339 -1.0519e+002 -3.9486e+002 -1.0327e+001 20375 115172,115146,115313
 3.8000e+000 115362 -6.1242e+001 -3.2158e+002  1.2874e+001 20375 115385,115172,115313
 3.8000e+000 115411 -1.1958e+002 -3.2298e+002  1.4542e+001 20375 115042,115016,115385
 3.8000e+000 115434 -1.0144e+002 -3.4490e+002  2.2439e+001 20375 115042,115385,115313
 3.8000e+000 115891 -1.7491e+002 -3.4273e+002  4.2012e+001 19971 115617,115747,115643
 3.8000e+000 115868 -1.4956e+002 -2.7996e+002  3.8208e+001 19971 115617,115773,115747
 3.8000e+000 115845 -1.0955e+002 -5.1214e+002  6.2851e+000 19971 115643,115721,115695
 3.8000e+000 115822 -5.2712e+000 -2.5730e+002 -2.4067e+000 19971 115643,115747,115721
 3.8000e+000 115799 -9.2345e+001 -6.3213e+002 -5.2060e+001 19971 115643,115695,115669
 3.8000e+000 115992 -2.6028e+002 -6.6372e+002 -1.1217e+002 19659 115914,115966,115940
 3.8000e+000 116142 -3.8078e+001 -1.4643e+002  3.8367e+000 18997 116041,116093,116067
 3.8000e+000 116119 -7.7219e+001 -2.4677e+002  1.4138e+001 18997 116015,116093,116041
 3.8000e+000 116343 -6.6921e+001 -3.8572e+002 -1.1431e+001 18707 116193,116245,116219
 3.8000e+000 116320 -1.4822e+002 -4.2039e+002 -1.7243e+001 18707 116193,116271,116245
 3.8000e+000 116297 -1.3324e+002 -3.7471e+002 -2.6092e+001 18707 116167,116271,116193
 3.8000e+000 116747 -6.5521e+001 -3.5437e+002 -6.3160e+000 18301 116525,116629,116551
 3.8000e+000 116724 -3.9481e+001 -3.0064e+002  8.4979e+000 18301 116473,116629,116525
 3.8000e+000 116701 -2.8192e+001 -2.9368e+002 -1.4676e+001 18301 116473,116525,116499
 3.8000e+000 116678 -5.5400e+001 -3.6744e+002 -4.5911e+000 18301 116551,116603,116577
 3.8000e+000 116655 -7.6532e+001 -3.8024e+002 -1.0524e+001 18301 116551,116629,116603
 3.8000e+000 117147 -1.8888e+002 -4.2070e+002 -1.7611e+000 17747 116899,117029,116925
 3.8000e+000 117124 -1.0530e+002 -3.1016e+002  4.0965e+001 17747 116873,117029,116899
 3.8000e+000 117101 -1.8688e+002 -4.1744e+002 -9.1305e-001 17747 116925,117029,116951
 3.8000e+000 117078 -1.6563e+002 -3.6592e+002 -2.0241e+000 17747 116951,117029,117003
 3.8000e+000 117055 -2.1423e+002 -4.6978e+002 -2.8997e+001 17747 116951,117003,116977
 3.8000e+000 117368  2.3320e+001 -3.8750e+002  8.5234e+000 17293 117244,117296,117270
 3.8000e+000 117345 -2.6483e+001 -4.0099e+002 -5.3057e+000 17293 117192,117296,117244
 3.8000e+000 117322 -6.6619e+001 -3.7698e+002 -4.3767e+000 17293 117192,117244,117218
 3.8000e+000 117699 -3.6829e+001 -3.1151e+002 -3.7604e+001 16896 117526,117604,117552
 3.8000e+000 117676 -2.0703e+002 -4.7777e+002  2.9710e+001 16896 117500,117604,117526
 3.8000e+000 117653 -2.1920e+002 -3.7950e+002 -1.8947e+001 16896 117552,117604,117578
 3.8000e+000 117630 -1.8915e+002 -6.1676e+002  5.1615e+001 16896 117474,117604,117500
 3.8000e+000 117849 -4.4265e+002 -8.4708e+002 -3.2414e+001 16534 117722,117774,117748
 3.8000e+000 117826 -3.5012e+002 -1.0323e+003 -1.3893e+002 16534 117722,117800,117774
 3.8000e+000 118070 -6.0763e+000 -4.0140e+002  5.0858e+001 16194 117946,117998,117972
 3.8000e+000 118047 -6.9772e+001 -4.5475e+002  2.0597e+001 16194 117894,117998,117946
 3.8000e+000 118024 -2.3187e+002 -4.6463e+002 -5.7452e-001 16194 117894,117946,117920
 3.8000e+000 118173 -4.7987e+001 -4.0326e+002  0.0000e+000 15968 118095,118147,118121
 3.8000e+000 118276 -1.2338e+002 -4.2206e+002  1.1857e+000 15433 118299,118198,118250
 3.8000e+000 118325 -1.2444e+002 -4.2453e+002  1.2100e+000 15433 118224,118198,118299
 3.8000e+000 118450 -2.0899e+002 -4.5780e+002  4.5361e+001 421 118372,118424,118398
 3.9000e+000 69891 -9.0084e+001 -5.0639e+002  1.8726e+001 68988 69447,69681,69629
 3.9000e+000 69868  3.3362e+001 -4.5418e+002  1.7405e+001 68988 69421,69681,69447
 3.9000e+000 69845 -1.5114e+000 -2.5313e+002  1.1970e+000 68988 69447,69629,69577
 3.9000e+000 69822 -1.4777e+002 -5.2741e+002 -5.8408e+001 68988 69447,69577,69473
 3.9000e+000 69799 -2.4110e+001 -6.0147e+002  9.7722e+001 68988 69629,69681,69655
 3.9000e+000 69776 -1.6040e+002 -3.2204e+002  8.4747e+000 68988 69577,69629,69603
 3.9000e+000 69753 -1.1706e+002 -4.6946e+002 -7.0650e+001 68988 69473,69577,69551
 3.9000e+000 69730 -1.7374e+002 -9.3505e+002 -9.3740e+001 68988 69473,69551,69525
 3.9000e+000 69707 -2.9076e+002 -6.2175e+002  7.3241e-001 68988 69473,69525,69499
 3.9000e+000 69992 -2.8893e+002 -5.4526e+002 -7.3144e+001 68676 69914,69966,69940
 3.9000e+000 70392 -1.9947e+002 -4.1938e+002  3.2354e+001 68478 70118,70248,70144
 3.9000e+000 70369  1.3272e+001 -4.2421e+002  9.2399e+001 68478 70118,70274,70248
 3.9000e+000 70346 -1.1990e+002 -3.1624e+002 -7.7955e-001 68478 70144,70222,70196
 3.9000e+000 70323 -1.0092e+002 -2.6672e+002 -1.3189e+001 68478 70144,70248,70222
 3.9000e+000 70300 -1.3162e+002 -3.4866e+002 -6.5982e+000 68478 70144,70196,70170
 3.9000e+000 70841  7.1661e+001 -2.8259e+002 -7.8633e+001 68280 70570,70622,70596
 3.9000e+000 70818 -1.4084e+002 -3.2463e+002 -1.8618e+001 68280 70544,70622,70570
 3.9000e+000 70795 -1.0308e+002 -2.4016e+002 -1.0824e+001 68280 70544,70674,70622
 3.9000e+000 70772 -8.8772e+001 -2.1292e+002  4.7908e+000 68280 70622,70674,70648
 3.9000e+000 70749 -1.4861e+002 -3.6408e+002  2.7820e+001 68280 70518,70674,70544
 3.9000e+000 70726  1.3160e+002 -3.7680e+002  1.0966e+002 68280 70518,70700,70674
 3.9000e+000 70991 -1.7512e+001 -1.5295e+003  4.5532e+001 67968 70864,70916,70890
 3.9000e+000 70968 -4.0635e+002 -1.5182e+003  1.7607e+002 67968 70864,70942,70916
 3.9000e+000 71141 -7.0921e+002 -1.3506e+003 -6.6070e+001 67770 71040,71092,71066
 3.9000e+000 71118 -6.1890e+002 -1.6254e+003  7.0556e+001 67770 71014,71092,71040
 3.9000e+000 71651 -9.5372e+001 -2.9012e+002 -5.0480e+001 67366 71746,71674,71458
 3.9000e+000 71628 -5.9686e+001 -2.3510e+002 -5.3335e+001 67366 71674,71354,71510
 3.9000e+000 71605 -8.3752e+001 -3.2165e+002 -4.7480e+001 67366 71746,71458,71432
 3.9000e+000 71582 -1.3385e+002 -3.2804e+002  1.5277e+001 67366 71354,71432,71380
 3.9000e+000 71559 -1.4631e+002 -2.3888e+002 -2.7616e+001 67366 71380,71432,71406
 3.9000e+000 71536 -6.6002e+001 -9.5203e+001 -5.3041e+000 67366 71328,71510,71354
 3.9000e+000 71700 -1.0726e+002 -2.6218e+002 -2.2532e+001 67366 71484,71458,71674
 3.9000e+000 71723 -7.0549e+001 -2.4554e+002 -1.8300e+001 67366 71484,71674,71510
 3.9000e+000 71772 -8.1472e+001 -2.5285e+002 -4.3521e+001 67366 71354,71674,71746
 3.9000e+000 71795 -6.9258e+001 -2.8124e+002 -4.4201e+001 67366 71354,71746,71432
 3.9000e+000 71896 -2.8803e+002 -6.1380e+002  0.0000e+000 67146 71818,71870,71844
 3.9000e+000 71997 -3.7687e+002 -5.0307e+002  9.9965e+001 66948 71919,71971,71945
 3.9000e+000 72149 -1.0677e+001 -3.6975e+002 -4.3375e+001 66700 72172,72074,72048
 3.9000e+000 72126 -1.2125e+002 -4.1531e+002 -1.7040e+001 66700 72172,72048,72022
 3.9000e+000 72198 -1.9793e+002 -4.5836e+002  3.0522e+001 66700 72244,72172,72100
 3.9000e+000 72221 -1.7820e+002 -4.1935e+002 -2.6329e+001 66700 72100,72172,72022
 3.9000e+000 72270 -9.9166e+001 -2.4270e+002 -2.9236e+001 66700 72074,72172,72244
 3.9000e+000 72623 -1.3009e+002 -3.8302e+002  1.0378e+001 66502 72424,72502,72450
 3.9000e+000 72600 -1.0751e+002 -3.2072e+002  6.4582e+000 66502 72398,72502,72424
 3.9000e+000 72577 -7.9433e+001 -3.6567e+002 -7.0401e+000 66502 72398,72528,72502
 3.9000e+000 72554 -1.2932e+002 -3.3983e+002 -2.4463e+000 66502 72450,72502,72476
 3.9000e+000 72920 -2.1498e+002 -4.4660e+002  1.0871e+001 65941 72672,72776,72750
 3.9000e+000 72897 -2.1686e+002 -3.8517e+002  4.2360e+001 65941 72646,72776,72672
 3.9000e+000 72874 -1.8690e+002 -4.3786e+002  1.3315e+001 65941 72672,72750,72724
 3.9000e+000 72851 -1.8731e+002 -3.4649e+002  3.0701e+001 65941 72672,72724,72698
 3.9000e+000 72828 -1.6895e+002 -3.9228e+002  4.2199e+001 65941 72646,72802,72776
 3.9000e+000 73241 -4.8031e+001 -3.2280e+002  2.2362e+001 65743 73264,73071,73045
 3.9000e+000 73218 -1.2950e+002 -3.5985e+002  3.1360e+001 65743 73480,73264,73045
 3.9000e+000 73195 -1.0976e+002 -3.3002e+002 -4.8045e+000 65743 73336,72967,73097
 3.9000e+000 73172 -1.9346e+002 -3.0141e+002 -3.5357e+001 65743 73408,72993,72967
 3.9000e+000 73149 -9.5199e+001 -3.2934e+002 -4.5384e+000 65743 72967,73123,73097
 3.9000e+000 73290 -8.0106e+001 -3.3853e+002  5.6753e+000 65743 73097,73071,73264
 3.9000e+000 73313 -9.2761e+001 -3.1227e+002  1.3391e+001 65743 73336,73097,73264
 3.9000e+000 73362 -1.6550e+002 -3.3907e+002 -2.4237e+001 65743 73408,72967,73336
 3.9000e+000 73385 -7.8712e+001 -3.0915e+002 -1.9050e+000 65743 73019,73336,73264
 3.9000e+000 73434 -1.4715e+002 -2.3268e+002  1.6375e+001 65743 73019,72993,73408
 3.9000e+000 73457 -8.2098e+001 -2.8199e+002  1.0607e+001 65743 73019,73408,73336
 3.9000e+000 73506 -5.4862e+001 -2.3033e+002  1.0852e+000 65743 73019,73264,73480
 3.9000e+000 73989 -8.5618e+000 -2.5265e+002  3.1145e+001 65453 73793,73845,73819
 3.9000e+000 73966 -1.3163e+002 -2.8510e+002  3.5988e+001 65453 73741,73845,73793
 3.9000e+000 73943 -2.8375e+001 -2.2823e+002  1.3909e+001 65453 73715,73845,73741
 3.9000e+000 73920 -1.0264e+002 -3.0062e+002  5.9305e+001 65453 73741,73793,73767
 3.9000e+000 73897  9.9973e+000 -1.4335e+002  3.7280e+000 65453 73715,73871,73845
 3.9000e+000 74357 -8.1588e+001 -3.3683e+002 -9.0605e+001 65141 74380,74138,74086
 3.9000e+000 74334 -1.4846e+002 -4.4884e+002 -6.1415e+001 65141 74380,74086,74060
 3.9000e+000 74311 -1.6692e+002 -4.3628e+002 -1.6053e+001 65141 74138,74190,74164
 3.9000e+000 74288 -1.2549e+002 -4.8499e+002 -1.8566e+001 65141 74060,74216,74190
 3.9000e+000 74265 -1.3384e+002 -5.1238e+002  8.1952e+000 65141 74034,74216,74060
 3.9000e+000 74242 -1.1072e+002 -2.7983e+002 -6.4420e+001 65141 74086,74138,74112
 3.9000e+000 74406 -1.2252e+002 -4.3654e+002 -3.6382e+001 65141 74190,74138,74380
 3.9000e+000 74429 -1.4323e+002 -4.7511e+002 -1.7332e+001 65141 74190,74380,74060
 3.9000e+000 74937 -1.6731e+002 -3.3337e+002 -8.5953e+001 64737 74614,74666,74640
 3.9000e+000 74914 -2.0301e+002 -4.1440e+002 -6.3641e+001 64737 74614,74796,74666
 3.9000e+000 74891 -1.4905e+002 -2.9406e+002 -1.2128e+001 64737 74960,74718,74666
 3.9000e+000 74868 -1.2909e+002 -3.2226e+002 -3.9427e+001 64737 74960,74666,74770
 3.9000e+000 74845 -1.3136e+002 -2.5476e+002 -4.1342e+001 64737 74666,74796,74770
 3.9000e+000 74822 -1.4814e+002 -3.2062e+002  4.4086e+000 64737 74666,74718,74692
 3.9000e+000 74986 -1.6112e+002 -3.2308e+002 -1.0337e+001 64737 74744,74718,74960
 3.9000e+000 75009 -1.4768e+002 -3.6539e+002 -3.8114e+001 64737 74744,74960,74770
 3.9000e+000 75306 -7.2110e+001 -2.9085e+002  4.0645e+001 64133 75329,75110,75084
 3.9000e+000 75283 -9.0712e+001 -3.4284e+002  1.0632e+001 64133 75401,75329,75084
 3.9000e+000 75260 -8.3588e+001 -3.5383e+002  1.6375e+001 64133 75401,75084,75058
 3.9000e+000 75237 -9.4024e+001 -4.1105e+002  5.0956e+001 64133 75473,75136,75110
 3.9000e+000 75214 -9.9855e+001 -3.1686e+002  3.1224e+000 64133 75032,75188,75162
 3.9000e+000 75355 -1.1051e+002 -3.8100e+002  3.9045e+001 64133 75473,75110,75329
 3.9000e+000 75378 -8.2862e+001 -3.2669e+002  2.8541e+000 64133 75162,75329,75032
 3.9000e+000 75427 -7.9246e+001 -3.1763e+002  1.1858e+000 64133 75032,75329,75401
 3.9000e+000 75450 -1.5085e+002 -3.9447e+002  4.1471e+001 64133 75545,75401,75058
 3.9000e+000 75499 -8.3780e+001 -3.7277e+002  1.4131e+001 64133 75162,75136,75473
 3.9000e+000 75522 -9.6759e+001 -3.2099e+002  1.1863e+001 64133 75162,75473,75329
 3.9000e+000 75571 -7.1966e+001 -2.2188e+002  1.1435e+001 64133 75032,75401,75545
 3.9000e+000 75851 -1.2271e+002 -3.1915e+002  4.5220e+000 63843 75874,75753,75727
 3.9000e+000 75828 -1.0694e+002 -3.2124e+002 -1.9628e+001 63843 75946,75874,75727
 3.9000e+000 75805 -1.2264e+002 -3.4390e+002 -9.4808e+000 63843 76018,75946,75727
 3.9000e+000 75900 -9.0848e+001 -3.0562e+002 -8.3452e+000 63843 75779,75753,75874
 3.9000e+000 75923 -9.9063e+001 -2.6363e+002 -3.7454e+001 63843 75779,75874,75675
 3.9000e+000 75972 -1.2284e+002 -2.9979e+002 -1.5118e+001 63843 75675,75874,75946
 3.9000e+000 75995 -1.1046e+002 -3.1667e+002 -2.5688e+001 63843 75675,75946,75701
 3.9000e+000 76044 -1.2422e+002 -3.3096e+002 -3.3192e+001 63843 75701,75946,76018
 3.9000e+000 76454  2.7290e+001 -6.1340e+001 -4.0826e+001 63439 76477,76255,76229
 3.9000e+000 76431 -2.8262e+001 -1.5796e+002 -5.8844e+000 63439 76477,76229,76359
 3.9000e+000 76408 -4.5003e+001 -1.2393e+002  6.7442e+001 63439 76307,76359,76333
 3.9000e+000 76385 -2.1975e+001 -1.6446e+002  9.2101e+000 63439 76255,76307,76281
 3.9000e+000 76503 -2.7250e+001 -1.3679e+002  1.7182e+001 63439 76307,76255,76477
 3.9000e+000 76526 -2.6435e+001 -1.7542e+002  4.2169e+001 63439 76307,76477,76359
 3.9000e+000 76926 -7.2260e+001 -2.4069e+002 -5.4211e+000 63049 76704,76782,76756
 3.9000e+000 76903 -1.0868e+002 -2.5124e+002 -2.4148e+001 63049 76704,76808,76782
 3.9000e+000 76880 -7.7408e+001 -2.8122e+002  3.8007e+000 63049 76704,76756,76730
 3.9000e+000 76857 -6.7441e+001 -1.6381e+002  9.9927e+000 63049 76678,76808,76704
 3.9000e+000 76834 -3.1655e+001 -4.0090e+001 -3.7112e+001 63049 76652,76808,76678
 3.9000e+000 77076 -2.4632e+001 -3.6850e+002 -2.2575e+000 62737 76975,77027,77001
 3.9000e+000 77053 -2.3071e+001 -4.1514e+002 -2.7025e+001 62737 76949,77027,76975
 3.9000e+000 77324 -1.5997e+002 -3.7506e+002 -6.1576e+000 62277 77347,77177,77125
 3.9000e+000 77301 -1.5814e+002 -3.6354e+002 -2.3228e+001 62277 77347,77125,77229
 3.9000e+000 77278 -1.5325e+002 -3.7458e+002 -3.0366e+001 62277 77099,77229,77125
 3.9000e+000 77255 -1.6413e+002 -4.5705e+002  1.5589e+000 62277 77125,77177,77151
 3.9000e+000 77373 -1.6922e+002 -4.0835e+002  6.6618e+000 62277 77203,77177,77347
 3.9000e+000 77396 -1.4788e+002 -3.7872e+002 -1.3672e+001 62277 77203,77347,77229
 3.9000e+000 77857 -7.3562e+001 -4.6539e+002  4.2067e+000 61758 77635,77739,77661
 3.9000e+000 77834 -1.1695e+002 -4.4455e+002 -1.9614e+001 61758 77583,77739,77635
 3.9000e+000 77811 -1.3911e+002 -5.6360e+002 -5.4896e+001 61758 77583,77635,77609
 3.9000e+000 77788 -1.1318e+002 -4.3492e+002  3.4843e+001 61758 77661,77713,77687
 3.9000e+000 77765 -1.1301e+002 -5.0609e+002  3.6847e+001 61758 77661,77739,77713
 3.9000e+000 78491 -1.2618e+002 -2.6065e+002  1.6169e+001 61418 78171,78301,78249
 3.9000e+000 78468 -1.0589e+002 -2.2068e+002  3.1808e+001 61418 78145,78301,78171
 3.9000e+000 78445 -9.4641e+001 -2.3000e+002 -1.3212e+001 61418 78171,78249,78223
 3.9000e+000 78422 -1.0157e+002 -2.1841e+002  1.4999e+001 61418 78145,78327,78301
 3.9000e+000 78399 -1.2904e+002 -2.8484e+002  1.5050e+000 61418 78249,78301,78275
 3.9000e+000 78376 -5.8400e+001 -2.4387e+002 -1.9635e+001 61418 78171,78223,78197
 3.9000e+000 78353 -1.2452e+002 -2.8164e+002 -2.7715e+000 61418 78119,78327,78145
 3.9000e+000 78690 -1.3798e+002 -3.2012e+002 -4.8297e+000 61014 78713,78566,78540
 3.9000e+000 78667 -9.0857e+001 -3.2468e+002 -2.1193e+000 61014 78713,78540,78618
 3.9000e+000 78644 -1.5353e+002 -3.6650e+002 -3.5429e+001 61014 78514,78618,78540
 3.9000e+000 78739 -7.0589e+001 -3.1467e+002  3.2237e+001 61014 78592,78566,78713
 3.9000e+000 78762 -8.2658e+001 -3.4514e+002  9.7250e-001 61014 78785,78713,78618
 3.9000e+000 78811 -2.6079e+001 -3.2325e+002 -5.8689e+000 61014 78592,78713,78785
 3.9000e+000 79398 -6.1154e+001 -2.7299e+002 -2.9108e+001 60624 79101,79179,79153
 3.9000e+000 79375 -8.2676e+001 -3.0862e+002 -1.3980e+001 60624 79101,79231,79179
 3.9000e+000 79352 -6.6016e+001 -3.0931e+002 -2.4340e+001 60624 79075,79231,79101
 3.9000e+000 79329 -2.0006e+001 -3.7712e+002  4.4743e+001 60624 79075,79257,79231
 3.9000e+000 79306 -5.8750e+001 -2.2233e+002 -5.2338e+001 60624 79179,79231,79205
 3.9000e+000 79283 -4.7570e+001 -2.4323e+002 -1.6935e+001 60624 79101,79153,79127
 3.9000e+000 79776 -1.4902e+002 -4.1501e+002  4.1743e+001 60070 79528,79658,79606
 3.9000e+000 79753 -1.2934e+002 -3.1570e+002  1.5800e+000 60070 79502,79658,79528
 3.9000e+000 79730 -1.8277e+002 -3.9914e+002  5.9386e+001 60070 79528,79606,79580
 3.9000e+000 79707 -3.7854e+001 -3.4255e+002  7.4528e+000 60070 79606,79658,79632
 3.9000e+000 79684 -1.6130e+001 -2.4415e+002 -6.4770e+001 60070 79528,79580,79554
 3.9000e+000 80105 -1.0073e+002 -3.1395e+002  4.4038e+001 59758 80128,79958,79906
 3.9000e+000 80082 -1.1283e+002 -2.9970e+002  3.6074e+001 59758 80128,79906,80010
 3.9000e+000 80059 -1.4979e+002 -3.3035e+002  1.1797e+002 59758 79906,79958,79932
 3.9000e+000 80036 -1.7429e+002 -3.5363e+002  1.2406e+001 59758 79880,80010,79906
 3.9000e+000 80154 -1.0750e+002 -3.2273e+002  4.0648e+001 59758 79984,79958,80128
 3.9000e+000 80177 -1.2025e+002 -3.1161e+002  3.2111e+001 59758 79984,80128,80010
 3.9000e+000 80376 -8.5901e+001 -3.1504e+002  6.6820e+000 59312 80226,80304,80252
 3.9000e+000 80353 -8.9512e+001 -3.1876e+002  5.1794e+000 59312 80200,80304,80226
 3.9000e+000 80330 -1.3286e+002 -2.8394e+002  8.4013e+001 59312 80252,80304,80278
 3.9000e+000 80805 -1.0805e+002 -2.5401e+002 -3.8474e+001 58908 80900,80828,80638
 3.9000e+000 80782 -9.2495e+001 -2.9872e+002 -5.8647e+001 58908 80828,80560,80508
 3.9000e+000 80759 -1.1332e+002 -2.3950e+002 -1.4190e+001 58908 80900,80638,80612
 3.9000e+000 80736 -4.8079e+001 -2.5528e+002  1.0471e+002 58908 80482,80664,80508
 3.9000e+000 80713 -7.4104e+001 -2.2179e+002 -8.3589e+000 58908 80560,80612,80586
 3.9000e+000 80690 -1.0545e+002 -7.3303e+002 -1.3964e+002 58908 80508,80560,80534
 3.9000e+000 80854 -4.9988e+001 -2.7442e+002  1.0147e+000 58908 80664,80638,80828
 3.9000e+000 80877 -8.6285e+001 -3.9220e+002  6.0426e+000 58908 80664,80828,80508
 3.9000e+000 80926 -9.1973e+001 -2.1031e+002 -4.1669e+001 58908 80560,80828,80900
 3.9000e+000 80949 -1.0353e+002 -2.1065e+002 -1.4019e+001 58908 80560,80900,80612
 3.9000e+000 81246 -4.2461e+001 -2.3841e+002 -6.7475e+000 58482 81076,81128,81102
 3.9000e+000 81223 -1.1013e+002 -4.1316e+002 -4.2006e+001 58482 80972,81128,81076
 3.9000e+000 81200 -6.9209e+001 -2.8058e+002 -4.5314e+001 58482 80972,81076,81050
 3.9000e+000 81177 -1.5627e+002 -4.2942e+002 -1.0713e+001 58482 80998,81050,81024
 3.9000e+000 81154 -8.3162e+001 -3.5131e+002 -4.1482e+001 58482 80972,81050,80998
 3.9000e+000 81754 -1.2125e+002 -2.5417e+002  2.2257e+001 57828 81457,81613,81483
 3.9000e+000 81731 -1.3527e+002 -2.7808e+002  1.1043e+001 57828 81431,81613,81457
 3.9000e+000 81708 -1.3222e+002 -2.7977e+002  2.2345e+001 57828 81483,81613,81509
 3.9000e+000 81685 -1.5631e+002 -3.1391e+002  3.2913e+001 57828 81509,81613,81587
 3.9000e+000 81662 -1.6544e+002 -4.6631e+002  6.5581e+001 57828 81509,81587,81535
 3.9000e+000 81639 -9.7506e+001 -4.4471e+002  4.2483e+001 57828 81535,81587,81561
 3.9000e+000 82002 -2.0004e+002 -4.8399e+002 -6.9719e-001 57374 82025,81855,81829
 3.9000e+000 81979 -2.1489e+002 -4.5895e+002  2.0570e+001 57374 82025,81829,81907
 3.9000e+000 81956 -2.1997e+002 -4.2655e+002  1.3117e+001 57374 81803,81907,81829
 3.9000e+000 81933 -1.3533e+002 -3.9826e+002  1.4544e+001 57374 81777,81907,81803
 3.9000e+000 82051 -1.9027e+002 -4.5369e+002 -5.7205e+000 57374 81881,81855,82025
 3.9000e+000 82074 -2.0675e+002 -4.3534e+002  2.1828e+001 57374 81881,82025,81907
 3.9000e+000 82356 -1.0100e+002 -2.4994e+002 -1.9687e+001 56913 82180,82232,82206
 3.9000e+000 82333 -8.4480e+001 -2.3573e+002  2.7589e+001 56913 82180,82284,82232
 3.9000e+000 82310 -2.4053e+001 -1.9808e+002  4.9553e+001 56913 82379,82232,82284
 3.9000e+000 82405  3.3095e+001 -1.9435e+002  8.0263e+000 56913 82258,82232,82379
 3.9000e+000 82764 -1.0544e+002 -1.6726e+002 -1.7186e+001 56523 82614,82666,82640
 3.9000e+000 82741 -9.0583e+001 -1.6880e+002 -2.5100e+001 56523 82614,82692,82666
 3.9000e+000 82718 -7.7752e+001 -1.8238e+002 -5.3900e+001 56523 82588,82692,82614
 3.9000e+000 83368 -3.0866e+001 -3.2856e+002 -1.4769e+001 55969 82973,83155,83129
 3.9000e+000 83345  4.3044e+000 -3.1438e+002 -2.0243e+001 55969 82973,83181,83155
 3.9000e+000 83322 -8.9980e+001 -2.8854e+002 -1.2761e+001 55969 82973,83129,82999
 3.9000e+000 83299 -1.4161e+002 -2.9746e+002  8.2838e+000 55969 83391,83025,82999
 3.9000e+000 83276 -1.2159e+002 -3.0658e+002  1.2360e+000 55969 83391,82999,83129
 3.9000e+000 83253 -2.9558e+001 -2.5926e+002  5.4186e+001 55969 83077,83129,83103
 3.9000e+000 83230 -1.5191e+002 -2.4361e+002 -1.0174e+001 55969 83025,83077,83051
 3.9000e+000 83207 -2.3986e+000 -3.0266e+002  3.1027e+001 55969 82947,83181,82973
 3.9000e+000 83417 -1.2245e+002 -2.8623e+002  1.3930e+001 55969 83077,83025,83391
 3.9000e+000 83440 -1.1558e+002 -3.0092e+002  4.1335e+000 55969 83077,83391,83129
 3.9000e+000 83946 -2.0135e+002 -4.5452e+002  7.0005e+001 55771 83969,83779,83727
 3.9000e+000 83923 -1.5677e+002 -3.6401e+002  4.4029e+001 55771 83969,83727,83623
 3.9000e+000 83900 -1.9968e+002 -1.9116e+002  2.6677e+001 55771 83623,83727,83649
 3.9000e+000 83877 -1.6086e+002 -8.0089e+002  2.8125e+001 55771 83727,83779,83753
 3.9000e+000 83854 -3.4964e+002 -2.9385e+002  1.3471e+002 55771 83675,83727,83701
 3.9000e+000 83831 -3.1142e+002 -3.0798e+002  1.2629e+002 55771 83649,83727,83675
 3.9000e+000 83995 -1.8996e+002 -4.7497e+002 -4.5525e+001 55771 83805,83779,83969
 3.9000e+000 84018 -9.7606e+001 -2.9367e+002 -8.0833e+001 55771 83805,83969,83623
 3.9000e+000 84168 -8.6740e+001 -2.2450e+002 -7.2929e+000 55367 84191,84067,84041
 3.9000e+000 84145 -8.5199e+001 -2.5442e+002 -4.8194e+000 55367 84191,84041,84119
 3.9000e+000 84217 -9.2979e+001 -2.0695e+002 -6.7469e+000 55367 84093,84067,84191
 3.9000e+000 84240 -8.1989e+001 -2.2438e+002  4.1655e+000 55367 84093,84191,84119
 3.9000e+000 84571 -4.4341e+001 -3.7552e+002 -3.8573e+001 54913 84398,84450,84424
 3.9000e+000 84548 -3.1063e+001 -3.4218e+002 -1.9228e+001 54913 84372,84450,84398
 3.9000e+000 84525 -8.4831e+001 -3.8821e+002  1.6259e+001 54913 84346,84450,84372
 3.9000e+000 84502 -2.3340e+001 -2.4783e+002 -3.0251e+001 54913 84346,84476,84450
 3.9000e+000 85126 -1.8276e+002 -4.0300e+002 -1.4885e+001 54402 84858,84936,84910
 3.9000e+000 85103 -1.4365e+002 -3.2557e+002 -4.2965e+001 54402 84806,84936,84858
 3.9000e+000 85080 -1.6584e+002 -2.9242e+002 -3.2323e+001 54402 84780,84936,84806
 3.9000e+000 85057 -1.3955e+002 -3.5846e+002 -2.2341e+001 54402 84806,84858,84832
 3.9000e+000 85034 -1.4826e+002 -2.7474e+002  1.3209e+001 54402 84780,84962,84936
 3.9000e+000 85011 -2.2163e+002 -2.4226e+002 -7.9098e+000 54402 84858,84910,84884
 3.9000e+000 84988 -1.4559e+002 -2.6641e+002  1.3122e+001 54402 84754,84962,84780
 3.9000e+000 85396 -1.3863e+002 -1.6950e+002 -1.1845e+001 53998 85197,85249,85223
 3.9000e+000 85373 -1.0647e+002 -2.1604e+002 -2.5595e+000 53998 85197,85275,85249
 3.9000e+000 85350 -1.3525e+002 -2.5381e+002 -1.5583e+001 53998 85171,85275,85197
 3.9000e+000 85327 -6.3227e+001 -2.3592e+002 -1.9487e+001 53998 85171,85301,85275
 3.9000e+000 85749 -8.7748e+001 -3.1039e+002 -6.3075e+000 53636 85524,85628,85550
 3.9000e+000 85726 -1.3977e+002 -3.4095e+002  1.0949e+001 53636 85524,85654,85628
 3.9000e+000 85703 -5.2531e+001 -3.3594e+002 -3.2266e+001 53636 85550,85602,85576
 3.9000e+000 85680 -8.7559e+001 -3.0791e+002 -1.5713e+001 53636 85550,85628,85602
 3.9000e+000 86127 -3.6579e+001 -3.0140e+002  4.8526e+001 52982 86150,85957,85879
 3.9000e+000 86104 -1.0398e+002 -3.5127e+002  2.6724e+001 52982 86150,85879,85853
 3.9000e+000 86081 -3.2912e+001 -4.3909e+002  8.7907e+001 52982 85957,86009,85983
 3.9000e+000 86058 -1.2871e+002 -3.2264e+002  3.9616e+001 52982 85879,85957,85931
 3.9000e+000 86035 -8.6522e+001 -3.0789e+002 -7.1891e+000 52982 85879,85931,85905
 3.9000e+000 86176  7.4779e+000 -3.5640e+002  3.9766e+001 52982 86009,85957,86150
 3.9000e+000 86199 -3.2505e+001 -3.9061e+002  2.4888e+001 52982 86009,86150,85853
 3.9000e+000 86398 -6.7819e+001 -2.3138e+002  2.2004e+001 52542 86421,86248,86222
 3.9000e+000 86375 -1.1835e+002 -2.3681e+002 -1.5943e+000 52542 86421,86222,86300
 3.9000e+000 86352 -1.1700e+002 -2.5384e+002 -1.1081e+001 52542 86222,86326,86300
 3.9000e+000 86447 -1.6272e+001 -2.3267e+002  4.2695e+001 52542 86274,86248,86421
 3.9000e+000 86470 -6.4242e+001 -2.4599e+002  1.2924e+001 52542 86274,86421,86300
 3.9000e+000 86669 -1.1055e+002 -2.4363e+002 -3.8297e+001 52230 86692,86571,86545
 3.9000e+000 86646 -1.0538e+002 -2.2676e+002 -1.9469e+001 52230 86692,86545,86519
 3.9000e+000 86623 -1.5023e+002 -2.3795e+002 -3.5748e+001 52230 86493,86597,86519
 3.9000e+000 86718 -1.1955e+002 -2.4921e+002 -4.6934e+001 52230 86597,86571,86692
 3.9000e+000 86741 -1.2721e+002 -2.3776e+002 -2.9299e+001 52230 86597,86692,86519
 3.9000e+000 87153 -1.5465e+002 -2.4594e+002  1.2734e+001 51640 86980,87058,87032
 3.9000e+000 87130 -1.5792e+002 -2.5395e+002  9.4091e+000 51640 86928,87058,86980
 3.9000e+000 87107 -1.6817e+002 -3.3572e+002 -1.0560e+001 51640 86928,86980,86954
 3.9000e+000 87084 -8.5575e+001 -2.1665e+002 -3.1231e+000 51640 86980,87032,87006
 3.9000e+000 87659 -5.8872e+001 -2.1830e+002  1.3343e+001 51029 87682,87440,87362
 3.9000e+000 87636 -6.2861e+001 -2.3694e+002 -1.6757e+001 51029 87682,87362,87336
 3.9000e+000 87613 -9.6863e+001 -3.3948e+002 -1.3705e+001 51029 87440,87518,87466
 3.9000e+000 87590 -1.1864e+002 -2.1949e+002  1.7684e+001 51029 87362,87440,87414
 3.9000e+000 87567 -1.0048e+002 -1.7244e+002  4.2182e+001 51029 87362,87414,87388
 3.9000e+000 87544 -1.4103e+002 -2.7380e+002  5.5975e+000 51029 87466,87518,87492
 3.9000e+000 87708 -5.2837e+001 -2.4958e+002  1.2299e-001 51029 87518,87440,87682
 3.9000e+000 87731 -5.6405e+001 -2.8961e+002 -1.8939e+001 51029 87518,87682,87336
 3.9000e+000 87881 -1.4395e+002 -3.1089e+002  7.7367e+000 50739 87780,87832,87806
 3.9000e+000 87858 -1.6227e+002 -3.0879e+002 -1.3822e+001 50739 87754,87832,87780
 3.9000e+000 88468 -7.6463e+001 -2.0339e+002  6.1355e+000 50235 88171,88327,88197
 3.9000e+000 88445 -1.8144e+002 -1.9848e+002 -3.4125e+001 50235 88145,88327,88171
 3.9000e+000 88422 -6.9555e-001 -1.0671e+002 -3.5666e-001 50235 88275,88327,88301
 3.9000e+000 88399 -5.6437e+001 -1.3060e+002  1.2949e+000 50235 88197,88327,88275
 3.9000e+000 88376 -3.4146e+001 -1.8535e+002 -1.7008e+000 50235 88197,88275,88223
 3.9000e+000 88353 -3.3963e+001 -2.3938e+002 -2.4168e+001 50235 88223,88275,88249
 3.9000e+000 88895 -1.3766e+002 -3.3160e+002  7.4857e+000 49873 88918,88728,88676
 3.9000e+000 88872 -1.1743e+002 -3.0880e+002 -5.6717e+000 49873 88918,88676,88624
 3.9000e+000 88849 -9.2712e+001 -2.8218e+002 -1.2952e+001 49873 88598,88754,88624
 3.9000e+000 88826 -7.0037e+001 -2.8971e+002 -7.5981e+000 49873 88624,88676,88650
 3.9000e+000 88803 -1.1947e+002 -4.0216e+002  9.6825e+000 49873 88676,88728,88702
 3.9000e+000 88780 -1.1361e+002 -2.8116e+002 -1.0552e+001 49873 88572,88754,88598
 3.9000e+000 88944 -1.1313e+002 -3.2930e+002 -7.0032e+000 49873 88754,88728,88918
 3.9000e+000 88967 -1.0536e+002 -3.2114e+002 -1.7762e+001 49873 88754,88918,88624
 3.9000e+000 89473 -2.0479e+002 -3.1593e+002 -3.4449e+001 49583 89176,89306,89202
 3.9000e+000 89450 -2.0336e+002 -3.0617e+002 -5.6465e+001 49583 89176,89332,89306
 3.9000e+000 89427 -1.2116e+002 -3.5025e+002  1.5788e+001 49583 89496,89228,89202
 3.9000e+000 89404 -1.2002e+002 -3.5832e+002  1.8973e+001 49583 89496,89202,89280
 3.9000e+000 89381 -2.4687e+002 -4.4468e+002 -7.3065e+001 49583 89202,89306,89280
 3.9000e+000 89358 -1.6299e+002 -3.1132e+002 -6.5540e+001 49583 89150,89332,89176
 3.9000e+000 89522 -1.1267e+002 -2.9703e+002  1.0256e+001 49583 89254,89228,89496
 3.9000e+000 89545 -1.3632e+002 -3.4317e+002  1.8704e+001 49583 89254,89496,89280
 3.9000e+000 89825  2.3339e+001 -3.1189e+002  1.9255e+001 49179 89701,89753,89727
 3.9000e+000 89802 -4.8958e+001 -2.8268e+002  2.5485e+001 49179 89675,89753,89701
 3.9000e+000 89779 -3.6180e+001 -2.4744e+002  1.8413e+001 49179 89848,89753,89675
 3.9000e+000 89874 -1.6457e+002 -2.8283e+002 -1.5385e+001 49179 89649,89753,89848
 3.9000e+000 90223 -1.1355e+002 -3.3025e+002 -3.2967e+001 48739 90024,90102,90076
 3.9000e+000 90200 -1.1422e+002 -3.1441e+002 -1.1509e+001 48739 90024,90128,90102
 3.9000e+000 90177 -2.0164e+001 -3.2413e+002 -3.3930e+001 48739 90024,90076,90050
 3.9000e+000 90154 -4.6684e+001 -3.0292e+002  2.4622e+001 48739 89998,90128,90024
 3.9000e+000 90603 -1.0727e+002 -2.6022e+002  5.4956e+001 48335 90381,90485,90459
 3.9000e+000 90580 -1.3672e+002 -3.0486e+002  4.1630e+001 48335 90355,90485,90381
 3.9000e+000 90557 -6.1620e+001 -1.2206e+002  2.7441e+001 48335 90381,90433,90407
 3.9000e+000 90534 -1.0558e+002 -2.7158e+002  4.0639e+001 48335 90381,90459,90433
 3.9000e+000 90511  1.5401e+001 -2.1683e+002  8.1854e+001 48335 90329,90485,90355
 3.9000e+000 90753 -1.1284e+001 -1.6669e+002  9.7590e+001 47824 90776,90652,90704
 3.9000e+000 90730 -8.9194e+001 -2.8603e+002  5.0093e+001 47824 90626,90704,90652
 3.9000e+000 90802 -4.4528e+001 -2.1851e+002  7.7495e+001 47824 90678,90652,90776
 3.9000e+000 91131 -9.3065e+001 -3.3053e+002  1.5327e+001 47427 91154,90958,90906
 3.9000e+000 91108 -1.6735e+002 -3.6080e+002 -3.6370e-001 47427 91154,90906,91036
 3.9000e+000 91085 -1.6613e+002 -2.9100e+002 -2.6777e+001 47427 90958,91010,90984
 3.9000e+000 91062 -9.2376e+001 -3.0754e+002  1.7585e+001 47427 90906,90958,90932
 3.9000e+000 91180 -1.3665e+002 -3.2938e+002 -3.3271e+001 47427 91010,90958,91154
 3.9000e+000 91203 -2.0864e+002 -3.6067e+002 -5.0306e+001 47427 91010,91154,91036
 3.9000e+000 91583 -1.8960e+002 -3.4731e+002 -1.7618e+001 46873 91309,91439,91335
 3.9000e+000 91560 -1.9586e+002 -3.5645e+002 -1.4809e+001 46873 91309,91465,91439
 3.9000e+000 91537 -2.7506e+002 -4.0296e+002 -9.1118e+001 46873 91361,91439,91413
 3.9000e+000 91514 -2.0979e+002 -3.6058e+002 -4.7132e+001 46873 91335,91439,91361
 3.9000e+000 91491 -9.7274e+001 -3.5113e+002 -8.7910e+001 46873 91361,91413,91387
 3.9000e+000 91880 -1.0295e+002 -3.3256e+002 -6.1905e+000 46526 91606,91710,91658
 3.9000e+000 91857 -1.0720e+002 -3.4672e+002  2.9838e+000 46526 91606,91762,91710
 3.9000e+000 91834 -6.1013e+001 -3.2191e+002 -3.7506e+001 46526 91606,91658,91632
 3.9000e+000 91811 -1.2130e+002 -3.1099e+002  6.6798e+000 46526 91658,91710,91684
 3.9000e+000 91788 -6.8761e+001 -2.3276e+002  1.1330e+001 46526 91710,91762,91736
 3.9000e+000 92211 -6.5189e+001 -1.4990e+002 -9.6688e+000 45700 91986,92064,92038
 3.9000e+000 92188 -8.9400e+001 -2.2008e+002  4.2712e+000 45700 91986,92116,92064
 3.9000e+000 92165 -5.0114e+001 -1.2983e+002 -3.0541e+001 45700 91986,92038,92012
 3.9000e+000 92142 -6.3185e+001 -2.3610e+002  2.9856e+001 45700 92064,92116,92090
 3.9000e+000 92766 -1.7895e+002 -2.9959e+002  1.2895e+001 45452 92446,92602,92576
 3.9000e+000 92743 -2.6133e+002 -2.9522e+002 -3.6888e+001 45452 92420,92602,92446
 3.9000e+000 92720 -1.9830e+002 -3.0558e+002  4.5824e+001 45452 92789,92524,92498
 3.9000e+000 92697 -2.3624e+002 -3.0222e+002  3.3575e+001 45452 92789,92498,92446
 3.9000e+000 92674 -1.8902e+002 -3.3516e+002 -7.4417e+000 45452 92524,92576,92550
 3.9000e+000 92651 -3.0633e+002 -3.0693e+002  1.7717e+002 45452 92446,92498,92472
 3.9000e+000 92628 -1.9489e+002 -4.2878e+002 -1.2994e+002 45452 92394,92602,92420
 3.9000e+000 92815 -1.7220e+002 -3.1496e+002  3.5958e+001 45452 92576,92524,92789
 3.9000e+000 92838 -2.0069e+002 -3.0375e+002  2.9047e+001 45452 92576,92789,92446
 3.9000e+000 92939 -1.2055e+002 -3.9435e+002 -8.2930e+001 44998 92861,92913,92887
 3.9000e+000 93319 -2.2935e+001 -4.0751e+002  7.8721e+001 44601 93123,93201,93149
 3.9000e+000 93296 -1.1143e+002 -4.1891e+002 -4.1289e+001 44601 93045,93201,93123
 3.9000e+000 93273 -9.1059e+001 -2.4043e+002 -5.8224e+001 44601 93045,93123,93071
 3.9000e+000 93250 -8.4836e+001 -2.2185e+002 -3.6349e+001 44601 93071,93123,93097
 3.9000e+000 93227 -5.2282e+000 -2.2944e+002  8.4538e+001 44601 93149,93201,93175
 3.9000e+000 93697 -8.3980e+001 -4.4435e+002  2.3990e+001 44026 93720,93553,93527
 3.9000e+000 93674 -1.5397e+002 -3.7556e+002  3.3052e+001 44026 93720,93527,93449
 3.9000e+000 93651 -1.7007e+002 -3.8925e+002 -6.1683e+000 44026 93449,93527,93501
 3.9000e+000 93628 -1.2139e+002 -2.9993e+002 -6.7310e+001 44026 93423,93579,93449
 3.9000e+000 93605 -3.6633e+001 -3.0705e+002  2.8867e+001 44026 93449,93501,93475
 3.9000e+000 93746 -3.3859e+001 -3.9410e+002  3.8455e+000 44026 93579,93553,93720
 3.9000e+000 93769 -1.0773e+002 -3.2688e+002  1.3823e+001 44026 93579,93720,93449
 3.9000e+000 94066 -8.1449e+001 -3.4623e+002 -4.7264e+001 43579 94089,93818,93792
 3.9000e+000 94043 -1.3932e+002 -3.8161e+002 -3.1186e+001 43579 94161,94089,93792
 3.9000e+000 94020 -1.3616e+002 -3.8310e+002 -1.5834e+001 43579 94161,93792,93948
 3.9000e+000 93997 -1.4898e+002 -3.0940e+002 -1.6826e+001 43579 94233,93870,93818
 3.9000e+000 93974 -8.5260e+001 -3.2072e+002  9.6811e+000 43579 93818,93870,93844
 3.9000e+000 94115 -1.4413e+002 -3.1173e+002 -3.6307e+001 43579 94233,93818,94089
 3.9000e+000 94138 -1.8965e+002 -3.4531e+002 -2.1733e+001 43579 93896,94089,93922
 3.9000e+000 94187 -1.2922e+002 -3.5935e+002 -2.8402e+001 43579 93922,94089,94161
 3.9000e+000 94210 -1.2365e+002 -3.5802e+002 -1.1692e+001 43579 93922,94161,93948
 3.9000e+000 94259 -1.7481e+002 -3.4646e+002 -3.2137e+000 43579 93896,93870,94233
 3.9000e+000 94282 -1.5689e+002 -3.3813e+002 -2.5546e+001 43579 93896,94233,94089
 3.9000e+000 94481 -1.1255e+002 -3.5380e+002 -2.1200e+000 43239 94305,94383,94357
 3.9000e+000 94458 -9.5722e+001 -3.2269e+002  4.1164e+001 43239 94305,94409,94383
 3.9000e+000 94435 -8.4241e+001 -3.8021e+002 -9.1959e+000 43239 94305,94357,94331
 3.9000e+000 94633 -6.9043e+001 -2.3047e+002  5.8166e+001 42827 94656,94532,94506
 3.9000e+000 94610 -8.4496e+001 -2.4577e+002  7.7024e+001 42827 94728,94656,94506
 3.9000e+000 94682 -1.8136e+001 -2.5676e+002  6.6355e+001 42827 94558,94532,94656
 3.9000e+000 94705  2.5766e+001 -2.7714e+002  4.1317e+001 42827 94988,94860,94656
 3.9000e+000 94754 -3.9836e+001 -2.4375e+002  2.3001e+001 42827 94988,94656,94728
 3.9000e+000 94886  1.1095e+002 -2.4198e+002  4.4131e+001 42827 94558,94656,94860
 3.9000e+000 95014  7.9903e+001 -2.4842e+002  2.8889e+001 42827 94584,94860,94988
 3.9000e+000 95037  2.7397e+001 -2.1148e+002  1.3374e+001 42827 94584,94988,94728
 3.9000e+000 95236 -7.1230e+001 -3.1593e+002  3.5530e+001 42537 95259,95112,95060
 3.9000e+000 95213 -7.7516e+001 -3.1673e+002  3.5931e+001 42537 95259,95060,95164
 3.9000e+000 95190 -4.4309e+001 -3.1919e+002 -9.3805e+000 42537 95060,95112,95086
 3.9000e+000 95285 -7.5527e+001 -3.1438e+002  3.2330e+001 42537 95138,95112,95259
 3.9000e+000 95308 -8.0632e+001 -3.1499e+002  3.1900e+001 42537 95138,95259,95164
 3.9000e+000 95816 -1.3187e+002 -3.6282e+002 -2.8376e+001 41969 95493,95597,95519
 3.9000e+000 95793 -1.9962e+002 -3.5755e+002  2.8643e+001 41969 95493,95649,95597
 3.9000e+000 95770 -1.5340e+002 -3.3111e+002  1.7318e+001 41969 95493,95675,95649
 3.9000e+000 95747 -1.8053e+002 -4.3590e+002  2.2287e+001 41969 95597,95649,95623
 3.9000e+000 95724 -2.0449e+002 -3.4098e+002 -4.1362e+001 41969 95519,95597,95571
 3.9000e+000 95701 -1.7842e+002 -2.9560e+002 -8.6352e+001 41969 95519,95571,95545
 3.9000e+000 96371 -1.5816e+002 -3.7074e+002  4.4007e+001 41579 96025,96207,96181
 3.9000e+000 96348  4.5144e+001 -2.7925e+002 -1.1404e+001 41579 95999,96207,96025
 3.9000e+000 96325 -1.7701e+002 -2.9073e+002 -3.1409e+001 41579 96129,96181,96155
 3.9000e+000 96302 -6.9388e+001 -2.6410e+002  1.8475e+000 41579 96025,96181,96129
 3.9000e+000 96279 -1.4354e+002 -3.8003e+002  5.0318e+001 41579 96025,96129,96051
 3.9000e+000 96256 -1.8001e+002 -3.8420e+002  6.3308e+001 41579 96051,96103,96077
 3.9000e+000 96233 -6.8265e+001 -2.8695e+002  1.0022e+001 41579 96051,96129,96103
 3.9000e+000 96877 -4.0413e+001 -2.3726e+002 -2.7812e+001 41182 96972,96900,96632
 3.9000e+000 96854 -5.0351e+001 -1.7865e+002 -3.0079e+001 41182 96900,96554,96736
 3.9000e+000 96831 -3.9039e+001 -2.3640e+002 -2.5201e+001 41182 96972,96632,96580
 3.9000e+000 96808 -5.4259e+001 -2.2655e+002  1.9553e+001 41182 96632,96684,96658
 3.9000e+000 96785 -8.8948e+001 -2.3690e+002  2.9791e+001 41182 96684,96736,96710
 3.9000e+000 96762 -1.3479e+002 -2.9889e+002  4.4796e+001 41182 96580,96632,96606
 3.9000e+000 96926 -3.7001e+001 -2.6393e+002 -2.7259e+001 41182 96684,96632,96900
 3.9000e+000 96949 -7.3603e+001 -2.3439e+002 -4.7959e+001 41182 96684,96900,96736
 3.9000e+000 96998 -4.5503e+001 -2.4042e+002 -3.1639e+001 41182 96554,96900,96972
 3.9000e+000 97021 -4.3709e+001 -2.3725e+002 -2.8710e+001 41182 96554,96972,96580
 3.9000e+000 97576 -2.2848e+002 -5.4974e+002 -7.5789e+001 40678 97230,97412,97282
 3.9000e+000 97553 -2.8607e+001 -4.4917e+002  2.6530e+001 40678 97204,97412,97230
 3.9000e+000 97530 -7.8100e+001 -4.2530e+002 -6.4835e+001 40678 97282,97360,97308
 3.9000e+000 97507 -1.0770e+002 -4.3160e+002 -2.7763e+001 40678 97282,97412,97360
 3.9000e+000 97484 -4.2417e+001 -2.6537e+002 -5.5507e+001 40678 97308,97360,97334
 3.9000e+000 97461 -1.4290e+002 -5.1244e+002 -1.2642e+001 40678 97360,97412,97386
 3.9000e+000 97438 -1.3004e+002 -3.4584e+002 -4.4046e+001 40678 97230,97282,97256
 3.9000e+000 97976 -1.6271e+002 -2.7382e+002 -7.5276e+000 40244 97702,97832,97754
 3.9000e+000 97953 -1.3728e+002 -2.6062e+002 -1.5196e+001 40244 97702,97858,97832
 3.9000e+000 97930 -1.7361e+002 -3.2065e+002 -7.0969e+001 40244 97702,97754,97728
 3.9000e+000 97907 -1.4000e+002 -3.1028e+002  3.4440e+001 40244 97780,97832,97806
 3.9000e+000 97884 -1.5108e+002 -2.6658e+002 -3.4816e+000 40244 97754,97832,97780
 3.9000e+000 98482 -1.1121e+002 -2.8771e+002  4.1173e+001 39690 98505,98185,98159
 3.9000e+000 98459 -1.1101e+002 -2.8004e+002  4.1022e+001 39690 98505,98159,98289
 3.9000e+000 98436 -1.9479e+002 -4.0423e+002  1.0529e+002 39690 98159,98315,98289
 3.9000e+000 98413 -9.3445e+001 -2.6086e+002  3.8348e+001 39690 98211,98289,98263
 3.9000e+000 98390 -6.2213e+001 -1.7756e+002  2.3227e+001 39690 98211,98263,98237
 3.9000e+000 98367 -5.6482e+001 -2.7054e+002  4.4755e+001 39690 98159,98341,98315
 3.9000e+000 98531 -1.1723e+002 -2.8365e+002  3.4989e+001 39690 98211,98185,98505
 3.9000e+000 98554 -1.1313e+002 -2.6944e+002  3.6930e+001 39690 98211,98505,98289
 3.9000e+000 99109 -9.3527e+001 -2.3941e+002 -1.0475e+001 39072 99132,98867,98789
 3.9000e+000 99086 -9.3573e+001 -2.4568e+002 -1.5219e+001 39072 99132,98789,98763
 3.9000e+000 99063 -1.3873e+002 -3.9061e+002  4.4476e+001 39072 98867,98945,98919
 3.9000e+000 99040 -8.3105e+001 -2.5364e+002  8.5678e-001 39072 98789,98867,98841
 3.9000e+000 99017 -1.8112e+002 -2.8097e+002  1.4507e+001 39072 98867,98919,98893
 3.9000e+000 98994 -1.3575e+002 -2.4531e+002  5.3987e+001 39072 98789,98841,98815
 3.9000e+000 98971 -1.4019e+002 -2.7955e+002 -2.1936e+001 39072 98737,98945,98763
 3.9000e+000 99158 -9.0851e+001 -2.4729e+002 -1.2040e+001 39072 98945,98867,99132
 3.9000e+000 99181 -9.1444e+001 -2.5679e+002 -1.4101e+001 39072 98945,99132,98763
 3.9000e+000 99510 -7.8313e+001 -2.3919e+002  1.7521e+001 38668 99311,99389,99363
 3.9000e+000 99487 -8.1930e+001 -2.4333e+002  1.3401e+001 38668 99285,99389,99311
 3.9000e+000 99464 -1.6193e+002 -2.9529e+002  4.6433e+001 38668 99285,99415,99389
 3.9000e+000 99441 -7.7235e+001 -2.5452e+002  2.5542e+001 38668 99311,99363,99337
 3.9000e+000 99758 -4.9451e+001 -3.4721e+002  5.9134e+001 38164 99781,99611,99585
 3.9000e+000 99735 -5.7507e+001 -3.6203e+002  5.4251e+001 38164 99781,99585,99533
 3.9000e+000 99712 -4.3722e+001 -3.0318e+002  3.1210e+001 38164 99611,99663,99637
 3.9000e+000 99689 -1.3407e+001 -3.5408e+002 -2.0207e+001 38164 99533,99585,99559
 3.9000e+000 99807 -4.7275e+001 -3.6206e+002  5.7517e+001 38164 99663,99611,99781
 3.9000e+000 99830 -4.7928e+001 -3.6914e+002  5.5094e+001 38164 99663,99781,99533
 3.9000e+000 100232 -1.2035e+002 -2.9164e+002  5.1431e+000 37702 99984,100114,100088
 3.9000e+000 100209 -9.8480e+001 -3.2049e+002  3.4307e+001 37702 99958,100114,99984
 3.9000e+000 100186 -1.7054e+002 -3.5578e+002 -2.0611e+001 37702 100010,100088,100036
 3.9000e+000 100163 -1.2224e+002 -2.9310e+002  4.4667e-001 37702 99984,100088,100010
 3.9000e+000 100140 -1.0855e+002 -2.7204e+002 -7.3762e+001 37702 100036,100088,100062
 3.9000e+000 100640 -2.2704e+002 -3.2316e+002  4.0810e+001 37262 100493,100545,100519
 3.9000e+000 100617 -2.1094e+002 -3.6634e+002  2.0130e+001 37262 100441,100545,100493
 3.9000e+000 100594 -1.1636e+002 -2.8585e+002 -4.7412e+001 37262 100415,100545,100441
 3.9000e+000 100571 -2.3187e+002 -3.8895e+002 -9.5093e+000 37262 100441,100493,100467
 3.9000e+000 101146 -1.5553e+002 -2.6388e+002  9.7804e-001 36872 100823,100979,100849
 3.9000e+000 101123 -1.5247e+002 -2.4804e+002 -2.2616e+001 36872 100823,101005,100979
 3.9000e+000 101100 -1.6136e+002 -3.7541e+002  5.2912e+001 36872 101169,100901,100849
 3.9000e+000 101077 -1.2552e+002 -3.0074e+002  2.9218e+001 36872 101169,100849,100979
 3.9000e+000 101054 -8.5907e+001 -2.9631e+002 -1.6004e+001 36872 100927,100979,100953
 3.9000e+000 101031 -9.0162e+001 -4.2854e+002  7.2679e+001 36872 100849,100901,100875
 3.9000e+000 101195 -1.1223e+002 -3.9731e+002  6.0588e+000 36872 100927,100901,101169
 3.9000e+000 101218 -9.0513e+001 -3.5808e+002 -1.2974e+001 36872 100927,101169,100979
 3.9000e+000 101773 -1.9279e+002 -2.9174e+002  5.1950e+001 36418 101479,101609,101583
 3.9000e+000 101750 -1.9456e+002 -3.1777e+002  5.8725e+001 36418 101453,101609,101479
 3.9000e+000 101727 -1.3274e+002 -3.0529e+002 -3.7926e+000 36418 101796,101531,101479
 3.9000e+000 101704 -1.8307e+002 -3.4085e+002  2.2653e+001 36418 101796,101479,101583
 3.9000e+000 101681 -1.1678e+002 -2.7510e+002 -1.0276e+001 36418 101479,101531,101505
 3.9000e+000 101658 -6.7839e+000 -2.9021e+002 -1.0919e+000 36418 101401,101609,101453
 3.9000e+000 101635 -5.8822e+001 -3.1320e+002 -1.2524e+001 36418 101401,101453,101427
 3.9000e+000 101822 -1.4422e+002 -2.7920e+002 -5.1129e+001 36418 101557,101531,101796
 3.9000e+000 101845 -2.0107e+002 -2.9046e+002 -2.7030e+001 36418 101557,101796,101583
 3.9000e+000 102174 -2.2343e+001 -1.5541e+002 -3.7310e+001 35914 101949,102053,101975
 3.9000e+000 102151 -8.6398e+001 -1.5275e+002 -2.8217e+001 35914 101949,102079,102053
 3.9000e+000 102128 -7.6822e+001 -1.8135e+002 -1.6987e+001 35914 101975,102053,102027
 3.9000e+000 102105 -5.5339e+001 -1.4170e+002 -2.5464e+001 35914 101975,102027,102001
 3.9000e+000 102631 -5.9702e+001 -3.0600e+002  1.1405e+001 35574 102383,102513,102487
 3.9000e+000 102608 -4.2633e+001 -3.2237e+002  8.8786e+000 35574 102357,102513,102383
 3.9000e+000 102585 -7.8389e+001 -3.0070e+002  1.9742e+001 35574 102409,102487,102435
 3.9000e+000 102562 -1.0507e+002 -3.2343e+002  9.4613e+000 35574 102383,102487,102409
 3.9000e+000 102539 -1.0921e+002 -3.3454e+002 -4.4629e+000 35574 102435,102487,102461
 3.9000e+000 103009 -1.6084e+002 -2.9633e+002 -2.1752e+001 35170 102761,102865,102787
 3.9000e+000 102986 -9.5214e+001 -2.5968e+002  2.7225e+001 35170 102761,102891,102865
 3.9000e+000 102963 -1.4273e+002 -2.8709e+002 -8.9324e+000 35170 102787,102865,102813
 3.9000e+000 102940 -7.8889e+001 -2.4753e+002  3.2624e+001 35170 102735,102891,102761
 3.9000e+000 102917 -1.4286e+002 -2.9053e+002 -1.7912e+001 35170 102813,102865,102839
 3.9000e+000 103257 -3.1045e+001 -2.3878e+002 -5.2023e+001 34659 103280,103058,103032
 3.9000e+000 103234 -4.8650e+001 -2.6297e+002 -4.0013e+001 34659 103280,103032,103162
 3.9000e+000 103211 -5.7376e+001 -2.5533e+002 -1.8937e+001 34659 103084,103162,103110
 3.9000e+000 103188 -9.0003e+001 -2.9859e+002  8.0574e+000 34659 103110,103162,103136
 3.9000e+000 103306 -5.6213e+001 -2.0885e+002 -4.1231e+001 34659 103084,103058,103280
 3.9000e+000 103329 -7.1856e+001 -2.3753e+002 -2.8018e+001 34659 103084,103280,103162
 3.9000e+000 103837 -3.5309e+001 -3.3023e+002  1.3319e+001 34247 103860,103566,103540
 3.9000e+000 103814 -4.6439e+001 -3.2837e+002  2.3714e-001 34247 103932,103860,103540
 3.9000e+000 103791 -3.3424e+001 -3.6359e+002 -3.5957e+001 34247 103932,103540,103670
 3.9000e+000 103768 -3.8458e+001 -3.2243e+002  3.0331e+000 34247 103566,103618,103592
 3.9000e+000 103745 -1.3443e+002 -3.0645e+002 -4.7545e+001 34247 103540,103696,103670
 3.9000e+000 103722 -1.7770e+002 -3.3966e+002  4.9221e+001 34247 103514,103696,103540
 3.9000e+000 103886 -6.8707e+001 -3.3515e+002  1.1647e+000 34247 103618,103566,103860
 3.9000e+000 103909 -7.5735e+001 -3.5196e+002  1.0268e+001 34247 103618,103860,103644
 3.9000e+000 103958 -7.8979e+001 -4.1271e+002 -3.2376e+000 34247 103644,103860,103932
 3.9000e+000 103981 -6.5624e+001 -4.4515e+002 -4.1233e+001 34247 103644,103932,103670
 3.9000e+000 104300 -1.6441e+002 -3.4769e+002 -1.1703e+001 33843 104052,104182,104156
 3.9000e+000 104277 -2.1112e+002 -3.2936e+002 -4.1494e+000 33843 104026,104182,104052
 3.9000e+000 104254 -1.6139e+002 -3.9952e+002  6.8274e+000 33843 104078,104156,104130
 3.9000e+000 104231 -1.8845e+002 -3.7555e+002  1.0238e+000 33843 104052,104156,104078
 3.9000e+000 104208 -2.4867e+002 -4.2544e+002  1.1384e+001 33843 104078,104130,104104
 3.9000e+000 104499 -1.1531e+002 -3.5742e+002 -3.1907e+001 33282 104594,104522,104375
 3.9000e+000 104476 -9.6127e+001 -3.4060e+002  8.8220e+000 33282 104522,104323,104427
 3.9000e+000 104453 -7.1180e+001 -3.8406e+002 -2.8337e+001 33282 104594,104375,104349
 3.9000e+000 104548 -1.2042e+002 -3.0472e+002 -1.5670e+001 33282 104401,104375,104522
 3.9000e+000 104571 -8.2752e+001 -3.0042e+002  1.5053e+001 33282 104401,104522,104427
 3.9000e+000 104620 -6.3209e+001 -3.0706e+002 -1.1282e+001 33282 104323,104522,104594
 3.9000e+000 104643 -3.5869e+001 -3.5073e+002 -1.4451e+001 33282 104323,104594,104349
 3.9000e+000 104942 -1.5888e+002 -3.9700e+002  5.0714e+001 32728 104694,104772,104720
 3.9000e+000 104919 -1.2137e+002 -3.6287e+002  2.1209e+001 32728 104694,104824,104772
 3.9000e+000 104896 -2.0509e+002 -3.6318e+002  5.4627e+001 32728 104720,104772,104746
 3.9000e+000 104873 -9.6940e+001 -4.0278e+002  2.3287e+001 32728 104772,104824,104798
 3.9000e+000 104850 -9.3968e+001 -3.4927e+002  2.6263e+001 32728 104668,104824,104694
 3.9000e+000 105373 -1.5062e+002 -4.0171e+002 -1.8015e+001 32274 105396,105102,105076
 3.9000e+000 105350 -1.5840e+002 -4.3910e+002 -7.2466e+000 32274 105396,105076,105206
 3.9000e+000 105327 -1.9027e+002 -4.4053e+002  2.4849e+001 32274 105154,105206,105180
 3.9000e+000 105304 -9.4543e+001 -4.2489e+002 -3.3893e+001 32274 105076,105232,105206
 3.9000e+000 105281 -1.7125e+002 -3.6427e+002 -6.5679e+001 32274 105102,105154,105128
 3.9000e+000 105258 -2.4872e+002 -3.7747e+002 -6.9094e+001 32274 105050,105232,105076
 3.9000e+000 105422 -1.6844e+002 -3.6178e+002 -1.5653e+001 32274 105154,105102,105396
 3.9000e+000 105445 -1.7578e+002 -4.0033e+002 -7.5946e+000 32274 105154,105396,105206
 3.9000e+000 105644 -1.5229e+002 -3.8787e+002 -6.0401e+000 31620 105468,105546,105520
 3.9000e+000 105621 -1.2380e+002 -4.2329e+002 -2.0113e+001 31620 105468,105572,105546
 3.9000e+000 105598 -1.5073e+002 -4.1791e+002  2.2788e+001 31620 105468,105520,105494
 3.9000e+000 105794 -5.9374e+001 -3.6321e+002 -9.9393e+000 31158 105889,105817,105693
 3.9000e+000 105771 -8.0073e+001 -3.3443e+002 -2.1877e+001 31158 105817,105667,105745
 3.9000e+000 105843 -6.9350e+001 -4.3439e+002 -3.1091e+000 31158 105719,105693,105817
 3.9000e+000 105866 -4.5444e+001 -3.8058e+002 -1.7350e+001 31158 105719,105817,105745
 3.9000e+000 105915 -1.0842e+002 -3.8424e+002 -1.0510e+001 31158 105667,105817,105889
 3.9000e+000 106270 -1.4977e+002 -3.5246e+002 -5.6346e+000 30818 106293,106071,106045
 3.9000e+000 106247 -1.7601e+002 -4.1192e+002 -2.2674e+001 30818 106293,106045,106175
 3.9000e+000 106224 -1.2537e+002 -3.2101e+002  2.0672e+001 30818 106123,106175,106149
 3.9000e+000 106201 -1.6593e+002 -3.5048e+002  2.9364e+001 30818 106071,106123,106097
 3.9000e+000 106319 -1.5563e+002 -3.2924e+002  1.7058e+001 30818 106123,106071,106293
 3.9000e+000 106342 -1.6085e+002 -3.6043e+002  2.6748e+000 30818 106123,106293,106175
 3.9000e+000 106492 -1.4644e+002 -3.3754e+002  6.1768e+001 30414 106645,106391,106365
 3.9000e+000 106469 -6.8854e+001 -3.3379e+002  9.4127e+001 30414 106515,106365,106443
 3.9000e+000 106541 -1.0173e+002 -3.4681e+002  6.7923e+001 30414 106645,106365,106515
 3.9000e+000 106671 -8.1895e+001 -3.9450e+002  1.1232e+002 30414 106417,106391,106645
 3.9000e+000 106694  2.2996e+001 -3.6548e+002  9.6252e+001 30414 106417,106645,106515
 3.9000e+000 106942 -7.2780e+001 -4.7927e+002 -3.5161e-001 29910 106965,106795,106769
 3.9000e+000 106919 -6.2515e+001 -4.3143e+002  1.3658e+001 29910 106965,106769,106717
 3.9000e+000 106896 -6.5550e+001 -3.6076e+002 -4.7168e+001 29910 106795,106847,106821
 3.9000e+000 106873 -3.5100e+001 -3.7322e+002  2.2841e+001 29910 106717,106769,106743
 3.9000e+000 106991 -1.0005e+002 -4.2767e+002  6.5825e+000 29910 106847,106795,106965
 3.9000e+000 107014 -7.9286e+001 -3.6431e+002  2.0079e+001 29910 106847,106965,106717
 3.9000e+000 107213 -1.0897e+002 -3.6679e+002  1.8068e+001 29413 107236,107063,107037
 3.9000e+000 107190 -8.8095e+001 -4.3650e+002  4.3524e+001 29413 107236,107037,107141
 3.9000e+000 107167 -1.2780e+002 -2.6982e+002  5.6584e+001 29413 107063,107115,107089
 3.9000e+000 107262 -9.6603e+001 -3.2467e+002  1.7257e+001 29413 107115,107063,107236
 3.9000e+000 107285 -6.5134e+001 -3.7552e+002  4.5908e+001 29413 107115,107236,107141
 3.9000e+000 107486 -4.6575e+001 -3.4533e+002  4.2900e+001 29009 107336,107388,107362
 3.9000e+000 107463 -2.7318e+001 -3.3497e+002  1.5530e+001 29009 107310,107388,107336
 3.9000e+000 107440 -2.8343e+001 -3.0821e+002  1.3189e+001 29009 107310,107414,107388
 3.9000e+000 107736 -1.5433e+002 -4.0097e+002 -1.5776e+001 28491 107537,107615,107563
 3.9000e+000 107713 -1.3742e+002 -3.9239e+002 -9.4428e+000 28491 107537,107641,107615
 3.9000e+000 107690 -8.6822e+001 -3.8145e+002  6.7343e+000 28491 107563,107615,107589
 3.9000e+000 107667 -1.4581e+002 -3.9215e+002 -1.1467e+001 28491 107511,107641,107537
 3.9000e+000 108118 -9.0649e+001 -3.7902e+002  1.2147e+001 27980 108141,107922,107844
 3.9000e+000 108095 -7.1836e+001 -4.1760e+002  1.1939e+001 27980 108141,107844,108000
 3.9000e+000 108072 -8.8899e+001 -3.7772e+002 -3.6742e+000 27980 107844,107922,107870
 3.9000e+000 108049 -7.3756e+001 -3.4517e+002 -9.1816e+000 27980 107870,107922,107896
 3.9000e+000 108026 -1.3239e+002 -3.4329e+002  4.4962e+001 27980 107922,107974,107948
 3.9000e+000 108167 -7.9074e+001 -3.7348e+002  1.7451e+001 27980 107974,107922,108141
 3.9000e+000 108190 -2.6750e+001 -3.7878e+002  2.8871e+001 27980 107974,108141,108000
 3.9000e+000 108745 -5.5370e+001 -2.6102e+002 -5.3597e+000 27376 108840,108768,108477
 3.9000e+000 108722 -8.8187e+001 -3.1585e+002 -5.8341e+001 27376 108768,108373,108581
 3.9000e+000 108699 -8.2200e+001 -2.2838e+002  4.4232e+001 27376 108840,108477,108451
 3.9000e+000 108676 -1.8798e+002 -2.7279e+002 -1.3852e+001 27376 108373,108451,108399
 3.9000e+000 108653 -8.3856e+001 -3.2070e+002  3.8197e+001 27376 108503,108581,108529
 3.9000e+000 108630 -9.0065e+001 -3.1338e+002  3.9060e+001 27376 108529,108581,108555
 3.9000e+000 108607 -2.1280e+002 -2.9307e+002  2.0804e+001 27376 108399,108451,108425
 3.9000e+000 108794 -8.3325e+001 -3.4620e+002  1.0576e+000 27376 108503,108477,108768
 3.9000e+000 108817 -2.9713e+001 -3.1606e+002 -1.1733e+001 27376 108503,108768,108581
 3.9000e+000 108866 -1.5635e+002 -3.1955e+002 -2.9189e+001 27376 108373,108768,108840
 3.9000e+000 108889 -1.5136e+002 -2.7701e+002  2.2852e+001 27376 108373,108840,108451
 3.9000e+000 109186 -1.4739e+002 -3.9473e+002  4.1848e+001 26722 109209,108938,108912
 3.9000e+000 109163 -1.3689e+002 -3.6978e+002  4.0620e+001 26722 109281,109209,108912
 3.9000e+000 109140 -1.3091e+002 -3.5939e+002  3.8092e+001 26722 109281,108912,109042
 3.9000e+000 109117 -1.2542e+002 -4.2671e+002  1.8935e+001 26722 108938,108990,108964
 3.9000e+000 109094 -1.8813e+002 -3.2632e+002  2.5577e+001 26722 108912,109068,109042
 3.9000e+000 109235 -1.2671e+002 -3.8194e+002  3.5744e+001 26722 108990,108938,109209
 3.9000e+000 109258 -1.3263e+002 -4.1175e+002  3.3507e+001 26722 108990,109209,109016
 3.9000e+000 109307 -1.1902e+002 -3.8626e+002  2.0526e+001 26722 109016,109209,109281
 3.9000e+000 109330 -1.0813e+002 -3.6805e+002  1.5763e+001 26722 109016,109281,109042
 3.9000e+000 109732 -1.5713e+002 -3.1764e+002 -6.4752e+000 26310 109458,109588,109484
 3.9000e+000 109709 -1.5188e+002 -3.7669e+002 -4.0028e+001 26310 109458,109614,109588
 3.9000e+000 109686 -2.2183e+002 -3.7413e+002  5.5686e+001 26310 109510,109562,109536
 3.9000e+000 109663 -2.1855e+002 -3.5148e+002  2.1717e+001 26310 109484,109562,109510
 3.9000e+000 109640 -1.6187e+002 -3.2287e+002 -5.6154e-001 26310 109484,109588,109562
 3.9000e+000 110159 -1.0286e+002 -3.3211e+002 -1.1311e+001 25642 110182,109940,109914
 3.9000e+000 110136 -9.6911e+001 -3.8702e+002  4.1963e+001 25642 110182,109914,109888
 3.9000e+000 110113 -1.2116e+002 -4.1501e+002 -5.4548e+001 25642 109966,110018,109992
 3.9000e+000 110090 -1.3401e+002 -3.9931e+002  3.0168e+001 25642 110254,109966,109940
 3.9000e+000 110067 -1.8198e+002 -3.8105e+002  1.8877e+001 25642 109862,110018,109888
 3.9000e+000 110044 -1.7418e+002 -3.2355e+002  4.7439e+001 25642 109836,110018,109862
 3.9000e+000 110208 -1.3489e+002 -3.6263e+002  2.2193e+001 25642 110254,109940,110182
 3.9000e+000 110231 -1.4775e+002 -3.8885e+002  4.7451e+001 25642 110018,110182,109888
 3.9000e+000 110280 -1.1997e+002 -4.4448e+002  2.2890e+001 25642 110018,109966,110254
 3.9000e+000 110303 -1.2831e+002 -4.1687e+002  1.5937e+001 25642 110018,110254,110182
 3.9000e+000 110632 -1.6824e+002 -3.3744e+002 -2.0251e+001 25188 110407,110485,110433
 3.9000e+000 110609 -1.9800e+002 -3.3135e+002 -1.3374e+001 25188 110407,110537,110485
 3.9000e+000 110586 -1.9296e+002 -3.5169e+002 -6.6526e+001 25188 110433,110485,110459
 3.9000e+000 110563 -1.8478e+002 -3.5321e+002  3.6321e+001 25188 110485,110537,110511
 3.9000e+000 110831 -3.8606e+001 -3.2906e+002  1.0444e+001 24726 110854,110707,110655
 3.9000e+000 110808 -1.9645e+001 -3.5657e+002  3.8589e+001 24726 110854,110655,110759
 3.9000e+000 110785 -5.2696e+001 -3.4063e+002  1.8973e+001 24726 110655,110707,110681
 3.9000e+000 110880 -2.4190e+001 -3.0285e+002  1.6107e+001 24726 110733,110707,110854
 3.9000e+000 110903  1.2030e+000 -3.1682e+002  4.6287e+001 24726 110733,110854,110759
 3.9000e+000 111234 -1.2819e+001 -2.3354e+002 -6.9106e+000 24222 111257,111087,111035
 3.9000e+000 111211  2.4352e+001 -2.1673e+002  2.4117e+001 24222 111257,111035,111009
 3.9000e+000 111188 -3.7361e+001 -1.2607e+002 -5.1518e+001 24222 111035,111087,111061
 3.9000e+000 111165 -3.7729e+001 -1.8555e+002  5.0136e+000 24222 111087,111139,111113
 3.9000e+000 111283 -3.6047e+001 -1.9526e+002  1.0146e+001 24222 111139,111087,111257
 3.9000e+000 111306 -1.9885e+001 -1.6805e+002  3.0105e+001 24222 111139,111257,111009
 3.9000e+000 111625 -6.1953e+001 -3.4208e+002 -2.0581e+001 23732 111648,111481,111455
 3.9000e+000 111602 -6.4445e+001 -3.4654e+002 -1.9574e+001 23732 111648,111455,111377
 3.9000e+000 111579  2.3518e+001 -1.9182e+002  3.4093e+001 23732 111377,111429,111403
 3.9000e+000 111556 -3.8592e+001 -3.5169e+002 -7.7357e+000 23732 111377,111455,111429
 3.9000e+000 111533 -5.5814e+001 -3.1466e+002 -7.0268e+000 23732 111351,111507,111377
 3.9000e+000 111674 -6.4656e+001 -3.3511e+002 -1.5547e+001 23732 111507,111481,111648
 3.9000e+000 111697 -6.8551e+001 -3.4389e+002 -1.4574e+001 23732 111507,111648,111377
 3.9000e+000 112156 -9.2960e+001 -3.8719e+002  2.7327e+001 23278 112179,111908,111882
 3.9000e+000 112133 -8.7281e+001 -3.5941e+002  1.4600e+001 23278 112179,111882,112012
 3.9000e+000 112110 -3.2139e+001 -4.2059e+002  1.5755e+000 23278 111908,111960,111934
 3.9000e+000 112087 -3.7115e+001 -3.1370e+002 -5.8648e+000 23278 111882,112038,112012
 3.9000e+000 112064 -7.7789e+001 -3.2485e+002 -5.0931e+000 23278 111960,112012,111986
 3.9000e+000 112205 -8.8629e+001 -3.7381e+002  4.3700e+000 23278 111960,111908,112179
 3.9000e+000 112228 -7.5018e+001 -3.4256e+002 -1.0133e+001 23278 111960,112179,112012
 3.9000e+000 112685 -2.5376e+002 -5.4693e+002 -5.3809e+001 22938 112489,112567,112541
 3.9000e+000 112662 -2.2072e+002 -4.7479e+002 -4.5356e+001 22938 112437,112567,112489
 3.9000e+000 112639 -1.4739e+002 -4.0709e+002 -5.8873e+000 22938 112489,112541,112515
 3.9000e+000 112616 -2.5432e+002 -4.5894e+002 -4.2048e+001 22938 112411,112567,112437
 3.9000e+000 112593 -1.9575e+002 -5.8463e+002 -1.4686e+001 22938 112437,112489,112463
 3.9000e+000 113191 -1.7472e+001 -3.7703e+002 -4.6029e+001 22534 113214,112998,112946
 3.9000e+000 113168 -7.1105e+001 -3.3823e+002 -2.3650e+001 22534 113286,113214,112946
 3.9000e+000 113145 -5.1839e+001 -3.3911e+002 -1.9073e+001 22534 113286,112946,112920
 3.9000e+000 113122 -1.5286e+002 -3.0950e+002 -6.4240e+001 22534 113358,113024,112998
 3.9000e+000 113099 -9.1514e+001 -3.2571e+002 -1.0891e+001 22534 112868,113050,112894
 3.9000e+000 113076 -1.1426e+002 -5.7495e+002 -9.3223e+001 22534 112946,112998,112972
 3.9000e+000 113240 -1.1293e+002 -3.8860e+002 -6.8534e+001 22534 113358,112998,113214
 3.9000e+000 113263 -9.0129e+001 -3.5375e+002 -1.4566e+001 22534 113050,113214,112894
 3.9000e+000 113312 -4.6247e+001 -3.3453e+002 -1.8047e+001 22534 112894,113214,113286
 3.9000e+000 113335 -2.6072e+001 -3.3661e+002 -1.6976e+001 22534 112894,113286,112920
 3.9000e+000 113384 -1.0835e+002 -2.3899e+002 -4.5257e+001 22534 113050,113024,113358
 3.9000e+000 113407 -5.0517e+001 -3.0362e+002 -4.1143e+001 22534 113050,113358,113214
 3.9000e+000 113785 -1.8390e+002 -4.6000e+002  8.6080e+000 21978 113808,113615,113511
 3.9000e+000 113762 -1.4978e+002 -4.6552e+002  2.9408e+001 21978 113808,113511,113667
 3.9000e+000 113739 -1.1847e+002 -3.9601e+002 -1.8192e+001 21978 113511,113615,113537
 3.9000e+000 113716  3.2658e+001 -3.5366e+002 -3.8108e+001 21978 113537,113615,113589
 3.9000e+000 113693 -5.9603e+001 -5.0648e+002  6.2507e+000 21978 113537,113589,113563
 3.9000e+000 113834 -1.8965e+002 -4.5963e+002  5.1050e+001 21978 113641,113615,113808
 3.9000e+000 113857 -1.0136e+002 -4.2563e+002  7.5774e+001 21978 113641,113808,113667
 3.9000e+000 114284 -1.3542e+002 -3.8465e+002  7.5889e+000 21517 114013,114117,114039
 3.9000e+000 114261 -1.5004e+002 -3.8215e+002  2.8787e+001 21517 113961,114117,114013
 3.9000e+000 114238 -1.4882e+002 -3.9180e+002  2.7897e+001 21517 113961,114013,113987
 3.9000e+000 114215 -2.1374e+002 -4.3635e+002 -2.9965e+001 21517 114039,114117,114091
 3.9000e+000 114192 -1.5293e+002 -3.2701e+002  3.4839e+001 21517 113961,114143,114117
 3.9000e+000 114169 -3.4145e+001 -3.7557e+002 -3.4786e+001 21517 114039,114091,114065
 3.9000e+000 114581 -8.7115e+001 -4.5817e+002  5.5766e+000 21027 114359,114463,114437
 3.9000e+000 114558 -5.2751e+001 -4.1646e+002  5.3474e+001 21027 114333,114463,114359
 3.9000e+000 114535 -4.4285e+001 -4.2095e+002 -1.0505e+001 21027 114359,114437,114385
 3.9000e+000 114512 -3.5010e+001 -4.1206e+002  4.3806e+001 21027 114307,114463,114333
 3.9000e+000 114489  4.7569e+001 -3.9030e+002 -2.0026e+001 21027 114385,114437,114411
 3.9000e+000 114912 -1.8105e+002 -3.9525e+002  4.1924e+000 20623 114713,114791,114765
 3.9000e+000 114889 -1.2598e+002 -3.7271e+002 -2.8210e+001 20623 114687,114791,114713
 3.9000e+000 114866 -9.0974e+001 -4.1558e+002 -3.0710e+001 20623 114687,114817,114791
 3.9000e+000 114843 -2.6124e+002 -4.7532e+002  3.8250e+001 20623 114713,114765,114739
 3.9000e+000 115290 -5.0613e+001 -3.5074e+002  1.8537e+001 20375 115313,115146,115094
 3.9000e+000 115267 -7.8773e+001 -3.3549e+002  3.3861e+001 20375 115313,115094,115042
 3.9000e+000 115244 -1.0159e+002 -3.2404e+002  1.1217e+001 20375 115385,115016,115172
 3.9000e+000 115221 -3.4329e+001 -3.1541e+002  2.8765e+001 20375 115042,115094,115068
 3.9000e+000 115198 -7.5824e+001 -4.1775e+002  2.3847e+001 20375 115094,115146,115120
 3.9000e+000 115339 -1.0773e+002 -4.0874e+002 -1.0498e+001 20375 115172,115146,115313
 3.9000e+000 115362 -6.2522e+001 -3.3348e+002  1.3433e+001 20375 115385,115172,115313
 3.9000e+000 115411 -1.2401e+002 -3.3508e+002  1.4767e+001 20375 115042,115016,115385
 3.9000e+000 115434 -1.0485e+002 -3.5756e+002  2.3107e+001 20375 115042,115385,115313
 3.9000e+000 115891 -1.8323e+002 -3.5705e+002  4.4028e+001 19971 115617,115747,115643
 3.9000e+000 115868 -1.5689e+002 -2.9154e+002  3.9674e+001 19971 115617,115773,115747
 3.9000e+000 115845 -1.1530e+002 -5.3155e+002  6.7772e+000 19971 115643,115721,115695
 3.9000e+000 115822 -7.5995e+000 -2.6815e+002 -2.0903e+000 19971 115643,115747,115721
 3.9000e+000 115799 -9.6082e+001 -6.5610e+002 -5.3838e+001 19971 115643,115695,115669
 3.9000e+000 115992 -2.6823e+002 -6.8381e+002 -1.1514e+002 19659 115914,115966,115940
 3.9000e+000 116142 -4.3334e+001 -1.5506e+002  4.3186e+000 18997 116041,116093,116067
 3.9000e+000 116119 -8.3030e+001 -2.5696e+002  1.4937e+001 18997 116015,116093,116041
 3.9000e+000 116343 -7.1421e+001 -4.0147e+002 -1.1864e+001 18707 116193,116245,116219
 3.9000e+000 116320 -1.5411e+002 -4.3679e+002 -1.7845e+001 18707 116193,116271,116245
 3.9000e+000 116297 -1.3796e+002 -3.8896e+002 -2.6021e+001 18707 116167,116271,116193
 3.9000e+000 116747 -6.7261e+001 -3.6716e+002 -6.4658e+000 18301 116525,116629,116551
 3.9000e+000 116724 -3.9912e+001 -3.1140e+002  8.9858e+000 18301 116473,116629,116525
 3.9000e+000 116701 -2.8014e+001 -3.0377e+002 -1.5081e+001 18301 116473,116525,116499
 3.9000e+000 116678 -5.6965e+001 -3.8104e+002 -4.7377e+000 18301 116551,116603,116577
 3.9000e+000 116655 -7.8737e+001 -3.9412e+002 -1.0814e+001 18301 116551,116629,116603
 3.9000e+000 117147 -1.9639e+002 -4.3518e+002 -1.8496e+000 17747 116899,117029,116925
 3.9000e+000 117124 -1.0936e+002 -3.2063e+002  4.2462e+001 17747 116873,117029,116899
 3.9000e+000 117101 -1.9398e+002 -4.3067e+002 -8.7322e-001 17747 116925,117029,116951
 3.9000e+000 117078 -1.7154e+002 -3.7681e+002 -2.4645e+000 17747 116951,117029,117003
 3.9000e+000 117055 -2.2161e+002 -4.8620e+002 -3.0574e+001 17747 116951,117003,116977
 3.9000e+000 117368  2.3699e+001 -4.0270e+002  8.6951e+000 17293 117244,117296,117270
 3.9000e+000 117345 -2.7395e+001 -4.1637e+002 -5.4642e+000 17293 117192,117296,117244
 3.9000e+000 117322 -6.8575e+001 -3.9152e+002 -4.5647e+000 17293 117192,117244,117218
 3.9000e+000 117699 -4.2092e+001 -3.2441e+002 -3.8325e+001 16896 117526,117604,117552
 3.9000e+000 117676 -2.1628e+002 -4.9501e+002  3.0672e+001 16896 117500,117604,117526
 3.9000e+000 117653 -2.2880e+002 -3.9408e+002 -1.9187e+001 16896 117552,117604,117578
 3.9000e+000 117630 -1.9743e+002 -6.3905e+002  5.3540e+001 16896 117474,117604,117500
 3.9000e+000 117849 -4.5627e+002 -8.7233e+002 -3.3390e+001 16534 117722,117774,117748
 3.9000e+000 117826 -3.6105e+002 -1.0633e+003 -1.4299e+002 16534 117722,117800,117774
 3.9000e+000 118070 -5.4730e+000 -4.1715e+002  5.3129e+001 16194 117946,117998,117972
 3.9000e+000 118047 -7.1627e+001 -4.7169e+002  2.1631e+001 16194 117894,117998,117946
 3.9000e+000 118024 -2.4166e+002 -4.8213e+002 -5.5572e-001 16194 117894,117946,117920
 3.9000e+000 118173 -5.0164e+001 -4.1719e+002  0.0000e+000 15968 118095,118147,118121
 3.9000e+000 118276 -1.2855e+002 -4.3839e+002  1.6540e+000 15433 118299,118198,118250
 3.9000e+000 118325 -1.2975e+002 -4.4117e+002  1.6815e+000 15433 118224,118198,118299
 3.9000e+000 118450 -2.1396e+002 -4.7101e+002  4.6404e+001 421 118372,118424,118398
 4.0000e+000 69891 -9.5765e+001 -5.2120e+002  1.8697e+001 68988 69447,69681,69629
 4.0000e+000 69868  3.1521e+001 -4.6707e+002  1.5181e+001 68988 69421,69681,69447
 4.0000e+000 69845 -4.9347e+000 -2.6262e+002  5.1743e-001 68988 69447,69629,69577
 4.0000e+000 69822 -1.5417e+002 -5.4352e+002 -6.0239e+001 68988 69447,69577,69473
 4.0000e+000 69799 -2.6609e+001 -6.1756e+002  1.0060e+002 68988 69629,69681,69655
 4.0000e+000 69776 -1.6625e+002 -3.3271e+002  8.5931e+000 68988 69577,69629,69603
 4.0000e+000 69753 -1.2290e+002 -4.8425e+002 -7.2571e+001 68988 69473,69577,69551
 4.0000e+000 69730 -1.7978e+002 -9.5894e+002 -9.5883e+001 68988 69473,69551,69525
 4.0000e+000 69707 -2.9972e+002 -6.3803e+002  1.0449e+000 68988 69473,69525,69499
 4.0000e+000 69992 -2.9952e+002 -5.6342e+002 -7.6087e+001 68676 69914,69966,69940
 4.0000e+000 70392 -2.0816e+002 -4.3493e+002  3.2692e+001 68478 70118,70248,70144
 4.0000e+000 70369  1.0337e+001 -4.3863e+002  9.4487e+001 68478 70118,70274,70248
 4.0000e+000 70346 -1.2561e+002 -3.2995e+002 -9.1919e-001 68478 70144,70222,70196
 4.0000e+000 70323 -1.0585e+002 -2.7816e+002 -1.4424e+001 68478 70144,70248,70222
 4.0000e+000 70300 -1.3809e+002 -3.6286e+002 -7.0510e+000 68478 70144,70196,70170
 4.0000e+000 70841  6.9104e+001 -2.9666e+002 -8.0953e+001 68280 70570,70622,70596
 4.0000e+000 70818 -1.4842e+002 -3.3979e+002 -1.9511e+001 68280 70544,70622,70570
 4.0000e+000 70795 -1.0935e+002 -2.5212e+002 -1.1606e+001 68280 70544,70674,70622
 4.0000e+000 70772 -9.4398e+001 -2.2411e+002  4.4205e+000 68280 70622,70674,70648
 4.0000e+000 70749 -1.5711e+002 -3.8047e+002  2.8505e+001 68280 70518,70674,70544
 4.0000e+000 70726  1.3124e+002 -3.9289e+002  1.1275e+002 68280 70518,70700,70674
 4.0000e+000 70991 -1.8494e+001 -1.5811e+003  4.7110e+001 67968 70864,70916,70890
 4.0000e+000 70968 -4.2095e+002 -1.5684e+003  1.8294e+002 67968 70864,70942,70916
 4.0000e+000 71141 -7.3716e+002 -1.3975e+003 -6.8583e+001 67770 71040,71092,71066
 4.0000e+000 71118 -6.4192e+002 -1.6834e+003  7.3786e+001 67770 71014,71092,71040
 4.0000e+000 71651 -1.0070e+002 -3.0276e+002 -5.2037e+001 67366 71746,71674,71458
 4.0000e+000 71628 -6.3839e+001 -2.4555e+002 -5.4934e+001 67366 71674,71354,71510
 4.0000e+000 71605 -8.8412e+001 -3.3563e+002 -4.8946e+001 67366 71746,71458,71432
 4.0000e+000 71582 -1.4005e+002 -3.4253e+002  1.5878e+001 67366 71354,71432,71380
 4.0000e+000 71559 -1.5207e+002 -2.4988e+002 -2.8644e+001 67366 71380,71432,71406
 4.0000e+000 71536 -6.8802e+001 -1.0259e+002 -5.7560e+000 67366 71328,71510,71354
 4.0000e+000 71700 -1.1279e+002 -2.7369e+002 -2.3303e+001 67366 71484,71458,71674
 4.0000e+000 71723 -7.5131e+001 -2.5663e+002 -1.8997e+001 67366 71484,71674,71510
 4.0000e+000 71772 -8.6004e+001 -2.6389e+002 -4.4705e+001 67366 71354,71674,71746
 4.0000e+000 71795 -7.3173e+001 -2.9353e+002 -4.5436e+001 67366 71354,71746,71432
 4.0000e+000 71896 -2.9872e+002 -6.3063e+002  0.0000e+000 67146 71818,71870,71844
 4.0000e+000 71997 -3.9528e+002 -5.2133e+002  1.0429e+002 66948 71919,71971,71945
 4.0000e+000 72149 -1.7044e+001 -3.8272e+002 -4.3333e+001 66700 72172,72074,72048
 4.0000e+000 72126 -1.3032e+002 -4.2773e+002 -1.6833e+001 66700 72172,72048,72022
 4.0000e+000 72198 -2.0757e+002 -4.7252e+002  3.1754e+001 66700 72244,72172,72100
 4.0000e+000 72221 -1.8852e+002 -4.3298e+002 -2.6614e+001 66700 72100,72172,72022
 4.0000e+000 72270 -1.0780e+002 -2.5501e+002 -2.9488e+001 66700 72074,72172,72244
 4.0000e+000 72623 -1.3940e+002 -3.9701e+002  1.0447e+001 66502 72424,72502,72450
 4.0000e+000 72600 -1.1637e+002 -3.3367e+002  6.5755e+000 66502 72398,72502,72424
 4.0000e+000 72577 -8.8003e+001 -3.7899e+002 -7.0299e+000 66502 72398,72528,72502
 4.0000e+000 72554 -1.3885e+002 -3.5341e+002 -2.4720e+000 66502 72450,72502,72476
 4.0000e+000 72920 -2.2417e+002 -4.6391e+002  1.0946e+001 65941 72672,72776,72750
 4.0000e+000 72897 -2.2659e+002 -4.0096e+002  4.3268e+001 65941 72646,72776,72672
 4.0000e+000 72874 -1.9517e+002 -4.5498e+002  1.3576e+001 65941 72672,72750,72724
 4.0000e+000 72851 -1.9479e+002 -3.6096e+002  3.0914e+001 65941 72672,72724,72698
 4.0000e+000 72828 -1.7654e+002 -4.1106e+002  4.4063e+001 65941 72646,72802,72776
 4.0000e+000 73241 -5.3442e+001 -3.3652e+002  2.2505e+001 65743 73264,73071,73045
 4.0000e+000 73218 -1.3721e+002 -3.7444e+002  3.1547e+001 65743 73480,73264,73045
 4.0000e+000 73195 -1.1701e+002 -3.4415e+002 -4.9229e+000 65743 73336,72967,73097
 4.0000e+000 73172 -2.0234e+002 -3.1466e+002 -3.6440e+001 65743 73408,72993,72967
 4.0000e+000 73149 -1.0404e+002 -3.4350e+002 -4.6685e+000 65743 72967,73123,73097
 4.0000e+000 73290 -8.6386e+001 -3.5269e+002  5.3698e+000 65743 73097,73071,73264
 4.0000e+000 73313 -9.9739e+001 -3.2599e+002  1.3465e+001 65743 73336,73097,73264
 4.0000e+000 73362 -1.7400e+002 -3.5322e+002 -2.5053e+001 65743 73408,72967,73336
 4.0000e+000 73385 -8.4356e+001 -3.2244e+002 -2.6079e+000 65743 73019,73336,73264
 4.0000e+000 73434 -1.5527e+002 -2.4539e+002  1.6732e+001 65743 73019,72993,73408
 4.0000e+000 73457 -8.8475e+001 -2.9531e+002  1.0644e+001 65743 73019,73408,73336
 4.0000e+000 73506 -6.0096e+001 -2.4095e+002  2.0539e-001 65743 73019,73264,73480
 4.0000e+000 73989 -1.1730e+001 -2.6461e+002  3.2089e+001 65453 73793,73845,73819
 4.0000e+000 73966 -1.3899e+002 -2.9814e+002  3.7124e+001 65453 73741,73845,73793
 4.0000e+000 73943 -3.1954e+001 -2.3897e+002  1.4063e+001 65453 73715,73845,73741
 4.0000e+000 73920 -1.0919e+002 -3.1425e+002  6.1123e+001 65453 73741,73793,73767
 4.0000e+000 73897  8.1188e+000 -1.5265e+002  2.6790e+000 65453 73715,73871,73845
 4.0000e+000 74357 -8.6636e+001 -3.4829e+002 -9.2128e+001 65141 74380,74138,74086
 4.0000e+000 74334 -1.5475e+002 -4.6258e+002 -6.2458e+001 65141 74380,74086,74060
 4.0000e+000 74311 -1.7566e+002 -4.5113e+002 -1.5154e+001 65141 74138,74190,74164
 4.0000e+000 74288 -1.2920e+002 -5.0168e+002 -1.9185e+001 65141 74060,74216,74190
 4.0000e+000 74265 -1.3679e+002 -5.2759e+002  8.5746e+000 65141 74034,74216,74060
 4.0000e+000 74242 -1.1636e+002 -2.9387e+002 -6.7092e+001 65141 74086,74138,74112
 4.0000e+000 74406 -1.2832e+002 -4.4997e+002 -3.6799e+001 65141 74190,74138,74380
 4.0000e+000 74429 -1.4945e+002 -4.8937e+002 -1.7464e+001 65141 74190,74380,74060
 4.0000e+000 74937 -1.7557e+002 -3.4823e+002 -8.8444e+001 64737 74614,74666,74640
 4.0000e+000 74914 -2.1304e+002 -4.3133e+002 -6.5365e+001 64737 74614,74796,74666
 4.0000e+000 74891 -1.5671e+002 -3.0641e+002 -1.2988e+001 64737 74960,74718,74666
 4.0000e+000 74868 -1.3691e+002 -3.3474e+002 -4.0357e+001 64737 74960,74666,74770
 4.0000e+000 74845 -1.3909e+002 -2.6659e+002 -4.2238e+001 64737 74666,74796,74770
 4.0000e+000 74822 -1.5657e+002 -3.3324e+002  3.6235e+000 64737 74666,74718,74692
 4.0000e+000 74986 -1.6867e+002 -3.3550e+002 -1.1376e+001 64737 74744,74718,74960
 4.0000e+000 75009 -1.5553e+002 -3.7804e+002 -3.9253e+001 64737 74744,74960,74770
 4.0000e+000 75306 -7.6134e+001 -3.0299e+002  4.2794e+001 64133 75329,75110,75084
 4.0000e+000 75283 -9.6321e+001 -3.5754e+002  1.1373e+001 64133 75401,75329,75084
 4.0000e+000 75260 -8.9911e+001 -3.6832e+002  1.6643e+001 64133 75401,75084,75058
 4.0000e+000 75237 -9.8925e+001 -4.2717e+002  5.2866e+001 64133 75473,75136,75110
 4.0000e+000 75214 -1.0472e+002 -3.3262e+002  3.4847e+000 64133 75032,75188,75162
 4.0000e+000 75355 -1.1586e+002 -3.9637e+002  4.0641e+001 64133 75473,75110,75329
 4.0000e+000 75378 -8.7466e+001 -3.4131e+002  2.8906e+000 64133 75162,75329,75032
 4.0000e+000 75427 -8.3202e+001 -3.3074e+002  1.2690e+000 64133 75032,75329,75401
 4.0000e+000 75450 -1.5811e+002 -4.0978e+002  4.2538e+001 64133 75545,75401,75058
 4.0000e+000 75499 -8.8602e+001 -3.8794e+002  1.5080e+001 64133 75162,75136,75473
 4.0000e+000 75522 -1.0191e+002 -3.3481e+002  1.2768e+001 64133 75162,75473,75329
 4.0000e+000 75571 -7.6503e+001 -2.3113e+002  1.1654e+001 64133 75032,75401,75545
 4.0000e+000 75851 -1.3200e+002 -3.3357e+002  4.7166e+000 63843 75874,75753,75727
 4.0000e+000 75828 -1.1526e+002 -3.3497e+002 -2.0472e+001 63843 75946,75874,75727
 4.0000e+000 75805 -1.3117e+002 -3.5840e+002 -9.9764e+000 63843 76018,75946,75727
 4.0000e+000 75900 -9.8608e+001 -3.1938e+002 -8.9526e+000 63843 75779,75753,75874
 4.0000e+000 75923 -1.0712e+002 -2.7627e+002 -3.8908e+001 63843 75779,75874,75675
 4.0000e+000 75972 -1.3106e+002 -3.1337e+002 -1.5906e+001 63843 75675,75874,75946
 4.0000e+000 75995 -1.1841e+002 -3.3002e+002 -2.6615e+001 63843 75675,75946,75701
 4.0000e+000 76044 -1.3203e+002 -3.4371e+002 -3.3737e+001 63843 75701,75946,76018
 4.0000e+000 76454  2.7741e+001 -6.7117e+001 -4.3030e+001 63439 76477,76255,76229
 4.0000e+000 76431 -2.9717e+001 -1.6701e+002 -6.8850e+000 63439 76477,76229,76359
 4.0000e+000 76408 -4.7537e+001 -1.2903e+002  7.0296e+001 63439 76307,76359,76333
 4.0000e+000 76385 -2.5119e+001 -1.7009e+002  1.0629e+001 63439 76255,76307,76281
 4.0000e+000 76503 -2.8682e+001 -1.4513e+002  1.6996e+001 63439 76307,76255,76477
 4.0000e+000 76526 -2.7860e+001 -1.8507e+002  4.2854e+001 63439 76307,76477,76359
 4.0000e+000 76926 -7.4415e+001 -2.4927e+002 -6.0018e+000 63049 76704,76782,76756
 4.0000e+000 76903 -1.1366e+002 -2.6095e+002 -2.4970e+001 63049 76704,76808,76782
 4.0000e+000 76880 -8.0536e+001 -2.9073e+002  3.5996e+000 63049 76704,76756,76730
 4.0000e+000 76857 -6.8644e+001 -1.7089e+002  1.0341e+001 63049 76678,76808,76704
 4.0000e+000 76834 -3.2622e+001 -4.1087e+001 -3.8966e+001 63049 76652,76808,76678
 4.0000e+000 77076 -2.6527e+001 -3.8289e+002 -2.3895e+000 62737 76975,77027,77001
 4.0000e+000 77053 -2.5899e+001 -4.3194e+002 -2.8377e+001 62737 76949,77027,76975
 4.0000e+000 77324 -1.6701e+002 -3.8882e+002 -5.7063e+000 62277 77347,77177,77125
 4.0000e+000 77301 -1.6519e+002 -3.7678e+002 -2.3623e+001 62277 77347,77125,77229
 4.0000e+000 77278 -1.5953e+002 -3.8975e+002 -3.2007e+001 62277 77099,77229,77125
 4.0000e+000 77255 -1.7420e+002 -4.6930e+002  2.9034e+000 62277 77125,77177,77151
 4.0000e+000 77373 -1.7673e+002 -4.2371e+002  7.6584e+000 62277 77203,77177,77347
 4.0000e+000 77396 -1.5452e+002 -3.9268e+002 -1.3663e+001 62277 77203,77347,77229
 4.0000e+000 77857 -7.8161e+001 -4.8231e+002  4.5392e+000 61758 77635,77739,77661
 4.0000e+000 77834 -1.2302e+002 -4.6197e+002 -1.9999e+001 61758 77583,77739,77635
 4.0000e+000 77811 -1.4535e+002 -5.8477e+002 -5.7187e+001 61758 77583,77635,77609
 4.0000e+000 77788 -1.1869e+002 -4.5421e+002  3.5409e+001 61758 77661,77713,77687
 4.0000e+000 77765 -1.1883e+002 -5.2613e+002  3.7271e+001 61758 77661,77739,77713
 4.0000e+000 78491 -1.3377e+002 -2.7239e+002  1.5509e+001 61418 78171,78301,78249
 4.0000e+000 78468 -1.1197e+002 -2.2991e+002  3.2139e+001 61418 78145,78301,78171
 4.0000e+000 78445 -1.0009e+002 -2.4074e+002 -1.4147e+001 61418 78171,78249,78223
 4.0000e+000 78422 -1.0839e+002 -2.2792e+002  1.3339e+001 61418 78145,78327,78301
 4.0000e+000 78399 -1.3706e+002 -2.9732e+002  1.1242e+000 61418 78249,78301,78275
 4.0000e+000 78376 -6.1375e+001 -2.5637e+002 -2.0865e+001 61418 78171,78223,78197
 4.0000e+000 78353 -1.3097e+002 -3.0051e+002 -6.3852e+000 61418 78119,78327,78145
 4.0000e+000 78690 -1.4431e+002 -3.3309e+002 -5.4502e+000 61014 78713,78566,78540
 4.0000e+000 78667 -9.5460e+001 -3.3714e+002 -2.9402e+000 61014 78713,78540,78618
 4.0000e+000 78644 -1.6141e+002 -3.8066e+002 -3.6993e+001 61014 78514,78618,78540
 4.0000e+000 78739 -7.4380e+001 -3.2774e+002  3.3032e+001 61014 78592,78566,78713
 4.0000e+000 78762 -8.7042e+001 -3.5936e+002  2.1824e-001 61014 78785,78713,78618
 4.0000e+000 78811 -2.8349e+001 -3.3651e+002 -6.3558e+000 61014 78592,78713,78785
 4.0000e+000 79398 -6.3174e+001 -2.8507e+002 -3.0963e+001 60624 79101,79179,79153
 4.0000e+000 79375 -8.7774e+001 -3.2247e+002 -1.5045e+001 60624 79101,79231,79179
 4.0000e+000 79352 -6.8687e+001 -3.2248e+002 -2.5763e+001 60624 79075,79231,79101
 4.0000e+000 79329 -2.0975e+001 -3.9196e+002  4.5236e+001 60624 79075,79257,79231
 4.0000e+000 79306 -6.2477e+001 -2.3288e+002 -5.3510e+001 60624 79179,79231,79205
 4.0000e+000 79283 -4.9685e+001 -2.5540e+002 -1.9388e+001 60624 79101,79153,79127
 4.0000e+000 79776 -1.5761e+002 -4.2682e+002  4.1745e+001 60070 79528,79658,79606
 4.0000e+000 79753 -1.3750e+002 -3.2574e+002  1.0517e+000 60070 79502,79658,79528
 4.0000e+000 79730 -1.9256e+002 -4.1082e+002  5.9691e+001 60070 79528,79606,79580
 4.0000e+000 79707 -4.3962e+001 -3.5277e+002  6.6968e+000 60070 79606,79658,79632
 4.0000e+000 79684 -1.6684e+001 -2.5132e+002 -6.5908e+001 60070 79528,79580,79554
 4.0000e+000 80105 -1.0946e+002 -3.2497e+002  4.3592e+001 59758 80128,79958,79906
 4.0000e+000 80082 -1.2062e+002 -3.1058e+002  3.5603e+001 59758 80128,79906,80010
 4.0000e+000 80059 -1.5886e+002 -3.4268e+002  1.1716e+002 59758 79906,79958,79932
 4.0000e+000 80036 -1.8235e+002 -3.6668e+002  1.0954e+001 59758 79880,80010,79906
 4.0000e+000 80154 -1.1570e+002 -3.3383e+002  4.0628e+001 59758 79984,79958,80128
 4.0000e+000 80177 -1.2771e+002 -3.2263e+002  3.2139e+001 59758 79984,80128,80010
 4.0000e+000 80376 -8.8307e+001 -3.2433e+002  6.8511e+000 59312 80226,80304,80252
 4.0000e+000 80353 -9.2392e+001 -3.2969e+002  5.0680e+000 59312 80200,80304,80226
 4.0000e+000 80330 -1.3736e+002 -2.9384e+002  8.6670e+001 59312 80252,80304,80278
 4.0000e+000 80805 -1.1311e+002 -2.6344e+002 -4.0893e+001 58908 80900,80828,80638
 4.0000e+000 80782 -9.6403e+001 -3.1033e+002 -6.1429e+001 58908 80828,80560,80508
 4.0000e+000 80759 -1.1824e+002 -2.4826e+002 -1.5657e+001 58908 80900,80638,80612
 4.0000e+000 80736 -5.0657e+001 -2.6681e+002  1.0813e+002 58908 80482,80664,80508
 4.0000e+000 80713 -7.6990e+001 -2.2996e+002 -9.1587e+000 58908 80560,80612,80586
 4.0000e+000 80690 -1.1089e+002 -7.6139e+002 -1.4492e+002 58908 80508,80560,80534
 4.0000e+000 80854 -5.3307e+001 -2.8502e+002  2.8797e-001 58908 80664,80638,80828
 4.0000e+000 80877 -9.0722e+001 -4.0839e+002  6.1916e+000 58908 80664,80828,80508
 4.0000e+000 80926 -9.6840e+001 -2.1801e+002 -4.3857e+001 58908 80560,80828,80900
 4.0000e+000 80949 -1.0835e+002 -2.1817e+002 -1.5136e+001 58908 80560,80900,80612
 4.0000e+000 81246 -4.4571e+001 -2.4714e+002 -6.8277e+000 58482 81076,81128,81102
 4.0000e+000 81223 -1.1504e+002 -4.2855e+002 -4.3510e+001 58482 80972,81128,81076
 4.0000e+000 81200 -7.2572e+001 -2.9115e+002 -4.6962e+001 58482 80972,81076,81050
 4.0000e+000 81177 -1.6291e+002 -4.4396e+002 -1.1721e+001 58482 80998,81050,81024
 4.0000e+000 81154 -8.7538e+001 -3.6451e+002 -4.3383e+001 58482 80972,81050,80998
 4.0000e+000 81754 -1.2623e+002 -2.6323e+002  2.1931e+001 57828 81457,81613,81483
 4.0000e+000 81731 -1.4084e+002 -2.8905e+002  1.1291e+001 57828 81431,81613,81457
 4.0000e+000 81708 -1.3723e+002 -2.8892e+002  2.2493e+001 57828 81483,81613,81509
 4.0000e+000 81685 -1.6169e+002 -3.2399e+002  3.3235e+001 57828 81509,81613,81587
 4.0000e+000 81662 -1.7117e+002 -4.8309e+002  6.7307e+001 57828 81509,81587,81535
 4.0000e+000 81639 -1.0003e+002 -4.6022e+002  4.3069e+001 57828 81535,81587,81561
 4.0000e+000 82002 -2.0821e+002 -4.9413e+002 -2.2373e+000 57374 82025,81855,81829
 4.0000e+000 81979 -2.2220e+002 -4.6956e+002  1.8498e+001 57374 82025,81829,81907
 4.0000e+000 81956 -2.2840e+002 -4.4245e+002  1.1022e+001 57374 81803,81907,81829
 4.0000e+000 81933 -1.4231e+002 -4.1084e+002  1.5089e+001 57374 81777,81907,81803
 4.0000e+000 82051 -1.9963e+002 -4.6451e+002 -6.7873e+000 57374 81881,81855,82025
 4.0000e+000 82074 -2.1439e+002 -4.4603e+002  2.0194e+001 57374 81881,82025,81907
 4.0000e+000 82356 -1.0932e+002 -2.6279e+002 -1.8114e+001 56913 82180,82232,82206
 4.0000e+000 82333 -9.3392e+001 -2.5015e+002  2.9496e+001 56913 82180,82284,82232
 4.0000e+000 82310 -3.0691e+001 -2.1010e+002  5.2397e+001 56913 82379,82232,82284
 4.0000e+000 82405  3.1710e+001 -2.0397e+002  1.1423e+001 56913 82258,82232,82379
 4.0000e+000 82764 -1.0903e+002 -1.7373e+002 -1.7837e+001 56523 82614,82666,82640
 4.0000e+000 82741 -9.3361e+001 -1.7509e+002 -2.6169e+001 56523 82614,82692,82666
 4.0000e+000 82718 -8.0445e+001 -1.8912e+002 -5.5743e+001 56523 82588,82692,82614
 4.0000e+000 83368 -2.8726e+001 -3.3998e+002 -1.7478e+001 55969 82973,83155,83129
 4.0000e+000 83345  4.9826e+000 -3.2638e+002 -2.2515e+001 55969 82973,83181,83155
 4.0000e+000 83322 -9.1768e+001 -2.9888e+002 -1.5005e+001 55969 82973,83129,82999
 4.0000e+000 83299 -1.4451e+002 -3.0665e+002  7.7208e+000 55969 83391,83025,82999
 4.0000e+000 83276 -1.2377e+002 -3.1760e+002  4.9228e-001 55969 83391,82999,83129
 4.0000e+000 83253 -2.9310e+001 -2.6834e+002  5.5691e+001 55969 83077,83129,83103
 4.0000e+000 83230 -1.5638e+002 -2.5160e+002 -9.8027e+000 55969 83025,83077,83051
 4.0000e+000 83207 -3.4180e+000 -3.1447e+002  3.1723e+001 55969 82947,83181,82973
 4.0000e+000 83417 -1.2477e+002 -2.9439e+002  1.4531e+001 55969 83077,83025,83391
 4.0000e+000 83440 -1.1775e+002 -3.1079e+002  4.1607e+000 55969 83077,83391,83129
 4.0000e+000 83946 -2.0935e+002 -4.7260e+002  7.3227e+001 55771 83969,83779,83727
 4.0000e+000 83923 -1.6328e+002 -3.7891e+002  4.6693e+001 55771 83969,83727,83623
 4.0000e+000 83900 -2.0721e+002 -2.0145e+002  2.8800e+001 55771 83623,83727,83649
 4.0000e+000 83877 -1.6853e+002 -8.3535e+002  2.8933e+001 55771 83727,83779,83753
 4.0000e+000 83854 -3.6746e+002 -3.0228e+002  1.4307e+002 55771 83675,83727,83701
 4.0000e+000 83831 -3.2497e+002 -3.2273e+002  1.3143e+002 55771 83649,83727,83675
 4.0000e+000 83995 -1.9786e+002 -4.9395e+002 -4.6452e+001 55771 83805,83779,83969
 4.0000e+000 84018 -1.0253e+002 -3.0635e+002 -8.2592e+001 55771 83805,83969,83623
 4.0000e+000 84168 -9.0766e+001 -2.3264e+002 -7.5229e+000 55367 84191,84067,84041
 4.0000e+000 84145 -8.9320e+001 -2.6343e+002 -4.9394e+000 55367 84191,84041,84119
 4.0000e+000 84217 -9.7328e+001 -2.1443e+002 -6.9759e+000 55367 84093,84067,84191
 4.0000e+000 84240 -8.6318e+001 -2.3248e+002  4.2867e+000 55367 84093,84191,84119
 4.0000e+000 84571 -5.3917e+001 -3.8588e+002 -3.8551e+001 54913 84398,84450,84424
 4.0000e+000 84548 -4.1151e+001 -3.5268e+002 -1.9234e+001 54913 84372,84450,84398
 4.0000e+000 84525 -9.4184e+001 -3.9828e+002  1.6056e+001 54913 84346,84450,84372
 4.0000e+000 84502 -3.1772e+001 -2.5585e+002 -3.1244e+001 54913 84346,84476,84450
 4.0000e+000 85126 -1.9354e+002 -4.1787e+002 -1.1904e+001 54402 84858,84936,84910
 4.0000e+000 85103 -1.5356e+002 -3.3822e+002 -3.9795e+001 54402 84806,84936,84858
 4.0000e+000 85080 -1.7920e+002 -3.0531e+002 -2.9421e+001 54402 84780,84936,84806
 4.0000e+000 85057 -1.5276e+002 -3.7580e+002 -1.6701e+001 54402 84806,84858,84832
 4.0000e+000 85034 -1.5826e+002 -2.8629e+002  1.5834e+001 54402 84780,84962,84936
 4.0000e+000 85011 -2.3139e+002 -2.5232e+002 -4.0369e+000 54402 84858,84910,84884
 4.0000e+000 84988 -1.5450e+002 -2.7747e+002  1.6676e+001 54402 84754,84962,84780
 4.0000e+000 85396 -1.4400e+002 -1.7606e+002 -1.1929e+001 53998 85197,85249,85223
 4.0000e+000 85373 -1.1120e+002 -2.2381e+002 -2.3847e+000 53998 85197,85275,85249
 4.0000e+000 85350 -1.4161e+002 -2.6333e+002 -1.6084e+001 53998 85171,85275,85197
 4.0000e+000 85327 -6.6413e+001 -2.4462e+002 -2.0177e+001 53998 85171,85301,85275
 4.0000e+000 85749 -9.1336e+001 -3.2013e+002 -6.5521e+000 53636 85524,85628,85550
 4.0000e+000 85726 -1.4341e+002 -3.5002e+002  1.0601e+001 53636 85524,85654,85628
 4.0000e+000 85703 -5.4259e+001 -3.4618e+002 -3.3233e+001 53636 85550,85602,85576
 4.0000e+000 85680 -9.0130e+001 -3.1714e+002 -1.6281e+001 53636 85550,85628,85602
 4.0000e+000 86127 -3.9543e+001 -3.1510e+002  4.6320e+001 52982 86150,85957,85879
 4.0000e+000 86104 -1.0848e+002 -3.6440e+002  2.4806e+001 52982 86150,85879,85853
 4.0000e+000 86081 -3.2305e+001 -4.4417e+002  8.9467e+001 52982 85957,86009,85983
 4.0000e+000 86058 -1.3145e+002 -3.3847e+002  3.9551e+001 52982 85879,85957,85931
 4.0000e+000 86035 -8.2387e+001 -3.1917e+002 -1.3731e+001 52982 85879,85931,85905
 4.0000e+000 86176  4.9077e+000 -3.6981e+002  3.7413e+001 52982 86009,85957,86150
 4.0000e+000 86199 -3.5928e+001 -4.0281e+002  2.2590e+001 52982 86009,86150,85853
 4.0000e+000 86398 -7.0814e+001 -2.3979e+002  2.2715e+001 52542 86421,86248,86222
 4.0000e+000 86375 -1.2316e+002 -2.4513e+002 -1.7365e+000 52542 86421,86222,86300
 4.0000e+000 86352 -1.2207e+002 -2.6313e+002 -1.1351e+001 52542 86222,86326,86300
 4.0000e+000 86447 -1.7530e+001 -2.4097e+002  4.3929e+001 52542 86274,86248,86421
 4.0000e+000 86470 -6.7110e+001 -2.5432e+002  1.3093e+001 52542 86274,86421,86300
 4.0000e+000 86669 -1.1602e+002 -2.5291e+002 -3.9550e+001 52230 86692,86571,86545
 4.0000e+000 86646 -1.1039e+002 -2.3500e+002 -2.0878e+001 52230 86692,86545,86519
 4.0000e+000 86623 -1.5609e+002 -2.4790e+002 -3.8616e+001 52230 86493,86597,86519
 4.0000e+000 86718 -1.2481e+002 -2.5857e+002 -4.9054e+001 52230 86597,86571,86692
 4.0000e+000 86741 -1.3189e+002 -2.4603e+002 -3.1632e+001 52230 86597,86692,86519
 4.0000e+000 87153 -1.6505e+002 -2.6489e+002  8.6880e+000 51640 86980,87058,87032
 4.0000e+000 87130 -1.6703e+002 -2.7199e+002  5.7638e+000 51640 86928,87058,86980
 4.0000e+000 87107 -1.7572e+002 -3.6869e+002 -2.1456e+001 51640 86928,86980,86954
 4.0000e+000 87084 -9.1343e+001 -2.3358e+002 -4.7789e+000 51640 86980,87032,87006
 4.0000e+000 87659 -7.8849e+001 -2.3312e+002  4.9201e+000 51029 87682,87440,87362
 4.0000e+000 87636 -6.7213e+001 -2.4527e+002 -2.4536e+001 51029 87682,87362,87336
 4.0000e+000 87613 -1.1128e+002 -3.4052e+002 -6.9254e+000 51029 87440,87518,87466
 4.0000e+000 87590 -1.2573e+002 -2.3555e+002  8.7959e+000 51029 87362,87440,87414
 4.0000e+000 87567 -1.0325e+002 -1.7724e+002  3.7981e+001 51029 87362,87414,87388
 4.0000e+000 87544 -1.5575e+002 -2.8896e+002  1.2577e+001 51029 87466,87518,87492
 4.0000e+000 87708 -7.7725e+001 -2.5805e+002 -2.4424e+000 51029 87518,87440,87682
 4.0000e+000 87731 -7.4391e+001 -2.9650e+002 -2.0967e+001 51029 87518,87682,87336
 4.0000e+000 87881 -1.4860e+002 -3.2076e+002  7.6629e+000 50739 87780,87832,87806
 4.0000e+000 87858 -1.6768e+002 -3.1974e+002 -1.4328e+001 50739 87754,87832,87780
 4.0000e+000 88468 -7.8783e+001 -2.1053e+002  6.0110e+000 50235 88171,88327,88197
 4.0000e+000 88445 -1.8734e+002 -2.0593e+002 -3.5664e+001 50235 88145,88327,88171
 4.0000e+000 88422 -2.0231e-001 -1.1159e+002 -1.3749e-001 50235 88275,88327,88301
 4.0000e+000 88399 -5.7764e+001 -1.3626e+002  7.3779e-001 50235 88197,88327,88275
 4.0000e+000 88376 -3.5622e+001 -1.9342e+002 -2.6702e+000 50235 88197,88275,88223
 4.0000e+000 88353 -3.5149e+001 -2.5089e+002 -2.6877e+001 50235 88223,88275,88249
 4.0000e+000 88895 -1.4254e+002 -3.4097e+002  7.2155e+000 49873 88918,88728,88676
 4.0000e+000 88872 -1.2186e+002 -3.1672e+002 -5.8916e+000 49873 88918,88676,88624
 4.0000e+000 88849 -9.6706e+001 -2.8962e+002 -1.3801e+001 49873 88598,88754,88624
 4.0000e+000 88826 -7.2887e+001 -2.9749e+002 -7.2463e+000 49873 88624,88676,88650
 4.0000e+000 88803 -1.2339e+002 -4.1344e+002  9.6449e+000 49873 88676,88728,88702
 4.0000e+000 88780 -1.1991e+002 -2.9424e+002 -1.4378e+001 49873 88572,88754,88598
 4.0000e+000 88944 -1.1770e+002 -3.3900e+002 -8.1474e+000 49873 88754,88728,88918
 4.0000e+000 88967 -1.0965e+002 -3.2997e+002 -1.8705e+001 49873 88754,88918,88624
 4.0000e+000 89473 -2.0647e+002 -3.2235e+002 -3.6333e+001 49583 89176,89306,89202
 4.0000e+000 89450 -2.1017e+002 -3.1445e+002 -5.8906e+001 49583 89176,89332,89306
 4.0000e+000 89427 -1.2239e+002 -3.5713e+002  1.7515e+001 49583 89496,89228,89202
 4.0000e+000 89404 -1.2344e+002 -3.6443e+002  2.0455e+001 49583 89496,89202,89280
 4.0000e+000 89381 -2.5431e+002 -4.5435e+002 -7.6646e+001 49583 89202,89306,89280
 4.0000e+000 89358 -1.6702e+002 -3.2084e+002 -6.9205e+001 49583 89150,89332,89176
 4.0000e+000 89522 -1.1675e+002 -3.0786e+002  1.0550e+001 49583 89254,89228,89496
 4.0000e+000 89545 -1.4037e+002 -3.4984e+002  1.9933e+001 49583 89254,89496,89280
 4.0000e+000 89825  2.3530e+001 -3.1871e+002  1.8817e+001 49179 89701,89753,89727
 4.0000e+000 89802 -5.0086e+001 -2.8925e+002  2.5229e+001 49179 89675,89753,89701
 4.0000e+000 89779 -3.6718e+001 -2.5251e+002  1.8025e+001 49179 89848,89753,89675
 4.0000e+000 89874 -1.6786e+002 -2.9154e+002 -1.7034e+001 49179 89649,89753,89848
 4.0000e+000 90223 -1.1560e+002 -3.3824e+002 -3.4032e+001 48739 90024,90102,90076
 4.0000e+000 90200 -1.1523e+002 -3.2193e+002 -1.2472e+001 48739 90024,90128,90102
 4.0000e+000 90177 -1.8290e+001 -3.3026e+002 -3.5765e+001 48739 90024,90076,90050
 4.0000e+000 90154 -4.5703e+001 -3.1026e+002  2.4739e+001 48739 89998,90128,90024
 4.0000e+000 90603 -1.0714e+002 -2.6625e+002  5.8147e+001 48335 90381,90485,90459
 4.0000e+000 90580 -1.3808e+002 -3.1379e+002  4.4278e+001 48335 90355,90485,90381
 4.0000e+000 90557 -5.9824e+001 -1.2169e+002  2.8734e+001 48335 90381,90433,90407
 4.0000e+000 90534 -1.0655e+002 -2.7881e+002  4.2888e+001 48335 90381,90459,90433
 4.0000e+000 90511  2.5156e+001 -2.2247e+002  8.3542e+001 48335 90329,90485,90355
 4.0000e+000 90753 -9.9442e+000 -1.7597e+002  1.0152e+002 47824 90776,90652,90704
 4.0000e+000 90730 -9.1655e+001 -2.9883e+002  5.0347e+001 47824 90626,90704,90652
 4.0000e+000 90802 -4.6933e+001 -2.2919e+002  8.0671e+001 47824 90678,90652,90776
 4.0000e+000 91131 -9.7279e+001 -3.4110e+002  1.5463e+001 47427 91154,90958,90906
 4.0000e+000 91108 -1.7356e+002 -3.7213e+002 -1.2078e+000 47427 91154,90906,91036
 4.0000e+000 91085 -1.7221e+002 -3.0074e+002 -2.7649e+001 47427 90958,91010,90984
 4.0000e+000 91062 -9.5987e+001 -3.1695e+002  1.7487e+001 47427 90906,90958,90932
 4.0000e+000 91180 -1.4215e+002 -3.4038e+002 -3.4394e+001 47427 91010,90958,91154
 4.0000e+000 91203 -2.1613e+002 -3.7255e+002 -5.2452e+001 47427 91010,91154,91036
 4.0000e+000 91583 -1.9576e+002 -3.5713e+002 -1.7917e+001 46873 91309,91439,91335
 4.0000e+000 91560 -2.0179e+002 -3.6776e+002 -1.5056e+001 46873 91309,91465,91439
 4.0000e+000 91537 -2.8229e+002 -4.1208e+002 -9.4148e+001 46873 91361,91439,91413
 4.0000e+000 91514 -2.1559e+002 -3.7045e+002 -4.8765e+001 46873 91335,91439,91361
 4.0000e+000 91491 -9.9042e+001 -3.5848e+002 -9.0691e+001 46873 91361,91413,91387
 4.0000e+000 91880 -1.0742e+002 -3.4377e+002 -6.5461e+000 46526 91606,91710,91658
 4.0000e+000 91857 -1.1209e+002 -3.5848e+002  2.9373e+000 46526 91606,91762,91710
 4.0000e+000 91834 -6.3634e+001 -3.3222e+002 -3.9132e+001 46526 91606,91658,91632
 4.0000e+000 91811 -1.2658e+002 -3.2163e+002  6.6860e+000 46526 91658,91710,91684
 4.0000e+000 91788 -7.2730e+001 -2.4132e+002  1.1757e+001 46526 91710,91762,91736
 4.0000e+000 92211 -6.6305e+001 -1.4894e+002 -9.0042e+000 45700 91986,92064,92038
 4.0000e+000 92188 -8.7646e+001 -2.2399e+002  4.4584e+000 45700 91986,92116,92064
 4.0000e+000 92165 -5.2204e+001 -1.3131e+002 -2.9944e+001 45700 91986,92038,92012
 4.0000e+000 92142 -6.4496e+001 -2.4199e+002  2.8077e+001 45700 92064,92116,92090
 4.0000e+000 92766 -1.6631e+002 -3.0576e+002  1.8677e+001 45452 92446,92602,92576
 4.0000e+000 92743 -2.3380e+002 -2.9349e+002 -2.2968e+001 45452 92420,92602,92446
 4.0000e+000 92720 -1.8463e+002 -3.1542e+002  4.8690e+001 45452 92789,92524,92498
 4.0000e+000 92697 -2.1184e+002 -3.0975e+002  4.0135e+001 45452 92789,92498,92446
 4.0000e+000 92674 -1.8200e+002 -3.3766e+002 -4.1388e+000 45452 92524,92576,92550
 4.0000e+000 92651 -2.7564e+002 -3.1615e+002  1.6769e+002 45452 92446,92498,92472
 4.0000e+000 92628 -1.9141e+002 -4.3476e+002 -1.1800e+002 45452 92394,92602,92420
 4.0000e+000 92815 -1.6556e+002 -3.1914e+002  4.1400e+001 45452 92576,92524,92789
 4.0000e+000 92838 -1.8683e+002 -3.0891e+002  3.6452e+001 45452 92576,92789,92446
 4.0000e+000 92939 -1.2522e+002 -4.0743e+002 -8.5164e+001 44998 92861,92913,92887
 4.0000e+000 93319 -2.3706e+001 -4.1838e+002  8.1252e+001 44601 93123,93201,93149
 4.0000e+000 93296 -1.1424e+002 -4.2932e+002 -4.2237e+001 44601 93045,93201,93123
 4.0000e+000 93273 -9.3240e+001 -2.4699e+002 -5.9715e+001 44601 93045,93123,93071
 4.0000e+000 93250 -8.7043e+001 -2.2778e+002 -3.7054e+001 44601 93071,93123,93097
 4.0000e+000 93227 -4.9229e+000 -2.3500e+002  8.6881e+001 44601 93149,93201,93175
 4.0000e+000 93697 -8.7329e+001 -4.5700e+002  2.4717e+001 44026 93720,93553,93527
 4.0000e+000 93674 -1.5876e+002 -3.8667e+002  3.3980e+001 44026 93720,93527,93449
 4.0000e+000 93651 -1.7488e+002 -4.0016e+002 -5.7268e+000 44026 93449,93527,93501
 4.0000e+000 93628 -1.2661e+002 -3.0939e+002 -6.9469e+001 44026 93423,93579,93449
 4.0000e+000 93605 -3.7184e+001 -3.1531e+002  3.0437e+001 44026 93449,93501,93475
 4.0000e+000 93746 -3.6273e+001 -4.0561e+002  4.1666e+000 44026 93579,93553,93720
 4.0000e+000 93769 -1.1165e+002 -3.3688e+002  1.4371e+001 44026 93579,93720,93449
 4.0000e+000 94066 -8.5867e+001 -3.5749e+002 -4.8250e+001 43579 94089,93818,93792
 4.0000e+000 94043 -1.4483e+002 -3.9283e+002 -3.2130e+001 43579 94161,94089,93792
 4.0000e+000 94020 -1.4156e+002 -3.9426e+002 -1.6787e+001 43579 94161,93792,93948
 4.0000e+000 93997 -1.5462e+002 -3.2030e+002 -1.7230e+001 43579 94233,93870,93818
 4.0000e+000 93974 -8.8804e+001 -3.3269e+002  1.0808e+001 43579 93818,93870,93844
 4.0000e+000 94115 -1.4964e+002 -3.2271e+002 -3.7248e+001 43579 94233,93818,94089
 4.0000e+000 94138 -1.9643e+002 -3.5669e+002 -2.2405e+001 43579 93896,94089,93922
 4.0000e+000 94187 -1.3472e+002 -3.7069e+002 -2.9056e+001 43579 93922,94089,94161
 4.0000e+000 94210 -1.2885e+002 -3.6924e+002 -1.2366e+001 43579 93922,94161,93948
 4.0000e+000 94259 -1.8122e+002 -3.5836e+002 -3.1864e+000 43579 93896,93870,94233
 4.0000e+000 94282 -1.6275e+002 -3.4979e+002 -2.6132e+001 43579 93896,94233,94089
 4.0000e+000 94481 -1.1607e+002 -3.6535e+002 -2.2238e+000 43239 94305,94383,94357
 4.0000e+000 94458 -9.8733e+001 -3.3327e+002  4.2394e+001 43239 94305,94409,94383
 4.0000e+000 94435 -8.7908e+001 -3.9295e+002 -9.1466e+000 43239 94305,94357,94331
 4.0000e+000 94633 -4.9994e+001 -2.4282e+002  5.6092e+001 42827 94656,94532,94506
 4.0000e+000 94610 -1.0333e+002 -2.6738e+002  6.2181e+001 42827 94728,94656,94506
 4.0000e+000 94682 -5.8619e+001 -2.7887e+002  4.8410e+001 42827 94558,94532,94656
 4.0000e+000 94705 -2.6261e+001 -2.7359e+002  3.0642e+001 42827 94988,94860,94656
 4.0000e+000 94754 -6.2839e+001 -2.4862e+002  2.0916e+001 42827 94988,94656,94728
 4.0000e+000 94886  9.1714e+000 -2.5795e+002  3.3502e+001 42827 94558,94656,94860
 4.0000e+000 95014  4.3453e+000 -2.5203e+002  2.1241e+001 42827 94584,94860,94988
 4.0000e+000 95037 -2.6685e+001 -2.2813e+002  1.2190e+001 42827 94584,94988,94728
 4.0000e+000 95236 -7.1152e+001 -3.2213e+002  3.6759e+001 42537 95259,95112,95060
 4.0000e+000 95213 -7.8258e+001 -3.2316e+002  3.7266e+001 42537 95259,95060,95164
 4.0000e+000 95190 -4.3618e+001 -3.2551e+002 -9.2241e+000 42537 95060,95112,95086
 4.0000e+000 95285 -7.6035e+001 -3.2028e+002  3.3110e+001 42537 95138,95112,95259
 4.0000e+000 95308 -8.1759e+001 -3.2103e+002  3.2676e+001 42537 95138,95259,95164
 4.0000e+000 95816 -1.4022e+002 -3.7195e+002 -2.7104e+001 41969 95493,95597,95519
 4.0000e+000 95793 -2.0466e+002 -3.5868e+002  2.9019e+001 41969 95493,95649,95597
 4.0000e+000 95770 -1.5990e+002 -3.4155e+002  2.7389e+001 41969 95493,95675,95649
 4.0000e+000 95747 -1.6850e+002 -4.4754e+002  2.5514e+001 41969 95597,95649,95623
 4.0000e+000 95724 -2.1348e+002 -3.4657e+002 -4.1866e+001 41969 95519,95597,95571
 4.0000e+000 95701 -1.8815e+002 -3.0380e+002 -8.9103e+001 41969 95519,95571,95545
 4.0000e+000 96371 -1.6304e+002 -3.8139e+002  4.5928e+001 41579 96025,96207,96181
 4.0000e+000 96348  4.6500e+001 -2.8716e+002 -1.1437e+001 41579 95999,96207,96025
 4.0000e+000 96325 -1.8219e+002 -3.0128e+002 -3.2190e+001 41579 96129,96181,96155
 4.0000e+000 96302 -7.1368e+001 -2.7143e+002  2.4180e+000 41579 96025,96181,96129
 4.0000e+000 96279 -1.4772e+002 -3.9134e+002  5.1862e+001 41579 96025,96129,96051
 4.0000e+000 96256 -1.8482e+002 -3.9730e+002  6.5448e+001 41579 96051,96103,96077
 4.0000e+000 96233 -6.9827e+001 -2.9636e+002  1.0707e+001 41579 96051,96129,96103
 4.0000e+000 96877 -4.1009e+001 -2.4504e+002 -2.7823e+001 41182 96972,96900,96632
 4.0000e+000 96854 -5.2239e+001 -1.8511e+002 -3.0592e+001 41182 96900,96554,96736
 4.0000e+000 96831 -3.9384e+001 -2.4409e+002 -2.4632e+001 41182 96972,96632,96580
 4.0000e+000 96808 -5.5674e+001 -2.3296e+002  2.1889e+001 41182 96632,96684,96658
 4.0000e+000 96785 -9.2034e+001 -2.4379e+002  3.1712e+001 41182 96684,96736,96710
 4.0000e+000 96762 -1.3953e+002 -3.0907e+002  4.8565e+001 41182 96580,96632,96606
 4.0000e+000 96926 -3.8186e+001 -2.7283e+002 -2.7512e+001 41182 96684,96632,96900
 4.0000e+000 96949 -7.6502e+001 -2.4237e+002 -4.8988e+001 41182 96684,96900,96736
 4.0000e+000 96998 -4.7268e+001 -2.4883e+002 -3.2139e+001 41182 96554,96900,96972
 4.0000e+000 97021 -4.5237e+001 -2.4532e+002 -2.8557e+001 41182 96554,96972,96580
 4.0000e+000 97576 -2.3601e+002 -5.6576e+002 -7.8162e+001 40678 97230,97412,97282
 4.0000e+000 97553 -3.0081e+001 -4.6214e+002  2.6753e+001 40678 97204,97412,97230
 4.0000e+000 97530 -7.9302e+001 -4.3716e+002 -6.6922e+001 40678 97282,97360,97308
 4.0000e+000 97507 -1.1038e+002 -4.4384e+002 -2.8468e+001 40678 97282,97412,97360
 4.0000e+000 97484 -4.2873e+001 -2.7257e+002 -5.7482e+001 40678 97308,97360,97334
 4.0000e+000 97461 -1.4533e+002 -5.2754e+002 -1.3470e+001 40678 97360,97412,97386
 4.0000e+000 97438 -1.3319e+002 -3.5338e+002 -4.4542e+001 40678 97230,97282,97256
 4.0000e+000 97976 -1.6852e+002 -2.8335e+002 -7.6638e+000 40244 97702,97832,97754
 4.0000e+000 97953 -1.4304e+002 -2.7026e+002 -1.5321e+001 40244 97702,97858,97832
 4.0000e+000 97930 -1.8004e+002 -3.3238e+002 -7.3158e+001 40244 97702,97754,97728
 4.0000e+000 97907 -1.4594e+002 -3.2148e+002  3.5522e+001 40244 97780,97832,97806
 4.0000e+000 97884 -1.5716e+002 -2.7609e+002 -3.4479e+000 40244 97754,97832,97780
 4.0000e+000 98482 -1.1285e+002 -2.9346e+002  4.2618e+001 39690 98505,98185,98159
 4.0000e+000 98459 -1.1271e+002 -2.8559e+002  4.2431e+001 39690 98505,98159,98289
 4.0000e+000 98436 -1.9839e+002 -4.1210e+002  1.0855e+002 39690 98159,98315,98289
 4.0000e+000 98413 -9.4504e+001 -2.6585e+002  3.9300e+001 39690 98211,98289,98263
 4.0000e+000 98390 -6.2277e+001 -1.8156e+002  2.3757e+001 39690 98211,98263,98237
 4.0000e+000 98367 -5.5806e+001 -2.7644e+002  4.7223e+001 39690 98159,98341,98315
 4.0000e+000 98531 -1.1894e+002 -2.8924e+002  3.6249e+001 39690 98211,98185,98505
 4.0000e+000 98554 -1.1481e+002 -2.7466e+002  3.8206e+001 39690 98211,98505,98289
 4.0000e+000 99109 -9.5702e+001 -2.4790e+002 -1.4199e+001 39072 99132,98867,98789
 4.0000e+000 99086 -9.1692e+001 -2.5657e+002 -2.1593e+001 39072 99132,98789,98763
 4.0000e+000 99063 -1.4140e+002 -4.0547e+002  4.5289e+001 39072 98867,98945,98919
 4.0000e+000 99040 -8.2504e+001 -2.5939e+002 -4.2946e+000 39072 98789,98867,98841
 4.0000e+000 99017 -1.8741e+002 -2.8583e+002  1.2735e+001 39072 98867,98919,98893
 4.0000e+000 98994 -1.3445e+002 -2.4604e+002  4.9803e+001 39072 98789,98841,98815
 4.0000e+000 98971 -1.3580e+002 -2.9260e+002 -1.8560e+001 39072 98737,98945,98763
 4.0000e+000 99158 -9.3227e+001 -2.5892e+002 -1.5776e+001 39072 98945,98867,99132
 4.0000e+000 99181 -9.2365e+001 -2.7438e+002 -1.8774e+001 39072 98945,99132,98763
 4.0000e+000 99510 -8.3639e+001 -2.3521e+002  1.4119e+001 38668 99311,99389,99363
 4.0000e+000 99487 -7.3307e+001 -2.4409e+002 -5.2708e+000 38668 99285,99389,99311
 4.0000e+000 99464 -1.5578e+002 -3.3257e+002  2.9983e+001 38668 99285,99415,99389
 4.0000e+000 99441 -7.8005e+001 -2.5282e+002  2.3583e+001 38668 99311,99363,99337
 4.0000e+000 99758 -9.3082e+001 -3.7254e+002  5.5875e+001 38164 99781,99611,99585
 4.0000e+000 99735 -4.2329e+001 -3.8199e+002  6.1540e+001 38164 99781,99585,99533
 4.0000e+000 99712 -1.3608e+002 -3.4856e+002  3.8675e+001 38164 99611,99663,99637
 4.0000e+000 99689  1.2014e+001 -3.6185e+002 -2.3200e+001 38164 99533,99585,99559
 4.0000e+000 99807 -1.2201e+002 -3.7117e+002  7.0098e+001 38164 99663,99611,99781
 4.0000e+000 99830 -8.3241e+001 -3.8631e+002  6.7860e+001 38164 99663,99781,99533
 4.0000e+000 100232 -1.2237e+002 -2.9669e+002  5.2267e+000 37702 99984,100114,100088
 4.0000e+000 100209 -1.0077e+002 -3.2718e+002  3.4628e+001 37702 99958,100114,99984
 4.0000e+000 100186 -1.7356e+002 -3.6255e+002 -2.1235e+001 37702 100010,100088,100036
 4.0000e+000 100163 -1.2410e+002 -2.9811e+002  3.4584e-001 37702 99984,100088,100010
 4.0000e+000 100140 -1.1020e+002 -2.7707e+002 -7.5607e+001 37702 100036,100088,100062
 4.0000e+000 100640 -2.3897e+002 -3.3553e+002  3.9078e+001 37262 100493,100545,100519
 4.0000e+000 100617 -2.1561e+002 -3.7514e+002  1.9795e+001 37262 100441,100545,100493
 4.0000e+000 100594 -9.6802e+001 -2.8418e+002 -4.9073e+001 37262 100415,100545,100441
 4.0000e+000 100571 -2.4035e+002 -3.9900e+002 -1.7996e+001 37262 100441,100493,100467
 4.0000e+000 101146 -1.6111e+002 -2.7334e+002 -1.0019e+000 36872 100823,100979,100849
 4.0000e+000 101123 -1.5641e+002 -2.5366e+002 -2.4539e+001 36872 100823,101005,100979
 4.0000e+000 101100 -1.7000e+002 -3.9189e+002  5.3130e+001 36872 101169,100901,100849
 4.0000e+000 101077 -1.3186e+002 -3.1223e+002  2.8463e+001 36872 101169,100849,100979
 4.0000e+000 101054 -9.2251e+001 -3.2304e+002 -1.9480e+001 36872 100927,100979,100953
 4.0000e+000 101031 -9.4941e+001 -4.4678e+002  7.4044e+001 36872 100849,100901,100875
 4.0000e+000 101195 -1.1817e+002 -4.1540e+002  3.1925e+000 36872 100927,100901,101169
 4.0000e+000 101218 -9.5155e+001 -3.7351e+002 -1.6538e+001 36872 100927,101169,100979
 4.0000e+000 101773 -1.9704e+002 -2.9857e+002  5.3253e+001 36418 101479,101609,101583
 4.0000e+000 101750 -1.9986e+002 -3.2586e+002  5.9393e+001 36418 101453,101609,101479
 4.0000e+000 101727 -1.3602e+002 -3.1664e+002 -3.1552e+000 36418 101796,101531,101479
 4.0000e+000 101704 -1.8558e+002 -3.5104e+002  2.1794e+001 36418 101796,101479,101583
 4.0000e+000 101681 -1.1858e+002 -2.8307e+002 -1.0193e+001 36418 101479,101531,101505
 4.0000e+000 101658 -6.7306e+000 -2.9650e+002 -8.7637e-001 36418 101401,101609,101453
 4.0000e+000 101635 -6.0181e+001 -3.1912e+002 -1.2261e+001 36418 101401,101453,101427
 4.0000e+000 101822 -1.4765e+002 -2.9144e+002 -4.9856e+001 36418 101557,101531,101796
 4.0000e+000 101845 -2.0440e+002 -3.0351e+002 -2.7360e+001 36418 101557,101796,101583
 4.0000e+000 102174 -2.1819e+001 -1.5742e+002 -3.7614e+001 35914 101949,102053,101975
 4.0000e+000 102151 -8.7161e+001 -1.5427e+002 -2.8452e+001 35914 101949,102079,102053
 4.0000e+000 102128 -7.8386e+001 -1.8423e+002 -1.7417e+001 35914 101975,102053,102027
 4.0000e+000 102105 -5.5309e+001 -1.4379e+002 -2.6789e+001 35914 101975,102027,102001
 4.0000e+000 102631 -6.0957e+001 -3.1577e+002  1.3047e+001 35574 102383,102513,102487
 4.0000e+000 102608 -4.6129e+001 -3.3292e+002  1.0008e+001 35574 102357,102513,102383
 4.0000e+000 102585 -1.0424e+002 -3.2597e+002  1.2613e+001 35574 102409,102487,102435
 4.0000e+000 102562 -1.1234e+002 -3.3443e+002  8.6732e+000 35574 102383,102487,102409
 4.0000e+000 102539 -1.0426e+002 -3.2564e+002  1.2419e+001 35574 102435,102487,102461
 4.0000e+000 103009 -1.6648e+002 -3.0666e+002 -2.1922e+001 35170 102761,102865,102787
 4.0000e+000 102986 -9.8837e+001 -2.6879e+002  2.8972e+001 35170 102761,102891,102865
 4.0000e+000 102963 -1.4772e+002 -2.9640e+002 -8.8073e+000 35170 102787,102865,102813
 4.0000e+000 102940 -8.1788e+001 -2.5611e+002  3.4609e+001 35170 102735,102891,102761
 4.0000e+000 102917 -1.4774e+002 -2.9980e+002 -1.8376e+001 35170 102813,102865,102839
 4.0000e+000 103257 -3.2880e+001 -2.4694e+002 -4.5013e+001 34659 103280,103058,103032
 4.0000e+000 103234 -5.1333e+001 -2.6140e+002 -2.6266e+001 34659 103280,103032,103162
 4.0000e+000 103211 -9.0649e+001 -2.6133e+002 -2.3935e+001 34659 103084,103162,103110
 4.0000e+000 103188 -1.1744e+002 -3.1756e+002 -1.6076e+001 34659 103110,103162,103136
 4.0000e+000 103306 -6.5267e+001 -2.2905e+002 -3.9028e+001 34659 103084,103058,103280
 4.0000e+000 103329 -7.7221e+001 -2.4436e+002 -1.7902e+001 34659 103084,103280,103162
 4.0000e+000 103837 -3.3232e+001 -3.4458e+002  1.1477e+001 34247 103860,103566,103540
 4.0000e+000 103814 -4.6374e+001 -3.4455e+002  5.3040e-001 34247 103932,103860,103540
 4.0000e+000 103791 -3.3382e+001 -3.8097e+002 -3.6853e+001 34247 103932,103540,103670
 4.0000e+000 103768 -3.7944e+001 -3.2685e+002  5.3970e+000 34247 103566,103618,103592
 4.0000e+000 103745 -1.4188e+002 -3.2013e+002 -4.9330e+001 34247 103540,103696,103670
 4.0000e+000 103722 -1.8748e+002 -3.5597e+002  5.1836e+001 34247 103514,103696,103540
 4.0000e+000 103886 -7.0256e+001 -3.4417e+002 -1.6082e+000 34247 103618,103566,103860
 4.0000e+000 103909 -7.9416e+001 -3.6592e+002  1.0159e+001 34247 103618,103860,103644
 4.0000e+000 103958 -7.9634e+001 -4.3170e+002 -3.8609e+000 34247 103644,103860,103932
 4.0000e+000 103981 -6.6440e+001 -4.6534e+002 -4.3117e+001 34247 103644,103932,103670
 4.0000e+000 104300 -1.6998e+002 -3.5850e+002 -1.2093e+001 33843 104052,104182,104156
 4.0000e+000 104277 -2.1834e+002 -3.4022e+002 -4.5744e+000 33843 104026,104182,104052
 4.0000e+000 104254 -1.6704e+002 -4.1321e+002  6.7990e+000 33843 104078,104156,104130
 4.0000e+000 104231 -1.9426e+002 -3.8741e+002  1.1341e+000 33843 104052,104156,104078
 4.0000e+000 104208 -2.5732e+002 -4.4077e+002  1.1995e+001 33843 104078,104130,104104
 4.0000e+000 104499 -1.1934e+002 -3.6853e+002 -3.2838e+001 33282 104594,104522,104375
 4.0000e+000 104476 -1.0096e+002 -3.5469e+002  1.0698e+001 33282 104522,104323,104427
 4.0000e+000 104453 -7.3251e+001 -3.9554e+002 -2.9349e+001 33282 104594,104375,104349
 4.0000e+000 104548 -1.2423e+002 -3.1505e+002 -1.6593e+001 33282 104401,104375,104522
 4.0000e+000 104571 -8.5425e+001 -3.1079e+002  1.5568e+001 33282 104401,104522,104427
 4.0000e+000 104620 -6.4471e+001 -3.1767e+002 -1.1464e+001 33282 104323,104522,104594
 4.0000e+000 104643 -3.5784e+001 -3.6223e+002 -1.4930e+001 33282 104323,104594,104349
 4.0000e+000 104942 -1.6696e+002 -4.1429e+002  4.7835e+001 32728 104694,104772,104720
 4.0000e+000 104919 -1.2804e+002 -3.7873e+002  1.7032e+001 32728 104694,104824,104772
 4.0000e+000 104896 -2.1241e+002 -3.7536e+002  5.3292e+001 32728 104720,104772,104746
 4.0000e+000 104873 -9.6671e+001 -4.2759e+002  1.9275e+001 32728 104772,104824,104798
 4.0000e+000 104850 -1.0834e+002 -3.7420e+002  1.7351e+001 32728 104668,104824,104694
 4.0000e+000 105373 -1.5284e+002 -4.1112e+002 -1.8779e+001 32274 105396,105102,105076
 4.0000e+000 105350 -1.6120e+002 -4.4880e+002 -7.8587e+000 32274 105396,105076,105206
 4.0000e+000 105327 -1.9403e+002 -4.5095e+002  2.4789e+001 32274 105154,105206,105180
 4.0000e+000 105304 -9.4745e+001 -4.3337e+002 -3.4186e+001 32274 105076,105232,105206
 4.0000e+000 105281 -1.7427e+002 -3.7338e+002 -6.7864e+001 32274 105102,105154,105128
 4.0000e+000 105258 -2.5462e+002 -3.8606e+002 -7.0936e+001 32274 105050,105232,105076
 4.0000e+000 105422 -1.7130e+002 -3.7082e+002 -1.6497e+001 32274 105154,105102,105396
 4.0000e+000 105445 -1.7911e+002 -4.0958e+002 -8.2949e+000 32274 105154,105396,105206
 4.0000e+000 105644 -1.5822e+002 -4.0055e+002 -6.3702e+000 31620 105468,105546,105520
 4.0000e+000 105621 -1.2856e+002 -4.3796e+002 -2.1019e+001 31620 105468,105572,105546
 4.0000e+000 105598 -1.5576e+002 -4.2992e+002  2.3794e+001 31620 105468,105520,105494
 4.0000e+000 105794 -5.8753e+001 -3.7057e+002 -1.0457e+001 31158 105889,105817,105693
 4.0000e+000 105771 -8.0313e+001 -3.3977e+002 -2.2655e+001 31158 105817,105667,105745
 4.0000e+000 105843 -6.9267e+001 -4.4490e+002 -3.3960e+000 31158 105719,105693,105817
 4.0000e+000 105866 -4.4828e+001 -3.8841e+002 -1.8181e+001 31158 105719,105817,105745
 4.0000e+000 105915 -1.0971e+002 -3.9241e+002 -1.1052e+001 31158 105667,105817,105889
 4.0000e+000 106270 -1.6413e+002 -3.6491e+002 -2.1424e+000 30818 106293,106071,106045
 4.0000e+000 106247 -1.8935e+002 -4.2159e+002 -2.3309e+001 30818 106293,106045,106175
 4.0000e+000 106224 -1.3167e+002 -3.3519e+002  2.0185e+001 30818 106123,106175,106149
 4.0000e+000 106201 -1.7143e+002 -3.6554e+002  3.2587e+001 30818 106071,106123,106097
 4.0000e+000 106319 -1.6591e+002 -3.4263e+002  1.8555e+001 30818 106123,106071,106293
 4.0000e+000 106342 -1.6871e+002 -3.7215e+002  7.2158e-001 30818 106123,106293,106175
 4.0000e+000 106492 -1.5058e+002 -3.4486e+002  6.2751e+001 30414 106645,106391,106365
 4.0000e+000 106469 -6.7096e+001 -3.4013e+002  9.5543e+001 30414 106515,106365,106443
 4.0000e+000 106541 -1.0338e+002 -3.5459e+002  6.9198e+001 30414 106645,106365,106515
 4.0000e+000 106671 -8.2389e+001 -4.0503e+002  1.1601e+002 30414 106417,106391,106645
 4.0000e+000 106694  2.8193e+001 -3.7437e+002  9.8989e+001 30414 106417,106645,106515
 4.0000e+000 106942 -7.5918e+001 -4.9676e+002 -5.1014e-001 29910 106965,106795,106769
 4.0000e+000 106919 -6.7008e+001 -4.4631e+002  1.3980e+001 29910 106965,106769,106717
 4.0000e+000 106896 -6.7194e+001 -3.7312e+002 -4.8862e+001 29910 106795,106847,106821
 4.0000e+000 106873 -3.4435e+001 -3.7773e+002  2.5609e+001 29910 106717,106769,106743
 4.0000e+000 106991 -1.0317e+002 -4.4306e+002  6.2863e+000 29910 106847,106795,106965
 4.0000e+000 107014 -8.3034e+001 -3.7612e+002  2.0022e+001 29910 106847,106965,106717
 4.0000e+000 107213 -1.1576e+002 -3.7991e+002  2.1591e+001 29413 107236,107063,107037
 4.0000e+000 107190 -1.0502e+002 -4.4569e+002  4.5891e+001 29413 107236,107037,107141
 4.0000e+000 107167 -1.3818e+002 -2.8095e+002  5.6327e+001 29413 107063,107115,107089
 4.0000e+000 107262 -1.0890e+002 -3.3798e+002  1.5843e+001 29413 107115,107063,107236
 4.0000e+000 107285 -8.8282e+001 -3.8658e+002  4.2591e+001 29413 107115,107236,107141
 4.0000e+000 107486 -5.2766e+001 -3.6104e+002  4.5048e+001 29009 107336,107388,107362
 4.0000e+000 107463 -2.9380e+001 -3.4858e+002  1.3517e+001 29009 107310,107388,107336
 4.0000e+000 107440 -3.4564e+001 -3.2676e+002  1.2957e+001 29009 107310,107414,107388
 4.0000e+000 107736 -1.5747e+002 -4.1224e+002 -1.7174e+001 28491 107537,107615,107563
 4.0000e+000 107713 -1.3689e+002 -4.0216e+002 -1.1107e+001 28491 107537,107641,107615
 4.0000e+000 107690 -8.6702e+001 -3.9173e+002  6.4181e+000 28491 107563,107615,107589
 4.0000e+000 107667 -1.4622e+002 -4.0031e+002 -1.3114e+001 28491 107511,107641,107537
 4.0000e+000 108118 -8.8603e+001 -3.9192e+002  1.5376e+001 27980 108141,107922,107844
 4.0000e+000 108095 -7.0728e+001 -4.2327e+002  1.4549e+001 27980 108141,107844,108000
 4.0000e+000 108072 -9.3482e+001 -4.1041e+002 -2.1393e+001 27980 107844,107922,107870
 4.0000e+000 108049 -1.0048e+002 -3.5238e+002 -1.0928e+001 27980 107870,107922,107896
 4.0000e+000 108026 -1.3802e+002 -3.6566e+002  4.6036e+001 27980 107922,107974,107948
 4.0000e+000 108167 -7.6582e+001 -3.9049e+002  2.1006e+001 27980 107974,107922,108141
 4.0000e+000 108190 -2.7801e+001 -3.9230e+002  2.9613e+001 27980 107974,108141,108000
 4.0000e+000 108745 -5.6403e+001 -2.6789e+002 -5.0150e+000 27376 108840,108768,108477
 4.0000e+000 108722 -9.0258e+001 -3.2641e+002 -6.0040e+001 27376 108768,108373,108581
 4.0000e+000 108699 -8.4091e+001 -2.3384e+002  4.6313e+001 27376 108840,108477,108451
 4.0000e+000 108676 -1.9270e+002 -2.8006e+002 -1.3154e+001 27376 108373,108451,108399
 4.0000e+000 108653 -8.6497e+001 -3.3175e+002  4.1192e+001 27376 108503,108581,108529
 4.0000e+000 108630 -9.2814e+001 -3.2575e+002  4.2247e+001 27376 108529,108581,108555
 4.0000e+000 108607 -2.1801e+002 -3.0100e+002  2.1956e+001 27376 108399,108451,108425
 4.0000e+000 108794 -8.5371e+001 -3.5632e+002  1.7348e+000 27376 108503,108477,108768
 4.0000e+000 108817 -2.8920e+001 -3.2523e+002 -1.1415e+001 27376 108503,108768,108581
 4.0000e+000 108866 -1.6087e+002 -3.2873e+002 -2.9877e+001 27376 108373,108768,108840
 4.0000e+000 108889 -1.5568e+002 -2.8456e+002  2.4035e+001 27376 108373,108840,108451
 4.0000e+000 109186 -1.5736e+002 -4.0600e+002  3.9869e+001 26722 109209,108938,108912
 4.0000e+000 109163 -1.4750e+002 -3.8237e+002  3.8039e+001 26722 109281,109209,108912
 4.0000e+000 109140 -1.4148e+002 -3.7243e+002  3.5469e+001 26722 109281,108912,109042
 4.0000e+000 109117 -1.3325e+002 -4.3691e+002  1.8319e+001 26722 108938,108990,108964
 4.0000e+000 109094 -1.9492e+002 -3.3951e+002  2.2945e+001 26722 108912,109068,109042
 4.0000e+000 109235 -1.3488e+002 -3.9368e+002  3.4960e+001 26722 108990,108938,109209
 4.0000e+000 109258 -1.4237e+002 -4.2431e+002  3.2019e+001 26722 108990,109209,109016
 4.0000e+000 109307 -1.2977e+002 -3.9816e+002  1.8598e+001 26722 109016,109209,109281
 4.0000e+000 109330 -1.1892e+002 -3.8062e+002  1.3857e+001 26722 109016,109281,109042
 4.0000e+000 109732 -1.6316e+002 -3.2892e+002 -6.6726e+000 26310 109458,109588,109484
 4.0000e+000 109709 -1.5798e+002 -3.9117e+002 -4.1603e+001 26310 109458,109614,109588
 4.0000e+000 109686 -2.3051e+002 -3.8876e+002  5.8238e+001 26310 109510,109562,109536
 4.0000e+000 109663 -2.2656e+002 -3.6480e+002  2.2613e+001 26310 109484,109562,109510
 4.0000e+000 109640 -1.6797e+002 -3.3433e+002 -4.6297e-001 26310 109484,109588,109562
 4.0000e+000 110159 -1.0829e+002 -3.4238e+002 -1.1514e+001 25642 110182,109940,109914
 4.0000e+000 110136 -1.0182e+002 -3.9821e+002  4.3389e+001 25642 110182,109914,109888
 4.0000e+000 110113 -1.2956e+002 -4.2563e+002 -5.5724e+001 25642 109966,110018,109992
 4.0000e+000 110090 -1.4198e+002 -4.1016e+002  3.0624e+001 25642 110254,109966,109940
 4.0000e+000 110067 -1.8825e+002 -3.9189e+002  2.0682e+001 25642 109862,110018,109888
 4.0000e+000 110044 -1.7945e+002 -3.3077e+002  5.1032e+001 25642 109836,110018,109862
 4.0000e+000 110208 -1.4191e+002 -3.7385e+002  2.2568e+001 25642 110254,109940,110182
 4.0000e+000 110231 -1.5441e+002 -4.0019e+002  4.9033e+001 25642 110018,110182,109888
 4.0000e+000 110280 -1.2669e+002 -4.5521e+002  2.3589e+001 25642 110018,109966,110254
 4.0000e+000 110303 -1.3410e+002 -4.2796e+002  1.6639e+001 25642 110018,110254,110182
 4.0000e+000 110632 -1.7347e+002 -3.4911e+002 -2.1055e+001 25188 110407,110485,110433
 4.0000e+000 110609 -2.0536e+002 -3.4193e+002 -1.3788e+001 25188 110407,110537,110485
 4.0000e+000 110586 -2.0106e+002 -3.6476e+002 -6.9203e+001 25188 110433,110485,110459
 4.0000e+000 110563 -1.9171e+002 -3.6483e+002  3.7839e+001 25188 110485,110537,110511
 4.0000e+000 110831 -3.9113e+001 -3.3701e+002  7.5988e+000 24726 110854,110707,110655
 4.0000e+000 110808 -2.0558e+001 -3.6402e+002  3.5215e+001 24726 110854,110655,110759
 4.0000e+000 110785 -5.3740e+001 -3.5081e+002  1.6061e+001 24726 110655,110707,110681
 4.0000e+000 110880 -2.5018e+001 -3.1134e+002  1.3120e+001 24726 110733,110707,110854
 4.0000e+000 110903 -1.4808e-001 -3.2505e+002  4.2732e+001 24726 110733,110854,110759
 4.0000e+000 111234 -1.1165e+001 -2.4464e+002 -7.6372e+000 24222 111257,111087,111035
 4.0000e+000 111211  2.9750e+001 -2.2603e+002  2.7586e+001 24222 111257,111035,111009
 4.0000e+000 111188 -3.9286e+001 -1.3188e+002 -5.4460e+001 24222 111035,111087,111061
 4.0000e+000 111165 -3.8841e+001 -1.9250e+002  6.1601e+000 24222 111087,111139,111113
 4.0000e+000 111283 -3.6947e+001 -2.0163e+002  1.1312e+001 24222 111139,111087,111257
 4.0000e+000 111306 -1.9119e+001 -1.7090e+002  3.3955e+001 24222 111139,111257,111009
 4.0000e+000 111625 -6.1947e+001 -3.5061e+002 -2.1057e+001 23732 111648,111481,111455
 4.0000e+000 111602 -6.4115e+001 -3.5503e+002 -2.0240e+001 23732 111648,111455,111377
 4.0000e+000 111579  2.7864e+001 -1.9434e+002  3.5147e+001 23732 111377,111429,111403
 4.0000e+000 111556 -3.6562e+001 -3.6008e+002 -8.0146e+000 23732 111377,111455,111429
 4.0000e+000 111533 -5.4676e+001 -3.2108e+002 -7.2610e+000 23732 111351,111507,111377
 4.0000e+000 111674 -6.4157e+001 -3.4347e+002 -1.5982e+001 23732 111507,111481,111648
 4.0000e+000 111697 -6.8048e+001 -3.5234e+002 -1.5268e+001 23732 111507,111648,111377
 4.0000e+000 112156 -9.8410e+001 -4.0370e+002  2.8118e+001 23278 112179,111908,111882
 4.0000e+000 112133 -9.2165e+001 -3.7452e+002  1.5371e+001 23278 112179,111882,112012
 4.0000e+000 112110 -3.6481e+001 -4.3569e+002  6.8293e-001 23278 111908,111960,111934
 4.0000e+000 112087 -3.9665e+001 -3.2882e+002 -5.8894e+000 23278 111882,112038,112012
 4.0000e+000 112064 -8.2452e+001 -3.3720e+002 -4.9281e+000 23278 111960,112012,111986
 4.0000e+000 112205 -9.4277e+001 -3.8976e+002  3.9191e+000 23278 111960,111908,112179
 4.0000e+000 112228 -8.0063e+001 -3.5710e+002 -1.0670e+001 23278 111960,112179,112012
 4.0000e+000 112685 -2.6154e+002 -5.6357e+002 -5.5248e+001 22938 112489,112567,112541
 4.0000e+000 112662 -2.2790e+002 -4.9002e+002 -4.6741e+001 22938 112437,112567,112489
 4.0000e+000 112639 -1.5195e+002 -4.1939e+002 -5.8599e+000 22938 112489,112541,112515
 4.0000e+000 112616 -2.6121e+002 -4.7317e+002 -4.3066e+001 22938 112411,112567,112437
 4.0000e+000 112593 -1.9887e+002 -6.0190e+002 -1.5852e+001 22938 112437,112489,112463
 4.0000e+000 113191 -2.1242e+001 -3.9219e+002 -4.8873e+001 22534 113214,112998,112946
 4.0000e+000 113168 -7.7242e+001 -3.5207e+002 -2.5530e+001 22534 113286,113214,112946
 4.0000e+000 113145 -5.8728e+001 -3.5326e+002 -2.0872e+001 22534 113286,112946,112920
 4.0000e+000 113122 -1.5774e+002 -3.2297e+002 -6.7901e+001 22534 113358,113024,112998
 4.0000e+000 113099 -1.0410e+002 -3.4075e+002 -1.3201e+001 22534 112868,113050,112894
 4.0000e+000 113076 -1.1942e+002 -5.9870e+002 -9.7132e+001 22534 112946,112998,112972
 4.0000e+000 113240 -1.1824e+002 -4.0389e+002 -7.1852e+001 22534 113358,112998,113214
 4.0000e+000 113263 -9.9914e+001 -3.6769e+002 -1.5981e+001 22534 113050,113214,112894
 4.0000e+000 113312 -5.3788e+001 -3.4743e+002 -2.0004e+001 22534 112894,113214,113286
 4.0000e+000 113335 -3.4771e+001 -3.5018e+002 -1.8637e+001 22534 112894,113286,112920
 4.0000e+000 113384 -1.1429e+002 -2.4864e+002 -4.9861e+001 22534 113050,113024,113358
 4.0000e+000 113407 -5.7679e+001 -3.1566e+002 -4.4935e+001 22534 113050,113358,113214
 4.0000e+000 113785 -1.8954e+002 -4.7378e+002  9.3089e+000 21978 113808,113615,113511
 4.0000e+000 113762 -1.5435e+002 -4.7939e+002  3.0673e+001 21978 113808,113511,113667
 4.0000e+000 113739 -1.2192e+002 -4.0734e+002 -1.8417e+001 21978 113511,113615,113537
 4.0000e+000 113716  3.3323e+001 -3.6349e+002 -3.8400e+001 21978 113537,113615,113589
 4.0000e+000 113693 -5.9763e+001 -5.1848e+002  6.4459e+000 21978 113537,113589,113563
 4.0000e+000 113834 -1.9550e+002 -4.7347e+002  5.3052e+001 21978 113641,113615,113808
 4.0000e+000 113857 -1.0452e+002 -4.3843e+002  7.8441e+001 21978 113641,113808,113667
 4.0000e+000 114284 -1.4102e+002 -3.9603e+002  8.0203e+000 21517 114013,114117,114039
 4.0000e+000 114261 -1.5679e+002 -3.9388e+002  2.9497e+001 21517 113961,114117,114013
 4.0000e+000 114238 -1.5439e+002 -4.0294e+002  2.9011e+001 21517 113961,114013,113987
 4.0000e+000 114215 -2.2215e+002 -4.4966e+002 -3.0876e+001 21517 114039,114117,114091
 4.0000e+000 114192 -1.5974e+002 -3.3811e+002  3.5637e+001 21517 113961,114143,114117
 4.0000e+000 114169 -3.5447e+001 -3.8612e+002 -3.5472e+001 21517 114039,114091,114065
 4.0000e+000 114581 -8.8102e+001 -4.7105e+002  5.9927e+000 21027 114359,114463,114437
 4.0000e+000 114558 -5.1388e+001 -4.2762e+002  5.5201e+001 21027 114333,114463,114359
 4.0000e+000 114535 -4.2840e+001 -4.3123e+002 -1.1094e+001 21027 114359,114437,114385
 4.0000e+000 114512 -3.3828e+001 -4.2351e+002  4.4904e+001 21027 114307,114463,114333
 4.0000e+000 114489  5.1606e+001 -4.0265e+002 -1.9234e+001 21027 114385,114437,114411
 4.0000e+000 114912 -1.8699e+002 -4.0696e+002  4.6715e+000 20623 114713,114791,114765
 4.0000e+000 114889 -1.3014e+002 -3.8370e+002 -2.8766e+001 20623 114687,114791,114713
 4.0000e+000 114866 -9.6638e+001 -4.2846e+002 -3.0601e+001 20623 114687,114817,114791
 4.0000e+000 114843 -2.6893e+002 -4.8895e+002  3.9477e+001 20623 114713,114765,114739
 4.0000e+000 115290 -5.4394e+001 -3.6263e+002  1.6645e+001 20375 115313,115146,115094
 4.0000e+000 115267 -8.4288e+001 -3.4746e+002  3.2853e+001 20375 115313,115094,115042
 4.0000e+000 115244 -1.0778e+002 -3.3384e+002  9.1231e+000 20375 115385,115016,115172
 4.0000e+000 115221 -3.5872e+001 -3.2674e+002  2.8513e+001 20375 115042,115094,115068
 4.0000e+000 115198 -8.0827e+001 -4.3410e+002  2.3384e+001 20375 115094,115146,115120
 4.0000e+000 115339 -1.1606e+002 -4.2488e+002 -1.4475e+001 20375 115172,115146,115313
 4.0000e+000 115362 -6.7583e+001 -3.4422e+002  1.1212e+001 20375 115385,115172,115313
 4.0000e+000 115411 -1.3021e+002 -3.4569e+002  1.3492e+001 20375 115042,115016,115385
 4.0000e+000 115434 -1.1078e+002 -3.6985e+002  2.1949e+001 20375 115042,115385,115313
 4.0000e+000 115891 -1.9031e+002 -3.7166e+002  4.5839e+001 19971 115617,115747,115643
 4.0000e+000 115868 -1.6239e+002 -3.0231e+002  4.1354e+001 19971 115617,115773,115747
 4.0000e+000 115845 -1.1947e+002 -5.5250e+002  6.8427e+000 19971 115643,115721,115695
 4.0000e+000 115822 -7.4075e+000 -2.7836e+002 -2.3871e+000 19971 115643,115747,115721
 4.0000e+000 115799 -9.9820e+001 -6.8378e+002 -5.7012e+001 19971 115643,115695,115669
 4.0000e+000 115992 -2.7676e+002 -7.0435e+002 -1.1798e+002 19659 115914,115966,115940
 4.0000e+000 116142 -4.4316e+001 -1.6081e+002  4.4393e+000 18997 116041,116093,116067
 4.0000e+000 116119 -8.5572e+001 -2.6663e+002  1.5350e+001 18997 116015,116093,116041
 4.0000e+000 116343 -7.3844e+001 -4.1663e+002 -1.2304e+001 18707 116193,116245,116219
 4.0000e+000 116320 -1.6092e+002 -4.5389e+002 -1.8685e+001 18707 116193,116271,116245
 4.0000e+000 116297 -1.4493e+002 -4.0427e+002 -2.8965e+001 18707 116167,116271,116193
 4.0000e+000 116747 -7.2663e+001 -3.8137e+002 -6.8380e+000 18301 116525,116629,116551
 4.0000e+000 116724 -4.5099e+001 -3.2488e+002  8.7810e+000 18301 116473,116629,116525
 4.0000e+000 116701 -3.2412e+001 -3.1635e+002 -1.6413e+001 18301 116473,116525,116499
 4.0000e+000 116678 -6.1566e+001 -3.9625e+002 -5.3138e+000 18301 116551,116603,116577
 4.0000e+000 116655 -8.4598e+001 -4.0941e+002 -1.1517e+001 18301 116551,116629,116603
 4.0000e+000 117147 -2.0139e+002 -4.4754e+002 -1.3617e+000 17747 116899,117029,116925
 4.0000e+000 117124 -1.1154e+002 -3.2984e+002  4.4205e+001 17747 116873,117029,116899
 4.0000e+000 117101 -1.9982e+002 -4.4495e+002 -6.9975e-001 17747 116925,117029,116951
 4.0000e+000 117078 -1.7657e+002 -3.8900e+002 -2.2349e+000 17747 116951,117029,117003
 4.0000e+000 117055 -2.2819e+002 -5.0101e+002 -3.1115e+001 17747 116951,117003,116977
 4.0000e+000 117368  2.2249e+001 -4.1823e+002  8.9577e+000 17293 117244,117296,117270
 4.0000e+000 117345 -3.2353e+001 -4.3214e+002 -6.0610e+000 17293 117192,117296,117244
 4.0000e+000 117322 -7.7085e+001 -4.0640e+002 -4.7931e+000 17293 117192,117244,117218
 4.0000e+000 117699 -4.2781e+001 -3.3705e+002 -4.0165e+001 16896 117526,117604,117552
 4.0000e+000 117676 -2.2482e+002 -5.1531e+002  3.1936e+001 16896 117500,117604,117526
 4.0000e+000 117653 -2.3747e+002 -4.1019e+002 -1.9895e+001 16896 117552,117604,117578
 4.0000e+000 117630 -2.0532e+002 -6.6490e+002  5.5636e+001 16896 117474,117604,117500
 4.0000e+000 117849 -4.7620e+002 -9.0947e+002 -3.4800e+001 16534 117722,117774,117748
 4.0000e+000 117826 -3.7695e+002 -1.1088e+003 -1.4894e+002 16534 117722,117800,117774
 4.0000e+000 118070 -9.7367e+000 -4.3148e+002  5.3842e+001 16194 117946,117998,117972
 4.0000e+000 118047 -7.6800e+001 -4.8734e+002  2.1944e+001 16194 117894,117998,117946
 4.0000e+000 118024 -2.4787e+002 -4.9702e+002 -9.6433e-001 16194 117894,117946,117920
 4.0000e+000 118173 -4.8721e+001 -4.2567e+002  0.0000e+000 15968 118095,118147,118121
 4.0000e+000 118276 -1.3353e+002 -4.5115e+002  1.9178e+000 15433 118299,118198,118250
 4.0000e+000 118325 -1.3497e+002 -4.5452e+002  1.9512e+000 15433 118224,118198,118299
 4.0000e+000 118450 -2.2205e+002 -4.8671e+002  4.7623e+001 421 118372,118424,118398
 4.1000e+000 69891 -9.4069e+001 -4.8991e+002  1.7824e+001 68988 69447,69681,69629
 4.1000e+000 69868  2.5424e+001 -4.3914e+002  1.4462e+001 68988 69421,69681,69447
 4.1000e+000 69845 -9.9078e+000 -2.4962e+002  1.0937e+000 68988 69447,69629,69577
 4.1000e+000 69822 -1.4842e+002 -5.0963e+002 -5.5327e+001 68988 69447,69577,69473
 4.1000e+000 69799 -2.8065e+001 -5.8358e+002  9.6480e+001 68988 69629,69681,69655
 4.1000e+000 69776 -1.6199e+002 -3.1582e+002  9.3996e+000 68988 69577,69629,69603
 4.1000e+000 69753 -1.1907e+002 -4.5557e+002 -6.7736e+001 68988 69473,69577,69551
 4.1000e+000 69730 -1.6930e+002 -8.9258e+002 -8.7770e+001 68988 69473,69551,69525
 4.1000e+000 69707 -2.7830e+002 -5.9645e+002  1.3647e+000 68988 69473,69525,69499
 4.1000e+000 69992 -2.8643e+002 -5.3373e+002 -7.3102e+001 68676 69914,69966,69940
 4.1000e+000 70392 -2.1009e+002 -4.2948e+002  3.1568e+001 68478 70118,70248,70144
 4.1000e+000 70369 -9.4460e-002 -4.3436e+002  9.0823e+001 68478 70118,70274,70248
 4.1000e+000 70346 -1.3001e+002 -3.2994e+002 -1.6165e+000 68478 70144,70222,70196
 4.1000e+000 70323 -1.0959e+002 -2.7682e+002 -1.4585e+001 68478 70144,70248,70222
 4.1000e+000 70300 -1.3998e+002 -3.5938e+002 -6.6471e+000 68478 70144,70196,70170
 4.1000e+000 70841  4.9729e+001 -3.0371e+002 -7.6938e+001 68280 70570,70622,70596
 4.1000e+000 70818 -1.5515e+002 -3.4467e+002 -1.8973e+001 68280 70544,70622,70570
 4.1000e+000 70795 -1.1702e+002 -2.5861e+002 -1.1553e+001 68280 70544,70674,70622
 4.1000e+000 70772 -1.0101e+002 -2.3194e+002  3.4669e+000 68280 70622,70674,70648
 4.1000e+000 70749 -1.6487e+002 -3.8430e+002  2.7882e+001 68280 70518,70674,70544
 4.1000e+000 70726  1.1270e+002 -3.9875e+002  1.0877e+002 68280 70518,70700,70674
 4.1000e+000 70991 -1.8170e+001 -1.5517e+003  4.6483e+001 67968 70864,70916,70890
 4.1000e+000 70968 -4.1475e+002 -1.5384e+003  1.8116e+002 67968 70864,70942,70916
 4.1000e+000 71141 -7.1961e+002 -1.3563e+003 -6.8799e+001 67770 71040,71092,71066
 4.1000e+000 71118 -6.2487e+002 -1.6379e+003  7.1316e+001 67770 71014,71092,71040
 4.1000e+000 71651 -1.0753e+002 -3.0825e+002 -4.7747e+001 67366 71746,71674,71458
 4.1000e+000 71628 -7.3308e+001 -2.5270e+002 -5.0251e+001 67366 71674,71354,71510
 4.1000e+000 71605 -9.6957e+001 -3.4094e+002 -4.4331e+001 67366 71746,71458,71432
 4.1000e+000 71582 -1.4909e+002 -3.5037e+002  1.7323e+001 67366 71354,71432,71380
 4.1000e+000 71559 -1.5899e+002 -2.5941e+002 -2.6315e+001 67366 71380,71432,71406
 4.1000e+000 71536 -7.6657e+001 -1.1306e+002 -2.0356e+000 67366 71328,71510,71354
 4.1000e+000 71700 -1.1686e+002 -2.7859e+002 -2.2166e+001 67366 71484,71458,71674
 4.1000e+000 71723 -8.3889e+001 -2.6316e+002 -1.6690e+001 67366 71484,71674,71510
 4.1000e+000 71772 -9.4922e+001 -2.6956e+002 -4.1192e+001 67366 71354,71674,71746
 4.1000e+000 71795 -8.2974e+001 -2.9842e+002 -4.1760e+001 67366 71354,71746,71432
 4.1000e+000 71896 -2.7980e+002 -5.9053e+002  0.0000e+000 67146 71818,71870,71844
 4.1000e+000 71997 -3.7013e+002 -5.0652e+002  1.0131e+002 66948 71919,71971,71945
 4.1000e+000 72149 -2.7842e+001 -3.7127e+002 -4.0436e+001 66700 72172,72074,72048
 4.1000e+000 72126 -1.3409e+002 -4.1383e+002 -1.5485e+001 66700 72172,72048,72022
 4.1000e+000 72198 -2.0719e+002 -4.5692e+002  3.0377e+001 66700 72244,72172,72100
 4.1000e+000 72221 -1.8948e+002 -4.1953e+002 -2.4981e+001 66700 72100,72172,72022
 4.1000e+000 72270 -1.1236e+002 -2.4973e+002 -2.6856e+001 66700 72074,72172,72244
 4.1000e+000 72623 -1.4584e+002 -3.8826e+002  9.4067e+000 66502 72424,72502,72450
 4.1000e+000 72600 -1.2427e+002 -3.2953e+002  6.2078e+000 66502 72398,72502,72424
 4.1000e+000 72577 -9.7315e+001 -3.7175e+002 -6.4335e+000 66502 72398,72528,72502
 4.1000e+000 72554 -1.4767e+002 -3.4860e+002 -2.0839e+000 66502 72450,72502,72476
 4.1000e+000 72920 -2.2808e+002 -4.6556e+002  1.1606e+001 65941 72672,72776,72750
 4.1000e+000 72897 -2.3027e+002 -4.0416e+002  4.3120e+001 65941 72646,72776,72672
 4.1000e+000 72874 -1.9994e+002 -4.5697e+002  1.4278e+001 65941 72672,72750,72724
 4.1000e+000 72851 -2.0223e+002 -3.6517e+002  3.3166e+001 65941 72672,72724,72698
 4.1000e+000 72828 -1.7941e+002 -4.1562e+002  4.4355e+001 65941 72646,72802,72776
 4.1000e+000 73241 -6.6244e+001 -3.3644e+002  1.9785e+001 65743 73264,73071,73045
 4.1000e+000 73218 -1.4631e+002 -3.7464e+002  3.0845e+001 65743 73480,73264,73045
 4.1000e+000 73195 -1.2337e+002 -3.4145e+002 -4.3644e+000 65743 73336,72967,73097
 4.1000e+000 73172 -2.0276e+002 -3.1384e+002 -3.3506e+001 65743 73408,72993,72967
 4.1000e+000 73149 -1.1446e+002 -3.4136e+002 -4.3452e+000 65743 72967,73123,73097
 4.1000e+000 73290 -9.5627e+001 -3.4994e+002  4.4239e+000 65743 73097,73071,73264
 4.1000e+000 73313 -1.0809e+002 -3.2548e+002  1.1960e+001 65743 73336,73097,73264
 4.1000e+000 73362 -1.7622e+002 -3.5001e+002 -2.2806e+001 65743 73408,72967,73336
 4.1000e+000 73385 -9.1400e+001 -3.2108e+002 -2.5117e+000 65743 73019,73336,73264
 4.1000e+000 73434 -1.5870e+002 -2.4889e+002  1.6326e+001 65743 73019,72993,73408
 4.1000e+000 73457 -9.6051e+001 -2.9570e+002  1.0669e+001 65743 73019,73408,73336
 4.1000e+000 73506 -6.8732e+001 -2.4043e+002 -7.0118e-001 65743 73019,73264,73480
 4.1000e+000 73989 -2.0852e+001 -2.7213e+002  3.1558e+001 65453 73793,73845,73819
 4.1000e+000 73966 -1.4675e+002 -3.0523e+002  3.6590e+001 65453 73741,73845,73793
 4.1000e+000 73943 -4.1216e+001 -2.4630e+002  1.3375e+001 65453 73715,73845,73741
 4.1000e+000 73920 -1.1745e+002 -3.2261e+002  6.0453e+001 65453 73741,73793,73767
 4.1000e+000 73897 -2.4131e-001 -1.6386e+002 -1.5234e-001 65453 73715,73871,73845
 4.1000e+000 74357 -8.5323e+001 -3.3388e+002 -8.6687e+001 65141 74380,74138,74086
 4.1000e+000 74334 -1.4988e+002 -4.3984e+002 -5.7838e+001 65141 74380,74086,74060
 4.1000e+000 74311 -1.7248e+002 -4.3021e+002 -1.4052e+001 65141 74138,74190,74164
 4.1000e+000 74288 -1.2712e+002 -4.7777e+002 -1.8257e+001 65141 74060,74216,74190
 4.1000e+000 74265 -1.3431e+002 -5.0237e+002  8.2839e+000 65141 74034,74216,74060
 4.1000e+000 74242 -1.1241e+002 -2.7985e+002 -6.1895e+001 65141 74086,74138,74112
 4.1000e+000 74406 -1.2612e+002 -4.2873e+002 -3.5233e+001 65141 74190,74138,74380
 4.1000e+000 74429 -1.4583e+002 -4.6493e+002 -1.6216e+001 65141 74190,74380,74060
 4.1000e+000 74937 -1.7133e+002 -3.4096e+002 -8.4282e+001 64737 74614,74666,74640
 4.1000e+000 74914 -2.1192e+002 -4.1990e+002 -6.1255e+001 64737 74614,74796,74666
 4.1000e+000 74891 -1.5693e+002 -2.9907e+002 -1.1270e+001 64737 74960,74718,74666
 4.1000e+000 74868 -1.3910e+002 -3.2710e+002 -3.7982e+001 64737 74960,74666,74770
 4.1000e+000 74845 -1.4204e+002 -2.6401e+002 -4.0124e+001 64737 74666,74796,74770
 4.1000e+000 74822 -1.5535e+002 -3.2526e+002  5.1051e+000 64737 74666,74718,74692
 4.1000e+000 74986 -1.6761e+002 -3.2783e+002 -1.1114e+001 64737 74744,74718,74960
 4.1000e+000 75009 -1.5734e+002 -3.7023e+002 -3.8569e+001 64737 74744,74960,74770
 4.1000e+000 75306 -8.1370e+001 -3.0453e+002  4.3197e+001 64133 75329,75110,75084
 4.1000e+000 75283 -1.0451e+002 -3.5957e+002  1.1821e+001 64133 75401,75329,75084
 4.1000e+000 75260 -1.0097e+002 -3.6800e+002  1.5032e+001 64133 75401,75084,75058
 4.1000e+000 75237 -1.0360e+002 -4.2715e+002  5.2227e+001 64133 75473,75136,75110
 4.1000e+000 75214 -1.0666e+002 -3.3682e+002  3.3192e+000 64133 75032,75188,75162
 4.1000e+000 75355 -1.2051e+002 -3.9676e+002  4.0063e+001 64133 75473,75110,75329
 4.1000e+000 75378 -9.2259e+001 -3.4400e+002  2.8092e+000 64133 75162,75329,75032
 4.1000e+000 75427 -8.7290e+001 -3.3174e+002  1.0661e+000 64133 75032,75329,75401
 4.1000e+000 75450 -1.6290e+002 -4.0649e+002  4.0101e+001 64133 75545,75401,75058
 4.1000e+000 75499 -9.2087e+001 -3.8861e+002  1.5605e+001 64133 75162,75136,75473
 4.1000e+000 75522 -1.0600e+002 -3.3694e+002  1.2996e+001 64133 75162,75473,75329
 4.1000e+000 75571 -8.4007e+001 -2.3385e+002  1.0177e+001 64133 75032,75401,75545
 4.1000e+000 75851 -1.4132e+002 -3.3278e+002  7.2022e+000 63843 75874,75753,75727
 4.1000e+000 75828 -1.2316e+002 -3.3110e+002 -1.8307e+001 63843 75946,75874,75727
 4.1000e+000 75805 -1.3769e+002 -3.5252e+002 -8.7102e+000 63843 76018,75946,75727
 4.1000e+000 75900 -1.0740e+002 -3.1839e+002 -8.1872e+000 63843 75779,75753,75874
 4.1000e+000 75923 -1.1522e+002 -2.7527e+002 -3.7277e+001 63843 75779,75874,75675
 4.1000e+000 75972 -1.3736e+002 -3.1191e+002 -1.4271e+001 63843 75675,75874,75946
 4.1000e+000 75995 -1.2554e+002 -3.2645e+002 -2.4144e+001 63843 75675,75946,75701
 4.1000e+000 76044 -1.3820e+002 -3.3851e+002 -3.0321e+001 63843 75701,75946,76018
 4.1000e+000 76454  2.2984e+001 -6.8482e+001 -3.8965e+001 63439 76477,76255,76229
 4.1000e+000 76431 -3.0993e+001 -1.6164e+002 -4.5615e+000 63439 76477,76229,76359
 4.1000e+000 76408 -4.6901e+001 -1.2282e+002  6.8722e+001 63439 76307,76359,76333
 4.1000e+000 76385 -2.8234e+001 -1.6372e+002  1.1613e+001 63439 76255,76307,76281
 4.1000e+000 76503 -3.0842e+001 -1.4142e+002  1.6900e+001 63439 76307,76255,76477
 4.1000e+000 76526 -2.9666e+001 -1.7845e+002  4.1599e+001 63439 76307,76477,76359
 4.1000e+000 76926 -7.3304e+001 -2.3475e+002 -4.5072e+000 63049 76704,76782,76756
 4.1000e+000 76903 -1.0966e+002 -2.4551e+002 -2.2407e+001 63049 76704,76808,76782
 4.1000e+000 76880 -7.7875e+001 -2.6969e+002  3.4743e+000 63049 76704,76756,76730
 4.1000e+000 76857 -6.5436e+001 -1.6246e+002  1.0284e+001 63049 76678,76808,76704
 4.1000e+000 76834 -3.0946e+001 -3.7922e+001 -3.7038e+001 63049 76652,76808,76678
 4.1000e+000 77076 -3.4499e+001 -3.8662e+002 -2.4847e+000 62737 76975,77027,77001
 4.1000e+000 77053 -3.2851e+001 -4.3451e+002 -2.7921e+001 62737 76949,77027,76975
 4.1000e+000 77324 -1.6591e+002 -3.7998e+002 -6.0265e+000 62277 77347,77177,77125
 4.1000e+000 77301 -1.6371e+002 -3.6814e+002 -2.3397e+001 62277 77347,77125,77229
 4.1000e+000 77278 -1.5739e+002 -3.8256e+002 -3.2718e+001 62277 77099,77229,77125
 4.1000e+000 77255 -1.7198e+002 -4.5652e+002  1.9019e+000 62277 77125,77177,77151
 4.1000e+000 77373 -1.7534e+002 -4.1429e+002  7.4802e+000 62277 77203,77177,77347
 4.1000e+000 77396 -1.5281e+002 -3.8376e+002 -1.3319e+001 62277 77203,77347,77229
 4.1000e+000 77857 -8.6927e+001 -4.8089e+002  4.7890e+000 61758 77635,77739,77661
 4.1000e+000 77834 -1.2923e+002 -4.6354e+002 -1.8250e+001 61758 77583,77739,77635
 4.1000e+000 77811 -1.4962e+002 -5.8492e+002 -5.7508e+001 61758 77583,77635,77609
 4.1000e+000 77788 -1.1941e+002 -4.5425e+002  3.5682e+001 61758 77661,77713,77687
 4.1000e+000 77765 -1.2589e+002 -5.2593e+002  3.4555e+001 61758 77661,77739,77713
 4.1000e+000 78491 -1.3208e+002 -2.6302e+002  1.5537e+001 61418 78171,78301,78249
 4.1000e+000 78468 -1.0906e+002 -2.2197e+002  3.1726e+001 61418 78145,78301,78171
 4.1000e+000 78445 -9.9610e+001 -2.3320e+002 -1.1903e+001 61418 78171,78249,78223
 4.1000e+000 78422 -1.0697e+002 -2.2057e+002  1.2346e+001 61418 78145,78327,78301
 4.1000e+000 78399 -1.3668e+002 -2.9029e+002  1.8592e+000 61418 78249,78301,78275
 4.1000e+000 78376 -6.0709e+001 -2.5078e+002 -1.8351e+001 61418 78171,78223,78197
 4.1000e+000 78353 -1.2642e+002 -2.9316e+002 -6.8293e+000 61418 78119,78327,78145
 4.1000e+000 78690 -1.3431e+002 -3.1353e+002 -3.6723e+000 61014 78713,78566,78540
 4.1000e+000 78667 -9.1586e+001 -3.1881e+002 -6.7089e-001 61014 78713,78540,78618
 4.1000e+000 78644 -1.5376e+002 -3.6064e+002 -3.4352e+001 61014 78514,78618,78540
 4.1000e+000 78739 -7.0973e+001 -3.0709e+002  3.1123e+001 61014 78592,78566,78713
 4.1000e+000 78762 -8.7202e+001 -3.3790e+002  8.6999e-001 61014 78785,78713,78618
 4.1000e+000 78811 -2.7706e+001 -3.1471e+002 -5.6561e+000 61014 78592,78713,78785
 4.1000e+000 79398 -6.1416e+001 -2.7236e+002 -2.7878e+001 60624 79101,79179,79153
 4.1000e+000 79375 -8.3309e+001 -3.0747e+002 -1.2951e+001 60624 79101,79231,79179
 4.1000e+000 79352 -6.4679e+001 -3.0722e+002 -2.3012e+001 60624 79075,79231,79101
 4.1000e+000 79329 -2.0307e+001 -3.7131e+002  4.2529e+001 60624 79075,79257,79231
 4.1000e+000 79306 -5.8761e+001 -2.2213e+002 -4.8143e+001 60624 79179,79231,79205
 4.1000e+000 79283 -4.9593e+001 -2.4645e+002 -1.7050e+001 60624 79101,79153,79127
 4.1000e+000 79776 -1.6080e+002 -4.1544e+002  3.8097e+001 60070 79528,79658,79606
 4.1000e+000 79753 -1.4130e+002 -3.2071e+002  1.2977e+000 60070 79502,79658,79528
 4.1000e+000 79730 -1.9324e+002 -4.0049e+002  5.4838e+001 60070 79528,79606,79580
 4.1000e+000 79707 -5.6833e+001 -3.4542e+002  5.4062e+000 60070 79606,79658,79632
 4.1000e+000 79684 -1.7761e+001 -2.4571e+002 -6.4707e+001 60070 79528,79580,79554
 4.1000e+000 80105 -1.0908e+002 -3.1397e+002  4.1814e+001 59758 80128,79958,79906
 4.1000e+000 80082 -1.1863e+002 -3.0077e+002  3.4536e+001 59758 80128,79906,80010
 4.1000e+000 80059 -1.5638e+002 -3.3266e+002  1.1117e+002 59758 79906,79958,79932
 4.1000e+000 80036 -1.7746e+002 -3.5428e+002  1.1019e+001 59758 79880,80010,79906
 4.1000e+000 80154 -1.1446e+002 -3.2221e+002  3.9392e+001 59758 79984,79958,80128
 4.1000e+000 80177 -1.2494e+002 -3.1199e+002  3.1716e+001 59758 79984,80128,80010
 4.1000e+000 80376 -8.5162e+001 -3.0221e+002  6.2289e+000 59312 80226,80304,80252
 4.1000e+000 80353 -8.7148e+001 -3.0883e+002  5.0715e+000 59312 80200,80304,80226
 4.1000e+000 80330 -1.3176e+002 -2.7500e+002  8.1005e+001 59312 80252,80304,80278
 4.1000e+000 80805 -1.1485e+002 -2.6339e+002 -4.1126e+001 58908 80900,80828,80638
 4.1000e+000 80782 -9.8381e+001 -3.1003e+002 -6.1257e+001 58908 80828,80560,80508
 4.1000e+000 80759 -1.1969e+002 -2.4815e+002 -1.5964e+001 58908 80900,80638,80612
 4.1000e+000 80736 -5.2110e+001 -2.6840e+002  1.0598e+002 58908 80482,80664,80508
 4.1000e+000 80713 -7.8819e+001 -2.3054e+002 -8.7548e+000 58908 80560,80612,80586
 4.1000e+000 80690 -1.1155e+002 -7.5303e+002 -1.4422e+002 58908 80508,80560,80534
 4.1000e+000 80854 -5.6169e+001 -2.8498e+002 -3.1508e-001 58908 80664,80638,80828
 4.1000e+000 80877 -9.2959e+001 -4.0761e+002  5.9717e+000 58908 80664,80828,80508
 4.1000e+000 80926 -9.9005e+001 -2.1792e+002 -4.3755e+001 58908 80560,80828,80900
 4.1000e+000 80949 -1.1005e+002 -2.1791e+002 -1.5120e+001 58908 80560,80900,80612
 4.1000e+000 81246 -5.0719e+001 -2.5028e+002 -7.0944e+000 58482 81076,81128,81102
 4.1000e+000 81223 -1.1951e+002 -4.2907e+002 -4.3015e+001 58482 80972,81128,81076
 4.1000e+000 81200 -7.7729e+001 -2.9300e+002 -4.6223e+001 58482 80972,81076,81050
 4.1000e+000 81177 -1.6411e+002 -4.4357e+002 -1.2499e+001 58482 80998,81050,81024
 4.1000e+000 81154 -9.2763e+001 -3.6707e+002 -4.2547e+001 58482 80972,81050,80998
 4.1000e+000 81754 -1.2888e+002 -2.6479e+002  2.0565e+001 57828 81457,81613,81483
 4.1000e+000 81731 -1.4426e+002 -2.9254e+002  1.0012e+001 57828 81431,81613,81457
 4.1000e+000 81708 -1.3976e+002 -2.9021e+002  2.1952e+001 57828 81483,81613,81509
 4.1000e+000 81685 -1.6461e+002 -3.2782e+002  3.2932e+001 57828 81509,81613,81587
 4.1000e+000 81662 -1.7234e+002 -4.8231e+002  6.7335e+001 57828 81509,81587,81535
 4.1000e+000 81639 -1.0033e+002 -4.5643e+002  4.2531e+001 57828 81535,81587,81561
 4.1000e+000 82002 -1.9874e+002 -4.7376e+002 -2.0574e+000 57374 82025,81855,81829
 4.1000e+000 81979 -2.1208e+002 -4.4855e+002  1.9043e+001 57374 82025,81829,81907
 4.1000e+000 81956 -2.1753e+002 -4.2205e+002  1.2126e+001 57374 81803,81907,81829
 4.1000e+000 81933 -1.3114e+002 -3.8957e+002  1.6896e+001 57374 81777,81907,81803
 4.1000e+000 82051 -1.9165e+002 -4.4353e+002 -6.0652e+000 57374 81881,81855,82025
 4.1000e+000 82074 -2.0437e+002 -4.2376e+002  2.1587e+001 57374 81881,82025,81907
 4.1000e+000 82356 -1.1100e+002 -2.6197e+002 -1.8990e+001 56913 82180,82232,82206
 4.1000e+000 82333 -9.6414e+001 -2.5051e+002  2.4696e+001 56913 82180,82284,82232
 4.1000e+000 82310 -3.3409e+001 -2.0864e+002  4.7893e+001 56913 82379,82232,82284
 4.1000e+000 82405  3.1424e+001 -2.0053e+002  9.0502e+000 56913 82258,82232,82379
 4.1000e+000 82764 -1.1057e+002 -1.7691e+002 -1.7745e+001 56523 82614,82666,82640
 4.1000e+000 82741 -9.3833e+001 -1.7781e+002 -2.6615e+001 56523 82614,82692,82666
 4.1000e+000 82718 -8.0716e+001 -1.9140e+002 -5.5648e+001 56523 82588,82692,82614
 4.1000e+000 83368 -2.5561e+001 -3.1570e+002 -1.5843e+001 55969 82973,83155,83129
 4.1000e+000 83345  4.9660e+000 -3.0340e+002 -2.0203e+001 55969 82973,83181,83155
 4.1000e+000 83322 -8.3588e+001 -2.7746e+002 -1.3632e+001 55969 82973,83129,82999
 4.1000e+000 83299 -1.3103e+002 -2.8313e+002  5.7796e+000 55969 83391,83025,82999
 4.1000e+000 83276 -1.1415e+002 -2.9495e+002  3.0495e-002 55969 83391,82999,83129
 4.1000e+000 83253 -2.5236e+001 -2.4521e+002  5.3210e+001 55969 83077,83129,83103
 4.1000e+000 83230 -1.4222e+002 -2.3048e+002 -1.0314e+001 55969 83025,83077,83051
 4.1000e+000 83207 -2.1421e+000 -2.9229e+002  2.9594e+001 55969 82947,83181,82973
 4.1000e+000 83417 -1.1525e+002 -2.7202e+002  1.3110e+001 55969 83077,83025,83391
 4.1000e+000 83440 -1.0974e+002 -2.8773e+002  4.2356e+000 55969 83077,83391,83129
 4.1000e+000 83946 -2.0874e+002 -4.6878e+002  7.1851e+001 55771 83969,83779,83727
 4.1000e+000 83923 -1.6446e+002 -3.7854e+002  4.6516e+001 55771 83969,83727,83623
 4.1000e+000 83900 -2.0515e+002 -2.0446e+002  2.8508e+001 55771 83623,83727,83649
 4.1000e+000 83877 -1.6794e+002 -8.2400e+002  2.8501e+001 55771 83727,83779,83753
 4.1000e+000 83854 -3.5500e+002 -3.0598e+002  1.3503e+002 55771 83675,83727,83701
 4.1000e+000 83831 -3.1977e+002 -3.2105e+002  1.2622e+002 55771 83649,83727,83675
 4.1000e+000 83995 -1.9797e+002 -4.8930e+002 -4.3304e+001 55771 83805,83779,83969
 4.1000e+000 84018 -1.0631e+002 -3.0866e+002 -7.7894e+001 55771 83805,83969,83623
 4.1000e+000 84168 -9.5676e+001 -2.3484e+002 -7.7648e+000 55367 84191,84067,84041
 4.1000e+000 84145 -9.3884e+001 -2.6637e+002 -5.2181e+000 55367 84191,84041,84119
 4.1000e+000 84217 -1.0205e+002 -2.1652e+002 -7.1479e+000 55367 84093,84067,84191
 4.1000e+000 84240 -9.0084e+001 -2.3474e+002  4.2968e+000 55367 84093,84191,84119
 4.1000e+000 84571 -5.1577e+001 -3.7052e+002 -3.7600e+001 54913 84398,84450,84424
 4.1000e+000 84548 -4.1365e+001 -3.3880e+002 -1.8875e+001 54913 84372,84450,84398
 4.1000e+000 84525 -8.9976e+001 -3.8032e+002  1.3040e+001 54913 84346,84450,84372
 4.1000e+000 84502 -3.0408e+001 -2.4407e+002 -3.0941e+001 54913 84346,84476,84450
 4.1000e+000 85126 -1.8839e+002 -4.0503e+002 -1.3236e+001 54402 84858,84936,84910
 4.1000e+000 85103 -1.4937e+002 -3.2655e+002 -3.9042e+001 54402 84806,84936,84858
 4.1000e+000 85080 -1.7412e+002 -2.9472e+002 -2.8994e+001 54402 84780,84936,84806
 4.1000e+000 85057 -1.4755e+002 -3.6373e+002 -1.6083e+001 54402 84806,84858,84832
 4.1000e+000 85034 -1.5608e+002 -2.7762e+002  1.3425e+001 54402 84780,84962,84936
 4.1000e+000 85011 -2.2121e+002 -2.4413e+002 -4.3931e+000 54402 84858,84910,84884
 4.1000e+000 84988 -1.5197e+002 -2.7487e+002  1.6657e+001 54402 84754,84962,84780
 4.1000e+000 85396 -1.4703e+002 -1.7911e+002 -1.1678e+001 53998 85197,85249,85223
 4.1000e+000 85373 -1.1463e+002 -2.2607e+002 -2.3037e+000 53998 85197,85275,85249
 4.1000e+000 85350 -1.4461e+002 -2.6554e+002 -1.5889e+001 53998 85171,85275,85197
 4.1000e+000 85327 -7.1046e+001 -2.4759e+002 -1.9693e+001 53998 85171,85301,85275
 4.1000e+000 85749 -8.5660e+001 -2.9521e+002 -6.5417e+000 53636 85524,85628,85550
 4.1000e+000 85726 -1.3366e+002 -3.2489e+002  9.6248e+000 53636 85524,85654,85628
 4.1000e+000 85703 -5.0066e+001 -3.1747e+002 -3.0827e+001 53636 85550,85602,85576
 4.1000e+000 85680 -8.2968e+001 -2.9184e+002 -1.5288e+001 53636 85550,85628,85602
 4.1000e+000 86127 -3.6575e+001 -2.9675e+002  4.4782e+001 52982 86150,85957,85879
 4.1000e+000 86104 -1.0290e+002 -3.4517e+002  2.3627e+001 52982 86150,85879,85853
 4.1000e+000 86081 -3.0137e+001 -4.2419e+002  8.4758e+001 52982 85957,86009,85983
 4.1000e+000 86058 -1.2486e+002 -3.1944e+002  3.8516e+001 52982 85879,85957,85931
 4.1000e+000 86035 -7.9168e+001 -3.0227e+002 -1.1501e+001 52982 85879,85931,85905
 4.1000e+000 86176  6.5119e+000 -3.5029e+002  3.6184e+001 52982 86009,85957,86150
 4.1000e+000 86199 -3.2825e+001 -3.8320e+002  2.1691e+001 52982 86009,86150,85853
 4.1000e+000 86398 -7.4446e+001 -2.4246e+002  2.2792e+001 52542 86421,86248,86222
 4.1000e+000 86375 -1.2681e+002 -2.4675e+002 -1.6838e+000 52542 86421,86222,86300
 4.1000e+000 86352 -1.2577e+002 -2.6547e+002 -1.1563e+001 52542 86222,86326,86300
 4.1000e+000 86447 -2.1626e+001 -2.4309e+002  4.3217e+001 52542 86274,86248,86421
 4.1000e+000 86470 -7.0872e+001 -2.5486e+002  1.2387e+001 52542 86274,86421,86300
 4.1000e+000 86669 -1.1785e+002 -2.5354e+002 -3.9109e+001 52230 86692,86571,86545
 4.1000e+000 86646 -1.1236e+002 -2.3624e+002 -2.1348e+001 52230 86692,86545,86519
 4.1000e+000 86623 -1.5551e+002 -2.4867e+002 -3.8377e+001 52230 86493,86597,86519
 4.1000e+000 86718 -1.2615e+002 -2.5893e+002 -4.8350e+001 52230 86597,86571,86692
 4.1000e+000 86741 -1.3276e+002 -2.4673e+002 -3.1794e+001 52230 86597,86692,86519
 4.1000e+000 87153 -1.5747e+002 -2.5096e+002  8.5332e+000 51640 86980,87058,87032
 4.1000e+000 87130 -1.5786e+002 -2.5820e+002  5.5935e+000 51640 86928,87058,86980
 4.1000e+000 87107 -1.6714e+002 -3.4897e+002 -1.8776e+001 51640 86928,86980,86954
 4.1000e+000 87084 -8.6149e+001 -2.2068e+002 -4.7421e+000 51640 86980,87032,87006
 4.1000e+000 87659 -7.4234e+001 -2.2367e+002  4.9346e+000 51029 87682,87440,87362
 4.1000e+000 87636 -6.3722e+001 -2.3536e+002 -2.2963e+001 51029 87682,87362,87336
 4.1000e+000 87613 -1.0544e+002 -3.2622e+002 -6.8491e+000 51029 87440,87518,87466
 4.1000e+000 87590 -1.1783e+002 -2.2455e+002  8.0654e+000 51029 87362,87440,87414
 4.1000e+000 87567 -9.7933e+001 -1.7245e+002  3.6671e+001 51029 87362,87414,87388
 4.1000e+000 87544 -1.4921e+002 -2.7846e+002  1.2360e+001 51029 87466,87518,87492
 4.1000e+000 87708 -7.3116e+001 -2.4759e+002 -2.1761e+000 51029 87518,87440,87682
 4.1000e+000 87731 -7.0192e+001 -2.8400e+002 -1.9725e+001 51029 87518,87682,87336
 4.1000e+000 87881 -1.4910e+002 -3.1878e+002  7.1839e+000 50739 87780,87832,87806
 4.1000e+000 87858 -1.6886e+002 -3.2117e+002 -1.4214e+001 50739 87754,87832,87780
 4.1000e+000 88468 -8.1902e+001 -2.0791e+002  5.5742e+000 50235 88171,88327,88197
 4.1000e+000 88445 -1.8556e+002 -2.0407e+002 -3.4172e+001 50235 88145,88327,88171
 4.1000e+000 88422  6.4440e-002 -1.1288e+002 -1.3727e-001 50235 88275,88327,88301
 4.1000e+000 88399 -5.9609e+001 -1.3845e+002 -8.5307e-001 50235 88197,88327,88275
 4.1000e+000 88376 -3.6418e+001 -1.9352e+002 -3.6742e+000 50235 88197,88275,88223
 4.1000e+000 88353 -3.7197e+001 -2.5257e+002 -2.7081e+001 50235 88223,88275,88249
 4.1000e+000 88895 -1.4255e+002 -3.3610e+002  7.5593e+000 49873 88918,88728,88676
 4.1000e+000 88872 -1.2187e+002 -3.1185e+002 -5.5548e+000 49873 88918,88676,88624
 4.1000e+000 88849 -9.6410e+001 -2.8480e+002 -1.3272e+001 49873 88598,88754,88624
 4.1000e+000 88826 -7.4037e+001 -2.9300e+002 -6.9739e+000 49873 88624,88676,88650
 4.1000e+000 88803 -1.2433e+002 -4.0728e+002  9.7029e+000 49873 88676,88728,88702
 4.1000e+000 88780 -1.1991e+002 -2.9424e+002 -1.6539e+001 49873 88572,88754,88598
 4.1000e+000 88944 -1.1776e+002 -3.3413e+002 -7.7885e+000 49873 88754,88728,88918
 4.1000e+000 88967 -1.0971e+002 -3.2508e+002 -1.8360e+001 49873 88754,88918,88624
 4.1000e+000 89473 -1.9990e+002 -3.1371e+002 -3.5563e+001 49583 89176,89306,89202
 4.1000e+000 89450 -2.0325e+002 -3.0610e+002 -5.7042e+001 49583 89176,89332,89306
 4.1000e+000 89427 -1.1849e+002 -3.4657e+002  1.6832e+001 49583 89496,89228,89202
 4.1000e+000 89404 -1.1943e+002 -3.5377e+002  1.9726e+001 49583 89496,89202,89280
 4.1000e+000 89381 -2.4775e+002 -4.4164e+002 -7.4883e+001 49583 89202,89306,89280
 4.1000e+000 89358 -1.6035e+002 -3.1204e+002 -6.7028e+001 49583 89150,89332,89176
 4.1000e+000 89522 -1.1279e+002 -2.9801e+002  1.0101e+001 49583 89254,89228,89496
 4.1000e+000 89545 -1.3596e+002 -3.3938e+002  1.9259e+001 49583 89254,89496,89280
 4.1000e+000 89825  2.0843e+001 -3.1124e+002  1.6823e+001 49179 89701,89753,89727
 4.1000e+000 89802 -4.9950e+001 -2.8307e+002  2.3022e+001 49179 89675,89753,89701
 4.1000e+000 89779 -3.6106e+001 -2.4643e+002  1.7630e+001 49179 89848,89753,89675
 4.1000e+000 89874 -1.6475e+002 -2.8674e+002 -1.7127e+001 49179 89649,89753,89848
 4.1000e+000 90223 -1.0680e+002 -3.1534e+002 -3.5758e+001 48739 90024,90102,90076
 4.1000e+000 90200 -1.0526e+002 -2.9791e+002 -1.3290e+001 48739 90024,90128,90102
 4.1000e+000 90177 -7.1935e+000 -3.0832e+002 -3.6992e+001 48739 90024,90076,90050
 4.1000e+000 90154 -4.0093e+001 -2.8689e+002  2.1604e+001 48739 89998,90128,90024
 4.1000e+000 90603 -9.7571e+001 -2.4678e+002  5.3965e+001 48335 90381,90485,90459
 4.1000e+000 90580 -1.2761e+002 -2.9325e+002  4.0567e+001 48335 90355,90485,90381
 4.1000e+000 90557 -5.3093e+001 -1.0747e+002  2.6615e+001 48335 90381,90433,90407
 4.1000e+000 90534 -9.5974e+001 -2.5863e+002  3.9107e+001 48335 90381,90459,90433
 4.1000e+000 90511  3.1189e+001 -2.0543e+002  7.7532e+001 48335 90329,90485,90355
 4.1000e+000 90753 -5.0712e+000 -1.6268e+002  9.6453e+001 47824 90776,90652,90704
 4.1000e+000 90730 -8.3956e+001 -2.8083e+002  4.6806e+001 47824 90626,90704,90652
 4.1000e+000 90802 -3.9917e+001 -2.1192e+002  7.7127e+001 47824 90678,90652,90776
 4.1000e+000 91131 -9.9476e+001 -3.3857e+002  1.4986e+001 47427 91154,90958,90906
 4.1000e+000 91108 -1.7408e+002 -3.6885e+002 -1.8100e+000 47427 91154,90906,91036
 4.1000e+000 91085 -1.7275e+002 -2.9830e+002 -2.6782e+001 47427 90958,91010,90984
 4.1000e+000 91062 -9.9468e+001 -3.1407e+002  1.7842e+001 47427 90906,90958,90932
 4.1000e+000 91180 -1.4349e+002 -3.3824e+002 -3.3738e+001 47427 91010,90958,91154
 4.1000e+000 91203 -2.1589e+002 -3.6972e+002 -5.1890e+001 47427 91010,91154,91036
 4.1000e+000 91583 -1.7998e+002 -3.3182e+002 -1.9107e+001 46873 91309,91439,91335
 4.1000e+000 91560 -1.8789e+002 -3.4018e+002 -1.5821e+001 46873 91309,91465,91439
 4.1000e+000 91537 -2.6454e+002 -3.8457e+002 -9.2942e+001 46873 91361,91439,91413
 4.1000e+000 91514 -2.0096e+002 -3.4556e+002 -4.9558e+001 46873 91335,91439,91361
 4.1000e+000 91491 -9.2500e+001 -3.3240e+002 -8.8310e+001 46873 91361,91413,91387
 4.1000e+000 91880 -1.0900e+002 -3.4035e+002 -7.0384e+000 46526 91606,91710,91658
 4.1000e+000 91857 -1.1459e+002 -3.5581e+002  2.8117e+000 46526 91606,91762,91710
 4.1000e+000 91834 -6.6410e+001 -3.2906e+002 -3.8739e+001 46526 91606,91658,91632
 4.1000e+000 91811 -1.2907e+002 -3.1830e+002  6.2115e+000 46526 91658,91710,91684
 4.1000e+000 91788 -7.6418e+001 -2.4299e+002  1.0891e+001 46526 91710,91762,91736
 4.1000e+000 92211 -6.0391e+001 -1.3764e+002 -9.7343e+000 45700 91986,92064,92038
 4.1000e+000 92188 -7.8468e+001 -2.0821e+002  2.2694e+000 45700 91986,92116,92064
 4.1000e+000 92165 -4.7283e+001 -1.1990e+002 -2.7492e+001 45700 91986,92038,92012
 4.1000e+000 92142 -5.4766e+001 -2.2746e+002  2.6619e+001 45700 92064,92116,92090
 4.1000e+000 92766 -1.5929e+002 -2.9695e+002  1.8445e+001 45452 92446,92602,92576
 4.1000e+000 92743 -2.2393e+002 -2.8433e+002 -2.1481e+001 45452 92420,92602,92446
 4.1000e+000 92720 -1.7684e+002 -3.0636e+002  4.7976e+001 45452 92789,92524,92498
 4.1000e+000 92697 -2.0265e+002 -3.0060e+002  3.9900e+001 45452 92789,92498,92446
 4.1000e+000 92674 -1.7456e+002 -3.2718e+002 -3.3307e+000 45452 92524,92576,92550
 4.1000e+000 92651 -2.6523e+002 -3.0788e+002  1.6420e+002 45452 92446,92498,92472
 4.1000e+000 92628 -1.8168e+002 -4.1877e+002 -1.1224e+002 45452 92394,92602,92420
 4.1000e+000 92815 -1.5876e+002 -3.0973e+002  4.1053e+001 45452 92576,92524,92789
 4.1000e+000 92838 -1.7898e+002 -2.9972e+002  3.6388e+001 45452 92576,92789,92446
 4.1000e+000 92939 -1.2738e+002 -4.0219e+002 -8.3263e+001 44998 92861,92913,92887
 4.1000e+000 93319 -2.4334e+001 -4.0848e+002  7.8230e+001 44601 93123,93201,93149
 4.1000e+000 93296 -1.1205e+002 -4.1778e+002 -4.1724e+001 44601 93045,93201,93123
 4.1000e+000 93273 -8.9764e+001 -2.3995e+002 -5.9316e+001 44601 93045,93123,93071
 4.1000e+000 93250 -8.5297e+001 -2.2140e+002 -3.6600e+001 44601 93071,93123,93097
 4.1000e+000 93227 -5.8604e+000 -2.2898e+002  8.3767e+001 44601 93149,93201,93175
 4.1000e+000 93697 -8.7156e+001 -4.4767e+002  2.4072e+001 44026 93720,93553,93527
 4.1000e+000 93674 -1.5562e+002 -3.7981e+002  3.3103e+001 44026 93720,93527,93449
 4.1000e+000 93651 -1.7099e+002 -3.9235e+002 -5.1038e+000 44026 93449,93527,93501
 4.1000e+000 93628 -1.2652e+002 -3.0538e+002 -6.7085e+001 44026 93423,93579,93449
 4.1000e+000 93605 -3.8078e+001 -3.1126e+002  2.9386e+001 44026 93449,93501,93475
 4.1000e+000 93746 -3.8406e+001 -3.9796e+002  4.3473e+000 44026 93579,93553,93720
 4.1000e+000 93769 -1.1061e+002 -3.3156e+002  1.4313e+001 44026 93579,93720,93449
 4.1000e+000 94066 -8.6238e+001 -3.5173e+002 -4.7136e+001 43579 94089,93818,93792
 4.1000e+000 94043 -1.4396e+002 -3.8673e+002 -3.1203e+001 43579 94161,94089,93792
 4.1000e+000 94020 -1.4105e+002 -3.8822e+002 -1.6449e+001 43579 94161,93792,93948
 4.1000e+000 93997 -1.5328e+002 -3.1491e+002 -1.6844e+001 43579 94233,93870,93818
 4.1000e+000 93974 -8.7690e+001 -3.2694e+002  1.0769e+001 43579 93818,93870,93844
 4.1000e+000 94115 -1.4863e+002 -3.1730e+002 -3.6187e+001 43579 94233,93818,94089
 4.1000e+000 94138 -1.9443e+002 -3.5097e+002 -2.2033e+001 43579 93896,94089,93922
 4.1000e+000 94187 -1.3429e+002 -3.6525e+002 -2.8808e+001 43579 93922,94089,94161
 4.1000e+000 94210 -1.2925e+002 -3.6411e+002 -1.2743e+001 43579 93922,94161,93948
 4.1000e+000 94259 -1.7853e+002 -3.5168e+002 -3.7256e+000 43579 93896,93870,94233
 4.1000e+000 94282 -1.6131e+002 -3.4365e+002 -2.5909e+001 43579 93896,94233,94089
 4.1000e+000 94481 -1.1753e+002 -3.6032e+002 -2.4467e+000 43239 94305,94383,94357
 4.1000e+000 94458 -1.0148e+002 -3.2955e+002  4.0769e+001 43239 94305,94409,94383
 4.1000e+000 94435 -9.0040e+001 -3.8649e+002 -9.2724e+000 43239 94305,94357,94331
 4.1000e+000 94633 -4.4289e+001 -2.3151e+002  5.3837e+001 42827 94656,94532,94506
 4.1000e+000 94610 -9.6762e+001 -2.5537e+002  5.9187e+001 42827 94728,94656,94506
 4.1000e+000 94682 -5.4416e+001 -2.6558e+002  4.6084e+001 42827 94558,94532,94656
 4.1000e+000 94705 -2.3061e+001 -2.6131e+002  2.8751e+001 42827 94988,94860,94656
 4.1000e+000 94754 -5.7953e+001 -2.3763e+002  1.9482e+001 42827 94988,94656,94728
 4.1000e+000 94886  8.7739e+000 -2.4664e+002  3.2333e+001 42827 94558,94656,94860
 4.1000e+000 95014  6.0719e+000 -2.4092e+002  1.9860e+001 42827 94584,94860,94988
 4.1000e+000 95037 -2.3494e+001 -2.1818e+002  1.1251e+001 42827 94584,94988,94728
 4.1000e+000 95236 -5.5868e+001 -2.9411e+002  3.7353e+001 42537 95259,95112,95060
 4.1000e+000 95213 -6.6788e+001 -2.9000e+002  3.5732e+001 42537 95259,95060,95164
 4.1000e+000 95190 -3.0558e+001 -2.9919e+002 -6.1893e+000 42537 95060,95112,95086
 4.1000e+000 95285 -6.3268e+001 -2.9485e+002  3.2395e+001 42537 95138,95112,95259
 4.1000e+000 95308 -7.3775e+001 -2.9284e+002  2.9244e+001 42537 95138,95259,95164
 4.1000e+000 95816 -1.3040e+002 -3.5266e+002 -2.5571e+001 41969 95493,95597,95519
 4.1000e+000 95793 -1.9152e+002 -3.3909e+002  2.7989e+001 41969 95493,95649,95597
 4.1000e+000 95770 -1.4706e+002 -3.2244e+002  2.6763e+001 41969 95493,95675,95649
 4.1000e+000 95747 -1.5554e+002 -4.2749e+002  2.4464e+001 41969 95597,95649,95623
 4.1000e+000 95724 -2.0074e+002 -3.2765e+002 -3.9991e+001 41969 95519,95597,95571
 4.1000e+000 95701 -1.7630e+002 -2.8491e+002 -8.1984e+001 41969 95519,95571,95545
 4.1000e+000 96371 -1.5986e+002 -3.7320e+002  4.5451e+001 41579 96025,96207,96181
 4.1000e+000 96348  4.4684e+001 -2.8100e+002 -1.1927e+001 41579 95999,96207,96025
 4.1000e+000 96325 -1.7923e+002 -2.9217e+002 -3.1224e+001 41579 96129,96181,96155
 4.1000e+000 96302 -6.9598e+001 -2.6499e+002  2.6585e+000 41579 96025,96181,96129
 4.1000e+000 96279 -1.4377e+002 -3.8184e+002  5.0561e+001 41579 96025,96129,96051
 4.1000e+000 96256 -1.7832e+002 -3.8544e+002  6.2880e+001 41579 96051,96103,96077
 4.1000e+000 96233 -6.7402e+001 -2.8825e+002  1.0039e+001 41579 96051,96129,96103
 4.1000e+000 96877 -4.0207e+001 -2.4021e+002 -2.6601e+001 41182 96972,96900,96632
 4.1000e+000 96854 -5.1598e+001 -1.8250e+002 -2.9456e+001 41182 96900,96554,96736
 4.1000e+000 96831 -3.8627e+001 -2.3913e+002 -2.3696e+001 41182 96972,96632,96580
 4.1000e+000 96808 -5.4248e+001 -2.2766e+002  2.2328e+001 41182 96632,96684,96658
 4.1000e+000 96785 -9.1683e+001 -2.4086e+002  3.0251e+001 41182 96684,96736,96710
 4.1000e+000 96762 -1.3638e+002 -3.0203e+002  4.8053e+001 41182 96580,96632,96606
 4.1000e+000 96926 -3.7920e+001 -2.6726e+002 -2.6505e+001 41182 96684,96632,96900
 4.1000e+000 96949 -7.6086e+001 -2.3771e+002 -4.7371e+001 41182 96684,96900,96736
 4.1000e+000 96998 -4.6065e+001 -2.4393e+002 -3.1316e+001 41182 96554,96900,96972
 4.1000e+000 97021 -4.3877e+001 -2.3996e+002 -2.8047e+001 41182 96554,96972,96580
 4.1000e+000 97576 -2.2093e+002 -5.3637e+002 -7.4943e+001 40678 97230,97412,97282
 4.1000e+000 97553 -2.3342e+001 -4.3751e+002  2.3864e+001 40678 97204,97412,97230
 4.1000e+000 97530 -6.7979e+001 -4.1193e+002 -6.4399e+001 40678 97282,97360,97308
 4.1000e+000 97507 -1.0039e+002 -4.1946e+002 -2.7277e+001 40678 97282,97412,97360
 4.1000e+000 97484 -3.4704e+001 -2.5203e+002 -5.6282e+001 40678 97308,97360,97334
 4.1000e+000 97461 -1.2970e+002 -4.9940e+002 -1.4787e+001 40678 97360,97412,97386
 4.1000e+000 97438 -1.2237e+002 -3.2864e+002 -4.5941e+001 40678 97230,97282,97256
 4.1000e+000 97976 -1.6749e+002 -2.8015e+002 -7.6634e+000 40244 97702,97832,97754
 4.1000e+000 97953 -1.4202e+002 -2.6784e+002 -1.5160e+001 40244 97702,97858,97832
 4.1000e+000 97930 -1.7912e+002 -3.2866e+002 -7.1090e+001 40244 97702,97754,97728
 4.1000e+000 97907 -1.4451e+002 -3.1650e+002  3.4928e+001 40244 97780,97832,97806
 4.1000e+000 97884 -1.5575e+002 -2.7262e+002 -3.2776e+000 40244 97754,97832,97780
 4.1000e+000 98482 -9.7431e+001 -2.7006e+002  4.2260e+001 39690 98505,98185,98159
 4.1000e+000 98459 -9.9082e+001 -2.6256e+002  4.1223e+001 39690 98505,98159,98289
 4.1000e+000 98436 -1.8098e+002 -3.8520e+002  1.0306e+002 39690 98159,98315,98289
 4.1000e+000 98413 -7.8522e+001 -2.4446e+002  3.8452e+001 39690 98211,98289,98263
 4.1000e+000 98390 -4.7490e+001 -1.5973e+002  2.3352e+001 39690 98211,98263,98237
 4.1000e+000 98367 -4.9971e+001 -2.5204e+002  4.2472e+001 39690 98159,98341,98315
 4.1000e+000 98531 -1.0012e+002 -2.6585e+002  3.7067e+001 39690 98211,98185,98505
 4.1000e+000 98554 -9.9255e+001 -2.5342e+002  3.7639e+001 39690 98211,98505,98289
 4.1000e+000 99109 -9.0671e+001 -2.3754e+002 -1.4015e+001 39072 99132,98867,98789
 4.1000e+000 99086 -8.7328e+001 -2.4643e+002 -2.1450e+001 39072 99132,98789,98763
 4.1000e+000 99063 -1.3538e+002 -3.9337e+002  4.4398e+001 39072 98867,98945,98919
 4.1000e+000 99040 -7.7716e+001 -2.4992e+002 -3.5633e+000 39072 98789,98867,98841
 4.1000e+000 99017 -1.8095e+002 -2.7588e+002  1.2295e+001 39072 98867,98919,98893
 4.1000e+000 98994 -1.2688e+002 -2.3394e+002  4.8737e+001 39072 98789,98841,98815
 4.1000e+000 98971 -1.2989e+002 -2.8201e+002 -1.8086e+001 39072 98737,98945,98763
 4.1000e+000 99158 -8.7943e+001 -2.4891e+002 -1.5732e+001 39072 98945,98867,99132
 4.1000e+000 99181 -8.7375e+001 -2.6432e+002 -1.8785e+001 39072 98945,99132,98763
 4.1000e+000 99510 -7.7615e+001 -2.2155e+002  1.4337e+001 38668 99311,99389,99363
 4.1000e+000 99487 -6.6099e+001 -2.3107e+002 -6.7419e+000 38668 99285,99389,99311
 4.1000e+000 99464 -1.4740e+002 -3.2109e+002  2.8109e+001 38668 99285,99415,99389
 4.1000e+000 99441 -7.0714e+001 -2.3879e+002  2.3675e+001 38668 99311,99363,99337
 4.1000e+000 99758 -8.8718e+001 -3.5687e+002  5.5199e+001 38164 99781,99611,99585
 4.1000e+000 99735 -3.8100e+001 -3.6627e+002  6.0837e+001 38164 99781,99585,99533
 4.1000e+000 99712 -1.3255e+002 -3.3596e+002  3.8407e+001 38164 99611,99663,99637
 4.1000e+000 99689  1.5420e+001 -3.4702e+002 -2.3206e+001 38164 99533,99585,99559
 4.1000e+000 99807 -1.1757e+002 -3.5547e+002  6.9398e+001 38164 99663,99611,99781
 4.1000e+000 99830 -7.8931e+001 -3.7056e+002  6.7150e+001 38164 99663,99781,99533
 4.1000e+000 100232 -1.1000e+002 -2.7485e+002  4.0797e+000 37702 99984,100114,100088
 4.1000e+000 100209 -8.9732e+001 -3.0043e+002  3.0775e+001 37702 99958,100114,99984
 4.1000e+000 100186 -1.5731e+002 -3.3790e+002 -2.0920e+001 37702 100010,100088,100036
 4.1000e+000 100163 -1.0971e+002 -2.7531e+002 -1.0469e-001 37702 99984,100088,100010
 4.1000e+000 100140 -9.5187e+001 -2.5155e+002 -7.2392e+001 37702 100036,100088,100062
 4.1000e+000 100640 -2.2382e+002 -3.1685e+002  3.8996e+001 37262 100493,100545,100519
 4.1000e+000 100617 -2.0126e+002 -3.5630e+002  1.9781e+001 37262 100441,100545,100493
 4.1000e+000 100594 -8.5645e+001 -2.6713e+002 -4.8156e+001 37262 100415,100545,100441
 4.1000e+000 100571 -2.2315e+002 -3.7491e+002 -1.6179e+001 37262 100441,100493,100467
 4.1000e+000 101146 -1.5466e+002 -2.6325e+002 -1.3572e+000 36872 100823,100979,100849
 4.1000e+000 101123 -1.4968e+002 -2.4325e+002 -2.3759e+001 36872 100823,101005,100979
 4.1000e+000 101100 -1.6198e+002 -3.7824e+002  5.1734e+001 36872 101169,100901,100849
 4.1000e+000 101077 -1.2508e+002 -3.0124e+002  2.7522e+001 36872 101169,100849,100979
 4.1000e+000 101054 -8.7343e+001 -3.1191e+002 -1.9334e+001 36872 100927,100979,100953
 4.1000e+000 101031 -8.8504e+001 -4.2998e+002  7.2316e+001 36872 100849,100901,100875
 4.1000e+000 101195 -1.1154e+002 -4.0082e+002  3.4148e+000 36872 100927,100901,101169
 4.1000e+000 101218 -8.9227e+001 -3.6035e+002 -1.6008e+001 36872 100927,101169,100979
 4.1000e+000 101773 -1.8390e+002 -2.8231e+002  5.0763e+001 36418 101479,101609,101583
 4.1000e+000 101750 -1.8729e+002 -3.0622e+002  5.5221e+001 36418 101453,101609,101479
 4.1000e+000 101727 -1.2574e+002 -2.9970e+002 -2.8677e+000 36418 101796,101531,101479
 4.1000e+000 101704 -1.7337e+002 -3.3252e+002  2.0686e+001 36418 101796,101479,101583
 4.1000e+000 101681 -1.0877e+002 -2.6268e+002 -9.4019e+000 36418 101479,101531,101505
 4.1000e+000 101658 -5.7044e+000 -2.7725e+002  5.8062e-001 36418 101401,101609,101453
 4.1000e+000 101635 -5.5149e+001 -2.9189e+002 -7.7714e+000 36418 101401,101453,101427
 4.1000e+000 101822 -1.3704e+002 -2.7565e+002 -4.7853e+001 36418 101557,101531,101796
 4.1000e+000 101845 -1.9191e+002 -2.8764e+002 -2.6710e+001 36418 101557,101796,101583
 4.1000e+000 102174 -1.8928e+001 -1.4046e+002 -3.5208e+001 35914 101949,102053,101975
 4.1000e+000 102151 -7.3834e+001 -1.3672e+002 -2.7817e+001 35914 101949,102079,102053
 4.1000e+000 102128 -7.1315e+001 -1.6525e+002 -1.6721e+001 35914 101975,102053,102027
 4.1000e+000 102105 -4.5868e+001 -1.2528e+002 -2.7624e+001 35914 101975,102027,102001
 4.1000e+000 102631 -5.9625e+001 -3.0707e+002  1.2564e+001 35574 102383,102513,102487
 4.1000e+000 102608 -4.4125e+001 -3.2418e+002  9.6078e+000 35574 102357,102513,102383
 4.1000e+000 102585 -1.0147e+002 -3.1640e+002  1.2736e+001 35574 102409,102487,102435
 4.1000e+000 102562 -1.0852e+002 -3.2496e+002  8.6813e+000 35574 102383,102487,102409
 4.1000e+000 102539 -1.0056e+002 -3.1588e+002  1.3671e+001 35574 102435,102487,102461
 4.1000e+000 103009 -1.6440e+002 -3.0182e+002 -2.0948e+001 35170 102761,102865,102787
 4.1000e+000 102986 -9.8382e+001 -2.6494e+002  2.8522e+001 35170 102761,102891,102865
 4.1000e+000 102963 -1.4622e+002 -2.9180e+002 -8.2615e+000 35170 102787,102865,102813
 4.1000e+000 102940 -8.0924e+001 -2.5303e+002  3.3970e+001 35170 102735,102891,102761
 4.1000e+000 102917 -1.4654e+002 -2.9599e+002 -1.8065e+001 35170 102813,102865,102839
 4.1000e+000 103257 -2.9724e+001 -2.3247e+002 -4.1868e+001 34659 103280,103058,103032
 4.1000e+000 103234 -4.6923e+001 -2.4660e+002 -2.4742e+001 34659 103280,103032,103162
 4.1000e+000 103211 -8.4280e+001 -2.4814e+002 -2.2609e+001 34659 103084,103162,103110
 4.1000e+000 103188 -1.0998e+002 -3.0255e+002 -1.5379e+001 34659 103110,103162,103136
 4.1000e+000 103306 -5.9558e+001 -2.1504e+002 -3.5963e+001 34659 103084,103058,103280
 4.1000e+000 103329 -7.0938e+001 -2.3018e+002 -1.6690e+001 34659 103084,103280,103162
 4.1000e+000 103837 -3.1501e+001 -3.3686e+002  1.1444e+001 34247 103860,103566,103540
 4.1000e+000 103814 -4.5309e+001 -3.3733e+002  9.7398e-001 34247 103932,103860,103540
 4.1000e+000 103791 -3.2698e+001 -3.7354e+002 -3.6123e+001 34247 103932,103540,103670
 4.1000e+000 103768 -3.7621e+001 -3.1859e+002  5.9158e+000 34247 103566,103618,103592
 4.1000e+000 103745 -1.3780e+002 -3.1415e+002 -4.8082e+001 34247 103540,103696,103670
 4.1000e+000 103722 -1.8192e+002 -3.4846e+002  5.0556e+001 34247 103514,103696,103540
 4.1000e+000 103886 -6.8899e+001 -3.3601e+002 -1.7361e+000 34247 103618,103566,103860
 4.1000e+000 103909 -7.7662e+001 -3.5803e+002  1.0225e+001 34247 103618,103860,103644
 4.1000e+000 103958 -7.8144e+001 -4.2398e+002 -3.8885e+000 34247 103644,103860,103932
 4.1000e+000 103981 -6.5421e+001 -4.5748e+002 -4.2849e+001 34247 103644,103932,103670
 4.1000e+000 104300 -1.6783e+002 -3.5195e+002 -1.2203e+001 33843 104052,104182,104156
 4.1000e+000 104277 -2.1498e+002 -3.3404e+002 -4.8332e+000 33843 104026,104182,104052
 4.1000e+000 104254 -1.6454e+002 -4.0552e+002  6.7268e+000 33843 104078,104156,104130
 4.1000e+000 104231 -1.9212e+002 -3.8053e+002  8.6656e-001 33843 104052,104156,104078
 4.1000e+000 104208 -2.5312e+002 -4.3256e+002  1.1825e+001 33843 104078,104130,104104
 4.1000e+000 104499 -1.1726e+002 -3.6199e+002 -3.1409e+001 33282 104594,104522,104375
 4.1000e+000 104476 -9.9359e+001 -3.4820e+002  1.1105e+001 33282 104522,104323,104427
 4.1000e+000 104453 -7.1676e+001 -3.8850e+002 -2.8035e+001 33282 104594,104375,104349
 4.1000e+000 104548 -1.2227e+002 -3.0999e+002 -1.5408e+001 33282 104401,104375,104522
 4.1000e+000 104571 -8.4190e+001 -3.0564e+002  1.5607e+001 33282 104401,104522,104427
 4.1000e+000 104620 -6.2857e+001 -3.1205e+002 -1.0297e+001 33282 104323,104522,104594
 4.1000e+000 104643 -3.4447e+001 -3.5587e+002 -1.3781e+001 33282 104323,104594,104349
 4.1000e+000 104942 -1.5845e+002 -3.9838e+002  4.7626e+001 32728 104694,104772,104720
 4.1000e+000 104919 -1.2056e+002 -3.6314e+002  1.6717e+001 32728 104694,104824,104772
 4.1000e+000 104896 -2.0436e+002 -3.5972e+002  5.2967e+001 32728 104720,104772,104746
 4.1000e+000 104873 -9.2326e+001 -4.1128e+002  1.9478e+001 32728 104772,104824,104798
 4.1000e+000 104850 -1.0010e+002 -3.5825e+002  1.7155e+001 32728 104668,104824,104694
 4.1000e+000 105373 -1.3531e+002 -3.8770e+002 -1.7625e+001 32274 105396,105102,105076
 4.1000e+000 105350 -1.4646e+002 -4.2342e+002 -6.8115e+000 32274 105396,105076,105206
 4.1000e+000 105327 -1.8142e+002 -4.2776e+002  2.1857e+001 32274 105154,105206,105180
 4.1000e+000 105304 -7.8100e+001 -4.0683e+002 -3.2349e+001 32274 105076,105232,105206
 4.1000e+000 105281 -1.5842e+002 -3.5144e+002 -6.4382e+001 32274 105102,105154,105128
 4.1000e+000 105258 -2.3255e+002 -3.5501e+002 -6.6949e+001 32274 105050,105232,105076
 4.1000e+000 105422 -1.5574e+002 -3.4907e+002 -1.6078e+001 32274 105154,105102,105396
 4.1000e+000 105445 -1.6577e+002 -3.8535e+002 -7.7634e+000 32274 105154,105396,105206
 4.1000e+000 105644 -1.5461e+002 -3.9214e+002 -6.2195e+000 31620 105468,105546,105520
 4.1000e+000 105621 -1.2536e+002 -4.2853e+002 -2.0657e+001 31620 105468,105572,105546
 4.1000e+000 105598 -1.5245e+002 -4.2118e+002  2.3036e+001 31620 105468,105520,105494
 4.1000e+000 105794 -4.3823e+001 -3.4518e+002 -1.0302e+001 31158 105889,105817,105693
 4.1000e+000 105771 -6.5592e+001 -3.1409e+002 -2.2446e+001 31158 105817,105667,105745
 4.1000e+000 105843 -5.4446e+001 -4.1969e+002 -3.2901e+000 31158 105719,105693,105817
 4.1000e+000 105866 -3.0250e+001 -3.6299e+002 -1.8047e+001 31158 105719,105817,105745
 4.1000e+000 105915 -9.5010e+001 -3.6712e+002 -1.0899e+001 31158 105667,105817,105889
 4.1000e+000 106270 -1.5324e+002 -3.4690e+002 -1.4928e+000 30818 106293,106071,106045
 4.1000e+000 106247 -1.7780e+002 -4.0215e+002 -2.1385e+001 30818 106293,106045,106175
 4.1000e+000 106224 -1.2316e+002 -3.1771e+002  2.0529e+001 30818 106123,106175,106149
 4.1000e+000 106201 -1.5906e+002 -3.4887e+002  3.3612e+001 30818 106071,106123,106097
 4.1000e+000 106319 -1.5555e+002 -3.2522e+002  1.8819e+001 30818 106123,106071,106293
 4.1000e+000 106342 -1.5862e+002 -3.5404e+002  2.0546e+000 30818 106123,106293,106175
 4.1000e+000 106492 -1.4210e+002 -3.2253e+002  6.0337e+001 30414 106645,106391,106365
 4.1000e+000 106469 -5.3709e+001 -3.1872e+002  9.2086e+001 30414 106515,106365,106443
 4.1000e+000 106541 -9.2063e+001 -3.3415e+002  6.7807e+001 30414 106645,106365,106515
 4.1000e+000 106671 -7.0842e+001 -3.8009e+002  1.1517e+002 30414 106417,106391,106645
 4.1000e+000 106694  4.3070e+001 -3.5175e+002  9.8826e+001 30414 106417,106645,106515
 4.1000e+000 106942 -7.3566e+001 -4.8541e+002 -2.2051e-001 29910 106965,106795,106769
 4.1000e+000 106919 -6.5379e+001 -4.3568e+002  1.3985e+001 29910 106965,106769,106717
 4.1000e+000 106896 -6.4651e+001 -3.6405e+002 -4.8256e+001 29910 106795,106847,106821
 4.1000e+000 106873 -3.3678e+001 -3.6855e+002  2.4847e+001 29910 106717,106769,106743
 4.1000e+000 106991 -1.0000e+002 -4.3268e+002  6.3394e+000 29910 106847,106795,106965
 4.1000e+000 107014 -8.0685e+001 -3.6662e+002  1.9736e+001 29910 106847,106965,106717
 4.1000e+000 107213 -1.0613e+002 -3.6284e+002  2.2226e+001 29413 107236,107063,107037
 4.1000e+000 107190 -9.6738e+001 -4.2645e+002  4.5756e+001 29413 107236,107037,107141
 4.1000e+000 107167 -1.2900e+002 -2.6532e+002  5.6404e+001 29413 107063,107115,107089
 4.1000e+000 107262 -1.0004e+002 -3.2208e+002  1.6121e+001 29413 107115,107063,107236
 4.1000e+000 107285 -8.1116e+001 -3.6917e+002  4.1959e+001 29413 107115,107236,107141
 4.1000e+000 107486 -4.6657e+001 -3.4832e+002  4.5658e+001 29009 107336,107388,107362
 4.1000e+000 107463 -2.4266e+001 -3.3621e+002  1.3382e+001 29009 107310,107388,107336
 4.1000e+000 107440 -2.9437e+001 -3.1549e+002  1.2932e+001 29009 107310,107414,107388
 4.1000e+000 107736 -1.5171e+002 -3.9965e+002 -1.6047e+001 28491 107537,107615,107563
 4.1000e+000 107713 -1.3136e+002 -3.8977e+002 -1.0422e+001 28491 107537,107641,107615
 4.1000e+000 107690 -8.3710e+001 -3.7898e+002  6.7198e+000 28491 107563,107615,107589
 4.1000e+000 107667 -1.3888e+002 -3.8770e+002 -1.1948e+001 28491 107511,107641,107537
 4.1000e+000 108118 -8.4964e+001 -3.8044e+002  1.5340e+001 27980 108141,107922,107844
 4.1000e+000 108095 -6.7813e+001 -4.1087e+002  1.4590e+001 27980 108141,107844,108000
 4.1000e+000 108072 -8.9743e+001 -3.9858e+002 -2.0948e+001 27980 107844,107922,107870
 4.1000e+000 108049 -9.6640e+001 -3.4155e+002 -1.0645e+001 27980 107870,107922,107896
 4.1000e+000 108026 -1.3419e+002 -3.5517e+002  4.4852e+001 27980 107922,107974,107948
 4.1000e+000 108167 -7.3494e+001 -3.7879e+002  2.0705e+001 27980 107974,107922,108141
 4.1000e+000 108190 -2.6616e+001 -3.8074e+002  2.9118e+001 27980 107974,108141,108000
 4.1000e+000 108745 -4.7183e+001 -2.5118e+002 -5.1272e+000 27376 108840,108768,108477
 4.1000e+000 108722 -8.0235e+001 -3.0929e+002 -5.9533e+001 27376 108768,108373,108581
 4.1000e+000 108699 -7.4831e+001 -2.1802e+002  4.5729e+001 27376 108840,108477,108451
 4.1000e+000 108676 -1.8048e+002 -2.6411e+002 -1.0568e+001 27376 108373,108451,108399
 4.1000e+000 108653 -7.6016e+001 -3.1344e+002  4.1735e+001 27376 108503,108581,108529
 4.1000e+000 108630 -8.4524e+001 -3.0785e+002  4.3462e+001 27376 108529,108581,108555
 4.1000e+000 108607 -2.0426e+002 -2.8406e+002  2.2223e+001 27376 108399,108451,108425
 4.1000e+000 108794 -7.5400e+001 -3.3796e+002  1.8010e+000 27376 108503,108477,108768
 4.1000e+000 108817 -1.8774e+001 -3.0791e+002 -1.0847e+001 27376 108503,108768,108581
 4.1000e+000 108866 -1.5087e+002 -3.1098e+002 -2.9370e+001 27376 108373,108768,108840
 4.1000e+000 108889 -1.4582e+002 -2.6747e+002  2.3962e+001 27376 108373,108840,108451
 4.1000e+000 109186 -1.4886e+002 -3.9134e+002  3.9910e+001 26722 109209,108938,108912
 4.1000e+000 109163 -1.3905e+002 -3.6779e+002  3.7967e+001 26722 109281,109209,108912
 4.1000e+000 109140 -1.3352e+002 -3.5794e+002  3.5639e+001 26722 109281,108912,109042
 4.1000e+000 109117 -1.2502e+002 -4.2173e+002  1.8202e+001 26722 108938,108990,108964
 4.1000e+000 109094 -1.8715e+002 -3.2564e+002  2.3383e+001 26722 108912,109068,109042
 4.1000e+000 109235 -1.2679e+002 -3.7899e+002  3.4821e+001 26722 108990,108938,109209
 4.1000e+000 109258 -1.3433e+002 -4.0837e+002  3.1835e+001 26722 108990,109209,109016
 4.1000e+000 109307 -1.2235e+002 -3.8338e+002  1.9003e+001 26722 109016,109209,109281
 4.1000e+000 109330 -1.1220e+002 -3.6616e+002  1.4566e+001 26722 109016,109281,109042
 4.1000e+000 109732 -1.5888e+002 -3.2214e+002 -6.4509e+000 26310 109458,109588,109484
 4.1000e+000 109709 -1.5350e+002 -3.8198e+002 -4.0536e+001 26310 109458,109614,109588
 4.1000e+000 109686 -2.2473e+002 -3.8049e+002  5.7218e+001 26310 109510,109562,109536
 4.1000e+000 109663 -2.2096e+002 -3.5701e+002  2.2238e+001 26310 109484,109562,109510
 4.1000e+000 109640 -1.6325e+002 -3.2725e+002 -4.7913e-001 26310 109484,109588,109562
 4.1000e+000 110159 -9.7659e+001 -3.2572e+002 -1.0848e+001 25642 110182,109940,109914
 4.1000e+000 110136 -9.0630e+001 -3.8020e+002  4.4082e+001 25642 110182,109914,109888
 4.1000e+000 110113 -1.1978e+002 -4.0607e+002 -5.3453e+001 25642 109966,110018,109992
 4.1000e+000 110090 -1.3215e+002 -3.9161e+002  3.0457e+001 25642 110254,109966,109940
 4.1000e+000 110067 -1.7776e+002 -3.7279e+002  2.1107e+001 25642 109862,110018,109888
 4.1000e+000 110044 -1.6706e+002 -3.1153e+002  5.1431e+001 25642 109836,110018,109862
 4.1000e+000 110208 -1.3143e+002 -3.5694e+002  2.2653e+001 25642 110254,109940,110182
 4.1000e+000 110231 -1.4398e+002 -3.8236e+002  4.9700e+001 25642 110018,110182,109888
 4.1000e+000 110280 -1.1658e+002 -4.3474e+002  2.3882e+001 25642 110018,109966,110254
 4.1000e+000 110303 -1.2308e+002 -4.0878e+002  1.7194e+001 25642 110018,110254,110182
 4.1000e+000 110632 -1.6938e+002 -3.4152e+002 -2.0608e+001 25188 110407,110485,110433
 4.1000e+000 110609 -2.0061e+002 -3.3520e+002 -1.3385e+001 25188 110407,110537,110485
 4.1000e+000 110586 -1.9591e+002 -3.5663e+002 -6.7746e+001 25188 110433,110485,110459
 4.1000e+000 110563 -1.8694e+002 -3.5698e+002  3.7255e+001 25188 110485,110537,110511
 4.1000e+000 110831 -3.3926e+001 -3.2451e+002  8.3498e+000 24726 110854,110707,110655
 4.1000e+000 110808 -1.5320e+001 -3.5097e+002  3.5504e+001 24726 110854,110655,110759
 4.1000e+000 110785 -4.8272e+001 -3.3798e+002  1.6664e+001 24726 110655,110707,110681
 4.1000e+000 110880 -1.9849e+001 -2.9942e+002  1.4042e+001 24726 110733,110707,110854
 4.1000e+000 110903  4.9434e+000 -3.1281e+002  4.3180e+001 24726 110733,110854,110759
 4.1000e+000 111234 -8.8141e+000 -2.3748e+002 -7.0993e+000 24222 111257,111087,111035
 4.1000e+000 111211  3.0722e+001 -2.1950e+002  2.7131e+001 24222 111257,111035,111009
 4.1000e+000 111188 -3.7833e+001 -1.2685e+002 -5.3006e+001 24222 111035,111087,111061
 4.1000e+000 111165 -3.5881e+001 -1.8690e+002  5.9914e+000 24222 111087,111139,111113
 4.1000e+000 111283 -3.3788e+001 -1.9578e+002  1.1263e+001 24222 111139,111087,111257
 4.1000e+000 111306 -1.6552e+001 -1.6594e+002  3.3274e+001 24222 111139,111257,111009
 4.1000e+000 111625 -4.8712e+001 -3.2753e+002 -1.9216e+001 23732 111648,111481,111455
 4.1000e+000 111602 -5.0588e+001 -3.3083e+002 -1.8452e+001 23732 111648,111455,111377
 4.1000e+000 111579  3.8792e+001 -1.7337e+002  3.3923e+001 23732 111377,111429,111403
 4.1000e+000 111556 -2.3827e+001 -3.3439e+002 -7.7829e+000 23732 111377,111455,111429
 4.1000e+000 111533 -4.0168e+001 -2.9864e+002 -6.7916e+000 23732 111351,111507,111377
 4.1000e+000 111674 -5.0780e+001 -3.2230e+002 -1.5430e+001 23732 111507,111481,111648
 4.1000e+000 111697 -5.3680e+001 -3.2883e+002 -1.4678e+001 23732 111507,111648,111377
 4.1000e+000 112156 -9.2731e+001 -3.8970e+002  2.8095e+001 23278 112179,111908,111882
 4.1000e+000 112133 -8.6710e+001 -3.6113e+002  1.5410e+001 23278 112179,111882,112012
 4.1000e+000 112110 -3.1037e+001 -4.2155e+002  1.1545e+000 23278 111908,111960,111934
 4.1000e+000 112087 -3.7059e+001 -3.1652e+002 -4.7986e+000 23278 111882,112038,112012
 4.1000e+000 112064 -7.7800e+001 -3.2605e+002 -5.0340e+000 23278 111960,112012,111986
 4.1000e+000 112205 -8.8547e+001 -3.7599e+002  4.4032e+000 23278 111960,111908,112179
 4.1000e+000 112228 -7.4604e+001 -3.4396e+002 -1.0093e+001 23278 111960,112179,112012
 4.1000e+000 112685 -2.4545e+002 -5.3899e+002 -5.2305e+001 22938 112489,112567,112541
 4.1000e+000 112662 -2.1153e+002 -4.6488e+002 -4.3649e+001 22938 112437,112567,112489
 4.1000e+000 112639 -1.4000e+002 -3.9769e+002 -4.3860e+000 22938 112489,112541,112515
 4.1000e+000 112616 -2.4375e+002 -4.4940e+002 -4.0384e+001 22938 112411,112567,112437
 4.1000e+000 112593 -1.8506e+002 -5.7250e+002 -1.3793e+001 22938 112437,112489,112463
 4.1000e+000 113191 -1.8144e+001 -3.8213e+002 -4.8156e+001 22534 113214,112998,112946
 4.1000e+000 113168 -7.3150e+001 -3.4158e+002 -2.5234e+001 22534 113286,113214,112946
 4.1000e+000 113145 -5.5173e+001 -3.4253e+002 -2.0860e+001 22534 113286,112946,112920
 4.1000e+000 113122 -1.5272e+002 -3.1348e+002 -6.7240e+001 22534 113358,113024,112998
 4.1000e+000 113099 -9.9570e+001 -3.3090e+002 -1.3046e+001 22534 112868,113050,112894
 4.1000e+000 113076 -1.1494e+002 -5.8208e+002 -9.5478e+001 22534 112946,112998,112972
 4.1000e+000 113240 -1.1372e+002 -3.9333e+002 -7.1144e+001 22534 113358,112998,113214
 4.1000e+000 113263 -9.5681e+001 -3.5766e+002 -1.5879e+001 22534 113050,113214,112894
 4.1000e+000 113312 -5.0136e+001 -3.3765e+002 -1.9939e+001 22534 112894,113214,113286
 4.1000e+000 113335 -3.1464e+001 -3.3989e+002 -1.8801e+001 22534 112894,113286,112920
 4.1000e+000 113384 -1.0980e+002 -2.4011e+002 -4.9413e+001 22534 113050,113024,113358
 4.1000e+000 113407 -5.3893e+001 -3.0625e+002 -4.4559e+001 22534 113050,113358,113214
 4.1000e+000 113785 -1.7681e+002 -4.5232e+002  1.0188e+001 21978 113808,113615,113511
 4.1000e+000 113762 -1.4256e+002 -4.5727e+002  3.0384e+001 21978 113808,113511,113667
 4.1000e+000 113739 -1.0982e+002 -3.8821e+002 -1.7129e+001 21978 113511,113615,113537
 4.1000e+000 113716  4.0060e+001 -3.4721e+002 -3.8205e+001 21978 113537,113615,113589
 4.1000e+000 113693 -5.3590e+001 -4.9843e+002  6.3814e+000 21978 113537,113589,113563
 4.1000e+000 113834 -1.8286e+002 -4.5249e+002  5.2953e+001 21978 113641,113615,113808
 4.1000e+000 113857 -9.4329e+001 -4.1827e+002  7.6982e+001 21978 113641,113808,113667
 4.1000e+000 114284 -1.3048e+002 -3.7977e+002  8.5768e+000 21517 114013,114117,114039
 4.1000e+000 114261 -1.4661e+002 -3.7801e+002  2.9453e+001 21517 113961,114117,114013
 4.1000e+000 114238 -1.4302e+002 -3.8463e+002  2.9605e+001 21517 113961,114013,113987
 4.1000e+000 114215 -2.0994e+002 -4.3185e+002 -2.9546e+001 21517 114039,114117,114091
 4.1000e+000 114192 -1.4979e+002 -3.2278e+002  3.5679e+001 21517 113961,114143,114117
 4.1000e+000 114169 -3.0193e+001 -3.7113e+002 -3.4505e+001 21517 114039,114091,114065
 4.1000e+000 114581 -7.4879e+001 -4.4269e+002  6.0280e+000 21027 114359,114463,114437
 4.1000e+000 114558 -3.8296e+001 -4.0046e+002  5.3301e+001 21027 114333,114463,114359
 4.1000e+000 114535 -3.0466e+001 -4.0305e+002 -1.0843e+001 21027 114359,114437,114385
 4.1000e+000 114512 -2.2392e+001 -3.9663e+002  4.4313e+001 21027 114307,114463,114333
 4.1000e+000 114489  6.0759e+001 -3.7644e+002 -1.8158e+001 21027 114385,114437,114411
 4.1000e+000 114912 -1.7508e+002 -3.8959e+002  4.7323e+000 20623 114713,114791,114765
 4.1000e+000 114889 -1.2158e+002 -3.6771e+002 -2.6620e+001 20623 114687,114791,114713
 4.1000e+000 114866 -8.5407e+001 -4.0666e+002 -2.9989e+001 20623 114687,114817,114791
 4.1000e+000 114843 -2.5637e+002 -4.7173e+002  3.9291e+001 20623 114713,114765,114739
 4.1000e+000 115290 -4.8557e+001 -3.4854e+002  1.6980e+001 20375 115313,115146,115094
 4.1000e+000 115267 -7.7979e+001 -3.3317e+002  3.2958e+001 20375 115313,115094,115042
 4.1000e+000 115244 -1.0116e+002 -3.2011e+002  9.3295e+000 20375 115385,115016,115172
 4.1000e+000 115221 -3.3703e+001 -3.1401e+002  2.8767e+001 20375 115042,115094,115068
 4.1000e+000 115198 -7.4381e+001 -4.1795e+002  2.3162e+001 20375 115094,115146,115120
 4.1000e+000 115339 -1.0920e+002 -4.1023e+002 -1.3916e+001 20375 115172,115146,115313
 4.1000e+000 115362 -6.1241e+001 -3.3033e+002  1.1428e+001 20375 115385,115172,115313
 4.1000e+000 115411 -1.2353e+002 -3.3178e+002  1.3547e+001 20375 115042,115016,115385
 4.1000e+000 115434 -1.0419e+002 -3.5563e+002  2.1962e+001 20375 115042,115385,115313
 4.1000e+000 115891 -1.8428e+002 -3.6227e+002  4.5001e+001 19971 115617,115747,115643
 4.1000e+000 115868 -1.5710e+002 -2.9496e+002  4.0882e+001 19971 115617,115773,115747
 4.1000e+000 115845 -1.1444e+002 -5.4067e+002  6.5763e+000 19971 115643,115721,115695
 4.1000e+000 115822 -4.3941e+000 -2.7110e+002 -2.2579e+000 19971 115643,115747,115721
 4.1000e+000 115799 -9.7449e+001 -6.6995e+002 -5.6209e+001 19971 115643,115695,115669
 4.1000e+000 115992 -2.6189e+002 -6.6951e+002 -1.1219e+002 19659 115914,115966,115940
 4.1000e+000 116142 -4.1319e+001 -1.5530e+002  4.1127e+000 18997 116041,116093,116067
 4.1000e+000 116119 -8.2276e+001 -2.6048e+002  1.5137e+001 18997 116015,116093,116041
 4.1000e+000 116343 -6.9705e+001 -4.0629e+002 -1.2066e+001 18707 116193,116245,116219
 4.1000e+000 116320 -1.5678e+002 -4.4360e+002 -1.8511e+001 18707 116193,116271,116245
 4.1000e+000 116297 -1.4091e+002 -3.9450e+002 -2.8559e+001 18707 116167,116271,116193
 4.1000e+000 116747 -6.6994e+001 -3.6887e+002 -6.8812e+000 18301 116525,116629,116551
 4.1000e+000 116724 -3.9442e+001 -3.1317e+002  8.6118e+000 18301 116473,116629,116525
 4.1000e+000 116701 -2.6988e+001 -3.0438e+002 -1.5668e+001 18301 116473,116525,116499
 4.1000e+000 116678 -5.6990e+001 -3.8343e+002 -4.9524e+000 18301 116551,116603,116577
 4.1000e+000 116655 -7.8994e+001 -3.9705e+002 -1.1228e+001 18301 116551,116629,116603
 4.1000e+000 117147 -1.8633e+002 -4.2117e+002 -7.5116e-001 17747 116899,117029,116925
 4.1000e+000 117124 -9.8967e+001 -3.0728e+002  4.3380e+001 17747 116873,117029,116899
 4.1000e+000 117101 -1.8503e+002 -4.1867e+002 -2.2980e-001 17747 116925,117029,116951
 4.1000e+000 117078 -1.6155e+002 -3.6320e+002 -2.5544e+000 17747 116951,117029,117003
 4.1000e+000 117055 -2.1025e+002 -4.7319e+002 -3.0369e+001 17747 116951,117003,116977
 4.1000e+000 117368  2.4761e+001 -4.0662e+002  8.7584e+000 17293 117244,117296,117270
 4.1000e+000 117345 -2.8814e+001 -4.1964e+002 -5.8719e+000 17293 117192,117296,117244
 4.1000e+000 117322 -7.3150e+001 -3.9473e+002 -4.4742e+000 17293 117192,117244,117218
 4.1000e+000 117699 -3.8936e+001 -3.2891e+002 -3.9575e+001 16896 117526,117604,117552
 4.1000e+000 117676 -2.1842e+002 -5.0486e+002  3.1561e+001 16896 117500,117604,117526
 4.1000e+000 117653 -2.3116e+002 -4.0110e+002 -1.9574e+001 16896 117552,117604,117578
 4.1000e+000 117630 -1.9948e+002 -6.5209e+002  5.4755e+001 16896 117474,117604,117500
 4.1000e+000 117849 -4.6784e+002 -8.9438e+002 -3.4172e+001 16534 117722,117774,117748
 4.1000e+000 117826 -3.7019e+002 -1.0899e+003 -1.4642e+002 16534 117722,117800,117774
 4.1000e+000 118070 -3.9010e+000 -4.1785e+002  5.2828e+001 16194 117946,117998,117972
 4.1000e+000 118047 -6.9782e+001 -4.7110e+002  2.1392e+001 16194 117894,117998,117946
 4.1000e+000 118024 -2.4115e+002 -4.8214e+002 -6.0284e-001 16194 117894,117946,117920
 4.1000e+000 118173 -3.6290e+001 -3.9726e+002  0.0000e+000 15968 118095,118147,118121
 4.1000e+000 118276 -1.2211e+002 -4.3279e+002  1.9449e+000 15433 118299,118198,118250
 4.1000e+000 118325 -1.2366e+002 -4.3641e+002  1.9807e+000 15433 118224,118198,118299
 4.1000e+000 118450 -2.0608e+002 -4.5913e+002  4.4759e+001 421 118372,118424,118398
 4.2000e+000 69891 -9.0770e+001 -4.6876e+002  1.6980e+001 68988 69447,69681,69629
 4.2000e+000 69868  2.4619e+001 -4.1961e+002  1.2612e+001 68988 69421,69681,69447
 4.2000e+000 69845 -1.0369e+001 -2.3946e+002  9.4443e-001 68988 69447,69629,69577
 4.2000e+000 69822 -1.4254e+002 -4.8785e+002 -5.2864e+001 68988 69447,69577,69473
 4.2000e+000 69799 -2.7917e+001 -5.6003e+002  9.2451e+001 68988 69629,69681,69655
 4.2000e+000 69776 -1.5454e+002 -3.0218e+002  8.6122e+000 68988 69577,69629,69603
 4.2000e+000 69753 -1.1469e+002 -4.3755e+002 -6.5150e+001 68988 69473,69577,69551
 4.2000e+000 69730 -1.6238e+002 -8.5374e+002 -8.3901e+001 68988 69473,69551,69525
 4.2000e+000 69707 -2.6542e+002 -5.7114e+002  9.8686e-001 68988 69473,69525,69499
 4.2000e+000 69992 -2.7778e+002 -5.1322e+002 -6.9001e+001 68676 69914,69966,69940
 4.2000e+000 70392 -2.0333e+002 -4.1622e+002  3.0811e+001 68478 70118,70248,70144
 4.2000e+000 70369  1.3791e+000 -4.2098e+002  8.8595e+001 68478 70118,70274,70248
 4.2000e+000 70346 -1.2530e+002 -3.1864e+002 -1.6037e+000 68478 70144,70222,70196
 4.2000e+000 70323 -1.0569e+002 -2.6764e+002 -1.4051e+001 68478 70144,70248,70222
 4.2000e+000 70300 -1.3511e+002 -3.4808e+002 -6.5732e+000 68478 70144,70196,70170
 4.2000e+000 70841  4.9868e+001 -2.9363e+002 -7.4839e+001 68280 70570,70622,70596
 4.2000e+000 70818 -1.4974e+002 -3.3365e+002 -1.8337e+001 68280 70544,70622,70570
 4.2000e+000 70795 -1.1264e+002 -2.4999e+002 -1.1077e+001 68280 70544,70674,70622
 4.2000e+000 70772 -9.7262e+001 -2.2401e+002  3.5819e+000 68280 70622,70674,70648
 4.2000e+000 70749 -1.5893e+002 -3.7201e+002  2.7183e+001 68280 70518,70674,70544
 4.2000e+000 70726  1.1053e+002 -3.8650e+002  1.0571e+002 68280 70518,70700,70674
 4.2000e+000 70991 -1.7608e+001 -1.5064e+003  4.5126e+001 67968 70864,70916,70890
 4.2000e+000 70968 -4.0236e+002 -1.4939e+003  1.7552e+002 67968 70864,70942,70916
 4.2000e+000 71141 -6.9517e+002 -1.3139e+003 -6.6402e+001 67770 71040,71092,71066
 4.2000e+000 71118 -6.0498e+002 -1.5857e+003  6.8701e+001 67770 71014,71092,71040
 4.2000e+000 71651 -1.0365e+002 -2.9815e+002 -4.6392e+001 67366 71746,71674,71458
 4.2000e+000 71628 -7.0383e+001 -2.4443e+002 -4.8827e+001 67366 71674,71354,71510
 4.2000e+000 71605 -9.3186e+001 -3.2963e+002 -4.3168e+001 67366 71746,71458,71432
 4.2000e+000 71582 -1.4380e+002 -3.3901e+002  1.7010e+001 67366 71354,71432,71380
 4.2000e+000 71559 -1.5351e+002 -2.5094e+002 -2.5260e+001 67366 71380,71432,71406
 4.2000e+000 71536 -7.2875e+001 -1.0850e+002 -1.8053e+000 67366 71328,71510,71354
 4.2000e+000 71700 -1.1294e+002 -2.6964e+002 -2.1404e+001 67366 71484,71458,71674
 4.2000e+000 71723 -8.0654e+001 -2.5461e+002 -1.6285e+001 67366 71484,71674,71510
 4.2000e+000 71772 -9.1183e+001 -2.6083e+002 -3.9955e+001 67366 71354,71674,71746
 4.2000e+000 71795 -7.9521e+001 -2.8871e+002 -4.0544e+001 67366 71354,71746,71432
 4.2000e+000 71896 -2.6488e+002 -5.6466e+002  0.0000e+000 67146 71818,71870,71844
 4.2000e+000 71997 -3.5150e+002 -4.9167e+002  9.8565e+001 66948 71919,71971,71945
 4.2000e+000 72149 -2.8696e+001 -3.5861e+002 -3.9063e+001 66700 72172,72074,72048
 4.2000e+000 72126 -1.3084e+002 -4.0005e+002 -1.4923e+001 66700 72172,72048,72022
 4.2000e+000 72198 -2.0118e+002 -4.4045e+002  2.9079e+001 66700 72244,72172,72100
 4.2000e+000 72221 -1.8312e+002 -4.0436e+002 -2.3608e+001 66700 72100,72172,72022
 4.2000e+000 72270 -1.1045e+002 -2.4217e+002 -2.6126e+001 66700 72074,72172,72244
 4.2000e+000 72623 -1.4209e+002 -3.7388e+002  9.0749e+000 66502 72424,72502,72450
 4.2000e+000 72600 -1.2180e+002 -3.1813e+002  5.7279e+000 66502 72398,72502,72424
 4.2000e+000 72577 -9.5031e+001 -3.5759e+002 -5.9818e+000 66502 72398,72528,72502
 4.2000e+000 72554 -1.4328e+002 -3.3553e+002 -2.1026e+000 66502 72450,72502,72476
 4.2000e+000 72920 -2.2109e+002 -4.5157e+002  1.1378e+001 65941 72672,72776,72750
 4.2000e+000 72897 -2.2278e+002 -3.9187e+002  4.1977e+001 65941 72646,72776,72672
 4.2000e+000 72874 -1.9395e+002 -4.4345e+002  1.4175e+001 65941 72672,72750,72724
 4.2000e+000 72851 -1.9564e+002 -3.5359e+002  3.2203e+001 65941 72672,72724,72698
 4.2000e+000 72828 -1.7341e+002 -4.0142e+002  4.2607e+001 65941 72646,72802,72776
 4.2000e+000 73241 -6.4376e+001 -3.2560e+002  1.9011e+001 65743 73264,73071,73045
 4.2000e+000 73218 -1.4174e+002 -3.6283e+002  3.0093e+001 65743 73480,73264,73045
 4.2000e+000 73195 -1.1963e+002 -3.2915e+002 -4.3477e+000 65743 73336,72967,73097
 4.2000e+000 73172 -1.9617e+002 -3.0302e+002 -3.1984e+001 65743 73408,72993,72967
 4.2000e+000 73149 -1.1068e+002 -3.2915e+002 -4.3714e+000 65743 72967,73123,73097
 4.2000e+000 73290 -9.2791e+001 -3.3807e+002  4.1063e+000 65743 73097,73071,73264
 4.2000e+000 73313 -1.0527e+002 -3.1490e+002  1.1583e+001 65743 73336,73097,73264
 4.2000e+000 73362 -1.7102e+002 -3.3790e+002 -2.1620e+001 65743 73408,72967,73336
 4.2000e+000 73385 -8.8487e+001 -3.1033e+002 -2.0893e+000 65743 73019,73336,73264
 4.2000e+000 73434 -1.5436e+002 -2.4228e+002  1.6541e+001 65743 73019,72993,73408
 4.2000e+000 73457 -9.3333e+001 -2.8639e+002  1.0795e+001 65743 73019,73408,73336
 4.2000e+000 73506 -6.6764e+001 -2.3298e+002 -3.6766e-001 65743 73019,73264,73480
 4.2000e+000 73989 -1.9597e+001 -2.6375e+002  3.0631e+001 65453 73793,73845,73819
 4.2000e+000 73966 -1.4193e+002 -2.9586e+002  3.5561e+001 65453 73741,73845,73793
 4.2000e+000 73943 -3.9442e+001 -2.3865e+002  1.3031e+001 65453 73715,73845,73741
 4.2000e+000 73920 -1.1329e+002 -3.1310e+002  5.8936e+001 65453 73741,73793,73767
 4.2000e+000 73897  4.6953e-001 -1.5790e+002  6.0298e-004 65453 73715,73871,73845
 4.2000e+000 74357 -8.3061e+001 -3.2272e+002 -8.3465e+001 65141 74380,74138,74086
 4.2000e+000 74334 -1.4521e+002 -4.2470e+002 -5.5687e+001 65141 74380,74086,74060
 4.2000e+000 74311 -1.6667e+002 -4.1602e+002 -1.3773e+001 65141 74138,74190,74164
 4.2000e+000 74288 -1.2439e+002 -4.6117e+002 -1.7817e+001 65141 74060,74216,74190
 4.2000e+000 74265 -1.3070e+002 -4.8335e+002  7.6062e+000 65141 74034,74216,74060
 4.2000e+000 74242 -1.0829e+002 -2.6641e+002 -5.7667e+001 65141 74086,74138,74112
 4.2000e+000 74406 -1.2230e+002 -4.1385e+002 -3.4037e+001 65141 74190,74138,74380
 4.2000e+000 74429 -1.4130e+002 -4.4877e+002 -1.5730e+001 65141 74190,74380,74060
 4.2000e+000 74937 -1.6855e+002 -3.3250e+002 -8.0117e+001 64737 74614,74666,74640
 4.2000e+000 74914 -2.0492e+002 -4.0539e+002 -5.9113e+001 64737 74614,74796,74666
 4.2000e+000 74891 -1.5208e+002 -2.8869e+002 -1.0849e+001 64737 74960,74718,74666
 4.2000e+000 74868 -1.3539e+002 -3.1560e+002 -3.6409e+001 64737 74960,74666,74770
 4.2000e+000 74845 -1.3798e+002 -2.5630e+002 -3.8327e+001 64737 74666,74796,74770
 4.2000e+000 74822 -1.5047e+002 -3.1365e+002  4.7506e+000 64737 74666,74718,74692
 4.2000e+000 74986 -1.6205e+002 -3.1626e+002 -1.1039e+001 64737 74744,74718,74960
 4.2000e+000 75009 -1.5284e+002 -3.5702e+002 -3.7365e+001 64737 74744,74960,74770
 4.2000e+000 75306 -7.8525e+001 -2.9479e+002  4.2215e+001 64133 75329,75110,75084
 4.2000e+000 75283 -1.0135e+002 -3.4844e+002  1.1663e+001 64133 75401,75329,75084
 4.2000e+000 75260 -9.8075e+001 -3.5685e+002  1.4708e+001 64133 75401,75084,75058
 4.2000e+000 75237 -1.0029e+002 -4.1395e+002  5.0780e+001 64133 75473,75136,75110
 4.2000e+000 75214 -1.0266e+002 -3.2700e+002  3.5936e+000 64133 75032,75188,75162
 4.2000e+000 75355 -1.1661e+002 -3.8454e+002  3.9033e+001 64133 75473,75110,75329
 4.2000e+000 75378 -8.9055e+001 -3.3327e+002  2.9915e+000 64133 75162,75329,75032
 4.2000e+000 75427 -8.4311e+001 -3.2154e+002  1.2384e+000 64133 75032,75329,75401
 4.2000e+000 75450 -1.5800e+002 -3.9424e+002  3.9242e+001 64133 75545,75401,75058
 4.2000e+000 75499 -8.9345e+001 -3.7668e+002  1.5286e+001 64133 75162,75136,75473
 4.2000e+000 75522 -1.0268e+002 -3.2659e+002  1.2806e+001 64133 75162,75473,75329
 4.2000e+000 75571 -8.1247e+001 -2.2632e+002  1.0056e+001 64133 75032,75401,75545
 4.2000e+000 75851 -1.3702e+002 -3.2116e+002  7.0181e+000 63843 75874,75753,75727
 4.2000e+000 75828 -1.1988e+002 -3.1907e+002 -1.6786e+001 63843 75946,75874,75727
 4.2000e+000 75805 -1.3404e+002 -3.3877e+002 -7.9762e+000 63843 76018,75946,75727
 4.2000e+000 75900 -1.0568e+002 -3.0787e+002 -7.9767e+000 63843 75779,75753,75874
 4.2000e+000 75923 -1.1263e+002 -2.6626e+002 -3.5317e+001 63843 75779,75874,75675
 4.2000e+000 75972 -1.3424e+002 -3.0152e+002 -1.3242e+001 63843 75675,75874,75946
 4.2000e+000 75995 -1.2282e+002 -3.1532e+002 -2.2750e+001 63843 75675,75946,75701
 4.2000e+000 76044 -1.3564e+002 -3.2765e+002 -2.9082e+001 63843 75701,75946,76018
 4.2000e+000 76454  2.2480e+001 -6.6087e+001 -3.7569e+001 63439 76477,76255,76229
 4.2000e+000 76431 -2.9963e+001 -1.5623e+002 -3.8865e+000 63439 76477,76229,76359
 4.2000e+000 76408 -4.4637e+001 -1.1861e+002  6.6834e+001 63439 76307,76359,76333
 4.2000e+000 76385 -2.7306e+001 -1.5737e+002  1.1140e+001 63439 76255,76307,76281
 4.2000e+000 76503 -3.0236e+001 -1.3673e+002  1.6381e+001 63439 76307,76255,76477
 4.2000e+000 76526 -2.8871e+001 -1.7248e+002  4.0611e+001 63439 76307,76477,76359
 4.2000e+000 76926 -7.2089e+001 -2.2677e+002 -4.1224e+000 63049 76704,76782,76756
 4.2000e+000 76903 -1.0642e+002 -2.3680e+002 -2.1532e+001 63049 76704,76808,76782
 4.2000e+000 76880 -7.5874e+001 -2.5950e+002  3.2587e+000 63049 76704,76756,76730
 4.2000e+000 76857 -6.2625e+001 -1.5645e+002  1.0147e+001 63049 76678,76808,76704
 4.2000e+000 76834 -2.9546e+001 -3.6937e+001 -3.5282e+001 63049 76652,76808,76678
 4.2000e+000 77076 -3.3206e+001 -3.7530e+002 -2.3836e+000 62737 76975,77027,77001
 4.2000e+000 77053 -3.1364e+001 -4.2141e+002 -2.6885e+001 62737 76949,77027,76975
 4.2000e+000 77324 -1.6008e+002 -3.6801e+002 -5.5855e+000 62277 77347,77177,77125
 4.2000e+000 77301 -1.5812e+002 -3.5664e+002 -2.2353e+001 62277 77347,77125,77229
 4.2000e+000 77278 -1.5201e+002 -3.7000e+002 -3.1020e+001 62277 77099,77229,77125
 4.2000e+000 77255 -1.6675e+002 -4.4163e+002  2.3037e+000 62277 77125,77177,77151
 4.2000e+000 77373 -1.6920e+002 -4.0107e+002  7.3225e+000 62277 77203,77177,77347
 4.2000e+000 77396 -1.4774e+002 -3.7172e+002 -1.2726e+001 62277 77203,77347,77229
 4.2000e+000 77857 -8.3715e+001 -4.6559e+002  4.7282e+000 61758 77635,77739,77661
 4.2000e+000 77834 -1.2458e+002 -4.4877e+002 -1.7547e+001 61758 77583,77739,77635
 4.2000e+000 77811 -1.4464e+002 -5.6647e+002 -5.5184e+001 61758 77583,77635,77609
 4.2000e+000 77788 -1.1627e+002 -4.4033e+002  3.4360e+001 61758 77661,77713,77687
 4.2000e+000 77765 -1.2179e+002 -5.0984e+002  3.3656e+001 61758 77661,77739,77713
 4.2000e+000 78491 -1.2871e+002 -2.5500e+002  1.5377e+001 61418 78171,78301,78249
 4.2000e+000 78468 -1.0615e+002 -2.1514e+002  3.1115e+001 61418 78145,78301,78171
 4.2000e+000 78445 -9.6940e+001 -2.2600e+002 -1.1156e+001 61418 78171,78249,78223
 4.2000e+000 78422 -1.0427e+002 -2.1382e+002  1.2284e+001 61418 78145,78327,78301
 4.2000e+000 78399 -1.3281e+002 -2.8091e+002  1.7986e+000 61418 78249,78301,78275
 4.2000e+000 78376 -5.8152e+001 -2.4277e+002 -1.7722e+001 61418 78171,78223,78197
 4.2000e+000 78353 -1.2219e+002 -2.8476e+002 -6.2667e+000 61418 78119,78327,78145
 4.2000e+000 78690 -1.2867e+002 -3.0011e+002 -3.1665e+000 61014 78713,78566,78540
 4.2000e+000 78667 -8.8259e+001 -3.0626e+002  2.0010e-001 61014 78713,78540,78618
 4.2000e+000 78644 -1.4822e+002 -3.4688e+002 -3.2823e+001 61014 78514,78618,78540
 4.2000e+000 78739 -6.8476e+001 -2.9390e+002  2.9916e+001 61014 78592,78566,78713
 4.2000e+000 78762 -8.4835e+001 -3.2341e+002  1.3732e+000 61014 78785,78713,78618
 4.2000e+000 78811 -2.6507e+001 -3.0085e+002 -5.6300e+000 61014 78592,78713,78785
 4.2000e+000 79398 -6.0100e+001 -2.6378e+002 -2.6460e+001 60624 79101,79179,79153
 4.2000e+000 79375 -8.0381e+001 -2.9713e+002 -1.2291e+001 60624 79101,79231,79179
 4.2000e+000 79352 -6.2293e+001 -2.9632e+002 -2.1240e+001 60624 79075,79231,79101
 4.2000e+000 79329 -1.9488e+001 -3.5684e+002  4.0819e+001 60624 79075,79257,79231
 4.2000e+000 79306 -5.7272e+001 -2.1712e+002 -4.4869e+001 60624 79179,79231,79205
 4.2000e+000 79283 -4.8620e+001 -2.3855e+002 -1.6387e+001 60624 79101,79153,79127
 4.2000e+000 79776 -1.5619e+002 -4.0239e+002  3.6598e+001 60070 79528,79658,79606
 4.2000e+000 79753 -1.3757e+002 -3.1119e+002  9.6237e-001 60070 79502,79658,79528
 4.2000e+000 79730 -1.8739e+002 -3.8718e+002  5.3327e+001 60070 79528,79606,79580
 4.2000e+000 79707 -5.6647e+001 -3.3662e+002  5.6376e+000 60070 79606,79658,79632
 4.2000e+000 79684 -1.7168e+001 -2.3708e+002 -6.2539e+001 60070 79528,79580,79554
 4.2000e+000 80105 -1.0669e+002 -3.0464e+002  4.0398e+001 59758 80128,79958,79906
 4.2000e+000 80082 -1.1505e+002 -2.9144e+002  3.3199e+001 59758 80128,79906,80010
 4.2000e+000 80059 -1.5182e+002 -3.2214e+002  1.0687e+002 59758 79906,79958,79932
 4.2000e+000 80036 -1.7027e+002 -3.4260e+002  1.0701e+001 59758 79880,80010,79906
 4.2000e+000 80154 -1.1140e+002 -3.1284e+002  3.8492e+001 59758 79984,79958,80128
 4.2000e+000 80177 -1.2090e+002 -3.0266e+002  3.0983e+001 59758 79984,80128,80010
 4.2000e+000 80376 -8.2156e+001 -2.8983e+002  6.3461e+000 59312 80226,80304,80252
 4.2000e+000 80353 -8.4917e+001 -2.9781e+002  4.8256e+000 59312 80200,80304,80226
 4.2000e+000 80330 -1.2672e+002 -2.6402e+002  7.7678e+001 59312 80252,80304,80278
 4.2000e+000 80805 -1.1131e+002 -2.5523e+002 -3.9303e+001 58908 80900,80828,80638
 4.2000e+000 80782 -9.5845e+001 -3.0036e+002 -5.8990e+001 58908 80828,80560,80508
 4.2000e+000 80759 -1.1609e+002 -2.4057e+002 -1.5050e+001 58908 80900,80638,80612
 4.2000e+000 80736 -5.0954e+001 -2.5961e+002  1.0284e+002 58908 80482,80664,80508
 4.2000e+000 80713 -7.6486e+001 -2.2341e+002 -8.3523e+000 58908 80560,80612,80586
 4.2000e+000 80690 -1.0781e+002 -7.2924e+002 -1.3981e+002 58908 80508,80560,80534
 4.2000e+000 80854 -5.4180e+001 -2.7604e+002  2.5345e-001 58908 80664,80638,80828
 4.2000e+000 80877 -9.0037e+001 -3.9437e+002  5.9474e+000 58908 80664,80828,80508
 4.2000e+000 80926 -9.5844e+001 -2.1141e+002 -4.1997e+001 58908 80560,80828,80900
 4.2000e+000 80949 -1.0667e+002 -2.1145e+002 -1.4391e+001 58908 80560,80900,80612
 4.2000e+000 81246 -4.8403e+001 -2.4235e+002 -6.8318e+000 58482 81076,81128,81102
 4.2000e+000 81223 -1.1534e+002 -4.1613e+002 -4.1768e+001 58482 80972,81128,81076
 4.2000e+000 81200 -7.4636e+001 -2.8416e+002 -4.5035e+001 58482 80972,81076,81050
 4.2000e+000 81177 -1.5950e+002 -4.2984e+002 -1.1812e+001 58482 80998,81050,81024
 4.2000e+000 81154 -8.9065e+001 -3.5576e+002 -4.1386e+001 58482 80972,81050,80998
 4.2000e+000 81754 -1.2466e+002 -2.5618e+002  1.9836e+001 57828 81457,81613,81483
 4.2000e+000 81731 -1.3969e+002 -2.8356e+002  9.7967e+000 57828 81431,81613,81457
 4.2000e+000 81708 -1.3515e+002 -2.8068e+002  2.1023e+001 57828 81483,81613,81509
 4.2000e+000 81685 -1.5922e+002 -3.1738e+002  3.1669e+001 57828 81509,81613,81587
 4.2000e+000 81662 -1.6628e+002 -4.6733e+002  6.5539e+001 57828 81509,81587,81535
 4.2000e+000 81639 -9.6143e+001 -4.4151e+002  4.1343e+001 57828 81535,81587,81561
 4.2000e+000 82002 -1.9103e+002 -4.5631e+002 -1.8476e+000 57374 82025,81855,81829
 4.2000e+000 81979 -2.0397e+002 -4.3145e+002  1.8935e+001 57374 82025,81829,81907
 4.2000e+000 81956 -2.0994e+002 -4.0721e+002  1.1997e+001 57374 81803,81907,81829
 4.2000e+000 81933 -1.2431e+002 -3.7413e+002  1.7527e+001 57374 81777,81907,81803
 4.2000e+000 82051 -1.8440e+002 -4.2657e+002 -5.6579e+000 57374 81881,81855,82025
 4.2000e+000 82074 -1.9645e+002 -4.0693e+002  2.1607e+001 57374 81881,82025,81907
 4.2000e+000 82356 -1.0763e+002 -2.5412e+002 -1.8148e+001 56913 82180,82232,82206
 4.2000e+000 82333 -9.3944e+001 -2.4391e+002  2.3710e+001 56913 82180,82284,82232
 4.2000e+000 82310 -3.2783e+001 -2.0196e+002  4.6371e+001 56913 82379,82232,82284
 4.2000e+000 82405  3.0280e+001 -1.9405e+002  8.6544e+000 56913 82258,82232,82379
 4.2000e+000 82764 -1.0717e+002 -1.7170e+002 -1.7130e+001 56523 82614,82666,82640
 4.2000e+000 82741 -9.0936e+001 -1.7220e+002 -2.5706e+001 56523 82614,82692,82666
 4.2000e+000 82718 -7.7901e+001 -1.8497e+002 -5.3388e+001 56523 82588,82692,82614
 4.2000e+000 83368 -2.4774e+001 -3.0338e+002 -1.4748e+001 55969 82973,83155,83129
 4.2000e+000 83345  3.9172e+000 -2.9212e+002 -2.1812e+001 55969 82973,83181,83155
 4.2000e+000 83322 -8.0372e+001 -2.6592e+002 -1.2802e+001 55969 82973,83129,82999
 4.2000e+000 83299 -1.2671e+002 -2.7268e+002  5.3359e+000 55969 83391,83025,82999
 4.2000e+000 83276 -1.1030e+002 -2.8274e+002 -3.2187e-001 55969 83391,82999,83129
 4.2000e+000 83253 -2.4979e+001 -2.3917e+002  5.0423e+001 55969 83077,83129,83103
 4.2000e+000 83230 -1.3715e+002 -2.2406e+002 -1.0171e+001 55969 83025,83077,83051
 4.2000e+000 83207 -1.9715e+000 -2.8049e+002  2.8195e+001 55969 82947,83181,82973
 4.2000e+000 83417 -1.1127e+002 -2.6247e+002  1.1554e+001 55969 83077,83025,83391
 4.2000e+000 83440 -1.0582e+002 -2.7660e+002  3.1371e+000 55969 83077,83391,83129
 4.2000e+000 83946 -2.0265e+002 -4.5467e+002  6.9935e+001 55771 83969,83779,83727
 4.2000e+000 83923 -1.5984e+002 -3.6741e+002  4.5395e+001 55771 83969,83727,83623
 4.2000e+000 83900 -1.9844e+002 -1.9775e+002  2.7658e+001 55771 83623,83727,83649
 4.2000e+000 83877 -1.6188e+002 -7.9647e+002  2.8569e+001 55771 83727,83779,83753
 4.2000e+000 83854 -3.3796e+002 -3.0187e+002  1.2767e+002 55771 83675,83727,83701
 4.2000e+000 83831 -3.0929e+002 -3.1062e+002  1.2220e+002 55771 83649,83727,83675
 4.2000e+000 83995 -1.9225e+002 -4.7443e+002 -4.1321e+001 55771 83805,83779,83969
 4.2000e+000 84018 -1.0358e+002 -2.9975e+002 -7.4833e+001 55771 83805,83969,83623
 4.2000e+000 84168 -9.2166e+001 -2.2727e+002 -7.5940e+000 55367 84191,84067,84041
 4.2000e+000 84145 -9.0409e+001 -2.5784e+002 -5.1265e+000 55367 84191,84041,84119
 4.2000e+000 84217 -9.8327e+001 -2.0952e+002 -6.9974e+000 55367 84093,84067,84191
 4.2000e+000 84240 -8.6697e+001 -2.2717e+002  4.0981e+000 55367 84093,84191,84119
 4.2000e+000 84571 -4.9987e+001 -3.5665e+002 -3.5760e+001 54913 84398,84450,84424
 4.2000e+000 84548 -4.0318e+001 -3.2686e+002 -1.8172e+001 54913 84372,84450,84398
 4.2000e+000 84525 -8.7023e+001 -3.6720e+002  1.3093e+001 54913 84346,84450,84372
 4.2000e+000 84502 -3.0229e+001 -2.3728e+002 -2.9946e+001 54913 84346,84476,84450
 4.2000e+000 85126 -1.8218e+002 -3.9209e+002 -1.2939e+001 54402 84858,84936,84910
 4.2000e+000 85103 -1.4451e+002 -3.1600e+002 -3.7239e+001 54402 84806,84936,84858
 4.2000e+000 85080 -1.6881e+002 -2.8534e+002 -2.7579e+001 54402 84780,84936,84806
 4.2000e+000 85057 -1.4245e+002 -3.5083e+002 -1.5701e+001 54402 84806,84858,84832
 4.2000e+000 85034 -1.5134e+002 -2.6883e+002  1.3366e+001 54402 84780,84962,84936
 4.2000e+000 85011 -2.1327e+002 -2.3601e+002 -4.1273e+000 54402 84858,84910,84884
 4.2000e+000 84988 -1.4682e+002 -2.6501e+002  1.6642e+001 54402 84754,84962,84780
 4.2000e+000 85396 -1.4195e+002 -1.7287e+002 -1.1543e+001 53998 85197,85249,85223
 4.2000e+000 85373 -1.1067e+002 -2.1885e+002 -2.3065e+000 53998 85197,85275,85249
 4.2000e+000 85350 -1.3980e+002 -2.5714e+002 -1.5499e+001 53998 85171,85275,85197
 4.2000e+000 85327 -6.8339e+001 -2.3968e+002 -1.9212e+001 53998 85171,85301,85275
 4.2000e+000 85749 -8.2569e+001 -2.8406e+002 -6.4052e+000 53636 85524,85628,85550
 4.2000e+000 85726 -1.2912e+002 -3.1334e+002  9.3602e+000 53636 85524,85654,85628
 4.2000e+000 85703 -4.8995e+001 -3.0532e+002 -2.9412e+001 53636 85550,85602,85576
 4.2000e+000 85680 -8.0089e+001 -2.8089e+002 -1.4718e+001 53636 85550,85628,85602
 4.2000e+000 86127 -3.5039e+001 -2.8685e+002  4.3344e+001 52982 86150,85957,85879
 4.2000e+000 86104 -9.9682e+001 -3.3241e+002  2.3479e+001 52982 86150,85879,85853
 4.2000e+000 86081 -2.9138e+001 -4.0950e+002  8.1240e+001 52982 85957,86009,85983
 4.2000e+000 86058 -1.2097e+002 -3.0785e+002  3.6197e+001 52982 85879,85957,85931
 4.2000e+000 86035 -7.6678e+001 -2.8972e+002 -1.1640e+001 52982 85879,85931,85905
 4.2000e+000 86176  6.3770e+000 -3.3763e+002  3.4991e+001 52982 86009,85957,86150
 4.2000e+000 86199 -3.1910e+001 -3.6778e+002  2.1249e+001 52982 86009,86150,85853
 4.2000e+000 86398 -7.1163e+001 -2.3459e+002  2.2029e+001 52542 86421,86248,86222
 4.2000e+000 86375 -1.2198e+002 -2.3856e+002 -1.7332e+000 52542 86421,86222,86300
 4.2000e+000 86352 -1.2088e+002 -2.5639e+002 -1.1274e+001 52542 86222,86326,86300
 4.2000e+000 86447 -2.0036e+001 -2.3510e+002  4.1693e+001 52542 86274,86248,86421
 4.2000e+000 86470 -6.7774e+001 -2.4622e+002  1.1771e+001 52542 86274,86421,86300
 4.2000e+000 86669 -1.1422e+002 -2.4534e+002 -3.8148e+001 52230 86692,86571,86545
 4.2000e+000 86646 -1.0908e+002 -2.2896e+002 -2.0814e+001 52230 86692,86545,86519
 4.2000e+000 86623 -1.5098e+002 -2.4085e+002 -3.6849e+001 52230 86493,86597,86519
 4.2000e+000 86718 -1.2245e+002 -2.5057e+002 -4.6732e+001 52230 86597,86571,86692
 4.2000e+000 86741 -1.2912e+002 -2.3918e+002 -3.0546e+001 52230 86597,86692,86519
 4.2000e+000 87153 -1.5108e+002 -2.4091e+002  7.9381e+000 51640 86980,87058,87032
 4.2000e+000 87130 -1.5174e+002 -2.4813e+002  4.9994e+000 51640 86928,87058,86980
 4.2000e+000 87107 -1.6055e+002 -3.3521e+002 -1.8509e+001 51640 86928,86980,86954
 4.2000e+000 87084 -8.2180e+001 -2.1164e+002 -4.5861e+000 51640 86980,87032,87006
 4.2000e+000 87659 -7.1630e+001 -2.1534e+002  4.8098e+000 51029 87682,87440,87362
 4.2000e+000 87636 -6.1889e+001 -2.2684e+002 -2.2224e+001 51029 87682,87362,87336
 4.2000e+000 87613 -1.0176e+002 -3.1504e+002 -6.6963e+000 51029 87440,87518,87466
 4.2000e+000 87590 -1.1350e+002 -2.1654e+002  7.9451e+000 51029 87362,87440,87414
 4.2000e+000 87567 -9.4091e+001 -1.6570e+002  3.5947e+001 51029 87362,87414,87388
 4.2000e+000 87544 -1.4301e+002 -2.7007e+002  1.1412e+001 51029 87466,87518,87492
 4.2000e+000 87708 -7.0444e+001 -2.3870e+002 -2.2241e+000 51029 87518,87440,87682
 4.2000e+000 87731 -6.7812e+001 -2.7399e+002 -1.9237e+001 51029 87518,87682,87336
 4.2000e+000 87881 -1.4508e+002 -3.0916e+002  7.0955e+000 50739 87780,87832,87806
 4.2000e+000 87858 -1.6389e+002 -3.1035e+002 -1.3706e+001 50739 87754,87832,87780
 4.2000e+000 88468 -8.0593e+001 -2.0182e+002  5.5531e+000 50235 88171,88327,88197
 4.2000e+000 88445 -1.8091e+002 -1.9785e+002 -3.2872e+001 50235 88145,88327,88171
 4.2000e+000 88422  7.5690e-002 -1.0891e+002 -3.5610e-001 50235 88275,88327,88301
 4.2000e+000 88399 -5.8707e+001 -1.3410e+002 -7.9477e-001 50235 88197,88327,88275
 4.2000e+000 88376 -3.5836e+001 -1.8720e+002 -3.3894e+000 50235 88197,88275,88223
 4.2000e+000 88353 -3.6924e+001 -2.4441e+002 -2.5689e+001 50235 88223,88275,88249
 4.2000e+000 88895 -1.3770e+002 -3.2483e+002  7.2629e+000 49873 88918,88728,88676
 4.2000e+000 88872 -1.1789e+002 -3.0153e+002 -5.2758e+000 49873 88918,88676,88624
 4.2000e+000 88849 -9.3228e+001 -2.7555e+002 -1.2574e+001 49873 88598,88754,88624
 4.2000e+000 88826 -7.1666e+001 -2.8336e+002 -6.5869e+000 49873 88624,88676,88650
 4.2000e+000 88803 -1.1942e+002 -3.9359e+002  9.5604e+000 49873 88676,88728,88702
 4.2000e+000 88780 -1.1520e+002 -2.8389e+002 -1.5345e+001 49873 88572,88754,88598
 4.2000e+000 88944 -1.1397e+002 -3.2296e+002 -7.4873e+000 49873 88754,88728,88918
 4.2000e+000 88967 -1.0625e+002 -3.1424e+002 -1.7584e+001 49873 88754,88918,88624
 4.2000e+000 89473 -1.9268e+002 -3.0329e+002 -3.4432e+001 49583 89176,89306,89202
 4.2000e+000 89450 -1.9564e+002 -2.9621e+002 -5.4236e+001 49583 89176,89332,89306
 4.2000e+000 89427 -1.1422e+002 -3.3457e+002  1.6335e+001 49583 89496,89228,89202
 4.2000e+000 89404 -1.1518e+002 -3.4162e+002  1.9168e+001 49583 89496,89202,89280
 4.2000e+000 89381 -2.3882e+002 -4.2634e+002 -7.2284e+001 49583 89202,89306,89280
 4.2000e+000 89358 -1.5442e+002 -3.0112e+002 -6.3308e+001 49583 89150,89332,89176
 4.2000e+000 89522 -1.0872e+002 -2.8709e+002  9.7173e+000 49583 89254,89228,89496
 4.2000e+000 89545 -1.3143e+002 -3.2758e+002  1.8703e+001 49583 89254,89496,89280
 4.2000e+000 89825  2.1113e+001 -3.0136e+002  1.6175e+001 49179 89701,89753,89727
 4.2000e+000 89802 -4.7857e+001 -2.7389e+002  2.2208e+001 49179 89675,89753,89701
 4.2000e+000 89779 -3.4741e+001 -2.3903e+002  1.6884e+001 49179 89848,89753,89675
 4.2000e+000 89874 -1.5973e+002 -2.7822e+002 -1.6889e+001 49179 89649,89753,89848
 4.2000e+000 90223 -1.0273e+002 -3.0304e+002 -3.4581e+001 48739 90024,90102,90076
 4.2000e+000 90200 -1.0023e+002 -2.8556e+002 -1.2511e+001 48739 90024,90128,90102
 4.2000e+000 90177 -4.8413e+000 -2.9605e+002 -3.5848e+001 48739 90024,90076,90050
 4.2000e+000 90154 -3.8372e+001 -2.7549e+002  2.0639e+001 48739 89998,90128,90024
 4.2000e+000 90603 -9.4296e+001 -2.3833e+002  5.2049e+001 48335 90381,90485,90459
 4.2000e+000 90580 -1.2365e+002 -2.8298e+002  3.8799e+001 48335 90355,90485,90381
 4.2000e+000 90557 -5.0759e+001 -1.0297e+002  2.5379e+001 48335 90381,90433,90407
 4.2000e+000 90534 -9.2633e+001 -2.4977e+002  3.7649e+001 48335 90381,90459,90433
 4.2000e+000 90511  2.7841e+001 -1.9848e+002  7.4956e+001 48335 90329,90485,90355
 4.2000e+000 90753 -4.7299e+000 -1.5662e+002  9.3192e+001 47824 90776,90652,90704
 4.2000e+000 90730 -8.0999e+001 -2.7006e+002  4.4758e+001 47824 90626,90704,90652
 4.2000e+000 90802 -3.8467e+001 -2.0388e+002  7.4619e+001 47824 90678,90652,90776
 4.2000e+000 91131 -9.6071e+001 -3.2790e+002  1.4626e+001 47427 91154,90958,90906
 4.2000e+000 91108 -1.6837e+002 -3.5728e+002 -1.3622e+000 47427 91154,90906,91036
 4.2000e+000 91085 -1.6692e+002 -2.8849e+002 -2.5806e+001 47427 90958,91010,90984
 4.2000e+000 91062 -9.5685e+001 -3.0290e+002  1.7310e+001 47427 90906,90958,90932
 4.2000e+000 91180 -1.3871e+002 -3.2736e+002 -3.2632e+001 47427 91010,90958,91154
 4.2000e+000 91203 -2.0881e+002 -3.5783e+002 -4.9925e+001 47427 91010,91154,91036
 4.2000e+000 91583 -1.7211e+002 -3.1819e+002 -1.8355e+001 46873 91309,91439,91335
 4.2000e+000 91560 -1.7966e+002 -3.2516e+002 -1.5304e+001 46873 91309,91465,91439
 4.2000e+000 91537 -2.5415e+002 -3.6956e+002 -9.0090e+001 46873 91361,91439,91413
 4.2000e+000 91514 -1.9266e+002 -3.3164e+002 -4.8193e+001 46873 91335,91439,91361
 4.2000e+000 91491 -8.8604e+001 -3.1946e+002 -8.5725e+001 46873 91361,91413,91387
 4.2000e+000 91880 -1.0548e+002 -3.2923e+002 -7.0581e+000 46526 91606,91710,91658
 4.2000e+000 91857 -1.1030e+002 -3.4446e+002  2.7600e+000 46526 91606,91762,91710
 4.2000e+000 91834 -6.4272e+001 -3.1814e+002 -3.7703e+001 46526 91606,91658,91632
 4.2000e+000 91811 -1.2445e+002 -3.0722e+002  6.1002e+000 46526 91658,91710,91684
 4.2000e+000 91788 -7.2929e+001 -2.3408e+002  1.0628e+001 46526 91710,91762,91736
 4.2000e+000 92211 -5.7756e+001 -1.3269e+002 -9.5385e+000 45700 91986,92064,92038
 4.2000e+000 92188 -7.5574e+001 -2.0086e+002  2.1630e+000 45700 91986,92116,92064
 4.2000e+000 92165 -4.5661e+001 -1.1635e+002 -2.6004e+001 45700 91986,92038,92012
 4.2000e+000 92142 -5.2293e+001 -2.1956e+002  2.6008e+001 45700 92064,92116,92090
 4.2000e+000 92766 -1.5251e+002 -2.8644e+002  1.7779e+001 45452 92446,92602,92576
 4.2000e+000 92743 -2.1542e+002 -2.7354e+002 -2.1115e+001 45452 92420,92602,92446
 4.2000e+000 92720 -1.7024e+002 -2.9579e+002  4.6507e+001 45452 92789,92524,92498
 4.2000e+000 92697 -1.9512e+002 -2.9028e+002  3.8725e+001 45452 92789,92498,92446
 4.2000e+000 92674 -1.6801e+002 -3.1566e+002 -2.9590e+000 45452 92524,92576,92550
 4.2000e+000 92651 -2.5538e+002 -2.9663e+002  1.5893e+002 45452 92446,92498,92472
 4.2000e+000 92628 -1.7189e+002 -3.9847e+002 -1.0600e+002 45452 92394,92602,92420
 4.2000e+000 92815 -1.5281e+002 -2.9897e+002  3.9823e+001 45452 92576,92524,92789
 4.2000e+000 92838 -1.7231e+002 -2.8939e+002  3.5323e+001 45452 92576,92789,92446
 4.2000e+000 92939 -1.2301e+002 -3.8839e+002 -8.0154e+001 44998 92861,92913,92887
 4.2000e+000 93319 -2.3500e+001 -3.9411e+002  7.5487e+001 44601 93123,93201,93149
 4.2000e+000 93296 -1.0828e+002 -4.0302e+002 -4.0116e+001 44601 93045,93201,93123
 4.2000e+000 93273 -8.6872e+001 -2.3118e+002 -5.6951e+001 44601 93045,93123,93071
 4.2000e+000 93250 -8.2051e+001 -2.1339e+002 -3.5362e+001 44601 93071,93123,93097
 4.2000e+000 93227 -5.8319e+000 -2.2108e+002  8.0958e+001 44601 93149,93201,93175
 4.2000e+000 93697 -8.4173e+001 -4.3195e+002  2.3265e+001 44026 93720,93553,93527
 4.2000e+000 93674 -1.5008e+002 -3.6671e+002  3.1950e+001 44026 93720,93527,93449
 4.2000e+000 93651 -1.6511e+002 -3.7912e+002 -5.0422e+000 44026 93449,93527,93501
 4.2000e+000 93628 -1.2226e+002 -2.9513e+002 -6.4814e+001 44026 93423,93579,93449
 4.2000e+000 93605 -3.7309e+001 -3.0085e+002  2.8265e+001 44026 93449,93501,93475
 4.2000e+000 93746 -3.7147e+001 -3.8419e+002  4.2687e+000 44026 93579,93553,93720
 4.2000e+000 93769 -1.0669e+002 -3.2038e+002  1.3847e+001 44026 93579,93720,93449
 4.2000e+000 94066 -8.3409e+001 -3.3977e+002 -4.5554e+001 43579 94089,93818,93792
 4.2000e+000 94043 -1.3898e+002 -3.7391e+002 -3.0050e+001 43579 94161,94089,93792
 4.2000e+000 94020 -1.3631e+002 -3.7541e+002 -1.5824e+001 43579 94161,93792,93948
 4.2000e+000 93997 -1.4794e+002 -3.0369e+002 -1.6156e+001 43579 94233,93870,93818
 4.2000e+000 93974 -8.4291e+001 -3.1485e+002  1.0132e+001 43579 93818,93870,93844
 4.2000e+000 94115 -1.4353e+002 -3.0598e+002 -3.4747e+001 43579 94233,93818,94089
 4.2000e+000 94138 -1.8808e+002 -3.3905e+002 -2.1352e+001 43579 93896,94089,93922
 4.2000e+000 94187 -1.2967e+002 -3.5308e+002 -2.8011e+001 43579 93922,94089,94161
 4.2000e+000 94210 -1.2511e+002 -3.5212e+002 -1.2513e+001 43579 93922,94161,93948
 4.2000e+000 94259 -1.7179e+002 -3.3903e+002 -3.9688e+000 43579 93896,93870,94233
 4.2000e+000 94282 -1.5573e+002 -3.3151e+002 -2.5302e+001 43579 93896,94233,94089
 4.2000e+000 94481 -1.1384e+002 -3.4850e+002 -2.2369e+000 43239 94305,94383,94357
 4.2000e+000 94458 -9.7770e+001 -3.1850e+002  3.9610e+001 43239 94305,94409,94383
 4.2000e+000 94435 -8.7163e+001 -3.7338e+002 -8.9085e+000 43239 94305,94357,94331
 4.2000e+000 94633 -4.2476e+001 -2.2327e+002  5.1905e+001 42827 94656,94532,94506
 4.2000e+000 94610 -9.3249e+001 -2.4636e+002  5.7073e+001 42827 94728,94656,94506
 4.2000e+000 94682 -5.2546e+001 -2.5601e+002  4.4370e+001 42827 94558,94532,94656
 4.2000e+000 94705 -2.2361e+001 -2.5195e+002  2.7634e+001 42827 94988,94860,94656
 4.2000e+000 94754 -5.5819e+001 -2.2921e+002  1.8763e+001 42827 94988,94656,94728
 4.2000e+000 94886  8.3126e+000 -2.3779e+002  3.1128e+001 42827 94558,94656,94860
 4.2000e+000 95014  5.5623e+000 -2.3233e+002  1.9077e+001 42827 94584,94860,94988
 4.2000e+000 95037 -2.2816e+001 -2.1052e+002  1.0825e+001 42827 94584,94988,94728
 4.2000e+000 95236 -5.1981e+001 -2.8174e+002  3.6322e+001 42537 95259,95112,95060
 4.2000e+000 95213 -6.2961e+001 -2.7642e+002  3.4192e+001 42537 95259,95060,95164
 4.2000e+000 95190 -2.7561e+001 -2.8686e+002 -5.8201e+000 42537 95060,95112,95086
 4.2000e+000 95285 -5.9394e+001 -2.8323e+002  3.1478e+001 42537 95138,95112,95259
 4.2000e+000 95308 -7.0317e+001 -2.8056e+002  2.7794e+001 42537 95138,95259,95164
 4.2000e+000 95816 -1.2491e+002 -3.3955e+002 -2.4409e+001 41969 95493,95597,95519
 4.2000e+000 95793 -1.8408e+002 -3.2688e+002  2.7374e+001 41969 95493,95649,95597
 4.2000e+000 95770 -1.4079e+002 -3.1022e+002  2.5690e+001 41969 95493,95675,95649
 4.2000e+000 95747 -1.4938e+002 -4.1317e+002  2.3827e+001 41969 95597,95649,95623
 4.2000e+000 95724 -1.9310e+002 -3.1524e+002 -3.8390e+001 41969 95519,95597,95571
 4.2000e+000 95701 -1.6945e+002 -2.7374e+002 -7.8795e+001 41969 95519,95571,95545
 4.2000e+000 96371 -1.5360e+002 -3.6019e+002  4.3650e+001 41579 96025,96207,96181
 4.2000e+000 96348  4.2897e+001 -2.7152e+002 -1.1440e+001 41579 95999,96207,96025
 4.2000e+000 96325 -1.7251e+002 -2.8231e+002 -3.0091e+001 41579 96129,96181,96155
 4.2000e+000 96302 -6.6969e+001 -2.5592e+002  2.4725e+000 41579 96025,96181,96129
 4.2000e+000 96279 -1.3885e+002 -3.6919e+002  4.8992e+001 41579 96025,96129,96051
 4.2000e+000 96256 -1.7160e+002 -3.7217e+002  6.0198e+001 41579 96051,96103,96077
 4.2000e+000 96233 -6.5156e+001 -2.7795e+002  9.5200e+000 41579 96051,96129,96103
 4.2000e+000 96877 -3.9183e+001 -2.3160e+002 -2.5448e+001 41182 96972,96900,96632
 4.2000e+000 96854 -4.9968e+001 -1.7593e+002 -2.8044e+001 41182 96900,96554,96736
 4.2000e+000 96831 -3.7668e+001 -2.3055e+002 -2.2688e+001 41182 96972,96632,96580
 4.2000e+000 96808 -5.1656e+001 -2.1907e+002  2.1830e+001 41182 96632,96684,96658
 4.2000e+000 96785 -8.8612e+001 -2.3278e+002  2.9013e+001 41182 96684,96736,96710
 4.2000e+000 96762 -1.3202e+002 -2.9176e+002  4.6592e+001 41182 96580,96632,96606
 4.2000e+000 96926 -3.6879e+001 -2.5748e+002 -2.5337e+001 41182 96684,96632,96900
 4.2000e+000 96949 -7.3509e+001 -2.2907e+002 -4.5311e+001 41182 96684,96900,96736
 4.2000e+000 96998 -4.4738e+001 -2.3510e+002 -2.9853e+001 41182 96554,96900,96972
 4.2000e+000 97021 -4.2665e+001 -2.3135e+002 -2.6748e+001 41182 96554,96972,96580
 4.2000e+000 97576 -2.1209e+002 -5.1676e+002 -7.2252e+001 40678 97230,97412,97282
 4.2000e+000 97553 -2.1293e+001 -4.2154e+002  2.2408e+001 40678 97204,97412,97230
 4.2000e+000 97530 -6.4392e+001 -3.9627e+002 -6.1937e+001 40678 97282,97360,97308
 4.2000e+000 97507 -9.6166e+001 -4.0378e+002 -2.6260e+001 40678 97282,97412,97360
 4.2000e+000 97484 -3.2627e+001 -2.4251e+002 -5.4241e+001 40678 97308,97360,97334
 4.2000e+000 97461 -1.2400e+002 -4.8174e+002 -1.4418e+001 40678 97360,97412,97386
 4.2000e+000 97438 -1.1720e+002 -3.1605e+002 -4.4881e+001 40678 97230,97282,97256
 4.2000e+000 97976 -1.6152e+002 -2.7047e+002 -7.3254e+000 40244 97702,97832,97754
 4.2000e+000 97953 -1.3681e+002 -2.5897e+002 -1.4510e+001 40244 97702,97858,97832
 4.2000e+000 97930 -1.7300e+002 -3.1780e+002 -6.8555e+001 40244 97702,97754,97728
 4.2000e+000 97907 -1.3908e+002 -3.0446e+002  3.3474e+001 40244 97780,97832,97806
 4.2000e+000 97884 -1.5000e+002 -2.6308e+002 -3.0096e+000 40244 97754,97832,97780
 4.2000e+000 98482 -9.2609e+001 -2.5931e+002  4.1109e+001 39690 98505,98185,98159
 4.2000e+000 98459 -9.4634e+001 -2.5195e+002  3.9897e+001 39690 98505,98159,98289
 4.2000e+000 98436 -1.7455e+002 -3.7208e+002  9.9874e+001 39690 98159,98315,98289
 4.2000e+000 98413 -7.4292e+001 -2.3428e+002  3.7370e+001 39690 98211,98289,98263
 4.2000e+000 98390 -4.3352e+001 -1.5293e+002  2.2421e+001 39690 98211,98263,98237
 4.2000e+000 98367 -4.7853e+001 -2.4079e+002  4.0028e+001 39690 98159,98341,98315
 4.2000e+000 98531 -9.4695e+001 -2.5505e+002  3.6066e+001 39690 98211,98185,98505
 4.2000e+000 98554 -9.4440e+001 -2.4301e+002  3.6380e+001 39690 98211,98505,98289
 4.2000e+000 99109 -8.7619e+001 -2.2914e+002 -1.3274e+001 39072 99132,98867,98789
 4.2000e+000 99086 -8.4054e+001 -2.3783e+002 -2.0612e+001 39072 99132,98789,98763
 4.2000e+000 99063 -1.3073e+002 -3.7921e+002  4.2587e+001 39072 98867,98945,98919
 4.2000e+000 99040 -7.5020e+001 -2.4108e+002 -3.1910e+000 39072 98789,98867,98841
 4.2000e+000 99017 -1.7410e+002 -2.6712e+002  1.2056e+001 39072 98867,98919,98893
 4.2000e+000 98994 -1.2277e+002 -2.2605e+002  4.7486e+001 39072 98789,98841,98815
 4.2000e+000 98971 -1.2509e+002 -2.7234e+002 -1.7069e+001 39072 98737,98945,98763
 4.2000e+000 99158 -8.5016e+001 -2.4017e+002 -1.4923e+001 39072 98945,98867,99132
 4.2000e+000 99181 -8.4350e+001 -2.5544e+002 -1.7931e+001 39072 98945,99132,98763
 4.2000e+000 99510 -7.4554e+001 -2.1335e+002  1.4003e+001 38668 99311,99389,99363
 4.2000e+000 99487 -6.3004e+001 -2.2255e+002 -6.6392e+000 38668 99285,99389,99311
 4.2000e+000 99464 -1.4185e+002 -3.0984e+002  2.7160e+001 38668 99285,99415,99389
 4.2000e+000 99441 -6.8062e+001 -2.3081e+002  2.3431e+001 38668 99311,99363,99337
 4.2000e+000 99758 -8.5716e+001 -3.4461e+002  5.3694e+001 38164 99781,99611,99585
 4.2000e+000 99735 -3.6651e+001 -3.5344e+002  5.9238e+001 38164 99781,99585,99533
 4.2000e+000 99712 -1.2811e+002 -3.2437e+002  3.7598e+001 38164 99611,99663,99637
 4.2000e+000 99689  1.5502e+001 -3.3448e+002 -2.2470e+001 38164 99533,99585,99559
 4.2000e+000 99807 -1.1363e+002 -3.4296e+002  6.7437e+001 38164 99663,99611,99781
 4.2000e+000 99830 -7.6284e+001 -3.5744e+002  6.5312e+001 38164 99663,99781,99533
 4.2000e+000 100232 -1.0438e+002 -2.6312e+002  3.8075e+000 37702 99984,100114,100088
 4.2000e+000 100209 -8.4526e+001 -2.8600e+002  2.9309e+001 37702 99958,100114,99984
 4.2000e+000 100186 -1.4979e+002 -3.2315e+002 -2.0020e+001 37702 100010,100088,100036
 4.2000e+000 100163 -1.0396e+002 -2.6348e+002 -2.3866e-002 37702 99984,100088,100010
 4.2000e+000 100140 -9.0057e+001 -2.4004e+002 -6.9458e+001 37702 100036,100088,100062
 4.2000e+000 100640 -2.1483e+002 -3.0438e+002  3.7882e+001 37262 100493,100545,100519
 4.2000e+000 100617 -1.9323e+002 -3.4320e+002  1.8978e+001 37262 100441,100545,100493
 4.2000e+000 100594 -8.1319e+001 -2.5734e+002 -4.6091e+001 37262 100415,100545,100441
 4.2000e+000 100571 -2.1401e+002 -3.6016e+002 -1.5855e+001 37262 100441,100493,100467
 4.2000e+000 101146 -1.4882e+002 -2.5341e+002 -1.7263e+000 36872 100823,100979,100849
 4.2000e+000 101123 -1.4430e+002 -2.3473e+002 -2.3353e+001 36872 100823,101005,100979
 4.2000e+000 101100 -1.5577e+002 -3.6426e+002  4.9711e+001 36872 101169,100901,100849
 4.2000e+000 101077 -1.2036e+002 -2.9039e+002  2.6288e+001 36872 101169,100849,100979
 4.2000e+000 101054 -8.4263e+001 -3.0035e+002 -1.8858e+001 36872 100927,100979,100953
 4.2000e+000 101031 -8.4454e+001 -4.1332e+002  6.9745e+001 36872 100849,100901,100875
 4.2000e+000 101195 -1.0722e+002 -3.8583e+002  3.3443e+000 36872 100927,100901,101169
 4.2000e+000 101218 -8.5758e+001 -3.4699e+002 -1.5486e+001 36872 100927,101169,100979
 4.2000e+000 101773 -1.7636e+002 -2.7264e+002  4.9818e+001 36418 101479,101609,101583
 4.2000e+000 101750 -1.8020e+002 -2.9508e+002  5.3358e+001 36418 101453,101609,101479
 4.2000e+000 101727 -1.2078e+002 -2.8972e+002 -2.6700e+000 36418 101796,101531,101479
 4.2000e+000 101704 -1.6676e+002 -3.2166e+002  2.0514e+001 36418 101796,101479,101583
 4.2000e+000 101681 -1.0378e+002 -2.5220e+002 -9.1912e+000 36418 101479,101531,101505
 4.2000e+000 101658 -5.5304e+000 -2.6673e+002  1.5566e+000 36418 101401,101609,101453
 4.2000e+000 101635 -5.3062e+001 -2.7923e+002 -5.9347e+000 36418 101401,101453,101427
 4.2000e+000 101822 -1.3158e+002 -2.6628e+002 -4.6065e+001 36418 101557,101531,101796
 4.2000e+000 101845 -1.8426e+002 -2.7749e+002 -2.5132e+001 36418 101557,101796,101583
 4.2000e+000 102174 -1.8328e+001 -1.3486e+002 -3.3587e+001 35914 101949,102053,101975
 4.2000e+000 102151 -6.9423e+001 -1.3150e+002 -2.6682e+001 35914 101949,102079,102053
 4.2000e+000 102128 -6.8083e+001 -1.5841e+002 -1.6072e+001 35914 101975,102053,102027
 4.2000e+000 102105 -4.3200e+001 -1.1984e+002 -2.6799e+001 35914 101975,102027,102001
 4.2000e+000 102631 -5.7371e+001 -2.9530e+002  1.1850e+001 35574 102383,102513,102487
 4.2000e+000 102608 -4.2363e+001 -3.1228e+002  8.8625e+000 35574 102357,102513,102383
 4.2000e+000 102585 -9.7900e+001 -3.0493e+002  1.1944e+001 35574 102409,102487,102435
 4.2000e+000 102562 -1.0433e+002 -3.1257e+002  8.3303e+000 35574 102383,102487,102409
 4.2000e+000 102539 -9.7199e+001 -3.0503e+002  1.2910e+001 35574 102435,102487,102461
 4.2000e+000 103009 -1.5850e+002 -2.9112e+002 -2.0211e+001 35170 102761,102865,102787
 4.2000e+000 102986 -9.5036e+001 -2.5566e+002  2.7534e+001 35170 102761,102891,102865
 4.2000e+000 102963 -1.4078e+002 -2.8140e+002 -7.8485e+000 35170 102787,102865,102813
 4.2000e+000 102940 -7.7957e+001 -2.4464e+002  3.2673e+001 35170 102735,102891,102761
 4.2000e+000 102917 -1.4131e+002 -2.8613e+002 -1.7913e+001 35170 102813,102865,102839
 4.2000e+000 103257 -2.7752e+001 -2.2311e+002 -4.0329e+001 34659 103280,103058,103032
 4.2000e+000 103234 -4.4405e+001 -2.3682e+002 -2.3745e+001 34659 103280,103032,103162
 4.2000e+000 103211 -8.0862e+001 -2.3836e+002 -2.1787e+001 34659 103084,103162,103110
 4.2000e+000 103188 -1.0591e+002 -2.9186e+002 -1.5078e+001 34659 103110,103162,103136
 4.2000e+000 103306 -5.6655e+001 -2.0619e+002 -3.4577e+001 34659 103084,103058,103280
 4.2000e+000 103329 -6.7671e+001 -2.2088e+002 -1.5918e+001 34659 103084,103280,103162
 4.2000e+000 103837 -3.0217e+001 -3.2541e+002  1.0757e+001 34247 103860,103566,103540
 4.2000e+000 103814 -4.3993e+001 -3.2616e+002  8.9773e-001 34247 103932,103860,103540
 4.2000e+000 103791 -3.2083e+001 -3.6110e+002 -3.4851e+001 34247 103932,103540,103670
 4.2000e+000 103768 -3.6396e+001 -3.0711e+002  5.8917e+000 34247 103566,103618,103592
 4.2000e+000 103745 -1.3307e+002 -3.0382e+002 -4.6265e+001 34247 103540,103696,103670
 4.2000e+000 103722 -1.7541e+002 -3.3635e+002  4.9137e+001 34247 103514,103696,103540
 4.2000e+000 103886 -6.6658e+001 -3.2436e+002 -2.0573e+000 34247 103618,103566,103860
 4.2000e+000 103909 -7.4853e+001 -3.4583e+002  9.6267e+000 34247 103618,103860,103644
 4.2000e+000 103958 -7.5530e+001 -4.0977e+002 -4.1159e+000 34247 103644,103860,103932
 4.2000e+000 103981 -6.3560e+001 -4.4212e+002 -4.1657e+001 34247 103644,103932,103670
 4.2000e+000 104300 -1.6138e+002 -3.3968e+002 -1.1705e+001 33843 104052,104182,104156
 4.2000e+000 104277 -2.0728e+002 -3.2215e+002 -4.4817e+000 33843 104026,104182,104052
 4.2000e+000 104254 -1.5833e+002 -3.9024e+002  6.6490e+000 33843 104078,104156,104130
 4.2000e+000 104231 -1.8529e+002 -3.6708e+002  7.9570e-001 33843 104052,104156,104078
 4.2000e+000 104208 -2.4325e+002 -4.1576e+002  1.1273e+001 33843 104078,104130,104104
 4.2000e+000 104499 -1.1273e+002 -3.4843e+002 -3.0179e+001 33282 104594,104522,104375
 4.2000e+000 104476 -9.5999e+001 -3.3630e+002  1.0909e+001 33282 104522,104323,104427
 4.2000e+000 104453 -6.8688e+001 -3.7366e+002 -2.7064e+001 33282 104594,104375,104349
 4.2000e+000 104548 -1.1776e+002 -2.9919e+002 -1.4770e+001 33282 104401,104375,104522
 4.2000e+000 104571 -8.0961e+001 -2.9484e+002  1.4762e+001 33282 104401,104522,104427
 4.2000e+000 104620 -5.9931e+001 -3.0101e+002 -9.8592e+000 33282 104323,104522,104594
 4.2000e+000 104643 -3.2413e+001 -3.4286e+002 -1.3331e+001 33282 104323,104594,104349
 4.2000e+000 104942 -1.5247e+002 -3.8470e+002  4.5876e+001 32728 104694,104772,104720
 4.2000e+000 104919 -1.1612e+002 -3.5104e+002  1.6483e+001 32728 104694,104824,104772
 4.2000e+000 104896 -1.9693e+002 -3.4624e+002  5.1367e+001 32728 104720,104772,104746
 4.2000e+000 104873 -8.9343e+001 -3.9729e+002  1.9193e+001 32728 104772,104824,104798
 4.2000e+000 104850 -9.6792e+001 -3.4645e+002  1.6883e+001 32728 104668,104824,104694
 4.2000e+000 105373 -1.2856e+002 -3.7349e+002 -1.7253e+001 32274 105396,105102,105076
 4.2000e+000 105350 -1.3950e+002 -4.0860e+002 -6.6316e+000 32274 105396,105076,105206
 4.2000e+000 105327 -1.7377e+002 -4.1249e+002  2.0676e+001 32274 105154,105206,105180
 4.2000e+000 105304 -7.3132e+001 -3.9241e+002 -3.1271e+001 32274 105076,105232,105206
 4.2000e+000 105281 -1.5122e+002 -3.3778e+002 -6.1983e+001 32274 105102,105154,105128
 4.2000e+000 105258 -2.2159e+002 -3.3873e+002 -6.3987e+001 32274 105050,105232,105076
 4.2000e+000 105422 -1.4863e+002 -3.3550e+002 -1.5722e+001 32274 105154,105102,105396
 4.2000e+000 105445 -1.5847e+002 -3.7115e+002 -7.5575e+000 32274 105154,105396,105206
 4.2000e+000 105644 -1.4889e+002 -3.7824e+002 -5.9900e+000 31620 105468,105546,105520
 4.2000e+000 105621 -1.2082e+002 -4.1291e+002 -1.9854e+001 31620 105468,105572,105546
 4.2000e+000 105598 -1.4705e+002 -4.0658e+002  2.1969e+001 31620 105468,105520,105494
 4.2000e+000 105794 -3.9643e+001 -3.3148e+002 -1.0406e+001 31158 105889,105817,105693
 4.2000e+000 105771 -6.1163e+001 -2.9950e+002 -2.1983e+001 31158 105817,105667,105745
 4.2000e+000 105843 -5.0321e+001 -4.0565e+002 -3.5028e+000 31158 105719,105693,105817
 4.2000e+000 105866 -2.7128e+001 -3.4888e+002 -1.8022e+001 31158 105719,105817,105745
 4.2000e+000 105915 -8.9944e+001 -3.5304e+002 -1.0993e+001 31158 105667,105817,105889
 4.2000e+000 106270 -1.4682e+002 -3.3429e+002 -1.3535e+000 30818 106293,106071,106045
 4.2000e+000 106247 -1.7047e+002 -3.8752e+002 -2.0349e+001 30818 106293,106045,106175
 4.2000e+000 106224 -1.1852e+002 -3.0701e+002  1.9833e+001 30818 106123,106175,106149
 4.2000e+000 106201 -1.5222e+002 -3.3738e+002  3.3300e+001 30818 106071,106123,106097
 4.2000e+000 106319 -1.4916e+002 -3.1341e+002  1.8243e+001 30818 106123,106071,106293
 4.2000e+000 106342 -1.5221e+002 -3.4120e+002  2.2327e+000 30818 106123,106293,106175
 4.2000e+000 106492 -1.3721e+002 -3.1002e+002  5.8379e+001 30414 106645,106391,106365
 4.2000e+000 106469 -4.9769e+001 -3.0664e+002  8.9774e+001 30414 106515,106365,106443
 4.2000e+000 106541 -8.7517e+001 -3.2184e+002  6.5932e+001 30414 106645,106365,106515
 4.2000e+000 106671 -6.6664e+001 -3.6600e+002  1.1255e+002 30414 106417,106391,106645
 4.2000e+000 106694  4.5871e+001 -3.3866e+002  9.6654e+001 30414 106417,106645,106515
 4.2000e+000 106942 -7.0933e+001 -4.6726e+002 -4.8379e-001 29910 106965,106795,106769
 4.2000e+000 106919 -6.2612e+001 -4.1956e+002  1.3211e+001 29910 106965,106769,106717
 4.2000e+000 106896 -6.2810e+001 -3.5068e+002 -4.6129e+001 29910 106795,106847,106821
 4.2000e+000 106873 -3.2354e+001 -3.5562e+002  2.3723e+001 29910 106717,106769,106743
 4.2000e+000 106991 -9.6663e+001 -4.1648e+002  5.9319e+000 29910 106847,106795,106965
 4.2000e+000 107014 -7.7691e+001 -3.5313e+002  1.8905e+001 29910 106847,106965,106717
 4.2000e+000 107213 -1.0131e+002 -3.4989e+002  2.1415e+001 29413 107236,107063,107037
 4.2000e+000 107190 -9.2328e+001 -4.1088e+002  4.3956e+001 29413 107236,107037,107141
 4.2000e+000 107167 -1.2379e+002 -2.5588e+002  5.4598e+001 29413 107063,107115,107089
 4.2000e+000 107262 -9.5480e+001 -3.1079e+002  1.5552e+001 29413 107115,107063,107236
 4.2000e+000 107285 -7.7378e+001 -3.5596e+002  4.0307e+001 29413 107115,107236,107141
 4.2000e+000 107486 -4.4233e+001 -3.3510e+002  4.4351e+001 29009 107336,107388,107362
 4.2000e+000 107463 -2.2834e+001 -3.2347e+002  1.3023e+001 29009 107310,107388,107336
 4.2000e+000 107440 -2.8068e+001 -3.0397e+002  1.2717e+001 29009 107310,107414,107388
 4.2000e+000 107736 -1.4604e+002 -3.8533e+002 -1.5089e+001 28491 107537,107615,107563
 4.2000e+000 107713 -1.2654e+002 -3.7596e+002 -1.0107e+001 28491 107537,107641,107615
 4.2000e+000 107690 -8.0879e+001 -3.6464e+002  6.8164e+000 28491 107563,107615,107589
 4.2000e+000 107667 -1.3292e+002 -3.7315e+002 -1.1234e+001 28491 107511,107641,107537
 4.2000e+000 108118 -8.1810e+001 -3.6628e+002  1.4739e+001 27980 108141,107922,107844
 4.2000e+000 108095 -6.5310e+001 -3.9506e+002  1.3945e+001 27980 108141,107844,108000
 4.2000e+000 108072 -8.6320e+001 -3.8347e+002 -2.0056e+001 27980 107844,107922,107870
 4.2000e+000 108049 -9.3041e+001 -3.2932e+002 -1.0158e+001 27980 107870,107922,107896
 4.2000e+000 108026 -1.2896e+002 -3.4218e+002  4.3318e+001 27980 107922,107974,107948
 4.2000e+000 108167 -7.0658e+001 -3.6509e+002  1.9964e+001 27980 107974,107922,108141
 4.2000e+000 108190 -2.5624e+001 -3.6665e+002  2.7829e+001 27980 107974,108141,108000
 4.2000e+000 108745 -4.4123e+001 -2.4173e+002 -5.1376e+000 27376 108840,108768,108477
 4.2000e+000 108722 -7.5964e+001 -2.9850e+002 -5.7892e+001 27376 108768,108373,108581
 4.2000e+000 108699 -7.1013e+001 -2.0978e+002  4.4213e+001 27376 108840,108477,108451
 4.2000e+000 108676 -1.7303e+002 -2.5419e+002 -9.8290e+000 27376 108373,108451,108399
 4.2000e+000 108653 -7.1534e+001 -3.0123e+002  4.1135e+001 27376 108503,108581,108529
 4.2000e+000 108630 -8.0338e+001 -2.9555e+002  4.2935e+001 27376 108529,108581,108555
 4.2000e+000 108607 -1.9544e+002 -2.7205e+002  2.1909e+001 27376 108399,108451,108425
 4.2000e+000 108794 -7.1267e+001 -3.2560e+002  1.7206e+000 27376 108503,108477,108768
 4.2000e+000 108817 -1.5816e+001 -2.9681e+002 -1.0360e+001 27376 108503,108768,108581
 4.2000e+000 108866 -1.4474e+002 -2.9954e+002 -2.8502e+001 27376 108373,108768,108840
 4.2000e+000 108889 -1.3987e+002 -2.5745e+002  2.3212e+001 27376 108373,108840,108451
 4.2000e+000 109186 -1.4293e+002 -3.7734e+002  3.8975e+001 26722 109209,108938,108912
 4.2000e+000 109163 -1.3337e+002 -3.5432e+002  3.6836e+001 26722 109281,109209,108912
 4.2000e+000 109140 -1.2810e+002 -3.4486e+002  3.4624e+001 26722 109281,108912,109042
 4.2000e+000 109117 -1.1952e+002 -4.0609e+002  1.7788e+001 26722 108938,108990,108964
 4.2000e+000 109094 -1.8023e+002 -3.1363e+002  2.2780e+001 26722 108912,109068,109042
 4.2000e+000 109235 -1.2134e+002 -3.6513e+002  3.3852e+001 26722 108990,108938,109209
 4.2000e+000 109258 -1.2888e+002 -3.9293e+002  3.0834e+001 26722 108990,109209,109016
 4.2000e+000 109307 -1.1749e+002 -3.6927e+002  1.8688e+001 26722 109016,109209,109281
 4.2000e+000 109330 -1.0782e+002 -3.5278e+002  1.4460e+001 26722 109016,109281,109042
 4.2000e+000 109732 -1.5279e+002 -3.1076e+002 -6.2967e+000 26310 109458,109588,109484
 4.2000e+000 109709 -1.4733e+002 -3.6718e+002 -3.8914e+001 26310 109458,109614,109588
 4.2000e+000 109686 -2.1625e+002 -3.6620e+002  5.4756e+001 26310 109510,109562,109536
 4.2000e+000 109663 -2.1299e+002 -3.4388e+002  2.1321e+001 26310 109484,109562,109510
 4.2000e+000 109640 -1.5711e+002 -3.1568e+002 -6.3876e-001 26310 109484,109588,109562
 4.2000e+000 110159 -9.3117e+001 -3.1488e+002 -1.0637e+001 25642 110182,109940,109914
 4.2000e+000 110136 -8.5934e+001 -3.6743e+002  4.3143e+001 25642 110182,109914,109888
 4.2000e+000 110113 -1.1493e+002 -3.9348e+002 -5.1682e+001 25642 109966,110018,109992
 4.2000e+000 110090 -1.2707e+002 -3.7904e+002  2.9493e+001 25642 110254,109966,109940
 4.2000e+000 110067 -1.7123e+002 -3.6069e+002  2.0375e+001 25642 109862,110018,109888
 4.2000e+000 110044 -1.6062e+002 -2.9996e+002  5.0439e+001 25642 109836,110018,109862
 4.2000e+000 110208 -1.2616e+002 -3.4529e+002  2.1860e+001 25642 110254,109940,110182
 4.2000e+000 110231 -1.3816e+002 -3.7000e+002  4.8353e+001 25642 110018,110182,109888
 4.2000e+000 110280 -1.1162e+002 -4.2111e+002  2.3123e+001 25642 110018,109966,110254
 4.2000e+000 110303 -1.1776e+002 -3.9585e+002  1.6598e+001 25642 110018,110254,110182
 4.2000e+000 110632 -1.6352e+002 -3.2911e+002 -1.9718e+001 25188 110407,110485,110433
 4.2000e+000 110609 -1.9331e+002 -3.2392e+002 -1.2703e+001 25188 110407,110537,110485
 4.2000e+000 110586 -1.8822e+002 -3.4326e+002 -6.4899e+001 25188 110433,110485,110459
 4.2000e+000 110563 -1.8044e+002 -3.4519e+002  3.5689e+001 25188 110485,110537,110511
 4.2000e+000 110831 -3.1730e+001 -3.1243e+002  8.5902e+000 24726 110854,110707,110655
 4.2000e+000 110808 -1.4244e+001 -3.3783e+002  3.4546e+001 24726 110854,110655,110759
 4.2000e+000 110785 -4.5223e+001 -3.2500e+002  1.6433e+001 24726 110655,110707,110681
 4.2000e+000 110880 -1.8448e+001 -2.8836e+002  1.3830e+001 24726 110733,110707,110854
 4.2000e+000 110903  4.9720e+000 -3.0126e+002  4.1670e+001 24726 110733,110854,110759
 4.2000e+000 111234 -8.8236e+000 -2.2891e+002 -6.7842e+000 24222 111257,111087,111035
 4.2000e+000 111211  2.9224e+001 -2.1162e+002  2.6048e+001 24222 111257,111035,111009
 4.2000e+000 111188 -3.6484e+001 -1.2240e+002 -5.1007e+001 24222 111035,111087,111061
 4.2000e+000 111165 -3.5111e+001 -1.8148e+002  5.9333e+000 24222 111087,111139,111113
 4.2000e+000 111283 -3.2834e+001 -1.8884e+002  1.0865e+001 24222 111139,111087,111257
 4.2000e+000 111306 -1.6250e+001 -1.6020e+002  3.1979e+001 24222 111139,111257,111009
 4.2000e+000 111625 -4.5079e+001 -3.1604e+002 -1.8731e+001 23732 111648,111481,111455
 4.2000e+000 111602 -4.6625e+001 -3.1958e+002 -1.8191e+001 23732 111648,111455,111377
 4.2000e+000 111579  4.0756e+001 -1.6602e+002  3.3182e+001 23732 111377,111429,111403
 4.2000e+000 111556 -2.0314e+001 -3.2313e+002 -7.6619e+000 23732 111377,111455,111429
 4.2000e+000 111533 -3.6496e+001 -2.8843e+002 -6.5971e+000 23732 111351,111507,111377
 4.2000e+000 111674 -4.6546e+001 -3.1020e+002 -1.4630e+001 23732 111507,111481,111648
 4.2000e+000 111697 -4.9679e+001 -3.1741e+002 -1.4221e+001 23732 111507,111648,111377
 4.2000e+000 112156 -8.8739e+001 -3.7551e+002  2.7366e+001 23278 112179,111908,111882
 4.2000e+000 112133 -8.2866e+001 -3.4770e+002  1.5045e+001 23278 112179,111882,112012
 4.2000e+000 112110 -2.8592e+001 -4.0586e+002  1.0029e+000 23278 111908,111960,111934
 4.2000e+000 112087 -3.5046e+001 -3.0489e+002 -4.4087e+000 23278 111882,112038,112012
 4.2000e+000 112064 -7.4773e+001 -3.1342e+002 -4.8536e+000 23278 111960,112012,111986
 4.2000e+000 112205 -8.4691e+001 -3.6219e+002  4.3209e+000 23278 111960,111908,112179
 4.2000e+000 112228 -7.1115e+001 -3.3101e+002 -9.7643e+000 23278 111960,112179,112012
 4.2000e+000 112685 -2.3546e+002 -5.1951e+002 -5.0761e+001 22938 112489,112567,112541
 4.2000e+000 112662 -2.0248e+002 -4.4745e+002 -4.2361e+001 22938 112437,112567,112489
 4.2000e+000 112639 -1.3387e+002 -3.8317e+002 -4.5593e+000 22938 112489,112541,112515
 4.2000e+000 112616 -2.3330e+002 -4.3245e+002 -3.9165e+001 22938 112411,112567,112437
 4.2000e+000 112593 -1.7574e+002 -5.5645e+002 -1.2110e+001 22938 112437,112489,112463
 4.2000e+000 113191 -1.7668e+001 -3.6793e+002 -4.6217e+001 22534 113214,112998,112946
 4.2000e+000 113168 -7.0569e+001 -3.2886e+002 -2.4158e+001 22534 113286,113214,112946
 4.2000e+000 113145 -5.3244e+001 -3.2973e+002 -1.9982e+001 22534 113286,112946,112920
 4.2000e+000 113122 -1.4733e+002 -3.0200e+002 -6.4590e+001 22534 113358,113024,112998
 4.2000e+000 113099 -9.5732e+001 -3.1856e+002 -1.2510e+001 22534 112868,113050,112894
 4.2000e+000 113076 -1.1092e+002 -5.5923e+002 -9.1723e+001 22534 112946,112998,112972
 4.2000e+000 113240 -1.0974e+002 -3.7868e+002 -6.8376e+001 22534 113358,112998,113214
 4.2000e+000 113263 -9.1953e+001 -3.4443e+002 -1.5246e+001 22534 113050,113214,112894
 4.2000e+000 113312 -4.8289e+001 -3.2525e+002 -1.9073e+001 22534 112894,113214,113286
 4.2000e+000 113335 -3.0223e+001 -3.2729e+002 -1.8031e+001 22534 112894,113286,112920
 4.2000e+000 113384 -1.0586e+002 -2.3170e+002 -4.7318e+001 22534 113050,113024,113358
 4.2000e+000 113407 -5.1916e+001 -2.9515e+002 -4.2718e+001 22534 113050,113358,113214
 4.2000e+000 113785 -1.6940e+002 -4.3699e+002  9.4961e+000 21978 113808,113615,113511
 4.2000e+000 113762 -1.3620e+002 -4.4160e+002  2.8843e+001 21978 113808,113511,113667
 4.2000e+000 113739 -1.0444e+002 -3.7522e+002 -1.6964e+001 21978 113511,113615,113537
 4.2000e+000 113716  4.0655e+001 -3.3586e+002 -3.7833e+001 21978 113537,113615,113589
 4.2000e+000 113693 -4.9400e+001 -4.8072e+002  4.9744e+000 21978 113537,113589,113563
 4.2000e+000 113834 -1.7538e+002 -4.3738e+002  5.1077e+001 21978 113641,113615,113808
 4.2000e+000 113857 -8.9492e+001 -4.0415e+002  7.4104e+001 21978 113641,113808,113667
 4.2000e+000 114284 -1.2464e+002 -3.6640e+002  8.2181e+000 21517 114013,114117,114039
 4.2000e+000 114261 -1.4082e+002 -3.6487e+002  2.8579e+001 21517 113961,114117,114013
 4.2000e+000 114238 -1.3703e+002 -3.7057e+002  2.8904e+001 21517 113961,114013,113987
 4.2000e+000 114215 -2.0166e+002 -4.1689e+002 -2.8735e+001 21517 114039,114117,114091
 4.2000e+000 114192 -1.4317e+002 -3.0999e+002  3.4318e+001 21517 113961,114143,114117
 4.2000e+000 114169 -2.9346e+001 -3.5817e+002 -3.2877e+001 21517 114039,114091,114065
 4.2000e+000 114581 -6.9957e+001 -4.2850e+002  5.6242e+000 21027 114359,114463,114437
 4.2000e+000 114558 -3.4827e+001 -3.8737e+002  5.2031e+001 21027 114333,114463,114359
 4.2000e+000 114535 -2.7065e+001 -3.9064e+002 -1.0591e+001 21027 114359,114437,114385
 4.2000e+000 114512 -1.8783e+001 -3.8306e+002  4.4391e+001 21027 114307,114463,114333
 4.2000e+000 114489  6.3072e+001 -3.6380e+002 -1.8127e+001 21027 114385,114437,114411
 4.2000e+000 114912 -1.6831e+002 -3.7565e+002  4.6638e+000 20623 114713,114791,114765
 4.2000e+000 114889 -1.1694e+002 -3.5464e+002 -2.5890e+001 20623 114687,114791,114713
 4.2000e+000 114866 -8.0955e+001 -3.9244e+002 -2.9389e+001 20623 114687,114817,114791
 4.2000e+000 114843 -2.4686e+002 -4.5463e+002  3.8048e+001 20623 114713,114765,114739
 4.2000e+000 115290 -4.5683e+001 -3.3543e+002  1.6521e+001 20375 115313,115146,115094
 4.2000e+000 115267 -7.4341e+001 -3.2045e+002  3.2086e+001 20375 115313,115094,115042
 4.2000e+000 115244 -9.6779e+001 -3.0799e+002  9.2037e+000 20375 115385,115016,115172
 4.2000e+000 115221 -3.2253e+001 -3.0186e+002  2.7697e+001 20375 115042,115094,115068
 4.2000e+000 115198 -7.1142e+001 -4.0323e+002  2.2014e+001 20375 115094,115146,115120
 4.2000e+000 115339 -1.0469e+002 -3.9529e+002 -1.3444e+001 20375 115172,115146,115313
 4.2000e+000 115362 -5.8118e+001 -3.1784e+002  1.1249e+001 20375 115385,115172,115313
 4.2000e+000 115411 -1.1851e+002 -3.1926e+002  1.3233e+001 20375 115042,115016,115385
 4.2000e+000 115434 -9.9764e+001 -3.4229e+002  2.1390e+001 20375 115042,115385,115313
 4.2000e+000 115891 -1.7750e+002 -3.4878e+002  4.3178e+001 19971 115617,115747,115643
 4.2000e+000 115868 -1.5149e+002 -2.8453e+002  3.9530e+001 19971 115617,115773,115747
 4.2000e+000 115845 -1.1075e+002 -5.2107e+002  6.3488e+000 19971 115643,115721,115695
 4.2000e+000 115822 -4.7673e+000 -2.6147e+002 -2.1412e+000 19971 115643,115747,115721
 4.2000e+000 115799 -9.4242e+001 -6.4492e+002 -5.3821e+001 19971 115643,115695,115669
 4.2000e+000 115992 -2.5431e+002 -6.5110e+002 -1.0898e+002 19659 115914,115966,115940
 4.2000e+000 116142 -4.0143e+001 -1.4966e+002  3.9957e+000 18997 116041,116093,116067
 4.2000e+000 116119 -7.9628e+001 -2.5108e+002  1.4657e+001 18997 116015,116093,116041
 4.2000e+000 116343 -6.7490e+001 -3.9136e+002 -1.1584e+001 18707 116193,116245,116219
 4.2000e+000 116320 -1.5103e+002 -4.2712e+002 -1.7728e+001 18707 116193,116271,116245
 4.2000e+000 116297 -1.3625e+002 -3.8073e+002 -2.7734e+001 18707 116167,116271,116193
 4.2000e+000 116747 -6.4014e+001 -3.5491e+002 -6.5030e+000 18301 116525,116629,116551
 4.2000e+000 116724 -3.7019e+001 -3.0124e+002  8.5340e+000 18301 116473,116629,116525
 4.2000e+000 116701 -2.4875e+001 -2.9260e+002 -1.5074e+001 18301 116473,116525,116499
 4.2000e+000 116678 -5.4297e+001 -3.6891e+002 -4.8372e+000 18301 116551,116603,116577
 4.2000e+000 116655 -7.5350e+001 -3.8154e+002 -1.0708e+001 18301 116551,116629,116603
 4.2000e+000 117147 -1.7823e+002 -4.0640e+002 -7.7860e-001 17747 116899,117029,116925
 4.2000e+000 117124 -9.3416e+001 -2.9560e+002  4.2143e+001 17747 116873,117029,116899
 4.2000e+000 117101 -1.7659e+002 -4.0312e+002 -1.2826e-001 17747 116925,117029,116951
 4.2000e+000 117078 -1.5359e+002 -3.4878e+002 -2.4054e+000 17747 116951,117029,117003
 4.2000e+000 117055 -2.0238e+002 -4.5905e+002 -3.0281e+001 17747 116951,117003,116977
 4.2000e+000 117368  2.3949e+001 -3.9150e+002  8.4588e+000 17293 117244,117296,117270
 4.2000e+000 117345 -2.7676e+001 -4.0415e+002 -5.6529e+000 17293 117192,117296,117244
 4.2000e+000 117322 -7.0266e+001 -3.7999e+002 -4.3611e+000 17293 117192,117244,117218
 4.2000e+000 117699 -3.7929e+001 -3.1681e+002 -3.7887e+001 16896 117526,117604,117552
 4.2000e+000 117676 -2.1028e+002 -4.8578e+002  3.0424e+001 16896 117500,117604,117526
 4.2000e+000 117653 -2.2255e+002 -3.8584e+002 -1.8868e+001 16896 117552,117604,117578
 4.2000e+000 117630 -1.9239e+002 -6.2776e+002  5.2588e+001 16896 117474,117604,117500
 4.2000e+000 117849 -4.4913e+002 -8.5964e+002 -3.2825e+001 16534 117722,117774,117748
 4.2000e+000 117826 -3.5520e+002 -1.0472e+003 -1.4082e+002 16534 117722,117800,117774
 4.2000e+000 118070 -2.4431e+000 -4.0240e+002  5.1137e+001 16194 117946,117998,117972
 4.2000e+000 118047 -6.6103e+001 -4.5335e+002  2.0738e+001 16194 117894,117998,117946
 4.2000e+000 118024 -2.3277e+002 -4.6486e+002 -9.4992e-002 16194 117894,117946,117920
 4.2000e+000 118173 -3.2599e+001 -3.8515e+002  0.0000e+000 15968 118095,118147,118121
 4.2000e+000 118276 -1.1700e+002 -4.1878e+002  1.6719e+000 15433 118299,118198,118250
 4.2000e+000 118325 -1.1816e+002 -4.2149e+002  1.6986e+000 15433 118224,118198,118299
 4.2000e+000 118450 -1.9891e+002 -4.4442e+002  4.2705e+001 421 118372,118424,118398
 4.3000e+000 69891 -8.8046e+001 -4.5228e+002  1.6298e+001 68988 69447,69681,69629
 4.3000e+000 69868  2.3628e+001 -4.0474e+002  1.2006e+001 68988 69421,69681,69447
 4.3000e+000 69845 -1.1003e+001 -2.3116e+002  1.1878e+000 68988 69447,69629,69577
 4.3000e+000 69822 -1.3863e+002 -4.6965e+002 -5.0853e+001 68988 69447,69577,69473
 4.3000e+000 69799 -2.6640e+001 -5.3997e+002  8.9702e+001 68988 69629,69681,69655
 4.3000e+000 69776 -1.5059e+002 -2.9191e+002  8.7295e+000 68988 69577,69629,69603
 4.3000e+000 69753 -1.1174e+002 -4.2179e+002 -6.3069e+001 68988 69473,69577,69551
 4.3000e+000 69730 -1.5697e+002 -8.2219e+002 -8.0633e+001 68988 69473,69551,69525
 4.3000e+000 69707 -2.5607e+002 -5.5025e+002  8.7704e-001 68988 69473,69525,69499
 4.3000e+000 69992 -2.6906e+002 -4.9678e+002 -6.9211e+001 68676 69914,69966,69940
 4.3000e+000 70392 -1.9684e+002 -4.0090e+002  2.9803e+001 68478 70118,70248,70144
 4.3000e+000 70369 -7.9807e-001 -4.0659e+002  8.5034e+001 68478 70118,70274,70248
 4.3000e+000 70346 -1.2169e+002 -3.0712e+002 -1.5474e+000 68478 70144,70222,70196
 4.3000e+000 70323 -1.0268e+002 -2.5773e+002 -1.3448e+001 68478 70144,70248,70222
 4.3000e+000 70300 -1.3061e+002 -3.3485e+002 -6.1047e+000 68478 70144,70196,70170
 4.3000e+000 70841  4.5272e+001 -2.8471e+002 -7.1627e+001 68280 70570,70622,70596
 4.3000e+000 70818 -1.4514e+002 -3.2246e+002 -1.7769e+001 68280 70544,70622,70570
 4.3000e+000 70795 -1.0944e+002 -2.4186e+002 -1.0846e+001 68280 70544,70674,70622
 4.3000e+000 70772 -9.4258e+001 -2.1683e+002  3.2267e+000 68280 70622,70674,70648
 4.3000e+000 70749 -1.5438e+002 -3.5971e+002  2.6138e+001 68280 70518,70674,70544
 4.3000e+000 70726  1.0551e+002 -3.7437e+002  1.0185e+002 68280 70518,70700,70674
 4.3000e+000 70991 -1.6983e+001 -1.4550e+003  4.3582e+001 67968 70864,70916,70890
 4.3000e+000 70968 -3.8819e+002 -1.4432e+003  1.6935e+002 67968 70864,70942,70916
 4.3000e+000 71141 -6.7040e+002 -1.2640e+003 -6.3787e+001 67770 71040,71092,71066
 4.3000e+000 71118 -5.8019e+002 -1.5236e+003  6.5365e+001 67770 71014,71092,71040
 4.3000e+000 71651 -1.0055e+002 -2.8836e+002 -4.4553e+001 67366 71746,71674,71458
 4.3000e+000 71628 -6.8673e+001 -2.3655e+002 -4.6960e+001 67366 71674,71354,71510
 4.3000e+000 71605 -9.0638e+001 -3.1874e+002 -4.1409e+001 67366 71746,71458,71432
 4.3000e+000 71582 -1.3934e+002 -3.2746e+002  1.6377e+001 67366 71354,71432,71380
 4.3000e+000 71559 -1.4800e+002 -2.4300e+002 -2.4165e+001 67366 71380,71432,71406
 4.3000e+000 71536 -7.1825e+001 -1.0585e+002 -1.7482e+000 67366 71328,71510,71354
 4.3000e+000 71700 -1.0928e+002 -2.6082e+002 -2.0713e+001 67366 71484,71458,71674
 4.3000e+000 71723 -7.8595e+001 -2.4650e+002 -1.5747e+001 67366 71484,71674,71510
 4.3000e+000 71772 -8.8743e+001 -2.5236e+002 -3.8419e+001 67366 71354,71674,71746
 4.3000e+000 71795 -7.7585e+001 -2.7921e+002 -3.8972e+001 67366 71354,71746,71432
 4.3000e+000 71896 -2.5509e+002 -5.4382e+002  0.0000e+000 67146 71818,71870,71844
 4.3000e+000 71997 -3.3878e+002 -4.7889e+002  9.6233e+001 66948 71919,71971,71945
 4.3000e+000 72149 -2.8798e+001 -3.4617e+002 -3.7820e+001 66700 72172,72074,72048
 4.3000e+000 72126 -1.2661e+002 -3.8652e+002 -1.4513e+001 66700 72172,72048,72022
 4.3000e+000 72198 -1.9428e+002 -4.2477e+002  2.7631e+001 66700 72244,72172,72100
 4.3000e+000 72221 -1.7637e+002 -3.9004e+002 -2.2629e+001 66700 72100,72172,72022
 4.3000e+000 72270 -1.0712e+002 -2.3412e+002 -2.5249e+001 66700 72074,72172,72244
 4.3000e+000 72623 -1.3767e+002 -3.6197e+002  9.1064e+000 66502 72424,72502,72450
 4.3000e+000 72600 -1.1757e+002 -3.0683e+002  5.8410e+000 66502 72398,72502,72424
 4.3000e+000 72577 -9.2337e+001 -3.4566e+002 -5.7622e+000 66502 72398,72528,72502
 4.3000e+000 72554 -1.3799e+002 -3.2454e+002 -1.8934e+000 66502 72450,72502,72476
 4.3000e+000 72920 -2.1381e+002 -4.3611e+002  1.1120e+001 65941 72672,72776,72750
 4.3000e+000 72897 -2.1441e+002 -3.7825e+002  4.0709e+001 65941 72646,72776,72672
 4.3000e+000 72874 -1.8727e+002 -4.2808e+002  1.3739e+001 65941 72672,72750,72724
 4.3000e+000 72851 -1.8856e+002 -3.4178e+002  3.0766e+001 65941 72672,72724,72698
 4.3000e+000 72828 -1.6702e+002 -3.8734e+002  4.1289e+001 65941 72646,72802,72776
 4.3000e+000 73241 -6.2604e+001 -3.1323e+002  1.8192e+001 65743 73264,73071,73045
 4.3000e+000 73218 -1.3644e+002 -3.4897e+002  2.9031e+001 65743 73480,73264,73045
 4.3000e+000 73195 -1.1495e+002 -3.1670e+002 -4.0152e+000 65743 73336,72967,73097
 4.3000e+000 73172 -1.8813e+002 -2.9164e+002 -3.0510e+001 65743 73408,72993,72967
 4.3000e+000 73149 -1.0641e+002 -3.1650e+002 -3.9461e+000 65743 72967,73123,73097
 4.3000e+000 73290 -8.9495e+001 -3.2520e+002  4.0987e+000 65743 73097,73071,73264
 4.3000e+000 73313 -1.0114e+002 -3.0275e+002  1.1115e+001 65743 73336,73097,73264
 4.3000e+000 73362 -1.6387e+002 -3.2494e+002 -2.0621e+001 65743 73408,72967,73336
 4.3000e+000 73385 -8.5464e+001 -2.9852e+002 -1.8430e+000 65743 73019,73336,73264
 4.3000e+000 73434 -1.4778e+002 -2.3232e+002  1.5603e+001 65743 73019,72993,73408
 4.3000e+000 73457 -8.9774e+001 -2.7506e+002  1.0328e+001 65743 73019,73408,73336
 4.3000e+000 73506 -6.4431e+001 -2.2386e+002 -1.4108e-001 65743 73019,73264,73480
 4.3000e+000 73989 -1.9674e+001 -2.5523e+002  2.9595e+001 65453 73793,73845,73819
 4.3000e+000 73966 -1.3695e+002 -2.8601e+002  3.4322e+001 65453 73741,73845,73793
 4.3000e+000 73943 -3.8856e+001 -2.3126e+002  1.2766e+001 65453 73715,73845,73741
 4.3000e+000 73920 -1.0942e+002 -3.0315e+002  5.6891e+001 65453 73741,73793,73767
 4.3000e+000 73897  2.3622e-002 -1.5329e+002 -1.5154e-001 65453 73715,73871,73845
 4.3000e+000 74357 -8.0584e+001 -3.1107e+002 -8.0414e+001 65141 74380,74138,74086
 4.3000e+000 74334 -1.4029e+002 -4.0907e+002 -5.3736e+001 65141 74380,74086,74060
 4.3000e+000 74311 -1.6047e+002 -4.0007e+002 -1.3676e+001 65141 74138,74190,74164
 4.3000e+000 74288 -1.2041e+002 -4.4366e+002 -1.7270e+001 65141 74060,74216,74190
 4.3000e+000 74265 -1.2758e+002 -4.6768e+002  7.5254e+000 65141 74034,74216,74060
 4.3000e+000 74242 -1.0125e+002 -2.5258e+002 -5.3673e+001 65141 74086,74138,74112
 4.3000e+000 74406 -1.1829e+002 -3.9857e+002 -3.2956e+001 65141 74190,74138,74380
 4.3000e+000 74429 -1.3656e+002 -4.3218e+002 -1.5386e+001 65141 74190,74380,74060
 4.3000e+000 74937 -1.6044e+002 -3.2012e+002 -7.7494e+001 64737 74614,74666,74640
 4.3000e+000 74914 -1.9754e+002 -3.9090e+002 -5.6701e+001 64737 74614,74796,74666
 4.3000e+000 74891 -1.4617e+002 -2.7792e+002 -1.0319e+001 64737 74960,74718,74666
 4.3000e+000 74868 -1.3049e+002 -3.0389e+002 -3.4913e+001 64737 74960,74666,74770
 4.3000e+000 74845 -1.3318e+002 -2.4756e+002 -3.6833e+001 64737 74666,74796,74770
 4.3000e+000 74822 -1.4410e+002 -3.0128e+002  4.3339e+000 64737 74666,74718,74692
 4.3000e+000 74986 -1.5558e+002 -3.0449e+002 -1.0758e+001 64737 74744,74718,74960
 4.3000e+000 75009 -1.4727e+002 -3.4386e+002 -3.6135e+001 64737 74744,74960,74770
 4.3000e+000 75306 -7.5946e+001 -2.8367e+002  4.0789e+001 64133 75329,75110,75084
 4.3000e+000 75283 -9.8078e+001 -3.3569e+002  1.1177e+001 64133 75401,75329,75084
 4.3000e+000 75260 -9.4549e+001 -3.4361e+002  1.4325e+001 64133 75401,75084,75058
 4.3000e+000 75237 -9.7079e+001 -3.9908e+002  4.9032e+001 64133 75473,75136,75110
 4.3000e+000 75214 -9.9851e+001 -3.1333e+002  2.9355e+000 64133 75032,75188,75162
 4.3000e+000 75355 -1.1285e+002 -3.7066e+002  3.7672e+001 64133 75473,75110,75329
 4.3000e+000 75378 -8.6290e+001 -3.2106e+002  2.6994e+000 64133 75162,75329,75032
 4.3000e+000 75427 -8.1625e+001 -3.0955e+002  1.0519e+000 64133 75032,75329,75401
 4.3000e+000 75450 -1.5297e+002 -3.7988e+002  3.7920e+001 64133 75545,75401,75058
 4.3000e+000 75499 -8.6599e+001 -3.6303e+002  1.4631e+001 64133 75162,75136,75473
 4.3000e+000 75522 -9.9420e+001 -3.1451e+002  1.2250e+001 64133 75162,75473,75329
 4.3000e+000 75571 -7.8835e+001 -2.1779e+002  9.4842e+000 64133 75032,75401,75545
 4.3000e+000 75851 -1.3291e+002 -3.1039e+002  7.1910e+000 63843 75874,75753,75727
 4.3000e+000 75828 -1.1594e+002 -3.0751e+002 -1.5926e+001 63843 75946,75874,75727
 4.3000e+000 75805 -1.2898e+002 -3.2586e+002 -7.7166e+000 63843 76018,75946,75727
 4.3000e+000 75900 -1.0219e+002 -2.9737e+002 -7.5528e+000 63843 75779,75753,75874
 4.3000e+000 75923 -1.0893e+002 -2.5792e+002 -3.3671e+001 63843 75779,75874,75675
 4.3000e+000 75972 -1.2898e+002 -2.9138e+002 -1.2645e+001 63843 75675,75874,75946
 4.3000e+000 75995 -1.1813e+002 -3.0398e+002 -2.1617e+001 63843 75675,75946,75701
 4.3000e+000 76044 -1.3037e+002 -3.1529e+002 -2.7356e+001 63843 75701,75946,76018
 4.3000e+000 76454  2.0632e+001 -6.4480e+001 -3.5580e+001 63439 76477,76255,76229
 4.3000e+000 76431 -2.9238e+001 -1.5021e+002 -3.6028e+000 63439 76477,76229,76359
 4.3000e+000 76408 -4.2922e+001 -1.1460e+002  6.3628e+001 63439 76307,76359,76333
 4.3000e+000 76385 -2.7193e+001 -1.5284e+002  1.0876e+001 63439 76255,76307,76281
 4.3000e+000 76503 -2.9531e+001 -1.3172e+002  1.5791e+001 63439 76307,76255,76477
 4.3000e+000 76526 -2.8259e+001 -1.6567e+002  3.8778e+001 63439 76307,76477,76359
 4.3000e+000 76926 -6.9506e+001 -2.1821e+002 -3.9664e+000 63049 76704,76782,76756
 4.3000e+000 76903 -1.0206e+002 -2.2767e+002 -2.0700e+001 63049 76704,76808,76782
 4.3000e+000 76880 -7.2980e+001 -2.4967e+002  3.0974e+000 63049 76704,76756,76730
 4.3000e+000 76857 -6.0706e+001 -1.5071e+002  9.6042e+000 63049 76678,76808,76704
 4.3000e+000 76834 -2.8414e+001 -3.5557e+001 -3.4209e+001 63049 76652,76808,76678
 4.3000e+000 77076 -3.2003e+001 -3.6213e+002 -2.1794e+000 62737 76975,77027,77001
 4.3000e+000 77053 -3.0601e+001 -4.0684e+002 -2.5909e+001 62737 76949,77027,76975
 4.3000e+000 77324 -1.5439e+002 -3.5504e+002 -5.1886e+000 62277 77347,77177,77125
 4.3000e+000 77301 -1.5269e+002 -3.4405e+002 -2.1502e+001 62277 77347,77125,77229
 4.3000e+000 77278 -1.4794e+002 -3.5691e+002 -2.9710e+001 62277 77099,77229,77125
 4.3000e+000 77255 -1.6069e+002 -4.2568e+002  2.3475e+000 62277 77125,77177,77151
 4.3000e+000 77373 -1.6324e+002 -3.8693e+002  7.1175e+000 62277 77203,77177,77347
 4.3000e+000 77396 -1.4284e+002 -3.5860e+002 -1.2324e+001 62277 77203,77347,77229
 4.3000e+000 77857 -8.1225e+001 -4.5000e+002  4.6200e+000 61758 77635,77739,77661
 4.3000e+000 77834 -1.2031e+002 -4.3387e+002 -1.6715e+001 61758 77583,77739,77635
 4.3000e+000 77811 -1.3947e+002 -5.4793e+002 -5.3585e+001 61758 77583,77635,77609
 4.3000e+000 77788 -1.1161e+002 -4.2579e+002  3.3797e+001 61758 77661,77713,77687
 4.3000e+000 77765 -1.1804e+002 -4.9269e+002  3.2606e+001 61758 77661,77739,77713
 4.3000e+000 78491 -1.2479e+002 -2.4598e+002  1.4608e+001 61418 78171,78301,78249
 4.3000e+000 78468 -1.0285e+002 -2.0723e+002  2.9917e+001 61418 78145,78301,78171
 4.3000e+000 78445 -9.4464e+001 -2.1827e+002 -1.0737e+001 61418 78171,78249,78223
 4.3000e+000 78422 -1.0069e+002 -2.0579e+002  1.1487e+001 61418 78145,78327,78301
 4.3000e+000 78399 -1.2926e+002 -2.7242e+002  1.3184e+000 61418 78249,78301,78275
 4.3000e+000 78376 -5.7083e+001 -2.3534e+002 -1.6929e+001 61418 78171,78223,78197
 4.3000e+000 78353 -1.1750e+002 -2.7476e+002 -6.4480e+000 61418 78119,78327,78145
 4.3000e+000 78690 -1.2451e+002 -2.9010e+002 -2.7503e+000 61014 78713,78566,78540
 4.3000e+000 78667 -8.5858e+001 -2.9640e+002  6.6031e-001 61014 78713,78540,78618
 4.3000e+000 78644 -1.4274e+002 -3.3535e+002 -3.1511e+001 61014 78514,78618,78540
 4.3000e+000 78739 -6.6569e+001 -2.8352e+002  2.9055e+001 61014 78592,78566,78713
 4.3000e+000 78762 -8.3239e+001 -3.1273e+002  1.5106e+000 61014 78785,78713,78618
 4.3000e+000 78811 -2.6099e+001 -2.9061e+002 -5.2937e+000 61014 78592,78713,78785
 4.3000e+000 79398 -5.8002e+001 -2.5518e+002 -2.5412e+001 60624 79101,79179,79153
 4.3000e+000 79375 -7.7551e+001 -2.8704e+002 -1.1880e+001 60624 79101,79231,79179
 4.3000e+000 79352 -6.0240e+001 -2.8615e+002 -2.0293e+001 60624 79075,79231,79101
 4.3000e+000 79329 -1.9031e+001 -3.4391e+002  3.8971e+001 60624 79075,79257,79231
 4.3000e+000 79306 -5.5248e+001 -2.0974e+002 -4.3351e+001 60624 79179,79231,79205
 4.3000e+000 79283 -4.6732e+001 -2.3029e+002 -1.6264e+001 60624 79101,79153,79127
 4.3000e+000 79776 -1.5096e+002 -3.8780e+002  3.4816e+001 60070 79528,79658,79606
 4.3000e+000 79753 -1.3378e+002 -3.0246e+002  1.0594e+000 60070 79502,79658,79528
 4.3000e+000 79730 -1.8226e+002 -3.7358e+002  5.0860e+001 60070 79528,79606,79580
 4.3000e+000 79707 -5.6057e+001 -3.2641e+002  5.6554e+000 60070 79606,79658,79632
 4.3000e+000 79684 -1.6380e+001 -2.2974e+002 -5.8871e+001 60070 79528,79580,79554
 4.3000e+000 80105 -1.0326e+002 -2.9378e+002  3.8381e+001 59758 80128,79958,79906
 4.3000e+000 80082 -1.1096e+002 -2.8115e+002  3.1515e+001 59758 80128,79906,80010
 4.3000e+000 80059 -1.4697e+002 -3.1109e+002  1.0260e+002 59758 79906,79958,79932
 4.3000e+000 80036 -1.6452e+002 -3.2960e+002  1.0218e+001 59758 79880,80010,79906
 4.3000e+000 80154 -1.0760e+002 -3.0166e+002  3.6691e+001 59758 79984,79958,80128
 4.3000e+000 80177 -1.1646e+002 -2.9194e+002  2.9553e+001 59758 79984,80128,80010
 4.3000e+000 80376 -7.9218e+001 -2.7920e+002  5.8696e+000 59312 80226,80304,80252
 4.3000e+000 80353 -8.1523e+001 -2.8607e+002  4.5856e+000 59312 80200,80304,80226
 4.3000e+000 80330 -1.2257e+002 -2.5393e+002  7.5295e+001 59312 80252,80304,80278
 4.3000e+000 80805 -1.0713e+002 -2.4609e+002 -3.7987e+001 58908 80900,80828,80638
 4.3000e+000 80782 -9.1557e+001 -2.8971e+002 -5.6994e+001 58908 80828,80560,80508
 4.3000e+000 80759 -1.1184e+002 -2.3193e+002 -1.4548e+001 58908 80900,80638,80612
 4.3000e+000 80736 -4.8787e+001 -2.5021e+002  9.9617e+001 58908 80482,80664,80508
 4.3000e+000 80713 -7.3405e+001 -2.1551e+002 -8.1335e+000 58908 80560,80612,80586
 4.3000e+000 80690 -1.0378e+002 -7.0598e+002 -1.3487e+002 58908 80508,80560,80534
 4.3000e+000 80854 -5.1834e+001 -2.6610e+002  2.0728e-001 58908 80664,80638,80828
 4.3000e+000 80877 -8.6478e+001 -3.8066e+002  5.8171e+000 58908 80664,80828,80508
 4.3000e+000 80926 -9.2034e+001 -2.0378e+002 -4.0717e+001 58908 80560,80828,80900
 4.3000e+000 80949 -1.0265e+002 -2.0386e+002 -1.4032e+001 58908 80560,80900,80612
 4.3000e+000 81246 -4.7377e+001 -2.3398e+002 -6.7563e+000 58482 81076,81128,81102
 4.3000e+000 81223 -1.1114e+002 -4.0134e+002 -4.0155e+001 58482 80972,81128,81076
 4.3000e+000 81200 -7.2007e+001 -2.7405e+002 -4.3224e+001 58482 80972,81076,81050
 4.3000e+000 81177 -1.5384e+002 -4.1504e+002 -1.1467e+001 58482 80998,81050,81024
 4.3000e+000 81154 -8.6217e+001 -3.4316e+002 -3.9900e+001 58482 80972,81050,80998
 4.3000e+000 81754 -1.2025e+002 -2.4700e+002  1.9241e+001 57828 81457,81613,81483
 4.3000e+000 81731 -1.3486e+002 -2.7343e+002  9.2724e+000 57828 81431,81613,81457
 4.3000e+000 81708 -1.3047e+002 -2.7085e+002  2.0523e+001 57828 81483,81613,81509
 4.3000e+000 81685 -1.5431e+002 -3.0633e+002  3.1043e+001 57828 81509,81613,81587
 4.3000e+000 81662 -1.6209e+002 -4.5168e+002  6.3143e+001 57828 81509,81587,81535
 4.3000e+000 81639 -9.3989e+001 -4.2673e+002  3.9690e+001 57828 81535,81587,81561
 4.3000e+000 82002 -1.8423e+002 -4.3975e+002 -1.3040e+000 57374 82025,81855,81829
 4.3000e+000 81979 -1.9620e+002 -4.1606e+002  1.8438e+001 57374 82025,81829,81907
 4.3000e+000 81956 -2.0225e+002 -3.9160e+002  1.1430e+001 57374 81803,81907,81829
 4.3000e+000 81933 -1.2057e+002 -3.5949e+002  1.7221e+001 57374 81777,81907,81803
 4.3000e+000 82051 -1.7866e+002 -4.1147e+002 -4.6491e+000 57374 81881,81855,82025
 4.3000e+000 82074 -1.8917e+002 -3.9241e+002  2.1341e+001 57374 81881,82025,81907
 4.3000e+000 82356 -1.0448e+002 -2.4670e+002 -1.7261e+001 56913 82180,82232,82206
 4.3000e+000 82333 -9.1052e+001 -2.3596e+002  2.2341e+001 56913 82180,82284,82232
 4.3000e+000 82310 -3.1728e+001 -1.9442e+002  4.4420e+001 56913 82379,82232,82284
 4.3000e+000 82405  2.9303e+001 -1.8680e+002  7.8901e+000 56913 82258,82232,82379
 4.3000e+000 82764 -1.0342e+002 -1.6566e+002 -1.6462e+001 56523 82614,82666,82640
 4.3000e+000 82741 -8.7766e+001 -1.6620e+002 -2.4730e+001 56523 82614,82692,82666
 4.3000e+000 82718 -7.5471e+001 -1.7875e+002 -5.1614e+001 56523 82588,82692,82614
 4.3000e+000 83368 -2.3464e+001 -2.9226e+002 -1.4408e+001 55969 82973,83155,83129
 4.3000e+000 83345  4.6623e+000 -2.8118e+002 -2.0744e+001 55969 82973,83181,83155
 4.3000e+000 83322 -7.7784e+001 -2.5677e+002 -1.2262e+001 55969 82973,83129,82999
 4.3000e+000 83299 -1.2264e+002 -2.6348e+002  5.2650e+000 55969 83391,83025,82999
 4.3000e+000 83276 -1.0656e+002 -2.7293e+002 -2.9671e-001 55969 83391,82999,83129
 4.3000e+000 83253 -2.3402e+001 -2.2855e+002  4.8635e+001 55969 83077,83129,83103
 4.3000e+000 83230 -1.3258e+002 -2.1517e+002 -1.0607e+001 55969 83025,83077,83051
 4.3000e+000 83207 -2.1730e+000 -2.7079e+002  2.6344e+001 55969 82947,83181,82973
 4.3000e+000 83417 -1.0743e+002 -2.5363e+002  1.1098e+001 55969 83077,83025,83391
 4.3000e+000 83440 -1.0206e+002 -2.6715e+002  2.9169e+000 55969 83077,83391,83129
 4.3000e+000 83946 -1.9547e+002 -4.3887e+002  6.7314e+001 55771 83969,83779,83727
 4.3000e+000 83923 -1.5424e+002 -3.5466e+002  4.3869e+001 55771 83969,83727,83623
 4.3000e+000 83900 -1.9161e+002 -1.9022e+002  2.6704e+001 55771 83623,83727,83649
 4.3000e+000 83877 -1.5618e+002 -7.6797e+002  2.7532e+001 55771 83727,83779,83753
 4.3000e+000 83854 -3.2069e+002 -2.9596e+002  1.2067e+002 55771 83675,83727,83701
 4.3000e+000 83831 -2.9826e+002 -2.9921e+002  1.1813e+002 55771 83649,83727,83675
 4.3000e+000 83995 -1.8572e+002 -4.5802e+002 -3.9947e+001 55771 83805,83779,83969
 4.3000e+000 84018 -1.0030e+002 -2.8950e+002 -7.2059e+001 55771 83805,83969,83623
 4.3000e+000 84168 -8.9154e+001 -2.1956e+002 -7.1148e+000 55367 84191,84067,84041
 4.3000e+000 84145 -8.7595e+001 -2.4887e+002 -4.7051e+000 55367 84191,84041,84119
 4.3000e+000 84217 -9.5206e+001 -2.0238e+002 -6.5663e+000 55367 84093,84067,84191
 4.3000e+000 84240 -8.4338e+001 -2.1942e+002  4.1157e+000 55367 84093,84191,84119
 4.3000e+000 84571 -4.7788e+001 -3.4350e+002 -3.4578e+001 54913 84398,84450,84424
 4.3000e+000 84548 -3.9420e+001 -3.1424e+002 -1.7163e+001 54913 84372,84450,84398
 4.3000e+000 84525 -8.3221e+001 -3.5175e+002  1.1696e+001 54913 84346,84450,84372
 4.3000e+000 84502 -2.8862e+001 -2.2733e+002 -2.9793e+001 54913 84346,84476,84450
 4.3000e+000 85126 -1.7541e+002 -3.7772e+002 -1.3224e+001 54402 84858,84936,84910
 4.3000e+000 85103 -1.3897e+002 -3.0350e+002 -3.5549e+001 54402 84806,84936,84858
 4.3000e+000 85080 -1.6366e+002 -2.7468e+002 -2.6573e+001 54402 84780,84936,84806
 4.3000e+000 85057 -1.3733e+002 -3.3745e+002 -1.4600e+001 54402 84806,84858,84832
 4.3000e+000 85034 -1.4656e+002 -2.5879e+002  1.2369e+001 54402 84780,84962,84936
 4.3000e+000 85011 -2.0451e+002 -2.2726e+002 -4.4886e+000 54402 84858,84910,84884
 4.3000e+000 84988 -1.4248e+002 -2.5676e+002  1.5804e+001 54402 84754,84962,84780
 4.3000e+000 85396 -1.3750e+002 -1.6722e+002 -1.1010e+001 53998 85197,85249,85223
 4.3000e+000 85373 -1.0725e+002 -2.1129e+002 -2.1851e+000 53998 85197,85275,85249
 4.3000e+000 85350 -1.3535e+002 -2.4826e+002 -1.4916e+001 53998 85171,85275,85197
 4.3000e+000 85327 -6.6227e+001 -2.3134e+002 -1.8522e+001 53998 85171,85301,85275
 4.3000e+000 85749 -7.9674e+001 -2.7386e+002 -6.1387e+000 53636 85524,85628,85550
 4.3000e+000 85726 -1.2441e+002 -3.0286e+002  9.1531e+000 53636 85524,85654,85628
 4.3000e+000 85703 -4.6052e+001 -2.9175e+002 -2.8435e+001 53636 85550,85602,85576
 4.3000e+000 85680 -7.7431e+001 -2.7099e+002 -1.3669e+001 53636 85550,85628,85602
 4.3000e+000 86127 -3.4034e+001 -2.7647e+002  4.2085e+001 52982 86150,85957,85879
 4.3000e+000 86104 -9.6424e+001 -3.2041e+002  2.2925e+001 52982 86150,85879,85853
 4.3000e+000 86081 -2.8952e+001 -3.9629e+002  7.8426e+001 52982 85957,86009,85983
 4.3000e+000 86058 -1.1676e+002 -2.9696e+002  3.5463e+001 52982 85879,85957,85931
 4.3000e+000 86035 -7.3798e+001 -2.7920e+002 -1.0867e+001 52982 85879,85931,85905
 4.3000e+000 86176  5.8972e+000 -3.2550e+002  3.4026e+001 52982 86009,85957,86150
 4.3000e+000 86199 -3.1063e+001 -3.5456e+002  2.0771e+001 52982 86009,86150,85853
 4.3000e+000 86398 -6.9061e+001 -2.2681e+002  2.1361e+001 52542 86421,86248,86222
 4.3000e+000 86375 -1.1829e+002 -2.3052e+002 -1.6652e+000 52542 86421,86222,86300
 4.3000e+000 86352 -1.1729e+002 -2.4793e+002 -1.0902e+001 52542 86222,86326,86300
 4.3000e+000 86447 -1.9559e+001 -2.2722e+002  4.0321e+001 52542 86274,86248,86421
 4.3000e+000 86470 -6.5785e+001 -2.3782e+002  1.1327e+001 52542 86274,86421,86300
 4.3000e+000 86669 -1.0991e+002 -2.3636e+002 -3.6948e+001 52230 86692,86571,86545
 4.3000e+000 86646 -1.0513e+002 -2.2102e+002 -2.0491e+001 52230 86692,86545,86519
 4.3000e+000 86623 -1.4493e+002 -2.3165e+002 -3.5499e+001 52230 86493,86597,86519
 4.3000e+000 86718 -1.1769e+002 -2.4128e+002 -4.4954e+001 52230 86597,86571,86692
 4.3000e+000 86741 -1.2412e+002 -2.3069e+002 -2.9577e+001 52230 86597,86692,86519
 4.3000e+000 87153 -1.4543e+002 -2.3127e+002  8.1750e+000 51640 86980,87058,87032
 4.3000e+000 87130 -1.4628e+002 -2.3796e+002  5.4457e+000 51640 86928,87058,86980
 4.3000e+000 87107 -1.5496e+002 -3.2192e+002 -1.7010e+001 51640 86928,86980,86954
 4.3000e+000 87084 -7.8726e+001 -2.0294e+002 -4.0192e+000 51640 86980,87032,87006
 4.3000e+000 87659 -6.9526e+001 -2.0824e+002  5.1419e+000 51029 87682,87440,87362
 4.3000e+000 87636 -6.0377e+001 -2.1949e+002 -2.1044e+001 51029 87682,87362,87336
 4.3000e+000 87613 -9.8147e+001 -3.0389e+002 -6.0487e+000 51029 87440,87518,87466
 4.3000e+000 87590 -1.1004e+002 -2.0950e+002  8.2112e+000 51029 87362,87440,87414
 4.3000e+000 87567 -9.0765e+001 -1.5910e+002  3.5548e+001 51029 87362,87414,87388
 4.3000e+000 87544 -1.3786e+002 -2.6237e+002  1.1371e+001 51029 87466,87518,87492
 4.3000e+000 87708 -6.8249e+001 -2.3096e+002 -1.8058e+000 51029 87518,87440,87682
 4.3000e+000 87731 -6.5800e+001 -2.6514e+002 -1.8282e+001 51029 87518,87682,87336
 4.3000e+000 87881 -1.3931e+002 -2.9804e+002  6.8487e+000 50739 87780,87832,87806
 4.3000e+000 87858 -1.5763e+002 -2.9972e+002 -1.3208e+001 50739 87754,87832,87780
 4.3000e+000 88468 -7.8370e+001 -1.9461e+002  5.7524e+000 50235 88171,88327,88197
 4.3000e+000 88445 -1.7541e+002 -1.9140e+002 -3.1429e+001 50235 88145,88327,88171
 4.3000e+000 88422  3.1928e-001 -1.0475e+002 -1.5126e-001 50235 88275,88327,88301
 4.3000e+000 88399 -5.6476e+001 -1.2909e+002 -8.0112e-001 50235 88197,88327,88275
 4.3000e+000 88376 -3.4036e+001 -1.8053e+002 -3.2318e+000 50235 88197,88275,88223
 4.3000e+000 88353 -3.5112e+001 -2.3588e+002 -2.4755e+001 50235 88223,88275,88249
 4.3000e+000 88895 -1.3233e+002 -3.1312e+002  6.8850e+000 49873 88918,88728,88676
 4.3000e+000 88872 -1.1338e+002 -2.9088e+002 -5.1438e+000 49873 88918,88676,88624
 4.3000e+000 88849 -8.9674e+001 -2.6555e+002 -1.2019e+001 49873 88598,88754,88624
 4.3000e+000 88826 -6.9346e+001 -2.7325e+002 -6.8228e+000 49873 88624,88676,88650
 4.3000e+000 88803 -1.1427e+002 -3.7966e+002  9.2381e+000 49873 88676,88728,88702
 4.3000e+000 88780 -1.1014e+002 -2.7356e+002 -1.4737e+001 49873 88572,88754,88598
 4.3000e+000 88944 -1.0968e+002 -3.1132e+002 -7.1679e+000 49873 88754,88728,88918
 4.3000e+000 88967 -1.0229e+002 -3.0299e+002 -1.6874e+001 49873 88754,88918,88624
 4.3000e+000 89473 -1.8572e+002 -2.9223e+002 -3.3272e+001 49583 89176,89306,89202
 4.3000e+000 89450 -1.8755e+002 -2.8523e+002 -5.1767e+001 49583 89176,89332,89306
 4.3000e+000 89427 -1.0976e+002 -3.2208e+002  1.5681e+001 49583 89496,89228,89202
 4.3000e+000 89404 -1.1087e+002 -3.2884e+002  1.8399e+001 49583 89496,89202,89280
 4.3000e+000 89381 -2.2972e+002 -4.1027e+002 -6.9543e+001 49583 89202,89306,89280
 4.3000e+000 89358 -1.4707e+002 -2.8980e+002 -6.0504e+001 49583 89150,89332,89176
 4.3000e+000 89522 -1.0468e+002 -2.7652e+002  9.1953e+000 49583 89254,89228,89496
 4.3000e+000 89545 -1.2660e+002 -3.1532e+002  1.7942e+001 49583 89254,89496,89280
 4.3000e+000 89825  1.9820e+001 -2.9115e+002  1.5317e+001 49179 89701,89753,89727
 4.3000e+000 89802 -4.6532e+001 -2.6453e+002  2.1061e+001 49179 89675,89753,89701
 4.3000e+000 89779 -3.3664e+001 -2.3077e+002  1.6456e+001 49179 89848,89753,89675
 4.3000e+000 89874 -1.5526e+002 -2.6943e+002 -1.6512e+001 49179 89649,89753,89848
 4.3000e+000 90223 -9.8557e+001 -2.9197e+002 -3.3498e+001 48739 90024,90102,90076
 4.3000e+000 90200 -9.7062e+001 -2.7564e+002 -1.2468e+001 48739 90024,90128,90102
 4.3000e+000 90177 -5.4689e+000 -2.8581e+002 -3.4476e+001 48739 90024,90076,90050
 4.3000e+000 90154 -3.6464e+001 -2.6443e+002  1.9907e+001 48739 89998,90128,90024
 4.3000e+000 90603 -8.9649e+001 -2.2761e+002  4.9912e+001 48335 90381,90485,90459
 4.3000e+000 90580 -1.1854e+002 -2.7193e+002  3.6945e+001 48335 90355,90485,90381
 4.3000e+000 90557 -4.7140e+001 -9.6530e+001  2.3857e+001 48335 90381,90433,90407
 4.3000e+000 90534 -8.8588e+001 -2.3865e+002  3.6258e+001 48335 90381,90459,90433
 4.3000e+000 90511  2.8440e+001 -1.9015e+002  7.1773e+001 48335 90329,90485,90355
 4.3000e+000 90753 -5.2010e+000 -1.5131e+002  8.9870e+001 47824 90776,90652,90704
 4.3000e+000 90730 -7.8488e+001 -2.6042e+002  4.3368e+001 47824 90626,90704,90652
 4.3000e+000 90802 -3.6636e+001 -1.9665e+002  7.2123e+001 47824 90678,90652,90776
 4.3000e+000 91131 -9.2475e+001 -3.1673e+002  1.4293e+001 47427 91154,90958,90906
 4.3000e+000 91108 -1.6243e+002 -3.4518e+002 -8.8489e-001 47427 91154,90906,91036
 4.3000e+000 91085 -1.6069e+002 -2.7817e+002 -2.4745e+001 47427 90958,91010,90984
 4.3000e+000 91062 -9.1917e+001 -2.9216e+002  1.6821e+001 47427 90906,90958,90932
 4.3000e+000 91180 -1.3367e+002 -3.1597e+002 -3.1450e+001 47427 91010,90958,91154
 4.3000e+000 91203 -2.0146e+002 -3.4542e+002 -4.7884e+001 47427 91010,91154,91036
 4.3000e+000 91583 -1.6528e+002 -3.0640e+002 -1.8266e+001 46873 91309,91439,91335
 4.3000e+000 91560 -1.7385e+002 -3.1420e+002 -1.4812e+001 46873 91309,91465,91439
 4.3000e+000 91537 -2.4449e+002 -3.5531e+002 -8.6447e+001 46873 91361,91439,91413
 4.3000e+000 91514 -1.8596e+002 -3.1965e+002 -4.6451e+001 46873 91335,91439,91361
 4.3000e+000 91491 -8.5021e+001 -3.0681e+002 -8.2043e+001 46873 91361,91413,91387
 4.3000e+000 91880 -1.0158e+002 -3.1765e+002 -6.9660e+000 46526 91606,91710,91658
 4.3000e+000 91857 -1.0659e+002 -3.3257e+002  2.6019e+000 46526 91606,91762,91710
 4.3000e+000 91834 -6.2021e+001 -3.0692e+002 -3.6373e+001 46526 91606,91658,91632
 4.3000e+000 91811 -1.2073e+002 -2.9660e+002  5.6880e+000 46526 91658,91710,91684
 4.3000e+000 91788 -7.0843e+001 -2.2674e+002  1.0274e+001 46526 91710,91762,91736
 4.3000e+000 92211 -5.5646e+001 -1.2849e+002 -9.2564e+000 45700 91986,92064,92038
 4.3000e+000 92188 -7.3234e+001 -1.9424e+002  2.1586e+000 45700 91986,92116,92064
 4.3000e+000 92165 -4.3470e+001 -1.1122e+002 -2.4753e+001 45700 91986,92038,92012
 4.3000e+000 92142 -4.9976e+001 -2.1150e+002  2.5633e+001 45700 92064,92116,92090
 4.3000e+000 92766 -1.4636e+002 -2.7613e+002  1.7280e+001 45452 92446,92602,92576
 4.3000e+000 92743 -2.0864e+002 -2.6450e+002 -2.1097e+001 45452 92420,92602,92446
 4.3000e+000 92720 -1.6408e+002 -2.8559e+002  4.4839e+001 45452 92789,92524,92498
 4.3000e+000 92697 -1.8809e+002 -2.8023e+002  3.7329e+001 45452 92789,92498,92446
 4.3000e+000 92674 -1.6167e+002 -3.0410e+002 -2.9144e+000 45452 92524,92576,92550
 4.3000e+000 92651 -2.4721e+002 -2.8848e+002  1.5339e+002 45452 92446,92498,92472
 4.3000e+000 92628 -1.6339e+002 -3.8020e+002 -1.0028e+002 45452 92394,92602,92420
 4.3000e+000 92815 -1.4722e+002 -2.8854e+002  3.8373e+001 45452 92576,92524,92789
 4.3000e+000 92838 -1.6607e+002 -2.7929e+002  3.4022e+001 45452 92576,92789,92446
 4.3000e+000 92939 -1.1949e+002 -3.7504e+002 -7.7768e+001 44998 92861,92913,92887
 4.3000e+000 93319 -2.2977e+001 -3.8057e+002  7.2928e+001 44601 93123,93201,93149
 4.3000e+000 93296 -1.0470e+002 -3.8844e+002 -3.8559e+001 44601 93045,93201,93123
 4.3000e+000 93273 -8.3538e+001 -2.2216e+002 -5.4912e+001 44601 93045,93123,93071
 4.3000e+000 93250 -7.9138e+001 -2.0524e+002 -3.4227e+001 44601 93071,93123,93097
 4.3000e+000 93227 -6.3728e+000 -2.1373e+002  7.8496e+001 44601 93149,93201,93175
 4.3000e+000 93697 -8.0924e+001 -4.1662e+002  2.2413e+001 44026 93720,93553,93527
 4.3000e+000 93674 -1.4467e+002 -3.5376e+002  3.0759e+001 44026 93720,93527,93449
 4.3000e+000 93651 -1.5930e+002 -3.6593e+002 -4.9985e+000 44026 93449,93527,93501
 4.3000e+000 93628 -1.1715e+002 -2.8455e+002 -6.2672e+001 44026 93423,93579,93449
 4.3000e+000 93605 -3.6642e+001 -2.9048e+002  2.7137e+001 44026 93449,93501,93475
 4.3000e+000 93746 -3.5363e+001 -3.7063e+002  4.0510e+000 44026 93579,93553,93720
 4.3000e+000 93769 -1.0265e+002 -3.0915e+002  1.3250e+001 44026 93579,93720,93449
 4.3000e+000 94066 -8.0470e+001 -3.2753e+002 -4.4048e+001 43579 94089,93818,93792
 4.3000e+000 94043 -1.3408e+002 -3.6078e+002 -2.8982e+001 43579 94161,94089,93792
 4.3000e+000 94020 -1.3150e+002 -3.6224e+002 -1.5219e+001 43579 94161,93792,93948
 4.3000e+000 93997 -1.4259e+002 -2.9250e+002 -1.5511e+001 43579 94233,93870,93818
 4.3000e+000 93974 -8.1424e+001 -3.0309e+002  9.5653e+000 43579 93818,93870,93844
 4.3000e+000 94115 -1.3842e+002 -2.9475e+002 -3.3523e+001 43579 94233,93818,94089
 4.3000e+000 94138 -1.8119e+002 -3.2687e+002 -2.0616e+001 43579 93896,94089,93922
 4.3000e+000 94187 -1.2507e+002 -3.4056e+002 -2.7120e+001 43579 93922,94089,94161
 4.3000e+000 94210 -1.2074e+002 -3.3967e+002 -1.2120e+001 43579 93922,94161,93948
 4.3000e+000 94259 -1.6562e+002 -3.2677e+002 -3.7768e+000 43579 93896,93870,94233
 4.3000e+000 94282 -1.5024e+002 -3.1954e+002 -2.4448e+001 43579 93896,94233,94089
 4.3000e+000 94481 -1.0932e+002 -3.3619e+002 -2.2681e+000 43239 94305,94383,94357
 4.3000e+000 94458 -9.5071e+001 -3.0778e+002  3.8065e+001 43239 94305,94409,94383
 4.3000e+000 94435 -8.3750e+001 -3.5964e+002 -8.7005e+000 43239 94305,94357,94331
 4.3000e+000 94633 -4.0715e+001 -2.1477e+002  4.9964e+001 42827 94656,94532,94506
 4.3000e+000 94610 -8.9898e+001 -2.3716e+002  5.5028e+001 42827 94728,94656,94506
 4.3000e+000 94682 -5.0663e+001 -2.4617e+002  4.2667e+001 42827 94558,94532,94656
 4.3000e+000 94705 -2.1477e+001 -2.4241e+002  2.6519e+001 42827 94988,94860,94656
 4.3000e+000 94754 -5.3696e+001 -2.2055e+002  1.7977e+001 42827 94988,94656,94728
 4.3000e+000 94886  8.0375e+000 -2.2875e+002  2.9935e+001 42827 94558,94656,94860
 4.3000e+000 95014  5.3955e+000 -2.2359e+002  1.8312e+001 42827 94584,94860,94988
 4.3000e+000 95037 -2.1917e+001 -2.0260e+002  1.0373e+001 42827 94584,94988,94728
 4.3000e+000 95236 -4.9570e+001 -2.6997e+002  3.5061e+001 42537 95259,95112,95060
 4.3000e+000 95213 -6.0473e+001 -2.6539e+002  3.3240e+001 42537 95259,95060,95164
 4.3000e+000 95190 -2.6410e+001 -2.7520e+002 -5.1351e+000 42537 95060,95112,95086
 4.3000e+000 95285 -5.6964e+001 -2.7102e+002  3.0156e+001 42537 95138,95112,95259
 4.3000e+000 95308 -6.7592e+001 -2.6875e+002  2.6801e+001 42537 95138,95259,95164
 4.3000e+000 95816 -1.2027e+002 -3.2798e+002 -2.3526e+001 41969 95493,95597,95519
 4.3000e+000 95793 -1.7677e+002 -3.1440e+002  2.6299e+001 41969 95493,95649,95597
 4.3000e+000 95770 -1.3478e+002 -2.9818e+002  2.4599e+001 41969 95493,95675,95649
 4.3000e+000 95747 -1.4325e+002 -3.9731e+002  2.2951e+001 41969 95597,95649,95623
 4.3000e+000 95724 -1.8665e+002 -3.0415e+002 -3.7205e+001 41969 95519,95597,95571
 4.3000e+000 95701 -1.6376e+002 -2.6388e+002 -7.6156e+001 41969 95519,95571,95545
 4.3000e+000 96371 -1.4785e+002 -3.4747e+002  4.2340e+001 41579 96025,96207,96181
 4.3000e+000 96348  4.1372e+001 -2.6197e+002 -1.0924e+001 41579 95999,96207,96025
 4.3000e+000 96325 -1.6553e+002 -2.7107e+002 -2.8894e+001 41579 96129,96181,96155
 4.3000e+000 96302 -6.4050e+001 -2.4593e+002  2.3180e+000 41579 96025,96181,96129
 4.3000e+000 96279 -1.3355e+002 -3.5589e+002  4.7119e+001 41579 96025,96129,96051
 4.3000e+000 96256 -1.6487e+002 -3.5517e+002  5.7104e+001 41579 96051,96103,96077
 4.3000e+000 96233 -6.2871e+001 -2.6631e+002  8.4071e+000 41579 96051,96129,96103
 4.3000e+000 96877 -3.7419e+001 -2.2290e+002 -2.4779e+001 41182 96972,96900,96632
 4.3000e+000 96854 -4.7785e+001 -1.6914e+002 -2.7084e+001 41182 96900,96554,96736
 4.3000e+000 96831 -3.5931e+001 -2.2200e+002 -2.1955e+001 41182 96972,96632,96580
 4.3000e+000 96808 -4.9489e+001 -2.1060e+002  2.0965e+001 41182 96632,96684,96658
 4.3000e+000 96785 -8.5120e+001 -2.2455e+002  2.7869e+001 41182 96684,96736,96710
 4.3000e+000 96762 -1.2694e+002 -2.8084e+002  4.5077e+001 41182 96580,96632,96606
 4.3000e+000 96926 -3.5188e+001 -2.4762e+002 -2.4684e+001 41182 96684,96632,96900
 4.3000e+000 96949 -7.0430e+001 -2.2042e+002 -4.3760e+001 41182 96684,96900,96736
 4.3000e+000 96998 -4.3005e+001 -2.2629e+002 -2.8765e+001 41182 96554,96900,96972
 4.3000e+000 97021 -4.1106e+001 -2.2300e+002 -2.5588e+001 41182 96554,96972,96580
 4.3000e+000 97576 -2.0332e+002 -4.9775e+002 -6.9506e+001 40678 97230,97412,97282
 4.3000e+000 97553 -2.0750e+001 -4.0689e+002  2.0049e+001 40678 97204,97412,97230
 4.3000e+000 97530 -6.1745e+001 -3.8184e+002 -6.0370e+001 40678 97282,97360,97308
 4.3000e+000 97507 -9.2416e+001 -3.8897e+002 -2.5320e+001 40678 97282,97412,97360
 4.3000e+000 97484 -3.0160e+001 -2.3310e+002 -5.2484e+001 40678 97308,97360,97334
 4.3000e+000 97461 -1.1887e+002 -4.6396e+002 -1.4068e+001 40678 97360,97412,97386
 4.3000e+000 97438 -1.1311e+002 -3.0665e+002 -4.3703e+001 40678 97230,97282,97256
 4.3000e+000 97976 -1.5575e+002 -2.6067e+002 -6.9571e+000 40244 97702,97832,97754
 4.3000e+000 97953 -1.3162e+002 -2.4964e+002 -1.3929e+001 40244 97702,97858,97832
 4.3000e+000 97930 -1.6685e+002 -3.0629e+002 -6.5915e+001 40244 97702,97754,97728
 4.3000e+000 97907 -1.3315e+002 -2.9218e+002  3.2145e+001 40244 97780,97832,97806
 4.3000e+000 97884 -1.4381e+002 -2.5319e+002 -2.7438e+000 40244 97754,97832,97780
 4.3000e+000 98482 -8.8383e+001 -2.4870e+002  3.9475e+001 39690 98505,98185,98159
 4.3000e+000 98459 -9.0165e+001 -2.4177e+002  3.8394e+001 39690 98505,98159,98289
 4.3000e+000 98436 -1.6682e+002 -3.5672e+002  9.6098e+001 39690 98159,98315,98289
 4.3000e+000 98413 -7.0683e+001 -2.2521e+002  3.5862e+001 39690 98211,98289,98263
 4.3000e+000 98390 -4.1273e+001 -1.4623e+002  2.1590e+001 39690 98211,98263,98237
 4.3000e+000 98367 -4.5580e+001 -2.2955e+002  3.8049e+001 39690 98159,98341,98315
 4.3000e+000 98531 -9.0376e+001 -2.4481e+002  3.4837e+001 39690 98211,98185,98505
 4.3000e+000 98554 -9.0045e+001 -2.3357e+002  3.5168e+001 39690 98211,98505,98289
 4.3000e+000 99109 -8.4294e+001 -2.2030e+002 -1.3214e+001 39072 99132,98867,98789
 4.3000e+000 99086 -8.0886e+001 -2.2870e+002 -2.0302e+001 39072 99132,98789,98763
 4.3000e+000 99063 -1.2588e+002 -3.6522e+002  4.0746e+001 39072 98867,98945,98919
 4.3000e+000 99040 -7.2119e+001 -2.3261e+002 -2.9485e+000 39072 98789,98867,98841
 4.3000e+000 99017 -1.6750e+002 -2.5841e+002  1.1517e+001 39072 98867,98919,98893
 4.3000e+000 98994 -1.1767e+002 -2.1694e+002  4.5821e+001 39072 98789,98841,98815
 4.3000e+000 98971 -1.2050e+002 -2.6212e+002 -1.7014e+001 39072 98737,98945,98763
 4.3000e+000 99158 -8.1787e+001 -2.3104e+002 -1.4809e+001 39072 98945,98867,99132
 4.3000e+000 99181 -8.1148e+001 -2.4576e+002 -1.7712e+001 39072 98945,99132,98763
 4.3000e+000 99510 -7.1481e+001 -2.0568e+002  1.3578e+001 38668 99311,99389,99363
 4.3000e+000 99487 -6.0313e+001 -2.1473e+002 -6.5924e+000 38668 99285,99389,99311
 4.3000e+000 99464 -1.3613e+002 -2.9807e+002  2.5890e+001 38668 99285,99415,99389
 4.3000e+000 99441 -6.5101e+001 -2.2204e+002  2.2423e+001 38668 99311,99363,99337
 4.3000e+000 99758 -8.2245e+001 -3.3187e+002  5.1903e+001 38164 99781,99611,99585
 4.3000e+000 99735 -3.5129e+001 -3.4019e+002  5.7284e+001 38164 99781,99585,99533
 4.3000e+000 99712 -1.2318e+002 -3.1309e+002  3.6493e+001 38164 99611,99663,99637
 4.3000e+000 99689  1.4608e+001 -3.2337e+002 -2.1459e+001 38164 99533,99585,99559
 4.3000e+000 99807 -1.0906e+002 -3.3020e+002  6.5092e+001 38164 99663,99611,99781
 4.3000e+000 99830 -7.3245e+001 -3.4401e+002  6.3102e+001 38164 99663,99781,99533
 4.3000e+000 100232 -9.9529e+001 -2.5232e+002  3.7943e+000 37702 99984,100114,100088
 4.3000e+000 100209 -8.1267e+001 -2.7551e+002  2.7907e+001 37702 99958,100114,99984
 4.3000e+000 100186 -1.4340e+002 -3.1099e+002 -1.9495e+001 37702 100010,100088,100036
 4.3000e+000 100163 -9.8754e+001 -2.5252e+002  1.1855e-002 37702 99984,100088,100010
 4.3000e+000 100140 -8.5916e+001 -2.3065e+002 -6.6834e+001 37702 100036,100088,100062
 4.3000e+000 100640 -2.0634e+002 -2.9282e+002  3.6704e+001 37262 100493,100545,100519
 4.3000e+000 100617 -1.8534e+002 -3.3045e+002  1.8378e+001 37262 100441,100545,100493
 4.3000e+000 100594 -7.7378e+001 -2.4767e+002 -4.4359e+001 37262 100415,100545,100441
 4.3000e+000 100571 -2.0565e+002 -3.4782e+002 -1.4859e+001 37262 100441,100493,100467
 4.3000e+000 101146 -1.4353e+002 -2.4345e+002 -1.2897e+000 36872 100823,100979,100849
 4.3000e+000 101123 -1.3937e+002 -2.2583e+002 -2.2237e+001 36872 100823,101005,100979
 4.3000e+000 101100 -1.4988e+002 -3.5100e+002  4.8233e+001 36872 101169,100901,100849
 4.3000e+000 101077 -1.1546e+002 -2.7905e+002  2.5751e+001 36872 101169,100849,100979
 4.3000e+000 101054 -8.0703e+001 -2.9007e+002 -1.8073e+001 36872 100927,100979,100953
 4.3000e+000 101031 -8.1596e+001 -3.9853e+002  6.7363e+001 36872 100849,100901,100875
 4.3000e+000 101195 -1.0302e+002 -3.7208e+002  3.1323e+000 36872 100927,100901,101169
 4.3000e+000 101218 -8.2170e+001 -3.3419e+002 -1.4920e+001 36872 100927,101169,100979
 4.3000e+000 101773 -1.6905e+002 -2.6221e+002  4.7790e+001 36418 101479,101609,101583
 4.3000e+000 101750 -1.7292e+002 -2.8359e+002  5.0948e+001 36418 101453,101609,101479
 4.3000e+000 101727 -1.1505e+002 -2.7798e+002 -2.5790e+000 36418 101796,101531,101479
 4.3000e+000 101704 -1.5975e+002 -3.0895e+002  1.9833e+001 36418 101796,101479,101583
 4.3000e+000 101681 -9.9619e+001 -2.4223e+002 -8.3797e+000 36418 101479,101531,101505
 4.3000e+000 101658 -5.0931e+000 -2.5576e+002  2.0585e+000 36418 101401,101609,101453
 4.3000e+000 101635 -5.1407e+001 -2.6569e+002 -4.4718e+000 36418 101401,101453,101427
 4.3000e+000 101822 -1.2558e+002 -2.5523e+002 -4.4818e+001 36418 101557,101531,101796
 4.3000e+000 101845 -1.7691e+002 -2.6624e+002 -2.4610e+001 36418 101557,101796,101583
 4.3000e+000 102174 -1.7473e+001 -1.2837e+002 -3.2437e+001 35914 101949,102053,101975
 4.3000e+000 102151 -6.5821e+001 -1.2555e+002 -2.5809e+001 35914 101949,102079,102053
 4.3000e+000 102128 -6.5089e+001 -1.5086e+002 -1.6056e+001 35914 101975,102053,102027
 4.3000e+000 102105 -4.1824e+001 -1.1555e+002 -2.6177e+001 35914 101975,102027,102001
 4.3000e+000 102631 -5.5101e+001 -2.8496e+002  1.1289e+001 35574 102383,102513,102487
 4.3000e+000 102608 -4.0923e+001 -2.9995e+002  8.7619e+000 35574 102357,102513,102383
 4.3000e+000 102585 -9.4211e+001 -2.9388e+002  1.1787e+001 35574 102409,102487,102435
 4.3000e+000 102562 -1.0029e+002 -3.0166e+002  8.0746e+000 35574 102383,102487,102409
 4.3000e+000 102539 -9.3960e+001 -2.9554e+002  1.2930e+001 35574 102435,102487,102461
 4.3000e+000 103009 -1.5246e+002 -2.8021e+002 -1.9456e+001 35170 102761,102865,102787
 4.3000e+000 102986 -9.1184e+001 -2.4602e+002  2.6537e+001 35170 102761,102891,102865
 4.3000e+000 102963 -1.3521e+002 -2.7090e+002 -7.3757e+000 35170 102787,102865,102813
 4.3000e+000 102940 -7.5231e+001 -2.3531e+002  3.1462e+001 35170 102735,102891,102761
 4.3000e+000 102917 -1.3598e+002 -2.7616e+002 -1.7274e+001 35170 102813,102865,102839
 4.3000e+000 103257 -2.7061e+001 -2.1501e+002 -3.8615e+001 34659 103280,103058,103032
 4.3000e+000 103234 -4.2923e+001 -2.2791e+002 -2.2724e+001 34659 103280,103032,103162
 4.3000e+000 103211 -7.7691e+001 -2.2979e+002 -2.0945e+001 34659 103084,103162,103110
 4.3000e+000 103188 -1.0212e+002 -2.8176e+002 -1.4256e+001 34659 103110,103162,103136
 4.3000e+000 103306 -5.4662e+001 -1.9913e+002 -3.3225e+001 34659 103084,103058,103280
 4.3000e+000 103329 -6.5076e+001 -2.1290e+002 -1.5345e+001 34659 103084,103280,103162
 4.3000e+000 103837 -2.8926e+001 -3.1353e+002  1.0494e+001 34247 103860,103566,103540
 4.3000e+000 103814 -4.2348e+001 -3.1428e+002  9.4900e-001 34247 103932,103860,103540
 4.3000e+000 103791 -3.0906e+001 -3.4809e+002 -3.3624e+001 34247 103932,103540,103670
 4.3000e+000 103768 -3.4462e+001 -2.9547e+002  5.9390e+000 34247 103566,103618,103592
 4.3000e+000 103745 -1.2802e+002 -2.9279e+002 -4.4533e+001 34247 103540,103696,103670
 4.3000e+000 103722 -1.6898e+002 -3.2483e+002  4.7102e+001 34247 103514,103696,103540
 4.3000e+000 103886 -6.4284e+001 -3.1249e+002 -1.9276e+000 34247 103618,103566,103860
 4.3000e+000 103909 -7.2200e+001 -3.3326e+002  9.3687e+000 34247 103618,103860,103644
 4.3000e+000 103958 -7.2841e+001 -3.9516e+002 -3.9510e+000 34247 103644,103860,103932
 4.3000e+000 103981 -6.1340e+001 -4.2645e+002 -4.0252e+001 34247 103644,103932,103670
 4.3000e+000 104300 -1.5494e+002 -3.2721e+002 -1.1189e+001 33843 104052,104182,104156
 4.3000e+000 104277 -1.9932e+002 -3.1001e+002 -4.0916e+000 33843 104026,104182,104052
 4.3000e+000 104254 -1.5216e+002 -3.7528e+002  6.4605e+000 33843 104078,104156,104130
 4.3000e+000 104231 -1.7815e+002 -3.5344e+002  7.7003e-001 33843 104052,104156,104078
 4.3000e+000 104208 -2.3345e+002 -3.9935e+002  1.0652e+001 33843 104078,104130,104104
 4.3000e+000 104499 -1.0829e+002 -3.3528e+002 -2.8931e+001 33282 104594,104522,104375
 4.3000e+000 104476 -9.2416e+001 -3.2383e+002  1.0457e+001 33282 104522,104323,104427
 4.3000e+000 104453 -6.6161e+001 -3.5944e+002 -2.5970e+001 33282 104594,104375,104349
 4.3000e+000 104548 -1.1288e+002 -2.8810e+002 -1.4335e+001 33282 104401,104375,104522
 4.3000e+000 104571 -7.7911e+001 -2.8408e+002  1.3980e+001 33282 104401,104522,104427
 4.3000e+000 104620 -5.7740e+001 -2.8992e+002 -9.4858e+000 33282 104323,104522,104594
 4.3000e+000 104643 -3.1422e+001 -3.2997e+002 -1.2826e+001 33282 104323,104594,104349
 4.3000e+000 104942 -1.4661e+002 -3.7032e+002  4.4406e+001 32728 104694,104772,104720
 4.3000e+000 104919 -1.1175e+002 -3.3791e+002  1.6024e+001 32728 104694,104824,104772
 4.3000e+000 104896 -1.8943e+002 -3.3359e+002  4.9621e+001 32728 104720,104772,104746
 4.3000e+000 104873 -8.5703e+001 -3.8316e+002  1.8704e+001 32728 104772,104824,104798
 4.3000e+000 104850 -9.2588e+001 -3.3357e+002  1.6278e+001 32728 104668,104824,104694
 4.3000e+000 105373 -1.2308e+002 -3.5963e+002 -1.6456e+001 32274 105396,105102,105076
 4.3000e+000 105350 -1.3376e+002 -3.9338e+002 -6.2183e+000 32274 105396,105076,105206
 4.3000e+000 105327 -1.6707e+002 -3.9785e+002  2.0070e+001 32274 105154,105206,105180
 4.3000e+000 105304 -6.9557e+001 -3.7799e+002 -3.0626e+001 32274 105076,105232,105206
 4.3000e+000 105281 -1.4542e+002 -3.2558e+002 -6.0040e+001 32274 105102,105154,105128
 4.3000e+000 105258 -2.1206e+002 -3.2476e+002 -6.1785e+001 32274 105050,105232,105076
 4.3000e+000 105422 -1.4248e+002 -3.2317e+002 -1.5022e+001 32274 105154,105102,105396
 4.3000e+000 105445 -1.5208e+002 -3.5744e+002 -7.1394e+000 32274 105154,105396,105206
 4.3000e+000 105644 -1.4277e+002 -3.6428e+002 -5.8878e+000 31620 105468,105546,105520
 4.3000e+000 105621 -1.1599e+002 -3.9725e+002 -1.9129e+001 31620 105468,105572,105546
 4.3000e+000 105598 -1.4103e+002 -3.9178e+002  2.1170e+001 31620 105468,105520,105494
 4.3000e+000 105794 -3.6789e+001 -3.1867e+002 -9.9432e+000 31158 105889,105817,105693
 4.3000e+000 105771 -5.7574e+001 -2.8812e+002 -2.1170e+001 31158 105817,105667,105745
 4.3000e+000 105843 -4.7073e+001 -3.8975e+002 -3.3639e+000 31158 105719,105693,105817
 4.3000e+000 105866 -2.4762e+001 -3.3535e+002 -1.7302e+001 31158 105719,105817,105745
 4.3000e+000 105915 -8.5348e+001 -3.3949e+002 -1.0508e+001 31158 105667,105817,105889
 4.3000e+000 106270 -1.4116e+002 -3.2141e+002 -1.4597e+000 30818 106293,106071,106045
 4.3000e+000 106247 -1.6417e+002 -3.7322e+002 -1.9909e+001 30818 106293,106045,106175
 4.3000e+000 106224 -1.1415e+002 -2.9592e+002  1.9028e+001 30818 106123,106175,106149
 4.3000e+000 106201 -1.4604e+002 -3.2453e+002  3.2391e+001 30818 106071,106123,106097
 4.3000e+000 106319 -1.4348e+002 -3.0109e+002  1.7608e+001 30818 106123,106071,106293
 4.3000e+000 106342 -1.4646e+002 -3.2816e+002  2.0571e+000 30818 106123,106293,106175
 4.3000e+000 106492 -1.3233e+002 -2.9774e+002  5.6227e+001 30414 106645,106391,106365
 4.3000e+000 106469 -4.6873e+001 -2.9441e+002  8.6030e+001 30414 106515,106365,106443
 4.3000e+000 106541 -8.3897e+001 -3.0936e+002  6.3651e+001 30414 106645,106365,106515
 4.3000e+000 106671 -6.3684e+001 -3.5202e+002  1.0898e+002 30414 106417,106391,106645
 4.3000e+000 106694  4.5908e+001 -3.2559e+002  9.3604e+001 30414 106417,106645,106515
 4.3000e+000 106942 -6.8309e+001 -4.5002e+002 -5.7450e-001 29910 106965,106795,106769
 4.3000e+000 106919 -6.0043e+001 -4.0426e+002  1.2610e+001 29910 106965,106769,106717
 4.3000e+000 106896 -6.0912e+001 -3.3844e+002 -4.4285e+001 29910 106795,106847,106821
 4.3000e+000 106873 -3.1157e+001 -3.4350e+002  2.2978e+001 29910 106717,106769,106743
 4.3000e+000 106991 -9.3222e+001 -4.0120e+002  5.6576e+000 29910 106847,106795,106965
 4.3000e+000 107014 -7.4749e+001 -3.4042e+002  1.8182e+001 29910 106847,106965,106717
 4.3000e+000 107213 -9.6967e+001 -3.3710e+002  2.0784e+001 29413 107236,107063,107037
 4.3000e+000 107190 -8.8630e+001 -3.9640e+002  4.2713e+001 29413 107236,107037,107141
 4.3000e+000 107167 -1.1916e+002 -2.4585e+002  5.2678e+001 29413 107063,107115,107089
 4.3000e+000 107262 -9.1494e+001 -2.9894e+002  1.4867e+001 29413 107115,107063,107236
 4.3000e+000 107285 -7.4299e+001 -3.4290e+002  3.8924e+001 29413 107115,107236,107141
 4.3000e+000 107486 -4.2500e+001 -3.2332e+002  4.2649e+001 29009 107336,107388,107362
 4.3000e+000 107463 -2.1726e+001 -3.1203e+002  1.2450e+001 29009 107310,107388,107336
 4.3000e+000 107440 -2.6664e+001 -2.9325e+002  1.2124e+001 29009 107310,107414,107388
 4.3000e+000 107736 -1.4053e+002 -3.7141e+002 -1.4505e+001 28491 107537,107615,107563
 4.3000e+000 107713 -1.2180e+002 -3.6236e+002 -9.4912e+000 28491 107537,107641,107615
 4.3000e+000 107690 -7.8076e+001 -3.5114e+002  6.5337e+000 28491 107563,107615,107589
 4.3000e+000 107667 -1.2795e+002 -3.6001e+002 -1.0631e+001 28491 107511,107641,107537
 4.3000e+000 108118 -7.8632e+001 -3.5315e+002  1.4188e+001 27980 108141,107922,107844
 4.3000e+000 108095 -6.2828e+001 -3.8044e+002  1.3385e+001 27980 108141,107844,108000
 4.3000e+000 108072 -8.3000e+001 -3.6977e+002 -1.9510e+001 27980 107844,107922,107870
 4.3000e+000 108049 -8.9485e+001 -3.1740e+002 -9.9355e+000 27980 107870,107922,107896
 4.3000e+000 108026 -1.2444e+002 -3.3019e+002  4.1754e+001 27980 107922,107974,107948
 4.3000e+000 108167 -6.7900e+001 -3.5221e+002  1.9220e+001 27980 107974,107922,108141
 4.3000e+000 108190 -2.4805e+001 -3.5354e+002  2.6629e+001 27980 107974,108141,108000
 4.3000e+000 108745 -4.1552e+001 -2.3164e+002 -4.7647e+000 27376 108840,108768,108477
 4.3000e+000 108722 -7.2567e+001 -2.8707e+002 -5.5924e+001 27376 108768,108373,108581
 4.3000e+000 108699 -6.7436e+001 -2.0035e+002  4.3015e+001 27376 108840,108477,108451
 4.3000e+000 108676 -1.6653e+002 -2.4440e+002 -9.6937e+000 27376 108373,108451,108399
 4.3000e+000 108653 -6.8381e+001 -2.8961e+002  3.9842e+001 27376 108503,108581,108529
 4.3000e+000 108630 -7.7033e+001 -2.8431e+002  4.1643e+001 27376 108529,108581,108555
 4.3000e+000 108607 -1.8828e+002 -2.6169e+002  2.1167e+001 27376 108399,108451,108425
 4.3000e+000 108794 -6.8024e+001 -3.1326e+002  1.8125e+000 27376 108503,108477,108768
 4.3000e+000 108817 -1.4343e+001 -2.8508e+002 -1.0033e+001 27376 108503,108768,108581
 4.3000e+000 108866 -1.3878e+002 -2.8786e+002 -2.7604e+001 27376 108373,108768,108840
 4.3000e+000 108889 -1.3399e+002 -2.4696e+002  2.2510e+001 27376 108373,108840,108451
 4.3000e+000 109186 -1.3767e+002 -3.6430e+002  3.7537e+001 26722 109209,108938,108912
 4.3000e+000 109163 -1.2836e+002 -3.4183e+002  3.5329e+001 26722 109281,109209,108912
 4.3000e+000 109140 -1.2343e+002 -3.3261e+002  3.3275e+001 26722 109281,108912,109042
 4.3000e+000 109117 -1.1475e+002 -3.9118e+002  1.7230e+001 26722 108938,108990,108964
 4.3000e+000 109094 -1.7319e+002 -3.0240e+002  2.1808e+001 26722 108912,109068,109042
 4.3000e+000 109235 -1.1653e+002 -3.5235e+002  3.2530e+001 26722 108990,108938,109209
 4.3000e+000 109258 -1.2408e+002 -3.7906e+002  2.9489e+001 26722 108990,109209,109016
 4.3000e+000 109307 -1.1329e+002 -3.5634e+002  1.7813e+001 26722 109016,109209,109281
 4.3000e+000 109330 -1.0415e+002 -3.4035e+002  1.3816e+001 26722 109016,109281,109042
 4.3000e+000 109732 -1.4651e+002 -2.9961e+002 -6.0897e+000 26310 109458,109588,109484
 4.3000e+000 109709 -1.4091e+002 -3.5252e+002 -3.7294e+001 26310 109458,109614,109588
 4.3000e+000 109686 -2.0798e+002 -3.5256e+002  5.2480e+001 26310 109510,109562,109536
 4.3000e+000 109663 -2.0514e+002 -3.3136e+002  2.0544e+001 26310 109484,109562,109510
 4.3000e+000 109640 -1.5092e+002 -3.0438e+002 -7.4435e-001 26310 109484,109588,109562
 4.3000e+000 110159 -8.9045e+001 -3.0422e+002 -9.9247e+000 25642 110182,109940,109914
 4.3000e+000 110136 -8.1731e+001 -3.5426e+002  4.2266e+001 25642 110182,109914,109888
 4.3000e+000 110113 -1.1047e+002 -3.7758e+002 -5.0383e+001 25642 109966,110018,109992
 4.3000e+000 110090 -1.2221e+002 -3.6505e+002  2.8395e+001 25642 110254,109966,109940
 4.3000e+000 110067 -1.6446e+002 -3.4642e+002  2.0378e+001 25642 109862,110018,109888
 4.3000e+000 110044 -1.5461e+002 -2.8891e+002  4.8849e+001 25642 109836,110018,109862
 4.3000e+000 110208 -1.2104e+002 -3.3348e+002  2.1201e+001 25642 110254,109940,110182
 4.3000e+000 110231 -1.3304e+002 -3.5684e+002  4.7327e+001 25642 110018,110182,109888
 4.3000e+000 110280 -1.0727e+002 -4.0448e+002  2.2504e+001 25642 110018,109966,110254
 4.3000e+000 110303 -1.1274e+002 -3.8090e+002  1.6378e+001 25642 110018,110254,110182
 4.3000e+000 110632 -1.5766e+002 -3.1695e+002 -1.8854e+001 25188 110407,110485,110433
 4.3000e+000 110609 -1.8588e+002 -3.1236e+002 -1.2155e+001 25188 110407,110537,110485
 4.3000e+000 110586 -1.8113e+002 -3.3042e+002 -6.2289e+001 25188 110433,110485,110459
 4.3000e+000 110563 -1.7372e+002 -3.3325e+002  3.4286e+001 25188 110485,110537,110511
 4.3000e+000 110831 -3.0259e+001 -3.0127e+002  8.1794e+000 24726 110854,110707,110655
 4.3000e+000 110808 -1.3339e+001 -3.2567e+002  3.3144e+001 24726 110854,110655,110759
 4.3000e+000 110785 -4.3346e+001 -3.1316e+002  1.5851e+001 24726 110655,110707,110681
 4.3000e+000 110880 -1.7387e+001 -2.7805e+002  1.3293e+001 24726 110733,110707,110854
 4.3000e+000 110903  5.2382e+000 -2.9043e+002  4.0076e+001 24726 110733,110854,110759
 4.3000e+000 111234 -8.5676e+000 -2.2063e+002 -6.4836e+000 24222 111257,111087,111035
 4.3000e+000 111211  2.8133e+001 -2.0397e+002  2.5103e+001 24222 111257,111035,111009
 4.3000e+000 111188 -3.5290e+001 -1.1785e+002 -4.9170e+001 24222 111035,111087,111061
 4.3000e+000 111165 -3.3971e+001 -1.7514e+002  5.7741e+000 24222 111087,111139,111113
 4.3000e+000 111283 -3.1707e+001 -1.8202e+002  1.0525e+001 24222 111139,111087,111257
 4.3000e+000 111306 -1.5713e+001 -1.5444e+002  3.0838e+001 24222 111139,111257,111009
 4.3000e+000 111625 -4.2788e+001 -3.0366e+002 -1.7529e+001 23732 111648,111481,111455
 4.3000e+000 111602 -4.4049e+001 -3.0644e+002 -1.7076e+001 23732 111648,111455,111377
 4.3000e+000 111579  4.0750e+001 -1.5699e+002  3.2024e+001 23732 111377,111429,111403
 4.3000e+000 111556 -1.8345e+001 -3.0905e+002 -7.5488e+000 23732 111377,111455,111429
 4.3000e+000 111533 -3.3491e+001 -2.7623e+002 -6.4535e+000 23732 111351,111507,111377
 4.3000e+000 111674 -4.4013e+001 -2.9911e+002 -1.4316e+001 23732 111507,111481,111648
 4.3000e+000 111697 -4.6463e+001 -3.0473e+002 -1.3954e+001 23732 111507,111648,111377
 4.3000e+000 112156 -8.5504e+001 -3.6202e+002  2.6687e+001 23278 112179,111908,111882
 4.3000e+000 112133 -7.9955e+001 -3.3528e+002  1.4620e+001 23278 112179,111882,112012
 4.3000e+000 112110 -2.7550e+001 -3.9267e+002  1.6570e+000 23278 111908,111960,111934
 4.3000e+000 112087 -3.3760e+001 -2.9442e+002 -4.1377e+000 23278 111882,112038,112012
 4.3000e+000 112064 -7.1852e+001 -3.0260e+002 -4.6172e+000 23278 111960,112012,111986
 4.3000e+000 112205 -8.1467e+001 -3.4917e+002  4.5438e+000 23278 111960,111908,112179
 4.3000e+000 112228 -6.8381e+001 -3.1913e+002 -9.2282e+000 23278 111960,112179,112012
 4.3000e+000 112685 -2.2611e+002 -5.0044e+002 -4.8442e+001 22938 112489,112567,112541
 4.3000e+000 112662 -1.9448e+002 -4.3133e+002 -4.0387e+001 22938 112437,112567,112489
 4.3000e+000 112639 -1.2853e+002 -3.6784e+002 -3.8133e+000 22938 112489,112541,112515
 4.3000e+000 112616 -2.2432e+002 -4.1720e+002 -3.7435e+001 22938 112411,112567,112437
 4.3000e+000 112593 -1.6931e+002 -5.3301e+002 -1.2220e+001 22938 112437,112489,112463
 4.3000e+000 113191 -1.6866e+001 -3.5503e+002 -4.4335e+001 22534 113214,112998,112946
 4.3000e+000 113168 -6.7791e+001 -3.1695e+002 -2.3091e+001 22534 113286,113214,112946
 4.3000e+000 113145 -5.1188e+001 -3.1773e+002 -1.9135e+001 22534 113286,112946,112920
 4.3000e+000 113122 -1.4200e+002 -2.9099e+002 -6.2204e+001 22534 113358,113024,112998
 4.3000e+000 113099 -9.2058e+001 -3.0690e+002 -1.1775e+001 22534 112868,113050,112894
 4.3000e+000 113076 -1.0642e+002 -5.3694e+002 -8.7916e+001 22534 112946,112998,112972
 4.3000e+000 113240 -1.0566e+002 -3.6524e+002 -6.5848e+001 22534 113358,112998,113214
 4.3000e+000 113263 -8.8510e+001 -3.3214e+002 -1.4482e+001 22534 113050,113214,112894
 4.3000e+000 113312 -4.6395e+001 -3.1364e+002 -1.8238e+001 22534 112894,113214,113286
 4.3000e+000 113335 -2.9030e+001 -3.1547e+002 -1.7292e+001 22534 112894,113286,112920
 4.3000e+000 113384 -1.0189e+002 -2.2283e+002 -4.5512e+001 22534 113050,113024,113358
 4.3000e+000 113407 -4.9751e+001 -2.8432e+002 -4.1027e+001 22534 113050,113358,113214
 4.3000e+000 113785 -1.6319e+002 -4.2092e+002  9.8081e+000 21978 113808,113615,113511
 4.3000e+000 113762 -1.3108e+002 -4.2546e+002  2.8614e+001 21978 113808,113511,113667
 4.3000e+000 113739 -9.9858e+001 -3.6192e+002 -1.5883e+001 21978 113511,113615,113537
 4.3000e+000 113716  3.9475e+001 -3.2488e+002 -3.6938e+001 21978 113537,113615,113589
 4.3000e+000 113693 -4.7741e+001 -4.6226e+002  4.1900e+000 21978 113537,113589,113563
 4.3000e+000 113834 -1.6895e+002 -4.2122e+002  5.0084e+001 21978 113641,113615,113808
 4.3000e+000 113857 -8.5773e+001 -3.8904e+002  7.2471e+001 21978 113641,113808,113667
 4.3000e+000 114284 -1.1951e+002 -3.5310e+002  8.4777e+000 21517 114013,114117,114039
 4.3000e+000 114261 -1.3509e+002 -3.5163e+002  2.8046e+001 21517 113961,114117,114013
 4.3000e+000 114238 -1.3115e+002 -3.5703e+002  2.8453e+001 21517 113961,114013,113987
 4.3000e+000 114215 -1.9410e+002 -4.0304e+002 -2.7260e+001 21517 114039,114117,114091
 4.3000e+000 114192 -1.3737e+002 -2.9885e+002  3.3562e+001 21517 113961,114143,114117
 4.3000e+000 114169 -2.7677e+001 -3.4701e+002 -3.2059e+001 21517 114039,114091,114065
 4.3000e+000 114581 -6.6038e+001 -4.1146e+002  5.4876e+000 21027 114359,114463,114437
 4.3000e+000 114558 -3.1960e+001 -3.7194e+002  4.9882e+001 21027 114333,114463,114359
 4.3000e+000 114535 -2.4569e+001 -3.7445e+002 -1.0266e+001 21027 114359,114437,114385
 4.3000e+000 114512 -1.7422e+001 -3.6829e+002  4.2151e+001 21027 114307,114463,114333
 4.3000e+000 114489  6.2096e+001 -3.4935e+002 -1.7122e+001 21027 114385,114437,114411
 4.3000e+000 114912 -1.6173e+002 -3.6179e+002  5.0004e+000 20623 114713,114791,114765
 4.3000e+000 114889 -1.1252e+002 -3.4166e+002 -2.4530e+001 20623 114687,114791,114713
 4.3000e+000 114866 -7.8055e+001 -3.7825e+002 -2.7828e+001 20623 114687,114817,114791
 4.3000e+000 114843 -2.3805e+002 -4.3859e+002  3.7440e+001 20623 114713,114765,114739
 4.3000e+000 115290 -4.4081e+001 -3.2416e+002  1.6574e+001 20375 115313,115146,115094
 4.3000e+000 115267 -7.1624e+001 -3.0975e+002  3.1528e+001 20375 115313,115094,115042
 4.3000e+000 115244 -9.3260e+001 -2.9719e+002  9.2632e+000 20375 115385,115016,115172
 4.3000e+000 115221 -3.1169e+001 -2.9162e+002  2.7038e+001 20375 115042,115094,115068
 4.3000e+000 115198 -6.8029e+001 -3.8809e+002  2.1891e+001 20375 115094,115146,115120
 4.3000e+000 115339 -1.0100e+002 -3.8234e+002 -1.2597e+001 20375 115172,115146,115313
 4.3000e+000 115362 -5.5825e+001 -3.0690e+002  1.1200e+001 20375 115385,115172,115313
 4.3000e+000 115411 -1.1410e+002 -3.0821e+002  1.3344e+001 20375 115042,115016,115385
 4.3000e+000 115434 -9.6025e+001 -3.3078e+002  2.1214e+001 20375 115042,115385,115313
 4.3000e+000 115891 -1.7061e+002 -3.3564e+002  4.1502e+001 19971 115617,115747,115643
 4.3000e+000 115868 -1.4585e+002 -2.7457e+002  3.8171e+001 19971 115617,115773,115747
 4.3000e+000 115845 -1.0673e+002 -5.0240e+002  6.1085e+000 19971 115643,115721,115695
 4.3000e+000 115822 -4.4803e+000 -2.5188e+002 -2.0289e+000 19971 115643,115747,115721
 4.3000e+000 115799 -9.0423e+001 -6.2017e+002 -5.1132e+001 19971 115643,115695,115669
 4.3000e+000 115992 -2.4348e+002 -6.2393e+002 -1.0508e+002 19659 115914,115966,115940
 4.3000e+000 116142 -3.8511e+001 -1.4391e+002  3.8603e+000 18997 116041,116093,116067
 4.3000e+000 116119 -7.6624e+001 -2.4186e+002  1.4247e+001 18997 116015,116093,116041
 4.3000e+000 116343 -6.5191e+001 -3.7753e+002 -1.1211e+001 18707 116193,116245,116219
 4.3000e+000 116320 -1.4561e+002 -4.1189e+002 -1.7048e+001 18707 116193,116271,116245
 4.3000e+000 116297 -1.3142e+002 -3.6716e+002 -2.6831e+001 18707 116167,116271,116193
 4.3000e+000 116747 -6.1318e+001 -3.4236e+002 -6.2130e+000 18301 116525,116629,116551
 4.3000e+000 116724 -3.5225e+001 -2.9049e+002  8.3208e+000 18301 116473,116629,116525
 4.3000e+000 116701 -2.3866e+001 -2.8304e+002 -1.4491e+001 18301 116473,116525,116499
 4.3000e+000 116678 -5.2012e+001 -3.5615e+002 -4.7202e+000 18301 116551,116603,116577
 4.3000e+000 116655 -7.2258e+001 -3.6806e+002 -1.0285e+001 18301 116551,116629,116603
 4.3000e+000 117147 -1.7087e+002 -3.8924e+002 -1.0292e-001 17747 116899,117029,116925
 4.3000e+000 117124 -8.9461e+001 -2.8331e+002  4.0960e+001 17747 116873,117029,116899
 4.3000e+000 117101 -1.6944e+002 -3.8635e+002  4.6270e-001 17747 116925,117029,116951
 4.3000e+000 117078 -1.4627e+002 -3.3222e+002 -2.2904e+000 17747 116951,117029,117003
 4.3000e+000 117055 -1.9320e+002 -4.4102e+002 -2.9462e+001 17747 116951,117003,116977
 4.3000e+000 117368  2.3051e+001 -3.7759e+002  8.2069e+000 17293 117244,117296,117270
 4.3000e+000 117345 -2.6730e+001 -3.8997e+002 -5.4292e+000 17293 117192,117296,117244
 4.3000e+000 117322 -6.7663e+001 -3.6660e+002 -4.2207e+000 17293 117192,117244,117218
 4.3000e+000 117699 -3.6500e+001 -3.0512e+002 -3.6408e+001 16896 117526,117604,117552
 4.3000e+000 117676 -2.0227e+002 -4.6766e+002  2.9299e+001 16896 117500,117604,117526
 4.3000e+000 117653 -2.1406e+002 -3.7134e+002 -1.8221e+001 16896 117552,117604,117578
 4.3000e+000 117630 -1.8519e+002 -6.0474e+002  5.0602e+001 16896 117474,117604,117500
 4.3000e+000 117849 -4.3169e+002 -8.2710e+002 -3.1575e+001 16534 117722,117774,117748
 4.3000e+000 117826 -3.4124e+002 -1.0073e+003 -1.3559e+002 16534 117722,117800,117774
 4.3000e+000 118070 -1.9560e+000 -3.8868e+002  4.9446e+001 16194 117946,117998,117972
 4.3000e+000 118047 -6.3639e+001 -4.3830e+002  2.0017e+001 16194 117894,117998,117946
 4.3000e+000 118024 -2.2460e+002 -4.4942e+002 -7.3778e-002 16194 117894,117946,117920
 4.3000e+000 118173 -2.9908e+001 -3.6881e+002  0.0000e+000 15968 118095,118147,118121
 4.3000e+000 118276 -1.1188e+002 -4.0274e+002  2.2076e+000 15433 118299,118198,118250
 4.3000e+000 118325 -1.1348e+002 -4.0646e+002  2.2445e+000 15433 118224,118198,118299
 4.3000e+000 118450 -1.9171e+002 -4.2663e+002  4.1003e+001 421 118372,118424,118398
 4.4000e+000 69891 -8.4192e+001 -4.3434e+002  1.5887e+001 68988 69447,69681,69629
 4.4000e+000 69868  2.3117e+001 -3.8882e+002  1.2677e+001 68988 69421,69681,69447
 4.4000e+000 69845 -1.0188e+001 -2.2176e+002  1.4000e+000 68988 69447,69629,69577
 4.4000e+000 69822 -1.3264e+002 -4.5035e+002 -4.8540e+001 68988 69447,69577,69473
 4.4000e+000 69799 -2.5542e+001 -5.1839e+002  8.6137e+001 68988 69629,69681,69655
 4.4000e+000 69776 -1.4381e+002 -2.7987e+002  8.3867e+000 68988 69577,69629,69603
 4.4000e+000 69753 -1.0654e+002 -4.0395e+002 -6.0429e+001 68988 69473,69577,69551
 4.4000e+000 69730 -1.4981e+002 -7.8834e+002 -7.7038e+001 68988 69473,69551,69525
 4.4000e+000 69707 -2.4474e+002 -5.2771e+002  9.1253e-001 68988 69473,69525,69499
 4.4000e+000 69992 -2.5843e+002 -4.7618e+002 -6.4506e+001 68676 69914,69966,69940
 4.4000e+000 70392 -1.8928e+002 -3.8707e+002  2.8803e+001 68478 70118,70248,70144
 4.4000e+000 70369 -1.4894e+000 -3.9241e+002  8.1752e+001 68478 70118,70274,70248
 4.4000e+000 70346 -1.1680e+002 -2.9663e+002 -1.2814e+000 68478 70144,70222,70196
 4.4000e+000 70323 -9.8351e+001 -2.4865e+002 -1.2975e+001 68478 70144,70248,70222
 4.4000e+000 70300 -1.2564e+002 -3.2281e+002 -5.7443e+000 68478 70144,70196,70170
 4.4000e+000 70841  4.5483e+001 -2.7311e+002 -6.9277e+001 68280 70570,70622,70596
 4.4000e+000 70818 -1.3936e+002 -3.0990e+002 -1.6964e+001 68280 70544,70622,70570
 4.4000e+000 70795 -1.0502e+002 -2.3241e+002 -1.0294e+001 68280 70544,70674,70622
 4.4000e+000 70772 -9.0431e+001 -2.0834e+002  3.2393e+000 68280 70622,70674,70648
 4.4000e+000 70749 -1.4817e+002 -3.4571e+002  2.5253e+001 68280 70518,70674,70544
 4.4000e+000 70726  1.0211e+002 -3.6023e+002  9.8178e+001 68280 70518,70700,70674
 4.4000e+000 70991 -1.6253e+001 -1.4020e+003  4.2009e+001 67968 70864,70916,70890
 4.4000e+000 70968 -3.7370e+002 -1.3908e+003  1.6306e+002 67968 70864,70942,70916
 4.4000e+000 71141 -6.4620e+002 -1.2198e+003 -6.1148e+001 67770 71040,71092,71066
 4.4000e+000 71118 -5.5876e+002 -1.4720e+003  6.4225e+001 67770 71014,71092,71040
 4.4000e+000 71651 -9.6542e+001 -2.7796e+002 -4.2832e+001 67366 71746,71674,71458
 4.4000e+000 71628 -6.5784e+001 -2.2750e+002 -4.5408e+001 67366 71674,71354,71510
 4.4000e+000 71605 -8.7433e+001 -3.0745e+002 -3.9669e+001 67366 71746,71458,71432
 4.4000e+000 71582 -1.3457e+002 -3.1533e+002  1.5640e+001 67366 71354,71432,71380
 4.4000e+000 71559 -1.4311e+002 -2.3381e+002 -2.3515e+001 67366 71380,71432,71406
 4.4000e+000 71536 -6.8818e+001 -1.0170e+002 -1.8631e+000 67366 71328,71510,71354
 4.4000e+000 71700 -1.0473e+002 -2.5107e+002 -1.9982e+001 67366 71484,71458,71674
 4.4000e+000 71723 -7.5528e+001 -2.3738e+002 -1.5036e+001 67366 71484,71674,71510
 4.4000e+000 71772 -8.5731e+001 -2.4298e+002 -3.7118e+001 67366 71354,71674,71746
 4.4000e+000 71795 -7.5144e+001 -2.6883e+002 -3.7607e+001 67366 71354,71746,71432
 4.4000e+000 71896 -2.4424e+002 -5.2171e+002  0.0000e+000 67146 71818,71870,71844
 4.4000e+000 71997 -3.2074e+002 -4.5960e+002  9.2928e+001 66948 71919,71971,71945
 4.4000e+000 72149 -2.8658e+001 -3.3130e+002 -3.6394e+001 66700 72172,72074,72048
 4.4000e+000 72126 -1.2228e+002 -3.7032e+002 -1.3970e+001 66700 72172,72048,72022
 4.4000e+000 72198 -1.8731e+002 -4.0701e+002  2.6462e+001 66700 72244,72172,72100
 4.4000e+000 72221 -1.6951e+002 -3.7349e+002 -2.1627e+001 66700 72100,72172,72022
 4.4000e+000 72270 -1.0359e+002 -2.2372e+002 -2.4224e+001 66700 72074,72172,72244
 4.4000e+000 72623 -1.3325e+002 -3.4760e+002  8.7801e+000 66502 72424,72502,72450
 4.4000e+000 72600 -1.1416e+002 -2.9510e+002  5.6003e+000 66502 72398,72502,72424
 4.4000e+000 72577 -8.9599e+001 -3.3246e+002 -5.5455e+000 66502 72398,72528,72502
 4.4000e+000 72554 -1.3406e+002 -3.1224e+002 -1.5548e+000 66502 72450,72502,72476
 4.4000e+000 72920 -2.0554e+002 -4.2033e+002  1.0681e+001 65941 72672,72776,72750
 4.4000e+000 72897 -2.0633e+002 -3.6448e+002  3.9228e+001 65941 72646,72776,72672
 4.4000e+000 72874 -1.8062e+002 -4.1271e+002  1.3041e+001 65941 72672,72750,72724
 4.4000e+000 72851 -1.8247e+002 -3.2999e+002  2.9771e+001 65941 72672,72724,72698
 4.4000e+000 72828 -1.6023e+002 -3.7190e+002  3.9284e+001 65941 72646,72802,72776
 4.4000e+000 73241 -6.0576e+001 -3.0277e+002  1.7567e+001 65743 73264,73071,73045
 4.4000e+000 73218 -1.3159e+002 -3.3709e+002  2.7933e+001 65743 73480,73264,73045
 4.4000e+000 73195 -1.1100e+002 -3.0623e+002 -3.6773e+000 65743 73336,72967,73097
 4.4000e+000 73172 -1.8184e+002 -2.8193e+002 -2.9328e+001 65743 73408,72993,72967
 4.4000e+000 73149 -1.0342e+002 -3.0619e+002 -3.6768e+000 65743 72967,73123,73097
 4.4000e+000 73290 -8.6384e+001 -3.1458e+002  4.0683e+000 65743 73097,73071,73264
 4.4000e+000 73313 -9.7677e+001 -2.9271e+002  1.0877e+001 65743 73336,73097,73264
 4.4000e+000 73362 -1.5832e+002 -3.1420e+002 -1.9737e+001 65743 73408,72967,73336
 4.4000e+000 73385 -8.2267e+001 -2.8851e+002 -1.6557e+000 65743 73019,73336,73264
 4.4000e+000 73434 -1.4281e+002 -2.2451e+002  1.5320e+001 65743 73019,72993,73408
 4.4000e+000 73457 -8.6590e+001 -2.6593e+002  1.0228e+001 65743 73019,73408,73336
 4.4000e+000 73506 -6.2120e+001 -2.1622e+002 -1.6840e-001 65743 73019,73264,73480
 4.4000e+000 73989 -1.9116e+001 -2.4585e+002  2.8514e+001 65453 73793,73845,73819
 4.4000e+000 73966 -1.3205e+002 -2.7532e+002  3.3207e+001 65453 73741,73845,73793
 4.4000e+000 73943 -3.7411e+001 -2.2247e+002  1.2391e+001 65453 73715,73845,73741
 4.4000e+000 73920 -1.0582e+002 -2.9282e+002  5.4922e+001 65453 73741,73793,73767
 4.4000e+000 73897  1.3586e-001 -1.4639e+002  1.7128e-001 65453 73715,73871,73845
 4.4000e+000 74357 -7.6886e+001 -2.9902e+002 -7.7721e+001 65141 74380,74138,74086
 4.4000e+000 74334 -1.3477e+002 -3.9385e+002 -5.1807e+001 65141 74380,74086,74060
 4.4000e+000 74311 -1.5391e+002 -3.8471e+002 -1.3348e+001 65141 74138,74190,74164
 4.4000e+000 74288 -1.1606e+002 -4.2669e+002 -1.6411e+001 65141 74060,74216,74190
 4.4000e+000 74265 -1.2237e+002 -4.4834e+002  7.3122e+000 65141 74034,74216,74060
 4.4000e+000 74242 -9.7856e+001 -2.4028e+002 -5.0870e+001 65141 74086,74138,74112
 4.4000e+000 74406 -1.1353e+002 -3.8369e+002 -3.1813e+001 65141 74190,74138,74380
 4.4000e+000 74429 -1.3122e+002 -4.1620e+002 -1.4734e+001 65141 74190,74380,74060
 4.4000e+000 74937 -1.5617e+002 -3.1047e+002 -7.3799e+001 64737 74614,74666,74640
 4.4000e+000 74914 -1.9078e+002 -3.7658e+002 -5.4397e+001 64737 74614,74796,74666
 4.4000e+000 74891 -1.4073e+002 -2.6660e+002 -1.0095e+001 64737 74960,74718,74666
 4.4000e+000 74868 -1.2615e+002 -2.9155e+002 -3.3630e+001 64737 74960,74666,74770
 4.4000e+000 74845 -1.2868e+002 -2.3823e+002 -3.5425e+001 64737 74666,74796,74770
 4.4000e+000 74822 -1.3809e+002 -2.8875e+002  3.8614e+000 64737 74666,74718,74692
 4.4000e+000 74986 -1.4945e+002 -2.9223e+002 -1.0967e+001 64737 74744,74718,74960
 4.4000e+000 75009 -1.4227e+002 -3.3017e+002 -3.5331e+001 64737 74744,74960,74770
 4.4000e+000 75306 -7.3030e+001 -2.7359e+002  3.9578e+001 64133 75329,75110,75084
 4.4000e+000 75283 -9.5038e+001 -3.2383e+002  1.1057e+001 64133 75401,75329,75084
 4.4000e+000 75260 -9.1944e+001 -3.3175e+002  1.3936e+001 64133 75401,75084,75058
 4.4000e+000 75237 -9.3441e+001 -3.8462e+002  4.7187e+001 64133 75473,75136,75110
 4.4000e+000 75214 -9.5909e+001 -3.0247e+002  3.1294e+000 64133 75032,75188,75162
 4.4000e+000 75355 -1.0854e+002 -3.5736e+002  3.6302e+001 64133 75473,75110,75329
 4.4000e+000 75378 -8.3004e+001 -3.0968e+002  2.8725e+000 64133 75162,75329,75032
 4.4000e+000 75427 -7.8579e+001 -2.9875e+002  1.2918e+000 64133 75032,75329,75401
 4.4000e+000 75450 -1.4804e+002 -3.6683e+002  3.7065e+001 64133 75545,75401,75058
 4.4000e+000 75499 -8.3390e+001 -3.5008e+002  1.4205e+001 64133 75162,75136,75473
 4.4000e+000 75522 -9.5652e+001 -3.0352e+002  1.1924e+001 64133 75162,75473,75329
 4.4000e+000 75571 -7.6139e+001 -2.0968e+002  9.3786e+000 64133 75032,75401,75545
 4.4000e+000 75851 -1.2812e+002 -2.9921e+002  7.0579e+000 63843 75874,75753,75727
 4.4000e+000 75828 -1.1162e+002 -2.9562e+002 -1.4987e+001 63843 75946,75874,75727
 4.4000e+000 75805 -1.2504e+002 -3.1315e+002 -7.1600e+000 63843 76018,75946,75727
 4.4000e+000 75900 -9.9040e+001 -2.8689e+002 -7.6143e+000 63843 75779,75753,75874
 4.4000e+000 75923 -1.0518e+002 -2.4811e+002 -3.2678e+001 63843 75779,75874,75675
 4.4000e+000 75972 -1.2516e+002 -2.8087e+002 -1.2168e+001 63843 75675,75874,75946
 4.4000e+000 75995 -1.1478e+002 -2.9223e+002 -2.0654e+001 63843 75675,75946,75701
 4.4000e+000 76044 -1.2647e+002 -3.0306e+002 -2.6162e+001 63843 75701,75946,76018
 4.4000e+000 76454  1.9866e+001 -6.1306e+001 -3.4453e+001 63439 76477,76255,76229
 4.4000e+000 76431 -2.8242e+001 -1.4426e+002 -3.8660e+000 63439 76477,76229,76359
 4.4000e+000 76408 -4.2242e+001 -1.0877e+002  6.1725e+001 63439 76307,76359,76333
 4.4000e+000 76385 -2.5586e+001 -1.4705e+002  1.0312e+001 63439 76255,76307,76281
 4.4000e+000 76503 -2.8066e+001 -1.2617e+002  1.5284e+001 63439 76307,76255,76477
 4.4000e+000 76526 -2.7082e+001 -1.5913e+002  3.7215e+001 63439 76307,76477,76359
 4.4000e+000 76926 -6.5990e+001 -2.0888e+002 -3.8998e+000 63049 76704,76782,76756
 4.4000e+000 76903 -9.8230e+001 -2.1837e+002 -1.9989e+001 63049 76704,76808,76782
 4.4000e+000 76880 -6.9671e+001 -2.4000e+002  3.1364e+000 63049 76704,76756,76730
 4.4000e+000 76857 -5.8574e+001 -1.4383e+002  9.3402e+000 63049 76678,76808,76704
 4.4000e+000 76834 -2.7642e+001 -3.4209e+001 -3.2397e+001 63049 76652,76808,76678
 4.4000e+000 77076 -3.0952e+001 -3.4891e+002 -2.1964e+000 62737 76975,77027,77001
 4.4000e+000 77053 -2.9182e+001 -3.9174e+002 -2.4954e+001 62737 76949,77027,76975
 4.4000e+000 77324 -1.4787e+002 -3.4239e+002 -4.7763e+000 62277 77347,77177,77125
 4.4000e+000 77301 -1.4664e+002 -3.3226e+002 -2.0034e+001 62277 77347,77125,77229
 4.4000e+000 77278 -1.4180e+002 -3.4494e+002 -2.8154e+001 62277 77099,77229,77125
 4.4000e+000 77255 -1.5467e+002 -4.1030e+002  2.7015e+000 62277 77125,77177,77151
 4.4000e+000 77373 -1.5617e+002 -3.7194e+002  6.3166e+000 62277 77203,77177,77347
 4.4000e+000 77396 -1.3788e+002 -3.4579e+002 -1.1773e+001 62277 77203,77347,77229
 4.4000e+000 77857 -7.7708e+001 -4.3400e+002  4.6422e+000 61758 77635,77739,77661
 4.4000e+000 77834 -1.1576e+002 -4.1790e+002 -1.6172e+001 61758 77583,77739,77635
 4.4000e+000 77811 -1.3426e+002 -5.2754e+002 -5.1456e+001 61758 77583,77635,77609
 4.4000e+000 77788 -1.0744e+002 -4.1082e+002  3.2500e+001 61758 77661,77713,77687
 4.4000e+000 77765 -1.1295e+002 -4.7432e+002  3.1674e+001 61758 77661,77739,77713
 4.4000e+000 78491 -1.1952e+002 -2.3543e+002  1.3637e+001 61418 78171,78301,78249
 4.4000e+000 78468 -9.8166e+001 -1.9929e+002  2.7972e+001 61418 78145,78301,78171
 4.4000e+000 78445 -9.0002e+001 -2.0877e+002 -1.0510e+001 61418 78171,78249,78223
 4.4000e+000 78422 -9.7029e+001 -1.9833e+002  1.1338e+001 61418 78145,78327,78301
 4.4000e+000 78399 -1.2375e+002 -2.6147e+002  1.3910e-001 61418 78249,78301,78275
 4.4000e+000 78376 -5.4451e+001 -2.2511e+002 -1.6397e+001 61418 78171,78223,78197
 4.4000e+000 78353 -1.1390e+002 -2.6174e+002 -5.4161e+000 61418 78119,78327,78145
 4.4000e+000 78690 -1.2040e+002 -2.7920e+002 -2.7875e+000 61014 78713,78566,78540
 4.4000e+000 78667 -8.2643e+001 -2.8484e+002  3.0814e-001 61014 78713,78540,78618
 4.4000e+000 78644 -1.3647e+002 -3.2183e+002 -3.0420e+001 61014 78514,78618,78540
 4.4000e+000 78739 -6.4547e+001 -2.7471e+002  2.8027e+001 61014 78592,78566,78713
 4.4000e+000 78762 -7.8618e+001 -3.0069e+002  1.7477e+000 61014 78785,78713,78618
 4.4000e+000 78811 -2.5127e+001 -2.8012e+002 -5.0898e+000 61014 78592,78713,78785
 4.4000e+000 79398 -5.5523e+001 -2.4489e+002 -2.4716e+001 60624 79101,79179,79153
 4.4000e+000 79375 -7.4478e+001 -2.7560e+002 -1.1674e+001 60624 79101,79231,79179
 4.4000e+000 79352 -5.7105e+001 -2.7427e+002 -1.9482e+001 60624 79075,79231,79101
 4.4000e+000 79329 -1.7628e+001 -3.2859e+002  3.6335e+001 60624 79075,79257,79231
 4.4000e+000 79306 -5.3060e+001 -2.0094e+002 -4.2348e+001 60624 79179,79231,79205
 4.4000e+000 79283 -4.4150e+001 -2.1973e+002 -1.5795e+001 60624 79101,79153,79127
 4.4000e+000 79776 -1.4404e+002 -3.7270e+002  3.3361e+001 60070 79528,79658,79606
 4.4000e+000 79753 -1.2795e+002 -2.9139e+002  7.4271e-001 60070 79502,79658,79528
 4.4000e+000 79730 -1.7460e+002 -3.5799e+002  4.9643e+001 60070 79528,79606,79580
 4.4000e+000 79707 -5.2930e+001 -3.1411e+002  5.4543e+000 60070 79606,79658,79632
 4.4000e+000 79684 -1.6166e+001 -2.1988e+002 -5.6130e+001 60070 79528,79580,79554
 4.4000e+000 80105 -9.9161e+001 -2.8298e+002  3.6779e+001 59758 80128,79958,79906
 4.4000e+000 80082 -1.0636e+002 -2.7030e+002  2.9921e+001 59758 80128,79906,80010
 4.4000e+000 80059 -1.4114e+002 -2.9900e+002  9.8959e+001 59758 79906,79958,79932
 4.4000e+000 80036 -1.5868e+002 -3.1514e+002  1.0246e+001 59758 79880,80010,79906
 4.4000e+000 80154 -1.0327e+002 -2.9103e+002  3.5309e+001 59758 79984,79958,80128
 4.4000e+000 80177 -1.1174e+002 -2.8129e+002  2.8225e+001 59758 79984,80128,80010
 4.4000e+000 80376 -7.6162e+001 -2.6940e+002  5.5600e+000 59312 80226,80304,80252
 4.4000e+000 80353 -7.7800e+001 -2.7517e+002  4.5833e+000 59312 80200,80304,80226
 4.4000e+000 80330 -1.1761e+002 -2.4480e+002  7.2100e+001 59312 80252,80304,80278
 4.4000e+000 80805 -1.0334e+002 -2.3716e+002 -3.6480e+001 58908 80900,80828,80638
 4.4000e+000 80782 -8.8202e+001 -2.7916e+002 -5.4892e+001 58908 80828,80560,80508
 4.4000e+000 80759 -1.0800e+002 -2.2355e+002 -1.3915e+001 58908 80900,80638,80612
 4.4000e+000 80736 -4.7532e+001 -2.4067e+002  9.6274e+001 58908 80482,80664,80508
 4.4000e+000 80713 -7.0984e+001 -2.0766e+002 -7.9364e+000 58908 80560,80612,80586
 4.4000e+000 80690 -9.9932e+001 -6.8172e+002 -1.3016e+002 58908 80508,80560,80534
 4.4000e+000 80854 -4.9848e+001 -2.5632e+002  3.1441e-001 58908 80664,80638,80828
 4.4000e+000 80877 -8.3333e+001 -3.6663e+002  5.5953e+000 58908 80664,80828,80508
 4.4000e+000 80926 -8.8630e+001 -1.9644e+002 -3.9258e+001 58908 80560,80828,80900
 4.4000e+000 80949 -9.9033e+001 -1.9657e+002 -1.3563e+001 58908 80560,80900,80612
 4.4000e+000 81246 -4.5340e+001 -2.2591e+002 -6.5261e+000 58482 81076,81128,81102
 4.4000e+000 81223 -1.0719e+002 -3.8716e+002 -3.8845e+001 58482 80972,81128,81076
 4.4000e+000 81200 -6.9877e+001 -2.6437e+002 -4.1479e+001 58482 80972,81076,81050
 4.4000e+000 81177 -1.4876e+002 -4.0039e+002 -1.1373e+001 58482 80998,81050,81024
 4.4000e+000 81154 -8.4028e+001 -3.3083e+002 -3.8631e+001 58482 80972,81050,80998
 4.4000e+000 81754 -1.1603e+002 -2.3799e+002  1.8700e+001 57828 81457,81613,81483
 4.4000e+000 81731 -1.3008e+002 -2.6333e+002  9.0042e+000 57828 81431,81613,81457
 4.4000e+000 81708 -1.2581e+002 -2.6082e+002  1.9878e+001 57828 81483,81613,81509
 4.4000e+000 81685 -1.4837e+002 -2.9434e+002  2.9829e+001 57828 81509,81613,81587
 4.4000e+000 81662 -1.5625e+002 -4.3430e+002  6.0480e+001 57828 81509,81587,81535
 4.4000e+000 81639 -8.9985e+001 -4.1072e+002  3.7757e+001 57828 81535,81587,81561
 4.4000e+000 82002 -1.7706e+002 -4.2407e+002 -1.2293e+000 57374 82025,81855,81829
 4.4000e+000 81979 -1.8885e+002 -4.0108e+002  1.7973e+001 57374 82025,81829,81907
 4.4000e+000 81956 -1.9382e+002 -3.7539e+002  1.1499e+001 57374 81803,81907,81829
 4.4000e+000 81933 -1.1381e+002 -3.4505e+002  1.6141e+001 57374 81777,81907,81803
 4.4000e+000 82051 -1.7132e+002 -3.9653e+002 -4.6038e+000 57374 81881,81855,82025
 4.4000e+000 82074 -1.8194e+002 -3.7816e+002  2.0646e+001 57374 81881,82025,81907
 4.4000e+000 82356 -1.0019e+002 -2.3675e+002 -1.6719e+001 56913 82180,82232,82206
 4.4000e+000 82333 -8.7859e+001 -2.2820e+002  2.2022e+001 56913 82180,82284,82232
 4.4000e+000 82310 -3.1200e+001 -1.8608e+002  4.3385e+001 56913 82379,82232,82284
 4.4000e+000 82405  2.8167e+001 -1.7891e+002  7.3257e+000 56913 82258,82232,82379
 4.4000e+000 82764 -9.9801e+001 -1.5967e+002 -1.5964e+001 56523 82614,82666,82640
 4.4000e+000 82741 -8.4578e+001 -1.5992e+002 -2.3987e+001 56523 82614,82692,82666
 4.4000e+000 82718 -7.2070e+001 -1.7175e+002 -4.9841e+001 56523 82588,82692,82614
 4.4000e+000 83368 -2.3796e+001 -2.8100e+002 -1.3497e+001 55969 82973,83155,83129
 4.4000e+000 83345  4.0144e+000 -2.6992e+002 -1.8357e+001 55969 82973,83181,83155
 4.4000e+000 83322 -7.4491e+001 -2.4609e+002 -1.1864e+001 55969 82973,83129,82999
 4.4000e+000 83299 -1.1766e+002 -2.5259e+002  4.9785e+000 55969 83391,83025,82999
 4.4000e+000 83276 -1.0220e+002 -2.6164e+002 -3.7562e-001 55969 83391,82999,83129
 4.4000e+000 83253 -2.2770e+001 -2.2040e+002  4.6480e+001 55969 83077,83129,83103
 4.4000e+000 83230 -1.2679e+002 -2.0651e+002 -1.0120e+001 55969 83025,83077,83051
 4.4000e+000 83207 -2.0266e+000 -2.6061e+002  2.3819e+001 55969 82947,83181,82973
 4.4000e+000 83417 -1.0302e+002 -2.4314e+002  1.0547e+001 55969 83077,83025,83391
 4.4000e+000 83440 -9.7871e+001 -2.5613e+002  2.6821e+000 55969 83077,83391,83129
 4.4000e+000 83946 -1.8895e+002 -4.2336e+002  6.5310e+001 55771 83969,83779,83727
 4.4000e+000 83923 -1.4875e+002 -3.4141e+002  4.2096e+001 55771 83969,83727,83623
 4.4000e+000 83900 -1.8460e+002 -1.8260e+002  2.5496e+001 55771 83623,83727,83649
 4.4000e+000 83877 -1.5072e+002 -7.3945e+002  2.7222e+001 55771 83727,83779,83753
 4.4000e+000 83854 -3.0327e+002 -2.9009e+002  1.1303e+002 55771 83675,83727,83701
 4.4000e+000 83831 -2.8703e+002 -2.8753e+002  1.1361e+002 55771 83649,83727,83675
 4.4000e+000 83995 -1.7921e+002 -4.4179e+002 -3.8930e+001 55771 83805,83779,83969
 4.4000e+000 84018 -9.5834e+001 -2.7780e+002 -7.0610e+001 55771 83805,83969,83623
 4.4000e+000 84168 -8.4829e+001 -2.1125e+002 -6.8723e+000 55367 84191,84067,84041
 4.4000e+000 84145 -8.3333e+001 -2.3966e+002 -4.5282e+000 55367 84191,84041,84119
 4.4000e+000 84217 -9.0648e+001 -1.9462e+002 -6.3333e+000 55367 84093,84067,84191
 4.4000e+000 84240 -8.0126e+001 -2.1113e+002  4.0206e+000 55367 84093,84191,84119
 4.4000e+000 84571 -4.6155e+001 -3.3009e+002 -3.2826e+001 54913 84398,84450,84424
 4.4000e+000 84548 -3.7572e+001 -3.0258e+002 -1.6542e+001 54913 84372,84450,84398
 4.4000e+000 84525 -8.0506e+001 -3.3969e+002  1.2204e+001 54913 84346,84450,84372
 4.4000e+000 84502 -2.8001e+001 -2.1952e+002 -2.8734e+001 54913 84346,84476,84450
 4.4000e+000 85126 -1.6878e+002 -3.6469e+002 -1.2692e+001 54402 84858,84936,84910
 4.4000e+000 85103 -1.3301e+002 -2.9152e+002 -3.3991e+001 54402 84806,84936,84858
 4.4000e+000 85080 -1.5682e+002 -2.6390e+002 -2.5400e+001 54402 84780,84936,84806
 4.4000e+000 85057 -1.3141e+002 -3.2416e+002 -1.3843e+001 54402 84806,84858,84832
 4.4000e+000 85034 -1.4056e+002 -2.4863e+002  1.2387e+001 54402 84780,84962,84936
 4.4000e+000 85011 -1.9716e+002 -2.1852e+002 -4.2477e+000 54402 84858,84910,84884
 4.4000e+000 84988 -1.3695e+002 -2.4550e+002  1.4982e+001 54402 84754,84962,84780
 4.4000e+000 85396 -1.3175e+002 -1.6065e+002 -1.0676e+001 53998 85197,85249,85223
 4.4000e+000 85373 -1.0257e+002 -2.0325e+002 -2.1324e+000 53998 85197,85275,85249
 4.4000e+000 85350 -1.2963e+002 -2.3899e+002 -1.4414e+001 53998 85171,85275,85197
 4.4000e+000 85327 -6.2858e+001 -2.2268e+002 -1.7879e+001 53998 85171,85301,85275
 4.4000e+000 85749 -7.6189e+001 -2.6237e+002 -5.7242e+000 53636 85524,85628,85550
 4.4000e+000 85726 -1.1906e+002 -2.8968e+002  8.8496e+000 53636 85524,85654,85628
 4.4000e+000 85703 -4.4169e+001 -2.8090e+002 -2.7346e+001 53636 85550,85602,85576
 4.4000e+000 85680 -7.4073e+001 -2.5956e+002 -1.3243e+001 53636 85550,85628,85602
 4.4000e+000 86127 -3.2617e+001 -2.6642e+002  4.0764e+001 52982 86150,85957,85879
 4.4000e+000 86104 -9.1878e+001 -3.0886e+002  2.2243e+001 52982 86150,85879,85853
 4.4000e+000 86081 -2.7896e+001 -3.8166e+002  7.5649e+001 52982 85957,86009,85983
 4.4000e+000 86058 -1.1192e+002 -2.8549e+002  3.3873e+001 52982 85879,85957,85931
 4.4000e+000 86035 -7.0132e+001 -2.6708e+002 -1.0674e+001 52982 85879,85931,85905
 4.4000e+000 86176  5.5628e+000 -3.1363e+002  3.3074e+001 52982 86009,85957,86150
 4.4000e+000 86199 -2.9576e+001 -3.4204e+002  2.0322e+001 52982 86009,86150,85853
 4.4000e+000 86398 -6.5946e+001 -2.1787e+002  2.0600e+001 52542 86421,86248,86222
 4.4000e+000 86375 -1.1333e+002 -2.2162e+002 -1.5617e+000 52542 86421,86222,86300
 4.4000e+000 86352 -1.1243e+002 -2.3848e+002 -1.0414e+001 52542 86222,86326,86300
 4.4000e+000 86447 -1.8226e+001 -2.1836e+002  3.8994e+001 52542 86274,86248,86421
 4.4000e+000 86470 -6.2800e+001 -2.2886e+002  1.1081e+001 52542 86274,86421,86300
 4.4000e+000 86669 -1.0573e+002 -2.2754e+002 -3.5927e+001 52230 86692,86571,86545
 4.4000e+000 86646 -1.0137e+002 -2.1329e+002 -1.9936e+001 52230 86692,86545,86519
 4.4000e+000 86623 -1.3982e+002 -2.2279e+002 -3.3765e+001 52230 86493,86597,86519
 4.4000e+000 86718 -1.1338e+002 -2.3225e+002 -4.3172e+001 52230 86597,86571,86692
 4.4000e+000 86741 -1.1992e+002 -2.2263e+002 -2.8193e+001 52230 86597,86692,86519
 4.4000e+000 87153 -1.4054e+002 -2.2332e+002  8.0668e+000 51640 86980,87058,87032
 4.4000e+000 87130 -1.4085e+002 -2.3046e+002  5.1696e+000 51640 86928,87058,86980
 4.4000e+000 87107 -1.4905e+002 -3.0982e+002 -1.6079e+001 51640 86928,86980,86954
 4.4000e+000 87084 -7.5539e+001 -1.9572e+002 -3.9034e+000 51640 86980,87032,87006
 4.4000e+000 87659 -6.7006e+001 -2.0068e+002  5.0430e+000 51029 87682,87440,87362
 4.4000e+000 87636 -5.8212e+001 -2.1145e+002 -2.0065e+001 51029 87682,87362,87336
 4.4000e+000 87613 -9.4655e+001 -2.9256e+002 -5.8244e+000 51029 87440,87518,87466
 4.4000e+000 87590 -1.0534e+002 -2.0132e+002  7.7553e+000 51029 87362,87440,87414
 4.4000e+000 87567 -8.6913e+001 -1.5308e+002  3.3997e+001 51029 87362,87414,87388
 4.4000e+000 87544 -1.3174e+002 -2.5332e+002  1.0436e+001 51029 87466,87518,87492
 4.4000e+000 87708 -6.5805e+001 -2.2246e+002 -1.6028e+000 51029 87518,87440,87682
 4.4000e+000 87731 -6.3447e+001 -2.5523e+002 -1.7401e+001 51029 87518,87682,87336
 4.4000e+000 87881 -1.3437e+002 -2.8730e+002  6.6845e+000 50739 87780,87832,87806
 4.4000e+000 87858 -1.5198e+002 -2.8862e+002 -1.2712e+001 50739 87754,87832,87780
 4.4000e+000 88468 -7.6239e+001 -1.8738e+002  5.5526e+000 50235 88171,88327,88197
 4.4000e+000 88445 -1.6930e+002 -1.8450e+002 -3.0097e+001 50235 88145,88327,88171
 4.4000e+000 88422  9.3502e-002 -1.0056e+002 -1.1719e-001 50235 88275,88327,88301
 4.4000e+000 88399 -5.5035e+001 -1.2418e+002 -8.1967e-001 50235 88197,88327,88275
 4.4000e+000 88376 -3.2589e+001 -1.7394e+002 -2.9786e+000 50235 88197,88275,88223
 4.4000e+000 88353 -3.3713e+001 -2.2727e+002 -2.3603e+001 50235 88223,88275,88249
 4.4000e+000 88895 -1.2784e+002 -3.0168e+002  6.8951e+000 49873 88918,88728,88676
 4.4000e+000 88872 -1.0937e+002 -2.8018e+002 -4.8962e+000 49873 88918,88676,88624
 4.4000e+000 88849 -8.6613e+001 -2.5543e+002 -1.1722e+001 49873 88598,88754,88624
 4.4000e+000 88826 -6.7377e+001 -2.6330e+002 -6.5723e+000 49873 88624,88676,88650
 4.4000e+000 88803 -1.0996e+002 -3.6601e+002  9.3096e+000 49873 88676,88728,88702
 4.4000e+000 88780 -1.0702e+002 -2.6306e+002 -1.4228e+001 49873 88572,88754,88598
 4.4000e+000 88944 -1.0566e+002 -2.9983e+002 -6.7119e+000 49873 88754,88728,88918
 4.4000e+000 88967 -9.8481e+001 -2.9185e+002 -1.6253e+001 49873 88754,88918,88624
 4.4000e+000 89473 -1.7876e+002 -2.8196e+002 -3.1877e+001 49583 89176,89306,89202
 4.4000e+000 89450 -1.8071e+002 -2.7575e+002 -4.8612e+001 49583 89176,89332,89306
 4.4000e+000 89427 -1.0559e+002 -3.1006e+002  1.5188e+001 49583 89496,89228,89202
 4.4000e+000 89404 -1.0678e+002 -3.1679e+002  1.7899e+001 49583 89496,89202,89280
 4.4000e+000 89381 -2.2146e+002 -3.9527e+002 -6.6768e+001 49583 89202,89306,89280
 4.4000e+000 89358 -1.4197e+002 -2.7974e+002 -5.6718e+001 49583 89150,89332,89176
 4.4000e+000 89522 -1.0061e+002 -2.6471e+002  8.6795e+000 49583 89254,89228,89496
 4.4000e+000 89545 -1.2250e+002 -3.0331e+002  1.7444e+001 49583 89254,89496,89280
 4.4000e+000 89825  1.9578e+001 -2.8011e+002  1.4523e+001 49179 89701,89753,89727
 4.4000e+000 89802 -4.4254e+001 -2.5435e+002  2.0002e+001 49179 89675,89753,89701
 4.4000e+000 89779 -3.2289e+001 -2.2271e+002  1.5342e+001 49179 89848,89753,89675
 4.4000e+000 89874 -1.4965e+002 -2.5978e+002 -1.6444e+001 49179 89649,89753,89848
 4.4000e+000 90223 -9.5043e+001 -2.8027e+002 -3.1907e+001 48739 90024,90102,90076
 4.4000e+000 90200 -9.2651e+001 -2.6447e+002 -1.2018e+001 48739 90024,90128,90102
 4.4000e+000 90177 -4.3035e+000 -2.7332e+002 -3.3309e+001 48739 90024,90076,90050
 4.4000e+000 90154 -3.4102e+001 -2.5288e+002  1.9202e+001 48739 89998,90128,90024
 4.4000e+000 90603 -8.6490e+001 -2.1935e+002  4.7836e+001 48335 90381,90485,90459
 4.4000e+000 90580 -1.1404e+002 -2.6094e+002  3.5332e+001 48335 90355,90485,90381
 4.4000e+000 90557 -4.5967e+001 -9.3214e+001  2.3326e+001 48335 90381,90433,90407
 4.4000e+000 90534 -8.5105e+001 -2.2969e+002  3.4896e+001 48335 90381,90459,90433
 4.4000e+000 90511  2.6184e+001 -1.8192e+002  6.9801e+001 48335 90329,90485,90355
 4.4000e+000 90753 -3.7446e+000 -1.4439e+002  8.6386e+001 47824 90776,90652,90704
 4.4000e+000 90730 -7.5073e+001 -2.4967e+002  4.0609e+001 47824 90626,90704,90652
 4.4000e+000 90802 -3.4999e+001 -1.8817e+002  6.9185e+001 47824 90678,90652,90776
 4.4000e+000 91131 -8.9524e+001 -3.0546e+002  1.3750e+001 47427 91154,90958,90906
 4.4000e+000 91108 -1.5709e+002 -3.3297e+002 -6.6851e-001 47427 91154,90906,91036
 4.4000e+000 91085 -1.5488e+002 -2.6797e+002 -2.3898e+001 47427 90958,91010,90984
 4.4000e+000 91062 -8.9336e+001 -2.8078e+002  1.6515e+001 47427 90906,90958,90932
 4.4000e+000 91180 -1.2930e+002 -3.0455e+002 -3.0476e+001 47427 91010,90958,91154
 4.4000e+000 91203 -1.9473e+002 -3.3296e+002 -4.6101e+001 47427 91010,91154,91036
 4.4000e+000 91583 -1.5893e+002 -2.9477e+002 -1.7170e+001 46873 91309,91439,91335
 4.4000e+000 91560 -1.6673e+002 -2.9997e+002 -1.4186e+001 46873 91309,91465,91439
 4.4000e+000 91537 -2.3528e+002 -3.4162e+002 -8.3780e+001 46873 91361,91439,91413
 4.4000e+000 91514 -1.7854e+002 -3.0749e+002 -4.4902e+001 46873 91335,91439,91361
 4.4000e+000 91491 -8.1781e+001 -2.9383e+002 -7.8706e+001 46873 91361,91413,91387
 4.4000e+000 91880 -9.7109e+001 -3.0585e+002 -6.8330e+000 46526 91606,91710,91658
 4.4000e+000 91857 -1.0222e+002 -3.2062e+002  2.6102e+000 46526 91606,91762,91710
 4.4000e+000 91834 -5.9214e+001 -2.9532e+002 -3.4952e+001 46526 91606,91658,91632
 4.4000e+000 91811 -1.1533e+002 -2.8512e+002  5.5860e+000 46526 91658,91710,91684
 4.4000e+000 91788 -6.7201e+001 -2.1824e+002  9.3570e+000 46526 91710,91762,91736
 4.4000e+000 92211 -5.3331e+001 -1.2374e+002 -8.9679e+000 45700 91986,92064,92038
 4.4000e+000 92188 -7.0288e+001 -1.8669e+002  1.9934e+000 45700 91986,92116,92064
 4.4000e+000 92165 -4.1757e+001 -1.0746e+002 -2.3902e+001 45700 91986,92038,92012
 4.4000e+000 92142 -4.7544e+001 -2.0294e+002  2.4782e+001 45700 92064,92116,92090
 4.4000e+000 92766 -1.4041e+002 -2.6596e+002  1.6760e+001 45452 92446,92602,92576
 4.4000e+000 92743 -2.0115e+002 -2.5574e+002 -2.0530e+001 45452 92420,92602,92446
 4.4000e+000 92720 -1.5812e+002 -2.7462e+002  4.3341e+001 45452 92789,92524,92498
 4.4000e+000 92697 -1.8132e+002 -2.6985e+002  3.6051e+001 45452 92789,92498,92446
 4.4000e+000 92674 -1.5584e+002 -2.9303e+002 -2.6653e+000 45452 92524,92576,92550
 4.4000e+000 92651 -2.3817e+002 -2.7762e+002  1.4765e+002 45452 92446,92498,92472
 4.4000e+000 92628 -1.5481e+002 -3.6267e+002 -9.4270e+001 45452 92394,92602,92420
 4.4000e+000 92815 -1.4185e+002 -2.7792e+002  3.7118e+001 45452 92576,92524,92789
 4.4000e+000 92838 -1.5995e+002 -2.6923e+002  3.2920e+001 45452 92576,92789,92446
 4.4000e+000 92939 -1.1409e+002 -3.6083e+002 -7.4488e+001 44998 92861,92913,92887
 4.4000e+000 93319 -2.2347e+001 -3.6641e+002  6.9994e+001 44601 93123,93201,93149
 4.4000e+000 93296 -1.0077e+002 -3.7325e+002 -3.7081e+001 44601 93045,93201,93123
 4.4000e+000 93273 -8.0675e+001 -2.1388e+002 -5.2593e+001 44601 93045,93123,93071
 4.4000e+000 93250 -7.6426e+001 -1.9803e+002 -3.3220e+001 44601 93071,93123,93097
 4.4000e+000 93227 -6.7697e+000 -2.0568e+002  7.5633e+001 44601 93149,93201,93175
 4.4000e+000 93697 -7.7855e+001 -4.0135e+002  2.1555e+001 44026 93720,93553,93527
 4.4000e+000 93674 -1.3894e+002 -3.4074e+002  2.9661e+001 44026 93720,93527,93449
 4.4000e+000 93651 -1.5306e+002 -3.5240e+002 -4.9085e+000 44026 93449,93527,93501
 4.4000e+000 93628 -1.1305e+002 -2.7426e+002 -5.9643e+001 44026 93423,93579,93449
 4.4000e+000 93605 -3.4921e+001 -2.7950e+002  2.6163e+001 44026 93449,93501,93475
 4.4000e+000 93746 -3.4315e+001 -3.5691e+002  3.9320e+000 44026 93579,93553,93720
 4.4000e+000 93769 -9.8775e+001 -2.9759e+002  1.2879e+001 44026 93579,93720,93449
 4.4000e+000 94066 -7.7280e+001 -3.1542e+002 -4.2412e+001 43579 94089,93818,93792
 4.4000e+000 94043 -1.2850e+002 -3.4781e+002 -2.7789e+001 43579 94161,94089,93792
 4.4000e+000 94020 -1.2609e+002 -3.4927e+002 -1.4449e+001 43579 94161,93792,93948
 4.4000e+000 93997 -1.3676e+002 -2.8113e+002 -1.4792e+001 43579 94233,93870,93818
 4.4000e+000 93974 -7.8044e+001 -2.9147e+002  9.3630e+000 43579 93818,93870,93844
 4.4000e+000 94115 -1.3283e+002 -2.8329e+002 -3.2026e+001 43579 94233,93818,94089
 4.4000e+000 94138 -1.7420e+002 -3.1479e+002 -1.9797e+001 43579 93896,94089,93922
 4.4000e+000 94187 -1.1979e+002 -3.2814e+002 -2.6153e+001 43579 93922,94089,94161
 4.4000e+000 94210 -1.1579e+002 -3.2737e+002 -1.1608e+001 43579 93922,94161,93948
 4.4000e+000 94259 -1.5845e+002 -3.1394e+002 -3.9224e+000 43579 93896,93870,94233
 4.4000e+000 94282 -1.4416e+002 -3.0718e+002 -2.3712e+001 43579 93896,94233,94089
 4.4000e+000 94481 -1.0524e+002 -3.2379e+002 -2.1219e+000 43239 94305,94383,94357
 4.4000e+000 94458 -9.0104e+001 -2.9580e+002  3.6858e+001 43239 94305,94409,94383
 4.4000e+000 94435 -8.0471e+001 -3.4617e+002 -8.3846e+000 43239 94305,94357,94331
 4.4000e+000 94633 -3.9133e+001 -2.0689e+002  4.7896e+001 42827 94656,94532,94506
 4.4000e+000 94610 -8.6502e+001 -2.2859e+002  5.3052e+001 42827 94728,94656,94506
 4.4000e+000 94682 -4.8507e+001 -2.3702e+002  4.0936e+001 42827 94558,94532,94656
 4.4000e+000 94705 -2.0259e+001 -2.3320e+002  2.5486e+001 42827 94988,94860,94656
 4.4000e+000 94754 -5.1282e+001 -2.1175e+002  1.7303e+001 42827 94988,94656,94728
 4.4000e+000 94886  8.0556e+000 -2.2017e+002  2.8648e+001 42827 94558,94656,94860
 4.4000e+000 95014  5.6252e+000 -2.1482e+002  1.7467e+001 42827 94584,94860,94988
 4.4000e+000 95037 -2.0754e+001 -1.9434e+002  9.8200e+000 42827 94584,94988,94728
 4.4000e+000 95236 -4.7252e+001 -2.5955e+002  3.3686e+001 42537 95259,95112,95060
 4.4000e+000 95213 -5.7708e+001 -2.5427e+002  3.1561e+001 42537 95259,95060,95164
 4.4000e+000 95190 -2.4967e+001 -2.6473e+002 -5.0677e+000 42537 95060,95112,95086
 4.4000e+000 95285 -5.4298e+001 -2.6108e+002  2.9095e+001 42537 95138,95112,95259
 4.4000e+000 95308 -6.4758e+001 -2.5841e+002  2.5486e+001 42537 95138,95259,95164
 4.4000e+000 95816 -1.1540e+002 -3.1562e+002 -2.2644e+001 41969 95493,95597,95519
 4.4000e+000 95793 -1.7002e+002 -3.0240e+002  2.5555e+001 41969 95493,95649,95597
 4.4000e+000 95770 -1.2944e+002 -2.8627e+002  2.3406e+001 41969 95493,95675,95649
 4.4000e+000 95747 -1.3819e+002 -3.8371e+002  2.2012e+001 41969 95597,95649,95623
 4.4000e+000 95724 -1.7934e+002 -2.9259e+002 -3.5839e+001 41969 95519,95597,95571
 4.4000e+000 95701 -1.5778e+002 -2.5478e+002 -7.2971e+001 41969 95519,95571,95545
 4.4000e+000 96371 -1.4201e+002 -3.3450e+002  4.0665e+001 41579 96025,96207,96181
 4.4000e+000 96348  4.0532e+001 -2.5194e+002 -1.0642e+001 41579 95999,96207,96025
 4.4000e+000 96325 -1.6074e+002 -2.6006e+002 -2.8028e+001 41579 96129,96181,96155
 4.4000e+000 96302 -6.1710e+001 -2.3680e+002  2.2083e+000 41579 96025,96181,96129
 4.4000e+000 96279 -1.2876e+002 -3.4311e+002  4.5367e+001 41579 96025,96129,96051
 4.4000e+000 96256 -1.5781e+002 -3.4055e+002  5.4392e+001 41579 96051,96103,96077
 4.4000e+000 96233 -5.9900e+001 -2.5565e+002  7.5983e+000 41579 96051,96129,96103
 4.4000e+000 96877 -3.6270e+001 -2.1471e+002 -2.3891e+001 41182 96972,96900,96632
 4.4000e+000 96854 -4.6159e+001 -1.6292e+002 -2.6034e+001 41182 96900,96554,96736
 4.4000e+000 96831 -3.4815e+001 -2.1387e+002 -2.1099e+001 41182 96972,96632,96580
 4.4000e+000 96808 -4.7437e+001 -2.0280e+002  2.0331e+001 41182 96632,96684,96658
 4.4000e+000 96785 -8.1816e+001 -2.1651e+002  2.6842e+001 41182 96684,96736,96710
 4.4000e+000 96762 -1.2276e+002 -2.7121e+002  4.3682e+001 41182 96580,96632,96606
 4.4000e+000 96926 -3.4035e+001 -2.3857e+002 -2.3789e+001 41182 96684,96632,96900
 4.4000e+000 96949 -6.7707e+001 -2.1234e+002 -4.2089e+001 41182 96684,96900,96736
 4.4000e+000 96998 -4.1749e+001 -2.1798e+002 -2.7618e+001 41182 96554,96900,96972
 4.4000e+000 97021 -3.9951e+001 -2.1493e+002 -2.4480e+001 41182 96554,96972,96580
 4.4000e+000 97576 -1.9513e+002 -4.7801e+002 -6.6363e+001 40678 97230,97412,97282
 4.4000e+000 97553 -1.9975e+001 -3.9070e+002  2.0807e+001 40678 97204,97412,97230
 4.4000e+000 97530 -5.8888e+001 -3.6705e+002 -5.7824e+001 40678 97282,97360,97308
 4.4000e+000 97507 -8.8709e+001 -3.7403e+002 -2.4072e+001 40678 97282,97412,97360
 4.4000e+000 97484 -2.9703e+001 -2.2500e+002 -5.0810e+001 40678 97308,97360,97334
 4.4000e+000 97461 -1.1432e+002 -4.4632e+002 -1.3177e+001 40678 97360,97412,97386
 4.4000e+000 97438 -1.0880e+002 -2.9568e+002 -4.1246e+001 40678 97230,97282,97256
 4.4000e+000 97976 -1.4988e+002 -2.5109e+002 -6.6975e+000 40244 97702,97832,97754
 4.4000e+000 97953 -1.2667e+002 -2.4063e+002 -1.3378e+001 40244 97702,97858,97832
 4.4000e+000 97930 -1.6061e+002 -2.9499e+002 -6.3312e+001 40244 97702,97754,97728
 4.4000e+000 97907 -1.2764e+002 -2.8063e+002  3.0895e+001 40244 97780,97832,97806
 4.4000e+000 97884 -1.3808e+002 -2.4376e+002 -2.6195e+000 40244 97754,97832,97780
 4.4000e+000 98482 -8.4654e+001 -2.3913e+002  3.8019e+001 39690 98505,98185,98159
 4.4000e+000 98459 -8.6626e+001 -2.3205e+002  3.6841e+001 39690 98505,98159,98289
 4.4000e+000 98436 -1.6078e+002 -3.4316e+002  9.2706e+001 39690 98159,98315,98289
 4.4000e+000 98413 -6.7240e+001 -2.1555e+002  3.3974e+001 39690 98211,98289,98263
 4.4000e+000 98390 -3.9622e+001 -1.3969e+002  2.0508e+001 39690 98211,98263,98237
 4.4000e+000 98367 -4.3737e+001 -2.2008e+002  3.6496e+001 39690 98159,98341,98315
 4.4000e+000 98531 -8.6425e+001 -2.3513e+002  3.3342e+001 39690 98211,98185,98505
 4.4000e+000 98554 -8.6341e+001 -2.2376e+002  3.3573e+001 39690 98211,98505,98289
 4.4000e+000 99109 -8.0876e+001 -2.1180e+002 -1.2824e+001 39072 99132,98867,98789
 4.4000e+000 99086 -7.7649e+001 -2.1984e+002 -1.9606e+001 39072 99132,98789,98763
 4.4000e+000 99063 -1.2090e+002 -3.5111e+002  3.9005e+001 39072 98867,98945,98919
 4.4000e+000 99040 -6.9371e+001 -2.2404e+002 -2.7173e+000 39072 98789,98867,98841
 4.4000e+000 99017 -1.6124e+002 -2.4942e+002  1.0813e+001 39072 98867,98919,98893
 4.4000e+000 98994 -1.1311e+002 -2.0906e+002  4.4102e+001 39072 98789,98841,98815
 4.4000e+000 98971 -1.1590e+002 -2.5193e+002 -1.6246e+001 39072 98737,98945,98763
 4.4000e+000 99158 -7.8504e+001 -2.2212e+002 -1.4341e+001 39072 98945,98867,99132
 4.4000e+000 99181 -7.7911e+001 -2.3619e+002 -1.7123e+001 39072 98945,99132,98763
 4.4000e+000 99510 -6.8770e+001 -1.9775e+002  1.3353e+001 38668 99311,99389,99363
 4.4000e+000 99487 -5.7726e+001 -2.0661e+002 -6.4649e+000 38668 99285,99389,99311
 4.4000e+000 99464 -1.3109e+002 -2.8738e+002  2.4968e+001 38668 99285,99415,99389
 4.4000e+000 99441 -6.2037e+001 -2.1345e+002  2.1874e+001 38668 99311,99363,99337
 4.4000e+000 99758 -7.9001e+001 -3.1869e+002  4.9922e+001 38164 99781,99611,99585
 4.4000e+000 99735 -3.3530e+001 -3.2691e+002  5.5083e+001 38164 99781,99585,99533
 4.4000e+000 99712 -1.1874e+002 -3.0142e+002  3.5137e+001 38164 99611,99663,99637
 4.4000e+000 99689  1.3761e+001 -3.1196e+002 -2.0476e+001 38164 99533,99585,99559
 4.4000e+000 99807 -1.0494e+002 -3.1726e+002  6.2661e+001 38164 99663,99611,99781
 4.4000e+000 99830 -7.0324e+001 -3.3071e+002  6.0719e+001 38164 99663,99781,99533
 4.4000e+000 100232 -9.5521e+001 -2.4328e+002  3.5647e+000 37702 99984,100114,100088
 4.4000e+000 100209 -7.7296e+001 -2.6466e+002  2.7102e+001 37702 99958,100114,99984
 4.4000e+000 100186 -1.3782e+002 -2.9989e+002 -1.8754e+001 37702 100010,100088,100036
 4.4000e+000 100163 -9.4913e+001 -2.4352e+002  2.5151e-003 37702 99984,100088,100010
 4.4000e+000 100140 -8.2153e+001 -2.2181e+002 -6.4397e+001 37702 100036,100088,100062
 4.4000e+000 100640 -1.9805e+002 -2.8158e+002  3.5507e+001 37262 100493,100545,100519
 4.4000e+000 100617 -1.7799e+002 -3.1844e+002  1.7572e+001 37262 100441,100545,100493
 4.4000e+000 100594 -7.4603e+001 -2.3881e+002 -4.3085e+001 37262 100415,100545,100441
 4.4000e+000 100571 -1.9780e+002 -3.3584e+002 -1.4320e+001 37262 100441,100493,100467
 4.4000e+000 101146 -1.3795e+002 -2.3421e+002 -1.2675e+000 36872 100823,100979,100849
 4.4000e+000 101123 -1.3408e+002 -2.1751e+002 -2.1468e+001 36872 100823,101005,100979
 4.4000e+000 101100 -1.4419e+002 -3.3782e+002  4.6284e+001 36872 101169,100901,100849
 4.4000e+000 101077 -1.1105e+002 -2.6845e+002  2.4703e+001 36872 101169,100849,100979
 4.4000e+000 101054 -7.7906e+001 -2.7873e+002 -1.7708e+001 36872 100927,100979,100953
 4.4000e+000 101031 -7.8867e+001 -3.8288e+002  6.4602e+001 36872 100849,100901,100875
 4.4000e+000 101195 -9.9187e+001 -3.5817e+002  2.8130e+000 36872 100927,100901,101169
 4.4000e+000 101218 -7.9102e+001 -3.2161e+002 -1.4520e+001 36872 100927,101169,100979
 4.4000e+000 101773 -1.6237e+002 -2.5314e+002  4.6335e+001 36418 101479,101609,101583
 4.4000e+000 101750 -1.6640e+002 -2.7298e+002  4.8838e+001 36418 101453,101609,101479
 4.4000e+000 101727 -1.1123e+002 -2.6821e+002 -2.3616e+000 36418 101796,101531,101479
 4.4000e+000 101704 -1.5431e+002 -2.9819e+002  1.9479e+001 36418 101796,101479,101583
 4.4000e+000 101681 -9.6568e+001 -2.3468e+002 -7.9072e+000 36418 101479,101531,101505
 4.4000e+000 101658 -5.0143e+000 -2.4576e+002  2.5506e+000 36418 101401,101609,101453
 4.4000e+000 101635 -4.9451e+001 -2.5512e+002 -3.6677e+000 36418 101401,101453,101427
 4.4000e+000 101822 -1.2130e+002 -2.4617e+002 -4.3036e+001 36418 101557,101531,101796
 4.4000e+000 101845 -1.7061e+002 -2.5658e+002 -2.3277e+001 36418 101557,101796,101583
 4.4000e+000 102174 -1.6433e+001 -1.2324e+002 -3.1286e+001 35914 101949,102053,101975
 4.4000e+000 102151 -6.2080e+001 -1.2104e+002 -2.4911e+001 35914 101949,102079,102053
 4.4000e+000 102128 -6.2807e+001 -1.4515e+002 -1.5369e+001 35914 101975,102053,102027
 4.4000e+000 102105 -3.9378e+001 -1.0937e+002 -2.5536e+001 35914 101975,102027,102001
 4.4000e+000 102631 -5.3095e+001 -2.7435e+002  1.0679e+001 35574 102383,102513,102487
 4.4000e+000 102608 -3.9112e+001 -2.8815e+002  8.4633e+000 35574 102357,102513,102383
 4.4000e+000 102585 -9.0978e+001 -2.8323e+002  1.1088e+001 35574 102409,102487,102435
 4.4000e+000 102562 -9.6395e+001 -2.9039e+002  7.6668e+000 35574 102383,102487,102409
 4.4000e+000 102539 -9.0164e+001 -2.8336e+002  1.2218e+001 35574 102435,102487,102461
 4.4000e+000 103009 -1.4672e+002 -2.6968e+002 -1.8836e+001 35170 102761,102865,102787
 4.4000e+000 102986 -8.8074e+001 -2.3694e+002  2.5443e+001 35170 102761,102891,102865
 4.4000e+000 102963 -1.2994e+002 -2.6067e+002 -7.0813e+000 35170 102787,102865,102813
 4.4000e+000 102940 -7.2249e+001 -2.2641e+002  3.0297e+001 35170 102735,102891,102761
 4.4000e+000 102917 -1.3088e+002 -2.6635e+002 -1.7104e+001 35170 102813,102865,102839
 4.4000e+000 103257 -2.6348e+001 -2.0721e+002 -3.6960e+001 34659 103280,103058,103032
 4.4000e+000 103234 -4.1540e+001 -2.1938e+002 -2.1627e+001 34659 103280,103032,103162
 4.4000e+000 103211 -7.4180e+001 -2.2080e+002 -1.9678e+001 34659 103084,103162,103110
 4.4000e+000 103188 -9.7449e+001 -2.7065e+002 -1.3545e+001 34659 103110,103162,103136
 4.4000e+000 103306 -5.2862e+001 -1.9223e+002 -3.1880e+001 34659 103084,103058,103280
 4.4000e+000 103329 -6.2748e+001 -2.0516e+002 -1.4625e+001 34659 103084,103280,103162
 4.4000e+000 103837 -2.7314e+001 -3.0168e+002  1.0182e+001 34247 103860,103566,103540
 4.4000e+000 103814 -4.0974e+001 -3.0268e+002  9.5492e-001 34247 103932,103860,103540
 4.4000e+000 103791 -3.0090e+001 -3.3533e+002 -3.2397e+001 34247 103932,103540,103670
 4.4000e+000 103768 -3.3607e+001 -2.8433e+002  5.8285e+000 34247 103566,103618,103592
 4.4000e+000 103745 -1.2313e+002 -2.8220e+002 -4.2795e+001 34247 103540,103696,103670
 4.4000e+000 103722 -1.6204e+002 -3.1186e+002  4.5476e+001 34247 103514,103696,103540
 4.4000e+000 103886 -6.2018e+001 -3.0079e+002 -2.0087e+000 34247 103618,103566,103860
 4.4000e+000 103909 -6.9564e+001 -3.2085e+002  8.9015e+000 34247 103618,103860,103644
 4.4000e+000 103958 -7.0344e+001 -3.8093e+002 -4.0692e+000 34247 103644,103860,103932
 4.4000e+000 103981 -5.9447e+001 -4.1116e+002 -3.9088e+001 34247 103644,103932,103670
 4.4000e+000 104300 -1.4932e+002 -3.1564e+002 -1.0781e+001 33843 104052,104182,104156
 4.4000e+000 104277 -1.9176e+002 -2.9848e+002 -3.6827e+000 33843 104026,104182,104052
 4.4000e+000 104254 -1.4625e+002 -3.6120e+002  6.5584e+000 33843 104078,104156,104130
 4.4000e+000 104231 -1.7217e+002 -3.4094e+002  7.3105e-001 33843 104052,104156,104078
 4.4000e+000 104208 -2.2464e+002 -3.8403e+002  1.0345e+001 33843 104078,104130,104104
 4.4000e+000 104499 -1.0434e+002 -3.2289e+002 -2.7729e+001 33282 104594,104522,104375
 4.4000e+000 104476 -8.9270e+001 -3.1220e+002  1.0173e+001 33282 104522,104323,104427
 4.4000e+000 104453 -6.3560e+001 -3.4608e+002 -2.4942e+001 33282 104594,104375,104349
 4.4000e+000 104548 -1.0893e+002 -2.7796e+002 -1.3641e+001 33282 104401,104375,104522
 4.4000e+000 104571 -7.5163e+001 -2.7394e+002  1.3268e+001 33282 104401,104522,104427
 4.4000e+000 104620 -5.5244e+001 -2.7944e+002 -8.9425e+000 33282 104323,104522,104594
 4.4000e+000 104643 -2.9734e+001 -3.1797e+002 -1.2236e+001 33282 104323,104594,104349
 4.4000e+000 104942 -1.4073e+002 -3.5594e+002  4.2445e+001 32728 104694,104772,104720
 4.4000e+000 104919 -1.0727e+002 -3.2516e+002  1.5720e+001 32728 104694,104824,104772
 4.4000e+000 104896 -1.8197e+002 -3.2020e+002  4.7589e+001 32728 104720,104772,104746
 4.4000e+000 104873 -8.2263e+001 -3.6850e+002  1.8266e+001 32728 104772,104824,104798
 4.4000e+000 104850 -8.8961e+001 -3.2094e+002  1.6016e+001 32728 104668,104824,104694
 4.4000e+000 105373 -1.1798e+002 -3.4549e+002 -1.5858e+001 32274 105396,105102,105076
 4.4000e+000 105350 -1.2818e+002 -3.7777e+002 -6.0659e+000 32274 105396,105076,105206
 4.4000e+000 105327 -1.6046e+002 -3.8288e+002  1.9174e+001 32274 105154,105206,105180
 4.4000e+000 105304 -6.6309e+001 -3.6282e+002 -2.9284e+001 32274 105076,105232,105206
 4.4000e+000 105281 -1.3930e+002 -3.1279e+002 -5.7577e+001 32274 105102,105154,105128
 4.4000e+000 105258 -2.0392e+002 -3.1208e+002 -5.9466e+001 32274 105050,105232,105076
 4.4000e+000 105422 -1.3655e+002 -3.1050e+002 -1.4473e+001 32274 105154,105102,105396
 4.4000e+000 105445 -1.4572e+002 -3.4327e+002 -6.9381e+000 32274 105154,105396,105206
 4.4000e+000 105644 -1.3761e+002 -3.5103e+002 -5.7191e+000 31620 105468,105546,105520
 4.4000e+000 105621 -1.1194e+002 -3.8237e+002 -1.8413e+001 31620 105468,105572,105546
 4.4000e+000 105598 -1.3626e+002 -3.7810e+002  2.0136e+001 31620 105468,105520,105494
 4.4000e+000 105794 -3.5184e+001 -3.0731e+002 -9.4939e+000 31158 105889,105817,105693
 4.4000e+000 105771 -5.5594e+001 -2.7812e+002 -2.0313e+001 31158 105817,105667,105745
 4.4000e+000 105843 -4.5343e+001 -3.7576e+002 -3.3484e+000 31158 105719,105693,105817
 4.4000e+000 105866 -2.4214e+001 -3.2362e+002 -1.6649e+001 31158 105719,105817,105745
 4.4000e+000 105915 -8.2328e+001 -3.2751e+002 -1.0041e+001 31158 105667,105817,105889
 4.4000e+000 106270 -1.3549e+002 -3.0919e+002 -1.3370e+000 30818 106293,106071,106045
 4.4000e+000 106247 -1.5723e+002 -3.5812e+002 -1.8881e+001 30818 106293,106045,106175
 4.4000e+000 106224 -1.0931e+002 -2.8433e+002  1.8140e+001 30818 106123,106175,106149
 4.4000e+000 106201 -1.3979e+002 -3.1254e+002  3.0927e+001 30818 106071,106123,106097
 4.4000e+000 106319 -1.3759e+002 -2.8998e+002  1.6660e+001 30818 106123,106071,106293
 4.4000e+000 106342 -1.4036e+002 -3.1554e+002  1.8696e+000 30818 106123,106293,106175
 4.4000e+000 106492 -1.2705e+002 -2.8649e+002  5.4371e+001 30414 106645,106391,106365
 4.4000e+000 106469 -4.4779e+001 -2.8336e+002  8.3055e+001 30414 106515,106365,106443
 4.4000e+000 106541 -8.0328e+001 -2.9772e+002  6.1553e+001 30414 106645,106365,106515
 4.4000e+000 106671 -6.0855e+001 -3.3887e+002  1.0533e+002 30414 106417,106391,106645
 4.4000e+000 106694  4.4968e+001 -3.1335e+002  9.0512e+001 30414 106417,106645,106515
 4.4000e+000 106942 -6.5849e+001 -4.3324e+002 -7.2226e-001 29910 106965,106795,106769
 4.4000e+000 106919 -5.7529e+001 -3.8926e+002  1.2007e+001 29910 106965,106769,106717
 4.4000e+000 106896 -5.8958e+001 -3.2564e+002 -4.2630e+001 29910 106795,106847,106821
 4.4000e+000 106873 -2.9989e+001 -3.3126e+002  2.1803e+001 29910 106717,106769,106743
 4.4000e+000 106991 -9.0084e+001 -3.8614e+002  5.3643e+000 29910 106847,106795,106965
 4.4000e+000 107014 -7.1975e+001 -3.2774e+002  1.7502e+001 29910 106847,106965,106717
 4.4000e+000 107213 -9.3242e+001 -3.2462e+002  1.9867e+001 29413 107236,107063,107037
 4.4000e+000 107190 -8.5190e+001 -3.8193e+002  4.1048e+001 29413 107236,107037,107141
 4.4000e+000 107167 -1.1374e+002 -2.3610e+002  5.0814e+001 29413 107063,107115,107089
 4.4000e+000 107262 -8.7969e+001 -2.8777e+002  1.4145e+001 29413 107115,107063,107236
 4.4000e+000 107285 -7.1367e+001 -3.3026e+002  3.7385e+001 29413 107115,107236,107141
 4.4000e+000 107486 -4.0739e+001 -3.1104e+002  4.1318e+001 29009 107336,107388,107362
 4.4000e+000 107463 -2.1060e+001 -3.0026e+002  1.1825e+001 29009 107310,107388,107336
 4.4000e+000 107440 -2.5679e+001 -2.8228e+002  1.1482e+001 29009 107310,107414,107388
 4.4000e+000 107736 -1.3478e+002 -3.5695e+002 -1.3784e+001 28491 107537,107615,107563
 4.4000e+000 107713 -1.1669e+002 -3.4831e+002 -9.3937e+000 28491 107537,107641,107615
 4.4000e+000 107690 -7.5099e+001 -3.3695e+002  6.3856e+000 28491 107563,107615,107589
 4.4000e+000 107667 -1.2278e+002 -3.4583e+002 -1.0498e+001 28491 107511,107641,107537
 4.4000e+000 108118 -7.5556e+001 -3.3944e+002  1.3494e+001 27980 108141,107922,107844
 4.4000e+000 108095 -6.0330e+001 -3.6535e+002  1.2667e+001 27980 108141,107844,108000
 4.4000e+000 108072 -7.9484e+001 -3.5471e+002 -1.8681e+001 27980 107844,107922,107870
 4.4000e+000 108049 -8.5983e+001 -3.0523e+002 -9.4031e+000 27980 107870,107922,107896
 4.4000e+000 108026 -1.1968e+002 -3.1746e+002  4.0223e+001 27980 107922,107974,107948
 4.4000e+000 108167 -6.5134e+001 -3.3883e+002  1.8388e+001 27980 107974,107922,108141
 4.4000e+000 108190 -2.3663e+001 -3.3987e+002  2.5356e+001 27980 107974,108141,108000
 4.4000e+000 108745 -3.9504e+001 -2.2333e+002 -4.8758e+000 27376 108840,108768,108477
 4.4000e+000 108722 -6.9370e+001 -2.7628e+002 -5.4118e+001 27376 108768,108373,108581
 4.4000e+000 108699 -6.4415e+001 -1.9325e+002  4.1133e+001 27376 108840,108477,108451
 4.4000e+000 108676 -1.5982e+002 -2.3537e+002 -9.6852e+000 27376 108373,108451,108399
 4.4000e+000 108653 -6.5604e+001 -2.7909e+002  3.8310e+001 27376 108503,108581,108529
 4.4000e+000 108630 -7.4004e+001 -2.7330e+002  3.9982e+001 27376 108529,108581,108555
 4.4000e+000 108607 -1.8061e+002 -2.5182e+002  1.9891e+001 27376 108399,108451,108425
 4.4000e+000 108794 -6.4973e+001 -3.0204e+002  1.5310e+000 27376 108503,108477,108768
 4.4000e+000 108817 -1.3374e+001 -2.7476e+002 -9.9485e+000 27376 108503,108768,108581
 4.4000e+000 108866 -1.3308e+002 -2.7740e+002 -2.6832e+001 27376 108373,108768,108840
 4.4000e+000 108889 -1.2846e+002 -2.3808e+002  2.1411e+001 27376 108373,108840,108451
 4.4000e+000 109186 -1.3251e+002 -3.5059e+002  3.6443e+001 26722 109209,108938,108912
 4.4000e+000 109163 -1.2350e+002 -3.2880e+002  3.4159e+001 26722 109281,109209,108912
 4.4000e+000 109140 -1.1875e+002 -3.1995e+002  3.2178e+001 26722 109281,108912,109042
 4.4000e+000 109117 -1.0998e+002 -3.7663e+002  1.6442e+001 26722 108938,108990,108964
 4.4000e+000 109094 -1.6700e+002 -2.9117e+002  2.1268e+001 26722 108912,109068,109042
 4.4000e+000 109235 -1.1191e+002 -3.3890e+002  3.1520e+001 26722 108990,108938,109209
 4.4000e+000 109258 -1.1938e+002 -3.6450e+002  2.8499e+001 26722 108990,109209,109016
 4.4000e+000 109307 -1.0900e+002 -3.4273e+002  1.7320e+001 26722 109016,109209,109281
 4.4000e+000 109330 -1.0020e+002 -3.2738e+002  1.3470e+001 26722 109016,109281,109042
 4.4000e+000 109732 -1.4077e+002 -2.8888e+002 -5.8938e+000 26310 109458,109588,109484
 4.4000e+000 109709 -1.3524e+002 -3.3875e+002 -3.5648e+001 26310 109458,109614,109588
 4.4000e+000 109686 -1.9996e+002 -3.3926e+002  5.0304e+001 26310 109510,109562,109536
 4.4000e+000 109663 -1.9758e+002 -3.1909e+002  1.9723e+001 26310 109484,109562,109510
 4.4000e+000 109640 -1.4517e+002 -2.9348e+002 -8.2923e-001 26310 109484,109588,109562
 4.4000e+000 110159 -8.5034e+001 -2.9174e+002 -9.6415e+000 25642 110182,109940,109914
 4.4000e+000 110136 -7.8220e+001 -3.4043e+002  4.0612e+001 25642 110182,109914,109888
 4.4000e+000 110113 -1.0630e+002 -3.6316e+002 -4.7475e+001 25642 109966,110018,109992
 4.4000e+000 110090 -1.1730e+002 -3.5045e+002  2.7413e+001 25642 110254,109966,109940
 4.4000e+000 110067 -1.5800e+002 -3.3301e+002  1.9464e+001 25642 109862,110018,109888
 4.4000e+000 110044 -1.4795e+002 -2.7765e+002  4.6848e+001 25642 109836,110018,109862
 4.4000e+000 110208 -1.1603e+002 -3.2006e+002  2.0462e+001 25642 110254,109940,110182
 4.4000e+000 110231 -1.2740e+002 -3.4265e+002  4.5611e+001 25642 110018,110182,109888
 4.4000e+000 110280 -1.0273e+002 -3.8846e+002  2.1762e+001 25642 110018,109966,110254
 4.4000e+000 110303 -1.0786e+002 -3.6577e+002  1.5853e+001 25642 110018,110254,110182
 4.4000e+000 110632 -1.5228e+002 -3.0522e+002 -1.8001e+001 25188 110407,110485,110433
 4.4000e+000 110609 -1.7890e+002 -3.0143e+002 -1.1599e+001 25188 110407,110537,110485
 4.4000e+000 110586 -1.7404e+002 -3.1780e+002 -5.9597e+001 25188 110433,110485,110459
 4.4000e+000 110563 -1.6738e+002 -3.2202e+002  3.3120e+001 25188 110485,110537,110511
 4.4000e+000 110831 -2.9065e+001 -2.8982e+002  8.0326e+000 24726 110854,110707,110655
 4.4000e+000 110808 -1.2835e+001 -3.1334e+002  3.2075e+001 24726 110854,110655,110759
 4.4000e+000 110785 -4.1482e+001 -3.0098e+002  1.5338e+001 24726 110655,110707,110681
 4.4000e+000 110880 -1.6697e+001 -2.6743e+002  1.2922e+001 24726 110733,110707,110854
 4.4000e+000 110903  5.0327e+000 -2.7938e+002  3.8714e+001 24726 110733,110854,110759
 4.4000e+000 111234 -8.2708e+000 -2.1238e+002 -6.2091e+000 24222 111257,111087,111035
 4.4000e+000 111211  2.7112e+001 -1.9633e+002  2.4058e+001 24222 111257,111035,111009
 4.4000e+000 111188 -3.4034e+001 -1.1336e+002 -4.7349e+001 24222 111035,111087,111061
 4.4000e+000 111165 -3.2922e+001 -1.6934e+002  5.6237e+000 24222 111087,111139,111113
 4.4000e+000 111283 -3.0548e+001 -1.7527e+002  1.0158e+001 24222 111139,111087,111257
 4.4000e+000 111306 -1.5141e+001 -1.4882e+002  2.9622e+001 24222 111139,111257,111009
 4.4000e+000 111625 -4.1691e+001 -2.9327e+002 -1.6949e+001 23732 111648,111481,111455
 4.4000e+000 111602 -4.2823e+001 -2.9580e+002 -1.6547e+001 23732 111648,111455,111377
 4.4000e+000 111579  3.9854e+001 -1.5027e+002  3.1762e+001 23732 111377,111429,111403
 4.4000e+000 111556 -1.7343e+001 -2.9782e+002 -7.6185e+000 23732 111377,111455,111429
 4.4000e+000 111533 -3.1931e+001 -2.6678e+002 -6.2496e+000 23732 111351,111507,111377
 4.4000e+000 111674 -4.2810e+001 -2.8902e+002 -1.3954e+001 23732 111507,111481,111648
 4.4000e+000 111697 -4.5068e+001 -2.9420e+002 -1.3633e+001 23732 111507,111648,111377
 4.4000e+000 112156 -8.1913e+001 -3.4764e+002  2.5430e+001 23278 112179,111908,111882
 4.4000e+000 112133 -7.6542e+001 -3.2194e+002  1.3921e+001 23278 112179,111882,112012
 4.4000e+000 112110 -2.5987e+001 -3.7684e+002  1.2385e+000 23278 111908,111960,111934
 4.4000e+000 112087 -3.2883e+001 -2.8226e+002 -3.8868e+000 23278 111882,112038,112012
 4.4000e+000 112064 -6.9097e+001 -2.9044e+002 -4.5677e+000 23278 111960,112012,111986
 4.4000e+000 112205 -7.8107e+001 -3.3531e+002  4.1321e+000 23278 111960,111908,112179
 4.4000e+000 112228 -6.5536e+001 -3.0646e+002 -9.0147e+000 23278 111960,112179,112012
 4.4000e+000 112685 -2.1726e+002 -4.8187e+002 -4.6752e+001 22938 112489,112567,112541
 4.4000e+000 112662 -1.8732e+002 -4.1598e+002 -3.9671e+001 22938 112437,112567,112489
 4.4000e+000 112639 -1.2397e+002 -3.5587e+002 -4.1993e+000 22938 112489,112541,112515
 4.4000e+000 112616 -2.1399e+002 -4.0047e+002 -3.6022e+001 22938 112411,112567,112437
 4.4000e+000 112593 -1.6416e+002 -5.1710e+002 -1.1477e+001 22938 112437,112489,112463
 4.4000e+000 113191 -1.5974e+001 -3.4111e+002 -4.2861e+001 22534 113214,112998,112946
 4.4000e+000 113168 -6.5127e+001 -3.0430e+002 -2.2343e+001 22534 113286,113214,112946
 4.4000e+000 113145 -4.9147e+001 -3.0497e+002 -1.8595e+001 22534 113286,112946,112920
 4.4000e+000 113122 -1.3668e+002 -2.7976e+002 -6.0070e+001 22534 113358,113024,112998
 4.4000e+000 113099 -8.8353e+001 -2.9548e+002 -1.1680e+001 22534 112868,113050,112894
 4.4000e+000 113076 -1.0163e+002 -5.1437e+002 -8.4502e+001 22534 112946,112998,112972
 4.4000e+000 113240 -1.0169e+002 -3.5097e+002 -6.3604e+001 22534 113358,112998,113214
 4.4000e+000 113263 -8.4842e+001 -3.1905e+002 -1.4157e+001 22534 113050,113214,112894
 4.4000e+000 113312 -4.4436e+001 -3.0130e+002 -1.7693e+001 22534 112894,113214,113286
 4.4000e+000 113335 -2.7645e+001 -3.0291e+002 -1.6856e+001 22534 112894,113286,112920
 4.4000e+000 113384 -9.7977e+001 -2.1452e+002 -4.3916e+001 22534 113050,113024,113358
 4.4000e+000 113407 -4.7715e+001 -2.7342e+002 -3.9674e+001 22534 113050,113358,113214
 4.4000e+000 113785 -1.5662e+002 -4.0525e+002  8.9155e+000 21978 113808,113615,113511
 4.4000e+000 113762 -1.2576e+002 -4.1004e+002  2.7464e+001 21978 113808,113511,113667
 4.4000e+000 113739 -9.5906e+001 -3.4874e+002 -1.5713e+001 21978 113511,113615,113537
 4.4000e+000 113716  3.9001e+001 -3.1211e+002 -3.5067e+001 21978 113537,113615,113589
 4.4000e+000 113693 -4.5849e+001 -4.4780e+002  5.1810e+000 21978 113537,113589,113563
 4.4000e+000 113834 -1.6200e+002 -4.0520e+002  4.7600e+001 21978 113641,113615,113808
 4.4000e+000 113857 -8.1869e+001 -3.7427e+002  6.9668e+001 21978 113641,113808,113667
 4.4000e+000 114284 -1.1436e+002 -3.3889e+002  7.8246e+000 21517 114013,114117,114039
 4.4000e+000 114261 -1.2962e+002 -3.3760e+002  2.6622e+001 21517 113961,114117,114013
 4.4000e+000 114238 -1.2614e+002 -3.4297e+002  2.6907e+001 21517 113961,114013,113987
 4.4000e+000 114215 -1.8643e+002 -3.8690e+002 -2.6713e+001 21517 114039,114117,114091
 4.4000e+000 114192 -1.3187e+002 -2.8647e+002  3.1989e+001 21517 113961,114143,114117
 4.4000e+000 114169 -2.7083e+001 -3.3221e+002 -3.0052e+001 21517 114039,114091,114065
 4.4000e+000 114581 -6.2576e+001 -3.9677e+002  5.4458e+000 21027 114359,114463,114437
 4.4000e+000 114558 -2.9284e+001 -3.5838e+002  4.8456e+001 21027 114333,114463,114359
 4.4000e+000 114535 -2.2125e+001 -3.5977e+002 -1.0090e+001 21027 114359,114437,114385
 4.4000e+000 114512 -1.6046e+001 -3.5514e+002  4.1121e+001 21027 114307,114463,114333
 4.4000e+000 114489  6.1928e+001 -3.3668e+002 -1.6041e+001 21027 114385,114437,114411
 4.4000e+000 114912 -1.5521e+002 -3.4753e+002  4.7453e+000 20623 114713,114791,114765
 4.4000e+000 114889 -1.0815e+002 -3.2828e+002 -2.3911e+001 20623 114687,114791,114713
 4.4000e+000 114866 -7.3690e+001 -3.6212e+002 -2.7632e+001 20623 114687,114817,114791
 4.4000e+000 114843 -2.2888e+002 -4.2253e+002  3.6090e+001 20623 114713,114765,114739
 4.4000e+000 115290 -4.2151e+001 -3.1165e+002  1.5789e+001 20375 115313,115146,115094
 4.4000e+000 115267 -6.8795e+001 -2.9752e+002  3.0267e+001 20375 115313,115094,115042
 4.4000e+000 115244 -8.9612e+001 -2.8605e+002  8.9201e+000 20375 115385,115016,115172
 4.4000e+000 115221 -2.9979e+001 -2.7999e+002  2.5821e+001 20375 115042,115094,115068
 4.4000e+000 115198 -6.5361e+001 -3.7330e+002  2.0651e+001 20375 115094,115146,115120
 4.4000e+000 115339 -9.7081e+001 -3.6754e+002 -1.2207e+001 20375 115172,115146,115313
 4.4000e+000 115362 -5.3621e+001 -2.9522e+002  1.0827e+001 20375 115385,115172,115313
 4.4000e+000 115411 -1.0981e+002 -2.9650e+002  1.2639e+001 20375 115042,115016,115385
 4.4000e+000 115434 -9.2362e+001 -3.1794e+002  2.0237e+001 20375 115042,115385,115313
 4.4000e+000 115891 -1.6401e+002 -3.2257e+002  3.9789e+001 19971 115617,115747,115643
 4.4000e+000 115868 -1.4036e+002 -2.6448e+002  3.6969e+001 19971 115617,115773,115747
 4.4000e+000 115845 -1.0281e+002 -4.8371e+002  5.8992e+000 19971 115643,115721,115695
 4.4000e+000 115822 -4.3234e+000 -2.4245e+002 -1.9452e+000 19971 115643,115747,115721
 4.4000e+000 115799 -8.7150e+001 -5.9690e+002 -4.9124e+001 19971 115643,115695,115669
 4.4000e+000 115992 -2.3691e+002 -6.0538e+002 -1.0189e+002 19659 115914,115966,115940
 4.4000e+000 116142 -3.7123e+001 -1.3841e+002  3.6756e+000 18997 116041,116093,116067
 4.4000e+000 116119 -7.3943e+001 -2.3309e+002  1.3785e+001 18997 116015,116093,116041
 4.4000e+000 116343 -6.2851e+001 -3.6306e+002 -1.0705e+001 18707 116193,116245,116219
 4.4000e+000 116320 -1.4027e+002 -3.9618e+002 -1.6375e+001 18707 116193,116271,116245
 4.4000e+000 116297 -1.2659e+002 -3.5293e+002 -2.5933e+001 18707 116167,116271,116193
 4.4000e+000 116747 -5.9000e+001 -3.2900e+002 -6.1135e+000 18301 116525,116629,116551
 4.4000e+000 116724 -3.3647e+001 -2.7885e+002  7.9695e+000 18301 116473,116629,116525
 4.4000e+000 116701 -2.2457e+001 -2.7115e+002 -1.4107e+001 18301 116473,116525,116499
 4.4000e+000 116678 -5.0296e+001 -3.4209e+002 -4.5383e+000 18301 116551,116603,116577
 4.4000e+000 116655 -6.9542e+001 -3.5375e+002 -9.9434e+000 18301 116551,116629,116603
 4.4000e+000 117147 -1.6435e+002 -3.7609e+002  2.4634e-001 17747 116899,117029,116925
 4.4000e+000 117124 -8.6371e+001 -2.7390e+002  3.9809e+001 17747 116873,117029,116899
 4.4000e+000 117101 -1.6356e+002 -3.7471e+002  5.7702e-001 17747 116925,117029,116951
 4.4000e+000 117078 -1.4111e+002 -3.2166e+002 -1.6463e+000 17747 116951,117029,117003
 4.4000e+000 117055 -1.8706e+002 -4.2540e+002 -2.7875e+001 17747 116951,117003,116977
 4.4000e+000 117368  2.2559e+001 -3.6275e+002  7.9731e+000 17293 117244,117296,117270
 4.4000e+000 117345 -2.5503e+001 -3.7473e+002 -5.1946e+000 17293 117192,117296,117244
 4.4000e+000 117322 -6.4923e+001 -3.5199e+002 -4.0807e+000 17293 117192,117244,117218
 4.4000e+000 117699 -3.5121e+001 -2.9375e+002 -3.4882e+001 16896 117526,117604,117552
 4.4000e+000 117676 -1.9446e+002 -4.5004e+002  2.8289e+001 16896 117500,117604,117526
 4.4000e+000 117653 -2.0604e+002 -3.5720e+002 -1.7567e+001 16896 117552,117604,117578
 4.4000e+000 117630 -1.7834e+002 -5.8199e+002  4.8622e+001 16896 117474,117604,117500
 4.4000e+000 117849 -4.1486e+002 -7.9580e+002 -3.0361e+001 16534 117722,117774,117748
 4.4000e+000 117826 -3.2777e+002 -9.6881e+002 -1.3054e+002 16534 117722,117800,117774
 4.4000e+000 118070 -1.8935e+000 -3.7351e+002  4.7515e+001 16194 117946,117998,117972
 4.4000e+000 118047 -6.1039e+001 -4.2093e+002  1.9297e+001 16194 117894,117998,117946
 4.4000e+000 118024 -2.1555e+002 -4.3169e+002  9.4912e-002 16194 117894,117946,117920
 4.4000e+000 118173 -2.7278e+001 -3.5361e+002  0.0000e+000 15968 118095,118147,118121
 4.4000e+000 118276 -1.0756e+002 -3.8829e+002  1.7369e+000 15433 118299,118198,118250
 4.4000e+000 118325 -1.0855e+002 -3.9060e+002  1.7597e+000 15433 118224,118198,118299
 4.4000e+000 118450 -1.8555e+002 -4.1282e+002  3.9233e+001 421 118372,118424,118398
 4.5000e+000 69891 -8.0778e+001 -4.1584e+002  1.4767e+001 68988 69447,69681,69629
 4.5000e+000 69868  2.0949e+001 -3.7271e+002  1.1476e+001 68988 69421,69681,69447
 4.5000e+000 69845 -1.0432e+001 -2.1357e+002  1.0329e+000 68988 69447,69629,69577
 4.5000e+000 69822 -1.2768e+002 -4.3266e+002 -4.6766e+001 68988 69447,69577,69473
 4.5000e+000 69799 -2.5016e+001 -4.9879e+002  8.2344e+001 68988 69629,69681,69655
 4.5000e+000 69776 -1.3802e+002 -2.6902e+002  7.4895e+000 68988 69577,69629,69603
 4.5000e+000 69753 -1.0268e+002 -3.8820e+002 -5.8152e+001 68988 69473,69577,69551
 4.5000e+000 69730 -1.4407e+002 -7.5768e+002 -7.3881e+001 68988 69473,69551,69525
 4.5000e+000 69707 -2.3571e+002 -5.0704e+002  9.0465e-001 68988 69473,69525,69499
 4.5000e+000 69992 -2.4849e+002 -4.5776e+002 -6.2635e+001 68676 69914,69966,69940
 4.5000e+000 70392 -1.8175e+002 -3.7201e+002  2.7694e+001 68478 70118,70248,70144
 4.5000e+000 70369 -2.0335e+000 -3.7825e+002  7.8252e+001 68478 70118,70274,70248
 4.5000e+000 70346 -1.1197e+002 -2.8484e+002 -1.1119e+000 68478 70144,70222,70196
 4.5000e+000 70323 -9.4152e+001 -2.3842e+002 -1.2573e+001 68478 70144,70248,70222
 4.5000e+000 70300 -1.2105e+002 -3.1023e+002 -5.6345e+000 68478 70144,70196,70170
 4.5000e+000 70841  4.4234e+001 -2.6284e+002 -6.6977e+001 68280 70570,70622,70596
 4.5000e+000 70818 -1.3454e+002 -2.9809e+002 -1.6420e+001 68280 70544,70622,70570
 4.5000e+000 70795 -1.0139e+002 -2.2348e+002 -9.8620e+000 68280 70544,70674,70622
 4.5000e+000 70772 -8.7462e+001 -2.0006e+002  3.3431e+000 68280 70622,70674,70648
 4.5000e+000 70749 -1.4258e+002 -3.3280e+002  2.4368e+001 68280 70518,70674,70544
 4.5000e+000 70726  9.8102e+001 -3.4742e+002  9.4478e+001 68280 70518,70700,70674
 4.5000e+000 70991 -1.6043e+001 -1.3507e+003  4.0453e+001 67968 70864,70916,70890
 4.5000e+000 70968 -3.5993e+002 -1.3402e+003  1.5682e+002 67968 70864,70942,70916
 4.5000e+000 71141 -6.2039e+002 -1.1736e+003 -5.8492e+001 67770 71040,71092,71066
 4.5000e+000 71118 -5.3871e+002 -1.4153e+003  6.1546e+001 67770 71014,71092,71040
 4.5000e+000 71651 -9.3059e+001 -2.6732e+002 -4.1351e+001 67366 71746,71674,71458
 4.5000e+000 71628 -6.3381e+001 -2.1872e+002 -4.3882e+001 67366 71674,71354,71510
 4.5000e+000 71605 -8.4145e+001 -2.9566e+002 -3.8350e+001 67366 71746,71458,71432
 4.5000e+000 71582 -1.2988e+002 -3.0361e+002  1.5497e+001 67366 71354,71432,71380
 4.5000e+000 71559 -1.3689e+002 -2.2530e+002 -2.2103e+001 67366 71380,71432,71406
 4.5000e+000 71536 -6.5799e+001 -9.7041e+001 -1.6924e+000 67366 71328,71510,71354
 4.5000e+000 71700 -1.0108e+002 -2.4159e+002 -1.9253e+001 67366 71484,71458,71674
 4.5000e+000 71723 -7.2822e+001 -2.2840e+002 -1.4680e+001 67366 71484,71674,71510
 4.5000e+000 71772 -8.2448e+001 -2.3373e+002 -3.5777e+001 67366 71354,71674,71746
 4.5000e+000 71795 -7.2211e+001 -2.5865e+002 -3.6262e+001 67366 71354,71746,71432
 4.5000e+000 71896 -2.3540e+002 -5.0136e+002  0.0000e+000 67146 71818,71870,71844
 4.5000e+000 71997 -3.0587e+002 -4.4396e+002  8.9582e+001 66948 71919,71971,71945
 4.5000e+000 72149 -2.8226e+001 -3.1894e+002 -3.5189e+001 66700 72172,72074,72048
 4.5000e+000 72126 -1.1808e+002 -3.5637e+002 -1.3673e+001 66700 72172,72048,72022
 4.5000e+000 72198 -1.8002e+002 -3.9058e+002  2.4719e+001 66700 72244,72172,72100
 4.5000e+000 72221 -1.6351e+002 -3.5891e+002 -2.0911e+001 66700 72100,72172,72022
 4.5000e+000 72270 -1.0056e+002 -2.1662e+002 -2.3746e+001 66700 72074,72172,72244
 4.5000e+000 72623 -1.2777e+002 -3.3379e+002  7.8446e+000 66502 72424,72502,72450
 4.5000e+000 72600 -1.0941e+002 -2.8390e+002  5.2196e+000 66502 72398,72502,72424
 4.5000e+000 72577 -8.6520e+001 -3.1927e+002 -5.3663e+000 66502 72398,72528,72502
 4.5000e+000 72554 -1.2959e+002 -3.0055e+002 -1.7515e+000 66502 72450,72502,72476
 4.5000e+000 72920 -1.9832e+002 -4.0482e+002  1.0145e+001 65941 72672,72776,72750
 4.5000e+000 72897 -1.9815e+002 -3.5062e+002  3.7782e+001 65941 72646,72776,72672
 4.5000e+000 72874 -1.7439e+002 -3.9778e+002  1.2809e+001 65941 72672,72750,72724
 4.5000e+000 72851 -1.7646e+002 -3.1761e+002  2.9186e+001 65941 72672,72724,72698
 4.5000e+000 72828 -1.5362e+002 -3.5643e+002  3.7348e+001 65941 72646,72802,72776
 4.5000e+000 73241 -5.9118e+001 -2.9123e+002  1.6528e+001 65743 73264,73071,73045
 4.5000e+000 73218 -1.2629e+002 -3.2404e+002  2.6752e+001 65743 73480,73264,73045
 4.5000e+000 73195 -1.0703e+002 -2.9409e+002 -3.6875e+000 65743 73336,72967,73097
 4.5000e+000 73172 -1.7492e+002 -2.7083e+002 -2.8164e+001 65743 73408,72993,72967
 4.5000e+000 73149 -9.9425e+001 -2.9434e+002 -3.8164e+000 65743 72967,73123,73097
 4.5000e+000 73290 -8.3416e+001 -3.0199e+002  3.7876e+000 65743 73097,73071,73264
 4.5000e+000 73313 -9.4287e+001 -2.8128e+002  1.0325e+001 65743 73336,73097,73264
 4.5000e+000 73362 -1.5240e+002 -3.0183e+002 -1.8932e+001 65743 73408,72967,73336
 4.5000e+000 73385 -7.9710e+001 -2.7729e+002 -1.4445e+000 65743 73019,73336,73264
 4.5000e+000 73434 -1.3737e+002 -2.1533e+002  1.4581e+001 65743 73019,72993,73408
 4.5000e+000 73457 -8.3621e+001 -2.5531e+002  9.8135e+000 65743 73019,73408,73336
 4.5000e+000 73506 -6.0150e+001 -2.0810e+002  1.7287e-001 65743 73019,73264,73480
 4.5000e+000 73989 -1.8347e+001 -2.3669e+002  2.7621e+001 65453 73793,73845,73819
 4.5000e+000 73966 -1.2771e+002 -2.6549e+002  3.1938e+001 65453 73741,73845,73793
 4.5000e+000 73943 -3.6228e+001 -2.1467e+002  1.2034e+001 65453 73715,73845,73741
 4.5000e+000 73920 -1.0222e+002 -2.8232e+002  5.3016e+001 65453 73741,73793,73767
 4.5000e+000 73897  2.5717e-001 -1.4078e+002  1.4676e-001 65453 73715,73871,73845
 4.5000e+000 74357 -7.4259e+001 -2.8666e+002 -7.4578e+001 65141 74380,74138,74086
 4.5000e+000 74334 -1.2960e+002 -3.7751e+002 -4.9862e+001 65141 74380,74086,74060
 4.5000e+000 74311 -1.4765e+002 -3.6879e+002 -1.3064e+001 65141 74138,74190,74164
 4.5000e+000 74288 -1.1251e+002 -4.1042e+002 -1.6526e+001 65141 74060,74216,74190
 4.5000e+000 74265 -1.1898e+002 -4.3216e+002  6.3258e+000 65141 74034,74216,74060
 4.5000e+000 74242 -9.1699e+001 -2.3054e+002 -4.8920e+001 65141 74086,74138,74112
 4.5000e+000 74406 -1.0922e+002 -3.6768e+002 -3.0637e+001 65141 74190,74138,74380
 4.5000e+000 74429 -1.2617e+002 -3.9888e+002 -1.4376e+001 65141 74190,74380,74060
 4.5000e+000 74937 -1.4995e+002 -2.9748e+002 -7.1547e+001 64737 74614,74666,74640
 4.5000e+000 74914 -1.8400e+002 -3.6227e+002 -5.2511e+001 64737 74614,74796,74666
 4.5000e+000 74891 -1.3541e+002 -2.5621e+002 -9.2657e+000 64737 74960,74718,74666
 4.5000e+000 74868 -1.2119e+002 -2.8042e+002 -3.2132e+001 64737 74960,74666,74770
 4.5000e+000 74845 -1.2437e+002 -2.2950e+002 -3.4182e+001 64737 74666,74796,74770
 4.5000e+000 74822 -1.3354e+002 -2.7772e+002  4.1943e+000 64737 74666,74718,74692
 4.5000e+000 74986 -1.4392e+002 -2.8106e+002 -1.0050e+001 64737 74744,74718,74960
 4.5000e+000 75009 -1.3684e+002 -3.1785e+002 -3.3709e+001 64737 74744,74960,74770
 4.5000e+000 75306 -7.0600e+001 -2.6230e+002  3.8244e+001 64133 75329,75110,75084
 4.5000e+000 75283 -9.1397e+001 -3.1128e+002  1.0365e+001 64133 75401,75329,75084
 4.5000e+000 75260 -8.7678e+001 -3.1916e+002  1.3629e+001 64133 75401,75084,75058
 4.5000e+000 75237 -9.0476e+001 -3.7056e+002  4.5942e+001 64133 75473,75136,75110
 4.5000e+000 75214 -9.2189e+001 -2.9116e+002  2.8540e+000 64133 75032,75188,75162
 4.5000e+000 75355 -1.0524e+002 -3.4397e+002  3.5298e+001 64133 75473,75110,75329
 4.5000e+000 75378 -8.0048e+001 -2.9788e+002  2.6014e+000 64133 75162,75329,75032
 4.5000e+000 75427 -7.5758e+001 -2.8727e+002  1.0226e+000 64133 75032,75329,75401
 4.5000e+000 75450 -1.4314e+002 -3.5363e+002  3.6118e+001 64133 75545,75401,75058
 4.5000e+000 75499 -8.0357e+001 -3.3693e+002  1.3931e+001 64133 75162,75136,75473
 4.5000e+000 75522 -9.2491e+001 -2.9169e+002  1.1621e+001 64133 75162,75473,75329
 4.5000e+000 75571 -7.3419e+001 -2.0146e+002  8.8014e+000 64133 75032,75401,75545
 4.5000e+000 75851 -1.2363e+002 -2.8748e+002  6.7544e+000 63843 75874,75753,75727
 4.5000e+000 75828 -1.0755e+002 -2.8374e+002 -1.4591e+001 63843 75946,75874,75727
 4.5000e+000 75805 -1.1995e+002 -3.0007e+002 -7.3022e+000 63843 76018,75946,75727
 4.5000e+000 75900 -9.5423e+001 -2.7554e+002 -7.5340e+000 63843 75779,75753,75874
 4.5000e+000 75923 -1.0132e+002 -2.3836e+002 -3.1572e+001 63843 75779,75874,75675
 4.5000e+000 75972 -1.2011e+002 -2.6972e+002 -1.1872e+001 63843 75675,75874,75946
 4.5000e+000 75995 -1.1038e+002 -2.8067e+002 -1.9880e+001 63843 75675,75946,75701
 4.5000e+000 76044 -1.2151e+002 -2.9110e+002 -2.5196e+001 63843 75701,75946,76018
 4.5000e+000 76454  1.9308e+001 -5.7972e+001 -3.3126e+001 63439 76477,76255,76229
 4.5000e+000 76431 -2.7341e+001 -1.3782e+002 -3.0181e+000 63439 76477,76229,76359
 4.5000e+000 76408 -3.9373e+001 -1.0501e+002  5.9190e+001 63439 76307,76359,76333
 4.5000e+000 76385 -2.5249e+001 -1.4051e+002  9.6625e+000 63439 76255,76307,76281
 4.5000e+000 76503 -2.7924e+001 -1.2060e+002  1.4610e+001 63439 76307,76255,76477
 4.5000e+000 76526 -2.6567e+001 -1.5215e+002  3.6288e+001 63439 76307,76477,76359
 4.5000e+000 76926 -6.4214e+001 -2.0118e+002 -3.2404e+000 63049 76704,76782,76756
 4.5000e+000 76903 -9.4206e+001 -2.0972e+002 -1.9373e+001 63049 76704,76808,76782
 4.5000e+000 76880 -6.6432e+001 -2.2950e+002  2.9407e+000 63049 76704,76756,76730
 4.5000e+000 76857 -5.5739e+001 -1.3731e+002  9.1091e+000 63049 76678,76808,76704
 4.5000e+000 76834 -2.5912e+001 -3.1904e+001 -3.1043e+001 63049 76652,76808,76678
 4.5000e+000 77076 -3.0148e+001 -3.3622e+002 -2.0088e+000 62737 76975,77027,77001
 4.5000e+000 77053 -2.7990e+001 -3.7718e+002 -2.3796e+001 62737 76949,77027,76975
 4.5000e+000 77324 -1.4253e+002 -3.2961e+002 -4.1901e+000 62277 77347,77177,77125
 4.5000e+000 77301 -1.4130e+002 -3.1947e+002 -1.9448e+001 62277 77347,77125,77229
 4.5000e+000 77278 -1.3626e+002 -3.3168e+002 -2.7300e+001 62277 77099,77229,77125
 4.5000e+000 77255 -1.4900e+002 -3.9374e+002  2.8844e+000 62277 77125,77177,77151
 4.5000e+000 77373 -1.5083e+002 -3.5911e+002  6.8799e+000 62277 77203,77177,77347
 4.5000e+000 77396 -1.3257e+002 -3.3298e+002 -1.1205e+001 62277 77203,77347,77229
 4.5000e+000 77857 -7.5176e+001 -4.1797e+002  4.5703e+000 61758 77635,77739,77661
 4.5000e+000 77834 -1.1128e+002 -4.0243e+002 -1.5216e+001 61758 77583,77739,77635
 4.5000e+000 77811 -1.2913e+002 -5.0882e+002 -4.9578e+001 61758 77583,77635,77609
 4.5000e+000 77788 -1.0422e+002 -3.9582e+002  3.1094e+001 61758 77661,77713,77687
 4.5000e+000 77765 -1.0908e+002 -4.5679e+002  3.0524e+001 61758 77661,77739,77713
 4.5000e+000 78491 -1.1518e+002 -2.2705e+002  1.3305e+001 61418 78171,78301,78249
 4.5000e+000 78468 -9.4174e+001 -1.9081e+002  2.7663e+001 61418 78145,78301,78171
 4.5000e+000 78445 -8.7574e+001 -2.0176e+002 -9.8408e+000 61418 78171,78249,78223
 4.5000e+000 78422 -9.2443e+001 -1.8956e+002  1.0447e+001 61418 78145,78327,78301
 4.5000e+000 78399 -1.1975e+002 -2.5305e+002  5.4707e-001 61418 78249,78301,78275
 4.5000e+000 78376 -5.3497e+001 -2.1699e+002 -1.5559e+001 61418 78171,78223,78197
 4.5000e+000 78353 -1.0831e+002 -2.5255e+002 -6.0388e+000 61418 78119,78327,78145
 4.5000e+000 78690 -1.1469e+002 -2.6708e+002 -2.2276e+000 61014 78713,78566,78540
 4.5000e+000 78667 -7.9816e+001 -2.7286e+002  8.9810e-001 61014 78713,78540,78618
 4.5000e+000 78644 -1.3128e+002 -3.0875e+002 -2.9519e+001 61014 78514,78618,78540
 4.5000e+000 78739 -6.2170e+001 -2.6272e+002  2.6769e+001 61014 78592,78566,78713
 4.5000e+000 78762 -7.7551e+001 -2.8783e+002  1.6235e+000 61014 78785,78713,78618
 4.5000e+000 78811 -2.4150e+001 -2.6723e+002 -4.9600e+000 61014 78592,78713,78785
 4.5000e+000 79398 -5.3371e+001 -2.3752e+002 -2.3233e+001 60624 79101,79179,79153
 4.5000e+000 79375 -7.1118e+001 -2.6604e+002 -1.1118e+001 60624 79101,79231,79179
 4.5000e+000 79352 -5.5014e+001 -2.6471e+002 -1.8218e+001 60624 79075,79231,79101
 4.5000e+000 79329 -1.7387e+001 -3.1700e+002  3.5411e+001 60624 79075,79257,79231
 4.5000e+000 79306 -5.0728e+001 -1.9576e+002 -3.9233e+001 60624 79179,79231,79205
 4.5000e+000 79283 -4.1762e+001 -2.1162e+002 -1.5402e+001 60624 79101,79153,79127
 4.5000e+000 79776 -1.3828e+002 -3.5626e+002  3.1249e+001 60070 79528,79658,79606
 4.5000e+000 79753 -1.2335e+002 -2.7994e+002  3.5376e-001 60070 79502,79658,79528
 4.5000e+000 79730 -1.6730e+002 -3.4251e+002  4.6566e+001 60070 79528,79606,79580
 4.5000e+000 79707 -5.2166e+001 -3.0192e+002  5.1546e+000 60070 79606,79658,79632
 4.5000e+000 79684 -1.3851e+001 -2.0973e+002 -5.4577e+001 60070 79528,79580,79554
 4.5000e+000 80105 -9.6540e+001 -2.7287e+002  3.5183e+001 59758 80128,79958,79906
 4.5000e+000 80082 -1.0248e+002 -2.6051e+002  2.8559e+001 59758 80128,79906,80010
 4.5000e+000 80059 -1.3650e+002 -2.8807e+002  9.4442e+001 59758 79906,79958,79932
 4.5000e+000 80036 -1.5117e+002 -3.0304e+002  9.8876e+000 59758 79880,80010,79906
 4.5000e+000 80154 -9.9906e+001 -2.8069e+002  3.4241e+001 59758 79984,79958,80128
 4.5000e+000 80177 -1.0731e+002 -2.7125e+002  2.7479e+001 59758 79984,80128,80010
 4.5000e+000 80376 -7.3741e+001 -2.5581e+002  5.5148e+000 59312 80226,80304,80252
 4.5000e+000 80353 -7.5582e+001 -2.6395e+002  4.2976e+000 59312 80200,80304,80226
 4.5000e+000 80330 -1.1317e+002 -2.3268e+002  6.8574e+001 59312 80252,80304,80278
 4.5000e+000 80805 -9.9328e+001 -2.2806e+002 -3.5107e+001 58908 80900,80828,80638
 4.5000e+000 80782 -8.4681e+001 -2.6873e+002 -5.2838e+001 58908 80828,80560,80508
 4.5000e+000 80759 -1.0385e+002 -2.1497e+002 -1.3395e+001 58908 80900,80638,80612
 4.5000e+000 80736 -4.5569e+001 -2.3109e+002  9.3400e+001 58908 80482,80664,80508
 4.5000e+000 80713 -6.8667e+001 -1.9968e+002 -7.6693e+000 58908 80560,80612,80586
 4.5000e+000 80690 -9.6312e+001 -6.5847e+002 -1.2542e+002 58908 80508,80560,80534
 4.5000e+000 80854 -4.7726e+001 -2.4656e+002  4.3609e-001 58908 80664,80638,80828
 4.5000e+000 80877 -8.0065e+001 -3.5309e+002  5.5510e+000 58908 80664,80828,80508
 4.5000e+000 80926 -8.5164e+001 -1.8891e+002 -3.7800e+001 58908 80560,80828,80900
 4.5000e+000 80949 -9.5228e+001 -1.8903e+002 -1.3070e+001 58908 80560,80900,80612
 4.5000e+000 81246 -4.3068e+001 -2.1746e+002 -6.2081e+000 58482 81076,81128,81102
 4.5000e+000 81223 -1.0264e+002 -3.7252e+002 -3.7317e+001 58482 80972,81128,81076
 4.5000e+000 81200 -6.6516e+001 -2.5440e+002 -4.0048e+001 58482 80972,81076,81050
 4.5000e+000 81177 -1.4258e+002 -3.8435e+002 -1.1043e+001 58482 80998,81050,81024
 4.5000e+000 81154 -8.0059e+001 -3.1797e+002 -3.7315e+001 58482 80972,81050,80998
 4.5000e+000 81754 -1.1132e+002 -2.2872e+002  1.7939e+001 57828 81457,81613,81483
 4.5000e+000 81731 -1.2501e+002 -2.5356e+002  8.6337e+000 57828 81431,81613,81457
 4.5000e+000 81708 -1.2066e+002 -2.5052e+002  1.8994e+001 57828 81483,81613,81509
 4.5000e+000 81685 -1.4212e+002 -2.8303e+002  2.8486e+001 57828 81509,81613,81587
 4.5000e+000 81662 -1.4872e+002 -4.1730e+002  5.8827e+001 57828 81509,81587,81535
 4.5000e+000 81639 -8.6784e+001 -3.9397e+002  3.7473e+001 57828 81535,81587,81561
 4.5000e+000 82002 -1.7008e+002 -4.0677e+002 -1.0955e+000 57374 82025,81855,81829
 4.5000e+000 81979 -1.8131e+002 -3.8440e+002  1.7542e+001 57374 82025,81829,81907
 4.5000e+000 81956 -1.8722e+002 -3.6121e+002  1.0799e+001 57374 81803,81907,81829
 4.5000e+000 81933 -1.0971e+002 -3.3018e+002  1.6805e+001 57374 81777,81907,81803
 4.5000e+000 82051 -1.6489e+002 -3.7999e+002 -4.2312e+000 57374 81881,81855,82025
 4.5000e+000 82074 -1.7464e+002 -3.6193e+002  2.0325e+001 57374 81881,82025,81907
 4.5000e+000 82356 -9.6107e+001 -2.2867e+002 -1.5707e+001 56913 82180,82232,82206
 4.5000e+000 82333 -8.4098e+001 -2.1959e+002  2.0539e+001 56913 82180,82284,82232
 4.5000e+000 82310 -2.8366e+001 -1.7822e+002  4.1546e+001 56913 82379,82232,82284
 4.5000e+000 82405  2.7137e+001 -1.7207e+002  6.6909e+000 56913 82258,82232,82379
 4.5000e+000 82764 -9.6125e+001 -1.5388e+002 -1.5391e+001 56523 82614,82666,82640
 4.5000e+000 82741 -8.1456e+001 -1.5386e+002 -2.3101e+001 56523 82614,82692,82666
 4.5000e+000 82718 -6.9620e+001 -1.6508e+002 -4.7590e+001 56523 82588,82692,82614
 4.5000e+000 83368 -2.0201e+001 -2.6822e+002 -1.3711e+001 55969 82973,83155,83129
 4.5000e+000 83345  4.1698e+000 -2.5873e+002 -1.9725e+001 55969 82973,83181,83155
 4.5000e+000 83322 -7.0506e+001 -2.3659e+002 -1.1434e+001 55969 82973,83129,82999
 4.5000e+000 83299 -1.1341e+002 -2.4334e+002  5.0629e+000 55969 83391,83025,82999
 4.5000e+000 83276 -9.7904e+001 -2.5188e+002 -3.3183e-001 55969 83391,82999,83129
 4.5000e+000 83253 -2.0222e+001 -2.1232e+002  4.5393e+001 55969 83077,83129,83103
 4.5000e+000 83230 -1.2273e+002 -1.9857e+002 -9.7014e+000 55969 83025,83077,83051
 4.5000e+000 83207 -1.8291e+000 -2.4878e+002  2.4718e+001 55969 82947,83181,82973
 4.5000e+000 83417 -9.8737e+001 -2.3405e+002  1.0384e+001 55969 83077,83025,83391
 4.5000e+000 83440 -9.3502e+001 -2.4659e+002  2.5663e+000 55969 83077,83391,83129
 4.5000e+000 83946 -1.8219e+002 -4.0781e+002  6.2620e+001 55771 83969,83779,83727
 4.5000e+000 83923 -1.4380e+002 -3.2920e+002  4.0961e+001 55771 83969,83727,83623
 4.5000e+000 83900 -1.7736e+002 -1.7469e+002  2.4541e+001 55771 83623,83727,83649
 4.5000e+000 83877 -1.4545e+002 -7.1143e+002  2.6066e+001 55771 83727,83779,83753
 4.5000e+000 83854 -2.8727e+002 -2.8301e+002  1.0658e+002 55771 83675,83727,83701
 4.5000e+000 83831 -2.7527e+002 -2.7573e+002  1.0967e+002 55771 83649,83727,83675
 4.5000e+000 83995 -1.7326e+002 -4.2560e+002 -3.7098e+001 55771 83805,83779,83969
 4.5000e+000 84018 -9.3741e+001 -2.6852e+002 -6.6869e+001 55771 83805,83969,83623
 4.5000e+000 84168 -8.2022e+001 -2.0339e+002 -6.5829e+000 55367 84191,84067,84041
 4.5000e+000 84145 -8.0632e+001 -2.3038e+002 -4.3406e+000 55367 84191,84041,84119
 4.5000e+000 84217 -8.7638e+001 -1.8752e+002 -6.0909e+000 55367 84093,84067,84191
 4.5000e+000 84240 -7.7737e+001 -2.0326e+002  3.7668e+000 55367 84093,84191,84119
 4.5000e+000 84571 -4.4211e+001 -3.1670e+002 -3.1958e+001 54913 84398,84450,84424
 4.5000e+000 84548 -3.6183e+001 -2.8977e+002 -1.5966e+001 54913 84372,84450,84398
 4.5000e+000 84525 -7.7070e+001 -3.2485e+002  1.1046e+001 54913 84346,84450,84372
 4.5000e+000 84502 -2.6229e+001 -2.0837e+002 -2.8008e+001 54913 84346,84476,84450
 4.5000e+000 85126 -1.6216e+002 -3.5082e+002 -1.2828e+001 54402 84858,84936,84910
 4.5000e+000 85103 -1.2764e+002 -2.7980e+002 -3.2542e+001 54402 84806,84936,84858
 4.5000e+000 85080 -1.5110e+002 -2.5392e+002 -2.4560e+001 54402 84780,84936,84806
 4.5000e+000 85057 -1.2611e+002 -3.1087e+002 -1.3365e+001 54402 84806,84858,84832
 4.5000e+000 85034 -1.3552e+002 -2.3933e+002  1.1574e+001 54402 84780,84962,84936
 4.5000e+000 85011 -1.8880e+002 -2.1064e+002 -4.5657e+000 54402 84858,84910,84884
 4.5000e+000 84988 -1.3164e+002 -2.3777e+002  1.4967e+001 54402 84754,84962,84780
 4.5000e+000 85396 -1.2671e+002 -1.5459e+002 -1.0109e+001 53998 85197,85249,85223
 4.5000e+000 85373 -9.8689e+001 -1.9543e+002 -1.9193e+000 53998 85197,85275,85249
 4.5000e+000 85350 -1.2547e+002 -2.3017e+002 -1.3971e+001 53998 85171,85275,85197
 4.5000e+000 85327 -6.0216e+001 -2.1407e+002 -1.7454e+001 53998 85171,85301,85275
 4.5000e+000 85749 -7.4102e+001 -2.5383e+002 -6.1827e+000 53636 85524,85628,85550
 4.5000e+000 85726 -1.1497e+002 -2.8084e+002  7.8740e+000 53636 85524,85654,85628
 4.5000e+000 85703 -4.4201e+001 -2.7090e+002 -2.6109e+001 53636 85550,85602,85576
 4.5000e+000 85680 -7.1636e+001 -2.5101e+002 -1.3164e+001 53636 85550,85628,85602
 4.5000e+000 86127 -3.0646e+001 -2.5359e+002  3.9017e+001 52982 86150,85957,85879
 4.5000e+000 86104 -8.8757e+001 -2.9451e+002  2.1177e+001 52982 86150,85879,85853
 4.5000e+000 86081 -2.5026e+001 -3.6339e+002  7.2555e+001 52982 85957,86009,85983
 4.5000e+000 86058 -1.0735e+002 -2.7236e+002  3.2659e+001 52982 85879,85957,85931
 4.5000e+000 86035 -6.8683e+001 -2.5858e+002 -1.0100e+001 52982 85879,85931,85905
 4.5000e+000 86176  6.5838e+000 -2.9930e+002  3.1475e+001 52982 86009,85957,86150
 4.5000e+000 86199 -2.7841e+001 -3.2634e+002  1.9138e+001 52982 86009,86150,85853
 4.5000e+000 86398 -6.3361e+001 -2.0925e+002  1.9751e+001 52542 86421,86248,86222
 4.5000e+000 86375 -1.0873e+002 -2.1297e+002 -1.4702e+000 52542 86421,86222,86300
 4.5000e+000 86352 -1.0800e+002 -2.2921e+002 -9.8306e+000 52542 86222,86326,86300
 4.5000e+000 86447 -1.7611e+001 -2.0980e+002  3.7471e+001 52542 86274,86248,86421
 4.5000e+000 86470 -6.0358e+001 -2.2007e+002  1.0736e+001 52542 86274,86421,86300
 4.5000e+000 86669 -1.0122e+002 -2.1812e+002 -3.4852e+001 52230 86692,86571,86545
 4.5000e+000 86646 -9.7155e+001 -2.0471e+002 -1.9392e+001 52230 86692,86545,86519
 4.5000e+000 86623 -1.3409e+002 -2.1470e+002 -3.2474e+001 52230 86493,86597,86519
 4.5000e+000 86718 -1.0867e+002 -2.2265e+002 -4.1561e+001 52230 86597,86571,86692
 4.5000e+000 86741 -1.1515e+002 -2.1371e+002 -2.7060e+001 52230 86597,86692,86519
 4.5000e+000 87153 -1.3427e+002 -2.1428e+002  7.8207e+000 51640 86980,87058,87032
 4.5000e+000 87130 -1.3539e+002 -2.2018e+002  5.4049e+000 51640 86928,87058,86980
 4.5000e+000 87107 -1.4360e+002 -2.9589e+002 -1.4437e+001 51640 86928,86980,86954
 4.5000e+000 87084 -7.2347e+001 -1.8799e+002 -3.6588e+000 51640 86980,87032,87006
 4.5000e+000 87659 -6.3664e+001 -1.9197e+002  4.6720e+000 51029 87682,87440,87362
 4.5000e+000 87636 -5.5243e+001 -2.0235e+002 -1.9473e+001 51029 87682,87362,87336
 4.5000e+000 87613 -9.0642e+001 -2.8119e+002 -5.8963e+000 51029 87440,87518,87466
 4.5000e+000 87590 -1.0123e+002 -1.9327e+002  7.5676e+000 51029 87362,87440,87414
 4.5000e+000 87567 -8.3023e+001 -1.4567e+002  3.3211e+001 51029 87362,87414,87388
 4.5000e+000 87544 -1.2696e+002 -2.4608e+002  1.0019e+001 51029 87466,87518,87492
 4.5000e+000 87708 -6.2540e+001 -2.1304e+002 -1.7268e+000 51029 87518,87440,87682
 4.5000e+000 87731 -6.0273e+001 -2.4453e+002 -1.6910e+001 51029 87518,87682,87336
 4.5000e+000 87881 -1.2823e+002 -2.7573e+002  6.3374e+000 50739 87780,87832,87806
 4.5000e+000 87858 -1.4531e+002 -2.7714e+002 -1.2424e+001 50739 87754,87832,87780
 4.5000e+000 88468 -7.3421e+001 -1.8013e+002  5.8685e+000 50235 88171,88327,88197
 4.5000e+000 88445 -1.6366e+002 -1.7806e+002 -2.8711e+001 50235 88145,88327,88171
 4.5000e+000 88422  3.0889e-001 -9.5707e+001 -1.7351e-001 50235 88275,88327,88301
 4.5000e+000 88399 -5.2319e+001 -1.1826e+002 -5.6560e-001 50235 88197,88327,88275
 4.5000e+000 88376 -3.1172e+001 -1.6678e+002 -2.8478e+000 50235 88197,88275,88223
 4.5000e+000 88353 -3.2745e+001 -2.1902e+002 -2.2495e+001 50235 88223,88275,88249
 4.5000e+000 88895 -1.2206e+002 -2.9004e+002  6.3089e+000 49873 88918,88728,88676
 4.5000e+000 88872 -1.0474e+002 -2.6980e+002 -4.7277e+000 49873 88918,88676,88624
 4.5000e+000 88849 -8.3068e+001 -2.4510e+002 -1.1036e+001 49873 88598,88754,88624
 4.5000e+000 88826 -6.4498e+001 -2.5341e+002 -6.6210e+000 49873 88624,88676,88650
 4.5000e+000 88803 -1.0510e+002 -3.5188e+002  8.5454e+000 49873 88676,88728,88702
 4.5000e+000 88780 -1.0237e+002 -2.5314e+002 -1.3869e+001 49873 88572,88754,88598
 4.5000e+000 88944 -1.0132e+002 -2.8835e+002 -6.4935e+000 49873 88754,88728,88918
 4.5000e+000 88967 -9.4574e+001 -2.8080e+002 -1.5417e+001 49873 88754,88918,88624
 4.5000e+000 89473 -1.7155e+002 -2.7086e+002 -3.1049e+001 49583 89176,89306,89202
 4.5000e+000 89450 -1.7274e+002 -2.6483e+002 -4.6613e+001 49583 89176,89332,89306
 4.5000e+000 89427 -1.0108e+002 -2.9769e+002  1.4502e+001 49583 89496,89228,89202
 4.5000e+000 89404 -1.0249e+002 -3.0395e+002  1.7030e+001 49583 89496,89202,89280
 4.5000e+000 89381 -2.1254e+002 -3.7934e+002 -6.4468e+001 49583 89202,89306,89280
 4.5000e+000 89358 -1.3517e+002 -2.6821e+002 -5.4149e+001 49583 89150,89332,89176
 4.5000e+000 89522 -9.6768e+001 -2.5522e+002  8.1326e+000 49583 89254,89228,89496
 4.5000e+000 89545 -1.1751e+002 -2.9125e+002  1.6566e+001 49583 89254,89496,89280
 4.5000e+000 89825  1.8407e+001 -2.7023e+002  1.4074e+001 49179 89701,89753,89727
 4.5000e+000 89802 -4.2896e+001 -2.4474e+002  1.9157e+001 49179 89675,89753,89701
 4.5000e+000 89779 -3.1321e+001 -2.1434e+002  1.4935e+001 49179 89848,89753,89675
 4.5000e+000 89874 -1.4474e+002 -2.5063e+002 -1.5878e+001 49179 89649,89753,89848
 4.5000e+000 90223 -9.1394e+001 -2.6854e+002 -2.9642e+001 48739 90024,90102,90076
 4.5000e+000 90200 -8.8950e+001 -2.5402e+002 -1.1487e+001 48739 90024,90128,90102
 4.5000e+000 90177 -4.8269e+000 -2.5996e+002 -3.1884e+001 48739 90024,90076,90050
 4.5000e+000 90154 -3.3444e+001 -2.4424e+002  1.8208e+001 48739 89998,90128,90024
 4.5000e+000 90603 -8.3214e+001 -2.1177e+002  4.6576e+001 48335 90381,90485,90459
 4.5000e+000 90580 -1.0945e+002 -2.5081e+002  3.4542e+001 48335 90355,90485,90381
 4.5000e+000 90557 -4.5066e+001 -9.0250e+001  2.2837e+001 48335 90381,90433,90407
 4.5000e+000 90534 -8.2045e+001 -2.2224e+002  3.3577e+001 48335 90381,90459,90433
 4.5000e+000 90511  2.5858e+001 -1.7541e+002  6.6754e+001 48335 90329,90485,90355
 4.5000e+000 90753 -3.8504e+000 -1.3782e+002  8.3217e+001 47824 90776,90652,90704
 4.5000e+000 90730 -7.2250e+001 -2.3945e+002  3.9689e+001 47824 90626,90704,90652
 4.5000e+000 90802 -3.3115e+001 -1.8073e+002  6.6461e+001 47824 90678,90652,90776
 4.5000e+000 91131 -8.5978e+001 -2.9400e+002  1.3284e+001 47427 91154,90958,90906
 4.5000e+000 91108 -1.5132e+002 -3.2064e+002 -3.0931e-001 47427 91154,90906,91036
 4.5000e+000 91085 -1.4890e+002 -2.5742e+002 -2.3115e+001 47427 90958,91010,90984
 4.5000e+000 91062 -8.4905e+001 -2.6939e+002  1.5498e+001 47427 90906,90958,90932
 4.5000e+000 91180 -1.2440e+002 -2.9284e+002 -2.9531e+001 47427 91010,90958,91154
 4.5000e+000 91203 -1.8761e+002 -3.2028e+002 -4.4284e+001 47427 91010,91154,91036
 4.5000e+000 91583 -1.5261e+002 -2.8390e+002 -1.5121e+001 46873 91309,91439,91335
 4.5000e+000 91560 -1.5970e+002 -2.8862e+002 -1.2413e+001 46873 91309,91465,91439
 4.5000e+000 91537 -2.2531e+002 -3.2791e+002 -8.0971e+001 46873 91361,91439,91413
 4.5000e+000 91514 -1.7041e+002 -2.9589e+002 -4.3107e+001 46873 91335,91439,91361
 4.5000e+000 91491 -7.9860e+001 -2.8184e+002 -7.5558e+001 46873 91361,91413,91387
 4.5000e+000 91880 -9.3634e+001 -2.9434e+002 -6.5636e+000 46526 91606,91710,91658
 4.5000e+000 91857 -9.8507e+001 -3.0853e+002  2.5157e+000 46526 91606,91762,91710
 4.5000e+000 91834 -5.7069e+001 -2.8388e+002 -3.3632e+001 46526 91606,91658,91632
 4.5000e+000 91811 -1.1153e+002 -2.7452e+002  5.3511e+000 46526 91658,91710,91684
 4.5000e+000 91788 -6.5115e+001 -2.1009e+002  9.4366e+000 46526 91710,91762,91736
 4.5000e+000 92211 -5.1303e+001 -1.1890e+002 -8.5460e+000 45700 91986,92064,92038
 4.5000e+000 92188 -6.7591e+001 -1.7887e+002  1.9400e+000 45700 91986,92116,92064
 4.5000e+000 92165 -4.0036e+001 -1.0266e+002 -2.2564e+001 45700 91986,92038,92012
 4.5000e+000 92142 -4.5567e+001 -1.9537e+002  2.4190e+001 45700 92064,92116,92090
 4.5000e+000 92766 -1.3432e+002 -2.5554e+002  1.5730e+001 45452 92446,92602,92576
 4.5000e+000 92743 -1.9363e+002 -2.4554e+002 -2.0684e+001 45452 92420,92602,92446
 4.5000e+000 92720 -1.5214e+002 -2.6464e+002  4.1648e+001 45452 92789,92524,92498
 4.5000e+000 92697 -1.7430e+002 -2.5974e+002  3.4715e+001 45452 92789,92498,92446
 4.5000e+000 92674 -1.4980e+002 -2.8155e+002 -2.2863e+000 45452 92524,92576,92550
 4.5000e+000 92651 -2.2876e+002 -2.6628e+002  1.4222e+002 45452 92446,92498,92472
 4.5000e+000 92628 -1.4620e+002 -3.4314e+002 -8.8596e+001 45452 92394,92602,92420
 4.5000e+000 92815 -1.3658e+002 -2.6744e+002  3.5683e+001 45452 92576,92524,92789
 4.5000e+000 92838 -1.5396e+002 -2.5892e+002  3.1673e+001 45452 92576,92789,92446
 4.5000e+000 92939 -1.1005e+002 -3.4739e+002 -7.1194e+001 44998 92861,92913,92887
 4.5000e+000 93319 -2.1590e+001 -3.5327e+002  6.7437e+001 44601 93123,93201,93149
 4.5000e+000 93296 -9.6826e+001 -3.5898e+002 -3.5432e+001 44601 93045,93201,93123
 4.5000e+000 93273 -7.7684e+001 -2.0575e+002 -5.0182e+001 44601 93045,93123,93071
 4.5000e+000 93250 -7.3207e+001 -1.9038e+002 -3.1531e+001 44601 93071,93123,93097
 4.5000e+000 93227 -5.7045e+000 -1.9817e+002  7.2431e+001 44601 93149,93201,93175
 4.5000e+000 93697 -7.5090e+001 -3.8600e+002  2.0410e+001 44026 93720,93553,93527
 4.5000e+000 93674 -1.3374e+002 -3.2758e+002  2.8248e+001 44026 93720,93527,93449
 4.5000e+000 93651 -1.4705e+002 -3.3843e+002 -4.4954e+000 44026 93449,93527,93501
 4.5000e+000 93628 -1.0785e+002 -2.6278e+002 -5.8310e+001 44026 93423,93579,93449
 4.5000e+000 93605 -3.3627e+001 -2.6916e+002  2.4959e+001 44026 93449,93501,93475
 4.5000e+000 93746 -3.3261e+001 -3.4311e+002  3.4493e+000 44026 93579,93553,93720
 4.5000e+000 93769 -9.5152e+001 -2.8591e+002  1.2106e+001 44026 93579,93720,93449
 4.5000e+000 94066 -7.4688e+001 -3.0311e+002 -4.0881e+001 43579 94089,93818,93792
 4.5000e+000 94043 -1.2358e+002 -3.3425e+002 -2.6845e+001 43579 94161,94089,93792
 4.5000e+000 94020 -1.2123e+002 -3.3562e+002 -1.4111e+001 43579 94161,93792,93948
 4.5000e+000 93997 -1.3142e+002 -2.7007e+002 -1.4168e+001 43579 94233,93870,93818
 4.5000e+000 93974 -7.5037e+001 -2.7994e+002  8.9288e+000 43579 93818,93870,93844
 4.5000e+000 94115 -1.2769e+002 -2.7218e+002 -3.0847e+001 43579 94233,93818,94089
 4.5000e+000 94138 -1.6718e+002 -3.0258e+002 -1.9108e+001 43579 93896,94089,93922
 4.5000e+000 94187 -1.1525e+002 -3.1547e+002 -2.5244e+001 43579 93922,94089,94161
 4.5000e+000 94210 -1.1136e+002 -3.1471e+002 -1.1361e+001 43579 93922,94161,93948
 4.5000e+000 94259 -1.5235e+002 -3.0180e+002 -3.6987e+000 43579 93896,93870,94233
 4.5000e+000 94282 -1.3865e+002 -2.9531e+002 -2.2848e+001 43579 93896,94233,94089
 4.5000e+000 94481 -1.0083e+002 -3.1138e+002 -1.9837e+000 43239 94305,94383,94357
 4.5000e+000 94458 -8.5694e+001 -2.8420e+002  3.5569e+001 43239 94305,94409,94383
 4.5000e+000 94435 -7.7155e+001 -3.3266e+002 -7.9805e+000 43239 94305,94357,94331
 4.5000e+000 94633 -3.7048e+001 -1.9808e+002  4.6081e+001 42827 94656,94532,94506
 4.5000e+000 94610 -8.3274e+001 -2.1918e+002  5.0956e+001 42827 94728,94656,94506
 4.5000e+000 94682 -4.6543e+001 -2.2726e+002  3.9238e+001 42827 94558,94532,94656
 4.5000e+000 94705 -1.9004e+001 -2.2355e+002  2.4255e+001 42827 94988,94860,94656
 4.5000e+000 94754 -4.9073e+001 -2.0260e+002  1.6339e+001 42827 94988,94656,94728
 4.5000e+000 94886  7.5437e+000 -2.1117e+002  2.7495e+001 42827 94558,94656,94860
 4.5000e+000 95014  6.1304e+000 -2.0549e+002  1.6370e+001 42827 94584,94860,94988
 4.5000e+000 95037 -1.9505e+001 -1.8561e+002  8.9398e+000 42827 94584,94988,94728
 4.5000e+000 95236 -4.4506e+001 -2.4688e+002  3.2206e+001 42537 95259,95112,95060
 4.5000e+000 95213 -5.4485e+001 -2.3991e+002  2.9360e+001 42537 95259,95060,95164
 4.5000e+000 95190 -2.3425e+001 -2.5275e+002 -5.0370e+000 42537 95060,95112,95086
 4.5000e+000 95285 -5.1198e+001 -2.4962e+002  2.8055e+001 42537 95138,95112,95259
 4.5000e+000 95308 -6.1769e+001 -2.4601e+002  2.3770e+001 42537 95138,95259,95164
 4.5000e+000 95816 -1.1015e+002 -3.0317e+002 -2.1466e+001 41969 95493,95597,95519
 4.5000e+000 95793 -1.6229e+002 -2.8963e+002  2.4772e+001 41969 95493,95649,95597
 4.5000e+000 95770 -1.2333e+002 -2.7406e+002  2.2616e+001 41969 95493,95675,95649
 4.5000e+000 95747 -1.3161e+002 -3.6878e+002  2.1262e+001 41969 95597,95649,95623
 4.5000e+000 95724 -1.7225e+002 -2.8008e+002 -3.4620e+001 41969 95519,95597,95571
 4.5000e+000 95701 -1.5133e+002 -2.4322e+002 -7.0249e+001 41969 95519,95571,95545
 4.5000e+000 96371 -1.3609e+002 -3.2143e+002  3.9191e+001 41579 96025,96207,96181
 4.5000e+000 96348  3.8077e+001 -2.4255e+002 -1.0137e+001 41579 95999,96207,96025
 4.5000e+000 96325 -1.5370e+002 -2.5040e+002 -2.6818e+001 41579 96129,96181,96155
 4.5000e+000 96302 -5.8921e+001 -2.2727e+002  2.1707e+000 41579 96025,96181,96129
 4.5000e+000 96279 -1.2439e+002 -3.3101e+002  4.4453e+001 41579 96025,96129,96051
 4.5000e+000 96256 -1.5086e+002 -3.2676e+002  5.2051e+001 41579 96051,96103,96077
 4.5000e+000 96233 -5.7379e+001 -2.4512e+002  7.3920e+000 41579 96051,96129,96103
 4.5000e+000 96877 -3.4789e+001 -2.0606e+002 -2.3011e+001 41182 96972,96900,96632
 4.5000e+000 96854 -4.4321e+001 -1.5594e+002 -2.4933e+001 41182 96900,96554,96736
 4.5000e+000 96831 -3.3381e+001 -2.0527e+002 -2.0309e+001 41182 96972,96632,96580
 4.5000e+000 96808 -4.5520e+001 -1.9465e+002  1.9563e+001 41182 96632,96684,96658
 4.5000e+000 96785 -7.9088e+001 -2.0877e+002  2.5463e+001 41182 96684,96736,96710
 4.5000e+000 96762 -1.1785e+002 -2.6047e+002  4.2000e+001 41182 96580,96632,96606
 4.5000e+000 96926 -3.2588e+001 -2.2894e+002 -2.2911e+001 41182 96684,96632,96900
 4.5000e+000 96949 -6.5220e+001 -2.0371e+002 -4.0482e+001 41182 96684,96900,96736
 4.5000e+000 96998 -4.0090e+001 -2.0919e+002 -2.6494e+001 41182 96554,96900,96972
 4.5000e+000 97021 -3.8388e+001 -2.0635e+002 -2.3456e+001 41182 96554,96972,96580
 4.5000e+000 97576 -1.8695e+002 -4.5989e+002 -6.4322e+001 40678 97230,97412,97282
 4.5000e+000 97553 -2.0351e+001 -3.7692e+002  1.8789e+001 40678 97204,97412,97230
 4.5000e+000 97530 -5.5763e+001 -3.5216e+002 -5.6411e+001 40678 97282,97360,97308
 4.5000e+000 97507 -8.4170e+001 -3.5863e+002 -2.3251e+001 40678 97282,97412,97360
 4.5000e+000 97484 -2.6879e+001 -2.1433e+002 -4.9314e+001 40678 97308,97360,97334
 4.5000e+000 97461 -1.0857e+002 -4.2902e+002 -1.2877e+001 40678 97360,97412,97386
 4.5000e+000 97438 -1.0521e+002 -2.8760e+002 -4.0264e+001 40678 97230,97282,97256
 4.5000e+000 97976 -1.4408e+002 -2.4145e+002 -6.2917e+000 40244 97702,97832,97754
 4.5000e+000 97953 -1.2175e+002 -2.3152e+002 -1.2691e+001 40244 97702,97858,97832
 4.5000e+000 97930 -1.5453e+002 -2.8391e+002 -6.0730e+001 40244 97702,97754,97728
 4.5000e+000 97907 -1.2273e+002 -2.6914e+002  2.9383e+001 40244 97780,97832,97806
 4.5000e+000 97884 -1.3271e+002 -2.3441e+002 -2.3860e+000 40244 97754,97832,97780
 4.5000e+000 98482 -8.0854e+001 -2.2874e+002  3.6086e+001 39690 98505,98185,98159
 4.5000e+000 98459 -8.2636e+001 -2.2258e+002  3.5031e+001 39690 98505,98159,98289
 4.5000e+000 98436 -1.5413e+002 -3.3005e+002  8.8639e+001 39690 98159,98315,98289
 4.5000e+000 98413 -6.4387e+001 -2.0756e+002  3.2912e+001 39690 98211,98289,98263
 4.5000e+000 98390 -3.7604e+001 -1.3666e+002  1.9945e+001 39690 98211,98263,98237
 4.5000e+000 98367 -4.3468e+001 -2.1131e+002  3.4306e+001 39690 98159,98341,98315
 4.5000e+000 98531 -8.2336e+001 -2.2521e+002  3.2000e+001 39690 98211,98185,98505
 4.5000e+000 98554 -8.2339e+001 -2.1532e+002  3.2169e+001 39690 98211,98505,98289
 4.5000e+000 99109 -7.7768e+001 -2.0395e+002 -1.2214e+001 39072 99132,98867,98789
 4.5000e+000 99086 -7.4334e+001 -2.1152e+002 -1.8684e+001 39072 99132,98789,98763
 4.5000e+000 99063 -1.1658e+002 -3.3801e+002  3.7593e+001 39072 98867,98945,98919
 4.5000e+000 99040 -6.6498e+001 -2.1558e+002 -2.5620e+000 39072 98789,98867,98841
 4.5000e+000 99017 -1.5500e+002 -2.4140e+002  1.0776e+001 39072 98867,98919,98893
 4.5000e+000 98994 -1.0895e+002 -2.0092e+002  4.2929e+001 39072 98789,98841,98815
 4.5000e+000 98971 -1.1108e+002 -2.4212e+002 -1.5544e+001 39072 98737,98945,98763
 4.5000e+000 99158 -7.5634e+001 -2.1360e+002 -1.3593e+001 39072 98945,98867,99132
 4.5000e+000 99181 -7.4921e+001 -2.2710e+002 -1.6234e+001 39072 98945,99132,98763
 4.5000e+000 99510 -6.5661e+001 -1.9033e+002  1.2664e+001 38668 99311,99389,99363
 4.5000e+000 99487 -5.5943e+001 -1.9881e+002 -5.8130e+000 38668 99285,99389,99311
 4.5000e+000 99464 -1.2597e+002 -2.7538e+002  2.4173e+001 38668 99285,99415,99389
 4.5000e+000 99441 -5.9802e+001 -2.0543e+002  2.0827e+001 38668 99311,99363,99337
 4.5000e+000 99758 -7.5810e+001 -3.0585e+002  4.8368e+001 38164 99781,99611,99585
 4.5000e+000 99735 -3.2211e+001 -3.1417e+002  5.3231e+001 38164 99781,99585,99533
 4.5000e+000 99712 -1.1382e+002 -2.8952e+002  3.4297e+001 38164 99611,99663,99637
 4.5000e+000 99689  1.4224e+001 -2.9830e+002 -1.9974e+001 38164 99533,99585,99559
 4.5000e+000 99807 -1.0075e+002 -3.0487e+002  6.0590e+001 38164 99663,99611,99781
 4.5000e+000 99830 -6.7421e+001 -3.1803e+002  5.8673e+001 38164 99663,99781,99533
 4.5000e+000 100232 -9.1302e+001 -2.3367e+002  3.4805e+000 37702 99984,100114,100088
 4.5000e+000 100209 -7.4287e+001 -2.5336e+002  2.5381e+001 37702 99958,100114,99984
 4.5000e+000 100186 -1.3218e+002 -2.8876e+002 -1.7982e+001 37702 100010,100088,100036
 4.5000e+000 100163 -9.0688e+001 -2.3387e+002  1.8754e-001 37702 99984,100088,100010
 4.5000e+000 100140 -7.8012e+001 -2.1154e+002 -6.1494e+001 37702 100036,100088,100062
 4.5000e+000 100640 -1.8999e+002 -2.7023e+002  3.3808e+001 37262 100493,100545,100519
 4.5000e+000 100617 -1.7088e+002 -3.0553e+002  1.6626e+001 37262 100441,100545,100493
 4.5000e+000 100594 -7.0904e+001 -2.2918e+002 -4.1086e+001 37262 100415,100545,100441
 4.5000e+000 100571 -1.8938e+002 -3.2111e+002 -1.3877e+001 37262 100441,100493,100467
 4.5000e+000 101146 -1.3319e+002 -2.2566e+002 -1.3823e+000 36872 100823,100979,100849
 4.5000e+000 101123 -1.2944e+002 -2.0953e+002 -2.0754e+001 36872 100823,101005,100979
 4.5000e+000 101100 -1.3825e+002 -3.2506e+002  4.4391e+001 36872 101169,100901,100849
 4.5000e+000 101077 -1.0649e+002 -2.5857e+002  2.3666e+001 36872 101169,100849,100979
 4.5000e+000 101054 -7.4588e+001 -2.6857e+002 -1.6879e+001 36872 100927,100979,100953
 4.5000e+000 101031 -7.4853e+001 -3.6803e+002  6.2214e+001 36872 100849,100901,100875
 4.5000e+000 101195 -9.5128e+001 -3.4453e+002  2.7513e+000 36872 100927,100901,101169
 4.5000e+000 101218 -7.5849e+001 -3.0945e+002 -1.3914e+001 36872 100927,101169,100979
 4.5000e+000 101773 -1.5479e+002 -2.4208e+002  4.4830e+001 36418 101479,101609,101583
 4.5000e+000 101750 -1.5873e+002 -2.6011e+002  4.6836e+001 36418 101453,101609,101479
 4.5000e+000 101727 -1.0648e+002 -2.5758e+002 -1.8644e+000 36418 101796,101531,101479
 4.5000e+000 101704 -1.4770e+002 -2.8605e+002  1.8701e+001 36418 101796,101479,101583
 4.5000e+000 101681 -9.1370e+001 -2.2340e+002 -7.6068e+000 36418 101479,101531,101505
 4.5000e+000 101658 -4.2925e+000 -2.3381e+002  2.9849e+000 36418 101401,101609,101453
 4.5000e+000 101635 -4.6349e+001 -2.4162e+002 -2.5475e+000 36418 101401,101453,101427
 4.5000e+000 101822 -1.1619e+002 -2.3662e+002 -4.0889e+001 36418 101557,101531,101796
 4.5000e+000 101845 -1.6364e+002 -2.4688e+002 -2.2362e+001 36418 101557,101796,101583
 4.5000e+000 102174 -1.5529e+001 -1.1754e+002 -3.0648e+001 35914 101949,102053,101975
 4.5000e+000 102151 -5.8854e+001 -1.1732e+002 -2.4128e+001 35914 101949,102079,102053
 4.5000e+000 102128 -6.0075e+001 -1.3872e+002 -1.4434e+001 35914 101975,102053,102027
 4.5000e+000 102105 -3.7520e+001 -1.0382e+002 -2.4166e+001 35914 101975,102027,102001
 4.5000e+000 102631 -5.1083e+001 -2.6428e+002  1.0127e+001 35574 102383,102513,102487
 4.5000e+000 102608 -3.7628e+001 -2.7767e+002  7.9624e+000 35574 102357,102513,102383
 4.5000e+000 102585 -8.7943e+001 -2.7329e+002  1.0671e+001 35574 102409,102487,102435
 4.5000e+000 102562 -9.2542e+001 -2.7979e+002  7.5449e+000 35574 102383,102487,102409
 4.5000e+000 102539 -8.7418e+001 -2.7452e+002  1.1957e+001 35574 102435,102487,102461
 4.5000e+000 103009 -1.4067e+002 -2.5917e+002 -1.8001e+001 35170 102761,102865,102787
 4.5000e+000 102986 -8.4614e+001 -2.2785e+002  2.4615e+001 35170 102761,102891,102865
 4.5000e+000 102963 -1.2455e+002 -2.5027e+002 -6.7716e+000 35170 102787,102865,102813
 4.5000e+000 102940 -6.9311e+001 -2.1783e+002  2.9260e+001 35170 102735,102891,102761
 4.5000e+000 102917 -1.2574e+002 -2.5644e+002 -1.6483e+001 35170 102813,102865,102839
 4.5000e+000 103257 -2.4745e+001 -1.9838e+002 -3.5673e+001 34659 103280,103058,103032
 4.5000e+000 103234 -3.9360e+001 -2.0993e+002 -2.0827e+001 34659 103280,103032,103162
 4.5000e+000 103211 -7.1449e+001 -2.1219e+002 -1.9298e+001 34659 103084,103162,103110
 4.5000e+000 103188 -9.3612e+001 -2.5959e+002 -1.3395e+001 34659 103110,103162,103136
 4.5000e+000 103306 -5.0369e+001 -1.8416e+002 -3.0856e+001 34659 103084,103058,103280
 4.5000e+000 103329 -5.9807e+001 -1.9639e+002 -1.4145e+001 34659 103084,103280,103162
 4.5000e+000 103837 -2.6734e+001 -2.9012e+002  9.3942e+000 34247 103860,103566,103540
 4.5000e+000 103814 -3.9529e+001 -2.9100e+002  6.4982e-001 34247 103932,103860,103540
 4.5000e+000 103791 -2.9177e+001 -3.2234e+002 -3.1339e+001 34247 103932,103540,103670
 4.5000e+000 103768 -3.1619e+001 -2.7275e+002  5.7092e+000 34247 103566,103618,103592
 4.5000e+000 103745 -1.1881e+002 -2.7172e+002 -4.1444e+001 34247 103540,103696,103670
 4.5000e+000 103722 -1.5690e+002 -3.0140e+002  4.4164e+001 34247 103514,103696,103540
 4.5000e+000 103886 -5.9767e+001 -2.8917e+002 -2.1929e+000 34247 103618,103566,103860
 4.5000e+000 103909 -6.6785e+001 -3.0846e+002  8.3219e+000 34247 103618,103860,103644
 4.5000e+000 103958 -6.7716e+001 -3.6608e+002 -4.1656e+000 34247 103644,103860,103932
 4.5000e+000 103981 -5.7341e+001 -3.9508e+002 -3.7746e+001 34247 103644,103932,103670
 4.5000e+000 104300 -1.4320e+002 -3.0354e+002 -1.0303e+001 33843 104052,104182,104156
 4.5000e+000 104277 -1.8428e+002 -2.8663e+002 -3.3002e+000 33843 104026,104182,104052
 4.5000e+000 104254 -1.4019e+002 -3.4659e+002  6.3087e+000 33843 104078,104156,104130
 4.5000e+000 104231 -1.6514e+002 -3.2761e+002  6.4360e-001 33843 104052,104156,104078
 4.5000e+000 104208 -2.1519e+002 -3.6807e+002  9.6995e+000 33843 104078,104130,104104
 4.5000e+000 104499 -9.9845e+001 -3.0980e+002 -2.6593e+001 33282 104594,104522,104375
 4.5000e+000 104476 -8.5545e+001 -3.0023e+002  9.5869e+000 33282 104522,104323,104427
 4.5000e+000 104453 -6.1048e+001 -3.3172e+002 -2.4008e+001 33282 104594,104375,104349
 4.5000e+000 104548 -1.0450e+002 -2.6740e+002 -1.3013e+001 33282 104401,104375,104522
 4.5000e+000 104571 -7.1945e+001 -2.6339e+002  1.2545e+001 33282 104401,104522,104427
 4.5000e+000 104620 -5.3040e+001 -2.6883e+002 -8.7574e+000 33282 104323,104522,104594
 4.5000e+000 104643 -2.8743e+001 -3.0529e+002 -1.1942e+001 33282 104323,104594,104349
 4.5000e+000 104942 -1.3511e+002 -3.4228e+002  4.0985e+001 32728 104694,104772,104720
 4.5000e+000 104919 -1.0273e+002 -3.1234e+002  1.4892e+001 32728 104694,104824,104772
 4.5000e+000 104896 -1.7512e+002 -3.0802e+002  4.5876e+001 32728 104720,104772,104746
 4.5000e+000 104873 -8.0002e+001 -3.5538e+002  1.7866e+001 32728 104772,104824,104798
 4.5000e+000 104850 -8.5454e+001 -3.0923e+002  1.4619e+001 32728 104668,104824,104694
 4.5000e+000 105373 -1.1295e+002 -3.3210e+002 -1.4683e+001 32274 105396,105102,105076
 4.5000e+000 105350 -1.2299e+002 -3.6269e+002 -5.3476e+000 32274 105396,105076,105206
 4.5000e+000 105327 -1.5412e+002 -3.6810e+002  1.8584e+001 32274 105154,105206,105180
 4.5000e+000 105304 -6.3288e+001 -3.4866e+002 -2.8624e+001 32274 105076,105232,105206
 4.5000e+000 105281 -1.3394e+002 -3.0130e+002 -5.5378e+001 32274 105102,105154,105128
 4.5000e+000 105258 -1.9516e+002 -3.0039e+002 -5.7561e+001 32274 105050,105232,105076
 4.5000e+000 105422 -1.3089e+002 -2.9889e+002 -1.3448e+001 32274 105154,105102,105396
 4.5000e+000 105445 -1.3988e+002 -3.2991e+002 -6.2416e+000 32274 105154,105396,105206
 4.5000e+000 105644 -1.3177e+002 -3.3734e+002 -5.4580e+000 31620 105468,105546,105520
 4.5000e+000 105621 -1.0727e+002 -3.6690e+002 -1.7578e+001 31620 105468,105572,105546
 4.5000e+000 105598 -1.3067e+002 -3.6372e+002  1.9275e+001 31620 105468,105520,105494
 4.5000e+000 105794 -3.3603e+001 -2.9532e+002 -8.9440e+000 31158 105889,105817,105693
 4.5000e+000 105771 -5.2955e+001 -2.6779e+002 -1.9223e+001 31158 105817,105667,105745
 4.5000e+000 105843 -4.3213e+001 -3.5994e+002 -3.1580e+000 31158 105719,105693,105817
 4.5000e+000 105866 -2.3234e+001 -3.1071e+002 -1.5727e+001 31158 105719,105817,105745
 4.5000e+000 105915 -7.8298e+001 -3.1448e+002 -9.4612e+000 31158 105667,105817,105889
 4.5000e+000 106270 -1.3014e+002 -2.9708e+002 -8.3918e-001 30818 106293,106071,106045
 4.5000e+000 106247 -1.5071e+002 -3.4338e+002 -1.7765e+001 30818 106293,106045,106175
 4.5000e+000 106224 -1.0454e+002 -2.7327e+002  1.7498e+001 30818 106123,106175,106149
 4.5000e+000 106201 -1.3481e+002 -3.0085e+002  2.9885e+001 30818 106071,106123,106097
 4.5000e+000 106319 -1.3188e+002 -2.7890e+002  1.6115e+001 30818 106123,106071,106293
 4.5000e+000 106342 -1.3436e+002 -3.0309e+002  1.8463e+000 30818 106123,106293,106175
 4.5000e+000 106492 -1.2198e+002 -2.7427e+002  5.2240e+001 30414 106645,106391,106365
 4.5000e+000 106469 -4.2436e+001 -2.7152e+002  8.0315e+001 30414 106515,106365,106443
 4.5000e+000 106541 -7.6703e+001 -2.8536e+002  5.9313e+001 30414 106645,106365,106515
 4.5000e+000 106671 -5.8051e+001 -3.2414e+002  1.0142e+002 30414 106417,106391,106645
 4.5000e+000 106694  4.4095e+001 -3.0001e+002  8.7339e+001 30414 106417,106645,106515
 4.5000e+000 106942 -6.3185e+001 -4.1635e+002 -5.9877e-001 29910 106965,106795,106769
 4.5000e+000 106919 -5.5232e+001 -3.7396e+002  1.1667e+001 29910 106965,106769,106717
 4.5000e+000 106896 -5.6596e+001 -3.1277e+002 -4.0831e+001 29910 106795,106847,106821
 4.5000e+000 106873 -2.8617e+001 -3.1786e+002  2.1077e+001 29910 106717,106769,106743
 4.5000e+000 106991 -8.6508e+001 -3.7094e+002  5.2556e+000 29910 106847,106795,106965
 4.5000e+000 107014 -6.9097e+001 -3.1462e+002  1.6945e+001 29910 106847,106965,106717
 4.5000e+000 107213 -8.9123e+001 -3.1162e+002  1.9177e+001 29413 107236,107063,107037
 4.5000e+000 107190 -8.1579e+001 -3.6657e+002  3.9489e+001 29413 107236,107037,107141
 4.5000e+000 107167 -1.0958e+002 -2.2621e+002  4.9166e+001 29413 107063,107115,107089
 4.5000e+000 107262 -8.4163e+001 -2.7622e+002  1.3586e+001 29413 107115,107063,107236
 4.5000e+000 107285 -6.8433e+001 -3.1700e+002  3.5863e+001 29413 107115,107236,107141
 4.5000e+000 107486 -3.8690e+001 -2.9860e+002  3.9885e+001 29009 107336,107388,107362
 4.5000e+000 107463 -1.9731e+001 -2.8820e+002  1.1295e+001 29009 107310,107388,107336
 4.5000e+000 107440 -2.4355e+001 -2.7146e+002  1.1077e+001 29009 107310,107414,107388
 4.5000e+000 107736 -1.2970e+002 -3.4387e+002 -1.3198e+001 28491 107537,107615,107563
 4.5000e+000 107713 -1.1214e+002 -3.3547e+002 -8.8887e+000 28491 107537,107641,107615
 4.5000e+000 107690 -7.2404e+001 -3.2400e+002  6.2370e+000 28491 107563,107615,107589
 4.5000e+000 107667 -1.1789e+002 -3.3316e+002 -9.9327e+000 28491 107511,107641,107537
 4.5000e+000 108118 -7.2617e+001 -3.2618e+002  1.3020e+001 27980 108141,107922,107844
 4.5000e+000 108095 -5.8003e+001 -3.5105e+002  1.2222e+001 27980 108141,107844,108000
 4.5000e+000 108072 -7.6603e+001 -3.4136e+002 -1.8092e+001 27980 107844,107922,107870
 4.5000e+000 108049 -8.2747e+001 -2.9394e+002 -9.2431e+000 27980 107870,107922,107896
 4.5000e+000 108026 -1.1522e+002 -3.0568e+002  3.8385e+001 27980 107922,107974,107948
 4.5000e+000 108167 -6.2576e+001 -3.2563e+002  1.7736e+001 27980 107974,107922,108141
 4.5000e+000 108190 -2.2742e+001 -3.2661e+002  2.4411e+001 27980 107974,108141,108000
 4.5000e+000 108745 -3.7577e+001 -2.1424e+002 -4.9762e+000 27376 108840,108768,108477
 4.5000e+000 108722 -6.6050e+001 -2.6391e+002 -5.2098e+001 27376 108768,108373,108581
 4.5000e+000 108699 -6.1709e+001 -1.8592e+002  3.9245e+001 27376 108840,108477,108451
 4.5000e+000 108676 -1.5373e+002 -2.2594e+002 -9.4636e+000 27376 108373,108451,108399
 4.5000e+000 108653 -6.2534e+001 -2.6659e+002  3.6993e+001 27376 108503,108581,108529
 4.5000e+000 108630 -7.0115e+001 -2.6147e+002  3.8514e+001 27376 108529,108581,108555
 4.5000e+000 108607 -1.7376e+002 -2.4175e+002  1.9070e+001 27376 108399,108451,108425
 4.5000e+000 108794 -6.1744e+001 -2.8921e+002  1.2343e+000 27376 108503,108477,108768
 4.5000e+000 108817 -1.2409e+001 -2.6337e+002 -9.6290e+000 27376 108503,108768,108581
 4.5000e+000 108866 -1.2766e+002 -2.6571e+002 -2.5680e+001 27376 108373,108768,108840
 4.5000e+000 108889 -1.2330e+002 -2.2821e+002  2.0596e+001 27376 108373,108840,108451
 4.5000e+000 109186 -1.2718e+002 -3.3697e+002  3.5144e+001 26722 109209,108938,108912
 4.5000e+000 109163 -1.1837e+002 -3.1565e+002  3.2854e+001 26722 109281,109209,108912
 4.5000e+000 109140 -1.1389e+002 -3.0702e+002  3.0997e+001 26722 109281,108912,109042
 4.5000e+000 109117 -1.0505e+002 -3.6061e+002  1.5843e+001 26722 108938,108990,108964
 4.5000e+000 109094 -1.6053e+002 -2.7987e+002  2.0724e+001 26722 108912,109068,109042
 4.5000e+000 109235 -1.0719e+002 -3.2552e+002  3.0243e+001 26722 108990,108938,109209
 4.5000e+000 109258 -1.1450e+002 -3.4999e+002  2.7278e+001 26722 108990,109209,109016
 4.5000e+000 109307 -1.0457e+002 -3.2918e+002  1.6589e+001 26722 109016,109209,109281
 4.5000e+000 109330 -9.6214e+001 -3.1429e+002  1.2930e+001 26722 109016,109281,109042
 4.5000e+000 109732 -1.3490e+002 -2.7805e+002 -5.7258e+000 26310 109458,109588,109484
 4.5000e+000 109709 -1.2916e+002 -3.2477e+002 -3.4291e+001 26310 109458,109614,109588
 4.5000e+000 109686 -1.9194e+002 -3.2590e+002  4.8097e+001 26310 109510,109562,109536
 4.5000e+000 109663 -1.8990e+002 -3.0668e+002  1.8831e+001 26310 109484,109562,109510
 4.5000e+000 109640 -1.3942e+002 -2.8254e+002 -9.3652e-001 26310 109484,109588,109562
 4.5000e+000 110159 -8.1579e+001 -2.8050e+002 -9.5002e+000 25642 110182,109940,109914
 4.5000e+000 110136 -7.4924e+001 -3.2712e+002  3.8928e+001 25642 110182,109914,109888
 4.5000e+000 110113 -1.0159e+002 -3.4943e+002 -4.6102e+001 25642 109966,110018,109992
 4.5000e+000 110090 -1.1267e+002 -3.3716e+002  2.6144e+001 25642 110254,109966,109940
 4.5000e+000 110067 -1.5153e+002 -3.2030e+002  1.8472e+001 25642 109862,110018,109888
 4.5000e+000 110044 -1.4193e+002 -2.6710e+002  4.4786e+001 25642 109836,110018,109862
 4.5000e+000 110208 -1.1140e+002 -3.0772e+002  1.9406e+001 25642 110254,109940,110182
 4.5000e+000 110231 -1.2217e+002 -3.2950e+002  4.3562e+001 25642 110018,110182,109888
 4.5000e+000 110280 -9.8521e+001 -3.7395e+002  2.0678e+001 25642 110018,109966,110254
 4.5000e+000 110303 -1.0346e+002 -3.5199e+002  1.4951e+001 25642 110018,110254,110182
 4.5000e+000 110632 -1.4613e+002 -2.9335e+002 -1.7263e+001 25188 110407,110485,110433
 4.5000e+000 110609 -1.7157e+002 -2.9023e+002 -1.1071e+001 25188 110407,110537,110485
 4.5000e+000 110586 -1.6684e+002 -3.0533e+002 -5.7141e+001 25188 110433,110485,110459
 4.5000e+000 110563 -1.6089e+002 -3.1042e+002  3.1405e+001 25188 110485,110537,110511
 4.5000e+000 110831 -2.7697e+001 -2.7873e+002  7.5729e+000 24726 110854,110707,110655
 4.5000e+000 110808 -1.2161e+001 -3.0129e+002  3.0627e+001 24726 110854,110655,110759
 4.5000e+000 110785 -3.9709e+001 -2.8955e+002  1.4633e+001 24726 110655,110707,110681
 4.5000e+000 110880 -1.5841e+001 -2.5724e+002  1.2251e+001 24726 110733,110707,110854
 4.5000e+000 110903  4.9711e+000 -2.6871e+002  3.6984e+001 24726 110733,110854,110759
 4.5000e+000 111234 -7.7408e+000 -2.0405e+002 -5.9087e+000 24222 111257,111087,111035
 4.5000e+000 111211  2.6676e+001 -1.8848e+002  2.2863e+001 24222 111257,111035,111009
 4.5000e+000 111188 -3.2669e+001 -1.0885e+002 -4.5469e+001 24222 111035,111087,111061
 4.5000e+000 111165 -3.1912e+001 -1.6360e+002  5.4545e+000 24222 111087,111139,111113
 4.5000e+000 111283 -2.9279e+001 -1.6848e+002  9.8871e+000 24222 111139,111087,111257
 4.5000e+000 111306 -1.4328e+001 -1.4324e+002  2.8387e+001 24222 111139,111257,111009
 4.5000e+000 111625 -3.9663e+001 -2.8186e+002 -1.6054e+001 23732 111648,111481,111455
 4.5000e+000 111602 -4.0686e+001 -2.8408e+002 -1.5683e+001 23732 111648,111455,111377
 4.5000e+000 111579  3.8591e+001 -1.4481e+002  2.9893e+001 23732 111377,111429,111403
 4.5000e+000 111556 -1.6159e+001 -2.8587e+002 -7.2301e+000 23732 111377,111455,111429
 4.5000e+000 111533 -3.0147e+001 -2.5583e+002 -6.0149e+000 23732 111351,111507,111377
 4.5000e+000 111674 -4.0668e+001 -2.7818e+002 -1.3454e+001 23732 111507,111481,111648
 4.5000e+000 111697 -4.2637e+001 -2.8270e+002 -1.3152e+001 23732 111507,111648,111377
 4.5000e+000 112156 -7.8902e+001 -3.3433e+002  2.4764e+001 23278 112179,111908,111882
 4.5000e+000 112133 -7.3665e+001 -3.0930e+002  1.3568e+001 23278 112179,111882,112012
 4.5000e+000 112110 -2.4938e+001 -3.6165e+002  1.1269e+000 23278 111908,111960,111934
 4.5000e+000 112087 -3.1133e+001 -2.7180e+002 -3.6956e+000 23278 111882,112038,112012
 4.5000e+000 112064 -6.6342e+001 -2.7930e+002 -4.5946e+000 23278 111960,112012,111986
 4.5000e+000 112205 -7.5195e+001 -3.2235e+002  4.0569e+000 23278 111960,111908,112179
 4.5000e+000 112228 -6.2948e+001 -2.9424e+002 -8.7348e+000 23278 111960,112179,112012
 4.5000e+000 112685 -2.0807e+002 -4.6236e+002 -4.4955e+001 22938 112489,112567,112541
 4.5000e+000 112662 -1.7987e+002 -4.0028e+002 -3.8330e+001 22938 112437,112567,112489
 4.5000e+000 112639 -1.1892e+002 -3.4244e+002 -4.3647e+000 22938 112489,112541,112515
 4.5000e+000 112616 -2.0558e+002 -3.8443e+002 -3.4497e+001 22938 112411,112567,112437
 4.5000e+000 112593 -1.5767e+002 -4.9913e+002 -1.0743e+001 22938 112437,112489,112463
 4.5000e+000 113191 -1.5369e+001 -3.2886e+002 -4.0802e+001 22534 113214,112998,112946
 4.5000e+000 113168 -6.2243e+001 -2.9247e+002 -2.1237e+001 22534 113286,113214,112946
 4.5000e+000 113145 -4.7188e+001 -2.9296e+002 -1.7815e+001 22534 113286,112946,112920
 4.5000e+000 113122 -1.3134e+002 -2.6911e+002 -5.7728e+001 22534 113358,113024,112998
 4.5000e+000 113099 -8.5068e+001 -2.8378e+002 -1.1005e+001 22534 112868,113050,112894
 4.5000e+000 113076 -9.7844e+001 -4.9290e+002 -8.0704e+001 22534 112946,112998,112972
 4.5000e+000 113240 -9.7565e+001 -3.3789e+002 -6.1131e+001 22534 113358,112998,113214
 4.5000e+000 113263 -8.1408e+001 -3.0728e+002 -1.3434e+001 22534 113050,113214,112894
 4.5000e+000 113312 -4.2564e+001 -2.9020e+002 -1.6936e+001 22534 112894,113214,113286
 4.5000e+000 113335 -2.6563e+001 -2.9138e+002 -1.6298e+001 22534 112894,113286,112920
 4.5000e+000 113384 -9.3999e+001 -2.0603e+002 -4.2154e+001 22534 113050,113024,113358
 4.5000e+000 113407 -4.5494e+001 -2.6296e+002 -3.8039e+001 22534 113050,113358,113214
 4.5000e+000 113785 -1.4958e+002 -3.8875e+002  8.3353e+000 21978 113808,113615,113511
 4.5000e+000 113762 -1.1999e+002 -3.9315e+002  2.5877e+001 21978 113808,113511,113667
 4.5000e+000 113739 -9.1349e+001 -3.3414e+002 -1.5322e+001 21978 113511,113615,113537
 4.5000e+000 113716  3.8230e+001 -2.9861e+002 -3.3462e+001 21978 113537,113615,113589
 4.5000e+000 113693 -4.2329e+001 -4.2772e+002  4.7823e+000 21978 113537,113589,113563
 4.5000e+000 113834 -1.5482e+002 -3.8890e+002  4.5494e+001 21978 113641,113615,113808
 4.5000e+000 113857 -7.7995e+001 -3.5921e+002  6.6379e+001 21978 113641,113808,113667
 4.5000e+000 114284 -1.1001e+002 -3.2596e+002  7.2135e+000 21517 114013,114117,114039
 4.5000e+000 114261 -1.2452e+002 -3.2456e+002  2.5525e+001 21517 113961,114117,114013
 4.5000e+000 114238 -1.2098e+002 -3.2917e+002  2.5918e+001 21517 113961,114013,113987
 4.5000e+000 114215 -1.7923e+002 -3.7199e+002 -2.5964e+001 21517 114039,114117,114091
 4.5000e+000 114192 -1.2719e+002 -2.7562e+002  3.0947e+001 21517 113961,114143,114117
 4.5000e+000 114169 -2.6417e+001 -3.1974e+002 -2.9396e+001 21517 114039,114091,114065
 4.5000e+000 114581 -5.9640e+001 -3.8105e+002  4.8821e+000 21027 114359,114463,114437
 4.5000e+000 114558 -2.8292e+001 -3.4432e+002  4.6412e+001 21027 114333,114463,114359
 4.5000e+000 114535 -2.1213e+001 -3.4700e+002 -9.6713e+000 21027 114359,114437,114385
 4.5000e+000 114512 -1.5147e+001 -3.4095e+002  3.9604e+001 21027 114307,114463,114333
 4.5000e+000 114489  6.0577e+001 -3.2295e+002 -1.6352e+001 21027 114385,114437,114411
 4.5000e+000 114912 -1.4901e+002 -3.3380e+002  4.2802e+000 20623 114713,114791,114765
 4.5000e+000 114889 -1.0427e+002 -3.1549e+002 -2.3201e+001 20623 114687,114791,114713
 4.5000e+000 114866 -7.0808e+001 -3.4873e+002 -2.6766e+001 20623 114687,114817,114791
 4.5000e+000 114843 -2.1995e+002 -4.0602e+002  3.4470e+001 20623 114713,114765,114739
 4.5000e+000 115290 -4.0277e+001 -2.9929e+002  1.5097e+001 20375 115313,115146,115094
 4.5000e+000 115267 -6.5970e+001 -2.8554e+002  2.9064e+001 20375 115313,115094,115042
 4.5000e+000 115244 -8.6086e+001 -2.7450e+002  8.3593e+000 20375 115385,115016,115172
 4.5000e+000 115221 -2.8476e+001 -2.6841e+002  2.4557e+001 20375 115042,115094,115068
 4.5000e+000 115198 -6.2667e+001 -3.5846e+002  1.9493e+001 20375 115094,115146,115120
 4.5000e+000 115339 -9.3237e+001 -3.5335e+002 -1.2003e+001 20375 115172,115146,115313
 4.5000e+000 115362 -5.1227e+001 -2.8336e+002  1.0217e+001 20375 115385,115172,115313
 4.5000e+000 115411 -1.0568e+002 -2.8463e+002  1.1957e+001 20375 115042,115016,115385
 4.5000e+000 115434 -8.8778e+001 -3.0536e+002  1.9321e+001 20375 115042,115385,115313
 4.5000e+000 115891 -1.5741e+002 -3.0945e+002  3.8141e+001 19971 115617,115747,115643
 4.5000e+000 115868 -1.3495e+002 -2.5443e+002  3.5664e+001 19971 115617,115773,115747
 4.5000e+000 115845 -9.8837e+001 -4.6478e+002  5.8589e+000 19971 115643,115721,115695
 4.5000e+000 115822 -4.1514e+000 -2.3303e+002 -1.7792e+000 19971 115643,115747,115721
 4.5000e+000 115799 -8.3520e+001 -5.7162e+002 -4.6094e+001 19971 115643,115695,115669
 4.5000e+000 115992 -2.2608e+002 -5.8015e+002 -9.8110e+001 19659 115914,115966,115940
 4.5000e+000 116142 -3.5579e+001 -1.3284e+002  3.5691e+000 18997 116041,116093,116067
 4.5000e+000 116119 -7.1145e+001 -2.2427e+002  1.3293e+001 18997 116015,116093,116041
 4.5000e+000 116343 -6.0435e+001 -3.4875e+002 -1.0247e+001 18707 116193,116245,116219
 4.5000e+000 116320 -1.3478e+002 -3.8063e+002 -1.5791e+001 18707 116193,116271,116245
 4.5000e+000 116297 -1.2185e+002 -3.3966e+002 -2.4907e+001 18707 116167,116271,116193
 4.5000e+000 116747 -5.6520e+001 -3.1578e+002 -5.8590e+000 18301 116525,116629,116551
 4.5000e+000 116724 -3.2249e+001 -2.6795e+002  7.5942e+000 18301 116473,116629,116525
 4.5000e+000 116701 -2.1596e+001 -2.6078e+002 -1.3628e+001 18301 116473,116525,116499
 4.5000e+000 116678 -4.8069e+001 -3.2848e+002 -4.2679e+000 18301 116551,116603,116577
 4.5000e+000 116655 -6.6821e+001 -3.3997e+002 -9.5759e+000 18301 116551,116629,116603
 4.5000e+000 117147 -1.5765e+002 -3.6164e+002 -2.3482e-001 17747 116899,117029,116925
 4.5000e+000 117124 -8.2745e+001 -2.6359e+002  3.7736e+001 17747 116873,117029,116899
 4.5000e+000 117101 -1.5664e+002 -3.5985e+002  1.8233e-001 17747 116925,117029,116951
 4.5000e+000 117078 -1.3545e+002 -3.0942e+002 -1.6565e+000 17747 116951,117029,117003
 4.5000e+000 117055 -1.8005e+002 -4.0860e+002 -2.6913e+001 17747 116951,117003,116977
 4.5000e+000 117368  2.1767e+001 -3.4858e+002  7.5396e+000 17293 117244,117296,117270
 4.5000e+000 117345 -2.4230e+001 -3.5964e+002 -4.9912e+000 17293 117192,117296,117244
 4.5000e+000 117322 -6.2233e+001 -3.3809e+002 -3.8272e+000 17293 117192,117244,117218
 4.5000e+000 117699 -3.3594e+001 -2.8229e+002 -3.3404e+001 16896 117526,117604,117552
 4.5000e+000 117676 -1.8662e+002 -4.3248e+002  2.7286e+001 16896 117500,117604,117526
 4.5000e+000 117653 -1.9791e+002 -3.4302e+002 -1.6925e+001 16896 117552,117604,117578
 4.5000e+000 117630 -1.7121e+002 -5.5935e+002  4.6798e+001 16896 117474,117604,117500
 4.5000e+000 117849 -3.9823e+002 -7.6474e+002 -2.9163e+001 16534 117722,117774,117748
 4.5000e+000 117826 -3.1447e+002 -9.3070e+002 -1.2552e+002 16534 117722,117800,117774
 4.5000e+000 118070 -1.4525e+000 -3.5826e+002  4.5411e+001 16194 117946,117998,117972
 4.5000e+000 118047 -5.8322e+001 -4.0386e+002  1.8289e+001 16194 117894,117998,117946
 4.5000e+000 118024 -2.0668e+002 -4.1397e+002 -2.7209e-001 16194 117894,117946,117920
 4.5000e+000 118173 -2.6375e+001 -3.4195e+002  0.0000e+000 15968 118095,118147,118121
 4.5000e+000 118276 -1.0344e+002 -3.7368e+002  1.4414e+000 15433 118299,118198,118250
 4.5000e+000 118325 -1.0409e+002 -3.7520e+002  1.4564e+000 15433 118224,118198,118299
 4.5000e+000 118450 -1.7755e+002 -3.9641e+002  3.7738e+001 421 118372,118424,118398
 4.6000e+000 69891 -7.7167e+001 -3.9841e+002  1.4129e+001 68988 69447,69681,69629
 4.6000e+000 69868  2.1606e+001 -3.5670e+002  1.1914e+001 68988 69421,69681,69447
 4.6000e+000 69845 -1.0112e+001 -2.0457e+002  1.2266e+000 68988 69447,69629,69577
 4.6000e+000 69822 -1.2273e+002 -4.1402e+002 -4.4743e+001 68988 69447,69577,69473
 4.6000e+000 69799 -2.2893e+001 -4.7753e+002  7.9537e+001 68988 69629,69681,69655
 4.6000e+000 69776 -1.3164e+002 -2.5730e+002  6.9652e+000 68988 69577,69629,69603
 4.6000e+000 69753 -9.8702e+001 -3.7182e+002 -5.5949e+001 68988 69473,69577,69551
 4.6000e+000 69730 -1.3772e+002 -7.2324e+002 -7.0574e+001 68988 69473,69551,69525
 4.6000e+000 69707 -2.2330e+002 -4.8352e+002  9.5625e-001 68988 69473,69525,69499
 4.6000e+000 69992 -2.3997e+002 -4.3752e+002 -6.0377e+001 68676 69914,69966,69940
 4.6000e+000 70392 -1.7552e+002 -3.5830e+002  2.6880e+001 68478 70118,70248,70144
 4.6000e+000 70369 -2.1551e+000 -3.6438e+002  7.5667e+001 68478 70118,70274,70248
 4.6000e+000 70346 -1.0821e+002 -2.7385e+002 -1.0980e+000 68478 70144,70222,70196
 4.6000e+000 70323 -9.0950e+001 -2.2894e+002 -1.2032e+001 68478 70144,70248,70222
 4.6000e+000 70300 -1.1678e+002 -2.9817e+002 -5.3774e+000 68478 70144,70196,70170
 4.6000e+000 70841  4.2282e+001 -2.5320e+002 -6.4323e+001 68280 70570,70622,70596
 4.6000e+000 70818 -1.2930e+002 -2.8679e+002 -1.5820e+001 68280 70544,70622,70570
 4.6000e+000 70795 -9.7238e+001 -2.1474e+002 -9.3980e+000 68280 70544,70674,70622
 4.6000e+000 70772 -8.3914e+001 -1.9252e+002  3.1170e+000 68280 70622,70674,70648
 4.6000e+000 70749 -1.3644e+002 -3.1969e+002  2.3414e+001 68280 70518,70674,70544
 4.6000e+000 70726  9.5070e+001 -3.3413e+002  9.0861e+001 68280 70518,70700,70674
 4.6000e+000 70991 -1.5086e+001 -1.3008e+003  3.8994e+001 67968 70864,70916,70890
 4.6000e+000 70968 -3.4634e+002 -1.2911e+003  1.5089e+002 67968 70864,70942,70916
 4.6000e+000 71141 -5.9385e+002 -1.1255e+003 -5.5867e+001 67770 71040,71092,71066
 4.6000e+000 71118 -5.1548e+002 -1.3563e+003  5.8686e+001 67770 71014,71092,71040
 4.6000e+000 71651 -8.9272e+001 -2.5700e+002 -3.9810e+001 67366 71746,71674,71458
 4.6000e+000 71628 -6.0722e+001 -2.1028e+002 -4.2464e+001 67366 71674,71354,71510
 4.6000e+000 71605 -8.0869e+001 -2.8407e+002 -3.6924e+001 67366 71746,71458,71432
 4.6000e+000 71582 -1.2478e+002 -2.9138e+002  1.4804e+001 67366 71354,71432,71380
 4.6000e+000 71559 -1.3288e+002 -2.1670e+002 -2.1106e+001 67366 71380,71432,71406
 4.6000e+000 71536 -6.3198e+001 -9.3231e+001 -1.8529e+000 67366 71328,71510,71354
 4.6000e+000 71700 -9.7090e+001 -2.3247e+002 -1.8522e+001 67366 71484,71458,71674
 4.6000e+000 71723 -6.9918e+001 -2.1984e+002 -1.4304e+001 67366 71484,71674,71510
 4.6000e+000 71772 -7.9250e+001 -2.2494e+002 -3.4528e+001 67366 71354,71674,71746
 4.6000e+000 71795 -6.9543e+001 -2.4871e+002 -3.4977e+001 67366 71354,71746,71432
 4.6000e+000 71896 -2.2357e+002 -4.7831e+002  0.0000e+000 67146 71818,71870,71844
 4.6000e+000 71997 -2.8696e+002 -4.2375e+002  8.6723e+001 66948 71919,71971,71945
 4.6000e+000 72149 -2.7343e+001 -3.0482e+002 -3.3903e+001 66700 72172,72074,72048
 4.6000e+000 72126 -1.1303e+002 -3.4079e+002 -1.3305e+001 66700 72172,72048,72022
 4.6000e+000 72198 -1.7231e+002 -3.7358e+002  2.3476e+001 66700 72244,72172,72100
 4.6000e+000 72221 -1.5612e+002 -3.4311e+002 -2.0147e+001 66700 72100,72172,72022
 4.6000e+000 72270 -9.6145e+001 -2.0665e+002 -2.2771e+001 66700 72074,72172,72244
 4.6000e+000 72623 -1.2322e+002 -3.2115e+002  7.7669e+000 66502 72424,72502,72450
 4.6000e+000 72600 -1.0519e+002 -2.7190e+002  5.0065e+000 66502 72398,72502,72424
 4.6000e+000 72577 -8.2887e+001 -3.0648e+002 -5.3465e+000 66502 72398,72528,72502
 4.6000e+000 72554 -1.2392e+002 -2.8809e+002 -1.9011e+000 66502 72450,72502,72476
 4.6000e+000 72920 -1.9059e+002 -3.8939e+002  1.0131e+001 65941 72672,72776,72750
 4.6000e+000 72897 -1.9007e+002 -3.3705e+002  3.6783e+001 65941 72646,72776,72672
 4.6000e+000 72874 -1.6750e+002 -3.8252e+002  1.2583e+001 65941 72672,72750,72724
 4.6000e+000 72851 -1.6909e+002 -3.0577e+002  2.7930e+001 65941 72672,72724,72698
 4.6000e+000 72828 -1.4726e+002 -3.4102e+002  3.5782e+001 65941 72646,72802,72776
 4.6000e+000 73241 -5.7517e+001 -2.7999e+002  1.5853e+001 65743 73264,73071,73045
 4.6000e+000 73218 -1.2241e+002 -3.1200e+002  2.6115e+001 65743 73480,73264,73045
 4.6000e+000 73195 -1.0309e+002 -2.8177e+002 -3.7235e+000 65743 73336,72967,73097
 4.6000e+000 73172 -1.6827e+002 -2.5990e+002 -2.6787e+001 65743 73408,72993,72967
 4.6000e+000 73149 -9.4689e+001 -2.8214e+002 -3.9073e+000 65743 72967,73123,73097
 4.6000e+000 73290 -8.0772e+001 -2.9022e+002  3.6530e+000 65743 73097,73071,73264
 4.6000e+000 73313 -9.1129e+001 -2.7036e+002  9.8868e+000 65743 73336,73097,73264
 4.6000e+000 73362 -1.4690e+002 -2.8958e+002 -1.7922e+001 65743 73408,72967,73336
 4.6000e+000 73385 -7.6665e+001 -2.6628e+002 -1.1096e+000 65743 73019,73336,73264
 4.6000e+000 73434 -1.3269e+002 -2.0791e+002  1.4572e+001 65743 73019,72993,73408
 4.6000e+000 73457 -8.0605e+001 -2.4548e+002  9.7740e+000 65743 73019,73408,73336
 4.6000e+000 73506 -5.8174e+001 -1.9980e+002  2.2197e-001 65743 73019,73264,73480
 4.6000e+000 73989 -1.7123e+001 -2.2730e+002  2.6539e+001 65453 73793,73845,73819
 4.6000e+000 73966 -1.2218e+002 -2.5497e+002  3.0669e+001 65453 73741,73845,73793
 4.6000e+000 73943 -3.4389e+001 -2.0627e+002  1.1613e+001 65453 73715,73845,73741
 4.6000e+000 73920 -9.7170e+001 -2.7100e+002  5.1263e+001 65453 73741,73793,73767
 4.6000e+000 73897  9.9827e-001 -1.3476e+002  3.1928e-002 65453 73715,73871,73845
 4.6000e+000 74357 -7.0855e+001 -2.7457e+002 -7.1645e+001 65141 74380,74138,74086
 4.6000e+000 74334 -1.2393e+002 -3.6141e+002 -4.7856e+001 65141 74380,74086,74060
 4.6000e+000 74311 -1.4123e+002 -3.5235e+002 -1.2837e+001 65141 74138,74190,74164
 4.6000e+000 74288 -1.0765e+002 -3.9297e+002 -1.6020e+001 65141 74060,74216,74190
 4.6000e+000 74265 -1.1339e+002 -4.1282e+002  6.2000e+000 65141 74034,74216,74060
 4.6000e+000 74242 -8.7306e+001 -2.1754e+002 -4.5593e+001 65141 74086,74138,74112
 4.6000e+000 74406 -1.0456e+002 -3.5210e+002 -2.9618e+001 65141 74190,74138,74380
 4.6000e+000 74429 -1.2076e+002 -3.8186e+002 -1.3947e+001 65141 74190,74380,74060
 4.6000e+000 74937 -1.4360e+002 -2.8613e+002 -6.8166e+001 64737 74614,74666,74640
 4.6000e+000 74914 -1.7627e+002 -3.4647e+002 -5.0222e+001 64737 74614,74796,74666
 4.6000e+000 74891 -1.2956e+002 -2.4483e+002 -8.7499e+000 64737 74960,74718,74666
 4.6000e+000 74868 -1.1645e+002 -2.6836e+002 -3.0824e+001 64737 74960,74666,74770
 4.6000e+000 74845 -1.1944e+002 -2.1994e+002 -3.2750e+001 64737 74666,74796,74770
 4.6000e+000 74822 -1.2687e+002 -2.6517e+002  4.0716e+000 64737 74666,74718,74692
 4.6000e+000 74986 -1.3743e+002 -2.6894e+002 -1.0001e+001 64737 74744,74718,74960
 4.6000e+000 75009 -1.3156e+002 -3.0477e+002 -3.2928e+001 64737 74744,74960,74770
 4.6000e+000 75306 -6.7314e+001 -2.5226e+002  3.6885e+001 64133 75329,75110,75084
 4.6000e+000 75283 -8.7999e+001 -2.9918e+002  1.0279e+001 64133 75401,75329,75084
 4.6000e+000 75260 -8.4849e+001 -3.0615e+002  1.3082e+001 64133 75401,75084,75058
 4.6000e+000 75237 -8.6486e+001 -3.5557e+002  4.3801e+001 64133 75473,75136,75110
 4.6000e+000 75214 -8.8410e+001 -2.7939e+002  2.8645e+000 64133 75032,75188,75162
 4.6000e+000 75355 -1.0041e+002 -3.3034e+002  3.3753e+001 64133 75473,75110,75329
 4.6000e+000 75378 -7.6668e+001 -2.8593e+002  2.6321e+000 64133 75162,75329,75032
 4.6000e+000 75427 -7.2499e+001 -2.7563e+002  1.1026e+000 64133 75032,75329,75401
 4.6000e+000 75450 -1.3725e+002 -3.3875e+002  3.4401e+001 64133 75545,75401,75058
 4.6000e+000 75499 -7.7606e+001 -3.2361e+002  1.3092e+001 64133 75162,75136,75473
 4.6000e+000 75522 -8.8705e+001 -2.8026e+002  1.1067e+001 64133 75162,75473,75329
 4.6000e+000 75571 -7.0585e+001 -1.9318e+002  8.4620e+000 64133 75032,75401,75545
 4.6000e+000 75851 -1.1822e+002 -2.7552e+002  5.7712e+000 63843 75874,75753,75727
 4.6000e+000 75828 -1.0353e+002 -2.7238e+002 -1.3879e+001 63843 75946,75874,75727
 4.6000e+000 75805 -1.1549e+002 -2.8792e+002 -6.9415e+000 63843 76018,75946,75727
 4.6000e+000 75900 -9.2880e+001 -2.6480e+002 -7.8435e+000 63843 75779,75753,75874
 4.6000e+000 75923 -9.7788e+001 -2.2878e+002 -3.0148e+001 63843 75779,75874,75675
 4.6000e+000 75972 -1.1578e+002 -2.5884e+002 -1.1266e+001 63843 75675,75874,75946
 4.6000e+000 75995 -1.0672e+002 -2.6943e+002 -1.8790e+001 63843 75675,75946,75701
 4.6000e+000 76044 -1.1704e+002 -2.7949e+002 -2.3981e+001 63843 75701,75946,76018
 4.6000e+000 76454  1.7657e+001 -5.6410e+001 -3.1040e+001 63439 76477,76255,76229
 4.6000e+000 76431 -2.6531e+001 -1.3177e+002 -2.3352e+000 63439 76477,76229,76359
 4.6000e+000 76408 -3.8356e+001 -1.0034e+002  5.6567e+001 63439 76307,76359,76333
 4.6000e+000 76385 -2.4040e+001 -1.3409e+002  8.7800e+000 63439 76255,76307,76281
 4.6000e+000 76503 -2.7481e+001 -1.1568e+002  1.4010e+001 63439 76307,76255,76477
 4.6000e+000 76526 -2.6007e+001 -1.4533e+002  3.4711e+001 63439 76307,76477,76359
 4.6000e+000 76926 -6.1935e+001 -1.9340e+002 -2.8428e+000 63049 76704,76782,76756
 4.6000e+000 76903 -9.0180e+001 -2.0129e+002 -1.8646e+001 63049 76704,76808,76782
 4.6000e+000 76880 -6.3671e+001 -2.2046e+002  2.9872e+000 63049 76704,76756,76730
 4.6000e+000 76857 -5.3643e+001 -1.3127e+002  8.8573e+000 63049 76678,76808,76704
 4.6000e+000 76834 -2.4424e+001 -3.1157e+001 -2.9346e+001 63049 76652,76808,76678
 4.6000e+000 77076 -2.8410e+001 -3.2326e+002 -1.8236e+000 62737 76975,77027,77001
 4.6000e+000 77053 -2.6679e+001 -3.6255e+002 -2.2697e+001 62737 76949,77027,76975
 4.6000e+000 77324 -1.3633e+002 -3.1594e+002 -4.6904e+000 62277 77347,77177,77125
 4.6000e+000 77301 -1.3507e+002 -3.0661e+002 -1.8653e+001 62277 77347,77125,77229
 4.6000e+000 77278 -1.3008e+002 -3.1866e+002 -2.6403e+001 62277 77099,77229,77125
 4.6000e+000 77255 -1.4396e+002 -3.7843e+002  2.6421e+000 62277 77125,77177,77151
 4.6000e+000 77373 -1.4394e+002 -3.4309e+002  5.5656e+000 62277 77203,77177,77347
 4.6000e+000 77396 -1.2697e+002 -3.1906e+002 -1.1016e+001 62277 77203,77347,77229
 4.6000e+000 77857 -7.2031e+001 -4.0174e+002  4.3473e+000 61758 77635,77739,77661
 4.6000e+000 77834 -1.0645e+002 -3.8730e+002 -1.4509e+001 61758 77583,77739,77635
 4.6000e+000 77811 -1.2332e+002 -4.8937e+002 -4.7855e+001 61758 77583,77635,77609
 4.6000e+000 77788 -9.9745e+001 -3.8034e+002  3.0154e+001 61758 77661,77713,77687
 4.6000e+000 77765 -1.0479e+002 -4.3910e+002  2.9456e+001 61758 77661,77739,77713
 4.6000e+000 78491 -1.1122e+002 -2.1790e+002  1.2618e+001 61418 78171,78301,78249
 4.6000e+000 78468 -9.0582e+001 -1.8267e+002  2.6594e+001 61418 78145,78301,78171
 4.6000e+000 78445 -8.3972e+001 -1.9347e+002 -9.3615e+000 61418 78171,78249,78223
 4.6000e+000 78422 -8.8132e+001 -1.8112e+002  9.9495e+000 61418 78145,78327,78301
 4.6000e+000 78399 -1.1588e+002 -2.4365e+002  2.4492e-001 61418 78249,78301,78275
 4.6000e+000 78376 -5.0762e+001 -2.0896e+002 -1.4838e+001 61418 78171,78223,78197
 4.6000e+000 78353 -1.0413e+002 -2.4136e+002 -5.9711e+000 61418 78119,78327,78145
 4.6000e+000 78690 -1.0944e+002 -2.5540e+002 -1.5694e+000 61014 78713,78566,78540
 4.6000e+000 78667 -7.6931e+001 -2.6097e+002  1.4326e+000 61014 78713,78540,78618
 4.6000e+000 78644 -1.2500e+002 -2.9518e+002 -2.8354e+001 61014 78514,78618,78540
 4.6000e+000 78739 -6.0072e+001 -2.5244e+002  2.5807e+001 61014 78592,78566,78713
 4.6000e+000 78762 -7.5187e+001 -2.7531e+002  1.9516e+000 61014 78785,78713,78618
 4.6000e+000 78811 -2.3293e+001 -2.5532e+002 -4.5223e+000 61014 78592,78713,78785
 4.6000e+000 79398 -5.1321e+001 -2.2764e+002 -2.2029e+001 60624 79101,79179,79153
 4.6000e+000 79375 -6.7935e+001 -2.5450e+002 -1.0620e+001 60624 79101,79231,79179
 4.6000e+000 79352 -5.2736e+001 -2.5305e+002 -1.7041e+001 60624 79075,79231,79101
 4.6000e+000 79329 -1.6357e+001 -3.0211e+002  3.3503e+001 60624 79075,79257,79231
 4.6000e+000 79306 -4.8369e+001 -1.8724e+002 -3.7297e+001 60624 79179,79231,79205
 4.6000e+000 79283 -4.1051e+001 -2.0486e+002 -1.4182e+001 60624 79101,79153,79127
 4.6000e+000 79776 -1.3335e+002 -3.4346e+002  3.0071e+001 60070 79528,79658,79606
 4.6000e+000 79753 -1.1901e+002 -2.6993e+002  2.6033e-001 60070 79502,79658,79528
 4.6000e+000 79730 -1.6172e+002 -3.2984e+002  4.5192e+001 60070 79528,79606,79580
 4.6000e+000 79707 -4.9582e+001 -2.9135e+002  4.8872e+000 60070 79606,79658,79632
 4.6000e+000 79684 -1.4256e+001 -2.0187e+002 -5.2495e+001 60070 79528,79580,79554
 4.6000e+000 80105 -9.1763e+001 -2.6166e+002  3.3620e+001 59758 80128,79958,79906
 4.6000e+000 80082 -9.7805e+001 -2.4980e+002  2.7257e+001 59758 80128,79906,80010
 4.6000e+000 80059 -1.3075e+002 -2.7755e+002  9.0766e+001 59758 79906,79958,79932
 4.6000e+000 80036 -1.4474e+002 -2.8906e+002  1.0044e+001 59758 79880,80010,79906
 4.6000e+000 80154 -9.5218e+001 -2.6925e+002  3.2560e+001 59758 79984,79958,80128
 4.6000e+000 80177 -1.0260e+002 -2.6019e+002  2.6043e+001 59758 79984,80128,80010
 4.6000e+000 80376 -7.1416e+001 -2.4431e+002  5.2406e+000 59312 80226,80304,80252
 4.6000e+000 80353 -7.2252e+001 -2.5345e+002  4.2953e+000 59312 80200,80304,80226
 4.6000e+000 80330 -1.0907e+002 -2.2165e+002  6.5661e+001 59312 80252,80304,80278
 4.6000e+000 80805 -9.5306e+001 -2.1917e+002 -3.3752e+001 58908 80900,80828,80638
 4.6000e+000 80782 -8.0967e+001 -2.5810e+002 -5.0934e+001 58908 80828,80560,80508
 4.6000e+000 80759 -9.9764e+001 -2.0652e+002 -1.2753e+001 58908 80900,80638,80612
 4.6000e+000 80736 -4.4163e+001 -2.2162e+002  8.9895e+001 58908 80482,80664,80508
 4.6000e+000 80713 -6.6237e+001 -1.9167e+002 -7.3579e+000 58908 80560,80612,80586
 4.6000e+000 80690 -9.2284e+001 -6.3415e+002 -1.2080e+002 58908 80508,80560,80534
 4.6000e+000 80854 -4.5513e+001 -2.3674e+002  3.0554e-001 58908 80664,80638,80828
 4.6000e+000 80877 -7.6635e+001 -3.3908e+002  5.1741e+000 58908 80664,80828,80508
 4.6000e+000 80926 -8.1428e+001 -1.8125e+002 -3.6490e+001 58908 80560,80828,80900
 4.6000e+000 80949 -9.1299e+001 -1.8141e+002 -1.2567e+001 58908 80560,80900,80612
 4.6000e+000 81246 -4.2410e+001 -2.0914e+002 -6.0851e+000 58482 81076,81128,81102
 4.6000e+000 81223 -9.8987e+001 -3.5843e+002 -3.5762e+001 58482 80972,81128,81076
 4.6000e+000 81200 -6.3832e+001 -2.4462e+002 -3.8675e+001 58482 80972,81076,81050
 4.6000e+000 81177 -1.3726e+002 -3.6936e+002 -1.0585e+001 58482 80998,81050,81024
 4.6000e+000 81154 -7.6699e+001 -3.0522e+002 -3.6021e+001 58482 80972,81050,80998
 4.6000e+000 81754 -1.0692e+002 -2.1935e+002  1.7271e+001 57828 81457,81613,81483
 4.6000e+000 81731 -1.2031e+002 -2.4359e+002  8.0861e+000 57828 81431,81613,81457
 4.6000e+000 81708 -1.1605e+002 -2.4067e+002  1.8258e+001 57828 81483,81613,81509
 4.6000e+000 81685 -1.3675e+002 -2.7153e+002  2.7396e+001 57828 81509,81613,81587
 4.6000e+000 81662 -1.4391e+002 -4.0115e+002  5.6069e+001 57828 81509,81587,81535
 4.6000e+000 81639 -8.3276e+001 -3.7904e+002  3.5265e+001 57828 81535,81587,81561
 4.6000e+000 82002 -1.6277e+002 -3.9095e+002 -1.1424e+000 57374 82025,81855,81829
 4.6000e+000 81979 -1.7334e+002 -3.6916e+002  1.6952e+001 57374 82025,81829,81907
 4.6000e+000 81956 -1.7869e+002 -3.4633e+002  1.0618e+001 57374 81803,81907,81829
 4.6000e+000 81933 -1.0298e+002 -3.1603e+002  1.6468e+001 57374 81777,81907,81803
 4.6000e+000 82051 -1.5833e+002 -3.6491e+002 -3.9599e+000 57374 81881,81855,82025
 4.6000e+000 82074 -1.6695e+002 -3.4703e+002  1.9954e+001 57374 81881,82025,81907
 4.6000e+000 82356 -9.3095e+001 -2.2082e+002 -1.4778e+001 56913 82180,82232,82206
 4.6000e+000 82333 -8.1360e+001 -2.1154e+002  1.9793e+001 56913 82180,82284,82232
 4.6000e+000 82310 -2.7663e+001 -1.7065e+002  4.0150e+001 56913 82379,82232,82284
 4.6000e+000 82405  2.6610e+001 -1.6447e+002  6.4218e+000 56913 82258,82232,82379
 4.6000e+000 82764 -9.2561e+001 -1.4777e+002 -1.4804e+001 56523 82614,82666,82640
 4.6000e+000 82741 -7.8520e+001 -1.4782e+002 -2.2186e+001 56523 82614,82692,82666
 4.6000e+000 82718 -6.6714e+001 -1.5853e+002 -4.5857e+001 56523 82588,82692,82614
 4.6000e+000 83368 -2.0564e+001 -2.5655e+002 -1.2128e+001 55969 82973,83155,83129
 4.6000e+000 83345  3.7970e+000 -2.4707e+002 -1.8205e+001 55969 82973,83181,83155
 4.6000e+000 83322 -6.8172e+001 -2.2631e+002 -1.0031e+001 55969 82973,83129,82999
 4.6000e+000 83299 -1.0909e+002 -2.3283e+002  4.8095e+000 55969 83391,83025,82999
 4.6000e+000 83276 -9.4290e+001 -2.4057e+002 -3.5844e-001 55969 83391,82999,83129
 4.6000e+000 83253 -1.9105e+001 -2.0304e+002  4.3681e+001 55969 83077,83129,83103
 4.6000e+000 83230 -1.1755e+002 -1.9083e+002 -9.2562e+000 55969 83025,83077,83051
 4.6000e+000 83207 -2.0983e+000 -2.3823e+002  2.2244e+001 55969 82947,83181,82973
 4.6000e+000 83417 -9.5001e+001 -2.2413e+002  9.6006e+000 55969 83077,83025,83391
 4.6000e+000 83440 -8.9996e+001 -2.3579e+002  2.2061e+000 55969 83077,83391,83129
 4.6000e+000 83946 -1.7501e+002 -3.9213e+002  6.0563e+001 55771 83969,83779,83727
 4.6000e+000 83923 -1.3779e+002 -3.1602e+002  3.9298e+001 55771 83969,83727,83623
 4.6000e+000 83900 -1.7029e+002 -1.6777e+002  2.3656e+001 55771 83623,83727,83649
 4.6000e+000 83877 -1.3915e+002 -6.8308e+002  2.5686e+001 55771 83727,83779,83753
 4.6000e+000 83854 -2.7212e+002 -2.7568e+002  1.0018e+002 55771 83675,83727,83701
 4.6000e+000 83831 -2.6397e+002 -2.6464e+002  1.0530e+002 55771 83649,83727,83675
 4.6000e+000 83995 -1.6623e+002 -4.0924e+002 -3.6001e+001 55771 83805,83779,83969
 4.6000e+000 84018 -8.9002e+001 -2.5704e+002 -6.5150e+001 55771 83805,83969,83623
 4.6000e+000 84168 -7.9554e+001 -1.9573e+002 -6.2764e+000 55367 84191,84067,84041
 4.6000e+000 84145 -7.8162e+001 -2.2174e+002 -4.1278e+000 55367 84191,84041,84119
 4.6000e+000 84217 -8.4888e+001 -1.8050e+002 -5.7914e+000 55367 84093,84067,84191
 4.6000e+000 84240 -7.5226e+001 -1.9561e+002  3.6970e+000 55367 84093,84191,84119
 4.6000e+000 84571 -4.2816e+001 -3.0399e+002 -3.0731e+001 54913 84398,84450,84424
 4.6000e+000 84548 -3.5473e+001 -2.7875e+002 -1.5713e+001 54913 84372,84450,84398
 4.6000e+000 84525 -7.4115e+001 -3.1268e+002  1.0875e+001 54913 84346,84450,84372
 4.6000e+000 84502 -2.6014e+001 -2.0244e+002 -2.6388e+001 54913 84346,84476,84450
 4.6000e+000 85126 -1.5533e+002 -3.3713e+002 -1.2696e+001 54402 84858,84936,84910
 4.6000e+000 85103 -1.2189e+002 -2.6800e+002 -3.1165e+001 54402 84806,84936,84858
 4.6000e+000 85080 -1.4471e+002 -2.4380e+002 -2.3750e+001 54402 84780,84936,84806
 4.6000e+000 85057 -1.2065e+002 -2.9825e+002 -1.2524e+001 54402 84806,84858,84832
 4.6000e+000 85034 -1.2958e+002 -2.2964e+002  1.1325e+001 54402 84780,84962,84936
 4.6000e+000 85011 -1.8130e+002 -2.0223e+002 -4.8504e+000 54402 84858,84910,84884
 4.6000e+000 84988 -1.2602e+002 -2.2636e+002  1.3816e+001 54402 84754,84962,84780
 4.6000e+000 85396 -1.2211e+002 -1.4848e+002 -9.7066e+000 53998 85197,85249,85223
 4.6000e+000 85373 -9.5321e+001 -1.8805e+002 -1.7251e+000 53998 85197,85275,85249
 4.6000e+000 85350 -1.2116e+002 -2.2145e+002 -1.3333e+001 53998 85171,85275,85197
 4.6000e+000 85327 -5.8633e+001 -2.0604e+002 -1.6661e+001 53998 85171,85301,85275
 4.6000e+000 85749 -7.2293e+001 -2.4136e+002 -5.7253e+000 53636 85524,85628,85550
 4.6000e+000 85726 -1.0967e+002 -2.6793e+002  7.4446e+000 53636 85524,85654,85628
 4.6000e+000 85703 -4.0657e+001 -2.5540e+002 -2.5254e+001 53636 85550,85602,85576
 4.6000e+000 85680 -6.8384e+001 -2.3806e+002 -1.2214e+001 53636 85550,85628,85602
 4.6000e+000 86127 -2.9429e+001 -2.4457e+002  3.7614e+001 52982 86150,85957,85879
 4.6000e+000 86104 -8.6165e+001 -2.8311e+002  2.0842e+001 52982 86150,85879,85853
 4.6000e+000 86081 -2.4221e+001 -3.5015e+002  6.9597e+001 52982 85957,86009,85983
 4.6000e+000 86058 -1.0377e+002 -2.6246e+002  3.1171e+001 52982 85879,85957,85931
 4.6000e+000 86035 -6.6210e+001 -2.4781e+002 -9.8011e+000 52982 85879,85931,85905
 4.6000e+000 86176  6.4119e+000 -2.8787e+002  3.0272e+001 52982 86009,85957,86150
 4.6000e+000 86199 -2.7175e+001 -3.1265e+002  1.8548e+001 52982 86009,86150,85853
 4.6000e+000 86398 -6.1222e+001 -2.0121e+002  1.9044e+001 52542 86421,86248,86222
 4.6000e+000 86375 -1.0475e+002 -2.0480e+002 -1.3162e+000 52542 86421,86222,86300
 4.6000e+000 86352 -1.0388e+002 -2.2054e+002 -9.6181e+000 52542 86222,86326,86300
 4.6000e+000 86447 -1.7279e+001 -2.0174e+002  3.6066e+001 52542 86274,86248,86421
 4.6000e+000 86470 -5.8319e+001 -2.1164e+002  1.0410e+001 52542 86274,86421,86300
 4.6000e+000 86669 -9.6806e+001 -2.0938e+002 -3.3891e+001 52230 86692,86571,86545
 4.6000e+000 86646 -9.3145e+001 -1.9704e+002 -1.8979e+001 52230 86692,86545,86519
 4.6000e+000 86623 -1.2917e+002 -2.0517e+002 -3.0994e+001 52230 86493,86597,86519
 4.6000e+000 86718 -1.0403e+002 -2.1366e+002 -3.9869e+001 52230 86597,86571,86692
 4.6000e+000 86741 -1.1054e+002 -2.0565e+002 -2.5849e+001 52230 86597,86692,86519
 4.6000e+000 87153 -1.2939e+002 -2.0483e+002  7.4011e+000 51640 86980,87058,87032
 4.6000e+000 87130 -1.2942e+002 -2.1098e+002  4.9078e+000 51640 86928,87058,86980
 4.6000e+000 87107 -1.3709e+002 -2.8429e+002 -1.4627e+001 51640 86928,86980,86954
 4.6000e+000 87084 -6.9226e+001 -1.7928e+002 -3.5892e+000 51640 86980,87032,87006
 4.6000e+000 87659 -6.1226e+001 -1.8387e+002  4.6286e+000 51029 87682,87440,87362
 4.6000e+000 87636 -5.2963e+001 -1.9396e+002 -1.8896e+001 51029 87682,87362,87336
 4.6000e+000 87613 -8.7366e+001 -2.7038e+002 -5.6194e+000 51029 87440,87518,87466
 4.6000e+000 87590 -9.6484e+001 -1.8416e+002  7.0165e+000 51029 87362,87440,87414
 4.6000e+000 87567 -7.9478e+001 -1.3951e+002  3.1775e+001 51029 87362,87414,87388
 4.6000e+000 87544 -1.2116e+002 -2.3732e+002  9.1805e+000 51029 87466,87518,87492
 4.6000e+000 87708 -6.0139e+001 -2.0434e+002 -1.5846e+000 51029 87518,87440,87682
 4.6000e+000 87731 -5.7908e+001 -2.3502e+002 -1.6381e+001 51029 87518,87682,87336
 4.6000e+000 87881 -1.2359e+002 -2.6523e+002  6.3787e+000 50739 87780,87832,87806
 4.6000e+000 87858 -1.4022e+002 -2.6659e+002 -1.1890e+001 50739 87754,87832,87780
 4.6000e+000 88468 -7.1551e+001 -1.7304e+002  5.7217e+000 50235 88171,88327,88197
 4.6000e+000 88445 -1.5783e+002 -1.7186e+002 -2.7356e+001 50235 88145,88327,88171
 4.6000e+000 88422  1.9995e-001 -9.1902e+001 -1.7198e-001 50235 88275,88327,88301
 4.6000e+000 88399 -5.0872e+001 -1.1378e+002 -7.0948e-001 50235 88197,88327,88275
 4.6000e+000 88376 -2.9590e+001 -1.6022e+002 -2.6237e+000 50235 88197,88275,88223
 4.6000e+000 88353 -3.1499e+001 -2.1019e+002 -2.0939e+001 50235 88223,88275,88249
 4.6000e+000 88895 -1.1704e+002 -2.7854e+002  6.1901e+000 49873 88918,88728,88676
 4.6000e+000 88872 -1.0031e+002 -2.5912e+002 -4.5222e+000 49873 88918,88676,88624
 4.6000e+000 88849 -7.9638e+001 -2.3510e+002 -1.0693e+001 49873 88598,88754,88624
 4.6000e+000 88826 -6.2320e+001 -2.4377e+002 -6.1609e+000 49873 88624,88676,88650
 4.6000e+000 88803 -1.0080e+002 -3.3793e+002  8.3170e+000 49873 88676,88728,88702
 4.6000e+000 88780 -9.8100e+001 -2.4141e+002 -1.2625e+001 49873 88572,88754,88598
 4.6000e+000 88944 -9.6965e+001 -2.7684e+002 -6.1025e+000 49873 88754,88728,88918
 4.6000e+000 88967 -9.0468e+001 -2.6965e+002 -1.4788e+001 49873 88754,88918,88624
 4.6000e+000 89473 -1.6474e+002 -2.6019e+002 -2.9932e+001 49583 89176,89306,89202
 4.6000e+000 89450 -1.6562e+002 -2.5466e+002 -4.3984e+001 49583 89176,89332,89306
 4.6000e+000 89427 -9.7320e+001 -2.8549e+002  1.3789e+001 49583 89496,89228,89202
 4.6000e+000 89404 -9.8326e+001 -2.9161e+002  1.6245e+001 49583 89496,89202,89280
 4.6000e+000 89381 -2.0358e+002 -3.6373e+002 -6.1789e+001 49583 89202,89306,89280
 4.6000e+000 89358 -1.3007e+002 -2.5790e+002 -5.1133e+001 49583 89150,89332,89176
 4.6000e+000 89522 -9.2747e+001 -2.4438e+002  7.9583e+000 49583 89254,89228,89496
 4.6000e+000 89545 -1.1253e+002 -2.7942e+002  1.5847e+001 49583 89254,89496,89280
 4.6000e+000 89825  1.7542e+001 -2.5959e+002  1.3146e+001 49179 89701,89753,89727
 4.6000e+000 89802 -4.1168e+001 -2.3478e+002  1.7910e+001 49179 89675,89753,89701
 4.6000e+000 89779 -3.0059e+001 -2.0580e+002  1.4143e+001 49179 89848,89753,89675
 4.6000e+000 89874 -1.4008e+002 -2.4100e+002 -1.5754e+001 49179 89649,89753,89848
 4.6000e+000 90223 -8.6573e+001 -2.5686e+002 -2.9987e+001 48739 90024,90102,90076
 4.6000e+000 90200 -8.4494e+001 -2.4195e+002 -1.1126e+001 48739 90024,90128,90102
 4.6000e+000 90177 -3.0451e+000 -2.5172e+002 -3.0704e+001 48739 90024,90076,90050
 4.6000e+000 90154 -3.1680e+001 -2.3107e+002  1.7008e+001 48739 89998,90128,90024
 4.6000e+000 90603 -7.9115e+001 -2.0219e+002  4.3780e+001 48335 90381,90485,90459
 4.6000e+000 90580 -1.0424e+002 -2.4015e+002  3.2379e+001 48335 90355,90485,90381
 4.6000e+000 90557 -4.1747e+001 -8.3370e+001  2.1684e+001 48335 90381,90433,90407
 4.6000e+000 90534 -7.7357e+001 -2.1146e+002  3.1968e+001 48335 90381,90459,90433
 4.6000e+000 90511  2.6769e+001 -1.6706e+002  6.3673e+001 48335 90329,90485,90355
 4.6000e+000 90753 -3.3830e+000 -1.3262e+002  7.9366e+001 47824 90776,90652,90704
 4.6000e+000 90730 -6.9170e+001 -2.3099e+002  3.7850e+001 47824 90626,90704,90652
 4.6000e+000 90802 -3.2198e+001 -1.7320e+002  6.3443e+001 47824 90678,90652,90776
 4.6000e+000 91131 -8.2977e+001 -2.8259e+002  1.2770e+001 47427 91154,90958,90906
 4.6000e+000 91108 -1.4547e+002 -3.0808e+002 -1.0169e-001 47427 91154,90906,91036
 4.6000e+000 91085 -1.4341e+002 -2.4740e+002 -2.2055e+001 47427 90958,91010,90984
 4.6000e+000 91062 -8.2206e+001 -2.5828e+002  1.5131e+001 47427 90906,90958,90932
 4.6000e+000 91180 -1.1971e+002 -2.8139e+002 -2.8198e+001 47427 91010,90958,91154
 4.6000e+000 91203 -1.8014e+002 -3.0761e+002 -4.2171e+001 47427 91010,91154,91036
 4.6000e+000 91583 -1.4499e+002 -2.7070e+002 -1.5872e+001 46873 91309,91439,91335
 4.6000e+000 91560 -1.5278e+002 -2.7504e+002 -1.2966e+001 46873 91309,91465,91439
 4.6000e+000 91537 -2.1610e+002 -3.1508e+002 -7.7612e+001 46873 91361,91439,91413
 4.6000e+000 91514 -1.6293e+002 -2.8235e+002 -4.1366e+001 46873 91335,91439,91361
 4.6000e+000 91491 -7.4446e+001 -2.6906e+002 -7.1478e+001 46873 91361,91413,91387
 4.6000e+000 91880 -9.0238e+001 -2.8283e+002 -6.1272e+000 46526 91606,91710,91658
 4.6000e+000 91857 -9.4373e+001 -2.9632e+002  2.5894e+000 46526 91606,91762,91710
 4.6000e+000 91834 -5.5181e+001 -2.7278e+002 -3.2087e+001 46526 91606,91658,91632
 4.6000e+000 91811 -1.0625e+002 -2.6323e+002  5.5383e+000 46526 91658,91710,91684
 4.6000e+000 91788 -6.2125e+001 -2.0214e+002  8.7561e+000 46526 91710,91762,91736
 4.6000e+000 92211 -4.8829e+001 -1.1338e+002 -8.7608e+000 45700 91986,92064,92038
 4.6000e+000 92188 -6.4984e+001 -1.7194e+002  1.5532e+000 45700 91986,92116,92064
 4.6000e+000 92165 -3.7846e+001 -9.7181e+001 -2.1960e+001 45700 91986,92038,92012
 4.6000e+000 92142 -4.3619e+001 -1.8728e+002  2.2966e+001 45700 92064,92116,92090
 4.6000e+000 92766 -1.2866e+002 -2.4527e+002  1.5022e+001 45452 92446,92602,92576
 4.6000e+000 92743 -1.8674e+002 -2.3637e+002 -2.0533e+001 45452 92420,92602,92446
 4.6000e+000 92720 -1.4605e+002 -2.5410e+002  3.9916e+001 45452 92789,92524,92498
 4.6000e+000 92697 -1.6751e+002 -2.4937e+002  3.3200e+001 45452 92789,92498,92446
 4.6000e+000 92674 -1.4356e+002 -2.7014e+002 -2.3754e+000 45452 92524,92576,92550
 4.6000e+000 92651 -2.2002e+002 -2.5606e+002  1.3640e+002 45452 92446,92498,92472
 4.6000e+000 92628 -1.3793e+002 -3.2601e+002 -8.3542e+001 45452 92394,92602,92420
 4.6000e+000 92815 -1.3098e+002 -2.5690e+002  3.4141e+001 45452 92576,92524,92789
 4.6000e+000 92838 -1.4779e+002 -2.4864e+002  3.0266e+001 45452 92576,92789,92446
 4.6000e+000 92939 -1.0526e+002 -3.3284e+002 -6.8617e+001 44998 92861,92913,92887
 4.6000e+000 93319 -2.0591e+001 -3.3870e+002  6.4551e+001 44601 93123,93201,93149
 4.6000e+000 93296 -9.2992e+001 -3.4415e+002 -3.4196e+001 44601 93045,93201,93123
 4.6000e+000 93273 -7.4543e+001 -1.9685e+002 -4.8309e+001 44601 93045,93123,93071
 4.6000e+000 93250 -7.0514e+001 -1.8242e+002 -3.0667e+001 44601 93071,93123,93097
 4.6000e+000 93227 -5.6607e+000 -1.8944e+002  6.9596e+001 44601 93149,93201,93175
 4.6000e+000 93697 -7.2096e+001 -3.7061e+002  1.9660e+001 44026 93720,93553,93527
 4.6000e+000 93674 -1.2845e+002 -3.1457e+002  2.7170e+001 44026 93720,93527,93449
 4.6000e+000 93651 -1.4140e+002 -3.2524e+002 -4.4500e+000 44026 93449,93527,93501
 4.6000e+000 93628 -1.0364e+002 -2.5260e+002 -5.5612e+001 44026 93423,93579,93449
 4.6000e+000 93605 -3.1909e+001 -2.5853e+002  2.3898e+001 44026 93449,93501,93475
 4.6000e+000 93746 -3.1903e+001 -3.2952e+002  3.3803e+000 44026 93579,93553,93720
 4.6000e+000 93769 -9.1386e+001 -2.7465e+002  1.1674e+001 44026 93579,93720,93449
 4.6000e+000 94066 -7.1646e+001 -2.9116e+002 -3.9148e+001 43579 94089,93818,93792
 4.6000e+000 94043 -1.1866e+002 -3.2125e+002 -2.5593e+001 43579 94161,94089,93792
 4.6000e+000 94020 -1.1645e+002 -3.2259e+002 -1.3368e+001 43579 94161,93792,93948
 4.6000e+000 93997 -1.2618e+002 -2.5918e+002 -1.3402e+001 43579 94233,93870,93818
 4.6000e+000 93974 -7.2332e+001 -2.6852e+002  8.5296e+000 43579 93818,93870,93844
 4.6000e+000 94115 -1.2262e+002 -2.6119e+002 -2.9398e+001 43579 94233,93818,94089
 4.6000e+000 94138 -1.6071e+002 -2.9065e+002 -1.8259e+001 43579 93896,94089,93922
 4.6000e+000 94187 -1.1068e+002 -3.0317e+002 -2.4225e+001 43579 93922,94089,94161
 4.6000e+000 94210 -1.0710e+002 -3.0251e+002 -1.0890e+001 43579 93922,94161,93948
 4.6000e+000 94259 -1.4607e+002 -2.8965e+002 -3.5544e+000 43579 93896,93870,94233
 4.6000e+000 94282 -1.3315e+002 -2.8350e+002 -2.1928e+001 43579 93896,94233,94089
 4.6000e+000 94481 -9.7461e+001 -2.9904e+002 -1.6196e+000 43239 94305,94383,94357
 4.6000e+000 94458 -8.3742e+001 -2.7337e+002  3.4276e+001 43239 94305,94409,94383
 4.6000e+000 94435 -7.4458e+001 -3.1925e+002 -7.4897e+000 43239 94305,94357,94331
 4.6000e+000 94633 -3.6169e+001 -1.9004e+002  4.4139e+001 42827 94656,94532,94506
 4.6000e+000 94610 -8.0257e+001 -2.1025e+002  4.8968e+001 42827 94728,94656,94506
 4.6000e+000 94682 -4.4769e+001 -2.1812e+002  3.7688e+001 42827 94558,94532,94656
 4.6000e+000 94705 -1.8191e+001 -2.1461e+002  2.3293e+001 42827 94988,94860,94656
 4.6000e+000 94754 -4.7315e+001 -1.9424e+002  1.5637e+001 42827 94988,94656,94728
 4.6000e+000 94886  7.6122e+000 -2.0264e+002  2.6342e+001 42827 94558,94656,94860
 4.6000e+000 95014  6.1622e+000 -1.9709e+002  1.5643e+001 42827 94584,94860,94988
 4.6000e+000 95037 -1.8674e+001 -1.7776e+002  8.4530e+000 42827 94584,94988,94728
 4.6000e+000 95236 -4.2179e+001 -2.3842e+002  3.1745e+001 42537 95259,95112,95060
 4.6000e+000 95213 -5.2529e+001 -2.3209e+002  2.9174e+001 42537 95259,95060,95164
 4.6000e+000 95190 -2.1428e+001 -2.4329e+002 -4.3560e+000 42537 95060,95112,95086
 4.6000e+000 95285 -4.9142e+001 -2.4062e+002  2.7319e+001 42537 95138,95112,95259
 4.6000e+000 95308 -5.9820e+001 -2.3737e+002  2.3263e+001 42537 95138,95259,95164
 4.6000e+000 95816 -1.0569e+002 -2.9136e+002 -2.0512e+001 41969 95493,95597,95519
 4.6000e+000 95793 -1.5549e+002 -2.7738e+002  2.3924e+001 41969 95493,95649,95597
 4.6000e+000 95770 -1.1809e+002 -2.6228e+002  2.1691e+001 41969 95493,95675,95649
 4.6000e+000 95747 -1.2622e+002 -3.5428e+002  2.0384e+001 41969 95597,95649,95623
 4.6000e+000 95724 -1.6562e+002 -2.6937e+002 -3.3052e+001 41969 95519,95597,95571
 4.6000e+000 95701 -1.4581e+002 -2.3451e+002 -6.7036e+001 41969 95519,95571,95545
 4.6000e+000 96371 -1.3070e+002 -3.0867e+002  3.7614e+001 41579 96025,96207,96181
 4.6000e+000 96348  3.6473e+001 -2.3287e+002 -9.7998e+000 41579 95999,96207,96025
 4.6000e+000 96325 -1.4756e+002 -2.3987e+002 -2.6065e+001 41579 96129,96181,96155
 4.6000e+000 96302 -5.6305e+001 -2.1745e+002  1.8071e+000 41579 96025,96181,96129
 4.6000e+000 96279 -1.1931e+002 -3.1755e+002  4.2412e+001 41579 96025,96129,96051
 4.6000e+000 96256 -1.4431e+002 -3.1228e+002  4.9309e+001 41579 96051,96103,96077
 4.6000e+000 96233 -5.4931e+001 -2.3443e+002  6.5747e+000 41579 96051,96129,96103
 4.6000e+000 96877 -3.3442e+001 -1.9785e+002 -2.2185e+001 41182 96972,96900,96632
 4.6000e+000 96854 -4.2531e+001 -1.4961e+002 -2.3835e+001 41182 96900,96554,96736
 4.6000e+000 96831 -3.2081e+001 -1.9713e+002 -1.9547e+001 41182 96972,96632,96580
 4.6000e+000 96808 -4.3346e+001 -1.8649e+002  1.8821e+001 41182 96632,96684,96658
 4.6000e+000 96785 -7.6188e+001 -2.0105e+002  2.4269e+001 41182 96684,96736,96710
 4.6000e+000 96762 -1.1342e+002 -2.5039e+002  4.0560e+001 41182 96580,96632,96606
 4.6000e+000 96926 -3.1328e+001 -2.1954e+002 -2.2100e+001 41182 96684,96632,96900
 4.6000e+000 96949 -6.2716e+001 -1.9550e+002 -3.8809e+001 41182 96684,96900,96736
 4.6000e+000 96998 -3.8598e+001 -2.0082e+002 -2.5323e+001 41182 96554,96900,96972
 4.6000e+000 97021 -3.7028e+001 -1.9828e+002 -2.2357e+001 41182 96554,96972,96580
 4.6000e+000 97576 -1.7843e+002 -4.3999e+002 -6.0906e+001 40678 97230,97412,97282
 4.6000e+000 97553 -1.7641e+001 -3.5992e+002  1.9600e+001 40678 97204,97412,97230
 4.6000e+000 97530 -5.2504e+001 -3.3683e+002 -5.3694e+001 40678 97282,97360,97308
 4.6000e+000 97507 -8.0556e+001 -3.4334e+002 -2.1734e+001 40678 97282,97412,97360
 4.6000e+000 97484 -2.4864e+001 -2.0511e+002 -4.6900e+001 40678 97308,97360,97334
 4.6000e+000 97461 -1.0369e+002 -4.1052e+002 -1.1900e+001 40678 97360,97412,97386
 4.6000e+000 97438 -9.9987e+001 -2.7468e+002 -3.7789e+001 40678 97230,97282,97256
 4.6000e+000 97976 -1.3833e+002 -2.3174e+002 -5.9065e+000 40244 97702,97832,97754
 4.6000e+000 97953 -1.1708e+002 -2.2236e+002 -1.1984e+001 40244 97702,97858,97832
 4.6000e+000 97930 -1.4840e+002 -2.7255e+002 -5.8238e+001 40244 97702,97754,97728
 4.6000e+000 97907 -1.1697e+002 -2.5736e+002  2.8238e+001 40244 97780,97832,97806
 4.6000e+000 97884 -1.2670e+002 -2.2468e+002 -2.1306e+000 40244 97754,97832,97780
 4.6000e+000 98482 -7.7669e+001 -2.1992e+002  3.5102e+001 39690 98505,98185,98159
 4.6000e+000 98459 -7.9574e+001 -2.1376e+002  3.3986e+001 39690 98505,98159,98289
 4.6000e+000 98436 -1.4818e+002 -3.1666e+002  8.5566e+001 39690 98159,98315,98289
 4.6000e+000 98413 -6.1884e+001 -1.9921e+002  3.1464e+001 39690 98211,98289,98263
 4.6000e+000 98390 -3.6077e+001 -1.2965e+002  1.8923e+001 39690 98211,98263,98237
 4.6000e+000 98367 -4.0348e+001 -2.0235e+002  3.3293e+001 39690 98159,98341,98315
 4.6000e+000 98531 -7.8920e+001 -2.1640e+002  3.1094e+001 39690 98211,98185,98505
 4.6000e+000 98554 -7.9148e+001 -2.0662e+002  3.1168e+001 39690 98211,98505,98289
 4.6000e+000 99109 -7.4804e+001 -1.9540e+002 -1.1844e+001 39072 99132,98867,98789
 4.6000e+000 99086 -7.1826e+001 -2.0276e+002 -1.8064e+001 39072 99132,98789,98763
 4.6000e+000 99063 -1.1169e+002 -3.2356e+002  3.5711e+001 39072 98867,98945,98919
 4.6000e+000 99040 -6.4046e+001 -2.0693e+002 -2.3449e+000 39072 98789,98867,98841
 4.6000e+000 99017 -1.4826e+002 -2.3166e+002  1.0197e+001 39072 98867,98919,98893
 4.6000e+000 98994 -1.0436e+002 -1.9261e+002  4.0986e+001 39072 98789,98841,98815
 4.6000e+000 98971 -1.0634e+002 -2.3200e+002 -1.5268e+001 39072 98737,98945,98763
 4.6000e+000 99158 -7.2629e+001 -2.0481e+002 -1.3237e+001 39072 98945,98867,99132
 4.6000e+000 99181 -7.2082e+001 -2.1772e+002 -1.5792e+001 39072 98945,99132,98763
 4.6000e+000 99510 -6.2825e+001 -1.8222e+002  1.2268e+001 38668 99311,99389,99363
 4.6000e+000 99487 -5.3484e+001 -1.9048e+002 -5.6593e+000 38668 99285,99389,99311
 4.6000e+000 99464 -1.2101e+002 -2.6381e+002  2.3238e+001 38668 99285,99415,99389
 4.6000e+000 99441 -5.7038e+001 -1.9659e+002  2.0045e+001 38668 99311,99363,99337
 4.6000e+000 99758 -7.2808e+001 -2.9308e+002  4.6483e+001 38164 99781,99611,99585
 4.6000e+000 99735 -3.0773e+001 -3.0121e+002  5.1162e+001 38164 99781,99585,99533
 4.6000e+000 99712 -1.0917e+002 -2.7752e+002  3.3380e+001 38164 99611,99663,99637
 4.6000e+000 99689  1.4006e+001 -2.8530e+002 -1.8910e+001 38164 99533,99585,99559
 4.6000e+000 99807 -9.6899e+001 -2.9225e+002  5.8270e+001 38164 99663,99611,99781
 4.6000e+000 99830 -6.4734e+001 -3.0501e+002  5.6419e+001 38164 99663,99781,99533
 4.6000e+000 100232 -8.6423e+001 -2.2235e+002  3.2457e+000 37702 99984,100114,100088
 4.6000e+000 100209 -6.9681e+001 -2.4048e+002  2.4425e+001 37702 99958,100114,99984
 4.6000e+000 100186 -1.2574e+002 -2.7532e+002 -1.7200e+001 37702 100010,100088,100036
 4.6000e+000 100163 -8.6162e+001 -2.2267e+002  1.5230e-001 37702 99984,100088,100010
 4.6000e+000 100140 -7.4731e+001 -2.0324e+002 -5.8679e+001 37702 100036,100088,100062
 4.6000e+000 100640 -1.8119e+002 -2.5845e+002  3.2839e+001 37262 100493,100545,100519
 4.6000e+000 100617 -1.6261e+002 -2.9269e+002  1.6176e+001 37262 100441,100545,100493
 4.6000e+000 100594 -6.7345e+001 -2.1972e+002 -3.9176e+001 37262 100415,100545,100441
 4.6000e+000 100571 -1.8121e+002 -3.0978e+002 -1.2991e+001 37262 100441,100493,100467
 4.6000e+000 101146 -1.2739e+002 -2.1574e+002 -1.3745e+000 36872 100823,100979,100849
 4.6000e+000 101123 -1.2360e+002 -1.9977e+002 -1.9991e+001 36872 100823,101005,100979
 4.6000e+000 101100 -1.3242e+002 -3.1126e+002  4.2467e+001 36872 101169,100901,100849
 4.6000e+000 101077 -1.0191e+002 -2.4733e+002  2.2625e+001 36872 101169,100849,100979
 4.6000e+000 101054 -7.1626e+001 -2.5822e+002 -1.6421e+001 36872 100927,100979,100953
 4.6000e+000 101031 -7.2130e+001 -3.5245e+002  5.9378e+001 36872 100849,100901,100875
 4.6000e+000 101195 -9.1053e+001 -3.2998e+002  2.4394e+000 36872 100927,100901,101169
 4.6000e+000 101218 -7.2529e+001 -2.9623e+002 -1.3518e+001 36872 100927,101169,100979
 4.6000e+000 101773 -1.4821e+002 -2.3247e+002  4.2704e+001 36418 101479,101609,101583
 4.6000e+000 101750 -1.5227e+002 -2.4939e+002  4.4218e+001 36418 101453,101609,101479
 4.6000e+000 101727 -1.0167e+002 -2.4637e+002 -1.6175e+000 36418 101796,101531,101479
 4.6000e+000 101704 -1.4150e+002 -2.7381e+002  1.8136e+001 36418 101796,101479,101583
 4.6000e+000 101681 -8.7231e+001 -2.1372e+002 -7.1093e+000 36418 101479,101531,101505
 4.6000e+000 101658 -3.9651e+000 -2.2408e+002  2.2007e+000 36418 101401,101609,101453
 4.6000e+000 101635 -4.2989e+001 -2.2758e+002 -1.6407e+000 36418 101401,101453,101427
 4.6000e+000 101822 -1.1107e+002 -2.2612e+002 -3.9370e+001 36418 101557,101531,101796
 4.6000e+000 101845 -1.5702e+002 -2.3613e+002 -2.1597e+001 36418 101557,101796,101583
 4.6000e+000 102174 -1.5150e+001 -1.1225e+002 -2.9052e+001 35914 101949,102053,101975
 4.6000e+000 102151 -5.5802e+001 -1.1111e+002 -2.3166e+001 35914 101949,102079,102053
 4.6000e+000 102128 -5.7269e+001 -1.3217e+002 -1.4559e+001 35914 101975,102053,102027
 4.6000e+000 102105 -3.6992e+001 -1.0127e+002 -2.3367e+001 35914 101975,102027,102001
 4.6000e+000 102631 -4.8912e+001 -2.5348e+002  9.4040e+000 35574 102383,102513,102487
 4.6000e+000 102608 -3.6350e+001 -2.6530e+002  7.5699e+000 35574 102357,102513,102383
 4.6000e+000 102585 -8.4296e+001 -2.6178e+002  1.0236e+001 35574 102409,102487,102435
 4.6000e+000 102562 -8.8620e+001 -2.6838e+002  7.0383e+000 35574 102383,102487,102409
 4.6000e+000 102539 -8.3776e+001 -2.6341e+002  1.1715e+001 35574 102435,102487,102461
 4.6000e+000 103009 -1.3498e+002 -2.4876e+002 -1.7399e+001 35170 102761,102865,102787
 4.6000e+000 102986 -8.1402e+001 -2.1883e+002  2.3466e+001 35170 102761,102891,102865
 4.6000e+000 102963 -1.1940e+002 -2.4047e+002 -6.4750e+000 35170 102787,102865,102813
 4.6000e+000 102940 -6.7059e+001 -2.0930e+002  2.7863e+001 35170 102735,102891,102761
 4.6000e+000 102917 -1.2072e+002 -2.4687e+002 -1.6006e+001 35170 102813,102865,102839
 4.6000e+000 103257 -2.4249e+001 -1.9045e+002 -3.3916e+001 34659 103280,103058,103032
 4.6000e+000 103234 -3.8049e+001 -2.0102e+002 -1.9706e+001 34659 103280,103032,103162
 4.6000e+000 103211 -6.8232e+001 -2.0328e+002 -1.8339e+001 34659 103084,103162,103110
 4.6000e+000 103188 -8.9345e+001 -2.4858e+002 -1.2827e+001 34659 103110,103162,103136
 4.6000e+000 103306 -4.8619e+001 -1.7747e+002 -2.9540e+001 34659 103084,103058,103280
 4.6000e+000 103329 -5.7383e+001 -1.8854e+002 -1.3538e+001 34659 103084,103280,103162
 4.6000e+000 103837 -2.5016e+001 -2.7822e+002  9.1758e+000 34247 103860,103566,103540
 4.6000e+000 103814 -3.7664e+001 -2.7924e+002  8.5734e-001 34247 103932,103860,103540
 4.6000e+000 103791 -2.7635e+001 -3.0963e+002 -3.0177e+001 34247 103932,103540,103670
 4.6000e+000 103768 -3.0774e+001 -2.6134e+002  5.6062e+000 34247 103566,103618,103592
 4.6000e+000 103745 -1.1356e+002 -2.6091e+002 -3.9800e+001 34247 103540,103696,103670
 4.6000e+000 103722 -1.4983e+002 -2.8884e+002  4.2296e+001 34247 103514,103696,103540
 4.6000e+000 103886 -5.7355e+001 -2.7705e+002 -2.1440e+000 34247 103618,103566,103860
 4.6000e+000 103909 -6.4139e+001 -2.9602e+002  8.1978e+000 34247 103618,103860,103644
 4.6000e+000 103958 -6.4976e+001 -3.5216e+002 -3.9693e+000 34247 103644,103860,103932
 4.6000e+000 103981 -5.4945e+001 -3.8029e+002 -3.6547e+001 34247 103644,103932,103670
 4.6000e+000 104300 -1.3714e+002 -2.9139e+002 -9.9789e+000 33843 104052,104182,104156
 4.6000e+000 104277 -1.7661e+002 -2.7493e+002 -3.1523e+000 33843 104026,104182,104052
 4.6000e+000 104254 -1.3438e+002 -3.3234e+002  6.1973e+000 33843 104078,104156,104130
 4.6000e+000 104231 -1.5881e+002 -3.1461e+002  5.6584e-001 33843 104052,104156,104078
 4.6000e+000 104208 -2.0588e+002 -3.5241e+002  9.1601e+000 33843 104078,104130,104104
 4.6000e+000 104499 -9.5806e+001 -2.9755e+002 -2.5333e+001 33282 104594,104522,104375
 4.6000e+000 104476 -8.2236e+001 -2.8824e+002  9.3520e+000 33282 104522,104323,104427
 4.6000e+000 104453 -5.8421e+001 -3.1866e+002 -2.2864e+001 33282 104594,104375,104349
 4.6000e+000 104548 -1.0010e+002 -2.5681e+002 -1.2422e+001 33282 104401,104375,104522
 4.6000e+000 104571 -6.9163e+001 -2.5307e+002  1.1989e+001 33282 104401,104522,104427
 4.6000e+000 104620 -5.0690e+001 -2.5810e+002 -8.1499e+000 33282 104323,104522,104594
 4.6000e+000 104643 -2.7274e+001 -2.9323e+002 -1.1240e+001 33282 104323,104594,104349
 4.6000e+000 104942 -1.2949e+002 -3.2810e+002  3.9423e+001 32728 104694,104772,104720
 4.6000e+000 104919 -9.8663e+001 -2.9944e+002  1.4356e+001 32728 104694,104824,104772
 4.6000e+000 104896 -1.6773e+002 -2.9485e+002  4.4257e+001 32728 104720,104772,104746
 4.6000e+000 104873 -7.6167e+001 -3.4021e+002  1.6957e+001 32728 104772,104824,104798
 4.6000e+000 104850 -8.1854e+001 -2.9612e+002  1.4276e+001 32728 104668,104824,104694
 4.6000e+000 105373 -1.0824e+002 -3.1881e+002 -1.4493e+001 32274 105396,105102,105076
 4.6000e+000 105350 -1.1771e+002 -3.4883e+002 -5.3838e+000 32274 105396,105076,105206
 4.6000e+000 105327 -1.4800e+002 -3.5418e+002  1.7629e+001 32274 105154,105206,105180
 4.6000e+000 105304 -6.0484e+001 -3.3546e+002 -2.7847e+001 32274 105076,105232,105206
 4.6000e+000 105281 -1.2763e+002 -2.8823e+002 -5.2986e+001 32274 105102,105154,105128
 4.6000e+000 105258 -1.8604e+002 -2.8568e+002 -5.4884e+001 32274 105050,105232,105076
 4.6000e+000 105422 -1.2546e+002 -2.8625e+002 -1.3197e+001 32274 105154,105102,105396
 4.6000e+000 105445 -1.3399e+002 -3.1675e+002 -6.1861e+000 32274 105154,105396,105206
 4.6000e+000 105644 -1.2628e+002 -3.2386e+002 -5.2397e+000 31620 105468,105546,105520
 4.6000e+000 105621 -1.0280e+002 -3.5182e+002 -1.6864e+001 31620 105468,105572,105546
 4.6000e+000 105598 -1.2552e+002 -3.4979e+002  1.8414e+001 31620 105468,105520,105494
 4.6000e+000 105794 -3.1402e+001 -2.8264e+002 -8.8405e+000 31158 105889,105817,105693
 4.6000e+000 105771 -5.0141e+001 -2.5491e+002 -1.8526e+001 31158 105817,105667,105745
 4.6000e+000 105843 -4.0812e+001 -3.4592e+002 -3.1714e+000 31158 105719,105693,105817
 4.6000e+000 105866 -2.1800e+001 -2.9746e+002 -1.5385e+001 31158 105719,105817,105745
 4.6000e+000 105915 -7.4573e+001 -3.0114e+002 -9.3398e+000 31158 105667,105817,105889
 4.6000e+000 106270 -1.2449e+002 -2.8442e+002 -1.1898e+000 30818 106293,106071,106045
 4.6000e+000 106247 -1.4453e+002 -3.2956e+002 -1.7367e+001 30818 106293,106045,106175
 4.6000e+000 106224 -1.0065e+002 -2.6251e+002  1.6725e+001 30818 106123,106175,106149
 4.6000e+000 106201 -1.2861e+002 -2.8796e+002  2.8816e+001 30818 106071,106123,106097
 4.6000e+000 106319 -1.2645e+002 -2.6672e+002  1.5387e+001 30818 106123,106071,106293
 4.6000e+000 106342 -1.2901e+002 -2.9033e+002  1.7471e+000 30818 106123,106293,106175
 4.6000e+000 106492 -1.1712e+002 -2.6376e+002  5.0376e+001 30414 106645,106391,106365
 4.6000e+000 106469 -4.0541e+001 -2.6108e+002  7.6554e+001 30414 106515,106365,106443
 4.6000e+000 106541 -7.3479e+001 -2.7441e+002  5.7189e+001 30414 106645,106365,106515
 4.6000e+000 106671 -5.5541e+001 -3.1195e+002  9.7844e+001 30414 106417,106391,106645
 4.6000e+000 106694  4.3049e+001 -2.8858e+002  8.4254e+001 30414 106417,106645,106515
 4.6000e+000 106942 -6.0692e+001 -3.9923e+002 -8.5797e-001 29910 106965,106795,106769
 4.6000e+000 106919 -5.2896e+001 -3.5872e+002  1.0898e+001 29910 106965,106769,106717
 4.6000e+000 106896 -5.4517e+001 -3.0000e+002 -3.9193e+001 29910 106795,106847,106821
 4.6000e+000 106873 -2.7648e+001 -3.0564e+002  1.9983e+001 29910 106717,106769,106743
 4.6000e+000 106991 -8.3156e+001 -3.5575e+002  4.7949e+000 29910 106847,106795,106965
 4.6000e+000 107014 -6.6324e+001 -3.0191e+002  1.6023e+001 29910 106847,106965,106717
 4.6000e+000 107213 -8.5338e+001 -2.9887e+002  1.8529e+001 29413 107236,107063,107037
 4.6000e+000 107190 -7.8096e+001 -3.5206e+002  3.8187e+001 29413 107236,107037,107141
 4.6000e+000 107167 -1.0471e+002 -2.1706e+002  4.6850e+001 29413 107063,107115,107089
 4.6000e+000 107262 -8.0533e+001 -2.6447e+002  1.3084e+001 29413 107115,107063,107236
 4.6000e+000 107285 -6.5374e+001 -3.0395e+002  3.4641e+001 29413 107115,107236,107141
 4.6000e+000 107486 -3.7095e+001 -2.8661e+002  3.7911e+001 29009 107336,107388,107362
 4.6000e+000 107463 -1.9030e+001 -2.7672e+002  1.1062e+001 29009 107310,107388,107336
 4.6000e+000 107440 -2.3154e+001 -2.6048e+002  1.0738e+001 29009 107310,107414,107388
 4.6000e+000 107736 -1.2410e+002 -3.2951e+002 -1.2410e+001 28491 107537,107615,107563
 4.6000e+000 107713 -1.0734e+002 -3.2153e+002 -8.4666e+000 28491 107537,107641,107615
 4.6000e+000 107690 -6.9622e+001 -3.1042e+002  6.0861e+000 28491 107563,107615,107589
 4.6000e+000 107667 -1.1253e+002 -3.1831e+002 -9.2316e+000 28491 107511,107641,107537
 4.6000e+000 108118 -6.9554e+001 -3.1288e+002  1.2452e+001 27980 108141,107922,107844
 4.6000e+000 108095 -5.5610e+001 -3.3604e+002  1.1614e+001 27980 108141,107844,108000
 4.6000e+000 108072 -7.3255e+001 -3.2709e+002 -1.7195e+001 27980 107844,107922,107870
 4.6000e+000 108049 -7.9198e+001 -2.8167e+002 -8.6753e+000 27980 107870,107922,107896
 4.6000e+000 108026 -1.1068e+002 -2.9346e+002  3.6958e+001 27980 107922,107974,107948
 4.6000e+000 108167 -5.9865e+001 -3.1272e+002  1.7011e+001 27980 107974,107922,108141
 4.6000e+000 108190 -2.1957e+001 -3.1333e+002  2.3137e+001 27980 107974,108141,108000
 4.6000e+000 108745 -3.6138e+001 -2.0594e+002 -4.9847e+000 27376 108840,108768,108477
 4.6000e+000 108722 -6.3159e+001 -2.5360e+002 -4.9959e+001 27376 108768,108373,108581
 4.6000e+000 108699 -5.9250e+001 -1.7909e+002  3.7264e+001 27376 108840,108477,108451
 4.6000e+000 108676 -1.4711e+002 -2.1702e+002 -9.0760e+000 27376 108373,108451,108399
 4.6000e+000 108653 -5.9740e+001 -2.5631e+002  3.5546e+001 27376 108503,108581,108529
 4.6000e+000 108630 -6.7545e+001 -2.5172e+002  3.7195e+001 27376 108529,108581,108555
 4.6000e+000 108607 -1.6638e+002 -2.3204e+002  1.8563e+001 27376 108399,108451,108425
 4.6000e+000 108794 -5.9021e+001 -2.7717e+002  1.0145e+000 27376 108503,108477,108768
 4.6000e+000 108817 -1.1538e+001 -2.5284e+002 -9.1813e+000 27376 108503,108768,108581
 4.6000e+000 108866 -1.2224e+002 -2.5490e+002 -2.4599e+001 27376 108373,108768,108840
 4.6000e+000 108889 -1.1809e+002 -2.1917e+002  1.9571e+001 27376 108373,108840,108451
 4.6000e+000 109186 -1.2173e+002 -3.2313e+002  3.3591e+001 26722 109209,108938,108912
 4.6000e+000 109163 -1.1342e+002 -3.0298e+002  3.1258e+001 26722 109281,109209,108912
 4.6000e+000 109140 -1.0916e+002 -2.9498e+002  2.9486e+001 26722 109281,108912,109042
 4.6000e+000 109117 -1.0110e+002 -3.4605e+002  1.5298e+001 26722 108938,108990,108964
 4.6000e+000 109094 -1.5463e+002 -2.6813e+002  1.9318e+001 26722 108912,109068,109042
 4.6000e+000 109235 -1.0282e+002 -3.1220e+002  2.8843e+001 26722 108990,108938,109209
 4.6000e+000 109258 -1.0979e+002 -3.3482e+002  2.6001e+001 26722 108990,109209,109016
 4.6000e+000 109307 -1.0041e+002 -3.1552e+002  1.6107e+001 26722 109016,109209,109281
 4.6000e+000 109330 -9.2515e+001 -3.0168e+002  1.2652e+001 26722 109016,109281,109042
 4.6000e+000 109732 -1.2895e+002 -2.6695e+002 -5.5341e+000 26310 109458,109588,109484
 4.6000e+000 109709 -1.2322e+002 -3.1044e+002 -3.2615e+001 26310 109458,109614,109588
 4.6000e+000 109686 -1.8384e+002 -3.1238e+002  4.5965e+001 26310 109510,109562,109536
 4.6000e+000 109663 -1.8215e+002 -2.9415e+002  1.8049e+001 26310 109484,109562,109510
 4.6000e+000 109640 -1.3332e+002 -2.7121e+002 -1.0505e+000 26310 109484,109588,109562
 4.6000e+000 110159 -7.8404e+001 -2.7000e+002 -8.8036e+000 25642 110182,109940,109914
 4.6000e+000 110136 -7.1517e+001 -3.1349e+002  3.7743e+001 25642 110182,109914,109888
 4.6000e+000 110113 -9.7559e+001 -3.3534e+002 -4.3785e+001 25642 109966,110018,109992
 4.6000e+000 110090 -1.0801e+002 -3.2370e+002  2.4927e+001 25642 110254,109966,109940
 4.6000e+000 110067 -1.4527e+002 -3.0700e+002  1.7821e+001 25642 109862,110018,109888
 4.6000e+000 110044 -1.3667e+002 -2.5529e+002  4.3430e+001 25642 109836,110018,109862
 4.6000e+000 110208 -1.0676e+002 -2.9579e+002  1.8535e+001 25642 110254,109940,110182
 4.6000e+000 110231 -1.1731e+002 -3.1637e+002  4.1857e+001 25642 110018,110182,109888
 4.6000e+000 110280 -9.4562e+001 -3.5860e+002  1.9745e+001 25642 110018,109966,110254
 4.6000e+000 110303 -9.9202e+001 -3.3779e+002  1.4315e+001 25642 110018,110254,110182
 4.6000e+000 110632 -1.4019e+002 -2.8126e+002 -1.6517e+001 25188 110407,110485,110433
 4.6000e+000 110609 -1.6424e+002 -2.7894e+002 -1.0568e+001 25188 110407,110537,110485
 4.6000e+000 110586 -1.5968e+002 -2.9255e+002 -5.4560e+001 25188 110433,110485,110459
 4.6000e+000 110563 -1.5420e+002 -2.9861e+002  2.9994e+001 25188 110485,110537,110511
 4.6000e+000 110831 -2.6018e+001 -2.6661e+002  7.4832e+000 24726 110854,110707,110655
 4.6000e+000 110808 -1.1198e+001 -2.8814e+002  2.9467e+001 24726 110854,110655,110759
 4.6000e+000 110785 -3.8108e+001 -2.7798e+002  1.4484e+001 24726 110655,110707,110681
 4.6000e+000 110880 -1.4693e+001 -2.4610e+002  1.1957e+001 24726 110733,110707,110854
 4.6000e+000 110903  5.1593e+000 -2.5704e+002  3.5544e+001 24726 110733,110854,110759
 4.6000e+000 111234 -7.6160e+000 -1.9589e+002 -5.5162e+000 24222 111257,111087,111035
 4.6000e+000 111211  2.5179e+001 -1.8104e+002  2.2154e+001 24222 111257,111035,111009
 4.6000e+000 111188 -3.1354e+001 -1.0437e+002 -4.3564e+001 24222 111035,111087,111061
 4.6000e+000 111165 -3.0961e+001 -1.5786e+002  5.3900e+000 24222 111087,111139,111113
 4.6000e+000 111283 -2.8212e+001 -1.6175e+002  9.5975e+000 24222 111139,111087,111257
 4.6000e+000 111306 -1.3965e+001 -1.3752e+002  2.7389e+001 24222 111139,111257,111009
 4.6000e+000 111625 -3.7790e+001 -2.7079e+002 -1.5943e+001 23732 111648,111481,111455
 4.6000e+000 111602 -3.8798e+001 -2.7323e+002 -1.5604e+001 23732 111648,111455,111377
 4.6000e+000 111579  3.8078e+001 -1.3866e+002  2.8955e+001 23732 111377,111429,111403
 4.6000e+000 111556 -1.4955e+001 -2.7532e+002 -7.0621e+000 23732 111377,111455,111429
 4.6000e+000 111533 -2.8614e+001 -2.4550e+002 -5.8406e+000 23732 111351,111507,111377
 4.6000e+000 111674 -3.8712e+001 -2.6666e+002 -1.3059e+001 23732 111507,111481,111648
 4.6000e+000 111697 -4.0884e+001 -2.7168e+002 -1.2821e+001 23732 111507,111648,111377
 4.6000e+000 112156 -7.5165e+001 -3.2010e+002  2.3439e+001 23278 112179,111908,111882
 4.6000e+000 112133 -7.0176e+001 -2.9630e+002  1.2809e+001 23278 112179,111882,112012
 4.6000e+000 112110 -2.3410e+001 -3.4678e+002  1.0467e+000 23278 111908,111960,111934
 4.6000e+000 112087 -2.9615e+001 -2.5982e+002 -3.7080e+000 23278 111882,112038,112012
 4.6000e+000 112064 -6.3349e+001 -2.6728e+002 -4.2700e+000 23278 111960,112012,111986
 4.6000e+000 112205 -7.1658e+001 -3.0875e+002  3.7989e+000 23278 111960,111908,112179
 4.6000e+000 112228 -6.0003e+001 -2.8201e+002 -8.3494e+000 23278 111960,112179,112012
 4.6000e+000 112685 -1.9981e+002 -4.4395e+002 -4.3060e+001 22938 112489,112567,112541
 4.6000e+000 112662 -1.7181e+002 -3.8208e+002 -3.6743e+001 22938 112437,112567,112489
 4.6000e+000 112639 -1.1377e+002 -3.2712e+002 -3.7153e+000 22938 112489,112541,112515
 4.6000e+000 112616 -1.9636e+002 -3.6847e+002 -3.3615e+001 22938 112411,112567,112437
 4.6000e+000 112593 -1.5122e+002 -4.7753e+002 -1.0035e+001 22938 112437,112489,112463
 4.6000e+000 113191 -1.4207e+001 -3.1448e+002 -3.9572e+001 22534 113214,112998,112946
 4.6000e+000 113168 -5.9783e+001 -2.8034e+002 -2.0523e+001 22534 113286,113214,112946
 4.6000e+000 113145 -4.5194e+001 -2.8089e+002 -1.7147e+001 22534 113286,112946,112920
 4.6000e+000 113122 -1.2605e+002 -2.5796e+002 -5.5494e+001 22534 113358,113024,112998
 4.6000e+000 113099 -8.1363e+001 -2.7255e+002 -1.0886e+001 22534 112868,113050,112894
 4.6000e+000 113076 -9.2807e+001 -4.7070e+002 -7.7601e+001 22534 112946,112998,112972
 4.6000e+000 113240 -9.3701e+001 -3.2363e+002 -5.8769e+001 22534 113358,112998,113214
 4.6000e+000 113263 -7.7859e+001 -2.9416e+002 -1.3086e+001 22534 113050,113214,112894
 4.6000e+000 113312 -4.0794e+001 -2.7788e+002 -1.6317e+001 22534 112894,113214,113286
 4.6000e+000 113335 -2.5372e+001 -2.7919e+002 -1.5622e+001 22534 112894,113286,112920
 4.6000e+000 113384 -9.0194e+001 -1.9792e+002 -4.0494e+001 22534 113050,113024,113358
 4.6000e+000 113407 -4.3674e+001 -2.5220e+002 -3.6616e+001 22534 113050,113358,113214
 4.6000e+000 113785 -1.4396e+002 -3.7359e+002  8.3210e+000 21978 113808,113615,113511
 4.6000e+000 113762 -1.1551e+002 -3.7759e+002  2.4915e+001 21978 113808,113511,113667
 4.6000e+000 113739 -8.7700e+001 -3.2166e+002 -1.4467e+001 21978 113511,113615,113537
 4.6000e+000 113716  3.7068e+001 -2.8766e+002 -3.2206e+001 21978 113537,113615,113589
 4.6000e+000 113693 -4.1711e+001 -4.1363e+002  5.1621e+000 21978 113537,113589,113563
 4.6000e+000 113834 -1.4911e+002 -3.7393e+002  4.4192e+001 21978 113641,113615,113808
 4.6000e+000 113857 -7.5175e+001 -3.4530e+002  6.3965e+001 21978 113641,113808,113667
 4.6000e+000 114284 -1.0500e+002 -3.1257e+002  6.8742e+000 21517 114013,114117,114039
 4.6000e+000 114261 -1.1924e+002 -3.1122e+002  2.4789e+001 21517 113961,114117,114013
 4.6000e+000 114238 -1.1598e+002 -3.1579e+002  2.5115e+001 21517 113961,114013,113987
 4.6000e+000 114215 -1.7171e+002 -3.5721e+002 -2.5090e+001 21517 114039,114117,114091
 4.6000e+000 114192 -1.2090e+002 -2.6368e+002  2.9526e+001 21517 113961,114143,114117
 4.6000e+000 114169 -2.5791e+001 -3.0706e+002 -2.8057e+001 21517 114039,114091,114065
 4.6000e+000 114581 -5.7423e+001 -3.6703e+002  5.0201e+000 21027 114359,114463,114437
 4.6000e+000 114558 -2.6498e+001 -3.3152e+002  4.4762e+001 21027 114333,114463,114359
 4.6000e+000 114535 -2.0095e+001 -3.3265e+002 -9.3604e+000 21027 114359,114437,114385
 4.6000e+000 114512 -1.4804e+001 -3.2857e+002  3.8574e+001 21027 114307,114463,114333
 4.6000e+000 114489  5.8109e+001 -3.1031e+002 -1.5392e+001 21027 114385,114437,114411
 4.6000e+000 114912 -1.4242e+002 -3.1993e+002  4.3013e+000 20623 114713,114791,114765
 4.6000e+000 114889 -9.9448e+001 -3.0233e+002 -2.1969e+001 20623 114687,114791,114713
 4.6000e+000 114866 -6.7840e+001 -3.3396e+002 -2.5312e+001 20623 114687,114817,114791
 4.6000e+000 114843 -2.1098e+002 -3.9053e+002  3.3505e+001 20623 114713,114765,114739
 4.6000e+000 115290 -3.8402e+001 -2.8694e+002  1.4636e+001 20375 115313,115146,115094
 4.6000e+000 115267 -6.3114e+001 -2.7397e+002  2.8056e+001 20375 115313,115094,115042
 4.6000e+000 115244 -8.2421e+001 -2.6287e+002  8.2065e+000 20375 115385,115016,115172
 4.6000e+000 115221 -2.7391e+001 -2.5733e+002  2.3422e+001 20375 115042,115094,115068
 4.6000e+000 115198 -5.9762e+001 -3.4316e+002  1.8618e+001 20375 115094,115146,115120
 4.6000e+000 115339 -8.9460e+001 -3.3896e+002 -1.1428e+001 20375 115172,115146,115313
 4.6000e+000 115362 -4.9005e+001 -2.7151e+002  9.9467e+000 20375 115385,115172,115313
 4.6000e+000 115411 -1.0104e+002 -2.7267e+002  1.1807e+001 20375 115042,115016,115385
 4.6000e+000 115434 -8.4901e+001 -2.9277e+002  1.8839e+001 20375 115042,115385,115313
 4.6000e+000 115891 -1.5083e+002 -2.9672e+002  3.6531e+001 19971 115617,115747,115643
 4.6000e+000 115868 -1.2939e+002 -2.4435e+002  3.4403e+001 19971 115617,115773,115747
 4.6000e+000 115845 -9.4932e+001 -4.4654e+002  5.5219e+000 19971 115643,115721,115695
 4.6000e+000 115822 -3.9712e+000 -2.2369e+002 -1.6691e+000 19971 115643,115747,115721
 4.6000e+000 115799 -8.0012e+001 -5.4975e+002 -4.4684e+001 19971 115643,115695,115669
 4.6000e+000 115992 -2.1770e+002 -5.5959e+002 -9.5029e+001 19659 115914,115966,115940
 4.6000e+000 116142 -3.4078e+001 -1.2725e+002  3.3873e+000 18997 116041,116093,116067
 4.6000e+000 116119 -6.8264e+001 -2.1522e+002  1.2868e+001 18997 116015,116093,116041
 4.6000e+000 116343 -5.7882e+001 -3.3453e+002 -9.7690e+000 18707 116193,116245,116219
 4.6000e+000 116320 -1.2928e+002 -3.6506e+002 -1.4976e+001 18707 116193,116271,116245
 4.6000e+000 116297 -1.1722e+002 -3.2577e+002 -2.4506e+001 18707 116167,116271,116193
 4.6000e+000 116747 -5.3989e+001 -3.0276e+002 -5.6847e+000 18301 116525,116629,116551
 4.6000e+000 116724 -3.0904e+001 -2.5729e+002  7.1092e+000 18301 116473,116629,116525
 4.6000e+000 116701 -2.0541e+001 -2.5003e+002 -1.3224e+001 18301 116473,116525,116499
 4.6000e+000 116678 -4.6157e+001 -3.1503e+002 -4.1938e+000 18301 116551,116603,116577
 4.6000e+000 116655 -6.3812e+001 -3.2583e+002 -9.1855e+000 18301 116551,116629,116603
 4.6000e+000 117147 -1.5098e+002 -3.4648e+002  3.9467e-001 17747 116899,117029,116925
 4.6000e+000 117124 -7.9281e+001 -2.5209e+002  3.6909e+001 17747 116873,117029,116899
 4.6000e+000 117101 -1.4960e+002 -3.4393e+002  9.5420e-001 17747 116925,117029,116951
 4.6000e+000 117078 -1.2860e+002 -2.9409e+002 -9.6762e-001 17747 116951,117029,117003
 4.6000e+000 117055 -1.7213e+002 -3.9143e+002 -2.5684e+001 17747 116951,117003,116977
 4.6000e+000 117368  2.1228e+001 -3.3389e+002  7.4831e+000 17293 117244,117296,117270
 4.6000e+000 117345 -2.3216e+001 -3.4510e+002 -4.7113e+000 17293 117192,117296,117244
 4.6000e+000 117322 -5.9484e+001 -3.2385e+002 -3.7598e+000 17293 117192,117244,117218
 4.6000e+000 117699 -3.2263e+001 -2.7082e+002 -3.1914e+001 16896 117526,117604,117552
 4.6000e+000 117676 -1.7878e+002 -4.1473e+002  2.6221e+001 16896 117500,117604,117526
 4.6000e+000 117653 -1.8962e+002 -3.2879e+002 -1.6253e+001 16896 117552,117604,117578
 4.6000e+000 117630 -1.6433e+002 -5.3656e+002  4.4769e+001 16896 117474,117604,117500
 4.6000e+000 117849 -3.8128e+002 -7.3293e+002 -2.7940e+001 16534 117722,117774,117748
 4.6000e+000 117826 -3.0094e+002 -8.9172e+002 -1.2039e+002 16534 117722,117800,117774
 4.6000e+000 118070 -1.2534e+000 -3.4378e+002  4.3406e+001 16194 117946,117998,117972
 4.6000e+000 118047 -5.5734e+001 -3.8735e+002  1.7427e+001 16194 117894,117998,117946
 4.6000e+000 118024 -1.9797e+002 -3.9716e+002 -2.6974e-001 16194 117894,117946,117920
 4.6000e+000 118173 -2.5194e+001 -3.2754e+002  0.0000e+000 15968 118095,118147,118121
 4.6000e+000 118276 -9.8723e+001 -3.5864e+002  1.1909e+000 15433 118299,118198,118250
 4.6000e+000 118325 -9.9597e+001 -3.6067e+002  1.2110e+000 15433 118224,118198,118299
 4.6000e+000 118450 -1.7141e+002 -3.8057e+002  3.6028e+001 421 118372,118424,118398
 4.7000e+000 69891 -7.4218e+001 -3.8152e+002  1.3619e+001 68988 69447,69681,69629
 4.7000e+000 69868  1.9958e+001 -3.4176e+002  1.1207e+001 68988 69421,69681,69447
 4.7000e+000 69845 -9.7701e+000 -1.9565e+002  1.1332e+000 68988 69447,69629,69577
 4.7000e+000 69822 -1.1735e+002 -3.9606e+002 -4.2750e+001 68988 69447,69577,69473
 4.7000e+000 69799 -2.2154e+001 -4.5727e+002  7.6374e+001 68988 69629,69681,69655
 4.7000e+000 69776 -1.2687e+002 -2.4658e+002  7.3461e+000 68988 69577,69629,69603
 4.7000e+000 69753 -9.4342e+001 -3.5594e+002 -5.3625e+001 68988 69473,69577,69551
 4.7000e+000 69730 -1.3110e+002 -6.9340e+002 -6.7212e+001 68988 69473,69551,69525
 4.7000e+000 69707 -2.1383e+002 -4.6384e+002  1.0974e+000 68988 69473,69525,69499
 4.7000e+000 69992 -2.3191e+002 -4.2134e+002 -5.8145e+001 68676 69914,69966,69940
 4.7000e+000 70392 -1.6822e+002 -3.4383e+002  2.6149e+001 68478 70118,70248,70144
 4.7000e+000 70369 -3.8102e+000 -3.5124e+002  7.2248e+001 68478 70118,70274,70248
 4.7000e+000 70346 -1.0327e+002 -2.6178e+002 -9.0707e-001 68478 70144,70222,70196
 4.7000e+000 70323 -8.7085e+001 -2.1966e+002 -1.1186e+001 68478 70144,70248,70222
 4.7000e+000 70300 -1.1129e+002 -2.8568e+002 -4.9591e+000 68478 70144,70196,70170
 4.7000e+000 70841  4.1540e+001 -2.4252e+002 -6.1723e+001 68280 70570,70622,70596
 4.7000e+000 70818 -1.2396e+002 -2.7418e+002 -1.5044e+001 68280 70544,70622,70570
 4.7000e+000 70795 -9.3518e+001 -2.0572e+002 -8.9957e+000 68280 70544,70674,70622
 4.7000e+000 70772 -8.0928e+001 -1.8442e+002  3.0172e+000 68280 70622,70674,70648
 4.7000e+000 70749 -1.3130e+002 -3.0628e+002  2.2475e+001 68280 70518,70674,70544
 4.7000e+000 70726  8.9227e+001 -3.2082e+002  8.6695e+001 68280 70518,70700,70674
 4.7000e+000 70991 -1.4505e+001 -1.2446e+003  3.7376e+001 67968 70864,70916,70890
 4.7000e+000 70968 -3.3170e+002 -1.2355e+003  1.4447e+002 67968 70864,70942,70916
 4.7000e+000 71141 -5.7155e+002 -1.0837e+003 -5.3364e+001 67770 71040,71092,71066
 4.7000e+000 71118 -4.9745e+002 -1.3069e+003  5.7292e+001 67770 71014,71092,71040
 4.7000e+000 71651 -8.5905e+001 -2.4669e+002 -3.8231e+001 67366 71746,71674,71458
 4.7000e+000 71628 -5.8350e+001 -2.0158e+002 -4.0962e+001 67366 71674,71354,71510
 4.7000e+000 71605 -7.8082e+001 -2.7270e+002 -3.5404e+001 67366 71746,71458,71432
 4.7000e+000 71582 -1.2051e+002 -2.7980e+002  1.4111e+001 67366 71354,71432,71380
 4.7000e+000 71559 -1.2670e+002 -2.0745e+002 -2.0652e+001 67366 71380,71432,71406
 4.7000e+000 71536 -6.0989e+001 -8.9634e+001 -2.1153e+000 67366 71328,71510,71354
 4.7000e+000 71700 -9.3446e+001 -2.2308e+002 -1.7721e+001 67366 71484,71458,71674
 4.7000e+000 71723 -6.7303e+001 -2.1092e+002 -1.3630e+001 67366 71484,71674,71510
 4.7000e+000 71772 -7.6606e+001 -2.1587e+002 -3.3276e+001 67366 71354,71674,71746
 4.7000e+000 71795 -6.7395e+001 -2.3861e+002 -3.3687e+001 67366 71354,71746,71432
 4.7000e+000 71896 -2.1525e+002 -4.5938e+002  0.0000e+000 67146 71818,71870,71844
 4.7000e+000 71997 -2.7358e+002 -4.1213e+002  8.2364e+001 66948 71919,71971,71945
 4.7000e+000 72149 -2.6692e+001 -2.9142e+002 -3.2437e+001 66700 72172,72074,72048
 4.7000e+000 72126 -1.0922e+002 -3.2620e+002 -1.2560e+001 66700 72172,72048,72022
 4.7000e+000 72198 -1.6611e+002 -3.5719e+002  2.2668e+001 66700 72244,72172,72100
 4.7000e+000 72221 -1.5046e+002 -3.2800e+002 -1.9001e+001 66700 72100,72172,72022
 4.7000e+000 72270 -9.3216e+001 -1.9743e+002 -2.1856e+001 66700 72074,72172,72244
 4.7000e+000 72623 -1.1835e+002 -3.0689e+002  7.6096e+000 66502 72424,72502,72450
 4.7000e+000 72600 -1.0118e+002 -2.6009e+002  5.0488e+000 66502 72398,72502,72424
 4.7000e+000 72577 -8.0255e+001 -2.9283e+002 -4.7699e+000 66502 72398,72528,72502
 4.7000e+000 72554 -1.1897e+002 -2.7556e+002 -1.5545e+000 66502 72450,72502,72476
 4.7000e+000 72920 -1.8322e+002 -3.7376e+002  9.4285e+000 65941 72672,72776,72750
 4.7000e+000 72897 -1.8189e+002 -3.2353e+002  3.4943e+001 65941 72646,72776,72672
 4.7000e+000 72874 -1.6077e+002 -3.6704e+002  1.1783e+001 65941 72672,72750,72724
 4.7000e+000 72851 -1.6251e+002 -2.9364e+002  2.6585e+001 65941 72672,72724,72698
 4.7000e+000 72828 -1.4126e+002 -3.2658e+002  3.3739e+001 65941 72646,72802,72776
 4.7000e+000 73241 -5.5647e+001 -2.6801e+002  1.5083e+001 65743 73264,73071,73045
 4.7000e+000 73218 -1.1764e+002 -2.9904e+002  2.5441e+001 65743 73480,73264,73045
 4.7000e+000 73195 -9.8634e+001 -2.6952e+002 -3.2676e+000 65743 73336,72967,73097
 4.7000e+000 73172 -1.6080e+002 -2.4867e+002 -2.5230e+001 65743 73408,72993,72967
 4.7000e+000 73149 -9.0980e+001 -2.6996e+002 -3.4809e+000 65743 72967,73123,73097
 4.7000e+000 73290 -7.7465e+001 -2.7690e+002  3.5746e+000 65743 73097,73071,73264
 4.7000e+000 73313 -8.7323e+001 -2.5856e+002  9.4782e+000 65743 73336,73097,73264
 4.7000e+000 73362 -1.4030e+002 -2.7695e+002 -1.6784e+001 65743 73408,72967,73336
 4.7000e+000 73385 -7.3456e+001 -2.5461e+002 -8.4068e-001 65743 73019,73336,73264
 4.7000e+000 73434 -1.2664e+002 -1.9829e+002  1.4029e+001 65743 73019,72993,73408
 4.7000e+000 73457 -7.7192e+001 -2.3449e+002  9.6019e+000 65743 73019,73408,73336
 4.7000e+000 73506 -5.5705e+001 -1.9093e+002  4.5689e-001 65743 73019,73264,73480
 4.7000e+000 73989 -1.7099e+001 -2.1807e+002  2.5298e+001 65453 73793,73845,73819
 4.7000e+000 73966 -1.1765e+002 -2.4456e+002  2.9244e+001 65453 73741,73845,73793
 4.7000e+000 73943 -3.3847e+001 -1.9809e+002  1.1075e+001 65453 73715,73845,73741
 4.7000e+000 73920 -9.3851e+001 -2.6094e+002  4.9043e+001 65453 73741,73793,73767
 4.7000e+000 73897  1.7865e-001 -1.2919e+002 -1.7058e-002 65453 73715,73871,73845
 4.7000e+000 74357 -6.7563e+001 -2.6240e+002 -6.9264e+001 65141 74380,74138,74086
 4.7000e+000 74334 -1.1930e+002 -3.4729e+002 -4.6148e+001 65141 74380,74086,74060
 4.7000e+000 74311 -1.3530e+002 -3.3925e+002 -1.2183e+001 65141 74138,74190,74164
 4.7000e+000 74288 -1.0503e+002 -3.7801e+002 -1.5206e+001 65141 74060,74216,74190
 4.7000e+000 74265 -1.1101e+002 -3.9818e+002  6.1768e+000 65141 74034,74216,74060
 4.7000e+000 74242 -8.4225e+001 -2.0205e+002 -4.1726e+001 65141 74086,74138,74112
 4.7000e+000 74406 -1.0022e+002 -3.3807e+002 -2.8226e+001 65141 74190,74138,74380
 4.7000e+000 74429 -1.1604e+002 -3.6721e+002 -1.3017e+001 65141 74190,74380,74060
 4.7000e+000 74937 -1.3846e+002 -2.7544e+002 -6.5134e+001 64737 74614,74666,74640
 4.7000e+000 74914 -1.6915e+002 -3.3242e+002 -4.8229e+001 64737 74614,74796,74666
 4.7000e+000 74891 -1.2406e+002 -2.3410e+002 -8.3360e+000 64737 74960,74718,74666
 4.7000e+000 74868 -1.1154e+002 -2.5632e+002 -2.9227e+001 64737 74960,74666,74770
 4.7000e+000 74845 -1.1471e+002 -2.1136e+002 -3.1182e+001 64737 74666,74796,74770
 4.7000e+000 74822 -1.2145e+002 -2.5298e+002  3.5700e+000 64737 74666,74718,74692
 4.7000e+000 74986 -1.3156e+002 -2.5689e+002 -9.4516e+000 64737 74744,74718,74960
 4.7000e+000 75009 -1.2584e+002 -2.9072e+002 -3.1134e+001 64737 74744,74960,74770
 4.7000e+000 75306 -6.4950e+001 -2.4066e+002  3.5522e+001 64133 75329,75110,75084
 4.7000e+000 75283 -8.4069e+001 -2.8639e+002  9.4741e+000 64133 75401,75329,75084
 4.7000e+000 75260 -8.0862e+001 -2.9439e+002  1.2441e+001 64133 75401,75084,75058
 4.7000e+000 75237 -8.3666e+001 -3.4086e+002  4.2335e+001 64133 75473,75136,75110
 4.7000e+000 75214 -8.4117e+001 -2.6773e+002  2.3036e+000 64133 75032,75188,75162
 4.7000e+000 75355 -9.7117e+001 -3.1653e+002  3.2624e+001 64133 75473,75110,75329
 4.7000e+000 75378 -7.3978e+001 -2.7452e+002  2.3895e+000 64133 75162,75329,75032
 4.7000e+000 75427 -7.0095e+001 -2.6499e+002  1.1442e+000 64133 75032,75329,75401
 4.7000e+000 75450 -1.3158e+002 -3.2612e+002  3.3405e+001 64133 75545,75401,75058
 4.7000e+000 75499 -7.4679e+001 -3.1016e+002  1.2977e+001 64133 75162,75136,75473
 4.7000e+000 75522 -8.5603e+001 -2.6862e+002  1.0915e+001 64133 75162,75473,75329
 4.7000e+000 75571 -6.7405e+001 -1.8599e+002  8.4748e+000 64133 75032,75401,75545
 4.7000e+000 75851 -1.1324e+002 -2.6340e+002  5.6407e+000 63843 75874,75753,75727
 4.7000e+000 75828 -9.9244e+001 -2.6029e+002 -1.3034e+001 63843 75946,75874,75727
 4.7000e+000 75805 -1.1081e+002 -2.7513e+002 -6.4181e+000 63843 76018,75946,75727
 4.7000e+000 75900 -8.9151e+001 -2.5321e+002 -7.3161e+000 63843 75779,75753,75874
 4.7000e+000 75923 -9.3843e+001 -2.1895e+002 -2.8559e+001 63843 75779,75874,75675
 4.7000e+000 75972 -1.1109e+002 -2.4757e+002 -1.0609e+001 63843 75675,75874,75946
 4.7000e+000 75995 -1.0260e+002 -2.5750e+002 -1.7661e+001 63843 75675,75946,75701
 4.7000e+000 76044 -1.1216e+002 -2.6688e+002 -2.2521e+001 63843 75701,75946,76018
 4.7000e+000 76454  1.6945e+001 -5.3888e+001 -2.9721e+001 63439 76477,76255,76229
 4.7000e+000 76431 -2.5665e+001 -1.2660e+002 -2.1036e+000 63439 76477,76229,76359
 4.7000e+000 76408 -3.6490e+001 -9.6807e+001  5.4426e+001 63439 76307,76359,76333
 4.7000e+000 76385 -2.3118e+001 -1.3005e+002  8.4792e+000 63439 76255,76307,76281
 4.7000e+000 76503 -2.6452e+001 -1.1100e+002  1.3736e+001 63439 76307,76255,76477
 4.7000e+000 76526 -2.5087e+001 -1.3962e+002  3.3639e+001 63439 76307,76477,76359
 4.7000e+000 76926 -5.8795e+001 -1.8412e+002 -3.1937e+000 63049 76704,76782,76756
 4.7000e+000 76903 -8.6413e+001 -1.9203e+002 -1.7947e+001 63049 76704,76808,76782
 4.7000e+000 76880 -6.1571e+001 -2.1055e+002  2.7158e+000 63049 76704,76756,76730
 4.7000e+000 76857 -5.0930e+001 -1.2549e+002  8.2231e+000 63049 76678,76808,76704
 4.7000e+000 76834 -2.3680e+001 -2.9753e+001 -2.8288e+001 63049 76652,76808,76678
 4.7000e+000 77076 -2.7543e+001 -3.1006e+002 -1.8912e+000 62737 76975,77027,77001
 4.7000e+000 77053 -2.5835e+001 -3.4751e+002 -2.1786e+001 62737 76949,77027,76975
 4.7000e+000 77324 -1.2962e+002 -3.0310e+002 -4.2631e+000 62277 77347,77177,77125
 4.7000e+000 77301 -1.2929e+002 -2.9421e+002 -1.8097e+001 62277 77347,77125,77229
 4.7000e+000 77278 -1.2429e+002 -3.0499e+002 -2.5093e+001 62277 77099,77229,77125
 4.7000e+000 77255 -1.3641e+002 -3.6313e+002  2.5913e+000 62277 77125,77177,77151
 4.7000e+000 77373 -1.3722e+002 -3.2930e+002  4.9389e+000 62277 77203,77177,77347
 4.7000e+000 77396 -1.2228e+002 -3.0632e+002 -1.1273e+001 62277 77203,77347,77229
 4.7000e+000 77857 -6.9808e+001 -3.8552e+002  4.1919e+000 61758 77635,77739,77661
 4.7000e+000 77834 -1.0254e+002 -3.7132e+002 -1.3791e+001 61758 77583,77739,77635
 4.7000e+000 77811 -1.1899e+002 -4.6965e+002 -4.5557e+001 61758 77583,77635,77609
 4.7000e+000 77788 -9.5948e+001 -3.6573e+002  2.8953e+001 61758 77661,77713,77687
 4.7000e+000 77765 -1.0088e+002 -4.2050e+002  2.8210e+001 61758 77661,77739,77713
 4.7000e+000 78491 -1.0668e+002 -2.0868e+002  1.2209e+001 61418 78171,78301,78249
 4.7000e+000 78468 -8.6686e+001 -1.7493e+002  2.5613e+001 61418 78145,78301,78171
 4.7000e+000 78445 -8.0836e+001 -1.8540e+002 -8.7872e+000 61418 78171,78249,78223
 4.7000e+000 78422 -8.5029e+001 -1.7374e+002  9.7152e+000 61418 78145,78327,78301
 4.7000e+000 78399 -1.1107e+002 -2.3331e+002  2.1683e-001 61418 78249,78301,78275
 4.7000e+000 78376 -4.9149e+001 -2.0053e+002 -1.3966e+001 61418 78171,78223,78197
 4.7000e+000 78353 -9.9076e+001 -2.3228e+002 -5.4903e+000 61418 78119,78327,78145
 4.7000e+000 78690 -1.0458e+002 -2.4465e+002 -1.2860e+000 61014 78713,78566,78540
 4.7000e+000 78667 -7.3313e+001 -2.5036e+002  1.7653e+000 61014 78713,78540,78618
 4.7000e+000 78644 -1.1938e+002 -2.8332e+002 -2.7127e+001 61014 78514,78618,78540
 4.7000e+000 78739 -5.6987e+001 -2.3934e+002  2.4911e+001 61014 78592,78566,78713
 4.7000e+000 78762 -7.2204e+001 -2.6358e+002  2.0363e+000 61014 78785,78713,78618
 4.7000e+000 78811 -2.2733e+001 -2.4445e+002 -3.8765e+000 61014 78592,78713,78785
 4.7000e+000 79398 -4.8524e+001 -2.1875e+002 -2.0974e+001 60624 79101,79179,79153
 4.7000e+000 79375 -6.4983e+001 -2.4398e+002 -1.0245e+001 60624 79101,79231,79179
 4.7000e+000 79352 -4.9649e+001 -2.4219e+002 -1.6227e+001 60624 79075,79231,79101
 4.7000e+000 79329 -1.6006e+001 -2.8910e+002  3.1780e+001 60624 79075,79257,79231
 4.7000e+000 79306 -4.7032e+001 -1.8130e+002 -3.5957e+001 60624 79179,79231,79205
 4.7000e+000 79283 -3.8332e+001 -1.9613e+002 -1.3289e+001 60624 79101,79153,79127
 4.7000e+000 79776 -1.2744e+002 -3.2895e+002  2.8612e+001 60070 79528,79658,79606
 4.7000e+000 79753 -1.1368e+002 -2.5888e+002  4.4269e-001 60070 79502,79658,79528
 4.7000e+000 79730 -1.5369e+002 -3.1542e+002  4.3294e+001 60070 79528,79606,79580
 4.7000e+000 79707 -4.8262e+001 -2.7991e+002  4.8621e+000 60070 79606,79658,79632
 4.7000e+000 79684 -1.4732e+001 -1.9415e+002 -4.9680e+001 60070 79528,79580,79554
 4.7000e+000 80105 -8.8635e+001 -2.5096e+002  3.1799e+001 59758 80128,79958,79906
 4.7000e+000 80082 -9.4050e+001 -2.3923e+002  2.5543e+001 59758 80128,79906,80010
 4.7000e+000 80059 -1.2574e+002 -2.6577e+002  8.6459e+001 59758 79906,79958,79932
 4.7000e+000 80036 -1.3867e+002 -2.7621e+002  9.3385e+000 59758 79880,80010,79906
 4.7000e+000 80154 -9.1706e+001 -2.5834e+002  3.0991e+001 59758 79984,79958,80128
 4.7000e+000 80177 -9.8539e+001 -2.4939e+002  2.4618e+001 59758 79984,80128,80010
 4.7000e+000 80376 -6.7379e+001 -2.3310e+002  4.9421e+000 59312 80226,80304,80252
 4.7000e+000 80353 -6.8343e+001 -2.4151e+002  4.0066e+000 59312 80200,80304,80226
 4.7000e+000 80330 -1.0409e+002 -2.1235e+002  6.3163e+001 59312 80252,80304,80278
 4.7000e+000 80805 -9.1617e+001 -2.1003e+002 -3.2232e+001 58908 80900,80828,80638
 4.7000e+000 80782 -7.7683e+001 -2.4748e+002 -4.8635e+001 58908 80828,80560,80508
 4.7000e+000 80759 -9.5928e+001 -1.9794e+002 -1.2180e+001 58908 80900,80638,80612
 4.7000e+000 80736 -4.2020e+001 -2.1233e+002  8.6387e+001 58908 80482,80664,80508
 4.7000e+000 80713 -6.3218e+001 -1.8360e+002 -7.1216e+000 58908 80560,80612,80586
 4.7000e+000 80690 -8.8411e+001 -6.0980e+002 -1.1597e+002 58908 80508,80560,80534
 4.7000e+000 80854 -4.3939e+001 -2.2688e+002  4.4454e-001 58908 80664,80638,80828
 4.7000e+000 80877 -7.3769e+001 -3.2510e+002  5.1802e+000 58908 80664,80828,80508
 4.7000e+000 80926 -7.8342e+001 -1.7384e+002 -3.4877e+001 58908 80560,80828,80900
 4.7000e+000 80949 -8.7835e+001 -1.7400e+002 -1.2027e+001 58908 80560,80900,80612
 4.7000e+000 81246 -4.0233e+001 -2.0095e+002 -5.8003e+000 58482 81076,81128,81102
 4.7000e+000 81223 -9.4848e+001 -3.4379e+002 -3.4360e+001 58482 80972,81128,81076
 4.7000e+000 81200 -6.1247e+001 -2.3482e+002 -3.7120e+001 58482 80972,81076,81050
 4.7000e+000 81177 -1.3203e+002 -3.5386e+002 -1.0724e+001 58482 80998,81050,81024
 4.7000e+000 81154 -7.4128e+001 -2.9267e+002 -3.5027e+001 58482 80972,81050,80998
 4.7000e+000 81754 -1.0276e+002 -2.1032e+002  1.6099e+001 57828 81457,81613,81483
 4.7000e+000 81731 -1.1548e+002 -2.3336e+002  7.3316e+000 57828 81431,81613,81457
 4.7000e+000 81708 -1.1137e+002 -2.3044e+002  1.7374e+001 57828 81483,81613,81509
 4.7000e+000 81685 -1.3146e+002 -2.6000e+002  2.6226e+001 57828 81509,81613,81587
 4.7000e+000 81662 -1.3829e+002 -3.8378e+002  5.3694e+001 57828 81509,81587,81535
 4.7000e+000 81639 -8.0709e+001 -3.6159e+002  3.3834e+001 57828 81535,81587,81561
 4.7000e+000 82002 -1.5603e+002 -3.7499e+002 -9.9575e-001 57374 82025,81855,81829
 4.7000e+000 81979 -1.6607e+002 -3.5383e+002  1.6532e+001 57374 82025,81829,81907
 4.7000e+000 81956 -1.7227e+002 -3.3171e+002  9.7569e+000 57374 81803,81907,81829
 4.7000e+000 81933 -9.8643e+001 -3.0182e+002  1.5847e+001 57374 81777,81907,81803
 4.7000e+000 82051 -1.5198e+002 -3.4970e+002 -3.6333e+000 57374 81881,81855,82025
 4.7000e+000 82074 -1.5989e+002 -3.3219e+002  1.9570e+001 57374 81881,82025,81907
 4.7000e+000 82356 -8.8256e+001 -2.1095e+002 -1.4285e+001 56913 82180,82232,82206
 4.7000e+000 82333 -7.7509e+001 -2.0329e+002  1.8872e+001 56913 82180,82284,82232
 4.7000e+000 82310 -2.6119e+001 -1.6248e+002  3.8544e+001 56913 82379,82232,82284
 4.7000e+000 82405  2.5132e+001 -1.5698e+002  6.0037e+000 56913 82258,82232,82379
 4.7000e+000 82764 -8.9004e+001 -1.4242e+002 -1.4384e+001 56523 82614,82666,82640
 4.7000e+000 82741 -7.5510e+001 -1.4203e+002 -2.1448e+001 56523 82614,82692,82666
 4.7000e+000 82718 -6.4210e+001 -1.5221e+002 -4.3965e+001 56523 82588,82692,82614
 4.7000e+000 83368 -1.9215e+001 -2.4743e+002 -1.1549e+001 55969 82973,83155,83129
 4.7000e+000 83345  3.4484e+000 -2.3863e+002 -1.7024e+001 55969 82973,83181,83155
 4.7000e+000 83322 -6.4888e+001 -2.1648e+002 -9.9523e+000 55969 82973,83129,82999
 4.7000e+000 83299 -1.0360e+002 -2.2213e+002  4.2878e+000 55969 83391,83025,82999
 4.7000e+000 83276 -8.9873e+001 -2.3020e+002 -4.6527e-001 55969 83391,82999,83129
 4.7000e+000 83253 -1.8717e+001 -1.9316e+002  4.1450e+001 55969 83077,83129,83103
 4.7000e+000 83230 -1.1137e+002 -1.8127e+002 -9.1018e+000 55969 83025,83077,83051
 4.7000e+000 83207 -1.9274e+000 -2.2992e+002  2.2185e+001 55969 82947,83181,82973
 4.7000e+000 83417 -9.0536e+001 -2.1373e+002  9.2165e+000 55969 83077,83025,83391
 4.7000e+000 83440 -8.5986e+001 -2.2532e+002  2.2355e+000 55969 83077,83391,83129
 4.7000e+000 83946 -1.6829e+002 -3.7564e+002  5.8043e+001 55771 83969,83779,83727
 4.7000e+000 83923 -1.3260e+002 -3.0265e+002  3.7595e+001 55771 83969,83727,83623
 4.7000e+000 83900 -1.6325e+002 -1.5918e+002  2.2291e+001 55771 83623,83727,83649
 4.7000e+000 83877 -1.3452e+002 -6.5345e+002  2.4660e+001 55771 83727,83779,83753
 4.7000e+000 83854 -2.5559e+002 -2.6763e+002  9.3340e+001 55771 83675,83727,83701
 4.7000e+000 83831 -2.5244e+002 -2.5211e+002  1.0091e+002 55771 83649,83727,83675
 4.7000e+000 83995 -1.5988e+002 -3.9202e+002 -3.4487e+001 55771 83805,83779,83969
 4.7000e+000 84018 -8.5774e+001 -2.4606e+002 -6.2520e+001 55771 83805,83969,83623
 4.7000e+000 84168 -7.6479e+001 -1.8734e+002 -5.9867e+000 55367 84191,84067,84041
 4.7000e+000 84145 -7.4755e+001 -2.1244e+002 -4.0274e+000 55367 84191,84041,84119
 4.7000e+000 84217 -8.1236e+001 -1.7301e+002 -5.4605e+000 55367 84093,84067,84191
 4.7000e+000 84240 -7.1094e+001 -1.8729e+002  3.6000e+000 55367 84093,84191,84119
 4.7000e+000 84571 -4.0799e+001 -2.9132e+002 -2.9106e+001 54913 84398,84450,84424
 4.7000e+000 84548 -3.4247e+001 -2.6736e+002 -1.4798e+001 54913 84372,84450,84398
 4.7000e+000 84525 -7.1191e+001 -2.9987e+002  1.0708e+001 54913 84346,84450,84372
 4.7000e+000 84502 -2.5176e+001 -1.9440e+002 -2.5555e+001 54913 84346,84476,84450
 4.7000e+000 85126 -1.4898e+002 -3.2307e+002 -1.2390e+001 54402 84858,84936,84910
 4.7000e+000 85103 -1.1689e+002 -2.5637e+002 -2.9404e+001 54402 84806,84936,84858
 4.7000e+000 85080 -1.3918e+002 -2.3380e+002 -2.2549e+001 54402 84780,84936,84806
 4.7000e+000 85057 -1.1598e+002 -2.8465e+002 -1.1999e+001 54402 84806,84858,84832
 4.7000e+000 85034 -1.2499e+002 -2.2038e+002  1.1013e+001 54402 84780,84962,84936
 4.7000e+000 85011 -1.7301e+002 -1.9356e+002 -4.6056e+000 54402 84858,84910,84884
 4.7000e+000 84988 -1.2113e+002 -2.1640e+002  1.3576e+001 54402 84754,84962,84780
 4.7000e+000 85396 -1.1699e+002 -1.4253e+002 -9.6903e+000 53998 85197,85249,85223
 4.7000e+000 85373 -9.1133e+001 -1.8021e+002 -2.1232e+000 53998 85197,85275,85249
 4.7000e+000 85350 -1.1536e+002 -2.1212e+002 -1.3104e+001 53998 85171,85275,85197
 4.7000e+000 85327 -5.5853e+001 -1.9758e+002 -1.6197e+001 53998 85171,85301,85275
 4.7000e+000 85749 -6.7691e+001 -2.3006e+002 -5.6643e+000 53636 85524,85628,85550
 4.7000e+000 85726 -1.0409e+002 -2.5533e+002  7.0586e+000 53636 85524,85654,85628
 4.7000e+000 85703 -3.9401e+001 -2.4504e+002 -2.3980e+001 53636 85550,85602,85576
 4.7000e+000 85680 -6.4762e+001 -2.2721e+002 -1.2016e+001 53636 85550,85628,85602
 4.7000e+000 86127 -2.7797e+001 -2.3397e+002  3.6148e+001 52982 86150,85957,85879
 4.7000e+000 86104 -8.1908e+001 -2.7104e+002  2.0007e+001 52982 86150,85879,85853
 4.7000e+000 86081 -2.3402e+001 -3.3672e+002  6.6631e+001 52982 85957,86009,85983
 4.7000e+000 86058 -9.9517e+001 -2.5130e+002  2.9989e+001 52982 85879,85957,85931
 4.7000e+000 86035 -6.3244e+001 -2.3606e+002 -9.0596e+000 52982 85879,85931,85905
 4.7000e+000 86176  6.5409e+000 -2.7562e+002  2.9126e+001 52982 86009,85957,86150
 4.7000e+000 86199 -2.5489e+001 -2.9960e+002  1.7879e+001 52982 86009,86150,85853
 4.7000e+000 86398 -5.8591e+001 -1.9262e+002  1.8374e+001 52542 86421,86248,86222
 4.7000e+000 86375 -1.0066e+002 -1.9601e+002 -1.3094e+000 52542 86421,86222,86300
 4.7000e+000 86352 -9.9744e+001 -2.1143e+002 -9.5297e+000 52542 86222,86326,86300
 4.7000e+000 86447 -1.6196e+001 -1.9310e+002  3.4767e+001 52542 86274,86248,86421
 4.7000e+000 86470 -5.5849e+001 -2.0256e+002  9.9679e+000 52542 86274,86421,86300
 4.7000e+000 86669 -9.2676e+001 -1.9993e+002 -3.2731e+001 52230 86692,86571,86545
 4.7000e+000 86646 -8.9517e+001 -1.8899e+002 -1.8751e+001 52230 86692,86545,86519
 4.7000e+000 86623 -1.2314e+002 -1.9601e+002 -2.9330e+001 52230 86493,86597,86519
 4.7000e+000 86718 -9.9570e+001 -2.0389e+002 -3.7833e+001 52230 86597,86571,86692
 4.7000e+000 86741 -1.0595e+002 -1.9703e+002 -2.4656e+001 52230 86597,86692,86519
 4.7000e+000 87153 -1.2397e+002 -1.9700e+002  7.1485e+000 51640 86980,87058,87032
 4.7000e+000 87130 -1.2453e+002 -2.0233e+002  4.9778e+000 51640 86928,87058,86980
 4.7000e+000 87107 -1.3090e+002 -2.7112e+002 -1.4249e+001 51640 86928,86980,86954
 4.7000e+000 87084 -6.6112e+001 -1.7243e+002 -3.0075e+000 51640 86980,87032,87006
 4.7000e+000 87659 -5.8740e+001 -1.7695e+002  4.5436e+000 51029 87682,87440,87362
 4.7000e+000 87636 -5.0420e+001 -1.8659e+002 -1.8212e+001 51029 87682,87362,87336
 4.7000e+000 87613 -8.4012e+001 -2.5949e+002 -5.5245e+000 51029 87440,87518,87466
 4.7000e+000 87590 -9.2559e+001 -1.7746e+002  6.9117e+000 51029 87362,87440,87414
 4.7000e+000 87567 -7.6531e+001 -1.3529e+002  3.0571e+001 51029 87362,87414,87388
 4.7000e+000 87544 -1.1585e+002 -2.2907e+002  8.4102e+000 51029 87466,87518,87492
 4.7000e+000 87708 -5.7791e+001 -1.9659e+002 -1.3359e+000 51029 87518,87440,87682
 4.7000e+000 87731 -5.5505e+001 -2.2626e+002 -1.5652e+001 51029 87518,87682,87336
 4.7000e+000 87881 -1.1842e+002 -2.5425e+002  6.0945e+000 50739 87780,87832,87806
 4.7000e+000 87858 -1.3439e+002 -2.5567e+002 -1.1390e+001 50739 87754,87832,87780
 4.7000e+000 88468 -6.9124e+001 -1.6577e+002  5.9750e+000 50235 88171,88327,88197
 4.7000e+000 88445 -1.5249e+002 -1.6495e+002 -2.5992e+001 50235 88145,88327,88171
 4.7000e+000 88422  2.9526e-001 -8.6919e+001 -2.2540e-001 50235 88275,88327,88301
 4.7000e+000 88399 -4.8311e+001 -1.0774e+002 -6.4655e-001 50235 88197,88327,88275
 4.7000e+000 88376 -2.7870e+001 -1.5314e+002 -2.5961e+000 50235 88197,88275,88223
 4.7000e+000 88353 -2.9523e+001 -2.0151e+002 -2.0532e+001 50235 88223,88275,88249
 4.7000e+000 88895 -1.1255e+002 -2.6684e+002  6.1466e+000 49873 88918,88728,88676
 4.7000e+000 88872 -9.6457e+001 -2.4851e+002 -4.2845e+000 49873 88918,88676,88624
 4.7000e+000 88849 -7.6501e+001 -2.2442e+002 -1.0060e+001 49873 88598,88754,88624
 4.7000e+000 88826 -5.9462e+001 -2.3357e+002 -5.8722e+000 49873 88624,88676,88650
 4.7000e+000 88803 -9.6267e+001 -3.2417e+002  8.4047e+000 49873 88676,88728,88702
 4.7000e+000 88780 -9.3912e+001 -2.3214e+002 -1.2879e+001 49873 88572,88754,88598
 4.7000e+000 88944 -9.3162e+001 -2.6507e+002 -5.4739e+000 49873 88754,88728,88918
 4.7000e+000 88967 -8.6952e+001 -2.5841e+002 -1.3993e+001 49873 88754,88918,88624
 4.7000e+000 89473 -1.5753e+002 -2.4915e+002 -2.8454e+001 49583 89176,89306,89202
 4.7000e+000 89450 -1.5819e+002 -2.4394e+002 -4.1552e+001 49583 89176,89332,89306
 4.7000e+000 89427 -9.2753e+001 -2.7319e+002  1.3232e+001 49583 89496,89228,89202
 4.7000e+000 89404 -9.3909e+001 -2.7911e+002  1.5614e+001 49583 89496,89202,89280
 4.7000e+000 89381 -1.9496e+002 -3.4822e+002 -5.8970e+001 49583 89202,89306,89280
 4.7000e+000 89358 -1.2362e+002 -2.4649e+002 -4.8107e+001 49583 89150,89332,89176
 4.7000e+000 89522 -8.8513e+001 -2.3328e+002  7.4209e+000 49583 89254,89228,89496
 4.7000e+000 89545 -1.0786e+002 -2.6724e+002  1.5210e+001 49583 89254,89496,89280
 4.7000e+000 89825  1.6563e+001 -2.4874e+002  1.2457e+001 49179 89701,89753,89727
 4.7000e+000 89802 -3.9446e+001 -2.2500e+002  1.6970e+001 49179 89675,89753,89701
 4.7000e+000 89779 -2.8830e+001 -1.9745e+002  1.3569e+001 49179 89848,89753,89675
 4.7000e+000 89874 -1.3441e+002 -2.3147e+002 -1.5180e+001 49179 89649,89753,89848
 4.7000e+000 90223 -8.3307e+001 -2.4588e+002 -2.7999e+001 48739 90024,90102,90076
 4.7000e+000 90200 -8.1057e+001 -2.3199e+002 -1.0583e+001 48739 90024,90128,90102
 4.7000e+000 90177 -3.2794e+000 -2.3907e+002 -2.9562e+001 48739 90024,90076,90050
 4.7000e+000 90154 -3.0000e+001 -2.2317e+002  1.6748e+001 48739 89998,90128,90024
 4.7000e+000 90603 -7.6062e+001 -1.9368e+002  4.2513e+001 48335 90381,90485,90459
 4.7000e+000 90580 -1.0033e+002 -2.3009e+002  3.1446e+001 48335 90355,90485,90381
 4.7000e+000 90557 -4.1426e+001 -8.0681e+001  2.1142e+001 48335 90381,90433,90407
 4.7000e+000 90534 -7.4526e+001 -2.0321e+002  3.0488e+001 48335 90381,90459,90433
 4.7000e+000 90511  2.3099e+001 -1.6060e+002  6.1711e+001 48335 90329,90485,90355
 4.7000e+000 90753 -2.6803e+000 -1.2604e+002  7.6343e+001 47824 90776,90652,90704
 4.7000e+000 90730 -6.6027e+001 -2.1999e+002  3.5908e+001 47824 90626,90704,90652
 4.7000e+000 90802 -2.9983e+001 -1.6559e+002  6.0881e+001 47824 90678,90652,90776
 4.7000e+000 91131 -7.9936e+001 -2.7136e+002  1.2361e+001 47427 91154,90958,90906
 4.7000e+000 91108 -1.4041e+002 -2.9605e+002  7.6385e-002 47427 91154,90906,91036
 4.7000e+000 91085 -1.3796e+002 -2.3723e+002 -2.1313e+001 47427 90958,91010,90984
 4.7000e+000 91062 -7.9336e+001 -2.4783e+002  1.4736e+001 47427 90906,90958,90932
 4.7000e+000 91180 -1.1547e+002 -2.7006e+002 -2.7313e+001 47427 91010,90958,91154
 4.7000e+000 91203 -1.7392e+002 -2.9542e+002 -4.0659e+001 47427 91010,91154,91036
 4.7000e+000 91583 -1.3917e+002 -2.5907e+002 -1.4490e+001 46873 91309,91439,91335
 4.7000e+000 91560 -1.4509e+002 -2.6261e+002 -1.2262e+001 46873 91309,91465,91439
 4.7000e+000 91537 -2.0662e+002 -3.0121e+002 -7.4622e+001 46873 91361,91439,91413
 4.7000e+000 91514 -1.5571e+002 -2.7012e+002 -3.9858e+001 46873 91335,91439,91361
 4.7000e+000 91491 -7.1986e+001 -2.5719e+002 -6.8560e+001 46873 91361,91413,91387
 4.7000e+000 91880 -8.5996e+001 -2.7117e+002 -6.0004e+000 46526 91606,91710,91658
 4.7000e+000 91857 -9.0099e+001 -2.8453e+002  2.6290e+000 46526 91606,91762,91710
 4.7000e+000 91834 -5.2560e+001 -2.6116e+002 -3.0672e+001 46526 91606,91658,91632
 4.7000e+000 91811 -1.0193e+002 -2.5222e+002  5.3110e+000 46526 91658,91710,91684
 4.7000e+000 91788 -5.8436e+001 -1.9320e+002  8.0149e+000 46526 91710,91762,91736
 4.7000e+000 92211 -4.6447e+001 -1.0837e+002 -8.1761e+000 45700 91986,92064,92038
 4.7000e+000 92188 -6.1550e+001 -1.6422e+002  1.5607e+000 45700 91986,92116,92064
 4.7000e+000 92165 -3.6333e+001 -9.3733e+001 -2.0706e+001 45700 91986,92038,92012
 4.7000e+000 92142 -4.1465e+001 -1.8035e+002  2.2102e+001 45700 92064,92116,92090
 4.7000e+000 92766 -1.2221e+002 -2.3438e+002  1.4524e+001 45452 92446,92602,92576
 4.7000e+000 92743 -1.7883e+002 -2.2635e+002 -2.0065e+001 45452 92420,92602,92446
 4.7000e+000 92720 -1.3953e+002 -2.4275e+002  3.8140e+001 45452 92789,92524,92498
 4.7000e+000 92697 -1.6012e+002 -2.3848e+002  3.1674e+001 45452 92789,92498,92446
 4.7000e+000 92674 -1.3698e+002 -2.5807e+002 -1.9653e+000 45452 92524,92576,92550
 4.7000e+000 92651 -2.1069e+002 -2.4541e+002  1.3047e+002 45452 92446,92498,92472
 4.7000e+000 92628 -1.2992e+002 -3.0839e+002 -7.8226e+001 45452 92394,92602,92420
 4.7000e+000 92815 -1.2512e+002 -2.4569e+002  3.2631e+001 45452 92576,92524,92789
 4.7000e+000 92838 -1.4119e+002 -2.3796e+002  2.8905e+001 45452 92576,92789,92446
 4.7000e+000 92939 -1.0097e+002 -3.1917e+002 -6.5711e+001 44998 92861,92913,92887
 4.7000e+000 93319 -2.0593e+001 -3.2565e+002  6.2220e+001 44601 93123,93201,93149
 4.7000e+000 93296 -8.9677e+001 -3.2965e+002 -3.2390e+001 44601 93045,93201,93123
 4.7000e+000 93273 -7.1465e+001 -1.8817e+002 -4.6049e+001 44601 93045,93123,93071
 4.7000e+000 93250 -6.7243e+001 -1.7457e+002 -2.9583e+001 44601 93071,93123,93097
 4.7000e+000 93227 -6.0342e+000 -1.8212e+002  6.6986e+001 44601 93149,93201,93175
 4.7000e+000 93697 -6.9116e+001 -3.5557e+002  1.8974e+001 44026 93720,93553,93527
 4.7000e+000 93674 -1.2276e+002 -3.0190e+002  2.6213e+001 44026 93720,93527,93449
 4.7000e+000 93651 -1.3519e+002 -3.1198e+002 -4.3286e+000 44026 93449,93527,93501
 4.7000e+000 93628 -9.9854e+001 -2.4258e+002 -5.2960e+001 44026 93423,93579,93449
 4.7000e+000 93605 -3.1188e+001 -2.4806e+002  2.2884e+001 44026 93449,93501,93475
 4.7000e+000 93746 -3.0971e+001 -3.1605e+002  3.4434e+000 44026 93579,93553,93720
 4.7000e+000 93769 -8.7562e+001 -2.6346e+002  1.1453e+001 44026 93579,93720,93449
 4.7000e+000 94066 -6.9281e+001 -2.7908e+002 -3.7455e+001 43579 94089,93818,93792
 4.7000e+000 94043 -1.1352e+002 -3.0781e+002 -2.4551e+001 43579 94161,94089,93792
 4.7000e+000 94020 -1.1144e+002 -3.0908e+002 -1.2996e+001 43579 94161,93792,93948
 4.7000e+000 93997 -1.2070e+002 -2.4815e+002 -1.2656e+001 43579 94233,93870,93818
 4.7000e+000 93974 -6.9480e+001 -2.5727e+002  8.3563e+000 43579 93818,93870,93844
 4.7000e+000 94115 -1.1736e+002 -2.5009e+002 -2.7959e+001 43579 94233,93818,94089
 4.7000e+000 94138 -1.5395e+002 -2.7871e+002 -1.7412e+001 43579 93896,94089,93922
 4.7000e+000 94187 -1.0595e+002 -2.9071e+002 -2.3142e+001 43579 93922,94089,94161
 4.7000e+000 94210 -1.0249e+002 -2.9005e+002 -1.0539e+001 43579 93922,94161,93948
 4.7000e+000 94259 -1.3947e+002 -2.7728e+002 -3.4822e+000 43579 93896,93870,94233
 4.7000e+000 94282 -1.2744e+002 -2.7152e+002 -2.1065e+001 43579 93896,94233,94089
 4.7000e+000 94481 -9.3238e+001 -2.8696e+002 -1.4826e+000 43239 94305,94383,94357
 4.7000e+000 94458 -8.0093e+001 -2.6231e+002  3.3026e+001 43239 94305,94409,94383
 4.7000e+000 94435 -7.1050e+001 -3.0572e+002 -7.2099e+000 43239 94305,94357,94331
 4.7000e+000 94633 -3.3410e+001 -1.8119e+002  4.2143e+001 42827 94656,94532,94506
 4.7000e+000 94610 -7.6596e+001 -2.0089e+002  4.6686e+001 42827 94728,94656,94506
 4.7000e+000 94682 -4.2666e+001 -2.0844e+002  3.5658e+001 42827 94558,94532,94656
 4.7000e+000 94705 -1.7209e+001 -2.0445e+002  2.1953e+001 42827 94988,94860,94656
 4.7000e+000 94754 -4.4856e+001 -1.8523e+002  1.4674e+001 42827 94988,94656,94728
 4.7000e+000 94886  7.2776e+000 -1.9316e+002  2.4707e+001 42827 94558,94656,94860
 4.7000e+000 95014  5.8923e+000 -1.8791e+002  1.4737e+001 42827 94584,94860,94988
 4.7000e+000 95037 -1.7661e+001 -1.6964e+002  7.9137e+000 42827 94584,94988,94728
 4.7000e+000 95236 -4.0534e+001 -2.2656e+002  2.9884e+001 42537 95259,95112,95060
 4.7000e+000 95213 -4.9794e+001 -2.2014e+002  2.7256e+001 42537 95259,95060,95164
 4.7000e+000 95190 -2.0976e+001 -2.3127e+002 -4.1958e+000 42537 95060,95112,95086
 4.7000e+000 95285 -4.6747e+001 -2.2904e+002  2.6016e+001 42537 95138,95112,95259
 4.7000e+000 95308 -5.6532e+001 -2.2570e+002  2.2051e+001 42537 95138,95259,95164
 4.7000e+000 95816 -1.0090e+002 -2.7871e+002 -1.9807e+001 41969 95493,95597,95519
 4.7000e+000 95793 -1.4872e+002 -2.6576e+002  2.2765e+001 41969 95493,95649,95597
 4.7000e+000 95770 -1.1278e+002 -2.5144e+002  2.0826e+001 41969 95493,95675,95649
 4.7000e+000 95747 -1.2019e+002 -3.3933e+002  1.9528e+001 41969 95597,95649,95623
 4.7000e+000 95724 -1.5862e+002 -2.5759e+002 -3.1845e+001 41969 95519,95597,95571
 4.7000e+000 95701 -1.3980e+002 -2.2457e+002 -6.4517e+001 41969 95519,95571,95545
 4.7000e+000 96371 -1.2466e+002 -2.9619e+002  3.6240e+001 41579 96025,96207,96181
 4.7000e+000 96348  3.4923e+001 -2.2375e+002 -9.1618e+000 41579 95999,96207,96025
 4.7000e+000 96325 -1.4118e+002 -2.2941e+002 -2.4804e+001 41579 96129,96181,96155
 4.7000e+000 96302 -5.3474e+001 -2.0844e+002  1.8512e+000 41579 96025,96181,96129
 4.7000e+000 96279 -1.1392e+002 -3.0469e+002  4.0745e+001 41579 96025,96129,96051
 4.7000e+000 96256 -1.3769e+002 -2.9702e+002  4.6618e+001 41579 96051,96103,96077
 4.7000e+000 96233 -5.2607e+001 -2.2369e+002  5.8607e+000 41579 96051,96129,96103
 4.7000e+000 96877 -3.2111e+001 -1.8962e+002 -2.1237e+001 41182 96972,96900,96632
 4.7000e+000 96854 -4.0671e+001 -1.4309e+002 -2.2672e+001 41182 96900,96554,96736
 4.7000e+000 96831 -3.0815e+001 -1.8904e+002 -1.8628e+001 41182 96972,96632,96580
 4.7000e+000 96808 -4.1276e+001 -1.7863e+002  1.8301e+001 41182 96632,96684,96658
 4.7000e+000 96785 -7.2900e+001 -1.9329e+002  2.3418e+001 41182 96684,96736,96710
 4.7000e+000 96762 -1.0862e+002 -2.4004e+002  3.8973e+001 41182 96580,96632,96606
 4.7000e+000 96926 -2.9906e+001 -2.1039e+002 -2.1104e+001 41182 96684,96632,96900
 4.7000e+000 96949 -5.9783e+001 -1.8731e+002 -3.7070e+001 41182 96684,96900,96736
 4.7000e+000 96998 -3.7143e+001 -1.9245e+002 -2.4032e+001 41182 96554,96900,96972
 4.7000e+000 97021 -3.5737e+001 -1.9029e+002 -2.1099e+001 41182 96554,96972,96580
 4.7000e+000 97576 -1.7056e+002 -4.2126e+002 -5.8432e+001 40678 97230,97412,97282
 4.7000e+000 97553 -1.7421e+001 -3.4495e+002  1.9089e+001 40678 97204,97412,97230
 4.7000e+000 97530 -5.0585e+001 -3.2279e+002 -5.1552e+001 40678 97282,97360,97308
 4.7000e+000 97507 -7.6867e+001 -3.2877e+002 -2.0942e+001 40678 97282,97412,97360
 4.7000e+000 97484 -2.3978e+001 -1.9771e+002 -4.4917e+001 40678 97308,97360,97334
 4.7000e+000 97461 -9.8912e+001 -3.9315e+002 -1.1575e+001 40678 97360,97412,97386
 4.7000e+000 97438 -9.6668e+001 -2.6526e+002 -3.6873e+001 40678 97230,97282,97256
 4.7000e+000 97976 -1.3265e+002 -2.2247e+002 -5.3920e+000 40244 97702,97832,97754
 4.7000e+000 97953 -1.1172e+002 -2.1327e+002 -1.1370e+001 40244 97702,97858,97832
 4.7000e+000 97930 -1.4221e+002 -2.6126e+002 -5.5435e+001 40244 97702,97754,97728
 4.7000e+000 97907 -1.1187e+002 -2.4659e+002  2.7243e+001 40244 97780,97832,97806
 4.7000e+000 97884 -1.2126e+002 -2.1562e+002 -1.7723e+000 40244 97754,97832,97780
 4.7000e+000 98482 -7.3430e+001 -2.1013e+002  3.3671e+001 39690 98505,98185,98159
 4.7000e+000 98459 -7.5428e+001 -2.0401e+002  3.2512e+001 39690 98505,98159,98289
 4.7000e+000 98436 -1.4124e+002 -3.0261e+002  8.2050e+001 39690 98159,98315,98289
 4.7000e+000 98413 -5.8440e+001 -1.8995e+002  2.9936e+001 39690 98211,98289,98263
 4.7000e+000 98390 -3.3624e+001 -1.2271e+002  1.7861e+001 39690 98211,98263,98237
 4.7000e+000 98367 -3.8629e+001 -1.9233e+002  3.1552e+001 39690 98159,98341,98315
 4.7000e+000 98531 -7.4472e+001 -2.0662e+002  2.9745e+001 39690 98211,98185,98505
 4.7000e+000 98554 -7.4886e+001 -1.9700e+002  2.9739e+001 39690 98211,98505,98289
 4.7000e+000 99109 -7.1478e+001 -1.8701e+002 -1.1497e+001 39072 99132,98867,98789
 4.7000e+000 99086 -6.8803e+001 -1.9385e+002 -1.7263e+001 39072 99132,98789,98763
 4.7000e+000 99063 -1.0693e+002 -3.0978e+002  3.4185e+001 39072 98867,98945,98919
 4.7000e+000 99040 -6.1335e+001 -1.9828e+002 -2.2799e+000 39072 98789,98867,98841
 4.7000e+000 99017 -1.4186e+002 -2.2273e+002  9.8851e+000 39072 98867,98919,98893
 4.7000e+000 98994 -9.9918e+001 -1.8462e+002  3.9189e+001 39072 98789,98841,98815
 4.7000e+000 98971 -1.0196e+002 -2.2130e+002 -1.4254e+001 39072 98737,98945,98763
 4.7000e+000 99158 -6.9412e+001 -1.9571e+002 -1.2812e+001 39072 98945,98867,99132
 4.7000e+000 99181 -6.8947e+001 -2.0767e+002 -1.5189e+001 39072 98945,99132,98763
 4.7000e+000 99510 -6.0700e+001 -1.7391e+002  1.1948e+001 38668 99311,99389,99363
 4.7000e+000 99487 -5.1503e+001 -1.8182e+002 -5.3499e+000 38668 99285,99389,99311
 4.7000e+000 99464 -1.1569e+002 -2.5208e+002  2.2135e+001 38668 99285,99415,99389
 4.7000e+000 99441 -5.4237e+001 -1.8749e+002  1.9353e+001 38668 99311,99363,99337
 4.7000e+000 99758 -6.9730e+001 -2.7960e+002  4.4528e+001 38164 99781,99611,99585
 4.7000e+000 99735 -2.9658e+001 -2.8752e+002  4.8963e+001 38164 99781,99585,99533
 4.7000e+000 99712 -1.0434e+002 -2.6486e+002  3.2167e+001 38164 99611,99663,99637
 4.7000e+000 99689  1.2358e+001 -2.7500e+002 -1.8436e+001 38164 99533,99585,99559
 4.7000e+000 99807 -9.2754e+001 -2.7892e+002  5.5776e+001 38164 99663,99611,99781
 4.7000e+000 99830 -6.2069e+001 -2.9121e+002  5.3988e+001 38164 99663,99781,99533
 4.7000e+000 100232 -8.1701e+001 -2.1241e+002  3.0902e+000 37702 99984,100114,100088
 4.7000e+000 100209 -6.5636e+001 -2.2795e+002  2.2858e+001 37702 99958,100114,99984
 4.7000e+000 100186 -1.2002e+002 -2.6378e+002 -1.6506e+001 37702 100010,100088,100036
 4.7000e+000 100163 -8.1559e+001 -2.1273e+002  3.4732e-001 37702 99984,100088,100010
 4.7000e+000 100140 -7.1174e+001 -1.9438e+002 -5.5957e+001 37702 100036,100088,100062
 4.7000e+000 100640 -1.7319e+002 -2.4728e+002  3.1528e+001 37262 100493,100545,100519
 4.7000e+000 100617 -1.5562e+002 -2.8013e+002  1.5550e+001 37262 100441,100545,100493
 4.7000e+000 100594 -6.3917e+001 -2.0979e+002 -3.7927e+001 37262 100415,100545,100441
 4.7000e+000 100571 -1.7322e+002 -2.9632e+002 -1.2025e+001 37262 100441,100493,100467
 4.7000e+000 101146 -1.2226e+002 -2.0698e+002 -1.5482e+000 36872 100823,100979,100849
 4.7000e+000 101123 -1.1874e+002 -1.9205e+002 -1.8999e+001 36872 100823,101005,100979
 4.7000e+000 101100 -1.2644e+002 -2.9828e+002  4.0485e+001 36872 101169,100901,100849
 4.7000e+000 101077 -9.7383e+001 -2.3735e+002  2.1551e+001 36872 101169,100849,100979
 4.7000e+000 101054 -6.8994e+001 -2.4687e+002 -1.5985e+001 36872 100927,100979,100953
 4.7000e+000 101031 -6.8958e+001 -3.3709e+002  5.6631e+001 36872 100849,100901,100875
 4.7000e+000 101195 -8.7074e+001 -3.1610e+002  2.3529e+000 36872 100927,100901,101169
 4.7000e+000 101218 -6.9402e+001 -2.8392e+002 -1.2893e+001 36872 100927,101169,100979
 4.7000e+000 101773 -1.4116e+002 -2.2231e+002  4.1367e+001 36418 101479,101609,101583
 4.7000e+000 101750 -1.4511e+002 -2.3833e+002  4.2710e+001 36418 101453,101609,101479
 4.7000e+000 101727 -9.6974e+001 -2.3578e+002 -1.5198e+000 36418 101796,101531,101479
 4.7000e+000 101704 -1.3514e+002 -2.6223e+002  1.7697e+001 36418 101796,101479,101583
 4.7000e+000 101681 -8.3792e+001 -2.0503e+002 -6.4712e+000 36418 101479,101531,101505
 4.7000e+000 101658 -3.7111e+000 -2.1429e+002  2.6101e+000 36418 101401,101609,101453
 4.7000e+000 101635 -4.1386e+001 -2.1588e+002 -4.9168e-001 36418 101401,101453,101427
 4.7000e+000 101822 -1.0592e+002 -2.1624e+002 -3.7712e+001 36418 101557,101531,101796
 4.7000e+000 101845 -1.4977e+002 -2.2561e+002 -2.0348e+001 36418 101557,101796,101583
 4.7000e+000 102174 -1.4392e+001 -1.0667e+002 -2.8136e+001 35914 101949,102053,101975
 4.7000e+000 102151 -5.3660e+001 -1.0719e+002 -2.2046e+001 35914 101949,102079,102053
 4.7000e+000 102128 -5.4771e+001 -1.2583e+002 -1.3838e+001 35914 101975,102053,102027
 4.7000e+000 102105 -3.4915e+001 -9.4902e+001 -2.2380e+001 35914 101975,102027,102001
 4.7000e+000 102631 -4.7032e+001 -2.4221e+002  8.8258e+000 35574 102383,102513,102487
 4.7000e+000 102608 -3.4291e+001 -2.5390e+002  7.0483e+000 35574 102357,102513,102383
 4.7000e+000 102585 -8.0502e+001 -2.5043e+002  9.7603e+000 35574 102409,102487,102435
 4.7000e+000 102562 -8.4649e+001 -2.5646e+002  6.8521e+000 35574 102383,102487,102409
 4.7000e+000 102539 -8.0047e+001 -2.5168e+002  1.0966e+001 35574 102435,102487,102461
 4.7000e+000 103009 -1.2971e+002 -2.3876e+002 -1.6517e+001 35170 102761,102865,102787
 4.7000e+000 102986 -7.7991e+001 -2.0994e+002  2.2636e+001 35170 102761,102891,102865
 4.7000e+000 102963 -1.1448e+002 -2.3080e+002 -5.8060e+000 35170 102787,102865,102813
 4.7000e+000 102940 -6.3891e+001 -2.0067e+002  2.6927e+001 35170 102735,102891,102761
 4.7000e+000 102917 -1.1595e+002 -2.3750e+002 -1.5286e+001 35170 102813,102865,102839
 4.7000e+000 103257 -2.3338e+001 -1.8207e+002 -3.2123e+001 34659 103280,103058,103032
 4.7000e+000 103234 -3.6459e+001 -1.9214e+002 -1.8622e+001 34659 103280,103032,103162
 4.7000e+000 103211 -6.5147e+001 -1.9446e+002 -1.7302e+001 34659 103084,103162,103110
 4.7000e+000 103188 -8.5292e+001 -2.3761e+002 -1.1983e+001 34659 103110,103162,103136
 4.7000e+000 103306 -4.6484e+001 -1.6970e+002 -2.7944e+001 34659 103084,103058,103280
 4.7000e+000 103329 -5.4819e+001 -1.8026e+002 -1.2744e+001 34659 103084,103280,103162
 4.7000e+000 103837 -2.3705e+001 -2.6647e+002  8.8443e+000 34247 103860,103566,103540
 4.7000e+000 103814 -3.6255e+001 -2.6755e+002  7.1978e-001 34247 103932,103860,103540
 4.7000e+000 103791 -2.6712e+001 -2.9681e+002 -2.9141e+001 34247 103932,103540,103670
 4.7000e+000 103768 -2.9457e+001 -2.5064e+002  5.1723e+000 34247 103566,103618,103592
 4.7000e+000 103745 -1.0852e+002 -2.4943e+002 -3.8101e+001 34247 103540,103696,103670
 4.7000e+000 103722 -1.4360e+002 -2.7721e+002  4.0317e+001 34247 103514,103696,103540
 4.7000e+000 103886 -5.5077e+001 -2.6567e+002 -2.1504e+000 34247 103618,103566,103860
 4.7000e+000 103909 -6.1360e+001 -2.8370e+002  7.6874e+000 34247 103618,103860,103644
 4.7000e+000 103958 -6.2495e+001 -3.3782e+002 -4.1172e+000 34247 103644,103860,103932
 4.7000e+000 103981 -5.2975e+001 -3.6493e+002 -3.5461e+001 34247 103644,103932,103670
 4.7000e+000 104300 -1.3161e+002 -2.7976e+002 -9.5200e+000 33843 104052,104182,104156
 4.7000e+000 104277 -1.6951e+002 -2.6371e+002 -2.8546e+000 33843 104026,104182,104052
 4.7000e+000 104254 -1.2900e+002 -3.1810e+002  5.9689e+000 33843 104078,104156,104130
 4.7000e+000 104231 -1.5254e+002 -3.0178e+002  4.6532e-001 33843 104052,104156,104078
 4.7000e+000 104208 -1.9666e+002 -3.3701e+002  8.7083e+000 33843 104078,104130,104104
 4.7000e+000 104499 -9.1949e+001 -2.8546e+002 -2.4193e+001 33282 104594,104522,104375
 4.7000e+000 104476 -7.9222e+001 -2.7732e+002  9.2549e+000 33282 104522,104323,104427
 4.7000e+000 104453 -5.5986e+001 -3.0555e+002 -2.1905e+001 33282 104594,104375,104349
 4.7000e+000 104548 -9.6107e+001 -2.4688e+002 -1.1876e+001 33282 104401,104375,104522
 4.7000e+000 104571 -6.6349e+001 -2.4322e+002  1.1402e+001 33282 104401,104522,104427
 4.7000e+000 104620 -4.8367e+001 -2.4802e+002 -7.7047e+000 33282 104323,104522,104594
 4.7000e+000 104643 -2.5802e+001 -2.8153e+002 -1.0740e+001 33282 104323,104594,104349
 4.7000e+000 104942 -1.2396e+002 -3.1459e+002  3.7702e+001 32728 104694,104772,104720
 4.7000e+000 104919 -9.4586e+001 -2.8712e+002  1.3584e+001 32728 104694,104824,104772
 4.7000e+000 104896 -1.6089e+002 -2.8239e+002  4.2408e+001 32728 104720,104772,104746
 4.7000e+000 104873 -7.3237e+001 -3.2646e+002  1.6165e+001 32728 104772,104824,104798
 4.7000e+000 104850 -7.8398e+001 -2.8317e+002  1.3982e+001 32728 104668,104824,104694
 4.7000e+000 105373 -1.0264e+002 -3.0441e+002 -1.3978e+001 32274 105396,105102,105076
 4.7000e+000 105350 -1.1194e+002 -3.3281e+002 -5.3105e+000 32274 105396,105076,105206
 4.7000e+000 105327 -1.4125e+002 -3.3865e+002  1.6320e+001 32274 105154,105206,105180
 4.7000e+000 105304 -5.7214e+001 -3.1994e+002 -2.6586e+001 32274 105076,105232,105206
 4.7000e+000 105281 -1.2216e+002 -2.7582e+002 -5.0072e+001 32274 105102,105154,105128
 4.7000e+000 105258 -1.7649e+002 -2.7076e+002 -5.2011e+001 32274 105050,105232,105076
 4.7000e+000 105422 -1.1929e+002 -2.7360e+002 -1.2837e+001 32274 105154,105102,105396
 4.7000e+000 105445 -1.2764e+002 -3.0241e+002 -6.1469e+000 32274 105154,105396,105206
 4.7000e+000 105644 -1.2060e+002 -3.1055e+002 -5.1438e+000 31620 105468,105546,105520
 4.7000e+000 105621 -9.8134e+001 -3.3695e+002 -1.6263e+001 31620 105468,105572,105546
 4.7000e+000 105598 -1.2003e+002 -3.3561e+002  1.7352e+001 31620 105468,105520,105494
 4.7000e+000 105794 -2.9492e+001 -2.7095e+002 -8.3948e+000 31158 105889,105817,105693
 4.7000e+000 105771 -4.7668e+001 -2.4415e+002 -1.7712e+001 31158 105817,105667,105745
 4.7000e+000 105843 -3.8638e+001 -3.3182e+002 -3.0148e+000 31158 105719,105693,105817
 4.7000e+000 105866 -2.0521e+001 -2.8515e+002 -1.4731e+001 31158 105719,105817,105745
 4.7000e+000 105915 -7.1226e+001 -2.8884e+002 -8.8763e+000 31158 105667,105817,105889
 4.7000e+000 106270 -1.1916e+002 -2.7196e+002 -1.1268e+000 30818 106293,106071,106045
 4.7000e+000 106247 -1.3806e+002 -3.1454e+002 -1.6552e+001 30818 106293,106045,106175
 4.7000e+000 106224 -9.5906e+001 -2.5098e+002  1.5937e+001 30818 106123,106175,106149
 4.7000e+000 106201 -1.2339e+002 -2.7583e+002  2.7438e+001 30818 106071,106123,106097
 4.7000e+000 106319 -1.2087e+002 -2.5524e+002  1.4483e+001 30818 106123,106071,106293
 4.7000e+000 106342 -1.2321e+002 -2.7751e+002  1.4769e+000 30818 106123,106293,106175
 4.7000e+000 106492 -1.1249e+002 -2.5282e+002  4.8274e+001 30414 106645,106391,106365
 4.7000e+000 106469 -3.9115e+001 -2.5064e+002  7.3902e+001 30414 106515,106365,106443
 4.7000e+000 106541 -7.0393e+001 -2.6328e+002  5.4950e+001 30414 106645,106365,106515
 4.7000e+000 106671 -5.3242e+001 -2.9848e+002  9.3910e+001 30414 106417,106391,106645
 4.7000e+000 106694  4.1522e+001 -2.7647e+002  8.1046e+001 30414 106417,106645,106515
 4.7000e+000 106942 -5.8161e+001 -3.8225e+002 -1.0880e+000 29910 106965,106795,106769
 4.7000e+000 106919 -5.0483e+001 -3.4372e+002  1.0133e+001 29910 106965,106769,106717
 4.7000e+000 106896 -5.2319e+001 -2.8741e+002 -3.7638e+001 29910 106795,106847,106821
 4.7000e+000 106873 -2.6607e+001 -2.9368e+002  1.8902e+001 29910 106717,106769,106743
 4.7000e+000 106991 -7.9726e+001 -3.4079e+002  4.3553e+000 29910 106847,106795,106965
 4.7000e+000 107014 -6.3467e+001 -2.8960e+002  1.5104e+001 29910 106847,106965,106717
 4.7000e+000 107213 -8.1485e+001 -2.8652e+002  1.7601e+001 29413 107236,107063,107037
 4.7000e+000 107190 -7.4658e+001 -3.3758e+002  3.6472e+001 29413 107236,107037,107141
 4.7000e+000 107167 -1.0037e+002 -2.0664e+002  4.5588e+001 29413 107063,107115,107089
 4.7000e+000 107262 -7.6945e+001 -2.5345e+002  1.2297e+001 29413 107115,107063,107236
 4.7000e+000 107285 -6.2528e+001 -2.9137e+002  3.2984e+001 29413 107115,107236,107141
 4.7000e+000 107486 -3.5489e+001 -2.7478e+002  3.6460e+001 29009 107336,107388,107362
 4.7000e+000 107463 -1.7719e+001 -2.6507e+002  1.0424e+001 29009 107310,107388,107336
 4.7000e+000 107440 -2.2567e+001 -2.4963e+002  1.0405e+001 29009 107310,107414,107388
 4.7000e+000 107736 -1.1884e+002 -3.1592e+002 -1.2092e+001 28491 107537,107615,107563
 4.7000e+000 107713 -1.0287e+002 -3.0835e+002 -8.5040e+000 28491 107537,107641,107615
 4.7000e+000 107690 -6.6234e+001 -2.9723e+002  5.7958e+000 28491 107563,107615,107589
 4.7000e+000 107667 -1.0782e+002 -3.0492e+002 -9.1750e+000 28491 107511,107641,107537
 4.7000e+000 108118 -6.6596e+001 -2.9963e+002  1.1749e+001 27980 108141,107922,107844
 4.7000e+000 108095 -5.3211e+001 -3.2145e+002  1.0886e+001 27980 108141,107844,108000
 4.7000e+000 108072 -6.9959e+001 -3.1281e+002 -1.6753e+001 27980 107844,107922,107870
 4.7000e+000 108049 -7.5708e+001 -2.6972e+002 -8.5962e+000 27980 107870,107922,107896
 4.7000e+000 108026 -1.0601e+002 -2.8119e+002  3.5399e+001 27980 107922,107974,107948
 4.7000e+000 108167 -5.7220e+001 -2.9979e+002  1.6167e+001 27980 107974,107922,108141
 4.7000e+000 108190 -2.0896e+001 -3.0012e+002  2.1865e+001 27980 107974,108141,108000
 4.7000e+000 108745 -3.4172e+001 -1.9670e+002 -4.4890e+000 27376 108840,108768,108477
 4.7000e+000 108722 -6.0416e+001 -2.4241e+002 -4.7908e+001 27376 108768,108373,108581
 4.7000e+000 108699 -5.6375e+001 -1.7057e+002  3.6280e+001 27376 108840,108477,108451
 4.7000e+000 108676 -1.4088e+002 -2.0710e+002 -8.4490e+000 27376 108373,108451,108399
 4.7000e+000 108653 -5.7128e+001 -2.4562e+002  3.4127e+001 27376 108503,108581,108529
 4.7000e+000 108630 -6.5031e+001 -2.3972e+002  3.5644e+001 27376 108529,108581,108555
 4.7000e+000 108607 -1.5923e+002 -2.2168e+002  1.7659e+001 27376 108399,108451,108425
 4.7000e+000 108794 -5.6414e+001 -2.6590e+002  1.3080e+000 27376 108503,108477,108768
 4.7000e+000 108817 -1.0872e+001 -2.4203e+002 -8.7299e+000 27376 108503,108768,108581
 4.7000e+000 108866 -1.1712e+002 -2.4409e+002 -2.3544e+001 27376 108373,108768,108840
 4.7000e+000 108889 -1.1306e+002 -2.0951e+002  1.9107e+001 27376 108373,108840,108451
 4.7000e+000 109186 -1.1660e+002 -3.0992e+002  3.2343e+001 26722 109209,108938,108912
 4.7000e+000 109163 -1.0856e+002 -2.9041e+002  3.0073e+001 26722 109281,109209,108912
 4.7000e+000 109140 -1.0453e+002 -2.8257e+002  2.8409e+001 26722 109281,108912,109042
 4.7000e+000 109117 -9.5965e+001 -3.3130e+002  1.4537e+001 26722 108938,108990,108964
 4.7000e+000 109094 -1.4748e+002 -2.5705e+002  1.8733e+001 26722 108912,109068,109042
 4.7000e+000 109235 -9.8104e+001 -2.9937e+002  2.7852e+001 26722 108990,108938,109209
 4.7000e+000 109258 -1.0504e+002 -3.2141e+002  2.5021e+001 26722 108990,109209,109016
 4.7000e+000 109307 -9.6175e+001 -3.0266e+002  1.5380e+001 26722 109016,109209,109281
 4.7000e+000 109330 -8.8655e+001 -2.8917e+002  1.2088e+001 26722 109016,109281,109042
 4.7000e+000 109732 -1.2316e+002 -2.5626e+002 -5.3745e+000 26310 109458,109588,109484
 4.7000e+000 109709 -1.1737e+002 -2.9664e+002 -3.1128e+001 26310 109458,109614,109588
 4.7000e+000 109686 -1.7607e+002 -2.9926e+002  4.3828e+001 26310 109510,109562,109536
 4.7000e+000 109663 -1.7456e+002 -2.8191e+002  1.7201e+001 26310 109484,109562,109510
 4.7000e+000 109640 -1.2749e+002 -2.6035e+002 -1.1771e+000 26310 109484,109588,109562
 4.7000e+000 110159 -7.4446e+001 -2.5812e+002 -8.4604e+000 25642 110182,109940,109914
 4.7000e+000 110136 -6.7927e+001 -3.0026e+002  3.6404e+001 25642 110182,109914,109888
 4.7000e+000 110113 -9.3284e+001 -3.2098e+002 -4.1882e+001 25642 109966,110018,109992
 4.7000e+000 110090 -1.0333e+002 -3.0978e+002  2.4068e+001 25642 110254,109966,109940
 4.7000e+000 110067 -1.3868e+002 -2.9324e+002  1.7308e+001 25642 109862,110018,109888
 4.7000e+000 110044 -1.3051e+002 -2.4380e+002  4.1790e+001 25642 109836,110018,109862
 4.7000e+000 110208 -1.0194e+002 -2.8306e+002  1.7913e+001 25642 110254,109940,110182
 4.7000e+000 110231 -1.1193e+002 -3.0284e+002  4.0462e+001 25642 110018,110182,109888
 4.7000e+000 110280 -9.0145e+001 -3.4318e+002  1.9163e+001 25642 110018,109966,110254
 4.7000e+000 110303 -9.4413e+001 -3.2328e+002  1.3948e+001 25642 110018,110254,110182
 4.7000e+000 110632 -1.3423e+002 -2.6918e+002 -1.5851e+001 25188 110407,110485,110433
 4.7000e+000 110609 -1.5712e+002 -2.6776e+002 -1.0075e+001 25188 110407,110537,110485
 4.7000e+000 110586 -1.5285e+002 -2.7996e+002 -5.2126e+001 25188 110433,110485,110459
 4.7000e+000 110563 -1.4770e+002 -2.8676e+002  2.8501e+001 25188 110485,110537,110511
 4.7000e+000 110831 -2.4915e+001 -2.5618e+002  7.2298e+000 24726 110854,110707,110655
 4.7000e+000 110808 -1.0814e+001 -2.7664e+002  2.8128e+001 24726 110854,110655,110759
 4.7000e+000 110785 -3.5645e+001 -2.6551e+002  1.3609e+001 24726 110655,110707,110681
 4.7000e+000 110880 -1.4130e+001 -2.3666e+002  1.1496e+001 24726 110733,110707,110854
 4.7000e+000 110903  4.7570e+000 -2.4706e+002  3.3922e+001 24726 110733,110854,110759
 4.7000e+000 111234 -7.1827e+000 -1.8729e+002 -5.3656e+000 24222 111257,111087,111035
 4.7000e+000 111211  2.4198e+001 -1.7310e+002  2.1119e+001 24222 111257,111035,111009
 4.7000e+000 111188 -3.0245e+001 -9.9251e+001 -4.1974e+001 24222 111035,111087,111061
 4.7000e+000 111165 -2.9650e+001 -1.5113e+002  5.0208e+000 24222 111087,111139,111113
 4.7000e+000 111283 -2.6891e+001 -1.5462e+002  9.0983e+000 24222 111139,111087,111257
 4.7000e+000 111306 -1.3254e+001 -1.3142e+002  2.6131e+001 24222 111139,111257,111009
 4.7000e+000 111625 -3.5477e+001 -2.5820e+002 -1.4505e+001 23732 111648,111481,111455
 4.7000e+000 111602 -3.6381e+001 -2.6012e+002 -1.4172e+001 23732 111648,111455,111377
 4.7000e+000 111579  3.5983e+001 -1.3170e+002  2.7577e+001 23732 111377,111429,111403
 4.7000e+000 111556 -1.4320e+001 -2.6143e+002 -6.8285e+000 23732 111377,111455,111429
 4.7000e+000 111533 -2.6423e+001 -2.3537e+002 -5.5035e+000 23732 111351,111507,111377
 4.7000e+000 111674 -3.6420e+001 -2.5501e+002 -1.2237e+001 23732 111507,111481,111648
 4.7000e+000 111697 -3.8124e+001 -2.5891e+002 -1.1951e+001 23732 111507,111648,111377
 4.7000e+000 112156 -7.2322e+001 -3.0766e+002  2.2983e+001 23278 112179,111908,111882
 4.7000e+000 112133 -6.7513e+001 -2.8458e+002  1.2612e+001 23278 112179,111882,112012
 4.7000e+000 112110 -2.2473e+001 -3.3339e+002  1.3422e+000 23278 111908,111960,111934
 4.7000e+000 112087 -2.8406e+001 -2.4943e+002 -3.3113e+000 23278 111882,112038,112012
 4.7000e+000 112064 -6.0696e+001 -2.5675e+002 -4.0269e+000 23278 111960,112012,111986
 4.7000e+000 112205 -6.8876e+001 -2.9664e+002  3.9532e+000 23278 111960,111908,112179
 4.7000e+000 112228 -5.7564e+001 -2.7070e+002 -7.8932e+000 23278 111960,112179,112012
 4.7000e+000 112685 -1.9065e+002 -4.2452e+002 -4.1066e+001 22938 112489,112567,112541
 4.7000e+000 112662 -1.6442e+002 -3.6671e+002 -3.4957e+001 22938 112437,112567,112489
 4.7000e+000 112639 -1.0927e+002 -3.1472e+002 -3.9600e+000 22938 112489,112541,112515
 4.7000e+000 112616 -1.8771e+002 -3.5159e+002 -3.1215e+001 22938 112411,112567,112437
 4.7000e+000 112593 -1.4419e+002 -4.5761e+002 -9.6110e+000 22938 112437,112489,112463
 4.7000e+000 113191 -1.3822e+001 -3.0220e+002 -3.7663e+001 22534 113214,112998,112946
 4.7000e+000 113168 -5.7175e+001 -2.6896e+002 -1.9538e+001 22534 113286,113214,112946
 4.7000e+000 113145 -4.3266e+001 -2.6950e+002 -1.6314e+001 22534 113286,112946,112920
 4.7000e+000 113122 -1.2094e+002 -2.4714e+002 -5.3191e+001 22534 113358,113024,112998
 4.7000e+000 113099 -7.7997e+001 -2.6071e+002 -1.0177e+001 22534 112868,113050,112894
 4.7000e+000 113076 -8.9284e+001 -4.5062e+002 -7.4071e+001 22534 112946,112998,112972
 4.7000e+000 113240 -8.9792e+001 -3.1064e+002 -5.6318e+001 22534 113358,112998,113214
 4.7000e+000 113263 -7.4667e+001 -2.8218e+002 -1.2403e+001 22534 113050,113214,112894
 4.7000e+000 113312 -3.9073e+001 -2.6655e+002 -1.5514e+001 22534 112894,113214,113286
 4.7000e+000 113335 -2.4383e+001 -2.6782e+002 -1.4840e+001 22534 112894,113286,112920
 4.7000e+000 113384 -8.6425e+001 -1.8885e+002 -3.8800e+001 22534 113050,113024,113358
 4.7000e+000 113407 -4.1686e+001 -2.4144e+002 -3.4984e+001 22534 113050,113358,113214
 4.7000e+000 113785 -1.3765e+002 -3.5806e+002  7.9341e+000 21978 113808,113615,113511
 4.7000e+000 113762 -1.1044e+002 -3.6226e+002  2.4235e+001 21978 113808,113511,113667
 4.7000e+000 113739 -8.3211e+001 -3.0736e+002 -1.4158e+001 21978 113511,113615,113537
 4.7000e+000 113716  3.6306e+001 -2.7461e+002 -3.0917e+001 21978 113537,113615,113589
 4.7000e+000 113693 -3.8922e+001 -3.9436e+002  4.7058e+000 21978 113537,113589,113563
 4.7000e+000 113834 -1.4245e+002 -3.5807e+002  4.2233e+001 21978 113641,113615,113808
 4.7000e+000 113857 -7.1546e+001 -3.3069e+002  6.1646e+001 21978 113641,113808,113667
 4.7000e+000 114284 -1.0028e+002 -2.9914e+002  6.5460e+000 21517 114013,114117,114039
 4.7000e+000 114261 -1.1399e+002 -2.9785e+002  2.3731e+001 21517 113961,114117,114013
 4.7000e+000 114238 -1.1024e+002 -3.0162e+002  2.4292e+001 21517 113961,114013,113987
 4.7000e+000 114215 -1.6418e+002 -3.4243e+002 -2.4048e+001 21517 114039,114117,114091
 4.7000e+000 114192 -1.1567e+002 -2.5161e+002  2.8379e+001 21517 113961,114143,114117
 4.7000e+000 114169 -2.4472e+001 -2.9430e+002 -2.6749e+001 21517 114039,114091,114065
 4.7000e+000 114581 -5.3903e+001 -3.4884e+002  4.6128e+000 21027 114359,114463,114437
 4.7000e+000 114558 -2.4715e+001 -3.1506e+002  4.2592e+001 21027 114333,114463,114359
 4.7000e+000 114535 -1.8276e+001 -3.1661e+002 -9.0050e+000 21027 114359,114437,114385
 4.7000e+000 114512 -1.3144e+001 -3.1214e+002  3.6460e+001 21027 114307,114463,114333
 4.7000e+000 114489  5.6600e+001 -2.9706e+002 -1.3750e+001 21027 114385,114437,114411
 4.7000e+000 114912 -1.3624e+002 -3.0623e+002  4.2988e+000 20623 114713,114791,114765
 4.7000e+000 114889 -9.5083e+001 -2.8938e+002 -2.1081e+001 20623 114687,114791,114713
 4.7000e+000 114866 -6.4886e+001 -3.2036e+002 -2.4168e+001 20623 114687,114817,114791
 4.7000e+000 114843 -2.0185e+002 -3.7337e+002  3.2232e+001 20623 114713,114765,114739
 4.7000e+000 115290 -3.6709e+001 -2.7542e+002  1.4221e+001 20375 115313,115146,115094
 4.7000e+000 115267 -6.0520e+001 -2.6280e+002  2.7154e+001 20375 115313,115094,115042
 4.7000e+000 115244 -7.9070e+001 -2.5242e+002  8.0565e+000 20375 115385,115016,115172
 4.7000e+000 115221 -2.6627e+001 -2.4660e+002  2.2324e+001 20375 115042,115094,115068
 4.7000e+000 115198 -5.6987e+001 -3.2885e+002  1.8061e+001 20375 115094,115146,115120
 4.7000e+000 115339 -8.5770e+001 -3.2540e+002 -1.0818e+001 20375 115172,115146,115313
 4.7000e+000 115362 -4.6894e+001 -2.6065e+002  9.7638e+000 20375 115385,115172,115313
 4.7000e+000 115411 -9.7112e+001 -2.6180e+002  1.1424e+001 20375 115042,115016,115385
 4.7000e+000 115434 -8.1533e+001 -2.8100e+002  1.8216e+001 20375 115042,115385,115313
 4.7000e+000 115891 -1.4415e+002 -2.8352e+002  3.4805e+001 19971 115617,115747,115643
 4.7000e+000 115868 -1.2391e+002 -2.3424e+002  3.3026e+001 19971 115617,115773,115747
 4.7000e+000 115845 -9.0979e+001 -4.2738e+002  5.4270e+000 19971 115643,115721,115695
 4.7000e+000 115822 -3.8634e+000 -2.1416e+002 -1.5720e+000 19971 115643,115747,115721
 4.7000e+000 115799 -7.6980e+001 -5.2528e+002 -4.2200e+001 19971 115643,115695,115669
 4.7000e+000 115992 -2.0684e+002 -5.3198e+002 -9.0735e+001 19659 115914,115966,115940
 4.7000e+000 116142 -3.2590e+001 -1.2168e+002  3.2120e+000 18997 116041,116093,116067
 4.7000e+000 116119 -6.5461e+001 -2.0632e+002  1.2406e+001 18997 116015,116093,116041
 4.7000e+000 116343 -5.5569e+001 -3.2061e+002 -9.3430e+000 18707 116193,116245,116219
 4.7000e+000 116320 -1.2377e+002 -3.4963e+002 -1.4139e+001 18707 116193,116271,116245
 4.7000e+000 116297 -1.1212e+002 -3.1188e+002 -2.3160e+001 18707 116167,116271,116193
 4.7000e+000 116747 -5.1818e+001 -2.9039e+002 -5.4929e+000 18301 116525,116629,116551
 4.7000e+000 116724 -2.9226e+001 -2.4611e+002  6.9918e+000 18301 116473,116629,116525
 4.7000e+000 116701 -1.9383e+001 -2.3968e+002 -1.2855e+001 18301 116473,116525,116499
 4.7000e+000 116678 -4.4154e+001 -3.0220e+002 -4.0980e+000 18301 116551,116603,116577
 4.7000e+000 116655 -6.1253e+001 -3.1255e+002 -8.8963e+000 18301 116551,116629,116603
 4.7000e+000 117147 -1.4374e+002 -3.3030e+002  4.5462e-001 17747 116899,117029,116925
 4.7000e+000 117124 -7.5648e+001 -2.4124e+002  3.4952e+001 17747 116873,117029,116899
 4.7000e+000 117101 -1.4315e+002 -3.2933e+002  7.0444e-001 17747 116925,117029,116951
 4.7000e+000 117078 -1.2381e+002 -2.8341e+002 -1.0441e+000 17747 116951,117029,117003
 4.7000e+000 117055 -1.6520e+002 -3.7598e+002 -2.4547e+001 17747 116951,117003,116977
 4.7000e+000 117368  2.0227e+001 -3.2017e+002  7.3908e+000 17293 117244,117296,117270
 4.7000e+000 117345 -2.2651e+001 -3.3178e+002 -4.5067e+000 17293 117192,117296,117244
 4.7000e+000 117322 -5.7173e+001 -3.1112e+002 -3.7002e+000 17293 117192,117244,117218
 4.7000e+000 117699 -3.0821e+001 -2.5941e+002 -3.0465e+001 16896 117526,117604,117552
 4.7000e+000 117676 -1.7103e+002 -3.9710e+002  2.5160e+001 16896 117500,117604,117526
 4.7000e+000 117653 -1.8156e+002 -3.1469e+002 -1.5623e+001 16896 117552,117604,117578
 4.7000e+000 117630 -1.5722e+002 -5.1387e+002  4.2924e+001 16896 117474,117604,117500
 4.7000e+000 117849 -3.6473e+002 -7.0186e+002 -2.6739e+001 16534 117722,117774,117748
 4.7000e+000 117826 -2.8773e+002 -8.5362e+002 -1.1535e+002 16534 117722,117800,117774
 4.7000e+000 118070 -8.6731e-001 -3.2919e+002  4.1730e+001 16194 117946,117998,117972
 4.7000e+000 118047 -5.3358e+001 -3.7156e+002  1.6733e+001 16194 117894,117998,117946
 4.7000e+000 118024 -1.8966e+002 -3.8098e+002 -1.8208e-001 16194 117894,117946,117920
 4.7000e+000 118173 -2.2472e+001 -3.1041e+002  0.0000e+000 15968 118095,118147,118121
 4.7000e+000 118276 -9.4430e+001 -3.4344e+002  1.3306e+000 15433 118299,118198,118250
 4.7000e+000 118325 -9.5404e+001 -3.4571e+002  1.3531e+000 15433 118224,118198,118299
 4.7000e+000 118450 -1.6412e+002 -3.6424e+002  3.4497e+001 421 118372,118424,118398
 4.8000e+000 69891 -7.1126e+001 -3.6597e+002  1.3234e+001 68988 69447,69681,69629
 4.8000e+000 69868  2.0351e+001 -3.2712e+002  8.9106e+000 68988 69421,69681,69447
 4.8000e+000 69845 -9.2434e+000 -1.8670e+002  1.3900e+000 68988 69447,69629,69577
 4.8000e+000 69822 -1.1316e+002 -3.7956e+002 -4.1049e+001 68988 69447,69577,69473
 4.8000e+000 69799 -2.1433e+001 -4.3931e+002  7.3433e+001 68988 69629,69681,69655
 4.8000e+000 69776 -1.2245e+002 -2.3587e+002  6.9884e+000 68988 69577,69629,69603
 4.8000e+000 69753 -9.0772e+001 -3.3998e+002 -5.1351e+001 68988 69473,69577,69551
 4.8000e+000 69730 -1.2609e+002 -6.6243e+002 -6.4298e+001 68988 69473,69551,69525
 4.8000e+000 69707 -2.0415e+002 -4.4203e+002  1.2766e+000 68988 69473,69525,69499
 4.8000e+000 69992 -2.2148e+002 -4.0087e+002 -5.3564e+001 68676 69914,69966,69940
 4.8000e+000 70392 -1.6224e+002 -3.2984e+002  2.5414e+001 68478 70118,70248,70144
 4.8000e+000 70369 -4.8769e+000 -3.3745e+002  6.9499e+001 68478 70118,70274,70248
 4.8000e+000 70346 -9.9252e+001 -2.5080e+002 -8.7315e-001 68478 70144,70222,70196
 4.8000e+000 70323 -8.3304e+001 -2.0935e+002 -1.0878e+001 68478 70144,70248,70222
 4.8000e+000 70300 -1.0651e+002 -2.7303e+002 -4.5690e+000 68478 70144,70196,70170
 4.8000e+000 70841  3.9548e+001 -2.3190e+002 -5.9059e+001 68280 70570,70622,70596
 4.8000e+000 70818 -1.1868e+002 -2.6215e+002 -1.4418e+001 68280 70544,70622,70570
 4.8000e+000 70795 -8.9647e+001 -1.9678e+002 -8.6875e+000 68280 70544,70674,70622
 4.8000e+000 70772 -7.7241e+001 -1.7617e+002  2.9039e+000 68280 70622,70674,70648
 4.8000e+000 70749 -1.2583e+002 -2.9272e+002  2.1356e+001 68280 70518,70674,70544
 4.8000e+000 70726  8.4641e+001 -3.0697e+002  8.2653e+001 68280 70518,70700,70674
 4.8000e+000 70991 -1.4004e+001 -1.1889e+003  3.5668e+001 67968 70864,70916,70890
 4.8000e+000 70968 -3.1634e+002 -1.1803e+003  1.3782e+002 67968 70864,70942,70916
 4.8000e+000 71141 -5.4626e+002 -1.0358e+003 -5.0932e+001 67770 71040,71092,71066
 4.8000e+000 71118 -4.7551e+002 -1.2489e+003  5.4632e+001 67770 71014,71092,71040
 4.8000e+000 71651 -8.2146e+001 -2.3609e+002 -3.6582e+001 67366 71746,71674,71458
 4.8000e+000 71628 -5.5736e+001 -1.9273e+002 -3.9412e+001 67366 71674,71354,71510
 4.8000e+000 71605 -7.4732e+001 -2.6091e+002 -3.3875e+001 67366 71746,71458,71432
 4.8000e+000 71582 -1.1544e+002 -2.6759e+002  1.3681e+001 67366 71354,71432,71380
 4.8000e+000 71559 -1.2237e+002 -1.9899e+002 -1.9324e+001 67366 71380,71432,71406
 4.8000e+000 71536 -5.8763e+001 -8.4668e+001 -1.9175e+000 67366 71328,71510,71354
 4.8000e+000 71700 -8.9427e+001 -2.1362e+002 -1.6934e+001 67366 71484,71458,71674
 4.8000e+000 71723 -6.4480e+001 -2.0208e+002 -1.3235e+001 67366 71484,71674,71510
 4.8000e+000 71772 -7.3290e+001 -2.0665e+002 -3.1858e+001 67366 71354,71674,71746
 4.8000e+000 71795 -6.4540e+001 -2.2835e+002 -3.2243e+001 67366 71354,71746,71432
 4.8000e+000 71896 -2.0695e+002 -4.3834e+002  0.0000e+000 67146 71818,71870,71844
 4.8000e+000 71997 -2.5802e+002 -3.9469e+002  7.9609e+001 66948 71919,71971,71945
 4.8000e+000 72149 -2.6112e+001 -2.7742e+002 -3.0973e+001 66700 72172,72074,72048
 4.8000e+000 72126 -1.0473e+002 -3.1074e+002 -1.1986e+001 66700 72172,72048,72022
 4.8000e+000 72198 -1.5867e+002 -3.3972e+002  2.1370e+001 66700 72244,72172,72100
 4.8000e+000 72221 -1.4393e+002 -3.1213e+002 -1.8025e+001 66700 72100,72172,72022
 4.8000e+000 72270 -8.9566e+001 -1.8818e+002 -2.0934e+001 66700 72074,72172,72244
 4.8000e+000 72623 -1.1269e+002 -2.9270e+002  6.7351e+000 66502 72424,72502,72450
 4.8000e+000 72600 -9.6328e+001 -2.4899e+002  4.9421e+000 66502 72398,72502,72424
 4.8000e+000 72577 -7.7415e+001 -2.7996e+002 -4.4101e+000 66502 72398,72528,72502
 4.8000e+000 72554 -1.1489e+002 -2.6338e+002 -1.6586e+000 66502 72450,72502,72476
 4.8000e+000 72920 -1.7535e+002 -3.5764e+002  8.8651e+000 65941 72672,72776,72750
 4.8000e+000 72897 -1.7351e+002 -3.0905e+002  3.3502e+001 65941 72646,72776,72672
 4.8000e+000 72874 -1.5394e+002 -3.5126e+002  1.1144e+001 65941 72672,72750,72724
 4.8000e+000 72851 -1.5517e+002 -2.8092e+002  2.4963e+001 65941 72672,72724,72698
 4.8000e+000 72828 -1.3407e+002 -3.1099e+002  3.1970e+001 65941 72646,72802,72776
 4.8000e+000 73241 -5.2703e+001 -2.5607e+002  1.4515e+001 65743 73264,73071,73045
 4.8000e+000 73218 -1.1209e+002 -2.8559e+002  2.4190e+001 65743 73480,73264,73045
 4.8000e+000 73195 -9.3718e+001 -2.5778e+002 -3.0965e+000 65743 73336,72967,73097
 4.8000e+000 73172 -1.5342e+002 -2.3756e+002 -2.4269e+001 65743 73408,72993,72967
 4.8000e+000 73149 -8.7202e+001 -2.5898e+002 -3.6375e+000 65743 72967,73123,73097
 4.8000e+000 73290 -7.3720e+001 -2.6551e+002  3.5039e+000 65743 73097,73071,73264
 4.8000e+000 73313 -8.2848e+001 -2.4710e+002  9.0406e+000 65743 73336,73097,73264
 4.8000e+000 73362 -1.3354e+002 -2.6481e+002 -1.6134e+001 65743 73408,72967,73336
 4.8000e+000 73385 -6.9684e+001 -2.4336e+002 -7.9556e-001 65743 73019,73336,73264
 4.8000e+000 73434 -1.2036e+002 -1.8837e+002  1.3245e+001 65743 73019,72993,73408
 4.8000e+000 73457 -7.3086e+001 -2.2369e+002  9.1579e+000 65743 73019,73408,73336
 4.8000e+000 73506 -5.2859e+001 -1.8223e+002  2.9259e-001 65743 73019,73264,73480
 4.8000e+000 73989 -1.7171e+001 -2.0877e+002  2.4029e+001 65453 73793,73845,73819
 4.8000e+000 73966 -1.1239e+002 -2.3372e+002  2.7877e+001 65453 73741,73845,73793
 4.8000e+000 73943 -3.3137e+001 -1.8972e+002  1.0644e+001 65453 73715,73845,73741
 4.8000e+000 73920 -8.9725e+001 -2.4940e+002  4.6756e+001 65453 73741,73793,73767
 4.8000e+000 73897 -2.3581e-001 -1.2348e+002 -2.0664e-001 65453 73715,73871,73845
 4.8000e+000 74357 -6.4456e+001 -2.5114e+002 -6.5761e+001 65141 74380,74138,74086
 4.8000e+000 74334 -1.1327e+002 -3.3119e+002 -4.3945e+001 65141 74380,74086,74060
 4.8000e+000 74311 -1.2879e+002 -3.2389e+002 -1.1712e+001 65141 74138,74190,74164
 4.8000e+000 74288 -9.9513e+001 -3.6080e+002 -1.4900e+001 65141 74060,74216,74190
 4.8000e+000 74265 -1.0344e+002 -3.7576e+002  5.2020e+000 65141 74034,74216,74060
 4.8000e+000 74242 -7.7118e+001 -1.9319e+002 -3.9324e+001 65141 74086,74138,74112
 4.8000e+000 74406 -9.5304e+001 -3.2257e+002 -2.7021e+001 65141 74190,74138,74380
 4.8000e+000 74429 -1.1020e+002 -3.4999e+002 -1.2671e+001 65141 74190,74380,74060
 4.8000e+000 74937 -1.3224e+002 -2.6511e+002 -6.2142e+001 64737 74614,74666,74640
 4.8000e+000 74914 -1.6201e+002 -3.1847e+002 -4.6084e+001 64737 74614,74796,74666
 4.8000e+000 74891 -1.1837e+002 -2.2306e+002 -7.4813e+000 64737 74960,74718,74666
 4.8000e+000 74868 -1.0635e+002 -2.4504e+002 -2.8079e+001 64737 74960,74666,74770
 4.8000e+000 74845 -1.0942e+002 -2.0142e+002 -2.9965e+001 64737 74666,74796,74770
 4.8000e+000 74822 -1.1629e+002 -2.4151e+002  4.0840e+000 64737 74666,74718,74692
 4.8000e+000 74986 -1.2559e+002 -2.4574e+002 -8.9012e+000 64737 74744,74718,74960
 4.8000e+000 75009 -1.2052e+002 -2.7929e+002 -3.0343e+001 64737 74744,74960,74770
 4.8000e+000 75306 -6.2168e+001 -2.3071e+002  3.4366e+001 64133 75329,75110,75084
 4.8000e+000 75283 -8.1031e+001 -2.7423e+002  9.6609e+000 64133 75401,75329,75084
 4.8000e+000 75260 -7.8249e+001 -2.8126e+002  1.2247e+001 64133 75401,75084,75058
 4.8000e+000 75237 -7.9794e+001 -3.2699e+002  4.1104e+001 64133 75473,75136,75110
 4.8000e+000 75214 -8.0623e+001 -2.5591e+002  2.7144e+000 64133 75032,75188,75162
 4.8000e+000 75355 -9.2953e+001 -3.0331e+002  3.1615e+001 64133 75473,75110,75329
 4.8000e+000 75378 -7.0601e+001 -2.6224e+002  2.7072e+000 64133 75162,75329,75032
 4.8000e+000 75427 -6.6811e+001 -2.5288e+002  1.3284e+000 64133 75032,75329,75401
 4.8000e+000 75450 -1.2662e+002 -3.1150e+002  3.2220e+001 64133 75545,75401,75058
 4.8000e+000 75499 -7.0665e+001 -2.9711e+002  1.2666e+001 64133 75162,75136,75473
 4.8000e+000 75522 -8.1510e+001 -2.5685e+002  1.0567e+001 64133 75162,75473,75329
 4.8000e+000 75571 -6.4796e+001 -1.7650e+002  8.2137e+000 64133 75032,75401,75545
 4.8000e+000 75851 -1.0835e+002 -2.5205e+002  5.9267e+000 63843 75874,75753,75727
 4.8000e+000 75828 -9.4233e+001 -2.4810e+002 -1.2444e+001 63843 75946,75874,75727
 4.8000e+000 75805 -1.0516e+002 -2.6150e+002 -6.4729e+000 63843 76018,75946,75727
 4.8000e+000 75900 -8.4851e+001 -2.4212e+002 -7.5103e+000 63843 75779,75753,75874
 4.8000e+000 75923 -8.9043e+001 -2.0790e+002 -2.8119e+001 63843 75779,75874,75675
 4.8000e+000 75972 -1.0571e+002 -2.3627e+002 -1.0245e+001 63843 75675,75874,75946
 4.8000e+000 75995 -9.8263e+001 -2.4554e+002 -1.6519e+001 63843 75675,75946,75701
 4.8000e+000 76044 -1.0664e+002 -2.5448e+002 -2.1269e+001 63843 75701,75946,76018
 4.8000e+000 76454  1.5366e+001 -5.1023e+001 -2.7564e+001 63439 76477,76255,76229
 4.8000e+000 76431 -2.4815e+001 -1.1948e+002 -1.4752e+000 63439 76477,76229,76359
 4.8000e+000 76408 -3.4476e+001 -9.0440e+001  5.2151e+001 63439 76307,76359,76333
 4.8000e+000 76385 -2.2208e+001 -1.2345e+002  8.0503e+000 63439 76255,76307,76281
 4.8000e+000 76503 -2.5666e+001 -1.0481e+002  1.3326e+001 63439 76307,76255,76477
 4.8000e+000 76526 -2.4332e+001 -1.3173e+002  3.2132e+001 63439 76307,76477,76359
 4.8000e+000 76926 -5.6681e+001 -1.7571e+002 -2.9578e+000 63049 76704,76782,76756
 4.8000e+000 76903 -8.2332e+001 -1.8297e+002 -1.7030e+001 63049 76704,76808,76782
 4.8000e+000 76880 -5.8665e+001 -2.0122e+002  2.6082e+000 63049 76704,76756,76730
 4.8000e+000 76857 -4.8579e+001 -1.1914e+002  8.0559e+000 63049 76678,76808,76704
 4.8000e+000 76834 -2.2398e+001 -2.7852e+001 -2.6781e+001 63049 76652,76808,76678
 4.8000e+000 77076 -2.7055e+001 -2.9664e+002 -2.0769e+000 62737 76975,77027,77001
 4.8000e+000 77053 -2.4860e+001 -3.3212e+002 -2.0960e+001 62737 76949,77027,76975
 4.8000e+000 77324 -1.2457e+002 -2.8994e+002 -3.7642e+000 62277 77347,77177,77125
 4.8000e+000 77301 -1.2397e+002 -2.8144e+002 -1.6822e+001 62277 77347,77125,77229
 4.8000e+000 77278 -1.1895e+002 -2.9208e+002 -2.3731e+001 62277 77099,77229,77125
 4.8000e+000 77255 -1.2957e+002 -3.4454e+002  2.0726e+000 62277 77125,77177,77151
 4.8000e+000 77373 -1.3172e+002 -3.1491e+002  5.2527e+000 62277 77203,77177,77347
 4.8000e+000 77396 -1.1701e+002 -2.9296e+002 -1.0122e+001 62277 77203,77347,77229
 4.8000e+000 77857 -6.6686e+001 -3.6848e+002  3.7414e+000 61758 77635,77739,77661
 4.8000e+000 77834 -9.7427e+001 -3.5540e+002 -1.3149e+001 61758 77583,77739,77635
 4.8000e+000 77811 -1.1284e+002 -4.4834e+002 -4.3395e+001 61758 77583,77635,77609
 4.8000e+000 77788 -9.1676e+001 -3.4967e+002  2.7947e+001 61758 77661,77713,77687
 4.8000e+000 77765 -9.6895e+001 -4.0254e+002  2.7029e+001 61758 77661,77739,77713
 4.8000e+000 78491 -1.0239e+002 -1.9924e+002  1.1310e+001 61418 78171,78301,78249
 4.8000e+000 78468 -8.2406e+001 -1.6645e+002  2.4371e+001 61418 78145,78301,78171
 4.8000e+000 78445 -7.6775e+001 -1.7662e+002 -8.7719e+000 61418 78171,78249,78223
 4.8000e+000 78422 -8.0777e+001 -1.6527e+002  9.0849e+000 61418 78145,78327,78301
 4.8000e+000 78399 -1.0665e+002 -2.2396e+002 -1.0527e+000 61418 78249,78301,78275
 4.8000e+000 78376 -4.6764e+001 -1.9032e+002 -1.3791e+001 61418 78171,78223,78197
 4.8000e+000 78353 -9.3449e+001 -2.1987e+002 -5.0228e+000 61418 78119,78327,78145
 4.8000e+000 78690 -9.9812e+001 -2.3326e+002 -9.7145e-001 61014 78713,78566,78540
 4.8000e+000 78667 -6.9989e+001 -2.3846e+002  1.8241e+000 61014 78713,78540,78618
 4.8000e+000 78644 -1.1355e+002 -2.6984e+002 -2.5938e+001 61014 78514,78618,78540
 4.8000e+000 78739 -5.4463e+001 -2.3028e+002  2.4167e+001 61014 78592,78566,78713
 4.8000e+000 78762 -6.8361e+001 -2.5142e+002  2.3139e+000 61014 78785,78713,78618
 4.8000e+000 78811 -2.0745e+001 -2.3308e+002 -3.6571e+000 61014 78592,78713,78785
 4.8000e+000 79398 -4.6232e+001 -2.0962e+002 -2.0190e+001 60624 79101,79179,79153
 4.8000e+000 79375 -6.1412e+001 -2.3333e+002 -1.0114e+001 60624 79101,79231,79179
 4.8000e+000 79352 -4.7237e+001 -2.3149e+002 -1.5376e+001 60624 79075,79231,79101
 4.8000e+000 79329 -1.4578e+001 -2.7569e+002  3.0038e+001 60624 79075,79257,79231
 4.8000e+000 79306 -4.4438e+001 -1.7383e+002 -3.4627e+001 60624 79179,79231,79205
 4.8000e+000 79283 -3.7137e+001 -1.8946e+002 -1.3127e+001 60624 79101,79153,79127
 4.8000e+000 79776 -1.2164e+002 -3.1384e+002  2.6693e+001 60070 79528,79658,79606
 4.8000e+000 79753 -1.0938e+002 -2.4908e+002 -1.8202e-001 60070 79502,79658,79528
 4.8000e+000 79730 -1.4689e+002 -3.0136e+002  4.0455e+001 60070 79528,79606,79580
 4.8000e+000 79707 -4.5185e+001 -2.6897e+002  4.4324e+000 60070 79606,79658,79632
 4.8000e+000 79684 -1.2154e+001 -1.8530e+002 -4.7653e+001 60070 79528,79580,79554
 4.8000e+000 80105 -8.5612e+001 -2.4047e+002  3.0121e+001 59758 80128,79958,79906
 4.8000e+000 80082 -8.9347e+001 -2.2871e+002  2.3938e+001 59758 80128,79906,80010
 4.8000e+000 80059 -1.2098e+002 -2.5423e+002  8.2534e+001 59758 79906,79958,79932
 4.8000e+000 80036 -1.3219e+002 -2.6353e+002  8.6914e+000 59758 79880,80010,79906
 4.8000e+000 80154 -8.7754e+001 -2.4796e+002  3.0054e+001 59758 79984,79958,80128
 4.8000e+000 80177 -9.3249e+001 -2.3907e+002  2.3890e+001 59758 79984,80128,80010
 4.8000e+000 80376 -6.5653e+001 -2.2336e+002  4.7092e+000 59312 80226,80304,80252
 4.8000e+000 80353 -6.6565e+001 -2.3153e+002  3.8088e+000 59312 80200,80304,80226
 4.8000e+000 80330 -1.0143e+002 -2.0557e+002  6.0216e+001 59312 80252,80304,80278
 4.8000e+000 80805 -8.7069e+001 -2.0019e+002 -3.0571e+001 58908 80900,80828,80638
 4.8000e+000 80782 -7.3342e+001 -2.3612e+002 -4.6297e+001 58908 80828,80560,80508
 4.8000e+000 80759 -9.1257e+001 -1.8877e+002 -1.1576e+001 58908 80900,80638,80612
 4.8000e+000 80736 -3.9665e+001 -2.0299e+002  8.2501e+001 58908 80482,80664,80508
 4.8000e+000 80713 -6.0276e+001 -1.7577e+002 -6.7208e+000 58908 80560,80612,80586
 4.8000e+000 80690 -8.3219e+001 -5.8339e+002 -1.1107e+002 58908 80508,80560,80534
 4.8000e+000 80854 -4.1210e+001 -2.1625e+002  7.4763e-001 58908 80664,80638,80828
 4.8000e+000 80877 -6.9888e+001 -3.1036e+002  5.1885e+000 58908 80664,80828,80508
 4.8000e+000 80926 -7.4246e+001 -1.6592e+002 -3.3272e+001 58908 80560,80828,80900
 4.8000e+000 80949 -8.3429e+001 -1.6613e+002 -1.1623e+001 58908 80560,80900,80612
 4.8000e+000 81246 -3.7253e+001 -1.9320e+002 -5.1936e+000 58482 81076,81128,81102
 4.8000e+000 81223 -9.0894e+001 -3.2926e+002 -3.2959e+001 58482 80972,81128,81076
 4.8000e+000 81200 -5.8846e+001 -2.2465e+002 -3.5463e+001 58482 80972,81076,81050
 4.8000e+000 81177 -1.2638e+002 -3.3862e+002 -1.0275e+001 58482 80998,81050,81024
 4.8000e+000 81154 -7.1212e+001 -2.8020e+002 -3.3434e+001 58482 80972,81050,80998
 4.8000e+000 81754 -9.7729e+001 -2.0041e+002  1.5041e+001 57828 81457,81613,81483
 4.8000e+000 81731 -1.0998e+002 -2.2272e+002  6.7264e+000 57828 81431,81613,81457
 4.8000e+000 81708 -1.0583e+002 -2.1934e+002  1.6428e+001 57828 81483,81613,81509
 4.8000e+000 81685 -1.2572e+002 -2.4765e+002  2.5159e+001 57828 81509,81613,81587
 4.8000e+000 81662 -1.3275e+002 -3.6658e+002  5.1214e+001 57828 81509,81587,81535
 4.8000e+000 81639 -7.6626e+001 -3.4632e+002  3.2022e+001 57828 81535,81587,81561
 4.8000e+000 82002 -1.4852e+002 -3.5790e+002 -1.0032e+000 57374 82025,81855,81829
 4.8000e+000 81979 -1.5807e+002 -3.3751e+002  1.5876e+001 57374 82025,81829,81907
 4.8000e+000 81956 -1.6349e+002 -3.1594e+002  9.6747e+000 57374 81803,81907,81829
 4.8000e+000 81933 -9.4322e+001 -2.8768e+002  1.5561e+001 57374 81777,81907,81803
 4.8000e+000 82051 -1.4509e+002 -3.3357e+002 -3.3633e+000 57374 81881,81855,82025
 4.8000e+000 82074 -1.5221e+002 -3.1650e+002  1.9035e+001 57374 81881,82025,81907
 4.8000e+000 82356 -8.5896e+001 -2.0307e+002 -1.3322e+001 56913 82180,82232,82206
 4.8000e+000 82333 -7.4997e+001 -1.9389e+002  1.7630e+001 56913 82180,82284,82232
 4.8000e+000 82310 -2.4822e+001 -1.5547e+002  3.6675e+001 56913 82379,82232,82284
 4.8000e+000 82405  2.3835e+001 -1.5065e+002  4.9563e+000 56913 82258,82232,82379
 4.8000e+000 82764 -8.4867e+001 -1.3637e+002 -1.3868e+001 56523 82614,82666,82640
 4.8000e+000 82741 -7.2183e+001 -1.3565e+002 -2.0485e+001 56523 82614,82692,82666
 4.8000e+000 82718 -6.1423e+001 -1.4526e+002 -4.1793e+001 56523 82588,82692,82614
 4.8000e+000 83368 -1.8148e+001 -2.3674e+002 -1.1370e+001 55969 82973,83155,83129
 4.8000e+000 83345  3.1368e+000 -2.2853e+002 -1.6831e+001 55969 82973,83181,83155
 4.8000e+000 83322 -6.1719e+001 -2.0877e+002 -9.4927e+000 55969 82973,83129,82999
 4.8000e+000 83299 -9.8422e+001 -2.1307e+002  3.9840e+000 55969 83391,83025,82999
 4.8000e+000 83276 -8.5667e+001 -2.2193e+002 -3.7281e-001 55969 83391,82999,83129
 4.8000e+000 83253 -1.8207e+001 -1.8409e+002  3.9856e+001 55969 83077,83129,83103
 4.8000e+000 83230 -1.0746e+002 -1.7324e+002 -8.3884e+000 55969 83025,83077,83051
 4.8000e+000 83207 -1.9594e+000 -2.2049e+002  1.9691e+001 55969 82947,83181,82973
 4.8000e+000 83417 -8.6459e+001 -2.0472e+002  9.4316e+000 55969 83077,83025,83391
 4.8000e+000 83440 -8.2316e+001 -2.1658e+002  2.7325e+000 55969 83077,83391,83129
 4.8000e+000 83946 -1.6095e+002 -3.6014e+002  5.5783e+001 55771 83969,83779,83727
 4.8000e+000 83923 -1.2680e+002 -2.9022e+002  3.6304e+001 55771 83969,83727,83623
 4.8000e+000 83900 -1.5514e+002 -1.5140e+002  2.1225e+001 55771 83623,83727,83649
 4.8000e+000 83877 -1.2722e+002 -6.2446e+002  2.4404e+001 55771 83727,83779,83753
 4.8000e+000 83854 -2.4128e+002 -2.6021e+002  8.7556e+001 55771 83675,83727,83701
 4.8000e+000 83831 -2.4122e+002 -2.4111e+002  9.7061e+001 55771 83649,83727,83675
 4.8000e+000 83995 -1.5297e+002 -3.7578e+002 -3.2707e+001 55771 83805,83779,83969
 4.8000e+000 84018 -8.2057e+001 -2.3603e+002 -5.9464e+001 55771 83805,83969,83623
 4.8000e+000 84168 -7.4862e+001 -1.7889e+002 -5.5320e+000 55367 84191,84067,84041
 4.8000e+000 84145 -7.2272e+001 -2.0318e+002 -3.9171e+000 55367 84191,84041,84119
 4.8000e+000 84217 -7.8488e+001 -1.6591e+002 -4.8678e+000 55367 84093,84067,84191
 4.8000e+000 84240 -6.6677e+001 -1.7900e+002  3.6641e+000 55367 84093,84191,84119
 4.8000e+000 84571 -3.9366e+001 -2.7701e+002 -2.7725e+001 54913 84398,84450,84424
 4.8000e+000 84548 -3.2809e+001 -2.5413e+002 -1.4102e+001 54913 84372,84450,84398
 4.8000e+000 84525 -6.8346e+001 -2.8520e+002  1.0144e+001 54913 84346,84450,84372
 4.8000e+000 84502 -2.4756e+001 -1.8521e+002 -2.4208e+001 54913 84346,84476,84450
 4.8000e+000 85126 -1.4303e+002 -3.1060e+002 -1.2144e+001 54402 84858,84936,84910
 4.8000e+000 85103 -1.1156e+002 -2.4488e+002 -2.8191e+001 54402 84806,84936,84858
 4.8000e+000 85080 -1.3345e+002 -2.2316e+002 -2.1623e+001 54402 84780,84936,84806
 4.8000e+000 85057 -1.1093e+002 -2.7226e+002 -1.1369e+001 54402 84806,84858,84832
 4.8000e+000 85034 -1.1997e+002 -2.1039e+002  1.0413e+001 54402 84780,84962,84936
 4.8000e+000 85011 -1.6616e+002 -1.8633e+002 -4.6948e+000 54402 84858,84910,84884
 4.8000e+000 84988 -1.1723e+002 -2.0959e+002  1.2914e+001 54402 84754,84962,84780
 4.8000e+000 85396 -1.1173e+002 -1.3615e+002 -9.2668e+000 53998 85197,85249,85223
 4.8000e+000 85373 -8.6408e+001 -1.7156e+002 -2.2734e+000 53998 85197,85275,85249
 4.8000e+000 85350 -1.0919e+002 -2.0263e+002 -1.2776e+001 53998 85171,85275,85197
 4.8000e+000 85327 -5.1975e+001 -1.8897e+002 -1.5577e+001 53998 85171,85301,85275
 4.8000e+000 85749 -6.4577e+001 -2.1956e+002 -5.6775e+000 53636 85524,85628,85550
 4.8000e+000 85726 -1.0030e+002 -2.4488e+002  6.8954e+000 53636 85524,85654,85628
 4.8000e+000 85703 -3.6963e+001 -2.3430e+002 -2.3504e+001 53636 85550,85602,85576
 4.8000e+000 85680 -6.1524e+001 -2.1668e+002 -1.1910e+001 53636 85550,85628,85602
 4.8000e+000 86127 -2.6947e+001 -2.2185e+002  3.4440e+001 52982 86150,85957,85879
 4.8000e+000 86104 -7.8133e+001 -2.5774e+002  1.8792e+001 52982 86150,85879,85853
 4.8000e+000 86081 -2.2525e+001 -3.1974e+002  6.3519e+001 52982 85957,86009,85983
 4.8000e+000 86058 -9.4920e+001 -2.3926e+002  2.9571e+001 52982 85879,85957,85931
 4.8000e+000 86035 -5.9982e+001 -2.2578e+002 -8.5965e+000 52982 85879,85931,85905
 4.8000e+000 86176  5.7579e+000 -2.6206e+002  2.7784e+001 52982 86009,85957,86150
 4.8000e+000 86199 -2.4582e+001 -2.8570e+002  1.6953e+001 52982 86009,86150,85853
 4.8000e+000 86398 -5.4105e+001 -1.8227e+002  1.8094e+001 52542 86421,86248,86222
 4.8000e+000 86375 -9.5933e+001 -1.8544e+002 -1.4804e+000 52542 86421,86222,86300
 4.8000e+000 86352 -9.5858e+001 -2.0190e+002 -9.1264e+000 52542 86222,86326,86300
 4.8000e+000 86447 -1.2026e+001 -1.8263e+002  3.4243e+001 52542 86274,86248,86421
 4.8000e+000 86470 -5.1389e+001 -1.9174e+002  9.5877e+000 52542 86274,86421,86300
 4.8000e+000 86669 -8.8436e+001 -1.8977e+002 -3.1601e+001 52230 86692,86571,86545
 4.8000e+000 86646 -8.5934e+001 -1.8058e+002 -1.8429e+001 52230 86692,86545,86519
 4.8000e+000 86623 -1.1794e+002 -1.8661e+002 -2.7458e+001 52230 86493,86597,86519
 4.8000e+000 86718 -9.5016e+001 -1.9336e+002 -3.5521e+001 52230 86597,86571,86692
 4.8000e+000 86741 -1.0151e+002 -1.8802e+002 -2.3041e+001 52230 86597,86692,86519
 4.8000e+000 87153 -1.1837e+002 -1.8709e+002  7.0283e+000 51640 86980,87058,87032
 4.8000e+000 87130 -1.1827e+002 -1.9167e+002  5.1752e+000 51640 86928,87058,86980
 4.8000e+000 87107 -1.2493e+002 -2.5836e+002 -1.2935e+001 51640 86928,86980,86954
 4.8000e+000 87084 -6.3113e+001 -1.6363e+002 -3.0451e+000 51640 86980,87032,87006
 4.8000e+000 87659 -5.6244e+001 -1.6883e+002  4.2393e+000 51029 87682,87440,87362
 4.8000e+000 87636 -4.8581e+001 -1.7801e+002 -1.7256e+001 51029 87682,87362,87336
 4.8000e+000 87613 -8.0539e+001 -2.4822e+002 -5.3541e+000 51029 87440,87518,87466
 4.8000e+000 87590 -8.8548e+001 -1.6933e+002  6.5078e+000 51029 87362,87440,87414
 4.8000e+000 87567 -7.2587e+001 -1.2752e+002  2.9117e+001 51029 87362,87414,87388
 4.8000e+000 87544 -1.1000e+002 -2.1990e+002  7.5383e+000 51029 87466,87518,87492
 4.8000e+000 87708 -5.5287e+001 -1.8747e+002 -1.3930e+000 51029 87518,87440,87682
 4.8000e+000 87731 -5.3199e+001 -2.1549e+002 -1.4913e+001 51029 87518,87682,87336
 4.8000e+000 87881 -1.1118e+002 -2.4060e+002  6.3040e+000 50739 87780,87832,87806
 4.8000e+000 87858 -1.2757e+002 -2.4377e+002 -1.0962e+001 50739 87754,87832,87780
 4.8000e+000 88468 -6.6713e+001 -1.5846e+002  6.1239e+000 50235 88171,88327,88197
 4.8000e+000 88445 -1.4706e+002 -1.5839e+002 -2.4697e+001 50235 88145,88327,88171
 4.8000e+000 88422  4.0289e-001 -8.2371e+001 -2.7677e-001 50235 88275,88327,88301
 4.8000e+000 88399 -4.6395e+001 -1.0242e+002 -3.9400e-001 50235 88197,88327,88275
 4.8000e+000 88376 -2.6397e+001 -1.4619e+002 -2.1982e+000 50235 88197,88275,88223
 4.8000e+000 88353 -2.7898e+001 -1.9275e+002 -1.9557e+001 50235 88223,88275,88249
 4.8000e+000 88895 -1.0733e+002 -2.5535e+002  6.0673e+000 49873 88918,88728,88676
 4.8000e+000 88872 -9.1897e+001 -2.3758e+002 -3.8787e+000 49873 88918,88676,88624
 4.8000e+000 88849 -7.3045e+001 -2.1470e+002 -9.6203e+000 49873 88598,88754,88624
 4.8000e+000 88826 -5.7137e+001 -2.2377e+002 -5.0897e+000 49873 88624,88676,88650
 4.8000e+000 88803 -9.1878e+001 -3.1047e+002  8.1629e+000 49873 88676,88728,88702
 4.8000e+000 88780 -8.9907e+001 -2.2184e+002 -1.2162e+001 49873 88572,88754,88598
 4.8000e+000 88944 -8.8774e+001 -2.5370e+002 -5.1708e+000 49873 88754,88728,88918
 4.8000e+000 88967 -8.2791e+001 -2.4717e+002 -1.3266e+001 49873 88754,88918,88624
 4.8000e+000 89473 -1.5063e+002 -2.3891e+002 -2.7689e+001 49583 89176,89306,89202
 4.8000e+000 89450 -1.5120e+002 -2.3427e+002 -3.9317e+001 49583 89176,89332,89306
 4.8000e+000 89427 -8.8287e+001 -2.6061e+002  1.2555e+001 49583 89496,89228,89202
 4.8000e+000 89404 -8.9384e+001 -2.6639e+002  1.4881e+001 49583 89496,89202,89280
 4.8000e+000 89381 -1.8641e+002 -3.3270e+002 -5.6636e+001 49583 89202,89306,89280
 4.8000e+000 89358 -1.1823e+002 -2.3634e+002 -4.5333e+001 49583 89150,89332,89176
 4.8000e+000 89522 -8.4097e+001 -2.2149e+002  6.8997e+000 49583 89254,89228,89496
 4.8000e+000 89545 -1.0302e+002 -2.5475e+002  1.4503e+001 49583 89254,89496,89280
 4.8000e+000 89825  1.4991e+001 -2.3859e+002  1.1881e+001 49179 89701,89753,89727
 4.8000e+000 89802 -3.7642e+001 -2.1530e+002  1.5895e+001 49179 89675,89753,89701
 4.8000e+000 89779 -2.7474e+001 -1.8905e+002  1.2840e+001 49179 89848,89753,89675
 4.8000e+000 89874 -1.2905e+002 -2.2226e+002 -1.4914e+001 49179 89649,89753,89848
 4.8000e+000 90223 -7.9110e+001 -2.3514e+002 -2.7001e+001 48739 90024,90102,90076
 4.8000e+000 90200 -7.7300e+001 -2.2187e+002 -1.0187e+001 48739 90024,90128,90102
 4.8000e+000 90177 -3.4683e+000 -2.2949e+002 -2.8119e+001 48739 90024,90076,90050
 4.8000e+000 90154 -2.8419e+001 -2.1299e+002  1.5946e+001 48739 89998,90128,90024
 4.8000e+000 90603 -7.2027e+001 -1.8456e+002  4.0910e+001 48335 90381,90485,90459
 4.8000e+000 90580 -9.6123e+001 -2.2036e+002  2.9843e+001 48335 90355,90485,90381
 4.8000e+000 90557 -3.8611e+001 -7.6039e+001  2.0221e+001 48335 90381,90433,90407
 4.8000e+000 90534 -7.0317e+001 -1.9380e+002  2.9166e+001 48335 90381,90459,90433
 4.8000e+000 90511  2.5798e+001 -1.5225e+002  5.9088e+001 48335 90329,90485,90355
 4.8000e+000 90753 -2.4611e+000 -1.2000e+002  7.3396e+001 47824 90776,90652,90704
 4.8000e+000 90730 -6.3339e+001 -2.1038e+002  3.4579e+001 47824 90626,90704,90652
 4.8000e+000 90802 -2.9035e+001 -1.5849e+002  5.8353e+001 47824 90678,90652,90776
 4.8000e+000 91131 -7.6768e+001 -2.6008e+002  1.2327e+001 47427 91154,90958,90906
 4.8000e+000 91108 -1.3616e+002 -2.8429e+002 -1.2765e-001 47427 91154,90906,91036
 4.8000e+000 91085 -1.3258e+002 -2.2695e+002 -2.0587e+001 47427 90958,91010,90984
 4.8000e+000 91062 -7.6168e+001 -2.3744e+002  1.4598e+001 47427 90906,90958,90932
 4.8000e+000 91180 -1.1177e+002 -2.5909e+002 -2.6629e+001 47427 91010,90958,91154
 4.8000e+000 91203 -1.6920e+002 -2.8401e+002 -4.0125e+001 47427 91010,91154,91036
 4.8000e+000 91583 -1.3269e+002 -2.4699e+002 -1.4013e+001 46873 91309,91439,91335
 4.8000e+000 91560 -1.3921e+002 -2.5140e+002 -1.1515e+001 46873 91309,91465,91439
 4.8000e+000 91537 -1.9747e+002 -2.8792e+002 -7.1575e+001 46873 91361,91439,91413
 4.8000e+000 91514 -1.4866e+002 -2.5764e+002 -3.8362e+001 46873 91335,91439,91361
 4.8000e+000 91491 -6.7796e+001 -2.4538e+002 -6.5639e+001 46873 91361,91413,91387
 4.8000e+000 91880 -8.0979e+001 -2.5922e+002 -6.4888e+000 46526 91606,91710,91658
 4.8000e+000 91857 -8.6369e+001 -2.7307e+002  2.2677e+000 46526 91606,91762,91710
 4.8000e+000 91834 -4.8645e+001 -2.4928e+002 -3.0288e+001 46526 91606,91658,91632
 4.8000e+000 91811 -9.8609e+001 -2.4145e+002  4.3084e+000 46526 91658,91710,91684
 4.8000e+000 91788 -5.5897e+001 -1.8540e+002  7.3213e+000 46526 91710,91762,91736
 4.8000e+000 92211 -4.3963e+001 -1.0400e+002 -8.0678e+000 45700 91986,92064,92038
 4.8000e+000 92188 -5.9748e+001 -1.5712e+002  1.6492e+000 45700 91986,92116,92064
 4.8000e+000 92165 -3.4271e+001 -8.9746e+001 -1.9787e+001 45700 91986,92038,92012
 4.8000e+000 92142 -4.0761e+001 -1.7240e+002  2.1066e+001 45700 92064,92116,92090
 4.8000e+000 92766 -1.1655e+002 -2.2462e+002  1.3546e+001 45452 92446,92602,92576
 4.8000e+000 92743 -1.7088e+002 -2.1686e+002 -1.9634e+001 45452 92420,92602,92446
 4.8000e+000 92720 -1.3391e+002 -2.3242e+002  3.6394e+001 45452 92789,92524,92498
 4.8000e+000 92697 -1.5337e+002 -2.2863e+002  3.0265e+001 45452 92789,92498,92446
 4.8000e+000 92674 -1.3160e+002 -2.4719e+002 -1.8248e+000 45452 92524,92576,92550
 4.8000e+000 92651 -2.0162e+002 -2.3501e+002  1.2463e+002 45452 92446,92498,92472
 4.8000e+000 92628 -1.2115e+002 -2.9034e+002 -7.2490e+001 45452 92394,92602,92420
 4.8000e+000 92815 -1.2027e+002 -2.3536e+002  3.1182e+001 45452 92576,92524,92789
 4.8000e+000 92838 -1.3540e+002 -2.2822e+002  2.7659e+001 45452 92576,92789,92446
 4.8000e+000 92939 -9.7140e+001 -3.0604e+002 -6.2649e+001 44998 92861,92913,92887
 4.8000e+000 93319 -2.0081e+001 -3.1151e+002  5.9351e+001 44601 93123,93201,93149
 4.8000e+000 93296 -8.6017e+001 -3.1491e+002 -3.0914e+001 44601 93045,93201,93123
 4.8000e+000 93273 -6.8539e+001 -1.7961e+002 -4.3918e+001 44601 93045,93123,93071
 4.8000e+000 93250 -6.4092e+001 -1.6673e+002 -2.8505e+001 44601 93071,93123,93097
 4.8000e+000 93227 -6.0258e+000 -1.7406e+002  6.3880e+001 44601 93149,93201,93175
 4.8000e+000 93697 -6.6071e+001 -3.4019e+002  1.8194e+001 44026 93720,93553,93527
 4.8000e+000 93674 -1.1728e+002 -2.8887e+002  2.5132e+001 44026 93720,93527,93449
 4.8000e+000 93651 -1.2935e+002 -2.9894e+002 -3.9485e+000 44026 93449,93527,93501
 4.8000e+000 93628 -9.4472e+001 -2.3166e+002 -5.0692e+001 44026 93423,93579,93449
 4.8000e+000 93605 -3.0367e+001 -2.3794e+002  2.2038e+001 44026 93449,93501,93475
 4.8000e+000 93746 -2.9643e+001 -3.0240e+002  3.3538e+000 44026 93579,93553,93720
 4.8000e+000 93769 -8.3680e+001 -2.5209e+002  1.1033e+001 44026 93579,93720,93449
 4.8000e+000 94066 -6.6304e+001 -2.6669e+002 -3.6309e+001 43579 94089,93818,93792
 4.8000e+000 94043 -1.0844e+002 -2.9413e+002 -2.3990e+001 43579 94161,94089,93792
 4.8000e+000 94020 -1.0655e+002 -2.9533e+002 -1.3282e+001 43579 94161,93792,93948
 4.8000e+000 93997 -1.1525e+002 -2.3671e+002 -1.2379e+001 43579 94233,93870,93818
 4.8000e+000 93974 -6.5877e+001 -2.4479e+002  7.2264e+000 43579 93818,93870,93844
 4.8000e+000 94115 -1.1216e+002 -2.3861e+002 -2.7074e+001 43579 94233,93818,94089
 4.8000e+000 94138 -1.4757e+002 -2.6649e+002 -1.7146e+001 43579 93896,94089,93922
 4.8000e+000 94187 -1.0143e+002 -2.7825e+002 -2.2759e+001 43579 93922,94089,94161
 4.8000e+000 94210 -9.8311e+001 -2.7768e+002 -1.1076e+001 43579 93922,94161,93948
 4.8000e+000 94259 -1.3298e+002 -2.6470e+002 -3.8735e+000 43579 93896,93870,94233
 4.8000e+000 94282 -1.2185e+002 -2.5934e+002 -2.0765e+001 43579 93896,94233,94089
 4.8000e+000 94481 -8.8463e+001 -2.7494e+002 -1.9477e+000 43239 94305,94383,94357
 4.8000e+000 94458 -7.5071e+001 -2.5092e+002  3.1278e+001 43239 94305,94409,94383
 4.8000e+000 94435 -6.7621e+001 -2.9267e+002 -7.3193e+000 43239 94305,94357,94331
 4.8000e+000 94633 -3.2403e+001 -1.7334e+002  4.0139e+001 42827 94656,94532,94506
 4.8000e+000 94610 -7.3298e+001 -1.9201e+002  4.4472e+001 42827 94728,94656,94506
 4.8000e+000 94682 -4.0651e+001 -1.9948e+002  3.4074e+001 42827 94558,94532,94656
 4.8000e+000 94705 -1.6094e+001 -1.9573e+002  2.0916e+001 42827 94988,94860,94656
 4.8000e+000 94754 -4.2880e+001 -1.7672e+002  1.3906e+001 42827 94988,94656,94728
 4.8000e+000 94886  6.8865e+000 -1.8503e+002  2.3673e+001 42827 94558,94656,94860
 4.8000e+000 95014  6.3025e+000 -1.7945e+002  1.3810e+001 42827 94584,94860,94988
 4.8000e+000 95037 -1.6592e+001 -1.6150e+002  7.1983e+000 42827 94584,94988,94728
 4.8000e+000 95236 -3.8394e+001 -2.1716e+002  2.8813e+001 42537 95259,95112,95060
 4.8000e+000 95213 -4.7836e+001 -2.1106e+002  2.6323e+001 42537 95259,95060,95164
 4.8000e+000 95190 -1.9421e+001 -2.2143e+002 -4.0590e+000 42537 95060,95112,95086
 4.8000e+000 95285 -4.4737e+001 -2.1941e+002  2.4818e+001 42537 95138,95112,95259
 4.8000e+000 95308 -5.4581e+001 -2.1627e+002  2.0972e+001 42537 95138,95259,95164
 4.8000e+000 95816 -9.6855e+001 -2.6693e+002 -1.8633e+001 41969 95493,95597,95519
 4.8000e+000 95793 -1.4214e+002 -2.5342e+002  2.2000e+001 41969 95493,95649,95597
 4.8000e+000 95770 -1.0752e+002 -2.3919e+002  1.9652e+001 41969 95493,95675,95649
 4.8000e+000 95747 -1.1565e+002 -3.2460e+002  1.8598e+001 41969 95597,95649,95623
 4.8000e+000 95724 -1.5183e+002 -2.4625e+002 -3.0356e+001 41969 95519,95597,95571
 4.8000e+000 95701 -1.3410e+002 -2.1533e+002 -6.1758e+001 41969 95519,95571,95545
 4.8000e+000 96371 -1.1888e+002 -2.8333e+002  3.4627e+001 41579 96025,96207,96181
 4.8000e+000 96348  3.3825e+001 -2.1394e+002 -8.8257e+000 41579 95999,96207,96025
 4.8000e+000 96325 -1.3442e+002 -2.1908e+002 -2.3755e+001 41579 96129,96181,96155
 4.8000e+000 96302 -5.0739e+001 -1.9901e+002  1.6287e+000 41579 96025,96181,96129
 4.8000e+000 96279 -1.0889e+002 -2.9181e+002  3.9004e+001 41579 96025,96129,96051
 4.8000e+000 96256 -1.2993e+002 -2.8297e+002  4.3941e+001 41579 96051,96103,96077
 4.8000e+000 96233 -4.9402e+001 -2.1362e+002  5.3471e+000 41579 96051,96129,96103
 4.8000e+000 96877 -3.0677e+001 -1.8070e+002 -2.0499e+001 41182 96972,96900,96632
 4.8000e+000 96854 -3.8748e+001 -1.3581e+002 -2.1693e+001 41182 96900,96554,96736
 4.8000e+000 96831 -2.9435e+001 -1.8022e+002 -1.7939e+001 41182 96972,96632,96580
 4.8000e+000 96808 -3.9441e+001 -1.7049e+002  1.7155e+001 41182 96632,96684,96658
 4.8000e+000 96785 -6.9489e+001 -1.8453e+002  2.1711e+001 41182 96684,96736,96710
 4.8000e+000 96762 -1.0396e+002 -2.2938e+002  3.7250e+001 41182 96580,96632,96606
 4.8000e+000 96926 -2.8434e+001 -2.0051e+002 -2.0337e+001 41182 96684,96632,96900
 4.8000e+000 96949 -5.6962e+001 -1.7842e+002 -3.5560e+001 41182 96684,96900,96736
 4.8000e+000 96998 -3.5585e+001 -1.8338e+002 -2.2942e+001 41182 96554,96900,96972
 4.8000e+000 97021 -3.4324e+001 -1.8155e+002 -2.0064e+001 41182 96554,96972,96580
 4.8000e+000 97576 -1.6256e+002 -4.0300e+002 -5.5963e+001 40678 97230,97412,97282
 4.8000e+000 97553 -1.5503e+001 -3.2981e+002  1.8316e+001 40678 97204,97412,97230
 4.8000e+000 97530 -4.8207e+001 -3.0838e+002 -4.9420e+001 40678 97282,97360,97308
 4.8000e+000 97507 -7.3046e+001 -3.1393e+002 -1.9957e+001 40678 97282,97412,97360
 4.8000e+000 97484 -2.2470e+001 -1.8857e+002 -4.2940e+001 40678 97308,97360,97334
 4.8000e+000 97461 -9.3791e+001 -3.7528e+002 -1.1147e+001 40678 97360,97412,97386
 4.8000e+000 97438 -9.1673e+001 -2.5301e+002 -3.5528e+001 40678 97230,97282,97256
 4.8000e+000 97976 -1.2644e+002 -2.1264e+002 -5.4310e+000 40244 97702,97832,97754
 4.8000e+000 97953 -1.0599e+002 -2.0401e+002 -1.1199e+001 40244 97702,97858,97832
 4.8000e+000 97930 -1.3557e+002 -2.4973e+002 -5.3488e+001 40244 97702,97754,97728
 4.8000e+000 97907 -1.0639e+002 -2.3484e+002  2.5578e+001 40244 97780,97832,97806
 4.8000e+000 97884 -1.1547e+002 -2.0602e+002 -1.9055e+000 40244 97754,97832,97780
 4.8000e+000 98482 -7.0459e+001 -2.0120e+002  3.2225e+001 39690 98505,98185,98159
 4.8000e+000 98459 -7.2402e+001 -1.9489e+002  3.1086e+001 39690 98505,98159,98289
 4.8000e+000 98436 -1.3585e+002 -2.8997e+002  7.8789e+001 39690 98159,98315,98289
 4.8000e+000 98413 -5.6240e+001 -1.8099e+002  2.8189e+001 39690 98211,98289,98263
 4.8000e+000 98390 -3.3052e+001 -1.1678e+002  1.6853e+001 39690 98211,98263,98237
 4.8000e+000 98367 -3.6788e+001 -1.8297e+002  2.9752e+001 39690 98159,98341,98315
 4.8000e+000 98531 -7.1667e+001 -1.9763e+002  2.8179e+001 39690 98211,98185,98505
 4.8000e+000 98554 -7.1937e+001 -1.8768e+002  2.8237e+001 39690 98211,98505,98289
 4.8000e+000 99109 -6.8205e+001 -1.7915e+002 -1.1143e+001 39072 99132,98867,98789
 4.8000e+000 99086 -6.5325e+001 -1.8543e+002 -1.6523e+001 39072 99132,98789,98763
 4.8000e+000 99063 -1.0233e+002 -2.9615e+002  3.2399e+001 39072 98867,98945,98919
 4.8000e+000 99040 -5.8298e+001 -1.8988e+002 -2.3348e+000 39072 98789,98867,98841
 4.8000e+000 99017 -1.3532e+002 -2.1349e+002  9.4252e+000 39072 98867,98919,98893
 4.8000e+000 98994 -9.4899e+001 -1.7610e+002  3.7275e+001 39072 98789,98841,98815
 4.8000e+000 98971 -9.7126e+001 -2.1126e+002 -1.3404e+001 39072 98737,98945,98763
 4.8000e+000 99158 -6.6442e+001 -1.8718e+002 -1.2289e+001 39072 98945,98867,99132
 4.8000e+000 99181 -6.5833e+001 -1.9838e+002 -1.4485e+001 39072 98945,99132,98763
 4.8000e+000 99510 -5.7722e+001 -1.6633e+002  1.1090e+001 38668 99311,99389,99363
 4.8000e+000 99487 -4.9213e+001 -1.7374e+002 -5.0469e+000 38668 99285,99389,99311
 4.8000e+000 99464 -1.1100e+002 -2.4076e+002  2.1388e+001 38668 99285,99415,99389
 4.8000e+000 99441 -5.1807e+001 -1.7899e+002  1.7984e+001 38668 99311,99363,99337
 4.8000e+000 99758 -6.6033e+001 -2.6721e+002  4.2946e+001 38164 99781,99611,99585
 4.8000e+000 99735 -2.7594e+001 -2.7475e+002  4.7230e+001 38164 99781,99585,99533
 4.8000e+000 99712 -9.9740e+001 -2.5410e+002  3.0884e+001 38164 99611,99663,99637
 4.8000e+000 99689  1.3268e+001 -2.6110e+002 -1.7177e+001 38164 99533,99585,99559
 4.8000e+000 99807 -8.8094e+001 -2.6646e+002  5.3717e+001 38164 99663,99611,99781
 4.8000e+000 99830 -5.8682e+001 -2.7823e+002  5.2023e+001 38164 99663,99781,99533
 4.8000e+000 100232 -7.8456e+001 -2.0355e+002  2.9108e+000 37702 99984,100114,100088
 4.8000e+000 100209 -6.2852e+001 -2.1848e+002  2.2063e+001 37702 99958,100114,99984
 4.8000e+000 100186 -1.1446e+002 -2.5185e+002 -1.5593e+001 37702 100010,100088,100036
 4.8000e+000 100163 -7.8261e+001 -2.0384e+002  2.6853e-001 37702 99984,100088,100010
 4.8000e+000 100140 -6.7762e+001 -1.8513e+002 -5.3051e+001 37702 100036,100088,100062
 4.8000e+000 100640 -1.6472e+002 -2.3585e+002  3.0119e+001 37262 100493,100545,100519
 4.8000e+000 100617 -1.4786e+002 -2.6737e+002  1.4789e+001 37262 100441,100545,100493
 4.8000e+000 100594 -6.0858e+001 -2.0053e+002 -3.6117e+001 37262 100415,100545,100441
 4.8000e+000 100571 -1.6484e+002 -2.8334e+002 -1.1439e+001 37262 100441,100493,100467
 4.8000e+000 101146 -1.1697e+002 -1.9735e+002 -1.5753e+000 36872 100823,100979,100849
 4.8000e+000 101123 -1.1340e+002 -1.8254e+002 -1.8323e+001 36872 100823,101005,100979
 4.8000e+000 101100 -1.2116e+002 -2.8547e+002  3.8949e+001 36872 101169,100901,100849
 4.8000e+000 101077 -9.3323e+001 -2.2705e+002  2.0894e+001 36872 101169,100849,100979
 4.8000e+000 101054 -6.6196e+001 -2.3635e+002 -1.5050e+001 36872 100927,100979,100953
 4.8000e+000 101031 -6.6046e+001 -3.2312e+002  5.4382e+001 36872 100849,100901,100875
 4.8000e+000 101195 -8.3575e+001 -3.0259e+002  2.4037e+000 36872 100927,100901,101169
 4.8000e+000 101218 -6.6639e+001 -2.7170e+002 -1.2135e+001 36872 100927,101169,100979
 4.8000e+000 101773 -1.3471e+002 -2.1315e+002  3.9748e+001 36418 101479,101609,101583
 4.8000e+000 101750 -1.3900e+002 -2.2868e+002  4.0581e+001 36418 101453,101609,101479
 4.8000e+000 101727 -9.2980e+001 -2.2628e+002 -1.4592e+000 36418 101796,101531,101479
 4.8000e+000 101704 -1.2961e+002 -2.5166e+002  1.6986e+001 36418 101796,101479,101583
 4.8000e+000 101681 -7.9959e+001 -1.9575e+002 -6.3421e+000 36418 101479,101531,101505
 4.8000e+000 101658 -4.0058e+000 -2.0437e+002  4.2312e+000 36418 101401,101609,101453
 4.8000e+000 101635 -4.1848e+001 -2.0686e+002  7.9193e-001 36418 101401,101453,101427
 4.8000e+000 101822 -1.0155e+002 -2.0749e+002 -3.6215e+001 36418 101557,101531,101796
 4.8000e+000 101845 -1.4365e+002 -2.1648e+002 -1.9541e+001 36418 101557,101796,101583
 4.8000e+000 102174 -1.3747e+001 -1.0261e+002 -2.6673e+001 35914 101949,102053,101975
 4.8000e+000 102151 -5.0326e+001 -1.0409e+002 -2.0750e+001 35914 101949,102079,102053
 4.8000e+000 102128 -5.2777e+001 -1.2103e+002 -1.3631e+001 35914 101975,102053,102027
 4.8000e+000 102105 -3.3939e+001 -9.1654e+001 -2.1733e+001 35914 101975,102027,102001
 4.8000e+000 102631 -4.4919e+001 -2.3175e+002  8.0760e+000 35574 102383,102513,102487
 4.8000e+000 102608 -3.3014e+001 -2.4265e+002  6.4222e+000 35574 102357,102513,102383
 4.8000e+000 102585 -7.7302e+001 -2.4017e+002  9.2464e+000 35574 102409,102487,102435
 4.8000e+000 102562 -8.0686e+001 -2.4552e+002  6.6466e+000 35574 102383,102487,102409
 4.8000e+000 102539 -7.6911e+001 -2.4136e+002  1.0340e+001 35574 102435,102487,102461
 4.8000e+000 103009 -1.2352e+002 -2.2762e+002 -1.6092e+001 35170 102761,102865,102787
 4.8000e+000 102986 -7.4482e+001 -2.0027e+002  2.1304e+001 35170 102761,102891,102865
 4.8000e+000 102963 -1.0892e+002 -2.2004e+002 -5.8177e+000 35170 102787,102865,102813
 4.8000e+000 102940 -6.1203e+001 -1.9173e+002  2.5285e+001 35170 102735,102891,102761
 4.8000e+000 102917 -1.1043e+002 -2.2673e+002 -1.4975e+001 35170 102813,102865,102839
 4.8000e+000 103257 -2.2386e+001 -1.7401e+002 -3.0785e+001 34659 103280,103058,103032
 4.8000e+000 103234 -3.4856e+001 -1.8328e+002 -1.7772e+001 34659 103280,103032,103162
 4.8000e+000 103211 -6.2157e+001 -1.8614e+002 -1.6624e+001 34659 103084,103162,103110
 4.8000e+000 103188 -8.1204e+001 -2.2698e+002 -1.1629e+001 34659 103110,103162,103136
 4.8000e+000 103306 -4.4543e+001 -1.6265e+002 -2.6967e+001 34659 103084,103058,103280
 4.8000e+000 103329 -5.2327e+001 -1.7226e+002 -1.2309e+001 34659 103084,103280,103162
 4.8000e+000 103837 -2.2534e+001 -2.5403e+002  8.2182e+000 34247 103860,103566,103540
 4.8000e+000 103814 -3.4772e+001 -2.5522e+002  5.9035e-001 34247 103932,103860,103540
 4.8000e+000 103791 -2.5752e+001 -2.8326e+002 -2.7992e+001 34247 103932,103540,103670
 4.8000e+000 103768 -2.8041e+001 -2.3829e+002  4.8933e+000 34247 103566,103618,103592
 4.8000e+000 103745 -1.0382e+002 -2.3884e+002 -3.6674e+001 34247 103540,103696,103670
 4.8000e+000 103722 -1.3731e+002 -2.6519e+002  3.8517e+001 34247 103514,103696,103540
 4.8000e+000 103886 -5.2824e+001 -2.5296e+002 -2.3715e+000 34247 103618,103566,103860
 4.8000e+000 103909 -5.8884e+001 -2.7049e+002  7.1895e+000 34247 103618,103860,103644
 4.8000e+000 103958 -5.9871e+001 -3.2257e+002 -4.1620e+000 34247 103644,103860,103932
 4.8000e+000 103981 -5.0887e+001 -3.4855e+002 -3.4160e+001 34247 103644,103932,103670
 4.8000e+000 104300 -1.2546e+002 -2.6748e+002 -8.9844e+000 33843 104052,104182,104156
 4.8000e+000 104277 -1.6196e+002 -2.5191e+002 -2.5080e+000 33843 104026,104182,104052
 4.8000e+000 104254 -1.2273e+002 -3.0357e+002  5.8985e+000 33843 104078,104156,104130
 4.8000e+000 104231 -1.4554e+002 -2.8842e+002  4.9890e-001 33843 104052,104156,104078
 4.8000e+000 104208 -1.8741e+002 -3.2131e+002  8.3001e+000 33843 104078,104130,104104
 4.8000e+000 104499 -8.7426e+001 -2.7238e+002 -2.3182e+001 33282 104594,104522,104375
 4.8000e+000 104476 -7.5244e+001 -2.6429e+002  8.4651e+000 33282 104522,104323,104427
 4.8000e+000 104453 -5.3201e+001 -2.9151e+002 -2.1016e+001 33282 104594,104375,104349
 4.8000e+000 104548 -9.1514e+001 -2.3568e+002 -1.1347e+001 33282 104401,104375,104522
 4.8000e+000 104571 -6.3163e+001 -2.3214e+002  1.0629e+001 33282 104401,104522,104427
 4.8000e+000 104620 -4.5908e+001 -2.3666e+002 -7.4679e+000 33282 104323,104522,104594
 4.8000e+000 104643 -2.4434e+001 -2.6856e+002 -1.0370e+001 33282 104323,104594,104349
 4.8000e+000 104942 -1.1811e+002 -3.0056e+002  3.6015e+001 32728 104694,104772,104720
 4.8000e+000 104919 -8.9892e+001 -2.7423e+002  1.2945e+001 32728 104694,104824,104772
 4.8000e+000 104896 -1.5351e+002 -2.6934e+002  4.0643e+001 32728 104720,104772,104746
 4.8000e+000 104873 -6.9533e+001 -3.1246e+002  1.5531e+001 32728 104772,104824,104798
 4.8000e+000 104850 -7.4684e+001 -2.7131e+002  1.2819e+001 32728 104668,104824,104694
 4.8000e+000 105373 -9.7847e+001 -2.9166e+002 -1.3519e+001 32274 105396,105102,105076
 4.8000e+000 105350 -1.0686e+002 -3.1899e+002 -5.1671e+000 32274 105396,105076,105206
 4.8000e+000 105327 -1.3535e+002 -3.2507e+002  1.5433e+001 32274 105154,105206,105180
 4.8000e+000 105304 -5.4988e+001 -3.0692e+002 -2.5618e+001 32274 105076,105232,105206
 4.8000e+000 105281 -1.1694e+002 -2.6417e+002 -4.7845e+001 32274 105102,105154,105128
 4.8000e+000 105258 -1.6890e+002 -2.5845e+002 -4.9688e+001 32274 105050,105232,105076
 4.8000e+000 105422 -1.1392e+002 -2.6192e+002 -1.2421e+001 32274 105154,105102,105396
 4.8000e+000 105445 -1.2200e+002 -2.8964e+002 -5.9716e+000 32274 105154,105396,105206
 4.8000e+000 105644 -1.1493e+002 -2.9676e+002 -4.9789e+000 31620 105468,105546,105520
 4.8000e+000 105621 -9.3789e+001 -3.2153e+002 -1.5454e+001 31620 105468,105572,105546
 4.8000e+000 105598 -1.1460e+002 -3.2127e+002  1.6544e+001 31620 105468,105520,105494
 4.8000e+000 105794 -2.8052e+001 -2.5902e+002 -8.2549e+000 31158 105889,105817,105693
 4.8000e+000 105771 -4.5356e+001 -2.3247e+002 -1.6977e+001 31158 105817,105667,105745
 4.8000e+000 105843 -3.6823e+001 -3.1786e+002 -2.9998e+000 31158 105719,105693,105817
 4.8000e+000 105866 -1.9628e+001 -2.7249e+002 -1.4288e+001 31158 105719,105817,105745
 4.8000e+000 105915 -6.7850e+001 -2.7608e+002 -8.7137e+000 31158 105667,105817,105889
 4.8000e+000 106270 -1.1349e+002 -2.6011e+002 -1.1034e+000 30818 106293,106071,106045
 4.8000e+000 106247 -1.3157e+002 -3.0088e+002 -1.5670e+001 30818 106293,106045,106175
 4.8000e+000 106224 -9.1570e+001 -2.4000e+002  1.5353e+001 30818 106123,106175,106149
 4.8000e+000 106201 -1.1788e+002 -2.6506e+002  2.7052e+001 30818 106071,106123,106097
 4.8000e+000 106319 -1.1527e+002 -2.4410e+002  1.3870e+001 30818 106123,106071,106293
 4.8000e+000 106342 -1.1761e+002 -2.6546e+002  1.5871e+000 30818 106123,106293,106175
 4.8000e+000 106492 -1.0727e+002 -2.4089e+002  4.5758e+001 30414 106645,106391,106365
 4.8000e+000 106469 -3.6485e+001 -2.3878e+002  7.0444e+001 30414 106515,106365,106443
 4.8000e+000 106541 -6.6788e+001 -2.5104e+002  5.2229e+001 30414 106645,106365,106515
 4.8000e+000 106671 -5.0376e+001 -2.8463e+002  8.9626e+001 30414 106417,106391,106645
 4.8000e+000 106694  4.0720e+001 -2.6362e+002  7.7340e+001 30414 106417,106645,106515
 4.8000e+000 106942 -5.5506e+001 -3.6516e+002 -1.1970e+000 29910 106965,106795,106769
 4.8000e+000 106919 -4.7741e+001 -3.2841e+002  9.5689e+000 29910 106965,106769,106717
 4.8000e+000 106896 -5.0457e+001 -2.7487e+002 -3.5830e+001 29910 106795,106847,106821
 4.8000e+000 106873 -2.4715e+001 -2.8003e+002  1.7867e+001 29910 106717,106769,106743
 4.8000e+000 106991 -7.6443e+001 -3.2546e+002  4.1197e+000 29910 106847,106795,106965
 4.8000e+000 107014 -6.0524e+001 -2.7666e+002  1.4486e+001 29910 106847,106965,106717
 4.8000e+000 107213 -7.7317e+001 -2.7330e+002  1.6845e+001 29413 107236,107063,107037
 4.8000e+000 107190 -7.0849e+001 -3.2202e+002  3.4847e+001 29413 107236,107037,107141
 4.8000e+000 107167 -9.4616e+001 -1.9779e+002  4.2973e+001 29413 107063,107115,107089
 4.8000e+000 107262 -7.2994e+001 -2.4170e+002  1.1765e+001 29413 107115,107063,107236
 4.8000e+000 107285 -5.9293e+001 -2.7790e+002  3.1499e+001 29413 107115,107236,107141
 4.8000e+000 107486 -3.3956e+001 -2.6262e+002  3.5008e+001 29009 107336,107388,107362
 4.8000e+000 107463 -1.7282e+001 -2.5347e+002  1.0187e+001 29009 107310,107388,107336
 4.8000e+000 107440 -2.1699e+001 -2.3858e+002  1.0090e+001 29009 107310,107414,107388
 4.8000e+000 107736 -1.1339e+002 -3.0197e+002 -1.1259e+001 28491 107537,107615,107563
 4.8000e+000 107713 -9.8301e+001 -2.9484e+002 -7.9359e+000 28491 107537,107641,107615
 4.8000e+000 107690 -6.3976e+001 -2.8399e+002  5.5854e+000 28491 107563,107615,107589
 4.8000e+000 107667 -1.0281e+002 -2.9183e+002 -8.5657e+000 28491 107511,107641,107537
 4.8000e+000 108118 -6.3696e+001 -2.8625e+002  1.1225e+001 27980 108141,107922,107844
 4.8000e+000 108095 -5.0925e+001 -3.0672e+002  1.0352e+001 27980 108141,107844,108000
 4.8000e+000 108072 -6.6934e+001 -2.9884e+002 -1.5830e+001 27980 107844,107922,107870
 4.8000e+000 108049 -7.2343e+001 -2.5798e+002 -8.1118e+000 27980 107870,107922,107896
 4.8000e+000 108026 -1.0135e+002 -2.6895e+002  3.3909e+001 27980 107922,107974,107948
 4.8000e+000 108167 -5.4674e+001 -2.8676e+002  1.5485e+001 27980 107974,107922,108141
 4.8000e+000 108190 -2.0043e+001 -2.8683e+002  2.0752e+001 27980 107974,108141,108000
 4.8000e+000 108745 -3.2363e+001 -1.8795e+002 -4.5412e+000 27376 108840,108768,108477
 4.8000e+000 108722 -5.7154e+001 -2.3122e+002 -4.5620e+001 27376 108768,108373,108581
 4.8000e+000 108699 -5.3760e+001 -1.6385e+002  3.4273e+001 27376 108840,108477,108451
 4.8000e+000 108676 -1.3468e+002 -1.9800e+002 -8.2573e+000 27376 108373,108451,108399
 4.8000e+000 108653 -5.3826e+001 -2.3348e+002  3.2868e+001 27376 108503,108581,108529
 4.8000e+000 108630 -6.1085e+001 -2.2938e+002  3.4420e+001 27376 108529,108581,108555
 4.8000e+000 108607 -1.5259e+002 -2.1248e+002  1.7015e+001 27376 108399,108451,108425
 4.8000e+000 108794 -5.3150e+001 -2.5272e+002  9.1618e-001 27376 108503,108477,108768
 4.8000e+000 108817 -9.8036e+000 -2.3092e+002 -8.1998e+000 27376 108503,108768,108581
 4.8000e+000 108866 -1.1153e+002 -2.3251e+002 -2.2232e+001 27376 108373,108768,108840
 4.8000e+000 108889 -1.0781e+002 -2.0003e+002  1.8263e+001 27376 108373,108840,108451
 4.8000e+000 109186 -1.1110e+002 -2.9588e+002  3.1020e+001 26722 109209,108938,108912
 4.8000e+000 109163 -1.0335e+002 -2.7704e+002  2.8699e+001 26722 109281,109209,108912
 4.8000e+000 109140 -9.9578e+001 -2.6954e+002  2.7149e+001 26722 109281,108912,109042
 4.8000e+000 109117 -9.1398e+001 -3.1643e+002  1.3924e+001 26722 108938,108990,108964
 4.8000e+000 109094 -1.4101e+002 -2.4527e+002  1.7959e+001 26722 108912,109068,109042
 4.8000e+000 109235 -9.3263e+001 -2.8561e+002  2.6582e+001 26722 108990,108938,109209
 4.8000e+000 109258 -1.0004e+002 -3.0639e+002  2.3800e+001 26722 108990,109209,109016
 4.8000e+000 109307 -9.1630e+001 -2.8871e+002  1.4715e+001 26722 109016,109209,109281
 4.8000e+000 109330 -8.4554e+001 -2.7585e+002  1.1617e+001 26722 109016,109281,109042
 4.8000e+000 109732 -1.1737e+002 -2.4519e+002 -5.1986e+000 26310 109458,109588,109484
 4.8000e+000 109709 -1.1163e+002 -2.8263e+002 -2.9556e+001 26310 109458,109614,109588
 4.8000e+000 109686 -1.6793e+002 -2.8566e+002  4.1655e+001 26310 109510,109562,109536
 4.8000e+000 109663 -1.6681e+002 -2.6928e+002  1.6338e+001 26310 109484,109562,109510
 4.8000e+000 109640 -1.2162e+002 -2.4909e+002 -1.2777e+000 26310 109484,109588,109562
 4.8000e+000 110159 -7.1229e+001 -2.4755e+002 -7.8538e+000 25642 110182,109940,109914
 4.8000e+000 110136 -6.4798e+001 -2.8729e+002  3.5053e+001 25642 110182,109914,109888
 4.8000e+000 110113 -8.9387e+001 -3.0729e+002 -4.0152e+001 25642 109966,110018,109992
 4.8000e+000 110090 -9.8891e+001 -2.9668e+002  2.3053e+001 25642 110254,109966,109940
 4.8000e+000 110067 -1.3296e+002 -2.8159e+002  1.6417e+001 25642 109862,110018,109888
 4.8000e+000 110044 -1.2450e+002 -2.3373e+002  4.0088e+001 25642 109836,110018,109862
 4.8000e+000 110208 -9.7459e+001 -2.7128e+002  1.7187e+001 25642 110254,109940,110182
 4.8000e+000 110231 -1.0694e+002 -2.9003e+002  3.8755e+001 25642 110018,110182,109888
 4.8000e+000 110280 -8.6246e+001 -3.2851e+002  1.8391e+001 25642 110018,109966,110254
 4.8000e+000 110303 -9.0211e+001 -3.0961e+002  1.3428e+001 25642 110018,110254,110182
 4.8000e+000 110632 -1.2891e+002 -2.5737e+002 -1.4943e+001 25188 110407,110485,110433
 4.8000e+000 110609 -1.4997e+002 -2.5633e+002 -9.5843e+000 25188 110407,110537,110485
 4.8000e+000 110586 -1.4571e+002 -2.6721e+002 -4.9471e+001 25188 110433,110485,110459
 4.8000e+000 110563 -1.4122e+002 -2.7503e+002  2.7222e+001 25188 110485,110537,110511
 4.8000e+000 110831 -2.3903e+001 -2.4519e+002  7.0160e+000 24726 110854,110707,110655
 4.8000e+000 110808 -1.0772e+001 -2.6483e+002  2.6969e+001 24726 110854,110655,110759
 4.8000e+000 110785 -3.4078e+001 -2.5380e+002  1.3118e+001 24726 110655,110707,110681
 4.8000e+000 110880 -1.3794e+001 -2.2643e+002  1.0862e+001 24726 110733,110707,110854
 4.8000e+000 110903  3.9269e+000 -2.3646e+002  3.2257e+001 24726 110733,110854,110759
 4.8000e+000 111234 -6.9281e+000 -1.7917e+002 -5.1245e+000 24222 111257,111087,111035
 4.8000e+000 111211  2.3241e+001 -1.6555e+002  2.0056e+001 24222 111257,111035,111009
 4.8000e+000 111188 -2.8909e+001 -9.4699e+001 -4.0265e+001 24222 111035,111087,111061
 4.8000e+000 111165 -2.8582e+001 -1.4524e+002  4.9227e+000 24222 111087,111139,111113
 4.8000e+000 111283 -2.5823e+001 -1.4796e+002  8.7300e+000 24222 111139,111087,111257
 4.8000e+000 111306 -1.2731e+001 -1.2586e+002  2.4922e+001 24222 111139,111257,111009
 4.8000e+000 111625 -3.3414e+001 -2.4723e+002 -1.3859e+001 23732 111648,111481,111455
 4.8000e+000 111602 -3.4422e+001 -2.4912e+002 -1.3459e+001 23732 111648,111455,111377
 4.8000e+000 111579  3.5012e+001 -1.2564e+002  2.6455e+001 23732 111377,111429,111403
 4.8000e+000 111556 -1.3375e+001 -2.5038e+002 -6.4480e+000 23732 111377,111455,111429
 4.8000e+000 111533 -2.5284e+001 -2.2568e+002 -5.2921e+000 23732 111351,111507,111377
 4.8000e+000 111674 -3.4504e+001 -2.4427e+002 -1.1720e+001 23732 111507,111481,111648
 4.8000e+000 111697 -3.6148e+001 -2.4799e+002 -1.1345e+001 23732 111507,111648,111377
 4.8000e+000 112156 -6.9184e+001 -2.9410e+002  2.1945e+001 23278 112179,111908,111882
 4.8000e+000 112133 -6.4534e+001 -2.7189e+002  1.2015e+001 23278 112179,111882,112012
 4.8000e+000 112110 -2.1562e+001 -3.1839e+002  1.1151e+000 23278 111908,111960,111934
 4.8000e+000 112087 -2.7285e+001 -2.3872e+002 -3.1314e+000 23278 111882,112038,112012
 4.8000e+000 112064 -5.8223e+001 -2.4484e+002 -3.8997e+000 23278 111960,112012,111986
 4.8000e+000 112205 -6.5901e+001 -2.8353e+002  3.6564e+000 23278 111960,111908,112179
 4.8000e+000 112228 -5.5016e+001 -2.5857e+002 -7.6929e+000 23278 111960,112179,112012
 4.8000e+000 112685 -1.8212e+002 -4.0624e+002 -3.9352e+001 22938 112489,112567,112541
 4.8000e+000 112662 -1.5742e+002 -3.5175e+002 -3.3670e+001 22938 112437,112567,112489
 4.8000e+000 112639 -1.0477e+002 -3.0170e+002 -4.0537e+000 22938 112489,112541,112515
 4.8000e+000 112616 -1.7935e+002 -3.3641e+002 -2.9758e+001 22938 112411,112567,112437
 4.8000e+000 112593 -1.3831e+002 -4.4158e+002 -8.5432e+000 22938 112437,112489,112463
 4.8000e+000 113191 -1.3224e+001 -2.8893e+002 -3.5722e+001 22534 113214,112998,112946
 4.8000e+000 113168 -5.4427e+001 -2.5651e+002 -1.8493e+001 22534 113286,113214,112946
 4.8000e+000 113145 -4.1213e+001 -2.5700e+002 -1.5448e+001 22534 113286,112946,112920
 4.8000e+000 113122 -1.1553e+002 -2.3585e+002 -5.0906e+001 22534 113358,113024,112998
 4.8000e+000 113099 -7.4260e+001 -2.4839e+002 -9.7080e+000 22534 112868,113050,112894
 4.8000e+000 113076 -8.5272e+001 -4.2853e+002 -7.0339e+001 22534 112946,112998,112972
 4.8000e+000 113240 -8.5733e+001 -2.9662e+002 -5.3894e+001 22534 113358,112998,113214
 4.8000e+000 113263 -7.1140e+001 -2.6923e+002 -1.1897e+001 22534 113050,113214,112894
 4.8000e+000 113312 -3.7192e+001 -2.5435e+002 -1.4688e+001 22534 112894,113214,113286
 4.8000e+000 113335 -2.3197e+001 -2.5549e+002 -1.4077e+001 22534 112894,113286,112920
 4.8000e+000 113384 -8.2480e+001 -1.8004e+002 -3.7122e+001 22534 113050,113024,113358
 4.8000e+000 113407 -3.9668e+001 -2.3038e+002 -3.3466e+001 22534 113050,113358,113214
 4.8000e+000 113785 -1.3099e+002 -3.4161e+002  7.3437e+000 21978 113808,113615,113511
 4.8000e+000 113762 -1.0496e+002 -3.4552e+002  2.2800e+001 21978 113808,113511,113667
 4.8000e+000 113739 -7.9064e+001 -2.9359e+002 -1.3702e+001 21978 113511,113615,113537
 4.8000e+000 113716  3.5708e+001 -2.6189e+002 -2.9454e+001 21978 113537,113615,113589
 4.8000e+000 113693 -3.6367e+001 -3.7759e+002  4.7871e+000 21978 113537,113589,113563
 4.8000e+000 113834 -1.3564e+002 -3.4174e+002  4.0247e+001 21978 113641,113615,113808
 4.8000e+000 113857 -6.7746e+001 -3.1550e+002  5.8663e+001 21978 113641,113808,113667
 4.8000e+000 114284 -9.5644e+001 -2.8584e+002  6.1978e+000 21517 114013,114117,114039
 4.8000e+000 114261 -1.0872e+002 -2.8457e+002  2.2700e+001 21517 113961,114117,114013
 4.8000e+000 114238 -1.0551e+002 -2.8925e+002  2.2995e+001 21517 113961,114013,113987
 4.8000e+000 114215 -1.5687e+002 -3.2715e+002 -2.3125e+001 21517 114039,114117,114091
 4.8000e+000 114192 -1.1059e+002 -2.4131e+002  2.7207e+001 21517 113961,114143,114117
 4.8000e+000 114169 -2.4159e+001 -2.8121e+002 -2.5420e+001 21517 114039,114091,114065
 4.8000e+000 114581 -5.1095e+001 -3.3407e+002  4.1449e+000 21027 114359,114463,114437
 4.8000e+000 114558 -2.3721e+001 -3.0179e+002  4.0827e+001 21027 114333,114463,114359
 4.8000e+000 114535 -1.7423e+001 -3.0451e+002 -8.5565e+000 21027 114359,114437,114385
 4.8000e+000 114512 -1.2051e+001 -2.9861e+002  3.5373e+001 21027 114307,114463,114333
 4.8000e+000 114489  5.4965e+001 -2.8378e+002 -1.4177e+001 21027 114385,114437,114411
 4.8000e+000 114912 -1.3005e+002 -2.9247e+002  3.8994e+000 20623 114713,114791,114765
 4.8000e+000 114889 -9.0456e+001 -2.7625e+002 -2.0653e+001 20623 114687,114791,114713
 4.8000e+000 114866 -6.1518e+001 -3.0606e+002 -2.3605e+001 20623 114687,114817,114791
 4.8000e+000 114843 -1.9290e+002 -3.5728e+002  3.0681e+001 20623 114713,114765,114739
 4.8000e+000 115290 -3.4791e+001 -2.6307e+002  1.3579e+001 20375 115313,115146,115094
 4.8000e+000 115267 -5.7600e+001 -2.5109e+002  2.5962e+001 20375 115313,115094,115042
 4.8000e+000 115244 -7.5284e+001 -2.4092e+002  7.6951e+000 20375 115385,115016,115172
 4.8000e+000 115221 -2.5219e+001 -2.3564e+002  2.1374e+001 20375 115042,115094,115068
 4.8000e+000 115198 -5.4394e+001 -3.1431e+002  1.6889e+001 20375 115094,115146,115120
 4.8000e+000 115339 -8.1922e+001 -3.1105e+002 -1.0458e+001 20375 115172,115146,115313
 4.8000e+000 115362 -4.4596e+001 -2.4887e+002  9.2968e+000 20375 115385,115172,115313
 4.8000e+000 115411 -9.2402e+001 -2.4994e+002  1.1005e+001 20375 115042,115016,115385
 4.8000e+000 115434 -7.7586e+001 -2.6840e+002  1.7466e+001 20375 115042,115385,115313
 4.8000e+000 115891 -1.3756e+002 -2.7048e+002  3.3143e+001 19971 115617,115747,115643
 4.8000e+000 115868 -1.1841e+002 -2.2402e+002  3.1711e+001 19971 115617,115773,115747
 4.8000e+000 115845 -8.7125e+001 -4.0854e+002  5.3039e+000 19971 115643,115721,115695
 4.8000e+000 115822 -3.7772e+000 -2.0468e+002 -1.4526e+000 19971 115643,115747,115721
 4.8000e+000 115799 -7.3440e+001 -5.0082e+002 -3.9612e+001 19971 115643,115695,115669
 4.8000e+000 115992 -1.9750e+002 -5.0891e+002 -8.6938e+001 19659 115914,115966,115940
 4.8000e+000 116142 -3.1088e+001 -1.1608e+002  3.0593e+000 18997 116041,116093,116067
 4.8000e+000 116119 -6.2614e+001 -1.9727e+002  1.1910e+001 18997 116015,116093,116041
 4.8000e+000 116343 -5.3221e+001 -3.0658e+002 -8.8448e+000 18707 116193,116245,116219
 4.8000e+000 116320 -1.1834e+002 -3.3422e+002 -1.3338e+001 18707 116193,116271,116245
 4.8000e+000 116297 -1.0732e+002 -2.9830e+002 -2.2075e+001 18707 116167,116271,116193
 4.8000e+000 116747 -4.9532e+001 -2.7703e+002 -4.9083e+000 18301 116525,116629,116551
 4.8000e+000 116724 -2.8056e+001 -2.3527e+002  6.9062e+000 18301 116473,116629,116525
 4.8000e+000 116701 -1.8354e+001 -2.2846e+002 -1.2115e+001 18301 116473,116525,116499
 4.8000e+000 116678 -4.1615e+001 -2.8816e+002 -3.5847e+000 18301 116551,116603,116577
 4.8000e+000 116655 -5.8586e+001 -2.9829e+002 -8.3023e+000 18301 116551,116629,116603
 4.8000e+000 117147 -1.3786e+002 -3.1740e+002 -5.0906e-002 17747 116899,117029,116925
 4.8000e+000 117124 -7.2589e+001 -2.3203e+002  3.3019e+001 17747 116873,117029,116899
 4.8000e+000 117101 -1.3665e+002 -3.1506e+002  4.3315e-001 17747 116925,117029,116951
 4.8000e+000 117078 -1.1812e+002 -2.7081e+002 -1.0614e+000 17747 116951,117029,117003
 4.8000e+000 117055 -1.5804e+002 -3.5898e+002 -2.3580e+001 17747 116951,117003,116977
 4.8000e+000 117368  1.9291e+001 -3.0562e+002  7.1861e+000 17293 117244,117296,117270
 4.8000e+000 117345 -2.1572e+001 -3.1647e+002 -4.1143e+000 17293 117192,117296,117244
 4.8000e+000 117322 -5.4754e+001 -2.9723e+002 -3.1922e+000 17293 117192,117244,117218
 4.8000e+000 117699 -2.9354e+001 -2.4775e+002 -2.8982e+001 16896 117526,117604,117552
 4.8000e+000 117676 -1.6311e+002 -3.7926e+002  2.4121e+001 16896 117500,117604,117526
 4.8000e+000 117653 -1.7328e+002 -3.0033e+002 -1.4938e+001 16896 117552,117604,117578
 4.8000e+000 117630 -1.5001e+002 -4.9085e+002  4.1051e+001 16896 117474,117604,117500
 4.8000e+000 117849 -3.4785e+002 -6.7009e+002 -2.5526e+001 16534 117722,117774,117748
 4.8000e+000 117826 -2.7431e+002 -8.1479e+002 -1.1020e+002 16534 117722,117800,117774
 4.8000e+000 118070 -1.0212e+000 -3.1405e+002  3.9923e+001 16194 117946,117998,117972
 4.8000e+000 118047 -5.1219e+001 -3.5470e+002  1.6035e+001 16194 117894,117998,117946
 4.8000e+000 118024 -1.8118e+002 -3.6356e+002 -1.6010e-001 16194 117894,117946,117920
 4.8000e+000 118173 -2.1735e+001 -2.9965e+002  0.0000e+000 15968 118095,118147,118121
 4.8000e+000 118276 -8.9972e+001 -3.2825e+002  9.2827e-001 15433 118299,118198,118250
 4.8000e+000 118325 -9.0721e+001 -3.3000e+002  9.4548e-001 15433 118224,118198,118299
 4.8000e+000 118450 -1.5590e+002 -3.4871e+002  3.3464e+001 421 118372,118424,118398
 4.9000e+000 69891 -6.7319e+001 -3.4742e+002  1.2737e+001 68988 69447,69681,69629
 4.9000e+000 69868  1.8844e+001 -3.1084e+002  8.3511e+000 68988 69421,69681,69447
 4.9000e+000 69845 -8.3887e+000 -1.7708e+002  1.3819e+000 68988 69447,69629,69577
 4.9000e+000 69822 -1.0714e+002 -3.6085e+002 -3.8907e+001 68988 69447,69577,69473
 4.9000e+000 69799 -2.0223e+001 -4.1606e+002  6.9631e+001 68988 69629,69681,69655
 4.9000e+000 69776 -1.1561e+002 -2.2353e+002  6.0380e+000 68988 69577,69629,69603
 4.9000e+000 69753 -8.6124e+001 -3.2418e+002 -4.8826e+001 68988 69473,69577,69551
 4.9000e+000 69730 -1.2054e+002 -6.3221e+002 -6.1349e+001 68988 69473,69551,69525
 4.9000e+000 69707 -1.9418e+002 -4.2228e+002  1.0287e+000 68988 69473,69525,69499
 4.9000e+000 69992 -2.1340e+002 -3.8503e+002 -5.4519e+001 68676 69914,69966,69940
 4.9000e+000 70392 -1.5582e+002 -3.1576e+002  2.4305e+001 68478 70118,70248,70144
 4.9000e+000 70369 -4.5630e+000 -3.2316e+002  6.6682e+001 68478 70118,70274,70248
 4.9000e+000 70346 -9.5226e+001 -2.3988e+002 -7.8255e-001 68478 70144,70222,70196
 4.9000e+000 70323 -7.9999e+001 -2.0022e+002 -1.0534e+001 68478 70144,70248,70222
 4.9000e+000 70300 -1.0253e+002 -2.6153e+002 -4.4712e+000 68478 70144,70196,70170
 4.9000e+000 70841  3.9413e+001 -2.2104e+002 -5.6884e+001 68280 70570,70622,70596
 4.9000e+000 70818 -1.1344e+002 -2.5000e+002 -1.3792e+001 68280 70544,70622,70570
 4.9000e+000 70795 -8.5579e+001 -1.8749e+002 -8.1682e+000 68280 70544,70674,70622
 4.9000e+000 70772 -7.3662e+001 -1.6810e+002  2.7081e+000 68280 70622,70674,70648
 4.9000e+000 70749 -1.1960e+002 -2.7902e+002  2.0421e+001 68280 70518,70674,70544
 4.9000e+000 70726  8.0586e+001 -2.9294e+002  7.8737e+001 68280 70518,70700,70674
 4.9000e+000 70991 -1.3593e+001 -1.1349e+003  3.4057e+001 67968 70864,70916,70890
 4.9000e+000 70968 -3.0191e+002 -1.1266e+003  1.3164e+002 67968 70864,70942,70916
 4.9000e+000 71141 -5.2000e+002 -9.9006e+002 -4.8160e+001 67770 71040,71092,71066
 4.9000e+000 71118 -4.5251e+002 -1.1925e+003  5.2116e+001 67770 71014,71092,71040
 4.9000e+000 71651 -7.9092e+001 -2.2595e+002 -3.4932e+001 67366 71746,71674,71458
 4.9000e+000 71628 -5.3945e+001 -1.8439e+002 -3.7778e+001 67366 71674,71354,71510
 4.9000e+000 71605 -7.2168e+001 -2.4969e+002 -3.2312e+001 67366 71746,71458,71432
 4.9000e+000 71582 -1.1105e+002 -2.5588e+002  1.2856e+001 67366 71354,71432,71380
 4.9000e+000 71559 -1.1555e+002 -1.8974e+002 -1.8917e+001 67366 71380,71432,71406
 4.9000e+000 71536 -5.7710e+001 -8.1135e+001 -1.9769e+000 67366 71328,71510,71354
 4.9000e+000 71700 -8.5872e+001 -2.0442e+002 -1.6348e+001 67366 71484,71458,71674
 4.9000e+000 71723 -6.2373e+001 -1.9353e+002 -1.2814e+001 67366 71484,71674,71510
 4.9000e+000 71772 -7.0893e+001 -1.9781e+002 -3.0513e+001 67366 71354,71674,71746
 4.9000e+000 71795 -6.2588e+001 -2.1848e+002 -3.0875e+001 67366 71354,71746,71432
 4.9000e+000 71896 -1.9565e+002 -4.1825e+002  0.0000e+000 67146 71818,71870,71844
 4.9000e+000 71997 -2.4255e+002 -3.7770e+002  7.5989e+001 66948 71919,71971,71945
 4.9000e+000 72149 -2.5966e+001 -2.6546e+002 -2.9621e+001 66700 72172,72074,72048
 4.9000e+000 72126 -1.0014e+002 -2.9781e+002 -1.1446e+001 66700 72172,72048,72022
 4.9000e+000 72198 -1.5191e+002 -3.2503e+002  2.0309e+001 66700 72244,72172,72100
 4.9000e+000 72221 -1.3630e+002 -2.9832e+002 -1.6819e+001 66700 72100,72172,72022
 4.9000e+000 72270 -8.5966e+001 -1.8029e+002 -1.9898e+001 66700 72074,72172,72244
 4.9000e+000 72623 -1.0835e+002 -2.7916e+002  6.6956e+000 66502 72424,72502,72450
 4.9000e+000 72600 -9.2570e+001 -2.3675e+002  4.7855e+000 66502 72398,72502,72424
 4.9000e+000 72577 -7.3784e+001 -2.6663e+002 -4.2002e+000 66502 72398,72528,72502
 4.9000e+000 72554 -1.1066e+002 -2.5176e+002 -1.1218e+000 66502 72450,72502,72476
 4.9000e+000 72920 -1.6722e+002 -3.4151e+002  8.7972e+000 65941 72672,72776,72750
 4.9000e+000 72897 -1.6562e+002 -2.9553e+002  3.2101e+001 65941 72646,72776,72672
 4.9000e+000 72874 -1.4799e+002 -3.3571e+002  1.0765e+001 65941 72672,72750,72724
 4.9000e+000 72851 -1.4901e+002 -2.6896e+002  2.3743e+001 65941 72672,72724,72698
 4.9000e+000 72828 -1.2737e+002 -2.9648e+002  3.0280e+001 65941 72646,72802,72776
 4.9000e+000 73241 -5.1439e+001 -2.4506e+002  1.3727e+001 65743 73264,73071,73045
 4.9000e+000 73218 -1.0874e+002 -2.7414e+002  2.3803e+001 65743 73480,73264,73045
 4.9000e+000 73195 -9.0005e+001 -2.4611e+002 -2.7324e+000 65743 73336,72967,73097
 4.9000e+000 73172 -1.4643e+002 -2.2691e+002 -2.2711e+001 65743 73408,72993,72967
 4.9000e+000 73149 -8.4024e+001 -2.4659e+002 -2.9562e+000 65743 72967,73123,73097
 4.9000e+000 73290 -7.1222e+001 -2.5315e+002  3.2950e+000 65743 73097,73071,73264
 4.9000e+000 73313 -7.9936e+001 -2.3626e+002  8.5456e+000 65743 73336,73097,73264
 4.9000e+000 73362 -1.2763e+002 -2.5281e+002 -1.4961e+001 65743 73408,72967,73336
 4.9000e+000 73385 -6.6794e+001 -2.3240e+002 -5.9602e-001 65743 73019,73336,73264
 4.9000e+000 73434 -1.1508e+002 -1.8020e+002  1.2891e+001 65743 73019,72993,73408
 4.9000e+000 73457 -7.0247e+001 -2.1376e+002  9.0542e+000 65743 73019,73408,73336
 4.9000e+000 73506 -5.0770e+001 -1.7348e+002  3.1042e-001 65743 73019,73264,73480
 4.9000e+000 73989 -1.6480e+001 -1.9951e+002  2.3165e+001 65453 73793,73845,73819
 4.9000e+000 73966 -1.0811e+002 -2.2368e+002  2.6729e+001 65453 73741,73845,73793
 4.9000e+000 73943 -3.1545e+001 -1.8138e+002  1.0251e+001 65453 73715,73845,73741
 4.9000e+000 73920 -8.6365e+001 -2.3926e+002  4.4934e+001 65453 73741,73793,73767
 4.9000e+000 73897  1.9634e-001 -1.1755e+002 -2.4125e-001 65453 73715,73871,73845
 4.9000e+000 74357 -6.1987e+001 -2.3998e+002 -6.3074e+001 65141 74380,74138,74086
 4.9000e+000 74334 -1.0895e+002 -3.1686e+002 -4.2044e+001 65141 74380,74086,74060
 4.9000e+000 74311 -1.2327e+002 -3.0962e+002 -1.1563e+001 65141 74138,74190,74164
 4.9000e+000 74288 -9.6260e+001 -3.4296e+002 -1.3596e+001 65141 74060,74216,74190
 4.9000e+000 74265 -1.0170e+002 -3.6128e+002  5.9772e+000 65141 74034,74216,74060
 4.9000e+000 74242 -7.4090e+001 -1.8264e+002 -3.6909e+001 65141 74086,74138,74112
 4.9000e+000 74406 -9.1778e+001 -3.0845e+002 -2.5961e+001 65141 74190,74138,74380
 4.9000e+000 74429 -1.0614e+002 -3.3489e+002 -1.2127e+001 65141 74190,74380,74060
 4.9000e+000 74937 -1.2494e+002 -2.5155e+002 -5.9500e+001 64737 74614,74666,74640
 4.9000e+000 74914 -1.5501e+002 -3.0329e+002 -4.3658e+001 64737 74614,74796,74666
 4.9000e+000 74891 -1.1329e+002 -2.1268e+002 -6.9689e+000 64737 74960,74718,74666
 4.9000e+000 74868 -1.0242e+002 -2.3347e+002 -2.6340e+001 64737 74960,74666,74770
 4.9000e+000 74845 -1.0560e+002 -1.9344e+002 -2.8228e+001 64737 74666,74796,74770
 4.9000e+000 74822 -1.1015e+002 -2.2985e+002  3.9260e+000 64737 74666,74718,74692
 4.9000e+000 74986 -1.1974e+002 -2.3402e+002 -8.7303e+000 64737 74744,74718,74960
 4.9000e+000 75009 -1.1572e+002 -2.6581e+002 -2.8960e+001 64737 74744,74960,74770
 4.9000e+000 75306 -5.9264e+001 -2.1961e+002  3.2880e+001 64133 75329,75110,75084
 4.9000e+000 75283 -7.6607e+001 -2.6144e+002  9.0417e+000 64133 75401,75329,75084
 4.9000e+000 75260 -7.4120e+001 -2.6851e+002  1.1452e+001 64133 75401,75084,75058
 4.9000e+000 75237 -7.6190e+001 -3.1205e+002  3.9619e+001 64133 75473,75136,75110
 4.9000e+000 75214 -7.7756e+001 -2.4484e+002  2.9220e+000 64133 75032,75188,75162
 4.9000e+000 75355 -8.8857e+001 -2.8935e+002  3.0491e+001 64133 75473,75110,75329
 4.9000e+000 75378 -6.7130e+001 -2.5047e+002  2.6512e+000 64133 75162,75329,75032
 4.9000e+000 75427 -6.3587e+001 -2.4171e+002  1.3490e+000 64133 75032,75329,75401
 4.9000e+000 75450 -1.1966e+002 -2.9710e+002  3.0465e+001 64133 75545,75401,75058
 4.9000e+000 75499 -6.7040e+001 -2.8345e+002  1.2534e+001 64133 75162,75136,75473
 4.9000e+000 75522 -7.7651e+001 -2.4505e+002  1.0425e+001 64133 75162,75473,75329
 4.9000e+000 75571 -6.1253e+001 -1.6946e+002  8.0029e+000 64133 75032,75401,75545
 4.9000e+000 75851 -1.0323e+002 -2.4063e+002  5.4817e+000 63843 75874,75753,75727
 4.9000e+000 75828 -9.0089e+001 -2.3699e+002 -1.1638e+001 63843 75946,75874,75727
 4.9000e+000 75805 -1.0052e+002 -2.4958e+002 -6.0348e+000 63843 76018,75946,75727
 4.9000e+000 75900 -8.1531e+001 -2.3147e+002 -7.1382e+000 63843 75779,75753,75874
 4.9000e+000 75923 -8.5334e+001 -1.9917e+002 -2.6396e+001 63843 75779,75874,75675
 4.9000e+000 75972 -1.0102e+002 -2.2587e+002 -9.5819e+000 63843 75675,75874,75946
 4.9000e+000 75995 -9.4169e+001 -2.3471e+002 -1.5401e+001 63843 75675,75946,75701
 4.9000e+000 76044 -1.0204e+002 -2.4323e+002 -1.9948e+001 63843 75701,75946,76018
 4.9000e+000 76454  1.6309e+001 -4.7546e+001 -2.7204e+001 63439 76477,76255,76229
 4.9000e+000 76431 -2.2260e+001 -1.1321e+002 -2.1509e+000 63439 76477,76229,76359
 4.9000e+000 76408 -3.3272e+001 -8.6068e+001  4.8959e+001 63439 76307,76359,76333
 4.9000e+000 76385 -2.0303e+001 -1.1732e+002  7.2567e+000 63439 76255,76307,76281
 4.9000e+000 76503 -2.3102e+001 -9.9131e+001  1.2013e+001 63439 76307,76255,76477
 4.9000e+000 76526 -2.1810e+001 -1.2493e+002  3.0073e+001 63439 76307,76477,76359
 4.9000e+000 76926 -5.4093e+001 -1.6735e+002 -2.7956e+000 63049 76704,76782,76756
 4.9000e+000 76903 -7.8444e+001 -1.7420e+002 -1.6304e+001 63049 76704,76808,76782
 4.9000e+000 76880 -5.6091e+001 -1.9193e+002  2.5848e+000 63049 76704,76756,76730
 4.9000e+000 76857 -4.5966e+001 -1.1287e+002  7.8017e+000 63049 76678,76808,76704
 4.9000e+000 76834 -2.1096e+001 -2.6533e+001 -2.5166e+001 63049 76652,76808,76678
 4.9000e+000 77076 -2.5574e+001 -2.8335e+002 -1.5783e+000 62737 76975,77027,77001
 4.9000e+000 77053 -2.3979e+001 -3.1716e+002 -1.9540e+001 62737 76949,77027,76975
 4.9000e+000 77324 -1.1839e+002 -2.7693e+002 -3.5028e+000 62277 77347,77177,77125
 4.9000e+000 77301 -1.1777e+002 -2.6864e+002 -1.6201e+001 62277 77347,77125,77229
 4.9000e+000 77278 -1.1382e+002 -2.7891e+002 -2.2768e+001 62277 77099,77229,77125
 4.9000e+000 77255 -1.2462e+002 -3.2948e+002  2.5859e+000 62277 77125,77177,77151
 4.9000e+000 77373 -1.2537e+002 -3.0136e+002  5.3546e+000 62277 77203,77177,77347
 4.9000e+000 77396 -1.1092e+002 -2.7993e+002 -9.6220e+000 62277 77203,77347,77229
 4.9000e+000 77857 -6.4493e+001 -3.5212e+002  3.7621e+000 61758 77635,77739,77661
 4.9000e+000 77834 -9.4475e+001 -3.4008e+002 -1.2688e+001 61758 77583,77739,77635
 4.9000e+000 77811 -1.0902e+002 -4.2817e+002 -4.1423e+001 61758 77583,77635,77609
 4.9000e+000 77788 -8.7507e+001 -3.3495e+002  2.6620e+001 61758 77661,77713,77687
 4.9000e+000 77765 -9.2835e+001 -3.8412e+002  2.5557e+001 61758 77661,77739,77713
 4.9000e+000 78491 -9.7891e+001 -1.9059e+002  1.0843e+001 61418 78171,78301,78249
 4.9000e+000 78468 -7.8820e+001 -1.5857e+002  2.3579e+001 61418 78145,78301,78171
 4.9000e+000 78445 -7.4020e+001 -1.6952e+002 -7.8555e+000 61418 78171,78249,78223
 4.9000e+000 78422 -7.7380e+001 -1.5747e+002  8.3220e+000 61418 78145,78327,78301
 4.9000e+000 78399 -1.0195e+002 -2.1379e+002 -6.6682e-001 61418 78249,78301,78275
 4.9000e+000 78376 -4.4810e+001 -1.8375e+002 -1.2597e+001 61418 78171,78223,78197
 4.9000e+000 78353 -8.9704e+001 -2.1053e+002 -5.3949e+000 61418 78119,78327,78145
 4.9000e+000 78690 -9.5152e+001 -2.2128e+002 -1.4406e+000 61014 78713,78566,78540
 4.9000e+000 78667 -6.5859e+001 -2.2727e+002  1.7020e+000 61014 78713,78540,78618
 4.9000e+000 78644 -1.0760e+002 -2.5738e+002 -2.4982e+001 61014 78514,78618,78540
 4.9000e+000 78739 -5.0900e+001 -2.1416e+002  2.2740e+001 61014 78592,78566,78713
 4.9000e+000 78762 -6.4839e+001 -2.3821e+002  1.9687e+000 61014 78785,78713,78618
 4.9000e+000 78811 -2.0078e+001 -2.2098e+002 -3.6589e+000 61014 78592,78713,78785
 4.9000e+000 79398 -4.4298e+001 -1.9820e+002 -1.9251e+001 60624 79101,79179,79153
 4.9000e+000 79375 -5.8775e+001 -2.2118e+002 -9.4896e+000 60624 79101,79231,79179
 4.9000e+000 79352 -4.5036e+001 -2.1958e+002 -1.4880e+001 60624 79075,79231,79101
 4.9000e+000 79329 -1.4600e+001 -2.6209e+002  2.8521e+001 60624 79075,79257,79231
 4.9000e+000 79306 -4.2495e+001 -1.6477e+002 -3.2109e+001 60624 79179,79231,79205
 4.9000e+000 79283 -3.4737e+001 -1.7685e+002 -1.2757e+001 60624 79101,79153,79127
 4.9000e+000 79776 -1.1577e+002 -2.9933e+002  2.5442e+001 60070 79528,79658,79606
 4.9000e+000 79753 -1.0454e+002 -2.3872e+002 -1.1402e-001 60070 79502,79658,79528
 4.9000e+000 79730 -1.4005e+002 -2.8762e+002  3.8473e+001 60070 79528,79606,79580
 4.9000e+000 79707 -4.3338e+001 -2.5832e+002  4.7590e+000 60070 79606,79658,79632
 4.9000e+000 79684 -1.2225e+001 -1.7663e+002 -4.6287e+001 60070 79528,79580,79554
 4.9000e+000 80105 -8.1044e+001 -2.3022e+002  2.8810e+001 59758 80128,79958,79906
 4.9000e+000 80082 -8.5059e+001 -2.1880e+002  2.2798e+001 59758 80128,79906,80010
 4.9000e+000 80059 -1.1482e+002 -2.4387e+002  7.8550e+001 59758 79906,79958,79932
 4.9000e+000 80036 -1.2575e+002 -2.5049e+002  8.9473e+000 59758 79880,80010,79906
 4.9000e+000 80154 -8.3294e+001 -2.3752e+002  2.8620e+001 59758 79984,79958,80128
 4.9000e+000 80177 -8.8972e+001 -2.2890e+002  2.2603e+001 59758 79984,80128,80010
 4.9000e+000 80376 -6.2000e+001 -2.1445e+002  4.4203e+000 59312 80226,80304,80252
 4.9000e+000 80353 -6.2549e+001 -2.2075e+002  3.7778e+000 59312 80200,80304,80226
 4.9000e+000 80330 -9.4898e+001 -1.9505e+002  5.6908e+001 59312 80252,80304,80278
 4.9000e+000 80805 -8.3139e+001 -1.9079e+002 -2.8936e+001 58908 80900,80828,80638
 4.9000e+000 80782 -6.9788e+001 -2.2507e+002 -4.4057e+001 58908 80828,80560,80508
 4.9000e+000 80759 -8.7339e+001 -1.7994e+002 -1.0803e+001 58908 80900,80638,80612
 4.9000e+000 80736 -3.7067e+001 -1.9390e+002  7.8415e+001 58908 80482,80664,80508
 4.9000e+000 80713 -5.7819e+001 -1.6748e+002 -6.3297e+000 58908 80560,80612,80586
 4.9000e+000 80690 -7.9405e+001 -5.5873e+002 -1.0612e+002 58908 80508,80560,80534
 4.9000e+000 80854 -3.9100e+001 -2.0601e+002  9.6663e-001 58908 80664,80638,80828
 4.9000e+000 80877 -6.6590e+001 -2.9592e+002  5.1243e+000 58908 80664,80828,80508
 4.9000e+000 80926 -7.0706e+001 -1.5805e+002 -3.1662e+001 58908 80560,80828,80900
 4.9000e+000 80949 -7.9743e+001 -1.5834e+002 -1.0984e+001 58908 80560,80900,80612
 4.9000e+000 81246 -3.6756e+001 -1.8482e+002 -4.7430e+000 58482 81076,81128,81102
 4.9000e+000 81223 -8.7300e+001 -3.1475e+002 -3.1021e+001 58482 80972,81128,81076
 4.9000e+000 81200 -5.6984e+001 -2.1496e+002 -3.3218e+001 58482 80972,81076,81050
 4.9000e+000 81177 -1.2176e+002 -3.2364e+002 -9.8845e+000 58482 80998,81050,81024
 4.9000e+000 81154 -6.9513e+001 -2.6791e+002 -3.1839e+001 58482 80972,81050,80998
 4.9000e+000 81754 -9.4405e+001 -1.9188e+002  1.3821e+001 57828 81457,81613,81483
 4.9000e+000 81731 -1.0603e+002 -2.1322e+002  6.1180e+000 57828 81431,81613,81457
 4.9000e+000 81708 -1.0197e+002 -2.0953e+002  1.5767e+001 57828 81483,81613,81509
 4.9000e+000 81685 -1.2014e+002 -2.3621e+002  2.3778e+001 57828 81509,81613,81587
 4.9000e+000 81662 -1.2648e+002 -3.4918e+002  4.8904e+001 57828 81509,81587,81535
 4.9000e+000 81639 -7.3494e+001 -3.2994e+002  3.0792e+001 57828 81535,81587,81561
 4.9000e+000 82002 -1.4186e+002 -3.4185e+002 -5.2143e-001 57374 82025,81855,81829
 4.9000e+000 81979 -1.5095e+002 -3.2260e+002  1.5439e+001 57374 82025,81829,81907
 4.9000e+000 81956 -1.5594e+002 -3.0203e+002  9.6428e+000 57374 81803,81907,81829
 4.9000e+000 81933 -8.8842e+001 -2.7359e+002  1.6290e+001 57374 81777,81907,81803
 4.9000e+000 82051 -1.3825e+002 -3.1884e+002 -2.8916e+000 57374 81881,81855,82025
 4.9000e+000 82074 -1.4533e+002 -3.0286e+002  1.8242e+001 57374 81881,82025,81907
 4.9000e+000 82356 -8.1801e+001 -1.9349e+002 -1.2012e+001 56913 82180,82232,82206
 4.9000e+000 82333 -7.2007e+001 -1.8606e+002  1.7282e+001 56913 82180,82284,82232
 4.9000e+000 82310 -2.4430e+001 -1.4763e+002  3.5569e+001 56913 82379,82232,82284
 4.9000e+000 82405  2.3279e+001 -1.4283e+002  4.6315e+000 56913 82258,82232,82379
 4.9000e+000 82764 -8.1308e+001 -1.3136e+002 -1.3418e+001 56523 82614,82666,82640
 4.9000e+000 82741 -6.8695e+001 -1.3001e+002 -1.9959e+001 56523 82614,82692,82666
 4.9000e+000 82718 -5.8492e+001 -1.3880e+002 -3.9661e+001 56523 82588,82692,82614
 4.9000e+000 83368 -1.7062e+001 -2.2295e+002 -1.0673e+001 55969 82973,83155,83129
 4.9000e+000 83345  1.8497e+000 -2.1565e+002 -1.5026e+001 55969 82973,83181,83155
 4.9000e+000 83322 -5.8313e+001 -1.9636e+002 -8.9182e+000 55969 82973,83129,82999
 4.9000e+000 83299 -9.4456e+001 -2.0206e+002  3.8629e+000 55969 83391,83025,82999
 4.9000e+000 83276 -8.1590e+001 -2.0895e+002 -6.2686e-001 55969 83391,82999,83129
 4.9000e+000 83253 -1.5804e+001 -1.7561e+002  3.7939e+001 55969 83077,83129,83103
 4.9000e+000 83230 -1.0137e+002 -1.6464e+002 -8.7094e+000 55969 83025,83077,83051
 4.9000e+000 83207 -1.3578e+000 -2.0732e+002  1.9699e+001 55969 82947,83181,82973
 4.9000e+000 83417 -8.2243e+001 -1.9444e+002  8.1174e+000 55969 83077,83025,83391
 4.9000e+000 83440 -7.7904e+001 -2.0472e+002  1.6599e+000 55969 83077,83391,83129
 4.9000e+000 83946 -1.5467e+002 -3.4425e+002  5.3633e+001 55771 83969,83779,83727
 4.9000e+000 83923 -1.2187e+002 -2.7714e+002  3.4732e+001 55771 83969,83727,83623
 4.9000e+000 83900 -1.4917e+002 -1.4519e+002  2.0517e+001 55771 83623,83727,83649
 4.9000e+000 83877 -1.2190e+002 -5.9616e+002  2.3889e+001 55771 83727,83779,83753
 4.9000e+000 83854 -2.2617e+002 -2.5166e+002  8.1635e+001 55771 83675,83727,83701
 4.9000e+000 83831 -2.3025e+002 -2.3016e+002  9.2535e+001 55771 83649,83727,83675
 4.9000e+000 83995 -1.4692e+002 -3.5917e+002 -3.1234e+001 55771 83805,83779,83969
 4.9000e+000 84018 -7.8709e+001 -2.2501e+002 -5.7148e+001 55771 83805,83969,83623
 4.9000e+000 84168 -7.3028e+001 -1.7095e+002 -4.8297e+000 55367 84191,84067,84041
 4.9000e+000 84145 -7.0284e+001 -1.9469e+002 -3.3167e+000 55367 84191,84041,84119
 4.9000e+000 84217 -7.6347e+001 -1.5846e+002 -4.1448e+000 55367 84093,84067,84191
 4.9000e+000 84240 -6.4341e+001 -1.7109e+002  4.1394e+000 55367 84093,84191,84119
 4.9000e+000 84571 -3.7658e+001 -2.6429e+002 -2.6541e+001 54913 84398,84450,84424
 4.9000e+000 84548 -3.1466e+001 -2.4251e+002 -1.3566e+001 54913 84372,84450,84398
 4.9000e+000 84525 -6.4209e+001 -2.7138e+002  9.0986e+000 54913 84346,84450,84372
 4.9000e+000 84502 -2.3161e+001 -1.7714e+002 -2.2899e+001 54913 84346,84476,84450
 4.9000e+000 85126 -1.3557e+002 -2.9605e+002 -1.2360e+001 54402 84858,84936,84910
 4.9000e+000 85103 -1.0582e+002 -2.3353e+002 -2.6799e+001 54402 84806,84936,84858
 4.9000e+000 85080 -1.2762e+002 -2.1296e+002 -2.0641e+001 54402 84780,84936,84806
 4.9000e+000 85057 -1.0521e+002 -2.5946e+002 -1.0867e+001 54402 84806,84858,84832
 4.9000e+000 85034 -1.1560e+002 -2.0121e+002  9.5607e+000 54402 84780,84962,84936
 4.9000e+000 85011 -1.5852e+002 -1.7641e+002 -5.4026e+000 54402 84858,84910,84884
 4.9000e+000 84988 -1.1251e+002 -2.0055e+002  1.2452e+001 54402 84754,84962,84780
 4.9000e+000 85396 -1.0662e+002 -1.2984e+002 -8.4782e+000 53998 85197,85249,85223
 4.9000e+000 85373 -8.2972e+001 -1.6338e+002 -1.8123e+000 53998 85197,85275,85249
 4.9000e+000 85350 -1.0469e+002 -1.9369e+002 -1.1940e+001 53998 85171,85275,85197
 4.9000e+000 85327 -5.0702e+001 -1.8125e+002 -1.4331e+001 53998 85171,85301,85275
 4.9000e+000 85749 -6.1419e+001 -2.0966e+002 -4.9935e+000 53636 85524,85628,85550
 4.9000e+000 85726 -9.5636e+001 -2.3431e+002  7.1174e+000 53636 85524,85654,85628
 4.9000e+000 85703 -3.5670e+001 -2.2269e+002 -2.1692e+001 53636 85550,85602,85576
 4.9000e+000 85680 -5.9147e+001 -2.0726e+002 -1.0628e+001 53636 85550,85628,85602
 4.9000e+000 86127 -2.5232e+001 -2.1248e+002  3.2753e+001 52982 86150,85957,85879
 4.9000e+000 86104 -7.5493e+001 -2.4592e+002  1.8217e+001 52982 86150,85879,85853
 4.9000e+000 86081 -2.1360e+001 -3.0688e+002  6.1063e+001 52982 85957,86009,85983
 4.9000e+000 86058 -9.0255e+001 -2.2837e+002  2.7348e+001 52982 85879,85957,85931
 4.9000e+000 86035 -5.6902e+001 -2.1557e+002 -9.1510e+000 52982 85879,85931,85905
 4.9000e+000 86176  6.2882e+000 -2.5040e+002  2.6248e+001 52982 86009,85957,86150
 4.9000e+000 86199 -2.3434e+001 -2.7150e+002  1.6039e+001 52982 86009,86150,85853
 4.9000e+000 86398 -5.0446e+001 -1.7288e+002  1.8187e+001 52542 86421,86248,86222
 4.9000e+000 86375 -9.1787e+001 -1.7580e+002 -1.1603e+000 52542 86421,86222,86300
 4.9000e+000 86352 -9.1903e+001 -1.9278e+002 -8.8113e+000 52542 86222,86326,86300
 4.9000e+000 86447 -9.0133e+000 -1.7314e+002  3.3972e+001 52542 86274,86248,86421
 4.9000e+000 86470 -4.7845e+001 -1.8181e+002  9.6130e+000 52542 86274,86421,86300
 4.9000e+000 86669 -8.4696e+001 -1.7986e+002 -3.0016e+001 52230 86692,86571,86545
 4.9000e+000 86646 -8.2843e+001 -1.7261e+002 -1.8489e+001 52230 86692,86545,86519
 4.9000e+000 86623 -1.1113e+002 -1.7667e+002 -2.5615e+001 52230 86493,86597,86519
 4.9000e+000 86718 -9.0571e+001 -1.8292e+002 -3.2813e+001 52230 86597,86571,86692
 4.9000e+000 86741 -9.6595e+001 -1.7906e+002 -2.1847e+001 52230 86597,86692,86519
 4.9000e+000 87153 -1.1382e+002 -1.7951e+002  6.6863e+000 51640 86980,87058,87032
 4.9000e+000 87130 -1.1305e+002 -1.8374e+002  4.9912e+000 51640 86928,87058,86980
 4.9000e+000 87107 -1.1972e+002 -2.4842e+002 -1.2341e+001 51640 86928,86980,86954
 4.9000e+000 87084 -6.1114e+001 -1.5712e+002 -2.0536e+000 51640 86980,87032,87006
 4.9000e+000 87659 -5.3932e+001 -1.6116e+002  4.2467e+000 51029 87682,87440,87362
 4.9000e+000 87636 -4.6628e+001 -1.7023e+002 -1.6807e+001 51029 87682,87362,87336
 4.9000e+000 87613 -7.6817e+001 -2.3780e+002 -4.6857e+000 51029 87440,87518,87466
 4.9000e+000 87590 -8.4286e+001 -1.6171e+002  6.4059e+000 51029 87362,87440,87414
 4.9000e+000 87567 -6.9758e+001 -1.2334e+002  2.8441e+001 51029 87362,87414,87388
 4.9000e+000 87544 -1.0489e+002 -2.1171e+002  7.5939e+000 51029 87466,87518,87492
 4.9000e+000 87708 -5.2941e+001 -1.7946e+002 -1.3274e+000 51029 87518,87440,87682
 4.9000e+000 87731 -5.0999e+001 -2.0693e+002 -1.4576e+001 51029 87518,87682,87336
 4.9000e+000 87881 -1.0543e+002 -2.2848e+002  6.9985e+000 50739 87780,87832,87806
 4.9000e+000 87858 -1.2228e+002 -2.3251e+002 -1.0441e+001 50739 87754,87832,87780
 4.9000e+000 88468 -6.4718e+001 -1.5167e+002  5.6584e+000 50235 88171,88327,88197
 4.9000e+000 88445 -1.4150e+002 -1.5155e+002 -2.3789e+001 50235 88145,88327,88171
 4.9000e+000 88422  3.1143e-001 -7.8183e+001 -2.7589e-001 50235 88275,88327,88301
 4.9000e+000 88399 -4.5101e+001 -9.7640e+001 -6.4356e-001 50235 88197,88327,88275
 4.9000e+000 88376 -2.4757e+001 -1.3926e+002 -2.0215e+000 50235 88197,88275,88223
 4.9000e+000 88353 -2.6365e+001 -1.8438e+002 -1.8653e+001 50235 88223,88275,88249
 4.9000e+000 88895 -1.0238e+002 -2.4346e+002  5.7875e+000 49873 88918,88728,88676
 4.9000e+000 88872 -8.7470e+001 -2.2654e+002 -3.9157e+000 49873 88918,88676,88624
 4.9000e+000 88849 -6.9378e+001 -2.0392e+002 -9.4280e+000 49873 88598,88754,88624
 4.9000e+000 88826 -5.4359e+001 -2.1328e+002 -5.1960e+000 49873 88624,88676,88650
 4.9000e+000 88803 -8.6490e+001 -2.9615e+002  8.1787e+000 49873 88676,88728,88702
 4.9000e+000 88780 -8.5379e+001 -2.1052e+002 -1.1734e+001 49873 88572,88754,88598
 4.9000e+000 88944 -8.4408e+001 -2.4178e+002 -4.9329e+000 49873 88754,88728,88918
 4.9000e+000 88967 -7.8656e+001 -2.3565e+002 -1.2874e+001 49873 88754,88918,88624
 4.9000e+000 89473 -1.4418e+002 -2.2793e+002 -2.6873e+001 49583 89176,89306,89202
 4.9000e+000 89450 -1.4411e+002 -2.2350e+002 -3.7371e+001 49583 89176,89332,89306
 4.9000e+000 89427 -8.4723e+001 -2.4900e+002  1.1762e+001 49583 89496,89228,89202
 4.9000e+000 89404 -8.5768e+001 -2.5443e+002  1.3943e+001 49583 89496,89202,89280
 4.9000e+000 89381 -1.7747e+002 -3.1734e+002 -5.4340e+001 49583 89202,89306,89280
 4.9000e+000 89358 -1.1188e+002 -2.2544e+002 -4.3189e+001 49583 89150,89332,89176
 4.9000e+000 89522 -8.0803e+001 -2.1249e+002  6.4996e+000 49583 89254,89228,89496
 4.9000e+000 89545 -9.8473e+001 -2.4357e+002  1.3598e+001 49583 89254,89496,89280
 4.9000e+000 89825  1.4573e+001 -2.2746e+002  1.0911e+001 49179 89701,89753,89727
 4.9000e+000 89802 -3.5667e+001 -2.0522e+002  1.4731e+001 49179 89675,89753,89701
 4.9000e+000 89779 -2.6247e+001 -1.8084e+002  1.1799e+001 49179 89848,89753,89675
 4.9000e+000 89874 -1.2449e+002 -2.1257e+002 -1.4982e+001 49179 89649,89753,89848
 4.9000e+000 90223 -7.5937e+001 -2.2270e+002 -2.5096e+001 48739 90024,90102,90076
 4.9000e+000 90200 -7.3734e+001 -2.1031e+002 -9.6676e+000 48739 90024,90128,90102
 4.9000e+000 90177 -3.2677e+000 -2.1601e+002 -2.6755e+001 48739 90024,90076,90050
 4.9000e+000 90154 -2.7462e+001 -2.0162e+002  1.5049e+001 48739 89998,90128,90024
 4.9000e+000 90603 -6.8343e+001 -1.7609e+002  3.8734e+001 48335 90381,90485,90459
 4.9000e+000 90580 -9.0768e+001 -2.0966e+002  2.8490e+001 48335 90355,90485,90381
 4.9000e+000 90557 -3.5710e+001 -7.0789e+001  1.8540e+001 48335 90381,90433,90407
 4.9000e+000 90534 -6.7032e+001 -1.8501e+002  2.7536e+001 48335 90381,90459,90433
 4.9000e+000 90511  2.4937e+001 -1.4530e+002  5.5910e+001 48335 90329,90485,90355
 4.9000e+000 90753 -2.1476e+000 -1.1536e+002  6.9881e+001 47824 90776,90652,90704
 4.9000e+000 90730 -5.9955e+001 -2.0098e+002  3.2903e+001 47824 90626,90704,90652
 4.9000e+000 90802 -2.7637e+001 -1.5063e+002  5.6014e+001 47824 90678,90652,90776
 4.9000e+000 91131 -7.4291e+001 -2.4926e+002  1.2616e+001 47427 91154,90958,90906
 4.9000e+000 91108 -1.3262e+002 -2.7301e+002  5.8637e-002 47427 91154,90906,91036
 4.9000e+000 91085 -1.2820e+002 -2.1732e+002 -1.9676e+001 47427 90958,91010,90984
 4.9000e+000 91062 -7.2009e+001 -2.2621e+002  1.3907e+001 47427 90906,90958,90932
 4.9000e+000 91180 -1.0879e+002 -2.4854e+002 -2.5660e+001 47427 91010,90958,91154
 4.9000e+000 91203 -1.6520e+002 -2.7301e+002 -3.9239e+001 47427 91010,91154,91036
 4.9000e+000 91583 -1.2578e+002 -2.3631e+002 -1.2970e+001 46873 91309,91439,91335
 4.9000e+000 91560 -1.3166e+002 -2.3726e+002 -1.0972e+001 46873 91309,91465,91439
 4.9000e+000 91537 -1.8673e+002 -2.7392e+002 -6.8011e+001 46873 91361,91439,91413
 4.9000e+000 91514 -1.4106e+002 -2.4656e+002 -3.6700e+001 46873 91335,91439,91361
 4.9000e+000 91491 -6.4372e+001 -2.3201e+002 -6.1067e+001 46873 91361,91413,91387
 4.9000e+000 91880 -7.7433e+001 -2.4819e+002 -6.3275e+000 46526 91606,91710,91658
 4.9000e+000 91857 -8.2622e+001 -2.6221e+002  2.5736e+000 46526 91606,91762,91710
 4.9000e+000 91834 -4.5871e+001 -2.3813e+002 -2.9489e+001 46526 91606,91658,91632
 4.9000e+000 91811 -9.4191e+001 -2.3035e+002  4.4538e+000 46526 91658,91710,91684
 4.9000e+000 91788 -5.2630e+001 -1.7795e+002  6.3558e+000 46526 91710,91762,91736
 4.9000e+000 92211 -4.2126e+001 -9.8597e+001 -8.3652e+000 45700 91986,92064,92038
 4.9000e+000 92188 -5.6783e+001 -1.4995e+002  8.3104e-001 45700 91986,92116,92064
 4.9000e+000 92165 -3.2811e+001 -8.4751e+001 -1.9444e+001 45700 91986,92038,92012
 4.9000e+000 92142 -3.7407e+001 -1.6348e+002  2.0141e+001 45700 92064,92116,92090
 4.9000e+000 92766 -1.1062e+002 -2.1337e+002  1.2696e+001 45452 92446,92602,92576
 4.9000e+000 92743 -1.6379e+002 -2.0643e+002 -1.9700e+001 45452 92420,92602,92446
 4.9000e+000 92720 -1.2766e+002 -2.2271e+002  3.5266e+001 45452 92789,92524,92498
 4.9000e+000 92697 -1.4648e+002 -2.1794e+002  2.9422e+001 45452 92789,92498,92446
 4.9000e+000 92674 -1.2552e+002 -2.3675e+002 -1.1321e+000 45452 92524,92576,92550
 4.9000e+000 92651 -1.9279e+002 -2.2388e+002  1.1994e+002 45452 92446,92498,92472
 4.9000e+000 92628 -1.1384e+002 -2.7324e+002 -6.8323e+001 45452 92394,92602,92420
 4.9000e+000 92815 -1.1436e+002 -2.2456e+002  3.0151e+001 45452 92576,92524,92789
 4.9000e+000 92838 -1.2926e+002 -2.1690e+002  2.6755e+001 45452 92576,92789,92446
 4.9000e+000 92939 -9.3126e+001 -2.9205e+002 -5.9519e+001 44998 92861,92913,92887
 4.9000e+000 93319 -1.9194e+001 -2.9741e+002  5.6240e+001 44601 93123,93201,93149
 4.9000e+000 93296 -8.1714e+001 -2.9949e+002 -2.9703e+001 44601 93045,93201,93123
 4.9000e+000 93273 -6.5318e+001 -1.7116e+002 -4.1895e+001 44601 93045,93123,93071
 4.9000e+000 93250 -6.1095e+001 -1.5891e+002 -2.7200e+001 44601 93071,93123,93097
 4.9000e+000 93227 -5.2745e+000 -1.6541e+002  6.0380e+001 44601 93149,93201,93175
 4.9000e+000 93697 -6.3385e+001 -3.2483e+002  1.7208e+001 44026 93720,93553,93527
 4.9000e+000 93674 -1.1155e+002 -2.7592e+002  2.3910e+001 44026 93720,93527,93449
 4.9000e+000 93651 -1.2300e+002 -2.8515e+002 -4.1359e+000 44026 93449,93527,93501
 4.9000e+000 93628 -8.9969e+001 -2.2090e+002 -4.8191e+001 44026 93423,93579,93449
 4.9000e+000 93605 -2.7850e+001 -2.2681e+002  2.0681e+001 44026 93449,93501,93475
 4.9000e+000 93746 -2.9358e+001 -2.8859e+002  3.1996e+000 44026 93579,93553,93720
 4.9000e+000 93769 -8.0117e+001 -2.4057e+002  1.0641e+001 44026 93579,93720,93449
 4.9000e+000 94066 -6.3589e+001 -2.5475e+002 -3.4823e+001 43579 94089,93818,93792
 4.9000e+000 94043 -1.0369e+002 -2.8109e+002 -2.3018e+001 43579 94161,94089,93792
 4.9000e+000 94020 -1.0205e+002 -2.8221e+002 -1.3314e+001 43579 94161,93792,93948
 4.9000e+000 93997 -1.1023e+002 -2.2563e+002 -1.1712e+001 43579 94233,93870,93818
 4.9000e+000 93974 -6.2729e+001 -2.3358e+002  7.2548e+000 43579 93818,93870,93844
 4.9000e+000 94115 -1.0739e+002 -2.2750e+002 -2.5815e+001 43579 94233,93818,94089
 4.9000e+000 94138 -1.4140e+002 -2.5476e+002 -1.6554e+001 43579 93896,94089,93922
 4.9000e+000 94187 -9.7356e+001 -2.6658e+002 -2.2188e+001 43579 93922,94089,94161
 4.9000e+000 94210 -9.4800e+001 -2.6619e+002 -1.1591e+001 43579 93922,94161,93948
 4.9000e+000 94259 -1.2685e+002 -2.5248e+002 -3.9496e+000 43579 93896,93870,94233
 4.9000e+000 94282 -1.1670e+002 -2.4755e+002 -2.0170e+001 43579 93896,94233,94089
 4.9000e+000 94481 -8.4930e+001 -2.6327e+002 -1.4309e+000 43239 94305,94383,94357
 4.9000e+000 94458 -7.3241e+001 -2.4087e+002  3.0145e+001 43239 94305,94409,94383
 4.9000e+000 94435 -6.4427e+001 -2.7939e+002 -6.8290e+000 43239 94305,94357,94331
 4.9000e+000 94633 -3.1205e+001 -1.6589e+002  3.8664e+001 42827 94656,94532,94506
 4.9000e+000 94610 -6.9952e+001 -1.8361e+002  4.2827e+001 42827 94728,94656,94506
 4.9000e+000 94682 -3.8949e+001 -1.9034e+002  3.2986e+001 42827 94558,94532,94656
 4.9000e+000 94705 -1.5826e+001 -1.8774e+002  2.0102e+001 42827 94988,94860,94656
 4.9000e+000 94754 -4.0898e+001 -1.6904e+002  1.3619e+001 42827 94988,94656,94728
 4.9000e+000 94886  6.5718e+000 -1.7708e+002  2.3181e+001 42827 94558,94656,94860
 4.9000e+000 95014  5.1921e+000 -1.7162e+002  1.3054e+001 42827 94584,94860,94988
 4.9000e+000 95037 -1.6507e+001 -1.5439e+002  6.8045e+000 42827 94584,94988,94728
 4.9000e+000 95236 -3.5944e+001 -2.0544e+002  2.7125e+001 42537 95259,95112,95060
 4.9000e+000 95213 -4.4584e+001 -1.9765e+002  2.3909e+001 42537 95259,95060,95164
 4.9000e+000 95190 -1.8908e+001 -2.1104e+002 -3.4760e+000 42537 95060,95112,95086
 4.9000e+000 95285 -4.1724e+001 -2.0885e+002  2.3705e+001 42537 95138,95112,95259
 4.9000e+000 95308 -5.1377e+001 -2.0474e+002  1.9213e+001 42537 95138,95259,95164
 4.9000e+000 95816 -9.1524e+001 -2.5404e+002 -1.7429e+001 41969 95493,95597,95519
 4.9000e+000 95793 -1.3498e+002 -2.4095e+002  2.1592e+001 41969 95493,95649,95597
 4.9000e+000 95770 -1.0189e+002 -2.2683e+002  1.8783e+001 41969 95493,95675,95649
 4.9000e+000 95747 -1.0928e+002 -3.0969e+002  1.8353e+001 41969 95597,95649,95623
 4.9000e+000 95724 -1.4485e+002 -2.3429e+002 -2.8651e+001 41969 95519,95597,95571
 4.9000e+000 95701 -1.2758e+002 -2.0386e+002 -5.8338e+001 41969 95519,95571,95545
 4.9000e+000 96371 -1.1314e+002 -2.7028e+002  3.3063e+001 41579 96025,96207,96181
 4.9000e+000 96348  3.2660e+001 -2.0391e+002 -8.9155e+000 41579 95999,96207,96025
 4.9000e+000 96325 -1.2794e+002 -2.0871e+002 -2.2412e+001 41579 96129,96181,96155
 4.9000e+000 96302 -4.8390e+001 -1.8988e+002  1.6386e+000 41579 96025,96181,96129
 4.9000e+000 96279 -1.0398e+002 -2.7853e+002  3.7478e+001 41579 96025,96129,96051
 4.9000e+000 96256 -1.2379e+002 -2.6916e+002  4.1588e+001 41579 96051,96103,96077
 4.9000e+000 96233 -4.7098e+001 -2.0267e+002  4.8538e+000 41579 96051,96129,96103
 4.9000e+000 96877 -2.9491e+001 -1.7253e+002 -1.9510e+001 41182 96972,96900,96632
 4.9000e+000 96854 -3.7166e+001 -1.2966e+002 -2.0540e+001 41182 96900,96554,96736
 4.9000e+000 96831 -2.8306e+001 -1.7207e+002 -1.7089e+001 41182 96972,96632,96580
 4.9000e+000 96808 -3.7714e+001 -1.6249e+002  1.6632e+001 41182 96632,96684,96658
 4.9000e+000 96785 -6.6923e+001 -1.7684e+002  2.0774e+001 41182 96684,96736,96710
 4.9000e+000 96762 -9.9650e+001 -2.1954e+002  3.5731e+001 41182 96580,96632,96606
 4.9000e+000 96926 -2.7355e+001 -1.9127e+002 -1.9367e+001 41182 96684,96632,96900
 4.9000e+000 96949 -5.4746e+001 -1.7029e+002 -3.3809e+001 41182 96684,96900,96736
 4.9000e+000 96998 -3.4072e+001 -1.7503e+002 -2.1803e+001 41182 96554,96900,96972
 4.9000e+000 97021 -3.2875e+001 -1.7331e+002 -1.9085e+001 41182 96554,96972,96580
 4.9000e+000 97576 -1.5416e+002 -3.8405e+002 -5.3316e+001 40678 97230,97412,97282
 4.9000e+000 97553 -1.6439e+001 -3.1570e+002  1.5694e+001 40678 97204,97412,97230
 4.9000e+000 97530 -4.4420e+001 -2.9284e+002 -4.7193e+001 40678 97282,97360,97308
 4.9000e+000 97507 -6.8989e+001 -2.9844e+002 -1.8825e+001 40678 97282,97412,97360
 4.9000e+000 97484 -2.0177e+001 -1.7765e+002 -4.1238e+001 40678 97308,97360,97334
 4.9000e+000 97461 -8.9530e+001 -3.5859e+002 -1.0093e+001 40678 97360,97412,97386
 4.9000e+000 97438 -8.7093e+001 -2.4360e+002 -3.2857e+001 40678 97230,97282,97256
 4.9000e+000 97976 -1.2059e+002 -2.0311e+002 -4.9437e+000 40244 97702,97832,97754
 4.9000e+000 97953 -1.0107e+002 -1.9519e+002 -1.0383e+001 40244 97702,97858,97832
 4.9000e+000 97930 -1.2941e+002 -2.3876e+002 -5.0965e+001 40244 97702,97754,97728
 4.9000e+000 97907 -1.0126e+002 -2.2362e+002  2.4408e+001 40244 97780,97832,97806
 4.9000e+000 97884 -1.0989e+002 -1.9664e+002 -1.4972e+000 40244 97754,97832,97780
 4.9000e+000 98482 -6.6430e+001 -1.9095e+002  3.0520e+001 39690 98505,98185,98159
 4.9000e+000 98459 -6.8355e+001 -1.8503e+002  2.9402e+001 39690 98505,98159,98289
 4.9000e+000 98436 -1.2898e+002 -2.7582e+002  7.5030e+001 39690 98159,98315,98289
 4.9000e+000 98413 -5.2397e+001 -1.7189e+002  2.6811e+001 39690 98211,98289,98263
 4.9000e+000 98390 -3.0951e+001 -1.1053e+002  1.6252e+001 39690 98211,98263,98237
 4.9000e+000 98367 -3.4171e+001 -1.7267e+002  2.7713e+001 39690 98159,98341,98315
 4.9000e+000 98531 -6.7249e+001 -1.8761e+002  2.6839e+001 39690 98211,98185,98505
 4.9000e+000 98554 -6.7739e+001 -1.7845e+002  2.6793e+001 39690 98211,98505,98289
 4.9000e+000 99109 -6.5104e+001 -1.7093e+002 -1.0449e+001 39072 99132,98867,98789
 4.9000e+000 99086 -6.2105e+001 -1.7708e+002 -1.5759e+001 39072 99132,98789,98763
 4.9000e+000 99063 -9.7732e+001 -2.8279e+002  3.0833e+001 39072 98867,98945,98919
 4.9000e+000 99040 -5.5972e+001 -1.8156e+002 -1.8330e+000 39072 98789,98867,98841
 4.9000e+000 99017 -1.2931e+002 -2.0494e+002  8.9306e+000 39072 98867,98919,98893
 4.9000e+000 98994 -9.0573e+001 -1.6816e+002  3.5732e+001 39072 98789,98841,98815
 4.9000e+000 98971 -9.2396e+001 -2.0209e+002 -1.2888e+001 39072 98737,98945,98763
 4.9000e+000 99158 -6.3402e+001 -1.7874e+002 -1.1559e+001 39072 98945,98867,99132
 4.9000e+000 99181 -6.2734e+001 -1.8984e+002 -1.3721e+001 39072 98945,99132,98763
 4.9000e+000 99510 -5.5346e+001 -1.5912e+002  1.0778e+001 38668 99311,99389,99363
 4.9000e+000 99487 -4.7081e+001 -1.6632e+002 -4.8982e+000 38668 99285,99389,99311
 4.9000e+000 99464 -1.0599e+002 -2.2993e+002  2.0295e+001 38668 99285,99415,99389
 4.9000e+000 99441 -4.9496e+001 -1.7076e+002  1.7142e+001 38668 99311,99363,99337
 4.9000e+000 99758 -6.3410e+001 -2.5556e+002  4.1079e+001 38164 99781,99611,99585
 4.9000e+000 99735 -2.6329e+001 -2.6242e+002  4.5331e+001 38164 99781,99585,99533
 4.9000e+000 99712 -9.5334e+001 -2.4155e+002  2.9597e+001 38164 99611,99663,99637
 4.9000e+000 99689  1.1483e+001 -2.5233e+002 -1.6009e+001 38164 99533,99585,99559
 4.9000e+000 99807 -8.4632e+001 -2.5446e+002  5.1441e+001 38164 99663,99611,99781
 4.9000e+000 99830 -5.6396e+001 -2.6558e+002  4.9896e+001 38164 99663,99781,99533
 4.9000e+000 100232 -7.4498e+001 -1.9434e+002  2.7162e+000 37702 99984,100114,100088
 4.9000e+000 100209 -5.9131e+001 -2.0743e+002  2.1097e+001 37702 99958,100114,99984
 4.9000e+000 100186 -1.0866e+002 -2.4061e+002 -1.4771e+001 37702 100010,100088,100036
 4.9000e+000 100163 -7.4322e+001 -1.9460e+002  3.0997e-001 37702 99984,100088,100010
 4.9000e+000 100140 -6.3869e+001 -1.7617e+002 -5.0384e+001 37702 100036,100088,100062
 4.9000e+000 100640 -1.5696e+002 -2.2536e+002  2.8250e+001 37262 100493,100545,100519
 4.9000e+000 100617 -1.4100e+002 -2.5506e+002  1.3797e+001 37262 100441,100545,100493
 4.9000e+000 100594 -5.7699e+001 -1.9132e+002 -3.4595e+001 37262 100415,100545,100441
 4.9000e+000 100571 -1.5744e+002 -2.7074e+002 -1.1365e+001 37262 100441,100493,100467
 4.9000e+000 101146 -1.1159e+002 -1.8817e+002 -1.2061e+000 36872 100823,100979,100849
 4.9000e+000 101123 -1.0847e+002 -1.7457e+002 -1.7507e+001 36872 100823,101005,100979
 4.9000e+000 101100 -1.1508e+002 -2.7153e+002  3.7009e+001 36872 101169,100901,100849
 4.9000e+000 101077 -8.8434e+001 -2.1559e+002  1.9704e+001 36872 101169,100849,100979
 4.9000e+000 101054 -6.2633e+001 -2.2579e+002 -1.4699e+001 36872 100927,100979,100953
 4.9000e+000 101031 -6.2717e+001 -3.0710e+002  5.1679e+001 36872 100849,100901,100875
 4.9000e+000 101195 -7.9101e+001 -2.8791e+002  2.0174e+000 36872 100927,100901,101169
 4.9000e+000 101218 -6.2875e+001 -2.5831e+002 -1.1929e+001 36872 100927,101169,100979
 4.9000e+000 101773 -1.2771e+002 -2.0272e+002  3.8356e+001 36418 101479,101609,101583
 4.9000e+000 101750 -1.3136e+002 -2.1463e+002  3.8647e+001 36418 101453,101609,101479
 4.9000e+000 101727 -8.8458e+001 -2.1618e+002 -1.6596e+000 36418 101796,101531,101479
 4.9000e+000 101704 -1.2339e+002 -2.4048e+002  1.6104e+001 36418 101796,101479,101583
 4.9000e+000 101681 -7.6021e+001 -1.8595e+002 -6.2517e+000 36418 101479,101531,101505
 4.9000e+000 101658 -3.4506e+000 -1.9189e+002  3.8985e+000 36418 101401,101609,101453
 4.9000e+000 101635 -3.8162e+001 -1.9196e+002  1.4938e+000 36418 101401,101453,101427
 4.9000e+000 101822 -9.6611e+001 -1.9823e+002 -3.4818e+001 36418 101557,101531,101796
 4.9000e+000 101845 -1.3666e+002 -2.0667e+002 -1.8716e+001 36418 101557,101796,101583
 4.9000e+000 102174 -1.2555e+001 -9.5686e+001 -2.5805e+001 35914 101949,102053,101975
 4.9000e+000 102151 -4.6598e+001 -9.8096e+001 -2.0036e+001 35914 101949,102079,102053
 4.9000e+000 102128 -4.9825e+001 -1.1339e+002 -1.2538e+001 35914 101975,102053,102027
 4.9000e+000 102105 -3.1686e+001 -8.4659e+001 -2.0284e+001 35914 101975,102027,102001
 4.9000e+000 102631 -4.2603e+001 -2.2191e+002  7.9554e+000 35574 102383,102513,102487
 4.9000e+000 102608 -3.1641e+001 -2.3178e+002  6.4787e+000 35574 102357,102513,102383
 4.9000e+000 102585 -7.3841e+001 -2.2930e+002  8.8019e+000 35574 102409,102487,102435
 4.9000e+000 102562 -7.6996e+001 -2.3489e+002  6.0603e+000 35574 102383,102487,102409
 4.9000e+000 102539 -7.3742e+001 -2.3165e+002  1.0078e+001 35574 102435,102487,102461
 4.9000e+000 103009 -1.1786e+002 -2.1765e+002 -1.5306e+001 35170 102761,102865,102787
 4.9000e+000 102986 -7.1067e+001 -1.9156e+002  2.0502e+001 35170 102761,102891,102865
 4.9000e+000 102963 -1.0386e+002 -2.1010e+002 -5.5258e+000 35170 102787,102865,102813
 4.9000e+000 102940 -5.8911e+001 -1.8342e+002  2.4244e+001 35170 102735,102891,102761
 4.9000e+000 102917 -1.0568e+002 -2.1736e+002 -1.4311e+001 35170 102813,102865,102839
 4.9000e+000 103257 -2.1456e+001 -1.6641e+002 -2.9556e+001 34659 103280,103058,103032
 4.9000e+000 103234 -3.3345e+001 -1.7559e+002 -1.7337e+001 34659 103280,103032,103162
 4.9000e+000 103211 -5.9184e+001 -1.7734e+002 -1.6059e+001 34659 103084,103162,103110
 4.9000e+000 103188 -7.7660e+001 -2.1710e+002 -1.1306e+001 34659 103110,103162,103136
 4.9000e+000 103306 -4.2408e+001 -1.5514e+002 -2.5734e+001 34659 103084,103058,103280
 4.9000e+000 103329 -4.9962e+001 -1.6477e+002 -1.1981e+001 34659 103084,103280,103162
 4.9000e+000 103837 -2.1384e+001 -2.4330e+002  7.8810e+000 34247 103860,103566,103540
 4.9000e+000 103814 -3.3146e+001 -2.4447e+002  5.9364e-001 34247 103932,103860,103540
 4.9000e+000 103791 -2.4583e+001 -2.7119e+002 -2.6641e+001 34247 103932,103540,103670
 4.9000e+000 103768 -2.6616e+001 -2.2812e+002  4.9554e+000 34247 103566,103618,103592
 4.9000e+000 103745 -9.9422e+001 -2.2840e+002 -3.4910e+001 34247 103540,103696,103670
 4.9000e+000 103722 -1.3127e+002 -2.5310e+002  3.7173e+001 34247 103514,103696,103540
 4.9000e+000 103886 -5.0354e+001 -2.4235e+002 -2.2425e+000 34247 103618,103566,103860
 4.9000e+000 103909 -5.6128e+001 -2.5904e+002  6.8565e+000 34247 103618,103860,103644
 4.9000e+000 103958 -5.7062e+001 -3.0868e+002 -3.9742e+000 34247 103644,103860,103932
 4.9000e+000 103981 -4.8530e+001 -3.3342e+002 -3.2553e+001 34247 103644,103932,103670
 4.9000e+000 104300 -1.1985e+002 -2.5554e+002 -8.6077e+000 33843 104052,104182,104156
 4.9000e+000 104277 -1.5453e+002 -2.4046e+002 -2.3287e+000 33843 104026,104182,104052
 4.9000e+000 104254 -1.1717e+002 -2.8968e+002  5.7102e+000 33843 104078,104156,104130
 4.9000e+000 104231 -1.3923e+002 -2.7552e+002  4.3782e-001 33843 104052,104156,104078
 4.9000e+000 104208 -1.7920e+002 -3.0641e+002  7.8285e+000 33843 104078,104130,104104
 4.9000e+000 104499 -8.3276e+001 -2.5970e+002 -2.1970e+001 33282 104594,104522,104375
 4.9000e+000 104476 -7.1899e+001 -2.5280e+002  8.0835e+000 33282 104522,104323,104427
 4.9000e+000 104453 -5.0868e+001 -2.7763e+002 -1.9993e+001 33282 104594,104375,104349
 4.9000e+000 104548 -8.7419e+001 -2.2552e+002 -1.0661e+001 33282 104401,104375,104522
 4.9000e+000 104571 -6.0228e+001 -2.2197e+002  9.9846e+000 33282 104401,104522,104427
 4.9000e+000 104620 -4.3813e+001 -2.2637e+002 -7.1371e+000 33282 104323,104522,104594
 4.9000e+000 104643 -2.3444e+001 -2.5635e+002 -9.9406e+000 33282 104323,104594,104349
 4.9000e+000 104942 -1.1256e+002 -2.8648e+002  3.4502e+001 32728 104694,104772,104720
 4.9000e+000 104919 -8.5797e+001 -2.6145e+002  1.2543e+001 32728 104694,104824,104772
 4.9000e+000 104896 -1.4652e+002 -2.5630e+002  3.9014e+001 32728 104720,104772,104746
 4.9000e+000 104873 -6.7061e+001 -2.9743e+002  1.5063e+001 32728 104772,104824,104798
 4.9000e+000 104850 -7.0965e+001 -2.5841e+002  1.2544e+001 32728 104668,104824,104694
 4.9000e+000 105373 -9.2719e+001 -2.7702e+002 -1.2639e+001 32274 105396,105102,105076
 4.9000e+000 105350 -1.0139e+002 -3.0239e+002 -4.8392e+000 32274 105396,105076,105206
 4.9000e+000 105327 -1.2873e+002 -3.0960e+002  1.4696e+001 32274 105154,105206,105180
 4.9000e+000 105304 -5.1445e+001 -2.9072e+002 -2.4395e+001 32274 105076,105232,105206
 4.9000e+000 105281 -1.1066e+002 -2.5145e+002 -4.5325e+001 32274 105102,105154,105128
 4.9000e+000 105258 -1.5871e+002 -2.4318e+002 -4.6805e+001 32274 105050,105232,105076
 4.9000e+000 105422 -1.0790e+002 -2.4934e+002 -1.1674e+001 32274 105154,105102,105396
 4.9000e+000 105445 -1.1566e+002 -2.7504e+002 -5.6335e+000 32274 105154,105396,105206
 4.9000e+000 105644 -1.0969e+002 -2.8339e+002 -4.9802e+000 31620 105468,105546,105520
 4.9000e+000 105621 -8.9878e+001 -3.0692e+002 -1.4811e+001 31620 105468,105572,105546
 4.9000e+000 105598 -1.0943e+002 -3.0704e+002  1.5673e+001 31620 105468,105520,105494
 4.9000e+000 105794 -2.5864e+001 -2.4661e+002 -7.5627e+000 31158 105889,105817,105693
 4.9000e+000 105771 -4.2390e+001 -2.2229e+002 -1.5907e+001 31158 105817,105667,105745
 4.9000e+000 105843 -3.4225e+001 -3.0174e+002 -2.7468e+000 31158 105719,105693,105817
 4.9000e+000 105866 -1.8064e+001 -2.5955e+002 -1.3291e+001 31158 105719,105817,105745
 4.9000e+000 105915 -6.3607e+001 -2.6279e+002 -7.9960e+000 31158 105667,105817,105889
 4.9000e+000 106270 -1.0802e+002 -2.4758e+002 -1.3832e+000 30818 106293,106071,106045
 4.9000e+000 106247 -1.2553e+002 -2.8707e+002 -1.5296e+001 30818 106293,106045,106175
 4.9000e+000 106224 -8.7246e+001 -2.2862e+002  1.4672e+001 30818 106123,106175,106149
 4.9000e+000 106201 -1.1270e+002 -2.5145e+002  2.5275e+001 30818 106071,106123,106097
 4.9000e+000 106319 -1.0989e+002 -2.3209e+002  1.3143e+001 30818 106123,106071,106293
 4.9000e+000 106342 -1.1224e+002 -2.5279e+002  1.4111e+000 30818 106123,106293,106175
 4.9000e+000 106492 -1.0228e+002 -2.2900e+002  4.3510e+001 30414 106645,106391,106365
 4.9000e+000 106469 -3.4602e+001 -2.2671e+002  6.8058e+001 30414 106515,106365,106443
 4.9000e+000 106541 -6.3703e+001 -2.3845e+002  4.9576e+001 30414 106645,106365,106515
 4.9000e+000 106671 -4.7963e+001 -2.7171e+002  8.5594e+001 30414 106417,106391,106645
 4.9000e+000 106694  3.9429e+001 -2.5098e+002  7.3623e+001 30414 106417,106645,106515
 4.9000e+000 106942 -5.3090e+001 -3.4878e+002 -1.1454e+000 29910 106965,106795,106769
 4.9000e+000 106919 -4.5811e+001 -3.1365e+002  9.1318e+000 29910 106965,106769,106717
 4.9000e+000 106896 -4.8182e+001 -2.6243e+002 -3.4057e+001 29910 106795,106847,106821
 4.9000e+000 106873 -2.3968e+001 -2.6808e+002  1.7397e+001 29910 106717,106769,106743
 4.9000e+000 106991 -7.3010e+001 -3.1083e+002  3.9018e+000 29910 106847,106795,106965
 4.9000e+000 107014 -5.7908e+001 -2.6413e+002  1.3782e+001 29910 106847,106965,106717
 4.9000e+000 107213 -7.3531e+001 -2.6044e+002  1.6087e+001 29413 107236,107063,107037
 4.9000e+000 107190 -6.7320e+001 -3.0717e+002  3.3354e+001 29413 107236,107037,107141
 4.9000e+000 107167 -9.0291e+001 -1.8793e+002  4.1262e+001 29413 107063,107115,107089
 4.9000e+000 107262 -6.9397e+001 -2.3017e+002  1.1215e+001 29413 107115,107063,107236
 4.9000e+000 107285 -5.6257e+001 -2.6491e+002  3.0145e+001 29413 107115,107236,107141
 4.9000e+000 107486 -3.1778e+001 -2.5034e+002  3.3539e+001 29009 107336,107388,107362
 4.9000e+000 107463 -1.5782e+001 -2.4155e+002  9.6773e+000 29009 107310,107388,107336
 4.9000e+000 107440 -1.9901e+001 -2.2722e+002  9.5433e+000 29009 107310,107414,107388
 4.9000e+000 107736 -1.0816e+002 -2.8835e+002 -1.0701e+001 28491 107537,107615,107563
 4.9000e+000 107713 -9.3735e+001 -2.8154e+002 -7.5012e+000 28491 107537,107641,107615
 4.9000e+000 107690 -6.0715e+001 -2.7082e+002  5.5000e+000 28491 107563,107615,107589
 4.9000e+000 107667 -9.7765e+001 -2.7841e+002 -7.9943e+000 28491 107511,107641,107537
 4.9000e+000 108118 -6.0845e+001 -2.7355e+002  1.0645e+001 27980 108141,107922,107844
 4.9000e+000 108095 -4.8621e+001 -2.9319e+002  9.8129e+000 27980 108141,107844,108000
 4.9000e+000 108072 -6.4069e+001 -2.8587e+002 -1.5188e+001 27980 107844,107922,107870
 4.9000e+000 108049 -6.9020e+001 -2.4646e+002 -7.8974e+000 27980 107870,107922,107896
 4.9000e+000 108026 -9.6958e+001 -2.5686e+002  3.2451e+001 27980 107922,107974,107948
 4.9000e+000 108167 -5.2211e+001 -2.7402e+002  1.4720e+001 27980 107974,107922,108141
 4.9000e+000 108190 -1.9042e+001 -2.7412e+002  1.9778e+001 27980 107974,108141,108000
 4.9000e+000 108745 -3.0791e+001 -1.7897e+002 -4.2151e+000 27376 108840,108768,108477
 4.9000e+000 108722 -5.4730e+001 -2.2103e+002 -4.3737e+001 27376 108768,108373,108581
 4.9000e+000 108699 -5.1023e+001 -1.5525e+002  3.2945e+001 27376 108840,108477,108451
 4.9000e+000 108676 -1.2807e+002 -1.8867e+002 -7.7886e+000 27376 108373,108451,108399
 4.9000e+000 108653 -5.1699e+001 -2.2382e+002  3.1190e+001 27376 108503,108581,108529
 4.9000e+000 108630 -5.8691e+001 -2.1772e+002  3.2423e+001 27376 108529,108581,108555
 4.9000e+000 108607 -1.4497e+002 -2.0258e+002  1.5891e+001 27376 108399,108451,108425
 4.9000e+000 108794 -5.0987e+001 -2.4181e+002  1.0268e+000 27376 108503,108477,108768
 4.9000e+000 108817 -9.3456e+000 -2.2031e+002 -8.0037e+000 27376 108503,108768,108581
 4.9000e+000 108866 -1.0632e+002 -2.2207e+002 -2.1527e+001 27376 108373,108768,108840
 4.9000e+000 108889 -1.0263e+002 -1.9066e+002  1.7327e+001 27376 108373,108840,108451
 4.9000e+000 109186 -1.0584e+002 -2.8254e+002  2.9736e+001 26722 109209,108938,108912
 4.9000e+000 109163 -9.8255e+001 -2.6409e+002  2.7460e+001 26722 109281,109209,108912
 4.9000e+000 109140 -9.4821e+001 -2.5677e+002  2.6071e+001 26722 109281,108912,109042
 4.9000e+000 109117 -8.6772e+001 -3.0121e+002  1.3312e+001 26722 108938,108990,108964
 4.9000e+000 109094 -1.3444e+002 -2.3404e+002  1.7477e+001 26722 108912,109068,109042
 4.9000e+000 109235 -8.8695e+001 -2.7251e+002  2.5299e+001 26722 108990,108938,109209
 4.9000e+000 109258 -9.5289e+001 -2.9222e+002  2.2585e+001 26722 108990,109209,109016
 4.9000e+000 109307 -8.7358e+001 -2.7547e+002  1.3977e+001 26722 109016,109209,109281
 4.9000e+000 109330 -8.0795e+001 -2.6301e+002  1.1101e+001 26722 109016,109281,109042
 4.9000e+000 109732 -1.1141e+002 -2.3435e+002 -4.9771e+000 26310 109458,109588,109484
 4.9000e+000 109709 -1.0555e+002 -2.6856e+002 -2.7999e+001 26310 109458,109614,109588
 4.9000e+000 109686 -1.5997e+002 -2.7256e+002  3.9619e+001 26310 109510,109562,109536
 4.9000e+000 109663 -1.5908e+002 -2.5705e+002  1.5543e+001 26310 109484,109562,109510
 4.9000e+000 109640 -1.1569e+002 -2.3809e+002 -1.3478e+000 26310 109484,109588,109562
 4.9000e+000 110159 -6.7360e+001 -2.3598e+002 -7.2897e+000 25642 110182,109940,109914
 4.9000e+000 110136 -6.1125e+001 -2.7362e+002  3.3687e+001 25642 110182,109914,109888
 4.9000e+000 110113 -8.4751e+001 -2.9153e+002 -3.8080e+001 25642 109966,110018,109992
 4.9000e+000 110090 -9.3773e+001 -2.8212e+002  2.1935e+001 25642 110254,109966,109940
 4.9000e+000 110067 -1.2619e+002 -2.6737e+002  1.6153e+001 25642 109862,110018,109888
 4.9000e+000 110044 -1.1885e+002 -2.2214e+002  3.8553e+001 25642 109836,110018,109862
 4.9000e+000 110208 -9.2328e+001 -2.5852e+002  1.6465e+001 25642 110254,109940,110182
 4.9000e+000 110231 -1.0177e+002 -2.7615e+002  3.7319e+001 25642 110018,110182,109888
 4.9000e+000 110280 -8.1845e+001 -3.1172e+002  1.7630e+001 25642 110018,109966,110254
 4.9000e+000 110303 -8.5434e+001 -2.9418e+002  1.3010e+001 25642 110018,110254,110182
 4.9000e+000 110632 -1.2293e+002 -2.4555e+002 -1.4267e+001 25188 110407,110485,110433
 4.9000e+000 110609 -1.4280e+002 -2.4511e+002 -9.1304e+000 25188 110407,110537,110485
 4.9000e+000 110586 -1.3901e+002 -2.5496e+002 -4.7251e+001 25188 110433,110485,110459
 4.9000e+000 110563 -1.3440e+002 -2.6288e+002  2.6035e+001 25188 110485,110537,110511
 4.9000e+000 110831 -2.2444e+001 -2.3377e+002  6.6268e+000 24726 110854,110707,110655
 4.9000e+000 110808 -9.6959e+000 -2.5240e+002  2.5627e+001 24726 110854,110655,110759
 4.9000e+000 110785 -3.1813e+001 -2.4086e+002  1.2426e+001 24726 110655,110707,110681
 4.9000e+000 110880 -1.2660e+001 -2.1597e+002  1.0466e+001 24726 110733,110707,110854
 4.9000e+000 110903  4.4470e+000 -2.2545e+002  3.0854e+001 24726 110733,110854,110759
 4.9000e+000 111234 -6.7363e+000 -1.7128e+002 -4.6837e+000 24222 111257,111087,111035
 4.9000e+000 111211  2.2017e+001 -1.5830e+002  1.9293e+001 24222 111257,111035,111009
 4.9000e+000 111188 -2.7606e+001 -9.0461e+001 -3.8319e+001 24222 111035,111087,111061
 4.9000e+000 111165 -2.7462e+001 -1.3927e+002  4.8882e+000 24222 111087,111139,111113
 4.9000e+000 111283 -2.4736e+001 -1.4156e+002  8.5124e+000 24222 111139,111087,111257
 4.9000e+000 111306 -1.2250e+001 -1.2050e+002  2.3934e+001 24222 111139,111257,111009
 4.9000e+000 111625 -3.1887e+001 -2.3500e+002 -1.2958e+001 23732 111648,111481,111455
 4.9000e+000 111602 -3.2693e+001 -2.3637e+002 -1.2624e+001 23732 111648,111455,111377
 4.9000e+000 111579  3.4148e+001 -1.1781e+002  2.5192e+001 23732 111377,111429,111403
 4.9000e+000 111556 -1.2006e+001 -2.3687e+002 -6.3966e+000 23732 111377,111455,111429
 4.9000e+000 111533 -2.3063e+001 -2.1369e+002 -5.0924e+000 23732 111351,111507,111377
 4.9000e+000 111674 -3.2799e+001 -2.3291e+002 -1.1431e+001 23732 111507,111481,111648
 4.9000e+000 111697 -3.3983e+001 -2.3557e+002 -1.1098e+001 23732 111507,111648,111377
 4.9000e+000 112156 -6.5656e+001 -2.8012e+002  2.0922e+001 23278 112179,111908,111882
 4.9000e+000 112133 -6.1314e+001 -2.5917e+002  1.1455e+001 23278 112179,111882,112012
 4.9000e+000 112110 -2.0220e+001 -3.0391e+002  1.3664e+000 23278 111908,111960,111934
 4.9000e+000 112087 -2.5931e+001 -2.2767e+002 -2.9316e+000 23278 111882,112038,112012
 4.9000e+000 112064 -5.5253e+001 -2.3383e+002 -3.6199e+000 23278 111960,112012,111986
 4.9000e+000 112205 -6.2498e+001 -2.7014e+002  3.6829e+000 23278 111960,111908,112179
 4.9000e+000 112228 -5.2212e+001 -2.4656e+002 -7.1269e+000 23278 111960,112179,112012
 4.9000e+000 112685 -1.7298e+002 -3.8695e+002 -3.7313e+001 22938 112489,112567,112541
 4.9000e+000 112662 -1.4914e+002 -3.3437e+002 -3.1813e+001 22938 112437,112567,112489
 4.9000e+000 112639 -9.9363e+001 -2.8609e+002 -3.5073e+000 22938 112489,112541,112515
 4.9000e+000 112616 -1.6997e+002 -3.2010e+002 -2.8201e+001 22938 112411,112567,112437
 4.9000e+000 112593 -1.3137e+002 -4.1781e+002 -8.5025e+000 22938 112437,112489,112463
 4.9000e+000 113191 -1.2388e+001 -2.7597e+002 -3.4272e+001 22534 113214,112998,112946
 4.9000e+000 113168 -5.2023e+001 -2.4516e+002 -1.7684e+001 22534 113286,113214,112946
 4.9000e+000 113145 -3.9423e+001 -2.4560e+002 -1.4804e+001 22534 113286,112946,112920
 4.9000e+000 113122 -1.1052e+002 -2.2548e+002 -4.8633e+001 22534 113358,113024,112998
 4.9000e+000 113099 -7.1029e+001 -2.3791e+002 -9.3187e+000 22534 112868,113050,112894
 4.9000e+000 113076 -8.0885e+001 -4.0780e+002 -6.7125e+001 22534 112946,112998,112972
 4.9000e+000 113240 -8.1997e+001 -2.8354e+002 -5.1497e+001 22534 113358,112998,113214
 4.9000e+000 113263 -6.7925e+001 -2.5735e+002 -1.1312e+001 22534 113050,113214,112894
 4.9000e+000 113312 -3.5573e+001 -2.4316e+002 -1.4065e+001 22534 112894,113214,113286
 4.9000e+000 113335 -2.2206e+001 -2.4419e+002 -1.3507e+001 22534 112894,113286,112920
 4.9000e+000 113384 -7.8854e+001 -1.7219e+002 -3.5412e+001 22534 113050,113024,113358
 4.9000e+000 113407 -3.7858e+001 -2.2027e+002 -3.1935e+001 22534 113050,113358,113214
 4.9000e+000 113785 -1.2523e+002 -3.2654e+002  7.6719e+000 21978 113808,113615,113511
 4.9000e+000 113762 -1.0037e+002 -3.3009e+002  2.2213e+001 21978 113808,113511,113667
 4.9000e+000 113739 -7.4735e+001 -2.8009e+002 -1.2771e+001 21978 113511,113615,113537
 4.9000e+000 113716  3.3797e+001 -2.5071e+002 -2.8472e+001 21978 113537,113615,113589
 4.9000e+000 113693 -3.5746e+001 -3.5983e+002  4.2809e+000 21978 113537,113589,113563
 4.9000e+000 113834 -1.2976e+002 -3.2683e+002  3.9180e+001 21978 113641,113615,113808
 4.9000e+000 113857 -6.4906e+001 -3.0172e+002  5.6519e+001 21978 113641,113808,113667
 4.9000e+000 114284 -9.0831e+001 -2.7259e+002  6.2319e+000 21517 114013,114117,114039
 4.9000e+000 114261 -1.0333e+002 -2.7145e+002  2.1818e+001 21517 113961,114117,114013
 4.9000e+000 114238 -9.9724e+001 -2.7452e+002  2.2431e+001 21517 113961,114013,113987
 4.9000e+000 114215 -1.4916e+002 -3.1149e+002 -2.1735e+001 21517 114039,114117,114091
 4.9000e+000 114192 -1.0480e+002 -2.2833e+002  2.6086e+001 21517 113961,114143,114117
 4.9000e+000 114169 -2.1792e+001 -2.6744e+002 -2.3973e+001 21517 114039,114091,114065
 4.9000e+000 114581 -4.7837e+001 -3.1734e+002  3.9870e+000 21027 114359,114463,114437
 4.9000e+000 114558 -2.1651e+001 -2.8669e+002  3.8679e+001 21027 114333,114463,114359
 4.9000e+000 114535 -1.5850e+001 -2.8860e+002 -8.2023e+000 21027 114359,114437,114385
 4.9000e+000 114512 -1.1197e+001 -2.8400e+002  3.3337e+001 21027 114307,114463,114333
 4.9000e+000 114489  5.3415e+001 -2.6887e+002 -1.3523e+001 21027 114385,114437,114411
 4.9000e+000 114912 -1.2375e+002 -2.7959e+002  4.1492e+000 20623 114713,114791,114765
 4.9000e+000 114889 -8.6559e+001 -2.6435e+002 -1.8994e+001 20623 114687,114791,114713
 4.9000e+000 114866 -5.8837e+001 -2.9172e+002 -2.2002e+001 20623 114687,114817,114791
 4.9000e+000 114843 -1.8379e+002 -3.4115e+002  2.9724e+001 20623 114713,114765,114739
 4.9000e+000 115290 -3.3365e+001 -2.5099e+002  1.3257e+001 20375 115313,115146,115094
 4.9000e+000 115267 -5.5050e+001 -2.3928e+002  2.5043e+001 20375 115313,115094,115042
 4.9000e+000 115244 -7.1752e+001 -2.2998e+002  7.5220e+000 20375 115385,115016,115172
 4.9000e+000 115221 -2.3980e+001 -2.2457e+002  2.0770e+001 20375 115042,115094,115068
 4.9000e+000 115198 -5.2084e+001 -2.9983e+002  1.6351e+001 20375 115094,115146,115120
 4.9000e+000 115339 -7.8259e+001 -2.9701e+002 -9.8359e+000 20375 115172,115146,115313
 4.9000e+000 115362 -4.2546e+001 -2.3750e+002  9.0619e+000 20375 115385,115172,115313
 4.9000e+000 115411 -8.8055e+001 -2.3851e+002  1.0613e+001 20375 115042,115016,115385
 4.9000e+000 115434 -7.3938e+001 -2.5600e+002  1.6772e+001 20375 115042,115385,115313
 4.9000e+000 115891 -1.3097e+002 -2.5801e+002  3.1580e+001 19971 115617,115747,115643
 4.9000e+000 115868 -1.1280e+002 -2.1406e+002  3.0441e+001 19971 115617,115773,115747
 4.9000e+000 115845 -8.3268e+001 -3.9102e+002  5.0438e+000 19971 115643,115721,115695
 4.9000e+000 115822 -3.3350e+000 -1.9543e+002 -1.3723e+000 19971 115643,115747,115721
 4.9000e+000 115799 -7.0133e+001 -4.7904e+002 -3.7804e+001 19971 115643,115695,115669
 4.9000e+000 115992 -1.8781e+002 -4.8311e+002 -8.2878e+001 19659 115914,115966,115940
 4.9000e+000 116142 -2.9452e+001 -1.1046e+002  2.9026e+000 18997 116041,116093,116067
 4.9000e+000 116119 -5.9708e+001 -1.8840e+002  1.1423e+001 18997 116015,116093,116041
 4.9000e+000 116343 -5.0919e+001 -2.9257e+002 -8.5082e+000 18707 116193,116245,116219
 4.9000e+000 116320 -1.1321e+002 -3.1918e+002 -1.3028e+001 18707 116193,116271,116245
 4.9000e+000 116297 -1.0303e+002 -2.8541e+002 -2.1672e+001 18707 116167,116271,116193
 4.9000e+000 116747 -4.7038e+001 -2.6477e+002 -4.7621e+000 18301 116525,116629,116551
 4.9000e+000 116724 -2.6598e+001 -2.2473e+002  6.5294e+000 18301 116473,116629,116525
 4.9000e+000 116701 -1.7565e+001 -2.1868e+002 -1.1535e+001 18301 116473,116525,116499
 4.9000e+000 116678 -3.9822e+001 -2.7556e+002 -3.4807e+000 18301 116551,116603,116577
 4.9000e+000 116655 -5.5712e+001 -2.8514e+002 -7.9284e+000 18301 116551,116629,116603
 4.9000e+000 117147 -1.3099e+002 -3.0067e+002  4.5353e-001 17747 116899,117029,116925
 4.9000e+000 117124 -6.8852e+001 -2.1958e+002  3.1879e+001 17747 116873,117029,116899
 4.9000e+000 117101 -1.2993e+002 -2.9864e+002  8.8273e-001 17747 116925,117029,116951
 4.9000e+000 117078 -1.1127e+002 -2.5467e+002 -1.0620e+000 17747 116951,117029,117003
 4.9000e+000 117055 -1.4884e+002 -3.4011e+002 -2.2578e+001 17747 116951,117003,116977
 4.9000e+000 117368  1.8582e+001 -2.9241e+002  6.6312e+000 17293 117244,117296,117270
 4.9000e+000 117345 -2.0437e+001 -3.0226e+002 -4.0712e+000 17293 117192,117296,117244
 4.9000e+000 117322 -5.2444e+001 -2.8409e+002 -3.0893e+000 17293 117192,117244,117218
 4.9000e+000 117699 -2.7747e+001 -2.3651e+002 -2.7633e+001 16896 117526,117604,117552
 4.9000e+000 117676 -1.5551e+002 -3.6210e+002  2.3083e+001 16896 117500,117604,117526
 4.9000e+000 117653 -1.6523e+002 -2.8660e+002 -1.4300e+001 16896 117552,117604,117578
 4.9000e+000 117630 -1.4345e+002 -4.6915e+002  3.9043e+001 16896 117474,117604,117500
 4.9000e+000 117849 -3.3184e+002 -6.3994e+002 -2.4357e+001 16534 117722,117774,117748
 4.9000e+000 117826 -2.6153e+002 -7.7781e+002 -1.0530e+002 16534 117722,117800,117774
 4.9000e+000 118070 -5.8753e-001 -3.0051e+002  3.8245e+001 16194 117946,117998,117972
 4.9000e+000 118047 -4.8516e+001 -3.3911e+002  1.5431e+001 16194 117894,117998,117946
 4.9000e+000 118024 -1.7291e+002 -3.4767e+002  3.8230e-003 16194 117894,117946,117920
 4.9000e+000 118173 -1.9996e+001 -2.8390e+002  0.0000e+000 15968 118095,118147,118121
 4.9000e+000 118276 -8.5365e+001 -3.1358e+002  1.4336e+000 15433 118299,118198,118250
 4.9000e+000 118325 -8.6188e+001 -3.1550e+002  1.4525e+000 15433 118224,118198,118299
 4.9000e+000 118450 -1.4899e+002 -3.3083e+002  3.1298e+001 421 118372,118424,118398
 5.0000e+000 69891 -6.3912e+001 -3.3128e+002  1.2091e+001 68988 69447,69681,69629
 5.0000e+000 69868  1.8911e+001 -2.9639e+002  9.5955e+000 68988 69421,69681,69447
 5.0000e+000 69845 -7.6989e+000 -1.6886e+002  1.2446e+000 68988 69447,69629,69577
 5.0000e+000 69822 -1.0149e+002 -3.4328e+002 -3.7020e+001 68988 69447,69577,69473
 5.0000e+000 69799 -1.9174e+001 -3.9700e+002  6.6303e+001 68988 69629,69681,69655
 5.0000e+000 69776 -1.0845e+002 -2.1254e+002  5.7848e+000 68988 69577,69629,69603
 5.0000e+000 69753 -8.1134e+001 -3.0774e+002 -4.6604e+001 68988 69473,69577,69551
 5.0000e+000 69730 -1.1401e+002 -6.0114e+002 -5.8451e+001 68988 69473,69551,69525
 5.0000e+000 69707 -1.8477e+002 -4.0146e+002  6.9776e-001 68988 69473,69525,69499
 5.0000e+000 69992 -2.0286e+002 -3.6569e+002 -4.9344e+001 68676 69914,69966,69940
 5.0000e+000 70392 -1.4847e+002 -3.0068e+002  2.3354e+001 68478 70118,70248,70144
 5.0000e+000 70369 -5.8294e+000 -3.0931e+002  6.3142e+001 68478 70118,70274,70248
 5.0000e+000 70346 -9.0613e+001 -2.2795e+002 -6.8577e-001 68478 70144,70222,70196
 5.0000e+000 70323 -7.6257e+001 -1.9058e+002 -9.8326e+000 68478 70144,70248,70222
 5.0000e+000 70300 -9.7144e+001 -2.4825e+002 -4.0220e+000 68478 70144,70196,70170
 5.0000e+000 70841  3.7324e+001 -2.1071e+002 -5.4040e+001 68280 70570,70622,70596
 5.0000e+000 70818 -1.0836e+002 -2.3816e+002 -1.2980e+001 68280 70544,70622,70570
 5.0000e+000 70795 -8.1987e+001 -1.7875e+002 -7.7821e+000 68280 70544,70674,70622
 5.0000e+000 70772 -7.1314e+001 -1.6051e+002  2.5212e+000 68280 70622,70674,70648
 5.0000e+000 70749 -1.1497e+002 -2.6615e+002  1.9589e+001 68280 70518,70674,70544
 5.0000e+000 70726  7.5953e+001 -2.8020e+002  7.5164e+001 68280 70518,70700,70674
 5.0000e+000 70991 -1.2727e+001 -1.0834e+003  3.2567e+001 67968 70864,70916,70890
 5.0000e+000 70968 -2.8828e+002 -1.0759e+003  1.2556e+002 67968 70864,70942,70916
 5.0000e+000 71141 -4.9559e+002 -9.4411e+002 -4.5977e+001 67770 71040,71092,71066
 5.0000e+000 71118 -4.3245e+002 -1.1377e+003  4.9778e+001 67770 71014,71092,71040
 5.0000e+000 71651 -7.5381e+001 -2.1543e+002 -3.3151e+001 67366 71746,71674,71458
 5.0000e+000 71628 -5.1242e+001 -1.7514e+002 -3.6123e+001 67366 71674,71354,71510
 5.0000e+000 71605 -6.8948e+001 -2.3832e+002 -3.0572e+001 67366 71746,71458,71432
 5.0000e+000 71582 -1.0667e+002 -2.4442e+002  1.2865e+001 67366 71354,71432,71380
 5.0000e+000 71559 -1.1078e+002 -1.8127e+002 -1.7481e+001 67366 71380,71432,71406
 5.0000e+000 71536 -5.4189e+001 -7.7103e+001 -2.0579e+000 67366 71328,71510,71354
 5.0000e+000 71700 -8.1748e+001 -1.9466e+002 -1.5441e+001 67366 71484,71458,71674
 5.0000e+000 71723 -5.9533e+001 -1.8437e+002 -1.2133e+001 67366 71484,71674,71510
 5.0000e+000 71772 -6.7732e+001 -1.8827e+002 -2.8984e+001 67366 71354,71674,71746
 5.0000e+000 71795 -5.9858e+001 -2.0813e+002 -2.9304e+001 67366 71354,71746,71432
 5.0000e+000 71896 -1.8440e+002 -3.9687e+002  0.0000e+000 67146 71818,71870,71844
 5.0000e+000 71997 -2.2968e+002 -3.5836e+002  7.2510e+001 66948 71919,71971,71945
 5.0000e+000 72149 -2.4725e+001 -2.5075e+002 -2.8101e+001 66700 72172,72074,72048
 5.0000e+000 72126 -9.5456e+001 -2.8094e+002 -1.0958e+001 66700 72172,72048,72022
 5.0000e+000 72198 -1.4439e+002 -3.0728e+002  1.9298e+001 66700 72244,72172,72100
 5.0000e+000 72221 -1.3007e+002 -2.8195e+002 -1.6236e+001 66700 72100,72172,72022
 5.0000e+000 72270 -8.1996e+001 -1.7029e+002 -1.8986e+001 66700 72074,72172,72244
 5.0000e+000 72623 -1.0276e+002 -2.6558e+002  6.1715e+000 66502 72424,72502,72450
 5.0000e+000 72600 -8.8124e+001 -2.2641e+002  4.5196e+000 66502 72398,72502,72424
 5.0000e+000 72577 -7.1058e+001 -2.5491e+002 -4.1133e+000 66502 72398,72528,72502
 5.0000e+000 72554 -1.0523e+002 -2.3994e+002 -1.1076e+000 66502 72450,72502,72476
 5.0000e+000 72920 -1.5947e+002 -3.2603e+002  8.3911e+000 65941 72672,72776,72750
 5.0000e+000 72897 -1.5775e+002 -2.8163e+002  3.0870e+001 65941 72646,72776,72672
 5.0000e+000 72874 -1.4131e+002 -3.2053e+002  1.0225e+001 65941 72672,72750,72724
 5.0000e+000 72851 -1.4291e+002 -2.5751e+002  2.2912e+001 65941 72672,72724,72698
 5.0000e+000 72828 -1.2151e+002 -2.8114e+002  2.8642e+001 65941 72646,72802,72776
 5.0000e+000 73241 -4.8822e+001 -2.3320e+002  1.2927e+001 65743 73264,73071,73045
 5.0000e+000 73218 -1.0277e+002 -2.6057e+002  2.2394e+001 65743 73480,73264,73045
 5.0000e+000 73195 -8.4886e+001 -2.3454e+002 -2.6453e+000 65743 73336,72967,73097
 5.0000e+000 73172 -1.3886e+002 -2.1600e+002 -2.1758e+001 65743 73408,72993,72967
 5.0000e+000 73149 -7.9345e+001 -2.3508e+002 -2.8946e+000 65743 72967,73123,73097
 5.0000e+000 73290 -6.7391e+001 -2.4169e+002  3.2098e+000 65743 73097,73071,73264
 5.0000e+000 73313 -7.5204e+001 -2.2480e+002  8.0031e+000 65743 73336,73097,73264
 5.0000e+000 73362 -1.2059e+002 -2.4085e+002 -1.4335e+001 65743 73408,72967,73336
 5.0000e+000 73385 -6.3151e+001 -2.2129e+002 -4.8102e-001 65743 73019,73336,73264
 5.0000e+000 73434 -1.0837e+002 -1.6974e+002  1.1891e+001 65743 73019,72993,73408
 5.0000e+000 73457 -6.6019e+001 -2.0279e+002  8.5299e+000 65743 73019,73408,73336
 5.0000e+000 73506 -4.8014e+001 -1.6513e+002  2.8195e-001 65743 73019,73264,73480
 5.0000e+000 73989 -1.5834e+001 -1.9058e+002  2.2289e+001 65453 73793,73845,73819
 5.0000e+000 73966 -1.0334e+002 -2.1369e+002  2.5665e+001 65453 73741,73845,73793
 5.0000e+000 73943 -3.0802e+001 -1.7361e+002  1.0047e+001 65453 73715,73845,73741
 5.0000e+000 73920 -8.3176e+001 -2.2909e+002  4.2720e+001 65453 73741,73793,73767
 5.0000e+000 73897 -3.5006e-001 -1.1233e+002 -6.7159e-003 65453 73715,73871,73845
 5.0000e+000 74357 -5.8407e+001 -2.2598e+002 -6.0467e+001 65141 74380,74138,74086
 5.0000e+000 74334 -1.0343e+002 -2.9989e+002 -4.0372e+001 65141 74380,74086,74060
 5.0000e+000 74311 -1.1748e+002 -2.9382e+002 -1.0801e+001 65141 74138,74190,74164
 5.0000e+000 74288 -9.1141e+001 -3.2550e+002 -1.3151e+001 65141 74060,74216,74190
 5.0000e+000 74265 -9.6682e+001 -3.4372e+002  5.2905e+000 65141 74034,74216,74060
 5.0000e+000 74242 -6.9807e+001 -1.7092e+002 -3.5320e+001 65141 74086,74138,74112
 5.0000e+000 74406 -8.6888e+001 -2.9180e+002 -2.4773e+001 65141 74190,74138,74380
 5.0000e+000 74429 -1.0067e+002 -3.1721e+002 -1.1581e+001 65141 74190,74380,74060
 5.0000e+000 74937 -1.1949e+002 -2.3942e+002 -5.7191e+001 64737 74614,74666,74640
 5.0000e+000 74914 -1.4776e+002 -2.8896e+002 -4.2145e+001 64737 74614,74796,74666
 5.0000e+000 74891 -1.0737e+002 -2.0118e+002 -6.6639e+000 64737 74960,74718,74666
 5.0000e+000 74868 -9.6880e+001 -2.2139e+002 -2.5492e+001 64737 74960,74666,74770
 5.0000e+000 74845 -1.0019e+002 -1.8318e+002 -2.7410e+001 64737 74666,74796,74770
 5.0000e+000 74822 -1.0375e+002 -2.1761e+002  3.8184e+000 64737 74666,74718,74692
 5.0000e+000 74986 -1.1364e+002 -2.2189e+002 -8.3661e+000 64737 74744,74718,74960
 5.0000e+000 75009 -1.0979e+002 -2.5277e+002 -2.8028e+001 64737 74744,74960,74770
 5.0000e+000 75306 -5.6746e+001 -2.0980e+002  3.1836e+001 64133 75329,75110,75084
 5.0000e+000 75283 -7.4050e+001 -2.4973e+002  9.1752e+000 64133 75401,75329,75084
 5.0000e+000 75260 -7.1776e+001 -2.5632e+002  1.1397e+001 64133 75401,75084,75058
 5.0000e+000 75237 -7.2742e+001 -2.9821e+002  3.8183e+001 64133 75473,75136,75110
 5.0000e+000 75214 -7.4113e+001 -2.3245e+002  2.7917e+000 64133 75032,75188,75162
 5.0000e+000 75355 -8.4967e+001 -2.7634e+002  2.9374e+001 64133 75473,75110,75329
 5.0000e+000 75378 -6.4307e+001 -2.3899e+002  2.8760e+000 64133 75162,75329,75032
 5.0000e+000 75427 -6.0836e+001 -2.3042e+002  1.6080e+000 64133 75032,75329,75401
 5.0000e+000 75450 -1.1552e+002 -2.8383e+002  2.9770e+001 64133 75545,75401,75058
 5.0000e+000 75499 -6.3699e+001 -2.7074e+002  1.2239e+001 64133 75162,75136,75473
 5.0000e+000 75522 -7.4052e+001 -2.3389e+002  1.0142e+001 64133 75162,75473,75329
 5.0000e+000 75571 -5.9066e+001 -1.6056e+002  7.8697e+000 64133 75032,75401,75545
 5.0000e+000 75851 -9.8956e+001 -2.2985e+002  5.6040e+000 63843 75874,75753,75727
 5.0000e+000 75828 -8.5619e+001 -2.2454e+002 -1.0876e+001 63843 75946,75874,75727
 5.0000e+000 75805 -9.5917e+001 -2.3595e+002 -5.8121e+000 63843 76018,75946,75727
 5.0000e+000 75900 -7.7925e+001 -2.2098e+002 -7.4156e+000 63843 75779,75753,75874
 5.0000e+000 75923 -8.1262e+001 -1.8951e+002 -2.5721e+001 63843 75779,75874,75675
 5.0000e+000 75972 -9.6503e+001 -2.1543e+002 -9.4044e+000 63843 75675,75874,75946
 5.0000e+000 75995 -8.9577e+001 -2.2274e+002 -1.5056e+001 63843 75675,75946,75701
 5.0000e+000 76044 -9.7812e+001 -2.3084e+002 -1.9253e+001 63843 75701,75946,76018
 5.0000e+000 76454  1.4593e+001 -4.5010e+001 -2.5394e+001 63439 76477,76255,76229
 5.0000e+000 76431 -2.2070e+001 -1.0726e+002 -1.4868e+000 63439 76477,76229,76359
 5.0000e+000 76408 -3.0645e+001 -8.2156e+001  4.6565e+001 63439 76307,76359,76333
 5.0000e+000 76385 -1.9744e+001 -1.1192e+002  6.6711e+000 63439 76255,76307,76281
 5.0000e+000 76503 -2.3104e+001 -9.3980e+001  1.1765e+001 63439 76307,76255,76477
 5.0000e+000 76526 -2.1795e+001 -1.1839e+002  2.9012e+001 63439 76307,76477,76359
 5.0000e+000 76926 -5.1390e+001 -1.5965e+002 -2.3568e+000 63049 76704,76782,76756
 5.0000e+000 76903 -7.4816e+001 -1.6611e+002 -1.5884e+001 63049 76704,76808,76782
 5.0000e+000 76880 -5.2890e+001 -1.8222e+002  2.5195e+000 63049 76704,76756,76730
 5.0000e+000 76857 -4.3533e+001 -1.0662e+002  7.4826e+000 63049 76678,76808,76704
 5.0000e+000 76834 -1.9490e+001 -2.4844e+001 -2.3781e+001 63049 76652,76808,76678
 5.0000e+000 77076 -2.4759e+001 -2.7077e+002 -1.4151e+000 62737 76975,77027,77001
 5.0000e+000 77053 -2.2868e+001 -3.0292e+002 -1.8515e+001 62737 76949,77027,76975
 5.0000e+000 77324 -1.1286e+002 -2.6371e+002 -2.8741e+000 62277 77347,77177,77125
 5.0000e+000 77301 -1.1261e+002 -2.5595e+002 -1.4977e+001 62277 77347,77125,77229
 5.0000e+000 77278 -1.0968e+002 -2.6564e+002 -2.1091e+001 62277 77099,77229,77125
 5.0000e+000 77255 -1.1925e+002 -3.1388e+002  3.0852e+000 62277 77125,77177,77151
 5.0000e+000 77373 -1.1952e+002 -2.8657e+002  5.0705e+000 62277 77203,77177,77347
 5.0000e+000 77396 -1.0661e+002 -2.6655e+002 -9.0906e+000 62277 77203,77347,77229
 5.0000e+000 77857 -6.1382e+001 -3.3613e+002  3.9419e+000 61758 77635,77739,77661
 5.0000e+000 77834 -8.9730e+001 -3.2410e+002 -1.1665e+001 61758 77583,77739,77635
 5.0000e+000 77811 -1.0381e+002 -4.0920e+002 -3.9362e+001 61758 77583,77635,77609
 5.0000e+000 77788 -8.3364e+001 -3.2037e+002  2.5424e+001 61758 77661,77713,77687
 5.0000e+000 77765 -8.8213e+001 -3.6649e+002  2.4513e+001 61758 77661,77739,77713
 5.0000e+000 78491 -9.3153e+001 -1.8108e+002  1.0448e+001 61418 78171,78301,78249
 5.0000e+000 78468 -7.5053e+001 -1.5092e+002  2.2454e+001 61418 78145,78301,78171
 5.0000e+000 78445 -7.0411e+001 -1.6100e+002 -7.3394e+000 61418 78171,78249,78223
 5.0000e+000 78422 -7.2308e+001 -1.4927e+002  8.1041e+000 61418 78145,78327,78301
 5.0000e+000 78399 -9.7366e+001 -2.0433e+002 -7.9873e-001 61418 78249,78301,78275
 5.0000e+000 78376 -4.2669e+001 -1.7511e+002 -1.1757e+001 61418 78171,78223,78197
 5.0000e+000 78353 -8.6087e+001 -1.9864e+002 -5.0808e+000 61418 78119,78327,78145
 5.0000e+000 78690 -9.0300e+001 -2.1070e+002 -9.2136e-001 61014 78713,78566,78540
 5.0000e+000 78667 -6.3207e+001 -2.1585e+002  1.8173e+000 61014 78713,78540,78618
 5.0000e+000 78644 -1.0264e+002 -2.4445e+002 -2.3678e+001 61014 78514,78618,78540
 5.0000e+000 78739 -4.9153e+001 -2.0657e+002  2.1790e+001 61014 78592,78566,78713
 5.0000e+000 78762 -6.1982e+001 -2.2699e+002  2.1671e+000 61014 78785,78713,78618
 5.0000e+000 78811 -1.9180e+001 -2.1052e+002 -3.2500e+000 61014 78592,78713,78785
 5.0000e+000 79398 -4.2259e+001 -1.8928e+002 -1.7993e+001 60624 79101,79179,79153
 5.0000e+000 79375 -5.5476e+001 -2.1091e+002 -8.8127e+000 60624 79101,79231,79179
 5.0000e+000 79352 -4.2814e+001 -2.0950e+002 -1.3857e+001 60624 79075,79231,79101
 5.0000e+000 79329 -1.3451e+001 -2.4918e+002  2.6857e+001 60624 79075,79257,79231
 5.0000e+000 79306 -3.9995e+001 -1.5757e+002 -2.9893e+001 60624 79179,79231,79205
 5.0000e+000 79283 -3.3765e+001 -1.7036e+002 -1.1902e+001 60624 79101,79153,79127
 5.0000e+000 79776 -1.1057e+002 -2.8472e+002  2.4251e+001 60070 79528,79658,79606
 5.0000e+000 79753 -1.0010e+002 -2.2772e+002  6.6143e-002 60070 79502,79658,79528
 5.0000e+000 79730 -1.3392e+002 -2.7336e+002  3.6862e+001 60070 79528,79606,79580
 5.0000e+000 79707 -4.3213e+001 -2.4659e+002  5.0175e+000 60070 79606,79658,79632
 5.0000e+000 79684 -1.1817e+001 -1.6861e+002 -4.2483e+001 60070 79528,79580,79554
 5.0000e+000 80105 -7.8084e+001 -2.1897e+002  2.7487e+001 59758 80128,79958,79906
 5.0000e+000 80082 -8.1448e+001 -2.0836e+002  2.1922e+001 59758 80128,79906,80010
 5.0000e+000 80059 -1.1033e+002 -2.3211e+002  7.4927e+001 59758 79906,79958,79932
 5.0000e+000 80036 -1.2092e+002 -2.3866e+002  8.6865e+000 59758 79880,80010,79906
 5.0000e+000 80154 -7.9997e+001 -2.2575e+002  2.7446e+001 59758 79984,79958,80128
 5.0000e+000 80177 -8.4963e+001 -2.1774e+002  2.1901e+001 59758 79984,80128,80010
 5.0000e+000 80376 -5.9094e+001 -2.0133e+002  4.4395e+000 59312 80226,80304,80252
 5.0000e+000 80353 -5.9950e+001 -2.0915e+002  3.5831e+000 59312 80200,80304,80226
 5.0000e+000 80330 -9.0537e+001 -1.8353e+002  5.4187e+001 59312 80252,80304,80278
 5.0000e+000 80805 -7.9163e+001 -1.8156e+002 -2.7350e+001 58908 80900,80828,80638
 5.0000e+000 80782 -6.6185e+001 -2.1434e+002 -4.2216e+001 58908 80828,80560,80508
 5.0000e+000 80759 -8.3471e+001 -1.7126e+002 -9.9730e+000 58908 80900,80638,80612
 5.0000e+000 80736 -3.4498e+001 -1.8413e+002  7.5267e+001 58908 80482,80664,80508
 5.0000e+000 80713 -5.5235e+001 -1.5933e+002 -6.1819e+000 58908 80560,80612,80586
 5.0000e+000 80690 -7.6707e+001 -5.3636e+002 -1.0111e+002 58908 80508,80560,80534
 5.0000e+000 80854 -3.6126e+001 -1.9594e+002  1.4003e+000 58908 80664,80638,80828
 5.0000e+000 80877 -6.2916e+001 -2.8211e+002  4.9099e+000 58908 80664,80828,80508
 5.0000e+000 80926 -6.6792e+001 -1.5034e+002 -3.0349e+001 58908 80560,80828,80900
 5.0000e+000 80949 -7.5916e+001 -1.5080e+002 -1.0531e+001 58908 80560,80900,80612
 5.0000e+000 81246 -3.4397e+001 -1.7695e+002 -4.5626e+000 58482 81076,81128,81102
 5.0000e+000 81223 -8.2762e+001 -3.0075e+002 -2.9669e+001 58482 80972,81128,81076
 5.0000e+000 81200 -5.4436e+001 -2.0512e+002 -3.1221e+001 58482 80972,81076,81050
 5.0000e+000 81177 -1.1610e+002 -3.0809e+002 -1.0338e+001 58482 80998,81050,81024
 5.0000e+000 81154 -6.7538e+001 -2.5560e+002 -3.0780e+001 58482 80972,81050,80998
 5.0000e+000 81754 -9.0130e+001 -1.8309e+002  1.3111e+001 57828 81457,81613,81483
 5.0000e+000 81731 -1.0109e+002 -2.0324e+002  5.8753e+000 57828 81431,81613,81457
 5.0000e+000 81708 -9.7340e+001 -1.9991e+002  1.4913e+001 57828 81483,81613,81509
 5.0000e+000 81685 -1.1464e+002 -2.2535e+002  2.2538e+001 57828 81509,81613,81587
 5.0000e+000 81662 -1.1992e+002 -3.3285e+002  4.7159e+001 57828 81509,81587,81535
 5.0000e+000 81639 -7.0019e+001 -3.1619e+002  3.0268e+001 57828 81535,81587,81561
 5.0000e+000 82002 -1.3412e+002 -3.2439e+002 -6.1650e-001 57374 82025,81855,81829
 5.0000e+000 81979 -1.4294e+002 -3.0575e+002  1.4834e+001 57374 82025,81829,81907
 5.0000e+000 81956 -1.4780e+002 -2.8688e+002  9.3448e+000 57374 81803,81907,81829
 5.0000e+000 81933 -8.3979e+001 -2.5937e+002  1.6095e+001 57374 81777,81907,81803
 5.0000e+000 82051 -1.3065e+002 -3.0217e+002 -2.8987e+000 57374 81881,81855,82025
 5.0000e+000 82074 -1.3753e+002 -2.8672e+002  1.7555e+001 57374 81881,82025,81907
 5.0000e+000 82356 -7.8019e+001 -1.8511e+002 -1.1674e+001 56913 82180,82232,82206
 5.0000e+000 82333 -6.8572e+001 -1.7769e+002  1.6058e+001 56913 82180,82284,82232
 5.0000e+000 82310 -2.2479e+001 -1.4001e+002  3.3826e+001 56913 82379,82232,82284
 5.0000e+000 82405  2.2298e+001 -1.3600e+002  3.7522e+000 56913 82258,82232,82379
 5.0000e+000 82764 -7.7678e+001 -1.2599e+002 -1.3184e+001 56523 82614,82666,82640
 5.0000e+000 82741 -6.5781e+001 -1.2404e+002 -1.9311e+001 56523 82614,82692,82666
 5.0000e+000 82718 -5.5491e+001 -1.3190e+002 -3.7597e+001 56523 82588,82692,82614
 5.0000e+000 83368 -1.6109e+001 -2.1232e+002 -9.9043e+000 55969 82973,83155,83129
 5.0000e+000 83345  2.1017e+000 -2.0543e+002 -1.5442e+001 55969 82973,83181,83155
 5.0000e+000 83322 -5.5442e+001 -1.8693e+002 -8.2314e+000 55969 82973,83129,82999
 5.0000e+000 83299 -8.9763e+001 -1.9247e+002  3.7275e+000 55969 83391,83025,82999
 5.0000e+000 83276 -7.7461e+001 -1.9877e+002 -5.7971e-001 55969 83391,82999,83129
 5.0000e+000 83253 -1.5387e+001 -1.6641e+002  3.5539e+001 55969 83077,83129,83103
 5.0000e+000 83230 -9.5887e+001 -1.5615e+002 -8.7741e+000 55969 83025,83077,83051
 5.0000e+000 83207 -1.1164e+000 -1.9764e+002  1.7439e+001 55969 82947,83181,82973
 5.0000e+000 83417 -7.8074e+001 -1.8530e+002  7.6321e+000 55969 83077,83025,83391
 5.0000e+000 83440 -7.3900e+001 -1.9489e+002  1.4971e+000 55969 83077,83391,83129
 5.0000e+000 83946 -1.4781e+002 -3.2897e+002  5.1686e+001 55771 83969,83779,83727
 5.0000e+000 83923 -1.1661e+002 -2.6515e+002  3.3651e+001 55771 83969,83727,83623
 5.0000e+000 83900 -1.4131e+002 -1.3797e+002  1.9593e+001 55771 83623,83727,83649
 5.0000e+000 83877 -1.1762e+002 -5.6883e+002  2.3114e+001 55771 83727,83779,83753
 5.0000e+000 83854 -2.1222e+002 -2.4325e+002  7.5734e+001 55771 83675,83727,83701
 5.0000e+000 83831 -2.1910e+002 -2.1910e+002  8.8111e+001 55771 83649,83727,83675
 5.0000e+000 83995 -1.4040e+002 -3.4307e+002 -2.8785e+001 55771 83805,83779,83969
 5.0000e+000 84018 -7.5532e+001 -2.1559e+002 -5.3504e+001 55771 83805,83969,83623
 5.0000e+000 84168 -7.0994e+001 -1.6275e+002 -4.0619e+000 55367 84191,84067,84041
 5.0000e+000 84145 -6.7600e+001 -1.8594e+002 -2.8039e+000 55367 84191,84041,84119
 5.0000e+000 84217 -7.3498e+001 -1.5121e+002 -3.2728e+000 55367 84093,84067,84191
 5.0000e+000 84240 -6.0235e+001 -1.6298e+002  4.6378e+000 55367 84093,84191,84119
 5.0000e+000 84571 -3.5897e+001 -2.5088e+002 -2.5545e+001 54913 84398,84450,84424
 5.0000e+000 84548 -2.9542e+001 -2.2969e+002 -1.2961e+001 54913 84372,84450,84398
 5.0000e+000 84525 -6.1664e+001 -2.5792e+002  9.1427e+000 54913 84346,84450,84372
 5.0000e+000 84502 -2.2213e+001 -1.6738e+002 -2.2905e+001 54913 84346,84476,84450
 5.0000e+000 85126 -1.2890e+002 -2.8166e+002 -1.1933e+001 54402 84858,84936,84910
 5.0000e+000 85103 -1.0045e+002 -2.2175e+002 -2.5532e+001 54402 84806,84936,84858
 5.0000e+000 85080 -1.2160e+002 -2.0268e+002 -1.9877e+001 54402 84780,84936,84806
 5.0000e+000 85057 -9.9769e+001 -2.4594e+002 -1.0656e+001 54402 84806,84858,84832
 5.0000e+000 85034 -1.0987e+002 -1.9126e+002  9.4620e+000 54402 84780,84962,84936
 5.0000e+000 85011 -1.4986e+002 -1.6805e+002 -5.0753e+000 54402 84858,84910,84884
 5.0000e+000 84988 -1.0613e+002 -1.8994e+002  1.2778e+001 54402 84754,84962,84780
 5.0000e+000 85396 -1.0099e+002 -1.2305e+002 -8.0360e+000 53998 85197,85249,85223
 5.0000e+000 85373 -7.8336e+001 -1.5446e+002 -1.8494e+000 53998 85197,85275,85249
 5.0000e+000 85350 -9.8950e+001 -1.8430e+002 -1.1638e+001 53998 85171,85275,85197
 5.0000e+000 85327 -4.6885e+001 -1.7270e+002 -1.3730e+001 53998 85171,85301,85275
 5.0000e+000 85749 -5.7274e+001 -1.9817e+002 -5.1612e+000 53636 85524,85628,85550
 5.0000e+000 85726 -8.9930e+001 -2.2217e+002  6.4762e+000 53636 85524,85654,85628
 5.0000e+000 85703 -3.3332e+001 -2.1019e+002 -2.0630e+001 53636 85550,85602,85576
 5.0000e+000 85680 -5.5081e+001 -1.9592e+002 -1.0380e+001 53636 85550,85628,85602
 5.0000e+000 86127 -2.3828e+001 -2.0177e+002  3.1147e+001 52982 86150,85957,85879
 5.0000e+000 86104 -7.1447e+001 -2.3307e+002  1.7557e+001 52982 86150,85879,85853
 5.0000e+000 86081 -1.9463e+001 -2.8887e+002  5.7408e+001 52982 85957,86009,85983
 5.0000e+000 86058 -8.6119e+001 -2.1719e+002  2.6160e+001 52982 85879,85957,85931
 5.0000e+000 86035 -5.3592e+001 -2.0375e+002 -8.9892e+000 52982 85879,85931,85905
 5.0000e+000 86176  5.8844e+000 -2.3719e+002  2.4974e+001 52982 86009,85957,86150
 5.0000e+000 86199 -2.2303e+001 -2.5676e+002  1.5380e+001 52982 86009,86150,85853
 5.0000e+000 86398 -4.6208e+001 -1.6301e+002  1.8351e+001 52542 86421,86248,86222
 5.0000e+000 86375 -8.7490e+001 -1.6557e+002 -9.7328e-001 52542 86421,86222,86300
 5.0000e+000 86352 -8.7999e+001 -1.8365e+002 -8.6393e+000 52542 86222,86326,86300
 5.0000e+000 86447 -4.9562e+000 -1.6307e+002  3.3849e+001 52542 86274,86248,86421
 5.0000e+000 86470 -4.3619e+001 -1.7120e+002  9.5273e+000 52542 86274,86421,86300
 5.0000e+000 86669 -8.0299e+001 -1.6942e+002 -2.9054e+001 52230 86692,86571,86545
 5.0000e+000 86646 -7.9119e+001 -1.6396e+002 -1.8386e+001 52230 86692,86545,86519
 5.0000e+000 86623 -1.0585e+002 -1.6648e+002 -2.3870e+001 52230 86493,86597,86519
 5.0000e+000 86718 -8.5893e+001 -1.7211e+002 -3.0632e+001 52230 86597,86571,86692
 5.0000e+000 86741 -9.2007e+001 -1.6981e+002 -2.0413e+001 52230 86597,86692,86519
 5.0000e+000 87153 -1.0801e+002 -1.6985e+002  6.1953e+000 51640 86980,87058,87032
 5.0000e+000 87130 -1.0724e+002 -1.7398e+002  4.5401e+000 51640 86928,87058,86980
 5.0000e+000 87107 -1.1318e+002 -2.3402e+002 -1.1826e+001 51640 86928,86980,86954
 5.0000e+000 87084 -5.8302e+001 -1.4873e+002 -1.9785e+000 51640 86980,87032,87006
 5.0000e+000 87659 -5.0810e+001 -1.5269e+002  3.8363e+000 51029 87682,87440,87362
 5.0000e+000 87636 -4.4097e+001 -1.6137e+002 -1.6118e+001 51029 87682,87362,87336
 5.0000e+000 87613 -7.2943e+001 -2.2636e+002 -4.8237e+000 51029 87440,87518,87466
 5.0000e+000 87590 -7.9871e+001 -1.5339e+002  5.9682e+000 51029 87362,87440,87414
 5.0000e+000 87567 -6.6050e+001 -1.1697e+002  2.6476e+001 51029 87362,87414,87388
 5.0000e+000 87544 -9.9294e+001 -2.0193e+002  6.6972e+000 51029 87466,87518,87492
 5.0000e+000 87708 -4.9842e+001 -1.7010e+002 -1.4921e+000 51029 87518,87440,87682
 5.0000e+000 87731 -4.8113e+001 -1.9615e+002 -1.4054e+001 51029 87518,87682,87336
 5.0000e+000 87881 -9.8234e+001 -2.1560e+002  7.2831e+000 50739 87780,87832,87806
 5.0000e+000 87858 -1.1569e+002 -2.2163e+002 -1.0033e+001 50739 87754,87832,87780
 5.0000e+000 88468 -6.2471e+001 -1.4418e+002  5.7977e+000 50235 88171,88327,88197
 5.0000e+000 88445 -1.3551e+002 -1.4485e+002 -2.2231e+001 50235 88145,88327,88171
 5.0000e+000 88422  3.6878e-001 -7.3453e+001  4.6167e-002 50235 88275,88327,88301
 5.0000e+000 88399 -4.2850e+001 -9.1969e+001 -6.7119e-001 50235 88197,88327,88275
 5.0000e+000 88376 -2.3038e+001 -1.3269e+002 -2.0351e+000 50235 88197,88275,88223
 5.0000e+000 88353 -2.4840e+001 -1.7583e+002 -1.7627e+001 50235 88223,88275,88249
 5.0000e+000 88895 -9.7206e+001 -2.3220e+002  5.6365e+000 49873 88918,88728,88676
 5.0000e+000 88872 -8.2960e+001 -2.1616e+002 -3.6817e+000 49873 88918,88676,88624
 5.0000e+000 88849 -6.5810e+001 -1.9346e+002 -9.0014e+000 49873 88598,88754,88624
 5.0000e+000 88826 -5.0957e+001 -2.0310e+002 -5.2416e+000 49873 88624,88676,88650
 5.0000e+000 88803 -8.1909e+001 -2.8219e+002  7.9759e+000 49873 88676,88728,88702
 5.0000e+000 88780 -8.1627e+001 -2.0026e+002 -1.1436e+001 49873 88572,88754,88598
 5.0000e+000 88944 -8.0004e+001 -2.3054e+002 -4.5455e+000 49873 88754,88728,88918
 5.0000e+000 88967 -7.4528e+001 -2.2479e+002 -1.2194e+001 49873 88754,88918,88624
 5.0000e+000 89473 -1.3708e+002 -2.1676e+002 -2.5638e+001 49583 89176,89306,89202
 5.0000e+000 89450 -1.3714e+002 -2.1273e+002 -3.5314e+001 49583 89176,89332,89306
 5.0000e+000 89427 -8.1077e+001 -2.3689e+002  1.1064e+001 49583 89496,89228,89202
 5.0000e+000 89404 -8.1696e+001 -2.4210e+002  1.3143e+001 49583 89496,89202,89280
 5.0000e+000 89381 -1.6950e+002 -3.0223e+002 -5.1984e+001 49583 89202,89306,89280
 5.0000e+000 89358 -1.0677e+002 -2.1431e+002 -4.0630e+001 49583 89150,89332,89176
 5.0000e+000 89522 -7.6920e+001 -2.0201e+002  6.3825e+000 49583 89254,89228,89496
 5.0000e+000 89545 -9.3475e+001 -2.3181e+002  1.2873e+001 49583 89254,89496,89280
 5.0000e+000 89825  1.4243e+001 -2.1611e+002  1.0178e+001 49179 89701,89753,89727
 5.0000e+000 89802 -3.3673e+001 -1.9492e+002  1.3816e+001 49179 89675,89753,89701
 5.0000e+000 89779 -2.5001e+001 -1.7245e+002  1.1062e+001 49179 89848,89753,89675
 5.0000e+000 89874 -1.1894e+002 -2.0305e+002 -1.4603e+001 49179 89649,89753,89848
 5.0000e+000 90223 -7.2186e+001 -2.1286e+002 -2.4323e+001 48739 90024,90102,90076
 5.0000e+000 90200 -6.9833e+001 -2.0075e+002 -9.3406e+000 48739 90024,90128,90102
 5.0000e+000 90177 -2.7326e+000 -2.0684e+002 -2.5738e+001 48739 90024,90076,90050
 5.0000e+000 90154 -2.5780e+001 -1.9260e+002  1.4202e+001 48739 89998,90128,90024
 5.0000e+000 90603 -6.4718e+001 -1.6718e+002  3.6696e+001 48335 90381,90485,90459
 5.0000e+000 90580 -8.6133e+001 -1.9784e+002  2.6612e+001 48335 90355,90485,90381
 5.0000e+000 90557 -3.5481e+001 -6.8050e+001  1.9117e+001 48335 90381,90433,90407
 5.0000e+000 90534 -6.3948e+001 -1.7495e+002  2.7118e+001 48335 90381,90459,90433
 5.0000e+000 90511  2.3963e+001 -1.3672e+002  5.2546e+001 48335 90329,90485,90355
 5.0000e+000 90753 -1.8851e+000 -1.0903e+002  6.6282e+001 47824 90776,90652,90704
 5.0000e+000 90730 -5.7121e+001 -1.9075e+002  3.0882e+001 47824 90626,90704,90652
 5.0000e+000 90802 -2.6600e+001 -1.4267e+002  5.3030e+001 47824 90678,90652,90776
 5.0000e+000 91131 -7.1270e+001 -2.3745e+002  1.2465e+001 47427 91154,90958,90906
 5.0000e+000 91108 -1.2799e+002 -2.6049e+002 -3.0864e-001 47427 91154,90906,91036
 5.0000e+000 91085 -1.2302e+002 -2.0713e+002 -1.8892e+001 47427 90958,91010,90984
 5.0000e+000 91062 -6.8801e+001 -2.1543e+002  1.3522e+001 47427 90906,90958,90932
 5.0000e+000 91180 -1.0498e+002 -2.3719e+002 -2.4752e+001 47427 91010,90958,91154
 5.0000e+000 91203 -1.5987e+002 -2.6101e+002 -3.8519e+001 47427 91010,91154,91036
 5.0000e+000 91583 -1.1937e+002 -2.2311e+002 -1.2357e+001 46873 91309,91439,91335
 5.0000e+000 91560 -1.2464e+002 -2.2555e+002 -1.0436e+001 46873 91309,91465,91439
 5.0000e+000 91537 -1.7774e+002 -2.5786e+002 -6.5277e+001 46873 91361,91439,91413
 5.0000e+000 91514 -1.3353e+002 -2.3267e+002 -3.4641e+001 46873 91335,91439,91361
 5.0000e+000 91491 -6.0568e+001 -2.1853e+002 -5.9220e+001 46873 91361,91413,91387
 5.0000e+000 91880 -7.2260e+001 -2.3621e+002 -6.3637e+000 46526 91606,91710,91658
 5.0000e+000 91857 -7.7776e+001 -2.5049e+002  2.6639e+000 46526 91606,91762,91710
 5.0000e+000 91834 -4.1610e+001 -2.2557e+002 -2.8661e+001 46526 91606,91658,91632
 5.0000e+000 91811 -8.8499e+001 -2.1846e+002  4.3392e+000 46526 91658,91710,91684
 5.0000e+000 91788 -4.8361e+001 -1.6991e+002  5.1774e+000 46526 91710,91762,91736
 5.0000e+000 92211 -3.9815e+001 -9.4632e+001 -7.5398e+000 45700 91986,92064,92038
 5.0000e+000 92188 -5.3795e+001 -1.4160e+002  1.0582e+000 45700 91986,92116,92064
 5.0000e+000 92165 -3.1072e+001 -8.1213e+001 -1.7378e+001 45700 91986,92038,92012
 5.0000e+000 92142 -3.5742e+001 -1.5606e+002  1.9498e+001 45700 92064,92116,92090
 5.0000e+000 92766 -1.0518e+002 -2.0314e+002  1.2144e+001 45452 92446,92602,92576
 5.0000e+000 92743 -1.5674e+002 -1.9685e+002 -1.9214e+001 45452 92420,92602,92446
 5.0000e+000 92720 -1.2163e+002 -2.1105e+002  3.3420e+001 45452 92789,92524,92498
 5.0000e+000 92697 -1.3970e+002 -2.0715e+002  2.7754e+001 45452 92789,92498,92446
 5.0000e+000 92674 -1.1921e+002 -2.2435e+002 -1.1882e+000 45452 92524,92576,92550
 5.0000e+000 92651 -1.8398e+002 -2.1314e+002  1.1395e+002 45452 92446,92498,92472
 5.0000e+000 92628 -1.0678e+002 -2.5797e+002 -6.4230e+001 45452 92394,92602,92420
 5.0000e+000 92815 -1.0893e+002 -2.1355e+002  2.8562e+001 45452 92576,92524,92789
 5.0000e+000 92838 -1.2306e+002 -2.0663e+002  2.5302e+001 45452 92576,92789,92446
 5.0000e+000 92939 -8.7674e+001 -2.7742e+002 -5.7150e+001 44998 92861,92913,92887
 5.0000e+000 93319 -1.7544e+001 -2.8368e+002  5.3556e+001 44601 93123,93201,93149
 5.0000e+000 93296 -7.7289e+001 -2.8535e+002 -2.8503e+001 44601 93045,93201,93123
 5.0000e+000 93273 -6.2236e+001 -1.6357e+002 -3.9809e+001 44601 93045,93123,93071
 5.0000e+000 93250 -5.8078e+001 -1.5198e+002 -2.5939e+001 44601 93071,93123,93097
 5.0000e+000 93227 -4.5926e+000 -1.5748e+002  5.7755e+001 44601 93149,93201,93175
 5.0000e+000 93697 -6.0452e+001 -3.0925e+002  1.6508e+001 44026 93720,93553,93527
 5.0000e+000 93674 -1.0616e+002 -2.6273e+002  2.2900e+001 44026 93720,93527,93449
 5.0000e+000 93651 -1.1691e+002 -2.7096e+002 -4.0565e+000 44026 93449,93527,93501
 5.0000e+000 93628 -8.5030e+001 -2.0999e+002 -4.5817e+001 44026 93423,93579,93449
 5.0000e+000 93605 -2.5543e+001 -2.1552e+002  1.9472e+001 44026 93449,93501,93475
 5.0000e+000 93746 -2.8203e+001 -2.7476e+002  3.2086e+000 44026 93579,93553,93720
 5.0000e+000 93769 -7.6372e+001 -2.2906e+002  1.0310e+001 44026 93579,93720,93449
 5.0000e+000 94066 -6.0527e+001 -2.4220e+002 -3.3256e+001 43579 94089,93818,93792
 5.0000e+000 94043 -9.8430e+001 -2.6701e+002 -2.2130e+001 43579 94161,94089,93792
 5.0000e+000 94020 -9.6951e+001 -2.6801e+002 -1.3450e+001 43579 94161,93792,93948
 5.0000e+000 93997 -1.0494e+002 -2.1452e+002 -1.1220e+001 43579 94233,93870,93818
 5.0000e+000 93974 -5.9688e+001 -2.2202e+002  6.7532e+000 43579 93818,93870,93844
 5.0000e+000 94115 -1.0219e+002 -2.1626e+002 -2.4663e+001 43579 94233,93818,94089
 5.0000e+000 94138 -1.3450e+002 -2.4240e+002 -1.5767e+001 43579 93896,94089,93922
 5.0000e+000 94187 -9.2753e+001 -2.5405e+002 -2.1316e+001 43579 93922,94089,94161
 5.0000e+000 94210 -9.0407e+001 -2.5367e+002 -1.1838e+001 43579 93922,94161,93948
 5.0000e+000 94259 -1.2081e+002 -2.4012e+002 -3.8019e+000 43579 93896,93870,94233
 5.0000e+000 94282 -1.1107e+002 -2.3539e+002 -1.9265e+001 43579 93896,94233,94089
 5.0000e+000 94481 -8.0759e+001 -2.5105e+002 -1.2766e+000 43239 94305,94383,94357
 5.0000e+000 94458 -6.9910e+001 -2.2969e+002  2.9047e+001 43239 94305,94409,94383
 5.0000e+000 94435 -6.0850e+001 -2.6555e+002 -6.6175e+000 43239 94305,94357,94331
 5.0000e+000 94633 -2.9199e+001 -1.5732e+002  3.6667e+001 42827 94656,94532,94506
 5.0000e+000 94610 -6.7020e+001 -1.7458e+002  4.0651e+001 42827 94728,94656,94506
 5.0000e+000 94682 -3.7049e+001 -1.8163e+002  3.0988e+001 42827 94558,94532,94656
 5.0000e+000 94705 -1.4590e+001 -1.7780e+002  1.8944e+001 42827 94988,94860,94656
 5.0000e+000 94754 -3.8875e+001 -1.5979e+002  1.2658e+001 42827 94988,94656,94728
 5.0000e+000 94886  6.2165e+000 -1.6813e+002  2.1430e+001 42827 94558,94656,94860
 5.0000e+000 95014  5.7655e+000 -1.6236e+002  1.2194e+001 42827 94584,94860,94988
 5.0000e+000 95037 -1.5198e+001 -1.4567e+002  6.1612e+000 42827 94584,94988,94728
 5.0000e+000 95236 -3.4175e+001 -1.9524e+002  2.6195e+001 42537 95259,95112,95060
 5.0000e+000 95213 -4.2895e+001 -1.8903e+002  2.3645e+001 42537 95259,95060,95164
 5.0000e+000 95190 -1.7053e+001 -1.9920e+002 -3.5133e+000 42537 95060,95112,95086
 5.0000e+000 95285 -3.9999e+001 -1.9775e+002  2.2597e+001 42537 95138,95112,95259
 5.0000e+000 95308 -4.9283e+001 -1.9454e+002  1.8794e+001 42537 95138,95259,95164
 5.0000e+000 95816 -8.7023e+001 -2.4244e+002 -1.6357e+001 41969 95493,95597,95519
 5.0000e+000 95793 -1.2818e+002 -2.2931e+002  2.0793e+001 41969 95493,95649,95597
 5.0000e+000 95770 -9.6672e+001 -2.1611e+002  1.8383e+001 41969 95493,95675,95649
 5.0000e+000 95747 -1.0383e+002 -2.9464e+002  1.7706e+001 41969 95597,95649,95623
 5.0000e+000 95724 -1.3845e+002 -2.2334e+002 -2.7194e+001 41969 95519,95597,95571
 5.0000e+000 95701 -1.2210e+002 -1.9460e+002 -5.5588e+001 41969 95519,95571,95545
 5.0000e+000 96371 -1.0807e+002 -2.5732e+002  3.1614e+001 41579 96025,96207,96181
 5.0000e+000 96348  3.1299e+001 -1.9381e+002 -8.6720e+000 41579 95999,96207,96025
 5.0000e+000 96325 -1.2342e+002 -1.9810e+002 -2.1715e+001 41579 96129,96181,96155
 5.0000e+000 96302 -4.6162e+001 -1.8029e+002  1.5360e+000 41579 96025,96181,96129
 5.0000e+000 96279 -9.9876e+001 -2.6613e+002  3.6120e+001 41579 96025,96129,96051
 5.0000e+000 96256 -1.1772e+002 -2.5451e+002  3.9224e+001 41579 96051,96103,96077
 5.0000e+000 96233 -4.5153e+001 -1.9231e+002  4.4004e+000 41579 96051,96129,96103
 5.0000e+000 96877 -2.7979e+001 -1.6426e+002 -1.8363e+001 41182 96972,96900,96632
 5.0000e+000 96854 -3.5217e+001 -1.2280e+002 -1.9087e+001 41182 96900,96554,96736
 5.0000e+000 96831 -2.6893e+001 -1.6387e+002 -1.6112e+001 41182 96972,96632,96580
 5.0000e+000 96808 -3.5679e+001 -1.5470e+002  1.6010e+001 41182 96632,96684,96658
 5.0000e+000 96785 -6.3991e+001 -1.6871e+002  1.9489e+001 41182 96684,96736,96710
 5.0000e+000 96762 -9.4795e+001 -2.0931e+002  3.4190e+001 41182 96580,96632,96606
 5.0000e+000 96926 -2.5845e+001 -1.8195e+002 -1.8200e+001 41182 96684,96632,96900
 5.0000e+000 96949 -5.2362e+001 -1.6198e+002 -3.1929e+001 41182 96684,96900,96736
 5.0000e+000 96998 -3.2246e+001 -1.6654e+002 -2.0337e+001 41182 96554,96900,96972
 5.0000e+000 97021 -3.1197e+001 -1.6510e+002 -1.7808e+001 41182 96554,96972,96580
 5.0000e+000 97576 -1.4675e+002 -3.6583e+002 -5.0706e+001 40678 97230,97412,97282
 5.0000e+000 97553 -1.6063e+001 -3.0092e+002  1.5650e+001 40678 97204,97412,97230
 5.0000e+000 97530 -4.2740e+001 -2.7914e+002 -4.5105e+001 40678 97282,97360,97308
 5.0000e+000 97507 -6.5936e+001 -2.8435e+002 -1.7911e+001 40678 97282,97412,97360
 5.0000e+000 97484 -1.9420e+001 -1.6950e+002 -3.9311e+001 40678 97308,97360,97334
 5.0000e+000 97461 -8.4273e+001 -3.4136e+002 -1.0140e+001 40678 97360,97412,97386
 5.0000e+000 97438 -8.3526e+001 -2.3342e+002 -3.1409e+001 40678 97230,97282,97256
 5.0000e+000 97976 -1.1527e+002 -1.9365e+002 -4.6911e+000 40244 97702,97832,97754
 5.0000e+000 97953 -9.6753e+001 -1.8638e+002 -9.8039e+000 40244 97702,97858,97832
 5.0000e+000 97930 -1.2373e+002 -2.2762e+002 -4.8257e+001 40244 97702,97754,97728
 5.0000e+000 97907 -9.6397e+001 -2.1260e+002  2.3351e+001 40244 97780,97832,97806
 5.0000e+000 97884 -1.0479e+002 -1.8733e+002 -1.3388e+000 40244 97754,97832,97780
 5.0000e+000 98482 -6.3077e+001 -1.8112e+002  2.9141e+001 39690 98505,98185,98159
 5.0000e+000 98459 -6.4820e+001 -1.7558e+002  2.8123e+001 39690 98505,98159,98289
 5.0000e+000 98436 -1.2277e+002 -2.6237e+002  7.1697e+001 39690 98159,98315,98289
 5.0000e+000 98413 -4.9832e+001 -1.6312e+002  2.5132e+001 39690 98211,98289,98263
 5.0000e+000 98390 -2.9162e+001 -1.0562e+002  1.5012e+001 39690 98211,98263,98237
 5.0000e+000 98367 -3.2521e+001 -1.6248e+002  2.5796e+001 39690 98159,98341,98315
 5.0000e+000 98531 -6.4078e+001 -1.7797e+002  2.5596e+001 39690 98211,98185,98505
 5.0000e+000 98554 -6.4372e+001 -1.6926e+002  2.5623e+001 39690 98211,98505,98289
 5.0000e+000 99109 -6.2179e+001 -1.6338e+002 -9.9060e+000 39072 99132,98867,98789
 5.0000e+000 99086 -5.9264e+001 -1.6895e+002 -1.4757e+001 39072 99132,98789,98763
 5.0000e+000 99063 -9.3458e+001 -2.6973e+002  2.9453e+001 39072 98867,98945,98919
 5.0000e+000 99040 -5.3851e+001 -1.7379e+002 -1.5701e+000 39072 98789,98867,98841
 5.0000e+000 99017 -1.2313e+002 -1.9561e+002  8.8184e+000 39072 98867,98919,98893
 5.0000e+000 98994 -8.6751e+001 -1.6040e+002  3.4364e+001 39072 98789,98841,98815
 5.0000e+000 98971 -8.7507e+001 -1.9216e+002 -1.2419e+001 39072 98737,98945,98763
 5.0000e+000 99158 -6.0727e+001 -1.7056e+002 -1.0873e+001 39072 98945,98867,99132
 5.0000e+000 99181 -6.0027e+001 -1.8070e+002 -1.2833e+001 39072 98945,99132,98763
 5.0000e+000 99510 -5.2315e+001 -1.5118e+002  1.0378e+001 38668 99311,99389,99363
 5.0000e+000 99487 -4.4763e+001 -1.5792e+002 -4.1891e+000 38668 99285,99389,99311
 5.0000e+000 99464 -1.0092e+002 -2.1839e+002  1.9821e+001 38668 99285,99415,99389
 5.0000e+000 99441 -4.7612e+001 -1.6277e+002  1.6644e+001 38668 99311,99363,99337
 5.0000e+000 99758 -6.0486e+001 -2.4333e+002  3.9536e+001 38164 99781,99611,99585
 5.0000e+000 99735 -2.5144e+001 -2.4987e+002  4.3600e+001 38164 99781,99585,99533
 5.0000e+000 99712 -9.1224e+001 -2.3101e+002  2.8688e+001 38164 99611,99663,99637
 5.0000e+000 99689  1.1309e+001 -2.3965e+002 -1.5088e+001 38164 99533,99585,99559
 5.0000e+000 99807 -8.0738e+001 -2.4233e+002  4.9412e+001 38164 99663,99611,99781
 5.0000e+000 99830 -5.3820e+001 -2.5293e+002  4.7954e+001 38164 99663,99781,99533
 5.0000e+000 100232 -6.9569e+001 -1.8257e+002  2.6325e+000 37702 99984,100114,100088
 5.0000e+000 100209 -5.5404e+001 -1.9495e+002  1.9675e+001 37702 99958,100114,99984
 5.0000e+000 100186 -1.0263e+002 -2.2786e+002 -1.4269e+001 37702 100010,100088,100036
 5.0000e+000 100163 -6.9368e+001 -1.8280e+002  3.7627e-001 37702 99984,100088,100010
 5.0000e+000 100140 -6.0551e+001 -1.6739e+002 -4.7800e+001 37702 100036,100088,100062
 5.0000e+000 100640 -1.4927e+002 -2.1436e+002  2.7190e+001 37262 100493,100545,100519
 5.0000e+000 100617 -1.3386e+002 -2.4299e+002  1.3256e+001 37262 100441,100545,100493
 5.0000e+000 100594 -5.4972e+001 -1.8283e+002 -3.2290e+001 37262 100415,100545,100441
 5.0000e+000 100571 -1.4963e+002 -2.5844e+002 -1.0443e+001 37262 100441,100493,100467
 5.0000e+000 101146 -1.0602e+002 -1.7929e+002 -1.5733e+000 36872 100823,100979,100849
 5.0000e+000 101123 -1.0310e+002 -1.6663e+002 -1.6598e+001 36872 100823,101005,100979
 5.0000e+000 101100 -1.0925e+002 -2.5894e+002  3.5178e+001 36872 101169,100901,100849
 5.0000e+000 101077 -8.4073e+001 -2.0608e+002  1.8738e+001 36872 101169,100849,100979
 5.0000e+000 101054 -5.9915e+001 -2.1592e+002 -1.3900e+001 36872 100927,100979,100953
 5.0000e+000 101031 -5.9686e+001 -2.9234e+002  4.9071e+001 36872 100849,100901,100875
 5.0000e+000 101195 -7.5201e+001 -2.7435e+002  2.1346e+000 36872 100927,100901,101169
 5.0000e+000 101218 -5.9835e+001 -2.4637e+002 -1.1137e+001 36872 100927,101169,100979
 5.0000e+000 101773 -1.2163e+002 -1.9364e+002  3.6440e+001 36418 101479,101609,101583
 5.0000e+000 101750 -1.2533e+002 -2.0570e+002  3.6732e+001 36418 101453,101609,101479
 5.0000e+000 101727 -8.3854e+001 -2.0551e+002 -1.2383e+000 36418 101796,101531,101479
 5.0000e+000 101704 -1.1729e+002 -2.2874e+002  1.5725e+001 36418 101796,101479,101583
 5.0000e+000 101681 -7.2365e+001 -1.7724e+002 -5.4588e+000 36418 101479,101531,101505
 5.0000e+000 101658 -2.9933e+000 -1.8314e+002  4.6312e+000 36418 101401,101609,101453
 5.0000e+000 101635 -3.6956e+001 -1.8208e+002  2.6598e+000 36418 101401,101453,101427
 5.0000e+000 101822 -9.1635e+001 -1.8826e+002 -3.3007e+001 36418 101557,101531,101796
 5.0000e+000 101845 -1.3001e+002 -1.9638e+002 -1.7633e+001 36418 101557,101796,101583
 5.0000e+000 102174 -1.2240e+001 -9.0756e+001 -2.4155e+001 35914 101949,102053,101975
 5.0000e+000 102151 -4.3618e+001 -9.2977e+001 -1.8837e+001 35914 101949,102079,102053
 5.0000e+000 102128 -4.7203e+001 -1.0728e+002 -1.2395e+001 35914 101975,102053,102027
 5.0000e+000 102105 -2.9955e+001 -8.0187e+001 -1.9789e+001 35914 101975,102027,102001
 5.0000e+000 102631 -4.0811e+001 -2.1118e+002  7.1534e+000 35574 102383,102513,102487
 5.0000e+000 102608 -2.9728e+001 -2.2049e+002  5.8441e+000 35574 102357,102513,102383
 5.0000e+000 102585 -7.0342e+001 -2.1864e+002  8.3454e+000 35574 102409,102487,102435
 5.0000e+000 102562 -7.2961e+001 -2.2357e+002  5.9188e+000 35574 102383,102487,102409
 5.0000e+000 102539 -7.0427e+001 -2.2097e+002  9.3655e+000 35574 102435,102487,102461
 5.0000e+000 103009 -1.1239e+002 -2.0734e+002 -1.4555e+001 35170 102761,102865,102787
 5.0000e+000 102986 -6.7858e+001 -1.8256e+002  1.9359e+001 35170 102761,102891,102865
 5.0000e+000 102963 -9.9044e+001 -2.0036e+002 -5.1831e+000 35170 102787,102865,102813
 5.0000e+000 102940 -5.5811e+001 -1.7485e+002  2.2956e+001 35170 102735,102891,102761
 5.0000e+000 102917 -1.0086e+002 -2.0760e+002 -1.3869e+001 35170 102813,102865,102839
 5.0000e+000 103257 -2.0018e+001 -1.5782e+002 -2.7798e+001 34659 103280,103058,103032
 5.0000e+000 103234 -3.1492e+001 -1.6657e+002 -1.5932e+001 34659 103280,103032,103162
 5.0000e+000 103211 -5.6478e+001 -1.6877e+002 -1.4749e+001 34659 103084,103162,103110
 5.0000e+000 103188 -7.4155e+001 -2.0685e+002 -1.0230e+001 34659 103110,103162,103136
 5.0000e+000 103306 -4.0304e+001 -1.4713e+002 -2.4174e+001 34659 103084,103058,103280
 5.0000e+000 103329 -4.7538e+001 -1.5626e+002 -1.0818e+001 34659 103084,103280,103162
 5.0000e+000 103837 -2.0073e+001 -2.3150e+002  7.4753e+000 34247 103860,103566,103540
 5.0000e+000 103814 -3.1622e+001 -2.3270e+002  4.4553e-001 34247 103932,103860,103540
 5.0000e+000 103791 -2.3414e+001 -2.5835e+002 -2.5701e+001 34247 103932,103540,103670
 5.0000e+000 103768 -2.5104e+001 -2.1676e+002  4.7784e+000 34247 103566,103618,103592
 5.0000e+000 103745 -9.4475e+001 -2.1748e+002 -3.3489e+001 34247 103540,103696,103670
 5.0000e+000 103722 -1.2527e+002 -2.4212e+002  3.5237e+001 34247 103514,103696,103540
 5.0000e+000 103886 -4.8107e+001 -2.3063e+002 -2.3174e+000 34247 103618,103566,103860
 5.0000e+000 103909 -5.3672e+001 -2.4665e+002  6.4078e+000 34247 103618,103860,103644
 5.0000e+000 103958 -5.4574e+001 -2.9441e+002 -4.0258e+000 34247 103644,103860,103932
 5.0000e+000 103981 -4.6404e+001 -3.1816e+002 -3.1461e+001 34247 103644,103932,103670
 5.0000e+000 104300 -1.1413e+002 -2.4386e+002 -8.2351e+000 33843 104052,104182,104156
 5.0000e+000 104277 -1.4737e+002 -2.2914e+002 -2.0974e+000 33843 104026,104182,104052
 5.0000e+000 104254 -1.1155e+002 -2.7587e+002  5.5456e+000 33843 104078,104156,104130
 5.0000e+000 104231 -1.3294e+002 -2.6288e+002  3.6002e-001 33843 104052,104156,104078
 5.0000e+000 104208 -1.7019e+002 -2.9146e+002  7.3984e+000 33843 104078,104130,104104
 5.0000e+000 104499 -7.9240e+001 -2.4730e+002 -2.0936e+001 33282 104594,104522,104375
 5.0000e+000 104476 -6.8613e+001 -2.4100e+002  7.6929e+000 33282 104522,104323,104427
 5.0000e+000 104453 -4.8463e+001 -2.6430e+002 -1.9085e+001 33282 104594,104375,104349
 5.0000e+000 104548 -8.3015e+001 -2.1486e+002 -1.0317e+001 33282 104401,104375,104522
 5.0000e+000 104571 -5.7391e+001 -2.1159e+002  9.3157e+000 33282 104401,104522,104427
 5.0000e+000 104620 -4.1701e+001 -2.1571e+002 -6.8475e+000 33282 104323,104522,104594
 5.0000e+000 104643 -2.2351e+001 -2.4414e+002 -9.5327e+000 33282 104323,104594,104349
 5.0000e+000 104942 -1.0759e+002 -2.7356e+002  3.3017e+001 32728 104694,104772,104720
 5.0000e+000 104919 -8.2511e+001 -2.4994e+002  1.2203e+001 32728 104694,104824,104772
 5.0000e+000 104896 -1.3994e+002 -2.4540e+002  3.7164e+001 32728 104720,104772,104746
 5.0000e+000 104873 -6.4113e+001 -2.8425e+002  1.4485e+001 32728 104772,104824,104798
 5.0000e+000 104850 -6.8267e+001 -2.4681e+002  1.2339e+001 32728 104668,104824,104694
 5.0000e+000 105373 -8.7700e+001 -2.6337e+002 -1.2218e+001 32274 105396,105102,105076
 5.0000e+000 105350 -9.5862e+001 -2.8763e+002 -4.7760e+000 32274 105396,105076,105206
 5.0000e+000 105327 -1.2212e+002 -2.9497e+002  1.3504e+001 32274 105154,105206,105180
 5.0000e+000 105304 -4.8691e+001 -2.7677e+002 -2.3579e+001 32274 105076,105232,105206
 5.0000e+000 105281 -1.0514e+002 -2.3912e+002 -4.3475e+001 32274 105102,105154,105128
 5.0000e+000 105258 -1.5086e+002 -2.3049e+002 -4.4780e+001 32274 105050,105232,105076
 5.0000e+000 105422 -1.0210e+002 -2.3693e+002 -1.1274e+001 32274 105154,105102,105396
 5.0000e+000 105445 -1.0942e+002 -2.6154e+002 -5.5179e+000 32274 105154,105396,105206
 5.0000e+000 105644 -1.0426e+002 -2.7007e+002 -4.6446e+000 31620 105468,105546,105520
 5.0000e+000 105621 -8.5386e+001 -2.9222e+002 -1.4013e+001 31620 105468,105572,105546
 5.0000e+000 105598 -1.0421e+002 -2.9297e+002  1.4932e+001 31620 105468,105520,105494
 5.0000e+000 105794 -2.4028e+001 -2.3446e+002 -7.3380e+000 31158 105889,105817,105693
 5.0000e+000 105771 -4.0030e+001 -2.1039e+002 -1.5179e+001 31158 105817,105667,105745
 5.0000e+000 105843 -3.2188e+001 -2.8770e+002 -2.7500e+000 31158 105719,105693,105817
 5.0000e+000 105866 -1.7066e+001 -2.4673e+002 -1.2848e+001 31158 105719,105817,105745
 5.0000e+000 105915 -6.0357e+001 -2.5003e+002 -7.7546e+000 31158 105667,105817,105889
 5.0000e+000 106270 -1.0288e+002 -2.3511e+002 -1.1729e+000 30818 106293,106071,106045
 5.0000e+000 106247 -1.1905e+002 -2.7156e+002 -1.4351e+001 30818 106293,106045,106175
 5.0000e+000 106224 -8.2891e+001 -2.1751e+002  1.3572e+001 30818 106123,106175,106149
 5.0000e+000 106201 -1.0665e+002 -2.4006e+002  2.4314e+001 30818 106071,106123,106097
 5.0000e+000 106319 -1.0435e+002 -2.2079e+002  1.2174e+001 30818 106123,106071,106293
 5.0000e+000 106342 -1.0638e+002 -2.3990e+002  1.0617e+000 30818 106123,106293,106175
 5.0000e+000 106492 -9.7557e+001 -2.1772e+002  4.1419e+001 30414 106645,106391,106365
 5.0000e+000 106469 -3.2501e+001 -2.1581e+002  6.4219e+001 30414 106515,106365,106443
 5.0000e+000 106541 -6.0351e+001 -2.2708e+002  4.7398e+001 30414 106645,106365,106515
 5.0000e+000 106671 -4.5349e+001 -2.5800e+002  8.1812e+001 30414 106417,106391,106645
 5.0000e+000 106694  3.8528e+001 -2.3865e+002  7.0551e+001 30414 106417,106645,106515
 5.0000e+000 106942 -5.0621e+001 -3.3225e+002 -1.1413e+000 29910 106965,106795,106769
 5.0000e+000 106919 -4.3641e+001 -2.9868e+002  8.6851e+000 29910 106965,106769,106717
 5.0000e+000 106896 -4.6037e+001 -2.4989e+002 -3.2290e+001 29910 106795,106847,106821
 5.0000e+000 106873 -2.2793e+001 -2.5508e+002  1.6434e+001 29910 106717,106769,106743
 5.0000e+000 106991 -6.9654e+001 -2.9598e+002  3.6813e+000 29910 106847,106795,106965
 5.0000e+000 107014 -5.5194e+001 -2.5135e+002  1.3132e+001 29910 106847,106965,106717
 5.0000e+000 107213 -6.9856e+001 -2.4764e+002  1.5058e+001 29413 107236,107063,107037
 5.0000e+000 107190 -6.4258e+001 -2.9261e+002  3.1680e+001 29413 107236,107037,107141
 5.0000e+000 107167 -8.5190e+001 -1.7847e+002  3.8491e+001 29413 107063,107115,107089
 5.0000e+000 107262 -6.6080e+001 -2.1839e+002  1.0153e+001 29413 107115,107063,107236
 5.0000e+000 107285 -5.3826e+001 -2.5186e+002  2.8352e+001 29413 107115,107236,107141
 5.0000e+000 107486 -3.0408e+001 -2.3863e+002  3.1532e+001 29009 107336,107388,107362
 5.0000e+000 107463 -1.5298e+001 -2.3032e+002  9.0450e+000 29009 107310,107388,107336
 5.0000e+000 107440 -1.9162e+001 -2.1674e+002  8.9078e+000 29009 107310,107414,107388
 5.0000e+000 107736 -1.0277e+002 -2.7467e+002 -1.0075e+001 28491 107537,107615,107563
 5.0000e+000 107713 -8.8925e+001 -2.6817e+002 -7.1873e+000 28491 107537,107641,107615
 5.0000e+000 107690 -5.7852e+001 -2.5750e+002  5.3229e+000 28491 107563,107615,107589
 5.0000e+000 107667 -9.3025e+001 -2.6599e+002 -7.8453e+000 28491 107511,107641,107537
 5.0000e+000 108118 -5.7928e+001 -2.5969e+002  1.0016e+001 27980 108141,107922,107844
 5.0000e+000 108095 -4.6223e+001 -2.7828e+002  9.1881e+000 27980 108141,107844,108000
 5.0000e+000 108072 -6.0916e+001 -2.7117e+002 -1.4427e+001 27980 107844,107922,107870
 5.0000e+000 108049 -6.5819e+001 -2.3448e+002 -7.4543e+000 27980 107870,107922,107896
 5.0000e+000 108026 -9.2291e+001 -2.4465e+002  3.0335e+001 27980 107922,107974,107948
 5.0000e+000 108167 -4.9608e+001 -2.6020e+002  1.3944e+001 27980 107974,107922,108141
 5.0000e+000 108190 -1.7900e+001 -2.6018e+002  1.8700e+001 27980 107974,108141,108000
 5.0000e+000 108745 -2.8772e+001 -1.6974e+002 -4.2440e+000 27376 108840,108768,108477
 5.0000e+000 108722 -5.1261e+001 -2.0917e+002 -4.1664e+001 27376 108768,108373,108581
 5.0000e+000 108699 -4.8036e+001 -1.4752e+002  3.0990e+001 27376 108840,108477,108451
 5.0000e+000 108676 -1.2158e+002 -1.7915e+002 -7.8261e+000 27376 108373,108451,108399
 5.0000e+000 108653 -4.8266e+001 -2.1145e+002  2.9839e+001 27376 108503,108581,108529
 5.0000e+000 108630 -5.4868e+001 -2.0564e+002  3.0996e+001 27376 108529,108581,108555
 5.0000e+000 108607 -1.3739e+002 -1.9127e+002  1.5088e+001 27376 108399,108451,108425
 5.0000e+000 108794 -4.7709e+001 -2.2906e+002  8.7370e-001 27376 108503,108477,108768
 5.0000e+000 108817 -8.0576e+000 -2.0883e+002 -7.6093e+000 27376 108503,108768,108581
 5.0000e+000 108866 -1.0046e+002 -2.1035e+002 -2.0459e+001 27376 108373,108768,108840
 5.0000e+000 108889 -9.6983e+001 -1.8070e+002  1.6332e+001 27376 108373,108840,108451
 5.0000e+000 109186 -1.0100e+002 -2.6872e+002  2.8057e+001 26722 109209,108938,108912
 5.0000e+000 109163 -9.4198e+001 -2.5212e+002  2.5867e+001 26722 109281,109209,108912
 5.0000e+000 109140 -9.0784e+001 -2.4545e+002  2.4459e+001 26722 109281,108912,109042
 5.0000e+000 109117 -8.2538e+001 -2.8750e+002  1.2789e+001 26722 108938,108990,108964
 5.0000e+000 109094 -1.2819e+002 -2.2348e+002  1.6140e+001 26722 108912,109068,109042
 5.0000e+000 109235 -8.4424e+001 -2.5964e+002  2.4448e+001 26722 108990,108938,109209
 5.0000e+000 109258 -9.0956e+001 -2.7882e+002  2.1754e+001 26722 108990,109209,109016
 5.0000e+000 109307 -8.3675e+001 -2.6254e+002  1.3355e+001 26722 109016,109209,109281
 5.0000e+000 109330 -7.7292e+001 -2.5107e+002  1.0560e+001 26722 109016,109281,109042
 5.0000e+000 109732 -1.0577e+002 -2.2346e+002 -4.8422e+000 26310 109458,109588,109484
 5.0000e+000 109709 -9.9997e+001 -2.5524e+002 -2.6642e+001 26310 109458,109614,109588
 5.0000e+000 109686 -1.5227e+002 -2.5924e+002  3.7517e+001 26310 109510,109562,109536
 5.0000e+000 109663 -1.5160e+002 -2.4460e+002  1.4675e+001 26310 109484,109562,109510
 5.0000e+000 109640 -1.1012e+002 -2.2711e+002 -1.4368e+000 26310 109484,109588,109562
 5.0000e+000 110159 -6.3709e+001 -2.2376e+002 -7.2856e+000 25642 110182,109940,109914
 5.0000e+000 110136 -5.7931e+001 -2.6031e+002  3.2024e+001 25642 110182,109914,109888
 5.0000e+000 110113 -8.1031e+001 -2.7846e+002 -3.6053e+001 25642 109966,110018,109992
 5.0000e+000 110090 -8.9603e+001 -2.6850e+002  2.0977e+001 25642 110254,109966,109940
 5.0000e+000 110067 -1.2009e+002 -2.5503e+002  1.5059e+001 25642 109862,110018,109888
 5.0000e+000 110044 -1.1283e+002 -2.1155e+002  3.6579e+001 25642 109836,110018,109862
 5.0000e+000 110208 -8.7966e+001 -2.4556e+002  1.5619e+001 25642 110254,109940,110182
 5.0000e+000 110231 -9.6336e+001 -2.6266e+002  3.5466e+001 25642 110018,110182,109888
 5.0000e+000 110280 -7.7662e+001 -2.9735e+002  1.6837e+001 25642 110018,109966,110254
 5.0000e+000 110303 -8.0945e+001 -2.8032e+002  1.2328e+001 25642 110018,110254,110182
 5.0000e+000 110632 -1.1713e+002 -2.3384e+002 -1.3471e+001 25188 110407,110485,110433
 5.0000e+000 110609 -1.3595e+002 -2.3412e+002 -8.5059e+000 25188 110407,110537,110485
 5.0000e+000 110586 -1.3247e+002 -2.4280e+002 -4.4783e+001 25188 110433,110485,110459
 5.0000e+000 110563 -1.2823e+002 -2.5141e+002  2.4685e+001 25188 110485,110537,110511
 5.0000e+000 110831 -2.1232e+001 -2.2240e+002  6.2983e+000 24726 110854,110707,110655
 5.0000e+000 110808 -9.2682e+000 -2.4009e+002  2.4305e+001 24726 110854,110655,110759
 5.0000e+000 110785 -3.0346e+001 -2.2971e+002  1.1849e+001 24726 110655,110707,110681
 5.0000e+000 110880 -1.2015e+001 -2.0544e+002  9.8559e+000 24726 110733,110707,110854
 5.0000e+000 110903  4.0886e+000 -2.1447e+002  2.9173e+001 24726 110733,110854,110759
 5.0000e+000 111234 -6.4407e+000 -1.6274e+002 -4.5201e+000 24222 111257,111087,111035
 5.0000e+000 111211  2.1349e+001 -1.5023e+002  1.7826e+001 24222 111257,111035,111009
 5.0000e+000 111188 -2.6302e+001 -8.5583e+001 -3.6640e+001 24222 111035,111087,111061
 5.0000e+000 111165 -2.6536e+001 -1.3322e+002  4.6162e+000 24222 111087,111139,111113
 5.0000e+000 111283 -2.3677e+001 -1.3466e+002  8.0802e+000 24222 111139,111087,111257
 5.0000e+000 111306 -1.1656e+001 -1.1492e+002  2.2448e+001 24222 111139,111257,111009
 5.0000e+000 111625 -3.0692e+001 -2.2493e+002 -1.2604e+001 23732 111648,111481,111455
 5.0000e+000 111602 -3.1273e+001 -2.2631e+002 -1.2406e+001 23732 111648,111455,111377
 5.0000e+000 111579  3.3440e+001 -1.1237e+002  2.4433e+001 23732 111377,111429,111403
 5.0000e+000 111556 -1.0852e+001 -2.2678e+002 -6.2827e+000 23732 111377,111455,111429
 5.0000e+000 111533 -2.1496e+001 -2.0387e+002 -4.8672e+000 23732 111351,111507,111377
 5.0000e+000 111674 -3.1231e+001 -2.2261e+002 -1.0979e+001 23732 111507,111481,111648
 5.0000e+000 111697 -3.2453e+001 -2.2544e+002 -1.0835e+001 23732 111507,111648,111377
 5.0000e+000 112156 -6.2711e+001 -2.6648e+002  1.9906e+001 23278 112179,111908,111882
 5.0000e+000 112133 -5.8619e+001 -2.4656e+002  1.0829e+001 23278 112179,111882,112012
 5.0000e+000 112110 -1.9212e+001 -2.8839e+002  1.1637e+000 23278 111908,111960,111934
 5.0000e+000 112087 -2.4739e+001 -2.1643e+002 -2.9448e+000 23278 111882,112038,112012
 5.0000e+000 112064 -5.2764e+001 -2.2231e+002 -3.4341e+000 23278 111960,112012,111986
 5.0000e+000 112205 -5.9653e+001 -2.5698e+002  3.5507e+000 23278 111960,111908,112179
 5.0000e+000 112228 -4.9860e+001 -2.3455e+002 -6.8066e+000 23278 111960,112179,112012
 5.0000e+000 112685 -1.6400e+002 -3.6684e+002 -3.5212e+001 22938 112489,112567,112541
 5.0000e+000 112662 -1.4160e+002 -3.1695e+002 -3.0614e+001 22938 112437,112567,112489
 5.0000e+000 112639 -9.4808e+001 -2.7325e+002 -3.6243e+000 22938 112489,112541,112515
 5.0000e+000 112616 -1.6078e+002 -3.0367e+002 -2.7240e+001 22938 112411,112567,112437
 5.0000e+000 112593 -1.2615e+002 -4.0054e+002 -7.0190e+000 22938 112437,112489,112463
 5.0000e+000 113191 -1.1691e+001 -2.6237e+002 -3.2603e+001 22534 113214,112998,112946
 5.0000e+000 113168 -4.9323e+001 -2.3280e+002 -1.6845e+001 22534 113286,113214,112946
 5.0000e+000 113145 -3.7355e+001 -2.3325e+002 -1.4081e+001 22534 113286,112946,112920
 5.0000e+000 113122 -1.0512e+002 -2.1402e+002 -4.6467e+001 22534 113358,113024,112998
 5.0000e+000 113099 -6.7304e+001 -2.2561e+002 -8.9843e+000 22534 112868,113050,112894
 5.0000e+000 113076 -7.6472e+001 -3.8589e+002 -6.3597e+001 22534 112946,112998,112972
 5.0000e+000 113240 -7.7955e+001 -2.6939e+002 -4.9186e+001 22534 113358,112998,113214
 5.0000e+000 113263 -6.4448e+001 -2.4431e+002 -1.0936e+001 22534 113050,113214,112894
 5.0000e+000 113312 -3.3699e+001 -2.3084e+002 -1.3396e+001 22534 112894,113214,113286
 5.0000e+000 113335 -2.1019e+001 -2.3188e+002 -1.2838e+001 22534 112894,113286,112920
 5.0000e+000 113384 -7.4923e+001 -1.6316e+002 -3.3863e+001 22534 113050,113024,113358
 5.0000e+000 113407 -3.5871e+001 -2.0905e+002 -3.0533e+001 22534 113050,113358,113214
 5.0000e+000 113785 -1.1873e+002 -3.1062e+002  6.7624e+000 21978 113808,113615,113511
 5.0000e+000 113762 -9.5159e+001 -3.1415e+002  2.0711e+001 21978 113808,113511,113667
 5.0000e+000 113739 -7.1025e+001 -2.6722e+002 -1.2515e+001 21978 113511,113615,113537
 5.0000e+000 113716  3.3008e+001 -2.3845e+002 -2.6747e+001 21978 113537,113615,113589
 5.0000e+000 113693 -3.3020e+001 -3.4340e+002  4.5033e+000 21978 113537,113589,113563
 5.0000e+000 113834 -1.2298e+002 -3.1082e+002  3.6655e+001 21978 113641,113615,113808
 5.0000e+000 113857 -6.1386e+001 -2.8699e+002  5.3285e+001 21978 113641,113808,113667
 5.0000e+000 114284 -8.6303e+001 -2.5926e+002  5.7115e+000 21517 114013,114117,114039
 5.0000e+000 114261 -9.8413e+001 -2.5829e+002  2.0473e+001 21517 113961,114117,114013
 5.0000e+000 114238 -9.4883e+001 -2.6158e+002  2.1035e+001 21517 113961,114013,113987
 5.0000e+000 114215 -1.4216e+002 -2.9713e+002 -2.1035e+001 21517 114039,114117,114091
 5.0000e+000 114192 -9.9987e+001 -2.1837e+002  2.4541e+001 21517 113961,114143,114117
 5.0000e+000 114169 -2.1621e+001 -2.5495e+002 -2.2570e+001 21517 114039,114091,114065
 5.0000e+000 114581 -4.5457e+001 -3.0341e+002  3.8748e+000 21027 114359,114463,114437
 5.0000e+000 114558 -2.0199e+001 -2.7390e+002  3.7251e+001 21027 114333,114463,114359
 5.0000e+000 114535 -1.4695e+001 -2.7499e+002 -7.9925e+000 21027 114359,114437,114385
 5.0000e+000 114512 -1.0623e+001 -2.7124e+002  3.2985e+001 21027 114307,114463,114333
 5.0000e+000 114489  5.1524e+001 -2.5680e+002 -1.2711e+001 21027 114385,114437,114411
 5.0000e+000 114912 -1.1752e+002 -2.6567e+002  3.9083e+000 20623 114713,114791,114765
 5.0000e+000 114889 -8.2339e+001 -2.5126e+002 -1.8706e+001 20623 114687,114791,114713
 5.0000e+000 114866 -5.5399e+001 -2.7765e+002 -2.1671e+001 20623 114687,114817,114791
 5.0000e+000 114843 -1.7494e+002 -3.2501e+002  2.8384e+001 20623 114713,114765,114739
 5.0000e+000 115290 -3.1706e+001 -2.3899e+002  1.2565e+001 20375 115313,115146,115094
 5.0000e+000 115267 -5.2358e+001 -2.2780e+002  2.3792e+001 20375 115313,115094,115042
 5.0000e+000 115244 -6.8259e+001 -2.1895e+002  7.0830e+000 20375 115385,115016,115172
 5.0000e+000 115221 -2.3054e+001 -2.1362e+002  1.9430e+001 20375 115042,115094,115068
 5.0000e+000 115198 -4.9478e+001 -2.8513e+002  1.5267e+001 20375 115094,115146,115120
 5.0000e+000 115339 -7.4453e+001 -2.8286e+002 -9.4492e+000 20375 115172,115146,115313
 5.0000e+000 115362 -4.0419e+001 -2.2612e+002  8.5511e+000 20375 115385,115172,115313
 5.0000e+000 115411 -8.3824e+001 -2.2708e+002  1.0025e+001 20375 115042,115016,115385
 5.0000e+000 115434 -7.0368e+001 -2.4376e+002  1.5896e+001 20375 115042,115385,115313
 5.0000e+000 115891 -1.2465e+002 -2.4511e+002  2.9933e+001 19971 115617,115747,115643
 5.0000e+000 115868 -1.0757e+002 -2.0390e+002  2.9039e+001 19971 115617,115773,115747
 5.0000e+000 115845 -7.9578e+001 -3.7227e+002  4.8439e+000 19971 115643,115721,115695
 5.0000e+000 115822 -3.4936e+000 -1.8609e+002 -1.2398e+000 19971 115643,115747,115721
 5.0000e+000 115799 -6.6615e+001 -4.5538e+002 -3.5639e+001 19971 115643,115695,115669
 5.0000e+000 115992 -1.8088e+002 -4.6519e+002 -7.9877e+001 19659 115914,115966,115940
 5.0000e+000 116142 -2.8199e+001 -1.0521e+002  2.8147e+000 18997 116041,116093,116067
 5.0000e+000 116119 -5.7039e+001 -1.7953e+002  1.0984e+001 18997 116015,116093,116041
 5.0000e+000 116343 -4.8668e+001 -2.7826e+002 -8.0126e+000 18707 116193,116245,116219
 5.0000e+000 116320 -1.0776e+002 -3.0346e+002 -1.2240e+001 18707 116193,116271,116245
 5.0000e+000 116297 -9.8500e+001 -2.7201e+002 -2.0796e+001 18707 116167,116271,116193
 5.0000e+000 116747 -4.4941e+001 -2.5173e+002 -4.5886e+000 18301 116525,116629,116551
 5.0000e+000 116724 -2.5353e+001 -2.1371e+002  6.1774e+000 18301 116473,116629,116525
 5.0000e+000 116701 -1.6579e+001 -2.0764e+002 -1.1152e+001 18301 116473,116525,116499
 5.0000e+000 116678 -3.8060e+001 -2.6202e+002 -3.4774e+000 18301 116551,116603,116577
 5.0000e+000 116655 -5.3083e+001 -2.7086e+002 -7.6081e+000 18301 116551,116629,116603
 5.0000e+000 117147 -1.2394e+002 -2.8662e+002  5.2019e-001 17747 116899,117029,116925
 5.0000e+000 117124 -6.5399e+001 -2.0877e+002  3.0582e+001 17747 116873,117029,116899
 5.0000e+000 117101 -1.2272e+002 -2.8443e+002  1.0202e+000 17747 116925,117029,116951
 5.0000e+000 117078 -1.0552e+002 -2.4338e+002 -3.7879e-001 17747 116951,117029,117003
 5.0000e+000 117055 -1.4261e+002 -3.2539e+002 -2.1306e+001 17747 116951,117003,116977
 5.0000e+000 117368  1.7931e+001 -2.7762e+002  6.4068e+000 17293 117244,117296,117270
 5.0000e+000 117345 -1.9320e+001 -2.8725e+002 -3.8472e+000 17293 117192,117296,117244
 5.0000e+000 117322 -4.9535e+001 -2.6937e+002 -3.0866e+000 17293 117192,117244,117218
 5.0000e+000 117699 -2.6755e+001 -2.2516e+002 -2.6159e+001 16896 117526,117604,117552
 5.0000e+000 117676 -1.4795e+002 -3.4444e+002  2.1985e+001 16896 117500,117604,117526
 5.0000e+000 117653 -1.5727e+002 -2.7249e+002 -1.3650e+001 16896 117552,117604,117578
 5.0000e+000 117630 -1.3670e+002 -4.4613e+002  3.7039e+001 16896 117474,117604,117500
 5.0000e+000 117849 -3.1508e+002 -6.0807e+002 -2.3163e+001 16534 117722,117774,117748
 5.0000e+000 117826 -2.4823e+002 -7.3904e+002 -1.0018e+002 16534 117722,117800,117774
 5.0000e+000 118070 -5.7470e-001 -2.8555e+002  3.6256e+001 16194 117946,117998,117972
 5.0000e+000 118047 -4.6170e+001 -3.2251e+002  1.4575e+001 16194 117894,117998,117946
 5.0000e+000 118024 -1.6403e+002 -3.3066e+002  3.6783e-003 16194 117894,117946,117920
 5.0000e+000 118173 -1.8974e+001 -2.7028e+002  0.0000e+000 15968 118095,118147,118121
 5.0000e+000 118276 -8.1189e+001 -2.9862e+002  1.1384e+000 15433 118299,118198,118250
 5.0000e+000 118325 -8.1923e+001 -3.0033e+002  1.1552e+000 15433 118224,118198,118299
 5.0000e+000 118450 -1.4260e+002 -3.1635e+002  2.9887e+001 421 118372,118424,118398
 5.1000e+000 69891 -6.1085e+001 -3.1421e+002  1.1328e+001 68988 69447,69681,69629
 5.1000e+000 69868  1.5071e+001 -2.8212e+002  8.3193e+000 68988 69421,69681,69447
 5.1000e+000 69845 -7.8871e+000 -1.5972e+002  1.2075e+000 68988 69447,69629,69577
 5.1000e+000 69822 -9.7128e+001 -3.2507e+002 -3.5241e+001 68988 69447,69577,69473
 5.1000e+000 69799 -1.8756e+001 -3.7783e+002  6.3009e+001 68988 69629,69681,69655
 5.1000e+000 69776 -1.0545e+002 -2.0204e+002  5.7256e+000 68988 69577,69629,69603
 5.1000e+000 69753 -7.8081e+001 -2.9209e+002 -4.4355e+001 68988 69473,69577,69551
 5.1000e+000 69730 -1.0761e+002 -5.6838e+002 -5.4753e+001 68988 69473,69551,69525
 5.1000e+000 69707 -1.7420e+002 -3.7922e+002  1.2116e+000 68988 69473,69525,69499
 5.1000e+000 69992 -1.9258e+002 -3.4604e+002 -4.7856e+001 68676 69914,69966,69940
 5.1000e+000 70392 -1.4121e+002 -2.8644e+002  2.2557e+001 68478 70118,70248,70144
 5.1000e+000 70369 -4.5941e+000 -2.9452e+002  6.0706e+001 68478 70118,70274,70248
 5.1000e+000 70346 -8.5546e+001 -2.1623e+002 -6.2115e-001 68478 70144,70222,70196
 5.1000e+000 70323 -7.1819e+001 -1.8051e+002 -9.3449e+000 68478 70144,70248,70222
 5.1000e+000 70300 -9.1817e+001 -2.3594e+002 -3.8335e+000 68478 70144,70196,70170
 5.1000e+000 70841  3.6951e+001 -2.0064e+002 -5.1747e+001 68280 70570,70622,70596
 5.1000e+000 70818 -1.0285e+002 -2.2605e+002 -1.2475e+001 68280 70544,70622,70570
 5.1000e+000 70795 -7.7797e+001 -1.6982e+002 -7.4314e+000 68280 70544,70674,70622
 5.1000e+000 70772 -6.7562e+001 -1.5250e+002  2.3349e+000 68280 70622,70674,70648
 5.1000e+000 70749 -1.0865e+002 -2.5265e+002  1.8445e+001 68280 70518,70674,70544
 5.1000e+000 70726  7.1995e+001 -2.6593e+002  7.1072e+001 68280 70518,70700,70674
 5.1000e+000 70991 -1.1518e+001 -1.0288e+003  3.1039e+001 67968 70864,70916,70890
 5.1000e+000 70968 -2.7402e+002 -1.0221e+003  1.1934e+002 67968 70864,70942,70916
 5.1000e+000 71141 -4.7042e+002 -8.9955e+002 -4.2993e+001 67770 71040,71092,71066
 5.1000e+000 71118 -4.1190e+002 -1.0829e+003  4.7586e+001 67770 71014,71092,71040
 5.1000e+000 71651 -7.1687e+001 -2.0516e+002 -3.1888e+001 67366 71746,71674,71458
 5.1000e+000 71628 -4.8414e+001 -1.6637e+002 -3.4779e+001 67366 71674,71354,71510
 5.1000e+000 71605 -6.5481e+001 -2.2713e+002 -2.9422e+001 67366 71746,71458,71432
 5.1000e+000 71582 -1.0150e+002 -2.3245e+002  1.2335e+001 67366 71354,71432,71380
 5.1000e+000 71559 -1.0594e+002 -1.7285e+002 -1.6333e+001 67366 71380,71432,71406
 5.1000e+000 71536 -5.2040e+001 -7.2565e+001 -2.2150e+000 67366 71328,71510,71354
 5.1000e+000 71700 -7.7876e+001 -1.8523e+002 -1.4797e+001 67366 71484,71458,71674
 5.1000e+000 71723 -5.6423e+001 -1.7532e+002 -1.1664e+001 67366 71484,71674,71510
 5.1000e+000 71772 -6.4303e+001 -1.7906e+002 -2.7870e+001 67366 71354,71674,71746
 5.1000e+000 71795 -5.6726e+001 -1.9812e+002 -2.8186e+001 67366 71354,71746,71432
 5.1000e+000 71896 -1.7727e+002 -3.7637e+002  0.0000e+000 67146 71818,71870,71844
 5.1000e+000 71997 -2.1545e+002 -3.4405e+002  6.9594e+001 66948 71919,71971,71945
 5.1000e+000 72149 -2.4384e+001 -2.3879e+002 -2.7083e+001 66700 72172,72074,72048
 5.1000e+000 72126 -9.1234e+001 -2.6816e+002 -1.0639e+001 66700 72172,72048,72022
 5.1000e+000 72198 -1.3740e+002 -2.9146e+002  1.7478e+001 66700 72244,72172,72100
 5.1000e+000 72221 -1.2438e+002 -2.6809e+002 -1.5424e+001 66700 72100,72172,72022
 5.1000e+000 72270 -7.8672e+001 -1.6239e+002 -1.8371e+001 66700 72074,72172,72244
 5.1000e+000 72623 -9.8800e+001 -2.5227e+002  6.0668e+000 66502 72424,72502,72450
 5.1000e+000 72600 -8.4678e+001 -2.1418e+002  4.2666e+000 66502 72398,72502,72424
 5.1000e+000 72577 -6.7754e+001 -2.4080e+002 -3.7319e+000 66502 72398,72528,72502
 5.1000e+000 72554 -1.0022e+002 -2.2693e+002 -1.2378e+000 66502 72450,72502,72476
 5.1000e+000 72920 -1.5192e+002 -3.1011e+002  7.6197e+000 65941 72672,72776,72750
 5.1000e+000 72897 -1.4954e+002 -2.6766e+002  2.9058e+001 65941 72646,72776,72672
 5.1000e+000 72874 -1.3381e+002 -3.0461e+002  9.4403e+000 65941 72672,72750,72724
 5.1000e+000 72851 -1.3452e+002 -2.4433e+002  2.0939e+001 65941 72672,72724,72698
 5.1000e+000 72828 -1.1515e+002 -2.6677e+002  2.6794e+001 65941 72646,72802,72776
 5.1000e+000 73241 -4.6676e+001 -2.2116e+002  1.2065e+001 65743 73264,73071,73045
 5.1000e+000 73218 -9.8273e+001 -2.4772e+002  2.1600e+001 65743 73480,73264,73045
 5.1000e+000 73195 -8.0534e+001 -2.2164e+002 -2.6883e+000 65743 73336,72967,73097
 5.1000e+000 73172 -1.3188e+002 -2.0428e+002 -2.0555e+001 65743 73408,72993,72967
 5.1000e+000 73149 -7.4991e+001 -2.2229e+002 -2.9846e+000 65743 72967,73123,73097
 5.1000e+000 73290 -6.4184e+001 -2.2884e+002  2.8750e+000 65743 73097,73071,73264
 5.1000e+000 73313 -7.1589e+001 -2.1299e+002  7.4098e+000 65743 73336,73097,73264
 5.1000e+000 73362 -1.1458e+002 -2.2788e+002 -1.3492e+001 65743 73408,72967,73336
 5.1000e+000 73385 -5.9734e+001 -2.0943e+002 -3.7357e-001 65743 73019,73336,73264
 5.1000e+000 73434 -1.0309e+002 -1.6080e+002  1.1574e+001 65743 73019,72993,73408
 5.1000e+000 73457 -6.2589e+001 -1.9191e+002  8.2915e+000 65743 73019,73408,73336
 5.1000e+000 73506 -4.5470e+001 -1.5589e+002  2.3009e-001 65743 73019,73264,73480
 5.1000e+000 73989 -1.5623e+001 -1.8110e+002  2.0997e+001 65453 73793,73845,73819
 5.1000e+000 73966 -9.8631e+001 -2.0303e+002  2.4194e+001 65453 73741,73845,73793
 5.1000e+000 73943 -2.9615e+001 -1.6500e+002  9.4244e+000 65453 73715,73845,73741
 5.1000e+000 73920 -7.9184e+001 -2.1804e+002  4.0674e+001 65453 73741,73793,73767
 5.1000e+000 73897 -1.3586e-001 -1.0600e+002 -4.1043e-001 65453 73715,73871,73845
 5.1000e+000 74357 -5.5787e+001 -2.1560e+002 -5.7564e+001 65141 74380,74138,74086
 5.1000e+000 74334 -9.8636e+001 -2.8581e+002 -3.8397e+001 65141 74380,74086,74060
 5.1000e+000 74311 -1.1094e+002 -2.7943e+002 -1.0842e+001 65141 74138,74190,74164
 5.1000e+000 74288 -8.9071e+001 -3.1089e+002 -1.2960e+001 65141 74060,74216,74190
 5.1000e+000 74265 -9.3767e+001 -3.2683e+002  4.4603e+000 65141 74034,74216,74060
 5.1000e+000 74242 -6.3047e+001 -1.5953e+002 -3.1993e+001 65141 74086,74138,74112
 5.1000e+000 74406 -8.2981e+001 -2.7820e+002 -2.3627e+001 65141 74190,74138,74380
 5.1000e+000 74429 -9.6060e+001 -3.0229e+002 -1.1034e+001 65141 74190,74380,74060
 5.1000e+000 74937 -1.1293e+002 -2.2742e+002 -5.4208e+001 64737 74614,74666,74640
 5.1000e+000 74914 -1.4102e+002 -2.7467e+002 -3.9603e+001 64737 74614,74796,74666
 5.1000e+000 74891 -1.0225e+002 -1.9076e+002 -6.0640e+000 64737 74960,74718,74666
 5.1000e+000 74868 -9.2654e+001 -2.1004e+002 -2.3940e+001 64737 74960,74666,74770
 5.1000e+000 74845 -9.6160e+001 -1.7484e+002 -2.5908e+001 64737 74666,74796,74770
 5.1000e+000 74822 -9.9351e+001 -2.0726e+002  4.3708e+000 64737 74666,74718,74692
 5.1000e+000 74986 -1.0799e+002 -2.1045e+002 -7.9764e+000 64737 74744,74718,74960
 5.1000e+000 75009 -1.0490e+002 -2.3996e+002 -2.6692e+001 64737 74744,74960,74770
 5.1000e+000 75306 -5.4443e+001 -2.0017e+002  3.0636e+001 64133 75329,75110,75084
 5.1000e+000 75283 -7.1212e+001 -2.3800e+002  9.2137e+000 64133 75401,75329,75084
 5.1000e+000 75260 -6.9498e+001 -2.4422e+002  1.1043e+001 64133 75401,75084,75058
 5.1000e+000 75237 -6.9409e+001 -2.8427e+002  3.6707e+001 64133 75473,75136,75110
 5.1000e+000 75214 -6.9675e+001 -2.2201e+002  2.9826e+000 64133 75032,75188,75162
 5.1000e+000 75355 -8.1205e+001 -2.6329e+002  2.8220e+001 64133 75473,75110,75329
 5.1000e+000 75378 -6.1563e+001 -2.2780e+002  3.1506e+000 64133 75162,75329,75032
 5.1000e+000 75427 -5.8246e+001 -2.1963e+002  1.9860e+000 64133 75032,75329,75401
 5.1000e+000 75450 -1.1029e+002 -2.7004e+002  2.8501e+001 64133 75545,75401,75058
 5.1000e+000 75499 -6.0194e+001 -2.5799e+002  1.2094e+001 64133 75162,75136,75473
 5.1000e+000 75522 -7.0426e+001 -2.2295e+002  9.9508e+000 64133 75162,75473,75329
 5.1000e+000 75571 -5.6819e+001 -1.5326e+002  7.8484e+000 64133 75032,75401,75545
 5.1000e+000 75851 -9.4074e+001 -2.1783e+002  5.6440e+000 63843 75874,75753,75727
 5.1000e+000 75828 -8.1662e+001 -2.1296e+002 -9.7344e+000 63843 75946,75874,75727
 5.1000e+000 75805 -9.1878e+001 -2.2465e+002 -4.5395e+000 63843 76018,75946,75727
 5.1000e+000 75900 -7.4776e+001 -2.0969e+002 -6.8244e+000 63843 75779,75753,75874
 5.1000e+000 75923 -7.7583e+001 -1.7940e+002 -2.3944e+001 63843 75779,75874,75675
 5.1000e+000 75972 -9.2081e+001 -2.0421e+002 -8.3158e+000 63843 75675,75874,75946
 5.1000e+000 75995 -8.4945e+001 -2.1084e+002 -1.4010e+001 63843 75675,75946,75701
 5.1000e+000 76044 -9.3117e+001 -2.1817e+002 -1.7699e+001 63843 75701,75946,76018
 5.1000e+000 76454  1.3025e+001 -4.2616e+001 -2.3702e+001 63439 76477,76255,76229
 5.1000e+000 76431 -2.1996e+001 -1.0194e+002 -7.6810e-001 63439 76477,76229,76359
 5.1000e+000 76408 -2.9757e+001 -7.7930e+001  4.4971e+001 63439 76307,76359,76333
 5.1000e+000 76385 -1.9538e+001 -1.0645e+002  6.5249e+000 63439 76255,76307,76281
 5.1000e+000 76503 -2.3144e+001 -8.9311e+001  1.1661e+001 63439 76307,76255,76477
 5.1000e+000 76526 -2.1802e+001 -1.1253e+002  2.8224e+001 63439 76307,76477,76359
 5.1000e+000 76926 -5.0003e+001 -1.5093e+002 -1.8022e+000 63049 76704,76782,76756
 5.1000e+000 76903 -7.0615e+001 -1.5643e+002 -1.4422e+001 63049 76704,76808,76782
 5.1000e+000 76880 -5.0338e+001 -1.7103e+002  2.3456e+000 63049 76704,76756,76730
 5.1000e+000 76857 -4.1376e+001 -1.0133e+002  7.2322e+000 63049 76678,76808,76704
 5.1000e+000 76834 -1.9018e+001 -2.3112e+001 -2.2647e+001 63049 76652,76808,76678
 5.1000e+000 77076 -2.3292e+001 -2.5693e+002 -1.4914e+000 62737 76975,77027,77001
 5.1000e+000 77053 -2.1991e+001 -2.8779e+002 -1.7868e+001 62737 76949,77027,76975
 5.1000e+000 77324 -1.0710e+002 -2.5034e+002 -2.6929e+000 62277 77347,77177,77125
 5.1000e+000 77301 -1.0695e+002 -2.4312e+002 -1.3991e+001 62277 77347,77125,77229
 5.1000e+000 77278 -1.0335e+002 -2.5255e+002 -2.0017e+001 62277 77099,77229,77125
 5.1000e+000 77255 -1.1354e+002 -2.9925e+002  3.1814e+000 62277 77125,77177,77151
 5.1000e+000 77373 -1.1336e+002 -2.7176e+002  4.7066e+000 62277 77203,77177,77347
 5.1000e+000 77396 -1.0140e+002 -2.5310e+002 -8.5135e+000 62277 77203,77347,77229
 5.1000e+000 77857 -5.8674e+001 -3.1978e+002  3.7380e+000 61758 77635,77739,77661
 5.1000e+000 77834 -8.5570e+001 -3.0844e+002 -1.1077e+001 61758 77583,77739,77635
 5.1000e+000 77811 -9.9018e+001 -3.8997e+002 -3.7666e+001 61758 77583,77635,77609
 5.1000e+000 77788 -7.9512e+001 -3.0469e+002  2.4368e+001 61758 77661,77713,77687
 5.1000e+000 77765 -8.4338e+001 -3.4877e+002  2.3418e+001 61758 77661,77739,77713
 5.1000e+000 78491 -8.9383e+001 -1.7252e+002  1.0030e+001 61418 78171,78301,78249
 5.1000e+000 78468 -7.1354e+001 -1.4310e+002  2.1767e+001 61418 78145,78301,78171
 5.1000e+000 78445 -6.7292e+001 -1.5302e+002 -7.2466e+000 61418 78171,78249,78223
 5.1000e+000 78422 -6.9174e+001 -1.4170e+002  7.5241e+000 61418 78145,78327,78301
 5.1000e+000 78399 -9.3213e+001 -1.9440e+002 -8.4970e-001 61418 78249,78301,78275
 5.1000e+000 78376 -4.0531e+001 -1.6635e+002 -1.1558e+001 61418 78171,78223,78197
 5.1000e+000 78353 -8.1299e+001 -1.8995e+002 -5.1208e+000 61418 78119,78327,78145
 5.1000e+000 78690 -8.5904e+001 -2.0095e+002  2.1669e-002 61014 78713,78566,78540
 5.1000e+000 78667 -6.1218e+001 -2.0544e+002  2.4225e+000 61014 78713,78540,78618
 5.1000e+000 78644 -9.7583e+001 -2.3226e+002 -2.2007e+001 61014 78514,78618,78540
 5.1000e+000 78739 -4.7560e+001 -1.9868e+002  2.1330e+001 61014 78592,78566,78713
 5.1000e+000 78762 -6.1021e+001 -2.1676e+002  2.3409e+000 61014 78785,78713,78618
 5.1000e+000 78811 -1.8109e+001 -2.0014e+002 -2.7087e+000 61014 78592,78713,78785
 5.1000e+000 79398 -4.0817e+001 -1.8015e+002 -1.6440e+001 60624 79101,79179,79153
 5.1000e+000 79375 -5.1767e+001 -1.9928e+002 -8.3364e+000 60624 79101,79231,79179
 5.1000e+000 79352 -4.0712e+001 -1.9816e+002 -1.2919e+001 60624 79075,79231,79101
 5.1000e+000 79329 -1.3112e+001 -2.3625e+002  2.5984e+001 60624 79075,79257,79231
 5.1000e+000 79306 -3.7359e+001 -1.4879e+002 -2.9000e+001 60624 79179,79231,79205
 5.1000e+000 79283 -3.2666e+001 -1.6195e+002 -1.0829e+001 60624 79101,79153,79127
 5.1000e+000 79776 -1.0514e+002 -2.7029e+002  2.2706e+001 60070 79528,79658,79606
 5.1000e+000 79753 -9.5934e+001 -2.1764e+002 -4.9755e-001 60070 79502,79658,79528
 5.1000e+000 79730 -1.2725e+002 -2.6010e+002  3.4254e+001 60070 79528,79606,79580
 5.1000e+000 79707 -4.3085e+001 -2.3607e+002  5.2269e+000 60070 79606,79658,79632
 5.1000e+000 79684 -1.0666e+001 -1.6138e+002 -3.9809e+001 60070 79528,79580,79554
 5.1000e+000 80105 -7.4764e+001 -2.0853e+002  2.5789e+001 59758 80128,79958,79906
 5.1000e+000 80082 -7.7423e+001 -1.9821e+002  2.0412e+001 59758 80128,79906,80010
 5.1000e+000 80059 -1.0523e+002 -2.2079e+002  7.0761e+001 59758 79906,79958,79932
 5.1000e+000 80036 -1.1340e+002 -2.2612e+002  8.2202e+000 59758 79880,80010,79906
 5.1000e+000 80154 -7.6294e+001 -2.1516e+002  2.6009e+001 59758 79984,79958,80128
 5.1000e+000 80177 -8.0630e+001 -2.0740e+002  2.0701e+001 59758 79984,80128,80010
 5.1000e+000 80376 -5.6453e+001 -1.8911e+002  4.1854e+000 59312 80226,80304,80252
 5.1000e+000 80353 -5.7352e+001 -1.9659e+002  3.3393e+000 59312 80200,80304,80226
 5.1000e+000 80330 -8.6172e+001 -1.7306e+002  5.0787e+001 59312 80252,80304,80278
 5.1000e+000 80805 -7.5075e+001 -1.7204e+002 -2.5674e+001 58908 80900,80828,80638
 5.1000e+000 80782 -6.2080e+001 -2.0326e+002 -4.0000e+001 58908 80828,80560,80508
 5.1000e+000 80759 -7.9379e+001 -1.6225e+002 -9.0549e+000 58908 80900,80638,80612
 5.1000e+000 80736 -3.2479e+001 -1.7571e+002  7.1342e+001 58908 80482,80664,80508
 5.1000e+000 80713 -5.2395e+001 -1.5154e+002 -5.3567e+000 58908 80560,80612,80586
 5.1000e+000 80690 -7.1604e+001 -5.1108e+002 -9.6663e+001 58908 80508,80560,80534
 5.1000e+000 80854 -3.3599e+001 -1.8560e+002  1.7513e+000 58908 80664,80638,80828
 5.1000e+000 80877 -5.9304e+001 -2.6804e+002  5.0371e+000 58908 80664,80828,80508
 5.1000e+000 80926 -6.2960e+001 -1.4221e+002 -2.8768e+001 58908 80560,80828,80900
 5.1000e+000 80949 -7.1974e+001 -1.4276e+002 -9.8100e+000 58908 80560,80900,80612
 5.1000e+000 81246 -3.1623e+001 -1.6863e+002 -3.9617e+000 58482 81076,81128,81102
 5.1000e+000 81223 -7.8730e+001 -2.8612e+002 -2.8208e+001 58482 80972,81128,81076
 5.1000e+000 81200 -5.1573e+001 -1.9513e+002 -2.9860e+001 58482 80972,81076,81050
 5.1000e+000 81177 -1.1066e+002 -2.9271e+002 -9.9242e+000 58482 80998,81050,81024
 5.1000e+000 81154 -6.4035e+001 -2.4267e+002 -2.9526e+001 58482 80972,81050,80998
 5.1000e+000 81754 -8.6477e+001 -1.7451e+002  1.1849e+001 57828 81457,81613,81483
 5.1000e+000 81731 -9.6632e+001 -1.9337e+002  5.3530e+000 57828 81431,81613,81457
 5.1000e+000 81708 -9.2794e+001 -1.8925e+002  1.3993e+001 57828 81483,81613,81509
 5.1000e+000 81685 -1.0941e+002 -2.1336e+002  2.1308e+001 57828 81509,81613,81587
 5.1000e+000 81662 -1.1518e+002 -3.1559e+002  4.4124e+001 57828 81509,81587,81535
 5.1000e+000 81639 -6.6782e+001 -3.0094e+002  2.7922e+001 57828 81535,81587,81561
 5.1000e+000 82002 -1.2712e+002 -3.0759e+002 -7.5479e-001 57374 82025,81855,81829
 5.1000e+000 81979 -1.3511e+002 -2.8943e+002  1.4192e+001 57374 82025,81829,81907
 5.1000e+000 81956 -1.4030e+002 -2.7099e+002  8.5495e+000 57374 81803,81907,81829
 5.1000e+000 81933 -7.8370e+001 -2.4452e+002  1.4892e+001 57374 81777,81907,81803
 5.1000e+000 82051 -1.2474e+002 -2.8592e+002 -2.6004e+000 57374 81881,81855,82025
 5.1000e+000 82074 -1.2997e+002 -2.7035e+002  1.7325e+001 57374 81881,82025,81907
 5.1000e+000 82356 -7.4172e+001 -1.7661e+002 -1.0964e+001 56913 82180,82232,82206
 5.1000e+000 82333 -6.5104e+001 -1.6918e+002  1.5008e+001 56913 82180,82284,82232
 5.1000e+000 82310 -2.0719e+001 -1.3277e+002  3.2130e+001 56913 82379,82232,82284
 5.1000e+000 82405  2.1795e+001 -1.2887e+002  3.7961e+000 56913 82258,82232,82379
 5.1000e+000 82764 -7.4322e+001 -1.2078e+002 -1.2569e+001 56523 82614,82666,82640
 5.1000e+000 82741 -6.2619e+001 -1.1836e+002 -1.8565e+001 56523 82614,82692,82666
 5.1000e+000 82718 -5.3003e+001 -1.2565e+002 -3.5568e+001 56523 82588,82692,82614
 5.1000e+000 83368 -1.4944e+001 -1.9859e+002 -9.7400e+000 55969 82973,83155,83129
 5.1000e+000 83345  2.0553e+000 -1.9198e+002 -1.2487e+001 55969 82973,83181,83155
 5.1000e+000 83322 -5.2281e+001 -1.7835e+002 -7.2953e+000 55969 82973,83129,82999
 5.1000e+000 83299 -8.3373e+001 -1.8165e+002  3.0065e+000 55969 83391,83025,82999
 5.1000e+000 83276 -7.2606e+001 -1.8913e+002 -6.7577e-001 55969 83391,82999,83129
 5.1000e+000 83253 -1.4067e+001 -1.5709e+002  3.4343e+001 55969 83077,83129,83103
 5.1000e+000 83230 -9.0878e+001 -1.4687e+002 -7.9552e+000 55969 83025,83077,83051
 5.1000e+000 83207 -1.4198e+000 -1.8484e+002  1.8456e+001 55969 82947,83181,82973
 5.1000e+000 83417 -7.3243e+001 -1.7455e+002  7.6718e+000 55969 83077,83025,83391
 5.1000e+000 83440 -6.9730e+001 -1.8451e+002  2.0080e+000 55969 83077,83391,83129
 5.1000e+000 83946 -1.4100e+002 -3.1375e+002  4.9684e+001 55771 83969,83779,83727
 5.1000e+000 83923 -1.1112e+002 -2.5264e+002  3.2296e+001 55771 83969,83727,83623
 5.1000e+000 83900 -1.3458e+002 -1.3051e+002  1.8776e+001 55771 83623,83727,83649
 5.1000e+000 83877 -1.1137e+002 -5.4173e+002  2.2739e+001 55771 83727,83779,83753
 5.1000e+000 83854 -1.9897e+002 -2.3400e+002  7.0704e+001 55771 83675,83727,83701
 5.1000e+000 83831 -2.0881e+002 -2.0799e+002  8.4173e+001 55771 83649,83727,83675
 5.1000e+000 83995 -1.3391e+002 -3.2720e+002 -2.7398e+001 55771 83805,83779,83969
 5.1000e+000 84018 -7.1691e+001 -2.0506e+002 -5.1206e+001 55771 83805,83969,83623
 5.1000e+000 84168 -6.9780e+001 -1.5418e+002 -3.9190e+000 55367 84191,84067,84041
 5.1000e+000 84145 -6.5427e+001 -1.7708e+002 -2.9825e+000 55367 84191,84041,84119
 5.1000e+000 84217 -7.1189e+001 -1.4376e+002 -2.9727e+000 55367 84093,84067,84191
 5.1000e+000 84240 -5.5916e+001 -1.5459e+002  4.5808e+000 55367 84093,84191,84119
 5.1000e+000 84571 -3.4297e+001 -2.3823e+002 -2.4749e+001 54913 84398,84450,84424
 5.1000e+000 84548 -2.9126e+001 -2.1793e+002 -1.2578e+001 54913 84372,84450,84398
 5.1000e+000 84525 -5.8380e+001 -2.4437e+002  8.5397e+000 54913 84346,84450,84372
 5.1000e+000 84502 -2.1272e+001 -1.5915e+002 -2.1612e+001 54913 84346,84476,84450
 5.1000e+000 85126 -1.2249e+002 -2.6794e+002 -1.1681e+001 54402 84858,84936,84910
 5.1000e+000 85103 -9.5008e+001 -2.0978e+002 -2.4266e+001 54402 84806,84936,84858
 5.1000e+000 85080 -1.1511e+002 -1.9297e+002 -1.9364e+001 54402 84780,84936,84806
 5.1000e+000 85057 -9.5102e+001 -2.3363e+002 -9.6867e+000 54402 84806,84858,84832
 5.1000e+000 85034 -1.0469e+002 -1.8229e+002  9.1775e+000 54402 84780,84962,84936
 5.1000e+000 85011 -1.4257e+002 -1.5953e+002 -5.1632e+000 54402 84858,84910,84884
 5.1000e+000 84988 -1.0189e+002 -1.8173e+002  1.1816e+001 54402 84754,84962,84780
 5.1000e+000 85396 -9.6096e+001 -1.1659e+002 -7.7991e+000 53998 85197,85249,85223
 5.1000e+000 85373 -7.4248e+001 -1.4620e+002 -2.0218e+000 53998 85197,85275,85249
 5.1000e+000 85350 -9.3289e+001 -1.7504e+002 -1.1274e+001 53998 85171,85275,85197
 5.1000e+000 85327 -4.4001e+001 -1.6445e+002 -1.3031e+001 53998 85171,85301,85275
 5.1000e+000 85749 -5.4840e+001 -1.8550e+002 -4.8079e+000 53636 85524,85628,85550
 5.1000e+000 85726 -8.6091e+001 -2.0987e+002  6.5637e+000 53636 85524,85654,85628
 5.1000e+000 85703 -3.2217e+001 -1.9796e+002 -1.9445e+001 53636 85550,85602,85576
 5.1000e+000 85680 -5.2159e+001 -1.8304e+002 -1.0011e+001 53636 85550,85628,85602
 5.1000e+000 86127 -2.3323e+001 -1.9033e+002  2.9917e+001 52982 86150,85957,85879
 5.1000e+000 86104 -6.7553e+001 -2.2217e+002  1.6016e+001 52982 86150,85879,85853
 5.1000e+000 86081 -1.9882e+001 -2.7754e+002  5.5132e+001 52982 85957,86009,85983
 5.1000e+000 86058 -8.1175e+001 -2.0453e+002  2.5176e+001 52982 85879,85957,85931
 5.1000e+000 86035 -5.1235e+001 -1.9309e+002 -7.6263e+000 52982 85879,85931,85905
 5.1000e+000 86176  5.3045e+000 -2.2590e+002  2.4093e+001 52982 86009,85957,86150
 5.1000e+000 86199 -2.0926e+001 -2.4726e+002  1.4555e+001 52982 86009,86150,85853
 5.1000e+000 86398 -4.2379e+001 -1.5267e+002  1.7988e+001 52542 86421,86248,86222
 5.1000e+000 86375 -8.3063e+001 -1.5520e+002 -1.0542e+000 52542 86421,86222,86300
 5.1000e+000 86352 -8.3903e+001 -1.7418e+002 -8.7216e+000 52542 86222,86326,86300
 5.1000e+000 86447 -1.7884e+000 -1.5275e+002  3.3255e+001 52542 86274,86248,86421
 5.1000e+000 86470 -3.9893e+001 -1.6076e+002  9.2914e+000 52542 86274,86421,86300
 5.1000e+000 86669 -7.6151e+001 -1.5901e+002 -2.7517e+001 52230 86692,86571,86545
 5.1000e+000 86646 -7.5658e+001 -1.5551e+002 -1.8178e+001 52230 86692,86545,86519
 5.1000e+000 86623 -9.9706e+001 -1.5715e+002 -2.1987e+001 52230 86493,86597,86519
 5.1000e+000 86718 -8.1212e+001 -1.6124e+002 -2.7899e+001 52230 86597,86571,86692
 5.1000e+000 86741 -8.7106e+001 -1.6051e+002 -1.8881e+001 52230 86597,86692,86519
 5.1000e+000 87153 -1.0233e+002 -1.6155e+002  5.7965e+000 51640 86980,87058,87032
 5.1000e+000 87130 -1.0199e+002 -1.6495e+002  4.4268e+000 51640 86928,87058,86980
 5.1000e+000 87107 -1.0795e+002 -2.2282e+002 -1.1085e+001 51640 86928,86980,86954
 5.1000e+000 87084 -5.6019e+001 -1.4189e+002 -2.2944e+000 51640 86980,87032,87006
 5.1000e+000 87659 -4.8244e+001 -1.4498e+002  3.6590e+000 51029 87682,87440,87362
 5.1000e+000 87636 -4.1475e+001 -1.5309e+002 -1.5334e+001 51029 87682,87362,87336
 5.1000e+000 87613 -6.9143e+001 -2.1411e+002 -4.5606e+000 51029 87440,87518,87466
 5.1000e+000 87590 -7.5806e+001 -1.4502e+002  5.4581e+000 51029 87362,87440,87414
 5.1000e+000 87567 -6.2471e+001 -1.0995e+002  2.4776e+001 51029 87362,87414,87388
 5.1000e+000 87544 -9.4876e+001 -1.9301e+002  6.6835e+000 51029 87466,87518,87492
 5.1000e+000 87708 -4.7409e+001 -1.6145e+002 -1.3120e+000 51029 87518,87440,87682
 5.1000e+000 87731 -4.5562e+001 -1.8620e+002 -1.3256e+001 51029 87518,87682,87336
 5.1000e+000 87881 -9.3007e+001 -2.0332e+002  7.9975e+000 50739 87780,87832,87806
 5.1000e+000 87858 -1.1093e+002 -2.1043e+002 -9.4129e+000 50739 87754,87832,87780
 5.1000e+000 88468 -6.0597e+001 -1.3705e+002  6.0023e+000 50235 88171,88327,88197
 5.1000e+000 88445 -1.2990e+002 -1.3785e+002 -2.0582e+001 50235 88145,88327,88171
 5.1000e+000 88422  3.6001e-001 -6.9095e+001 -4.0633e-002 50235 88275,88327,88301
 5.1000e+000 88399 -4.0822e+001 -8.6738e+001 -7.2416e-001 50235 88197,88327,88275
 5.1000e+000 88376 -2.1470e+001 -1.2521e+002 -1.8486e+000 50235 88197,88275,88223
 5.1000e+000 88353 -2.3974e+001 -1.6661e+002 -1.5914e+001 50235 88223,88275,88249
 5.1000e+000 88895 -9.2612e+001 -2.2070e+002  5.8427e+000 49873 88918,88728,88676
 5.1000e+000 88872 -7.8742e+001 -2.0533e+002 -3.3255e+000 49873 88918,88676,88624
 5.1000e+000 88849 -6.2088e+001 -1.8310e+002 -8.4145e+000 49873 88598,88754,88624
 5.1000e+000 88826 -4.9797e+001 -1.9381e+002 -4.3578e+000 49873 88624,88676,88650
 5.1000e+000 88803 -7.8363e+001 -2.6852e+002  7.9373e+000 49873 88676,88728,88702
 5.1000e+000 88780 -7.7137e+001 -1.8890e+002 -1.0350e+001 49873 88572,88754,88598
 5.1000e+000 88944 -7.5794e+001 -2.1897e+002 -3.9174e+000 49873 88754,88728,88918
 5.1000e+000 88967 -7.0491e+001 -2.1355e+002 -1.1486e+001 49873 88754,88918,88624
 5.1000e+000 89473 -1.3013e+002 -2.0646e+002 -2.4535e+001 49583 89176,89306,89202
 5.1000e+000 89450 -1.2991e+002 -2.0291e+002 -3.2780e+001 49583 89176,89332,89306
 5.1000e+000 89427 -7.6811e+001 -2.2458e+002  1.0526e+001 49583 89496,89228,89202
 5.1000e+000 89404 -7.7347e+001 -2.2960e+002  1.2528e+001 49583 89496,89202,89280
 5.1000e+000 89381 -1.6102e+002 -2.8682e+002 -4.9373e+001 49583 89202,89306,89280
 5.1000e+000 89358 -1.0099e+002 -2.0434e+002 -3.7788e+001 49583 89150,89332,89176
 5.1000e+000 89522 -7.2752e+001 -1.9095e+002  6.0664e+000 49583 89254,89228,89496
 5.1000e+000 89545 -8.8661e+001 -2.1970e+002  1.2278e+001 49583 89254,89496,89280
 5.1000e+000 89825  1.3699e+001 -2.0575e+002  9.3082e+000 49179 89701,89753,89727
 5.1000e+000 89802 -3.2166e+001 -1.8577e+002  1.2851e+001 49179 89675,89753,89701
 5.1000e+000 89779 -2.3672e+001 -1.6407e+002  1.0608e+001 49179 89848,89753,89675
 5.1000e+000 89874 -1.1341e+002 -1.9364e+002 -1.3976e+001 49179 89649,89753,89848
 5.1000e+000 90223 -6.7679e+001 -2.0115e+002 -2.3367e+001 48739 90024,90102,90076
 5.1000e+000 90200 -6.5677e+001 -1.8941e+002 -8.6829e+000 48739 90024,90128,90102
 5.1000e+000 90177 -6.5286e-001 -1.9606e+002 -2.4411e+001 48739 90024,90076,90050
 5.1000e+000 90154 -2.4321e+001 -1.8129e+002  1.3383e+001 48739 89998,90128,90024
 5.1000e+000 90603 -6.1513e+001 -1.5850e+002  3.4470e+001 48335 90381,90485,90459
 5.1000e+000 90580 -8.1440e+001 -1.8767e+002  2.5223e+001 48335 90355,90485,90381
 5.1000e+000 90557 -3.2022e+001 -6.3677e+001  1.7131e+001 48335 90381,90433,90407
 5.1000e+000 90534 -6.0859e+001 -1.6565e+002  2.5689e+001 48335 90381,90459,90433
 5.1000e+000 90511  2.2149e+001 -1.2979e+002  5.0095e+001 48335 90329,90485,90355
 5.1000e+000 90753 -2.4172e+000 -1.0339e+002  6.2633e+001 47824 90776,90652,90704
 5.1000e+000 90730 -5.4593e+001 -1.8113e+002  2.9500e+001 47824 90626,90704,90652
 5.1000e+000 90802 -2.4330e+001 -1.3508e+002  5.0255e+001 47824 90678,90652,90776
 5.1000e+000 91131 -6.8836e+001 -2.2605e+002  1.2876e+001 47427 91154,90958,90906
 5.1000e+000 91108 -1.2472e+002 -2.4870e+002 -1.1340e-001 47427 91154,90906,91036
 5.1000e+000 91085 -1.1872e+002 -1.9744e+002 -1.8059e+001 47427 90958,91010,90984
 5.1000e+000 91062 -6.5839e+001 -2.0489e+002  1.3509e+001 47427 90906,90958,90932
 5.1000e+000 91180 -1.0213e+002 -2.2612e+002 -2.3743e+001 47427 91010,90958,91154
 5.1000e+000 91203 -1.5624e+002 -2.4961e+002 -3.7711e+001 47427 91010,91154,91036
 5.1000e+000 91583 -1.1324e+002 -2.1141e+002 -1.2745e+001 46873 91309,91439,91335
 5.1000e+000 91560 -1.1898e+002 -2.1333e+002 -1.0712e+001 46873 91309,91465,91439
 5.1000e+000 91537 -1.6871e+002 -2.4536e+002 -6.1750e+001 46873 91361,91439,91413
 5.1000e+000 91514 -1.2672e+002 -2.2034e+002 -3.2911e+001 46873 91335,91439,91361
 5.1000e+000 91491 -5.7588e+001 -2.0826e+002 -5.6160e+001 46873 91361,91413,91387
 5.1000e+000 91880 -6.7887e+001 -2.2458e+002 -6.5160e+000 46526 91606,91710,91658
 5.1000e+000 91857 -7.3986e+001 -2.3928e+002  2.7049e+000 46526 91606,91762,91710
 5.1000e+000 91834 -3.8594e+001 -2.1401e+002 -2.7742e+001 46526 91606,91658,91632
 5.1000e+000 91811 -8.4497e+001 -2.0733e+002  3.9481e+000 46526 91658,91710,91684
 5.1000e+000 91788 -4.5126e+001 -1.6175e+002  4.2777e+000 46526 91710,91762,91736
 5.1000e+000 92211 -3.7686e+001 -9.0063e+001 -7.1865e+000 45700 91986,92064,92038
 5.1000e+000 92188 -5.1362e+001 -1.3480e+002  1.1155e+000 45700 91986,92116,92064
 5.1000e+000 92165 -2.9447e+001 -7.7608e+001 -1.6720e+001 45700 91986,92038,92012
 5.1000e+000 92142 -3.3983e+001 -1.4753e+002  1.8570e+001 45700 92064,92116,92090
 5.1000e+000 92766 -9.9778e+001 -1.9331e+002  1.1027e+001 45452 92446,92602,92576
 5.1000e+000 92743 -1.4906e+002 -1.8726e+002 -1.8937e+001 45452 92420,92602,92446
 5.1000e+000 92720 -1.1579e+002 -2.0163e+002  3.1711e+001 45452 92789,92524,92498
 5.1000e+000 92697 -1.3268e+002 -1.9745e+002  2.6458e+001 45452 92789,92498,92446
 5.1000e+000 92674 -1.1367e+002 -2.1381e+002 -1.1201e+000 45452 92524,92576,92550
 5.1000e+000 92651 -1.7526e+002 -2.0413e+002  1.0846e+002 45452 92446,92498,92472
 5.1000e+000 92628 -9.9488e+001 -2.4067e+002 -5.9018e+001 45452 92394,92602,92420
 5.1000e+000 92815 -1.0386e+002 -2.0348e+002  2.7132e+001 45452 92576,92524,92789
 5.1000e+000 92838 -1.1720e+002 -1.9664e+002  2.4092e+001 45452 92576,92789,92446
 5.1000e+000 92939 -8.3423e+001 -2.6357e+002 -5.3807e+001 44998 92861,92913,92887
 5.1000e+000 93319 -1.7488e+001 -2.6943e+002  5.1167e+001 44601 93123,93201,93149
 5.1000e+000 93296 -7.4496e+001 -2.7135e+002 -2.6747e+001 44601 93045,93201,93123
 5.1000e+000 93273 -5.9329e+001 -1.5453e+002 -3.7797e+001 44601 93045,93123,93071
 5.1000e+000 93250 -5.5039e+001 -1.4367e+002 -2.4982e+001 44601 93071,93123,93097
 5.1000e+000 93227 -5.5983e+000 -1.5044e+002  5.5332e+001 44601 93149,93201,93175
 5.1000e+000 93697 -5.7802e+001 -2.9433e+002  1.5929e+001 44026 93720,93553,93527
 5.1000e+000 93674 -1.0101e+002 -2.5013e+002  2.2039e+001 44026 93720,93527,93449
 5.1000e+000 93651 -1.1136e+002 -2.5824e+002 -3.5546e+000 44026 93449,93527,93501
 5.1000e+000 93628 -8.0863e+001 -1.9991e+002 -4.3056e+001 44026 93423,93579,93449
 5.1000e+000 93605 -2.5368e+001 -2.0523e+002  1.9025e+001 44026 93449,93501,93475
 5.1000e+000 93746 -2.7324e+001 -2.6151e+002  3.3245e+000 44026 93579,93553,93720
 5.1000e+000 93769 -7.2845e+001 -2.1806e+002  1.0117e+001 44026 93579,93720,93449
 5.1000e+000 94066 -5.7467e+001 -2.2995e+002 -3.1715e+001 43579 94089,93818,93792
 5.1000e+000 94043 -9.3338e+001 -2.5335e+002 -2.1214e+001 43579 94161,94089,93792
 5.1000e+000 94020 -9.2069e+001 -2.5425e+002 -1.3538e+001 43579 94161,93792,93948
 5.1000e+000 93997 -9.9524e+001 -2.0341e+002 -1.0682e+001 43579 94233,93870,93818
 5.1000e+000 93974 -5.6547e+001 -2.1020e+002  6.0553e+000 43579 93818,93870,93844
 5.1000e+000 94115 -9.6995e+001 -2.0508e+002 -2.3451e+001 43579 94233,93818,94089
 5.1000e+000 94138 -1.2798e+002 -2.3032e+002 -1.5157e+001 43579 93896,94089,93922
 5.1000e+000 94187 -8.8333e+001 -2.4184e+002 -2.0638e+001 43579 93922,94089,94161
 5.1000e+000 94210 -8.6391e+001 -2.4157e+002 -1.2252e+001 43579 93922,94161,93948
 5.1000e+000 94259 -1.1436e+002 -2.2777e+002 -3.8925e+000 43579 93896,93870,94233
 5.1000e+000 94282 -1.0546e+002 -2.2341e+002 -1.8590e+001 43579 93896,94233,94089
 5.1000e+000 94481 -7.6172e+001 -2.3889e+002 -1.1726e+000 43239 94305,94383,94357
 5.1000e+000 94458 -6.5818e+001 -2.1856e+002  2.7695e+001 43239 94305,94409,94383
 5.1000e+000 94435 -5.7355e+001 -2.5205e+002 -6.2688e+000 43239 94305,94357,94331
 5.1000e+000 94633 -2.7488e+001 -1.4901e+002  3.4625e+001 42827 94656,94532,94506
 5.1000e+000 94610 -6.3540e+001 -1.6559e+002  3.8695e+001 42827 94728,94656,94506
 5.1000e+000 94682 -3.4819e+001 -1.7141e+002  2.9366e+001 42827 94558,94532,94656
 5.1000e+000 94705 -1.2991e+001 -1.6854e+002  1.7714e+001 42827 94988,94860,94656
 5.1000e+000 94754 -3.6224e+001 -1.5070e+002  1.1758e+001 42827 94988,94656,94728
 5.1000e+000 94886  6.1525e+000 -1.5933e+002  2.0504e+001 42827 94558,94656,94860
 5.1000e+000 95014  6.5382e+000 -1.5322e+002  1.1010e+001 42827 94584,94860,94988
 5.1000e+000 95037 -1.3674e+001 -1.3693e+002  5.2122e+000 42827 94584,94988,94728
 5.1000e+000 95236 -3.1342e+001 -1.8423e+002  2.4874e+001 42537 95259,95112,95060
 5.1000e+000 95213 -3.9865e+001 -1.7898e+002  2.2728e+001 42537 95259,95060,95164
 5.1000e+000 95190 -1.5484e+001 -1.8840e+002 -2.9492e+000 42537 95060,95112,95086
 5.1000e+000 95285 -3.7100e+001 -1.8609e+002  2.1214e+001 42537 95138,95112,95259
 5.1000e+000 95308 -4.5891e+001 -1.8338e+002  1.7846e+001 42537 95138,95259,95164
 5.1000e+000 95816 -8.1754e+001 -2.2965e+002 -1.5568e+001 41969 95493,95597,95519
 5.1000e+000 95793 -1.2092e+002 -2.1682e+002  1.9878e+001 41969 95493,95649,95597
 5.1000e+000 95770 -9.0790e+001 -2.0375e+002  1.7087e+001 41969 95493,95675,95649
 5.1000e+000 95747 -9.7904e+001 -2.7971e+002  1.6804e+001 41969 95597,95649,95623
 5.1000e+000 95724 -1.3109e+002 -2.1167e+002 -2.5786e+001 41969 95519,95597,95571
 5.1000e+000 95701 -1.1586e+002 -1.8494e+002 -5.2436e+001 41969 95519,95571,95545
 5.1000e+000 96371 -1.0224e+002 -2.4472e+002  2.9888e+001 41579 96025,96207,96181
 5.1000e+000 96348  2.9668e+001 -1.8455e+002 -8.0987e+000 41579 95999,96207,96025
 5.1000e+000 96325 -1.1580e+002 -1.8835e+002 -2.0683e+001 41579 96129,96181,96155
 5.1000e+000 96302 -4.3189e+001 -1.7112e+002  1.1806e+000 41579 96025,96181,96129
 5.1000e+000 96279 -9.4228e+001 -2.5282e+002  3.4026e+001 41579 96025,96129,96051
 5.1000e+000 96256 -1.1111e+002 -2.4103e+002  3.6686e+001 41579 96051,96103,96077
 5.1000e+000 96233 -4.2507e+001 -1.8229e+002  3.7478e+000 41579 96051,96129,96103
 5.1000e+000 96877 -2.6826e+001 -1.5611e+002 -1.7618e+001 41182 96972,96900,96632
 5.1000e+000 96854 -3.3667e+001 -1.1679e+002 -1.8255e+001 41182 96900,96554,96736
 5.1000e+000 96831 -2.5793e+001 -1.5576e+002 -1.5469e+001 41182 96972,96632,96580
 5.1000e+000 96808 -3.4204e+001 -1.4680e+002  1.5315e+001 41182 96632,96684,96658
 5.1000e+000 96785 -6.1090e+001 -1.6093e+002  1.7827e+001 41182 96684,96736,96710
 5.1000e+000 96762 -9.0116e+001 -1.9879e+002  3.2292e+001 41182 96580,96632,96606
 5.1000e+000 96926 -2.4804e+001 -1.7281e+002 -1.7477e+001 41182 96684,96632,96900
 5.1000e+000 96949 -4.9942e+001 -1.5390e+002 -3.0439e+001 41182 96684,96900,96736
 5.1000e+000 96998 -3.0895e+001 -1.5827e+002 -1.9458e+001 41182 96554,96900,96972
 5.1000e+000 97021 -2.9910e+001 -1.5695e+002 -1.7043e+001 41182 96554,96972,96580
 5.1000e+000 97576 -1.3879e+002 -3.4726e+002 -4.8079e+001 40678 97230,97412,97282
 5.1000e+000 97553 -1.4486e+001 -2.8584e+002  1.3618e+001 40678 97204,97412,97230
 5.1000e+000 97530 -3.9627e+001 -2.6453e+002 -4.2842e+001 40678 97282,97360,97308
 5.1000e+000 97507 -6.1924e+001 -2.6956e+002 -1.6831e+001 40678 97282,97412,97360
 5.1000e+000 97484 -1.7921e+001 -1.6069e+002 -3.7558e+001 40678 97308,97360,97334
 5.1000e+000 97461 -7.9816e+001 -3.2392e+002 -9.2390e+000 40678 97360,97412,97386
 5.1000e+000 97438 -7.9083e+001 -2.2134e+002 -3.0533e+001 40678 97230,97282,97256
 5.1000e+000 97976 -1.0925e+002 -1.8387e+002 -4.3433e+000 40244 97702,97832,97754
 5.1000e+000 97953 -9.1610e+001 -1.7742e+002 -9.1180e+000 40244 97702,97858,97832
 5.1000e+000 97930 -1.1733e+002 -2.1623e+002 -4.5954e+001 40244 97702,97754,97728
 5.1000e+000 97907 -9.0922e+001 -2.0079e+002  2.2008e+001 40244 97780,97832,97806
 5.1000e+000 97884 -9.8914e+001 -1.7764e+002 -1.0375e+000 40244 97754,97832,97780
 5.1000e+000 98482 -5.8946e+001 -1.7158e+002  2.7483e+001 39690 98505,98185,98159
 5.1000e+000 98459 -6.0708e+001 -1.6597e+002  2.6453e+001 39690 98505,98159,98289
 5.1000e+000 98436 -1.1648e+002 -2.4966e+002  6.8243e+001 39690 98159,98315,98289
 5.1000e+000 98413 -4.6209e+001 -1.5361e+002  2.3498e+001 39690 98211,98289,98263
 5.1000e+000 98390 -2.7035e+001 -9.9776e+001  1.4088e+001 39690 98211,98263,98237
 5.1000e+000 98367 -3.0747e+001 -1.5547e+002  2.4968e+001 39690 98159,98341,98315
 5.1000e+000 98531 -5.9980e+001 -1.6839e+002  2.3887e+001 39690 98211,98185,98505
 5.1000e+000 98554 -6.0268e+001 -1.5956e+002  2.3919e+001 39690 98211,98505,98289
 5.1000e+000 99109 -5.9061e+001 -1.5480e+002 -9.7420e+000 39072 99132,98867,98789
 5.1000e+000 99086 -5.6391e+001 -1.6018e+002 -1.4393e+001 39072 99132,98789,98763
 5.1000e+000 99063 -8.8643e+001 -2.5566e+002  2.7530e+001 39072 98867,98945,98919
 5.1000e+000 99040 -5.0643e+001 -1.6488e+002 -1.6207e+000 39072 98789,98867,98841
 5.1000e+000 99017 -1.1667e+002 -1.8666e+002  8.1168e+000 39072 98867,98919,98893
 5.1000e+000 98994 -8.1452e+001 -1.5114e+002  3.2416e+001 39072 98789,98841,98815
 5.1000e+000 98971 -8.3838e+001 -1.8248e+002 -1.1813e+001 39072 98737,98945,98763
 5.1000e+000 99158 -5.7629e+001 -1.6169e+002 -1.0690e+001 39072 98945,98867,99132
 5.1000e+000 99181 -5.7023e+001 -1.7140e+002 -1.2581e+001 39072 98945,99132,98763
 5.1000e+000 99510 -4.9668e+001 -1.4294e+002  9.7590e+000 38668 99311,99389,99363
 5.1000e+000 99487 -4.2436e+001 -1.4951e+002 -4.3694e+000 38668 99285,99389,99311
 5.1000e+000 99464 -9.5792e+001 -2.0697e+002  1.8443e+001 38668 99285,99415,99389
 5.1000e+000 99441 -4.4260e+001 -1.5411e+002  1.5852e+001 38668 99311,99363,99337
 5.1000e+000 99758 -5.7272e+001 -2.3089e+002  3.7444e+001 38164 99781,99611,99585
 5.1000e+000 99735 -2.3774e+001 -2.3656e+002  4.1436e+001 38164 99781,99585,99533
 5.1000e+000 99712 -8.6474e+001 -2.1907e+002  2.7119e+001 38164 99611,99663,99637
 5.1000e+000 99689  1.0963e+001 -2.2673e+002 -1.4361e+001 38164 99533,99585,99559
 5.1000e+000 99807 -7.6410e+001 -2.2947e+002  4.6784e+001 38164 99663,99611,99781
 5.1000e+000 99830 -5.1087e+001 -2.3921e+002  4.5501e+001 38164 99663,99781,99533
 5.1000e+000 100232 -6.5577e+001 -1.7330e+002  2.2058e+000 37702 99984,100114,100088
 5.1000e+000 100209 -5.1779e+001 -1.8267e+002  1.8000e+001 37702 99958,100114,99984
 5.1000e+000 100186 -9.6857e+001 -2.1566e+002 -1.3461e+001 37702 100010,100088,100036
 5.1000e+000 100163 -6.5453e+001 -1.7351e+002  3.3598e-001 37702 99984,100088,100010
 5.1000e+000 100140 -5.7724e+001 -1.5969e+002 -4.4853e+001 37702 100036,100088,100062
 5.1000e+000 100640 -1.4116e+002 -2.0212e+002  2.5761e+001 37262 100493,100545,100519
 5.1000e+000 100617 -1.2614e+002 -2.2944e+002  1.2457e+001 37262 100441,100545,100493
 5.1000e+000 100594 -5.1067e+001 -1.7231e+002 -3.0728e+001 37262 100415,100545,100441
 5.1000e+000 100571 -1.4163e+002 -2.4527e+002 -1.0146e+001 37262 100441,100493,100467
 5.1000e+000 101146 -1.0096e+002 -1.6982e+002 -1.6234e+000 36872 100823,100979,100849
 5.1000e+000 101123 -9.8289e+001 -1.5788e+002 -1.6202e+001 36872 100823,101005,100979
 5.1000e+000 101100 -1.0378e+002 -2.4593e+002  3.3420e+001 36872 101169,100901,100849
 5.1000e+000 101077 -7.9779e+001 -1.9549e+002  1.7845e+001 36872 101169,100849,100979
 5.1000e+000 101054 -5.6478e+001 -2.0379e+002 -1.3157e+001 36872 100927,100979,100953
 5.1000e+000 101031 -5.6501e+001 -2.7710e+002  4.6717e+001 36872 100849,100901,100875
 5.1000e+000 101195 -7.1454e+001 -2.6066e+002  1.9163e+000 36872 100927,100901,101169
 5.1000e+000 101218 -5.6805e+001 -2.3392e+002 -1.0656e+001 36872 100927,101169,100979
 5.1000e+000 101773 -1.1493e+002 -1.8373e+002  3.4229e+001 36418 101479,101609,101583
 5.1000e+000 101750 -1.1826e+002 -1.9453e+002  3.4472e+001 36418 101453,101609,101479
 5.1000e+000 101727 -7.9206e+001 -1.9423e+002 -7.7490e-001 36418 101796,101531,101479
 5.1000e+000 101704 -1.1085e+002 -2.1611e+002  1.5120e+001 36418 101796,101479,101583
 5.1000e+000 101681 -6.7186e+001 -1.6691e+002 -5.3500e+000 36418 101479,101531,101505
 5.1000e+000 101658 -2.3953e+000 -1.7334e+002  3.8675e+000 36418 101401,101609,101453
 5.1000e+000 101635 -3.3777e+001 -1.6999e+002  2.8567e+000 36418 101401,101453,101427
 5.1000e+000 101822 -8.6614e+001 -1.7804e+002 -3.0861e+001 36418 101557,101531,101796
 5.1000e+000 101845 -1.2305e+002 -1.8585e+002 -1.6492e+001 36418 101557,101796,101583
 5.1000e+000 102174 -1.1577e+001 -8.5729e+001 -2.3070e+001 35914 101949,102053,101975
 5.1000e+000 102151 -4.1222e+001 -8.7677e+001 -1.8083e+001 35914 101949,102079,102053
 5.1000e+000 102128 -4.4923e+001 -1.0147e+002 -1.2034e+001 35914 101975,102053,102027
 5.1000e+000 102105 -2.8394e+001 -7.5269e+001 -1.9090e+001 35914 101975,102027,102001
 5.1000e+000 102631 -3.9030e+001 -2.0031e+002  6.8009e+000 35574 102383,102513,102487
 5.1000e+000 102608 -2.8122e+001 -2.0968e+002  5.4557e+000 35574 102357,102513,102383
 5.1000e+000 102585 -6.7016e+001 -2.0769e+002  7.8768e+000 35574 102409,102487,102435
 5.1000e+000 102562 -6.9504e+001 -2.1210e+002  5.7133e+000 35574 102383,102487,102409
 5.1000e+000 102539 -6.6827e+001 -2.0985e+002  9.1736e+000 35574 102435,102487,102461
 5.1000e+000 103009 -1.0652e+002 -1.9677e+002 -1.4009e+001 35170 102761,102865,102787
 5.1000e+000 102986 -6.4399e+001 -1.7333e+002  1.8122e+001 35170 102761,102891,102865
 5.1000e+000 102963 -9.3689e+001 -1.9020e+002 -4.9638e+000 35170 102787,102865,102813
 5.1000e+000 102940 -5.3120e+001 -1.6636e+002  2.1415e+001 35170 102735,102891,102761
 5.1000e+000 102917 -9.5711e+001 -1.9786e+002 -1.3500e+001 35170 102813,102865,102839
 5.1000e+000 103257 -1.9314e+001 -1.4987e+002 -2.6239e+001 34659 103280,103058,103032
 5.1000e+000 103234 -2.9972e+001 -1.5816e+002 -1.5306e+001 34659 103280,103032,103162
 5.1000e+000 103211 -5.3265e+001 -1.5965e+002 -1.4222e+001 34659 103084,103162,103110
 5.1000e+000 103188 -7.0137e+001 -1.9608e+002 -9.9722e+000 34659 103110,103162,103136
 5.1000e+000 103306 -3.8066e+001 -1.3973e+002 -2.2781e+001 34659 103084,103058,103280
 5.1000e+000 103329 -4.4845e+001 -1.4844e+002 -1.0482e+001 34659 103084,103280,103162
 5.1000e+000 103837 -1.9285e+001 -2.2029e+002  7.1517e+000 34247 103860,103566,103540
 5.1000e+000 103814 -3.0578e+001 -2.2154e+002  4.4152e-001 34247 103932,103860,103540
 5.1000e+000 103791 -2.2936e+001 -2.4577e+002 -2.4229e+001 34247 103932,103540,103670
 5.1000e+000 103768 -2.3827e+001 -2.0613e+002  4.8784e+000 34247 103566,103618,103592
 5.1000e+000 103745 -8.9725e+001 -2.0660e+002 -3.1399e+001 34247 103540,103696,103670
 5.1000e+000 103722 -1.1869e+002 -2.2951e+002  3.3651e+001 34247 103514,103696,103540
 5.1000e+000 103886 -4.6034e+001 -2.1968e+002 -2.2005e+000 34247 103618,103566,103860
 5.1000e+000 103909 -5.1152e+001 -2.3467e+002  5.9634e+000 34247 103618,103860,103644
 5.1000e+000 103958 -5.2188e+001 -2.7984e+002 -3.9499e+000 34247 103644,103860,103932
 5.1000e+000 103981 -4.4602e+001 -3.0228e+002 -2.9834e+001 34247 103644,103932,103670
 5.1000e+000 104300 -1.0851e+002 -2.3177e+002 -8.0528e+000 33843 104052,104182,104156
 5.1000e+000 104277 -1.4012e+002 -2.1755e+002 -2.1148e+000 33843 104026,104182,104052
 5.1000e+000 104254 -1.0585e+002 -2.6162e+002  5.3232e+000 33843 104078,104156,104130
 5.1000e+000 104231 -1.2687e+002 -2.4990e+002  1.2189e-001 33843 104052,104156,104078
 5.1000e+000 104208 -1.6194e+002 -2.7653e+002  7.0847e+000 33843 104078,104130,104104
 5.1000e+000 104499 -7.5111e+001 -2.3467e+002 -1.9766e+001 33282 104594,104522,104375
 5.1000e+000 104476 -6.5421e+001 -2.2958e+002  7.5728e+000 33282 104522,104323,104427
 5.1000e+000 104453 -4.5788e+001 -2.5060e+002 -1.8100e+001 33282 104594,104375,104349
 5.1000e+000 104548 -7.8676e+001 -2.0443e+002 -9.8185e+000 33282 104401,104375,104522
 5.1000e+000 104571 -5.4394e+001 -2.0129e+002  8.6429e+000 33282 104401,104522,104427
 5.1000e+000 104620 -3.9191e+001 -2.0516e+002 -6.4032e+000 33282 104323,104522,104594
 5.1000e+000 104643 -2.0705e+001 -2.3190e+002 -9.0309e+000 33282 104323,104594,104349
 5.1000e+000 104942 -1.0148e+002 -2.5877e+002  3.1209e+001 32728 104694,104772,104720
 5.1000e+000 104919 -7.7377e+001 -2.3627e+002  1.1505e+001 32728 104694,104824,104772
 5.1000e+000 104896 -1.3189e+002 -2.3161e+002  3.5319e+001 32728 104720,104772,104746
 5.1000e+000 104873 -6.0544e+001 -2.6994e+002  1.4007e+001 32728 104772,104824,104798
 5.1000e+000 104850 -6.4575e+001 -2.3324e+002  1.1762e+001 32728 104668,104824,104694
 5.1000e+000 105373 -8.2569e+001 -2.4995e+002 -1.1252e+001 32274 105396,105102,105076
 5.1000e+000 105350 -9.0618e+001 -2.7324e+002 -4.0778e+000 32274 105396,105076,105206
 5.1000e+000 105327 -1.1580e+002 -2.7973e+002  1.3206e+001 32274 105154,105206,105180
 5.1000e+000 105304 -4.5479e+001 -2.6282e+002 -2.1987e+001 32274 105076,105232,105206
 5.1000e+000 105281 -9.9153e+001 -2.2646e+002 -4.0703e+001 32274 105102,105154,105128
 5.1000e+000 105258 -1.4142e+002 -2.1724e+002 -4.1603e+001 32274 105050,105232,105076
 5.1000e+000 105422 -9.6587e+001 -2.2451e+002 -1.0383e+001 32274 105154,105102,105396
 5.1000e+000 105445 -1.0378e+002 -2.4809e+002 -4.8227e+000 32274 105154,105396,105206
 5.1000e+000 105644 -9.8879e+001 -2.5659e+002 -4.3903e+000 31620 105468,105546,105520
 5.1000e+000 105621 -8.0834e+001 -2.7723e+002 -1.3342e+001 31620 105468,105572,105546
 5.1000e+000 105598 -9.9064e+001 -2.7852e+002  1.3865e+001 31620 105468,105520,105494
 5.1000e+000 105794 -2.2127e+001 -2.2181e+002 -7.0832e+000 31158 105889,105817,105693
 5.1000e+000 105771 -3.7008e+001 -1.9910e+002 -1.4486e+001 31158 105817,105667,105745
 5.1000e+000 105843 -2.9723e+001 -2.7216e+002 -2.6530e+000 31158 105719,105693,105817
 5.1000e+000 105866 -1.5216e+001 -2.3344e+002 -1.2253e+001 31158 105719,105817,105745
 5.1000e+000 105915 -5.6175e+001 -2.3641e+002 -7.4730e+000 31158 105667,105817,105889
 5.1000e+000 106270 -9.7656e+001 -2.2335e+002 -9.1623e-001 30818 106293,106071,106045
 5.1000e+000 106247 -1.1303e+002 -2.5802e+002 -1.3512e+001 30818 106293,106045,106175
 5.1000e+000 106224 -7.8364e+001 -2.0646e+002  1.3148e+001 30818 106123,106175,106149
 5.1000e+000 106201 -1.0134e+002 -2.2794e+002  2.3198e+001 30818 106071,106123,106097
 5.1000e+000 106319 -9.9009e+001 -2.0974e+002  1.1754e+001 30818 106123,106071,106293
 5.1000e+000 106342 -1.0091e+002 -2.2792e+002  1.1318e+000 30818 106123,106293,106175
 5.1000e+000 106492 -9.2593e+001 -2.0721e+002  4.0020e+001 30414 106645,106391,106365
 5.1000e+000 106469 -3.0269e+001 -2.0533e+002  6.0903e+001 30414 106515,106365,106443
 5.1000e+000 106541 -5.7080e+001 -2.1623e+002  4.5782e+001 30414 106645,106365,106515
 5.1000e+000 106671 -4.2887e+001 -2.4542e+002  7.8531e+001 30414 106417,106391,106645
 5.1000e+000 106694  3.7092e+001 -2.2714e+002  6.7889e+001 30414 106417,106645,106515
 5.1000e+000 106942 -4.7992e+001 -3.1505e+002 -1.1098e+000 29910 106965,106795,106769
 5.1000e+000 106919 -4.1231e+001 -2.8332e+002  8.2047e+000 29910 106965,106769,106717
 5.1000e+000 106896 -4.3815e+001 -2.3708e+002 -3.0420e+001 29910 106795,106847,106821
 5.1000e+000 106873 -2.1874e+001 -2.4292e+002  1.5504e+001 29910 106717,106769,106743
 5.1000e+000 106991 -6.6139e+001 -2.8067e+002  3.4974e+000 29910 106847,106795,106965
 5.1000e+000 107014 -5.2308e+001 -2.3847e+002  1.2476e+001 29910 106847,106965,106717
 5.1000e+000 107213 -6.6102e+001 -2.3623e+002  1.4758e+001 29413 107236,107063,107037
 5.1000e+000 107190 -6.0857e+001 -2.7844e+002  3.0359e+001 29413 107236,107037,107141
 5.1000e+000 107167 -8.1441e+001 -1.7139e+002  3.6814e+001 29413 107063,107115,107089
 5.1000e+000 107262 -6.2560e+001 -2.0875e+002  1.0144e+001 29413 107115,107063,107236
 5.1000e+000 107285 -5.1077e+001 -2.4018e+002  2.7227e+001 29413 107115,107236,107141
 5.1000e+000 107486 -2.8557e+001 -2.2614e+002  3.0402e+001 29009 107336,107388,107362
 5.1000e+000 107463 -1.4312e+001 -2.1824e+002  8.5797e+000 29009 107310,107388,107336
 5.1000e+000 107440 -1.8354e+001 -2.0584e+002  8.6140e+000 29009 107310,107414,107388
 5.1000e+000 107736 -9.7263e+001 -2.6032e+002 -9.3785e+000 28491 107537,107615,107563
 5.1000e+000 107713 -8.4155e+001 -2.5421e+002 -6.8373e+000 28491 107537,107641,107615
 5.1000e+000 107690 -5.4985e+001 -2.4373e+002  5.1595e+000 28491 107563,107615,107589
 5.1000e+000 107667 -8.7767e+001 -2.5172e+002 -7.3257e+000 28491 107511,107641,107537
 5.1000e+000 108118 -5.4841e+001 -2.4681e+002  9.5957e+000 27980 108141,107922,107844
 5.1000e+000 108095 -4.3816e+001 -2.6422e+002  8.8011e+000 27980 108141,107844,108000
 5.1000e+000 108072 -5.7613e+001 -2.5756e+002 -1.3733e+001 27980 107844,107922,107870
 5.1000e+000 108049 -6.2625e+001 -2.2298e+002 -6.9222e+000 27980 107870,107922,107896
 5.1000e+000 108026 -8.7764e+001 -2.3254e+002  2.8979e+001 27980 107922,107974,107948
 5.1000e+000 108167 -4.6993e+001 -2.4741e+002  1.3304e+001 27980 107974,107922,108141
 5.1000e+000 108190 -1.7126e+001 -2.4732e+002  1.7735e+001 27980 107974,108141,108000
 5.1000e+000 108745 -2.7166e+001 -1.6100e+002 -4.0128e+000 27376 108840,108768,108477
 5.1000e+000 108722 -4.8642e+001 -1.9901e+002 -3.9761e+001 27376 108768,108373,108581
 5.1000e+000 108699 -4.5445e+001 -1.3960e+002  2.9587e+001 27376 108840,108477,108451
 5.1000e+000 108676 -1.1521e+002 -1.6944e+002 -7.4201e+000 27376 108373,108451,108399
 5.1000e+000 108653 -4.5914e+001 -2.0151e+002  2.8545e+001 27376 108503,108581,108529
 5.1000e+000 108630 -5.2371e+001 -1.9591e+002  2.9686e+001 27376 108529,108581,108555
 5.1000e+000 108607 -1.3061e+002 -1.8194e+002  1.4328e+001 27376 108399,108451,108425
 5.1000e+000 108794 -4.5291e+001 -2.1784e+002  9.0785e-001 27376 108503,108477,108768
 5.1000e+000 108817 -7.2815e+000 -1.9838e+002 -7.2556e+000 27376 108503,108768,108581
 5.1000e+000 108866 -9.5387e+001 -1.9985e+002 -1.9594e+001 27376 108373,108768,108840
 5.1000e+000 108889 -9.2030e+001 -1.7149e+002  1.5517e+001 27376 108373,108840,108451
 5.1000e+000 109186 -9.5713e+001 -2.5591e+002  2.7227e+001 26722 109209,108938,108912
 5.1000e+000 109163 -8.8953e+001 -2.3939e+002  2.4943e+001 26722 109281,109209,108912
 5.1000e+000 109140 -8.5787e+001 -2.3295e+002  2.3648e+001 26722 109281,108912,109042
 5.1000e+000 109117 -7.8002e+001 -2.7244e+002  1.2139e+001 26722 108938,108990,108964
 5.1000e+000 109094 -1.2148e+002 -2.1177e+002  1.5610e+001 26722 108912,109068,109042
 5.1000e+000 109235 -8.0048e+001 -2.4677e+002  2.3206e+001 26722 108990,108938,109209
 5.1000e+000 109258 -8.6203e+001 -2.6414e+002  2.0656e+001 26722 108990,109209,109016
 5.1000e+000 109307 -7.9110e+001 -2.4934e+002  1.3059e+001 26722 109016,109209,109281
 5.1000e+000 109330 -7.3149e+001 -2.3836e+002  1.0448e+001 26722 109016,109281,109042
 5.1000e+000 109732 -9.9771e+001 -2.1206e+002 -4.7249e+000 26310 109458,109588,109484
 5.1000e+000 109709 -9.4253e+001 -2.4122e+002 -2.5016e+001 26310 109458,109614,109588
 5.1000e+000 109686 -1.4449e+002 -2.4609e+002  3.5490e+001 26310 109510,109562,109536
 5.1000e+000 109663 -1.4437e+002 -2.3250e+002  1.3983e+001 26310 109484,109562,109510
 5.1000e+000 109640 -1.0435e+002 -2.1567e+002 -1.5579e+000 26310 109484,109588,109562
 5.1000e+000 110159 -6.0384e+001 -2.1343e+002 -6.5475e+000 25642 110182,109940,109914
 5.1000e+000 110136 -5.4509e+001 -2.4728e+002  3.0933e+001 25642 110182,109914,109888
 5.1000e+000 110113 -7.6821e+001 -2.6410e+002 -3.4045e+001 25642 109966,110018,109992
 5.1000e+000 110090 -8.4943e+001 -2.5523e+002  1.9926e+001 25642 110254,109966,109940
 5.1000e+000 110067 -1.1388e+002 -2.4183e+002  1.4711e+001 25642 109862,110018,109888
 5.1000e+000 110044 -1.0714e+002 -2.0075e+002  3.5049e+001 25642 109836,110018,109862
 5.1000e+000 110208 -8.3308e+001 -2.3394e+002  1.4933e+001 25642 110254,109940,110182
 5.1000e+000 110231 -9.1592e+001 -2.4985e+002  3.4057e+001 25642 110018,110182,109888
 5.1000e+000 110280 -7.3716e+001 -2.8201e+002  1.6107e+001 25642 110018,109966,110254
 5.1000e+000 110303 -7.6658e+001 -2.6622e+002  1.1913e+001 25642 110018,110254,110182
 5.1000e+000 110632 -1.1130e+002 -2.2172e+002 -1.2635e+001 25188 110407,110485,110433
 5.1000e+000 110609 -1.2918e+002 -2.2249e+002 -7.8438e+000 25188 110407,110537,110485
 5.1000e+000 110586 -1.2529e+002 -2.2997e+002 -4.2475e+001 25188 110433,110485,110459
 5.1000e+000 110563 -1.2209e+002 -2.3939e+002  2.3583e+001 25188 110485,110537,110511
 5.1000e+000 110831 -2.0074e+001 -2.1097e+002  6.3723e+000 24726 110854,110707,110655
 5.1000e+000 110808 -8.6518e+000 -2.2757e+002  2.3320e+001 24726 110854,110655,110759
 5.1000e+000 110785 -2.9094e+001 -2.1899e+002  1.1692e+001 24726 110655,110707,110681
 5.1000e+000 110880 -1.1296e+001 -1.9509e+002  9.8491e+000 24726 110733,110707,110854
 5.1000e+000 110903  4.0127e+000 -2.0354e+002  2.8041e+001 24726 110733,110854,110759
 5.1000e+000 111234 -6.0732e+000 -1.5441e+002 -4.1273e+000 24222 111257,111087,111035
 5.1000e+000 111211  2.0135e+001 -1.4261e+002  1.7152e+001 24222 111257,111035,111009
 5.1000e+000 111188 -2.4882e+001 -8.0766e+001 -3.4800e+001 24222 111035,111087,111061
 5.1000e+000 111165 -2.5247e+001 -1.2704e+002  4.5685e+000 24222 111087,111139,111113
 5.1000e+000 111283 -2.2372e+001 -1.2775e+002  7.7956e+000 24222 111139,111087,111257
 5.1000e+000 111306 -1.1024e+001 -1.0898e+002  2.1480e+001 24222 111139,111257,111009
 5.1000e+000 111625 -2.8387e+001 -2.1204e+002 -1.1407e+001 23732 111648,111481,111455
 5.1000e+000 111602 -2.8761e+001 -2.1325e+002 -1.1314e+001 23732 111648,111455,111377
 5.1000e+000 111579  3.2507e+001 -1.0475e+002  2.3548e+001 23732 111377,111429,111403
 5.1000e+000 111556 -9.4239e+000 -2.1321e+002 -5.9522e+000 23732 111377,111455,111429
 5.1000e+000 111533 -1.9875e+001 -1.9323e+002 -4.6374e+000 23732 111351,111507,111377
 5.1000e+000 111674 -2.8639e+001 -2.0997e+002 -9.9891e+000 23732 111507,111481,111648
 5.1000e+000 111697 -2.9711e+001 -2.1249e+002 -9.9815e+000 23732 111507,111648,111377
 5.1000e+000 112156 -5.9145e+001 -2.5280e+002  1.8749e+001 23278 112179,111908,111882
 5.1000e+000 112133 -5.5337e+001 -2.3413e+002  1.0176e+001 23278 112179,111882,112012
 5.1000e+000 112110 -1.7968e+001 -2.7452e+002  1.3236e+000 23278 111908,111960,111934
 5.1000e+000 112087 -2.3663e+001 -2.0551e+002 -2.7358e+000 23278 111882,112038,112012
 5.1000e+000 112064 -4.9998e+001 -2.1106e+002 -3.1488e+000 23278 111960,112012,111986
 5.1000e+000 112205 -5.6237e+001 -2.4388e+002  3.4037e+000 23278 111960,111908,112179
 5.1000e+000 112228 -4.7043e+001 -2.2283e+002 -6.3739e+000 23278 111960,112179,112012
 5.1000e+000 112685 -1.5537e+002 -3.4805e+002 -3.3217e+001 22938 112489,112567,112541
 5.1000e+000 112662 -1.3428e+002 -3.0109e+002 -2.8863e+001 22938 112437,112567,112489
 5.1000e+000 112639 -9.0194e+001 -2.5921e+002 -3.3555e+000 22938 112489,112541,112515
 5.1000e+000 112616 -1.5254e+002 -2.8839e+002 -2.5629e+001 22938 112411,112567,112437
 5.1000e+000 112593 -1.1836e+002 -3.7875e+002 -7.1276e+000 22938 112437,112489,112463
 5.1000e+000 113191 -1.1208e+001 -2.4978e+002 -3.0747e+001 22534 113214,112998,112946
 5.1000e+000 113168 -4.6905e+001 -2.2118e+002 -1.5796e+001 22534 113286,113214,112946
 5.1000e+000 113145 -3.5528e+001 -2.2154e+002 -1.3225e+001 22534 113286,112946,112920
 5.1000e+000 113122 -1.0000e+002 -2.0384e+002 -4.4182e+001 22534 113358,113024,112998
 5.1000e+000 113099 -6.3900e+001 -2.1502e+002 -8.6923e+000 22534 112868,113050,112894
 5.1000e+000 113076 -7.3204e+001 -3.6597e+002 -6.0269e+001 22534 112946,112998,112972
 5.1000e+000 113240 -7.4210e+001 -2.5619e+002 -4.6782e+001 22534 113358,112998,113214
 5.1000e+000 113263 -6.1112e+001 -2.3226e+002 -1.0452e+001 22534 113050,113214,112894
 5.1000e+000 113312 -3.1989e+001 -2.1953e+002 -1.2551e+001 22534 112894,113214,113286
 5.1000e+000 113335 -1.9862e+001 -2.2037e+002 -1.2091e+001 22534 112894,113286,112920
 5.1000e+000 113384 -7.1274e+001 -1.5589e+002 -3.2152e+001 22534 113050,113024,113358
 5.1000e+000 113407 -3.4147e+001 -1.9922e+002 -2.9052e+001 22534 113050,113358,113214
 5.1000e+000 113785 -1.1288e+002 -2.9516e+002  6.7812e+000 21978 113808,113615,113511
 5.1000e+000 113762 -9.0390e+001 -2.9852e+002  2.0081e+001 21978 113808,113511,113667
 5.1000e+000 113739 -6.6947e+001 -2.5336e+002 -1.1780e+001 21978 113511,113615,113537
 5.1000e+000 113716  3.1225e+001 -2.2688e+002 -2.6122e+001 21978 113537,113615,113589
 5.1000e+000 113693 -3.1563e+001 -3.2513e+002  3.4179e+000 21978 113537,113589,113563
 5.1000e+000 113834 -1.1695e+002 -2.9536e+002  3.5356e+001 21978 113641,113615,113808
 5.1000e+000 113857 -5.8116e+001 -2.7259e+002  5.1216e+001 21978 113641,113808,113667
 5.1000e+000 114284 -8.1536e+001 -2.4615e+002  5.8730e+000 21517 114013,114117,114039
 5.1000e+000 114261 -9.3147e+001 -2.4544e+002  1.9474e+001 21517 113961,114117,114013
 5.1000e+000 114238 -8.9605e+001 -2.4815e+002  2.0113e+001 21517 113961,114013,113987
 5.1000e+000 114215 -1.3487e+002 -2.8323e+002 -1.9619e+001 21517 114039,114117,114091
 5.1000e+000 114192 -9.4602e+001 -2.0663e+002  2.3383e+001 21517 113961,114143,114117
 5.1000e+000 114169 -2.0311e+001 -2.4350e+002 -2.1493e+001 21517 114039,114091,114065
 5.1000e+000 114581 -4.2115e+001 -2.8638e+002  3.8376e+000 21027 114359,114463,114437
 5.1000e+000 114558 -1.7920e+001 -2.5843e+002  3.5304e+001 21027 114333,114463,114359
 5.1000e+000 114535 -1.2805e+001 -2.5906e+002 -7.5173e+000 21027 114359,114437,114385
 5.1000e+000 114512 -9.4939e+000 -2.5626e+002  3.0985e+001 21027 114307,114463,114333
 5.1000e+000 114489  4.9916e+001 -2.4178e+002 -1.2016e+001 21027 114385,114437,114411
 5.1000e+000 114912 -1.1187e+002 -2.5272e+002  3.4751e+000 20623 114713,114791,114765
 5.1000e+000 114889 -7.8182e+001 -2.3890e+002 -1.7487e+001 20623 114687,114791,114713
 5.1000e+000 114866 -5.2349e+001 -2.6375e+002 -2.0402e+001 20623 114687,114817,114791
 5.1000e+000 114843 -1.6642e+002 -3.0906e+002  2.6730e+001 20623 114713,114765,114739
 5.1000e+000 115290 -3.0022e+001 -2.2692e+002  1.2089e+001 20375 115313,115146,115094
 5.1000e+000 115267 -4.9732e+001 -2.1612e+002  2.2807e+001 20375 115313,115094,115042
 5.1000e+000 115244 -6.4761e+001 -2.0793e+002  6.8596e+000 20375 115385,115016,115172
 5.1000e+000 115221 -2.1758e+001 -2.0252e+002  1.8573e+001 20375 115042,115094,115068
 5.1000e+000 115198 -4.6943e+001 -2.7092e+002  1.4729e+001 20375 115094,115146,115120
 5.1000e+000 115339 -7.0824e+001 -2.6887e+002 -8.9675e+000 20375 115172,115146,115313
 5.1000e+000 115362 -3.8307e+001 -2.1471e+002  8.2654e+000 20375 115385,115172,115313
 5.1000e+000 115411 -7.9596e+001 -2.1563e+002  9.6152e+000 20375 115042,115016,115385
 5.1000e+000 115434 -6.6797e+001 -2.3143e+002  1.5202e+001 20375 115042,115385,115313
 5.1000e+000 115891 -1.1814e+002 -2.3259e+002  2.8511e+001 19971 115617,115747,115643
 5.1000e+000 115868 -1.0212e+002 -1.9410e+002  2.7916e+001 19971 115617,115773,115747
 5.1000e+000 115845 -7.5568e+001 -3.5402e+002  4.7854e+000 19971 115643,115721,115695
 5.1000e+000 115822 -3.1038e+000 -1.7675e+002 -1.0332e+000 19971 115643,115747,115721
 5.1000e+000 115799 -6.3626e+001 -4.3242e+002 -3.3398e+001 19971 115643,115695,115669
 5.1000e+000 115992 -1.7102e+002 -4.3913e+002 -7.5195e+001 19659 115914,115966,115940
 5.1000e+000 116142 -2.6863e+001 -9.9740e+001  2.6359e+000 18997 116041,116093,116067
 5.1000e+000 116119 -5.4381e+001 -1.7067e+002  1.0469e+001 18997 116015,116093,116041
 5.1000e+000 116343 -4.6085e+001 -2.6434e+002 -7.6065e+000 18707 116193,116245,116219
 5.1000e+000 116320 -1.0250e+002 -2.8840e+002 -1.1648e+001 18707 116193,116271,116245
 5.1000e+000 116297 -9.3701e+001 -2.5847e+002 -1.9818e+001 18707 116167,116271,116193
 5.1000e+000 116747 -4.2448e+001 -2.3907e+002 -4.4333e+000 18301 116525,116629,116551
 5.1000e+000 116724 -2.3777e+001 -2.0289e+002  5.8196e+000 18301 116473,116629,116525
 5.1000e+000 116701 -1.5803e+001 -1.9798e+002 -1.0640e+001 18301 116473,116525,116499
 5.1000e+000 116678 -3.5798e+001 -2.4865e+002 -3.2504e+000 18301 116551,116603,116577
 5.1000e+000 116655 -5.0253e+001 -2.5740e+002 -7.3093e+000 18301 116551,116629,116603
 5.1000e+000 117147 -1.1775e+002 -2.7190e+002  5.7063e-001 17747 116899,117029,116925
 5.1000e+000 117124 -6.2489e+001 -1.9806e+002  2.9061e+001 17747 116873,117029,116899
 5.1000e+000 117101 -1.1684e+002 -2.7032e+002  9.5040e-001 17747 116925,117029,116951
 5.1000e+000 117078 -9.9243e+001 -2.2865e+002 -7.2341e-001 17747 116951,117029,117003
 5.1000e+000 117055 -1.3464e+002 -3.0815e+002 -2.0859e+001 17747 116951,117003,116977
 5.1000e+000 117368  1.7181e+001 -2.6408e+002  6.1446e+000 17293 117244,117296,117270
 5.1000e+000 117345 -1.8376e+001 -2.7338e+002 -3.6602e+000 17293 117192,117296,117244
 5.1000e+000 117322 -4.7206e+001 -2.5645e+002 -2.9041e+000 17293 117192,117244,117218
 5.1000e+000 117699 -2.5150e+001 -2.1388e+002 -2.4725e+001 16896 117526,117604,117552
 5.1000e+000 117676 -1.4021e+002 -3.2724e+002  2.1010e+001 16896 117500,117604,117526
 5.1000e+000 117653 -1.4914e+002 -2.5879e+002 -1.2869e+001 16896 117552,117604,117578
 5.1000e+000 117630 -1.2986e+002 -4.2436e+002  3.5170e+001 16896 117474,117604,117500
 5.1000e+000 117849 -2.9882e+002 -5.7756e+002 -2.1960e+001 16534 117722,117774,117748
 5.1000e+000 117826 -2.3525e+002 -7.0152e+002 -9.5158e+001 16534 117722,117800,117774
 5.1000e+000 118070 -4.2962e-001 -2.7127e+002  3.4243e+001 16194 117946,117998,117972
 5.1000e+000 118047 -4.3489e+001 -3.0578e+002  1.3752e+001 16194 117894,117998,117946
 5.1000e+000 118024 -1.5565e+002 -3.1417e+002  3.4355e-001 16194 117894,117946,117920
 5.1000e+000 118173 -1.6668e+001 -2.5454e+002  0.0000e+000 15968 118095,118147,118121
 5.1000e+000 118276 -7.6343e+001 -2.8185e+002  1.1402e+000 15433 118299,118198,118250
 5.1000e+000 118325 -7.7426e+001 -2.8438e+002  1.1651e+000 15433 118224,118198,118299
 5.1000e+000 118450 -1.3430e+002 -2.9918e+002  2.8622e+001 421 118372,118424,118398
 5.2000e+000 69891 -5.6579e+001 -2.9494e+002  1.0373e+001 68988 69447,69681,69629
 5.2000e+000 69868  1.6765e+001 -2.6422e+002  8.5590e+000 68988 69421,69681,69447
 5.2000e+000 69845 -7.1437e+000 -1.5074e+002  1.0842e+000 68988 69447,69629,69577
 5.2000e+000 69822 -9.1196e+001 -3.0612e+002 -3.3266e+001 68988 69447,69577,69473
 5.2000e+000 69799 -1.6949e+001 -3.5653e+002  5.9293e+001 68988 69629,69681,69655
 5.2000e+000 69776 -9.8825e+001 -1.9045e+002  4.9896e+000 68988 69577,69629,69603
 5.2000e+000 69753 -7.3038e+001 -2.7497e+002 -4.2107e+001 68988 69473,69577,69551
 5.2000e+000 69730 -1.0140e+002 -5.3631e+002 -5.2014e+001 68988 69473,69551,69525
 5.2000e+000 69707 -1.6448e+002 -3.5769e+002  6.9280e-001 68988 69473,69525,69499
 5.2000e+000 69992 -1.8429e+002 -3.2966e+002 -4.5981e+001 68676 69914,69966,69940
 5.2000e+000 70392 -1.3584e+002 -2.7185e+002  2.1729e+001 68478 70118,70248,70144
 5.2000e+000 70369 -7.2097e+000 -2.8041e+002  5.7554e+001 68478 70118,70274,70248
 5.2000e+000 70346 -8.2195e+001 -2.0567e+002 -5.9126e-001 68478 70144,70222,70196
 5.2000e+000 70323 -6.8659e+001 -1.7050e+002 -9.0396e+000 68478 70144,70248,70222
 5.2000e+000 70300 -8.7311e+001 -2.2355e+002 -3.2871e+000 68478 70144,70196,70170
 5.2000e+000 70841  3.2414e+001 -1.9111e+002 -4.8825e+001 68280 70570,70622,70596
 5.2000e+000 70818 -9.8709e+001 -2.1552e+002 -1.1887e+001 68280 70544,70622,70570
 5.2000e+000 70795 -7.4767e+001 -1.6157e+002 -7.1841e+000 68280 70544,70674,70622
 5.2000e+000 70772 -6.5154e+001 -1.4528e+002  2.0032e+000 68280 70622,70674,70648
 5.2000e+000 70749 -1.0439e+002 -2.4009e+002  1.7400e+001 68280 70518,70674,70544
 5.2000e+000 70726  6.5726e+001 -2.5336e+002  6.6920e+001 68280 70518,70700,70674
 5.2000e+000 70991 -1.1420e+001 -9.7484e+002  2.9414e+001 67968 70864,70916,70890
 5.2000e+000 70968 -2.5978e+002 -9.6824e+002  1.1330e+002 67968 70864,70942,70916
 5.2000e+000 71141 -4.4638e+002 -8.5042e+002 -4.1265e+001 67770 71040,71092,71066
 5.2000e+000 71118 -3.8830e+002 -1.0254e+003  4.5219e+001 67770 71014,71092,71040
 5.2000e+000 71651 -6.8408e+001 -1.9525e+002 -2.9864e+001 67366 71746,71674,71458
 5.2000e+000 71628 -4.6499e+001 -1.5808e+002 -3.2986e+001 67366 71674,71354,71510
 5.2000e+000 71605 -6.2917e+001 -2.1614e+002 -2.7431e+001 67366 71746,71458,71432
 5.2000e+000 71582 -9.6918e+001 -2.2082e+002  1.1454e+001 67366 71354,71432,71380
 5.2000e+000 71559 -1.0128e+002 -1.6450e+002 -1.5658e+001 67366 71380,71432,71406
 5.2000e+000 71536 -4.9672e+001 -6.9686e+001 -2.2478e+000 67366 71328,71510,71354
 5.2000e+000 71700 -7.3933e+001 -1.7629e+002 -1.4057e+001 67366 71484,71458,71674
 5.2000e+000 71723 -5.4351e+001 -1.6724e+002 -1.1206e+001 67366 71484,71674,71510
 5.2000e+000 71772 -6.1908e+001 -1.7044e+002 -2.6236e+001 67366 71354,71674,71746
 5.2000e+000 71795 -5.4907e+001 -1.8842e+002 -2.6493e+001 67366 71354,71746,71432
 5.2000e+000 71896 -1.6459e+002 -3.5381e+002  0.0000e+000 67146 71818,71870,71844
 5.2000e+000 71997 -2.0072e+002 -3.2426e+002  6.4647e+001 66948 71919,71971,71945
 5.2000e+000 72149 -2.4418e+001 -2.2563e+002 -2.5718e+001 66700 72172,72074,72048
 5.2000e+000 72126 -8.8922e+001 -2.5444e+002 -9.7211e+000 66700 72172,72048,72022
 5.2000e+000 72198 -1.3379e+002 -2.7681e+002  1.7709e+001 66700 72244,72172,72100
 5.2000e+000 72221 -1.1826e+002 -2.5327e+002 -1.3674e+001 66700 72100,72172,72022
 5.2000e+000 72270 -7.7428e+001 -1.5312e+002 -1.7682e+001 66700 72074,72172,72244
 5.2000e+000 72623 -9.3497e+001 -2.3953e+002  5.6565e+000 66502 72424,72502,72450
 5.2000e+000 72600 -8.0089e+001 -2.0416e+002  4.5076e+000 66502 72398,72502,72424
 5.2000e+000 72577 -6.5369e+001 -2.2906e+002 -3.0553e+000 66502 72398,72528,72502
 5.2000e+000 72554 -9.5832e+001 -2.1610e+002 -9.8438e-001 66502 72450,72502,72476
 5.2000e+000 72920 -1.4493e+002 -2.9449e+002  7.3978e+000 65941 72672,72776,72750
 5.2000e+000 72897 -1.4202e+002 -2.5421e+002  2.7692e+001 65941 72646,72776,72672
 5.2000e+000 72874 -1.2843e+002 -2.8953e+002  9.1288e+000 65941 72672,72750,72724
 5.2000e+000 72851 -1.2962e+002 -2.3233e+002  2.0383e+001 65941 72672,72724,72698
 5.2000e+000 72828 -1.0954e+002 -2.5252e+002  2.5248e+001 65941 72646,72802,72776
 5.2000e+000 73241 -4.5909e+001 -2.1000e+002  1.1381e+001 65743 73264,73071,73045
 5.2000e+000 73218 -9.4741e+001 -2.3557e+002  2.0937e+001 65743 73480,73264,73045
 5.2000e+000 73195 -7.6761e+001 -2.1073e+002 -2.2818e+000 65743 73336,72967,73097
 5.2000e+000 73172 -1.2485e+002 -1.9406e+002 -1.9229e+001 65743 73408,72993,72967
 5.2000e+000 73149 -7.1296e+001 -2.1162e+002 -2.6853e+000 65743 72967,73123,73097
 5.2000e+000 73290 -6.1888e+001 -2.1660e+002  2.9579e+000 65743 73097,73071,73264
 5.2000e+000 73313 -6.8277e+001 -2.0201e+002  6.9138e+000 65743 73336,73097,73264
 5.2000e+000 73362 -1.0826e+002 -2.1631e+002 -1.2581e+001 65743 73408,72967,73336
 5.2000e+000 73385 -5.7630e+001 -1.9885e+002 -2.5579e-001 65743 73019,73336,73264
 5.2000e+000 73434 -9.7229e+001 -1.5132e+002  1.0389e+001 65743 73019,72993,73408
 5.2000e+000 73457 -5.9922e+001 -1.8171e+002  7.7092e+000 65743 73019,73408,73336
 5.2000e+000 73506 -4.4023e+001 -1.4781e+002  3.1993e-001 65743 73019,73264,73480
 5.2000e+000 73989 -1.5644e+001 -1.7237e+002  1.9910e+001 65453 73793,73845,73819
 5.2000e+000 73966 -9.4342e+001 -1.9318e+002  2.2914e+001 65453 73741,73845,73793
 5.2000e+000 73943 -2.9504e+001 -1.5740e+002  8.9893e+000 65453 73715,73845,73741
 5.2000e+000 73920 -7.6007e+001 -2.0780e+002  3.8537e+001 65453 73741,73793,73767
 5.2000e+000 73897 -1.3154e+000 -1.0148e+002 -5.7528e-001 65453 73715,73871,73845
 5.2000e+000 74357 -5.3452e+001 -2.0450e+002 -5.4635e+001 65141 74380,74138,74086
 5.2000e+000 74334 -9.4020e+001 -2.7124e+002 -3.6577e+001 65141 74380,74086,74060
 5.2000e+000 74311 -1.0587e+002 -2.6512e+002 -1.0119e+001 65141 74138,74190,74164
 5.2000e+000 74288 -8.4094e+001 -2.9578e+002 -1.2572e+001 65141 74060,74216,74190
 5.2000e+000 74265 -8.8759e+001 -3.1152e+002  4.4483e+000 65141 74034,74216,74060
 5.2000e+000 74242 -5.9974e+001 -1.5217e+002 -3.0741e+001 65141 74086,74138,74112
 5.2000e+000 74406 -7.8985e+001 -2.6388e+002 -2.2411e+001 65141 74190,74138,74380
 5.2000e+000 74429 -9.1408e+001 -2.8682e+002 -1.0573e+001 65141 74190,74380,74060
 5.2000e+000 74937 -1.0875e+002 -2.1784e+002 -5.1651e+001 64737 74614,74666,74640
 5.2000e+000 74914 -1.3320e+002 -2.6058e+002 -3.8662e+001 64737 74614,74796,74666
 5.2000e+000 74891 -9.6824e+001 -1.8018e+002 -5.5254e+000 64737 74960,74718,74666
 5.2000e+000 74868 -8.7764e+001 -1.9865e+002 -2.2635e+001 64737 74960,74666,74770
 5.2000e+000 74845 -9.0642e+001 -1.6648e+002 -2.4274e+001 64737 74666,74796,74770
 5.2000e+000 74822 -9.4134e+001 -1.9546e+002  4.1222e+000 64737 74666,74718,74692
 5.2000e+000 74986 -1.0222e+002 -1.9927e+002 -7.5940e+000 64737 74744,74718,74960
 5.2000e+000 75009 -9.9577e+001 -2.2762e+002 -2.5556e+001 64737 74744,74960,74770
 5.2000e+000 75306 -5.1863e+001 -1.8917e+002  2.9402e+001 64133 75329,75110,75084
 5.2000e+000 75283 -6.7004e+001 -2.2549e+002  8.7283e+000 64133 75401,75329,75084
 5.2000e+000 75260 -6.5441e+001 -2.3111e+002  1.0392e+001 64133 75401,75084,75058
 5.2000e+000 75237 -6.6104e+001 -2.7052e+002  3.5980e+001 64133 75473,75136,75110
 5.2000e+000 75214 -6.6143e+001 -2.1035e+002  3.0562e+000 64133 75032,75188,75162
 5.2000e+000 75355 -7.7732e+001 -2.5006e+002  2.7631e+001 64133 75473,75110,75329
 5.2000e+000 75378 -5.8110e+001 -2.1584e+002  3.1654e+000 64133 75162,75329,75032
 5.2000e+000 75427 -5.4917e+001 -2.0791e+002  1.8331e+000 64133 75032,75329,75401
 5.2000e+000 75450 -1.0373e+002 -2.5527e+002  2.6650e+001 64133 75545,75401,75058
 5.2000e+000 75499 -5.6401e+001 -2.4485e+002  1.2183e+001 64133 75162,75136,75473
 5.2000e+000 75522 -6.6766e+001 -2.1096e+002  9.9278e+000 64133 75162,75473,75329
 5.2000e+000 75571 -5.3388e+001 -1.4523e+002  7.4263e+000 64133 75032,75401,75545
 5.2000e+000 75851 -8.9516e+001 -2.0700e+002  5.4487e+000 63843 75874,75753,75727
 5.2000e+000 75828 -7.7352e+001 -2.0133e+002 -9.1181e+000 63843 75946,75874,75727
 5.2000e+000 75805 -8.7269e+001 -2.1140e+002 -4.6622e+000 63843 76018,75946,75727
 5.2000e+000 75900 -7.1058e+001 -1.9923e+002 -6.6708e+000 63843 75779,75753,75874
 5.2000e+000 75923 -7.3680e+001 -1.7048e+002 -2.2869e+001 63843 75779,75874,75675
 5.2000e+000 75972 -8.7692e+001 -1.9400e+002 -8.1080e+000 63843 75675,75874,75946
 5.2000e+000 75995 -8.1914e+001 -1.9956e+002 -1.2751e+001 63843 75675,75946,75701
 5.2000e+000 76044 -8.8589e+001 -2.0623e+002 -1.6230e+001 63843 75701,75946,76018
 5.2000e+000 76454  1.3144e+001 -3.9038e+001 -2.2794e+001 63439 76477,76255,76229
 5.2000e+000 76431 -1.9893e+001 -9.4886e+001 -1.1022e+000 63439 76477,76229,76359
 5.2000e+000 76408 -2.8180e+001 -7.2637e+001  4.1749e+001 63439 76307,76359,76333
 5.2000e+000 76385 -1.7911e+001 -9.9755e+001  5.6976e+000 63439 76255,76307,76281
 5.2000e+000 76503 -2.1074e+001 -8.3003e+001  1.0469e+001 63439 76307,76255,76477
 5.2000e+000 76526 -1.9756e+001 -1.0483e+002  2.6145e+001 63439 76307,76477,76359
 5.2000e+000 76926 -4.6099e+001 -1.4221e+002 -1.7627e+000 63049 76704,76782,76756
 5.2000e+000 76903 -6.5961e+001 -1.4747e+002 -1.4086e+001 63049 76704,76808,76782
 5.2000e+000 76880 -4.6843e+001 -1.6157e+002  2.3170e+000 63049 76704,76756,76730
 5.2000e+000 76857 -3.8622e+001 -9.4516e+001  6.6788e+000 63049 76678,76808,76704
 5.2000e+000 76834 -1.7588e+001 -2.1731e+001 -2.1154e+001 63049 76652,76808,76678
 5.2000e+000 77076 -2.3035e+001 -2.4473e+002 -1.3032e+000 62737 76975,77027,77001
 5.2000e+000 77053 -2.1835e+001 -2.7354e+002 -1.6594e+001 62737 76949,77027,76975
 5.2000e+000 77324 -1.0065e+002 -2.3723e+002 -2.6039e+000 62277 77347,77177,77125
 5.2000e+000 77301 -1.0082e+002 -2.3060e+002 -1.3181e+001 62277 77347,77125,77229
 5.2000e+000 77278 -9.8351e+001 -2.3944e+002 -1.8731e+001 62277 77099,77229,77125
 5.2000e+000 77255 -1.0768e+002 -2.8317e+002  3.2414e+000 62277 77125,77177,77151
 5.2000e+000 77373 -1.0648e+002 -2.5696e+002  4.0197e+000 62277 77203,77177,77347
 5.2000e+000 77396 -9.5910e+001 -2.3978e+002 -8.2772e+000 62277 77203,77347,77229
 5.2000e+000 77857 -5.6428e+001 -3.0328e+002  3.6312e+000 61758 77635,77739,77661
 5.2000e+000 77834 -8.1892e+001 -2.9309e+002 -1.0378e+001 61758 77583,77739,77635
 5.2000e+000 77811 -9.3988e+001 -3.6971e+002 -3.6158e+001 61758 77583,77635,77609
 5.2000e+000 77788 -7.5330e+001 -2.8920e+002  2.3112e+001 61758 77661,77713,77687
 5.2000e+000 77765 -8.0541e+001 -3.3087e+002  2.1918e+001 61758 77661,77739,77713
 5.2000e+000 78491 -8.4682e+001 -1.6289e+002  9.1189e+000 61418 78171,78301,78249
 5.2000e+000 78468 -6.7109e+001 -1.3511e+002  2.0235e+001 61418 78145,78301,78171
 5.2000e+000 78445 -6.3547e+001 -1.4480e+002 -6.4965e+000 61418 78171,78249,78223
 5.2000e+000 78422 -6.4919e+001 -1.3373e+002  7.0972e+000 61418 78145,78327,78301
 5.2000e+000 78399 -8.8995e+001 -1.8544e+002 -1.3330e+000 61418 78249,78301,78275
 5.2000e+000 78376 -3.8184e+001 -1.5786e+002 -1.0522e+001 61418 78171,78223,78197
 5.2000e+000 78353 -7.6477e+001 -1.7895e+002 -4.7931e+000 61418 78119,78327,78145
 5.2000e+000 78690 -8.0331e+001 -1.8780e+002 -7.7492e-001 61014 78713,78566,78540
 5.2000e+000 78667 -5.6706e+001 -1.9325e+002  2.0462e+000 61014 78713,78540,78618
 5.2000e+000 78644 -9.1141e+001 -2.1855e+002 -2.0871e+001 61014 78514,78618,78540
 5.2000e+000 78739 -4.3955e+001 -1.8278e+002  1.9202e+001 61014 78592,78566,78713
 5.2000e+000 78762 -5.6708e+001 -2.0213e+002  1.9183e+000 61014 78785,78713,78618
 5.2000e+000 78811 -1.7313e+001 -1.8702e+002 -3.2001e+000 61014 78592,78713,78785
 5.2000e+000 79398 -3.7403e+001 -1.6976e+002 -1.6176e+001 60624 79101,79179,79153
 5.2000e+000 79375 -4.9209e+001 -1.8912e+002 -7.9653e+000 60624 79101,79231,79179
 5.2000e+000 79352 -3.7630e+001 -1.8762e+002 -1.2283e+001 60624 79075,79231,79101
 5.2000e+000 79329 -1.2460e+001 -2.2280e+002  2.3528e+001 60624 79075,79257,79231
 5.2000e+000 79306 -3.6025e+001 -1.4240e+002 -2.7512e+001 60624 79179,79231,79205
 5.2000e+000 79283 -2.9222e+001 -1.5157e+002 -1.0143e+001 60624 79101,79153,79127
 5.2000e+000 79776 -9.9861e+001 -2.5627e+002  2.1241e+001 60070 79528,79658,79606
 5.2000e+000 79753 -9.0524e+001 -2.0589e+002  1.0121e-001 60070 79502,79658,79528
 5.2000e+000 79730 -1.2090e+002 -2.4539e+002  3.3101e+001 60070 79528,79606,79580
 5.2000e+000 79707 -4.0972e+001 -2.2454e+002  4.8556e+000 60070 79606,79658,79632
 5.2000e+000 79684 -1.0534e+001 -1.5046e+002 -3.8992e+001 60070 79528,79580,79554
 5.2000e+000 80105 -7.0931e+001 -1.9732e+002  2.4097e+001 59758 80128,79958,79906
 5.2000e+000 80082 -7.3370e+001 -1.8735e+002  1.8914e+001 59758 80128,79906,80010
 5.2000e+000 80059 -9.9438e+001 -2.0844e+002  6.6454e+001 59758 79906,79958,79932
 5.2000e+000 80036 -1.0701e+002 -2.1391e+002  7.3032e+000 59758 79880,80010,79906
 5.2000e+000 80154 -7.2338e+001 -2.0374e+002  2.4365e+001 59758 79984,79958,80128
 5.2000e+000 80177 -7.6423e+001 -1.9625e+002  1.9259e+001 59758 79984,80128,80010
 5.2000e+000 80376 -5.3710e+001 -1.8052e+002  3.6408e+000 59312 80226,80304,80252
 5.2000e+000 80353 -5.3634e+001 -1.8608e+002  3.2669e+000 59312 80200,80304,80226
 5.2000e+000 80330 -8.2376e+001 -1.6428e+002  4.8948e+001 59312 80252,80304,80278
 5.2000e+000 80805 -7.1132e+001 -1.6243e+002 -2.4131e+001 58908 80900,80828,80638
 5.2000e+000 80782 -5.8478e+001 -1.9227e+002 -3.7806e+001 58908 80828,80560,80508
 5.2000e+000 80759 -7.5330e+001 -1.5324e+002 -8.4445e+000 58908 80900,80638,80612
 5.2000e+000 80736 -2.9690e+001 -1.6576e+002  6.8228e+001 58908 80482,80664,80508
 5.2000e+000 80713 -4.9799e+001 -1.4328e+002 -5.0837e+000 58908 80560,80612,80586
 5.2000e+000 80690 -6.8476e+001 -4.8717e+002 -9.1373e+001 58908 80508,80560,80534
 5.2000e+000 80854 -3.1435e+001 -1.7531e+002  2.0422e+000 58908 80664,80638,80828
 5.2000e+000 80877 -5.6044e+001 -2.5393e+002  5.0792e+000 58908 80664,80828,80508
 5.2000e+000 80926 -5.9505e+001 -1.3435e+002 -2.7215e+001 58908 80560,80828,80900
 5.2000e+000 80949 -6.8226e+001 -1.3494e+002 -9.3169e+000 58908 80560,80900,80612
 5.2000e+000 81246 -3.0341e+001 -1.6110e+002 -3.5778e+000 58482 81076,81128,81102
 5.2000e+000 81223 -7.5053e+001 -2.7212e+002 -2.6557e+001 58482 80972,81128,81076
 5.2000e+000 81200 -4.9394e+001 -1.8546e+002 -2.7982e+001 58482 80972,81076,81050
 5.2000e+000 81177 -1.0553e+002 -2.7831e+002 -9.3148e+000 58482 80998,81050,81024
 5.2000e+000 81154 -6.1502e+001 -2.3072e+002 -2.7842e+001 58482 80972,81050,80998
 5.2000e+000 81754 -8.2233e+001 -1.6543e+002  1.0732e+001 57828 81457,81613,81483
 5.2000e+000 81731 -9.1938e+001 -1.8378e+002  4.8879e+000 57828 81431,81613,81457
 5.2000e+000 81708 -8.8195e+001 -1.7933e+002  1.3143e+001 57828 81483,81613,81509
 5.2000e+000 81685 -1.0389e+002 -2.0242e+002  2.0065e+001 57828 81509,81613,81587
 5.2000e+000 81662 -1.0840e+002 -2.9866e+002  4.2431e+001 57828 81509,81587,81535
 5.2000e+000 81639 -6.2433e+001 -2.8414e+002  2.6995e+001 57828 81535,81587,81561
 5.2000e+000 82002 -1.2074e+002 -2.9151e+002 -5.7709e-001 57374 82025,81855,81829
 5.2000e+000 81979 -1.2821e+002 -2.7441e+002  1.3481e+001 57374 82025,81829,81907
 5.2000e+000 81956 -1.3374e+002 -2.5648e+002  7.6942e+000 57374 81803,81907,81829
 5.2000e+000 81933 -7.5459e+001 -2.3070e+002  1.4469e+001 57374 81777,81907,81803
 5.2000e+000 82051 -1.1864e+002 -2.7116e+002 -2.2615e+000 57374 81881,81855,82025
 5.2000e+000 82074 -1.2341e+002 -2.5645e+002  1.6490e+001 57374 81881,82025,81907
 5.2000e+000 82356 -7.0476e+001 -1.6744e+002 -1.0150e+001 56913 82180,82232,82206
 5.2000e+000 82333 -6.2342e+001 -1.6150e+002  1.4457e+001 56913 82180,82284,82232
 5.2000e+000 82310 -2.0982e+001 -1.2607e+002  3.0584e+001 56913 82379,82232,82284
 5.2000e+000 82405  1.9301e+001 -1.2254e+002  3.4154e+000 56913 82258,82232,82379
 5.2000e+000 82764 -7.0041e+001 -1.1533e+002 -1.2343e+001 56523 82614,82666,82640
 5.2000e+000 82741 -5.9047e+001 -1.1223e+002 -1.7924e+001 56523 82614,82692,82666
 5.2000e+000 82718 -4.8981e+001 -1.1827e+002 -3.3261e+001 56523 82588,82692,82614
 5.2000e+000 83368 -1.3925e+001 -1.8982e+002 -8.3846e+000 55969 82973,83155,83129
 5.2000e+000 83345  1.9460e+000 -1.8387e+002 -1.3103e+001 55969 82973,83181,83155
 5.2000e+000 83322 -5.0227e+001 -1.6861e+002 -6.3418e+000 55969 82973,83129,82999
 5.2000e+000 83299 -7.9265e+001 -1.7192e+002  2.8290e+000 55969 83391,83025,82999
 5.2000e+000 83276 -6.8773e+001 -1.7827e+002 -8.0384e-001 55969 83391,82999,83129
 5.2000e+000 83253 -1.3222e+001 -1.5007e+002  3.2152e+001 55969 83077,83129,83103
 5.2000e+000 83230 -8.5082e+001 -1.3952e+002 -7.8391e+000 55969 83025,83077,83051
 5.2000e+000 83207 -1.1395e+000 -1.7684e+002  1.6894e+001 55969 82947,83181,82973
 5.2000e+000 83417 -6.9327e+001 -1.6541e+002  6.7379e+000 55969 83077,83025,83391
 5.2000e+000 83440 -6.5854e+001 -1.7441e+002  1.3609e+000 55969 83077,83391,83129
 5.2000e+000 83946 -1.3410e+002 -2.9697e+002  4.7215e+001 55771 83969,83779,83727
 5.2000e+000 83923 -1.0569e+002 -2.3892e+002  3.0493e+001 55771 83969,83727,83623
 5.2000e+000 83900 -1.2792e+002 -1.2268e+002  1.7625e+001 55771 83623,83727,83649
 5.2000e+000 83877 -1.0615e+002 -5.1298e+002  2.1672e+001 55771 83727,83779,83753
 5.2000e+000 83854 -1.8494e+002 -2.2489e+002  6.4244e+001 55771 83675,83727,83701
 5.2000e+000 83831 -1.9749e+002 -1.9572e+002  7.9446e+001 55771 83649,83727,83675
 5.2000e+000 83995 -1.2717e+002 -3.0964e+002 -2.5997e+001 55771 83805,83779,83969
 5.2000e+000 84018 -6.7894e+001 -1.9355e+002 -4.8851e+001 55771 83805,83969,83623
 5.2000e+000 84168 -6.8074e+001 -1.4596e+002 -3.2350e+000 55367 84191,84067,84041
 5.2000e+000 84145 -6.2998e+001 -1.6823e+002 -2.5817e+000 55367 84191,84041,84119
 5.2000e+000 84217 -6.8534e+001 -1.3664e+002 -2.1668e+000 55367 84093,84067,84191
 5.2000e+000 84240 -5.1849e+001 -1.4650e+002  4.9629e+000 55367 84093,84191,84119
 5.2000e+000 84571 -3.2794e+001 -2.2466e+002 -2.2390e+001 54913 84398,84450,84424
 5.2000e+000 84548 -2.7884e+001 -2.0649e+002 -1.1533e+001 54913 84372,84450,84398
 5.2000e+000 84525 -5.5645e+001 -2.3143e+002  8.3140e+000 54913 84346,84450,84372
 5.2000e+000 84502 -2.0674e+001 -1.5110e+002 -2.0434e+001 54913 84346,84476,84450
 5.2000e+000 85126 -1.1647e+002 -2.5402e+002 -1.1054e+001 54402 84858,84936,84910
 5.2000e+000 85103 -9.0636e+001 -1.9909e+002 -2.2338e+001 54402 84806,84936,84858
 5.2000e+000 85080 -1.1004e+002 -1.8203e+002 -1.7313e+001 54402 84780,84936,84806
 5.2000e+000 85057 -8.9639e+001 -2.2059e+002 -9.0659e+000 54402 84806,84858,84832
 5.2000e+000 85034 -9.8682e+001 -1.7149e+002  8.8075e+000 54402 84780,84962,84936
 5.2000e+000 85011 -1.3464e+002 -1.5128e+002 -4.6344e+000 54402 84858,84910,84884
 5.2000e+000 84988 -9.6582e+001 -1.7031e+002  1.0543e+001 54402 84754,84962,84780
 5.2000e+000 85396 -9.0479e+001 -1.1011e+002 -7.4684e+000 53998 85197,85249,85223
 5.2000e+000 85373 -6.9879e+001 -1.3752e+002 -2.1577e+000 53998 85197,85275,85249
 5.2000e+000 85350 -8.7494e+001 -1.6565e+002 -1.0955e+001 53998 85171,85275,85197
 5.2000e+000 85327 -4.1443e+001 -1.5639e+002 -1.2241e+001 53998 85171,85301,85275
 5.2000e+000 85749 -5.1555e+001 -1.7480e+002 -4.5265e+000 53636 85524,85628,85550
 5.2000e+000 85726 -8.1912e+001 -1.9943e+002  6.6814e+000 53636 85524,85654,85628
 5.2000e+000 85703 -2.9843e+001 -1.8544e+002 -1.8500e+001 53636 85550,85602,85576
 5.2000e+000 85680 -4.9577e+001 -1.7278e+002 -9.1987e+000 53636 85550,85628,85602
 5.2000e+000 86127 -2.0942e+001 -1.8087e+002  2.8673e+001 52982 86150,85957,85879
 5.2000e+000 86104 -6.3749e+001 -2.0970e+002  1.6134e+001 52982 86150,85879,85853
 5.2000e+000 86081 -1.6680e+001 -2.5999e+002  5.1982e+001 52982 85957,86009,85983
 5.2000e+000 86058 -7.6481e+001 -1.9340e+002  2.3035e+001 52982 85879,85957,85931
 5.2000e+000 86035 -4.9072e+001 -1.8219e+002 -6.6750e+000 52982 85879,85931,85905
 5.2000e+000 86176  6.0237e+000 -2.1362e+002  2.3111e+001 52982 86009,85957,86150
 5.2000e+000 86199 -1.9302e+001 -2.3197e+002  1.4347e+001 52982 86009,86150,85853
 5.2000e+000 86398 -3.8391e+001 -1.4315e+002  1.8042e+001 52542 86421,86248,86222
 5.2000e+000 86375 -7.9005e+001 -1.4525e+002 -9.7397e-001 52542 86421,86222,86300
 5.2000e+000 86352 -8.0205e+001 -1.6514e+002 -8.6077e+000 52542 86222,86326,86300
 5.2000e+000 86447  1.8927e+000 -1.4302e+002  3.2955e+001 52542 86274,86248,86421
 5.2000e+000 86470 -3.6001e+001 -1.5037e+002  9.0410e+000 52542 86274,86421,86300
 5.2000e+000 86669 -7.2091e+001 -1.4891e+002 -2.6401e+001 52230 86692,86571,86545
 5.2000e+000 86646 -7.2226e+001 -1.4714e+002 -1.8102e+001 52230 86692,86545,86519
 5.2000e+000 86623 -9.4249e+001 -1.4778e+002 -2.0383e+001 52230 86493,86597,86519
 5.2000e+000 86718 -7.6764e+001 -1.5075e+002 -2.5667e+001 52230 86597,86571,86692
 5.2000e+000 86741 -8.2577e+001 -1.5145e+002 -1.7575e+001 52230 86597,86692,86519
 5.2000e+000 87153 -9.7760e+001 -1.5044e+002  6.3183e+000 51640 86980,87058,87032
 5.2000e+000 87130 -9.6021e+001 -1.5502e+002  4.5071e+000 51640 86928,87058,86980
 5.2000e+000 87107 -1.0137e+002 -2.0799e+002 -9.7991e+000 51640 86928,86980,86954
 5.2000e+000 87084 -5.2094e+001 -1.3109e+002 -3.0583e+000 51640 86980,87032,87006
 5.2000e+000 87659 -4.6008e+001 -1.3864e+002  3.5294e+000 51029 87682,87440,87362
 5.2000e+000 87636 -4.0469e+001 -1.4627e+002 -1.3736e+001 51029 87682,87362,87336
 5.2000e+000 87613 -6.6187e+001 -2.0416e+002 -4.6894e+000 51029 87440,87518,87466
 5.2000e+000 87590 -7.0974e+001 -1.3682e+002  4.5067e+000 51029 87362,87440,87414
 5.2000e+000 87567 -5.8141e+001 -1.0304e+002  2.3199e+001 51029 87362,87414,87388
 5.2000e+000 87544 -9.0042e+001 -1.8409e+002  5.7276e+000 51029 87466,87518,87492
 5.2000e+000 87708 -4.5124e+001 -1.5394e+002 -1.1839e+000 51029 87518,87440,87682
 5.2000e+000 87731 -4.3714e+001 -1.7646e+002 -1.2040e+001 51029 87518,87682,87336
 5.2000e+000 87881 -8.6322e+001 -1.9066e+002  8.1782e+000 50739 87780,87832,87806
 5.2000e+000 87858 -1.0465e+002 -1.9947e+002 -9.0103e+000 50739 87754,87832,87780
 5.2000e+000 88468 -5.8447e+001 -1.2990e+002  6.1533e+000 50235 88171,88327,88197
 5.2000e+000 88445 -1.2397e+002 -1.3085e+002 -1.8979e+001 50235 88145,88327,88171
 5.2000e+000 88422  9.7061e-002 -6.4593e+001 -1.0943e-001 50235 88275,88327,88301
 5.2000e+000 88399 -3.8368e+001 -8.1072e+001 -8.8104e-001 50235 88197,88327,88275
 5.2000e+000 88376 -2.0061e+001 -1.1902e+002 -2.1740e+000 50235 88197,88275,88223
 5.2000e+000 88353 -2.2811e+001 -1.5873e+002 -1.5255e+001 50235 88223,88275,88249
 5.2000e+000 88895 -8.7970e+001 -2.0924e+002  5.9040e+000 49873 88918,88728,88676
 5.2000e+000 88872 -7.4553e+001 -1.9497e+002 -3.1930e+000 49873 88918,88676,88624
 5.2000e+000 88849 -5.8988e+001 -1.7307e+002 -8.1090e+000 49873 88598,88754,88624
 5.2000e+000 88826 -4.7000e+001 -1.8381e+002 -4.4356e+000 49873 88624,88676,88650
 5.2000e+000 88803 -7.3440e+001 -2.5485e+002  8.2261e+000 49873 88676,88728,88702
 5.2000e+000 88780 -7.2782e+001 -1.7874e+002 -1.0086e+001 49873 88572,88754,88598
 5.2000e+000 88944 -7.1547e+001 -2.0731e+002 -3.1636e+000 49873 88754,88728,88918
 5.2000e+000 88967 -6.6481e+001 -2.0250e+002 -1.0776e+001 49873 88754,88918,88624
 5.2000e+000 89473 -1.2329e+002 -1.9532e+002 -2.3575e+001 49583 89176,89306,89202
 5.2000e+000 89450 -1.2239e+002 -1.9186e+002 -3.0922e+001 49583 89176,89332,89306
 5.2000e+000 89427 -7.2424e+001 -2.1248e+002  9.8254e+000 49583 89496,89228,89202
 5.2000e+000 89404 -7.3127e+001 -2.1723e+002  1.1726e+001 49583 89496,89202,89280
 5.2000e+000 89381 -1.5227e+002 -2.7143e+002 -4.7056e+001 49583 89202,89306,89280
 5.2000e+000 89358 -9.4920e+001 -1.9235e+002 -3.5106e+001 49583 89150,89332,89176
 5.2000e+000 89522 -6.8791e+001 -1.8039e+002  5.3827e+000 49583 89254,89228,89496
 5.2000e+000 89545 -8.4131e+001 -2.0773e+002  1.1462e+001 49583 89254,89496,89280
 5.2000e+000 89825  1.3258e+001 -1.9475e+002  8.3050e+000 49179 89701,89753,89727
 5.2000e+000 89802 -3.0160e+001 -1.7537e+002  1.1540e+001 49179 89675,89753,89701
 5.2000e+000 89779 -2.2395e+001 -1.5581e+002  9.9108e+000 49179 89848,89753,89675
 5.2000e+000 89874 -1.0840e+002 -1.8419e+002 -1.3664e+001 49179 89649,89753,89848
 5.2000e+000 90223 -6.4284e+001 -1.9036e+002 -2.2305e+001 48739 90024,90102,90076
 5.2000e+000 90200 -6.1621e+001 -1.7883e+002 -8.2366e+000 48739 90024,90128,90102
 5.2000e+000 90177 -1.2871e+000 -1.8617e+002 -2.3013e+001 48739 90024,90076,90050
 5.2000e+000 90154 -2.3091e+001 -1.7073e+002  1.2281e+001 48739 89998,90128,90024
 5.2000e+000 90603 -5.7691e+001 -1.4820e+002  3.2243e+001 48335 90381,90485,90459
 5.2000e+000 90580 -7.6658e+001 -1.7736e+002  2.3741e+001 48335 90355,90485,90381
 5.2000e+000 90557 -3.0556e+001 -5.9147e+001  1.6372e+001 48335 90381,90433,90407
 5.2000e+000 90534 -5.5429e+001 -1.5496e+002  2.3235e+001 48335 90381,90459,90433
 5.2000e+000 90511  2.0055e+001 -1.2279e+002  4.7622e+001 48335 90329,90485,90355
 5.2000e+000 90753 -1.6405e+000 -9.6169e+001  5.8993e+001 47824 90776,90652,90704
 5.2000e+000 90730 -5.0707e+001 -1.6937e+002  2.7874e+001 47824 90626,90704,90652
 5.2000e+000 90802 -2.3007e+001 -1.2667e+002  4.7061e+001 47824 90678,90652,90776
 5.2000e+000 91131 -6.6158e+001 -2.1494e+002  1.2725e+001 47427 91154,90958,90906
 5.2000e+000 91108 -1.2053e+002 -2.3693e+002 -4.4792e-001 47427 91154,90906,91036
 5.2000e+000 91085 -1.1302e+002 -1.8712e+002 -1.7023e+001 47427 90958,91010,90984
 5.2000e+000 91062 -6.2092e+001 -1.9321e+002  1.2772e+001 47427 90906,90958,90932
 5.2000e+000 91180 -9.8707e+001 -2.1542e+002 -2.2908e+001 47427 91010,90958,91154
 5.2000e+000 91203 -1.5140e+002 -2.3829e+002 -3.7031e+001 47427 91010,91154,91036
 5.2000e+000 91583 -1.0681e+002 -1.9978e+002 -1.1996e+001 46873 91309,91439,91335
 5.2000e+000 91560 -1.1270e+002 -2.0155e+002 -9.9275e+000 46873 91309,91465,91439
 5.2000e+000 91537 -1.5984e+002 -2.3259e+002 -5.8954e+001 46873 91361,91439,91413
 5.2000e+000 91514 -1.1982e+002 -2.0841e+002 -3.1560e+001 46873 91335,91439,91361
 5.2000e+000 91491 -5.4571e+001 -1.9632e+002 -5.2808e+001 46873 91361,91413,91387
 5.2000e+000 91880 -6.3790e+001 -2.1329e+002 -6.5559e+000 46526 91606,91710,91658
 5.2000e+000 91857 -6.9781e+001 -2.2807e+002  2.7372e+000 46526 91606,91762,91710
 5.2000e+000 91834 -3.4796e+001 -2.0219e+002 -2.7425e+001 46526 91606,91658,91632
 5.2000e+000 91811 -8.0152e+001 -1.9632e+002  3.7420e+000 46526 91658,91710,91684
 5.2000e+000 91788 -4.1391e+001 -1.5374e+002  3.1535e+000 46526 91710,91762,91736
 5.2000e+000 92211 -3.5291e+001 -8.4652e+001 -7.3386e+000 45700 91986,92064,92038
 5.2000e+000 92188 -4.8162e+001 -1.2666e+002  4.6582e-001 45700 91986,92116,92064
 5.2000e+000 92165 -2.6771e+001 -7.0654e+001 -1.5728e+001 45700 91986,92038,92012
 5.2000e+000 92142 -3.1440e+001 -1.3992e+002  1.7498e+001 45700 92064,92116,92090
 5.2000e+000 92766 -9.4237e+001 -1.8293e+002  1.0294e+001 45452 92446,92602,92576
 5.2000e+000 92743 -1.4183e+002 -1.7776e+002 -1.8570e+001 45452 92420,92602,92446
 5.2000e+000 92720 -1.0985e+002 -1.9115e+002  3.0112e+001 45452 92789,92524,92498
 5.2000e+000 92697 -1.2609e+002 -1.8707e+002  2.5066e+001 45452 92789,92498,92446
 5.2000e+000 92674 -1.0765e+002 -2.0259e+002 -1.0783e+000 45452 92524,92576,92550
 5.2000e+000 92651 -1.6633e+002 -1.9296e+002  1.0279e+002 45452 92446,92498,92472
 5.2000e+000 92628 -9.1974e+001 -2.2598e+002 -5.5400e+001 45452 92394,92602,92420
 5.2000e+000 92815 -9.8370e+001 -1.9283e+002  2.5702e+001 45452 92576,92524,92789
 5.2000e+000 92838 -1.1121e+002 -1.8624e+002  2.2777e+001 45452 92576,92789,92446
 5.2000e+000 92939 -7.9442e+001 -2.4990e+002 -5.1147e+001 44998 92861,92913,92887
 5.2000e+000 93319 -1.6074e+001 -2.5523e+002  4.8694e+001 44601 93123,93201,93149
 5.2000e+000 93296 -7.0200e+001 -2.5620e+002 -2.5525e+001 44601 93045,93201,93123
 5.2000e+000 93273 -5.6296e+001 -1.4614e+002 -3.5730e+001 44601 93045,93123,93071
 5.2000e+000 93250 -5.2709e+001 -1.3623e+002 -2.3840e+001 44601 93071,93123,93097
 5.2000e+000 93227 -4.7872e+000 -1.4223e+002  5.2681e+001 44601 93149,93201,93175
 5.2000e+000 93697 -5.5034e+001 -2.7872e+002  1.5210e+001 44026 93720,93553,93527
 5.2000e+000 93674 -9.5175e+001 -2.3711e+002  2.1037e+001 44026 93720,93527,93449
 5.2000e+000 93651 -1.0504e+002 -2.4469e+002 -3.5121e+000 44026 93449,93527,93501
 5.2000e+000 93628 -7.7589e+001 -1.8984e+002 -4.0232e+001 44026 93423,93579,93449
 5.2000e+000 93605 -2.4474e+001 -1.9467e+002  1.7821e+001 44026 93449,93501,93475
 5.2000e+000 93746 -2.6944e+001 -2.4762e+002  3.4611e+000 44026 93579,93553,93720
 5.2000e+000 93769 -6.9181e+001 -2.0664e+002  9.9602e+000 44026 93579,93720,93449
 5.2000e+000 94066 -5.4666e+001 -2.1787e+002 -3.0177e+001 43579 94089,93818,93792
 5.2000e+000 94043 -8.8546e+001 -2.3992e+002 -2.0273e+001 43579 94161,94089,93792
 5.2000e+000 94020 -8.7609e+001 -2.4077e+002 -1.3663e+001 43579 94161,93792,93948
 5.2000e+000 93997 -9.4377e+001 -1.9255e+002 -1.0164e+001 43579 94233,93870,93818
 5.2000e+000 93974 -5.3242e+001 -1.9849e+002  5.3450e+000 43579 93818,93870,93844
 5.2000e+000 94115 -9.2075e+001 -1.9417e+002 -2.2280e+001 43579 94233,93818,94089
 5.2000e+000 94138 -1.2147e+002 -2.1844e+002 -1.4732e+001 43579 93896,94089,93922
 5.2000e+000 94187 -8.4280e+001 -2.2989e+002 -2.0166e+001 43579 93922,94089,94161
 5.2000e+000 94210 -8.3017e+001 -2.2983e+002 -1.2934e+001 43579 93922,94161,93948
 5.2000e+000 94259 -1.0807e+002 -2.1565e+002 -4.1066e+000 43579 93896,93870,94233
 5.2000e+000 94282 -1.0011e+002 -2.1171e+002 -1.8061e+001 43579 93896,94233,94089
 5.2000e+000 94481 -7.2073e+001 -2.2716e+002 -9.8929e-001 43239 94305,94383,94357
 5.2000e+000 94458 -6.3531e+001 -2.0837e+002  2.6431e+001 43239 94305,94409,94383
 5.2000e+000 94435 -5.3636e+001 -2.3874e+002 -6.0944e+000 43239 94305,94357,94331
 5.2000e+000 94633 -2.5523e+001 -1.4062e+002  3.2480e+001 42827 94656,94532,94506
 5.2000e+000 94610 -6.0004e+001 -1.5638e+002  3.6172e+001 42827 94728,94656,94506
 5.2000e+000 94682 -3.2785e+001 -1.6183e+002  2.7423e+001 42827 94558,94532,94656
 5.2000e+000 94705 -1.1818e+001 -1.5933e+002  1.6227e+001 42827 94988,94860,94656
 5.2000e+000 94754 -3.4116e+001 -1.4264e+002  1.0475e+001 42827 94988,94656,94728
 5.2000e+000 94886  5.9834e+000 -1.5060e+002  1.9092e+001 42827 94558,94656,94860
 5.2000e+000 95014  6.9165e+000 -1.4495e+002  9.9396e+000 42827 94584,94860,94988
 5.2000e+000 95037 -1.2383e+001 -1.2957e+002  4.3919e+000 42827 94584,94988,94728
 5.2000e+000 95236 -2.9623e+001 -1.7494e+002  2.3562e+001 42537 95259,95112,95060
 5.2000e+000 95213 -3.7777e+001 -1.6900e+002  2.1115e+001 42537 95259,95060,95164
 5.2000e+000 95190 -1.4662e+001 -1.7939e+002 -2.9980e+000 42537 95060,95112,95086
 5.2000e+000 95285 -3.5103e+001 -1.7730e+002  2.0173e+001 42537 95138,95112,95259
 5.2000e+000 95308 -4.3793e+001 -1.7420e+002  1.6544e+001 42537 95138,95259,95164
 5.2000e+000 95816 -7.7419e+001 -2.1754e+002 -1.4636e+001 41969 95493,95597,95519
 5.2000e+000 95793 -1.1441e+002 -2.0532e+002  1.8873e+001 41969 95493,95649,95597
 5.2000e+000 95770 -8.5892e+001 -1.9250e+002  1.5728e+001 41969 95493,95675,95649
 5.2000e+000 95747 -9.2535e+001 -2.6436e+002  1.6073e+001 41969 95597,95649,95623
 5.2000e+000 95724 -1.2405e+002 -1.9974e+002 -2.4668e+001 41969 95519,95597,95571
 5.2000e+000 95701 -1.0965e+002 -1.7429e+002 -4.9402e+001 41969 95519,95571,95545
 5.2000e+000 96371 -9.6234e+001 -2.3179e+002  2.8519e+001 41579 96025,96207,96181
 5.2000e+000 96348  2.8446e+001 -1.7483e+002 -7.7089e+000 41579 95999,96207,96025
 5.2000e+000 96325 -1.1005e+002 -1.7798e+002 -1.9362e+001 41579 96129,96181,96155
 5.2000e+000 96302 -4.0826e+001 -1.6202e+002  1.3757e+000 41579 96025,96181,96129
 5.2000e+000 96279 -8.9261e+001 -2.3980e+002  3.2442e+001 41579 96025,96129,96051
 5.2000e+000 96256 -1.0480e+002 -2.2734e+002  3.4567e+001 41579 96051,96103,96077
 5.2000e+000 96233 -4.0033e+001 -1.7217e+002  3.4359e+000 41579 96051,96129,96103
 5.2000e+000 96877 -2.5424e+001 -1.4758e+002 -1.6870e+001 41182 96972,96900,96632
 5.2000e+000 96854 -3.1788e+001 -1.0988e+002 -1.7289e+001 41182 96900,96554,96736
 5.2000e+000 96831 -2.4405e+001 -1.4735e+002 -1.4654e+001 41182 96972,96632,96580
 5.2000e+000 96808 -3.1933e+001 -1.3877e+002  1.4415e+001 41182 96632,96684,96658
 5.2000e+000 96785 -5.7581e+001 -1.5256e+002  1.6866e+001 41182 96684,96736,96710
 5.2000e+000 96762 -8.5385e+001 -1.8826e+002  3.0684e+001 41182 96580,96632,96606
 5.2000e+000 96926 -2.3302e+001 -1.6342e+002 -1.6673e+001 41182 96684,96632,96900
 5.2000e+000 96949 -4.6886e+001 -1.4546e+002 -2.8918e+001 41182 96684,96900,96736
 5.2000e+000 96998 -2.9543e+001 -1.4966e+002 -1.8293e+001 41182 96554,96900,96972
 5.2000e+000 97021 -2.8718e+001 -1.4876e+002 -1.5806e+001 41182 96554,96972,96580
 5.2000e+000 97576 -1.2983e+002 -3.2691e+002 -4.5381e+001 40678 97230,97412,97282
 5.2000e+000 97553 -1.2088e+001 -2.6857e+002  1.4640e+001 40678 97204,97412,97230
 5.2000e+000 97530 -3.6593e+001 -2.4914e+002 -4.0852e+001 40678 97282,97360,97308
 5.2000e+000 97507 -5.8103e+001 -2.5405e+002 -1.6128e+001 40678 97282,97412,97360
 5.2000e+000 97484 -1.6000e+001 -1.5056e+002 -3.5846e+001 40678 97308,97360,97334
 5.2000e+000 97461 -7.4720e+001 -3.0668e+002 -9.0919e+000 40678 97360,97412,97386
 5.2000e+000 97438 -7.3725e+001 -2.0858e+002 -2.8901e+001 40678 97230,97282,97256
 5.2000e+000 97976 -1.0336e+002 -1.7437e+002 -4.1437e+000 40244 97702,97832,97754
 5.2000e+000 97953 -8.6714e+001 -1.6849e+002 -8.6085e+000 40244 97702,97858,97832
 5.2000e+000 97930 -1.1098e+002 -2.0494e+002 -4.3672e+001 40244 97702,97754,97728
 5.2000e+000 97907 -8.6002e+001 -1.8999e+002  2.0780e+001 40244 97780,97832,97806
 5.2000e+000 97884 -9.3674e+001 -1.6848e+002 -9.8000e-001 40244 97754,97832,97780
 5.2000e+000 98482 -5.6002e+001 -1.6249e+002  2.6069e+001 39690 98505,98185,98159
 5.2000e+000 98459 -5.7664e+001 -1.5734e+002  2.5102e+001 39690 98505,98159,98289
 5.2000e+000 98436 -1.0965e+002 -2.3523e+002  6.4109e+001 39690 98159,98315,98289
 5.2000e+000 98413 -4.4409e+001 -1.4594e+002  2.2534e+001 39690 98211,98289,98263
 5.2000e+000 98390 -2.5772e+001 -9.4947e+001  1.3431e+001 39690 98211,98263,98237
 5.2000e+000 98367 -2.9577e+001 -1.4513e+002  2.2612e+001 39690 98159,98341,98315
 5.2000e+000 98531 -5.6938e+001 -1.5953e+002  2.2735e+001 39690 98211,98185,98505
 5.2000e+000 98554 -5.7238e+001 -1.5139e+002  2.2750e+001 39690 98211,98505,98289
 5.2000e+000 99109 -5.5929e+001 -1.4625e+002 -9.5124e+000 39072 99132,98867,98789
 5.2000e+000 99086 -5.3840e+001 -1.5125e+002 -1.3757e+001 39072 99132,98789,98763
 5.2000e+000 99063 -8.3958e+001 -2.4191e+002  2.5690e+001 39072 98867,98945,98919
 5.2000e+000 99040 -4.7843e+001 -1.5608e+002 -1.6134e+000 39072 98789,98867,98841
 5.2000e+000 99017 -1.1013e+002 -1.7693e+002  7.5305e+000 39072 98867,98919,98893
 5.2000e+000 98994 -7.7307e+001 -1.4345e+002  3.0781e+001 39072 98789,98841,98815
 5.2000e+000 98971 -7.9512e+001 -1.7192e+002 -1.1296e+001 39072 98737,98945,98763
 5.2000e+000 99158 -5.4464e+001 -1.5265e+002 -1.0459e+001 39072 98945,98867,99132
 5.2000e+000 99181 -5.4058e+001 -1.6145e+002 -1.2202e+001 39072 98945,99132,98763
 5.2000e+000 99510 -4.7270e+001 -1.3543e+002  9.3695e+000 38668 99311,99389,99363
 5.2000e+000 99487 -4.0375e+001 -1.4172e+002 -4.1379e+000 38668 99285,99389,99311
 5.2000e+000 99464 -9.0990e+001 -1.9605e+002  1.7495e+001 38668 99285,99415,99389
 5.2000e+000 99441 -4.2425e+001 -1.4644e+002  1.5348e+001 38668 99311,99363,99337
 5.2000e+000 99758 -5.4150e+001 -2.1847e+002  3.5562e+001 38164 99781,99611,99585
 5.2000e+000 99735 -2.2723e+001 -2.2334e+002  3.9433e+001 38164 99781,99585,99533
 5.2000e+000 99712 -8.1576e+001 -2.0681e+002  2.5615e+001 38164 99611,99663,99637
 5.2000e+000 99689  9.2663e+000 -2.1652e+002 -1.3465e+001 38164 99533,99585,99559
 5.2000e+000 99807 -7.2042e+001 -2.1671e+002  4.4299e+001 38164 99663,99611,99781
 5.2000e+000 99830 -4.8445e+001 -2.2560e+002  4.3183e+001 38164 99663,99781,99533
 5.2000e+000 100232 -6.1942e+001 -1.6389e+002  2.3134e+000 37702 99984,100114,100088
 5.2000e+000 100209 -4.9358e+001 -1.7432e+002  1.7288e+001 37702 99958,100114,99984
 5.2000e+000 100186 -9.1061e+001 -2.0330e+002 -1.2537e+001 37702 100010,100088,100036
 5.2000e+000 100163 -6.1618e+001 -1.6402e+002  3.8063e-001 37702 99984,100088,100010
 5.2000e+000 100140 -5.3466e+001 -1.4889e+002 -4.2219e+001 37702 100036,100088,100062
 5.2000e+000 100640 -1.3392e+002 -1.9154e+002  2.4492e+001 37262 100493,100545,100519
 5.2000e+000 100617 -1.1975e+002 -2.1772e+002  1.1751e+001 37262 100441,100545,100493
 5.2000e+000 100594 -4.8302e+001 -1.6374e+002 -2.8767e+001 37262 100415,100545,100441
 5.2000e+000 100571 -1.3405e+002 -2.3189e+002 -9.5881e+000 37262 100441,100493,100467
 5.2000e+000 101146 -9.5765e+001 -1.6129e+002 -1.5126e+000 36872 100823,100979,100849
 5.2000e+000 101123 -9.2796e+001 -1.4905e+002 -1.4995e+001 36872 100823,101005,100979
 5.2000e+000 101100 -9.7909e+001 -2.3300e+002  3.1639e+001 36872 101169,100901,100849
 5.2000e+000 101077 -7.5381e+001 -1.8564e+002  1.6974e+001 36872 101169,100849,100979
 5.2000e+000 101054 -5.3941e+001 -1.9383e+002 -1.2380e+001 36872 100927,100979,100953
 5.2000e+000 101031 -5.3620e+001 -2.6209e+002  4.4098e+001 36872 100849,100901,100875
 5.2000e+000 101195 -6.7520e+001 -2.4680e+002  2.0589e+000 36872 100927,100901,101169
 5.2000e+000 101218 -5.3750e+001 -2.2169e+002 -9.7915e+000 36872 100927,101169,100979
 5.2000e+000 101773 -1.0770e+002 -1.7323e+002  3.2855e+001 36418 101479,101609,101583
 5.2000e+000 101750 -1.1140e+002 -1.8271e+002  3.2309e+001 36418 101453,101609,101479
 5.2000e+000 101727 -7.4764e+001 -1.8393e+002 -6.3491e-001 36418 101796,101531,101479
 5.2000e+000 101704 -1.0475e+002 -2.0465e+002  1.4417e+001 36418 101796,101479,101583
 5.2000e+000 101681 -6.3729e+001 -1.5843e+002 -4.8096e+000 36418 101479,101531,101505
 5.2000e+000 101658 -2.5636e+000 -1.6218e+002  4.5041e+000 36418 101401,101609,101453
 5.2000e+000 101635 -3.2220e+001 -1.5891e+002  3.5700e+000 36418 101401,101453,101427
 5.2000e+000 101822 -8.1793e+001 -1.6863e+002 -2.9171e+001 36418 101557,101531,101796
 5.2000e+000 101845 -1.1635e+002 -1.7604e+002 -1.5566e+001 36418 101557,101796,101583
 5.2000e+000 102174 -1.1237e+001 -7.9987e+001 -2.2019e+001 35914 101949,102053,101975
 5.2000e+000 102151 -3.7327e+001 -8.2633e+001 -1.7401e+001 35914 101949,102079,102053
 5.2000e+000 102128 -4.1971e+001 -9.4530e+001 -1.1590e+001 35914 101975,102053,102027
 5.2000e+000 102105 -2.7918e+001 -7.1595e+001 -1.7507e+001 35914 101975,102027,102001
 5.2000e+000 102631 -3.6508e+001 -1.8910e+002  5.8767e+000 35574 102383,102513,102487
 5.2000e+000 102608 -2.6373e+001 -1.9704e+002  4.8413e+000 35574 102357,102513,102383
 5.2000e+000 102585 -6.3479e+001 -1.9686e+002  7.3969e+000 35574 102409,102487,102435
 5.2000e+000 102562 -6.5594e+001 -2.0068e+002  5.5163e+000 35574 102383,102487,102409
 5.2000e+000 102539 -6.3325e+001 -1.9925e+002  8.7669e+000 35574 102435,102487,102461
 5.2000e+000 103009 -1.0095e+002 -1.8621e+002 -1.3332e+001 35170 102761,102865,102787
 5.2000e+000 102986 -6.0891e+001 -1.6397e+002  1.7094e+001 35170 102761,102891,102865
 5.2000e+000 102963 -8.8635e+001 -1.8011e+002 -4.6091e+000 35170 102787,102865,102813
 5.2000e+000 102940 -5.0345e+001 -1.5758e+002  2.0135e+001 35170 102735,102891,102761
 5.2000e+000 102917 -9.0601e+001 -1.8758e+002 -1.3001e+001 35170 102813,102865,102839
 5.2000e+000 103257 -1.8338e+001 -1.4158e+002 -2.4457e+001 34659 103280,103058,103032
 5.2000e+000 103234 -2.8428e+001 -1.4941e+002 -1.4090e+001 34659 103280,103032,103162
 5.2000e+000 103211 -5.0726e+001 -1.5127e+002 -1.3182e+001 34659 103084,103162,103110
 5.2000e+000 103188 -6.6564e+001 -1.8556e+002 -9.2566e+000 34659 103110,103162,103136
 5.2000e+000 103306 -3.6105e+001 -1.3203e+002 -2.1198e+001 34659 103084,103058,103280
 5.2000e+000 103329 -4.2507e+001 -1.4024e+002 -9.5370e+000 34659 103084,103280,103162
 5.2000e+000 103837 -1.7956e+001 -2.0833e+002  6.7845e+000 34247 103860,103566,103540
 5.2000e+000 103814 -2.8664e+001 -2.0953e+002  4.5800e-001 34247 103932,103860,103540
 5.2000e+000 103791 -2.1439e+001 -2.3271e+002 -2.3123e+001 34247 103932,103540,103670
 5.2000e+000 103768 -2.2734e+001 -1.9480e+002  4.7801e+000 34247 103566,103618,103592
 5.2000e+000 103745 -8.4850e+001 -1.9597e+002 -3.0000e+001 34247 103540,103696,103670
 5.2000e+000 103722 -1.1247e+002 -2.1799e+002  3.1863e+001 34247 103514,103696,103540
 5.2000e+000 103886 -4.3490e+001 -2.0769e+002 -2.1327e+000 34247 103618,103566,103860
 5.2000e+000 103909 -4.8191e+001 -2.2210e+002  5.7360e+000 34247 103618,103860,103644
 5.2000e+000 103958 -4.9351e+001 -2.6541e+002 -3.8069e+000 34247 103644,103860,103932
 5.2000e+000 103981 -4.2186e+001 -2.8687e+002 -2.8546e+001 34247 103644,103932,103670
 5.2000e+000 104300 -1.0267e+002 -2.1971e+002 -7.5647e+000 33843 104052,104182,104156
 5.2000e+000 104277 -1.3261e+002 -2.0610e+002 -1.8732e+000 33843 104026,104182,104052
 5.2000e+000 104254 -1.0031e+002 -2.4785e+002  5.1300e+000 33843 104078,104156,104130
 5.2000e+000 104231 -1.2025e+002 -2.3689e+002  1.7869e-001 33843 104052,104156,104078
 5.2000e+000 104208 -1.5244e+002 -2.6144e+002  6.5965e+000 33843 104078,104130,104104
 5.2000e+000 104499 -7.0882e+001 -2.2196e+002 -1.8569e+001 33282 104594,104522,104375
 5.2000e+000 104476 -6.1814e+001 -2.1713e+002  7.1576e+000 33282 104522,104323,104427
 5.2000e+000 104453 -4.3238e+001 -2.3701e+002 -1.7004e+001 33282 104594,104375,104349
 5.2000e+000 104548 -7.4124e+001 -1.9348e+002 -9.2826e+000 33282 104401,104375,104522
 5.2000e+000 104571 -5.1423e+001 -1.9059e+002  8.0670e+000 33282 104401,104522,104427
 5.2000e+000 104620 -3.7006e+001 -1.9413e+002 -5.9689e+000 33282 104323,104522,104594
 5.2000e+000 104643 -1.9582e+001 -2.1938e+002 -8.4547e+000 33282 104323,104594,104349
 5.2000e+000 104942 -9.6257e+001 -2.4578e+002  2.9801e+001 32728 104694,104772,104720
 5.2000e+000 104919 -7.3742e+001 -2.2456e+002  1.1100e+001 32728 104694,104824,104772
 5.2000e+000 104896 -1.2531e+002 -2.1944e+002  3.3849e+001 32728 104720,104772,104746
 5.2000e+000 104873 -5.7412e+001 -2.5654e+002  1.3396e+001 32728 104772,104824,104798
 5.2000e+000 104850 -6.1680e+001 -2.2203e+002  1.1139e+001 32728 104668,104824,104694
 5.2000e+000 105373 -7.8067e+001 -2.3663e+002 -1.0858e+001 32274 105396,105102,105076
 5.2000e+000 105350 -8.5651e+001 -2.5900e+002 -3.9854e+000 32274 105396,105076,105206
 5.2000e+000 105327 -1.0978e+002 -2.6530e+002  1.2165e+001 32274 105154,105206,105180
 5.2000e+000 105304 -4.3616e+001 -2.4963e+002 -2.1400e+001 32274 105076,105232,105206
 5.2000e+000 105281 -9.3843e+001 -2.1404e+002 -3.8284e+001 32274 105102,105154,105128
 5.2000e+000 105258 -1.3359e+002 -2.0417e+002 -3.9424e+001 32274 105050,105232,105076
 5.2000e+000 105422 -9.1388e+001 -2.1219e+002 -9.9913e+000 32274 105154,105102,105396
 5.2000e+000 105445 -9.8181e+001 -2.3487e+002 -4.6725e+000 32274 105154,105396,105206
 5.2000e+000 105644 -9.3499e+001 -2.4329e+002 -4.0743e+000 31620 105468,105546,105520
 5.2000e+000 105621 -7.6459e+001 -2.6240e+002 -1.2526e+001 31620 105468,105572,105546
 5.2000e+000 105598 -9.3654e+001 -2.6398e+002  1.3186e+001 31620 105468,105520,105494
 5.2000e+000 105794 -2.0684e+001 -2.0941e+002 -6.7081e+000 31158 105889,105817,105693
 5.2000e+000 105771 -3.5231e+001 -1.8722e+002 -1.3665e+001 31158 105817,105667,105745
 5.2000e+000 105843 -2.8172e+001 -2.5770e+002 -2.6118e+000 31158 105719,105693,105817
 5.2000e+000 105866 -1.4823e+001 -2.2045e+002 -1.1699e+001 31158 105719,105817,105745
 5.2000e+000 105915 -5.3540e+001 -2.2350e+002 -7.0835e+000 31158 105667,105817,105889
 5.2000e+000 106270 -9.2495e+001 -2.1166e+002 -6.0847e-001 30818 106293,106071,106045
 5.2000e+000 106247 -1.0681e+002 -2.4394e+002 -1.2603e+001 30818 106293,106045,106175
 5.2000e+000 106224 -7.3961e+001 -1.9630e+002  1.2448e+001 30818 106123,106175,106149
 5.2000e+000 106201 -9.6128e+001 -2.1690e+002  2.2380e+001 30818 106071,106123,106097
 5.2000e+000 106319 -9.3550e+001 -1.9897e+002  1.1139e+001 30818 106123,106071,106293
 5.2000e+000 106342 -9.5201e+001 -2.1590e+002  1.0245e+000 30818 106123,106293,106175
 5.2000e+000 106492 -8.6912e+001 -1.9488e+002  3.7751e+001 30414 106645,106391,106365
 5.2000e+000 106469 -2.8181e+001 -1.9353e+002  5.8244e+001 30414 106515,106365,106443
 5.2000e+000 106541 -5.3040e+001 -2.0360e+002  4.3319e+001 30414 106645,106365,106515
 5.2000e+000 106671 -3.9700e+001 -2.3042e+002  7.4282e+001 30414 106417,106391,106645
 5.2000e+000 106694  3.6182e+001 -2.1348e+002  6.4366e+001 30414 106417,106645,106515
 5.2000e+000 106942 -4.5453e+001 -2.9800e+002 -1.1746e+000 29910 106965,106795,106769
 5.2000e+000 106919 -3.8815e+001 -2.6809e+002  7.6441e+000 29910 106965,106769,106717
 5.2000e+000 106896 -4.1811e+001 -2.2458e+002 -2.8618e+001 29910 106795,106847,106821
 5.2000e+000 106873 -2.0577e+001 -2.3031e+002  1.4863e+001 29910 106717,106769,106743
 5.2000e+000 106991 -6.2761e+001 -2.6548e+002  3.2345e+000 29910 106847,106795,106965
 5.2000e+000 107014 -4.9476e+001 -2.2572e+002  1.1767e+001 29910 106847,106965,106717
 5.2000e+000 107213 -6.2184e+001 -2.2340e+002  1.3917e+001 29413 107236,107063,107037
 5.2000e+000 107190 -5.7477e+001 -2.6381e+002  2.8866e+001 29413 107236,107037,107141
 5.2000e+000 107167 -7.6247e+001 -1.6081e+002  3.5048e+001 29413 107063,107115,107089
 5.2000e+000 107262 -5.8949e+001 -1.9701e+002  9.3350e+000 29413 107115,107063,107236
 5.2000e+000 107285 -4.8283e+001 -2.2713e+002  2.5684e+001 29413 107115,107236,107141
 5.2000e+000 107486 -2.7147e+001 -2.1494e+002  2.8729e+001 29009 107336,107388,107362
 5.2000e+000 107463 -1.4072e+001 -2.0767e+002  8.4728e+000 29009 107310,107388,107336
 5.2000e+000 107440 -1.7399e+001 -1.9522e+002  8.2808e+000 29009 107310,107414,107388
 5.2000e+000 107736 -9.2446e+001 -2.4705e+002 -8.7244e+000 28491 107537,107615,107563
 5.2000e+000 107713 -7.9830e+001 -2.4121e+002 -6.4771e+000 28491 107537,107641,107615
 5.2000e+000 107690 -5.2404e+001 -2.3136e+002  5.0422e+000 28491 107563,107615,107589
 5.2000e+000 107667 -8.3283e+001 -2.3851e+002 -6.8924e+000 28491 107511,107641,107537
 5.2000e+000 108118 -5.1789e+001 -2.3349e+002  9.1376e+000 27980 108141,107922,107844
 5.2000e+000 108095 -4.1363e+001 -2.4955e+002  8.3310e+000 27980 108141,107844,108000
 5.2000e+000 108072 -5.4362e+001 -2.4353e+002 -1.2922e+001 27980 107844,107922,107870
 5.2000e+000 108049 -5.8730e+001 -2.1083e+002 -6.6993e+000 27980 107870,107922,107896
 5.2000e+000 108026 -8.2796e+001 -2.1965e+002  2.7938e+001 27980 107922,107974,107948
 5.2000e+000 108167 -4.4277e+001 -2.3435e+002  1.2693e+001 27980 107974,107922,108141
 5.2000e+000 108190 -1.6094e+001 -2.3402e+002  1.6705e+001 27980 107974,108141,108000
 5.2000e+000 108745 -2.5482e+001 -1.5211e+002 -4.3781e+000 27376 108840,108768,108477
 5.2000e+000 108722 -4.5201e+001 -1.8680e+002 -3.7775e+001 27376 108768,108373,108581
 5.2000e+000 108699 -4.2892e+001 -1.3273e+002  2.7179e+001 27376 108840,108477,108451
 5.2000e+000 108676 -1.0912e+002 -1.6129e+002 -7.4103e+000 27376 108373,108451,108399
 5.2000e+000 108653 -4.1842e+001 -1.8717e+002  2.6846e+001 27376 108503,108581,108529
 5.2000e+000 108630 -4.8466e+001 -1.8483e+002  2.8430e+001 27376 108529,108581,108555
 5.2000e+000 108607 -1.2357e+002 -1.7263e+002  1.3334e+001 27376 108399,108451,108425
 5.2000e+000 108794 -4.2094e+001 -2.0479e+002  4.2638e-001 27376 108503,108477,108768
 5.2000e+000 108817 -6.2293e+000 -1.8699e+002 -7.0102e+000 27376 108503,108768,108581
 5.2000e+000 108866 -8.9708e+001 -1.8802e+002 -1.8550e+001 27376 108373,108768,108840
 5.2000e+000 108889 -8.6666e+001 -1.6175e+002  1.4324e+001 27376 108373,108840,108451
 5.2000e+000 109186 -9.0561e+001 -2.4303e+002  2.5814e+001 26722 109209,108938,108912
 5.2000e+000 109163 -8.4108e+001 -2.2724e+002  2.3582e+001 26722 109281,109209,108912
 5.2000e+000 109140 -8.1133e+001 -2.2113e+002  2.2368e+001 26722 109281,108912,109042
 5.2000e+000 109117 -7.3703e+001 -2.5805e+002  1.1574e+001 26722 108938,108990,108964
 5.2000e+000 109094 -1.1585e+002 -2.0130e+002  1.4868e+001 26722 108912,109068,109042
 5.2000e+000 109235 -7.5667e+001 -2.3426e+002  2.1910e+001 26722 108990,108938,109209
 5.2000e+000 109258 -8.1545e+001 -2.5050e+002  1.9469e+001 26722 108990,109209,109016
 5.2000e+000 109307 -7.4876e+001 -2.3665e+002  1.2361e+001 26722 109016,109209,109281
 5.2000e+000 109330 -6.9270e+001 -2.2626e+002  9.9050e+000 26722 109016,109281,109042
 5.2000e+000 109732 -9.4135e+001 -2.0085e+002 -4.6413e+000 26310 109458,109588,109484
 5.2000e+000 109709 -8.8799e+001 -2.2758e+002 -2.3597e+001 26310 109458,109614,109588
 5.2000e+000 109686 -1.3688e+002 -2.3296e+002  3.3492e+001 26310 109510,109562,109536
 5.2000e+000 109663 -1.3734e+002 -2.2040e+002  1.3244e+001 26310 109484,109562,109510
 5.2000e+000 109640 -9.8834e+001 -2.0437e+002 -1.6988e+000 26310 109484,109588,109562
 5.2000e+000 110159 -5.7040e+001 -2.0193e+002 -6.2186e+000 25642 110182,109940,109914
 5.2000e+000 110136 -5.1208e+001 -2.3313e+002  2.9180e+001 25642 110182,109914,109888
 5.2000e+000 110113 -7.2265e+001 -2.4950e+002 -3.3160e+001 25642 109966,110018,109992
 5.2000e+000 110090 -8.0307e+001 -2.4133e+002  1.8570e+001 25642 110254,109966,109940
 5.2000e+000 110067 -1.0718e+002 -2.2855e+002  1.3507e+001 25642 109862,110018,109888
 5.2000e+000 110044 -1.0105e+002 -1.9023e+002  3.2488e+001 25642 109836,110018,109862
 5.2000e+000 110208 -7.8620e+001 -2.2114e+002  1.3811e+001 25642 110254,109940,110182
 5.2000e+000 110231 -8.6120e+001 -2.3607e+002  3.1783e+001 25642 110018,110182,109888
 5.2000e+000 110280 -6.9529e+001 -2.6677e+002  1.4961e+001 25642 110018,109966,110254
 5.2000e+000 110303 -7.2193e+001 -2.5181e+002  1.0970e+001 25642 110018,110254,110182
 5.2000e+000 110632 -1.0537e+002 -2.0962e+002 -1.1935e+001 25188 110407,110485,110433
 5.2000e+000 110609 -1.2250e+002 -2.1116e+002 -7.2293e+000 25188 110407,110537,110485
 5.2000e+000 110586 -1.1842e+002 -2.1735e+002 -4.0214e+001 25188 110433,110485,110459
 5.2000e+000 110563 -1.1596e+002 -2.2760e+002  2.2538e+001 25188 110485,110537,110511
 5.2000e+000 110831 -1.8529e+001 -2.0005e+002  6.1123e+000 24726 110854,110707,110655
 5.2000e+000 110808 -8.0616e+000 -2.1604e+002  2.2297e+001 24726 110854,110655,110759
 5.2000e+000 110785 -2.6555e+001 -2.0667e+002  1.0959e+001 24726 110655,110707,110681
 5.2000e+000 110880 -1.0402e+001 -1.8471e+002  9.1218e+000 24726 110733,110707,110854
 5.2000e+000 110903  3.8035e+000 -1.9291e+002  2.6472e+001 24726 110733,110854,110759
 5.2000e+000 111234 -5.7564e+000 -1.4632e+002 -3.9650e+000 24222 111257,111087,111035
 5.2000e+000 111211  1.8775e+001 -1.3527e+002  1.6505e+001 24222 111257,111035,111009
 5.2000e+000 111188 -2.3852e+001 -7.6094e+001 -3.3220e+001 24222 111035,111087,111061
 5.2000e+000 111165 -2.3820e+001 -1.2024e+002  4.3108e+000 24222 111087,111139,111113
 5.2000e+000 111283 -2.1138e+001 -1.2088e+002  7.3131e+000 24222 111139,111087,111257
 5.2000e+000 111306 -1.0501e+001 -1.0291e+002  2.0478e+001 24222 111139,111257,111009
 5.2000e+000 111625 -2.6903e+001 -2.0109e+002 -1.1323e+001 23732 111648,111481,111455
 5.2000e+000 111602 -2.7424e+001 -2.0246e+002 -1.1159e+001 23732 111648,111455,111377
 5.2000e+000 111579  3.1208e+001 -9.8947e+001  2.2069e+001 23732 111377,111429,111403
 5.2000e+000 111556 -8.9878e+000 -2.0277e+002 -5.7375e+000 23732 111377,111455,111429
 5.2000e+000 111533 -1.8825e+001 -1.8292e+002 -4.4157e+000 23732 111351,111507,111377
 5.2000e+000 111674 -2.7349e+001 -1.9882e+002 -9.7418e+000 23732 111507,111481,111648
 5.2000e+000 111697 -2.8554e+001 -2.0162e+002 -9.6503e+000 23732 111507,111648,111377
 5.2000e+000 112156 -5.6078e+001 -2.3968e+002  1.8263e+001 23278 112179,111908,111882
 5.2000e+000 112133 -5.2296e+001 -2.2143e+002  1.0012e+001 23278 112179,111882,112012
 5.2000e+000 112110 -1.6914e+001 -2.5972e+002  1.1715e+000 23278 111908,111960,111934
 5.2000e+000 112087 -2.1857e+001 -1.9463e+002 -2.3453e+000 23278 111882,112038,112012
 5.2000e+000 112064 -4.6969e+001 -1.9987e+002 -3.2924e+000 23278 111960,112012,111986
 5.2000e+000 112205 -5.3332e+001 -2.3099e+002  3.2308e+000 23278 111960,111908,112179
 5.2000e+000 112228 -4.4358e+001 -2.1044e+002 -6.1927e+000 23278 111960,112179,112012
 5.2000e+000 112685 -1.4692e+002 -3.2930e+002 -3.1399e+001 22938 112489,112567,112541
 5.2000e+000 112662 -1.2662e+002 -2.8383e+002 -2.7534e+001 22938 112437,112567,112489
 5.2000e+000 112639 -8.5448e+001 -2.4661e+002 -3.4044e+000 22938 112489,112541,112515
 5.2000e+000 112616 -1.4348e+002 -2.7253e+002 -2.4697e+001 22938 112411,112567,112437
 5.2000e+000 112593 -1.1298e+002 -3.5795e+002 -6.6489e+000 22938 112437,112489,112463
 5.2000e+000 113191 -1.0369e+001 -2.3718e+002 -2.9096e+001 22534 113214,112998,112946
 5.2000e+000 113168 -4.4037e+001 -2.0941e+002 -1.4992e+001 22534 113286,113214,112946
 5.2000e+000 113145 -3.3565e+001 -2.0963e+002 -1.2710e+001 22534 113286,112946,112920
 5.2000e+000 113122 -9.4746e+001 -1.9287e+002 -4.1985e+001 22534 113358,113024,112998
 5.2000e+000 113099 -6.0422e+001 -2.0278e+002 -7.8918e+000 22534 112868,113050,112894
 5.2000e+000 113076 -6.8748e+001 -3.4671e+002 -5.6909e+001 22534 112946,112998,112972
 5.2000e+000 113240 -7.0097e+001 -2.4310e+002 -4.4448e+001 22534 113358,112998,113214
 5.2000e+000 113263 -5.7792e+001 -2.2039e+002 -9.7463e+000 22534 113050,113214,112894
 5.2000e+000 113312 -3.0147e+001 -2.0827e+002 -1.2049e+001 22534 112894,113214,113286
 5.2000e+000 113335 -1.8852e+001 -2.0879e+002 -1.1739e+001 22534 112894,113286,112920
 5.2000e+000 113384 -6.7291e+001 -1.4664e+002 -3.0526e+001 22534 113050,113024,113358
 5.2000e+000 113407 -3.1852e+001 -1.8829e+002 -2.7497e+001 22534 113050,113358,113214
 5.2000e+000 113785 -1.0560e+002 -2.7807e+002  6.3285e+000 21978 113808,113615,113511
 5.2000e+000 113762 -8.4517e+001 -2.8092e+002  1.8433e+001 21978 113808,113511,113667
 5.2000e+000 113739 -6.2396e+001 -2.3822e+002 -1.1176e+001 21978 113511,113615,113537
 5.2000e+000 113716  3.0742e+001 -2.1257e+002 -2.4066e+001 21978 113537,113615,113589
 5.2000e+000 113693 -2.9027e+001 -3.0783e+002  4.2537e+000 21978 113537,113589,113563
 5.2000e+000 113834 -1.0956e+002 -2.7854e+002  3.3245e+001 21978 113641,113615,113808
 5.2000e+000 113857 -5.4389e+001 -2.5713e+002  4.7698e+001 21978 113641,113808,113667
 5.2000e+000 114284 -7.6881e+001 -2.3273e+002  5.3001e+000 21517 114013,114117,114039
 5.2000e+000 114261 -8.7754e+001 -2.3181e+002  1.8648e+001 21517 113961,114117,114013
 5.2000e+000 114238 -8.4805e+001 -2.3501e+002  1.9061e+001 21517 113961,114013,113987
 5.2000e+000 114215 -1.2770e+002 -2.6786e+002 -1.8999e+001 21517 114039,114117,114091
 5.2000e+000 114192 -8.9431e+001 -1.9606e+002  2.2431e+001 21517 113961,114143,114117
 5.2000e+000 114169 -1.9389e+001 -2.3025e+002 -2.0702e+001 21517 114039,114091,114065
 5.2000e+000 114581 -4.0096e+001 -2.7185e+002  3.8483e+000 21027 114359,114463,114437
 5.2000e+000 114558 -1.6969e+001 -2.4542e+002  3.3442e+001 21027 114333,114463,114359
 5.2000e+000 114535 -1.2034e+001 -2.4473e+002 -7.2011e+000 21027 114359,114437,114385
 5.2000e+000 114512 -9.4892e+000 -2.4354e+002  2.9457e+001 21027 114307,114463,114333
 5.2000e+000 114489  4.7459e+001 -2.2847e+002 -1.1401e+001 21027 114385,114437,114411
 5.2000e+000 114912 -1.0511e+002 -2.3850e+002  3.7784e+000 20623 114713,114791,114765
 5.2000e+000 114889 -7.3708e+001 -2.2564e+002 -1.6777e+001 20623 114687,114791,114713
 5.2000e+000 114866 -4.9132e+001 -2.4899e+002 -1.9601e+001 20623 114687,114817,114791
 5.2000e+000 114843 -1.5627e+002 -2.9029e+002  2.5557e+001 20623 114713,114765,114739
 5.2000e+000 115290 -2.8172e+001 -2.1520e+002  1.1555e+001 20375 115313,115146,115094
 5.2000e+000 115267 -4.7009e+001 -2.0508e+002  2.1787e+001 20375 115313,115094,115042
 5.2000e+000 115244 -6.1389e+001 -1.9695e+002  6.6616e+000 20375 115385,115016,115172
 5.2000e+000 115221 -2.0586e+001 -1.9204e+002  1.7583e+001 20375 115042,115094,115068
 5.2000e+000 115198 -4.4182e+001 -2.5655e+002  1.3787e+001 20375 115094,115146,115120
 5.2000e+000 115339 -6.7181e+001 -2.5510e+002 -8.4498e+000 20375 115172,115146,115313
 5.2000e+000 115362 -3.6189e+001 -2.0349e+002  7.9813e+000 20375 115385,115172,115313
 5.2000e+000 115411 -7.5444e+001 -2.0433e+002  9.3543e+000 20375 115042,115016,115385
 5.2000e+000 115434 -6.3285e+001 -2.1949e+002  1.4664e+001 20375 115042,115385,115313
 5.2000e+000 115891 -1.1186e+002 -2.2003e+002  2.7035e+001 19971 115617,115747,115643
 5.2000e+000 115868 -9.6799e+001 -1.8398e+002  2.6632e+001 19971 115617,115773,115747
 5.2000e+000 115845 -7.1794e+001 -3.3550e+002  4.7015e+000 19971 115643,115721,115695
 5.2000e+000 115822 -3.1170e+000 -1.6752e+002 -8.1565e-001 19971 115643,115747,115721
 5.2000e+000 115799 -6.0342e+001 -4.0929e+002 -3.1251e+001 19971 115643,115695,115669
 5.2000e+000 115992 -1.6219e+002 -4.1717e+002 -7.2155e+001 19659 115914,115966,115940
 5.2000e+000 116142 -2.5710e+001 -9.4672e+001  2.5475e+000 18997 116041,116093,116067
 5.2000e+000 116119 -5.1800e+001 -1.6192e+002  9.9734e+000 18997 116015,116093,116041
 5.2000e+000 116343 -4.3853e+001 -2.5058e+002 -7.1207e+000 18707 116193,116245,116219
 5.2000e+000 116320 -9.7324e+001 -2.7337e+002 -1.0939e+001 18707 116193,116271,116245
 5.2000e+000 116297 -8.9070e+001 -2.4533e+002 -1.8571e+001 18707 116167,116271,116193
 5.2000e+000 116747 -4.0012e+001 -2.2626e+002 -4.2003e+000 18301 116525,116629,116551
 5.2000e+000 116724 -2.2391e+001 -1.9206e+002  5.4838e+000 18301 116473,116629,116525
 5.2000e+000 116701 -1.4894e+001 -1.8758e+002 -1.0158e+001 18301 116473,116525,116499
 5.2000e+000 116678 -3.3764e+001 -2.3532e+002 -3.0250e+000 18301 116551,116603,116577
 5.2000e+000 116655 -4.7450e+001 -2.4373e+002 -6.9088e+000 18301 116551,116629,116603
 5.2000e+000 117147 -1.1126e+002 -2.5800e+002  5.3411e-001 17747 116899,117029,116925
 5.2000e+000 117124 -5.8897e+001 -1.8713e+002  2.7817e+001 17747 116873,117029,116899
 5.2000e+000 117101 -1.0970e+002 -2.5513e+002  1.1712e+000 17747 116925,117029,116951
 5.2000e+000 117078 -9.4553e+001 -2.1875e+002  1.1048e-001 17747 116951,117029,117003
 5.2000e+000 117055 -1.2847e+002 -2.9284e+002 -1.8902e+001 17747 116951,117003,116977
 5.2000e+000 117368  1.6360e+001 -2.4999e+002  5.8712e+000 17293 117244,117296,117270
 5.2000e+000 117345 -1.7211e+001 -2.5867e+002 -3.3653e+000 17293 117192,117296,117244
 5.2000e+000 117322 -4.4401e+001 -2.4251e+002 -2.6945e+000 17293 117192,117244,117218
 5.2000e+000 117699 -2.4113e+001 -2.0270e+002 -2.3232e+001 16896 117526,117604,117552
 5.2000e+000 117676 -1.3272e+002 -3.0991e+002  1.9986e+001 16896 117500,117604,117526
 5.2000e+000 117653 -1.4117e+002 -2.4491e+002 -1.2155e+001 16896 117552,117604,117578
 5.2000e+000 117630 -1.2300e+002 -4.0192e+002  3.3356e+001 16896 117474,117604,117500
 5.2000e+000 117849 -2.8235e+002 -5.4629e+002 -2.0764e+001 16534 117722,117774,117748
 5.2000e+000 117826 -2.2218e+002 -6.6335e+002 -9.0063e+001 16534 117722,117800,117774
 5.2000e+000 118070 -3.4756e-001 -2.5695e+002  3.2409e+001 16194 117946,117998,117972
 5.2000e+000 118047 -4.1453e+001 -2.9027e+002  1.2878e+001 16194 117894,117998,117946
 5.2000e+000 118024 -1.4755e+002 -2.9765e+002 -1.7667e-001 16194 117894,117946,117920
 5.2000e+000 118173 -1.5934e+001 -2.4049e+002  0.0000e+000 15968 118095,118147,118121
 5.2000e+000 118276 -7.2274e+001 -2.6852e+002  1.2287e+000 15433 118299,118198,118250
 5.2000e+000 118325 -7.2959e+001 -2.7012e+002  1.2445e+000 15433 118224,118198,118299
 5.2000e+000 118450 -1.2833e+002 -2.8427e+002  2.6259e+001 421 118372,118424,118398
 5.3000e+000 69891 -5.3319e+001 -2.7799e+002  9.9210e+000 68988 69447,69681,69629
 5.3000e+000 69868  1.4629e+001 -2.4965e+002  8.5559e+000 68988 69421,69681,69447
 5.3000e+000 69845 -6.7624e+000 -1.4159e+002  1.2799e+000 68988 69447,69629,69577
 5.3000e+000 69822 -8.6392e+001 -2.8835e+002 -3.1289e+001 68988 69447,69577,69473
 5.3000e+000 69799 -1.5761e+001 -3.3487e+002  5.5951e+001 68988 69629,69681,69655
 5.3000e+000 69776 -9.3181e+001 -1.7893e+002  4.4923e+000 68988 69577,69629,69603
 5.3000e+000 69753 -6.9401e+001 -2.5995e+002 -3.9948e+001 68988 69473,69577,69551
 5.3000e+000 69730 -9.5527e+001 -5.0610e+002 -4.8901e+001 68988 69473,69551,69525
 5.3000e+000 69707 -1.5481e+002 -3.3793e+002  6.2511e-001 68988 69473,69525,69499
 5.3000e+000 69992 -1.7144e+002 -3.0746e+002 -4.2516e+001 68676 69914,69966,69940
 5.3000e+000 70392 -1.2766e+002 -2.5675e+002  2.0708e+001 68478 70118,70248,70144
 5.3000e+000 70369 -5.3640e+000 -2.6515e+002  5.4752e+001 68478 70118,70274,70248
 5.3000e+000 70346 -7.7619e+001 -1.9352e+002 -3.3985e-001 68478 70144,70222,70196
 5.3000e+000 70323 -6.5010e+001 -1.6079e+002 -8.1222e+000 68478 70144,70248,70222
 5.3000e+000 70300 -8.3017e+001 -2.1085e+002 -3.1197e+000 68478 70144,70196,70170
 5.3000e+000 70841  3.3531e+001 -1.7935e+002 -4.6504e+001 68280 70570,70622,70596
 5.3000e+000 70818 -9.2439e+001 -2.0247e+002 -1.1063e+001 68280 70544,70622,70570
 5.3000e+000 70795 -6.9890e+001 -1.5185e+002 -6.5225e+000 68280 70544,70674,70622
 5.3000e+000 70772 -6.0565e+001 -1.3613e+002  2.3394e+000 68280 70622,70674,70648
 5.3000e+000 70749 -9.7540e+001 -2.2618e+002  1.6691e+001 68280 70518,70674,70544
 5.3000e+000 70726  6.4892e+001 -2.3886e+002  6.4006e+001 68280 70518,70700,70674
 5.3000e+000 70991 -1.0218e+001 -9.2704e+002  2.8018e+001 67968 70864,70916,70890
 5.3000e+000 70968 -2.4676e+002 -9.2127e+002  1.0753e+002 67968 70864,70942,70916
 5.3000e+000 71141 -4.2136e+002 -8.0653e+002 -3.8317e+001 67770 71040,71092,71066
 5.3000e+000 71118 -3.6886e+002 -9.7057e+002  4.2632e+001 67770 71014,71092,71040
 5.3000e+000 71651 -6.4400e+001 -1.8387e+002 -2.8487e+001 67366 71746,71674,71458
 5.3000e+000 71628 -4.3489e+001 -1.4846e+002 -3.1718e+001 67366 71674,71354,71510
 5.3000e+000 71605 -5.9364e+001 -2.0356e+002 -2.6165e+001 67366 71746,71458,71432
 5.3000e+000 71582 -9.2234e+001 -2.0827e+002  1.1236e+001 67366 71354,71432,71380
 5.3000e+000 71559 -9.4937e+001 -1.5404e+002 -1.4832e+001 67366 71380,71432,71406
 5.3000e+000 71536 -4.6273e+001 -6.3777e+001 -2.2351e+000 67366 71328,71510,71354
 5.3000e+000 71700 -6.9818e+001 -1.6605e+002 -1.3347e+001 67366 71484,71458,71674
 5.3000e+000 71723 -5.1116e+001 -1.5747e+002 -1.0842e+001 67366 71484,71674,71510
 5.3000e+000 71772 -5.8400e+001 -1.6050e+002 -2.5114e+001 67366 71354,71674,71746
 5.3000e+000 71795 -5.1891e+001 -1.7741e+002 -2.5336e+001 67366 71354,71746,71432
 5.3000e+000 71896 -1.5474e+002 -3.3423e+002  0.0000e+000 67146 71818,71870,71844
 5.3000e+000 71997 -1.8954e+002 -3.0794e+002  6.2233e+001 66948 71919,71971,71945
 5.3000e+000 72149 -2.3736e+001 -2.1355e+002 -2.4469e+001 66700 72172,72074,72048
 5.3000e+000 72126 -8.3218e+001 -2.4052e+002 -9.6003e+000 66700 72172,72048,72022
 5.3000e+000 72198 -1.2474e+002 -2.6088e+002  1.5496e+001 66700 72244,72172,72100
 5.3000e+000 72221 -1.1194e+002 -2.3970e+002 -1.3555e+001 66700 72100,72172,72022
 5.3000e+000 72270 -7.2108e+001 -1.4507e+002 -1.6552e+001 66700 72074,72172,72244
 5.3000e+000 72623 -8.8946e+001 -2.2628e+002  5.1084e+000 66502 72424,72502,72450
 5.3000e+000 72600 -7.6544e+001 -1.9325e+002  3.8309e+000 66502 72398,72502,72424
 5.3000e+000 72577 -6.2520e+001 -2.1668e+002 -3.2756e+000 66502 72398,72528,72502
 5.3000e+000 72554 -9.0763e+001 -2.0448e+002 -1.1071e+000 66502 72450,72502,72476
 5.3000e+000 72920 -1.3670e+002 -2.7858e+002  6.9308e+000 65941 72672,72776,72750
 5.3000e+000 72897 -1.3363e+002 -2.3980e+002  2.6444e+001 65941 72646,72776,72672
 5.3000e+000 72874 -1.2058e+002 -2.7412e+002  9.1533e+000 65941 72672,72750,72724
 5.3000e+000 72851 -1.2147e+002 -2.1963e+002  1.9672e+001 65941 72672,72724,72698
 5.3000e+000 72828 -1.0259e+002 -2.3710e+002  2.3719e+001 65941 72646,72802,72776
 5.3000e+000 73241 -4.4416e+001 -1.9818e+002  1.0457e+001 65743 73264,73071,73045
 5.3000e+000 73218 -8.9656e+001 -2.2201e+002  1.9498e+001 65743 73480,73264,73045
 5.3000e+000 73195 -7.3042e+001 -1.9863e+002 -2.2683e+000 65743 73336,72967,73097
 5.3000e+000 73172 -1.1798e+002 -1.8320e+002 -1.8023e+001 65743 73408,72993,72967
 5.3000e+000 73149 -6.7530e+001 -1.9948e+002 -2.6535e+000 65743 72967,73123,73097
 5.3000e+000 73290 -5.9126e+001 -2.0419e+002  2.6976e+000 65743 73097,73071,73264
 5.3000e+000 73313 -6.5133e+001 -1.9064e+002  6.4089e+000 65743 73336,73097,73264
 5.3000e+000 73362 -1.0256e+002 -2.0393e+002 -1.1818e+001 65743 73408,72967,73336
 5.3000e+000 73385 -5.5129e+001 -1.8765e+002 -2.5347e-001 65743 73019,73336,73264
 5.3000e+000 73434 -9.2297e+001 -1.4358e+002  9.7469e+000 65743 73019,72993,73408
 5.3000e+000 73457 -5.7292e+001 -1.7171e+002  7.1831e+000 65743 73019,73408,73336
 5.3000e+000 73506 -4.2288e+001 -1.3967e+002  3.2129e-001 65743 73019,73264,73480
 5.3000e+000 73989 -1.4076e+001 -1.6237e+002  1.8804e+001 65453 73793,73845,73819
 5.3000e+000 73966 -8.8246e+001 -1.8185e+002  2.1749e+001 65453 73741,73845,73793
 5.3000e+000 73943 -2.7052e+001 -1.4814e+002  8.6573e+000 65453 73715,73845,73741
 5.3000e+000 73920 -7.0654e+001 -1.9566e+002  3.6704e+001 65453 73741,73793,73767
 5.3000e+000 73897 -1.2336e-001 -9.3846e+001 -1.9882e-001 65453 73715,73871,73845
 5.3000e+000 74357 -4.8069e+001 -1.9059e+002 -5.2706e+001 65141 74380,74138,74086
 5.3000e+000 74334 -8.7713e+001 -2.5473e+002 -3.4723e+001 65141 74380,74086,74060
 5.3000e+000 74311 -9.9070e+001 -2.4849e+002 -1.0124e+001 65141 74138,74190,74164
 5.3000e+000 74288 -8.0785e+001 -2.7787e+002 -1.1755e+001 65141 74060,74216,74190
 5.3000e+000 74265 -8.4997e+001 -2.9211e+002  3.8248e+000 65141 74034,74216,74060
 5.3000e+000 74242 -5.6960e+001 -1.3715e+002 -2.8301e+001 65141 74086,74138,74112
 5.3000e+000 74406 -7.3780e+001 -2.4793e+002 -2.1696e+001 65141 74190,74138,74380
 5.3000e+000 74429 -8.5788e+001 -2.6988e+002 -9.8187e+000 65141 74190,74380,74060
 5.3000e+000 74937 -1.0283e+002 -2.0678e+002 -4.8341e+001 64737 74614,74666,74640
 5.3000e+000 74914 -1.2730e+002 -2.4689e+002 -3.5802e+001 64737 74614,74796,74666
 5.3000e+000 74891 -9.1515e+001 -1.7001e+002 -4.9649e+000 64737 74960,74718,74666
 5.3000e+000 74868 -8.3021e+001 -1.8782e+002 -2.1416e+001 64737 74960,74666,74770
 5.3000e+000 74845 -8.7054e+001 -1.5733e+002 -2.3555e+001 64737 74666,74796,74770
 5.3000e+000 74822 -8.8304e+001 -1.8443e+002  4.2142e+000 64737 74666,74718,74692
 5.3000e+000 74986 -9.6552e+001 -1.8829e+002 -7.1186e+000 64737 74744,74718,74960
 5.3000e+000 75009 -9.4335e+001 -2.1564e+002 -2.4411e+001 64737 74744,74960,74770
 5.3000e+000 75306 -4.9396e+001 -1.7896e+002  2.7344e+001 64133 75329,75110,75084
 5.3000e+000 75283 -6.3924e+001 -2.1306e+002  7.9715e+000 64133 75401,75329,75084
 5.3000e+000 75260 -6.2149e+001 -2.1858e+002  9.7547e+000 64133 75401,75084,75058
 5.3000e+000 75237 -6.2809e+001 -2.5536e+002  3.3383e+001 64133 75473,75136,75110
 5.3000e+000 75214 -6.2420e+001 -1.9830e+002  2.3326e+000 64133 75032,75188,75162
 5.3000e+000 75355 -7.3684e+001 -2.3616e+002  2.5568e+001 64133 75473,75110,75329
 5.3000e+000 75378 -5.5539e+001 -2.0388e+002  2.6435e+000 64133 75162,75329,75032
 5.3000e+000 75427 -5.2514e+001 -1.9638e+002  1.4314e+000 64133 75032,75329,75401
 5.3000e+000 75450 -9.9373e+001 -2.4197e+002  2.5393e+001 64133 75545,75401,75058
 5.3000e+000 75499 -5.3951e+001 -2.3128e+002  1.0968e+001 64133 75162,75136,75473
 5.3000e+000 75522 -6.3538e+001 -1.9935e+002  8.9032e+000 64133 75162,75473,75329
 5.3000e+000 75571 -5.1091e+001 -1.3652e+002  6.7569e+000 64133 75032,75401,75545
 5.3000e+000 75851 -8.5472e+001 -1.9573e+002  4.9057e+000 63843 75874,75753,75727
 5.3000e+000 75828 -7.4291e+001 -1.9086e+002 -8.6759e+000 63843 75946,75874,75727
 5.3000e+000 75805 -8.2763e+001 -2.0032e+002 -4.4769e+000 63843 76018,75946,75727
 5.3000e+000 75900 -6.8700e+001 -1.8867e+002 -6.7163e+000 63843 75779,75753,75874
 5.3000e+000 75923 -7.0722e+001 -1.6139e+002 -2.1514e+001 63843 75779,75874,75675
 5.3000e+000 75972 -8.3074e+001 -1.8350e+002 -7.4812e+000 63843 75675,75874,75946
 5.3000e+000 75995 -7.7590e+001 -1.8907e+002 -1.1934e+001 63843 75675,75946,75701
 5.3000e+000 76044 -8.3799e+001 -1.9515e+002 -1.5090e+001 63843 75701,75946,76018
 5.3000e+000 76454  1.2565e+001 -3.6301e+001 -2.1421e+001 63439 76477,76255,76229
 5.3000e+000 76431 -1.8678e+001 -8.8885e+001 -7.3563e-001 63439 76477,76229,76359
 5.3000e+000 76408 -2.5227e+001 -6.8148e+001  3.9412e+001 63439 76307,76359,76333
 5.3000e+000 76385 -1.6541e+001 -9.3693e+001  4.9741e+000 63439 76255,76307,76281
 5.3000e+000 76503 -2.0087e+001 -7.7804e+001  9.8696e+000 63439 76307,76255,76477
 5.3000e+000 76526 -1.8672e+001 -9.8256e+001  2.4853e+001 63439 76307,76477,76359
 5.3000e+000 76926 -4.5085e+001 -1.3487e+002 -1.2002e+000 63049 76704,76782,76756
 5.3000e+000 76903 -6.2874e+001 -1.3941e+002 -1.2964e+001 63049 76704,76808,76782
 5.3000e+000 76880 -4.5041e+001 -1.5257e+002  2.3858e+000 63049 76704,76756,76730
 5.3000e+000 76857 -3.7681e+001 -8.9642e+001  6.5199e+000 63049 76678,76808,76704
 5.3000e+000 76834 -1.6782e+001 -2.0665e+001 -1.9917e+001 63049 76652,76808,76678
 5.3000e+000 77076 -2.1724e+001 -2.3086e+002 -1.7007e+000 62737 76975,77027,77001
 5.3000e+000 77053 -1.8781e+001 -2.5757e+002 -1.5992e+001 62737 76949,77027,76975
 5.3000e+000 77324 -9.5415e+001 -2.2445e+002 -2.6729e+000 62277 77347,77177,77125
 5.3000e+000 77301 -9.5758e+001 -2.1816e+002 -1.2800e+001 62277 77347,77125,77229
 5.3000e+000 77278 -9.2836e+001 -2.2646e+002 -1.8074e+001 62277 77099,77229,77125
 5.3000e+000 77255 -1.0148e+002 -2.6719e+002  2.5990e+000 62277 77125,77177,77151
 5.3000e+000 77373 -1.0103e+002 -2.4323e+002  3.4435e+000 62277 77203,77177,77347
 5.3000e+000 77396 -9.1320e+001 -2.2695e+002 -8.2855e+000 62277 77203,77347,77229
 5.3000e+000 77857 -5.3162e+001 -2.8602e+002  3.3013e+000 61758 77635,77739,77661
 5.3000e+000 77834 -7.7147e+001 -2.7746e+002 -9.8423e+000 61758 77583,77739,77635
 5.3000e+000 77811 -8.8501e+001 -3.4838e+002 -3.3472e+001 61758 77583,77635,77609
 5.3000e+000 77788 -7.1185e+001 -2.7306e+002  2.2145e+001 61758 77661,77713,77687
 5.3000e+000 77765 -7.6396e+001 -3.1262e+002  2.0895e+001 61758 77661,77739,77713
 5.3000e+000 78491 -8.0496e+001 -1.5407e+002  8.6640e+000 61418 78171,78301,78249
 5.3000e+000 78468 -6.3240e+001 -1.2758e+002  1.9293e+001 61418 78145,78301,78171
 5.3000e+000 78445 -6.0374e+001 -1.3693e+002 -6.0641e+000 61418 78171,78249,78223
 5.3000e+000 78422 -6.1475e+001 -1.2639e+002  6.8160e+000 61418 78145,78327,78301
 5.3000e+000 78399 -8.4580e+001 -1.7568e+002 -1.4810e+000 61418 78249,78301,78275
 5.3000e+000 78376 -3.5306e+001 -1.4900e+002 -1.0181e+001 61418 78171,78223,78197
 5.3000e+000 78353 -7.3380e+001 -1.6760e+002 -4.2677e+000 61418 78119,78327,78145
 5.3000e+000 78690 -7.4786e+001 -1.7642e+002 -3.8634e-001 61014 78713,78566,78540
 5.3000e+000 78667 -5.3310e+001 -1.8196e+002  2.4447e+000 61014 78713,78540,78618
 5.3000e+000 78644 -8.6082e+001 -2.0600e+002 -1.9293e+001 61014 78514,78618,78540
 5.3000e+000 78739 -4.1610e+001 -1.7219e+002  1.7869e+001 61014 78592,78566,78713
 5.3000e+000 78762 -5.3463e+001 -1.8950e+002  2.2736e+000 61014 78785,78713,78618
 5.3000e+000 78811 -1.6705e+001 -1.7552e+002 -2.9194e+000 61014 78592,78713,78785
 5.3000e+000 79398 -3.5323e+001 -1.5902e+002 -1.5175e+001 60624 79101,79179,79153
 5.3000e+000 79375 -4.5921e+001 -1.7747e+002 -7.3622e+000 60624 79101,79231,79179
 5.3000e+000 79352 -3.5606e+001 -1.7622e+002 -1.1343e+001 60624 79075,79231,79101
 5.3000e+000 79329 -1.1634e+001 -2.0881e+002  2.1959e+001 60624 79075,79257,79231
 5.3000e+000 79306 -3.3183e+001 -1.3379e+002 -2.4310e+001 60624 79179,79231,79205
 5.3000e+000 79283 -2.7784e+001 -1.4221e+002 -9.8043e+000 60624 79101,79153,79127
 5.3000e+000 79776 -9.3697e+001 -2.4137e+002  1.9343e+001 60070 79528,79658,79606
 5.3000e+000 79753 -8.5718e+001 -1.9595e+002 -5.3339e-001 60070 79502,79658,79528
 5.3000e+000 79730 -1.1439e+002 -2.3125e+002  3.0598e+001 60070 79528,79606,79580
 5.3000e+000 79707 -3.8339e+001 -2.1266e+002  4.2394e+000 60070 79606,79658,79632
 5.3000e+000 79684 -9.3449e+000 -1.4227e+002 -3.6240e+001 60070 79528,79580,79554
 5.3000e+000 80105 -6.7623e+001 -1.8736e+002  2.2558e+001 59758 80128,79958,79906
 5.3000e+000 80082 -6.9189e+001 -1.7749e+002  1.7472e+001 59758 80128,79906,80010
 5.3000e+000 80059 -9.4793e+001 -1.9834e+002  6.2707e+001 59758 79906,79958,79932
 5.3000e+000 80036 -1.0157e+002 -2.0131e+002  7.0927e+000 59758 79880,80010,79906
 5.3000e+000 80154 -6.8466e+001 -1.9374e+002  2.3252e+001 59758 79984,79958,80128
 5.3000e+000 80177 -7.1861e+001 -1.8638e+002  1.8314e+001 59758 79984,80128,80010
 5.3000e+000 80376 -5.1119e+001 -1.7069e+002  3.3310e+000 59312 80226,80304,80252
 5.3000e+000 80353 -5.0249e+001 -1.7512e+002  3.3104e+000 59312 80200,80304,80226
 5.3000e+000 80330 -7.7383e+001 -1.5526e+002  4.5063e+001 59312 80252,80304,80278
 5.3000e+000 80805 -6.7380e+001 -1.5501e+002 -2.4040e+001 58908 80900,80828,80638
 5.3000e+000 80782 -5.5156e+001 -1.8279e+002 -3.6232e+001 58908 80828,80560,80508
 5.3000e+000 80759 -7.0925e+001 -1.4595e+002 -8.9549e+000 58908 80900,80638,80612
 5.3000e+000 80736 -2.9192e+001 -1.5772e+002  6.3579e+001 58908 80482,80664,80508
 5.3000e+000 80713 -4.7353e+001 -1.3551e+002 -5.2939e+000 58908 80560,80612,80586
 5.3000e+000 80690 -6.4990e+001 -4.6355e+002 -8.6918e+001 58908 80508,80560,80534
 5.3000e+000 80854 -3.1689e+001 -1.6714e+002  8.7398e-002 58908 80664,80638,80828
 5.3000e+000 80877 -5.3771e+001 -2.4080e+002  4.0146e+000 58908 80664,80828,80508
 5.3000e+000 80926 -5.6967e+001 -1.2773e+002 -2.6369e+001 58908 80560,80828,80900
 5.3000e+000 80949 -6.4557e+001 -1.2794e+002 -9.1538e+000 58908 80560,80900,80612
 5.3000e+000 81246 -2.8923e+001 -1.5029e+002 -4.2492e+000 58482 81076,81128,81102
 5.3000e+000 81223 -7.0442e+001 -2.5581e+002 -2.5744e+001 58482 80972,81128,81076
 5.3000e+000 81200 -4.5623e+001 -1.7488e+002 -2.7752e+001 58482 80972,81076,81050
 5.3000e+000 81177 -9.9336e+001 -2.6248e+002 -8.4783e+000 58482 80998,81050,81024
 5.3000e+000 81154 -5.5712e+001 -2.1685e+002 -2.6735e+001 58482 80972,81050,80998
 5.3000e+000 81754 -7.5326e+001 -1.5419e+002  1.1091e+001 57828 81457,81613,81483
 5.3000e+000 81731 -8.5680e+001 -1.7359e+002  4.6377e+000 57828 81431,81613,81457
 5.3000e+000 81708 -8.1687e+001 -1.6903e+002  1.2390e+001 57828 81483,81613,81509
 5.3000e+000 81685 -9.7958e+001 -1.9185e+002  1.9525e+001 57828 81509,81613,81587
 5.3000e+000 81662 -1.0383e+002 -2.8310e+002  3.9390e+001 57828 81509,81587,81535
 5.3000e+000 81639 -6.0327e+001 -2.6556e+002  2.4397e+001 57828 81535,81587,81561
 5.3000e+000 82002 -1.1395e+002 -2.7498e+002 -3.8271e-001 57374 82025,81855,81829
 5.3000e+000 81979 -1.2108e+002 -2.5884e+002  1.2910e+001 57374 82025,81829,81907
 5.3000e+000 81956 -1.2449e+002 -2.4171e+002  8.5718e+000 57374 81803,81907,81829
 5.3000e+000 81933 -6.7671e+001 -2.1691e+002  1.4868e+001 57374 81777,81907,81803
 5.3000e+000 82051 -1.1175e+002 -2.5576e+002 -2.0546e+000 57374 81881,81855,82025
 5.3000e+000 82074 -1.1650e+002 -2.4197e+002  1.5648e+001 57374 81881,82025,81907
 5.3000e+000 82356 -6.7006e+001 -1.5854e+002 -9.3435e+000 56913 82180,82232,82206
 5.3000e+000 82333 -5.9150e+001 -1.5239e+002  1.3643e+001 56913 82180,82284,82232
 5.3000e+000 82310 -1.9318e+001 -1.1852e+002  2.9146e+001 56913 82379,82232,82284
 5.3000e+000 82405  1.9265e+001 -1.1510e+002  3.2176e+000 56913 82258,82232,82379
 5.3000e+000 82764 -6.6104e+001 -1.0559e+002 -1.0524e+001 56523 82614,82666,82640
 5.3000e+000 82741 -5.6131e+001 -1.0503e+002 -1.5717e+001 56523 82614,82692,82666
 5.3000e+000 82718 -4.7881e+001 -1.1256e+002 -3.2210e+001 56523 82588,82692,82614
 5.3000e+000 83368 -1.3063e+001 -1.7818e+002 -8.8548e+000 55969 82973,83155,83129
 5.3000e+000 83345  1.6071e+000 -1.7275e+002 -1.3593e+001 55969 82973,83181,83155
 5.3000e+000 83322 -4.6679e+001 -1.5877e+002 -6.8995e+000 55969 82973,83129,82999
 5.3000e+000 83299 -7.5382e+001 -1.6255e+002  3.1063e+000 55969 83391,83025,82999
 5.3000e+000 83276 -6.5277e+001 -1.6879e+002 -3.8651e-001 55969 83391,82999,83129
 5.3000e+000 83253 -1.1791e+001 -1.3990e+002  3.1185e+001 55969 83077,83129,83103
 5.3000e+000 83230 -8.1010e+001 -1.3136e+002 -7.0790e+000 55969 83025,83077,83051
 5.3000e+000 83207 -1.2518e+000 -1.6624e+002  1.4262e+001 55969 82947,83181,82973
 5.3000e+000 83417 -6.5841e+001 -1.5625e+002  6.9395e+000 55969 83077,83025,83391
 5.3000e+000 83440 -6.2508e+001 -1.6502e+002  1.7415e+000 55969 83077,83391,83129
 5.3000e+000 83946 -1.2753e+002 -2.8207e+002  4.4785e+001 55771 83969,83779,83727
 5.3000e+000 83923 -1.0047e+002 -2.2670e+002  2.8942e+001 55771 83969,83727,83623
 5.3000e+000 83900 -1.2052e+002 -1.1577e+002  1.6406e+001 55771 83623,83727,83649
 5.3000e+000 83877 -1.0025e+002 -4.8611e+002  2.0879e+001 55771 83727,83779,83753
 5.3000e+000 83854 -1.7116e+002 -2.1477e+002  5.9531e+001 55771 83675,83727,83701
 5.3000e+000 83831 -1.8610e+002 -1.8502e+002  7.5161e+001 55771 83649,83727,83675
 5.3000e+000 83995 -1.2110e+002 -2.9418e+002 -2.4971e+001 55771 83805,83779,83969
 5.3000e+000 84018 -6.4631e+001 -1.8349e+002 -4.6665e+001 55771 83805,83969,83623
 5.3000e+000 84168 -5.6875e+001 -1.3895e+002 -4.3962e+000 55367 84191,84067,84041
 5.3000e+000 84145 -5.5551e+001 -1.5686e+002 -3.0074e+000 55367 84191,84041,84119
 5.3000e+000 84217 -6.0142e+001 -1.2879e+002 -4.0087e+000 55367 84093,84067,84191
 5.3000e+000 84240 -5.2713e+001 -1.3891e+002  2.4530e+000 55367 84093,84191,84119
 5.3000e+000 84571 -3.1951e+001 -2.1232e+002 -2.1534e+001 54913 84398,84450,84424
 5.3000e+000 84548 -2.6457e+001 -1.9459e+002 -1.1035e+001 54913 84372,84450,84398
 5.3000e+000 84525 -5.2901e+001 -2.1838e+002  7.8917e+000 54913 84346,84450,84372
 5.3000e+000 84502 -1.9828e+001 -1.4233e+002 -1.8918e+001 54913 84346,84476,84450
 5.3000e+000 85126 -1.0989e+002 -2.4065e+002 -1.1135e+001 54402 84858,84936,84910
 5.3000e+000 85103 -8.4714e+001 -1.8682e+002 -2.1546e+001 54402 84806,84936,84858
 5.3000e+000 85080 -1.0309e+002 -1.7117e+002 -1.6970e+001 54402 84780,84936,84806
 5.3000e+000 85057 -8.4379e+001 -2.0805e+002 -8.5108e+000 54402 84806,84858,84832
 5.3000e+000 85034 -9.3700e+001 -1.6169e+002  8.1402e+000 54402 84780,84962,84936
 5.3000e+000 85011 -1.2814e+002 -1.4355e+002 -5.3908e+000 54402 84858,84910,84884
 5.3000e+000 84988 -9.1835e+001 -1.6208e+002  1.0163e+001 54402 84754,84962,84780
 5.3000e+000 85396 -8.6957e+001 -1.0591e+002 -7.1804e+000 53998 85197,85249,85223
 5.3000e+000 85373 -6.7539e+001 -1.3399e+002 -1.5403e+000 53998 85197,85275,85249
 5.3000e+000 85350 -8.6262e+001 -1.5808e+002 -9.9327e+000 53998 85171,85275,85197
 5.3000e+000 85327 -4.0231e+001 -1.4653e+002 -1.2502e+001 53998 85171,85301,85275
 5.3000e+000 85749 -4.9151e+001 -1.6660e+002 -4.2542e+000 53636 85524,85628,85550
 5.3000e+000 85726 -7.6767e+001 -1.8742e+002  5.6753e+000 53636 85524,85654,85628
 5.3000e+000 85703 -2.9112e+001 -1.7675e+002 -1.7330e+001 53636 85550,85602,85576
 5.3000e+000 85680 -4.7537e+001 -1.6480e+002 -8.6405e+000 53636 85550,85628,85602
 5.3000e+000 86127 -1.9275e+001 -1.6866e+002  2.6564e+001 52982 86150,85957,85879
 5.3000e+000 86104 -5.9735e+001 -1.9649e+002  1.4443e+001 52982 86150,85879,85853
 5.3000e+000 86081 -1.6159e+001 -2.4640e+002  4.8985e+001 52982 85957,86009,85983
 5.3000e+000 86058 -7.1911e+001 -1.8213e+002  2.2789e+001 52982 85879,85957,85931
 5.3000e+000 86035 -4.4820e+001 -1.7146e+002 -6.7588e+000 52982 85879,85931,85905
 5.3000e+000 86176  6.4245e+000 -2.0001e+002  2.1262e+001 52982 86009,85957,86150
 5.3000e+000 86199 -1.7557e+001 -2.1806e+002  1.2832e+001 52982 86009,86150,85853
 5.3000e+000 86398 -4.3277e+001 -1.4264e+002  1.3368e+001 52542 86421,86248,86222
 5.3000e+000 86375 -7.4131e+001 -1.4523e+002 -1.0807e+000 52542 86421,86222,86300
 5.3000e+000 86352 -7.3728e+001 -1.5661e+002 -6.8137e+000 52542 86222,86326,86300
 5.3000e+000 86447 -1.2097e+001 -1.4303e+002  2.5490e+001 52542 86274,86248,86421
 5.3000e+000 86470 -4.1300e+001 -1.5019e+002  7.2739e+000 52542 86274,86421,86300
 5.3000e+000 86669 -6.7710e+001 -1.4697e+002 -2.5501e+001 52230 86692,86571,86545
 5.3000e+000 86646 -6.6098e+001 -1.4047e+002 -1.4910e+001 52230 86692,86545,86519
 5.3000e+000 86623 -9.1035e+001 -1.4364e+002 -2.0931e+001 52230 86493,86597,86519
 5.3000e+000 86718 -7.3127e+001 -1.4976e+002 -2.7912e+001 52230 86597,86571,86692
 5.3000e+000 86741 -7.8756e+001 -1.4638e+002 -1.7830e+001 52230 86597,86692,86519
 5.3000e+000 87153 -9.1262e+001 -1.4247e+002  5.6800e+000 51640 86980,87058,87032
 5.3000e+000 87130 -9.0826e+001 -1.4619e+002  4.1863e+000 51640 86928,87058,86980
 5.3000e+000 87107 -9.5349e+001 -1.9527e+002 -9.5543e+000 51640 86928,86980,86954
 5.3000e+000 87084 -4.9340e+001 -1.2467e+002 -1.2116e+000 51640 86980,87032,87006
 5.3000e+000 87659 -4.3305e+001 -1.2936e+002  3.3473e+000 51029 87682,87440,87362
 5.3000e+000 87636 -3.7713e+001 -1.3681e+002 -1.3640e+001 51029 87682,87362,87336
 5.3000e+000 87613 -6.2376e+001 -1.9220e+002 -4.3953e+000 51029 87440,87518,87466
 5.3000e+000 87590 -6.7233e+001 -1.2946e+002  4.9285e+000 51029 87362,87440,87414
 5.3000e+000 87567 -5.5388e+001 -9.8224e+001  2.2327e+001 51029 87362,87414,87388
 5.3000e+000 87544 -8.3383e+001 -1.7409e+002  4.7725e+000 51029 87466,87518,87492
 5.3000e+000 87708 -4.2455e+001 -1.4432e+002 -1.2471e+000 51029 87518,87440,87682
 5.3000e+000 87731 -4.1006e+001 -1.6647e+002 -1.1930e+001 51029 87518,87682,87336
 5.3000e+000 87881 -8.7156e+001 -1.8821e+002  4.8191e+000 50739 87780,87832,87806
 5.3000e+000 87858 -9.9212e+001 -1.8907e+002 -8.4651e+000 50739 87754,87832,87780
 5.3000e+000 88468 -5.5615e+001 -1.2251e+002  5.8011e+000 50235 88171,88327,88197
 5.3000e+000 88445 -1.1736e+002 -1.2330e+002 -1.7878e+001 50235 88145,88327,88171
 5.3000e+000 88422  6.4544e-002 -6.0502e+001  6.5758e-002 50235 88275,88327,88301
 5.3000e+000 88399 -3.7051e+001 -7.6402e+001 -6.1856e-001 50235 88197,88327,88275
 5.3000e+000 88376 -1.8438e+001 -1.1218e+002 -1.4922e+000 50235 88197,88275,88223
 5.3000e+000 88353 -2.1239e+001 -1.4943e+002 -1.3496e+001 50235 88223,88275,88249
 5.3000e+000 88895 -8.2576e+001 -1.9687e+002  4.7613e+000 49873 88918,88728,88676
 5.3000e+000 88872 -7.1108e+001 -1.8441e+002 -2.9161e+000 49873 88918,88676,88624
 5.3000e+000 88849 -5.7123e+001 -1.6467e+002 -6.9405e+000 49873 88598,88754,88624
 5.3000e+000 88826 -4.4324e+001 -1.7327e+002 -4.4898e+000 49873 88624,88676,88650
 5.3000e+000 88803 -6.9383e+001 -2.4060e+002  6.7353e+000 49873 88676,88728,88702
 5.3000e+000 88780 -6.9479e+001 -1.6991e+002 -8.7967e+000 49873 88572,88754,88598
 5.3000e+000 88944 -6.8641e+001 -1.9535e+002 -3.1584e+000 49873 88754,88728,88918
 5.3000e+000 88967 -6.4277e+001 -1.9104e+002 -9.5428e+000 49873 88754,88918,88624
 5.3000e+000 89473 -1.1689e+002 -1.8480e+002 -2.2065e+001 49583 89176,89306,89202
 5.3000e+000 89450 -1.1649e+002 -1.8198e+002 -2.8415e+001 49583 89176,89332,89306
 5.3000e+000 89427 -6.9143e+001 -2.0088e+002  8.9466e+000 49583 89496,89228,89202
 5.3000e+000 89404 -6.9429e+001 -2.0535e+002  1.0721e+001 49583 89496,89202,89280
 5.3000e+000 89381 -1.4420e+002 -2.5632e+002 -4.4134e+001 49583 89202,89306,89280
 5.3000e+000 89358 -9.0679e+001 -1.8344e+002 -3.2993e+001 49583 89150,89332,89176
 5.3000e+000 89522 -6.5335e+001 -1.7098e+002  5.1563e+000 49583 89254,89228,89496
 5.3000e+000 89545 -7.9316e+001 -1.9659e+002  1.0533e+001 49583 89254,89496,89280
 5.3000e+000 89825  1.1794e+001 -1.8473e+002  8.3695e+000 49179 89701,89753,89727
 5.3000e+000 89802 -2.8374e+001 -1.6581e+002  1.1127e+001 49179 89675,89753,89701
 5.3000e+000 89779 -2.1254e+001 -1.4761e+002  9.2192e+000 49179 89848,89753,89675
 5.3000e+000 89874 -1.0321e+002 -1.7479e+002 -1.3288e+001 49179 89649,89753,89848
 5.3000e+000 90223 -6.0186e+001 -1.7929e+002 -2.1000e+001 48739 90024,90102,90076
 5.3000e+000 90200 -5.8214e+001 -1.6866e+002 -7.7864e+000 48739 90024,90128,90102
 5.3000e+000 90177 -7.3296e-001 -1.7505e+002 -2.1803e+001 48739 90024,90076,90050
 5.3000e+000 90154 -2.1623e+001 -1.6159e+002  1.1748e+001 48739 89998,90128,90024
 5.3000e+000 90603 -5.4089e+001 -1.4026e+002  3.1126e+001 48335 90381,90485,90459
 5.3000e+000 90580 -7.2244e+001 -1.6735e+002  2.2809e+001 48335 90355,90485,90381
 5.3000e+000 90557 -2.8531e+001 -5.5278e+001  1.5808e+001 48335 90381,90433,90407
 5.3000e+000 90534 -5.2906e+001 -1.4692e+002  2.2704e+001 48335 90381,90459,90433
 5.3000e+000 90511  2.1945e+001 -1.1505e+002  4.5029e+001 48335 90329,90485,90355
 5.3000e+000 90753 -1.5210e+000 -9.1862e+001  5.6268e+001 47824 90776,90652,90704
 5.3000e+000 90730 -4.8116e+001 -1.6113e+002  2.6574e+001 47824 90626,90704,90652
 5.3000e+000 90802 -2.1934e+001 -1.1996e+002  4.5222e+001 47824 90678,90652,90776
 5.3000e+000 91131 -5.9446e+001 -2.0249e+002  9.0972e+000 47427 91154,90958,90906
 5.3000e+000 91108 -1.0483e+002 -2.2118e+002  1.3561e+000 47427 91154,90906,91036
 5.3000e+000 91085 -1.0122e+002 -1.7458e+002 -1.5773e+001 47427 90958,91010,90984
 5.3000e+000 91062 -5.9714e+001 -1.8180e+002  1.1664e+001 47427 90906,90958,90932
 5.3000e+000 91180 -8.5875e+001 -2.0034e+002 -2.0835e+001 47427 91010,90958,91154
 5.3000e+000 91203 -1.2952e+002 -2.1923e+002 -2.9341e+001 47427 91010,91154,91036
 5.3000e+000 91583 -1.0011e+002 -1.8802e+002 -1.0953e+001 46873 91309,91439,91335
 5.3000e+000 91560 -1.0503e+002 -1.8958e+002 -9.2218e+000 46873 91309,91465,91439
 5.3000e+000 91537 -1.4988e+002 -2.1886e+002 -5.5195e+001 46873 91361,91439,91413
 5.3000e+000 91514 -1.1222e+002 -1.9610e+002 -2.9417e+001 46873 91335,91439,91361
 5.3000e+000 91491 -5.0849e+001 -1.8444e+002 -4.9184e+001 46873 91361,91413,91387
 5.3000e+000 91880 -6.3454e+001 -2.0091e+002 -4.9736e+000 46526 91606,91710,91658
 5.3000e+000 91857 -6.6789e+001 -2.1153e+002  1.8720e+000 46526 91606,91762,91710
 5.3000e+000 91834 -3.9036e+001 -1.9268e+002 -2.2804e+001 46526 91606,91658,91632
 5.3000e+000 91811 -7.5844e+001 -1.8626e+002  3.7918e+000 46526 91658,91710,91684
 5.3000e+000 91788 -4.3454e+001 -1.4433e+002  5.7760e+000 46526 91710,91762,91736
 5.3000e+000 92211 -3.3537e+001 -7.9802e+001 -6.6214e+000 45700 91986,92064,92038
 5.3000e+000 92188 -4.5467e+001 -1.1963e+002  6.8656e-001 45700 91986,92116,92064
 5.3000e+000 92165 -2.5642e+001 -6.7190e+001 -1.4873e+001 45700 91986,92038,92012
 5.3000e+000 92142 -2.9935e+001 -1.3163e+002  1.6432e+001 45700 92064,92116,92090
 5.3000e+000 92766 -8.8484e+001 -1.7293e+002  1.0373e+001 45452 92446,92602,92576
 5.3000e+000 92743 -1.3452e+002 -1.6855e+002 -1.7487e+001 45452 92420,92602,92446
 5.3000e+000 92720 -1.0405e+002 -1.8056e+002  2.8519e+001 45452 92789,92524,92498
 5.3000e+000 92697 -1.1964e+002 -1.7712e+002  2.3634e+001 45452 92789,92498,92446
 5.3000e+000 92674 -1.0158e+002 -1.9138e+002 -5.7228e-001 45452 92524,92576,92550
 5.3000e+000 92651 -1.5770e+002 -1.8280e+002  9.6921e+001 45452 92446,92498,92472
 5.3000e+000 92628 -8.6095e+001 -2.1192e+002 -5.1039e+001 45452 92394,92602,92420
 5.3000e+000 92815 -9.3066e+001 -1.8259e+002  2.4317e+001 45452 92576,92524,92789
 5.3000e+000 92838 -1.0529e+002 -1.7659e+002  2.1497e+001 45452 92576,92789,92446
 5.3000e+000 92939 -7.5174e+001 -2.3634e+002 -4.8787e+001 44998 92861,92913,92887
 5.3000e+000 93319 -1.5411e+001 -2.4150e+002  4.5484e+001 44601 93123,93201,93149
 5.3000e+000 93296 -6.6543e+001 -2.4290e+002 -2.4216e+001 44601 93045,93201,93123
 5.3000e+000 93273 -5.3295e+001 -1.3814e+002 -3.3877e+001 44601 93045,93123,93071
 5.3000e+000 93250 -5.0155e+001 -1.2877e+002 -2.2468e+001 44601 93071,93123,93097
 5.3000e+000 93227 -4.9560e+000 -1.3505e+002  4.9352e+001 44601 93149,93201,93175
 5.3000e+000 93697 -5.0960e+001 -2.6380e+002  1.3943e+001 44026 93720,93553,93527
 5.3000e+000 93674 -9.0167e+001 -2.2385e+002  1.9439e+001 44026 93720,93527,93449
 5.3000e+000 93651 -9.9623e+001 -2.3166e+002 -3.2338e+000 44026 93449,93527,93501
 5.3000e+000 93628 -7.2659e+001 -1.7906e+002 -3.8803e+001 44026 93423,93579,93449
 5.3000e+000 93605 -2.3449e+001 -1.8477e+002  1.6725e+001 44026 93449,93501,93475
 5.3000e+000 93746 -2.3306e+001 -2.3414e+002  2.5256e+000 44026 93579,93553,93720
 5.3000e+000 93769 -6.4632e+001 -1.9487e+002  8.6367e+000 44026 93579,93720,93449
 5.3000e+000 94066 -5.1588e+001 -2.0617e+002 -2.8067e+001 43579 94089,93818,93792
 5.3000e+000 94043 -8.3869e+001 -2.2882e+002 -1.8040e+001 43579 94161,94089,93792
 5.3000e+000 94020 -8.2548e+001 -2.2993e+002 -9.1644e+000 43579 94161,93792,93948
 5.3000e+000 93997 -8.8940e+001 -1.8176e+002 -9.0957e+000 43579 94233,93870,93818
 5.3000e+000 93974 -5.1066e+001 -1.8795e+002  5.7552e+000 43579 93818,93870,93844
 5.3000e+000 94115 -8.6746e+001 -1.8324e+002 -2.0379e+001 43579 94233,93818,94089
 5.3000e+000 94138 -1.1393e+002 -2.0589e+002 -1.3089e+001 43579 93896,94089,93922
 5.3000e+000 94187 -7.8094e+001 -2.1539e+002 -1.7643e+001 43579 93922,94089,94161
 5.3000e+000 94210 -7.6172e+001 -2.1521e+002 -7.9397e+000 43579 93922,94161,93948
 5.3000e+000 94259 -1.0189e+002 -2.0328e+002 -3.2469e+000 43579 93896,93870,94233
 5.3000e+000 94282 -9.4221e+001 -1.9949e+002 -1.6236e+001 43579 93896,94233,94089
 5.3000e+000 94481 -6.8845e+001 -2.1268e+002 -1.1317e+000 43239 94305,94383,94357
 5.3000e+000 94458 -5.9464e+001 -1.9461e+002  2.4424e+001 43239 94305,94409,94383
 5.3000e+000 94435 -5.2858e+001 -2.2535e+002 -5.3410e+000 43239 94305,94357,94331
 5.3000e+000 94633 -2.4253e+001 -1.3259e+002  3.0691e+001 42827 94656,94532,94506
 5.3000e+000 94610 -5.6741e+001 -1.4761e+002  3.4534e+001 42827 94728,94656,94506
 5.3000e+000 94682 -3.1006e+001 -1.5269e+002  2.5931e+001 42827 94558,94532,94656
 5.3000e+000 94705 -1.1518e+001 -1.4951e+002  1.5853e+001 42827 94988,94860,94656
 5.3000e+000 94754 -3.2256e+001 -1.3401e+002  1.0501e+001 42827 94988,94656,94728
 5.3000e+000 94886  5.6217e+000 -1.4153e+002  1.7914e+001 42827 94558,94656,94860
 5.3000e+000 95014  5.8273e+000 -1.3630e+002  1.0077e+001 42827 94584,94860,94988
 5.3000e+000 95037 -1.2099e+001 -1.2195e+002  4.9275e+000 42827 94584,94988,94728
 5.3000e+000 95236 -2.7581e+001 -1.6448e+002  2.2580e+001 42537 95259,95112,95060
 5.3000e+000 95213 -3.5545e+001 -1.5892e+002  2.0292e+001 42537 95259,95060,95164
 5.3000e+000 95190 -1.3160e+001 -1.6840e+002 -2.7885e+000 42537 95060,95112,95086
 5.3000e+000 95285 -3.2940e+001 -1.6668e+002  1.9249e+001 42537 95138,95112,95259
 5.3000e+000 95308 -4.1363e+001 -1.6380e+002  1.5815e+001 42537 95138,95259,95164
 5.3000e+000 95816 -7.2829e+001 -2.0512e+002 -1.3949e+001 41969 95493,95597,95519
 5.3000e+000 95793 -1.0795e+002 -1.9356e+002  1.7875e+001 41969 95493,95649,95597
 5.3000e+000 95770 -8.0956e+001 -1.8184e+002  1.5358e+001 41969 95493,95675,95649
 5.3000e+000 95747 -8.7501e+001 -2.5125e+002  1.4906e+001 41969 95597,95649,95623
 5.3000e+000 95724 -1.1747e+002 -1.8860e+002 -2.3297e+001 41969 95519,95597,95571
 5.3000e+000 95701 -1.0407e+002 -1.6520e+002 -4.7209e+001 41969 95519,95571,95545
 5.3000e+000 96371 -9.0718e+001 -2.1890e+002  2.6700e+001 41579 96025,96207,96181
 5.3000e+000 96348  2.6992e+001 -1.6507e+002 -7.6827e+000 41579 95999,96207,96025
 5.3000e+000 96325 -1.0440e+002 -1.6715e+002 -1.8532e+001 41579 96129,96181,96155
 5.3000e+000 96302 -3.8646e+001 -1.5277e+002  1.0286e+000 41579 96025,96181,96129
 5.3000e+000 96279 -8.4819e+001 -2.2671e+002  3.0843e+001 41579 96025,96129,96051
 5.3000e+000 96256 -9.8836e+001 -2.1249e+002  3.2452e+001 41579 96051,96103,96077
 5.3000e+000 96233 -3.7656e+001 -1.6163e+002  2.9467e+000 41579 96051,96129,96103
 5.3000e+000 96877 -2.3800e+001 -1.3953e+002 -1.6082e+001 41182 96972,96900,96632
 5.3000e+000 96854 -3.0035e+001 -1.0381e+002 -1.6486e+001 41182 96900,96554,96736
 5.3000e+000 96831 -2.2762e+001 -1.3932e+002 -1.3817e+001 41182 96972,96632,96580
 5.3000e+000 96808 -2.9830e+001 -1.3087e+002  1.3848e+001 41182 96632,96684,96658
 5.3000e+000 96785 -5.4978e+001 -1.4504e+002  1.6519e+001 41182 96684,96736,96710
 5.3000e+000 96762 -8.1071e+001 -1.7851e+002  2.9592e+001 41182 96580,96632,96606
 5.3000e+000 96926 -2.1949e+001 -1.5457e+002 -1.5968e+001 41182 96684,96632,96900
 5.3000e+000 96949 -4.4465e+001 -1.3757e+002 -2.7547e+001 41182 96684,96900,96736
 5.3000e+000 96998 -2.7991e+001 -1.4163e+002 -1.7427e+001 41182 96554,96900,96972
 5.3000e+000 97021 -2.7183e+001 -1.4080e+002 -1.4887e+001 41182 96554,96972,96580
 5.3000e+000 97576 -1.2269e+002 -3.0887e+002 -4.2779e+001 40678 97230,97412,97282
 5.3000e+000 97553 -1.2557e+001 -2.5441e+002  1.3301e+001 40678 97204,97412,97230
 5.3000e+000 97530 -3.4720e+001 -2.3526e+002 -3.8662e+001 40678 97282,97360,97308
 5.3000e+000 97507 -5.4759e+001 -2.3972e+002 -1.5036e+001 40678 97282,97412,97360
 5.3000e+000 97484 -1.5240e+001 -1.4233e+002 -3.3914e+001 40678 97308,97360,97334
 5.3000e+000 97461 -7.0783e+001 -2.8883e+002 -8.2370e+000 40678 97360,97412,97386
 5.3000e+000 97438 -7.0388e+001 -1.9936e+002 -2.6797e+001 40678 97230,97282,97256
 5.3000e+000 97976 -9.8155e+001 -1.6466e+002 -3.6476e+000 40244 97702,97832,97754
 5.3000e+000 97953 -8.2213e+001 -1.5839e+002 -8.0516e+000 40244 97702,97858,97832
 5.3000e+000 97930 -1.0541e+002 -1.9342e+002 -4.0361e+001 40244 97702,97754,97728
 5.3000e+000 97907 -8.1106e+001 -1.7910e+002  1.9595e+001 40244 97780,97832,97806
 5.3000e+000 97884 -8.8334e+001 -1.5897e+002 -8.4205e-001 40244 97754,97832,97780
 5.3000e+000 98482 -5.2353e+001 -1.5243e+002  2.4453e+001 39690 98505,98185,98159
 5.3000e+000 98459 -5.4134e+001 -1.4765e+002  2.3441e+001 39690 98505,98159,98289
 5.3000e+000 98436 -1.0405e+002 -2.2253e+002  6.0835e+001 39690 98159,98315,98289
 5.3000e+000 98413 -4.1859e+001 -1.3736e+002  2.0974e+001 39690 98211,98289,98263
 5.3000e+000 98390 -2.3836e+001 -9.0217e+001  1.2247e+001 39690 98211,98263,98237
 5.3000e+000 98367 -2.7567e+001 -1.3686e+002  2.1387e+001 39690 98159,98341,98315
 5.3000e+000 98531 -5.2780e+001 -1.4963e+002  2.1462e+001 39690 98211,98185,98505
 5.3000e+000 98554 -5.3467e+001 -1.4227e+002  2.1303e+001 39690 98211,98505,98289
 5.3000e+000 99109 -5.3005e+001 -1.3820e+002 -9.0806e+000 39072 99132,98867,98789
 5.3000e+000 99086 -5.0834e+001 -1.4282e+002 -1.3055e+001 39072 99132,98789,98763
 5.3000e+000 99063 -7.9473e+001 -2.2814e+002  2.4248e+001 39072 98867,98945,98919
 5.3000e+000 99040 -4.5428e+001 -1.4769e+002 -1.4885e+000 39072 98789,98867,98841
 5.3000e+000 99017 -1.0442e+002 -1.6675e+002  6.9782e+000 39072 98867,98919,98893
 5.3000e+000 98994 -7.2698e+001 -1.3516e+002  2.8763e+001 39072 98789,98841,98815
 5.3000e+000 98971 -7.4988e+001 -1.6206e+002 -1.0417e+001 39072 98737,98945,98763
 5.3000e+000 99158 -5.1737e+001 -1.4410e+002 -9.9150e+000 39072 98945,98867,99132
 5.3000e+000 99181 -5.1269e+001 -1.5238e+002 -1.1539e+001 39072 98945,99132,98763
 5.3000e+000 99510 -4.4526e+001 -1.2769e+002  8.6630e+000 38668 99311,99389,99363
 5.3000e+000 99487 -3.7834e+001 -1.3348e+002 -3.9684e+000 38668 99285,99389,99311
 5.3000e+000 99464 -8.5849e+001 -1.8437e+002  1.6531e+001 38668 99285,99415,99389
 5.3000e+000 99441 -4.0135e+001 -1.3775e+002  1.4117e+001 38668 99311,99363,99337
 5.3000e+000 99758 -5.0995e+001 -2.0481e+002  3.3597e+001 38164 99781,99611,99585
 5.3000e+000 99735 -2.0920e+001 -2.1021e+002  3.7135e+001 38164 99781,99585,99533
 5.3000e+000 99712 -7.7218e+001 -1.9504e+002  2.4642e+001 38164 99611,99663,99637
 5.3000e+000 99689  1.0713e+001 -2.0039e+002 -1.2905e+001 38164 99533,99585,99559
 5.3000e+000 99807 -6.8256e+001 -2.0389e+002  4.1989e+001 38164 99663,99611,99781
 5.3000e+000 99830 -4.5405e+001 -2.1281e+002  4.0821e+001 38164 99663,99781,99533
 5.3000e+000 100232 -5.7992e+001 -1.5428e+002  2.2009e+000 37702 99984,100114,100088
 5.3000e+000 100209 -4.6289e+001 -1.6364e+002  1.6030e+001 37702 99958,100114,99984
 5.3000e+000 100186 -8.5484e+001 -1.9153e+002 -1.1749e+001 37702 100010,100088,100036
 5.3000e+000 100163 -5.7705e+001 -1.5440e+002  4.4404e-001 37702 99984,100088,100010
 5.3000e+000 100140 -4.9960e+001 -1.3919e+002 -3.9113e+001 37702 100036,100088,100062
 5.3000e+000 100640 -1.2544e+002 -1.8015e+002  2.2901e+001 37262 100493,100545,100519
 5.3000e+000 100617 -1.1208e+002 -2.0474e+002  1.0931e+001 37262 100441,100545,100493
 5.3000e+000 100594 -4.5268e+001 -1.5413e+002 -2.7189e+001 37262 100415,100545,100441
 5.3000e+000 100571 -1.2594e+002 -2.1916e+002 -9.0365e+000 37262 100441,100493,100467
 5.3000e+000 101146 -9.0232e+001 -1.5156e+002 -1.7985e+000 36872 100823,100979,100849
 5.3000e+000 101123 -8.7325e+001 -1.3970e+002 -1.4627e+001 36872 100823,101005,100979
 5.3000e+000 101100 -9.2511e+001 -2.1993e+002  2.9767e+001 36872 101169,100901,100849
 5.3000e+000 101077 -7.1210e+001 -1.7510e+002  1.5961e+001 36872 101169,100849,100979
 5.3000e+000 101054 -5.0986e+001 -1.8336e+002 -1.1727e+001 36872 100927,100979,100953
 5.3000e+000 101031 -5.0779e+001 -2.4678e+002  4.1543e+001 36872 100849,100901,100875
 5.3000e+000 101195 -6.3898e+001 -2.3301e+002  1.7972e+000 36872 100927,100901,101169
 5.3000e+000 101218 -5.0867e+001 -2.0921e+002 -9.3625e+000 36872 100927,101169,100979
 5.3000e+000 101773 -1.0166e+002 -1.6370e+002  3.0814e+001 36418 101479,101609,101583
 5.3000e+000 101750 -1.0511e+002 -1.7329e+002  3.0543e+001 36418 101453,101609,101479
 5.3000e+000 101727 -7.0390e+001 -1.7332e+002 -4.1640e-001 36418 101796,101531,101479
 5.3000e+000 101704 -9.8681e+001 -1.9282e+002  1.3706e+001 36418 101796,101479,101583
 5.3000e+000 101681 -6.0230e+001 -1.4866e+002 -4.1817e+000 36418 101479,101531,101505
 5.3000e+000 101658 -2.3746e+000 -1.5337e+002  5.0542e+000 36418 101401,101609,101453
 5.3000e+000 101635 -3.0616e+001 -1.4849e+002  4.7637e+000 36418 101401,101453,101427
 5.3000e+000 101822 -7.7005e+001 -1.5882e+002 -2.7380e+001 36418 101557,101531,101796
 5.3000e+000 101845 -1.0967e+002 -1.6588e+002 -1.4627e+001 36418 101557,101796,101583
 5.3000e+000 102174 -9.6658e+000 -7.4775e+001 -2.1098e+001 35914 101949,102053,101975
 5.3000e+000 102151 -3.5511e+001 -7.9691e+001 -1.5949e+001 35914 101949,102079,102053
 5.3000e+000 102128 -3.9501e+001 -8.8877e+001 -1.1137e+001 35914 101975,102053,102027
 5.3000e+000 102105 -2.6113e+001 -6.7409e+001 -1.6821e+001 35914 101975,102027,102001
 5.3000e+000 102631 -3.4477e+001 -1.7834e+002  5.4320e+000 35574 102383,102513,102487
 5.3000e+000 102608 -2.4554e+001 -1.8589e+002  4.4808e+000 35574 102357,102513,102383
 5.3000e+000 102585 -5.9950e+001 -1.8555e+002  7.0134e+000 35574 102409,102487,102435
 5.3000e+000 102562 -6.1424e+001 -1.8913e+002  5.2230e+000 35574 102383,102487,102409
 5.3000e+000 102539 -5.9885e+001 -1.8769e+002  8.1388e+000 35574 102435,102487,102461
 5.3000e+000 103009 -9.5596e+001 -1.7628e+002 -1.2477e+001 35170 102761,102865,102787
 5.3000e+000 102986 -5.7732e+001 -1.5526e+002  1.6360e+001 35170 102761,102891,102865
 5.3000e+000 102963 -8.3885e+001 -1.7031e+002 -4.2190e+000 35170 102787,102865,102813
 5.3000e+000 102940 -4.7528e+001 -1.4886e+002  1.9365e+001 35170 102735,102891,102761
 5.3000e+000 102917 -8.5878e+001 -1.7771e+002 -1.2200e+001 35170 102813,102865,102839
 5.3000e+000 103257 -1.7204e+001 -1.3286e+002 -2.3036e+001 34659 103280,103058,103032
 5.3000e+000 103234 -2.6634e+001 -1.4033e+002 -1.3425e+001 34659 103280,103032,103162
 5.3000e+000 103211 -4.6940e+001 -1.4184e+002 -1.2246e+001 34659 103084,103162,103110
 5.3000e+000 103188 -6.1788e+001 -1.7384e+002 -8.4681e+000 34659 103110,103162,103136
 5.3000e+000 103306 -3.3706e+001 -1.2373e+002 -1.9897e+001 34659 103084,103058,103280
 5.3000e+000 103329 -3.9744e+001 -1.3160e+002 -9.0938e+000 34659 103084,103280,103162
 5.3000e+000 103837 -1.6848e+001 -1.9655e+002  6.3715e+000 34247 103860,103566,103540
 5.3000e+000 103814 -2.7146e+001 -1.9774e+002  3.6049e-001 34247 103932,103860,103540
 5.3000e+000 103791 -2.0285e+001 -2.1979e+002 -2.2068e+001 34247 103932,103540,103670
 5.3000e+000 103768 -2.1671e+001 -1.8368e+002  4.3812e+000 34247 103566,103618,103592
 5.3000e+000 103745 -7.9933e+001 -1.8515e+002 -2.8511e+001 34247 103540,103696,103670
 5.3000e+000 103722 -1.0614e+002 -2.0608e+002  3.0201e+001 34247 103514,103696,103540
 5.3000e+000 103886 -4.1260e+001 -1.9584e+002 -2.1421e+000 34247 103618,103566,103860
 5.3000e+000 103909 -4.5907e+001 -2.0965e+002  5.3808e+000 34247 103618,103860,103644
 5.3000e+000 103958 -4.6840e+001 -2.5091e+002 -3.6873e+000 34247 103644,103860,103932
 5.3000e+000 103981 -4.0027e+001 -2.7131e+002 -2.7213e+001 34247 103644,103932,103670
 5.3000e+000 104300 -9.7095e+001 -2.0781e+002 -7.1511e+000 33843 104052,104182,104156
 5.3000e+000 104277 -1.2533e+002 -1.9460e+002 -1.6164e+000 33843 104026,104182,104052
 5.3000e+000 104254 -9.4887e+001 -2.3443e+002  4.9711e+000 33843 104078,104156,104130
 5.3000e+000 104231 -1.1396e+002 -2.2417e+002  2.1361e-001 33843 104052,104156,104078
 5.3000e+000 104208 -1.4394e+002 -2.4697e+002  6.1794e+000 33843 104078,104130,104104
 5.3000e+000 104499 -6.6989e+001 -2.1000e+002 -1.7519e+001 33282 104594,104522,104375
 5.3000e+000 104476 -5.8488e+001 -2.0586e+002  6.7824e+000 33282 104522,104323,104427
 5.3000e+000 104453 -4.0781e+001 -2.2404e+002 -1.6114e+001 33282 104594,104375,104349
 5.3000e+000 104548 -7.0436e+001 -1.8357e+002 -8.5390e+000 33282 104401,104375,104522
 5.3000e+000 104571 -4.8584e+001 -1.8060e+002  7.6191e+000 33282 104401,104522,104427
 5.3000e+000 104620 -3.4773e+001 -1.8404e+002 -5.6200e+000 33282 104323,104522,104594
 5.3000e+000 104643 -1.8211e+001 -2.0768e+002 -8.0324e+000 33282 104323,104594,104349
 5.3000e+000 104942 -9.0348e+001 -2.3100e+002  2.7930e+001 32728 104694,104772,104720
 5.3000e+000 104919 -6.9393e+001 -2.1122e+002  1.0481e+001 32728 104694,104824,104772
 5.3000e+000 104896 -1.1836e+002 -2.0615e+002  3.1688e+001 32728 104720,104772,104746
 5.3000e+000 104873 -5.4138e+001 -2.4160e+002  1.2714e+001 32728 104772,104824,104798
 5.3000e+000 104850 -5.7953e+001 -2.0933e+002  1.0193e+001 32728 104668,104824,104694
 5.3000e+000 105373 -7.3059e+001 -2.2361e+002 -1.0368e+001 32274 105396,105102,105076
 5.3000e+000 105350 -8.0485e+001 -2.4509e+002 -3.7497e+000 32274 105396,105076,105206
 5.3000e+000 105327 -1.0369e+002 -2.5095e+002  1.1376e+001 32274 105154,105206,105180
 5.3000e+000 105304 -4.1264e+001 -2.3671e+002 -2.0806e+001 32274 105076,105232,105206
 5.3000e+000 105281 -8.8164e+001 -2.0186e+002 -3.6214e+001 32274 105102,105154,105128
 5.3000e+000 105258 -1.2440e+002 -1.9147e+002 -3.7000e+001 32274 105050,105232,105076
 5.3000e+000 105422 -8.5944e+001 -2.0014e+002 -9.5585e+000 32274 105154,105102,105396
 5.3000e+000 105445 -9.2588e+001 -2.2190e+002 -4.4267e+000 32274 105154,105396,105206
 5.3000e+000 105644 -8.8183e+001 -2.3009e+002 -3.9287e+000 31620 105468,105546,105520
 5.3000e+000 105621 -7.2177e+001 -2.4758e+002 -1.1862e+001 31620 105468,105572,105546
 5.3000e+000 105598 -8.8450e+001 -2.4987e+002  1.2327e+001 31620 105468,105520,105494
 5.3000e+000 105794 -1.9020e+001 -1.9768e+002 -6.4997e+000 31158 105889,105817,105693
 5.3000e+000 105771 -3.2857e+001 -1.7552e+002 -1.2908e+001 31158 105817,105667,105745
 5.3000e+000 105843 -2.6218e+001 -2.4425e+002 -2.5308e+000 31158 105719,105693,105817
 5.3000e+000 105866 -1.3774e+001 -2.0802e+002 -1.1239e+001 31158 105719,105817,105745
 5.3000e+000 105915 -5.0253e+001 -2.1107e+002 -6.8561e+000 31158 105667,105817,105889
 5.3000e+000 106270 -8.6754e+001 -1.9878e+002 -3.5677e-001 30818 106293,106071,106045
 5.3000e+000 106247 -1.0012e+002 -2.2892e+002 -1.1518e+001 30818 106293,106045,106175
 5.3000e+000 106224 -6.9884e+001 -1.8454e+002  1.1626e+001 30818 106123,106175,106149
 5.3000e+000 106201 -8.9318e+001 -2.0348e+002  2.1089e+001 30818 106071,106123,106097
 5.3000e+000 106319 -8.7802e+001 -1.8695e+002  1.0605e+001 30818 106123,106071,106293
 5.3000e+000 106342 -8.9366e+001 -2.0277e+002  1.1913e+000 30818 106123,106293,106175
 5.3000e+000 106492 -8.2654e+001 -1.8461e+002  3.5790e+001 30414 106645,106391,106365
 5.3000e+000 106469 -2.6568e+001 -1.8344e+002  5.4562e+001 30414 106515,106365,106443
 5.3000e+000 106541 -5.0272e+001 -1.9308e+002  4.1187e+001 30414 106645,106365,106515
 5.3000e+000 106671 -3.7576e+001 -2.1812e+002  7.0655e+001 30414 106417,106391,106645
 5.3000e+000 106694  3.4811e+001 -2.0224e+002  6.1322e+001 30414 106417,106645,106515
 5.3000e+000 106942 -4.2858e+001 -2.8112e+002 -1.3478e+000 29910 106965,106795,106769
 5.3000e+000 106919 -3.6147e+001 -2.5310e+002  6.9852e+000 29910 106965,106769,106717
 5.3000e+000 106896 -3.9610e+001 -2.1180e+002 -2.7188e+001 29910 106795,106847,106821
 5.3000e+000 106873 -1.8773e+001 -2.1698e+002  1.3694e+001 29910 106717,106769,106743
 5.3000e+000 106991 -5.9447e+001 -2.5055e+002  2.9112e+000 29910 106847,106795,106965
 5.3000e+000 107014 -4.6552e+001 -2.1333e+002  1.1029e+001 29910 106847,106965,106717
 5.3000e+000 107213 -5.8375e+001 -2.1074e+002  1.3298e+001 29413 107236,107063,107037
 5.3000e+000 107190 -5.4097e+001 -2.4891e+002  2.7418e+001 29413 107236,107037,107141
 5.3000e+000 107167 -7.1690e+001 -1.5091e+002  3.3587e+001 29413 107063,107115,107089
 5.3000e+000 107262 -5.5400e+001 -1.8575e+002  8.8777e+000 29413 107115,107063,107236
 5.3000e+000 107285 -4.5505e+001 -2.1421e+002  2.4310e+001 29413 107115,107236,107141
 5.3000e+000 107486 -2.5740e+001 -2.0238e+002  2.7369e+001 29009 107336,107388,107362
 5.3000e+000 107463 -1.2887e+001 -1.9525e+002  7.7543e+000 29009 107310,107388,107336
 5.3000e+000 107440 -1.6766e+001 -1.8464e+002  7.9150e+000 29009 107310,107414,107388
 5.3000e+000 107736 -8.6836e+001 -2.3281e+002 -8.0674e+000 28491 107537,107615,107563
 5.3000e+000 107713 -7.5118e+001 -2.2739e+002 -5.9817e+000 28491 107537,107641,107615
 5.3000e+000 107690 -4.9374e+001 -2.1792e+002  4.8333e+000 28491 107563,107615,107589
 5.3000e+000 107667 -7.7991e+001 -2.2452e+002 -6.2297e+000 28491 107511,107641,107537
 5.3000e+000 108118 -4.9105e+001 -2.2049e+002  8.4641e+000 27980 108141,107922,107844
 5.3000e+000 108095 -3.9277e+001 -2.3543e+002  7.6754e+000 27980 108141,107844,108000
 5.3000e+000 108072 -5.1279e+001 -2.2935e+002 -1.2371e+001 27980 107844,107922,107870
 5.3000e+000 108049 -5.5752e+001 -1.9925e+002 -6.3658e+000 27980 107870,107922,107896
 5.3000e+000 108026 -7.8670e+001 -2.0828e+002  2.5860e+001 27980 107922,107974,107948
 5.3000e+000 108167 -4.1977e+001 -2.2150e+002  1.1842e+001 27980 107974,107922,108141
 5.3000e+000 108190 -1.5419e+001 -2.2105e+002  1.5529e+001 27980 107974,108141,108000
 5.3000e+000 108745 -2.3565e+001 -1.4318e+002 -4.0579e+000 27376 108840,108768,108477
 5.3000e+000 108722 -4.2475e+001 -1.7617e+002 -3.5864e+001 27376 108768,108373,108581
 5.3000e+000 108699 -4.0057e+001 -1.2457e+002  2.5970e+001 27376 108840,108477,108451
 5.3000e+000 108676 -1.0291e+002 -1.5194e+002 -6.8679e+000 27376 108373,108451,108399
 5.3000e+000 108653 -3.9921e+001 -1.7820e+002  2.5606e+001 27376 108503,108581,108529
 5.3000e+000 108630 -4.6043e+001 -1.7403e+002  2.6826e+001 27376 108529,108581,108555
 5.3000e+000 108607 -1.1606e+002 -1.6164e+002  1.2563e+001 27376 108399,108451,108425
 5.3000e+000 108794 -3.9457e+001 -1.9354e+002  5.1584e-001 27376 108503,108477,108768
 5.3000e+000 108817 -5.4641e+000 -1.7641e+002 -6.6613e+000 27376 108503,108768,108581
 5.3000e+000 108866 -8.4631e+001 -1.7746e+002 -1.7636e+001 27376 108373,108768,108840
 5.3000e+000 108889 -8.1695e+001 -1.5238e+002  1.3661e+001 27376 108373,108840,108451
 5.3000e+000 109186 -8.5230e+001 -2.2854e+002  2.4357e+001 26722 109209,108938,108912
 5.3000e+000 109163 -7.8981e+001 -2.1326e+002  2.2244e+001 26722 109281,109209,108912
 5.3000e+000 109140 -7.6311e+001 -2.0738e+002  2.1173e+001 26722 109281,108912,109042
 5.3000e+000 109117 -6.9040e+001 -2.4216e+002  1.0610e+001 26722 108938,108990,108964
 5.3000e+000 109094 -1.0846e+002 -1.8920e+002  1.4301e+001 26722 108912,109068,109042
 5.3000e+000 109235 -7.1122e+001 -2.2007e+002  2.0478e+001 26722 108990,108938,109209
 5.3000e+000 109258 -7.6690e+001 -2.3537e+002  1.8164e+001 26722 108990,109209,109016
 5.3000e+000 109307 -7.0404e+001 -2.2237e+002  1.1492e+001 26722 109016,109209,109281
 5.3000e+000 109330 -6.5256e+001 -2.1240e+002  9.2355e+000 26722 109016,109281,109042
 5.3000e+000 109732 -8.8283e+001 -1.8950e+002 -4.5065e+000 26310 109458,109588,109484
 5.3000e+000 109709 -8.3153e+001 -2.1382e+002 -2.2103e+001 26310 109458,109614,109588
 5.3000e+000 109686 -1.2892e+002 -2.1962e+002  3.1462e+001 26310 109510,109562,109536
 5.3000e+000 109663 -1.2995e+002 -2.0809e+002  1.2521e+001 26310 109484,109562,109510
 5.3000e+000 109640 -9.3040e+001 -1.9292e+002 -1.7913e+000 26310 109484,109588,109562
 5.3000e+000 110159 -5.3440e+001 -1.9080e+002 -5.7734e+000 25642 110182,109940,109914
 5.3000e+000 110136 -4.8033e+001 -2.2064e+002  2.7790e+001 25642 110182,109914,109888
 5.3000e+000 110113 -6.8104e+001 -2.3531e+002 -3.0509e+001 25642 109966,110018,109992
 5.3000e+000 110090 -7.5378e+001 -2.2774e+002  1.7683e+001 25642 110254,109966,109940
 5.3000e+000 110067 -1.0124e+002 -2.1550e+002  1.3218e+001 25642 109862,110018,109888
 5.3000e+000 110044 -9.5166e+001 -1.7916e+002  3.1201e+001 25642 109836,110018,109862
 5.3000e+000 110208 -7.3848e+001 -2.0902e+002  1.3278e+001 25642 110254,109940,110182
 5.3000e+000 110231 -8.1447e+001 -2.2306e+002  3.0517e+001 25642 110018,110182,109888
 5.3000e+000 110280 -6.5403e+001 -2.5131e+002  1.4338e+001 25642 110018,109966,110254
 5.3000e+000 110303 -6.7909e+001 -2.3744e+002  1.0643e+001 25642 110018,110254,110182
 5.3000e+000 110632 -9.9253e+001 -1.9716e+002 -1.1467e+001 25188 110407,110485,110433
 5.3000e+000 110609 -1.1559e+002 -1.9969e+002 -6.8282e+000 25188 110407,110537,110485
 5.3000e+000 110586 -1.1123e+002 -2.0430e+002 -3.8129e+001 25188 110433,110485,110459
 5.3000e+000 110563 -1.0932e+002 -2.1533e+002  2.1608e+001 25188 110485,110537,110511
 5.3000e+000 110831 -1.7481e+001 -1.8869e+002  5.6288e+000 24726 110854,110707,110655
 5.3000e+000 110808 -7.6286e+000 -2.0386e+002  2.0961e+001 24726 110854,110655,110759
 5.3000e+000 110785 -2.5247e+001 -1.9522e+002  1.0290e+001 24726 110655,110707,110681
 5.3000e+000 110880 -9.8128e+000 -1.7416e+002  8.4506e+000 24726 110733,110707,110854
 5.3000e+000 110903  3.5828e+000 -1.8196e+002  2.4886e+001 24726 110733,110854,110759
 5.3000e+000 111234 -5.3040e+000 -1.3743e+002 -3.7634e+000 24222 111257,111087,111035
 5.3000e+000 111211  1.7770e+001 -1.2705e+002  1.5319e+001 24222 111257,111035,111009
 5.3000e+000 111188 -2.2497e+001 -7.0882e+001 -3.1494e+001 24222 111035,111087,111061
 5.3000e+000 111165 -2.2409e+001 -1.1333e+002  3.9341e+000 24222 111087,111139,111113
 5.3000e+000 111283 -1.9734e+001 -1.1363e+002  6.8103e+000 24222 111139,111087,111257
 5.3000e+000 111306 -9.7338e+000 -9.6849e+001  1.9084e+001 24222 111139,111257,111009
 5.3000e+000 111625 -2.5550e+001 -1.9037e+002 -1.0408e+001 23732 111648,111481,111455
 5.3000e+000 111602 -2.5799e+001 -1.9148e+002 -1.0379e+001 23732 111648,111455,111377
 5.3000e+000 111579  2.9617e+001 -9.3647e+001  2.0965e+001 23732 111377,111429,111403
 5.3000e+000 111556 -8.1793e+000 -1.9140e+002 -5.5272e+000 23732 111377,111455,111429
 5.3000e+000 111533 -1.7128e+001 -1.7300e+002 -4.1409e+000 23732 111351,111507,111377
 5.3000e+000 111674 -2.5636e+001 -1.8844e+002 -9.1073e+000 23732 111507,111481,111648
 5.3000e+000 111697 -2.6616e+001 -1.9078e+002 -9.1780e+000 23732 111507,111648,111377
 5.3000e+000 112156 -5.2872e+001 -2.2602e+002  1.7020e+001 23278 112179,111908,111882
 5.3000e+000 112133 -4.9427e+001 -2.0909e+002  9.2183e+000 23278 112179,111882,112012
 5.3000e+000 112110 -1.5689e+001 -2.4504e+002  1.1617e+000 23278 111908,111960,111934
 5.3000e+000 112087 -2.0577e+001 -1.8353e+002 -2.5067e+000 23278 111882,112038,112012
 5.3000e+000 112064 -4.4297e+001 -1.8838e+002 -2.8606e+000 23278 111960,112012,111986
 5.3000e+000 112205 -5.0227e+001 -2.1796e+002  3.1456e+000 23278 111960,111908,112179
 5.3000e+000 112228 -4.1876e+001 -1.9885e+002 -5.7513e+000 23278 111960,112179,112012
 5.3000e+000 112685 -1.3839e+002 -3.1049e+002 -2.9635e+001 22938 112489,112567,112541
 5.3000e+000 112662 -1.1892e+002 -2.6690e+002 -2.5895e+001 22938 112437,112567,112489
 5.3000e+000 112639 -8.0588e+001 -2.3164e+002 -3.1398e+000 22938 112489,112541,112515
 5.3000e+000 112616 -1.3434e+002 -2.5521e+002 -2.2822e+001 22938 112411,112567,112437
 5.3000e+000 112593 -1.0584e+002 -3.3690e+002 -6.2091e+000 22938 112437,112489,112463
 5.3000e+000 113191 -9.1119e+000 -2.2294e+002 -2.8000e+001 22534 113214,112998,112946
 5.3000e+000 113168 -4.1562e+001 -1.9770e+002 -1.4381e+001 22534 113286,113214,112946
 5.3000e+000 113145 -3.1371e+001 -1.9810e+002 -1.2016e+001 22534 113286,112946,112920
 5.3000e+000 113122 -8.9533e+001 -1.8149e+002 -3.9822e+001 22534 113358,113024,112998
 5.3000e+000 113099 -5.7177e+001 -1.9167e+002 -7.8010e+000 22534 112868,113050,112894
 5.3000e+000 113076 -6.3494e+001 -3.2374e+002 -5.3826e+001 22534 112946,112998,112972
 5.3000e+000 113240 -6.6187e+001 -2.2907e+002 -4.2154e+001 22534 113358,112998,113214
 5.3000e+000 113263 -5.4372e+001 -2.0738e+002 -9.3376e+000 22534 113050,113214,112894
 5.3000e+000 113312 -2.8254e+001 -1.9594e+002 -1.1427e+001 22534 112894,113214,113286
 5.3000e+000 113335 -1.7471e+001 -1.9687e+002 -1.0936e+001 22534 112894,113286,112920
 5.3000e+000 113384 -6.3517e+001 -1.3776e+002 -2.8957e+001 22534 113050,113024,113358
 5.3000e+000 113407 -2.9936e+001 -1.7721e+002 -2.6091e+001 22534 113050,113358,113214
 5.3000e+000 113785 -1.0027e+002 -2.6343e+002  6.0137e+000 21978 113808,113615,113511
 5.3000e+000 113762 -8.0260e+001 -2.6652e+002  1.7946e+001 21978 113808,113511,113667
 5.3000e+000 113739 -5.9008e+001 -2.2625e+002 -1.0632e+001 21978 113511,113615,113537
 5.3000e+000 113716  2.9237e+001 -2.0180e+002 -2.2637e+001 21978 113537,113615,113589
 5.3000e+000 113693 -2.7318e+001 -2.9098e+002  4.0506e+000 21978 113537,113589,113563
 5.3000e+000 113834 -1.0388e+002 -2.6355e+002  3.1508e+001 21978 113641,113615,113808
 5.3000e+000 113857 -5.1381e+001 -2.4324e+002  4.5742e+001 21978 113641,113808,113667
 5.3000e+000 114284 -7.2366e+001 -2.1982e+002  4.7667e+000 21517 114013,114117,114039
 5.3000e+000 114261 -8.2800e+001 -2.1899e+002  1.7448e+001 21517 113961,114117,114013
 5.3000e+000 114238 -7.9882e+001 -2.2142e+002  1.7951e+001 21517 113961,114013,113987
 5.3000e+000 114215 -1.1991e+002 -2.5172e+002 -1.8026e+001 21517 114039,114117,114091
 5.3000e+000 114192 -8.4106e+001 -1.8380e+002  2.0980e+001 21517 113961,114143,114117
 5.3000e+000 114169 -1.7665e+001 -2.1580e+002 -1.9140e+001 21517 114039,114091,114065
 5.3000e+000 114581 -3.7306e+001 -2.5696e+002  3.5631e+000 21027 114359,114463,114437
 5.3000e+000 114558 -1.5836e+001 -2.3205e+002  3.1685e+001 21027 114333,114463,114359
 5.3000e+000 114535 -1.1265e+001 -2.3164e+002 -6.7212e+000 21027 114359,114437,114385
 5.3000e+000 114512 -8.7510e+000 -2.3029e+002  2.7880e+001 21027 114307,114463,114333
 5.3000e+000 114489  4.5051e+001 -2.1648e+002 -1.0569e+001 21027 114385,114437,114411
 5.3000e+000 114912 -9.9263e+001 -2.2526e+002  3.2041e+000 20623 114713,114791,114765
 5.3000e+000 114889 -6.9607e+001 -2.1310e+002 -1.5841e+001 20623 114687,114791,114713
 5.3000e+000 114866 -4.6392e+001 -2.3523e+002 -1.8504e+001 20623 114687,114817,114791
 5.3000e+000 114843 -1.4865e+002 -2.7709e+002  2.4287e+001 20623 114713,114765,114739
 5.3000e+000 115290 -2.6444e+001 -2.0263e+002  1.0870e+001 20375 115313,115146,115094
 5.3000e+000 115267 -4.4127e+001 -1.9274e+002  2.0494e+001 20375 115313,115094,115042
 5.3000e+000 115244 -5.7489e+001 -1.8547e+002  6.0506e+000 20375 115385,115016,115172
 5.3000e+000 115221 -1.9198e+001 -1.8039e+002  1.6469e+001 20375 115042,115094,115068
 5.3000e+000 115198 -4.1493e+001 -2.4124e+002  1.2730e+001 20375 115094,115146,115120
 5.3000e+000 115339 -6.3143e+001 -2.4064e+002 -8.2466e+000 20375 115172,115146,115313
 5.3000e+000 115362 -3.3733e+001 -1.9159e+002  7.3063e+000 20375 115385,115172,115313
 5.3000e+000 115411 -7.0792e+001 -1.9240e+002  8.5450e+000 20375 115042,115016,115385
 5.3000e+000 115434 -5.9314e+001 -2.0663e+002  1.3558e+001 20375 115042,115385,115313
 5.3000e+000 115891 -1.0513e+002 -2.0708e+002  2.5421e+001 19971 115617,115747,115643
 5.3000e+000 115868 -9.1060e+001 -1.7359e+002  2.5347e+001 19971 115617,115773,115747
 5.3000e+000 115845 -6.7773e+001 -3.1726e+002  4.3469e+000 19971 115643,115721,115695
 5.3000e+000 115822 -2.7121e+000 -1.5791e+002 -7.3114e-001 19971 115643,115747,115721
 5.3000e+000 115799 -5.6348e+001 -3.8752e+002 -2.9908e+001 19971 115643,115695,115669
 5.3000e+000 115992 -1.5408e+002 -3.9554e+002 -6.8257e+001 19659 115914,115966,115940
 5.3000e+000 116142 -2.4261e+001 -8.9110e+001  2.3948e+000 18997 116041,116093,116067
 5.3000e+000 116119 -4.8997e+001 -1.5288e+002  9.4587e+000 18997 116015,116093,116041
 5.3000e+000 116343 -4.1281e+001 -2.3570e+002 -6.6497e+000 18707 116193,116245,116219
 5.3000e+000 116320 -9.1853e+001 -2.5730e+002 -1.0321e+001 18707 116193,116271,116245
 5.3000e+000 116297 -8.4345e+001 -2.3078e+002 -1.8247e+001 18707 116167,116271,116193
 5.3000e+000 116747 -3.7722e+001 -2.1387e+002 -4.1551e+000 18301 116525,116629,116551
 5.3000e+000 116724 -2.1168e+001 -1.8172e+002  4.9469e+000 18301 116473,116629,116525
 5.3000e+000 116701 -1.3908e+001 -1.7711e+002 -9.8961e+000 18301 116473,116525,116499
 5.3000e+000 116678 -3.1555e+001 -2.2234e+002 -2.9259e+000 18301 116551,116603,116577
 5.3000e+000 116655 -4.4899e+001 -2.3072e+002 -6.7747e+000 18301 116551,116629,116603
 5.3000e+000 117147 -1.0420e+002 -2.4142e+002  1.2302e+000 17747 116899,117029,116925
 5.3000e+000 117124 -5.5255e+001 -1.7617e+002  2.6419e+001 17747 116873,117029,116899
 5.3000e+000 117101 -1.0358e+002 -2.4088e+002  1.5299e+000 17747 116925,117029,116951
 5.3000e+000 117078 -8.7917e+001 -2.0335e+002  3.6410e-001 17747 116951,117029,117003
 5.3000e+000 117055 -1.2074e+002 -2.7516e+002 -1.8049e+001 17747 116951,117003,116977
 5.3000e+000 117368  1.6053e+001 -2.3571e+002  5.7352e+000 17293 117244,117296,117270
 5.3000e+000 117345 -1.6024e+001 -2.4442e+002 -3.1601e+000 17293 117192,117296,117244
 5.3000e+000 117322 -4.1750e+001 -2.2888e+002 -2.5813e+000 17293 117192,117244,117218
 5.3000e+000 117699 -2.2574e+001 -1.9108e+002 -2.1797e+001 16896 117526,117604,117552
 5.3000e+000 117676 -1.2485e+002 -2.9225e+002  1.8953e+001 16896 117500,117604,117526
 5.3000e+000 117653 -1.3290e+002 -2.3076e+002 -1.1426e+001 16896 117552,117604,117578
 5.3000e+000 117630 -1.1609e+002 -3.7913e+002  3.1355e+001 16896 117474,117604,117500
 5.3000e+000 117849 -2.6595e+002 -5.1506e+002 -1.9565e+001 16534 117722,117774,117748
 5.3000e+000 117826 -2.0916e+002 -6.2520e+002 -8.4962e+001 16534 117722,117800,117774
 5.3000e+000 118070 -2.1729e-001 -2.4253e+002  3.0339e+001 16194 117946,117998,117972
 5.3000e+000 118047 -3.8677e+001 -2.7318e+002  1.2039e+001 16194 117894,117998,117946
 5.3000e+000 118024 -1.3892e+002 -2.8050e+002 -2.8381e-002 16194 117894,117946,117920
 5.3000e+000 118173 -1.4454e+001 -2.2728e+002  0.0000e+000 15968 118095,118147,118121
 5.3000e+000 118276 -6.8078e+001 -2.5344e+002  6.3466e-001 15433 118299,118198,118250
 5.3000e+000 118325 -6.8725e+001 -2.5495e+002  6.4952e-001 15433 118224,118198,118299
 5.3000e+000 118450 -1.2146e+002 -2.6719e+002  2.6001e+001 421 118372,118424,118398
 5.4000e+000 69891 -5.0831e+001 -2.6291e+002  9.9917e+000 68988 69447,69681,69629
 5.4000e+000 69868  1.3882e+001 -2.3575e+002  7.0633e+000 68988 69421,69681,69447
 5.4000e+000 69845 -6.2156e+000 -1.3300e+002  1.5568e+000 68988 69447,69629,69577
 5.4000e+000 69822 -8.1467e+001 -2.7225e+002 -2.9177e+001 68988 69447,69577,69473
 5.4000e+000 69799 -1.5695e+001 -3.1549e+002  5.2945e+001 68988 69629,69681,69655
 5.4000e+000 69776 -8.8029e+001 -1.6832e+002  4.4605e+000 68988 69577,69629,69603
 5.4000e+000 69753 -6.4981e+001 -2.4418e+002 -3.7305e+001 68988 69473,69577,69551
 5.4000e+000 69730 -9.0340e+001 -4.7777e+002 -4.5966e+001 68988 69473,69551,69525
 5.4000e+000 69707 -1.4578e+002 -3.1894e+002  7.7600e-001 68988 69473,69525,69499
 5.4000e+000 69992 -1.5889e+002 -2.8959e+002 -4.0905e+001 68676 69914,69966,69940
 5.4000e+000 70392 -1.2211e+002 -2.4245e+002  1.9875e+001 68478 70118,70248,70144
 5.4000e+000 70369 -7.3660e+000 -2.5221e+002  5.1607e+001 68478 70118,70274,70248
 5.4000e+000 70346 -7.3350e+001 -1.8242e+002 -3.0979e-001 68478 70144,70222,70196
 5.4000e+000 70323 -6.1138e+001 -1.5065e+002 -8.0288e+000 68478 70144,70248,70222
 5.4000e+000 70300 -7.7916e+001 -1.9841e+002 -2.7174e+000 68478 70144,70196,70170
 5.4000e+000 70841  3.1002e+001 -1.6965e+002 -4.3821e+001 68280 70570,70622,70596
 5.4000e+000 70818 -8.7469e+001 -1.9100e+002 -1.0538e+001 68280 70544,70622,70570
 5.4000e+000 70795 -6.6206e+001 -1.4335e+002 -6.2053e+000 68280 70544,70674,70622
 5.4000e+000 70772 -5.7837e+001 -1.2873e+002  2.0762e+000 68280 70622,70674,70648
 5.4000e+000 70749 -9.2005e+001 -2.1324e+002  1.5593e+001 68280 70518,70674,70544
 5.4000e+000 70726  6.0473e+001 -2.2546e+002  6.0009e+001 68280 70518,70700,70674
 5.4000e+000 70991 -9.9207e+000 -8.7616e+002  2.6499e+001 67968 70864,70916,70890
 5.4000e+000 70968 -2.3325e+002 -8.7035e+002  1.0201e+002 67968 70864,70942,70916
 5.4000e+000 71141 -3.9882e+002 -7.6204e+002 -3.6163e+001 67770 71040,71092,71066
 5.4000e+000 71118 -3.4614e+002 -9.1645e+002  4.0112e+001 67770 71014,71092,71040
 5.4000e+000 71651 -6.0947e+001 -1.7352e+002 -2.6800e+001 67366 71746,71674,71458
 5.4000e+000 71628 -4.1174e+001 -1.3994e+002 -2.9892e+001 67366 71674,71354,71510
 5.4000e+000 71605 -5.6156e+001 -1.9219e+002 -2.4606e+001 67366 71746,71458,71432
 5.4000e+000 71582 -8.6602e+001 -1.9597e+002  1.0256e+001 67366 71354,71432,71380
 5.4000e+000 71559 -9.0672e+001 -1.4631e+002 -1.3675e+001 67366 71380,71432,71406
 5.4000e+000 71536 -4.4685e+001 -6.1116e+001 -2.4786e+000 67366 71328,71510,71354
 5.4000e+000 71700 -6.6044e+001 -1.5666e+002 -1.2510e+001 67366 71484,71458,71674
 5.4000e+000 71723 -4.8432e+001 -1.4859e+002 -1.0170e+001 67366 71484,71674,71510
 5.4000e+000 71772 -5.5274e+001 -1.5138e+002 -2.3606e+001 67366 71354,71674,71746
 5.4000e+000 71795 -4.9085e+001 -1.6741e+002 -2.3826e+001 67366 71354,71746,71432
 5.4000e+000 71896 -1.4688e+002 -3.1591e+002  0.0000e+000 67146 71818,71870,71844
 5.4000e+000 71997 -1.7359e+002 -2.8849e+002  5.8237e+001 66948 71919,71971,71945
 5.4000e+000 72149 -2.3392e+001 -1.9922e+002 -2.3218e+001 66700 72172,72074,72048
 5.4000e+000 72126 -7.9925e+001 -2.2505e+002 -9.0341e+000 66700 72172,72048,72022
 5.4000e+000 72198 -1.1936e+002 -2.4379e+002  1.4767e+001 66700 72244,72172,72100
 5.4000e+000 72221 -1.0640e+002 -2.2353e+002 -1.2482e+001 66700 72100,72172,72022
 5.4000e+000 72270 -6.9806e+001 -1.3479e+002 -1.5897e+001 66700 72074,72172,72244
 5.4000e+000 72623 -8.4839e+001 -2.1296e+002  4.6733e+000 66502 72424,72502,72450
 5.4000e+000 72600 -7.2581e+001 -1.8095e+002  3.8645e+000 66502 72398,72502,72424
 5.4000e+000 72577 -6.0434e+001 -2.0290e+002 -2.8632e+000 66502 72398,72528,72502
 5.4000e+000 72554 -8.6512e+001 -1.9193e+002 -1.3324e+000 66502 72450,72502,72476
 5.4000e+000 72920 -1.2907e+002 -2.6302e+002  6.6526e+000 65941 72672,72776,72750
 5.4000e+000 72897 -1.2614e+002 -2.2655e+002  2.4993e+001 65941 72646,72776,72672
 5.4000e+000 72874 -1.1421e+002 -2.5884e+002  8.6114e+000 65941 72672,72750,72724
 5.4000e+000 72851 -1.1502e+002 -2.0741e+002  1.8496e+001 65941 72672,72724,72698
 5.4000e+000 72828 -9.6308e+001 -2.2352e+002  2.2216e+001 65941 72646,72802,72776
 5.4000e+000 73241 -4.2725e+001 -1.8688e+002  9.5843e+000 65743 73264,73071,73045
 5.4000e+000 73218 -8.4977e+001 -2.0939e+002  1.8348e+001 65743 73480,73264,73045
 5.4000e+000 73195 -6.8967e+001 -1.8677e+002 -2.1730e+000 65743 73336,72967,73097
 5.4000e+000 73172 -1.1097e+002 -1.7238e+002 -1.6797e+001 65743 73408,72993,72967
 5.4000e+000 73149 -6.4124e+001 -1.8845e+002 -2.9236e+000 65743 72967,73123,73097
 5.4000e+000 73290 -5.6130e+001 -1.9260e+002  2.5333e+000 65743 73097,73071,73264
 5.4000e+000 73313 -6.1668e+001 -1.7959e+002  5.9799e+000 65743 73336,73097,73264
 5.4000e+000 73362 -9.6637e+001 -1.9184e+002 -1.0956e+001 65743 73408,72967,73336
 5.4000e+000 73385 -5.2068e+001 -1.7666e+002 -7.9214e-002 65743 73019,73336,73264
 5.4000e+000 73434 -8.6938e+001 -1.3536e+002  9.3089e+000 65743 73019,72993,73408
 5.4000e+000 73457 -5.4092e+001 -1.6166e+002  6.9028e+000 65743 73019,73408,73336
 5.4000e+000 73506 -4.0142e+001 -1.3110e+002  2.7163e-001 65743 73019,73264,73480
 5.4000e+000 73989 -1.3633e+001 -1.5352e+002  1.7896e+001 65453 73793,73845,73819
 5.4000e+000 73966 -8.3872e+001 -1.7202e+002  2.0636e+001 65453 73741,73845,73793
 5.4000e+000 73943 -2.5989e+001 -1.4021e+002  8.3183e+000 65453 73715,73845,73741
 5.4000e+000 73920 -6.7238e+001 -1.8553e+002  3.4859e+001 65453 73741,73793,73767
 5.4000e+000 73897 -2.2519e-002 -8.8353e+001 -3.8031e-001 65453 73715,73871,73845
 5.4000e+000 74357 -4.6081e+001 -1.7944e+002 -4.9166e+001 65141 74380,74138,74086
 5.4000e+000 74334 -8.3185e+001 -2.3989e+002 -3.2468e+001 65141 74380,74086,74060
 5.4000e+000 74311 -9.2596e+001 -2.3334e+002 -9.6226e+000 65141 74138,74190,74164
 5.4000e+000 74288 -7.6970e+001 -2.6014e+002 -1.0437e+001 65141 74060,74216,74190
 5.4000e+000 74265 -8.1031e+001 -2.7360e+002  3.6798e+000 65141 74034,74216,74060
 5.4000e+000 74242 -5.1920e+001 -1.2772e+002 -2.5536e+001 65141 74086,74138,74112
 5.4000e+000 74406 -6.9930e+001 -2.3331e+002 -2.0002e+001 65141 74190,74138,74380
 5.4000e+000 74429 -8.1240e+001 -2.5410e+002 -9.0217e+000 65141 74190,74380,74060
 5.4000e+000 74937 -9.6547e+001 -1.9342e+002 -4.5560e+001 64737 74614,74666,74640
 5.4000e+000 74914 -1.1947e+002 -2.3092e+002 -3.3828e+001 64737 74614,74796,74666
 5.4000e+000 74891 -8.6824e+001 -1.5986e+002 -4.6314e+000 64737 74960,74718,74666
 5.4000e+000 74868 -7.9041e+001 -1.7650e+002 -1.9969e+001 64737 74960,74666,74770
 5.4000e+000 74845 -8.2056e+001 -1.4803e+002 -2.1622e+001 64737 74666,74796,74770
 5.4000e+000 74822 -8.2545e+001 -1.7289e+002  3.8100e+000 64737 74666,74718,74692
 5.4000e+000 74986 -9.1449e+001 -1.7694e+002 -6.7481e+000 64737 74744,74718,74960
 5.4000e+000 75009 -8.9592e+001 -2.0250e+002 -2.2888e+001 64737 74744,74960,74770
 5.4000e+000 75306 -4.7054e+001 -1.6838e+002  2.6043e+001 64133 75329,75110,75084
 5.4000e+000 75283 -6.1035e+001 -2.0092e+002  7.5788e+000 64133 75401,75329,75084
 5.4000e+000 75260 -5.9301e+001 -2.0615e+002  9.3046e+000 64133 75401,75084,75058
 5.4000e+000 75237 -5.9809e+001 -2.4168e+002  3.1976e+001 64133 75473,75136,75110
 5.4000e+000 75214 -5.9153e+001 -1.8702e+002  2.5303e+000 64133 75032,75188,75162
 5.4000e+000 75355 -7.0328e+001 -2.2317e+002  2.4421e+001 64133 75473,75110,75329
 5.4000e+000 75378 -5.2601e+001 -1.9194e+002  2.7320e+000 64133 75162,75329,75032
 5.4000e+000 75427 -4.9956e+001 -1.8530e+002  1.4282e+000 64133 75032,75329,75401
 5.4000e+000 75450 -9.4378e+001 -2.2828e+002  2.4190e+001 64133 75545,75401,75058
 5.4000e+000 75499 -5.0999e+001 -2.1855e+002  1.0533e+001 64133 75162,75136,75473
 5.4000e+000 75522 -6.0407e+001 -1.8794e+002  8.4665e+000 64133 75162,75473,75329
 5.4000e+000 75571 -4.8813e+001 -1.2886e+002  6.3789e+000 64133 75032,75401,75545
 5.4000e+000 75851 -8.0240e+001 -1.8385e+002  4.3228e+000 63843 75874,75753,75727
 5.4000e+000 75828 -6.9949e+001 -1.7887e+002 -7.9025e+000 63843 75946,75874,75727
 5.4000e+000 75805 -7.8946e+001 -1.8806e+002 -3.8340e+000 63843 76018,75946,75727
 5.4000e+000 75900 -6.5309e+001 -1.7758e+002 -6.6192e+000 63843 75779,75753,75874
 5.4000e+000 75923 -6.6885e+001 -1.5164e+002 -2.0256e+001 63843 75779,75874,75675
 5.4000e+000 75972 -7.9248e+001 -1.7261e+002 -7.0862e+000 63843 75675,75874,75946
 5.4000e+000 75995 -7.3566e+001 -1.7736e+002 -1.1554e+001 63843 75675,75946,75701
 5.4000e+000 76044 -8.0232e+001 -1.8337e+002 -1.4587e+001 63843 75701,75946,76018
 5.4000e+000 76454  1.0941e+001 -3.3640e+001 -1.9425e+001 63439 76477,76255,76229
 5.4000e+000 76431 -1.8223e+001 -8.2867e+001 -2.6005e-001 63439 76477,76229,76359
 5.4000e+000 76408 -2.4672e+001 -6.3911e+001  3.7130e+001 63439 76307,76359,76333
 5.4000e+000 76385 -1.5347e+001 -8.8537e+001  4.6531e+000 63439 76255,76307,76281
 5.4000e+000 76503 -1.9326e+001 -7.2392e+001  9.8800e+000 63439 76307,76255,76477
 5.4000e+000 76526 -1.8144e+001 -9.1602e+001  2.3728e+001 63439 76307,76477,76359
 5.4000e+000 76926 -4.2424e+001 -1.2516e+002 -9.1907e-001 63049 76704,76782,76756
 5.4000e+000 76903 -5.8726e+001 -1.2920e+002 -1.2180e+001 63049 76704,76808,76782
 5.4000e+000 76880 -4.1483e+001 -1.4109e+002  2.1314e+000 63049 76704,76756,76730
 5.4000e+000 76857 -3.4880e+001 -8.2173e+001  6.2304e+000 63049 76678,76808,76704
 5.4000e+000 76834 -1.5233e+001 -1.8734e+001 -1.8119e+001 63049 76652,76808,76678
 5.4000e+000 77076 -1.9464e+001 -2.1763e+002 -1.3016e+000 62737 76975,77027,77001
 5.4000e+000 77053 -1.7802e+001 -2.4331e+002 -1.4966e+001 62737 76949,77027,76975
 5.4000e+000 77324 -8.9734e+001 -2.1116e+002 -2.6355e+000 62277 77347,77177,77125
 5.4000e+000 77301 -9.0147e+001 -2.0539e+002 -1.1986e+001 62277 77347,77125,77229
 5.4000e+000 77278 -8.7486e+001 -2.1404e+002 -1.7444e+001 62277 77099,77229,77125
 5.4000e+000 77255 -9.5215e+001 -2.5060e+002  2.1869e+000 62277 77125,77177,77151
 5.4000e+000 77373 -9.4912e+001 -2.2834e+002  2.8476e+000 62277 77203,77177,77347
 5.4000e+000 77396 -8.6217e+001 -2.1344e+002 -7.9431e+000 62277 77203,77347,77229
 5.4000e+000 77857 -4.9845e+001 -2.6966e+002  3.3084e+000 61758 77635,77739,77661
 5.4000e+000 77834 -7.3088e+001 -2.6183e+002 -9.4099e+000 61758 77583,77739,77635
 5.4000e+000 77811 -8.3616e+001 -3.2875e+002 -3.1971e+001 61758 77583,77635,77609
 5.4000e+000 77788 -6.7330e+001 -2.5838e+002  2.0235e+001 61758 77661,77713,77687
 5.4000e+000 77765 -7.1351e+001 -2.9450e+002  1.9461e+001 61758 77661,77739,77713
 5.4000e+000 78491 -7.6266e+001 -1.4580e+002  7.9871e+000 61418 78171,78301,78249
 5.4000e+000 78468 -5.9872e+001 -1.1971e+002  1.8427e+001 61418 78145,78301,78171
 5.4000e+000 78445 -5.7312e+001 -1.2968e+002 -5.8347e+000 61418 78171,78249,78223
 5.4000e+000 78422 -5.7726e+001 -1.1838e+002  6.5709e+000 61418 78145,78327,78301
 5.4000e+000 78399 -7.9793e+001 -1.6539e+002 -1.6045e+000 61418 78249,78301,78275
 5.4000e+000 78376 -3.4410e+001 -1.4038e+002 -9.6566e+000 61418 78171,78223,78197
 5.4000e+000 78353 -6.8020e+001 -1.5706e+002 -3.6720e+000 61418 78119,78327,78145
 5.4000e+000 78690 -6.9747e+001 -1.6455e+002  2.8049e-001 61014 78713,78566,78540
 5.4000e+000 78667 -5.0375e+001 -1.6997e+002  3.0256e+000 61014 78713,78540,78618
 5.4000e+000 78644 -7.9612e+001 -1.9236e+002 -1.8283e+001 61014 78514,78618,78540
 5.4000e+000 78739 -3.8636e+001 -1.5942e+002  1.7314e+001 61014 78592,78566,78713
 5.4000e+000 78762 -5.2305e+001 -1.7733e+002  2.1182e+000 61014 78785,78713,78618
 5.4000e+000 78811 -1.5066e+001 -1.6296e+002 -2.4301e+000 61014 78592,78713,78785
 5.4000e+000 79398 -3.2778e+001 -1.5198e+002 -1.4187e+001 60624 79101,79179,79153
 5.4000e+000 79375 -4.2788e+001 -1.6754e+002 -7.5786e+000 60624 79101,79231,79179
 5.4000e+000 79352 -3.3397e+001 -1.6600e+002 -1.0606e+001 60624 79075,79231,79101
 5.4000e+000 79329 -1.0559e+001 -1.9628e+002  2.0467e+001 60624 79075,79257,79231
 5.4000e+000 79306 -3.1734e+001 -1.2835e+002 -2.3895e+001 60624 79179,79231,79205
 5.4000e+000 79283 -2.5550e+001 -1.3577e+002 -9.5258e+000 60624 79101,79153,79127
 5.4000e+000 79776 -8.7687e+001 -2.2685e+002  1.8062e+001 60070 79528,79658,79606
 5.4000e+000 79753 -8.0891e+001 -1.8534e+002 -1.0306e+000 60070 79502,79658,79528
 5.4000e+000 79730 -1.0769e+002 -2.1741e+002  2.8703e+001 60070 79528,79606,79580
 5.4000e+000 79707 -3.7451e+001 -2.0073e+002  4.3335e+000 60070 79606,79658,79632
 5.4000e+000 79684 -8.5454e+000 -1.3354e+002 -3.4270e+001 60070 79528,79580,79554
 5.4000e+000 80105 -6.4647e+001 -1.7692e+002  2.1168e+001 59758 80128,79958,79906
 5.4000e+000 80082 -6.5696e+001 -1.6681e+002  1.5994e+001 59758 80128,79906,80010
 5.4000e+000 80059 -8.9719e+001 -1.8634e+002  5.8735e+001 59758 79906,79958,79932
 5.4000e+000 80036 -9.4760e+001 -1.8920e+002  6.2224e+000 59758 79880,80010,79906
 5.4000e+000 80154 -6.5268e+001 -1.8351e+002  2.2076e+001 59758 79984,79958,80128
 5.4000e+000 80177 -6.8278e+001 -1.7600e+002  1.7095e+001 59758 79984,80128,80010
 5.4000e+000 80376 -4.7285e+001 -1.5686e+002  3.1523e+000 59312 80226,80304,80252
 5.4000e+000 80353 -4.6593e+001 -1.6233e+002  2.9954e+000 59312 80200,80304,80226
 5.4000e+000 80330 -7.2483e+001 -1.4337e+002  4.2510e+001 59312 80252,80304,80278
 5.4000e+000 80805 -6.4077e+001 -1.4610e+002 -2.2749e+001 58908 80900,80828,80638
 5.4000e+000 80782 -5.1696e+001 -1.7228e+002 -3.4494e+001 58908 80828,80560,80508
 5.4000e+000 80759 -6.7623e+001 -1.3740e+002 -8.2013e+000 58908 80900,80638,80612
 5.4000e+000 80736 -2.8171e+001 -1.4855e+002  6.0486e+001 58908 80482,80664,80508
 5.4000e+000 80713 -4.4864e+001 -1.2720e+002 -5.0418e+000 58908 80560,80612,80586
 5.4000e+000 80690 -6.1388e+001 -4.3964e+002 -8.2475e+001 58908 80508,80560,80534
 5.4000e+000 80854 -2.9782e+001 -1.5735e+002  4.8598e-002 58908 80664,80638,80828
 5.4000e+000 80877 -5.0829e+001 -2.2747e+002  3.7660e+000 58908 80664,80828,80508
 5.4000e+000 80926 -5.3784e+001 -1.1993e+002 -2.5219e+001 58908 80560,80828,80900
 5.4000e+000 80949 -6.1337e+001 -1.2022e+002 -8.6193e+000 58908 80560,80900,80612
 5.4000e+000 81246 -2.7450e+001 -1.4123e+002 -3.4651e+000 58482 81076,81128,81102
 5.4000e+000 81223 -6.6987e+001 -2.4167e+002 -2.3933e+001 58482 80972,81128,81076
 5.4000e+000 81200 -4.3227e+001 -1.6506e+002 -2.6045e+001 58482 80972,81076,81050
 5.4000e+000 81177 -9.3791e+001 -2.4709e+002 -8.4602e+000 58482 80998,81050,81024
 5.4000e+000 81154 -5.3147e+001 -2.0414e+002 -2.5494e+001 58482 80972,81050,80998
 5.4000e+000 81754 -7.1810e+001 -1.4543e+002  9.8802e+000 57828 81457,81613,81483
 5.4000e+000 81731 -8.1341e+001 -1.6374e+002  4.4612e+000 57828 81431,81613,81457
 5.4000e+000 81708 -7.7670e+001 -1.5911e+002  1.1261e+001 57828 81483,81613,81509
 5.4000e+000 81685 -9.2505e+001 -1.8025e+002  1.7780e+001 57828 81509,81613,81587
 5.4000e+000 81662 -9.7840e+001 -2.6637e+002  3.6765e+001 57828 81509,81587,81535
 5.4000e+000 81639 -5.6914e+001 -2.4982e+002  2.2665e+001 57828 81535,81587,81561
 5.4000e+000 82002 -1.0681e+002 -2.5990e+002 -6.4459e-001 57374 82025,81855,81829
 5.4000e+000 81979 -1.1371e+002 -2.4370e+002  1.2652e+001 57374 82025,81829,81907
 5.4000e+000 81956 -1.1829e+002 -2.2665e+002  7.5859e+000 57374 81803,81907,81829
 5.4000e+000 81933 -6.3751e+001 -2.0329e+002  1.3220e+001 57374 81777,81907,81803
 5.4000e+000 82051 -1.0509e+002 -2.4062e+002 -2.1362e+000 57374 81881,81855,82025
 5.4000e+000 82074 -1.0920e+002 -2.2655e+002  1.5634e+001 57374 81881,82025,81907
 5.4000e+000 82356 -6.3476e+001 -1.5005e+002 -8.6926e+000 56913 82180,82232,82206
 5.4000e+000 82333 -5.6023e+001 -1.4391e+002  1.2486e+001 56913 82180,82284,82232
 5.4000e+000 82310 -1.8443e+001 -1.1116e+002  2.7202e+001 56913 82379,82232,82284
 5.4000e+000 82405  1.7695e+001 -1.0814e+002  2.5557e+000 56913 82258,82232,82379
 5.4000e+000 82764 -6.3028e+001 -9.9977e+001 -9.8657e+000 56523 82614,82666,82640
 5.4000e+000 82741 -5.3229e+001 -9.9010e+001 -1.4941e+001 56523 82614,82692,82666
 5.4000e+000 82718 -4.5436e+001 -1.0605e+002 -3.0400e+001 56523 82588,82692,82614
 5.4000e+000 83368 -1.0921e+001 -1.6587e+002 -7.9320e+000 55969 82973,83155,83129
 5.4000e+000 83345  4.2953e+000 -1.6022e+002 -1.2795e+001 55969 82973,83181,83155
 5.4000e+000 83322 -4.3467e+001 -1.4742e+002 -5.9697e+000 55969 82973,83129,82999
 5.4000e+000 83299 -7.1430e+001 -1.5152e+002  3.1475e+000 55969 83391,83025,82999
 5.4000e+000 83276 -6.1142e+001 -1.5670e+002 -4.6209e-001 55969 83391,82999,83129
 5.4000e+000 83253 -1.0008e+001 -1.3219e+002  2.9464e+001 55969 83077,83129,83103
 5.4000e+000 83230 -7.5630e+001 -1.2290e+002 -6.5221e+000 55969 83025,83077,83051
 5.4000e+000 83207 -1.4372e+000 -1.5486e+002  1.5236e+001 55969 82947,83181,82973
 5.4000e+000 83417 -6.1622e+001 -1.4560e+002  6.2847e+000 55969 83077,83025,83391
 5.4000e+000 83440 -5.8153e+001 -1.5360e+002  1.1720e+000 55969 83077,83391,83129
 5.4000e+000 83946 -1.2104e+002 -2.6617e+002  4.2360e+001 55771 83969,83779,83727
 5.4000e+000 83923 -9.5502e+001 -2.1385e+002  2.7486e+001 55771 83969,83727,83623
 5.4000e+000 83900 -1.1359e+002 -1.0818e+002  1.5327e+001 55771 83623,83727,83649
 5.4000e+000 83877 -9.4771e+001 -4.5863e+002  1.9939e+001 55771 83727,83779,83753
 5.4000e+000 83854 -1.5896e+002 -2.0488e+002  5.4166e+001 55771 83675,83727,83701
 5.4000e+000 83831 -1.7553e+002 -1.7353e+002  7.0710e+001 55771 83649,83727,83675
 5.4000e+000 83995 -1.1504e+002 -2.7759e+002 -2.3412e+001 55771 83805,83779,83969
 5.4000e+000 84018 -6.1766e+001 -1.7307e+002 -4.3821e+001 55771 83805,83969,83623
 5.4000e+000 84168 -5.3361e+001 -1.3109e+002 -3.8990e+000 55367 84191,84067,84041
 5.4000e+000 84145 -5.2293e+001 -1.4788e+002 -2.5429e+000 55367 84191,84041,84119
 5.4000e+000 84217 -5.6626e+001 -1.2140e+002 -3.5723e+000 55367 84093,84067,84191
 5.4000e+000 84240 -5.0049e+001 -1.3103e+002  2.5301e+000 55367 84093,84191,84119
 5.4000e+000 84571 -2.9728e+001 -1.9888e+002 -2.0556e+001 54913 84398,84450,84424
 5.4000e+000 84548 -2.5546e+001 -1.8249e+002 -1.0727e+001 54913 84372,84450,84398
 5.4000e+000 84525 -4.9921e+001 -2.0501e+002  7.5371e+000 54913 84346,84450,84372
 5.4000e+000 84502 -1.9376e+001 -1.3482e+002 -1.8672e+001 54913 84346,84476,84450
 5.4000e+000 85126 -1.0366e+002 -2.2656e+002 -1.0745e+001 54402 84858,84936,84910
 5.4000e+000 85103 -7.9800e+001 -1.7523e+002 -2.0026e+001 54402 84806,84936,84858
 5.4000e+000 85080 -9.7177e+001 -1.6192e+002 -1.6232e+001 54402 84780,84936,84806
 5.4000e+000 85057 -7.9801e+001 -1.9558e+002 -7.5711e+000 54402 84806,84858,84832
 5.4000e+000 85034 -8.9065e+001 -1.5317e+002  8.0055e+000 54402 84780,84962,84936
 5.4000e+000 85011 -1.1978e+002 -1.3500e+002 -5.0112e+000 54402 84858,84910,84884
 5.4000e+000 84988 -8.6811e+001 -1.5274e+002  1.0139e+001 54402 84754,84962,84780
 5.4000e+000 85396 -8.2457e+001 -1.0008e+002 -6.5632e+000 53998 85197,85249,85223
 5.4000e+000 85373 -6.4185e+001 -1.2606e+002 -1.3774e+000 53998 85197,85275,85249
 5.4000e+000 85350 -8.1258e+001 -1.4858e+002 -9.1223e+000 53998 85171,85275,85197
 5.4000e+000 85327 -3.8803e+001 -1.3813e+002 -1.1383e+001 53998 85171,85301,85275
 5.4000e+000 85749 -4.5544e+001 -1.5632e+002 -4.2550e+000 53636 85524,85628,85550
 5.4000e+000 85726 -7.0770e+001 -1.7691e+002  5.0795e+000 53636 85524,85654,85628
 5.4000e+000 85703 -2.5560e+001 -1.6472e+002 -1.6544e+001 53636 85550,85602,85576
 5.4000e+000 85680 -4.3183e+001 -1.5430e+002 -8.2491e+000 53636 85550,85628,85602
 5.4000e+000 86127 -1.8374e+001 -1.5918e+002  2.5614e+001 52982 86150,85957,85879
 5.4000e+000 86104 -5.6707e+001 -1.8500e+002  1.4382e+001 52982 86150,85879,85853
 5.4000e+000 86081 -1.4771e+001 -2.3049e+002  4.6202e+001 52982 85957,86009,85983
 5.4000e+000 86058 -6.8045e+001 -1.7047e+002  2.0653e+001 52982 85879,85957,85931
 5.4000e+000 86035 -4.3448e+001 -1.6099e+002 -6.2817e+000 52982 85879,85931,85905
 5.4000e+000 86176  5.7193e+000 -1.8850e+002  2.0638e+001 52982 86009,85957,86150
 5.4000e+000 86199 -1.6989e+001 -2.0496e+002  1.2782e+001 52982 86009,86150,85853
 5.4000e+000 86398 -4.1177e+001 -1.3460e+002  1.2752e+001 52542 86421,86248,86222
 5.4000e+000 86375 -7.0397e+001 -1.3696e+002 -9.3581e-001 52542 86421,86222,86300
 5.4000e+000 86352 -6.9949e+001 -1.4764e+002 -6.4020e+000 52542 86222,86326,86300
 5.4000e+000 86447 -1.1672e+001 -1.3492e+002  2.4173e+001 52542 86274,86248,86421
 5.4000e+000 86470 -3.9313e+001 -1.4158e+002  6.9177e+000 52542 86274,86421,86300
 5.4000e+000 86669 -6.4018e+001 -1.3826e+002 -2.4282e+001 52230 86692,86571,86545
 5.4000e+000 86646 -6.2673e+001 -1.3254e+002 -1.4296e+001 52230 86692,86545,86519
 5.4000e+000 86623 -8.6022e+001 -1.3529e+002 -1.9552e+001 52230 86493,86597,86519
 5.4000e+000 86718 -6.9166e+001 -1.4084e+002 -2.6236e+001 52230 86597,86571,86692
 5.4000e+000 86741 -7.4648e+001 -1.3807e+002 -1.6709e+001 52230 86597,86692,86519
 5.4000e+000 87153 -8.6776e+001 -1.3316e+002  5.9289e+000 51640 86980,87058,87032
 5.4000e+000 87130 -8.5070e+001 -1.3696e+002  4.4331e+000 51640 86928,87058,86980
 5.4000e+000 87107 -8.8836e+001 -1.8304e+002 -8.9838e+000 51640 86928,86980,86954
 5.4000e+000 87084 -4.5915e+001 -1.1583e+002 -1.2686e+000 51640 86980,87032,87006
 5.4000e+000 87659 -4.0887e+001 -1.2235e+002  3.4999e+000 51029 87682,87440,87362
 5.4000e+000 87636 -3.5566e+001 -1.2922e+002 -1.2259e+001 51029 87682,87362,87336
 5.4000e+000 87613 -5.9251e+001 -1.8139e+002 -4.1007e+000 51029 87440,87518,87466
 5.4000e+000 87590 -6.3008e+001 -1.2186e+002  4.7566e+000 51029 87362,87440,87414
 5.4000e+000 87567 -5.1763e+001 -9.2128e+001  2.1611e+001 51029 87362,87414,87388
 5.4000e+000 87544 -7.9545e+001 -1.6587e+002  4.7491e+000 51029 87466,87518,87492
 5.4000e+000 87708 -4.0152e+001 -1.3630e+002 -7.3389e-001 51029 87518,87440,87682
 5.4000e+000 87731 -3.8714e+001 -1.5681e+002 -1.0630e+001 51029 87518,87682,87336
 5.4000e+000 87881 -8.1856e+001 -1.7728e+002  4.4174e+000 50739 87780,87832,87806
 5.4000e+000 87858 -9.3216e+001 -1.7801e+002 -8.1324e+000 50739 87754,87832,87780
 5.4000e+000 88468 -5.4194e+001 -1.1523e+002  5.9595e+000 50235 88171,88327,88197
 5.4000e+000 88445 -1.1235e+002 -1.1737e+002 -1.6385e+001 50235 88145,88327,88171
 5.4000e+000 88422  3.4378e-001 -5.5750e+001  8.3953e-002 50235 88275,88327,88301
 5.4000e+000 88399 -3.5334e+001 -7.1034e+001 -8.0079e-001 50235 88197,88327,88275
 5.4000e+000 88376 -1.6724e+001 -1.0500e+002 -1.3890e+000 50235 88197,88275,88223
 5.4000e+000 88353 -1.9147e+001 -1.4034e+002 -1.3038e+001 50235 88223,88275,88249
 5.4000e+000 88895 -7.8227e+001 -1.8495e+002  4.9368e+000 49873 88918,88728,88676
 5.4000e+000 88872 -6.6794e+001 -1.7328e+002 -2.9946e+000 49873 88918,88676,88624
 5.4000e+000 88849 -5.3258e+001 -1.5441e+002 -6.8376e+000 49873 88598,88754,88624
 5.4000e+000 88826 -4.1844e+001 -1.6293e+002 -4.4291e+000 49873 88624,88676,88650
 5.4000e+000 88803 -6.5041e+001 -2.2639e+002  7.0466e+000 49873 88676,88728,88702
 5.4000e+000 88780 -6.5109e+001 -1.5910e+002 -8.4313e+000 49873 88572,88754,88598
 5.4000e+000 88944 -6.4135e+001 -1.8312e+002 -2.5033e+000 49873 88754,88728,88918
 5.4000e+000 88967 -5.9866e+001 -1.7937e+002 -9.2218e+000 49873 88754,88918,88624
 5.4000e+000 89473 -1.1004e+002 -1.7428e+002 -2.0837e+001 49583 89176,89306,89202
 5.4000e+000 89450 -1.0935e+002 -1.7165e+002 -2.6428e+001 49583 89176,89332,89306
 5.4000e+000 89427 -6.4880e+001 -1.8896e+002  8.5477e+000 49583 89496,89228,89202
 5.4000e+000 89404 -6.5434e+001 -1.9336e+002  1.0299e+001 49583 89496,89202,89280
 5.4000e+000 89381 -1.3610e+002 -2.4156e+002 -4.1651e+001 49583 89202,89306,89280
 5.4000e+000 89358 -8.4958e+001 -1.7216e+002 -3.0181e+001 49583 89150,89332,89176
 5.4000e+000 89522 -6.1428e+001 -1.5952e+002  4.5817e+000 49583 89254,89228,89496
 5.4000e+000 89545 -7.5422e+001 -1.8467e+002  1.0078e+001 49583 89254,89496,89280
 5.4000e+000 89825  1.0807e+001 -1.7447e+002  7.6884e+000 49179 89701,89753,89727
 5.4000e+000 89802 -2.6431e+001 -1.5575e+002  9.9694e+000 49179 89675,89753,89701
 5.4000e+000 89779 -1.9894e+001 -1.3927e+002  8.5619e+000 49179 89848,89753,89675
 5.4000e+000 89874 -9.7909e+001 -1.6571e+002 -1.2974e+001 49179 89649,89753,89848
 5.4000e+000 90223 -5.6629e+001 -1.6685e+002 -1.9450e+001 48739 90024,90102,90076
 5.4000e+000 90200 -5.4873e+001 -1.5719e+002 -7.4307e+000 48739 90024,90128,90102
 5.4000e+000 90177 -1.0584e+000 -1.6194e+002 -2.0640e+001 48739 90024,90076,90050
 5.4000e+000 90154 -1.9719e+001 -1.5115e+002  1.1395e+001 48739 89998,90128,90024
 5.4000e+000 90603 -5.0770e+001 -1.3156e+002  2.9455e+001 48335 90381,90485,90459
 5.4000e+000 90580 -6.7729e+001 -1.5779e+002  2.1883e+001 48335 90355,90485,90381
 5.4000e+000 90557 -2.6806e+001 -5.0654e+001  1.4679e+001 48335 90381,90433,90407
 5.4000e+000 90534 -4.9941e+001 -1.3821e+002  2.1205e+001 48335 90381,90459,90433
 5.4000e+000 90511  2.0020e+001 -1.0823e+002  4.3617e+001 48335 90329,90485,90355
 5.4000e+000 90753 -1.1663e+000 -8.5201e+001  5.2976e+001 47824 90776,90652,90704
 5.4000e+000 90730 -4.5278e+001 -1.5092e+002  2.4933e+001 47824 90626,90704,90652
 5.4000e+000 90802 -1.9976e+001 -1.1131e+002  4.2728e+001 47824 90678,90652,90776
 5.4000e+000 91131 -5.6663e+001 -1.9110e+002  8.8301e+000 47427 91154,90958,90906
 5.4000e+000 91108 -9.9354e+001 -2.0870e+002  1.7082e+000 47427 91154,90906,91036
 5.4000e+000 91085 -9.5886e+001 -1.6483e+002 -1.4621e+001 47427 90958,91010,90984
 5.4000e+000 91062 -5.7717e+001 -1.7208e+002  1.1681e+001 47427 90906,90958,90932
 5.4000e+000 91180 -8.1520e+001 -1.8894e+002 -1.9369e+001 47427 91010,90958,91154
 5.4000e+000 91203 -1.2254e+002 -2.0669e+002 -2.7206e+001 47427 91010,91154,91036
 5.4000e+000 91583 -9.4323e+001 -1.7747e+002 -1.0072e+001 46873 91309,91439,91335
 5.4000e+000 91560 -9.9852e+001 -1.7859e+002 -8.1768e+000 46873 91309,91465,91439
 5.4000e+000 91537 -1.4086e+002 -2.0539e+002 -5.2157e+001 46873 91361,91439,91413
 5.4000e+000 91514 -1.0566e+002 -1.8511e+002 -2.7819e+001 46873 91335,91439,91361
 5.4000e+000 91491 -4.8442e+001 -1.7322e+002 -4.6506e+001 46873 91361,91413,91387
 5.4000e+000 91880 -6.0103e+001 -1.8940e+002 -4.8088e+000 46526 91606,91710,91658
 5.4000e+000 91857 -6.3329e+001 -1.9962e+002  1.7684e+000 46526 91606,91762,91710
 5.4000e+000 91834 -3.7326e+001 -1.8162e+002 -2.1420e+001 46526 91606,91658,91632
 5.4000e+000 91811 -7.1761e+001 -1.7543e+002  3.5453e+000 46526 91658,91710,91684
 5.4000e+000 91788 -4.1427e+001 -1.3650e+002  5.4555e+000 46526 91710,91762,91736
 5.4000e+000 92211 -3.0863e+001 -7.5083e+001 -6.4546e+000 45700 91986,92064,92038
 5.4000e+000 92188 -4.2565e+001 -1.1215e+002  5.4060e-001 45700 91986,92116,92064
 5.4000e+000 92165 -2.3394e+001 -6.2789e+001 -1.3786e+001 45700 91986,92038,92012
 5.4000e+000 92142 -2.7761e+001 -1.2342e+002  1.5501e+001 45700 92064,92116,92090
 5.4000e+000 92766 -8.3322e+001 -1.6252e+002  9.1666e+000 45452 92446,92602,92576
 5.4000e+000 92743 -1.2727e+002 -1.5953e+002 -1.7290e+001 45452 92420,92602,92446
 5.4000e+000 92720 -9.8377e+001 -1.7090e+002  2.7011e+001 45452 92789,92524,92498
 5.4000e+000 92697 -1.1315e+002 -1.6689e+002  2.2442e+001 45452 92789,92498,92446
 5.4000e+000 92674 -9.5779e+001 -1.8013e+002 -4.4915e-001 45452 92524,92576,92550
 5.4000e+000 92651 -1.4945e+002 -1.7335e+002  9.1339e+001 45452 92446,92498,92472
 5.4000e+000 92628 -7.9458e+001 -1.9527e+002 -4.5934e+001 45452 92394,92602,92420
 5.4000e+000 92815 -8.7894e+001 -1.7217e+002  2.2978e+001 45452 92576,92524,92789
 5.4000e+000 92838 -9.9643e+001 -1.6597e+002  2.0320e+001 45452 92576,92789,92446
 5.4000e+000 92939 -7.1143e+001 -2.2239e+002 -4.5733e+001 44998 92861,92913,92887
 5.4000e+000 93319 -1.5291e+001 -2.2755e+002  4.2797e+001 44601 93123,93201,93149
 5.4000e+000 93296 -6.3059e+001 -2.2809e+002 -2.2562e+001 44601 93045,93201,93123
 5.4000e+000 93273 -5.0349e+001 -1.2963e+002 -3.1689e+001 44601 93045,93123,93071
 5.4000e+000 93250 -4.6343e+001 -1.2058e+002 -2.1160e+001 44601 93071,93123,93097
 5.4000e+000 93227 -3.7738e+000 -1.2575e+002  4.5637e+001 44601 93149,93201,93175
 5.4000e+000 93697 -4.7737e+001 -2.4860e+002  1.3354e+001 44026 93720,93553,93527
 5.4000e+000 93674 -8.4547e+001 -2.1087e+002  1.8578e+001 44026 93720,93527,93449
 5.4000e+000 93651 -9.3683e+001 -2.1815e+002 -3.6938e+000 44026 93449,93527,93501
 5.4000e+000 93628 -6.9116e+001 -1.6900e+002 -3.5986e+001 44026 93423,93579,93449
 5.4000e+000 93605 -2.1736e+001 -1.7357e+002  1.5309e+001 44026 93449,93501,93475
 5.4000e+000 93746 -2.1831e+001 -2.2052e+002  2.6123e+000 44026 93579,93553,93720
 5.4000e+000 93769 -6.0615e+001 -1.8340e+002  8.4281e+000 44026 93579,93720,93449
 5.4000e+000 94066 -4.8869e+001 -1.9422e+002 -2.6324e+001 43579 94089,93818,93792
 5.4000e+000 94043 -7.9245e+001 -2.1586e+002 -1.6773e+001 43579 94161,94089,93792
 5.4000e+000 94020 -7.8127e+001 -2.1697e+002 -8.4061e+000 43579 94161,93792,93948
 5.4000e+000 93997 -8.3725e+001 -1.7080e+002 -8.2529e+000 43579 94233,93870,93818
 5.4000e+000 93974 -4.7629e+001 -1.7641e+002  5.6265e+000 43579 93818,93870,93844
 5.4000e+000 94115 -8.1781e+001 -1.7225e+002 -1.8915e+001 43579 94233,93818,94089
 5.4000e+000 94138 -1.0752e+002 -1.9398e+002 -1.2338e+001 43579 93896,94089,93922
 5.4000e+000 94187 -7.3834e+001 -2.0309e+002 -1.6704e+001 43579 93922,94089,94161
 5.4000e+000 94210 -7.2350e+001 -2.0307e+002 -7.5487e+000 43579 93922,94161,93948
 5.4000e+000 94259 -9.5616e+001 -1.9116e+002 -3.0933e+000 43579 93896,93870,94233
 5.4000e+000 94282 -8.8870e+001 -1.8778e+002 -1.5377e+001 43579 93896,94233,94089
 5.4000e+000 94481 -6.5433e+001 -2.0041e+002 -1.0808e+000 43239 94305,94383,94357
 5.4000e+000 94458 -5.6422e+001 -1.8336e+002  2.2916e+001 43239 94305,94409,94383
 5.4000e+000 94435 -5.0327e+001 -2.1186e+002 -5.1025e+000 43239 94305,94357,94331
 5.4000e+000 94633 -2.2694e+001 -1.2466e+002  2.8806e+001 42827 94656,94532,94506
 5.4000e+000 94610 -5.3411e+001 -1.3882e+002  3.2352e+001 42827 94728,94656,94506
 5.4000e+000 94682 -2.9104e+001 -1.4331e+002  2.4354e+001 42827 94558,94532,94656
 5.4000e+000 94705 -1.0295e+001 -1.4128e+002  1.4428e+001 42827 94988,94860,94656
 5.4000e+000 94754 -3.0034e+001 -1.2587e+002  9.3934e+000 42827 94988,94656,94728
 5.4000e+000 94886  5.2404e+000 -1.3359e+002  1.7038e+001 42827 94558,94656,94860
 5.4000e+000 95014  6.2323e+000 -1.2805e+002  8.6391e+000 42827 94584,94860,94988
 5.4000e+000 95037 -1.1034e+001 -1.1410e+002  3.6913e+000 42827 94584,94988,94728
 5.4000e+000 95236 -2.5022e+001 -1.5229e+002  2.0774e+001 42537 95259,95112,95060
 5.4000e+000 95213 -3.2449e+001 -1.4574e+002  1.8055e+001 42537 95259,95060,95164
 5.4000e+000 95190 -1.1767e+001 -1.5590e+002 -2.5330e+000 42537 95060,95112,95086
 5.4000e+000 95285 -2.9994e+001 -1.5522e+002  1.7826e+001 42537 95138,95112,95259
 5.4000e+000 95308 -3.8259e+001 -1.5177e+002  1.4020e+001 42537 95138,95259,95164
 5.4000e+000 95816 -6.8219e+001 -1.9285e+002 -1.2774e+001 41969 95493,95597,95519
 5.4000e+000 95793 -1.0084e+002 -1.8116e+002  1.7022e+001 41969 95493,95649,95597
 5.4000e+000 95770 -7.5544e+001 -1.7002e+002  1.4489e+001 41969 95493,95675,95649
 5.4000e+000 95747 -8.1969e+001 -2.3505e+002  1.4201e+001 41969 95597,95649,95623
 5.4000e+000 95724 -1.1044e+002 -1.7727e+002 -2.1585e+001 41969 95519,95597,95571
 5.4000e+000 95701 -9.7209e+001 -1.5367e+002 -4.3728e+001 41969 95519,95571,95545
 5.4000e+000 96371 -8.5487e+001 -2.0619e+002  2.5111e+001 41579 96025,96207,96181
 5.4000e+000 96348  2.5310e+001 -1.5548e+002 -7.2245e+000 41579 95999,96207,96025
 5.4000e+000 96325 -9.7246e+001 -1.5864e+002 -1.7616e+001 41579 96129,96181,96155
 5.4000e+000 96302 -3.6012e+001 -1.4354e+002  7.9109e-001 41579 96025,96181,96129
 5.4000e+000 96279 -7.9839e+001 -2.1394e+002  2.8993e+001 41579 96025,96129,96051
 5.4000e+000 96256 -9.2607e+001 -1.9918e+002  2.9618e+001 41579 96051,96103,96077
 5.4000e+000 96233 -3.5820e+001 -1.5152e+002  2.2646e+000 41579 96051,96129,96103
 5.4000e+000 96877 -2.2532e+001 -1.3133e+002 -1.5261e+001 41182 96972,96900,96632
 5.4000e+000 96854 -2.8164e+001 -9.7422e+001 -1.5458e+001 41182 96900,96554,96736
 5.4000e+000 96831 -2.1563e+001 -1.3124e+002 -1.3053e+001 41182 96972,96632,96580
 5.4000e+000 96808 -2.8279e+001 -1.2293e+002  1.3343e+001 41182 96632,96684,96658
 5.4000e+000 96785 -5.1360e+001 -1.3661e+002  1.5563e+001 41182 96684,96736,96710
 5.4000e+000 96762 -7.6076e+001 -1.6819e+002  2.7517e+001 41182 96580,96632,96606
 5.4000e+000 96926 -2.0564e+001 -1.4536e+002 -1.5076e+001 41182 96684,96632,96900
 5.4000e+000 96949 -4.1445e+001 -1.2938e+002 -2.5893e+001 41182 96684,96900,96736
 5.4000e+000 96998 -2.6536e+001 -1.3325e+002 -1.6242e+001 41182 96554,96900,96972
 5.4000e+000 97021 -2.5893e+001 -1.3280e+002 -1.3768e+001 41182 96554,96972,96580
 5.4000e+000 97576 -1.1472e+002 -2.9054e+002 -4.0385e+001 40678 97230,97412,97282
 5.4000e+000 97553 -1.1063e+001 -2.3949e+002  1.1653e+001 40678 97204,97412,97230
 5.4000e+000 97530 -3.2080e+001 -2.2066e+002 -3.6485e+001 40678 97282,97360,97308
 5.4000e+000 97507 -5.0884e+001 -2.2480e+002 -1.4109e+001 40678 97282,97412,97360
 5.4000e+000 97484 -1.3173e+001 -1.3237e+002 -3.1770e+001 40678 97308,97360,97334
 5.4000e+000 97461 -6.5517e+001 -2.7134e+002 -7.9118e+000 40678 97360,97412,97386
 5.4000e+000 97438 -6.5519e+001 -1.8671e+002 -2.5966e+001 40678 97230,97282,97256
 5.4000e+000 97976 -9.2852e+001 -1.5527e+002 -3.4359e+000 40244 97702,97832,97754
 5.4000e+000 97953 -7.7871e+001 -1.4952e+002 -7.5479e+000 40244 97702,97858,97832
 5.4000e+000 97930 -9.9729e+001 -1.8242e+002 -3.7957e+001 40244 97702,97754,97728
 5.4000e+000 97907 -7.6497e+001 -1.6830e+002  1.8362e+001 40244 97780,97832,97806
 5.4000e+000 97884 -8.3398e+001 -1.4982e+002 -7.7072e-001 40244 97754,97832,97780
 5.4000e+000 98482 -4.8485e+001 -1.4287e+002  2.3267e+001 39690 98505,98185,98159
 5.4000e+000 98459 -5.0281e+001 -1.3794e+002  2.2242e+001 39690 98505,98159,98289
 5.4000e+000 98436 -9.7385e+001 -2.0869e+002  5.7427e+001 39690 98159,98315,98289
 5.4000e+000 98413 -3.8128e+001 -1.2768e+002  1.9287e+001 39690 98211,98289,98263
 5.4000e+000 98390 -2.2066e+001 -8.3263e+001  1.1418e+001 39690 98211,98263,98237
 5.4000e+000 98367 -2.5767e+001 -1.2673e+002  1.9601e+001 39690 98159,98341,98315
 5.4000e+000 98531 -4.8944e+001 -1.4005e+002  2.0234e+001 39690 98211,98185,98505
 5.4000e+000 98554 -4.9629e+001 -1.3249e+002  2.0078e+001 39690 98211,98505,98289
 5.4000e+000 99109 -4.9895e+001 -1.3041e+002 -8.6473e+000 39072 99132,98867,98789
 5.4000e+000 99086 -4.8205e+001 -1.3451e+002 -1.2132e+001 39072 99132,98789,98763
 5.4000e+000 99063 -7.4777e+001 -2.1475e+002  2.2725e+001 39072 98867,98945,98919
 5.4000e+000 99040 -4.2871e+001 -1.3926e+002 -1.5796e+000 39072 98789,98867,98841
 5.4000e+000 99017 -9.8053e+001 -1.5740e+002  6.6135e+000 39072 98867,98919,98893
 5.4000e+000 98994 -6.8256e+001 -1.2691e+002  2.6803e+001 39072 98789,98841,98815
 5.4000e+000 98971 -6.9935e+001 -1.5192e+002 -1.0419e+001 39072 98737,98945,98763
 5.4000e+000 99158 -4.8709e+001 -1.3575e+002 -9.4216e+000 39072 98945,98867,99132
 5.4000e+000 99181 -4.8375e+001 -1.4296e+002 -1.0849e+001 39072 98945,99132,98763
 5.4000e+000 99510 -4.2209e+001 -1.2029e+002  8.1068e+000 38668 99311,99389,99363
 5.4000e+000 99487 -3.6303e+001 -1.2565e+002 -3.4228e+000 38668 99285,99389,99311
 5.4000e+000 99464 -8.1295e+001 -1.7375e+002  1.5798e+001 38668 99285,99415,99389
 5.4000e+000 99441 -3.7630e+001 -1.2950e+002  1.3137e+001 38668 99311,99363,99337
 5.4000e+000 99758 -4.8003e+001 -1.9248e+002  3.1822e+001 38164 99781,99611,99585
 5.4000e+000 99735 -1.9651e+001 -1.9735e+002  3.5225e+001 38164 99781,99585,99533
 5.4000e+000 99712 -7.2453e+001 -1.8248e+002  2.3390e+001 38164 99611,99663,99637
 5.4000e+000 99689  9.6245e+000 -1.8937e+002 -1.1808e+001 38164 99533,99585,99559
 5.4000e+000 99807 -6.4227e+001 -1.9129e+002  3.9711e+001 38164 99663,99611,99781
 5.4000e+000 99830 -4.2793e+001 -1.9961e+002  3.8643e+001 38164 99663,99781,99533
 5.4000e+000 100232 -5.3672e+001 -1.4409e+002  1.9775e+000 37702 99984,100114,100088
 5.4000e+000 100209 -4.2366e+001 -1.5202e+002  1.5006e+001 37702 99958,100114,99984
 5.4000e+000 100186 -7.9616e+001 -1.7952e+002 -1.1087e+001 37702 100010,100088,100036
 5.4000e+000 100163 -5.3476e+001 -1.4423e+002  4.1480e-001 37702 99984,100088,100010
 5.4000e+000 100140 -4.6538e+001 -1.3086e+002 -3.6634e+001 37702 100036,100088,100062
 5.4000e+000 100640 -1.1766e+002 -1.6929e+002  2.1474e+001 37262 100493,100545,100519
 5.4000e+000 100617 -1.0507e+002 -1.9222e+002  1.0308e+001 37262 100441,100545,100493
 5.4000e+000 100594 -4.2301e+001 -1.4481e+002 -2.5330e+001 37262 100415,100545,100441
 5.4000e+000 100571 -1.1799e+002 -2.0554e+002 -8.4280e+000 37262 100441,100493,100467
 5.4000e+000 101146 -8.5055e+001 -1.4290e+002 -2.0180e+000 36872 100823,100979,100849
 5.4000e+000 101123 -8.2687e+001 -1.3276e+002 -1.3625e+001 36872 100823,101005,100979
 5.4000e+000 101100 -8.6956e+001 -2.0710e+002  2.7953e+001 36872 101169,100901,100849
 5.4000e+000 101077 -6.7101e+001 -1.6536e+002  1.4889e+001 36872 101169,100849,100979
 5.4000e+000 101054 -4.8168e+001 -1.7263e+002 -1.0993e+001 36872 100927,100979,100953
 5.4000e+000 101031 -4.7968e+001 -2.3190e+002  3.8969e+001 36872 100849,100901,100875
 5.4000e+000 101195 -6.0128e+001 -2.1921e+002  1.8924e+000 36872 100927,100901,101169
 5.4000e+000 101218 -4.7948e+001 -1.9706e+002 -8.6986e+000 36872 100927,101169,100979
 5.4000e+000 101773 -9.4965e+001 -1.5339e+002  2.9169e+001 36418 101479,101609,101583
 5.4000e+000 101750 -9.8273e+001 -1.6080e+002  2.8324e+001 36418 101453,101609,101479
 5.4000e+000 101727 -6.5703e+001 -1.6270e+002 -6.3947e-001 36418 101796,101531,101479
 5.4000e+000 101704 -9.2274e+001 -1.8116e+002  1.2877e+001 36418 101796,101479,101583
 5.4000e+000 101681 -5.5958e+001 -1.3811e+002 -4.1895e+000 36418 101479,101531,101505
 5.4000e+000 101658 -1.8621e+000 -1.4268e+002  3.6668e+000 36418 101401,101609,101453
 5.4000e+000 101635 -2.7060e+001 -1.3631e+002  4.0965e+000 36418 101401,101453,101427
 5.4000e+000 101822 -7.1845e+001 -1.4894e+002 -2.5952e+001 36418 101557,101531,101796
 5.4000e+000 101845 -1.0237e+002 -1.5537e+002 -1.3682e+001 36418 101557,101796,101583
 5.4000e+000 102174 -9.4437e+000 -6.9870e+001 -1.9623e+001 35914 101949,102053,101975
 5.4000e+000 102151 -3.3271e+001 -7.3356e+001 -1.5137e+001 35914 101949,102079,102053
 5.4000e+000 102128 -3.6817e+001 -8.2785e+001 -1.0675e+001 35914 101975,102053,102027
 5.4000e+000 102105 -2.3789e+001 -6.1352e+001 -1.6138e+001 35914 101975,102027,102001
 5.4000e+000 102631 -3.2925e+001 -1.6815e+002  5.1890e+000 35574 102383,102513,102487
 5.4000e+000 102608 -2.3260e+001 -1.7648e+002  3.9841e+000 35574 102357,102513,102383
 5.4000e+000 102585 -5.6521e+001 -1.7511e+002  6.5926e+000 35574 102409,102487,102435
 5.4000e+000 102562 -5.8196e+001 -1.7829e+002  5.0229e+000 35574 102383,102487,102409
 5.4000e+000 102539 -5.6699e+001 -1.7796e+002  7.7461e+000 35574 102435,102487,102461
 5.4000e+000 103009 -8.9795e+001 -1.6583e+002 -1.1740e+001 35170 102761,102865,102787
 5.4000e+000 102986 -5.4412e+001 -1.4616e+002  1.5413e+001 35170 102761,102891,102865
 5.4000e+000 102963 -7.8895e+001 -1.6044e+002 -4.0172e+000 35170 102787,102865,102813
 5.4000e+000 102940 -4.4622e+001 -1.4034e+002  1.8200e+001 35170 102735,102891,102761
 5.4000e+000 102917 -8.0846e+001 -1.6764e+002 -1.1727e+001 35170 102813,102865,102839
 5.4000e+000 103257 -1.6192e+001 -1.2476e+002 -2.1582e+001 34659 103280,103058,103032
 5.4000e+000 103234 -2.4980e+001 -1.3151e+002 -1.2502e+001 34659 103280,103032,103162
 5.4000e+000 103211 -4.4392e+001 -1.3382e+002 -1.1677e+001 34659 103084,103162,103110
 5.4000e+000 103188 -5.8262e+001 -1.6374e+002 -8.1593e+000 34659 103110,103162,103136
 5.4000e+000 103306 -3.1707e+001 -1.1652e+002 -1.8763e+001 34659 103084,103058,103280
 5.4000e+000 103329 -3.7240e+001 -1.2356e+002 -8.5496e+000 34659 103084,103280,103162
 5.4000e+000 103837 -1.5477e+001 -1.8535e+002  5.9704e+000 34247 103860,103566,103540
 5.4000e+000 103814 -2.5355e+001 -1.8654e+002  3.0835e-001 34247 103932,103860,103540
 5.4000e+000 103791 -1.8989e+001 -2.0721e+002 -2.0703e+001 34247 103932,103540,103670
 5.4000e+000 103768 -2.0062e+001 -1.7286e+002  4.5668e+000 34247 103566,103618,103592
 5.4000e+000 103745 -7.5497e+001 -1.7421e+002 -2.6766e+001 34247 103540,103696,103670
 5.4000e+000 103722 -1.0053e+002 -1.9421e+002  2.9301e+001 34247 103514,103696,103540
 5.4000e+000 103886 -3.8582e+001 -1.8471e+002 -2.0837e+000 34247 103618,103566,103860
 5.4000e+000 103909 -4.2929e+001 -1.9765e+002  4.9574e+000 34247 103618,103860,103644
 5.4000e+000 103958 -4.3797e+001 -2.3643e+002 -3.5753e+000 34247 103644,103860,103932
 5.4000e+000 103981 -3.7485e+001 -2.5556e+002 -2.5613e+001 34247 103644,103932,103670
 5.4000e+000 104300 -9.0920e+001 -1.9553e+002 -6.8379e+000 33843 104052,104182,104156
 5.4000e+000 104277 -1.1747e+002 -1.8282e+002 -1.5089e+000 33843 104026,104182,104052
 5.4000e+000 104254 -8.8923e+001 -2.2015e+002  4.5919e+000 33843 104078,104156,104130
 5.4000e+000 104231 -1.0697e+002 -2.1085e+002  4.8193e-002 33843 104052,104156,104078
 5.4000e+000 104208 -1.3539e+002 -2.3216e+002  5.8273e+000 33843 104078,104130,104104
 5.4000e+000 104499 -6.2874e+001 -1.9717e+002 -1.6437e+001 33282 104594,104522,104375
 5.4000e+000 104476 -5.5226e+001 -1.9411e+002  6.5416e+000 33282 104522,104323,104427
 5.4000e+000 104453 -3.8260e+001 -2.1016e+002 -1.5189e+001 33282 104594,104375,104349
 5.4000e+000 104548 -6.6131e+001 -1.7281e+002 -8.0828e+000 33282 104401,104375,104522
 5.4000e+000 104571 -4.5605e+001 -1.6999e+002  6.9981e+000 33282 104401,104522,104427
 5.4000e+000 104620 -3.2462e+001 -1.7323e+002 -5.2993e+000 33282 104323,104522,104594
 5.4000e+000 104643 -1.6871e+001 -1.9519e+002 -7.6167e+000 33282 104323,104594,104349
 5.4000e+000 104942 -8.4832e+001 -2.1688e+002  2.6246e+001 32728 104694,104772,104720
 5.4000e+000 104919 -6.5502e+001 -1.9841e+002  9.8249e+000 32728 104694,104824,104772
 5.4000e+000 104896 -1.1122e+002 -1.9329e+002  2.9846e+001 32728 104720,104772,104746
 5.4000e+000 104873 -5.1258e+001 -2.2755e+002  1.2049e+001 32728 104772,104824,104798
 5.4000e+000 104850 -5.4806e+001 -1.9647e+002  9.6638e+000 32728 104668,104824,104694
 5.4000e+000 105373 -6.8056e+001 -2.1015e+002 -9.5964e+000 32274 105396,105102,105076
 5.4000e+000 105350 -7.5265e+001 -2.2993e+002 -3.4460e+000 32274 105396,105076,105206
 5.4000e+000 105327 -9.7597e+001 -2.3665e+002  1.0302e+001 32274 105154,105206,105180
 5.4000e+000 105304 -3.8043e+001 -2.2190e+002 -1.9437e+001 32274 105076,105232,105206
 5.4000e+000 105281 -8.2346e+001 -1.9006e+002 -3.3688e+001 32274 105102,105154,105128
 5.4000e+000 105258 -1.1687e+002 -1.7773e+002 -3.4622e+001 32274 105050,105232,105076
 5.4000e+000 105422 -8.0339e+001 -1.8848e+002 -8.9429e+000 32274 105154,105102,105396
 5.4000e+000 105445 -8.6755e+001 -2.0847e+002 -4.1547e+000 32274 105154,105396,105206
 5.4000e+000 105644 -8.2541e+001 -2.1641e+002 -3.7196e+000 31620 105468,105546,105520
 5.4000e+000 105621 -6.7495e+001 -2.3266e+002 -1.1179e+001 31620 105468,105572,105546
 5.4000e+000 105598 -8.2846e+001 -2.3503e+002  1.1461e+001 31620 105468,105520,105494
 5.4000e+000 105794 -1.6690e+001 -1.8515e+002 -6.0203e+000 31158 105889,105817,105693
 5.4000e+000 105771 -2.9904e+001 -1.6472e+002 -1.2069e+001 31158 105817,105667,105745
 5.4000e+000 105843 -2.3593e+001 -2.2879e+002 -2.4195e+000 31158 105719,105693,105817
 5.4000e+000 105866 -1.2076e+001 -1.9509e+002 -1.0508e+001 31158 105719,105817,105745
 5.4000e+000 105915 -4.6205e+001 -1.9780e+002 -6.3562e+000 31158 105667,105817,105889
 5.4000e+000 106270 -8.1203e+001 -1.8638e+002 -7.8503e-001 30818 106293,106071,106045
 5.4000e+000 106247 -9.3970e+001 -2.1521e+002 -1.1167e+001 30818 106293,106045,106175
 5.4000e+000 106224 -6.5732e+001 -1.7375e+002  1.0901e+001 30818 106123,106175,106149
 5.4000e+000 106201 -8.3888e+001 -1.9148e+002  2.0166e+001 30818 106071,106123,106097
 5.4000e+000 106319 -8.2400e+001 -1.7507e+002  9.7519e+000 30818 106123,106071,106293
 5.4000e+000 106342 -8.4027e+001 -1.9022e+002  9.9431e-001 30818 106123,106293,106175
 5.4000e+000 106492 -7.7667e+001 -1.7343e+002  3.3537e+001 30414 106645,106391,106365
 5.4000e+000 106469 -2.4897e+001 -1.7227e+002  5.1897e+001 30414 106515,106365,106443
 5.4000e+000 106541 -4.7184e+001 -1.8132e+002  3.8579e+001 30414 106645,106365,106515
 5.4000e+000 106671 -3.5164e+001 -2.0558e+002  6.6544e+001 30414 106417,106391,106645
 5.4000e+000 106694  3.3346e+001 -1.9025e+002  5.7621e+001 30414 106417,106645,106515
 5.4000e+000 106942 -4.0410e+001 -2.6467e+002 -1.2298e+000 29910 106965,106795,106769
 5.4000e+000 106919 -3.4147e+001 -2.3825e+002  6.6195e+000 29910 106965,106769,106717
 5.4000e+000 106896 -3.7605e+001 -1.9977e+002 -2.5039e+001 29910 106795,106847,106821
 5.4000e+000 106873 -1.8123e+001 -2.0523e+002  1.3164e+001 29910 106717,106769,106743
 5.4000e+000 106991 -5.6023e+001 -2.3578e+002  2.7698e+000 29910 106847,106795,106965
 5.4000e+000 107014 -4.3910e+001 -2.0066e+002  1.0412e+001 29910 106847,106965,106717
 5.4000e+000 107213 -5.4580e+001 -1.9792e+002  1.2471e+001 29413 107236,107063,107037
 5.4000e+000 107190 -5.0582e+001 -2.3399e+002  2.5814e+001 29413 107236,107037,107141
 5.4000e+000 107167 -6.7538e+001 -1.4127e+002  3.1708e+001 29413 107063,107115,107089
 5.4000e+000 107262 -5.1783e+001 -1.7424e+002  8.2636e+000 29413 107115,107063,107236
 5.4000e+000 107285 -4.2483e+001 -2.0115e+002  2.2844e+001 29413 107115,107236,107141
 5.4000e+000 107486 -2.3663e+001 -1.8990e+002  2.5937e+001 29009 107336,107388,107362
 5.4000e+000 107463 -1.2108e+001 -1.8341e+002  7.4021e+000 29009 107310,107388,107336
 5.4000e+000 107440 -1.5340e+001 -1.7298e+002  7.3801e+000 29009 107310,107414,107388
 5.4000e+000 107736 -8.1802e+001 -2.1944e+002 -7.5534e+000 28491 107537,107615,107563
 5.4000e+000 107713 -7.0705e+001 -2.1436e+002 -5.8402e+000 28491 107537,107641,107615
 5.4000e+000 107690 -4.6717e+001 -2.0505e+002  4.5755e+000 28491 107563,107615,107589
 5.4000e+000 107667 -7.3931e+001 -2.1190e+002 -6.2362e+000 28491 107511,107641,107537
 5.4000e+000 108118 -4.6211e+001 -2.0751e+002  8.0271e+000 27980 108141,107922,107844
 5.4000e+000 108095 -3.6861e+001 -2.2162e+002  7.2611e+000 27980 108141,107844,108000
 5.4000e+000 108072 -4.8407e+001 -2.1618e+002 -1.1520e+001 27980 107844,107922,107870
 5.4000e+000 108049 -5.2499e+001 -1.8750e+002 -5.8960e+000 27980 107870,107922,107896
 5.4000e+000 108026 -7.3862e+001 -1.9579e+002  2.4597e+001 27980 107922,107974,107948
 5.4000e+000 108167 -3.9414e+001 -2.0847e+002  1.1248e+001 27980 107974,107922,108141
 5.4000e+000 108190 -1.4185e+001 -2.0800e+002  1.4716e+001 27980 107974,108141,108000
 5.4000e+000 108745 -2.1974e+001 -1.3436e+002 -3.7122e+000 27376 108840,108768,108477
 5.4000e+000 108722 -3.9806e+001 -1.6524e+002 -3.3655e+001 27376 108768,108373,108581
 5.4000e+000 108699 -3.7601e+001 -1.1699e+002  2.4627e+001 27376 108840,108477,108451
 5.4000e+000 108676 -9.6850e+001 -1.4238e+002 -6.2321e+000 27376 108373,108451,108399
 5.4000e+000 108653 -3.7370e+001 -1.6701e+002  2.4398e+001 27376 108503,108581,108529
 5.4000e+000 108630 -4.2565e+001 -1.6271e+002  2.5339e+001 27376 108529,108581,108555
 5.4000e+000 108607 -1.0930e+002 -1.5182e+002  1.1961e+001 27376 108399,108451,108425
 5.4000e+000 108794 -3.6864e+001 -1.8158e+002  5.8030e-001 27376 108503,108477,108768
 5.4000e+000 108817 -4.8984e+000 -1.6561e+002 -6.1023e+000 27376 108503,108768,108581
 5.4000e+000 108866 -7.9675e+001 -1.6657e+002 -1.6402e+001 27376 108373,108768,108840
 5.4000e+000 108889 -7.6931e+001 -1.4300e+002  1.3101e+001 27376 108373,108840,108451
 5.4000e+000 109186 -8.0076e+001 -2.1542e+002  2.3234e+001 26722 109209,108938,108912
 5.4000e+000 109163 -7.4061e+001 -2.0062e+002  2.0883e+001 26722 109281,109209,108912
 5.4000e+000 109140 -7.1669e+001 -1.9510e+002  1.9935e+001 26722 109281,108912,109042
 5.4000e+000 109117 -6.4552e+001 -2.2774e+002  1.0263e+001 26722 108938,108990,108964
 5.4000e+000 109094 -1.0239e+002 -1.7796e+002  1.3464e+001 26722 108912,109068,109042
 5.4000e+000 109235 -6.6317e+001 -2.0704e+002  1.9323e+001 26722 108990,108938,109209
 5.4000e+000 109258 -7.2004e+001 -2.2087e+002  1.6932e+001 26722 108990,109209,109016
 5.4000e+000 109307 -6.6314e+001 -2.0913e+002  1.0908e+001 26722 109016,109209,109281
 5.4000e+000 109330 -6.1653e+001 -1.9985e+002  8.8642e+000 26722 109016,109281,109042
 5.4000e+000 109732 -8.2553e+001 -1.7813e+002 -4.4323e+000 26310 109458,109588,109484
 5.4000e+000 109709 -7.7680e+001 -2.0037e+002 -2.0756e+001 26310 109458,109614,109588
 5.4000e+000 109686 -1.2138e+002 -2.0660e+002  2.9488e+001 26310 109510,109562,109536
 5.4000e+000 109663 -1.2277e+002 -1.9599e+002  1.1779e+001 26310 109484,109562,109510
 5.4000e+000 109640 -8.7459e+001 -1.8150e+002 -1.9111e+000 26310 109484,109588,109562
 5.4000e+000 110159 -4.9851e+001 -1.7972e+002 -5.2656e+000 25642 110182,109940,109914
 5.4000e+000 110136 -4.4379e+001 -2.0697e+002  2.6464e+001 25642 110182,109914,109888
 5.4000e+000 110113 -6.3853e+001 -2.2056e+002 -2.8467e+001 25642 109966,110018,109992
 5.4000e+000 110090 -7.0840e+001 -2.1384e+002  1.6444e+001 25642 110254,109966,109940
 5.4000e+000 110067 -9.4973e+001 -2.0235e+002  1.2398e+001 25642 109862,110018,109888
 5.4000e+000 110044 -8.9158e+001 -1.6743e+002  2.9672e+001 25642 109836,110018,109862
 5.4000e+000 110208 -6.9126e+001 -1.9674e+002  1.2365e+001 25642 110254,109940,110182
 5.4000e+000 110231 -7.6209e+001 -2.0962e+002  2.8835e+001 25642 110018,110182,109888
 5.4000e+000 110280 -6.1256e+001 -2.3545e+002  1.3454e+001 25642 110018,109966,110254
 5.4000e+000 110303 -6.3265e+001 -2.2281e+002  1.0054e+001 25642 110018,110254,110182
 5.4000e+000 110632 -9.3780e+001 -1.8547e+002 -1.0585e+001 25188 110407,110485,110433
 5.4000e+000 110609 -1.0918e+002 -1.8802e+002 -6.1876e+000 25188 110407,110537,110485
 5.4000e+000 110586 -1.0435e+002 -1.9191e+002 -3.5966e+001 25188 110433,110485,110459
 5.4000e+000 110563 -1.0360e+002 -2.0343e+002  2.0485e+001 25188 110485,110537,110511
 5.4000e+000 110831 -1.6398e+001 -1.7723e+002  5.4532e+000 24726 110854,110707,110655
 5.4000e+000 110808 -7.1287e+000 -1.9130e+002  1.9700e+001 24726 110854,110655,110759
 5.4000e+000 110785 -2.3788e+001 -1.8355e+002  9.8673e+000 24726 110655,110707,110681
 5.4000e+000 110880 -9.1944e+000 -1.6374e+002  8.1561e+000 24726 110733,110707,110854
 5.4000e+000 110903  3.3625e+000 -1.7096e+002  2.3435e+001 24726 110733,110854,110759
 5.4000e+000 111234 -5.0681e+000 -1.2942e+002 -3.4463e+000 24222 111257,111087,111035
 5.4000e+000 111211  1.6467e+001 -1.1973e+002  1.4574e+001 24222 111257,111035,111009
 5.4000e+000 111188 -2.1330e+001 -6.6293e+001 -2.9760e+001 24222 111035,111087,111061
 5.4000e+000 111165 -2.1219e+001 -1.0729e+002  3.8315e+000 24222 111087,111139,111113
 5.4000e+000 111283 -1.8584e+001 -1.0702e+002  6.4661e+000 24222 111139,111087,111257
 5.4000e+000 111306 -9.2424e+000 -9.1196e+001  1.8059e+001 24222 111139,111257,111009
 5.4000e+000 111625 -2.3040e+001 -1.7806e+002 -9.0269e+000 23732 111648,111481,111455
 5.4000e+000 111602 -2.3123e+001 -1.7835e+002 -9.0081e+000 23732 111648,111455,111377
 5.4000e+000 111579  2.8477e+001 -8.5861e+001  1.9242e+001 23732 111377,111429,111403
 5.4000e+000 111556 -7.0475e+000 -1.7759e+002 -5.1977e+000 23732 111377,111455,111429
 5.4000e+000 111533 -1.4706e+001 -1.6199e+002 -3.8933e+000 23732 111351,111507,111377
 5.4000e+000 111674 -2.3120e+001 -1.7728e+002 -8.4906e+000 23732 111507,111481,111648
 5.4000e+000 111697 -2.3434e+001 -1.7803e+002 -8.4810e+000 23732 111507,111648,111377
 5.4000e+000 112156 -4.9528e+001 -2.1209e+002  1.5902e+001 23278 112179,111908,111882
 5.4000e+000 112133 -4.6365e+001 -1.9636e+002  8.5739e+000 23278 112179,111882,112012
 5.4000e+000 112110 -1.4369e+001 -2.3081e+002  1.2733e+000 23278 111908,111960,111934
 5.4000e+000 112087 -1.9542e+001 -1.7187e+002 -2.3803e+000 23278 111882,112038,112012
 5.4000e+000 112064 -4.1621e+001 -1.7723e+002 -2.6966e+000 23278 111960,112012,111986
 5.4000e+000 112205 -4.7020e+001 -2.0459e+002  3.0267e+000 23278 111960,111908,112179
 5.4000e+000 112228 -3.9248e+001 -1.8681e+002 -5.3227e+000 23278 111960,112179,112012
 5.4000e+000 112685 -1.2979e+002 -2.9221e+002 -2.7565e+001 22938 112489,112567,112541
 5.4000e+000 112662 -1.1172e+002 -2.5190e+002 -2.3921e+001 22938 112437,112567,112489
 5.4000e+000 112639 -7.6279e+001 -2.1927e+002 -3.0460e+000 22938 112489,112541,112515
 5.4000e+000 112616 -1.2659e+002 -2.4007e+002 -2.0761e+001 22938 112411,112567,112437
 5.4000e+000 112593 -9.9142e+001 -3.2059e+002 -4.5864e+000 22938 112437,112489,112463
 5.4000e+000 113191 -8.7954e+000 -2.1041e+002 -2.6269e+001 22534 113214,112998,112946
 5.4000e+000 113168 -3.9258e+001 -1.8612e+002 -1.3482e+001 22534 113286,113214,112946
 5.4000e+000 113145 -2.9678e+001 -1.8640e+002 -1.1333e+001 22534 113286,112946,112920
 5.4000e+000 113122 -8.4606e+001 -1.7130e+002 -3.7646e+001 22534 113358,113024,112998
 5.4000e+000 113099 -5.3836e+001 -1.8099e+002 -7.5624e+000 22534 112868,113050,112894
 5.4000e+000 113076 -6.0055e+001 -3.0543e+002 -5.0618e+001 22534 112946,112998,112972
 5.4000e+000 113240 -6.2589e+001 -2.1593e+002 -3.9867e+001 22534 113358,112998,113214
 5.4000e+000 113263 -5.1191e+001 -1.9546e+002 -8.9638e+000 22534 113050,113214,112894
 5.4000e+000 113312 -2.6672e+001 -1.8475e+002 -1.0747e+001 22534 112894,113214,113286
 5.4000e+000 113335 -1.6444e+001 -1.8542e+002 -1.0375e+001 22534 112894,113286,112920
 5.4000e+000 113384 -6.0037e+001 -1.3042e+002 -2.7347e+001 22534 113050,113024,113358
 5.4000e+000 113407 -2.8324e+001 -1.6736e+002 -2.4710e+001 22534 113050,113358,113214
 5.4000e+000 113785 -9.4183e+001 -2.4817e+002  5.8068e+000 21978 113808,113615,113511
 5.4000e+000 113762 -7.5434e+001 -2.5097e+002  1.6872e+001 21978 113808,113511,113667
 5.4000e+000 113739 -5.4912e+001 -2.1288e+002 -1.0029e+001 21978 113511,113615,113537
 5.4000e+000 113716  2.7816e+001 -1.8991e+002 -2.1228e+001 21978 113537,113615,113589
 5.4000e+000 113693 -2.5375e+001 -2.7183e+002  3.6489e+000 21978 113537,113589,113563
 5.4000e+000 113834 -9.7641e+001 -2.4842e+002  2.9784e+001 21978 113641,113615,113808
 5.4000e+000 113857 -4.8390e+001 -2.2935e+002  4.2987e+001 21978 113641,113808,113667
 5.4000e+000 114284 -6.7147e+001 -2.0578e+002  4.7329e+000 21517 114013,114117,114039
 5.4000e+000 114261 -7.7120e+001 -2.0503e+002  1.6729e+001 21517 113961,114117,114013
 5.4000e+000 114238 -7.4336e+001 -2.0749e+002  1.7189e+001 21517 113961,114013,113987
 5.4000e+000 114215 -1.1222e+002 -2.3711e+002 -1.6817e+001 21517 114039,114117,114091
 5.4000e+000 114192 -7.8533e+001 -1.7266e+002  2.0089e+001 21517 113961,114143,114117
 5.4000e+000 114169 -1.6921e+001 -2.0365e+002 -1.7884e+001 21517 114039,114091,114065
 5.4000e+000 114581 -3.4009e+001 -2.3901e+002  3.0539e+000 21027 114359,114463,114437
 5.4000e+000 114558 -1.3988e+001 -2.1568e+002  2.9487e+001 21027 114333,114463,114359
 5.4000e+000 114535 -9.7496e+000 -2.1634e+002 -6.3551e+000 21027 114359,114437,114385
 5.4000e+000 114512 -6.8456e+000 -2.1345e+002  2.7116e+001 21027 114307,114463,114333
 5.4000e+000 114489  4.2956e+001 -2.0276e+002 -9.6230e+000 21027 114385,114437,114411
 5.4000e+000 114912 -9.2704e+001 -2.1161e+002  3.4781e+000 20623 114713,114791,114765
 5.4000e+000 114889 -6.5291e+001 -2.0037e+002 -1.4455e+001 20623 114687,114791,114713
 5.4000e+000 114866 -4.3027e+001 -2.2019e+002 -1.7219e+001 20623 114687,114817,114791
 5.4000e+000 114843 -1.3945e+002 -2.6063e+002  2.3436e+001 20623 114713,114765,114739
 5.4000e+000 115290 -2.5014e+001 -1.9062e+002  1.0600e+001 20375 115313,115146,115094
 5.4000e+000 115267 -4.1515e+001 -1.8164e+002  1.9566e+001 20375 115313,115094,115042
 5.4000e+000 115244 -5.4019e+001 -1.7414e+002  6.0076e+000 20375 115385,115016,115172
 5.4000e+000 115221 -1.8104e+001 -1.6966e+002  1.5383e+001 20375 115042,115094,115068
 5.4000e+000 115198 -3.9191e+001 -2.2649e+002  1.1862e+001 20375 115094,115146,115120
 5.4000e+000 115339 -5.9460e+001 -2.2639e+002 -7.3945e+000 20375 115172,115146,115313
 5.4000e+000 115362 -3.1798e+001 -1.8006e+002  7.1307e+000 20375 115385,115172,115313
 5.4000e+000 115411 -6.6250e+001 -1.8077e+002  8.5688e+000 20375 115042,115016,115385
 5.4000e+000 115434 -5.5602e+001 -1.9439e+002  1.3222e+001 20375 115042,115385,115313
 5.4000e+000 115891 -9.9010e+001 -1.9509e+002  2.4022e+001 19971 115617,115747,115643
 5.4000e+000 115868 -8.5817e+001 -1.6380e+002  2.4115e+001 19971 115617,115773,115747
 5.4000e+000 115845 -6.4189e+001 -2.9949e+002  4.1775e+000 19971 115643,115721,115695
 5.4000e+000 115822 -2.6890e+000 -1.4881e+002 -5.8552e-001 19971 115643,115747,115721
 5.4000e+000 115799 -5.3649e+001 -3.6559e+002 -2.8051e+001 19971 115643,115695,115669
 5.4000e+000 115992 -1.4306e+002 -3.6721e+002 -6.3825e+001 19659 115914,115966,115940
 5.4000e+000 116142 -2.2957e+001 -8.3882e+001  2.2656e+000 18997 116041,116093,116067
 5.4000e+000 116119 -4.6306e+001 -1.4406e+002  8.9203e+000 18997 116015,116093,116041
 5.4000e+000 116343 -3.9076e+001 -2.2247e+002 -6.2277e+000 18707 116193,116245,116219
 5.4000e+000 116320 -8.6993e+001 -2.4286e+002 -9.6057e+000 18707 116193,116271,116245
 5.4000e+000 116297 -8.0125e+001 -2.1823e+002 -1.7216e+001 18707 116167,116271,116193
 5.4000e+000 116747 -3.5187e+001 -2.0116e+002 -3.8067e+000 18301 116525,116629,116551
 5.4000e+000 116724 -1.9592e+001 -1.7054e+002  4.8204e+000 18301 116473,116629,116525
 5.4000e+000 116701 -1.2669e+001 -1.6602e+002 -9.1954e+000 18301 116473,116525,116499
 5.4000e+000 116678 -2.9737e+001 -2.0936e+002 -2.6987e+000 18301 116551,116603,116577
 5.4000e+000 116655 -4.1924e+001 -2.1698e+002 -6.2023e+000 18301 116551,116629,116603
 5.4000e+000 117147 -9.7957e+001 -2.2602e+002  9.6945e-001 17747 116899,117029,116925
 5.4000e+000 117124 -5.2306e+001 -1.6549e+002  2.4360e+001 17747 116873,117029,116899
 5.4000e+000 117101 -9.7623e+001 -2.2597e+002  1.1500e+000 17747 116925,117029,116951
 5.4000e+000 117078 -8.3218e+001 -1.9177e+002 -1.6437e-001 17747 116951,117029,117003
 5.4000e+000 117055 -1.1269e+002 -2.5767e+002 -1.6882e+001 17747 116951,117003,116977
 5.4000e+000 117368  1.5242e+001 -2.2203e+002  5.5323e+000 17293 117244,117296,117270
 5.4000e+000 117345 -1.5211e+001 -2.3052e+002 -2.9469e+000 17293 117192,117296,117244
 5.4000e+000 117322 -3.9568e+001 -2.1587e+002 -2.3835e+000 17293 117192,117244,117218
 5.4000e+000 117699 -2.1328e+001 -1.8002e+002 -2.0470e+001 16896 117526,117604,117552
 5.4000e+000 117676 -1.1755e+002 -2.7529e+002  1.7887e+001 16896 117500,117604,117526
 5.4000e+000 117653 -1.2502e+002 -2.1733e+002 -1.0708e+001 16896 117552,117604,117578
 5.4000e+000 117630 -1.0959e+002 -3.5736e+002  2.9425e+001 16896 117474,117604,117500
 5.4000e+000 117849 -2.5000e+002 -4.8465e+002 -1.8412e+001 16534 117722,117774,117748
 5.4000e+000 117826 -1.9652e+002 -5.8818e+002 -8.0021e+001 16534 117722,117800,117774
 5.4000e+000 118070  3.8583e-001 -2.2772e+002  2.8872e+001 16194 117946,117998,117972
 5.4000e+000 118047 -3.6196e+001 -2.5727e+002  1.1495e+001 16194 117894,117998,117946
 5.4000e+000 118024 -1.3083e+002 -2.6421e+002  1.3324e-001 16194 117894,117946,117920
 5.4000e+000 118173 -1.2721e+001 -2.1192e+002  0.0000e+000 15968 118095,118147,118121
 5.4000e+000 118276 -6.3468e+001 -2.3844e+002  1.2715e+000 15433 118299,118198,118250
 5.4000e+000 118325 -6.3832e+001 -2.3929e+002  1.2799e+000 15433 118224,118198,118299
 5.4000e+000 118450 -1.1431e+002 -2.5061e+002  2.4281e+001 421 118372,118424,118398
 5.5000e+000 69891 -4.7084e+001 -2.4484e+002  9.1580e+000 68988 69447,69681,69629
 5.5000e+000 69868  1.2968e+001 -2.1975e+002  6.7338e+000 68988 69421,69681,69447
 5.5000e+000 69845 -5.6587e+000 -1.2338e+002  1.4783e+000 68988 69447,69629,69577
 5.5000e+000 69822 -7.6414e+001 -2.5372e+002 -2.7458e+001 68988 69447,69577,69473
 5.5000e+000 69799 -1.3782e+001 -2.9503e+002  4.9975e+001 68988 69629,69681,69655
 5.5000e+000 69776 -8.2156e+001 -1.5647e+002  4.4923e+000 68988 69577,69629,69603
 5.5000e+000 69753 -6.1029e+001 -2.2828e+002 -3.5432e+001 68988 69473,69577,69551
 5.5000e+000 69730 -8.4371e+001 -4.4570e+002 -4.3272e+001 68988 69473,69551,69525
 5.5000e+000 69707 -1.3538e+002 -2.9699e+002  4.6863e-001 68988 69473,69525,69499
 5.5000e+000 69992 -1.5439e+002 -2.7429e+002 -3.8203e+001 68676 69914,69966,69940
 5.5000e+000 70392 -1.1607e+002 -2.2836e+002  1.8985e+001 68478 70118,70248,70144
 5.5000e+000 70369 -7.6460e+000 -2.3798e+002  4.8937e+001 68478 70118,70274,70248
 5.5000e+000 70346 -6.9745e+001 -1.7160e+002 -3.5911e-001 68478 70144,70222,70196
 5.5000e+000 70323 -5.7968e+001 -1.4104e+002 -7.5908e+000 68478 70144,70248,70222
 5.5000e+000 70300 -7.3671e+001 -1.8658e+002 -2.4804e+000 68478 70144,70196,70170
 5.5000e+000 70841  2.9874e+001 -1.5945e+002 -4.1282e+001 68280 70570,70622,70596
 5.5000e+000 70818 -8.2015e+001 -1.7904e+002 -9.9240e+000 68280 70544,70622,70570
 5.5000e+000 70795 -6.2094e+001 -1.3444e+002 -5.8421e+000 68280 70544,70674,70622
 5.5000e+000 70772 -5.4018e+001 -1.2042e+002  2.0962e+000 68280 70622,70674,70648
 5.5000e+000 70749 -8.6276e+001 -2.0016e+002  1.4642e+001 68280 70518,70674,70544
 5.5000e+000 70726  5.6151e+001 -2.1177e+002  5.6146e+001 68280 70518,70700,70674
 5.5000e+000 70991 -1.0026e+001 -8.2280e+002  2.4880e+001 67968 70864,70916,70890
 5.5000e+000 70968 -2.1940e+002 -8.1719e+002  9.5917e+001 67968 70864,70942,70916
 5.5000e+000 71141 -3.7493e+002 -7.1841e+002 -3.4112e+001 67770 71040,71092,71066
 5.5000e+000 71118 -3.2877e+002 -8.6541e+002  3.8306e+001 67770 71014,71092,71040
 5.5000e+000 71651 -5.7662e+001 -1.6347e+002 -2.5247e+001 67366 71746,71674,71458
 5.5000e+000 71628 -3.9083e+001 -1.3161e+002 -2.8271e+001 67366 71674,71354,71510
 5.5000e+000 71605 -5.3222e+001 -1.8111e+002 -2.3156e+001 67366 71746,71458,71432
 5.5000e+000 71582 -8.2088e+001 -1.8462e+002  9.7963e+000 67366 71354,71432,71380
 5.5000e+000 71559 -8.5032e+001 -1.3757e+002 -1.2855e+001 67366 71380,71432,71406
 5.5000e+000 71536 -4.2100e+001 -5.7208e+001 -2.3477e+000 67366 71328,71510,71354
 5.5000e+000 71700 -6.2303e+001 -1.4750e+002 -1.1941e+001 67366 71484,71458,71674
 5.5000e+000 71723 -4.6017e+001 -1.4003e+002 -9.7858e+000 67366 71484,71674,71510
 5.5000e+000 71772 -5.2404e+001 -1.4250e+002 -2.2263e+001 67366 71354,71674,71746
 5.5000e+000 71795 -4.6592e+001 -1.5760e+002 -2.2467e+001 67366 71354,71746,71432
 5.5000e+000 71896 -1.3481e+002 -2.9346e+002  0.0000e+000 67146 71818,71870,71844
 5.5000e+000 71997 -1.5863e+002 -2.7178e+002  5.4537e+001 66948 71919,71971,71945
 5.5000e+000 72149 -2.3166e+001 -1.8690e+002 -2.1360e+001 66700 72172,72074,72048
 5.5000e+000 72126 -7.5592e+001 -2.1110e+002 -8.1348e+000 66700 72172,72048,72022
 5.5000e+000 72198 -1.1238e+002 -2.2882e+002  1.4240e+001 66700 72244,72172,72100
 5.5000e+000 72221 -9.8720e+001 -2.0936e+002 -1.1040e+001 66700 72100,72172,72022
 5.5000e+000 72270 -6.6268e+001 -1.2741e+002 -1.4615e+001 66700 72074,72172,72244
 5.5000e+000 72623 -8.0129e+001 -1.9838e+002  4.5800e+000 66502 72424,72502,72450
 5.5000e+000 72600 -6.8738e+001 -1.6863e+002  3.8282e+000 66502 72398,72502,72424
 5.5000e+000 72577 -5.6554e+001 -1.8962e+002 -2.5661e+000 66502 72398,72528,72502
 5.5000e+000 72554 -8.3077e+001 -1.7964e+002 -6.0763e-001 66502 72450,72502,72476
 5.5000e+000 72920 -1.2179e+002 -2.4723e+002  6.3512e+000 65941 72672,72776,72750
 5.5000e+000 72897 -1.1834e+002 -2.1290e+002  2.3565e+001 65941 72646,72776,72672
 5.5000e+000 72874 -1.0796e+002 -2.4335e+002  8.2008e+000 65941 72672,72750,72724
 5.5000e+000 72851 -1.0873e+002 -1.9572e+002  1.7342e+001 65941 72672,72724,72698
 5.5000e+000 72828 -9.0596e+001 -2.0934e+002  2.0713e+001 65941 72646,72802,72776
 5.5000e+000 73241 -4.1428e+001 -1.7565e+002  8.8066e+000 65743 73264,73071,73045
 5.5000e+000 73218 -8.1296e+001 -1.9727e+002  1.7534e+001 65743 73480,73264,73045
 5.5000e+000 73195 -6.5200e+001 -1.7558e+002 -1.7804e+000 65743 73336,72967,73097
 5.5000e+000 73172 -1.0426e+002 -1.6196e+002 -1.5411e+001 65743 73408,72993,72967
 5.5000e+000 73149 -6.1093e+001 -1.7648e+002 -2.1832e+000 65743 72967,73123,73097
 5.5000e+000 73290 -5.3650e+001 -1.8050e+002  2.3459e+000 65743 73097,73071,73264
 5.5000e+000 73313 -5.8585e+001 -1.6882e+002  5.4208e+000 65743 73336,73097,73264
 5.5000e+000 73362 -9.0647e+001 -1.8020e+002 -9.9465e+000 65743 73408,72967,73336
 5.5000e+000 73385 -4.9326e+001 -1.6593e+002 -4.6262e-002 65743 73019,73336,73264
 5.5000e+000 73434 -8.1607e+001 -1.2656e+002  8.6403e+000 65743 73019,72993,73408
 5.5000e+000 73457 -5.1281e+001 -1.5172e+002  6.5957e+000 65743 73019,73408,73336
 5.5000e+000 73506 -3.8382e+001 -1.2306e+002  8.1119e-002 65743 73019,73264,73480
 5.5000e+000 73989 -1.3303e+001 -1.4411e+002  1.6553e+001 65453 73793,73845,73819
 5.5000e+000 73966 -7.8890e+001 -1.6136e+002  1.9131e+001 65453 73741,73845,73793
 5.5000e+000 73943 -2.4863e+001 -1.3177e+002  7.7099e+000 65453 73715,73845,73741
 5.5000e+000 73920 -6.3138e+001 -1.7461e+002  3.2683e+001 65453 73741,73793,73767
 5.5000e+000 73897 -3.9930e-001 -8.2325e+001 -2.9677e-001 65453 73715,73871,73845
 5.5000e+000 74357 -4.3303e+001 -1.6677e+002 -4.6901e+001 65141 74380,74138,74086
 5.5000e+000 74334 -7.8667e+001 -2.2516e+002 -3.1228e+001 65141 74380,74086,74060
 5.5000e+000 74311 -8.7317e+001 -2.1957e+002 -8.7937e+000 65141 74138,74190,74164
 5.5000e+000 74288 -7.1986e+001 -2.4494e+002 -9.9996e+000 65141 74060,74216,74190
 5.5000e+000 74265 -7.6041e+001 -2.5834e+002  3.9991e+000 65141 74034,74216,74060
 5.5000e+000 74242 -4.7605e+001 -1.1492e+002 -2.3222e+001 65141 74086,74138,74112
 5.5000e+000 74406 -6.5469e+001 -2.1856e+002 -1.8782e+001 65141 74190,74138,74380
 5.5000e+000 74429 -7.6347e+001 -2.3872e+002 -8.5428e+000 65141 74190,74380,74060
 5.5000e+000 74937 -9.1946e+001 -1.8208e+002 -4.2249e+001 64737 74614,74666,74640
 5.5000e+000 74914 -1.1301e+002 -2.1727e+002 -3.1342e+001 64737 74614,74796,74666
 5.5000e+000 74891 -8.1379e+001 -1.4902e+002 -3.6472e+000 64737 74960,74718,74666
 5.5000e+000 74868 -7.4966e+001 -1.6488e+002 -1.8043e+001 64737 74960,74666,74770
 5.5000e+000 74845 -7.7981e+001 -1.3979e+002 -1.9657e+001 64737 74666,74796,74770
 5.5000e+000 74822 -7.8056e+001 -1.6164e+002  4.4298e+000 64737 74666,74718,74692
 5.5000e+000 74986 -8.5171e+001 -1.6529e+002 -6.4489e+000 64737 74744,74718,74960
 5.5000e+000 75009 -8.4923e+001 -1.8980e+002 -2.1743e+001 64737 74744,74960,74770
 5.5000e+000 75306 -4.4495e+001 -1.5789e+002  2.4564e+001 64133 75329,75110,75084
 5.5000e+000 75283 -5.7201e+001 -1.8854e+002  7.1126e+000 64133 75401,75329,75084
 5.5000e+000 75260 -5.6014e+001 -1.9370e+002  8.4888e+000 64133 75401,75084,75058
 5.5000e+000 75237 -5.6348e+001 -2.2686e+002  3.0329e+001 64133 75473,75136,75110
 5.5000e+000 75214 -5.6003e+001 -1.7535e+002  2.1594e+000 64133 75032,75188,75162
 5.5000e+000 75355 -6.6388e+001 -2.0941e+002  2.3135e+001 64133 75473,75110,75329
 5.5000e+000 75378 -4.9665e+001 -1.8059e+002  2.4766e+000 64133 75162,75329,75032
 5.5000e+000 75427 -4.6999e+001 -1.7398e+002  1.3823e+000 64133 75032,75329,75401
 5.5000e+000 75450 -8.8493e+001 -2.1432e+002  2.2517e+001 64133 75545,75401,75058
 5.5000e+000 75499 -4.7532e+001 -2.0503e+002  1.0270e+001 64133 75162,75136,75473
 5.5000e+000 75522 -5.6721e+001 -1.7638e+002  8.1847e+000 64133 75162,75473,75329
 5.5000e+000 75571 -4.5625e+001 -1.2061e+002  6.1584e+000 64133 75032,75401,75545
 5.5000e+000 75851 -7.6034e+001 -1.7298e+002  4.4171e+000 63843 75874,75753,75727
 5.5000e+000 75828 -6.6117e+001 -1.6788e+002 -7.2036e+000 63843 75946,75874,75727
 5.5000e+000 75805 -7.4249e+001 -1.7596e+002 -3.6324e+000 63843 76018,75946,75727
 5.5000e+000 75900 -6.2081e+001 -1.6712e+002 -6.3586e+000 63843 75779,75753,75874
 5.5000e+000 75923 -6.3277e+001 -1.4200e+002 -1.9156e+001 63843 75779,75874,75675
 5.5000e+000 75972 -7.4816e+001 -1.6211e+002 -6.4639e+000 63843 75675,75874,75946
 5.5000e+000 75995 -6.9640e+001 -1.6666e+002 -1.0568e+001 63843 75675,75946,75701
 5.5000e+000 76044 -7.5840e+001 -1.7256e+002 -1.3602e+001 63843 75701,75946,76018
 5.5000e+000 76454  1.0132e+001 -3.0877e+001 -1.7745e+001 63439 76477,76255,76229
 5.5000e+000 76431 -1.7096e+001 -7.6674e+001  2.5299e-001 63439 76477,76229,76359
 5.5000e+000 76408 -2.3240e+001 -5.9156e+001  3.4936e+001 63439 76307,76359,76333
 5.5000e+000 76385 -1.4354e+001 -8.2526e+001  4.3674e+000 63439 76255,76307,76281
 5.5000e+000 76503 -1.8335e+001 -6.6998e+001  9.4969e+000 63439 76307,76255,76477
 5.5000e+000 76526 -1.7129e+001 -8.4807e+001  2.2522e+001 63439 76307,76477,76359
 5.5000e+000 76926 -3.9594e+001 -1.1661e+002 -9.9080e-001 63049 76704,76782,76756
 5.5000e+000 76903 -5.4806e+001 -1.2043e+002 -1.1309e+001 63049 76704,76808,76782
 5.5000e+000 76880 -3.9353e+001 -1.3206e+002  2.1007e+000 63049 76704,76756,76730
 5.5000e+000 76857 -3.2963e+001 -7.6884e+001  5.7221e+000 63049 76678,76808,76704
 5.5000e+000 76834 -1.4391e+001 -1.7681e+001 -1.7025e+001 63049 76652,76808,76678
 5.5000e+000 77076 -1.8904e+001 -2.0462e+002 -1.5645e+000 62737 76975,77027,77001
 5.5000e+000 77053 -1.6809e+001 -2.2829e+002 -1.4190e+001 62737 76949,77027,76975
 5.5000e+000 77324 -8.4271e+001 -1.9885e+002 -2.0185e+000 62277 77347,77177,77125
 5.5000e+000 77301 -8.5135e+001 -1.9340e+002 -1.1137e+001 62277 77347,77125,77229
 5.5000e+000 77278 -8.2783e+001 -2.0095e+002 -1.5901e+001 62277 77099,77229,77125
 5.5000e+000 77255 -8.9841e+001 -2.3620e+002  2.6740e+000 62277 77125,77177,77151
 5.5000e+000 77373 -8.9393e+001 -2.1534e+002  2.8183e+000 62277 77203,77177,77347
 5.5000e+000 77396 -8.1883e+001 -2.0123e+002 -7.5994e+000 62277 77203,77347,77229
 5.5000e+000 77857 -4.7143e+001 -2.5343e+002  3.0400e+000 61758 77635,77739,77661
 5.5000e+000 77834 -6.8157e+001 -2.4587e+002 -8.5007e+000 61758 77583,77739,77635
 5.5000e+000 77811 -7.8410e+001 -3.0937e+002 -2.9507e+001 61758 77583,77635,77609
 5.5000e+000 77788 -6.3745e+001 -2.4354e+002  1.8896e+001 61758 77661,77713,77687
 5.5000e+000 77765 -6.7391e+001 -2.7683e+002  1.8222e+001 61758 77661,77739,77713
 5.5000e+000 78491 -7.2042e+001 -1.3641e+002  7.2970e+000 61418 78171,78301,78249
 5.5000e+000 78468 -5.6305e+001 -1.1109e+002  1.7425e+001 61418 78145,78301,78171
 5.5000e+000 78445 -5.3802e+001 -1.2125e+002 -5.4398e+000 61418 78171,78249,78223
 5.5000e+000 78422 -5.3620e+001 -1.0954e+002  6.0769e+000 61418 78145,78327,78301
 5.5000e+000 78399 -7.5477e+001 -1.5610e+002 -2.5994e+000 61418 78249,78301,78275
 5.5000e+000 78376 -3.2538e+001 -1.3305e+002 -8.6969e+000 61418 78171,78223,78197
 5.5000e+000 78353 -6.3510e+001 -1.4544e+002 -3.4899e+000 61418 78119,78327,78145
 5.5000e+000 78690 -6.5388e+001 -1.5448e+002  8.0952e-001 61014 78713,78566,78540
 5.5000e+000 78667 -4.7327e+001 -1.5852e+002  2.9082e+000 61014 78713,78540,78618
 5.5000e+000 78644 -7.4130e+001 -1.7915e+002 -1.6826e+001 61014 78514,78618,78540
 5.5000e+000 78739 -3.6463e+001 -1.5087e+002  1.6750e+001 61014 78592,78566,78713
 5.5000e+000 78762 -4.8526e+001 -1.6650e+002  2.2951e+000 61014 78785,78713,78618
 5.5000e+000 78811 -1.4497e+001 -1.5325e+002 -1.4355e+000 61014 78592,78713,78785
 5.5000e+000 79398 -3.0247e+001 -1.4081e+002 -1.3111e+001 60624 79101,79179,79153
 5.5000e+000 79375 -3.9967e+001 -1.5524e+002 -6.9790e+000 60624 79101,79231,79179
 5.5000e+000 79352 -3.1058e+001 -1.5395e+002 -1.0112e+001 60624 79075,79231,79101
 5.5000e+000 79329 -1.0226e+001 -1.8259e+002  1.9048e+001 60624 79075,79257,79231
 5.5000e+000 79306 -2.9803e+001 -1.1922e+002 -2.1924e+001 60624 79179,79231,79205
 5.5000e+000 79283 -2.3676e+001 -1.2610e+002 -8.6569e+000 60624 79101,79153,79127
 5.5000e+000 79776 -8.2981e+001 -2.1297e+002  1.7098e+001 60070 79528,79658,79606
 5.5000e+000 79753 -7.6388e+001 -1.7362e+002 -6.9223e-001 60070 79502,79658,79528
 5.5000e+000 79730 -1.0149e+002 -2.0426e+002  2.6943e+001 60070 79528,79606,79580
 5.5000e+000 79707 -3.5757e+001 -1.8893e+002  4.3291e+000 60070 79606,79658,79632
 5.5000e+000 79684 -9.5631e+000 -1.2590e+002 -3.2273e+001 60070 79528,79580,79554
 5.5000e+000 80105 -6.0668e+001 -1.6521e+002  1.9578e+001 59758 80128,79958,79906
 5.5000e+000 80082 -6.1731e+001 -1.5701e+002  1.5374e+001 59758 80128,79906,80010
 5.5000e+000 80059 -8.4780e+001 -1.7529e+002  5.5035e+001 59758 79906,79958,79932
 5.5000e+000 80036 -8.9746e+001 -1.7796e+002  6.2447e+000 59758 79880,80010,79906
 5.5000e+000 80154 -6.1309e+001 -1.7055e+002  2.0206e+001 59758 79984,79958,80128
 5.5000e+000 80177 -6.3915e+001 -1.6445e+002  1.6142e+001 59758 79984,80128,80010
 5.5000e+000 80376 -4.4192e+001 -1.4594e+002  2.9526e+000 59312 80226,80304,80252
 5.5000e+000 80353 -4.3172e+001 -1.5126e+002  2.9195e+000 59312 80200,80304,80226
 5.5000e+000 80330 -6.7387e+001 -1.3251e+002  3.9641e+001 59312 80252,80304,80278
 5.5000e+000 80805 -6.0035e+001 -1.3653e+002 -2.1521e+001 58908 80900,80828,80638
 5.5000e+000 80782 -4.7774e+001 -1.6127e+002 -3.2431e+001 58908 80828,80560,80508
 5.5000e+000 80759 -6.3354e+001 -1.2831e+002 -7.8145e+000 58908 80900,80638,80612
 5.5000e+000 80736 -2.6090e+001 -1.3937e+002  5.6920e+001 58908 80482,80664,80508
 5.5000e+000 80713 -4.1901e+001 -1.1938e+002 -4.4594e+000 58908 80560,80612,80586
 5.5000e+000 80690 -5.7209e+001 -4.1436e+002 -7.7612e+001 58908 80508,80560,80534
 5.5000e+000 80854 -2.7935e+001 -1.4711e+002 -1.0654e-001 58908 80664,80638,80828
 5.5000e+000 80877 -4.7601e+001 -2.1348e+002  3.7035e+000 58908 80664,80828,80508
 5.5000e+000 80926 -5.0359e+001 -1.1182e+002 -2.3825e+001 58908 80560,80828,80900
 5.5000e+000 80949 -5.7437e+001 -1.1206e+002 -8.1807e+000 58908 80560,80900,80612
 5.5000e+000 81246 -2.6242e+001 -1.3335e+002 -3.6916e+000 58482 81076,81128,81102
 5.5000e+000 81223 -6.3002e+001 -2.2702e+002 -2.2738e+001 58482 80972,81128,81076
 5.5000e+000 81200 -4.1021e+001 -1.5500e+002 -2.4458e+001 58482 80972,81076,81050
 5.5000e+000 81177 -8.8542e+001 -2.3230e+002 -7.7977e+000 58482 80998,81050,81024
 5.5000e+000 81154 -5.0220e+001 -1.9158e+002 -2.3868e+001 58482 80972,81050,80998
 5.5000e+000 81754 -6.6997e+001 -1.3591e+002  9.0045e+000 57828 81457,81613,81483
 5.5000e+000 81731 -7.5959e+001 -1.5318e+002  3.9609e+000 57828 81431,81613,81457
 5.5000e+000 81708 -7.2467e+001 -1.4867e+002  1.0492e+001 57828 81483,81613,81509
 5.5000e+000 81685 -8.6312e+001 -1.6864e+002  1.6585e+001 57828 81509,81613,81587
 5.5000e+000 81662 -9.1217e+001 -2.4915e+002  3.4463e+001 57828 81509,81587,81535
 5.5000e+000 81639 -5.3346e+001 -2.3306e+002  2.1345e+001 57828 81535,81587,81561
 5.5000e+000 82002 -1.0014e+002 -2.4340e+002 -7.1864e-001 57374 82025,81855,81829
 5.5000e+000 81979 -1.0654e+002 -2.2829e+002  1.1679e+001 57374 82025,81829,81907
 5.5000e+000 81956 -1.1019e+002 -2.1320e+002  7.4598e+000 57374 81803,81907,81829
 5.5000e+000 81933 -6.0694e+001 -1.9150e+002  1.3040e+001 57374 81777,81907,81803
 5.5000e+000 82051 -9.8703e+001 -2.2540e+002 -2.0466e+000 57374 81881,81855,82025
 5.5000e+000 82074 -1.0235e+002 -2.1220e+002  1.4548e+001 57374 81881,82025,81907
 5.5000e+000 82356 -5.9213e+001 -1.4111e+002 -8.3343e+000 56913 82180,82232,82206
 5.5000e+000 82333 -5.2199e+001 -1.3523e+002  1.1392e+001 56913 82180,82284,82232
 5.5000e+000 82310 -1.6103e+001 -1.0291e+002  2.5626e+001 56913 82379,82232,82284
 5.5000e+000 82405  1.7039e+001 -1.0060e+002  2.0497e+000 56913 82258,82232,82379
 5.5000e+000 82764 -5.9490e+001 -9.3819e+001 -9.4208e+000 56523 82614,82666,82640
 5.5000e+000 82741 -5.0339e+001 -9.2770e+001 -1.4149e+001 56523 82614,82692,82666
 5.5000e+000 82718 -4.2147e+001 -9.8834e+001 -2.8334e+001 56523 82588,82692,82614
 5.5000e+000 83368 -1.0437e+001 -1.5497e+002 -6.9882e+000 55969 82973,83155,83129
 5.5000e+000 83345  3.0367e+000 -1.5003e+002 -1.1420e+001 55969 82973,83181,83155
 5.5000e+000 83322 -4.0342e+001 -1.3738e+002 -5.3141e+000 55969 82973,83129,82999
 5.5000e+000 83299 -6.6481e+001 -1.4156e+002  2.7082e+000 55969 83391,83025,82999
 5.5000e+000 83276 -5.6937e+001 -1.4592e+002 -6.6366e-001 55969 83391,82999,83129
 5.5000e+000 83253 -9.2205e+000 -1.2198e+002  2.6868e+001 55969 83077,83129,83103
 5.5000e+000 83230 -7.1056e+001 -1.1530e+002 -6.4601e+000 55969 83025,83077,83051
 5.5000e+000 83207 -1.2583e+000 -1.4498e+002  1.3330e+001 55969 82947,83181,82973
 5.5000e+000 83417 -5.7331e+001 -1.3621e+002  5.3857e+000 55969 83077,83025,83391
 5.5000e+000 83440 -5.4067e+001 -1.4324e+002  7.0358e-001 55969 83077,83391,83129
 5.5000e+000 83946 -1.1366e+002 -2.5053e+002  3.9833e+001 55771 83969,83779,83727
 5.5000e+000 83923 -8.9572e+001 -2.0115e+002  2.5832e+001 55771 83969,83727,83623
 5.5000e+000 83900 -1.0625e+002 -1.0062e+002  1.4161e+001 55771 83623,83727,83649
 5.5000e+000 83877 -8.9396e+001 -4.3186e+002  1.8594e+001 55771 83727,83779,83753
 5.5000e+000 83854 -1.4676e+002 -1.9396e+002  4.9159e+001 55771 83675,83727,83701
 5.5000e+000 83831 -1.6421e+002 -1.6191e+002  6.6120e+001 55771 83649,83727,83675
 5.5000e+000 83995 -1.0799e+002 -2.6127e+002 -2.2145e+001 55771 83805,83779,83969
 5.5000e+000 84018 -5.7744e+001 -1.6266e+002 -4.1382e+001 55771 83805,83969,83623
 5.5000e+000 84168 -5.0057e+001 -1.2292e+002 -3.6364e+000 55367 84191,84067,84041
 5.5000e+000 84145 -4.9065e+001 -1.3840e+002 -2.3847e+000 55367 84191,84041,84119
 5.5000e+000 84217 -5.3055e+001 -1.1399e+002 -3.3340e+000 55367 84093,84067,84191
 5.5000e+000 84240 -4.6974e+001 -1.2286e+002  2.2962e+000 55367 84093,84191,84119
 5.5000e+000 84571 -2.8933e+001 -1.8693e+002 -1.9015e+001 54913 84398,84450,84424
 5.5000e+000 84548 -2.4858e+001 -1.7213e+002 -1.0184e+001 54913 84372,84450,84398
 5.5000e+000 84525 -4.6766e+001 -1.9255e+002  6.4644e+000 54913 84346,84450,84372
 5.5000e+000 84502 -1.7753e+001 -1.2576e+002 -1.7307e+001 54913 84346,84476,84450
 5.5000e+000 85126 -9.6761e+001 -2.1209e+002 -1.0402e+001 54402 84858,84936,84910
 5.5000e+000 85103 -7.4262e+001 -1.6347e+002 -1.8753e+001 54402 84806,84936,84858
 5.5000e+000 85080 -9.0865e+001 -1.5063e+002 -1.5086e+001 54402 84780,84936,84806
 5.5000e+000 85057 -7.3918e+001 -1.8235e+002 -7.1589e+000 54402 84806,84858,84832
 5.5000e+000 85034 -8.3312e+001 -1.4264e+002  6.8058e+000 54402 84780,84962,84936
 5.5000e+000 85011 -1.1218e+002 -1.2665e+002 -5.1579e+000 54402 84858,84910,84884
 5.5000e+000 84988 -8.1212e+001 -1.4261e+002  8.9162e+000 54402 84754,84962,84780
 5.5000e+000 85396 -7.7191e+001 -9.4126e+001 -6.2278e+000 53998 85197,85249,85223
 5.5000e+000 85373 -5.9723e+001 -1.1806e+002 -1.5252e+000 53998 85197,85275,85249
 5.5000e+000 85350 -7.6070e+001 -1.3936e+002 -8.8973e+000 53998 85171,85275,85197
 5.5000e+000 85327 -3.5739e+001 -1.2935e+002 -1.1088e+001 53998 85171,85301,85275
 5.5000e+000 85749 -4.2840e+001 -1.4399e+002 -3.8282e+000 53636 85524,85628,85550
 5.5000e+000 85726 -6.6243e+001 -1.6384e+002  4.9579e+000 53636 85524,85654,85628
 5.5000e+000 85703 -2.4335e+001 -1.5116e+002 -1.5035e+001 53636 85550,85602,85576
 5.5000e+000 85680 -4.0600e+001 -1.4214e+002 -7.3863e+000 53636 85550,85628,85602
 5.5000e+000 86127 -1.6879e+001 -1.4978e+002  2.3753e+001 52982 86150,85957,85879
 5.5000e+000 86104 -5.3652e+001 -1.7334e+002  1.3538e+001 52982 86150,85879,85853
 5.5000e+000 86081 -1.4216e+001 -2.1811e+002  4.3265e+001 52982 85957,86009,85983
 5.5000e+000 86058 -6.3705e+001 -1.6043e+002  1.9093e+001 52982 85879,85957,85931
 5.5000e+000 86035 -4.1175e+001 -1.5304e+002 -6.2033e+000 52982 85879,85931,85905
 5.5000e+000 86176  5.8876e+000 -1.7669e+002  1.8964e+001 52982 86009,85957,86150
 5.5000e+000 86199 -1.5869e+001 -1.9108e+002  1.1708e+001 52982 86009,86150,85853
 5.5000e+000 86398 -3.8720e+001 -1.2567e+002  1.1855e+001 52542 86421,86248,86222
 5.5000e+000 86375 -6.5937e+001 -1.2804e+002 -8.9307e-001 52542 86421,86222,86300
 5.5000e+000 86352 -6.5787e+001 -1.3812e+002 -5.7137e+000 52542 86222,86326,86300
 5.5000e+000 86447 -1.1174e+001 -1.2606e+002  2.2624e+001 52542 86274,86248,86421
 5.5000e+000 86470 -3.6989e+001 -1.3253e+002  6.5459e+000 52542 86274,86421,86300
 5.5000e+000 86669 -5.9572e+001 -1.2898e+002 -2.3435e+001 52230 86692,86571,86545
 5.5000e+000 86646 -5.8509e+001 -1.2403e+002 -1.3905e+001 52230 86692,86545,86519
 5.5000e+000 86623 -8.0392e+001 -1.2666e+002 -1.8368e+001 52230 86493,86597,86519
 5.5000e+000 86718 -6.4538e+001 -1.3139e+002 -2.4897e+001 52230 86597,86571,86692
 5.5000e+000 86741 -6.9992e+001 -1.2925e+002 -1.5775e+001 52230 86597,86692,86519
 5.5000e+000 87153 -8.1217e+001 -1.2472e+002  4.9417e+000 51640 86980,87058,87032
 5.5000e+000 87130 -7.9476e+001 -1.2728e+002  3.9502e+000 51640 86928,87058,86980
 5.5000e+000 87107 -8.3454e+001 -1.7004e+002 -7.9822e+000 51640 86928,86980,86954
 5.5000e+000 87084 -4.3130e+001 -1.0855e+002 -1.0474e+000 51640 86980,87032,87006
 5.5000e+000 87659 -3.8737e+001 -1.1456e+002  3.1709e+000 51029 87682,87440,87362
 5.5000e+000 87636 -3.3713e+001 -1.2130e+002 -1.2166e+001 51029 87682,87362,87336
 5.5000e+000 87613 -5.6299e+001 -1.7112e+002 -4.3215e+000 51029 87440,87518,87466
 5.5000e+000 87590 -5.8967e+001 -1.1399e+002  4.2790e+000 51029 87362,87440,87414
 5.5000e+000 87567 -4.8457e+001 -8.6250e+001  1.9720e+001 51029 87362,87414,87388
 5.5000e+000 87544 -7.4293e+001 -1.5726e+002  3.5211e+000 51029 87466,87518,87492
 5.5000e+000 87708 -3.7990e+001 -1.2814e+002 -9.8377e-001 51029 87518,87440,87682
 5.5000e+000 87731 -3.6679e+001 -1.4813e+002 -1.0623e+001 51029 87518,87682,87336
 5.5000e+000 87881 -7.6589e+001 -1.6592e+002  4.1311e+000 50739 87780,87832,87806
 5.5000e+000 87858 -8.6900e+001 -1.6587e+002 -7.5427e+000 50739 87754,87832,87780
 5.5000e+000 88468 -5.1385e+001 -1.0769e+002  6.0897e+000 50235 88171,88327,88197
 5.5000e+000 88445 -1.0651e+002 -1.0936e+002 -1.5070e+001 50235 88145,88327,88171
 5.5000e+000 88422  2.8730e-001 -5.1426e+001 -2.0123e-001 50235 88275,88327,88301
 5.5000e+000 88399 -3.2505e+001 -6.5474e+001 -8.6018e-001 50235 88197,88327,88275
 5.5000e+000 88376 -1.4902e+001 -9.7566e+001 -1.4026e+000 50235 88197,88275,88223
 5.5000e+000 88353 -1.7510e+001 -1.3054e+002 -1.1863e+001 50235 88223,88275,88249
 5.5000e+000 88895 -7.2969e+001 -1.7352e+002  4.3671e+000 49873 88918,88728,88676
 5.5000e+000 88872 -6.2635e+001 -1.6273e+002 -2.7189e+000 49873 88918,88676,88624
 5.5000e+000 88849 -4.9610e+001 -1.4424e+002 -5.9794e+000 49873 88598,88754,88624
 5.5000e+000 88826 -3.9415e+001 -1.5315e+002 -4.0010e+000 49873 88624,88676,88650
 5.5000e+000 88803 -6.0099e+001 -2.1238e+002  6.5234e+000 49873 88676,88728,88702
 5.5000e+000 88780 -6.0274e+001 -1.4877e+002 -7.5809e+000 49873 88572,88754,88598
 5.5000e+000 88944 -6.0255e+001 -1.7195e+002 -2.5024e+000 49873 88754,88728,88918
 5.5000e+000 88967 -5.6373e+001 -1.6839e+002 -8.4667e+000 49873 88754,88918,88624
 5.5000e+000 89473 -1.0318e+002 -1.6303e+002 -1.9435e+001 49583 89176,89306,89202
 5.5000e+000 89450 -1.0248e+002 -1.6062e+002 -2.4501e+001 49583 89176,89332,89306
 5.5000e+000 89427 -6.1159e+001 -1.7720e+002  7.8591e+000 49583 89496,89228,89202
 5.5000e+000 89404 -6.1524e+001 -1.8124e+002  9.4670e+000 49583 89496,89202,89280
 5.5000e+000 89381 -1.2774e+002 -2.2634e+002 -3.9027e+001 49583 89202,89306,89280
 5.5000e+000 89358 -7.9809e+001 -1.6107e+002 -2.7976e+001 49583 89150,89332,89176
 5.5000e+000 89522 -5.7820e+001 -1.5026e+002  4.3830e+000 49583 89254,89228,89496
 5.5000e+000 89545 -7.0500e+001 -1.7334e+002  9.2939e+000 49583 89254,89496,89280
 5.5000e+000 89825  1.0957e+001 -1.6329e+002  6.6365e+000 49179 89701,89753,89727
 5.5000e+000 89802 -2.4967e+001 -1.4627e+002  9.0599e+000 49179 89675,89753,89701
 5.5000e+000 89779 -1.8504e+001 -1.3024e+002  8.0621e+000 49179 89848,89753,89675
 5.5000e+000 89874 -9.1972e+001 -1.5509e+002 -1.2217e+001 49179 89649,89753,89848
 5.5000e+000 90223 -5.2597e+001 -1.5635e+002 -1.8437e+001 48739 90024,90102,90076
 5.5000e+000 90200 -5.0451e+001 -1.4722e+002 -7.3108e+000 48739 90024,90128,90102
 5.5000e+000 90177  7.3312e-001 -1.5161e+002 -1.9595e+001 48739 90024,90076,90050
 5.5000e+000 90154 -1.8258e+001 -1.3981e+002  9.7871e+000 48739 89998,90128,90024
 5.5000e+000 90603 -4.7395e+001 -1.2354e+002  2.7214e+001 48335 90381,90485,90459
 5.5000e+000 90580 -6.2567e+001 -1.4590e+002  2.0202e+001 48335 90355,90485,90381
 5.5000e+000 90557 -2.3894e+001 -4.8164e+001  1.3296e+001 48335 90381,90433,90407
 5.5000e+000 90534 -4.7246e+001 -1.2923e+002  2.0397e+001 48335 90381,90459,90433
 5.5000e+000 90511  1.9963e+001 -1.0092e+002  3.8639e+001 48335 90329,90485,90355
 5.5000e+000 90753 -8.7541e-001 -7.9626e+001  4.9379e+001 47824 90776,90652,90704
 5.5000e+000 90730 -4.2305e+001 -1.4147e+002  2.3107e+001 47824 90626,90704,90652
 5.5000e+000 90802 -1.8688e+001 -1.0411e+002  3.9756e+001 47824 90678,90652,90776
 5.5000e+000 91131 -5.3674e+001 -1.7958e+002  8.0390e+000 47427 91154,90958,90906
 5.5000e+000 91108 -9.3810e+001 -1.9617e+002  1.7654e+000 47427 91154,90906,91036
 5.5000e+000 91085 -8.9916e+001 -1.5435e+002 -1.3915e+001 47427 90958,91010,90984
 5.5000e+000 91062 -5.3781e+001 -1.6000e+002  1.0374e+001 47427 90906,90958,90932
 5.5000e+000 91180 -7.6959e+001 -1.7722e+002 -1.8510e+001 47427 91010,90958,91154
 5.5000e+000 91203 -1.1548e+002 -1.9387e+002 -2.5449e+001 47427 91010,91154,91036
 5.5000e+000 91583 -8.7248e+001 -1.6471e+002 -9.6780e+000 46873 91309,91439,91335
 5.5000e+000 91560 -9.2312e+001 -1.6545e+002 -7.9660e+000 46873 91309,91465,91439
 5.5000e+000 91537 -1.3086e+002 -1.8978e+002 -4.9308e+001 46873 91361,91439,91413
 5.5000e+000 91514 -9.7872e+001 -1.7185e+002 -2.6226e+001 46873 91335,91439,91361
 5.5000e+000 91491 -4.4731e+001 -1.5940e+002 -4.3734e+001 46873 91361,91413,91387
 5.5000e+000 91880 -5.6701e+001 -1.7768e+002 -4.6418e+000 46526 91606,91710,91658
 5.5000e+000 91857 -5.9857e+001 -1.8740e+002  1.6069e+000 46526 91606,91762,91710
 5.5000e+000 91834 -3.5361e+001 -1.7013e+002 -2.0149e+001 46526 91606,91658,91632
 5.5000e+000 91811 -6.8381e+001 -1.6478e+002  3.1337e+000 46526 91658,91710,91684
 5.5000e+000 91788 -3.9478e+001 -1.2817e+002  5.3320e+000 46526 91710,91762,91736
 5.5000e+000 92211 -2.8311e+001 -6.9521e+001 -5.8027e+000 45700 91986,92064,92038
 5.5000e+000 92188 -3.9494e+001 -1.0474e+002  8.6346e-001 45700 91986,92116,92064
 5.5000e+000 92165 -2.1989e+001 -5.9511e+001 -1.2534e+001 45700 91986,92038,92012
 5.5000e+000 92142 -2.5523e+001 -1.1600e+002  1.5130e+001 45700 92064,92116,92090
 5.5000e+000 92766 -7.7788e+001 -1.5260e+002  8.7894e+000 45452 92446,92602,92576
 5.5000e+000 92743 -1.2011e+002 -1.4912e+002 -1.6762e+001 45452 92420,92602,92446
 5.5000e+000 92720 -9.2249e+001 -1.6050e+002  2.5313e+001 45452 92789,92524,92498
 5.5000e+000 92697 -1.0617e+002 -1.5684e+002  2.0995e+001 45452 92789,92498,92446
 5.5000e+000 92674 -8.9688e+001 -1.6928e+002  1.1834e-001 45452 92524,92576,92550
 5.5000e+000 92651 -1.4072e+002 -1.6349e+002  8.6047e+001 45452 92446,92498,92472
 5.5000e+000 92628 -7.3264e+001 -1.8093e+002 -4.2780e+001 45452 92394,92602,92420
 5.5000e+000 92815 -8.2396e+001 -1.6180e+002  2.1527e+001 45452 92576,92524,92789
 5.5000e+000 92838 -9.3448e+001 -1.5605e+002  1.9017e+001 45452 92576,92789,92446
 5.5000e+000 92939 -6.7873e+001 -2.0897e+002 -4.2990e+001 44998 92861,92913,92887
 5.5000e+000 93319 -1.4894e+001 -2.1392e+002  4.0066e+001 44601 93123,93201,93149
 5.5000e+000 93296 -5.9186e+001 -2.1348e+002 -2.0853e+001 44601 93045,93201,93123
 5.5000e+000 93273 -4.7071e+001 -1.2100e+002 -2.9438e+001 44601 93045,93123,93071
 5.5000e+000 93250 -4.3059e+001 -1.1269e+002 -1.9907e+001 44601 93071,93123,93097
 5.5000e+000 93227 -4.6255e+000 -1.1838e+002  4.3061e+001 44601 93149,93201,93175
 5.5000e+000 93697 -4.5223e+001 -2.3359e+002  1.2226e+001 44026 93720,93553,93527
 5.5000e+000 93674 -7.9537e+001 -1.9790e+002  1.7230e+001 44026 93720,93527,93449
 5.5000e+000 93651 -8.7951e+001 -2.0461e+002 -3.2424e+000 44026 93449,93527,93501
 5.5000e+000 93628 -6.4877e+001 -1.5816e+002 -3.3859e+001 44026 93423,93579,93449
 5.5000e+000 93605 -2.0344e+001 -1.6313e+002  1.4402e+001 44026 93449,93501,93475
 5.5000e+000 93746 -2.1164e+001 -2.0695e+002  2.1626e+000 44026 93579,93553,93720
 5.5000e+000 93769 -5.7284e+001 -1.7179e+002  7.7449e+000 44026 93579,93720,93449
 5.5000e+000 94066 -4.6004e+001 -1.8216e+002 -2.4803e+001 43579 94089,93818,93792
 5.5000e+000 94043 -7.4398e+001 -2.0271e+002 -1.5760e+001 43579 94161,94089,93792
 5.5000e+000 94020 -7.3390e+001 -2.0379e+002 -7.8110e+000 43579 94161,93792,93948
 5.5000e+000 93997 -7.8588e+001 -1.6000e+002 -7.8190e+000 43579 94233,93870,93818
 5.5000e+000 93974 -4.5044e+001 -1.6520e+002  5.0407e+000 43579 93818,93870,93844
 5.5000e+000 94115 -7.6820e+001 -1.6135e+002 -1.7764e+001 43579 94233,93818,94089
 5.5000e+000 94138 -1.0092e+002 -1.8191e+002 -1.1727e+001 43579 93896,94089,93922
 5.5000e+000 94187 -6.9261e+001 -1.9050e+002 -1.5850e+001 43579 93922,94089,94161
 5.5000e+000 94210 -6.8006e+001 -1.9054e+002 -7.1461e+000 43579 93922,94161,93948
 5.5000e+000 94259 -8.9489e+001 -1.7896e+002 -3.1935e+000 43579 93896,93870,94233
 5.5000e+000 94282 -8.3429e+001 -1.7590e+002 -1.4654e+001 43579 93896,94233,94089
 5.5000e+000 94481 -6.1017e+001 -1.8800e+002 -1.0718e+000 43239 94305,94383,94357
 5.5000e+000 94458 -5.3886e+001 -1.7258e+002  2.1364e+001 43239 94305,94409,94383
 5.5000e+000 94435 -4.7091e+001 -1.9863e+002 -4.7749e+000 43239 94305,94357,94331
 5.5000e+000 94633 -2.1635e+001 -1.1670e+002  2.7388e+001 42827 94656,94532,94506
 5.5000e+000 94610 -5.0889e+001 -1.3020e+002  3.0796e+001 42827 94728,94656,94506
 5.5000e+000 94682 -2.7848e+001 -1.3448e+002  2.3118e+001 42827 94558,94532,94656
 5.5000e+000 94705 -1.0389e+001 -1.3227e+002  1.3796e+001 42827 94988,94860,94656
 5.5000e+000 94754 -2.8828e+001 -1.1810e+002  9.0733e+000 42827 94988,94656,94728
 5.5000e+000 94886  5.1582e+000 -1.2483e+002  1.6004e+001 42827 94558,94656,94860
 5.5000e+000 95014  5.0128e+000 -1.2017e+002  8.5018e+000 42827 94584,94860,94988
 5.5000e+000 95037 -1.1049e+001 -1.0722e+002  3.8961e+000 42827 94584,94988,94728
 5.5000e+000 95236 -2.2934e+001 -1.4218e+002  1.9586e+001 42537 95259,95112,95060
 5.5000e+000 95213 -3.0002e+001 -1.3632e+002  1.7154e+001 42537 95259,95060,95164
 5.5000e+000 95190 -1.0765e+001 -1.4596e+002 -2.1000e+000 42537 95060,95112,95086
 5.5000e+000 95285 -2.7689e+001 -1.4468e+002  1.6717e+001 42537 95138,95112,95259
 5.5000e+000 95308 -3.5426e+001 -1.4159e+002  1.3252e+001 42537 95138,95259,95164
 5.5000e+000 95816 -6.3184e+001 -1.8047e+002 -1.1756e+001 41969 95493,95597,95519
 5.5000e+000 95793 -9.3865e+001 -1.6929e+002  1.6321e+001 41969 95493,95649,95597
 5.5000e+000 95770 -7.0823e+001 -1.5926e+002  1.4143e+001 41969 95493,95675,95649
 5.5000e+000 95747 -7.5777e+001 -2.2032e+002  1.3716e+001 41969 95597,95649,95623
 5.5000e+000 95724 -1.0367e+002 -1.6585e+002 -2.0041e+001 41969 95519,95597,95571
 5.5000e+000 95701 -9.2028e+001 -1.4549e+002 -4.0831e+001 41969 95519,95571,95545
 5.5000e+000 96371 -7.9702e+001 -1.9333e+002  2.3408e+001 41579 96025,96207,96181
 5.5000e+000 96348  2.2972e+001 -1.4627e+002 -6.7412e+000 41579 95999,96207,96025
 5.5000e+000 96325 -9.1073e+001 -1.4750e+002 -1.6436e+001 41579 96129,96181,96155
 5.5000e+000 96302 -3.3620e+001 -1.3454e+002  6.3524e-001 41579 96025,96181,96129
 5.5000e+000 96279 -7.5018e+001 -2.0087e+002  2.7455e+001 41579 96025,96129,96051
 5.5000e+000 96256 -8.6038e+001 -1.8674e+002  2.7604e+001 41579 96051,96103,96077
 5.5000e+000 96233 -3.3135e+001 -1.4177e+002  2.1637e+000 41579 96051,96129,96103
 5.5000e+000 96877 -2.1168e+001 -1.2280e+002 -1.4400e+001 41182 96972,96900,96632
 5.5000e+000 96854 -2.6450e+001 -9.0720e+001 -1.4556e+001 41182 96900,96554,96736
 5.5000e+000 96831 -2.0204e+001 -1.2273e+002 -1.2201e+001 41182 96972,96632,96580
 5.5000e+000 96808 -2.6095e+001 -1.1501e+002  1.2460e+001 41182 96632,96684,96658
 5.5000e+000 96785 -4.8284e+001 -1.2853e+002  1.4227e+001 41182 96684,96736,96710
 5.5000e+000 96762 -7.1696e+001 -1.5789e+002  2.6118e+001 41182 96580,96632,96606
 5.5000e+000 96926 -1.9260e+001 -1.3613e+002 -1.4221e+001 41182 96684,96632,96900
 5.5000e+000 96949 -3.8746e+001 -1.2099e+002 -2.4414e+001 41182 96684,96900,96736
 5.5000e+000 96998 -2.5131e+001 -1.2467e+002 -1.5227e+001 41182 96554,96900,96972
 5.5000e+000 97021 -2.4537e+001 -1.2434e+002 -1.2765e+001 41182 96554,96972,96580
 5.5000e+000 97576 -1.0705e+002 -2.7174e+002 -3.7559e+001 40678 97230,97412,97282
 5.5000e+000 97553 -1.1243e+001 -2.2495e+002  8.7136e+000 40678 97204,97412,97230
 5.5000e+000 97530 -2.9997e+001 -2.0622e+002 -3.3813e+001 40678 97282,97360,97308
 5.5000e+000 97507 -4.7361e+001 -2.0999e+002 -1.2918e+001 40678 97282,97412,97360
 5.5000e+000 97484 -1.2938e+001 -1.2413e+002 -2.9706e+001 40678 97308,97360,97334
 5.5000e+000 97461 -6.1332e+001 -2.5437e+002 -6.9999e+000 40678 97360,97412,97386
 5.5000e+000 97438 -6.1432e+001 -1.7598e+002 -2.3794e+001 40678 97230,97282,97256
 5.5000e+000 97976 -8.7103e+001 -1.4581e+002 -3.0510e+000 40244 97702,97832,97754
 5.5000e+000 97953 -7.2607e+001 -1.4031e+002 -7.0165e+000 40244 97702,97858,97832
 5.5000e+000 97930 -9.3546e+001 -1.7124e+002 -3.5496e+001 40244 97702,97754,97728
 5.5000e+000 97907 -7.1106e+001 -1.5738e+002  1.7353e+001 40244 97780,97832,97806
 5.5000e+000 97884 -7.7674e+001 -1.4045e+002 -5.1414e-001 40244 97754,97832,97780
 5.5000e+000 98482 -4.4832e+001 -1.3298e+002  2.1452e+001 39690 98505,98185,98159
 5.5000e+000 98459 -4.6432e+001 -1.2840e+002  2.0532e+001 39690 98505,98159,98289
 5.5000e+000 98436 -9.1020e+001 -1.9518e+002  5.3973e+001 39690 98159,98315,98289
 5.5000e+000 98413 -3.5168e+001 -1.1864e+002  1.8190e+001 39690 98211,98289,98263
 5.5000e+000 98390 -1.9240e+001 -7.7302e+001  1.0482e+001 39690 98211,98263,98237
 5.5000e+000 98367 -2.4500e+001 -1.1857e+002  1.8583e+001 39690 98159,98341,98315
 5.5000e+000 98531 -4.5419e+001 -1.3032e+002  1.8544e+001 39690 98211,98185,98505
 5.5000e+000 98554 -4.5902e+001 -1.2318e+002  1.8465e+001 39690 98211,98505,98289
 5.5000e+000 99109 -4.6569e+001 -1.2170e+002 -7.8092e+000 39072 99132,98867,98789
 5.5000e+000 99086 -4.5220e+001 -1.2568e+002 -1.1134e+001 39072 99132,98789,98763
 5.5000e+000 99063 -7.0179e+001 -2.0166e+002  2.1257e+001 39072 98867,98945,98919
 5.5000e+000 99040 -4.0201e+001 -1.3054e+002 -8.5106e-001 39072 98789,98867,98841
 5.5000e+000 99017 -9.2033e+001 -1.4882e+002  6.1971e+000 39072 98867,98919,98893
 5.5000e+000 98994 -6.4074e+001 -1.1819e+002  2.6081e+001 39072 98789,98841,98815
 5.5000e+000 98971 -6.5387e+001 -1.4202e+002 -9.4619e+000 39072 98737,98945,98763
 5.5000e+000 99158 -4.5327e+001 -1.2678e+002 -8.6018e+000 39072 98945,98867,99132
 5.5000e+000 99181 -4.5145e+001 -1.3363e+002 -9.9869e+000 39072 98945,99132,98763
 5.5000e+000 99510 -3.9762e+001 -1.1274e+002  7.8637e+000 38668 99311,99389,99363
 5.5000e+000 99487 -3.4922e+001 -1.1799e+002 -2.8805e+000 38668 99285,99389,99311
 5.5000e+000 99464 -7.6092e+001 -1.6178e+002  1.4699e+001 38668 99285,99415,99389
 5.5000e+000 99441 -3.6032e+001 -1.2119e+002  1.2448e+001 38668 99311,99363,99337
 5.5000e+000 99758 -4.5046e+001 -1.8117e+002  3.0139e+001 38164 99781,99611,99585
 5.5000e+000 99735 -1.8344e+001 -1.8557e+002  3.3395e+001 38164 99781,99585,99533
 5.5000e+000 99712 -6.8169e+001 -1.7165e+002  2.2055e+001 38164 99611,99663,99637
 5.5000e+000 99689  9.0996e+000 -1.7865e+002 -1.1032e+001 38164 99533,99585,99559
 5.5000e+000 99807 -6.0312e+001 -1.7987e+002  3.7560e+001 38164 99663,99611,99781
 5.5000e+000 99830 -4.0197e+001 -1.8762e+002  3.6589e+001 38164 99663,99781,99533
 5.5000e+000 100232 -4.9589e+001 -1.3454e+002  1.9424e+000 37702 99984,100114,100088
 5.5000e+000 100209 -3.9628e+001 -1.4130e+002  1.3355e+001 37702 99958,100114,99984
 5.5000e+000 100186 -7.3667e+001 -1.6711e+002 -1.0145e+001 37702 100010,100088,100036
 5.5000e+000 100163 -4.9164e+001 -1.3454e+002  5.9736e-001 37702 99984,100088,100010
 5.5000e+000 100140 -4.2477e+001 -1.2084e+002 -3.3952e+001 37702 100036,100088,100062
 5.5000e+000 100640 -1.1023e+002 -1.5840e+002  2.0234e+001 37262 100493,100545,100519
 5.5000e+000 100617 -9.8146e+001 -1.7974e+002  9.8335e+000 37262 100441,100545,100493
 5.5000e+000 100594 -3.8469e+001 -1.3484e+002 -2.3797e+001 37262 100415,100545,100441
 5.5000e+000 100571 -1.1040e+002 -1.9267e+002 -7.6264e+000 37262 100441,100493,100467
 5.5000e+000 101146 -8.0153e+001 -1.3404e+002 -1.1558e+000 36872 100823,100979,100849
 5.5000e+000 101123 -7.8161e+001 -1.2484e+002 -1.2578e+001 36872 100823,101005,100979
 5.5000e+000 101100 -8.1364e+001 -1.9364e+002  2.6248e+001 36872 101169,100901,100849
 5.5000e+000 101077 -6.2482e+001 -1.5387e+002  1.4006e+001 36872 101169,100849,100979
 5.5000e+000 101054 -4.5003e+001 -1.6166e+002 -1.0765e+001 36872 100927,100979,100953
 5.5000e+000 101031 -4.4242e+001 -2.1726e+002  3.6728e+001 36872 100849,100901,100875
 5.5000e+000 101195 -5.6048e+001 -2.0525e+002  1.4300e+000 36872 100927,100901,101169
 5.5000e+000 101218 -4.4480e+001 -1.8411e+002 -8.4794e+000 36872 100927,101169,100979
 5.5000e+000 101773 -8.8414e+001 -1.4334e+002  2.8022e+001 36418 101479,101609,101583
 5.5000e+000 101750 -9.2195e+001 -1.5068e+002  2.6693e+001 36418 101453,101609,101479
 5.5000e+000 101727 -6.1644e+001 -1.5220e+002 -5.7136e-001 36418 101796,101531,101479
 5.5000e+000 101704 -8.6548e+001 -1.6977e+002  1.2581e+001 36418 101796,101479,101583
 5.5000e+000 101681 -5.2873e+001 -1.3107e+002 -3.8385e+000 36418 101479,101531,101505
 5.5000e+000 101658 -1.4776e+000 -1.3279e+002  4.6922e+000 36418 101401,101609,101453
 5.5000e+000 101635 -2.6229e+001 -1.2665e+002  5.0634e+000 36418 101401,101453,101427
 5.5000e+000 101822 -6.7292e+001 -1.3908e+002 -2.4268e+001 36418 101557,101531,101796
 5.5000e+000 101845 -9.5598e+001 -1.4471e+002 -1.2210e+001 36418 101557,101796,101583
 5.5000e+000 102174 -8.1735e+000 -6.3327e+001 -1.8571e+001 35914 101949,102053,101975
 5.5000e+000 102151 -2.9782e+001 -6.8452e+001 -1.4015e+001 35914 101949,102079,102053
 5.5000e+000 102128 -3.3571e+001 -7.5348e+001 -1.0028e+001 35914 101975,102053,102027
 5.5000e+000 102105 -2.2368e+001 -5.6747e+001 -1.4705e+001 35914 101975,102027,102001
 5.5000e+000 102631 -3.0429e+001 -1.5851e+002  4.9188e+000 35574 102383,102513,102487
 5.5000e+000 102608 -2.2206e+001 -1.6491e+002  4.0897e+000 35574 102357,102513,102383
 5.5000e+000 102585 -5.3004e+001 -1.6418e+002  6.1282e+000 35574 102409,102487,102435
 5.5000e+000 102562 -5.4226e+001 -1.6782e+002  4.2881e+000 35574 102383,102487,102409
 5.5000e+000 102539 -5.3367e+001 -1.6700e+002  7.0258e+000 35574 102435,102487,102461
 5.5000e+000 103009 -8.4530e+001 -1.5586e+002 -1.1088e+001 35170 102761,102865,102787
 5.5000e+000 102986 -5.1263e+001 -1.3740e+002  1.4356e+001 35170 102761,102891,102865
 5.5000e+000 102963 -7.4097e+001 -1.5088e+002 -3.6546e+000 35170 102787,102865,102813
 5.5000e+000 102940 -4.2313e+001 -1.3208e+002  1.6903e+001 35170 102735,102891,102761
 5.5000e+000 102917 -7.6082e+001 -1.5804e+002 -1.1047e+001 35170 102813,102865,102839
 5.5000e+000 103257 -1.5277e+001 -1.1742e+002 -1.9802e+001 34659 103280,103058,103032
 5.5000e+000 103234 -2.3491e+001 -1.2358e+002 -1.1231e+001 34659 103280,103032,103162
 5.5000e+000 103211 -4.1727e+001 -1.2526e+002 -1.0615e+001 34659 103084,103162,103110
 5.5000e+000 103188 -5.4723e+001 -1.5363e+002 -7.5627e+000 34659 103110,103162,103136
 5.5000e+000 103306 -2.9841e+001 -1.0991e+002 -1.7242e+001 34659 103084,103058,103280
 5.5000e+000 103329 -3.4948e+001 -1.1630e+002 -7.5995e+000 34659 103084,103280,103162
 5.5000e+000 103837 -1.4595e+001 -1.7394e+002  5.5935e+000 34247 103860,103566,103540
 5.5000e+000 103814 -2.4120e+001 -1.7521e+002  3.7294e-001 34247 103932,103860,103540
 5.5000e+000 103791 -1.8189e+001 -1.9481e+002 -1.9520e+001 34247 103932,103540,103670
 5.5000e+000 103768 -1.8819e+001 -1.6206e+002  4.0469e+000 34247 103566,103618,103592
 5.5000e+000 103745 -7.0696e+001 -1.6377e+002 -2.5077e+001 34247 103540,103696,103670
 5.5000e+000 103722 -9.3820e+001 -1.8211e+002  2.6936e+001 34247 103514,103696,103540
 5.5000e+000 103886 -3.6604e+001 -1.7324e+002 -2.0681e+000 34247 103618,103566,103860
 5.5000e+000 103909 -4.0440e+001 -1.8559e+002  4.6829e+000 34247 103618,103860,103644
 5.5000e+000 103958 -4.1533e+001 -2.2255e+002 -3.5031e+000 34247 103644,103860,103932
 5.5000e+000 103981 -3.5682e+001 -2.4070e+002 -2.4368e+001 34247 103644,103932,103670
 5.5000e+000 104300 -8.5692e+001 -1.8390e+002 -6.4203e+000 33843 104052,104182,104156
 5.5000e+000 104277 -1.1061e+002 -1.7180e+002 -1.3391e+000 33843 104026,104182,104052
 5.5000e+000 104254 -8.3743e+001 -2.0688e+002  4.4560e+000 33843 104078,104156,104130
 5.5000e+000 104231 -1.0101e+002 -1.9835e+002  7.1299e-002 33843 104052,104156,104078
 5.5000e+000 104208 -1.2699e+002 -2.1793e+002  5.5170e+000 33843 104078,104130,104104
 5.5000e+000 104499 -5.8824e+001 -1.8509e+002 -1.5328e+001 33282 104594,104522,104375
 5.5000e+000 104476 -5.1547e+001 -1.8189e+002  5.9119e+000 33282 104522,104323,104427
 5.5000e+000 104453 -3.5806e+001 -1.9725e+002 -1.4166e+001 33282 104594,104375,104349
 5.5000e+000 104548 -6.2071e+001 -1.6248e+002 -7.3863e+000 33282 104401,104375,104522
 5.5000e+000 104571 -4.2753e+001 -1.5970e+002  6.4521e+000 33282 104401,104522,104427
 5.5000e+000 104620 -3.0351e+001 -1.6269e+002 -4.9046e+000 33282 104323,104522,104594
 5.5000e+000 104643 -1.5772e+001 -1.8324e+002 -7.0787e+000 33282 104323,104594,104349
 5.5000e+000 104942 -7.9589e+001 -2.0381e+002  2.5078e+001 32728 104694,104772,104720
 5.5000e+000 104919 -6.1458e+001 -1.8638e+002  9.5239e+000 32728 104694,104824,104772
 5.5000e+000 104896 -1.0445e+002 -1.8157e+002  2.8487e+001 32728 104720,104772,104746
 5.5000e+000 104873 -4.8302e+001 -2.1335e+002  1.1581e+001 32728 104772,104824,104798
 5.5000e+000 104850 -5.1204e+001 -1.8417e+002  9.5980e+000 32728 104668,104824,104694
 5.5000e+000 105373 -6.3389e+001 -1.9602e+002 -8.8894e+000 32274 105396,105102,105076
 5.5000e+000 105350 -7.0101e+001 -2.1440e+002 -3.1707e+000 32274 105396,105076,105206
 5.5000e+000 105327 -9.0938e+001 -2.2092e+002  9.9950e+000 32274 105154,105206,105180
 5.5000e+000 105304 -3.4256e+001 -2.0669e+002 -1.8606e+001 32274 105076,105232,105206
 5.5000e+000 105281 -7.7069e+001 -1.7750e+002 -3.1273e+001 32274 105102,105154,105128
 5.5000e+000 105258 -1.0609e+002 -1.6474e+002 -3.2201e+001 32274 105050,105232,105076
 5.5000e+000 105422 -7.4783e+001 -1.7585e+002 -8.2750e+000 32274 105154,105102,105396
 5.5000e+000 105445 -8.0758e+001 -1.9442e+002 -3.8218e+000 32274 105154,105396,105206
 5.5000e+000 105644 -7.7512e+001 -2.0360e+002 -3.4806e+000 31620 105468,105546,105520
 5.5000e+000 105621 -6.3288e+001 -2.1829e+002 -1.0522e+001 31620 105468,105572,105546
 5.5000e+000 105598 -7.7824e+001 -2.2107e+002  1.0713e+001 31620 105468,105520,105494
 5.5000e+000 105794 -1.4772e+001 -1.7212e+002 -5.5960e+000 31158 105889,105817,105693
 5.5000e+000 105771 -2.6869e+001 -1.5318e+002 -1.1177e+001 31158 105817,105667,105745
 5.5000e+000 105843 -2.1073e+001 -2.1248e+002 -2.2042e+000 31158 105719,105693,105817
 5.5000e+000 105866 -1.0326e+001 -1.8128e+002 -9.7151e+000 31158 105719,105817,105745
 5.5000e+000 105915 -4.1925e+001 -1.8376e+002 -5.9042e+000 31158 105667,105817,105889
 5.5000e+000 106270 -7.6025e+001 -1.7458e+002 -1.0969e+000 30818 106293,106071,106045
 5.5000e+000 106247 -8.8426e+001 -2.0261e+002 -1.0984e+001 30818 106293,106045,106175
 5.5000e+000 106224 -6.1307e+001 -1.6219e+002  1.0416e+001 30818 106123,106175,106149
 5.5000e+000 106201 -7.9327e+001 -1.7896e+002  1.8869e+001 30818 106071,106123,106097
 5.5000e+000 106319 -7.7353e+001 -1.6358e+002  9.1920e+000 30818 106123,106071,106293
 5.5000e+000 106342 -7.9023e+001 -1.7831e+002  8.4921e-001 30818 106123,106293,106175
 5.5000e+000 106492 -7.2395e+001 -1.6137e+002  3.1485e+001 30414 106645,106391,106365
 5.5000e+000 106469 -2.2837e+001 -1.6021e+002  4.8859e+001 30414 106515,106365,106443
 5.5000e+000 106541 -4.3776e+001 -1.6870e+002  3.6192e+001 30414 106645,106365,106515
 5.5000e+000 106671 -3.2487e+001 -1.9185e+002  6.2572e+001 30414 106417,106391,106645
 5.5000e+000 106694  3.2036e+001 -1.7723e+002  5.4125e+001 30414 106417,106645,106515
 5.5000e+000 106942 -3.8083e+001 -2.4791e+002 -1.1599e+000 29910 106965,106795,106769
 5.5000e+000 106919 -3.2085e+001 -2.2348e+002  6.1295e+000 29910 106965,106769,106717
 5.5000e+000 106896 -3.5427e+001 -1.8734e+002 -2.3381e+001 29910 106795,106847,106821
 5.5000e+000 106873 -1.7239e+001 -1.9267e+002  1.1926e+001 29910 106717,106769,106743
 5.5000e+000 106991 -5.2686e+001 -2.2111e+002  2.5932e+000 29910 106847,106795,106965
 5.5000e+000 107014 -4.1289e+001 -1.8864e+002  9.7149e+000 29910 106847,106965,106717
 5.5000e+000 107213 -5.1122e+001 -1.8620e+002  1.2157e+001 29413 107236,107063,107037
 5.5000e+000 107190 -4.7690e+001 -2.2000e+002  2.4670e+001 29413 107236,107037,107141
 5.5000e+000 107167 -6.3454e+001 -1.3362e+002  2.9666e+001 29413 107063,107115,107089
 5.5000e+000 107262 -4.8690e+001 -1.6397e+002  8.0314e+000 29413 107115,107063,107236
 5.5000e+000 107285 -4.0301e+001 -1.8922e+002  2.1685e+001 29413 107115,107236,107141
 5.5000e+000 107486 -2.2431e+001 -1.7861e+002  2.3993e+001 29009 107336,107388,107362
 5.5000e+000 107463 -1.1031e+001 -1.7228e+002  6.6285e+000 29009 107310,107388,107336
 5.5000e+000 107440 -1.4291e+001 -1.6273e+002  6.7028e+000 29009 107310,107414,107388
 5.5000e+000 107736 -7.6273e+001 -2.0528e+002 -7.1388e+000 28491 107537,107615,107563
 5.5000e+000 107713 -6.6202e+001 -2.0065e+002 -5.4546e+000 28491 107537,107641,107615
 5.5000e+000 107690 -4.3272e+001 -1.9157e+002  4.2867e+000 28491 107563,107615,107589
 5.5000e+000 107667 -6.8766e+001 -1.9836e+002 -5.7174e+000 28491 107511,107641,107537
 5.5000e+000 108118 -4.3484e+001 -1.9445e+002  7.1986e+000 27980 108141,107922,107844
 5.5000e+000 108095 -3.4700e+001 -2.0765e+002  6.4689e+000 27980 108141,107844,108000
 5.5000e+000 108072 -4.5525e+001 -2.0250e+002 -1.1007e+001 27980 107844,107922,107870
 5.5000e+000 108049 -4.9241e+001 -1.7583e+002 -5.8247e+000 27980 107870,107922,107896
 5.5000e+000 108026 -6.9200e+001 -1.8363e+002  2.2637e+001 27980 107922,107974,107948
 5.5000e+000 108167 -3.7085e+001 -1.9539e+002  1.0231e+001 27980 107974,107922,108141
 5.5000e+000 108190 -1.3396e+001 -1.9490e+002  1.3463e+001 27980 107974,108141,108000
 5.5000e+000 108745 -2.0246e+001 -1.2578e+002 -3.8323e+000 27376 108840,108768,108477
 5.5000e+000 108722 -3.6746e+001 -1.5418e+002 -3.1552e+001 27376 108768,108373,108581
 5.5000e+000 108699 -3.4859e+001 -1.0994e+002  2.2512e+001 27376 108840,108477,108451
 5.5000e+000 108676 -9.0083e+001 -1.3300e+002 -6.1761e+000 27376 108373,108451,108399
 5.5000e+000 108653 -3.4066e+001 -1.5475e+002  2.2412e+001 27376 108503,108581,108529
 5.5000e+000 108630 -3.9585e+001 -1.5259e+002  2.3705e+001 27376 108529,108581,108555
 5.5000e+000 108607 -1.0210e+002 -1.4281e+002  1.0798e+001 27376 108399,108451,108425
 5.5000e+000 108794 -3.3936e+001 -1.6922e+002  1.1388e-001 27376 108503,108477,108768
 5.5000e+000 108817 -4.3058e+000 -1.5471e+002 -5.9438e+000 27376 108503,108768,108581
 5.5000e+000 108866 -7.3956e+001 -1.5547e+002 -1.5427e+001 27376 108373,108768,108840
 5.5000e+000 108889 -7.1436e+001 -1.3371e+002  1.1950e+001 27376 108373,108840,108451
 5.5000e+000 109186 -7.5330e+001 -2.0216e+002  2.1504e+001 26722 109209,108938,108912
 5.5000e+000 109163 -6.9797e+001 -1.8856e+002  1.9389e+001 26722 109281,109209,108912
 5.5000e+000 109140 -6.7576e+001 -1.8338e+002  1.8511e+001 26722 109281,108912,109042
 5.5000e+000 109117 -6.0812e+001 -2.1402e+002  9.4818e+000 26722 108938,108990,108964
 5.5000e+000 109094 -9.5851e+001 -1.6709e+002  1.2341e+001 26722 108912,109068,109042
 5.5000e+000 109235 -6.2503e+001 -1.9452e+002  1.8049e+001 26722 108990,108938,109209
 5.5000e+000 109258 -6.7816e+001 -2.0767e+002  1.5819e+001 26722 108990,109209,109016
 5.5000e+000 109307 -6.2582e+001 -1.9651e+002  1.0076e+001 26722 109016,109209,109281
 5.5000e+000 109330 -5.8247e+001 -1.8782e+002  8.1744e+000 26722 109016,109281,109042
 5.5000e+000 109732 -7.6852e+001 -1.6687e+002 -4.3208e+000 26310 109458,109588,109484
 5.5000e+000 109709 -7.2235e+001 -1.8682e+002 -1.9278e+001 26310 109458,109614,109588
 5.5000e+000 109686 -1.1393e+002 -1.9358e+002  2.7475e+001 26310 109510,109562,109536
 5.5000e+000 109663 -1.1575e+002 -1.8397e+002  1.1072e+001 26310 109484,109562,109510
 5.5000e+000 109640 -8.2001e+001 -1.7022e+002 -2.0075e+000 26310 109484,109588,109562
 5.5000e+000 110159 -4.6706e+001 -1.6827e+002 -4.9817e+000 25642 110182,109940,109914
 5.5000e+000 110136 -4.1471e+001 -1.9371e+002  2.4924e+001 25642 110182,109914,109888
 5.5000e+000 110113 -6.0189e+001 -2.0736e+002 -2.6437e+001 25642 109966,110018,109992
 5.5000e+000 110090 -6.6901e+001 -2.0054e+002  1.5444e+001 25642 110254,109966,109940
 5.5000e+000 110067 -8.8507e+001 -1.8935e+002  1.1664e+001 25642 109862,110018,109888
 5.5000e+000 110044 -8.3442e+001 -1.5763e+002  2.7367e+001 25642 109836,110018,109862
 5.5000e+000 110208 -6.5022e+001 -1.8431e+002  1.1528e+001 25642 110254,109940,110182
 5.5000e+000 110231 -7.1151e+001 -1.9645e+002  2.6958e+001 25642 110018,110182,109888
 5.5000e+000 110280 -5.7487e+001 -2.2110e+002  1.2651e+001 25642 110018,109966,110254
 5.5000e+000 110303 -5.9161e+001 -2.0913e+002  9.4014e+000 25642 110018,110254,110182
 5.5000e+000 110632 -8.7680e+001 -1.7346e+002 -1.0011e+001 25188 110407,110485,110433
 5.5000e+000 110609 -1.0234e+002 -1.7664e+002 -5.7161e+000 25188 110407,110537,110485
 5.5000e+000 110586 -9.7530e+001 -1.7947e+002 -3.3958e+001 25188 110433,110485,110459
 5.5000e+000 110563 -9.7079e+001 -1.9124e+002  1.9501e+001 25188 110485,110537,110511
 5.5000e+000 110831 -1.5380e+001 -1.6645e+002  4.9459e+000 24726 110854,110707,110655
 5.5000e+000 110808 -6.7208e+000 -1.7960e+002  1.8255e+001 24726 110854,110655,110759
 5.5000e+000 110785 -2.1988e+001 -1.7167e+002  8.9852e+000 24726 110655,110707,110681
 5.5000e+000 110880 -8.6300e+000 -1.5380e+002  7.4754e+000 24726 110733,110707,110854
 5.5000e+000 110903  3.1018e+000 -1.6054e+002  2.1749e+001 24726 110733,110854,110759
 5.5000e+000 111234 -4.7238e+000 -1.2094e+002 -3.2657e+000 24222 111257,111087,111035
 5.5000e+000 111211  1.5802e+001 -1.1173e+002  1.3336e+001 24222 111257,111035,111009
 5.5000e+000 111188 -2.0059e+001 -6.1539e+001 -2.8035e+001 24222 111035,111087,111061
 5.5000e+000 111165 -2.0118e+001 -1.0075e+002  3.6004e+000 24222 111087,111139,111113
 5.5000e+000 111283 -1.7494e+001 -1.0005e+002  6.0736e+000 24222 111139,111087,111257
 5.5000e+000 111306 -8.6188e+000 -8.5397e+001  1.6751e+001 24222 111139,111257,111009
 5.5000e+000 111625 -2.1067e+001 -1.6557e+002 -8.8379e+000 23732 111648,111481,111455
 5.5000e+000 111602 -2.1307e+001 -1.6599e+002 -8.7396e+000 23732 111648,111455,111377
 5.5000e+000 111579  2.7050e+001 -8.0349e+001  1.8157e+001 23732 111377,111429,111403
 5.5000e+000 111556 -5.7870e+000 -1.6534e+002 -4.9889e+000 23732 111377,111455,111429
 5.5000e+000 111533 -1.3289e+001 -1.4988e+002 -3.7363e+000 23732 111351,111507,111377
 5.5000e+000 111674 -2.1348e+001 -1.6486e+002 -8.3176e+000 23732 111507,111481,111648
 5.5000e+000 111697 -2.1720e+001 -1.6571e+002 -8.2176e+000 23732 111507,111648,111377
 5.5000e+000 112156 -4.6753e+001 -1.9906e+002  1.5091e+001 23278 112179,111908,111882
 5.5000e+000 112133 -4.3628e+001 -1.8391e+002  8.2014e+000 23278 112179,111882,112012
 5.5000e+000 112110 -1.3739e+001 -2.1574e+002  9.1348e-001 23278 111908,111960,111934
 5.5000e+000 112087 -1.8173e+001 -1.6194e+002 -2.1031e+000 23278 111882,112038,112012
 5.5000e+000 112064 -3.9147e+001 -1.6542e+002 -2.5703e+000 23278 111960,112012,111986
 5.5000e+000 112205 -4.4423e+001 -1.9189e+002  2.7122e+000 23278 111960,111908,112179
 5.5000e+000 112228 -3.6952e+001 -1.7480e+002 -5.1559e+000 23278 111960,112179,112012
 5.5000e+000 112685 -1.2051e+002 -2.7344e+002 -2.5996e+001 22938 112489,112567,112541
 5.5000e+000 112662 -1.0363e+002 -2.3558e+002 -2.2819e+001 22938 112437,112567,112489
 5.5000e+000 112639 -7.0838e+001 -2.0426e+002 -3.0046e+000 22938 112489,112541,112515
 5.5000e+000 112616 -1.1737e+002 -2.2450e+002 -1.9848e+001 22938 112411,112567,112437
 5.5000e+000 112593 -9.3191e+001 -2.9752e+002 -5.3210e+000 22938 112437,112489,112463
 5.5000e+000 113191 -7.8350e+000 -1.9726e+002 -2.4601e+001 22534 113214,112998,112946
 5.5000e+000 113168 -3.6432e+001 -1.7412e+002 -1.2592e+001 22534 113286,113214,112946
 5.5000e+000 113145 -2.7567e+001 -1.7439e+002 -1.0603e+001 22534 113286,112946,112920
 5.5000e+000 113122 -7.9266e+001 -1.5992e+002 -3.5407e+001 22534 113358,113024,112998
 5.5000e+000 113099 -5.0168e+001 -1.6879e+002 -6.7541e+000 22534 112868,113050,112894
 5.5000e+000 113076 -5.5945e+001 -2.8520e+002 -4.7366e+001 22534 112946,112998,112972
 5.5000e+000 113240 -5.8459e+001 -2.0238e+002 -3.7474e+001 22534 113358,112998,113214
 5.5000e+000 113263 -4.7917e+001 -1.8303e+002 -8.2236e+000 22534 113050,113214,112894
 5.5000e+000 113312 -2.4747e+001 -1.7288e+002 -1.0060e+001 22534 112894,113214,113286
 5.5000e+000 113335 -1.5266e+001 -1.7349e+002 -9.7218e+000 22534 112894,113286,112920
 5.5000e+000 113384 -5.6049e+001 -1.2082e+002 -2.5718e+001 22534 113050,113024,113358
 5.5000e+000 113407 -2.6123e+001 -1.5606e+002 -2.3141e+001 22534 113050,113358,113214
 5.5000e+000 113785 -8.7793e+001 -2.3198e+002  5.6111e+000 21978 113808,113615,113511
 5.5000e+000 113762 -7.0320e+001 -2.3439e+002  1.5680e+001 21978 113808,113511,113667
 5.5000e+000 113739 -5.0563e+001 -1.9882e+002 -9.3786e+000 21978 113511,113615,113537
 5.5000e+000 113716  2.6507e+001 -1.7808e+002 -2.0719e+001 21978 113537,113615,113589
 5.5000e+000 113693 -2.3563e+001 -2.5594e+002  2.7816e+000 21978 113537,113589,113563
 5.5000e+000 113834 -9.1097e+001 -2.3238e+002  2.8060e+001 21978 113641,113615,113808
 5.5000e+000 113857 -4.5170e+001 -2.1455e+002  4.0090e+001 21978 113641,113808,113667
 5.5000e+000 114284 -6.3577e+001 -1.9357e+002  4.6140e+000 21517 114013,114117,114039
 5.5000e+000 114261 -7.2865e+001 -1.9305e+002  1.5360e+001 21517 113961,114117,114013
 5.5000e+000 114238 -6.9440e+001 -1.9409e+002  1.6179e+001 21517 113961,114013,113987
 5.5000e+000 114215 -1.0581e+002 -2.2295e+002 -1.5580e+001 21517 114039,114117,114091
 5.5000e+000 114192 -7.4100e+001 -1.6227e+002  1.8492e+001 21517 113961,114143,114117
 5.5000e+000 114169 -1.5963e+001 -1.9123e+002 -1.6368e+001 21517 114039,114091,114065
 5.5000e+000 114581 -3.1035e+001 -2.2402e+002  2.3741e+000 21027 114359,114463,114437
 5.5000e+000 114558 -1.3002e+001 -2.0218e+002  2.7612e+001 21027 114333,114463,114359
 5.5000e+000 114535 -8.7873e+000 -2.0433e+002 -6.0482e+000 21027 114359,114437,114385
 5.5000e+000 114512 -5.9460e+000 -2.0031e+002  2.4173e+001 21027 114307,114463,114333
 5.5000e+000 114489  4.1348e+001 -1.9001e+002 -9.9465e+000 21027 114385,114437,114411
 5.5000e+000 114912 -8.6958e+001 -1.9813e+002  3.1323e+000 20623 114713,114791,114765
 5.5000e+000 114889 -6.1010e+001 -1.8748e+002 -1.3736e+001 20623 114687,114791,114713
 5.5000e+000 114866 -4.0362e+001 -2.0695e+002 -1.6148e+001 20623 114687,114817,114791
 5.5000e+000 114843 -1.3010e+002 -2.4267e+002  2.1533e+001 20623 114713,114765,114739
 5.5000e+000 115290 -2.3680e+001 -1.7893e+002  9.6644e+000 20375 115313,115146,115094
 5.5000e+000 115267 -3.9173e+001 -1.7040e+002  1.8086e+001 20375 115313,115094,115042
 5.5000e+000 115244 -5.0855e+001 -1.6362e+002  5.3973e+000 20375 115385,115016,115172
 5.5000e+000 115221 -1.7067e+001 -1.5959e+002  1.4676e+001 20375 115042,115094,115068
 5.5000e+000 115198 -3.7314e+001 -2.1351e+002  1.0963e+001 20375 115094,115146,115120
 5.5000e+000 115339 -5.5989e+001 -2.1243e+002 -7.1904e+000 20375 115172,115146,115313
 5.5000e+000 115362 -3.0077e+001 -1.6911e+002  6.4621e+000 20375 115385,115172,115313
 5.5000e+000 115411 -6.2357e+001 -1.6978e+002  7.7234e+000 20375 115042,115016,115385
 5.5000e+000 115434 -5.2380e+001 -1.8244e+002  1.2085e+001 20375 115042,115385,115313
 5.5000e+000 115891 -9.2787e+001 -1.8264e+002  2.2616e+001 19971 115617,115747,115643
 5.5000e+000 115868 -8.0591e+001 -1.5380e+002  2.2841e+001 19971 115617,115773,115747
 5.5000e+000 115845 -6.0453e+001 -2.8160e+002  4.0995e+000 19971 115643,115721,115695
 5.5000e+000 115822 -2.5766e+000 -1.3971e+002 -3.1520e-001 19971 115643,115747,115721
 5.5000e+000 115799 -5.0389e+001 -3.4328e+002 -2.5985e+001 19971 115643,115695,115669
 5.5000e+000 115992 -1.3298e+002 -3.4396e+002 -6.0176e+001 19659 115914,115966,115940
 5.5000e+000 116142 -2.1902e+001 -7.8713e+001  2.1251e+000 18997 116041,116093,116067
 5.5000e+000 116119 -4.3828e+001 -1.3526e+002  8.4283e+000 18997 116015,116093,116041
 5.5000e+000 116343 -3.6861e+001 -2.0878e+002 -5.8089e+000 18707 116193,116245,116219
 5.5000e+000 116320 -8.1855e+001 -2.2797e+002 -9.0413e+000 18707 116193,116271,116245
 5.5000e+000 116297 -7.5476e+001 -2.0510e+002 -1.6103e+001 18707 116167,116271,116193
 5.5000e+000 116747 -3.3097e+001 -1.8816e+002 -3.4077e+000 18301 116525,116629,116551
 5.5000e+000 116724 -1.8508e+001 -1.5974e+002  4.6261e+000 18301 116473,116629,116525
 5.5000e+000 116701 -1.1984e+001 -1.5541e+002 -8.5087e+000 18301 116473,116525,116499
 5.5000e+000 116678 -2.7620e+001 -1.9591e+002 -2.5227e+000 18301 116551,116603,116577
 5.5000e+000 116655 -3.9347e+001 -2.0284e+002 -5.7599e+000 18301 116551,116629,116603
 5.5000e+000 117147 -9.1302e+001 -2.1197e+002  3.4293e-001 17747 116899,117029,116925
 5.5000e+000 117124 -4.8171e+001 -1.5463e+002  2.2491e+001 17747 116873,117029,116899
 5.5000e+000 117101 -8.9989e+001 -2.0956e+002  8.7908e-001 17747 116925,117029,116951
 5.5000e+000 117078 -7.5879e+001 -1.7592e+002 -2.9427e-001 17747 116951,117029,117003
 5.5000e+000 117055 -1.0514e+002 -2.4068e+002 -1.6805e+001 17747 116951,117003,116977
 5.5000e+000 117368  1.4679e+001 -2.0811e+002  5.1559e+000 17293 117244,117296,117270
 5.5000e+000 117345 -1.3916e+001 -2.1587e+002 -2.7699e+000 17293 117192,117296,117244
 5.5000e+000 117322 -3.6869e+001 -2.0209e+002 -2.2319e+000 17293 117192,117244,117218
 5.5000e+000 117699 -2.0206e+001 -1.6880e+002 -1.8987e+001 16896 117526,117604,117552
 5.5000e+000 117676 -1.1004e+002 -2.5802e+002  1.6889e+001 16896 117500,117604,117526
 5.5000e+000 117653 -1.1717e+002 -2.0357e+002 -9.9345e+000 16896 117552,117604,117578
 5.5000e+000 117630 -1.0294e+002 -3.3544e+002  2.7548e+001 16896 117474,117604,117500
 5.5000e+000 117849 -2.3369e+002 -4.5359e+002 -1.7218e+001 16534 117722,117774,117748
 5.5000e+000 117826 -1.8361e+002 -5.5026e+002 -7.4924e+001 16534 117722,117800,117774
 5.5000e+000 118070 -1.7407e-001 -2.1403e+002  2.7202e+001 16194 117946,117998,117972
 5.5000e+000 118047 -3.4328e+001 -2.4170e+002  1.0991e+001 16194 117894,117998,117946
 5.5000e+000 118024 -1.2244e+002 -2.4811e+002  3.8240e-001 16194 117894,117946,117920
 5.5000e+000 118173 -1.2297e+001 -2.0120e+002  0.0000e+000 15968 118095,118147,118121
 5.5000e+000 118276 -5.9433e+001 -2.2262e+002  1.0393e+000 15433 118299,118198,118250
 5.5000e+000 118325 -6.0129e+001 -2.2425e+002  1.0553e+000 15433 118224,118198,118299
 5.5000e+000 118450 -1.0599e+002 -2.3484e+002  2.2789e+001 421 118372,118424,118398
 5.6000e+000 69891 -4.3892e+001 -2.2900e+002  8.3181e+000 68988 69447,69681,69629
 5.6000e+000 69868  1.3305e+001 -2.0529e+002  7.0403e+000 68988 69421,69681,69447
 5.6000e+000 69845 -5.2412e+000 -1.1517e+002  1.2452e+000 68988 69447,69629,69577
 5.6000e+000 69822 -7.1172e+001 -2.3591e+002 -2.5766e+001 68988 69447,69577,69473
 5.6000e+000 69799 -1.2798e+001 -2.7485e+002  4.6203e+001 68988 69629,69681,69655
 5.6000e+000 69776 -7.7225e+001 -1.4624e+002  3.7066e+000 68988 69577,69629,69603
 5.6000e+000 69753 -5.7074e+001 -2.1260e+002 -3.3073e+001 68988 69473,69577,69551
 5.6000e+000 69730 -7.9022e+001 -4.1611e+002 -4.0380e+001 68988 69473,69551,69525
 5.6000e+000 69707 -1.2685e+002 -2.7689e+002  4.8787e-001 68988 69473,69525,69499
 5.6000e+000 69992 -1.4265e+002 -2.5130e+002 -3.5704e+001 68676 69914,69966,69940
 5.6000e+000 70392 -1.0906e+002 -2.1389e+002  1.7876e+001 68478 70118,70248,70144
 5.6000e+000 70369 -8.2721e+000 -2.2331e+002  4.5675e+001 68478 70118,70274,70248
 5.6000e+000 70346 -6.4891e+001 -1.5984e+002 -2.6714e-001 68478 70144,70222,70196
 5.6000e+000 70323 -5.4173e+001 -1.3190e+002 -7.1786e+000 68478 70144,70248,70222
 5.6000e+000 70300 -6.8350e+001 -1.7354e+002 -2.1571e+000 68478 70144,70196,70170
 5.6000e+000 70841  2.7394e+001 -1.4945e+002 -3.8688e+001 68280 70570,70622,70596
 5.6000e+000 70818 -7.7225e+001 -1.6791e+002 -9.3344e+000 68280 70544,70622,70570
 5.6000e+000 70795 -5.8539e+001 -1.2592e+002 -5.6015e+000 68280 70544,70674,70622
 5.6000e+000 70772 -5.1197e+001 -1.1268e+002  1.9317e+000 68280 70622,70674,70648
 5.6000e+000 70749 -8.1560e+001 -1.8755e+002  1.3659e+001 68280 70518,70674,70544
 5.6000e+000 70726  5.1715e+001 -1.9861e+002  5.2505e+001 68280 70518,70700,70674
 5.6000e+000 70991 -9.2139e+000 -7.7148e+002  2.3369e+001 67968 70864,70916,70890
 5.6000e+000 70968 -2.0564e+002 -7.6614e+002  9.0157e+001 67968 70864,70942,70916
 5.6000e+000 71141 -3.5016e+002 -6.7113e+002 -3.1941e+001 67770 71040,71092,71066
 5.6000e+000 71118 -3.0885e+002 -8.0918e+002  3.5946e+001 67770 71014,71092,71040
 5.6000e+000 71651 -5.3953e+001 -1.5324e+002 -2.3551e+001 67366 71746,71674,71458
 5.6000e+000 71628 -3.6239e+001 -1.2220e+002 -2.6961e+001 67366 71674,71354,71510
 5.6000e+000 71605 -5.0139e+001 -1.7016e+002 -2.1448e+001 67366 71746,71458,71432
 5.6000e+000 71582 -7.7355e+001 -1.7266e+002  9.2447e+000 67366 71354,71432,71380
 5.6000e+000 71559 -8.0111e+001 -1.2860e+002 -1.1985e+001 67366 71380,71432,71406
 5.6000e+000 71536 -3.8709e+001 -5.2158e+001 -2.5100e+000 67366 71328,71510,71354
 5.6000e+000 71700 -5.8167e+001 -1.3793e+002 -1.1099e+001 67366 71484,71458,71674
 5.6000e+000 71723 -4.3243e+001 -1.3114e+002 -9.2707e+000 67366 71484,71674,71510
 5.6000e+000 71772 -4.9450e+001 -1.3313e+002 -2.0889e+001 67366 71354,71674,71746
 5.6000e+000 71795 -4.4104e+001 -1.4747e+002 -2.1034e+001 67366 71354,71746,71432
 5.6000e+000 71896 -1.2662e+002 -2.7375e+002  0.0000e+000 67146 71818,71870,71844
 5.6000e+000 71997 -1.4824e+002 -2.5300e+002  5.1230e+001 66948 71919,71971,71945
 5.6000e+000 72149 -2.2039e+001 -1.7416e+002 -2.0458e+001 66700 72172,72074,72048
 5.6000e+000 72126 -7.0996e+001 -1.9705e+002 -8.0247e+000 66700 72172,72048,72022
 5.6000e+000 72198 -1.0580e+002 -2.1418e+002  1.3270e+001 66700 72244,72172,72100
 5.6000e+000 72221 -9.1524e+001 -1.9527e+002 -1.0542e+001 66700 72100,72172,72022
 5.6000e+000 72270 -6.2217e+001 -1.1828e+002 -1.4045e+001 66700 72074,72172,72244
 5.6000e+000 72623 -7.5979e+001 -1.8541e+002  4.5414e+000 66502 72424,72502,72450
 5.6000e+000 72600 -6.5837e+001 -1.5775e+002  3.0439e+000 66502 72398,72502,72424
 5.6000e+000 72577 -5.3115e+001 -1.7770e+002 -2.9556e+000 66502 72398,72528,72502
 5.6000e+000 72554 -7.6924e+001 -1.6694e+002 -7.9167e-001 66502 72450,72502,72476
 5.6000e+000 72920 -1.1407e+002 -2.3151e+002  5.6531e+000 65941 72672,72776,72750
 5.6000e+000 72897 -1.1024e+002 -1.9896e+002  2.1940e+001 65941 72646,72776,72672
 5.6000e+000 72874 -1.0068e+002 -2.2775e+002  7.4282e+000 65941 72672,72750,72724
 5.6000e+000 72851 -1.0166e+002 -1.8297e+002  1.6180e+001 65941 72672,72724,72698
 5.6000e+000 72828 -8.4667e+001 -1.9559e+002  1.9281e+001 65941 72646,72802,72776
 5.6000e+000 73241 -3.9216e+001 -1.6370e+002  8.1512e+000 65743 73264,73071,73045
 5.6000e+000 73218 -7.6428e+001 -1.8434e+002  1.6871e+001 65743 73480,73264,73045
 5.6000e+000 73195 -6.0600e+001 -1.6266e+002 -1.7080e+000 65743 73336,72967,73097
 5.6000e+000 73172 -9.6795e+001 -1.5040e+002 -1.3957e+001 65743 73408,72993,72967
 5.6000e+000 73149 -5.6251e+001 -1.6391e+002 -2.2655e+000 65743 72967,73123,73097
 5.6000e+000 73290 -5.0348e+001 -1.6797e+002  2.2532e+000 65743 73097,73071,73264
 5.6000e+000 73313 -5.4703e+001 -1.5701e+002  4.9978e+000 65743 73336,73097,73264
 5.6000e+000 73362 -8.4311e+001 -1.6723e+002 -8.8978e+000 65743 73408,72967,73336
 5.6000e+000 73385 -4.6010e+001 -1.5421e+002  3.5290e-001 65743 73019,73336,73264
 5.6000e+000 73434 -7.5857e+001 -1.1772e+002  8.3915e+000 65743 73019,72993,73408
 5.6000e+000 73457 -4.7730e+001 -1.4085e+002  6.4762e+000 65743 73019,73408,73336
 5.6000e+000 73506 -3.5902e+001 -1.1423e+002  3.9712e-001 65743 73019,73264,73480
 5.6000e+000 73989 -1.2210e+001 -1.3489e+002  1.5624e+001 65453 73793,73845,73819
 5.6000e+000 73966 -7.4005e+001 -1.5125e+002  1.7958e+001 65453 73741,73845,73793
 5.6000e+000 73943 -2.4070e+001 -1.2387e+002  7.3769e+000 65453 73715,73845,73741
 5.6000e+000 73920 -5.9497e+001 -1.6384e+002  3.0511e+001 65453 73741,73793,73767
 5.6000e+000 73897 -5.8534e-001 -7.7316e+001 -6.0537e-001 65453 73715,73871,73845
 5.6000e+000 74357 -3.9650e+001 -1.5408e+002 -4.4285e+001 65141 74380,74138,74086
 5.6000e+000 74334 -7.2762e+001 -2.0875e+002 -2.9609e+001 65141 74380,74086,74060
 5.6000e+000 74311 -8.0496e+001 -2.0349e+002 -8.7604e+000 65141 74138,74190,74164
 5.6000e+000 74288 -6.7106e+001 -2.2703e+002 -9.6875e+000 65141 74060,74216,74190
 5.6000e+000 74265 -6.9864e+001 -2.3707e+002  3.1962e+000 65141 74034,74216,74060
 5.6000e+000 74242 -4.2982e+001 -1.0542e+002 -2.2023e+001 65141 74086,74138,74112
 5.6000e+000 74406 -6.0447e+001 -2.0264e+002 -1.7929e+001 65141 74190,74138,74380
 5.6000e+000 74429 -7.0610e+001 -2.2147e+002 -8.3449e+000 65141 74190,74380,74060
 5.6000e+000 74937 -8.5167e+001 -1.6925e+002 -4.0399e+001 64737 74614,74666,74640
 5.6000e+000 74914 -1.0647e+002 -2.0392e+002 -2.9529e+001 64737 74614,74796,74666
 5.6000e+000 74891 -7.5831e+001 -1.3746e+002 -3.5989e+000 64737 74960,74718,74666
 5.6000e+000 74868 -7.0222e+001 -1.5223e+002 -1.6924e+001 64737 74960,74666,74770
 5.6000e+000 74845 -7.3147e+001 -1.3020e+002 -1.8461e+001 64737 74666,74796,74770
 5.6000e+000 74822 -7.2267e+001 -1.4854e+002  3.5549e+000 64737 74666,74718,74692
 5.6000e+000 74986 -7.9150e+001 -1.5254e+002 -6.4500e+000 64737 74744,74718,74960
 5.6000e+000 75009 -7.9426e+001 -1.7539e+002 -2.0649e+001 64737 74744,74960,74770
 5.6000e+000 75306 -4.1635e+001 -1.4703e+002  2.3078e+001 64133 75329,75110,75084
 5.6000e+000 75283 -5.3673e+001 -1.7600e+002  6.5885e+000 64133 75401,75329,75084
 5.6000e+000 75260 -5.2473e+001 -1.8137e+002  7.9996e+000 64133 75401,75084,75058
 5.6000e+000 75237 -5.2928e+001 -2.1270e+002  2.8580e+001 64133 75473,75136,75110
 5.6000e+000 75214 -5.2433e+001 -1.6308e+002  2.0511e+000 64133 75032,75188,75162
 5.6000e+000 75355 -6.2460e+001 -1.9603e+002  2.1739e+001 64133 75473,75110,75329
 5.6000e+000 75378 -4.6531e+001 -1.6823e+002  2.4157e+000 64133 75162,75329,75032
 5.6000e+000 75427 -4.4354e+001 -1.6278e+002  1.3825e+000 64133 75032,75329,75401
 5.6000e+000 75450 -8.3123e+001 -2.0090e+002  2.1387e+001 64133 75545,75401,75058
 5.6000e+000 75499 -4.4548e+001 -1.9194e+002  9.4892e+000 64133 75162,75136,75473
 5.6000e+000 75522 -5.3268e+001 -1.6460e+002  7.5125e+000 64133 75162,75473,75329
 5.6000e+000 75571 -4.2772e+001 -1.1271e+002  5.9570e+000 64133 75032,75401,75545
 5.6000e+000 75851 -7.1096e+001 -1.6165e+002  3.8129e+000 63843 75874,75753,75727
 5.6000e+000 75828 -6.2676e+001 -1.5695e+002 -5.8498e+000 63843 75946,75874,75727
 5.6000e+000 75805 -7.0962e+001 -1.6446e+002 -2.5433e+000 63843 76018,75946,75727
 5.6000e+000 75900 -5.9880e+001 -1.5695e+002 -5.7585e+000 63843 75779,75753,75874
 5.6000e+000 75923 -6.0497e+001 -1.3418e+002 -1.6787e+001 63843 75779,75874,75675
 5.6000e+000 75972 -7.1553e+001 -1.5232e+002 -5.4646e+000 63843 75675,75874,75946
 5.6000e+000 75995 -6.6408e+001 -1.5613e+002 -9.4436e+000 63843 75675,75946,75701
 5.6000e+000 76044 -7.2855e+001 -1.6188e+002 -1.2335e+001 63843 75701,75946,76018
 5.6000e+000 76454  9.1504e+000 -2.8309e+001 -1.6890e+001 63439 76477,76255,76229
 5.6000e+000 76431 -1.6177e+001 -7.0930e+001 -1.8860e-001 63439 76477,76229,76359
 5.6000e+000 76408 -2.0571e+001 -5.4903e+001  3.1898e+001 63439 76307,76359,76333
 5.6000e+000 76385 -1.3382e+001 -7.6557e+001  3.5190e+000 63439 76255,76307,76281
 5.6000e+000 76503 -1.7269e+001 -6.1877e+001  8.4517e+000 63439 76307,76255,76477
 5.6000e+000 76526 -1.6189e+001 -7.8471e+001  2.0527e+001 63439 76307,76477,76359
 5.6000e+000 76926 -3.6996e+001 -1.0905e+002 -7.3486e-001 63049 76704,76782,76756
 5.6000e+000 76903 -5.0877e+001 -1.1237e+002 -1.0819e+001 63049 76704,76808,76782
 5.6000e+000 76880 -3.6005e+001 -1.2305e+002  1.9133e+000 63049 76704,76756,76730
 5.6000e+000 76857 -3.0588e+001 -7.0902e+001  5.3717e+000 63049 76678,76808,76704
 5.6000e+000 76834 -1.3415e+001 -1.6033e+001 -1.5717e+001 63049 76652,76808,76678
 5.6000e+000 77076 -1.7752e+001 -1.9146e+002 -1.3209e+000 62737 76975,77027,77001
 5.6000e+000 77053 -1.5763e+001 -2.1375e+002 -1.3211e+001 62737 76949,77027,76975
 5.6000e+000 77324 -7.8497e+001 -1.8605e+002 -1.8496e+000 62277 77347,77177,77125
 5.6000e+000 77301 -7.9376e+001 -1.8106e+002 -1.0271e+001 62277 77347,77125,77229
 5.6000e+000 77278 -7.8211e+001 -1.8845e+002 -1.4813e+001 62277 77099,77229,77125
 5.6000e+000 77255 -8.4738e+001 -2.1990e+002  2.8005e+000 62277 77125,77177,77151
 5.6000e+000 77373 -8.3214e+001 -2.0116e+002  2.5122e+000 62277 77203,77177,77347
 5.6000e+000 77396 -7.6472e+001 -1.8822e+002 -7.0824e+000 62277 77203,77347,77229
 5.6000e+000 77857 -4.4453e+001 -2.3738e+002  2.7814e+000 61758 77635,77739,77661
 5.6000e+000 77834 -6.4513e+001 -2.3088e+002 -8.1998e+000 61758 77583,77739,77635
 5.6000e+000 77811 -7.3951e+001 -2.8950e+002 -2.7628e+001 61758 77583,77635,77609
 5.6000e+000 77788 -5.9388e+001 -2.2801e+002  1.7892e+001 61758 77661,77713,77687
 5.6000e+000 77765 -6.3347e+001 -2.5907e+002  1.7003e+001 61758 77661,77739,77713
 5.6000e+000 78491 -6.7065e+001 -1.2591e+002  6.6808e+000 61418 78171,78301,78249
 5.6000e+000 78468 -5.1935e+001 -1.0296e+002  1.5909e+001 61418 78145,78301,78171
 5.6000e+000 78445 -5.0314e+001 -1.1232e+002 -4.4712e+000 61418 78171,78249,78223
 5.6000e+000 78422 -4.9642e+001 -1.0160e+002  5.6938e+000 61418 78145,78327,78301
 5.6000e+000 78399 -7.0606e+001 -1.4527e+002 -2.7190e+000 61418 78249,78301,78275
 5.6000e+000 78376 -2.9818e+001 -1.2302e+002 -7.7218e+000 61418 78171,78223,78197
 5.6000e+000 78353 -5.9375e+001 -1.3465e+002 -3.2260e+000 61418 78119,78327,78145
 5.6000e+000 78690 -6.0897e+001 -1.4439e+002  7.9211e-001 61014 78713,78566,78540
 5.6000e+000 78667 -4.4156e+001 -1.4842e+002  2.8703e+000 61014 78713,78540,78618
 5.6000e+000 78644 -6.8932e+001 -1.6777e+002 -1.5940e+001 61014 78514,78618,78540
 5.6000e+000 78739 -3.4009e+001 -1.4059e+002  1.5579e+001 61014 78592,78566,78713
 5.6000e+000 78762 -4.5712e+001 -1.5576e+002  2.1185e+000 61014 78785,78713,78618
 5.6000e+000 78811 -1.3625e+001 -1.4326e+002 -1.3945e+000 61014 78592,78713,78785
 5.6000e+000 79398 -2.9018e+001 -1.3159e+002 -1.1644e+001 60624 79101,79179,79153
 5.6000e+000 79375 -3.6792e+001 -1.4489e+002 -6.0085e+000 60624 79101,79231,79179
 5.6000e+000 79352 -2.7879e+001 -1.4364e+002 -9.1926e+000 60624 79075,79231,79101
 5.6000e+000 79329 -9.8722e+000 -1.6989e+002  1.7241e+001 60624 79075,79257,79231
 5.6000e+000 79306 -2.7222e+001 -1.1084e+002 -2.0237e+001 60624 79179,79231,79205
 5.6000e+000 79283 -2.2985e+001 -1.1805e+002 -7.6996e+000 60624 79101,79153,79127
 5.6000e+000 79776 -7.7096e+001 -1.9845e+002  1.6027e+001 60070 79528,79658,79606
 5.6000e+000 79753 -7.1512e+001 -1.6307e+002 -5.8274e-001 60070 79502,79658,79528
 5.6000e+000 79730 -9.5773e+001 -1.9027e+002  2.5523e+001 60070 79528,79606,79580
 5.6000e+000 79707 -3.5443e+001 -1.7715e+002  4.7363e+000 60070 79606,79658,79632
 5.6000e+000 79684 -8.5693e+000 -1.1641e+002 -3.0036e+001 60070 79528,79580,79554
 5.6000e+000 80105 -5.6289e+001 -1.5373e+002  1.7921e+001 59758 80128,79958,79906
 5.6000e+000 80082 -5.6704e+001 -1.4575e+002  1.3863e+001 59758 80128,79906,80010
 5.6000e+000 80059 -7.8666e+001 -1.6339e+002  5.0638e+001 59758 79906,79958,79932
 5.6000e+000 80036 -8.2760e+001 -1.6435e+002  5.7740e+000 59758 79880,80010,79906
 5.6000e+000 80154 -5.6550e+001 -1.5897e+002  1.8818e+001 59758 79984,79958,80128
 5.6000e+000 80177 -5.8600e+001 -1.5306e+002  1.4947e+001 59758 79984,80128,80010
 5.6000e+000 80376 -4.1719e+001 -1.3651e+002  2.5066e+000 59312 80226,80304,80252
 5.6000e+000 80353 -4.0296e+001 -1.4122e+002  2.6547e+000 59312 80200,80304,80226
 5.6000e+000 80330 -6.3341e+001 -1.2448e+002  3.6432e+001 59312 80252,80304,80278
 5.6000e+000 80805 -5.5678e+001 -1.2719e+002 -2.0348e+001 58908 80900,80828,80638
 5.6000e+000 80782 -4.4524e+001 -1.5056e+002 -3.0457e+001 58908 80828,80560,80508
 5.6000e+000 80759 -5.8786e+001 -1.1960e+002 -7.6722e+000 58908 80900,80638,80612
 5.6000e+000 80736 -2.3661e+001 -1.3030e+002  5.2784e+001 58908 80482,80664,80508
 5.6000e+000 80713 -3.9771e+001 -1.1163e+002 -4.3656e+000 58908 80560,80612,80586
 5.6000e+000 80690 -5.3243e+001 -3.8934e+002 -7.3162e+001 58908 80508,80560,80534
 5.6000e+000 80854 -2.5818e+001 -1.3722e+002 -2.1800e-001 58908 80664,80638,80828
 5.6000e+000 80877 -4.4226e+001 -1.9931e+002  3.3448e+000 58908 80664,80828,80508
 5.6000e+000 80926 -4.6825e+001 -1.0435e+002 -2.2410e+001 58908 80560,80828,80900
 5.6000e+000 80949 -5.3385e+001 -1.0456e+002 -7.9362e+000 58908 80560,80900,80612
 5.6000e+000 81246 -2.4712e+001 -1.2476e+002 -3.3268e+000 58482 81076,81128,81102
 5.6000e+000 81223 -5.9086e+001 -2.1247e+002 -2.1144e+001 58482 80972,81128,81076
 5.6000e+000 81200 -3.8069e+001 -1.4499e+002 -2.3090e+001 58482 80972,81076,81050
 5.6000e+000 81177 -8.2871e+001 -2.1710e+002 -7.6196e+000 58482 80998,81050,81024
 5.6000e+000 81154 -4.6818e+001 -1.7874e+002 -2.2739e+001 58482 80972,81050,80998
 5.6000e+000 81754 -6.2753e+001 -1.2702e+002  8.7517e+000 57828 81457,81613,81483
 5.6000e+000 81731 -7.1286e+001 -1.4324e+002  3.6792e+000 57828 81431,81613,81457
 5.6000e+000 81708 -6.7773e+001 -1.3873e+002  9.7309e+000 57828 81483,81613,81509
 5.6000e+000 81685 -8.1408e+001 -1.5717e+002  1.5686e+001 57828 81509,81613,81587
 5.6000e+000 81662 -8.6842e+001 -2.3269e+002  3.1759e+001 57828 81509,81587,81535
 5.6000e+000 81639 -4.9981e+001 -2.1693e+002  1.8993e+001 57828 81535,81587,81561
 5.6000e+000 82002 -9.2795e+001 -2.2687e+002 -6.1574e-001 57374 82025,81855,81829
 5.6000e+000 81979 -9.8469e+001 -2.1239e+002  1.1181e+001 57374 82025,81829,81907
 5.6000e+000 81956 -1.0286e+002 -1.9730e+002  6.4943e+000 57374 81803,81907,81829
 5.6000e+000 81933 -5.5094e+001 -1.7578e+002  1.2419e+001 57374 81777,81907,81803
 5.6000e+000 82051 -9.2039e+001 -2.0966e+002 -1.6512e+000 57374 81881,81855,82025
 5.6000e+000 82074 -9.4542e+001 -1.9668e+002  1.4218e+001 57374 81881,82025,81907
 5.6000e+000 82356 -5.5877e+001 -1.3280e+002 -7.0312e+000 56913 82180,82232,82206
 5.6000e+000 82333 -4.9776e+001 -1.2809e+002  1.0809e+001 56913 82180,82284,82232
 5.6000e+000 82310 -1.5874e+001 -9.6084e+001  2.4365e+001 56913 82379,82232,82284
 5.6000e+000 82405  1.5792e+001 -9.3602e+001  2.4470e+000 56913 82258,82232,82379
 5.6000e+000 82764 -5.5855e+001 -8.7613e+001 -8.9433e+000 56523 82614,82666,82640
 5.6000e+000 82741 -4.7755e+001 -8.6912e+001 -1.3140e+001 56523 82614,82692,82666
 5.6000e+000 82718 -4.0130e+001 -9.2840e+001 -2.6768e+001 56523 82588,82692,82614
 5.6000e+000 83368 -9.7803e+000 -1.4539e+002 -6.4363e+000 55969 82973,83155,83129
 5.6000e+000 83345  2.0835e+000 -1.4111e+002 -1.0495e+001 55969 82973,83181,83155
 5.6000e+000 83322 -3.8061e+001 -1.2908e+002 -4.7746e+000 55969 82973,83129,82999
 5.6000e+000 83299 -6.1322e+001 -1.3163e+002  2.2813e+000 55969 83391,83025,82999
 5.6000e+000 83276 -5.2922e+001 -1.3672e+002 -6.2937e-001 55969 83391,82999,83129
 5.6000e+000 83253 -9.1497e+000 -1.1335e+002  2.5197e+001 55969 83077,83129,83103
 5.6000e+000 83230 -6.5410e+001 -1.0595e+002 -6.1171e+000 55969 83025,83077,83051
 5.6000e+000 83207 -1.0136e+000 -1.3625e+002  1.1731e+001 55969 82947,83181,82973
 5.6000e+000 83417 -5.3386e+001 -1.2643e+002  5.4027e+000 55969 83077,83025,83391
 5.6000e+000 83440 -5.0611e+001 -1.3365e+002  1.0931e+000 55969 83077,83391,83129
 5.6000e+000 83946 -1.0765e+002 -2.3511e+002  3.7744e+001 55771 83969,83779,83727
 5.6000e+000 83923 -8.5083e+001 -1.8878e+002  2.4696e+001 55771 83969,83727,83623
 5.6000e+000 83900 -9.9688e+001 -9.3630e+001  1.3387e+001 55771 83623,83727,83649
 5.6000e+000 83877 -8.4261e+001 -4.0436e+002  1.8104e+001 55771 83727,83779,83753
 5.6000e+000 83854 -1.3661e+002 -1.8401e+002  4.4742e+001 55771 83675,83727,83701
 5.6000e+000 83831 -1.5470e+002 -1.5135e+002  6.2071e+001 55771 83649,83727,83675
 5.6000e+000 83995 -1.0258e+002 -2.4526e+002 -2.0384e+001 55771 83805,83779,83969
 5.6000e+000 84018 -5.5493e+001 -1.5275e+002 -3.8344e+001 55771 83805,83969,83623
 5.6000e+000 84168 -4.7286e+001 -1.1525e+002 -3.4389e+000 55367 84191,84067,84041
 5.6000e+000 84145 -4.6391e+001 -1.2960e+002 -2.2685e+000 55367 84191,84041,84119
 5.6000e+000 84217 -5.0098e+001 -1.0695e+002 -3.1680e+000 55367 84093,84067,84191
 5.6000e+000 84240 -4.4521e+001 -1.1520e+002  2.0588e+000 55367 84093,84191,84119
 5.6000e+000 84571 -2.6451e+001 -1.7318e+002 -1.8632e+001 54913 84398,84450,84424
 5.6000e+000 84548 -2.2898e+001 -1.5813e+002 -9.5703e+000 54913 84372,84450,84398
 5.6000e+000 84525 -4.2593e+001 -1.7683e+002  5.8651e+000 54913 84346,84450,84372
 5.6000e+000 84502 -1.5164e+001 -1.1367e+002 -1.7132e+001 54913 84346,84476,84450
 5.6000e+000 85126 -9.0411e+001 -1.9747e+002 -1.0565e+001 54402 84858,84936,84910
 5.6000e+000 85103 -6.9467e+001 -1.5179e+002 -1.7547e+001 54402 84806,84936,84858
 5.6000e+000 85080 -8.4659e+001 -1.4133e+002 -1.4657e+001 54402 84780,84936,84806
 5.6000e+000 85057 -6.8463e+001 -1.6988e+002 -6.3542e+000 54402 84806,84858,84832
 5.6000e+000 85034 -7.8299e+001 -1.3398e+002  6.6997e+000 54402 84780,84962,84936
 5.6000e+000 85011 -1.0417e+002 -1.1676e+002 -5.3775e+000 54402 84858,84910,84884
 5.6000e+000 84988 -7.6451e+001 -1.3529e+002  9.0013e+000 54402 84754,84962,84780
 5.6000e+000 85396 -7.2373e+001 -8.8198e+001 -5.7761e+000 53998 85197,85249,85223
 5.6000e+000 85373 -5.6154e+001 -1.1082e+002 -1.2924e+000 53998 85197,85275,85249
 5.6000e+000 85350 -7.1682e+001 -1.3065e+002 -8.2274e+000 53998 85171,85275,85197
 5.6000e+000 85327 -3.3914e+001 -1.2117e+002 -1.0342e+001 53998 85171,85301,85275
 5.6000e+000 85749 -3.9998e+001 -1.3327e+002 -3.7427e+000 53636 85524,85628,85550
 5.6000e+000 85726 -6.2071e+001 -1.5248e+002  4.6262e+000 53636 85524,85654,85628
 5.6000e+000 85703 -2.3075e+001 -1.4071e+002 -1.4125e+001 53636 85550,85602,85576
 5.6000e+000 85680 -3.7735e+001 -1.3143e+002 -7.2095e+000 53636 85550,85628,85602
 5.6000e+000 86127 -1.5712e+001 -1.3880e+002  2.2452e+001 52982 86150,85957,85879
 5.6000e+000 86104 -4.9107e+001 -1.6106e+002  1.2777e+001 52982 86150,85879,85853
 5.6000e+000 86081 -1.3012e+001 -2.0179e+002  4.0198e+001 52982 85957,86009,85983
 5.6000e+000 86058 -5.9370e+001 -1.4886e+002  1.8236e+001 52982 85879,85957,85931
 5.6000e+000 86035 -3.8110e+001 -1.4143e+002 -5.4194e+000 52982 85879,85931,85905
 5.6000e+000 86176  5.2655e+000 -1.6413e+002  1.8083e+001 52982 86009,85957,86150
 5.6000e+000 86199 -1.4509e+001 -1.7818e+002  1.1300e+001 52982 86009,86150,85853
 5.6000e+000 86398 -3.6261e+001 -1.1750e+002  1.0933e+001 52542 86421,86248,86222
 5.6000e+000 86375 -6.1426e+001 -1.1979e+002 -8.5405e-001 52542 86421,86222,86300
 5.6000e+000 86352 -6.1326e+001 -1.2919e+002 -5.3008e+000 52542 86222,86326,86300
 5.6000e+000 86447 -1.0727e+001 -1.1791e+002  2.0973e+001 52542 86274,86248,86421
 5.6000e+000 86470 -3.4646e+001 -1.2406e+002  6.1024e+000 52542 86274,86421,86300
 5.6000e+000 86669 -5.5569e+001 -1.2029e+002 -2.2443e+001 52230 86692,86571,86545
 5.6000e+000 86646 -5.4720e+001 -1.1597e+002 -1.3424e+001 52230 86692,86545,86519
 5.6000e+000 86623 -7.4778e+001 -1.1885e+002 -1.7169e+001 52230 86493,86597,86519
 5.6000e+000 86718 -6.0364e+001 -1.2255e+002 -2.3527e+001 52230 86597,86571,86692
 5.6000e+000 86741 -6.5684e+001 -1.2090e+002 -1.4875e+001 52230 86597,86692,86519
 5.6000e+000 87153 -7.6038e+001 -1.1728e+002  4.0751e+000 51640 86980,87058,87032
 5.6000e+000 87130 -7.3982e+001 -1.1859e+002  3.5935e+000 51640 86928,87058,86980
 5.6000e+000 87107 -7.7963e+001 -1.5911e+002 -7.4810e+000 51640 86928,86980,86954
 5.6000e+000 87084 -4.0307e+001 -1.0209e+002 -7.4088e-001 51640 86980,87032,87006
 5.6000e+000 87659 -3.5390e+001 -1.0517e+002  3.0836e+000 51029 87682,87440,87362
 5.6000e+000 87636 -2.9640e+001 -1.1145e+002 -1.1943e+001 51029 87682,87362,87336
 5.6000e+000 87613 -5.2369e+001 -1.5961e+002 -3.6654e+000 51029 87440,87518,87466
 5.6000e+000 87590 -5.4843e+001 -1.0524e+002  4.3658e+000 51029 87362,87440,87414
 5.6000e+000 87567 -4.5564e+001 -8.0453e+001  1.9388e+001 51029 87362,87414,87388
 5.6000e+000 87544 -6.9084e+001 -1.4697e+002  3.6176e+000 51029 87466,87518,87492
 5.6000e+000 87708 -3.4890e+001 -1.1810e+002 -6.8773e-001 51029 87518,87440,87682
 5.6000e+000 87731 -3.3256e+001 -1.3765e+002 -1.0132e+001 51029 87518,87682,87336
 5.6000e+000 87881 -7.1583e+001 -1.5509e+002  3.9480e+000 50739 87780,87832,87806
 5.6000e+000 87858 -8.1276e+001 -1.5500e+002 -7.0433e+000 50739 87754,87832,87780
 5.6000e+000 88468 -4.9585e+001 -1.0052e+002  6.0263e+000 50235 88171,88327,88197
 5.6000e+000 88445 -1.0114e+002 -1.0336e+002 -1.3803e+001 50235 88145,88327,88171
 5.6000e+000 88422  2.7242e-001 -4.6974e+001 -2.3761e-002 50235 88275,88327,88301
 5.6000e+000 88399 -3.1199e+001 -6.0456e+001 -8.3514e-001 50235 88197,88327,88275
 5.6000e+000 88376 -1.4142e+001 -9.1270e+001 -1.3129e+000 50235 88197,88275,88223
 5.6000e+000 88353 -1.7366e+001 -1.2312e+002 -1.0607e+001 50235 88223,88275,88249
 5.6000e+000 88895 -6.7265e+001 -1.6166e+002  3.9117e+000 49873 88918,88728,88676
 5.6000e+000 88872 -5.7955e+001 -1.5194e+002 -2.4733e+000 49873 88918,88676,88624
 5.6000e+000 88849 -4.6719e+001 -1.3437e+002 -5.6682e+000 49873 88598,88754,88624
 5.6000e+000 88826 -3.6920e+001 -1.4278e+002 -4.2476e+000 49873 88624,88676,88650
 5.6000e+000 88803 -5.5606e+001 -1.9781e+002  5.8063e+000 49873 88676,88728,88702
 5.6000e+000 88780 -5.6580e+001 -1.3875e+002 -7.2580e+000 49873 88572,88754,88598
 5.6000e+000 88944 -5.5853e+001 -1.6027e+002 -2.2824e+000 49873 88754,88728,88918
 5.6000e+000 88967 -5.2353e+001 -1.5706e+002 -7.6599e+000 49873 88754,88918,88624
 5.6000e+000 89473 -9.6071e+001 -1.5221e+002 -1.8261e+001 49583 89176,89306,89202
 5.6000e+000 89450 -9.5584e+001 -1.5020e+002 -2.2579e+001 49583 89176,89332,89306
 5.6000e+000 89427 -5.7147e+001 -1.6477e+002  7.2093e+000 49583 89496,89228,89202
 5.6000e+000 89404 -5.7359e+001 -1.6858e+002  8.7206e+000 49583 89496,89202,89280
 5.6000e+000 89381 -1.1952e+002 -2.1080e+002 -3.6499e+001 49583 89202,89306,89280
 5.6000e+000 89358 -7.3484e+001 -1.5002e+002 -2.5564e+001 49583 89150,89332,89176
 5.6000e+000 89522 -5.3890e+001 -1.3934e+002  4.0209e+000 49583 89254,89228,89496
 5.6000e+000 89545 -6.5760e+001 -1.6116e+002  8.5678e+000 49583 89254,89496,89280
 5.6000e+000 89825  9.7013e+000 -1.5269e+002  6.2222e+000 49179 89701,89753,89727
 5.6000e+000 89802 -2.3156e+001 -1.3613e+002  8.2074e+000 49179 89675,89753,89701
 5.6000e+000 89779 -1.7356e+001 -1.2182e+002  7.4204e+000 49179 89848,89753,89675
 5.6000e+000 89874 -8.7055e+001 -1.4662e+002 -1.2052e+001 49179 89649,89753,89848
 5.6000e+000 90223 -4.9292e+001 -1.4524e+002 -1.7288e+001 48739 90024,90102,90076
 5.6000e+000 90200 -4.6691e+001 -1.3628e+002 -6.6164e+000 48739 90024,90128,90102
 5.6000e+000 90177  2.1692e-001 -1.4119e+002 -1.8205e+001 48739 90024,90076,90050
 5.6000e+000 90154 -1.6487e+001 -1.2984e+002  9.4638e+000 48739 89998,90128,90024
 5.6000e+000 90603 -4.3765e+001 -1.1449e+002  2.5476e+001 48335 90381,90485,90459
 5.6000e+000 90580 -5.8847e+001 -1.3745e+002  1.8663e+001 48335 90355,90485,90381
 5.6000e+000 90557 -2.2460e+001 -4.1058e+001  1.2488e+001 48335 90381,90433,90407
 5.6000e+000 90534 -4.3212e+001 -1.2032e+002  1.8325e+001 48335 90381,90459,90433
 5.6000e+000 90511  1.8365e+001 -9.3939e+001  3.7680e+001 48335 90329,90485,90355
 5.6000e+000 90753 -3.2210e-001 -7.3792e+001  4.6006e+001 47824 90776,90652,90704
 5.6000e+000 90730 -3.9248e+001 -1.3132e+002  2.0983e+001 47824 90626,90704,90652
 5.6000e+000 90802 -1.7843e+001 -9.7178e+001  3.6779e+001 47824 90678,90652,90776
 5.6000e+000 91131 -5.0344e+001 -1.6799e+002  7.6050e+000 47427 91154,90958,90906
 5.6000e+000 91108 -8.7559e+001 -1.8340e+002  2.1028e+000 47427 91154,90906,91036
 5.6000e+000 91085 -8.4616e+001 -1.4435e+002 -1.2860e+001 47427 90958,91010,90984
 5.6000e+000 91062 -5.0758e+001 -1.5006e+002  9.9313e+000 47427 90906,90958,90932
 5.6000e+000 91180 -7.1865e+001 -1.6554e+002 -1.7029e+001 47427 91010,90958,91154
 5.6000e+000 91203 -1.0755e+002 -1.8096e+002 -2.3143e+001 47427 91010,91154,91036
 5.6000e+000 91583 -8.1627e+001 -1.5381e+002 -9.1195e+000 46873 91309,91439,91335
 5.6000e+000 91560 -8.5747e+001 -1.5354e+002 -7.8030e+000 46873 91309,91465,91439
 5.6000e+000 91537 -1.2281e+002 -1.7910e+002 -4.6308e+001 46873 91361,91439,91413
 5.6000e+000 91514 -9.1355e+001 -1.6042e+002 -2.4696e+001 46873 91335,91439,91361
 5.6000e+000 91491 -4.1524e+001 -1.4948e+002 -4.0333e+001 46873 91361,91413,91387
 5.6000e+000 91880 -5.2887e+001 -1.6585e+002 -4.3151e+000 46526 91606,91710,91658
 5.6000e+000 91857 -5.5609e+001 -1.7484e+002  1.4947e+000 46526 91606,91762,91710
 5.6000e+000 91834 -3.3609e+001 -1.5912e+002 -1.8349e+001 46526 91606,91658,91632
 5.6000e+000 91811 -6.3673e+001 -1.5369e+002  2.9993e+000 46526 91658,91710,91684
 5.6000e+000 91788 -3.6579e+001 -1.1994e+002  4.7328e+000 46526 91710,91762,91736
 5.6000e+000 92211 -2.7056e+001 -6.3844e+001 -5.3600e+000 45700 91986,92064,92038
 5.6000e+000 92188 -3.7509e+001 -9.7076e+001  8.9577e-001 45700 91986,92116,92064
 5.6000e+000 92165 -2.1167e+001 -5.4594e+001 -1.1736e+001 45700 91986,92038,92012
 5.6000e+000 92142 -2.4928e+001 -1.0829e+002  1.3999e+001 45700 92064,92116,92090
 5.6000e+000 92766 -7.2446e+001 -1.4174e+002  7.7509e+000 45452 92446,92602,92576
 5.6000e+000 92743 -1.1217e+002 -1.3939e+002 -1.6119e+001 45452 92420,92602,92446
 5.6000e+000 92720 -8.6368e+001 -1.5074e+002  2.3910e+001 45452 92789,92524,92498
 5.6000e+000 92697 -9.9335e+001 -1.4633e+002  1.9969e+001 45452 92789,92498,92446
 5.6000e+000 92674 -8.3703e+001 -1.5753e+002  2.1049e-001 45452 92524,92576,92550
 5.6000e+000 92651 -1.3181e+002 -1.5300e+002  8.0647e+001 45452 92446,92498,92472
 5.6000e+000 92628 -6.7022e+001 -1.6496e+002 -3.7983e+001 45452 92394,92602,92420
 5.6000e+000 92815 -7.7074e+001 -1.5103e+002  2.0306e+001 45452 92576,92524,92789
 5.6000e+000 92838 -8.7605e+001 -1.4498e+002  1.7981e+001 45452 92576,92789,92446
 5.6000e+000 92939 -6.3131e+001 -1.9488e+002 -3.9877e+001 44998 92861,92913,92887
 5.6000e+000 93319 -1.3445e+001 -1.9979e+002  3.7309e+001 44601 93123,93201,93149
 5.6000e+000 93296 -5.5077e+001 -1.9936e+002 -1.9806e+001 44601 93045,93201,93123
 5.6000e+000 93273 -4.3985e+001 -1.1318e+002 -2.7682e+001 44601 93045,93123,93071
 5.6000e+000 93250 -3.9930e+001 -1.0530e+002 -1.8755e+001 44601 93071,93123,93097
 5.6000e+000 93227 -4.2358e+000 -1.1077e+002  4.0328e+001 44601 93149,93201,93175
 5.6000e+000 93697 -4.2013e+001 -2.1788e+002  1.1406e+001 44026 93720,93553,93527
 5.6000e+000 93674 -7.4475e+001 -1.8460e+002  1.6009e+001 44026 93720,93527,93449
 5.6000e+000 93651 -8.2421e+001 -1.9115e+002 -2.9482e+000 44026 93449,93527,93501
 5.6000e+000 93628 -5.9358e+001 -1.4730e+002 -3.1770e+001 44026 93423,93579,93449
 5.6000e+000 93605 -1.9596e+001 -1.5278e+002  1.3358e+001 44026 93449,93501,93475
 5.6000e+000 93746 -1.9034e+001 -1.9314e+002  1.9048e+000 44026 93579,93553,93720
 5.6000e+000 93769 -5.3262e+001 -1.6041e+002  7.0259e+000 44026 93579,93720,93449
 5.6000e+000 94066 -4.2599e+001 -1.6986e+002 -2.3100e+001 43579 94089,93818,93792
 5.6000e+000 94043 -6.9269e+001 -1.8926e+002 -1.4570e+001 43579 94161,94089,93792
 5.6000e+000 94020 -6.8319e+001 -1.9027e+002 -7.0769e+000 43579 94161,93792,93948
 5.6000e+000 93997 -7.3197e+001 -1.4895e+002 -7.1593e+000 43579 94233,93870,93818
 5.6000e+000 93974 -4.2236e+001 -1.5405e+002  4.9295e+000 43579 93818,93870,93844
 5.6000e+000 94115 -7.1537e+001 -1.5021e+002 -1.6440e+001 43579 94233,93818,94089
 5.6000e+000 94138 -9.4223e+001 -1.6958e+002 -1.0750e+001 43579 93896,94089,93922
 5.6000e+000 94187 -6.4421e+001 -1.7772e+002 -1.4661e+001 43579 93922,94089,94161
 5.6000e+000 94210 -6.3243e+001 -1.7777e+002 -6.4547e+000 43579 93922,94161,93948
 5.6000e+000 94259 -8.3345e+001 -1.6665e+002 -2.8675e+000 43579 93896,93870,94233
 5.6000e+000 94282 -7.7705e+001 -1.6379e+002 -1.3562e+001 43579 93896,94233,94089
 5.6000e+000 94481 -5.7534e+001 -1.7552e+002 -9.8099e-001 43239 94305,94383,94357
 5.6000e+000 94458 -4.9655e+001 -1.6061e+002  2.0024e+001 43239 94305,94409,94383
 5.6000e+000 94435 -4.4293e+001 -1.8525e+002 -4.5348e+000 43239 94305,94357,94331
 5.6000e+000 94633 -1.9737e+001 -1.0873e+002  2.5312e+001 42827 94656,94532,94506
 5.6000e+000 94610 -4.6853e+001 -1.2123e+002  2.8437e+001 42827 94728,94656,94506
 5.6000e+000 94682 -2.5597e+001 -1.2454e+002  2.1433e+001 42827 94558,94532,94656
 5.6000e+000 94705 -9.2875e+000 -1.2387e+002  1.2365e+001 42827 94988,94860,94656
 5.6000e+000 94754 -2.6251e+001 -1.1004e+002  8.0928e+000 42827 94988,94656,94728
 5.6000e+000 94886  4.6652e+000 -1.1668e+002  1.5174e+001 42827 94558,94656,94860
 5.6000e+000 95014  4.9767e+000 -1.1199e+002  7.1603e+000 42827 94584,94860,94988
 5.6000e+000 95037 -1.0006e+001 -9.9676e+001  2.8844e+000 42827 94584,94988,94728
 5.6000e+000 95236 -2.0583e+001 -1.3223e+002  1.8331e+001 42537 95259,95112,95060
 5.6000e+000 95213 -2.7566e+001 -1.2597e+002  1.5729e+001 42537 95259,95060,95164
 5.6000e+000 95190 -9.1015e+000 -1.3545e+002 -1.9087e+000 42537 95060,95112,95086
 5.6000e+000 95285 -2.5268e+001 -1.3504e+002  1.5561e+001 42537 95138,95112,95259
 5.6000e+000 95308 -3.3060e+001 -1.3174e+002  1.1934e+001 42537 95138,95259,95164
 5.6000e+000 95816 -5.9051e+001 -1.6833e+002 -1.1215e+001 41969 95493,95597,95519
 5.6000e+000 95793 -8.7836e+001 -1.5777e+002  1.5154e+001 41969 95493,95649,95597
 5.6000e+000 95770 -6.5675e+001 -1.4775e+002  1.2643e+001 41969 95493,95675,95649
 5.6000e+000 95747 -7.1188e+001 -2.0615e+002  1.2563e+001 41969 95597,95649,95623
 5.6000e+000 95724 -9.6705e+001 -1.5513e+002 -1.8728e+001 41969 95519,95597,95571
 5.6000e+000 95701 -8.4920e+001 -1.3383e+002 -3.7743e+001 41969 95519,95571,95545
 5.6000e+000 96371 -7.4096e+001 -1.7988e+002  2.1689e+001 41579 96025,96207,96181
 5.6000e+000 96348  2.2104e+001 -1.3569e+002 -7.0175e+000 41579 95999,96207,96025
 5.6000e+000 96325 -8.4944e+001 -1.3742e+002 -1.5658e+001 41579 96129,96181,96155
 5.6000e+000 96302 -3.1069e+001 -1.2480e+002  3.8102e-001 41579 96025,96181,96129
 5.6000e+000 96279 -7.0302e+001 -1.8771e+002  2.5813e+001 41579 96025,96129,96051
 5.6000e+000 96256 -7.9189e+001 -1.7206e+002  2.4936e+001 41579 96051,96103,96077
 5.6000e+000 96233 -3.0554e+001 -1.3093e+002  1.5324e+000 41579 96051,96129,96103
 5.6000e+000 96877 -1.9609e+001 -1.1445e+002 -1.3501e+001 41182 96972,96900,96632
 5.6000e+000 96854 -2.4661e+001 -8.4322e+001 -1.3601e+001 41182 96900,96554,96736
 5.6000e+000 96831 -1.8692e+001 -1.1443e+002 -1.1369e+001 41182 96972,96632,96580
 5.6000e+000 96808 -2.4514e+001 -1.0694e+002  1.1978e+001 41182 96632,96684,96658
 5.6000e+000 96785 -4.5454e+001 -1.2047e+002  1.2881e+001 41182 96684,96736,96710
 5.6000e+000 96762 -6.6736e+001 -1.4714e+002  2.4483e+001 41182 96580,96632,96606
 5.6000e+000 96926 -1.7888e+001 -1.2689e+002 -1.3367e+001 41182 96684,96632,96900
 5.6000e+000 96949 -3.6351e+001 -1.1273e+002 -2.2886e+001 41182 96684,96900,96736
 5.6000e+000 96998 -2.3413e+001 -1.1623e+002 -1.4260e+001 41182 96554,96900,96972
 5.6000e+000 97021 -2.2867e+001 -1.1599e+002 -1.1874e+001 41182 96554,96972,96580
 5.6000e+000 97576 -9.9799e+001 -2.5312e+002 -3.4588e+001 40678 97230,97412,97282
 5.6000e+000 97553 -8.9163e+000 -2.0834e+002  1.2347e+001 40678 97204,97412,97230
 5.6000e+000 97530 -2.7788e+001 -1.9182e+002 -3.1470e+001 40678 97282,97360,97308
 5.6000e+000 97507 -4.4347e+001 -1.9543e+002 -1.1607e+001 40678 97282,97412,97360
 5.6000e+000 97484 -1.1804e+001 -1.1638e+002 -2.7539e+001 40678 97308,97360,97334
 5.6000e+000 97461 -5.7280e+001 -2.3575e+002 -6.1212e+000 40678 97360,97412,97386
 5.6000e+000 97438 -5.7340e+001 -1.6360e+002 -2.2078e+001 40678 97230,97282,97256
 5.6000e+000 97976 -8.1405e+001 -1.3588e+002 -2.9765e+000 40244 97702,97832,97754
 5.6000e+000 97953 -6.8070e+001 -1.3093e+002 -6.6023e+000 40244 97702,97858,97832
 5.6000e+000 97930 -8.7471e+001 -1.5962e+002 -3.2996e+001 40244 97702,97754,97728
 5.6000e+000 97907 -6.6448e+001 -1.4652e+002  1.5963e+001 40244 97780,97832,97806
 5.6000e+000 97884 -7.2515e+001 -1.3083e+002 -5.7829e-001 40244 97754,97832,97780
 5.6000e+000 98482 -4.1331e+001 -1.2389e+002  2.0550e+001 39690 98505,98185,98159
 5.6000e+000 98459 -4.3314e+001 -1.1929e+002  1.9444e+001 39690 98505,98159,98289
 5.6000e+000 98436 -8.4923e+001 -1.8194e+002  5.0364e+001 39690 98159,98315,98289
 5.6000e+000 98413 -3.1529e+001 -1.0963e+002  1.6627e+001 39690 98211,98289,98263
 5.6000e+000 98390 -1.8209e+001 -7.1113e+001  1.0031e+001 39690 98211,98263,98237
 5.6000e+000 98367 -2.1548e+001 -1.0949e+002  1.6898e+001 39690 98159,98341,98315
 5.6000e+000 98531 -4.1364e+001 -1.2114e+002  1.7733e+001 39690 98211,98185,98505
 5.6000e+000 98554 -4.2434e+001 -1.1418e+002  1.7408e+001 39690 98211,98505,98289
 5.6000e+000 99109 -4.3354e+001 -1.1397e+002 -7.6684e+000 39072 99132,98867,98789
 5.6000e+000 99086 -4.1893e+001 -1.1739e+002 -1.0583e+001 39072 99132,98789,98763
 5.6000e+000 99063 -6.5575e+001 -1.8843e+002  1.9824e+001 39072 98867,98945,98919
 5.6000e+000 99040 -3.7823e+001 -1.2252e+002 -1.0441e+000 39072 98789,98867,98841
 5.6000e+000 99017 -8.6042e+001 -1.3867e+002  5.7104e+000 39072 98867,98919,98893
 5.6000e+000 98994 -5.9333e+001 -1.1044e+002  2.3526e+001 39072 98789,98841,98815
 5.6000e+000 98971 -6.0694e+001 -1.3218e+002 -9.0898e+000 39072 98737,98945,98763
 5.6000e+000 99158 -4.2398e+001 -1.1843e+002 -8.2996e+000 39072 98945,98867,99132
 5.6000e+000 99181 -4.2102e+001 -1.2446e+002 -9.4932e+000 39072 98945,99132,98763
 5.6000e+000 99510 -3.7012e+001 -1.0498e+002  7.2157e+000 38668 99311,99389,99363
 5.6000e+000 99487 -3.2432e+001 -1.0987e+002 -2.8262e+000 38668 99285,99389,99311
 5.6000e+000 99464 -7.1306e+001 -1.5123e+002  1.3773e+001 38668 99285,99415,99389
 5.6000e+000 99441 -3.2445e+001 -1.1303e+002  1.1638e+001 38668 99311,99363,99337
 5.6000e+000 99758 -4.1655e+001 -1.6762e+002  2.8304e+001 38164 99781,99611,99585
 5.6000e+000 99735 -1.6709e+001 -1.7186e+002  3.1327e+001 38164 99781,99585,99533
 5.6000e+000 99712 -6.3888e+001 -1.5972e+002  2.0336e+001 38164 99611,99663,99637
 5.6000e+000 99689  8.8168e+000 -1.6543e+002 -9.9578e+000 38164 99533,99585,99559
 5.6000e+000 99807 -5.5932e+001 -1.6650e+002  3.5233e+001 38164 99663,99611,99781
 5.6000e+000 99830 -3.7098e+001 -1.7382e+002  3.4315e+001 38164 99663,99781,99533
 5.6000e+000 100232 -4.5921e+001 -1.2460e+002  1.6037e+000 37702 99984,100114,100088
 5.6000e+000 100209 -3.6026e+001 -1.3117e+002  1.2900e+001 37702 99958,100114,99984
 5.6000e+000 100186 -6.8466e+001 -1.5571e+002 -9.8027e+000 37702 100010,100088,100036
 5.6000e+000 100163 -4.5570e+001 -1.2463e+002  2.8366e-001 37702 99984,100088,100010
 5.6000e+000 100140 -3.8213e+001 -1.1019e+002 -3.2411e+001 37702 100036,100088,100062
 5.6000e+000 100640 -1.0268e+002 -1.4757e+002  1.9354e+001 37262 100493,100545,100519
 5.6000e+000 100617 -9.1096e+001 -1.6811e+002  9.3478e+000 37262 100441,100545,100493
 5.6000e+000 100594 -3.6709e+001 -1.2653e+002 -2.2347e+001 37262 100415,100545,100441
 5.6000e+000 100571 -1.0261e+002 -1.8034e+002 -6.9907e+000 37262 100441,100493,100467
 5.6000e+000 101146 -7.4805e+001 -1.2477e+002 -1.7656e+000 36872 100823,100979,100849
 5.6000e+000 101123 -7.2100e+001 -1.1441e+002 -1.1836e+001 36872 100823,101005,100979
 5.6000e+000 101100 -7.5703e+001 -1.8056e+002  2.4208e+001 36872 101169,100901,100849
 5.6000e+000 101077 -5.8372e+001 -1.4407e+002  1.2867e+001 36872 101169,100849,100979
 5.6000e+000 101054 -4.2258e+001 -1.5111e+002 -9.8755e+000 36872 100927,100979,100953
 5.6000e+000 101031 -4.1495e+001 -2.0166e+002  3.3912e+001 36872 100849,100901,100875
 5.6000e+000 101195 -5.2388e+001 -1.9116e+002  1.4447e+000 36872 100927,100901,101169
 5.6000e+000 101218 -4.1742e+001 -1.7176e+002 -7.7565e+000 36872 100927,101169,100979
 5.6000e+000 101773 -8.2519e+001 -1.3433e+002  2.5777e+001 36418 101479,101609,101583
 5.6000e+000 101750 -8.5939e+001 -1.3931e+002  2.4029e+001 36418 101453,101609,101479
 5.6000e+000 101727 -5.7813e+001 -1.4223e+002 -5.5228e-001 36418 101796,101531,101479
 5.6000e+000 101704 -8.1190e+001 -1.5862e+002  1.1631e+001 36418 101796,101479,101583
 5.6000e+000 101681 -4.9809e+001 -1.2299e+002 -3.5394e+000 36418 101479,101531,101505
 5.6000e+000 101658 -1.6224e+000 -1.2226e+002  4.2069e+000 36418 101401,101609,101453
 5.6000e+000 101635 -2.4073e+001 -1.1578e+002  4.8441e+000 36418 101401,101453,101427
 5.6000e+000 101822 -6.3119e+001 -1.2998e+002 -2.2784e+001 36418 101557,101531,101796
 5.6000e+000 101845 -8.9790e+001 -1.3540e+002 -1.1649e+001 36418 101557,101796,101583
 5.6000e+000 102174 -7.9001e+000 -5.8917e+001 -1.7227e+001 35914 101949,102053,101975
 5.6000e+000 102151 -2.8458e+001 -6.4098e+001 -1.2818e+001 35914 101949,102079,102053
 5.6000e+000 102128 -3.1698e+001 -7.0137e+001 -9.5478e+000 35914 101975,102053,102027
 5.6000e+000 102105 -2.1304e+001 -5.2416e+001 -1.3828e+001 35914 101975,102027,102001
 5.6000e+000 102631 -2.8618e+001 -1.4713e+002  4.0617e+000 35574 102383,102513,102487
 5.6000e+000 102608 -2.0234e+001 -1.5348e+002  3.2647e+000 35574 102357,102513,102383
 5.6000e+000 102585 -4.9562e+001 -1.5292e+002  5.6745e+000 35574 102409,102487,102435
 5.6000e+000 102562 -5.0180e+001 -1.5589e+002  4.1490e+000 35574 102383,102487,102409
 5.6000e+000 102539 -4.9830e+001 -1.5562e+002  6.6351e+000 35574 102435,102487,102461
 5.6000e+000 103009 -7.8760e+001 -1.4536e+002 -1.0334e+001 35170 102761,102865,102787
 5.6000e+000 102986 -4.7790e+001 -1.2819e+002  1.3273e+001 35170 102761,102891,102865
 5.6000e+000 102963 -6.9142e+001 -1.4082e+002 -3.4679e+000 35170 102787,102865,102813
 5.6000e+000 102940 -3.9368e+001 -1.2330e+002  1.5635e+001 35170 102735,102891,102761
 5.6000e+000 102917 -7.1068e+001 -1.4771e+002 -1.0466e+001 35170 102813,102865,102839
 5.6000e+000 103257 -1.4341e+001 -1.0970e+002 -1.8142e+001 34659 103280,103058,103032
 5.6000e+000 103234 -2.1684e+001 -1.1465e+002 -1.0169e+001 34659 103280,103032,103162
 5.6000e+000 103211 -3.8500e+001 -1.1735e+002 -1.0039e+001 34659 103084,103162,103110
 5.6000e+000 103188 -5.0514e+001 -1.4317e+002 -6.9269e+000 34659 103110,103162,103136
 5.6000e+000 103306 -2.7646e+001 -1.0367e+002 -1.6132e+001 34659 103084,103058,103280
 5.6000e+000 103329 -3.1981e+001 -1.0863e+002 -7.1463e+000 34659 103084,103280,103162
 5.6000e+000 103837 -1.3176e+001 -1.6209e+002  5.2813e+000 34247 103860,103566,103540
 5.6000e+000 103814 -2.2325e+001 -1.6325e+002  1.6231e-001 34247 103932,103860,103540
 5.6000e+000 103791 -1.6667e+001 -1.8183e+002 -1.8711e+001 34247 103932,103540,103670
 5.6000e+000 103768 -1.7545e+001 -1.5089e+002  4.0790e+000 34247 103566,103618,103592
 5.6000e+000 103745 -6.5900e+001 -1.5262e+002 -2.3889e+001 34247 103540,103696,103670
 5.6000e+000 103722 -8.7861e+001 -1.7057e+002  2.4793e+001 34247 103514,103696,103540
 5.6000e+000 103886 -3.4167e+001 -1.6162e+002 -2.0343e+000 34247 103618,103566,103860
 5.6000e+000 103909 -3.8064e+001 -1.7321e+002  4.2647e+000 34247 103618,103860,103644
 5.6000e+000 103958 -3.8859e+001 -2.0809e+002 -3.4265e+000 34247 103644,103860,103932
 5.6000e+000 103981 -3.3255e+001 -2.2528e+002 -2.3217e+001 34247 103644,103932,103670
 5.6000e+000 104300 -7.9698e+001 -1.7159e+002 -6.2213e+000 33843 104052,104182,104156
 5.6000e+000 104277 -1.0300e+002 -1.5999e+002 -1.3463e+000 33843 104026,104182,104052
 5.6000e+000 104254 -7.8161e+001 -1.9301e+002  4.1862e+000 33843 104078,104156,104130
 5.6000e+000 104231 -9.4697e+001 -1.8533e+002 -6.3484e-002 33843 104052,104156,104078
 5.6000e+000 104208 -1.1874e+002 -2.0332e+002  5.1376e+000 33843 104078,104130,104104
 5.6000e+000 104499 -5.4899e+001 -1.7246e+002 -1.4277e+001 33282 104594,104522,104375
 5.6000e+000 104476 -4.8386e+001 -1.7026e+002  5.7236e+000 33282 104522,104323,104427
 5.6000e+000 104453 -3.3476e+001 -1.8365e+002 -1.3245e+001 33282 104594,104375,104349
 5.6000e+000 104548 -5.7927e+001 -1.5170e+002 -6.9389e+000 33282 104401,104375,104522
 5.6000e+000 104571 -3.9882e+001 -1.4911e+002  5.9882e+000 33282 104401,104522,104427
 5.6000e+000 104620 -2.8286e+001 -1.5197e+002 -4.6091e+000 33282 104323,104522,104594
 5.6000e+000 104643 -1.4693e+001 -1.7093e+002 -6.6685e+000 33282 104323,104594,104349
 5.6000e+000 104942 -7.4266e+001 -1.9001e+002  2.3452e+001 32728 104694,104772,104720
 5.6000e+000 104919 -5.6951e+001 -1.7348e+002  8.7622e+000 32728 104694,104824,104772
 5.6000e+000 104896 -9.7753e+001 -1.6895e+002  2.6692e+001 32728 104720,104772,104746
 5.6000e+000 104873 -4.5384e+001 -1.9854e+002  1.0814e+001 32728 104772,104824,104798
 5.6000e+000 104850 -4.6793e+001 -1.7181e+002  8.5007e+000 32728 104668,104824,104694
 5.6000e+000 105373 -5.8755e+001 -1.8211e+002 -8.1862e+000 32274 105396,105102,105076
 5.6000e+000 105350 -6.4989e+001 -1.9902e+002 -2.9168e+000 32274 105396,105076,105206
 5.6000e+000 105327 -8.4587e+001 -2.0595e+002  9.3571e+000 32274 105154,105206,105180
 5.6000e+000 105304 -3.0891e+001 -1.9177e+002 -1.7769e+001 32274 105076,105232,105206
 5.6000e+000 105281 -7.1570e+001 -1.6518e+002 -2.9450e+001 32274 105102,105154,105128
 5.6000e+000 105258 -9.9046e+001 -1.5402e+002 -3.0937e+001 32274 105050,105232,105076
 5.6000e+000 105422 -6.9288e+001 -1.6356e+002 -7.6362e+000 32274 105154,105102,105396
 5.6000e+000 105445 -7.4835e+001 -1.8064e+002 -3.5290e+000 32274 105154,105396,105206
 5.6000e+000 105644 -7.2188e+001 -1.8993e+002 -3.3471e+000 31620 105468,105546,105520
 5.6000e+000 105621 -5.9170e+001 -2.0333e+002 -9.7950e+000 31620 105468,105572,105546
 5.6000e+000 105598 -7.2483e+001 -2.0634e+002  9.9833e+000 31620 105468,105520,105494
 5.6000e+000 105794 -1.3703e+001 -1.6095e+002 -5.2306e+000 31158 105889,105817,105693
 5.6000e+000 105771 -2.4744e+001 -1.4374e+002 -1.0594e+001 31158 105817,105667,105745
 5.6000e+000 105843 -1.9374e+001 -1.9823e+002 -1.9815e+000 31158 105719,105693,105817
 5.6000e+000 105866 -8.9123e+000 -1.6943e+002 -9.0508e+000 31158 105719,105817,105745
 5.6000e+000 105915 -3.8876e+001 -1.7174e+002 -5.5157e+000 31158 105667,105817,105889
 5.6000e+000 106270 -7.0450e+001 -1.6311e+002 -9.0538e-001 30818 106293,106071,106045
 5.6000e+000 106247 -8.1822e+001 -1.8883e+002 -9.8861e+000 30818 106293,106045,106175
 5.6000e+000 106224 -5.7186e+001 -1.5158e+002  9.6244e+000 30818 106123,106175,106149
 5.6000e+000 106201 -7.3891e+001 -1.6713e+002  1.7375e+001 30818 106071,106123,106097
 5.6000e+000 106319 -7.1736e+001 -1.5302e+002  8.5442e+000 30818 106123,106071,106293
 5.6000e+000 106342 -7.3312e+001 -1.6656e+002  9.6563e-001 30818 106123,106293,106175
 5.6000e+000 106492 -6.7616e+001 -1.5067e+002  2.9460e+001 30414 106645,106391,106365
 5.6000e+000 106469 -2.0635e+001 -1.4986e+002  4.5830e+001 30414 106515,106365,106443
 5.6000e+000 106541 -4.0427e+001 -1.5790e+002  3.4072e+001 30414 106645,106365,106515
 5.6000e+000 106671 -2.9954e+001 -1.7850e+002  5.8710e+001 30414 106417,106391,106645
 5.6000e+000 106694  3.0785e+001 -1.6539e+002  5.1024e+001 30414 106417,106645,106515
 5.6000e+000 106942 -3.5558e+001 -2.3125e+002 -1.1658e+000 29910 106965,106795,106769
 5.6000e+000 106919 -2.9943e+001 -2.0829e+002  5.6841e+000 29910 106965,106769,106717
 5.6000e+000 106896 -3.3446e+001 -1.7512e+002 -2.1590e+001 29910 106795,106847,106821
 5.6000e+000 106873 -1.6101e+001 -1.7974e+002  1.1302e+001 29910 106717,106769,106743
 5.6000e+000 106991 -4.9278e+001 -2.0606e+002  2.3579e+000 29910 106847,106795,106965
 5.6000e+000 107014 -3.8579e+001 -1.7553e+002  9.0484e+000 29910 106847,106965,106717
 5.6000e+000 107213 -4.7697e+001 -1.7332e+002  1.1157e+001 29413 107236,107063,107037
 5.6000e+000 107190 -4.4357e+001 -2.0526e+002  2.2980e+001 29413 107236,107037,107141
 5.6000e+000 107167 -5.9194e+001 -1.2463e+002  2.7117e+001 29413 107063,107115,107089
 5.6000e+000 107262 -4.5353e+001 -1.5233e+002  7.3066e+000 29413 107115,107063,107236
 5.6000e+000 107285 -3.7332e+001 -1.7620e+002  2.0214e+001 29413 107115,107236,107141
 5.6000e+000 107486 -2.0867e+001 -1.6691e+002  2.2346e+001 29009 107336,107388,107362
 5.6000e+000 107463 -1.0775e+001 -1.6126e+002  6.6050e+000 29009 107310,107388,107336
 5.6000e+000 107440 -1.3850e+001 -1.5186e+002  6.6363e+000 29009 107310,107414,107388
 5.6000e+000 107736 -7.1065e+001 -1.9127e+002 -6.4157e+000 28491 107537,107615,107563
 5.6000e+000 107713 -6.1633e+001 -1.8700e+002 -5.1600e+000 28491 107537,107641,107615
 5.6000e+000 107690 -4.0581e+001 -1.7845e+002  4.1553e+000 28491 107563,107615,107589
 5.6000e+000 107667 -6.3167e+001 -1.8374e+002 -5.0174e+000 28491 107511,107641,107537
 5.6000e+000 108118 -4.0337e+001 -1.8087e+002  6.8635e+000 27980 108141,107922,107844
 5.6000e+000 108095 -3.2187e+001 -1.9318e+002  6.1930e+000 27980 108141,107844,108000
 5.6000e+000 108072 -4.2204e+001 -1.8827e+002 -1.0083e+001 27980 107844,107922,107870
 5.6000e+000 108049 -4.5627e+001 -1.6356e+002 -5.2896e+000 27980 107870,107922,107896
 5.6000e+000 108026 -6.4586e+001 -1.7099e+002  2.1175e+001 27980 107922,107974,107948
 5.6000e+000 108167 -3.4405e+001 -1.8179e+002  9.6762e+000 27980 107974,107922,108141
 5.6000e+000 108190 -1.2380e+001 -1.8136e+002  1.2690e+001 27980 107974,108141,108000
 5.6000e+000 108745 -1.8488e+001 -1.1721e+002 -3.8331e+000 27376 108840,108768,108477
 5.6000e+000 108722 -3.3827e+001 -1.4397e+002 -2.9682e+001 27376 108768,108373,108581
 5.6000e+000 108699 -3.2156e+001 -1.0252e+002  2.0763e+001 27376 108840,108477,108451
 5.6000e+000 108676 -8.3880e+001 -1.2393e+002 -6.1140e+000 27376 108373,108451,108399
 5.6000e+000 108653 -3.1906e+001 -1.4569e+002  2.1137e+001 27376 108503,108581,108529
 5.6000e+000 108630 -3.7645e+001 -1.4272e+002  2.2394e+001 27376 108529,108581,108555
 5.6000e+000 108607 -9.5122e+001 -1.3301e+002  9.8739e+000 27376 108399,108451,108425
 5.6000e+000 108794 -3.1157e+001 -1.5752e+002 -1.3299e-001 27376 108503,108477,108768
 5.6000e+000 108817 -3.3075e+000 -1.4420e+002 -5.6736e+000 27376 108503,108768,108581
 5.6000e+000 108866 -6.8639e+001 -1.4483e+002 -1.4579e+001 27376 108373,108768,108840
 5.6000e+000 108889 -6.6293e+001 -1.2457e+002  1.0962e+001 27376 108373,108840,108451
 5.6000e+000 109186 -7.0026e+001 -1.8879e+002  2.0204e+001 26722 109209,108938,108912
 5.6000e+000 109163 -6.4932e+001 -1.7622e+002  1.8112e+001 26722 109281,109209,108912
 5.6000e+000 109140 -6.3046e+001 -1.7143e+002  1.7384e+001 26722 109281,108912,109042
 5.6000e+000 109117 -5.6318e+001 -1.9964e+002  8.9879e+000 26722 108938,108990,108964
 5.6000e+000 109094 -8.9880e+001 -1.5595e+002  1.1516e+001 26722 108912,109068,109042
 5.6000e+000 109235 -5.8000e+001 -1.8168e+002  1.7015e+001 26722 108990,108938,109209
 5.6000e+000 109258 -6.3155e+001 -1.9358e+002  1.4837e+001 26722 108990,109209,109016
 5.6000e+000 109307 -5.8584e+001 -1.8352e+002  9.6499e+000 26722 109016,109209,109281
 5.6000e+000 109330 -5.4813e+001 -1.7556e+002  7.9938e+000 26722 109016,109281,109042
 5.6000e+000 109732 -7.1094e+001 -1.5533e+002 -4.1946e+000 26310 109458,109588,109484
 5.6000e+000 109709 -6.6790e+001 -1.7328e+002 -1.7843e+001 26310 109458,109614,109588
 5.6000e+000 109686 -1.0615e+002 -1.8030e+002  2.5524e+001 26310 109510,109562,109536
 5.6000e+000 109663 -1.0824e+002 -1.7153e+002  1.0309e+001 26310 109484,109562,109510
 5.6000e+000 109640 -7.6263e+001 -1.5858e+002 -2.0775e+000 26310 109484,109588,109562
 5.6000e+000 110159 -4.3205e+001 -1.5663e+002 -4.6484e+000 25642 110182,109940,109914
 5.6000e+000 110136 -3.8261e+001 -1.8032e+002  2.3381e+001 25642 110182,109914,109888
 5.6000e+000 110113 -5.5884e+001 -1.9234e+002 -2.4864e+001 25642 109966,110018,109992
 5.6000e+000 110090 -6.1972e+001 -1.8641e+002  1.4347e+001 25642 110254,109966,109940
 5.6000e+000 110067 -8.2615e+001 -1.7615e+002  1.1094e+001 25642 109862,110018,109888
 5.6000e+000 110044 -7.7721e+001 -1.4645e+002  2.5784e+001 25642 109836,110018,109862
 5.6000e+000 110208 -6.0248e+001 -1.7158e+002  1.0767e+001 25642 110254,109940,110182
 5.6000e+000 110231 -6.6418e+001 -1.8279e+002  2.5381e+001 25642 110018,110182,109888
 5.6000e+000 110280 -5.3400e+001 -2.0522e+002  1.1785e+001 25642 110018,109966,110254
 5.6000e+000 110303 -5.4925e+001 -1.9428e+002  8.8140e+000 25642 110018,110254,110182
 5.6000e+000 110632 -8.1767e+001 -1.6122e+002 -9.3743e+000 25188 110407,110485,110433
 5.6000e+000 110609 -9.5683e+001 -1.6484e+002 -5.2133e+000 25188 110407,110537,110485
 5.6000e+000 110586 -9.0537e+001 -1.6666e+002 -3.1907e+001 25188 110433,110485,110459
 5.6000e+000 110563 -9.0754e+001 -1.7870e+002  1.8579e+001 25188 110485,110537,110511
 5.6000e+000 110831 -1.4268e+001 -1.5508e+002  4.9139e+000 24726 110854,110707,110655
 5.6000e+000 110808 -6.2687e+000 -1.6729e+002  1.7264e+001 24726 110854,110655,110759
 5.6000e+000 110785 -2.0273e+001 -1.5970e+002  8.6120e+000 24726 110655,110707,110681
 5.6000e+000 110880 -8.0148e+000 -1.4333e+002  7.2466e+000 24726 110733,110707,110854
 5.6000e+000 110903  2.8368e+000 -1.4960e+002  2.0491e+001 24726 110733,110854,110759
 5.6000e+000 111234 -4.4555e+000 -1.1261e+002 -3.0032e+000 24222 111257,111087,111035
 5.6000e+000 111211  1.4658e+001 -1.0403e+002  1.2321e+001 24222 111257,111035,111009
 5.6000e+000 111188 -1.8687e+001 -5.6673e+001 -2.6339e+001 24222 111035,111087,111061
 5.6000e+000 111165 -1.8818e+001 -9.4229e+001  3.4428e+000 24222 111087,111139,111113
 5.6000e+000 111283 -1.6325e+001 -9.3224e+001  5.6731e+000 24222 111139,111087,111257
 5.6000e+000 111306 -8.0804e+000 -7.9681e+001  1.5524e+001 24222 111139,111257,111009
 5.6000e+000 111625 -1.9363e+001 -1.5470e+002 -8.3247e+000 23732 111648,111481,111455
 5.6000e+000 111602 -1.9630e+001 -1.5527e+002 -8.2254e+000 23732 111648,111455,111377
 5.6000e+000 111579  2.6052e+001 -7.4362e+001  1.7367e+001 23732 111377,111429,111403
 5.6000e+000 111556 -4.9401e+000 -1.5465e+002 -4.6733e+000 23732 111377,111455,111429
 5.6000e+000 111533 -1.1913e+001 -1.4018e+002 -3.3791e+000 23732 111351,111507,111377
 5.6000e+000 111674 -1.9617e+001 -1.5386e+002 -7.7178e+000 23732 111507,111481,111648
 5.6000e+000 111697 -2.0088e+001 -1.5494e+002 -7.6376e+000 23732 111507,111648,111377
 5.6000e+000 112156 -4.3317e+001 -1.8534e+002  1.3992e+001 23278 112179,111908,111882
 5.6000e+000 112133 -4.0471e+001 -1.7140e+002  7.5869e+000 23278 112179,111882,112012
 5.6000e+000 112110 -1.2829e+001 -2.0138e+002  1.0341e+000 23278 111908,111960,111934
 5.6000e+000 112087 -1.7126e+001 -1.5089e+002 -1.8903e+000 23278 111882,112038,112012
 5.6000e+000 112064 -3.6447e+001 -1.5451e+002 -2.4198e+000 23278 111960,112012,111986
 5.6000e+000 112205 -4.1172e+001 -1.7873e+002  2.5737e+000 23278 111960,111908,112179
 5.6000e+000 112228 -3.4284e+001 -1.6298e+002 -4.7351e+000 23278 111960,112179,112012
 5.6000e+000 112685 -1.1241e+002 -2.5467e+002 -2.4202e+001 22938 112489,112567,112541
 5.6000e+000 112662 -9.7092e+001 -2.2018e+002 -2.1503e+001 22938 112437,112567,112489
 5.6000e+000 112639 -6.6185e+001 -1.9139e+002 -2.9759e+000 22938 112489,112541,112515
 5.6000e+000 112616 -1.0946e+002 -2.0924e+002 -1.8490e+001 22938 112411,112567,112437
 5.6000e+000 112593 -8.6862e+001 -2.7826e+002 -5.1639e+000 22938 112437,112489,112463
 5.6000e+000 113191 -7.0928e+000 -1.8347e+002 -2.3187e+001 22534 113214,112998,112946
 5.6000e+000 113168 -3.3983e+001 -1.6205e+002 -1.1884e+001 22534 113286,113214,112946
 5.6000e+000 113145 -2.5673e+001 -1.6229e+002 -1.0024e+001 22534 113286,112946,112920
 5.6000e+000 113122 -7.4004e+001 -1.4885e+002 -3.3187e+001 22534 113358,113024,112998
 5.6000e+000 113099 -4.6624e+001 -1.5699e+002 -6.4575e+000 22534 112868,113050,112894
 5.6000e+000 113076 -5.1723e+001 -2.6420e+002 -4.4249e+001 22534 112946,112998,112972
 5.6000e+000 113240 -5.4575e+001 -1.8838e+002 -3.5127e+001 22534 113358,112998,113214
 5.6000e+000 113263 -4.4555e+001 -1.7027e+002 -7.8363e+000 22534 113050,113214,112894
 5.6000e+000 113312 -2.3038e+001 -1.6085e+002 -9.5049e+000 22534 112894,113214,113286
 5.6000e+000 113335 -1.4157e+001 -1.6142e+002 -9.1872e+000 22534 112894,113286,112920
 5.6000e+000 113384 -5.2288e+001 -1.1251e+002 -2.4104e+001 22534 113050,113024,113358
 5.6000e+000 113407 -2.4315e+001 -1.4530e+002 -2.1730e+001 22534 113050,113358,113214
 5.6000e+000 113785 -8.1325e+001 -2.1593e+002  4.9937e+000 21978 113808,113615,113511
 5.6000e+000 113762 -6.5128e+001 -2.1876e+002  1.5013e+001 21978 113808,113511,113667
 5.6000e+000 113739 -4.6600e+001 -1.8481e+002 -9.0059e+000 21978 113511,113615,113537
 5.6000e+000 113716  2.5894e+001 -1.6429e+002 -1.8298e+001 21978 113537,113615,113589
 5.6000e+000 113693 -2.1975e+001 -2.4109e+002  4.4413e+000 21978 113537,113589,113563
 5.6000e+000 113834 -8.4130e+001 -2.1575e+002  2.5662e+001 21978 113641,113615,113808
 5.6000e+000 113857 -4.1417e+001 -1.9928e+002  3.7613e+001 21978 113641,113808,113667
 5.6000e+000 114284 -5.8907e+001 -1.7984e+002  4.0029e+000 21517 114013,114117,114039
 5.6000e+000 114261 -6.7364e+001 -1.7908e+002  1.4493e+001 21517 113961,114117,114013
 5.6000e+000 114238 -6.4554e+001 -1.8153e+002  1.4963e+001 21517 113961,114013,113987
 5.6000e+000 114215 -9.8200e+001 -2.0674e+002 -1.4810e+001 21517 114039,114117,114091
 5.6000e+000 114192 -6.8306e+001 -1.5083e+002  1.7258e+001 21517 113961,114143,114117
 5.6000e+000 114169 -1.4239e+001 -1.7725e+002 -1.5722e+001 21517 114039,114091,114065
 5.6000e+000 114581 -2.8614e+001 -2.0933e+002  2.7361e+000 21027 114359,114463,114437
 5.6000e+000 114558 -1.0815e+001 -1.8872e+002  2.6018e+001 21027 114333,114463,114359
 5.6000e+000 114535 -7.0025e+000 -1.8882e+002 -5.7041e+000 21027 114359,114437,114385
 5.6000e+000 114512 -5.6051e+000 -1.8768e+002  2.2430e+001 21027 114307,114463,114333
 5.6000e+000 114489  4.0001e+001 -1.7686e+002 -8.5451e+000 21027 114385,114437,114411
 5.6000e+000 114912 -8.0495e+001 -1.8417e+002  2.9046e+000 20623 114713,114791,114765
 5.6000e+000 114889 -5.6872e+001 -1.7448e+002 -1.3087e+001 20623 114687,114791,114713
 5.6000e+000 114866 -3.6998e+001 -1.9244e+002 -1.5529e+001 20623 114687,114817,114791
 5.6000e+000 114843 -1.2105e+002 -2.2682e+002  2.0225e+001 20623 114713,114765,114739
 5.6000e+000 115290 -2.1789e+001 -1.6676e+002  9.1619e+000 20375 115313,115146,115094
 5.6000e+000 115267 -3.6411e+001 -1.5875e+002  1.7106e+001 20375 115313,115094,115042
 5.6000e+000 115244 -4.7452e+001 -1.5247e+002  5.2642e+000 20375 115385,115016,115172
 5.6000e+000 115221 -1.5726e+001 -1.4842e+002  1.3680e+001 20375 115042,115094,115068
 5.6000e+000 115198 -3.4326e+001 -1.9859e+002  1.0392e+001 20375 115094,115146,115120
 5.6000e+000 115339 -5.2184e+001 -1.9807e+002 -6.5601e+000 20375 115172,115146,115313
 5.6000e+000 115362 -2.7917e+001 -1.5759e+002  6.2803e+000 20375 115385,115172,115313
 5.6000e+000 115411 -5.8315e+001 -1.5821e+002  7.3850e+000 20375 115042,115016,115385
 5.6000e+000 115434 -4.8915e+001 -1.7004e+002  1.1497e+001 20375 115042,115385,115313
 5.6000e+000 115891 -8.6357e+001 -1.7016e+002  2.1108e+001 19971 115617,115747,115643
 5.6000e+000 115868 -7.5025e+001 -1.4352e+002  2.1547e+001 19971 115617,115773,115747
 5.6000e+000 115845 -5.6627e+001 -2.6336e+002  3.8182e+000 19971 115643,115721,115695
 5.6000e+000 115822 -2.4074e+000 -1.3027e+002 -2.1489e-001 19971 115643,115747,115721
 5.6000e+000 115799 -4.7184e+001 -3.2138e+002 -2.4489e+001 19971 115643,115695,115669
 5.6000e+000 115992 -1.2479e+002 -3.2288e+002 -5.6576e+001 19659 115914,115966,115940
 5.6000e+000 116142 -2.0516e+001 -7.3326e+001  1.9982e+000 18997 116041,116093,116067
 5.6000e+000 116119 -4.1037e+001 -1.2622e+002  7.8633e+000 18997 116015,116093,116041
 5.6000e+000 116343 -3.4293e+001 -1.9437e+002 -5.3798e+000 18707 116193,116245,116219
 5.6000e+000 116320 -7.6568e+001 -2.1238e+002 -8.3768e+000 18707 116193,116271,116245
 5.6000e+000 116297 -7.0973e+001 -1.9123e+002 -1.5613e+001 18707 116167,116271,116193
 5.6000e+000 116747 -3.0799e+001 -1.7554e+002 -3.2449e+000 18301 116525,116629,116551
 5.6000e+000 116724 -1.7260e+001 -1.4923e+002  4.2022e+000 18301 116473,116629,116525
 5.6000e+000 116701 -1.1386e+001 -1.4567e+002 -8.0313e+000 18301 116473,116525,116499
 5.6000e+000 116678 -2.5692e+001 -1.8277e+002 -2.2213e+000 18301 116551,116603,116577
 5.6000e+000 116655 -3.6859e+001 -1.8978e+002 -5.4378e+000 18301 116551,116629,116603
 5.6000e+000 117147 -8.5047e+001 -1.9859e+002  9.6573e-001 17747 116899,117029,116925
 5.6000e+000 117124 -4.5061e+001 -1.4530e+002  2.1541e+001 17747 116873,117029,116899
 5.6000e+000 117101 -8.4430e+001 -1.9765e+002  1.2336e+000 17747 116925,117029,116951
 5.6000e+000 117078 -7.1541e+001 -1.6619e+002  7.1667e-001 17747 116951,117029,117003
 5.6000e+000 117055 -9.9438e+001 -2.2460e+002 -1.4582e+001 17747 116951,117003,116977
 5.6000e+000 117368  1.4246e+001 -1.9375e+002  5.0000e+000 17293 117244,117296,117270
 5.6000e+000 117345 -1.2740e+001 -2.0135e+002 -2.5260e+000 17293 117192,117296,117244
 5.6000e+000 117322 -3.4380e+001 -1.8863e+002 -1.9520e+000 17293 117192,117244,117218
 5.6000e+000 117699 -1.8827e+001 -1.5736e+002 -1.7620e+001 16896 117526,117604,117552
 5.6000e+000 117676 -1.0250e+002 -2.4055e+002  1.5815e+001 16896 117500,117604,117526
 5.6000e+000 117653 -1.0894e+002 -1.8964e+002 -9.2299e+000 16896 117552,117604,117578
 5.6000e+000 117630 -9.6514e+001 -3.1316e+002  2.5438e+001 16896 117474,117604,117500
 5.6000e+000 117849 -2.1748e+002 -4.2257e+002 -1.6025e+001 16534 117722,117774,117748
 5.6000e+000 117826 -1.7077e+002 -5.1242e+002 -6.9835e+001 16534 117722,117800,117774
 5.6000e+000 118070  9.9149e-002 -1.9982e+002  2.5241e+001 16194 117946,117998,117972
 5.6000e+000 118047 -3.1812e+001 -2.2547e+002  1.0087e+001 16194 117894,117998,117946
 5.6000e+000 118024 -1.1423e+002 -2.3104e+002 -1.1552e-001 16194 117894,117946,117920
 5.6000e+000 118173 -9.7549e+000 -1.8487e+002  0.0000e+000 15968 118095,118147,118121
 5.6000e+000 118276 -5.5207e+001 -2.0755e+002  7.7787e-001 15433 118299,118198,118250
 5.6000e+000 118325 -5.5798e+001 -2.0893e+002  7.9147e-001 15433 118224,118198,118299
 5.6000e+000 118450 -9.9621e+001 -2.2025e+002  2.0333e+001 421 118372,118424,118398
 5.7000e+000 69891 -4.0434e+001 -2.1101e+002  7.5795e+000 68988 69447,69681,69629
 5.7000e+000 69868  1.1995e+001 -1.8938e+002  6.4695e+000 68988 69421,69681,69447
 5.7000e+000 69845 -4.8358e+000 -1.0632e+002  1.0379e+000 68988 69447,69629,69577
 5.7000e+000 69822 -6.5676e+001 -2.1801e+002 -2.3865e+001 68988 69447,69577,69473
 5.7000e+000 69799 -1.1791e+001 -2.5479e+002  4.2883e+001 68988 69629,69681,69655
 5.7000e+000 69776 -7.1840e+001 -1.3532e+002  3.7871e+000 68988 69577,69629,69603
 5.7000e+000 69753 -5.2645e+001 -1.9596e+002 -3.0354e+001 68988 69473,69577,69551
 5.7000e+000 69730 -7.2902e+001 -3.8346e+002 -3.7026e+001 68988 69473,69551,69525
 5.7000e+000 69707 -1.1743e+002 -2.5500e+002  5.7415e-001 68988 69473,69525,69499
 5.7000e+000 69992 -1.3313e+002 -2.3583e+002 -3.1796e+001 68676 69914,69966,69940
 5.7000e+000 70392 -1.0125e+002 -1.9914e+002  1.6778e+001 68478 70118,70248,70144
 5.7000e+000 70369 -6.3543e+000 -2.0758e+002  4.3014e+001 68478 70118,70274,70248
 5.7000e+000 70346 -6.0546e+001 -1.4936e+002 -1.1619e-001 68478 70144,70222,70196
 5.7000e+000 70323 -5.0218e+001 -1.2252e+002 -6.5538e+000 68478 70144,70248,70222
 5.7000e+000 70300 -6.3613e+001 -1.6128e+002 -1.7825e+000 68478 70144,70196,70170
 5.7000e+000 70841  2.7205e+001 -1.3827e+002 -3.6209e+001 68280 70570,70622,70596
 5.7000e+000 70818 -7.1233e+001 -1.5537e+002 -8.6237e+000 68280 70544,70622,70570
 5.7000e+000 70795 -5.3869e+001 -1.1654e+002 -5.0399e+000 68280 70544,70674,70622
 5.7000e+000 70772 -4.7096e+001 -1.0442e+002  1.8532e+000 68280 70622,70674,70648
 5.7000e+000 70749 -7.4758e+001 -1.7363e+002  1.2735e+001 68280 70518,70674,70544
 5.7000e+000 70726  4.9605e+001 -1.8383e+002  4.9025e+001 68280 70518,70700,70674
 5.7000e+000 70991 -7.7948e+000 -7.2088e+002  2.1966e+001 67968 70864,70916,70890
 5.7000e+000 70968 -1.9240e+002 -7.1626e+002  8.4433e+001 67968 70864,70942,70916
 5.7000e+000 71141 -3.2563e+002 -6.2539e+002 -2.8859e+001 67770 71040,71092,71066
 5.7000e+000 71118 -2.8562e+002 -7.5071e+002  3.2810e+001 67770 71014,71092,71040
 5.7000e+000 71651 -5.0213e+001 -1.4279e+002 -2.1858e+001 67366 71746,71674,71458
 5.7000e+000 71628 -3.3334e+001 -1.1255e+002 -2.5632e+001 67366 71674,71354,71510
 5.7000e+000 71605 -4.7223e+001 -1.5905e+002 -1.9688e+001 67366 71746,71458,71432
 5.7000e+000 71582 -7.3224e+001 -1.6078e+002  8.8263e+000 67366 71354,71432,71380
 5.7000e+000 71559 -7.5028e+001 -1.1959e+002 -1.1005e+001 67366 71380,71432,71406
 5.7000e+000 71536 -3.6197e+001 -4.7358e+001 -2.8936e+000 67366 71328,71510,71354
 5.7000e+000 71700 -5.3911e+001 -1.2802e+002 -1.0306e+001 67366 71484,71458,71674
 5.7000e+000 71723 -4.0369e+001 -1.2184e+002 -8.6072e+000 67366 71484,71674,71510
 5.7000e+000 71772 -4.6709e+001 -1.2348e+002 -1.9605e+001 67366 71354,71674,71746
 5.7000e+000 71795 -4.1916e+001 -1.3701e+002 -1.9667e+001 67366 71354,71746,71432
 5.7000e+000 71896 -1.1796e+002 -2.5239e+002  0.0000e+000 67146 71818,71870,71844
 5.7000e+000 71997 -1.3641e+002 -2.3304e+002  4.7260e+001 66948 71919,71971,71945
 5.7000e+000 72149 -2.1803e+001 -1.6112e+002 -1.9280e+001 66700 72172,72074,72048
 5.7000e+000 72126 -6.7404e+001 -1.8329e+002 -7.4579e+000 66700 72172,72048,72022
 5.7000e+000 72198 -1.0025e+002 -1.9853e+002  1.2376e+001 66700 72244,72172,72100
 5.7000e+000 72221 -8.5343e+001 -1.8052e+002 -9.3464e+000 66700 72100,72172,72022
 5.7000e+000 72270 -5.9640e+001 -1.0918e+002 -1.3378e+001 66700 72074,72172,72244
 5.7000e+000 72623 -6.9361e+001 -1.7136e+002  3.4768e+000 66502 72424,72502,72450
 5.7000e+000 72600 -5.9940e+001 -1.4694e+002  2.9861e+000 66502 72398,72502,72424
 5.7000e+000 72577 -4.9762e+001 -1.6482e+002 -2.4788e+000 66502 72398,72528,72502
 5.7000e+000 72554 -7.2313e+001 -1.5525e+002 -9.3471e-001 66502 72450,72502,72476
 5.7000e+000 72920 -1.0659e+002 -2.1599e+002  5.3867e+000 65941 72672,72776,72750
 5.7000e+000 72897 -1.0306e+002 -1.8547e+002  2.0652e+001 65941 72646,72776,72672
 5.7000e+000 72874 -9.4082e+001 -2.1281e+002  7.5050e+000 65941 72672,72750,72724
 5.7000e+000 72851 -9.5424e+001 -1.7141e+002  1.5886e+001 65941 72672,72724,72698
 5.7000e+000 72828 -7.8568e+001 -1.8106e+002  1.7680e+001 65941 72646,72802,72776
 5.7000e+000 73241 -3.7835e+001 -1.5189e+002  7.0125e+000 65743 73264,73071,73045
 5.7000e+000 73218 -7.1184e+001 -1.7089e+002  1.5451e+001 65743 73480,73264,73045
 5.7000e+000 73195 -5.6342e+001 -1.5081e+002 -1.6140e+000 65743 73336,72967,73097
 5.7000e+000 73172 -8.9739e+001 -1.3926e+002 -1.2885e+001 65743 73408,72993,72967
 5.7000e+000 73149 -5.2705e+001 -1.5242e+002 -2.3300e+000 65743 72967,73123,73097
 5.7000e+000 73290 -4.7328e+001 -1.5549e+002  1.9789e+000 65743 73097,73071,73264
 5.7000e+000 73313 -5.0957e+001 -1.4539e+002  4.3131e+000 65743 73336,73097,73264
 5.7000e+000 73362 -7.7880e+001 -1.5494e+002 -8.1845e+000 65743 73408,72967,73336
 5.7000e+000 73385 -4.3146e+001 -1.4282e+002  4.0071e-001 65743 73019,73336,73264
 5.7000e+000 73434 -6.9779e+001 -1.0725e+002  7.3584e+000 65743 73019,72993,73408
 5.7000e+000 73457 -4.4364e+001 -1.2972e+002  5.9310e+000 65743 73019,73408,73336
 5.7000e+000 73506 -3.3875e+001 -1.0585e+002  3.8538e-001 65743 73019,73264,73480
 5.7000e+000 73989 -1.1690e+001 -1.2578e+002  1.4620e+001 65453 73793,73845,73819
 5.7000e+000 73966 -6.8919e+001 -1.4074e+002  1.6942e+001 65453 73741,73845,73793
 5.7000e+000 73943 -2.2317e+001 -1.1527e+002  7.1279e+000 65453 73715,73845,73741
 5.7000e+000 73920 -5.5201e+001 -1.5258e+002  2.8802e+001 65453 73741,73793,73767
 5.7000e+000 73897 -1.9546e-001 -7.0290e+001 -2.5492e-002 65453 73715,73871,73845
 5.7000e+000 74357 -3.7143e+001 -1.4277e+002 -4.1590e+001 65141 74380,74138,74086
 5.7000e+000 74334 -6.8164e+001 -1.9432e+002 -2.7945e+001 65141 74380,74086,74060
 5.7000e+000 74311 -7.4644e+001 -1.8900e+002 -8.5001e+000 65141 74138,74190,74164
 5.7000e+000 74288 -6.3318e+001 -2.1122e+002 -9.1777e+000 65141 74060,74216,74190
 5.7000e+000 74265 -6.6875e+001 -2.2283e+002  2.6864e+000 65141 74034,74216,74060
 5.7000e+000 74242 -3.8994e+001 -9.4078e+001 -1.9321e+001 65141 74086,74138,74112
 5.7000e+000 74406 -5.6480e+001 -1.8838e+002 -1.6810e+001 65141 74190,74138,74380
 5.7000e+000 74429 -6.6071e+001 -2.0626e+002 -7.9415e+000 65141 74190,74380,74060
 5.7000e+000 74937 -8.0669e+001 -1.5981e+002 -3.7462e+001 64737 74614,74666,74640
 5.7000e+000 74914 -9.9300e+001 -1.9003e+002 -2.7971e+001 64737 74614,74796,74666
 5.7000e+000 74891 -7.0616e+001 -1.2774e+002 -2.9052e+000 64737 74960,74718,74666
 5.7000e+000 74868 -6.5355e+001 -1.4194e+002 -1.5697e+001 64737 74960,74666,74770
 5.7000e+000 74845 -6.8400e+001 -1.2188e+002 -1.7261e+001 64737 74666,74796,74770
 5.7000e+000 74822 -6.7123e+001 -1.3808e+002  3.7802e+000 64737 74666,74718,74692
 5.7000e+000 74986 -7.3687e+001 -1.4228e+002 -5.8221e+000 64737 74744,74718,74960
 5.7000e+000 75009 -7.4205e+001 -1.6429e+002 -1.9481e+001 64737 74744,74960,74770
 5.7000e+000 75306 -3.9377e+001 -1.3715e+002  2.1808e+001 64133 75329,75110,75084
 5.7000e+000 75283 -5.1046e+001 -1.6412e+002  6.5151e+000 64133 75401,75329,75084
 5.7000e+000 75260 -5.0006e+001 -1.6874e+002  7.7357e+000 64133 75401,75084,75058
 5.7000e+000 75237 -4.9709e+001 -1.9792e+002  2.6871e+001 64133 75473,75136,75110
 5.7000e+000 75214 -4.8396e+001 -1.5266e+002  2.1129e+000 64133 75032,75188,75162
 5.7000e+000 75355 -5.8625e+001 -1.8245e+002  2.0483e+001 64133 75473,75110,75329
 5.7000e+000 75378 -4.3754e+001 -1.5695e+002  2.4602e+000 64133 75162,75329,75032
 5.7000e+000 75427 -4.1466e+001 -1.5123e+002  1.4036e+000 64133 75032,75329,75401
 5.7000e+000 75450 -7.8762e+001 -1.8707e+002  2.0321e+001 64133 75545,75401,75058
 5.7000e+000 75499 -4.1567e+001 -1.7861e+002  9.2411e+000 64133 75162,75136,75473
 5.7000e+000 75522 -4.9850e+001 -1.5338e+002  7.3219e+000 64133 75162,75473,75329
 5.7000e+000 75571 -4.0673e+001 -1.0396e+002  5.4846e+000 64133 75032,75401,75545
 5.7000e+000 75851 -6.6646e+001 -1.4984e+002  3.5885e+000 63843 75874,75753,75727
 5.7000e+000 75828 -5.7899e+001 -1.4420e+002 -6.0222e+000 63843 75946,75874,75727
 5.7000e+000 75805 -6.5540e+001 -1.5117e+002 -2.9540e+000 63843 76018,75946,75727
 5.7000e+000 75900 -5.5417e+001 -1.4515e+002 -6.3668e+000 63843 75779,75753,75874
 5.7000e+000 75923 -5.5858e+001 -1.2321e+002 -1.6803e+001 63843 75779,75874,75675
 5.7000e+000 75972 -6.5725e+001 -1.4058e+002 -5.8187e+000 63843 75675,75874,75946
 5.7000e+000 75995 -6.1372e+001 -1.4301e+002 -9.0684e+000 63843 75675,75946,75701
 5.7000e+000 76044 -6.6258e+001 -1.4703e+002 -1.1032e+001 63843 75701,75946,76018
 5.7000e+000 76454  8.0885e+000 -2.5731e+001 -1.4826e+001 63439 76477,76255,76229
 5.7000e+000 76431 -1.5192e+001 -6.4522e+001  8.2704e-001 63439 76477,76229,76359
 5.7000e+000 76408 -1.9776e+001 -5.0907e+001  2.9446e+001 63439 76307,76359,76333
 5.7000e+000 76385 -1.2163e+001 -7.1511e+001  2.6896e+000 63439 76255,76307,76281
 5.7000e+000 76503 -1.6747e+001 -5.6456e+001  8.1512e+000 63439 76307,76255,76477
 5.7000e+000 76526 -1.5476e+001 -7.1429e+001  1.9527e+001 63439 76307,76477,76359
 5.7000e+000 76926 -3.5092e+001 -9.9899e+001 -4.5531e-001 63049 76704,76782,76756
 5.7000e+000 76903 -4.6796e+001 -1.0253e+002 -9.6354e+000 63049 76704,76808,76782
 5.7000e+000 76880 -3.3404e+001 -1.1228e+002  1.7287e+000 63049 76704,76756,76730
 5.7000e+000 76857 -2.7309e+001 -6.4398e+001  5.2948e+000 63049 76678,76808,76704
 5.7000e+000 76834 -1.1332e+001 -1.3566e+001 -1.4253e+001 63049 76652,76808,76678
 5.7000e+000 77076 -1.7138e+001 -1.7843e+002 -1.3683e+000 62737 76975,77027,77001
 5.7000e+000 77053 -1.4246e+001 -1.9873e+002 -1.2265e+001 62737 76949,77027,76975
 5.7000e+000 77324 -7.2789e+001 -1.7194e+002 -1.8144e+000 62277 77347,77177,77125
 5.7000e+000 77301 -7.3729e+001 -1.6740e+002 -9.5588e+000 62277 77347,77125,77229
 5.7000e+000 77278 -7.1446e+001 -1.7435e+002 -1.3957e+001 62277 77099,77229,77125
 5.7000e+000 77255 -7.7774e+001 -2.0366e+002  2.2510e+000 62277 77125,77177,77151
 5.7000e+000 77373 -7.7145e+001 -1.8582e+002  2.1259e+000 62277 77203,77177,77347
 5.7000e+000 77396 -7.1143e+001 -1.7400e+002 -6.6809e+000 62277 77203,77347,77229
 5.7000e+000 77857 -4.2355e+001 -2.2113e+002  2.6878e+000 61758 77635,77739,77661
 5.7000e+000 77834 -6.0632e+001 -2.1529e+002 -7.3247e+000 61758 77583,77739,77635
 5.7000e+000 77811 -6.8795e+001 -2.6915e+002 -2.5916e+001 61758 77583,77635,77609
 5.7000e+000 77788 -5.5750e+001 -2.1320e+002  1.6777e+001 61758 77661,77713,77687
 5.7000e+000 77765 -5.9790e+001 -2.4121e+002  1.5758e+001 61758 77661,77739,77713
 5.7000e+000 78491 -6.2897e+001 -1.1786e+002  5.9598e+000 61418 78171,78301,78249
 5.7000e+000 78468 -4.8253e+001 -9.6321e+001  1.4649e+001 61418 78145,78301,78171
 5.7000e+000 78445 -4.6303e+001 -1.0484e+002 -4.3944e+000 61418 78171,78249,78223
 5.7000e+000 78422 -4.6982e+001 -9.5452e+001  5.9547e+000 61418 78145,78327,78301
 5.7000e+000 78399 -6.6106e+001 -1.3647e+002 -3.5130e+000 61418 78249,78301,78275
 5.7000e+000 78376 -2.8391e+001 -1.1466e+002 -7.1698e+000 61418 78171,78223,78197
 5.7000e+000 78353 -5.5621e+001 -1.2492e+002 -1.9901e+000 61418 78119,78327,78145
 5.7000e+000 78690 -5.5497e+001 -1.3135e+002  5.1217e-001 61014 78713,78566,78540
 5.7000e+000 78667 -4.0697e+001 -1.3609e+002  2.8819e+000 61014 78713,78540,78618
 5.7000e+000 78644 -6.3478e+001 -1.5391e+002 -1.4477e+001 61014 78514,78618,78540
 5.7000e+000 78739 -3.1267e+001 -1.2664e+002  1.3731e+001 61014 78592,78566,78713
 5.7000e+000 78762 -4.3067e+001 -1.4163e+002  1.8184e+000 61014 78785,78713,78618
 5.7000e+000 78811 -1.2825e+001 -1.2995e+002 -1.8216e+000 61014 78592,78713,78785
 5.7000e+000 79398 -2.5772e+001 -1.2335e+002 -1.1128e+001 60624 79101,79179,79153
 5.7000e+000 79375 -3.4749e+001 -1.3581e+002 -5.8249e+000 60624 79101,79231,79179
 5.7000e+000 79352 -2.5539e+001 -1.3375e+002 -8.0011e+000 60624 79075,79231,79101
 5.7000e+000 79329 -8.5773e+000 -1.5683e+002  1.5483e+001 60624 79075,79257,79231
 5.7000e+000 79306 -2.6363e+001 -1.0590e+002 -1.8332e+001 60624 79179,79231,79205
 5.7000e+000 79283 -1.9180e+001 -1.0850e+002 -7.2352e+000 60624 79101,79153,79127
 5.7000e+000 79776 -7.1887e+001 -1.8429e+002  1.4345e+001 60070 79528,79658,79606
 5.7000e+000 79753 -6.6823e+001 -1.5247e+002 -5.0412e-001 60070 79502,79658,79528
 5.7000e+000 79730 -8.7145e+001 -1.7642e+002  2.2980e+001 60070 79528,79606,79580
 5.7000e+000 79707 -3.2370e+001 -1.6521e+002  3.9378e+000 60070 79606,79658,79632
 5.7000e+000 79684 -7.0467e+000 -1.0892e+002 -2.7684e+001 60070 79528,79580,79554
 5.7000e+000 80105 -5.3631e+001 -1.4342e+002  1.6849e+001 59758 80128,79958,79906
 5.7000e+000 80082 -5.3919e+001 -1.3609e+002  1.3127e+001 59758 80128,79906,80010
 5.7000e+000 80059 -7.4146e+001 -1.5157e+002  4.7368e+001 59758 79906,79958,79932
 5.7000e+000 80036 -7.7255e+001 -1.5374e+002  5.4349e+000 59758 79880,80010,79906
 5.7000e+000 80154 -5.3806e+001 -1.4818e+002  1.7709e+001 59758 79984,79958,80128
 5.7000e+000 80177 -5.5607e+001 -1.4275e+002  1.4163e+001 59758 79984,80128,80010
 5.7000e+000 80376 -3.9320e+001 -1.2646e+002  2.0731e+000 59312 80226,80304,80252
 5.7000e+000 80353 -3.7727e+001 -1.2937e+002  2.4095e+000 59312 80200,80304,80226
 5.7000e+000 80330 -5.9428e+001 -1.1522e+002  3.3630e+001 59312 80252,80304,80278
 5.7000e+000 80805 -5.2124e+001 -1.1888e+002 -1.9191e+001 58908 80900,80828,80638
 5.7000e+000 80782 -4.0784e+001 -1.4032e+002 -2.8664e+001 58908 80828,80560,80508
 5.7000e+000 80759 -5.5133e+001 -1.1150e+002 -6.9053e+000 58908 80900,80638,80612
 5.7000e+000 80736 -2.2237e+001 -1.2189e+002  4.9034e+001 58908 80482,80664,80508
 5.7000e+000 80713 -3.7142e+001 -1.0375e+002 -3.7090e+000 58908 80560,80612,80586
 5.7000e+000 80690 -4.9099e+001 -3.6451e+002 -6.8632e+001 58908 80508,80560,80534
 5.7000e+000 80854 -2.4272e+001 -1.2795e+002 -6.8227e-001 58908 80664,80638,80828
 5.7000e+000 80877 -4.1209e+001 -1.8610e+002  2.9979e+000 58908 80664,80828,80508
 5.7000e+000 80926 -4.3514e+001 -9.6690e+001 -2.1207e+001 58908 80560,80828,80900
 5.7000e+000 80949 -4.9872e+001 -9.6882e+001 -7.1751e+000 58908 80560,80900,80612
 5.7000e+000 81246 -2.2896e+001 -1.1572e+002 -2.9702e+000 58482 81076,81128,81102
 5.7000e+000 81223 -5.5351e+001 -1.9749e+002 -1.9723e+001 58482 80972,81128,81076
 5.7000e+000 81200 -3.5405e+001 -1.3506e+002 -2.1919e+001 58482 80972,81076,81050
 5.7000e+000 81177 -7.7101e+001 -2.0185e+002 -7.0945e+000 58482 80998,81050,81024
 5.7000e+000 81154 -4.3103e+001 -1.6610e+002 -2.1321e+001 58482 80972,81050,80998
 5.7000e+000 81754 -5.7461e+001 -1.1715e+002  7.5701e+000 57828 81457,81613,81483
 5.7000e+000 81731 -6.5991e+001 -1.3378e+002  2.9818e+000 57828 81431,81613,81457
 5.7000e+000 81708 -6.2509e+001 -1.2892e+002  8.7377e+000 57828 81483,81613,81509
 5.7000e+000 81685 -7.5544e+001 -1.4622e+002  1.4418e+001 57828 81509,81613,81587
 5.7000e+000 81662 -8.0579e+001 -2.1606e+002  2.9317e+001 57828 81509,81587,81535
 5.7000e+000 81639 -4.6598e+001 -2.0053e+002  1.7449e+001 57828 81535,81587,81561
 5.7000e+000 82002 -8.6328e+001 -2.1038e+002 -5.1062e-001 57374 82025,81855,81829
 5.7000e+000 81979 -9.1683e+001 -1.9664e+002  1.0677e+001 57374 82025,81829,81907
 5.7000e+000 81956 -9.5523e+001 -1.8235e+002  6.4444e+000 57374 81803,81907,81829
 5.7000e+000 81933 -5.2552e+001 -1.6359e+002  1.1222e+001 57374 81777,81907,81803
 5.7000e+000 82051 -8.5702e+001 -1.9407e+002 -1.4571e+000 57374 81881,81855,82025
 5.7000e+000 82074 -8.7981e+001 -1.8173e+002  1.3602e+001 57374 81881,82025,81907
 5.7000e+000 82356 -5.2176e+001 -1.2408e+002 -6.6620e+000 56913 82180,82232,82206
 5.7000e+000 82333 -4.6019e+001 -1.1840e+002  9.6670e+000 56913 82180,82284,82232
 5.7000e+000 82310 -1.3818e+001 -8.8875e+001  2.2444e+001 56913 82379,82232,82284
 5.7000e+000 82405  1.5226e+001 -8.6929e+001  1.6665e+000 56913 82258,82232,82379
 5.7000e+000 82764 -5.2383e+001 -8.0878e+001 -8.1061e+000 56523 82614,82666,82640
 5.7000e+000 82741 -4.4945e+001 -8.0494e+001 -1.1973e+001 56523 82614,82692,82666
 5.7000e+000 82718 -3.7423e+001 -8.6287e+001 -2.5314e+001 56523 82588,82692,82614
 5.7000e+000 83368 -8.8512e+000 -1.3375e+002 -5.8678e+000 55969 82973,83155,83129
 5.7000e+000 83345  1.6300e+000 -1.3008e+002 -1.0131e+001 55969 82973,83181,83155
 5.7000e+000 83322 -3.4357e+001 -1.1938e+002 -4.2860e+000 55969 82973,83129,82999
 5.7000e+000 83299 -5.5742e+001 -1.2130e+002  1.8972e+000 55969 83391,83025,82999
 5.7000e+000 83276 -4.8147e+001 -1.2638e+002 -7.1455e-001 55969 83391,82999,83129
 5.7000e+000 83253 -7.6887e+000 -1.0552e+002  2.3546e+001 55969 83077,83129,83103
 5.7000e+000 83230 -5.9329e+001 -9.8442e+001 -5.0807e+000 55969 83025,83077,83051
 5.7000e+000 83207  1.8185e-001 -1.2476e+002  1.1261e+001 55969 82947,83181,82973
 5.7000e+000 83417 -4.8589e+001 -1.1639e+002  5.0358e+000 55969 83077,83025,83391
 5.7000e+000 83440 -4.6109e+001 -1.2328e+002  1.0661e+000 55969 83077,83391,83129
 5.7000e+000 83946 -1.0047e+002 -2.1931e+002  3.5357e+001 55771 83969,83779,83727
 5.7000e+000 83923 -7.9244e+001 -1.7570e+002  2.3075e+001 55771 83969,83727,83623
 5.7000e+000 83900 -9.2686e+001 -8.6671e+001  1.2462e+001 55771 83623,83727,83649
 5.7000e+000 83877 -7.8273e+001 -3.7787e+002  1.7026e+001 55771 83727,83779,83753
 5.7000e+000 83854 -1.2347e+002 -1.7109e+002  4.0372e+001 55771 83675,83727,83701
 5.7000e+000 83831 -1.4271e+002 -1.3955e+002  5.7216e+001 55771 83649,83727,83675
 5.7000e+000 83995 -9.5549e+001 -2.2873e+002 -1.9142e+001 55771 83805,83779,83969
 5.7000e+000 84018 -5.1268e+001 -1.4178e+002 -3.6058e+001 55771 83805,83969,83623
 5.7000e+000 84168 -4.3002e+001 -1.0760e+002 -3.4257e+000 55367 84191,84067,84041
 5.7000e+000 84145 -4.2901e+001 -1.1988e+002 -2.2161e+000 55367 84191,84041,84119
 5.7000e+000 84217 -4.6092e+001 -9.9856e+001 -3.3063e+000 55367 84093,84067,84191
 5.7000e+000 84240 -4.2762e+001 -1.0744e+002  1.3409e+000 55367 84093,84191,84119
 5.7000e+000 84571 -2.5788e+001 -1.5966e+002 -1.6377e+001 54913 84398,84450,84424
 5.7000e+000 84548 -2.1882e+001 -1.4700e+002 -8.8797e+000 54913 84372,84450,84398
 5.7000e+000 84525 -4.0063e+001 -1.6450e+002  5.6731e+000 54913 84346,84450,84372
 5.7000e+000 84502 -1.5577e+001 -1.0807e+002 -1.4967e+001 54913 84346,84476,84450
 5.7000e+000 85126 -8.3958e+001 -1.8382e+002 -9.7642e+000 54402 84858,84936,84910
 5.7000e+000 85103 -6.4334e+001 -1.4080e+002 -1.5879e+001 54402 84806,84936,84858
 5.7000e+000 85080 -7.9682e+001 -1.3067e+002 -1.3120e+001 54402 84780,84936,84806
 5.7000e+000 85057 -6.4174e+001 -1.5742e+002 -5.6835e+000 54402 84806,84858,84832
 5.7000e+000 85034 -7.3676e+001 -1.2394e+002  6.0435e+000 54402 84780,84962,84936
 5.7000e+000 85011 -9.7331e+001 -1.1010e+002 -5.2629e+000 54402 84858,84910,84884
 5.7000e+000 84988 -7.2339e+001 -1.2587e+002  8.0448e+000 54402 84754,84962,84780
 5.7000e+000 85396 -6.7968e+001 -8.2998e+001 -5.2902e+000 53998 85197,85249,85223
 5.7000e+000 85373 -5.2878e+001 -1.0394e+002 -1.1470e+000 53998 85197,85275,85249
 5.7000e+000 85350 -6.7691e+001 -1.2173e+002 -7.5775e+000 53998 85171,85275,85197
 5.7000e+000 85327 -3.1991e+001 -1.1225e+002 -9.8650e+000 53998 85171,85301,85275
 5.7000e+000 85749 -3.7043e+001 -1.2219e+002 -3.2856e+000 53636 85524,85628,85550
 5.7000e+000 85726 -5.7668e+001 -1.4080e+002  4.6458e+000 53636 85524,85654,85628
 5.7000e+000 85703 -2.1118e+001 -1.2926e+002 -1.2855e+001 53636 85550,85602,85576
 5.7000e+000 85680 -3.4397e+001 -1.2023e+002 -6.5769e+000 53636 85550,85628,85602
 5.7000e+000 86127 -1.5080e+001 -1.2842e+002  2.1110e+001 52982 86150,85957,85879
 5.7000e+000 86104 -4.6095e+001 -1.4990e+002  1.1755e+001 52982 86150,85879,85853
 5.7000e+000 86081 -1.2979e+001 -1.8932e+002  3.7151e+001 52982 85957,86009,85983
 5.7000e+000 86058 -5.5847e+001 -1.3759e+002  1.6949e+001 52982 85879,85957,85931
 5.7000e+000 86035 -3.5590e+001 -1.2996e+002 -5.3391e+000 52982 85879,85931,85905
 5.7000e+000 86176  4.6975e+000 -1.5260e+002  1.7011e+001 52982 86009,85957,86150
 5.7000e+000 86199 -1.3703e+001 -1.6659e+002  1.0520e+001 52982 86009,86150,85853
 5.7000e+000 86398 -3.5719e+001 -1.1029e+002  9.2485e+000 52542 86421,86248,86222
 5.7000e+000 86375 -5.7277e+001 -1.1292e+002 -8.3836e-001 52542 86421,86222,86300
 5.7000e+000 86352 -5.7094e+001 -1.2012e+002 -4.3769e+000 52542 86222,86326,86300
 5.7000e+000 86447 -1.3453e+001 -1.1097e+002  1.8366e+001 52542 86274,86248,86421
 5.7000e+000 86470 -3.4198e+001 -1.1728e+002  5.6090e+000 52542 86274,86421,86300
 5.7000e+000 86669 -5.0995e+001 -1.1227e+002 -2.1496e+001 52230 86692,86571,86545
 5.7000e+000 86646 -5.0159e+001 -1.0791e+002 -1.2305e+001 52230 86692,86545,86519
 5.7000e+000 86623 -7.0208e+001 -1.1041e+002 -1.5904e+001 52230 86493,86597,86519
 5.7000e+000 86718 -5.5886e+001 -1.1456e+002 -2.2548e+001 52230 86597,86571,86692
 5.7000e+000 86741 -6.1337e+001 -1.1292e+002 -1.3727e+001 52230 86597,86692,86519
 5.7000e+000 87153 -7.0611e+001 -1.0649e+002  5.0493e+000 51640 86980,87058,87032
 5.7000e+000 87130 -6.8349e+001 -1.0877e+002  4.1835e+000 51640 86928,87058,86980
 5.7000e+000 87107 -7.2403e+001 -1.4553e+002 -5.3823e+000 51640 86928,86980,86954
 5.7000e+000 87084 -3.6411e+001 -9.1983e+001 -8.0513e-001 51640 86980,87032,87006
 5.7000e+000 87659 -3.3685e+001 -9.9355e+001  3.0489e+000 51029 87682,87440,87362
 5.7000e+000 87636 -2.9680e+001 -1.0528e+002 -1.0132e+001 51029 87682,87362,87336
 5.7000e+000 87613 -4.9132e+001 -1.4862e+002 -3.7930e+000 51029 87440,87518,87466
 5.7000e+000 87590 -5.0927e+001 -9.8241e+001  3.7709e+000 51029 87362,87440,87414
 5.7000e+000 87567 -4.1736e+001 -7.3846e+001  1.7851e+001 51029 87362,87414,87388
 5.7000e+000 87544 -6.5093e+001 -1.3815e+002  3.1579e+000 51029 87466,87518,87492
 5.7000e+000 87708 -3.2920e+001 -1.1104e+002 -6.3017e-001 51029 87518,87440,87682
 5.7000e+000 87731 -3.1943e+001 -1.2825e+002 -8.9232e+000 51029 87518,87682,87336
 5.7000e+000 87881 -6.7453e+001 -1.4569e+002  2.8584e+000 50739 87780,87832,87806
 5.7000e+000 87858 -7.5178e+001 -1.4387e+002 -6.5997e+000 50739 87754,87832,87780
 5.7000e+000 88468 -4.7022e+001 -9.2396e+001  5.9212e+000 50235 88171,88327,88197
 5.7000e+000 88445 -9.3288e+001 -9.6150e+001 -1.1915e+001 50235 88145,88327,88171
 5.7000e+000 88422 -2.2535e-001 -4.2745e+001 -1.4161e-001 50235 88275,88327,88301
 5.7000e+000 88399 -2.8921e+001 -5.5038e+001 -1.0220e+000 50235 88197,88327,88275
 5.7000e+000 88376 -1.2179e+001 -8.4140e+001 -1.3042e+000 50235 88197,88275,88223
 5.7000e+000 88353 -1.5838e+001 -1.1356e+002 -9.0987e+000 50235 88223,88275,88249
 5.7000e+000 88895 -6.2409e+001 -1.5003e+002  3.7159e+000 49873 88918,88728,88676
 5.7000e+000 88872 -5.3798e+001 -1.4147e+002 -2.3536e+000 49873 88918,88676,88624
 5.7000e+000 88849 -4.3333e+001 -1.2416e+002 -5.1273e+000 49873 88598,88754,88624
 5.7000e+000 88826 -3.4413e+001 -1.3271e+002 -4.3992e+000 49873 88624,88676,88650
 5.7000e+000 88803 -5.0241e+001 -1.8432e+002  5.9046e+000 49873 88676,88728,88702
 5.7000e+000 88780 -5.2309e+001 -1.2725e+002 -6.0623e+000 49873 88572,88754,88598
 5.7000e+000 88944 -5.1700e+001 -1.4853e+002 -1.7512e+000 49873 88754,88728,88918
 5.7000e+000 88967 -4.8514e+001 -1.4589e+002 -6.9313e+000 49873 88754,88918,88624
 5.7000e+000 89473 -9.0062e+001 -1.4168e+002 -1.7216e+001 49583 89176,89306,89202
 5.7000e+000 89450 -8.9681e+001 -1.4023e+002 -2.0306e+001 49583 89176,89332,89306
 5.7000e+000 89427 -5.3414e+001 -1.5318e+002  6.2993e+000 49583 89496,89228,89202
 5.7000e+000 89404 -5.3514e+001 -1.5657e+002  7.6372e+000 49583 89496,89202,89280
 5.7000e+000 89381 -1.1158e+002 -1.9580e+002 -3.4037e+001 49583 89202,89306,89280
 5.7000e+000 89358 -6.8701e+001 -1.4069e+002 -2.3540e+001 49583 89150,89332,89176
 5.7000e+000 89522 -5.0422e+001 -1.3070e+002  3.5745e+000 49583 89254,89228,89496
 5.7000e+000 89545 -6.0839e+001 -1.5003e+002  7.5219e+000 49583 89254,89496,89280
 5.7000e+000 89825  9.0683e+000 -1.4239e+002  5.3668e+000 49179 89701,89753,89727
 5.7000e+000 89802 -2.1417e+001 -1.2657e+002  7.0921e+000 49179 89675,89753,89701
 5.7000e+000 89779 -1.6159e+001 -1.1382e+002  6.7222e+000 49179 89848,89753,89675
 5.7000e+000 89874 -8.1459e+001 -1.3647e+002 -1.1422e+001 49179 89649,89753,89848
 5.7000e+000 90223 -4.5054e+001 -1.3451e+002 -1.6364e+001 48739 90024,90102,90076
 5.7000e+000 90200 -4.2937e+001 -1.2588e+002 -5.8810e+000 48739 90024,90128,90102
 5.7000e+000 90177  7.2634e-001 -1.3194e+002 -1.6673e+001 48739 90024,90076,90050
 5.7000e+000 90154 -1.5923e+001 -1.2032e+002  8.5169e+000 48739 89998,90128,90024
 5.7000e+000 90603 -4.0169e+001 -1.0549e+002  2.3437e+001 48335 90381,90485,90459
 5.7000e+000 90580 -5.4009e+001 -1.2644e+002  1.7159e+001 48335 90355,90485,90381
 5.7000e+000 90557 -1.9803e+001 -3.6907e+001  1.1609e+001 48335 90381,90433,90407
 5.7000e+000 90534 -3.9768e+001 -1.1042e+002  1.7430e+001 48335 90381,90459,90433
 5.7000e+000 90511  1.6624e+001 -8.6721e+001  3.4461e+001 48335 90329,90485,90355
 5.7000e+000 90753 -1.1472e+000 -6.8006e+001  4.2297e+001 47824 90776,90652,90704
 5.7000e+000 90730 -3.6703e+001 -1.2139e+002  1.9913e+001 47824 90626,90704,90652
 5.7000e+000 90802 -1.5900e+001 -8.8945e+001  3.4108e+001 47824 90678,90652,90776
 5.7000e+000 91131 -4.6478e+001 -1.5689e+002  6.5958e+000 47427 91154,90958,90906
 5.7000e+000 91108 -8.0473e+001 -1.7111e+002  3.1358e+000 47427 91154,90906,91036
 5.7000e+000 91085 -7.7525e+001 -1.3359e+002 -1.2079e+001 47427 90958,91010,90984
 5.7000e+000 91062 -4.6747e+001 -1.3831e+002  8.9066e+000 47427 90906,90958,90932
 5.7000e+000 91180 -6.5802e+001 -1.5342e+002 -1.6013e+001 47427 91010,90958,91154
 5.7000e+000 91203 -9.8258e+001 -1.6741e+002 -2.0022e+001 47427 91010,91154,91036
 5.7000e+000 91583 -7.4148e+001 -1.4025e+002 -9.3047e+000 46873 91309,91439,91335
 5.7000e+000 91560 -7.9404e+001 -1.4067e+002 -7.5570e+000 46873 91309,91465,91439
 5.7000e+000 91537 -1.1311e+002 -1.6427e+002 -4.2845e+001 46873 91361,91439,91413
 5.7000e+000 91514 -8.4023e+001 -1.4662e+002 -2.2945e+001 46873 91335,91439,91361
 5.7000e+000 91491 -3.8031e+001 -1.3693e+002 -3.7338e+001 46873 91361,91413,91387
 5.7000e+000 91880 -5.0713e+001 -1.5459e+002 -3.9056e+000 46526 91606,91710,91658
 5.7000e+000 91857 -5.2509e+001 -1.6226e+002  1.1385e+000 46526 91606,91762,91710
 5.7000e+000 91834 -3.3111e+001 -1.4857e+002 -1.6749e+001 46526 91606,91658,91632
 5.7000e+000 91811 -5.9622e+001 -1.4323e+002  2.8441e+000 46526 91658,91710,91684
 5.7000e+000 91788 -3.5610e+001 -1.1172e+002  5.0530e+000 46526 91710,91762,91736
 5.7000e+000 92211 -2.4672e+001 -5.9911e+001 -4.9320e+000 45700 91986,92064,92038
 5.7000e+000 92188 -3.4154e+001 -8.9647e+001  7.0603e-001 45700 91986,92116,92064
 5.7000e+000 92165 -1.8930e+001 -5.0537e+001 -1.0682e+001 45700 91986,92038,92012
 5.7000e+000 92142 -2.2320e+001 -1.0043e+002  1.3083e+001 45700 92064,92116,92090
 5.7000e+000 92766 -6.7633e+001 -1.3214e+002  7.3395e+000 45452 92446,92602,92576
 5.7000e+000 92743 -1.0533e+002 -1.2999e+002 -1.5306e+001 45452 92420,92602,92446
 5.7000e+000 92720 -8.0891e+001 -1.3870e+002  2.2046e+001 45452 92789,92524,92498
 5.7000e+000 92697 -9.3673e+001 -1.3582e+002  1.8042e+001 45452 92789,92498,92446
 5.7000e+000 92674 -7.7916e+001 -1.4621e+002  1.1975e-001 45452 92524,92576,92550
 5.7000e+000 92651 -1.2376e+002 -1.4133e+002  7.4762e+001 45452 92446,92498,92472
 5.7000e+000 92628 -6.0976e+001 -1.5269e+002 -3.5261e+001 45452 92394,92602,92420
 5.7000e+000 92815 -7.1875e+001 -1.4037e+002  1.8599e+001 45452 92576,92524,92789
 5.7000e+000 92838 -8.1902e+001 -1.3540e+002  1.6293e+001 45452 92576,92789,92446
 5.7000e+000 92939 -5.9029e+001 -1.8149e+002 -3.6979e+001 44998 92861,92913,92887
 5.7000e+000 93319 -1.2284e+001 -1.8546e+002  3.4031e+001 44601 93123,93201,93149
 5.7000e+000 93296 -5.0856e+001 -1.8509e+002 -1.8741e+001 44601 93045,93201,93123
 5.7000e+000 93273 -4.0644e+001 -1.0486e+002 -2.5985e+001 44601 93045,93123,93071
 5.7000e+000 93250 -3.7519e+001 -9.7692e+001 -1.7542e+001 44601 93071,93123,93097
 5.7000e+000 93227 -2.8477e+000 -1.0148e+002  3.6461e+001 44601 93149,93201,93175
 5.7000e+000 93697 -3.8934e+001 -2.0316e+002  1.0569e+001 44026 93720,93553,93527
 5.7000e+000 93674 -6.8985e+001 -1.7187e+002  1.4962e+001 44026 93720,93527,93449
 5.7000e+000 93651 -7.6463e+001 -1.7786e+002 -3.1126e+000 44026 93449,93527,93501
 5.7000e+000 93628 -5.5265e+001 -1.3701e+002 -2.8948e+001 44026 93423,93579,93449
 5.7000e+000 93605 -1.7731e+001 -1.4250e+002  1.1863e+001 44026 93449,93501,93475
 5.7000e+000 93746 -1.7824e+001 -1.7979e+002  1.7385e+000 44026 93579,93553,93720
 5.7000e+000 93769 -4.9465e+001 -1.4895e+002  6.6399e+000 44026 93579,93720,93449
 5.7000e+000 94066 -4.0569e+001 -1.5806e+002 -2.1607e+001 43579 94089,93818,93792
 5.7000e+000 94043 -6.4661e+001 -1.7678e+002 -1.3471e+001 43579 94161,94089,93792
 5.7000e+000 94020 -6.3750e+001 -1.7783e+002 -5.8891e+000 43579 94161,93792,93948
 5.7000e+000 93997 -6.7993e+001 -1.3794e+002 -6.5744e+000 43579 94233,93870,93818
 5.7000e+000 93974 -3.9245e+001 -1.4251e+002  4.4848e+000 43579 93818,93870,93844
 5.7000e+000 94115 -6.6579e+001 -1.3914e+002 -1.5119e+001 43579 94233,93818,94089
 5.7000e+000 94138 -8.7524e+001 -1.5771e+002 -1.0211e+001 43579 93896,94089,93922
 5.7000e+000 94187 -5.9783e+001 -1.6506e+002 -1.3756e+001 43579 93922,94089,94161
 5.7000e+000 94210 -5.8767e+001 -1.6519e+002 -5.4483e+000 43579 93922,94161,93948
 5.7000e+000 94259 -7.6851e+001 -1.5425e+002 -3.1329e+000 43579 93896,93870,94233
 5.7000e+000 94282 -7.2291e+001 -1.5188e+002 -1.2995e+001 43579 93896,94233,94089
 5.7000e+000 94481 -5.3424e+001 -1.6285e+002 -8.9394e-001 43239 94305,94383,94357
 5.7000e+000 94458 -4.6096e+001 -1.4906e+002  1.8513e+001 43239 94305,94409,94383
 5.7000e+000 94435 -4.1778e+001 -1.7200e+002 -3.9719e+000 43239 94305,94357,94331
 5.7000e+000 94633 -1.8401e+001 -1.0059e+002  2.3606e+001 42827 94656,94532,94506
 5.7000e+000 94610 -4.4476e+001 -1.1250e+002  2.6376e+001 42827 94728,94656,94506
 5.7000e+000 94682 -2.4206e+001 -1.1682e+002  1.9676e+001 42827 94558,94532,94656
 5.7000e+000 94705 -8.5079e+000 -1.1416e+002  1.1571e+001 42827 94988,94860,94656
 5.7000e+000 94754 -2.5055e+001 -1.0169e+002  7.3158e+000 42827 94988,94656,94728
 5.7000e+000 94886  4.3070e+000 -1.0802e+002  1.3405e+001 42827 94558,94656,94860
 5.7000e+000 95014  5.3462e+000 -1.0351e+002  6.9147e+000 42827 94584,94860,94988
 5.7000e+000 95037 -8.9887e+000 -9.2008e+001  2.8034e+000 42827 94584,94988,94728
 5.7000e+000 95236 -1.8714e+001 -1.2156e+002  1.7159e+001 42537 95259,95112,95060
 5.7000e+000 95213 -2.5695e+001 -1.1662e+002  1.5113e+001 42537 95259,95060,95164
 5.7000e+000 95190 -8.3164e+000 -1.2501e+002 -1.4946e+000 42537 95060,95112,95086
 5.7000e+000 95285 -2.3409e+001 -1.2355e+002  1.4246e+001 42537 95138,95112,95259
 5.7000e+000 95308 -3.0813e+001 -1.2099e+002  1.1195e+001 42537 95138,95259,95164
 5.7000e+000 95816 -5.4357e+001 -1.5551e+002 -1.0203e+001 41969 95493,95597,95519
 5.7000e+000 95793 -8.0930e+001 -1.4537e+002  1.4246e+001 41969 95493,95649,95597
 5.7000e+000 95770 -6.0578e+001 -1.3651e+002  1.2318e+001 41969 95493,95675,95649
 5.7000e+000 95747 -6.4956e+001 -1.8967e+002  1.2070e+001 41969 95597,95649,95623
 5.7000e+000 95724 -8.9403e+001 -1.4276e+002 -1.7405e+001 41969 95519,95597,95571
 5.7000e+000 95701 -7.9113e+001 -1.2451e+002 -3.5096e+001 41969 95519,95571,95545
 5.7000e+000 96371 -6.8125e+001 -1.6686e+002  1.9841e+001 41579 96025,96207,96181
 5.7000e+000 96348  2.0863e+001 -1.2595e+002 -6.6572e+000 41579 95999,96207,96025
 5.7000e+000 96325 -7.8434e+001 -1.2735e+002 -1.4578e+001 41579 96129,96181,96155
 5.7000e+000 96302 -2.8822e+001 -1.1578e+002  1.5255e-001 41579 96025,96181,96129
 5.7000e+000 96279 -6.5345e+001 -1.7453e+002  2.3747e+001 41579 96025,96129,96051
 5.7000e+000 96256 -7.2852e+001 -1.5803e+002  2.2588e+001 41579 96051,96103,96077
 5.7000e+000 96233 -2.7969e+001 -1.2109e+002  9.1251e-001 41579 96051,96129,96103
 5.7000e+000 96877 -1.8237e+001 -1.0611e+002 -1.2741e+001 41182 96972,96900,96632
 5.7000e+000 96854 -2.2842e+001 -7.7778e+001 -1.2626e+001 41182 96900,96554,96736
 5.7000e+000 96831 -1.7334e+001 -1.0615e+002 -1.0604e+001 41182 96972,96632,96580
 5.7000e+000 96808 -2.2499e+001 -9.8811e+001  1.1239e+001 41182 96632,96684,96658
 5.7000e+000 96785 -4.2290e+001 -1.1220e+002  1.2491e+001 41182 96684,96736,96710
 5.7000e+000 96762 -6.2065e+001 -1.3674e+002  2.2801e+001 41182 96580,96632,96606
 5.7000e+000 96926 -1.6503e+001 -1.1755e+002 -1.2572e+001 41182 96684,96632,96900
 5.7000e+000 96949 -3.3560e+001 -1.0449e+002 -2.1331e+001 41182 96684,96900,96736
 5.7000e+000 96998 -2.1971e+001 -1.0778e+002 -1.3135e+001 41182 96554,96900,96972
 5.7000e+000 97021 -2.1551e+001 -1.0785e+002 -1.0748e+001 41182 96554,96972,96580
 5.7000e+000 97576 -9.1835e+001 -2.3487e+002 -3.2243e+001 40678 97230,97412,97282
 5.7000e+000 97553 -8.8006e+000 -1.9456e+002  7.5027e+000 40678 97204,97412,97230
 5.7000e+000 97530 -2.5281e+001 -1.7813e+002 -2.9648e+001 40678 97282,97360,97308
 5.7000e+000 97507 -4.0622e+001 -1.8142e+002 -1.0976e+001 40678 97282,97412,97360
 5.7000e+000 97484 -9.9574e+000 -1.0774e+002 -2.5766e+001 40678 97308,97360,97334
 5.7000e+000 97461 -5.2334e+001 -2.1875e+002 -6.0135e+000 40678 97360,97412,97386
 5.7000e+000 97438 -5.2851e+001 -1.5247e+002 -2.0905e+001 40678 97230,97282,97256
 5.7000e+000 97976 -7.5470e+001 -1.2626e+002 -2.5041e+000 40244 97702,97832,97754
 5.7000e+000 97953 -6.3043e+001 -1.2173e+002 -5.8669e+000 40244 97702,97858,97832
 5.7000e+000 97930 -8.1121e+001 -1.4836e+002 -3.0496e+001 40244 97702,97754,97728
 5.7000e+000 97907 -6.1563e+001 -1.3581e+002  1.4945e+001 40244 97780,97832,97806
 5.7000e+000 97884 -6.7222e+001 -1.2157e+002 -2.7577e-001 40244 97754,97832,97780
 5.7000e+000 98482 -3.7951e+001 -1.1439e+002  1.8831e+001 39690 98505,98185,98159
 5.7000e+000 98459 -3.9911e+001 -1.1008e+002  1.7746e+001 39690 98505,98159,98289
 5.7000e+000 98436 -7.8430e+001 -1.6770e+002  4.6647e+001 39690 98159,98315,98289
 5.7000e+000 98413 -2.8648e+001 -1.0140e+002  1.4946e+001 39690 98211,98289,98263
 5.7000e+000 98390 -1.6320e+001 -6.4706e+001  8.7994e+000 39690 98211,98263,98237
 5.7000e+000 98367 -1.9712e+001 -9.9236e+001  1.4958e+001 39690 98159,98341,98315
 5.7000e+000 98531 -3.7642e+001 -1.1190e+002  1.6402e+001 39690 98211,98185,98505
 5.7000e+000 98554 -3.8933e+001 -1.0566e+002  1.5973e+001 39690 98211,98505,98289
 5.7000e+000 99109 -4.0725e+001 -1.0540e+002 -7.4524e+000 39072 99132,98867,98789
 5.7000e+000 99086 -3.9449e+001 -1.0868e+002 -1.0221e+001 39072 99132,98789,98763
 5.7000e+000 99063 -6.1281e+001 -1.7470e+002  1.8071e+001 39072 98867,98945,98919
 5.7000e+000 99040 -3.5520e+001 -1.1369e+002 -1.0630e+000 39072 98789,98867,98841
 5.7000e+000 99017 -7.9850e+001 -1.2872e+002  5.2153e+000 39072 98867,98919,98893
 5.7000e+000 98994 -5.5897e+001 -1.0305e+002  2.1960e+001 39072 98789,98841,98815
 5.7000e+000 98971 -5.6705e+001 -1.2234e+002 -8.3862e+000 39072 98737,98945,98763
 5.7000e+000 99158 -3.9732e+001 -1.0961e+002 -8.0928e+000 39072 98945,98867,99132
 5.7000e+000 99181 -3.9500e+001 -1.1532e+002 -9.2346e+000 39072 98945,99132,98763
 5.7000e+000 99510 -3.4968e+001 -9.7652e+001  6.7591e+000 38668 99311,99389,99363
 5.7000e+000 99487 -3.0079e+001 -1.0217e+002 -2.8879e+000 38668 99285,99389,99311
 5.7000e+000 99464 -6.6165e+001 -1.4017e+002  1.2507e+001 38668 99285,99415,99389
 5.7000e+000 99441 -3.0583e+001 -1.0447e+002  1.0534e+001 38668 99311,99363,99337
 5.7000e+000 99758 -3.9020e+001 -1.5654e+002  2.6137e+001 38164 99781,99611,99585
 5.7000e+000 99735 -1.5738e+001 -1.6013e+002  2.9054e+001 38164 99781,99585,99533
 5.7000e+000 99712 -5.9105e+001 -1.4777e+002  1.8966e+001 38164 99611,99663,99637
 5.7000e+000 99689  6.8732e+000 -1.5649e+002 -8.9351e+000 38164 99533,99585,99559
 5.7000e+000 99807 -5.2291e+001 -1.5514e+002  3.2582e+001 38164 99663,99611,99781
 5.7000e+000 99830 -3.4844e+001 -1.6177e+002  3.1790e+001 38164 99663,99781,99533
 5.7000e+000 100232 -4.1885e+001 -1.1455e+002  1.3729e+000 37702 99984,100114,100088
 5.7000e+000 100209 -3.2413e+001 -1.1958e+002  1.1809e+001 37702 99958,100114,99984
 5.7000e+000 100186 -6.3130e+001 -1.4419e+002 -9.2189e+000 37702 100010,100088,100036
 5.7000e+000 100163 -4.1690e+001 -1.1462e+002  2.6107e-001 37702 99984,100088,100010
 5.7000e+000 100140 -3.5653e+001 -1.0316e+002 -3.0006e+001 37702 100036,100088,100062
 5.7000e+000 100640 -9.4839e+001 -1.3611e+002  1.7403e+001 37262 100493,100545,100519
 5.7000e+000 100617 -8.4200e+001 -1.5497e+002  8.2112e+000 37262 100441,100545,100493
 5.7000e+000 100594 -3.2909e+001 -1.1637e+002 -2.0730e+001 37262 100415,100545,100441
 5.7000e+000 100571 -9.4805e+001 -1.6577e+002 -7.3032e+000 37262 100441,100493,100467
 5.7000e+000 101146 -6.8817e+001 -1.1489e+002 -2.3554e+000 36872 100823,100979,100849
 5.7000e+000 101123 -6.6774e+001 -1.0642e+002 -1.1510e+001 36872 100823,101005,100979
 5.7000e+000 101100 -7.0028e+001 -1.6731e+002  2.2531e+001 36872 101169,100901,100849
 5.7000e+000 101077 -5.4189e+001 -1.3403e+002  1.1919e+001 36872 101169,100849,100979
 5.7000e+000 101054 -3.9217e+001 -1.4006e+002 -8.8605e+000 36872 100927,100979,100953
 5.7000e+000 101031 -3.8778e+001 -1.8688e+002  3.1366e+001 36872 100849,100901,100875
 5.7000e+000 101195 -4.8510e+001 -1.7690e+002  1.7464e+000 36872 100927,100901,101169
 5.7000e+000 101218 -3.8741e+001 -1.5922e+002 -6.8976e+000 36872 100927,101169,100979
 5.7000e+000 101773 -7.5997e+001 -1.2412e+002  2.4261e+001 36418 101479,101609,101583
 5.7000e+000 101750 -7.9518e+001 -1.2884e+002  2.2332e+001 36418 101453,101609,101479
 5.7000e+000 101727 -5.3197e+001 -1.3220e+002 -4.1049e-001 36418 101796,101531,101479
 5.7000e+000 101704 -7.4705e+001 -1.4726e+002  1.0781e+001 36418 101796,101479,101583
 5.7000e+000 101681 -4.5332e+001 -1.1255e+002 -3.2974e+000 36418 101479,101531,101505
 5.7000e+000 101658 -1.6941e+000 -1.1269e+002  4.6385e+000 36418 101401,101609,101453
 5.7000e+000 101635 -2.3010e+001 -1.0685e+002  5.1324e+000 36418 101401,101453,101427
 5.7000e+000 101822 -5.8082e+001 -1.2088e+002 -2.0924e+001 36418 101557,101531,101796
 5.7000e+000 101845 -8.2660e+001 -1.2589e+002 -1.0696e+001 36418 101557,101796,101583
 5.7000e+000 102174 -7.4071e+000 -5.4392e+001 -1.6391e+001 35914 101949,102053,101975
 5.7000e+000 102151 -2.5630e+001 -6.0296e+001 -1.2157e+001 35914 101949,102079,102053
 5.7000e+000 102128 -2.9672e+001 -6.4948e+001 -8.8125e+000 35914 101975,102053,102027
 5.7000e+000 102105 -1.9368e+001 -4.7678e+001 -1.3094e+001 35914 101975,102027,102001
 5.7000e+000 102631 -2.7272e+001 -1.3646e+002  3.3941e+000 35574 102383,102513,102487
 5.7000e+000 102608 -1.8493e+001 -1.4266e+002  2.6824e+000 35574 102357,102513,102383
 5.7000e+000 102585 -4.6258e+001 -1.4230e+002  5.3728e+000 35574 102409,102487,102435
 5.7000e+000 102562 -4.6459e+001 -1.4460e+002  4.1766e+000 35574 102383,102487,102409
 5.7000e+000 102539 -4.6667e+001 -1.4522e+002  6.2567e+000 35574 102435,102487,102461
 5.7000e+000 103009 -7.3213e+001 -1.3515e+002 -9.6796e+000 35170 102761,102865,102787
 5.7000e+000 102986 -4.4577e+001 -1.1927e+002  1.2293e+001 35170 102761,102891,102865
 5.7000e+000 102963 -6.4363e+001 -1.3095e+002 -3.3709e+000 35170 102787,102865,102813
 5.7000e+000 102940 -3.6509e+001 -1.1473e+002  1.4509e+001 35170 102735,102891,102761
 5.7000e+000 102917 -6.6352e+001 -1.3781e+002 -9.8803e+000 35170 102813,102865,102839
 5.7000e+000 103257 -1.3117e+001 -1.0118e+002 -1.7094e+001 34659 103280,103058,103032
 5.7000e+000 103234 -2.0084e+001 -1.0666e+002 -9.9540e+000 34659 103280,103032,103162
 5.7000e+000 103211 -3.5635e+001 -1.0769e+002 -9.3949e+000 34659 103084,103162,103110
 5.7000e+000 103188 -4.7058e+001 -1.3264e+002 -6.7158e+000 34659 103110,103162,103136
 5.7000e+000 103306 -2.5338e+001 -9.4502e+001 -1.4785e+001 34659 103084,103058,103280
 5.7000e+000 103329 -2.9762e+001 -1.0025e+002 -6.7626e+000 34659 103084,103280,103162
 5.7000e+000 103837 -1.2066e+001 -1.5009e+002  4.9042e+000 34247 103860,103566,103540
 5.7000e+000 103814 -2.0740e+001 -1.5121e+002  9.0048e-002 34247 103932,103860,103540
 5.7000e+000 103791 -1.5500e+001 -1.6858e+002 -1.7537e+001 34247 103932,103540,103670
 5.7000e+000 103768 -1.6404e+001 -1.3967e+002  3.8465e+000 34247 103566,103618,103592
 5.7000e+000 103745 -6.1159e+001 -1.4187e+002 -2.2403e+001 34247 103540,103696,103670
 5.7000e+000 103722 -8.1327e+001 -1.5775e+002  2.3211e+001 34247 103514,103696,103540
 5.7000e+000 103886 -3.1733e+001 -1.4968e+002 -1.9482e+000 34247 103618,103566,103860
 5.7000e+000 103909 -3.5326e+001 -1.6047e+002  3.9109e+000 34247 103618,103860,103644
 5.7000e+000 103958 -3.6177e+001 -1.9313e+002 -3.3184e+000 34247 103644,103860,103932
 5.7000e+000 103981 -3.0991e+001 -2.0919e+002 -2.1800e+001 34247 103644,103932,103670
 5.7000e+000 104300 -7.4485e+001 -1.5972e+002 -5.7417e+000 33843 104052,104182,104156
 5.7000e+000 104277 -9.6152e+001 -1.4891e+002 -1.1936e+000 33843 104026,104182,104052
 5.7000e+000 104254 -7.2621e+001 -1.7949e+002  4.0207e+000 33843 104078,104156,104130
 5.7000e+000 104231 -8.8297e+001 -1.7246e+002 -3.2606e-002 33843 104052,104156,104078
 5.7000e+000 104208 -1.1062e+002 -1.8907e+002  4.8613e+000 33843 104078,104130,104104
 5.7000e+000 104499 -5.0844e+001 -1.6024e+002 -1.3136e+001 33282 104594,104522,104375
 5.7000e+000 104476 -4.4936e+001 -1.5830e+002  5.3033e+000 33282 104522,104323,104427
 5.7000e+000 104453 -3.0913e+001 -1.7053e+002 -1.2222e+001 33282 104594,104375,104349
 5.7000e+000 104548 -5.3704e+001 -1.4132e+002 -6.3587e+000 33282 104401,104375,104522
 5.7000e+000 104571 -3.7040e+001 -1.3886e+002  5.3739e+000 33282 104401,104522,104427
 5.7000e+000 104620 -2.6015e+001 -1.4138e+002 -4.1610e+000 33282 104323,104522,104594
 5.7000e+000 104643 -1.3345e+001 -1.5887e+002 -6.1109e+000 33282 104323,104594,104349
 5.7000e+000 104942 -6.8627e+001 -1.7612e+002  2.1896e+001 32728 104694,104772,104720
 5.7000e+000 104919 -5.3542e+001 -1.6109e+002  8.1779e+000 32728 104694,104824,104772
 5.7000e+000 104896 -9.0523e+001 -1.5622e+002  2.5000e+001 32728 104720,104772,104746
 5.7000e+000 104873 -4.2588e+001 -1.8481e+002  1.0115e+001 32728 104772,104824,104798
 5.7000e+000 104850 -4.4934e+001 -1.5937e+002  8.1559e+000 32728 104668,104824,104694
 5.7000e+000 105373 -5.3793e+001 -1.6924e+002 -7.4496e+000 32274 105396,105102,105076
 5.7000e+000 105350 -5.9915e+001 -1.8478e+002 -2.5489e+000 32274 105396,105076,105206
 5.7000e+000 105327 -7.8682e+001 -1.9212e+002  8.3873e+000 32274 105154,105206,105180
 5.7000e+000 105304 -2.9011e+001 -1.7814e+002 -1.5833e+001 32274 105076,105232,105206
 5.7000e+000 105281 -6.6473e+001 -1.5389e+002 -2.6788e+001 32274 105102,105154,105128
 5.7000e+000 105258 -9.1405e+001 -1.4074e+002 -2.7501e+001 32274 105050,105232,105076
 5.7000e+000 105422 -6.3833e+001 -1.5217e+002 -7.0257e+000 32274 105154,105102,105396
 5.7000e+000 105445 -6.9252e+001 -1.6781e+002 -3.1832e+000 32274 105154,105396,105206
 5.7000e+000 105644 -6.7206e+001 -1.7685e+002 -3.0791e+000 31620 105468,105546,105520
 5.7000e+000 105621 -5.5049e+001 -1.8900e+002 -9.0959e+000 31620 105468,105572,105546
 5.7000e+000 105598 -6.7533e+001 -1.9209e+002  9.1838e+000 31620 105468,105520,105494
 5.7000e+000 105794 -1.1560e+001 -1.4880e+002 -4.7599e+000 31158 105889,105817,105693
 5.7000e+000 105771 -2.2401e+001 -1.3256e+002 -9.8214e+000 31158 105817,105667,105745
 5.7000e+000 105843 -1.7160e+001 -1.8408e+002 -1.8625e+000 31158 105719,105693,105817
 5.7000e+000 105866 -7.6618e+000 -1.5693e+002 -8.4371e+000 31158 105719,105817,105745
 5.7000e+000 105915 -3.5781e+001 -1.5918e+002 -5.0335e+000 31158 105667,105817,105889
 5.7000e+000 106270 -6.5904e+001 -1.5136e+002 -7.6079e-001 30818 106293,106071,106045
 5.7000e+000 106247 -7.6265e+001 -1.7476e+002 -9.3588e+000 30818 106293,106045,106175
 5.7000e+000 106224 -5.2990e+001 -1.4094e+002  8.6416e+000 30818 106123,106175,106149
 5.7000e+000 106201 -6.8319e+001 -1.5620e+002  1.6632e+001 30818 106071,106123,106097
 5.7000e+000 106319 -6.6769e+001 -1.4216e+002  7.7595e+000 30818 106123,106071,106293
 5.7000e+000 106342 -6.8012e+001 -1.5446e+002  5.0453e-001 30818 106123,106293,106175
 5.7000e+000 106492 -6.2762e+001 -1.3978e+002  2.7188e+001 30414 106645,106391,106365
 5.7000e+000 106469 -1.8772e+001 -1.3904e+002  4.2900e+001 30414 106515,106365,106443
 5.7000e+000 106541 -3.7337e+001 -1.4657e+002  3.1521e+001 30414 106645,106365,106515
 5.7000e+000 106671 -2.7583e+001 -1.6573e+002  5.4541e+001 30414 106417,106391,106645
 5.7000e+000 106694  2.9220e+001 -1.5352e+002  4.7391e+001 30414 106417,106645,106515
 5.7000e+000 106942 -3.3071e+001 -2.1434e+002 -1.1135e+000 29910 106965,106795,106769
 5.7000e+000 106919 -2.7618e+001 -1.9337e+002  5.1902e+000 29910 106965,106769,106717
 5.7000e+000 106896 -3.1168e+001 -1.6242e+002 -1.9854e+001 29910 106795,106847,106821
 5.7000e+000 106873 -1.4746e+001 -1.6681e+002  1.0408e+001 29910 106717,106769,106743
 5.7000e+000 106991 -4.5874e+001 -1.9122e+002  2.1960e+000 29910 106847,106795,106965
 5.7000e+000 107014 -3.5801e+001 -1.6335e+002  8.3906e+000 29910 106847,106965,106717
 5.7000e+000 107213 -4.3291e+001 -1.6045e+002  1.0470e+001 29413 107236,107063,107037
 5.7000e+000 107190 -4.0825e+001 -1.9055e+002  2.1637e+001 29413 107236,107037,107141
 5.7000e+000 107167 -5.3666e+001 -1.1330e+002  2.5691e+001 29413 107063,107115,107089
 5.7000e+000 107262 -4.1420e+001 -1.4043e+002  6.4649e+000 29413 107115,107063,107236
 5.7000e+000 107285 -3.4560e+001 -1.6297e+002  1.8611e+001 29413 107115,107236,107141
 5.7000e+000 107486 -1.9224e+001 -1.5430e+002  2.1089e+001 29009 107336,107388,107362
 5.7000e+000 107463 -9.9073e+000 -1.4907e+002  6.4393e+000 29009 107310,107388,107336
 5.7000e+000 107440 -1.2914e+001 -1.4098e+002  6.5782e+000 29009 107310,107414,107388
 5.7000e+000 107736 -6.5818e+001 -1.7779e+002 -5.7522e+000 28491 107537,107615,107563
 5.7000e+000 107713 -5.7392e+001 -1.7396e+002 -4.5433e+000 28491 107537,107641,107615
 5.7000e+000 107690 -3.8096e+001 -1.6554e+002  3.9245e+000 28491 107563,107615,107589
 5.7000e+000 107667 -5.8289e+001 -1.7016e+002 -4.1602e+000 28491 107511,107641,107537
 5.7000e+000 108118 -3.7558e+001 -1.6810e+002  6.4510e+000 27980 108141,107922,107844
 5.7000e+000 108095 -2.9960e+001 -1.7899e+002  5.7502e+000 27980 108141,107844,108000
 5.7000e+000 108072 -3.9132e+001 -1.7459e+002 -9.3229e+000 27980 107844,107922,107870
 5.7000e+000 108049 -4.2377e+001 -1.5167e+002 -4.8309e+000 27980 107870,107922,107896
 5.7000e+000 108026 -6.0052e+001 -1.5892e+002  2.0102e+001 27980 107922,107974,107948
 5.7000e+000 108167 -3.1902e+001 -1.6934e+002  9.1411e+000 27980 107974,107922,108141
 5.7000e+000 108190 -1.1466e+001 -1.6859e+002  1.1702e+001 27980 107974,108141,108000
 5.7000e+000 108745 -1.7071e+001 -1.0805e+002 -3.2394e+000 27376 108840,108768,108477
 5.7000e+000 108722 -3.1324e+001 -1.3304e+002 -2.7292e+001 27376 108768,108373,108581
 5.7000e+000 108699 -2.9698e+001 -9.4264e+001  1.9596e+001 27376 108840,108477,108451
 5.7000e+000 108676 -7.7502e+001 -1.1415e+002 -5.3150e+000 27376 108373,108451,108399
 5.7000e+000 108653 -2.9721e+001 -1.3480e+002  2.0120e+001 27376 108503,108581,108529
 5.7000e+000 108630 -3.4333e+001 -1.3057e+002  2.0904e+001 27376 108529,108581,108555
 5.7000e+000 108607 -8.7823e+001 -1.2241e+002  9.4324e+000 27376 108399,108451,108425
 5.7000e+000 108794 -2.8879e+001 -1.4574e+002  2.6807e-001 27376 108503,108477,108768
 5.7000e+000 108817 -2.8970e+000 -1.3319e+002 -4.9642e+000 27376 108503,108768,108581
 5.7000e+000 108866 -6.3545e+001 -1.3378e+002 -1.3302e+001 27376 108373,108768,108840
 5.7000e+000 108889 -6.1337e+001 -1.1491e+002  1.0430e+001 27376 108373,108840,108451
 5.7000e+000 109186 -6.4945e+001 -1.7504e+002  1.9053e+001 26722 109209,108938,108912
 5.7000e+000 109163 -6.0179e+001 -1.6327e+002  1.7062e+001 26722 109281,109209,108912
 5.7000e+000 109140 -5.8332e+001 -1.5887e+002  1.6337e+001 26722 109281,108912,109042
 5.7000e+000 109117 -5.1883e+001 -1.8542e+002  8.2802e+000 26722 108938,108990,108964
 5.7000e+000 109094 -8.3501e+001 -1.4460e+002  1.0934e+001 26722 108912,109068,109042
 5.7000e+000 109235 -5.3617e+001 -1.6834e+002  1.6051e+001 26722 108990,108938,109209
 5.7000e+000 109258 -5.8428e+001 -1.7950e+002  1.4020e+001 26722 108990,109209,109016
 5.7000e+000 109307 -5.4033e+001 -1.7003e+002  9.1442e+000 26722 109016,109209,109281
 5.7000e+000 109330 -5.0393e+001 -1.6264e+002  7.5466e+000 26722 109016,109281,109042
 5.7000e+000 109732 -6.5408e+001 -1.4398e+002 -4.0972e+000 26310 109458,109588,109484
 5.7000e+000 109709 -6.1474e+001 -1.6008e+002 -1.6438e+001 26310 109458,109614,109588
 5.7000e+000 109686 -9.8652e+001 -1.6740e+002  2.3689e+001 26310 109510,109562,109536
 5.7000e+000 109663 -1.0118e+002 -1.5954e+002  9.6298e+000 26310 109484,109562,109510
 5.7000e+000 109640 -7.0754e+001 -1.4720e+002 -2.1554e+000 26310 109484,109588,109562
 5.7000e+000 110159 -3.9824e+001 -1.4519e+002 -4.2530e+000 25642 110182,109940,109914
 5.7000e+000 110136 -3.5387e+001 -1.6770e+002  2.1913e+001 25642 110182,109914,109888
 5.7000e+000 110113 -5.1893e+001 -1.7858e+002 -2.2816e+001 25642 109966,110018,109992
 5.7000e+000 110090 -5.7475e+001 -1.7299e+002  1.3580e+001 25642 110254,109966,109940
 5.7000e+000 110067 -7.6371e+001 -1.6309e+002  1.0760e+001 25642 109862,110018,109888
 5.7000e+000 110044 -7.2583e+001 -1.3549e+002  2.4450e+001 25642 109836,110018,109862
 5.7000e+000 110208 -5.5828e+001 -1.5924e+002  1.0251e+001 25642 110254,109940,110182
 5.7000e+000 110231 -6.1580e+001 -1.6972e+002  2.3942e+001 25642 110018,110182,109888
 5.7000e+000 110280 -4.9408e+001 -1.9044e+002  1.1225e+001 25642 110018,109966,110254
 5.7000e+000 110303 -5.0783e+001 -1.8031e+002  8.4679e+000 25642 110018,110254,110182
 5.7000e+000 110632 -7.6078e+001 -1.4941e+002 -8.6429e+000 25188 110407,110485,110433
 5.7000e+000 110609 -8.9052e+001 -1.5333e+002 -4.6858e+000 25188 110407,110537,110485
 5.7000e+000 110586 -8.4077e+001 -1.5440e+002 -2.9648e+001 25188 110433,110485,110459
 5.7000e+000 110563 -8.4612e+001 -1.6673e+002  1.7583e+001 25188 110485,110537,110511
 5.7000e+000 110831 -1.2880e+001 -1.4369e+002  4.7741e+000 24726 110854,110707,110655
 5.7000e+000 110808 -5.6467e+000 -1.5489e+002  1.6072e+001 24726 110854,110655,110759
 5.7000e+000 110785 -1.8580e+001 -1.4819e+002  8.2589e+000 24726 110655,110707,110681
 5.7000e+000 110880 -7.2116e+000 -1.3289e+002  6.8400e+000 24726 110733,110707,110854
 5.7000e+000 110903  2.6382e+000 -1.3865e+002  1.8952e+001 24726 110733,110854,110759
 5.7000e+000 111234 -4.1905e+000 -1.0467e+002 -2.7302e+000 24222 111257,111087,111035
 5.7000e+000 111211  1.3218e+001 -9.6851e+001  1.1916e+001 24222 111257,111035,111009
 5.7000e+000 111188 -1.7473e+001 -5.1738e+001 -2.4822e+001 24222 111035,111087,111061
 5.7000e+000 111165 -1.7715e+001 -8.7653e+001  3.0693e+000 24222 111087,111139,111113
 5.7000e+000 111283 -1.5144e+001 -8.6441e+001  5.3088e+000 24222 111139,111087,111257
 5.7000e+000 111306 -7.6007e+000 -7.3594e+001  1.4730e+001 24222 111139,111257,111009
 5.7000e+000 111625 -1.7768e+001 -1.4349e+002 -7.2401e+000 23732 111648,111481,111455
 5.7000e+000 111602 -1.7793e+001 -1.4361e+002 -7.2367e+000 23732 111648,111455,111377
 5.7000e+000 111579  2.5270e+001 -6.7011e+001  1.6059e+001 23732 111377,111429,111403
 5.7000e+000 111556 -3.8541e+000 -1.4239e+002 -4.4326e+000 23732 111377,111455,111429
 5.7000e+000 111533 -1.0002e+001 -1.2973e+002 -3.1080e+000 23732 111351,111507,111377
 5.7000e+000 111674 -1.7795e+001 -1.4337e+002 -7.1461e+000 23732 111507,111481,111648
 5.7000e+000 111697 -1.7873e+001 -1.4357e+002 -7.1544e+000 23732 111507,111648,111377
 5.7000e+000 112156 -4.0140e+001 -1.7205e+002  1.3103e+001 23278 112179,111908,111882
 5.7000e+000 112133 -3.7454e+001 -1.5895e+002  7.1123e+000 23278 112179,111882,112012
 5.7000e+000 112110 -1.1399e+001 -1.8644e+002  7.6448e-001 23278 111908,111960,111934
 5.7000e+000 112087 -1.5714e+001 -1.3971e+002 -1.7240e+000 23278 111882,112038,112012
 5.7000e+000 112064 -3.3519e+001 -1.4285e+002 -2.2056e+000 23278 111960,112012,111986
 5.7000e+000 112205 -3.8143e+001 -1.6584e+002  2.3665e+000 23278 111960,111908,112179
 5.7000e+000 112228 -3.1674e+001 -1.5105e+002 -4.4731e+000 23278 111960,112179,112012
 5.7000e+000 112685 -1.0362e+002 -2.3546e+002 -2.1909e+001 22938 112489,112567,112541
 5.7000e+000 112662 -8.8893e+001 -2.0238e+002 -1.9216e+001 22938 112437,112567,112489
 5.7000e+000 112639 -6.1436e+001 -1.7663e+002 -2.3701e+000 22938 112489,112541,112515
 5.7000e+000 112616 -1.0058e+002 -1.9267e+002 -1.6586e+001 22938 112411,112567,112437
 5.7000e+000 112593 -8.0140e+001 -2.5843e+002 -3.3357e+000 22938 112437,112489,112463
 5.7000e+000 113191 -6.5535e+000 -1.7125e+002 -2.1486e+001 22534 113214,112998,112946
 5.7000e+000 113168 -3.1338e+001 -1.5078e+002 -1.1066e+001 22534 113286,113214,112946
 5.7000e+000 113145 -2.3628e+001 -1.5104e+002 -9.3077e+000 22534 113286,112946,112920
 5.7000e+000 113122 -6.8759e+001 -1.3832e+002 -3.1082e+001 22534 113358,113024,112998
 5.7000e+000 113099 -4.3370e+001 -1.4587e+002 -6.0851e+000 22534 112868,113050,112894
 5.7000e+000 113076 -4.8150e+001 -2.4567e+002 -4.1060e+001 22534 112946,112998,112972
 5.7000e+000 113240 -5.0571e+001 -1.7548e+002 -3.2884e+001 22534 113358,112998,113214
 5.7000e+000 113263 -4.1363e+001 -1.5839e+002 -7.3710e+000 22534 113050,113214,112894
 5.7000e+000 113312 -2.1230e+001 -1.4959e+002 -8.8533e+000 22534 112894,113214,113286
 5.7000e+000 113335 -1.3024e+001 -1.5020e+002 -8.5226e+000 22534 112894,113286,112920
 5.7000e+000 113384 -4.8496e+001 -1.0397e+002 -2.2647e+001 22534 113050,113024,113358
 5.7000e+000 113407 -2.2368e+001 -1.3486e+002 -2.0369e+001 22534 113050,113358,113214
 5.7000e+000 113785 -7.5646e+001 -2.0085e+002  5.0463e+000 21978 113808,113615,113511
 5.7000e+000 113762 -6.0690e+001 -2.0332e+002  1.4129e+001 21978 113808,113511,113667
 5.7000e+000 113739 -4.3020e+001 -1.7281e+002 -8.0068e+000 21978 113511,113615,113537
 5.7000e+000 113716  2.3375e+001 -1.5505e+002 -1.7925e+001 21978 113537,113615,113589
 5.7000e+000 113693 -1.9666e+001 -2.2099e+002  2.1623e+000 21978 113537,113589,113563
 5.7000e+000 113834 -7.8318e+001 -2.0084e+002  2.4228e+001 21978 113641,113615,113808
 5.7000e+000 113857 -3.8833e+001 -1.8558e+002  3.5068e+001 21978 113641,113808,113667
 5.7000e+000 114284 -5.4369e+001 -1.6711e+002  3.7988e+000 21517 114013,114117,114039
 5.7000e+000 114261 -6.2590e+001 -1.6660e+002  1.3407e+001 21517 113961,114117,114013
 5.7000e+000 114238 -5.9848e+001 -1.6779e+002  1.4018e+001 21517 113961,114013,113987
 5.7000e+000 114215 -9.0954e+001 -1.9225e+002 -1.3713e+001 21517 114039,114117,114091
 5.7000e+000 114192 -6.3662e+001 -1.4038e+002  1.6081e+001 21517 113961,114143,114117
 5.7000e+000 114169 -1.3815e+001 -1.6464e+002 -1.3932e+001 21517 114039,114091,114065
 5.7000e+000 114581 -2.5641e+001 -1.9277e+002  2.5238e+000 21027 114359,114463,114437
 5.7000e+000 114558 -9.2102e+000 -1.7384e+002  2.3862e+001 21027 114333,114463,114359
 5.7000e+000 114535 -5.7156e+000 -1.7356e+002 -5.3146e+000 21027 114359,114437,114385
 5.7000e+000 114512 -4.4683e+000 -1.7247e+002  2.1982e+001 21027 114307,114463,114333
 5.7000e+000 114489  3.7677e+001 -1.6269e+002 -7.8461e+000 21027 114385,114437,114411
 5.7000e+000 114912 -7.4754e+001 -1.7129e+002  2.7882e+000 20623 114713,114791,114765
 5.7000e+000 114889 -5.2613e+001 -1.6221e+002 -1.2058e+001 20623 114687,114791,114713
 5.7000e+000 114866 -3.4498e+001 -1.7870e+002 -1.4271e+001 20623 114687,114817,114791
 5.7000e+000 114843 -1.1287e+002 -2.1103e+002  1.9058e+001 20623 114713,114765,114739
 5.7000e+000 115290 -1.9843e+001 -1.5442e+002  8.4707e+000 20375 115313,115146,115094
 5.7000e+000 115267 -3.3423e+001 -1.4690e+002  1.5853e+001 20375 115313,115094,115042
 5.7000e+000 115244 -4.3708e+001 -1.4121e+002  4.8748e+000 20375 115385,115016,115172
 5.7000e+000 115221 -1.4403e+001 -1.3740e+002  1.2697e+001 20375 115042,115094,115068
 5.7000e+000 115198 -3.1721e+001 -1.8421e+002  9.2845e+000 20375 115094,115146,115120
 5.7000e+000 115339 -4.8005e+001 -1.8340e+002 -6.0780e+000 20375 115172,115146,115313
 5.7000e+000 115362 -2.5515e+001 -1.4591e+002  5.8389e+000 20375 115385,115172,115313
 5.7000e+000 115411 -5.3854e+001 -1.4650e+002  6.7865e+000 20375 115042,115016,115385
 5.7000e+000 115434 -4.5076e+001 -1.5742e+002  1.0627e+001 20375 115042,115385,115313
 5.7000e+000 115891 -8.0157e+001 -1.5781e+002  1.9665e+001 19971 115617,115747,115643
 5.7000e+000 115868 -6.9766e+001 -1.3354e+002  2.0301e+001 19971 115617,115773,115747
 5.7000e+000 115845 -5.2891e+001 -2.4517e+002  3.7489e+000 19971 115643,115721,115695
 5.7000e+000 115822 -2.1392e+000 -1.2080e+002 -1.3713e-001 19971 115643,115747,115721
 5.7000e+000 115799 -4.3883e+001 -2.9892e+002 -2.2487e+001 19971 115643,115695,115669
 5.7000e+000 115992 -1.1512e+002 -2.9681e+002 -5.1996e+001 19659 115914,115966,115940
 5.7000e+000 116142 -1.9345e+001 -6.8230e+001  1.9289e+000 18997 116041,116093,116067
 5.7000e+000 116119 -3.8433e+001 -1.1739e+002  7.3204e+000 18997 116015,116093,116041
 5.7000e+000 116343 -3.2065e+001 -1.8056e+002 -4.9140e+000 18707 116193,116245,116219
 5.7000e+000 116320 -7.1376e+001 -1.9742e+002 -7.8584e+000 18707 116193,116271,116245
 5.7000e+000 116297 -6.6336e+001 -1.7817e+002 -1.4564e+001 18707 116167,116271,116193
 5.7000e+000 116747 -2.8437e+001 -1.6326e+002 -3.0706e+000 18301 116525,116629,116551
 5.7000e+000 116724 -1.5873e+001 -1.3868e+002  3.8654e+000 18301 116473,116629,116525
 5.7000e+000 116701 -1.0056e+001 -1.3456e+002 -7.5601e+000 18301 116473,116525,116499
 5.7000e+000 116678 -2.3663e+001 -1.7008e+002 -2.2441e+000 18301 116551,116603,116577
 5.7000e+000 116655 -3.3982e+001 -1.7628e+002 -5.1278e+000 18301 116551,116629,116603
 5.7000e+000 117147 -7.8197e+001 -1.8276e+002  9.9501e-001 17747 116899,117029,116925
 5.7000e+000 117124 -4.1404e+001 -1.3334e+002  2.0050e+001 17747 116873,117029,116899
 5.7000e+000 117101 -7.7247e+001 -1.8108e+002  1.3883e+000 17747 116925,117029,116951
 5.7000e+000 117078 -6.4469e+001 -1.5064e+002  3.0559e-001 17747 116951,117029,117003
 5.7000e+000 117055 -9.0885e+001 -2.0924e+002 -1.4614e+001 17747 116951,117003,116977
 5.7000e+000 117368  1.3363e+001 -1.8009e+002  4.5562e+000 17293 117244,117296,117270
 5.7000e+000 117345 -1.1685e+001 -1.8705e+002 -2.4102e+000 17293 117192,117296,117244
 5.7000e+000 117322 -3.1699e+001 -1.7497e+002 -1.9521e+000 17293 117192,117244,117218
 5.7000e+000 117699 -1.7674e+001 -1.4623e+002 -1.6198e+001 16896 117526,117604,117552
 5.7000e+000 117676 -9.5122e+001 -2.2344e+002  1.4801e+001 16896 117500,117604,117526
 5.7000e+000 117653 -1.0101e+002 -1.7602e+002 -8.4748e+000 16896 117552,117604,117578
 5.7000e+000 117630 -8.9846e+001 -2.9105e+002  2.3598e+001 16896 117474,117604,117500
 5.7000e+000 117849 -2.0148e+002 -3.9194e+002 -1.4840e+001 16534 117722,117774,117748
 5.7000e+000 117826 -1.5811e+002 -4.7500e+002 -6.4778e+001 16534 117722,117800,117774
 5.7000e+000 118070  7.1807e-002 -1.8538e+002  2.3412e+001 16194 117946,117998,117972
 5.7000e+000 118047 -2.9275e+001 -2.0870e+002  9.4648e+000 16194 117894,117998,117946
 5.7000e+000 118024 -1.0566e+002 -2.1430e+002  3.2108e-001 16194 117894,117946,117920
 5.7000e+000 118173 -8.3850e+000 -1.6988e+002  0.0000e+000 15968 118095,118147,118121
 5.7000e+000 118276 -5.0870e+001 -1.9331e+002  8.4543e-001 15433 118299,118198,118250
 5.7000e+000 118325 -5.1445e+001 -1.9465e+002  8.5866e-001 15433 118224,118198,118299
 5.7000e+000 118450 -9.1544e+001 -2.0283e+002  1.9587e+001 421 118372,118424,118398
 5.8000e+000 69891 -3.5932e+001 -1.9405e+002  7.4935e+000 68988 69447,69681,69629
 5.8000e+000 69868  1.1268e+001 -1.7432e+002  3.8176e+000 68988 69421,69681,69447
 5.8000e+000 69845 -3.3670e+000 -9.7052e+001  1.7300e+000 68988 69447,69629,69577
 5.8000e+000 69822 -6.0152e+001 -2.0039e+002 -2.1574e+001 68988 69447,69577,69473
 5.8000e+000 69799 -1.1303e+001 -2.3625e+002  3.9040e+001 68988 69629,69681,69655
 5.8000e+000 69776 -6.6182e+001 -1.2405e+002  3.2665e+000 68988 69577,69629,69603
 5.8000e+000 69753 -4.7850e+001 -1.8007e+002 -2.7954e+001 68988 69473,69577,69551
 5.8000e+000 69730 -6.6350e+001 -3.5379e+002 -3.3932e+001 68988 69473,69551,69525
 5.8000e+000 69707 -1.0711e+002 -2.3576e+002  5.5762e-001 68988 69473,69525,69499
 5.8000e+000 69992 -1.2392e+002 -2.1710e+002 -3.2218e+001 68676 69914,69966,69940
 5.8000e+000 70392 -9.4652e+001 -1.8437e+002  1.5935e+001 68478 70118,70248,70144
 5.8000e+000 70369 -7.7973e+000 -1.9356e+002  3.9790e+001 68478 70118,70274,70248
 5.8000e+000 70346 -5.5750e+001 -1.3731e+002  4.1844e-001 68478 70144,70222,70196
 5.8000e+000 70323 -4.6469e+001 -1.1293e+002 -6.0066e+000 68478 70144,70248,70222
 5.8000e+000 70300 -5.9152e+001 -1.4899e+002 -1.3650e+000 68478 70144,70196,70170
 5.8000e+000 70841  2.5438e+001 -1.2719e+002 -3.3733e+001 68280 70570,70622,70596
 5.8000e+000 70818 -6.6619e+001 -1.4347e+002 -7.8857e+000 68280 70544,70622,70570
 5.8000e+000 70795 -5.0721e+001 -1.0793e+002 -4.5960e+000 68280 70544,70674,70622
 5.8000e+000 70772 -4.4489e+001 -9.6552e+001  1.8871e+000 68280 70622,70674,70648
 5.8000e+000 70749 -7.0019e+001 -1.6068e+002  1.1829e+001 68280 70518,70674,70544
 5.8000e+000 70726  4.4487e+001 -1.7055e+002  4.5220e+001 68280 70518,70700,70674
 5.8000e+000 70991 -7.7311e+000 -6.6923e+002  2.0449e+001 67968 70864,70916,70890
 5.8000e+000 70968 -1.7929e+002 -6.6464e+002  7.8857e+001 67968 70864,70942,70916
 5.8000e+000 71141 -3.0273e+002 -5.8066e+002 -2.6719e+001 67770 71040,71092,71066
 5.8000e+000 71118 -2.6400e+002 -6.9794e+002  3.1007e+001 67770 71014,71092,71040
 5.8000e+000 71651 -4.6864e+001 -1.3205e+002 -2.0601e+001 67366 71746,71674,71458
 5.8000e+000 71628 -3.1102e+001 -1.0396e+002 -2.4018e+001 67366 71674,71354,71510
 5.8000e+000 71605 -4.3587e+001 -1.4717e+002 -1.8697e+001 67366 71746,71458,71432
 5.8000e+000 71582 -6.8014e+001 -1.4949e+002  8.5971e+000 67366 71354,71432,71380
 5.8000e+000 71559 -6.9097e+001 -1.1097e+002 -9.9329e+000 67366 71380,71432,71406
 5.8000e+000 71536 -3.4192e+001 -4.3942e+001 -3.0923e+000 67366 71328,71510,71354
 5.8000e+000 71700 -5.0491e+001 -1.1847e+002 -9.6909e+000 67366 71484,71458,71674
 5.8000e+000 71723 -3.7650e+001 -1.1269e+002 -8.3611e+000 67366 71484,71674,71510
 5.8000e+000 71772 -4.3022e+001 -1.1410e+002 -1.8289e+001 67366 71354,71674,71746
 5.8000e+000 71795 -3.8310e+001 -1.2686e+002 -1.8408e+001 67366 71354,71746,71432
 5.8000e+000 71896 -1.0783e+002 -2.3350e+002  0.0000e+000 67146 71818,71870,71844
 5.8000e+000 71997 -1.2177e+002 -2.1435e+002  4.3422e+001 66948 71919,71971,71945
 5.8000e+000 72149 -2.1018e+001 -1.4728e+002 -1.7427e+001 66700 72172,72074,72048
 5.8000e+000 72126 -6.1591e+001 -1.6681e+002 -6.9646e+000 66700 72172,72048,72022
 5.8000e+000 72198 -9.0946e+001 -1.8077e+002  1.0686e+001 66700 72244,72172,72100
 5.8000e+000 72221 -7.9143e+001 -1.6508e+002 -9.0654e+000 66700 72100,72172,72022
 5.8000e+000 72270 -5.4262e+001 -9.9828e+001 -1.1790e+001 66700 72074,72172,72244
 5.8000e+000 72623 -6.5724e+001 -1.5880e+002  3.4235e+000 66502 72424,72502,72450
 5.8000e+000 72600 -5.6725e+001 -1.3542e+002  2.9150e+000 66502 72398,72502,72424
 5.8000e+000 72577 -4.7082e+001 -1.5293e+002 -2.4597e+000 66502 72398,72528,72502
 5.8000e+000 72554 -6.8570e+001 -1.4361e+002 -7.2909e-001 66502 72450,72502,72476
 5.8000e+000 72920 -9.8614e+001 -1.9967e+002  4.7697e+000 65941 72672,72776,72750
 5.8000e+000 72897 -9.4824e+001 -1.7154e+002  1.8799e+001 65941 72646,72776,72672
 5.8000e+000 72874 -8.7259e+001 -1.9692e+002  6.8963e+000 65941 72672,72750,72724
 5.8000e+000 72851 -8.8382e+001 -1.5952e+002  1.4378e+001 65941 72672,72724,72698
 5.8000e+000 72828 -7.2475e+001 -1.6735e+002  1.6028e+001 65941 72646,72802,72776
 5.8000e+000 73241 -3.6565e+001 -1.4113e+002  6.3574e+000 65743 73264,73071,73045
 5.8000e+000 73218 -6.6584e+001 -1.5850e+002  1.4289e+001 65743 73480,73264,73045
 5.8000e+000 73195 -5.3074e+001 -1.3972e+002 -1.4807e+000 65743 73336,72967,73097
 5.8000e+000 73172 -8.3852e+001 -1.2918e+002 -1.1637e+001 65743 73408,72993,72967
 5.8000e+000 73149 -4.9370e+001 -1.4114e+002 -2.1148e+000 65743 72967,73123,73097
 5.8000e+000 73290 -4.4948e+001 -1.4460e+002  1.9374e+000 65743 73097,73071,73264
 5.8000e+000 73313 -4.8191e+001 -1.3501e+002  4.0513e+000 65743 73336,73097,73264
 5.8000e+000 73362 -7.2907e+001 -1.4368e+002 -7.2848e+000 65743 73408,72967,73336
 5.8000e+000 73385 -4.1132e+001 -1.3264e+002  7.5804e-001 65743 73019,73336,73264
 5.8000e+000 73434 -6.5404e+001 -9.9479e+001  6.9777e+000 65743 73019,72993,73408
 5.8000e+000 73457 -4.2046e+001 -1.2035e+002  5.7183e+000 65743 73019,73408,73336
 5.8000e+000 73506 -3.2630e+001 -9.8625e+001  7.2101e-001 65743 73019,73264,73480
 5.8000e+000 73989 -1.1052e+001 -1.1620e+002  1.3511e+001 65453 73793,73845,73819
 5.8000e+000 73966 -6.4523e+001 -1.3029e+002  1.5582e+001 65453 73741,73845,73793
 5.8000e+000 73943 -2.1564e+001 -1.0683e+002  6.5556e+000 65453 73715,73845,73741
 5.8000e+000 73920 -5.1878e+001 -1.4180e+002  2.6623e+001 65453 73741,73793,73767
 5.8000e+000 73897 -5.3212e-001 -6.4825e+001 -4.9078e-001 65453 73715,73871,73845
 5.8000e+000 74357 -3.4680e+001 -1.3185e+002 -3.8302e+001 65141 74380,74138,74086
 5.8000e+000 74334 -6.3317e+001 -1.7946e+002 -2.5714e+001 65141 74380,74086,74060
 5.8000e+000 74311 -6.8993e+001 -1.7464e+002 -7.8177e+000 65141 74138,74190,74164
 5.8000e+000 74288 -5.9107e+001 -1.9482e+002 -8.3165e+000 65141 74060,74216,74190
 5.8000e+000 74265 -6.1633e+001 -2.0380e+002  2.7820e+000 65141 74034,74216,74060
 5.8000e+000 74242 -3.8889e+001 -8.5788e+001 -1.7191e+001 65141 74086,74138,74112
 5.8000e+000 74406 -5.2441e+001 -1.7400e+002 -1.5389e+001 65141 74190,74138,74380
 5.8000e+000 74429 -6.1277e+001 -1.9046e+002 -7.2042e+000 65141 74190,74380,74060
 5.8000e+000 74937 -7.4883e+001 -1.4688e+002 -3.3640e+001 64737 74614,74666,74640
 5.8000e+000 74914 -9.3215e+001 -1.7519e+002 -2.4549e+001 64737 74614,74796,74666
 5.8000e+000 74891 -6.5653e+001 -1.1776e+002 -2.2313e+000 64737 74960,74718,74666
 5.8000e+000 74868 -6.1343e+001 -1.3100e+002 -1.4024e+001 64737 74960,74666,74770
 5.8000e+000 74845 -6.4932e+001 -1.1237e+002 -1.5819e+001 64737 74666,74796,74770
 5.8000e+000 74822 -6.3533e+001 -1.2863e+002  4.6119e+000 64737 74666,74718,74692
 5.8000e+000 74986 -6.8145e+001 -1.3126e+002 -5.4032e+000 64737 74744,74718,74960
 5.8000e+000 75009 -6.9512e+001 -1.5186e+002 -1.8079e+001 64737 74744,74960,74770
 5.8000e+000 75306 -3.6556e+001 -1.2629e+002  2.0639e+001 64133 75329,75110,75084
 5.8000e+000 75283 -4.7831e+001 -1.5217e+002  5.9786e+000 64133 75401,75329,75084
 5.8000e+000 75260 -4.6688e+001 -1.5658e+002  7.2375e+000 64133 75401,75084,75058
 5.8000e+000 75237 -4.6539e+001 -1.8398e+002  2.5299e+001 64133 75473,75136,75110
 5.8000e+000 75214 -4.4765e+001 -1.4166e+002  2.0446e+000 64133 75032,75188,75162
 5.8000e+000 75355 -5.4889e+001 -1.6946e+002  1.9311e+001 64133 75473,75110,75329
 5.8000e+000 75378 -4.0564e+001 -1.4549e+002  2.3489e+000 64133 75162,75329,75032
 5.8000e+000 75427 -3.8506e+001 -1.4030e+002  1.2337e+000 64133 75032,75329,75401
 5.8000e+000 75450 -7.3756e+001 -1.7388e+002  1.9174e+001 64133 75545,75401,75058
 5.8000e+000 75499 -3.9058e+001 -1.6593e+002  8.7621e+000 64133 75162,75136,75473
 5.8000e+000 75522 -4.6778e+001 -1.4222e+002  6.9769e+000 64133 75162,75473,75329
 5.8000e+000 75571 -3.8125e+001 -9.6298e+001  4.9111e+000 64133 75032,75401,75545
 5.8000e+000 75851 -6.3139e+001 -1.3913e+002  3.5388e+000 63843 75874,75753,75727
 5.8000e+000 75828 -5.4974e+001 -1.3393e+002 -5.4671e+000 63843 75946,75874,75727
 5.8000e+000 75805 -6.1431e+001 -1.4031e+002 -2.6512e+000 63843 76018,75946,75727
 5.8000e+000 75900 -5.2779e+001 -1.3481e+002 -5.9761e+000 63843 75779,75753,75874
 5.8000e+000 75923 -5.2936e+001 -1.1423e+002 -1.5445e+001 63843 75779,75874,75675
 5.8000e+000 75972 -6.1455e+001 -1.3036e+002 -5.1290e+000 63843 75675,75874,75946
 5.8000e+000 75995 -5.7728e+001 -1.3269e+002 -7.9491e+000 63843 75675,75946,75701
 5.8000e+000 76044 -6.1691e+001 -1.3594e+002 -9.5354e+000 63843 75701,75946,76018
 5.8000e+000 76454  7.7419e+000 -2.2931e+001 -1.3433e+001 63439 76477,76255,76229
 5.8000e+000 76431 -1.3730e+001 -5.8418e+001  1.2194e+000 63439 76477,76229,76359
 5.8000e+000 76408 -1.8636e+001 -4.5264e+001  2.7645e+001 63439 76307,76359,76333
 5.8000e+000 76385 -1.0930e+001 -6.4271e+001  2.4145e+000 63439 76255,76307,76281
 5.8000e+000 76503 -1.5458e+001 -5.1135e+001  7.5355e+000 63439 76307,76255,76477
 5.8000e+000 76526 -1.4078e+001 -6.4723e+001  1.8233e+001 63439 76307,76477,76359
 5.8000e+000 76926 -3.2684e+001 -9.2044e+001 -1.7322e-001 63049 76704,76782,76756
 5.8000e+000 76903 -4.2517e+001 -9.3929e+001 -9.1911e+000 63049 76704,76808,76782
 5.8000e+000 76880 -3.0635e+001 -1.0302e+002  1.6556e+000 63049 76704,76756,76730
 5.8000e+000 76857 -2.5208e+001 -5.8091e+001  4.7830e+000 63049 76678,76808,76704
 5.8000e+000 76834 -1.0571e+001 -1.1705e+001 -1.3068e+001 63049 76652,76808,76678
 5.8000e+000 77076 -1.6067e+001 -1.6513e+002 -1.3239e+000 62737 76975,77027,77001
 5.8000e+000 77053 -1.2986e+001 -1.8344e+002 -1.1178e+001 62737 76949,77027,76975
 5.8000e+000 77324 -6.7662e+001 -1.5973e+002 -1.7352e+000 62277 77347,77177,77125
 5.8000e+000 77301 -6.8395e+001 -1.5552e+002 -8.8373e+000 62277 77347,77125,77229
 5.8000e+000 77278 -6.6517e+001 -1.6232e+002 -1.3100e+001 62277 77099,77229,77125
 5.8000e+000 77255 -7.2190e+001 -1.8847e+002  1.9488e+000 62277 77125,77177,77151
 5.8000e+000 77373 -7.1658e+001 -1.7259e+002  2.0239e+000 62277 77203,77177,77347
 5.8000e+000 77396 -6.5876e+001 -1.6163e+002 -6.0866e+000 62277 77203,77347,77229
 5.8000e+000 77857 -3.8987e+001 -2.0463e+002  2.4204e+000 61758 77635,77739,77661
 5.8000e+000 77834 -5.5351e+001 -1.9949e+002 -6.5466e+000 61758 77583,77739,77635
 5.8000e+000 77811 -6.2822e+001 -2.4914e+002 -2.3754e+001 61758 77583,77635,77609
 5.8000e+000 77788 -5.1900e+001 -1.9785e+002  1.4796e+001 61758 77661,77713,77687
 5.8000e+000 77765 -5.4975e+001 -2.2348e+002  1.4174e+001 61758 77661,77739,77713
 5.8000e+000 78491 -5.9410e+001 -1.0924e+002  5.6500e+000 61418 78171,78301,78249
 5.8000e+000 78468 -4.5172e+001 -8.8082e+001  1.4179e+001 61418 78145,78301,78171
 5.8000e+000 78445 -4.3297e+001 -9.6830e+001 -4.0257e+000 61418 78171,78249,78223
 5.8000e+000 78422 -4.2888e+001 -8.6791e+001  5.8799e+000 61418 78145,78327,78301
 5.8000e+000 78399 -6.2557e+001 -1.2738e+002 -3.5566e+000 61418 78249,78301,78275
 5.8000e+000 78376 -2.5870e+001 -1.0615e+002 -6.7669e+000 61418 78171,78223,78197
 5.8000e+000 78353 -5.1291e+001 -1.1568e+002 -1.8966e+000 61418 78119,78327,78145
 5.8000e+000 78690 -5.0476e+001 -1.2072e+002  1.1510e+000 61014 78713,78566,78540
 5.8000e+000 78667 -3.7480e+001 -1.2439e+002  3.0066e+000 61014 78713,78540,78618
 5.8000e+000 78644 -5.7872e+001 -1.4055e+002 -1.2965e+001 61014 78514,78618,78540
 5.8000e+000 78739 -2.8959e+001 -1.1750e+002  1.2978e+001 61014 78592,78566,78713
 5.8000e+000 78762 -3.9685e+001 -1.2988e+002  2.0124e+000 61014 78785,78713,78618
 5.8000e+000 78811 -1.1889e+001 -1.1906e+002 -1.0699e+000 61014 78592,78713,78785
 5.8000e+000 79398 -2.3492e+001 -1.1178e+002 -1.0209e+001 60624 79101,79179,79153
 5.8000e+000 79375 -3.1127e+001 -1.2240e+002 -5.6866e+000 60624 79101,79231,79179
 5.8000e+000 79352 -2.3849e+001 -1.2087e+002 -7.5412e+000 60624 79075,79231,79101
 5.8000e+000 79329 -8.4758e+000 -1.4234e+002  1.4192e+001 60624 79075,79257,79231
 5.8000e+000 79306 -2.4040e+001 -9.6314e+001 -1.7261e+001 60624 79179,79231,79205
 5.8000e+000 79283 -1.8542e+001 -1.0063e+002 -7.0359e+000 60624 79101,79153,79127
 5.8000e+000 79776 -6.6904e+001 -1.6942e+002  1.2353e+001 60070 79528,79658,79606
 5.8000e+000 79753 -6.2539e+001 -1.4146e+002 -8.3747e-001 60070 79502,79658,79528
 5.8000e+000 79730 -8.1909e+001 -1.6185e+002  2.0732e+001 60070 79528,79606,79580
 5.8000e+000 79707 -3.0810e+001 -1.5220e+002  2.9003e+000 60070 79606,79658,79632
 5.8000e+000 79684 -7.3815e+000 -1.0039e+002 -2.4677e+001 60070 79528,79580,79554
 5.8000e+000 80105 -5.0510e+001 -1.3338e+002  1.5046e+001 59758 80128,79958,79906
 5.8000e+000 80082 -5.0211e+001 -1.2661e+002  1.1637e+001 59758 80128,79906,80010
 5.8000e+000 80059 -6.9325e+001 -1.4063e+002  4.3221e+001 59758 79906,79958,79932
 5.8000e+000 80036 -7.2686e+001 -1.4174e+002  5.0875e+000 59758 79880,80010,79906
 5.8000e+000 80154 -5.0344e+001 -1.3781e+002  1.6096e+001 59758 79984,79958,80128
 5.8000e+000 80177 -5.1561e+001 -1.3282e+002  1.2896e+001 59758 79984,80128,80010
 5.8000e+000 80376 -3.5986e+001 -1.1467e+002  2.1451e+000 59312 80226,80304,80252
 5.8000e+000 80353 -3.4791e+001 -1.1865e+002  2.2688e+000 59312 80200,80304,80226
 5.8000e+000 80330 -5.4637e+001 -1.0519e+002  3.0927e+001 59312 80252,80304,80278
 5.8000e+000 80805 -4.8695e+001 -1.0990e+002 -1.7939e+001 58908 80900,80828,80638
 5.8000e+000 80782 -3.7844e+001 -1.2998e+002 -2.6454e+001 58908 80828,80560,80508
 5.8000e+000 80759 -5.1314e+001 -1.0297e+002 -6.5239e+000 58908 80900,80638,80612
 5.8000e+000 80736 -2.1463e+001 -1.1345e+002  4.5631e+001 58908 80482,80664,80508
 5.8000e+000 80713 -3.4872e+001 -9.5963e+001 -3.2336e+000 58908 80560,80612,80586
 5.8000e+000 80690 -4.5878e+001 -3.3955e+002 -6.3567e+001 58908 80508,80560,80534
 5.8000e+000 80854 -2.3280e+001 -1.1844e+002 -7.6192e-001 58908 80664,80638,80828
 5.8000e+000 80877 -3.8741e+001 -1.7275e+002  3.0773e+000 58908 80664,80828,80508
 5.8000e+000 80926 -4.0930e+001 -8.9243e+001 -1.9628e+001 58908 80560,80828,80900
 5.8000e+000 80949 -4.6570e+001 -8.9293e+001 -6.5917e+000 58908 80560,80900,80612
 5.8000e+000 81246 -2.2837e+001 -1.0774e+002 -2.9540e+000 58482 81076,81128,81102
 5.8000e+000 81223 -5.1935e+001 -1.8280e+002 -1.8088e+001 58482 80972,81128,81076
 5.8000e+000 81200 -3.2845e+001 -1.2511e+002 -2.0636e+001 58482 80972,81076,81050
 5.8000e+000 81177 -7.1657e+001 -1.8593e+002 -7.0006e+000 58482 80998,81050,81024
 5.8000e+000 81154 -3.9924e+001 -1.5279e+002 -2.0259e+001 58482 80972,81050,80998
 5.8000e+000 81754 -5.3968e+001 -1.0824e+002  7.2225e+000 57828 81457,81613,81483
 5.8000e+000 81731 -6.2010e+001 -1.2397e+002  2.9438e+000 57828 81431,81613,81457
 5.8000e+000 81708 -5.8686e+001 -1.1926e+002  7.6025e+000 57828 81483,81613,81509
 5.8000e+000 81685 -7.0523e+001 -1.3484e+002  1.2756e+001 57828 81509,81613,81587
 5.8000e+000 81662 -7.5437e+001 -1.9961e+002  2.6411e+001 57828 81509,81587,81535
 5.8000e+000 81639 -4.3662e+001 -1.8346e+002  1.5147e+001 57828 81535,81587,81561
 5.8000e+000 82002 -7.9775e+001 -1.9441e+002  1.2204e-001 57374 82025,81855,81829
 5.8000e+000 81979 -8.4610e+001 -1.8161e+002  1.0521e+001 57374 82025,81829,81907
 5.8000e+000 81956 -8.8219e+001 -1.6792e+002  6.5130e+000 57374 81803,81907,81829
 5.8000e+000 81933 -4.9213e+001 -1.5100e+002  1.0762e+001 57374 81777,81907,81803
 5.8000e+000 82051 -7.9372e+001 -1.7929e+002 -6.8921e-001 57374 81881,81855,82025
 5.8000e+000 82074 -8.1205e+001 -1.6771e+002  1.3320e+001 57374 81881,82025,81907
 5.8000e+000 82356 -4.8319e+001 -1.1464e+002 -6.1371e+000 56913 82180,82232,82206
 5.8000e+000 82333 -4.3362e+001 -1.1102e+002  8.7342e+000 56913 82180,82284,82232
 5.8000e+000 82310 -1.3193e+001 -8.1860e+001  2.0875e+001 56913 82379,82232,82284
 5.8000e+000 82405  1.3492e+001 -8.0313e+001  1.2914e+000 56913 82258,82232,82379
 5.8000e+000 82764 -4.9727e+001 -7.4933e+001 -7.7298e+000 56523 82614,82666,82640
 5.8000e+000 82741 -4.2970e+001 -7.4857e+001 -1.1256e+001 56523 82614,82692,82666
 5.8000e+000 82718 -3.5436e+001 -8.0235e+001 -2.3946e+001 56523 82588,82692,82614
 5.8000e+000 83368 -6.9941e+000 -1.2351e+002 -5.0716e+000 55969 82973,83155,83129
 5.8000e+000 83345  2.5118e+000 -1.2029e+002 -9.5823e+000 55969 82973,83181,83155
 5.8000e+000 83322 -3.2053e+001 -1.0895e+002 -3.6154e+000 55969 82973,83129,82999
 5.8000e+000 83299 -5.1678e+001 -1.1073e+002  1.8135e+000 55969 83391,83025,82999
 5.8000e+000 83276 -4.4569e+001 -1.1521e+002 -6.4373e-001 55969 83391,82999,83129
 5.8000e+000 83253 -6.3953e+000 -9.5785e+001  2.2112e+001 55969 83077,83129,83103
 5.8000e+000 83230 -5.4565e+001 -9.0212e+001 -4.5135e+000 55969 83025,83077,83051
 5.8000e+000 83207 -9.2240e-001 -1.1619e+002  1.0380e+001 55969 82947,83181,82973
 5.8000e+000 83417 -4.5016e+001 -1.0629e+002  4.5518e+000 55969 83077,83025,83391
 5.8000e+000 83440 -4.2678e+001 -1.1253e+002  8.7684e-001 55969 83077,83391,83129
 5.8000e+000 83946 -9.5051e+001 -2.0451e+002  3.3334e+001 55771 83969,83779,83727
 5.8000e+000 83923 -7.5205e+001 -1.6369e+002  2.1899e+001 55771 83969,83727,83623
 5.8000e+000 83900 -8.6550e+001 -7.9801e+001  1.1596e+001 55771 83623,83727,83649
 5.8000e+000 83877 -7.3725e+001 -3.5106e+002  1.6599e+001 55771 83727,83779,83753
 5.8000e+000 83854 -1.1275e+002 -1.6037e+002  3.6102e+001 55771 83675,83727,83701
 5.8000e+000 83831 -1.3223e+002 -1.2860e+002  5.3100e+001 55771 83649,83727,83675
 5.8000e+000 83995 -9.0562e+001 -2.1336e+002 -1.7712e+001 55771 83805,83779,83969
 5.8000e+000 84018 -4.9129e+001 -1.3193e+002 -3.3492e+001 55771 83805,83969,83623
 5.8000e+000 84168 -3.9039e+001 -1.0042e+002 -3.2449e+000 55367 84191,84067,84041
 5.8000e+000 84145 -3.9419e+001 -1.1072e+002 -2.0845e+000 55367 84191,84041,84119
 5.8000e+000 84217 -4.2114e+001 -9.3465e+001 -3.2238e+000 55367 84093,84067,84191
 5.8000e+000 84240 -4.0333e+001 -1.0020e+002  7.9843e-001 55367 84093,84191,84119
 5.8000e+000 84571 -2.4320e+001 -1.4720e+002 -1.5356e+001 54913 84398,84450,84424
 5.8000e+000 84548 -2.0959e+001 -1.3489e+002 -8.0068e+000 54913 84372,84450,84398
 5.8000e+000 84525 -3.7646e+001 -1.5110e+002  5.5589e+000 54913 84346,84450,84372
 5.8000e+000 84502 -1.6002e+001 -1.0125e+002 -1.4120e+001 54913 84346,84476,84450
 5.8000e+000 85126 -7.8722e+001 -1.7058e+002 -9.3631e+000 54402 84858,84936,84910
 5.8000e+000 85103 -6.0180e+001 -1.2980e+002 -1.4909e+001 54402 84806,84936,84858
 5.8000e+000 85080 -7.3012e+001 -1.2059e+002 -1.2335e+001 54402 84780,84936,84806
 5.8000e+000 85057 -5.9215e+001 -1.4574e+002 -5.0295e+000 54402 84806,84858,84832
 5.8000e+000 85034 -6.8121e+001 -1.1452e+002  5.9857e+000 54402 84780,84962,84936
 5.8000e+000 85011 -9.0458e+001 -1.0174e+002 -4.9430e+000 54402 84858,84910,84884
 5.8000e+000 84988 -6.6324e+001 -1.1515e+002  8.0136e+000 54402 84754,84962,84780
 5.8000e+000 85396 -6.3951e+001 -7.7468e+001 -5.3581e+000 53998 85197,85249,85223
 5.8000e+000 85373 -5.0060e+001 -9.7456e+001 -1.3389e+000 53998 85197,85275,85249
 5.8000e+000 85350 -6.2713e+001 -1.1283e+002 -6.8609e+000 53998 85171,85275,85197
 5.8000e+000 85327 -3.0218e+001 -1.0397e+002 -9.0761e+000 53998 85171,85301,85275
 5.8000e+000 85749 -3.3754e+001 -1.1183e+002 -3.0672e+000 53636 85524,85628,85550
 5.8000e+000 85726 -5.2399e+001 -1.2936e+002  4.2197e+000 53636 85524,85654,85628
 5.8000e+000 85703 -1.8718e+001 -1.1788e+002 -1.1842e+001 53636 85550,85602,85576
 5.8000e+000 85680 -3.1011e+001 -1.0992e+002 -6.0358e+000 53636 85550,85628,85602
 5.8000e+000 86127 -1.2546e+001 -1.1750e+002  1.9807e+001 52982 86150,85957,85879
 5.8000e+000 86104 -4.1513e+001 -1.3623e+002  1.1683e+001 52982 86150,85879,85853
 5.8000e+000 86081 -1.0497e+001 -1.7199e+002  3.4740e+001 52982 85957,86009,85983
 5.8000e+000 86058 -5.0514e+001 -1.2562e+002  1.5518e+001 52982 85879,85957,85931
 5.8000e+000 86035 -3.2606e+001 -1.1970e+002 -4.5838e+000 52982 85879,85931,85905
 5.8000e+000 86176  5.4639e+000 -1.3895e+002  1.6019e+001 52982 86009,85957,86150
 5.8000e+000 86199 -1.1679e+001 -1.5046e+002  1.0272e+001 52982 86009,86150,85853
 5.8000e+000 86398 -3.4161e+001 -1.0217e+002  7.6715e+000 52542 86421,86248,86222
 5.8000e+000 86375 -5.2651e+001 -1.0524e+002 -9.6387e-001 52542 86421,86222,86300
 5.8000e+000 86352 -5.2175e+001 -1.1088e+002 -4.1562e+000 52542 86222,86326,86300
 5.8000e+000 86447 -1.4654e+001 -1.0318e+002  1.6113e+001 52542 86274,86248,86421
 5.8000e+000 86470 -3.2741e+001 -1.0983e+002  5.1582e+000 52542 86274,86421,86300
 5.8000e+000 86669 -4.6845e+001 -1.0346e+002 -2.0931e+001 52230 86692,86571,86545
 5.8000e+000 86646 -4.6266e+001 -9.9677e+001 -1.1687e+001 52230 86692,86545,86519
 5.8000e+000 86623 -6.5238e+001 -1.0315e+002 -1.4583e+001 52230 86493,86597,86519
 5.8000e+000 86718 -5.1812e+001 -1.0569e+002 -2.1518e+001 52230 86597,86571,86692
 5.8000e+000 86741 -5.7557e+001 -1.0465e+002 -1.2614e+001 52230 86597,86692,86519
 5.8000e+000 87153 -6.5845e+001 -9.7712e+001  4.5113e+000 51640 86980,87058,87032
 5.8000e+000 87130 -6.2598e+001 -1.0020e+002  3.5857e+000 51640 86928,87058,86980
 5.8000e+000 87107 -6.5930e+001 -1.3270e+002 -5.1493e+000 51640 86928,86980,86954
 5.8000e+000 87084 -3.3460e+001 -8.3972e+001 -9.5124e-001 51640 86980,87032,87006
 5.8000e+000 87659 -3.1265e+001 -9.1152e+001  2.6987e+000 51029 87682,87440,87362
 5.8000e+000 87636 -2.7593e+001 -9.6651e+001 -9.5016e+000 51029 87682,87362,87336
 5.8000e+000 87613 -4.6186e+001 -1.3732e+002 -4.1340e+000 51029 87440,87518,87466
 5.8000e+000 87590 -4.6756e+001 -9.0218e+001  3.3697e+000 51029 87362,87440,87414
 5.8000e+000 87567 -3.7478e+001 -6.5791e+001  1.6541e+001 51029 87362,87414,87388
 5.8000e+000 87544 -5.9835e+001 -1.2748e+002  1.8048e+000 51029 87466,87518,87492
 5.8000e+000 87708 -3.0595e+001 -1.0209e+002 -7.0454e-001 51029 87518,87440,87682
 5.8000e+000 87731 -2.9701e+001 -1.1800e+002 -8.3746e+000 51029 87518,87682,87336
 5.8000e+000 87881 -6.2933e+001 -1.3610e+002  1.7227e+000 50739 87780,87832,87806
 5.8000e+000 87858 -6.8610e+001 -1.3238e+002 -6.1817e+000 50739 87754,87832,87780
 5.8000e+000 88468 -4.4844e+001 -8.5531e+001  5.9272e+000 50235 88171,88327,88197
 5.8000e+000 88445 -8.8726e+001 -8.9350e+001 -1.0995e+001 50235 88145,88327,88171
 5.8000e+000 88422  6.4781e-002 -3.8528e+001 -2.6788e-001 50235 88275,88327,88301
 5.8000e+000 88399 -2.7312e+001 -5.0256e+001 -8.7968e-001 50235 88197,88327,88275
 5.8000e+000 88376 -1.1504e+001 -7.7205e+001 -1.0588e+000 50235 88197,88275,88223
 5.8000e+000 88353 -1.5088e+001 -1.0507e+002 -8.2985e+000 50235 88223,88275,88249
 5.8000e+000 88895 -5.7744e+001 -1.3789e+002  3.3294e+000 49873 88918,88728,88676
 5.8000e+000 88872 -5.0020e+001 -1.2992e+002 -2.0046e+000 49873 88918,88676,88624
 5.8000e+000 88849 -4.0029e+001 -1.1405e+002 -4.2944e+000 49873 88598,88754,88624
 5.8000e+000 88826 -3.1544e+001 -1.2178e+002 -3.6871e+000 49873 88624,88676,88650
 5.8000e+000 88803 -4.5416e+001 -1.6969e+002  5.7290e+000 49873 88676,88728,88702
 5.8000e+000 88780 -4.8763e+001 -1.1878e+002 -6.1853e+000 49873 88572,88754,88598
 5.8000e+000 88944 -4.8282e+001 -1.3668e+002 -1.7218e+000 49873 88754,88728,88918
 5.8000e+000 88967 -4.5376e+001 -1.3406e+002 -6.2341e+000 49873 88754,88918,88624
 5.8000e+000 89473 -8.3607e+001 -1.3121e+002 -1.5934e+001 49583 89176,89306,89202
 5.8000e+000 89450 -8.2843e+001 -1.2990e+002 -1.8326e+001 49583 89176,89332,89306
 5.8000e+000 89427 -4.9506e+001 -1.4157e+002  6.0365e+000 49583 89496,89228,89202
 5.8000e+000 89404 -4.9779e+001 -1.4475e+002  7.2972e+000 49583 89496,89202,89280
 5.8000e+000 89381 -1.0332e+002 -1.8101e+002 -3.1398e+001 49583 89202,89306,89280
 5.8000e+000 89358 -6.3085e+001 -1.3067e+002 -2.1596e+001 49583 89150,89332,89176
 5.8000e+000 89522 -4.6894e+001 -1.2037e+002  3.3054e+000 49583 89254,89228,89496
 5.8000e+000 89545 -5.6865e+001 -1.3854e+002  7.1637e+000 49583 89254,89496,89280
 5.8000e+000 89825  8.5945e+000 -1.3180e+002  4.4127e+000 49179 89701,89753,89727
 5.8000e+000 89802 -1.9842e+001 -1.1696e+002  5.9973e+000 49179 89675,89753,89701
 5.8000e+000 89779 -1.5030e+001 -1.0553e+002  6.0138e+000 49179 89848,89753,89675
 5.8000e+000 89874 -7.6542e+001 -1.2717e+002 -1.1142e+001 49179 89649,89753,89848
 5.8000e+000 90223 -4.1054e+001 -1.2268e+002 -1.5490e+001 48739 90024,90102,90076
 5.8000e+000 90200 -3.9593e+001 -1.1474e+002 -5.6070e+000 48739 90024,90128,90102
 5.8000e+000 90177  7.4623e-001 -1.2081e+002 -1.5555e+001 48739 90024,90076,90050
 5.8000e+000 90154 -1.3964e+001 -1.0973e+002  8.0738e+000 48739 89998,90128,90024
 5.8000e+000 90603 -3.5924e+001 -9.5659e+001  2.1922e+001 48335 90381,90485,90459
 5.8000e+000 90580 -4.9024e+001 -1.1568e+002  1.6021e+001 48335 90355,90485,90381
 5.8000e+000 90557 -1.9037e+001 -3.7378e+001  1.1377e+001 48335 90381,90433,90407
 5.8000e+000 90534 -3.6085e+001 -1.0042e+002  1.6355e+001 48335 90381,90459,90433
 5.8000e+000 90511  1.6105e+001 -7.9219e+001  3.1787e+001 48335 90329,90485,90355
 5.8000e+000 90753 -3.0364e-001 -6.2705e+001  3.9212e+001 47824 90776,90652,90704
 5.8000e+000 90730 -3.3325e+001 -1.1150e+002  1.7973e+001 47824 90626,90704,90652
 5.8000e+000 90802 -1.4693e+001 -8.1690e+001  3.1711e+001 47824 90678,90652,90776
 5.8000e+000 91131 -4.3482e+001 -1.4602e+002  6.0191e+000 47427 91154,90958,90906
 5.8000e+000 91108 -7.4329e+001 -1.5905e+002  4.2831e+000 47427 91154,90906,91036
 5.8000e+000 91085 -7.0700e+001 -1.2324e+002 -1.0794e+001 47427 90958,91010,90984
 5.8000e+000 91062 -4.4810e+001 -1.2857e+002  8.8429e+000 47427 90906,90958,90932
 5.8000e+000 91180 -6.0714e+001 -1.4175e+002 -1.4595e+001 47427 91010,90958,91154
 5.8000e+000 91203 -9.0044e+001 -1.5437e+002 -1.6820e+001 47427 91010,91154,91036
 5.8000e+000 91583 -6.7910e+001 -1.2886e+002 -8.4181e+000 46873 91309,91439,91335
 5.8000e+000 91560 -7.2770e+001 -1.3098e+002 -6.6582e+000 46873 91309,91465,91439
 5.8000e+000 91537 -1.0329e+002 -1.4957e+002 -3.9229e+001 46873 91361,91439,91413
 5.8000e+000 91514 -7.6856e+001 -1.3464e+002 -2.0870e+001 46873 91335,91439,91361
 5.8000e+000 91491 -3.4286e+001 -1.2418e+002 -3.3967e+001 46873 91361,91413,91387
 5.8000e+000 91880 -4.7500e+001 -1.4314e+002 -3.5993e+000 46526 91606,91710,91658
 5.8000e+000 91857 -4.8270e+001 -1.4965e+002  8.0315e-001 46526 91606,91762,91710
 5.8000e+000 91834 -3.1787e+001 -1.3791e+002 -1.5098e+001 46526 91606,91658,91632
 5.8000e+000 91811 -5.4388e+001 -1.3236e+002  2.7005e+000 46526 91658,91710,91684
 5.8000e+000 91788 -3.2718e+001 -1.0266e+002  4.6842e+000 46526 91710,91762,91736
 5.8000e+000 92211 -2.2764e+001 -5.5177e+001 -4.5887e+000 45700 91986,92064,92038
 5.8000e+000 92188 -3.1623e+001 -8.2206e+001  6.1310e-001 45700 91986,92116,92064
 5.8000e+000 92165 -1.6894e+001 -4.5215e+001 -9.9685e+000 45700 91986,92038,92012
 5.8000e+000 92142 -2.0765e+001 -9.1568e+001  1.1839e+001 45700 92064,92116,92090
 5.8000e+000 92766 -6.2328e+001 -1.2212e+002  6.7313e+000 45452 92446,92602,92576
 5.8000e+000 92743 -9.8198e+001 -1.1913e+002 -1.4917e+001 45452 92420,92602,92446
 5.8000e+000 92720 -7.4997e+001 -1.2892e+002  2.0624e+001 45452 92789,92524,92498
 5.8000e+000 92697 -8.6693e+001 -1.2583e+002  1.6995e+001 45452 92789,92498,92446
 5.8000e+000 92674 -7.2406e+001 -1.3566e+002  3.9757e-001 45452 92524,92576,92550
 5.8000e+000 92651 -1.1449e+002 -1.3082e+002  6.9381e+001 45452 92446,92498,92472
 5.8000e+000 92628 -5.5656e+001 -1.3789e+002 -3.2137e+001 45452 92394,92602,92420
 5.8000e+000 92815 -6.6758e+001 -1.3011e+002  1.7463e+001 45452 92576,92524,92789
 5.8000e+000 92838 -7.6044e+001 -1.2524e+002  1.5358e+001 45452 92576,92789,92446
 5.8000e+000 92939 -5.4055e+001 -1.6766e+002 -3.4787e+001 44998 92861,92913,92887
 5.8000e+000 93319 -1.2553e+001 -1.7166e+002  3.1551e+001 44601 93123,93201,93149
 5.8000e+000 93296 -4.8147e+001 -1.7113e+002 -1.7121e+001 44601 93045,93201,93123
 5.8000e+000 93273 -3.8070e+001 -9.6732e+001 -2.4032e+001 44601 93045,93123,93071
 5.8000e+000 93250 -3.5391e+001 -9.0390e+001 -1.6502e+001 44601 93071,93123,93097
 5.8000e+000 93227 -2.1011e+000 -9.3076e+001  3.2898e+001 44601 93149,93201,93175
 5.8000e+000 93697 -3.5428e+001 -1.8802e+002  9.9936e+000 44026 93720,93553,93527
 5.8000e+000 93674 -6.3435e+001 -1.5906e+002  1.4035e+001 44026 93720,93527,93449
 5.8000e+000 93651 -7.0756e+001 -1.6535e+002 -2.9676e+000 44026 93449,93527,93501
 5.8000e+000 93628 -5.1162e+001 -1.2724e+002 -2.6292e+001 44026 93423,93579,93449
 5.8000e+000 93605 -1.5818e+001 -1.3196e+002  1.1202e+001 44026 93449,93501,93475
 5.8000e+000 93746 -1.5704e+001 -1.6643e+002  1.7817e+000 44026 93579,93553,93720
 5.8000e+000 93769 -4.5215e+001 -1.3791e+002  6.2874e+000 44026 93579,93720,93449
 5.8000e+000 94066 -3.7812e+001 -1.4595e+002 -1.9830e+001 43579 94089,93818,93792
 5.8000e+000 94043 -6.0010e+001 -1.6362e+002 -1.2185e+001 43579 94161,94089,93792
 5.8000e+000 94020 -5.9155e+001 -1.6466e+002 -4.7974e+000 43579 94161,93792,93948
 5.8000e+000 93997 -6.2981e+001 -1.2736e+002 -5.9578e+000 43579 94233,93870,93818
 5.8000e+000 93974 -3.6520e+001 -1.3184e+002  4.4261e+000 43579 93818,93870,93844
 5.8000e+000 94115 -6.1753e+001 -1.2849e+002 -1.3830e+001 43579 94233,93818,94089
 5.8000e+000 94138 -8.0547e+001 -1.4549e+002 -9.2574e+000 43579 93896,94089,93922
 5.8000e+000 94187 -5.5241e+001 -1.5216e+002 -1.2474e+001 43579 93922,94089,94161
 5.8000e+000 94210 -5.4294e+001 -1.5230e+002 -4.3776e+000 43579 93922,94161,93948
 5.8000e+000 94259 -7.1213e+001 -1.4237e+002 -2.7074e+000 43579 93896,93870,94233
 5.8000e+000 94282 -6.7003e+001 -1.4018e+002 -1.1787e+001 43579 93896,94233,94089
 5.8000e+000 94481 -4.9444e+001 -1.5041e+002 -8.9225e-001 43239 94305,94383,94357
 5.8000e+000 94458 -4.2885e+001 -1.3775e+002  1.7063e+001 43239 94305,94409,94383
 5.8000e+000 94435 -3.9141e+001 -1.5857e+002 -3.6119e+000 43239 94305,94357,94331
 5.8000e+000 94633 -1.6492e+001 -9.2438e+001  2.1798e+001 42827 94656,94532,94506
 5.8000e+000 94610 -4.1069e+001 -1.0379e+002  2.4674e+001 42827 94728,94656,94506
 5.8000e+000 94682 -2.2119e+001 -1.0705e+002  1.8162e+001 42827 94558,94532,94656
 5.8000e+000 94705 -7.4835e+000 -1.0497e+002  1.0574e+001 42827 94988,94860,94656
 5.8000e+000 94754 -2.2634e+001 -9.3255e+001  6.7034e+000 42827 94988,94656,94728
 5.8000e+000 94886  4.6362e+000 -9.9124e+001  1.2369e+001 42827 94558,94656,94860
 5.8000e+000 95014  5.2286e+000 -9.4915e+001  6.1724e+000 42827 94584,94860,94988
 5.8000e+000 95037 -7.9875e+000 -8.4250e+001  2.3855e+000 42827 94584,94988,94728
 5.8000e+000 95236 -1.6536e+001 -1.1068e+002  1.5990e+001 42537 95259,95112,95060
 5.8000e+000 95213 -2.3005e+001 -1.0546e+002  1.3822e+001 42537 95259,95060,95164
 5.8000e+000 95190 -6.6408e+000 -1.1340e+002 -1.4128e+000 42537 95060,95112,95086
 5.8000e+000 95285 -2.0892e+001 -1.1291e+002  1.3350e+001 42537 95138,95112,95259
 5.8000e+000 95308 -2.7933e+001 -1.1018e+002  1.0241e+001 42537 95138,95259,95164
 5.8000e+000 95816 -4.9943e+001 -1.4370e+002 -9.1731e+000 41969 95493,95597,95519
 5.8000e+000 95793 -7.4354e+001 -1.3386e+002  1.3420e+001 41969 95493,95649,95597
 5.8000e+000 95770 -5.6283e+001 -1.2566e+002  1.1344e+001 41969 95493,95675,95649
 5.8000e+000 95747 -6.0001e+001 -1.7621e+002  1.1110e+001 41969 95597,95649,95623
 5.8000e+000 95724 -8.2884e+001 -1.3229e+002 -1.5666e+001 41969 95519,95597,95571
 5.8000e+000 95701 -7.3742e+001 -1.1619e+002 -3.1749e+001 41969 95519,95571,95545
 5.8000e+000 96371 -6.3170e+001 -1.5469e+002  1.8554e+001 41579 96025,96207,96181
 5.8000e+000 96348  1.9289e+001 -1.1672e+002 -6.2687e+000 41579 95999,96207,96025
 5.8000e+000 96325 -7.2768e+001 -1.1761e+002 -1.3343e+001 41579 96129,96181,96155
 5.8000e+000 96302 -2.6680e+001 -1.0721e+002  2.6609e-001 41579 96025,96181,96129
 5.8000e+000 96279 -6.0623e+001 -1.6188e+002  2.2187e+001 41579 96025,96129,96051
 5.8000e+000 96256 -6.7374e+001 -1.4613e+002  2.0756e+001 41579 96051,96103,96077
 5.8000e+000 96233 -2.5949e+001 -1.1174e+002  7.7824e-001 41579 96051,96129,96103
 5.8000e+000 96877 -1.7232e+001 -9.8307e+001 -1.1774e+001 41182 96972,96900,96632
 5.8000e+000 96854 -2.1329e+001 -7.2191e+001 -1.1713e+001 41182 96900,96554,96736
 5.8000e+000 96831 -1.6407e+001 -9.8376e+001 -9.7976e+000 41182 96972,96632,96580
 5.8000e+000 96808 -2.0569e+001 -9.1543e+001  1.0499e+001 41182 96632,96684,96658
 5.8000e+000 96785 -3.8843e+001 -1.0400e+002  1.1510e+001 41182 96684,96736,96710
 5.8000e+000 96762 -5.7842e+001 -1.2680e+002  2.1178e+001 41182 96580,96632,96606
 5.8000e+000 96926 -1.5504e+001 -1.0904e+002 -1.1585e+001 41182 96684,96632,96900
 5.8000e+000 96949 -3.0800e+001 -9.6818e+001 -1.9696e+001 41182 96684,96900,96736
 5.8000e+000 96998 -2.0714e+001 -9.9861e+001 -1.2119e+001 41182 96554,96900,96972
 5.8000e+000 97021 -2.0342e+001 -9.9975e+001 -9.9092e+000 41182 96554,96972,96580
 5.8000e+000 97576 -8.4331e+001 -2.1647e+002 -2.9717e+001 40678 97230,97412,97282
 5.8000e+000 97553 -1.0215e+001 -1.8002e+002  9.7904e+000 40678 97204,97412,97230
 5.8000e+000 97530 -2.2252e+001 -1.6309e+002 -2.6994e+001 40678 97282,97360,97308
 5.8000e+000 97507 -3.6958e+001 -1.6637e+002 -9.8653e+000 40678 97282,97412,97360
 5.8000e+000 97484 -9.2168e+000 -9.6614e+001 -2.4087e+001 40678 97308,97360,97334
 5.8000e+000 97461 -4.8228e+001 -2.0163e+002 -5.0843e+000 40678 97360,97412,97386
 5.8000e+000 97438 -4.7853e+001 -1.3980e+002 -1.8772e+001 40678 97230,97282,97256
 5.8000e+000 97976 -7.0435e+001 -1.1706e+002 -2.0638e+000 40244 97702,97832,97754
 5.8000e+000 97953 -5.8642e+001 -1.1281e+002 -5.2445e+000 40244 97702,97858,97832
 5.8000e+000 97930 -7.5605e+001 -1.3724e+002 -2.7659e+001 40244 97702,97754,97728
 5.8000e+000 97907 -5.6871e+001 -1.2516e+002  1.3926e+001 40244 97780,97832,97806
 5.8000e+000 97884 -6.2143e+001 -1.1245e+002  3.0273e-002 40244 97754,97832,97780
 5.8000e+000 98482 -3.4389e+001 -1.0448e+002  1.7636e+001 39690 98505,98185,98159
 5.8000e+000 98459 -3.6664e+001 -1.0073e+002  1.6417e+001 39690 98505,98159,98289
 5.8000e+000 98436 -7.2203e+001 -1.5393e+002  4.3033e+001 39690 98159,98315,98289
 5.8000e+000 98413 -2.4779e+001 -9.2894e+001  1.3899e+001 39690 98211,98289,98263
 5.8000e+000 98390 -1.3158e+001 -5.8234e+001  8.0978e+000 39690 98211,98263,98237
 5.8000e+000 98367 -1.7402e+001 -8.9862e+001  1.3357e+001 39690 98159,98341,98315
 5.8000e+000 98531 -3.3138e+001 -1.0222e+002  1.5764e+001 39690 98211,98185,98505
 5.8000e+000 98554 -3.5219e+001 -9.7209e+001  1.4986e+001 39690 98211,98505,98289
 5.8000e+000 99109 -3.7066e+001 -9.6846e+001 -6.8903e+000 39072 99132,98867,98789
 5.8000e+000 99086 -3.6306e+001 -9.9796e+001 -9.3026e+000 39072 99132,98789,98763
 5.8000e+000 99063 -5.6146e+001 -1.6098e+002  1.6340e+001 39072 98867,98945,98919
 5.8000e+000 99040 -3.2299e+001 -1.0456e+002 -9.5427e-001 39072 98789,98867,98841
 5.8000e+000 99017 -7.3315e+001 -1.1921e+002  4.4996e+000 39072 98867,98919,98893
 5.8000e+000 98994 -5.0595e+001 -9.3803e+001  2.0099e+001 39072 98789,98841,98815
 5.8000e+000 98971 -5.2255e+001 -1.1219e+002 -7.7275e+000 39072 98737,98945,98763
 5.8000e+000 99158 -3.6078e+001 -1.0065e+002 -7.5137e+000 39072 98945,98867,99132
 5.8000e+000 99181 -3.6032e+001 -1.0557e+002 -8.5264e+000 39072 98945,99132,98763
 5.8000e+000 99510 -3.2281e+001 -8.9504e+001  6.1267e+000 38668 99311,99389,99363
 5.8000e+000 99487 -2.7498e+001 -9.3276e+001 -2.3370e+000 38668 99285,99389,99311
 5.8000e+000 99464 -6.0914e+001 -1.2798e+002  1.1901e+001 38668 99285,99415,99389
 5.8000e+000 99441 -2.8103e+001 -9.5956e+001  9.7000e+000 38668 99311,99363,99337
 5.8000e+000 99758 -3.5922e+001 -1.4364e+002  2.4399e+001 38164 99781,99611,99585
 5.8000e+000 99735 -1.4451e+001 -1.4728e+002  2.7023e+001 38164 99781,99585,99533
 5.8000e+000 99712 -5.4359e+001 -1.3581e+002  1.7967e+001 38164 99611,99663,99637
 5.8000e+000 99689  7.6867e+000 -1.4149e+002 -8.5220e+000 38164 99533,99585,99559
 5.8000e+000 99807 -4.8216e+001 -1.4263e+002  3.0353e+001 38164 99663,99611,99781
 5.8000e+000 99830 -3.2028e+001 -1.4894e+002  2.9575e+001 38164 99663,99781,99533
 5.8000e+000 100232 -3.7769e+001 -1.0400e+002  1.3805e+000 37702 99984,100114,100088
 5.8000e+000 100209 -2.9802e+001 -1.0977e+002  1.0627e+001 37702 99958,100114,99984
 5.8000e+000 100186 -5.7055e+001 -1.3158e+002 -8.6532e+000 37702 100010,100088,100036
 5.8000e+000 100163 -3.6879e+001 -1.0377e+002  2.6698e-001 37702 99984,100088,100010
 5.8000e+000 100140 -3.1712e+001 -9.4162e+001 -2.8147e+001 37702 100036,100088,100062
 5.8000e+000 100640 -8.7113e+001 -1.2571e+002  1.5939e+001 37262 100493,100545,100519
 5.8000e+000 100617 -7.7086e+001 -1.4276e+002  7.6204e+000 37262 100441,100545,100493
 5.8000e+000 100594 -3.0278e+001 -1.0768e+002 -1.8597e+001 37262 100415,100545,100441
 5.8000e+000 100571 -8.7222e+001 -1.5361e+002 -6.6680e+000 37262 100441,100493,100467
 5.8000e+000 101146 -6.3921e+001 -1.0706e+002 -1.3581e+000 36872 100823,100979,100849
 5.8000e+000 101123 -6.2459e+001 -1.0007e+002 -1.0214e+001 36872 100823,101005,100979
 5.8000e+000 101100 -6.4081e+001 -1.5390e+002  2.0515e+001 36872 101169,100901,100849
 5.8000e+000 101077 -4.9480e+001 -1.2314e+002  1.0917e+001 36872 101169,100849,100979
 5.8000e+000 101054 -3.6324e+001 -1.2849e+002 -8.5517e+000 36872 100927,100979,100953
 5.8000e+000 101031 -3.5175e+001 -1.7173e+002  2.8704e+001 36872 100849,100901,100875
 5.8000e+000 101195 -4.4440e+001 -1.6282e+002  1.3322e+000 36872 100927,100901,101169
 5.8000e+000 101218 -3.5448e+001 -1.4645e+002 -6.4708e+000 36872 100927,101169,100979
 5.8000e+000 101773 -7.0093e+001 -1.1474e+002  2.2287e+001 36418 101479,101609,101583
 5.8000e+000 101750 -7.3124e+001 -1.1748e+002  2.0190e+001 36418 101453,101609,101479
 5.8000e+000 101727 -4.8994e+001 -1.2198e+002 -2.3040e-001 36418 101796,101531,101479
 5.8000e+000 101704 -6.8805e+001 -1.3582e+002  1.0007e+001 36418 101796,101479,101583
 5.8000e+000 101681 -4.1245e+001 -1.0296e+002 -3.0998e+000 36418 101479,101531,101505
 5.8000e+000 101658 -1.2622e+000 -1.0322e+002  2.9860e+000 36418 101401,101609,101453
 5.8000e+000 101635 -1.8977e+001 -9.5885e+001  4.2486e+000 36418 101401,101453,101427
 5.8000e+000 101822 -5.3514e+001 -1.1161e+002 -1.9145e+001 36418 101557,101531,101796
 5.8000e+000 101845 -7.6209e+001 -1.1629e+002 -9.8040e+000 36418 101557,101796,101583
 5.8000e+000 102174 -6.3048e+000 -4.8459e+001 -1.5239e+001 35914 101949,102053,101975
 5.8000e+000 102151 -2.2468e+001 -5.2524e+001 -1.1777e+001 35914 101949,102079,102053
 5.8000e+000 102128 -2.6647e+001 -5.8120e+001 -8.2118e+000 35914 101975,102053,102027
 5.8000e+000 102105 -1.8326e+001 -4.4687e+001 -1.1734e+001 35914 101975,102027,102001
 5.8000e+000 102631 -2.4704e+001 -1.2621e+002  3.4029e+000 35574 102383,102513,102487
 5.8000e+000 102608 -1.7297e+001 -1.3143e+002  2.8065e+000 35574 102357,102513,102383
 5.8000e+000 102585 -4.2579e+001 -1.3146e+002  4.7759e+000 35574 102409,102487,102435
 5.8000e+000 102562 -4.3128e+001 -1.3376e+002  3.6036e+000 35574 102383,102487,102409
 5.8000e+000 102539 -4.2968e+001 -1.3434e+002  5.6625e+000 35574 102435,102487,102461
 5.8000e+000 103009 -6.8190e+001 -1.2551e+002 -8.8786e+000 35170 102761,102865,102787
 5.8000e+000 102986 -4.1247e+001 -1.1065e+002  1.1376e+001 35170 102761,102891,102865
 5.8000e+000 102963 -5.9608e+001 -1.2156e+002 -2.7332e+000 35170 102787,102865,102813
 5.8000e+000 102940 -3.3865e+001 -1.0632e+002  1.3458e+001 35170 102735,102891,102761
 5.8000e+000 102917 -6.1460e+001 -1.2802e+002 -9.0143e+000 35170 102813,102865,102839
 5.8000e+000 103257 -1.2090e+001 -9.3376e+001 -1.5718e+001 34659 103280,103058,103032
 5.8000e+000 103234 -1.8542e+001 -9.8394e+001 -9.0755e+000 34659 103280,103032,103162
 5.8000e+000 103211 -3.2884e+001 -9.9008e+001 -8.5830e+000 34659 103084,103162,103110
 5.8000e+000 103188 -4.3285e+001 -1.2186e+002 -6.2413e+000 34659 103110,103162,103136
 5.8000e+000 103306 -2.3424e+001 -8.7268e+001 -1.3610e+001 34659 103084,103058,103280
 5.8000e+000 103329 -2.7495e+001 -9.2520e+001 -6.1458e+000 34659 103084,103280,103162
 5.8000e+000 103837 -1.0969e+001 -1.3952e+002  4.5660e+000 34247 103860,103566,103540
 5.8000e+000 103814 -1.9319e+001 -1.4079e+002  3.4073e-001 34247 103932,103860,103540
 5.8000e+000 103791 -1.4586e+001 -1.5695e+002 -1.6015e+001 34247 103932,103540,103670
 5.8000e+000 103768 -1.5079e+001 -1.2945e+002  3.6381e+000 34247 103566,103618,103592
 5.8000e+000 103745 -5.6673e+001 -1.3145e+002 -2.0335e+001 34247 103540,103696,103670
 5.8000e+000 103722 -7.5126e+001 -1.4598e+002  2.1388e+001 34247 103514,103696,103540
 5.8000e+000 103886 -2.9548e+001 -1.3893e+002 -1.8907e+000 34247 103618,103566,103860
 5.8000e+000 103909 -3.2655e+001 -1.4922e+002  3.7240e+000 34247 103618,103860,103644
 5.8000e+000 103958 -3.3582e+001 -1.7984e+002 -3.0823e+000 34247 103644,103860,103932
 5.8000e+000 103981 -2.8938e+001 -1.9481e+002 -2.0232e+001 34247 103644,103932,103670
 5.8000e+000 104300 -6.9120e+001 -1.4791e+002 -5.3997e+000 33843 104052,104182,104156
 5.8000e+000 104277 -8.9227e+001 -1.3781e+002 -1.1474e+000 33843 104026,104182,104052
 5.8000e+000 104254 -6.7555e+001 -1.6627e+002  3.7591e+000 33843 104078,104156,104130
 5.8000e+000 104231 -8.2249e+001 -1.5984e+002 -5.7336e-002 33843 104052,104156,104078
 5.8000e+000 104208 -1.0176e+002 -1.7471e+002  4.4006e+000 33843 104078,104130,104104
 5.8000e+000 104499 -4.7030e+001 -1.4848e+002 -1.2013e+001 33282 104594,104522,104375
 5.8000e+000 104476 -4.1596e+001 -1.4662e+002  4.9396e+000 33282 104522,104323,104427
 5.8000e+000 104453 -2.8503e+001 -1.5801e+002 -1.1184e+001 33282 104594,104375,104349
 5.8000e+000 104548 -4.9752e+001 -1.3113e+002 -5.7117e+000 33282 104401,104375,104522
 5.8000e+000 104571 -3.4324e+001 -1.2879e+002  4.9469e+000 33282 104401,104522,104427
 5.8000e+000 104620 -2.3931e+001 -1.3108e+002 -3.6868e+000 33282 104323,104522,104594
 5.8000e+000 104643 -1.2145e+001 -1.4727e+002 -5.5155e+000 33282 104323,104594,104349
 5.8000e+000 104942 -6.3046e+001 -1.6200e+002  1.9872e+001 32728 104694,104772,104720
 5.8000e+000 104919 -4.8803e+001 -1.4813e+002  7.3825e+000 32728 104694,104824,104772
 5.8000e+000 104896 -8.3112e+001 -1.4364e+002  2.2763e+001 32728 104720,104772,104746
 5.8000e+000 104873 -3.8264e+001 -1.6972e+002  9.0196e+000 32728 104772,104824,104798
 5.8000e+000 104850 -4.0855e+001 -1.4656e+002  7.3473e+000 32728 104668,104824,104694
 5.8000e+000 105373 -4.9101e+001 -1.5534e+002 -6.7389e+000 32274 105396,105102,105076
 5.8000e+000 105350 -5.4575e+001 -1.6994e+002 -2.1727e+000 32274 105396,105076,105206
 5.8000e+000 105327 -7.1804e+001 -1.7639e+002  8.3709e+000 32274 105154,105206,105180
 5.8000e+000 105304 -2.5292e+001 -1.6358e+002 -1.4581e+001 32274 105076,105232,105206
 5.8000e+000 105281 -6.0676e+001 -1.4082e+002 -2.4408e+001 32274 105102,105154,105128
 5.8000e+000 105258 -8.4054e+001 -1.3203e+002 -2.6060e+001 32274 105050,105232,105076
 5.8000e+000 105422 -5.8279e+001 -1.3924e+002 -6.2740e+000 32274 105154,105102,105396
 5.8000e+000 105445 -6.3143e+001 -1.5398e+002 -2.7108e+000 32274 105154,105396,105206
 5.8000e+000 105644 -6.1812e+001 -1.6366e+002 -2.7791e+000 31620 105468,105546,105520
 5.8000e+000 105621 -5.0558e+001 -1.7468e+002 -8.3474e+000 31620 105468,105572,105546
 5.8000e+000 105598 -6.2225e+001 -1.7779e+002  8.3613e+000 31620 105468,105520,105494
 5.8000e+000 105794 -9.7130e+000 -1.3656e+002 -4.4307e+000 31158 105889,105817,105693
 5.8000e+000 105771 -1.9461e+001 -1.2191e+002 -9.1493e+000 31158 105817,105667,105745
 5.8000e+000 105843 -1.4718e+001 -1.6884e+002 -1.6884e+000 31158 105719,105693,105817
 5.8000e+000 105866 -5.6893e+000 -1.4406e+002 -7.7801e+000 31158 105719,105817,105745
 5.8000e+000 105915 -3.1761e+001 -1.4601e+002 -4.6792e+000 31158 105667,105817,105889
 5.8000e+000 106270 -6.0254e+001 -1.3933e+002 -7.9179e-001 30818 106293,106071,106045
 5.8000e+000 106247 -7.0011e+001 -1.6140e+002 -8.5845e+000 30818 106293,106045,106175
 5.8000e+000 106224 -4.8960e+001 -1.3023e+002  8.1620e+000 30818 106123,106175,106149
 5.8000e+000 106201 -6.3306e+001 -1.4386e+002  1.5570e+001 30818 106071,106123,106097
 5.8000e+000 106319 -6.1304e+001 -1.3066e+002  7.3000e+000 30818 106123,106071,106293
 5.8000e+000 106342 -6.2618e+001 -1.4228e+002  7.2260e-001 30818 106123,106293,106175
 5.8000e+000 106492 -5.7753e+001 -1.2788e+002  2.5028e+001 30414 106645,106391,106365
 5.8000e+000 106469 -1.6224e+001 -1.2684e+002  3.9446e+001 30414 106515,106365,106443
 5.8000e+000 106541 -3.4124e+001 -1.3413e+002  2.9030e+001 30414 106645,106365,106515
 5.8000e+000 106671 -2.5001e+001 -1.5236e+002  5.0587e+001 30414 106417,106391,106645
 5.8000e+000 106694  2.8040e+001 -1.4076e+002  4.3854e+001 30414 106417,106645,106515
 5.8000e+000 106942 -3.0611e+001 -1.9818e+002 -1.0414e+000 29910 106965,106795,106769
 5.8000e+000 106919 -2.5497e+001 -1.7882e+002  4.7906e+000 29910 106965,106769,106717
 5.8000e+000 106896 -2.9026e+001 -1.5038e+002 -1.8049e+001 29910 106795,106847,106821
 5.8000e+000 106873 -1.3675e+001 -1.5448e+002  9.6412e+000 29910 106717,106769,106743
 5.8000e+000 106991 -4.2492e+001 -1.7678e+002  2.0314e+000 29910 106847,106795,106965
 5.8000e+000 107014 -3.3115e+001 -1.5104e+002  7.7723e+000 29910 106847,106965,106717
 5.8000e+000 107213 -3.9767e+001 -1.4793e+002  9.6693e+000 29413 107236,107063,107037
 5.8000e+000 107190 -3.7444e+001 -1.7515e+002  1.9765e+001 29413 107236,107037,107141
 5.8000e+000 107167 -4.9575e+001 -1.0424e+002  2.4246e+001 29413 107063,107115,107089
 5.8000e+000 107262 -3.8020e+001 -1.2983e+002  6.0997e+000 29413 107115,107063,107236
 5.8000e+000 107285 -3.1728e+001 -1.5022e+002  1.7088e+001 29413 107115,107236,107141
 5.8000e+000 107486 -1.7181e+001 -1.4173e+002  1.9571e+001 29009 107336,107388,107362
 5.8000e+000 107463 -8.7918e+000 -1.3696e+002  5.6582e+000 29009 107310,107388,107336
 5.8000e+000 107440 -1.1271e+001 -1.2896e+002  5.6419e+000 29009 107310,107414,107388
 5.8000e+000 107736 -6.0540e+001 -1.6360e+002 -5.2682e+000 28491 107537,107615,107563
 5.8000e+000 107713 -5.2570e+001 -1.6008e+002 -4.6248e+000 28491 107537,107641,107615
 5.8000e+000 107690 -3.4825e+001 -1.5223e+002  3.7065e+000 28491 107563,107615,107589
 5.8000e+000 107667 -5.4106e+001 -1.5688e+002 -4.4912e+000 28491 107511,107641,107537
 5.8000e+000 108118 -3.4726e+001 -1.5505e+002  5.8526e+000 27980 108141,107922,107844
 5.8000e+000 108095 -2.7668e+001 -1.6537e+002  5.2241e+000 27980 108141,107844,108000
 5.8000e+000 108072 -3.6245e+001 -1.6117e+002 -8.5783e+000 27980 107844,107922,107870
 5.8000e+000 108049 -3.9077e+001 -1.4004e+002 -4.5306e+000 27980 107870,107922,107896
 5.8000e+000 108026 -5.5528e+001 -1.4700e+002  1.8117e+001 27980 107922,107974,107948
 5.8000e+000 108167 -2.9509e+001 -1.5609e+002  8.3310e+000 27980 107974,107922,108141
 5.8000e+000 108190 -1.0485e+001 -1.5550e+002  1.0788e+001 27980 107974,108141,108000
 5.8000e+000 108745 -1.5084e+001 -9.9130e+001 -3.2341e+000 27376 108840,108768,108477
 5.8000e+000 108722 -2.8236e+001 -1.2178e+002 -2.5281e+001 27376 108768,108373,108581
 5.8000e+000 108699 -2.6896e+001 -8.6810e+001  1.7870e+001 27376 108840,108477,108451
 5.8000e+000 108676 -7.1404e+001 -1.0535e+002 -5.0041e+000 27376 108373,108451,108399
 5.8000e+000 108653 -2.6632e+001 -1.2301e+002  1.8349e+001 27376 108503,108581,108529
 5.8000e+000 108630 -3.1251e+001 -1.2052e+002  1.9345e+001 27376 108529,108581,108555
 5.8000e+000 108607 -8.0377e+001 -1.1205e+002  8.2437e+000 27376 108399,108451,108425
 5.8000e+000 108794 -2.5827e+001 -1.3325e+002 -1.4305e-001 27376 108503,108477,108768
 5.8000e+000 108817 -2.1365e+000 -1.2214e+002 -4.7538e+000 27376 108503,108768,108581
 5.8000e+000 108866 -5.8160e+001 -1.2260e+002 -1.2274e+001 27376 108373,108768,108840
 5.8000e+000 108889 -5.6182e+001 -1.0537e+002  9.5969e+000 27376 108373,108840,108451
 5.8000e+000 109186 -5.9547e+001 -1.6118e+002  1.7683e+001 26722 109209,108938,108912
 5.8000e+000 109163 -5.5101e+001 -1.5021e+002  1.5855e+001 26722 109281,109209,108912
 5.8000e+000 109140 -5.3464e+001 -1.4608e+002  1.5222e+001 26722 109281,108912,109042
 5.8000e+000 109117 -4.7981e+001 -1.7087e+002  7.9023e+000 26722 108938,108990,108964
 5.8000e+000 109094 -7.6460e+001 -1.3317e+002  1.0337e+001 26722 108912,109068,109042
 5.8000e+000 109235 -4.9267e+001 -1.5496e+002  1.4807e+001 26722 108990,108938,109209
 5.8000e+000 109258 -5.3640e+001 -1.6498e+002  1.2958e+001 26722 108990,109209,109016
 5.8000e+000 109307 -4.9641e+001 -1.5647e+002  8.5840e+000 26722 109016,109209,109281
 5.8000e+000 109330 -4.6381e+001 -1.4962e+002  7.1525e+000 26722 109016,109281,109042
 5.8000e+000 109732 -5.9908e+001 -1.3277e+002 -4.0197e+000 26310 109458,109588,109484
 5.8000e+000 109709 -5.6261e+001 -1.4702e+002 -1.5155e+001 26310 109458,109614,109588
 5.8000e+000 109686 -9.1362e+001 -1.5477e+002  2.1813e+001 26310 109510,109562,109536
 5.8000e+000 109663 -9.4214e+001 -1.4776e+002  8.9067e+000 26310 109484,109562,109510
 5.8000e+000 109640 -6.5423e+001 -1.3596e+002 -2.2505e+000 26310 109484,109588,109562
 5.8000e+000 110159 -3.6697e+001 -1.3399e+002 -3.8634e+000 25642 110182,109940,109914
 5.8000e+000 110136 -3.2292e+001 -1.5417e+002  2.0459e+001 25642 110182,109914,109888
 5.8000e+000 110113 -4.7859e+001 -1.6559e+002 -2.0834e+001 25642 109966,110018,109992
 5.8000e+000 110090 -5.3059e+001 -1.5986e+002  1.2526e+001 25642 110254,109966,109940
 5.8000e+000 110067 -7.0115e+001 -1.5025e+002  9.8006e+000 25642 109862,110018,109888
 5.8000e+000 110044 -6.6691e+001 -1.2465e+002  2.2499e+001 25642 109836,110018,109862
 5.8000e+000 110208 -5.1468e+001 -1.4688e+002  9.3779e+000 25642 110254,109940,110182
 5.8000e+000 110231 -5.6517e+001 -1.5659e+002  2.1980e+001 25642 110018,110182,109888
 5.8000e+000 110280 -4.5423e+001 -1.7635e+002  1.0303e+001 25642 110018,109966,110254
 5.8000e+000 110303 -4.6688e+001 -1.6678e+002  7.6969e+000 25642 110018,110254,110182
 5.8000e+000 110632 -7.0257e+001 -1.3786e+002 -7.9179e+000 25188 110407,110485,110433
 5.8000e+000 110609 -8.2544e+001 -1.4200e+002 -4.1086e+000 25188 110407,110537,110485
 5.8000e+000 110586 -7.7333e+001 -1.4236e+002 -2.7605e+001 25188 110433,110485,110459
 5.8000e+000 110563 -7.8405e+001 -1.5452e+002  1.6672e+001 25188 110485,110537,110511
 5.8000e+000 110831 -1.1548e+001 -1.3215e+002  4.4829e+000 24726 110854,110707,110655
 5.8000e+000 110808 -4.9188e+000 -1.4247e+002  1.4885e+001 24726 110854,110655,110759
 5.8000e+000 110785 -1.6882e+001 -1.3661e+002  7.6886e+000 24726 110655,110707,110681
 5.8000e+000 110880 -6.3481e+000 -1.2221e+002  6.3673e+000 24726 110733,110707,110854
 5.8000e+000 110903  2.6917e+000 -1.2752e+002  1.7518e+001 24726 110733,110854,110759
 5.8000e+000 111234 -3.6424e+000 -9.6088e+001 -2.5541e+000 24222 111257,111087,111035
 5.8000e+000 111211  1.2463e+001 -8.8866e+001  1.0628e+001 24222 111257,111035,111009
 5.8000e+000 111188 -1.6190e+001 -4.6709e+001 -2.3166e+001 24222 111035,111087,111061
 5.8000e+000 111165 -1.6132e+001 -8.1146e+001  2.8588e+000 24222 111087,111139,111113
 5.8000e+000 111283 -1.3701e+001 -7.9529e+001  4.8102e+000 24222 111139,111087,111257
 5.8000e+000 111306 -6.7354e+000 -6.7910e+001  1.3290e+001 24222 111139,111257,111009
 5.8000e+000 111625 -1.5509e+001 -1.3101e+002 -6.4875e+000 23732 111648,111481,111455
 5.8000e+000 111602 -1.5458e+001 -1.3108e+002 -6.5249e+000 23732 111648,111455,111377
 5.8000e+000 111579  2.3609e+001 -6.1234e+001  1.4710e+001 23732 111377,111429,111403
 5.8000e+000 111556 -2.8478e+000 -1.2981e+002 -4.1458e+000 23732 111377,111455,111429
 5.8000e+000 111533 -8.4359e+000 -1.1927e+002 -2.8361e+000 23732 111351,111507,111377
 5.8000e+000 111674 -1.5466e+001 -1.3077e+002 -6.3243e+000 23732 111507,111481,111648
 5.8000e+000 111697 -1.5547e+001 -1.3099e+002 -6.3768e+000 23732 111507,111648,111377
 5.8000e+000 112156 -3.6840e+001 -1.5849e+002  1.1922e+001 23278 112179,111908,111882
 5.8000e+000 112133 -3.4415e+001 -1.4659e+002  6.4443e+000 23278 112179,111882,112012
 5.8000e+000 112110 -1.0536e+001 -1.7197e+002  7.9187e-001 23278 111908,111960,111934
 5.8000e+000 112087 -1.4351e+001 -1.2794e+002 -1.7758e+000 23278 111882,112038,112012
 5.8000e+000 112064 -3.1094e+001 -1.3197e+002 -2.0269e+000 23278 111960,112012,111986
 5.8000e+000 112205 -3.4999e+001 -1.5286e+002  2.2028e+000 23278 111960,111908,112179
 5.8000e+000 112228 -2.9113e+001 -1.3941e+002 -4.0489e+000 23278 111960,112179,112012
 5.8000e+000 112685 -9.5078e+001 -2.1707e+002 -2.0326e+001 22938 112489,112567,112541
 5.8000e+000 112662 -8.1692e+001 -1.8697e+002 -1.7901e+001 22938 112437,112567,112489
 5.8000e+000 112639 -5.7034e+001 -1.6324e+002 -2.5821e+000 22938 112489,112541,112515
 5.8000e+000 112616 -9.2713e+001 -1.7704e+002 -1.5149e+001 22938 112411,112567,112437
 5.8000e+000 112593 -7.3298e+001 -2.4068e+002 -2.7023e+000 22938 112437,112489,112463
 5.8000e+000 113191 -5.6126e+000 -1.5795e+002 -1.9955e+001 22534 113214,112998,112946
 5.8000e+000 113168 -2.8722e+001 -1.3873e+002 -1.0234e+001 22534 113286,113214,112946
 5.8000e+000 113145 -2.1605e+001 -1.3898e+002 -8.6084e+000 22534 113286,112946,112920
 5.8000e+000 113122 -6.3577e+001 -1.2735e+002 -2.9050e+001 22534 113358,113024,112998
 5.8000e+000 113099 -3.9999e+001 -1.3470e+002 -5.9930e+000 22534 112868,113050,112894
 5.8000e+000 113076 -4.4005e+001 -2.2537e+002 -3.7931e+001 22534 112946,112998,112972
 5.8000e+000 113240 -4.6718e+001 -1.6178e+002 -3.0720e+001 22534 113358,112998,113214
 5.8000e+000 113263 -3.7954e+001 -1.4569e+002 -7.0496e+000 22534 113050,113214,112894
 5.8000e+000 113312 -1.9379e+001 -1.3761e+002 -8.1827e+000 22534 112894,113214,113286
 5.8000e+000 113335 -1.1806e+001 -1.3818e+002 -7.8737e+000 22534 112894,113286,112920
 5.8000e+000 113384 -4.4727e+001 -9.5601e+001 -2.1185e+001 22534 113050,113024,113358
 5.8000e+000 113407 -2.0474e+001 -1.2420e+002 -1.9087e+001 22534 113050,113358,113214
 5.8000e+000 113785 -6.9304e+001 -1.8493e+002  4.4662e+000 21978 113808,113615,113511
 5.8000e+000 113762 -5.5509e+001 -1.8709e+002  1.2697e+001 21978 113808,113511,113667
 5.8000e+000 113739 -3.9031e+001 -1.5872e+002 -7.6636e+000 21978 113511,113615,113537
 5.8000e+000 113716  2.2306e+001 -1.4167e+002 -1.5944e+001 21978 113537,113615,113589
 5.8000e+000 113693 -1.8054e+001 -2.0378e+002  2.9253e+000 21978 113537,113589,113563
 5.8000e+000 113834 -7.1840e+001 -1.8507e+002  2.2217e+001 21978 113641,113615,113808
 5.8000e+000 113857 -3.5405e+001 -1.7097e+002  3.2046e+001 21978 113641,113808,113667
 5.8000e+000 114284 -4.9681e+001 -1.5391e+002  3.3120e+000 21517 114013,114117,114039
 5.8000e+000 114261 -5.7247e+001 -1.5323e+002  1.2678e+001 21517 113961,114117,114013
 5.8000e+000 114238 -5.5099e+001 -1.5455e+002  1.3107e+001 21517 113961,114013,113987
 5.8000e+000 114215 -8.3610e+001 -1.7709e+002 -1.2937e+001 21517 114039,114117,114091
 5.8000e+000 114192 -5.7932e+001 -1.2922e+002  1.4959e+001 21517 113961,114143,114117
 5.8000e+000 114169 -1.3007e+001 -1.5208e+002 -1.3446e+001 21517 114039,114091,114065
 5.8000e+000 114581 -2.2640e+001 -1.7654e+002  2.0705e+000 21027 114359,114463,114437
 5.8000e+000 114558 -8.1645e+000 -1.5918e+002  2.2060e+001 21027 114333,114463,114359
 5.8000e+000 114535 -4.8989e+000 -1.5992e+002 -4.8184e+000 21027 114359,114437,114385
 5.8000e+000 114512 -3.2555e+000 -1.5769e+002  2.0360e+001 21027 114307,114463,114333
 5.8000e+000 114489  3.5742e+001 -1.4866e+002 -7.7977e+000 21027 114385,114437,114411
 5.8000e+000 114912 -6.8222e+001 -1.5701e+002  2.4126e+000 20623 114713,114791,114765
 5.8000e+000 114889 -4.8565e+001 -1.4894e+002 -1.0872e+001 20623 114687,114791,114713
 5.8000e+000 114866 -3.0826e+001 -1.6361e+002 -1.3258e+001 20623 114687,114817,114791
 5.8000e+000 114843 -1.0394e+002 -1.9540e+002  1.7697e+001 20623 114713,114765,114739
 5.8000e+000 115290 -1.8117e+001 -1.4248e+002  7.8933e+000 20375 115313,115146,115094
 5.8000e+000 115267 -3.0820e+001 -1.3561e+002  1.4789e+001 20375 115313,115094,115042
 5.8000e+000 115244 -4.0339e+001 -1.3011e+002  4.6131e+000 20375 115385,115016,115172
 5.8000e+000 115221 -1.3533e+001 -1.2651e+002  1.1428e+001 20375 115042,115094,115068
 5.8000e+000 115198 -2.9088e+001 -1.7002e+002  8.6708e+000 20375 115094,115146,115120
 5.8000e+000 115339 -4.4560e+001 -1.6956e+002 -5.6853e+000 20375 115172,115146,115313
 5.8000e+000 115362 -2.3527e+001 -1.3453e+002  5.4846e+000 20375 115385,115172,115313
 5.8000e+000 115411 -4.9632e+001 -1.3506e+002  6.4609e+000 20375 115042,115016,115385
 5.8000e+000 115434 -4.1554e+001 -1.4526e+002  9.9965e+000 20375 115042,115385,115313
 5.8000e+000 115891 -7.4083e+001 -1.4575e+002  1.8288e+001 19971 115617,115747,115643
 5.8000e+000 115868 -6.4482e+001 -1.2351e+002  1.9162e+001 19971 115617,115773,115747
 5.8000e+000 115845 -4.9089e+001 -2.2748e+002  3.7270e+000 19971 115643,115721,115695
 5.8000e+000 115822 -1.8040e+000 -1.1175e+002  2.5573e-002 19971 115643,115747,115721
 5.8000e+000 115799 -4.0648e+001 -2.7740e+002 -2.0646e+001 19971 115643,115695,115669
 5.8000e+000 115992 -1.0566e+002 -2.7346e+002 -4.8210e+001 19659 115914,115966,115940
 5.8000e+000 116142 -1.7923e+001 -6.2933e+001  1.7521e+000 18997 116041,116093,116067
 5.8000e+000 116119 -3.5706e+001 -1.0870e+002  6.7392e+000 18997 116015,116093,116041
 5.8000e+000 116343 -2.9487e+001 -1.6685e+002 -4.4631e+000 18707 116193,116245,116219
 5.8000e+000 116320 -6.6170e+001 -1.8263e+002 -7.2718e+000 18707 116193,116271,116245
 5.8000e+000 116297 -6.1616e+001 -1.6526e+002 -1.3309e+001 18707 116167,116271,116193
 5.8000e+000 116747 -2.6190e+001 -1.5030e+002 -2.6600e+000 18301 116525,116629,116551
 5.8000e+000 116724 -1.4440e+001 -1.2752e+002  3.7945e+000 18301 116473,116629,116525
 5.8000e+000 116701 -9.2456e+000 -1.2411e+002 -6.7219e+000 18301 116473,116525,116499
 5.8000e+000 116678 -2.1740e+001 -1.5670e+002 -1.8715e+000 18301 116551,116603,116577
 5.8000e+000 116655 -3.1401e+001 -1.6254e+002 -4.5821e+000 18301 116551,116629,116603
 5.8000e+000 117147 -7.2350e+001 -1.6851e+002  9.1801e-001 17747 116899,117029,116925
 5.8000e+000 117124 -3.8567e+001 -1.2384e+002  1.8193e+001 17747 116873,117029,116899
 5.8000e+000 117101 -7.1442e+001 -1.6682e+002  1.2880e+000 17747 116925,117029,116951
 5.8000e+000 117078 -5.9660e+001 -1.3863e+002  3.8241e-001 17747 116951,117029,117003
 5.8000e+000 117055 -8.3418e+001 -1.9069e+002 -1.2949e+001 17747 116951,117003,116977
 5.8000e+000 117368  1.2602e+001 -1.6663e+002  4.2152e+000 17293 117244,117296,117270
 5.8000e+000 117345 -1.0549e+001 -1.7287e+002 -2.1919e+000 17293 117192,117296,117244
 5.8000e+000 117322 -2.9261e+001 -1.6202e+002 -1.6591e+000 17293 117192,117244,117218
 5.8000e+000 117699 -1.6078e+001 -1.3516e+002 -1.4836e+001 16896 117526,117604,117552
 5.8000e+000 117676 -8.7786e+001 -2.0694e+002  1.3932e+001 16896 117500,117604,117526
 5.8000e+000 117653 -9.3169e+001 -1.6260e+002 -7.7702e+000 16896 117552,117604,117578
 5.8000e+000 117630 -8.3280e+001 -2.7010e+002  2.1916e+001 16896 117474,117604,117500
 5.8000e+000 117849 -1.8627e+002 -3.6295e+002 -1.3706e+001 16534 117722,117774,117748
 5.8000e+000 117826 -1.4604e+002 -4.3952e+002 -5.9975e+001 16534 117722,117800,117774
 5.8000e+000 118070  6.5472e-001 -1.6984e+002  2.1605e+001 16194 117946,117998,117972
 5.8000e+000 118047 -2.6711e+001 -1.9179e+002  8.6167e+000 16194 117894,117998,117946
 5.8000e+000 118024 -9.7411e+001 -1.9669e+002 -3.0258e-002 16194 117894,117946,117920
 5.8000e+000 118173 -7.2605e+000 -1.5702e+002  0.0000e+000 15968 118095,118147,118121
 5.8000e+000 118276 -4.6508e+001 -1.7827e+002  3.6721e-001 15433 118299,118198,118250
 5.8000e+000 118325 -4.6739e+001 -1.7880e+002  3.7256e-001 15433 118224,118198,118299
 5.8000e+000 118450 -8.3814e+001 -1.8614e+002  1.7682e+001 421 118372,118424,118398
 5.9000e+000 69891 -3.3075e+001 -1.7777e+002  6.3863e+000 68988 69447,69681,69629
 5.9000e+000 69868  1.0813e+001 -1.6000e+002  6.6851e+000 68988 69421,69681,69447
 5.9000e+000 69845 -3.4220e+000 -8.8836e+001  1.2524e+000 68988 69447,69629,69577
 5.9000e+000 69822 -5.5892e+001 -1.8390e+002 -2.0310e+001 68988 69447,69577,69473
 5.9000e+000 69799 -9.0995e+000 -2.1504e+002  3.6140e+001 68988 69629,69681,69655
 5.9000e+000 69776 -6.0477e+001 -1.1342e+002  2.9616e+000 68988 69577,69629,69603
 5.9000e+000 69753 -4.4852e+001 -1.6655e+002 -2.6495e+001 68988 69473,69577,69551
 5.9000e+000 69730 -6.1434e+001 -3.2575e+002 -3.1739e+001 68988 69473,69551,69525
 5.9000e+000 69707 -9.8367e+001 -2.1632e+002  2.5282e-001 68988 69473,69525,69499
 5.9000e+000 69992 -1.1315e+002 -1.9897e+002 -2.7958e+001 68676 69914,69966,69940
 5.9000e+000 70392 -8.7554e+001 -1.6871e+002  1.4674e+001 68478 70118,70248,70144
 5.9000e+000 70369 -9.3668e+000 -1.7777e+002  3.6070e+001 68478 70118,70274,70248
 5.9000e+000 70346 -5.2008e+001 -1.2625e+002  4.1222e-001 68478 70144,70222,70196
 5.9000e+000 70323 -4.3300e+001 -1.0345e+002 -5.4440e+000 68478 70144,70248,70222
 5.9000e+000 70300 -5.4662e+001 -1.3638e+002 -1.0220e+000 68478 70144,70196,70170
 5.9000e+000 70841  2.1865e+001 -1.1730e+002 -3.0526e+001 68280 70570,70622,70596
 5.9000e+000 70818 -6.0783e+001 -1.3184e+002 -7.3187e+000 68280 70544,70622,70570
 5.9000e+000 70795 -4.6206e+001 -9.9133e+001 -4.3787e+000 68280 70544,70674,70622
 5.9000e+000 70772 -4.0547e+001 -8.8781e+001  1.5226e+000 68280 70622,70674,70648
 5.9000e+000 70749 -6.4187e+001 -1.4754e+002  1.0731e+001 68280 70518,70674,70544
 5.9000e+000 70726  4.0912e+001 -1.5653e+002  4.1410e+001 68280 70518,70700,70674
 5.9000e+000 70991 -6.9400e+000 -6.1806e+002  1.8948e+001 67968 70864,70916,70890
 5.9000e+000 70968 -1.6565e+002 -6.1360e+002  7.3255e+001 67968 70864,70942,70916
 5.9000e+000 71141 -2.7843e+002 -5.3133e+002 -2.4901e+001 67770 71040,71092,71066
 5.9000e+000 71118 -2.4454e+002 -6.4057e+002  2.8746e+001 67770 71014,71092,71040
 5.9000e+000 71651 -4.3312e+001 -1.2174e+002 -1.8542e+001 67366 71746,71674,71458
 5.9000e+000 71628 -2.8413e+001 -9.4454e+001 -2.2547e+001 67366 71674,71354,71510
 5.9000e+000 71605 -4.0938e+001 -1.3589e+002 -1.6604e+001 67366 71746,71458,71432
 5.9000e+000 71582 -6.3837e+001 -1.3759e+002  8.0648e+000 67366 71354,71432,71380
 5.9000e+000 71559 -6.3520e+001 -1.0219e+002 -8.9368e+000 67366 71380,71432,71406
 5.9000e+000 71536 -3.1668e+001 -3.9193e+001 -3.2849e+000 67366 71328,71510,71354
 5.9000e+000 71700 -4.6492e+001 -1.0894e+002 -8.5605e+000 67366 71484,71458,71674
 5.9000e+000 71723 -3.5127e+001 -1.0390e+002 -7.6232e+000 67366 71484,71674,71510
 5.9000e+000 71772 -4.0540e+001 -1.0482e+002 -1.6676e+001 67366 71354,71674,71746
 5.9000e+000 71795 -3.6462e+001 -1.1649e+002 -1.6717e+001 67366 71354,71746,71432
 5.9000e+000 71896 -9.7399e+001 -2.1354e+002  0.0000e+000 67146 71818,71870,71844
 5.9000e+000 71997 -1.1031e+002 -1.9845e+002  4.0270e+001 66948 71919,71971,71945
 5.9000e+000 72149 -2.0334e+001 -1.3576e+002 -1.6233e+001 66700 72172,72074,72048
 5.9000e+000 72126 -5.7767e+001 -1.5465e+002 -6.3298e+000 66700 72172,72048,72022
 5.9000e+000 72198 -8.5205e+001 -1.6697e+002  1.0152e+001 66700 72244,72172,72100
 5.9000e+000 72221 -7.1811e+001 -1.5175e+002 -7.6175e+000 66700 72100,72172,72022
 5.9000e+000 72270 -5.1348e+001 -9.2346e+001 -1.1158e+001 66700 72074,72172,72244
 5.9000e+000 72623 -5.9691e+001 -1.4486e+002  3.0548e+000 66502 72424,72502,72450
 5.9000e+000 72600 -5.1257e+001 -1.2298e+002  2.6013e+000 66502 72398,72502,72424
 5.9000e+000 72577 -4.1992e+001 -1.3846e+002 -2.1014e+000 66502 72398,72528,72502
 5.9000e+000 72554 -6.2085e+001 -1.3015e+002 -1.0059e+000 66502 72450,72502,72476
 5.9000e+000 72920 -9.1652e+001 -1.8406e+002  4.3341e+000 65941 72672,72776,72750
 5.9000e+000 72897 -8.7292e+001 -1.5765e+002  1.7462e+001 65941 72646,72776,72672
 5.9000e+000 72874 -8.0240e+001 -1.8135e+002  6.5502e+000 65941 72672,72750,72724
 5.9000e+000 72851 -8.1243e+001 -1.4696e+002  1.3389e+001 65941 72672,72724,72698
 5.9000e+000 72828 -6.6073e+001 -1.5384e+002  1.4892e+001 65941 72646,72802,72776
 5.9000e+000 73241 -3.4657e+001 -1.2898e+002  5.2186e+000 65743 73264,73071,73045
 5.9000e+000 73218 -6.0794e+001 -1.4477e+002  1.2962e+001 65743 73480,73264,73045
 5.9000e+000 73195 -4.8115e+001 -1.2656e+002 -1.4406e+000 65743 73336,72967,73097
 5.9000e+000 73172 -7.6443e+001 -1.1728e+002 -1.0246e+001 65743 73408,72993,72967
 5.9000e+000 73149 -4.4427e+001 -1.2857e+002 -2.3315e+000 65743 72967,73123,73097
 5.9000e+000 73290 -4.1298e+001 -1.3189e+002  1.7303e+000 65743 73097,73071,73264
 5.9000e+000 73313 -4.4070e+001 -1.2323e+002  3.5592e+000 65743 73336,73097,73264
 5.9000e+000 73362 -6.6424e+001 -1.3057e+002 -6.2483e+000 65743 73408,72967,73336
 5.9000e+000 73385 -3.7036e+001 -1.2072e+002  1.0735e+000 65743 73019,73336,73264
 5.9000e+000 73434 -5.9674e+001 -9.0486e+001  6.9888e+000 65743 73019,72993,73408
 5.9000e+000 73457 -3.7968e+001 -1.0936e+002  5.7367e+000 65743 73019,73408,73336
 5.9000e+000 73506 -2.9784e+001 -8.9631e+001  6.6539e-001 65743 73019,73264,73480
 5.9000e+000 73989 -1.1219e+001 -1.0754e+002  1.2350e+001 65453 73793,73845,73819
 5.9000e+000 73966 -5.9561e+001 -1.2009e+002  1.4389e+001 65453 73741,73845,73793
 5.9000e+000 73943 -2.0619e+001 -9.8815e+001  6.1974e+000 65453 73715,73845,73741
 5.9000e+000 73920 -4.8319e+001 -1.3118e+002  2.4359e+001 65453 73741,73793,73767
 5.9000e+000 73897 -8.3567e-001 -5.9166e+001 -3.8729e-001 65453 73715,73871,73845
 5.9000e+000 74357 -3.2229e+001 -1.1985e+002 -3.5841e+001 65141 74380,74138,74086
 5.9000e+000 74334 -5.8690e+001 -1.6448e+002 -2.4409e+001 65141 74380,74086,74060
 5.9000e+000 74311 -6.3477e+001 -1.6077e+002 -7.4835e+000 65141 74138,74190,74164
 5.9000e+000 74288 -5.4564e+001 -1.7817e+002 -7.9299e+000 65141 74060,74216,74190
 5.9000e+000 74265 -5.7872e+001 -1.8873e+002  2.3342e+000 65141 74034,74216,74060
 5.9000e+000 74242 -3.1304e+001 -7.8443e+001 -1.6833e+001 65141 74086,74138,74112
 5.9000e+000 74406 -4.8253e+001 -1.5913e+002 -1.4431e+001 65141 74190,74138,74380
 5.9000e+000 74429 -5.6515e+001 -1.7468e+002 -7.0636e+000 65141 74190,74380,74060
 5.9000e+000 74937 -6.8177e+001 -1.3355e+002 -3.1757e+001 64737 74614,74666,74640
 5.9000e+000 74914 -8.5450e+001 -1.6176e+002 -2.2926e+001 64737 74614,74796,74666
 5.9000e+000 74891 -5.9517e+001 -1.0622e+002 -1.6528e+000 64737 74960,74718,74666
 5.9000e+000 74868 -5.5827e+001 -1.1863e+002 -1.2639e+001 64737 74960,74666,74770
 5.9000e+000 74845 -5.9130e+001 -1.0354e+002 -1.4267e+001 64737 74666,74796,74770
 5.9000e+000 74822 -5.5717e+001 -1.1495e+002  4.0771e+000 64737 74666,74718,74692
 5.9000e+000 74986 -6.1652e+001 -1.1888e+002 -4.8904e+000 64737 74744,74718,74960
 5.9000e+000 75009 -6.3456e+001 -1.3825e+002 -1.6749e+001 64737 74744,74960,74770
 5.9000e+000 75306 -3.4169e+001 -1.1573e+002  1.9218e+001 64133 75329,75110,75084
 5.9000e+000 75283 -4.4912e+001 -1.3974e+002  5.6589e+000 64133 75401,75329,75084
 5.9000e+000 75260 -4.3896e+001 -1.4336e+002  6.7433e+000 64133 75401,75084,75058
 5.9000e+000 75237 -4.3254e+001 -1.6933e+002  2.3629e+001 64133 75473,75136,75110
 5.9000e+000 75214 -4.1145e+001 -1.2914e+002  1.5640e+000 64133 75032,75188,75162
 5.9000e+000 75355 -5.1128e+001 -1.5567e+002  1.7982e+001 64133 75473,75110,75329
 5.9000e+000 75378 -3.7681e+001 -1.3359e+002  2.1352e+000 64133 75162,75329,75032
 5.9000e+000 75427 -3.5563e+001 -1.2826e+002  1.0484e+000 64133 75032,75329,75401
 5.9000e+000 75450 -6.9141e+001 -1.5947e+002  1.7832e+001 64133 75545,75401,75058
 5.9000e+000 75499 -3.5666e+001 -1.5239e+002  8.3071e+000 64133 75162,75136,75473
 5.9000e+000 75522 -4.3156e+001 -1.3035e+002  6.5227e+000 64133 75162,75473,75329
 5.9000e+000 75571 -3.5855e+001 -8.7111e+001  4.2659e+000 64133 75032,75401,75545
 5.9000e+000 75851 -5.8121e+001 -1.2711e+002  3.2773e+000 63843 75874,75753,75727
 5.9000e+000 75828 -5.0547e+001 -1.2143e+002 -4.5949e+000 63843 75946,75874,75727
 5.9000e+000 75805 -5.6872e+001 -1.2698e+002 -2.1541e+000 63843 76018,75946,75727
 5.9000e+000 75900 -4.9168e+001 -1.2339e+002 -5.8158e+000 63843 75779,75753,75874
 5.9000e+000 75923 -4.8923e+001 -1.0448e+002 -1.4042e+001 63843 75779,75874,75675
 5.9000e+000 75972 -5.6847e+001 -1.1922e+002 -4.6393e+000 63843 75675,75874,75946
 5.9000e+000 75995 -5.2923e+001 -1.2064e+002 -7.4574e+000 63843 75675,75946,75701
 5.9000e+000 76044 -5.7598e+001 -1.2383e+002 -8.8836e+000 63843 75701,75946,76018
 5.9000e+000 76454  6.4863e+000 -2.0521e+001 -1.2097e+001 63439 76477,76255,76229
 5.9000e+000 76431 -1.2917e+001 -5.2511e+001  1.1905e+000 63439 76477,76229,76359
 5.9000e+000 76408 -1.5429e+001 -4.0739e+001  2.4899e+001 63439 76307,76359,76333
 5.9000e+000 76385 -1.0038e+001 -5.9300e+001  1.6084e+000 63439 76255,76307,76281
 5.9000e+000 76503 -1.4622e+001 -4.5992e+001  6.7936e+000 63439 76307,76255,76477
 5.9000e+000 76526 -1.3333e+001 -5.8215e+001  1.6499e+001 63439 76307,76477,76359
 5.9000e+000 76926 -3.0009e+001 -8.4276e+001 -2.7802e-001 63049 76704,76782,76756
 5.9000e+000 76903 -3.9907e+001 -8.6454e+001 -8.2468e+000 63049 76704,76808,76782
 5.9000e+000 76880 -2.7919e+001 -9.5608e+001  1.6145e+000 63049 76704,76756,76730
 5.9000e+000 76857 -2.4132e+001 -5.3211e+001  4.6985e+000 63049 76678,76808,76704
 5.9000e+000 76834 -9.8851e+000 -1.1268e+001 -1.1503e+001 63049 76652,76808,76678
 5.9000e+000 77076 -1.6040e+001 -1.5221e+002 -1.3890e+000 62737 76975,77027,77001
 5.9000e+000 77053 -1.2622e+001 -1.6893e+002 -1.0421e+001 62737 76949,77027,76975
 5.9000e+000 77324 -6.1460e+001 -1.4608e+002 -1.1640e+000 62277 77347,77177,77125
 5.9000e+000 77301 -6.2835e+001 -1.4243e+002 -7.7657e+000 62277 77347,77125,77229
 5.9000e+000 77278 -6.0720e+001 -1.4895e+002 -1.1883e+001 62277 77099,77229,77125
 5.9000e+000 77255 -6.5628e+001 -1.7120e+002  2.1256e+000 62277 77125,77177,77151
 5.9000e+000 77373 -6.5213e+001 -1.5737e+002  1.4672e+000 62277 77203,77177,77347
 5.9000e+000 77396 -6.1415e+001 -1.4789e+002 -5.8801e+000 62277 77203,77347,77229
 5.9000e+000 77857 -3.6514e+001 -1.8856e+002  2.4044e+000 61758 77635,77739,77661
 5.9000e+000 77834 -5.1512e+001 -1.8383e+002 -5.8248e+000 61758 77583,77739,77635
 5.9000e+000 77811 -5.8657e+001 -2.3041e+002 -2.1760e+001 61758 77583,77635,77609
 5.9000e+000 77788 -4.7836e+001 -1.8280e+002  1.4097e+001 61758 77661,77713,77687
 5.9000e+000 77765 -5.1207e+001 -2.0577e+002  1.3249e+001 61758 77661,77739,77713
 5.9000e+000 78491 -5.4918e+001 -9.9935e+001  4.8148e+000 61418 78171,78301,78249
 5.9000e+000 78468 -4.1099e+001 -7.9500e+001  1.3059e+001 61418 78145,78301,78171
 5.9000e+000 78445 -3.9429e+001 -8.8937e+001 -3.0145e+000 61418 78171,78249,78223
 5.9000e+000 78422 -3.9173e+001 -7.8328e+001  4.0496e+000 61418 78145,78327,78301
 5.9000e+000 78399 -5.8174e+001 -1.1804e+002 -4.1459e+000 61418 78249,78301,78275
 5.9000e+000 78376 -2.3038e+001 -9.7642e+001 -5.6046e+000 61418 78171,78223,78197
 5.9000e+000 78353 -4.4887e+001 -1.0455e+002 -2.6626e+000 61418 78119,78327,78145
 5.9000e+000 78690 -4.6134e+001 -1.1107e+002  1.8419e+000 61014 78713,78566,78540
 5.9000e+000 78667 -3.5163e+001 -1.1394e+002  3.3106e+000 61014 78713,78540,78618
 5.9000e+000 78644 -5.2193e+001 -1.2890e+002 -1.2963e+001 61014 78514,78618,78540
 5.9000e+000 78739 -2.7344e+001 -1.1051e+002  1.2374e+001 61014 78592,78566,78713
 5.9000e+000 78762 -3.7375e+001 -1.1967e+002  2.3098e+000 61014 78785,78713,78618
 5.9000e+000 78811 -1.0890e+001 -1.0935e+002 -5.4981e-001 61014 78592,78713,78785
 5.9000e+000 79398 -2.1987e+001 -1.0405e+002 -9.1010e+000 60624 79101,79179,79153
 5.9000e+000 79375 -2.8899e+001 -1.1388e+002 -4.9168e+000 60624 79101,79231,79179
 5.9000e+000 79352 -2.0714e+001 -1.1195e+002 -6.7013e+000 60624 79075,79231,79101
 5.9000e+000 79329 -7.6547e+000 -1.3144e+002  1.2790e+001 60624 79075,79257,79231
 5.9000e+000 79306 -2.2067e+001 -8.9762e+001 -1.4749e+001 60624 79179,79231,79205
 5.9000e+000 79283 -1.7168e+001 -9.3214e+001 -5.8830e+000 60624 79101,79153,79127
 5.9000e+000 79776 -6.1750e+001 -1.5526e+002  1.1426e+001 60070 79528,79658,79606
 5.9000e+000 79753 -5.8058e+001 -1.2991e+002 -1.0264e+000 60070 79502,79658,79528
 5.9000e+000 79730 -7.6260e+001 -1.4862e+002  1.9035e+001 60070 79528,79606,79580
 5.9000e+000 79707 -2.9265e+001 -1.4081e+002  3.2042e+000 60070 79606,79658,79632
 5.9000e+000 79684 -9.8050e+000 -9.1817e+001 -2.4191e+001 60070 79528,79580,79554
 5.9000e+000 80105 -4.7354e+001 -1.2274e+002  1.4058e+001 59758 80128,79958,79906
 5.9000e+000 80082 -4.6744e+001 -1.1640e+002  1.0888e+001 59758 80128,79906,80010
 5.9000e+000 80059 -6.4396e+001 -1.2940e+002  3.9518e+001 59758 79906,79958,79932
 5.9000e+000 80036 -6.7055e+001 -1.3165e+002  4.2525e+000 59758 79880,80010,79906
 5.9000e+000 80154 -4.7048e+001 -1.2691e+002  1.5162e+001 59758 79984,79958,80128
 5.9000e+000 80177 -4.7911e+001 -1.2226e+002  1.2211e+001 59758 79984,80128,80010
 5.9000e+000 80376 -3.2772e+001 -1.0308e+002  2.1282e+000 59312 80226,80304,80252
 5.9000e+000 80353 -3.1229e+001 -1.0963e+002  2.1864e+000 59312 80200,80304,80226
 5.9000e+000 80330 -4.9547e+001 -9.4191e+001  2.8151e+001 59312 80252,80304,80278
 5.9000e+000 80805 -4.4384e+001 -1.0069e+002 -1.6612e+001 58908 80900,80828,80638
 5.9000e+000 80782 -3.4154e+001 -1.1923e+002 -2.4698e+001 58908 80828,80560,80508
 5.9000e+000 80759 -4.6985e+001 -9.4246e+001 -5.9354e+000 58908 80900,80638,80612
 5.9000e+000 80736 -1.8010e+001 -1.0386e+002  4.1978e+001 58908 80482,80664,80508
 5.9000e+000 80713 -3.1557e+001 -8.7816e+001 -3.0146e+000 58908 80560,80612,80586
 5.9000e+000 80690 -4.2470e+001 -3.1587e+002 -5.8900e+001 58908 80508,80560,80534
 5.9000e+000 80854 -2.0436e+001 -1.0846e+002 -6.8194e-001 58908 80664,80638,80828
 5.9000e+000 80877 -3.4948e+001 -1.5886e+002  2.7077e+000 58908 80664,80828,80508
 5.9000e+000 80926 -3.6920e+001 -8.1428e+001 -1.8360e+001 58908 80560,80828,80900
 5.9000e+000 80949 -4.2430e+001 -8.1564e+001 -6.1639e+000 58908 80560,80900,80612
 5.9000e+000 81246 -1.9917e+001 -9.8905e+001 -2.7541e+000 58482 81076,81128,81102
 5.9000e+000 81223 -4.7312e+001 -1.6767e+002 -1.6876e+001 58482 80972,81128,81076
 5.9000e+000 81200 -2.9800e+001 -1.1456e+002 -1.9181e+001 58482 80972,81076,81050
 5.9000e+000 81177 -6.6041e+001 -1.7060e+002 -6.4147e+000 58482 80998,81050,81024
 5.9000e+000 81154 -3.6271e+001 -1.3990e+002 -1.8823e+001 58482 80972,81050,80998
 5.9000e+000 81754 -4.7934e+001 -9.8414e+001  6.1503e+000 57828 81457,81613,81483
 5.9000e+000 81731 -5.5645e+001 -1.1396e+002  2.5826e+000 57828 81431,81613,81457
 5.9000e+000 81708 -5.2403e+001 -1.0885e+002  6.6475e+000 57828 81483,81613,81509
 5.9000e+000 81685 -6.4907e+001 -1.2363e+002  1.2027e+001 57828 81509,81613,81587
 5.9000e+000 81662 -7.0054e+001 -1.8283e+002  2.3957e+001 57828 81509,81587,81535
 5.9000e+000 81639 -4.0161e+001 -1.6666e+002  1.3260e+001 57828 81535,81587,81561
 5.9000e+000 82002 -7.2694e+001 -1.7773e+002 -3.4299e-001 57374 82025,81855,81829
 5.9000e+000 81979 -7.7307e+001 -1.6552e+002  9.5760e+000 57374 82025,81829,81907
 5.9000e+000 81956 -8.0496e+001 -1.5314e+002  6.0000e+000 57374 81803,81907,81829
 5.9000e+000 81933 -4.3164e+001 -1.3594e+002  1.0997e+001 57374 81777,81907,81803
 5.9000e+000 82051 -7.2353e+001 -1.6327e+002 -1.1029e+000 57374 81881,81855,82025
 5.9000e+000 82074 -7.4049e+001 -1.5219e+002  1.2274e+001 57374 81881,82025,81907
 5.9000e+000 82356 -4.5516e+001 -1.0709e+002 -4.8455e+000 56913 82180,82232,82206
 5.9000e+000 82333 -4.0658e+001 -1.0261e+002  7.9928e+000 56913 82180,82284,82232
 5.9000e+000 82310 -1.2548e+001 -7.4731e+001  1.9387e+001 56913 82379,82232,82284
 5.9000e+000 82405  1.2767e+001 -7.3163e+001  1.0406e+000 56913 82258,82232,82379
 5.9000e+000 82764 -4.5556e+001 -6.7804e+001 -7.4493e+000 56523 82614,82666,82640
 5.9000e+000 82741 -4.0385e+001 -6.8245e+001 -1.0175e+001 56523 82614,82692,82666
 5.9000e+000 82718 -3.3339e+001 -7.3388e+001 -2.2202e+001 56523 82588,82692,82614
 5.9000e+000 83368 -6.5063e+000 -1.1205e+002 -4.4905e+000 55969 82973,83155,83129
 5.9000e+000 83345  3.1616e+000 -1.0871e+002 -8.3722e+000 55969 82973,83181,83155
 5.9000e+000 83322 -2.9162e+001 -9.9754e+001 -2.9810e+000 55969 82973,83129,82999
 5.9000e+000 83299 -4.7398e+001 -1.0144e+002  1.8486e+000 55969 83391,83025,82999
 5.9000e+000 83276 -4.0294e+001 -1.0521e+002 -6.4029e-001 55969 83391,82999,83129
 5.9000e+000 83253 -5.2906e+000 -8.7560e+001  1.9812e+001 55969 83077,83129,83103
 5.9000e+000 83230 -5.0855e+001 -8.2404e+001 -4.3864e+000 55969 83025,83077,83051
 5.9000e+000 83207 -5.0823e-001 -1.0553e+002  8.5041e+000 55969 82947,83181,82973
 5.9000e+000 83417 -4.0641e+001 -9.7302e+001  4.1005e+000 55969 83077,83025,83391
 5.9000e+000 83440 -3.8272e+001 -1.0300e+002  5.3956e-001 55969 83077,83391,83129
 5.9000e+000 83946 -8.7780e+001 -1.8809e+002  3.1026e+001 55771 83969,83779,83727
 5.9000e+000 83923 -6.9425e+001 -1.5045e+002  2.0212e+001 55771 83969,83727,83623
 5.9000e+000 83900 -7.9971e+001 -7.2478e+001  1.0651e+001 55771 83623,83727,83649
 5.9000e+000 83877 -6.8456e+001 -3.2436e+002  1.5346e+001 55771 83727,83779,83753
 5.9000e+000 83854 -1.0250e+002 -1.4787e+002  3.1613e+001 55771 83675,83727,83701
 5.9000e+000 83831 -1.2254e+002 -1.1708e+002  4.8167e+001 55771 83649,83727,83675
 5.9000e+000 83995 -8.3478e+001 -1.9616e+002 -1.5978e+001 55771 83805,83779,83969
 5.9000e+000 84018 -4.5081e+001 -1.2104e+002 -3.0824e+001 55771 83805,83969,83623
 5.9000e+000 84168 -3.5243e+001 -9.2160e+001 -2.9898e+000 55367 84191,84067,84041
 5.9000e+000 84145 -3.5937e+001 -1.0065e+002 -1.9154e+000 55367 84191,84041,84119
 5.9000e+000 84217 -3.8159e+001 -8.6071e+001 -3.0361e+000 55367 84093,84067,84191
 5.9000e+000 84240 -3.7515e+001 -9.1921e+001  3.7478e-001 55367 84093,84191,84119
 5.9000e+000 84571 -2.1802e+001 -1.3375e+002 -1.4222e+001 54913 84398,84450,84424
 5.9000e+000 84548 -1.9930e+001 -1.2274e+002 -7.5022e+000 54913 84372,84450,84398
 5.9000e+000 84525 -3.4329e+001 -1.3772e+002  5.5533e+000 54913 84346,84450,84372
 5.9000e+000 84502 -1.4703e+001 -9.2529e+001 -1.3344e+001 54913 84346,84476,84450
 5.9000e+000 85126 -7.2317e+001 -1.5571e+002 -8.6829e+000 54402 84858,84936,84910
 5.9000e+000 85103 -5.5293e+001 -1.1803e+002 -1.3329e+001 54402 84806,84936,84858
 5.9000e+000 85080 -6.6789e+001 -1.1065e+002 -1.1337e+001 54402 84780,84936,84806
 5.9000e+000 85057 -5.2983e+001 -1.3248e+002 -4.2030e+000 54402 84806,84858,84832
 5.9000e+000 85034 -6.2228e+001 -1.0489e+002  6.2170e+000 54402 84780,84962,84936
 5.9000e+000 85011 -8.2928e+001 -9.2285e+001 -4.5514e+000 54402 84858,84910,84884
 5.9000e+000 84988 -6.1304e+001 -1.0357e+002  6.7370e+000 54402 84754,84962,84780
 5.9000e+000 85396 -5.8767e+001 -7.1622e+001 -4.7733e+000 53998 85197,85249,85223
 5.9000e+000 85373 -4.5431e+001 -8.9134e+001 -1.3894e+000 53998 85197,85275,85249
 5.9000e+000 85350 -5.7416e+001 -1.0333e+002 -6.5597e+000 53998 85171,85275,85197
 5.9000e+000 85327 -2.6715e+001 -9.4781e+001 -8.7510e+000 53998 85171,85301,85275
 5.9000e+000 85749 -3.1393e+001 -1.0194e+002 -3.3113e+000 53636 85524,85628,85550
 5.9000e+000 85726 -4.7840e+001 -1.1856e+002  3.3120e+000 53636 85524,85654,85628
 5.9000e+000 85703 -1.8055e+001 -1.0697e+002 -1.0899e+001 53636 85550,85602,85576
 5.9000e+000 85680 -2.8695e+001 -1.0015e+002 -5.8739e+000 53636 85550,85628,85602
 5.9000e+000 86127 -1.2111e+001 -1.0733e+002  1.8139e+001 52982 86150,85957,85879
 5.9000e+000 86104 -3.9147e+001 -1.2476e+002  1.0578e+001 52982 86150,85879,85853
 5.9000e+000 86081 -9.9636e+000 -1.5786e+002  3.1434e+001 52982 85957,86009,85983
 5.9000e+000 86058 -4.6693e+001 -1.1450e+002  1.4015e+001 52982 85879,85957,85931
 5.9000e+000 86035 -2.9553e+001 -1.0802e+002 -4.8433e+000 52982 85879,85931,85905
 5.9000e+000 86176  4.7117e+000 -1.2738e+002  1.4598e+001 52982 86009,85957,86150
 5.9000e+000 86199 -1.1272e+001 -1.3806e+002  9.2528e+000 52982 86009,86150,85853
 5.9000e+000 86398 -3.2050e+001 -9.2363e+001  6.3577e+000 52542 86421,86248,86222
 5.9000e+000 86375 -4.8003e+001 -9.5913e+001 -1.0731e+000 52542 86421,86222,86300
 5.9000e+000 86352 -4.8184e+001 -1.0100e+002 -3.1876e+000 52542 86222,86326,86300
 5.9000e+000 86447 -1.4740e+001 -9.3704e+001  1.4342e+001 52542 86274,86248,86421
 5.9000e+000 86470 -3.0674e+001 -1.0084e+002  4.8757e+000 52542 86274,86421,86300
 5.9000e+000 86669 -4.1762e+001 -9.3373e+001 -2.0695e+001 52230 86692,86571,86545
 5.9000e+000 86646 -4.1593e+001 -9.0455e+001 -1.1113e+001 52230 86692,86545,86519
 5.9000e+000 86623 -6.0723e+001 -9.4000e+001 -1.3107e+001 52230 86493,86597,86519
 5.9000e+000 86718 -4.7025e+001 -9.5572e+001 -2.0530e+001 52230 86597,86571,86692
 5.9000e+000 86741 -5.3412e+001 -9.5506e+001 -1.1242e+001 52230 86597,86692,86519
 5.9000e+000 87153 -5.9437e+001 -8.9313e+001  4.1063e+000 51640 86980,87058,87032
 5.9000e+000 87130 -5.7628e+001 -9.0858e+001  3.5239e+000 51640 86928,87058,86980
 5.9000e+000 87107 -6.1557e+001 -1.2187e+002 -3.9867e+000 51640 86928,86980,86954
 5.9000e+000 87084 -3.0953e+001 -7.7201e+001  4.3985e-001 51640 86980,87032,87006
 5.9000e+000 87659 -2.8865e+001 -8.3059e+001  2.8545e+000 51029 87682,87440,87362
 5.9000e+000 87636 -2.4684e+001 -8.8023e+001 -8.7562e+000 51029 87682,87362,87336
 5.9000e+000 87613 -4.2528e+001 -1.2550e+002 -3.1069e+000 51029 87440,87518,87466
 5.9000e+000 87590 -4.2744e+001 -8.2580e+001  3.5800e+000 51029 87362,87440,87414
 5.9000e+000 87567 -3.5597e+001 -6.3412e+001  1.5307e+001 51029 87362,87414,87388
 5.9000e+000 87544 -5.4904e+001 -1.1714e+002  2.2757e+000 51029 87466,87518,87492
 5.9000e+000 87708 -2.8418e+001 -9.3241e+001 -1.6203e-001 51029 87518,87440,87682
 5.9000e+000 87731 -2.7244e+001 -1.0834e+002 -7.4495e+000 51029 87518,87682,87336
 5.9000e+000 87881 -5.6841e+001 -1.2368e+002  1.5606e+000 50739 87780,87832,87806
 5.9000e+000 87858 -6.1969e+001 -1.2014e+002 -5.6496e+000 50739 87754,87832,87780
 5.9000e+000 88468 -4.2923e+001 -7.8384e+001  6.0882e+000 50235 88171,88327,88197
 5.9000e+000 88445 -8.3074e+001 -8.2610e+001 -9.4157e+000 50235 88145,88327,88171
 5.9000e+000 88422  2.8892e-001 -3.4189e+001 -8.7278e-002 50235 88275,88327,88301
 5.9000e+000 88399 -2.5002e+001 -4.5023e+001 -1.1104e+000 50235 88197,88327,88275
 5.9000e+000 88376 -9.5853e+000 -7.0651e+001 -1.1801e+000 50235 88197,88275,88223
 5.9000e+000 88353 -1.3078e+001 -9.5061e+001 -7.1144e+000 50235 88223,88275,88249
 5.9000e+000 88895 -5.2604e+001 -1.2697e+002  3.0554e+000 49873 88918,88728,88676
 5.9000e+000 88872 -4.5542e+001 -1.2007e+002 -1.9677e+000 49873 88918,88676,88624
 5.9000e+000 88849 -3.6334e+001 -1.0550e+002 -3.8885e+000 49873 88598,88754,88624
 5.9000e+000 88826 -2.9306e+001 -1.1234e+002 -4.1982e+000 49873 88624,88676,88650
 5.9000e+000 88803 -4.1009e+001 -1.5638e+002  5.3434e+000 49873 88676,88728,88702
 5.9000e+000 88780 -4.3932e+001 -1.0808e+002 -4.6550e+000 49873 88572,88754,88598
 5.9000e+000 88944 -4.3797e+001 -1.2570e+002 -1.3463e+000 49873 88754,88728,88918
 5.9000e+000 88967 -4.1190e+001 -1.2360e+002 -5.6534e+000 49873 88754,88918,88624
 5.9000e+000 89473 -7.7325e+001 -1.2056e+002 -1.4439e+001 49583 89176,89306,89202
 5.9000e+000 89450 -7.6331e+001 -1.1935e+002 -1.6354e+001 49583 89176,89332,89306
 5.9000e+000 89427 -4.5293e+001 -1.2973e+002  5.3887e+000 49583 89496,89228,89202
 5.9000e+000 89404 -4.5597e+001 -1.3260e+002  6.5282e+000 49583 89496,89202,89280
 5.9000e+000 89381 -9.5509e+001 -1.6606e+002 -2.8595e+001 49583 89202,89306,89280
 5.9000e+000 89358 -5.8486e+001 -1.1964e+002 -1.9040e+001 49583 89150,89332,89176
 5.9000e+000 89522 -4.2990e+001 -1.1052e+002  2.8684e+000 49583 89254,89228,89496
 5.9000e+000 89545 -5.2067e+001 -1.2696e+002  6.4050e+000 49583 89254,89496,89280
 5.9000e+000 89825  7.3856e+000 -1.2167e+002  3.8378e+000 49179 89701,89753,89727
 5.9000e+000 89802 -1.8528e+001 -1.0776e+002  5.1870e+000 49179 89675,89753,89701
 5.9000e+000 89779 -1.4013e+001 -9.7331e+001  5.6489e+000 49179 89848,89753,89675
 5.9000e+000 89874 -7.0889e+001 -1.1769e+002 -1.0282e+001 49179 89649,89753,89848
 5.9000e+000 90223 -3.7721e+001 -1.1292e+002 -1.3993e+001 48739 90024,90102,90076
 5.9000e+000 90200 -3.6009e+001 -1.0579e+002 -5.3124e+000 48739 90024,90128,90102
 5.9000e+000 90177  1.5837e+000 -1.1030e+002 -1.4453e+001 48739 90024,90076,90050
 5.9000e+000 90154 -1.2954e+001 -1.0059e+002  6.9434e+000 48739 89998,90128,90024
 5.9000e+000 90603 -3.2861e+001 -8.7752e+001  1.9681e+001 48335 90381,90485,90459
 5.9000e+000 90580 -4.4315e+001 -1.0360e+002  1.4163e+001 48335 90355,90485,90381
 5.9000e+000 90557 -1.8425e+001 -3.2701e+001  1.0431e+001 48335 90381,90433,90407
 5.9000e+000 90534 -3.2713e+001 -9.2354e+001  1.4170e+001 48335 90381,90459,90433
 5.9000e+000 90511  1.5081e+001 -7.0650e+001  2.8182e+001 48335 90329,90485,90355
 5.9000e+000 90753 -4.3143e-001 -5.6567e+001  3.5410e+001 47824 90776,90652,90704
 5.9000e+000 90730 -3.0467e+001 -1.0171e+002  1.6514e+001 47824 90626,90704,90652
 5.9000e+000 90802 -1.3440e+001 -7.3388e+001  2.8746e+001 47824 90678,90652,90776
 5.9000e+000 91131 -4.0638e+001 -1.3485e+002  5.5401e+000 47427 91154,90958,90906
 5.9000e+000 91108 -6.9296e+001 -1.4708e+002  5.2236e+000 47427 91154,90906,91036
 5.9000e+000 91085 -6.5119e+001 -1.1294e+002 -1.0181e+001 47427 90958,91010,90984
 5.9000e+000 91062 -4.1857e+001 -1.1795e+002  8.2319e+000 47427 90906,90958,90932
 5.9000e+000 91180 -5.6355e+001 -1.2983e+002 -1.3699e+001 47427 91010,90958,91154
 5.9000e+000 91203 -8.3496e+001 -1.4148e+002 -1.4463e+001 47427 91010,91154,91036
 5.9000e+000 91583 -6.2027e+001 -1.1680e+002 -7.9783e+000 46873 91309,91439,91335
 5.9000e+000 91560 -6.6514e+001 -1.1775e+002 -6.4400e+000 46873 91309,91465,91439
 5.9000e+000 91537 -9.4946e+001 -1.3837e+002 -3.6736e+001 46873 91361,91439,91413
 5.9000e+000 91514 -7.0146e+001 -1.2218e+002 -2.0048e+001 46873 91335,91439,91361
 5.9000e+000 91491 -3.1999e+001 -1.1458e+002 -3.1453e+001 46873 91361,91413,91387
 5.9000e+000 91880 -4.4064e+001 -1.3107e+002 -3.5697e+000 46526 91606,91710,91658
 5.9000e+000 91857 -4.4704e+001 -1.3697e+002  4.3603e-001 46526 91606,91762,91710
 5.9000e+000 91834 -3.0165e+001 -1.2644e+002 -1.3744e+001 46526 91606,91658,91632
 5.9000e+000 91811 -5.0690e+001 -1.2126e+002  2.1866e+000 46526 91658,91710,91684
 5.9000e+000 91788 -3.1105e+001 -9.4431e+001  4.6733e+000 46526 91710,91762,91736
 5.9000e+000 92211 -1.9893e+001 -4.9498e+001 -4.4490e+000 45700 91986,92064,92038
 5.9000e+000 92188 -2.8325e+001 -7.4283e+001  4.2032e-001 45700 91986,92116,92064
 5.9000e+000 92165 -1.4328e+001 -3.9818e+001 -9.2430e+000 45700 91986,92038,92012
 5.9000e+000 92142 -1.8489e+001 -8.2796e+001  1.0595e+001 45700 92064,92116,92090
 5.9000e+000 92766 -5.6605e+001 -1.1098e+002  6.3667e+000 45452 92446,92602,92576
 5.9000e+000 92743 -9.0027e+001 -1.1043e+002 -1.3558e+001 45452 92420,92602,92446
 5.9000e+000 92720 -6.8904e+001 -1.1824e+002  1.8784e+001 45452 92789,92524,92498
 5.9000e+000 92697 -7.9531e+001 -1.1507e+002  1.5516e+001 45452 92789,92498,92446
 5.9000e+000 92674 -6.6430e+001 -1.2385e+002  2.6745e-001 45452 92524,92576,92550
 5.9000e+000 92651 -1.0542e+002 -1.2028e+002  6.3758e+001 45452 92446,92498,92472
 5.9000e+000 92628 -4.8444e+001 -1.2450e+002 -2.7705e+001 45452 92394,92602,92420
 5.9000e+000 92815 -6.1311e+001 -1.1888e+002  1.5855e+001 45452 92576,92524,92789
 5.9000e+000 92838 -6.9838e+001 -1.1422e+002  1.3944e+001 45452 92576,92789,92446
 5.9000e+000 92939 -5.0773e+001 -1.5420e+002 -3.2320e+001 44998 92861,92913,92887
 5.9000e+000 93319 -1.2083e+001 -1.5880e+002  2.8952e+001 44601 93123,93201,93149
 5.9000e+000 93296 -4.4495e+001 -1.5737e+002 -1.5732e+001 44601 93045,93201,93123
 5.9000e+000 93273 -3.4750e+001 -8.8096e+001 -2.2266e+001 44601 93045,93123,93071
 5.9000e+000 93250 -3.1487e+001 -8.1862e+001 -1.5183e+001 44601 93071,93123,93097
 5.9000e+000 93227 -2.5974e+000 -8.6752e+001  3.0257e+001 44601 93149,93201,93175
 5.9000e+000 93697 -3.2556e+001 -1.7298e+002  9.2012e+000 44026 93720,93553,93527
 5.9000e+000 93674 -5.8365e+001 -1.4627e+002  1.2929e+001 44026 93720,93527,93449
 5.9000e+000 93651 -6.5146e+001 -1.5212e+002 -2.7644e+000 44026 93449,93527,93501
 5.9000e+000 93628 -4.6390e+001 -1.1675e+002 -2.4066e+001 44026 93423,93579,93449
 5.9000e+000 93605 -1.5797e+001 -1.2231e+002  9.8675e+000 44026 93449,93501,93475
 5.9000e+000 93746 -1.4328e+001 -1.5306e+002  1.6174e+000 44026 93579,93553,93720
 5.9000e+000 93769 -4.1530e+001 -1.2675e+002  5.7721e+000 44026 93579,93720,93449
 5.9000e+000 94066 -3.4921e+001 -1.3367e+002 -1.8338e+001 43579 94089,93818,93792
 5.9000e+000 94043 -5.5185e+001 -1.5007e+002 -1.1264e+001 43579 94161,94089,93792
 5.9000e+000 94020 -5.4383e+001 -1.5105e+002 -4.3034e+000 43579 94161,93792,93948
 5.9000e+000 93997 -5.7843e+001 -1.1635e+002 -5.4757e+000 43579 94233,93870,93818
 5.9000e+000 93974 -3.3032e+001 -1.2039e+002  4.1198e+000 43579 93818,93870,93844
 5.9000e+000 94115 -5.6704e+001 -1.1737e+002 -1.2713e+001 43579 94233,93818,94089
 5.9000e+000 94138 -7.4145e+001 -1.3322e+002 -8.6583e+000 43579 93896,94089,93922
 5.9000e+000 94187 -5.0697e+001 -1.3925e+002 -1.1580e+001 43579 93922,94089,94161
 5.9000e+000 94210 -4.9836e+001 -1.3940e+002 -3.9496e+000 43579 93922,94161,93948
 5.9000e+000 94259 -6.5234e+001 -1.3017e+002 -2.6786e+000 43579 93896,93870,94233
 5.9000e+000 94282 -6.1548e+001 -1.2822e+002 -1.1033e+001 43579 93896,94233,94089
 5.9000e+000 94481 -4.6473e+001 -1.3808e+002 -1.1615e+000 43239 94305,94383,94357
 5.9000e+000 94458 -4.0592e+001 -1.2659e+002  1.5203e+001 43239 94305,94409,94383
 5.9000e+000 94435 -3.6655e+001 -1.4530e+002 -3.7997e+000 43239 94305,94357,94331
 5.9000e+000 94633 -1.4853e+001 -8.4349e+001  1.9698e+001 42827 94656,94532,94506
 5.9000e+000 94610 -3.7156e+001 -9.4724e+001  2.2468e+001 42827 94728,94656,94506
 5.9000e+000 94682 -1.9712e+001 -9.7854e+001  1.6422e+001 42827 94558,94532,94656
 5.9000e+000 94705 -6.2805e+000 -9.5585e+001  9.6557e+000 42827 94988,94860,94656
 5.9000e+000 94754 -2.0104e+001 -8.4223e+001  6.1847e+000 42827 94988,94656,94728
 5.9000e+000 94886  4.2817e+000 -9.0521e+001  1.1166e+001 42827 94558,94656,94860
 5.9000e+000 95014  5.3084e+000 -8.5834e+001  5.3819e+000 42827 94584,94860,94988
 5.9000e+000 95037 -6.9371e+000 -7.5757e+001  1.8893e+000 42827 94584,94988,94728
 5.9000e+000 95236 -1.4804e+001 -1.0083e+002  1.4286e+001 42537 95259,95112,95060
 5.9000e+000 95213 -2.0655e+001 -9.6157e+001  1.2341e+001 42537 95259,95060,95164
 5.9000e+000 95190 -6.1621e+000 -1.0336e+002 -9.9849e-001 42537 95060,95112,95086
 5.9000e+000 95285 -1.8753e+001 -1.0280e+002  1.1883e+001 42537 95138,95112,95259
 5.9000e+000 95308 -2.5099e+001 -1.0034e+002  9.0864e+000 42537 95138,95259,95164
 5.9000e+000 95816 -4.5848e+001 -1.3118e+002 -8.2354e+000 41969 95493,95597,95519
 5.9000e+000 95793 -6.7725e+001 -1.2159e+002  1.2209e+001 41969 95493,95649,95597
 5.9000e+000 95770 -5.0531e+001 -1.1389e+002  1.0344e+001 41969 95493,95675,95649
 5.9000e+000 95747 -5.3804e+001 -1.5972e+002  1.0395e+001 41969 95597,95649,95623
 5.9000e+000 95724 -7.5347e+001 -1.1999e+002 -1.4508e+001 41969 95519,95597,95571
 5.9000e+000 95701 -6.7116e+001 -1.0539e+002 -2.8736e+001 41969 95519,95571,95545
 5.9000e+000 96371 -5.7733e+001 -1.4196e+002  1.6798e+001 41579 96025,96207,96181
 5.9000e+000 96348  1.7303e+001 -1.0738e+002 -5.8298e+000 41579 95999,96207,96025
 5.9000e+000 96325 -6.6879e+001 -1.0741e+002 -1.2462e+001 41579 96129,96181,96155
 5.9000e+000 96302 -2.4293e+001 -9.8331e+001  1.2699e-002 41579 96025,96181,96129
 5.9000e+000 96279 -5.5622e+001 -1.4869e+002  2.0360e+001 41579 96025,96129,96051
 5.9000e+000 96256 -6.0743e+001 -1.3247e+002  1.8304e+001 41579 96051,96103,96077
 5.9000e+000 96233 -2.3421e+001 -1.0166e+002  2.9834e-001 41579 96051,96129,96103
 5.9000e+000 96877 -1.5994e+001 -9.0142e+001 -1.0807e+001 41182 96972,96900,96632
 5.9000e+000 96854 -1.9768e+001 -6.6099e+001 -1.0638e+001 41182 96900,96554,96736
 5.9000e+000 96831 -1.5234e+001 -9.0265e+001 -8.9425e+000 41182 96972,96632,96580
 5.9000e+000 96808 -1.8997e+001 -8.3768e+001  9.6975e+000 41182 96632,96684,96658
 5.9000e+000 96785 -3.5936e+001 -9.5704e+001  9.9876e+000 41182 96684,96736,96710
 5.9000e+000 96762 -5.3454e+001 -1.1685e+002  1.9572e+001 41182 96580,96632,96606
 5.9000e+000 96926 -1.4421e+001 -9.9846e+001 -1.0642e+001 41182 96684,96632,96900
 5.9000e+000 96949 -2.8540e+001 -8.8755e+001 -1.8000e+001 41182 96684,96900,96736
 5.9000e+000 96998 -1.9276e+001 -9.1576e+001 -1.0999e+001 41182 96554,96900,96972
 5.9000e+000 97021 -1.8985e+001 -9.1837e+001 -8.9136e+000 41182 96554,96972,96580
 5.9000e+000 97576 -7.6874e+001 -1.9732e+002 -2.7077e+001 40678 97230,97412,97282
 5.9000e+000 97553 -5.9102e+000 -1.6284e+002  8.4564e+000 40678 97204,97412,97230
 5.9000e+000 97530 -1.9890e+001 -1.4896e+002 -2.5189e+001 40678 97282,97360,97308
 5.9000e+000 97507 -3.3144e+001 -1.5177e+002 -8.9416e+000 40678 97282,97412,97360
 5.9000e+000 97484 -6.7594e+000 -8.8596e+001 -2.1871e+001 40678 97308,97360,97334
 5.9000e+000 97461 -4.2394e+001 -1.8267e+002 -5.0305e+000 40678 97360,97412,97386
 5.9000e+000 97438 -4.4164e+001 -1.2787e+002 -1.7791e+001 40678 97230,97282,97256
 5.9000e+000 97976 -6.4777e+001 -1.0756e+002 -2.2926e+000 40244 97702,97832,97754
 5.9000e+000 97953 -5.3579e+001 -1.0358e+002 -5.3024e+000 40244 97702,97858,97832
 5.9000e+000 97930 -6.9551e+001 -1.2602e+002 -2.5442e+001 40244 97702,97754,97728
 5.9000e+000 97907 -5.1889e+001 -1.1490e+002  1.2662e+001 40244 97780,97832,97806
 5.9000e+000 97884 -5.6863e+001 -1.0317e+002 -3.1444e-001 40244 97754,97832,97780
 5.9000e+000 98482 -3.0986e+001 -9.5524e+001  1.6079e+001 39690 98505,98185,98159
 5.9000e+000 98459 -3.2985e+001 -9.1569e+001  1.4987e+001 39690 98505,98159,98289
 5.9000e+000 98436 -6.5982e+001 -1.4118e+002  3.9526e+001 39690 98159,98315,98289
 5.9000e+000 98413 -2.2582e+001 -8.3912e+001  1.2487e+001 39690 98211,98289,98263
 5.9000e+000 98390 -1.1861e+001 -5.1812e+001  7.1270e+000 39690 98211,98263,98237
 5.9000e+000 98367 -1.6458e+001 -8.2942e+001  1.2525e+001 39690 98159,98341,98315
 5.9000e+000 98531 -3.0286e+001 -9.3251e+001  1.4003e+001 39690 98211,98185,98505
 5.9000e+000 98554 -3.1857e+001 -8.7746e+001  1.3445e+001 39690 98211,98505,98289
 5.9000e+000 99109 -3.4225e+001 -8.8413e+001 -6.5016e+000 39072 99132,98867,98789
 5.9000e+000 99086 -3.3511e+001 -9.1191e+001 -8.7740e+000 39072 99132,98789,98763
 5.9000e+000 99063 -5.2042e+001 -1.4809e+002  1.4796e+001 39072 98867,98945,98919
 5.9000e+000 99040 -2.9765e+001 -9.6382e+001 -4.4407e-001 39072 98789,98867,98841
 5.9000e+000 99017 -6.7922e+001 -1.0991e+002  3.8787e+000 39072 98867,98919,98893
 5.9000e+000 98994 -4.6561e+001 -8.6543e+001  1.8875e+001 39072 98789,98841,98815
 5.9000e+000 98971 -4.7641e+001 -1.0257e+002 -7.5736e+000 39072 98737,98945,98763
 5.9000e+000 99158 -3.3313e+001 -9.1992e+001 -7.0805e+000 39072 98945,98867,99132
 5.9000e+000 99181 -3.3277e+001 -9.6632e+001 -8.0373e+000 39072 98945,99132,98763
 5.9000e+000 99510 -2.9318e+001 -8.1679e+001  6.0412e+000 38668 99311,99389,99363
 5.9000e+000 99487 -2.5616e+001 -8.5843e+001 -2.3836e+000 38668 99285,99389,99311
 5.9000e+000 99464 -5.5961e+001 -1.1680e+002  1.0527e+001 38668 99285,99415,99389
 5.9000e+000 99441 -2.5838e+001 -8.7433e+001  9.2133e+000 38668 99311,99363,99337
 5.9000e+000 99758 -3.3048e+001 -1.3204e+002  2.2509e+001 38164 99781,99611,99585
 5.9000e+000 99735 -1.3270e+001 -1.3485e+002  2.5060e+001 38164 99781,99585,99533
 5.9000e+000 99712 -4.9892e+001 -1.2419e+002  1.6582e+001 38164 99611,99663,99637
 5.9000e+000 99689  6.4305e+000 -1.3067e+002 -7.2296e+000 38164 99533,99585,99559
 5.9000e+000 99807 -4.4323e+001 -1.3065e+002  2.7978e+001 38164 99663,99611,99781
 5.9000e+000 99830 -2.9595e+001 -1.3616e+002  2.7357e+001 38164 99663,99781,99533
 5.9000e+000 100232 -3.4283e+001 -9.4962e+001  1.0856e+000 37702 99984,100114,100088
 5.9000e+000 100209 -2.6680e+001 -9.9026e+001  9.4759e+000 37702 99958,100114,99984
 5.9000e+000 100186 -5.1565e+001 -1.1954e+002 -7.7941e+000 37702 100010,100088,100036
 5.9000e+000 100163 -3.3460e+001 -9.4733e+001  1.9928e-001 37702 99984,100088,100010
 5.9000e+000 100140 -2.7985e+001 -8.4169e+001 -2.5521e+001 37702 100036,100088,100062
 5.9000e+000 100640 -7.9631e+001 -1.1455e+002  1.4900e+001 37262 100493,100545,100519
 5.9000e+000 100617 -7.0308e+001 -1.3027e+002  7.2246e+000 37262 100441,100545,100493
 5.9000e+000 100594 -2.7141e+001 -9.7858e+001 -1.7069e+001 37262 100415,100545,100441
 5.9000e+000 100571 -7.9483e+001 -1.4001e+002 -5.7926e+000 37262 100441,100493,100467
 5.9000e+000 101146 -5.9493e+001 -9.7995e+001 -1.0976e+000 36872 100823,100979,100849
 5.9000e+000 101123 -5.7922e+001 -9.0903e+001 -9.5380e+000 36872 100823,101005,100979
 5.9000e+000 101100 -5.8950e+001 -1.4114e+002  1.8943e+001 36872 101169,100901,100849
 5.9000e+000 101077 -4.5380e+001 -1.1251e+002  1.0116e+001 36872 101169,100849,100979
 5.9000e+000 101054 -3.3319e+001 -1.1824e+002 -7.9602e+000 36872 100927,100979,100953
 5.9000e+000 101031 -3.2521e+001 -1.5743e+002  2.6427e+001 36872 100849,100901,100875
 5.9000e+000 101195 -4.0794e+001 -1.4946e+002  1.1148e+000 36872 100927,100901,101169
 5.9000e+000 101218 -3.2438e+001 -1.3419e+002 -6.0565e+000 36872 100927,101169,100979
 5.9000e+000 101773 -6.3201e+001 -1.0415e+002  2.0994e+001 36418 101479,101609,101583
 5.9000e+000 101750 -6.7255e+001 -1.0786e+002  1.8203e+001 36418 101453,101609,101479
 5.9000e+000 101727 -4.4536e+001 -1.1115e+002 -3.5487e-001 36418 101796,101531,101479
 5.9000e+000 101704 -6.2757e+001 -1.2409e+002  9.4515e+000 36418 101796,101479,101583
 5.9000e+000 101681 -3.8254e+001 -9.5069e+001 -2.6401e+000 36418 101479,101531,101505
 5.9000e+000 101658 -1.4458e+000 -9.3551e+001  4.1894e+000 36418 101401,101609,101453
 5.9000e+000 101635 -1.8910e+001 -8.8440e+001  4.7021e+000 36418 101401,101453,101427
 5.9000e+000 101822 -4.8589e+001 -1.0141e+002 -1.7710e+001 36418 101557,101531,101796
 5.9000e+000 101845 -6.9210e+001 -1.0539e+002 -8.6682e+000 36418 101557,101796,101583
 5.9000e+000 102174 -5.4992e+000 -4.3671e+001 -1.3764e+001 35914 101949,102053,101975
 5.9000e+000 102151 -2.0182e+001 -4.8472e+001 -1.0346e+001 35914 101949,102079,102053
 5.9000e+000 102128 -2.4001e+001 -5.2423e+001 -7.6448e+000 35914 101975,102053,102027
 5.9000e+000 102105 -1.7156e+001 -4.0178e+001 -1.0391e+001 35914 101975,102027,102001
 5.9000e+000 102631 -2.2634e+001 -1.1598e+002  3.0011e+000 35574 102383,102513,102487
 5.9000e+000 102608 -1.5828e+001 -1.2041e+002  2.5569e+000 35574 102357,102513,102383
 5.9000e+000 102585 -3.9182e+001 -1.2069e+002  4.2370e+000 35574 102409,102487,102435
 5.9000e+000 102562 -3.9348e+001 -1.2280e+002  3.1357e+000 35574 102383,102487,102409
 5.9000e+000 102539 -3.9616e+001 -1.2334e+002  4.9568e+000 35574 102435,102487,102461
 5.9000e+000 103009 -6.2288e+001 -1.1493e+002 -8.2785e+000 35170 102761,102865,102787
 5.9000e+000 102986 -3.7707e+001 -1.0136e+002  1.0354e+001 35170 102761,102891,102865
 5.9000e+000 102963 -5.4737e+001 -1.1141e+002 -2.8823e+000 35170 102787,102865,102813
 5.9000e+000 102940 -3.0908e+001 -9.7513e+001  1.2226e+001 35170 102735,102891,102761
 5.9000e+000 102917 -5.6459e+001 -1.1738e+002 -8.6204e+000 35170 102813,102865,102839
 5.9000e+000 103257 -1.1049e+001 -8.5131e+001 -1.3950e+001 34659 103280,103058,103032
 5.9000e+000 103234 -1.6949e+001 -8.9661e+001 -7.8403e+000 34659 103280,103032,103162
 5.9000e+000 103211 -3.0068e+001 -9.0508e+001 -7.3973e+000 34659 103084,103162,103110
 5.9000e+000 103188 -3.9106e+001 -1.1055e+002 -5.4967e+000 34659 103110,103162,103136
 5.9000e+000 103306 -2.1451e+001 -7.9627e+001 -1.2052e+001 34659 103084,103058,103280
 5.9000e+000 103329 -2.5145e+001 -8.4347e+001 -5.1862e+000 34659 103084,103280,103162
 5.9000e+000 103837 -9.9542e+000 -1.2833e+002  4.1639e+000 34247 103860,103566,103540
 5.9000e+000 103814 -1.7974e+001 -1.2963e+002  2.6168e-001 34247 103932,103860,103540
 5.9000e+000 103791 -1.3701e+001 -1.4456e+002 -1.4828e+001 34247 103932,103540,103670
 5.9000e+000 103768 -1.3519e+001 -1.1882e+002  3.2750e+000 34247 103566,103618,103592
 5.9000e+000 103745 -5.2243e+001 -1.2108e+002 -1.8755e+001 34247 103540,103696,103670
 5.9000e+000 103722 -6.9333e+001 -1.3482e+002  1.9502e+001 34247 103514,103696,103540
 5.9000e+000 103886 -2.7349e+001 -1.2779e+002 -1.8780e+000 34247 103618,103566,103860
 5.9000e+000 103909 -3.0123e+001 -1.3726e+002  3.2930e+000 34247 103618,103860,103644
 5.9000e+000 103958 -3.1077e+001 -1.6569e+002 -3.0486e+000 34247 103644,103860,103932
 5.9000e+000 103981 -2.6906e+001 -1.7952e+002 -1.8871e+001 34247 103644,103932,103670
 5.9000e+000 104300 -6.3634e+001 -1.3593e+002 -5.0965e+000 33843 104052,104182,104156
 5.9000e+000 104277 -8.1796e+001 -1.2639e+002 -1.0740e+000 33843 104026,104182,104052
 5.9000e+000 104254 -6.2116e+001 -1.5279e+002  3.5762e+000 33843 104078,104156,104130
 5.9000e+000 104231 -7.6132e+001 -1.4709e+002 -1.0833e-001 33843 104052,104156,104078
 5.9000e+000 104208 -9.4051e+001 -1.6071e+002  4.1967e+000 33843 104078,104130,104104
 5.9000e+000 104499 -4.3030e+001 -1.3587e+002 -1.0955e+001 33282 104594,104522,104375
 5.9000e+000 104476 -3.8317e+001 -1.3482e+002  4.5773e+000 33282 104522,104323,104427
 5.9000e+000 104453 -2.6161e+001 -1.4435e+002 -1.0263e+001 33282 104594,104375,104349
 5.9000e+000 104548 -4.5650e+001 -1.2051e+002 -5.2004e+000 33282 104401,104375,104522
 5.9000e+000 104571 -3.1487e+001 -1.1829e+002  4.3933e+000 33282 104401,104522,104427
 5.9000e+000 104620 -2.1875e+001 -1.2040e+002 -3.4094e+000 33282 104323,104522,104594
 5.9000e+000 104643 -1.1108e+001 -1.3491e+002 -5.1187e+000 33282 104323,104594,104349
 5.9000e+000 104942 -5.7754e+001 -1.4841e+002  1.8522e+001 32728 104694,104772,104720
 5.9000e+000 104919 -4.5053e+001 -1.3583e+002  7.0928e+000 32728 104694,104824,104772
 5.9000e+000 104896 -7.6116e+001 -1.3163e+002  2.1167e+001 32728 104720,104772,104746
 5.9000e+000 104873 -3.5760e+001 -1.5613e+002  8.7628e+000 32728 104772,104824,104798
 5.9000e+000 104850 -3.8054e+001 -1.3446e+002  7.0565e+000 32728 104668,104824,104694
 5.9000e+000 105373 -4.4391e+001 -1.4157e+002 -6.2520e+000 32274 105396,105102,105076
 5.9000e+000 105350 -4.9676e+001 -1.5462e+002 -2.1137e+000 32274 105396,105076,105206
 5.9000e+000 105327 -6.5855e+001 -1.6161e+002  7.3023e+000 32274 105154,105206,105180
 5.9000e+000 105304 -2.3399e+001 -1.4906e+002 -1.3561e+001 32274 105076,105232,105206
 5.9000e+000 105281 -5.4758e+001 -1.2854e+002 -2.2664e+001 32274 105102,105154,105128
 5.9000e+000 105258 -7.4831e+001 -1.1789e+002 -2.3119e+001 32274 105050,105232,105076
 5.9000e+000 105422 -5.2927e+001 -1.2724e+002 -5.9278e+000 32274 105154,105102,105396
 5.9000e+000 105445 -5.7600e+001 -1.4037e+002 -2.6732e+000 32274 105154,105396,105206
 5.9000e+000 105644 -5.6781e+001 -1.5042e+002 -2.5526e+000 31620 105468,105546,105520
 5.9000e+000 105621 -4.6381e+001 -1.5996e+002 -7.6861e+000 31620 105468,105572,105546
 5.9000e+000 105598 -5.7097e+001 -1.6321e+002  7.6495e+000 31620 105468,105520,105494
 5.9000e+000 105794 -8.3107e+000 -1.2418e+002 -4.1753e+000 31158 105889,105817,105693
 5.9000e+000 105771 -1.7199e+001 -1.1068e+002 -8.3942e+000 31158 105817,105667,105745
 5.9000e+000 105843 -1.2896e+001 -1.5349e+002 -1.7156e+000 31158 105719,105693,105817
 5.9000e+000 105866 -4.8746e+000 -1.3092e+002 -7.2154e+000 31158 105719,105817,105745
 5.9000e+000 105915 -2.8326e+001 -1.3276e+002 -4.4006e+000 31158 105667,105817,105889
 5.9000e+000 106270 -5.4832e+001 -1.2678e+002 -1.0167e+000 30818 106293,106071,106045
 5.9000e+000 106247 -6.3878e+001 -1.4727e+002 -8.1057e+000 30818 106293,106045,106175
 5.9000e+000 106224 -4.4850e+001 -1.1879e+002  7.2608e+000 30818 106123,106175,106149
 5.9000e+000 106201 -5.7210e+001 -1.3069e+002  1.4044e+001 30818 106071,106123,106097
 5.9000e+000 106319 -5.5910e+001 -1.1876e+002  6.4998e+000 30818 106123,106071,106293
 5.9000e+000 106342 -5.7198e+001 -1.2957e+002  5.1640e-001 30818 106123,106293,106175
 5.9000e+000 106492 -5.3058e+001 -1.1732e+002  2.2779e+001 30414 106645,106391,106365
 5.9000e+000 106469 -1.4716e+001 -1.1639e+002  3.6210e+001 30414 106515,106365,106443
 5.9000e+000 106541 -3.1167e+001 -1.2309e+002  2.6488e+001 30414 106645,106365,106515
 5.9000e+000 106671 -2.2751e+001 -1.4012e+002  4.6492e+001 30414 106417,106391,106645
 5.9000e+000 106694  2.6473e+001 -1.2930e+002  4.0244e+001 30414 106417,106645,106515
 5.9000e+000 106942 -2.8100e+001 -1.8137e+002 -1.0391e+000 29910 106965,106795,106769
 5.9000e+000 106919 -2.3360e+001 -1.6371e+002  4.2929e+000 29910 106965,106769,106717
 5.9000e+000 106896 -2.6697e+001 -1.3768e+002 -1.6426e+001 29910 106795,106847,106821
 5.9000e+000 106873 -1.2413e+001 -1.4130e+002  8.9329e+000 29910 106717,106769,106743
 5.9000e+000 106991 -3.8997e+001 -1.6182e+002  1.7824e+000 29910 106847,106795,106965
 5.9000e+000 107014 -3.0370e+001 -1.3834e+002  7.0398e+000 29910 106847,106965,106717
 5.9000e+000 107213 -3.6166e+001 -1.3513e+002  8.9075e+000 29413 107236,107063,107037
 5.9000e+000 107190 -3.4377e+001 -1.6031e+002  1.8262e+001 29413 107236,107037,107141
 5.9000e+000 107167 -4.5118e+001 -9.5675e+001  2.1498e+001 29413 107063,107115,107089
 5.9000e+000 107262 -3.4750e+001 -1.1832e+002  5.4057e+000 29413 107115,107063,107236
 5.9000e+000 107285 -2.9302e+001 -1.3722e+002  1.5563e+001 29413 107115,107236,107141
 5.9000e+000 107486 -1.6234e+001 -1.3054e+002  1.7726e+001 29009 107336,107388,107362
 5.9000e+000 107463 -8.2636e+000 -1.2604e+002  4.9454e+000 29009 107310,107388,107336
 5.9000e+000 107440 -1.0275e+001 -1.1894e+002  4.8729e+000 29009 107310,107414,107388
 5.9000e+000 107736 -5.5337e+001 -1.5013e+002 -4.9920e+000 28491 107537,107615,107563
 5.9000e+000 107713 -4.8243e+001 -1.4695e+002 -4.2265e+000 28491 107537,107641,107615
 5.9000e+000 107690 -3.1950e+001 -1.3911e+002  3.2423e+000 28491 107563,107615,107589
 5.9000e+000 107667 -4.8756e+001 -1.4398e+002 -3.8787e+000 28491 107511,107641,107537
 5.9000e+000 108118 -3.1946e+001 -1.4214e+002  5.2225e+000 27980 108141,107922,107844
 5.9000e+000 108095 -2.5404e+001 -1.5189e+002  4.6625e+000 27980 108141,107844,108000
 5.9000e+000 108072 -3.3334e+001 -1.4774e+002 -8.1391e+000 27980 107844,107922,107870
 5.9000e+000 108049 -3.5947e+001 -1.2808e+002 -4.3808e+000 27980 107870,107922,107896
 5.9000e+000 108026 -5.1034e+001 -1.3417e+002  1.6767e+001 27980 107922,107974,107948
 5.9000e+000 108167 -2.7138e+001 -1.4294e+002  7.5026e+000 27980 107974,107922,108141
 5.9000e+000 108190 -9.4737e+000 -1.4251e+002  9.8626e+000 27980 107974,108141,108000
 5.9000e+000 108745 -1.3681e+001 -9.0686e+001 -3.1672e+000 27376 108840,108768,108477
 5.9000e+000 108722 -2.5561e+001 -1.1145e+002 -2.3169e+001 27376 108768,108373,108581
 5.9000e+000 108699 -2.4489e+001 -7.9682e+001  1.6033e+001 27376 108840,108477,108451
 5.9000e+000 108676 -6.5219e+001 -9.6174e+001 -4.9174e+000 27376 108373,108451,108399
 5.9000e+000 108653 -2.4178e+001 -1.1234e+002  1.6916e+001 27376 108503,108581,108529
 5.9000e+000 108630 -2.7735e+001 -1.0886e+002  1.7490e+001 27376 108529,108581,108555
 5.9000e+000 108607 -7.3752e+001 -1.0304e+002  7.2621e+000 27376 108399,108451,108425
 5.9000e+000 108794 -2.3313e+001 -1.2137e+002 -3.5739e-001 27376 108503,108477,108768
 5.9000e+000 108817 -1.6082e+000 -1.1159e+002 -4.3931e+000 27376 108503,108768,108581
 5.9000e+000 108866 -5.2927e+001 -1.1188e+002 -1.1259e+001 27376 108373,108768,108840
 5.9000e+000 108889 -5.1152e+001 -9.6309e+001  8.6057e+000 27376 108373,108840,108451
 5.9000e+000 109186 -5.4610e+001 -1.4769e+002  1.5906e+001 26722 109209,108938,108912
 5.9000e+000 109163 -5.0564e+001 -1.3764e+002  1.4045e+001 26722 109281,109209,108912
 5.9000e+000 109140 -4.9107e+001 -1.3390e+002  1.3485e+001 26722 109281,108912,109042
 5.9000e+000 109117 -4.3792e+001 -1.5669e+002  7.0578e+000 26722 108938,108990,108964
 5.9000e+000 109094 -7.0283e+001 -1.2209e+002  9.0174e+000 26722 108912,109068,109042
 5.9000e+000 109235 -4.4850e+001 -1.4193e+002  1.3330e+001 26722 108990,108938,109209
 5.9000e+000 109258 -4.9192e+001 -1.5103e+002  1.1482e+001 26722 108990,109209,109016
 5.9000e+000 109307 -4.5695e+001 -1.4330e+002  7.4948e+000 26722 109016,109209,109281
 5.9000e+000 109330 -4.2784e+001 -1.3711e+002  6.2160e+000 26722 109016,109281,109042
 5.9000e+000 109732 -5.4264e+001 -1.2119e+002 -3.8557e+000 26310 109458,109588,109484
 5.9000e+000 109709 -5.0987e+001 -1.3340e+002 -1.3588e+001 26310 109458,109614,109588
 5.9000e+000 109686 -8.3858e+001 -1.4169e+002  1.9922e+001 26310 109510,109562,109536
 5.9000e+000 109663 -8.6827e+001 -1.3545e+002  8.1758e+000 26310 109484,109562,109510
 5.9000e+000 109640 -5.9838e+001 -1.2429e+002 -2.2871e+000 26310 109484,109588,109562
 5.9000e+000 110159 -3.3475e+001 -1.2271e+002 -3.5344e+000 25642 110182,109940,109914
 5.9000e+000 110136 -2.9189e+001 -1.4059e+002  1.8792e+001 25642 110182,109914,109888
 5.9000e+000 110113 -4.3857e+001 -1.5068e+002 -1.9545e+001 25642 109966,110018,109992
 5.9000e+000 110090 -4.8610e+001 -1.4593e+002  1.1205e+001 25642 110254,109966,109940
 5.9000e+000 110067 -6.4076e+001 -1.3724e+002  8.8905e+000 25642 109862,110018,109888
 5.9000e+000 110044 -6.0697e+001 -1.1356e+002  2.0622e+001 25642 109836,110018,109862
 5.9000e+000 110208 -4.6997e+001 -1.3440e+002  8.3729e+000 25642 110254,109940,110182
 5.9000e+000 110231 -5.1598e+001 -1.4303e+002  2.0070e+001 25642 110018,110182,109888
 5.9000e+000 110280 -4.1519e+001 -1.6059e+002  9.2848e+000 25642 110018,109966,110254
 5.9000e+000 110303 -4.2462e+001 -1.5210e+002  6.9512e+000 25642 110018,110254,110182
 5.9000e+000 110632 -6.4264e+001 -1.2573e+002 -7.2988e+000 25188 110407,110485,110433
 5.9000e+000 110609 -7.5738e+001 -1.3010e+002 -3.6697e+000 25188 110407,110537,110485
 5.9000e+000 110586 -7.0460e+001 -1.2973e+002 -2.5508e+001 25188 110433,110485,110459
 5.9000e+000 110563 -7.2002e+001 -1.4205e+002  1.5686e+001 25188 110485,110537,110511
 5.9000e+000 110831 -1.0551e+001 -1.2123e+002  3.8881e+000 24726 110854,110707,110655
 5.9000e+000 110808 -4.4524e+000 -1.3062e+002  1.3369e+001 24726 110854,110655,110759
 5.9000e+000 110785 -1.5147e+001 -1.2491e+002  6.6837e+000 24726 110655,110707,110681
 5.9000e+000 110880 -5.7615e+000 -1.1219e+002  5.6612e+000 24726 110733,110707,110854
 5.9000e+000 110903  2.5300e+000 -1.1702e+002  1.5829e+001 24726 110733,110854,110759
 5.9000e+000 111234 -3.4282e+000 -8.7806e+001 -2.2762e+000 24222 111257,111087,111035
 5.9000e+000 111211  1.0885e+001 -8.1380e+001  9.9614e+000 24222 111257,111035,111009
 5.9000e+000 111188 -1.5432e+001 -4.1875e+001 -2.1450e+001 24222 111035,111087,111061
 5.9000e+000 111165 -1.4785e+001 -7.4297e+001  2.5666e+000 24222 111087,111139,111113
 5.9000e+000 111283 -1.2480e+001 -7.2642e+001  4.3754e+000 24222 111139,111087,111257
 5.9000e+000 111306 -6.2681e+000 -6.1931e+001  1.2250e+001 24222 111139,111257,111009
 5.9000e+000 111625 -1.3948e+001 -1.1995e+002 -6.3758e+000 23732 111648,111481,111455
 5.9000e+000 111602 -1.3832e+001 -1.2039e+002 -6.4922e+000 23732 111648,111455,111377
 5.9000e+000 111579  2.2622e+001 -5.5720e+001  1.3546e+001 23732 111377,111429,111403
 5.9000e+000 111556 -2.0223e+000 -1.1957e+002 -3.9279e+000 23732 111377,111455,111429
 5.9000e+000 111533 -7.2971e+000 -1.0882e+002 -2.7292e+000 23732 111351,111507,111377
 5.9000e+000 111674 -1.3625e+001 -1.1916e+002 -5.8902e+000 23732 111507,111481,111648
 5.9000e+000 111697 -1.3996e+001 -1.2013e+002 -6.1031e+000 23732 111507,111648,111377
 5.9000e+000 112156 -3.3781e+001 -1.4452e+002  1.1114e+001 23278 112179,111908,111882
 5.9000e+000 112133 -3.1536e+001 -1.3344e+002  5.9815e+000 23278 112179,111882,112012
 5.9000e+000 112110 -9.3788e+000 -1.5695e+002  7.6337e-001 23278 111908,111960,111934
 5.9000e+000 112087 -1.2757e+001 -1.1725e+002 -1.6216e+000 23278 111882,112038,112012
 5.9000e+000 112064 -2.7925e+001 -1.1986e+002 -1.8665e+000 23278 111960,112012,111986
 5.9000e+000 112205 -3.2030e+001 -1.3927e+002  2.0716e+000 23278 111960,111908,112179
 5.9000e+000 112228 -2.6542e+001 -1.2673e+002 -3.7824e+000 23278 111960,112179,112012
 5.9000e+000 112685 -8.7081e+001 -1.9875e+002 -1.8505e+001 22938 112489,112567,112541
 5.9000e+000 112662 -7.4026e+001 -1.6900e+002 -1.6600e+001 22938 112437,112567,112489
 5.9000e+000 112639 -5.2972e+001 -1.5074e+002 -2.6345e+000 22938 112489,112541,112515
 5.9000e+000 112616 -8.3914e+001 -1.6085e+002 -1.4395e+001 22938 112411,112567,112437
 5.9000e+000 112593 -6.7742e+001 -2.1564e+002 -3.3248e+000 22938 112437,112489,112463
 5.9000e+000 113191 -5.3322e+000 -1.4538e+002 -1.8392e+001 22534 113214,112998,112946
 5.9000e+000 113168 -2.6287e+001 -1.2756e+002 -9.5729e+000 22534 113286,113214,112946
 5.9000e+000 113145 -1.9663e+001 -1.2780e+002 -8.0512e+000 22534 113286,112946,112920
 5.9000e+000 113122 -5.8243e+001 -1.1669e+002 -2.6759e+001 22534 113358,113024,112998
 5.9000e+000 113099 -3.6471e+001 -1.2301e+002 -5.1424e+000 22534 112868,113050,112894
 5.9000e+000 113076 -4.0032e+001 -2.0590e+002 -3.4610e+001 22534 112946,112998,112972
 5.9000e+000 113240 -4.2681e+001 -1.4876e+002 -2.8269e+001 22534 113358,112998,113214
 5.9000e+000 113263 -3.5047e+001 -1.3399e+002 -6.3587e+000 22534 113050,113214,112894
 5.9000e+000 113312 -1.7668e+001 -1.2639e+002 -7.6551e+000 22534 112894,113214,113286
 5.9000e+000 113335 -1.0663e+001 -1.2698e+002 -7.3445e+000 22534 112894,113286,112920
 5.9000e+000 113384 -4.0921e+001 -8.6786e+001 -1.9598e+001 22534 113050,113024,113358
 5.9000e+000 113407 -1.8623e+001 -1.1356e+002 -1.7559e+001 22534 113050,113358,113214
 5.9000e+000 113785 -6.3314e+001 -1.6958e+002  4.3034e+000 21978 113808,113615,113511
 5.9000e+000 113762 -5.0814e+001 -1.7161e+002  1.1851e+001 21978 113808,113511,113667
 5.9000e+000 113739 -3.4787e+001 -1.4429e+002 -7.1768e+000 21978 113511,113615,113537
 5.9000e+000 113716  2.1155e+001 -1.2900e+002 -1.5091e+001 21978 113537,113615,113589
 5.9000e+000 113693 -1.5235e+001 -1.8542e+002  1.9680e+000 21978 113537,113589,113563
 5.9000e+000 113834 -6.5565e+001 -1.6959e+002  2.0390e+001 21978 113641,113615,113808
 5.9000e+000 113857 -3.2500e+001 -1.5681e+002  2.9406e+001 21978 113641,113808,113667
 5.9000e+000 114284 -4.5448e+001 -1.4077e+002  3.2502e+000 21517 114013,114117,114039
 5.9000e+000 114261 -5.2532e+001 -1.4035e+002  1.1461e+001 21517 113961,114117,114013
 5.9000e+000 114238 -4.9856e+001 -1.4100e+002  1.2123e+001 21517 113961,114013,113987
 5.9000e+000 114215 -7.6858e+001 -1.6293e+002 -1.1756e+001 21517 114039,114117,114091
 5.9000e+000 114192 -5.3633e+001 -1.1905e+002  1.3755e+001 21517 113961,114143,114117
 5.9000e+000 114169 -1.1959e+001 -1.3947e+002 -1.1666e+001 21517 114039,114091,114065
 5.9000e+000 114581 -2.1051e+001 -1.6323e+002  2.0572e+000 21027 114359,114463,114437
 5.9000e+000 114558 -7.2756e+000 -1.4720e+002  2.0250e+001 21027 114333,114463,114359
 5.9000e+000 114535 -4.4643e+000 -1.4687e+002 -4.5376e+000 21027 114359,114437,114385
 5.9000e+000 114512 -3.4297e+000 -1.4628e+002  1.8107e+001 21027 114307,114463,114333
 5.9000e+000 114489  3.2195e+001 -1.3899e+002 -5.9595e+000 21027 114385,114437,114411
 5.9000e+000 114912 -6.2408e+001 -1.4399e+002  2.2558e+000 20623 114713,114791,114765
 5.9000e+000 114889 -4.4165e+001 -1.3650e+002 -1.0179e+001 20623 114687,114791,114713
 5.9000e+000 114866 -2.8459e+001 -1.5077e+002 -1.2110e+001 20623 114687,114817,114791
 5.9000e+000 114843 -9.4255e+001 -1.7698e+002  1.5847e+001 20623 114713,114765,114739
 5.9000e+000 115290 -1.6787e+001 -1.3041e+002  7.3309e+000 20375 115313,115146,115094
 5.9000e+000 115267 -2.8255e+001 -1.2408e+002  1.3561e+001 20375 115313,115094,115042
 5.9000e+000 115244 -3.6818e+001 -1.1892e+002  4.0977e+000 20375 115385,115016,115172
 5.9000e+000 115221 -1.2374e+001 -1.1567e+002  1.0424e+001 20375 115042,115094,115068
 5.9000e+000 115198 -2.6771e+001 -1.5508e+002  7.6646e+000 20375 115094,115146,115120
 5.9000e+000 115339 -4.0768e+001 -1.5544e+002 -5.2775e+000 20375 115172,115146,115313
 5.9000e+000 115362 -2.1438e+001 -1.2305e+002  4.8723e+000 20375 115385,115172,115313
 5.9000e+000 115411 -4.5252e+001 -1.2351e+002  5.8891e+000 20375 115042,115016,115385
 5.9000e+000 115434 -3.7901e+001 -1.3298e+002  9.1082e+000 20375 115042,115385,115313
 5.9000e+000 115891 -6.7740e+001 -1.3312e+002  1.6807e+001 19971 115617,115747,115643
 5.9000e+000 115868 -5.8979e+001 -1.1303e+002  1.7899e+001 19971 115617,115773,115747
 5.9000e+000 115845 -4.5347e+001 -2.0928e+002  3.4713e+000 19971 115643,115721,115695
 5.9000e+000 115822 -1.6491e+000 -1.0218e+002  1.4889e-001 19971 115643,115747,115721
 5.9000e+000 115799 -3.7545e+001 -2.5554e+002 -1.9116e+001 19971 115643,115695,115669
 5.9000e+000 115992 -9.7261e+001 -2.5224e+002 -4.4713e+001 19659 115914,115966,115940
 5.9000e+000 116142 -1.6699e+001 -5.7748e+001  1.6293e+000 18997 116041,116093,116067
 5.9000e+000 116119 -3.3021e+001 -9.9731e+001  6.1732e+000 18997 116015,116093,116041
 5.9000e+000 116343 -2.7184e+001 -1.5271e+002 -4.0647e+000 18707 116193,116245,116219
 5.9000e+000 116320 -6.1291e+001 -1.6736e+002 -6.6438e+000 18707 116193,116271,116245
 5.9000e+000 116297 -5.7216e+001 -1.5133e+002 -1.2511e+001 18707 116167,116271,116193
 5.9000e+000 116747 -2.3717e+001 -1.3778e+002 -2.6359e+000 18301 116525,116629,116551
 5.9000e+000 116724 -1.3213e+001 -1.1702e+002  3.1960e+000 18301 116473,116629,116525
 5.9000e+000 116701 -8.4134e+000 -1.1380e+002 -6.4499e+000 18301 116473,116525,116499
 5.9000e+000 116678 -1.9655e+001 -1.4366e+002 -1.9401e+000 18301 116551,116603,116577
 5.9000e+000 116655 -2.8465e+001 -1.4894e+002 -4.3949e+000 18301 116551,116629,116603
 5.9000e+000 117147 -6.5977e+001 -1.5504e+002  5.7161e-001 17747 116899,117029,116925
 5.9000e+000 117124 -3.4662e+001 -1.1197e+002  1.7108e+001 17747 116873,117029,116899
 5.9000e+000 117101 -6.4882e+001 -1.5309e+002  1.0238e+000 17747 116925,117029,116951
 5.9000e+000 117078 -5.3810e+001 -1.2629e+002  4.0649e-001 17747 116951,117029,117003
 5.9000e+000 117055 -7.7055e+001 -1.7589e+002 -1.2462e+001 17747 116951,117003,116977
 5.9000e+000 117368  1.2254e+001 -1.5208e+002  4.0376e+000 17293 117244,117296,117270
 5.9000e+000 117345 -9.4871e+000 -1.5848e+002 -2.0687e+000 17293 117192,117296,117244
 5.9000e+000 117322 -2.6680e+001 -1.4802e+002 -1.6921e+000 17293 117192,117244,117218
 5.9000e+000 117699 -1.4939e+001 -1.2379e+002 -1.3442e+001 16896 117526,117604,117552
 5.9000e+000 117676 -8.0377e+001 -1.8953e+002  1.2866e+001 16896 117500,117604,117526
 5.9000e+000 117653 -8.5163e+001 -1.4870e+002 -7.0563e+000 16896 117552,117604,117578
 5.9000e+000 117630 -7.6832e+001 -2.4793e+002  1.9902e+001 16896 117474,117604,117500
 5.9000e+000 117849 -1.7012e+002 -3.3181e+002 -1.2526e+001 16534 117722,117774,117748
 5.9000e+000 117826 -1.3329e+002 -4.0168e+002 -5.4886e+001 16534 117722,117800,117774
 5.9000e+000 118070  6.5471e-001 -1.5606e+002  1.9708e+001 16194 117946,117998,117972
 5.9000e+000 118047 -2.4385e+001 -1.7615e+002  7.8288e+000 16194 117894,117998,117946
 5.9000e+000 118024 -8.9298e+001 -1.8127e+002  3.3361e-001 16194 117894,117946,117920
 5.9000e+000 118173 -6.3091e+000 -1.4288e+002  0.0000e+000 15968 118095,118147,118121
 5.9000e+000 118276 -4.2357e+001 -1.6293e+002  6.3376e-001 15433 118299,118198,118250
 5.9000e+000 118325 -4.2534e+001 -1.6334e+002  6.3791e-001 15433 118224,118198,118299
 5.9000e+000 118450 -7.9338e+001 -1.7377e+002  1.6303e+001 421 118372,118424,118398
 6.0000e+000 69891 -3.1051e+001 -1.6134e+002  6.3677e+000 68988 69447,69681,69629
 6.0000e+000 69868  7.9286e+000 -1.4536e+002  4.3652e+000 68988 69421,69681,69447
 6.0000e+000 69845 -3.4862e+000 -7.9534e+001  1.4310e+000 68988 69447,69629,69577
 6.0000e+000 69822 -5.1339e+001 -1.6698e+002 -1.8177e+001 68988 69447,69577,69473
 6.0000e+000 69799 -9.8408e+000 -1.9368e+002  3.2565e+001 68988 69629,69681,69655
 6.0000e+000 69776 -5.6265e+001 -1.0222e+002  2.7297e+000 68988 69577,69629,69603
 6.0000e+000 69753 -4.1038e+001 -1.5025e+002 -2.3666e+001 68988 69473,69577,69551
 6.0000e+000 69730 -5.5235e+001 -2.9541e+002 -2.7972e+001 68988 69473,69551,69525
 6.0000e+000 69707 -8.9416e+001 -1.9627e+002  9.0330e-001 68988 69473,69525,69499
 6.0000e+000 69992 -1.0275e+002 -1.7979e+002 -2.5895e+001 68676 69914,69966,69940
 6.0000e+000 70392 -8.1864e+001 -1.5514e+002  1.3889e+001 68478 70118,70248,70144
 6.0000e+000 70369 -1.0287e+001 -1.6424e+002  3.3392e+001 68478 70118,70274,70248
 6.0000e+000 70346 -4.7893e+001 -1.1526e+002  2.1573e-001 68478 70144,70222,70196
 6.0000e+000 70323 -3.9683e+001 -9.3810e+001 -5.2027e+000 68478 70144,70248,70222
 6.0000e+000 70300 -4.9439e+001 -1.2422e+002 -7.4777e-001 68478 70144,70196,70170
 6.0000e+000 70841  2.0375e+001 -1.0756e+002 -2.8214e+001 68280 70570,70622,70596
 6.0000e+000 70818 -5.6387e+001 -1.2079e+002 -6.6951e+000 68280 70544,70622,70570
 6.0000e+000 70795 -4.3192e+001 -9.1006e+001 -4.1365e+000 68280 70544,70674,70622
 6.0000e+000 70772 -3.8884e+001 -8.1542e+001  1.3762e+000 68280 70622,70674,70648
 6.0000e+000 70749 -5.9932e+001 -1.3505e+002  9.6646e+000 68280 70518,70674,70544
 6.0000e+000 70726  3.4984e+001 -1.4367e+002  3.7341e+001 68280 70518,70700,70674
 6.0000e+000 70991 -6.1965e+000 -5.6382e+002  1.7405e+001 67968 70864,70916,70890
 6.0000e+000 70968 -1.5188e+002 -5.5984e+002  6.7206e+001 67968 70864,70942,70916
 6.0000e+000 71141 -2.5564e+002 -4.8945e+002 -2.2964e+001 67770 71040,71092,71066
 6.0000e+000 71118 -2.2657e+002 -5.9267e+002  2.7600e+001 67770 71014,71092,71040
 6.0000e+000 71651 -4.0359e+001 -1.1228e+002 -1.6889e+001 67366 71746,71674,71458
 6.0000e+000 71628 -2.6838e+001 -8.6834e+001 -2.0785e+001 67366 71674,71354,71510
 6.0000e+000 71605 -3.8495e+001 -1.2554e+002 -1.4996e+001 67366 71746,71458,71432
 6.0000e+000 71582 -5.9658e+001 -1.2681e+002  7.2950e+000 67366 71354,71432,71380
 6.0000e+000 71559 -5.9502e+001 -9.4606e+001 -8.1800e+000 67366 71380,71432,71406
 6.0000e+000 71536 -2.9309e+001 -3.6858e+001 -3.3150e+000 67366 71328,71510,71354
 6.0000e+000 71700 -4.2899e+001 -1.0028e+002 -8.0811e+000 67366 71484,71458,71674
 6.0000e+000 71723 -3.3163e+001 -9.5920e+001 -7.1684e+000 67366 71484,71674,71510
 6.0000e+000 71772 -3.8236e+001 -9.6522e+001 -1.5319e+001 67366 71354,71674,71746
 6.0000e+000 71795 -3.4606e+001 -1.0733e+002 -1.5315e+001 67366 71354,71746,71432
 6.0000e+000 71896 -9.2668e+001 -1.9549e+002  0.0000e+000 67146 71818,71870,71844
 6.0000e+000 71997 -9.8157e+001 -1.7974e+002  3.5932e+001 66948 71919,71971,71945
 6.0000e+000 72149 -1.9467e+001 -1.2315e+002 -1.4764e+001 66700 72172,72074,72048
 6.0000e+000 72126 -5.3408e+001 -1.4033e+002 -5.7717e+000 66700 72172,72048,72022
 6.0000e+000 72198 -7.8198e+001 -1.5075e+002  8.8036e+000 66700 72244,72172,72100
 6.0000e+000 72221 -6.7308e+001 -1.3757e+002 -7.0767e+000 66700 72100,72172,72022
 6.0000e+000 72270 -4.7764e+001 -8.3592e+001 -1.0130e+001 66700 72074,72172,72244
 6.0000e+000 72623 -5.6043e+001 -1.3107e+002  2.6461e+000 66502 72424,72502,72450
 6.0000e+000 72600 -4.8531e+001 -1.1196e+002  2.5040e+000 66502 72398,72502,72424
 6.0000e+000 72577 -3.9766e+001 -1.2577e+002 -1.6565e+000 66502 72398,72528,72502
 6.0000e+000 72554 -6.0114e+001 -1.1910e+002 -4.2321e-001 66502 72450,72502,72476
 6.0000e+000 72920 -8.4539e+001 -1.6869e+002  4.0172e+000 65941 72672,72776,72750
 6.0000e+000 72897 -8.0480e+001 -1.4473e+002  1.5916e+001 65941 72646,72776,72672
 6.0000e+000 72874 -7.4527e+001 -1.6635e+002  6.0179e+000 65941 72672,72750,72724
 6.0000e+000 72851 -7.5915e+001 -1.3552e+002  1.2481e+001 65941 72672,72724,72698
 6.0000e+000 72828 -6.0617e+001 -1.4092e+002  1.3427e+001 65941 72646,72802,72776
 6.0000e+000 73241 -3.3056e+001 -1.1798e+002  4.5997e+000 65743 73264,73071,73045
 6.0000e+000 73218 -5.6746e+001 -1.3210e+002  1.1369e+001 65743 73480,73264,73045
 6.0000e+000 73195 -4.5141e+001 -1.1617e+002 -1.1633e+000 65743 73336,72967,73097
 6.0000e+000 73172 -7.0438e+001 -1.0776e+002 -9.1893e+000 65743 73408,72993,72967
 6.0000e+000 73149 -4.2460e+001 -1.1744e+002 -1.7296e+000 65743 72967,73123,73097
 6.0000e+000 73290 -3.9045e+001 -1.2079e+002  1.4701e+000 65743 73097,73071,73264
 6.0000e+000 73313 -4.1602e+001 -1.1316e+002  3.1404e+000 65743 73336,73097,73264
 6.0000e+000 73362 -6.1502e+001 -1.1966e+002 -5.6054e+000 65743 73408,72967,73336
 6.0000e+000 73385 -3.4678e+001 -1.1068e+002  7.0733e-001 65743 73019,73336,73264
 6.0000e+000 73434 -5.5571e+001 -8.4198e+001  6.3719e+000 65743 73019,72993,73408
 6.0000e+000 73457 -3.5913e+001 -1.0086e+002  5.1663e+000 65743 73019,73408,73336
 6.0000e+000 73506 -2.8539e+001 -8.2615e+001  4.4580e-002 65743 73019,73264,73480
 6.0000e+000 73989 -1.1171e+001 -9.8567e+001  1.1228e+001 65453 73793,73845,73819
 6.0000e+000 73966 -5.4925e+001 -1.0990e+002  1.3089e+001 65453 73741,73845,73793
 6.0000e+000 73943 -2.0200e+001 -9.0873e+001  5.7397e+000 65453 73715,73845,73741
 6.0000e+000 73920 -4.4785e+001 -1.2012e+002  2.2124e+001 65453 73741,73793,73767
 6.0000e+000 73897 -1.5682e+000 -5.4471e+001 -7.6580e-001 65453 73715,73871,73845
 6.0000e+000 74357 -2.9332e+001 -1.0700e+002 -3.2823e+001 65141 74380,74138,74086
 6.0000e+000 74334 -5.4226e+001 -1.4943e+002 -2.2206e+001 65141 74380,74086,74060
 6.0000e+000 74311 -5.6754e+001 -1.4462e+002 -6.8401e+000 65141 74138,74190,74164
 6.0000e+000 74288 -5.2175e+001 -1.6148e+002 -6.4403e+000 65141 74060,74216,74190
 6.0000e+000 74265 -5.4678e+001 -1.6974e+002  2.3817e+000 65141 74034,74216,74060
 6.0000e+000 74242 -2.8108e+001 -6.6301e+001 -1.4123e+001 65141 74086,74138,74112
 6.0000e+000 74406 -4.4370e+001 -1.4425e+002 -1.2507e+001 65141 74190,74138,74380
 6.0000e+000 74429 -5.2220e+001 -1.5915e+002 -5.7335e+000 65141 74190,74380,74060
 6.0000e+000 74937 -6.4036e+001 -1.2015e+002 -2.7455e+001 64737 74614,74666,74640
 6.0000e+000 74914 -7.7493e+001 -1.4604e+002 -1.9899e+001 64737 74614,74796,74666
 6.0000e+000 74891 -5.5412e+001 -9.7497e+001 -1.3256e+000 64737 74960,74718,74666
 6.0000e+000 74868 -5.1952e+001 -1.0861e+002 -1.1196e+001 64737 74960,74666,74770
 6.0000e+000 74845 -5.4109e+001 -9.4276e+001 -1.2301e+001 64737 74666,74796,74770
 6.0000e+000 74822 -5.0493e+001 -1.0484e+002  3.6840e+000 64737 74666,74718,74692
 6.0000e+000 74986 -5.7401e+001 -1.0893e+002 -4.1711e+000 64737 74744,74718,74960
 6.0000e+000 75009 -5.8834e+001 -1.2627e+002 -1.4815e+001 64737 74744,74960,74770
 6.0000e+000 75306 -3.1505e+001 -1.0580e+002  1.8191e+001 64133 75329,75110,75084
 6.0000e+000 75283 -4.1772e+001 -1.2834e+002  5.4847e+000 64133 75401,75329,75084
 6.0000e+000 75260 -4.1369e+001 -1.3108e+002  6.0786e+000 64133 75401,75084,75058
 6.0000e+000 75237 -4.0144e+001 -1.5520e+002  2.1738e+001 64133 75473,75136,75110
 6.0000e+000 75214 -3.8759e+001 -1.2013e+002  1.8126e+000 64133 75032,75188,75162
 6.0000e+000 75355 -4.7207e+001 -1.4286e+002  1.6664e+001 64133 75473,75110,75329
 6.0000e+000 75378 -3.5312e+001 -1.2290e+002  1.9750e+000 64133 75162,75329,75032
 6.0000e+000 75427 -3.3245e+001 -1.1782e+002  1.2632e+000 64133 75032,75329,75401
 6.0000e+000 75450 -6.2555e+001 -1.4469e+002  1.5542e+001 64133 75545,75401,75058
 6.0000e+000 75499 -3.3793e+001 -1.3989e+002  7.6903e+000 64133 75162,75136,75473
 6.0000e+000 75522 -4.0306e+001 -1.1972e+002  6.1823e+000 64133 75162,75473,75329
 6.0000e+000 75571 -3.3599e+001 -8.1594e+001  4.0667e+000 64133 75032,75401,75545
 6.0000e+000 75851 -5.4053e+001 -1.1661e+002  3.2285e+000 63843 75874,75753,75727
 6.0000e+000 75828 -4.7131e+001 -1.1171e+002 -4.1302e+000 63843 75946,75874,75727
 6.0000e+000 75805 -5.2907e+001 -1.1735e+002 -1.6382e+000 63843 76018,75946,75727
 6.0000e+000 75900 -4.6136e+001 -1.1333e+002 -5.4791e+000 63843 75779,75753,75874
 6.0000e+000 75923 -4.5552e+001 -9.4898e+001 -1.3067e+001 63843 75779,75874,75675
 6.0000e+000 75972 -5.2723e+001 -1.0905e+002 -3.9614e+000 63843 75675,75874,75946
 6.0000e+000 75995 -4.9230e+001 -1.1051e+002 -6.5005e+000 63843 75675,75946,75701
 6.0000e+000 76044 -5.2927e+001 -1.1304e+002 -7.6386e+000 63843 75701,75946,76018
 6.0000e+000 76454  6.2097e+000 -1.8637e+001 -1.0950e+001 63439 76477,76255,76229
 6.0000e+000 76431 -1.1416e+001 -4.7362e+001  1.3792e+000 63439 76477,76229,76359
 6.0000e+000 76408 -1.5618e+001 -3.8070e+001  2.2004e+001 63439 76307,76359,76333
 6.0000e+000 76385 -9.7068e+000 -5.4588e+001  1.3844e+000 63439 76255,76307,76281
 6.0000e+000 76503 -1.3463e+001 -4.1675e+001  5.9448e+000 63439 76307,76255,76477
 6.0000e+000 76526 -1.2053e+001 -5.2534e+001  1.4999e+001 63439 76307,76477,76359
 6.0000e+000 76926 -2.7949e+001 -7.4466e+001 -3.2555e-001 63049 76704,76782,76756
 6.0000e+000 76903 -3.5887e+001 -7.6080e+001 -7.2533e+000 63049 76704,76808,76782
 6.0000e+000 76880 -2.6110e+001 -8.4858e+001  1.4259e+000 63049 76704,76756,76730
 6.0000e+000 76857 -2.1713e+001 -4.6602e+001  4.2332e+000 63049 76678,76808,76704
 6.0000e+000 76834 -8.5527e+000 -9.9857e+000 -9.9576e+000 63049 76652,76808,76678
 6.0000e+000 77076 -1.4365e+001 -1.3939e+002 -1.2632e+000 62737 76975,77027,77001
 6.0000e+000 77053 -1.1768e+001 -1.5450e+002 -9.3921e+000 62737 76949,77027,76975
 6.0000e+000 77324 -5.6516e+001 -1.3295e+002 -1.5526e+000 62277 77347,77177,77125
 6.0000e+000 77301 -5.7765e+001 -1.2967e+002 -7.4972e+000 62277 77347,77125,77229
 6.0000e+000 77278 -5.6166e+001 -1.3627e+002 -1.1608e+001 62277 77099,77229,77125
 6.0000e+000 77255 -5.9867e+001 -1.5692e+002  1.3735e+000 62277 77125,77177,77151
 6.0000e+000 77373 -5.9898e+001 -1.4312e+002  8.0469e-001 62277 77203,77177,77347
 6.0000e+000 77396 -5.6501e+001 -1.3459e+002 -5.8086e+000 62277 77203,77347,77229
 6.0000e+000 77857 -3.3896e+001 -1.7232e+002  2.2297e+000 61758 77635,77739,77661
 6.0000e+000 77834 -4.7631e+001 -1.6888e+002 -5.2562e+000 61758 77583,77739,77635
 6.0000e+000 77811 -5.3611e+001 -2.1036e+002 -2.0007e+001 61758 77583,77635,77609
 6.0000e+000 77788 -4.4190e+001 -1.6802e+002  1.1819e+001 61758 77661,77713,77687
 6.0000e+000 77765 -4.6617e+001 -1.8780e+002  1.1327e+001 61758 77661,77739,77713
 6.0000e+000 78491 -4.9701e+001 -9.1938e+001  5.1208e+000 61418 78171,78301,78249
 6.0000e+000 78468 -3.7800e+001 -7.4140e+001  1.2295e+001 61418 78145,78301,78171
 6.0000e+000 78445 -3.6336e+001 -8.1274e+001 -3.4837e+000 61418 78171,78249,78223
 6.0000e+000 78422 -3.6029e+001 -7.3060e+001  3.9763e+000 61418 78145,78327,78301
 6.0000e+000 78399 -5.1877e+001 -1.0612e+002 -2.7147e+000 61418 78249,78301,78275
 6.0000e+000 78376 -2.2192e+001 -8.8847e+001 -5.7133e+000 61418 78171,78223,78197
 6.0000e+000 78353 -4.2829e+001 -9.5793e+001 -2.1677e+000 61418 78119,78327,78145
 6.0000e+000 78690 -4.1235e+001 -9.8756e+001  1.3662e+000 61014 78713,78566,78540
 6.0000e+000 78667 -3.0406e+001 -1.0167e+002  2.8490e+000 61014 78713,78540,78618
 6.0000e+000 78644 -4.6904e+001 -1.1531e+002 -1.1198e+001 61014 78514,78618,78540
 6.0000e+000 78739 -2.3284e+001 -9.3969e+001  1.1060e+001 61014 78592,78566,78713
 6.0000e+000 78762 -3.2602e+001 -1.0648e+002  1.8684e+000 61014 78785,78713,78618
 6.0000e+000 78811 -1.0577e+001 -9.7747e+001  1.5725e-002 61014 78592,78713,78785
 6.0000e+000 79398 -1.9137e+001 -9.1955e+001 -8.0135e+000 60624 79101,79179,79153
 6.0000e+000 79375 -2.5045e+001 -1.0013e+002 -4.5325e+000 60624 79101,79231,79179
 6.0000e+000 79352 -1.9438e+001 -9.9443e+001 -6.6895e+000 60624 79075,79231,79101
 6.0000e+000 79329 -5.8283e+000 -1.1807e+002  1.2201e+001 60624 79075,79257,79231
 6.0000e+000 79306 -2.0337e+001 -8.1930e+001 -1.3278e+001 60624 79179,79231,79205
 6.0000e+000 79283 -1.3296e+001 -7.8620e+001 -5.4529e+000 60624 79101,79153,79127
 6.0000e+000 79776 -5.6350e+001 -1.4131e+002  1.0389e+001 60070 79528,79658,79606
 6.0000e+000 79753 -5.3063e+001 -1.1884e+002 -6.1509e-001 60070 79502,79658,79528
 6.0000e+000 79730 -6.9940e+001 -1.3521e+002  1.7441e+001 60070 79528,79606,79580
 6.0000e+000 79707 -2.7803e+001 -1.2785e+002  2.9534e+000 60070 79606,79658,79632
 6.0000e+000 79684 -5.2714e+000 -8.3506e+001 -1.9920e+001 60070 79528,79580,79554
 6.0000e+000 80105 -4.2618e+001 -1.1097e+002  1.2660e+001 59758 80128,79958,79906
 6.0000e+000 80082 -4.2010e+001 -1.0573e+002  1.0045e+001 59758 80128,79906,80010
 6.0000e+000 80059 -5.8204e+001 -1.1712e+002  3.5917e+001 59758 79906,79958,79932
 6.0000e+000 80036 -6.0090e+001 -1.1829e+002  4.6064e+000 59758 79880,80010,79906
 6.0000e+000 80154 -4.2284e+001 -1.1439e+002  1.3626e+001 59758 79984,79958,80128
 6.0000e+000 80177 -4.2916e+001 -1.1055e+002  1.1201e+001 59758 79984,80128,80010
 6.0000e+000 80376 -3.0872e+001 -9.5043e+001  1.6558e+000 59312 80226,80304,80252
 6.0000e+000 80353 -2.9719e+001 -9.7219e+001  1.8948e+000 59312 80200,80304,80226
 6.0000e+000 80330 -4.6302e+001 -8.7551e+001  2.5263e+001 59312 80252,80304,80278
 6.0000e+000 80805 -4.0547e+001 -9.1662e+001 -1.5224e+001 58908 80900,80828,80638
 6.0000e+000 80782 -3.1028e+001 -1.0872e+002 -2.2509e+001 58908 80828,80560,80508
 6.0000e+000 80759 -4.2850e+001 -8.5732e+001 -5.4557e+000 58908 80900,80638,80612
 6.0000e+000 80736 -1.6462e+001 -9.5164e+001  3.8377e+001 58908 80482,80664,80508
 6.0000e+000 80713 -2.9056e+001 -7.9335e+001 -2.8480e+000 58908 80560,80612,80586
 6.0000e+000 80690 -3.8403e+001 -2.8957e+002 -5.4140e+001 58908 80508,80560,80534
 6.0000e+000 80854 -1.8858e+001 -9.8848e+001 -6.3331e-001 58908 80664,80638,80828
 6.0000e+000 80877 -3.2018e+001 -1.4519e+002  2.6942e+000 58908 80664,80828,80508
 6.0000e+000 80926 -3.3799e+001 -7.3890e+001 -1.6734e+001 58908 80560,80828,80900
 6.0000e+000 80949 -3.8713e+001 -7.3950e+001 -5.5700e+000 58908 80560,80900,80612
 6.0000e+000 81246 -1.8987e+001 -9.1014e+001 -1.9915e+000 58482 81076,81128,81102
 6.0000e+000 81223 -4.4427e+001 -1.5388e+002 -1.5042e+001 58482 80972,81128,81076
 6.0000e+000 81200 -2.7954e+001 -1.0506e+002 -1.7454e+001 58482 80972,81076,81050
 6.0000e+000 81177 -6.1195e+001 -1.5569e+002 -6.4097e+000 58482 80998,81050,81024
 6.0000e+000 81154 -3.4349e+001 -1.2761e+002 -1.7622e+001 58482 80972,81050,80998
 6.0000e+000 81754 -4.4680e+001 -8.9699e+001  5.1976e+000 57828 81457,81613,81483
 6.0000e+000 81731 -5.1930e+001 -1.0471e+002  2.3116e+000 57828 81431,81613,81457
 6.0000e+000 81708 -4.8837e+001 -9.9419e+001  5.2125e+000 57828 81483,81613,81509
 6.0000e+000 81685 -6.0011e+001 -1.1280e+002  1.0026e+001 57828 81509,81613,81587
 6.0000e+000 81662 -6.4054e+001 -1.6613e+002  2.1346e+001 57828 81509,81587,81535
 6.0000e+000 81639 -3.7142e+001 -1.4998e+002  1.1546e+001 57828 81535,81587,81561
 6.0000e+000 82002 -6.5967e+001 -1.6176e+002 -3.0460e-001 57374 82025,81855,81829
 6.0000e+000 81979 -7.0465e+001 -1.5035e+002  9.0021e+000 57374 82025,81829,81907
 6.0000e+000 81956 -7.2774e+001 -1.3936e+002  6.1592e+000 57374 81803,81907,81829
 6.0000e+000 81933 -4.0311e+001 -1.2467e+002  1.0270e+001 57374 81777,81907,81803
 6.0000e+000 82051 -6.5273e+001 -1.4821e+002 -1.1580e+000 57374 81881,81855,82025
 6.0000e+000 82074 -6.7351e+001 -1.3802e+002  1.1348e+001 57374 81881,82025,81907
 6.0000e+000 82356 -4.1587e+001 -9.7516e+001 -4.7100e+000 56913 82180,82232,82206
 6.0000e+000 82333 -3.6960e+001 -9.2918e+001  6.9010e+000 56913 82180,82284,82232
 6.0000e+000 82310 -1.1041e+001 -6.8094e+001  1.7306e+001 56913 82379,82232,82284
 6.0000e+000 82405  1.1992e+001 -6.6519e+001  9.4067e-001 56913 82258,82232,82379
 6.0000e+000 82764 -4.2215e+001 -6.2043e+001 -7.1235e+000 56523 82614,82666,82640
 6.0000e+000 82741 -3.7672e+001 -6.2393e+001 -9.5143e+000 56523 82614,82692,82666
 6.0000e+000 82718 -3.0556e+001 -6.6843e+001 -2.0509e+001 56523 82588,82692,82614
 6.0000e+000 83368 -6.4168e+000 -1.0041e+002 -4.2207e+000 55969 82973,83155,83129
 6.0000e+000 83345  1.1885e+000 -9.7952e+001 -8.0861e+000 55969 82973,83181,83155
 6.0000e+000 83322 -2.6550e+001 -8.8350e+001 -3.1197e+000 55969 82973,83129,82999
 6.0000e+000 83299 -4.3550e+001 -9.0751e+001  2.1163e+000 55969 83391,83025,82999
 6.0000e+000 83276 -3.7008e+001 -9.3730e+001 -1.9759e-001 55969 83391,82999,83129
 6.0000e+000 83253 -3.8688e+000 -7.7071e+001  1.8940e+001 55969 83077,83129,83103
 6.0000e+000 83230 -4.5538e+001 -7.2817e+001 -4.0824e+000 55969 83025,83077,83051
 6.0000e+000 83207 -9.9141e-001 -9.4106e+001  8.9910e+000 55969 82947,83181,82973
 6.0000e+000 83417 -3.7296e+001 -8.7085e+001  3.9570e+000 55969 83077,83025,83391
 6.0000e+000 83440 -3.5055e+001 -9.1889e+001  7.4393e-001 55969 83077,83391,83129
 6.0000e+000 83946 -8.1554e+001 -1.7276e+002  2.9137e+001 55771 83969,83779,83727
 6.0000e+000 83923 -6.4618e+001 -1.3818e+002  1.8792e+001 55771 83969,83727,83623
 6.0000e+000 83900 -7.2719e+001 -6.5405e+001  9.4627e+000 55771 83623,83727,83649
 6.0000e+000 83877 -6.2921e+001 -2.9653e+002  1.5154e+001 55771 83727,83779,83753
 6.0000e+000 83854 -9.0768e+001 -1.3603e+002  2.7590e+001 55771 83675,83727,83701
 6.0000e+000 83831 -1.1144e+002 -1.0613e+002  4.3752e+001 55771 83649,83727,83675
 6.0000e+000 83995 -7.7311e+001 -1.8002e+002 -1.4093e+001 55771 83805,83779,83969
 6.0000e+000 84018 -4.1722e+001 -1.1087e+002 -2.8177e+001 55771 83805,83969,83623
 6.0000e+000 84168 -3.2411e+001 -8.4955e+001 -2.3959e+000 55367 84191,84067,84041
 6.0000e+000 84145 -3.3260e+001 -9.1969e+001 -1.4224e+000 55367 84191,84041,84119
 6.0000e+000 84217 -3.5094e+001 -7.9668e+001 -2.4793e+000 55367 84093,84067,84191
 6.0000e+000 84240 -3.5155e+001 -8.4719e+001  4.0929e-001 55367 84093,84191,84119
 6.0000e+000 84571 -2.0286e+001 -1.2177e+002 -1.2912e+001 54913 84398,84450,84424
 6.0000e+000 84548 -1.8304e+001 -1.1223e+002 -7.1310e+000 54913 84372,84450,84398
 6.0000e+000 84525 -3.0478e+001 -1.2532e+002  4.5004e+000 54913 84346,84450,84372
 6.0000e+000 84502 -1.1302e+001 -8.1063e+001 -1.2013e+001 54913 84346,84476,84450
 6.0000e+000 85126 -6.5424e+001 -1.4094e+002 -8.7473e+000 54402 84858,84936,84910
 6.0000e+000 85103 -5.0315e+001 -1.0719e+002 -1.2302e+001 54402 84806,84936,84858
 6.0000e+000 85080 -6.1603e+001 -1.0005e+002 -1.0388e+001 54402 84780,84936,84806
 6.0000e+000 85057 -4.8618e+001 -1.2008e+002 -4.2037e+000 54402 84806,84858,84832
 6.0000e+000 85034 -5.8676e+001 -9.5430e+001  5.1573e+000 54402 84780,84962,84936
 6.0000e+000 85011 -7.4644e+001 -8.3335e+001 -4.8725e+000 54402 84858,84910,84884
 6.0000e+000 84988 -5.8117e+001 -9.7603e+001  6.4657e+000 54402 84754,84962,84780
 6.0000e+000 85396 -5.4973e+001 -6.6754e+001 -4.2839e+000 53998 85197,85249,85223
 6.0000e+000 85373 -4.2156e+001 -8.1886e+001 -1.5124e+000 53998 85197,85275,85249
 6.0000e+000 85350 -5.1915e+001 -9.4145e+001 -5.8377e+000 53998 85171,85275,85197
 6.0000e+000 85327 -2.5141e+001 -8.6779e+001 -7.6999e+000 53998 85171,85301,85275
 6.0000e+000 85749 -2.5851e+001 -9.1182e+001 -2.6502e+000 53636 85524,85628,85550
 6.0000e+000 85726 -4.1722e+001 -1.0549e+002  3.4507e+000 53636 85524,85654,85628
 6.0000e+000 85703 -1.4884e+001 -9.4722e+001 -9.5092e+000 53636 85550,85602,85576
 6.0000e+000 85680 -2.5425e+001 -9.0515e+001 -4.5729e+000 53636 85550,85628,85602
 6.0000e+000 86127 -1.0077e+001 -9.5901e+001  1.6749e+001 52982 86150,85957,85879
 6.0000e+000 86104 -3.4756e+001 -1.1167e+002  9.9147e+000 52982 86150,85879,85853
 6.0000e+000 86081 -9.3287e+000 -1.4444e+002  2.8865e+001 52982 85957,86009,85983
 6.0000e+000 86058 -4.1983e+001 -1.0302e+002  1.3438e+001 52982 85879,85957,85931
 6.0000e+000 86035 -2.7242e+001 -9.8475e+001 -3.2725e+000 52982 85879,85931,85905
 6.0000e+000 86176  5.1513e+000 -1.1406e+002  1.3536e+001 52982 86009,85957,86150
 6.0000e+000 86199 -9.4631e+000 -1.2365e+002  8.6841e+000 52982 86009,86150,85853
 6.0000e+000 86398 -3.0088e+001 -8.2997e+001  5.5193e+000 52542 86421,86248,86222
 6.0000e+000 86375 -4.4109e+001 -8.6981e+001 -9.9174e-001 52542 86421,86222,86300
 6.0000e+000 86352 -4.4701e+001 -9.1751e+001 -2.4443e+000 52542 86222,86326,86300
 6.0000e+000 86447 -1.4477e+001 -8.4632e+001  1.3187e+001 52542 86274,86248,86421
 6.0000e+000 86470 -2.8785e+001 -9.2218e+001  4.8590e+000 52542 86274,86421,86300
 6.0000e+000 86669 -3.7126e+001 -8.3842e+001 -2.0319e+001 52230 86692,86571,86545
 6.0000e+000 86646 -3.7515e+001 -8.2296e+001 -1.1003e+001 52230 86692,86545,86519
 6.0000e+000 86623 -5.5155e+001 -8.5609e+001 -1.1518e+001 52230 86493,86597,86519
 6.0000e+000 86718 -4.2385e+001 -8.5824e+001 -1.9118e+001 52230 86597,86571,86692
 6.0000e+000 86741 -4.9150e+001 -8.7065e+001 -1.0015e+001 52230 86597,86692,86519
 6.0000e+000 87153 -5.4430e+001 -8.0771e+001  3.4028e+000 51640 86980,87058,87032
 6.0000e+000 87130 -5.2139e+001 -8.2111e+001  2.9149e+000 51640 86928,87058,86980
 6.0000e+000 87107 -5.4896e+001 -1.0789e+002 -3.8887e+000 51640 86928,86980,86954
 6.0000e+000 87084 -2.9050e+001 -6.9971e+001  4.5159e-001 51640 86980,87032,87006
 6.0000e+000 87659 -2.6107e+001 -7.4636e+001  2.4336e+000 51029 87682,87440,87362
 6.0000e+000 87636 -2.2240e+001 -7.9353e+001 -8.5230e+000 51029 87682,87362,87336
 6.0000e+000 87613 -3.8796e+001 -1.1445e+002 -3.1047e+000 51029 87440,87518,87466
 6.0000e+000 87590 -3.8780e+001 -7.4252e+001  3.1144e+000 51029 87362,87440,87414
 6.0000e+000 87567 -3.2392e+001 -5.6987e+001  1.4191e+001 51029 87362,87414,87388
 6.0000e+000 87544 -4.9832e+001 -1.0695e+002  1.6921e+000 51029 87466,87518,87492
 6.0000e+000 87708 -2.5628e+001 -8.4150e+001 -4.3828e-001 51029 87518,87440,87682
 6.0000e+000 87731 -2.4572e+001 -9.8423e+001 -7.3251e+000 51029 87518,87682,87336
 6.0000e+000 87881 -5.1365e+001 -1.1217e+002  1.4490e+000 50739 87780,87832,87806
 6.0000e+000 87858 -5.5775e+001 -1.0817e+002 -5.1338e+000 50739 87754,87832,87780
 6.0000e+000 88468 -4.0551e+001 -7.1477e+001  5.8190e+000 50235 88171,88327,88197
 6.0000e+000 88445 -7.6723e+001 -7.5086e+001 -8.1351e+000 50235 88145,88327,88171
 6.0000e+000 88422  3.8626e-001 -2.9935e+001 -7.8965e-002 50235 88275,88327,88301
 6.0000e+000 88399 -2.3553e+001 -4.0190e+001 -1.0413e+000 50235 88197,88327,88275
 6.0000e+000 88376 -8.0411e+000 -6.3706e+001 -7.6137e-001 50235 88197,88275,88223
 6.0000e+000 88353 -1.1345e+001 -8.5796e+001 -5.9651e+000 50235 88223,88275,88249
 6.0000e+000 88895 -4.7663e+001 -1.1540e+002  2.6675e+000 49873 88918,88728,88676
 6.0000e+000 88872 -4.1211e+001 -1.0917e+002 -1.9521e+000 49873 88918,88676,88624
 6.0000e+000 88849 -3.2714e+001 -9.5514e+001 -3.6448e+000 49873 88598,88754,88624
 6.0000e+000 88826 -2.6779e+001 -1.0231e+002 -3.9100e+000 49873 88624,88676,88650
 6.0000e+000 88803 -3.5736e+001 -1.4212e+002  5.2366e+000 49873 88676,88728,88702
 6.0000e+000 88780 -3.8930e+001 -9.6371e+001 -3.5561e+000 49873 88572,88754,88598
 6.0000e+000 88944 -3.9593e+001 -1.1420e+002 -1.3100e+000 49873 88754,88728,88918
 6.0000e+000 88967 -3.7220e+001 -1.1234e+002 -5.2833e+000 49873 88754,88918,88624
 6.0000e+000 89473 -7.0890e+001 -1.0964e+002 -1.3732e+001 49583 89176,89306,89202
 6.0000e+000 89450 -6.9367e+001 -1.0864e+002 -1.4615e+001 49583 89176,89332,89306
 6.0000e+000 89427 -4.0940e+001 -1.1703e+002  4.8378e+000 49583 89496,89228,89202
 6.0000e+000 89404 -4.1354e+001 -1.1956e+002  5.8481e+000 49583 89496,89202,89280
 6.0000e+000 89381 -8.6916e+001 -1.5013e+002 -2.6306e+001 49583 89202,89306,89280
 6.0000e+000 89358 -5.2070e+001 -1.0931e+002 -1.7463e+001 49583 89150,89332,89176
 6.0000e+000 89522 -3.9041e+001 -9.9954e+001  2.4839e+000 49583 89254,89228,89496
 6.0000e+000 89545 -4.7213e+001 -1.1450e+002  5.7290e+000 49583 89254,89496,89280
 6.0000e+000 89825  6.3808e+000 -1.1058e+002  3.2321e+000 49179 89701,89753,89727
 6.0000e+000 89802 -1.6669e+001 -9.7861e+001  4.3513e+000 49179 89675,89753,89701
 6.0000e+000 89779 -1.2714e+001 -8.8723e+001  4.7585e+000 49179 89848,89753,89675
 6.0000e+000 89874 -6.5509e+001 -1.0787e+002 -1.0081e+001 49179 89649,89753,89848
 6.0000e+000 90223 -3.3938e+001 -1.0037e+002 -1.3059e+001 48739 90024,90102,90076
 6.0000e+000 90200 -3.2191e+001 -9.3539e+001 -4.8072e+000 48739 90024,90128,90102
 6.0000e+000 90177  1.3940e+000 -9.8389e+001 -1.3298e+001 48739 90024,90076,90050
 6.0000e+000 90154 -1.1935e+001 -9.0267e+001  6.0625e+000 48739 89998,90128,90024
 6.0000e+000 90603 -2.9144e+001 -7.8663e+001  1.8315e+001 48335 90381,90485,90459
 6.0000e+000 90580 -4.0190e+001 -9.4980e+001  1.3217e+001 48335 90355,90485,90381
 6.0000e+000 90557 -1.5136e+001 -2.6420e+001  9.2792e+000 48335 90381,90433,90407
 6.0000e+000 90534 -2.9076e+001 -8.3099e+001  1.3035e+001 48335 90381,90459,90433
 6.0000e+000 90511  1.6552e+001 -6.3140e+001  2.7063e+001 48335 90329,90485,90355
 6.0000e+000 90753  5.0720e-001 -5.0610e+001  3.2197e+001 47824 90776,90652,90704
 6.0000e+000 90730 -2.7048e+001 -9.2301e+001  1.5022e+001 47824 90626,90704,90652
 6.0000e+000 90802 -1.2114e+001 -6.5739e+001  2.6134e+001 47824 90678,90652,90776
 6.0000e+000 91131 -3.8206e+001 -1.2438e+002  5.0702e+000 47427 91154,90958,90906
 6.0000e+000 91108 -6.5155e+001 -1.3598e+002  5.9452e+000 47427 91154,90906,91036
 6.0000e+000 91085 -5.9401e+001 -1.0282e+002 -9.5604e+000 47427 90958,91010,90984
 6.0000e+000 91062 -3.8822e+001 -1.0704e+002  7.4435e+000 47427 90906,90958,90932
 6.0000e+000 91180 -5.2709e+001 -1.1872e+002 -1.3075e+001 47427 91010,90958,91154
 6.0000e+000 91203 -7.8138e+001 -1.2961e+002 -1.2615e+001 47427 91010,91154,91036
 6.0000e+000 91583 -5.5380e+001 -1.0604e+002 -6.7156e+000 46873 91309,91439,91335
 6.0000e+000 91560 -5.9114e+001 -1.0591e+002 -5.5130e+000 46873 91309,91465,91439
 6.0000e+000 91537 -8.5426e+001 -1.2423e+002 -3.3700e+001 46873 91361,91439,91413
 6.0000e+000 91514 -6.3053e+001 -1.1114e+002 -1.8281e+001 46873 91335,91439,91361
 6.0000e+000 91491 -2.7955e+001 -1.0235e+002 -2.8761e+001 46873 91361,91413,91387
 6.0000e+000 91880 -4.0811e+001 -1.1975e+002 -3.4543e+000 46526 91606,91710,91658
 6.0000e+000 91857 -4.1055e+001 -1.2519e+002  2.9879e-001 46526 91606,91762,91710
 6.0000e+000 91834 -2.7836e+001 -1.1520e+002 -1.2899e+001 46526 91606,91658,91632
 6.0000e+000 91811 -4.7056e+001 -1.1070e+002  1.8693e+000 46526 91658,91710,91684
 6.0000e+000 91788 -2.8649e+001 -8.6496e+001  4.0995e+000 46526 91710,91762,91736
 6.0000e+000 92211 -1.8251e+001 -4.4557e+001 -4.0628e+000 45700 91986,92064,92038
 6.0000e+000 92188 -2.5634e+001 -6.7425e+001  2.9818e-001 45700 91986,92116,92064
 6.0000e+000 92165 -1.3458e+001 -3.6196e+001 -8.1669e+000 45700 91986,92038,92012
 6.0000e+000 92142 -1.6687e+001 -7.4358e+001  9.3550e+000 45700 92064,92116,92090
 6.0000e+000 92766 -5.0803e+001 -1.0045e+002  6.0134e+000 45452 92446,92602,92576
 6.0000e+000 92743 -8.2744e+001 -9.9298e+001 -1.3092e+001 45452 92420,92602,92446
 6.0000e+000 92720 -6.3335e+001 -1.0763e+002  1.7288e+001 45452 92789,92524,92498
 6.0000e+000 92697 -7.2740e+001 -1.0470e+002  1.4406e+001 45452 92789,92498,92446
 6.0000e+000 92674 -6.1131e+001 -1.1223e+002  3.2444e-001 45452 92524,92576,92550
 6.0000e+000 92651 -9.6347e+001 -1.0995e+002  5.7920e+001 45452 92446,92498,92472
 6.0000e+000 92628 -4.3671e+001 -1.1023e+002 -2.4939e+001 45452 92394,92602,92420
 6.0000e+000 92815 -5.6629e+001 -1.0816e+002  1.4701e+001 45452 92576,92524,92789
 6.0000e+000 92838 -6.4198e+001 -1.0394e+002  1.3016e+001 45452 92576,92789,92446
 6.0000e+000 92939 -4.6713e+001 -1.4019e+002 -2.9066e+001 44998 92861,92913,92887
 6.0000e+000 93319 -1.1089e+001 -1.4456e+002  2.6189e+001 44601 93123,93201,93149
 6.0000e+000 93296 -4.0517e+001 -1.4318e+002 -1.4319e+001 44601 93045,93201,93123
 6.0000e+000 93273 -3.1351e+001 -7.9828e+001 -2.0357e+001 44601 93045,93123,93071
 6.0000e+000 93250 -2.8207e+001 -7.4144e+001 -1.3973e+001 44601 93071,93123,93097
 6.0000e+000 93227 -1.8987e+000 -7.8400e+001  2.7121e+001 44601 93149,93201,93175
 6.0000e+000 93697 -3.0034e+001 -1.5770e+002  8.3383e+000 44026 93720,93553,93527
 6.0000e+000 93674 -5.2851e+001 -1.3348e+002  1.1794e+001 44026 93720,93527,93449
 6.0000e+000 93651 -5.9071e+001 -1.3879e+002 -2.6670e+000 44026 93449,93527,93501
 6.0000e+000 93628 -4.2352e+001 -1.0629e+002 -2.1559e+001 44026 93423,93579,93449
 6.0000e+000 93605 -1.2418e+001 -1.1108e+002  9.0275e+000 44026 93449,93501,93475
 6.0000e+000 93746 -1.4258e+001 -1.3942e+002  1.6111e+000 44026 93579,93553,93720
 6.0000e+000 93769 -3.8226e+001 -1.1547e+002  5.4895e+000 44026 93579,93720,93449
 6.0000e+000 94066 -3.3114e+001 -1.2220e+002 -1.6696e+001 43579 94089,93818,93792
 6.0000e+000 94043 -5.0750e+001 -1.3719e+002 -1.0281e+001 43579 94161,94089,93792
 6.0000e+000 94020 -5.0088e+001 -1.3810e+002 -3.9918e+000 43579 94161,93792,93948
 6.0000e+000 93997 -5.2998e+001 -1.0602e+002 -4.8794e+000 43579 94233,93870,93818
 6.0000e+000 93974 -3.0619e+001 -1.0957e+002  3.6731e+000 43579 93818,93870,93844
 6.0000e+000 94115 -5.2083e+001 -1.0698e+002 -1.1395e+001 43579 94233,93818,94089
 6.0000e+000 94138 -6.7984e+001 -1.2186e+002 -8.0637e+000 43579 93896,94089,93922
 6.0000e+000 94187 -4.6704e+001 -1.2734e+002 -1.0722e+001 43579 93922,94089,94161
 6.0000e+000 94210 -4.6091e+001 -1.2755e+002 -3.8223e+000 43579 93922,94161,93948
 6.0000e+000 94259 -5.9189e+001 -1.1844e+002 -2.8388e+000 43579 93896,93870,94233
 6.0000e+000 94282 -5.6463e+001 -1.1694e+002 -1.0372e+001 43579 93896,94233,94089
 6.0000e+000 94481 -4.3322e+001 -1.2602e+002 -1.1275e+000 43239 94305,94383,94357
 6.0000e+000 94458 -3.7069e+001 -1.1516e+002  1.3840e+001 43239 94305,94409,94383
 6.0000e+000 94435 -3.4223e+001 -1.3249e+002 -3.5914e+000 43239 94305,94357,94331
 6.0000e+000 94633 -1.3663e+001 -7.6806e+001  1.7571e+001 42827 94656,94532,94506
 6.0000e+000 94610 -3.4453e+001 -8.6769e+001  2.0775e+001 42827 94728,94656,94506
 6.0000e+000 94682 -1.8179e+001 -8.8289e+001  1.4691e+001 42827 94558,94532,94656
 6.0000e+000 94705 -5.5631e+000 -8.6519e+001  8.6505e+000 42827 94988,94860,94656
 6.0000e+000 94754 -1.8143e+001 -7.6047e+001  5.5037e+000 42827 94988,94656,94728
 6.0000e+000 94886  4.0421e+000 -8.1961e+001  9.9462e+000 42827 94558,94656,94860
 6.0000e+000 95014  5.0152e+000 -7.7517e+001  4.7039e+000 42827 94584,94860,94988
 6.0000e+000 95037 -6.1590e+000 -6.8276e+001  1.5202e+000 42827 94584,94988,94728
 6.0000e+000 95236 -1.1718e+001 -8.9814e+001  1.3399e+001 42537 95259,95112,95060
 6.0000e+000 95213 -1.7628e+001 -8.3060e+001  1.0569e+001 42537 95259,95060,95164
 6.0000e+000 95190 -3.9052e+000 -9.2860e+001 -8.8852e-001 42537 95060,95112,95086
 6.0000e+000 95285 -1.5657e+001 -9.3052e+001  1.1213e+001 42537 95138,95112,95259
 6.0000e+000 95308 -2.2676e+001 -8.9444e+001  7.4924e+000 42537 95138,95259,95164
 6.0000e+000 95816 -4.1501e+001 -1.1850e+002 -7.7043e+000 41969 95493,95597,95519
 6.0000e+000 95793 -6.1490e+001 -1.1030e+002  1.0854e+001 41969 95493,95649,95597
 6.0000e+000 95770 -4.5730e+001 -1.0350e+002  9.4237e+000 41969 95493,95675,95649
 6.0000e+000 95747 -4.9752e+001 -1.4533e+002  8.9183e+000 41969 95597,95649,95623
 6.0000e+000 95724 -6.7876e+001 -1.0813e+002 -1.3474e+001 41969 95519,95597,95571
 6.0000e+000 95701 -6.0013e+001 -9.3865e+001 -2.6176e+001 41969 95519,95571,95545
 6.0000e+000 96371 -5.2137e+001 -1.2911e+002  1.5262e+001 41579 96025,96207,96181
 6.0000e+000 96348  1.5810e+001 -9.7732e+001 -5.5090e+000 41579 95999,96207,96025
 6.0000e+000 96325 -6.0537e+001 -9.8518e+001 -1.1527e+001 41579 96129,96181,96155
 6.0000e+000 96302 -2.1801e+001 -8.9193e+001 -5.9440e-002 41579 96025,96181,96129
 6.0000e+000 96279 -5.0924e+001 -1.3608e+002  1.8841e+001 41579 96025,96129,96051
 6.0000e+000 96256 -5.4446e+001 -1.2070e+002  1.6358e+001 41579 96051,96103,96077
 6.0000e+000 96233 -2.0980e+001 -9.2520e+001  2.6658e-001 41579 96051,96129,96103
 6.0000e+000 96877 -1.4352e+001 -8.1741e+001 -1.0046e+001 41182 96972,96900,96632
 6.0000e+000 96854 -1.7895e+001 -5.9559e+001 -9.8208e+000 41182 96900,96554,96736
 6.0000e+000 96831 -1.3570e+001 -8.1879e+001 -8.1269e+000 41182 96972,96632,96580
 6.0000e+000 96808 -1.6823e+001 -7.5532e+001  9.0335e+000 41182 96632,96684,96658
 6.0000e+000 96785 -3.3016e+001 -8.7586e+001  9.4855e+000 41182 96684,96736,96710
 6.0000e+000 96762 -4.8401e+001 -1.0598e+002  1.7950e+001 41182 96580,96632,96606
 6.0000e+000 96926 -1.2918e+001 -9.0573e+001 -9.9029e+000 41182 96684,96632,96900
 6.0000e+000 96949 -2.5876e+001 -8.0450e+001 -1.6604e+001 41182 96684,96900,96736
 6.0000e+000 96998 -1.7641e+001 -8.3144e+001 -1.0082e+001 41182 96554,96900,96972
 6.0000e+000 97021 -1.7389e+001 -8.3535e+001 -7.9411e+000 41182 96554,96972,96580
 6.0000e+000 97576 -6.9537e+001 -1.7866e+002 -2.4641e+001 40678 97230,97412,97282
 6.0000e+000 97553 -5.4721e+000 -1.4769e+002  7.3427e+000 40678 97204,97412,97230
 6.0000e+000 97530 -1.7853e+001 -1.3447e+002 -2.2975e+001 40678 97282,97360,97308
 6.0000e+000 97507 -3.0015e+001 -1.3705e+002 -8.1328e+000 40678 97282,97412,97360
 6.0000e+000 97484 -6.0782e+000 -8.0090e+001 -2.0009e+001 40678 97308,97360,97334
 6.0000e+000 97461 -3.8064e+001 -1.6492e+002 -4.7379e+000 40678 97360,97412,97386
 6.0000e+000 97438 -3.9741e+001 -1.1443e+002 -1.6935e+001 40678 97230,97282,97256
 6.0000e+000 97976 -5.9454e+001 -9.8429e+001 -2.1382e+000 40244 97702,97832,97754
 6.0000e+000 97953 -4.8669e+001 -9.4871e+001 -4.9814e+000 40244 97702,97858,97832
 6.0000e+000 97930 -6.3869e+001 -1.1541e+002 -2.3321e+001 40244 97702,97754,97728
 6.0000e+000 97907 -4.7254e+001 -1.0463e+002  1.1637e+001 40244 97780,97832,97806
 6.0000e+000 97884 -5.1915e+001 -9.4226e+001 -2.2255e-001 40244 97754,97832,97780
 6.0000e+000 98482 -2.7236e+001 -8.5881e+001  1.5035e+001 39690 98505,98185,98159
 6.0000e+000 98459 -2.9572e+001 -8.2053e+001  1.3784e+001 39690 98505,98159,98289
 6.0000e+000 98436 -5.9795e+001 -1.2764e+002  3.6139e+001 39690 98159,98315,98289
 6.0000e+000 98413 -1.8999e+001 -7.4907e+001  1.1327e+001 39690 98211,98289,98263
 6.0000e+000 98390 -1.0059e+001 -4.4757e+001  6.7264e+000 39690 98211,98263,98237
 6.0000e+000 98367 -1.4430e+001 -7.3174e+001  1.0834e+001 39690 98159,98341,98315
 6.0000e+000 98531 -2.5843e+001 -8.3631e+001  1.3221e+001 39690 98211,98185,98505
 6.0000e+000 98554 -2.8055e+001 -7.8634e+001  1.2389e+001 39690 98211,98505,98289
 6.0000e+000 99109 -3.1377e+001 -8.0235e+001 -6.1531e+000 39072 99132,98867,98789
 6.0000e+000 99086 -3.1296e+001 -8.2707e+001 -8.0600e+000 39072 99132,98789,98763
 6.0000e+000 99063 -4.7582e+001 -1.3492e+002  1.3229e+001 39072 98867,98945,98919
 6.0000e+000 99040 -2.7391e+001 -8.7956e+001 -3.3952e-001 39072 98789,98867,98841
 6.0000e+000 99017 -6.1966e+001 -9.9846e+001  3.3122e+000 39072 98867,98919,98893
 6.0000e+000 98994 -4.2108e+001 -7.8215e+001  1.6946e+001 39072 98789,98841,98815
 6.0000e+000 98971 -4.3784e+001 -9.2547e+001 -6.6166e+000 39072 98737,98945,98763
 6.0000e+000 99158 -3.0377e+001 -8.3435e+001 -6.7614e+000 39072 98945,98867,99132
 6.0000e+000 99181 -3.0560e+001 -8.7234e+001 -7.5860e+000 39072 98945,99132,98763
 6.0000e+000 99510 -2.7498e+001 -7.3233e+001  5.6963e+000 38668 99311,99389,99363
 6.0000e+000 99487 -2.3540e+001 -7.6971e+001 -2.2343e+000 38668 99285,99389,99311
 6.0000e+000 99464 -5.1022e+001 -1.0532e+002  9.4680e+000 38668 99285,99415,99389
 6.0000e+000 99441 -2.3177e+001 -7.8301e+001  8.5609e+000 38668 99311,99363,99337
 6.0000e+000 99758 -2.9779e+001 -1.1889e+002  2.0526e+001 38164 99781,99611,99585
 6.0000e+000 99735 -1.1739e+001 -1.2131e+002  2.2895e+001 38164 99781,99585,99533
 6.0000e+000 99712 -4.5595e+001 -1.1209e+002  1.4689e+001 38164 99611,99663,99637
 6.0000e+000 99689  6.9431e+000 -1.1539e+002 -6.3048e+000 38164 99533,99585,99559
 6.0000e+000 99807 -4.0041e+001 -1.1749e+002  2.5503e+001 38164 99663,99611,99781
 6.0000e+000 99830 -2.6661e+001 -1.2243e+002  2.4967e+001 38164 99663,99781,99533
 6.0000e+000 100232 -3.0471e+001 -8.5990e+001  9.6453e-001 37702 99984,100114,100088
 6.0000e+000 100209 -2.3536e+001 -8.8977e+001  8.4019e+000 37702 99958,100114,99984
 6.0000e+000 100186 -4.6491e+001 -1.0846e+002 -7.1829e+000 37702 100010,100088,100036
 6.0000e+000 100163 -2.9596e+001 -8.5715e+001  2.4619e-001 37702 99984,100088,100010
 6.0000e+000 100140 -2.5451e+001 -7.7095e+001 -2.3149e+001 37702 100036,100088,100062
 6.0000e+000 100640 -7.1999e+001 -1.0393e+002  1.3988e+001 37262 100493,100545,100519
 6.0000e+000 100617 -6.3790e+001 -1.1856e+002  6.8610e+000 37262 100441,100545,100493
 6.0000e+000 100594 -2.4898e+001 -8.9207e+001 -1.5269e+001 37262 100415,100545,100441
 6.0000e+000 100571 -7.1683e+001 -1.2662e+002 -4.6737e+000 37262 100441,100493,100467
 6.0000e+000 101146 -5.3876e+001 -8.8841e+001 -1.6437e+000 36872 100823,100979,100849
 6.0000e+000 101123 -5.2686e+001 -8.2983e+001 -9.1925e+000 36872 100823,101005,100979
 6.0000e+000 101100 -5.3518e+001 -1.2829e+002  1.6942e+001 36872 101169,100901,100849
 6.0000e+000 101077 -4.1377e+001 -1.0270e+002  8.9209e+000 36872 101169,100849,100979
 6.0000e+000 101054 -3.0857e+001 -1.0776e+002 -7.4968e+000 36872 100927,100979,100953
 6.0000e+000 101031 -2.9737e+001 -1.4230e+002  2.3722e+001 36872 100849,100901,100875
 6.0000e+000 101195 -3.7152e+001 -1.3570e+002  9.7060e-001 36872 100927,100901,101169
 6.0000e+000 101218 -2.9661e+001 -1.2207e+002 -5.5620e+000 36872 100927,101169,100979
 6.0000e+000 101773 -5.6981e+001 -9.4177e+001  1.9191e+001 36418 101479,101609,101583
 6.0000e+000 101750 -5.9870e+001 -9.6603e+001  1.7134e+001 36418 101453,101609,101479
 6.0000e+000 101727 -4.0481e+001 -1.0077e+002  1.1077e-001 36418 101796,101531,101479
 6.0000e+000 101704 -5.7047e+001 -1.1236e+002  8.7141e+000 36418 101796,101479,101583
 6.0000e+000 101681 -3.4072e+001 -8.6417e+001 -2.3584e+000 36418 101479,101531,101505
 6.0000e+000 101658 -6.1167e-001 -8.4420e+001  3.5755e+000 36418 101401,101609,101453
 6.0000e+000 101635 -1.5739e+001 -7.5415e+001  5.5838e+000 36418 101401,101453,101427
 6.0000e+000 101822 -4.4236e+001 -9.2080e+001 -1.5699e+001 36418 101557,101531,101796
 6.0000e+000 101845 -6.3192e+001 -9.5954e+001 -7.8343e+000 36418 101557,101796,101583
 6.0000e+000 102174 -4.6575e+000 -3.8030e+001 -1.2171e+001 35914 101949,102053,101975
 6.0000e+000 102151 -1.8119e+001 -4.2466e+001 -9.0297e+000 35914 101949,102079,102053
 6.0000e+000 102128 -2.1936e+001 -4.6181e+001 -6.6353e+000 35914 101975,102053,102027
 6.0000e+000 102105 -1.5261e+001 -3.5031e+001 -9.4133e+000 35914 101975,102027,102001
 6.0000e+000 102631 -2.0811e+001 -1.0523e+002  2.5079e+000 35574 102383,102513,102487
 6.0000e+000 102608 -1.4226e+001 -1.1019e+002  1.8879e+000 35574 102357,102513,102383
 6.0000e+000 102585 -3.5774e+001 -1.0958e+002  3.7494e+000 35574 102409,102487,102435
 6.0000e+000 102562 -3.5529e+001 -1.1133e+002  2.8098e+000 35574 102383,102487,102409
 6.0000e+000 102539 -3.6226e+001 -1.1209e+002  4.3803e+000 35574 102435,102487,102461
 6.0000e+000 103009 -5.6942e+001 -1.0488e+002 -7.5017e+000 35170 102761,102865,102787
 6.0000e+000 102986 -3.4843e+001 -9.2661e+001  9.3881e+000 35170 102761,102891,102865
 6.0000e+000 102963 -5.0195e+001 -1.0185e+002 -2.6512e+000 35170 102787,102865,102813
 6.0000e+000 102940 -2.8432e+001 -8.9298e+001  1.1073e+001 35170 102735,102891,102761
 6.0000e+000 102917 -5.1934e+001 -1.0772e+002 -7.9640e+000 35170 102813,102865,102839
 6.0000e+000 103257 -1.0548e+001 -7.6542e+001 -1.2046e+001 34659 103280,103058,103032
 6.0000e+000 103234 -1.5634e+001 -8.0628e+001 -6.8787e+000 34659 103280,103032,103162
 6.0000e+000 103211 -2.6773e+001 -8.1157e+001 -6.3629e+000 34659 103084,103162,103110
 6.0000e+000 103188 -3.5081e+001 -9.9567e+001 -4.6037e+000 34659 103110,103162,103136
 6.0000e+000 103306 -1.9417e+001 -7.1603e+001 -1.0327e+001 34659 103084,103058,103280
 6.0000e+000 103329 -2.2671e+001 -7.5912e+001 -4.5278e+000 34659 103084,103280,103162
 6.0000e+000 103837 -8.9984e+000 -1.1678e+002  3.6739e+000 34247 103860,103566,103540
 6.0000e+000 103814 -1.6355e+001 -1.1799e+002  1.3666e-001 34247 103932,103860,103540
 6.0000e+000 103791 -1.2434e+001 -1.3180e+002 -1.3805e+001 34247 103932,103540,103670
 6.0000e+000 103768 -1.2542e+001 -1.0763e+002  3.2406e+000 34247 103566,103618,103592
 6.0000e+000 103745 -4.7385e+001 -1.1010e+002 -1.7284e+001 34247 103540,103696,103670
 6.0000e+000 103722 -6.3430e+001 -1.2337e+002  1.8131e+001 34247 103514,103696,103540
 6.0000e+000 103886 -2.5085e+001 -1.1610e+002 -1.8983e+000 34247 103618,103566,103860
 6.0000e+000 103909 -2.7684e+001 -1.2500e+002  2.9607e+000 34247 103618,103860,103644
 6.0000e+000 103958 -2.8504e+001 -1.5140e+002 -2.9230e+000 34247 103644,103860,103932
 6.0000e+000 103981 -2.4673e+001 -1.6419e+002 -1.7540e+001 34247 103644,103932,103670
 6.0000e+000 104300 -5.7883e+001 -1.2391e+002 -4.7117e+000 33843 104052,104182,104156
 6.0000e+000 104277 -7.4609e+001 -1.1524e+002 -1.0512e+000 33843 104026,104182,104052
 6.0000e+000 104254 -5.6715e+001 -1.3961e+002  3.2769e+000 33843 104078,104156,104130
 6.0000e+000 104231 -6.9537e+001 -1.3427e+002 -8.1172e-002 33843 104052,104156,104078
 6.0000e+000 104208 -8.5295e+001 -1.4655e+002  3.7331e+000 33843 104078,104130,104104
 6.0000e+000 104499 -3.8971e+001 -1.2370e+002 -9.9594e+000 33282 104594,104522,104375
 6.0000e+000 104476 -3.4782e+001 -1.2294e+002  4.2173e+000 33282 104522,104323,104427
 6.0000e+000 104453 -2.3583e+001 -1.3141e+002 -9.3452e+000 33282 104594,104375,104349
 6.0000e+000 104548 -4.1304e+001 -1.0988e+002 -4.7933e+000 33282 104401,104375,104522
 6.0000e+000 104571 -2.8482e+001 -1.0787e+002  3.8881e+000 33282 104401,104522,104427
 6.0000e+000 104620 -1.9619e+001 -1.0971e+002 -3.0848e+000 33282 104323,104522,104594
 6.0000e+000 104643 -9.7916e+000 -1.2291e+002 -4.6573e+000 33282 104323,104594,104349
 6.0000e+000 104942 -5.2221e+001 -1.3446e+002  1.6847e+001 32728 104694,104772,104720
 6.0000e+000 104919 -4.0968e+001 -1.2314e+002  6.4543e+000 32728 104694,104824,104772
 6.0000e+000 104896 -6.8990e+001 -1.1948e+002  1.9172e+001 32728 104720,104772,104746
 6.0000e+000 104873 -3.2751e+001 -1.4133e+002  7.9715e+000 32728 104772,104824,104798
 6.0000e+000 104850 -3.4815e+001 -1.2097e+002  7.0355e+000 32728 104668,104824,104694
 6.0000e+000 105373 -3.9444e+001 -1.2756e+002 -5.4901e+000 32274 105396,105102,105076
 6.0000e+000 105350 -4.4435e+001 -1.3900e+002 -1.8093e+000 32274 105396,105076,105206
 6.0000e+000 105327 -5.9314e+001 -1.4594e+002  6.6145e+000 32274 105154,105206,105180
 6.0000e+000 105304 -2.0030e+001 -1.3333e+002 -1.1280e+001 32274 105076,105232,105206
 6.0000e+000 105281 -4.9515e+001 -1.1628e+002 -2.0255e+001 32274 105102,105154,105128
 6.0000e+000 105258 -6.7827e+001 -1.0521e+002 -2.0280e+001 32274 105050,105232,105076
 6.0000e+000 105422 -4.7283e+001 -1.1485e+002 -5.2678e+000 32274 105154,105102,105396
 6.0000e+000 105445 -5.1664e+001 -1.2631e+002 -2.3561e+000 32274 105154,105396,105206
 6.0000e+000 105644 -5.1721e+001 -1.3724e+002 -2.3361e+000 31620 105468,105546,105520
 6.0000e+000 105621 -4.2184e+001 -1.4576e+002 -7.0411e+000 31620 105468,105572,105546
 6.0000e+000 105598 -5.1965e+001 -1.4874e+002  6.9206e+000 31620 105468,105520,105494
 6.0000e+000 105794 -7.0725e+000 -1.1257e+002 -3.8203e+000 31158 105889,105817,105693
 6.0000e+000 105771 -1.4961e+001 -1.0048e+002 -7.7236e+000 31158 105817,105667,105745
 6.0000e+000 105843 -1.1136e+001 -1.3940e+002 -1.4680e+000 31158 105719,105693,105817
 6.0000e+000 105866 -3.4667e+000 -1.1886e+002 -6.5647e+000 31158 105719,105817,105745
 6.0000e+000 105915 -2.5112e+001 -1.2030e+002 -4.0229e+000 31158 105667,105817,105889
 6.0000e+000 106270 -4.9653e+001 -1.1515e+002 -8.8776e-001 30818 106293,106071,106045
 6.0000e+000 106247 -5.8060e+001 -1.3420e+002 -7.4304e+000 30818 106293,106045,106175
 6.0000e+000 106224 -4.0534e+001 -1.0758e+002  6.7716e+000 30818 106123,106175,106149
 6.0000e+000 106201 -5.1947e+001 -1.1793e+002  1.2585e+001 30818 106071,106123,106097
 6.0000e+000 106319 -5.0686e+001 -1.0768e+002  6.1198e+000 30818 106123,106071,106293
 6.0000e+000 106342 -5.1902e+001 -1.1772e+002  5.9652e-001 30818 106123,106293,106175
 6.0000e+000 106492 -4.7677e+001 -1.0556e+002  2.0922e+001 30414 106645,106391,106365
 6.0000e+000 106469 -1.2596e+001 -1.0504e+002  3.2990e+001 30414 106515,106365,106443
 6.0000e+000 106541 -2.7496e+001 -1.1112e+002  2.4462e+001 30414 106645,106365,106515
 6.0000e+000 106671 -1.9851e+001 -1.2571e+002  4.2609e+001 30414 106417,106391,106645
 6.0000e+000 106694  2.5143e+001 -1.1634e+002  3.7110e+001 30414 106417,106645,106515
 6.0000e+000 106942 -2.5732e+001 -1.6464e+002 -1.0220e+000 29910 106965,106795,106769
 6.0000e+000 106919 -2.1199e+001 -1.4888e+002  3.7789e+000 29910 106965,106769,106717
 6.0000e+000 106896 -2.4807e+001 -1.2573e+002 -1.4673e+001 29910 106795,106847,106821
 6.0000e+000 106873 -1.1497e+001 -1.2920e+002  8.1034e+000 29910 106717,106769,106743
 6.0000e+000 106991 -3.5700e+001 -1.4708e+002  1.5760e+000 29910 106847,106795,106965
 6.0000e+000 107014 -2.7722e+001 -1.2615e+002  6.3447e+000 29910 106847,106965,106717
 6.0000e+000 107213 -3.2389e+001 -1.2265e+002  8.3554e+000 29413 107236,107063,107037
 6.0000e+000 107190 -3.0838e+001 -1.4507e+002  1.6684e+001 29413 107236,107037,107141
 6.0000e+000 107167 -4.1267e+001 -8.6697e+001  2.0190e+001 29413 107063,107115,107089
 6.0000e+000 107262 -3.1161e+001 -1.0767e+002  5.2047e+000 29413 107115,107063,107236
 6.0000e+000 107285 -2.6358e+001 -1.2451e+002  1.4247e+001 29413 107115,107236,107141
 6.0000e+000 107486 -1.4223e+001 -1.1850e+002  1.7005e+001 29009 107336,107388,107362
 6.0000e+000 107463 -7.5048e+000 -1.1454e+002  4.4005e+000 29009 107310,107388,107336
 6.0000e+000 107440 -9.8698e+000 -1.0860e+002  4.5512e+000 29009 107310,107414,107388
 6.0000e+000 107736 -5.0461e+001 -1.3646e+002 -4.1739e+000 28491 107537,107615,107563
 6.0000e+000 107713 -4.3867e+001 -1.3364e+002 -4.0610e+000 28491 107537,107641,107615
 6.0000e+000 107690 -2.9167e+001 -1.2670e+002  3.2949e+000 28491 107563,107615,107589
 6.0000e+000 107667 -4.4079e+001 -1.3025e+002 -3.5739e+000 28491 107511,107641,107537
 6.0000e+000 108118 -2.9082e+001 -1.2890e+002  4.7205e+000 27980 108141,107922,107844
 6.0000e+000 108095 -2.3090e+001 -1.3749e+002  4.1619e+000 27980 108141,107844,108000
 6.0000e+000 108072 -3.0404e+001 -1.3408e+002 -7.1733e+000 27980 107844,107922,107870
 6.0000e+000 108049 -3.2574e+001 -1.1664e+002 -3.9250e+000 27980 107870,107922,107896
 6.0000e+000 108026 -4.6544e+001 -1.2221e+002  1.5119e+001 27980 107922,107974,107948
 6.0000e+000 108167 -2.4604e+001 -1.2989e+002  6.8497e+000 27980 107974,107922,108141
 6.0000e+000 108190 -8.4755e+000 -1.2929e+002  8.8602e+000 27980 107974,108141,108000
 6.0000e+000 108745 -1.1564e+001 -8.0929e+001 -2.8287e+000 27376 108840,108768,108477
 6.0000e+000 108722 -2.2638e+001 -1.0061e+002 -2.1214e+001 27376 108768,108373,108581
 6.0000e+000 108699 -2.1326e+001 -7.0506e+001  1.4756e+001 27376 108840,108477,108451
 6.0000e+000 108676 -5.8634e+001 -8.6449e+001 -4.5288e+000 27376 108373,108451,108399
 6.0000e+000 108653 -2.1510e+001 -1.0162e+002  1.5428e+001 27376 108503,108581,108529
 6.0000e+000 108630 -2.4863e+001 -9.6702e+001  1.5770e+001 27376 108529,108581,108555
 6.0000e+000 108607 -6.6285e+001 -9.2770e+001  6.2646e+000 27376 108399,108451,108425
 6.0000e+000 108794 -2.0528e+001 -1.0931e+002 -3.1085e-001 27376 108503,108477,108768
 6.0000e+000 108817 -6.0942e-001 -1.0019e+002 -4.0847e+000 27376 108503,108768,108581
 6.0000e+000 108866 -4.7360e+001 -1.0057e+002 -1.0443e+001 27376 108373,108768,108840
 6.0000e+000 108889 -4.5668e+001 -8.6153e+001  7.7959e+000 27376 108373,108840,108451
 6.0000e+000 109186 -4.9763e+001 -1.3469e+002  1.4898e+001 26722 109209,108938,108912
 6.0000e+000 109163 -4.5820e+001 -1.2487e+002  1.2998e+001 26722 109281,109209,108912
 6.0000e+000 109140 -4.4645e+001 -1.2134e+002  1.2570e+001 26722 109281,108912,109042
 6.0000e+000 109117 -3.8710e+001 -1.3995e+002  6.3851e+000 26722 108938,108990,108964
 6.0000e+000 109094 -6.4318e+001 -1.1106e+002  8.7039e+000 26722 108912,109068,109042
 6.0000e+000 109235 -4.0551e+001 -1.2896e+002  1.2146e+001 26722 108990,108938,109209
 6.0000e+000 109258 -4.4718e+001 -1.3691e+002  1.0360e+001 26722 108990,109209,109016
 6.0000e+000 109307 -4.1589e+001 -1.3022e+002  6.9164e+000 26722 109016,109209,109281
 6.0000e+000 109330 -3.9112e+001 -1.2444e+002  5.8261e+000 26722 109016,109281,109042
 6.0000e+000 109732 -4.8837e+001 -1.0995e+002 -3.7002e+000 26310 109458,109588,109484
 6.0000e+000 109709 -4.6019e+001 -1.2083e+002 -1.2252e+001 26310 109458,109614,109588
 6.0000e+000 109686 -7.6457e+001 -1.2901e+002  1.8081e+001 26310 109510,109562,109536
 6.0000e+000 109663 -7.9603e+001 -1.2357e+002  7.4953e+000 26310 109484,109562,109510
 6.0000e+000 109640 -5.4434e+001 -1.1298e+002 -2.2709e+000 26310 109484,109588,109562
 6.0000e+000 110159 -3.0022e+001 -1.1155e+002 -3.1592e+000 25642 110182,109940,109914
 6.0000e+000 110136 -2.5688e+001 -1.2717e+002  1.7528e+001 25642 110182,109914,109888
 6.0000e+000 110113 -3.9669e+001 -1.3589e+002 -1.7579e+001 25642 109966,110018,109992
 6.0000e+000 110090 -4.4307e+001 -1.3210e+002  1.0007e+001 25642 110254,109966,109940
 6.0000e+000 110067 -5.7712e+001 -1.2349e+002  8.5610e+000 25642 109862,110018,109888
 6.0000e+000 110044 -5.4796e+001 -1.0246e+002  1.8985e+001 25642 109836,110018,109862
 6.0000e+000 110208 -4.2555e+001 -1.2218e+002  7.5053e+000 25642 110254,109940,110182
 6.0000e+000 110231 -4.6837e+001 -1.2972e+002  1.8574e+001 25642 110018,110182,109888
 6.0000e+000 110280 -3.7658e+001 -1.4485e+002  8.4242e+000 25642 110018,109966,110254
 6.0000e+000 110303 -3.8147e+001 -1.3758e+002  6.3887e+000 25642 110018,110254,110182
 6.0000e+000 110632 -5.8417e+001 -1.1407e+002 -6.7565e+000 25188 110407,110485,110433
 6.0000e+000 110609 -6.9456e+001 -1.1879e+002 -3.1912e+000 25188 110407,110537,110485
 6.0000e+000 110586 -6.3943e+001 -1.1767e+002 -2.3527e+001 25188 110433,110485,110459
 6.0000e+000 110563 -6.5977e+001 -1.2990e+002  1.4812e+001 25188 110485,110537,110511
 6.0000e+000 110831 -9.4755e+000 -1.1052e+002  3.7144e+000 24726 110854,110707,110655
 6.0000e+000 110808 -4.0850e+000 -1.1927e+002  1.2470e+001 24726 110854,110655,110759
 6.0000e+000 110785 -1.3633e+001 -1.1394e+002  6.2247e+000 24726 110655,110707,110681
 6.0000e+000 110880 -5.2091e+000 -1.0209e+002  5.1699e+000 24726 110733,110707,110854
 6.0000e+000 110903  2.2216e+000 -1.0662e+002  1.4547e+001 24726 110733,110854,110759
 6.0000e+000 111234 -3.0954e+000 -7.9311e+001 -2.0696e+000 24222 111257,111087,111035
 6.0000e+000 111211  9.8173e+000 -7.3519e+001  8.9184e+000 24222 111257,111035,111009
 6.0000e+000 111188 -1.4296e+001 -3.6765e+001 -1.9835e+001 24222 111035,111087,111061
 6.0000e+000 111165 -1.3416e+001 -6.7506e+001  2.3271e+000 24222 111087,111139,111113
 6.0000e+000 111283 -1.1250e+001 -6.5655e+001  3.9221e+000 24222 111139,111087,111257
 6.0000e+000 111306 -5.6513e+000 -5.6030e+001  1.0992e+001 24222 111139,111257,111009
 6.0000e+000 111625 -1.1756e+001 -1.0790e+002 -5.1115e+000 23732 111648,111481,111455
 6.0000e+000 111602 -1.1638e+001 -1.0782e+002 -5.1730e+000 23732 111648,111455,111377
 6.0000e+000 111579  2.0929e+001 -4.9292e+001  1.2315e+001 23732 111377,111429,111403
 6.0000e+000 111556 -1.1263e+000 -1.0648e+002 -3.4401e+000 23732 111377,111455,111429
 6.0000e+000 111533 -5.8720e+000 -9.8369e+001 -2.3880e+000 23732 111351,111507,111377
 6.0000e+000 111674 -1.1623e+001 -1.0796e+002 -5.1593e+000 23732 111507,111481,111648
 6.0000e+000 111697 -1.1558e+001 -1.0785e+002 -5.2350e+000 23732 111507,111648,111377
 6.0000e+000 112156 -3.0616e+001 -1.3174e+002  9.8492e+000 23278 112179,111908,111882
 6.0000e+000 112133 -2.8599e+001 -1.2181e+002  5.2611e+000 23278 112179,111882,112012
 6.0000e+000 112110 -8.6042e+000 -1.4279e+002  5.2678e-001 23278 111908,111960,111934
 6.0000e+000 112087 -1.1695e+001 -1.0646e+002 -1.6400e+000 23278 111882,112038,112012
 6.0000e+000 112064 -2.5383e+001 -1.0934e+002 -1.6683e+000 23278 111960,112012,111986
 6.0000e+000 112205 -2.9069e+001 -1.2705e+002  1.7540e+000 23278 111960,111908,112179
 6.0000e+000 112228 -2.4148e+001 -1.1581e+002 -3.4816e+000 23278 111960,112179,112012
 6.0000e+000 112685 -7.8281e+001 -1.7978e+002 -1.6634e+001 22938 112489,112567,112541
 6.0000e+000 112662 -6.6946e+001 -1.5425e+002 -1.4633e+001 22938 112437,112567,112489
 6.0000e+000 112639 -4.7858e+001 -1.3587e+002 -2.3086e+000 22938 112489,112541,112515
 6.0000e+000 112616 -7.5708e+001 -1.4541e+002 -1.2111e+001 22938 112411,112567,112437
 6.0000e+000 112593 -6.1478e+001 -1.9826e+002 -2.0728e+000 22938 112437,112489,112463
 6.0000e+000 113191 -4.5788e+000 -1.3198e+002 -1.6849e+001 22534 113214,112998,112946
 6.0000e+000 113168 -2.3736e+001 -1.1568e+002 -8.7796e+000 22534 113286,113214,112946
 6.0000e+000 113145 -1.7677e+001 -1.1599e+002 -7.3288e+000 22534 113286,112946,112920
 6.0000e+000 113122 -5.2959e+001 -1.0581e+002 -2.4597e+001 22534 113358,113024,112998
 6.0000e+000 113099 -3.3218e+001 -1.1167e+002 -5.1044e+000 22534 112868,113050,112894
 6.0000e+000 113076 -3.6232e+001 -1.8624e+002 -3.1576e+001 22534 112946,112998,112972
 6.0000e+000 113240 -3.8769e+001 -1.3497e+002 -2.5982e+001 22534 113358,112998,113214
 6.0000e+000 113263 -3.1594e+001 -1.2129e+002 -6.0730e+000 22534 113050,113214,112894
 6.0000e+000 113312 -1.5895e+001 -1.1446e+002 -7.0009e+000 22534 112894,113214,113286
 6.0000e+000 113335 -9.5435e+000 -1.1514e+002 -6.6518e+000 22534 112894,113286,112920
 6.0000e+000 113384 -3.7150e+001 -7.8652e+001 -1.8049e+001 22534 113050,113024,113358
 6.0000e+000 113407 -1.6801e+001 -1.0299e+002 -1.6211e+001 22534 113050,113358,113214
 6.0000e+000 113785 -5.7054e+001 -1.5355e+002  4.2022e+000 21978 113808,113615,113511
 6.0000e+000 113762 -4.5883e+001 -1.5548e+002  1.1077e+001 21978 113808,113511,113667
 6.0000e+000 113739 -3.0739e+001 -1.3064e+002 -6.3534e+000 21978 113511,113615,113537
 6.0000e+000 113716  1.9615e+001 -1.1697e+002 -1.3602e+001 21978 113537,113615,113589
 6.0000e+000 113693 -1.3374e+001 -1.6732e+002  1.7717e+000 21978 113537,113589,113563
 6.0000e+000 113834 -5.9029e+001 -1.5347e+002  1.8583e+001 21978 113641,113615,113808
 6.0000e+000 113857 -2.9412e+001 -1.4204e+002  2.6793e+001 21978 113641,113808,113667
 6.0000e+000 114284 -4.0891e+001 -1.2761e+002  3.1757e+000 21517 114013,114117,114039
 6.0000e+000 114261 -4.7752e+001 -1.2747e+002  1.0475e+001 21517 113961,114117,114013
 6.0000e+000 114238 -4.5032e+001 -1.2846e+002  1.1106e+001 21517 113961,114013,113987
 6.0000e+000 114215 -6.9514e+001 -1.4844e+002 -1.0465e+001 21517 114039,114117,114091
 6.0000e+000 114192 -4.8011e+001 -1.0646e+002  1.2279e+001 21517 113961,114143,114117
 6.0000e+000 114169 -1.0241e+001 -1.2777e+002 -1.1267e+001 21517 114039,114091,114065
 6.0000e+000 114581 -1.7369e+001 -1.4604e+002  1.6125e+000 21027 114359,114463,114437
 6.0000e+000 114558 -5.2954e+000 -1.3154e+002  1.8345e+001 21027 114333,114463,114359
 6.0000e+000 114535 -2.4570e+000 -1.3271e+002 -4.0590e+000 21027 114359,114437,114385
 6.0000e+000 114512 -1.4979e+000 -1.3044e+002  1.6860e+001 21027 114307,114463,114333
 6.0000e+000 114489  3.1624e+001 -1.2306e+002 -6.6713e+000 21027 114385,114437,114411
 6.0000e+000 114912 -5.6546e+001 -1.3078e+002  2.2723e+000 20623 114713,114791,114765
 6.0000e+000 114889 -4.0112e+001 -1.2404e+002 -9.1577e+000 20623 114687,114791,114713
 6.0000e+000 114866 -2.5301e+001 -1.3638e+002 -1.1144e+001 20623 114687,114817,114791
 6.0000e+000 114843 -8.5751e+001 -1.6097e+002  1.4736e+001 20623 114713,114765,114739
 6.0000e+000 115290 -1.5025e+001 -1.1831e+002  6.6198e+000 20375 115313,115146,115094
 6.0000e+000 115267 -2.5476e+001 -1.1277e+002  1.2285e+001 20375 115313,115094,115042
 6.0000e+000 115244 -3.3378e+001 -1.0739e+002  3.6163e+000 20375 115385,115016,115172
 6.0000e+000 115221 -1.1238e+001 -1.0548e+002  9.7371e+000 20375 115042,115094,115068
 6.0000e+000 115198 -2.4425e+001 -1.4150e+002  6.8976e+000 20375 115094,115146,115120
 6.0000e+000 115339 -3.6934e+001 -1.4120e+002 -4.9154e+000 20375 115172,115146,115313
 6.0000e+000 115362 -1.9225e+001 -1.1135e+002  4.2869e+000 20375 115385,115172,115313
 6.0000e+000 115411 -4.1011e+001 -1.1174e+002  5.4228e+000 20375 115042,115016,115385
 6.0000e+000 115434 -3.4311e+001 -1.2069e+002  8.3583e+000 20375 115042,115385,115313
 6.0000e+000 115891 -6.1637e+001 -1.2101e+002  1.5420e+001 19971 115617,115747,115643
 6.0000e+000 115868 -5.3860e+001 -1.0331e+002  1.6597e+001 19971 115617,115773,115747
 6.0000e+000 115845 -4.1488e+001 -1.9136e+002  3.3129e+000 19971 115643,115721,115695
 6.0000e+000 115822 -1.3582e+000 -9.2985e+001  2.8269e-001 19971 115643,115747,115721
 6.0000e+000 115799 -3.4286e+001 -2.3429e+002 -1.7651e+001 19971 115643,115695,115669
 6.0000e+000 115992 -8.6751e+001 -2.2568e+002 -4.0020e+001 19659 115914,115966,115940
 6.0000e+000 116142 -1.5499e+001 -5.2608e+001  1.4856e+000 18997 116041,116093,116067
 6.0000e+000 116119 -3.0416e+001 -9.0938e+001  5.5818e+000 18997 116015,116093,116041
 6.0000e+000 116343 -2.4726e+001 -1.3893e+002 -3.6268e+000 18707 116193,116245,116219
 6.0000e+000 116320 -5.6074e+001 -1.5239e+002 -5.9968e+000 18707 116193,116271,116245
 6.0000e+000 116297 -5.2528e+001 -1.3776e+002 -1.1759e+001 18707 116167,116271,116193
 6.0000e+000 116747 -2.1562e+001 -1.2537e+002 -2.4062e+000 18301 116525,116629,116551
 6.0000e+000 116724 -1.2035e+001 -1.0656e+002  2.8794e+000 18301 116473,116629,116525
 6.0000e+000 116701 -7.6681e+000 -1.0357e+002 -5.8369e+000 18301 116473,116525,116499
 6.0000e+000 116678 -1.7773e+001 -1.3057e+002 -1.6942e+000 18301 116551,116603,116577
 6.0000e+000 116655 -2.5919e+001 -1.3560e+002 -4.0149e+000 18301 116551,116629,116603
 6.0000e+000 117147 -5.9173e+001 -1.3909e+002  7.3074e-001 17747 116899,117029,116925
 6.0000e+000 117124 -3.1282e+001 -1.0224e+002  1.4983e+001 17747 116873,117029,116899
 6.0000e+000 117101 -5.8000e+001 -1.3683e+002  1.2018e+000 17747 116925,117029,116951
 6.0000e+000 117078 -4.7662e+001 -1.1189e+002  5.6022e-001 17747 116951,117029,117003
 6.0000e+000 117055 -6.9132e+001 -1.5807e+002 -1.1372e+001 17747 116951,117003,116977
 6.0000e+000 117368  1.1193e+001 -1.3851e+002  3.8288e+000 17293 117244,117296,117270
 6.0000e+000 117345 -8.5938e+000 -1.4450e+002 -1.7548e+000 17293 117192,117296,117244
 6.0000e+000 117322 -2.4061e+001 -1.3475e+002 -1.4942e+000 17293 117192,117244,117218
 6.0000e+000 117699 -1.3599e+001 -1.1273e+002 -1.2093e+001 16896 117526,117604,117552
 6.0000e+000 117676 -7.3132e+001 -1.7276e+002  1.1895e+001 16896 117500,117604,117526
 6.0000e+000 117653 -7.7329e+001 -1.3532e+002 -6.3028e+000 16896 117552,117604,117578
 6.0000e+000 117630 -7.0403e+001 -2.2650e+002  1.8072e+001 16896 117474,117604,117500
 6.0000e+000 117849 -1.5460e+002 -3.0201e+002 -1.1364e+001 16534 117722,117774,117748
 6.0000e+000 117826 -1.2102e+002 -3.6526e+002 -4.9925e+001 16534 117722,117800,117774
 6.0000e+000 118070  5.8855e-001 -1.4255e+002  1.8019e+001 16194 117946,117998,117972
 6.0000e+000 118047 -2.2174e+001 -1.6061e+002  7.2119e+000 16194 117894,117998,117946
 6.0000e+000 118024 -8.1331e+001 -1.6493e+002  1.4645e-001 16194 117894,117946,117920
 6.0000e+000 118173 -4.6179e+000 -1.3046e+002  0.0000e+000 15968 118095,118147,118121
 6.0000e+000 118276 -3.8113e+001 -1.4741e+002  9.7547e-001 15433 118299,118198,118250
 6.0000e+000 118325 -3.8503e+001 -1.4832e+002  9.8449e-001 15433 118224,118198,118299
 6.0000e+000 118450 -7.0021e+001 -1.5468e+002  1.4221e+001 421 118372,118424,118398
 6.1000e+000 69891 -2.7765e+001 -1.4348e+002  4.9136e+000 68988 69447,69681,69629
 6.1000e+000 69868  9.2985e+000 -1.2846e+002  3.8331e+000 68988 69421,69681,69447
 6.1000e+000 69845 -3.4386e+000 -7.1207e+001  5.7265e-001 68988 69447,69629,69577
 6.1000e+000 69822 -4.5685e+001 -1.4820e+002 -1.6752e+001 68988 69447,69577,69473
 6.1000e+000 69799 -7.8634e+000 -1.7282e+002  2.9243e+001 68988 69629,69681,69655
 6.1000e+000 69776 -4.9868e+001 -9.1205e+001  1.9244e+000 68988 69577,69629,69603
 6.1000e+000 69753 -3.6814e+001 -1.3332e+002 -2.1235e+001 68988 69473,69577,69551
 6.1000e+000 69730 -4.9526e+001 -2.6291e+002 -2.5049e+001 68988 69473,69551,69525
 6.1000e+000 69707 -8.1052e+001 -1.7363e+002  8.3765e-001 68988 69473,69525,69499
 6.1000e+000 69992 -9.5909e+001 -1.6307e+002 -2.3728e+001 68676 69914,69966,69940
 6.1000e+000 70392 -7.5118e+001 -1.4070e+002  1.2761e+001 68478 70118,70248,70144
 6.1000e+000 70369 -1.0663e+001 -1.4942e+002  3.0272e+001 68478 70118,70274,70248
 6.1000e+000 70346 -4.3270e+001 -1.0388e+002  3.3608e-001 68478 70144,70222,70196
 6.1000e+000 70323 -3.5887e+001 -8.4429e+001 -4.9217e+000 68478 70144,70248,70222
 6.1000e+000 70300 -4.4891e+001 -1.1232e+002 -6.3412e-001 68478 70144,70196,70170
 6.1000e+000 70841  1.7432e+001 -9.7145e+001 -2.5258e+001 68280 70570,70622,70596
 6.1000e+000 70818 -5.1574e+001 -1.0899e+002 -5.9140e+000 68280 70544,70622,70570
 6.1000e+000 70795 -3.9634e+001 -8.2240e+001 -3.4779e+000 68280 70544,70674,70622
 6.1000e+000 70772 -3.5181e+001 -7.3485e+001  1.5580e+000 68280 70622,70674,70648
 6.1000e+000 70749 -5.4194e+001 -1.2175e+002  8.8373e+000 68280 70518,70674,70544
 6.1000e+000 70726  3.0948e+001 -1.2950e+002  3.3686e+001 68280 70518,70700,70674
 6.1000e+000 70991 -5.4316e+000 -5.1261e+002  1.5954e+001 67968 70864,70916,70890
 6.1000e+000 70968 -1.3861e+002 -5.0841e+002  6.2068e+001 67968 70864,70942,70916
 6.1000e+000 71141 -2.3215e+002 -4.4201e+002 -2.0495e+001 67770 71040,71092,71066
 6.1000e+000 71118 -2.0281e+002 -5.3382e+002  2.4558e+001 67770 71014,71092,71040
 6.1000e+000 71651 -3.6807e+001 -1.0175e+002 -1.5159e+001 67366 71746,71674,71458
 6.1000e+000 71628 -2.4332e+001 -7.7680e+001 -1.9063e+001 67366 71674,71354,71510
 6.1000e+000 71605 -3.5239e+001 -1.1421e+002 -1.3339e+001 67366 71746,71458,71432
 6.1000e+000 71582 -5.4878e+001 -1.1506e+002  7.0446e+000 67366 71354,71432,71380
 6.1000e+000 71559 -5.3156e+001 -8.5085e+001 -7.3176e+000 67366 71380,71432,71406
 6.1000e+000 71536 -2.7973e+001 -3.2809e+001 -3.4526e+000 67366 71328,71510,71354
 6.1000e+000 71700 -3.8905e+001 -9.0542e+001 -7.2835e+000 67366 71484,71458,71674
 6.1000e+000 71723 -3.0463e+001 -8.6783e+001 -6.5538e+000 67366 71484,71674,71510
 6.1000e+000 71772 -3.5118e+001 -8.6956e+001 -1.3796e+001 67366 71354,71674,71746
 6.1000e+000 71795 -3.1777e+001 -9.7038e+001 -1.3780e+001 67366 71354,71746,71432
 6.1000e+000 71896 -8.4212e+001 -1.7306e+002  0.0000e+000 67146 71818,71870,71844
 6.1000e+000 71997 -8.4725e+001 -1.5959e+002  3.2440e+001 66948 71919,71971,71945
 6.1000e+000 72149 -1.7762e+001 -1.1084e+002 -1.4288e+001 66700 72172,72074,72048
 6.1000e+000 72126 -4.8090e+001 -1.2743e+002 -5.8992e+000 66700 72172,72048,72022
 6.1000e+000 72198 -7.1364e+001 -1.3693e+002  7.3693e+000 66700 72244,72172,72100
 6.1000e+000 72221 -6.0837e+001 -1.2471e+002 -7.0465e+000 66700 72100,72172,72022
 6.1000e+000 72270 -4.2562e+001 -7.3120e+001 -9.4888e+000 66700 72074,72172,72244
 6.1000e+000 72623 -5.1951e+001 -1.1807e+002  2.2857e+000 66502 72424,72502,72450
 6.1000e+000 72600 -4.5601e+001 -1.0132e+002  1.7548e+000 66502 72398,72502,72424
 6.1000e+000 72577 -3.6044e+001 -1.1427e+002 -2.0544e+000 66502 72398,72528,72502
 6.1000e+000 72554 -5.6128e+001 -1.0753e+002 -3.4748e-001 66502 72450,72502,72476
 6.1000e+000 72920 -7.6849e+001 -1.5272e+002  3.6651e+000 65941 72672,72776,72750
 6.1000e+000 72897 -7.2488e+001 -1.3094e+002  1.4442e+001 65941 72646,72776,72672
 6.1000e+000 72874 -6.7610e+001 -1.5061e+002  5.5863e+000 65941 72672,72750,72724
 6.1000e+000 72851 -6.8744e+001 -1.2325e+002  1.1234e+001 65941 72672,72724,72698
 6.1000e+000 72828 -5.5564e+001 -1.2679e+002  1.1993e+001 65941 72646,72802,72776
 6.1000e+000 73241 -3.1251e+001 -1.0710e+002  3.9612e+000 65743 73264,73071,73045
 6.1000e+000 73218 -5.2678e+001 -1.2015e+002  1.0432e+001 65743 73480,73264,73045
 6.1000e+000 73195 -4.1499e+001 -1.0534e+002 -8.8762e-001 65743 73336,72967,73097
 6.1000e+000 73172 -6.3687e+001 -9.7851e+001 -7.9343e+000 65743 73408,72993,72967
 6.1000e+000 73149 -3.9993e+001 -1.0701e+002 -1.6235e+000 65743 72967,73123,73097
 6.1000e+000 73290 -3.6383e+001 -1.0932e+002  1.2621e+000 65743 73097,73071,73264
 6.1000e+000 73313 -3.8511e+001 -1.0269e+002  2.6651e+000 65743 73336,73097,73264
 6.1000e+000 73362 -5.5734e+001 -1.0837e+002 -4.7657e+000 65743 73408,72967,73336
 6.1000e+000 73385 -3.2202e+001 -1.0038e+002  7.3577e-001 65743 73019,73336,73264
 6.1000e+000 73434 -5.0254e+001 -7.6148e+001  5.6258e+000 65743 73019,72993,73408
 6.1000e+000 73457 -3.3221e+001 -9.1318e+001  4.7258e+000 65743 73019,73408,73336
 6.1000e+000 73506 -2.6894e+001 -7.5264e+001  8.6489e-003 65743 73019,73264,73480
 6.1000e+000 73989 -1.0771e+001 -8.9635e+001  1.0209e+001 65453 73793,73845,73819
 6.1000e+000 73966 -5.0595e+001 -9.9889e+001  1.1956e+001 65453 73741,73845,73793
 6.1000e+000 73943 -1.8910e+001 -8.2566e+001  5.2812e+000 65453 73715,73845,73741
 6.1000e+000 73920 -4.1150e+001 -1.0949e+002  2.0388e+001 65453 73741,73793,73767
 6.1000e+000 73897 -1.2827e+000 -4.8438e+001 -9.7566e-001 65453 73715,73871,73845
 6.1000e+000 74357 -2.6495e+001 -9.5042e+001 -3.0608e+001 65141 74380,74138,74086
 6.1000e+000 74334 -4.8702e+001 -1.3352e+002 -2.1329e+001 65141 74380,74086,74060
 6.1000e+000 74311 -5.0040e+001 -1.2818e+002 -7.3633e+000 65141 74138,74190,74164
 6.1000e+000 74288 -4.5913e+001 -1.4350e+002 -6.6093e+000 65141 74060,74216,74190
 6.1000e+000 74265 -4.9115e+001 -1.5330e+002  1.8666e+000 65141 74034,74216,74060
 6.1000e+000 74242 -2.3263e+001 -5.6029e+001 -1.2667e+001 65141 74086,74138,74112
 6.1000e+000 74406 -3.9577e+001 -1.2876e+002 -1.2166e+001 65141 74190,74138,74380
 6.1000e+000 74429 -4.6633e+001 -1.4228e+002 -6.3127e+000 65141 74190,74380,74060
 6.1000e+000 74937 -5.8135e+001 -1.0736e+002 -2.4853e+001 64737 74614,74666,74640
 6.1000e+000 74914 -7.0367e+001 -1.3157e+002 -1.7867e+001 64737 74614,74796,74666
 6.1000e+000 74891 -5.0374e+001 -8.7000e+001 -1.9306e+000 64737 74960,74718,74666
 6.1000e+000 74868 -4.7417e+001 -9.6922e+001 -1.0712e+001 64737 74960,74666,74770
 6.1000e+000 74845 -4.9230e+001 -8.4513e+001 -1.1643e+001 64737 74666,74796,74770
 6.1000e+000 74822 -4.7165e+001 -9.5732e+001  3.7258e+000 64737 74666,74718,74692
 6.1000e+000 74986 -5.2023e+001 -9.7137e+001 -4.6049e+000 64737 74744,74718,74960
 6.1000e+000 75009 -5.3514e+001 -1.1263e+002 -1.4094e+001 64737 74744,74960,74770
 6.1000e+000 75306 -2.8929e+001 -9.4253e+001  1.6943e+001 64133 75329,75110,75084
 6.1000e+000 75283 -3.7280e+001 -1.1555e+002  4.7748e+000 64133 75401,75329,75084
 6.1000e+000 75260 -3.6878e+001 -1.1817e+002  5.3519e+000 64133 75401,75084,75058
 6.1000e+000 75237 -3.7023e+001 -1.4120e+002  2.0847e+001 64133 75473,75136,75110
 6.1000e+000 75214 -3.5343e+001 -1.0942e+002  1.7972e+000 64133 75032,75188,75162
 6.1000e+000 75355 -4.3874e+001 -1.2943e+002  1.5942e+001 64133 75473,75110,75329
 6.1000e+000 75378 -3.2275e+001 -1.1134e+002  1.8075e+000 64133 75162,75329,75032
 6.1000e+000 75427 -3.0398e+001 -1.0676e+002  1.2636e+000 64133 75032,75329,75401
 6.1000e+000 75450 -5.5063e+001 -1.2982e+002  1.3437e+001 64133 75545,75401,75058
 6.1000e+000 75499 -3.0107e+001 -1.2664e+002  7.8063e+000 64133 75162,75136,75473
 6.1000e+000 75522 -3.6785e+001 -1.0783e+002  6.1689e+000 64133 75162,75473,75329
 6.1000e+000 75571 -3.0341e+001 -7.5890e+001  3.7731e+000 64133 75032,75401,75545
 6.1000e+000 75851 -4.9751e+001 -1.0562e+002  2.7987e+000 63843 75874,75753,75727
 6.1000e+000 75828 -4.3351e+001 -1.0070e+002 -3.7956e+000 63843 75946,75874,75727
 6.1000e+000 75805 -4.8656e+001 -1.0593e+002 -1.4874e+000 63843 76018,75946,75727
 6.1000e+000 75900 -4.2560e+001 -1.0263e+002 -5.2065e+000 63843 75779,75753,75874
 6.1000e+000 75923 -4.1978e+001 -8.6269e+001 -1.1864e+001 63843 75779,75874,75675
 6.1000e+000 75972 -4.8219e+001 -9.8812e+001 -3.7735e+000 63843 75675,75874,75946
 6.1000e+000 75995 -4.4861e+001 -9.9520e+001 -6.1132e+000 63843 75675,75946,75701
 6.1000e+000 76044 -4.8347e+001 -1.0133e+002 -6.7915e+000 63843 75701,75946,76018
 6.1000e+000 76454  5.7666e+000 -1.5900e+001 -1.0064e+001 63439 76477,76255,76229
 6.1000e+000 76431 -1.0120e+001 -4.1441e+001  1.3198e+000 63439 76477,76229,76359
 6.1000e+000 76408 -1.3157e+001 -3.2950e+001  1.9652e+001 63439 76307,76359,76333
 6.1000e+000 76385 -8.2901e+000 -4.8401e+001  2.8890e-001 63439 76255,76307,76281
 6.1000e+000 76503 -1.2387e+001 -3.6552e+001  4.9112e+000 63439 76307,76255,76477
 6.1000e+000 76526 -1.0852e+001 -4.6062e+001  1.3328e+001 63439 76307,76477,76359
 6.1000e+000 76926 -2.4622e+001 -6.6397e+001  1.1600e-001 63049 76704,76782,76756
 6.1000e+000 76903 -3.1168e+001 -6.7482e+001 -6.5883e+000 63049 76704,76808,76782
 6.1000e+000 76880 -2.1625e+001 -7.4364e+001  1.1473e+000 63049 76704,76756,76730
 6.1000e+000 76857 -1.8701e+001 -4.0713e+001  3.8187e+000 63049 76678,76808,76704
 6.1000e+000 76834 -7.4408e+000 -8.2579e+000 -8.7455e+000 63049 76652,76808,76678
 6.1000e+000 77076 -1.3482e+001 -1.2652e+002 -1.0808e+000 62737 76975,77027,77001
 6.1000e+000 77053 -1.0894e+001 -1.3981e+002 -8.2492e+000 62737 76949,77027,76975
 6.1000e+000 77324 -5.1273e+001 -1.2005e+002 -1.2102e+000 62277 77347,77177,77125
 6.1000e+000 77301 -5.2603e+001 -1.1698e+002 -6.8728e+000 62277 77347,77125,77229
 6.1000e+000 77278 -5.0566e+001 -1.2314e+002 -1.0770e+001 62277 77099,77229,77125
 6.1000e+000 77255 -5.4869e+001 -1.4058e+002  1.5392e+000 62277 77125,77177,77151
 6.1000e+000 77373 -5.4515e+001 -1.2966e+002  8.9826e-001 62277 77203,77177,77347
 6.1000e+000 77396 -5.1554e+001 -1.2166e+002 -5.3726e+000 62277 77203,77347,77229
 6.1000e+000 77857 -3.1631e+001 -1.5629e+002  1.8268e+000 61758 77635,77739,77661
 6.1000e+000 77834 -4.3244e+001 -1.5330e+002 -4.5145e+000 61758 77583,77739,77635
 6.1000e+000 77811 -4.8515e+001 -1.9109e+002 -1.8207e+001 61758 77583,77635,77609
 6.1000e+000 77788 -4.0356e+001 -1.5309e+002  1.0825e+001 61758 77661,77713,77687
 6.1000e+000 77765 -4.3140e+001 -1.7023e+002  1.0072e+001 61758 77661,77739,77713
 6.1000e+000 78491 -4.5640e+001 -8.1771e+001  4.5460e+000 61418 78171,78301,78249
 6.1000e+000 78468 -3.3768e+001 -6.6340e+001  1.0846e+001 61418 78145,78301,78171
 6.1000e+000 78445 -3.4092e+001 -7.2913e+001 -2.3285e+000 61418 78171,78249,78223
 6.1000e+000 78422 -3.3058e+001 -6.5728e+001  2.9791e+000 61418 78145,78327,78301
 6.1000e+000 78399 -4.8222e+001 -9.6343e+001 -2.7590e+000 61418 78249,78301,78275
 6.1000e+000 78376 -2.0456e+001 -8.1421e+001 -4.2846e+000 61418 78171,78223,78197
 6.1000e+000 78353 -3.8235e+001 -8.7425e+001 -2.6464e+000 61418 78119,78327,78145
 6.1000e+000 78690 -3.6179e+001 -8.7018e+001  1.3299e+000 61014 78713,78566,78540
 6.1000e+000 78667 -2.7570e+001 -9.0737e+001  3.1503e+000 61014 78713,78540,78618
 6.1000e+000 78644 -4.1107e+001 -1.0285e+002 -1.0229e+001 61014 78514,78618,78540
 6.1000e+000 78739 -2.0604e+001 -8.2162e+001  9.6870e+000 61014 78592,78566,78713
 6.1000e+000 78762 -3.1233e+001 -9.4026e+001  1.5828e+000 61014 78785,78713,78618
 6.1000e+000 78811 -8.5599e+000 -8.5122e+001 -6.2898e-001 61014 78592,78713,78785
 6.1000e+000 79398 -1.7667e+001 -8.3784e+001 -7.4920e+000 60624 79101,79179,79153
 6.1000e+000 79375 -2.4583e+001 -9.2944e+001 -3.5875e+000 60624 79101,79231,79179
 6.1000e+000 79352 -1.7448e+001 -9.1591e+001 -5.6301e+000 60624 79075,79231,79101
 6.1000e+000 79329 -6.3345e+000 -1.0743e+002  1.0312e+001 60624 79075,79257,79231
 6.1000e+000 79306 -1.8304e+001 -7.1483e+001 -1.1701e+001 60624 79179,79231,79205
 6.1000e+000 79283 -1.2027e+001 -7.0897e+001 -5.0315e+000 60624 79101,79153,79127
 6.1000e+000 79776 -5.1743e+001 -1.2716e+002  9.2381e+000 60070 79528,79658,79606
 6.1000e+000 79753 -4.9060e+001 -1.0787e+002 -4.6962e-001 60070 79502,79658,79528
 6.1000e+000 79730 -6.4204e+001 -1.2114e+002  1.6027e+001 60070 79528,79606,79580
 6.1000e+000 79707 -2.6735e+001 -1.1498e+002  2.6148e+000 60070 79606,79658,79632
 6.1000e+000 79684 -7.0885e+000 -7.6095e+001 -1.6243e+001 60070 79528,79580,79554
 6.1000e+000 80105 -3.9398e+001 -1.0015e+002  1.0964e+001 59758 80128,79958,79906
 6.1000e+000 80082 -3.8415e+001 -9.5652e+001  8.7406e+000 59758 80128,79906,80010
 6.1000e+000 80059 -5.3251e+001 -1.0588e+002  3.1465e+001 59758 79906,79958,79932
 6.1000e+000 80036 -5.4796e+001 -1.0630e+002  4.1542e+000 59758 79880,80010,79906
 6.1000e+000 80154 -3.8883e+001 -1.0318e+002  1.1987e+001 59758 79984,79958,80128
 6.1000e+000 80177 -3.9060e+001 -9.9910e+001  9.9658e+000 59758 79984,80128,80010
 6.1000e+000 80376 -2.6590e+001 -8.2865e+001  1.4476e+000 59312 80226,80304,80252
 6.1000e+000 80353 -2.5449e+001 -8.6387e+001  1.5860e+000 59312 80200,80304,80226
 6.1000e+000 80330 -3.9685e+001 -7.5225e+001  2.2066e+001 59312 80252,80304,80278
 6.1000e+000 80805 -3.6115e+001 -8.1555e+001 -1.3910e+001 58908 80900,80828,80638
 6.1000e+000 80782 -2.6567e+001 -9.7507e+001 -2.0278e+001 58908 80828,80560,80508
 6.1000e+000 80759 -3.8142e+001 -7.6181e+001 -5.1031e+000 58908 80900,80638,80612
 6.1000e+000 80736 -1.4840e+001 -8.6282e+001  3.5282e+001 58908 80482,80664,80508
 6.1000e+000 80713 -2.5716e+001 -7.0628e+001 -2.5603e+000 58908 80560,80612,80586
 6.1000e+000 80690 -3.3911e+001 -2.6341e+002 -4.8842e+001 58908 80508,80560,80534
 6.1000e+000 80854 -1.6542e+001 -8.8264e+001 -5.0244e-001 58908 80664,80638,80828
 6.1000e+000 80877 -2.8419e+001 -1.3139e+002  3.0084e+000 58908 80664,80828,80508
 6.1000e+000 80926 -3.0117e+001 -6.5509e+001 -1.5204e+001 58908 80560,80828,80900
 6.1000e+000 80949 -3.4465e+001 -6.5519e+001 -5.1375e+000 58908 80560,80900,80612
 6.1000e+000 81246 -1.6741e+001 -8.2094e+001 -1.6654e+000 58482 81076,81128,81102
 6.1000e+000 81223 -3.9871e+001 -1.3888e+002 -1.3507e+001 58482 80972,81128,81076
 6.1000e+000 81200 -2.5143e+001 -9.5124e+001 -1.5646e+001 58482 80972,81076,81050
 6.1000e+000 81177 -5.5349e+001 -1.4024e+002 -6.3389e+000 58482 80998,81050,81024
 6.1000e+000 81154 -3.1444e+001 -1.1478e+002 -1.6348e+001 58482 80972,81050,80998
 6.1000e+000 81754 -4.0016e+001 -8.0480e+001  4.6655e+000 57828 81457,81613,81483
 6.1000e+000 81731 -4.7005e+001 -9.4878e+001  1.7850e+000 57828 81431,81613,81457
 6.1000e+000 81708 -4.3937e+001 -8.9651e+001  4.7009e+000 57828 81483,81613,81509
 6.1000e+000 81685 -5.4247e+001 -1.0113e+002  9.1082e+000 57828 81509,81613,81587
 6.1000e+000 81662 -5.8221e+001 -1.4947e+002  1.9121e+001 57828 81509,81587,81535
 6.1000e+000 81639 -3.4140e+001 -1.3421e+002  1.0264e+001 57828 81535,81587,81561
 6.1000e+000 82002 -5.8886e+001 -1.4511e+002 -2.8142e-001 57374 82025,81855,81829
 6.1000e+000 81979 -6.3080e+001 -1.3459e+002  8.3132e+000 57374 82025,81829,81907
 6.1000e+000 81956 -6.6071e+001 -1.2462e+002  5.1733e+000 57374 81803,81907,81829
 6.1000e+000 81933 -3.3702e+001 -1.1016e+002  9.0994e+000 57374 81777,81907,81803
 6.1000e+000 82051 -5.8253e+001 -1.3253e+002 -1.0700e+000 57374 81881,81855,82025
 6.1000e+000 82074 -6.0183e+001 -1.2312e+002  1.0494e+001 57374 81881,82025,81907
 6.1000e+000 82356 -3.8625e+001 -8.8974e+001 -4.0583e+000 56913 82180,82232,82206
 6.1000e+000 82333 -3.4731e+001 -8.5379e+001  6.1996e+000 56913 82180,82284,82232
 6.1000e+000 82310 -1.0384e+001 -6.0515e+001  1.6150e+001 56913 82379,82232,82284
 6.1000e+000 82405  9.5995e+000 -5.9708e+001  7.8319e-001 56913 82258,82232,82379
 6.1000e+000 82764 -3.9295e+001 -5.6641e+001 -6.7816e+000 56523 82614,82666,82640
 6.1000e+000 82741 -3.5535e+001 -5.6537e+001 -8.7363e+000 56523 82614,82692,82666
 6.1000e+000 82718 -2.8211e+001 -6.0195e+001 -1.8634e+001 56523 82588,82692,82614
 6.1000e+000 83368 -4.5459e+000 -8.9756e+001 -3.9071e+000 55969 82973,83155,83129
 6.1000e+000 83345  1.1659e+000 -8.8011e+001 -6.5048e+000 55969 82973,83181,83155
 6.1000e+000 83322 -2.3517e+001 -7.9543e+001 -2.6200e+000 55969 82973,83129,82999
 6.1000e+000 83299 -3.9206e+001 -8.1185e+001  1.8674e+000 55969 83391,83025,82999
 6.1000e+000 83276 -3.2702e+001 -8.4134e+001 -4.3397e-001 55969 83391,82999,83129
 6.1000e+000 83253 -3.0250e+000 -6.9989e+001  1.6746e+001 55969 83077,83129,83103
 6.1000e+000 83230 -3.8670e+001 -6.5484e+001 -3.1104e+000 55969 83025,83077,83051
 6.1000e+000 83207 -1.2844e-001 -8.4448e+001  8.0786e+000 55969 82947,83181,82973
 6.1000e+000 83417 -3.2974e+001 -7.7578e+001  3.6352e+000 55969 83077,83025,83391
 6.1000e+000 83440 -3.0764e+001 -8.2383e+001  4.4835e-001 55969 83077,83391,83129
 6.1000e+000 83946 -7.5571e+001 -1.5646e+002  2.6722e+001 55771 83969,83779,83727
 6.1000e+000 83923 -6.0217e+001 -1.2501e+002  1.7506e+001 55771 83969,83727,83623
 6.1000e+000 83900 -6.6271e+001 -5.8200e+001  8.6178e+000 55771 83623,83727,83649
 6.1000e+000 83877 -5.6887e+001 -2.6933e+002  1.4392e+001 55771 83727,83779,83753
 6.1000e+000 83854 -8.1577e+001 -1.2312e+002  2.3553e+001 55771 83675,83727,83701
 6.1000e+000 83831 -1.0079e+002 -9.4419e+001  3.9053e+001 55771 83649,83727,83675
 6.1000e+000 83995 -7.1810e+001 -1.6305e+002 -1.2389e+001 55771 83805,83779,83969
 6.1000e+000 84018 -3.9623e+001 -1.0032e+002 -2.5000e+001 55771 83805,83969,83623
 6.1000e+000 84168 -2.9504e+001 -7.7094e+001 -1.8506e+000 55367 84191,84067,84041
 6.1000e+000 84145 -3.0368e+001 -8.2856e+001 -9.9923e-001 55367 84191,84041,84119
 6.1000e+000 84217 -3.1863e+001 -7.2610e+001 -1.9457e+000 55367 84093,84067,84191
 6.1000e+000 84240 -3.2267e+001 -7.6886e+001  4.6774e-001 55367 84093,84191,84119
 6.1000e+000 84571 -1.8775e+001 -1.0833e+002 -1.1325e+001 54913 84398,84450,84424
 6.1000e+000 84548 -1.7104e+001 -1.0010e+002 -6.3359e+000 54913 84372,84450,84398
 6.1000e+000 84525 -2.7453e+001 -1.1187e+002  4.4197e+000 54913 84346,84450,84372
 6.1000e+000 84502 -1.1628e+001 -7.5347e+001 -1.0440e+001 54913 84346,84476,84450
 6.1000e+000 85126 -5.9505e+001 -1.2708e+002 -8.0508e+000 54402 84858,84936,84910
 6.1000e+000 85103 -4.6119e+001 -9.6872e+001 -1.0644e+001 54402 84806,84936,84858
 6.1000e+000 85080 -5.5745e+001 -9.0213e+001 -8.8078e+000 54402 84780,84936,84806
 6.1000e+000 85057 -4.3400e+001 -1.0819e+002 -3.3851e+000 54402 84806,84858,84832
 6.1000e+000 85034 -5.2958e+001 -8.5939e+001  5.4096e+000 54402 84780,84962,84936
 6.1000e+000 85011 -6.7344e+001 -7.5223e+001 -4.4287e+000 54402 84858,84910,84884
 6.1000e+000 84988 -5.2459e+001 -8.7335e+001  6.4032e+000 54402 84754,84962,84780
 6.1000e+000 85396 -4.9753e+001 -6.0206e+001 -4.0896e+000 53998 85197,85249,85223
 6.1000e+000 85373 -3.8454e+001 -7.3832e+001 -1.5624e+000 53998 85197,85275,85249
 6.1000e+000 85350 -4.7109e+001 -8.5009e+001 -5.4487e+000 53998 85171,85275,85197
 6.1000e+000 85327 -2.2939e+001 -7.8448e+001 -7.0805e+000 53998 85171,85301,85275
 6.1000e+000 85749 -2.4416e+001 -8.1885e+001 -2.5804e+000 53636 85524,85628,85550
 6.1000e+000 85726 -3.8094e+001 -9.6050e+001  2.9853e+000 53636 85524,85654,85628
 6.1000e+000 85703 -1.3525e+001 -8.4869e+001 -8.5236e+000 53636 85550,85602,85576
 6.1000e+000 85680 -2.2272e+001 -8.0516e+001 -4.4108e+000 53636 85550,85628,85602
 6.1000e+000 86127 -8.9671e+000 -8.5529e+001  1.4902e+001 52982 86150,85957,85879
 6.1000e+000 86104 -3.1592e+001 -9.9878e+001  8.6849e+000 52982 86150,85879,85853
 6.1000e+000 86081 -7.5910e+000 -1.2836e+002  2.5616e+001 52982 85957,86009,85983
 6.1000e+000 86058 -3.7779e+001 -9.1506e+001  1.1468e+001 52982 85879,85957,85931
 6.1000e+000 86035 -2.4984e+001 -8.7809e+001 -3.1543e+000 52982 85879,85931,85905
 6.1000e+000 86176  5.0126e+000 -1.0200e+002  1.1934e+001 52982 86009,85957,86150
 6.1000e+000 86199 -8.3870e+000 -1.1068e+002  7.5082e+000 52982 86009,86150,85853
 6.1000e+000 86398 -2.7002e+001 -7.3289e+001  4.7670e+000 52542 86421,86248,86222
 6.1000e+000 86375 -3.9742e+001 -7.7568e+001 -1.1329e+000 52542 86421,86222,86300
 6.1000e+000 86352 -4.0534e+001 -8.2565e+001 -2.4392e+000 52542 86222,86326,86300
 6.1000e+000 86447 -1.2524e+001 -7.5123e+001  1.2226e+001 52542 86274,86248,86421
 6.1000e+000 86470 -2.5753e+001 -8.3016e+001  4.6550e+000 52542 86274,86421,86300
 6.1000e+000 86669 -3.2558e+001 -7.3645e+001 -1.9660e+001 52230 86692,86571,86545
 6.1000e+000 86646 -3.3552e+001 -7.3592e+001 -1.0647e+001 52230 86692,86545,86519
 6.1000e+000 86623 -5.0129e+001 -7.7497e+001 -9.8574e+000 52230 86493,86597,86519
 6.1000e+000 86718 -3.7828e+001 -7.5406e+001 -1.7380e+001 52230 86597,86571,86692
 6.1000e+000 86741 -4.4992e+001 -7.8064e+001 -8.4902e+000 52230 86597,86692,86519
 6.1000e+000 87153 -4.8065e+001 -7.1149e+001  3.1278e+000 51640 86980,87058,87032
 6.1000e+000 87130 -4.6821e+001 -7.2381e+001  2.6576e+000 51640 86928,87058,86980
 6.1000e+000 87107 -4.9618e+001 -9.5061e+001 -2.9235e+000 51640 86928,86980,86954
 6.1000e+000 87084 -2.5412e+001 -6.1501e+001  7.9691e-001 51640 86980,87032,87006
 6.1000e+000 87659 -2.3493e+001 -6.6223e+001  2.1698e+000 51029 87682,87440,87362
 6.1000e+000 87636 -2.0074e+001 -7.0562e+001 -7.8066e+000 51029 87682,87362,87336
 6.1000e+000 87613 -3.4782e+001 -1.0219e+002 -2.7454e+000 51029 87440,87518,87466
 6.1000e+000 87590 -3.4423e+001 -6.6092e+001  2.8266e+000 51029 87362,87440,87414
 6.1000e+000 87567 -2.8220e+001 -4.9453e+001  1.2915e+001 51029 87362,87414,87388
 6.1000e+000 87544 -4.5808e+001 -9.6766e+001  2.0475e+000 51029 87466,87518,87492
 6.1000e+000 87708 -2.3064e+001 -7.5007e+001 -4.7012e-001 51029 87518,87440,87682
 6.1000e+000 87731 -2.2143e+001 -8.7999e+001 -6.7363e+000 51029 87518,87682,87336
 6.1000e+000 87881 -4.6346e+001 -1.0097e+002  1.5500e+000 50739 87780,87832,87806
 6.1000e+000 87858 -5.0617e+001 -9.7511e+001 -4.6569e+000 50739 87754,87832,87780
 6.1000e+000 88468 -3.7962e+001 -6.3981e+001  5.5152e+000 50235 88171,88327,88197
 6.1000e+000 88445 -7.0446e+001 -6.8519e+001 -7.0612e+000 50235 88145,88327,88171
 6.1000e+000 88422 -2.4681e-001 -2.5797e+001 -9.9598e-002 50235 88275,88327,88301
 6.1000e+000 88399 -2.1822e+001 -3.5038e+001 -1.0673e+000 50235 88197,88327,88275
 6.1000e+000 88376 -7.4216e+000 -5.7058e+001 -8.3311e-001 50235 88197,88275,88223
 6.1000e+000 88353 -1.0820e+001 -7.5676e+001 -4.5172e+000 50235 88223,88275,88249
 6.1000e+000 88895 -4.2568e+001 -1.0405e+002  2.6115e+000 49873 88918,88728,88676
 6.1000e+000 88872 -3.6870e+001 -9.8640e+001 -1.5038e+000 49873 88918,88676,88624
 6.1000e+000 88849 -2.9911e+001 -8.6368e+001 -3.2220e+000 49873 88598,88754,88624
 6.1000e+000 88826 -2.4459e+001 -9.2135e+001 -3.9648e+000 49873 88624,88676,88650
 6.1000e+000 88803 -3.1353e+001 -1.2824e+002  5.0837e+000 49873 88676,88728,88702
 6.1000e+000 88780 -3.4993e+001 -8.5685e+001 -2.3586e+000 49873 88572,88754,88598
 6.1000e+000 88944 -3.5411e+001 -1.0294e+002 -8.3963e-001 49873 88754,88728,88918
 6.1000e+000 88967 -3.3324e+001 -1.0137e+002 -4.3939e+000 49873 88754,88918,88624
 6.1000e+000 89473 -6.4861e+001 -9.9001e+001 -1.2711e+001 49583 89176,89306,89202
 6.1000e+000 89450 -6.2471e+001 -9.8139e+001 -1.2425e+001 49583 89176,89332,89306
 6.1000e+000 89427 -3.7118e+001 -1.0417e+002  4.2720e+000 49583 89496,89228,89202
 6.1000e+000 89404 -3.7345e+001 -1.0636e+002  5.1402e+000 49583 89496,89202,89280
 6.1000e+000 89381 -7.8738e+001 -1.3395e+002 -2.3569e+001 49583 89202,89306,89280
 6.1000e+000 89358 -4.7277e+001 -9.8504e+001 -1.4781e+001 49583 89150,89332,89176
 6.1000e+000 89522 -3.5408e+001 -8.9723e+001  2.3671e+000 49583 89254,89228,89496
 6.1000e+000 89545 -4.2263e+001 -1.0216e+002  5.0337e+000 49583 89254,89496,89280
 6.1000e+000 89825  4.9275e+000 -9.9573e+001  2.5888e+000 49179 89701,89753,89727
 6.1000e+000 89802 -1.5096e+001 -8.8186e+001  3.4780e+000 49179 89675,89753,89701
 6.1000e+000 89779 -1.1392e+001 -7.9852e+001  4.2050e+000 49179 89848,89753,89675
 6.1000e+000 89874 -5.9629e+001 -9.7856e+001 -9.4541e+000 49179 89649,89753,89848
 6.1000e+000 90223 -3.0145e+001 -9.0586e+001 -1.1984e+001 48739 90024,90102,90076
 6.1000e+000 90200 -2.9396e+001 -8.4592e+001 -4.3465e+000 48739 90024,90128,90102
 6.1000e+000 90177  1.4230e+000 -8.9272e+001 -1.1990e+001 48739 90024,90076,90050
 6.1000e+000 90154 -1.0760e+001 -8.1853e+001  5.6751e+000 48739 89998,90128,90024
 6.1000e+000 90603 -2.5994e+001 -6.9651e+001  1.6398e+001 48335 90381,90485,90459
 6.1000e+000 90580 -3.6334e+001 -8.4385e+001  1.1509e+001 48335 90355,90485,90381
 6.1000e+000 90557 -1.3339e+001 -2.2295e+001  7.5150e+000 48335 90381,90433,90407
 6.1000e+000 90534 -2.5859e+001 -7.4306e+001  1.0835e+001 48335 90381,90459,90433
 6.1000e+000 90511  1.5044e+001 -5.5659e+001  2.3926e+001 48335 90329,90485,90355
 6.1000e+000 90753 -9.0676e-002 -4.6429e+001  2.8980e+001 47824 90776,90652,90704
 6.1000e+000 90730 -2.3962e+001 -8.1884e+001  1.3711e+001 47824 90626,90704,90652
 6.1000e+000 90802 -1.1365e+001 -6.0088e+001  2.3518e+001 47824 90678,90652,90776
 6.1000e+000 91131 -3.5907e+001 -1.1364e+002  5.0763e+000 47427 91154,90958,90906
 6.1000e+000 91108 -6.0874e+001 -1.2447e+002  6.6764e+000 47427 91154,90906,91036
 6.1000e+000 91085 -5.4660e+001 -9.3414e+001 -8.5549e+000 47427 90958,91010,90984
 6.1000e+000 91062 -3.7068e+001 -9.7567e+001  7.6348e+000 47427 90906,90958,90932
 6.1000e+000 91180 -4.9186e+001 -1.0776e+002 -1.1804e+001 47427 91010,90958,91154
 6.1000e+000 91203 -7.2680e+001 -1.1780e+002 -1.0584e+001 47427 91010,91154,91036
 6.1000e+000 91583 -4.9603e+001 -9.3439e+001 -6.5518e+000 46873 91309,91439,91335
 6.1000e+000 91560 -5.3229e+001 -9.4225e+001 -5.3094e+000 46873 91309,91465,91439
 6.1000e+000 91537 -7.6310e+001 -1.1122e+002 -3.0588e+001 46873 91361,91439,91413
 6.1000e+000 91514 -5.6503e+001 -9.8086e+001 -1.7313e+001 46873 91335,91439,91361
 6.1000e+000 91491 -2.5798e+001 -9.1132e+001 -2.5598e+001 46873 91361,91413,91387
 6.1000e+000 91880 -3.6673e+001 -1.0836e+002 -3.4565e+000 46526 91606,91710,91658
 6.1000e+000 91857 -3.6535e+001 -1.1341e+002  8.6332e-002 46526 91606,91762,91710
 6.1000e+000 91834 -2.5495e+001 -1.0421e+002 -1.1543e+001 46526 91606,91658,91632
 6.1000e+000 91811 -4.1692e+001 -9.9489e+001  1.6844e+000 46526 91658,91710,91684
 6.1000e+000 91788 -2.4755e+001 -7.8455e+001  2.6478e+000 46526 91710,91762,91736
 6.1000e+000 92211 -1.6204e+001 -4.0312e+001 -3.6026e+000 45700 91986,92064,92038
 6.1000e+000 92188 -2.2830e+001 -6.0700e+001  2.9878e-001 45700 91986,92116,92064
 6.1000e+000 92165 -1.1289e+001 -3.1402e+001 -7.3660e+000 45700 91986,92038,92012
 6.1000e+000 92142 -1.5148e+001 -6.5935e+001  7.9010e+000 45700 92064,92116,92090
 6.1000e+000 92766 -4.5808e+001 -9.0073e+001  5.1585e+000 45452 92446,92602,92576
 6.1000e+000 92743 -7.3891e+001 -9.0254e+001 -1.1503e+001 45452 92420,92602,92446
 6.1000e+000 92720 -5.7518e+001 -9.8657e+001  1.5853e+001 45452 92789,92524,92498
 6.1000e+000 92697 -6.5669e+001 -9.4747e+001  1.3463e+001 45452 92789,92498,92446
 6.1000e+000 92674 -5.5637e+001 -1.0134e+002  9.3066e-002 45452 92524,92576,92550
 6.1000e+000 92651 -8.7523e+001 -1.0050e+002  5.2920e+001 45452 92446,92498,92472
 6.1000e+000 92628 -3.6926e+001 -9.7562e+001 -2.0806e+001 45452 92394,92602,92420
 6.1000e+000 92815 -5.1563e+001 -9.7855e+001  1.3510e+001 45452 92576,92524,92789
 6.1000e+000 92838 -5.8443e+001 -9.3266e+001  1.2067e+001 45452 92576,92789,92446
 6.1000e+000 92939 -4.1383e+001 -1.2632e+002 -2.6420e+001 44998 92861,92913,92887
 6.1000e+000 93319 -9.7390e+000 -1.2992e+002  2.3171e+001 44601 93123,93201,93149
 6.1000e+000 93296 -3.6156e+001 -1.2830e+002 -1.3283e+001 44601 93045,93201,93123
 6.1000e+000 93273 -2.7722e+001 -7.1522e+001 -1.8745e+001 44601 93045,93123,93071
 6.1000e+000 93250 -2.5561e+001 -6.6260e+001 -1.2412e+001 44601 93071,93123,93097
 6.1000e+000 93227 -6.5611e-001 -6.9069e+001  2.3680e+001 44601 93149,93201,93175
 6.1000e+000 93697 -2.6515e+001 -1.4248e+002  7.8883e+000 44026 93720,93553,93527
 6.1000e+000 93674 -4.7609e+001 -1.2047e+002  1.0987e+001 44026 93720,93527,93449
 6.1000e+000 93651 -5.3310e+001 -1.2524e+002 -2.3626e+000 44026 93449,93527,93501
 6.1000e+000 93628 -3.6930e+001 -9.5960e+001 -1.8630e+001 44026 93423,93579,93449
 6.1000e+000 93605 -1.2181e+001 -1.0140e+002  7.6406e+000 44026 93449,93501,93475
 6.1000e+000 93746 -1.1715e+001 -1.2601e+002  1.6825e+000 44026 93579,93553,93720
 6.1000e+000 93769 -3.3927e+001 -1.0429e+002  5.1451e+000 44026 93579,93720,93449
 6.1000e+000 94066 -2.9915e+001 -1.0989e+002 -1.5250e+001 43579 94089,93818,93792
 6.1000e+000 94043 -4.5655e+001 -1.2363e+002 -9.3953e+000 43579 94161,94089,93792
 6.1000e+000 94020 -4.5101e+001 -1.2448e+002 -3.7050e+000 43579 94161,93792,93948
 6.1000e+000 93997 -4.7691e+001 -9.5005e+001 -4.5733e+000 43579 94233,93870,93818
 6.1000e+000 93974 -2.7065e+001 -9.8099e+001  3.1388e+000 43579 93818,93870,93844
 6.1000e+000 94115 -4.6945e+001 -9.5879e+001 -1.0346e+001 43579 94233,93818,94089
 6.1000e+000 94138 -6.1409e+001 -1.0959e+002 -7.3876e+000 43579 93896,94089,93922
 6.1000e+000 94187 -4.2007e+001 -1.1471e+002 -9.8675e+000 43579 93922,94089,94161
 6.1000e+000 94210 -4.1546e+001 -1.1494e+002 -3.6235e+000 43579 93922,94161,93948
 6.1000e+000 94259 -5.2995e+001 -1.0600e+002 -2.9508e+000 43579 93896,93870,94233
 6.1000e+000 94282 -5.0831e+001 -1.0477e+002 -9.6284e+000 43579 93896,94233,94089
 6.1000e+000 94481 -3.8084e+001 -1.1363e+002 -9.8099e-001 43239 94305,94383,94357
 6.1000e+000 94458 -3.2770e+001 -1.0391e+002  1.2618e+001 43239 94305,94409,94383
 6.1000e+000 94435 -3.0890e+001 -1.1876e+002 -2.9292e+000 43239 94305,94357,94331
 6.1000e+000 94633 -1.1873e+001 -6.8196e+001  1.6214e+001 42827 94656,94532,94506
 6.1000e+000 94610 -3.0860e+001 -7.7097e+001  1.8716e+001 42827 94728,94656,94506
 6.1000e+000 94682 -1.6027e+001 -7.9108e+001  1.3512e+001 42827 94558,94532,94656
 6.1000e+000 94705 -4.5007e+000 -7.7849e+001  7.5649e+000 42827 94988,94860,94656
 6.1000e+000 94754 -1.5892e+001 -6.6956e+001  4.8392e+000 42827 94988,94656,94728
 6.1000e+000 94886  3.5126e+000 -7.3611e+001  9.3582e+000 42827 94558,94656,94860
 6.1000e+000 95014  5.1653e+000 -6.8456e+001  3.4356e+000 42827 94584,94860,94988
 6.1000e+000 95037 -5.3193e+000 -5.9347e+001  4.8120e-001 42827 94584,94988,94728
 6.1000e+000 95236 -1.0058e+001 -7.9912e+001  1.2064e+001 42537 95259,95112,95060
 6.1000e+000 95213 -1.5697e+001 -7.4146e+001  9.6498e+000 42537 95259,95060,95164
 6.1000e+000 95190 -2.9903e+000 -8.2354e+001 -6.6364e-001 42537 95060,95112,95086
 6.1000e+000 95285 -1.3825e+001 -8.2557e+001  9.8978e+000 42537 95138,95112,95259
 6.1000e+000 95308 -2.0317e+001 -7.9491e+001  6.6430e+000 42537 95138,95259,95164
 6.1000e+000 95816 -3.7308e+001 -1.0598e+002 -6.4438e+000 41969 95493,95597,95519
 6.1000e+000 95793 -5.4879e+001 -9.7907e+001  1.0085e+001 41969 95493,95649,95597
 6.1000e+000 95770 -4.1371e+001 -9.2605e+001  9.4443e+000 41969 95493,95675,95649
 6.1000e+000 95747 -4.3251e+001 -1.2934e+002  8.6393e+000 41969 95597,95649,95623
 6.1000e+000 95724 -6.1926e+001 -9.6646e+001 -1.1662e+001 41969 95519,95597,95571
 6.1000e+000 95701 -5.5005e+001 -8.4030e+001 -2.2690e+001 41969 95519,95571,95545
 6.1000e+000 96371 -4.7330e+001 -1.1581e+002  1.4052e+001 41579 96025,96207,96181
 6.1000e+000 96348  1.5143e+001 -8.6875e+001 -5.4713e+000 41579 95999,96207,96025
 6.1000e+000 96325 -5.4095e+001 -8.8463e+001 -1.0297e+001 41579 96129,96181,96155
 6.1000e+000 96302 -1.9412e+001 -7.9364e+001  5.0858e-002 41579 96025,96181,96129
 6.1000e+000 96279 -4.5938e+001 -1.2226e+002  1.7164e+001 41579 96025,96129,96051
 6.1000e+000 96256 -4.7973e+001 -1.0690e+002  1.4520e+001 41579 96051,96103,96077
 6.1000e+000 96233 -1.8441e+001 -8.2663e+001  2.8397e-001 41579 96051,96129,96103
 6.1000e+000 96877 -1.3182e+001 -7.3749e+001 -9.0492e+000 41182 96972,96900,96632
 6.1000e+000 96854 -1.6134e+001 -5.3128e+001 -8.5734e+000 41182 96900,96554,96736
 6.1000e+000 96831 -1.2477e+001 -7.3992e+001 -7.2180e+000 41182 96972,96632,96580
 6.1000e+000 96808 -1.5209e+001 -6.7893e+001  8.4799e+000 41182 96632,96684,96658
 6.1000e+000 96785 -2.9578e+001 -7.9112e+001  7.9803e+000 41182 96684,96736,96710
 6.1000e+000 96762 -4.3434e+001 -9.5824e+001  1.5878e+001 41182 96580,96632,96606
 6.1000e+000 96926 -1.1641e+001 -8.1582e+001 -8.8289e+000 41182 96684,96632,96900
 6.1000e+000 96949 -2.3202e+001 -7.2480e+001 -1.4826e+001 41182 96684,96900,96736
 6.1000e+000 96998 -1.6227e+001 -7.4963e+001 -8.6866e+000 41182 96554,96900,96972
 6.1000e+000 97021 -1.6149e+001 -7.5726e+001 -6.6495e+000 41182 96554,96972,96580
 6.1000e+000 97576 -6.1800e+001 -1.5953e+002 -2.1976e+001 40678 97230,97412,97282
 6.1000e+000 97553 -4.7617e+000 -1.3214e+002  6.3031e+000 40678 97204,97412,97230
 6.1000e+000 97530 -1.5671e+001 -1.2045e+002 -2.0744e+001 40678 97282,97360,97308
 6.1000e+000 97507 -2.6404e+001 -1.2267e+002 -7.3000e+000 40678 97282,97412,97360
 6.1000e+000 97484 -4.8719e+000 -7.0910e+001 -1.8006e+001 40678 97308,97360,97334
 6.1000e+000 97461 -3.4202e+001 -1.4908e+002 -4.0066e+000 40678 97360,97412,97386
 6.1000e+000 97438 -3.5704e+001 -1.0373e+002 -1.4872e+001 40678 97230,97282,97256
 6.1000e+000 97976 -5.3784e+001 -8.8354e+001 -1.6024e+000 40244 97702,97832,97754
 6.1000e+000 97953 -4.4752e+001 -8.5916e+001 -3.8738e+000 40244 97702,97858,97832
 6.1000e+000 97930 -5.7803e+001 -1.0376e+002 -2.0799e+001 40244 97702,97754,97728
 6.1000e+000 97907 -4.3292e+001 -9.3703e+001  1.0357e+001 40244 97780,97832,97806
 6.1000e+000 97884 -4.7157e+001 -8.4547e+001  2.4525e-001 40244 97754,97832,97780
 6.1000e+000 98482 -2.3780e+001 -7.5894e+001  1.3138e+001 39690 98505,98185,98159
 6.1000e+000 98459 -2.6126e+001 -7.2616e+001  1.1901e+001 39690 98505,98159,98289
 6.1000e+000 98436 -5.4026e+001 -1.1453e+002  3.2652e+001 39690 98159,98315,98289
 6.1000e+000 98413 -1.6074e+001 -6.6244e+001  1.0097e+001 39690 98211,98289,98263
 6.1000e+000 98390 -7.5030e+000 -4.0561e+001  5.8013e+000 39690 98211,98263,98237
 6.1000e+000 98367 -1.3482e+001 -6.4548e+001  9.3694e+000 39690 98159,98341,98315
 6.1000e+000 98531 -2.2095e+001 -7.3873e+001  1.1657e+001 39690 98211,98185,98505
 6.1000e+000 98554 -2.4512e+001 -6.9764e+001  1.0725e+001 39690 98211,98505,98289
 6.1000e+000 99109 -2.8061e+001 -7.2247e+001 -5.7945e+000 39072 99132,98867,98789
 6.1000e+000 99086 -2.8746e+001 -7.4356e+001 -7.2657e+000 39072 99132,98789,98763
 6.1000e+000 99063 -4.2486e+001 -1.2151e+002  1.1845e+001 39072 98867,98945,98919
 6.1000e+000 99040 -2.4776e+001 -7.9370e+001 -4.9366e-001 39072 98789,98867,98841
 6.1000e+000 99017 -5.5744e+001 -8.9328e+001  2.7146e+000 39072 98867,98919,98893
 6.1000e+000 98994 -3.7724e+001 -6.9688e+001  1.5069e+001 39072 98789,98841,98815
 6.1000e+000 98971 -3.8913e+001 -8.2281e+001 -6.0474e+000 39072 98737,98945,98763
 6.1000e+000 99158 -2.6954e+001 -7.4905e+001 -6.4357e+000 39072 98945,98867,99132
 6.1000e+000 99181 -2.7423e+001 -7.7724e+001 -7.1117e+000 39072 98945,99132,98763
 6.1000e+000 99510 -2.5014e+001 -6.6505e+001  4.8400e+000 38668 99311,99389,99363
 6.1000e+000 99487 -2.1940e+001 -6.9772e+001 -1.8662e+000 38668 99285,99389,99311
 6.1000e+000 99464 -4.6531e+001 -9.5271e+001  8.6087e+000 38668 99285,99415,99389
 6.1000e+000 99441 -2.1651e+001 -7.1098e+001  7.4031e+000 38668 99311,99363,99337
 6.1000e+000 99758 -2.6798e+001 -1.0694e+002  1.8884e+001 38164 99781,99611,99585
 6.1000e+000 99735 -1.0500e+001 -1.0923e+002  2.1006e+001 38164 99781,99585,99533
 6.1000e+000 99712 -4.1031e+001 -1.0045e+002  1.3488e+001 38164 99611,99663,99637
 6.1000e+000 99689  5.4706e+000 -1.0653e+002 -5.5994e+000 38164 99533,99585,99559
 6.1000e+000 99807 -3.6095e+001 -1.0575e+002  2.3385e+001 38164 99663,99611,99781
 6.1000e+000 99830 -2.3984e+001 -1.1029e+002  2.2886e+001 38164 99663,99781,99533
 6.1000e+000 100232 -2.7144e+001 -7.6557e+001  8.3092e-001 37702 99984,100114,100088
 6.1000e+000 100209 -2.1059e+001 -7.9692e+001  7.5147e+000 37702 99958,100114,99984
 6.1000e+000 100186 -4.0785e+001 -9.6003e+001 -6.4526e+000 37702 100010,100088,100036
 6.1000e+000 100163 -2.5724e+001 -7.6044e+001  1.4654e-001 37702 99984,100088,100010
 6.1000e+000 100140 -2.0974e+001 -6.6967e+001 -2.1863e+001 37702 100036,100088,100062
 6.1000e+000 100640 -6.4207e+001 -9.2348e+001  1.2495e+001 37262 100493,100545,100519
 6.1000e+000 100617 -5.6737e+001 -1.0591e+002  5.8859e+000 37262 100441,100545,100493
 6.1000e+000 100594 -2.1472e+001 -7.9778e+001 -1.3446e+001 37262 100415,100545,100441
 6.1000e+000 100571 -6.4162e+001 -1.1399e+002 -4.4348e+000 37262 100441,100493,100467
 6.1000e+000 101146 -4.8676e+001 -8.0366e+001 -1.6683e+000 36872 100823,100979,100849
 6.1000e+000 101123 -4.7201e+001 -7.4353e+001 -7.9005e+000 36872 100823,101005,100979
 6.1000e+000 101100 -4.8166e+001 -1.1563e+002  1.5358e+001 36872 101169,100901,100849
 6.1000e+000 101077 -3.7492e+001 -9.3213e+001  8.0617e+000 36872 101169,100849,100979
 6.1000e+000 101054 -2.8218e+001 -9.7844e+001 -6.4056e+000 36872 100927,100979,100953
 6.1000e+000 101031 -2.6670e+001 -1.2828e+002  2.1484e+001 36872 100849,100901,100875
 6.1000e+000 101195 -3.3599e+001 -1.2204e+002  1.3550e+000 36872 100927,100901,101169
 6.1000e+000 101218 -2.6969e+001 -1.1011e+002 -4.6218e+000 36872 100927,101169,100979
 6.1000e+000 101773 -5.1122e+001 -8.5131e+001  1.7137e+001 36418 101479,101609,101583
 6.1000e+000 101750 -5.4248e+001 -8.7279e+001  1.4754e+001 36418 101453,101609,101479
 6.1000e+000 101727 -3.6021e+001 -9.0561e+001  1.5141e-002 36418 101796,101531,101479
 6.1000e+000 101704 -5.1172e+001 -1.0116e+002  7.8971e+000 36418 101796,101479,101583
 6.1000e+000 101681 -3.0689e+001 -7.7475e+001 -1.9652e+000 36418 101479,101531,101505
 6.1000e+000 101658 -1.1637e+000 -7.5626e+001  3.6360e+000 36418 101401,101609,101453
 6.1000e+000 101635 -1.4923e+001 -6.8233e+001  5.1912e+000 36418 101401,101453,101427
 6.1000e+000 101822 -3.9454e+001 -8.2570e+001 -1.4483e+001 36418 101557,101531,101796
 6.1000e+000 101845 -5.6799e+001 -8.6109e+001 -7.2726e+000 36418 101557,101796,101583
 6.1000e+000 102174 -3.4845e+000 -3.2323e+001 -1.0920e+001 35914 101949,102053,101975
 6.1000e+000 102151 -1.4912e+001 -3.6170e+001 -8.2358e+000 35914 101949,102079,102053
 6.1000e+000 102128 -1.9518e+001 -3.9861e+001 -5.9856e+000 35914 101975,102053,102027
 6.1000e+000 102105 -1.3483e+001 -3.1423e+001 -8.7075e+000 35914 101975,102027,102001
 6.1000e+000 102631 -1.8619e+001 -9.4669e+001  1.7753e+000 35574 102383,102513,102487
 6.1000e+000 102608 -1.2602e+001 -9.8623e+001  1.3718e+000 35574 102357,102513,102383
 6.1000e+000 102585 -3.2272e+001 -9.8943e+001  3.5912e+000 35574 102409,102487,102435
 6.1000e+000 102562 -3.1860e+001 -1.0050e+002  2.7451e+000 35574 102383,102487,102409
 6.1000e+000 102539 -3.2793e+001 -1.0123e+002  4.0182e+000 35574 102435,102487,102461
 6.1000e+000 103009 -5.1701e+001 -9.4569e+001 -6.8312e+000 35170 102761,102865,102787
 6.1000e+000 102986 -3.1650e+001 -8.3523e+001  8.3060e+000 35170 102761,102891,102865
 6.1000e+000 102963 -4.5698e+001 -9.2035e+001 -2.4793e+000 35170 102787,102865,102813
 6.1000e+000 102940 -2.5724e+001 -8.0912e+001  9.7105e+000 35170 102735,102891,102761
 6.1000e+000 102917 -4.7391e+001 -9.7711e+001 -7.5487e+000 35170 102813,102865,102839
 6.1000e+000 103257 -8.9970e+000 -6.8175e+001 -1.0822e+001 34659 103280,103058,103032
 6.1000e+000 103234 -1.3554e+001 -7.2001e+001 -6.2813e+000 34659 103280,103032,103162
 6.1000e+000 103211 -2.3965e+001 -7.2452e+001 -5.9645e+000 34659 103084,103162,103110
 6.1000e+000 103188 -3.2268e+001 -9.0862e+001 -4.2143e+000 34659 103110,103162,103136
 6.1000e+000 103306 -1.6860e+001 -6.3517e+001 -9.1832e+000 34659 103084,103058,103280
 6.1000e+000 103329 -1.9841e+001 -6.7604e+001 -4.0928e+000 34659 103084,103280,103162
 6.1000e+000 103837 -7.5603e+000 -1.0472e+002  3.5744e+000 34247 103860,103566,103540
 6.1000e+000 103814 -1.4402e+001 -1.0579e+002  1.8677e-001 34247 103932,103860,103540
 6.1000e+000 103791 -1.0792e+001 -1.1850e+002 -1.2641e+001 34247 103932,103540,103670
 6.1000e+000 103768 -1.1290e+001 -9.6709e+001  3.3583e+000 34247 103566,103618,103592
 6.1000e+000 103745 -4.2181e+001 -9.9360e+001 -1.5826e+001 34247 103540,103696,103670
 6.1000e+000 103722 -5.6559e+001 -1.1104e+002  1.6230e+001 34247 103514,103696,103540
 6.1000e+000 103886 -2.2328e+001 -1.0445e+002 -1.5623e+000 34247 103618,103566,103860
 6.1000e+000 103909 -2.4541e+001 -1.1235e+002  2.7595e+000 34247 103618,103860,103644
 6.1000e+000 103958 -2.5541e+001 -1.3648e+002 -2.6676e+000 34247 103644,103860,103932
 6.1000e+000 103981 -2.2016e+001 -1.4824e+002 -1.6114e+001 34247 103644,103932,103670
 6.1000e+000 104300 -5.2470e+001 -1.1191e+002 -4.2994e+000 33843 104052,104182,104156
 6.1000e+000 104277 -6.7694e+001 -1.0425e+002 -1.0651e+000 33843 104026,104182,104052
 6.1000e+000 104254 -5.1179e+001 -1.2563e+002  3.0548e+000 33843 104078,104156,104130
 6.1000e+000 104231 -6.3167e+001 -1.2122e+002 -1.4474e-001 33843 104052,104156,104078
 6.1000e+000 104208 -7.6645e+001 -1.3174e+002  3.4129e+000 33843 104078,104130,104104
 6.1000e+000 104499 -3.5029e+001 -1.1134e+002 -8.7630e+000 33282 104594,104522,104375
 6.1000e+000 104476 -3.1327e+001 -1.1064e+002  3.7880e+000 33282 104522,104323,104427
 6.1000e+000 104453 -2.1182e+001 -1.1821e+002 -8.2402e+000 33282 104594,104375,104349
 6.1000e+000 104548 -3.7250e+001 -9.9181e+001 -4.0758e+000 33282 104401,104375,104522
 6.1000e+000 104571 -2.5740e+001 -9.7294e+001  3.4769e+000 33282 104401,104522,104427
 6.1000e+000 104620 -1.7635e+001 -9.8921e+001 -2.6104e+000 33282 104323,104522,104594
 6.1000e+000 104643 -8.7758e+000 -1.1070e+002 -4.0475e+000 33282 104323,104594,104349
 6.1000e+000 104942 -4.7135e+001 -1.2152e+002  1.5512e+001 32728 104694,104772,104720
 6.1000e+000 104919 -3.7517e+001 -1.1141e+002  5.9813e+000 32728 104694,104824,104772
 6.1000e+000 104896 -6.2831e+001 -1.0761e+002  1.7662e+001 32728 104720,104772,104746
 6.1000e+000 104873 -2.9455e+001 -1.2742e+002  7.1321e+000 32728 104772,104824,104798
 6.1000e+000 104850 -3.1497e+001 -1.0962e+002  6.3405e+000 32728 104668,104824,104694
 6.1000e+000 105373 -3.5163e+001 -1.1430e+002 -4.9061e+000 32274 105396,105102,105076
 6.1000e+000 105350 -3.9455e+001 -1.2445e+002 -1.6593e+000 32274 105396,105076,105206
 6.1000e+000 105327 -5.2848e+001 -1.3157e+002  6.5160e+000 32274 105154,105206,105180
 6.1000e+000 105304 -1.7970e+001 -1.1930e+002 -9.6367e+000 32274 105076,105232,105206
 6.1000e+000 105281 -4.3969e+001 -1.0439e+002 -1.8507e+001 32274 105102,105154,105128
 6.1000e+000 105258 -6.3335e+001 -9.7813e+001 -1.8880e+001 32274 105050,105232,105076
 6.1000e+000 105422 -4.1963e+001 -1.0310e+002 -4.6850e+000 32274 105154,105102,105396
 6.1000e+000 105445 -4.5745e+001 -1.1329e+002 -2.1221e+000 32274 105154,105396,105206
 6.1000e+000 105644 -4.6502e+001 -1.2389e+002 -1.8579e+000 31620 105468,105546,105520
 6.1000e+000 105621 -3.7729e+001 -1.3117e+002 -6.1760e+000 31620 105468,105572,105546
 6.1000e+000 105598 -4.6793e+001 -1.3394e+002  6.0693e+000 31620 105468,105520,105494
 6.1000e+000 105794 -4.7188e+000 -9.9869e+001 -3.2772e+000 31158 105889,105817,105693
 6.1000e+000 105771 -1.2196e+001 -8.9744e+001 -7.0886e+000 31158 105817,105667,105745
 6.1000e+000 105843 -8.4660e+000 -1.2368e+002 -1.2962e+000 31158 105719,105693,105817
 6.1000e+000 105866 -1.4217e+000 -1.0566e+002 -5.8460e+000 31158 105719,105817,105745
 6.1000e+000 105915 -2.1613e+001 -1.0711e+002 -3.4663e+000 31158 105667,105817,105889
 6.1000e+000 106270 -4.4276e+001 -1.0292e+002 -1.0402e+000 30818 106293,106071,106045
 6.1000e+000 106247 -5.1947e+001 -1.2031e+002 -6.8064e+000 30818 106293,106045,106175
 6.1000e+000 106224 -3.6677e+001 -9.6289e+001  5.8825e+000 30818 106123,106175,106149
 6.1000e+000 106201 -4.5665e+001 -1.0605e+002  1.1793e+001 30818 106071,106123,106097
 6.1000e+000 106319 -4.5385e+001 -9.6105e+001  5.3924e+000 30818 106123,106071,106293
 6.1000e+000 106342 -4.6592e+001 -1.0530e+002  5.2298e-001 30818 106123,106293,106175
 6.1000e+000 106492 -4.3084e+001 -9.4584e+001  1.8557e+001 30414 106645,106391,106365
 6.1000e+000 106469 -1.0321e+001 -9.3580e+001  2.9012e+001 30414 106515,106365,106443
 6.1000e+000 106541 -2.4705e+001 -9.9482e+001  2.1707e+001 30414 106645,106365,106515
 6.1000e+000 106671 -1.7670e+001 -1.1356e+002  3.8481e+001 30414 106417,106391,106645
 6.1000e+000 106694  2.3663e+001 -1.0457e+002  3.3299e+001 30414 106417,106645,106515
 6.1000e+000 106942 -2.2998e+001 -1.4813e+002 -9.1010e-001 29910 106965,106795,106769
 6.1000e+000 106919 -1.8674e+001 -1.3391e+002  3.4553e+000 29910 106965,106769,106717
 6.1000e+000 106896 -2.2425e+001 -1.1306e+002 -1.2943e+001 29910 106795,106847,106821
 6.1000e+000 106873 -1.0114e+001 -1.1662e+002  7.3653e+000 29910 106717,106769,106743
 6.1000e+000 106991 -3.2162e+001 -1.3217e+002  1.4884e+000 29910 106847,106795,106965
 6.1000e+000 107014 -2.4749e+001 -1.1329e+002  5.8510e+000 29910 106847,106965,106717
 6.1000e+000 107213 -2.8840e+001 -1.1040e+002  7.7115e+000 29413 107236,107063,107037
 6.1000e+000 107190 -2.7845e+001 -1.3099e+002  1.5379e+001 29413 107236,107037,107141
 6.1000e+000 107167 -3.6615e+001 -7.8173e+001  1.7635e+001 29413 107063,107115,107089
 6.1000e+000 107262 -2.7921e+001 -9.6458e+001  4.5762e+000 29413 107115,107063,107236
 6.1000e+000 107285 -2.3951e+001 -1.1196e+002  1.2870e+001 29413 107115,107236,107141
 6.1000e+000 107486 -1.2912e+001 -1.0644e+002  1.4769e+001 29009 107336,107388,107362
 6.1000e+000 107463 -6.7021e+000 -1.0289e+002  4.3587e+000 29009 107310,107388,107336
 6.1000e+000 107440 -8.8840e+000 -9.7491e+001  4.5064e+000 29009 107310,107414,107388
 6.1000e+000 107736 -4.5265e+001 -1.2309e+002 -3.7039e+000 28491 107537,107615,107563
 6.1000e+000 107713 -3.9778e+001 -1.2067e+002 -3.2826e+000 28491 107537,107641,107615
 6.1000e+000 107690 -2.6488e+001 -1.1347e+002  2.9898e+000 28491 107563,107615,107589
 6.1000e+000 107667 -3.9685e+001 -1.1805e+002 -2.8416e+000 28491 107511,107641,107537
 6.1000e+000 108118 -2.6110e+001 -1.1587e+002  4.3399e+000 27980 108141,107922,107844
 6.1000e+000 108095 -2.0730e+001 -1.2364e+002  3.8441e+000 27980 108141,107844,108000
 6.1000e+000 108072 -2.7187e+001 -1.2029e+002 -6.5193e+000 27980 107844,107922,107870
 6.1000e+000 108049 -2.9371e+001 -1.0485e+002 -3.4844e+000 27980 107870,107922,107896
 6.1000e+000 108026 -4.1544e+001 -1.0985e+002  1.3679e+001 27980 107922,107974,107948
 6.1000e+000 108167 -2.2110e+001 -1.1682e+002  6.2432e+000 27980 107974,107922,108141
 6.1000e+000 108190 -7.5954e+000 -1.1629e+002  8.0617e+000 27980 107974,108141,108000
 6.1000e+000 108745 -9.9675e+000 -7.2088e+001 -2.3731e+000 27376 108840,108768,108477
 6.1000e+000 108722 -1.9970e+001 -8.9342e+001 -1.8823e+001 27376 108768,108373,108581
 6.1000e+000 108699 -1.8858e+001 -6.2930e+001  1.3491e+001 27376 108840,108477,108451
 6.1000e+000 108676 -5.2423e+001 -7.6349e+001 -3.8676e+000 27376 108373,108451,108399
 6.1000e+000 108653 -1.9264e+001 -9.0876e+001  1.4030e+001 27376 108503,108581,108529
 6.1000e+000 108630 -2.1601e+001 -8.5601e+001  1.4040e+001 27376 108529,108581,108555
 6.1000e+000 108607 -5.9465e+001 -8.2441e+001  5.8345e+000 27376 108399,108451,108425
 6.1000e+000 108794 -1.7984e+001 -9.7269e+001 -2.3353e-001 27376 108503,108477,108768
 6.1000e+000 108817 -3.6924e-001 -8.9300e+001 -3.5251e+000 27376 108503,108768,108581
 6.1000e+000 108866 -4.2323e+001 -8.9602e+001 -9.0741e+000 27376 108373,108768,108840
 6.1000e+000 108889 -4.0828e+001 -7.6703e+001  7.3436e+000 27376 108373,108840,108451
 6.1000e+000 109186 -4.4294e+001 -1.2076e+002  1.3195e+001 26722 109209,108938,108912
 6.1000e+000 109163 -4.0987e+001 -1.1251e+002  1.1543e+001 26722 109281,109209,108912
 6.1000e+000 109140 -3.9994e+001 -1.0947e+002  1.1183e+001 26722 109281,108912,109042
 6.1000e+000 109117 -3.4682e+001 -1.2638e+002  5.7434e+000 26722 108938,108990,108964
 6.1000e+000 109094 -5.7875e+001 -1.0018e+002  7.6879e+000 26722 108912,109068,109042
 6.1000e+000 109235 -3.6226e+001 -1.1594e+002  1.1006e+001 26722 108990,108938,109209
 6.1000e+000 109258 -3.9930e+001 -1.2292e+002  9.4166e+000 26722 108990,109209,109016
 6.1000e+000 109307 -3.7359e+001 -1.1704e+002  6.3767e+000 26722 109016,109209,109281
 6.1000e+000 109330 -3.5259e+001 -1.1209e+002  5.4521e+000 26722 109016,109281,109042
 6.1000e+000 109732 -4.3504e+001 -9.8292e+001 -3.5301e+000 26310 109458,109588,109484
 6.1000e+000 109709 -4.1070e+001 -1.0794e+002 -1.1036e+001 26310 109458,109614,109588
 6.1000e+000 109686 -6.8934e+001 -1.1589e+002  1.6232e+001 26310 109510,109562,109536
 6.1000e+000 109663 -7.2380e+001 -1.1132e+002  6.8347e+000 26310 109484,109562,109510
 6.1000e+000 109640 -4.9048e+001 -1.0123e+002 -2.2327e+000 26310 109484,109588,109562
 6.1000e+000 110159 -2.6828e+001 -1.0065e+002 -2.5365e+000 25642 110182,109940,109914
 6.1000e+000 110136 -2.2847e+001 -1.1446e+002  1.6064e+001 25642 110182,109914,109888
 6.1000e+000 110113 -3.5698e+001 -1.2240e+002 -1.5694e+001 25642 109966,110018,109992
 6.1000e+000 110090 -3.9459e+001 -1.1897e+002  9.1961e+000 25642 110254,109966,109940
 6.1000e+000 110067 -5.1811e+001 -1.1120e+002  7.8944e+000 25642 109862,110018,109888
 6.1000e+000 110044 -4.9151e+001 -9.1986e+001  1.7416e+001 25642 109836,110018,109862
 6.1000e+000 110208 -3.7953e+001 -1.1011e+002  6.9741e+000 25642 110254,109940,110182
 6.1000e+000 110231 -4.1989e+001 -1.1685e+002  1.6950e+001 25642 110018,110182,109888
 6.1000e+000 110280 -3.3620e+001 -1.3035e+002  7.7649e+000 25642 110018,109966,110254
 6.1000e+000 110303 -3.4110e+001 -1.2387e+002  5.9539e+000 25642 110018,110254,110182
 6.1000e+000 110632 -5.2513e+001 -1.0214e+002 -5.9229e+000 25188 110407,110485,110433
 6.1000e+000 110609 -6.3142e+001 -1.0704e+002 -2.4404e+000 25188 110407,110537,110485
 6.1000e+000 110586 -5.7324e+001 -1.0533e+002 -2.1232e+001 25188 110433,110485,110459
 6.1000e+000 110563 -6.0035e+001 -1.1729e+002  1.3935e+001 25188 110485,110537,110511
 6.1000e+000 110831 -8.4089e+000 -9.9020e+001  3.4517e+000 24726 110854,110707,110655
 6.1000e+000 110808 -3.7245e+000 -1.0661e+002  1.1047e+001 24726 110854,110655,110759
 6.1000e+000 110785 -1.2322e+001 -1.0234e+002  5.7922e+000 24726 110655,110707,110681
 6.1000e+000 110880 -4.6918e+000 -9.1698e+001  4.7284e+000 24726 110733,110707,110854
 6.1000e+000 110903  1.7617e+000 -9.5632e+001  1.2864e+001 24726 110733,110854,110759
 6.1000e+000 111234 -2.7622e+000 -7.1000e+001 -1.7814e+000 24222 111257,111087,111035
 6.1000e+000 111211  8.8151e+000 -6.5810e+001  8.0486e+000 24222 111257,111035,111009
 6.1000e+000 111188 -1.2887e+001 -3.1869e+001 -1.8129e+001 24222 111035,111087,111061
 6.1000e+000 111165 -1.2150e+001 -6.1007e+001  2.2099e+000 24222 111087,111139,111113
 6.1000e+000 111283 -1.0062e+001 -5.8757e+001  3.5834e+000 24222 111139,111087,111257
 6.1000e+000 111306 -5.0420e+000 -5.0142e+001  9.9078e+000 24222 111139,111257,111009
 6.1000e+000 111625 -9.0903e+000 -9.5845e+001 -4.2059e+000 23732 111648,111481,111455
 6.1000e+000 111602 -8.9829e+000 -9.5302e+001 -4.2109e+000 23732 111648,111455,111377
 6.1000e+000 111579  2.0907e+001 -4.1239e+001  1.0996e+001 23732 111377,111429,111403
 6.1000e+000 111556  7.2889e-001 -9.3473e+001 -3.1385e+000 23732 111377,111455,111429
 6.1000e+000 111533 -3.2940e+000 -8.6946e+001 -2.0974e+000 23732 111351,111507,111377
 6.1000e+000 111674 -9.1268e+000 -9.6753e+001 -4.7947e+000 23732 111507,111481,111648
 6.1000e+000 111697 -8.6476e+000 -9.5619e+001 -4.7412e+000 23732 111507,111648,111377
 6.1000e+000 112156 -2.7359e+001 -1.1796e+002  9.2714e+000 23278 112179,111908,111882
 6.1000e+000 112133 -2.5472e+001 -1.0873e+002  5.0343e+000 23278 112179,111882,112012
 6.1000e+000 112110 -7.1977e+000 -1.2797e+002  5.7748e-001 23278 111908,111960,111934
 6.1000e+000 112087 -1.0459e+001 -9.5981e+001 -1.0321e+000 23278 111882,112038,112012
 6.1000e+000 112064 -2.2602e+001 -9.7484e+001 -1.5573e+000 23278 111960,112012,111986
 6.1000e+000 112205 -2.5948e+001 -1.1359e+002  1.7087e+000 23278 111960,111908,112179
 6.1000e+000 112228 -2.1377e+001 -1.0316e+002 -3.1294e+000 23278 111960,112179,112012
 6.1000e+000 112685 -7.0255e+001 -1.6170e+002 -1.4656e+001 22938 112489,112567,112541
 6.1000e+000 112662 -5.9731e+001 -1.3799e+002 -1.2806e+001 22938 112437,112567,112489
 6.1000e+000 112639 -4.3653e+001 -1.2319e+002 -2.1110e+000 22938 112489,112541,112515
 6.1000e+000 112616 -6.7461e+001 -1.2901e+002 -1.0166e+001 22938 112411,112567,112437
 6.1000e+000 112593 -5.3868e+001 -1.7674e+002 -1.8780e+000 22938 112437,112489,112463
 6.1000e+000 113191 -3.8899e+000 -1.1904e+002 -1.5367e+001 22534 113214,112998,112946
 6.1000e+000 113168 -2.1310e+001 -1.0439e+002 -8.0230e+000 22534 113286,113214,112946
 6.1000e+000 113145 -1.5839e+001 -1.0465e+002 -6.7234e+000 22534 113286,112946,112920
 6.1000e+000 113122 -4.7937e+001 -9.5056e+001 -2.2239e+001 22534 113358,113024,112998
 6.1000e+000 113099 -2.9742e+001 -1.0006e+002 -4.1875e+000 22534 112868,113050,112894
 6.1000e+000 113076 -3.2273e+001 -1.6703e+002 -2.8525e+001 22534 112946,112998,112972
 6.1000e+000 113240 -3.4959e+001 -1.2193e+002 -2.3484e+001 22534 113358,112998,113214
 6.1000e+000 113263 -2.8594e+001 -1.0958e+002 -5.2629e+000 22534 113050,113214,112894
 6.1000e+000 113312 -1.4226e+001 -1.0328e+002 -6.4156e+000 22534 112894,113214,113286
 6.1000e+000 113335 -8.4854e+000 -1.0388e+002 -6.1089e+000 22534 112894,113286,112920
 6.1000e+000 113384 -3.3465e+001 -6.9876e+001 -1.6275e+001 22534 113050,113024,113358
 6.1000e+000 113407 -1.4888e+001 -9.2358e+001 -1.4536e+001 22534 113050,113358,113214
 6.1000e+000 113785 -5.1478e+001 -1.3894e+002  3.9784e+000 21978 113808,113615,113511
 6.1000e+000 113762 -4.1438e+001 -1.4084e+002  1.0336e+001 21978 113808,113511,113667
 6.1000e+000 113739 -2.6932e+001 -1.1801e+002 -5.8326e+000 21978 113511,113615,113537
 6.1000e+000 113716  1.8266e+001 -1.0573e+002 -1.2329e+001 21978 113537,113615,113589
 6.1000e+000 113693 -1.2401e+001 -1.5274e+002  1.9851e+000 21978 113537,113589,113563
 6.1000e+000 113834 -5.3194e+001 -1.3875e+002  1.6878e+001 21978 113641,113615,113808
 6.1000e+000 113857 -2.6522e+001 -1.2847e+002  2.4465e+001 21978 113641,113808,113667
 6.1000e+000 114284 -3.6737e+001 -1.1494e+002  2.6201e+000 21517 114013,114117,114039
 6.1000e+000 114261 -4.2249e+001 -1.1453e+002  9.2378e+000 21517 113961,114117,114013
 6.1000e+000 114238 -4.0069e+001 -1.1490e+002  9.7966e+000 21517 113961,114013,113987
 6.1000e+000 114215 -6.2060e+001 -1.3209e+002 -9.5204e+000 21517 114039,114117,114091
 6.1000e+000 114192 -4.3085e+001 -9.5636e+001  1.1191e+001 21517 113961,114143,114117
 6.1000e+000 114169 -8.9846e+000 -1.1325e+002 -9.8352e+000 21517 114039,114091,114065
 6.1000e+000 114581 -1.4431e+001 -1.2946e+002  1.5450e+000 21027 114359,114463,114437
 6.1000e+000 114558 -2.8990e+000 -1.1640e+002  1.6170e+001 21027 114333,114463,114359
 6.1000e+000 114535 -4.4844e-001 -1.1669e+002 -3.8235e+000 21027 114359,114437,114385
 6.1000e+000 114512 -1.7946e-001 -1.1564e+002  1.5057e+001 21027 114307,114463,114333
 6.1000e+000 114489  3.0532e+001 -1.0840e+002 -5.9390e+000 21027 114385,114437,114411
 6.1000e+000 114912 -5.0562e+001 -1.1774e+002  1.8219e+000 20623 114713,114791,114765
 6.1000e+000 114889 -3.6006e+001 -1.1176e+002 -8.3008e+000 20623 114687,114791,114713
 6.1000e+000 114866 -2.2368e+001 -1.2217e+002 -1.0274e+001 20623 114687,114817,114791
 6.1000e+000 114843 -7.7465e+001 -1.4625e+002  1.3325e+001 20623 114713,114765,114739
 6.1000e+000 115290 -1.3545e+001 -1.0640e+002  6.0492e+000 20375 115313,115146,115094
 6.1000e+000 115267 -2.2922e+001 -1.0096e+002  1.1157e+001 20375 115313,115094,115042
 6.1000e+000 115244 -2.9855e+001 -9.7111e+001  3.3347e+000 20375 115385,115016,115172
 6.1000e+000 115221 -1.0011e+001 -9.4382e+001  8.8850e+000 20375 115042,115094,115068
 6.1000e+000 115198 -2.2098e+001 -1.2703e+002  5.8476e+000 20375 115094,115146,115120
 6.1000e+000 115339 -3.3150e+001 -1.2704e+002 -4.3677e+000 20375 115172,115146,115313
 6.1000e+000 115362 -1.7250e+001 -1.0041e+002  3.9944e+000 20375 115385,115172,115313
 6.1000e+000 115411 -3.6861e+001 -1.0082e+002  4.7138e+000 20375 115042,115016,115385
 6.1000e+000 115434 -3.0802e+001 -1.0846e+002  7.3685e+000 20375 115042,115385,115313
 6.1000e+000 115891 -5.5523e+001 -1.0880e+002  1.4026e+001 19971 115617,115747,115643
 6.1000e+000 115868 -4.8587e+001 -9.3178e+001  1.5319e+001 19971 115617,115773,115747
 6.1000e+000 115845 -3.7800e+001 -1.7342e+002  3.1376e+000 19971 115643,115721,115695
 6.1000e+000 115822 -1.1390e+000 -8.3550e+001  3.7712e-001 19971 115643,115747,115721
 6.1000e+000 115799 -3.1196e+001 -2.1263e+002 -1.6011e+001 19971 115643,115695,115669
 6.1000e+000 115992 -7.6333e+001 -1.9895e+002 -3.5275e+001 19659 115914,115966,115940
 6.1000e+000 116142 -1.4236e+001 -4.7379e+001  1.3896e+000 18997 116041,116093,116067
 6.1000e+000 116119 -2.7688e+001 -8.1904e+001  5.0294e+000 18997 116015,116093,116041
 6.1000e+000 116343 -2.2293e+001 -1.2503e+002 -3.2022e+000 18707 116193,116245,116219
 6.1000e+000 116320 -5.0900e+001 -1.3735e+002 -5.4164e+000 18707 116193,116271,116245
 6.1000e+000 116297 -4.8154e+001 -1.2497e+002 -1.0891e+001 18707 116167,116271,116193
 6.1000e+000 116747 -1.9286e+001 -1.1286e+002 -2.0203e+000 18301 116525,116629,116551
 6.1000e+000 116724 -1.0672e+001 -9.5892e+001  2.7522e+000 18301 116473,116629,116525
 6.1000e+000 116701 -6.4139e+000 -9.2577e+001 -5.2797e+000 18301 116473,116525,116499
 6.1000e+000 116678 -1.5846e+001 -1.1779e+002 -1.4559e+000 18301 116551,116603,116577
 6.1000e+000 116655 -2.3256e+001 -1.2218e+002 -3.5051e+000 18301 116551,116629,116603
 6.1000e+000 117147 -5.2483e+001 -1.2408e+002  8.2419e-001 17747 116899,117029,116925
 6.1000e+000 117124 -2.7597e+001 -9.1039e+001  1.3594e+001 17747 116873,117029,116899
 6.1000e+000 117101 -5.1393e+001 -1.2191e+002  1.2561e+000 17747 116925,117029,116951
 6.1000e+000 117078 -4.2536e+001 -1.0042e+002  7.9542e-001 17747 116951,117029,117003
 6.1000e+000 117055 -6.2302e+001 -1.4263e+002 -1.0148e+001 17747 116951,117003,116977
 6.1000e+000 117368  1.0429e+001 -1.2503e+002  3.4951e+000 17293 117244,117296,117270
 6.1000e+000 117345 -7.5338e+000 -1.3025e+002 -1.5375e+000 17293 117192,117296,117244
 6.1000e+000 117322 -2.1713e+001 -1.2150e+002 -1.2551e+000 17293 117192,117244,117218
 6.1000e+000 117699 -1.2348e+001 -1.0141e+002 -1.0742e+001 16896 117526,117604,117552
 6.1000e+000 117676 -6.5726e+001 -1.5552e+002  1.0830e+001 16896 117500,117604,117526
 6.1000e+000 117653 -6.9346e+001 -1.2164e+002 -5.5485e+000 16896 117552,117604,117578
 6.1000e+000 117630 -6.3903e+001 -2.0444e+002  1.6085e+001 16896 117474,117604,117500
 6.1000e+000 117849 -1.3875e+002 -2.7133e+002 -1.0202e+001 16534 117722,117774,117748
 6.1000e+000 117826 -1.0853e+002 -3.2803e+002 -4.4889e+001 16534 117722,117800,117774
 6.1000e+000 118070  7.2308e-001 -1.2778e+002  1.6340e+001 16194 117946,117998,117972
 6.1000e+000 118047 -1.9836e+001 -1.4416e+002  6.5865e+000 16194 117894,117998,117946
 6.1000e+000 118024 -7.3012e+001 -1.4782e+002  8.7709e-002 16194 117894,117946,117920
 6.1000e+000 118173 -2.7602e+000 -1.1455e+002  0.0000e+000 15968 118095,118147,118121
 6.1000e+000 118276 -3.4028e+001 -1.3319e+002  5.8550e-001 15433 118299,118198,118250
 6.1000e+000 118325 -3.4254e+001 -1.3372e+002  5.9075e-001 15433 118224,118198,118299
 6.1000e+000 118450 -6.2156e+001 -1.3805e+002  1.2733e+001 421 118372,118424,118398
 6.2000e+000 69891 -2.4357e+001 -1.2776e+002  4.8127e+000 68988 69447,69681,69629
 6.2000e+000 69868  7.8223e+000 -1.1485e+002  3.8208e+000 68988 69421,69681,69447
 6.2000e+000 69845 -2.4274e+000 -6.2092e+001  9.9207e-001 68988 69447,69629,69577
 6.2000e+000 69822 -4.1034e+001 -1.3214e+002 -1.4860e+001 68988 69447,69577,69473
 6.2000e+000 69799 -6.2471e+000 -1.5251e+002  2.6478e+001 68988 69629,69681,69655
 6.2000e+000 69776 -4.4800e+001 -8.0299e+001  1.9779e+000 68988 69577,69629,69603
 6.2000e+000 69753 -3.2859e+001 -1.1890e+002 -1.9228e+001 68988 69473,69577,69551
 6.2000e+000 69730 -4.4709e+001 -2.3450e+002 -2.2809e+001 68988 69473,69551,69525
 6.2000e+000 69707 -7.1450e+001 -1.5458e+002  4.4333e-001 68988 69473,69525,69499
 6.2000e+000 69992 -8.2201e+001 -1.4316e+002 -2.1762e+001 68676 69914,69966,69940
 6.2000e+000 70392 -6.9213e+001 -1.2591e+002  1.1900e+001 68478 70118,70248,70144
 6.2000e+000 70369 -1.0394e+001 -1.3460e+002  2.7800e+001 68478 70118,70274,70248
 6.2000e+000 70346 -3.9368e+001 -9.2258e+001  2.1255e-001 68478 70144,70222,70196
 6.2000e+000 70323 -3.2532e+001 -7.4299e+001 -4.5372e+000 68478 70144,70248,70222
 6.2000e+000 70300 -3.9830e+001 -9.9414e+001 -2.6272e-001 68478 70144,70196,70170
 6.2000e+000 70841  1.7163e+001 -8.5784e+001 -2.3246e+001 68280 70570,70622,70596
 6.2000e+000 70818 -4.5752e+001 -9.7523e+001 -5.4635e+000 68280 70544,70622,70570
 6.2000e+000 70795 -3.5015e+001 -7.3320e+001 -3.3615e+000 68280 70544,70674,70622
 6.2000e+000 70772 -3.1955e+001 -6.5631e+001  1.1779e+000 68280 70622,70674,70648
 6.2000e+000 70749 -4.8434e+001 -1.0887e+002  7.7642e+000 68280 70518,70674,70544
 6.2000e+000 70726  2.8096e+001 -1.1532e+002  3.0171e+001 68280 70518,70700,70674
 6.2000e+000 70991 -5.7282e+000 -4.6175e+002  1.4357e+001 67968 70864,70916,70890
 6.2000e+000 70968 -1.2533e+002 -4.5773e+002  5.6074e+001 67968 70864,70942,70916
 6.2000e+000 71141 -2.0711e+002 -3.9565e+002 -1.8479e+001 67770 71040,71092,71066
 6.2000e+000 71118 -1.7953e+002 -4.7822e+002  2.2043e+001 67770 71014,71092,71040
 6.2000e+000 71651 -3.2869e+001 -9.0836e+001 -1.3510e+001 67366 71746,71674,71458
 6.2000e+000 71628 -2.1496e+001 -6.8336e+001 -1.7690e+001 67366 71674,71354,71510
 6.2000e+000 71605 -3.2187e+001 -1.0214e+002 -1.1694e+001 67366 71746,71458,71432
 6.2000e+000 71582 -4.9989e+001 -1.0285e+002  5.6856e+000 67366 71354,71432,71380
 6.2000e+000 71559 -4.9129e+001 -7.5424e+001 -7.4794e+000 67366 71380,71432,71406
 6.2000e+000 71536 -2.4095e+001 -2.8631e+001 -3.8168e+000 67366 71328,71510,71354
 6.2000e+000 71700 -3.4515e+001 -8.0589e+001 -6.6508e+000 67366 71484,71458,71674
 6.2000e+000 71723 -2.7467e+001 -7.7480e+001 -6.1435e+000 67366 71484,71674,71510
 6.2000e+000 71772 -3.2178e+001 -7.7400e+001 -1.2583e+001 67366 71354,71674,71746
 6.2000e+000 71795 -2.9540e+001 -8.6293e+001 -1.2477e+001 67366 71354,71746,71432
 6.2000e+000 71896 -7.2351e+001 -1.5327e+002  0.0000e+000 67146 71818,71870,71844
 6.2000e+000 71997 -7.6554e+001 -1.4258e+002  2.8581e+001 66948 71919,71971,71945
 6.2000e+000 72149 -1.7847e+001 -9.7280e+001 -1.2360e+001 66700 72172,72074,72048
 6.2000e+000 72126 -4.4295e+001 -1.1245e+002 -4.8454e+000 66700 72172,72048,72022
 6.2000e+000 72198 -6.4412e+001 -1.1901e+002  6.1555e+000 66700 72244,72172,72100
 6.2000e+000 72221 -5.5655e+001 -1.0897e+002 -5.5969e+000 66700 72100,72172,72022
 6.2000e+000 72270 -3.9883e+001 -6.4654e+001 -8.2917e+000 66700 72074,72172,72244
 6.2000e+000 72623 -4.7711e+001 -1.0603e+002  2.4055e+000 66502 72424,72502,72450
 6.2000e+000 72600 -4.1723e+001 -9.0228e+001  1.9013e+000 66502 72398,72502,72424
 6.2000e+000 72577 -3.4624e+001 -1.0014e+002 -1.0305e+000 66502 72398,72528,72502
 6.2000e+000 72554 -4.8921e+001 -9.5942e+001 -4.2624e-001 66502 72450,72502,72476
 6.2000e+000 72920 -6.9189e+001 -1.3673e+002  3.6280e+000 65941 72672,72776,72750
 6.2000e+000 72897 -6.5782e+001 -1.1729e+002  1.3261e+001 65941 72646,72776,72672
 6.2000e+000 72874 -6.1571e+001 -1.3554e+002  5.9812e+000 65941 72672,72750,72724
 6.2000e+000 72851 -6.3509e+001 -1.1108e+002  1.1676e+001 65941 72672,72724,72698
 6.2000e+000 72828 -4.9744e+001 -1.1382e+002  1.1107e+001 65941 72646,72802,72776
 6.2000e+000 73241 -2.7123e+001 -9.3876e+001  3.4721e+000 65743 73264,73071,73045
 6.2000e+000 73218 -4.4210e+001 -1.0419e+002  8.5170e+000 65743 73480,73264,73045
 6.2000e+000 73195 -3.6138e+001 -9.2322e+001 -6.1951e-001 65743 73336,72967,73097
 6.2000e+000 73172 -5.5596e+001 -8.5986e+001 -6.6764e+000 65743 73408,72993,72967
 6.2000e+000 73149 -3.5055e+001 -9.4127e+001 -1.4145e+000 65743 72967,73123,73097
 6.2000e+000 73290 -3.1374e+001 -9.6059e+001  1.2656e+000 65743 73097,73071,73264
 6.2000e+000 73313 -3.3522e+001 -9.0202e+001  2.6410e+000 65743 73336,73097,73264
 6.2000e+000 73362 -4.8742e+001 -9.5083e+001 -3.9322e+000 65743 73408,72967,73336
 6.2000e+000 73385 -2.8101e+001 -8.8230e+001  9.1700e-001 65743 73019,73336,73264
 6.2000e+000 73434 -4.4146e+001 -6.7769e+001  5.2844e+000 65743 73019,72993,73408
 6.2000e+000 73457 -2.9034e+001 -8.0543e+001  4.3684e+000 65743 73019,73408,73336
 6.2000e+000 73506 -2.3562e+001 -6.7224e+001  3.8142e-001 65743 73019,73264,73480
 6.2000e+000 73989 -9.2504e+000 -8.0120e+001  9.3537e+000 65453 73793,73845,73819
 6.2000e+000 73966 -4.5510e+001 -8.9505e+001  1.0900e+001 65453 73741,73845,73793
 6.2000e+000 73943 -1.7361e+001 -7.4157e+001  5.0050e+000 65453 73715,73845,73741
 6.2000e+000 73920 -3.7542e+001 -9.8333e+001  1.8145e+001 65453 73741,73793,73767
 6.2000e+000 73897 -1.1238e+000 -4.2472e+001 -6.7795e-001 65453 73715,73871,73845
 6.2000e+000 74357 -2.3590e+001 -8.3290e+001 -2.7711e+001 65141 74380,74138,74086
 6.2000e+000 74334 -4.4127e+001 -1.1914e+002 -1.9215e+001 65141 74380,74086,74060
 6.2000e+000 74311 -4.4384e+001 -1.1424e+002 -6.4216e+000 65141 74138,74190,74164
 6.2000e+000 74288 -4.2448e+001 -1.2796e+002 -5.4259e+000 65141 74060,74216,74190
 6.2000e+000 74265 -4.5018e+001 -1.3589e+002  1.6972e+000 65141 74034,74216,74060
 6.2000e+000 74242 -1.8682e+001 -4.7055e+001 -1.1019e+001 65141 74086,74138,74112
 6.2000e+000 74406 -3.5475e+001 -1.1468e+002 -1.0510e+001 65141 74190,74138,74380
 6.2000e+000 74429 -4.2015e+001 -1.2726e+002 -5.1724e+000 65141 74190,74380,74060
 6.2000e+000 74937 -5.2027e+001 -9.4970e+001 -2.2061e+001 64737 74614,74666,74640
 6.2000e+000 74914 -6.3393e+001 -1.1654e+002 -1.5727e+001 64737 74614,74796,74666
 6.2000e+000 74891 -4.4986e+001 -7.6678e+001 -1.0891e+000 64737 74960,74718,74666
 6.2000e+000 74868 -4.2566e+001 -8.5850e+001 -9.1390e+000 64737 74960,74666,74770
 6.2000e+000 74845 -4.5107e+001 -7.5826e+001 -1.0372e+001 64737 74666,74796,74770
 6.2000e+000 74822 -4.1900e+001 -8.3586e+001  3.4369e+000 64737 74666,74718,74692
 6.2000e+000 74986 -4.6340e+001 -8.6042e+001 -3.7801e+000 64737 74744,74718,74960
 6.2000e+000 75009 -4.8170e+001 -1.0040e+002 -1.2521e+001 64737 74744,74960,74770
 6.2000e+000 75306 -2.4912e+001 -8.5449e+001  1.4872e+001 64133 75329,75110,75084
 6.2000e+000 75283 -3.3966e+001 -1.0366e+002  4.6924e+000 64133 75401,75329,75084
 6.2000e+000 75260 -3.3628e+001 -1.0600e+002  5.1954e+000 64133 75401,75084,75058
 6.2000e+000 75237 -3.1888e+001 -1.2424e+002  1.6859e+001 64133 75473,75136,75110
 6.2000e+000 75214 -3.1486e+001 -9.6738e+001  1.3340e+000 64133 75032,75188,75162
 6.2000e+000 75355 -3.7290e+001 -1.1482e+002  1.2980e+001 64133 75473,75110,75329
 6.2000e+000 75378 -2.8473e+001 -9.9640e+001  1.5961e+000 64133 75162,75329,75032
 6.2000e+000 75427 -2.6805e+001 -9.5676e+001  1.4371e+000 64133 75032,75329,75401
 6.2000e+000 75450 -5.0326e+001 -1.1684e+002  1.2874e+001 64133 75545,75401,75058
 6.2000e+000 75499 -2.7266e+001 -1.1256e+002  6.0486e+000 64133 75162,75136,75473
 6.2000e+000 75522 -3.2161e+001 -9.7038e+001  4.9252e+000 64133 75162,75473,75329
 6.2000e+000 75571 -2.7561e+001 -6.7405e+001  3.4664e+000 64133 75032,75401,75545
 6.2000e+000 75851 -4.5646e+001 -9.4207e+001  3.1457e+000 63843 75874,75753,75727
 6.2000e+000 75828 -4.0045e+001 -8.9861e+001 -2.6035e+000 63843 75946,75874,75727
 6.2000e+000 75805 -4.4241e+001 -9.3603e+001 -9.5837e-001 63843 76018,75946,75727
 6.2000e+000 75900 -3.9623e+001 -9.1715e+001 -4.0446e+000 63843 75779,75753,75874
 6.2000e+000 75923 -3.8880e+001 -7.6941e+001 -9.7845e+000 63843 75779,75874,75675
 6.2000e+000 75972 -4.4258e+001 -8.8110e+001 -2.5485e+000 63843 75675,75874,75946
 6.2000e+000 75995 -4.1934e+001 -8.9021e+001 -4.2319e+000 63843 75675,75946,75701
 6.2000e+000 76044 -4.4403e+001 -9.0936e+001 -5.1441e+000 63843 75701,75946,76018
 6.2000e+000 76454  5.1160e+000 -1.2666e+001 -8.7448e+000 63439 76477,76255,76229
 6.2000e+000 76431 -9.1088e+000 -3.5273e+001  1.6525e+000 63439 76477,76229,76359
 6.2000e+000 76408 -1.1942e+001 -2.9098e+001  1.7193e+001 63439 76307,76359,76333
 6.2000e+000 76385 -7.1721e+000 -4.2110e+001 -2.3294e-001 63439 76255,76307,76281
 6.2000e+000 76503 -1.1599e+001 -3.1126e+001  4.4760e+000 63439 76307,76255,76477
 6.2000e+000 76526 -1.0035e+001 -3.9440e+001  1.2198e+001 63439 76307,76477,76359
 6.2000e+000 76926 -2.2277e+001 -5.8627e+001  2.6348e-001 63049 76704,76782,76756
 6.2000e+000 76903 -2.8109e+001 -5.9570e+001 -5.8137e+000 63049 76704,76808,76782
 6.2000e+000 76880 -2.0180e+001 -6.5563e+001  1.2625e+000 63049 76704,76756,76730
 6.2000e+000 76857 -1.6854e+001 -3.5734e+001  3.4597e+000 63049 76678,76808,76704
 6.2000e+000 76834 -6.2893e+000 -7.3244e+000 -7.5821e+000 63049 76652,76808,76678
 6.2000e+000 77076 -1.2590e+001 -1.1377e+002 -9.8231e-001 62737 76975,77027,77001
 6.2000e+000 77053 -9.1540e+000 -1.2514e+002 -7.1964e+000 62737 76949,77027,76975
 6.2000e+000 77324 -4.6215e+001 -1.0700e+002 -9.2589e-001 62277 77347,77177,77125
 6.2000e+000 77301 -4.6789e+001 -1.0448e+002 -5.2396e+000 62277 77347,77125,77229
 6.2000e+000 77278 -4.5872e+001 -1.1022e+002 -8.7629e+000 62277 77099,77229,77125
 6.2000e+000 77255 -4.9690e+001 -1.2647e+002  1.6985e+000 62277 77125,77177,77151
 6.2000e+000 77373 -4.8634e+001 -1.1469e+002  1.2404e+000 62277 77203,77177,77347
 6.2000e+000 77396 -4.5373e+001 -1.0814e+002 -3.6553e+000 62277 77203,77347,77229
 6.2000e+000 77857 -2.9283e+001 -1.3840e+002  1.5963e+000 61758 77635,77739,77661
 6.2000e+000 77834 -4.0119e+001 -1.3757e+002 -4.2004e+000 61758 77583,77739,77635
 6.2000e+000 77811 -4.3923e+001 -1.6869e+002 -1.6275e+001 61758 77583,77635,77609
 6.2000e+000 77788 -3.5852e+001 -1.3651e+002  9.7602e+000 61758 77661,77713,77687
 6.2000e+000 77765 -3.9627e+001 -1.5202e+002  8.4731e+000 61758 77661,77739,77713
 6.2000e+000 78491 -4.1792e+001 -7.3240e+001  3.6881e+000 61418 78171,78301,78249
 6.2000e+000 78468 -3.0567e+001 -5.8492e+001  9.7054e+000 61418 78145,78301,78171
 6.2000e+000 78445 -3.0719e+001 -6.5374e+001 -1.9099e+000 61418 78171,78249,78223
 6.2000e+000 78422 -2.8912e+001 -5.7550e+001  3.8129e+000 61418 78145,78327,78301
 6.2000e+000 78399 -4.3726e+001 -8.6031e+001 -3.4645e+000 61418 78249,78301,78275
 6.2000e+000 78376 -1.7887e+001 -7.2792e+001 -3.8494e+000 61418 78171,78223,78197
 6.2000e+000 78353 -3.4453e+001 -7.7081e+001 -1.4061e+000 61418 78119,78327,78145
 6.2000e+000 78690 -3.2040e+001 -7.8167e+001  2.0421e+000 61014 78713,78566,78540
 6.2000e+000 78667 -2.4968e+001 -7.9756e+001  2.8691e+000 61014 78713,78540,78618
 6.2000e+000 78644 -3.6149e+001 -8.9891e+001 -8.4455e+000 61014 78514,78618,78540
 6.2000e+000 78739 -1.8705e+001 -7.4276e+001  9.2245e+000 61014 78592,78566,78713
 6.2000e+000 78762 -2.8522e+001 -8.4667e+001  1.3226e+000 61014 78785,78713,78618
 6.2000e+000 78811 -8.7171e+000 -7.6508e+001  7.2454e-001 61014 78592,78713,78785
 6.2000e+000 79398 -1.5076e+001 -7.4521e+001 -5.7653e+000 60624 79101,79179,79153
 6.2000e+000 79375 -2.1126e+001 -8.0368e+001 -3.2442e+000 60624 79101,79231,79179
 6.2000e+000 79352 -1.5031e+001 -7.9243e+001 -5.0357e+000 60624 79075,79231,79101
 6.2000e+000 79329 -5.3137e+000 -9.3101e+001  8.8910e+000 60624 79075,79257,79231
 6.2000e+000 79306 -1.6208e+001 -6.2398e+001 -1.1038e+001 60624 79179,79231,79205
 6.2000e+000 79283 -1.0341e+001 -6.3715e+001 -3.4884e+000 60624 79101,79153,79127
 6.2000e+000 79776 -4.7074e+001 -1.1342e+002  7.8169e+000 60070 79528,79658,79606
 6.2000e+000 79753 -4.4755e+001 -9.7026e+001 -3.3162e-001 60070 79502,79658,79528
 6.2000e+000 79730 -5.8338e+001 -1.0929e+002  1.3006e+001 60070 79528,79606,79580
 6.2000e+000 79707 -2.5018e+001 -1.0367e+002  2.2422e+000 60070 79606,79658,79632
 6.2000e+000 79684 -5.2053e+000 -6.7580e+001 -1.6785e+001 60070 79528,79580,79554
 6.2000e+000 80105 -3.5713e+001 -8.9767e+001  9.6939e+000 59758 80128,79958,79906
 6.2000e+000 80082 -3.4249e+001 -8.5108e+001  7.4154e+000 59758 80128,79906,80010
 6.2000e+000 80059 -4.8162e+001 -9.5188e+001  2.7945e+001 59758 79906,79958,79932
 6.2000e+000 80036 -4.8442e+001 -9.4583e+001  3.3311e+000 59758 79880,80010,79906
 6.2000e+000 80154 -3.4916e+001 -9.2893e+001  1.0952e+001 59758 79984,79958,80128
 6.2000e+000 80177 -3.4742e+001 -8.9533e+001  8.9169e+000 59758 79984,80128,80010
 6.2000e+000 80376 -2.4369e+001 -7.2279e+001  1.4397e+000 59312 80226,80304,80252
 6.2000e+000 80353 -2.2978e+001 -7.5829e+001  1.6613e+000 59312 80200,80304,80226
 6.2000e+000 80330 -3.5374e+001 -6.4230e+001  1.9531e+001 59312 80252,80304,80278
 6.2000e+000 80805 -3.2422e+001 -7.3229e+001 -1.1053e+001 58908 80900,80828,80638
 6.2000e+000 80782 -2.7906e+001 -8.7763e+001 -1.6573e+001 58908 80828,80560,80508
 6.2000e+000 80759 -3.3749e+001 -6.9153e+001 -4.4934e+000 58908 80900,80638,80612
 6.2000e+000 80736 -1.4160e+001 -7.6719e+001  3.0420e+001 58908 80482,80664,80508
 6.2000e+000 80713 -2.3771e+001 -6.3689e+001 -2.9688e+000 58908 80560,80612,80586
 6.2000e+000 80690 -3.1070e+001 -2.2425e+002 -4.2231e+001 58908 80508,80560,80534
 6.2000e+000 80854 -1.5794e+001 -7.9665e+001  1.0929e+000 58908 80664,80638,80828
 6.2000e+000 80877 -2.6617e+001 -1.1540e+002  2.9304e+000 58908 80664,80828,80508
 6.2000e+000 80926 -2.8220e+001 -6.1259e+001 -1.1816e+001 58908 80560,80828,80900
 6.2000e+000 80949 -3.1178e+001 -6.1142e+001 -4.3184e+000 58908 80560,80900,80612
 6.2000e+000 81246 -1.5024e+001 -7.4188e+001 -1.2094e+000 58482 81076,81128,81102
 6.2000e+000 81223 -3.6010e+001 -1.2456e+002 -1.1878e+001 58482 80972,81128,81076
 6.2000e+000 81200 -2.2729e+001 -8.5226e+001 -1.3837e+001 58482 80972,81076,81050
 6.2000e+000 81177 -4.9740e+001 -1.2878e+002 -5.0936e+000 58482 80998,81050,81024
 6.2000e+000 81154 -2.8230e+001 -1.0318e+002 -1.4279e+001 58482 80972,81050,80998
 6.2000e+000 81754 -3.7144e+001 -7.3541e+001  4.1949e+000 57828 81457,81613,81483
 6.2000e+000 81731 -4.3227e+001 -8.6214e+001  1.8502e+000 57828 81431,81613,81457
 6.2000e+000 81708 -4.0455e+001 -8.1279e+001  4.5286e+000 57828 81483,81613,81509
 6.2000e+000 81685 -5.0077e+001 -9.2578e+001  8.6640e+000 57828 81509,81613,81587
 6.2000e+000 81662 -5.2979e+001 -1.3453e+002  1.7876e+001 57828 81509,81587,81535
 6.2000e+000 81639 -2.9493e+001 -1.1757e+002  9.0125e+000 57828 81535,81587,81561
 6.2000e+000 82002 -5.2188e+001 -1.2881e+002 -5.0885e-001 57374 82025,81855,81829
 6.2000e+000 81979 -5.5886e+001 -1.1932e+002  7.2261e+000 57374 82025,81829,81907
 6.2000e+000 81956 -5.8801e+001 -1.1104e+002  4.3524e+000 57374 81803,81907,81829
 6.2000e+000 81933 -3.0424e+001 -9.7942e+001  8.1968e+000 57374 81777,81907,81803
 6.2000e+000 82051 -5.1850e+001 -1.1759e+002 -1.1259e+000 57374 81881,81855,82025
 6.2000e+000 82074 -5.3358e+001 -1.0903e+002  9.2903e+000 57374 81881,82025,81907
 6.2000e+000 82356 -3.5383e+001 -8.0106e+001 -4.6860e+000 56913 82180,82232,82206
 6.2000e+000 82333 -3.0866e+001 -7.4704e+001  4.9132e+000 56913 82180,82284,82232
 6.2000e+000 82310 -8.9334e+000 -5.5521e+001  1.3508e+001 56913 82379,82232,82284
 6.2000e+000 82405  8.8351e+000 -5.4139e+001  1.2110e+000 56913 82258,82232,82379
 6.2000e+000 82764 -3.5791e+001 -5.1186e+001 -6.4574e+000 56523 82614,82666,82640
 6.2000e+000 82741 -3.2495e+001 -5.0881e+001 -8.1578e+000 56523 82614,82692,82666
 6.2000e+000 82718 -2.4446e+001 -5.3306e+001 -1.6592e+001 56523 82588,82692,82614
 6.2000e+000 83368 -3.2791e+000 -7.9196e+001 -3.3530e+000 55969 82973,83155,83129
 6.2000e+000 83345  3.4040e+000 -7.7010e+001 -5.5751e+000 55969 82973,83181,83155
 6.2000e+000 83322 -2.0370e+001 -7.0287e+001 -2.1240e+000 55969 82973,83129,82999
 6.2000e+000 83299 -3.3846e+001 -7.1302e+001  1.3831e+000 55969 83391,83025,82999
 6.2000e+000 83276 -2.8795e+001 -7.4412e+001 -3.6827e-001 55969 83391,82999,83129
 6.2000e+000 83253 -2.5795e+000 -6.2005e+001  1.5303e+001 55969 83077,83129,83103
 6.2000e+000 83230 -3.5104e+001 -5.8428e+001 -2.2811e+000 55969 83025,83077,83051
 6.2000e+000 83207 -5.5742e-001 -7.5514e+001  5.4637e+000 55969 82947,83181,82973
 6.2000e+000 83417 -2.9038e+001 -6.8169e+001  3.2520e+000 55969 83077,83025,83391
 6.2000e+000 83440 -2.7390e+001 -7.2577e+001  6.5628e-001 55969 83077,83391,83129
 6.2000e+000 83946 -6.3538e+001 -1.3733e+002  2.1673e+001 55771 83969,83779,83727
 6.2000e+000 83923 -5.0497e+001 -1.1035e+002  1.4274e+001 55771 83969,83727,83623
 6.2000e+000 83900 -5.9757e+001 -5.4687e+001  7.9649e+000 55771 83623,83727,83649
 6.2000e+000 83877 -4.7800e+001 -2.2738e+002  1.2027e+001 55771 83727,83779,83753
 6.2000e+000 83854 -7.4944e+001 -1.1295e+002  2.3920e+001 55771 83675,83727,83701
 6.2000e+000 83831 -9.1568e+001 -8.8870e+001  3.6979e+001 55771 83649,83727,83675
 6.2000e+000 83995 -6.0790e+001 -1.4312e+002 -1.1839e+001 55771 83805,83779,83969
 6.2000e+000 84018 -3.3543e+001 -8.9413e+001 -2.2122e+001 55771 83805,83969,83623
 6.2000e+000 84168 -2.7236e+001 -6.9371e+001 -1.2549e+000 55367 84191,84067,84041
 6.2000e+000 84145 -2.7870e+001 -7.4015e+001 -5.8722e-001 55367 84191,84041,84119
 6.2000e+000 84217 -2.9113e+001 -6.5783e+001 -1.3290e+000 55367 84093,84067,84191
 6.2000e+000 84240 -2.9324e+001 -6.9194e+001  6.0654e-001 55367 84093,84191,84119
 6.2000e+000 84571 -1.7398e+001 -9.7706e+001 -1.0298e+001 54913 84398,84450,84424
 6.2000e+000 84548 -1.5002e+001 -8.9871e+001 -5.6533e+000 54913 84372,84450,84398
 6.2000e+000 84525 -2.4410e+001 -1.0024e+002  3.6682e+000 54913 84346,84450,84372
 6.2000e+000 84502 -1.0017e+001 -6.6977e+001 -9.8171e+000 54913 84346,84476,84450
 6.2000e+000 85126 -5.3853e+001 -1.1520e+002 -6.5494e+000 54402 84858,84936,84910
 6.2000e+000 85103 -4.1127e+001 -8.6681e+001 -9.3684e+000 54402 84806,84936,84858
 6.2000e+000 85080 -5.0563e+001 -8.0601e+001 -7.7277e+000 54402 84780,84936,84806
 6.2000e+000 85057 -3.9062e+001 -9.7887e+001 -2.2598e+000 54402 84806,84858,84832
 6.2000e+000 85034 -4.7592e+001 -7.6667e+001  4.6072e+000 54402 84780,84962,84936
 6.2000e+000 85011 -6.2104e+001 -6.7001e+001 -3.4513e+000 54402 84858,84910,84884
 6.2000e+000 84988 -4.6613e+001 -7.6711e+001  5.6319e+000 54402 84754,84962,84780
 6.2000e+000 85396 -4.4722e+001 -5.4583e+001 -3.4738e+000 53998 85197,85249,85223
 6.2000e+000 85373 -3.4193e+001 -6.5825e+001 -1.5318e+000 53998 85197,85275,85249
 6.2000e+000 85350 -4.1726e+001 -7.5836e+001 -4.9609e+000 53998 85171,85275,85197
 6.2000e+000 85327 -2.0293e+001 -7.0099e+001 -6.3628e+000 53998 85171,85301,85275
 6.2000e+000 85749 -2.2153e+001 -7.1228e+001 -2.1701e+000 53636 85524,85628,85550
 6.2000e+000 85726 -3.3821e+001 -8.3713e+001  2.6452e+000 53636 85524,85654,85628
 6.2000e+000 85703 -1.1872e+001 -7.3891e+001 -7.6843e+000 53636 85550,85602,85576
 6.2000e+000 85680 -1.9992e+001 -6.9887e+001 -3.8659e+000 53636 85550,85628,85602
 6.2000e+000 86127 -7.6452e+000 -7.5603e+001  1.3068e+001 52982 86150,85957,85879
 6.2000e+000 86104 -2.8343e+001 -8.7989e+001  7.7227e+000 52982 86150,85879,85853
 6.2000e+000 86081 -6.9658e+000 -1.1490e+002  2.2518e+001 52982 85957,86009,85983
 6.2000e+000 86058 -3.3534e+001 -8.1440e+001  1.0443e+001 52982 85879,85957,85931
 6.2000e+000 86035 -2.1640e+001 -7.7911e+001 -3.1147e+000 52982 85879,85931,85905
 6.2000e+000 86176  4.8534e+000 -9.0004e+001  1.0377e+001 52982 86009,85957,86150
 6.2000e+000 86199 -7.3985e+000 -9.7099e+001  6.4994e+000 52982 86009,86150,85853
 6.2000e+000 86398 -2.4011e+001 -6.3792e+001  4.2988e+000 52542 86421,86248,86222
 6.2000e+000 86375 -3.5508e+001 -6.8131e+001 -1.0138e+000 52542 86421,86222,86300
 6.2000e+000 86352 -3.6926e+001 -7.3430e+001 -1.6765e+000 52542 86222,86326,86300
 6.2000e+000 86447 -1.0703e+001 -6.5700e+001  1.1398e+001 52542 86274,86248,86421
 6.2000e+000 86470 -2.2813e+001 -7.3555e+001  4.5597e+000 52542 86274,86421,86300
 6.2000e+000 86669 -2.7802e+001 -6.3659e+001 -1.9406e+001 52230 86692,86571,86545
 6.2000e+000 86646 -2.9524e+001 -6.5318e+001 -1.0408e+001 52230 86692,86545,86519
 6.2000e+000 86623 -4.4955e+001 -6.8789e+001 -7.7660e+000 52230 86493,86597,86519
 6.2000e+000 86718 -3.3293e+001 -6.5236e+001 -1.5789e+001 52230 86597,86571,86692
 6.2000e+000 86741 -4.1175e+001 -6.9619e+001 -6.8145e+000 52230 86597,86692,86519
 6.2000e+000 87153 -4.2393e+001 -6.2534e+001  2.6493e+000 51640 86980,87058,87032
 6.2000e+000 87130 -4.1181e+001 -6.3240e+001  2.3897e+000 51640 86928,87058,86980
 6.2000e+000 87107 -4.3741e+001 -8.3820e+001 -2.6535e+000 51640 86928,86980,86954
 6.2000e+000 87084 -2.2386e+001 -5.3995e+001  1.2531e+000 51640 86980,87032,87006
 6.2000e+000 87659 -2.0987e+001 -5.8457e+001  2.1902e+000 51029 87682,87440,87362
 6.2000e+000 87636 -1.8174e+001 -6.2405e+001 -6.6840e+000 51029 87682,87362,87336
 6.2000e+000 87613 -3.1072e+001 -9.1636e+001 -1.9463e+000 51029 87440,87518,87466
 6.2000e+000 87590 -3.0715e+001 -5.9212e+001  3.0820e+000 51029 87362,87440,87414
 6.2000e+000 87567 -2.5339e+001 -4.4747e+001  1.2009e+001 51029 87362,87414,87388
 6.2000e+000 87544 -4.0290e+001 -8.6756e+001  2.0610e+000 51029 87466,87518,87492
 6.2000e+000 87708 -2.0516e+001 -6.6324e+001 -2.5047e-001 51029 87518,87440,87682
 6.2000e+000 87731 -1.9791e+001 -7.7887e+001 -5.8267e+000 51029 87518,87682,87336
 6.2000e+000 87881 -3.9834e+001 -8.8500e+001  1.7561e+000 50739 87780,87832,87806
 6.2000e+000 87858 -4.4151e+001 -8.5919e+001 -4.1526e+000 50739 87754,87832,87780
 6.2000e+000 88468 -2.7368e+001 -5.8489e+001  2.8748e+000 50235 88171,88327,88197
 6.2000e+000 88445 -6.1154e+001 -5.7680e+001 -9.9499e+000 50235 88145,88327,88171
 6.2000e+000 88422 -1.8013e-001 -2.8538e+001 -2.1353e-001 50235 88275,88327,88301
 6.2000e+000 88399 -1.8393e+001 -3.6338e+001 -2.3552e-001 50235 88197,88327,88275
 6.2000e+000 88376 -1.0246e+001 -5.2378e+001 -6.6746e-001 50235 88197,88275,88223
 6.2000e+000 88353 -1.0589e+001 -7.0575e+001 -7.6875e+000 50235 88223,88275,88249
 6.2000e+000 88895 -3.9333e+001 -9.3022e+001  2.1042e+000 49873 88918,88728,88676
 6.2000e+000 88872 -3.3702e+001 -8.6387e+001 -1.4850e+000 49873 88918,88676,88624
 6.2000e+000 88849 -2.7236e+001 -7.7095e+001 -3.8360e+000 49873 88598,88754,88624
 6.2000e+000 88826 -2.0748e+001 -8.0704e+001 -2.6358e+000 49873 88624,88676,88650
 6.2000e+000 88803 -2.7329e+001 -1.1389e+002  5.0571e+000 49873 88676,88728,88702
 6.2000e+000 88780 -3.3029e+001 -8.0195e+001 -5.0606e+000 49873 88572,88754,88598
 6.2000e+000 88944 -3.2645e+001 -9.2472e+001 -2.0651e+000 49873 88754,88728,88918
 6.2000e+000 88967 -3.0431e+001 -8.9950e+001 -4.9734e+000 49873 88754,88918,88624
 6.2000e+000 89473 -5.8381e+001 -8.7719e+001 -1.2126e+001 49583 89176,89306,89202
 6.2000e+000 89450 -5.4305e+001 -8.5876e+001 -1.2527e+001 49583 89176,89332,89306
 6.2000e+000 89427 -3.2388e+001 -9.3050e+001  4.5591e+000 49583 89496,89228,89202
 6.2000e+000 89404 -3.3029e+001 -9.5073e+001  5.3745e+000 49583 89496,89202,89280
 6.2000e+000 89381 -6.9453e+001 -1.2006e+002 -2.1911e+001 49583 89202,89306,89280
 6.2000e+000 89358 -4.2202e+001 -8.5442e+001 -1.3933e+001 49583 89150,89332,89176
 6.2000e+000 89522 -3.1182e+001 -7.9301e+001  2.4147e+000 49583 89254,89228,89496
 6.2000e+000 89545 -3.8002e+001 -9.0918e+001  5.2497e+000 49583 89254,89496,89280
 6.2000e+000 89825  4.9487e+000 -8.7831e+001  2.5944e+000 49179 89701,89753,89727
 6.2000e+000 89802 -1.3544e+001 -7.7307e+001  3.4256e+000 49179 89675,89753,89701
 6.2000e+000 89779 -1.0222e+001 -6.9922e+001  4.2139e+000 49179 89848,89753,89675
 6.2000e+000 89874 -5.3296e+001 -8.4687e+001 -7.7266e+000 49179 89649,89753,89848
 6.2000e+000 90223 -2.6558e+001 -7.9247e+001 -1.1215e+001 48739 90024,90102,90076
 6.2000e+000 90200 -2.4882e+001 -7.3173e+001 -3.9312e+000 48739 90024,90128,90102
 6.2000e+000 90177  3.0560e+000 -7.8572e+001 -1.0965e+001 48739 90024,90076,90050
 6.2000e+000 90154 -8.0637e+000 -6.9540e+001  5.0240e+000 48739 89998,90128,90024
 6.2000e+000 90603 -2.2809e+001 -6.1547e+001  1.4000e+001 48335 90381,90485,90459
 6.2000e+000 90580 -3.1264e+001 -7.4377e+001  1.0171e+001 48335 90355,90485,90381
 6.2000e+000 90557 -1.0723e+001 -1.6174e+001  6.4812e+000 48335 90381,90433,90407
 6.2000e+000 90534 -2.2711e+001 -6.5125e+001  9.7295e+000 48335 90381,90459,90433
 6.2000e+000 90511  1.4262e+001 -4.9476e+001  2.0512e+001 48335 90329,90485,90355
 6.2000e+000 90753  5.4639e-001 -4.0152e+001  2.5841e+001 47824 90776,90652,90704
 6.2000e+000 90730 -2.1300e+001 -7.2675e+001  1.1910e+001 47824 90626,90704,90652
 6.2000e+000 90802 -9.5763e+000 -5.1831e+001  2.1133e+001 47824 90678,90652,90776
 6.2000e+000 91131 -3.3565e+001 -1.0313e+002  5.0658e+000 47427 91154,90958,90906
 6.2000e+000 91108 -5.7016e+001 -1.1337e+002  7.3323e+000 47427 91154,90906,91036
 6.2000e+000 91085 -4.9750e+001 -8.3477e+001 -7.6181e+000 47427 90958,91010,90984
 6.2000e+000 91062 -3.3658e+001 -8.6269e+001  7.0647e+000 47427 90906,90958,90932
 6.2000e+000 91180 -4.5875e+001 -9.6982e+001 -1.0846e+001 47427 91010,90958,91154
 6.2000e+000 91203 -6.7882e+001 -1.0638e+002 -8.9320e+000 47427 91010,91154,91036
 6.2000e+000 91583 -4.2983e+001 -8.2100e+001 -6.4737e+000 46873 91309,91439,91335
 6.2000e+000 91560 -4.7260e+001 -8.3209e+001 -4.9901e+000 46873 91309,91465,91439
 6.2000e+000 91537 -6.7836e+001 -9.8467e+001 -2.7261e+001 46873 91361,91439,91413
 6.2000e+000 91514 -4.9753e+001 -8.6363e+001 -1.5168e+001 46873 91335,91439,91361
 6.2000e+000 91491 -2.2671e+001 -8.0849e+001 -2.3054e+001 46873 91361,91413,91387
 6.2000e+000 91880 -3.3284e+001 -9.7340e+001 -3.5103e+000 46526 91606,91710,91658
 6.2000e+000 91857 -3.3661e+001 -1.0250e+002  1.9468e-002 46526 91606,91762,91710
 6.2000e+000 91834 -2.3109e+001 -9.2986e+001 -1.0740e+001 46526 91606,91658,91632
 6.2000e+000 91811 -3.8792e+001 -8.9321e+001  1.2064e+000 46526 91658,91710,91684
 6.2000e+000 91788 -2.3398e+001 -7.1332e+001  2.6638e+000 46526 91710,91762,91736
 6.2000e+000 92211 -1.3657e+001 -3.5129e+001 -3.1118e+000 45700 91986,92064,92038
 6.2000e+000 92188 -1.9998e+001 -5.3279e+001  5.0504e-001 45700 91986,92116,92064
 6.2000e+000 92165 -9.8716e+000 -2.8296e+001 -6.0521e+000 45700 91986,92038,92012
 6.2000e+000 92142 -1.3344e+001 -5.8848e+001  7.3366e+000 45700 92064,92116,92090
 6.2000e+000 92766 -3.9239e+001 -7.8657e+001  4.5168e+000 45452 92446,92602,92576
 6.2000e+000 92743 -6.5135e+001 -7.8263e+001 -1.0897e+001 45452 92420,92602,92446
 6.2000e+000 92720 -5.1029e+001 -8.6006e+001  1.3750e+001 45452 92789,92524,92498
 6.2000e+000 92697 -5.7861e+001 -8.3033e+001  1.1724e+001 45452 92789,92498,92446
 6.2000e+000 92674 -5.0301e+001 -8.9974e+001 -5.9450e-001 45452 92524,92576,92550
 6.2000e+000 92651 -7.6511e+001 -8.6454e+001  4.6592e+001 45452 92446,92498,92472
 6.2000e+000 92628 -3.1566e+001 -8.2126e+001 -1.7596e+001 45452 92394,92602,92420
 6.2000e+000 92815 -4.6091e+001 -8.5723e+001  1.1821e+001 45452 92576,92524,92789
 6.2000e+000 92838 -5.1770e+001 -8.2055e+001  1.0617e+001 45452 92576,92789,92446
 6.2000e+000 92939 -3.7923e+001 -1.1329e+002 -2.2669e+001 44998 92861,92913,92887
 6.2000e+000 93319 -9.5724e+000 -1.1574e+002  2.1115e+001 44601 93123,93201,93149
 6.2000e+000 93296 -3.3247e+001 -1.1419e+002 -1.1524e+001 44601 93045,93201,93123
 6.2000e+000 93273 -2.4904e+001 -6.2587e+001 -1.6724e+001 44601 93045,93123,93071
 6.2000e+000 93250 -2.2639e+001 -5.8156e+001 -1.1621e+001 44601 93071,93123,93097
 6.2000e+000 93227 -2.3717e+000 -6.2686e+001  2.1977e+001 44601 93149,93201,93175
 6.2000e+000 93697 -2.4214e+001 -1.2744e+002  7.3479e+000 44026 93720,93553,93527
 6.2000e+000 93674 -4.2542e+001 -1.0780e+002  1.0182e+001 44026 93720,93527,93449
 6.2000e+000 93651 -4.7621e+001 -1.1172e+002 -2.1832e+000 44026 93449,93527,93501
 6.2000e+000 93628 -3.3496e+001 -8.5859e+001 -1.5654e+001 44026 93423,93579,93449
 6.2000e+000 93605 -1.1025e+001 -8.9088e+001  7.4582e+000 44026 93449,93501,93475
 6.2000e+000 93746 -1.1581e+001 -1.1257e+002  1.9235e+000 44026 93579,93553,93720
 6.2000e+000 93769 -3.0819e+001 -9.3116e+001  5.1094e+000 44026 93579,93720,93449
 6.2000e+000 94066 -2.7353e+001 -9.7882e+001 -1.3794e+001 43579 94089,93818,93792
 6.2000e+000 94043 -4.1221e+001 -1.1062e+002 -8.4090e+000 43579 94161,94089,93792
 6.2000e+000 94020 -4.0879e+001 -1.1142e+002 -3.4520e+000 43579 94161,93792,93948
 6.2000e+000 93997 -4.2893e+001 -8.4066e+001 -3.9783e+000 43579 94233,93870,93818
 6.2000e+000 93974 -2.4426e+001 -8.6953e+001  3.0083e+000 43579 93818,93870,93844
 6.2000e+000 94115 -4.2314e+001 -8.4896e+001 -9.2144e+000 43579 94233,93818,94089
 6.2000e+000 94138 -5.4987e+001 -9.7683e+001 -6.8457e+000 43579 93896,94089,93922
 6.2000e+000 94187 -3.8074e+001 -1.0267e+002 -9.2459e+000 43579 93922,94089,94161
 6.2000e+000 94210 -3.8093e+001 -1.0305e+002 -3.7933e+000 43579 93922,94161,93948
 6.2000e+000 94259 -4.7348e+001 -9.4028e+001 -2.8765e+000 43579 93896,93870,94233
 6.2000e+000 94282 -4.5855e+001 -9.3108e+001 -8.9427e+000 43579 93896,94233,94089
 6.2000e+000 94481 -3.4022e+001 -1.0198e+002 -9.2636e-001 43239 94305,94383,94357
 6.2000e+000 94458 -2.8658e+001 -9.3060e+001  1.1225e+001 43239 94305,94409,94383
 6.2000e+000 94435 -2.7812e+001 -1.0571e+002 -2.6671e+000 43239 94305,94357,94331
 6.2000e+000 94633 -1.0822e+001 -6.0031e+001  1.4364e+001 42827 94656,94532,94506
 6.2000e+000 94610 -2.7644e+001 -6.7832e+001  1.6402e+001 42827 94728,94656,94506
 6.2000e+000 94682 -1.4380e+001 -7.0732e+001  1.1842e+001 42827 94558,94532,94656
 6.2000e+000 94705 -4.4299e+000 -6.8443e+001  6.6747e+000 42827 94988,94860,94656
 6.2000e+000 94754 -1.4436e+001 -5.8511e+001  4.3164e+000 42827 94988,94656,94728
 6.2000e+000 94886  3.1463e+000 -6.4762e+001  7.8377e+000 42827 94558,94656,94860
 6.2000e+000 95014  4.0567e+000 -5.9896e+001  2.9146e+000 42827 94584,94860,94988
 6.2000e+000 95037 -5.2479e+000 -5.1696e+001  3.0428e-001 42827 94584,94988,94728
 6.2000e+000 95236 -8.2446e+000 -7.0003e+001  1.0625e+001 42537 95259,95112,95060
 6.2000e+000 95213 -1.3141e+001 -6.4810e+001  8.4468e+000 42537 95259,95060,95164
 6.2000e+000 95190 -1.9719e+000 -7.1988e+001 -5.5508e-001 42537 95060,95112,95086
 6.2000e+000 95285 -1.1530e+001 -7.2429e+001  8.7564e+000 42537 95138,95112,95259
 6.2000e+000 95308 -1.7217e+001 -6.9661e+001  5.8456e+000 42537 95138,95259,95164
 6.2000e+000 95816 -3.2860e+001 -9.3962e+001 -5.9578e+000 41969 95493,95597,95519
 6.2000e+000 95793 -4.8264e+001 -8.5964e+001  8.7660e+000 41969 95493,95649,95597
 6.2000e+000 95770 -3.6369e+001 -8.1625e+001  8.5640e+000 41969 95493,95675,95649
 6.2000e+000 95747 -3.8285e+001 -1.1522e+002  7.2037e+000 41969 95597,95649,95623
 6.2000e+000 95724 -5.4657e+001 -8.5148e+001 -1.0833e+001 41969 95519,95597,95571
 6.2000e+000 95701 -4.8702e+001 -7.4152e+001 -1.9946e+001 41969 95519,95571,95545
 6.2000e+000 96371 -4.2012e+001 -1.0369e+002  1.2467e+001 41579 96025,96207,96181
 6.2000e+000 96348  1.3264e+001 -7.8070e+001 -4.7857e+000 41579 95999,96207,96025
 6.2000e+000 96325 -4.8195e+001 -7.7969e+001 -9.0709e+000 41579 96129,96181,96155
 6.2000e+000 96302 -1.7215e+001 -7.1103e+001 -2.7615e-002 41579 96025,96181,96129
 6.2000e+000 96279 -4.0486e+001 -1.0869e+002  1.5059e+001 41579 96025,96129,96051
 6.2000e+000 96256 -4.3769e+001 -9.5182e+001  1.2782e+001 41579 96051,96103,96077
 6.2000e+000 96233 -1.7094e+001 -7.3156e+001 -5.6851e-002 41579 96051,96129,96103
 6.2000e+000 96877 -1.1743e+001 -6.5342e+001 -8.0155e+000 41182 96972,96900,96632
 6.2000e+000 96854 -1.4577e+001 -4.6844e+001 -7.6528e+000 41182 96900,96554,96736
 6.2000e+000 96831 -1.1119e+001 -6.5518e+001 -6.4374e+000 41182 96972,96632,96580
 6.2000e+000 96808 -1.3487e+001 -6.0124e+001  7.6911e+000 41182 96632,96684,96658
 6.2000e+000 96785 -2.6829e+001 -7.0012e+001  6.9694e+000 41182 96684,96736,96710
 6.2000e+000 96762 -3.9325e+001 -8.5472e+001  1.4628e+001 41182 96580,96632,96606
 6.2000e+000 96926 -1.0467e+001 -7.2449e+001 -7.8680e+000 41182 96684,96632,96900
 6.2000e+000 96949 -2.1225e+001 -6.4200e+001 -1.3308e+001 41182 96684,96900,96736
 6.2000e+000 96998 -1.4426e+001 -6.6450e+001 -7.8744e+000 41182 96554,96900,96972
 6.2000e+000 97021 -1.4289e+001 -6.6955e+001 -6.1148e+000 41182 96554,96972,96580
 6.2000e+000 97576 -5.4498e+001 -1.4092e+002 -1.9096e+001 40678 97230,97412,97282
 6.2000e+000 97553 -2.5194e+000 -1.1602e+002  7.1319e+000 40678 97204,97412,97230
 6.2000e+000 97530 -1.3453e+001 -1.0660e+002 -1.8740e+001 40678 97282,97360,97308
 6.2000e+000 97507 -2.3181e+001 -1.0854e+002 -6.1759e+000 40678 97282,97412,97360
 6.2000e+000 97484 -2.8740e+000 -6.3248e+001 -1.5750e+001 40678 97308,97360,97334
 6.2000e+000 97461 -2.8869e+001 -1.3067e+002 -3.7935e+000 40678 97360,97412,97386
 6.2000e+000 97438 -3.1872e+001 -9.1249e+001 -1.3932e+001 40678 97230,97282,97256
 6.2000e+000 97976 -4.8412e+001 -7.8829e+001 -1.2925e+000 40244 97702,97832,97754
 6.2000e+000 97953 -3.9809e+001 -7.7354e+001 -3.2842e+000 40244 97702,97858,97832
 6.2000e+000 97930 -5.2225e+001 -9.3124e+001 -1.8557e+001 40244 97702,97754,97728
 6.2000e+000 97907 -3.8075e+001 -8.2306e+001  9.3463e+000 40244 97780,97832,97806
 6.2000e+000 97884 -4.1524e+001 -7.4833e+001  6.8431e-001 40244 97754,97832,97780
 6.2000e+000 98482 -2.0654e+001 -6.7101e+001  1.2009e+001 39690 98505,98185,98159
 6.2000e+000 98459 -2.2893e+001 -6.3972e+001  1.0828e+001 39690 98505,98159,98289
 6.2000e+000 98436 -4.7268e+001 -1.0016e+002  2.9271e+001 39690 98159,98315,98289
 6.2000e+000 98413 -1.3850e+001 -5.8178e+001  8.2470e+000 39690 98211,98289,98263
 6.2000e+000 98390 -7.3738e+000 -3.5719e+001  4.8803e+000 39690 98211,98263,98237
 6.2000e+000 98367 -1.0709e+001 -5.4984e+001  8.2120e+000 39690 98159,98341,98315
 6.2000e+000 98531 -1.9112e+001 -6.5167e+001  1.0568e+001 39690 98211,98185,98505
 6.2000e+000 98554 -2.1390e+001 -6.1208e+001  9.6903e+000 39690 98211,98505,98289
 6.2000e+000 99109 -2.5104e+001 -6.4392e+001 -5.2538e+000 39072 99132,98867,98789
 6.2000e+000 99086 -2.5696e+001 -6.6325e+001 -6.6098e+000 39072 99132,98789,98763
 6.2000e+000 99063 -3.7744e+001 -1.0772e+002  1.0254e+001 39072 98867,98945,98919
 6.2000e+000 99040 -2.1974e+001 -7.0547e+001 -6.3099e-001 39072 98789,98867,98841
 6.2000e+000 99017 -4.9248e+001 -7.9964e+001  2.3432e+000 39072 98867,98919,98893
 6.2000e+000 98994 -3.3241e+001 -6.1459e+001  1.3122e+001 39072 98789,98841,98815
 6.2000e+000 98971 -3.6181e+001 -7.4284e+001 -6.1267e+000 39072 98737,98945,98763
 6.2000e+000 99158 -2.4134e+001 -6.6856e+001 -5.8207e+000 39072 98945,98867,99132
 6.2000e+000 99181 -2.4556e+001 -6.9462e+001 -6.4433e+000 39072 98945,99132,98763
 6.2000e+000 99510 -2.1979e+001 -5.8105e+001  4.1508e+000 38668 99311,99389,99363
 6.2000e+000 99487 -1.8661e+001 -6.0745e+001 -1.7512e+000 38668 99285,99389,99311
 6.2000e+000 99464 -4.1135e+001 -8.3909e+001  7.8164e+000 38668 99285,99415,99389
 6.2000e+000 99441 -1.8085e+001 -6.1933e+001  6.3477e+000 38668 99311,99363,99337
 6.2000e+000 99758 -2.3573e+001 -9.3883e+001  1.6617e+001 38164 99781,99611,99585
 6.2000e+000 99735 -8.8605e+000 -9.6518e+001  1.8403e+001 38164 99781,99585,99533
 6.2000e+000 99712 -3.6506e+001 -8.9289e+001  1.2164e+001 38164 99611,99663,99637
 6.2000e+000 99689  6.3739e+000 -9.1462e+001 -5.1950e+000 38164 99533,99585,99559
 6.2000e+000 99807 -3.2069e+001 -9.3383e+001  2.0707e+001 38164 99663,99611,99781
 6.2000e+000 99830 -2.0932e+001 -9.7791e+001  2.0177e+001 38164 99663,99781,99533
 6.2000e+000 100232 -2.3480e+001 -6.6950e+001  5.8198e-001 37702 99984,100114,100088
 6.2000e+000 100209 -1.8356e+001 -6.9481e+001  6.1809e+000 37702 99958,100114,99984
 6.2000e+000 100186 -3.5289e+001 -8.4492e+001 -5.7145e+000 37702 100010,100088,100036
 6.2000e+000 100163 -2.2342e+001 -6.6541e+001  1.8167e-002 37702 99984,100088,100010
 6.2000e+000 100140 -1.9097e+001 -6.1585e+001 -1.8940e+001 37702 100036,100088,100062
 6.2000e+000 100640 -5.6464e+001 -8.1006e+001  1.1153e+001 37262 100493,100545,100519
 6.2000e+000 100617 -5.0013e+001 -9.3310e+001  5.1655e+000 37262 100441,100545,100493
 6.2000e+000 100594 -1.8438e+001 -6.9867e+001 -1.2220e+001 37262 100415,100545,100441
 6.2000e+000 100571 -5.6650e+001 -1.0059e+002 -3.9977e+000 37262 100441,100493,100467
 6.2000e+000 101146 -4.2878e+001 -7.0884e+001 -1.6851e+000 36872 100823,100979,100849
 6.2000e+000 101123 -4.1162e+001 -6.4520e+001 -7.3614e+000 36872 100823,101005,100979
 6.2000e+000 101100 -4.2319e+001 -1.0203e+002  1.3264e+001 36872 101169,100901,100849
 6.2000e+000 101077 -3.2850e+001 -8.2111e+001  6.8443e+000 36872 101169,100849,100979
 6.2000e+000 101054 -2.4635e+001 -8.6598e+001 -5.9458e+000 36872 100927,100979,100953
 6.2000e+000 101031 -2.3256e+001 -1.1258e+002  1.8747e+001 36872 100849,100901,100875
 6.2000e+000 101195 -2.9447e+001 -1.0773e+002  8.3760e-001 36872 100927,100901,101169
 6.2000e+000 101218 -2.3565e+001 -9.7115e+001 -4.4188e+000 36872 100927,101169,100979
 6.2000e+000 101773 -4.4585e+001 -7.4533e+001  1.5562e+001 36418 101479,101609,101583
 6.2000e+000 101750 -4.8267e+001 -7.6977e+001  1.2727e+001 36418 101453,101609,101479
 6.2000e+000 101727 -3.1496e+001 -7.9610e+001  1.9356e-002 36418 101796,101531,101479
 6.2000e+000 101704 -4.5040e+001 -8.9150e+001  7.1780e+000 36418 101796,101479,101583
 6.2000e+000 101681 -2.6613e+001 -6.7654e+001 -1.7978e+000 36418 101479,101531,101505
 6.2000e+000 101658 -1.2089e+000 -6.6511e+001  3.0817e+000 36418 101401,101609,101453
 6.2000e+000 101635 -1.2295e+001 -6.0040e+001  4.5171e+000 36418 101401,101453,101427
 6.2000e+000 101822 -3.4555e+001 -7.2456e+001 -1.2938e+001 36418 101557,101531,101796
 6.2000e+000 101845 -4.9993e+001 -7.5531e+001 -6.3623e+000 36418 101557,101796,101583
 6.2000e+000 102174 -2.6037e+000 -2.7632e+001 -9.7184e+000 35914 101949,102053,101975
 6.2000e+000 102151 -1.3827e+001 -3.1057e+001 -7.1695e+000 35914 101949,102079,102053
 6.2000e+000 102128 -1.7216e+001 -3.4442e+001 -5.6560e+000 35914 101975,102053,102027
 6.2000e+000 102105 -1.2444e+001 -2.7113e+001 -7.7249e+000 35914 101975,102027,102001
 6.2000e+000 102631 -1.6778e+001 -8.4738e+001  1.5248e+000 35574 102383,102513,102487
 6.2000e+000 102608 -1.1008e+001 -8.8036e+001  1.2780e+000 35574 102357,102513,102383
 6.2000e+000 102585 -2.8713e+001 -8.7545e+001  3.3672e+000 35574 102409,102487,102435
 6.2000e+000 102562 -2.7948e+001 -8.9606e+001  2.2350e+000 35574 102383,102487,102409
 6.2000e+000 102539 -2.9408e+001 -8.9963e+001  3.6321e+000 35574 102435,102487,102461
 6.2000e+000 103009 -4.6379e+001 -8.4037e+001 -6.1024e+000 35170 102761,102865,102787
 6.2000e+000 102986 -2.8178e+001 -7.4049e+001  7.4658e+000 35170 102761,102891,102865
 6.2000e+000 102963 -4.1126e+001 -8.2267e+001 -2.1875e+000 35170 102787,102865,102813
 6.2000e+000 102940 -2.2788e+001 -7.2194e+001  8.5823e+000 35170 102735,102891,102761
 6.2000e+000 102917 -4.2699e+001 -8.7655e+001 -7.2490e+000 35170 102813,102865,102839
 6.2000e+000 103257 -8.0075e+000 -5.9916e+001 -9.3897e+000 34659 103280,103058,103032
 6.2000e+000 103234 -1.1827e+001 -6.3226e+001 -5.6398e+000 34659 103280,103032,103162
 6.2000e+000 103211 -2.0739e+001 -6.3852e+001 -5.4197e+000 34659 103084,103162,103110
 6.2000e+000 103188 -2.7289e+001 -7.8888e+001 -4.4025e+000 34659 103110,103162,103136
 6.2000e+000 103306 -1.4544e+001 -5.5895e+001 -7.9652e+000 34659 103084,103058,103280
 6.2000e+000 103329 -1.7081e+001 -5.9458e+001 -3.7658e+000 34659 103084,103280,103162
 6.2000e+000 103837 -6.6852e+000 -9.3371e+001  3.4326e+000 34247 103860,103566,103540
 6.2000e+000 103814 -1.3309e+001 -9.4409e+001  1.4681e-001 34247 103932,103860,103540
 6.2000e+000 103791 -1.0103e+001 -1.0598e+002 -1.1517e+001 34247 103932,103540,103670
 6.2000e+000 103768 -1.0134e+001 -8.6617e+001  2.9349e+000 34247 103566,103618,103592
 6.2000e+000 103745 -3.7359e+001 -8.8327e+001 -1.4085e+001 34247 103540,103696,103670
 6.2000e+000 103722 -5.0296e+001 -9.8928e+001  1.4649e+001 34247 103514,103696,103540
 6.2000e+000 103886 -2.0361e+001 -9.3591e+001 -1.3526e+000 34247 103618,103566,103860
 6.2000e+000 103909 -2.2235e+001 -1.0045e+002  2.4032e+000 34247 103618,103860,103644
 6.2000e+000 103958 -2.3404e+001 -1.2238e+002 -2.5804e+000 34247 103644,103860,103932
 6.2000e+000 103981 -2.0293e+001 -1.3310e+002 -1.4807e+001 34247 103644,103932,103670
 6.2000e+000 104300 -4.7879e+001 -1.0029e+002 -3.7930e+000 33843 104052,104182,104156
 6.2000e+000 104277 -6.1245e+001 -9.3741e+001 -1.0247e+000 33843 104026,104182,104052
 6.2000e+000 104254 -4.6471e+001 -1.1263e+002  2.9759e+000 33843 104078,104156,104130
 6.2000e+000 104231 -5.7613e+001 -1.0875e+002 -2.0143e-002 33843 104052,104156,104078
 6.2000e+000 104208 -6.8622e+001 -1.1788e+002  3.2418e+000 33843 104078,104130,104104
 6.2000e+000 104499 -3.1142e+001 -9.9476e+001 -7.7263e+000 33282 104594,104522,104375
 6.2000e+000 104476 -2.7933e+001 -9.8982e+001  3.4393e+000 33282 104522,104323,104427
 6.2000e+000 104453 -1.8763e+001 -1.0553e+002 -7.2885e+000 33282 104594,104375,104349
 6.2000e+000 104548 -3.3132e+001 -8.8836e+001 -3.5822e+000 33282 104401,104375,104522
 6.2000e+000 104571 -2.2892e+001 -8.7112e+001  3.0073e+000 33282 104401,104522,104427
 6.2000e+000 104620 -1.5498e+001 -8.8510e+001 -2.2286e+000 33282 104323,104522,104594
 6.2000e+000 104643 -7.5637e+000 -9.8937e+001 -3.5349e+000 33282 104323,104594,104349
 6.2000e+000 104942 -4.1449e+001 -1.0717e+002  1.3548e+001 32728 104694,104772,104720
 6.2000e+000 104919 -3.2772e+001 -9.8097e+001  5.0260e+000 32728 104694,104824,104772
 6.2000e+000 104896 -5.5307e+001 -9.4363e+001  1.5604e+001 32728 104720,104772,104746
 6.2000e+000 104873 -2.6423e+001 -1.1322e+002  6.3869e+000 32728 104772,104824,104798
 6.2000e+000 104850 -2.7892e+001 -9.6681e+001  5.2952e+000 32728 104668,104824,104694
 6.2000e+000 105373 -3.0743e+001 -1.0111e+002 -4.2130e+000 32274 105396,105102,105076
 6.2000e+000 105350 -3.4652e+001 -1.1039e+002 -1.2463e+000 32274 105396,105076,105206
 6.2000e+000 105327 -4.6577e+001 -1.1625e+002  6.2440e+000 32274 105154,105206,105180
 6.2000e+000 105304 -1.5519e+001 -1.0570e+002 -8.1152e+000 32274 105076,105232,105206
 6.2000e+000 105281 -3.8986e+001 -9.2204e+001 -1.6062e+001 32274 105102,105154,105128
 6.2000e+000 105258 -5.5080e+001 -8.4713e+001 -1.5868e+001 32274 105050,105232,105076
 6.2000e+000 105422 -3.6952e+001 -9.0949e+001 -4.0241e+000 32274 105154,105102,105396
 6.2000e+000 105445 -4.0401e+001 -1.0027e+002 -1.6813e+000 32274 105154,105396,105206
 6.2000e+000 105644 -4.1616e+001 -1.1045e+002 -1.7707e+000 31620 105468,105546,105520
 6.2000e+000 105621 -3.3828e+001 -1.1712e+002 -5.6114e+000 31620 105468,105572,105546
 6.2000e+000 105598 -4.1774e+001 -1.1927e+002  5.3867e+000 31620 105468,105520,105494
 6.2000e+000 105794 -3.1672e+000 -8.8079e+001 -2.7998e+000 31158 105889,105817,105693
 6.2000e+000 105771 -9.9553e+000 -7.9106e+001 -6.1841e+000 31158 105817,105667,105745
 6.2000e+000 105843 -6.5816e+000 -1.0917e+002 -1.1185e+000 31158 105719,105693,105817
 6.2000e+000 105866 -4.9231e-001 -9.3229e+001 -5.1087e+000 31158 105719,105817,105745
 6.2000e+000 105915 -1.8328e+001 -9.4577e+001 -2.9690e+000 31158 105667,105817,105889
 6.2000e+000 106270 -3.8795e+001 -9.1298e+001 -1.3400e+000 30818 106293,106071,106045
 6.2000e+000 106247 -4.6021e+001 -1.0772e+002 -6.4497e+000 30818 106293,106045,106175
 6.2000e+000 106224 -3.2815e+001 -8.5918e+001  5.1156e+000 30818 106123,106175,106149
 6.2000e+000 106201 -4.0307e+001 -9.4187e+001  1.0782e+001 30818 106071,106123,106097
 6.2000e+000 106319 -4.0084e+001 -8.4882e+001  4.7854e+000 30818 106123,106071,106293
 6.2000e+000 106342 -4.1375e+001 -9.3579e+001  4.6895e-001 30818 106123,106293,106175
 6.2000e+000 106492 -3.8569e+001 -8.4277e+001  1.6842e+001 30414 106645,106391,106365
 6.2000e+000 106469 -8.9474e+000 -8.2840e+001  2.5763e+001 30414 106515,106365,106443
 6.2000e+000 106541 -2.2282e+001 -8.8332e+001  1.9498e+001 30414 106645,106365,106515
 6.2000e+000 106671 -1.5834e+001 -1.0262e+002  3.4906e+001 30414 106417,106391,106645
 6.2000e+000 106694  2.1609e+001 -9.3676e+001  2.9924e+001 30414 106417,106645,106515
 6.2000e+000 106942 -2.0804e+001 -1.3145e+002 -8.9017e-001 29910 106965,106795,106769
 6.2000e+000 106919 -1.6714e+001 -1.1922e+002  2.9159e+000 29910 106965,106769,106717
 6.2000e+000 106896 -2.0636e+001 -1.0126e+002 -1.1236e+001 29910 106795,106847,106821
 6.2000e+000 106873 -9.1212e+000 -1.0399e+002  6.5192e+000 29910 106717,106769,106743
 6.2000e+000 106991 -2.8979e+001 -1.1760e+002  1.2708e+000 29910 106847,106795,106965
 6.2000e+000 107014 -2.2266e+001 -1.0140e+002  5.1159e+000 29910 106847,106965,106717
 6.2000e+000 107213 -2.4927e+001 -9.8139e+001  6.9606e+000 29413 107236,107063,107037
 6.2000e+000 107190 -2.4351e+001 -1.1663e+002  1.3858e+001 29413 107236,107037,107141
 6.2000e+000 107167 -3.1792e+001 -6.8015e+001  1.6373e+001 29413 107063,107115,107089
 6.2000e+000 107262 -2.4282e+001 -8.5546e+001  3.9602e+000 29413 107115,107063,107236
 6.2000e+000 107285 -2.1045e+001 -9.9491e+001  1.1400e+001 29413 107115,107236,107141
 6.2000e+000 107486 -1.1283e+001 -9.3993e+001  1.3460e+001 29009 107336,107388,107362
 6.2000e+000 107463 -5.4257e+000 -9.0633e+001  3.5447e+000 29009 107310,107388,107336
 6.2000e+000 107440 -7.9248e+000 -8.6537e+001  3.9191e+000 29009 107310,107414,107388
 6.2000e+000 107736 -3.9705e+001 -1.0824e+002 -2.9294e+000 28491 107537,107615,107563
 6.2000e+000 107713 -3.4814e+001 -1.0619e+002 -3.0435e+000 28491 107537,107641,107615
 6.2000e+000 107690 -2.3269e+001 -1.0025e+002  2.8846e+000 28491 107563,107615,107589
 6.2000e+000 107667 -3.4551e+001 -1.0337e+002 -2.5295e+000 28491 107511,107641,107537
 6.2000e+000 108118 -2.3429e+001 -1.0322e+002  3.6686e+000 27980 108141,107922,107844
 6.2000e+000 108095 -1.8584e+001 -1.1001e+002  3.1942e+000 27980 108141,107844,108000
 6.2000e+000 108072 -2.4230e+001 -1.0674e+002 -5.7506e+000 27980 107844,107922,107870
 6.2000e+000 108049 -2.6128e+001 -9.3234e+001 -3.1013e+000 27980 107870,107922,107896
 6.2000e+000 108026 -3.7489e+001 -9.7671e+001  1.2288e+001 27980 107922,107974,107948
 6.2000e+000 108167 -1.9784e+001 -1.0417e+002  5.4051e+000 27980 107974,107922,108141
 6.2000e+000 108190 -6.7580e+000 -1.0358e+002  6.9573e+000 27980 107974,108141,108000
 6.2000e+000 108745 -8.6486e+000 -6.3603e+001 -2.2556e+000 27376 108840,108768,108477
 6.2000e+000 108722 -1.7465e+001 -7.9079e+001 -1.6914e+001 27376 108768,108373,108581
 6.2000e+000 108699 -1.6523e+001 -5.5427e+001  1.1837e+001 27376 108840,108477,108451
 6.2000e+000 108676 -4.6306e+001 -6.7099e+001 -3.6756e+000 27376 108373,108451,108399
 6.2000e+000 108653 -1.6982e+001 -8.0832e+001  1.2560e+001 27376 108503,108581,108529
 6.2000e+000 108630 -1.9373e+001 -7.6531e+001  1.2703e+001 27376 108529,108581,108555
 6.2000e+000 108607 -5.2866e+001 -7.3279e+001  4.9343e+000 27376 108399,108451,108425
 6.2000e+000 108794 -1.5748e+001 -8.6105e+001 -2.5959e-001 27376 108503,108477,108768
 6.2000e+000 108817  1.3508e-001 -7.8957e+001 -3.2114e+000 27376 108503,108768,108581
 6.2000e+000 108866 -3.7358e+001 -7.9179e+001 -8.2286e+000 27376 108373,108768,108840
 6.2000e+000 108889 -3.6017e+001 -6.7708e+001  6.3595e+000 27376 108373,108840,108451
 6.2000e+000 109186 -3.9289e+001 -1.0751e+002  1.2390e+001 26722 109209,108938,108912
 6.2000e+000 109163 -3.6120e+001 -9.9528e+001  1.0568e+001 26722 109281,109209,108912
 6.2000e+000 109140 -3.5215e+001 -9.6855e+001  1.0236e+001 26722 109281,108912,109042
 6.2000e+000 109117 -3.0482e+001 -1.1242e+002  5.3969e+000 26722 108938,108990,108964
 6.2000e+000 109094 -5.0705e+001 -8.8588e+001  7.1136e+000 26722 108912,109068,109042
 6.2000e+000 109235 -3.1672e+001 -1.0270e+002  1.0044e+001 26722 108990,108938,109209
 6.2000e+000 109258 -3.5268e+001 -1.0836e+002  8.4838e+000 26722 108990,109209,109016
 6.2000e+000 109307 -3.2917e+001 -1.0353e+002  6.0053e+000 26722 109016,109209,109281
 6.2000e+000 109330 -3.1030e+001 -9.9173e+001  5.1746e+000 26722 109016,109281,109042
 6.2000e+000 109732 -3.8058e+001 -8.6671e+001 -3.3595e+000 26310 109458,109588,109484
 6.2000e+000 109709 -3.5979e+001 -9.4620e+001 -9.6362e+000 26310 109458,109614,109588
 6.2000e+000 109686 -6.1586e+001 -1.0303e+002  1.4314e+001 26310 109510,109562,109536
 6.2000e+000 109663 -6.5029e+001 -9.9207e+001  6.1023e+000 26310 109484,109562,109510
 6.2000e+000 109640 -4.3642e+001 -8.9525e+001 -2.2315e+000 26310 109484,109588,109562
 6.2000e+000 110159 -2.3608e+001 -8.9683e+001 -2.0445e+000 25642 110182,109940,109914
 6.2000e+000 110136 -1.9702e+001 -1.0147e+002  1.4852e+001 25642 110182,109914,109888
 6.2000e+000 110113 -3.1976e+001 -1.0893e+002 -1.3950e+001 25642 109966,110018,109992
 6.2000e+000 110090 -3.5319e+001 -1.0588e+002  8.2950e+000 25642 110254,109966,109940
 6.2000e+000 110067 -4.5493e+001 -9.7932e+001  7.4373e+000 25642 109862,110018,109888
 6.2000e+000 110044 -4.3004e+001 -8.1187e+001  1.5726e+001 25642 109836,110018,109862
 6.2000e+000 110208 -3.3726e+001 -9.8125e+001  6.3006e+000 25642 110254,109940,110182
 6.2000e+000 110231 -3.7140e+001 -1.0401e+002  1.5429e+001 25642 110018,110182,109888
 6.2000e+000 110280 -2.9800e+001 -1.1591e+002  7.1015e+000 25642 110018,109966,110254
 6.2000e+000 110303 -2.9981e+001 -1.1025e+002  5.4932e+000 25642 110018,110254,110182
 6.2000e+000 110632 -4.6598e+001 -9.0201e+001 -5.3811e+000 25188 110407,110485,110433
 6.2000e+000 110609 -5.6736e+001 -9.5405e+001 -1.9847e+000 25188 110407,110537,110485
 6.2000e+000 110586 -5.0685e+001 -9.2968e+001 -1.9195e+001 25188 110433,110485,110459
 6.2000e+000 110563 -5.3725e+001 -1.0463e+002  1.3243e+001 25188 110485,110537,110511
 6.2000e+000 110831 -7.1763e+000 -8.7547e+001  3.5378e+000 24726 110854,110707,110655
 6.2000e+000 110808 -3.0663e+000 -9.4158e+001  1.0164e+001 24726 110854,110655,110759
 6.2000e+000 110785 -1.0344e+001 -9.0181e+001  5.4428e+000 24726 110655,110707,110681
 6.2000e+000 110880 -3.9078e+000 -8.1127e+001  4.6662e+000 24726 110733,110707,110854
 6.2000e+000 110903  1.7459e+000 -8.4551e+001  1.1765e+001 24726 110733,110854,110759
 6.2000e+000 111234 -2.6302e+000 -6.2930e+001 -1.5489e+000 24222 111257,111087,111035
 6.2000e+000 111211  7.7956e+000 -5.8263e+001  7.1028e+000 24222 111257,111035,111009
 6.2000e+000 111188 -1.1558e+001 -2.7192e+001 -1.6489e+001 24222 111035,111087,111061
 6.2000e+000 111165 -1.1065e+001 -5.4284e+001  2.0570e+000 24222 111087,111139,111113
 6.2000e+000 111283 -9.1677e+000 -5.2069e+001  3.2447e+000 24222 111139,111087,111257
 6.2000e+000 111306 -4.6570e+000 -4.4457e+001  8.8103e+000 24222 111139,111257,111009
 6.2000e+000 111625 -7.9259e+000 -8.4551e+001 -3.9198e+000 23732 111648,111481,111455
 6.2000e+000 111602 -7.8010e+000 -8.4194e+001 -3.9552e+000 23732 111648,111455,111377
 6.2000e+000 111579  1.8934e+001 -3.6244e+001  9.7544e+000 23732 111377,111429,111403
 6.2000e+000 111556  1.0902e+000 -8.2522e+001 -2.9710e+000 23732 111377,111455,111429
 6.2000e+000 111533 -2.4709e+000 -7.6701e+001 -1.8916e+000 23732 111351,111507,111377
 6.2000e+000 111674 -7.8840e+000 -8.5154e+001 -4.3177e+000 23732 111507,111481,111648
 6.2000e+000 111697 -7.5622e+000 -8.4415e+001 -4.3277e+000 23732 111507,111648,111377
 6.2000e+000 112156 -2.4193e+001 -1.0493e+002  8.0764e+000 23278 112179,111908,111882
 6.2000e+000 112133 -2.2642e+001 -9.7073e+001  4.3500e+000 23278 112179,111882,112012
 6.2000e+000 112110 -6.1834e+000 -1.1395e+002  6.1944e-001 23278 111908,111960,111934
 6.2000e+000 112087 -9.4197e+000 -8.5565e+001 -1.0139e+000 23278 111882,112038,112012
 6.2000e+000 112064 -2.0274e+001 -8.7338e+001 -1.2512e+000 23278 111960,112012,111986
 6.2000e+000 112205 -2.2926e+001 -1.0119e+002  1.6434e+000 23278 111960,111908,112179
 6.2000e+000 112228 -1.9019e+001 -9.2275e+001 -2.5994e+000 23278 111960,112179,112012
 6.2000e+000 112685 -6.1772e+001 -1.4298e+002 -1.2968e+001 22938 112489,112567,112541
 6.2000e+000 112662 -5.2029e+001 -1.2102e+002 -1.1260e+001 22938 112437,112567,112489
 6.2000e+000 112639 -3.9255e+001 -1.0948e+002 -2.2071e+000 22938 112489,112541,112515
 6.2000e+000 112616 -5.9262e+001 -1.1353e+002 -9.1076e+000 22938 112411,112567,112437
 6.2000e+000 112593 -4.6840e+001 -1.5570e+002 -1.4951e+000 22938 112437,112489,112463
 6.2000e+000 113191 -2.9578e+000 -1.0595e+002 -1.3815e+001 22534 113214,112998,112946
 6.2000e+000 113168 -1.8844e+001 -9.2662e+001 -7.1129e+000 22534 113286,113214,112946
 6.2000e+000 113145 -1.3985e+001 -9.2892e+001 -5.9611e+000 22534 113286,112946,112920
 6.2000e+000 113122 -4.2802e+001 -8.4498e+001 -2.0115e+001 22534 113358,113024,112998
 6.2000e+000 113099 -2.6354e+001 -8.9257e+001 -3.9376e+000 22534 112868,113050,112894
 6.2000e+000 113076 -2.8227e+001 -1.4851e+002 -2.5517e+001 22534 112946,112998,112972
 6.2000e+000 113240 -3.1175e+001 -1.0853e+002 -2.1233e+001 22534 113358,112998,113214
 6.2000e+000 113263 -2.5362e+001 -9.7262e+001 -4.8368e+000 22534 113050,113214,112894
 6.2000e+000 113312 -1.2541e+001 -9.1672e+001 -5.6819e+000 22534 112894,113214,113286
 6.2000e+000 113335 -7.4394e+000 -9.2199e+001 -5.4119e+000 22534 112894,113286,112920
 6.2000e+000 113384 -2.9811e+001 -6.2046e+001 -1.4748e+001 22534 113050,113024,113358
 6.2000e+000 113407 -1.3145e+001 -8.2133e+001 -1.3205e+001 22534 113050,113358,113214
 6.2000e+000 113785 -4.5469e+001 -1.2341e+002  3.6736e+000 21978 113808,113615,113511
 6.2000e+000 113762 -3.6637e+001 -1.2538e+002  9.6056e+000 21978 113808,113511,113667
 6.2000e+000 113739 -2.2983e+001 -1.0470e+002 -5.2765e+000 21978 113511,113615,113537
 6.2000e+000 113716  1.6357e+001 -9.4080e+001 -1.1025e+001 21978 113537,113615,113589
 6.2000e+000 113693 -1.1476e+001 -1.3704e+002  1.9992e+000 21978 113537,113589,113563
 6.2000e+000 113834 -4.6847e+001 -1.2295e+002  1.4972e+001 21978 113641,113615,113808
 6.2000e+000 113857 -2.3291e+001 -1.1393e+002  2.2044e+001 21978 113641,113808,113667
 6.2000e+000 114284 -3.2134e+001 -1.0169e+002  2.4664e+000 21517 114013,114117,114039
 6.2000e+000 114261 -3.7332e+001 -1.0137e+002  8.5243e+000 21517 113961,114117,114013
 6.2000e+000 114238 -3.5136e+001 -1.0195e+002  9.0612e+000 21517 113961,114013,113987
 6.2000e+000 114215 -5.4971e+001 -1.1819e+002 -8.4253e+000 21517 114039,114117,114091
 6.2000e+000 114192 -3.7529e+001 -8.4462e+001  9.9652e+000 21517 113961,114143,114117
 6.2000e+000 114169 -8.7487e+000 -1.0168e+002 -8.5728e+000 21517 114039,114091,114065
 6.2000e+000 114581 -1.1911e+001 -1.1515e+002  1.0056e+000 21027 114359,114463,114437
 6.2000e+000 114558 -2.5095e+000 -1.0355e+002  1.4575e+001 21027 114333,114463,114359
 6.2000e+000 114535 -2.7030e-001 -1.0508e+002 -3.3584e+000 21027 114359,114437,114385
 6.2000e+000 114512  5.6728e-001 -1.0262e+002  1.3562e+001 21027 114307,114463,114333
 6.2000e+000 114489  2.7847e+001 -9.7123e+001 -5.5228e+000 21027 114385,114437,114411
 6.2000e+000 114912 -4.4502e+001 -1.0370e+002  1.8569e+000 20623 114713,114791,114765
 6.2000e+000 114889 -3.1711e+001 -9.8455e+001 -7.3569e+000 20623 114687,114791,114713
 6.2000e+000 114866 -2.0001e+001 -1.0867e+002 -8.8678e+000 20623 114687,114817,114791
 6.2000e+000 114843 -6.8337e+001 -1.2903e+002  1.2051e+001 20623 114713,114765,114739
 6.2000e+000 115290 -1.1639e+001 -9.4192e+001  5.4648e+000 20375 115313,115146,115094
 6.2000e+000 115267 -2.0154e+001 -8.9731e+001  1.0075e+001 20375 115313,115094,115042
 6.2000e+000 115244 -2.6308e+001 -8.5699e+001  3.2518e+000 20375 115385,115016,115172
 6.2000e+000 115221 -8.8544e+000 -8.3552e+001  7.6332e+000 20375 115042,115094,115068
 6.2000e+000 115198 -1.9107e+001 -1.1227e+002  5.3534e+000 20375 115094,115146,115120
 6.2000e+000 115339 -2.9593e+001 -1.1265e+002 -3.8002e+000 20375 115172,115146,115313
 6.2000e+000 115362 -1.5288e+001 -8.8783e+001  3.7752e+000 20375 115385,115172,115313
 6.2000e+000 115411 -3.2257e+001 -8.9067e+001  4.6426e+000 20375 115042,115016,115385
 6.2000e+000 115434 -2.7041e+001 -9.6035e+001  6.9297e+000 20375 115042,115385,115313
 6.2000e+000 115891 -4.9378e+001 -9.6480e+001  1.2620e+001 19971 115617,115747,115643
 6.2000e+000 115868 -4.3254e+001 -8.2879e+001  1.4049e+001 19971 115617,115773,115747
 6.2000e+000 115845 -3.4122e+001 -1.5507e+002  3.1490e+000 19971 115643,115721,115695
 6.2000e+000 115822 -1.0706e+000 -7.4244e+001  5.4993e-001 19971 115643,115747,115721
 6.2000e+000 115799 -2.7752e+001 -1.9012e+002 -1.3986e+001 19971 115643,115695,115669
 6.2000e+000 115992 -6.9460e+001 -1.7932e+002 -3.1898e+001 19659 115914,115966,115940
 6.2000e+000 116142 -1.3123e+001 -4.2325e+001  1.2529e+000 18997 116041,116093,116067
 6.2000e+000 116119 -2.5103e+001 -7.2979e+001  4.3628e+000 18997 116015,116093,116041
 6.2000e+000 116343 -2.0192e+001 -1.1143e+002 -2.6966e+000 18707 116193,116245,116219
 6.2000e+000 116320 -4.5698e+001 -1.2245e+002 -4.7156e+000 18707 116193,116271,116245
 6.2000e+000 116297 -4.3288e+001 -1.1189e+002 -9.2302e+000 18707 116167,116271,116193
 6.2000e+000 116747 -1.7097e+001 -1.0098e+002 -1.8969e+000 18301 116525,116629,116551
 6.2000e+000 116724 -9.3389e+000 -8.5535e+001  2.4282e+000 18301 116473,116629,116525
 6.2000e+000 116701 -5.6136e+000 -8.2540e+001 -4.4942e+000 18301 116473,116525,116499
 6.2000e+000 116678 -1.4048e+001 -1.0533e+002 -1.3868e+000 18301 116551,116603,116577
 6.2000e+000 116655 -2.0612e+001 -1.0924e+002 -3.2097e+000 18301 116551,116629,116603
 6.2000e+000 117147 -4.5846e+001 -1.0846e+002  8.6772e-001 17747 116899,117029,116925
 6.2000e+000 117124 -2.3869e+001 -7.9605e+001  1.2042e+001 17747 116873,117029,116899
 6.2000e+000 117101 -4.5237e+001 -1.0739e+002  1.1215e+000 17747 116925,117029,116951
 6.2000e+000 117078 -3.6654e+001 -8.6634e+001  6.3010e-001 17747 116951,117029,117003
 6.2000e+000 117055 -5.4410e+001 -1.2457e+002 -9.2019e+000 17747 116951,117003,116977
 6.2000e+000 117368  9.9752e+000 -1.1064e+002  3.1614e+000 17293 117244,117296,117270
 6.2000e+000 117345 -6.3303e+000 -1.1569e+002 -1.4586e+000 17293 117192,117296,117244
 6.2000e+000 117322 -1.9133e+001 -1.0795e+002 -1.1638e+000 17293 117192,117244,117218
 6.2000e+000 117699 -1.1176e+001 -9.0123e+001 -9.3217e+000 16896 117526,117604,117552
 6.2000e+000 117676 -5.8442e+001 -1.3847e+002  9.8841e+000 16896 117500,117604,117526
 6.2000e+000 117653 -6.1462e+001 -1.0794e+002 -4.7571e+000 16896 117552,117604,117578
 6.2000e+000 117630 -5.7107e+001 -1.8241e+002  1.4435e+001 16896 117474,117604,117500
 6.2000e+000 117849 -1.2289e+002 -2.4073e+002 -9.0244e+000 16534 117722,117774,117748
 6.2000e+000 117826 -9.6036e+001 -2.9077e+002 -3.9813e+001 16534 117722,117800,117774
 6.2000e+000 118070  1.2623e+000 -1.1301e+002  1.4378e+001 16194 117946,117998,117972
 6.2000e+000 118047 -1.7001e+001 -1.2734e+002  5.7041e+000 16194 117894,117998,117946
 6.2000e+000 118024 -6.4868e+001 -1.3132e+002  3.3625e-001 16194 117894,117946,117920
 6.2000e+000 118173 -2.1171e+000 -1.0328e+002  0.0000e+000 15968 118095,118147,118121
 6.2000e+000 118276 -2.9851e+001 -1.1763e+002  5.3972e-001 15433 118299,118198,118250
 6.2000e+000 118325 -3.0207e+001 -1.1846e+002  5.4794e-001 15433 118224,118198,118299
 6.2000e+000 118450 -5.5327e+001 -1.2182e+002  1.1700e+001 421 118372,118424,118398
 6.3000e+000 69891 -2.1135e+001 -1.0958e+002  3.7933e+000 68988 69447,69681,69629
 6.3000e+000 69868  5.5387e+000 -9.9106e+001  3.3521e+000 68988 69421,69681,69447
 6.3000e+000 69845 -2.9188e+000 -5.4104e+001  7.8821e-001 68988 69447,69629,69577
 6.3000e+000 69822 -3.6275e+001 -1.1415e+002 -1.2941e+001 68988 69447,69577,69473
 6.3000e+000 69799 -6.1054e+000 -1.3477e+002  2.2961e+001 68988 69629,69681,69655
 6.3000e+000 69776 -4.0272e+001 -7.0177e+001  1.7780e+000 68988 69577,69629,69603
 6.3000e+000 69753 -2.9341e+001 -1.0324e+002 -1.6809e+001 68988 69473,69577,69551
 6.3000e+000 69730 -3.8689e+001 -2.0398e+002 -1.9437e+001 68988 69473,69551,69525
 6.3000e+000 69707 -6.2098e+001 -1.3430e+002  7.9470e-001 68988 69473,69525,69499
 6.3000e+000 69992 -7.7783e+001 -1.2752e+002 -1.8565e+001 68676 69914,69966,69940
 6.3000e+000 70392 -6.3373e+001 -1.1230e+002  1.0974e+001 68478 70118,70248,70144
 6.3000e+000 70369 -1.0552e+001 -1.2070e+002  2.5192e+001 68478 70118,70274,70248
 6.3000e+000 70346 -3.5887e+001 -8.1902e+001  8.5238e-002 68478 70144,70222,70196
 6.3000e+000 70323 -2.9486e+001 -6.5166e+001 -4.1597e+000 68478 70144,70248,70222
 6.3000e+000 70300 -3.5717e+001 -8.8283e+001 -1.1703e-001 68478 70144,70196,70170
 6.3000e+000 70841  1.4571e+001 -7.6165e+001 -2.0299e+001 68280 70570,70622,70596
 6.3000e+000 70818 -4.0986e+001 -8.5984e+001 -4.6726e+000 68280 70544,70622,70570
 6.3000e+000 70795 -3.1770e+001 -6.5134e+001 -2.9144e+000 68280 70544,70674,70622
 6.3000e+000 70772 -2.8588e+001 -5.8110e+001  1.1798e+000 68280 70622,70674,70648
 6.3000e+000 70749 -4.3538e+001 -9.5850e+001  6.7226e+000 68280 70518,70674,70544
 6.3000e+000 70726  2.2604e+001 -1.0202e+002  2.6041e+001 68280 70518,70700,70674
 6.3000e+000 70991 -4.7309e+000 -4.0950e+002  1.2930e+001 67968 70864,70916,70890
 6.3000e+000 70968 -1.1225e+002 -4.0567e+002  5.0687e+001 67968 70864,70942,70916
 6.3000e+000 71141 -1.8467e+002 -3.5202e+002 -1.6407e+001 67770 71040,71092,71066
 6.3000e+000 71118 -1.5973e+002 -4.2535e+002  1.9556e+001 67770 71014,71092,71040
 6.3000e+000 71651 -3.0239e+001 -8.1457e+001 -1.1558e+001 67366 71746,71674,71458
 6.3000e+000 71628 -2.0027e+001 -6.0389e+001 -1.5729e+001 67366 71674,71354,71510
 6.3000e+000 71605 -2.9977e+001 -9.1937e+001 -9.7921e+000 67366 71746,71458,71432
 6.3000e+000 71582 -4.6175e+001 -9.1848e+001  5.5181e+000 67366 71354,71432,71380
 6.3000e+000 71559 -4.4760e+001 -6.7376e+001 -6.2156e+000 67366 71380,71432,71406
 6.3000e+000 71536 -2.3846e+001 -2.5438e+001 -3.6017e+000 67366 71328,71510,71354
 6.3000e+000 71700 -3.1308e+001 -7.1876e+001 -5.7376e+000 67366 71484,71458,71674
 6.3000e+000 71723 -2.5744e+001 -6.9412e+001 -5.3039e+000 67366 71484,71674,71510
 6.3000e+000 71772 -3.0149e+001 -6.8970e+001 -1.0899e+001 67366 71354,71674,71746
 6.3000e+000 71795 -2.7851e+001 -7.7042e+001 -1.0775e+001 67366 71354,71746,71432
 6.3000e+000 71896 -6.5438e+001 -1.3425e+002  0.0000e+000 67146 71818,71870,71844
 6.3000e+000 71997 -6.1988e+001 -1.2333e+002  2.5078e+001 66948 71919,71971,71945
 6.3000e+000 72149 -1.6180e+001 -8.4564e+001 -1.0775e+001 66700 72172,72074,72048
 6.3000e+000 72126 -3.9829e+001 -9.7633e+001 -4.1979e+000 66700 72172,72048,72022
 6.3000e+000 72198 -5.7730e+001 -1.0468e+002  6.0285e+000 66700 72244,72172,72100
 6.3000e+000 72221 -4.8934e+001 -9.5095e+001 -4.8653e+000 66700 72100,72172,72022
 6.3000e+000 72270 -3.5765e+001 -5.6057e+001 -7.2669e+000 66700 72074,72172,72244
 6.3000e+000 72623 -4.2154e+001 -9.0541e+001  1.5537e+000 66502 72424,72502,72450
 6.3000e+000 72600 -3.7403e+001 -7.8152e+001  1.2582e+000 66502 72398,72502,72424
 6.3000e+000 72577 -2.9871e+001 -8.6770e+001 -1.1967e+000 66502 72398,72528,72502
 6.3000e+000 72554 -4.5624e+001 -8.2753e+001 -3.4827e-001 66502 72450,72502,72476
 6.3000e+000 72920 -6.2746e+001 -1.2170e+002  3.0779e+000 65941 72672,72776,72750
 6.3000e+000 72897 -5.8602e+001 -1.0404e+002  1.1777e+001 65941 72646,72776,72672
 6.3000e+000 72874 -5.5876e+001 -1.2076e+002  5.3875e+000 65941 72672,72750,72724
 6.3000e+000 72851 -5.8068e+001 -9.9770e+001  1.0637e+001 65941 72672,72724,72698
 6.3000e+000 72828 -4.4434e+001 -1.0140e+002  1.0030e+001 65941 72646,72802,72776
 6.3000e+000 73241 -2.6362e+001 -8.3335e+001  2.7032e+000 65743 73264,73071,73045
 6.3000e+000 73218 -4.1662e+001 -9.3140e+001  7.9287e+000 65743 73480,73264,73045
 6.3000e+000 73195 -3.3044e+001 -8.1209e+001 -6.0389e-001 65743 73336,72967,73097
 6.3000e+000 73172 -4.9519e+001 -7.5794e+001 -5.4819e+000 65743 73408,72993,72967
 6.3000e+000 73149 -3.2335e+001 -8.3135e+001 -1.4510e+000 65743 72967,73123,73097
 6.3000e+000 73290 -2.9738e+001 -8.4793e+001  9.2747e-001 65743 73097,73071,73264
 6.3000e+000 73313 -3.1147e+001 -7.9838e+001  1.8842e+000 65743 73336,73097,73264
 6.3000e+000 73362 -4.3559e+001 -8.3686e+001 -3.0995e+000 65743 73408,72967,73336
 6.3000e+000 73385 -2.6146e+001 -7.7889e+001  9.7243e-001 65743 73019,73336,73264
 6.3000e+000 73434 -3.9395e+001 -5.9253e+001  4.5517e+000 65743 73019,72993,73408
 6.3000e+000 73457 -2.6818e+001 -7.0799e+001  3.9661e+000 65743 73019,73408,73336
 6.3000e+000 73506 -2.2579e+001 -5.9737e+001  2.5263e-001 65743 73019,73264,73480
 6.3000e+000 73989 -9.6812e+000 -7.1785e+001  8.1517e+000 65453 73793,73845,73819
 6.3000e+000 73966 -4.1271e+001 -7.9754e+001  9.6794e+000 65453 73741,73845,73793
 6.3000e+000 73943 -1.7293e+001 -6.6507e+001  4.5187e+000 65453 73715,73845,73741
 6.3000e+000 73920 -3.4313e+001 -8.7683e+001  1.6047e+001 65453 73741,73793,73767
 6.3000e+000 73897 -2.4567e+000 -3.7776e+001 -7.4645e-001 65453 73715,73871,73845
 6.3000e+000 74357 -2.1018e+001 -7.1086e+001 -2.4852e+001 65141 74380,74138,74086
 6.3000e+000 74334 -3.9212e+001 -1.0382e+002 -1.7624e+001 65141 74380,74086,74060
 6.3000e+000 74311 -3.9309e+001 -1.0092e+002 -5.4090e+000 65141 74138,74190,74164
 6.3000e+000 74288 -3.7617e+001 -1.1337e+002 -5.5207e+000 65141 74060,74216,74190
 6.3000e+000 74265 -3.9851e+001 -1.2046e+002  1.4335e+000 65141 74034,74216,74060
 6.3000e+000 74242 -1.7189e+001 -3.9612e+001 -1.0274e+001 65141 74086,74138,74112
 6.3000e+000 74406 -3.0991e+001 -9.9509e+001 -9.1969e+000 65141 74190,74138,74380
 6.3000e+000 74429 -3.6910e+001 -1.1110e+002 -4.7599e+000 65141 74190,74380,74060
 6.3000e+000 74937 -4.7417e+001 -8.3286e+001 -1.9763e+001 64737 74614,74666,74640
 6.3000e+000 74914 -5.7010e+001 -1.0393e+002 -1.3997e+001 64737 74614,74796,74666
 6.3000e+000 74891 -3.9249e+001 -6.5754e+001 -6.1284e-001 64737 74960,74718,74666
 6.3000e+000 74868 -3.7688e+001 -7.3976e+001 -7.6892e+000 64737 74960,74666,74770
 6.3000e+000 74845 -4.0201e+001 -6.6591e+001 -8.8833e+000 64737 74666,74796,74770
 6.3000e+000 74822 -3.6199e+001 -7.1317e+001  3.0871e+000 64737 74666,74718,74692
 6.3000e+000 74986 -4.0092e+001 -7.4134e+001 -3.4950e+000 64737 74744,74718,74960
 6.3000e+000 75009 -4.2644e+001 -8.7086e+001 -1.1270e+001 64737 74744,74960,74770
 6.3000e+000 75306 -2.2872e+001 -7.4588e+001  1.3692e+001 64133 75329,75110,75084
 6.3000e+000 75283 -3.0275e+001 -9.1463e+001  4.1439e+000 64133 75401,75329,75084
 6.3000e+000 75260 -3.0160e+001 -9.3523e+001  4.4734e+000 64133 75401,75084,75058
 6.3000e+000 75237 -2.9234e+001 -1.1088e+002  1.5882e+001 64133 75473,75136,75110
 6.3000e+000 75214 -2.7812e+001 -8.6656e+001  1.0961e+000 64133 75032,75188,75162
 6.3000e+000 75355 -3.4418e+001 -1.0193e+002  1.2168e+001 64133 75473,75110,75329
 6.3000e+000 75378 -2.6190e+001 -8.8401e+001  1.2858e+000 64133 75162,75329,75032
 6.3000e+000 75427 -2.4604e+001 -8.4727e+001  1.4242e+000 64133 75032,75329,75401
 6.3000e+000 75450 -4.4039e+001 -1.0254e+002  1.0866e+001 64133 75545,75401,75058
 6.3000e+000 75499 -2.4113e+001 -9.9826e+001  5.9245e+000 64133 75162,75136,75473
 6.3000e+000 75522 -2.9103e+001 -8.5450e+001  4.7095e+000 64133 75162,75473,75329
 6.3000e+000 75571 -2.4859e+001 -6.0735e+001  3.2757e+000 64133 75032,75401,75545
 6.3000e+000 75851 -4.1458e+001 -8.2620e+001  2.5803e+000 63843 75874,75753,75727
 6.3000e+000 75828 -3.6280e+001 -7.8352e+001 -2.5949e+000 63843 75946,75874,75727
 6.3000e+000 75805 -3.9948e+001 -8.2258e+001 -8.6763e-001 63843 76018,75946,75727
 6.3000e+000 75900 -3.6395e+001 -8.0540e+001 -4.5597e+000 63843 75779,75753,75874
 6.3000e+000 75923 -3.5188e+001 -6.6598e+001 -9.3523e+000 63843 75779,75874,75675
 6.3000e+000 75972 -3.9441e+001 -7.6928e+001 -2.5208e+000 63843 75675,75874,75946
 6.3000e+000 75995 -3.7444e+001 -7.7194e+001 -3.8904e+000 63843 75675,75946,75701
 6.3000e+000 76044 -3.9035e+001 -7.7775e+001 -4.0294e+000 63843 75701,75946,76018
 6.3000e+000 76454  3.5831e+000 -1.0927e+001 -6.7220e+000 63439 76477,76255,76229
 6.3000e+000 76431 -8.1648e+000 -2.9483e+001  1.9436e+000 63439 76477,76229,76359
 6.3000e+000 76408 -9.3824e+000 -2.4357e+001  1.4595e+001 63439 76307,76359,76333
 6.3000e+000 76385 -6.5606e+000 -3.7518e+001 -2.4096e-001 63439 76255,76307,76281
 6.3000e+000 76503 -1.0279e+001 -2.6055e+001  4.0622e+000 63439 76307,76255,76477
 6.3000e+000 76526 -8.9214e+000 -3.2862e+001  1.0514e+001 63439 76307,76477,76359
 6.3000e+000 76926 -2.0004e+001 -4.9513e+001  3.3908e-001 63049 76704,76782,76756
 6.3000e+000 76903 -2.4728e+001 -5.0192e+001 -4.9256e+000 63049 76704,76808,76782
 6.3000e+000 76880 -1.7543e+001 -5.6021e+001  1.1795e+000 63049 76704,76756,76730
 6.3000e+000 76857 -1.4981e+001 -2.8981e+001  3.3105e+000 63049 76678,76808,76704
 6.3000e+000 76834 -5.1345e+000 -5.4894e+000 -5.8846e+000 63049 76652,76808,76678
 6.3000e+000 77076 -1.2045e+001 -1.0134e+002 -8.0027e-001 62737 76975,77027,77001
 6.3000e+000 77053 -9.6713e+000 -1.1145e+002 -6.2796e+000 62737 76949,77027,76975
 6.3000e+000 77324 -4.0906e+001 -9.3981e+001 -6.5138e-001 62277 77347,77177,77125
 6.3000e+000 77301 -4.1352e+001 -9.1604e+001 -4.6696e+000 62277 77347,77125,77229
 6.3000e+000 77278 -3.9532e+001 -9.7188e+001 -8.1993e+000 62277 77099,77229,77125
 6.3000e+000 77255 -4.4895e+001 -1.1132e+002  1.9882e+000 62277 77125,77177,77151
 6.3000e+000 77373 -4.3171e+001 -1.0129e+002  1.4985e+000 62277 77203,77177,77347
 6.3000e+000 77396 -3.9905e+001 -9.5082e+001 -3.0938e+000 62277 77203,77347,77229
 6.3000e+000 77857 -2.7221e+001 -1.2235e+002  1.3263e+000 61758 77635,77739,77661
 6.3000e+000 77834 -3.6071e+001 -1.2274e+002 -3.3433e+000 61758 77583,77739,77635
 6.3000e+000 77811 -3.9055e+001 -1.4980e+002 -1.4311e+001 61758 77583,77635,77609
 6.3000e+000 77788 -3.2308e+001 -1.2195e+002  8.5759e+000 61758 77661,77713,77687
 6.3000e+000 77765 -3.6244e+001 -1.3466e+002  7.1131e+000 61758 77661,77739,77713
 6.3000e+000 78491 -3.7038e+001 -6.2980e+001  2.8966e+000 61418 78171,78301,78249
 6.3000e+000 78468 -2.6547e+001 -5.0038e+001  8.2104e+000 61418 78145,78301,78171
 6.3000e+000 78445 -2.6356e+001 -5.6087e+001 -1.4090e+000 61418 78171,78249,78223
 6.3000e+000 78422 -2.5510e+001 -4.9373e+001  2.7029e+000 61418 78145,78327,78301
 6.3000e+000 78399 -3.9503e+001 -7.6264e+001 -3.5488e+000 61418 78249,78301,78275
 6.3000e+000 78376 -1.5464e+001 -6.3736e+001 -2.8425e+000 61418 78171,78223,78197
 6.3000e+000 78353 -3.0216e+001 -6.5913e+001 -1.7127e+000 61418 78119,78327,78145
 6.3000e+000 78690 -2.7167e+001 -6.7890e+001  1.9373e+000 61014 78713,78566,78540
 6.3000e+000 78667 -2.1693e+001 -6.9246e+001  2.6348e+000 61014 78713,78540,78618
 6.3000e+000 78644 -3.1151e+001 -7.8251e+001 -7.8102e+000 61014 78514,78618,78540
 6.3000e+000 78739 -1.6384e+001 -6.4439e+001  7.7216e+000 61014 78592,78566,78713
 6.3000e+000 78762 -2.5021e+001 -7.3236e+001  1.1963e+000 61014 78785,78713,78618
 6.3000e+000 78811 -8.2336e+000 -6.6294e+001  7.7995e-001 61014 78592,78713,78785
 6.3000e+000 79398 -1.3346e+001 -6.4032e+001 -5.0621e+000 60624 79101,79179,79153
 6.3000e+000 79375 -1.9043e+001 -7.0460e+001 -2.3080e+000 60624 79101,79231,79179
 6.3000e+000 79352 -1.3219e+001 -6.9804e+001 -4.6406e+000 60624 79075,79231,79101
 6.3000e+000 79329 -5.6000e+000 -8.2144e+001  7.4951e+000 60624 79075,79257,79231
 6.3000e+000 79306 -1.4499e+001 -5.4327e+001 -8.8990e+000 60624 79179,79231,79205
 6.3000e+000 79283 -9.2831e+000 -5.4715e+001 -3.2625e+000 60624 79101,79153,79127
 6.3000e+000 79776 -4.1839e+001 -9.8265e+001  5.9057e+000 60070 79528,79658,79606
 6.3000e+000 79753 -4.0169e+001 -8.5526e+001 -6.7195e-001 60070 79502,79658,79528
 6.3000e+000 79730 -5.2319e+001 -9.5000e+001  1.0320e+001 60070 79528,79606,79580
 6.3000e+000 79707 -2.4029e+001 -9.1125e+001  1.6026e+000 60070 79606,79658,79632
 6.3000e+000 79684 -3.4415e+000 -5.8008e+001 -1.5325e+001 60070 79528,79580,79554
 6.3000e+000 80105 -3.2091e+001 -7.8607e+001  8.4604e+000 59758 80128,79958,79906
 6.3000e+000 80082 -3.0701e+001 -7.4806e+001  6.6116e+000 59758 80128,79906,80010
 6.3000e+000 80059 -4.2975e+001 -8.3779e+001  2.4122e+001 59758 79906,79958,79932
 6.3000e+000 80036 -4.3528e+001 -8.2962e+001  3.1122e+000 59758 79880,80010,79906
 6.3000e+000 80154 -3.1333e+001 -8.1286e+001  9.5946e+000 59758 79984,79958,80128
 6.3000e+000 80177 -3.1058e+001 -7.8574e+001  7.9693e+000 59758 79984,80128,80010
 6.3000e+000 80376 -2.1183e+001 -6.2632e+001  9.5760e-001 59312 80226,80304,80252
 6.3000e+000 80353 -1.9055e+001 -6.4535e+001  1.5503e+000 59312 80200,80304,80226
 6.3000e+000 80330 -3.1556e+001 -5.7368e+001  1.6881e+001 59312 80252,80304,80278
 6.3000e+000 80805 -2.8593e+001 -6.4339e+001 -9.4525e+000 58908 80900,80828,80638
 6.3000e+000 80782 -2.4890e+001 -7.7479e+001 -1.4197e+001 58908 80828,80560,80508
 6.3000e+000 80759 -2.9669e+001 -6.0750e+001 -3.7347e+000 58908 80900,80638,80612
 6.3000e+000 80736 -1.1944e+001 -6.7966e+001  2.7266e+001 58908 80482,80664,80508
 6.3000e+000 80713 -2.0954e+001 -5.5973e+001 -2.1909e+000 58908 80560,80612,80586
 6.3000e+000 80690 -2.7432e+001 -1.9837e+002 -3.7110e+001 58908 80508,80560,80534
 6.3000e+000 80854 -1.4108e+001 -7.0235e+001  1.4322e+000 58908 80664,80638,80828
 6.3000e+000 80877 -2.3643e+001 -1.0207e+002  3.1886e+000 58908 80664,80828,80508
 6.3000e+000 80926 -2.5131e+001 -5.3835e+001 -9.9539e+000 58908 80560,80828,80900
 6.3000e+000 80949 -2.7551e+001 -5.3660e+001 -3.4155e+000 58908 80560,80900,80612
 6.3000e+000 81246 -1.3926e+001 -6.6825e+001 -6.5640e-001 58482 81076,81128,81102
 6.3000e+000 81223 -3.2832e+001 -1.1088e+002 -1.0182e+001 58482 80972,81128,81076
 6.3000e+000 81200 -2.0576e+001 -7.5793e+001 -1.2249e+001 58482 80972,81076,81050
 6.3000e+000 81177 -4.4759e+001 -1.1375e+002 -4.7487e+000 58482 80998,81050,81024
 6.3000e+000 81154 -2.5619e+001 -9.1000e+001 -1.2917e+001 58482 80972,81050,80998
 6.3000e+000 81754 -3.3194e+001 -6.5168e+001  2.9899e+000 57828 81457,81613,81483
 6.3000e+000 81731 -3.8696e+001 -7.7051e+001  1.3677e+000 57828 81431,81613,81457
 6.3000e+000 81708 -3.5984e+001 -7.1677e+001  3.6670e+000 57828 81483,81613,81509
 6.3000e+000 81685 -4.5021e+001 -8.1565e+001  7.5220e+000 57828 81509,81613,81587
 6.3000e+000 81662 -4.7837e+001 -1.1840e+002  1.5396e+001 57828 81509,81587,81535
 6.3000e+000 81639 -2.6038e+001 -1.0142e+002  7.0319e+000 57828 81535,81587,81561
 6.3000e+000 82002 -4.5588e+001 -1.1293e+002 -4.9281e-001 57374 82025,81855,81829
 6.3000e+000 81979 -4.9033e+001 -1.0388e+002  6.8767e+000 57374 82025,81829,81907
 6.3000e+000 81956 -5.2006e+001 -9.5597e+001  3.9674e+000 57374 81803,81907,81829
 6.3000e+000 81933 -2.6562e+001 -8.3762e+001  7.5057e+000 57374 81777,81907,81803
 6.3000e+000 82051 -4.5441e+001 -1.0219e+002 -1.0164e+000 57374 81881,81855,82025
 6.3000e+000 82074 -4.6631e+001 -9.3925e+001  8.9380e+000 57374 81881,82025,81907
 6.3000e+000 82356 -3.1146e+001 -7.0716e+001 -4.4761e+000 56913 82180,82232,82206
 6.3000e+000 82333 -2.7265e+001 -6.6141e+001  3.8800e+000 56913 82180,82284,82232
 6.3000e+000 82310 -7.7894e+000 -4.7871e+001  1.1653e+001 56913 82379,82232,82284
 6.3000e+000 82405  7.4017e+000 -4.6926e+001  6.5740e-001 56913 82258,82232,82379
 6.3000e+000 82764 -3.2286e+001 -4.5811e+001 -6.1263e+000 56523 82614,82666,82640
 6.3000e+000 82741 -2.9565e+001 -4.5040e+001 -7.4988e+000 56523 82614,82692,82666
 6.3000e+000 82718 -2.2139e+001 -4.6932e+001 -1.4745e+001 56523 82588,82692,82614
 6.3000e+000 83368 -3.4032e+000 -6.7282e+001 -2.8739e+000 55969 82973,83155,83129
 6.3000e+000 83345  2.2703e+000 -6.5480e+001 -4.4530e+000 55969 82973,83181,83155
 6.3000e+000 83322 -1.7359e+001 -6.0046e+001 -1.8589e+000 55969 82973,83129,82999
 6.3000e+000 83299 -3.0588e+001 -6.1774e+001  1.7804e+000 55969 83391,83025,82999
 6.3000e+000 83276 -2.5435e+001 -6.4044e+001 -4.7637e-002 55969 83391,82999,83129
 6.3000e+000 83253 -1.5167e+000 -5.2924e+001  1.3658e+001 55969 83077,83129,83103
 6.3000e+000 83230 -2.9888e+001 -4.9420e+001 -2.2634e+000 55969 83025,83077,83051
 6.3000e+000 83207 -3.9481e-001 -6.3595e+001  5.9953e+000 55969 82947,83181,82973
 6.3000e+000 83417 -2.5509e+001 -5.8949e+001  3.0555e+000 55969 83077,83025,83391
 6.3000e+000 83440 -2.3794e+001 -6.2772e+001  5.5524e-001 55969 83077,83391,83129
 6.3000e+000 83946 -5.8432e+001 -1.2189e+002  1.9648e+001 55771 83969,83779,83727
 6.3000e+000 83923 -4.7131e+001 -9.8473e+001  1.3287e+001 55771 83969,83727,83623
 6.3000e+000 83900 -5.2802e+001 -4.7615e+001  6.8444e+000 55771 83623,83727,83649
 6.3000e+000 83877 -4.3501e+001 -2.0162e+002  1.1362e+001 55771 83727,83779,83753
 6.3000e+000 83854 -6.5634e+001 -9.9930e+001  1.9782e+001 55771 83675,83727,83701
 6.3000e+000 83831 -8.0777e+001 -7.7403e+001  3.1990e+001 55771 83649,83727,83675
 6.3000e+000 83995 -5.6071e+001 -1.2691e+002 -9.3969e+000 55771 83805,83779,83969
 6.3000e+000 84018 -3.2461e+001 -8.0315e+001 -1.8267e+001 55771 83805,83969,83623
 6.3000e+000 84168 -2.4855e+001 -6.1782e+001 -8.4046e-001 55367 84191,84067,84041
 6.3000e+000 84145 -2.5110e+001 -6.5402e+001 -3.9291e-001 55367 84191,84041,84119
 6.3000e+000 84217 -2.6056e+001 -5.9234e+001 -8.5668e-001 55367 84093,84067,84191
 6.3000e+000 84240 -2.5694e+001 -6.1697e+001  5.8877e-001 55367 84093,84191,84119
 6.3000e+000 84571 -1.5942e+001 -8.4260e+001 -9.3740e+000 54913 84398,84450,84424
 6.3000e+000 84548 -1.4565e+001 -7.7637e+001 -5.3631e+000 54913 84372,84450,84398
 6.3000e+000 84525 -2.1520e+001 -8.6608e+001  3.3083e+000 54913 84346,84450,84372
 6.3000e+000 84502 -8.4570e+000 -5.6393e+001 -9.0035e+000 54913 84346,84476,84450
 6.3000e+000 85126 -4.7502e+001 -9.9643e+001 -6.3905e+000 54402 84858,84936,84910
 6.3000e+000 85103 -3.6374e+001 -7.4492e+001 -8.4649e+000 54402 84806,84936,84858
 6.3000e+000 85080 -4.3824e+001 -6.9986e+001 -7.2752e+000 54402 84780,84936,84806
 6.3000e+000 85057 -3.3609e+001 -8.4076e+001 -2.2663e+000 54402 84806,84858,84832
 6.3000e+000 85034 -4.2608e+001 -6.6981e+001  4.2141e+000 54402 84780,84962,84936
 6.3000e+000 85011 -5.3455e+001 -5.8188e+001 -3.3886e+000 54402 84858,84910,84884
 6.3000e+000 84988 -4.2239e+001 -6.7200e+001  4.6930e+000 54402 84754,84962,84780
 6.3000e+000 85396 -4.0340e+001 -4.8600e+001 -3.3206e+000 53998 85197,85249,85223
 6.3000e+000 85373 -3.0723e+001 -5.8288e+001 -1.7102e+000 53998 85197,85275,85249
 6.3000e+000 85350 -3.6058e+001 -6.6878e+001 -4.3860e+000 53998 85171,85275,85197
 6.3000e+000 85327 -1.8058e+001 -6.2368e+001 -5.3916e+000 53998 85171,85301,85275
 6.3000e+000 85749 -1.9493e+001 -6.2171e+001 -1.7967e+000 53636 85524,85628,85550
 6.3000e+000 85726 -2.9002e+001 -7.2965e+001  2.2317e+000 53636 85524,85654,85628
 6.3000e+000 85703 -1.0332e+001 -6.2823e+001 -6.5093e+000 53636 85550,85602,85576
 6.3000e+000 85680 -1.8104e+001 -6.1309e+001 -2.8941e+000 53636 85550,85628,85602
 6.3000e+000 86127 -6.7993e+000 -6.5085e+001  1.1873e+001 52982 86150,85957,85879
 6.3000e+000 86104 -2.4448e+001 -7.6625e+001  6.8632e+000 52982 86150,85879,85853
 6.3000e+000 86081 -6.0722e+000 -1.0008e+002  1.9332e+001 52982 85957,86009,85983
 6.3000e+000 86058 -2.9626e+001 -7.0056e+001  9.3854e+000 52982 85879,85957,85931
 6.3000e+000 86035 -1.8801e+001 -6.6338e+001 -2.7165e+000 52982 85879,85931,85905
 6.3000e+000 86176  4.1706e+000 -7.8341e+001  9.5652e+000 52982 86009,85957,86150
 6.3000e+000 86199 -6.2980e+000 -8.5509e+001  6.0345e+000 52982 86009,86150,85853
 6.3000e+000 86398 -2.0906e+001 -5.3859e+001  3.6911e+000 52542 86421,86248,86222
 6.3000e+000 86375 -3.1081e+001 -5.8614e+001 -9.8843e-001 52542 86421,86222,86300
 6.3000e+000 86352 -3.2618e+001 -6.3986e+001 -1.5354e+000 52542 86222,86326,86300
 6.3000e+000 86447 -8.6485e+000 -5.6014e+001  1.0663e+001 52542 86274,86248,86421
 6.3000e+000 86470 -1.9690e+001 -6.4361e+001  4.6014e+000 52542 86274,86421,86300
 6.3000e+000 86669 -2.3589e+001 -5.3639e+001 -1.8220e+001 52230 86692,86571,86545
 6.3000e+000 86646 -2.5862e+001 -5.6810e+001 -1.0064e+001 52230 86692,86545,86519
 6.3000e+000 86623 -3.9891e+001 -5.9434e+001 -6.1674e+000 52230 86493,86597,86519
 6.3000e+000 86718 -2.8782e+001 -5.4887e+001 -1.3628e+001 52230 86597,86571,86692
 6.3000e+000 86741 -3.6639e+001 -6.0540e+001 -5.3981e+000 52230 86597,86692,86519
 6.3000e+000 87153 -3.7479e+001 -5.4256e+001  2.4557e+000 51640 86980,87058,87032
 6.3000e+000 87130 -3.5325e+001 -5.4215e+001  2.5202e+000 51640 86928,87058,86980
 6.3000e+000 87107 -3.6880e+001 -6.9909e+001 -1.7624e+000 51640 86928,86980,86954
 6.3000e+000 87084 -1.9592e+001 -4.6615e+001  1.4376e+000 51640 86980,87032,87006
 6.3000e+000 87659 -1.8414e+001 -5.0240e+001  2.1429e+000 51029 87682,87440,87362
 6.3000e+000 87636 -1.5710e+001 -5.3715e+001 -5.8218e+000 51029 87682,87362,87336
 6.3000e+000 87613 -2.8038e+001 -8.0307e+001 -1.9804e+000 51029 87440,87518,87466
 6.3000e+000 87590 -2.6419e+001 -5.0445e+001  2.7295e+000 51029 87362,87440,87414
 6.3000e+000 87567 -2.2434e+001 -3.9421e+001  1.0726e+001 51029 87362,87414,87388
 6.3000e+000 87544 -3.6241e+001 -7.6205e+001  1.5824e+000 51029 87466,87518,87492
 6.3000e+000 87708 -1.8070e+001 -5.7319e+001  1.5433e-002 51029 87518,87440,87682
 6.3000e+000 87731 -1.7328e+001 -6.7674e+001 -4.9806e+000 51029 87518,87682,87336
 6.3000e+000 87881 -3.4630e+001 -7.7206e+001  1.8780e+000 50739 87780,87832,87806
 6.3000e+000 87858 -3.8567e+001 -7.4585e+001 -3.6159e+000 50739 87754,87832,87780
 6.3000e+000 88468 -2.5455e+001 -5.1450e+001  2.5284e+000 50235 88171,88327,88197
 6.3000e+000 88445 -5.4949e+001 -5.1158e+001 -8.6786e+000 50235 88145,88327,88171
 6.3000e+000 88422 -4.2114e-001 -2.4022e+001 -2.2885e-001 50235 88275,88327,88301
 6.3000e+000 88399 -1.7092e+001 -3.1159e+001 -4.0254e-001 50235 88197,88327,88275
 6.3000e+000 88376 -8.5885e+000 -4.4983e+001 -4.0331e-001 50235 88197,88275,88223
 6.3000e+000 88353 -9.8313e+000 -6.2347e+001 -6.0497e+000 50235 88223,88275,88249
 6.3000e+000 88895 -3.4071e+001 -8.1911e+001  1.7568e+000 49873 88918,88728,88676
 6.3000e+000 88872 -2.9306e+001 -7.6316e+001 -1.2881e+000 49873 88918,88676,88624
 6.3000e+000 88849 -2.3162e+001 -6.7761e+001 -2.9532e+000 49873 88598,88754,88624
 6.3000e+000 88826 -1.7547e+001 -7.0655e+001 -2.9764e+000 49873 88624,88676,88650
 6.3000e+000 88803 -2.2419e+001 -9.9923e+001  4.7629e+000 49873 88676,88728,88702
 6.3000e+000 88780 -2.9331e+001 -6.9993e+001 -3.6488e+000 49873 88572,88754,88598
 6.3000e+000 88944 -2.8418e+001 -8.1436e+001 -1.7488e+000 49873 88754,88728,88918
 6.3000e+000 88967 -2.6543e+001 -7.9306e+001 -4.2212e+000 49873 88754,88918,88624
 6.3000e+000 89473 -5.1509e+001 -7.5879e+001 -1.0903e+001 49583 89176,89306,89202
 6.3000e+000 89450 -4.8486e+001 -7.4752e+001 -1.0630e+001 49583 89176,89332,89306
 6.3000e+000 89427 -2.7939e+001 -7.9916e+001  3.8651e+000 49583 89496,89228,89202
 6.3000e+000 89404 -2.8374e+001 -8.1580e+001  4.5331e+000 49583 89496,89202,89280
 6.3000e+000 89381 -6.0985e+001 -1.0375e+002 -1.9322e+001 49583 89202,89306,89280
 6.3000e+000 89358 -3.7242e+001 -7.4532e+001 -1.2053e+001 49583 89150,89332,89176
 6.3000e+000 89522 -2.6842e+001 -6.8538e+001  2.1726e+000 49583 89254,89228,89496
 6.3000e+000 89545 -3.2399e+001 -7.8152e+001  4.4473e+000 49583 89254,89496,89280
 6.3000e+000 89825  3.6941e+000 -7.6658e+001  2.2457e+000 49179 89701,89753,89727
 6.3000e+000 89802 -1.1788e+001 -6.7294e+001  2.8115e+000 49179 89675,89753,89701
 6.3000e+000 89779 -8.8963e+000 -6.0868e+001  3.5028e+000 49179 89848,89753,89675
 6.3000e+000 89874 -4.7212e+001 -7.3833e+001 -7.0932e+000 49179 89649,89753,89848
 6.3000e+000 90223 -2.3042e+001 -6.8541e+001 -9.6668e+000 48739 90024,90102,90076
 6.3000e+000 90200 -2.1789e+001 -6.3536e+001 -3.6026e+000 48739 90024,90128,90102
 6.3000e+000 90177  3.4955e+000 -6.7206e+001 -9.7810e+000 48739 90024,90076,90050
 6.3000e+000 90154 -5.8145e+000 -5.9623e+001  4.8678e+000 48739 89998,90128,90024
 6.3000e+000 90603 -1.9817e+001 -5.3196e+001  1.2411e+001 48335 90381,90485,90459
 6.3000e+000 90580 -2.8027e+001 -6.4531e+001  8.4495e+000 48335 90355,90485,90381
 6.3000e+000 90557 -1.1062e+001 -1.7413e+001  6.0003e+000 48335 90381,90433,90407
 6.3000e+000 90534 -2.0911e+001 -5.6684e+001  8.7568e+000 48335 90381,90459,90433
 6.3000e+000 90511  1.1543e+001 -4.2189e+001  1.8314e+001 48335 90329,90485,90355
 6.3000e+000 90753  1.1414e+000 -3.3295e+001  2.1970e+001 47824 90776,90652,90704
 6.3000e+000 90730 -1.8263e+001 -6.2941e+001  1.0030e+001 47824 90626,90704,90652
 6.3000e+000 90802 -7.5201e+000 -4.3253e+001  1.7954e+001 47824 90678,90652,90776
 6.3000e+000 91131 -3.1018e+001 -9.2633e+001  5.2965e+000 47427 91154,90958,90906
 6.3000e+000 91108 -5.3451e+001 -1.0247e+002  7.9422e+000 47427 91154,90906,91036
 6.3000e+000 91085 -4.4388e+001 -7.4265e+001 -6.8466e+000 47427 90958,91010,90984
 6.3000e+000 91062 -3.0752e+001 -7.6612e+001  6.9783e+000 47427 90906,90958,90932
 6.3000e+000 91180 -4.2695e+001 -8.6355e+001 -9.9663e+000 47427 91010,90958,91154
 6.3000e+000 91203 -6.3709e+001 -9.5315e+001 -7.6558e+000 47427 91010,91154,91036
 6.3000e+000 91583 -3.7121e+001 -7.1203e+001 -5.3668e+000 46873 91309,91439,91335
 6.3000e+000 91560 -4.1229e+001 -7.0413e+001 -4.0976e+000 46873 91309,91465,91439
 6.3000e+000 91537 -5.8074e+001 -8.3511e+001 -2.4137e+001 46873 91361,91439,91413
 6.3000e+000 91514 -4.2830e+001 -7.4933e+001 -1.3545e+001 46873 91335,91439,91361
 6.3000e+000 91491 -2.0411e+001 -6.7861e+001 -1.9900e+001 46873 91361,91413,91387
 6.3000e+000 91880 -2.9178e+001 -8.6042e+001 -3.4668e+000 46526 91606,91710,91658
 6.3000e+000 91857 -2.9223e+001 -9.1046e+001  1.3125e-002 46526 91606,91762,91710
 6.3000e+000 91834 -1.9590e+001 -8.1827e+001 -1.0255e+001 46526 91606,91658,91632
 6.3000e+000 91811 -3.3486e+001 -7.8141e+001  1.1024e+000 46526 91658,91710,91684
 6.3000e+000 91788 -1.9434e+001 -6.2468e+001  1.8655e+000 46526 91710,91762,91736
 6.3000e+000 92211 -1.2247e+001 -3.0929e+001 -2.4864e+000 45700 91986,92064,92038
 6.3000e+000 92188 -1.7167e+001 -4.5558e+001  3.6574e-001 45700 91986,92116,92064
 6.3000e+000 92165 -8.3316e+000 -2.3564e+001 -5.1370e+000 45700 91986,92038,92012
 6.3000e+000 92142 -1.1698e+001 -5.0442e+001  6.0531e+000 45700 92064,92116,92090
 6.3000e+000 92766 -3.4161e+001 -6.7620e+001  4.0811e+000 45452 92446,92602,92576
 6.3000e+000 92743 -5.8277e+001 -6.7788e+001 -1.0217e+001 45452 92420,92602,92446
 6.3000e+000 92720 -4.5481e+001 -7.5164e+001  1.2062e+001 45452 92789,92524,92498
 6.3000e+000 92697 -5.1473e+001 -7.2146e+001  1.0317e+001 45452 92789,92498,92446
 6.3000e+000 92674 -4.4817e+001 -7.8038e+001 -1.1986e+000 45452 92524,92576,92550
 6.3000e+000 92651 -6.8487e+001 -7.6473e+001  4.1082e+001 45452 92446,92498,92472
 6.3000e+000 92628 -2.5997e+001 -6.9337e+001 -1.5291e+001 45452 92394,92602,92420
 6.3000e+000 92815 -4.1113e+001 -7.4582e+001  1.0344e+001 45452 92576,92524,92789
 6.3000e+000 92838 -4.6181e+001 -7.1073e+001  9.2970e+000 45452 92576,92789,92446
 6.3000e+000 92939 -3.3258e+001 -9.9407e+001 -2.0626e+001 44998 92861,92913,92887
 6.3000e+000 93319 -8.1319e+000 -1.0266e+002  1.8463e+001 44601 93123,93201,93149
 6.3000e+000 93296 -2.8777e+001 -1.0036e+002 -1.0407e+001 44601 93045,93201,93123
 6.3000e+000 93273 -2.1053e+001 -5.4374e+001 -1.5129e+001 44601 93045,93123,93071
 6.3000e+000 93250 -1.9135e+001 -5.0272e+001 -1.0295e+001 44601 93071,93123,93097
 6.3000e+000 93227 -1.3418e+000 -5.5104e+001  1.9050e+001 44601 93149,93201,93175
 6.3000e+000 93697 -2.1374e+001 -1.1212e+002  6.8625e+000 44026 93720,93553,93527
 6.3000e+000 93674 -3.7339e+001 -9.5107e+001  9.3041e+000 44026 93720,93527,93449
 6.3000e+000 93651 -4.1826e+001 -9.8302e+001 -2.0096e+000 44026 93449,93527,93501
 6.3000e+000 93628 -2.8218e+001 -7.5517e+001 -1.3419e+001 44026 93423,93579,93449
 6.3000e+000 93605 -9.0141e+000 -7.8768e+001  6.2385e+000 44026 93449,93501,93475
 6.3000e+000 93746 -1.0300e+001 -9.9247e+001  2.1327e+000 44026 93579,93553,93720
 6.3000e+000 93769 -2.7072e+001 -8.2409e+001  4.8745e+000 44026 93579,93720,93449
 6.3000e+000 94066 -2.4455e+001 -8.5966e+001 -1.2309e+001 43579 94089,93818,93792
 6.3000e+000 94043 -3.6438e+001 -9.6828e+001 -7.7082e+000 43579 94161,94089,93792
 6.3000e+000 94020 -3.6177e+001 -9.7471e+001 -3.7579e+000 43579 94161,93792,93948
 6.3000e+000 93997 -3.8105e+001 -7.4024e+001 -3.7334e+000 43579 94233,93870,93818
 6.3000e+000 93974 -2.1821e+001 -7.6392e+001  2.2674e+000 43579 93818,93870,93844
 6.3000e+000 94115 -3.7558e+001 -7.4738e+001 -8.3531e+000 43579 94233,93818,94089
 6.3000e+000 94138 -4.8533e+001 -8.5916e+001 -6.1975e+000 43579 93896,94089,93922
 6.3000e+000 94187 -3.3930e+001 -9.0482e+001 -8.3889e+000 43579 93922,94089,94161
 6.3000e+000 94210 -3.3966e+001 -9.0797e+001 -4.0428e+000 43579 93922,94161,93948
 6.3000e+000 94259 -4.2132e+001 -8.2822e+001 -2.6638e+000 43579 93896,93870,94233
 6.3000e+000 94282 -4.0680e+001 -8.1950e+001 -8.0137e+000 43579 93896,94233,94089
 6.3000e+000 94481 -3.0450e+001 -8.9927e+001 -8.7115e-001 43239 94305,94383,94357
 6.3000e+000 94458 -2.6440e+001 -8.2350e+001  9.8386e+000 43239 94305,94409,94383
 6.3000e+000 94435 -2.4773e+001 -9.2700e+001 -2.5149e+000 43239 94305,94357,94331
 6.3000e+000 94633 -9.2005e+000 -5.1886e+001  1.2345e+001 42827 94656,94532,94506
 6.3000e+000 94610 -2.4328e+001 -5.8999e+001  1.4384e+001 42827 94728,94656,94506
 6.3000e+000 94682 -1.2428e+001 -6.0965e+001  1.0154e+001 42827 94558,94532,94656
 6.3000e+000 94705 -3.2289e+000 -5.9156e+001  5.6125e+000 42827 94988,94860,94656
 6.3000e+000 94754 -1.2318e+001 -5.0401e+001  3.4474e+000 42827 94988,94656,94728
 6.3000e+000 94886  3.0940e+000 -5.6014e+001  6.6972e+000 42827 94558,94656,94860
 6.3000e+000 95014  4.4679e+000 -5.1651e+001  2.3123e+000 42827 94584,94860,94988
 6.3000e+000 95037 -3.9047e+000 -4.4326e+001 -4.0790e-002 42827 94584,94988,94728
 6.3000e+000 95236 -5.9403e+000 -5.8981e+001  9.5468e+000 42537 95259,95112,95060
 6.3000e+000 95213 -1.0436e+001 -5.3419e+001  7.2065e+000 42537 95259,95060,95164
 6.3000e+000 95190 -7.9513e-001 -6.0817e+001  2.4642e-001 42537 95060,95112,95086
 6.3000e+000 95285 -8.9434e+000 -6.1749e+001  7.9296e+000 42537 95138,95112,95259
 6.3000e+000 95308 -1.4409e+001 -5.8772e+001  4.9090e+000 42537 95138,95259,95164
 6.3000e+000 95816 -2.8597e+001 -8.2169e+001 -4.4464e+000 41969 95493,95597,95519
 6.3000e+000 95793 -4.1917e+001 -7.5092e+001  8.3296e+000 41969 95493,95649,95597
 6.3000e+000 95770 -3.1777e+001 -7.1148e+001  7.8865e+000 41969 95493,95675,95649
 6.3000e+000 95747 -3.2945e+001 -1.0012e+002  7.1126e+000 41969 95597,95649,95623
 6.3000e+000 95724 -4.8383e+001 -7.3873e+001 -9.0074e+000 41969 95519,95597,95571
 6.3000e+000 95701 -4.3023e+001 -6.3660e+001 -1.6274e+001 41969 95519,95571,95545
 6.3000e+000 96371 -3.6850e+001 -9.0973e+001  1.1210e+001 41579 96025,96207,96181
 6.3000e+000 96348  1.2184e+001 -6.8180e+001 -4.4614e+000 41579 95999,96207,96025
 6.3000e+000 96325 -4.2500e+001 -6.8626e+001 -8.1406e+000 41579 96129,96181,96155
 6.3000e+000 96302 -1.4896e+001 -6.1667e+001  1.6478e-002 41579 96025,96181,96129
 6.3000e+000 96279 -3.5798e+001 -9.5638e+001  1.3434e+001 41579 96025,96129,96051
 6.3000e+000 96256 -3.6623e+001 -8.1949e+001  1.0911e+001 41579 96051,96103,96077
 6.3000e+000 96233 -1.3884e+001 -6.3920e+001 -7.1902e-002 41579 96051,96129,96103
 6.3000e+000 96877 -1.0419e+001 -5.6916e+001 -7.1568e+000 41182 96972,96900,96632
 6.3000e+000 96854 -1.2552e+001 -4.0298e+001 -6.6408e+000 41182 96900,96554,96736
 6.3000e+000 96831 -9.8656e+000 -5.7206e+001 -5.6428e+000 41182 96972,96632,96580
 6.3000e+000 96808 -1.1374e+001 -5.1932e+001  7.0762e+000 41182 96632,96684,96658
 6.3000e+000 96785 -2.2916e+001 -6.1364e+001  6.2788e+000 41182 96684,96736,96710
 6.3000e+000 96762 -3.4862e+001 -7.4942e+001  1.3042e+001 41182 96580,96632,96606
 6.3000e+000 96926 -8.9867e+000 -6.3091e+001 -6.9129e+000 41182 96684,96632,96900
 6.3000e+000 96949 -1.7822e+001 -5.5849e+001 -1.1626e+001 41182 96684,96900,96736
 6.3000e+000 96998 -1.2925e+001 -5.7866e+001 -6.6230e+000 41182 96554,96900,96972
 6.3000e+000 97021 -1.2961e+001 -5.8751e+001 -4.9391e+000 41182 96554,96972,96580
 6.3000e+000 97576 -4.7599e+001 -1.2343e+002 -1.6507e+001 40678 97230,97412,97282
 6.3000e+000 97553 -5.0398e+000 -1.0329e+002  4.8962e+000 40678 97204,97412,97230
 6.3000e+000 97530 -1.1135e+001 -9.2947e+001 -1.7060e+001 40678 97282,97360,97308
 6.3000e+000 97507 -2.0097e+001 -9.4662e+001 -5.0691e+000 40678 97282,97412,97360
 6.3000e+000 97484 -1.6268e+000 -5.1127e+001 -1.4540e+001 40678 97308,97360,97334
 6.3000e+000 97461 -2.5472e+001 -1.1488e+002 -2.8123e+000 40678 97360,97412,97386
 6.3000e+000 97438 -2.8105e+001 -8.0340e+001 -1.2286e+001 40678 97230,97282,97256
 6.3000e+000 97976 -4.3492e+001 -6.9417e+001 -1.2445e+000 40244 97702,97832,97754
 6.3000e+000 97953 -3.5746e+001 -6.8510e+001 -2.9524e+000 40244 97702,97858,97832
 6.3000e+000 97930 -4.6912e+001 -8.2198e+001 -1.6640e+001 40244 97702,97754,97728
 6.3000e+000 97907 -3.4136e+001 -7.2288e+001  8.0944e+000 40244 97780,97832,97806
 6.3000e+000 97884 -3.6963e+001 -6.5588e+001  6.8999e-001 40244 97754,97832,97780
 6.3000e+000 98482 -1.6551e+001 -5.6822e+001  1.0802e+001 39690 98505,98185,98159
 6.3000e+000 98459 -1.8898e+001 -5.3709e+001  9.5686e+000 39690 98505,98159,98289
 6.3000e+000 98436 -4.0444e+001 -8.5759e+001  2.5812e+001 39690 98159,98315,98289
 6.3000e+000 98413 -1.0274e+001 -4.8259e+001  7.5269e+000 39690 98211,98289,98263
 6.3000e+000 98390 -3.7332e+000 -2.8549e+001  4.2353e+000 39690 98211,98263,98237
 6.3000e+000 98367 -8.8148e+000 -4.4823e+001  6.6469e+000 39690 98159,98341,98315
 6.3000e+000 98531 -1.4754e+001 -5.4908e+001  9.4679e+000 39690 98211,98185,98505
 6.3000e+000 98554 -1.7260e+001 -5.1115e+001  8.4939e+000 39690 98211,98505,98289
 6.3000e+000 99109 -2.1415e+001 -5.5815e+001 -4.6843e+000 39072 99132,98867,98789
 6.3000e+000 99086 -2.2905e+001 -5.7599e+001 -5.7402e+000 39072 99132,98789,98763
 6.3000e+000 99063 -3.2004e+001 -9.3770e+001  9.1663e+000 39072 98867,98945,98919
 6.3000e+000 99040 -1.9166e+001 -6.1637e+001 -4.2192e-001 39072 98789,98867,98841
 6.3000e+000 99017 -4.2482e+001 -6.9133e+001  2.0015e+000 39072 98867,98919,98893
 6.3000e+000 98994 -2.9200e+001 -5.3623e+001  1.1803e+001 39072 98789,98841,98815
 6.3000e+000 98971 -3.1628e+001 -6.4456e+001 -5.9032e+000 39072 98737,98945,98763
 6.3000e+000 99158 -2.0234e+001 -5.8103e+001 -5.3488e+000 39072 98945,98867,99132
 6.3000e+000 99181 -2.1002e+001 -5.9959e+001 -5.8823e+000 39072 98945,99132,98763
 6.3000e+000 99510 -1.9563e+001 -5.0673e+001  3.7631e+000 38668 99311,99389,99363
 6.3000e+000 99487 -1.6620e+001 -5.2999e+001 -1.4466e+000 38668 99285,99389,99311
 6.3000e+000 99464 -3.6260e+001 -7.3497e+001  6.9223e+000 38668 99285,99415,99389
 6.3000e+000 99441 -1.6874e+001 -5.4181e+001  5.7264e+000 38668 99311,99363,99337
 6.3000e+000 99758 -2.0223e+001 -8.1301e+001  1.4865e+001 38164 99781,99611,99585
 6.3000e+000 99735 -7.4498e+000 -8.3230e+001  1.6506e+001 38164 99781,99585,99533
 6.3000e+000 99712 -3.1863e+001 -7.7579e+001  1.0623e+001 38164 99611,99663,99637
 6.3000e+000 99689  4.5406e+000 -8.2333e+001 -4.2197e+000 38164 99533,99585,99559
 6.3000e+000 99807 -2.7524e+001 -8.0478e+001  1.8386e+001 38164 99663,99611,99781
 6.3000e+000 99830 -1.7986e+001 -8.4116e+001  1.7984e+001 38164 99663,99781,99533
 6.3000e+000 100232 -1.9118e+001 -5.6496e+001  1.2154e-001 37702 99984,100114,100088
 6.3000e+000 100209 -1.3721e+001 -5.5404e+001  4.8809e+000 37702 99958,100114,99984
 6.3000e+000 100186 -2.9106e+001 -7.1540e+001 -4.9817e+000 37702 100010,100088,100036
 6.3000e+000 100163 -1.7876e+001 -5.5982e+001 -1.0064e-002 37702 99984,100088,100010
 6.3000e+000 100140 -1.3758e+001 -4.9310e+001 -1.7131e+001 37702 100036,100088,100062
 6.3000e+000 100640 -4.9218e+001 -7.1233e+001  1.0051e+001 37262 100493,100545,100519
 6.3000e+000 100617 -4.4503e+001 -8.2178e+001  4.7509e+000 37262 100441,100545,100493
 6.3000e+000 100594 -1.6226e+001 -6.1808e+001 -9.8573e+000 37262 100415,100545,100441
 6.3000e+000 100571 -4.9857e+001 -8.7703e+001 -3.0022e+000 37262 100441,100493,100467
 6.3000e+000 101146 -3.6950e+001 -6.1656e+001 -1.4574e+000 36872 100823,100979,100849
 6.3000e+000 101123 -3.5581e+001 -5.6472e+001 -6.2017e+000 36872 100823,101005,100979
 6.3000e+000 101100 -3.6543e+001 -8.8848e+001  1.1675e+001 36872 101169,100901,100849
 6.3000e+000 101077 -2.8290e+001 -7.1505e+001  6.0012e+000 36872 101169,100849,100979
 6.3000e+000 101054 -2.1052e+001 -7.4895e+001 -5.1903e+000 36872 100927,100979,100953
 6.3000e+000 101031 -1.9936e+001 -9.7683e+001  1.6477e+001 36872 100849,100901,100875
 6.3000e+000 101195 -2.5259e+001 -9.3793e+001  8.3782e-001 36872 100927,100901,101169
 6.3000e+000 101218 -2.0121e+001 -8.4559e+001 -3.8182e+000 36872 100927,101169,100979
 6.3000e+000 101773 -3.8565e+001 -6.4346e+001  1.3750e+001 36418 101479,101609,101583
 6.3000e+000 101750 -4.1578e+001 -6.6446e+001  1.1463e+001 36418 101453,101609,101479
 6.3000e+000 101727 -2.7899e+001 -7.0071e+001  3.5387e-001 36418 101796,101531,101479
 6.3000e+000 101704 -3.9731e+001 -7.8031e+001  5.9708e+000 36418 101796,101479,101583
 6.3000e+000 101681 -2.3254e+001 -6.0124e+001 -1.4702e+000 36418 101479,101531,101505
 6.3000e+000 101658 -2.3462e-001 -5.6938e+001  3.4294e+000 36418 101401,101609,101453
 6.3000e+000 101635 -1.1565e+001 -5.1213e+001  4.5913e+000 36418 101401,101453,101427
 6.3000e+000 101822 -3.0732e+001 -6.4132e+001 -1.1049e+001 36418 101557,101531,101796
 6.3000e+000 101845 -4.4643e+001 -6.7343e+001 -6.0330e+000 36418 101557,101796,101583
 6.3000e+000 102174 -2.0321e+000 -2.2085e+001 -8.0108e+000 35914 101949,102053,101975
 6.3000e+000 102151 -1.0020e+001 -2.3570e+001 -6.4400e+000 35914 101949,102079,102053
 6.3000e+000 102128 -1.5023e+001 -2.8062e+001 -4.9549e+000 35914 101975,102053,102027
 6.3000e+000 102105 -1.1079e+001 -2.3396e+001 -6.8441e+000 35914 101975,102027,102001
 6.3000e+000 102631 -1.4865e+001 -7.4522e+001  1.3736e+000 35574 102383,102513,102487
 6.3000e+000 102608 -9.7127e+000 -7.7644e+001  1.1031e+000 35574 102357,102513,102383
 6.3000e+000 102585 -2.5215e+001 -7.7118e+001  2.8652e+000 35574 102409,102487,102435
 6.3000e+000 102562 -2.4670e+001 -7.8776e+001  1.9589e+000 35574 102383,102487,102409
 6.3000e+000 102539 -2.6090e+001 -7.9729e+001  2.9863e+000 35574 102435,102487,102461
 6.3000e+000 103009 -4.0917e+001 -7.3788e+001 -5.3745e+000 35170 102761,102865,102787
 6.3000e+000 102986 -2.4668e+001 -6.4877e+001  6.7337e+000 35170 102761,102891,102865
 6.3000e+000 102963 -3.6611e+001 -7.2683e+001 -2.0815e+000 35170 102787,102865,102813
 6.3000e+000 102940 -2.0168e+001 -6.3191e+001  7.7086e+000 35170 102735,102891,102761
 6.3000e+000 102917 -3.8009e+001 -7.7495e+001 -6.6533e+000 35170 102813,102865,102839
 6.3000e+000 103257 -6.5386e+000 -5.1262e+001 -8.0949e+000 34659 103280,103058,103032
 6.3000e+000 103234 -9.9317e+000 -5.4453e+001 -4.9034e+000 34659 103280,103032,103162
 6.3000e+000 103211 -1.7615e+001 -5.4346e+001 -4.5372e+000 34659 103084,103162,103110
 6.3000e+000 103188 -2.3624e+001 -6.8101e+001 -3.5767e+000 34659 103110,103162,103136
 6.3000e+000 103306 -1.2197e+001 -4.7386e+001 -6.7023e+000 34659 103084,103058,103280
 6.3000e+000 103329 -1.4552e+001 -5.0891e+001 -3.1379e+000 34659 103084,103280,103162
 6.3000e+000 103837 -5.6957e+000 -8.2353e+001  2.9352e+000 34247 103860,103566,103540
 6.3000e+000 103814 -1.1768e+001 -8.3471e+001  2.5897e-001 34247 103932,103860,103540
 6.3000e+000 103791 -8.9881e+000 -9.3835e+001 -1.0158e+001 34247 103932,103540,103670
 6.3000e+000 103768 -9.0992e+000 -7.5675e+001  2.6531e+000 34247 103566,103618,103592
 6.3000e+000 103745 -3.2968e+001 -7.7782e+001 -1.2320e+001 34247 103540,103696,103670
 6.3000e+000 103722 -4.4504e+001 -8.7605e+001  1.2763e+001 34247 103514,103696,103540
 6.3000e+000 103886 -1.8162e+001 -8.2031e+001 -1.3897e+000 34247 103618,103566,103860
 6.3000e+000 103909 -1.9914e+001 -8.8603e+001  2.2087e+000 34247 103618,103860,103644
 6.3000e+000 103958 -2.0779e+001 -1.0857e+002 -2.2978e+000 34247 103644,103860,103932
 6.3000e+000 103981 -1.8101e+001 -1.1818e+002 -1.3218e+001 34247 103644,103932,103670
 6.3000e+000 104300 -4.2082e+001 -8.8171e+001 -3.5777e+000 33843 104052,104182,104156
 6.3000e+000 104277 -5.3927e+001 -8.2348e+001 -1.1143e+000 33843 104026,104182,104052
 6.3000e+000 104254 -4.1017e+001 -9.9635e+001  2.6683e+000 33843 104078,104156,104130
 6.3000e+000 104231 -5.1224e+001 -9.6042e+001 -7.1569e-002 33843 104052,104156,104078
 6.3000e+000 104208 -6.0989e+001 -1.0437e+002  2.9034e+000 33843 104078,104130,104104
 6.3000e+000 104499 -2.7367e+001 -8.7458e+001 -6.6612e+000 33282 104594,104522,104375
 6.3000e+000 104476 -2.4603e+001 -8.6965e+001  3.0953e+000 33282 104522,104323,104427
 6.3000e+000 104453 -1.6367e+001 -9.2814e+001 -6.2849e+000 33282 104594,104375,104349
 6.3000e+000 104548 -2.9121e+001 -7.8242e+001 -3.0437e+000 33282 104401,104375,104522
 6.3000e+000 104571 -2.0169e+001 -7.6683e+001  2.5717e+000 33282 104401,104522,104427
 6.3000e+000 104620 -1.3414e+001 -7.7809e+001 -1.7807e+000 33282 104323,104522,104594
 6.3000e+000 104643 -6.3578e+000 -8.7040e+001 -2.9513e+000 33282 104323,104594,104349
 6.3000e+000 104942 -3.6345e+001 -9.3957e+001  1.2351e+001 32728 104694,104772,104720
 6.3000e+000 104919 -2.9033e+001 -8.6038e+001  4.7693e+000 32728 104694,104824,104772
 6.3000e+000 104896 -4.8856e+001 -8.2857e+001  1.4080e+001 32728 104720,104772,104746
 6.3000e+000 104873 -2.3091e+001 -9.9540e+001  5.9230e+000 32728 104772,104824,104798
 6.3000e+000 104850 -2.5347e+001 -8.5019e+001  4.9428e+000 32728 104668,104824,104694
 6.3000e+000 105373 -2.5935e+001 -8.7367e+001 -3.6896e+000 32274 105396,105102,105076
 6.3000e+000 105350 -2.9533e+001 -9.5299e+001 -1.1169e+000 32274 105396,105076,105206
 6.3000e+000 105327 -4.0454e+001 -1.0148e+002  5.7744e+000 32274 105154,105206,105180
 6.3000e+000 105304 -1.2730e+001 -9.1297e+001 -7.3863e+000 32274 105076,105232,105206
 6.3000e+000 105281 -3.3091e+001 -7.9580e+001 -1.3698e+001 32274 105102,105154,105128
 6.3000e+000 105258 -4.6471e+001 -7.3750e+001 -1.4031e+001 32274 105050,105232,105076
 6.3000e+000 105422 -3.1501e+001 -7.8570e+001 -3.5723e+000 32274 105154,105102,105396
 6.3000e+000 105445 -3.4651e+001 -8.6495e+001 -1.5289e+000 32274 105154,105396,105206
 6.3000e+000 105644 -3.6773e+001 -9.7624e+001 -1.3604e+000 31620 105468,105546,105520
 6.3000e+000 105621 -2.9703e+001 -1.0277e+002 -4.8269e+000 31620 105468,105572,105546
 6.3000e+000 105598 -3.6828e+001 -1.0502e+002  4.8086e+000 31620 105468,105520,105494
 6.3000e+000 105794 -1.3328e+000 -7.5453e+001 -2.5965e+000 31158 105889,105817,105693
 6.3000e+000 105771 -6.8874e+000 -6.7661e+001 -5.4796e+000 31158 105817,105667,105745
 6.3000e+000 105843 -4.1173e+000 -9.3712e+001 -1.0103e+000 31158 105719,105693,105817
 6.3000e+000 105866  1.3812e+000 -7.9886e+001 -4.5255e+000 31158 105719,105817,105745
 6.3000e+000 105915 -1.4039e+001 -8.0899e+001 -2.7381e+000 31158 105667,105817,105889
 6.3000e+000 106270 -3.3320e+001 -7.9189e+001 -1.3831e+000 30818 106293,106071,106045
 6.3000e+000 106247 -3.9592e+001 -9.3469e+001 -5.5088e+000 30818 106293,106045,106175
 6.3000e+000 106224 -2.8415e+001 -7.4217e+001  4.5540e+000 30818 106123,106175,106149
 6.3000e+000 106201 -3.6042e+001 -8.2163e+001  9.3429e+000 30818 106071,106123,106097
 6.3000e+000 106319 -3.4669e+001 -7.3616e+001  3.9986e+000 30818 106123,106071,106293
 6.3000e+000 106342 -3.5937e+001 -8.1202e+001  5.1170e-001 30818 106123,106293,106175
 6.3000e+000 106492 -3.3020e+001 -7.1499e+001  1.4613e+001 30414 106645,106391,106365
 6.3000e+000 106469 -6.2449e+000 -7.0166e+001  2.2127e+001 30414 106515,106365,106443
 6.3000e+000 106541 -1.8481e+001 -7.5230e+001  1.7042e+001 30414 106645,106365,106515
 6.3000e+000 106671 -1.2794e+001 -8.7501e+001  3.0660e+001 30414 106417,106391,106645
 6.3000e+000 106694  2.0468e+001 -7.9787e+001  2.6334e+001 30414 106417,106645,106515
 6.3000e+000 106942 -1.8528e+001 -1.1508e+002 -7.9469e-001 29910 106965,106795,106769
 6.3000e+000 106919 -1.4716e+001 -1.0473e+002  2.4778e+000 29910 106965,106769,106717
 6.3000e+000 106896 -1.8494e+001 -8.8997e+001 -9.4805e+000 29910 106795,106847,106821
 6.3000e+000 106873 -8.0966e+000 -9.1493e+001  5.6613e+000 29910 106717,106769,106743
 6.3000e+000 106991 -2.5736e+001 -1.0324e+002  1.1301e+000 29910 106847,106795,106965
 6.3000e+000 107014 -1.9732e+001 -8.9543e+001  4.4746e+000 29910 106847,106965,106717
 6.3000e+000 107213 -2.1257e+001 -8.5687e+001  6.4499e+000 29413 107236,107063,107037
 6.3000e+000 107190 -2.1064e+001 -1.0227e+002  1.2648e+001 29413 107236,107037,107141
 6.3000e+000 107167 -2.7705e+001 -5.9124e+001  1.4410e+001 29413 107063,107115,107089
 6.3000e+000 107262 -2.0851e+001 -7.4330e+001  3.5856e+000 29413 107115,107063,107236
 6.3000e+000 107285 -1.8284e+001 -8.6864e+001  1.0251e+001 29413 107115,107236,107141
 6.3000e+000 107486 -9.5049e+000 -8.2329e+001  1.1705e+001 29009 107336,107388,107362
 6.3000e+000 107463 -4.7444e+000 -7.9554e+001  3.1796e+000 29009 107310,107388,107336
 6.3000e+000 107440 -6.5764e+000 -7.5273e+001  3.3286e+000 29009 107310,107414,107388
 6.3000e+000 107736 -3.4612e+001 -9.4721e+001 -2.6127e+000 28491 107537,107615,107563
 6.3000e+000 107713 -3.0178e+001 -9.2906e+001 -2.9098e+000 28491 107537,107641,107615
 6.3000e+000 107690 -2.0356e+001 -8.7206e+001  2.4920e+000 28491 107563,107615,107589
 6.3000e+000 107667 -2.9695e+001 -9.0358e+001 -2.3857e+000 28491 107511,107641,107537
 6.3000e+000 108118 -2.0591e+001 -9.0263e+001  3.0991e+000 27980 108141,107922,107844
 6.3000e+000 108095 -1.6366e+001 -9.6214e+001  2.6883e+000 27980 108141,107844,108000
 6.3000e+000 108072 -2.1173e+001 -9.3043e+001 -5.0972e+000 27980 107844,107922,107870
 6.3000e+000 108049 -2.2756e+001 -8.1170e+001 -2.8177e+000 27980 107870,107922,107896
 6.3000e+000 108026 -3.2571e+001 -8.5589e+001  1.0439e+001 27980 107922,107974,107948
 6.3000e+000 108167 -1.7414e+001 -9.1051e+001  4.6113e+000 27980 107974,107922,108141
 6.3000e+000 108190 -6.0498e+000 -9.0560e+001  5.9798e+000 27980 107974,108141,108000
 6.3000e+000 108745 -6.3504e+000 -5.4137e+001 -2.3179e+000 27376 108840,108768,108477
 6.3000e+000 108722 -1.3979e+001 -6.6012e+001 -1.5003e+001 27376 108768,108373,108581
 6.3000e+000 108699 -1.3516e+001 -4.7545e+001  1.0110e+001 27376 108840,108477,108451
 6.3000e+000 108676 -3.9951e+001 -5.7519e+001 -3.2114e+000 27376 108373,108451,108399
 6.3000e+000 108653 -1.3764e+001 -6.7819e+001  1.0827e+001 27376 108503,108581,108529
 6.3000e+000 108630 -1.6189e+001 -6.3632e+001  1.0994e+001 27376 108529,108581,108555
 6.3000e+000 108607 -4.6009e+001 -6.4070e+001  4.0155e+000 27376 108399,108451,108425
 6.3000e+000 108794 -1.2381e+001 -7.3343e+001 -5.7846e-001 27376 108503,108477,108768
 6.3000e+000 108817  9.6485e-001 -6.7282e+001 -3.0857e+000 27376 108503,108768,108581
 6.3000e+000 108866 -3.1855e+001 -6.7402e+001 -7.1897e+000 27376 108373,108768,108840
 6.3000e+000 108889 -3.0765e+001 -5.7566e+001  5.5883e+000 27376 108373,108840,108451
 6.3000e+000 109186 -3.4315e+001 -9.3903e+001  1.0554e+001 26722 109209,108938,108912
 6.3000e+000 109163 -3.1691e+001 -8.7285e+001  9.0114e+000 26722 109281,109209,108912
 6.3000e+000 109140 -3.0937e+001 -8.4931e+001  8.7408e+000 26722 109281,108912,109042
 6.3000e+000 109117 -2.6029e+001 -9.7576e+001  4.6227e+000 26722 108938,108990,108964
 6.3000e+000 109094 -4.4805e+001 -7.7637e+001  5.9895e+000 26722 108912,109068,109042
 6.3000e+000 109235 -2.7495e+001 -8.9941e+001  8.8243e+000 26722 108990,108938,109209
 6.3000e+000 109258 -3.0809e+001 -9.5323e+001  7.3898e+000 26722 108990,109209,109016
 6.3000e+000 109307 -2.8959e+001 -9.0789e+001  5.0356e+000 26722 109016,109209,109281
 6.3000e+000 109330 -2.7361e+001 -8.6975e+001  4.3314e+000 26722 109016,109281,109042
 6.3000e+000 109732 -3.2878e+001 -7.5335e+001 -3.2844e+000 26310 109458,109588,109484
 6.3000e+000 109709 -3.1345e+001 -8.2203e+001 -8.3807e+000 26310 109458,109614,109588
 6.3000e+000 109686 -5.4344e+001 -9.0303e+001  1.2415e+001 26310 109510,109562,109536
 6.3000e+000 109663 -5.7932e+001 -8.7263e+001  5.3568e+000 26310 109484,109562,109510
 6.3000e+000 109640 -3.8368e+001 -7.8081e+001 -2.2833e+000 26310 109484,109588,109562
 6.3000e+000 110159 -2.0110e+001 -7.7369e+001 -2.2736e+000 25642 110182,109940,109914
 6.3000e+000 110136 -1.6803e+001 -8.8433e+001  1.2899e+001 25642 110182,109914,109888
 6.3000e+000 110113 -2.7975e+001 -9.5108e+001 -1.2045e+001 25642 109966,110018,109992
 6.3000e+000 110090 -3.1366e+001 -9.2026e+001  7.1604e+000 25642 110254,109966,109940
 6.3000e+000 110067 -3.9522e+001 -8.5237e+001  6.4232e+000 25642 109862,110018,109888
 6.3000e+000 110044 -3.7564e+001 -7.1126e+001  1.3416e+001 25642 109836,110018,109862
 6.3000e+000 110208 -2.9584e+001 -8.5163e+001  5.3279e+000 25642 110254,109940,110182
 6.3000e+000 110231 -3.2079e+001 -9.0485e+001  1.3509e+001 25642 110018,110182,109888
 6.3000e+000 110280 -2.5936e+001 -1.0106e+002  6.1676e+000 25642 110018,109966,110254
 6.3000e+000 110303 -2.5765e+001 -9.6091e+001  4.7148e+000 25642 110018,110254,110182
 6.3000e+000 110632 -4.0637e+001 -7.8599e+001 -4.7959e+000 25188 110407,110485,110433
 6.3000e+000 110609 -5.0280e+001 -8.3817e+001 -1.5273e+000 25188 110407,110537,110485
 6.3000e+000 110586 -4.4325e+001 -8.1092e+001 -1.7239e+001 25188 110433,110485,110459
 6.3000e+000 110563 -4.7506e+001 -9.2147e+001  1.2344e+001 25188 110485,110537,110511
 6.3000e+000 110831 -5.8851e+000 -7.6552e+001  2.7875e+000 24726 110854,110707,110655
 6.3000e+000 110808 -2.5451e+000 -8.2623e+001  8.7616e+000 24726 110854,110655,110759
 6.3000e+000 110785 -8.6569e+000 -7.9239e+001  4.3713e+000 24726 110655,110707,110681
 6.3000e+000 110880 -3.1637e+000 -7.0661e+001  3.5491e+000 24726 110733,110707,110854
 6.3000e+000 110903  1.5861e+000 -7.3863e+001  9.9306e+000 24726 110733,110854,110759
 6.3000e+000 111234 -2.3269e+000 -5.4517e+001 -1.4554e+000 24222 111257,111087,111035
 6.3000e+000 111211  6.8441e+000 -5.0421e+001  5.9083e+000 24222 111257,111035,111009
 6.3000e+000 111188 -1.0081e+001 -2.2280e+001 -1.4940e+001 24222 111035,111087,111061
 6.3000e+000 111165 -9.8615e+000 -4.7610e+001  1.6799e+000 24222 111087,111139,111113
 6.3000e+000 111283 -8.0314e+000 -4.5162e+001  2.7159e+000 24222 111139,111087,111257
 6.3000e+000 111306 -4.0782e+000 -3.8649e+001  7.4513e+000 24222 111139,111257,111009
 6.3000e+000 111625 -5.6082e+000 -7.2007e+001 -3.2362e+000 23732 111648,111481,111455
 6.3000e+000 111602 -5.3907e+000 -7.1656e+001 -3.3278e+000 23732 111648,111455,111377
 6.3000e+000 111579  1.8133e+001 -2.9161e+001  8.8952e+000 23732 111377,111429,111403
 6.3000e+000 111556  2.5693e+000 -6.9745e+001 -2.8181e+000 23732 111377,111455,111429
 6.3000e+000 111533 -1.7275e-001 -6.5756e+001 -1.5939e+000 23732 111351,111507,111377
 6.3000e+000 111674 -5.3648e+000 -7.2578e+001 -3.6429e+000 23732 111507,111481,111648
 6.3000e+000 111697 -5.0416e+000 -7.1868e+001 -3.7378e+000 23732 111507,111648,111377
 6.3000e+000 112156 -2.1008e+001 -9.1576e+001  7.1397e+000 23278 112179,111908,111882
 6.3000e+000 112133 -1.9609e+001 -8.4523e+001  3.8082e+000 23278 112179,111882,112012
 6.3000e+000 112110 -5.0225e+000 -9.9157e+001  4.1703e-001 23278 111908,111960,111934
 6.3000e+000 112087 -8.1267e+000 -7.4388e+001 -8.6096e-001 23278 111882,112038,112012
 6.3000e+000 112064 -1.7454e+001 -7.5518e+001 -1.1014e+000 23278 111960,112012,111986
 6.3000e+000 112205 -1.9859e+001 -8.8230e+001  1.3972e+000 23278 111960,111908,112179
 6.3000e+000 112228 -1.6351e+001 -8.0229e+001 -2.3979e+000 23278 111960,112179,112012
 6.3000e+000 112685 -5.3565e+001 -1.2542e+002 -1.1427e+001 22938 112489,112567,112541
 6.3000e+000 112662 -4.4762e+001 -1.0537e+002 -1.0128e+001 22938 112437,112567,112489
 6.3000e+000 112639 -3.4333e+001 -9.5522e+001 -2.0339e+000 22938 112489,112541,112515
 6.3000e+000 112616 -5.0373e+001 -9.7731e+001 -7.8155e+000 22938 112411,112567,112437
 6.3000e+000 112593 -4.1646e+001 -1.3354e+002 -2.1086e+000 22938 112437,112489,112463
 6.3000e+000 113191 -2.2216e+000 -9.2235e+001 -1.2531e+001 22534 113214,112998,112946
 6.3000e+000 113168 -1.6414e+001 -8.0794e+001 -6.5364e+000 22534 113286,113214,112946
 6.3000e+000 113145 -1.1907e+001 -8.1104e+001 -5.3959e+000 22534 113286,112946,112920
 6.3000e+000 113122 -3.7665e+001 -7.3280e+001 -1.8005e+001 22534 113358,113024,112998
 6.3000e+000 113099 -2.2727e+001 -7.7202e+001 -3.5558e+000 22534 112868,113050,112894
 6.3000e+000 113076 -2.4194e+001 -1.2874e+002 -2.2670e+001 22534 112946,112998,112972
 6.3000e+000 113240 -2.7333e+001 -9.4647e+001 -1.8996e+001 22534 113358,112998,113214
 6.3000e+000 113263 -2.2116e+001 -8.4594e+001 -4.4650e+000 22534 113050,113214,112894
 6.3000e+000 113312 -1.0686e+001 -7.9616e+001 -5.1790e+000 22534 112894,113214,113286
 6.3000e+000 113335 -6.0513e+000 -8.0308e+001 -4.8387e+000 22534 112894,113286,112920
 6.3000e+000 113384 -2.6115e+001 -5.3312e+001 -1.3234e+001 22534 113050,113024,113358
 6.3000e+000 113407 -1.1305e+001 -7.1180e+001 -1.1858e+001 22534 113050,113358,113214
 6.3000e+000 113785 -3.9154e+001 -1.0784e+002  3.2857e+000 21978 113808,113615,113511
 6.3000e+000 113762 -3.1597e+001 -1.0933e+002  8.1352e+000 21978 113808,113511,113667
 6.3000e+000 113739 -1.9155e+001 -9.1888e+001 -4.6185e+000 21978 113511,113615,113537
 6.3000e+000 113716  1.4887e+001 -8.2827e+001 -9.7697e+000 21978 113537,113615,113589
 6.3000e+000 113693 -8.6827e+000 -1.1806e+002  1.1264e+000 21978 113537,113589,113563
 6.3000e+000 113834 -4.0424e+001 -1.0764e+002  1.3002e+001 21978 113641,113615,113808
 6.3000e+000 113857 -2.0298e+001 -9.9898e+001  1.8791e+001 21978 113641,113808,113667
 6.3000e+000 114284 -2.7785e+001 -8.8889e+001  2.0585e+000 21517 114013,114117,114039
 6.3000e+000 114261 -3.2791e+001 -8.8867e+001  7.1825e+000 21517 113961,114117,114013
 6.3000e+000 114238 -3.0513e+001 -8.8249e+001  7.8943e+000 21517 113961,114013,113987
 6.3000e+000 114215 -4.8004e+001 -1.0299e+002 -7.6138e+000 21517 114039,114117,114091
 6.3000e+000 114192 -3.2935e+001 -7.3658e+001  8.4599e+000 21517 113961,114143,114117
 6.3000e+000 114169 -7.0640e+000 -8.8350e+001 -7.7316e+000 21517 114039,114091,114065
 6.3000e+000 114581 -8.8457e+000 -9.9636e+001  8.4364e-001 21027 114359,114463,114437
 6.3000e+000 114558 -3.2155e-001 -8.9279e+001  1.2884e+001 21027 114333,114463,114359
 6.3000e+000 114535  1.6392e+000 -9.0431e+001 -3.1132e+000 21027 114359,114437,114385
 6.3000e+000 114512  1.3565e+000 -8.9198e+001  1.0976e+001 21027 114307,114463,114333
 6.3000e+000 114489  2.6649e+001 -8.4336e+001 -4.4959e+000 21027 114385,114437,114411
 6.3000e+000 114912 -3.8721e+001 -9.0938e+001  1.7774e+000 20623 114713,114791,114765
 6.3000e+000 114889 -2.7714e+001 -8.6432e+001 -6.6435e+000 20623 114687,114791,114713
 6.3000e+000 114866 -1.6977e+001 -9.5029e+001 -8.1430e+000 20623 114687,114817,114791
 6.3000e+000 114843 -5.9977e+001 -1.1330e+002  1.0863e+001 20623 114713,114765,114739
 6.3000e+000 115290 -1.0081e+001 -8.2289e+001  4.7345e+000 20375 115313,115146,115094
 6.3000e+000 115267 -1.7458e+001 -7.8002e+001  8.7507e+000 20375 115313,115094,115042
 6.3000e+000 115244 -2.2866e+001 -7.4854e+001  2.5542e+000 20375 115385,115016,115172
 6.3000e+000 115221 -7.7079e+000 -7.2785e+001  6.7653e+000 20375 115042,115094,115068
 6.3000e+000 115198 -1.6685e+001 -9.8054e+001  4.4243e+000 20375 115094,115146,115120
 6.3000e+000 115339 -2.5580e+001 -9.8703e+001 -3.5596e+000 20375 115172,115146,115313
 6.3000e+000 115362 -1.2957e+001 -7.7516e+001  3.0559e+000 20375 115385,115172,115313
 6.3000e+000 115411 -2.8306e+001 -7.7800e+001  3.6881e+000 20375 115042,115016,115385
 6.3000e+000 115434 -2.3570e+001 -8.3894e+001  5.7643e+000 20375 115042,115385,115313
 6.3000e+000 115891 -4.3341e+001 -8.4138e+001  1.1114e+001 19971 115617,115747,115643
 6.3000e+000 115868 -3.8110e+001 -7.2758e+001  1.2691e+001 19971 115617,115773,115747
 6.3000e+000 115845 -3.0635e+001 -1.3696e+002  2.8507e+000 19971 115643,115721,115695
 6.3000e+000 115822 -1.1914e+000 -6.4839e+001  6.1059e-001 19971 115643,115747,115721
 6.3000e+000 115799 -2.4624e+001 -1.6883e+002 -1.2741e+001 19971 115643,115695,115669
 6.3000e+000 115992 -6.0673e+001 -1.5712e+002 -2.8524e+001 19659 115914,115966,115940
 6.3000e+000 116142 -1.2172e+001 -3.7445e+001  1.1854e+000 18997 116041,116093,116067
 6.3000e+000 116119 -2.2666e+001 -6.4150e+001  3.6964e+000 18997 116015,116093,116041
 6.3000e+000 116343 -1.7657e+001 -9.6872e+001 -2.2313e+000 18707 116193,116245,116219
 6.3000e+000 116320 -4.0536e+001 -1.0679e+002 -4.0838e+000 18707 116193,116271,116245
 6.3000e+000 116297 -3.8974e+001 -9.8207e+001 -8.6769e+000 18707 116167,116271,116193
 6.3000e+000 116747 -1.4668e+001 -8.7505e+001 -1.7168e+000 18301 116525,116629,116551
 6.3000e+000 116724 -7.9576e+000 -7.4646e+001  1.9447e+000 18301 116473,116629,116525
 6.3000e+000 116701 -4.5755e+000 -7.1841e+001 -4.2448e+000 18301 116473,116525,116499
 6.3000e+000 116678 -1.1910e+001 -9.1622e+001 -1.0861e+000 18301 116551,116603,116577
 6.3000e+000 116655 -1.8139e+001 -9.5657e+001 -2.9240e+000 18301 116551,116629,116603
 6.3000e+000 117147 -3.9312e+001 -9.4190e+001  1.0108e+000 17747 116899,117029,116925
 6.3000e+000 117124 -2.0419e+001 -6.9040e+001  1.0726e+001 17747 116873,117029,116899
 6.3000e+000 117101 -3.8448e+001 -9.2223e+001  1.3349e+000 17747 116925,117029,116951
 6.3000e+000 117078 -3.0573e+001 -7.3131e+001  9.1873e-001 17747 116951,117029,117003
 6.3000e+000 117055 -4.7554e+001 -1.0933e+002 -8.4728e+000 17747 116951,117003,116977
 6.3000e+000 117368  9.5539e+000 -9.6989e+001  3.0318e+000 17293 117244,117296,117270
 6.3000e+000 117345 -5.2074e+000 -1.0174e+002 -1.1797e+000 17293 117192,117296,117244
 6.3000e+000 117322 -1.6708e+001 -9.4726e+001 -9.2807e-001 17293 117192,117244,117218
 6.3000e+000 117699 -1.0335e+001 -7.8913e+001 -7.9189e+000 16896 117526,117604,117552
 6.3000e+000 117676 -5.1274e+001 -1.2113e+002  8.7942e+000 16896 117500,117604,117526
 6.3000e+000 117653 -5.3630e+001 -9.4246e+001 -3.9948e+000 16896 117552,117604,117578
 6.3000e+000 117630 -5.1026e+001 -1.6009e+002  1.2306e+001 16896 117474,117604,117500
 6.3000e+000 117849 -1.0680e+002 -2.0946e+002 -7.8370e+000 16534 117722,117774,117748
 6.3000e+000 117826 -8.3405e+001 -2.5284e+002 -3.4643e+001 16534 117722,117800,117774
 6.3000e+000 118070  1.3881e+000 -9.9237e+001  1.2515e+001 16194 117946,117998,117972
 6.3000e+000 118047 -1.4686e+001 -1.1182e+002  4.8821e+000 16194 117894,117998,117946
 6.3000e+000 118024 -5.6732e+001 -1.1506e+002 -2.6491e-003 16194 117894,117946,117920
 6.3000e+000 118173 -7.7616e-002 -8.8341e+001  0.0000e+000 15968 118095,118147,118121
 6.3000e+000 118276 -2.5835e+001 -1.0400e+002  5.4056e-001 15433 118299,118198,118250
 6.3000e+000 118325 -2.6065e+001 -1.0454e+002  5.4592e-001 15433 118224,118198,118299
 6.3000e+000 118450 -4.7720e+001 -1.0645e+002  1.0090e+001 421 118372,118424,118398
 6.4000e+000 69891 -1.8368e+001 -9.2580e+001  3.1563e+000 68988 69447,69681,69629
 6.4000e+000 69868  4.1447e+000 -8.4047e+001  3.8016e+000 68988 69421,69681,69447
 6.4000e+000 69845 -2.4188e+000 -4.4338e+001  4.6514e-001 68988 69447,69629,69577
 6.4000e+000 69822 -3.0747e+001 -9.5333e+001 -1.1193e+001 68988 69447,69577,69473
 6.4000e+000 69799 -6.2927e+000 -1.1424e+002  1.8933e+001 68988 69629,69681,69655
 6.4000e+000 69776 -3.4761e+001 -5.8297e+001  1.5604e+000 68988 69577,69629,69603
 6.4000e+000 69753 -2.5006e+001 -8.7004e+001 -1.4760e+001 68988 69473,69577,69551
 6.4000e+000 69730 -3.2561e+001 -1.7125e+002 -1.6795e+001 68988 69473,69551,69525
 6.4000e+000 69707 -5.2214e+001 -1.1226e+002  3.1059e-001 68988 69473,69525,69499
 6.4000e+000 69992 -6.5872e+001 -1.0723e+002 -1.5717e+001 68676 69914,69966,69940
 6.4000e+000 70392 -5.7338e+001 -9.7733e+001  9.9262e+000 68478 70118,70248,70144
 6.4000e+000 70369 -1.0967e+001 -1.0584e+002  2.2329e+001 68478 70118,70274,70248
 6.4000e+000 70346 -3.1667e+001 -7.0812e+001  2.0111e-001 68478 70144,70222,70196
 6.4000e+000 70323 -2.5854e+001 -5.5478e+001 -3.9881e+000 68478 70144,70248,70222
 6.4000e+000 70300 -3.1219e+001 -7.6283e+001  1.4282e-001 68478 70144,70196,70170
 6.4000e+000 70841  1.2227e+001 -6.6223e+001 -1.7721e+001 68280 70570,70622,70596
 6.4000e+000 70818 -3.6430e+001 -7.4792e+001 -4.0345e+000 68280 70544,70622,70570
 6.4000e+000 70795 -2.8417e+001 -5.6528e+001 -2.5869e+000 68280 70544,70674,70622
 6.4000e+000 70772 -2.6336e+001 -5.0610e+001  9.4477e-001 68280 70622,70674,70648
 6.4000e+000 70749 -3.8939e+001 -8.3234e+001  5.8337e+000 68280 70518,70674,70544
 6.4000e+000 70726  1.8180e+001 -8.8756e+001  2.2511e+001 68280 70518,70700,70674
 6.4000e+000 70991 -4.2432e+000 -3.5847e+002  1.1430e+001 67968 70864,70916,70890
 6.4000e+000 70968 -9.9076e+001 -3.5480e+002  4.5051e+001 67968 70864,70942,70916
 6.4000e+000 71141 -1.6195e+002 -3.0768e+002 -1.4370e+001 67770 71040,71092,71066
 6.4000e+000 71118 -1.4040e+002 -3.7254e+002  1.7387e+001 67770 71014,71092,71040
 6.4000e+000 71651 -2.6825e+001 -7.0943e+001 -9.6482e+000 67366 71746,71674,71458
 6.4000e+000 71628 -1.8047e+001 -5.1949e+001 -1.3674e+001 67366 71674,71354,71510
 6.4000e+000 71605 -2.7078e+001 -8.0299e+001 -7.9637e+000 67366 71746,71458,71432
 6.4000e+000 71582 -4.1110e+001 -8.0047e+001  4.5216e+000 67366 71354,71432,71380
 6.4000e+000 71559 -4.0034e+001 -5.9361e+001 -5.4049e+000 67366 71380,71432,71406
 6.4000e+000 71536 -2.1278e+001 -2.1621e+001 -3.1290e+000 67366 71328,71510,71354
 6.4000e+000 71700 -2.7290e+001 -6.2351e+001 -5.0523e+000 67366 71484,71458,71674
 6.4000e+000 71723 -2.3335e+001 -6.0594e+001 -4.7244e+000 67366 71484,71674,71510
 6.4000e+000 71772 -2.7285e+001 -5.9790e+001 -9.2579e+000 67366 71354,71674,71746
 6.4000e+000 71795 -2.5497e+001 -6.6830e+001 -9.0855e+000 67366 71354,71746,71432
 6.4000e+000 71896 -5.2775e+001 -1.1126e+002  0.0000e+000 67146 71818,71870,71844
 6.4000e+000 71997 -5.1151e+001 -1.0408e+002  2.1174e+001 66948 71919,71971,71945
 6.4000e+000 72149 -1.5565e+001 -7.2052e+001 -9.1074e+000 66700 72172,72074,72048
 6.4000e+000 72126 -3.4162e+001 -8.2893e+001 -3.7755e+000 66700 72172,72048,72022
 6.4000e+000 72198 -4.9037e+001 -8.8872e+001  4.4052e+000 66700 72244,72172,72100
 6.4000e+000 72221 -4.2932e+001 -8.1380e+001 -4.6583e+000 66700 72100,72172,72022
 6.4000e+000 72270 -3.0314e+001 -4.7146e+001 -5.6393e+000 66700 72074,72172,72244
 6.4000e+000 72623 -3.7109e+001 -7.7248e+001  1.1996e+000 66502 72424,72502,72450
 6.4000e+000 72600 -3.3432e+001 -6.7912e+001  1.1487e+000 66502 72398,72502,72424
 6.4000e+000 72577 -2.7311e+001 -7.6076e+001 -1.2479e+000 66502 72398,72528,72502
 6.4000e+000 72554 -4.1472e+001 -7.1597e+001  2.6662e-002 66502 72450,72502,72476
 6.4000e+000 72920 -5.5021e+001 -1.0618e+002  2.7950e+000 65941 72672,72776,72750
 6.4000e+000 72897 -5.1267e+001 -9.0793e+001  1.0362e+001 65941 72646,72776,72672
 6.4000e+000 72874 -4.9068e+001 -1.0533e+002  4.7505e+000 65941 72672,72750,72724
 6.4000e+000 72851 -5.1340e+001 -8.7115e+001  9.5584e+000 65941 72672,72724,72698
 6.4000e+000 72828 -3.8763e+001 -8.7987e+001  8.6471e+000 65941 72646,72802,72776
 6.4000e+000 73241 -2.4434e+001 -7.2321e+001  1.8409e+000 65743 73264,73071,73045
 6.4000e+000 73218 -3.5743e+001 -8.0107e+001  6.3720e+000 65743 73480,73264,73045
 6.4000e+000 73195 -2.9199e+001 -6.9965e+001 -3.5266e-001 65743 73336,72967,73097
 6.4000e+000 73172 -4.2770e+001 -6.5676e+001 -4.2157e+000 65743 73408,72993,72967
 6.4000e+000 73149 -2.8654e+001 -7.1403e+001 -9.8509e-001 65743 72967,73123,73097
 6.4000e+000 73290 -2.6339e+001 -7.3015e+001  8.2748e-001 65743 73097,73071,73264
 6.4000e+000 73313 -2.7769e+001 -6.9224e+001  1.7381e+000 65743 73336,73097,73264
 6.4000e+000 73362 -3.8009e+001 -7.2169e+001 -2.2441e+000 65743 73408,72967,73336
 6.4000e+000 73385 -2.3301e+001 -6.7460e+001  1.0426e+000 65743 73019,73336,73264
 6.4000e+000 73434 -3.4718e+001 -5.2868e+001  4.2449e+000 65743 73019,72993,73408
 6.4000e+000 73457 -2.4077e+001 -6.1930e+001  3.6251e+000 65743 73019,73408,73336
 6.4000e+000 73506 -2.0268e+001 -5.1826e+001  3.9466e-001 65743 73019,73264,73480
 6.4000e+000 73989 -9.3403e+000 -6.2549e+001  7.1218e+000 65453 73793,73845,73819
 6.4000e+000 73966 -3.6519e+001 -6.9296e+001  8.5307e+000 65453 73741,73845,73793
 6.4000e+000 73943 -1.6207e+001 -5.8046e+001  4.1363e+000 65453 73715,73845,73741
 6.4000e+000 73920 -3.0533e+001 -7.6930e+001  1.4154e+001 65453 73741,73793,73767
 6.4000e+000 73897 -2.5255e+000 -3.1994e+001 -8.6277e-001 65453 73715,73871,73845
 6.4000e+000 74357 -1.8710e+001 -5.9152e+001 -2.1697e+001 65141 74380,74138,74086
 6.4000e+000 74334 -3.4530e+001 -8.8632e+001 -1.5727e+001 65141 74380,74086,74060
 6.4000e+000 74311 -3.2821e+001 -8.5811e+001 -4.9671e+000 65141 74138,74190,74164
 6.4000e+000 74288 -3.3968e+001 -9.6579e+001 -4.7726e+000 65141 74060,74216,74190
 6.4000e+000 74265 -3.5937e+001 -1.0273e+002  1.0186e+000 65141 74034,74216,74060
 6.4000e+000 74242 -1.3351e+001 -3.0519e+001 -8.3911e+000 65141 74086,74138,74112
 6.4000e+000 74406 -2.6861e+001 -8.4474e+001 -7.6766e+000 65141 74190,74138,74380
 6.4000e+000 74429 -3.2158e+001 -9.5082e+001 -4.1337e+000 65141 74190,74380,74060
 6.4000e+000 74937 -4.0717e+001 -6.8305e+001 -1.5389e+001 64737 74614,74666,74640
 6.4000e+000 74914 -4.8304e+001 -8.8373e+001 -1.0185e+001 64737 74614,74796,74666
 6.4000e+000 74891 -3.4967e+001 -5.8298e+001 -6.2683e-001 64737 74960,74718,74666
 6.4000e+000 74868 -3.3533e+001 -6.5005e+001 -6.4375e+000 64737 74960,74666,74770
 6.4000e+000 74845 -3.4815e+001 -5.7985e+001 -7.0749e+000 64737 74666,74796,74770
 6.4000e+000 74822 -3.3328e+001 -6.4163e+001  3.0931e+000 64737 74666,74718,74692
 6.4000e+000 74986 -3.5775e+001 -6.5087e+001 -2.8043e+000 64737 74744,74718,74960
 6.4000e+000 75009 -3.7571e+001 -7.5602e+001 -9.1531e+000 64737 74744,74960,74770
 6.4000e+000 75306 -2.0574e+001 -6.4520e+001  1.1994e+001 64133 75329,75110,75084
 6.4000e+000 75283 -2.7895e+001 -7.9593e+001  3.5514e+000 64133 75401,75329,75084
 6.4000e+000 75260 -2.7701e+001 -8.1437e+001  3.9033e+000 64133 75401,75084,75058
 6.4000e+000 75237 -2.6277e+001 -9.6367e+001  1.3747e+001 64133 75473,75136,75110
 6.4000e+000 75214 -2.4591e+001 -7.5759e+001  1.2966e+000 64133 75032,75188,75162
 6.4000e+000 75355 -3.0761e+001 -8.8667e+001  1.0538e+001 64133 75473,75110,75329
 6.4000e+000 75378 -2.3155e+001 -7.6667e+001  1.3076e+000 64133 75162,75329,75032
 6.4000e+000 75427 -2.1941e+001 -7.3760e+001  1.1229e+000 64133 75032,75329,75401
 6.4000e+000 75450 -4.0120e+001 -8.9641e+001  9.8772e+000 64133 75545,75401,75058
 6.4000e+000 75499 -2.1834e+001 -8.6828e+001  5.1603e+000 64133 75162,75136,75473
 6.4000e+000 75522 -2.6155e+001 -7.4449e+001  4.1027e+000 64133 75162,75473,75329
 6.4000e+000 75571 -2.3022e+001 -5.2660e+001  2.4651e+000 64133 75032,75401,75545
 6.4000e+000 75851 -3.7383e+001 -7.2021e+001  2.3584e+000 63843 75874,75753,75727
 6.4000e+000 75828 -3.3048e+001 -6.8544e+001 -2.0287e+000 63843 75946,75874,75727
 6.4000e+000 75805 -3.6664e+001 -7.2184e+001 -4.2203e-001 63843 76018,75946,75727
 6.4000e+000 75900 -3.3177e+001 -7.0294e+001 -3.6483e+000 63843 75779,75753,75874
 6.4000e+000 75923 -3.2169e+001 -5.8026e+001 -7.9323e+000 63843 75779,75874,75675
 6.4000e+000 75972 -3.6323e+001 -6.7151e+001 -1.9758e+000 63843 75675,75874,75946
 6.4000e+000 75995 -3.4550e+001 -6.7486e+001 -3.2076e+000 63843 75675,75946,75701
 6.4000e+000 76044 -3.5911e+001 -6.8170e+001 -3.4543e+000 63843 75701,75946,76018
 6.4000e+000 76454  2.3535e+000 -9.4464e+000 -5.4817e+000 63439 76477,76255,76229
 6.4000e+000 76431 -7.4835e+000 -2.4756e+001  1.9507e+000 63439 76477,76229,76359
 6.4000e+000 76408 -7.8822e+000 -1.9895e+001  1.2632e+001 63439 76307,76359,76333
 6.4000e+000 76385 -5.2140e+000 -3.1327e+001 -1.0408e+000 63439 76255,76307,76281
 6.4000e+000 76503 -9.6372e+000 -2.2085e+001  3.3908e+000 63439 76307,76255,76477
 6.4000e+000 76526 -8.3332e+000 -2.7606e+001  8.9545e+000 63439 76307,76477,76359
 6.4000e+000 76926 -1.7322e+001 -4.0428e+001  4.9249e-001 63049 76704,76782,76756
 6.4000e+000 76903 -2.0379e+001 -4.0606e+001 -3.9675e+000 63049 76704,76808,76782
 6.4000e+000 76880 -1.4721e+001 -4.5121e+001  9.3633e-001 63049 76704,76756,76730
 6.4000e+000 76857 -1.2013e+001 -2.3081e+001  2.8531e+000 63049 76678,76808,76704
 6.4000e+000 76834 -3.5870e+000 -3.9192e+000 -4.6750e+000 63049 76652,76808,76678
 6.4000e+000 77076 -1.1354e+001 -8.8360e+001 -9.0946e-001 62737 76975,77027,77001
 6.4000e+000 77053 -8.3933e+000 -9.6736e+001 -5.5090e+000 62737 76949,77027,76975
 6.4000e+000 77324 -3.5631e+001 -8.1318e+001 -5.6350e-001 62277 77347,77177,77125
 6.4000e+000 77301 -3.6335e+001 -7.9492e+001 -3.8705e+000 62277 77347,77125,77229
 6.4000e+000 77278 -3.4725e+001 -8.4571e+001 -7.0765e+000 62277 77099,77229,77125
 6.4000e+000 77255 -3.9319e+001 -9.6400e+001  1.8043e+000 62277 77125,77177,77151
 6.4000e+000 77373 -3.7514e+001 -8.6975e+001  7.4490e-001 62277 77203,77177,77347
 6.4000e+000 77396 -3.5637e+001 -8.2234e+001 -2.9331e+000 62277 77203,77347,77229
 6.4000e+000 77857 -2.3888e+001 -1.0666e+002  1.5322e+000 61758 77635,77739,77661
 6.4000e+000 77834 -3.2629e+001 -1.0665e+002 -3.1076e+000 61758 77583,77739,77635
 6.4000e+000 77811 -3.5580e+001 -1.3032e+002 -1.2201e+001 61758 77583,77635,77609
 6.4000e+000 77788 -2.8327e+001 -1.0627e+002  7.5309e+000 61758 77661,77713,77687
 6.4000e+000 77765 -3.1442e+001 -1.1692e+002  6.3954e+000 61758 77661,77739,77713
 6.4000e+000 78491 -3.2429e+001 -5.5770e+001  3.2133e+000 61418 78171,78301,78249
 6.4000e+000 78468 -2.3535e+001 -4.4600e+001  7.7920e+000 61418 78145,78301,78171
 6.4000e+000 78445 -2.2977e+001 -4.8862e+001 -1.8663e+000 61418 78171,78249,78223
 6.4000e+000 78422 -2.3376e+001 -4.4261e+001  1.1301e+000 61418 78145,78327,78301
 6.4000e+000 78399 -3.3798e+001 -6.5204e+001 -2.2023e+000 61418 78249,78301,78275
 6.4000e+000 78376 -1.3339e+001 -5.3698e+001 -3.4459e+000 61418 78171,78223,78197
 6.4000e+000 78353 -2.5888e+001 -5.8111e+001 -2.3001e+000 61418 78119,78327,78145
 6.4000e+000 78690 -2.1824e+001 -5.3852e+001  1.7914e+000 61014 78713,78566,78540
 6.4000e+000 78667 -1.7999e+001 -5.6785e+001  3.1846e+000 61014 78713,78540,78618
 6.4000e+000 78644 -2.4865e+001 -6.4299e+001 -6.3651e+000 61014 78514,78618,78540
 6.4000e+000 78739 -1.3537e+001 -5.3025e+001  6.3964e+000 61014 78592,78566,78713
 6.4000e+000 78762 -2.1232e+001 -5.8012e+001  1.8273e+000 61014 78785,78713,78618
 6.4000e+000 78811 -4.6357e+000 -5.1670e+001 -4.1726e-001 61014 78592,78713,78785
 6.4000e+000 79398 -1.1131e+001 -5.5085e+001 -5.0337e+000 60624 79101,79179,79153
 6.4000e+000 79375 -1.5346e+001 -6.0586e+001 -2.6884e+000 60624 79101,79231,79179
 6.4000e+000 79352 -1.1155e+001 -5.9305e+001 -3.1695e+000 60624 79075,79231,79101
 6.4000e+000 79329 -3.7368e+000 -6.9265e+001  6.9311e+000 60624 79075,79257,79231
 6.4000e+000 79306 -1.1981e+001 -4.8354e+001 -7.9019e+000 60624 79179,79231,79205
 6.4000e+000 79283 -6.3691e+000 -4.4156e+001 -3.1107e+000 60624 79101,79153,79127
 6.4000e+000 79776 -3.6672e+001 -8.4407e+001  5.4030e+000 60070 79528,79658,79606
 6.4000e+000 79753 -3.5540e+001 -7.3770e+001 -5.8453e-001 60070 79502,79658,79528
 6.4000e+000 79730 -4.7271e+001 -8.2315e+001  8.9867e+000 60070 79528,79606,79580
 6.4000e+000 79707 -2.0873e+001 -7.6947e+001  1.2787e+000 60070 79606,79658,79632
 6.4000e+000 79684 -2.8634e+000 -5.0177e+001 -1.2434e+001 60070 79528,79580,79554
 6.4000e+000 80105 -2.8977e+001 -6.7528e+001  7.1625e+000 59758 80128,79958,79906
 6.4000e+000 80082 -2.6939e+001 -6.4612e+001  5.7900e+000 59758 80128,79906,80010
 6.4000e+000 80059 -3.8041e+001 -7.1751e+001  2.0271e+001 59758 79906,79958,79932
 6.4000e+000 80036 -3.8057e+001 -7.2258e+001  2.4969e+000 59758 79880,80010,79906
 6.4000e+000 80154 -2.7843e+001 -6.9529e+001  8.4415e+000 59758 79984,79958,80128
 6.4000e+000 80177 -2.6839e+001 -6.7487e+001  7.3110e+000 59758 79984,80128,80010
 6.4000e+000 80376 -1.8224e+001 -5.1345e+001  7.1297e-001 59312 80226,80304,80252
 6.4000e+000 80353 -1.6340e+001 -5.2808e+001  1.2540e+000 59312 80200,80304,80226
 6.4000e+000 80330 -2.7023e+001 -4.7076e+001  1.4108e+001 59312 80252,80304,80278
 6.4000e+000 80805 -2.4716e+001 -5.5453e+001 -8.2427e+000 58908 80900,80828,80638
 6.4000e+000 80782 -2.2432e+001 -6.7099e+001 -1.2444e+001 58908 80828,80560,80508
 6.4000e+000 80759 -2.5560e+001 -5.2474e+001 -3.5255e+000 58908 80900,80638,80612
 6.4000e+000 80736 -1.0018e+001 -5.8804e+001  2.3219e+001 58908 80482,80664,80508
 6.4000e+000 80713 -1.8667e+001 -4.8549e+001 -2.2297e+000 58908 80560,80612,80586
 6.4000e+000 80690 -2.4321e+001 -1.7244e+002 -3.2653e+001 58908 80508,80560,80534
 6.4000e+000 80854 -1.2089e+001 -6.0779e+001  1.4387e+000 58908 80664,80638,80828
 6.4000e+000 80877 -2.0617e+001 -8.8169e+001  2.5954e+000 58908 80664,80828,80508
 6.4000e+000 80926 -2.1882e+001 -4.6783e+001 -8.6396e+000 58908 80560,80828,80900
 6.4000e+000 80949 -2.3825e+001 -4.6614e+001 -3.2463e+000 58908 80560,80900,80612
 6.4000e+000 81246 -1.2333e+001 -5.8283e+001 -7.8593e-001 58482 81076,81128,81102
 6.4000e+000 81223 -2.8889e+001 -9.6465e+001 -9.1027e+000 58482 80972,81128,81076
 6.4000e+000 81200 -1.8543e+001 -6.6060e+001 -1.0685e+001 58482 80972,81076,81050
 6.4000e+000 81177 -3.8983e+001 -9.9292e+001 -4.1461e+000 58482 80998,81050,81024
 6.4000e+000 81154 -2.2737e+001 -7.9236e+001 -1.1127e+001 58482 80972,81050,80998
 6.4000e+000 81754 -2.9508e+001 -5.6960e+001  2.5978e+000 57828 81457,81613,81483
 6.4000e+000 81731 -3.4104e+001 -6.7025e+001  1.4026e+000 57828 81431,81613,81457
 6.4000e+000 81708 -3.1637e+001 -6.1929e+001  3.2167e+000 57828 81483,81613,81509
 6.4000e+000 81685 -3.9534e+001 -7.0843e+001  6.5958e+000 57828 81509,81613,81587
 6.4000e+000 81662 -4.1630e+001 -1.0219e+002  1.3581e+001 57828 81509,81587,81535
 6.4000e+000 81639 -2.2603e+001 -8.7418e+001  6.2835e+000 57828 81535,81587,81561
 6.4000e+000 82002 -3.8680e+001 -9.6929e+001 -7.1181e-001 57374 82025,81855,81829
 6.4000e+000 81979 -4.2007e+001 -8.8662e+001  6.0503e+000 57374 82025,81829,81907
 6.4000e+000 81956 -4.4065e+001 -8.1539e+001  3.8630e+000 57374 81803,81907,81829
 6.4000e+000 81933 -2.2885e+001 -7.2072e+001  6.4649e+000 57374 81777,81907,81803
 6.4000e+000 82051 -3.8203e+001 -8.7000e+001 -1.3257e+000 57374 81881,81855,82025
 6.4000e+000 82074 -3.9716e+001 -7.9585e+001  7.7836e+000 57374 81881,82025,81907
 6.4000e+000 82356 -2.8887e+001 -6.3287e+001 -3.3852e+000 56913 82180,82232,82206
 6.4000e+000 82333 -2.5177e+001 -5.8363e+001  3.5916e+000 56913 82180,82284,82232
 6.4000e+000 82310 -8.6072e+000 -4.2244e+001  1.0271e+001 56913 82379,82232,82284
 6.4000e+000 82405  6.6312e+000 -4.0453e+001  1.0193e+000 56913 82258,82232,82379
 6.4000e+000 82764 -2.8588e+001 -4.0178e+001 -5.1857e+000 56523 82614,82666,82640
 6.4000e+000 82741 -2.6090e+001 -3.9422e+001 -6.4430e+000 56523 82614,82692,82666
 6.4000e+000 82718 -1.9378e+001 -4.0984e+001 -1.2767e+001 56523 82588,82692,82614
 6.4000e+000 83368 -1.8832e+000 -5.5944e+001 -1.8259e+000 55969 82973,83155,83129
 6.4000e+000 83345  7.2882e-001 -5.5560e+001 -4.6686e+000 55969 82973,83181,83155
 6.4000e+000 83322 -1.3822e+001 -4.9548e+001 -9.9729e-001 55969 82973,83129,82999
 6.4000e+000 83299 -2.2702e+001 -4.9790e+001  1.8734e-001 55969 83391,83025,82999
 6.4000e+000 83276 -2.0286e+001 -5.2377e+001 -6.0142e-001 55969 83391,82999,83129
 6.4000e+000 83253 -1.0940e+000 -4.2692e+001  1.1367e+001 55969 83077,83129,83103
 6.4000e+000 83230 -2.4467e+001 -4.0303e+001 -2.4951e+000 55969 83025,83077,83051
 6.4000e+000 83207  3.8147e-001 -5.3176e+001  3.9768e+000 55969 82947,83181,82973
 6.4000e+000 83417 -2.0503e+001 -4.7858e+001  1.7624e+000 55969 83077,83025,83391
 6.4000e+000 83440 -1.9797e+001 -5.0859e+001  3.5433e-001 55969 83077,83391,83129
 6.4000e+000 83946 -5.0730e+001 -1.0527e+002  1.6755e+001 55771 83969,83779,83727
 6.4000e+000 83923 -4.0967e+001 -8.5005e+001  1.1294e+001 55771 83969,83727,83623
 6.4000e+000 83900 -4.7003e+001 -4.2639e+001  6.2673e+000 55771 83623,83727,83649
 6.4000e+000 83877 -3.7327e+001 -1.7340e+002  9.8329e+000 55771 83727,83779,83753
 6.4000e+000 83854 -5.7613e+001 -8.6883e+001  1.7140e+001 55771 83675,83727,83701
 6.4000e+000 83831 -7.1470e+001 -6.8059e+001  2.7415e+001 55771 83649,83727,83675
 6.4000e+000 83995 -4.8735e+001 -1.0959e+002 -8.2803e+000 55771 83805,83779,83969
 6.4000e+000 84018 -2.8360e+001 -6.9342e+001 -1.5911e+001 55771 83805,83969,83623
 6.4000e+000 84168 -2.2434e+001 -5.3640e+001 -8.7298e-001 55367 84191,84067,84041
 6.4000e+000 84145 -2.2604e+001 -5.7000e+001 -4.7767e-001 55367 84191,84041,84119
 6.4000e+000 84217 -2.3486e+001 -5.1329e+001 -8.7752e-001 55367 84093,84067,84191
 6.4000e+000 84240 -2.3009e+001 -5.3565e+001  4.4871e-001 55367 84093,84191,84119
 6.4000e+000 84571 -1.3388e+001 -7.2235e+001 -7.8302e+000 54913 84398,84450,84424
 6.4000e+000 84548 -1.2647e+001 -6.6828e+001 -4.5073e+000 54913 84372,84450,84398
 6.4000e+000 84525 -1.8182e+001 -7.3941e+001  2.3532e+000 54913 84346,84450,84372
 6.4000e+000 84502 -7.4315e+000 -4.9034e+001 -8.0223e+000 54913 84346,84476,84450
 6.4000e+000 85126 -4.1874e+001 -8.6531e+001 -5.6736e+000 54402 84858,84936,84910
 6.4000e+000 85103 -3.1991e+001 -6.3968e+001 -7.1063e+000 54402 84806,84936,84858
 6.4000e+000 85080 -3.7885e+001 -5.9513e+001 -5.8449e+000 54402 84780,84936,84806
 6.4000e+000 85057 -2.9184e+001 -7.3464e+001 -9.5486e-001 54402 84806,84858,84832
 6.4000e+000 85034 -3.7143e+001 -5.7179e+001  3.4854e+000 54402 84780,84962,84936
 6.4000e+000 85011 -4.7060e+001 -5.0315e+001 -3.0431e+000 54402 84858,84910,84884
 6.4000e+000 84988 -3.6569e+001 -5.9066e+001  4.7129e+000 54402 84754,84962,84780
 6.4000e+000 85396 -3.4979e+001 -4.2539e+001 -2.5390e+000 53998 85197,85249,85223
 6.4000e+000 85373 -2.6752e+001 -5.0624e+001 -1.2184e+000 53998 85197,85275,85249
 6.4000e+000 85350 -3.2439e+001 -5.8533e+001 -3.8652e+000 53998 85171,85275,85197
 6.4000e+000 85327 -1.5664e+001 -5.4125e+001 -4.9176e+000 53998 85171,85301,85275
 6.4000e+000 85749 -1.5798e+001 -4.9178e+001 -1.6002e+000 53636 85524,85628,85550
 6.4000e+000 85726 -2.4375e+001 -5.9284e+001  2.0957e+000 53636 85524,85654,85628
 6.4000e+000 85703 -8.6172e+000 -5.1650e+001 -5.3924e+000 53636 85550,85602,85576
 6.4000e+000 85680 -1.3783e+001 -4.7989e+001 -2.9401e+000 53636 85550,85628,85602
 6.4000e+000 86127 -6.1557e+000 -5.5486e+001  1.0660e+001 52982 86150,85957,85879
 6.4000e+000 86104 -2.1281e+001 -6.5824e+001  6.1592e+000 52982 86150,85879,85853
 6.4000e+000 86081 -5.7946e+000 -8.6930e+001  1.7270e+001 52982 85957,86009,85983
 6.4000e+000 86058 -2.5384e+001 -5.8721e+001  7.6343e+000 52982 85879,85957,85931
 6.4000e+000 86035 -1.7535e+001 -5.6697e+001 -1.4711e+000 52982 85879,85931,85905
 6.4000e+000 86176  3.4402e+000 -6.7284e+001  8.6560e+000 52982 86009,85957,86150
 6.4000e+000 86199 -5.5331e+000 -7.3934e+001  5.5308e+000 52982 86009,86150,85853
 6.4000e+000 86398 -1.8618e+001 -4.7752e+001  3.3147e+000 52542 86421,86248,86222
 6.4000e+000 86375 -2.7527e+001 -5.1445e+001 -7.9355e-001 52542 86421,86222,86300
 6.4000e+000 86352 -2.9013e+001 -5.6135e+001 -1.0902e+000 52542 86222,86326,86300
 6.4000e+000 86447 -8.1139e+000 -4.9393e+001  9.0645e+000 52542 86274,86248,86421
 6.4000e+000 86470 -1.7621e+001 -5.5990e+001  3.7608e+000 52542 86274,86421,86300
 6.4000e+000 86669 -2.1267e+001 -4.7188e+001 -1.5659e+001 52230 86692,86571,86545
 6.4000e+000 86646 -2.3038e+001 -4.9455e+001 -8.5473e+000 52230 86692,86545,86519
 6.4000e+000 86623 -3.3820e+001 -5.1788e+001 -5.1693e+000 52230 86493,86597,86519
 6.4000e+000 86718 -2.5734e+001 -4.8331e+001 -1.2041e+001 52230 86597,86571,86692
 6.4000e+000 86741 -3.2371e+001 -5.2755e+001 -4.8938e+000 52230 86597,86692,86519
 6.4000e+000 87153 -3.2626e+001 -4.4913e+001  2.7355e+000 51640 86980,87058,87032
 6.4000e+000 87130 -3.0344e+001 -4.6146e+001  2.2922e+000 51640 86928,87058,86980
 6.4000e+000 87107 -3.2195e+001 -5.8717e+001 -4.8001e-001 51640 86928,86980,86954
 6.4000e+000 87084 -1.5017e+001 -3.7445e+001 -1.4802e-001 51640 86980,87032,87006
 6.4000e+000 87659 -1.6154e+001 -4.4152e+001  2.0804e+000 51029 87682,87440,87362
 6.4000e+000 87636 -1.3896e+001 -4.6857e+001 -4.2206e+000 51029 87682,87362,87336
 6.4000e+000 87613 -2.4215e+001 -6.8726e+001 -1.2664e+000 51029 87440,87518,87466
 6.4000e+000 87590 -2.2455e+001 -4.2667e+001  1.9628e+000 51029 87362,87440,87414
 6.4000e+000 87567 -1.7772e+001 -3.0214e+001  8.9926e+000 51029 87362,87414,87388
 6.4000e+000 87544 -2.9950e+001 -6.4582e+001  1.2199e+000 51029 87466,87518,87492
 6.4000e+000 87708 -1.5932e+001 -4.9741e+001  4.4290e-001 51029 87518,87440,87682
 6.4000e+000 87731 -1.5289e+001 -5.7923e+001 -3.5060e+000 51029 87518,87682,87336
 6.4000e+000 87881 -2.9938e+001 -6.6649e+001  1.5870e+000 50739 87780,87832,87806
 6.4000e+000 87858 -3.3537e+001 -6.5083e+001 -3.1032e+000 50739 87754,87832,87780
 6.4000e+000 88468 -2.2148e+001 -4.4657e+001  1.8595e+000 50235 88171,88327,88197
 6.4000e+000 88445 -4.8843e+001 -4.2799e+001 -8.2088e+000 50235 88145,88327,88171
 6.4000e+000 88422 -7.0598e-001 -2.1091e+001 -4.4204e-001 50235 88275,88327,88301
 6.4000e+000 88399 -1.5473e+001 -2.7413e+001 -3.8368e-001 50235 88197,88327,88275
 6.4000e+000 88376 -8.1859e+000 -3.9590e+001 -4.3635e-001 50235 88197,88275,88223
 6.4000e+000 88353 -9.1117e+000 -5.4364e+001 -5.3941e+000 50235 88223,88275,88249
 6.4000e+000 88895 -2.9713e+001 -7.0662e+001  1.5268e+000 49873 88918,88728,88676
 6.4000e+000 88872 -2.5536e+001 -6.5498e+001 -1.0470e+000 49873 88918,88676,88624
 6.4000e+000 88849 -2.0163e+001 -5.8511e+001 -2.6015e+000 49873 88598,88754,88624
 6.4000e+000 88826 -1.5552e+001 -6.0943e+001 -2.1591e+000 49873 88624,88676,88650
 6.4000e+000 88803 -1.8939e+001 -8.6101e+001  4.3823e+000 49873 88676,88728,88702
 6.4000e+000 88780 -2.5449e+001 -6.1196e+001 -3.6346e+000 49873 88572,88754,88598
 6.4000e+000 88944 -2.4877e+001 -7.0378e+001 -1.7116e+000 49873 88754,88728,88918
 6.4000e+000 88967 -2.3205e+001 -6.8326e+001 -3.7606e+000 49873 88754,88918,88624
 6.4000e+000 89473 -4.5946e+001 -6.6097e+001 -9.1796e+000 49583 89176,89306,89202
 6.4000e+000 89450 -4.1656e+001 -6.4452e+001 -8.8998e+000 49583 89176,89332,89306
 6.4000e+000 89427 -2.3983e+001 -6.9327e+001  3.9760e+000 49583 89496,89228,89202
 6.4000e+000 89404 -2.4682e+001 -7.0983e+001  4.6492e+000 49583 89496,89202,89280
 6.4000e+000 89381 -5.3538e+001 -9.0596e+001 -1.6470e+001 49583 89202,89306,89280
 6.4000e+000 89358 -3.1724e+001 -6.4117e+001 -1.0065e+001 49583 89150,89332,89176
 6.4000e+000 89522 -2.3191e+001 -5.7978e+001  2.0496e+000 49583 89254,89228,89496
 6.4000e+000 89545 -2.8965e+001 -6.7519e+001  4.5219e+000 49583 89254,89496,89280
 6.4000e+000 89825  2.6293e+000 -6.7101e+001  2.0214e+000 49179 89701,89753,89727
 6.4000e+000 89802 -1.0237e+001 -5.8148e+001  2.2254e+000 49179 89675,89753,89701
 6.4000e+000 89779 -7.7273e+000 -5.2670e+001  2.9809e+000 49179 89848,89753,89675
 6.4000e+000 89874 -4.2054e+001 -6.4259e+001 -6.5078e+000 49179 89649,89753,89848
 6.4000e+000 90223 -1.9632e+001 -5.6632e+001 -7.9010e+000 48739 90024,90102,90076
 6.4000e+000 90200 -1.7434e+001 -5.2340e+001 -3.2648e+000 48739 90024,90128,90102
 6.4000e+000 90177  3.6204e+000 -5.4008e+001 -8.6735e+000 48739 90024,90076,90050
 6.4000e+000 90154 -5.6185e+000 -4.9992e+001  3.0459e+000 48739 89998,90128,90024
 6.4000e+000 90603 -1.6235e+001 -4.3696e+001  1.0967e+001 48335 90381,90485,90459
 6.4000e+000 90580 -2.3026e+001 -5.3201e+001  7.7180e+000 48335 90355,90485,90381
 6.4000e+000 90557 -7.9388e+000 -1.0850e+001  4.4605e+000 48335 90381,90433,90407
 6.4000e+000 90534 -1.7091e+001 -4.7336e+001  7.0321e+000 48335 90381,90459,90433
 6.4000e+000 90511  1.2204e+001 -3.4563e+001  1.4975e+001 48335 90329,90485,90355
 6.4000e+000 90753  2.2964e-001 -2.7952e+001  1.8725e+001 47824 90776,90652,90704
 6.4000e+000 90730 -1.6189e+001 -5.3351e+001  8.8018e+000 47824 90626,90704,90652
 6.4000e+000 90802 -6.7785e+000 -3.7271e+001  1.5052e+001 47824 90678,90652,90776
 6.4000e+000 91131 -2.7305e+001 -7.9801e+001  4.2029e+000 47427 91154,90958,90906
 6.4000e+000 91108 -4.6005e+001 -8.7993e+001  6.3389e+000 47427 91154,90906,91036
 6.4000e+000 91085 -3.8421e+001 -6.3841e+001 -5.7023e+000 47427 90958,91010,90984
 6.4000e+000 91062 -2.7487e+001 -6.5339e+001  5.9748e+000 47427 90906,90958,90932
 6.4000e+000 91180 -3.7045e+001 -7.4624e+001 -8.5049e+000 47427 91010,90958,91154
 6.4000e+000 91203 -5.4567e+001 -8.2098e+001 -6.6451e+000 47427 91010,91154,91036
 6.4000e+000 91583 -3.0688e+001 -6.0320e+001 -3.9192e+000 46873 91309,91439,91335
 6.4000e+000 91560 -3.3287e+001 -5.7620e+001 -3.3046e+000 46873 91309,91465,91439
 6.4000e+000 91537 -4.8840e+001 -6.9652e+001 -2.1621e+001 46873 91361,91439,91413
 6.4000e+000 91514 -3.6591e+001 -6.4236e+001 -1.2753e+001 46873 91335,91439,91361
 6.4000e+000 91491 -1.6032e+001 -5.7234e+001 -1.8849e+001 46873 91361,91413,91387
 6.4000e+000 91880 -2.5681e+001 -7.4164e+001 -3.0753e+000 46526 91606,91710,91658
 6.4000e+000 91857 -2.5843e+001 -7.8642e+001  1.7309e-002 46526 91606,91762,91710
 6.4000e+000 91834 -1.7695e+001 -7.0794e+001 -8.7628e+000 46526 91606,91658,91632
 6.4000e+000 91811 -3.0043e+001 -6.7508e+001  8.2744e-001 46526 91658,91710,91684
 6.4000e+000 91788 -1.7681e+001 -5.4738e+001  1.6046e+000 46526 91710,91762,91736
 6.4000e+000 92211 -1.0396e+001 -2.6521e+001 -2.2282e+000 45700 91986,92064,92038
 6.4000e+000 92188 -1.4641e+001 -3.9281e+001  2.4329e-001 45700 91986,92116,92064
 6.4000e+000 92165 -7.1411e+000 -2.0090e+001 -4.0243e+000 45700 91986,92038,92012
 6.4000e+000 92142 -1.0024e+001 -4.2000e+001  4.7058e+000 45700 92064,92116,92090
 6.4000e+000 92766 -2.8736e+001 -5.7663e+001  4.1357e+000 45452 92446,92602,92576
 6.4000e+000 92743 -5.0492e+001 -5.8852e+001 -8.6513e+000 45452 92420,92602,92446
 6.4000e+000 92720 -3.9656e+001 -6.5232e+001  1.0244e+001 45452 92789,92524,92498
 6.4000e+000 92697 -4.4353e+001 -6.2426e+001  8.9119e+000 45452 92789,92498,92446
 6.4000e+000 92674 -3.9546e+001 -6.7444e+001 -1.7051e+000 45452 92524,92576,92550
 6.4000e+000 92651 -5.9026e+001 -6.6297e+001  3.5283e+001 45452 92446,92498,92472
 6.4000e+000 92628 -2.1895e+001 -5.8780e+001 -1.2233e+001 45452 92394,92602,92420
 6.4000e+000 92815 -3.6183e+001 -6.4350e+001  8.8641e+000 45452 92576,92524,92789
 6.4000e+000 92838 -4.0264e+001 -6.1307e+001  8.0470e+000 45452 92576,92789,92446
 6.4000e+000 92939 -2.9530e+001 -8.5387e+001 -1.7317e+001 44998 92861,92913,92887
 6.4000e+000 93319 -8.3764e+000 -8.8978e+001  1.5933e+001 44601 93123,93201,93149
 6.4000e+000 93296 -2.5735e+001 -8.6135e+001 -8.7406e+000 44601 93045,93201,93123
 6.4000e+000 93273 -1.8070e+001 -4.6485e+001 -1.3182e+001 44601 93045,93123,93071
 6.4000e+000 93250 -1.6718e+001 -4.3187e+001 -9.1808e+000 44601 93071,93123,93097
 6.4000e+000 93227 -2.6189e+000 -4.7427e+001  1.6550e+001 44601 93149,93201,93175
 6.4000e+000 93697 -1.8825e+001 -9.7351e+001  5.8969e+000 44026 93720,93553,93527
 6.4000e+000 93674 -3.2593e+001 -8.2275e+001  8.1084e+000 44026 93720,93527,93449
 6.4000e+000 93651 -3.6311e+001 -8.4801e+001 -1.4400e+000 44026 93449,93527,93501
 6.4000e+000 93628 -2.5387e+001 -6.5083e+001 -1.1544e+001 44026 93423,93579,93449
 6.4000e+000 93605 -8.5046e+000 -6.8460e+001  5.4385e+000 44026 93449,93501,93475
 6.4000e+000 93746 -9.4687e+000 -8.5812e+001  1.7961e+000 44026 93579,93553,93720
 6.4000e+000 93769 -2.3880e+001 -7.0832e+001  4.2950e+000 44026 93579,93720,93449
 6.4000e+000 94066 -2.0365e+001 -7.4122e+001 -1.0696e+001 43579 94089,93818,93792
 6.4000e+000 94043 -3.1711e+001 -8.3912e+001 -6.5166e+000 43579 94161,94089,93792
 6.4000e+000 94020 -3.1576e+001 -8.4545e+001 -2.9026e+000 43579 94161,93792,93948
 6.4000e+000 93997 -3.3020e+001 -6.3753e+001 -3.4051e+000 43579 94233,93870,93818
 6.4000e+000 93974 -1.8716e+001 -6.5824e+001  1.8486e+000 43579 93818,93870,93844
 6.4000e+000 94115 -3.2580e+001 -6.4357e+001 -7.2796e+000 43579 94233,93818,94089
 6.4000e+000 94138 -4.2383e+001 -7.3915e+001 -5.4307e+000 43579 93896,94089,93922
 6.4000e+000 94187 -2.9446e+001 -7.8019e+001 -7.4010e+000 43579 93922,94089,94161
 6.4000e+000 94210 -2.9754e+001 -7.8427e+001 -3.4184e+000 43579 93922,94161,93948
 6.4000e+000 94259 -3.6367e+001 -7.1145e+001 -2.5463e+000 43579 93896,93870,94233
 6.4000e+000 94282 -3.5206e+001 -7.0435e+001 -7.0347e+000 43579 93896,94233,94089
 6.4000e+000 94481 -2.6684e+001 -7.7433e+001 -7.3943e-001 43239 94305,94383,94357
 6.4000e+000 94458 -2.3211e+001 -7.0959e+001  8.3823e+000 43239 94305,94409,94383
 6.4000e+000 94435 -2.2319e+001 -7.9639e+001 -1.9978e+000 43239 94305,94357,94331
 6.4000e+000 94633 -7.6244e+000 -4.4046e+001  1.0849e+001 42827 94656,94532,94506
 6.4000e+000 94610 -2.1243e+001 -5.0454e+001  1.2695e+001 42827 94728,94656,94506
 6.4000e+000 94682 -1.0878e+001 -5.2355e+001  8.7695e+000 42827 94558,94532,94656
 6.4000e+000 94705 -3.1933e+000 -5.0312e+001  4.9751e+000 42827 94988,94860,94656
 6.4000e+000 94754 -1.0737e+001 -4.2760e+001  3.2040e+000 42827 94988,94656,94728
 6.4000e+000 94886  2.7448e+000 -4.7587e+001  5.6221e+000 42827 94558,94656,94860
 6.4000e+000 95014  3.2156e+000 -4.3841e+001  2.1280e+000 42827 94584,94860,94988
 6.4000e+000 95037 -3.8024e+000 -3.7604e+001  1.6289e-001 42827 94584,94988,94728
 6.4000e+000 95236 -2.8811e+000 -4.7021e+001  8.1356e+000 42537 95259,95112,95060
 6.4000e+000 95213 -7.2520e+000 -3.9153e+001  4.8102e+000 42537 95259,95060,95164
 6.4000e+000 95190  1.0360e+000 -5.0190e+001 -3.7473e-002 42537 95060,95112,95086
 6.4000e+000 95285 -5.7989e+000 -5.1329e+001  6.8330e+000 42537 95138,95112,95259
 6.4000e+000 95308 -1.1845e+001 -4.7068e+001  2.8130e+000 42537 95138,95259,95164
 6.4000e+000 95816 -2.4803e+001 -6.9762e+001 -4.0989e+000 41969 95493,95597,95519
 6.4000e+000 95793 -3.5236e+001 -6.2308e+001  6.3839e+000 41969 95493,95649,95597
 6.4000e+000 95770 -2.7052e+001 -6.0152e+001  7.1568e+000 41969 95493,95675,95649
 6.4000e+000 95747 -2.7354e+001 -8.4605e+001  5.2698e+000 41969 95597,95649,95623
 6.4000e+000 95724 -4.0229e+001 -6.0463e+001 -8.9997e+000 41969 95519,95597,95571
 6.4000e+000 95701 -3.5588e+001 -5.1071e+001 -1.3656e+001 41969 95519,95571,95545
 6.4000e+000 96371 -3.2149e+001 -7.8458e+001  9.6631e+000 41579 96025,96207,96181
 6.4000e+000 96348  9.7195e+000 -5.8929e+001 -4.1336e+000 41579 95999,96207,96025
 6.4000e+000 96325 -3.6435e+001 -5.9300e+001 -7.0910e+000 41579 96129,96181,96155
 6.4000e+000 96302 -1.2791e+001 -5.3025e+001 -7.7346e-002 41579 96025,96181,96129
 6.4000e+000 96279 -3.0913e+001 -8.2487e+001  1.1568e+001 41579 96025,96129,96051
 6.4000e+000 96256 -3.2254e+001 -7.0469e+001  9.1413e+000 41579 96051,96103,96077
 6.4000e+000 96233 -1.2598e+001 -5.4549e+001 -3.0626e-001 41579 96051,96129,96103
 6.4000e+000 96877 -9.3597e+000 -4.8978e+001 -6.1343e+000 41182 96972,96900,96632
 6.4000e+000 96854 -1.1171e+001 -3.4432e+001 -5.6989e+000 41182 96900,96554,96736
 6.4000e+000 96831 -8.8892e+000 -4.9193e+001 -4.8820e+000 41182 96972,96632,96580
 6.4000e+000 96808 -1.0312e+001 -4.4757e+001  6.3831e+000 41182 96632,96684,96658
 6.4000e+000 96785 -2.0238e+001 -5.3203e+001  5.3660e+000 41182 96684,96736,96710
 6.4000e+000 96762 -3.1064e+001 -6.5559e+001  1.1519e+001 41182 96580,96632,96606
 6.4000e+000 96926 -8.0690e+000 -5.4483e+001 -5.9165e+000 41182 96684,96632,96900
 6.4000e+000 96949 -1.5703e+001 -4.8066e+001 -1.0065e+001 41182 96684,96900,96736
 6.4000e+000 96998 -1.1504e+001 -4.9795e+001 -5.6905e+000 41182 96554,96900,96972
 6.4000e+000 97021 -1.1522e+001 -5.0504e+001 -4.2941e+000 41182 96554,96972,96580
 6.4000e+000 97576 -4.0347e+001 -1.0502e+002 -1.4685e+001 40678 97230,97412,97282
 6.4000e+000 97553 -1.9561e+000 -8.7353e+001  2.2873e+000 40678 97204,97412,97230
 6.4000e+000 97530 -8.8615e+000 -7.7593e+001 -1.6055e+001 40678 97282,97360,97308
 6.4000e+000 97507 -1.6553e+001 -7.8839e+001 -4.4417e+000 40678 97282,97412,97360
 6.4000e+000 97484  1.3640e+000 -3.9772e+001 -1.2919e+001 40678 97308,97360,97334
 6.4000e+000 97461 -2.0419e+001 -9.5857e+001 -2.8370e+000 40678 97360,97412,97386
 6.4000e+000 97438 -2.3334e+001 -6.5429e+001 -1.2540e+001 40678 97230,97282,97256
 6.4000e+000 97976 -3.7833e+001 -5.9686e+001 -8.9587e-001 40244 97702,97832,97754
 6.4000e+000 97953 -3.1003e+001 -5.9396e+001 -2.2987e+000 40244 97702,97858,97832
 6.4000e+000 97930 -4.0951e+001 -7.1201e+001 -1.4538e+001 40244 97702,97754,97728
 6.4000e+000 97907 -2.9370e+001 -6.1788e+001  7.1843e+000 40244 97780,97832,97806
 6.4000e+000 97884 -3.1674e+001 -5.6030e+001  9.9267e-001 40244 97754,97832,97780
 6.4000e+000 98482 -1.3187e+001 -4.6570e+001  9.0678e+000 39690 98505,98185,98159
 6.4000e+000 98459 -1.5395e+001 -4.4193e+001  7.9259e+000 39690 98505,98159,98289
 6.4000e+000 98436 -3.4397e+001 -7.2309e+001  2.2360e+001 39690 98159,98315,98289
 6.4000e+000 98413 -7.3220e+000 -4.0001e+001  6.1323e+000 39690 98211,98289,98263
 6.4000e+000 98390 -2.4860e+000 -2.3183e+001  3.6065e+000 39690 98211,98263,98237
 6.4000e+000 98367 -5.9327e+000 -3.5279e+001  5.0102e+000 39690 98159,98341,98315
 6.4000e+000 98531 -1.1057e+001 -4.5094e+001  8.2941e+000 39690 98211,98185,98505
 6.4000e+000 98554 -1.3712e+001 -4.2583e+001  7.2371e+000 39690 98211,98505,98289
 6.4000e+000 99109 -1.9077e+001 -4.7680e+001 -4.3096e+000 39072 99132,98867,98789
 6.4000e+000 99086 -2.0891e+001 -4.9497e+001 -5.3232e+000 39072 99132,98789,98763
 6.4000e+000 99063 -2.8015e+001 -8.0999e+001  7.5410e+000 39072 98867,98945,98919
 6.4000e+000 99040 -1.6627e+001 -5.3051e+001 -3.2060e-001 39072 98789,98867,98841
 6.4000e+000 99017 -3.6875e+001 -5.9091e+001  1.4109e+000 39072 98867,98919,98893
 6.4000e+000 98994 -2.4939e+001 -4.5401e+001  1.0126e+001 39072 98789,98841,98815
 6.4000e+000 98971 -2.7682e+001 -5.5505e+001 -5.3891e+000 39072 98737,98945,98763
 6.4000e+000 99158 -1.7786e+001 -5.0033e+001 -5.0301e+000 39072 98945,98867,99132
 6.4000e+000 99181 -1.8686e+001 -5.1747e+001 -5.5591e+000 39072 98945,99132,98763
 6.4000e+000 99510 -1.6791e+001 -4.2606e+001  3.5298e+000 38668 99311,99389,99363
 6.4000e+000 99487 -1.4247e+001 -4.5079e+001 -1.6682e+000 38668 99285,99389,99311
 6.4000e+000 99464 -3.1006e+001 -6.3043e+001  5.4888e+000 38668 99285,99415,99389
 6.4000e+000 99441 -1.4048e+001 -4.5346e+001  5.0987e+000 38668 99311,99363,99337
 6.4000e+000 99758 -1.7288e+001 -6.8734e+001  1.2528e+001 38164 99781,99611,99585
 6.4000e+000 99735 -6.3310e+000 -7.1549e+001  1.3664e+001 38164 99781,99585,99533
 6.4000e+000 99712 -2.7519e+001 -6.6356e+001  8.7379e+000 38164 99611,99663,99637
 6.4000e+000 99689  4.2971e+000 -6.9280e+001 -3.6653e+000 38164 99533,99585,99559
 6.4000e+000 99807 -2.3745e+001 -6.9079e+001  1.5607e+001 38164 99663,99611,99781
 6.4000e+000 99830 -1.5187e+001 -7.2879e+001  1.5073e+001 38164 99663,99781,99533
 6.4000e+000 100232 -1.5925e+001 -4.8058e+001  3.0847e-001 37702 99984,100114,100088
 6.4000e+000 100209 -1.2096e+001 -4.9108e+001  4.2412e+000 37702 99958,100114,99984
 6.4000e+000 100186 -2.4250e+001 -6.1305e+001 -4.3395e+000 37702 100010,100088,100036
 6.4000e+000 100163 -1.4504e+001 -4.7493e+001 -1.3747e-003 37702 99984,100088,100010
 6.4000e+000 100140 -1.1084e+001 -4.1864e+001 -1.4486e+001 37702 100036,100088,100062
 6.4000e+000 100640 -4.0699e+001 -5.9129e+001  9.2845e+000 37262 100493,100545,100519
 6.4000e+000 100617 -3.7445e+001 -7.0024e+001  4.0442e+000 37262 100441,100545,100493
 6.4000e+000 100594 -1.3004e+001 -5.2140e+001 -9.0149e+000 37262 100415,100545,100441
 6.4000e+000 100571 -4.0851e+001 -7.2268e+001 -2.2059e+000 37262 100441,100493,100467
 6.4000e+000 101146 -3.2009e+001 -5.3378e+001 -1.4720e+000 36872 100823,100979,100849
 6.4000e+000 101123 -3.1176e+001 -4.9790e+001 -5.3713e+000 36872 100823,101005,100979
 6.4000e+000 101100 -3.1310e+001 -7.6353e+001  9.8166e+000 36872 101169,100901,100849
 6.4000e+000 101077 -2.4412e+001 -6.1883e+001  4.9799e+000 36872 101169,100849,100979
 6.4000e+000 101054 -1.8892e+001 -6.4983e+001 -4.6760e+000 36872 100927,100979,100953
 6.4000e+000 101031 -1.7273e+001 -8.3849e+001  1.3872e+001 36872 100849,100901,100875
 6.4000e+000 101195 -2.1813e+001 -8.0448e+001  7.7283e-001 36872 100927,100901,101169
 6.4000e+000 101218 -1.7499e+001 -7.2743e+001 -3.2103e+000 36872 100927,101169,100979
 6.4000e+000 101773 -3.2029e+001 -5.3889e+001  1.1744e+001 36418 101479,101609,101583
 6.4000e+000 101750 -3.4858e+001 -5.3695e+001  8.8889e+000 36418 101453,101609,101479
 6.4000e+000 101727 -2.3196e+001 -5.8991e+001 -1.2272e-001 36418 101796,101531,101479
 6.4000e+000 101704 -3.3565e+001 -6.6022e+001  4.8947e+000 36418 101796,101479,101583
 6.4000e+000 101681 -2.0107e+001 -5.0732e+001 -1.2308e+000 36418 101479,101531,101505
 6.4000e+000 101658 -7.3582e-001 -4.6014e+001  2.0631e+000 36418 101401,101609,101453
 6.4000e+000 101635 -7.9637e+000 -4.3600e+001  2.4043e+000 36418 101401,101453,101427
 6.4000e+000 101822 -2.5663e+001 -5.3756e+001 -1.0111e+001 36418 101557,101531,101796
 6.4000e+000 101845 -3.7796e+001 -5.6495e+001 -5.6050e+000 36418 101557,101796,101583
 6.4000e+000 102174 -6.9637e-001 -1.7214e+001 -6.7889e+000 35914 101949,102053,101975
 6.4000e+000 102151 -8.7761e+000 -1.6620e+001 -5.7171e+000 35914 101949,102079,102053
 6.4000e+000 102128 -1.2100e+001 -2.2482e+001 -3.9759e+000 35914 101975,102053,102027
 6.4000e+000 102105 -8.6955e+000 -1.9292e+001 -5.7152e+000 35914 101975,102027,102001
 6.4000e+000 102631 -1.2861e+001 -6.3410e+001  1.1194e+000 35574 102383,102513,102487
 6.4000e+000 102608 -8.0491e+000 -6.6520e+001  8.1140e-001 35574 102357,102513,102383
 6.4000e+000 102585 -2.1486e+001 -6.5838e+001  2.3214e+000 35574 102409,102487,102435
 6.4000e+000 102562 -2.1035e+001 -6.6995e+001  1.6844e+000 35574 102383,102487,102409
 6.4000e+000 102539 -2.2286e+001 -6.8445e+001  2.5390e+000 35574 102435,102487,102461
 6.4000e+000 103009 -3.5572e+001 -6.3558e+001 -4.6290e+000 35170 102761,102865,102787
 6.4000e+000 102986 -2.1296e+001 -5.5743e+001  5.9584e+000 35170 102761,102891,102865
 6.4000e+000 102963 -3.2075e+001 -6.3040e+001 -1.8634e+000 35170 102787,102865,102813
 6.4000e+000 102940 -1.7412e+001 -5.4411e+001  6.7617e+000 35170 102735,102891,102761
 6.4000e+000 102917 -3.3343e+001 -6.7400e+001 -5.9996e+000 35170 102813,102865,102839
 6.4000e+000 103257 -5.5227e+000 -4.3078e+001 -6.3886e+000 34659 103280,103058,103032
 6.4000e+000 103234 -8.3494e+000 -4.6078e+001 -3.9211e+000 34659 103280,103032,103162
 6.4000e+000 103211 -1.5239e+001 -4.6306e+001 -3.7332e+000 34659 103084,103162,103110
 6.4000e+000 103188 -1.9853e+001 -5.7167e+001 -3.2105e+000 34659 103110,103162,103136
 6.4000e+000 103306 -1.0044e+001 -3.9448e+001 -5.0607e+000 34659 103084,103058,103280
 6.4000e+000 103329 -1.2143e+001 -4.2828e+001 -2.3183e+000 34659 103084,103280,103162
 6.4000e+000 103837 -4.5587e+000 -7.1104e+001  2.4995e+000 34247 103860,103566,103540
 6.4000e+000 103814 -1.0258e+001 -7.2291e+001  2.6564e-001 34247 103932,103860,103540
 6.4000e+000 103791 -7.9590e+000 -8.1381e+001 -8.8296e+000 34247 103932,103540,103670
 6.4000e+000 103768 -7.7863e+000 -6.5038e+001  2.2925e+000 34247 103566,103618,103592
 6.4000e+000 103745 -2.8695e+001 -6.7099e+001 -1.0623e+001 34247 103540,103696,103670
 6.4000e+000 103722 -3.8150e+001 -7.4570e+001  1.0744e+001 34247 103514,103696,103540
 6.4000e+000 103886 -1.5790e+001 -7.0731e+001 -1.3894e+000 34247 103618,103566,103860
 6.4000e+000 103909 -1.7188e+001 -7.6560e+001  1.8152e+000 34247 103618,103860,103644
 6.4000e+000 103958 -1.8030e+001 -9.4228e+001 -2.1889e+000 34247 103644,103860,103932
 6.4000e+000 103981 -1.5852e+001 -1.0267e+002 -1.1724e+001 34247 103644,103932,103670
 6.4000e+000 104300 -3.6963e+001 -7.6388e+001 -3.1015e+000 33843 104052,104182,104156
 6.4000e+000 104277 -4.7159e+001 -7.1619e+001 -1.0840e+000 33843 104026,104182,104052
 6.4000e+000 104254 -3.5752e+001 -8.6225e+001  2.5220e+000 33843 104078,104156,104130
 6.4000e+000 104231 -4.5092e+001 -8.3306e+001 -2.3008e-002 33843 104052,104156,104078
 6.4000e+000 104208 -5.2922e+001 -9.0334e+001  2.7502e+000 33843 104078,104130,104104
 6.4000e+000 104499 -2.3624e+001 -7.5553e+001 -5.6616e+000 33282 104594,104522,104375
 6.4000e+000 104476 -2.1298e+001 -7.5346e+001  2.7174e+000 33282 104522,104323,104427
 6.4000e+000 104453 -1.4023e+001 -8.0065e+001 -5.3858e+000 33282 104594,104375,104349
 6.4000e+000 104548 -2.5370e+001 -6.7975e+001 -2.4355e+000 33282 104401,104375,104522
 6.4000e+000 104571 -1.7452e+001 -6.6479e+001  2.2178e+000 33282 104401,104522,104427
 6.4000e+000 104620 -1.1447e+001 -6.7430e+001 -1.4528e+000 33282 104323,104522,104594
 6.4000e+000 104643 -5.2561e+000 -7.5277e+001 -2.5108e+000 33282 104323,104594,104349
 6.4000e+000 104942 -3.0730e+001 -7.9746e+001  1.0549e+001 32728 104694,104772,104720
 6.4000e+000 104919 -2.5025e+001 -7.3140e+001  4.0012e+000 32728 104694,104824,104772
 6.4000e+000 104896 -4.1194e+001 -7.0110e+001  1.2101e+001 32728 104720,104772,104746
 6.4000e+000 104873 -1.9608e+001 -8.4636e+001  4.9035e+000 32728 104772,104824,104798
 6.4000e+000 104850 -2.1169e+001 -7.1957e+001  4.2571e+000 32728 104668,104824,104694
 6.4000e+000 105373 -2.1090e+001 -7.3935e+001 -3.0834e+000 32274 105396,105102,105076
 6.4000e+000 105350 -2.4445e+001 -8.0321e+001 -9.4659e-001 32274 105396,105076,105206
 6.4000e+000 105327 -3.4157e+001 -8.6774e+001  5.2454e+000 32274 105154,105206,105180
 6.4000e+000 105304 -1.0089e+001 -7.6709e+001 -5.8654e+000 32274 105076,105232,105206
 6.4000e+000 105281 -2.7546e+001 -6.7789e+001 -1.1958e+001 32274 105102,105154,105128
 6.4000e+000 105258 -3.9808e+001 -6.2304e+001 -1.1851e+001 32274 105050,105232,105076
 6.4000e+000 105422 -2.5957e+001 -6.6816e+001 -3.0753e+000 32274 105154,105102,105396
 6.4000e+000 105445 -2.8867e+001 -7.3130e+001 -1.3522e+000 32274 105154,105396,105206
 6.4000e+000 105644 -3.1648e+001 -8.4379e+001 -1.1268e+000 31620 105468,105546,105520
 6.4000e+000 105621 -2.5403e+001 -8.8566e+001 -4.1812e+000 31620 105468,105572,105546
 6.4000e+000 105598 -3.1622e+001 -9.0509e+001  4.1312e+000 31620 105468,105520,105494
 6.4000e+000 105794 -2.0138e-002 -6.4246e+001 -2.1434e+000 31158 105889,105817,105693
 6.4000e+000 105771 -5.0058e+000 -5.7575e+001 -4.6400e+000 31158 105817,105667,105745
 6.4000e+000 105843 -2.5337e+000 -7.9990e+001 -8.6103e-001 31158 105719,105693,105817
 6.4000e+000 105866  2.0402e+000 -6.8127e+001 -3.8424e+000 31158 105719,105817,105745
 6.4000e+000 105915 -1.1196e+001 -6.9036e+001 -2.2676e+000 31158 105667,105817,105889
 6.4000e+000 106270 -2.7035e+001 -6.6540e+001 -2.2433e+000 30818 106293,106071,106045
 6.4000e+000 106247 -3.3285e+001 -8.0835e+001 -5.5985e+000 30818 106293,106045,106175
 6.4000e+000 106224 -2.4651e+001 -6.2451e+001  3.5275e+000 30818 106123,106175,106149
 6.4000e+000 106201 -2.9236e+001 -6.8513e+001  8.1353e+000 30818 106071,106123,106097
 6.4000e+000 106319 -2.8959e+001 -6.0975e+001  3.2911e+000 30818 106123,106071,106293
 6.4000e+000 106342 -3.0574e+001 -6.8602e+001  4.5036e-001 30818 106123,106293,106175
 6.4000e+000 106492 -2.8508e+001 -6.0547e+001  1.2294e+001 30414 106645,106391,106365
 6.4000e+000 106469 -4.9551e+000 -5.9091e+001  1.9041e+001 30414 106515,106365,106443
 6.4000e+000 106541 -1.5851e+001 -6.3593e+001  1.4311e+001 30414 106645,106365,106515
 6.4000e+000 106671 -1.0809e+001 -7.5226e+001  2.6458e+001 30414 106417,106391,106645
 6.4000e+000 106694  1.8554e+001 -6.7963e+001  2.2475e+001 30414 106417,106645,106515
 6.4000e+000 106942 -1.6138e+001 -9.8709e+001 -7.8894e-001 29910 106965,106795,106769
 6.4000e+000 106919 -1.2751e+001 -9.0032e+001  1.9803e+000 29910 106965,106769,106717
 6.4000e+000 106896 -1.6404e+001 -7.6987e+001 -7.6389e+000 29910 106795,106847,106821
 6.4000e+000 106873 -7.0358e+000 -7.8639e+001  4.7729e+000 29910 106717,106769,106743
 6.4000e+000 106991 -2.2336e+001 -8.8700e+001  8.7575e-001 29910 106847,106795,106965
 6.4000e+000 107014 -1.7128e+001 -7.7236e+001  3.7275e+000 29910 106847,106965,106717
 6.4000e+000 107213 -1.7245e+001 -7.2703e+001  5.6016e+000 29413 107236,107063,107037
 6.4000e+000 107190 -1.7539e+001 -8.6787e+001  1.0887e+001 29413 107236,107037,107141
 6.4000e+000 107167 -2.2813e+001 -4.9590e+001  1.2339e+001 29413 107063,107115,107089
 6.4000e+000 107262 -1.7142e+001 -6.2898e+001  2.9037e+000 29413 107115,107063,107236
 6.4000e+000 107285 -1.5432e+001 -7.3582e+001  8.5557e+000 29413 107115,107236,107141
 6.4000e+000 107486 -8.0647e+000 -7.0342e+001  1.0286e+001 29009 107336,107388,107362
 6.4000e+000 107463 -4.2976e+000 -6.8061e+001  2.5773e+000 29009 107310,107388,107336
 6.4000e+000 107440 -5.5017e+000 -6.4453e+001  2.5972e+000 29009 107310,107414,107388
 6.4000e+000 107736 -2.9523e+001 -8.1182e+001 -2.1813e+000 28491 107537,107615,107563
 6.4000e+000 107713 -2.5649e+001 -7.9622e+001 -2.5581e+000 28491 107537,107641,107615
 6.4000e+000 107690 -1.7515e+001 -7.4417e+001  2.1652e+000 28491 107563,107615,107589
 6.4000e+000 107667 -2.5895e+001 -7.8071e+001 -2.3684e+000 28491 107511,107641,107537
 6.4000e+000 108118 -1.7676e+001 -7.7148e+001  2.6543e+000 27980 108141,107922,107844
 6.4000e+000 108095 -1.4034e+001 -8.2214e+001  2.2913e+000 27980 108141,107844,108000
 6.4000e+000 108072 -1.8175e+001 -7.9528e+001 -4.3844e+000 27980 107844,107922,107870
 6.4000e+000 108049 -1.9499e+001 -6.9323e+001 -2.4459e+000 27980 107870,107922,107896
 6.4000e+000 108026 -2.7955e+001 -7.3024e+001  9.1197e+000 27980 107922,107974,107948
 6.4000e+000 108167 -1.4916e+001 -7.7924e+001  3.9704e+000 27980 107974,107922,108141
 6.4000e+000 108190 -5.1134e+000 -7.7448e+001  5.1155e+000 27980 107974,108141,108000
 6.4000e+000 108745 -4.7521e+000 -4.4961e+001 -2.1001e+000 27376 108840,108768,108477
 6.4000e+000 108722 -1.1349e+001 -5.5995e+001 -1.2959e+001 27376 108768,108373,108581
 6.4000e+000 108699 -1.0941e+001 -3.9417e+001  8.5703e+000 27376 108840,108477,108451
 6.4000e+000 108676 -3.3783e+001 -4.8267e+001 -2.7996e+000 27376 108373,108451,108399
 6.4000e+000 108653 -1.0857e+001 -5.7261e+001  9.1713e+000 27376 108503,108581,108529
 6.4000e+000 108630 -1.3315e+001 -5.2764e+001  9.3093e+000 27376 108529,108581,108555
 6.4000e+000 108607 -3.9600e+001 -5.5444e+001  3.3781e+000 27376 108399,108451,108425
 6.4000e+000 108794 -9.8398e+000 -6.0982e+001 -7.3194e-001 27376 108503,108477,108768
 6.4000e+000 108817  1.8254e+000 -5.6269e+001 -2.6454e+000 27376 108503,108768,108581
 6.4000e+000 108866 -2.6723e+001 -5.6302e+001 -6.2313e+000 27376 108373,108768,108840
 6.4000e+000 108889 -2.5807e+001 -4.7933e+001  4.7197e+000 27376 108373,108840,108451
 6.4000e+000 109186 -2.9242e+001 -8.0031e+001  9.1414e+000 26722 109209,108938,108912
 6.4000e+000 109163 -2.7143e+001 -7.4714e+001  7.8314e+000 26722 109281,109209,108912
 6.4000e+000 109140 -2.6531e+001 -7.2745e+001  7.6143e+000 26722 109281,108912,109042
 6.4000e+000 109117 -2.2341e+001 -8.5183e+001  4.1762e+000 26722 108938,108990,108964
 6.4000e+000 109094 -3.8174e+001 -6.6492e+001  5.2480e+000 26722 108912,109068,109042
 6.4000e+000 109235 -2.3190e+001 -7.6859e+001  7.9799e+000 26722 108990,108938,109209
 6.4000e+000 109258 -2.6229e+001 -8.1833e+001  6.6643e+000 26722 108990,109209,109016
 6.4000e+000 109307 -2.4862e+001 -7.7676e+001  4.4794e+000 26722 109016,109209,109281
 6.4000e+000 109330 -2.3541e+001 -7.4479e+001  3.8972e+000 26722 109016,109281,109042
 6.4000e+000 109732 -2.7536e+001 -6.3847e+001 -3.1294e+000 26310 109458,109588,109484
 6.4000e+000 109709 -2.6538e+001 -6.9837e+001 -7.1507e+000 26310 109458,109614,109588
 6.4000e+000 109686 -4.7389e+001 -7.7778e+001  1.0601e+001 26310 109510,109562,109536
 6.4000e+000 109663 -5.0800e+001 -7.5369e+001  4.6546e+000 26310 109484,109562,109510
 6.4000e+000 109640 -3.3270e+001 -6.6639e+001 -2.2171e+000 26310 109484,109588,109562
 6.4000e+000 110159 -1.6292e+001 -6.4112e+001 -1.8732e+000 25642 110182,109940,109914
 6.4000e+000 110136 -1.3423e+001 -7.3961e+001  1.1513e+001 25642 110182,109914,109888
 6.4000e+000 110113 -2.3963e+001 -7.9502e+001 -1.1156e+001 25642 109966,110018,109992
 6.4000e+000 110090 -2.6396e+001 -7.6917e+001  6.4293e+000 25642 110254,109966,109940
 6.4000e+000 110067 -3.2886e+001 -7.0651e+001  6.2032e+000 25642 109862,110018,109888
 6.4000e+000 110044 -3.1749e+001 -5.9045e+001  1.1975e+001 25642 109836,110018,109862
 6.4000e+000 110208 -2.4737e+001 -7.1018e+001  4.8309e+000 25642 110254,109940,110182
 6.4000e+000 110231 -2.6882e+001 -7.5680e+001  1.2102e+001 25642 110018,110182,109888
 6.4000e+000 110280 -2.1513e+001 -8.4727e+001  5.6071e+000 25642 110018,109966,110254
 6.4000e+000 110303 -2.1254e+001 -8.0468e+001  4.3486e+000 25642 110018,110254,110182
 6.4000e+000 110632 -3.5323e+001 -6.7074e+001 -4.0951e+000 25188 110407,110485,110433
 6.4000e+000 110609 -4.4214e+001 -7.2163e+001 -1.0422e+000 25188 110407,110537,110485
 6.4000e+000 110586 -3.8065e+001 -6.9051e+001 -1.5035e+001 25188 110433,110485,110459
 6.4000e+000 110563 -4.1824e+001 -8.0008e+001  1.1520e+001 25188 110485,110537,110511
 6.4000e+000 110831 -4.8471e+000 -6.5452e+001  2.5917e+000 24726 110854,110707,110655
 6.4000e+000 110808 -2.0377e+000 -7.0517e+001  7.5810e+000 24726 110854,110655,110759
 6.4000e+000 110785 -7.1765e+000 -6.7977e+001  3.8643e+000 24726 110655,110707,110681
 6.4000e+000 110880 -2.5661e+000 -6.0529e+001  3.2349e+000 24726 110733,110707,110854
 6.4000e+000 110903  1.4211e+000 -6.3197e+001  8.5657e+000 24726 110733,110854,110759
 6.4000e+000 111234 -2.0107e+000 -4.6148e+001 -1.0883e+000 24222 111257,111087,111035
 6.4000e+000 111211  5.7544e+000 -4.2681e+001  5.1564e+000 24222 111257,111035,111009
 6.4000e+000 111188 -8.4678e+000 -1.7481e+001 -1.3090e+001 24222 111035,111087,111061
 6.4000e+000 111165 -8.5624e+000 -4.0852e+001  1.5933e+000 24222 111087,111139,111113
 6.4000e+000 111283 -6.8474e+000 -3.8225e+001  2.4468e+000 24222 111139,111087,111257
 6.4000e+000 111306 -3.4984e+000 -3.2701e+001  6.4639e+000 24222 111139,111257,111009
 6.4000e+000 111625 -4.2936e+000 -6.1534e+001 -3.0268e+000 23732 111648,111481,111455
 6.4000e+000 111602 -3.8509e+000 -6.1463e+001 -3.2832e+000 23732 111648,111455,111377
 6.4000e+000 111579  1.7113e+001 -2.4120e+001  7.7831e+000 23732 111377,111429,111403
 6.4000e+000 111556  3.2753e+000 -6.0154e+001 -2.4668e+000 23732 111377,111455,111429
 6.4000e+000 111533  7.8741e-001 -5.5503e+001 -1.4369e+000 23732 111351,111507,111377
 6.4000e+000 111674 -3.6417e+000 -6.1482e+001 -3.0801e+000 23732 111507,111481,111648
 6.4000e+000 111697 -3.5811e+000 -6.1490e+001 -3.4347e+000 23732 111507,111648,111377
 6.4000e+000 112156 -1.7904e+001 -7.8302e+001  6.1633e+000 23278 112179,111908,111882
 6.4000e+000 112133 -1.6818e+001 -7.2475e+001  3.2531e+000 23278 112179,111882,112012
 6.4000e+000 112110 -4.1267e+000 -8.4939e+001  6.2684e-001 23278 111908,111960,111934
 6.4000e+000 112087 -6.8268e+000 -6.3376e+001 -8.3081e-001 23278 111882,112038,112012
 6.4000e+000 112064 -1.4798e+001 -6.4634e+001 -6.6903e-001 23278 111960,112012,111986
 6.4000e+000 112205 -1.6847e+001 -7.5514e+001  1.4550e+000 23278 111960,111908,112179
 6.4000e+000 112228 -1.3926e+001 -6.8861e+001 -1.8444e+000 23278 111960,112179,112012
 6.4000e+000 112685 -4.5897e+001 -1.0722e+002 -9.4327e+000 22938 112489,112567,112541
 6.4000e+000 112662 -3.7785e+001 -8.8750e+001 -8.2303e+000 22938 112437,112567,112489
 6.4000e+000 112639 -3.0552e+001 -8.2537e+001 -1.8075e+000 22938 112489,112541,112515
 6.4000e+000 112616 -4.3345e+001 -8.3855e+001 -6.8764e+000 22938 112411,112567,112437
 6.4000e+000 112593 -3.5792e+001 -1.1681e+002 -1.2846e-001 22938 112437,112489,112463
 6.4000e+000 113191 -1.1505e+000 -7.8856e+001 -1.0894e+001 22534 113214,112998,112946
 6.4000e+000 113168 -1.3810e+001 -6.8913e+001 -5.5418e+000 22534 113286,113214,112946
 6.4000e+000 113145 -9.8510e+000 -6.9224e+001 -4.5110e+000 22534 113286,112946,112920
 6.4000e+000 113122 -3.2577e+001 -6.2417e+001 -1.5724e+001 22534 113358,113024,112998
 6.4000e+000 113099 -1.9300e+001 -6.6082e+001 -3.2288e+000 22534 112868,113050,112894
 6.4000e+000 113076 -2.0469e+001 -1.1090e+002 -1.9803e+001 22534 112946,112998,112972
 6.4000e+000 113240 -2.3501e+001 -8.1038e+001 -1.6607e+001 22534 113358,112998,113214
 6.4000e+000 113263 -1.8659e+001 -7.2021e+001 -3.9207e+000 22534 113050,113214,112894
 6.4000e+000 113312 -8.8199e+000 -6.7764e+001 -4.3341e+000 22534 112894,113214,113286
 6.4000e+000 113335 -4.7878e+000 -6.8454e+001 -3.9985e+000 22534 112894,113286,112920
 6.4000e+000 113384 -2.2414e+001 -4.5110e+001 -1.1502e+001 22534 113050,113024,113358
 6.4000e+000 113407 -9.3758e+000 -6.0640e+001 -1.0334e+001 22534 113050,113358,113214
 6.4000e+000 113785 -3.2908e+001 -9.1639e+001  3.6026e+000 21978 113808,113615,113511
 6.4000e+000 113762 -2.6779e+001 -9.3060e+001  7.7766e+000 21978 113808,113511,113667
 6.4000e+000 113739 -1.4310e+001 -7.5772e+001 -3.8340e+000 21978 113511,113615,113537
 6.4000e+000 113716  1.4107e+001 -6.8166e+001 -8.0745e+000 21978 113537,113615,113589
 6.4000e+000 113693 -6.0612e+000 -9.8551e+001  1.2746e+000 21978 113537,113589,113563
 6.4000e+000 113834 -3.3855e+001 -9.1286e+001  1.1459e+001 21978 113641,113615,113808
 6.4000e+000 113857 -1.7453e+001 -8.5013e+001  1.6435e+001 21978 113641,113808,113667
 6.4000e+000 114284 -2.3436e+001 -7.5251e+001  2.0917e+000 21517 114013,114117,114039
 6.4000e+000 114261 -2.7614e+001 -7.5289e+001  6.2272e+000 21517 113961,114117,114013
 6.4000e+000 114238 -2.5207e+001 -7.4121e+001  7.0446e+000 21517 113961,114013,113987
 6.4000e+000 114215 -4.0931e+001 -8.7719e+001 -6.2644e+000 21517 114039,114117,114091
 6.4000e+000 114192 -2.8060e+001 -6.2898e+001  7.4473e+000 21517 113961,114143,114117
 6.4000e+000 114169 -5.3813e+000 -7.5090e+001 -6.4603e+000 21517 114039,114091,114065
 6.4000e+000 114581 -6.8153e+000 -8.5779e+001  8.3224e-001 21027 114359,114463,114437
 6.4000e+000 114558  6.5255e-001 -7.6829e+001  1.1175e+001 21027 114333,114463,114359
 6.4000e+000 114535  2.2418e+000 -7.7381e+001 -2.6691e+000 21027 114359,114437,114385
 6.4000e+000 114512  2.3194e+000 -7.6271e+001  1.0870e+001 21027 114307,114463,114333
 6.4000e+000 114489  2.3769e+001 -7.2113e+001 -3.8763e+000 21027 114385,114437,114411
 6.4000e+000 114912 -3.2660e+001 -7.7554e+001  1.5667e+000 20623 114713,114791,114765
 6.4000e+000 114889 -2.3314e+001 -7.3717e+001 -5.2464e+000 20623 114687,114791,114713
 6.4000e+000 114866 -1.4075e+001 -8.0494e+001 -6.6290e+000 20623 114687,114817,114791
 6.4000e+000 114843 -5.0424e+001 -9.5776e+001  9.1463e+000 20623 114713,114765,114739
 6.4000e+000 115290 -8.4404e+000 -7.0342e+001  4.2456e+000 20375 115313,115146,115094
 6.4000e+000 115267 -1.4715e+001 -6.6598e+001  7.6650e+000 20375 115313,115094,115042
 6.4000e+000 115244 -1.9250e+001 -6.3824e+001  2.2408e+000 20375 115385,115016,115172
 6.4000e+000 115221 -6.4202e+000 -6.2239e+001  6.0600e+000 20375 115042,115094,115068
 6.4000e+000 115198 -1.4074e+001 -8.3922e+001  4.1079e+000 20375 115094,115146,115120
 6.4000e+000 115339 -2.1698e+001 -8.4664e+001 -3.0236e+000 20375 115172,115146,115313
 6.4000e+000 115362 -1.0740e+001 -6.6162e+001  2.6585e+000 20375 115385,115172,115313
 6.4000e+000 115411 -2.3894e+001 -6.6401e+001  3.2729e+000 20375 115042,115016,115385
 6.4000e+000 115434 -1.9848e+001 -7.1714e+001  5.0476e+000 20375 115042,115385,115313
 6.4000e+000 115891 -3.7225e+001 -7.2097e+001  9.8108e+000 19971 115617,115747,115643
 6.4000e+000 115868 -3.2875e+001 -6.2811e+001  1.1388e+001 19971 115617,115773,115747
 6.4000e+000 115845 -2.6952e+001 -1.1942e+002  2.7621e+000 19971 115643,115721,115695
 6.4000e+000 115822 -8.2797e-001 -5.5471e+001  7.5151e-001 19971 115643,115747,115721
 6.4000e+000 115799 -2.1603e+001 -1.4768e+002 -1.1068e+001 19971 115643,115695,115669
 6.4000e+000 115992 -5.2526e+001 -1.3599e+002 -2.4412e+001 19659 115914,115966,115940
 6.4000e+000 116142 -1.0837e+001 -3.2228e+001  1.0727e+000 18997 116041,116093,116067
 6.4000e+000 116119 -1.9929e+001 -5.5267e+001  3.1055e+000 18997 116015,116093,116041
 6.4000e+000 116343 -1.5250e+001 -8.3566e+001 -1.8130e+000 18707 116193,116245,116219
 6.4000e+000 116320 -3.5629e+001 -9.2405e+001 -3.4702e+000 18707 116193,116271,116245
 6.4000e+000 116297 -3.4398e+001 -8.5166e+001 -7.5444e+000 18707 116167,116271,116193
 6.4000e+000 116747 -1.2312e+001 -7.5045e+001 -1.5107e+000 18301 116525,116629,116551
 6.4000e+000 116724 -6.5162e+000 -6.3805e+001  1.6727e+000 18301 116473,116629,116525
 6.4000e+000 116701 -3.8270e+000 -6.1942e+001 -3.6788e+000 18301 116473,116525,116499
 6.4000e+000 116678 -9.5447e+000 -7.8404e+001 -9.0579e-001 18301 116551,116603,116577
 6.4000e+000 116655 -1.5361e+001 -8.2209e+001 -2.6346e+000 18301 116551,116629,116603
 6.4000e+000 117147 -3.3234e+001 -8.0295e+001  1.3994e+000 17747 116899,117029,116925
 6.4000e+000 117124 -1.7566e+001 -5.9854e+001  9.3245e+000 17747 116873,117029,116899
 6.4000e+000 117101 -3.2450e+001 -7.8870e+001  1.7210e+000 17747 116925,117029,116951
 6.4000e+000 117078 -2.5163e+001 -6.1011e+001  1.4813e+000 17747 116951,117029,117003
 6.4000e+000 117055 -4.0469e+001 -9.2648e+001 -6.8524e+000 17747 116951,117003,116977
 6.4000e+000 117368  9.1250e+000 -8.3343e+001  2.8040e+000 17293 117244,117296,117270
 6.4000e+000 117345 -4.0378e+000 -8.7574e+001 -9.5036e-001 17293 117192,117296,117244
 6.4000e+000 117322 -1.4275e+001 -8.1285e+001 -7.3731e-001 17293 117192,117244,117218
 6.4000e+000 117699 -8.8130e+000 -6.7810e+001 -6.6841e+000 16896 117526,117604,117552
 6.4000e+000 117676 -4.4053e+001 -1.0445e+002  7.7734e+000 16896 117500,117604,117526
 6.4000e+000 117653 -4.5742e+001 -8.1022e+001 -3.2502e+000 16896 117552,117604,117578
 6.4000e+000 117630 -4.4592e+001 -1.3876e+002  1.0441e+001 16896 117474,117604,117500
 6.4000e+000 117849 -9.1663e+001 -1.8013e+002 -6.7082e+000 16534 117722,117774,117748
 6.4000e+000 117826 -7.1503e+001 -2.1717e+002 -2.9757e+001 16534 117722,117800,117774
 6.4000e+000 118070  1.3803e+000 -8.5534e+001  1.0850e+001 16194 117946,117998,117972
 6.4000e+000 118047 -1.2470e+001 -9.6372e+001  4.2753e+000 16194 117894,117998,117946
 6.4000e+000 118024 -4.8646e+001 -9.9089e+001  2.7454e-002 16194 117894,117946,117920
 6.4000e+000 118173  7.8867e-001 -7.5590e+001  0.0000e+000 15968 118095,118147,118121
 6.4000e+000 118276 -2.1450e+001 -8.7780e+001  8.1154e-001 15433 118299,118198,118250
 6.4000e+000 118325 -2.1659e+001 -8.8267e+001  8.1642e-001 15433 118224,118198,118299
 6.4000e+000 118450 -4.2246e+001 -9.1438e+001  8.5712e+000 421 118372,118424,118398
 6.5000e+000 69891 -1.6006e+001 -7.5961e+001  2.6476e+000 68988 69447,69681,69629
 6.5000e+000 69868  4.7010e+000 -6.8040e+001  2.0345e+000 68988 69421,69681,69447
 6.5000e+000 69845 -2.9949e+000 -3.6334e+001  5.0098e-001 68988 69447,69629,69577
 6.5000e+000 69822 -2.6709e+001 -7.8900e+001 -9.2660e+000 68988 69447,69577,69473
 6.5000e+000 69799 -5.2476e+000 -9.4117e+001  1.6422e+001 68988 69629,69681,69655
 6.5000e+000 69776 -3.0457e+001 -4.8091e+001  8.8501e-001 68988 69577,69629,69603
 6.5000e+000 69753 -2.1979e+001 -7.2350e+001 -1.2364e+001 68988 69473,69577,69551
 6.5000e+000 69730 -2.7578e+001 -1.4202e+002 -1.3716e+001 68988 69473,69551,69525
 6.5000e+000 69707 -4.3554e+001 -9.3017e+001  4.9861e-001 68988 69473,69525,69499
 6.5000e+000 69992 -5.5299e+001 -8.9186e+001 -1.3042e+001 68676 69914,69966,69940
 6.5000e+000 70392 -4.9679e+001 -8.3056e+001  8.7261e+000 68478 70118,70248,70144
 6.5000e+000 70369 -9.9620e+000 -9.0220e+001  1.9332e+001 68478 70118,70274,70248
 6.5000e+000 70346 -2.7230e+001 -6.0190e+001  5.4294e-001 68478 70144,70222,70196
 6.5000e+000 70323 -2.2360e+001 -4.7222e+001 -3.2683e+000 68478 70144,70248,70222
 6.5000e+000 70300 -2.6408e+001 -6.3858e+001  7.0191e-001 68478 70144,70196,70170
 6.5000e+000 70841  1.0636e+001 -5.6003e+001 -1.5326e+001 68280 70570,70622,70596
 6.5000e+000 70818 -3.1639e+001 -6.3763e+001 -3.3843e+000 68280 70544,70622,70570
 6.5000e+000 70795 -2.4816e+001 -4.8234e+001 -2.1393e+000 68280 70544,70674,70622
 6.5000e+000 70772 -2.2591e+001 -4.3249e+001  7.7170e-001 68280 70622,70674,70648
 6.5000e+000 70749 -3.3647e+001 -7.0784e+001  4.9628e+000 68280 70518,70674,70544
 6.5000e+000 70726  1.4307e+001 -7.5608e+001  1.8957e+001 68280 70518,70700,70674
 6.5000e+000 70991 -3.5685e+000 -3.0776e+002  9.8953e+000 67968 70864,70916,70890
 6.5000e+000 70968 -8.5312e+001 -3.0395e+002  3.9538e+001 67968 70864,70942,70916
 6.5000e+000 71141 -1.3895e+002 -2.6342e+002 -1.2119e+001 67770 71040,71092,71066
 6.5000e+000 71118 -1.1919e+002 -3.1944e+002  1.5317e+001 67770 71014,71092,71040
 6.5000e+000 71651 -2.3570e+001 -6.0910e+001 -8.0066e+000 67366 71746,71674,71458
 6.5000e+000 71628 -1.5820e+001 -4.3476e+001 -1.2137e+001 67366 71674,71354,71510
 6.5000e+000 71605 -2.4167e+001 -6.9254e+001 -6.4212e+000 67366 71746,71458,71432
 6.5000e+000 71582 -3.7015e+001 -6.9612e+001  4.1574e+000 67366 71354,71432,71380
 6.5000e+000 71559 -3.5182e+001 -5.0231e+001 -5.1195e+000 67366 71380,71432,71406
 6.5000e+000 71536 -1.8044e+001 -1.7893e+001 -3.1973e+000 67366 71328,71510,71354
 6.5000e+000 71700 -2.3761e+001 -5.3313e+001 -4.2223e+000 67366 71484,71458,71674
 6.5000e+000 71723 -2.0920e+001 -5.2115e+001 -4.2114e+000 67366 71484,71674,71510
 6.5000e+000 71772 -2.4510e+001 -5.0997e+001 -7.8552e+000 67366 71354,71674,71746
 6.5000e+000 71795 -2.3087e+001 -5.7133e+001 -7.6649e+000 67366 71354,71746,71432
 6.5000e+000 71896 -4.5492e+001 -9.2840e+001  0.0000e+000 67146 71818,71870,71844
 6.5000e+000 71997 -4.1131e+001 -8.7332e+001  1.7400e+001 66948 71919,71971,71945
 6.5000e+000 72149 -1.3988e+001 -5.8759e+001 -8.2936e+000 66700 72172,72074,72048
 6.5000e+000 72126 -3.0479e+001 -6.9196e+001 -3.3314e+000 66700 72172,72048,72022
 6.5000e+000 72198 -4.3920e+001 -7.2995e+001  3.6392e+000 66700 72244,72172,72100
 6.5000e+000 72221 -3.7426e+001 -6.6359e+001 -3.6091e+000 66700 72100,72172,72022
 6.5000e+000 72270 -2.7810e+001 -3.7172e+001 -5.4520e+000 66700 72074,72172,72244
 6.5000e+000 72623 -3.3005e+001 -6.4687e+001  9.6401e-001 66502 72424,72502,72450
 6.5000e+000 72600 -2.9994e+001 -5.7139e+001  9.9079e-001 66502 72398,72502,72424
 6.5000e+000 72577 -2.4212e+001 -6.2936e+001 -6.1130e-001 66502 72398,72528,72502
 6.5000e+000 72554 -3.7328e+001 -6.0385e+001  1.8373e-001 66502 72450,72502,72476
 6.5000e+000 72920 -4.7396e+001 -9.0701e+001  2.4010e+000 65941 72672,72776,72750
 6.5000e+000 72897 -4.3951e+001 -7.7473e+001  8.8934e+000 65941 72646,72776,72672
 6.5000e+000 72874 -4.2094e+001 -8.9931e+001  4.1280e+000 65941 72672,72750,72724
 6.5000e+000 72851 -4.4069e+001 -7.4651e+001  8.1983e+000 65941 72672,72724,72698
 6.5000e+000 72828 -3.3164e+001 -7.5326e+001  7.5132e+000 65941 72646,72802,72776
 6.5000e+000 73241 -2.3487e+001 -6.0622e+001  1.3639e+000 65743 73264,73071,73045
 6.5000e+000 73218 -3.3399e+001 -6.7861e+001  5.8508e+000 65743 73480,73264,73045
 6.5000e+000 73195 -2.5629e+001 -5.8497e+001 -1.2004e-001 65743 73336,72967,73097
 6.5000e+000 73172 -3.5863e+001 -5.5118e+001 -2.9335e+000 65743 73408,72993,72967
 6.5000e+000 73149 -2.5004e+001 -5.9957e+001 -7.6200e-001 65743 72967,73123,73097
 6.5000e+000 73290 -2.4572e+001 -6.0891e+001  7.7499e-001 65743 73097,73071,73264
 6.5000e+000 73313 -2.4827e+001 -5.8066e+001  1.0427e+000 65743 73336,73097,73264
 6.5000e+000 73362 -3.1984e+001 -6.0127e+001 -1.4237e+000 65743 73408,72967,73336
 6.5000e+000 73385 -2.1141e+001 -5.6515e+001  9.6535e-001 65743 73019,73336,73264
 6.5000e+000 73434 -2.9169e+001 -4.3762e+001  3.1910e+000 65743 73019,72993,73408
 6.5000e+000 73457 -2.1550e+001 -5.1556e+001  2.9950e+000 65743 73019,73408,73336
 6.5000e+000 73506 -1.9222e+001 -4.3672e+001  1.9362e-002 65743 73019,73264,73480
 6.5000e+000 73989 -8.8921e+000 -5.3640e+001  5.9413e+000 65453 73793,73845,73819
 6.5000e+000 73966 -3.2473e+001 -5.9423e+001  7.2252e+000 65453 73741,73845,73793
 6.5000e+000 73943 -1.4908e+001 -4.9593e+001  3.3448e+000 65453 73715,73845,73741
 6.5000e+000 73920 -2.7233e+001 -6.6155e+001  1.2159e+001 65453 73741,73793,73767
 6.5000e+000 73897 -2.7232e+000 -2.6967e+001 -1.2941e+000 65453 73715,73871,73845
 6.5000e+000 74357 -1.5785e+001 -4.6549e+001 -1.8866e+001 65141 74380,74138,74086
 6.5000e+000 74334 -2.9166e+001 -7.2775e+001 -1.4213e+001 65141 74380,74086,74060
 6.5000e+000 74311 -2.5641e+001 -6.9406e+001 -4.7345e+000 65141 74138,74190,74164
 6.5000e+000 74288 -2.8521e+001 -7.8814e+001 -4.1177e+000 65141 74060,74216,74190
 6.5000e+000 74265 -3.0373e+001 -8.4381e+001  5.9782e-001 65141 74034,74216,74060
 6.5000e+000 74242 -9.2845e+000 -1.8042e+001 -5.6150e+000 65141 74086,74138,74112
 6.5000e+000 74406 -2.1972e+001 -6.8869e+001 -6.4070e+000 65141 74190,74138,74380
 6.5000e+000 74429 -2.6600e+001 -7.8397e+001 -3.7983e+000 65141 74190,74380,74060
 6.5000e+000 74937 -3.6922e+001 -5.6809e+001 -1.2161e+001 64737 74614,74666,74640
 6.5000e+000 74914 -4.0158e+001 -7.2301e+001 -8.7409e+000 64737 74614,74796,74666
 6.5000e+000 74891 -2.9364e+001 -4.7806e+001 -7.7320e-002 64737 74960,74718,74666
 6.5000e+000 74868 -2.8694e+001 -5.3687e+001 -5.0362e+000 64737 74960,74666,74770
 6.5000e+000 74845 -2.9391e+001 -4.8417e+001 -5.3934e+000 64737 74666,74796,74770
 6.5000e+000 74822 -2.7159e+001 -5.1469e+001  2.3662e+000 64737 74666,74718,74692
 6.5000e+000 74986 -2.9670e+001 -5.3792e+001 -2.5208e+000 64737 74744,74718,74960
 6.5000e+000 75009 -3.2188e+001 -6.3123e+001 -8.0411e+000 64737 74744,74960,74770
 6.5000e+000 75306 -1.7665e+001 -5.4710e+001  1.0872e+001 64133 75329,75110,75084
 6.5000e+000 75283 -2.3872e+001 -6.7860e+001  3.4846e+000 64133 75401,75329,75084
 6.5000e+000 75260 -2.4922e+001 -6.8927e+001  2.9631e+000 64133 75401,75084,75058
 6.5000e+000 75237 -2.2442e+001 -8.2224e+001  1.2252e+001 64133 75473,75136,75110
 6.5000e+000 75214 -2.0795e+001 -6.4933e+001  1.0563e+000 64133 75032,75188,75162
 6.5000e+000 75355 -2.6400e+001 -7.5459e+001  9.4222e+000 64133 75473,75110,75329
 6.5000e+000 75378 -2.0112e+001 -6.5862e+001  1.1883e+000 64133 75162,75329,75032
 6.5000e+000 75427 -1.8786e+001 -6.2819e+001  1.3900e+000 64133 75032,75329,75401
 6.5000e+000 75450 -3.2777e+001 -7.4490e+001  7.4328e+000 64133 75545,75401,75058
 6.5000e+000 75499 -1.8141e+001 -7.3965e+001  4.9833e+000 64133 75162,75136,75473
 6.5000e+000 75522 -2.2153e+001 -6.3375e+001  3.9587e+000 64133 75162,75473,75329
 6.5000e+000 75571 -1.9586e+001 -4.5611e+001  2.5140e+000 64133 75032,75401,75545
 6.5000e+000 75851 -3.3056e+001 -6.0570e+001  1.8782e+000 63843 75874,75753,75727
 6.5000e+000 75828 -2.9345e+001 -5.7305e+001 -1.7155e+000 63843 75946,75874,75727
 6.5000e+000 75805 -3.2193e+001 -6.0802e+001 -1.6308e-001 63843 76018,75946,75727
 6.5000e+000 75900 -3.0045e+001 -5.9352e+001 -3.7484e+000 63843 75779,75753,75874
 6.5000e+000 75923 -2.8687e+001 -4.8715e+001 -6.8647e+000 63843 75779,75874,75675
 6.5000e+000 75972 -3.1413e+001 -5.6425e+001 -1.6817e+000 63843 75675,75874,75946
 6.5000e+000 75995 -2.9366e+001 -5.6112e+001 -2.9994e+000 63843 75675,75946,75701
 6.5000e+000 76044 -3.0975e+001 -5.6047e+001 -2.6931e+000 63843 75701,75946,76018
 6.5000e+000 76454  8.4346e-001 -7.2191e+000 -3.5370e+000 63439 76477,76255,76229
 6.5000e+000 76431 -6.8991e+000 -1.9037e+001  2.4948e+000 63439 76477,76229,76359
 6.5000e+000 76408 -6.3526e+000 -1.6630e+001  9.9912e+000 63439 76307,76359,76333
 6.5000e+000 76385 -4.7790e+000 -2.6071e+001 -8.8467e-001 63439 76255,76307,76281
 6.5000e+000 76503 -8.8316e+000 -1.7062e+001  3.2591e+000 63439 76307,76255,76477
 6.5000e+000 76526 -7.6305e+000 -2.1232e+001  7.8122e+000 63439 76307,76477,76359
 6.5000e+000 76926 -1.6352e+001 -3.3132e+001  1.0621e+000 63049 76704,76782,76756
 6.5000e+000 76903 -1.6984e+001 -3.2418e+001 -2.8740e+000 63049 76704,76808,76782
 6.5000e+000 76880 -1.3238e+001 -3.5850e+001  1.0036e+000 63049 76704,76756,76730
 6.5000e+000 76857 -1.0894e+001 -1.8412e+001  2.5432e+000 63049 76678,76808,76704
 6.5000e+000 76834 -3.2716e+000 -2.4104e+000 -3.7790e+000 63049 76652,76808,76678
 6.5000e+000 77076 -9.5512e+000 -7.5504e+001 -9.3562e-001 62737 76975,77027,77001
 6.5000e+000 77053 -7.1437e+000 -8.2411e+001 -4.7256e+000 62737 76949,77027,76975
 6.5000e+000 77324 -3.0622e+001 -6.7567e+001 -7.7141e-001 62277 77347,77177,77125
 6.5000e+000 77301 -3.0843e+001 -6.5897e+001 -3.5372e+000 62277 77347,77125,77229
 6.5000e+000 77278 -2.8530e+001 -7.0589e+001 -6.5869e+000 62277 77099,77229,77125
 6.5000e+000 77255 -3.3368e+001 -7.9315e+001  1.0287e+000 62277 77125,77177,77151
 6.5000e+000 77373 -3.2165e+001 -7.2593e+001  7.5271e-001 62277 77203,77177,77347
 6.5000e+000 77396 -2.9794e+001 -6.8275e+001 -2.4169e+000 62277 77203,77347,77229
 6.5000e+000 77857 -2.1943e+001 -9.0676e+001  1.3949e+000 61758 77635,77739,77661
 6.5000e+000 77834 -2.9322e+001 -9.1637e+001 -2.4621e+000 61758 77583,77739,77635
 6.5000e+000 77811 -3.1190e+001 -1.1106e+002 -1.0743e+001 61758 77583,77635,77609
 6.5000e+000 77788 -2.3880e+001 -9.1351e+001  6.8789e+000 61758 77661,77713,77687
 6.5000e+000 77765 -2.8225e+001 -9.9963e+001  5.0703e+000 61758 77661,77739,77713
 6.5000e+000 78491 -2.6571e+001 -4.5999e+001  2.0143e+000 61418 78171,78301,78249
 6.5000e+000 78468 -1.9783e+001 -3.7765e+001  5.4021e+000 61418 78145,78301,78171
 6.5000e+000 78445 -1.9219e+001 -4.0923e+001 -1.4690e+000 61418 78171,78249,78223
 6.5000e+000 78422 -1.9521e+001 -3.7483e+001  1.2298e+000 61418 78145,78327,78301
 6.5000e+000 78399 -2.8056e+001 -5.4962e+001 -2.7375e+000 61418 78249,78301,78275
 6.5000e+000 78376 -1.1836e+001 -4.6850e+001 -2.3286e+000 61418 78171,78223,78197
 6.5000e+000 78353 -2.3225e+001 -4.9452e+001 -2.0041e+000 61418 78119,78327,78145
 6.5000e+000 78690 -1.7310e+001 -4.4567e+001  2.3808e+000 61014 78713,78566,78540
 6.5000e+000 78667 -1.4718e+001 -4.5896e+001  3.0247e+000 61014 78713,78540,78618
 6.5000e+000 78644 -1.9492e+001 -5.1516e+001 -4.4149e+000 61014 78514,78618,78540
 6.5000e+000 78739 -1.0343e+001 -3.9571e+001  5.8831e+000 61014 78592,78566,78713
 6.5000e+000 78762 -1.9363e+001 -4.8353e+001  1.0625e+000 61014 78785,78713,78618
 6.5000e+000 78811 -5.4274e+000 -4.2421e+001  1.3092e+000 61014 78592,78713,78785
 6.5000e+000 79398 -9.1075e+000 -4.5346e+001 -3.2449e+000 60624 79101,79179,79153
 6.5000e+000 79375 -1.2936e+001 -4.9015e+001 -1.6616e+000 60624 79101,79231,79179
 6.5000e+000 79352 -8.6435e+000 -4.8546e+001 -3.4037e+000 60624 79075,79231,79101
 6.5000e+000 79329 -3.5577e+000 -5.6972e+001  4.8404e+000 60624 79075,79257,79231
 6.5000e+000 79306 -1.0881e+001 -4.0907e+001 -5.6266e+000 60624 79179,79231,79205
 6.5000e+000 79283 -6.3547e+000 -3.8945e+001 -2.2445e+000 60624 79101,79153,79127
 6.5000e+000 79776 -3.2556e+001 -7.0424e+001  4.1577e+000 60070 79528,79658,79606
 6.5000e+000 79753 -3.1839e+001 -6.2148e+001 -8.0934e-001 60070 79502,79658,79528
 6.5000e+000 79730 -3.9843e+001 -6.8359e+001  7.1005e+000 60070 79528,79606,79580
 6.5000e+000 79707 -1.9668e+001 -6.3694e+001  6.1829e-001 60070 79606,79658,79632
 6.5000e+000 79684 -3.8143e+000 -4.2268e+001 -1.0450e+001 60070 79528,79580,79554
 6.5000e+000 80105 -2.4502e+001 -5.6074e+001  6.0353e+000 59758 80128,79958,79906
 6.5000e+000 80082 -2.3085e+001 -5.4148e+001  5.1321e+000 59758 80128,79906,80010
 6.5000e+000 80059 -3.2278e+001 -6.0271e+001  1.6882e+001 59758 79906,79958,79932
 6.5000e+000 80036 -3.2209e+001 -6.0184e+001  2.5467e+000 59758 79880,80010,79906
 6.5000e+000 80154 -2.3707e+001 -5.7391e+001  6.9136e+000 59758 79984,79958,80128
 6.5000e+000 80177 -2.2987e+001 -5.6045e+001  6.1759e+000 59758 79984,80128,80010
 6.5000e+000 80376 -1.4655e+001 -4.0649e+001  1.0276e+000 59312 80226,80304,80252
 6.5000e+000 80353 -1.3791e+001 -4.1418e+001  1.2694e+000 59312 80200,80304,80226
 6.5000e+000 80330 -2.1325e+001 -3.7509e+001  1.1119e+001 59312 80252,80304,80278
 6.5000e+000 80805 -2.1181e+001 -4.6342e+001 -7.2369e+000 58908 80900,80828,80638
 6.5000e+000 80782 -1.8533e+001 -5.6446e+001 -1.0819e+001 58908 80828,80560,80508
 6.5000e+000 80759 -2.1970e+001 -4.3737e+001 -3.0898e+000 58908 80900,80638,80612
 6.5000e+000 80736 -8.7161e+000 -4.9733e+001  2.0130e+001 58908 80482,80664,80508
 6.5000e+000 80713 -1.6040e+001 -4.0425e+001 -1.9464e+000 58908 80560,80612,80586
 6.5000e+000 80690 -2.0663e+001 -1.4811e+002 -2.8039e+001 58908 80508,80560,80534
 6.5000e+000 80854 -1.0155e+001 -5.0882e+001  1.1113e+000 58908 80664,80638,80828
 6.5000e+000 80877 -1.7480e+001 -7.4975e+001  2.3256e+000 58908 80664,80828,80508
 6.5000e+000 80926 -1.8630e+001 -3.8732e+001 -7.6343e+000 58908 80560,80828,80900
 6.5000e+000 80949 -2.0408e+001 -3.8609e+001 -2.8915e+000 58908 80560,80900,80612
 6.5000e+000 81246 -1.1169e+001 -4.9445e+001 -7.5552e-001 58482 81076,81128,81102
 6.5000e+000 81223 -2.5045e+001 -8.2143e+001 -7.7737e+000 58482 80972,81128,81076
 6.5000e+000 81200 -1.5884e+001 -5.6303e+001 -9.4042e+000 58482 80972,81076,81050
 6.5000e+000 81177 -3.3585e+001 -8.3915e+001 -4.1206e+000 58482 80998,81050,81024
 6.5000e+000 81154 -1.9661e+001 -6.6782e+001 -1.0096e+001 58482 80972,81050,80998
 6.5000e+000 81754 -2.5034e+001 -4.7279e+001  1.5624e+000 57828 81457,81613,81483
 6.5000e+000 81731 -2.9226e+001 -5.6647e+001  6.9505e-001 57828 81431,81613,81457
 6.5000e+000 81708 -2.6900e+001 -5.1616e+001  2.7084e+000 57828 81483,81613,81509
 6.5000e+000 81685 -3.3669e+001 -5.9071e+001  5.5970e+000 57828 81509,81613,81587
 6.5000e+000 81662 -3.5799e+001 -8.5291e+001  1.1112e+001 57828 81509,81587,81535
 6.5000e+000 81639 -1.8789e+001 -7.2077e+001  4.5861e+000 57828 81535,81587,81561
 6.5000e+000 82002 -3.1965e+001 -8.0147e+001 -2.9581e-001 57374 82025,81855,81829
 6.5000e+000 81979 -3.4614e+001 -7.2993e+001  5.5115e+000 57374 82025,81829,81907
 6.5000e+000 81956 -3.5817e+001 -6.7611e+001  4.0808e+000 57374 81803,81907,81829
 6.5000e+000 81933 -1.8327e+001 -5.9479e+001  6.5366e+000 57374 81777,81907,81803
 6.5000e+000 82051 -3.1880e+001 -7.1650e+001 -6.9979e-001 57374 81881,81855,82025
 6.5000e+000 82074 -3.2709e+001 -6.5090e+001  7.1522e+000 57374 81881,82025,81907
 6.5000e+000 82356 -2.5130e+001 -5.3365e+001 -3.1986e+000 56913 82180,82232,82206
 6.5000e+000 82333 -2.1905e+001 -4.8705e+001  2.1718e+000 56913 82180,82284,82232
 6.5000e+000 82310 -6.9827e+000 -3.5410e+001  8.0471e+000 56913 82379,82232,82284
 6.5000e+000 82405  4.6473e+000 -3.4123e+001  8.2549e-001 56913 82258,82232,82379
 6.5000e+000 82764 -2.4180e+001 -3.3766e+001 -3.9445e+000 56523 82614,82666,82640
 6.5000e+000 82741 -2.1902e+001 -3.2978e+001 -5.0852e+000 56523 82614,82692,82666
 6.5000e+000 82718 -1.6772e+001 -3.4425e+001 -1.0302e+001 56523 82588,82692,82614
 6.5000e+000 83368 -2.6051e-001 -4.6300e+001 -1.4743e+000 55969 82973,83155,83129
 6.5000e+000 83345  9.7086e-001 -4.6516e+001 -4.3491e+000 55969 82973,83181,83155
 6.5000e+000 83322 -1.1406e+001 -3.8000e+001 -1.2009e+000 55969 82973,83129,82999
 6.5000e+000 83299 -1.8937e+001 -3.9770e+001  1.4009e+000 55969 83391,83025,82999
 6.5000e+000 83276 -1.6204e+001 -4.0564e+001  4.1140e-001 55969 83391,82999,83129
 6.5000e+000 83253 -1.1794e-001 -3.4466e+001  9.6711e+000 55969 83077,83129,83103
 6.5000e+000 83230 -2.0222e+001 -3.2461e+001 -1.5665e+000 55969 83025,83077,83051
 6.5000e+000 83207 -3.2656e-001 -4.5084e+001  2.1674e+000 55969 82947,83181,82973
 6.5000e+000 83417 -1.6264e+001 -3.8429e+001  1.8583e+000 55969 83077,83025,83391
 6.5000e+000 83440 -1.5307e+001 -4.0094e+001  5.8541e-001 55969 83077,83391,83129
 6.5000e+000 83946 -4.3560e+001 -8.9868e+001  1.4631e+001 55771 83969,83779,83727
 6.5000e+000 83923 -3.5210e+001 -7.2508e+001  9.9990e+000 55771 83969,83727,83623
 6.5000e+000 83900 -3.9580e+001 -3.5442e+001  5.3890e+000 55771 83623,83727,83649
 6.5000e+000 83877 -3.2848e+001 -1.4851e+002  8.4683e+000 55771 83727,83779,83753
 6.5000e+000 83854 -4.9646e+001 -7.4480e+001  1.4727e+001 55771 83675,83727,83701
 6.5000e+000 83831 -6.0972e+001 -5.7667e+001  2.3859e+001 55771 83649,83727,83675
 6.5000e+000 83995 -4.1982e+001 -9.3633e+001 -6.9021e+000 55771 83805,83779,83969
 6.5000e+000 84018 -2.4530e+001 -5.9086e+001 -1.3393e+001 55771 83805,83969,83623
 6.5000e+000 84168 -1.9287e+001 -4.4555e+001 -7.1786e-001 55367 84191,84067,84041
 6.5000e+000 84145 -1.9281e+001 -4.7298e+001 -4.3915e-001 55367 84191,84041,84119
 6.5000e+000 84217 -1.9980e+001 -4.2814e+001 -6.9376e-001 55367 84093,84067,84191
 6.5000e+000 84240 -1.9272e+001 -4.4521e+001  3.5055e-001 55367 84093,84191,84119
 6.5000e+000 84571 -1.2906e+001 -5.9989e+001 -6.5140e+000 54913 84398,84450,84424
 6.5000e+000 84548 -1.1571e+001 -5.5573e+001 -3.8957e+000 54913 84372,84450,84398
 6.5000e+000 84525 -1.5102e+001 -6.0836e+001  1.4712e+000 54913 84346,84450,84372
 6.5000e+000 84502 -6.5908e+000 -4.1076e+001 -6.8344e+000 54913 84346,84476,84450
 6.5000e+000 85126 -3.5258e+001 -7.1124e+001 -4.9044e+000 54402 84858,84936,84910
 6.5000e+000 85103 -2.7627e+001 -5.3622e+001 -5.8638e+000 54402 84806,84936,84858
 6.5000e+000 85080 -3.1850e+001 -4.8953e+001 -4.4298e+000 54402 84780,84936,84806
 6.5000e+000 85057 -2.4193e+001 -6.0936e+001 -9.7516e-001 54402 84806,84858,84832
 6.5000e+000 85034 -3.2237e+001 -4.7518e+001  2.9554e+000 54402 84780,84962,84936
 6.5000e+000 85011 -3.8776e+001 -4.0645e+001 -2.4408e+000 54402 84858,84910,84884
 6.5000e+000 84988 -3.2017e+001 -5.0562e+001  4.2123e+000 54402 84754,84962,84780
 6.5000e+000 85396 -2.9780e+001 -3.5801e+001 -2.3071e+000 53998 85197,85249,85223
 6.5000e+000 85373 -2.3272e+001 -4.2709e+001 -1.1151e+000 53998 85197,85275,85249
 6.5000e+000 85350 -2.7992e+001 -4.9374e+001 -3.3282e+000 53998 85171,85275,85197
 6.5000e+000 85327 -1.3614e+001 -4.5572e+001 -4.2439e+000 53998 85171,85301,85275
 6.5000e+000 85749 -1.1241e+001 -4.0307e+001 -1.2261e+000 53636 85524,85628,85550
 6.5000e+000 85726 -1.8773e+001 -4.6552e+001  1.5790e+000 53636 85524,85654,85628
 6.5000e+000 85703 -6.8741e+000 -4.0585e+001 -3.6039e+000 53636 85550,85602,85576
 6.5000e+000 85680 -1.0898e+001 -4.0038e+001 -1.7332e+000 53636 85550,85628,85602
 6.5000e+000 86127 -4.2303e+000 -4.5035e+001  8.9033e+000 52982 86150,85957,85879
 6.5000e+000 86104 -1.7385e+001 -5.2807e+001  5.5522e+000 52982 86150,85879,85853
 6.5000e+000 86081 -3.0734e+000 -6.8456e+001  1.3929e+001 52982 85957,86009,85983
 6.5000e+000 86058 -2.0738e+001 -4.7814e+001  6.3073e+000 52982 85879,85957,85931
 6.5000e+000 86035 -1.2792e+001 -4.4061e+001 -2.1035e+000 52982 85879,85931,85905
 6.5000e+000 86176  3.6805e+000 -5.4190e+001  7.1976e+000 52982 86009,85957,86150
 6.5000e+000 86199 -4.1015e+000 -5.8571e+001  4.7632e+000 52982 86009,86150,85853
 6.5000e+000 86398 -1.6377e+001 -4.0994e+001  2.9246e+000 52542 86421,86248,86222
 6.5000e+000 86375 -2.3927e+001 -4.3906e+001 -5.6287e-001 52542 86421,86222,86300
 6.5000e+000 86352 -2.4726e+001 -4.7610e+001 -1.2680e+000 52542 86222,86326,86300
 6.5000e+000 86447 -7.5899e+000 -4.2268e+001  7.6246e+000 52542 86274,86248,86421
 6.5000e+000 86470 -1.5573e+001 -4.7524e+001  3.1318e+000 52542 86274,86421,86300
 6.5000e+000 86669 -1.7919e+001 -3.9820e+001 -1.3360e+001 52230 86692,86571,86545
 6.5000e+000 86646 -1.9477e+001 -4.1884e+001 -7.3777e+000 52230 86692,86545,86519
 6.5000e+000 86623 -2.8427e+001 -4.3363e+001 -4.2920e+000 52230 86493,86597,86519
 6.5000e+000 86718 -2.1686e+001 -4.0756e+001 -1.0175e+001 52230 86597,86571,86692
 6.5000e+000 86741 -2.7335e+001 -4.4635e+001 -4.1548e+000 52230 86597,86692,86519
 6.5000e+000 87153 -2.6617e+001 -3.6811e+001  2.1373e+000 51640 86980,87058,87032
 6.5000e+000 87130 -2.4781e+001 -3.7006e+001  2.0994e+000 51640 86928,87058,86980
 6.5000e+000 87107 -2.6468e+001 -4.7572e+001 -8.7894e-002 51640 86928,86980,86954
 6.5000e+000 87084 -1.3536e+001 -3.1216e+001  1.6253e+000 51640 86980,87032,87006
 6.5000e+000 87659 -1.3745e+001 -3.4748e+001  1.8578e+000 51029 87682,87440,87362
 6.5000e+000 87636 -1.1917e+001 -3.7270e+001 -3.8171e+000 51029 87682,87362,87336
 6.5000e+000 87613 -2.0978e+001 -5.7881e+001 -8.3353e-001 51029 87440,87518,87466
 6.5000e+000 87590 -1.9162e+001 -3.5122e+001  2.3364e+000 51029 87362,87440,87414
 6.5000e+000 87567 -1.6358e+001 -2.7270e+001  8.3190e+000 51029 87362,87414,87388
 6.5000e+000 87544 -2.6476e+001 -5.4041e+001  1.5493e+000 51029 87466,87518,87492
 6.5000e+000 87708 -1.3472e+001 -3.9772e+001  3.2443e-001 51029 87518,87440,87682
 6.5000e+000 87731 -1.3007e+001 -4.7173e+001 -3.2421e+000 51029 87518,87682,87336
 6.5000e+000 87881 -2.5521e+001 -5.6856e+001  1.1077e+000 50739 87780,87832,87806
 6.5000e+000 87858 -2.8388e+001 -5.5339e+001 -2.7357e+000 50739 87754,87832,87780
 6.5000e+000 88468 -1.9388e+001 -3.7094e+001  1.9696e+000 50235 88171,88327,88197
 6.5000e+000 88445 -4.2718e+001 -3.6564e+001 -6.8689e+000 50235 88145,88327,88171
 6.5000e+000 88422 -2.6647e-001 -1.6138e+001 -4.8081e-001 50235 88275,88327,88301
 6.5000e+000 88399 -1.2960e+001 -2.1572e+001 -2.8879e-001 50235 88197,88327,88275
 6.5000e+000 88376 -6.6849e+000 -3.2574e+001 -4.1102e-001 50235 88197,88275,88223
 6.5000e+000 88353 -7.3340e+000 -4.4493e+001 -4.5214e+000 50235 88223,88275,88249
 6.5000e+000 88895 -2.4752e+001 -5.8880e+001  1.4562e+000 49873 88918,88728,88676
 6.5000e+000 88872 -2.1116e+001 -5.4572e+001 -8.5467e-001 49873 88918,88676,88624
 6.5000e+000 88849 -1.7039e+001 -4.8800e+001 -2.4016e+000 49873 88598,88754,88624
 6.5000e+000 88826 -1.4026e+001 -5.1391e+001 -1.5759e+000 49873 88624,88676,88650
 6.5000e+000 88803 -1.6421e+001 -7.2199e+001  3.5785e+000 49873 88676,88728,88702
 6.5000e+000 88780 -2.1652e+001 -5.0449e+001 -2.9042e+000 49873 88572,88754,88598
 6.5000e+000 88944 -2.0491e+001 -5.8552e+001 -1.2488e+000 49873 88754,88728,88918
 6.5000e+000 88967 -1.9056e+001 -5.6902e+001 -3.1219e+000 49873 88754,88918,88624
 6.5000e+000 89473 -3.9493e+001 -5.5346e+001 -8.3433e+000 49583 89176,89306,89202
 6.5000e+000 89450 -3.4852e+001 -5.4036e+001 -6.9203e+000 49583 89176,89332,89306
 6.5000e+000 89427 -1.9460e+001 -5.6315e+001  3.6543e+000 49583 89496,89228,89202
 6.5000e+000 89404 -2.0159e+001 -5.7582e+001  4.1746e+000 49583 89496,89202,89280
 6.5000e+000 89381 -4.5258e+001 -7.4581e+001 -1.4038e+001 49583 89202,89306,89280
 6.5000e+000 89358 -2.6001e+001 -5.3696e+001 -7.9292e+000 49583 89150,89332,89176
 6.5000e+000 89522 -1.9013e+001 -4.7578e+001  2.0448e+000 49583 89254,89228,89496
 6.5000e+000 89545 -2.3581e+001 -5.4872e+001  4.0628e+000 49583 89254,89496,89280
 6.5000e+000 89825  1.3894e+000 -5.6337e+001  1.3347e+000 49179 89701,89753,89727
 6.5000e+000 89802 -8.6014e+000 -4.8398e+001  1.2659e+000 49179 89675,89753,89701
 6.5000e+000 89779 -6.7085e+000 -4.4650e+001  2.4318e+000 49179 89848,89753,89675
 6.5000e+000 89874 -3.6794e+001 -5.5235e+001 -5.9671e+000 49179 89649,89753,89848
 6.5000e+000 90223 -1.5552e+001 -4.6623e+001 -7.5138e+000 48739 90024,90102,90076
 6.5000e+000 90200 -1.4267e+001 -4.2554e+001 -2.7151e+000 48739 90024,90128,90102
 6.5000e+000 90177  5.2121e+000 -4.5734e+001 -7.5333e+000 48739 90024,90076,90050
 6.5000e+000 90154 -4.5634e+000 -4.0406e+001  2.4526e+000 48739 89998,90128,90024
 6.5000e+000 90603 -1.2330e+001 -3.4610e+001  8.6364e+000 48335 90381,90485,90459
 6.5000e+000 90580 -1.7573e+001 -4.3645e+001  6.4960e+000 48335 90355,90485,90381
 6.5000e+000 90557 -4.4146e+000 -1.0205e+001  3.0883e+000 48335 90381,90433,90407
 6.5000e+000 90534 -1.2679e+001 -3.7122e+001  5.8220e+000 48335 90381,90459,90433
 6.5000e+000 90511  1.1236e+001 -2.8670e+001  1.2129e+001 48335 90329,90485,90355
 6.5000e+000 90753  1.3443e-001 -2.2914e+001  1.4954e+001 47824 90776,90652,90704
 6.5000e+000 90730 -1.2880e+001 -4.3220e+001  7.1857e+000 47824 90626,90704,90652
 6.5000e+000 90802 -6.2171e+000 -2.9337e+001  1.2305e+001 47824 90678,90652,90776
 6.5000e+000 91131 -2.3432e+001 -6.7340e+001  3.5348e+000 47427 91154,90958,90906
 6.5000e+000 91108 -3.9057e+001 -7.4191e+001  5.3942e+000 47427 91154,90906,91036
 6.5000e+000 91085 -3.2679e+001 -5.3810e+001 -4.7241e+000 47427 90958,91010,90984
 6.5000e+000 91062 -2.4166e+001 -5.5489e+001  5.3391e+000 47427 90906,90958,90932
 6.5000e+000 91180 -3.1566e+001 -6.2943e+001 -7.1067e+000 47427 91010,90958,91154
 6.5000e+000 91203 -4.6201e+001 -6.9184e+001 -5.4757e+000 47427 91010,91154,91036
 6.5000e+000 91583 -2.5040e+001 -4.8853e+001 -4.4403e+000 46873 91309,91439,91335
 6.5000e+000 91560 -2.7580e+001 -4.6143e+001 -3.8459e+000 46873 91309,91465,91439
 6.5000e+000 91537 -4.0819e+001 -5.7459e+001 -1.8450e+001 46873 91361,91439,91413
 6.5000e+000 91514 -2.9634e+001 -5.1777e+001 -1.0528e+001 46873 91335,91439,91361
 6.5000e+000 91491 -1.3969e+001 -4.6470e+001 -1.5550e+001 46873 91361,91413,91387
 6.5000e+000 91880 -2.2000e+001 -6.2517e+001 -2.6112e+000 46526 91606,91710,91658
 6.5000e+000 91857 -2.2150e+001 -6.6447e+001  1.0168e-001 46526 91606,91762,91710
 6.5000e+000 91834 -1.5442e+001 -5.9640e+001 -7.2577e+000 46526 91606,91658,91632
 6.5000e+000 91811 -2.5321e+001 -5.6593e+001  8.2316e-001 46526 91658,91710,91684
 6.5000e+000 91788 -1.5366e+001 -4.6630e+001  1.3883e+000 46526 91710,91762,91736
 6.5000e+000 92211 -8.5199e+000 -2.1773e+001 -1.4100e+000 45700 91986,92064,92038
 6.5000e+000 92188 -1.2042e+001 -3.2223e+001  6.2924e-001 45700 91986,92116,92064
 6.5000e+000 92165 -5.4781e+000 -1.5871e+001 -3.2322e+000 45700 91986,92038,92012
 6.5000e+000 92142 -8.4053e+000 -3.3374e+001  3.9064e+000 45700 92064,92116,92090
 6.5000e+000 92766 -2.3318e+001 -4.7130e+001  3.4445e+000 45452 92446,92602,92576
 6.5000e+000 92743 -4.2535e+001 -4.7216e+001 -7.9470e+000 45452 92420,92602,92446
 6.5000e+000 92720 -3.4213e+001 -5.5152e+001  8.9598e+000 45452 92789,92524,92498
 6.5000e+000 92697 -3.7588e+001 -5.2190e+001  8.0779e+000 45452 92789,92498,92446
 6.5000e+000 92674 -3.4833e+001 -5.6779e+001 -1.6523e+000 45452 92524,92576,92550
 6.5000e+000 92651 -5.0268e+001 -5.6374e+001  3.0137e+001 45452 92446,92498,92472
 6.5000e+000 92628 -1.6070e+001 -4.4209e+001 -9.4063e+000 45452 92394,92602,92420
 6.5000e+000 92815 -3.1616e+001 -5.3567e+001  7.8950e+000 45452 92576,92524,92789
 6.5000e+000 92838 -3.4789e+001 -5.0765e+001  7.3116e+000 45452 92576,92789,92446
 6.5000e+000 92939 -2.4920e+001 -7.1503e+001 -1.4419e+001 44998 92861,92913,92887
 6.5000e+000 93319 -7.1683e+000 -7.3809e+001  1.2783e+001 44601 93123,93201,93149
 6.5000e+000 93296 -2.1553e+001 -7.1699e+001 -7.4890e+000 44601 93045,93201,93123
 6.5000e+000 93273 -1.4992e+001 -3.8262e+001 -1.1255e+001 44601 93045,93123,93071
 6.5000e+000 93250 -1.3204e+001 -3.5109e+001 -7.6917e+000 44601 93071,93123,93097
 6.5000e+000 93227 -2.2666e+000 -3.8949e+001  1.3260e+001 44601 93149,93201,93175
 6.5000e+000 93697 -1.6551e+001 -8.1692e+001  4.9308e+000 44026 93720,93553,93527
 6.5000e+000 93674 -2.7692e+001 -6.9232e+001  6.7882e+000 44026 93720,93527,93449
 6.5000e+000 93651 -3.0831e+001 -7.1514e+001 -1.0338e+000 44026 93449,93527,93501
 6.5000e+000 93628 -2.0933e+001 -5.4394e+001 -9.6439e+000 44026 93423,93579,93449
 6.5000e+000 93605 -6.3143e+000 -5.7653e+001  4.7434e+000 44026 93449,93501,93475
 6.5000e+000 93746 -9.0994e+000 -7.2094e+001  1.5999e+000 44026 93579,93553,93720
 6.5000e+000 93769 -2.0729e+001 -5.9677e+001  3.7073e+000 44026 93579,93720,93449
 6.5000e+000 94066 -1.6770e+001 -6.2111e+001 -8.9294e+000 43579 94089,93818,93792
 6.5000e+000 94043 -2.6728e+001 -7.0324e+001 -5.3970e+000 43579 94161,94089,93792
 6.5000e+000 94020 -2.6651e+001 -7.0854e+001 -2.4563e+000 43579 94161,93792,93948
 6.5000e+000 93997 -2.7914e+001 -5.3605e+001 -2.9456e+000 43579 94233,93870,93818
 6.5000e+000 93974 -1.5958e+001 -5.5253e+001  1.3673e+000 43579 93818,93870,93844
 6.5000e+000 94115 -2.7536e+001 -5.4096e+001 -6.1484e+000 43579 94233,93818,94089
 6.5000e+000 94138 -3.5707e+001 -6.1899e+001 -4.5054e+000 43579 93896,94089,93922
 6.5000e+000 94187 -2.4895e+001 -6.5489e+001 -6.2256e+000 43579 93922,94089,94161
 6.5000e+000 94210 -2.5251e+001 -6.5866e+001 -2.9817e+000 43579 93922,94161,93948
 6.5000e+000 94259 -3.0800e+001 -5.9716e+001 -2.1112e+000 43579 93896,93870,94233
 6.5000e+000 94282 -2.9699e+001 -5.9066e+001 -5.8171e+000 43579 93896,94233,94089
 6.5000e+000 94481 -2.2714e+001 -6.4962e+001 -5.0513e-001 43239 94305,94383,94357
 6.5000e+000 94458 -2.0158e+001 -5.9740e+001  7.0331e+000 43239 94305,94409,94383
 6.5000e+000 94435 -1.9129e+001 -6.6565e+001 -1.5564e+000 43239 94305,94357,94331
 6.5000e+000 94633 -6.5152e+000 -3.5979e+001  8.6590e+000 42827 94656,94532,94506
 6.5000e+000 94610 -1.7690e+001 -4.1246e+001  1.0193e+001 42827 94728,94656,94506
 6.5000e+000 94682 -8.6970e+000 -4.3087e+001  7.0307e+000 42827 94558,94532,94656
 6.5000e+000 94705 -1.9593e+000 -4.1299e+001  3.6818e+000 42827 94988,94860,94656
 6.5000e+000 94754 -8.5122e+000 -3.3810e+001  2.2245e+000 42827 94988,94656,94728
 6.5000e+000 94886  2.3853e+000 -3.9127e+001  4.4481e+000 42827 94558,94656,94860
 6.5000e+000 95014  3.6838e+000 -3.4877e+001  8.4996e-001 42827 94584,94860,94988
 6.5000e+000 95037 -2.6401e+000 -2.8954e+001 -8.9922e-001 42827 94584,94988,94728
 6.5000e+000 95236 -1.2647e+000 -3.6606e+001  7.2290e+000 42537 95259,95112,95060
 6.5000e+000 95213 -5.0637e+000 -3.0475e+001  4.6381e+000 42537 95259,95060,95164
 6.5000e+000 95190  2.2221e+000 -3.8238e+001  6.8657e-001 42537 95060,95112,95086
 6.5000e+000 95285 -3.7925e+000 -3.9830e+001  6.0167e+000 42537 95138,95112,95259
 6.5000e+000 95308 -8.8296e+000 -3.6515e+001  2.8294e+000 42537 95138,95259,95164
 6.5000e+000 95816 -2.1030e+001 -5.8057e+001 -3.2424e+000 41969 95493,95597,95519
 6.5000e+000 95793 -2.9091e+001 -5.0638e+001  5.2632e+000 41969 95493,95649,95597
 6.5000e+000 95770 -2.2519e+001 -4.9528e+001  6.5694e+000 41969 95493,95675,95649
 6.5000e+000 95747 -2.1439e+001 -6.7718e+001  4.8372e+000 41969 95597,95649,95623
 6.5000e+000 95724 -3.4539e+001 -5.0029e+001 -7.4770e+000 41969 95519,95597,95571
 6.5000e+000 95701 -3.0951e+001 -4.2802e+001 -1.1201e+001 41969 95519,95571,95545
 6.5000e+000 96371 -2.6997e+001 -6.5305e+001  8.1024e+000 41579 96025,96207,96181
 6.5000e+000 96348  8.2636e+000 -4.8760e+001 -4.2042e+000 41579 95999,96207,96025
 6.5000e+000 96325 -3.0012e+001 -4.9343e+001 -6.0002e+000 41579 96129,96181,96155
 6.5000e+000 96302 -1.0745e+001 -4.3519e+001 -2.0223e-001 41579 96025,96181,96129
 6.5000e+000 96279 -2.6398e+001 -6.8829e+001  9.9774e+000 41579 96025,96129,96051
 6.5000e+000 96256 -2.5104e+001 -5.7015e+001  6.9547e+000 41579 96051,96103,96077
 6.5000e+000 96233 -9.8593e+000 -4.4589e+001 -3.3152e-001 41579 96051,96129,96103
 6.5000e+000 96877 -8.0041e+000 -4.0247e+001 -5.4308e+000 41182 96972,96900,96632
 6.5000e+000 96854 -9.4112e+000 -2.7967e+001 -4.9821e+000 41182 96900,96554,96736
 6.5000e+000 96831 -7.5068e+000 -4.0575e+001 -4.0219e+000 41182 96972,96632,96580
 6.5000e+000 96808 -8.0942e+000 -3.6259e+001  5.5263e+000 41182 96632,96684,96658
 6.5000e+000 96785 -1.6355e+001 -4.3842e+001  5.4008e+000 41182 96684,96736,96710
 6.5000e+000 96762 -2.6636e+001 -5.4868e+001  1.0096e+001 41182 96580,96632,96606
 6.5000e+000 96926 -6.7275e+000 -4.4906e+001 -5.1820e+000 41182 96684,96632,96900
 6.5000e+000 96949 -1.2412e+001 -3.9541e+001 -8.5865e+000 41182 96684,96900,96736
 6.5000e+000 96998 -1.0315e+001 -4.1077e+001 -4.7040e+000 41182 96554,96900,96972
 6.5000e+000 97021 -1.0436e+001 -4.2120e+001 -3.1386e+000 41182 96554,96972,96580
 6.5000e+000 97576 -3.3609e+001 -8.6255e+001 -1.1663e+001 40678 97230,97412,97282
 6.5000e+000 97553 -3.8968e+000 -7.2799e+001  1.9455e+000 40678 97204,97412,97230
 6.5000e+000 97530 -8.1962e+000 -6.5056e+001 -1.3725e+001 40678 97282,97360,97308
 6.5000e+000 97507 -1.3754e+001 -6.5619e+001 -3.4435e+000 40678 97282,97412,97360
 6.5000e+000 97484  1.1120e+000 -3.5202e+001 -1.0602e+001 40678 97308,97360,97334
 6.5000e+000 97461 -1.6818e+001 -7.8987e+001 -2.1682e+000 40678 97360,97412,97386
 6.5000e+000 97438 -2.0792e+001 -5.6355e+001 -1.0095e+001 40678 97230,97282,97256
 6.5000e+000 97976 -3.2284e+001 -4.9737e+001 -6.9172e-001 40244 97702,97832,97754
 6.5000e+000 97953 -2.6577e+001 -5.0104e+001 -1.7404e+000 40244 97702,97858,97832
 6.5000e+000 97930 -3.5262e+001 -6.0297e+001 -1.2343e+001 40244 97702,97754,97728
 6.5000e+000 97907 -2.5091e+001 -5.1108e+001  5.8488e+000 40244 97780,97832,97806
 6.5000e+000 97884 -2.6732e+001 -4.6376e+001  1.1061e+000 40244 97754,97832,97780
 6.5000e+000 98482 -9.4553e+000 -3.6279e+001  7.7541e+000 39690 98505,98185,98159
 6.5000e+000 98459 -1.1213e+001 -3.4921e+001  6.8627e+000 39690 98505,98159,98289
 6.5000e+000 98436 -2.6801e+001 -5.8348e+001  1.8429e+001 39690 98159,98315,98289
 6.5000e+000 98413 -5.0121e+000 -3.2432e+001  5.4917e+000 39690 98211,98289,98263
 6.5000e+000 98390 -1.1946e+000 -1.7812e+001  3.4408e+000 39690 98211,98263,98237
 6.5000e+000 98367 -5.2009e+000 -2.9653e+001  4.9502e+000 39690 98159,98341,98315
 6.5000e+000 98531 -7.3762e+000 -3.5359e+001  7.5294e+000 39690 98211,98185,98505
 6.5000e+000 98554 -9.7337e+000 -3.4306e+001  6.5719e+000 39690 98211,98505,98289
 6.5000e+000 99109 -1.6110e+001 -3.9207e+001 -3.4889e+000 39072 99132,98867,98789
 6.5000e+000 99086 -1.8010e+001 -4.1027e+001 -4.4878e+000 39072 99132,98789,98763
 6.5000e+000 99063 -2.3606e+001 -6.7992e+001  6.2143e+000 39072 98867,98945,98919
 6.5000e+000 99040 -1.4263e+001 -4.4192e+001  1.4618e-001 39072 98789,98867,98841
 6.5000e+000 99017 -3.1196e+001 -4.9544e+001  9.8244e-001 39072 98867,98919,98893
 6.5000e+000 98994 -2.1369e+001 -3.7528e+001  9.1158e+000 39072 98789,98841,98815
 6.5000e+000 98971 -2.4270e+001 -4.6950e+001 -5.2380e+000 39072 98737,98945,98763
 6.5000e+000 99158 -1.4789e+001 -4.1523e+001 -4.2231e+000 39072 98945,98867,99132
 6.5000e+000 99181 -1.5732e+001 -4.3203e+001 -4.7535e+000 39072 98945,99132,98763
 6.5000e+000 99510 -1.4851e+001 -3.5909e+001  3.0805e+000 38668 99311,99389,99363
 6.5000e+000 99487 -1.2683e+001 -3.7867e+001 -1.1223e+000 38668 99285,99389,99311
 6.5000e+000 99464 -2.6742e+001 -5.1723e+001  4.8398e+000 38668 99285,99415,99389
 6.5000e+000 99441 -1.2789e+001 -3.7557e+001  4.0466e+000 38668 99311,99363,99337
 6.5000e+000 99758 -1.4677e+001 -5.7290e+001  1.1026e+001 38164 99781,99611,99585
 6.5000e+000 99735 -5.3948e+000 -5.9277e+001  1.2087e+001 38164 99781,99585,99533
 6.5000e+000 99712 -2.3175e+001 -5.5196e+001  8.0984e+000 38164 99611,99663,99637
 6.5000e+000 99689  3.6049e+000 -5.6912e+001 -2.2501e+000 38164 99533,99585,99559
 6.5000e+000 99807 -2.0102e+001 -5.7268e+001  1.3618e+001 38164 99663,99611,99781
 6.5000e+000 99830 -1.2977e+001 -6.0245e+001  1.3240e+001 38164 99663,99781,99533
 6.5000e+000 100232 -1.1057e+001 -3.6113e+001  9.2751e-002 37702 99984,100114,100088
 6.5000e+000 100209 -8.3708e+000 -3.6254e+001  2.6752e+000 37702 99958,100114,99984
 6.5000e+000 100186 -1.8685e+001 -4.8621e+001 -3.9200e+000 37702 100010,100088,100036
 6.5000e+000 100163 -1.0124e+001 -3.5732e+001 -5.2249e-002 37702 99984,100088,100010
 6.5000e+000 100140 -8.3598e+000 -3.3508e+001 -1.1984e+001 37702 100036,100088,100062
 6.5000e+000 100640 -3.2987e+001 -4.8292e+001  7.8971e+000 37262 100493,100545,100519
 6.5000e+000 100617 -3.0898e+001 -5.7477e+001  3.4948e+000 37262 100441,100545,100493
 6.5000e+000 100594 -9.9769e+000 -4.3117e+001 -6.2180e+000 37262 100415,100545,100441
 6.5000e+000 100571 -3.5086e+001 -6.2487e+001 -1.8459e+000 37262 100441,100493,100467
 6.5000e+000 101146 -2.7110e+001 -4.5135e+001 -8.8653e-001 36872 100823,100979,100849
 6.5000e+000 101123 -2.6053e+001 -4.1158e+001 -4.4352e+000 36872 100823,101005,100979
 6.5000e+000 101100 -2.6053e+001 -6.3309e+001  8.0765e+000 36872 101169,100901,100849
 6.5000e+000 101077 -2.0311e+001 -5.1294e+001  3.9553e+000 36872 101169,100849,100979
 6.5000e+000 101054 -1.5682e+001 -5.4485e+001 -4.0576e+000 36872 100927,100979,100953
 6.5000e+000 101031 -1.4339e+001 -6.8977e+001  1.1506e+001 36872 100849,100901,100875
 6.5000e+000 101195 -1.8049e+001 -6.6677e+001  5.5187e-001 36872 100927,100901,101169
 6.5000e+000 101218 -1.4444e+001 -6.0287e+001 -2.8527e+000 36872 100927,101169,100979
 6.5000e+000 101773 -2.6988e+001 -4.4989e+001  9.5932e+000 36418 101479,101609,101583
 6.5000e+000 101750 -2.9080e+001 -4.6468e+001  8.0140e+000 36418 101453,101609,101479
 6.5000e+000 101727 -1.8851e+001 -4.9030e+001  2.7878e-001 36418 101796,101531,101479
 6.5000e+000 101704 -2.7910e+001 -5.4799e+001  4.0243e+000 36418 101796,101479,101583
 6.5000e+000 101681 -1.6127e+001 -4.1544e+001 -6.8654e-001 36418 101479,101531,101505
 6.5000e+000 101658  9.1128e-002 -3.9796e+001  2.3288e+000 36418 101401,101609,101453
 6.5000e+000 101635 -7.2590e+000 -3.4163e+001  3.7547e+000 36418 101401,101453,101427
 6.5000e+000 101822 -2.1153e+001 -4.4742e+001 -8.5178e+000 36418 101557,101531,101796
 6.5000e+000 101845 -3.2171e+001 -4.7657e+001 -5.3107e+000 36418 101557,101796,101583
 6.5000e+000 102174 -5.7077e-001 -1.2841e+001 -4.5404e+000 35914 101949,102053,101975
 6.5000e+000 102151 -7.1346e+000 -1.1570e+001 -3.8687e+000 35914 101949,102079,102053
 6.5000e+000 102128 -1.0208e+001 -1.7166e+001 -3.0537e+000 35914 101975,102053,102027
 6.5000e+000 102105 -5.4597e+000 -1.4080e+001 -5.6556e+000 35914 101975,102027,102001
 6.5000e+000 102631 -1.0552e+001 -5.3311e+001  8.5582e-001 35574 102383,102513,102487
 6.5000e+000 102608 -7.1164e+000 -5.4989e+001  7.9108e-001 35574 102357,102513,102383
 6.5000e+000 102585 -1.8115e+001 -5.5066e+001  1.7921e+000 35574 102409,102487,102435
 6.5000e+000 102562 -1.7532e+001 -5.6266e+001  1.1242e+000 35574 102383,102487,102409
 6.5000e+000 102539 -1.8822e+001 -5.7459e+001  2.0273e+000 35574 102435,102487,102461
 6.5000e+000 103009 -3.0013e+001 -5.3026e+001 -3.6852e+000 35170 102761,102865,102787
 6.5000e+000 102986 -1.7912e+001 -4.6361e+001  5.5743e+000 35170 102761,102891,102865
 6.5000e+000 102963 -2.7254e+001 -5.2592e+001 -1.5107e+000 35170 102787,102865,102813
 6.5000e+000 102940 -1.4753e+001 -4.4948e+001  6.3294e+000 35170 102735,102891,102761
 6.5000e+000 102917 -2.8420e+001 -5.6653e+001 -5.4825e+000 35170 102813,102865,102839
 6.5000e+000 103257 -4.7295e+000 -3.4835e+001 -5.1649e+000 34659 103280,103058,103032
 6.5000e+000 103234 -6.9926e+000 -3.7836e+001 -3.5262e+000 34659 103280,103032,103162
 6.5000e+000 103211 -1.2267e+001 -3.7173e+001 -3.0817e+000 34659 103084,103162,103110
 6.5000e+000 103188 -1.6665e+001 -4.7320e+001 -2.4384e+000 34659 103110,103162,103136
 6.5000e+000 103306 -8.0115e+000 -3.1206e+001 -3.8021e+000 34659 103084,103058,103280
 6.5000e+000 103329 -9.9361e+000 -3.4723e+001 -2.0057e+000 34659 103084,103280,103162
 6.5000e+000 103837 -3.8211e+000 -5.9771e+001  2.0535e+000 34247 103860,103566,103540
 6.5000e+000 103814 -8.8272e+000 -6.0845e+001  1.5526e-001 34247 103932,103860,103540
 6.5000e+000 103791 -6.9196e+000 -6.8639e+001 -7.6246e+000 34247 103932,103540,103670
 6.5000e+000 103768 -6.5514e+000 -5.4561e+001  1.9400e+000 34247 103566,103618,103592
 6.5000e+000 103745 -2.4180e+001 -5.6140e+001 -9.0020e+000 34247 103540,103696,103670
 6.5000e+000 103722 -3.2425e+001 -6.2945e+001  9.2199e+000 34247 103514,103696,103540
 6.5000e+000 103886 -1.3524e+001 -5.9551e+001 -1.3113e+000 34247 103618,103566,103860
 6.5000e+000 103909 -1.4495e+001 -6.4477e+001  1.4135e+000 34247 103618,103860,103644
 6.5000e+000 103958 -1.5441e+001 -7.9670e+001 -2.0738e+000 34247 103644,103860,103932
 6.5000e+000 103981 -1.3654e+001 -8.6918e+001 -1.0231e+001 34247 103644,103932,103670
 6.5000e+000 104300 -3.1175e+001 -6.3757e+001 -2.7032e+000 33843 104052,104182,104156
 6.5000e+000 104277 -3.9669e+001 -5.9982e+001 -1.1054e+000 33843 104026,104182,104052
 6.5000e+000 104254 -3.0211e+001 -7.2204e+001  2.1309e+000 33843 104078,104156,104130
 6.5000e+000 104231 -3.8221e+001 -6.9716e+001 -5.3359e-002 33843 104052,104156,104078
 6.5000e+000 104208 -4.4519e+001 -7.5766e+001  2.4084e+000 33843 104078,104130,104104
 6.5000e+000 104499 -1.9466e+001 -6.3002e+001 -4.6650e+000 33282 104594,104522,104375
 6.5000e+000 104476 -1.7669e+001 -6.3064e+001  2.2303e+000 33282 104522,104323,104427
 6.5000e+000 104453 -1.1585e+001 -6.6670e+001 -4.4535e+000 33282 104594,104375,104349
 6.5000e+000 104548 -2.0951e+001 -5.7000e+001 -2.0222e+000 33282 104401,104375,104522
 6.5000e+000 104571 -1.4424e+001 -5.5721e+001  1.6860e+000 33282 104401,104522,104427
 6.5000e+000 104620 -9.3383e+000 -5.6479e+001 -1.2046e+000 33282 104323,104522,104594
 6.5000e+000 104643 -4.2514e+000 -6.2876e+001 -2.0839e+000 33282 104323,104594,104349
 6.5000e+000 104942 -2.5769e+001 -6.6426e+001  9.1867e+000 32728 104694,104772,104720
 6.5000e+000 104919 -2.1148e+001 -6.0927e+001  3.6642e+000 32728 104694,104824,104772
 6.5000e+000 104896 -3.4908e+001 -5.8324e+001  1.0455e+001 32728 104720,104772,104746
 6.5000e+000 104873 -1.6894e+001 -7.0601e+001  4.4879e+000 32728 104772,104824,104798
 6.5000e+000 104850 -1.8611e+001 -6.0226e+001  3.7866e+000 32728 104668,104824,104694
 6.5000e+000 105373 -1.5631e+001 -5.9853e+001 -2.8225e+000 32274 105396,105102,105076
 6.5000e+000 105350 -1.8896e+001 -6.5209e+001 -9.6628e-001 32274 105396,105076,105206
 6.5000e+000 105327 -2.8117e+001 -7.2126e+001  4.0843e+000 32274 105154,105206,105180
 6.5000e+000 105304 -5.5041e+000 -6.1340e+001 -4.4460e+000 32274 105076,105232,105206
 6.5000e+000 105281 -2.1518e+001 -5.4583e+001 -9.7559e+000 32274 105102,105154,105128
 6.5000e+000 105258 -3.1673e+001 -4.9655e+001 -9.8388e+000 32274 105050,105232,105076
 6.5000e+000 105422 -2.0152e+001 -5.3770e+001 -2.9009e+000 32274 105154,105102,105396
 6.5000e+000 105445 -2.2952e+001 -5.8992e+001 -1.3826e+000 32274 105154,105396,105206
 6.5000e+000 105644 -2.6443e+001 -7.0256e+001 -1.1628e+000 31620 105468,105546,105520
 6.5000e+000 105621 -2.1351e+001 -7.3982e+001 -3.6633e+000 31620 105468,105572,105546
 6.5000e+000 105598 -2.6452e+001 -7.5646e+001  3.3951e+000 31620 105468,105520,105494
 6.5000e+000 105794  1.8254e+000 -5.1507e+001 -2.1102e+000 31158 105889,105817,105693
 6.5000e+000 105771 -2.3534e+000 -4.4199e+001 -4.0128e+000 31158 105817,105667,105745
 6.5000e+000 105843 -3.9975e-001 -6.6469e+001 -7.6792e-001 31158 105719,105693,105817
 6.5000e+000 105866  3.5347e+000 -5.4824e+001 -3.5587e+000 31158 105719,105817,105745
 6.5000e+000 105915 -7.7380e+000 -5.5606e+001 -2.2164e+000 31158 105667,105817,105889
 6.5000e+000 106270 -2.2796e+001 -5.5623e+001 -2.0999e+000 30818 106293,106071,106045
 6.5000e+000 106247 -2.8521e+001 -6.8722e+001 -5.1262e+000 30818 106293,106045,106175
 6.5000e+000 106224 -2.1178e+001 -5.2706e+001  3.0388e+000 30818 106123,106175,106149
 6.5000e+000 106201 -2.4520e+001 -5.7230e+001  7.3441e+000 30818 106071,106123,106097
 6.5000e+000 106319 -2.4617e+001 -5.0522e+001  2.9859e+000 30818 106123,106071,106293
 6.5000e+000 106342 -2.6114e+001 -5.7508e+001  4.2114e-001 30818 106123,106293,106175
 6.5000e+000 106492 -2.4125e+001 -5.0640e+001  1.0359e+001 30414 106645,106391,106365
 6.5000e+000 106469 -2.8985e+000 -4.8990e+001  1.4944e+001 30414 106515,106365,106443
 6.5000e+000 106541 -1.3246e+001 -5.3325e+001  1.2127e+001 30414 106645,106365,106515
 6.5000e+000 106671 -8.8805e+000 -6.3153e+001  2.2555e+001 30414 106417,106391,106645
 6.5000e+000 106694  1.6363e+001 -5.6999e+001  1.9174e+001 30414 106417,106645,106515
 6.5000e+000 106942 -1.3463e+001 -8.2192e+001 -5.6873e-001 29910 106965,106795,106769
 6.5000e+000 106919 -1.0791e+001 -7.5142e+001  1.6713e+000 29910 106965,106769,106717
 6.5000e+000 106896 -1.3499e+001 -6.4423e+001 -6.7159e+000 29910 106795,106847,106821
 6.5000e+000 106873 -6.2249e+000 -6.6043e+001  3.9099e+000 29910 106717,106769,106743
 6.5000e+000 106991 -1.8439e+001 -7.4082e+001  7.6424e-001 29910 106847,106795,106965
 6.5000e+000 107014 -1.4277e+001 -6.4755e+001  3.0628e+000 29910 106847,106965,106717
 6.5000e+000 107213 -1.3926e+001 -6.0753e+001  5.0917e+000 29413 107236,107063,107037
 6.5000e+000 107190 -1.4525e+001 -7.2643e+001  9.5695e+000 29413 107236,107037,107141
 6.5000e+000 107167 -1.9397e+001 -4.0692e+001  1.0943e+001 29413 107063,107115,107089
 6.5000e+000 107262 -1.4027e+001 -5.2358e+001  2.6105e+000 29413 107115,107063,107236
 6.5000e+000 107285 -1.2944e+001 -6.1406e+001  7.3744e+000 29413 107115,107236,107141
 6.5000e+000 107486 -6.3705e+000 -5.8285e+001  8.8660e+000 29009 107336,107388,107362
 6.5000e+000 107463 -3.2388e+000 -5.6346e+001  1.9941e+000 29009 107310,107388,107336
 6.5000e+000 107440 -4.7853e+000 -5.4257e+001  2.2693e+000 29009 107310,107414,107388
 6.5000e+000 107736 -2.4732e+001 -6.7919e+001 -1.6792e+000 28491 107537,107615,107563
 6.5000e+000 107713 -2.1764e+001 -6.6757e+001 -2.1190e+000 28491 107537,107641,107615
 6.5000e+000 107690 -1.4780e+001 -6.2529e+001  1.9008e+000 28491 107563,107615,107589
 6.5000e+000 107667 -2.0959e+001 -6.4740e+001 -1.6004e+000 28491 107511,107641,107537
 6.5000e+000 108118 -1.4820e+001 -6.4359e+001  2.0681e+000 27980 108141,107922,107844
 6.5000e+000 108095 -1.1791e+001 -6.8563e+001  1.7638e+000 27980 108141,107844,108000
 6.5000e+000 108072 -1.5348e+001 -6.6582e+001 -3.7050e+000 27980 107844,107922,107870
 6.5000e+000 108049 -1.6307e+001 -5.7912e+001 -2.1567e+000 27980 107870,107922,107896
 6.5000e+000 108026 -2.3631e+001 -6.1237e+001  7.2840e+000 27980 107922,107974,107948
 6.5000e+000 108167 -1.2528e+001 -6.5008e+001  3.1606e+000 27980 107974,107922,108141
 6.5000e+000 108190 -4.3809e+000 -6.4610e+001  4.1089e+000 27980 107974,108141,108000
 6.5000e+000 108745 -2.7557e+000 -3.4877e+001 -1.6673e+000 27376 108840,108768,108477
 6.5000e+000 108722 -8.5608e+000 -4.4974e+001 -1.0906e+001 27376 108768,108373,108581
 6.5000e+000 108699 -7.9609e+000 -2.9969e+001  7.4301e+000 27376 108840,108477,108451
 6.5000e+000 108676 -2.7495e+001 -3.7974e+001 -2.3908e+000 27376 108373,108451,108399
 6.5000e+000 108653 -8.3112e+000 -4.5282e+001  8.0530e+000 27376 108503,108581,108529
 6.5000e+000 108630 -9.6907e+000 -4.0905e+001  7.8995e+000 27376 108529,108581,108555
 6.5000e+000 108607 -3.2141e+001 -4.3781e+001  2.4826e+000 27376 108399,108451,108425
 6.5000e+000 108794 -7.1850e+000 -4.8459e+001 -6.7200e-001 27376 108503,108477,108768
 6.5000e+000 108817  2.6904e+000 -4.4567e+001 -2.2455e+000 27376 108503,108768,108581
 6.5000e+000 108866 -2.1370e+001 -4.4654e+001 -5.2947e+000 27376 108373,108768,108840
 6.5000e+000 108889 -2.0557e+001 -3.7440e+001  4.0693e+000 27376 108373,108840,108451
 6.5000e+000 109186 -2.4203e+001 -6.6552e+001  7.7260e+000 26722 109209,108938,108912
 6.5000e+000 109163 -2.2217e+001 -6.1539e+001  6.5501e+000 26722 109281,109209,108912
 6.5000e+000 109140 -2.1840e+001 -5.9683e+001  6.4461e+000 26722 109281,108912,109042
 6.5000e+000 109117 -1.8014e+001 -6.9708e+001  3.3432e+000 26722 108938,108990,108964
 6.5000e+000 109094 -3.1663e+001 -5.4704e+001  4.5700e+000 26722 108912,109068,109042
 6.5000e+000 109235 -1.8977e+001 -6.3598e+001  6.4900e+000 26722 108990,108938,109209
 6.5000e+000 109258 -2.1633e+001 -6.7619e+001  5.3358e+000 26722 108990,109209,109016
 6.5000e+000 109307 -2.0531e+001 -6.4272e+001  3.5769e+000 26722 109016,109209,109281
 6.5000e+000 109330 -1.9579e+001 -6.1361e+001  3.1545e+000 26722 109016,109281,109042
 6.5000e+000 109732 -2.2636e+001 -5.2570e+001 -2.8861e+000 26310 109458,109588,109484
 6.5000e+000 109709 -2.2142e+001 -5.7705e+001 -5.8799e+000 26310 109458,109614,109588
 6.5000e+000 109686 -4.0026e+001 -6.5667e+001  9.1052e+000 26310 109510,109562,109536
 6.5000e+000 109663 -4.4784e+001 -6.4640e+001  4.5230e+000 26310 109484,109562,109510
 6.5000e+000 109640 -2.8071e+001 -5.5179e+001 -2.0895e+000 26310 109484,109588,109562
 6.5000e+000 110159 -1.3991e+001 -5.5038e+001 -1.4192e+000 25642 110182,109940,109914
 6.5000e+000 110136 -1.1047e+001 -6.2340e+001  1.0119e+001 25642 110182,109914,109888
 6.5000e+000 110113 -2.0428e+001 -6.7590e+001 -9.5177e+000 25642 109966,110018,109992
 6.5000e+000 110090 -2.2589e+001 -6.5543e+001  5.3008e+000 25642 110254,109966,109940
 6.5000e+000 110067 -2.7589e+001 -5.9220e+001  5.3697e+000 25642 109862,110018,109888
 6.5000e+000 110044 -2.6618e+001 -4.9497e+001  1.0204e+001 25642 109836,110018,109862
 6.5000e+000 110208 -2.1069e+001 -6.0701e+001  3.9606e+000 25642 110254,109940,110182
 6.5000e+000 110231 -2.2886e+001 -6.4425e+001  1.0277e+001 25642 110018,110182,109888
 6.5000e+000 110280 -1.8385e+001 -7.1997e+001  4.6519e+000 25642 110018,109966,110254
 6.5000e+000 110303 -1.8026e+001 -6.8510e+001  3.6046e+000 25642 110018,110254,110182
 6.5000e+000 110632 -2.8656e+001 -5.4957e+001 -4.1497e+000 25188 110407,110485,110433
 6.5000e+000 110609 -3.7942e+001 -6.0635e+001 -9.1016e-001 25188 110407,110537,110485
 6.5000e+000 110586 -3.0235e+001 -5.6337e+001 -1.3764e+001 25188 110433,110485,110459
 6.5000e+000 110563 -3.5719e+001 -6.7177e+001  1.0082e+001 25188 110485,110537,110511
 6.5000e+000 110831 -3.7757e+000 -5.4685e+001  2.1058e+000 24726 110854,110707,110655
 6.5000e+000 110808 -1.5972e+000 -5.9036e+001  6.3323e+000 24726 110854,110655,110759
 6.5000e+000 110785 -5.3834e+000 -5.5905e+001  3.0966e+000 24726 110655,110707,110681
 6.5000e+000 110880 -1.9625e+000 -5.0455e+001  2.5138e+000 24726 110733,110707,110854
 6.5000e+000 110903  1.2229e+000 -5.2779e+001  7.0193e+000 24726 110733,110854,110759
 6.5000e+000 111234 -1.3185e+000 -3.8811e+001 -1.7179e+000 24222 111257,111087,111035
 6.5000e+000 111211  4.1370e+000 -3.6342e+001  4.4016e+000 24222 111257,111035,111009
 6.5000e+000 111188 -7.5308e+000 -1.7805e+001 -1.0496e+001 24222 111035,111087,111061
 6.5000e+000 111165 -6.2979e+000 -3.1854e+001 -1.6132e-001 24222 111087,111139,111113
 6.5000e+000 111283 -5.0601e+000 -3.1795e+001  1.1036e+000 24222 111139,111087,111257
 6.5000e+000 111306 -2.6176e+000 -2.6631e+001  5.0524e+000 24222 111139,111257,111009
 6.5000e+000 111625 -2.0011e+000 -4.9645e+001 -2.0829e+000 23732 111648,111481,111455
 6.5000e+000 111602 -1.5846e+000 -4.9019e+001 -2.2635e+000 23732 111648,111455,111377
 6.5000e+000 111579  1.5991e+001 -1.7515e+001  6.8374e+000 23732 111377,111429,111403
 6.5000e+000 111556  4.5996e+000 -4.7339e+001 -2.0432e+000 23732 111377,111455,111429
 6.5000e+000 111533  2.5382e+000 -4.4064e+001 -1.2148e+000 23732 111351,111507,111377
 6.5000e+000 111674 -1.5644e+000 -5.0520e+001 -2.7192e+000 23732 111507,111481,111648
 6.5000e+000 111697 -1.0293e+000 -4.9348e+001 -2.9049e+000 23732 111507,111648,111377
 6.5000e+000 112156 -1.5051e+001 -6.5300e+001  5.1038e+000 23278 112179,111908,111882
 6.5000e+000 112133 -1.4132e+001 -6.0336e+001  2.6105e+000 23278 112179,111882,112012
 6.5000e+000 112110 -3.5339e+000 -7.0808e+001  3.9200e-001 23278 111908,111960,111934
 6.5000e+000 112087 -5.4223e+000 -5.2693e+001 -9.2987e-001 23278 111882,112038,112012
 6.5000e+000 112064 -1.2288e+001 -5.3785e+001 -7.7349e-001 23278 111960,112012,111986
 6.5000e+000 112205 -1.4154e+001 -6.2920e+001  1.0794e+000 23278 111960,111908,112179
 6.5000e+000 112228 -1.1663e+001 -5.7249e+001 -1.7462e+000 23278 111960,112179,112012
 6.5000e+000 112685 -3.7073e+001 -8.8041e+001 -7.5434e+000 22938 112489,112567,112541
 6.5000e+000 112662 -3.0218e+001 -7.2450e+001 -6.5052e+000 22938 112437,112567,112489
 6.5000e+000 112639 -2.5215e+001 -6.7455e+001 -1.4141e+000 22938 112489,112541,112515
 6.5000e+000 112616 -3.4883e+001 -6.7656e+001 -5.1282e+000 22938 112411,112567,112437
 6.5000e+000 112593 -2.8726e+001 -9.4013e+001 -3.0730e-001 22938 112437,112489,112463
 6.5000e+000 113191 -1.6966e+000 -6.6261e+001 -8.7835e+000 22534 113214,112998,112946
 6.5000e+000 113168 -1.1530e+001 -5.7611e+001 -4.6279e+000 22534 113286,113214,112946
 6.5000e+000 113145 -8.4009e+000 -5.7834e+001 -3.8305e+000 22534 113286,112946,112920
 6.5000e+000 113122 -2.6663e+001 -5.2276e+001 -1.2946e+001 22534 113358,113024,112998
 6.5000e+000 113099 -1.6301e+001 -5.5387e+001 -2.6740e+000 22534 112868,113050,112894
 6.5000e+000 113076 -1.7576e+001 -9.2370e+001 -1.6088e+001 22534 112946,112998,112972
 6.5000e+000 113240 -1.9303e+001 -6.7638e+001 -1.3635e+001 22534 113358,112998,113214
 6.5000e+000 113263 -1.5742e+001 -6.0347e+001 -3.2457e+000 22534 113050,113214,112894
 6.5000e+000 113312 -7.5514e+000 -5.6790e+001 -3.6847e+000 22534 112894,113214,113286
 6.5000e+000 113335 -4.3350e+000 -5.7281e+001 -3.4438e+000 22534 112894,113286,112920
 6.5000e+000 113384 -1.8460e+001 -3.7738e+001 -9.5906e+000 22534 113050,113024,113358
 6.5000e+000 113407 -7.9552e+000 -5.0656e+001 -8.5587e+000 22534 113050,113358,113214
 6.5000e+000 113785 -2.7106e+001 -7.6586e+001  3.0734e+000 21978 113808,113615,113511
 6.5000e+000 113762 -2.2044e+001 -7.7880e+001  6.6571e+000 21978 113808,113511,113667
 6.5000e+000 113739 -1.1078e+001 -6.4832e+001 -3.1781e+000 21978 113511,113615,113537
 6.5000e+000 113716  1.1344e+001 -5.9607e+001 -7.5878e+000 21978 113537,113615,113589
 6.5000e+000 113693 -5.5190e+000 -8.3755e+001  8.3265e-002 21978 113537,113589,113563
 6.5000e+000 113834 -2.7848e+001 -7.6211e+001  9.5330e+000 21978 113641,113615,113808
 6.5000e+000 113857 -1.4271e+001 -7.1040e+001  1.3801e+001 21978 113641,113808,113667
 6.5000e+000 114284 -1.9273e+001 -6.2746e+001  1.6732e+000 21517 114013,114117,114039
 6.5000e+000 114261 -2.2627e+001 -6.2738e+001  5.0864e+000 21517 113961,114117,114013
 6.5000e+000 114238 -2.0823e+001 -6.2204e+001  5.6561e+000 21517 113961,114013,113987
 6.5000e+000 114215 -3.3842e+001 -7.3105e+001 -5.2868e+000 21517 114039,114117,114091
 6.5000e+000 114192 -2.3235e+001 -5.2278e+001  6.2423e+000 21517 113961,114143,114117
 6.5000e+000 114169 -4.6583e+000 -6.2638e+001 -5.3248e+000 21517 114039,114091,114065
 6.5000e+000 114581 -3.7291e+000 -6.9295e+001  9.9076e-001 21027 114359,114463,114437
 6.5000e+000 114558  3.1014e+000 -6.1667e+001  9.4937e+000 21027 114333,114463,114359
 6.5000e+000 114535  4.4548e+000 -6.1249e+001 -2.2585e+000 21027 114359,114437,114385
 6.5000e+000 114512  2.9805e+000 -6.1995e+001  8.7352e+000 21027 114307,114463,114333
 6.5000e+000 114489  2.2579e+001 -5.7487e+001 -2.9058e+000 21027 114385,114437,114411
 6.5000e+000 114912 -2.7177e+001 -6.4569e+001  1.0862e+000 20623 114713,114791,114765
 6.5000e+000 114889 -1.9359e+001 -6.1360e+001 -4.7392e+000 20623 114687,114791,114713
 6.5000e+000 114866 -1.1250e+001 -6.6800e+001 -6.0288e+000 20623 114687,114817,114791
 6.5000e+000 114843 -4.2728e+001 -8.1102e+001  7.7397e+000 20623 114713,114765,114739
 6.5000e+000 115290 -7.0176e+000 -5.8790e+001  3.5753e+000 20375 115313,115146,115094
 6.5000e+000 115267 -1.2270e+001 -5.5646e+001  6.4379e+000 20375 115313,115094,115042
 6.5000e+000 115244 -1.6081e+001 -5.3306e+001  1.8621e+000 20375 115385,115016,115172
 6.5000e+000 115221 -5.5443e+000 -5.2147e+001  5.1731e+000 20375 115042,115094,115068
 6.5000e+000 115198 -1.1757e+001 -7.0011e+001  3.2650e+000 20375 115094,115146,115120
 6.5000e+000 115339 -1.8171e+001 -7.0871e+001 -2.5597e+000 20375 115172,115146,115313
 6.5000e+000 115362 -8.9432e+000 -5.5267e+001  2.2126e+000 20375 115385,115172,115313
 6.5000e+000 115411 -1.9954e+001 -5.5482e+001  2.7503e+000 20375 115042,115016,115385
 6.5000e+000 115434 -1.6565e+001 -5.9944e+001  4.2373e+000 20375 115042,115385,115313
 6.5000e+000 115891 -3.2474e+001 -6.4055e+001  8.7723e+000 19971 115617,115747,115643
 6.5000e+000 115868 -2.7585e+001 -5.3150e+001  9.8449e+000 19971 115617,115773,115747
 6.5000e+000 115845 -2.1129e+001 -9.7684e+001  1.5991e+000 19971 115643,115721,115695
 6.5000e+000 115822 -5.4228e-001 -4.7105e+001  1.3849e-001 19971 115643,115747,115721
 6.5000e+000 115799 -1.7350e+001 -1.1904e+002 -8.8443e+000 19971 115643,115695,115669
 6.5000e+000 115992 -4.4194e+001 -1.1249e+002 -1.9759e+001 19659 115914,115966,115940
 6.5000e+000 116142 -9.7357e+000 -2.7214e+001  8.9500e-001 18997 116041,116093,116067
 6.5000e+000 116119 -1.7445e+001 -4.6786e+001  2.6740e+000 18997 116015,116093,116041
 6.5000e+000 116343 -1.2506e+001 -7.0106e+001 -1.7595e+000 18707 116193,116245,116219
 6.5000e+000 116320 -2.8434e+001 -7.7149e+001 -3.2314e+000 18707 116193,116271,116245
 6.5000e+000 116297 -2.6909e+001 -7.0025e+001 -6.5061e+000 18707 116167,116271,116193
 6.5000e+000 116747 -1.0251e+001 -6.2407e+001 -1.1915e+000 18301 116525,116629,116551
 6.5000e+000 116724 -5.2937e+000 -5.3003e+001  1.4980e+000 18301 116473,116629,116525
 6.5000e+000 116701 -2.9571e+000 -5.1149e+001 -2.8808e+000 18301 116473,116525,116499
 6.5000e+000 116678 -7.9482e+000 -6.4905e+001 -6.1806e-001 18301 116551,116603,116577
 6.5000e+000 116655 -1.2714e+001 -6.8195e+001 -2.0926e+000 18301 116551,116629,116603
 6.5000e+000 117147 -2.6754e+001 -6.5563e+001  1.5491e+000 17747 116899,117029,116925
 6.5000e+000 117124 -1.3897e+001 -4.8724e+001  8.0730e+000 17747 116873,117029,116899
 6.5000e+000 117101 -2.6169e+001 -6.4376e+001  1.7799e+000 17747 116925,117029,116951
 6.5000e+000 117078 -1.8765e+001 -4.6536e+001  1.3046e+000 17747 116951,117029,117003
 6.5000e+000 117055 -3.3228e+001 -7.7596e+001 -6.7233e+000 17747 116951,117003,116977
 6.5000e+000 117368  6.5847e+000 -6.9731e+001  1.7967e+000 17293 117244,117296,117270
 6.5000e+000 117345 -3.4644e+000 -7.1876e+001 -8.8391e-001 17293 117192,117296,117244
 6.5000e+000 117322 -1.2008e+001 -6.7548e+001 -4.8847e-001 17293 117192,117244,117218
 6.5000e+000 117699 -8.1894e+000 -5.7396e+001 -5.7085e+000 16896 117526,117604,117552
 6.5000e+000 117676 -3.7904e+001 -8.7694e+001  6.3416e+000 16896 117500,117604,117526
 6.5000e+000 117653 -3.8640e+001 -6.8231e+001 -2.9151e+000 16896 117552,117604,117578
 6.5000e+000 117630 -3.6742e+001 -1.1596e+002  9.4431e+000 16896 117474,117604,117500
 6.5000e+000 117849 -7.7287e+001 -1.5166e+002 -5.7038e+000 16534 117722,117774,117748
 6.5000e+000 117826 -6.0363e+001 -1.8322e+002 -2.5167e+001 16534 117722,117800,117774
 6.5000e+000 118070  1.2312e+000 -7.1040e+001  9.0684e+000 16194 117946,117998,117972
 6.5000e+000 118047 -1.0372e+001 -8.0247e+001  3.5702e+000 16194 117894,117998,117946
 6.5000e+000 118024 -4.0440e+001 -8.2494e+001  3.5640e-002 16194 117894,117946,117920
 6.5000e+000 118173  3.4774e+000 -5.9288e+001  0.0000e+000 15968 118095,118147,118121
 6.5000e+000 118276 -1.7349e+001 -7.2639e+001  3.9138e-001 15433 118299,118198,118250
 6.5000e+000 118325 -1.7859e+001 -7.3828e+001  4.0311e-001 15433 118224,118198,118299
 6.5000e+000 118450 -3.4443e+001 -7.4884e+001  6.4507e+000 421 118372,118424,118398
 6.6000e+000 69891 -1.2619e+001 -5.9069e+001  1.8391e+000 68988 69447,69681,69629
 6.6000e+000 69868  2.6880e+000 -5.3426e+001  9.4088e-001 68988 69421,69681,69447
 6.6000e+000 69845 -2.3763e+000 -2.7565e+001  2.0577e-001 68988 69447,69629,69577
 6.6000e+000 69822 -2.1404e+001 -6.1587e+001 -7.6400e+000 68988 69447,69577,69473
 6.6000e+000 69799 -3.6178e+000 -7.0711e+001  1.2472e+001 68988 69629,69681,69655
 6.6000e+000 69776 -2.4990e+001 -3.7358e+001  1.1508e+000 68988 69577,69629,69603
 6.6000e+000 69753 -1.7638e+001 -5.6468e+001 -1.0156e+001 68988 69473,69577,69551
 6.6000e+000 69730 -2.1661e+001 -1.1096e+002 -1.1024e+001 68988 69473,69551,69525
 6.6000e+000 69707 -3.4446e+001 -7.1789e+001  3.1734e-001 68988 69473,69525,69499
 6.6000e+000 69992 -4.4568e+001 -6.9982e+001 -1.1238e+001 68676 69914,69966,69940
 6.6000e+000 70392 -4.3649e+001 -6.8522e+001  7.6550e+000 68478 70118,70248,70144
 6.6000e+000 70369 -1.1471e+001 -7.5929e+001  1.6068e+001 68478 70118,70274,70248
 6.6000e+000 70346 -2.3257e+001 -4.9018e+001  3.0915e-001 68478 70144,70222,70196
 6.6000e+000 70323 -1.8952e+001 -3.7557e+001 -3.0527e+000 68478 70144,70248,70222
 6.6000e+000 70300 -2.1705e+001 -5.2148e+001  7.6871e-001 68478 70144,70196,70170
 6.6000e+000 70841  7.8326e+000 -4.5900e+001 -1.2430e+001 68280 70570,70622,70596
 6.6000e+000 70818 -2.7029e+001 -5.2295e+001 -2.5787e+000 68280 70544,70622,70570
 6.6000e+000 70795 -2.1607e+001 -3.9664e+001 -1.7605e+000 68280 70544,70674,70622
 6.6000e+000 70772 -2.0250e+001 -3.5661e+001  6.3702e-001 68280 70622,70674,70648
 6.6000e+000 70749 -2.9579e+001 -5.8368e+001  4.2235e+000 68280 70518,70674,70544
 6.6000e+000 70726  9.1573e+000 -6.2913e+001  1.5470e+001 68280 70518,70700,70674
 6.6000e+000 70991 -3.2191e+000 -2.5156e+002  8.1323e+000 67968 70864,70916,70890
 6.6000e+000 70968 -7.0222e+001 -2.4820e+002  3.2681e+001 67968 70864,70942,70916
 6.6000e+000 71141 -1.1498e+002 -2.1714e+002 -1.0199e+001 67770 71040,71092,71066
 6.6000e+000 71118 -1.0046e+002 -2.6518e+002  1.3213e+001 67770 71014,71092,71040
 6.6000e+000 71651 -2.0463e+001 -5.0643e+001 -6.2785e+000 67366 71746,71674,71458
 6.6000e+000 71628 -1.3938e+001 -3.4911e+001 -1.0177e+001 67366 71674,71354,71510
 6.6000e+000 71605 -2.1257e+001 -5.8135e+001 -4.7973e+000 67366 71746,71458,71432
 6.6000e+000 71582 -3.1540e+001 -5.6842e+001  3.4646e+000 67366 71354,71432,71380
 6.6000e+000 71559 -2.9711e+001 -4.1336e+001 -3.9497e+000 67366 71380,71432,71406
 6.6000e+000 71536 -1.6973e+001 -1.4223e+001 -3.0128e+000 67366 71328,71510,71354
 6.6000e+000 71700 -2.0148e+001 -4.3802e+001 -3.4869e+000 67366 71484,71458,71674
 6.6000e+000 71723 -1.8648e+001 -4.3197e+001 -3.5792e+000 67366 71484,71674,71510
 6.6000e+000 71772 -2.1602e+001 -4.1717e+001 -6.2491e+000 67366 71354,71674,71746
 6.6000e+000 71795 -2.0456e+001 -4.7131e+001 -6.0488e+000 67366 71354,71746,71432
 6.6000e+000 71896 -3.5499e+001 -7.1447e+001  0.0000e+000 67146 71818,71870,71844
 6.6000e+000 71997 -3.3992e+001 -6.7445e+001  1.3566e+001 66948 71919,71971,71945
 6.6000e+000 72149 -1.3283e+001 -4.7363e+001 -6.4499e+000 66700 72172,72074,72048
 6.6000e+000 72126 -2.6032e+001 -5.5660e+001 -2.5494e+000 66700 72172,72048,72022
 6.6000e+000 72198 -3.6276e+001 -5.7960e+001  2.4262e+000 66700 72244,72172,72100
 6.6000e+000 72221 -3.3066e+001 -5.3621e+001 -3.0454e+000 66700 72100,72172,72022
 6.6000e+000 72270 -2.3689e+001 -2.9825e+001 -3.9983e+000 66700 72074,72172,72244
 6.6000e+000 72623 -2.9781e+001 -5.2356e+001  8.4121e-001 66502 72424,72502,72450
 6.6000e+000 72600 -2.7473e+001 -4.6401e+001  7.4343e-001 66502 72398,72502,72424
 6.6000e+000 72577 -2.1859e+001 -5.0293e+001 -2.1236e-001 66502 72398,72528,72502
 6.6000e+000 72554 -3.3607e+001 -4.9281e+001  3.6615e-001 66502 72450,72502,72476
 6.6000e+000 72920 -4.0019e+001 -7.4757e+001  1.8727e+000 65941 72672,72776,72750
 6.6000e+000 72897 -3.6298e+001 -6.3564e+001  7.3256e+000 65941 72646,72776,72672
 6.6000e+000 72874 -3.5463e+001 -7.4292e+001  3.6341e+000 65941 72672,72750,72724
 6.6000e+000 72851 -3.7059e+001 -6.2508e+001  6.8142e+000 65941 72672,72724,72698
 6.6000e+000 72828 -2.7022e+001 -6.1906e+001  6.2066e+000 65941 72646,72802,72776
 6.6000e+000 73241 -2.1320e+001 -5.0364e+001  7.7554e-001 65743 73264,73071,73045
 6.6000e+000 73218 -2.8490e+001 -5.6340e+001  4.9419e+000 65743 73480,73264,73045
 6.6000e+000 73195 -2.2050e+001 -4.7688e+001  1.2198e-001 65743 73336,72967,73097
 6.6000e+000 73172 -2.9803e+001 -4.5381e+001 -1.5654e+000 65743 73408,72993,72967
 6.6000e+000 73149 -2.2490e+001 -4.9102e+001 -4.9728e-001 65743 72967,73123,73097
 6.6000e+000 73290 -2.1597e+001 -5.0203e+001  6.0484e-001 65743 73097,73071,73264
 6.6000e+000 73313 -2.1797e+001 -4.7995e+001  8.1475e-001 65743 73336,73097,73264
 6.6000e+000 73362 -2.6771e+001 -4.9167e+001 -4.2897e-001 65743 73408,72967,73336
 6.6000e+000 73385 -1.8568e+001 -4.6538e+001  1.2535e+000 65743 73019,73336,73264
 6.6000e+000 73434 -2.4761e+001 -3.6803e+001  3.0310e+000 65743 73019,72993,73408
 6.6000e+000 73457 -1.8954e+001 -4.2727e+001  2.8823e+000 65743 73019,73408,73336
 6.6000e+000 73506 -1.7127e+001 -3.6216e+001  4.2102e-001 65743 73019,73264,73480
 6.6000e+000 73989 -8.4408e+000 -4.4328e+001  4.8491e+000 65453 73793,73845,73819
 6.6000e+000 73966 -2.7509e+001 -4.8924e+001  5.9570e+000 65453 73741,73845,73793
 6.6000e+000 73943 -1.3571e+001 -4.0993e+001  2.7730e+000 65453 73715,73845,73741
 6.6000e+000 73920 -2.3496e+001 -5.5000e+001  9.9003e+000 65453 73741,73793,73767
 6.6000e+000 73897 -3.4731e+000 -2.2656e+001 -1.2071e+000 65453 73715,73871,73845
 6.6000e+000 74357 -1.1775e+001 -3.5529e+001 -1.5557e+001 65141 74380,74138,74086
 6.6000e+000 74334 -2.3364e+001 -5.7329e+001 -1.1246e+001 65141 74380,74086,74060
 6.6000e+000 74311 -2.0945e+001 -5.4922e+001 -3.7286e+000 65141 74138,74190,74164
 6.6000e+000 74288 -2.4292e+001 -6.2476e+001 -3.0816e+000 65141 74060,74216,74190
 6.6000e+000 74265 -2.5236e+001 -6.5643e+001  6.5300e-001 65141 74034,74216,74060
 6.6000e+000 74242 -6.7251e+000 -1.5320e+001 -6.0083e+000 65141 74086,74138,74112
 6.6000e+000 74406 -1.7677e+001 -5.4179e+001 -5.2137e+000 65141 74190,74138,74380
 6.6000e+000 74429 -2.1594e+001 -6.2076e+001 -2.6880e+000 65141 74190,74380,74060
 6.6000e+000 74937 -2.8352e+001 -4.3879e+001 -1.0296e+001 64737 74614,74666,74640
 6.6000e+000 74914 -3.3473e+001 -5.9471e+001 -6.4252e+000 64737 74614,74796,74666
 6.6000e+000 74891 -2.3647e+001 -3.7200e+001 -3.8952e-001 64737 74960,74718,74666
 6.6000e+000 74868 -2.3311e+001 -4.1768e+001 -4.1982e+000 64737 74960,74666,74770
 6.6000e+000 74845 -2.4384e+001 -3.8837e+001 -4.7028e+000 64737 74666,74796,74770
 6.6000e+000 74822 -2.0392e+001 -4.1146e+001  2.3446e+000 64737 74666,74718,74692
 6.6000e+000 74986 -2.3747e+001 -4.1894e+001 -2.4883e+000 64737 74744,74718,74960
 6.6000e+000 75009 -2.6023e+001 -4.9190e+001 -6.7670e+000 64737 74744,74960,74770
 6.6000e+000 75306 -1.5464e+001 -4.4385e+001  9.2476e+000 64133 75329,75110,75084
 6.6000e+000 75283 -2.1161e+001 -5.5576e+001  3.0124e+000 64133 75401,75329,75084
 6.6000e+000 75260 -2.1914e+001 -5.6466e+001  2.6546e+000 64133 75401,75084,75058
 6.6000e+000 75237 -1.9259e+001 -6.7587e+001  1.0208e+001 64133 75473,75136,75110
 6.6000e+000 75214 -1.7920e+001 -5.3672e+001  7.5566e-001 64133 75032,75188,75162
 6.6000e+000 75355 -2.2783e+001 -6.1839e+001  7.7127e+000 64133 75473,75110,75329
 6.6000e+000 75378 -1.7707e+001 -5.4192e+001  8.5827e-001 64133 75162,75329,75032
 6.6000e+000 75427 -1.6572e+001 -5.1690e+001  1.3513e+000 64133 75032,75329,75401
 6.6000e+000 75450 -2.8369e+001 -6.1099e+001  6.4417e+000 64133 75545,75401,75058
 6.6000e+000 75499 -1.4849e+001 -6.0528e+001  4.2656e+000 64133 75162,75136,75473
 6.6000e+000 75522 -1.8711e+001 -5.1856e+001  3.2073e+000 64133 75162,75473,75329
 6.6000e+000 75571 -1.7762e+001 -3.8067e+001  2.0559e+000 64133 75032,75401,75545
 6.6000e+000 75851 -2.9575e+001 -5.0596e+001  2.0198e+000 63843 75874,75753,75727
 6.6000e+000 75828 -2.6353e+001 -4.7152e+001 -7.6037e-001 63843 75946,75874,75727
 6.6000e+000 75805 -2.8393e+001 -4.9752e+001  3.9388e-001 63843 76018,75946,75727
 6.6000e+000 75900 -2.7580e+001 -4.9809e+001 -3.2534e+000 63843 75779,75753,75874
 6.6000e+000 75923 -2.5820e+001 -4.0532e+001 -5.2601e+000 63843 75779,75874,75675
 6.6000e+000 75972 -2.7544e+001 -4.6961e+001 -8.3399e-001 63843 75675,75874,75946
 6.6000e+000 75995 -2.6144e+001 -4.6057e+001 -1.6321e+000 63843 75675,75946,75701
 6.6000e+000 76044 -2.6937e+001 -4.5280e+001 -9.6839e-001 63843 75701,75946,76018
 6.6000e+000 76454  3.9464e-001 -6.2180e+000 -2.6565e+000 63439 76477,76255,76229
 6.6000e+000 76431 -5.3048e+000 -1.4408e+001  2.1919e+000 63439 76477,76229,76359
 6.6000e+000 76408 -4.6273e+000 -1.1751e+001  7.6188e+000 63439 76307,76359,76333
 6.6000e+000 76385 -4.1836e+000 -2.1411e+001 -1.6011e+000 63439 76255,76307,76281
 6.6000e+000 76503 -7.4734e+000 -1.3270e+001  1.8890e+000 63439 76307,76255,76477
 6.6000e+000 76526 -6.2287e+000 -1.6004e+001  5.6155e+000 63439 76307,76477,76359
 6.6000e+000 76926 -1.1750e+001 -2.3195e+001  6.8116e-002 63049 76704,76782,76756
 6.6000e+000 76903 -1.3418e+001 -2.3326e+001 -2.2345e+000 63049 76704,76808,76782
 6.6000e+000 76880 -9.6047e+000 -2.7736e+001  5.7100e-001 63049 76704,76756,76730
 6.6000e+000 76857 -7.3562e+000 -1.1689e+001  2.3217e+000 63049 76678,76808,76704
 6.6000e+000 76834 -1.5428e+000 -1.2948e+000 -1.8399e+000 63049 76652,76808,76678
 6.6000e+000 77076 -8.9664e+000 -6.2065e+001 -7.5681e-001 62737 76975,77027,77001
 6.6000e+000 77053 -6.8945e+000 -6.7605e+001 -3.8043e+000 62737 76949,77027,76975
 6.6000e+000 77324 -2.5449e+001 -5.5495e+001 -8.3714e-001 62277 77347,77177,77125
 6.6000e+000 77301 -2.5906e+001 -5.4540e+001 -2.6214e+000 62277 77347,77125,77229
 6.6000e+000 77278 -2.4012e+001 -5.8945e+001 -5.4544e+000 62277 77099,77229,77125
 6.6000e+000 77255 -2.7846e+001 -6.5384e+001  7.0556e-001 62277 77125,77177,77151
 6.6000e+000 77373 -2.6466e+001 -5.8554e+001 -1.2255e-001 62277 77203,77177,77347
 6.6000e+000 77396 -2.5516e+001 -5.6017e+001 -2.1052e+000 62277 77203,77347,77229
 6.6000e+000 77857 -1.7988e+001 -7.3536e+001  1.2681e+000 61758 77635,77739,77661
 6.6000e+000 77834 -2.4179e+001 -7.5085e+001 -1.9216e+000 61758 77583,77739,77635
 6.6000e+000 77811 -2.5613e+001 -9.0376e+001 -8.4967e+000 61758 77583,77635,77609
 6.6000e+000 77788 -1.9815e+001 -7.5529e+001  5.2210e+000 61758 77661,77713,77687
 6.6000e+000 77765 -2.2871e+001 -8.1146e+001  3.9331e+000 61758 77661,77739,77713
 6.6000e+000 78491 -2.2433e+001 -3.6808e+001  2.0975e+000 61418 78171,78301,78249
 6.6000e+000 78468 -1.5494e+001 -2.9271e+001  5.2352e+000 61418 78145,78301,78171
 6.6000e+000 78445 -1.6148e+001 -3.2561e+001 -7.3595e-001 61418 78171,78249,78223
 6.6000e+000 78422 -1.4716e+001 -2.8754e+001  7.6930e-001 61418 78145,78327,78301
 6.6000e+000 78399 -2.3399e+001 -4.3560e+001 -1.8200e+000 61418 78249,78301,78275
 6.6000e+000 78376 -8.7926e+000 -3.6356e+001 -1.9277e+000 61418 78171,78223,78197
 6.6000e+000 78353 -1.7285e+001 -3.8758e+001 -1.8295e+000 61418 78119,78327,78145
 6.6000e+000 78690 -1.3212e+001 -3.4754e+001  1.9699e+000 61014 78713,78566,78540
 6.6000e+000 78667 -1.1865e+001 -3.5012e+001  2.1082e+000 61014 78713,78540,78618
 6.6000e+000 78644 -1.4622e+001 -3.9392e+001 -4.4767e+000 61014 78514,78618,78540
 6.6000e+000 78739 -8.5011e+000 -3.2655e+001  4.4520e+000 61014 78592,78566,78713
 6.6000e+000 78762 -1.5687e+001 -3.8008e+001  4.8030e-001 61014 78785,78713,78618
 6.6000e+000 78811 -4.2877e+000 -3.3068e+001  9.9257e-001 61014 78592,78713,78785
 6.6000e+000 79398 -6.8755e+000 -3.3292e+001 -2.4337e+000 60624 79101,79179,79153
 6.6000e+000 79375 -9.6520e+000 -3.6501e+001 -1.0590e+000 60624 79101,79231,79179
 6.6000e+000 79352 -6.5655e+000 -3.6655e+001 -3.0401e+000 60624 79075,79231,79101
 6.6000e+000 79329 -2.8614e+000 -4.4793e+001  4.6206e+000 60624 79075,79257,79231
 6.6000e+000 79306 -7.5853e+000 -2.8738e+001 -4.5478e+000 60624 79179,79231,79205
 6.6000e+000 79283 -4.9879e+000 -2.9117e+001 -2.8914e-001 60624 79101,79153,79127
 6.6000e+000 79776 -2.6743e+001 -5.6617e+001  2.8796e+000 60070 79528,79658,79606
 6.6000e+000 79753 -2.6286e+001 -5.1283e+001 -3.2493e-001 60070 79502,79658,79528
 6.6000e+000 79730 -3.2971e+001 -5.5525e+001  4.9137e+000 60070 79528,79606,79580
 6.6000e+000 79707 -1.7371e+001 -5.1485e+001  2.3983e-001 60070 79606,79658,79632
 6.6000e+000 79684 -3.1479e+000 -3.4698e+001 -8.7255e+000 60070 79528,79580,79554
 6.6000e+000 80105 -1.9898e+001 -4.5103e+001  4.6732e+000 59758 80128,79958,79906
 6.6000e+000 80082 -1.8429e+001 -4.3480e+001  3.9255e+000 59758 80128,79906,80010
 6.6000e+000 80059 -2.5903e+001 -4.8441e+001  1.2986e+001 59758 79906,79958,79932
 6.6000e+000 80036 -2.4682e+001 -4.7649e+001  2.1515e+000 59758 79880,80010,79906
 6.6000e+000 80154 -1.9089e+001 -4.6228e+001  5.5217e+000 59758 79984,79958,80128
 6.6000e+000 80177 -1.8255e+001 -4.5106e+001  4.9342e+000 59758 79984,80128,80010
 6.6000e+000 80376 -1.1522e+001 -3.0690e+001  2.6028e-001 59312 80226,80304,80252
 6.6000e+000 80353 -1.0083e+001 -3.1105e+001  7.2436e-001 59312 80200,80304,80226
 6.6000e+000 80330 -1.8097e+001 -2.9946e+001  9.0718e+000 59312 80252,80304,80278
 6.6000e+000 80805 -1.7908e+001 -3.7503e+001 -5.7850e+000 58908 80900,80828,80638
 6.6000e+000 80782 -1.6032e+001 -4.5793e+001 -8.6993e+000 58908 80828,80560,80508
 6.6000e+000 80759 -1.8524e+001 -3.5536e+001 -2.6458e+000 58908 80900,80638,80612
 6.6000e+000 80736 -7.9238e+000 -4.0697e+001  1.5990e+001 58908 80482,80664,80508
 6.6000e+000 80713 -1.3641e+001 -3.3548e+001 -1.5445e+000 58908 80560,80612,80586
 6.6000e+000 80690 -1.7536e+001 -1.2121e+002 -2.3042e+001 58908 80508,80560,80534
 6.6000e+000 80854 -8.9052e+000 -4.1275e+001  1.1051e+000 58908 80664,80638,80828
 6.6000e+000 80877 -1.4959e+001 -6.0681e+001  1.9165e+000 58908 80664,80828,80508
 6.6000e+000 80926 -1.5910e+001 -3.1688e+001 -6.1265e+000 58908 80560,80828,80900
 6.6000e+000 80949 -1.7289e+001 -3.1605e+001 -2.5341e+000 58908 80560,80900,80612
 6.6000e+000 81246 -9.3923e+000 -4.0626e+001 -2.0859e-001 58482 81076,81128,81102
 6.6000e+000 81223 -2.1466e+001 -6.7293e+001 -6.2006e+000 58482 80972,81128,81076
 6.6000e+000 81200 -1.3883e+001 -4.6654e+001 -7.7095e+000 58482 80972,81076,81050
 6.6000e+000 81177 -2.8323e+001 -6.8909e+001 -3.8685e+000 58482 80998,81050,81024
 6.6000e+000 81154 -1.7299e+001 -5.4710e+001 -8.6375e+000 58482 80972,81050,80998
 6.6000e+000 81754 -2.1636e+001 -3.8667e+001  1.0191e+000 57828 81457,81613,81483
 6.6000e+000 81731 -2.5090e+001 -4.6461e+001  3.8880e-001 57828 81431,81613,81457
 6.6000e+000 81708 -2.2667e+001 -4.1061e+001  1.9205e+000 57828 81483,81613,81509
 6.6000e+000 81685 -2.7968e+001 -4.7585e+001  4.2102e+000 57828 81509,81613,81587
 6.6000e+000 81662 -2.9213e+001 -6.8690e+001  9.0898e+000 57828 81509,81587,81535
 6.6000e+000 81639 -1.5374e+001 -5.6506e+001  3.6124e+000 57828 81535,81587,81561
 6.6000e+000 82002 -2.5468e+001 -6.2747e+001  9.3860e-002 57374 82025,81855,81829
 6.6000e+000 81979 -2.7258e+001 -5.7361e+001  4.4270e+000 57374 82025,81829,81907
 6.6000e+000 81956 -2.8110e+001 -5.2128e+001  3.2371e+000 57374 81803,81907,81829
 6.6000e+000 81933 -1.4561e+001 -4.6474e+001  4.5579e+000 57374 81777,81907,81803
 6.6000e+000 82051 -2.5678e+001 -5.6446e+001 -1.0316e-001 57374 81881,81855,82025
 6.6000e+000 82074 -2.5894e+001 -5.1389e+001  5.7772e+000 57374 81881,82025,81907
 6.6000e+000 82356 -2.1664e+001 -4.4272e+001 -2.3617e+000 56913 82180,82232,82206
 6.6000e+000 82333 -1.9098e+001 -4.0628e+001  2.0266e+000 56913 82180,82284,82232
 6.6000e+000 82310 -7.5384e+000 -2.8737e+001  6.7600e+000 56913 82379,82232,82284
 6.6000e+000 82405  3.4875e+000 -2.6797e+001  1.4345e+000 56913 82258,82232,82379
 6.6000e+000 82764 -2.0416e+001 -2.8303e+001 -3.3020e+000 56523 82614,82666,82640
 6.6000e+000 82741 -1.7832e+001 -2.6958e+001 -4.5691e+000 56523 82614,82692,82666
 6.6000e+000 82718 -1.3584e+001 -2.7915e+001 -8.5181e+000 56523 82588,82692,82614
 6.6000e+000 83368 -5.7131e-001 -3.6520e+001 -4.3796e-001 55969 82973,83155,83129
 6.6000e+000 83345  1.8569e-001 -3.6924e+001 -3.0944e+000 55969 82973,83181,83155
 6.6000e+000 83322 -9.1695e+000 -3.2684e+001  3.2969e-001 55969 82973,83129,82999
 6.6000e+000 83299 -1.3910e+001 -3.0850e+001  1.8375e-001 55969 83391,83025,82999
 6.6000e+000 83276 -1.2303e+001 -3.3769e+001 -2.8754e-001 55969 83391,82999,83129
 6.6000e+000 83253 -6.9101e-002 -2.5310e+001  7.7855e+000 55969 83077,83129,83103
 6.6000e+000 83230 -1.5468e+001 -2.3895e+001 -9.9013e-001 55969 83025,83077,83051
 6.6000e+000 83207 -1.5195e-002 -3.5412e+001  1.9568e+000 55969 82947,83181,82973
 6.6000e+000 83417 -1.2571e+001 -2.9102e+001  1.9687e+000 55969 83077,83025,83391
 6.6000e+000 83440 -1.2191e+001 -3.2073e+001  8.5062e-001 55969 83077,83391,83129
 6.6000e+000 83946 -3.7336e+001 -7.3871e+001  1.2733e+001 55771 83969,83779,83727
 6.6000e+000 83923 -3.0191e+001 -5.9049e+001  8.6842e+000 55771 83969,83727,83623
 6.6000e+000 83900 -3.3039e+001 -2.7829e+001  4.6008e+000 55771 83623,83727,83649
 6.6000e+000 83877 -2.7268e+001 -1.2212e+002  7.9836e+000 55771 83727,83779,83753
 6.6000e+000 83854 -4.0603e+001 -6.1102e+001  1.1961e+001 55771 83675,83727,83701
 6.6000e+000 83831 -5.0564e+001 -4.6265e+001  2.0020e+001 55771 83649,83727,83675
 6.6000e+000 83995 -3.5876e+001 -7.6995e+001 -5.4896e+000 55771 83805,83779,83969
 6.6000e+000 84018 -2.0953e+001 -4.7590e+001 -1.1130e+001 55771 83805,83969,83623
 6.6000e+000 84168 -1.6645e+001 -3.6334e+001 -6.3860e-001 55367 84191,84067,84041
 6.6000e+000 84145 -1.6594e+001 -3.8525e+001 -4.2975e-001 55367 84191,84041,84119
 6.6000e+000 84217 -1.7129e+001 -3.5004e+001 -6.0792e-001 55367 84093,84067,84191
 6.6000e+000 84240 -1.6454e+001 -3.6325e+001  2.1206e-001 55367 84093,84191,84119
 6.6000e+000 84571 -1.0476e+001 -4.7958e+001 -5.3950e+000 54913 84398,84450,84424
 6.6000e+000 84548 -9.4621e+000 -4.3500e+001 -2.7091e+000 54913 84372,84450,84398
 6.6000e+000 84525 -1.1556e+001 -4.7021e+001  1.0185e+000 54913 84346,84450,84372
 6.6000e+000 84502 -5.0165e+000 -3.1803e+001 -5.7187e+000 54913 84346,84476,84450
 6.6000e+000 85126 -2.9721e+001 -5.6919e+001 -4.7210e+000 54402 84858,84936,84910
 6.6000e+000 85103 -2.3656e+001 -4.2561e+001 -4.6741e+000 54402 84806,84936,84858
 6.6000e+000 85080 -2.6311e+001 -3.8873e+001 -3.5019e+000 54402 84780,84936,84806
 6.6000e+000 85057 -1.9528e+001 -4.8850e+001 -3.2990e-001 54402 84806,84858,84832
 6.6000e+000 85034 -2.7142e+001 -3.7916e+001  2.5478e+000 54402 84780,84962,84936
 6.6000e+000 85011 -3.1542e+001 -3.1502e+001 -2.3390e+000 54402 84858,84910,84884
 6.6000e+000 84988 -2.6615e+001 -4.1331e+001  4.2292e+000 54402 84754,84962,84780
 6.6000e+000 85396 -2.4963e+001 -2.9929e+001 -1.7751e+000 53998 85197,85249,85223
 6.6000e+000 85373 -1.9731e+001 -3.5142e+001 -9.1291e-001 53998 85197,85275,85249
 6.6000e+000 85350 -2.3538e+001 -4.0460e+001 -2.6885e+000 53998 85171,85275,85197
 6.6000e+000 85327 -1.1985e+001 -3.7381e+001 -3.4377e+000 53998 85171,85301,85275
 6.6000e+000 85749 -9.8202e+000 -2.6711e+001 -9.6180e-001 53636 85524,85628,85550
 6.6000e+000 85726 -1.6332e+001 -3.6084e+001  2.1299e+000 53636 85524,85654,85628
 6.6000e+000 85703 -5.0673e+000 -2.9212e+001 -3.5436e+000 53636 85550,85602,85576
 6.6000e+000 85680 -8.1413e+000 -2.5727e+001 -2.0583e+000 53636 85550,85628,85602
 6.6000e+000 86127 -3.7305e+000 -3.4573e+001  7.1192e+000 52982 86150,85957,85879
 6.6000e+000 86104 -1.3429e+001 -4.1363e+001  4.1587e+000 52982 86150,85879,85853
 6.6000e+000 86081 -3.8802e+000 -5.5987e+001  1.1014e+001 52982 85957,86009,85983
 6.6000e+000 86058 -1.5996e+001 -3.6435e+001  4.9929e+000 52982 85879,85957,85931
 6.6000e+000 86035 -1.0624e+001 -3.6173e+001 -1.7755e+000 52982 85879,85931,85905
 6.6000e+000 86176  2.4741e+000 -4.2311e+001  5.8297e+000 52982 86009,85957,86150
 6.6000e+000 86199 -3.2880e+000 -4.6762e+001  3.7896e+000 52982 86009,86150,85853
 6.6000e+000 86398 -1.3933e+001 -3.3967e+001  2.4026e+000 52542 86421,86248,86222
 6.6000e+000 86375 -2.0215e+001 -3.6056e+001 -5.0751e-001 52542 86421,86222,86300
 6.6000e+000 86352 -2.1009e+001 -3.8795e+001 -7.7487e-001 52542 86222,86326,86300
 6.6000e+000 86447 -6.7890e+000 -3.4848e+001  6.0553e+000 52542 86274,86248,86421
 6.6000e+000 86470 -1.3316e+001 -3.8712e+001  2.3203e+000 52542 86274,86421,86300
 6.6000e+000 86669 -1.5404e+001 -3.2700e+001 -1.1134e+001 52230 86692,86571,86545
 6.6000e+000 86646 -1.6903e+001 -3.4941e+001 -6.3541e+000 52230 86692,86545,86519
 6.6000e+000 86623 -2.3370e+001 -3.5318e+001 -3.1039e+000 52230 86493,86597,86519
 6.6000e+000 86718 -1.8499e+001 -3.3392e+001 -8.1504e+000 52230 86597,86571,86692
 6.6000e+000 86741 -2.3264e+001 -3.7085e+001 -3.3061e+000 52230 86597,86692,86519
 6.6000e+000 87153 -2.2099e+001 -2.7547e+001  2.3815e+000 51640 86980,87058,87032
 6.6000e+000 87130 -1.8375e+001 -2.8039e+001  2.2742e+000 51640 86928,87058,86980
 6.6000e+000 87107 -2.0186e+001 -3.5931e+001  1.2385e+000 51640 86928,86980,86954
 6.6000e+000 87084 -9.5939e+000 -2.2198e+001  1.9439e+000 51640 86980,87032,87006
 6.6000e+000 87659 -1.1786e+001 -2.8563e+001  2.4283e+000 51029 87682,87440,87362
 6.6000e+000 87636 -1.0464e+001 -3.0551e+001 -1.9570e+000 51029 87682,87362,87336
 6.6000e+000 87613 -1.7897e+001 -4.7349e+001  2.2459e-002 51029 87440,87518,87466
 6.6000e+000 87590 -1.5677e+001 -2.9304e+001  2.9380e+000 51029 87362,87440,87414
 6.6000e+000 87567 -1.2781e+001 -2.1505e+001  7.6280e+000 51029 87362,87414,87388
 6.6000e+000 87544 -2.2135e+001 -4.3278e+001  1.8545e+000 51029 87466,87518,87492
 6.6000e+000 87708 -1.1545e+001 -3.2496e+001  1.2053e+000 51029 87518,87440,87682
 6.6000e+000 87731 -1.1217e+001 -3.8215e+001 -1.5484e+000 51029 87518,87682,87336
 6.6000e+000 87881 -2.1414e+001 -4.6303e+001  1.2466e+000 50739 87780,87832,87806
 6.6000e+000 87858 -2.3773e+001 -4.4525e+001 -2.1271e+000 50739 87754,87832,87780
 6.6000e+000 88468 -1.7596e+001 -2.9975e+001  1.9029e+000 50235 88171,88327,88197
 6.6000e+000 88445 -3.7194e+001 -2.9795e+001 -5.5309e+000 50235 88145,88327,88171
 6.6000e+000 88422 -1.6630e-001 -1.1633e+001 -5.5343e-001 50235 88275,88327,88301
 6.6000e+000 88399 -1.1001e+001 -1.6269e+001 -6.1580e-001 50235 88197,88327,88275
 6.6000e+000 88376 -4.8710e+000 -2.6166e+001 -6.0105e-001 50235 88197,88275,88223
 6.6000e+000 88353 -6.0131e+000 -3.5064e+001 -2.9166e+000 50235 88223,88275,88249
 6.6000e+000 88895 -2.0759e+001 -4.7544e+001  1.3178e+000 49873 88918,88728,88676
 6.6000e+000 88872 -1.7774e+001 -4.4600e+001 -8.0067e-001 49873 88918,88676,88624
 6.6000e+000 88849 -1.3698e+001 -3.9603e+001 -1.4766e+000 49873 88598,88754,88624
 6.6000e+000 88826 -1.1465e+001 -4.1717e+001 -1.5109e+000 49873 88624,88676,88650
 6.6000e+000 88803 -1.2931e+001 -5.8220e+001  3.4255e+000 49873 88676,88728,88702
 6.6000e+000 88780 -1.7342e+001 -4.0511e+001 -1.6446e+000 49873 88572,88754,88598
 6.6000e+000 88944 -1.7074e+001 -4.7018e+001 -5.4897e-001 49873 88754,88728,88918
 6.6000e+000 88967 -1.5964e+001 -4.6101e+001 -2.3659e+000 49873 88754,88918,88624
 6.6000e+000 89473 -3.4006e+001 -4.4240e+001 -6.9145e+000 49583 89176,89306,89202
 6.6000e+000 89450 -2.8531e+001 -4.2535e+001 -5.6169e+000 49583 89176,89332,89306
 6.6000e+000 89427 -1.5531e+001 -4.5112e+001  3.1507e+000 49583 89496,89228,89202
 6.6000e+000 89404 -1.6568e+001 -4.6053e+001  3.5546e+000 49583 89496,89202,89280
 6.6000e+000 89381 -3.7601e+001 -6.0212e+001 -1.1460e+001 49583 89202,89306,89280
 6.6000e+000 89358 -2.0903e+001 -4.2840e+001 -6.8727e+000 49583 89150,89332,89176
 6.6000e+000 89522 -1.5724e+001 -3.8390e+001  1.4857e+000 49583 89254,89228,89496
 6.6000e+000 89545 -1.9640e+001 -4.3846e+001  3.4090e+000 49583 89254,89496,89280
 6.6000e+000 89825  1.4634e+000 -4.4550e+001  2.8513e-001 49179 89701,89753,89727
 6.6000e+000 89802 -6.5590e+000 -3.8261e+001  2.4585e-001 49179 89675,89753,89701
 6.6000e+000 89779 -5.2262e+000 -3.6112e+001  1.8308e+000 49179 89848,89753,89675
 6.6000e+000 89874 -3.1606e+001 -4.5236e+001 -5.5084e+000 49179 89649,89753,89848
 6.6000e+000 90223 -1.2573e+001 -3.6833e+001 -5.7164e+000 48739 90024,90102,90076
 6.6000e+000 90200 -9.9415e+000 -3.3180e+001 -2.1502e+000 48739 90024,90128,90102
 6.6000e+000 90177  4.2159e+000 -3.5765e+001 -5.8938e+000 48739 90024,90076,90050
 6.6000e+000 90154 -2.2131e+000 -3.0211e+001  1.8701e+000 48739 89998,90128,90024
 6.6000e+000 90603 -8.8221e+000 -2.5683e+001  7.4076e+000 48335 90381,90485,90459
 6.6000e+000 90580 -1.3240e+001 -3.2211e+001  5.3686e+000 48335 90355,90485,90381
 6.6000e+000 90557 -2.7298e+000 -7.7526e+000  2.8136e+000 48335 90381,90433,90407
 6.6000e+000 90534 -9.5788e+000 -2.7789e+001  5.2470e+000 48335 90381,90459,90433
 6.6000e+000 90511  1.0057e+001 -2.0990e+001  8.8580e+000 48335 90329,90485,90355
 6.6000e+000 90753  3.3873e-001 -1.7212e+001  1.1761e+001 47824 90776,90652,90704
 6.6000e+000 90730 -9.7377e+000 -3.3282e+001  5.9460e+000 47824 90626,90704,90652
 6.6000e+000 90802 -4.8167e+000 -2.0648e+001  1.0208e+001 47824 90678,90652,90776
 6.6000e+000 91131 -1.9558e+001 -5.5143e+001  2.7866e+000 47427 91154,90958,90906
 6.6000e+000 91108 -3.2343e+001 -6.0757e+001  4.4173e+000 47427 91154,90906,91036
 6.6000e+000 91085 -2.7090e+001 -4.4162e+001 -4.0232e+000 47427 90958,91010,90984
 6.6000e+000 91062 -2.0152e+001 -4.4351e+001  4.3817e+000 47427 90906,90958,90932
 6.6000e+000 91180 -2.6182e+001 -5.1446e+001 -5.9229e+000 47427 91010,90958,91154
 6.6000e+000 91203 -3.8148e+001 -5.6548e+001 -4.4771e+000 47427 91010,91154,91036
 6.6000e+000 91583 -1.9018e+001 -3.6607e+001 -3.4616e+000 46873 91309,91439,91335
 6.6000e+000 91560 -2.1235e+001 -3.5461e+001 -2.8433e+000 46873 91309,91465,91439
 6.6000e+000 91537 -3.1551e+001 -4.3155e+001 -1.4800e+001 46873 91361,91439,91413
 6.6000e+000 91514 -2.2784e+001 -3.9014e+001 -8.5128e+000 46873 91335,91439,91361
 6.6000e+000 91491 -1.0617e+001 -3.4938e+001 -1.2799e+001 46873 91361,91413,91387
 6.6000e+000 91880 -1.8175e+001 -5.0518e+001 -2.3435e+000 46526 91606,91710,91658
 6.6000e+000 91857 -1.7894e+001 -5.3919e+001  7.2840e-002 46526 91606,91762,91710
 6.6000e+000 91834 -1.2904e+001 -4.8202e+001 -6.0779e+000 46526 91606,91658,91632
 6.6000e+000 91811 -2.1110e+001 -4.5458e+001  5.9800e-001 46526 91658,91710,91684
 6.6000e+000 91788 -1.2295e+001 -3.7687e+001  1.0601e+000 46526 91710,91762,91736
 6.6000e+000 92211 -6.2572e+000 -1.6023e+001 -9.1872e-001 45700 91986,92064,92038
 6.6000e+000 92188 -8.9726e+000 -2.4145e+001  6.5971e-001 45700 91986,92116,92064
 6.6000e+000 92165 -4.0265e+000 -1.1532e+001 -2.0398e+000 45700 91986,92038,92012
 6.6000e+000 92142 -7.0903e+000 -2.5403e+001  2.5171e+000 45700 92064,92116,92090
 6.6000e+000 92766 -1.8221e+001 -3.6157e+001  3.6621e+000 45452 92446,92602,92576
 6.6000e+000 92743 -3.4521e+001 -3.6794e+001 -5.9425e+000 45452 92420,92602,92446
 6.6000e+000 92720 -2.8692e+001 -4.5132e+001  7.4915e+000 45452 92789,92524,92498
 6.6000e+000 92697 -3.1208e+001 -4.1732e+001  6.9293e+000 45452 92789,92498,92446
 6.6000e+000 92674 -2.9277e+001 -4.5346e+001 -1.5734e+000 45452 92524,92576,92550
 6.6000e+000 92651 -4.1436e+001 -4.4980e+001  2.4775e+001 45452 92446,92498,92472
 6.6000e+000 92628 -1.1534e+001 -3.3591e+001 -6.8321e+000 45452 92394,92602,92420
 6.6000e+000 92815 -2.6667e+001 -4.2946e+001  6.6275e+000 45452 92576,92524,92789
 6.6000e+000 92838 -2.9299e+001 -4.0026e+001  6.2132e+000 45452 92576,92789,92446
 6.6000e+000 92939 -2.1020e+001 -5.7315e+001 -1.1390e+001 44998 92861,92913,92887
 6.6000e+000 93319 -6.1810e+000 -6.0383e+001  1.0419e+001 44601 93123,93201,93149
 6.6000e+000 93296 -1.7618e+001 -5.7593e+001 -6.2169e+000 44601 93045,93201,93123
 6.6000e+000 93273 -1.2102e+001 -3.0590e+001 -9.3314e+000 44601 93045,93123,93071
 6.6000e+000 93250 -1.0935e+001 -2.7838e+001 -5.9987e+000 44601 93071,93123,93097
 6.6000e+000 93227 -1.1632e+000 -3.1178e+001  1.0292e+001 44601 93149,93201,93175
 6.6000e+000 93697 -1.3458e+001 -6.6953e+001  4.0620e+000 44026 93720,93553,93527
 6.6000e+000 93674 -2.2279e+001 -5.6447e+001  5.7044e+000 44026 93720,93527,93449
 6.6000e+000 93651 -2.4838e+001 -5.8031e+001 -1.0781e+000 44026 93449,93527,93501
 6.6000e+000 93628 -1.7906e+001 -4.4343e+001 -7.0309e+000 44026 93423,93579,93449
 6.6000e+000 93605 -4.4001e+000 -4.6640e+001  3.6523e+000 44026 93449,93501,93475
 6.6000e+000 93746 -7.8838e+000 -5.8673e+001  1.3962e+000 44026 93579,93553,93720
 6.6000e+000 93769 -1.7005e+001 -4.8116e+001  3.2816e+000 44026 93579,93720,93449
 6.6000e+000 94066 -1.3314e+001 -4.9973e+001 -7.7395e+000 43579 94089,93818,93792
 6.6000e+000 94043 -2.1789e+001 -5.7213e+001 -4.6436e+000 43579 94161,94089,93792
 6.6000e+000 94020 -2.1745e+001 -5.7699e+001 -2.0043e+000 43579 94161,93792,93948
 6.6000e+000 93997 -2.2817e+001 -4.2714e+001 -2.8646e+000 43579 94233,93870,93818
 6.6000e+000 93974 -1.3090e+001 -4.4284e+001  8.2778e-001 43579 93818,93870,93844
 6.6000e+000 94115 -2.2520e+001 -4.3091e+001 -5.3478e+000 43579 94233,93818,94089
 6.6000e+000 94138 -2.9359e+001 -4.9711e+001 -3.9785e+000 43579 93896,94089,93922
 6.6000e+000 94187 -2.0167e+001 -5.2865e+001 -5.4882e+000 43579 93922,94089,94161
 6.6000e+000 94210 -2.0576e+001 -5.3243e+001 -2.5754e+000 43579 93922,94161,93948
 6.6000e+000 94259 -2.4947e+001 -4.7460e+001 -2.3346e+000 43579 93896,93870,94233
 6.6000e+000 94282 -2.4208e+001 -4.7003e+001 -5.2124e+000 43579 93896,94233,94089
 6.6000e+000 94481 -2.0142e+001 -5.3041e+001 -4.5213e-001 43239 94305,94383,94357
 6.6000e+000 94458 -1.7622e+001 -4.8654e+001  5.6177e+000 43239 94305,94409,94383
 6.6000e+000 94435 -1.6624e+001 -5.3250e+001 -1.5961e+000 43239 94305,94357,94331
 6.6000e+000 94633 -4.9330e+000 -2.7414e+001  6.9890e+000 42827 94656,94532,94506
 6.6000e+000 94610 -1.3888e+001 -3.1581e+001  8.1027e+000 42827 94728,94656,94506
 6.6000e+000 94682 -6.6941e+000 -3.3507e+001  5.6212e+000 42827 94558,94532,94656
 6.6000e+000 94705 -1.4401e+000 -3.1567e+001  3.0385e+000 42827 94988,94860,94656
 6.6000e+000 94754 -6.6599e+000 -2.5624e+001  1.8746e+000 42827 94988,94656,94728
 6.6000e+000 94886  2.0881e+000 -2.9927e+001  3.4564e+000 42827 94558,94656,94860
 6.6000e+000 95014  3.0032e+000 -2.6435e+001  7.7421e-001 42827 94584,94860,94988
 6.6000e+000 95037 -2.0585e+000 -2.1766e+001 -6.3256e-001 42827 94584,94988,94728
 6.6000e+000 95236 -5.5915e-002 -2.6494e+001  5.7904e+000 42537 95259,95112,95060
 6.6000e+000 95213 -3.2695e+000 -2.1531e+001  3.6909e+000 42537 95259,95060,95164
 6.6000e+000 95190  3.1626e+000 -2.6798e+001  4.9513e-001 42537 95060,95112,95086
 6.6000e+000 95285 -2.1728e+000 -2.9130e+001  4.7652e+000 42537 95138,95112,95259
 6.6000e+000 95308 -6.3856e+000 -2.6462e+001  2.1700e+000 42537 95138,95259,95164
 6.6000e+000 95816 -1.7010e+001 -4.5445e+001 -2.3260e+000 41969 95493,95597,95519
 6.6000e+000 95793 -2.3265e+001 -3.9166e+001  4.4024e+000 41969 95493,95649,95597
 6.6000e+000 95770 -1.7892e+001 -3.9022e+001  6.3126e+000 41969 95493,95675,95649
 6.6000e+000 95747 -1.6647e+001 -5.2442e+001  4.2519e+000 41969 95597,95649,95623
 6.6000e+000 95724 -2.7884e+001 -3.8777e+001 -5.8317e+000 41969 95519,95597,95571
 6.6000e+000 95701 -2.5203e+001 -3.3283e+001 -8.3384e+000 41969 95519,95571,95545
 6.6000e+000 96371 -2.2178e+001 -5.3091e+001  6.8085e+000 41579 96025,96207,96181
 6.6000e+000 96348  6.7460e+000 -3.9416e+001 -4.0391e+000 41579 95999,96207,96025
 6.6000e+000 96325 -2.3779e+001 -4.0341e+001 -5.0375e+000 41579 96129,96181,96155
 6.6000e+000 96302 -8.3212e+000 -3.4586e+001 -2.4742e-001 41579 96025,96181,96129
 6.6000e+000 96279 -2.1872e+001 -5.6587e+001  8.5132e+000 41579 96025,96129,96051
 6.6000e+000 96256 -1.9691e+001 -4.5421e+001  5.3440e+000 41579 96051,96103,96077
 6.6000e+000 96233 -7.5040e+000 -3.5500e+001 -4.5110e-001 41579 96051,96129,96103
 6.6000e+000 96877 -6.4314e+000 -3.2296e+001 -4.8728e+000 41182 96972,96900,96632
 6.6000e+000 96854 -7.7632e+000 -2.1413e+001 -4.4558e+000 41182 96900,96554,96736
 6.6000e+000 96831 -5.9163e+000 -3.2609e+001 -3.4440e+000 41182 96972,96632,96580
 6.6000e+000 96808 -6.8704e+000 -2.8900e+001  4.8105e+000 41182 96632,96684,96658
 6.6000e+000 96785 -1.3735e+001 -3.5600e+001  4.0104e+000 41182 96684,96736,96710
 6.6000e+000 96762 -2.2056e+001 -4.4722e+001  8.4696e+000 41182 96580,96632,96606
 6.6000e+000 96926 -5.3293e+000 -3.6411e+001 -4.6659e+000 41182 96684,96632,96900
 6.6000e+000 96949 -1.0325e+001 -3.1696e+001 -7.6499e+000 41182 96684,96900,96736
 6.6000e+000 96998 -8.7082e+000 -3.3114e+001 -4.1519e+000 41182 96554,96900,96972
 6.6000e+000 97021 -8.8156e+000 -3.4140e+001 -2.5685e+000 41182 96554,96972,96580
 6.6000e+000 97576 -2.5909e+001 -6.8429e+001 -9.4314e+000 40678 97230,97412,97282
 6.6000e+000 97553 -2.2578e+000 -5.7910e+001  1.9374e+000 40678 97204,97412,97230
 6.6000e+000 97530 -4.3792e+000 -4.9918e+001 -1.1115e+001 40678 97282,97360,97308
 6.6000e+000 97507 -1.0156e+001 -5.0877e+001 -2.5937e+000 40678 97282,97412,97360
 6.6000e+000 97484  1.9661e+000 -2.6369e+001 -9.1685e+000 40678 97308,97360,97334
 6.6000e+000 97461 -1.2157e+001 -6.1276e+001 -1.7704e+000 40678 97360,97412,97386
 6.6000e+000 97438 -1.5417e+001 -4.3787e+001 -8.2684e+000 40678 97230,97282,97256
 6.6000e+000 97976 -2.7541e+001 -4.0445e+001 -7.2707e-001 40244 97702,97832,97754
 6.6000e+000 97953 -2.2260e+001 -4.1403e+001 -1.5720e+000 40244 97702,97858,97832
 6.6000e+000 97930 -3.0062e+001 -4.9312e+001 -1.0378e+001 40244 97702,97754,97728
 6.6000e+000 97907 -2.0969e+001 -4.1368e+001  4.9205e+000 40244 97780,97832,97806
 6.6000e+000 97884 -2.2063e+001 -3.7057e+001  1.1513e+000 40244 97754,97832,97780
 6.6000e+000 98482 -6.4018e+000 -2.6316e+001  5.7827e+000 39690 98505,98185,98159
 6.6000e+000 98459 -7.5621e+000 -2.5496e+001  5.1969e+000 39690 98505,98159,98289
 6.6000e+000 98436 -1.9366e+001 -4.3898e+001  1.3454e+001 39690 98159,98315,98289
 6.6000e+000 98413 -4.4259e+000 -2.4301e+001  4.3520e+000 39690 98211,98289,98263
 6.6000e+000 98390 -2.4546e+000 -9.1839e+000  2.9965e+000 39690 98211,98263,98237
 6.6000e+000 98367 -3.4853e+000 -2.0171e+001  2.2035e+000 39690 98159,98341,98315
 6.6000e+000 98531 -5.0221e+000 -2.5731e+001  5.6602e+000 39690 98211,98185,98505
 6.6000e+000 98554 -6.5898e+000 -2.5137e+001  5.0226e+000 39690 98211,98505,98289
 6.6000e+000 99109 -1.3138e+001 -3.1996e+001 -3.1074e+000 39072 99132,98867,98789
 6.6000e+000 99086 -1.5395e+001 -3.3235e+001 -3.5867e+000 39072 99132,98789,98763
 6.6000e+000 99063 -1.9020e+001 -5.4988e+001  4.8274e+000 39072 98867,98945,98919
 6.6000e+000 99040 -1.1646e+001 -3.5875e+001 -2.7130e-001 39072 98789,98867,98841
 6.6000e+000 99017 -2.5157e+001 -3.9281e+001  5.4555e-001 39072 98867,98919,98893
 6.6000e+000 98994 -1.6474e+001 -2.9148e+001  6.5186e+000 39072 98789,98841,98815
 6.6000e+000 98971 -1.9828e+001 -3.7185e+001 -4.2158e+000 39072 98737,98945,98763
 6.6000e+000 99158 -1.1959e+001 -3.3674e+001 -3.7482e+000 39072 98945,98867,99132
 6.6000e+000 99181 -1.2975e+001 -3.4238e+001 -4.0602e+000 39072 98945,99132,98763
 6.6000e+000 99510 -1.2336e+001 -2.7529e+001  2.2857e+000 38668 99311,99389,99363
 6.6000e+000 99487 -1.0492e+001 -2.8877e+001 -8.1120e-001 38668 99285,99389,99311
 6.6000e+000 99464 -2.2007e+001 -4.0994e+001  4.0978e+000 38668 99285,99415,99389
 6.6000e+000 99441 -1.0260e+001 -2.9546e+001  3.4434e+000 38668 99311,99363,99337
 6.6000e+000 99758 -1.1521e+001 -4.4620e+001  9.2625e+000 38164 99781,99611,99585
 6.6000e+000 99735 -3.5903e+000 -4.5883e+001  1.0276e+001 38164 99781,99585,99533
 6.6000e+000 99712 -1.9423e+001 -4.3309e+001  6.1601e+000 38164 99611,99663,99637
 6.6000e+000 99689  1.8757e+000 -4.7767e+001 -7.6900e-001 38164 99533,99585,99559
 6.6000e+000 99807 -1.6056e+001 -4.4154e+001  1.1439e+001 38164 99663,99611,99781
 6.6000e+000 99830 -1.0110e+001 -4.6454e+001  1.1188e+001 38164 99663,99781,99533
 6.6000e+000 100232 -9.2196e+000 -2.8971e+001 -1.8622e-001 37702 99984,100114,100088
 6.6000e+000 100209 -6.2768e+000 -2.8939e+001  2.5852e+000 37702 99958,100114,99984
 6.6000e+000 100186 -1.3336e+001 -3.7156e+001 -2.8290e+000 37702 100010,100088,100036
 6.6000e+000 100163 -7.8631e+000 -2.8408e+001 -3.1748e-001 37702 99984,100088,100010
 6.6000e+000 100140 -5.0643e+000 -2.3796e+001 -8.3438e+000 37702 100036,100088,100062
 6.6000e+000 100640 -2.4892e+001 -3.7706e+001  6.6686e+000 37262 100493,100545,100519
 6.6000e+000 100617 -2.4315e+001 -4.5578e+001  2.9271e+000 37262 100441,100545,100493
 6.6000e+000 100594 -6.7857e+000 -3.4010e+001 -4.4951e+000 37262 100415,100545,100441
 6.6000e+000 100571 -2.7558e+001 -4.8979e+001 -1.7102e+000 37262 100441,100493,100467
 6.6000e+000 101146 -2.1652e+001 -3.6404e+001 -1.3479e+000 36872 100823,100979,100849
 6.6000e+000 101123 -2.0486e+001 -3.2552e+001 -3.9442e+000 36872 100823,101005,100979
 6.6000e+000 101100 -2.0724e+001 -5.0582e+001  6.0784e+000 36872 101169,100901,100849
 6.6000e+000 101077 -1.6467e+001 -4.1760e+001  2.7616e+000 36872 101169,100849,100979
 6.6000e+000 101054 -1.2950e+001 -4.3825e+001 -3.2707e+000 36872 100927,100979,100953
 6.6000e+000 101031 -1.1927e+001 -5.4874e+001  8.6504e+000 36872 100849,100901,100875
 6.6000e+000 101195 -1.4553e+001 -5.2981e+001  5.1074e-001 36872 100927,100901,101169
 6.6000e+000 101218 -1.1847e+001 -4.8319e+001 -2.2569e+000 36872 100927,101169,100979
 6.6000e+000 101773 -2.0242e+001 -3.3276e+001  8.4494e+000 36418 101479,101609,101583
 6.6000e+000 101750 -2.2483e+001 -3.4309e+001  6.5765e+000 36418 101453,101609,101479
 6.6000e+000 101727 -1.4401e+001 -3.8665e+001  3.2434e-001 36418 101796,101531,101479
 6.6000e+000 101704 -2.1927e+001 -4.3153e+001  2.9158e+000 36418 101796,101479,101583
 6.6000e+000 101681 -1.1888e+001 -3.2212e+001 -5.9740e-001 36418 101479,101531,101505
 6.6000e+000 101658  8.7327e-001 -2.9403e+001  1.4658e+000 36418 101401,101609,101453
 6.6000e+000 101635 -6.4461e+000 -2.0397e+001  4.0341e+000 36418 101401,101453,101427
 6.6000e+000 101822 -1.6472e+001 -3.5401e+001 -7.0679e+000 36418 101557,101531,101796
 6.6000e+000 101845 -2.5974e+001 -3.8253e+001 -5.0004e+000 36418 101557,101796,101583
 6.6000e+000 102174 -1.1668e+000 -7.2309e+000 -3.0610e+000 35914 101949,102053,101975
 6.6000e+000 102151 -3.0409e+000 -4.5183e+000 -3.4699e+000 35914 101949,102079,102053
 6.6000e+000 102128 -6.9944e+000 -9.7083e+000 -3.1141e+000 35914 101975,102053,102027
 6.6000e+000 102105 -3.2402e+000 -7.7270e+000 -5.2321e+000 35914 101975,102027,102001
 6.6000e+000 102631 -9.0666e+000 -4.3607e+001  4.5528e-001 35574 102383,102513,102487
 6.6000e+000 102608 -5.1924e+000 -4.5812e+001  2.9231e-001 35574 102357,102513,102383
 6.6000e+000 102585 -1.5136e+001 -4.4643e+001  1.5353e+000 35574 102409,102487,102435
 6.6000e+000 102562 -1.4013e+001 -4.5804e+001  8.5427e-001 35574 102383,102487,102409
 6.6000e+000 102539 -1.5794e+001 -4.6196e+001  1.4259e+000 35574 102435,102487,102461
 6.6000e+000 103009 -2.4998e+001 -4.3108e+001 -3.2584e+000 35170 102761,102865,102787
 6.6000e+000 102986 -1.5171e+001 -3.7687e+001  4.3332e+000 35170 102761,102891,102865
 6.6000e+000 102963 -2.3580e+001 -4.3825e+001 -1.9142e+000 35170 102787,102865,102813
 6.6000e+000 102940 -1.2349e+001 -3.6920e+001  4.8550e+000 35170 102735,102891,102761
 6.6000e+000 102917 -2.4499e+001 -4.7091e+001 -5.2438e+000 35170 102813,102865,102839
 6.6000e+000 103257 -3.5638e+000 -2.6826e+001 -3.8479e+000 34659 103280,103058,103032
 6.6000e+000 103234 -5.2745e+000 -2.9205e+001 -2.6710e+000 34659 103280,103032,103162
 6.6000e+000 103211 -9.5906e+000 -2.8663e+001 -2.4485e+000 34659 103084,103162,103110
 6.6000e+000 103188 -1.2453e+001 -3.5662e+001 -2.3105e+000 34659 103110,103162,103136
 6.6000e+000 103306 -5.9957e+000 -2.3921e+001 -2.7503e+000 34659 103084,103058,103280
 6.6000e+000 103329 -7.4968e+000 -2.6732e+001 -1.4651e+000 34659 103084,103280,103162
 6.6000e+000 103837 -3.0629e+000 -4.8119e+001  1.6873e+000 34247 103860,103566,103540
 6.6000e+000 103814 -7.2750e+000 -4.8936e+001 -8.3101e-002 34247 103932,103860,103540
 6.6000e+000 103791 -5.6421e+000 -5.5647e+001 -6.7773e+000 34247 103932,103540,103670
 6.6000e+000 103768 -5.3963e+000 -4.3790e+001  1.8582e+000 34247 103566,103618,103592
 6.6000e+000 103745 -1.9303e+001 -4.5162e+001 -7.7568e+000 34247 103540,103696,103670
 6.6000e+000 103722 -2.6455e+001 -5.1217e+001  7.8301e+000 34247 103514,103696,103540
 6.6000e+000 103886 -1.1261e+001 -4.8201e+001 -1.1733e+000 34247 103618,103566,103860
 6.6000e+000 103909 -1.2044e+001 -5.2224e+001  1.0518e+000 34247 103618,103860,103644
 6.6000e+000 103958 -1.2994e+001 -6.5129e+001 -1.9393e+000 34247 103644,103860,103932
 6.6000e+000 103981 -1.1453e+001 -7.1363e+001 -8.9559e+000 34247 103644,103932,103670
 6.6000e+000 104300 -2.6886e+001 -5.2440e+001 -2.6832e+000 33843 104052,104182,104156
 6.6000e+000 104277 -3.3163e+001 -4.9445e+001 -1.4126e+000 33843 104026,104182,104052
 6.6000e+000 104254 -2.6121e+001 -6.1130e+001  1.9004e+000 33843 104078,104156,104130
 6.6000e+000 104231 -3.3557e+001 -5.8291e+001 -7.2916e-002 33843 104052,104156,104078
 6.6000e+000 104208 -3.8411e+001 -6.4827e+001  2.5551e+000 33843 104078,104130,104104
 6.6000e+000 104499 -1.5453e+001 -5.0846e+001 -3.6194e+000 33282 104594,104522,104375
 6.6000e+000 104476 -1.4280e+001 -5.1352e+001  1.6350e+000 33282 104522,104323,104427
 6.6000e+000 104453 -9.2021e+000 -5.3483e+001 -3.5346e+000 33282 104594,104375,104349
 6.6000e+000 104548 -1.6972e+001 -4.6924e+001 -1.4417e+000 33282 104401,104375,104522
 6.6000e+000 104571 -1.1674e+001 -4.5669e+001  1.0027e+000 33282 104401,104522,104427
 6.6000e+000 104620 -7.2843e+000 -4.6205e+001 -9.3187e-001 33282 104323,104522,104594
 6.6000e+000 104643 -3.1971e+000 -5.0928e+001 -1.6846e+000 33282 104323,104594,104349
 6.6000e+000 104942 -1.9935e+001 -5.2153e+001  7.0668e+000 32728 104694,104772,104720
 6.6000e+000 104919 -1.6662e+001 -4.7877e+001  2.5903e+000 32728 104694,104824,104772
 6.6000e+000 104896 -2.7163e+001 -4.5144e+001  8.2471e+000 32728 104720,104772,104746
 6.6000e+000 104873 -1.3138e+001 -5.5537e+001  3.2066e+000 32728 104772,104824,104798
 6.6000e+000 104850 -1.4245e+001 -4.7327e+001  2.6331e+000 32728 104668,104824,104694
 6.6000e+000 105373 -1.1500e+001 -4.6957e+001 -2.3703e+000 32274 105396,105102,105076
 6.6000e+000 105350 -1.4162e+001 -5.2142e+001 -6.4437e-001 32274 105396,105076,105206
 6.6000e+000 105327 -2.1522e+001 -5.6270e+001  4.0313e+000 32274 105154,105206,105180
 6.6000e+000 105304 -4.1538e+000 -4.9731e+001 -4.2891e+000 32274 105076,105232,105206
 6.6000e+000 105281 -1.5738e+001 -4.1502e+001 -7.1097e+000 32274 105102,105154,105128
 6.6000e+000 105258 -2.6140e+001 -4.0824e+001 -8.9275e+000 32274 105050,105232,105076
 6.6000e+000 105422 -1.5362e+001 -4.1177e+001 -2.3423e+000 32274 105154,105102,105396
 6.6000e+000 105445 -1.7675e+001 -4.6314e+001 -9.5319e-001 32274 105154,105396,105206
 6.6000e+000 105644 -2.1926e+001 -5.8307e+001 -8.8507e-001 31620 105468,105546,105520
 6.6000e+000 105621 -1.7509e+001 -6.0222e+001 -3.0212e+000 31620 105468,105572,105546
 6.6000e+000 105598 -2.1259e+001 -6.0894e+001  2.7088e+000 31620 105468,105520,105494
 6.6000e+000 105794  3.2051e+000 -3.9385e+001 -1.7865e+000 31158 105889,105817,105693
 6.6000e+000 105771 -4.9425e-001 -3.2636e+001 -3.2227e+000 31158 105817,105667,105745
 6.6000e+000 105843  1.1750e+000 -5.2287e+001 -7.1324e-001 31158 105719,105693,105817
 6.6000e+000 105866  4.0663e+000 -4.2117e+001 -3.0179e+000 31158 105719,105817,105745
 6.6000e+000 105915 -4.9642e+000 -4.2886e+001 -1.8769e+000 31158 105667,105817,105889
 6.6000e+000 106270 -1.7614e+001 -4.3433e+001 -2.0166e+000 30818 106293,106071,106045
 6.6000e+000 106247 -2.2436e+001 -5.4482e+001 -4.4311e+000 30818 106293,106045,106175
 6.6000e+000 106224 -1.6613e+001 -4.0647e+001  2.2728e+000 30818 106123,106175,106149
 6.6000e+000 106201 -1.8921e+001 -4.4850e+001  6.0509e+000 30818 106071,106123,106097
 6.6000e+000 106319 -1.9260e+001 -3.9133e+001  2.3005e+000 30818 106123,106071,106293
 6.6000e+000 106342 -2.0584e+001 -4.5030e+001  2.5186e-001 30818 106123,106293,106175
 6.6000e+000 106492 -1.8647e+001 -3.8847e+001  9.0950e+000 30414 106645,106391,106365
 6.6000e+000 106469 -1.2585e+000 -3.7055e+001  1.2583e+001 30414 106515,106365,106443
 6.6000e+000 106541 -9.7524e+000 -4.0617e+001  1.0334e+001 30414 106645,106365,106515
 6.6000e+000 106671 -5.8798e+000 -5.1110e+001  1.9603e+001 30414 106417,106391,106645
 6.6000e+000 106694  1.5832e+001 -4.4740e+001  1.6292e+001 30414 106417,106645,106515
 6.6000e+000 106942 -1.1176e+001 -6.4914e+001 -5.6299e-002 29910 106965,106795,106769
 6.6000e+000 106919 -8.9311e+000 -6.0067e+001  1.5408e+000 29910 106965,106769,106717
 6.6000e+000 106896 -1.1695e+001 -5.3039e+001 -4.3762e+000 29910 106795,106847,106821
 6.6000e+000 106873 -5.1825e+000 -5.2376e+001  3.1250e+000 29910 106717,106769,106743
 6.6000e+000 106991 -1.4903e+001 -5.9186e+001  9.5987e-001 29910 106847,106795,106965
 6.6000e+000 107014 -1.1672e+001 -5.2806e+001  2.6423e+000 29910 106847,106965,106717
 6.6000e+000 107213 -1.0556e+001 -4.8058e+001  4.1833e+000 29413 107236,107063,107037
 6.6000e+000 107190 -1.1203e+001 -5.7309e+001  7.6754e+000 29413 107236,107037,107141
 6.6000e+000 107167 -1.4649e+001 -3.2432e+001  8.5742e+000 29413 107063,107115,107089
 6.6000e+000 107262 -1.0714e+001 -4.1442e+001  2.1565e+000 29413 107115,107063,107236
 6.6000e+000 107285 -1.0059e+001 -4.8498e+001  5.8598e+000 29413 107115,107236,107141
 6.6000e+000 107486 -5.0400e+000 -4.6138e+001  7.4664e+000 29009 107336,107388,107362
 6.6000e+000 107463 -2.6597e+000 -4.4603e+001  1.5704e+000 29009 107310,107388,107336
 6.6000e+000 107440 -4.1197e+000 -4.3548e+001  1.9200e+000 29009 107310,107414,107388
 6.6000e+000 107736 -1.9549e+001 -5.3742e+001 -8.3687e-001 28491 107537,107615,107563
 6.6000e+000 107713 -1.7338e+001 -5.2993e+001 -1.7038e+000 28491 107537,107641,107615
 6.6000e+000 107690 -1.2271e+001 -4.9580e+001  1.8062e+000 28491 107563,107615,107589
 6.6000e+000 107667 -1.6244e+001 -5.1119e+001 -1.1376e+000 28491 107511,107641,107537
 6.6000e+000 108118 -1.2169e+001 -5.0808e+001  1.7535e+000 27980 108141,107922,107844
 6.6000e+000 108095 -9.5519e+000 -5.4818e+001  1.5380e+000 27980 108141,107844,108000
 6.6000e+000 108072 -1.2471e+001 -5.2282e+001 -2.7521e+000 27980 107844,107922,107870
 6.6000e+000 108049 -1.3043e+001 -4.5789e+001 -1.6815e+000 27980 107870,107922,107896
 6.6000e+000 108026 -1.8456e+001 -4.8463e+001  5.6122e+000 27980 107922,107974,107948
 6.6000e+000 108167 -1.0256e+001 -5.1103e+001  2.6599e+000 27980 107974,107922,108141
 6.6000e+000 108190 -3.1457e+000 -5.0986e+001  3.6409e+000 27980 107974,108141,108000
 6.6000e+000 108745 -1.3767e+000 -2.6687e+001 -1.6387e+000 27376 108840,108768,108477
 6.6000e+000 108722 -6.1114e+000 -3.5660e+001 -9.2000e+000 27376 108768,108373,108581
 6.6000e+000 108699 -5.7826e+000 -2.2883e+001  5.8987e+000 27376 108840,108477,108451
 6.6000e+000 108676 -2.1865e+001 -2.9089e+001 -1.9986e+000 27376 108373,108451,108399
 6.6000e+000 108653 -6.2831e+000 -3.6929e+001  6.7233e+000 27376 108503,108581,108529
 6.6000e+000 108630 -6.7918e+000 -3.1133e+001  6.1497e+000 27376 108529,108581,108555
 6.6000e+000 108607 -2.6373e+001 -3.5697e+001  1.8894e+000 27376 108399,108451,108425
 6.6000e+000 108794 -4.8646e+000 -3.7205e+001 -9.5073e-001 27376 108503,108477,108768
 6.6000e+000 108817  3.5193e+000 -3.4636e+001 -1.9374e+000 27376 108503,108768,108581
 6.6000e+000 108866 -1.6888e+001 -3.4587e+001 -4.4729e+000 27376 108373,108768,108840
 6.6000e+000 108889 -1.6250e+001 -2.8723e+001  3.2473e+000 27376 108373,108840,108451
 6.6000e+000 109186 -1.9189e+001 -5.3088e+001  6.5918e+000 26722 109209,108938,108912
 6.6000e+000 109163 -1.7473e+001 -4.8651e+001  5.2298e+000 26722 109281,109209,108912
 6.6000e+000 109140 -1.7217e+001 -4.7306e+001  5.1627e+000 26722 109281,108912,109042
 6.6000e+000 109117 -1.3566e+001 -5.4437e+001  2.7398e+000 26722 108938,108990,108964
 6.6000e+000 109094 -2.5376e+001 -4.3641e+001  3.7957e+000 26722 108912,109068,109042
 6.6000e+000 109235 -1.4550e+001 -5.0232e+001  5.2409e+000 26722 108990,108938,109209
 6.6000e+000 109258 -1.7049e+001 -5.2666e+001  4.1342e+000 26722 108990,109209,109016
 6.6000e+000 109307 -1.6256e+001 -5.0633e+001  3.0756e+000 26722 109016,109209,109281
 6.6000e+000 109330 -1.5585e+001 -4.8524e+001  2.7775e+000 26722 109016,109281,109042
 6.6000e+000 109732 -1.6038e+001 -3.7867e+001 -3.5154e+000 26310 109458,109588,109484
 6.6000e+000 109709 -1.6972e+001 -4.2628e+001 -4.5444e+000 26310 109458,109614,109588
 6.6000e+000 109686 -3.4023e+001 -5.3355e+001  7.3520e+000 26310 109510,109562,109536
 6.6000e+000 109663 -4.1336e+001 -5.4465e+001  4.5816e+000 26310 109484,109562,109510
 6.6000e+000 109640 -2.3322e+001 -4.1217e+001 -2.7081e+000 26310 109484,109588,109562
 6.6000e+000 110159 -1.0324e+001 -4.3461e+001 -9.1390e-001 25642 110182,109940,109914
 6.6000e+000 110136 -7.4266e+000 -4.8338e+001  8.6331e+000 25642 110182,109914,109888
 6.6000e+000 110113 -1.5658e+001 -5.2524e+001 -6.9802e+000 25642 109966,110018,109992
 6.6000e+000 110090 -1.7476e+001 -5.1202e+001  4.0921e+000 25642 110254,109966,109940
 6.6000e+000 110067 -2.1289e+001 -4.6375e+001  4.7068e+000 25642 109862,110018,109888
 6.6000e+000 110044 -2.0251e+001 -3.7521e+001  9.1005e+000 25642 109836,110018,109862
 6.6000e+000 110208 -1.6042e+001 -4.7859e+001  3.0976e+000 25642 110254,109940,110182
 6.6000e+000 110231 -1.7637e+001 -5.0503e+001  8.5387e+000 25642 110018,110182,109888
 6.6000e+000 110280 -1.3993e+001 -5.5775e+001  3.7241e+000 25642 110018,109966,110254
 6.6000e+000 110303 -1.3400e+001 -5.3398e+001  2.9698e+000 25642 110018,110254,110182
 6.6000e+000 110632 -2.2337e+001 -4.0937e+001 -4.1093e+000 25188 110407,110485,110433
 6.6000e+000 110609 -3.4084e+001 -4.8009e+001 -2.7360e-002 25188 110407,110537,110485
 6.6000e+000 110586 -2.1805e+001 -4.1421e+001 -1.3773e+001 25188 110433,110485,110459
 6.6000e+000 110563 -3.1495e+001 -5.4626e+001  1.1859e+001 25188 110485,110537,110511
 6.6000e+000 110831 -2.8715e+000 -4.2993e+001  2.0444e+000 24726 110854,110707,110655
 6.6000e+000 110808 -1.3319e+000 -4.6491e+001  5.3882e+000 24726 110854,110655,110759
 6.6000e+000 110785 -4.3402e+000 -4.4388e+001  2.8884e+000 24726 110655,110707,110681
 6.6000e+000 110880 -1.5496e+000 -3.9594e+001  2.2387e+000 24726 110733,110707,110854
 6.6000e+000 110903  7.9521e-001 -4.1489e+001  5.7935e+000 24726 110733,110854,110759
 6.6000e+000 111234 -8.6983e-001 -2.9554e+001 -1.9347e+000 24222 111257,111087,111035
 6.6000e+000 111211  2.7545e+000 -2.7888e+001  3.3864e+000 24222 111257,111035,111009
 6.6000e+000 111188 -6.1670e+000 -1.1205e+001 -9.6057e+000 24222 111035,111087,111061
 6.6000e+000 111165 -4.4552e+000 -2.2508e+001 -1.1594e+000 24222 111087,111139,111113
 6.6000e+000 111283 -3.6049e+000 -2.3814e+001  1.8578e-001 24222 111139,111087,111257
 6.6000e+000 111306 -1.9239e+000 -1.9457e+001  3.6226e+000 24222 111139,111257,111009
 6.6000e+000 111625  4.6297e-001 -3.6785e+001 -1.6245e+000 23732 111648,111481,111455
 6.6000e+000 111602  7.5087e-001 -3.6342e+001 -1.7481e+000 23732 111648,111455,111377
 6.6000e+000 111579  1.4346e+001 -1.1339e+001  5.4365e+000 23732 111377,111429,111403
 6.6000e+000 111556  5.3108e+000 -3.5021e+001 -1.6591e+000 23732 111377,111455,111429
 6.6000e+000 111533  3.5562e+000 -3.3062e+001 -1.1145e+000 23732 111351,111507,111377
 6.6000e+000 111674  7.8782e-001 -3.7460e+001 -2.1122e+000 23732 111507,111481,111648
 6.6000e+000 111697  1.1840e+000 -3.6593e+001 -2.2415e+000 23732 111507,111648,111377
 6.6000e+000 112156 -1.1803e+001 -5.1648e+001  4.0536e+000 23278 112179,111908,111882
 6.6000e+000 112133 -1.1144e+001 -4.7898e+001  2.0919e+000 23278 112179,111882,112012
 6.6000e+000 112110 -2.3324e+000 -5.6008e+001  3.6869e-001 23278 111908,111960,111934
 6.6000e+000 112087 -4.5483e+000 -4.2328e+001 -5.7516e-001 23278 111882,112038,112012
 6.6000e+000 112064 -9.7259e+000 -4.2386e+001 -3.4386e-001 23278 111960,112012,111986
 6.6000e+000 112205 -1.1072e+001 -4.9819e+001  9.9190e-001 23278 111960,111908,112179
 6.6000e+000 112228 -9.1794e+000 -4.5514e+001 -1.2240e+000 23278 111960,112179,112012
 6.6000e+000 112685 -2.9739e+001 -7.0759e+001 -5.9514e+000 22938 112489,112567,112541
 6.6000e+000 112662 -2.3583e+001 -5.7053e+001 -4.6812e+000 22938 112437,112567,112489
 6.6000e+000 112639 -2.1541e+001 -5.5588e+001 -1.5661e+000 22938 112489,112541,112515
 6.6000e+000 112616 -2.8206e+001 -5.3320e+001 -3.6725e+000 22938 112411,112567,112437
 6.6000e+000 112593 -2.2265e+001 -7.7214e+001  1.1099e+000 22938 112437,112489,112463
 6.6000e+000 113191 -5.7307e-001 -5.3590e+001 -7.7006e+000 22534 113214,112998,112946
 6.6000e+000 113168 -8.9303e+000 -4.6599e+001 -4.1639e+000 22534 113286,113214,112946
 6.6000e+000 113145 -6.0896e+000 -4.7006e+001 -3.2864e+000 22534 113286,112946,112920
 6.6000e+000 113122 -2.1872e+001 -4.1277e+001 -1.1245e+001 22534 113358,113024,112998
 6.6000e+000 113099 -1.2838e+001 -4.3617e+001 -2.4392e+000 22534 112868,113050,112894
 6.6000e+000 113076 -1.3197e+001 -7.4208e+001 -1.3494e+001 22534 112946,112998,112972
 6.6000e+000 113240 -1.5543e+001 -5.4772e+001 -1.1810e+001 22534 113358,112998,113214
 6.6000e+000 113263 -1.2506e+001 -4.8147e+001 -3.0079e+000 22534 113050,113214,112894
 6.6000e+000 113312 -5.5739e+000 -4.5161e+001 -3.2150e+000 22534 112894,113214,113286
 6.6000e+000 113335 -2.8868e+000 -4.6068e+001 -2.7920e+000 22534 112894,113286,112920
 6.6000e+000 113384 -1.4853e+001 -2.8294e+001 -8.4255e+000 22534 113050,113024,113358
 6.6000e+000 113407 -5.8816e+000 -3.9737e+001 -7.4523e+000 22534 113050,113358,113214
 6.6000e+000 113785 -2.1158e+001 -6.2055e+001  2.7893e+000 21978 113808,113615,113511
 6.6000e+000 113762 -1.7337e+001 -6.3240e+001  5.7336e+000 21978 113808,113511,113667
 6.6000e+000 113739 -7.1248e+000 -5.0943e+001 -2.7526e+000 21978 113511,113615,113537
 6.6000e+000 113716  1.0286e+001 -4.6729e+001 -5.9611e+000 21978 113537,113615,113589
 6.6000e+000 113693 -3.9001e+000 -6.7835e+001  5.8083e-001 21978 113537,113589,113563
 6.6000e+000 113834 -2.1613e+001 -6.1545e+001  7.6038e+000 21978 113641,113615,113808
 6.6000e+000 113857 -1.1327e+001 -5.7665e+001  1.1107e+001 21978 113641,113808,113667
 6.6000e+000 114284 -1.4690e+001 -4.9877e+001  1.3169e+000 21517 114013,114117,114039
 6.6000e+000 114261 -1.7537e+001 -4.9765e+001  4.4703e+000 21517 113961,114117,114013
 6.6000e+000 114238 -1.5634e+001 -4.8142e+001  5.2052e+000 21517 113961,114013,113987
 6.6000e+000 114215 -2.6253e+001 -5.7665e+001 -4.2321e+000 21517 114039,114117,114091
 6.6000e+000 114192 -1.7623e+001 -4.0688e+001  5.2280e+000 21517 113961,114143,114117
 6.6000e+000 114169 -3.2535e+000 -4.9219e+001 -4.0241e+000 21517 114039,114091,114065
 6.6000e+000 114581 -9.9821e-001 -5.2663e+001  5.7514e-001 21027 114359,114463,114437
 6.6000e+000 114558  4.2371e+000 -4.6631e+001  7.4180e+000 21027 114333,114463,114359
 6.6000e+000 114535  5.4352e+000 -4.7062e+001 -1.8442e+000 21027 114359,114437,114385
 6.6000e+000 114512  4.7074e+000 -4.6402e+001  7.6956e+000 21027 114307,114463,114333
 6.6000e+000 114489  2.0266e+001 -4.4484e+001 -2.1019e+000 21027 114385,114437,114411
 6.6000e+000 114912 -2.0599e+001 -5.0473e+001  6.8043e-001 20623 114713,114791,114765
 6.6000e+000 114889 -1.5313e+001 -4.8302e+001 -3.2650e+000 20623 114687,114791,114713
 6.6000e+000 114866 -7.9140e+000 -5.2175e+001 -4.6011e+000 20623 114687,114817,114791
 6.6000e+000 114843 -3.3645e+001 -6.4559e+001  6.2690e+000 20623 114713,114765,114739
 6.6000e+000 115290 -5.2174e+000 -4.5798e+001  2.9737e+000 20375 115313,115146,115094
 6.6000e+000 115267 -9.3332e+000 -4.3433e+001  5.2105e+000 20375 115313,115094,115042
 6.6000e+000 115244 -1.2236e+001 -4.1220e+001  1.5636e+000 20375 115385,115016,115172
 6.6000e+000 115221 -3.8807e+000 -4.0375e+001  3.9483e+000 20375 115042,115094,115068
 6.6000e+000 115198 -9.1623e+000 -5.4621e+001  2.2219e+000 20375 115094,115146,115120
 6.6000e+000 115339 -1.4095e+001 -5.5537e+001 -1.9851e+000 20375 115172,115146,115313
 6.6000e+000 115362 -6.6758e+000 -4.2892e+001  1.7967e+000 20375 115385,115172,115313
 6.6000e+000 115411 -1.5141e+001 -4.3014e+001  2.3949e+000 20375 115042,115016,115385
 6.6000e+000 115434 -1.2560e+001 -4.6707e+001  3.5281e+000 20375 115042,115385,115313
 6.6000e+000 115891 -2.7246e+001 -5.3751e+001  8.1557e+000 19971 115617,115747,115643
 6.6000e+000 115868 -2.2578e+001 -4.3360e+001  9.2095e+000 19971 115617,115773,115747
 6.6000e+000 115845 -1.8179e+001 -8.1608e+001  1.4043e+000 19971 115643,115721,115695
 6.6000e+000 115822 -8.9570e-001 -3.8396e+001  6.3598e-001 19971 115643,115747,115721
 6.6000e+000 115799 -1.4451e+001 -1.0046e+002 -7.8257e+000 19971 115643,115695,115669
 6.6000e+000 115992 -3.3679e+001 -8.6178e+001 -1.5164e+001 19659 115914,115966,115940
 6.6000e+000 116142 -1.0465e+001 -2.3914e+001  9.9855e-001 18997 116041,116093,116067
 6.6000e+000 116119 -1.6324e+001 -3.8490e+001  1.9161e+000 18997 116015,116093,116041
 6.6000e+000 116343 -1.0750e+001 -5.6724e+001 -1.2690e+000 18707 116193,116245,116219
 6.6000e+000 116320 -2.4126e+001 -6.2728e+001 -2.6214e+000 18707 116193,116271,116245
 6.6000e+000 116297 -2.3578e+001 -5.7814e+001 -6.0597e+000 18707 116167,116271,116193
 6.6000e+000 116747 -8.1146e+000 -5.0568e+001 -1.0643e+000 18301 116525,116629,116551
 6.6000e+000 116724 -4.3853e+000 -4.3072e+001  1.0254e+000 18301 116473,116629,116525
 6.6000e+000 116701 -2.1371e+000 -4.0620e+001 -2.4138e+000 18301 116473,116525,116499
 6.6000e+000 116678 -6.0455e+000 -5.2960e+001 -6.7941e-001 18301 116551,116603,116577
 6.6000e+000 116655 -1.0254e+001 -5.5597e+001 -1.8915e+000 18301 116551,116629,116603
 6.6000e+000 117147 -2.0691e+001 -5.1158e+001  1.3457e+000 17747 116899,117029,116925
 6.6000e+000 117124 -1.0810e+001 -3.9137e+001  6.0686e+000 17747 116873,117029,116899
 6.6000e+000 117101 -2.0248e+001 -5.0225e+001  1.5180e+000 17747 116925,117029,116951
 6.6000e+000 117078 -1.4546e+001 -3.6237e+001  1.3399e+000 17747 116951,117029,117003
 6.6000e+000 117055 -2.6724e+001 -6.1410e+001 -5.2900e+000 17747 116951,117003,116977
 6.6000e+000 117368  7.0430e+000 -5.6267e+001  1.7040e+000 17293 117244,117296,117270
 6.6000e+000 117345 -1.9848e+000 -5.8700e+001 -7.8964e-001 17293 117192,117296,117244
 6.6000e+000 117322 -9.3288e+000 -5.4618e+001 -5.3426e-001 17293 117192,117244,117218
 6.6000e+000 117699 -8.5176e+000 -4.6902e+001 -3.9981e+000 16896 117526,117604,117552
 6.6000e+000 117676 -3.1276e+001 -7.0835e+001  5.4018e+000 16896 117500,117604,117526
 6.6000e+000 117653 -3.0859e+001 -5.5214e+001 -1.7133e+000 16896 117552,117604,117578
 6.6000e+000 117630 -3.1409e+001 -9.4843e+001  7.4072e+000 16896 117474,117604,117500
 6.6000e+000 117849 -6.0250e+001 -1.1880e+002 -4.3918e+000 16534 117722,117774,117748
 6.6000e+000 117826 -4.6871e+001 -1.4292e+002 -1.9624e+001 16534 117722,117800,117774
 6.6000e+000 118070  1.6013e+000 -5.6477e+001  7.2180e+000 16194 117946,117998,117972
 6.6000e+000 118047 -7.4372e+000 -6.3066e+001  2.9036e+000 16194 117894,117998,117946
 6.6000e+000 118024 -3.1962e+001 -6.5220e+001  2.4667e-001 16194 117894,117946,117920
 6.6000e+000 118173  4.8673e+000 -4.5104e+001  0.0000e+000 15968 118095,118147,118121
 6.6000e+000 118276 -1.2758e+001 -5.7617e+001  1.8242e-001 15433 118299,118198,118250
 6.6000e+000 118325 -1.2934e+001 -5.8028e+001  1.8654e-001 15433 118224,118198,118299
 6.6000e+000 118450 -2.7387e+001 -5.9204e+001  5.0717e+000 421 118372,118424,118398
 6.7000e+000 69891 -8.6135e+000 -4.3378e+001  1.3346e+000 68988 69447,69681,69629
 6.7000e+000 69868  1.6728e+000 -3.9997e+001  1.1863e+000 68988 69421,69681,69447
 6.7000e+000 69845 -1.2610e+000 -1.9554e+001  3.8349e-001 68988 69447,69629,69577
 6.7000e+000 69822 -1.5941e+001 -4.4881e+001 -5.7362e+000 68988 69447,69577,69473
 6.7000e+000 69799 -3.1756e+000 -5.2115e+001  8.2029e+000 68988 69629,69681,69655
 6.7000e+000 69776 -1.7449e+001 -2.6591e+001  1.1999e+000 68988 69577,69629,69603
 6.7000e+000 69753 -1.3140e+001 -4.1750e+001 -7.9561e+000 68988 69473,69577,69551
 6.7000e+000 69730 -1.5792e+001 -8.2605e+001 -8.4168e+000 68988 69473,69551,69525
 6.7000e+000 69707 -2.5298e+001 -5.3241e+001  7.6847e-002 68988 69473,69525,69499
 6.7000e+000 69992 -3.1273e+001 -5.1163e+001 -1.0067e+001 68676 69914,69966,69940
 6.7000e+000 70392 -3.5577e+001 -5.2767e+001  6.2747e+000 68478 70118,70248,70144
 6.7000e+000 70369 -1.2320e+001 -5.9014e+001  1.2262e+001 68478 70118,70274,70248
 6.7000e+000 70346 -1.8476e+001 -3.7847e+001  6.6052e-001 68478 70144,70222,70196
 6.7000e+000 70323 -1.4817e+001 -2.7939e+001 -2.6123e+000 68478 70144,70248,70222
 6.7000e+000 70300 -1.6969e+001 -3.8923e+001  1.1882e+000 68478 70144,70196,70170
 6.7000e+000 70841  5.1358e+000 -3.6147e+001 -9.6465e+000 68280 70570,70622,70596
 6.7000e+000 70818 -2.2142e+001 -4.1143e+001 -1.9355e+000 68280 70544,70622,70570
 6.7000e+000 70795 -1.7997e+001 -3.1168e+001 -1.5008e+000 68280 70544,70674,70622
 6.7000e+000 70772 -1.7757e+001 -2.7753e+001  6.7026e-001 68280 70622,70674,70648
 6.7000e+000 70749 -2.5131e+001 -4.6286e+001  3.4352e+000 68280 70518,70674,70544
 6.7000e+000 70726  3.8947e+000 -5.0828e+001  1.1753e+001 68280 70518,70700,70674
 6.7000e+000 70991 -2.6052e+000 -1.9851e+002  6.5417e+000 67968 70864,70916,70890
 6.7000e+000 70968 -5.6295e+001 -1.9547e+002  2.6577e+001 67968 70864,70942,70916
 6.7000e+000 71141 -9.1844e+001 -1.7048e+002 -7.5271e+000 67770 71040,71092,71066
 6.7000e+000 71118 -8.0453e+001 -2.1064e+002  1.1998e+001 67770 71014,71092,71040
 6.7000e+000 71651 -1.7301e+001 -4.0801e+001 -4.5774e+000 67366 71746,71674,71458
 6.7000e+000 71628 -1.1800e+001 -2.6319e+001 -8.5799e+000 67366 71674,71354,71510
 6.7000e+000 71605 -1.8480e+001 -4.7464e+001 -3.1537e+000 67366 71746,71458,71432
 6.7000e+000 71582 -2.7229e+001 -4.5706e+001  3.2423e+000 67366 71354,71432,71380
 6.7000e+000 71559 -2.4835e+001 -3.3825e+001 -2.4093e+000 67366 71380,71432,71406
 6.7000e+000 71536 -1.3473e+001 -1.0982e+001 -3.2189e+000 67366 71328,71510,71354
 6.7000e+000 71700 -1.6525e+001 -3.4674e+001 -2.7033e+000 67366 71484,71458,71674
 6.7000e+000 71723 -1.6357e+001 -3.4711e+001 -3.0810e+000 67366 71484,71674,71510
 6.7000e+000 71772 -1.8852e+001 -3.2830e+001 -4.7471e+000 67366 71354,71674,71746
 6.7000e+000 71795 -1.8078e+001 -3.7471e+001 -4.5125e+000 67366 71354,71746,71432
 6.7000e+000 71896 -2.5084e+001 -5.2572e+001  0.0000e+000 67146 71818,71870,71844
 6.7000e+000 71997 -2.1372e+001 -4.8664e+001  1.0236e+001 66948 71919,71971,71945
 6.7000e+000 72149 -1.0337e+001 -3.4987e+001 -4.6927e+000 66700 72172,72074,72048
 6.7000e+000 72126 -2.0307e+001 -4.0761e+001 -1.8458e+000 66700 72172,72048,72022
 6.7000e+000 72198 -2.7546e+001 -4.2347e+001  1.8045e+000 66700 72244,72172,72100
 6.7000e+000 72221 -2.6058e+001 -3.9433e+001 -2.3386e+000 66700 72100,72172,72022
 6.7000e+000 72270 -1.8617e+001 -2.2449e+001 -3.0731e+000 66700 72074,72172,72244
 6.7000e+000 72623 -2.4801e+001 -3.9699e+001  9.1500e-001 66502 72424,72502,72450
 6.7000e+000 72600 -2.2627e+001 -3.4026e+001  7.7911e-001 66502 72398,72502,72424
 6.7000e+000 72577 -1.7207e+001 -3.7501e+001 -4.5998e-002 66502 72398,72528,72502
 6.7000e+000 72554 -2.7953e+001 -3.6030e+001  1.8967e-001 66502 72450,72502,72476
 6.7000e+000 72920 -3.2510e+001 -5.9045e+001  1.5356e+000 65941 72672,72776,72750
 6.7000e+000 72897 -2.9721e+001 -5.0353e+001  5.7722e+000 65941 72646,72776,72672
 6.7000e+000 72874 -2.9362e+001 -5.8923e+001  3.0337e+000 65941 72672,72750,72724
 6.7000e+000 72851 -3.0727e+001 -5.0223e+001  5.5047e+000 65941 72672,72724,72698
 6.7000e+000 72828 -2.2556e+001 -4.9876e+001  5.1996e+000 65941 72646,72802,72776
 6.7000e+000 73241 -2.0660e+001 -3.8694e+001 -4.2209e-001 65743 73264,73071,73045
 6.7000e+000 73218 -2.3493e+001 -4.2896e+001  3.5137e+000 65743 73480,73264,73045
 6.7000e+000 73195 -1.8095e+001 -3.5126e+001  1.0036e-001 65743 73336,72967,73097
 6.7000e+000 73172 -2.3123e+001 -3.4038e+001 -2.2804e-001 65743 73408,72993,72967
 6.7000e+000 73149 -1.7653e+001 -3.6917e+001 -6.8664e-001 65743 72967,73123,73097
 6.7000e+000 73290 -1.8952e+001 -3.7604e+001  4.4427e-001 65743 73097,73071,73264
 6.7000e+000 73313 -1.8606e+001 -3.6695e+001  3.1423e-001 65743 73336,73097,73264
 6.7000e+000 73362 -2.1119e+001 -3.6583e+001  5.3978e-001 65743 73408,72967,73336
 6.7000e+000 73385 -1.5851e+001 -3.5281e+001  1.5666e+000 65743 73019,73336,73264
 6.7000e+000 73434 -1.9783e+001 -2.8305e+001  2.7598e+000 65743 73019,72993,73408
 6.7000e+000 73457 -1.6021e+001 -3.2325e+001  2.7012e+000 65743 73019,73408,73336
 6.7000e+000 73506 -1.5591e+001 -2.8315e+001  4.9168e-001 65743 73019,73264,73480
 6.7000e+000 73989 -8.3890e+000 -3.5831e+001  3.6350e+000 65453 73793,73845,73819
 6.7000e+000 73966 -2.4185e+001 -3.9477e+001  4.6932e+000 65453 73741,73845,73793
 6.7000e+000 73943 -1.2707e+001 -3.2659e+001  1.8430e+000 65453 73715,73845,73741
 6.7000e+000 73920 -2.1145e+001 -4.4719e+001  7.7964e+000 65453 73741,73793,73767
 6.7000e+000 73897 -4.3071e+000 -1.8186e+001 -1.7208e+000 65453 73715,73871,73845
 6.7000e+000 74357 -9.0658e+000 -2.7989e+001 -1.0922e+001 65141 74380,74138,74086
 6.7000e+000 74334 -1.7481e+001 -4.2659e+001 -7.4351e+000 65141 74380,74086,74060
 6.7000e+000 74311 -1.7172e+001 -4.1982e+001 -2.4735e+000 65141 74138,74190,74164
 6.7000e+000 74288 -1.8865e+001 -4.6532e+001 -2.1814e+000 65141 74060,74216,74190
 6.7000e+000 74265 -1.9703e+001 -4.9174e+001  5.4708e-001 65141 74034,74216,74060
 6.7000e+000 74242 -6.2924e+000 -1.4786e+001 -4.4904e+000 65141 74086,74138,74112
 6.7000e+000 74406 -1.3896e+001 -4.0688e+001 -3.9537e+000 65141 74190,74138,74380
 6.7000e+000 74429 -1.6606e+001 -4.5913e+001 -1.7654e+000 65141 74190,74380,74060
 6.7000e+000 74937 -2.1772e+001 -3.2171e+001 -7.3545e+000 64737 74614,74666,74640
 6.7000e+000 74914 -2.6509e+001 -4.3527e+001 -4.2909e+000 64737 74614,74796,74666
 6.7000e+000 74891 -1.9086e+001 -2.7464e+001  3.7003e-001 64737 74960,74718,74666
 6.7000e+000 74868 -1.9177e+001 -3.1084e+001 -2.5637e+000 64737 74960,74666,74770
 6.7000e+000 74845 -1.9640e+001 -2.8016e+001 -2.7958e+000 64737 74666,74796,74770
 6.7000e+000 74822 -1.7582e+001 -3.0359e+001  2.2658e+000 64737 74666,74718,74692
 6.7000e+000 74986 -1.8921e+001 -3.1113e+001 -1.5738e+000 64737 74744,74718,74960
 6.7000e+000 75009 -2.1257e+001 -3.6935e+001 -4.9229e+000 64737 74744,74960,74770
 6.7000e+000 75306 -1.3949e+001 -3.4782e+001  7.8150e+000 64133 75329,75110,75084
 6.7000e+000 75283 -1.8591e+001 -4.3991e+001  2.6803e+000 64133 75401,75329,75084
 6.7000e+000 75260 -1.9307e+001 -4.4044e+001  2.2401e+000 64133 75401,75084,75058
 6.7000e+000 75237 -1.6783e+001 -5.3929e+001  8.9682e+000 64133 75473,75136,75110
 6.7000e+000 75214 -1.4289e+001 -4.3290e+001  8.3043e-001 64133 75032,75188,75162
 6.7000e+000 75355 -1.9901e+001 -4.8932e+001  6.7679e+000 64133 75473,75110,75329
 6.7000e+000 75378 -1.5237e+001 -4.3216e+001  9.6290e-001 64133 75162,75329,75032
 6.7000e+000 75427 -1.4036e+001 -4.0456e+001  1.1428e+000 64133 75032,75329,75401
 6.7000e+000 75450 -2.3859e+001 -4.7374e+001  5.0270e+000 64133 75545,75401,75058
 6.7000e+000 75499 -1.2197e+001 -4.7977e+001  4.2780e+000 64133 75162,75136,75473
 6.7000e+000 75522 -1.5972e+001 -4.0949e+001  3.1754e+000 64133 75162,75473,75329
 6.7000e+000 75571 -1.5831e+001 -3.0084e+001  1.3836e+000 64133 75032,75401,75545
 6.7000e+000 75851 -2.6124e+001 -3.9452e+001  2.4540e+000 63843 75874,75753,75727
 6.7000e+000 75828 -2.3092e+001 -3.5609e+001  1.7472e-001 63843 75946,75874,75727
 6.7000e+000 75805 -2.4236e+001 -3.7661e+001  1.0915e+000 63843 76018,75946,75727
 6.7000e+000 75900 -2.4593e+001 -3.8862e+001 -2.6112e+000 63843 75779,75753,75874
 6.7000e+000 75923 -2.2687e+001 -3.1170e+001 -3.7247e+000 63843 75779,75874,75675
 6.7000e+000 75972 -2.3223e+001 -3.6287e+001 -4.0237e-002 63843 75675,75874,75946
 6.7000e+000 75995 -2.1589e+001 -3.4631e+001 -8.8119e-001 63843 75675,75946,75701
 6.7000e+000 76044 -2.2617e+001 -3.3198e+001  2.7086e-001 63843 75701,75946,76018
 6.7000e+000 76454  1.2522e-001 -2.7195e+000 -1.7686e+000 63439 76477,76255,76229
 6.7000e+000 76431 -4.3148e+000 -9.2107e+000  1.9073e+000 63439 76477,76229,76359
 6.7000e+000 76408 -4.7695e+000 -9.1789e+000  5.3228e+000 63439 76307,76359,76333
 6.7000e+000 76385 -2.2739e+000 -1.3208e+001 -1.2729e+000 63439 76255,76307,76281
 6.7000e+000 76503 -5.8098e+000 -8.2490e+000  1.8840e+000 63439 76307,76255,76477
 6.7000e+000 76526 -4.9277e+000 -1.0447e+001  4.6962e+000 63439 76307,76477,76359
 6.7000e+000 76926 -9.8612e+000 -1.7608e+001  1.0526e+000 63049 76704,76782,76756
 6.7000e+000 76903 -1.0228e+001 -1.7019e+001 -1.9402e+000 63049 76704,76808,76782
 6.7000e+000 76880 -6.5600e+000 -1.7790e+001  4.4149e-001 63049 76704,76756,76730
 6.7000e+000 76857 -5.9908e+000 -7.6454e+000  1.6931e+000 63049 76678,76808,76704
 6.7000e+000 76834 -1.1590e+000 -1.8588e-001 -1.3358e+000 63049 76652,76808,76678
 6.7000e+000 77076 -8.3146e+000 -4.9454e+001 -6.3933e-001 62737 76975,77027,77001
 6.7000e+000 77053 -6.8389e+000 -5.3512e+001 -2.8687e+000 62737 76949,77027,76975
 6.7000e+000 77324 -1.9628e+001 -4.2168e+001 -5.5371e-001 62277 77347,77177,77125
 6.7000e+000 77301 -2.0342e+001 -4.1603e+001 -1.8814e+000 62277 77347,77125,77229
 6.7000e+000 77278 -1.8765e+001 -4.5913e+001 -4.6222e+000 62277 77099,77229,77125
 6.7000e+000 77255 -2.3151e+001 -5.1265e+001  1.3134e+000 62277 77125,77177,77151
 6.7000e+000 77373 -2.0410e+001 -4.4096e+001 -4.9027e-001 62277 77203,77177,77347
 6.7000e+000 77396 -2.0554e+001 -4.2588e+001 -1.8624e+000 62277 77203,77347,77229
 6.7000e+000 77857 -1.7413e+001 -5.9089e+001  1.2734e+000 61758 77635,77739,77661
 6.7000e+000 77834 -2.1516e+001 -5.9240e+001 -9.0013e-001 61758 77583,77739,77635
 6.7000e+000 77811 -2.2668e+001 -7.3027e+001 -7.0336e+000 61758 77583,77635,77609
 6.7000e+000 77788 -1.6331e+001 -6.0233e+001  4.2737e+000 61758 77661,77713,77687
 6.7000e+000 77765 -2.0260e+001 -6.4210e+001  2.4977e+000 61758 77661,77739,77713
 6.7000e+000 78491 -1.7363e+001 -2.7674e+001  1.0654e+000 61418 78171,78301,78249
 6.7000e+000 78468 -1.0294e+001 -2.1332e+001  3.7667e+000 61418 78145,78301,78171
 6.7000e+000 78445 -1.3850e+001 -2.4949e+001 -1.0727e+000 61418 78171,78249,78223
 6.7000e+000 78422 -1.1059e+001 -2.1541e+001  8.2892e-001 61418 78145,78327,78301
 6.7000e+000 78399 -1.9136e+001 -3.4294e+001 -9.6750e-001 61418 78249,78301,78275
 6.7000e+000 78376 -8.1815e+000 -2.9194e+001 -1.7816e+000 61418 78171,78223,78197
 6.7000e+000 78353 -1.1335e+001 -2.6242e+001 -1.9167e-001 61418 78119,78327,78145
 6.7000e+000 78690 -8.5376e+000 -2.3566e+001  1.5506e+000 61014 78713,78566,78540
 6.7000e+000 78667 -8.0875e+000 -2.5089e+001  2.2537e+000 61014 78713,78540,78618
 6.7000e+000 78644 -1.1180e+001 -2.9093e+001 -3.2900e+000 61014 78514,78618,78540
 6.7000e+000 78739 -5.7031e+000 -2.0413e+001  2.8835e+000 61014 78592,78566,78713
 6.7000e+000 78762 -1.1365e+001 -2.5242e+001  8.9455e-001 61014 78785,78713,78618
 6.7000e+000 78811 -3.2819e+000 -2.1923e+001  6.1149e-001 61014 78592,78713,78785
 6.7000e+000 79398 -5.7628e+000 -2.3610e+001 -1.3066e+000 60624 79101,79179,79153
 6.7000e+000 79375 -4.9910e+000 -2.6336e+001 -1.9385e-001 60624 79101,79231,79179
 6.7000e+000 79352 -4.6729e+000 -2.7427e+001 -1.9858e+000 60624 79075,79231,79101
 6.7000e+000 79329 -2.2913e+000 -3.2964e+001  3.1946e+000 60624 79075,79257,79231
 6.7000e+000 79306 -2.2499e+000 -1.9385e+001 -6.3602e-001 60624 79179,79231,79205
 6.7000e+000 79283 -6.0279e+000 -2.4410e+001  5.4488e-001 60624 79101,79153,79127
 6.7000e+000 79776 -2.2143e+001 -4.2642e+001  1.8489e+000 60070 79528,79658,79606
 6.7000e+000 79753 -2.2031e+001 -3.9737e+001 -1.5845e-001 60070 79502,79658,79528
 6.7000e+000 79730 -2.7953e+001 -4.2626e+001  3.0168e+000 60070 79528,79606,79580
 6.7000e+000 79707 -1.6461e+001 -3.9344e+001  1.9713e-001 60070 79606,79658,79632
 6.7000e+000 79684 -2.6483e+000 -2.7242e+001 -5.6488e+000 60070 79528,79580,79554
 6.7000e+000 80105 -1.6912e+001 -3.4657e+001  3.5596e+000 59758 80128,79958,79906
 6.7000e+000 80082 -1.5013e+001 -3.4196e+001  3.4146e+000 59758 80128,79906,80010
 6.7000e+000 80059 -2.1700e+001 -3.8739e+001  9.1832e+000 59758 79906,79958,79932
 6.7000e+000 80036 -2.0079e+001 -3.8665e+001  1.4817e+000 59758 79880,80010,79906
 6.7000e+000 80154 -1.5855e+001 -3.5103e+001  4.4575e+000 59758 79984,79958,80128
 6.7000e+000 80177 -1.4443e+001 -3.4872e+001  4.4802e+000 59758 79984,80128,80010
 6.7000e+000 80376 -8.9220e+000 -2.0393e+001  1.9248e-001 59312 80226,80304,80252
 6.7000e+000 80353 -7.5356e+000 -2.1529e+001  5.8691e-001 59312 80200,80304,80226
 6.7000e+000 80330 -1.2841e+001 -2.0079e+001  5.3551e+000 59312 80252,80304,80278
 6.7000e+000 80805 -1.4184e+001 -2.8411e+001 -4.9398e+000 58908 80900,80828,80638
 6.7000e+000 80782 -1.2294e+001 -3.5354e+001 -7.4718e+000 58908 80828,80560,80508
 6.7000e+000 80759 -1.4812e+001 -2.6770e+001 -2.2610e+000 58908 80900,80638,80612
 6.7000e+000 80736 -4.5668e+000 -3.1710e+001  1.2618e+001 58908 80482,80664,80508
 6.7000e+000 80713 -1.0860e+001 -2.5268e+001 -1.3785e+000 58908 80560,80612,80586
 6.7000e+000 80690 -1.4816e+001 -9.8825e+001 -1.8596e+001 58908 80508,80560,80534
 6.7000e+000 80854 -6.3842e+000 -3.1471e+001  8.2148e-001 58908 80664,80638,80828
 6.7000e+000 80877 -1.1554e+001 -4.7926e+001  1.4703e+000 58908 80664,80828,80508
 6.7000e+000 80926 -1.2341e+001 -2.3489e+001 -5.3433e+000 58908 80560,80828,80900
 6.7000e+000 80949 -1.3674e+001 -2.3483e+001 -2.2767e+000 58908 80560,80900,80612
 6.7000e+000 81246 -8.3038e+000 -3.2056e+001 -1.6082e-001 58482 81076,81128,81102
 6.7000e+000 81223 -1.7711e+001 -5.2926e+001 -4.8389e+000 58482 80972,81128,81076
 6.7000e+000 81200 -1.1841e+001 -3.7196e+001 -6.0594e+000 58482 80972,81076,81050
 6.7000e+000 81177 -2.2871e+001 -5.3794e+001 -3.2769e+000 58482 80998,81050,81024
 6.7000e+000 81154 -1.4466e+001 -4.2655e+001 -6.9285e+000 58482 80972,81050,80998
 6.7000e+000 81754 -1.7737e+001 -3.0147e+001 -2.0455e-001 57828 81457,81613,81483
 6.7000e+000 81731 -2.0389e+001 -3.6447e+001 -3.1435e-001 57828 81431,81613,81457
 6.7000e+000 81708 -1.8227e+001 -3.1266e+001  9.6834e-001 57828 81483,81613,81509
 6.7000e+000 81685 -2.2767e+001 -3.7083e+001  2.9384e+000 57828 81509,81613,81587
 6.7000e+000 81662 -2.3104e+001 -5.2175e+001  6.9383e+000 57828 81509,81587,81535
 6.7000e+000 81639 -1.1886e+001 -4.2523e+001  2.5172e+000 57828 81535,81587,81561
 6.7000e+000 82002 -1.8417e+001 -4.5551e+001  3.9488e-001 57374 82025,81855,81829
 6.7000e+000 81979 -2.0084e+001 -4.1023e+001  4.0686e+000 57374 82025,81829,81907
 6.7000e+000 81956 -2.0215e+001 -3.8926e+001  3.7260e+000 57374 81803,81907,81829
 6.7000e+000 81933 -8.5048e+000 -3.2191e+001  6.6038e+000 57374 81777,81907,81803
 6.7000e+000 82051 -1.8549e+001 -4.0147e+001  2.0724e-001 57374 81881,81855,82025
 6.7000e+000 82074 -1.8902e+001 -3.5907e+001  5.2055e+000 57374 81881,82025,81907
 6.7000e+000 82356 -1.7585e+001 -3.5338e+001 -2.3118e+000 56913 82180,82232,82206
 6.7000e+000 82333 -1.5332e+001 -3.1808e+001  9.3987e-001 56913 82180,82284,82232
 6.7000e+000 82310 -5.4070e+000 -2.1772e+001  4.9843e+000 56913 82379,82232,82284
 6.7000e+000 82405  2.8418e+000 -2.0528e+001  5.6701e-001 56913 82258,82232,82379
 6.7000e+000 82764 -1.6576e+001 -2.2133e+001 -2.5011e+000 56523 82614,82666,82640
 6.7000e+000 82741 -1.4556e+001 -2.0890e+001 -3.4803e+000 56523 82614,82692,82666
 6.7000e+000 82718 -1.0275e+001 -2.1272e+001 -6.5725e+000 56523 82588,82692,82614
 6.7000e+000 83368  3.4621e-001 -2.3009e+001 -5.0410e-001 55969 82973,83155,83129
 6.7000e+000 83345  4.3578e-001 -2.3645e+001 -2.4297e+000 55969 82973,83181,83155
 6.7000e+000 83322 -5.5208e+000 -2.0946e+001  1.4141e-001 55969 82973,83129,82999
 6.7000e+000 83299 -8.7917e+000 -1.9784e+001 -1.5193e-001 55969 83391,83025,82999
 6.7000e+000 83276 -8.4324e+000 -2.2041e+001 -1.8501e-001 55969 83391,82999,83129
 6.7000e+000 83253  3.1638e-001 -1.8620e+001  6.1821e+000 55969 83077,83129,83103
 6.7000e+000 83230 -1.0065e+001 -1.8008e+001  6.3435e-001 55969 83025,83077,83051
 6.7000e+000 83207  5.1895e-002 -2.2571e+001  1.2196e+000 55969 82947,83181,82973
 6.7000e+000 83417 -8.5213e+000 -1.8762e+001  1.1731e+000 55969 83077,83025,83391
 6.7000e+000 83440 -8.5887e+000 -2.0786e+001  6.9506e-001 55969 83077,83391,83129
 6.7000e+000 83946 -3.1080e+001 -5.8385e+001  1.0161e+001 55771 83969,83779,83727
 6.7000e+000 83923 -2.5723e+001 -4.7359e+001  6.9457e+000 55771 83969,83727,83623
 6.7000e+000 83900 -2.6707e+001 -2.1698e+001  3.2581e+000 55771 83623,83727,83649
 6.7000e+000 83877 -2.2868e+001 -9.8120e+001  6.2367e+000 55771 83727,83779,83753
 6.7000e+000 83854 -3.1407e+001 -4.5537e+001  8.0139e+000 55771 83675,83727,83701
 6.7000e+000 83831 -3.9602e+001 -3.4747e+001  1.3925e+001 55771 83649,83727,83675
 6.7000e+000 83995 -2.9832e+001 -6.0653e+001 -3.4687e+000 55771 83805,83779,83969
 6.7000e+000 84018 -1.8557e+001 -3.8669e+001 -7.8880e+000 55771 83805,83969,83623
 6.7000e+000 84168 -1.3759e+001 -2.7524e+001 -5.0448e-001 55367 84191,84067,84041
 6.7000e+000 84145 -1.3684e+001 -2.9141e+001 -3.6144e-001 55367 84191,84041,84119
 6.7000e+000 84217 -1.4078e+001 -2.6564e+001 -4.7401e-001 55367 84093,84067,84191
 6.7000e+000 84240 -1.3503e+001 -2.7513e+001  1.2316e-001 55367 84093,84191,84119
 6.7000e+000 84571 -8.6109e+000 -3.5629e+001 -4.1424e+000 54913 84398,84450,84424
 6.7000e+000 84548 -8.1057e+000 -3.2162e+001 -2.0182e+000 54913 84372,84450,84398
 6.7000e+000 84525 -8.1074e+000 -3.3990e+001  4.7335e-001 54913 84346,84450,84372
 6.7000e+000 84502 -3.5141e+000 -2.3235e+001 -3.8812e+000 54913 84346,84476,84450
 6.7000e+000 85126 -2.2863e+001 -4.3372e+001 -4.1164e+000 54402 84858,84936,84910
 6.7000e+000 85103 -1.8352e+001 -3.2450e+001 -3.6458e+000 54402 84806,84936,84858
 6.7000e+000 85080 -1.9903e+001 -2.8810e+001 -2.4268e+000 54402 84780,84936,84806
 6.7000e+000 85057 -1.3805e+001 -3.6907e+001 -3.7701e-001 54402 84806,84858,84832
 6.7000e+000 85034 -2.1977e+001 -2.8716e+001  2.0662e+000 54402 84780,84962,84936
 6.7000e+000 85011 -2.4665e+001 -2.3509e+001 -2.3610e+000 54402 84858,84910,84884
 6.7000e+000 84988 -2.1151e+001 -3.1088e+001  3.7019e+000 54402 84754,84962,84780
 6.7000e+000 85396 -1.9728e+001 -2.3574e+001 -1.1368e+000 53998 85197,85249,85223
 6.7000e+000 85373 -1.6095e+001 -2.6872e+001 -6.2891e-001 53998 85197,85275,85249
 6.7000e+000 85350 -1.9645e+001 -3.1558e+001 -2.2397e+000 53998 85171,85275,85197
 6.7000e+000 85327 -1.0133e+001 -2.9089e+001 -2.8201e+000 53998 85171,85301,85275
 6.7000e+000 85749 -7.5611e+000 -1.7228e+001 -6.9262e-001 53636 85524,85628,85550
 6.7000e+000 85726 -1.0983e+001 -2.2580e+001  1.0042e+000 53636 85524,85654,85628
 6.7000e+000 85703 -3.8875e+000 -1.9446e+001 -2.3117e+000 53636 85550,85602,85576
 6.7000e+000 85680 -5.2143e+000 -1.6002e+001 -1.6329e+000 53636 85550,85628,85602
 6.7000e+000 86127 -2.6561e+000 -2.4712e+001  5.3347e+000 52982 86150,85957,85879
 6.7000e+000 86104 -1.0366e+001 -3.1272e+001  2.4439e+000 52982 86150,85879,85853
 6.7000e+000 86081 -1.3883e+000 -4.0622e+001  8.1761e+000 52982 85957,86009,85983
 6.7000e+000 86058 -1.1684e+001 -2.5367e+001  3.0714e+000 52982 85879,85957,85931
 6.7000e+000 86035 -7.7238e+000 -2.5346e+001 -2.0063e+000 52982 85879,85931,85905
 6.7000e+000 86176  2.6697e+000 -3.2031e+001  4.2872e+000 52982 86009,85957,86150
 6.7000e+000 86199 -1.9263e+000 -3.6889e+001  2.4008e+000 52982 86009,86150,85853
 6.7000e+000 86398 -1.1883e+001 -2.6915e+001  2.0625e+000 52542 86421,86248,86222
 6.7000e+000 86375 -1.6813e+001 -2.8267e+001 -2.2784e-001 52542 86421,86222,86300
 6.7000e+000 86352 -1.7214e+001 -3.0522e+001 -7.6512e-001 52542 86222,86326,86300
 6.7000e+000 86447 -6.4043e+000 -2.7461e+001  4.7221e+000 52542 86274,86248,86421
 6.7000e+000 86470 -1.1431e+001 -3.0064e+001  1.7923e+000 52542 86274,86421,86300
 6.7000e+000 86669 -1.2722e+001 -2.5343e+001 -8.8635e+000 52230 86692,86571,86545
 6.7000e+000 86646 -1.3843e+001 -2.6989e+001 -5.1849e+000 52230 86692,86545,86519
 6.7000e+000 86623 -1.8094e+001 -2.7232e+001 -2.5503e+000 52230 86493,86597,86519
 6.7000e+000 86718 -1.5054e+001 -2.5867e+001 -6.6285e+000 52230 86597,86571,86692
 6.7000e+000 86741 -1.8687e+001 -2.8629e+001 -2.9055e+000 52230 86597,86692,86519
 6.7000e+000 87153 -1.5776e+001 -1.9462e+001  2.1319e+000 51640 86980,87058,87032
 6.7000e+000 87130 -1.3187e+001 -2.0564e+001  1.7512e+000 51640 86928,87058,86980
 6.7000e+000 87107 -1.4041e+001 -2.3320e+001  1.6181e+000 51640 86928,86980,86954
 6.7000e+000 87084 -6.5496e+000 -1.5530e+001  1.2788e+000 51640 86980,87032,87006
 6.7000e+000 87659 -8.5110e+000 -2.0442e+001  1.9068e+000 51029 87682,87440,87362
 6.7000e+000 87636 -8.7576e+000 -2.1884e+001 -4.3592e-001 51029 87682,87362,87336
 6.7000e+000 87613 -1.2963e+001 -3.4689e+001  1.6774e-001 51029 87440,87518,87466
 6.7000e+000 87590 -1.1497e+001 -2.1293e+001  2.3974e+000 51029 87362,87440,87414
 6.7000e+000 87567 -9.7809e+000 -1.6455e+001  6.1359e+000 51029 87362,87414,87388
 6.7000e+000 87544 -1.6346e+001 -3.1545e+001  1.6279e+000 51029 87466,87518,87492
 6.7000e+000 87708 -8.0920e+000 -2.2913e+001  9.0852e-001 51029 87518,87440,87682
 6.7000e+000 87731 -8.3254e+000 -2.6005e+001 -5.6705e-001 51029 87518,87682,87336
 6.7000e+000 87881 -1.5427e+001 -3.4987e+001  4.1104e-001 50739 87780,87832,87806
 6.7000e+000 87858 -1.7315e+001 -3.4846e+001 -1.7769e+000 50739 87754,87832,87780
 6.7000e+000 88468 -1.5160e+001 -2.2242e+001  1.6183e+000 50235 88171,88327,88197
 6.7000e+000 88445 -3.1224e+001 -2.2036e+001 -4.4671e+000 50235 88145,88327,88171
 6.7000e+000 88422 -3.0439e-001 -7.3660e+000 -3.2187e-001 50235 88275,88327,88301
 6.7000e+000 88399 -9.3377e+000 -1.1230e+001 -7.0400e-001 50235 88197,88327,88275
 6.7000e+000 88376 -2.9669e+000 -1.9196e+001 -3.3308e-001 50235 88197,88275,88223
 6.7000e+000 88353 -4.0208e+000 -2.5641e+001 -1.7521e+000 50235 88223,88275,88249
 6.7000e+000 88895 -1.5702e+001 -3.5900e+001  9.2114e-001 49873 88918,88728,88676
 6.7000e+000 88872 -1.3393e+001 -3.3529e+001 -6.8283e-001 49873 88918,88676,88624
 6.7000e+000 88849 -1.0259e+001 -2.9831e+001 -1.2484e+000 49873 88598,88754,88624
 6.7000e+000 88826 -8.5282e+000 -3.1486e+001 -1.0005e+000 49873 88624,88676,88650
 6.7000e+000 88803 -9.8552e+000 -4.4081e+001  2.4838e+000 49873 88676,88728,88702
 6.7000e+000 88780 -1.3483e+001 -3.0463e+001 -1.2966e+000 49873 88572,88754,88598
 6.7000e+000 88944 -1.2894e+001 -3.5542e+001 -5.8388e-001 49873 88754,88728,88918
 6.7000e+000 88967 -1.2026e+001 -3.4766e+001 -1.9464e+000 49873 88754,88918,88624
 6.7000e+000 89473 -2.7932e+001 -3.3565e+001 -6.2285e+000 49583 89176,89306,89202
 6.7000e+000 89450 -2.2540e+001 -3.2540e+001 -3.3897e+000 49583 89176,89332,89306
 6.7000e+000 89427 -1.1341e+001 -3.3046e+001  2.9929e+000 49583 89496,89228,89202
 6.7000e+000 89404 -1.2602e+001 -3.3852e+001  3.3516e+000 49583 89496,89202,89280
 6.7000e+000 89381 -2.9323e+001 -4.5402e+001 -9.4047e+000 49583 89202,89306,89280
 6.7000e+000 89358 -1.6338e+001 -3.2950e+001 -4.5121e+000 49583 89150,89332,89176
 6.7000e+000 89522 -1.1837e+001 -2.7199e+001  1.2854e+000 49583 89254,89228,89496
 6.7000e+000 89545 -1.5503e+001 -3.1829e+001  3.2024e+000 49583 89254,89496,89280
 6.7000e+000 89825  7.1443e-001 -3.5597e+001 -1.2269e-001 49179 89701,89753,89727
 6.7000e+000 89802 -5.4984e+000 -2.9990e+001 -3.2153e-001 49179 89675,89753,89701
 6.7000e+000 89779 -4.6535e+000 -2.9071e+001  1.3784e+000 49179 89848,89753,89675
 6.7000e+000 89874 -2.7356e+001 -3.5587e+001 -4.6905e+000 49179 89649,89753,89848
 6.7000e+000 90223 -8.5865e+000 -2.4705e+001 -4.7484e+000 48739 90024,90102,90076
 6.7000e+000 90200 -7.0983e+000 -2.1684e+001 -1.4541e+000 48739 90024,90128,90102
 6.7000e+000 90177  4.8423e+000 -2.4729e+001 -4.4857e+000 48739 90024,90076,90050
 6.7000e+000 90154 -1.8960e+000 -1.9796e+001  1.2635e+000 48739 89998,90128,90024
 6.7000e+000 90603 -5.9360e+000 -1.7092e+001  4.9776e+000 48335 90381,90485,90459
 6.7000e+000 90580 -8.7034e+000 -2.3156e+001  4.1299e+000 48335 90355,90485,90381
 6.7000e+000 90557 -2.0432e+000 -4.0140e+000  1.9857e+000 48335 90381,90433,90407
 6.7000e+000 90534 -6.3948e+000 -1.8552e+001  3.4532e+000 48335 90381,90459,90433
 6.7000e+000 90511  9.5388e+000 -1.4487e+001  6.7491e+000 48335 90329,90485,90355
 6.7000e+000 90753  5.3169e-001 -1.0530e+001  8.2504e+000 47824 90776,90652,90704
 6.7000e+000 90730 -7.2264e+000 -2.3854e+001  4.3224e+000 47824 90626,90704,90652
 6.7000e+000 90802 -3.0825e+000 -1.3046e+001  7.1253e+000 47824 90678,90652,90776
 6.7000e+000 91131 -1.5638e+001 -4.2073e+001  2.0562e+000 47427 91154,90958,90906
 6.7000e+000 91108 -2.5383e+001 -4.6333e+001  3.0899e+000 47427 91154,90906,91036
 6.7000e+000 91085 -2.1562e+001 -3.3871e+001 -3.1350e+000 47427 90958,91010,90984
 6.7000e+000 91062 -1.5641e+001 -3.3332e+001  3.0531e+000 47427 90906,90958,90932
 6.7000e+000 91180 -2.0748e+001 -3.9451e+001 -4.5762e+000 47427 91010,90958,91154
 6.7000e+000 91203 -2.9884e+001 -4.3350e+001 -3.6826e+000 47427 91010,91154,91036
 6.7000e+000 91583 -1.3030e+001 -2.6415e+001 -3.5294e+000 46873 91309,91439,91335
 6.7000e+000 91560 -1.6364e+001 -2.4412e+001 -2.6154e+000 46873 91309,91465,91439
 6.7000e+000 91537 -2.2813e+001 -3.0118e+001 -1.1598e+001 46873 91361,91439,91413
 6.7000e+000 91514 -1.6918e+001 -2.8631e+001 -7.0538e+000 46873 91335,91439,91361
 6.7000e+000 91491 -7.4270e+000 -2.3472e+001 -9.6628e+000 46873 91361,91413,91387
 6.7000e+000 91880 -1.4839e+001 -3.8743e+001 -1.9159e+000 46526 91606,91710,91658
 6.7000e+000 91857 -1.5098e+001 -4.1579e+001  1.5874e-002 46526 91606,91762,91710
 6.7000e+000 91834 -1.1104e+001 -3.7498e+001 -4.6552e+000 46526 91606,91658,91632
 6.7000e+000 91811 -1.7568e+001 -3.4931e+001  3.3769e-001 46526 91658,91710,91684
 6.7000e+000 91788 -1.1343e+001 -3.0832e+001  5.9131e-001 46526 91710,91762,91736
 6.7000e+000 92211 -3.9298e+000 -1.0604e+001 -7.6919e-001 45700 91986,92064,92038
 6.7000e+000 92188 -5.7825e+000 -1.6897e+001  3.7175e-001 45700 91986,92116,92064
 6.7000e+000 92165 -2.0433e+000 -6.7379e+000 -1.6270e+000 45700 91986,92038,92012
 6.7000e+000 92142 -3.9115e+000 -1.6398e+001  1.7966e+000 45700 92064,92116,92090
 6.7000e+000 92766 -1.3108e+001 -2.6719e+001  3.4287e+000 45452 92446,92602,92576
 6.7000e+000 92743 -2.5853e+001 -2.8087e+001 -3.9853e+000 45452 92420,92602,92446
 6.7000e+000 92720 -2.2809e+001 -3.2880e+001  5.6864e+000 45452 92789,92524,92498
 6.7000e+000 92697 -2.4221e+001 -3.1237e+001  5.3490e+000 45452 92789,92498,92446
 6.7000e+000 92674 -2.3717e+001 -3.3364e+001 -2.1053e+000 45452 92524,92576,92550
 6.7000e+000 92651 -3.2568e+001 -3.4926e+001  1.9045e+001 45452 92446,92498,92472
 6.7000e+000 92628 -7.5860e+000 -2.4572e+001 -4.0757e+000 45452 92394,92602,92420
 6.7000e+000 92815 -2.1673e+001 -3.1893e+001  5.2104e+000 45452 92576,92524,92789
 6.7000e+000 92838 -2.3081e+001 -3.0431e+001  4.9773e+000 45452 92576,92789,92446
 6.7000e+000 92939 -1.7326e+001 -4.3819e+001 -8.2139e+000 44998 92861,92913,92887
 6.7000e+000 93319 -5.9319e+000 -4.7201e+001  7.8449e+000 44601 93123,93201,93149
 6.7000e+000 93296 -1.4351e+001 -4.4561e+001 -4.6682e+000 44601 93045,93201,93123
 6.7000e+000 93273 -9.0405e+000 -2.2610e+001 -7.5124e+000 44601 93045,93123,93071
 6.7000e+000 93250 -7.0407e+000 -2.0259e+001 -5.2124e+000 44601 93071,93123,93097
 6.7000e+000 93227 -2.1154e+000 -2.5058e+001  7.7375e+000 44601 93149,93201,93175
 6.7000e+000 93697 -1.0837e+001 -5.1741e+001  3.0598e+000 44026 93720,93553,93527
 6.7000e+000 93674 -1.7529e+001 -4.3221e+001  4.4510e+000 44026 93720,93527,93449
 6.7000e+000 93651 -1.9414e+001 -4.4402e+001 -5.2116e-001 44026 93449,93527,93501
 6.7000e+000 93628 -1.3265e+001 -3.2818e+001 -5.4222e+000 44026 93423,93579,93449
 6.7000e+000 93605 -3.3325e+000 -3.5878e+001  2.9707e+000 44026 93449,93501,93475
 6.7000e+000 93746 -6.8209e+000 -4.4837e+001  9.8989e-001 44026 93579,93553,93720
 6.7000e+000 93769 -1.3669e+001 -3.6204e+001  2.6029e+000 44026 93579,93720,93449
 6.7000e+000 94066 -1.0273e+001 -3.8146e+001 -6.1216e+000 43579 94089,93818,93792
 6.7000e+000 94043 -1.7135e+001 -4.3639e+001 -3.7467e+000 43579 94161,94089,93792
 6.7000e+000 94020 -1.7219e+001 -4.4042e+001 -1.8314e+000 43579 94161,93792,93948
 6.7000e+000 93997 -1.7924e+001 -3.2675e+001 -2.4665e+000 43579 94233,93870,93818
 6.7000e+000 93974 -1.0870e+001 -3.4177e+001  5.0853e-001 43579 93818,93870,93844
 6.7000e+000 94115 -1.7702e+001 -3.2958e+001 -4.3342e+000 43579 94233,93818,94089
 6.7000e+000 94138 -2.3124e+001 -3.7925e+001 -3.2219e+000 43579 93896,94089,93922
 6.7000e+000 94187 -1.5958e+001 -4.0445e+001 -4.4276e+000 43579 93922,94089,94161
 6.7000e+000 94210 -1.6418e+001 -4.0789e+001 -2.3123e+000 43579 93922,94161,93948
 6.7000e+000 94259 -1.9581e+001 -3.6236e+001 -2.0076e+000 43579 93896,93870,94233
 6.7000e+000 94282 -1.8964e+001 -3.5865e+001 -4.1692e+000 43579 93896,94233,94089
 6.7000e+000 94481 -1.6087e+001 -4.0460e+001 -3.6092e-001 43239 94305,94383,94357
 6.7000e+000 94458 -1.4478e+001 -3.7361e+001  4.0501e+000 43239 94305,94409,94383
 6.7000e+000 94435 -1.3800e+001 -4.0535e+001 -1.1099e+000 43239 94305,94357,94331
 6.7000e+000 94633 -2.8666e+000 -1.9069e+001  4.6399e+000 42827 94656,94532,94506
 6.7000e+000 94610 -1.0100e+001 -2.2464e+001  5.6005e+000 42827 94728,94656,94506
 6.7000e+000 94682 -4.5794e+000 -2.4106e+001  3.4453e+000 42827 94558,94532,94656
 6.7000e+000 94705 -7.1343e-001 -2.1987e+001  1.7180e+000 42827 94988,94860,94656
 6.7000e+000 94754 -4.4482e+000 -1.7390e+001  9.1605e-001 42827 94988,94656,94728
 6.7000e+000 94886  1.9305e+000 -2.0957e+001  1.7065e+000 42827 94558,94656,94860
 6.7000e+000 95014  2.4694e+000 -1.8114e+001  6.8444e-003 42827 94584,94860,94988
 6.7000e+000 95037 -1.2121e+000 -1.4536e+001 -1.0035e+000 42827 94584,94988,94728
 6.7000e+000 95236  2.0632e+000 -1.6516e+001  4.3946e+000 42537 95259,95112,95060
 6.7000e+000 95213 -6.4661e-001 -1.0773e+001  1.9571e+000 42537 95259,95060,95164
 6.7000e+000 95190  4.4241e+000 -1.5870e+001  1.0442e+000 42537 95060,95112,95086
 6.7000e+000 95285  2.7360e-001 -1.9703e+001  3.6884e+000 42537 95138,95112,95259
 6.7000e+000 95308 -3.7296e+000 -1.6579e+001  8.0827e-001 42537 95138,95259,95164
 6.7000e+000 95816 -1.1539e+001 -3.1388e+001 -1.8679e+000 41969 95493,95597,95519
 6.7000e+000 95793 -1.6694e+001 -2.7704e+001  3.3171e+000 41969 95493,95649,95597
 6.7000e+000 95770 -1.2582e+001 -2.7707e+001  4.9034e+000 41969 95493,95675,95649
 6.7000e+000 95747 -1.0948e+001 -3.7184e+001  3.4789e+000 41969 95597,95649,95623
 6.7000e+000 95724 -2.0527e+001 -2.7281e+001 -4.0919e+000 41969 95519,95597,95571
 6.7000e+000 95701 -1.8633e+001 -2.3087e+001 -4.9112e+000 41969 95519,95571,95545
 6.7000e+000 96371 -1.7158e+001 -4.0441e+001  5.0660e+000 41579 96025,96207,96181
 6.7000e+000 96348  4.4949e+000 -3.0119e+001 -3.6701e+000 41579 95999,96207,96025
 6.7000e+000 96325 -1.7265e+001 -2.9999e+001 -4.2143e+000 41579 96129,96181,96155
 6.7000e+000 96302 -5.9681e+000 -2.5364e+001 -6.6933e-001 41579 96025,96181,96129
 6.7000e+000 96279 -1.6804e+001 -4.2677e+001  6.5530e+000 41579 96025,96129,96051
 6.7000e+000 96256 -1.3969e+001 -3.2579e+001  3.5289e+000 41579 96051,96103,96077
 6.7000e+000 96233 -5.1707e+000 -2.5762e+001 -6.3774e-001 41579 96051,96129,96103
 6.7000e+000 96877 -5.1684e+000 -2.4003e+001 -3.7403e+000 41182 96972,96900,96632
 6.7000e+000 96854 -6.1409e+000 -1.4968e+001 -3.4713e+000 41182 96900,96554,96736
 6.7000e+000 96831 -4.7344e+000 -2.4276e+001 -2.5328e+000 41182 96972,96632,96580
 6.7000e+000 96808 -5.6456e+000 -2.1987e+001  3.8378e+000 41182 96632,96684,96658
 6.7000e+000 96785 -1.0476e+001 -2.6665e+001  3.2078e+000 41182 96684,96736,96710
 6.7000e+000 96762 -1.7658e+001 -3.3813e+001  7.0738e+000 41182 96580,96632,96606
 6.7000e+000 96926 -4.1057e+000 -2.7685e+001 -3.5297e+000 41182 96684,96632,96900
 6.7000e+000 96949 -7.7697e+000 -2.3559e+001 -6.0796e+000 41182 96684,96900,96736
 6.7000e+000 96998 -7.1354e+000 -2.4714e+001 -3.1299e+000 41182 96554,96900,96972
 6.7000e+000 97021 -7.2278e+000 -2.5590e+001 -1.7893e+000 41182 96554,96972,96580
 6.7000e+000 97576 -1.8486e+001 -4.7842e+001 -6.4143e+000 40678 97230,97412,97282
 6.7000e+000 97553 -1.7159e+000 -4.0598e+001  2.7991e+000 40678 97204,97412,97230
 6.7000e+000 97530 -2.1162e+000 -3.5657e+001 -8.2135e+000 40678 97282,97360,97308
 6.7000e+000 97507 -7.1273e+000 -3.6675e+001 -1.8861e+000 40678 97282,97412,97360
 6.7000e+000 97484  3.0266e+000 -1.8354e+001 -6.5263e+000 40678 97308,97360,97334
 6.7000e+000 97461 -8.0984e+000 -4.3934e+001 -1.4997e+000 40678 97360,97412,97386
 6.7000e+000 97438 -1.0801e+001 -2.8475e+001 -6.5823e+000 40678 97230,97282,97256
 6.7000e+000 97976 -2.2121e+001 -3.0759e+001 -4.4244e-001 40244 97702,97832,97754
 6.7000e+000 97953 -1.7618e+001 -3.2120e+001 -1.0525e+000 40244 97702,97858,97832
 6.7000e+000 97930 -2.4319e+001 -3.8377e+001 -8.5180e+000 40244 97702,97754,97728
 6.7000e+000 97907 -1.6374e+001 -3.1081e+001  4.0119e+000 40244 97780,97832,97806
 6.7000e+000 97884 -1.6956e+001 -2.7546e+001  1.3551e+000 40244 97754,97832,97780
 6.7000e+000 98482 -2.6486e+000 -1.7231e+001  5.1669e+000 39690 98505,98185,98159
 6.7000e+000 98459 -3.9063e+000 -1.6270e+001  4.5292e+000 39690 98505,98159,98289
 6.7000e+000 98436 -1.2549e+001 -3.0418e+001  1.0063e+001 39690 98159,98315,98289
 6.7000e+000 98413 -1.7772e+000 -1.5666e+001  2.8818e+000 39690 98211,98289,98263
 6.7000e+000 98390 -4.0853e-002 -3.5153e+000  1.7260e+000 39690 98211,98263,98237
 6.7000e+000 98367 -2.2432e+000 -1.2929e+001  1.6893e+000 39690 98159,98341,98315
 6.7000e+000 98531 -1.1077e+000 -1.6605e+001  5.0579e+000 39690 98211,98185,98505
 6.7000e+000 98554 -2.8322e+000 -1.5923e+001  4.3565e+000 39690 98211,98505,98289
 6.7000e+000 99109 -1.0072e+001 -2.3143e+001 -2.7032e+000 39072 99132,98867,98789
 6.7000e+000 99086 -1.3238e+001 -2.4562e+001 -3.1314e+000 39072 99132,98789,98763
 6.7000e+000 99063 -1.4101e+001 -4.1800e+001  3.2843e+000 39072 98867,98945,98919
 6.7000e+000 99040 -9.5674e+000 -2.7298e+001  1.6577e-001 39072 98789,98867,98841
 6.7000e+000 99017 -1.9249e+001 -2.8305e+001 -3.2890e-001 39072 98867,98919,98893
 6.7000e+000 98994 -1.2826e+001 -2.2066e+001  4.9666e+000 39072 98789,98841,98815
 6.7000e+000 98971 -1.6056e+001 -2.7900e+001 -4.0109e+000 39072 98737,98945,98763
 6.7000e+000 99158 -8.5174e+000 -2.4930e+001 -3.5323e+000 39072 98945,98867,99132
 6.7000e+000 99181 -9.9367e+000 -2.5267e+001 -3.8744e+000 39072 98945,99132,98763
 6.7000e+000 99510 -9.9392e+000 -1.9926e+001  2.3365e+000 38668 99311,99389,99363
 6.7000e+000 99487 -8.2921e+000 -2.1322e+001 -7.1696e-001 38668 99285,99389,99311
 6.7000e+000 99464 -1.6479e+001 -2.9645e+001  2.7629e+000 38668 99285,99415,99389
 6.7000e+000 99441 -7.4203e+000 -2.0966e+001  3.0137e+000 38668 99311,99363,99337
 6.7000e+000 99758 -8.5660e+000 -3.4047e+001  7.4913e+000 38164 99781,99611,99585
 6.7000e+000 99735 -2.5117e+000 -3.4211e+001  8.4549e+000 38164 99781,99585,99533
 6.7000e+000 99712 -1.4413e+001 -3.2208e+001  5.1154e+000 38164 99611,99663,99637
 6.7000e+000 99689  2.7955e+000 -3.3542e+001 -4.9661e-001 38164 99533,99585,99559
 6.7000e+000 99807 -1.1923e+001 -3.3021e+001  9.1201e+000 38164 99663,99611,99781
 6.7000e+000 99830 -7.6422e+000 -3.4300e+001  9.0650e+000 38164 99663,99781,99533
 6.7000e+000 100232 -5.0224e+000 -1.8259e+001 -3.7124e-001 37702 99984,100114,100088
 6.7000e+000 100209 -3.4130e+000 -1.8468e+001  1.2180e+000 37702 99958,100114,99984
 6.7000e+000 100186 -7.9010e+000 -2.4933e+001 -2.4156e+000 37702 100010,100088,100036
 6.7000e+000 100163 -3.7379e+000 -1.7721e+001 -4.6293e-001 37702 99984,100088,100010
 6.7000e+000 100140 -2.1600e+000 -1.5525e+001 -6.1425e+000 37702 100036,100088,100062
 6.7000e+000 100640 -1.8068e+001 -2.6429e+001  5.1000e+000 37262 100493,100545,100519
 6.7000e+000 100617 -1.7653e+001 -3.2590e+001  2.1724e+000 37262 100441,100545,100493
 6.7000e+000 100594 -4.0919e+000 -2.4174e+001 -2.7427e+000 37262 100415,100545,100441
 6.7000e+000 100571 -2.0188e+001 -3.4983e+001 -1.7288e+000 37262 100441,100493,100467
 6.7000e+000 101146 -1.6341e+001 -2.7121e+001 -6.1640e-001 36872 100823,100979,100849
 6.7000e+000 101123 -1.6418e+001 -2.6338e+001 -2.8423e+000 36872 100823,101005,100979
 6.7000e+000 101100 -1.5276e+001 -3.6659e+001  4.5733e+000 36872 101169,100901,100849
 6.7000e+000 101077 -1.2181e+001 -3.0306e+001  1.9698e+000 36872 101169,100849,100979
 6.7000e+000 101054 -1.0116e+001 -3.2946e+001 -2.6462e+000 36872 100927,100979,100953
 6.7000e+000 101031 -8.9561e+000 -3.9371e+001  6.4510e+000 36872 100849,100901,100875
 6.7000e+000 101195 -1.0639e+001 -3.8322e+001  5.5617e-001 36872 100927,100901,101169
 6.7000e+000 101218 -8.6381e+000 -3.4968e+001 -1.6369e+000 36872 100927,101169,100979
 6.7000e+000 101773 -1.4069e+001 -2.3636e+001  6.8322e+000 36418 101479,101609,101583
 6.7000e+000 101750 -1.5933e+001 -2.4243e+001  5.1927e+000 36418 101453,101609,101479
 6.7000e+000 101727 -1.0314e+001 -2.8759e+001  4.0489e-001 36418 101796,101531,101479
 6.7000e+000 101704 -1.6090e+001 -3.2069e+001  2.1649e+000 36418 101796,101479,101583
 6.7000e+000 101681 -8.0534e+000 -2.4007e+001 -4.9460e-001 36418 101479,101531,101505
 6.7000e+000 101658  8.2797e-001 -2.0044e+001  2.4820e+000 36418 101401,101609,101453
 6.7000e+000 101635 -3.3381e+000 -1.0112e+001  5.5931e+000 36418 101401,101453,101427
 6.7000e+000 101822 -1.1975e+001 -2.6396e+001 -5.3055e+000 36418 101557,101531,101796
 6.7000e+000 101845 -1.9418e+001 -2.8771e+001 -3.9810e+000 36418 101557,101796,101583
 6.7000e+000 102174 -5.7831e-001 -2.9600e+000 -1.2989e+000 35914 101949,102053,101975
 6.7000e+000 102151 -8.3995e-001 -1.2448e+000 -1.7099e+000 35914 101949,102079,102053
 6.7000e+000 102128 -4.0073e+000 -4.2085e+000 -2.7716e+000 35914 101975,102053,102027
 6.7000e+000 102105 -2.7992e-001 -1.6017e+000 -4.7925e+000 35914 101975,102027,102001
 6.7000e+000 102631 -6.7089e+000 -3.3110e+001  5.5575e-001 35574 102383,102513,102487
 6.7000e+000 102608 -4.2249e+000 -3.4596e+001  4.3142e-001 35574 102357,102513,102383
 6.7000e+000 102585 -1.1177e+001 -3.3144e+001  1.1763e+000 35574 102409,102487,102435
 6.7000e+000 102562 -1.0479e+001 -3.4552e+001  3.9173e-001 35574 102383,102487,102409
 6.7000e+000 102539 -1.2167e+001 -3.4860e+001  7.1246e-001 35574 102435,102487,102461
 6.7000e+000 103009 -1.9616e+001 -3.2990e+001 -2.7142e+000 35170 102761,102865,102787
 6.7000e+000 102986 -1.1495e+001 -2.8532e+001  3.4401e+000 35170 102761,102891,102865
 6.7000e+000 102963 -1.8931e+001 -3.4322e+001 -1.8270e+000 35170 102787,102865,102813
 6.7000e+000 102940 -9.1078e+000 -2.8255e+001  3.7666e+000 35170 102735,102891,102761
 6.7000e+000 102917 -1.9620e+001 -3.6838e+001 -4.5288e+000 35170 102813,102865,102839
 6.7000e+000 103257 -2.3156e+000 -1.9117e+001 -2.3982e+000 34659 103280,103058,103032
 6.7000e+000 103234 -3.6279e+000 -2.1914e+001 -2.0447e+000 34659 103280,103032,103162
 6.7000e+000 103211 -7.0115e+000 -1.9834e+001 -1.6619e+000 34659 103084,103162,103110
 6.7000e+000 103188 -9.4909e+000 -2.5878e+001 -1.5300e+000 34659 103110,103162,103136
 6.7000e+000 103306 -3.6397e+000 -1.5727e+001 -1.0756e+000 34659 103084,103058,103280
 6.7000e+000 103329 -5.1891e+000 -1.9200e+001 -7.3979e-001 34659 103084,103280,103162
 6.7000e+000 103837 -2.0985e+000 -3.6796e+001  1.1461e+000 34247 103860,103566,103540
 6.7000e+000 103814 -5.4943e+000 -3.7588e+001 -1.2762e-002 34247 103932,103860,103540
 6.7000e+000 103791 -4.2546e+000 -4.2767e+001 -5.1698e+000 34247 103932,103540,103670
 6.7000e+000 103768 -4.3075e+000 -3.3058e+001  1.3498e+000 34247 103566,103618,103592
 6.7000e+000 103745 -1.5296e+001 -3.5120e+001 -6.1166e+000 34247 103540,103696,103670
 6.7000e+000 103722 -2.0869e+001 -3.9862e+001  5.9725e+000 34247 103514,103696,103540
 6.7000e+000 103886 -8.6445e+000 -3.6479e+001 -1.1117e+000 34247 103618,103566,103860
 6.7000e+000 103909 -9.3180e+000 -3.9937e+001  7.9975e-001 34247 103618,103860,103644
 6.7000e+000 103958 -9.9000e+000 -5.0180e+001 -1.5448e+000 34247 103644,103860,103932
 6.7000e+000 103981 -8.7459e+000 -5.4996e+001 -6.9521e+000 34247 103644,103932,103670
 6.7000e+000 104300 -2.1494e+001 -4.0416e+001 -2.3882e+000 33843 104052,104182,104156
 6.7000e+000 104277 -2.6141e+001 -3.8438e+001 -1.5494e+000 33843 104026,104182,104052
 6.7000e+000 104254 -2.0873e+001 -4.7851e+001  1.6224e+000 33843 104078,104156,104130
 6.7000e+000 104231 -2.7396e+001 -4.5501e+001 -1.2331e-001 33843 104052,104156,104078
 6.7000e+000 104208 -3.0259e+001 -5.0867e+001  2.2460e+000 33843 104078,104130,104104
 6.7000e+000 104499 -1.1833e+001 -3.9341e+001 -2.7643e+000 33282 104594,104522,104375
 6.7000e+000 104476 -1.0795e+001 -3.9529e+001  9.9674e-001 33282 104522,104323,104427
 6.7000e+000 104453 -7.1721e+000 -4.1307e+001 -2.7033e+000 33282 104594,104375,104349
 6.7000e+000 104548 -1.3256e+001 -3.6566e+001 -9.3650e-001 33282 104401,104375,104522
 6.7000e+000 104571 -8.9935e+000 -3.5435e+001  7.0992e-001 33282 104401,104522,104427
 6.7000e+000 104620 -5.7147e+000 -3.5919e+001 -7.6104e-001 33282 104323,104522,104594
 6.7000e+000 104643 -2.6680e+000 -3.9441e+001 -1.3243e+000 33282 104323,104594,104349
 6.7000e+000 104942 -1.4849e+001 -3.8509e+001  5.6500e+000 32728 104694,104772,104720
 6.7000e+000 104919 -1.3280e+001 -3.5599e+001  2.2273e+000 32728 104694,104824,104772
 6.7000e+000 104896 -2.1227e+001 -3.2793e+001  6.5581e+000 32728 104720,104772,104746
 6.7000e+000 104873 -1.0777e+001 -4.1654e+001  2.7751e+000 32728 104772,104824,104798
 6.7000e+000 104850 -1.1278e+001 -3.4904e+001  2.4156e+000 32728 104668,104824,104694
 6.7000e+000 105373 -6.8817e+000 -3.3931e+001 -1.4969e+000 32274 105396,105102,105076
 6.7000e+000 105350 -9.6252e+000 -3.7497e+001 -1.7991e-001 32274 105396,105076,105206
 6.7000e+000 105327 -1.6304e+001 -4.2260e+001  3.0008e+000 32274 105154,105206,105180
 6.7000e+000 105304 -1.0326e+000 -3.5217e+001 -2.8359e+000 32274 105076,105232,105206
 6.7000e+000 105281 -1.1053e+001 -3.0248e+001 -5.6312e+000 32274 105102,105154,105128
 6.7000e+000 105258 -1.7419e+001 -2.7139e+001 -6.0793e+000 32274 105050,105232,105076
 6.7000e+000 105422 -1.0406e+001 -2.9833e+001 -1.6643e+000 32274 105154,105102,105396
 6.7000e+000 105445 -1.2730e+001 -3.3222e+001 -5.5780e-001 32274 105154,105396,105206
 6.7000e+000 105644 -1.6960e+001 -4.5167e+001 -6.0564e-001 31620 105468,105546,105520
 6.7000e+000 105621 -1.3094e+001 -4.6091e+001 -2.4569e+000 31620 105468,105572,105546
 6.7000e+000 105598 -1.6233e+001 -4.6214e+001  1.8049e+000 31620 105468,105520,105494
 6.7000e+000 105794  5.3296e+000 -2.6379e+001 -1.2630e+000 31158 105889,105817,105693
 6.7000e+000 105771  2.2755e+000 -2.1614e+001 -2.5698e+000 31158 105817,105667,105745
 6.7000e+000 105843  3.7081e+000 -3.6446e+001 -4.5447e-001 31158 105719,105693,105817
 6.7000e+000 105866  6.1911e+000 -2.8732e+001 -2.2735e+000 31158 105719,105817,105745
 6.7000e+000 105915 -1.3722e+000 -2.9252e+001 -1.3370e+000 31158 105667,105817,105889
 6.7000e+000 106270 -1.2355e+001 -3.1604e+001 -1.8560e+000 30818 106293,106071,106045
 6.7000e+000 106247 -1.6253e+001 -4.0558e+001 -3.5265e+000 30818 106293,106045,106175
 6.7000e+000 106224 -1.2313e+001 -3.0080e+001  1.7269e+000 30818 106123,106175,106149
 6.7000e+000 106201 -1.3726e+001 -3.3584e+001  5.2487e+000 30818 106071,106123,106097
 6.7000e+000 106319 -1.3897e+001 -2.8128e+001  1.6894e+000 30818 106123,106071,106293
 6.7000e+000 106342 -1.5100e+001 -3.2925e+001  2.6963e-001 30818 106123,106293,106175
 6.7000e+000 106492 -1.3328e+001 -2.7051e+001  6.9182e+000 30414 106645,106391,106365
 6.7000e+000 106469  1.1474e+000 -2.5761e+001  9.7182e+000 30414 106515,106365,106443
 6.7000e+000 106541 -5.8256e+000 -2.8692e+001  8.0398e+000 30414 106645,106365,106515
 6.7000e+000 106671 -2.7472e+000 -3.6513e+001  1.5532e+001 30414 106417,106391,106645
 6.7000e+000 106694  1.5097e+001 -3.1687e+001  1.2976e+001 30414 106417,106645,106515
 6.7000e+000 106942 -8.7064e+000 -4.8388e+001 -1.4818e-001 29910 106965,106795,106769
 6.7000e+000 106919 -6.7011e+000 -4.5343e+001  9.3814e-001 29910 106965,106769,106717
 6.7000e+000 106896 -9.3953e+000 -4.0485e+001 -2.8745e+000 29910 106795,106847,106821
 6.7000e+000 106873 -4.0403e+000 -4.0089e+001  2.3138e+000 29910 106717,106769,106743
 6.7000e+000 106991 -1.1524e+001 -4.4572e+001  6.4931e-001 29910 106847,106795,106965
 6.7000e+000 107014 -8.9566e+000 -4.0615e+001  1.8558e+000 29910 106847,106965,106717
 6.7000e+000 107213 -6.8652e+000 -3.5408e+001  3.5105e+000 29413 107236,107063,107037
 6.7000e+000 107190 -8.0220e+000 -4.2588e+001  6.2510e+000 29413 107236,107037,107141
 6.7000e+000 107167 -1.0047e+001 -2.3589e+001  6.2335e+000 29413 107063,107115,107089
 6.7000e+000 107262 -7.3722e+000 -3.0175e+001  1.5605e+000 29413 107115,107063,107236
 6.7000e+000 107285 -7.5360e+000 -3.5703e+001  4.4226e+000 29413 107115,107236,107141
 6.7000e+000 107486 -3.2772e+000 -3.3666e+001  5.7404e+000 29009 107336,107388,107362
 6.7000e+000 107463 -1.8290e+000 -3.2660e+001  1.3524e+000 29009 107310,107388,107336
 6.7000e+000 107440 -3.1364e+000 -3.2228e+001  1.7154e+000 29009 107310,107414,107388
 6.7000e+000 107736 -1.4514e+001 -4.0361e+001 -7.5505e-001 28491 107537,107615,107563
 6.7000e+000 107713 -1.3417e+001 -3.9994e+001 -1.2095e+000 28491 107537,107641,107615
 6.7000e+000 107690 -9.0337e+000 -3.6652e+001  1.2968e+000 28491 107563,107615,107589
 6.7000e+000 107667 -1.1147e+001 -3.7864e+001 -3.1701e-001 28491 107511,107641,107537
 6.7000e+000 108118 -9.4404e+000 -3.8148e+001  1.1700e+000 27980 108141,107922,107844
 6.7000e+000 108095 -7.3919e+000 -4.1398e+001  1.0144e+000 27980 108141,107844,108000
 6.7000e+000 108072 -9.7499e+000 -3.9433e+001 -2.1440e+000 27980 107844,107922,107870
 6.7000e+000 108049 -9.8692e+000 -3.3897e+001 -1.4531e+000 27980 107870,107922,107896
 6.7000e+000 108026 -1.3977e+001 -3.6080e+001  4.2125e+000 27980 107922,107974,107948
 6.7000e+000 108167 -7.9625e+000 -3.8283e+001  1.8679e+000 27980 107974,107922,108141
 6.7000e+000 108190 -2.3823e+000 -3.8264e+001  2.6845e+000 27980 107974,108141,108000
 6.7000e+000 108745  1.9451e-001 -1.7559e+001 -1.4569e+000 27376 108840,108768,108477
 6.7000e+000 108722 -3.5874e+000 -2.5628e+001 -7.2796e+000 27376 108768,108373,108581
 6.7000e+000 108699 -3.2545e+000 -1.4633e+001  4.4194e+000 27376 108840,108477,108451
 6.7000e+000 108676 -1.5720e+001 -1.9607e+001 -1.5448e+000 27376 108373,108451,108399
 6.7000e+000 108653 -3.6348e+000 -2.4862e+001  5.5459e+000 27376 108503,108581,108529
 6.7000e+000 108630 -4.0063e+000 -1.9355e+001  4.9680e+000 27376 108529,108581,108555
 6.7000e+000 108607 -1.9492e+001 -2.5308e+001  1.5605e+000 27376 108399,108451,108425
 6.7000e+000 108794 -2.4357e+000 -2.5073e+001 -1.1586e+000 27376 108503,108477,108768
 6.7000e+000 108817  4.2323e+000 -2.3712e+001 -1.6187e+000 27376 108503,108768,108581
 6.7000e+000 108866 -1.1927e+001 -2.3661e+001 -3.6166e+000 27376 108373,108768,108840
 6.7000e+000 108889 -1.1422e+001 -1.9080e+001  2.3926e+000 27376 108373,108840,108451
 6.7000e+000 109186 -1.3774e+001 -3.8988e+001  5.0538e+000 26722 109209,108938,108912
 6.7000e+000 109163 -1.2694e+001 -3.6155e+001  4.0642e+000 26722 109281,109209,108912
 6.7000e+000 109140 -1.2630e+001 -3.5220e+001  4.0747e+000 26722 109281,108912,109042
 6.7000e+000 109117 -8.9978e+000 -3.9819e+001  2.3166e+000 26722 108938,108990,108964
 6.7000e+000 109094 -1.8581e+001 -3.2863e+001  3.2047e+000 26722 108912,109068,109042
 6.7000e+000 109235 -1.0164e+001 -3.7181e+001  4.4550e+000 26722 108990,108938,109209
 6.7000e+000 109258 -1.2273e+001 -3.9332e+001  3.5224e+000 26722 108990,109209,109016
 6.7000e+000 109307 -1.2028e+001 -3.7580e+001  2.5755e+000 26722 109016,109209,109281
 6.7000e+000 109330 -1.1704e+001 -3.6135e+001  2.4297e+000 26722 109016,109281,109042
 6.7000e+000 109732 -1.0855e+001 -2.6560e+001 -3.3377e+000 26310 109458,109588,109484
 6.7000e+000 109709 -1.2356e+001 -3.0748e+001 -3.3915e+000 26310 109458,109614,109588
 6.7000e+000 109686 -2.6664e+001 -4.0649e+001  5.5542e+000 26310 109510,109562,109536
 6.7000e+000 109663 -3.3565e+001 -4.2207e+001  3.7517e+000 26310 109484,109562,109510
 6.7000e+000 109640 -1.7953e+001 -2.9787e+001 -2.6162e+000 26310 109484,109588,109562
 6.7000e+000 110159 -6.7173e+000 -3.1669e+001 -5.1614e-001 25642 110182,109940,109914
 6.7000e+000 110136 -4.5838e+000 -3.6027e+001  7.1333e+000 25642 110182,109914,109888
 6.7000e+000 110113 -1.1978e+001 -3.8663e+001 -4.9510e+000 25642 109966,110018,109992
 6.7000e+000 110090 -1.3076e+001 -3.7625e+001  3.5433e+000 25642 110254,109966,109940
 6.7000e+000 110067 -1.5361e+001 -3.3132e+001  4.1920e+000 25642 109862,110018,109888
 6.7000e+000 110044 -1.4167e+001 -2.6934e+001  7.2461e+000 25642 109836,110018,109862
 6.7000e+000 110208 -1.1628e+001 -3.5370e+001  2.7859e+000 25642 110254,109940,110182
 6.7000e+000 110231 -1.2686e+001 -3.7385e+001  7.2788e+000 25642 110018,110182,109888
 6.7000e+000 110280 -1.0008e+001 -4.0889e+001  3.3873e+000 25642 110018,109966,110254
 6.7000e+000 110303 -9.1772e+000 -3.9326e+001  2.8402e+000 25642 110018,110254,110182
 6.7000e+000 110632 -1.6525e+001 -2.9621e+001 -3.5389e+000 25188 110407,110485,110433
 6.7000e+000 110609 -2.7544e+001 -3.6364e+001  3.0616e-001 25188 110407,110537,110485
 6.7000e+000 110586 -1.5249e+001 -2.9677e+001 -1.1726e+001 25188 110433,110485,110459
 6.7000e+000 110563 -2.5205e+001 -4.1958e+001  1.0691e+001 25188 110485,110537,110511
 6.7000e+000 110831 -1.8783e+000 -3.2069e+001  1.7876e+000 24726 110854,110707,110655
 6.7000e+000 110808 -8.4225e-001 -3.4200e+001  3.8491e+000 24726 110854,110655,110759
 6.7000e+000 110785 -2.7787e+000 -3.3270e+001  2.2290e+000 24726 110655,110707,110681
 6.7000e+000 110880 -1.0037e+000 -2.9976e+001  1.9672e+000 24726 110733,110707,110854
 6.7000e+000 110903  5.2578e-001 -3.1118e+001  4.1633e+000 24726 110733,110854,110759
 6.7000e+000 111234 -7.1189e-001 -2.1230e+001 -1.6962e+000 24222 111257,111087,111035
 6.7000e+000 111211  1.0688e+000 -2.0377e+001  2.6515e+000 24222 111257,111035,111009
 6.7000e+000 111188 -4.6728e+000 -6.1817e+000 -7.9939e+000 24222 111035,111087,111061
 6.7000e+000 111165 -3.1608e+000 -1.6149e+001 -1.3814e+000 24222 111087,111139,111113
 6.7000e+000 111283 -2.4057e+000 -1.6947e+001 -3.1401e-001 24222 111139,111087,111257
 6.7000e+000 111306 -1.4949e+000 -1.3525e+001  2.4998e+000 24222 111139,111257,111009
 6.7000e+000 111625  1.8939e+000 -2.5193e+001 -8.5179e-001 23732 111648,111481,111455
 6.7000e+000 111602  2.4420e+000 -2.4486e+001 -1.1025e+000 23732 111648,111455,111377
 6.7000e+000 111579  1.3273e+001 -5.2816e+000  3.7144e+000 23732 111377,111429,111403
 6.7000e+000 111556  6.5196e+000 -2.2919e+001 -1.3688e+000 23732 111377,111455,111429
 6.7000e+000 111533  5.4418e+000 -2.1417e+001 -7.9171e-001 23732 111351,111507,111377
 6.7000e+000 111674  2.5202e+000 -2.6214e+001 -1.6138e+000 23732 111507,111481,111648
 6.7000e+000 111697  3.1367e+000 -2.4888e+001 -1.8929e+000 23732 111507,111648,111377
 6.7000e+000 112156 -8.5920e+000 -3.8359e+001  3.1942e+000 23278 112179,111908,111882
 6.7000e+000 112133 -8.0516e+000 -3.5356e+001  1.6500e+000 23278 112179,111882,112012
 6.7000e+000 112110 -1.2875e+000 -4.1923e+001  3.3582e-001 23278 111908,111960,111934
 6.7000e+000 112087 -3.0428e+000 -3.1090e+001 -3.7951e-001 23278 111882,112038,112012
 6.7000e+000 112064 -6.8136e+000 -3.1813e+001 -5.1376e-001 23278 111960,112012,111986
 6.7000e+000 112205 -8.0192e+000 -3.6913e+001  7.6854e-001 23278 111960,111908,112179
 6.7000e+000 112228 -6.5055e+000 -3.3470e+001 -9.7845e-001 23278 111960,112179,112012
 6.7000e+000 112685 -2.1721e+001 -5.2717e+001 -4.6183e+000 22938 112489,112567,112541
 6.7000e+000 112662 -1.5970e+001 -4.0204e+001 -3.0954e+000 22938 112437,112567,112489
 6.7000e+000 112639 -1.6282e+001 -4.0345e+001 -1.3472e+000 22938 112489,112541,112515
 6.7000e+000 112616 -1.9580e+001 -3.7590e+001 -2.4132e+000 22938 112411,112567,112437
 6.7000e+000 112593 -1.7102e+001 -5.5557e+001  1.5127e+000 22938 112437,112489,112463
 6.7000e+000 113191  9.8646e-002 -4.0806e+001 -6.2850e+000 22534 113214,112998,112946
 6.7000e+000 113168 -6.5557e+000 -3.5177e+001 -3.4670e+000 22534 113286,113214,112946
 6.7000e+000 113145 -4.3650e+000 -3.5444e+001 -2.8263e+000 22534 113286,112946,112920
 6.7000e+000 113122 -1.6826e+001 -3.0974e+001 -9.0150e+000 22534 113358,113024,112998
 6.7000e+000 113099 -9.5507e+000 -3.2709e+001 -1.7357e+000 22534 112868,113050,112894
 6.7000e+000 113076 -9.9842e+000 -5.6150e+001 -1.0826e+001 22534 112946,112998,112972
 6.7000e+000 113240 -1.1767e+001 -4.1819e+001 -9.4593e+000 22534 113358,112998,113214
 6.7000e+000 113263 -9.5954e+000 -3.6718e+001 -2.3263e+000 22534 113050,113214,112894
 6.7000e+000 113312 -3.9051e+000 -3.4229e+001 -2.7562e+000 22534 112894,113214,113286
 6.7000e+000 113335 -1.7775e+000 -3.4821e+001 -2.4779e+000 22534 112894,113286,112920
 6.7000e+000 113384 -1.1234e+001 -2.0423e+001 -6.7874e+000 22534 113050,113024,113358
 6.7000e+000 113407 -4.0919e+000 -2.9656e+001 -5.9842e+000 22534 113050,113358,113214
 6.7000e+000 113785 -1.5246e+001 -4.6427e+001  2.7811e+000 21978 113808,113615,113511
 6.7000e+000 113762 -1.2518e+001 -4.7681e+001  5.3532e+000 21978 113808,113511,113667
 6.7000e+000 113739 -3.1001e+000 -3.7138e+001 -1.9885e+000 21978 113511,113615,113537
 6.7000e+000 113716  8.9355e+000 -3.4455e+001 -4.5165e+000 21978 113537,113615,113589
 6.7000e+000 113693 -1.8793e+000 -4.7743e+001  1.4781e-001 21978 113537,113589,113563
 6.7000e+000 113834 -1.5405e+001 -4.5695e+001  6.1405e+000 21978 113641,113615,113808
 6.7000e+000 113857 -7.9476e+000 -4.2955e+001  9.1870e+000 21978 113641,113808,113667
 6.7000e+000 114284 -1.0175e+001 -3.6753e+001  1.3479e+000 21517 114013,114117,114039
 6.7000e+000 114261 -1.2519e+001 -3.6866e+001  3.4412e+000 21517 113961,114117,114013
 6.7000e+000 114238 -1.0670e+001 -3.5037e+001  4.1870e+000 21517 113961,114013,113987
 6.7000e+000 114215 -1.9011e+001 -4.3271e+001 -2.8617e+000 21517 114039,114117,114091
 6.7000e+000 114192 -1.2265e+001 -2.9468e+001  3.8782e+000 21517 113961,114143,114117
 6.7000e+000 114169 -1.5059e+000 -3.7137e+001 -3.0494e+000 21517 114039,114091,114065
 6.7000e+000 114581  1.1940e+000 -3.7658e+001  1.5529e-001 21027 114359,114463,114437
 6.7000e+000 114558  4.8299e+000 -3.3110e+001  5.5314e+000 21027 114333,114463,114359
 6.7000e+000 114535  5.7013e+000 -3.4326e+001 -1.4295e+000 21027 114359,114437,114385
 6.7000e+000 114512  5.2788e+000 -3.2800e+001  6.1145e+000 21027 114307,114463,114333
 6.7000e+000 114489  1.6994e+001 -3.1471e+001 -2.1267e+000 21027 114385,114437,114411
 6.7000e+000 114912 -1.4733e+001 -3.7867e+001  1.0339e+000 20623 114713,114791,114765
 6.7000e+000 114889 -1.0863e+001 -3.6282e+001 -2.1089e+000 20623 114687,114791,114713
 6.7000e+000 114866 -5.0101e+000 -3.8649e+001 -3.2677e+000 20623 114687,114817,114791
 6.7000e+000 114843 -2.4989e+001 -4.8841e+001  5.4246e+000 20623 114713,114765,114739
 6.7000e+000 115290 -3.7085e+000 -3.4150e+001  2.3151e+000 20375 115313,115146,115094
 6.7000e+000 115267 -6.8041e+000 -3.2387e+001  3.9955e+000 20375 115313,115094,115042
 6.7000e+000 115244 -9.0388e+000 -3.0608e+001  1.2140e+000 20375 115385,115016,115172
 6.7000e+000 115221 -3.0178e+000 -3.0321e+001  3.1797e+000 20375 115042,115094,115068
 6.7000e+000 115198 -6.6746e+000 -4.0689e+001  1.6608e+000 20375 115094,115146,115120
 6.7000e+000 115339 -1.0412e+001 -4.1541e+001 -1.4519e+000 20375 115172,115146,115313
 6.7000e+000 115362 -4.7897e+000 -3.1909e+001  1.3861e+000 20375 115385,115172,115313
 6.7000e+000 115411 -1.1230e+001 -3.1993e+001  1.8737e+000 20375 115042,115016,115385
 6.7000e+000 115434 -9.2672e+000 -3.4850e+001  2.7354e+000 20375 115042,115385,115313
 6.7000e+000 115891 -2.1151e+001 -4.1539e+001  6.7457e+000 19971 115617,115747,115643
 6.7000e+000 115868 -1.7327e+001 -3.3203e+001  7.8762e+000 19971 115617,115773,115747
 6.7000e+000 115845 -1.4392e+001 -6.3475e+001  1.4461e+000 19971 115643,115721,115695
 6.7000e+000 115822 -5.7844e-001 -2.9091e+001  7.4177e-001 19971 115643,115747,115721
 6.7000e+000 115799 -1.1358e+001 -7.9179e+001 -6.2393e+000 19971 115643,115695,115669
 6.7000e+000 115992 -2.4418e+001 -6.2802e+001 -1.1538e+001 19659 115914,115966,115940
 6.7000e+000 116142 -8.8800e+000 -1.8610e+001  8.9615e-001 18997 116041,116093,116067
 6.7000e+000 116119 -1.3352e+001 -2.9483e+001  1.2312e+000 18997 116015,116093,116041
 6.7000e+000 116343 -8.2475e+000 -4.3188e+001 -7.2481e-001 18707 116193,116245,116219
 6.7000e+000 116320 -1.8798e+001 -4.7963e+001 -1.8434e+000 18707 116193,116271,116245
 6.7000e+000 116297 -1.8595e+001 -4.4601e+001 -4.5965e+000 18707 116167,116271,116193
 6.7000e+000 116747 -5.6707e+000 -3.7994e+001 -9.3489e-001 18301 116525,116629,116551
 6.7000e+000 116724 -2.9280e+000 -3.2183e+001  6.4864e-001 18301 116473,116629,116525
 6.7000e+000 116701 -1.4211e+000 -3.0722e+001 -1.8709e+000 18301 116473,116525,116499
 6.7000e+000 116678 -4.5451e+000 -4.0131e+001 -5.5062e-001 18301 116551,116603,116577
 6.7000e+000 116655 -7.4714e+000 -4.2220e+001 -1.4791e+000 18301 116551,116629,116603
 6.7000e+000 117147 -1.4341e+001 -3.5258e+001  1.5764e+000 17747 116899,117029,116925
 6.7000e+000 117124 -7.8901e+000 -2.8133e+001  4.4308e+000 17747 116873,117029,116899
 6.7000e+000 117101 -1.3616e+001 -3.3670e+001  1.8531e+000 17747 116925,117029,116951
 6.7000e+000 117078 -8.2070e+000 -2.0870e+001  1.3291e+000 17747 116951,117029,117003
 6.7000e+000 117055 -1.7784e+001 -4.2375e+001 -4.1091e+000 17747 116951,117003,116977
 6.7000e+000 117368  6.1688e+000 -4.2272e+001  1.4939e+000 17293 117244,117296,117270
 6.7000e+000 117345 -1.0930e+000 -4.4720e+001 -5.9506e-001 17293 117192,117296,117244
 6.7000e+000 117322 -6.7127e+000 -4.1329e+001 -4.6199e-001 17293 117192,117244,117218
 6.7000e+000 117699 -6.8914e+000 -3.5650e+001 -2.6960e+000 16896 117526,117604,117552
 6.7000e+000 117676 -2.3935e+001 -5.4245e+001  4.5013e+000 16896 117500,117604,117526
 6.7000e+000 117653 -2.2908e+001 -4.1785e+001 -9.4383e-001 16896 117552,117604,117578
 6.7000e+000 117630 -2.4623e+001 -7.3321e+001  5.7683e+000 16896 117474,117604,117500
 6.7000e+000 117849 -4.5322e+001 -8.9668e+001 -3.2594e+000 16534 117722,117774,117748
 6.7000e+000 117826 -3.5142e+001 -1.0744e+002 -1.4742e+001 16534 117722,117800,117774
 6.7000e+000 118070  1.5938e+000 -4.2834e+001  5.4754e+000 16194 117946,117998,117972
 6.7000e+000 118047 -5.3060e+000 -4.7719e+001  2.1753e+000 16194 117894,117998,117946
 6.7000e+000 118024 -2.4436e+001 -4.9793e+001  3.7960e-001 16194 117894,117946,117920
 6.7000e+000 118173  4.7294e+000 -3.3564e+001  0.0000e+000 15968 118095,118147,118121
 6.7000e+000 118276 -8.7307e+000 -4.2939e+001  8.7933e-001 15433 118299,118198,118250
 6.7000e+000 118325 -9.0530e+000 -4.3691e+001  8.8681e-001 15433 118224,118198,118299
 6.7000e+000 118450 -1.9528e+001 -4.1322e+001  4.0969e+000 421 118372,118424,118398
 6.8000e+000 69891 -5.8247e+000 -2.3660e+001  9.3261e-001 68988 69447,69681,69629
 6.8000e+000 69868 -1.0039e+000 -2.2689e+001  1.2413e+000 68988 69421,69681,69447
 6.8000e+000 69845 -1.8588e+000 -1.0741e+001  4.3147e-001 68988 69447,69629,69577
 6.8000e+000 69822 -9.7566e+000 -2.4321e+001 -2.8641e+000 68988 69447,69577,69473
 6.8000e+000 69799 -2.3872e+000 -3.0184e+001  5.5365e+000 68988 69629,69681,69655
 6.8000e+000 69776 -1.1131e+001 -1.4818e+001  1.1518e+000 68988 69577,69629,69603
 6.8000e+000 69753 -8.4728e+000 -2.2763e+001 -3.8206e+000 68988 69473,69577,69551
 6.8000e+000 69730 -8.8488e+000 -4.2695e+001 -3.6018e+000 68988 69473,69551,69525
 6.8000e+000 69707 -1.4087e+001 -2.8264e+001  5.1449e-001 68988 69473,69525,69499
 6.8000e+000 69992 -2.1963e+001 -3.2723e+001 -4.5472e+000 68676 69914,69966,69940
 6.8000e+000 70392 -3.0226e+001 -3.8829e+001  5.4153e+000 68478 70118,70248,70144
 6.8000e+000 70369 -1.4655e+001 -4.5524e+001  9.1405e+000 68478 70118,70274,70248
 6.8000e+000 70346 -1.5305e+001 -2.6878e+001  4.8407e-001 68478 70144,70222,70196
 6.8000e+000 70323 -1.2383e+001 -1.8984e+001 -2.0818e+000 68478 70144,70248,70222
 6.8000e+000 70300 -1.2787e+001 -2.7521e+001  1.4150e+000 68478 70144,70196,70170
 6.8000e+000 70841  1.8065e+000 -2.7296e+001 -6.6588e+000 68280 70570,70622,70596
 6.8000e+000 70818 -1.7497e+001 -3.0759e+001 -1.2086e+000 68280 70544,70622,70570
 6.8000e+000 70795 -1.4444e+001 -2.3150e+001 -1.0446e+000 68280 70544,70674,70622
 6.8000e+000 70772 -1.4064e+001 -2.0267e+001  7.6427e-001 68280 70622,70674,70648
 6.8000e+000 70749 -2.0505e+001 -3.4847e+001  2.8524e+000 68280 70518,70674,70544
 6.8000e+000 70726  1.8100e-001 -3.8878e+001  8.7041e+000 68280 70518,70700,70674
 6.8000e+000 70991 -2.2582e+000 -1.4767e+002  4.8313e+000 67968 70864,70916,70890
 6.8000e+000 70968 -4.1318e+001 -1.4416e+002  2.0683e+001 67968 70864,70942,70916
 6.8000e+000 71141 -6.8111e+001 -1.2338e+002 -4.8906e+000 67770 71040,71092,71066
 6.8000e+000 71118 -5.7242e+001 -1.5307e+002  9.5757e+000 67770 71014,71092,71040
 6.8000e+000 71651 -1.3537e+001 -3.0728e+001 -2.7661e+000 67366 71746,71674,71458
 6.8000e+000 71628 -9.4548e+000 -1.8404e+001 -6.5566e+000 67366 71674,71354,71510
 6.8000e+000 71605 -1.5135e+001 -3.6288e+001 -1.4396e+000 67366 71746,71458,71432
 6.8000e+000 71582 -2.2116e+001 -3.4345e+001  2.6211e+000 67366 71354,71432,71380
 6.8000e+000 71559 -1.9969e+001 -2.5712e+001 -1.4736e+000 67366 71380,71432,71406
 6.8000e+000 71536 -1.4274e+001 -8.8792e+000 -3.4478e+000 67366 71328,71510,71354
 6.8000e+000 71700 -1.2209e+001 -2.5564e+001 -2.0400e+000 67366 71484,71458,71674
 6.8000e+000 71723 -1.3521e+001 -2.6231e+001 -2.4456e+000 67366 71484,71674,71510
 6.8000e+000 71772 -1.5645e+001 -2.4102e+001 -3.2080e+000 67366 71354,71674,71746
 6.8000e+000 71795 -1.5295e+001 -2.7744e+001 -2.9460e+000 67366 71354,71746,71432
 6.8000e+000 71896 -1.6885e+001 -2.9143e+001  0.0000e+000 67146 71818,71870,71844
 6.8000e+000 71997 -1.3953e+001 -3.1208e+001  6.5863e+000 66948 71919,71971,71945
 6.8000e+000 72149 -9.4798e+000 -2.4425e+001 -2.7259e+000 66700 72172,72074,72048
 6.8000e+000 72126 -1.6334e+001 -2.7877e+001 -9.1640e-001 66700 72172,72048,72022
 6.8000e+000 72198 -2.1665e+001 -3.0784e+001  2.1100e+000 66700 72244,72172,72100
 6.8000e+000 72221 -2.0529e+001 -2.8242e+001 -1.6185e+000 66700 72100,72172,72022
 6.8000e+000 72270 -1.4642e+001 -1.5056e+001 -1.3433e+000 66700 72074,72172,72244
 6.8000e+000 72623 -1.9785e+001 -2.7545e+001 -1.4014e-002 66502 72424,72502,72450
 6.8000e+000 72600 -1.8389e+001 -2.4428e+001  2.6587e-001 66502 72398,72502,72424
 6.8000e+000 72577 -1.4851e+001 -2.6427e+001 -1.8002e-001 66502 72398,72528,72502
 6.8000e+000 72554 -2.3406e+001 -2.5791e+001 -1.2323e-001 66502 72450,72502,72476
 6.8000e+000 72920 -2.5193e+001 -4.3902e+001  1.2387e+000 65941 72672,72776,72750
 6.8000e+000 72897 -2.2725e+001 -3.7498e+001  4.3398e+000 65941 72646,72776,72672
 6.8000e+000 72874 -2.1985e+001 -4.3361e+001  2.1842e+000 65941 72672,72750,72724
 6.8000e+000 72851 -2.3840e+001 -3.7728e+001  4.4634e+000 65941 72672,72724,72698
 6.8000e+000 72828 -1.7616e+001 -3.7862e+001  4.1863e+000 65941 72646,72802,72776
 6.8000e+000 73241 -1.8262e+001 -2.7655e+001 -9.5291e-001 65743 73264,73071,73045
 6.8000e+000 73218 -1.9609e+001 -3.0911e+001  2.4836e+000 65743 73480,73264,73045
 6.8000e+000 73195 -1.4062e+001 -2.4074e+001  1.5766e-001 65743 73336,72967,73097
 6.8000e+000 73172 -1.6524e+001 -2.3886e+001  8.2078e-001 65743 73408,72993,72967
 6.8000e+000 73149 -1.4932e+001 -2.6312e+001 -8.2300e-001 65743 72967,73123,73097
 6.8000e+000 73290 -1.6165e+001 -2.7250e+001  1.9178e-001 65743 73097,73071,73264
 6.8000e+000 73313 -1.5150e+001 -2.6214e+001 -2.7087e-001 65743 73336,73097,73264
 6.8000e+000 73362 -1.5310e+001 -2.5241e+001  1.2213e+000 65743 73408,72967,73336
 6.8000e+000 73385 -1.2579e+001 -2.4787e+001  1.4565e+000 65743 73019,73336,73264
 6.8000e+000 73434 -1.4622e+001 -2.0404e+001  2.2414e+000 65743 73019,72993,73408
 6.8000e+000 73457 -1.2784e+001 -2.2823e+001  2.2997e+000 65743 73019,73408,73336
 6.8000e+000 73506 -1.3444e+001 -2.0162e+001 -3.0613e-003 65743 73019,73264,73480
 6.8000e+000 73989 -7.2736e+000 -2.6899e+001  2.3730e+000 65453 73793,73845,73819
 6.8000e+000 73966 -1.8980e+001 -2.9348e+001  3.3789e+000 65453 73741,73845,73793
 6.8000e+000 73943 -1.0276e+001 -2.3834e+001  9.4296e-001 65453 73715,73845,73741
 6.8000e+000 73920 -1.6411e+001 -3.3208e+001  5.9017e+000 65453 73741,73793,73767
 6.8000e+000 73897 -4.3277e+000 -1.3960e+001 -1.7043e+000 65453 73715,73871,73845
 6.8000e+000 74357 -8.2553e+000 -1.8982e+001 -6.1971e+000 65141 74380,74138,74086
 6.8000e+000 74334 -1.3052e+001 -2.6807e+001 -4.0441e+000 65141 74380,74086,74060
 6.8000e+000 74311 -1.4100e+001 -2.6650e+001 -1.1293e+000 65141 74138,74190,74164
 6.8000e+000 74288 -1.2844e+001 -2.9159e+001 -1.1699e+000 65141 74060,74216,74190
 6.8000e+000 74265 -1.3871e+001 -3.1998e+001  6.7375e-001 65141 74034,74216,74060
 6.8000e+000 74242 -7.4591e+000 -1.3609e+001 -3.2496e+000 65141 74086,74138,74112
 6.8000e+000 74406 -1.1282e+001 -2.5945e+001 -2.4081e+000 65141 74190,74138,74380
 6.8000e+000 74429 -1.2732e+001 -2.8611e+001 -9.9516e-001 65141 74190,74380,74060
 6.8000e+000 74937 -1.6407e+001 -2.4594e+001 -5.7187e+000 64737 74614,74666,74640
 6.8000e+000 74914 -2.0022e+001 -3.1230e+001 -3.7172e+000 64737 74614,74796,74666
 6.8000e+000 74891 -1.3828e+001 -1.7715e+001  1.1991e-001 64737 74960,74718,74666
 6.8000e+000 74868 -1.4090e+001 -2.0843e+001 -2.3731e+000 64737 74960,74666,74770
 6.8000e+000 74845 -1.5147e+001 -2.0138e+001 -2.8496e+000 64737 74666,74796,74770
 6.8000e+000 74822 -1.2691e+001 -2.0297e+001  1.7816e+000 64737 74666,74718,74692
 6.8000e+000 74986 -1.3684e+001 -2.0878e+001 -1.5679e+000 64737 74744,74718,74960
 6.8000e+000 75009 -1.5880e+001 -2.5887e+001 -4.4278e+000 64737 74744,74960,74770
 6.8000e+000 75306 -1.1130e+001 -2.4049e+001  6.2508e+000 64133 75329,75110,75084
 6.8000e+000 75283 -1.4934e+001 -3.1684e+001  1.9888e+000 64133 75401,75329,75084
 6.8000e+000 75260 -1.6198e+001 -3.1668e+001  1.1974e+000 64133 75401,75084,75058
 6.8000e+000 75237 -1.3373e+001 -3.9840e+001  7.1258e+000 64133 75473,75136,75110
 6.8000e+000 75214 -1.0046e+001 -3.0931e+001  1.3342e-001 64133 75032,75188,75162
 6.8000e+000 75355 -1.6035e+001 -3.5740e+001  5.2617e+000 64133 75473,75110,75329
 6.8000e+000 75378 -1.2251e+001 -3.1309e+001  5.7034e-001 64133 75162,75329,75032
 6.8000e+000 75427 -1.1395e+001 -2.9426e+001  9.6290e-001 64133 75032,75329,75401
 6.8000e+000 75450 -1.7807e+001 -3.3322e+001  3.0629e+000 64133 75545,75401,75058
 6.8000e+000 75499 -9.0727e+000 -3.4894e+001  3.4099e+000 64133 75162,75136,75473
 6.8000e+000 75522 -1.2466e+001 -2.9330e+001  2.3838e+000 64133 75162,75473,75329
 6.8000e+000 75571 -1.2846e+001 -2.2540e+001  1.0384e+000 64133 75032,75401,75545
 6.8000e+000 75851 -2.1874e+001 -2.8988e+001  1.8384e+000 63843 75874,75753,75727
 6.8000e+000 75828 -1.9623e+001 -2.5849e+001  3.0648e-001 63843 75946,75874,75727
 6.8000e+000 75805 -2.0938e+001 -2.7620e+001  1.0927e+000 63843 76018,75946,75727
 6.8000e+000 75900 -2.1237e+001 -2.8769e+001 -2.2916e+000 63843 75779,75753,75874
 6.8000e+000 75923 -1.9414e+001 -2.2336e+001 -2.9390e+000 63843 75779,75874,75675
 6.8000e+000 75972 -1.9996e+001 -2.6541e+001  6.0619e-002 63843 75675,75874,75946
 6.8000e+000 75995 -1.9092e+001 -2.4789e+001 -2.7924e-001 63843 75675,75946,75701
 6.8000e+000 76044 -1.9143e+001 -2.3160e+001  8.5010e-001 63843 75701,75946,76018
 6.8000e+000 76454 -1.0686e+000 -2.7020e+000  3.1580e-001 63439 76477,76255,76229
 6.8000e+000 76431 -2.9065e+000 -5.3711e+000  1.8467e+000 63439 76477,76229,76359
 6.8000e+000 76408 -7.2784e+000 -5.9852e+000  3.0743e+000 63439 76307,76359,76333
 6.8000e+000 76385 -1.4144e+000 -7.1748e+000  5.7946e-002 63439 76255,76307,76281
 6.8000e+000 76503 -3.5189e+000 -4.9744e+000  1.8187e+000 63439 76307,76255,76477
 6.8000e+000 76526 -3.1430e+000 -5.8686e+000  2.9933e+000 63439 76307,76477,76359
 6.8000e+000 76926 -5.9972e+000 -8.5082e+000  2.8858e-001 63049 76704,76782,76756
 6.8000e+000 76903 -6.1509e+000 -8.4696e+000 -1.2828e-001 63049 76704,76808,76782
 6.8000e+000 76880 -4.5729e+000 -1.0220e+001  3.5752e-001 63049 76704,76756,76730
 6.8000e+000 76857 -2.9607e+000 -4.4768e+000  1.4973e+000 63049 76678,76808,76704
 6.8000e+000 76834  2.9543e-001  2.0229e-002 -3.5766e-001 63049 76652,76808,76678
 6.8000e+000 77076 -8.0011e+000 -3.7040e+001 -6.4386e-001 62737 76975,77027,77001
 6.8000e+000 77053 -6.5052e+000 -3.9482e+001 -2.0232e+000 62737 76949,77027,76975
 6.8000e+000 77324 -1.4651e+001 -2.9280e+001 -7.5828e-001 62277 77347,77177,77125
 6.8000e+000 77301 -1.5271e+001 -2.9206e+001 -1.2544e+000 62277 77347,77125,77229
 6.8000e+000 77278 -1.3853e+001 -3.3232e+001 -3.8081e+000 62277 77099,77229,77125
 6.8000e+000 77255 -1.7522e+001 -3.6263e+001  7.3010e-001 62277 77125,77177,77151
 6.8000e+000 77373 -1.5011e+001 -2.9829e+001 -1.1135e+000 62277 77203,77177,77347
 6.8000e+000 77396 -1.5790e+001 -2.9575e+001 -1.5501e+000 62277 77203,77347,77229
 6.8000e+000 77857 -1.2643e+001 -4.2961e+001  1.2125e+000 61758 77635,77739,77661
 6.8000e+000 77834 -1.5872e+001 -4.4377e+001 -4.1395e-001 61758 77583,77739,77635
 6.8000e+000 77811 -1.6202e+001 -5.2989e+001 -4.8303e+000 61758 77583,77635,77609
 6.8000e+000 77788 -1.1210e+001 -4.4783e+001  3.1627e+000 61758 77661,77713,77687
 6.8000e+000 77765 -1.4201e+001 -4.6054e+001  1.7436e+000 61758 77661,77739,77713
 6.8000e+000 78491 -1.2218e+001 -1.7560e+001  3.6787e-001 61418 78171,78301,78249
 6.8000e+000 78468 -5.4002e+000 -1.4449e+001  1.8589e+000 61418 78145,78301,78171
 6.8000e+000 78445 -9.8399e+000 -1.5747e+001 -1.0286e+000 61418 78171,78249,78223
 6.8000e+000 78422 -7.2455e+000 -1.5267e+001  2.4117e+000 61418 78145,78327,78301
 6.8000e+000 78399 -1.3179e+001 -2.2132e+001 -1.6197e+000 61418 78249,78301,78275
 6.8000e+000 78376 -7.0478e+000 -1.9055e+001 -1.1896e+000 61418 78171,78223,78197
 6.8000e+000 78353 -6.4810e+000 -1.0861e+001  3.5689e+000 61418 78119,78327,78145
 6.8000e+000 78690 -5.2667e+000 -1.3429e+001  1.6132e+000 61014 78713,78566,78540
 6.8000e+000 78667 -5.8500e+000 -1.3434e+001  1.6091e+000 61014 78713,78540,78618
 6.8000e+000 78644 -6.4098e+000 -1.5667e+001 -2.4302e+000 61014 78514,78618,78540
 6.8000e+000 78739 -4.4569e+000 -1.2187e+001  1.9699e+000 61014 78592,78566,78713
 6.8000e+000 78762 -8.3152e+000 -1.4510e+001  5.7389e-001 61014 78785,78713,78618
 6.8000e+000 78811 -3.3892e+000 -1.2289e+001  1.0983e+000 61014 78592,78713,78785
 6.8000e+000 79398 -3.1130e+000 -1.3814e+001  1.5389e-001 60624 79101,79179,79153
 6.8000e+000 79375 -3.1054e+000 -1.4905e+001  6.0616e-001 60624 79101,79231,79179
 6.8000e+000 79352 -2.9849e+000 -1.5699e+001 -6.3509e-001 60624 79075,79231,79101
 6.8000e+000 79329 -4.2431e+000 -1.8269e+001  1.1918e+000 60624 79075,79257,79231
 6.8000e+000 79306 -1.5755e+000 -1.1628e+001  1.1329e+000 60624 79179,79231,79205
 6.8000e+000 79283 -3.8786e+000 -1.5450e+001  1.4737e-001 60624 79101,79153,79127
 6.8000e+000 79776 -1.7522e+001 -3.0069e+001  8.3961e-001 60070 79528,79658,79606
 6.8000e+000 79753 -1.7599e+001 -2.9196e+001  2.7518e-002 60070 79502,79658,79528
 6.8000e+000 79730 -2.1663e+001 -3.0478e+001  1.3827e+000 60070 79528,79606,79580
 6.8000e+000 79707 -1.4872e+001 -2.7346e+001 -2.5245e-001 60070 79606,79658,79632
 6.8000e+000 79684 -1.1257e+000 -1.9210e+001 -4.1863e+000 60070 79528,79580,79554
 6.8000e+000 80105 -1.2226e+001 -2.3336e+001  2.5684e+000 59758 80128,79958,79906
 6.8000e+000 80082 -1.1161e+001 -2.3755e+001  2.8262e+000 59758 80128,79906,80010
 6.8000e+000 80059 -1.5545e+001 -2.6172e+001  6.4663e+000 59758 79906,79958,79932
 6.8000e+000 80036 -1.4938e+001 -2.6257e+001  1.7784e+000 59758 79880,80010,79906
 6.8000e+000 80154 -1.1658e+001 -2.3171e+001  2.9672e+000 59758 79984,79958,80128
 6.8000e+000 80177 -1.0713e+001 -2.3538e+001  3.3004e+000 59758 79984,80128,80010
 6.8000e+000 80376 -5.3215e+000 -9.7485e+000  6.2409e-001 59312 80226,80304,80252
 6.8000e+000 80353 -5.1963e+000 -1.2705e+001  4.5572e-001 59312 80200,80304,80226
 6.8000e+000 80330 -7.1281e+000 -9.9885e+000  2.7904e+000 59312 80252,80304,80278
 6.8000e+000 80805 -1.0608e+001 -1.9865e+001 -3.5494e+000 58908 80900,80828,80638
 6.8000e+000 80782 -9.6916e+000 -2.5424e+001 -5.3891e+000 58908 80828,80560,80508
 6.8000e+000 80759 -1.1020e+001 -1.8944e+001 -2.0148e+000 58908 80900,80638,80612
 6.8000e+000 80736 -3.6516e+000 -2.3099e+001  9.1182e+000 58908 80482,80664,80508
 6.8000e+000 80713 -8.8993e+000 -1.8851e+001 -1.2299e+000 58908 80560,80612,80586
 6.8000e+000 80690 -1.1361e+001 -7.2354e+001 -1.3767e+001 58908 80508,80560,80534
 6.8000e+000 80854 -4.6834e+000 -2.2376e+001  1.0200e+000 58908 80664,80638,80828
 6.8000e+000 80877 -8.7838e+000 -3.4627e+001  1.2266e+000 58908 80664,80828,80508
 6.8000e+000 80926 -9.4801e+000 -1.7067e+001 -3.8396e+000 58908 80560,80828,80900
 6.8000e+000 80949 -1.0325e+001 -1.7096e+001 -2.0822e+000 58908 80560,80900,80612
 6.8000e+000 81246 -7.5575e+000 -2.4434e+001 -4.4332e-001 58482 81076,81128,81102
 6.8000e+000 81223 -1.3799e+001 -3.8818e+001 -3.5876e+000 58482 80972,81128,81076
 6.8000e+000 81200 -9.6211e+000 -2.7545e+001 -4.4414e+000 58482 80972,81076,81050
 6.8000e+000 81177 -1.7399e+001 -3.8931e+001 -2.9216e+000 58482 80998,81050,81024
 6.8000e+000 81154 -1.1731e+001 -3.0546e+001 -5.4371e+000 58482 80972,81050,80998
 6.8000e+000 81754 -1.4020e+001 -2.1513e+001 -1.0159e+000 57828 81457,81613,81483
 6.8000e+000 81731 -1.5882e+001 -2.6295e+001 -6.6585e-001 57828 81431,81613,81457
 6.8000e+000 81708 -1.3976e+001 -2.1372e+001  5.0612e-001 57828 81483,81613,81509
 6.8000e+000 81685 -1.7111e+001 -2.5794e+001  1.8828e+000 57828 81509,81613,81587
 6.8000e+000 81662 -1.7033e+001 -3.5716e+001  4.7918e+000 57828 81509,81587,81535
 6.8000e+000 81639 -8.1475e+000 -2.8569e+001  1.3388e+000 57828 81535,81587,81561
 6.8000e+000 82002 -1.2020e+001 -2.8615e+001  8.8563e-001 57374 82025,81855,81829
 6.8000e+000 81979 -1.2831e+001 -2.5214e+001  3.5612e+000 57374 82025,81829,81907
 6.8000e+000 81956 -1.1963e+001 -2.4626e+001  4.0337e+000 57374 81803,81907,81829
 6.8000e+000 81933 -4.4665e+000 -2.1219e+001  5.0653e+000 57374 81777,81907,81803
 6.8000e+000 82051 -1.2720e+001 -2.4654e+001  9.7616e-001 57374 81881,81855,82025
 6.8000e+000 82074 -1.2054e+001 -2.1182e+001  4.6836e+000 57374 81881,82025,81907
 6.8000e+000 82356 -1.4126e+001 -2.5864e+001 -2.0384e+000 56913 82180,82232,82206
 6.8000e+000 82333 -1.2618e+001 -2.3570e+001  2.5845e-001 56913 82180,82284,82232
 6.8000e+000 82310 -5.1823e+000 -1.4978e+001  3.4115e+000 56913 82379,82232,82284
 6.8000e+000 82405  1.8591e+000 -1.3445e+001  6.3281e-001 56913 82258,82232,82379
 6.8000e+000 82764 -1.2932e+001 -1.6329e+001 -1.3438e+000 56523 82614,82666,82640
 6.8000e+000 82741 -1.1257e+001 -1.5075e+001 -2.1429e+000 56523 82614,82692,82666
 6.8000e+000 82718 -6.8751e+000 -1.4738e+001 -4.2000e+000 56523 82588,82692,82614
 6.8000e+000 83368  1.8847e-001 -1.1820e+001  6.7816e-001 55969 82973,83155,83129
 6.8000e+000 83345 -2.4584e+000 -1.3487e+001  6.3350e-001 55969 82973,83181,83155
 6.8000e+000 83322 -2.9134e+000 -1.0631e+001  9.9974e-001 55969 82973,83129,82999
 6.8000e+000 83299 -3.9052e+000 -9.6170e+000 -3.6364e-001 55969 83391,83025,82999
 6.8000e+000 83276 -4.3818e+000 -1.0841e+001 -1.2997e-001 55969 83391,82999,83129
 6.8000e+000 83253  1.2049e+000 -7.7980e+000  3.9648e+000 55969 83077,83129,83103
 6.8000e+000 83230 -5.5123e+000 -8.5002e+000 -1.3147e-001 55969 83025,83077,83051
 6.8000e+000 83207  8.4438e-001 -1.1652e+001  1.1541e+000 55969 82947,83181,82973
 6.8000e+000 83417 -4.4742e+000 -9.3021e+000  4.0190e-001 55969 83077,83025,83391
 6.8000e+000 83440 -4.7434e+000 -1.0118e+001  4.1949e-001 55969 83077,83391,83129
 6.8000e+000 83946 -2.5362e+001 -4.2858e+001  7.8294e+000 55771 83969,83779,83727
 6.8000e+000 83923 -2.1279e+001 -3.4406e+001  5.4665e+000 55771 83969,83727,83623
 6.8000e+000 83900 -2.1084e+001 -1.5005e+001  2.4504e+000 55771 83623,83727,83649
 6.8000e+000 83877 -1.6584e+001 -7.1882e+001  5.6693e+000 55771 83727,83779,83753
 6.8000e+000 83854 -2.4875e+001 -3.2089e+001  5.0532e+000 55771 83675,83727,83701
 6.8000e+000 83831 -3.0547e+001 -2.3966e+001  9.4773e+000 55771 83649,83727,83675
 6.8000e+000 83995 -2.4492e+001 -4.4597e+001 -2.4679e+000 55771 83805,83779,83969
 6.8000e+000 84018 -1.5967e+001 -2.7873e+001 -5.7420e+000 55771 83805,83969,83623
 6.8000e+000 84168 -1.0993e+001 -1.9190e+001 -2.9589e-001 55367 84191,84067,84041
 6.8000e+000 84145 -1.0753e+001 -2.0281e+001 -2.5711e-001 55367 84191,84041,84119
 6.8000e+000 84217 -1.1010e+001 -1.8721e+001 -2.4219e-001 55367 84093,84067,84191
 6.8000e+000 84240 -1.0212e+001 -1.9211e+001  1.1269e-001 55367 84093,84191,84119
 6.8000e+000 84571 -6.6384e+000 -2.2106e+001 -3.2743e+000 54913 84398,84450,84424
 6.8000e+000 84548 -6.8525e+000 -1.9389e+001 -1.5311e+000 54913 84372,84450,84398
 6.8000e+000 84525 -5.3373e+000 -2.0565e+001  8.4870e-001 54913 84346,84450,84372
 6.8000e+000 84502 -4.1398e+000 -1.7712e+001 -2.8941e+000 54913 84346,84476,84450
 6.8000e+000 85126 -1.6863e+001 -2.8033e+001 -4.0072e+000 54402 84858,84936,84910
 6.8000e+000 85103 -1.4613e+001 -2.2179e+001 -3.0379e+000 54402 84806,84936,84858
 6.8000e+000 85080 -1.3791e+001 -1.9167e+001 -1.9054e+000 54402 84780,84936,84806
 6.8000e+000 85057 -8.8176e+000 -2.4727e+001 -7.9335e-001 54402 84806,84858,84832
 6.8000e+000 85034 -1.7091e+001 -1.9620e+001  2.4669e+000 54402 84780,84962,84936
 6.8000e+000 85011 -1.8047e+001 -1.2687e+001 -2.5842e+000 54402 84858,84910,84884
 6.8000e+000 84988 -1.6529e+001 -2.0269e+001  3.2803e+000 54402 84754,84962,84780
 6.8000e+000 85396 -1.4838e+001 -1.7563e+001 -5.7986e-001 53998 85197,85249,85223
 6.8000e+000 85373 -1.2337e+001 -1.9302e+001 -3.8106e-001 53998 85197,85275,85249
 6.8000e+000 85350 -1.5599e+001 -2.3027e+001 -1.7651e+000 53998 85171,85275,85197
 6.8000e+000 85327 -7.2776e+000 -2.0642e+001 -2.3986e+000 53998 85171,85301,85275
 6.8000e+000 85749 -3.5037e+000 -5.9640e+000 -5.2450e-001 53636 85524,85628,85550
 6.8000e+000 85726 -6.5493e+000 -1.0871e+001  1.0100e+000 53636 85524,85654,85628
 6.8000e+000 85703 -2.5071e+000 -7.7673e+000 -1.0732e+000 53636 85550,85602,85576
 6.8000e+000 85680 -2.4107e+000 -5.3685e+000 -1.0698e+000 53636 85550,85628,85602
 6.8000e+000 86127 -1.2556e+000 -1.4396e+001  3.9394e+000 52982 86150,85957,85879
 6.8000e+000 86104 -6.6297e+000 -1.8155e+001  2.2998e+000 52982 86150,85879,85853
 6.8000e+000 86081 -1.6442e+000 -2.7108e+001  5.0826e+000 52982 85957,86009,85983
 6.8000e+000 86058 -7.0283e+000 -1.4582e+001  2.2661e+000 52982 85879,85957,85931
 6.8000e+000 86035 -5.2798e+000 -1.4701e+001 -4.8127e-002 52982 85879,85931,85905
 6.8000e+000 86176  2.1960e+000 -1.8586e+001  3.2093e+000 52982 86009,85957,86150
 6.8000e+000 86199 -1.0164e+000 -2.1072e+001  2.0733e+000 52982 86009,86150,85853
 6.8000e+000 86398 -8.7220e+000 -2.0100e+001  1.7547e+000 52542 86421,86248,86222
 6.8000e+000 86375 -1.2793e+001 -2.0479e+001 -1.5529e-001 52542 86421,86222,86300
 6.8000e+000 86352 -1.3062e+001 -2.1705e+001 -3.8551e-001 52542 86222,86326,86300
 6.8000e+000 86447 -4.5808e+000 -2.0172e+001  3.3936e+000 52542 86274,86248,86421
 6.8000e+000 86470 -8.4755e+000 -2.1198e+001  9.8143e-001 52542 86274,86421,86300
 6.8000e+000 86669 -1.0249e+001 -1.8253e+001 -6.4909e+000 52230 86692,86571,86545
 6.8000e+000 86646 -1.1210e+001 -1.9795e+001 -3.8408e+000 52230 86692,86545,86519
 6.8000e+000 86623 -1.3609e+001 -1.8674e+001 -1.2741e+000 52230 86493,86597,86519
 6.8000e+000 86718 -1.1992e+001 -1.8599e+001 -4.5970e+000 52230 86597,86571,86692
 6.8000e+000 86741 -1.4760e+001 -2.0946e+001 -1.8946e+000 52230 86597,86692,86519
 6.8000e+000 87153 -9.5940e+000 -1.1264e+001  1.4335e+000 51640 86980,87058,87032
 6.8000e+000 87130 -7.8112e+000 -1.1732e+001  1.2853e+000 51640 86928,87058,86980
 6.8000e+000 87107 -9.3974e+000 -1.4321e+001  2.0144e+000 51640 86928,86980,86954
 6.8000e+000 87084 -3.3816e+000 -8.5963e+000  1.4976e+000 51640 86980,87032,87006
 6.8000e+000 87659 -5.8193e+000 -1.2260e+001  1.3024e+000 51029 87682,87440,87362
 6.8000e+000 87636 -5.7289e+000 -1.3441e+001 -8.1726e-001 51029 87682,87362,87336
 6.8000e+000 87613 -8.3031e+000 -2.1877e+001  4.6467e-001 51029 87440,87518,87466
 6.8000e+000 87590 -7.0699e+000 -1.2612e+001  1.5059e+000 51029 87362,87440,87414
 6.8000e+000 87567 -6.2521e+000 -1.0002e+001  4.6508e+000 51029 87362,87414,87388
 6.8000e+000 87544 -1.0624e+001 -1.8500e+001  1.4624e+000 51029 87466,87518,87492
 6.8000e+000 87708 -5.5362e+000 -1.4343e+001  5.2093e-001 51029 87518,87440,87682
 6.8000e+000 87731 -5.6239e+000 -1.7137e+001 -8.1641e-001 51029 87518,87682,87336
 6.8000e+000 87881 -1.1948e+001 -2.5073e+001  4.0086e-001 50739 87780,87832,87806
 6.8000e+000 87858 -1.2972e+001 -2.4188e+001 -1.1066e+000 50739 87754,87832,87780
 6.8000e+000 88468 -1.3101e+001 -1.5253e+001  1.5336e+000 50235 88171,88327,88197
 6.8000e+000 88445 -2.4993e+001 -1.6312e+001 -3.0159e+000 50235 88145,88327,88171
 6.8000e+000 88422 -6.1115e-001 -3.7704e+000 -5.3645e-001 50235 88275,88327,88301
 6.8000e+000 88399 -7.9414e+000 -6.9051e+000 -6.5181e-001 50235 88197,88327,88275
 6.8000e+000 88376 -2.2363e+000 -1.3840e+001 -2.8905e-001 50235 88197,88275,88223
 6.8000e+000 88353 -3.2990e+000 -1.7604e+001 -6.0866e-001 50235 88223,88275,88249
 6.8000e+000 88895 -1.1826e+001 -2.4577e+001  1.0923e+000 49873 88918,88728,88676
 6.8000e+000 88872 -1.0116e+001 -2.2920e+001 -1.3350e-001 49873 88918,88676,88624
 6.8000e+000 88849 -7.9162e+000 -2.1240e+001 -5.1681e-001 49873 88598,88754,88624
 6.8000e+000 88826 -6.7244e+000 -2.1669e+001 -1.3649e-001 49873 88624,88676,88650
 6.8000e+000 88803 -8.1408e+000 -3.0142e+001  2.0520e+000 49873 88676,88728,88702
 6.8000e+000 88780 -9.3856e+000 -2.0715e+001 -6.3265e-002 49873 88572,88754,88598
 6.8000e+000 88944 -9.7464e+000 -2.4276e+001  4.5907e-002 49873 88754,88728,88918
 6.8000e+000 88967 -9.1099e+000 -2.3767e+001 -1.0134e+000 49873 88754,88918,88624
 6.8000e+000 89473 -2.3436e+001 -2.3637e+001 -4.9819e+000 49583 89176,89306,89202
 6.8000e+000 89450 -1.6031e+001 -2.1806e+001 -2.0966e+000 49583 89176,89332,89306
 6.8000e+000 89427 -7.0233e+000 -2.1177e+001  2.8590e+000 49583 89496,89228,89202
 6.8000e+000 89404 -8.4280e+000 -2.1450e+001  3.0140e+000 49583 89496,89202,89280
 6.8000e+000 89381 -2.2328e+001 -3.0684e+001 -6.5798e+000 49583 89202,89306,89280
 6.8000e+000 89358 -1.1473e+001 -2.3001e+001 -3.4994e+000 49583 89150,89332,89176
 6.8000e+000 89522 -8.1544e+000 -1.8617e+001  1.3869e+000 49583 89254,89228,89496
 6.8000e+000 89545 -1.0425e+001 -2.0328e+001  2.8571e+000 49583 89254,89496,89280
 6.8000e+000 89825  2.3749e-001 -2.4206e+001 -5.9068e-001 49179 89701,89753,89727
 6.8000e+000 89802 -3.1638e+000 -1.9346e+001 -1.1073e+000 49179 89675,89753,89701
 6.8000e+000 89779 -2.6069e+000 -1.9240e+001  7.9551e-001 49179 89848,89753,89675
 6.8000e+000 89874 -2.1335e+001 -2.5396e+001 -4.3569e+000 49179 89649,89753,89848
 6.8000e+000 90223 -4.9980e+000 -1.3561e+001 -3.2205e+000 48739 90024,90102,90076
 6.8000e+000 90200 -2.5615e+000 -1.1052e+001 -1.0876e+000 48739 90024,90128,90102
 6.8000e+000 90177  5.6765e+000 -1.2916e+001 -3.3184e+000 48739 90024,90076,90050
 6.8000e+000 90154 -3.1193e-001 -9.2048e+000  1.3486e-002 48739 89998,90128,90024
 6.8000e+000 90603 -2.8856e+000 -8.6259e+000  3.4402e+000 48335 90381,90485,90459
 6.8000e+000 90580 -5.1659e+000 -1.1694e+001  2.3232e+000 48335 90355,90485,90381
 6.8000e+000 90557 -1.0512e+000 -2.6722e+000  6.1065e-001 48335 90381,90433,90407
 6.8000e+000 90534 -5.2164e+000 -1.0330e+001  2.4220e+000 48335 90381,90459,90433
 6.8000e+000 90511  7.9019e+000 -6.1159e+000  3.4630e+000 48335 90329,90485,90355
 6.8000e+000 90753  1.2635e-001 -7.0034e+000  4.9166e+000 47824 90776,90652,90704
 6.8000e+000 90730 -4.1720e+000 -1.4429e+001  2.7689e+000 47824 90626,90704,90652
 6.8000e+000 90802 -1.6542e+000 -7.3844e+000  4.6494e+000 47824 90678,90652,90776
 6.8000e+000 91131 -1.2462e+001 -2.9861e+001  1.5909e+000 47427 91154,90958,90906
 6.8000e+000 91108 -1.8870e+001 -3.2639e+001  1.9971e+000 47427 91154,90906,91036
 6.8000e+000 91085 -1.5651e+001 -2.4440e+001 -1.6438e+000 47427 90958,91010,90984
 6.8000e+000 91062 -1.3609e+001 -2.3858e+001  2.9688e+000 47427 90906,90958,90932
 6.8000e+000 91180 -1.5891e+001 -2.8359e+001 -2.7612e+000 47427 91010,90958,91154
 6.8000e+000 91203 -2.1917e+001 -3.0937e+001 -2.4472e+000 47427 91010,91154,91036
 6.8000e+000 91583 -7.1262e+000 -1.4941e+001 -1.7339e+000 46873 91309,91439,91335
 6.8000e+000 91560 -7.9032e+000 -1.2296e+001 -1.7135e+000 46873 91309,91465,91439
 6.8000e+000 91537 -1.1939e+001 -1.4483e+001 -7.6161e+000 46873 91361,91439,91413
 6.8000e+000 91514 -9.2750e+000 -1.6364e+001 -4.9392e+000 46873 91335,91439,91361
 6.8000e+000 91491 -2.4819e+000 -1.1393e+001 -7.1725e+000 46873 91361,91413,91387
 6.8000e+000 91880 -1.0745e+001 -2.7083e+001 -1.7546e+000 46526 91606,91710,91658
 6.8000e+000 91857 -1.1200e+001 -2.9664e+001 -3.3351e-002 46526 91606,91762,91710
 6.8000e+000 91834 -8.4131e+000 -2.6239e+001 -3.4499e+000 46526 91606,91658,91632
 6.8000e+000 91811 -1.3507e+001 -2.4295e+001 -5.1569e-002 46526 91658,91710,91684
 6.8000e+000 91788 -8.3734e+000 -2.1793e+001  2.6774e-001 46526 91710,91762,91736
 6.8000e+000 92211 -1.3113e+000 -3.3598e+000 -8.4713e-001 45700 91986,92064,92038
 6.8000e+000 92188 -2.0719e+000 -9.4908e+000 -7.7560e-002 45700 91986,92116,92064
 6.8000e+000 92165 -7.5862e-001 -2.4096e+000 -1.3471e+000 45700 91986,92038,92012
 6.8000e+000 92142 -9.2936e-001 -8.5376e+000  6.3779e-001 45700 92064,92116,92090
 6.8000e+000 92766 -7.2900e+000 -1.5859e+001  3.6019e+000 45452 92446,92602,92576
 6.8000e+000 92743 -1.6319e+001 -1.7662e+001 -1.5591e+000 45452 92420,92602,92446
 6.8000e+000 92720 -1.7550e+001 -2.4580e+001  4.2213e+000 45452 92789,92524,92498
 6.8000e+000 92697 -1.7315e+001 -2.1782e+001  4.5234e+000 45452 92789,92498,92446
 6.8000e+000 92674 -1.9156e+001 -2.2953e+001 -2.4904e+000 45452 92524,92576,92550
 6.8000e+000 92651 -2.3365e+001 -2.5632e+001  1.3462e+001 45452 92446,92498,92472
 6.8000e+000 92628 -4.4233e+000 -1.4796e+001 -1.2426e+000 45452 92394,92602,92420
 6.8000e+000 92815 -1.7476e+001 -2.2014e+001  4.1014e+000 45452 92576,92524,92789
 6.8000e+000 92838 -1.7954e+001 -2.0155e+001  4.1832e+000 45452 92576,92789,92446
 6.8000e+000 92939 -1.2902e+001 -3.0222e+001 -5.0629e+000 44998 92861,92913,92887
 6.8000e+000 93319 -4.5476e+000 -3.2054e+001  4.7602e+000 44601 93123,93201,93149
 6.8000e+000 93296 -1.0282e+001 -3.0537e+001 -3.6042e+000 44601 93045,93201,93123
 6.8000e+000 93273 -6.1826e+000 -1.4055e+001 -5.7761e+000 44601 93045,93123,93071
 6.8000e+000 93250 -4.0686e+000 -1.1595e+001 -3.3754e+000 44601 93071,93123,93097
 6.8000e+000 93227 -2.7507e+000 -1.7464e+001  5.0987e+000 44601 93149,93201,93175
 6.8000e+000 93697 -8.4321e+000 -3.7281e+001  2.4255e+000 44026 93720,93553,93527
 6.8000e+000 93674 -1.3225e+001 -3.0822e+001  3.5179e+000 44026 93720,93527,93449
 6.8000e+000 93651 -1.4033e+001 -3.0484e+001  1.2199e-001 44026 93449,93527,93501
 6.8000e+000 93628 -1.0059e+001 -2.3158e+001 -2.7492e+000 44026 93423,93579,93449
 6.8000e+000 93605 -3.4623e+000 -2.5101e+001  2.3035e+000 44026 93449,93501,93475
 6.8000e+000 93746 -5.7493e+000 -3.1959e+001  9.2982e-001 44026 93579,93553,93720
 6.8000e+000 93769 -1.0602e+001 -2.5368e+001  2.2066e+000 44026 93579,93720,93449
 6.8000e+000 94066 -6.5495e+000 -2.6290e+001 -4.3784e+000 43579 94089,93818,93792
 6.8000e+000 94043 -1.2567e+001 -3.0926e+001 -2.3609e+000 43579 94161,94089,93792
 6.8000e+000 94020 -1.2766e+001 -3.1307e+001 -8.1423e-001 43579 94161,93792,93948
 6.8000e+000 93997 -1.3057e+001 -2.2297e+001 -1.8897e+000 43579 94233,93870,93818
 6.8000e+000 93974 -8.1218e+000 -2.3556e+001  3.5903e-001 43579 93818,93870,93844
 6.8000e+000 94115 -1.2928e+001 -2.2485e+001 -3.0962e+000 43579 94233,93818,94089
 6.8000e+000 94138 -1.6657e+001 -2.5936e+001 -2.3575e+000 43579 93896,94089,93922
 6.8000e+000 94187 -1.1664e+001 -2.8159e+001 -3.4088e+000 43579 93922,94089,94161
 6.8000e+000 94210 -1.2494e+001 -2.8635e+001 -1.6864e+000 43579 93922,94161,93948
 6.8000e+000 94259 -1.4064e+001 -2.4600e+001 -1.6613e+000 43579 93896,93870,94233
 6.8000e+000 94282 -1.3748e+001 -2.4394e+001 -3.0596e+000 43579 93896,94233,94089
 6.8000e+000 94481 -1.2170e+001 -2.8377e+001 -3.9499e-001 43239 94305,94383,94357
 6.8000e+000 94458 -1.0262e+001 -2.5944e+001  2.6084e+000 43239 94305,94409,94383
 6.8000e+000 94435 -1.0530e+001 -2.7230e+001 -1.0310e+000 43239 94305,94357,94331
 6.8000e+000 94633 -1.2607e+000 -1.1565e+001  3.3740e+000 42827 94656,94532,94506
 6.8000e+000 94610 -7.0329e+000 -1.4271e+001  4.1335e+000 42827 94728,94656,94506
 6.8000e+000 94682 -2.9808e+000 -1.5504e+001  2.3450e+000 42827 94558,94532,94656
 6.8000e+000 94705 -7.4798e-001 -1.3806e+001  9.1282e-001 42827 94988,94860,94656
 6.8000e+000 94754 -2.5991e+000 -9.8329e+000  6.6381e-001 42827 94988,94656,94728
 6.8000e+000 94886  2.1322e+000 -1.2692e+001  8.8764e-001 42827 94558,94656,94860
 6.8000e+000 95014  8.5243e-001 -1.0344e+001 -6.2736e-001 42827 94584,94860,94988
 6.8000e+000 95037 -1.4536e+000 -7.7329e+000 -1.2345e+000 42827 94584,94988,94728
 6.8000e+000 95236  4.2678e+000 -5.5191e+000  3.4563e+000 42537 95259,95112,95060
 6.8000e+000 95213  1.2138e+000  1.0869e+000  6.5191e-001 42537 95259,95060,95164
 6.8000e+000 95190  5.2109e+000 -6.9879e+000  1.0464e+000 42537 95060,95112,95086
 6.8000e+000 95285  2.2603e+000 -9.1873e+000  2.6791e+000 42537 95138,95112,95259
 6.8000e+000 95308 -2.2920e+000 -5.5930e+000 -6.2651e-001 42537 95138,95259,95164
 6.8000e+000 95816 -6.3182e+000 -1.9793e+001 -1.3464e+000 41969 95493,95597,95519
 6.8000e+000 95793 -9.8005e+000 -1.6488e+001  2.3574e+000 41969 95493,95649,95597
 6.8000e+000 95770 -7.5458e+000 -1.7862e+001  4.7391e+000 41969 95493,95675,95649
 6.8000e+000 95747 -6.1387e+000 -2.4897e+001  2.1277e+000 41969 95597,95649,95623
 6.8000e+000 95724 -1.3170e+001 -1.7062e+001 -2.8487e+000 41969 95519,95597,95571
 6.8000e+000 95701 -1.1862e+001 -1.3791e+001 -2.2665e+000 41969 95519,95571,95545
 6.8000e+000 96371 -1.3226e+001 -2.8896e+001  4.2799e+000 41579 96025,96207,96181
 6.8000e+000 96348  1.8524e+000 -2.1579e+001 -2.7672e+000 41579 95999,96207,96025
 6.8000e+000 96325 -1.0551e+001 -1.9414e+001 -2.9633e+000 41579 96129,96181,96155
 6.8000e+000 96302 -3.6814e+000 -1.5722e+001 -7.0369e-001 41579 96025,96181,96129
 6.8000e+000 96279 -1.1214e+001 -2.7630e+001  4.4216e+000 41579 96025,96129,96051
 6.8000e+000 96256 -7.3301e+000 -1.9692e+001  1.3420e+000 41579 96051,96103,96077
 6.8000e+000 96233 -2.9692e+000 -1.5816e+001 -6.0131e-001 41579 96051,96129,96103
 6.8000e+000 96877 -4.4410e+000 -1.5605e+001 -2.4634e+000 41182 96972,96900,96632
 6.8000e+000 96854 -5.0740e+000 -8.8962e+000 -2.7515e+000 41182 96900,96554,96736
 6.8000e+000 96831 -4.0668e+000 -1.5691e+001 -1.5605e+000 41182 96972,96632,96580
 6.8000e+000 96808 -4.7070e+000 -1.5991e+001  2.5122e+000 41182 96632,96684,96658
 6.8000e+000 96785 -7.5256e+000 -1.8247e+001  2.9740e+000 41182 96684,96736,96710
 6.8000e+000 96762 -1.4138e+001 -2.1626e+001  6.4242e+000 41182 96580,96632,96606
 6.8000e+000 96926 -3.4162e+000 -1.9583e+001 -2.2847e+000 41182 96684,96632,96900
 6.8000e+000 96949 -5.2500e+000 -1.5547e+001 -4.6390e+000 41182 96684,96900,96736
 6.8000e+000 96998 -5.9892e+000 -1.6255e+001 -2.4235e+000 41182 96554,96900,96972
 6.8000e+000 97021 -5.8818e+000 -1.6499e+001 -1.4160e+000 41182 96554,96972,96580
 6.8000e+000 97576 -1.0570e+001 -2.9930e+001 -4.7440e+000 40678 97230,97412,97282
 6.8000e+000 97553  6.6283e-001 -2.5671e+001  3.0205e-001 40678 97204,97412,97230
 6.8000e+000 97530  1.2205e+000 -2.0112e+001 -5.7304e+000 40678 97282,97360,97308
 6.8000e+000 97507 -3.0804e+000 -2.1175e+001 -1.3851e+000 40678 97282,97412,97360
 6.8000e+000 97484  4.5603e+000 -8.8535e+000 -4.6267e+000 40678 97308,97360,97334
 6.8000e+000 97461 -4.9703e+000 -2.8207e+001 -5.8634e-001 40678 97360,97412,97386
 6.8000e+000 97438 -3.8883e+000 -1.3134e+001 -4.8483e+000 40678 97230,97282,97256
 6.8000e+000 97976 -1.6556e+001 -2.0625e+001 -4.1173e-001 40244 97702,97832,97754
 6.8000e+000 97953 -1.2953e+001 -2.2652e+001 -7.0973e-001 40244 97702,97858,97832
 6.8000e+000 97930 -1.8348e+001 -2.6608e+001 -6.2769e+000 40244 97702,97754,97728
 6.8000e+000 97907 -1.2179e+001 -2.0778e+001  2.8611e+000 40244 97780,97832,97806
 6.8000e+000 97884 -1.2079e+001 -1.7682e+001  1.3744e+000 40244 97754,97832,97780
 6.8000e+000 98482  4.0011e-002 -7.9549e+000  3.5758e+000 39690 98505,98185,98159
 6.8000e+000 98459 -8.1728e-001 -7.5802e+000  3.1506e+000 39690 98505,98159,98289
 6.8000e+000 98436 -6.0054e+000 -1.6419e+001  6.2106e+000 39690 98159,98315,98289
 6.8000e+000 98413  1.8919e+000 -6.9338e+000  2.8981e+000 39690 98211,98289,98263
 6.8000e+000 98390  4.0706e+000  3.0384e+000  1.6513e+000 39690 98211,98263,98237
 6.8000e+000 98367 -7.1296e-001 -3.2601e+000 -2.1804e-001 39690 98159,98341,98315
 6.8000e+000 98531  1.2971e+000 -7.6694e+000  3.7155e+000 39690 98211,98185,98505
 6.8000e+000 98554 -1.3062e-002 -7.7110e+000  3.1743e+000 39690 98211,98505,98289
 6.8000e+000 99109 -7.4574e+000 -1.4701e+001 -2.2859e+000 39072 99132,98867,98789
 6.8000e+000 99086 -1.0020e+001 -1.5898e+001 -2.6694e+000 39072 99132,98789,98763
 6.8000e+000 99063 -9.9752e+000 -2.7254e+001  9.9552e-001 39072 98867,98945,98919
 6.8000e+000 99040 -6.4468e+000 -1.7710e+001 -1.1001e-001 39072 98789,98867,98841
 6.8000e+000 99017 -1.3284e+001 -1.7266e+001 -1.4134e+000 39072 98867,98919,98893
 6.8000e+000 98994 -8.1788e+000 -1.3151e+001  3.0033e+000 39072 98789,98841,98815
 6.8000e+000 98971 -1.2565e+001 -1.8888e+001 -3.6104e+000 39072 98737,98945,98763
 6.8000e+000 99158 -6.2106e+000 -1.6234e+001 -2.9549e+000 39072 98945,98867,99132
 6.8000e+000 99181 -7.3695e+000 -1.6581e+001 -3.2491e+000 39072 98945,99132,98763
 6.8000e+000 99510 -7.7040e+000 -1.2081e+001  1.8838e+000 38668 99311,99389,99363
 6.8000e+000 99487 -5.5020e+000 -1.2978e+001 -7.4080e-001 38668 99285,99389,99311
 6.8000e+000 99464 -1.1661e+001 -1.9346e+001  1.8806e+000 38668 99285,99415,99389
 6.8000e+000 99441 -4.2004e+000 -1.2610e+001  2.3520e+000 38668 99311,99363,99337
 6.8000e+000 99758 -5.3901e+000 -2.1405e+001  5.3484e+000 38164 99781,99611,99585
 6.8000e+000 99735 -5.5559e-001 -2.2120e+001  5.9819e+000 38164 99781,99585,99533
 6.8000e+000 99712 -1.0101e+001 -2.0532e+001  3.6122e+000 38164 99611,99663,99637
 6.8000e+000 99689  3.3893e+000 -2.1810e+001 -8.0618e-001 38164 99533,99585,99559
 6.8000e+000 99807 -8.1621e+000 -2.1070e+001  6.6762e+000 38164 99663,99611,99781
 6.8000e+000 99830 -4.5670e+000 -2.2447e+001  6.5325e+000 38164 99663,99781,99533
 6.8000e+000 100232 -1.4540e+000 -9.4025e+000 -1.5443e-001 37702 99984,100114,100088
 6.8000e+000 100209 -8.4052e-001 -8.7352e+000  2.3093e-001 37702 99958,100114,99984
 6.8000e+000 100186 -4.6143e+000 -1.5427e+001 -1.8490e+000 37702 100010,100088,100036
 6.8000e+000 100163 -8.3676e-001 -9.1283e+000 -9.5273e-002 37702 99984,100088,100010
 6.8000e+000 100140  9.4362e-001 -5.5020e+000 -4.8383e+000 37702 100036,100088,100062
 6.8000e+000 100640 -1.0587e+001 -1.6966e+001  3.8119e+000 37262 100493,100545,100519
 6.8000e+000 100617 -1.0765e+001 -2.1135e+001  1.8431e+000 37262 100441,100545,100493
 6.8000e+000 100594 -1.2893e+000 -1.4564e+001 -2.6724e+000 37262 100415,100545,100441
 6.8000e+000 100571 -1.1726e+001 -2.1114e+001 -6.0546e-001 37262 100441,100493,100467
 6.8000e+000 101146 -1.1579e+001 -1.9328e+001 -7.7213e-001 36872 100823,100979,100849
 6.8000e+000 101123 -1.1071e+001 -1.7418e+001 -2.3817e+000 36872 100823,101005,100979
 6.8000e+000 101100 -9.9646e+000 -2.4211e+001  2.7761e+000 36872 101169,100901,100849
 6.8000e+000 101077 -8.3927e+000 -2.1195e+001  8.4211e-001 36872 101169,100849,100979
 6.8000e+000 101054 -6.9428e+000 -2.1526e+001 -1.6296e+000 36872 100927,100979,100953
 6.8000e+000 101031 -5.7558e+000 -2.4778e+001  4.1269e+000 36872 100849,100901,100875
 6.8000e+000 101195 -7.0225e+000 -2.4812e+001  7.7323e-001 36872 100927,100901,101169
 6.8000e+000 101218 -5.9303e+000 -2.3288e+001 -9.0613e-001 36872 100927,101169,100979
 6.8000e+000 101773 -8.5935e+000 -1.5070e+001  4.7932e+000 36418 101479,101609,101583
 6.8000e+000 101750 -9.9051e+000 -1.3691e+001  3.0478e+000 36418 101453,101609,101479
 6.8000e+000 101727 -5.7422e+000 -1.8630e+001  3.6077e-001 36418 101796,101531,101479
 6.8000e+000 101704 -9.4883e+000 -2.0816e+001  1.5692e+000 36418 101796,101479,101583
 6.8000e+000 101681 -4.6182e+000 -1.4314e+001  3.4833e-002 36418 101479,101531,101505
 6.8000e+000 101658  4.1586e-001 -1.1100e+001  1.4348e+000 36418 101401,101609,101453
 6.8000e+000 101635 -2.3082e+000 -2.9800e+000  4.0374e+000 36418 101401,101453,101427
 6.8000e+000 101822 -6.7785e+000 -1.7024e+001 -3.3217e+000 36418 101557,101531,101796
 6.8000e+000 101845 -1.1555e+001 -1.8505e+001 -2.3836e+000 36418 101557,101796,101583
 6.8000e+000 102174 -4.7287e-001  1.1421e+000 -9.0943e-001 35914 101949,102053,101975
 6.8000e+000 102151  2.3049e+000  2.7970e+000 -1.7744e+000 35914 101949,102079,102053
 6.8000e+000 102128 -1.4339e+000  8.5139e-001 -1.7244e+000 35914 101975,102053,102027
 6.8000e+000 102105  1.3088e+000  1.9665e+000 -3.3165e+000 35914 101975,102027,102001
 6.8000e+000 102631 -5.0429e+000 -2.2995e+001  3.7498e-001 35574 102383,102513,102487
 6.8000e+000 102608 -2.9830e+000 -2.5543e+001 -1.0313e-001 35574 102357,102513,102383
 6.8000e+000 102585 -8.0092e+000 -2.2588e+001  1.0202e+000 35574 102409,102487,102435
 6.8000e+000 102562 -7.1273e+000 -2.3811e+001  3.2175e-001 35574 102383,102487,102409
 6.8000e+000 102539 -9.2316e+000 -2.4149e+001  1.7618e-001 35574 102435,102487,102461
 6.8000e+000 103009 -1.4350e+001 -2.2647e+001 -2.0968e+000 35170 102761,102865,102787
 6.8000e+000 102986 -7.8723e+000 -1.9162e+001  2.3856e+000 35170 102761,102891,102865
 6.8000e+000 102963 -1.4524e+001 -2.4514e+001 -1.7895e+000 35170 102787,102865,102813
 6.8000e+000 102940 -6.0763e+000 -1.9030e+001  2.6079e+000 35170 102735,102891,102761
 6.8000e+000 102917 -1.5017e+001 -2.6452e+001 -4.1333e+000 35170 102813,102865,102839
 6.8000e+000 103257 -1.1824e+000 -1.1638e+001 -7.3566e-001 34659 103280,103058,103032
 6.8000e+000 103234 -1.8280e+000 -1.3527e+001 -8.5148e-001 34659 103280,103032,103162
 6.8000e+000 103211 -3.9854e+000 -1.1726e+001 -7.5050e-001 34659 103084,103162,103110
 6.8000e+000 103188 -5.7241e+000 -1.6159e+001 -7.9756e-001 34659 103110,103162,103136
 6.8000e+000 103306 -1.5674e+000 -9.3098e+000  1.8729e-001 34659 103084,103058,103280
 6.8000e+000 103329 -2.5427e+000 -1.1719e+001  1.0559e-002 34659 103084,103280,103162
 6.8000e+000 103837 -1.6176e+000 -2.5347e+001  6.9947e-001 34247 103860,103566,103540
 6.8000e+000 103814 -4.0008e+000 -2.5998e+001  7.5962e-002 34247 103932,103860,103540
 6.8000e+000 103791 -3.3602e+000 -2.9364e+001 -3.2242e+000 34247 103932,103540,103670
 6.8000e+000 103768 -2.9630e+000 -2.2630e+001  1.0261e+000 34247 103566,103618,103592
 6.8000e+000 103745 -1.0765e+001 -2.5976e+001 -4.1838e+000 34247 103540,103696,103670
 6.8000e+000 103722 -1.4479e+001 -2.8837e+001  4.2734e+000 34247 103514,103696,103540
 6.8000e+000 103886 -5.9615e+000 -2.5081e+001 -7.9570e-001 34247 103618,103566,103860
 6.8000e+000 103909 -6.1201e+000 -2.7343e+001  4.7907e-001 34247 103618,103860,103644
 6.8000e+000 103958 -6.7350e+000 -3.4078e+001 -1.1063e+000 34247 103644,103860,103932
 6.8000e+000 103981 -6.1790e+000 -3.7225e+001 -4.5677e+000 34247 103644,103932,103670
 6.8000e+000 104300 -1.6198e+001 -2.8633e+001 -2.1670e+000 33843 104052,104182,104156
 6.8000e+000 104277 -1.9398e+001 -2.7512e+001 -1.6924e+000 33843 104026,104182,104052
 6.8000e+000 104254 -1.5663e+001 -3.4605e+001  1.3112e+000 33843 104078,104156,104130
 6.8000e+000 104231 -2.1403e+001 -3.2922e+001 -2.6467e-001 33843 104052,104156,104078
 6.8000e+000 104208 -2.1682e+001 -3.6727e+001  1.8314e+000 33843 104078,104130,104104
 6.8000e+000 104499 -7.9168e+000 -2.7440e+001 -2.0752e+000 33282 104594,104522,104375
 6.8000e+000 104476 -6.8857e+000 -2.6988e+001  1.1612e-001 33282 104522,104323,104427
 6.8000e+000 104453 -4.9649e+000 -2.8758e+001 -2.0166e+000 33282 104594,104375,104349
 6.8000e+000 104548 -9.1483e+000 -2.5583e+001 -6.2079e-001 33282 104401,104375,104522
 6.8000e+000 104571 -6.0526e+000 -2.4679e+001  3.6092e-001 33282 104401,104522,104427
 6.8000e+000 104620 -4.1211e+000 -2.5080e+001 -7.9357e-001 33282 104323,104522,104594
 6.8000e+000 104643 -2.2068e+000 -2.7406e+001 -1.1380e+000 33282 104323,104594,104349
 6.8000e+000 104942 -9.8300e+000 -2.5007e+001  4.1575e+000 32728 104694,104772,104720
 6.8000e+000 104919 -9.0255e+000 -2.2985e+001  1.6167e+000 32728 104694,104824,104772
 6.8000e+000 104896 -1.4144e+001 -2.1331e+001  4.7195e+000 32728 104720,104772,104746
 6.8000e+000 104873 -7.4805e+000 -2.6681e+001  1.9452e+000 32728 104772,104824,104798
 6.8000e+000 104850 -7.0865e+000 -2.1703e+001  2.1865e+000 32728 104668,104824,104694
 6.8000e+000 105373 -2.9237e+000 -2.1150e+001 -7.4120e-001 32274 105396,105102,105076
 6.8000e+000 105350 -5.0793e+000 -2.3461e+001  1.6565e-001 32274 105396,105076,105206
 6.8000e+000 105327 -9.7323e+000 -2.6635e+001  2.5455e+000 32274 105154,105206,105180
 6.8000e+000 105304  3.1420e+000 -2.1374e+001 -2.5806e+000 32274 105076,105232,105206
 6.8000e+000 105281 -6.6066e+000 -1.8980e+001 -3.7832e+000 32274 105102,105154,105128
 6.8000e+000 105258 -7.5025e+000 -1.4570e+001 -4.4477e+000 32274 105050,105232,105076
 6.8000e+000 105422 -5.5432e+000 -1.8421e+001 -9.1737e-001 32274 105154,105102,105396
 6.8000e+000 105445 -7.3513e+000 -2.0557e+001 -1.3812e-001 32274 105154,105396,105206
 6.8000e+000 105644 -1.2047e+001 -3.1736e+001 -1.5585e-001 31620 105468,105546,105520
 6.8000e+000 105621 -9.2159e+000 -3.2001e+001 -1.5020e+000 31620 105468,105572,105546
 6.8000e+000 105598 -1.1465e+001 -3.1604e+001  9.5020e-001 31620 105468,105520,105494
 6.8000e+000 105794  6.0245e+000 -1.5547e+001 -8.3787e-001 31158 105889,105817,105693
 6.8000e+000 105771  3.5410e+000 -1.1840e+001 -1.7684e+000 31158 105817,105667,105745
 6.8000e+000 105843  4.6696e+000 -2.3072e+001 -3.4204e-001 31158 105719,105693,105817
 6.8000e+000 105866  6.2236e+000 -1.7283e+001 -1.6318e+000 31158 105719,105817,105745
 6.8000e+000 105915  8.2200e-001 -1.7776e+001 -8.9506e-001 31158 105667,105817,105889
 6.8000e+000 106270 -7.2329e+000 -1.9860e+001 -1.0409e+000 30818 106293,106071,106045
 6.8000e+000 106247 -9.9498e+000 -2.6105e+001 -2.1554e+000 30818 106293,106045,106175
 6.8000e+000 106224 -7.6785e+000 -1.8415e+001  1.1532e+000 30818 106123,106175,106149
 6.8000e+000 106201 -6.9981e+000 -2.0932e+001  3.8926e+000 30818 106071,106123,106097
 6.8000e+000 106319 -8.3338e+000 -1.7432e+001  1.4400e+000 30818 106123,106071,106293
 6.8000e+000 106342 -9.1965e+000 -2.0782e+001  4.9286e-001 30818 106123,106293,106175
 6.8000e+000 106492 -8.2144e+000 -1.5716e+001  5.0282e+000 30414 106645,106391,106365
 6.8000e+000 106469  2.8963e+000 -1.5098e+001  7.3471e+000 30414 106515,106365,106443
 6.8000e+000 106541 -2.1537e+000 -1.7218e+001  6.0230e+000 30414 106645,106365,106515
 6.8000e+000 106671  2.5156e-001 -2.2719e+001  1.1843e+001 30414 106417,106391,106645
 6.8000e+000 106694  1.4360e+001 -1.9273e+001  9.9696e+000 30414 106417,106645,106515
 6.8000e+000 106942 -6.1981e+000 -3.2223e+001  1.7482e-001 29910 106965,106795,106769
 6.8000e+000 106919 -4.6938e+000 -3.0493e+001  8.4332e-001 29910 106965,106769,106717
 6.8000e+000 106896 -7.0874e+000 -2.8019e+001 -9.3729e-001 29910 106795,106847,106821
 6.8000e+000 106873 -3.0545e+000 -2.7164e+001  1.5943e+000 29910 106717,106769,106743
 6.8000e+000 106991 -8.0780e+000 -2.9923e+001  7.2104e-001 29910 106847,106795,106965
 6.8000e+000 107014 -6.2904e+000 -2.7706e+001  1.4982e+000 29910 106847,106965,106717
 6.8000e+000 107213 -3.7808e+000 -2.2885e+001  2.7638e+000 29413 107236,107063,107037
 6.8000e+000 107190 -5.0845e+000 -2.7883e+001  4.6947e+000 29413 107236,107037,107141
 6.8000e+000 107167 -5.8744e+000 -1.4268e+001  4.4727e+000 29413 107063,107115,107089
 6.8000e+000 107262 -4.3963e+000 -1.9073e+001  1.1196e+000 29413 107115,107063,107236
 6.8000e+000 107285 -5.0205e+000 -2.2959e+001  3.1023e+000 29413 107115,107236,107141
 6.8000e+000 107486 -1.9786e+000 -2.1992e+001  4.2210e+000 29009 107336,107388,107362
 6.8000e+000 107463 -1.1165e+000 -2.1330e+001  9.0570e-001 29009 107310,107388,107336
 6.8000e+000 107440 -2.2117e+000 -2.1506e+001  1.2623e+000 29009 107310,107414,107388
 6.8000e+000 107736 -9.4696e+000 -2.6223e+001 -2.0084e-001 28491 107537,107615,107563
 6.8000e+000 107713 -9.0331e+000 -2.6176e+001 -8.3645e-001 28491 107537,107641,107615
 6.8000e+000 107690 -6.0111e+000 -2.3962e+001  1.0876e+000 28491 107563,107615,107589
 6.8000e+000 107667 -7.1773e+000 -2.4674e+001 -1.4406e-001 28491 107511,107641,107537
 6.8000e+000 108118 -6.5884e+000 -2.5077e+001  6.5898e-001 27980 108141,107922,107844
 6.8000e+000 108095 -5.0695e+000 -2.7777e+001  5.7983e-001 27980 108141,107844,108000
 6.8000e+000 108072 -6.7856e+000 -2.5884e+001 -1.3992e+000 27980 107844,107922,107870
 6.8000e+000 108049 -6.6827e+000 -2.1981e+001 -1.0259e+000 27980 107870,107922,107896
 6.8000e+000 108026 -9.5042e+000 -2.3345e+001  2.8039e+000 27980 107922,107974,107948
 6.8000e+000 108167 -5.5460e+000 -2.4965e+001  1.1465e+000 27980 107974,107922,108141
 6.8000e+000 108190 -1.3590e+000 -2.5129e+001  1.8769e+000 27980 107974,108141,108000
 6.8000e+000 108745  2.1794e+000 -8.6417e+000 -1.4667e+000 27376 108840,108768,108477
 6.8000e+000 108722 -4.5095e-001 -1.4947e+001 -5.5034e+000 27376 108768,108373,108581
 6.8000e+000 108699 -4.5168e-001 -6.9556e+000  2.7567e+000 27376 108840,108477,108451
 6.8000e+000 108676 -9.5353e+000 -1.1188e+001 -1.0706e+000 27376 108373,108451,108399
 6.8000e+000 108653 -7.2671e-001 -1.4767e+001  3.9932e+000 27376 108503,108581,108529
 6.8000e+000 108630 -6.9779e-001 -9.7713e+000  3.3639e+000 27376 108529,108581,108555
 6.8000e+000 108607 -1.1943e+001 -1.5021e+001  7.4500e-001 27376 108399,108451,108425
 6.8000e+000 108794  5.3350e-001 -1.3119e+001 -1.3985e+000 27376 108503,108477,108768
 6.8000e+000 108817  5.4599e+000 -1.2929e+001 -1.3513e+000 27376 108503,108768,108581
 6.8000e+000 108866 -6.6437e+000 -1.2741e+001 -2.7779e+000 27376 108373,108768,108840
 6.8000e+000 108889 -6.3552e+000 -9.6611e+000  1.4872e+000 27376 108373,108840,108451
 6.8000e+000 109186 -9.0960e+000 -2.5802e+001  3.7488e+000 26722 109209,108938,108912
 6.8000e+000 109163 -8.2414e+000 -2.3566e+001  2.9781e+000 26722 109281,109209,108912
 6.8000e+000 109140 -8.3581e+000 -2.2732e+001  3.0746e+000 26722 109281,108912,109042
 6.8000e+000 109117 -5.3149e+000 -2.6279e+001  1.6050e+000 26722 108938,108990,108964
 6.8000e+000 109094 -1.2471e+001 -2.1581e+001  2.6673e+000 26722 108912,109068,109042
 6.8000e+000 109235 -6.2944e+000 -2.4400e+001  3.2840e+000 26722 108990,108938,109209
 6.8000e+000 109258 -8.0031e+000 -2.5937e+001  2.5252e+000 26722 108990,109209,109016
 6.8000e+000 109307 -8.0412e+000 -2.4732e+001  1.8581e+000 26722 109016,109209,109281
 6.8000e+000 109330 -8.0134e+000 -2.3547e+001  1.8407e+000 26722 109016,109281,109042
 6.8000e+000 109732 -6.1345e+000 -1.5322e+001 -2.9896e+000 26310 109458,109588,109484
 6.8000e+000 109709 -8.0767e+000 -1.8953e+001 -2.2308e+000 26310 109458,109614,109588
 6.8000e+000 109686 -1.9378e+001 -2.7973e+001  3.7543e+000 26310 109510,109562,109536
 6.8000e+000 109663 -2.5914e+001 -3.0067e+001  3.0308e+000 26310 109484,109562,109510
 6.8000e+000 109640 -1.2882e+001 -1.8360e+001 -2.3566e+000 26310 109484,109588,109562
 6.8000e+000 110159 -3.2093e+000 -1.9913e+001 -2.2813e-001 25642 110182,109940,109914
 6.8000e+000 110136 -1.3766e+000 -2.2475e+001  5.4143e+000 25642 110182,109914,109888
 6.8000e+000 110113 -6.9760e+000 -2.4696e+001 -3.7855e+000 25642 109966,110018,109992
 6.8000e+000 110090 -7.8019e+000 -2.4045e+001  2.5289e+000 25642 110254,109966,109940
 6.8000e+000 110067 -8.6390e+000 -1.9577e+001  3.4069e+000 25642 109862,110018,109888
 6.8000e+000 110044 -7.8107e+000 -1.5523e+001  5.4022e+000 25642 109836,110018,109862
 6.8000e+000 110208 -6.7089e+000 -2.2478e+001  1.9870e+000 25642 110254,109940,110182
 6.8000e+000 110231 -7.4388e+000 -2.3820e+001  5.3176e+000 25642 110018,110182,109888
 6.8000e+000 110280 -5.5176e+000 -2.6339e+001  2.4430e+000 25642 110018,109966,110254
 6.8000e+000 110303 -4.8636e+000 -2.5260e+001  2.0566e+000 25642 110018,110254,110182
 6.8000e+000 110632 -1.0997e+001 -1.8427e+001 -2.5816e+000 25188 110407,110485,110433
 6.8000e+000 110609 -2.1164e+001 -2.4560e+001  9.5435e-001 25188 110407,110537,110485
 6.8000e+000 110586 -9.4742e+000 -1.8254e+001 -9.1096e+000 25188 110433,110485,110459
 6.8000e+000 110563 -1.8958e+001 -2.8819e+001  9.8133e+000 25188 110485,110537,110511
 6.8000e+000 110831 -1.2223e+000 -2.1027e+001  1.4032e+000 24726 110854,110707,110655
 6.8000e+000 110808 -6.9609e-001 -2.2764e+001  3.0034e+000 24726 110854,110655,110759
 6.8000e+000 110785 -1.5738e+000 -2.1134e+001  1.6526e+000 24726 110655,110707,110681
 6.8000e+000 110880 -7.3173e-001 -1.9381e+001  1.3495e+000 24726 110733,110707,110854
 6.8000e+000 110903  1.8906e-001 -2.0355e+001  3.0402e+000 24726 110733,110854,110759
 6.8000e+000 111234 -2.9407e-001 -1.3205e+001 -1.2441e+000 24222 111257,111087,111035
 6.8000e+000 111211  6.1280e-001 -1.2755e+001  1.7740e+000 24222 111257,111035,111009
 6.8000e+000 111188 -3.0914e+000 -1.7951e+000 -6.0238e+000 24222 111035,111087,111061
 6.8000e+000 111165 -1.8193e+000 -9.5844e+000 -1.1488e+000 24222 111087,111139,111113
 6.8000e+000 111283 -1.3258e+000 -1.0319e+001 -3.7587e-001 24222 111139,111087,111257
 6.8000e+000 111306 -8.3341e-001 -7.9880e+000  1.5756e+000 24222 111139,111257,111009
 6.8000e+000 111625  1.5244e+000 -1.4326e+001 -3.0543e-001 23732 111648,111481,111455
 6.8000e+000 111602  3.1678e+000 -1.4079e+001 -1.2606e+000 23732 111648,111455,111377
 6.8000e+000 111579  1.2305e+001  6.7664e-001  3.0166e+000 23732 111377,111429,111403
 6.8000e+000 111556  7.2889e+000 -1.2652e+001 -1.3884e+000 23732 111377,111455,111429
 6.8000e+000 111533  6.6005e+000 -1.0831e+001 -6.5625e-001 23732 111351,111507,111377
 6.8000e+000 111674  4.0869e+000 -1.3927e+001 -4.1187e-001 23732 111507,111481,111648
 6.8000e+000 111697  4.2457e+000 -1.4082e+001 -1.7379e+000 23732 111507,111648,111377
 6.8000e+000 112156 -5.5031e+000 -2.4624e+001  2.2933e+000 23278 112179,111908,111882
 6.8000e+000 112133 -5.1480e+000 -2.2544e+001  1.1806e+000 23278 112179,111882,112012
 6.8000e+000 112110 -6.9262e-001 -2.7333e+001  4.0111e-001 23278 111908,111960,111934
 6.8000e+000 112087 -1.6650e+000 -2.0339e+001 -1.7821e-001 23278 111882,112038,112012
 6.8000e+000 112064 -4.0055e+000 -2.0233e+001 -3.6799e-001 23278 111960,112012,111986
 6.8000e+000 112205 -5.0783e+000 -2.3600e+001  5.9230e-001 23278 111960,111908,112179
 6.8000e+000 112228 -4.0242e+000 -2.1205e+001 -6.6243e-001 23278 111960,112179,112012
 6.8000e+000 112685 -1.3817e+001 -3.4157e+001 -3.2664e+000 22938 112489,112567,112541
 6.8000e+000 112662 -9.9629e+000 -2.5291e+001 -2.7967e+000 22938 112437,112567,112489
 6.8000e+000 112639 -1.2285e+001 -2.8515e+001 -2.0055e+000 22938 112489,112541,112515
 6.8000e+000 112616 -1.0947e+001 -2.3168e+001 -2.1152e+000 22938 112411,112567,112437
 6.8000e+000 112593 -8.3478e+000 -3.4186e+001 -4.2312e-001 22938 112437,112489,112463
 6.8000e+000 113191  1.3498e+000 -2.6994e+001 -4.9640e+000 22534 113214,112998,112946
 6.8000e+000 113168 -4.0038e+000 -2.3219e+001 -2.6913e+000 22534 113286,113214,112946
 6.8000e+000 113145 -2.5276e+000 -2.3421e+001 -2.2431e+000 22534 113286,112946,112920
 6.8000e+000 113122 -1.1443e+001 -2.0070e+001 -6.7449e+000 22534 113358,113024,112998
 6.8000e+000 113099 -6.1954e+000 -2.1131e+001 -1.1580e+000 22534 112868,113050,112894
 6.8000e+000 113076 -5.3831e+000 -3.7488e+001 -8.0085e+000 22534 112946,112998,112972
 6.8000e+000 113240 -7.7559e+000 -2.8101e+001 -7.0541e+000 22534 113358,112998,113214
 6.8000e+000 113263 -6.4503e+000 -2.4363e+001 -1.6906e+000 22534 113050,113214,112894
 6.8000e+000 113312 -2.2473e+000 -2.2497e+001 -2.2009e+000 22534 112894,113214,113286
 6.8000e+000 113335 -8.4042e-001 -2.2947e+001 -1.9906e+000 22534 112894,113286,112920
 6.8000e+000 113384 -7.3984e+000 -1.2142e+001 -5.1616e+000 22534 113050,113024,113358
 6.8000e+000 113407 -2.2302e+000 -1.9029e+001 -4.5327e+000 22534 113050,113358,113214
 6.8000e+000 113785 -8.3079e+000 -3.0252e+001  1.6631e+000 21978 113808,113615,113511
 6.8000e+000 113762 -6.9080e+000 -3.2218e+001  4.5084e+000 21978 113808,113511,113667
 6.8000e+000 113739  5.9172e-001 -2.3442e+001 -1.8334e+000 21978 113511,113615,113537
 6.8000e+000 113716  7.8320e+000 -2.1423e+001 -2.7961e+000 21978 113537,113615,113589
 6.8000e+000 113693  8.8876e-001 -3.2625e+001  4.9954e-001 21978 113537,113589,113563
 6.8000e+000 113834 -7.7943e+000 -2.8602e+001  3.0191e+000 21978 113641,113615,113808
 6.8000e+000 113857 -3.7245e+000 -2.7349e+001  6.3585e+000 21978 113641,113808,113667
 6.8000e+000 114284 -5.8757e+000 -2.3382e+001  8.9301e-001 21517 114013,114117,114039
 6.8000e+000 114261 -7.0127e+000 -2.3258e+001  2.3438e+000 21517 113961,114117,114013
 6.8000e+000 114238 -6.0958e+000 -2.2352e+001  2.7138e+000 21517 113961,114013,113987
 6.8000e+000 114215 -1.1679e+001 -2.7077e+001 -1.9052e+000 21517 114039,114117,114091
 6.8000e+000 114192 -7.7043e+000 -1.8590e+001  3.0873e+000 21517 113961,114143,114117
 6.8000e+000 114169  5.4624e-002 -2.3304e+001 -2.4279e+000 21517 114039,114091,114065
 6.8000e+000 114581  3.6991e+000 -2.4644e+001  3.0870e-001 21027 114359,114463,114437
 6.8000e+000 114558  6.6717e+000 -2.1295e+001  4.0674e+000 21027 114333,114463,114359
 6.8000e+000 114535  6.9948e+000 -2.0565e+001 -1.1565e+000 21027 114359,114437,114385
 6.8000e+000 114512  3.8169e+000 -2.2817e+001  3.1602e+000 21027 114307,114463,114333
 6.8000e+000 114489  1.5645e+001 -1.9615e+001 -1.0108e+000 21027 114385,114437,114411
 6.8000e+000 114912 -8.2169e+000 -2.2594e+001  3.4479e-001 20623 114713,114791,114765
 6.8000e+000 114889 -6.4701e+000 -2.1897e+001 -1.9024e+000 20623 114687,114791,114713
 6.8000e+000 114866 -1.4713e+000 -2.3731e+001 -2.9205e+000 20623 114687,114817,114791
 6.8000e+000 114843 -1.5564e+001 -3.0512e+001  3.4921e+000 20623 114713,114765,114739
 6.8000e+000 115290 -2.3427e+000 -2.2252e+001  1.7677e+000 20375 115313,115146,115094
 6.8000e+000 115267 -4.2424e+000 -2.1008e+001  2.8063e+000 20375 115313,115094,115042
 6.8000e+000 115244 -5.5364e+000 -2.0052e+001  9.8742e-001 20375 115385,115016,115172
 6.8000e+000 115221 -1.7943e+000 -1.9668e+001  2.2733e+000 20375 115042,115094,115068
 6.8000e+000 115198 -4.1720e+000 -2.5972e+001  1.0661e+000 20375 115094,115146,115120
 6.8000e+000 115339 -6.5184e+000 -2.7082e+001 -7.1845e-001 20375 115172,115146,115313
 6.8000e+000 115362 -2.9008e+000 -2.0859e+001  1.0938e+000 20375 115385,115172,115313
 6.8000e+000 115411 -6.8915e+000 -2.0901e+001  1.3875e+000 20375 115042,115016,115385
 6.8000e+000 115434 -5.6734e+000 -2.2672e+001  1.9219e+000 20375 115042,115385,115313
 6.8000e+000 115891 -1.4922e+001 -2.9230e+001  5.3690e+000 19971 115617,115747,115643
 6.8000e+000 115868 -1.1973e+001 -2.2971e+001  6.4942e+000 19971 115617,115773,115747
 6.8000e+000 115845 -1.0666e+001 -4.5670e+001  1.2046e+000 19971 115643,115721,115695
 6.8000e+000 115822 -2.9482e-001 -1.9553e+001  8.6118e-001 19971 115643,115747,115721
 6.8000e+000 115799 -8.2157e+000 -5.7953e+001 -4.8054e+000 19971 115643,115695,115669
 6.8000e+000 115992 -1.8960e+001 -4.6042e+001 -8.7269e+000 19659 115914,115966,115940
 6.8000e+000 116142 -7.6409e+000 -1.3485e+001  7.8816e-001 18997 116041,116093,116067
 6.8000e+000 116119 -1.0649e+001 -2.0502e+001  5.7752e-001 18997 116015,116093,116041
 6.8000e+000 116343 -5.7653e+000 -2.9338e+001 -3.5558e-001 18707 116193,116245,116219
 6.8000e+000 116320 -1.3857e+001 -3.3098e+001 -1.3407e+000 18707 116193,116271,116245
 6.8000e+000 116297 -1.4209e+001 -3.1625e+001 -3.5755e+000 18707 116167,116271,116193
 6.8000e+000 116747 -3.3838e+000 -2.5435e+001 -6.7538e-001 18301 116525,116629,116551
 6.8000e+000 116724 -1.6992e+000 -2.1524e+001  3.5065e-001 18301 116473,116629,116525
 6.8000e+000 116701 -5.7655e-001 -2.0142e+001 -1.1862e+000 18301 116473,116525,116499
 6.8000e+000 116678 -2.3765e+000 -2.6798e+001 -3.8933e-001 18301 116551,116603,116577
 6.8000e+000 116655 -4.6423e+000 -2.8391e+001 -1.1003e+000 18301 116551,116629,116603
 6.8000e+000 117147 -8.3389e+000 -2.3519e+001  1.8728e+000 17747 116899,117029,116925
 6.8000e+000 117124 -5.4094e+000 -1.9415e+001  3.4424e+000 17747 116873,117029,116899
 6.8000e+000 117101 -8.3218e+000 -2.3907e+001  1.9139e+000 17747 116925,117029,116951
 6.8000e+000 117078 -3.2462e+000 -1.1020e+001  2.0846e+000 17747 116951,117029,117003
 6.8000e+000 117055 -1.3121e+001 -2.9115e+001 -2.9864e+000 17747 116951,117003,116977
 6.8000e+000 117368  5.9215e+000 -2.8483e+001  1.1512e+000 17293 117244,117296,117270
 6.8000e+000 117345  3.0834e-001 -3.0258e+001 -4.4327e-001 17293 117192,117296,117244
 6.8000e+000 117322 -4.1138e+000 -2.7690e+001 -3.1457e-001 17293 117192,117244,117218
 6.8000e+000 117699 -5.7010e+000 -2.4421e+001 -1.4435e+000 16896 117526,117604,117552
 6.8000e+000 117676 -1.6774e+001 -3.7193e+001  3.3943e+000 16896 117500,117604,117526
 6.8000e+000 117653 -1.5165e+001 -2.8382e+001 -1.9074e-001 16896 117552,117604,117578
 6.8000e+000 117630 -1.8275e+001 -5.1511e+001  3.7917e+000 16896 117474,117604,117500
 6.8000e+000 117849 -3.0010e+001 -5.9547e+001 -2.1419e+000 16534 117722,117774,117748
 6.8000e+000 117826 -2.3228e+001 -7.1174e+001 -9.7558e+000 16534 117722,117800,117774
 6.8000e+000 118070  1.7480e+000 -2.8168e+001  3.6563e+000 16194 117946,117998,117972
 6.8000e+000 118047 -3.0122e+000 -3.1590e+001  1.3841e+000 16194 117894,117998,117946
 6.8000e+000 118024 -1.5886e+001 -3.2483e+001 -1.7544e-001 16194 117894,117946,117920
 6.8000e+000 118173  6.5483e+000 -1.9210e+001  0.0000e+000 15968 118095,118147,118121
 6.8000e+000 118276 -4.2842e+000 -2.6768e+001  3.4733e-001 15433 118299,118198,118250
 6.8000e+000 118325 -4.1736e+000 -2.6510e+001  3.4491e-001 15433 118224,118198,118299
 6.8000e+000 118450 -1.4855e+001 -2.8975e+001  2.1198e+000 421 118372,118424,118398
 6.9000e+000 69891 -3.6352e+000 -6.6997e+000  1.8676e-001 68988 69447,69681,69629
 6.9000e+000 69868 -1.7374e+000 -7.0393e+000  8.7124e-001 68988 69421,69681,69447
 6.9000e+000 69845 -2.8573e+000 -3.6314e+000  1.8671e-001 68988 69447,69629,69577
 6.9000e+000 69822 -4.3647e+000 -5.4922e+000 -4.9630e-001 68988 69447,69577,69473
 6.9000e+000 69799 -1.5897e+000 -6.9265e+000  1.9992e+000 68988 69629,69681,69655
 6.9000e+000 69776 -4.3273e+000 -4.3331e+000  5.9136e-001 68988 69577,69629,69603
 6.9000e+000 69753 -4.4777e+000 -5.9909e+000 -6.0343e-001 68988 69473,69577,69551
 6.9000e+000 69730 -3.8130e+000 -5.4798e+000 -2.9166e-001 68988 69473,69551,69525
 6.9000e+000 69707 -4.1266e+000 -4.6785e+000 -5.6577e-002 68988 69473,69525,69499
 6.9000e+000 69992 -1.1290e+001 -1.2002e+001 -9.5408e-001 68676 69914,69966,69940
 6.9000e+000 70392 -2.2370e+001 -2.5316e+001  4.3612e+000 68478 70118,70248,70144
 6.9000e+000 70369 -1.6811e+001 -3.1405e+001  5.2764e+000 68478 70118,70274,70248
 6.9000e+000 70346 -1.0185e+001 -1.6420e+001  7.1493e-001 68478 70144,70222,70196
 6.9000e+000 70323 -8.0702e+000 -1.0545e+001 -1.5401e+000 68478 70144,70248,70222
 6.9000e+000 70300 -7.9861e+000 -1.6614e+001  1.5431e+000 68478 70144,70196,70170
 6.9000e+000 70841  2.9053e+000 -1.6148e+001 -4.8223e+000 68280 70570,70622,70596
 6.9000e+000 70818 -1.2544e+001 -1.9198e+001 -4.1813e-001 68280 70544,70622,70570
 6.9000e+000 70795 -1.1109e+001 -1.5066e+001 -6.7212e-001 68280 70544,70674,70622
 6.9000e+000 70772 -1.1509e+001 -1.3336e+001  5.0130e-001 68280 70622,70674,70648
 6.9000e+000 70749 -1.6235e+001 -2.3082e+001  2.1383e+000 68280 70518,70674,70544
 6.9000e+000 70726 -3.5165e+000 -2.6670e+001  5.6256e+000 68280 70518,70700,70674
 6.9000e+000 70991 -9.1780e-001 -9.2704e+001  3.2220e+000 67968 70864,70916,70890
 6.9000e+000 70968 -2.7233e+001 -9.1095e+001  1.3183e+001 67968 70864,70942,70916
 6.9000e+000 71141 -3.8504e+001 -7.4152e+001 -8.9354e-001 67770 71040,71092,71066
 6.9000e+000 71118 -3.6764e+001 -9.5547e+001  9.3027e+000 67770 71014,71092,71040
 6.9000e+000 71651 -1.0174e+001 -2.0847e+001 -1.4303e+000 67366 71746,71674,71458
 6.9000e+000 71628 -6.6859e+000 -9.5794e+000 -5.2569e+000 67366 71674,71354,71510
 6.9000e+000 71605 -1.2110e+001 -2.5742e+001 -1.4244e-001 67366 71746,71458,71432
 6.9000e+000 71582 -1.7684e+001 -2.2840e+001  2.3829e+000 67366 71354,71432,71380
 6.9000e+000 71559 -1.4700e+001 -1.6744e+001 -4.6262e-001 67366 71380,71432,71406
 6.9000e+000 71536 -1.2040e+001 -6.3630e+000 -4.4178e+000 67366 71328,71510,71354
 6.9000e+000 71700 -8.6969e+000 -1.6297e+001 -1.1795e+000 67366 71484,71458,71674
 6.9000e+000 71723 -1.0582e+001 -1.7235e+001 -1.6888e+000 67366 71484,71674,71510
 6.9000e+000 71772 -1.2687e+001 -1.5044e+001 -2.0637e+000 67366 71354,71674,71746
 6.9000e+000 71795 -1.2650e+001 -1.8063e+001 -1.7692e+000 67366 71354,71746,71432
 6.9000e+000 71896 -3.6379e+000 -4.4350e+000  0.0000e+000 67146 71818,71870,71844
 6.9000e+000 71997 -2.0198e+000 -5.0684e+000  1.2769e+000 66948 71919,71971,71945
 6.9000e+000 72149 -9.1184e+000 -1.2727e+001 -1.0500e+000 66700 72172,72074,72048
 6.9000e+000 72126 -1.2509e+001 -1.4027e+001 -2.7132e-001 66700 72172,72048,72022
 6.9000e+000 72198 -1.4674e+001 -1.5287e+001  1.0706e+000 66700 72244,72172,72100
 6.9000e+000 72221 -1.4797e+001 -1.4347e+001 -6.8506e-001 66700 72100,72172,72022
 6.9000e+000 72270 -1.1735e+001 -8.7361e+000 -5.2249e-001 66700 72074,72172,72244
 6.9000e+000 72623 -1.5147e+001 -1.5059e+001 -2.2258e-001 66502 72424,72502,72450
 6.9000e+000 72600 -1.4872e+001 -1.4678e+001 -5.8864e-003 66502 72398,72502,72424
 6.9000e+000 72577 -1.1225e+001 -1.4885e+001  1.7531e-001 66502 72398,72528,72502
 6.9000e+000 72554 -1.9197e+001 -1.4975e+001  2.0767e-001 66502 72450,72502,72476
 6.9000e+000 72920 -1.6867e+001 -2.8018e+001  8.1332e-001 65941 72672,72776,72750
 6.9000e+000 72897 -1.5294e+001 -2.4047e+001  2.7332e+000 65941 72646,72776,72672
 6.9000e+000 72874 -1.6096e+001 -2.8297e+001  1.6153e+000 65941 72672,72750,72724
 6.9000e+000 72851 -1.7140e+001 -2.5312e+001  2.8564e+000 65941 72672,72724,72698
 6.9000e+000 72828 -1.1127e+001 -2.4741e+001  2.7521e+000 65941 72646,72802,72776
 6.9000e+000 73241 -1.6885e+001 -1.7672e+001 -1.5611e+000 65743 73264,73071,73045
 6.9000e+000 73218 -1.4924e+001 -1.9227e+001  1.2649e+000 65743 73480,73264,73045
 6.9000e+000 73195 -1.1733e+001 -1.4541e+001  1.2696e-001 65743 73336,72967,73097
 6.9000e+000 73172 -1.1765e+001 -1.4806e+001  1.2720e+000 65743 73408,72993,72967
 6.9000e+000 73149 -1.1883e+001 -1.5783e+001 -4.1726e-001 65743 72967,73123,73097
 6.9000e+000 73290 -1.3876e+001 -1.6038e+001 -9.1909e-003 65743 73097,73071,73264
 6.9000e+000 73313 -1.2795e+001 -1.6256e+001 -5.6695e-001 65743 73336,73097,73264
 6.9000e+000 73362 -1.1264e+001 -1.5153e+001  1.3637e+000 65743 73408,72967,73336
 6.9000e+000 73385 -1.1929e+001 -1.5520e+001  1.3280e+000 65743 73019,73336,73264
 6.9000e+000 73434 -1.0744e+001 -1.2066e+001  8.7756e-001 65743 73019,72993,73408
 6.9000e+000 73457 -1.1387e+001 -1.3824e+001  1.3457e+000 65743 73019,73408,73336
 6.9000e+000 73506 -1.2523e+001 -1.3702e+001  5.7449e-001 65743 73019,73264,73480
 6.9000e+000 73989 -6.7936e+000 -1.7992e+001  1.3468e+000 65453 73793,73845,73819
 6.9000e+000 73966 -1.4160e+001 -1.9158e+001  2.3086e+000 65453 73741,73845,73793
 6.9000e+000 73943 -8.4023e+000 -1.5124e+001  3.8894e-001 65453 73715,73845,73741
 6.9000e+000 73920 -1.2792e+001 -2.1995e+001  3.7932e+000 65453 73741,73793,73767
 6.9000e+000 73897 -4.5247e+000 -9.1142e+000 -1.4773e+000 65453 73715,73871,73845
 6.9000e+000 74357 -6.4718e+000 -9.0096e+000 -1.7604e+000 65141 74380,74138,74086
 6.9000e+000 74334 -8.0514e+000 -1.0484e+001 -7.1299e-001 65141 74380,74086,74060
 6.9000e+000 74311 -9.8452e+000 -1.0882e+001 -2.0103e-001 65141 74138,74190,74164
 6.9000e+000 74288 -7.9771e+000 -1.0975e+001 -1.9463e-001 65141 74060,74216,74190
 6.9000e+000 74265 -8.1799e+000 -1.1609e+001  6.4685e-001 65141 74034,74216,74060
 6.9000e+000 74242 -5.4724e+000 -9.9882e+000 -1.6458e+000 65141 74086,74138,74112
 6.9000e+000 74406 -8.0339e+000 -1.0521e+001 -1.0243e+000 65141 74190,74138,74380
 6.9000e+000 74429 -8.3848e+000 -1.0920e+001 -2.2411e-001 65141 74190,74380,74060
 6.9000e+000 74937 -9.4276e+000 -1.3478e+001 -3.0493e+000 64737 74614,74666,74640
 6.9000e+000 74914 -1.2187e+001 -1.6481e+001 -1.8618e+000 64737 74614,74796,74666
 6.9000e+000 74891 -8.1937e+000 -7.5828e+000  3.7727e-001 64737 74960,74718,74666
 6.9000e+000 74868 -9.0241e+000 -9.5552e+000 -1.0383e+000 64737 74960,74666,74770
 6.9000e+000 74845 -9.8580e+000 -1.1204e+001 -1.3937e+000 64737 74666,74796,74770
 6.9000e+000 74822 -7.2392e+000 -9.6248e+000  1.6895e+000 64737 74666,74718,74692
 6.9000e+000 74986 -7.6526e+000 -9.5515e+000 -1.2554e+000 64737 74744,74718,74960
 6.9000e+000 75009 -1.0072e+001 -1.2815e+001 -2.9950e+000 64737 74744,74960,74770
 6.9000e+000 75306 -8.7088e+000 -1.3548e+001  5.3059e+000 64133 75329,75110,75084
 6.9000e+000 75283 -1.2147e+001 -1.9994e+001  1.7361e+000 64133 75401,75329,75084
 6.9000e+000 75260 -1.2553e+001 -1.9894e+001  1.4708e+000 64133 75401,75084,75058
 6.9000e+000 75237 -1.0449e+001 -2.6063e+001  5.4012e+000 64133 75473,75136,75110
 6.9000e+000 75214 -8.2042e+000 -2.1479e+001  1.9675e-001 64133 75032,75188,75162
 6.9000e+000 75355 -1.2589e+001 -2.2932e+001  3.9166e+000 64133 75473,75110,75329
 6.9000e+000 75378 -1.0148e+001 -2.0398e+001  2.2961e-001 64133 75162,75329,75032
 6.9000e+000 75427 -9.4180e+000 -1.8996e+001  1.2020e+000 64133 75032,75329,75401
 6.9000e+000 75450 -1.3629e+001 -2.0981e+001  2.6808e+000 64133 75545,75401,75058
 6.9000e+000 75499 -6.5999e+000 -2.2312e+001  2.8009e+000 64133 75162,75136,75473
 6.9000e+000 75522 -9.5405e+000 -1.8358e+001  1.8709e+000 64133 75162,75473,75329
 6.9000e+000 75571 -1.1131e+001 -1.5891e+001  8.8692e-001 64133 75032,75401,75545
 6.9000e+000 75851 -1.6501e+001 -1.7657e+001  9.3540e-001 63843 75874,75753,75727
 6.9000e+000 75828 -1.5091e+001 -1.5527e+001  6.7452e-002 63843 75946,75874,75727
 6.9000e+000 75805 -1.5352e+001 -1.7566e+001  9.9048e-001 63843 76018,75946,75727
 6.9000e+000 75900 -1.6517e+001 -1.7703e+001 -2.1140e+000 63843 75779,75753,75874
 6.9000e+000 75923 -1.4849e+001 -1.3827e+001 -1.8007e+000 63843 75779,75874,75675
 6.9000e+000 75972 -1.3786e+001 -1.6057e+001  5.3696e-002 63843 75675,75874,75946
 6.9000e+000 75995 -1.3040e+001 -1.3873e+001 -1.1612e-001 63843 75675,75946,75701
 6.9000e+000 76044 -1.2290e+001 -1.0874e+001  1.8254e+000 63843 75701,75946,76018
 6.9000e+000 76454 -3.4193e+000 -3.2471e+000  1.6590e+000 63439 76477,76255,76229
 6.9000e+000 76431 -2.9898e+000 -1.9594e+000  1.8433e+000 63439 76477,76229,76359
 6.9000e+000 76408 -8.3096e+000 -3.9072e+000  1.6320e-001 63439 76307,76359,76333
 6.9000e+000 76385 -2.5488e+000 -3.3319e+000 -2.1458e-001 63439 76255,76307,76281
 6.9000e+000 76503 -3.8061e+000 -2.5121e+000  7.6080e-001 63439 76307,76255,76477
 6.9000e+000 76526 -3.3963e+000 -1.8281e+000  9.8980e-001 63439 76307,76477,76359
 6.9000e+000 76926 -3.7894e+000 -2.5782e+000  9.2613e-001 63049 76704,76782,76756
 6.9000e+000 76903 -2.3763e+000 -1.9087e+000  6.3422e-001 63049 76704,76808,76782
 6.9000e+000 76880 -1.5775e+000 -6.4829e-001  9.8607e-002 63049 76704,76756,76730
 6.9000e+000 76857 -1.1624e+000 -1.5740e+000  8.2461e-001 63049 76678,76808,76704
 6.9000e+000 76834 -3.7395e-001 -2.1503e-002  1.8179e-001 63049 76652,76808,76678
 6.9000e+000 77076 -6.8554e+000 -2.4258e+001 -5.2162e-001 62737 76975,77027,77001
 6.9000e+000 77053 -5.3227e+000 -2.4830e+001 -9.1835e-001 62737 76949,77027,76975
 6.9000e+000 77324 -1.1223e+001 -1.6988e+001 -6.5549e-001 62277 77347,77177,77125
 6.9000e+000 77301 -1.1937e+001 -1.6939e+001 -1.1689e+000 62277 77347,77125,77229
 6.9000e+000 77278 -1.0853e+001 -1.9477e+001 -2.7965e+000 62277 77099,77229,77125
 6.9000e+000 77255 -1.1645e+001 -1.8742e+001 -3.8546e-001 62277 77125,77177,77151
 6.9000e+000 77373 -1.1562e+001 -1.7452e+001 -1.0522e+000 62277 77203,77177,77347
 6.9000e+000 77396 -1.2474e+001 -1.7239e+001 -1.4884e+000 62277 77203,77347,77229
 6.9000e+000 77857 -1.0725e+001 -2.8212e+001  5.9790e-001 61758 77635,77739,77661
 6.9000e+000 77834 -1.1816e+001 -2.8669e+001  4.5686e-002 61758 77583,77739,77635
 6.9000e+000 77811 -1.1768e+001 -3.4259e+001 -3.2129e+000 61758 77583,77635,77609
 6.9000e+000 77788 -7.4906e+000 -2.8523e+001  1.8702e+000 61758 77661,77713,77687
 6.9000e+000 77765 -1.0498e+001 -2.8057e+001  3.7640e-001 61758 77661,77739,77713
 6.9000e+000 78491 -7.6251e+000 -8.5374e+000 -9.7773e-002 61418 78171,78301,78249
 6.9000e+000 78468 -1.9712e+000 -6.4343e+000  9.6144e-001 61418 78145,78301,78171
 6.9000e+000 78445 -6.3264e+000 -8.0171e+000 -1.2484e-001 61418 78171,78249,78223
 6.9000e+000 78422 -3.5973e+000 -7.1837e+000  2.1016e+000 61418 78145,78327,78301
 6.9000e+000 78399 -8.3519e+000 -1.2192e+001 -1.7803e+000 61418 78249,78301,78275
 6.9000e+000 78376 -6.1691e+000 -9.1912e+000  1.7072e-002 61418 78171,78223,78197
 6.9000e+000 78353 -2.0187e+000 -6.2354e-001  3.8786e+000 61418 78119,78327,78145
 6.9000e+000 78690 -2.6852e+000 -1.6068e+000  1.3306e+000 61014 78713,78566,78540
 6.9000e+000 78667 -3.8720e+000 -2.9063e+000  1.9085e+000 61014 78713,78540,78618
 6.9000e+000 78644 -2.3630e+000 -3.1708e+000  1.5042e-001 61014 78514,78618,78540
 6.9000e+000 78739 -2.9221e+000 -1.9624e+000  1.2356e+000 61014 78592,78566,78713
 6.9000e+000 78762 -5.6196e+000 -1.9160e+000  1.2029e+000 61014 78785,78713,78618
 6.9000e+000 78811 -1.2912e+000 -3.5188e-001  3.0129e-001 61014 78592,78713,78785
 6.9000e+000 79398 -3.1104e+000 -4.6806e+000  9.7825e-001 60624 79101,79179,79153
 6.9000e+000 79375 -2.2368e+000 -5.4763e+000  1.2926e+000 60624 79101,79231,79179
 6.9000e+000 79352 -1.7871e+000 -5.3097e+000  1.2886e+000 60624 79075,79231,79101
 6.9000e+000 79329 -7.9922e+000 -6.2856e+000  5.9623e-001 60624 79075,79257,79231
 6.9000e+000 79306 -2.2145e+000 -5.8111e+000  1.8193e+000 60624 79179,79231,79205
 6.9000e+000 79283 -2.6999e+000 -3.6260e+000  1.2975e+000 60624 79101,79153,79127
 6.9000e+000 79776 -1.0546e+001 -1.4709e+001 -5.6671e-002 60070 79528,79658,79606
 6.9000e+000 79753 -1.0819e+001 -1.6259e+001  6.0516e-001 60070 79502,79658,79528
 6.9000e+000 79730 -1.2501e+001 -1.5462e+001 -1.7685e-001 60070 79528,79606,79580
 6.9000e+000 79707 -1.0456e+001 -1.2103e+001 -7.7511e-001 60070 79606,79658,79632
 6.9000e+000 79684 -9.5106e-001 -1.0266e+001 -2.1511e+000 60070 79528,79580,79554
 6.9000e+000 80105 -7.2149e+000 -1.1242e+001  1.2444e+000 59758 80128,79958,79906
 6.9000e+000 80082 -6.9007e+000 -1.2349e+001  1.8126e+000 59758 80128,79906,80010
 6.9000e+000 80059 -9.3340e+000 -1.3644e+001  3.3138e+000 59758 79906,79958,79932
 6.9000e+000 80036 -9.4741e+000 -1.3729e+001  1.2616e+000 59758 79880,80010,79906
 6.9000e+000 80154 -7.0113e+000 -1.0564e+001  1.2605e+000 59758 79984,79958,80128
 6.9000e+000 80177 -6.5368e+000 -1.1404e+001  1.8276e+000 59758 79984,80128,80010
 6.9000e+000 80376 -2.0749e+000  1.4151e+000  1.3624e-002 59312 80226,80304,80252
 6.9000e+000 80353 -1.4992e+000 -3.3126e-001  8.6678e-002 59312 80200,80304,80226
 6.9000e+000 80330 -1.1437e+000  2.5618e+000 -6.9149e-001 59312 80252,80304,80278
 6.9000e+000 80805 -7.7986e+000 -1.1504e+001 -2.5257e+000 58908 80900,80828,80638
 6.9000e+000 80782 -5.2312e+000 -1.4977e+001 -4.0530e+000 58908 80828,80560,80508
 6.9000e+000 80759 -8.5483e+000 -1.1077e+001 -1.5122e+000 58908 80900,80638,80612
 6.9000e+000 80736 -1.9028e+000 -1.4158e+001  5.3973e+000 58908 80482,80664,80508
 6.9000e+000 80713 -8.7146e+000 -1.3076e+001 -9.0083e-001 58908 80560,80612,80586
 6.9000e+000 80690 -7.6547e+000 -4.7300e+001 -8.8603e+000 58908 80508,80560,80534
 6.9000e+000 80854 -2.7538e+000 -1.2780e+001  4.9262e-001 58908 80664,80638,80828
 6.9000e+000 80877 -5.8496e+000 -2.1561e+001  4.6867e-001 58908 80664,80828,80508
 6.9000e+000 80926 -6.2499e+000 -9.8820e+000 -3.3644e+000 58908 80560,80828,80900
 6.9000e+000 80949 -7.5973e+000 -1.0236e+001 -2.2045e+000 58908 80560,80900,80612
 6.9000e+000 81246 -6.9014e+000 -1.6001e+001 -3.3691e-001 58482 81076,81128,81102
 6.9000e+000 81223 -1.0249e+001 -2.4490e+001 -2.0819e+000 58482 80972,81128,81076
 6.9000e+000 81200 -7.8435e+000 -1.8497e+001 -2.6780e+000 58482 80972,81076,81050
 6.9000e+000 81177 -1.1883e+001 -2.3588e+001 -2.8536e+000 58482 80998,81050,81024
 6.9000e+000 81154 -9.5946e+000 -1.8962e+001 -3.9406e+000 58482 80972,81050,80998
 6.9000e+000 81754 -1.0826e+001 -1.3782e+001 -1.9106e+000 57828 81457,81613,81483
 6.9000e+000 81731 -1.1610e+001 -1.5763e+001 -1.8218e+000 57828 81431,81613,81457
 6.9000e+000 81708 -1.0234e+001 -1.2352e+001 -2.1368e-001 57828 81483,81613,81509
 6.9000e+000 81685 -1.1955e+001 -1.6203e+001  6.0038e-001 57828 81509,81613,81587
 6.9000e+000 81662 -1.0548e+001 -2.0502e+001  3.1162e+000 57828 81509,81587,81535
 6.9000e+000 81639 -5.8713e+000 -1.6540e+001  1.2567e+000 57828 81535,81587,81561
 6.9000e+000 82002 -5.7274e+000 -1.2352e+001  1.0737e+000 57374 82025,81855,81829
 6.9000e+000 81979 -6.3936e+000 -1.0918e+001  2.2642e+000 57374 82025,81829,81907
 6.9000e+000 81956 -5.1368e+000 -1.1810e+001  3.1650e+000 57374 81803,81907,81829
 6.9000e+000 81933 -1.5244e+000 -1.0123e+001  3.7520e+000 57374 81777,81907,81803
 6.9000e+000 82051 -5.4467e+000 -1.0625e+001  8.9161e-001 57374 81881,81855,82025
 6.9000e+000 82074 -5.9666e+000 -9.4330e+000  2.4694e+000 57374 81881,82025,81907
 6.9000e+000 82356 -7.6783e+000 -1.3477e+001 -2.7223e-001 56913 82180,82232,82206
 6.9000e+000 82333 -7.9428e+000 -1.4107e+001 -2.5857e-001 56913 82180,82284,82232
 6.9000e+000 82310 -4.3492e+000 -1.0203e+001  1.2369e+000 56913 82379,82232,82284
 6.9000e+000 82405 -1.3363e-001 -8.3823e+000  1.4692e+000 56913 82258,82232,82379
 6.9000e+000 82764 -9.3051e+000 -1.0746e+001 -4.4857e-001 56523 82614,82666,82640
 6.9000e+000 82741 -7.8582e+000 -9.7516e+000 -1.1441e+000 56523 82614,82692,82666
 6.9000e+000 82718 -4.7924e+000 -9.0880e+000 -1.9309e+000 56523 82588,82692,82614
 6.9000e+000 83368 -3.1166e-002 -7.5911e-001  8.2205e-002 55969 82973,83155,83129
 6.9000e+000 83345  3.6230e-001 -1.1068e+000  3.5937e-001 55969 82973,83181,83155
 6.9000e+000 83322 -1.0754e+000 -5.1708e-001  2.2567e-001 55969 82973,83129,82999
 6.9000e+000 83299  1.6505e-001  2.0021e-001 -5.5613e-001 55969 83391,83025,82999
 6.9000e+000 83276 -1.1308e+000 -4.4443e-001 -4.1190e-002 55969 83391,82999,83129
 6.9000e+000 83253  8.5330e-001 -1.6600e+000  2.2021e+000 55969 83077,83129,83103
 6.9000e+000 83230 -3.3772e+000  4.4855e-001 -5.8105e-001 55969 83025,83077,83051
 6.9000e+000 83207 -4.9864e-001 -1.1877e+000  2.4214e-001 55969 82947,83181,82973
 6.9000e+000 83417 -1.1843e+000 -2.8624e-002 -1.4650e-001 55969 83077,83025,83391
 6.9000e+000 83440 -1.7158e+000 -7.1818e-002  3.0421e-001 55969 83077,83391,83129
 6.9000e+000 83946 -1.8464e+001 -2.7658e+001  5.5124e+000 55771 83969,83779,83727
 6.9000e+000 83923 -1.5801e+001 -2.1983e+001  4.2941e+000 55771 83969,83727,83623
 6.9000e+000 83900 -1.3806e+001 -9.8089e+000  1.9370e+000 55771 83623,83727,83649
 6.9000e+000 83877 -1.1664e+001 -4.7659e+001  4.2295e+000 55771 83727,83779,83753
 6.9000e+000 83854 -1.5696e+001 -1.4648e+001  2.2494e+000 55771 83675,83727,83701
 6.9000e+000 83831 -1.8944e+001 -1.2804e+001  3.3397e+000 55771 83649,83727,83675
 6.9000e+000 83995 -1.8190e+001 -2.8945e+001 -1.3546e+000 55771 83805,83779,83969
 6.9000e+000 84018 -1.2745e+001 -1.7831e+001 -3.1596e+000 55771 83805,83969,83623
 6.9000e+000 84168 -7.5262e+000 -1.0923e+001 -1.8049e-001 55367 84191,84067,84041
 6.9000e+000 84145 -7.4096e+000 -1.1445e+001 -1.6234e-001 55367 84191,84041,84119
 6.9000e+000 84217 -7.5343e+000 -1.0698e+001 -1.5489e-001 55367 84093,84067,84191
 6.9000e+000 84240 -7.1509e+000 -1.0933e+001  1.4991e-002 55367 84093,84191,84119
 6.9000e+000 84571 -3.9143e+000 -9.7334e+000 -1.2103e+000 54913 84398,84450,84424
 6.9000e+000 84548 -4.3147e+000 -9.1461e+000 -7.8850e-001 54913 84372,84450,84398
 6.9000e+000 84525 -4.1449e+000 -9.8244e+000  2.2201e-001 54913 84346,84450,84372
 6.9000e+000 84502 -3.8272e+000 -8.9592e+000 -1.4147e+000 54913 84346,84476,84450
 6.9000e+000 85126 -9.6164e+000 -1.2869e+001 -2.4864e+000 54402 84858,84936,84910
 6.9000e+000 85103 -9.2180e+000 -1.1674e+001 -2.0299e+000 54402 84806,84936,84858
 6.9000e+000 85080 -8.0792e+000 -1.0790e+001 -1.6419e+000 54402 84780,84936,84806
 6.9000e+000 85057 -3.5338e+000 -1.2912e+001 -5.9932e-001 54402 84806,84858,84832
 6.9000e+000 85034 -1.0856e+001 -1.1665e+001 -2.5531e-001 54402 84780,84962,84936
 6.9000e+000 85011 -1.0468e+001 -4.3509e+000 -1.7454e+000 54402 84858,84910,84884
 6.9000e+000 84988 -8.3937e+000 -1.1741e+001  2.2474e+000 54402 84754,84962,84780
 6.9000e+000 85396 -9.4222e+000 -1.1124e+001 -3.8851e-001 53998 85197,85249,85223
 6.9000e+000 85373 -9.1422e+000 -1.1712e+001 -2.5213e-001 53998 85197,85275,85249
 6.9000e+000 85350 -1.1258e+001 -1.4160e+001 -1.1550e+000 53998 85171,85275,85197
 6.9000e+000 85327 -5.6773e+000 -1.2551e+001 -1.5857e+000 53998 85171,85301,85275
 6.9000e+000 85749 -2.0854e+000  5.5723e-001 -2.7286e-001 53636 85524,85628,85550
 6.9000e+000 85726 -6.8892e-001  1.5598e+000 -7.6484e-001 53636 85524,85654,85628
 6.9000e+000 85703 -1.0971e+000  5.4389e-002 -3.1137e-001 53636 85550,85602,85576
 6.9000e+000 85680 -5.7613e-001  1.2532e+000 -5.2550e-001 53636 85550,85628,85602
 6.9000e+000 86127  3.1965e-001 -3.7005e+000  2.0920e+000 52982 86150,85957,85879
 6.9000e+000 86104 -1.5407e+000 -5.8921e+000  1.1118e+000 52982 86150,85879,85853
 6.9000e+000 86081 -8.2064e-001 -1.2151e+001  2.1662e+000 52982 85957,86009,85983
 6.9000e+000 86058 -2.8326e+000 -3.8451e+000  1.2203e+000 52982 85879,85957,85931
 6.9000e+000 86035 -2.6667e+000 -2.5904e+000  1.5852e+000 52982 85879,85931,85905
 6.9000e+000 86176  1.8408e+000 -6.0578e+000  1.8168e+000 52982 86009,85957,86150
 6.9000e+000 86199  7.1996e-001 -7.9288e+000  1.2230e+000 52982 86009,86150,85853
 6.9000e+000 86398 -6.6231e+000 -1.3107e+001  1.1865e+000 52542 86421,86248,86222
 6.9000e+000 86375 -9.2069e+000 -1.2832e+001 -3.8430e-002 52542 86421,86222,86300
 6.9000e+000 86352 -9.0309e+000 -1.2877e+001 -2.8217e-001 52542 86222,86326,86300
 6.9000e+000 86447 -4.2327e+000 -1.2874e+001  1.8340e+000 52542 86274,86248,86421
 6.9000e+000 86470 -6.5265e+000 -1.2741e+001  3.0739e-001 52542 86274,86421,86300
 6.9000e+000 86669 -8.0371e+000 -1.1475e+001 -3.6378e+000 52230 86692,86571,86545
 6.9000e+000 86646 -8.6623e+000 -1.2715e+001 -2.8052e+000 52230 86692,86545,86519
 6.9000e+000 86623 -7.8747e+000 -1.0453e+001 -6.4709e-001 52230 86493,86597,86519
 6.9000e+000 86718 -8.7472e+000 -1.1530e+001 -2.4553e+000 52230 86597,86571,86692
 6.9000e+000 86741 -9.9376e+000 -1.3028e+001 -1.5628e+000 52230 86597,86692,86519
 6.9000e+000 87153 -3.8366e+000 -3.9911e+000  1.5089e+000 51640 86980,87058,87032
 6.9000e+000 87130 -2.6812e+000 -3.4574e+000  1.7460e+000 51640 86928,87058,86980
 6.9000e+000 87107 -4.0566e+000 -1.7150e+000  3.8852e+000 51640 86928,86980,86954
 6.9000e+000 87084  3.2019e-001 -2.1853e+000  2.1838e+000 51640 86980,87032,87006
 6.9000e+000 87659 -3.2636e+000 -3.9598e+000  1.0670e+000 51029 87682,87440,87362
 6.9000e+000 87636 -2.0154e+000 -4.5017e+000 -7.3512e-001 51029 87682,87362,87336
 6.9000e+000 87613 -4.4379e+000 -8.1213e+000  7.9401e-001 51029 87440,87518,87466
 6.9000e+000 87590 -2.5577e+000 -2.9683e+000  6.7212e-001 51029 87362,87440,87414
 6.9000e+000 87567 -3.2784e+000 -4.3254e+000  2.1015e+000 51029 87362,87414,87388
 6.9000e+000 87544 -5.5709e+000 -6.0330e+000  1.2736e+000 51029 87466,87518,87492
 6.9000e+000 87708 -3.3825e+000 -5.2798e+000  8.2837e-001 51029 87518,87440,87682
 6.9000e+000 87731 -2.9557e+000 -7.6129e+000 -3.0235e-001 51029 87518,87682,87336
 6.9000e+000 87881 -8.4761e+000 -1.5254e+001  1.9875e-001 50739 87780,87832,87806
 6.9000e+000 87858 -8.5719e+000 -1.4060e+001 -3.8407e-001 50739 87754,87832,87780
 6.9000e+000 88468 -1.1350e+001 -7.3993e+000  1.8154e+000 50235 88171,88327,88197
 6.9000e+000 88445 -1.3980e+001 -1.1623e+001  6.4795e-001 50235 88145,88327,88171
 6.9000e+000 88422 -3.9639e-001 -7.7433e-001 -4.5164e-001 50235 88275,88327,88301
 6.9000e+000 88399 -5.4768e+000 -2.9447e+000 -1.1272e+000 50235 88197,88327,88275
 6.9000e+000 88376  2.4186e-001 -8.0394e+000 -4.7509e-001 50235 88197,88275,88223
 6.9000e+000 88353 -2.0585e+000 -8.4480e+000  1.9822e+000 50235 88223,88275,88249
 6.9000e+000 88895 -8.2148e+000 -1.3579e+001  1.1958e+000 49873 88918,88728,88676
 6.9000e+000 88872 -6.8394e+000 -1.3447e+001 -2.3818e-001 49873 88918,88676,88624
 6.9000e+000 88849 -4.7757e+000 -1.0731e+001  2.9020e-002 49873 88598,88754,88624
 6.9000e+000 88826 -5.7921e+000 -1.2760e+001 -6.2436e-001 49873 88624,88676,88650
 6.9000e+000 88803 -4.7858e+000 -1.7149e+001  2.1893e+000 49873 88676,88728,88702
 6.9000e+000 88780 -4.7641e+000 -1.0455e+001  2.0424e-001 49873 88572,88754,88598
 6.9000e+000 88944 -6.1447e+000 -1.2827e+001  1.0377e+000 49873 88754,88728,88918
 6.9000e+000 88967 -5.7838e+000 -1.3332e+001 -3.7620e-001 49873 88754,88918,88624
 6.9000e+000 89473 -1.7838e+001 -1.4559e+001 -3.2170e+000 49583 89176,89306,89202
 6.9000e+000 89450 -1.1223e+001 -1.3065e+001 -2.9198e-001 49583 89176,89332,89306
 6.9000e+000 89427 -3.5052e+000 -9.5955e+000  1.9134e+000 49583 89496,89228,89202
 6.9000e+000 89404 -4.4873e+000 -9.6799e+000  1.9803e+000 49583 89496,89202,89280
 6.9000e+000 89381 -1.2602e+001 -1.4651e+001 -2.4449e+000 49583 89202,89306,89280
 6.9000e+000 89358 -1.1224e+001 -1.2007e+001  4.0564e-001 49583 89150,89332,89176
 6.9000e+000 89522 -4.4174e+000 -8.6544e+000  9.7920e-001 49583 89254,89228,89496
 6.9000e+000 89545 -5.6314e+000 -9.1643e+000  1.8648e+000 49583 89254,89496,89280
 6.9000e+000 89825 -1.9167e-001 -1.2680e+001 -1.6073e+000 49179 89701,89753,89727
 6.9000e+000 89802 -2.9081e+000 -1.2250e+001 -1.2365e+000 49179 89675,89753,89701
 6.9000e+000 89779 -2.4296e+000 -1.2297e+001  6.2836e-001 49179 89848,89753,89675
 6.9000e+000 89874 -1.2564e+001 -1.4330e+001 -1.9227e+000 49179 89649,89753,89848
 6.9000e+000 90223 -1.7708e-001 -1.0722e+000 -2.3748e+000 48739 90024,90102,90076
 6.9000e+000 90200  9.5882e-001  5.0392e-001 -8.3850e-001 48739 90024,90128,90102
 6.9000e+000 90177  6.2175e+000 -1.1758e+000 -2.2064e+000 48739 90024,90076,90050
 6.9000e+000 90154  1.5854e+000  1.2058e+000 -5.3969e-001 48739 89998,90128,90024
 6.9000e+000 90603  1.6535e-001 -7.0048e-001  1.6619e+000 48335 90381,90485,90459
 6.9000e+000 90580  6.1519e-001  3.5768e-001  1.7858e+000 48335 90355,90485,90381
 6.9000e+000 90557  1.7544e+000  4.4012e+000 -5.0509e-001 48335 90381,90433,90407
 6.9000e+000 90534 -1.6597e+000 -1.9245e+000  9.9574e-001 48335 90381,90459,90433
 6.9000e+000 90511  1.0726e+000  1.1568e+000  2.7045e+000 48335 90329,90485,90355
 6.9000e+000 90753 -2.5991e-001 -7.9546e-001  2.0411e+000 47824 90776,90652,90704
 6.9000e+000 90730 -1.5083e+000 -3.6167e+000  1.8062e+000 47824 90626,90704,90652
 6.9000e+000 90802  7.6709e-002  3.0694e-002  2.3431e+000 47824 90678,90652,90776
 6.9000e+000 91131 -8.8924e+000 -1.7580e+001  8.6215e-001 47427 91154,90958,90906
 6.9000e+000 91108 -1.2443e+001 -1.9108e+001  9.6586e-001 47427 91154,90906,91036
 6.9000e+000 91085 -1.0704e+001 -1.4599e+001 -9.0439e-001 47427 90958,91010,90984
 6.9000e+000 91062 -1.1256e+001 -1.4165e+001  2.6818e+000 47427 90906,90958,90932
 6.9000e+000 91180 -1.0820e+001 -1.6843e+001 -1.5425e+000 47427 91010,90958,91154
 6.9000e+000 91203 -1.4167e+001 -1.8277e+001 -1.4900e+000 47427 91010,91154,91036
 6.9000e+000 91583 -3.0224e+000 -2.2295e+000 -1.0450e+000 46873 91309,91439,91335
 6.9000e+000 91560 -2.8368e+000  1.7400e-001 -1.3210e+000 46873 91309,91465,91439
 6.9000e+000 91537 -4.9452e+000 -3.2124e+000 -4.5620e+000 46873 91361,91439,91413
 6.9000e+000 91514 -2.4671e+000 -2.2607e+000 -2.7321e+000 46873 91335,91439,91361
 6.9000e+000 91491 -1.5970e+000 -4.2171e-001 -3.1074e+000 46873 91361,91413,91387
 6.9000e+000 91880 -7.5313e+000 -1.5608e+001 -1.3522e+000 46526 91606,91710,91658
 6.9000e+000 91857 -7.7573e+000 -1.7585e+001 -1.3401e-002 46526 91606,91762,91710
 6.9000e+000 91834 -6.6731e+000 -1.5626e+001 -2.0537e+000 46526 91606,91658,91632
 6.9000e+000 91811 -9.2490e+000 -1.3605e+001 -1.4688e-001 46526 91658,91710,91684
 6.9000e+000 91788 -6.0868e+000 -1.3115e+001  5.2094e-002 46526 91710,91762,91736
 6.9000e+000 92211 -2.0111e-001  3.6481e+000 -4.3433e-002 45700 91986,92064,92038
 6.9000e+000 92188  9.0330e-001  1.1461e-001 -1.0183e-001 45700 91986,92116,92064
 6.9000e+000 92165 -4.1691e-002  4.4210e+000  4.7457e-001 45700 91986,92038,92012
 6.9000e+000 92142  2.0380e+000  1.6411e-001  8.2490e-001 45700 92064,92116,92090
 6.9000e+000 92766 -1.9124e+000 -5.1588e+000  3.9103e+000 45452 92446,92602,92576
 6.9000e+000 92743 -7.2577e+000 -8.7795e+000  1.1234e+000 45452 92420,92602,92446
 6.9000e+000 92720 -1.1353e+001 -1.4909e+001  2.7402e+000 45452 92789,92524,92498
 6.9000e+000 92697 -1.0228e+001 -1.1593e+001  3.3790e+000 45452 92789,92498,92446
 6.9000e+000 92674 -1.2919e+001 -1.2007e+001 -1.9203e+000 45452 92524,92576,92550
 6.9000e+000 92651 -1.4048e+001 -1.5332e+001  7.9233e+000 45452 92446,92498,92472
 6.9000e+000 92628 -7.2963e-001 -4.7277e+000  2.8785e+000 45452 92394,92602,92420
 6.9000e+000 92815 -1.1808e+001 -1.1547e+001  2.7966e+000 45452 92576,92524,92789
 6.9000e+000 92838 -1.1748e+001 -9.5463e+000  3.0499e+000 45452 92576,92789,92446
 6.9000e+000 92939 -8.9329e+000 -1.6488e+001 -2.4790e+000 44998 92861,92913,92887
 6.9000e+000 93319 -3.3768e+000 -1.6339e+001  1.7315e+000 44601 93123,93201,93149
 6.9000e+000 93296 -5.4227e+000 -1.5026e+001 -1.6282e+000 44601 93045,93201,93123
 6.9000e+000 93273 -2.2150e+000 -6.6603e+000 -3.1673e+000 44601 93045,93123,93071
 6.9000e+000 93250 -1.2890e+000 -5.2770e+000 -1.6665e+000 44601 93071,93123,93097
 6.9000e+000 93227 -3.3955e+000 -9.2276e+000  2.4026e+000 44601 93149,93201,93175
 6.9000e+000 93697 -5.5635e+000 -2.2038e+001  1.7533e+000 44026 93720,93553,93527
 6.9000e+000 93674 -7.9140e+000 -1.7915e+001  2.5450e+000 44026 93720,93527,93449
 6.9000e+000 93651 -7.9551e+000 -1.6337e+001  2.9912e-002 44026 93449,93527,93501
 6.9000e+000 93628 -7.1617e+000 -1.2991e+001 -8.9528e-001 44026 93423,93579,93449
 6.9000e+000 93605 -3.0366e+000 -1.4432e+001  7.3325e-001 44026 93449,93501,93475
 6.9000e+000 93746 -4.7490e+000 -1.8371e+001  9.7324e-001 44026 93579,93553,93720
 6.9000e+000 93769 -6.9892e+000 -1.4049e+001  1.9246e+000 44026 93579,93720,93449
 6.9000e+000 94066 -3.3207e+000 -1.4339e+001 -2.8343e+000 43579 94089,93818,93792
 6.9000e+000 94043 -7.6738e+000 -1.7163e+001 -1.5639e+000 43579 94161,94089,93792
 6.9000e+000 94020 -7.9103e+000 -1.7423e+001 -7.3723e-001 43579 94161,93792,93948
 6.9000e+000 93997 -8.0121e+000 -1.2321e+001 -1.7266e+000 43579 94233,93870,93818
 6.9000e+000 93974 -4.8684e+000 -1.3218e+001 -2.1982e-001 43579 93818,93870,93844
 6.9000e+000 94115 -7.9465e+000 -1.2392e+001 -2.2227e+000 43579 94233,93818,94089
 6.9000e+000 94138 -1.0095e+001 -1.4023e+001 -1.6806e+000 43579 93896,94089,93922
 6.9000e+000 94187 -7.2225e+000 -1.5585e+001 -2.4138e+000 43579 93922,94089,94161
 6.9000e+000 94210 -7.9875e+000 -1.5978e+001 -1.4861e+000 43579 93922,94161,93948
 6.9000e+000 94259 -8.5345e+000 -1.3270e+001 -1.5202e+000 43579 93896,93870,94233
 6.9000e+000 94282 -8.2776e+000 -1.3130e+001 -2.0918e+000 43579 93896,94233,94089
 6.9000e+000 94481 -8.6180e+000 -1.6093e+001 -2.4559e-001 43239 94305,94383,94357
 6.9000e+000 94458 -8.0506e+000 -1.5071e+001  1.1848e+000 43239 94305,94409,94383
 6.9000e+000 94435 -7.8388e+000 -1.4197e+001 -6.5891e-001 43239 94305,94357,94331
 6.9000e+000 94633  9.1591e-001 -4.6586e+000  1.5391e+000 42827 94656,94532,94506
 6.9000e+000 94610 -3.7284e+000 -6.8668e+000  2.2160e+000 42827 94728,94656,94506
 6.9000e+000 94682 -1.6437e+000 -6.6030e+000  6.0476e-001 42827 94558,94532,94656
 6.9000e+000 94705 -5.0524e-001 -5.3151e+000  2.9667e-002 42827 94988,94860,94656
 6.9000e+000 94754 -6.8298e-001 -3.0784e+000  1.6690e-001 42827 94988,94656,94728
 6.9000e+000 94886  2.5107e-001 -5.0775e+000 -6.8576e-002 42827 94558,94656,94860
 6.9000e+000 95014 -2.7069e-001 -3.4153e+000 -8.2242e-001 42827 94584,94860,94988
 6.9000e+000 95037 -9.5676e-001 -2.1580e+000 -9.7124e-001 42827 94584,94988,94728
 6.9000e+000 95236  6.2020e+000  4.2415e+000  2.5655e+000 42537 95259,95112,95060
 6.9000e+000 95213  3.1536e+000  8.0803e+000  9.4180e-001 42537 95259,95060,95164
 6.9000e+000 95190  6.6025e+000  3.2318e+000  1.2975e+000 42537 95060,95112,95086
 6.9000e+000 95285  4.1514e+000  2.3054e+000  1.4691e+000 42537 95138,95112,95259
 6.9000e+000 95308  4.2891e-001  4.3599e+000 -6.1509e-001 42537 95138,95259,95164
 6.9000e+000 95816  6.1356e-002 -6.6774e+000 -1.1291e+000 41969 95493,95597,95519
 6.9000e+000 95793 -2.1625e+000 -4.4582e+000  1.2617e+000 41969 95493,95649,95597
 6.9000e+000 95770 -4.2910e-001 -5.6020e+000  3.1902e+000 41969 95493,95675,95649
 6.9000e+000 95747 -2.5451e-001 -9.8478e+000  1.0046e+000 41969 95597,95649,95623
 6.9000e+000 95724 -4.7525e+000 -5.5446e+000 -1.8100e+000 41969 95519,95597,95571
 6.9000e+000 95701 -4.1395e+000 -3.6770e+000 -5.3615e-001 41969 95519,95571,95545
 6.9000e+000 96371 -8.3420e+000 -1.5965e+001  3.0360e+000 41579 96025,96207,96181
 6.9000e+000 96348 -1.1279e+000 -1.2346e+001 -1.2473e+000 41579 95999,96207,96025
 6.9000e+000 96325 -5.1953e+000 -9.9184e+000 -1.4917e+000 41579 96129,96181,96155
 6.9000e+000 96302 -1.6113e+000 -7.4151e+000 -2.5352e-001 41579 96025,96181,96129
 6.9000e+000 96279 -6.1668e+000 -1.4666e+001  2.8163e+000 41579 96025,96129,96051
 6.9000e+000 96256 -2.8503e+000 -8.3149e+000  3.4637e-001 41579 96051,96103,96077
 6.9000e+000 96233 -1.2510e+000 -7.3314e+000 -2.9838e-001 41579 96051,96129,96103
 6.9000e+000 96877 -2.8932e+000 -7.2004e+000 -1.4955e+000 41182 96972,96900,96632
 6.9000e+000 96854 -3.3107e+000 -2.9566e+000 -1.9336e+000 41182 96900,96554,96736
 6.9000e+000 96831 -2.5267e+000 -7.2802e+000 -6.1953e-001 41182 96972,96632,96580
 6.9000e+000 96808 -2.5992e+000 -7.9696e+000  1.7548e+000 41182 96632,96684,96658
 6.9000e+000 96785 -3.6628e+000 -8.6990e+000  1.8478e+000 41182 96684,96736,96710
 6.9000e+000 96762 -9.5167e+000 -1.2080e+001  4.7115e+000 41182 96580,96632,96606
 6.9000e+000 96926 -2.0841e+000 -1.0409e+001 -1.3608e+000 41182 96684,96632,96900
 6.9000e+000 96949 -2.3701e+000 -7.3548e+000 -3.0539e+000 41182 96684,96900,96736
 6.9000e+000 96998 -4.4282e+000 -7.8518e+000 -1.4880e+000 41182 96554,96900,96972
 6.9000e+000 97021 -4.3107e+000 -8.0631e+000 -5.0841e-001 41182 96554,96972,96580
 6.9000e+000 97576 -3.4583e+000 -1.1385e+001 -2.0913e+000 40678 97230,97412,97282
 6.9000e+000 97553 -1.0579e+000 -1.1768e+001 -2.9640e+000 40678 97204,97412,97230
 6.9000e+000 97530  3.0104e+000 -6.2309e+000 -2.7931e+000 40678 97282,97360,97308
 6.9000e+000 97507 -5.7391e-001 -7.3714e+000 -6.2823e-001 40678 97282,97412,97360
 6.9000e+000 97484  2.8373e+000 -8.2602e-001 -3.1782e+000 40678 97308,97360,97334
 6.9000e+000 97461 -7.5232e-001 -1.1854e+001 -5.7398e-001 40678 97360,97412,97386
 6.9000e+000 97438 -1.0123e+000 -4.1231e+000 -2.9733e+000 40678 97230,97282,97256
 6.9000e+000 97976 -1.1444e+001 -1.1221e+001 -1.6715e-001 40244 97702,97832,97754
 6.9000e+000 97953 -8.5863e+000 -1.3840e+001 -1.9839e-001 40244 97702,97858,97832
 6.9000e+000 97930 -1.3067e+001 -1.6267e+001 -4.2652e+000 40244 97702,97754,97728
 6.9000e+000 97907 -8.0335e+000 -1.0806e+001  1.8440e+000 40244 97780,97832,97806
 6.9000e+000 97884 -7.2930e+000 -8.4115e+000  1.6082e+000 40244 97754,97832,97780
 6.9000e+000 98482  3.4681e+000  1.9086e+000  2.2313e+000 39690 98505,98185,98159
 6.9000e+000 98459  2.6447e+000  1.4919e+000  1.8481e+000 39690 98505,98159,98289
 6.9000e+000 98436  6.6041e-001 -3.0076e+000  2.1783e+000 39690 98159,98315,98289
 6.9000e+000 98413  5.0112e+000  7.8624e-001  2.1164e+000 39690 98211,98289,98263
 6.9000e+000 98390  7.4970e+000  6.7874e+000  8.9806e-001 39690 98211,98263,98237
 6.9000e+000 98367  6.0774e-001  3.9043e+000 -1.3524e+000 39690 98159,98341,98315
 6.9000e+000 98531  5.2772e+000  1.7311e+000  3.0329e+000 39690 98211,98185,98505
 6.9000e+000 98554  3.6067e+000  2.1313e-001  2.3185e+000 39690 98211,98505,98289
 6.9000e+000 99109 -4.4419e+000 -7.8132e+000 -1.5884e+000 39072 99132,98867,98789
 6.9000e+000 99086 -7.8896e+000 -8.5709e+000 -1.4519e+000 39072 99132,98789,98763
 6.9000e+000 99063 -4.9173e+000 -1.4393e+001  1.4689e-001 39072 98867,98945,98919
 6.9000e+000 99040 -3.8418e+000 -9.5434e+000 -3.3436e-001 39072 98789,98867,98841
 6.9000e+000 99017 -7.3066e+000 -7.5413e+000 -1.5689e+000 39072 98867,98919,98893
 6.9000e+000 98994 -3.8344e+000 -5.0970e+000  1.0629e+000 39072 98789,98841,98815
 6.9000e+000 98971 -7.2942e+000 -9.4005e+000 -3.1250e+000 39072 98737,98945,98763
 6.9000e+000 99158 -3.1375e+000 -8.8902e+000 -2.2684e+000 39072 98945,98867,99132
 6.9000e+000 99181 -4.6041e+000 -8.0386e+000 -2.3718e+000 39072 98945,99132,98763
 6.9000e+000 99510 -4.7679e+000 -4.8407e+000  7.0176e-001 38668 99311,99389,99363
 6.9000e+000 99487 -4.4319e+000 -5.1928e+000 -2.0665e-002 38668 99285,99389,99311
 6.9000e+000 99464 -6.8495e+000 -7.9282e+000  1.0160e+000 38668 99285,99415,99389
 6.9000e+000 99441 -2.8691e+000 -4.9040e+000  8.3834e-001 38668 99311,99363,99337
 6.9000e+000 99758 -2.7133e+000 -9.7024e+000  3.9067e+000 38164 99781,99611,99585
 6.9000e+000 99735  5.9499e-001 -9.5093e+000  4.5018e+000 38164 99781,99585,99533
 6.9000e+000 99712 -6.3377e+000 -8.8113e+000  2.1852e+000 38164 99611,99663,99637
 6.9000e+000 99689  3.5808e+000 -7.9318e+000  3.0826e-001 38164 99533,99585,99559
 6.9000e+000 99807 -4.5631e+000 -8.9604e+000  4.8046e+000 38164 99663,99611,99781
 6.9000e+000 99830 -2.3272e+000 -9.4872e+000  4.8242e+000 38164 99663,99781,99533
 6.9000e+000 100232  1.2612e+000  1.3022e+000 -3.8179e-001 37702 99984,100114,100088
 6.9000e+000 100209  1.4027e+000  1.8737e+000 -4.1201e-001 37702 99958,100114,99984
 6.9000e+000 100186  3.3089e-002 -2.5559e+000 -1.4433e+000 37702 100010,100088,100036
 6.9000e+000 100163  2.4300e+000  1.8146e+000 -3.0181e-001 37702 99984,100088,100010
 6.9000e+000 100140  2.9490e+000  3.1131e+000 -2.6640e+000 37702 100036,100088,100062
 6.9000e+000 100640 -3.7895e+000 -7.0609e+000  1.9724e+000 37262 100493,100545,100519
 6.9000e+000 100617 -2.9974e+000 -8.6525e+000  1.1981e+000 37262 100441,100545,100493
 6.9000e+000 100594  1.7185e+000 -5.4670e+000 -9.2293e-001 37262 100415,100545,100441
 6.9000e+000 100571 -3.2530e+000 -7.5874e+000 -5.6005e-001 37262 100441,100493,100467
 6.9000e+000 101146 -6.3341e+000 -1.0996e+001 -6.1025e-001 36872 100823,100979,100849
 6.9000e+000 101123 -6.0086e+000 -9.8506e+000 -1.3864e+000 36872 100823,101005,100979
 6.9000e+000 101100 -4.9561e+000 -1.2100e+001  1.1261e+000 36872 101169,100901,100849
 6.9000e+000 101077 -4.5630e+000 -1.1570e+001 -9.0969e-003 36872 101169,100849,100979
 6.9000e+000 101054 -4.3222e+000 -1.1753e+001 -9.6865e-001 36872 100927,100979,100953
 6.9000e+000 101031 -2.5041e+000 -1.1793e+001  1.9652e+000 36872 100849,100901,100875
 6.9000e+000 101195 -3.6340e+000 -1.2021e+001  6.4635e-001 36872 100927,100901,101169
 6.9000e+000 101218 -3.2837e+000 -1.1841e+001 -3.7688e-001 36872 100927,101169,100979
 6.9000e+000 101773 -2.6446e+000 -5.6094e+000  2.3266e+000 36418 101479,101609,101583
 6.9000e+000 101750 -3.2629e+000 -4.1406e+000  1.2358e+000 36418 101453,101609,101479
 6.9000e+000 101727 -1.5238e+000 -6.9681e+000 -3.4771e-001 36418 101796,101531,101479
 6.9000e+000 101704 -2.8082e+000 -8.1805e+000  8.6303e-001 36418 101796,101479,101583
 6.9000e+000 101681 -3.4331e-001 -3.2182e+000 -7.4120e-001 36418 101479,101531,101505
 6.9000e+000 101658  3.4642e-001 -2.7034e+000  1.4640e+000 36418 101401,101609,101453
 6.9000e+000 101635 -1.2094e+000  1.7424e+000  2.9101e+000 36418 101401,101453,101427
 6.9000e+000 101822 -1.6822e+000 -6.0955e+000 -1.4636e+000 36418 101557,101531,101796
 6.9000e+000 101845 -2.7768e+000 -5.9397e+000 -2.2921e-001 36418 101557,101796,101583
 6.9000e+000 102174  7.3659e-001  4.8608e+000 -2.4381e-001 35914 101949,102053,101975
 6.9000e+000 102151  5.3113e+000  5.9986e+000 -1.2586e+000 35914 101949,102079,102053
 6.9000e+000 102128  1.2193e+000  5.1117e+000 -5.4963e-001 35914 101975,102053,102027
 6.9000e+000 102105  3.7020e+000  6.3475e+000 -1.9619e+000 35914 101975,102027,102001
 6.9000e+000 102631 -3.2850e+000 -1.3173e+001 -1.0847e-001 35574 102383,102513,102487
 6.9000e+000 102608 -1.4647e+000 -1.4549e+001 -2.8120e-001 35574 102357,102513,102383
 6.9000e+000 102585 -4.4975e+000 -1.1807e+001  7.3380e-001 35574 102409,102487,102435
 6.9000e+000 102562 -3.6491e+000 -1.3317e+001 -1.1354e-001 35574 102383,102487,102409
 6.9000e+000 102539 -5.9434e+000 -1.3533e+001 -3.2302e-001 35574 102435,102487,102461
 6.9000e+000 103009 -8.8610e+000 -1.2189e+001 -1.2463e+000 35170 102761,102865,102787
 6.9000e+000 102986 -4.6437e+000 -9.9072e+000  1.7675e+000 35170 102761,102891,102865
 6.9000e+000 102963 -1.0022e+001 -1.4654e+001 -1.6103e+000 35170 102787,102865,102813
 6.9000e+000 102940 -3.7054e+000 -1.0577e+001  1.6561e+000 35170 102735,102891,102761
 6.9000e+000 102917 -1.0332e+001 -1.6015e+001 -3.5145e+000 35170 102813,102865,102839
 6.9000e+000 103257 -1.3688e+000 -4.0085e+000  9.0876e-001 34659 103280,103058,103032
 6.9000e+000 103234 -8.6740e-001 -3.7210e+000  3.3307e-001 34659 103280,103032,103162
 6.9000e+000 103211 -1.0275e+000 -4.2437e+000 -3.1465e-001 34659 103084,103162,103110
 6.9000e+000 103188 -1.8727e+000 -6.0500e+000 -8.9688e-002 34659 103110,103162,103136
 6.9000e+000 103306 -4.3110e-001 -4.3816e+000  7.8523e-001 34659 103084,103058,103280
 6.9000e+000 103329 -1.5853e-001 -4.1102e+000  1.3551e-001 34659 103084,103280,103162
 6.9000e+000 103837 -5.2953e-001 -1.3927e+001  4.3259e-001 34247 103860,103566,103540
 6.9000e+000 103814 -2.6341e+000 -1.4596e+001  6.9206e-002 34247 103932,103860,103540
 6.9000e+000 103791 -2.3839e+000 -1.6765e+001 -2.0095e+000 34247 103932,103540,103670
 6.9000e+000 103768 -1.5058e+000 -1.2259e+001  5.6013e-001 34247 103566,103618,103592
 6.9000e+000 103745 -6.0196e+000 -1.5478e+001 -2.5508e+000 34247 103540,103696,103670
 6.9000e+000 103722 -8.4784e+000 -1.7722e+001  2.5311e+000 34247 103514,103696,103540
 6.9000e+000 103886 -3.6872e+000 -1.3974e+001 -6.7075e-001 34247 103618,103566,103860
 6.9000e+000 103909 -3.3605e+000 -1.5272e+001  9.7842e-002 34247 103618,103860,103644
 6.9000e+000 103958 -4.2184e+000 -1.9767e+001 -1.0432e+000 34247 103644,103860,103932
 6.9000e+000 103981 -4.0776e+000 -2.1827e+001 -3.2285e+000 34247 103644,103932,103670
 6.9000e+000 104300 -1.0993e+001 -1.6591e+001 -1.6531e+000 33843 104052,104182,104156
 6.9000e+000 104277 -1.2260e+001 -1.6581e+001 -1.6514e+000 33843 104026,104182,104052
 6.9000e+000 104254 -1.0592e+001 -2.1770e+001  1.1076e+000 33843 104078,104156,104130
 6.9000e+000 104231 -1.5064e+001 -2.0111e+001 -8.4271e-002 33843 104052,104156,104078
 6.9000e+000 104208 -1.3850e+001 -2.3137e+001  1.5289e+000 33843 104078,104130,104104
 6.9000e+000 104499 -4.2127e+000 -1.5540e+001 -9.1850e-001 33282 104594,104522,104375
 6.9000e+000 104476 -3.5965e+000 -1.5109e+001 -1.7016e-001 33282 104522,104323,104427
 6.9000e+000 104453 -2.5615e+000 -1.6132e+001 -9.3002e-001 33282 104594,104375,104349
 6.9000e+000 104548 -5.4180e+000 -1.5246e+001  1.4333e-001 33282 104401,104375,104522
 6.9000e+000 104571 -3.3919e+000 -1.4369e+001  4.7282e-002 33282 104401,104522,104427
 6.9000e+000 104620 -2.0222e+000 -1.4560e+001 -2.4323e-001 33282 104323,104522,104594
 6.9000e+000 104643 -9.2580e-001 -1.5676e+001 -4.6513e-001 33282 104323,104594,104349
 6.9000e+000 104942 -4.0607e+000 -1.0614e+001  2.3689e+000 32728 104694,104772,104720
 6.9000e+000 104919 -4.2198e+000 -9.5990e+000  7.7263e-001 32728 104694,104824,104772
 6.9000e+000 104896 -6.8620e+000 -7.9631e+000  2.8125e+000 32728 104720,104772,104746
 6.9000e+000 104873 -4.3261e+000 -1.1198e+001  1.0811e+000 32728 104772,104824,104798
 6.9000e+000 104850 -2.6185e+000 -8.3764e+000  1.3486e+000 32728 104668,104824,104694
 6.9000e+000 105373  2.4051e+000 -8.1906e+000 -6.1993e-001 32274 105396,105102,105076
 6.9000e+000 105350  1.8491e-001 -9.6635e+000  7.8148e-002 32274 105396,105076,105206
 6.9000e+000 105327 -3.1718e+000 -1.0765e+001  6.6437e-001 32274 105154,105206,105180
 6.9000e+000 105304  6.2185e+000 -7.8801e+000 -1.3700e+000 32274 105076,105232,105206
 6.9000e+000 105281 -1.4107e+000 -6.9599e+000 -1.1210e+000 32274 105102,105154,105128
 6.9000e+000 105258  2.9484e+000  1.6884e+000 -8.8012e-001 32274 105050,105232,105076
 6.9000e+000 105422 -5.4043e-002 -6.3615e+000 -9.0456e-001 32274 105154,105102,105396
 6.9000e+000 105445 -1.8868e+000 -7.5907e+000 -2.6725e-001 32274 105154,105396,105206
 6.9000e+000 105644 -7.2699e+000 -1.8636e+001  1.0414e-001 31620 105468,105546,105520
 6.9000e+000 105621 -5.2068e+000 -1.7780e+001 -8.5055e-001 31620 105468,105572,105546
 6.9000e+000 105598 -6.4438e+000 -1.7169e+001  5.8838e-001 31620 105468,105520,105494
 6.9000e+000 105794  7.4375e+000 -2.9817e+000 -9.9266e-001 31158 105889,105817,105693
 6.9000e+000 105771  5.4094e+000  1.4652e+000 -1.4949e+000 31158 105817,105667,105745
 6.9000e+000 105843  6.1973e+000 -1.0698e+001 -3.7139e-001 31158 105719,105693,105817
 6.9000e+000 105866  7.4133e+000 -4.5988e+000 -1.6274e+000 31158 105719,105817,105745
 6.9000e+000 105915  3.1790e+000 -4.8071e+000 -1.0394e+000 31158 105667,105817,105889
 6.9000e+000 106270 -2.5474e+000 -8.5343e+000 -4.8459e-001 30818 106293,106071,106045
 6.9000e+000 106247 -4.2595e+000 -1.2464e+001 -1.2526e+000 30818 106293,106045,106175
 6.9000e+000 106224 -2.8175e+000 -8.0635e+000  8.5822e-001 30818 106123,106175,106149
 6.9000e+000 106201 -2.4280e+000 -1.0085e+001  3.1774e+000 30818 106071,106123,106097
 6.9000e+000 106319 -3.1876e+000 -6.9950e+000  1.0710e+000 30818 106123,106071,106293
 6.9000e+000 106342 -3.6976e+000 -9.0936e+000  4.1871e-001 30818 106123,106293,106175
 6.9000e+000 106492 -3.4691e+000 -4.6217e+000  2.3484e+000 30414 106645,106391,106365
 6.9000e+000 106469  4.6644e+000 -5.5621e+000  4.8110e+000 30414 106515,106365,106443
 6.9000e+000 106541  1.8233e+000 -6.7411e+000  3.6195e+000 30414 106645,106365,106515
 6.9000e+000 106671  3.2347e+000 -6.7700e+000  7.2216e+000 30414 106417,106391,106645
 6.9000e+000 106694  1.3453e+001 -6.3543e+000  6.6702e+000 30414 106417,106645,106515
 6.9000e+000 106942 -3.5182e+000 -1.6574e+001  2.1993e-001 29910 106965,106795,106769
 6.9000e+000 106919 -2.5166e+000 -1.6224e+001  4.5290e-001 29910 106965,106769,106717
 6.9000e+000 106896 -4.3931e+000 -1.5876e+001 -4.7483e-002 29910 106795,106847,106821
 6.9000e+000 106873 -1.5541e+000 -1.4232e+001  8.6263e-001 29910 106717,106769,106743
 6.9000e+000 106991 -4.4414e+000 -1.5858e+001  5.1209e-001 29910 106847,106795,106965
 6.9000e+000 107014 -3.4510e+000 -1.5471e+001  8.4452e-001 29910 106847,106965,106717
 6.9000e+000 107213 -2.3047e-001 -9.9652e+000  1.7566e+000 29413 107236,107063,107037
 6.9000e+000 107190 -1.3263e+000 -1.2486e+001  2.7502e+000 29413 107236,107037,107141
 6.9000e+000 107167 -1.6659e+000 -5.3012e+000  2.4951e+000 29413 107063,107115,107089
 6.9000e+000 107262 -7.7310e-001 -7.8749e+000  6.6937e-001 29413 107115,107063,107236
 6.9000e+000 107285 -1.5351e+000 -9.8663e+000  1.6599e+000 29413 107115,107236,107141
 6.9000e+000 107486 -6.1363e-001 -1.0317e+001  2.6238e+000 29009 107336,107388,107362
 6.9000e+000 107463 -7.6194e-001 -1.0188e+001  4.7086e-001 29009 107310,107388,107336
 6.9000e+000 107440 -1.2083e+000 -1.1093e+001  6.9719e-001 29009 107310,107414,107388
 6.9000e+000 107736 -4.4557e+000 -1.2593e+001  2.4649e-001 28491 107537,107615,107563
 6.9000e+000 107713 -4.6661e+000 -1.2849e+001 -5.2295e-001 28491 107537,107641,107615
 6.9000e+000 107690 -3.3179e+000 -1.1186e+001  7.4370e-001 28491 107563,107615,107589
 6.9000e+000 107667 -2.5476e+000 -1.2066e+001  1.1887e-001 28491 107511,107641,107537
 6.9000e+000 108118 -3.8371e+000 -1.2693e+001  3.3800e-001 27980 108141,107922,107844
 6.9000e+000 108095 -2.8289e+000 -1.4665e+001  3.0738e-001 27980 108141,107844,108000
 6.9000e+000 108072 -3.8351e+000 -1.2827e+001 -5.0218e-001 27980 107844,107922,107870
 6.9000e+000 108049 -3.5006e+000 -1.0728e+001 -4.7175e-001 27980 107870,107922,107896
 6.9000e+000 108026 -4.9924e+000 -1.1861e+001  1.3200e+000 27980 107922,107974,107948
 6.9000e+000 108167 -3.1817e+000 -1.2477e+001  6.4118e-001 27980 107974,107922,108141
 6.9000e+000 108190 -3.7706e-001 -1.2700e+001  1.2049e+000 27980 107974,108141,108000
 6.9000e+000 108745  3.9736e+000  2.3762e-002 -1.2336e+000 27376 108840,108768,108477
 6.9000e+000 108722  2.4307e+000 -5.6819e+000 -3.3643e+000 27376 108768,108373,108581
 6.9000e+000 108699  2.3173e+000  5.9633e-001  1.1907e+000 27376 108840,108477,108451
 6.9000e+000 108676 -3.3271e+000 -3.7215e+000 -3.7802e-001 27376 108373,108451,108399
 6.9000e+000 108653  2.2687e+000 -3.2047e+000  3.1068e+000 27376 108503,108581,108529
 6.9000e+000 108630  1.6794e+000 -8.5002e-001  2.9740e+000 27376 108529,108581,108555
 6.9000e+000 108607 -2.7428e+000 -2.8809e+000 -8.9475e-001 27376 108399,108451,108425
 6.9000e+000 108794  3.3776e+000 -8.5753e-001 -1.5967e+000 27376 108503,108477,108768
 6.9000e+000 108817  6.6529e+000 -2.3207e+000 -8.1050e-001 27376 108503,108768,108581
 6.9000e+000 108866 -1.2763e+000 -2.0359e+000 -1.7245e+000 27376 108373,108768,108840
 6.9000e+000 108889 -1.1600e+000 -4.2257e-001  6.6378e-001 27376 108373,108840,108451
 6.9000e+000 109186 -4.1444e+000 -1.1991e+001  2.1859e+000 26722 109209,108938,108912
 6.9000e+000 109163 -4.0019e+000 -1.1528e+001  1.7577e+000 26722 109281,109209,108912
 6.9000e+000 109140 -4.1371e+000 -1.1162e+001  1.8417e+000 26722 109281,108912,109042
 6.9000e+000 109117 -1.7761e+000 -1.4300e+001  1.0690e+000 26722 108938,108990,108964
 6.9000e+000 109094 -6.5657e+000 -1.0642e+001  1.6632e+000 26722 108912,109068,109042
 6.9000e+000 109235 -2.3036e+000 -1.1677e+001  2.5412e+000 26722 108990,108938,109209
 6.9000e+000 109258 -3.6324e+000 -1.3022e+001  1.9534e+000 26722 108990,109209,109016
 6.9000e+000 109307 -4.1163e+000 -1.2006e+001  1.3548e+000 26722 109016,109209,109281
 6.9000e+000 109330 -4.2282e+000 -1.1533e+001  1.4006e+000 26722 109016,109281,109042
 6.9000e+000 109732 -1.0715e+000 -4.0078e+000 -2.7491e+000 26310 109458,109588,109484
 6.9000e+000 109709 -3.4544e+000 -6.6873e+000 -9.9706e-001 26310 109458,109614,109588
 6.9000e+000 109686 -1.2083e+001 -1.5161e+001  2.0897e+000 26310 109510,109562,109536
 6.9000e+000 109663 -1.8186e+001 -1.7638e+001  2.2451e+000 26310 109484,109562,109510
 6.9000e+000 109640 -7.4912e+000 -6.8457e+000 -2.2399e+000 26310 109484,109588,109562
 6.9000e+000 110159  8.1136e-001 -6.5847e+000 -8.1085e-001 25642 110182,109940,109914
 6.9000e+000 110136  1.0988e+000 -1.0687e+001  3.0149e+000 25642 110182,109914,109888
 6.9000e+000 110113 -2.9328e+000 -1.1776e+001 -2.0884e+000 25642 109966,110018,109992
 6.9000e+000 110090 -3.4193e+000 -1.0447e+001  1.9223e+000 25642 110254,109966,109940
 6.9000e+000 110067 -2.9780e+000 -7.7043e+000  2.3275e+000 25642 109862,110018,109888
 6.9000e+000 110044 -2.3597e+000 -5.1150e+000  3.5984e+000 25642 109836,110018,109862
 6.9000e+000 110208 -2.3630e+000 -9.0261e+000  1.4191e+000 25642 110254,109940,110182
 6.9000e+000 110231 -2.1891e+000 -1.0434e+001  3.5699e+000 25642 110018,110182,109888
 6.9000e+000 110280 -1.2734e+000 -1.2482e+001  1.8683e+000 25642 110018,109966,110254
 6.9000e+000 110303 -6.1373e-001 -1.1500e+001  1.5092e+000 25642 110018,110254,110182
 6.9000e+000 110632 -5.9642e+000 -7.3220e+000 -1.7675e+000 25188 110407,110485,110433
 6.9000e+000 110609 -1.4660e+001 -1.2656e+001  1.2697e+000 25188 110407,110537,110485
 6.9000e+000 110586 -3.5264e+000 -6.6526e+000 -6.8766e+000 25188 110433,110485,110459
 6.9000e+000 110563 -1.2681e+001 -1.6167e+001  8.9330e+000 25188 110485,110537,110511
 6.9000e+000 110831 -1.6751e-001 -9.8666e+000  1.1477e+000 24726 110854,110707,110655
 6.9000e+000 110808 -4.6152e-001 -1.0860e+001  1.9128e+000 24726 110854,110655,110759
 6.9000e+000 110785  1.2617e-001 -1.0043e+001  8.7755e-001 24726 110655,110707,110681
 6.9000e+000 110880 -2.7812e-001 -8.8995e+000  7.2254e-001 24726 110733,110707,110854
 6.9000e+000 110903 -3.5592e-001 -9.5341e+000  1.5013e+000 24726 110733,110854,110759
 6.9000e+000 111234  6.1621e-002 -5.0230e+000 -1.0931e+000 24222 111257,111087,111035
 6.9000e+000 111211  1.5657e-001 -4.9465e+000  7.3934e-001 24222 111257,111035,111009
 6.9000e+000 111188 -1.8303e+000  2.8274e+000 -4.3833e+000 24222 111035,111087,111061
 6.9000e+000 111165 -6.9731e-001 -2.7280e+000 -1.3273e+000 24222 111087,111139,111113
 6.9000e+000 111283 -3.5086e-001 -3.4625e+000 -7.0707e-001 24222 111139,111087,111257
 6.9000e+000 111306 -2.1692e-001 -2.0917e+000  4.8443e-001 24222 111139,111257,111009
 6.9000e+000 111625  2.9858e+000 -3.4735e+000  7.2187e-001 23732 111648,111481,111455
 6.9000e+000 111602  4.7447e+000 -3.1387e+000 -2.9280e-001 23732 111648,111455,111377
 6.9000e+000 111579  9.9842e+000  5.9364e+000  1.7905e+000 23732 111377,111429,111403
 6.9000e+000 111556  7.1293e+000 -1.7263e+000 -8.9244e-001 23732 111377,111455,111429
 6.9000e+000 111533  7.5163e+000 -1.8432e+000 -2.6331e-001 23732 111351,111507,111377
 6.9000e+000 111674  5.6927e+000 -3.1711e+000  5.2961e-001 23732 111507,111481,111648
 6.9000e+000 111697  5.9223e+000 -3.1894e+000 -8.7054e-001 23732 111507,111648,111377
 6.9000e+000 112156 -2.4771e+000 -1.1413e+001  9.8212e-001 23278 112179,111908,111882
 6.9000e+000 112133 -2.3920e+000 -1.0594e+001  4.2172e-001 23278 112179,111882,112012
 6.9000e+000 112110  1.7764e-001 -1.2224e+001  5.3597e-002 23278 111908,111960,111934
 6.9000e+000 112087 -6.9296e-001 -8.9856e+000 -2.8250e-001 23278 111882,112038,112012
 6.9000e+000 112064 -1.7005e+000 -9.4119e+000 -1.1593e-001 23278 111960,112012,111986
 6.9000e+000 112205 -2.2357e+000 -1.0980e+001  3.1452e-001 23278 111960,111908,112179
 6.9000e+000 112228 -1.8049e+000 -1.0007e+001 -3.0636e-001 23278 111960,112179,112012
 6.9000e+000 112685 -4.1861e+000 -1.4812e+001 -1.1852e+000 22938 112489,112567,112541
 6.9000e+000 112662 -1.1467e+000 -7.7857e+000 -8.5573e-001 22938 112437,112567,112489
 6.9000e+000 112639 -6.6164e+000 -1.3938e+001 -1.6414e+000 22938 112489,112541,112515
 6.9000e+000 112616 -1.6123e+000 -5.8183e+000 -1.9526e-001 22938 112411,112567,112437
 6.9000e+000 112593 -1.2359e+000 -1.2495e+001  4.4598e-001 22938 112437,112489,112463
 6.9000e+000 113191  1.8332e+000 -1.3572e+001 -3.6141e+000 22534 113214,112998,112946
 6.9000e+000 113168 -1.8535e+000 -1.1799e+001 -2.0430e+000 22534 113286,113214,112946
 6.9000e+000 113145 -6.9410e-001 -1.2098e+001 -1.5855e+000 22534 113286,112946,112920
 6.9000e+000 113122 -6.5377e+000 -9.3627e+000 -4.5516e+000 22534 113358,113024,112998
 6.9000e+000 113099 -3.0671e+000 -1.0402e+001 -1.0778e+000 22534 112868,113050,112894
 6.9000e+000 113076 -1.6328e+000 -1.9084e+001 -5.1799e+000 22534 112946,112998,112972
 6.9000e+000 113240 -4.1935e+000 -1.4550e+001 -4.7394e+000 22534 113358,112998,113214
 6.9000e+000 113263 -3.3153e+000 -1.1937e+001 -1.3635e+000 22534 113050,113214,112894
 6.9000e+000 113312 -6.4613e-001 -1.0765e+001 -1.5954e+000 22534 112894,113214,113286
 6.9000e+000 113335  3.0113e-001 -1.1434e+001 -1.2911e+000 22534 112894,113286,112920
 6.9000e+000 113384 -3.9721e+000 -4.1888e+000 -3.5607e+000 22534 113050,113024,113358
 6.9000e+000 113407 -7.0192e-001 -8.6626e+000 -3.1364e+000 22534 113050,113358,113214
 6.9000e+000 113785 -2.2905e+000 -1.4521e+001  1.4368e+000 21978 113808,113615,113511
 6.9000e+000 113762 -1.9574e+000 -1.5933e+001  3.2025e+000 21978 113808,113511,113667
 6.9000e+000 113739  4.8517e+000 -9.5735e+000 -1.3271e+000 21978 113511,113615,113537
 6.9000e+000 113716  7.0726e+000 -8.6801e+000 -1.2380e+000 21978 113537,113615,113589
 6.9000e+000 113693  3.6104e+000 -1.3355e+001  2.9509e-001 21978 113537,113589,113563
 6.9000e+000 113834 -1.7602e+000 -1.3250e+001  1.5117e+000 21978 113641,113615,113808
 6.9000e+000 113857 -6.0118e-001 -1.3053e+001  3.5713e+000 21978 113641,113808,113667
 6.9000e+000 114284 -1.5451e+000 -1.0913e+001  7.1563e-001 21517 114013,114117,114039
 6.9000e+000 114261 -2.7980e+000 -1.1223e+001  1.2218e+000 21517 113961,114117,114013
 6.9000e+000 114238 -1.1579e+000 -9.6838e+000  1.8730e+000 21517 113961,114013,113987
 6.9000e+000 114215 -5.2510e+000 -1.3341e+001 -1.0673e+000 21517 114039,114117,114091
 6.9000e+000 114192 -3.2259e+000 -9.5316e+000  1.5861e+000 21517 113961,114143,114117
 6.9000e+000 114169  2.5257e-001 -1.1576e+001 -1.3097e+000 21517 114039,114091,114065
 6.9000e+000 114581  5.9242e+000 -8.7629e+000  2.0304e-001 21027 114359,114463,114437
 6.9000e+000 114558  7.8102e+000 -6.9808e+000  1.9981e+000 21027 114333,114463,114359
 6.9000e+000 114535  8.1506e+000 -6.0634e+000 -7.7644e-001 21027 114359,114437,114385
 6.9000e+000 114512  4.8926e+000 -8.3669e+000  1.6365e+000 21027 114307,114463,114333
 6.9000e+000 114489  1.4017e+001 -6.2054e+000 -2.5010e-001 21027 114385,114437,114411
 6.9000e+000 114912 -2.5307e+000 -1.0136e+001  7.6641e-001 20623 114713,114791,114765
 6.9000e+000 114889 -1.9621e+000 -9.9322e+000 -1.0206e+000 20623 114687,114791,114713
 6.9000e+000 114866  9.8236e-001 -1.0564e+001 -1.6855e+000 20623 114687,114817,114791
 6.9000e+000 114843 -6.2200e+000 -1.4235e+001  2.3503e+000 20623 114713,114765,114739
 6.9000e+000 115290 -8.0097e-001 -1.0364e+001  8.2100e-001 20375 115313,115146,115094
 6.9000e+000 115267 -1.7467e+000 -9.4997e+000  1.3498e+000 20375 115313,115094,115042
 6.9000e+000 115244 -2.3031e+000 -9.4322e+000  3.8256e-001 20375 115385,115016,115172
 6.9000e+000 115221 -7.6310e-001 -8.7699e+000  9.2930e-001 20375 115042,115094,115068
 6.9000e+000 115198 -1.9476e+000 -1.2268e+001 -2.5591e-002 20375 115094,115146,115120
 6.9000e+000 115339 -2.9158e+000 -1.2950e+001 -5.2420e-001 20375 115172,115146,115313
 6.9000e+000 115362 -1.0257e+000 -9.7534e+000  4.5307e-001 20375 115385,115172,115313
 6.9000e+000 115411 -3.0323e+000 -9.7888e+000  4.9432e-001 20375 115042,115016,115385
 6.9000e+000 115434 -2.4109e+000 -1.0538e+001  7.6579e-001 20375 115042,115385,115313
 6.9000e+000 115891 -9.1760e+000 -1.7046e+001  3.8876e+000 19971 115617,115747,115643
 6.9000e+000 115868 -7.1503e+000 -1.2832e+001  4.7877e+000 19971 115617,115773,115747
 6.9000e+000 115845 -7.0943e+000 -2.7728e+001  9.4693e-001 19971 115643,115721,115695
 6.9000e+000 115822 -3.1840e-001 -1.0349e+001  9.1633e-001 19971 115643,115747,115721
 6.9000e+000 115799 -5.2197e+000 -3.7239e+001 -3.7028e+000 19971 115643,115695,115669
 6.9000e+000 115992 -8.5796e+000 -1.9979e+001 -3.9274e+000 19659 115914,115966,115940
 6.9000e+000 116142 -6.1690e+000 -8.0946e+000  5.4209e-001 18997 116041,116093,116067
 6.9000e+000 116119 -7.8012e+000 -1.1593e+001 -2.2708e-002 18997 116015,116093,116041
 6.9000e+000 116343 -3.3832e+000 -1.5508e+001  2.1518e-002 18707 116193,116245,116219
 6.9000e+000 116320 -8.7304e+000 -1.8011e+001 -6.5383e-001 18707 116193,116271,116245
 6.9000e+000 116297 -9.7852e+000 -1.8341e+001 -2.8014e+000 18707 116167,116271,116193
 6.9000e+000 116747 -1.3027e+000 -1.2630e+001 -3.4282e-001 18301 116525,116629,116551
 6.9000e+000 116724 -8.2253e-001 -1.1022e+001  2.6647e-002 18301 116473,116629,116525
 6.9000e+000 116701 -7.6893e-002 -9.8273e+000 -6.7302e-001 18301 116473,116525,116499
 6.9000e+000 116678 -7.5886e-001 -1.3868e+001 -1.9257e-001 18301 116551,116603,116577
 6.9000e+000 116655 -2.2384e+000 -1.4826e+001 -6.2957e-001 18301 116551,116629,116603
 6.9000e+000 117147 -1.7986e+000 -9.5013e+000  1.4188e+000 17747 116899,117029,116925
 6.9000e+000 117124 -1.1839e+000 -8.5734e+000  1.7678e+000 17747 116873,117029,116899
 6.9000e+000 117101 -1.0141e+000 -7.9289e+000  1.7296e+000 17747 116925,117029,116951
 6.9000e+000 117078  2.8267e+000  2.2114e+000  2.1528e+000 17747 116951,117029,117003
 6.9000e+000 117055 -5.3783e+000 -1.1350e+001 -1.8670e+000 17747 116951,117003,116977
 6.9000e+000 117368  5.0961e+000 -1.4934e+001  9.9016e-001 17293 117244,117296,117270
 6.9000e+000 117345  1.0576e+000 -1.6535e+001 -2.1172e-001 17293 117192,117296,117244
 6.9000e+000 117322 -1.9508e+000 -1.4653e+001 -1.5549e-001 17293 117192,117244,117218
 6.9000e+000 117699 -4.3424e+000 -1.3290e+001 -2.8362e-001 16896 117526,117604,117552
 6.9000e+000 117676 -9.8471e+000 -2.0401e+001  2.2997e+000 16896 117500,117604,117526
 6.9000e+000 117653 -7.5563e+000 -1.4990e+001  3.7135e-001 16896 117552,117604,117578
 6.9000e+000 117630 -1.2276e+001 -3.0022e+001  1.7682e+000 16896 117474,117604,117500
 6.9000e+000 117849 -1.5329e+001 -3.0596e+001 -1.0514e+000 16534 117722,117774,117748
 6.9000e+000 117826 -1.1762e+001 -3.6194e+001 -4.9544e+000 16534 117722,117800,117774
 6.9000e+000 118070  1.7167e+000 -1.3466e+001  1.8104e+000 16194 117946,117998,117972
 6.9000e+000 118047 -7.7814e-001 -1.5071e+001  6.1032e-001 16194 117894,117998,117946
 6.9000e+000 118024 -7.9870e+000 -1.5910e+001 -2.7961e-002 16194 117894,117946,117920
 6.9000e+000 118173  8.2104e+000 -4.5991e+000  0.0000e+000 15968 118095,118147,118121
 6.9000e+000 118276 -7.7804e-001 -1.3638e+001  2.2459e-001 15433 118299,118198,118250
 6.9000e+000 118325 -6.9030e-001 -1.3433e+001  2.2269e-001 15433 118224,118198,118299
 6.9000e+000 118450 -6.9061e+000 -1.3576e+001  4.9275e-001 421 118372,118424,118398
 7.0000e+000 69891 -2.3367e+000  1.1476e+001 -1.6976e-001 68988 69447,69681,69629
 7.0000e+000 69868 -8.6685e+000  7.7705e+000 -6.4869e-001 68988 69421,69681,69447
 7.0000e+000 69845 -3.8618e+000  5.2965e+000 -1.9682e-001 68988 69447,69629,69577
 7.0000e+000 69822  4.2253e-001  1.1650e+001  1.6639e+000 68988 69447,69577,69473
 7.0000e+000 69799 -6.9698e+000  1.2481e+001 -4.3702e+000 68988 69629,69681,69655
 7.0000e+000 69776 -1.0026e+000  6.3149e+000  9.1137e-001 68988 69577,69629,69603
 7.0000e+000 69753 -1.5222e+000  1.2491e+001  4.7352e+000 68988 69473,69577,69551
 7.0000e+000 69730 -9.7448e-002  3.1130e+001  5.0376e+000 68988 69473,69551,69525
 7.0000e+000 69707 -4.1787e+000  1.6874e+001  1.5014e-001 68988 69473,69525,69499
 7.0000e+000 69992 -1.3353e+000  8.8864e+000  2.7980e+000 68676 69914,69966,69940
 7.0000e+000 70392 -1.9386e+001 -1.3795e+001  3.7400e+000 68478 70118,70248,70144
 7.0000e+000 70369 -1.8375e+001 -1.9983e+001  3.3332e+000 68478 70118,70274,70248
 7.0000e+000 70346 -8.2417e+000 -6.6066e+000  8.1536e-001 68478 70144,70222,70196
 7.0000e+000 70323 -6.7772e+000 -2.3078e+000 -1.3183e+000 68478 70144,70248,70222
 7.0000e+000 70300 -5.6628e+000 -6.0327e+000  1.8202e+000 68478 70144,70196,70170
 7.0000e+000 70841  1.7486e-001 -7.8566e+000 -2.2507e+000 68280 70570,70622,70596
 7.0000e+000 70818 -8.4993e+000 -9.4352e+000  2.0631e-001 68280 70544,70622,70570
 7.0000e+000 70795 -8.3094e+000 -8.5345e+000 -3.7678e-002 68280 70544,70674,70622
 7.0000e+000 70772 -9.0309e+000 -6.9815e+000  1.0656e+000 68280 70622,70674,70648
 7.0000e+000 70749 -1.0322e+001 -1.0928e+001  8.7064e-001 68280 70518,70674,70544
 7.0000e+000 70726 -8.5660e+000 -1.2863e+001  1.2084e+000 68280 70518,70700,70674
 7.0000e+000 70991 -1.1863e+000 -3.7407e+001  1.6090e+000 67968 70864,70916,70890
 7.0000e+000 70968 -1.3919e+001 -3.5727e+001  7.3065e+000 67968 70864,70942,70916
 7.0000e+000 71141 -1.9131e+001 -3.4790e+001  1.1072e+000 67770 71040,71092,71066
 7.0000e+000 71118 -1.8546e+001 -4.6450e+001  6.5887e+000 67770 71014,71092,71040
 7.0000e+000 71651 -8.2593e+000 -1.0355e+001 -8.3064e-001 67366 71746,71674,71458
 7.0000e+000 71628 -5.5579e+000 -2.7095e+000 -3.8990e+000 67366 71674,71354,71510
 7.0000e+000 71605 -9.0653e+000 -1.3078e+001 -1.7623e-001 67366 71746,71458,71432
 7.0000e+000 71582 -1.2119e+001 -1.1300e+001  1.6648e+000 67366 71354,71432,71380
 7.0000e+000 71559 -1.0390e+001 -7.7108e+000 -1.1842e-002 67366 71380,71432,71406
 7.0000e+000 71536 -1.1270e+001 -3.7651e+000 -4.5974e+000 67366 71328,71510,71354
 7.0000e+000 71700 -8.1093e+000 -8.2573e+000 -4.2404e-002 67366 71484,71458,71674
 7.0000e+000 71723 -8.6228e+000 -8.8585e+000 -1.3885e+000 67366 71484,71674,71510
 7.0000e+000 71772 -9.3368e+000 -7.0864e+000 -1.0627e+000 67366 71354,71674,71746
 7.0000e+000 71795 -9.1672e+000 -8.8504e+000 -9.3684e-001 67366 71354,71746,71432
 7.0000e+000 71896 -5.0780e+000  1.6310e+001  0.0000e+000 67146 71818,71870,71844
 7.0000e+000 71997 -4.1639e+001  2.4653e+001 -1.0006e+001 66948 71919,71971,71945
 7.0000e+000 72149 -8.7921e+000 -8.5878e-001  2.1204e-001 66700 72172,72074,72048
 7.0000e+000 72126 -7.9901e+000 -6.5506e-001  5.6340e-002 66700 72172,72048,72022
 7.0000e+000 72198 -6.7117e+000  2.1891e+000 -1.6695e+000 66700 72244,72172,72100
 7.0000e+000 72221 -1.1774e+001 -4.9758e-001 -4.5214e-001 66700 72100,72172,72022
 7.0000e+000 72270 -8.2804e+000 -1.1201e+000  2.4372e-001 66700 72074,72172,72244
 7.0000e+000 72623 -1.0790e+001 -2.6314e+000 -2.1376e-001 66502 72424,72502,72450
 7.0000e+000 72600 -1.0828e+001 -3.5032e+000  3.2785e-001 66502 72398,72502,72424
 7.0000e+000 72577 -8.6469e+000 -2.0721e+000  9.7417e-001 66502 72398,72528,72502
 7.0000e+000 72554 -1.4520e+001 -3.2067e+000  3.7415e-001 66502 72450,72502,72476
 7.0000e+000 72920 -9.4958e+000 -1.2482e+001  2.0534e-001 65941 72672,72776,72750
 7.0000e+000 72897 -8.6607e+000 -1.1050e+001  8.8561e-001 65941 72646,72776,72672
 7.0000e+000 72874 -9.7752e+000 -1.3051e+001  8.5550e-001 65941 72672,72750,72724
 7.0000e+000 72851 -9.8104e+000 -1.2469e+001  9.6580e-001 65941 72672,72724,72698
 7.0000e+000 72828 -6.4690e+000 -1.3070e+001  1.4954e+000 65941 72646,72802,72776
 7.0000e+000 73241 -1.5286e+001 -6.4778e+000 -1.9295e+000 65743 73264,73071,73045
 7.0000e+000 73218 -1.1153e+001 -6.5047e+000 -1.6702e-002 65743 73480,73264,73045
 7.0000e+000 73195 -9.3670e+000 -3.8401e+000  1.9385e-001 65743 73336,72967,73097
 7.0000e+000 73172 -8.1130e+000 -4.7284e+000  1.7681e+000 65743 73408,72993,72967
 7.0000e+000 73149 -8.9331e+000 -4.6458e+000 -1.5993e-001 65743 72967,73123,73097
 7.0000e+000 73290 -1.1712e+001 -4.8074e+000 -6.2825e-002 65743 73097,73071,73264
 7.0000e+000 73313 -1.0673e+001 -5.9695e+000 -6.4539e-001 65743 73336,73097,73264
 7.0000e+000 73362 -8.3545e+000 -4.3931e+000  1.6672e+000 65743 73408,72967,73336
 7.0000e+000 73385 -9.5985e+000 -5.1498e+000  1.2232e+000 65743 73019,73336,73264
 7.0000e+000 73434 -8.1698e+000 -4.2500e+000  9.5827e-001 65743 73019,72993,73408
 7.0000e+000 73457 -9.3829e+000 -4.4104e+000  1.2510e+000 65743 73019,73408,73336
 7.0000e+000 73506 -1.1234e+001 -5.8648e+000  1.7967e-001 65743 73019,73264,73480
 7.0000e+000 73989 -6.5101e+000 -9.5641e+000  2.3300e-001 65453 73793,73845,73819
 7.0000e+000 73966 -9.2885e+000 -9.8655e+000  7.1740e-001 65453 73741,73845,73793
 7.0000e+000 73943 -7.5935e+000 -8.4214e+000 -5.2074e-002 65453 73715,73845,73741
 7.0000e+000 73920 -9.0105e+000 -1.0678e+001  1.0635e+000 65453 73741,73793,73767
 7.0000e+000 73897 -4.7016e+000 -5.3660e+000 -1.9074e+000 65453 73715,73871,73845
 7.0000e+000 74357 -7.6354e+000  7.7623e-001  9.8475e-001 65141 74380,74138,74086
 7.0000e+000 74334 -7.5593e+000  2.4342e+000  1.4221e+000 65141 74380,74086,74060
 7.0000e+000 74311 -7.9694e+000  2.1167e+000  8.9873e-003 65141 74138,74190,74164
 7.0000e+000 74288 -1.0197e+001  3.6228e+000  7.6682e-001 65141 74060,74216,74190
 7.0000e+000 74265 -9.3014e+000  6.0476e+000 -1.8977e-001 65141 74034,74216,74060
 7.0000e+000 74242 -1.1792e+001 -3.3398e+000 -2.5489e-001 65141 74086,74138,74112
 7.0000e+000 74406 -8.4495e+000  1.9375e+000  2.2606e-001 65141 74190,74138,74380
 7.0000e+000 74429 -8.2479e+000  2.6476e+000  6.6404e-001 65141 74190,74380,74060
 7.0000e+000 74937 -3.4045e+000  3.5709e+000  2.6895e-001 64737 74614,74666,74640
 7.0000e+000 74914 -4.1248e+000  2.1140e+000  7.2343e-001 64737 74614,74796,74666
 7.0000e+000 74891 -6.1792e+000 -2.5014e-002 -7.1832e-001 64737 74960,74718,74666
 7.0000e+000 74868 -6.2450e+000 -1.7879e-001 -8.2818e-001 64737 74960,74666,74770
 7.0000e+000 74845 -5.7890e+000 -1.2207e+000 -6.1001e-001 64737 74666,74796,74770
 7.0000e+000 74822 -8.2052e+000  1.2580e-001 -1.0707e+000 64737 74666,74718,74692
 7.0000e+000 74986 -6.2161e+000 -1.8410e-001 -7.4807e-001 64737 74744,74718,74960
 7.0000e+000 75009 -6.3323e+000 -4.0246e-001 -8.7069e-001 64737 74744,74960,74770
 7.0000e+000 75306 -6.6349e+000 -4.6559e+000  2.8772e+000 64133 75329,75110,75084
 7.0000e+000 75283 -8.1877e+000 -8.1209e+000  9.2334e-001 64133 75401,75329,75084
 7.0000e+000 75260 -8.1941e+000 -6.1955e+000  6.7892e-001 64133 75401,75084,75058
 7.0000e+000 75237 -7.5316e+000 -1.1838e+001  3.3079e+000 64133 75473,75136,75110
 7.0000e+000 75214 -4.7419e+000 -9.3625e+000 -1.6828e-001 64133 75032,75188,75162
 7.0000e+000 75355 -8.8219e+000 -9.8743e+000  2.4068e+000 64133 75473,75110,75329
 7.0000e+000 75378 -7.4248e+000 -8.3422e+000 -7.2962e-003 64133 75162,75329,75032
 7.0000e+000 75427 -6.7059e+000 -6.7712e+000  3.5409e-001 64133 75032,75329,75401
 7.0000e+000 75450 -7.5219e+000 -5.5157e+000 -8.5912e-002 64133 75545,75401,75058
 7.0000e+000 75499 -5.3981e+000 -9.5445e+000  1.6374e+000 64133 75162,75136,75473
 7.0000e+000 75522 -7.1018e+000 -6.9810e+000  1.1106e+000 64133 75162,75473,75329
 7.0000e+000 75571 -8.3820e+000 -7.6215e+000 -2.6590e-001 64133 75032,75401,75545
 7.0000e+000 75851 -9.7002e+000 -3.9696e+000 -8.9651e-001 63843 75874,75753,75727
 7.0000e+000 75828 -9.6062e+000 -2.7763e+000 -3.6450e-001 63843 75946,75874,75727
 7.0000e+000 75805 -9.2372e+000 -3.3990e+000 -7.8787e-002 63843 76018,75946,75727
 7.0000e+000 75900 -1.1696e+001 -4.8474e+000 -2.6489e+000 63843 75779,75753,75874
 7.0000e+000 75923 -9.8464e+000 -3.0414e+000 -1.1774e+000 63843 75779,75874,75675
 7.0000e+000 75972 -8.3210e+000 -3.6020e+000 -4.6876e-001 63843 75675,75874,75946
 7.0000e+000 75995 -7.9691e+000 -1.9581e+000 -4.5635e-001 63843 75675,75946,75701
 7.0000e+000 76044 -7.5232e+000  1.9717e-002  8.3378e-001 63843 75701,75946,76018
 7.0000e+000 76454 -9.9484e+000 -2.3976e+000  3.0797e+000 63439 76477,76255,76229
 7.0000e+000 76431 -7.4459e+000  1.6901e+000  1.3754e+000 63439 76477,76229,76359
 7.0000e+000 76408 -6.5132e+000  3.2661e-001 -1.5610e+000 63439 76307,76359,76333
 7.0000e+000 76385 -4.3063e+000 -1.4784e+000 -1.6618e+000 63439 76255,76307,76281
 7.0000e+000 76503 -7.2069e+000  8.6741e-001  6.5477e-001 63439 76307,76255,76477
 7.0000e+000 76526 -7.3672e+000  2.4098e+000 -5.8824e-001 63439 76307,76477,76359
 7.0000e+000 76926 -2.1910e+000  7.1456e+000  1.1685e-001 63049 76704,76782,76756
 7.0000e+000 76903  4.1132e-001  8.0155e+000  1.0491e+000 63049 76704,76808,76782
 7.0000e+000 76880 -2.3655e+000  9.9303e+000 -4.1719e-001 63049 76704,76756,76730
 7.0000e+000 76857 -4.5962e+000  1.6208e+000 -1.5452e+000 63049 76678,76808,76704
 7.0000e+000 76834 -6.9634e+000 -2.1410e+000 -6.4326e-002 63049 76652,76808,76678
 7.0000e+000 77076 -6.2046e+000 -1.1665e+001 -3.6935e-001 62737 76975,77027,77001
 7.0000e+000 77053 -5.4028e+000 -1.1257e+001 -2.0440e-001 62737 76949,77027,76975
 7.0000e+000 77324 -7.2674e+000 -4.4453e+000  3.1436e-001 62277 77347,77177,77125
 7.0000e+000 77301 -8.5100e+000 -4.6199e+000 -1.7184e-001 62277 77347,77125,77229
 7.0000e+000 77278 -8.7754e+000 -6.2759e+000 -1.1266e+000 62277 77099,77229,77125
 7.0000e+000 77255 -8.8436e+000 -5.5341e+000  9.2795e-001 62277 77125,77177,77151
 7.0000e+000 77373 -7.6336e+000 -4.3734e+000 -7.7445e-001 62277 77203,77177,77347
 7.0000e+000 77396 -9.7871e+000 -4.7449e+000 -1.0323e+000 62277 77203,77347,77229
 7.0000e+000 77857 -8.7113e+000 -1.1501e+001  2.7787e-001 61758 77635,77739,77661
 7.0000e+000 77834 -8.7936e+000 -1.1609e+001  2.3928e-001 61758 77583,77739,77635
 7.0000e+000 77811 -8.5794e+000 -1.3934e+001 -1.4162e+000 61758 77583,77635,77609
 7.0000e+000 77788 -6.5498e+000 -1.2530e+001  6.5446e-002 61758 77661,77713,77687
 7.0000e+000 77765 -7.7591e+000 -1.0760e+001 -5.9701e-001 61758 77661,77739,77713
 7.0000e+000 78491 -3.7573e+000  2.2035e+000 -6.7795e-002 61418 78171,78301,78249
 7.0000e+000 78468 -4.2681e+000  1.2421e+000 -4.4853e-001 61418 78145,78301,78171
 7.0000e+000 78445 -5.7895e+000  8.8175e-001  7.6261e-001 61418 78171,78249,78223
 7.0000e+000 78422 -5.5714e+000  7.2313e-001 -1.4478e+000 61418 78145,78327,78301
 7.0000e+000 78399 -2.9148e+000  2.9619e+000 -1.2440e+000 61418 78249,78301,78275
 7.0000e+000 78376 -7.7042e+000  3.1089e+000  8.7248e-001 61418 78171,78223,78197
 7.0000e+000 78353 -5.3805e+000  4.0595e+000 -6.2512e-001 61418 78119,78327,78145
 7.0000e+000 78690 -5.1785e-001  1.1826e+001  8.0102e-001 61014 78713,78566,78540
 7.0000e+000 78667 -3.4048e-001  1.0550e+001  1.3874e+000 61014 78713,78540,78618
 7.0000e+000 78644  4.0464e+000  1.2607e+001  1.9596e+000 61014 78514,78618,78540
 7.0000e+000 78739 -3.7214e-001  1.1482e+001  9.2095e-001 61014 78592,78566,78713
 7.0000e+000 78762 -9.0422e-002  1.1931e+001  1.5184e+000 61014 78785,78713,78618
 7.0000e+000 78811  3.6858e-001  1.1809e+001  4.0740e-001 61014 78592,78713,78785
 7.0000e+000 79398 -3.7001e+000  6.6868e+000  1.0033e+000 60624 79101,79179,79153
 7.0000e+000 79375 -1.5691e+000  6.5552e+000  1.0210e+000 60624 79101,79231,79179
 7.0000e+000 79352 -6.3122e+000  4.7997e+000  1.1259e+000 60624 79075,79231,79101
 7.0000e+000 79329 -4.3015e+000  7.8899e+000 -9.4326e-001 60624 79075,79257,79231
 7.0000e+000 79306 -1.9910e+000  4.3422e+000  2.5601e+000 60624 79179,79231,79205
 7.0000e+000 79283 -2.5833e+000  9.3066e+000  1.8003e+000 60624 79101,79153,79127
 7.0000e+000 79776 -5.5296e+000 -1.4656e+000 -2.4960e-001 60070 79528,79658,79606
 7.0000e+000 79753 -5.4693e+000 -2.9405e+000  9.8762e-001 60070 79502,79658,79528
 7.0000e+000 79730 -5.5392e+000 -1.2980e+000 -6.2170e-002 60070 79528,79606,79580
 7.0000e+000 79707 -7.8430e+000 -1.8393e+000  1.5789e-001 60070 79606,79658,79632
 7.0000e+000 79684 -4.5724e+000 -3.8995e+000  3.0582e+000 60070 79528,79580,79554
 7.0000e+000 80105 -2.9476e+000  1.0694e+000  5.1017e-001 59758 80128,79958,79906
 7.0000e+000 80082 -4.7545e+000 -2.1759e-001  1.0725e+000 59758 80128,79906,80010
 7.0000e+000 80059 -2.0634e+000  3.7623e+000  8.3854e-001 59758 79906,79958,79932
 7.0000e+000 80036 -7.4937e+000 -1.4221e+000  6.0667e-001 59758 79880,80010,79906
 7.0000e+000 80154 -3.9648e+000  1.9803e+000 -4.5034e-001 59758 79984,79958,80128
 7.0000e+000 80177 -5.1301e+000  1.1320e+000 -6.7378e-002 59758 79984,80128,80010
 7.0000e+000 80376 -5.4184e-001  1.2265e+001 -8.5105e-001 59312 80226,80304,80252
 7.0000e+000 80353  1.6315e-001  1.3851e+001 -4.9393e-001 59312 80200,80304,80226
 7.0000e+000 80330  1.1648e+000  1.4897e+001 -1.8476e+000 59312 80252,80304,80278
 7.0000e+000 80805 -5.9582e+000 -4.1995e+000 -1.1929e+000 58908 80900,80828,80638
 7.0000e+000 80782 -4.5775e+000 -5.3367e+000 -2.2749e+000 58908 80828,80560,80508
 7.0000e+000 80759 -6.5828e+000 -4.2068e+000 -8.6485e-001 58908 80900,80638,80612
 7.0000e+000 80736 -1.6660e+000 -5.2720e+000  7.7502e-001 58908 80482,80664,80508
 7.0000e+000 80713 -9.7599e+000 -5.2236e+000 -1.2934e+000 58908 80560,80612,80586
 7.0000e+000 80690 -5.5008e+000 -2.0418e+001 -4.6915e+000 58908 80508,80560,80534
 7.0000e+000 80854 -2.8601e+000 -4.4226e+000  9.2489e-002 58908 80664,80638,80828
 7.0000e+000 80877 -4.6267e+000 -7.7896e+000 -5.5707e-001 58908 80664,80828,80508
 7.0000e+000 80926 -4.7299e+000 -3.8348e+000 -2.0402e+000 58908 80560,80828,80900
 7.0000e+000 80949 -5.8202e+000 -4.2274e+000 -1.6665e+000 58908 80560,80900,80612
 7.0000e+000 81246 -5.0335e+000 -7.7711e+000 -8.5353e-002 58482 81076,81128,81102
 7.0000e+000 81223 -6.4413e+000 -1.0620e+001 -7.8257e-001 58482 80972,81128,81076
 7.0000e+000 81200 -5.5606e+000 -9.0608e+000 -1.1331e+000 58482 80972,81076,81050
 7.0000e+000 81177 -6.8684e+000 -9.5372e+000 -1.6035e+000 58482 80998,81050,81024
 7.0000e+000 81154 -6.2812e+000 -8.2371e+000 -1.8704e+000 58482 80972,81050,80998
 7.0000e+000 81754 -7.1446e+000 -5.4503e+000 -1.3352e+000 57828 81457,81613,81483
 7.0000e+000 81731 -7.5396e+000 -6.5832e+000 -1.1444e+000 57828 81431,81613,81457
 7.0000e+000 81708 -6.6027e+000 -4.1804e+000 -6.1877e-001 57828 81483,81613,81509
 7.0000e+000 81685 -6.8505e+000 -5.9544e+000 -4.5189e-001 57828 81509,81613,81587
 7.0000e+000 81662 -5.5731e+000 -7.2694e+000  1.0938e+000 57828 81509,81587,81535
 7.0000e+000 81639 -5.7881e+000 -5.0097e+000  8.5566e-001 57828 81535,81587,81561
 7.0000e+000 82002 -9.6279e-001  4.9866e+000  9.2180e-001 57374 82025,81855,81829
 7.0000e+000 81979 -1.6186e+000  4.5657e+000  7.3599e-001 57374 82025,81829,81907
 7.0000e+000 81956  7.1515e-001  6.2738e+000  1.9845e+000 57374 81803,81907,81829
 7.0000e+000 81933 -2.1831e+000  4.2515e+000  1.0552e+000 57374 81777,81907,81803
 7.0000e+000 82051  3.9162e-001  4.5298e+000  4.3094e-001 57374 81881,81855,82025
 7.0000e+000 82074 -1.5391e+000  3.4629e+000 -3.7785e-003 57374 81881,82025,81907
 7.0000e+000 82356 -4.4756e+000 -4.5151e+000  2.8492e-001 56913 82180,82232,82206
 7.0000e+000 82333 -4.6785e+000 -4.5667e+000 -4.8396e-001 56913 82180,82284,82232
 7.0000e+000 82310 -5.0175e+000 -3.9075e+000 -5.0731e-001 56913 82379,82232,82284
 7.0000e+000 82405 -1.3172e+000 -1.7065e+000  9.5761e-001 56913 82258,82232,82379
 7.0000e+000 82764 -5.9546e+000 -5.9971e+000 -2.1353e-001 56523 82614,82666,82640
 7.0000e+000 82741 -4.8537e+000 -4.7110e+000 -7.1162e-001 56523 82614,82692,82666
 7.0000e+000 82718 -2.9725e+000 -3.7220e+000 -3.0758e-001 56523 82588,82692,82614
 7.0000e+000 83368 -6.3724e-001  9.3298e+000  9.5798e-001 55969 82973,83155,83129
 7.0000e+000 83345 -4.4860e-001  8.8860e+000  1.2168e+000 55969 82973,83181,83155
 7.0000e+000 83322 -8.5064e-001  9.1334e+000  1.0413e+000 55969 82973,83129,82999
 7.0000e+000 83299  6.0124e+000  1.3221e+001 -1.5947e+000 55969 83391,83025,82999
 7.0000e+000 83276  2.8599e+000  1.1160e+001 -3.1765e-001 55969 83391,82999,83129
 7.0000e+000 83253 -4.2134e-001  1.0808e+001 -2.4612e-001 55969 83077,83129,83103
 7.0000e+000 83230  1.7438e+000  1.0748e+001  6.5338e-001 55969 83025,83077,83051
 7.0000e+000 83207 -2.3843e+000  8.8104e+000  2.8919e+000 55969 82947,83181,82973
 7.0000e+000 83417  2.7094e+000  1.2834e+001 -3.3372e-001 55969 83077,83025,83391
 7.0000e+000 83440  1.3610e+000  1.2294e+001  6.9601e-001 55969 83077,83391,83129
 7.0000e+000 83946 -1.1379e+001 -1.1715e+001  2.9560e+000 55771 83969,83779,83727
 7.0000e+000 83923 -1.0178e+001 -9.0981e+000  2.5345e+000 55771 83969,83727,83623
 7.0000e+000 83900 -5.7115e+000 -2.7615e+000  4.5387e-001 55771 83623,83727,83649
 7.0000e+000 83877 -6.4127e+000 -2.1781e+001  2.7248e+000 55771 83727,83779,83753
 7.0000e+000 83854 -5.2175e+000 -1.7214e+000 -1.7521e+000 55771 83675,83727,83701
 7.0000e+000 83831 -7.0330e+000 -1.6313e+000 -1.6333e+000 55771 83649,83727,83675
 7.0000e+000 83995 -1.1376e+001 -1.2349e+001 -1.5261e-001 55771 83805,83779,83969
 7.0000e+000 84018 -8.9862e+000 -7.2979e+000 -8.3260e-001 55771 83805,83969,83623
 7.0000e+000 84168 -5.4618e+000 -3.8699e+000 -2.5934e-001 55367 84191,84067,84041
 7.0000e+000 84145 -5.2105e+000 -4.1709e+000 -3.0504e-001 55367 84191,84041,84119
 7.0000e+000 84217 -5.2722e+000 -3.9203e+000 -2.1267e-001 55367 84093,84067,84191
 7.0000e+000 84240 -4.6516e+000 -3.9089e+000 -1.6208e-001 55367 84093,84191,84119
 7.0000e+000 84571 -1.9748e+000  1.4673e+000 -1.2136e+000 54913 84398,84450,84424
 7.0000e+000 84548 -9.0131e-001  2.9364e+000 -4.2549e-001 54913 84372,84450,84398
 7.0000e+000 84525 -2.0258e+000  2.1624e+000  5.0344e-002 54913 84346,84450,84372
 7.0000e+000 84502 -1.7760e+000  2.9146e+000 -7.6221e-002 54913 84346,84476,84450
 7.0000e+000 85126 -3.9884e+000 -8.4703e-001 -1.6374e+000 54402 84858,84936,84910
 7.0000e+000 85103 -4.1143e+000 -8.9961e-001 -1.1968e+000 54402 84806,84936,84858
 7.0000e+000 85080 -1.0777e+000 -1.3601e+000 -1.1778e+000 54402 84780,84936,84806
 7.0000e+000 85057 -3.0541e-001 -1.4542e+000 -4.0971e-001 54402 84806,84858,84832
 7.0000e+000 85034 -3.4109e+000 -2.1200e+000 -1.2782e-001 54402 84780,84962,84936
 7.0000e+000 85011 -1.7169e+000  1.4830e+000 -6.8244e-001 54402 84858,84910,84884
 7.0000e+000 84988 -2.6979e+000 -5.0322e+000  1.5759e+000 54402 84754,84962,84780
 7.0000e+000 85396 -5.7861e+000 -4.8309e+000 -2.3975e-001 53998 85197,85249,85223
 7.0000e+000 85373 -6.1413e+000 -4.8165e+000 -1.9935e-001 53998 85197,85275,85249
 7.0000e+000 85350 -7.4487e+000 -6.2905e+000 -7.5076e-001 53998 85171,85275,85197
 7.0000e+000 85327 -4.2301e+000 -5.3744e+000 -9.9224e-001 53998 85171,85301,85275
 7.0000e+000 85749  5.7245e-002  1.3152e+001  4.3467e-001 53636 85524,85628,85550
 7.0000e+000 85726  3.6282e+000  1.4910e+001 -6.9117e-001 53636 85524,85654,85628
 7.0000e+000 85703 -5.8421e-001  1.4330e+001  3.1251e-001 53636 85550,85602,85576
 7.0000e+000 85680 -1.7543e+000  1.2282e+001  8.2050e-001 53636 85550,85628,85602
 7.0000e+000 86127 -1.3278e+000  6.7323e+000  1.4998e-001 52982 86150,85957,85879
 7.0000e+000 86104  6.8993e-001  7.0972e+000  2.7993e-001 52982 86150,85879,85853
 7.0000e+000 86081 -1.5983e+000  8.7956e+000 -1.4326e+000 52982 85957,86009,85983
 7.0000e+000 86058 -3.9919e-001  7.3023e+000 -1.0818e-001 52982 85879,85957,85931
 7.0000e+000 86035 -1.2751e+000  7.9329e+000  1.2953e+000 52982 85879,85931,85905
 7.0000e+000 86176 -2.3436e+000  7.3909e+000  4.2066e-001 52982 86009,85957,86150
 7.0000e+000 86199 -1.2029e+000  7.0822e+000  5.9150e-001 52982 86009,86150,85853
 7.0000e+000 86398 -4.9675e+000 -6.3306e+000  5.1783e-001 52542 86421,86248,86222
 7.0000e+000 86375 -6.0620e+000 -5.4469e+000 -1.9902e-002 52542 86421,86222,86300
 7.0000e+000 86352 -5.5727e+000 -4.9162e+000 -3.9179e-001 52542 86222,86326,86300
 7.0000e+000 86447 -4.3438e+000 -5.8347e+000  2.1403e-001 52542 86274,86248,86421
 7.0000e+000 86470 -5.0479e+000 -4.6114e+000 -4.2491e-001 52542 86274,86421,86300
 7.0000e+000 86669 -5.2835e+000 -4.1649e+000 -1.0543e+000 52230 86692,86571,86545
 7.0000e+000 86646 -5.5158e+000 -4.7921e+000 -1.3651e+000 52230 86692,86545,86519
 7.0000e+000 86623 -2.7752e+000 -4.4623e+000 -1.9700e-001 52230 86493,86597,86519
 7.0000e+000 86718 -5.1810e+000 -4.0362e+000 -6.4510e-001 52230 86597,86571,86692
 7.0000e+000 86741 -5.1992e+000 -4.5743e+000 -9.1552e-001 52230 86597,86692,86519
 7.0000e+000 87153  5.8842e-001  3.2958e+000  1.0159e+000 51640 86980,87058,87032
 7.0000e+000 87130  2.2000e+000  3.9528e+000  1.3146e+000 51640 86928,87058,86980
 7.0000e+000 87107  2.3413e+000  1.1337e+001  3.9348e+000 51640 86928,86980,86954
 7.0000e+000 87084  1.2453e+000  3.6040e+000  1.7352e+000 51640 86980,87032,87006
 7.0000e+000 87659 -7.8304e-002  3.6210e+000  1.6961e-001 51029 87682,87440,87362
 7.0000e+000 87636  1.5742e+000  3.8124e+000 -6.3142e-001 51029 87682,87362,87336
 7.0000e+000 87613  3.1717e-002  3.4729e+000  1.0364e+000 51029 87440,87518,87466
 7.0000e+000 87590  2.1985e+000  4.9793e+000 -4.5439e-001 51029 87362,87440,87414
 7.0000e+000 87567  2.1789e+000  4.8588e+000 -8.4373e-001 51029 87362,87414,87388
 7.0000e+000 87544 -1.0434e+000  5.4261e+000  1.4904e+000 51029 87466,87518,87492
 7.0000e+000 87708 -4.7529e-001  3.4106e+000  4.5593e-001 51029 87518,87440,87682
 7.0000e+000 87731  1.9503e-001  2.4228e+000 -3.6414e-002 51029 87518,87682,87336
 7.0000e+000 87881 -5.6898e+000 -5.6386e+000 -3.5986e-002 50739 87780,87832,87806
 7.0000e+000 87858 -5.5220e+000 -4.8962e+000 -1.4107e-001 50739 87754,87832,87780
 7.0000e+000 88468 -1.1422e+001 -4.2314e+000  2.6072e+000 50235 88171,88327,88197
 7.0000e+000 88445 -8.7871e+000 -8.6441e+000  3.4283e+000 50235 88145,88327,88171
 7.0000e+000 88422 -6.3366e-001  2.6788e+000 -6.8549e-001 50235 88275,88327,88301
 7.0000e+000 88399 -5.1943e+000  7.3092e-001 -4.9089e-001 50235 88197,88327,88275
 7.0000e+000 88376  8.0656e-001 -3.4324e+000  3.7425e-001 50235 88197,88275,88223
 7.0000e+000 88353 -6.7281e-001  1.5780e-001  3.5151e+000 50235 88223,88275,88249
 7.0000e+000 88895 -4.1715e+000 -3.5951e+000  2.5706e-001 49873 88918,88728,88676
 7.0000e+000 88872 -4.0445e+000 -3.8384e+000  2.9709e-002 49873 88918,88676,88624
 7.0000e+000 88849 -4.3148e+000 -2.4634e+000 -4.6043e-002 49873 88598,88754,88624
 7.0000e+000 88826 -4.3485e+000 -3.9833e+000  6.8534e-002 49873 88624,88676,88650
 7.0000e+000 88803 -3.5410e+000 -5.3390e+000  3.7297e-001 49873 88676,88728,88702
 7.0000e+000 88780 -3.8813e+000 -1.1055e+000  7.0917e-001 49873 88572,88754,88598
 7.0000e+000 88944 -3.9452e+000 -3.4164e+000  4.2864e-001 49873 88754,88728,88918
 7.0000e+000 88967 -3.9278e+000 -3.6237e+000  1.7347e-001 49873 88754,88918,88624
 7.0000e+000 89473 -7.9544e+000 -2.8937e+000 -1.3827e+000 49583 89176,89306,89202
 7.0000e+000 89450 -2.6131e+000 -1.8147e+000  1.2836e+000 49583 89176,89332,89306
 7.0000e+000 89427 -5.2590e-002  8.0095e-001  4.0077e-001 49583 89496,89228,89202
 7.0000e+000 89404 -3.4582e-001  1.0405e+000  3.1778e-001 49583 89496,89202,89280
 7.0000e+000 89381 -4.2403e+000 -8.0019e-001 -2.9447e-001 49583 89202,89306,89280
 7.0000e+000 89358 -2.1271e+000 -2.3607e+000  8.7342e-001 49583 89150,89332,89176
 7.0000e+000 89522 -5.4935e-001 -4.4889e-001  2.8877e-001 49583 89254,89228,89496
 7.0000e+000 89545 -1.9339e-001  7.8004e-001  2.9486e-001 49583 89254,89496,89280
 7.0000e+000 89825  1.4794e-001 -1.1746e+000 -1.5267e+000 49179 89701,89753,89727
 7.0000e+000 89802 -2.3419e+000 -1.6780e+000 -9.8214e-001 49179 89675,89753,89701
 7.0000e+000 89779 -2.7084e+000 -2.6883e+000 -7.4566e-001 49179 89848,89753,89675
 7.0000e+000 89874 -7.1593e+000 -3.3566e+000 -1.8251e+000 49179 89649,89753,89848
 7.0000e+000 90223  4.4314e+000  1.1970e+001 -1.3517e+000 48739 90024,90102,90076
 7.0000e+000 90200  3.6102e+000  1.1563e+001 -1.4898e+000 48739 90024,90128,90102
 7.0000e+000 90177  6.0477e+000  1.2775e+001 -1.6922e+000 48739 90024,90076,90050
 7.0000e+000 90154  3.0286e+000  1.1387e+001 -1.7863e+000 48739 89998,90128,90024
 7.0000e+000 90603  1.2958e+000  6.6013e+000 -5.8222e-001 48335 90381,90485,90459
 7.0000e+000 90580  4.0931e+000  9.9744e+000  8.7795e-001 48335 90355,90485,90381
 7.0000e+000 90557 -2.4461e-001  7.9080e+000  5.0260e-003 48335 90381,90433,90407
 7.0000e+000 90534  4.5923e-002  6.5310e+000 -1.3382e-001 48335 90381,90459,90433
 7.0000e+000 90511  2.4886e+000  6.9460e+000 -1.9779e+000 48335 90329,90485,90355
 7.0000e+000 90753 -1.6462e+000  3.3711e+000 -2.1481e+000 47824 90776,90652,90704
 7.0000e+000 90730  1.3926e+000  7.5939e+000 -2.0514e-002 47824 90626,90704,90652
 7.0000e+000 90802  3.2502e-001  6.1197e+000 -1.0752e+000 47824 90678,90652,90776
 7.0000e+000 91131 -5.3571e+000 -5.7120e+000 -1.1658e-001 47427 91154,90958,90906
 7.0000e+000 91108 -5.9269e+000 -5.9474e+000 -2.1170e-001 47427 91154,90906,91036
 7.0000e+000 91085 -5.8292e+000 -4.8800e+000 -2.8288e-001 47427 90958,91010,90984
 7.0000e+000 91062 -6.5227e+000 -5.5139e+000  6.0729e-001 47427 90906,90958,90932
 7.0000e+000 91180 -5.6954e+000 -5.6981e+000 -4.9417e-001 47427 91010,90958,91154
 7.0000e+000 91203 -6.2406e+000 -5.9338e+000 -5.9796e-001 47427 91010,91154,91036
 7.0000e+000 91583  2.2267e-001  7.1075e+000 -3.7519e-001 46873 91309,91439,91335
 7.0000e+000 91560  2.1828e+000  1.2451e+001 -1.4800e+000 46873 91309,91465,91439
 7.0000e+000 91537  4.0221e+000  1.1477e+001 -2.1044e+000 46873 91361,91439,91413
 7.0000e+000 91514  4.5727e+000  8.8614e+000 -1.0049e+000 46873 91335,91439,91361
 7.0000e+000 91491  2.1430e+000  1.2215e+001 -1.1465e+000 46873 91361,91413,91387
 7.0000e+000 91880 -4.6453e+000 -4.6461e+000 -8.9085e-001 46526 91606,91710,91658
 7.0000e+000 91857 -5.4217e+000 -6.0693e+000 -3.0175e-002 46526 91606,91762,91710
 7.0000e+000 91834 -4.9901e+000 -4.9179e+000 -6.7566e-001 46526 91606,91658,91632
 7.0000e+000 91811 -6.4331e+000 -4.0971e+000 -4.6600e-001 46526 91658,91710,91684
 7.0000e+000 91788 -4.8607e+000 -5.5565e+000 -5.9595e-001 46526 91710,91762,91736
 7.0000e+000 92211  2.1717e+000  8.1895e+000 -3.4689e-001 45700 91986,92064,92038
 7.0000e+000 92188  2.9236e+000  5.5687e+000 -3.6700e-001 45700 91986,92116,92064
 7.0000e+000 92165  2.1833e+000  8.6444e+000  2.1660e-001 45700 91986,92038,92012
 7.0000e+000 92142  2.5446e+000  6.7499e+000 -9.6198e-001 45700 92064,92116,92090
 7.0000e+000 92766  1.3198e+000  2.4674e+000  2.3151e+000 45452 92446,92602,92576
 7.0000e+000 92743  2.4936e-001  1.0892e+000  1.8277e+000 45452 92420,92602,92446
 7.0000e+000 92720 -4.0178e+000 -4.4121e+000  9.0369e-001 45452 92789,92524,92498
 7.0000e+000 92697 -2.9317e+000 -1.8189e+000  1.4713e+000 45452 92789,92498,92446
 7.0000e+000 92674 -4.7677e+000 -1.3478e+000 -1.1184e+000 45452 92524,92576,92550
 7.0000e+000 92651 -4.6084e+000 -5.2468e+000  1.9814e+000 45452 92446,92498,92472
 7.0000e+000 92628  2.4080e+000  3.0551e+000  2.8295e+000 45452 92394,92602,92420
 7.0000e+000 92815 -4.5275e+000 -1.7526e+000  1.0057e+000 45452 92576,92524,92789
 7.0000e+000 92838 -4.3243e+000 -2.2722e-001  1.2440e+000 45452 92576,92789,92446
 7.0000e+000 92939 -6.2471e+000 -4.1964e+000  3.2070e-002 44998 92861,92913,92887
 7.0000e+000 93319 -1.1532e+000 -1.7672e+000 -7.8940e-001 44601 93123,93201,93149
 7.0000e+000 93296 -1.5383e+000 -2.7910e+000 -7.9688e-001 44601 93045,93201,93123
 7.0000e+000 93273 -3.4360e-001 -4.5069e-001 -1.3436e+000 44601 93045,93123,93071
 7.0000e+000 93250 -5.9637e-002  4.8349e-001 -1.3621e-001 44601 93071,93123,93097
 7.0000e+000 93227 -1.9556e+000 -1.6263e+000 -3.3569e-001 44601 93149,93201,93175
 7.0000e+000 93697 -2.7564e+000 -6.2794e+000  3.3306e-002 44026 93720,93553,93527
 7.0000e+000 93674 -3.1178e+000 -4.8664e+000  3.6389e-001 44026 93720,93527,93449
 7.0000e+000 93651 -2.5325e+000 -3.3400e+000  1.6655e-001 44026 93449,93527,93501
 7.0000e+000 93628 -2.3956e+000 -2.7676e+000 -1.8484e-001 44026 93423,93579,93449
 7.0000e+000 93605 -1.4912e+000 -3.0862e+000  2.4294e-001 44026 93449,93501,93475
 7.0000e+000 93746 -3.0399e+000 -4.8689e+000 -1.2277e-001 44026 93579,93553,93720
 7.0000e+000 93769 -3.2701e+000 -3.3152e+000  2.8830e-001 44026 93579,93720,93449
 7.0000e+000 94066 -2.3593e+000 -3.5696e+000 -1.0142e+000 43579 94089,93818,93792
 7.0000e+000 94043 -3.8101e+000 -4.7069e+000 -5.2038e-001 43579 94161,94089,93792
 7.0000e+000 94020 -4.0776e+000 -4.8434e+000 -4.0333e-001 43579 94161,93792,93948
 7.0000e+000 93997 -3.8539e+000 -2.8397e+000 -9.1181e-001 43579 94233,93870,93818
 7.0000e+000 93974 -4.3514e+000 -3.2798e+000 -6.7383e-001 43579 93818,93870,93844
 7.0000e+000 94115 -3.9436e+000 -2.8521e+000 -7.8452e-001 43579 94233,93818,94089
 7.0000e+000 94138 -4.4756e+000 -3.4209e+000 -8.2786e-001 43579 93896,94089,93922
 7.0000e+000 94187 -3.8131e+000 -4.2912e+000 -1.2270e+000 43579 93922,94089,94161
 7.0000e+000 94210 -4.5416e+000 -4.6135e+000 -1.0815e+000 43579 93922,94161,93948
 7.0000e+000 94259 -3.4598e+000 -2.5917e+000 -1.2398e+000 43579 93896,93870,94233
 7.0000e+000 94282 -3.8732e+000 -2.7748e+000 -1.1004e+000 43579 93896,94233,94089
 7.0000e+000 94481 -5.2329e+000 -4.5025e+000 -2.6321e-001 43239 94305,94383,94357
 7.0000e+000 94458 -6.1836e+000 -4.9440e+000 -3.7456e-001 43239 94305,94409,94383
 7.0000e+000 94435 -4.9172e+000 -2.6049e+000 -5.2364e-001 43239 94305,94357,94331
 7.0000e+000 94633  1.3202e+000  1.6248e+000  7.7409e-003 42827 94656,94532,94506
 7.0000e+000 94610 -1.0428e+000  3.2212e-001  7.3435e-001 42827 94728,94656,94506
 7.0000e+000 94682  4.3239e-001 -5.3848e-001 -5.4221e-001 42827 94558,94532,94656
 7.0000e+000 94705  6.5044e-001  2.3586e+000 -1.9617e-001 42827 94988,94860,94656
 7.0000e+000 94754  1.0953e+000  4.9277e+000  1.7098e-001 42827 94988,94656,94728
 7.0000e+000 94886  7.8090e-001  1.7861e+000 -1.2171e+000 42827 94558,94656,94860
 7.0000e+000 95014  4.0653e-001  4.6434e+000 -1.2257e+000 42827 94584,94860,94988
 7.0000e+000 95037  2.5051e-002  5.8420e+000 -1.2743e+000 42827 94584,94988,94728
 7.0000e+000 95236  8.0128e+000  1.3709e+001  8.1662e-001 42537 95259,95112,95060
 7.0000e+000 95213  5.3083e+000  1.6156e+001 -2.1563e-001 42537 95259,95060,95164
 7.0000e+000 95190  7.2501e+000  1.3016e+001  1.5837e+000 42537 95060,95112,95086
 7.0000e+000 95285  6.1876e+000  1.2696e+001 -2.7779e-001 42537 95138,95112,95259
 7.0000e+000 95308  3.1870e+000  1.3998e+001 -1.7107e+000 42537 95138,95259,95164
 7.0000e+000 95816  4.1245e+000  3.0120e+000  8.5588e-002 41969 95493,95597,95519
 7.0000e+000 95793  4.0773e+000  5.0515e+000  6.2242e-001 41969 95493,95649,95597
 7.0000e+000 95770  3.5480e+000  3.0853e+000  2.5876e+000 41969 95493,95675,95649
 7.0000e+000 95747  4.4037e+000  3.7914e+000  5.3641e-001 41969 95597,95649,95623
 7.0000e+000 95724  1.3198e+000  3.7690e+000 -3.5765e-001 41969 95519,95597,95571
 7.0000e+000 95701  9.3838e-001  3.5454e+000  1.6470e+000 41969 95519,95571,95545
 7.0000e+000 96371 -4.4582e+000 -4.3695e+000  1.3840e+000 41579 96025,96207,96181
 7.0000e+000 96348 -1.3364e+000 -2.8452e+000 -1.1860e-001 41579 95999,96207,96025
 7.0000e+000 96325 -7.3542e-001 -1.9536e+000 -9.0314e-001 41579 96129,96181,96155
 7.0000e+000 96302 -1.5315e-001  2.8966e-001 -4.7585e-001 41579 96025,96181,96129
 7.0000e+000 96279 -1.2601e+000 -1.7161e+000  9.0878e-002 41579 96025,96129,96051
 7.0000e+000 96256  7.2930e-002  1.1858e+000 -8.3415e-001 41579 96051,96103,96077
 7.0000e+000 96233 -2.9165e-001 -1.4792e-001 -5.7608e-001 41579 96051,96129,96103
 7.0000e+000 96877 -1.0384e+000 -5.5631e-001 -3.6110e-001 41182 96972,96900,96632
 7.0000e+000 96854 -7.9503e-001  4.6188e-001 -6.6689e-001 41182 96900,96554,96736
 7.0000e+000 96831 -1.1776e+000 -3.6192e-001 -8.3467e-001 41182 96972,96632,96580
 7.0000e+000 96808 -1.1330e+000 -1.5037e+000  2.6620e-001 41182 96632,96684,96658
 7.0000e+000 96785 -1.3187e+000 -1.5110e+000 -1.1057e-001 41182 96684,96736,96710
 7.0000e+000 96762 -4.2473e+000 -2.2754e+000  1.5757e+000 41182 96580,96632,96606
 7.0000e+000 96926 -6.2607e-001 -1.7706e+000 -2.7241e-001 41182 96684,96632,96900
 7.0000e+000 96949 -7.8293e-001 -5.5029e-001 -9.5037e-001 41182 96684,96900,96736
 7.0000e+000 96998 -3.7466e-001 -3.7631e-001 -8.7030e-001 41182 96554,96900,96972
 7.0000e+000 97021 -2.3032e-001  2.4068e-001 -1.3895e+000 41182 96554,96972,96580
 7.0000e+000 97576  3.5783e+000  3.9065e+000 -8.3127e-001 40678 97230,97412,97282
 7.0000e+000 97553  3.6144e+000  2.1933e+000 -3.7980e+000 40678 97204,97412,97230
 7.0000e+000 97530  4.3023e+000  7.5931e+000 -1.0808e+000 40678 97282,97360,97308
 7.0000e+000 97507  2.6310e+000  7.0545e+000 -1.1887e-001 40678 97282,97412,97360
 7.0000e+000 97484  4.2121e+000  5.9851e+000 -1.0015e+000 40678 97308,97360,97334
 7.0000e+000 97461  8.2824e-001  2.9590e+000  6.6451e-001 40678 97360,97412,97386
 7.0000e+000 97438  5.6519e+000  1.0194e+001 -1.6776e+000 40678 97230,97282,97256
 7.0000e+000 97976 -5.3884e+000 -1.7350e+000 -5.5206e-001 40244 97702,97832,97754
 7.0000e+000 97953 -4.4516e+000 -4.7945e+000 -1.1538e-001 40244 97702,97858,97832
 7.0000e+000 97930 -6.4874e+000 -4.7677e+000 -2.0734e+000 40244 97702,97754,97728
 7.0000e+000 97907 -5.0083e+000 -6.5802e-001 -9.3185e-001 40244 97780,97832,97806
 7.0000e+000 97884 -3.5934e+000 -1.5121e-001  7.5049e-001 40244 97754,97832,97780
 7.0000e+000 98482  7.5922e+000  1.0126e+001  6.7143e-001 39690 98505,98185,98159
 7.0000e+000 98459  6.3417e+000  9.7642e+000  8.0215e-002 39690 98505,98159,98289
 7.0000e+000 98436  7.6418e+000  1.0330e+001 -1.9247e+000 39690 98159,98315,98289
 7.0000e+000 98413  8.6046e+000  8.8402e+000  5.2742e-001 39690 98211,98289,98263
 7.0000e+000 98390  8.7086e+000  1.1485e+001  3.5367e-001 39690 98211,98263,98237
 7.0000e+000 98367  1.8321e+000  9.8461e+000 -1.9918e+000 39690 98159,98341,98315
 7.0000e+000 98531  9.9933e+000  1.0095e+001  1.5275e+000 39690 98211,98185,98505
 7.0000e+000 98554  7.6948e+000  8.4547e+000  5.5060e-001 39690 98211,98505,98289
 7.0000e+000 99109 -1.0641e+000  6.9523e-001 -5.1317e-001 39072 99132,98867,98789
 7.0000e+000 99086 -3.2932e+000  6.0773e-002 -5.3559e-001 39072 99132,98789,98763
 7.0000e+000 99063 -3.0359e-001 -9.0543e-001 -2.5937e-001 39072 98867,98945,98919
 7.0000e+000 99040 -5.6496e-001 -1.0913e-002  3.7834e-002 39072 98789,98867,98841
 7.0000e+000 99017 -8.4651e-001  1.7486e+000 -7.1910e-001 39072 98867,98919,98893
 7.0000e+000 98994  9.5968e-002  1.3576e+000 -1.6895e-001 39072 98789,98841,98815
 7.0000e+000 98971 -8.6562e-001  7.0909e-002 -1.9838e+000 39072 98737,98945,98763
 7.0000e+000 99158 -1.2135e-001 -7.7585e-002 -1.0042e+000 39072 98945,98867,99132
 7.0000e+000 99181 -1.0926e+000  2.3455e-001 -1.1251e+000 39072 98945,99132,98763
 7.0000e+000 99510 -1.4585e+000  1.1256e+000  1.2945e-001 38668 99311,99389,99363
 7.0000e+000 99487 -9.9574e-001  1.1550e+000 -9.2758e-002 38668 99285,99389,99311
 7.0000e+000 99464 -1.0964e+000  1.9899e+000 -8.3271e-002 38668 99285,99415,99389
 7.0000e+000 99441 -1.8109e+000  1.2823e+000  2.5486e-002 38668 99311,99363,99337
 7.0000e+000 99758 -3.6167e-001 -6.4708e-001  1.5283e+000 38164 99781,99611,99585
 7.0000e+000 99735  1.4278e+000  1.5440e+000  2.3385e+000 38164 99781,99585,99533
 7.0000e+000 99712 -1.5171e+000  1.5462e+000  1.2860e+000 38164 99611,99663,99637
 7.0000e+000 99689  2.6880e+000  1.9172e+000  3.5204e-001 38164 99533,99585,99559
 7.0000e+000 99807 -1.0119e+000  1.7132e+000  1.8984e+000 38164 99663,99611,99781
 7.0000e+000 99830 -5.0320e-001  2.6212e+000  2.2368e+000 38164 99663,99781,99533
 7.0000e+000 100232  5.7009e+000  1.0238e+001 -5.3355e-001 37702 99984,100114,100088
 7.0000e+000 100209  5.0776e+000  1.1515e+001 -1.4986e+000 37702 99958,100114,99984
 7.0000e+000 100186  6.9170e+000  1.0341e+001 -4.4237e-001 37702 100010,100088,100036
 7.0000e+000 100163  7.1434e+000  1.0886e+001 -3.2268e-001 37702 99984,100088,100010
 7.0000e+000 100140  7.8974e+000  1.3514e+001  1.0510e-001 37702 100036,100088,100062
 7.0000e+000 100640  2.9633e+000  2.6671e+000  8.5944e-001 37262 100493,100545,100519
 7.0000e+000 100617  3.1172e+000  2.7342e+000  8.8518e-001 37262 100441,100545,100493
 7.0000e+000 100594  5.2748e+000  3.2505e+000  1.3862e+000 37262 100415,100545,100441
 7.0000e+000 100571  3.4239e+000  3.9773e+000  3.6349e-001 37262 100441,100493,100467
 7.0000e+000 101146 -7.7527e-001 -8.2413e-001 -1.1927e-001 36872 100823,100979,100849
 7.0000e+000 101123 -9.7657e-001 -1.2450e+000 -8.5404e-002 36872 100823,101005,100979
 7.0000e+000 101100 -3.1272e-001  8.7110e-002  1.7624e-002 36872 101169,100901,100849
 7.0000e+000 101077 -5.8117e-001 -6.2391e-001 -2.2072e-001 36872 101169,100849,100979
 7.0000e+000 101054 -9.4760e-001 -6.0016e-001 -9.8638e-002 36872 100927,100979,100953
 7.0000e+000 101031 -2.3577e-001  4.6662e-001  7.5871e-002 36872 100849,100901,100875
 7.0000e+000 101195 -2.9606e-001  4.0246e-001  3.9100e-001 36872 100927,100901,101169
 7.0000e+000 101218 -4.1150e-001 -2.5000e-002  1.5151e-001 36872 100927,101169,100979
 7.0000e+000 101773  2.1466e+000  3.1738e+000  3.8532e-001 36418 101479,101609,101583
 7.0000e+000 101750  1.5757e+000  3.4030e+000 -2.5277e-001 36418 101453,101609,101479
 7.0000e+000 101727  2.2771e+000  2.6431e+000 -9.2605e-001 36418 101796,101531,101479
 7.0000e+000 101704  2.3081e+000  2.2204e+000 -1.7830e-001 36418 101796,101479,101583
 7.0000e+000 101681  2.0243e+000  6.0914e+000 -5.8269e-001 36418 101479,101531,101505
 7.0000e+000 101658  5.6895e-001  3.8275e+000  9.4129e-001 36418 101401,101609,101453
 7.0000e+000 101635  1.0336e+000  8.0653e+000  2.4701e+000 36418 101401,101453,101427
 7.0000e+000 101822  2.4875e+000  3.0146e+000 -7.8726e-001 36418 101557,101531,101796
 7.0000e+000 101845  3.0346e+000  3.6564e+000  7.5631e-002 36418 101557,101796,101583
 7.0000e+000 102174  5.8782e-001  8.2048e+000  9.2986e-001 35914 101949,102053,101975
 7.0000e+000 102151  6.4250e+000  8.9640e+000 -1.8661e-001 35914 101949,102079,102053
 7.0000e+000 102128  3.4684e+000  9.5863e+000 -1.1448e-001 35914 101975,102053,102027
 7.0000e+000 102105  5.1184e+000  8.9701e+000 -1.2406e+000 35914 101975,102027,102001
 7.0000e+000 102631 -6.4378e-001 -1.8746e+000 -2.7160e-002 35574 102383,102513,102487
 7.0000e+000 102608 -2.7373e-001 -2.5466e+000 -1.7323e-001 35574 102357,102513,102383
 7.0000e+000 102585 -7.2994e-001 -1.1872e+000  1.7644e-001 35574 102409,102487,102435
 7.0000e+000 102562 -3.3916e-001 -1.7047e+000 -1.2019e-001 35574 102383,102487,102409
 7.0000e+000 102539 -7.2895e-001 -4.0411e-001 -2.0731e-001 35574 102435,102487,102461
 7.0000e+000 103009 -3.5760e+000 -2.3726e+000 -8.3253e-001 35170 102761,102865,102787
 7.0000e+000 102986 -2.4490e+000 -1.7143e+000  2.8103e-001 35170 102761,102891,102865
 7.0000e+000 102963 -5.7767e+000 -4.8921e+000 -2.0406e+000 35170 102787,102865,102813
 7.0000e+000 102940 -3.2706e+000 -2.4413e+000 -2.2296e-002 35170 102735,102891,102761
 7.0000e+000 102917 -5.4142e+000 -4.3449e+000 -2.9446e+000 35170 102813,102865,102839
 7.0000e+000 103257  8.3221e-001  3.7957e+000  1.4454e+000 34659 103280,103058,103032
 7.0000e+000 103234  1.4012e+000  5.1251e+000  1.3590e+000 34659 103280,103032,103162
 7.0000e+000 103211  1.9229e+000  3.2615e+000  6.7542e-001 34659 103084,103162,103110
 7.0000e+000 103188  1.4644e+000  3.2437e+000  1.4840e+000 34659 103110,103162,103136
 7.0000e+000 103306  1.3744e+000  2.1455e+000  8.0064e-001 34659 103084,103058,103280
 7.0000e+000 103329  2.0985e+000  3.8188e+000  7.3299e-001 34659 103084,103280,103162
 7.0000e+000 103837 -3.8927e-001 -2.2461e+000 -4.3594e-002 34247 103860,103566,103540
 7.0000e+000 103814 -8.3748e-001 -2.3952e+000 -1.0714e-001 34247 103932,103860,103540
 7.0000e+000 103791 -7.4568e-001 -3.1310e+000 -8.1327e-001 34247 103932,103540,103670
 7.0000e+000 103768 -5.5575e-001 -1.4890e+000  3.9357e-001 34247 103566,103618,103592
 7.0000e+000 103745 -1.2887e+000 -2.7214e+000 -8.5421e-001 34247 103540,103696,103670
 7.0000e+000 103722 -2.1800e+000 -3.6714e+000  7.5743e-001 34247 103514,103696,103540
 7.0000e+000 103886 -1.2172e+000 -2.2657e+000 -3.3497e-001 34247 103618,103566,103860
 7.0000e+000 103909 -8.8327e-001 -2.6843e+000 -6.7846e-002 34247 103618,103860,103644
 7.0000e+000 103958 -1.3759e+000 -4.1415e+000 -4.7906e-001 34247 103644,103860,103932
 7.0000e+000 103981 -1.3201e+000 -4.8386e+000 -1.2211e+000 34247 103644,103932,103670
 7.0000e+000 104300 -7.2599e+000 -5.6262e+000 -1.0997e+000 33843 104052,104182,104156
 7.0000e+000 104277 -5.6815e+000 -5.5330e+000 -1.0525e+000 33843 104026,104182,104052
 7.0000e+000 104254 -6.9005e+000 -8.7662e+000  7.8251e-001 33843 104078,104156,104130
 7.0000e+000 104231 -1.0040e+001 -7.9112e+000 -8.6334e-002 33843 104052,104156,104078
 7.0000e+000 104208 -7.4498e+000 -1.0683e+001  1.9534e+000 33843 104078,104130,104104
 7.0000e+000 104499 -9.0316e-001 -3.4316e+000 -1.7773e-002 33282 104594,104522,104375
 7.0000e+000 104476 -1.2926e+000 -4.5080e+000  6.7450e-002 33282 104522,104323,104427
 7.0000e+000 104453 -6.1634e-001 -3.1237e+000 -1.4181e-001 33282 104594,104375,104349
 7.0000e+000 104548 -1.4921e+000 -4.5477e+000  2.0203e-001 33282 104401,104375,104522
 7.0000e+000 104571 -9.7095e-001 -4.1335e+000 -3.0917e-001 33282 104401,104522,104427
 7.0000e+000 104620 -3.0755e-001 -4.1404e+000  2.0547e-003 33282 104323,104522,104594
 7.0000e+000 104643 -4.2842e-002 -3.8092e+000 -1.1639e-001 33282 104323,104594,104349
 7.0000e+000 104942  5.3643e-001  1.6067e+000  8.2492e-001 32728 104694,104772,104720
 7.0000e+000 104919 -6.8141e-001  1.4966e+000  2.9232e-001 32728 104694,104824,104772
 7.0000e+000 104896  4.2640e-003  1.2986e+000  6.7820e-001 32728 104720,104772,104746
 7.0000e+000 104873 -2.3318e-001  2.0765e+000  8.4106e-002 32728 104772,104824,104798
 7.0000e+000 104850 -1.1502e+000  2.6409e+000  1.0886e+000 32728 104668,104824,104694
 7.0000e+000 105373  8.2084e+000  6.7449e+000  1.4554e-001 32274 105396,105102,105076
 7.0000e+000 105350  6.0570e+000  6.7053e+000  4.6080e-001 32274 105396,105076,105206
 7.0000e+000 105327  4.3256e+000  7.2419e+000 -7.9172e-001 32274 105154,105206,105180
 7.0000e+000 105304  9.7559e+000  8.1207e+000  3.0243e-001 32274 105076,105232,105206
 7.0000e+000 105281  5.9056e+000  7.0082e+000  6.0065e-001 32274 105102,105154,105128
 7.0000e+000 105258  1.0387e+001  1.2568e+001  1.1504e+000 32274 105050,105232,105076
 7.0000e+000 105422  6.2058e+000  7.1179e+000 -2.6888e-001 32274 105154,105102,105396
 7.0000e+000 105445  4.4795e+000  7.4182e+000  9.3602e-002 32274 105154,105396,105206
 7.0000e+000 105644 -2.7986e+000 -5.7367e+000  6.2695e-001 31620 105468,105546,105520
 7.0000e+000 105621 -1.2182e+000 -4.5624e+000 -9.1461e-002 31620 105468,105572,105546
 7.0000e+000 105598 -1.9733e+000 -2.8857e+000 -6.4752e-002 31620 105468,105520,105494
 7.0000e+000 105794  9.5226e+000  1.0192e+001 -5.0798e-001 31158 105889,105817,105693
 7.0000e+000 105771  8.3457e+000  1.2597e+001 -6.9603e-001 31158 105817,105667,105745
 7.0000e+000 105843  8.7727e+000  6.4501e+000 -3.1986e-001 31158 105719,105693,105817
 7.0000e+000 105866  9.0335e+000  9.4921e+000 -8.6190e-001 31158 105719,105817,105745
 7.0000e+000 105915  7.2561e+000  9.2210e+000 -5.3266e-001 31158 105667,105817,105889
 7.0000e+000 106270  2.1078e+000  3.4360e+000 -9.3164e-002 30818 106293,106071,106045
 7.0000e+000 106247  1.5862e+000  2.2226e+000 -6.0298e-002 30818 106293,106045,106175
 7.0000e+000 106224  1.7112e+000  3.4685e+000  6.2103e-001 30818 106123,106175,106149
 7.0000e+000 106201  2.0265e+000  2.5079e+000  1.3743e+000 30818 106071,106123,106097
 7.0000e+000 106319  1.7009e+000  3.8978e+000  4.3280e-001 30818 106123,106071,106293
 7.0000e+000 106342  1.4214e+000  3.2377e+000  4.5772e-001 30818 106123,106293,106175
 7.0000e+000 106492  1.4907e+000  8.8115e+000 -8.0962e-001 30414 106645,106391,106365
 7.0000e+000 106469  7.5722e+000  7.9805e+000  7.8165e-001 30414 106515,106365,106443
 7.0000e+000 106541  5.3007e+000  7.0232e+000  2.3850e-001 30414 106645,106365,106515
 7.0000e+000 106671  6.1418e+000  8.4147e+000  2.4053e+000 30414 106417,106391,106645
 7.0000e+000 106694  1.2911e+001  7.9441e+000  2.3344e+000 30414 106417,106645,106515
 7.0000e+000 106942 -1.1172e+000  6.3248e-001  6.3361e-001 29910 106965,106795,106769
 7.0000e+000 106919 -3.7837e-001 -1.3063e+000  2.2258e-001 29910 106965,106769,106717
 7.0000e+000 106896 -2.0526e+000 -3.4902e+000  1.7084e+000 29910 106795,106847,106821
 7.0000e+000 106873 -2.6437e-001 -1.1096e+000  3.4570e-001 29910 106717,106769,106743
 7.0000e+000 106991 -8.9704e-001 -1.0712e+000  6.5255e-001 29910 106847,106795,106965
 7.0000e+000 107014 -7.1670e-001 -3.7729e+000  3.8885e-001 29910 106847,106965,106717
 7.0000e+000 107213  1.5815e+000  2.4043e+000  6.8367e-001 29413 107236,107063,107037
 7.0000e+000 107190  1.3053e+000  2.7406e+000  5.6929e-001 29413 107236,107037,107141
 7.0000e+000 107167  1.3842e+000  2.3670e+000  6.9704e-001 29413 107063,107115,107089
 7.0000e+000 107262  1.4255e+000  2.2543e+000  5.8612e-001 29413 107115,107063,107236
 7.0000e+000 107285  1.0971e+000  2.4913e+000  4.4481e-001 29413 107115,107236,107141
 7.0000e+000 107486  8.1844e-001  1.0032e+000  8.1668e-001 29009 107336,107388,107362
 7.0000e+000 107463  1.4096e-001  7.5549e-001  3.8111e-001 29009 107310,107388,107336
 7.0000e+000 107440 -9.2077e-002  6.1855e-001  4.6583e-001 29009 107310,107414,107388
 7.0000e+000 107736  3.2919e-001  4.1386e-001  3.3028e-001 28491 107537,107615,107563
 7.0000e+000 107713  1.1213e-001  2.2374e-001 -1.2227e-001 28491 107537,107641,107615
 7.0000e+000 107690  2.7949e-002  1.1181e+000  3.1886e-001 28491 107563,107615,107589
 7.0000e+000 107667  5.2167e-001  4.6895e-001  1.9613e-002 28491 107511,107641,107537
 7.0000e+000 108118 -7.4434e-001  4.4140e-002 -5.6154e-002 27980 108141,107922,107844
 7.0000e+000 108095 -4.2629e-001 -1.1974e+000  1.1028e-002 27980 108141,107844,108000
 7.0000e+000 108072 -7.8065e-001 -2.1543e-002  3.4985e-002 27980 107844,107922,107870
 7.0000e+000 108049 -3.9397e-001  3.9180e-001 -1.5614e-001 27980 107870,107922,107896
 7.0000e+000 108026 -1.0329e-001  4.6897e-001 -1.5991e-001 27980 107922,107974,107948
 7.0000e+000 108167 -6.5200e-001  5.5942e-001 -2.4473e-002 27980 107974,107922,108141
 7.0000e+000 108190  3.3746e-001  1.0851e-001  4.1932e-001 27980 107974,108141,108000
 7.0000e+000 108745  5.6106e+000  8.8898e+000 -1.1638e-001 27376 108840,108768,108477
 7.0000e+000 108722  4.4971e+000  3.7923e+000 -1.7891e+000 27376 108768,108373,108581
 7.0000e+000 108699  5.3954e+000  1.0841e+001  1.0991e+000 27376 108840,108477,108451
 7.0000e+000 108676  3.9920e+000  5.9905e+000  7.4989e-001 27376 108373,108451,108399
 7.0000e+000 108653  5.4263e+000  7.3228e+000  1.4036e+000 27376 108503,108581,108529
 7.0000e+000 108630  4.4002e+000  7.7762e+000  1.6260e+000 27376 108529,108581,108555
 7.0000e+000 108607  4.8089e+000  6.5837e+000 -4.8188e-001 27376 108399,108451,108425
 7.0000e+000 108794  4.5589e+000  5.9089e+000 -9.2002e-003 27376 108503,108477,108768
 7.0000e+000 108817  7.1523e+000  6.8587e+000 -3.8771e-001 27376 108503,108768,108581
 7.0000e+000 108866  3.6468e+000  6.6643e+000 -1.4071e+000 27376 108373,108768,108840
 7.0000e+000 108889  3.9588e+000  8.2063e+000  2.8542e-002 27376 108373,108840,108451
 7.0000e+000 109186  9.5315e-001  1.4342e+000  4.2470e-001 26722 109209,108938,108912
 7.0000e+000 109163  7.4613e-001  9.7179e-001  3.4329e-001 26722 109281,109209,108912
 7.0000e+000 109140  4.6850e-001  9.3947e-001  4.8044e-001 26722 109281,108912,109042
 7.0000e+000 109117  1.5388e+000  7.7845e-001  3.4411e-001 26722 108938,108990,108964
 7.0000e+000 109094 -1.3534e-001  7.6266e-001  5.5597e-001 26722 108912,109068,109042
 7.0000e+000 109235  1.2198e+000  1.1673e+000  8.1658e-001 26722 108990,108938,109209
 7.0000e+000 109258  7.9788e-001  1.1496e+000  6.2367e-001 26722 108990,109209,109016
 7.0000e+000 109307  1.7003e-001  1.0845e+000  6.1068e-001 26722 109016,109209,109281
 7.0000e+000 109330 -2.2856e-001  9.1298e-001  7.8263e-001 26722 109016,109281,109042
 7.0000e+000 109732  2.2360e+000  7.1940e+000 -2.2302e+000 26310 109458,109588,109484
 7.0000e+000 109709  2.0505e-001  6.3092e+000 -9.1403e-002 26310 109458,109614,109588
 7.0000e+000 109686 -5.3042e+000 -2.5492e+000  5.6508e-001 26310 109510,109562,109536
 7.0000e+000 109663 -1.0797e+001 -5.2534e+000  1.4606e+000 26310 109484,109562,109510
 7.0000e+000 109640 -2.9887e+000  4.9540e+000 -1.9395e+000 26310 109484,109588,109562
 7.0000e+000 110159  3.4992e+000  3.1542e+000  1.7381e-002 25642 110182,109940,109914
 7.0000e+000 110136  4.0606e+000  2.4518e+000  1.6832e+000 25642 110182,109914,109888
 7.0000e+000 110113  1.7672e+000  2.3487e+000  6.6262e-001 25642 109966,110018,109992
 7.0000e+000 110090  1.8055e+000  2.6035e+000  6.3894e-001 25642 110254,109966,109940
 7.0000e+000 110067  1.6931e+000  4.4644e+000  1.1014e+000 25642 109862,110018,109888
 7.0000e+000 110044  2.1250e+000  5.2397e+000  1.4719e+000 25642 109836,110018,109862
 7.0000e+000 110208  2.3394e+000  2.3894e+000  5.9004e-001 25642 110254,109940,110182
 7.0000e+000 110231  1.9814e+000  2.2741e+000  1.8238e+000 25642 110018,110182,109888
 7.0000e+000 110280  2.5089e+000  2.6965e+000  7.8861e-001 25642 110018,109966,110254
 7.0000e+000 110303  3.0387e+000  2.5002e+000  7.8571e-001 25642 110018,110254,110182
 7.0000e+000 110632 -9.1649e-001  4.0936e+000 -9.0626e-001 25188 110407,110485,110433
 7.0000e+000 110609 -9.1523e+000 -6.9112e-001  1.9338e+000 25188 110407,110537,110485
 7.0000e+000 110586  2.5754e+000  5.3446e+000 -4.2409e+000 25188 110433,110485,110459
 7.0000e+000 110563 -7.3717e+000 -2.6538e+000  7.7320e+000 25188 110485,110537,110511
 7.0000e+000 110831  8.4190e-001  1.0563e+000  5.9714e-001 24726 110854,110707,110655
 7.0000e+000 110808  4.7508e-001  1.3223e+000  2.7887e-001 24726 110854,110655,110759
 7.0000e+000 110785  8.0282e-001  7.1651e-001  5.5178e-001 24726 110655,110707,110681
 7.0000e+000 110880  5.7552e-001  7.9841e-001  4.1810e-001 24726 110733,110707,110854
 7.0000e+000 110903  1.4397e-001  9.1063e-001  6.7649e-002 24726 110733,110854,110759
 7.0000e+000 111234  1.2238e-001  2.7707e+000 -5.2038e-001 24222 111257,111087,111035
 7.0000e+000 111211 -1.3296e+000  2.1555e+000 -6.1528e-002 24222 111257,111035,111009
 7.0000e+000 111188 -2.2431e-001  7.7274e+000 -2.6067e+000 24222 111035,111087,111061
 7.0000e+000 111165  5.0153e-001  4.5398e+000 -1.7434e+000 24222 111087,111139,111113
 7.0000e+000 111283  6.9277e-001  2.6149e+000 -8.6292e-001 24222 111139,111087,111257
 7.0000e+000 111306  1.5678e-001  2.7919e+000 -5.5404e-001 24222 111139,111257,111009
 7.0000e+000 111625  6.2685e+000  8.4552e+000  1.0348e+000 23732 111648,111481,111455
 7.0000e+000 111602  7.4043e+000  8.9399e+000  4.0892e-001 23732 111648,111455,111377
 7.0000e+000 111579  9.2800e+000  1.1965e+001  3.3963e-001 23732 111377,111429,111403
 7.0000e+000 111556  8.7412e+000  1.0374e+001 -5.0193e-001 23732 111377,111455,111429
 7.0000e+000 111533  9.0399e+000  8.7579e+000 -5.6937e-002 23732 111351,111507,111377
 7.0000e+000 111674  7.9281e+000  8.1410e+000  5.8895e-001 23732 111507,111481,111648
 7.0000e+000 111697  8.3235e+000  8.7317e+000 -2.4605e-001 23732 111507,111648,111377
 7.0000e+000 112156  6.8255e-001  1.4016e+000  6.9488e-004 23278 112179,111908,111882
 7.0000e+000 112133  6.0417e-001  1.2963e+000 -7.8554e-002 23278 112179,111882,112012
 7.0000e+000 112110  1.4851e+000  1.4364e+000 -7.4898e-002 23278 111908,111960,111934
 7.0000e+000 112087  3.9210e-001  1.3616e+000 -1.6752e-002 23278 111882,112038,112012
 7.0000e+000 112064  1.0449e-004  1.2939e+000 -6.9796e-002 23278 111960,112012,111986
 7.0000e+000 112205  7.5344e-001  1.3888e+000  8.5738e-002 23278 111960,111908,112179
 7.0000e+000 112228  7.1721e-001  1.3010e+000  8.7225e-003 23278 111960,112179,112012
 7.0000e+000 112685  3.7544e+000  1.5627e+000 -9.1190e-002 22938 112489,112567,112541
 7.0000e+000 112662  7.7433e+000  9.4890e+000  1.8319e+000 22938 112437,112567,112489
 7.0000e+000 112639  1.2966e+000  1.7154e+000 -6.6805e-001 22938 112489,112541,112515
 7.0000e+000 112616  6.7400e+000  7.2167e+000  9.6829e-001 22938 112411,112567,112437
 7.0000e+000 112593  4.4929e+000  1.1248e+001  1.5396e+000 22938 112437,112489,112463
 7.0000e+000 113191  1.8039e+000 -1.5252e+000 -1.6543e+000 22534 113214,112998,112946
 7.0000e+000 113168  4.7913e-001 -2.4178e-001 -1.0927e+000 22534 113286,113214,112946
 7.0000e+000 113145  1.3789e+000 -4.9231e-001 -7.2378e-001 22534 113286,112946,112920
 7.0000e+000 113122 -2.0053e+000  1.3087e+000 -2.4282e+000 22534 113358,113024,112998
 7.0000e+000 113099  8.7443e-001  1.1182e+000 -3.8532e-001 22534 112868,113050,112894
 7.0000e+000 113076  1.1438e+000 -2.0587e+000 -1.8979e+000 22534 112946,112998,112972
 7.0000e+000 113240 -7.2291e-001 -1.5483e+000 -2.5287e+000 22534 113358,112998,113214
 7.0000e+000 113263 -2.0209e-001 -5.8878e-002 -8.3287e-001 22534 113050,113214,112894
 7.0000e+000 113312  1.3905e+000  6.0707e-001 -7.4074e-001 22534 112894,113214,113286
 7.0000e+000 113335  2.1068e+000  4.8932e-002 -4.8739e-001 22534 112894,113286,112920
 7.0000e+000 113384 -6.3304e-001  4.2473e+000 -1.9140e+000 22534 113050,113024,113358
 7.0000e+000 113407  1.1288e+000  1.7566e+000 -1.6670e+000 22534 113050,113358,113214
 7.0000e+000 113785  3.4253e+000  3.1541e+000  9.1195e-001 21978 113808,113615,113511
 7.0000e+000 113762  3.7075e+000  3.0731e+000  1.1197e+000 21978 113808,113511,113667
 7.0000e+000 113739  6.5137e+000  2.9558e+000 -9.0866e-002 21978 113511,113615,113537
 7.0000e+000 113716  2.8765e+000  5.1488e-001 -1.5463e+000 21978 113537,113615,113589
 7.0000e+000 113693 -1.1243e+000  6.8309e-001 -4.1015e-001 21978 113537,113589,113563
 7.0000e+000 113834  3.3752e+000  3.1614e+000  1.2809e+000 21978 113641,113615,113808
 7.0000e+000 113857  4.1506e+000  3.4578e+000  1.5268e+000 21978 113641,113808,113667
 7.0000e+000 114284  2.7957e+000  1.4393e+000  2.2556e-001 21517 114013,114117,114039
 7.0000e+000 114261  2.0645e+000  1.2352e+000  4.6447e-001 21517 113961,114117,114013
 7.0000e+000 114238  3.0131e+000  2.4081e+000  8.7702e-001 21517 113961,114013,113987
 7.0000e+000 114215  1.6905e+000  8.5717e-001 -3.1423e-001 21517 114039,114117,114091
 7.0000e+000 114192  1.9374e+000  1.8781e+000  5.8055e-001 21517 113961,114143,114117
 7.0000e+000 114169  1.1169e+000  6.5389e-001 -2.9578e-001 21517 114039,114091,114065
 7.0000e+000 114581  8.5354e+000  7.4341e+000  1.6441e-001 21027 114359,114463,114437
 7.0000e+000 114558  9.2979e+000  7.7118e+000  1.2667e-001 21027 114333,114463,114359
 7.0000e+000 114535  8.8771e+000  9.0988e+000 -2.1931e-001 21027 114359,114437,114385
 7.0000e+000 114512  5.7842e+000  6.2725e+000  4.3117e-001 21027 114307,114463,114333
 7.0000e+000 114489  9.9697e+000  8.6696e+000  8.2894e-002 21027 114385,114437,114411
 7.0000e+000 114912  3.0563e+000  2.2809e+000  3.9411e-001 20623 114713,114791,114765
 7.0000e+000 114889  2.2896e+000  1.9549e+000  4.8586e-001 20623 114687,114791,114713
 7.0000e+000 114866  3.8999e+000  4.6184e+000 -3.1326e-001 20623 114687,114817,114791
 7.0000e+000 114843  1.4647e+000 -5.1744e-001  1.1069e+000 20623 114713,114765,114739
 7.0000e+000 115290  1.0567e+000  1.1727e+000  2.7257e-001 20375 115313,115146,115094
 7.0000e+000 115267  9.1446e-001  1.2615e+000  3.4778e-001 20375 115313,115094,115042
 7.0000e+000 115244  8.5923e-001  1.3689e+000  1.8893e-001 20375 115385,115016,115172
 7.0000e+000 115221  2.2240e-001  1.2529e+000  9.8744e-002 20375 115042,115094,115068
 7.0000e+000 115198  4.6482e-001  9.1536e-001 -8.5640e-001 20375 115094,115146,115120
 7.0000e+000 115339  6.3406e-001  6.5681e-001  5.4801e-003 20375 115172,115146,115313
 7.0000e+000 115362  9.9720e-001  1.2874e+000  1.8238e-001 20375 115385,115172,115313
 7.0000e+000 115411  8.3604e-001  1.2949e+000  2.5538e-001 20375 115042,115016,115385
 7.0000e+000 115434  8.8322e-001  1.1417e+000  2.7431e-001 20375 115042,115385,115313
 7.0000e+000 115891 -3.1418e+000 -4.8704e+000  2.7448e+000 19971 115617,115747,115643
 7.0000e+000 115868 -1.9112e+000 -2.2708e+000  3.2320e+000 19971 115617,115773,115747
 7.0000e+000 115845 -3.4065e+000 -9.2834e+000  1.0936e+000 19971 115643,115721,115695
 7.0000e+000 115822 -2.0421e-001 -8.1976e-001  1.2317e+000 19971 115643,115747,115721
 7.0000e+000 115799 -2.0714e+000 -1.5207e+001 -1.8003e+000 19971 115643,115695,115669
 7.0000e+000 115992  7.3194e-001  3.6719e+000  4.1643e-001 19659 115914,115966,115940
 7.0000e+000 116142 -5.8738e+000 -2.8411e+000  1.4730e-001 18997 116041,116093,116067
 7.0000e+000 116119 -6.0530e+000 -2.4833e+000 -1.0004e+000 18997 116015,116093,116041
 7.0000e+000 116343 -1.0524e+000 -1.7927e+000  4.7557e-001 18707 116193,116245,116219
 7.0000e+000 116320 -3.6520e+000 -3.2096e+000 -1.1476e-001 18707 116193,116271,116245
 7.0000e+000 116297 -4.7630e+000 -4.9286e+000 -1.0585e+000 18707 116167,116271,116193
 7.0000e+000 116747  9.0219e-001 -2.1801e-002  1.0096e-003 18301 116525,116629,116551
 7.0000e+000 116724  6.4606e-001 -8.6666e-001 -1.9560e-001 18301 116473,116629,116525
 7.0000e+000 116701  1.1077e+000  3.0187e-001 -1.2987e-001 18301 116473,116525,116499
 7.0000e+000 116678  9.7151e-001 -7.9532e-001  1.0167e-001 18301 116551,116603,116577
 7.0000e+000 116655  3.6836e-001 -1.2719e+000 -1.0564e-001 18301 116551,116629,116603
 7.0000e+000 117147  5.7659e+000  7.7798e+000  1.9459e+000 17747 116899,117029,116925
 7.0000e+000 117124  2.7068e+000  3.2492e+000  2.2541e-001 17747 116873,117029,116899
 7.0000e+000 117101  6.5244e+000  8.7145e+000  2.2920e+000 17747 116925,117029,116951
 7.0000e+000 117078  9.6953e+000  1.5490e+001  1.4337e+000 17747 116951,117029,117003
 7.0000e+000 117055  7.7898e+000  8.0639e+000 -6.2051e-002 17747 116951,117003,116977
 7.0000e+000 117368  3.8618e+000 -1.4809e+000  5.5979e-001 17293 117244,117296,117270
 7.0000e+000 117345  2.2877e+000 -2.1614e+000  8.2176e-002 17293 117192,117296,117244
 7.0000e+000 117322  1.2189e+000 -1.2515e+000  4.5647e-002 17293 117192,117244,117218
 7.0000e+000 117699 -2.3681e+000 -1.1313e+000  7.1931e-001 16896 117526,117604,117552
 7.0000e+000 117676 -2.7630e+000 -3.4153e+000  1.3203e+000 16896 117500,117604,117526
 7.0000e+000 117653  4.3622e-002 -1.7210e+000  1.4350e+000 16896 117552,117604,117578
 7.0000e+000 117630 -5.7223e+000 -8.2368e+000  7.3938e-002 16896 117474,117604,117500
 7.0000e+000 117849 -4.3214e+000 -2.7250e+000  5.5738e-001 16534 117722,117774,117748
 7.0000e+000 117826 -2.8818e+000  1.6739e+000  3.6375e-001 16534 117722,117800,117774
 7.0000e+000 118070  1.9720e+000 -1.1028e-001  3.2025e-002 16194 117946,117998,117972
 7.0000e+000 118047  1.6858e+000  4.4089e-001 -1.4549e-001 16194 117894,117998,117946
 7.0000e+000 118024 -5.9009e-001 -2.4747e-001 -5.5620e-002 16194 117894,117946,117920
 7.0000e+000 118173  8.6948e+000  9.4463e+000  0.0000e+000 15968 118095,118147,118121
 7.0000e+000 118276  3.0113e+000 -1.1579e-001 -7.0358e-003 15433 118299,118198,118250
 7.0000e+000 118325  3.4726e+000  9.6057e-001 -1.7419e-002 15433 118224,118198,118299
 7.0000e+000 118450  7.5293e-001  5.7292e+000 -2.5546e-001 421 118372,118424,118398
