time zIndex S11 S22 S12 block gridPoints
f i f f f i l
 1.0000e-001 70760  4.6948e-002  1.0548e+000 -5.9682e-001 70380 70633,70685,70659
 1.0000e-001 70737 -6.9290e-002  2.0563e+000 -5.3426e-001 70380 70633,70711,70685
 1.0000e-001 70861  2.5773e-001  9.6958e-001  1.4130e-001 70068 70783,70835,70809
 1.0000e-001 71180  1.0984e-001  9.4749e+000  8.0825e-003 69870 70932,70984,70958
 1.0000e-001 71157  2.3231e-001  9.5364e+000  8.2895e-002 69870 70932,71010,70984
 1.0000e-001 71134 -1.0121e+000  7.5014e+000 -4.6386e-001 69870 70932,71036,71010
 1.0000e-001 71111 -6.5279e-001  7.3318e+000  1.9696e+000 69870 70932,71062,71036
 1.0000e-001 71088 -2.8679e+000  1.0018e+001 -8.2581e+000 69870 70906,71062,70932
 1.0000e-001 71428  4.0073e+000  1.0874e+001  7.7035e-001 69694 71451,71281,71255
 1.0000e-001 71405  3.8881e+000  9.3785e+000  5.4378e-001 69694 71523,71451,71255
 1.0000e-001 71382  4.4962e+000  9.7890e+000  1.9398e+000 69694 71523,71255,71229
 1.0000e-001 71359  1.5128e+000  7.0498e+000 -1.3372e-001 69694 71595,71333,71307
 1.0000e-001 71477  5.0625e+000  9.7606e+000 -8.7002e-001 69694 71307,71281,71451
 1.0000e-001 71500  2.3450e+000  8.5702e+000 -1.0735e+000 69694 71595,71307,71451
 1.0000e-001 71549  1.6317e+000  8.6841e+000  2.5959e-001 69694 71203,71451,71523
 1.0000e-001 71572  1.5532e+000  8.5048e+000  1.4843e+000 69694 71203,71523,71229
 1.0000e-001 71621  3.0016e+000  5.4179e+000 -3.9863e-001 69694 71203,71333,71595
 1.0000e-001 71644  2.6145e+000  6.1401e+000 -7.0729e-001 69694 71203,71595,71451
 1.0000e-001 71745 -2.3796e-001 -8.9067e-002  1.9057e-002 69382 71667,71719,71693
 1.0000e-001 72100 -3.8228e-001  2.2475e+000 -6.3175e-001 69184 71875,71979,71901
 1.0000e-001 72077  3.4420e-001  3.0967e+000 -3.0312e-001 69184 71875,72005,71979
 1.0000e-001 72054 -4.7287e-001 -5.0786e-001 -1.2088e+000 69184 71901,71979,71953
 1.0000e-001 72031  1.7892e-001  1.1623e+000 -9.6723e-001 69184 71901,71953,71927
 1.0000e-001 72250 -4.0954e-001  2.2391e+000  3.8100e-001 68986 72149,72201,72175
 1.0000e-001 72227 -6.5166e-001  4.3267e+000 -5.1881e-001 68986 72123,72201,72149
 1.0000e-001 72547  3.2952e-001  3.4161e+000 -1.5016e-001 68582 72570,72403,72377
 1.0000e-001 72524  3.2634e-001  3.3918e+000 -1.5265e-001 68582 72570,72377,72351
 1.0000e-001 72501  1.4684e-001  3.1463e+000 -3.9227e-002 68582 72642,72299,72429
 1.0000e-001 72478  1.8792e-001  2.1744e+000 -5.2874e-001 68582 72273,72429,72299
 1.0000e-001 72455  4.0587e-001  5.3191e+000  1.3610e-001 68582 72299,72351,72325
 1.0000e-001 72596  5.3386e-001  3.6540e+000  1.6290e-001 68582 72429,72403,72570
 1.0000e-001 72619  3.3735e-001  3.1875e+000  4.3174e-002 68582 72642,72429,72570
 1.0000e-001 72668 -3.0036e-001  3.1272e+000 -2.8565e-001 68582 72351,72299,72642
 1.0000e-001 72691 -6.7217e-003  3.3226e+000 -1.5662e-001 68582 72351,72642,72570
 1.0000e-001 73095 -2.7118e-001  2.7373e+000  1.0111e-001 68384 72873,72925,72899
 1.0000e-001 73072 -5.2721e-001  2.7458e+000  3.5955e-001 68384 72847,72925,72873
 1.0000e-001 73049 -3.9827e-001  8.6631e-001  1.1544e+000 68384 72847,72951,72925
 1.0000e-001 73026  7.2448e-001  1.8902e+000  6.2460e-001 68384 72821,72951,72847
 1.0000e-001 73003  4.8238e-001  1.3312e+000  5.6783e-001 68384 72821,72977,72951
 1.0000e-001 73552  3.9746e+000  6.7738e+000 -1.1639e+000 68044 73304,73434,73408
 1.0000e-001 73529  2.6255e+000  5.4970e+000 -2.1199e+000 68044 73278,73434,73304
 1.0000e-001 73506  1.6465e+000  6.2318e+000 -3.0694e-001 68044 73356,73408,73382
 1.0000e-001 73483  2.4970e+000  6.2711e+000 -6.9094e-001 68044 73304,73408,73356
 1.0000e-001 73460  2.7969e+000  9.6009e+000 -6.2782e-001 68044 73304,73356,73330
 1.0000e-001 73871  6.0727e-001  6.0408e+000 -2.4186e-001 67846 73675,73727,73701
 1.0000e-001 73848 -1.1805e+000  4.6548e+000  3.7630e-001 67846 73649,73727,73675
 1.0000e-001 73825 -1.6221e-002  6.8738e+000 -5.1765e-001 67846 73623,73727,73649
 1.0000e-001 73802 -1.2353e+000  4.9263e+000 -1.0753e+000 67846 73623,73753,73727
 1.0000e-001 73779 -6.8682e-001  3.8014e+000 -2.7718e+000 67846 73597,73753,73623
 1.0000e-001 74021 -8.5579e-001  2.1957e+000 -2.9216e-001 67598 73920,73972,73946
 1.0000e-001 73998 -3.5062e-001  3.0379e+000  1.2090e-002 67598 73894,73972,73920
 1.0000e-001 74271 -5.9434e-002  2.4290e+000 -1.5547e-001 67286 74072,74176,74150
 1.0000e-001 74248  3.4284e-001  2.1402e+000 -2.6015e-001 67286 74046,74176,74072
 1.0000e-001 74225  5.6846e-001  2.9034e+000  2.6011e-001 67286 74072,74150,74098
 1.0000e-001 74202  7.1768e-001  3.1549e+000  4.4963e-001 67286 74098,74150,74124
 1.0000e-001 74374  9.3309e-001  1.0934e+001  1.5058e-001 67088 74296,74348,74322
 1.0000e-001 74646 -2.7037e-001  6.9446e+000 -3.1342e-001 66890 74421,74525,74447
 1.0000e-001 74623  1.3749e+000  8.7058e+000  3.8238e+000 66890 74421,74551,74525
 1.0000e-001 74600  3.0034e-001  7.1197e+000  2.3897e-001 66890 74447,74525,74473
 1.0000e-001 74577 -1.6448e+000  5.7121e+000  1.0941e+000 66890 74473,74525,74499
 1.0000e-001 75254  9.4020e-001  2.0537e+000 -7.2888e-001 66528 74885,75067,75041
 1.0000e-001 75231  1.0399e+000  1.7577e+000 -8.5645e-001 66528 74859,75067,74885
 1.0000e-001 75208  1.4885e+000  4.8067e+000 -2.4529e-001 66528 74937,75015,74963
 1.0000e-001 75185 -1.9756e-001  2.3241e+000 -1.0124e+000 66528 74911,75015,74937
 1.0000e-001 75162  8.7030e-001  3.6091e+000 -4.4336e-001 66528 74911,75041,75015
 1.0000e-001 75139  9.9472e-001  3.0871e+000 -2.1494e-001 66528 74885,75041,74911
 1.0000e-001 75116  9.3759e-001  1.5349e+000 -9.7019e-001 66528 74833,75067,74859
 1.0000e-001 75093  4.7847e-001  5.9719e+000  3.3544e-001 66528 74963,75015,74989
 1.0000e-001 75453 -1.0283e-001  4.2786e+000  2.1875e-001 66238 75303,75381,75355
 1.0000e-001 75430 -4.0091e-001  3.1010e+000  4.1173e-001 66238 75277,75381,75303
 1.0000e-001 75407  9.5076e-001  4.1699e+000  9.7450e-001 66238 75303,75355,75329
 1.0000e-001 75701  1.0439e+000  9.7692e+000 -2.3053e-001 65834 75528,75606,75580
 1.0000e-001 75678  1.3684e+000  1.2231e+001 -1.0083e-001 65834 75502,75606,75528
 1.0000e-001 75655  5.4046e-001  9.8243e+000 -2.7161e-003 65834 75528,75580,75554
 1.0000e-001 75632  1.6078e+000  1.2327e+001 -1.0587e-001 65834 75476,75606,75502
 1.0000e-001 75902  5.2052e-001  1.0162e+001 -2.2935e-001 65636 75726,75804,75752
 1.0000e-001 75879  1.7096e+000  1.0972e+001 -8.4054e-001 65636 75726,75830,75804
 1.0000e-001 75856 -1.2706e+000  9.8629e+000 -1.2712e-001 65636 75752,75804,75778
 1.0000e-001 76103 -1.0497e+000  5.7756e+000  9.9312e-001 65296 76126,75979,75953
 1.0000e-001 76080 -3.0077e+000  6.2124e+000  1.4068e+000 65296 76126,75953,75927
 1.0000e-001 76057 -3.0219e-002  6.7710e+000 -4.0846e-001 65296 76198,76005,75979
 1.0000e-001 76152 -8.0029e-002  6.2051e+000  1.4648e-001 65296 76198,75979,76126
 1.0000e-001 76175 -1.6779e+000  7.3015e+000  2.9189e-001 65296 76031,76126,75927
 1.0000e-001 76224 -9.8216e-001  5.8317e+000 -2.5236e-002 65296 76031,76005,76198
 1.0000e-001 76247 -9.1896e-001  5.5345e+000  4.6784e-001 65296 76031,76198,76126
 1.0000e-001 76602  9.0380e-001  3.6667e+000  2.2760e-001 64892 76377,76481,76403
 1.0000e-001 76579  8.8328e-001  3.4223e+000  9.3015e-002 64892 76377,76507,76481
 1.0000e-001 76556  1.7997e+000  3.8585e+000 -1.3342e-001 64892 76403,76481,76429
 1.0000e-001 76533 -1.4143e+000  2.4433e+000 -5.5321e-001 64892 76429,76481,76455
 1.0000e-001 76801 -4.4875e-001  7.2674e+000  1.2799e+000 64438 76677,76729,76703
 1.0000e-001 76778  1.4444e-001  6.9065e+000 -1.2170e-001 64438 76651,76729,76677
 1.0000e-001 76755  4.4113e-001  6.8390e+000  1.5314e-001 64438 76625,76729,76651
 1.0000e-001 77230  4.1527e-001  3.7876e+000  4.0270e-002 63920 77253,76959,76933
 1.0000e-001 77207  6.4714e-001  3.7804e+000  1.2643e-001 63920 77253,76933,77063
 1.0000e-001 77184  1.9372e-001  3.4873e+000 -1.6663e-001 63920 76959,77037,76985
 1.0000e-001 77161 -3.2978e-001  3.1620e+000 -2.2219e-001 63920 76907,77063,76933
 1.0000e-001 77138  5.1180e-001  4.0611e+000  1.6069e-002 63920 76985,77037,77011
 1.0000e-001 77115 -4.8625e-001  3.8026e+000 -2.2757e-001 63920 76907,77089,77063
 1.0000e-001 77279  6.2810e-001  3.8380e+000  8.5378e-002 63920 77037,76959,77253
 1.0000e-001 77302  8.6771e-001  3.8485e+000  1.8272e-001 63920 77037,77253,77063
 1.0000e-001 77680  1.9588e+000  6.9975e+000 -1.7695e-001 63316 77703,77484,77432
 1.0000e-001 77657  2.0960e+000  6.9500e+000 -2.7212e-001 63316 77703,77432,77406
 1.0000e-001 77634  1.2774e-001  7.3639e+000 -7.6199e-002 63316 77406,77536,77510
 1.0000e-001 77611 -9.3775e-001  5.4675e+000  3.8586e-001 63316 77432,77484,77458
 1.0000e-001 77588  2.7552e+000  8.1747e+000  8.8148e-001 63316 77406,77562,77536
 1.0000e-001 77729  1.6800e+000  6.8136e+000 -1.5434e-002 63316 77510,77484,77703
 1.0000e-001 77752  1.9624e+000  6.9234e+000 -1.4001e-001 63316 77510,77703,77406
 1.0000e-001 78000  8.7770e-001  9.4560e+000 -1.7283e-001 62812 77801,77853,77827
 1.0000e-001 77977  1.7558e+000  9.6176e+000 -6.0663e-001 62812 77801,77879,77853
 1.0000e-001 77954 -2.4106e+000  8.2248e+000 -1.6958e+000 62812 77801,77905,77879
 1.0000e-001 77931  1.2993e+000  1.1409e+001 -2.1038e-001 62812 77775,77905,77801
 1.0000e-001 78380  8.8775e-001  3.5074e+000 -5.2162e-001 62350 78184,78262,78236
 1.0000e-001 78357  8.4737e-001  4.7626e+000 -4.0154e-001 62350 78132,78262,78184
 1.0000e-001 78334  6.1937e-001  4.6249e+000 -9.6685e-001 62350 78106,78262,78132
 1.0000e-001 78311 -1.0991e+000  5.4901e+000  1.3710e+000 62350 78132,78184,78158
 1.0000e-001 78288 -1.2917e+000  3.1982e+000 -6.6013e-001 62350 78184,78236,78210
 1.0000e-001 78837  8.0607e-001  5.4971e+000 -6.2493e-001 61946 78615,78667,78641
 1.0000e-001 78814  2.4473e+000  6.2597e+000 -4.2920e-001 61946 78589,78667,78615
 1.0000e-001 78791  1.4365e+000  5.3139e+000 -9.1252e-004 61946 78589,78719,78667
 1.0000e-001 78768  2.4580e+000  7.3052e+000 -3.5920e-001 61946 78667,78719,78693
 1.0000e-001 78745 -9.5342e-001  3.6005e+000 -7.5424e-001 61946 78563,78719,78589
 1.0000e-001 78987 -1.1488e-001  4.1159e+000  1.8561e-001 61335 79010,78886,78860
 1.0000e-001 78964  1.8732e-001  4.3031e+000  6.3448e-002 61335 79010,78860,78938
 1.0000e-001 79036  6.0063e-001  5.1376e+000 -3.3240e-001 61335 79082,79010,78912
 1.0000e-001 79059 -1.3676e-001  4.4073e+000  8.1853e-002 61335 78912,79010,78938
 1.0000e-001 79108 -3.4242e-002  3.5693e+000 -2.0357e-003 61335 78886,79010,79082
 1.0000e-001 79437  4.0788e-001  6.9395e+000 -6.7332e-001 60888 79460,79238,79212
 1.0000e-001 79414 -2.2948e-001  5.2034e+000 -8.9843e-001 60888 79460,79212,79342
 1.0000e-001 79391  6.0168e-002  6.8810e+000 -1.1797e-003 60888 79532,79264,79238
 1.0000e-001 79368 -1.6869e+000  9.3370e+000  1.3726e+000 60888 79264,79316,79290
 1.0000e-001 79486  5.2307e-002  6.8816e+000 -2.8842e-003 60888 79532,79238,79460
 1.0000e-001 79509  3.1697e-001  6.2965e+000 -1.3893e-001 60888 79316,79460,79342
 1.0000e-001 79558  2.6338e-002  6.8060e+000  6.8946e-003 60888 79316,79264,79532
 1.0000e-001 79581  3.2566e-002  6.8228e+000 -4.9773e-003 60888 79316,79532,79460
 1.0000e-001 79878  1.3597e+000  8.3698e+000 -5.4348e-001 60484 79682,79760,79734
 1.0000e-001 79855  1.1859e+000  7.7614e+000 -7.6252e-001 60484 79656,79760,79682
 1.0000e-001 79832  7.1949e-001  7.8120e+000 -7.5035e-001 60484 79604,79760,79656
 1.0000e-001 79809 -2.4851e-001  8.3112e+000 -1.6329e+000 60484 79604,79656,79630
 1.0000e-001 79786 -4.2106e-001  7.8125e+000 -9.9470e-001 60484 79682,79734,79708
 1.0000e-001 80101  3.0988e+000  1.0703e+001 -1.7203e-002 60022 79951,80029,80003
 1.0000e-001 80078  1.7935e+000  1.1364e+001  3.5619e-001 60022 79925,80029,79951
 1.0000e-001 80055  1.4693e+000  1.0260e+001  6.2773e-001 60022 79951,80003,79977
 1.0000e-001 80351  1.7700e+000  8.8044e+000 -1.7150e-001 59625 80152,80256,80204
 1.0000e-001 80328  8.6649e-001  7.5442e+000 -8.1326e-001 59625 80126,80256,80152
 1.0000e-001 80305  2.1720e+000  9.7556e+000 -1.7447e-001 59625 80204,80256,80230
 1.0000e-001 80282  1.6832e+000  8.3065e+000 -2.1179e-002 59625 80152,80204,80178
 1.0000e-001 80552  2.9204e+000  9.1837e+000 -3.5093e-002 59121 80575,80402,80376
 1.0000e-001 80529  2.8454e+000  8.9390e+000 -1.5852e-002 59121 80575,80376,80480
 1.0000e-001 80506  9.0748e-001  1.0622e+001 -1.8555e+000 59121 80428,80480,80454
 1.0000e-001 80601  2.8105e+000  9.3313e+000  1.2936e-001 59121 80428,80402,80575
 1.0000e-001 80624  2.7466e+000  9.1076e+000  1.4206e-001 59121 80428,80575,80480
 1.0000e-001 81183  5.9083e+000  7.6618e+000 -1.8755e+000 58553 81206,80863,80837
 1.0000e-001 81160  2.8238e+000  5.3887e+000 -8.3061e-001 58553 81350,81206,80837
 1.0000e-001 81137  3.5730e+000  6.6324e+000 -7.6244e-001 58553 81278,80915,80863
 1.0000e-001 81114  2.4574e+000  5.2990e+000 -2.2913e-001 58553 81350,80837,80811
 1.0000e-001 81091  2.7698e+000  6.5965e+000 -7.0531e-001 58553 81422,80967,80941
 1.0000e-001 81068  2.1268e+000  6.7911e+000  5.7609e-001 58553 80967,81019,80993
 1.0000e-001 81045  4.6335e+000  6.2274e+000 -1.3000e+000 58553 80863,80915,80889
 1.0000e-001 81232  3.3558e+000  6.8718e+000 -9.2686e-001 58553 81278,80863,81206
 1.0000e-001 81255  2.8891e+000  6.6657e+000 -6.3408e-001 58553 81422,80941,81206
 1.0000e-001 81304  3.3986e+000  6.1480e+000 -7.7314e-001 58553 80941,80915,81278
 1.0000e-001 81327  3.2342e+000  6.4580e+000 -9.7157e-001 58553 80941,81278,81206
 1.0000e-001 81376  3.0578e+000  6.0779e+000 -1.0162e+000 58553 81019,81206,81350
 1.0000e-001 81399  2.9184e+000  5.9711e+000 -4.8052e-001 58553 81019,81350,80811
 1.0000e-001 81448  2.6474e+000  6.6735e+000 -7.2865e-001 58553 81019,80967,81422
 1.0000e-001 81471  2.7123e+000  6.6653e+000 -6.8268e-001 58553 81019,81422,81206
 1.0000e-001 81768  2.6129e+000  1.0920e+001  5.0449e-001 57877 81791,81572,81520
 1.0000e-001 81745  2.4831e+000  1.0900e+001 -6.2276e-001 57877 81791,81520,81494
 1.0000e-001 81722  2.2291e+000  1.0121e+001 -1.6467e-001 57877 81863,81650,81598
 1.0000e-001 81699  2.2811e+000  1.0361e+001  2.2772e-001 57877 81598,81650,81624
 1.0000e-001 81676  2.1276e+000  1.2168e+001  4.5565e-001 57877 81520,81572,81546
 1.0000e-001 81817  1.8528e+000  8.7326e+000  6.3454e-001 57877 81598,81572,81791
 1.0000e-001 81840  2.1551e+000  1.0487e+001 -4.4233e-002 57877 81863,81598,81791
 1.0000e-001 81889  2.0583e+000  9.3574e+000 -2.3914e-001 57877 81494,81650,81863
 1.0000e-001 81912  2.1028e+000  9.9571e+000 -1.8341e-001 57877 81494,81863,81791
 1.0000e-001 82160  1.5250e+000  9.4710e+000 -3.0206e-001 57473 81935,82039,82013
 1.0000e-001 82137  1.2381e-001  9.6360e+000 -3.4938e-001 57473 81935,82065,82039
 1.0000e-001 82114  1.7412e+000  1.0322e+001 -1.9598e-001 57473 81935,82013,81961
 1.0000e-001 82091 -1.0174e+000  1.1311e+001 -3.3724e-001 57473 81961,82013,81987
 1.0000e-001 82719  1.1303e+000  5.2931e+000  1.0223e-001 56962 82814,82742,82425
 1.0000e-001 82696  1.0910e+000  4.6698e+000  1.0442e-001 56962 82742,82347,82555
 1.0000e-001 82673  1.4389e+000  5.6954e+000 -4.8615e-002 56962 82814,82425,82399
 1.0000e-001 82650  1.0846e+000  5.3346e+000  6.7963e-002 56962 82425,82477,82451
 1.0000e-001 82627  1.5118e+000  5.5135e+000  7.4784e-002 56962 82425,82529,82477
 1.0000e-001 82604  1.2008e+000  6.7190e+000  7.7447e-001 56962 82477,82529,82503
 1.0000e-001 82581  2.1163e+000  5.8888e+000 -3.7391e-002 56962 82347,82399,82373
 1.0000e-001 82768  1.1444e+000  4.9159e+000 -8.5881e-002 56962 82529,82425,82742
 1.0000e-001 82791  4.3703e-001  4.0506e+000 -5.2604e-001 56962 82529,82742,82555
 1.0000e-001 82840  1.5034e+000  4.8000e+000  2.5436e-001 56962 82347,82742,82814
 1.0000e-001 82863  1.6252e+000  5.0490e+000  1.7225e-001 56962 82347,82814,82399
 1.0000e-001 83467 -6.5330e-001  4.0101e+000 -9.2204e-001 56300 83124,83176,83150
 1.0000e-001 83444  6.0891e-001  3.9339e+000  1.3617e-003 56300 83490,83176,83124
 1.0000e-001 83421  6.3866e-001  4.0116e+000  3.9357e-002 56300 83490,83124,83280
 1.0000e-001 83398  7.7737e-001  3.3536e+000  4.2093e-001 56300 83202,83280,83254
 1.0000e-001 83375  9.1161e-001  4.5263e+000  1.5728e-001 56300 83046,83280,83124
 1.0000e-001 83352  1.0909e+000  5.2971e+000  1.6573e-001 56300 83046,83124,83098
 1.0000e-001 83329  1.0639e+000  5.0518e+000  4.0815e-001 56300 83202,83254,83228
 1.0000e-001 83306  1.3417e+000  6.2413e+000  1.2491e-001 56300 83046,83098,83072
 1.0000e-001 83516  6.1034e-001  4.0368e+000  1.9526e-002 56300 83202,83176,83490
 1.0000e-001 83539  6.1129e-001  4.0570e+000  6.4039e-002 56300 83202,83490,83280
 1.0000e-001 83787  5.7486e-001  8.5183e+000 -7.7332e-001 55960 83588,83692,83666
 1.0000e-001 83764  2.1256e-001  1.0175e+001 -2.6821e-002 55960 83562,83692,83588
 1.0000e-001 83741  2.2431e+000  8.1391e+000  5.4300e-002 55960 83588,83666,83614
 1.0000e-001 83718  1.8517e+000  7.8028e+000 -9.3375e-002 55960 83614,83666,83640
 1.0000e-001 83937  6.4332e-002  3.9325e+000  2.5365e-001 55499 83810,83862,83836
 1.0000e-001 83914  7.7969e-001  4.0253e+000  1.1963e-001 55499 83810,83888,83862
 1.0000e-001 84138  1.8707e+000  6.1110e+000 -9.0411e-001 55152 83988,84066,84040
 1.0000e-001 84115  3.1755e+000  9.5401e+000 -3.0485e-001 55152 83962,84066,83988
 1.0000e-001 84092  3.1278e+000  8.1071e+000 -2.0926e-001 55152 83988,84040,84014
 1.0000e-001 84471  2.1189e+000  9.3242e+000 -1.1451e+000 54648 84324,84376,84350
 1.0000e-001 84448  4.1462e-002  6.2486e+000 -2.4302e-001 54648 84272,84376,84324
 1.0000e-001 84425  4.7204e-001  5.3557e+000  6.1028e-001 54648 84246,84376,84272
 1.0000e-001 84402  1.3225e+000  6.4436e+000 -1.6472e+000 54648 84272,84324,84298
 1.0000e-001 84849  2.4071e+000  9.6396e+000 -2.5948e-001 53922 84627,84731,84705
 1.0000e-001 84826  3.7365e+000  1.0399e+001  3.7018e-001 53922 84575,84731,84627
 1.0000e-001 84803  3.7165e+000  1.1608e+001  1.8058e+000 53922 84575,84627,84601
 1.0000e-001 84780 -2.2351e-001  8.9474e+000 -1.2591e+000 53922 84627,84705,84653
 1.0000e-001 84757  1.4883e+000  9.0976e+000 -8.0351e-001 53922 84653,84705,84679
 1.0000e-001 85581  1.9182e+000  5.2411e+000 -4.7908e-001 53582 85604,85111,85319
 1.0000e-001 85558  4.9395e+000  5.7248e+000 -6.7173e-001 53582 85111,85345,85319
 1.0000e-001 85535  3.7072e+000  5.7170e+000 -1.2818e+000 53582 85604,85319,85293
 1.0000e-001 85512 -1.2863e+000  5.4898e+000  1.4142e-001 53582 85241,85293,85267
 1.0000e-001 85489  6.6668e-001  5.2453e+000 -1.7709e-001 53582 85676,85241,85189
 1.0000e-001 85466  1.5123e+000  5.5358e+000 -3.2304e-001 53582 85676,85189,85137
 1.0000e-001 85443  1.4446e+000  6.3796e+000 -5.2317e-001 53582 85189,85241,85215
 1.0000e-001 85420  1.1810e+000  7.3565e+000 -6.9555e-001 53582 85137,85189,85163
 1.0000e-001 85397  3.0344e+000  6.2603e+000 -1.1527e+000 53582 85111,85371,85345
 1.0000e-001 85630  8.5145e-001  3.9293e+000  8.5677e-001 53582 85137,85111,85604
 1.0000e-001 85653  2.4896e+000  5.4169e+000  2.3558e-001 53582 85748,85604,85293
 1.0000e-001 85702  4.6731e-001  4.7220e+000  7.3702e-001 53582 85293,85241,85676
 1.0000e-001 85725  1.9591e+000  5.5290e+000  3.7114e-001 53582 85748,85293,85676
 1.0000e-001 85774  1.6570e+000  5.3747e+000 -7.8596e-003 53582 85137,85604,85748
 1.0000e-001 85797  1.3201e+000  5.6399e+000  1.0553e-001 53582 85137,85748,85676
 1.0000e-001 86303  3.0531e+000  4.4610e+000 -1.1506e+000 53178 86326,86084,86006
 1.0000e-001 86280  2.4933e+000  4.5869e+000 -9.0940e-001 53178 86326,86006,86162
 1.0000e-001 86257  2.6181e+000  4.6760e+000 -1.7285e+000 53178 86398,86110,86084
 1.0000e-001 86234  1.9689e+000  3.5315e+000 -9.2518e-001 53178 86006,86058,86032
 1.0000e-001 86211  2.5948e+000  3.3970e+000 -1.2056e+000 53178 86006,86084,86058
 1.0000e-001 86188  2.0400e+000  4.2972e+000 -6.1752e-001 53178 85980,86162,86006
 1.0000e-001 86352  2.3174e+000  4.2974e+000 -1.2121e+000 53178 86398,86084,86326
 1.0000e-001 86375  1.4259e+000  4.7446e+000 -1.1204e+000 53178 86136,86326,86162
 1.0000e-001 86424  2.6931e+000  4.9969e+000 -1.8667e+000 53178 86136,86110,86398
 1.0000e-001 86447  2.7019e+000  5.3047e+000 -1.3532e+000 53178 86136,86398,86326
 1.0000e-001 86904  1.6805e+000  5.0981e+000  2.6127e-001 52774 86708,86760,86734
 1.0000e-001 86881  1.6866e+000  4.4589e+000 -2.3520e-002 52774 86656,86760,86708
 1.0000e-001 86858  1.3867e+000  3.9571e+000  3.2503e-001 52774 86656,86708,86682
 1.0000e-001 86835  2.1274e+000  4.0988e+000  1.9197e-002 52774 86630,86760,86656
 1.0000e-001 86812  1.4708e+000  4.0111e+000 -3.4439e-001 52774 86630,86786,86760
 1.0000e-001 87489  2.6408e+000  7.1886e+000  1.3433e+000 52234 87512,87218,87192
 1.0000e-001 87466  1.9556e+000  5.9025e+000  2.1719e-001 52234 87512,87192,87348
 1.0000e-001 87443  8.3243e-001  5.0431e+000 -3.0162e-001 52234 87166,87348,87192
 1.0000e-001 87420  1.4487e+000  4.7016e+000 -1.8071e-001 52234 87296,87348,87322
 1.0000e-001 87397  2.5515e+000  4.4478e+000  7.0127e-001 52234 87218,87296,87270
 1.0000e-001 87374  2.4551e+000  3.8306e+000  1.2052e+000 52234 87218,87270,87244
 1.0000e-001 87538  1.8178e+000  5.1274e+000  7.9941e-001 52234 87296,87218,87512
 1.0000e-001 87561  1.7322e+000  5.1539e+000 -3.1961e-001 52234 87296,87512,87348
 1.0000e-001 87841  2.1868e+000  5.0495e+000  4.4409e-001 51830 87665,87743,87691
 1.0000e-001 87818  5.7551e-001  4.1797e+000 -3.0389e-002 51830 87665,87769,87743
 1.0000e-001 87795  3.0124e-001  3.5811e+000 -3.5203e-001 51830 87864,87691,87743
 1.0000e-001 87890 -5.4657e-001  3.2177e+000 -3.8932e-001 51830 87717,87691,87864
 1.0000e-001 88418  2.5715e+000  6.9679e+000 -2.2796e-001 51262 88095,88173,88121
 1.0000e-001 88395  2.7049e+000  6.5833e+000 -1.3704e-001 51262 88095,88251,88173
 1.0000e-001 88372  7.5013e-001  5.2619e+000 -1.2078e+000 51262 88173,88251,88199
 1.0000e-001 88349  3.2458e+000  8.0832e+000 -2.0331e-001 51262 88095,88277,88251
 1.0000e-001 88326  3.1119e+000  7.8333e+000 -2.1263e-001 51262 88199,88251,88225
 1.0000e-001 88303  2.0006e+000  7.1064e+000  2.6492e-001 51262 88121,88173,88147
 1.0000e-001 88875  3.0693e-001  3.2194e+000 -4.0385e-001 50750 88601,88731,88627
 1.0000e-001 88852 -5.4494e-001  4.6921e+000 -6.0960e-001 50750 88601,88757,88731
 1.0000e-001 88829  2.2209e+000  4.8469e+000  8.1568e-001 50750 88627,88731,88653
 1.0000e-001 88806  1.7845e+000  3.9802e+000  6.6733e-001 50750 88653,88731,88705
 1.0000e-001 88783  4.6179e-001  2.9952e+000 -2.3739e-001 50750 88653,88705,88679
 1.0000e-001 89145  3.2108e+000  1.1536e+001 -1.9578e-001 50438 88946,89024,88972
 1.0000e-001 89122  3.4663e+000  1.0733e+001 -1.0506e-001 50438 88946,89050,89024
 1.0000e-001 89099  2.3720e+000  9.6814e+000 -5.6228e-001 50438 88920,89050,88946
 1.0000e-001 89076  2.8332e+000  9.9519e+000 -3.1986e+000 50438 88972,89024,88998
 1.0000e-001 89525  1.3593e+000  1.0146e+001  1.9276e-002 49934 89548,89277,89251
 1.0000e-001 89502  1.7508e+000  9.9725e+000 -1.9510e-001 49934 89548,89251,89381
 1.0000e-001 89479  4.1522e+000  1.0593e+001  4.6943e-001 49934 89303,89381,89329
 1.0000e-001 89456  8.4081e-001  1.0965e+001 -1.7694e+000 49934 89251,89407,89381
 1.0000e-001 89433  3.2577e+000  1.1520e+001  1.4134e+000 49934 89329,89381,89355
 1.0000e-001 89574  2.5912e+000  1.0905e+001  6.0556e-001 49934 89303,89277,89548
 1.0000e-001 89597  1.9751e+000  1.0007e+001 -2.0323e-001 49934 89303,89548,89381
 1.0000e-001 90054  1.9662e+000  6.1085e+000 -7.5416e-001 49380 89832,89936,89910
 1.0000e-001 90031  3.0085e+000  6.7317e+000  2.4781e-001 49380 89780,89936,89832
 1.0000e-001 90008  2.8845e+000  1.0456e+001 -7.4189e-002 49380 89780,89832,89806
 1.0000e-001 89985  3.4350e+000  5.7941e+000 -8.4315e-001 49380 89832,89910,89858
 1.0000e-001 89962  4.3450e+000  8.7691e+000 -2.2976e-002 49380 89858,89910,89884
 1.0000e-001 90560  1.2660e+000  6.9989e+000 -2.0520e-001 48890 90289,90341,90315
 1.0000e-001 90537  3.3641e+000  7.9085e+000  1.9369e-001 48890 90289,90393,90341
 1.0000e-001 90514  3.5654e+000  7.5658e+000  2.2073e-001 48890 90263,90393,90289
 1.0000e-001 90491  1.7089e+000  7.3791e+000 -1.4565e+000 48890 90237,90393,90263
 1.0000e-001 90468  3.6637e+000  1.0015e+001  2.4217e-001 48890 90341,90393,90367
 1.0000e-001 90445  1.5540e+000  7.8584e+000 -2.2146e+000 48890 90237,90419,90393
 1.0000e-001 91115  3.8908e+000  1.0373e+001  3.0356e-001 48486 90795,90873,90847
 1.0000e-001 91092  4.3707e+000  1.0774e+001  1.2023e-001 48486 90795,90925,90873
 1.0000e-001 91069  1.8921e+000  9.7522e+000 -1.0848e-002 48486 90769,90925,90795
 1.0000e-001 91046  1.5746e+000  9.9943e+000 -1.6674e-001 48486 90769,90951,90925
 1.0000e-001 91023  4.6460e+000  1.2058e+001  1.5429e-001 48486 90795,90847,90821
 1.0000e-001 91000  4.2848e+000  1.1007e+001  6.5827e-001 48486 90873,90925,90899
 1.0000e-001 90977  1.8603e+000  1.0100e+001 -1.7796e-001 48486 90743,90951,90769
 1.0000e-001 91265  2.6493e+000  9.4220e+000 -4.1435e-001 48082 91288,91190,91164
 1.0000e-001 91242  1.5630e+000  7.9897e+000 -1.1673e+000 48082 91360,91288,91164
 1.0000e-001 91314  2.3644e+000  9.5655e+000 -5.6513e-001 48082 91216,91190,91288
 1.0000e-001 91337  3.2188e+000  1.0539e+001 -1.8667e-001 48082 91216,91288,91138
 1.0000e-001 91386  5.5433e+000  1.0235e+001 -2.2848e-001 48082 91138,91288,91360
 1.0000e-001 92022  7.0631e-001  3.8729e+000 -3.3161e-001 47514 92261,92045,91754
 1.0000e-001 91999  1.9696e+000  3.9863e+000 -6.9095e-001 47514 92189,92045,91702
 1.0000e-001 91976  1.8825e+000  5.2571e+000 -2.0743e-001 47514 92117,91806,91754
 1.0000e-001 91953  2.0472e+000  3.3848e+000  1.1285e-001 47514 92189,91702,91650
 1.0000e-001 91930 -6.5895e-001  5.0874e+000 -1.0432e+000 47514 92261,91754,91728
 1.0000e-001 91907  1.0338e+000  6.1502e+000 -2.4482e-001 47514 91754,91806,91780
 1.0000e-001 91884  2.5365e+000  2.8831e+000 -4.4803e-002 47514 91650,91702,91676
 1.0000e-001 92071  1.5508e+000  4.6034e+000 -7.0852e-001 47514 92117,91754,92045
 1.0000e-001 92094  5.8080e-001  2.5817e+000 -3.9532e-001 47514 91832,92045,91858
 1.0000e-001 92143  2.4264e+000  5.6105e+000  7.1908e-001 47514 91832,91806,92117
 1.0000e-001 92166  2.1169e+000  4.2273e+000  2.4155e-001 47514 91832,92117,92045
 1.0000e-001 92215  9.5642e-001  3.4644e+000 -4.7850e-001 47514 91858,92045,92189
 1.0000e-001 92238  1.4540e+000  3.1090e+000  1.9071e-001 47514 91858,92189,91650
 1.0000e-001 92287  5.0583e-002  2.6097e+000 -1.3412e+000 47514 91702,92045,92261
 1.0000e-001 92310 -1.1284e+000  3.3397e+000 -2.1554e+000 47514 91702,92261,91728
 1.0000e-001 92460 -6.7807e-001  1.3286e+000 -6.6066e-001 47124 92483,92359,92333
 1.0000e-001 92437 -2.7988e-001  9.9510e-001 -1.1293e+000 47124 92555,92483,92333
 1.0000e-001 92509 -3.0578e-001  5.7754e-001 -1.2414e+000 47124 92685,92483,92385
 1.0000e-001 92532 -1.4898e-001  1.6339e+000 -1.0876e+000 47124 92385,92483,92411
 1.0000e-001 92581  1.6893e+000  2.4866e+000 -4.2607e-001 47124 92411,92483,92555
 1.0000e-001 92711  1.5505e+000  2.3058e+000 -5.2037e-001 47124 92359,92483,92685
 1.0000e-001 93571  3.5725e+000  7.8156e+000  1.9096e-001 46834 93594,93208,93104
 1.0000e-001 93548  2.2680e+000  7.2967e+000  4.4739e-002 46834 93738,93594,93104
 1.0000e-001 93525  2.7905e+000  6.4433e+000 -9.2071e-001 46834 93666,93234,93208
 1.0000e-001 93502  1.9469e+000  7.1202e+000 -2.7987e-002 46834 93738,93104,93078
 1.0000e-001 93479  3.1901e+000  7.8509e+000 -9.6072e-001 46834 93810,93260,93234
 1.0000e-001 93456  3.8653e+000  1.0470e+001 -1.2588e+000 46834 93104,93182,93156
 1.0000e-001 93433  4.3257e+000  9.0403e+000 -1.3375e-001 46834 93104,93208,93182
 1.0000e-001 93410  2.4352e+000  8.6209e+000 -4.8767e-001 46834 93286,93338,93312
 1.0000e-001 93387  7.1333e-001  6.1603e+000 -2.8462e-001 46834 93052,93338,93078
 1.0000e-001 93364  2.9320e+000  1.0823e+001 -2.2344e+000 46834 93104,93156,93130
 1.0000e-001 93620  2.7582e+000  7.3203e+000 -4.9010e-001 46834 93666,93208,93594
 1.0000e-001 93643  2.5450e+000  7.6763e+000 -4.0609e-001 46834 93286,93594,93338
 1.0000e-001 93692  3.1809e+000  7.5973e+000 -8.7639e-001 46834 93810,93234,93666
 1.0000e-001 93715  2.7898e+000  7.7668e+000 -5.3116e-001 46834 93286,93666,93594
 1.0000e-001 93764  2.5411e+000  6.9966e+000 -4.7447e-003 46834 93338,93594,93738
 1.0000e-001 93787  2.4686e+000  7.0070e+000 -1.5489e-002 46834 93338,93738,93078
 1.0000e-001 93836  3.0660e+000  7.6594e+000 -6.2154e-001 46834 93286,93260,93810
 1.0000e-001 93859  3.0907e+000  7.4538e+000 -5.3804e-001 46834 93286,93810,93666
 1.0000e-001 94210  5.5381e+000  1.2705e+001  4.7741e-001 46472 94011,94115,94089
 1.0000e-001 94187  5.1974e+000  1.3574e+001  1.3487e-001 46472 93985,94115,94011
 1.0000e-001 94164  1.8989e+000  1.5606e+001  2.8175e-001 46472 94037,94089,94063
 1.0000e-001 94141  5.0835e-001  1.0465e+001  8.9460e-001 46472 94011,94089,94037
 1.0000e-001 94746  4.6071e+000  5.6071e+000 -6.9761e-001 46068 94576,94628,94602
 1.0000e-001 94723  3.7563e+000  5.2570e+000 -7.5626e-001 46068 94498,94628,94576
 1.0000e-001 94700  5.7865e+000  9.3863e+000 -1.5140e+000 46068 94472,94628,94498
 1.0000e-001 94677  4.0949e+000  5.0026e+000 -1.5575e-001 46068 94524,94576,94550
 1.0000e-001 94654  4.6709e+000  6.1466e+000 -3.6301e-001 46068 94498,94576,94524
 1.0000e-001 95380  2.5278e+000  6.6725e+000 -4.9718e-001 45342 95034,95112,95086
 1.0000e-001 95357  3.4930e+000  6.7116e+000 -4.5964e-001 45342 95034,95190,95112
 1.0000e-001 95334  2.8680e+000  6.8675e+000  3.1744e-001 45342 95403,95164,95138
 1.0000e-001 95311  3.3638e+000  8.0636e+000  1.0365e-001 45342 95403,95138,95112
 1.0000e-001 95288  2.6239e+000  5.5413e+000 -1.0091e+000 45342 95034,95216,95190
 1.0000e-001 95265  2.1896e+000  9.3835e+000  1.6567e-001 45342 95034,95086,95060
 1.0000e-001 95242  4.8955e+000  1.0707e+001 -1.5285e+000 45342 95008,95216,95034
 1.0000e-001 95429  3.4244e+000  6.2620e+000  2.0434e-001 45342 95190,95164,95403
 1.0000e-001 95452  3.4904e+000  6.8919e+000  1.3267e-001 45342 95190,95403,95112
 1.0000e-001 96007  1.7554e+000  7.6360e+000  5.8635e-001 44716 96030,95791,95765
 1.0000e-001 95984  2.6316e+000  6.1692e+000  6.3026e-001 44716 96030,95765,95713
 1.0000e-001 95961  3.1619e+000  7.3476e+000  8.6626e-001 44716 96174,96102,95661
 1.0000e-001 95938  3.5195e+000  7.0040e+000  8.4692e-001 44716 96174,95661,95635
 1.0000e-001 95915  3.9621e+000  7.3085e+000  4.1171e-001 44716 95661,95713,95687
 1.0000e-001 95892  7.4193e-001  4.8901e+000 -5.0169e-001 44716 95713,95765,95739
 1.0000e-001 95869  3.1841e+000  6.6314e+000  1.6504e+000 44716 95635,95843,95817
 1.0000e-001 96056  2.8376e+000  1.0131e+001  1.5986e+000 44716 95817,95791,96030
 1.0000e-001 96079  2.0966e+000  7.2440e+000  1.0094e+000 44716 96102,95817,96030
 1.0000e-001 96128  2.5644e+000  6.9652e+000  6.1525e-001 44716 95713,95661,96102
 1.0000e-001 96151  2.8508e+000  7.7085e+000  6.7969e-001 44716 95713,96102,96030
 1.0000e-001 96200  2.4145e+000  7.0648e+000  1.2144e+000 44716 95817,96102,96174
 1.0000e-001 96223  3.0968e+000  7.0254e+000  1.1396e+000 44716 95817,96174,95635
 1.0000e-001 96680  2.5250e+000  5.8992e+000  6.3781e-002 44198 96775,96703,96458
 1.0000e-001 96657  2.5275e+000  5.4787e+000 -8.9777e-001 44198 96703,96406,96562
 1.0000e-001 96634  1.0793e+000  6.6740e+000 -7.9206e-002 44198 96775,96458,96432
 1.0000e-001 96611  3.0702e+000  8.0782e+000  1.1274e+000 44198 96484,96536,96510
 1.0000e-001 96588  3.3539e+000  6.0553e+000  7.5379e-001 44198 96458,96536,96484
 1.0000e-001 96729  2.0841e+000  4.8886e+000  1.5761e-001 44198 96536,96458,96703
 1.0000e-001 96752  2.2678e+000  4.6287e+000 -5.0176e-001 44198 96536,96703,96562
 1.0000e-001 96801  1.1378e+000  4.7135e+000 -4.6040e-001 44198 96406,96703,96775
 1.0000e-001 96824  1.2853e-001  6.0215e+000 -3.7800e-001 44198 96406,96775,96432
 1.0000e-001 97202  2.5023e+000  8.0704e+000  3.8030e-003 43750 97225,96980,96928
 1.0000e-001 97179  2.7866e+000  7.9778e+000  9.5182e-002 43750 97225,96928,97084
 1.0000e-001 97156  3.1968e+000  9.3823e+000 -2.7432e-001 43750 96928,96980,96954
 1.0000e-001 97133  4.4185e+000  1.1166e+001 -4.8980e-002 43750 97006,97084,97058
 1.0000e-001 97110  2.4019e+000  1.0686e+001 -4.2199e-001 43750 97006,97058,97032
 1.0000e-001 97251  2.6358e+000  8.1176e+000  2.3559e-001 43750 97006,96980,97225
 1.0000e-001 97274  2.9912e+000  7.9967e+000  2.7935e-001 43750 97006,97225,97084
 1.0000e-001 97522  2.6906e+000  8.5343e+000 -6.2583e-002 43360 97545,97375,97349
 1.0000e-001 97499  2.9695e+000  7.7905e+000 -3.9453e-001 43360 97545,97349,97323
 1.0000e-001 97476  2.4589e+000  7.2034e+000 -7.1159e-001 43360 97617,97427,97401
 1.0000e-001 97453  2.1509e+000  5.2994e+000 -1.0666e+000 43360 97297,97427,97323
 1.0000e-001 97571  2.9989e+000  7.5542e+000 -1.2639e-001 43360 97401,97375,97545
 1.0000e-001 97594  2.7084e+000  7.2398e+000 -6.9293e-001 43360 97617,97401,97545
 1.0000e-001 97643  2.4733e+000  7.1382e+000 -2.7664e-001 43360 97323,97427,97617
 1.0000e-001 97666  2.8949e+000  7.2883e+000 -2.4654e-001 43360 97323,97617,97545
 1.0000e-001 98019  3.1186e+000  5.5343e+000 -1.6173e-001 42956 97794,97898,97820
 1.0000e-001 97996  1.3246e+000  3.9936e+000  4.9310e-001 42956 97794,97924,97898
 1.0000e-001 97973 -8.3533e-002  5.2794e+000 -6.9577e-002 42956 97820,97872,97846
 1.0000e-001 97950  2.3280e-001  4.7453e+000 -2.7253e-001 42956 97820,97898,97872
 1.0000e-001 98446  2.5001e+000  7.1644e+000 -1.1264e-002 42559 98149,98305,98279
 1.0000e-001 98423  1.4946e+000  7.0783e+000  1.6962e-001 42559 98123,98305,98149
 1.0000e-001 98400  4.2967e+000  9.6955e+000 -8.0712e-001 42559 98469,98175,98149
 1.0000e-001 98377  4.0787e+000  9.1877e+000 -7.8630e-001 42559 98469,98149,98279
 1.0000e-001 98354  4.3452e+000  8.7116e+000 -6.4204e-001 42559 98175,98253,98227
 1.0000e-001 98331  3.5902e+000  6.8767e+000 -7.1388e-001 42559 98175,98227,98201
 1.0000e-001 98495  4.2483e+000  9.3834e+000 -5.5372e-001 42559 98253,98175,98469
 1.0000e-001 98518  4.1774e+000  9.2047e+000 -5.2652e-001 42559 98253,98469,98279
 1.0000e-001 98847  2.9363e+000  6.4926e+000 -1.8623e-001 42247 98674,98752,98700
 1.0000e-001 98824  2.8130e+000  6.3594e+000 -1.2522e-001 42247 98648,98752,98674
 1.0000e-001 98801  3.1049e+000  7.0260e+000 -2.4403e-001 42247 98622,98752,98648
 1.0000e-001 98778  1.8640e+000  5.8063e+000  2.4878e-001 42247 98700,98752,98726
 1.0000e-001 99117  3.1497e+000  9.9673e+000  1.2234e-003 41843 98892,98996,98918
 1.0000e-001 99094  4.0020e+000  1.2112e+001 -1.3452e+000 41843 98892,99022,98996
 1.0000e-001 99071  1.9984e+000  1.0795e+001 -4.7853e-001 41843 98918,98996,98970
 1.0000e-001 99048  3.9746e+000  1.1853e+001 -9.1496e-001 41843 98918,98970,98944
 1.0000e-001 99625  3.2319e+000  7.4405e+000  1.4966e+000 41232 99648,99380,99354
 1.0000e-001 99602  1.6111e+000  5.9078e+000  6.0599e-001 41232 99648,99354,99328
 1.0000e-001 99579  2.2488e+000  5.5654e+000  5.3114e-001 41232 99720,99432,99380
 1.0000e-001 99556  1.1785e+000  5.0032e+000  2.9621e-001 41232 99380,99432,99406
 1.0000e-001 99533 -1.4612e-001  5.1244e+000 -1.6764e-001 41232 99328,99484,99458
 1.0000e-001 99510 -9.7838e-001  5.9913e+000  4.6922e-001 41232 99302,99484,99328
 1.0000e-001 99674  2.0999e+000  5.7385e+000  5.3234e-001 41232 99720,99380,99648
 1.0000e-001 99697  2.0560e+000  5.3209e+000 -3.9501e-002 41232 99458,99648,99328
 1.0000e-001 99746  2.2245e+000  5.7407e+000  4.1766e-001 41232 99458,99432,99720
 1.0000e-001 99769  2.2079e+000  6.0376e+000  3.8214e-001 41232 99458,99720,99648
 1.0000e-001 100275  1.0202e+000  5.8909e+000  3.2018e-002 40728 99952,100004,99978
 1.0000e-001 100252  2.3523e+000  8.1733e+000  5.9521e-001 40728 99952,100030,100004
 1.0000e-001 100229  2.4980e+000  6.2682e+000  4.5586e-001 40728 99952,100134,100030
 1.0000e-001 100206  2.0736e+000  5.7272e+000  3.5939e-002 40728 100298,100108,100082
 1.0000e-001 100183  2.1086e+000  5.1092e+000 -4.7091e-002 40728 100298,100082,100030
 1.0000e-001 100160  1.0373e+000  5.6624e+000 -1.3409e+000 40728 100030,100082,100056
 1.0000e-001 100324  2.0160e+000  6.2581e+000  2.6519e-001 40728 100134,100108,100298
 1.0000e-001 100347  1.9862e+000  5.4973e+000  2.3386e-001 40728 100134,100298,100030
 1.0000e-001 100853  3.0401e+000  8.5394e+000 -2.3331e-001 40274 100876,100686,100660
 1.0000e-001 100830  3.6951e+000  7.6551e+000  6.1761e-002 40274 100948,100876,100660
 1.0000e-001 100807  3.2302e+000  7.4549e+000 -5.8519e-001 40274 100948,100660,100608
 1.0000e-001 100784  4.1451e+000  8.5167e+000  2.1398e-001 40274 101020,100556,100712
 1.0000e-001 100761  3.5302e+000  7.2567e+000 -2.7327e-001 40274 100530,100712,100556
 1.0000e-001 100738  2.3725e+000  8.3556e+000 -1.2025e-001 40274 100608,100660,100634
 1.0000e-001 100902  3.3780e+000  9.6675e+000  1.6043e-001 40274 100712,100686,100876
 1.0000e-001 100925  3.3560e+000  8.4343e+000 -3.8489e-001 40274 101020,100712,100876
 1.0000e-001 100974  3.2500e+000  6.9926e+000 -6.0970e-001 40274 100582,100876,100948
 1.0000e-001 100997  2.3676e+000  6.7389e+000 -1.2617e+000 40274 100582,100948,100608
 1.0000e-001 101046  5.2243e+000  8.9530e+000  7.7187e-001 40274 100582,100556,101020
 1.0000e-001 101069  4.4763e+000  8.5733e+000  4.9821e-002 40274 100582,101020,100876
 1.0000e-001 101496  2.4414e+000  6.6021e+000  1.7859e-001 39820 101519,101277,101225
 1.0000e-001 101473  1.9189e+000  6.4468e+000 -1.0296e-001 39820 101519,101225,101199
 1.0000e-001 101450  2.5563e+000  6.5309e+000 -1.5529e-003 39820 101173,101355,101199
 1.0000e-001 101427  2.7567e+000  8.2244e+000  8.2625e-001 39820 101277,101355,101303
 1.0000e-001 101404  2.4584e+000  6.1716e+000 -5.7557e-001 39820 101225,101277,101251
 1.0000e-001 101381  1.0090e+000  8.8392e+000  4.8086e-001 39820 101303,101355,101329
 1.0000e-001 101545  2.7395e+000  6.5353e+000  2.6949e-001 39820 101355,101277,101519
 1.0000e-001 101568  2.4469e+000  6.6193e+000  4.3000e-002 39820 101355,101519,101199
 1.0000e-001 101816  4.1652e+000  9.4446e+000  9.3607e-001 39066 101839,101695,101643
 1.0000e-001 101793  4.4023e+000  1.0496e+001  9.1430e-001 39066 101839,101643,101591
 1.0000e-001 101770  3.2024e+000  8.1010e+000  1.5324e-002 39066 101643,101695,101669
 1.0000e-001 101747  5.2268e+000  1.0023e+001  3.8652e-001 39066 101591,101643,101617
 1.0000e-001 101865  3.7602e+000  9.7944e+000  2.1487e-001 39066 101721,101695,101839
 1.0000e-001 101888  4.2321e+000  1.1223e+001  1.9676e-001 39066 101721,101839,101591
 1.0000e-001 102087  3.6754e+000  9.9457e+000 -2.7317e-001 38726 101937,101989,101963
 1.0000e-001 102064  2.9056e+000  9.4611e+000 -5.3787e-002 38726 101937,102015,101989
 1.0000e-001 102041  2.6398e+000  9.3980e+000 -2.1477e-002 38726 101911,102015,101937
 1.0000e-001 102337  2.6006e+000  7.1128e+000 -1.0664e-002 38322 102112,102190,102138
 1.0000e-001 102314  2.3643e+000  6.9061e+000  2.2204e-001 38322 102112,102216,102190
 1.0000e-001 102291  3.2746e+000  7.5980e+000 -8.8806e-002 38322 102112,102242,102216
 1.0000e-001 102268  1.4238e+000  6.8869e+000 -1.0988e-002 38322 102138,102190,102164
 1.0000e-001 102489  5.6719e+000  1.0350e+001  6.0620e-002 38032 102512,102388,102362
 1.0000e-001 102466  4.7258e+000  1.1450e+001 -5.3996e-001 38032 102512,102362,102440
 1.0000e-001 102538  5.1580e+000  9.5592e+000 -1.9880e-001 38032 102414,102388,102512
 1.0000e-001 102561  3.6750e+000  1.0000e+001 -1.0465e+000 38032 102414,102512,102440
 1.0000e-001 102894  2.7048e+000  6.0966e+000  5.9742e-001 37592 102669,102773,102695
 1.0000e-001 102871  1.5734e+000  5.2149e+000 -3.2570e-001 37592 102669,102799,102773
 1.0000e-001 102848  2.5217e+000  7.1831e+000  8.6602e-001 37592 102721,102773,102747
 1.0000e-001 102825  2.3187e+000  5.3832e+000  4.1831e-001 37592 102695,102773,102721
 1.0000e-001 103093  2.6515e+000  7.2604e+000  6.0812e-002 37188 102917,102995,102943
 1.0000e-001 103070  2.2612e+000  6.9554e+000  4.6719e-001 37188 102917,103021,102995
 1.0000e-001 103047  2.2685e+000  6.5685e+000  3.7156e-001 37188 102943,102995,102969
 1.0000e-001 103341  1.1645e+000  5.8210e+000  8.1200e-002 36605 103142,103194,103168
 1.0000e-001 103318  2.3428e+000  6.1077e+000  1.1772e-001 36605 103142,103220,103194
 1.0000e-001 103295  2.4898e+000  6.1668e+000  1.3993e-001 36605 103116,103220,103142
 1.0000e-001 103272  1.4338e+000  5.8884e+000  1.9376e-001 36605 103116,103246,103220
 1.0000e-001 103949  2.2057e+000  8.2757e+000  6.0795e-001 36127 103554,103606,103580
 1.0000e-001 103926  2.4551e+000  6.9849e+000  1.0194e+000 36127 103528,103606,103554
 1.0000e-001 103903  1.8756e+000  4.6970e+000  3.8172e-002 36127 103528,103736,103606
 1.0000e-001 103880  2.4131e+000  5.9140e+000  6.9633e-002 36127 103972,103710,103632
 1.0000e-001 103857  2.0738e+000  5.1367e+000 -3.0516e-001 36127 103972,103632,103606
 1.0000e-001 103834  2.7534e+000  7.1276e+000  2.5362e-001 36127 103632,103710,103658
 1.0000e-001 103811 -1.7897e-001  5.3447e+000 -1.1303e+000 36127 103528,103762,103736
 1.0000e-001 103788  2.3470e+000  6.3394e+000  4.7762e-001 36127 103658,103710,103684
 1.0000e-001 103998  2.6439e+000  6.5585e+000  6.3666e-001 36127 103736,103710,103972
 1.0000e-001 104021  2.2774e+000  5.8390e+000  2.4490e-001 36127 103736,103972,103606
 1.0000e-001 104220  1.8907e+000  5.6949e+000 -4.6156e-003 35787 104070,104148,104122
 1.0000e-001 104197  2.3821e+000  5.7847e+000  1.0573e-001 35787 104044,104148,104070
 1.0000e-001 104174  7.5303e-001  5.3069e+000  8.0863e-002 35787 104070,104122,104096
 1.0000e-001 104419  2.8664e+000  9.1773e+000  6.3093e-001 35440 104269,104321,104295
 1.0000e-001 104396  3.9556e+000  9.2726e+000  9.1130e-002 35440 104269,104347,104321
 1.0000e-001 104373  3.5107e+000  9.3685e+000 -1.7644e-002 35440 104243,104347,104269
 1.0000e-001 104718  2.8428e+000  7.8263e+000  4.1472e-001 34986 104496,104548,104522
 1.0000e-001 104695  2.8308e+000  8.1047e+000  3.7033e-002 34986 104741,104548,104496
 1.0000e-001 104672  3.2065e+000  7.4117e+000 -1.5505e-001 34986 104741,104496,104444
 1.0000e-001 104649  2.6555e+000  7.5207e+000  3.0872e-001 34986 104813,104574,104548
 1.0000e-001 104626  3.8565e+000  8.9744e+000 -5.3422e-003 34986 104444,104496,104470
 1.0000e-001 104767  2.6388e+000  7.5201e+000  8.8401e-002 34986 104813,104548,104741
 1.0000e-001 104790  3.1025e+000  6.8281e+000 -3.7135e-002 34986 104600,104741,104444
 1.0000e-001 104839  3.2132e+000  7.7797e+000  4.3202e-001 34986 104600,104574,104813
 1.0000e-001 104862  2.9900e+000  7.6707e+000  9.7244e-002 34986 104600,104813,104741
 1.0000e-001 105014  2.1783e+000  7.4817e+000 -4.1798e-001 34696 105169,105037,104913
 1.0000e-001 104991  3.1519e+000  8.1348e+000  5.0142e-001 34696 105169,104913,104887
 1.0000e-001 105063  4.2665e+000  8.1540e+000  6.8548e-002 34696 104939,104913,105037
 1.0000e-001 105195  1.1633e+000  6.7924e+000 -1.0957e+000 34696 104965,105037,105169
 1.0000e-001 105218  2.0043e+000  7.2537e+000 -2.1063e-001 34696 104965,105169,104887
 1.0000e-001 105368  3.6245e+000  9.4592e+000 -5.6543e-001 34384 105267,105319,105293
 1.0000e-001 105345  4.0468e+000  1.0664e+001 -2.6095e-001 34384 105241,105319,105267
 1.0000e-001 105616  2.3810e+000  6.9742e+000  3.5488e-001 33730 105639,105417,105391
 1.0000e-001 105593  2.4128e+000  6.9084e+000  3.1638e-001 33730 105639,105391,105495
 1.0000e-001 105570  2.5376e+000  7.4934e+000  9.4641e-002 33730 105391,105521,105495
 1.0000e-001 105547  2.8469e+000  6.8700e+000  1.0480e+000 33730 105417,105469,105443
 1.0000e-001 105665  2.4094e+000  7.0249e+000  3.8664e-001 33730 105469,105417,105639
 1.0000e-001 105688  2.4711e+000  6.9383e+000  3.6309e-001 33730 105469,105639,105495
 1.0000e-001 105840  5.3069e+000  1.0576e+001 -6.3938e-001 33390 105713,105765,105739
 1.0000e-001 105817  4.6770e+000  1.0203e+001 -4.8429e-001 33390 105713,105791,105765
 1.0000e-001 106090  3.7991e+000  9.2843e+000 -1.6913e-002 33043 106113,105943,105891
 1.0000e-001 106067  2.9302e+000  8.9530e+000 -1.9933e-002 33043 106113,105891,105865
 1.0000e-001 106044  5.7376e+000  1.0312e+001 -4.0261e-001 33043 105891,105943,105917
 1.0000e-001 106021  2.2090e+000  8.9112e+000 -8.5322e-001 33043 105865,105995,105969
 1.0000e-001 106139  5.8747e+000  9.1382e+000 -6.6109e-001 33043 105969,105943,106113
 1.0000e-001 106162  3.7356e+000  8.2231e+000 -7.1615e-001 33043 105969,106113,105865
 1.0000e-001 106412  2.3028e+000  6.4750e+000  1.9041e-001 32539 106435,106291,106239
 1.0000e-001 106389  1.8054e+000  7.4592e+000 -1.0593e-001 32539 106187,106317,106291
 1.0000e-001 106366  2.0934e+000  5.7577e+000 -6.6211e-002 32539 106435,106239,106213
 1.0000e-001 106343  2.4665e+000  5.5067e+000  9.6055e-002 32539 106239,106291,106265
 1.0000e-001 106461  2.2843e+000  6.7599e+000  5.7587e-001 32539 106187,106291,106435
 1.0000e-001 106484  2.2480e+000  6.1543e+000  3.6317e-001 32539 106187,106435,106213
 1.0000e-001 106685  3.3431e+000  7.8252e+000 -7.8530e-001 31835 106535,106587,106561
 1.0000e-001 106662  4.0627e+000  8.5799e+000  6.7757e-002 31835 106509,106587,106535
 1.0000e-001 106639  4.4284e+000  9.6638e+000 -2.5937e-001 31835 106509,106613,106587
 1.0000e-001 106935  2.4587e+000  6.2465e+000  1.5219e-001 31530 106736,106814,106788
 1.0000e-001 106912  2.5755e+000  6.4184e+000  3.0393e-001 31530 106710,106814,106736
 1.0000e-001 106889  2.2865e+000  5.8980e+000  2.7854e-001 31530 106736,106788,106762
 1.0000e-001 106866  3.0045e+000  6.6717e+000  1.5335e-001 31530 106710,106840,106814
 1.0000e-001 107339  2.0006e+000  6.3969e+000 -3.7687e-001 31026 107117,107221,107195
 1.0000e-001 107316  3.3373e+000  6.8706e+000  2.8176e-001 31026 107091,107221,107117
 1.0000e-001 107293  9.1952e-001  6.1194e+000  5.4570e-001 31026 107065,107221,107091
 1.0000e-001 107270  1.4458e+000  7.2197e+000  1.9315e-001 31026 107143,107195,107169
 1.0000e-001 107247  2.6066e-001  5.6153e+000 -5.4124e-001 31026 107117,107195,107143
 1.0000e-001 107538  4.5079e+000  1.1137e+001 -1.1218e-001 30714 107561,107388,107362
 1.0000e-001 107515  4.8452e+000  1.1283e+001 -2.2810e-001 30714 107561,107362,107466
 1.0000e-001 107492  5.3316e+000  1.1339e+001 -4.4904e-001 30714 107414,107466,107440
 1.0000e-001 107587  4.8881e+000  1.0763e+001 -4.4053e-002 30714 107414,107388,107561
 1.0000e-001 107610  5.2509e+000  1.0953e+001 -1.9010e-001 30714 107414,107561,107466
 1.0000e-001 107990  3.8740e+000  9.1160e+000  1.5138e-001 30260 108013,107846,107768
 1.0000e-001 107967  3.8272e+000  9.0052e+000  1.8035e-001 30260 108013,107768,107716
 1.0000e-001 107944  2.9995e+000  1.0509e+001  1.7451e-003 30260 107716,107768,107742
 1.0000e-001 107921  4.5937e+000  7.9810e+000 -2.6838e-001 30260 107768,107846,107820
 1.0000e-001 107898  2.6624e+000  8.2577e+000  6.2696e-002 30260 107768,107820,107794
 1.0000e-001 108039  3.8440e+000  9.0695e+000  2.3646e-001 30260 107872,107846,108013
 1.0000e-001 108062  3.8061e+000  8.9517e+000  2.5962e-001 30260 107872,108013,107716
 1.0000e-001 108261  2.1723e+000  6.4541e+000  5.0614e-001 29870 108284,108085,108163
 1.0000e-001 108238  3.2062e+000  6.6501e+000  5.1321e-001 29870 108085,108189,108163
 1.0000e-001 108215  1.4784e+000  6.2801e+000  5.4123e-001 29870 108284,108163,108137
 1.0000e-001 108310  2.4771e+000  6.2653e+000  3.0074e-001 29870 108111,108085,108284
 1.0000e-001 108333  2.1161e+000  6.3185e+000  3.5175e-001 29870 108111,108284,108137
 1.0000e-001 108664  3.2684e+000  7.8290e+000  4.2852e-001 29480 108465,108569,108543
 1.0000e-001 108641  7.1395e-001  6.9854e+000  7.1488e-001 29480 108439,108569,108465
 1.0000e-001 108618  3.6733e+000  6.9956e+000  1.0924e+000 29480 108465,108543,108491
 1.0000e-001 108595  8.1037e-001  4.6776e+000  7.0412e-002 29480 108491,108543,108517
 1.0000e-001 108993  2.8283e+000  6.9019e+000  3.2124e-001 29076 108794,108872,108820
 1.0000e-001 108970  2.2486e+000  5.1860e+000  3.8467e-001 29076 108768,108872,108794
 1.0000e-001 108947  2.2357e+000  6.8732e+000  7.2400e-001 29076 108820,108872,108846
 1.0000e-001 108924  1.6942e+000  4.7546e+000 -3.3305e-001 29076 108768,108898,108872
 1.0000e-001 109420  2.9705e+000  6.4050e+000  4.0472e-001 28472 109123,109227,109201
 1.0000e-001 109397  2.5493e+000  6.6995e+000  3.1990e-001 28472 109123,109253,109227
 1.0000e-001 109374  3.7781e+000  6.5509e+000 -1.6832e-002 28472 109123,109201,109175
 1.0000e-001 109351  1.6747e+000  6.5361e+000  3.3462e-001 28472 109123,109279,109253
 1.0000e-001 109328  2.5463e+000  5.3781e+000 -1.1827e+000 28472 109123,109175,109149
 1.0000e-001 109305  1.4925e+000  7.3728e+000  1.0033e-001 28472 109097,109279,109123
 1.0000e-001 109749  3.5860e+000  7.3097e+000 -2.9032e-001 28018 109772,109602,109576
 1.0000e-001 109726  3.7957e+000  6.6969e+000  1.4972e-001 28018 109772,109576,109550
 1.0000e-001 109703  2.3088e+000  5.7313e+000 -4.2781e-002 28018 109524,109628,109550
 1.0000e-001 109680  1.2523e+000  5.0994e+000  2.7478e-001 28018 109524,109654,109628
 1.0000e-001 109798  2.6002e+000  6.8135e+000  2.4041e-002 28018 109628,109602,109772
 1.0000e-001 109821  3.5362e+000  6.4092e+000  3.2424e-001 28018 109628,109772,109550
 1.0000e-001 110199  2.9073e+000  7.4600e+000 -1.4016e+000 27564 110029,110081,110055
 1.0000e-001 110176  4.0859e+000  8.1495e+000 -4.9453e-001 27564 109925,110081,110029
 1.0000e-001 110153  5.1807e+000  7.4567e+000 -4.3731e-001 27564 109925,110029,109977
 1.0000e-001 110130  4.3094e+000  7.3008e+000  9.6777e-001 27564 109977,110029,110003
 1.0000e-001 110107  5.0889e+000  8.8028e+000 -1.6531e+000 27564 109925,109977,109951
 1.0000e-001 110398  2.6438e+000  6.3871e+000  1.9565e-001 27003 110248,110326,110300
 1.0000e-001 110375  2.6372e+000  6.7072e+000  1.2951e-001 27003 110222,110326,110248
 1.0000e-001 110352  2.0210e+000  6.1337e+000  1.6736e-001 27003 110248,110300,110274
 1.0000e-001 110646  2.7580e+000  5.8462e+000  2.7733e-001 26563 110669,110473,110421
 1.0000e-001 110623  2.1298e+000  6.0123e+000  2.4297e-001 26563 110669,110421,110551
 1.0000e-001 110600  3.0378e+000  5.5242e+000 -2.0593e-001 26563 110473,110525,110499
 1.0000e-001 110577  2.7078e+000  5.2784e+000 -5.5550e-001 26563 110421,110473,110447
 1.0000e-001 110695  2.4362e+000  5.8869e+000  3.9184e-002 26563 110525,110473,110669
 1.0000e-001 110718  1.8803e+000  5.8827e+000 -1.3514e-001 26563 110525,110669,110551
 1.0000e-001 110870  1.1797e+000  6.3537e+000  9.3112e-002 26166 110769,110821,110795
 1.0000e-001 110847  2.5419e+000  4.1419e+000  1.1220e+000 26166 110743,110821,110769
 1.0000e-001 111380  3.3273e+000  8.8738e+000  8.0729e-001 25712 111403,111109,111083
 1.0000e-001 111357  3.5867e+000  9.6569e+000  4.4566e-001 25712 111403,111083,111239
 1.0000e-001 111334  1.8923e+000  8.7344e+000  2.0679e+000 25712 111109,111161,111135
 1.0000e-001 111311  2.8165e+000  9.9132e+000  1.2364e+000 25712 111057,111239,111083
 1.0000e-001 111288  5.8512e+000  1.2234e+001 -6.6935e-001 25712 111161,111239,111187
 1.0000e-001 111265  4.1214e+000  1.1959e+001 -8.8294e-001 25712 111187,111239,111213
 1.0000e-001 111429  3.7599e+000  8.0545e+000  9.4334e-001 25712 111161,111109,111403
 1.0000e-001 111452  4.0633e+000  8.7970e+000  5.2151e-001 25712 111161,111403,111239
 1.0000e-001 111651  4.7563e+000  1.0129e+001  2.4495e-001 25300 111674,111501,111475
 1.0000e-001 111628  4.7752e+000  9.4107e+000  3.1240e-001 25300 111674,111475,111579
 1.0000e-001 111605  4.5190e+000  1.0223e+001 -5.4994e-001 25300 111501,111553,111527
 1.0000e-001 111700  4.6610e+000  1.0701e+001  2.2878e-001 25300 111553,111501,111674
 1.0000e-001 111723  4.7638e+000  1.0108e+001  3.5205e-001 25300 111553,111674,111579
 1.0000e-001 111922  1.2979e+000  4.5552e+000 -5.8905e-001 24732 111798,111850,111824
 1.0000e-001 111899  1.9090e+000  5.1564e+000 -1.0174e-001 24732 111772,111850,111798
 1.0000e-001 111876  1.4268e+000  5.2511e+000  5.3523e-003 24732 111746,111850,111772
 1.0000e-001 112255  4.0812e+000  1.1177e+001 -1.0715e+000 24142 112056,112108,112082
 1.0000e-001 112232  5.0741e+000  9.9389e+000  2.5566e-001 24142 112056,112134,112108
 1.0000e-001 112209  2.7143e+000  7.3880e+000  1.2965e+000 24142 112056,112160,112134
 1.0000e-001 112186  2.3055e+000  8.3936e+000  2.0454e+000 24142 112030,112160,112056
 1.0000e-001 112601  2.4558e+000  5.9393e+000  2.5896e-001 23852 112624,112382,112356
 1.0000e-001 112578  2.4298e+000  6.2861e+000  1.3316e-001 23852 112696,112624,112356
 1.0000e-001 112555  2.5424e+000  6.3278e+000 -1.3622e-002 23852 112696,112356,112304
 1.0000e-001 112532  2.2003e+000  6.1535e+000  1.0002e-001 23852 112304,112356,112330
 1.0000e-001 112509  3.2561e+000  7.4713e+000  2.2390e-002 23852 112278,112460,112304
 1.0000e-001 112486  2.4530e+000  6.4955e+000  3.7557e-001 23852 112382,112434,112408
 1.0000e-001 112650  2.6794e+000  6.2346e+000  4.6842e-003 23852 112434,112382,112624
 1.0000e-001 112673  2.4915e+000  6.3749e+000  2.0870e-002 23852 112434,112624,112460
 1.0000e-001 112722  2.6763e+000  6.3362e+000 -1.8764e-002 23852 112460,112624,112696
 1.0000e-001 112745  2.8022e+000  6.4706e+000 -1.8432e-001 23852 112460,112696,112304
 1.0000e-001 113015  1.7205e+000  5.7523e+000 -1.1892e-002 23490 112842,112894,112868
 1.0000e-001 112992  1.5462e+000  4.8890e+000 -1.3244e-001 23490 112816,112894,112842
 1.0000e-001 112969  1.5645e+000  4.9050e+000  1.6305e-001 23490 112790,112894,112816
 1.0000e-001 112946  2.1708e+000  6.1508e+000 -2.4755e-002 23490 112790,112920,112894
 1.0000e-001 113348  3.7289e+000  5.6517e+000 -4.0336e-001 22970 113175,113253,113227
 1.0000e-001 113325  4.4998e+000  6.2194e+000 -6.5114e-001 22970 113149,113253,113175
 1.0000e-001 113302  4.0062e+000  6.5113e+000 -2.2033e-001 22970 113175,113227,113201
 1.0000e-001 113279  4.3701e+000  5.7520e+000 -5.4681e-001 22970 113123,113253,113149
 1.0000e-001 113645  2.7172e+000  7.6350e+000 -2.3974e-001 22366 113423,113527,113449
 1.0000e-001 113622  1.9167e+000  6.8834e+000 -5.5031e-001 22366 113371,113527,113423
 1.0000e-001 113599  2.5689e+000  7.2250e+000 -5.0550e-001 22366 113449,113527,113501
 1.0000e-001 113576  2.7175e+000  7.5830e+000 -4.7700e-001 22366 113449,113501,113475
 1.0000e-001 113553  2.4812e+000  7.1562e+000 -1.6511e+000 22366 113371,113423,113397
 1.0000e-001 113893  2.4854e+000  5.8562e+000  9.5629e-002 21912 113916,113746,113720
 1.0000e-001 113870  2.5251e+000  6.4446e+000  1.8753e-001 21912 113916,113720,113668
 1.0000e-001 113847  2.5788e+000  6.4702e+000  1.4509e-001 21912 113988,113798,113772
 1.0000e-001 113824  2.6383e+000  6.8065e+000 -9.4489e-002 21912 113668,113720,113694
 1.0000e-001 113942  2.7049e+000  6.4598e+000  5.2156e-002 21912 113772,113746,113916
 1.0000e-001 113965  2.5636e+000  6.4303e+000  1.6603e-001 21912 113988,113772,113916
 1.0000e-001 114014  2.5528e+000  6.5183e+000  1.6473e-001 21912 113668,113798,113988
 1.0000e-001 114037  2.5692e+000  6.5098e+000  1.6823e-001 21912 113668,113988,113916
 1.0000e-001 114287  2.1593e+000  7.7697e+000  2.1447e-001 21408 114088,114140,114114
 1.0000e-001 114264  2.1585e+000  7.0419e+000  1.1954e-002 21408 114310,114140,114088
 1.0000e-001 114241  2.6168e+000  7.2668e+000 -6.0653e-002 21408 114310,114088,114192
 1.0000e-001 114218  2.2972e+000  6.8161e+000 -2.5698e-001 21408 114062,114192,114088
 1.0000e-001 114336  2.5375e+000  6.8307e+000  2.3289e-001 21408 114166,114140,114310
 1.0000e-001 114359  2.8522e+000  6.9994e+000  1.6846e-001 21408 114166,114310,114192
 1.0000e-001 114609  2.4922e+000  5.3278e+000  6.5419e-001 21018 114632,114488,114436
 1.0000e-001 114586  2.5464e+000  5.8735e+000  3.9328e-001 21018 114632,114436,114410
 1.0000e-001 114563  2.5070e+000  5.7296e+000 -1.3670e-001 21018 114384,114514,114410
 1.0000e-001 114540  8.8053e-001  5.3232e+000  6.2599e-001 21018 114436,114488,114462
 1.0000e-001 114658  2.7357e+000  5.6178e+000  2.7663e-001 21018 114514,114488,114632
 1.0000e-001 114681  2.6655e+000  6.0816e+000  3.8444e-002 21018 114514,114632,114410
 1.0000e-001 114882  8.3977e+000  1.1527e+001  2.6560e-001 20614 114732,114784,114758
 1.0000e-001 114859  7.8899e+000  1.1234e+001  4.1478e-001 20614 114732,114810,114784
 1.0000e-001 114836  7.2999e+000  9.3757e+000 -2.1479e-001 20614 114706,114810,114732
 1.0000e-001 115132  2.3022e+000  9.0162e+000 -6.3948e-001 20110 114907,115011,114933
 1.0000e-001 115109  3.9333e+000  9.7301e+000 -7.8315e-001 20110 114907,115037,115011
 1.0000e-001 115086  2.8210e+000  8.9752e+000 -6.3232e-001 20110 114933,115011,114985
 1.0000e-001 115063  2.4106e-001  1.0568e+001 -2.9595e+000 20110 114933,114985,114959
 1.0000e-001 115284  2.3863e+000  8.2644e+000 -6.5186e-002 19456 115378,115307,115157
 1.0000e-001 115261  2.7134e+000  8.0270e+000 -1.2825e-002 19456 115378,115157,115235
 1.0000e-001 115333  2.6048e+000  9.2363e+000  4.6712e-003 19456 115183,115157,115307
 1.0000e-001 115404  2.7882e+000  8.4209e+000  1.1633e-001 19456 115209,115307,115378
 1.0000e-001 115427  3.2142e+000  8.2279e+000  1.4609e-001 19456 115209,115378,115235
 1.0000e-001 115677  3.8788e+000  1.0726e+001  2.9295e-001 19002 115504,115582,115530
 1.0000e-001 115654  4.2438e+000  1.0299e+001  9.5930e-002 19002 115478,115582,115504
 1.0000e-001 115631  3.6254e+000  1.0111e+001  6.5696e-001 19002 115452,115582,115478
 1.0000e-001 115608  4.0420e+000  1.0718e+001  1.3908e-001 19002 115530,115582,115556
 1.0000e-001 115998  3.3601e+000  6.0096e+000 -7.3098e-002 18712 115802,115880,115854
 1.0000e-001 115975  3.3111e+000  6.3200e+000 -2.2579e-001 18712 115724,115880,115802
 1.0000e-001 115952  3.0155e+000  6.2611e+000 -6.8517e-002 18712 115724,115802,115776
 1.0000e-001 115929  3.1657e+000  6.8553e+000 -2.9545e-001 18712 115724,115776,115750
 1.0000e-001 115906  2.8911e+000  5.8512e+000  6.1855e-003 18712 115802,115854,115828
 1.0000e-001 116270  2.2658e+000  5.8415e+000  1.7799e-001 18308 116045,116123,116071
 1.0000e-001 116247  2.4609e+000  6.3735e+000  3.6522e-002 18308 116045,116175,116123
 1.0000e-001 116224  2.4743e+000  6.1616e+000  1.1399e-002 18308 116123,116175,116149
 1.0000e-001 116201  3.7599e+000  6.4845e+000  6.2875e-002 18308 116071,116123,116097
 1.0000e-001 116422  3.8820e+000  1.0531e+001 -4.8345e-002 17996 116321,116373,116347
 1.0000e-001 116399  4.5064e+000  1.1097e+001  2.8888e-001 17996 116295,116373,116321
 1.0000e-001 116574  1.8727e+000  6.1889e+000 -1.1720e-001 17392 116473,116525,116499
 1.0000e-001 116551  2.7538e+000  7.3573e+000  4.0400e-001 17392 116447,116525,116473
 1.0000e-001 116797  2.5807e+000  6.9225e+000  1.6130e-001 16938 116621,116699,116673
 1.0000e-001 116774  3.2832e-001  7.3444e+000  3.2488e-001 16938 116621,116725,116699
 1.0000e-001 116751  2.4461e+000  6.6084e+000  8.0213e-002 16938 116621,116673,116647
 1.0000e-001 116998  2.4319e+000  6.0606e+000  2.1515e-002 16434 117021,116874,116848
 1.0000e-001 116975  2.6508e+000  6.1825e+000  8.9457e-002 16434 117021,116848,116822
 1.0000e-001 116952  2.2943e+000  5.9948e+000 -3.0178e-002 16434 116874,116926,116900
 1.0000e-001 117047  2.3350e+000  6.1427e+000 -1.5639e-002 16434 116926,116874,117021
 1.0000e-001 117070  2.4087e+000  6.1456e+000  3.0172e-002 16434 116926,117021,116822
 1.0000e-001 117293  3.9262e+000  1.0995e+001  2.6138e-001 16070 117117,117169,117143
 1.0000e-001 117270  3.9784e+000  1.1803e+001 -8.0918e-001 16070 117117,117221,117169
 1.0000e-001 117247  2.7943e+000  9.1452e+000 -1.2902e+000 16070 117169,117221,117195
 1.0000e-001 117445  1.1428e+000  5.5572e+000  4.0459e-002 15645 117318,117370,117344
 1.0000e-001 117422  1.7369e+000  5.8280e+000 -2.3313e-002 15645 117318,117396,117370
 1.0000e-001 117548  5.9166e+000  9.8651e+000  1.9753e+000 417 117470,117522,117496
 2.0000e-001 70760  8.1724e-001  6.3242e-001 -6.3377e-001 70380 70633,70685,70659
 2.0000e-001 70737  2.5986e-001  1.0323e+000 -7.6586e-001 70380 70633,70711,70685
 2.0000e-001 70861  3.9866e-001  1.3715e+000 -5.5128e-001 70068 70783,70835,70809
 2.0000e-001 71180  1.8166e-001  1.0824e+001 -5.3012e-002 69870 70932,70984,70958
 2.0000e-001 71157 -8.2926e-001  1.0436e+001  3.0257e-001 69870 70932,71010,70984
 2.0000e-001 71134 -1.4829e+000  1.2470e+001  4.9760e-002 69870 70932,71036,71010
 2.0000e-001 71111 -3.6789e+000  5.1036e+000  5.3440e+000 69870 70932,71062,71036
 2.0000e-001 71088  4.0132e-002  8.1287e+000  1.1390e+000 69870 70906,71062,70932
 2.0000e-001 71428  6.8858e+000  1.9187e+001  8.3411e-001 69694 71451,71281,71255
 2.0000e-001 71405  6.2071e+000  1.7243e+001  3.9577e-001 69694 71523,71451,71255
 2.0000e-001 71382  7.1711e+000  1.7651e+001  2.9323e+000 69694 71523,71255,71229
 2.0000e-001 71359  3.1744e+000  1.3104e+001 -1.7799e-001 69694 71595,71333,71307
 2.0000e-001 71477  9.3434e+000  1.7969e+001 -2.4352e+000 69694 71307,71281,71451
 2.0000e-001 71500  4.0190e+000  1.6054e+001 -2.1417e+000 69694 71595,71307,71451
 2.0000e-001 71549  2.2107e+000  1.5827e+001  1.8383e-001 69694 71203,71451,71523
 2.0000e-001 71572  2.0364e+000  1.5426e+001  2.4342e+000 69694 71203,71523,71229
 2.0000e-001 71621  5.1615e+000  9.5610e+000 -9.0903e-001 69694 71203,71333,71595
 2.0000e-001 71644  4.1421e+000  1.1301e+001 -1.6528e+000 69694 71203,71595,71451
 2.0000e-001 71745 -3.1188e-001  3.7245e-001 -2.4739e-001 69382 71667,71719,71693
 2.0000e-001 72100 -1.0898e+000  4.2874e+000 -1.3603e+000 69184 71875,71979,71901
 2.0000e-001 72077  2.2930e-001  6.3832e+000 -7.9598e-001 69184 71875,72005,71979
 2.0000e-001 72054 -1.0354e+000 -6.8337e-001 -2.5784e+000 69184 71901,71979,71953
 2.0000e-001 72031  8.1839e-001  2.4306e+000 -1.7954e+000 69184 71901,71953,71927
 2.0000e-001 72250 -1.0236e+000  4.6073e+000  7.9351e-001 68986 72149,72201,72175
 2.0000e-001 72227 -1.6637e+000  9.4877e+000 -1.3103e+000 68986 72123,72201,72149
 2.0000e-001 72547 -2.1451e-001  8.0484e+000 -7.1454e-001 68582 72570,72403,72377
 2.0000e-001 72524  1.2784e-001  7.9408e+000 -9.9418e-001 68582 72570,72377,72351
 2.0000e-001 72501 -5.5837e-002  6.7606e+000 -3.3003e-001 68582 72642,72299,72429
 2.0000e-001 72478  2.9939e-001  4.7200e+000 -1.3699e+000 68582 72273,72429,72299
 2.0000e-001 72455  1.1956e+000  1.2274e+001 -4.9243e-001 68582 72299,72351,72325
 2.0000e-001 72596  7.4764e-001  8.8998e+000  2.1738e-001 68582 72429,72403,72570
 2.0000e-001 72619  1.6036e-002  7.1580e+000 -2.9770e-001 68582 72642,72429,72570
 2.0000e-001 72668 -6.6433e-001  7.0249e+000 -1.1268e+000 68582 72351,72299,72642
 2.0000e-001 72691 -3.3504e-001  7.8692e+000 -9.8476e-001 68582 72351,72642,72570
 2.0000e-001 73095 -7.1969e-001  5.2078e+000  7.2510e-001 68384 72873,72925,72899
 2.0000e-001 73072 -9.0288e-001  5.2969e+000  9.3758e-001 68384 72847,72925,72873
 2.0000e-001 73049 -1.0008e+000  6.1755e-002  2.6774e+000 68384 72847,72951,72925
 2.0000e-001 73026  1.4107e+000  3.4557e+000  1.6183e+000 68384 72821,72951,72847
 2.0000e-001 73003  5.3237e-001  2.2106e+000  1.1604e+000 68384 72821,72977,72951
 2.0000e-001 73552  1.6277e+000  9.7403e+000  2.7818e-001 68044 73304,73434,73408
 2.0000e-001 73529  3.3200e+000  8.6496e+000 -1.7922e+000 68044 73278,73434,73304
 2.0000e-001 73506 -1.9833e+000  1.1449e+001 -1.3924e-002 68044 73356,73408,73382
 2.0000e-001 73483  2.6191e+000  1.2900e+001 -3.9988e-001 68044 73304,73408,73356
 2.0000e-001 73460  3.7208e+000  1.7032e+001  2.0652e-002 68044 73304,73356,73330
 2.0000e-001 73871  8.8438e-001  1.0985e+001  1.2464e-001 67846 73675,73727,73701
 2.0000e-001 73848 -1.9538e+000  8.5441e+000  1.1660e+000 67846 73649,73727,73675
 2.0000e-001 73825  1.7505e-001  1.2392e+001 -8.1207e-001 67846 73623,73727,73649
 2.0000e-001 73802 -2.5289e+000  1.0055e+001 -1.9060e+000 67846 73623,73753,73727
 2.0000e-001 73779 -8.9336e-001  8.0343e+000 -6.0551e+000 67846 73597,73753,73623
 2.0000e-001 74021 -2.2546e+000  5.3423e+000 -8.1384e-001 67598 73920,73972,73946
 2.0000e-001 73998 -1.0402e+000  7.0104e+000  1.7111e-001 67598 73894,73972,73920
 2.0000e-001 74271 -8.4132e-001  5.7260e+000 -5.6194e-001 67286 74072,74176,74150
 2.0000e-001 74248  9.0580e-001  5.0138e+000 -1.0638e+000 67286 74046,74176,74072
 2.0000e-001 74225  9.9594e-001  6.5860e+000  7.9034e-001 67286 74072,74150,74098
 2.0000e-001 74202  1.4857e+000  7.3939e+000  1.4453e+000 67286 74098,74150,74124
 2.0000e-001 74374  1.8693e+000  1.7003e+001  8.5779e-001 67088 74296,74348,74322
 2.0000e-001 74646 -4.4712e+000  9.5510e+000 -3.3397e+000 66890 74421,74525,74447
 2.0000e-001 74623  4.3409e-001  1.2211e+001 -1.0399e+000 66890 74421,74551,74525
 2.0000e-001 74600 -3.1896e-001  1.2423e+001  7.8303e-002 66890 74447,74525,74473
 2.0000e-001 74577 -3.5490e+000  9.1229e+000  1.4938e+000 66890 74473,74525,74499
 2.0000e-001 75254  9.8211e-001  2.9818e+000 -1.5323e+000 66528 74885,75067,75041
 2.0000e-001 75231  3.1539e+000  1.4606e+000 -2.1830e+000 66528 74859,75067,74885
 2.0000e-001 75208  1.4204e+000  9.0053e+000 -8.5636e-001 66528 74937,75015,74963
 2.0000e-001 75185 -2.9557e+000  3.5774e+000 -3.0406e+000 66528 74911,75015,74937
 2.0000e-001 75162  1.1769e+000  6.0286e+000 -1.9792e+000 66528 74911,75041,75015
 2.0000e-001 75139  4.6134e-001  2.5406e+000 -1.7298e+000 66528 74885,75041,74911
 2.0000e-001 75116  2.3718e+000  2.3487e+000 -1.6424e+000 66528 74833,75067,74859
 2.0000e-001 75093 -4.0974e-001  1.1096e+001  1.9485e-001 66528 74963,75015,74989
 2.0000e-001 75453 -2.0599e-001  8.2528e+000  6.8886e-001 66238 75303,75381,75355
 2.0000e-001 75430 -1.1319e+000  6.7170e+000  1.1195e+000 66238 75277,75381,75303
 2.0000e-001 75407  1.7113e+000  7.1537e+000  2.2172e+000 66238 75303,75355,75329
 2.0000e-001 75701  7.1104e-001  1.6629e+001 -1.0696e+000 65834 75528,75606,75580
 2.0000e-001 75678  2.0050e+000  2.2547e+001 -5.2925e-001 65834 75502,75606,75528
 2.0000e-001 75655  1.5293e+000  1.7502e+001 -4.6257e-001 65834 75528,75580,75554
 2.0000e-001 75632  1.9388e+000  2.3038e+001  8.0837e-001 65834 75476,75606,75502
 2.0000e-001 75902  3.4955e+000  1.9576e+001 -3.4667e-001 65636 75726,75804,75752
 2.0000e-001 75879  8.2295e+000  2.1510e+001 -4.3161e-001 65636 75726,75830,75804
 2.0000e-001 75856 -3.9870e-001  1.8782e+001 -2.2672e-001 65636 75752,75804,75778
 2.0000e-001 76103 -2.3392e+000  1.0870e+001  1.6727e+000 65296 76126,75979,75953
 2.0000e-001 76080 -5.2671e+000  1.1295e+001  2.1623e+000 65296 76126,75953,75927
 2.0000e-001 76057 -6.4365e-001  1.2405e+001 -8.4223e-001 65296 76198,76005,75979
 2.0000e-001 76152 -7.3846e-001  1.1345e+001  1.9425e-001 65296 76198,75979,76126
 2.0000e-001 76175 -3.4558e+000  1.2330e+001  4.5256e-001 65296 76031,76126,75927
 2.0000e-001 76224 -2.4295e+000  1.0825e+001 -1.7681e-001 65296 76031,76005,76198
 2.0000e-001 76247 -2.3558e+000  1.0176e+001  7.3096e-001 65296 76031,76198,76126
 2.0000e-001 76602  1.9439e+000  9.0491e+000  6.8155e-001 64892 76377,76481,76403
 2.0000e-001 76579  1.9002e+000  8.4518e+000  3.4101e-001 64892 76377,76507,76481
 2.0000e-001 76556  4.2686e+000  9.5717e+000 -2.5597e-001 64892 76403,76481,76429
 2.0000e-001 76533 -4.7788e+000  5.6009e+000 -1.4281e+000 64892 76429,76481,76455
 2.0000e-001 76801 -1.8213e+000  1.2757e+001  3.0076e+000 64438 76677,76729,76703
 2.0000e-001 76778 -4.1243e-001  1.2322e+001  2.7576e-003 64438 76651,76729,76677
 2.0000e-001 76755  8.8765e-001  1.2378e+001  1.1150e+000 64438 76625,76729,76651
 2.0000e-001 77230  1.2903e-001  9.0267e+000 -9.4199e-002 63920 77253,76959,76933
 2.0000e-001 77207  7.7554e-001  8.9630e+000  1.9029e-001 63920 77253,76933,77063
 2.0000e-001 77184 -6.7075e-001  8.2993e+000 -5.3402e-001 63920 76959,77037,76985
 2.0000e-001 77161 -9.9737e-001  7.7053e+000 -6.3278e-001 63920 76907,77063,76933
 2.0000e-001 77138  2.4338e-001  9.6976e+000 -6.3289e-002 63920 76985,77037,77011
 2.0000e-001 77115 -1.6691e+000  9.3055e+000 -5.5526e-001 63920 76907,77089,77063
 2.0000e-001 77279  7.0387e-001  9.2491e+000  4.9104e-002 63920 77037,76959,77253
 2.0000e-001 77302  1.3809e+000  9.2463e+000  3.6499e-001 63920 77037,77253,77063
 2.0000e-001 77680  3.4523e+000  1.4076e+001  6.5024e-001 63316 77703,77484,77432
 2.0000e-001 77657  4.0673e+000  1.3538e+001 -1.0656e-001 63316 77703,77432,77406
 2.0000e-001 77634 -1.4741e+000  1.2384e+001  1.0909e+000 63316 77406,77536,77510
 2.0000e-001 77611 -3.5236e+000  1.0062e+001  2.3103e+000 63316 77432,77484,77458
 2.0000e-001 77588  5.1019e+000  1.4725e+001  2.4611e+000 63316 77406,77562,77536
 2.0000e-001 77729  2.1914e+000  1.2670e+001  1.2880e+000 63316 77510,77484,77703
 2.0000e-001 77752  3.5328e+000  1.3159e+001  3.2254e-001 63316 77510,77703,77406
 2.0000e-001 78000  1.1467e+000  1.6971e+001 -4.8976e-001 62812 77801,77853,77827
 2.0000e-001 77977  2.8153e+000  1.7633e+001 -1.2976e+000 62812 77801,77879,77853
 2.0000e-001 77954 -5.1648e+000  1.4886e+001 -3.1336e+000 62812 77801,77905,77879
 2.0000e-001 77931  3.9468e-001  2.2826e+001  9.2467e-001 62812 77775,77905,77801
 2.0000e-001 78380  1.2279e+000  7.3815e+000 -8.1531e-001 62350 78184,78262,78236
 2.0000e-001 78357  8.3451e-001  1.1745e+001 -4.7489e-001 62350 78132,78262,78184
 2.0000e-001 78334  1.5405e-001  1.1264e+001 -3.1472e+000 62350 78106,78262,78132
 2.0000e-001 78311 -3.7689e+000  1.2914e+001  3.5844e+000 62350 78132,78184,78158
 2.0000e-001 78288 -2.6158e+000  7.8931e+000 -1.7825e+000 62350 78184,78236,78210
 2.0000e-001 78837  2.0768e+000  1.2618e+001 -2.1635e+000 61946 78615,78667,78641
 2.0000e-001 78814  8.7251e+000  1.5692e+001 -1.3923e+000 61946 78589,78667,78615
 2.0000e-001 78791  5.7172e+000  1.1924e+001  3.6081e-001 61946 78589,78719,78667
 2.0000e-001 78768  7.7068e+000  1.9871e+001  9.0533e-001 61946 78667,78719,78693
 2.0000e-001 78745  7.1675e+000  1.0707e+001 -3.7368e-001 61946 78563,78719,78589
 2.0000e-001 78987 -1.6428e+000  9.7762e+000  2.9165e-001 61335 79010,78886,78860
 2.0000e-001 78964 -6.9465e-001  1.0524e+001 -9.8827e-002 61335 79010,78860,78938
 2.0000e-001 79036  4.5791e-001  1.1778e+001 -9.3965e-001 61335 79082,79010,78912
 2.0000e-001 79059 -5.7595e-001  1.0451e+001 -1.1826e-001 61335 78912,79010,78938
 2.0000e-001 79108 -1.0925e+000  7.9911e+000 -3.0290e-001 61335 78886,79010,79082
 2.0000e-001 79437 -3.8529e-001  1.1955e+001 -1.1504e+000 60888 79460,79238,79212
 2.0000e-001 79414 -1.7921e+000  8.1497e+000 -1.6182e+000 60888 79460,79212,79342
 2.0000e-001 79391 -1.4246e+000  1.1885e+001  1.6011e-001 60888 79532,79264,79238
 2.0000e-001 79368 -4.5940e+000  1.7017e+001  2.8884e+000 60888 79264,79316,79290
 2.0000e-001 79486 -1.4029e+000  1.1721e+001  2.7790e-001 60888 79532,79238,79460
 2.0000e-001 79509 -5.9114e-001  1.0607e+001  9.5981e-002 60888 79316,79460,79342
 2.0000e-001 79558 -1.3513e+000  1.2119e+001  2.4922e-001 60888 79316,79264,79532
 2.0000e-001 79581 -1.1960e+000  1.1992e+001  3.8364e-001 60888 79316,79532,79460
 2.0000e-001 79878  4.2053e-001  1.5364e+001 -1.5634e-001 60484 79682,79760,79734
 2.0000e-001 79855 -3.3100e-002  1.3854e+001 -6.3634e-001 60484 79656,79760,79682
 2.0000e-001 79832  3.0153e-001  1.3409e+001 -8.1312e-001 60484 79604,79760,79656
 2.0000e-001 79809 -4.0266e-001  1.6318e+001 -2.0282e+000 60484 79604,79656,79630
 2.0000e-001 79786 -4.1972e+000  1.6129e+001 -8.5643e-001 60484 79682,79734,79708
 2.0000e-001 80101  4.9972e+000  1.7726e+001 -1.6571e-001 60022 79951,80029,80003
 2.0000e-001 80078  2.5159e+000  1.8656e+001  3.8451e-001 60022 79925,80029,79951
 2.0000e-001 80055  2.4278e+000  1.7042e+001  8.9152e-001 60022 79951,80003,79977
 2.0000e-001 80351  2.1865e+000  1.4679e+001  1.9822e-001 59625 80152,80256,80204
 2.0000e-001 80328  3.3774e-001  1.3182e+001 -4.8893e-001 59625 80126,80256,80152
 2.0000e-001 80305  3.1378e+000  1.6899e+001  1.4172e-001 59625 80204,80256,80230
 2.0000e-001 80282  2.3602e+000  1.4413e+001  2.5100e-001 59625 80152,80204,80178
 2.0000e-001 80552  4.8181e+000  1.6974e+001  2.5787e-001 59121 80575,80402,80376
 2.0000e-001 80529  4.6042e+000  1.6469e+001  3.3236e-001 59121 80575,80376,80480
 2.0000e-001 80506  1.1487e+000  2.0482e+001 -3.0527e+000 59121 80428,80480,80454
 2.0000e-001 80601  4.5102e+000  1.7275e+001  6.1725e-001 59121 80428,80402,80575
 2.0000e-001 80624  4.3246e+000  1.6819e+001  6.7722e-001 59121 80428,80575,80480
 2.0000e-001 81183  1.0661e+001  1.6305e+001 -3.2118e+000 58553 81206,80863,80837
 2.0000e-001 81160  4.1919e+000  1.2277e+001 -1.1954e+000 58553 81350,81206,80837
 2.0000e-001 81137  6.8227e+000  1.3597e+001 -7.6711e-001 58553 81278,80915,80863
 2.0000e-001 81114  3.3769e+000  1.2117e+001  4.8683e-001 58553 81350,80837,80811
 2.0000e-001 81091  4.5038e+000  1.3955e+001 -1.1734e+000 58553 81422,80967,80941
 2.0000e-001 81068  2.8458e+000  1.3415e+001  1.1145e+000 58553 80967,81019,80993
 2.0000e-001 81045  6.4629e+000  1.0520e+001 -7.0939e-001 58553 80863,80915,80889
 2.0000e-001 81232  5.8651e+000  1.4780e+001 -1.5689e+000 58553 81278,80863,81206
 2.0000e-001 81255  4.7361e+000  1.4492e+001 -1.1015e+000 58553 81422,80941,81206
 2.0000e-001 81304  5.9893e+000  1.1536e+001 -9.0639e-001 58553 80941,80915,81278
 2.0000e-001 81327  5.1812e+000  1.2985e+001 -1.8386e+000 58553 80941,81278,81206
 2.0000e-001 81376  4.9021e+000  1.4269e+001 -1.6187e+000 58553 81019,81206,81350
 2.0000e-001 81399  4.5925e+000  1.4006e+001 -1.2945e-001 58553 81019,81350,80811
 2.0000e-001 81448  4.3579e+000  1.4471e+001 -1.3606e+000 58553 81019,80967,81422
 2.0000e-001 81471  4.4002e+000  1.4685e+001 -1.3663e+000 58553 81019,81422,81206
 2.0000e-001 81768  3.6110e+000  1.7839e+001  9.1809e-001 57877 81791,81572,81520
 2.0000e-001 81745  3.8918e+000  1.8013e+001 -7.7608e-001 57877 81791,81520,81494
 2.0000e-001 81722  3.1766e+000  1.6642e+001  1.0237e-001 57877 81863,81650,81598
 2.0000e-001 81699  3.1148e+000  1.6769e+001  1.0104e+000 57877 81598,81650,81624
 2.0000e-001 81676  2.8089e+000  2.0048e+001  8.1674e-001 57877 81520,81572,81546
 2.0000e-001 81817  2.7693e+000  1.5187e+001  1.1975e+000 57877 81598,81572,81791
 2.0000e-001 81840  3.0638e+000  1.7439e+001  3.3006e-001 57877 81863,81598,81791
 2.0000e-001 81889  2.9319e+000  1.4805e+001 -4.2871e-003 57877 81494,81650,81863
 2.0000e-001 81912  3.1659e+000  1.6215e+001  4.2594e-002 57877 81494,81863,81791
 2.0000e-001 82160  2.5455e+000  1.5788e+001 -5.1941e-001 57473 81935,82039,82013
 2.0000e-001 82137  5.3644e-001  1.4931e+001 -1.3273e-001 57473 81935,82065,82039
 2.0000e-001 82114  3.0796e+000  1.7900e+001 -2.5266e-001 57473 81935,82013,81961
 2.0000e-001 82091 -1.2405e+000  1.9134e+001 -3.6525e-001 57473 81961,82013,81987
 2.0000e-001 82719  2.1675e+000  1.0881e+001  5.7302e-001 56962 82814,82742,82425
 2.0000e-001 82696  1.7473e+000  9.9007e+000  1.0122e+000 56962 82742,82347,82555
 2.0000e-001 82673  2.4106e+000  1.1379e+001  4.0414e-001 56962 82814,82425,82399
 2.0000e-001 82650  2.2943e+000  1.1262e+001  1.0829e-001 56962 82425,82477,82451
 2.0000e-001 82627  3.5646e+000  1.2037e+001  7.2076e-001 56962 82425,82529,82477
 2.0000e-001 82604  2.8643e+000  1.6062e+001  2.7243e+000 56962 82477,82529,82503
 2.0000e-001 82581  3.5112e+000  1.3826e+001  6.5445e-001 56962 82347,82399,82373
 2.0000e-001 82768  2.4077e+000  1.0532e+001  1.1773e-001 56962 82529,82425,82742
 2.0000e-001 82791  1.2541e+000  1.0236e+001  6.5026e-002 56962 82529,82742,82555
 2.0000e-001 82840  2.4627e+000  1.0294e+001  6.9129e-001 56962 82347,82742,82814
 2.0000e-001 82863  2.5272e+000  1.0636e+001  5.9294e-001 56962 82347,82814,82399
 2.0000e-001 83467 -3.3090e+000  8.7078e+000 -2.6445e+000 56300 83124,83176,83150
 2.0000e-001 83444  3.0651e-001  8.6523e+000 -2.6507e-001 56300 83490,83176,83124
 2.0000e-001 83421  5.5122e-001  9.0698e+000 -6.5339e-002 56300 83490,83124,83280
 2.0000e-001 83398  9.9818e-001  7.9638e+000  8.6693e-001 56300 83202,83280,83254
 2.0000e-001 83375  1.3428e+000  1.0592e+001  2.5725e-001 56300 83046,83280,83124
 2.0000e-001 83352  1.0926e+000  1.1752e+001  6.3986e-001 56300 83046,83124,83098
 2.0000e-001 83329  1.4263e+000  1.2209e+001  9.9803e-001 56300 83202,83254,83228
 2.0000e-001 83306  2.1440e+000  1.5523e+001  5.2164e-001 56300 83046,83098,83072
 2.0000e-001 83516  1.9811e-001  9.2276e+000 -7.8678e-002 56300 83202,83176,83490
 2.0000e-001 83539  3.0874e-001  9.3696e+000  1.3839e-001 56300 83202,83490,83280
 2.0000e-001 83787  4.2018e-002  1.4431e+001 -9.3501e-001 55960 83588,83692,83666
 2.0000e-001 83764 -3.1949e-001  1.8068e+001  6.9977e-001 55960 83562,83692,83588
 2.0000e-001 83741  3.6653e+000  1.4732e+001 -1.6554e-001 55960 83588,83666,83614
 2.0000e-001 83718  2.6740e+000  1.5054e+001 -7.2990e-003 55960 83614,83666,83640
 2.0000e-001 83937 -9.8743e-001  9.0519e+000  5.5847e-001 55499 83810,83862,83836
 2.0000e-001 83914  7.3155e-001  9.3923e+000  2.0745e-001 55499 83810,83888,83862
 2.0000e-001 84138  2.5849e+000  1.0843e+001 -1.6701e+000 55152 83988,84066,84040
 2.0000e-001 84115  5.1703e+000  1.7846e+001 -1.1877e-001 55152 83962,84066,83988
 2.0000e-001 84092  4.7039e+000  1.4868e+001 -3.3025e-001 55152 83988,84040,84014
 2.0000e-001 84471  3.1353e+000  1.7533e+001 -2.2475e+000 54648 84324,84376,84350
 2.0000e-001 84448 -1.4120e+000  1.1225e+001 -2.5856e-001 54648 84272,84376,84324
 2.0000e-001 84425 -5.9888e-001  9.0420e+000  1.5550e+000 54648 84246,84376,84272
 2.0000e-001 84402  6.8794e-001  1.1495e+001 -2.7554e+000 54648 84272,84324,84298
 2.0000e-001 84849  3.5537e+000  1.5371e+001 -2.9993e-001 53922 84627,84731,84705
 2.0000e-001 84826  6.1763e+000  1.8042e+001  8.9118e-001 53922 84575,84731,84627
 2.0000e-001 84803  5.2440e+000  1.8165e+001  3.5964e+000 53922 84575,84627,84601
 2.0000e-001 84780 -1.8062e+000  1.3714e+001 -1.7127e+000 53922 84627,84705,84653
 2.0000e-001 84757  5.8839e-001  1.4544e+001 -9.8291e-001 53922 84653,84705,84679
 2.0000e-001 85581  1.6603e+000  8.4452e+000 -4.1676e-001 53582 85604,85111,85319
 2.0000e-001 85558  8.3729e+000  9.9593e+000 -1.0395e+000 53582 85111,85345,85319
 2.0000e-001 85535  5.4934e+000  9.5455e+000 -1.8935e+000 53582 85604,85319,85293
 2.0000e-001 85512 -5.4715e+000  9.4449e+000  1.4803e+000 53582 85241,85293,85267
 2.0000e-001 85489 -1.4501e+000  9.1914e+000  4.5038e-001 53582 85676,85241,85189
 2.0000e-001 85466  9.0151e-001  9.9015e+000 -1.9883e-001 53582 85676,85189,85137
 2.0000e-001 85443 -6.7582e-001  1.1821e+001  1.4940e-002 53582 85189,85241,85215
 2.0000e-001 85420  3.1198e-001  1.2820e+001 -8.3047e-001 53582 85137,85189,85163
 2.0000e-001 85397  2.8419e+000  8.9985e+000 -9.9944e-001 53582 85111,85371,85345
 2.0000e-001 85630 -5.5828e-001  5.8246e+000  2.4702e+000 53582 85137,85111,85604
 2.0000e-001 85653  3.0636e+000  9.3973e+000  1.3662e+000 53582 85748,85604,85293
 2.0000e-001 85702 -1.9150e+000  7.9651e+000  2.6928e+000 53582 85293,85241,85676
 2.0000e-001 85725  1.7767e+000  1.0046e+001  1.6485e+000 53582 85748,85293,85676
 2.0000e-001 85774  1.0385e+000  8.7564e+000  7.0993e-001 53582 85137,85604,85748
 2.0000e-001 85797  1.8997e-001  9.7315e+000  9.8104e-001 53582 85137,85748,85676
 2.0000e-001 86303  5.1653e+000  8.1558e+000 -2.1675e+000 53178 86326,86084,86006
 2.0000e-001 86280  3.2846e+000  8.7984e+000 -1.3585e+000 53178 86326,86006,86162
 2.0000e-001 86257  3.2081e+000  8.4357e+000 -3.2746e+000 53178 86398,86110,86084
 2.0000e-001 86234  3.1901e+000  7.0976e+000 -1.8444e+000 53178 86006,86058,86032
 2.0000e-001 86211  4.5260e+000  6.8569e+000 -2.4017e+000 53178 86006,86084,86058
 2.0000e-001 86188  2.0480e+000  8.0826e+000 -7.7814e-001 53178 85980,86162,86006
 2.0000e-001 86352  2.8686e+000  7.8067e+000 -2.2850e+000 53178 86398,86084,86326
 2.0000e-001 86375  3.6857e-001  8.8405e+000 -2.0039e+000 53178 86136,86326,86162
 2.0000e-001 86424  3.4164e+000  9.0045e+000 -3.3374e+000 53178 86136,86110,86398
 2.0000e-001 86447  3.6522e+000  9.6966e+000 -2.3277e+000 53178 86136,86398,86326
 2.0000e-001 86904  2.2323e+000  1.1278e+001  6.2050e-001 52774 86708,86760,86734
 2.0000e-001 86881  1.8363e+000  8.9576e+000  8.8950e-002 52774 86656,86760,86708
 2.0000e-001 86858  1.4111e+000  8.0790e+000  7.2462e-001 52774 86656,86708,86682
 2.0000e-001 86835  3.5124e+000  8.6905e+000  4.3578e-001 52774 86630,86760,86656
 2.0000e-001 86812  2.6350e+000  8.7889e+000 -4.9034e-001 52774 86630,86786,86760
 2.0000e-001 87489  4.5899e+000  1.4266e+001  2.9795e+000 52234 87512,87218,87192
 2.0000e-001 87466  3.1673e+000  1.1763e+001  8.2095e-001 52234 87512,87192,87348
 2.0000e-001 87443  1.4714e+000  1.0821e+001  2.3708e-002 52234 87166,87348,87192
 2.0000e-001 87420  1.5493e+000  9.6696e+000  9.4735e-002 52234 87296,87348,87322
 2.0000e-001 87397  4.7113e+000  8.8434e+000  1.6368e+000 52234 87218,87296,87270
 2.0000e-001 87374  4.6091e+000  7.5886e+000  2.6859e+000 52234 87218,87270,87244
 2.0000e-001 87538  3.0168e+000  1.0298e+001  1.8309e+000 52234 87296,87218,87512
 2.0000e-001 87561  2.7447e+000  1.0301e+001 -3.0312e-001 52234 87296,87512,87348
 2.0000e-001 87841  3.7302e+000  1.1373e+001  1.1216e+000 51830 87665,87743,87691
 2.0000e-001 87818 -2.0463e-002  9.3181e+000 -5.0531e-002 51830 87665,87769,87743
 2.0000e-001 87795 -7.7908e-001  7.2171e+000 -7.9821e-001 51830 87864,87691,87743
 2.0000e-001 87890 -2.9102e+000  6.3036e+000 -8.9200e-001 51830 87717,87691,87864
 2.0000e-001 88418  3.7300e+000  1.2231e+001 -5.5048e-002 51262 88095,88173,88121
 2.0000e-001 88395  3.9833e+000  1.2010e+001  8.8815e-002 51262 88095,88251,88173
 2.0000e-001 88372 -4.6681e-001  9.2406e+000 -1.8652e+000 51262 88173,88251,88199
 2.0000e-001 88349  5.1705e+000  1.5149e+001 -9.9454e-002 51262 88095,88277,88251
 2.0000e-001 88326  6.0083e+000  1.5657e+001  8.2048e-001 51262 88199,88251,88225
 2.0000e-001 88303  2.6076e+000  1.3955e+001  1.2485e+000 51262 88121,88173,88147
 2.0000e-001 88875 -1.2995e+000  6.1070e+000 -8.9463e-001 50750 88601,88731,88627
 2.0000e-001 88852 -3.0423e+000  1.0048e+001 -1.5338e+000 50750 88601,88757,88731
 2.0000e-001 88829  3.8420e+000  1.0139e+001  1.9257e+000 50750 88627,88731,88653
 2.0000e-001 88806  2.9003e+000  8.0358e+000  1.7134e+000 50750 88653,88731,88705
 2.0000e-001 88783 -1.0530e-001  5.6904e+000 -5.5659e-001 50750 88653,88705,88679
 2.0000e-001 89145  4.1910e+000  1.8385e+001 -1.8801e-001 50438 88946,89024,88972
 2.0000e-001 89122  5.0000e+000  1.7344e+001 -1.7452e-001 50438 88946,89050,89024
 2.0000e-001 89099  3.0525e+000  1.5624e+001 -9.2329e-001 50438 88920,89050,88946
 2.0000e-001 89076  3.8457e+000  1.5955e+001 -4.9961e+000 50438 88972,89024,88998
 2.0000e-001 89525  1.8276e+000  1.7034e+001  1.4620e-001 49934 89548,89277,89251
 2.0000e-001 89502  2.6035e+000  1.6545e+001 -2.8715e-001 49934 89548,89251,89381
 2.0000e-001 89479  6.6417e+000  1.7830e+001  1.0506e+000 49934 89303,89381,89329
 2.0000e-001 89456  5.8025e-001  1.7995e+001 -2.8856e+000 49934 89251,89407,89381
 2.0000e-001 89433  4.2858e+000  1.8605e+001  3.1481e+000 49934 89329,89381,89355
 2.0000e-001 89574  4.6048e+000  2.0100e+001  1.4022e+000 49934 89303,89277,89548
 2.0000e-001 89597  2.7576e+000  1.6793e+001 -1.4844e-001 49934 89303,89548,89381
 2.0000e-001 90054  2.5436e+000  1.1104e+001 -1.0294e+000 49380 89832,89936,89910
 2.0000e-001 90031  4.6755e+000  1.2436e+001  9.9557e-001 49380 89780,89936,89832
 2.0000e-001 90008  5.3786e+000  1.9435e+001  9.8085e-002 49380 89780,89832,89806
 2.0000e-001 89985  5.5887e+000  1.1251e+001 -8.9268e-001 49380 89832,89910,89858
 2.0000e-001 89962  7.7524e+000  1.8290e+001  1.0201e+000 49380 89858,89910,89884
 2.0000e-001 90560  8.8554e-001  1.2846e+001 -4.4647e-001 48890 90289,90341,90315
 2.0000e-001 90537  5.1717e+000  1.4714e+001  7.3030e-001 48890 90289,90393,90341
 2.0000e-001 90514  5.6645e+000  1.3813e+001  7.9030e-001 48890 90263,90393,90289
 2.0000e-001 90491  2.4133e+000  1.3540e+001 -2.3011e+000 48890 90237,90393,90263
 2.0000e-001 90468  5.6959e+000  1.9500e+001  9.3367e-001 48890 90341,90393,90367
 2.0000e-001 90445  2.0846e+000  1.4201e+001 -3.4070e+000 48890 90237,90419,90393
 2.0000e-001 91115  5.1849e+000  1.7293e+001  4.5617e-001 48486 90795,90873,90847
 2.0000e-001 91092  5.9464e+000  1.7423e+001  4.4622e-001 48486 90795,90925,90873
 2.0000e-001 91069  1.8032e+000  1.5587e+001  5.9712e-002 48486 90769,90925,90795
 2.0000e-001 91046  4.6166e-001  1.5839e+001 -1.7855e-001 48486 90769,90951,90925
 2.0000e-001 91023  6.5045e+000  2.0317e+001  2.7020e-001 48486 90795,90847,90821
 2.0000e-001 91000  6.0538e+000  1.8769e+001  1.7803e+000 48486 90873,90925,90899
 2.0000e-001 90977  2.0430e+000  1.6748e+001  3.1138e-001 48486 90743,90951,90769
 2.0000e-001 91265  3.1882e+000  1.6441e+001 -4.7444e-001 48082 91288,91190,91164
 2.0000e-001 91242  1.1286e+000  1.3411e+001 -1.7385e+000 48082 91360,91288,91164
 2.0000e-001 91314  2.8864e+000  1.6414e+001 -5.0779e-001 48082 91216,91190,91288
 2.0000e-001 91337  4.4076e+000  1.7274e+001  1.8756e-001 48082 91216,91288,91138
 2.0000e-001 91386  8.8261e+000  1.7517e+001 -1.8081e-001 48082 91138,91288,91360
 2.0000e-001 92022  1.4771e-002  6.9775e+000 -5.4745e-001 47514 92261,92045,91754
 2.0000e-001 91999  2.7628e+000  7.4694e+000 -1.2865e+000 47514 92189,92045,91702
 2.0000e-001 91976  2.8030e+000  1.0296e+001 -2.6544e-001 47514 92117,91806,91754
 2.0000e-001 91953  3.0428e+000  6.4023e+000  4.9216e-001 47514 92189,91702,91650
 2.0000e-001 91930 -3.1502e+000  9.6199e+000 -2.1060e+000 47514 92261,91754,91728
 2.0000e-001 91907  9.4621e-001  1.1712e+001 -4.4070e-001 47514 91754,91806,91780
 2.0000e-001 91884  4.0688e+000  5.2625e+000  1.6608e-001 47514 91650,91702,91676
 2.0000e-001 92071  2.0469e+000  8.8173e+000 -1.4529e+000 47514 92117,91754,92045
 2.0000e-001 92094 -3.5795e-001  4.3971e+000 -7.9643e-001 47514 91832,92045,91858
 2.0000e-001 92143  4.0706e+000  1.1110e+001  1.8201e+000 47514 91832,91806,92117
 2.0000e-001 92166  3.4140e+000  8.0111e+000  6.7999e-001 47514 91832,92117,92045
 2.0000e-001 92215  4.9910e-001  6.5513e+000 -9.4125e-001 47514 91858,92045,92189
 2.0000e-001 92238  1.6370e+000  5.8927e+000  5.3226e-001 47514 91858,92189,91650
 2.0000e-001 92287 -1.4439e+000  4.1962e+000 -2.9024e+000 47514 91702,92045,92261
 2.0000e-001 92310 -4.1432e+000  5.7852e+000 -4.7033e+000 47514 91702,92261,91728
 2.0000e-001 92460 -2.2010e+000  1.2038e+000 -1.9640e+000 47124 92483,92359,92333
 2.0000e-001 92437 -1.6123e+000  9.8148e-001 -2.5765e+000 47124 92555,92483,92333
 2.0000e-001 92509 -1.7813e+000 -6.1247e-001 -3.4203e+000 47124 92685,92483,92385
 2.0000e-001 92532 -1.8849e+000  1.9587e+000 -2.6120e+000 47124 92385,92483,92411
 2.0000e-001 92581  2.5080e+000  3.9869e+000 -1.1255e+000 47124 92411,92483,92555
 2.0000e-001 92711  2.4804e+000  3.2211e+000 -1.7885e+000 47124 92359,92483,92685
 2.0000e-001 93571  5.6775e+000  1.4905e+001  3.9235e-001 46834 93594,93208,93104
 2.0000e-001 93548  2.9826e+000  1.3778e+001  3.2966e-001 46834 93738,93594,93104
 2.0000e-001 93525  4.1504e+000  1.1662e+001 -2.2497e+000 46834 93666,93234,93208
 2.0000e-001 93502  2.9534e+000  1.3487e+001  1.7671e-001 46834 93738,93104,93078
 2.0000e-001 93479  4.8937e+000  1.5066e+001 -2.6149e+000 46834 93810,93260,93234
 2.0000e-001 93456  6.5663e+000  2.1086e+001 -2.6058e+000 46834 93104,93182,93156
 2.0000e-001 93433  7.0803e+000  1.6766e+001 -2.2257e-001 46834 93104,93208,93182
 2.0000e-001 93410  2.4054e+000  1.7688e+001 -8.8399e-001 46834 93286,93338,93312
 2.0000e-001 93387 -7.1031e-001  1.1003e+001 -4.4382e-001 46834 93052,93338,93078
 2.0000e-001 93364  4.8381e+000  2.1995e+001 -4.4904e+000 46834 93104,93156,93130
 2.0000e-001 93620  3.7545e+000  1.3740e+001 -1.2177e+000 46834 93666,93208,93594
 2.0000e-001 93643  3.0339e+000  1.5102e+001 -7.5436e-001 46834 93286,93594,93338
 2.0000e-001 93692  5.1283e+000  1.4513e+001 -2.1571e+000 46834 93810,93234,93666
 2.0000e-001 93715  3.8972e+000  1.5400e+001 -1.3791e+000 46834 93286,93666,93594
 2.0000e-001 93764  3.0481e+000  1.3271e+001  3.6472e-001 46834 93338,93594,93738
 2.0000e-001 93787  3.1062e+000  1.3051e+001  3.2679e-001 46834 93338,93738,93078
 2.0000e-001 93836  3.9783e+000  1.4449e+001 -2.0344e+000 46834 93286,93260,93810
 2.0000e-001 93859  4.3136e+000  1.3995e+001 -1.5902e+000 46834 93286,93810,93666
 2.0000e-001 94210  8.8090e+000  2.1239e+001  9.3423e-001 46472 94011,94115,94089
 2.0000e-001 94187  7.8296e+000  2.1344e+001  2.8391e-001 46472 93985,94115,94011
 2.0000e-001 94164  1.7980e+000  2.7485e+001  2.3450e-001 46472 94037,94089,94063
 2.0000e-001 94141 -1.0288e+000  1.6978e+001  1.5058e+000 46472 94011,94089,94037
 2.0000e-001 94746  8.5204e+000  1.0681e+001 -8.7861e-001 46068 94576,94628,94602
 2.0000e-001 94723  6.5631e+000  9.9131e+000 -1.2084e+000 46068 94498,94628,94576
 2.0000e-001 94700  1.0676e+001  1.8703e+001 -2.6931e+000 46068 94472,94628,94498
 2.0000e-001 94677  7.3002e+000  9.1347e+000  1.0946e+000 46068 94524,94576,94550
 2.0000e-001 94654  9.7666e+000  1.3901e+001  1.8331e-001 46068 94498,94576,94524
 2.0000e-001 95380  4.4347e+000  1.4930e+001 -1.7293e+000 45342 95034,95112,95086
 2.0000e-001 95357  6.3124e+000  1.3425e+001 -8.2855e-001 45342 95034,95190,95112
 2.0000e-001 95334  3.2683e+000  1.4437e+001  1.2461e+000 45342 95403,95164,95138
 2.0000e-001 95311  5.7003e+000  1.9115e+001  1.9098e-001 45342 95403,95138,95112
 2.0000e-001 95288  4.4476e+000  1.0552e+001 -2.1899e+000 45342 95034,95216,95190
 2.0000e-001 95265  2.9754e+000  1.9842e+001  5.0178e-002 45342 95034,95086,95060
 2.0000e-001 95242  9.1285e+000  2.1300e+001 -2.9120e+000 45342 95008,95216,95034
 2.0000e-001 95429  5.8977e+000  1.1998e+001  8.3610e-001 45342 95190,95164,95403
 2.0000e-001 95452  6.5317e+000  1.4339e+001  4.3974e-001 45342 95190,95403,95112
 2.0000e-001 96007  5.4427e+000  1.7079e+001  1.9368e+000 44716 96030,95791,95765
 2.0000e-001 95984  6.2586e+000  1.2599e+001  2.5023e+000 44716 96030,95765,95713
 2.0000e-001 95961  6.8350e+000  1.6404e+001  3.2133e+000 44716 96174,96102,95661
 2.0000e-001 95938  7.4722e+000  1.5958e+001  3.2177e+000 44716 96174,95661,95635
 2.0000e-001 95915  7.1458e+000  1.7738e+001  1.7726e+000 44716 95661,95713,95687
 2.0000e-001 95892  5.5954e+000  1.2757e+001  3.4590e+000 44716 95713,95765,95739
 2.0000e-001 95869  7.0544e+000  1.4956e+001  5.4733e+000 44716 95635,95843,95817
 2.0000e-001 96056  6.4670e+000  2.3105e+001  4.3280e+000 44716 95817,95791,96030
 2.0000e-001 96079  4.4892e+000  1.6248e+001  3.2684e+000 44716 96102,95817,96030
 2.0000e-001 96128  5.8724e+000  1.5663e+001  2.5948e+000 44716 95713,95661,96102
 2.0000e-001 96151  6.6615e+000  1.7491e+001  2.5153e+000 44716 95713,96102,96030
 2.0000e-001 96200  5.4725e+000  1.6160e+001  3.8553e+000 44716 95817,96102,96174
 2.0000e-001 96223  6.6909e+000  1.6222e+001  3.7945e+000 44716 95817,96174,95635
 2.0000e-001 96680  3.6659e+000  1.1161e+001  4.0026e-001 44198 96775,96703,96458
 2.0000e-001 96657  3.8348e+000  1.1177e+001 -1.9304e+000 44198 96703,96406,96562
 2.0000e-001 96634  1.4312e-001  1.2679e+001  1.7518e-001 44198 96775,96458,96432
 2.0000e-001 96611  5.5129e+000  1.6764e+001  3.1662e+000 44198 96484,96536,96510
 2.0000e-001 96588  6.3147e+000  1.2671e+001  2.2758e+000 44198 96458,96536,96484
 2.0000e-001 96729  2.8511e+000  9.4810e+000  6.5000e-001 44198 96536,96458,96703
 2.0000e-001 96752  3.2283e+000  8.9774e+000 -6.4395e-001 44198 96536,96703,96562
 2.0000e-001 96801  5.2445e-002  9.1200e+000 -7.9687e-001 44198 96406,96703,96775
 2.0000e-001 96824 -2.6383e+000  1.1642e+001 -4.4249e-001 44198 96406,96775,96432
 2.0000e-001 97202  3.1965e+000  1.4332e+001  1.5786e-001 43750 97225,96980,96928
 2.0000e-001 97179  3.8183e+000  1.3941e+001  4.7433e-001 43750 97225,96928,97084
 2.0000e-001 97156  4.0818e+000  1.5794e+001 -2.1472e-001 43750 96928,96980,96954
 2.0000e-001 97133  7.3662e+000  2.1012e+001 -1.1863e-001 43750 97006,97084,97058
 2.0000e-001 97110  3.2687e+000  2.0437e+001 -7.6022e-001 43750 97006,97058,97032
 2.0000e-001 97251  3.5731e+000  1.4851e+001  4.9536e-001 43750 97006,96980,97225
 2.0000e-001 97274  4.1967e+000  1.4241e+001  7.3659e-001 43750 97006,97225,97084
 2.0000e-001 97522  4.1545e+000  1.5787e+001  1.2329e-001 43360 97545,97375,97349
 2.0000e-001 97499  4.0934e+000  1.4104e+001 -6.2404e-001 43360 97545,97349,97323
 2.0000e-001 97476  3.6809e+000  1.2932e+001 -1.4328e+000 43360 97617,97427,97401
 2.0000e-001 97453  2.1950e+000  8.4603e+000 -2.7258e+000 43360 97297,97427,97323
 2.0000e-001 97571  4.9106e+000  1.3466e+001 -3.7305e-002 43360 97401,97375,97545
 2.0000e-001 97594  4.1292e+000  1.2739e+001 -1.2141e+000 43360 97617,97401,97545
 2.0000e-001 97643  3.8213e+000  1.3100e+001 -7.2748e-001 43360 97323,97427,97617
 2.0000e-001 97666  4.6291e+000  1.3270e+001 -4.6320e-001 43360 97323,97617,97545
 2.0000e-001 98019  5.6529e+000  1.1102e+001 -3.7700e-001 42956 97794,97898,97820
 2.0000e-001 97996  1.8706e+000  7.5443e+000  1.0940e+000 42956 97794,97924,97898
 2.0000e-001 97973 -1.5518e+000  1.0685e+001 -1.0677e-001 42956 97820,97872,97846
 2.0000e-001 97950 -8.6322e-001  9.4326e+000 -5.5443e-001 42956 97820,97898,97872
 2.0000e-001 98446  3.5100e+000  1.3090e+001 -3.8943e-001 42559 98149,98305,98279
 2.0000e-001 98423  1.6802e+000  1.3708e+001  5.9562e-001 42559 98123,98305,98149
 2.0000e-001 98400  7.0372e+000  1.8390e+001 -1.9368e+000 42559 98469,98175,98149
 2.0000e-001 98377  6.5833e+000  1.7329e+001 -1.9875e+000 42559 98469,98149,98279
 2.0000e-001 98354  6.3241e+000  1.5595e+001 -1.1586e+000 42559 98175,98253,98227
 2.0000e-001 98331  6.1089e+000  1.4854e+001 -1.5286e+000 42559 98175,98227,98201
 2.0000e-001 98495  7.0543e+000  1.7779e+001 -1.4128e+000 42559 98253,98175,98469
 2.0000e-001 98518  6.8918e+000  1.7408e+001 -1.4374e+000 42559 98253,98469,98279
 2.0000e-001 98847  6.5315e+000  1.2488e+001 -1.4514e+000 42247 98674,98752,98700
 2.0000e-001 98824  4.3905e+000  1.1719e+001 -1.8653e-001 42247 98648,98752,98674
 2.0000e-001 98801  4.5129e+000  1.1946e+001 -6.5779e-001 42247 98622,98752,98648
 2.0000e-001 98778  1.2992e+000  9.3454e+000  3.3515e-001 42247 98700,98752,98726
 2.0000e-001 99117  2.7808e+000  1.5137e+001 -1.7093e-001 41843 98892,98996,98918
 2.0000e-001 99094  4.4934e+000  1.8116e+001 -1.9568e+000 41843 98892,99022,98996
 2.0000e-001 99071  1.3602e+000  1.6995e+001 -7.5521e-001 41843 98918,98996,98970
 2.0000e-001 99048  5.5477e+000  1.9184e+001 -1.6039e+000 41843 98918,98970,98944
 2.0000e-001 99625  5.8491e+000  1.5653e+001  3.1406e+000 41232 99648,99380,99354
 2.0000e-001 99602  2.6513e+000  1.2147e+001  9.7368e-001 41232 99648,99354,99328
 2.0000e-001 99579  3.6493e+000  1.1399e+001  1.1238e+000 41232 99720,99432,99380
 2.0000e-001 99556  8.0792e-001  9.9274e+000  5.3421e-001 41232 99380,99432,99406
 2.0000e-001 99533 -1.5517e+000  9.7367e+000 -3.6922e-001 41232 99328,99484,99458
 2.0000e-001 99510 -3.4149e+000  1.2046e+001  1.2849e+000 41232 99302,99484,99328
 2.0000e-001 99674  3.3473e+000  1.1760e+001  1.1281e+000 41232 99720,99380,99648
 2.0000e-001 99697  3.3931e+000  1.0555e+001 -3.1007e-001 41232 99458,99648,99328
 2.0000e-001 99746  3.5882e+000  1.1783e+001  8.7420e-001 41232 99458,99432,99720
 2.0000e-001 99769  3.5601e+000  1.2404e+001  8.0384e-001 41232 99458,99720,99648
 2.0000e-001 100275  7.9584e+000  8.7944e+000  3.4905e+000 40728 99952,100004,99978
 2.0000e-001 100252  3.1614e+000  7.8228e+000  1.1130e+000 40728 99952,100030,100004
 2.0000e-001 100229  3.8041e+000  1.0344e+001  8.9013e-001 40728 99952,100134,100030
 2.0000e-001 100206  2.1284e+000  9.2478e+000 -1.4817e-001 40728 100298,100108,100082
 2.0000e-001 100183  2.5010e+000  7.1723e+000 -5.7716e-001 40728 100298,100082,100030
 2.0000e-001 100160 -1.1357e+000  9.8868e+000 -6.0923e+000 40728 100030,100082,100056
 2.0000e-001 100324  2.1686e+000  1.0862e+001  5.4966e-001 40728 100134,100108,100298
 2.0000e-001 100347  2.4110e+000  8.4071e+000  2.7039e-001 40728 100134,100298,100030
 2.0000e-001 100853  5.1917e+000  1.5870e+001 -4.9391e-001 40274 100876,100686,100660
 2.0000e-001 100830  6.1623e+000  1.3913e+001  1.8283e-001 40274 100948,100876,100660
 2.0000e-001 100807  5.2348e+000  1.3514e+001 -1.0116e+000 40274 100948,100660,100608
 2.0000e-001 100784  6.8856e+000  1.5897e+001  5.0646e-001 40274 101020,100556,100712
 2.0000e-001 100761  5.0508e+000  1.2655e+001 -7.6218e-001 40274 100530,100712,100556
 2.0000e-001 100738  3.7235e+000  1.4813e+001 -3.3187e-001 40274 100608,100660,100634
 2.0000e-001 100902  5.4983e+000  1.8277e+001  3.0967e-001 40274 100712,100686,100876
 2.0000e-001 100925  5.3380e+000  1.5736e+001 -6.6845e-001 40274 101020,100712,100876
 2.0000e-001 100974  5.3318e+000  1.2728e+001 -1.1597e+000 40274 100582,100876,100948
 2.0000e-001 100997  3.5560e+000  1.2197e+001 -2.3576e+000 40274 100582,100948,100608
 2.0000e-001 101046  9.0180e+000  1.6759e+001  1.6146e+000 40274 100582,100556,101020
 2.0000e-001 101069  7.5468e+000  1.6006e+001  1.9637e-001 40274 100582,101020,100876
 2.0000e-001 101496  2.4635e+000  1.1131e+001  9.9432e-001 39820 101519,101277,101225
 2.0000e-001 101473 -2.2048e-001  9.6145e+000 -3.8902e-001 39820 101519,101225,101199
 2.0000e-001 101450  1.4772e+000  8.7263e+000 -5.3751e-002 39820 101173,101355,101199
 2.0000e-001 101427  3.1077e+000  9.4298e+000  2.2303e+000 39820 101277,101355,101303
 2.0000e-001 101404  3.0098e+000  1.0153e+001 -1.0678e+000 39820 101225,101277,101251
 2.0000e-001 101381  4.7659e+000  7.5172e+000  3.1942e+000 39820 101303,101355,101329
 2.0000e-001 101545  3.9210e+000  1.0375e+001  1.7279e+000 39820 101355,101277,101519
 2.0000e-001 101568  2.5136e+000  1.0396e+001  7.0805e-001 39820 101355,101519,101199
 2.0000e-001 101816  5.8862e+000  1.6001e+001  1.6728e+000 39066 101839,101695,101643
 2.0000e-001 101793  6.1629e+000  1.7367e+001  1.6217e+000 39066 101839,101643,101591
 2.0000e-001 101770  4.7885e+000  1.3107e+001 -5.7451e-001 39066 101643,101695,101669
 2.0000e-001 101747  7.6242e+000  1.6693e+001  7.0275e-001 39066 101591,101643,101617
 2.0000e-001 101865  5.3693e+000  1.6478e+001  7.0943e-001 39066 101721,101695,101839
 2.0000e-001 101888  5.9652e+000  1.8348e+001  6.6256e-001 39066 101721,101839,101591
 2.0000e-001 102087  4.9312e+000  1.5643e+001 -5.4536e-001 38726 101937,101989,101963
 2.0000e-001 102064  3.1971e+000  1.4892e+001 -1.7280e-001 38726 101937,102015,101989
 2.0000e-001 102041  3.2475e+000  1.5334e+001  2.9170e-001 38726 101911,102015,101937
 2.0000e-001 102337  3.5804e+000  1.2594e+001  6.6326e-001 38322 102112,102190,102138
 2.0000e-001 102314  2.8817e+000  1.2518e+001  1.6556e+000 38322 102112,102216,102190
 2.0000e-001 102291  7.3761e+000  1.2984e+001  1.7745e+000 38322 102112,102242,102216
 2.0000e-001 102268  1.3631e+000  1.2265e+001  6.0376e-001 38322 102138,102190,102164
 2.0000e-001 102489  8.5635e+000  1.7134e+001  5.9030e-002 38032 102512,102388,102362
 2.0000e-001 102466  6.8817e+000  1.8743e+001 -8.3427e-001 38032 102512,102362,102440
 2.0000e-001 102538  7.4804e+000  1.6119e+001 -3.6096e-001 38032 102414,102388,102512
 2.0000e-001 102561  4.9121e+000  1.6682e+001 -1.6423e+000 38032 102414,102512,102440
 2.0000e-001 102894  6.6426e+000  1.3674e+001  2.1489e+000 37592 102669,102773,102695
 2.0000e-001 102871  6.5217e+000  1.3839e+001  2.6189e+000 37592 102669,102799,102773
 2.0000e-001 102848  6.0143e+000  1.8803e+001  3.5176e+000 37592 102721,102773,102747
 2.0000e-001 102825  5.6866e+000  1.3127e+001  1.7698e+000 37592 102695,102773,102721
 2.0000e-001 103093  3.2871e+000  1.3737e+001  2.3364e-001 37188 102917,102995,102943
 2.0000e-001 103070  2.7562e+000  1.4527e+001  1.4761e+000 37188 102917,103021,102995
 2.0000e-001 103047  3.1259e+000  1.2704e+001  7.0370e-001 37188 102943,102995,102969
 2.0000e-001 103341  8.5681e-001  1.2066e+001  2.2061e-001 36605 103142,103194,103168
 2.0000e-001 103318  3.6599e+000  1.2895e+001  1.9033e-001 36605 103142,103220,103194
 2.0000e-001 103295  4.2819e+000  1.2734e+001  7.0873e-002 36605 103116,103220,103142
 2.0000e-001 103272  1.7842e+000  1.2243e+001  9.8885e-002 36605 103116,103246,103220
 2.0000e-001 103949  4.6194e+000  1.8530e+001  2.0990e+000 36127 103554,103606,103580
 2.0000e-001 103926  3.6283e+000  1.5786e+001  3.0932e+000 36127 103528,103606,103554
 2.0000e-001 103903  2.3822e+000  1.0060e+001  9.0957e-002 36127 103528,103736,103606
 2.0000e-001 103880  4.0410e+000  1.2967e+001  1.6954e-001 36127 103972,103710,103632
 2.0000e-001 103857  3.1452e+000  1.0913e+001 -7.6988e-001 36127 103972,103632,103606
 2.0000e-001 103834  4.9588e+000  1.6196e+001  6.6386e-001 36127 103632,103710,103658
 2.0000e-001 103811 -2.9045e+000  1.2177e+001 -3.3204e+000 36127 103528,103762,103736
 2.0000e-001 103788  3.8221e+000  1.3962e+001  1.2565e+000 36127 103658,103710,103684
 2.0000e-001 103998  4.5848e+000  1.4652e+001  1.6722e+000 36127 103736,103710,103972
 2.0000e-001 104021  3.6267e+000  1.2757e+001  6.8801e-001 36127 103736,103972,103606
 2.0000e-001 104220  3.0329e+000  1.2250e+001 -6.5098e-002 35787 104070,104148,104122
 2.0000e-001 104197  4.3062e+000  1.2056e+001  1.2921e-001 35787 104044,104148,104070
 2.0000e-001 104174 -2.6100e-001  1.1326e+001  4.8029e-002 35787 104070,104122,104096
 2.0000e-001 104419  5.7138e+000  1.7108e+001  9.5896e-001 35440 104269,104321,104295
 2.0000e-001 104396  7.0254e+000  1.7270e+001  3.8645e-001 35440 104269,104347,104321
 2.0000e-001 104373  5.1916e+000  1.6511e+001 -2.1319e-001 35440 104243,104347,104269
 2.0000e-001 104718  4.2266e+000  1.4382e+001  9.0414e-001 34986 104496,104548,104522
 2.0000e-001 104695  4.2790e+000  1.4959e+001  1.6080e-001 34986 104741,104548,104496
 2.0000e-001 104672  5.0967e+000  1.3922e+001 -1.0434e-001 34986 104741,104496,104444
 2.0000e-001 104649  4.0140e+000  1.4189e+001  7.4855e-001 34986 104813,104574,104548
 2.0000e-001 104626  6.0107e+000  1.6053e+001 -1.3418e-001 34986 104444,104496,104470
 2.0000e-001 104767  3.9685e+000  1.4168e+001  2.6067e-001 34986 104813,104548,104741
 2.0000e-001 104790  4.7874e+000  1.2807e+001  1.4779e-001 34986 104600,104741,104444
 2.0000e-001 104839  5.3237e+000  1.5153e+001  1.1706e+000 34986 104600,104574,104813
 2.0000e-001 104862  4.6486e+000  1.4460e+001  4.2873e-001 34986 104600,104813,104741
 2.0000e-001 105014  2.4026e+000  1.3136e+001 -1.1049e+000 34696 105169,105037,104913
 2.0000e-001 104991  4.3174e+000  1.4000e+001  8.9636e-001 34696 105169,104913,104887
 2.0000e-001 105063  7.0803e+000  1.5257e+001  1.3831e-001 34696 104939,104913,105037
 2.0000e-001 105195  1.3015e-001  1.1802e+001 -2.0973e+000 34696 104965,105037,105169
 2.0000e-001 105218  1.8057e+000  1.2374e+001 -1.6275e-001 34696 104965,105169,104887
 2.0000e-001 105368  4.7167e+000  1.6504e+001 -1.0562e+000 34384 105267,105319,105293
 2.0000e-001 105345  5.7055e+000  1.8617e+001 -4.6582e-001 34384 105241,105319,105267
 2.0000e-001 105616  3.4762e+000  1.3425e+001  7.2469e-001 33730 105639,105417,105391
 2.0000e-001 105593  3.4015e+000  1.3465e+001  7.9077e-001 33730 105639,105391,105495
 2.0000e-001 105570  3.5308e+000  1.4347e+001  4.5935e-001 33730 105391,105521,105495
 2.0000e-001 105547  4.2307e+000  1.3075e+001  2.1041e+000 33730 105417,105469,105443
 2.0000e-001 105665  3.4090e+000  1.3428e+001  7.3934e-001 33730 105469,105417,105639
 2.0000e-001 105688  3.2277e+000  1.3393e+001  8.1429e-001 33730 105469,105639,105495
 2.0000e-001 105840  8.2440e+000  1.9138e+001 -1.3626e+000 33390 105713,105765,105739
 2.0000e-001 105817  6.6629e+000  1.8445e+001 -1.1645e+000 33390 105713,105791,105765
 2.0000e-001 106090  5.8846e+000  1.6644e+001 -2.4061e-001 33043 106113,105943,105891
 2.0000e-001 106067  4.2319e+000  1.6054e+001 -1.8960e-001 33043 106113,105891,105865
 2.0000e-001 106044  9.2272e+000  1.8767e+001 -1.2933e+000 33043 105891,105943,105917
 2.0000e-001 106021  2.5791e+000  1.5512e+001 -1.5521e+000 33043 105865,105995,105969
 2.0000e-001 106139  9.8211e+000  1.6483e+001 -1.4731e+000 33043 105969,105943,106113
 2.0000e-001 106162  5.7608e+000  1.4744e+001 -1.4980e+000 33043 105969,106113,105865
 2.0000e-001 106412  4.5755e+000  1.3448e+001  3.7590e-001 32539 106435,106291,106239
 2.0000e-001 106389  3.6639e+000  1.4986e+001  9.7057e-002 32539 106187,106317,106291
 2.0000e-001 106366  4.1875e+000  1.2067e+001 -1.6265e-001 32539 106435,106239,106213
 2.0000e-001 106343  4.9094e+000  1.1259e+001  1.5271e-001 32539 106239,106291,106265
 2.0000e-001 106461  4.5769e+000  1.4004e+001  1.1101e+000 32539 106187,106291,106435
 2.0000e-001 106484  4.5462e+000  1.2849e+001  6.5850e-001 32539 106187,106435,106213
 2.0000e-001 106685  7.9868e+000  1.2593e+001 -5.9703e+000 31835 106535,106587,106561
 2.0000e-001 106662  5.3924e+000  1.4958e+001  2.5016e-001 31835 106509,106587,106535
 2.0000e-001 106639  7.4546e+000  1.7340e+001 -6.5900e-001 31835 106509,106613,106587
 2.0000e-001 106935  4.0335e+000  1.3194e+001 -6.6489e-002 31530 106736,106814,106788
 2.0000e-001 106912  4.3605e+000  1.3844e+001  5.5498e-001 31530 106710,106814,106736
 2.0000e-001 106889  3.2328e+000  1.1156e+001  6.5322e-001 31530 106736,106788,106762
 2.0000e-001 106866  5.0303e+000  1.4143e+001  4.9785e-001 31530 106710,106840,106814
 2.0000e-001 107339  2.9979e+000  1.4549e+001 -9.9417e-001 31026 107117,107221,107195
 2.0000e-001 107316  6.4723e+000  1.5724e+001  7.2075e-001 31026 107091,107221,107117
 2.0000e-001 107293  7.6331e-002  1.3665e+001  1.3125e+000 31026 107065,107221,107091
 2.0000e-001 107270  1.4039e+000  1.6665e+001  5.6046e-001 31026 107143,107195,107169
 2.0000e-001 107247 -1.7788e+000  1.2407e+001 -1.4344e+000 31026 107117,107195,107143
 2.0000e-001 107538  6.5382e+000  1.9077e+001 -2.1211e-001 30714 107561,107388,107362
 2.0000e-001 107515  7.1716e+000  1.8971e+001 -3.8756e-001 30714 107561,107362,107466
 2.0000e-001 107492  8.2511e+000  2.0117e+001 -6.3459e-001 30714 107414,107466,107440
 2.0000e-001 107587  7.1709e+000  1.8857e+001 -5.2696e-002 30714 107414,107388,107561
 2.0000e-001 107610  7.7874e+000  1.8747e+001 -2.8289e-001 30714 107414,107561,107466
 2.0000e-001 107990  5.0117e+000  1.3163e+001  8.7391e-001 30260 108013,107846,107768
 2.0000e-001 107967  5.5613e+000  1.4443e+001  9.1737e-001 30260 108013,107768,107716
 2.0000e-001 107944  4.0144e+000  1.8048e+001  4.0963e-001 30260 107716,107768,107742
 2.0000e-001 107921  2.9845e+000  2.1828e+001  4.1903e+000 30260 107768,107846,107820
 2.0000e-001 107898  4.0104e+000  1.3809e+001 -4.5856e-001 30260 107768,107820,107794
 2.0000e-001 108039  4.6996e+000  1.3442e+001 -1.4195e-001 30260 107872,107846,108013
 2.0000e-001 108062  5.3439e+000  1.4896e+001 -3.0837e-002 30260 107872,108013,107716
 2.0000e-001 108261  3.8500e+000  1.2718e+001  6.0263e-001 29870 108284,108085,108163
 2.0000e-001 108238  5.6406e+000  1.3112e+001  5.8057e-001 29870 108085,108189,108163
 2.0000e-001 108215  2.3433e+000  1.2538e+001  8.5332e-001 29870 108284,108163,108137
 2.0000e-001 108310  4.4837e+000  1.2553e+001  2.0094e-001 29870 108111,108085,108284
 2.0000e-001 108333  3.6616e+000  1.2888e+001  4.3013e-001 29870 108111,108284,108137
 2.0000e-001 108664  5.5181e+000  1.4576e+001  6.4960e-001 29480 108465,108569,108543
 2.0000e-001 108641  1.2851e-001  1.2955e+001  1.5280e+000 29480 108439,108569,108465
 2.0000e-001 108618  5.5772e+000  1.2865e+001  1.8758e+000 29480 108465,108543,108491
 2.0000e-001 108595  2.4912e-001  9.7588e+000  2.5081e-001 29480 108491,108543,108517
 2.0000e-001 108993  5.2629e+000  1.5380e+001  9.8155e-001 29076 108794,108872,108820
 2.0000e-001 108970  3.8733e+000  1.1125e+001  1.1992e+000 29076 108768,108872,108794
 2.0000e-001 108947  3.5938e+000  1.5334e+001  2.1217e+000 29076 108820,108872,108846
 2.0000e-001 108924  3.2053e+000  1.0388e+001 -4.5338e-001 29076 108768,108898,108872
 2.0000e-001 109420  4.5865e+000  1.2454e+001  7.5076e-001 28472 109123,109227,109201
 2.0000e-001 109397  3.8090e+000  1.3034e+001  5.8084e-001 28472 109123,109253,109227
 2.0000e-001 109374  6.2745e+000  1.3034e+001 -1.1170e-001 28472 109123,109201,109175
 2.0000e-001 109351  1.9333e+000  1.2535e+001  5.1674e-001 28472 109123,109279,109253
 2.0000e-001 109328  3.9151e+000  1.1123e+001 -2.5387e+000 28472 109123,109175,109149
 2.0000e-001 109305  1.3900e+000  1.3520e+001  2.7885e-002 28472 109097,109279,109123
 2.0000e-001 109749  7.1808e+000  1.6939e+001 -7.0293e-001 28018 109772,109602,109576
 2.0000e-001 109726  7.7400e+000  1.5273e+001  4.8140e-001 28018 109772,109576,109550
 2.0000e-001 109703  3.8459e+000  1.2737e+001  2.6003e-002 28018 109524,109628,109550
 2.0000e-001 109680  7.8862e-001  1.1007e+001  8.1177e-001 28018 109524,109654,109628
 2.0000e-001 109798  4.5393e+000  1.5605e+001  1.5471e-001 28018 109628,109602,109772
 2.0000e-001 109821  7.0492e+000  1.4493e+001  9.5786e-001 28018 109628,109772,109550
 2.0000e-001 110199  3.8679e+000  1.3900e+001 -3.1465e+000 27564 110029,110081,110055
 2.0000e-001 110176  6.3656e+000  1.5364e+001 -1.2257e+000 27564 109925,110081,110029
 2.0000e-001 110153  9.1912e+000  1.3037e+001 -9.2773e-001 27564 109925,110029,109977
 2.0000e-001 110130  7.2761e+000  1.2674e+001  2.0183e+000 27564 109977,110029,110003
 2.0000e-001 110107  9.0829e+000  1.6437e+001 -3.7635e+000 27564 109925,109977,109951
 2.0000e-001 110398  4.1867e+000  1.2878e+001  2.6362e-001 27003 110248,110326,110300
 2.0000e-001 110375  4.2240e+000  1.3499e+001  1.7205e-001 27003 110222,110326,110248
 2.0000e-001 110352  2.8032e+000  1.2315e+001  2.0111e-001 27003 110248,110300,110274
 2.0000e-001 110646  5.1451e+000  1.2554e+001  6.4806e-001 26563 110669,110473,110421
 2.0000e-001 110623  3.7689e+000  1.2413e+001  7.6294e-001 26563 110669,110421,110551
 2.0000e-001 110600  5.9906e+000  1.1965e+001 -4.6022e-001 26563 110473,110525,110499
 2.0000e-001 110577  5.3274e+000  1.2015e+001 -1.1500e+000 26563 110421,110473,110447
 2.0000e-001 110695  4.4446e+000  1.2779e+001  1.0526e-001 26563 110525,110473,110669
 2.0000e-001 110718  3.4185e+000  1.2610e+001 -5.8897e-002 26563 110525,110669,110551
 2.0000e-001 110870  7.1732e-001  1.0917e+001 -1.1061e-001 26166 110769,110821,110795
 2.0000e-001 110847  3.2391e+000  6.9960e+000  1.7760e+000 26166 110743,110821,110769
 2.0000e-001 111380  4.2140e+000  1.4703e+001  1.2889e+000 25712 111403,111109,111083
 2.0000e-001 111357  4.7361e+000  1.5973e+001  7.0489e-001 25712 111403,111083,111239
 2.0000e-001 111334  1.6796e+000  1.5167e+001  4.0882e+000 25712 111109,111161,111135
 2.0000e-001 111311  3.1309e+000  1.6600e+001  2.4871e+000 25712 111057,111239,111083
 2.0000e-001 111288  9.0920e+000  2.1052e+001 -1.7637e+000 25712 111161,111239,111187
 2.0000e-001 111265  6.4081e+000  2.0113e+001 -1.6543e+000 25712 111187,111239,111213
 2.0000e-001 111429  4.9923e+000  1.3338e+001  1.5375e+000 25712 111161,111109,111403
 2.0000e-001 111452  5.6076e+000  1.4559e+001  8.5769e-001 25712 111161,111403,111239
 2.0000e-001 111651  6.7033e+000  1.7092e+001  2.9002e-001 25300 111674,111501,111475
 2.0000e-001 111628  6.8346e+000  1.6232e+001  3.3753e-001 25300 111674,111475,111579
 2.0000e-001 111605  6.1878e+000  1.6793e+001 -9.8098e-001 25300 111501,111553,111527
 2.0000e-001 111700  6.6973e+000  1.7695e+001  3.0952e-001 25300 111553,111501,111674
 2.0000e-001 111723  6.9574e+000  1.7005e+001  4.2942e-001 25300 111553,111674,111579
 2.0000e-001 111922  1.1981e+000  9.4740e+000 -1.4549e+000 24732 111798,111850,111824
 2.0000e-001 111899  2.7536e+000  1.0880e+001 -1.5837e-001 24732 111772,111850,111798
 2.0000e-001 111876  1.8199e+000  1.1183e+001  1.1971e-001 24732 111746,111850,111772
 2.0000e-001 112255  5.9756e+000  2.0263e+001 -1.7780e+000 24142 112056,112108,112082
 2.0000e-001 112232  7.6021e+000  1.7364e+001  6.6532e-001 24142 112056,112134,112108
 2.0000e-001 112209  3.4191e+000  1.2502e+001  2.5053e+000 24142 112056,112160,112134
 2.0000e-001 112186  2.9196e+000  1.4353e+001  3.8439e+000 24142 112030,112160,112056
 2.0000e-001 112601  4.1591e+000  1.2223e+001  5.1942e-001 23852 112624,112382,112356
 2.0000e-001 112578  4.0292e+000  1.2812e+001  2.2682e-001 23852 112696,112624,112356
 2.0000e-001 112555  4.3419e+000  1.2871e+001 -2.1413e-001 23852 112696,112356,112304
 2.0000e-001 112532  3.4561e+000  1.2570e+001  5.8454e-002 23852 112304,112356,112330
 2.0000e-001 112509  5.6878e+000  1.4437e+001 -3.1470e-001 23852 112278,112460,112304
 2.0000e-001 112486  4.1278e+000  1.3393e+001  1.1365e+000 23852 112382,112434,112408
 2.0000e-001 112650  4.8115e+000  1.2811e+001  1.0127e-001 23852 112434,112382,112624
 2.0000e-001 112673  4.3233e+000  1.2861e+001  5.4725e-002 23852 112434,112624,112460
 2.0000e-001 112722  4.7897e+000  1.3020e+001 -8.5162e-002 23852 112460,112624,112696
 2.0000e-001 112745  5.1002e+000  1.3262e+001 -5.7958e-001 23852 112460,112696,112304
 2.0000e-001 113015  2.1689e+000  1.2902e+001 -1.7353e-002 23490 112842,112894,112868
 2.0000e-001 112992  1.6807e+000  1.0538e+001 -3.5120e-001 23490 112816,112894,112842
 2.0000e-001 112969  1.7388e+000  1.0585e+001  4.6248e-001 23490 112790,112894,112816
 2.0000e-001 112946  3.3741e+000  1.4051e+001  1.1023e-002 23490 112790,112920,112894
 2.0000e-001 113348  5.4465e+000  1.0059e+001 -8.9828e-001 22970 113175,113253,113227
 2.0000e-001 113325  7.4135e+000  1.0481e+001 -1.1166e+000 22970 113149,113253,113175
 2.0000e-001 113302  5.5408e+000  1.0734e+001 -4.5749e-001 22970 113175,113227,113201
 2.0000e-001 113279  7.2593e+000  1.0026e+001 -1.0666e+000 22970 113123,113253,113149
 2.0000e-001 113645  3.7005e+000  1.3904e+001 -5.4003e-001 22366 113423,113527,113449
 2.0000e-001 113622  2.2344e+000  1.2742e+001 -1.0666e+000 22366 113371,113527,113423
 2.0000e-001 113599  4.2304e+000  1.5008e+001 -1.1081e+000 22366 113449,113527,113501
 2.0000e-001 113576  4.5078e+000  1.5868e+001 -1.1211e+000 22366 113449,113501,113475
 2.0000e-001 113553  3.1880e+000  1.3229e+001 -2.8989e+000 22366 113371,113423,113397
 2.0000e-001 113893  3.9826e+000  1.2022e+001 -3.3498e-002 21912 113916,113746,113720
 2.0000e-001 113870  3.9756e+000  1.3165e+001  1.2273e-001 21912 113916,113720,113668
 2.0000e-001 113847  4.3890e+000  1.3242e+001  1.1212e-001 21912 113988,113798,113772
 2.0000e-001 113824  3.8989e+000  1.3166e+001 -4.0713e-001 21912 113668,113720,113694
 2.0000e-001 113942  4.4091e+000  1.3223e+001 -1.3937e-001 21912 113772,113746,113916
 2.0000e-001 113965  4.1958e+000  1.3201e+001  1.1905e-001 21912 113988,113772,113916
 2.0000e-001 114014  4.1368e+000  1.3190e+001  8.7002e-002 21912 113668,113798,113988
 2.0000e-001 114037  4.0801e+000  1.3236e+001  6.7852e-002 21912 113668,113988,113916
 2.0000e-001 114287  3.0808e+000  1.5080e+001  6.7864e-002 21408 114088,114140,114114
 2.0000e-001 114264  3.0439e+000  1.3740e+001 -2.7323e-001 21408 114310,114140,114088
 2.0000e-001 114241  3.9413e+000  1.4135e+001 -3.4657e-001 21408 114310,114088,114192
 2.0000e-001 114218  3.2943e+000  1.3168e+001 -7.6787e-001 21408 114062,114192,114088
 2.0000e-001 114336  3.7843e+000  1.3446e+001  1.4974e-001 21408 114166,114140,114310
 2.0000e-001 114359  4.3942e+000  1.3696e+001  7.9350e-002 21408 114166,114310,114192
 2.0000e-001 114609  4.3537e+000  1.1243e+001  1.6615e+000 21018 114632,114488,114436
 2.0000e-001 114586  4.4381e+000  1.2412e+001  1.0507e+000 21018 114632,114436,114410
 2.0000e-001 114563  4.6892e+000  1.2231e+001 -3.7294e-002 21018 114384,114514,114410
 2.0000e-001 114540  2.3817e-001  1.1239e+001  1.5928e+000 21018 114436,114488,114462
 2.0000e-001 114658  4.9477e+000  1.1890e+001  8.5822e-001 21018 114514,114488,114632
 2.0000e-001 114681  4.7464e+000  1.2876e+001  2.9794e-001 21018 114514,114632,114410
 2.0000e-001 114882  1.4959e+001  2.0177e+001  9.7802e-001 20614 114732,114784,114758
 2.0000e-001 114859  1.4137e+001  1.9927e+001  8.7112e-001 20614 114732,114810,114784
 2.0000e-001 114836  1.2589e+001  1.6637e+001 -2.9469e-001 20614 114706,114810,114732
 2.0000e-001 115132  2.6596e+000  1.5965e+001 -1.2624e+000 20110 114907,115011,114933
 2.0000e-001 115109  6.4791e+000  1.7516e+001 -1.4467e+000 20110 114907,115037,115011
 2.0000e-001 115086  4.0383e+000  1.5814e+001 -1.2591e+000 20110 114933,115011,114985
 2.0000e-001 115063 -2.6024e-002  1.8576e+001 -5.1656e+000 20110 114933,114985,114959
 2.0000e-001 115284  3.1551e+000  1.5596e+001 -3.6368e-001 19456 115378,115307,115157
 2.0000e-001 115261  3.6796e+000  1.5235e+001 -2.8611e-001 19456 115378,115157,115235
 2.0000e-001 115333  2.9907e+000  1.5913e+001 -1.3400e-001 19456 115183,115157,115307
 2.0000e-001 115404  3.7643e+000  1.5834e+001 -8.8525e-002 19456 115209,115307,115378
 2.0000e-001 115427  4.4388e+000  1.5539e+001 -4.5226e-002 19456 115209,115378,115235
 2.0000e-001 115677  4.9392e+000  1.8422e+001  9.2214e-001 19002 115504,115582,115530
 2.0000e-001 115654  5.6262e+000  1.7482e+001  4.8909e-001 19002 115478,115582,115504
 2.0000e-001 115631  4.9489e+000  1.7379e+001  1.8744e+000 19002 115452,115582,115478
 2.0000e-001 115608  5.6216e+000  1.9114e+001  4.9356e-001 19002 115530,115582,115556
 2.0000e-001 115998  6.5464e+000  1.3443e+001 -1.9155e-001 18712 115802,115880,115854
 2.0000e-001 115975  6.4591e+000  1.4269e+001 -5.5463e-001 18712 115724,115880,115802
 2.0000e-001 115952  5.6867e+000  1.3977e+001 -1.5408e-001 18712 115724,115802,115776
 2.0000e-001 115929  6.0423e+000  1.5326e+001 -6.3433e-001 18712 115724,115776,115750
 2.0000e-001 115906  5.2790e+000  1.2973e+001 -7.4006e-002 18712 115802,115854,115828
 2.0000e-001 116270  3.7388e+000  1.2443e+001  2.5112e-001 18308 116045,116123,116071
 2.0000e-001 116247  3.9660e+000  1.3093e+001  2.4860e-002 18308 116045,116175,116123
 2.0000e-001 116224  3.7973e+000  1.2716e+001 -7.1429e-002 18308 116123,116175,116149
 2.0000e-001 116201  7.0078e+000  1.3866e+001 -2.2303e-002 18308 116071,116123,116097
 2.0000e-001 116422  5.5460e+000  1.9427e+001  1.6848e-001 17996 116321,116373,116347
 2.0000e-001 116399  5.9566e+000  1.8562e+001  5.9126e-001 17996 116295,116373,116321
 2.0000e-001 116574  2.7713e+000  1.3490e+001 -2.9653e-001 17392 116473,116525,116499
 2.0000e-001 116551  5.2991e+000  1.6262e+001  9.3352e-001 17392 116447,116525,116473
 2.0000e-001 116797  3.6683e+000  1.3556e+001  2.9363e-001 16938 116621,116699,116673
 2.0000e-001 116774 -1.2545e+000  1.4599e+001  6.1769e-001 16938 116621,116725,116699
 2.0000e-001 116751  3.7169e+000  1.3669e+001  3.2288e-001 16938 116621,116673,116647
 2.0000e-001 116998  4.1758e+000  1.2741e+001 -2.6763e-002 16434 117021,116874,116848
 2.0000e-001 116975  4.7593e+000  1.3080e+001  1.5711e-001 16434 117021,116848,116822
 2.0000e-001 116952  3.6886e+000  1.2527e+001 -7.0748e-002 16434 116874,116926,116900
 2.0000e-001 117047  3.9127e+000  1.2989e+001 -1.3913e-001 16434 116926,116874,117021
 2.0000e-001 117070  4.1015e+000  1.2994e+001 -2.1357e-002 16434 116926,117021,116822
 2.0000e-001 117293  5.8477e+000  1.9770e+001  7.5476e-001 16070 117117,117169,117143
 2.0000e-001 117270  6.3888e+000  2.1506e+001 -1.3247e+000 16070 117117,117221,117169
 2.0000e-001 117247  4.0067e+000  1.6022e+001 -2.2875e+000 16070 117169,117221,117195
 2.0000e-001 117445  6.0076e-001  1.2405e+001  4.8508e-002 15645 117318,117370,117344
 2.0000e-001 117422  2.1291e+000  1.3080e+001 -6.0428e-002 15645 117318,117396,117370
 2.0000e-001 117548  1.0456e+001  1.7099e+001  4.0821e+000 417 117470,117522,117496
 3.0000e-001 70760  8.4435e-001  3.7900e-001 -8.0249e-001 70380 70633,70685,70659
 3.0000e-001 70737 -5.9997e-001  1.4839e+000 -1.1389e+000 70380 70633,70711,70685
 3.0000e-001 70861 -4.9554e-002  1.6043e+000 -7.5792e-001 70068 70783,70835,70809
 3.0000e-001 71180  1.2846e-001  1.5344e+001  9.7311e-002 69870 70932,70984,70958
 3.0000e-001 71157 -1.0548e+000  1.4871e+001  3.6516e-001 69870 70932,71010,70984
 3.0000e-001 71134 -2.2648e+000  1.7008e+001 -1.2081e-001 69870 70932,71036,71010
 3.0000e-001 71111 -5.1629e+000  7.1543e+000  7.1689e+000 69870 70932,71062,71036
 3.0000e-001 71088 -5.2094e-002  1.1437e+001  1.0503e+000 69870 70906,71062,70932
 3.0000e-001 71428  9.7112e+000  2.6851e+001  1.1070e+000 69694 71451,71281,71255
 3.0000e-001 71405  8.8186e+000  2.4285e+001  5.2943e-001 69694 71523,71451,71255
 3.0000e-001 71382  1.0257e+001  2.5158e+001  3.9573e+000 69694 71523,71255,71229
 3.0000e-001 71359  4.1656e+000  1.8457e+001 -5.4952e-001 69694 71595,71333,71307
 3.0000e-001 71477  1.3361e+001  2.5439e+001 -3.5876e+000 69694 71307,71281,71451
 3.0000e-001 71500  5.6514e+000  2.2608e+001 -3.2605e+000 69694 71595,71307,71451
 3.0000e-001 71549  3.4198e+000  2.2524e+001  5.1730e-003 69694 71203,71451,71523
 3.0000e-001 71572  3.2372e+000  2.2104e+001  3.0313e+000 69694 71203,71523,71229
 3.0000e-001 71621  7.2916e+000  1.3521e+001 -1.5211e+000 69694 71203,71333,71595
 3.0000e-001 71644  5.9368e+000  1.5804e+001 -2.4978e+000 69694 71203,71595,71451
 3.0000e-001 71745  2.7791e-001  7.8178e-001 -7.1633e-001 69382 71667,71719,71693
 3.0000e-001 72100 -1.5856e+000  7.2254e+000 -2.2257e+000 69184 71875,71979,71901
 3.0000e-001 72077  3.2297e-001  1.0938e+001 -1.4492e+000 69184 71875,72005,71979
 3.0000e-001 72054 -1.6028e+000 -1.2611e+000 -4.2138e+000 69184 71901,71979,71953
 3.0000e-001 72031  1.3167e+000  3.8134e+000 -2.9909e+000 69184 71901,71953,71927
 3.0000e-001 72250 -1.6967e+000  8.2856e+000  1.3678e+000 68986 72149,72201,72175
 3.0000e-001 72227 -2.9106e+000  1.6452e+001 -2.1526e+000 68986 72123,72201,72149
 3.0000e-001 72547 -3.4296e-001  1.2948e+001 -1.2769e+000 68582 72570,72403,72377
 3.0000e-001 72524 -7.4162e-003  1.2672e+001 -1.5852e+000 68582 72570,72377,72351
 3.0000e-001 72501 -3.9768e-001  1.0797e+001 -4.7461e-001 68582 72642,72299,72429
 3.0000e-001 72478 -2.7154e-003  7.6485e+000 -2.0717e+000 68582 72273,72429,72299
 3.0000e-001 72455  8.9903e-001  1.8715e+001 -3.9049e-001 68582 72299,72351,72325
 3.0000e-001 72596  9.8634e-001  1.4286e+001  3.3495e-001 68582 72429,72403,72570
 3.0000e-001 72619 -2.0937e-001  1.1446e+001 -3.9122e-001 68582 72642,72429,72570
 3.0000e-001 72668 -1.5420e+000  1.1187e+001 -1.8041e+000 68582 72351,72299,72642
 3.0000e-001 72691 -9.1202e-001  1.2590e+001 -1.5314e+000 68582 72351,72642,72570
 3.0000e-001 73095 -1.4884e+000  5.9039e+000  4.0928e-001 68384 72873,72925,72899
 3.0000e-001 73072 -1.7608e+000  7.1106e+000  1.0821e+000 68384 72847,72925,72873
 3.0000e-001 73049 -1.6348e+000  7.5387e-002  3.6865e+000 68384 72847,72951,72925
 3.0000e-001 73026  1.7273e+000  4.4487e+000  2.1861e+000 68384 72821,72951,72847
 3.0000e-001 73003  7.1018e-001  2.8715e+000  1.6995e+000 68384 72821,72977,72951
 3.0000e-001 73552  2.6125e+000  1.4736e+001  3.1013e-001 68044 73304,73434,73408
 3.0000e-001 73529  6.1133e+000  1.3782e+001 -2.3925e+000 68044 73278,73434,73304
 3.0000e-001 73506 -3.4761e+000  1.8964e+001  7.4158e-001 68044 73356,73408,73382
 3.0000e-001 73483  3.9364e+000  2.0621e+001 -8.0803e-001 68044 73304,73408,73356
 3.0000e-001 73460  3.6386e+000  2.5446e+001 -1.0600e+000 68044 73304,73356,73330
 3.0000e-001 73871  1.5948e+000  1.5872e+001  5.2936e-001 67846 73675,73727,73701
 3.0000e-001 73848 -3.5687e+000  1.2228e+001  2.2250e+000 67846 73649,73727,73675
 3.0000e-001 73825  1.5353e-002  1.8840e+001 -8.8127e-001 67846 73623,73727,73649
 3.0000e-001 73802 -3.9876e+000  1.4900e+001 -2.5354e+000 67846 73623,73753,73727
 3.0000e-001 73779 -8.2673e-001  1.2180e+001 -9.7427e+000 67846 73597,73753,73623
 3.0000e-001 74021 -3.8850e+000  8.8083e+000 -1.3543e+000 67598 73920,73972,73946
 3.0000e-001 73998 -1.7293e+000  1.1885e+001  3.1196e-001 67598 73894,73972,73920
 3.0000e-001 74271 -1.1710e+000  9.7130e+000 -9.7045e-001 67286 74072,74176,74150
 3.0000e-001 74248  1.6146e+000  8.5701e+000 -1.7695e+000 67286 74046,74176,74072
 3.0000e-001 74225  1.8195e+000  1.1106e+001  1.2327e+000 67286 74072,74150,74098
 3.0000e-001 74202  2.6849e+000  1.2504e+001  2.4439e+000 67286 74098,74150,74124
 3.0000e-001 74374  1.1583e+000  2.0345e+001  1.6355e+000 67088 74296,74348,74322
 3.0000e-001 74646 -6.7500e+000  1.2249e+001 -4.5238e+000 66890 74421,74525,74447
 3.0000e-001 74623  1.8119e-001  1.5754e+001 -2.2561e+000 66890 74421,74551,74525
 3.0000e-001 74600 -9.1894e-001  1.6492e+001  1.9672e-001 66890 74447,74525,74473
 3.0000e-001 74577 -4.4903e+000  1.3265e+001  1.7642e+000 66890 74473,74525,74499
 3.0000e-001 75254  8.4226e-001  4.7837e+000 -2.1429e+000 66528 74885,75067,75041
 3.0000e-001 75231  3.7015e+000  2.7576e+000 -3.0093e+000 66528 74859,75067,74885
 3.0000e-001 75208  2.0001e+000  1.4317e+001 -1.2014e+000 66528 74937,75015,74963
 3.0000e-001 75185 -5.1119e+000  5.3196e+000 -4.7184e+000 66528 74911,75015,74937
 3.0000e-001 75162  1.5332e+000  9.4323e+000 -2.9340e+000 66528 74911,75041,75015
 3.0000e-001 75139  2.8819e-001  3.8074e+000 -2.6064e+000 66528 74885,75041,74911
 3.0000e-001 75116  1.5856e+000  3.0856e+000 -2.6752e+000 66528 74833,75067,74859
 3.0000e-001 75093 -1.3119e+000  1.7923e+001  6.9161e-001 66528 74963,75015,74989
 3.0000e-001 75453  3.2001e-001  1.1678e+001  1.4343e+000 66238 75303,75381,75355
 3.0000e-001 75430 -1.9203e+000  9.9983e+000  2.3140e+000 66238 75277,75381,75303
 3.0000e-001 75407  2.5956e+000  8.8751e+000  3.5030e+000 66238 75303,75355,75329
 3.0000e-001 75701 -2.0587e-001  2.3101e+001 -1.2898e+000 65834 75528,75606,75580
 3.0000e-001 75678  1.4524e+000  3.0387e+001 -5.9560e-001 65834 75502,75606,75528
 3.0000e-001 75655  1.0768e+000  2.4806e+001  3.4869e-003 65834 75528,75580,75554
 3.0000e-001 75632  2.6104e+000  3.1871e+001  1.9975e+000 65834 75476,75606,75502
 3.0000e-001 75902  4.4046e+000  2.7480e+001  1.1576e-001 65636 75726,75804,75752
 3.0000e-001 75879  1.1985e+001  3.0920e+001 -6.4154e-001 65636 75726,75830,75804
 3.0000e-001 75856 -2.1789e-001  2.6243e+001  4.8917e-002 65636 75752,75804,75778
 3.0000e-001 76103 -4.4801e+000  1.4321e+001  1.8919e+000 65296 76126,75979,75953
 3.0000e-001 76080 -8.3343e+000  1.5307e+001  2.7757e+000 65296 76126,75953,75927
 3.0000e-001 76057 -1.2224e+000  1.9574e+001 -3.6424e+000 65296 76198,76005,75979
 3.0000e-001 76152 -1.3443e+000  1.6751e+001 -4.8294e-001 65296 76198,75979,76126
 3.0000e-001 76175 -6.3418e+000  1.6988e+001  1.1282e+000 65296 76031,76126,75927
 3.0000e-001 76224 -6.5818e+000  1.5348e+001 -1.7971e+000 65296 76031,76005,76198
 3.0000e-001 76247 -6.3191e+000  1.3493e+001  9.4186e-001 65296 76031,76198,76126
 3.0000e-001 76602  2.7235e+000  1.4664e+001  1.1556e+000 64892 76377,76481,76403
 3.0000e-001 76579  2.6975e+000  1.3807e+001  6.0217e-001 64892 76377,76507,76481
 3.0000e-001 76556  6.4213e+000  1.5310e+001 -3.3026e-001 64892 76403,76481,76429
 3.0000e-001 76533 -8.5311e+000  8.6916e+000 -2.3102e+000 64892 76429,76481,76455
 3.0000e-001 76801 -6.5290e+000  1.8823e+001  6.9018e+000 64438 76677,76729,76703
 3.0000e-001 76778 -1.8632e+000  2.1494e+001  8.7601e-002 64438 76651,76729,76677
 3.0000e-001 76755  9.8870e-002  1.8680e+001  2.5322e+000 64438 76625,76729,76651
 3.0000e-001 77230 -2.1912e-001  1.4316e+001 -2.4514e-001 63920 77253,76959,76933
 3.0000e-001 77207  7.9178e-001  1.4180e+001  2.3681e-001 63920 77253,76933,77063
 3.0000e-001 77184 -1.7180e+000  1.3034e+001 -1.0790e+000 63920 76959,77037,76985
 3.0000e-001 77161 -2.2664e+000  1.2121e+001 -1.0279e+000 63920 76907,77063,76933
 3.0000e-001 77138  1.0679e-002  1.5717e+001 -1.8031e-001 63920 76985,77037,77011
 3.0000e-001 77115 -3.2662e+000  1.4991e+001 -9.5511e-001 63920 76907,77089,77063
 3.0000e-001 77279  6.4566e-001  1.4713e+001 -1.4034e-002 63920 77037,76959,77253
 3.0000e-001 77302  1.7123e+000  1.4682e+001  5.1739e-001 63920 77037,77253,77063
 3.0000e-001 77680  9.0452e+000  2.4060e+001  1.3647e-001 63316 77703,77484,77432
 3.0000e-001 77657  9.7194e+000  2.3340e+001 -8.2499e-001 63316 77703,77432,77406
 3.0000e-001 77634  4.5441e-001  2.0537e+001  1.2632e+000 63316 77406,77536,77510
 3.0000e-001 77611  3.8683e+000  1.8499e+001  3.7596e+000 63316 77432,77484,77458
 3.0000e-001 77588  7.8882e+000  2.3051e+001  3.2469e+000 63316 77406,77562,77536
 3.0000e-001 77729  7.6042e+000  2.2338e+001  8.4648e-001 63316 77510,77484,77703
 3.0000e-001 77752  9.1347e+000  2.2885e+001 -3.7047e-001 63316 77510,77703,77406
 3.0000e-001 78000  8.2246e-001  2.2755e+001  1.9916e-001 62812 77801,77853,77827
 3.0000e-001 77977  4.3285e+000  2.4821e+001 -1.4670e+000 62812 77801,77879,77853
 3.0000e-001 77954 -7.2560e+000  2.0854e+001 -4.1992e+000 62812 77801,77905,77879
 3.0000e-001 77931 -4.3965e-001  3.1488e+001  1.2961e+000 62812 77775,77905,77801
 3.0000e-001 78380  1.9583e+000  1.1465e+001 -1.4897e+000 62350 78184,78262,78236
 3.0000e-001 78357  1.3465e+000  1.8504e+001 -9.3417e-001 62350 78132,78262,78184
 3.0000e-001 78334  5.6222e-001  1.7885e+001 -4.8992e+000 62350 78106,78262,78132
 3.0000e-001 78311 -6.9351e+000  1.9409e+001  6.0837e+000 62350 78132,78184,78158
 3.0000e-001 78288 -4.8620e+000  1.1984e+001 -2.9393e+000 62350 78184,78236,78210
 3.0000e-001 78837  3.9209e+000  1.9518e+001 -3.2395e+000 61946 78615,78667,78641
 3.0000e-001 78814  1.2452e+001  2.4091e+001 -1.3100e+000 61946 78589,78667,78615
 3.0000e-001 78791  8.8715e+000  1.9372e+001  8.9420e-001 61946 78589,78719,78667
 3.0000e-001 78768  1.2189e+001  3.2595e+001  1.7945e+000 61946 78667,78719,78693
 3.0000e-001 78745  1.0609e+001  1.7235e+001 -3.4354e-001 61946 78563,78719,78589
 3.0000e-001 78987 -2.6346e+000  1.5536e+001  1.6505e-001 61335 79010,78886,78860
 3.0000e-001 78964 -1.4180e+000  1.6537e+001 -3.3787e-001 61335 79010,78860,78938
 3.0000e-001 79036  2.3195e-001  1.8724e+001 -1.6067e+000 61335 79082,79010,78912
 3.0000e-001 79059 -1.6642e+000  1.6585e+001 -3.3514e-001 61335 78912,79010,78938
 3.0000e-001 79108 -2.0623e+000  1.3116e+001 -6.5232e-001 61335 78886,79010,79082
 3.0000e-001 79437 -2.3612e-002  1.5841e+001 -1.4865e+000 60888 79460,79238,79212
 3.0000e-001 79414 -1.5736e+000  1.0942e+001 -2.7956e+000 60888 79460,79212,79342
 3.0000e-001 79391  9.8684e-002  1.5728e+001  7.1375e-001 60888 79532,79264,79238
 3.0000e-001 79368 -4.0441e+000  1.9903e+001  2.6046e+000 60888 79264,79316,79290
 3.0000e-001 79486 -1.7958e-001  1.6044e+001  4.4805e-001 60888 79532,79238,79460
 3.0000e-001 79509  1.9831e-001  1.4126e+001 -6.2537e-001 60888 79316,79460,79342
 3.0000e-001 79558  1.4199e-001  1.5454e+001  1.4585e-001 60888 79316,79264,79532
 3.0000e-001 79581 -9.9355e-001  1.5415e+001 -7.3957e-002 60888 79316,79532,79460
 3.0000e-001 79878 -7.0090e+000  8.4423e+000 -1.9252e+000 60484 79682,79760,79734
 3.0000e-001 79855 -3.4824e+000  1.7245e+001 -1.5651e+000 60484 79656,79760,79682
 3.0000e-001 79832 -2.5869e+000  1.5681e+001 -2.1896e+000 60484 79604,79760,79656
 3.0000e-001 79809 -3.5109e+000  1.8917e+001 -3.6552e+000 60484 79604,79656,79630
 3.0000e-001 79786  2.3172e+000  5.7903e+001  1.0301e+001 60484 79682,79734,79708
 3.0000e-001 80101  6.9046e+000  2.5599e+001 -2.4454e-001 60022 79951,80029,80003
 3.0000e-001 80078  2.1152e+000  2.6881e+001  5.6678e-001 60022 79925,80029,79951
 3.0000e-001 80055  8.4351e-001  2.3698e+001  1.4615e+000 60022 79951,80003,79977
 3.0000e-001 80351  5.7769e+000  2.1242e+001  1.6421e+000 59625 80152,80256,80204
 3.0000e-001 80328  3.8221e-001  1.7997e+001  2.8507e-001 59625 80126,80256,80152
 3.0000e-001 80305  6.3963e+000  2.2083e+001  6.2577e-001 59625 80204,80256,80230
 3.0000e-001 80282  4.8570e+000  1.8220e+001  2.6033e+000 59625 80152,80204,80178
 3.0000e-001 80552  6.9408e+000  2.2264e+001 -6.6337e-001 59121 80575,80402,80376
 3.0000e-001 80529  6.7574e+000  2.1534e+001 -6.2936e-001 59121 80575,80376,80480
 3.0000e-001 80506  2.6911e+000  2.8574e+001 -5.1789e+000 59121 80428,80480,80454
 3.0000e-001 80601  6.6419e+000  2.2725e+001 -1.6214e-001 59121 80428,80402,80575
 3.0000e-001 80624  6.4899e+000  2.2059e+001 -1.4782e-001 59121 80428,80575,80480
 3.0000e-001 81183  1.3575e+001  1.8617e+001 -9.6352e-001 58553 81206,80863,80837
 3.0000e-001 81160  4.6105e+000  1.7418e+001  7.9226e-001 58553 81350,81206,80837
 3.0000e-001 81137  6.1168e+000  1.6205e+001 -3.2926e+000 58553 81278,80915,80863
 3.0000e-001 81114  7.9401e-001  1.6085e+001  3.4633e+000 58553 81350,80837,80811
 3.0000e-001 81091  6.7099e+000  2.0025e+001 -1.8630e+000 58553 81422,80967,80941
 3.0000e-001 81068  4.7329e+000  1.9276e+001  1.7500e+000 58553 80967,81019,80993
 3.0000e-001 81045  1.1579e+001  3.8419e+001 -5.1055e+000 58553 80863,80915,80889
 3.0000e-001 81232  6.7069e+000  1.5230e+001 -2.6538e+000 58553 81278,80863,81206
 3.0000e-001 81255  6.8499e+000  1.9789e+001 -1.7267e+000 58553 81422,80941,81206
 3.0000e-001 81304  6.6533e+000  1.7971e+001 -3.3561e+000 58553 80941,80915,81278
 3.0000e-001 81327  6.9682e+000  1.6699e+001 -2.5780e+000 58553 80941,81278,81206
 3.0000e-001 81376  5.0864e+000  2.0050e+001 -1.3220e+000 58553 81019,81206,81350
 3.0000e-001 81399  4.0625e+000  1.9400e+001  1.1115e+000 58553 81019,81350,80811
 3.0000e-001 81448  6.4896e+000  1.9815e+001 -1.7740e+000 58553 81019,80967,81422
 3.0000e-001 81471  6.6346e+000  1.9629e+001 -1.6442e+000 58553 81019,81422,81206
 3.0000e-001 81768  2.7109e+000  2.4122e+001  1.4373e+000 57877 81791,81572,81520
 3.0000e-001 81745  3.7541e+000  2.4634e+001 -5.8883e-001 57877 81791,81520,81494
 3.0000e-001 81722  9.1211e-001  2.3235e+001  7.4052e-001 57877 81863,81650,81598
 3.0000e-001 81699  5.5899e-001  2.3601e+001  4.7463e+000 57877 81598,81650,81624
 3.0000e-001 81676  1.6813e+000  2.5527e+001  1.5091e+000 57877 81520,81572,81546
 3.0000e-001 81817  2.2002e+000  2.3177e+001  1.2157e+000 57877 81598,81572,81791
 3.0000e-001 81840  1.0251e+000  2.4274e+001  8.4935e-001 57877 81863,81598,81791
 3.0000e-001 81889  1.3437e+000  1.9110e+001  9.2861e-001 57877 81494,81650,81863
 3.0000e-001 81912  2.6105e+000  2.1828e+001  4.8712e-001 57877 81494,81863,81791
 3.0000e-001 82160  3.2820e+000  2.1413e+001  1.0091e-001 57473 81935,82039,82013
 3.0000e-001 82137  4.1834e-001  1.9615e+001  8.9166e-001 57473 81935,82065,82039
 3.0000e-001 82114  3.4523e+000  2.3826e+001  9.2615e-001 57473 81935,82013,81961
 3.0000e-001 82091 -2.9642e+000  2.7112e+001  2.6360e-001 57473 81961,82013,81987
 3.0000e-001 82719  2.8504e+000  1.6490e+001  9.6080e-001 56962 82814,82742,82425
 3.0000e-001 82696  2.2004e+000  1.4425e+001  1.9038e+000 56962 82742,82347,82555
 3.0000e-001 82673  3.3782e+000  1.7609e+001  5.8322e-001 56962 82814,82425,82399
 3.0000e-001 82650  2.3900e+000  1.6956e+001  5.4182e-001 56962 82425,82477,82451
 3.0000e-001 82627  4.7343e+000  1.8193e+001  1.2023e+000 56962 82425,82529,82477
 3.0000e-001 82604  3.7289e+000  2.4754e+001  4.3351e+000 56962 82477,82529,82503
 3.0000e-001 82581  4.8226e+000  1.8995e+001  9.1119e-001 56962 82347,82399,82373
 3.0000e-001 82768  3.0320e+000  1.5711e+001  3.8389e-001 56962 82529,82425,82742
 3.0000e-001 82791  1.6213e+000  1.5485e+001  4.0024e-001 56962 82529,82742,82555
 3.0000e-001 82840  3.5805e+000  1.5192e+001  1.2549e+000 56962 82347,82742,82814
 3.0000e-001 82863  3.6928e+000  1.5957e+001  1.0399e+000 56962 82347,82814,82399
 3.0000e-001 83467 -5.2896e+000  1.3507e+001 -4.6410e+000 56300 83124,83176,83150
 3.0000e-001 83444  1.8342e-002  1.3121e+001 -6.5799e-001 56300 83490,83176,83124
 3.0000e-001 83421  3.7481e-001  1.4005e+001 -2.2722e-001 56300 83490,83124,83280
 3.0000e-001 83398  1.1081e+000  1.2491e+001  1.1681e+000 56300 83202,83280,83254
 3.0000e-001 83375  1.5541e+000  1.6238e+001  2.7596e-001 56300 83046,83280,83124
 3.0000e-001 83352  1.1279e+000  1.8701e+001  1.0141e+000 56300 83046,83124,83098
 3.0000e-001 83329  1.9195e+000  1.9257e+001  1.3041e+000 56300 83202,83254,83228
 3.0000e-001 83306  2.6524e+000  2.4663e+001  7.0338e-001 56300 83046,83098,83072
 3.0000e-001 83516  2.1881e-002  1.4368e+001 -4.2777e-001 56300 83202,83176,83490
 3.0000e-001 83539  5.3463e-002  1.4604e+001  7.2249e-002 56300 83202,83490,83280
 3.0000e-001 83787  3.3214e+000  2.0905e+001 -1.6900e+000 55960 83588,83692,83666
 3.0000e-001 83764  3.3020e+000  2.4195e+001 -2.1276e-001 55960 83562,83692,83588
 3.0000e-001 83741  8.8363e+000  2.1278e+001 -4.3962e-001 55960 83588,83666,83614
 3.0000e-001 83718  5.0939e+000  2.1431e+001 -3.2524e-001 55960 83614,83666,83640
 3.0000e-001 83937 -2.1707e+000  1.4354e+001  8.8756e-001 55499 83810,83862,83836
 3.0000e-001 83914  6.1570e-001  1.4731e+001  3.6147e-001 55499 83810,83888,83862
 3.0000e-001 84138  3.7756e+000  1.4237e+001 -2.8453e+000 55152 83988,84066,84040
 3.0000e-001 84115  6.9849e+000  2.2635e+001 -1.4377e+000 55152 83962,84066,83988
 3.0000e-001 84092  6.9360e+000  2.1666e+001 -4.8307e-001 55152 83988,84040,84014
 3.0000e-001 84471  1.8027e+000  2.6116e+001 -3.2790e+000 54648 84324,84376,84350
 3.0000e-001 84448 -4.6868e+000  1.4925e+001 -5.1481e-001 54648 84272,84376,84324
 3.0000e-001 84425 -3.8214e+000  1.0234e+001  2.3789e+000 54648 84246,84376,84272
 3.0000e-001 84402 -1.4971e+000  1.5251e+001 -4.6420e+000 54648 84272,84324,84298
 3.0000e-001 84849  1.0857e+001  2.1385e+001  1.7140e+000 53922 84627,84731,84705
 3.0000e-001 84826  1.5132e+001  2.7405e+001  3.5825e+000 53922 84575,84731,84627
 3.0000e-001 84803  1.3622e+001  3.2152e+001  1.3184e+001 53922 84575,84627,84601
 3.0000e-001 84780  1.5382e+001  2.2755e+001  2.9807e+000 53922 84627,84705,84653
 3.0000e-001 84757  9.8734e+000  1.9647e+001  1.1237e+000 53922 84653,84705,84679
 3.0000e-001 85581 -9.5615e-001  8.5526e+000 -1.5620e+000 53582 85604,85111,85319
 3.0000e-001 85558  1.0335e+001  7.8601e+000 -1.1548e+000 53582 85111,85345,85319
 3.0000e-001 85535  4.3408e+000  1.0531e+001 -2.2464e+000 53582 85604,85319,85293
 3.0000e-001 85512 -5.9317e+000  9.4492e+000  4.5705e+000 53582 85241,85293,85267
 3.0000e-001 85489 -4.0998e+000  1.1790e+001  1.8074e+000 53582 85676,85241,85189
 3.0000e-001 85466 -1.0372e+000  1.2216e+001 -2.7880e-001 53582 85676,85189,85137
 3.0000e-001 85443 -5.5537e+000  1.7456e+001  1.9816e+000 53582 85189,85241,85215
 3.0000e-001 85420 -2.7970e+000  1.8135e+001 -1.8903e+000 53582 85137,85189,85163
 3.0000e-001 85397  1.4951e+001  1.4415e+001 -4.4846e+000 53582 85111,85371,85345
 3.0000e-001 85630 -2.7970e+000  7.7258e+000  2.2482e+000 53582 85137,85111,85604
 3.0000e-001 85653  1.5153e+000  1.1127e+001  1.9399e+000 53582 85748,85604,85293
 3.0000e-001 85702 -5.3064e+000  8.7916e+000  4.7614e+000 53582 85293,85241,85676
 3.0000e-001 85725 -2.5719e-001  1.2262e+001  2.2989e+000 53582 85748,85293,85676
 3.0000e-001 85774 -1.0737e+000  9.8739e+000  1.0490e+000 53582 85137,85604,85748
 3.0000e-001 85797 -2.2977e+000  1.1401e+001  1.4343e+000 53582 85137,85748,85676
 3.0000e-001 86303  6.3253e+000  1.1509e+001 -2.8067e+000 53178 86326,86084,86006
 3.0000e-001 86280  4.9851e+000  1.2563e+001 -2.2320e+000 53178 86326,86006,86162
 3.0000e-001 86257  6.4195e+000  1.2588e+001 -5.5357e+000 53178 86398,86110,86084
 3.0000e-001 86234  7.3485e+000  1.0647e+001 -2.4894e+000 53178 86006,86058,86032
 3.0000e-001 86211  5.9138e+000  1.0169e+001 -2.5286e+000 53178 86006,86084,86058
 3.0000e-001 86188  2.4077e+000  1.1014e+001 -8.5575e-001 53178 85980,86162,86006
 3.0000e-001 86352  4.5497e+000  1.0654e+001 -3.1685e+000 53178 86398,86084,86326
 3.0000e-001 86375  6.5533e-001  1.2593e+001 -3.1958e+000 53178 86136,86326,86162
 3.0000e-001 86424  6.5763e+000  1.4058e+001 -6.6191e+000 53178 86136,86110,86398
 3.0000e-001 86447  6.1683e+000  1.5262e+001 -4.3182e+000 53178 86136,86398,86326
 3.0000e-001 86904  3.0033e+000  1.7219e+001  7.6276e-001 52774 86708,86760,86734
 3.0000e-001 86881  2.2551e+000  1.3685e+001  1.2729e-001 52774 86656,86760,86708
 3.0000e-001 86858  1.4854e+000  1.2181e+001  1.2052e+000 52774 86656,86708,86682
 3.0000e-001 86835  4.5042e+000  1.2841e+001  5.1143e-001 52774 86630,86760,86656
 3.0000e-001 86812  2.3264e+000  1.2483e+001 -5.5786e-001 52774 86630,86786,86760
 3.0000e-001 87489  6.3323e+000  2.2198e+001  4.7958e+000 52234 87512,87218,87192
 3.0000e-001 87466  4.1659e+000  1.7921e+001  1.0088e+000 52234 87512,87192,87348
 3.0000e-001 87443  1.1052e+000  1.5291e+001 -3.9361e-001 52234 87166,87348,87192
 3.0000e-001 87420  1.2249e+000  1.3366e+001  1.7909e-001 52234 87296,87348,87322
 3.0000e-001 87397  6.7481e+000  1.3181e+001  2.9363e+000 52234 87218,87296,87270
 3.0000e-001 87374  6.8129e+000  1.1213e+001  4.6402e+000 52234 87218,87270,87244
 3.0000e-001 87538  3.5389e+000  1.5239e+001  3.1090e+000 52234 87296,87218,87512
 3.0000e-001 87561  3.3836e+000  1.5384e+001 -6.6872e-001 52234 87296,87512,87348
 3.0000e-001 87841  5.1229e+000  1.7541e+001  1.8046e+000 51830 87665,87743,87691
 3.0000e-001 87818 -6.4973e-001  1.4287e+001 -2.0683e-001 51830 87665,87769,87743
 3.0000e-001 87795 -1.9963e+000  1.0594e+001 -1.2359e+000 51830 87864,87691,87743
 3.0000e-001 87890 -5.1707e+000  9.2336e+000 -1.3757e+000 51830 87717,87691,87864
 3.0000e-001 88418  3.9624e+000  1.6852e+001 -1.7468e-001 51262 88095,88173,88121
 3.0000e-001 88395  4.6540e+000  1.7078e+001  1.7112e-001 51262 88095,88251,88173
 3.0000e-001 88372 -2.6497e+000  1.2426e+001 -3.2504e+000 51262 88173,88251,88199
 3.0000e-001 88349  6.5849e+000  2.2149e+001 -1.4528e-001 51262 88095,88277,88251
 3.0000e-001 88326  8.0588e+000  2.4119e+001  1.2644e+000 51262 88199,88251,88225
 3.0000e-001 88303  3.4151e+000  1.8278e+001  5.9491e-001 51262 88121,88173,88147
 3.0000e-001 88875 -3.4366e+000  8.8643e+000 -1.4253e+000 50750 88601,88731,88627
 3.0000e-001 88852 -5.7928e+000  1.5245e+001 -2.5369e+000 50750 88601,88757,88731
 3.0000e-001 88829  4.9897e+000  1.5380e+001  3.0717e+000 50750 88627,88731,88653
 3.0000e-001 88806  3.4078e+000  1.1565e+001  2.8460e+000 50750 88653,88731,88705
 3.0000e-001 88783 -6.1991e-001  8.1689e+000 -7.0244e-001 50750 88653,88705,88679
 3.0000e-001 89145  3.8519e+000  2.1774e+001  3.0987e-002 50438 88946,89024,88972
 3.0000e-001 89122  6.6246e+000  2.0258e+001 -2.9659e-001 50438 88946,89050,89024
 3.0000e-001 89099  1.8984e+000  1.6506e+001 -1.9320e+000 50438 88920,89050,88946
 3.0000e-001 89076  1.8953e+000  1.7560e+001 -7.1566e+000 50438 88972,89024,88998
 3.0000e-001 89525 -2.1662e+000  1.6905e+001 -5.3974e-001 49934 89548,89277,89251
 3.0000e-001 89502 -8.1222e-001  1.6025e+001 -1.2970e+000 49934 89548,89251,89381
 3.0000e-001 89479 -9.0443e-002  1.2580e+001 -1.4140e+000 49934 89303,89381,89329
 3.0000e-001 89456 -1.1071e+001  1.7309e+001 -7.2366e+000 49934 89251,89407,89381
 3.0000e-001 89433  5.5088e+000  1.1213e+001 -6.2775e+000 49934 89329,89381,89355
 3.0000e-001 89574  2.8075e+000  2.2534e+001  1.7033e+000 49934 89303,89277,89548
 3.0000e-001 89597 -5.2544e-001  1.6512e+001 -1.0223e+000 49934 89303,89548,89381
 3.0000e-001 90054  5.8147e+000  1.6484e+001 -9.1243e-001 49380 89832,89936,89910
 3.0000e-001 90031  8.4921e+000  1.8042e+001  1.6848e+000 49380 89780,89936,89832
 3.0000e-001 90008  1.1996e+001  2.0696e+001  3.3417e-001 49380 89780,89832,89806
 3.0000e-001 89985  9.1243e+000  1.4761e+001 -1.5182e+000 49380 89832,89910,89858
 3.0000e-001 89962  1.3837e+001  2.8364e+001  8.1250e-001 49380 89858,89910,89884
 3.0000e-001 90560  1.3639e+001  2.0723e+001  2.4323e+000 48890 90289,90341,90315
 3.0000e-001 90537  1.0403e+001  1.9304e+001  1.2182e+000 48890 90289,90393,90341
 3.0000e-001 90514  6.5265e+000  1.9053e+001  1.9699e-003 48890 90263,90393,90289
 3.0000e-001 90491  1.2182e+001  2.2700e+001 -3.7031e+000 48890 90237,90393,90263
 3.0000e-001 90468  1.4760e+001  2.6337e+001 -6.2556e-001 48890 90341,90393,90367
 3.0000e-001 90445  1.1866e+001  2.1138e+001 -1.6680e+000 48890 90237,90419,90393
 3.0000e-001 91115  7.0837e+000  2.0024e+001 -3.4914e-001 48486 90795,90873,90847
 3.0000e-001 91092  7.8733e+000  2.3182e+001 -2.0396e+000 48486 90795,90925,90873
 3.0000e-001 91069 -4.1401e-001  2.1437e+001 -2.9836e-001 48486 90769,90925,90795
 3.0000e-001 91046 -3.9219e+000  2.1046e+001 -3.4821e-001 48486 90769,90951,90925
 3.0000e-001 91023  9.7778e+000  2.6882e+001 -9.7485e-002 48486 90795,90847,90821
 3.0000e-001 91000  8.2809e+000  1.8680e+001 -8.7409e+000 48486 90873,90925,90899
 3.0000e-001 90977  2.7194e+000  2.4705e+001  1.4339e+000 48486 90743,90951,90769
 3.0000e-001 91265  9.8688e+000  3.1584e+001 -5.8868e+000 48082 91288,91190,91164
 3.0000e-001 91242  6.7692e+000  2.2558e+001 -5.4615e+000 48082 91360,91288,91164
 3.0000e-001 91314  6.2596e+000  2.7258e+001 -3.4561e+000 48082 91216,91190,91288
 3.0000e-001 91337  9.6471e+000  2.8075e+001 -1.8792e+000 48082 91216,91288,91138
 3.0000e-001 91386  1.1722e+001  2.7594e+001 -1.8418e+000 48082 91138,91288,91360
 3.0000e-001 92022 -1.0110e+000  9.5199e+000 -6.4109e-001 47514 92261,92045,91754
 3.0000e-001 91999  3.0413e+000  1.0498e+001 -1.7550e+000 47514 92189,92045,91702
 3.0000e-001 91976  3.4575e+000  1.4588e+001 -3.0489e-001 47514 92117,91806,91754
 3.0000e-001 91953  3.6079e+000  9.0713e+000  1.1009e+000 47514 92189,91702,91650
 3.0000e-001 91930 -6.0212e+000  1.3481e+001 -2.9915e+000 47514 92261,91754,91728
 3.0000e-001 91907  9.3561e-001  1.6724e+001 -5.0585e-001 47514 91754,91806,91780
 3.0000e-001 91884  5.3030e+000  7.5744e+000  5.4370e-001 47514 91650,91702,91676
 3.0000e-001 92071  2.3229e+000  1.2380e+001 -2.1296e+000 47514 92117,91754,92045
 3.0000e-001 92094 -1.8025e+000  5.8882e+000 -1.2703e+000 47514 91832,92045,91858
 3.0000e-001 92143  5.4005e+000  1.5825e+001  2.8051e+000 47514 91832,91806,92117
 3.0000e-001 92166  4.4604e+000  1.1221e+001  1.0445e+000 47514 91832,92117,92045
 3.0000e-001 92215 -6.3281e-001  9.2639e+000 -1.3282e+000 47514 91858,92045,92189
 3.0000e-001 92238  1.2356e+000  8.3498e+000  1.0296e+000 47514 91858,92189,91650
 3.0000e-001 92287 -3.2469e+000  5.2961e+000 -4.4008e+000 47514 91702,92045,92261
 3.0000e-001 92310 -7.4716e+000  7.6813e+000 -7.1410e+000 47514 91702,92261,91728
 3.0000e-001 92460 -5.2630e+000  1.9679e+000 -2.6690e+000 47124 92483,92359,92333
 3.0000e-001 92437 -3.8676e+000  1.8528e-001 -4.4928e+000 47124 92555,92483,92333
 3.0000e-001 92509 -3.5636e+000  1.4755e-001 -3.9977e+000 47124 92685,92483,92385
 3.0000e-001 92532 -3.7954e+000  1.9091e+000 -3.2999e+000 47124 92385,92483,92411
 3.0000e-001 92581  3.4267e+000  5.1291e+000 -1.9911e+000 47124 92411,92483,92555
 3.0000e-001 92711  2.8098e+000  5.6781e+000 -1.5927e+000 47124 92359,92483,92685
 3.0000e-001 93571  5.7044e+000  1.5009e+001  1.5200e+000 46834 93594,93208,93104
 3.0000e-001 93548 -7.6773e-001  1.2127e+001  2.1417e+000 46834 93738,93594,93104
 3.0000e-001 93525  3.6733e-001  4.6128e+000 -5.8894e+000 46834 93666,93234,93208
 3.0000e-001 93502 -1.5691e+000  1.2719e+001  2.5083e+000 46834 93738,93104,93078
 3.0000e-001 93479  2.9282e+000  1.7869e+001 -6.4085e+000 46834 93810,93260,93234
 3.0000e-001 93456  7.6651e+000  8.3794e+000  3.6783e+000 46834 93104,93182,93156
 3.0000e-001 93433  6.0151e+000  9.6302e+000  1.2446e+000 46834 93104,93208,93182
 3.0000e-001 93410 -4.3805e+000  1.9710e+001  1.1394e+000 46834 93286,93338,93312
 3.0000e-001 93387 -4.4659e+000  1.2119e+001  1.3625e+000 46834 93052,93338,93078
 3.0000e-001 93364  8.9133e+000  1.1433e+001  3.9311e+000 46834 93104,93156,93130
 3.0000e-001 93620  1.3985e+000  1.2434e+001 -2.1000e+000 46834 93666,93208,93594
 3.0000e-001 93643  1.0337e-001  1.7275e+001  1.4943e-001 46834 93286,93594,93338
 3.0000e-001 93692  3.5762e+000  1.5541e+001 -4.8477e+000 46834 93810,93234,93666
 3.0000e-001 93715 -2.1438e-001  1.6914e+001 -1.8413e+000 46834 93286,93666,93594
 3.0000e-001 93764 -3.6007e-001  1.3145e+001  1.9099e+000 46834 93338,93594,93738
 3.0000e-001 93787 -8.2238e-001  1.3976e+001  2.0098e+000 46834 93338,93738,93078
 3.0000e-001 93836 -1.5050e-001  1.5535e+001 -3.8319e+000 46834 93286,93260,93810
 3.0000e-001 93859  8.7888e-001  1.3617e+001 -2.3141e+000 46834 93286,93810,93666
 3.0000e-001 94210  1.0673e+001  2.9688e+001  1.2841e+000 46472 94011,94115,94089
 3.0000e-001 94187  9.9837e+000  2.9486e+001  8.6476e-001 46472 93985,94115,94011
 3.0000e-001 94164 -1.1683e+000  3.0901e+001  2.5745e-001 46472 94037,94089,94063
 3.0000e-001 94141 -2.3017e+000  2.4119e+001  1.9378e+000 46472 94011,94089,94037
 3.0000e-001 94746  1.1563e+001  1.2369e+001 -1.5814e+000 46068 94576,94628,94602
 3.0000e-001 94723  9.5638e+000  1.1705e+001 -2.5453e+000 46068 94498,94628,94576
 3.0000e-001 94700  1.3429e+001  1.9520e+001 -3.9937e+000 46068 94472,94628,94498
 3.0000e-001 94677  1.0290e+001  1.0270e+001 -1.7133e+000 46068 94524,94576,94550
 3.0000e-001 94654  1.0983e+001  1.1670e+001 -1.9582e+000 46068 94498,94576,94524
 3.0000e-001 95380  1.0112e+001  2.3455e+001 -2.7243e+000 45342 95034,95112,95086
 3.0000e-001 95357  9.4533e+000  2.0118e+001 -1.0177e+000 45342 95034,95190,95112
 3.0000e-001 95334  6.6204e+000  2.4180e+001  7.4196e-001 45342 95403,95164,95138
 3.0000e-001 95311  9.3508e+000  2.6641e+001 -4.5597e-001 45342 95403,95138,95112
 3.0000e-001 95288  9.7675e+000  2.0310e+001 -9.3618e-001 45342 95034,95216,95190
 3.0000e-001 95265  7.7916e+000  2.6862e+001 -5.9761e-001 45342 95034,95086,95060
 3.0000e-001 95242  1.4364e+001  3.1101e+001 -8.4949e-001 45342 95008,95216,95034
 3.0000e-001 95429  9.3581e+000  2.2753e+001  6.3915e-001 45342 95190,95164,95403
 3.0000e-001 95452  1.0809e+001  2.3643e+001  8.4397e-002 45342 95190,95403,95112
 3.0000e-001 96007  4.5552e+000  2.2428e+001  2.7922e+000 44716 96030,95791,95765
 3.0000e-001 95984  5.7520e+000  1.6727e+001  3.4746e+000 44716 96030,95765,95713
 3.0000e-001 95961  5.8340e+000  2.2523e+001  4.0710e+000 44716 96174,96102,95661
 3.0000e-001 95938  6.3997e+000  2.0715e+001  3.7469e+000 44716 96174,95661,95635
 3.0000e-001 95915  9.3086e+000  2.5943e+001  2.9550e+000 44716 95661,95713,95687
 3.0000e-001 95892  5.5349e+000  1.7410e+001  5.1981e+000 44716 95713,95765,95739
 3.0000e-001 95869  5.4365e+000  1.9234e+001  3.4685e+000 44716 95635,95843,95817
 3.0000e-001 96056  6.1469e+000  2.9565e+001  5.6381e+000 44716 95817,95791,96030
 3.0000e-001 96079  4.1879e+000  2.1735e+001  3.9626e+000 44716 96102,95817,96030
 3.0000e-001 96128  5.7048e+000  2.2637e+001  4.3542e+000 44716 95713,95661,96102
 3.0000e-001 96151  6.0954e+000  2.2772e+001  3.4149e+000 44716 95713,96102,96030
 3.0000e-001 96200  4.8107e+000  2.0143e+001  4.4910e+000 44716 95817,96102,96174
 3.0000e-001 96223  5.8959e+000  1.9099e+001  3.8320e+000 44716 95817,96174,95635
 3.0000e-001 96680  4.2210e+000  1.5376e+001  4.8236e-001 44198 96775,96703,96458
 3.0000e-001 96657  4.4531e+000  1.5033e+001 -2.6126e+000 44198 96703,96406,96562
 3.0000e-001 96634 -4.6128e-001  1.7534e+001  1.3593e-001 44198 96775,96458,96432
 3.0000e-001 96611  6.7434e+000  2.4042e+001  4.8927e+000 44198 96484,96536,96510
 3.0000e-001 96588  8.2062e+000  1.7501e+001  3.3627e+000 44198 96458,96536,96484
 3.0000e-001 96729  2.9634e+000  1.2840e+001  8.9105e-001 44198 96536,96458,96703
 3.0000e-001 96752  3.6858e+000  1.2213e+001 -9.1974e-001 44198 96536,96703,96562
 3.0000e-001 96801 -5.0035e-001  1.2346e+001 -1.1403e+000 44198 96406,96703,96775
 3.0000e-001 96824 -3.9919e+000  1.5949e+001 -7.2719e-001 44198 96406,96775,96432
 3.0000e-001 97202 -2.0824e+000  6.3307e+000  7.8290e-001 43750 97225,96980,96928
 3.0000e-001 97179  1.0622e+000  4.1003e+000  2.5389e+000 43750 97225,96928,97084
 3.0000e-001 97156  1.8961e+000  1.0672e+001 -1.0821e+000 43750 96928,96980,96954
 3.0000e-001 97133  6.5690e+000  8.9152e+000  4.8043e-001 43750 97006,97084,97058
 3.0000e-001 97110  1.4263e+001  7.2902e+000  9.0345e-001 43750 97006,97058,97032
 3.0000e-001 97251 -4.5013e-002  9.4881e+000  2.3225e+000 43750 97006,96980,97225
 3.0000e-001 97274  2.9357e+000  5.9576e+000  3.7284e+000 43750 97006,97225,97084
 3.0000e-001 97522  4.8459e+000  2.3813e+001 -7.6905e-001 43360 97545,97375,97349
 3.0000e-001 97499  1.2049e+000  1.9567e+001 -2.6351e+000 43360 97545,97349,97323
 3.0000e-001 97476  5.4484e+000  1.8106e+001 -3.4609e+000 43360 97617,97427,97401
 3.0000e-001 97453  2.8082e+000  8.6616e+000 -8.5492e+000 43360 97297,97427,97323
 3.0000e-001 97571  5.4307e+000  1.7768e+001 -6.7741e-001 43360 97401,97375,97545
 3.0000e-001 97594  5.3665e+000  1.7046e+001 -2.7167e+000 43360 97617,97401,97545
 3.0000e-001 97643  5.9547e+000  1.9396e+001 -3.9268e+000 43360 97323,97427,97617
 3.0000e-001 97666  6.0153e+000  1.8938e+001 -3.0816e+000 43360 97323,97617,97545
 3.0000e-001 98019  8.0023e+000  1.5348e+001 -3.8444e-001 42956 97794,97898,97820
 3.0000e-001 97996  2.0593e+000  1.0290e+001  1.7715e+000 42956 97794,97924,97898
 3.0000e-001 97973 -2.4063e+000  1.2028e+001 -1.2536e-001 42956 97820,97872,97846
 3.0000e-001 97950 -1.1883e+000  1.2866e+001 -7.1746e-001 42956 97820,97898,97872
 3.0000e-001 98446  1.0712e+001  1.9574e+001 -2.6472e+000 42559 98149,98305,98279
 3.0000e-001 98423  1.4368e+001  2.1789e+001 -1.6912e+000 42559 98123,98305,98149
 3.0000e-001 98400  1.0261e+001  2.7520e+001 -3.0123e+000 42559 98469,98175,98149
 3.0000e-001 98377  1.0054e+001  2.6980e+001 -4.7843e+000 42559 98469,98149,98279
 3.0000e-001 98354  1.0010e+001  2.4596e+001 -1.8764e+000 42559 98175,98253,98227
 3.0000e-001 98331  8.9021e+000  2.1900e+001 -1.9862e+000 42559 98175,98227,98201
 3.0000e-001 98495  1.2035e+001  2.7739e+001 -2.7468e+000 42559 98253,98175,98469
 3.0000e-001 98518  1.1703e+001  2.7640e+001 -4.3082e+000 42559 98253,98469,98279
 3.0000e-001 98847  8.9863e+000  1.5948e+001 -2.1475e+000 42247 98674,98752,98700
 3.0000e-001 98824  6.7377e+000  1.5776e+001 -7.3423e-001 42247 98648,98752,98674
 3.0000e-001 98801  5.6756e+000  1.3180e+001 -1.6663e+000 42247 98622,98752,98648
 3.0000e-001 98778  1.1277e+000  1.0418e+001  1.8621e+000 42247 98700,98752,98726
 3.0000e-001 99117  3.2602e+000  1.8557e+001  8.2747e-002 41843 98892,98996,98918
 3.0000e-001 99094  5.2415e+000  2.2258e+001 -2.1614e+000 41843 98892,99022,98996
 3.0000e-001 99071  1.8674e+000  2.2367e+001 -4.7160e-001 41843 98918,98996,98970
 3.0000e-001 99048  5.4304e+000  2.4597e+001 -1.7200e+000 41843 98918,98970,98944
 3.0000e-001 99625  7.7158e+000  2.3735e+001  5.9857e+000 41232 99648,99380,99354
 3.0000e-001 99602  2.3097e+000  1.7585e+001  2.1308e+000 41232 99648,99354,99328
 3.0000e-001 99579  4.5323e+000  1.5652e+001  2.7187e+000 41232 99720,99432,99380
 3.0000e-001 99556  6.5259e-002  1.3822e+001  2.5943e+000 41232 99380,99432,99406
 3.0000e-001 99533 -3.6814e+000  1.3428e+001 -2.6681e-001 41232 99328,99484,99458
 3.0000e-001 99510 -6.8080e+000  1.6808e+001  2.2037e+000 41232 99302,99484,99328
 3.0000e-001 99674  3.2405e+000  1.6523e+001  2.6101e+000 41232 99720,99380,99648
 3.0000e-001 99697  3.6300e+000  1.4653e+001 -1.8900e-001 41232 99458,99648,99328
 3.0000e-001 99746  4.9388e+000  1.6534e+001  2.2156e+000 41232 99458,99432,99720
 3.0000e-001 99769  4.5274e+000  1.8137e+001  1.8422e+000 41232 99458,99720,99648
 3.0000e-001 100275  1.0585e+001  1.1711e+001  4.2109e+000 40728 99952,100004,99978
 3.0000e-001 100252  3.9716e+000  1.0231e+001  9.4091e-001 40728 99952,100030,100004
 3.0000e-001 100229  4.9742e+000  1.2964e+001  5.5036e-001 40728 99952,100134,100030
 3.0000e-001 100206  5.2243e-001  1.2909e+001 -6.2267e-001 40728 100298,100108,100082
 3.0000e-001 100183  1.9562e+000  9.2941e+000 -1.8308e+000 40728 100298,100082,100030
 3.0000e-001 100160 -4.8465e+000  1.3623e+001 -1.1125e+001 40728 100030,100082,100056
 3.0000e-001 100324  1.3373e+000  1.5383e+001  4.4949e-001 40728 100134,100108,100298
 3.0000e-001 100347  2.7862e+000  1.1366e+001 -5.6080e-001 40728 100134,100298,100030
 3.0000e-001 100853  7.2428e+000  2.5733e+001 -1.2277e+000 40274 100876,100686,100660
 3.0000e-001 100830  8.6276e+000  2.0723e+001  5.5799e-001 40274 100948,100876,100660
 3.0000e-001 100807  6.7622e+000  1.9921e+001 -1.2752e+000 40274 100948,100660,100608
 3.0000e-001 100784  8.8716e+000  2.5182e+001  1.5427e+000 40274 101020,100556,100712
 3.0000e-001 100761  8.6629e+000  2.3364e+001  8.8058e-001 40274 100530,100712,100556
 3.0000e-001 100738  4.4141e+000  2.2627e+001  1.1446e-001 40274 100608,100660,100634
 3.0000e-001 100902  7.4832e+000  3.3428e+001  1.2774e+000 40274 100712,100686,100876
 3.0000e-001 100925  6.0414e+000  2.5272e+001 -6.9015e-001 40274 101020,100712,100876
 3.0000e-001 100974  7.2993e+000  1.9293e+001 -2.3869e+000 40274 100582,100876,100948
 3.0000e-001 100997  3.4641e+000  1.7995e+001 -4.1743e+000 40274 100582,100948,100608
 3.0000e-001 101046  1.2672e+001  2.6740e+001  3.0529e+000 40274 100582,100556,101020
 3.0000e-001 101069  1.0209e+001  2.6150e+001  3.9137e-001 40274 100582,101020,100876
 3.0000e-001 101496  7.7193e-001  1.6250e+001  1.0259e+000 39820 101519,101277,101225
 3.0000e-001 101473 -2.6072e+000  1.2651e+001 -5.6817e-001 39820 101519,101225,101199
 3.0000e-001 101450 -2.8987e-001  1.1278e+001  7.1310e-001 39820 101173,101355,101199
 3.0000e-001 101427  9.1582e-001  1.3539e+001  3.8656e+000 39820 101277,101355,101303
 3.0000e-001 101404  1.5700e+000  1.4374e+001 -2.7614e+000 39820 101225,101277,101251
 3.0000e-001 101381  4.4270e+000  1.0002e+001  5.6624e+000 39820 101303,101355,101329
 3.0000e-001 101545  2.3979e+000  1.4267e+001  2.6121e+000 39820 101355,101277,101519
 3.0000e-001 101568  8.6329e-001  1.3364e+001  1.6688e+000 39820 101355,101519,101199
 3.0000e-001 101816  9.4848e+000  1.9384e+001  5.2597e+000 39066 101839,101695,101643
 3.0000e-001 101793  6.5950e+000  2.0379e+001  2.9827e+000 39066 101839,101643,101591
 3.0000e-001 101770  3.8855e+000  1.2731e+001  9.2079e-001 39066 101643,101695,101669
 3.0000e-001 101747  9.3240e+000  2.0703e+001  1.4235e+000 39066 101591,101643,101617
 3.0000e-001 101865  1.1562e+001  2.0023e+001  5.4774e+000 39066 101721,101695,101839
 3.0000e-001 101888  9.6116e+000  2.1396e+001  2.9263e+000 39066 101721,101839,101591
 3.0000e-001 102087  3.9782e+000  2.1132e+001 -8.7815e-001 38726 101937,101989,101963
 3.0000e-001 102064 -6.7163e-001  1.8499e+001  3.4212e-001 38726 101937,102015,101989
 3.0000e-001 102041  4.0333e+000  2.0936e+001  1.2145e+000 38726 101911,102015,101937
 3.0000e-001 102337  3.9230e+000  1.7304e+001  2.9832e-001 38322 102112,102190,102138
 3.0000e-001 102314  2.5594e+000  1.6615e+001  1.9276e+000 38322 102112,102216,102190
 3.0000e-001 102291  9.1102e+000  1.6849e+001  2.3508e+000 38322 102112,102242,102216
 3.0000e-001 102268  2.9750e-001  1.6428e+001  4.0777e-001 38322 102138,102190,102164
 3.0000e-001 102489  1.4777e+001  2.5729e+001  1.8470e+000 38032 102512,102388,102362
 3.0000e-001 102466  9.9659e+000  2.8823e+001  5.7027e-002 38032 102512,102362,102440
 3.0000e-001 102538  1.1010e+001  2.4235e+001  7.8200e-001 38032 102414,102388,102512
 3.0000e-001 102561  3.9670e+000  2.4883e+001 -1.8982e+000 38032 102414,102512,102440
 3.0000e-001 102894  1.0306e+001  2.1589e+001  3.8218e+000 37592 102669,102773,102695
 3.0000e-001 102871  9.6844e+000  2.1373e+001  3.9056e+000 37592 102669,102799,102773
 3.0000e-001 102848  9.9851e+000  2.8237e+001  5.2839e+000 37592 102721,102773,102747
 3.0000e-001 102825  9.6370e+000  2.2781e+001  3.6397e+000 37592 102695,102773,102721
 3.0000e-001 103093  2.7736e+000  1.9070e+001  1.9605e-001 37188 102917,102995,102943
 3.0000e-001 103070  2.2433e+000  2.0461e+001  1.7820e+000 37188 102917,103021,102995
 3.0000e-001 103047  3.0984e+000  1.7948e+001  7.1422e-001 37188 102943,102995,102969
 3.0000e-001 103341 -1.3565e+000  1.4443e+001 -6.7733e-001 36605 103142,103194,103168
 3.0000e-001 103318  5.9554e+000  1.7432e+001 -1.4138e+000 36605 103142,103220,103194
 3.0000e-001 103295  3.6522e+000  1.7225e+001 -1.3885e+000 36605 103116,103220,103142
 3.0000e-001 103272 -2.8184e+000  1.7121e+001 -2.0092e+000 36605 103116,103246,103220
 3.0000e-001 103949  1.1571e+001  1.1800e+001  3.9603e+000 36127 103554,103606,103580
 3.0000e-001 103926  7.4092e-001  1.4878e+001  3.7848e+000 36127 103528,103606,103554
 3.0000e-001 103903  6.9166e-001  1.0635e+001 -7.6646e-001 36127 103528,103736,103606
 3.0000e-001 103880  2.2464e+000  1.3513e+001 -1.8804e+000 36127 103972,103710,103632
 3.0000e-001 103857  1.7697e-001  8.7642e+000 -3.8737e+000 36127 103972,103632,103606
 3.0000e-001 103834  3.6362e+000  1.5200e+001 -1.2815e+000 36127 103632,103710,103658
 3.0000e-001 103811 -9.5844e+000  1.3832e+001 -6.5641e+000 36127 103528,103762,103736
 3.0000e-001 103788  8.3604e+000  2.3181e+001 -5.3052e+000 36127 103658,103710,103684
 3.0000e-001 103998  3.2877e+000  1.7346e+001  1.6044e+000 36127 103736,103710,103972
 3.0000e-001 104021  1.1092e+000  1.2985e+001 -4.9174e-001 36127 103736,103972,103606
 3.0000e-001 104220  5.7805e+000  2.0300e+001 -1.3171e+000 35787 104070,104148,104122
 3.0000e-001 104197  9.7803e+000  2.0704e+001 -4.8878e-001 35787 104044,104148,104070
 3.0000e-001 104174  4.3639e+000  2.4324e+001 -4.2512e+000 35787 104070,104122,104096
 3.0000e-001 104419  1.1091e+001  2.4810e+001 -5.4878e-001 35440 104269,104321,104295
 3.0000e-001 104396  1.1911e+001  2.5932e+001  7.5873e-001 35440 104269,104347,104321
 3.0000e-001 104373  7.8344e+000  2.3670e+001 -6.4973e-001 35440 104243,104347,104269
 3.0000e-001 104718  5.1848e+000  1.9788e+001  1.4283e+000 34986 104496,104548,104522
 3.0000e-001 104695  4.7979e+000  2.0397e+001  4.2309e-001 34986 104741,104548,104496
 3.0000e-001 104672  5.8564e+000  1.9197e+001  1.2579e-001 34986 104741,104496,104444
 3.0000e-001 104649  4.4388e+000  1.9512e+001  1.2646e+000 34986 104813,104574,104548
 3.0000e-001 104626  7.1123e+000  2.2479e+001  1.3723e+000 34986 104444,104496,104470
 3.0000e-001 104767  4.3772e+000  1.9488e+001  5.7614e-001 34986 104813,104548,104741
 3.0000e-001 104790  5.4351e+000  1.7845e+001  4.4257e-001 34986 104600,104741,104444
 3.0000e-001 104839  6.2679e+000  2.0845e+001  1.8490e+000 34986 104600,104574,104813
 3.0000e-001 104862  5.3292e+000  1.9898e+001  8.0547e-001 34986 104600,104813,104741
 3.0000e-001 105014  3.8595e+000  1.9380e+001 -2.0403e+000 34696 105169,105037,104913
 3.0000e-001 104991  5.6506e+000  1.8692e+001  5.1876e-001 34696 105169,104913,104887
 3.0000e-001 105063  1.1143e+001  2.3677e+001  1.4317e-001 34696 104939,104913,105037
 3.0000e-001 105195  7.7271e-001  1.8203e+001 -1.7955e+000 34696 104965,105037,105169
 3.0000e-001 105218  2.4105e+000  1.7532e+001  7.0416e-001 34696 104965,105169,104887
 3.0000e-001 105368  2.7222e+000  2.2478e+001 -2.0356e+000 34384 105267,105319,105293
 3.0000e-001 105345  5.2351e+000  2.6779e+001 -7.1989e-001 34384 105241,105319,105267
 3.0000e-001 105616  3.2692e+000  1.8637e+001  1.0594e+000 33730 105639,105417,105391
 3.0000e-001 105593  3.3324e+000  1.8625e+001  1.0081e+000 33730 105639,105391,105495
 3.0000e-001 105570  3.1746e+000  1.9820e+001  5.7627e-001 33730 105391,105521,105495
 3.0000e-001 105547  4.5948e+000  1.8157e+001  2.9024e+000 33730 105417,105469,105443
 3.0000e-001 105665  3.3380e+000  1.8595e+001  1.0159e+000 33730 105469,105417,105639
 3.0000e-001 105688  3.5146e+000  1.8696e+001  9.4153e-001 33730 105469,105639,105495
 3.0000e-001 105840  1.1381e+001  2.6975e+001 -1.2187e+000 33390 105713,105765,105739
 3.0000e-001 105817  9.9205e+000  2.6436e+001 -1.1162e+000 33390 105713,105791,105765
 3.0000e-001 106090  6.2428e+000  2.1622e+001  6.2605e-001 33043 106113,105943,105891
 3.0000e-001 106067  3.2840e+000  2.0829e+001  1.0852e+000 33043 106113,105891,105865
 3.0000e-001 106044  1.2470e+001  2.5056e+001 -7.6043e-001 33043 105891,105943,105917
 3.0000e-001 106021  1.8576e+000  2.1091e+001 -1.6519e+000 33043 105865,105995,105969
 3.0000e-001 106139  1.3236e+001  2.2013e+001 -1.6271e+000 33043 105969,105943,106113
 3.0000e-001 106162  5.9914e+000  1.8895e+001 -1.1649e+000 33043 105969,106113,105865
 3.0000e-001 106412  2.6358e+000  1.3105e+001  1.4933e+000 32539 106435,106291,106239
 3.0000e-001 106389  6.8403e+000  1.1427e+001  2.8290e+000 32539 106187,106317,106291
 3.0000e-001 106366  3.0446e+000  1.4109e+001  1.5201e+000 32539 106435,106239,106213
 3.0000e-001 106343  5.0317e+000  1.6017e+001  2.5316e+000 32539 106239,106291,106265
 3.0000e-001 106461  2.8863e+000  1.2714e+001  8.5293e-001 32539 106187,106291,106435
 3.0000e-001 106484  3.2319e+000  1.3637e+001  8.3595e-001 32539 106187,106435,106213
 3.0000e-001 106685  1.1247e+001  1.9525e+001 -9.6294e+000 31835 106535,106587,106561
 3.0000e-001 106662  6.3310e+000  2.2786e+001 -4.8098e-002 31835 106509,106587,106535
 3.0000e-001 106639  1.1528e+001  2.4790e+001 -1.3368e+000 31835 106509,106613,106587
 3.0000e-001 106935  4.0793e+000  1.8076e+001  2.4005e-001 31530 106736,106814,106788
 3.0000e-001 106912  4.2663e+000  1.8340e+001  4.6990e-001 31530 106710,106814,106736
 3.0000e-001 106889  2.5232e+000  1.5974e+001  1.0505e+000 31530 106736,106788,106762
 3.0000e-001 106866  5.1337e+000  1.8939e+001  5.9363e-003 31530 106710,106840,106814
 3.0000e-001 107339  4.1412e-002  1.7706e+001 -3.2758e+000 31026 107117,107221,107195
 3.0000e-001 107316  1.3638e+000  9.4563e+000 -2.1686e+000 31026 107091,107221,107117
 3.0000e-001 107293  3.3459e+000  1.0224e+001 -2.1573e+000 31026 107065,107221,107091
 3.0000e-001 107270 -6.1605e+000  2.1547e+001  1.4986e+000 31026 107143,107195,107169
 3.0000e-001 107247 -1.4805e+001  1.1122e+001 -4.4267e+000 31026 107117,107195,107143
 3.0000e-001 107538  7.7661e+000  2.7054e+001 -9.1835e-001 30714 107561,107388,107362
 3.0000e-001 107515  8.3903e+000  2.8225e+001 -1.2330e+000 30714 107561,107362,107466
 3.0000e-001 107492  8.7558e+000  2.7122e+001 -4.0068e+000 30714 107414,107466,107440
 3.0000e-001 107587  8.6459e+000  2.5297e+001 -8.6264e-001 30714 107414,107388,107561
 3.0000e-001 107610  9.4651e+000  2.6746e+001 -1.2348e+000 30714 107414,107561,107466
 3.0000e-001 107990  7.2727e+000  1.9442e+001  2.6991e+000 30260 108013,107846,107768
 3.0000e-001 107967  8.7017e+000  2.2889e+001  7.4496e-001 30260 108013,107768,107716
 3.0000e-001 107944  4.4239e+000  2.6815e+001  6.6364e-001 30260 107716,107768,107742
 3.0000e-001 107921  9.0884e+000  2.8048e+001  6.1264e+000 30260 107768,107846,107820
 3.0000e-001 107898  1.3923e+001  2.1938e+001  2.2141e+000 30260 107768,107820,107794
 3.0000e-001 108039  8.7127e+000  2.0985e+001  3.3807e-001 30260 107872,107846,108013
 3.0000e-001 108062  9.3121e+000  2.4362e+001 -1.4164e+000 30260 107872,108013,107716
 3.0000e-001 108261  3.2479e+000  1.9232e+001  2.1435e+000 29870 108284,108085,108163
 3.0000e-001 108238  7.8698e+000  1.8071e+001  3.4496e+000 29870 108085,108189,108163
 3.0000e-001 108215 -3.0857e-001  1.8201e+001  2.2005e+000 29870 108284,108163,108137
 3.0000e-001 108310  4.8013e+000  1.8049e+001  1.0710e+000 29870 108111,108085,108284
 3.0000e-001 108333  2.9763e+000  1.8169e+001  1.2506e+000 29870 108111,108284,108137
 3.0000e-001 108664  7.1276e+000  2.0022e+001  9.8006e-001 29480 108465,108569,108543
 3.0000e-001 108641 -1.9033e-001  1.7835e+001  2.1955e+000 29480 108439,108569,108465
 3.0000e-001 108618  6.7119e+000  1.7963e+001  2.3703e+000 29480 108465,108543,108491
 3.0000e-001 108595 -9.4491e-001  1.3486e+001  3.1936e-002 29480 108491,108543,108517
 3.0000e-001 108993  8.9673e+000  2.5538e+001  3.0562e+000 29076 108794,108872,108820
 3.0000e-001 108970  6.7092e+000  1.8113e+001  3.6457e+000 29076 108768,108872,108794
 3.0000e-001 108947  4.8104e+000  2.7211e+001  6.1877e+000 29076 108820,108872,108846
 3.0000e-001 108924  9.9042e+000  1.9359e+001  3.2842e+000 29076 108768,108898,108872
 3.0000e-001 109420  5.2591e+000  1.8495e+001  8.9984e-001 28472 109123,109227,109201
 3.0000e-001 109397  4.1428e+000  1.8044e+001  1.1246e+000 28472 109123,109253,109227
 3.0000e-001 109374  7.5795e+000  1.9078e+001 -3.0025e-001 28472 109123,109201,109175
 3.0000e-001 109351  1.1130e+000  1.7014e+001  8.7645e-001 28472 109123,109279,109253
 3.0000e-001 109328  3.8612e+000  1.6036e+001 -4.1089e+000 28472 109123,109175,109149
 3.0000e-001 109305  4.2756e-001  1.8616e+001  2.0967e-001 28472 109097,109279,109123
 3.0000e-001 109749  1.1869e+001  2.7600e+001  1.3956e-001 28018 109772,109602,109576
 3.0000e-001 109726  1.2297e+001  2.4585e+001  1.6698e+000 28018 109772,109576,109550
 3.0000e-001 109703  5.6283e+000  1.8205e+001 -7.8399e-001 28018 109524,109628,109550
 3.0000e-001 109680  7.8302e+000  1.8723e+001 -3.6976e-001 28018 109524,109654,109628
 3.0000e-001 109798  9.3916e+000  2.5950e+001  2.5112e+000 28018 109628,109602,109772
 3.0000e-001 109821  1.1830e+001  2.2654e+001  3.1450e+000 28018 109628,109772,109550
 3.0000e-001 110199  4.2370e+000  1.6534e+001 -3.4500e+000 27564 110029,110081,110055
 3.0000e-001 110176  8.0501e+000  1.6311e+001  2.3413e-001 27564 109925,110081,110029
 3.0000e-001 110153  1.0349e+001  1.3587e+001  7.0733e-001 27564 109925,110029,109977
 3.0000e-001 110130  1.3778e+001  1.5132e+001  1.2577e+000 27564 109977,110029,110003
 3.0000e-001 110107  1.3096e+001  1.6883e+001  3.4356e+000 27564 109925,109977,109951
 3.0000e-001 110398  4.5723e+000  1.8792e+001  7.4673e-001 27003 110248,110326,110300
 3.0000e-001 110375  4.1989e+000  1.9006e+001  4.3031e-001 27003 110222,110326,110248
 3.0000e-001 110352  2.0182e+000  1.7766e+001  6.4762e-001 27003 110248,110300,110274
 3.0000e-001 110646  5.3082e+000  1.8753e+001  6.6279e-002 26563 110669,110473,110421
 3.0000e-001 110623  5.0374e+000  1.7915e+001  3.9361e-001 26563 110669,110421,110551
 3.0000e-001 110600  8.1180e+000  1.7621e+001 -1.0546e+000 26563 110473,110525,110499
 3.0000e-001 110577  5.7892e+000  1.8832e+001 -1.8912e+000 26563 110421,110473,110447
 3.0000e-001 110695  5.1827e+000  1.9005e+001 -6.9181e-002 26563 110525,110473,110669
 3.0000e-001 110718  5.2818e+000  1.8711e+001  2.4926e-001 26563 110525,110669,110551
 3.0000e-001 110870  6.2182e-001  1.5879e+001 -3.5268e-001 26166 110769,110821,110795
 3.0000e-001 110847  4.2681e+000  1.0339e+001  2.3606e+000 26166 110743,110821,110769
 3.0000e-001 111380 -2.2477e-001  1.4585e+001  3.3870e+000 25712 111403,111109,111083
 3.0000e-001 111357  3.0316e+000  1.6643e+001  2.4974e+000 25712 111403,111083,111239
 3.0000e-001 111334 -6.1415e+000  1.6104e+001  1.0950e+001 25712 111109,111161,111135
 3.0000e-001 111311 -1.1980e-001  1.4949e+001  1.7901e+000 25712 111057,111239,111083
 3.0000e-001 111288  6.3731e+000  1.2527e+001  2.9322e+000 25712 111161,111239,111187
 3.0000e-001 111265  1.3690e+001  1.5028e+001  2.6822e+000 25712 111187,111239,111213
 3.0000e-001 111429  2.9355e+000  1.1688e+001  4.4962e+000 25712 111161,111109,111403
 3.0000e-001 111452  6.8611e+000  1.4074e+001  3.4956e+000 25712 111161,111403,111239
 3.0000e-001 111651  7.2703e+000  1.9930e+001  9.7591e-001 25300 111674,111501,111475
 3.0000e-001 111628  8.5418e+000  1.5977e+001  9.8996e-001 25300 111674,111475,111579
 3.0000e-001 111605  5.4986e+000  2.0583e+001 -2.0905e-001 25300 111501,111553,111527
 3.0000e-001 111700  7.8633e+000  2.2341e+001  1.2933e+000 25300 111553,111501,111674
 3.0000e-001 111723  9.8951e+000  1.9301e+001  1.6769e+000 25300 111553,111674,111579
 3.0000e-001 111922  6.5680e-001  1.4097e+001 -2.3737e+000 24732 111798,111850,111824
 3.0000e-001 111899  3.4547e+000  1.6355e+001  8.1814e-002 24732 111772,111850,111798
 3.0000e-001 111876  2.7198e+000  1.7189e+001  6.5481e-001 24732 111746,111850,111772
 3.0000e-001 112255  1.0422e+001  3.3680e+001 -5.5287e+000 24142 112056,112108,112082
 3.0000e-001 112232  1.3381e+001  2.5593e+001 -2.1280e-001 24142 112056,112134,112108
 3.0000e-001 112209  1.0816e+001  2.0184e+001  8.7929e-001 24142 112056,112160,112134
 3.0000e-001 112186  1.5687e+001  1.9877e+001 -1.0154e-001 24142 112030,112160,112056
 3.0000e-001 112601  3.8483e+000  1.8321e+001  8.1845e-001 23852 112624,112382,112356
 3.0000e-001 112578  3.5979e+000  1.8776e+001  4.5362e-001 23852 112696,112624,112356
 3.0000e-001 112555  4.1165e+000  1.8813e+001 -3.1357e-001 23852 112696,112356,112304
 3.0000e-001 112532  2.6009e+000  1.8552e+001  1.1646e-001 23852 112304,112356,112330
 3.0000e-001 112509  6.8072e+000  2.2291e+001 -8.0198e-002 23852 112278,112460,112304
 3.0000e-001 112486  4.1044e+000  2.0554e+001  1.6474e+000 23852 112382,112434,112408
 3.0000e-001 112650  4.5427e+000  1.8885e+001  4.4607e-001 23852 112434,112382,112624
 3.0000e-001 112673  4.1482e+000  1.8821e+001  3.7927e-001 23852 112434,112624,112460
 3.0000e-001 112722  4.9225e+000  1.9215e+001  1.2713e-001 23852 112460,112624,112696
 3.0000e-001 112745  5.3738e+000  1.9425e+001 -7.2643e-001 23852 112460,112696,112304
 3.0000e-001 113015  5.4947e-001  2.1230e+001 -1.0455e+000 23490 112842,112894,112868
 3.0000e-001 112992  2.5424e+000  1.7190e+001 -6.4124e-001 23490 112816,112894,112842
 3.0000e-001 112969 -2.4033e-001  1.6056e+001  1.4954e+000 23490 112790,112894,112816
 3.0000e-001 112946  4.3753e+000  2.7746e+001  1.2182e+000 23490 112790,112920,112894
 3.0000e-001 113348  7.4531e+000  1.4712e+001 -1.5546e+000 22970 113175,113253,113227
 3.0000e-001 113325  9.2493e+000  1.5462e+001 -1.9010e+000 22970 113149,113253,113175
 3.0000e-001 113302  7.1760e+000  1.4883e+001 -7.1970e-001 22970 113175,113227,113201
 3.0000e-001 113279  1.0542e+001  1.6898e+001 -5.8425e-001 22970 113123,113253,113149
 3.0000e-001 113645  4.0777e+000  1.9660e+001 -7.5784e-001 22366 113423,113527,113449
 3.0000e-001 113622  2.3272e+000  1.7524e+001 -1.5337e+000 22366 113371,113527,113423
 3.0000e-001 113599  4.9795e+000  2.1649e+001 -1.2643e+000 22366 113449,113527,113501
 3.0000e-001 113576  5.1186e+000  2.2822e+001 -1.5270e+000 22366 113449,113501,113475
 3.0000e-001 113553  3.8450e+000  1.8609e+001 -4.1397e+000 22366 113371,113423,113397
 3.0000e-001 113893  3.9778e+000  1.7714e+001 -1.3073e-001 21912 113916,113746,113720
 3.0000e-001 113870  4.0261e+000  1.9719e+001  1.5947e-001 21912 113916,113720,113668
 3.0000e-001 113847  4.5571e+000  1.9772e+001  2.6161e-001 21912 113988,113798,113772
 3.0000e-001 113824  3.8392e+000  1.9510e+001 -5.0979e-001 21912 113668,113720,113694
 3.0000e-001 113942  4.7559e+000  1.9973e+001 -3.7615e-001 21912 113772,113746,113916
 3.0000e-001 113965  4.3183e+000  1.9929e+001  1.5497e-001 21912 113988,113772,113916
 3.0000e-001 114014  4.3163e+000  1.9518e+001  1.5219e-001 21912 113668,113798,113988
 3.0000e-001 114037  4.1499e+000  1.9685e+001  8.1557e-002 21912 113668,113988,113916
 3.0000e-001 114287  3.0001e+000  2.0906e+001 -1.2080e-001 21408 114088,114140,114114
 3.0000e-001 114264  3.0328e+000  1.9780e+001 -4.6455e-001 21408 114310,114140,114088
 3.0000e-001 114241  4.1600e+000  2.0159e+001 -3.7862e-001 21408 114310,114088,114192
 3.0000e-001 114218  3.1799e+000  1.8743e+001 -9.9512e-001 21408 114062,114192,114088
 3.0000e-001 114336  3.9408e+000  1.9694e+001  3.4122e-002 21408 114166,114140,114310
 3.0000e-001 114359  4.6921e+000  1.9801e+001  9.0436e-002 21408 114166,114310,114192
 3.0000e-001 114609  5.5856e+000  1.6524e+001  2.6230e+000 21018 114632,114488,114436
 3.0000e-001 114586  5.7153e+000  1.8692e+001  1.4466e+000 21018 114632,114436,114410
 3.0000e-001 114563  5.7269e+000  1.8872e+001 -2.5343e-001 21018 114384,114514,114410
 3.0000e-001 114540 -8.3831e-001  1.6494e+001  2.5054e+000 21018 114436,114488,114462
 3.0000e-001 114658  6.7486e+000  1.7740e+001  1.1528e+000 21018 114514,114488,114632
 3.0000e-001 114681  6.3326e+000  1.9562e+001  7.1936e-002 21018 114514,114632,114410
 3.0000e-001 114882  2.0256e+001  2.7824e+001  1.0128e+000 20614 114732,114784,114758
 3.0000e-001 114859  1.9181e+001  2.7347e+001  1.1053e+000 20614 114732,114810,114784
 3.0000e-001 114836  1.8705e+001  2.3326e+001 -1.7553e-001 20614 114706,114810,114732
 3.0000e-001 115132  4.0249e+000  2.3420e+001 -1.6528e+000 20110 114907,115011,114933
 3.0000e-001 115109  8.1202e+000  2.5343e+001 -2.1788e+000 20110 114907,115037,115011
 3.0000e-001 115086  5.1335e+000  2.3022e+001 -1.7551e+000 20110 114933,115011,114985
 3.0000e-001 115063  6.6416e-001  2.7186e+001 -7.1265e+000 20110 114933,114985,114959
 3.0000e-001 115284  3.4379e+000  2.1794e+001 -6.1680e-001 19456 115378,115307,115157
 3.0000e-001 115261  4.0431e+000  2.1371e+001 -5.2519e-001 19456 115378,115157,115235
 3.0000e-001 115333  3.5023e+000  2.2720e+001 -4.2388e-001 19456 115183,115157,115307
 3.0000e-001 115404  4.1335e+000  2.2105e+001 -3.0326e-001 19456 115209,115307,115378
 3.0000e-001 115427  4.9024e+000  2.1751e+001 -2.4753e-001 19456 115209,115378,115235
 3.0000e-001 115677  3.0490e+000  2.5632e+001  1.7044e+000 19002 115504,115582,115530
 3.0000e-001 115654  4.8705e+000  2.3651e+001  7.8807e-001 19002 115478,115582,115504
 3.0000e-001 115631  3.6696e+000  2.3765e+001  5.4432e+000 19002 115452,115582,115478
 3.0000e-001 115608  6.2994e+000  2.7453e+001 -7.7126e-001 19002 115530,115582,115556
 3.0000e-001 115998  9.0952e+000  1.8984e+001 -5.4604e-001 18712 115802,115880,115854
 3.0000e-001 115975  9.4011e+000  2.1308e+001 -1.0159e+000 18712 115724,115880,115802
 3.0000e-001 115952  7.9675e+000  2.0648e+001 -2.8149e-001 18712 115724,115802,115776
 3.0000e-001 115929  8.5614e+000  2.2956e+001 -1.1377e+000 18712 115724,115776,115750
 3.0000e-001 115906  1.1083e+001  2.3649e+001  8.3962e+000 18712 115802,115854,115828
 3.0000e-001 116270  3.3714e+000  1.8675e+001  4.5077e-001 18308 116045,116123,116071
 3.0000e-001 116247  3.7816e+000  1.9830e+001  8.1455e-002 18308 116045,116175,116123
 3.0000e-001 116224  3.5515e+000  1.9626e+001 -7.9145e-003 18308 116123,116175,116149
 3.0000e-001 116201  9.4846e+000  2.1431e+001 -1.8280e-001 18308 116071,116123,116097
 3.0000e-001 116422  3.8331e+000  2.4793e+001  1.0720e-001 17996 116321,116373,116347
 3.0000e-001 116399  5.7494e+000  2.4952e+001  1.3984e+000 17996 116295,116373,116321
 3.0000e-001 116574  3.1738e+000  2.0205e+001 -5.7832e-001 17392 116473,116525,116499
 3.0000e-001 116551  6.7721e+000  2.4549e+001  1.3546e+000 17392 116447,116525,116473
 3.0000e-001 116797  3.6073e+000  2.0472e+001  4.3680e-001 16938 116621,116699,116673
 3.0000e-001 116774 -5.7122e+000  2.2204e+001  1.1194e+000 16938 116621,116725,116699
 3.0000e-001 116751  3.3767e+000  1.9933e+001  2.9783e-001 16938 116621,116673,116647
 3.0000e-001 116998  4.4335e+000  1.9104e+001 -2.9218e-002 16434 117021,116874,116848
 3.0000e-001 116975  5.0744e+000  1.9871e+001  2.5258e-001 16434 117021,116848,116822
 3.0000e-001 116952  3.8635e+000  1.8644e+001 -4.7632e-001 16434 116874,116926,116900
 3.0000e-001 117047  4.0647e+000  1.9665e+001 -2.8131e-001 16434 116926,116874,117021
 3.0000e-001 117070  4.2678e+000  1.9955e+001 -1.9058e-001 16434 116926,117021,116822
 3.0000e-001 117293  8.8159e+000  2.7282e+001  1.3133e+000 16070 117117,117169,117143
 3.0000e-001 117270  1.1905e+001  3.0285e+001 -1.1851e+000 16070 117117,117221,117169
 3.0000e-001 117247  9.2547e+000  2.3464e+001 -2.2301e+000 16070 117169,117221,117195
 3.0000e-001 117445 -1.6731e+000  1.8473e+001 -8.5280e+000 15645 117318,117370,117344
 3.0000e-001 117422 -8.5248e-001  1.5418e+001 -1.0331e-001 15645 117318,117396,117370
 3.0000e-001 117548  1.4037e+001  2.3976e+001  5.6973e+000 417 117470,117522,117496
 4.0000e-001 70760  1.3112e+000  7.5018e-002 -5.3083e-001 70380 70633,70685,70659
 4.0000e-001 70737 -7.3109e-001  1.2734e+000 -1.0424e+000 70380 70633,70711,70685
 4.0000e-001 70861  7.0887e-001  2.1970e+000 -6.3076e-001 70068 70783,70835,70809
 4.0000e-001 71180  1.1145e-001  7.6804e+000 -6.6256e-001 69870 70932,70984,70958
 4.0000e-001 71157 -1.1180e+000  7.2051e+000 -2.5572e-001 69870 70932,71010,70984
 4.0000e-001 71134 -1.3087e+000  9.0165e+000 -3.1599e-001 69870 70932,71036,71010
 4.0000e-001 71111 -2.8883e+000  3.7690e+000  3.3758e+000 69870 70932,71062,71036
 4.0000e-001 71088 -3.3155e-001  5.8481e+000  4.6411e-001 69870 70906,71062,70932
 4.0000e-001 71428  1.1475e+001  2.7862e+001  8.8735e-001 69694 71451,71281,71255
 4.0000e-001 71405  1.2819e+001  2.8494e+001  1.3383e+000 69694 71523,71451,71255
 4.0000e-001 71382  1.5147e+001  2.9868e+001  6.9362e+000 69694 71523,71255,71229
 4.0000e-001 71359  3.3222e+000  2.0699e+001 -6.4827e-001 69694 71595,71333,71307
 4.0000e-001 71477  1.6780e+001  2.9275e+001 -4.5502e+000 69694 71307,71281,71451
 4.0000e-001 71500  6.0346e+000  2.5587e+001 -3.6686e+000 69694 71595,71307,71451
 4.0000e-001 71549  4.0465e+000  2.5657e+001  4.4859e-001 69694 71203,71451,71523
 4.0000e-001 71572  3.7181e+000  2.4895e+001  5.3956e+000 69694 71203,71523,71229
 4.0000e-001 71621  8.2002e+000  1.5536e+001 -1.4589e+000 69694 71203,71333,71595
 4.0000e-001 71644  6.9692e+000  1.7867e+001 -2.4564e+000 69694 71203,71595,71451
 4.0000e-001 71745 -7.7979e-001  3.4609e-001 -8.2196e-001 69382 71667,71719,71693
 4.0000e-001 72100 -2.3837e+000  1.0046e+001 -2.8951e+000 69184 71875,71979,71901
 4.0000e-001 72077  3.9579e-001  1.4694e+001 -1.7197e+000 69184 71875,72005,71979
 4.0000e-001 72054 -2.2094e+000 -2.0039e+000 -5.8762e+000 69184 71901,71979,71953
 4.0000e-001 72031  1.3967e+000  5.1247e+000 -4.4171e+000 69184 71901,71953,71927
 4.0000e-001 72250 -2.4189e+000  1.1305e+001  1.9967e+000 68986 72149,72201,72175
 4.0000e-001 72227 -3.7215e+000  2.3118e+001 -3.0992e+000 68986 72123,72201,72149
 4.0000e-001 72547 -6.7297e-001  1.7807e+001 -1.7761e+000 68582 72570,72403,72377
 4.0000e-001 72524 -1.8807e-001  1.6915e+001 -2.3204e+000 68582 72570,72377,72351
 4.0000e-001 72501 -5.8158e-001  1.4842e+001 -6.2366e-001 68582 72642,72299,72429
 4.0000e-001 72478 -1.5502e-001  1.0604e+001 -2.7682e+000 68582 72273,72429,72299
 4.0000e-001 72455  1.9294e+000  2.5897e+001 -6.0366e-001 68582 72299,72351,72325
 4.0000e-001 72596  1.0759e+000  1.9635e+001  4.8300e-001 68582 72429,72403,72570
 4.0000e-001 72619 -5.6793e-001  1.5724e+001 -6.1514e-001 68582 72642,72429,72570
 4.0000e-001 72668 -1.5972e+000  1.5464e+001 -2.2419e+000 68582 72351,72299,72642
 4.0000e-001 72691 -1.0811e+000  1.7239e+001 -2.0214e+000 68582 72351,72642,72570
 4.0000e-001 73095 -1.2995e+000  5.5415e+000 -2.5743e-001 68384 72873,72925,72899
 4.0000e-001 73072 -2.0740e+000  7.5876e+000  1.1950e+000 68384 72847,72925,72873
 4.0000e-001 73049 -1.8112e+000  8.9099e-001  3.8220e+000 68384 72847,72951,72925
 4.0000e-001 73026  1.6482e+000  4.6240e+000  2.2273e+000 68384 72821,72951,72847
 4.0000e-001 73003  8.5690e-001  3.7754e+000  1.7271e+000 68384 72821,72977,72951
 4.0000e-001 73552  1.4547e+000  1.8717e+001  2.0992e-001 68044 73304,73434,73408
 4.0000e-001 73529  6.3542e+000  1.7383e+001 -3.5700e+000 68044 73278,73434,73304
 4.0000e-001 73506 -7.1526e+000  2.7719e+001  1.6790e+000 68044 73356,73408,73382
 4.0000e-001 73483  4.5922e+000  2.9425e+001 -2.0272e+000 68044 73304,73408,73356
 4.0000e-001 73460  2.7279e+000  3.2424e+001 -2.9718e+000 68044 73304,73356,73330
 4.0000e-001 73871  2.6030e+000  2.0376e+001  1.0129e+000 67846 73675,73727,73701
 4.0000e-001 73848 -4.7826e+000  1.5115e+001  3.4503e+000 67846 73649,73727,73675
 4.0000e-001 73825  1.9670e-001  2.4061e+001 -1.2644e+000 67846 73623,73727,73649
 4.0000e-001 73802 -4.8517e+000  1.9296e+001 -3.3360e+000 67846 73623,73753,73727
 4.0000e-001 73779 -1.7436e+000  1.4822e+001 -1.1626e+001 67846 73597,73753,73623
 4.0000e-001 74021 -5.4389e+000  1.2919e+001 -2.0311e+000 67598 73920,73972,73946
 4.0000e-001 73998 -2.8182e+000  1.6027e+001  4.4493e-001 67598 73894,73972,73920
 4.0000e-001 74271 -1.4805e+000  1.3630e+001 -1.4362e+000 67286 74072,74176,74150
 4.0000e-001 74248  2.1020e+000  1.1694e+001 -2.4217e+000 67286 74046,74176,74072
 4.0000e-001 74225  2.5551e+000  1.5155e+001  1.6289e+000 67286 74072,74150,74098
 4.0000e-001 74202  3.7770e+000  1.7103e+001  3.3887e+000 67286 74098,74150,74124
 4.0000e-001 74374  2.1436e+000  1.6061e+001  3.0791e+000 67088 74296,74348,74322
 4.0000e-001 74646 -4.8774e+000  1.2529e+001 -5.1700e+000 66890 74421,74525,74447
 4.0000e-001 74623  2.2905e-001  1.5712e+001 -1.1615e+000 66890 74421,74551,74525
 4.0000e-001 74600  6.6185e-001  2.2926e+001 -3.0763e+000 66890 74447,74525,74473
 4.0000e-001 74577 -8.3285e+000  1.5385e+001  8.7173e-001 66890 74473,74525,74499
 4.0000e-001 75254  2.1303e+000  6.4772e+000 -3.0407e+000 66528 74885,75067,75041
 4.0000e-001 75231  4.6358e+000  3.8319e+000 -4.1747e+000 66528 74859,75067,74885
 4.0000e-001 75208  2.8367e+000  1.9102e+001 -1.4847e+000 66528 74937,75015,74963
 4.0000e-001 75185 -7.1438e+000  7.1674e+000 -6.5538e+000 66528 74911,75015,74937
 4.0000e-001 75162  2.3057e+000  1.3126e+001 -3.9663e+000 66528 74911,75041,75015
 4.0000e-001 75139  4.7816e-001  5.2578e+000 -3.5773e+000 66528 74885,75041,74911
 4.0000e-001 75116  2.6354e+000  5.0786e+000 -3.3504e+000 66528 74833,75067,74859
 4.0000e-001 75093 -1.4678e+000  2.4835e+001  1.0300e+000 66528 74963,75015,74989
 4.0000e-001 75453  1.2616e+000  1.2515e+001  2.6506e+000 66238 75303,75381,75355
 4.0000e-001 75430 -3.8792e+000  1.2402e+001  4.3718e+000 66238 75277,75381,75303
 4.0000e-001 75407  3.0828e+000  6.8620e+000  4.8844e+000 66238 75303,75355,75329
 4.0000e-001 75701  5.9913e+000  2.9819e+001  1.2154e+000 65834 75528,75606,75580
 4.0000e-001 75678  2.0821e+000  3.0058e+001 -5.2374e-001 65834 75502,75606,75528
 4.0000e-001 75655 -3.1558e+000  2.7754e+001  2.2404e+000 65834 75528,75580,75554
 4.0000e-001 75632  5.9465e+000  3.2579e+001  1.8593e+000 65834 75476,75606,75502
 4.0000e-001 75902  3.8669e+000  1.5429e+001 -1.1200e+000 65636 75726,75804,75752
 4.0000e-001 75879  7.8178e+000  1.9131e+001 -4.9958e+000 65636 75726,75830,75804
 4.0000e-001 75856  1.7848e+001  1.5226e+001 -3.7092e+000 65636 75752,75804,75778
 4.0000e-001 76103 -8.1845e+000  1.3917e+001 -1.3296e-001 65296 76126,75979,75953
 4.0000e-001 76080 -1.1664e+001  1.7726e+001  2.3040e+000 65296 76126,75953,75927
 4.0000e-001 76057 -1.6080e+000  3.0049e+001 -9.2030e+000 65296 76198,76005,75979
 4.0000e-001 76152 -2.6183e+000  2.2546e+001 -2.8523e+000 65296 76198,75979,76126
 4.0000e-001 76175 -1.0458e+001  1.9756e+001  1.7409e+000 65296 76031,76126,75927
 4.0000e-001 76224 -1.2257e+001  1.8950e+001 -4.7406e+000 65296 76031,76005,76198
 4.0000e-001 76247 -1.1854e+001  1.4759e+001  9.5667e-001 65296 76031,76198,76126
 4.0000e-001 76602  3.7832e+000  2.0169e+001  1.3223e+000 64892 76377,76481,76403
 4.0000e-001 76579  3.6902e+000  1.9237e+001  8.3443e-001 64892 76377,76507,76481
 4.0000e-001 76556  8.4573e+000  2.0810e+001 -5.5064e-001 64892 76403,76481,76429
 4.0000e-001 76533 -1.1641e+001  1.1863e+001 -3.2508e+000 64892 76429,76481,76455
 4.0000e-001 76801 -1.2824e+001  2.1986e+001  1.2341e+001 64438 76677,76729,76703
 4.0000e-001 76778 -3.4238e+000  3.0627e+001  1.0940e+000 64438 76651,76729,76677
 4.0000e-001 76755 -1.8366e+000  2.3330e+001  4.3978e+000 64438 76625,76729,76651
 4.0000e-001 77230 -8.2515e-001  1.9133e+001 -3.9277e-001 63920 77253,76959,76933
 4.0000e-001 77207  6.9769e-001  1.9056e+001  2.0312e-001 63920 77253,76933,77063
 4.0000e-001 77184 -2.8176e+000  1.7308e+001 -1.3911e+000 63920 76959,77037,76985
 4.0000e-001 77161 -3.3203e+000  1.6324e+001 -1.4962e+000 63920 76907,77063,76933
 4.0000e-001 77138 -3.3979e-001  2.0377e+001 -2.7136e-001 63920 76985,77037,77011
 4.0000e-001 77115 -4.3509e+000  2.0706e+001 -1.5457e+000 63920 76907,77089,77063
 4.0000e-001 77279  5.6781e-001  1.9559e+001 -7.3521e-002 63920 77037,76959,77253
 4.0000e-001 77302  2.1482e+000  1.9607e+001  5.9506e-001 63920 77037,77253,77063
 4.0000e-001 77680  1.8393e+001  3.3146e+001 -7.9084e-001 63316 77703,77484,77432
 4.0000e-001 77657  1.7438e+001  3.2969e+001 -6.4434e-001 63316 77703,77432,77406
 4.0000e-001 77634  3.7428e+000  2.7041e+001  1.6932e+000 63316 77406,77536,77510
 4.0000e-001 77611  2.1129e+001  2.6884e+001  5.8154e+000 63316 77432,77484,77458
 4.0000e-001 77588  9.4758e+000  2.8637e+001  4.3505e+000 63316 77406,77562,77536
 4.0000e-001 77729  1.9812e+001  3.3288e+001 -1.7419e+000 63316 77510,77484,77703
 4.0000e-001 77752  1.8123e+001  3.2585e+001 -1.5102e+000 63316 77510,77703,77406
 4.0000e-001 78000 -2.3444e+001  2.6743e+001 -1.7032e+000 62812 77801,77853,77827
 4.0000e-001 77977 -1.4765e+001  1.6935e+001 -6.5287e+000 62812 77801,77879,77853
 4.0000e-001 77954 -1.8931e+001  1.6303e+001 -9.9849e+000 62812 77801,77905,77879
 4.0000e-001 77931 -5.7030e+000  1.4846e+001 -1.2102e+001 62812 77775,77905,77801
 4.0000e-001 78380  1.9728e+000  1.4843e+001 -2.1287e+000 62350 78184,78262,78236
 4.0000e-001 78357  1.4854e+000  2.4747e+001 -1.2366e+000 62350 78132,78262,78184
 4.0000e-001 78334  5.0951e-001  2.3923e+001 -6.8746e+000 62350 78106,78262,78132
 4.0000e-001 78311 -9.1952e+000  2.5761e+001  7.7721e+000 62350 78132,78184,78158
 4.0000e-001 78288 -6.5351e+000  1.5548e+001 -3.9778e+000 62350 78184,78236,78210
 4.0000e-001 78837  5.4762e+000  2.5871e+001 -4.0279e+000 61946 78615,78667,78641
 4.0000e-001 78814  1.7143e+001  3.1895e+001 -1.7337e+000 61946 78589,78667,78615
 4.0000e-001 78791  1.1609e+001  2.5974e+001  9.8513e-001 61946 78589,78719,78667
 4.0000e-001 78768  1.5758e+001  4.3414e+001  2.3828e+000 61946 78667,78719,78693
 4.0000e-001 78745  1.3703e+001  2.2711e+001 -8.6780e-001 61946 78563,78719,78589
 4.0000e-001 78987 -4.0246e+000  2.0432e+001  3.6722e-001 61335 79010,78886,78860
 4.0000e-001 78964 -2.2319e+000  2.2421e+001 -3.9696e-001 61335 79010,78860,78938
 4.0000e-001 79036  1.8295e-001  2.4605e+001 -2.2346e+000 61335 79082,79010,78912
 4.0000e-001 79059 -2.8336e+000  2.1775e+001 -6.6414e-001 61335 78912,79010,78938
 4.0000e-001 79108 -2.9962e+000  1.6817e+001 -8.4199e-001 61335 78886,79010,79082
 4.0000e-001 79437  2.6048e-001  1.9636e+001 -9.5897e+000 60888 79460,79238,79212
 4.0000e-001 79414 -5.4740e+000  6.4125e+000 -8.9253e+000 60888 79460,79212,79342
 4.0000e-001 79391 -4.4728e+000  1.7827e+001 -3.3426e+000 60888 79532,79264,79238
 4.0000e-001 79368 -7.7737e+000  2.5814e+001  2.9554e+000 60888 79264,79316,79290
 4.0000e-001 79486 -4.6763e+000  1.8347e+001 -3.7373e+000 60888 79532,79238,79460
 4.0000e-001 79509 -3.8581e+000  1.4033e+001 -3.1167e+000 60888 79316,79460,79342
 4.0000e-001 79558 -5.6151e+000  1.5892e+001 -2.1719e+000 60888 79316,79264,79532
 4.0000e-001 79581 -4.0628e+000  1.7362e+001 -2.9892e+000 60888 79316,79532,79460
 4.0000e-001 79878 -1.2849e+001  9.5543e+000 -1.0794e+001 60484 79682,79760,79734
 4.0000e-001 79855 -1.3776e+001  1.1037e+001 -6.5442e+000 60484 79656,79760,79682
 4.0000e-001 79832 -9.5834e+000  1.3800e+001 -5.3302e+000 60484 79604,79760,79656
 4.0000e-001 79809 -1.3169e+001  1.7443e+001 -9.0096e+000 60484 79604,79656,79630
 4.0000e-001 79786 -3.9766e+000  8.4711e+000 -9.3611e+000 60484 79682,79734,79708
 4.0000e-001 80101  4.3880e+000  3.0673e+001 -1.6663e+000 60022 79951,80029,80003
 4.0000e-001 80078  2.6446e+000  3.5617e+001  8.2590e-001 60022 79925,80029,79951
 4.0000e-001 80055  1.9888e+000  3.0834e+001  1.5316e+000 60022 79951,80003,79977
 4.0000e-001 80351  4.2662e+000  2.2987e+001  5.9591e+000 59625 80152,80256,80204
 4.0000e-001 80328 -1.1462e+000  2.8939e+001  9.9182e+000 59625 80126,80256,80152
 4.0000e-001 80305  8.5751e+000  3.1157e+001  2.6473e+000 59625 80204,80256,80230
 4.0000e-001 80282  7.2655e+000  2.3934e+001  5.3195e+000 59625 80152,80204,80178
 4.0000e-001 80552  8.0187e+000  2.4492e+001 -3.6268e+000 59121 80575,80402,80376
 4.0000e-001 80529  7.5989e+000  2.2980e+001 -3.5329e+000 59121 80575,80376,80480
 4.0000e-001 80506  4.1257e+000  2.8940e+001 -6.3748e+000 59121 80428,80480,80454
 4.0000e-001 80601  7.3447e+000  2.5387e+001 -2.6282e+000 59121 80428,80402,80575
 4.0000e-001 80624  6.9903e+000  2.4002e+001 -2.5746e+000 59121 80428,80575,80480
 4.0000e-001 81183  1.4319e+001  2.0062e+001  2.6893e+000 58553 81206,80863,80837
 4.0000e-001 81160  3.4037e+000  2.3757e+001  3.5989e+000 58553 81350,81206,80837
 4.0000e-001 81137  8.4497e+000  1.6749e+001 -1.7244e+000 58553 81278,80915,80863
 4.0000e-001 81114 -4.5561e+000  2.0588e+001  5.6744e+000 58553 81350,80837,80811
 4.0000e-001 81091  6.2164e+000  2.1186e+001 -1.5536e+000 58553 81422,80967,80941
 4.0000e-001 81068  4.0884e+000  2.2754e+001  2.4278e+000 58553 80967,81019,80993
 4.0000e-001 81045  1.8777e+001  1.3977e+001 -6.8979e+000 58553 80863,80915,80889
 4.0000e-001 81232  7.9992e+000  1.6176e+001 -1.4324e+000 58553 81278,80863,81206
 4.0000e-001 81255  6.7698e+000  2.2556e+001 -1.3975e+000 58553 81422,80941,81206
 4.0000e-001 81304  7.9857e+000  1.8749e+001 -2.9029e+000 58553 80941,80915,81278
 4.0000e-001 81327  6.3344e+000  1.7412e+001 -2.2857e+000 58553 80941,81278,81206
 4.0000e-001 81376  2.3969e+000  2.4616e+001 -1.0192e+000 58553 81019,81206,81350
 4.0000e-001 81399  7.1079e-001  2.3720e+001  1.0214e+000 58553 81019,81350,80811
 4.0000e-001 81448  5.9366e+000  2.2505e+001 -2.0372e+000 58553 81019,80967,81422
 4.0000e-001 81471  6.0286e+000  2.3074e+001 -2.0666e+000 58553 81019,81422,81206
 4.0000e-001 81768  4.0833e+000  2.9812e+001  2.1104e+000 57877 81791,81572,81520
 4.0000e-001 81745  5.6969e+000  3.0593e+001 -6.6816e-001 57877 81791,81520,81494
 4.0000e-001 81722  3.9671e+000  2.7184e+001  4.0840e-001 57877 81863,81650,81598
 4.0000e-001 81699  4.5869e+000  3.0950e+001  8.1653e+000 57877 81598,81650,81624
 4.0000e-001 81676  2.3979e+000  3.1544e+001  2.3081e+000 57877 81520,81572,81546
 4.0000e-001 81817  4.1128e+000  3.0386e+001  1.8171e+000 57877 81598,81572,81791
 4.0000e-001 81840  3.2019e+000  3.0933e+001  1.6482e+000 57877 81863,81598,81791
 4.0000e-001 81889  2.3712e+000  1.7987e+001 -2.8689e-001 57877 81494,81650,81863
 4.0000e-001 81912  3.2223e+000  2.4716e+001  1.1048e-001 57877 81494,81863,81791
 4.0000e-001 82160  1.3876e+001  3.6789e+001  6.7056e-001 57473 81935,82039,82013
 4.0000e-001 82137  2.5092e+001  3.5418e+001  1.0729e+000 57473 81935,82065,82039
 4.0000e-001 82114  1.5091e+001  3.7505e+001 -4.6174e-001 57473 81935,82013,81961
 4.0000e-001 82091  2.1189e+000  4.1906e+001 -1.0336e+000 57473 81961,82013,81987
 4.0000e-001 82719  3.4601e+000  2.0577e+001  9.2964e-001 56962 82814,82742,82425
 4.0000e-001 82696  2.5996e+000  1.8139e+001  2.3443e+000 56962 82742,82347,82555
 4.0000e-001 82673  4.1662e+000  2.1743e+001  5.1610e-001 56962 82814,82425,82399
 4.0000e-001 82650  2.9148e+000  2.1044e+001 -2.0726e-001 56962 82425,82477,82451
 4.0000e-001 82627  5.7987e+000  2.2898e+001  1.4151e+000 56962 82425,82529,82477
 4.0000e-001 82604  4.5329e+000  3.2385e+001  5.7573e+000 56962 82477,82529,82503
 4.0000e-001 82581  6.1135e+000  2.1452e+001  6.4156e-002 56962 82347,82399,82373
 4.0000e-001 82768  3.6349e+000  1.9796e+001  3.6094e-001 56962 82529,82425,82742
 4.0000e-001 82791  2.3896e+000  2.0265e+001  7.7336e-001 56962 82529,82742,82555
 4.0000e-001 82840  4.3649e+000  1.9182e+001  1.2970e+000 56962 82347,82742,82814
 4.0000e-001 82863  4.5878e+000  1.9944e+001  1.0669e+000 56962 82347,82814,82399
 4.0000e-001 83467 -7.8772e+000  1.6810e+001 -6.4881e+000 56300 83124,83176,83150
 4.0000e-001 83444 -7.2566e-001  1.6262e+001 -1.0779e+000 56300 83490,83176,83124
 4.0000e-001 83421 -3.0430e-001  1.7893e+001 -2.7068e-001 56300 83490,83124,83280
 4.0000e-001 83398  1.5306e+000  1.6735e+001  1.2931e+000 56300 83202,83280,83254
 4.0000e-001 83375  1.4859e+000  2.1377e+001  4.3117e-001 56300 83046,83280,83124
 4.0000e-001 83352  1.3169e+000  2.3833e+001  9.8473e-001 56300 83046,83124,83098
 4.0000e-001 83329  2.0304e+000  2.5474e+001  1.7787e+000 56300 83202,83254,83228
 4.0000e-001 83306  3.9323e+000  3.2437e+001  9.1154e-001 56300 83046,83098,83072
 4.0000e-001 83516 -4.2894e-001  1.8567e+001 -8.6376e-001 56300 83202,83176,83490
 4.0000e-001 83539 -6.7123e-001  1.8906e+001  1.1916e-001 56300 83202,83490,83280
 4.0000e-001 83787  2.8852e+000  2.6724e+001 -1.1228e+000 55960 83588,83692,83666
 4.0000e-001 83764  4.3055e-001  3.4225e+001  2.2613e+000 55960 83562,83692,83588
 4.0000e-001 83741  1.0184e+001  2.7901e+001 -9.2048e-002 55960 83588,83666,83614
 4.0000e-001 83718  6.1667e+000  2.8079e+001  3.6563e-002 55960 83614,83666,83640
 4.0000e-001 83937 -3.1657e+000  1.8238e+001  1.1008e+000 55499 83810,83862,83836
 4.0000e-001 83914  2.5843e-001  1.9227e+001  3.2486e-001 55499 83810,83888,83862
 4.0000e-001 84138  1.9265e+000  1.6352e+001 -3.8786e+000 55152 83988,84066,84040
 4.0000e-001 84115  8.2407e+000  3.1524e+001 -3.4697e+000 55152 83962,84066,83988
 4.0000e-001 84092  7.9902e+000  2.5902e+001 -5.4871e-001 55152 83988,84040,84014
 4.0000e-001 84471 -1.0100e+000  2.7218e+001 -3.0261e+000 54648 84324,84376,84350
 4.0000e-001 84448 -8.0444e+000  1.5325e+001 -2.1615e-002 54648 84272,84376,84324
 4.0000e-001 84425 -8.3686e+000  8.6255e+000  2.3277e+000 54648 84246,84376,84272
 4.0000e-001 84402 -7.8943e+000  1.4532e+001 -3.4724e+000 54648 84272,84324,84298
 4.0000e-001 84849  1.3835e+001  2.5686e+001  4.0839e+000 53922 84627,84731,84705
 4.0000e-001 84826  2.0472e+001  3.5239e+001  6.9765e+000 53922 84575,84731,84627
 4.0000e-001 84803  1.8134e+001  3.9636e+001  1.8474e+001 53922 84575,84627,84601
 4.0000e-001 84780  2.0400e+001  2.7840e+001  5.5017e+000 53922 84627,84705,84653
 4.0000e-001 84757  1.2508e+001  2.2767e+001  2.7486e+000 53922 84653,84705,84679
 4.0000e-001 85581 -8.8107e-001  1.2641e+001 -3.7399e+000 53582 85604,85111,85319
 4.0000e-001 85558  1.3018e+001  1.5804e+001 -5.0384e+000 53582 85111,85345,85319
 4.0000e-001 85535  6.8626e+000  1.5592e+001 -4.5669e+000 53582 85604,85319,85293
 4.0000e-001 85512 -7.0865e+000  1.2597e+001  6.7824e+000 53582 85241,85293,85267
 4.0000e-001 85489 -5.2084e+000  1.7689e+001  2.3762e+000 53582 85676,85241,85189
 4.0000e-001 85466 -1.9163e+000  1.7474e+001 -1.5402e+000 53582 85676,85189,85137
 4.0000e-001 85443 -6.7265e+000  2.4939e+001  2.4757e+000 53582 85189,85241,85215
 4.0000e-001 85420 -3.8941e+000  2.8620e+001 -3.7980e+000 53582 85137,85189,85163
 4.0000e-001 85397  8.3192e+000  1.9657e+001 -7.6814e+000 53582 85111,85371,85345
 4.0000e-001 85630 -2.7317e+000  1.2743e+001  1.0675e+000 53582 85137,85111,85604
 4.0000e-001 85653  2.8227e+000  1.6127e+001  1.2536e+000 53582 85748,85604,85293
 4.0000e-001 85702 -7.7003e+000  1.1623e+001  6.5047e+000 53582 85293,85241,85676
 4.0000e-001 85725 -8.2241e-003  1.7431e+001  1.8901e+000 53582 85748,85293,85676
 4.0000e-001 85774 -1.4054e+000  1.4777e+001 -1.1810e-001 53582 85137,85604,85748
 4.0000e-001 85797 -3.3120e+000  1.6767e+001  5.0043e-001 53582 85137,85748,85676
 4.0000e-001 86303  7.2628e+000  1.4448e+001 -4.8871e+000 53178 86326,86084,86006
 4.0000e-001 86280  5.5995e+000  1.5448e+001 -4.1736e+000 53178 86326,86006,86162
 4.0000e-001 86257  6.5994e+000  1.5255e+001 -8.8948e+000 53178 86398,86110,86084
 4.0000e-001 86234  2.7071e+000  1.1170e+001 -4.2586e+000 53178 86006,86058,86032
 4.0000e-001 86211  5.2260e+000  1.0324e+001 -5.6461e+000 53178 86006,86084,86058
 4.0000e-001 86188  3.3462e+000  1.3787e+001 -2.0804e+000 53178 85980,86162,86006
 4.0000e-001 86352  4.6365e+000  1.2820e+001 -5.5911e+000 53178 86398,86084,86326
 4.0000e-001 86375  1.0772e+000  1.5827e+001 -5.1199e+000 53178 86136,86326,86162
 4.0000e-001 86424  7.0331e+000  1.7276e+001 -9.8586e+000 53178 86136,86110,86398
 4.0000e-001 86447  7.0622e+000  1.9235e+001 -6.5781e+000 53178 86136,86398,86326
 4.0000e-001 86904  2.8730e+000  2.2157e+001  1.0374e+000 52774 86708,86760,86734
 4.0000e-001 86881  1.9401e+000  1.7044e+001 -6.0907e-002 52774 86656,86760,86708
 4.0000e-001 86858  1.2004e+000  1.5208e+001  1.3058e+000 52774 86656,86708,86682
 4.0000e-001 86835  4.3847e+000  1.6297e+001  3.8550e-001 52774 86630,86760,86656
 4.0000e-001 86812  2.7815e+000  1.6212e+001 -7.6805e-001 52774 86630,86786,86760
 4.0000e-001 87489  7.2754e+000  2.8702e+001  6.0446e+000 52234 87512,87218,87192
 4.0000e-001 87466  4.4425e+000  2.3046e+001  1.0278e+000 52234 87512,87192,87348
 4.0000e-001 87443 -8.0590e-001  1.9167e+001 -1.4018e+000 52234 87166,87348,87192
 4.0000e-001 87420  1.2774e+000  1.6963e+001 -2.3620e-001 52234 87296,87348,87322
 4.0000e-001 87397  7.5953e+000  1.6202e+001  3.4181e+000 52234 87218,87296,87270
 4.0000e-001 87374  6.8542e+000  1.3156e+001  5.8387e+000 52234 87218,87270,87244
 4.0000e-001 87538  3.5738e+000  1.9483e+001  3.8290e+000 52234 87296,87218,87512
 4.0000e-001 87561  3.4047e+000  1.9688e+001 -1.1801e+000 52234 87296,87512,87348
 4.0000e-001 87841  6.0091e+000  2.2648e+001  2.2460e+000 51830 87665,87743,87691
 4.0000e-001 87818 -1.2001e+000  1.8568e+001 -3.0020e-001 51830 87665,87769,87743
 4.0000e-001 87795 -3.2222e+000  1.3233e+001 -1.7067e+000 51830 87864,87691,87743
 4.0000e-001 87890 -7.7794e+000  1.1280e+001 -1.9076e+000 51830 87717,87691,87864
 4.0000e-001 88418  3.2373e+000  2.3493e+001 -4.6135e-002 51262 88095,88173,88121
 4.0000e-001 88395  3.5384e+000  2.2939e+001  1.4197e-001 51262 88095,88251,88173
 4.0000e-001 88372 -7.1964e+000  1.6259e+001 -4.5649e+000 51262 88173,88251,88199
 4.0000e-001 88349  4.0726e+000  3.1653e+001  2.0908e+000 51262 88095,88277,88251
 4.0000e-001 88326  6.6540e+000  3.3076e+001  1.3888e+000 51262 88199,88251,88225
 4.0000e-001 88303  1.7595e+000  2.4872e+001  1.4617e+000 51262 88121,88173,88147
 4.0000e-001 88875 -5.3980e+000  1.0850e+001 -2.0197e+000 50750 88601,88731,88627
 4.0000e-001 88852 -8.1991e+000  1.9652e+001 -3.6275e+000 50750 88601,88757,88731
 4.0000e-001 88829  5.9594e+000  1.9516e+001  3.8833e+000 50750 88627,88731,88653
 4.0000e-001 88806  3.9504e+000  1.4455e+001  3.6967e+000 50750 88653,88731,88705
 4.0000e-001 88783 -1.5556e+000  9.8452e+000 -1.0863e+000 50750 88653,88705,88679
 4.0000e-001 89145  4.3291e+000  2.5002e+001  3.4801e-001 50438 88946,89024,88972
 4.0000e-001 89122  8.4245e+000  2.3262e+001 -2.2695e-001 50438 88946,89050,89024
 4.0000e-001 89099  1.7862e+000  1.8186e+001 -2.4407e+000 50438 88920,89050,88946
 4.0000e-001 89076  7.4477e-001  1.9512e+001 -8.1361e+000 50438 88972,89024,88998
 4.0000e-001 89525 -3.6909e+000  1.9602e+001 -2.0807e-001 49934 89548,89277,89251
 4.0000e-001 89502 -1.8888e+000  1.8368e+001 -1.2195e+000 49934 89548,89251,89381
 4.0000e-001 89479 -1.2992e+000  1.3836e+001 -1.3593e+000 49934 89303,89381,89329
 4.0000e-001 89456 -1.5204e+001  1.9070e+001 -7.7776e+000 49934 89251,89407,89381
 4.0000e-001 89433  5.6143e+000  1.2070e+001 -7.3810e+000 49934 89329,89381,89355
 4.0000e-001 89574  3.0368e+000  2.7822e+001  2.7965e+000 49934 89303,89277,89548
 4.0000e-001 89597 -1.6865e+000  1.9089e+001 -7.8317e-001 49934 89303,89548,89381
 4.0000e-001 90054  4.7951e+000  2.0491e+001 -6.3884e-001 49380 89832,89936,89910
 4.0000e-001 90031  8.9262e+000  2.2848e+001  3.3932e+000 49380 89780,89936,89832
 4.0000e-001 90008  1.3938e+001  2.6035e+001  1.5212e+000 49380 89780,89832,89806
 4.0000e-001 89985  1.0494e+001  1.9137e+001 -1.0327e+000 49380 89832,89910,89858
 4.0000e-001 89962  1.6937e+001  3.7817e+001  2.2380e+000 49380 89858,89910,89884
 4.0000e-001 90560  1.5266e+001  2.6804e+001  4.3896e+000 48890 90289,90341,90315
 4.0000e-001 90537  1.1674e+001  2.5214e+001  2.5638e+000 48890 90289,90393,90341
 4.0000e-001 90514  6.4567e+000  2.4122e+001  8.4994e-001 48890 90263,90393,90289
 4.0000e-001 90491  1.5060e+001  2.9008e+001 -2.8920e+000 48890 90237,90393,90263
 4.0000e-001 90468  1.7565e+001  3.4589e+001  5.6114e-002 48890 90341,90393,90367
 4.0000e-001 90445  1.3778e+001  2.6989e+001 -7.2593e-001 48890 90237,90419,90393
 4.0000e-001 91115  7.6880e+000  2.4492e+001 -2.9827e-001 48486 90795,90873,90847
 4.0000e-001 91092  8.9322e+000  2.8684e+001 -2.5263e+000 48486 90795,90925,90873
 4.0000e-001 91069 -1.0452e+000  2.6479e+001 -5.6482e-001 48486 90769,90925,90795
 4.0000e-001 91046 -7.1418e+000  2.4429e+001  9.7078e-002 48486 90769,90951,90925
 4.0000e-001 91023  1.0532e+001  3.1961e+001  1.8045e-001 48486 90795,90847,90821
 4.0000e-001 91000  8.6076e+000  2.1031e+001 -1.0931e+001 48486 90873,90925,90899
 4.0000e-001 90977  3.9027e+000  3.0379e+001  2.8262e+000 48486 90743,90951,90769
 4.0000e-001 91265  1.1850e+001  4.1551e+001 -7.5863e+000 48082 91288,91190,91164
 4.0000e-001 91242  7.2479e+000  2.8194e+001 -6.9778e+000 48082 91360,91288,91164
 4.0000e-001 91314  7.0288e+000  3.5100e+001 -3.8627e+000 48082 91216,91190,91288
 4.0000e-001 91337  1.1808e+001  3.5441e+001 -1.6167e+000 48082 91216,91288,91138
 4.0000e-001 91386  1.5084e+001  3.5589e+001 -1.8778e+000 48082 91138,91288,91360
 4.0000e-001 92022 -2.4822e+000  1.1629e+001 -1.0058e+000 47514 92261,92045,91754
 4.0000e-001 91999  3.0646e+000  1.2881e+001 -2.6977e+000 47514 92189,92045,91702
 4.0000e-001 91976  3.5230e+000  1.8403e+001 -4.4918e-001 47514 92117,91806,91754
 4.0000e-001 91953  3.7128e+000  1.0894e+001  9.3563e-001 47514 92189,91702,91650
 4.0000e-001 91930 -9.5147e+000  1.7108e+001 -4.2605e+000 47514 92261,91754,91728
 4.0000e-001 91907  3.1598e-001  2.1365e+001 -6.6171e-001 47514 91754,91806,91780
 4.0000e-001 91884  5.7600e+000  8.4775e+000  2.9297e-001 47514 91650,91702,91676
 4.0000e-001 92071  1.9771e+000  1.5410e+001 -2.9976e+000 47514 92117,91754,92045
 4.0000e-001 92094 -3.3142e+000  6.8973e+000 -1.7676e+000 47514 91832,92045,91858
 4.0000e-001 92143  6.2096e+000  2.0100e+001  3.7577e+000 47514 91832,91806,92117
 4.0000e-001 92166  4.9943e+000  1.3897e+001  1.2883e+000 47514 91832,92117,92045
 4.0000e-001 92215 -1.5857e+000  1.1174e+001 -2.0822e+000 47514 91858,92045,92189
 4.0000e-001 92238  7.6337e-001  9.9216e+000  9.2230e-001 47514 91858,92189,91650
 4.0000e-001 92287 -5.5892e+000  5.7757e+000 -6.2977e+000 47514 91702,92045,92261
 4.0000e-001 92310 -1.1503e+001  9.0749e+000 -1.0104e+001 47514 91702,92261,91728
 4.0000e-001 92460 -9.8326e+000  6.2841e-003 -3.8455e+000 47124 92483,92359,92333
 4.0000e-001 92437 -7.7490e+000 -2.0426e+000 -6.3859e+000 47124 92555,92483,92333
 4.0000e-001 92509 -7.4870e+000 -2.9042e+000 -6.2866e+000 47124 92685,92483,92385
 4.0000e-001 92532 -7.4972e+000  7.1135e-001 -5.2715e+000 47124 92385,92483,92411
 4.0000e-001 92581  2.7367e+000  5.3429e+000 -2.7395e+000 47124 92411,92483,92555
 4.0000e-001 92711  1.8635e+000  5.2422e+000 -2.7524e+000 47124 92359,92483,92685
 4.0000e-001 93571  6.2542e+000  1.9347e+001  1.9843e+000 46834 93594,93208,93104
 4.0000e-001 93548 -2.9437e+000  1.5220e+001  3.0040e+000 46834 93738,93594,93104
 4.0000e-001 93525 -1.0389e+000  4.7220e+000 -8.5313e+000 46834 93666,93234,93208
 4.0000e-001 93502 -4.4331e+000  1.6288e+001  3.6684e+000 46834 93738,93104,93078
 4.0000e-001 93479  2.6976e+000  2.3532e+001 -9.3040e+000 46834 93810,93260,93234
 4.0000e-001 93456  8.9394e+000  9.8506e+000  4.9991e+000 46834 93104,93182,93156
 4.0000e-001 93433  6.6769e+000  1.1707e+001  1.6027e+000 46834 93104,93208,93182
 4.0000e-001 93410 -7.0730e+000  2.5625e+001  1.1467e+000 46834 93286,93338,93312
 4.0000e-001 93387 -1.0309e+001  1.5389e+001  1.9431e+000 46834 93052,93338,93078
 4.0000e-001 93364  1.0530e+001  1.3631e+001  5.3541e+000 46834 93104,93156,93130
 4.0000e-001 93620  2.1801e-001  1.5850e+001 -3.1333e+000 46834 93666,93208,93594
 4.0000e-001 93643 -1.7254e+000  2.2611e+001 -1.9717e-002 46834 93286,93594,93338
 4.0000e-001 93692  3.5772e+000  2.0227e+001 -7.1326e+000 46834 93810,93234,93666
 4.0000e-001 93715 -1.8637e+000  2.2231e+001 -2.8411e+000 46834 93286,93666,93594
 4.0000e-001 93764 -2.2013e+000  1.7044e+001  2.5850e+000 46834 93338,93594,93738
 4.0000e-001 93787 -3.0578e+000  1.8563e+001  2.7652e+000 46834 93338,93738,93078
 4.0000e-001 93836 -1.5951e+000  2.0235e+001 -5.6074e+000 46834 93286,93260,93810
 4.0000e-001 93859 -1.7906e-001  1.7513e+001 -3.4947e+000 46834 93286,93810,93666
 4.0000e-001 94210  1.1096e+001  3.2973e+001  1.6030e+000 46472 94011,94115,94089
 4.0000e-001 94187  1.1180e+001  3.5198e+001  1.3470e+000 46472 93985,94115,94011
 4.0000e-001 94164 -3.3966e+000  3.5883e+001  5.3153e-001 46472 94037,94089,94063
 4.0000e-001 94141 -5.2983e+000  2.5763e+001  2.7769e+000 46472 94011,94089,94037
 4.0000e-001 94746  1.1868e+001  1.5958e+001 -2.1632e+000 46068 94576,94628,94602
 4.0000e-001 94723  1.1442e+001  1.5967e+001 -3.1479e+000 46068 94498,94628,94576
 4.0000e-001 94700  1.6046e+001  2.5310e+001 -4.8694e+000 46068 94472,94628,94498
 4.0000e-001 94677  1.2842e+001  1.3272e+001 -2.4645e+000 46068 94524,94576,94550
 4.0000e-001 94654  1.3267e+001  1.5304e+001 -2.4028e+000 46068 94498,94576,94524
 4.0000e-001 95380  1.3015e+001  3.1616e+001 -4.0370e+000 45342 95034,95112,95086
 4.0000e-001 95357  1.1315e+001  2.6377e+001 -1.3972e+000 45342 95034,95190,95112
 4.0000e-001 95334  7.5058e+000  3.2163e+001  1.1129e+000 45342 95403,95164,95138
 4.0000e-001 95311  1.1288e+001  3.5821e+001 -5.4499e-001 45342 95403,95138,95112
 4.0000e-001 95288  1.2171e+001  2.7219e+001 -1.0130e+000 45342 95034,95216,95190
 4.0000e-001 95265  9.3002e+000  3.5501e+001 -8.8198e-001 45342 95034,95086,95060
 4.0000e-001 95242  1.7921e+001  4.0802e+001 -6.2936e-001 45342 95008,95216,95034
 4.0000e-001 95429  1.1321e+001  3.0047e+001  9.3302e-001 45342 95190,95164,95403
 4.0000e-001 95452  1.3256e+001  3.1423e+001  1.7829e-001 45342 95190,95403,95112
 4.0000e-001 96007  4.9239e+000  3.0454e+001  3.7427e+000 44716 96030,95791,95765
 4.0000e-001 95984  6.3712e+000  2.2051e+001  4.8211e+000 44716 96030,95765,95713
 4.0000e-001 95961  6.1342e+000  3.0368e+001  5.9828e+000 44716 96174,96102,95661
 4.0000e-001 95938  6.8703e+000  2.7943e+001  5.5443e+000 44716 96174,95661,95635
 4.0000e-001 95915  1.0362e+001  3.4620e+001  4.3614e+000 44716 95661,95713,95687
 4.0000e-001 95892  6.0449e+000  2.3091e+001  7.4410e+000 44716 95713,95765,95739
 4.0000e-001 95869  5.2009e+000  2.5662e+001  5.3044e+000 44716 95635,95843,95817
 4.0000e-001 96056  6.9307e+000  4.1193e+001  8.0126e+000 44716 95817,95791,96030
 4.0000e-001 96079  3.7972e+000  2.9323e+001  5.7285e+000 44716 96102,95817,96030
 4.0000e-001 96128  6.0307e+000  3.0412e+001  6.1279e+000 44716 95713,95661,96102
 4.0000e-001 96151  6.8029e+000  3.1040e+001  4.6935e+000 44716 95713,96102,96030
 4.0000e-001 96200  4.7886e+000  2.7156e+001  6.5328e+000 44716 95817,96102,96174
 4.0000e-001 96223  6.2062e+000  2.5743e+001  5.6454e+000 44716 95817,96174,95635
 4.0000e-001 96680  4.3910e+000  2.0045e+001  3.3866e-001 44198 96775,96703,96458
 4.0000e-001 96657  4.7305e+000  1.9597e+001 -4.1600e+000 44198 96703,96406,96562
 4.0000e-001 96634 -2.5061e+000  2.3178e+001 -1.5637e-001 44198 96775,96458,96432
 4.0000e-001 96611  8.0280e+000  3.1562e+001  6.2690e+000 44198 96484,96536,96510
 4.0000e-001 96588  9.7651e+000  2.2279e+001  4.2962e+000 44198 96458,96536,96484
 4.0000e-001 96729  2.6061e+000  1.6379e+001  8.9139e-001 44198 96536,96458,96703
 4.0000e-001 96752  3.6010e+000  1.5466e+001 -1.7009e+000 44198 96536,96703,96562
 4.0000e-001 96801 -2.5674e+000  1.5660e+001 -2.0405e+000 44198 96406,96703,96775
 4.0000e-001 96824 -7.7328e+000  2.0892e+001 -1.4163e+000 44198 96406,96775,96432
 4.0000e-001 97202 -4.6755e+000  6.4652e+000  1.7625e+000 43750 97225,96980,96928
 4.0000e-001 97179 -7.3865e-001  3.2423e+000  4.2271e+000 43750 97225,96928,97084
 4.0000e-001 97156  5.9609e-001  1.1786e+001 -7.4570e-001 43750 96928,96980,96954
 4.0000e-001 97133  7.0979e+000  1.0715e+001  6.4535e-001 43750 97006,97084,97058
 4.0000e-001 97110  1.5958e+001  8.6404e+000  1.0756e+000 43750 97006,97058,97032
 4.0000e-001 97251 -1.9490e+000  1.1132e+001  3.4611e+000 43750 97006,96980,97225
 4.0000e-001 97274  1.5340e+000  5.9901e+000  5.5237e+000 43750 97006,97225,97084
 4.0000e-001 97522  5.2736e+000  3.0744e+001 -1.2540e+000 43360 97545,97375,97349
 4.0000e-001 97499  2.3711e-001  2.5374e+001 -3.6118e+000 43360 97545,97349,97323
 4.0000e-001 97476  5.9695e+000  2.3682e+001 -4.9467e+000 43360 97617,97427,97401
 4.0000e-001 97453  2.6810e+000  1.0013e+001 -1.2525e+001 43360 97297,97427,97323
 4.0000e-001 97571  5.9275e+000  2.2892e+001 -1.0956e+000 43360 97401,97375,97545
 4.0000e-001 97594  5.8000e+000  2.1940e+001 -3.7298e+000 43360 97617,97401,97545
 4.0000e-001 97643  6.7856e+000  2.5771e+001 -5.7393e+000 43360 97323,97427,97617
 4.0000e-001 97666  6.8363e+000  2.5005e+001 -4.3602e+000 43360 97323,97617,97545
 4.0000e-001 98019  9.4635e+000  1.9525e+001 -5.4200e-001 42956 97794,97898,97820
 4.0000e-001 97996  1.6333e+000  1.2760e+001  2.3279e+000 42956 97794,97924,97898
 4.0000e-001 97973 -4.4699e+000  1.5007e+001 -7.4691e-002 42956 97820,97872,97846
 4.0000e-001 97950 -2.6688e+000  1.6301e+001 -9.4654e-001 42956 97820,97898,97872
 4.0000e-001 98446  1.2016e+001  2.5685e+001 -4.2497e+000 42559 98149,98305,98279
 4.0000e-001 98423  1.7065e+001  2.8067e+001 -3.5009e+000 42559 98123,98305,98149
 4.0000e-001 98400  1.1852e+001  3.4647e+001 -3.6488e+000 42559 98469,98175,98149
 4.0000e-001 98377  1.2537e+001  3.6126e+001 -7.4223e+000 42559 98469,98149,98279
 4.0000e-001 98354  1.2237e+001  2.9311e+001 -2.9631e+000 42559 98175,98253,98227
 4.0000e-001 98331  1.0953e+001  2.6703e+001 -2.2607e+000 42559 98175,98227,98201
 4.0000e-001 98495  1.5784e+001  3.6685e+001 -4.3820e+000 42559 98253,98175,98469
 4.0000e-001 98518  1.5467e+001  3.7411e+001 -7.7492e+000 42559 98253,98469,98279
 4.0000e-001 98847  1.0729e+001  2.0551e+001 -2.9877e+000 42247 98674,98752,98700
 4.0000e-001 98824  7.6048e+000  2.0346e+001 -1.0201e+000 42247 98648,98752,98674
 4.0000e-001 98801  6.1291e+000  1.6721e+001 -2.4623e+000 42247 98622,98752,98648
 4.0000e-001 98778 -6.3269e-001  1.2547e+001  2.8281e+000 42247 98700,98752,98726
 4.0000e-001 99117  1.2547e+000  2.0182e+001  3.7739e-002 41843 98892,98996,98918
 4.0000e-001 99094  3.3663e+000  2.4866e+001 -2.8677e+000 41843 98892,99022,98996
 4.0000e-001 99071 -1.3426e-001  2.6034e+001 -4.9628e-001 41843 98918,98996,98970
 4.0000e-001 99048  4.2801e+000  2.8955e+001 -2.2682e+000 41843 98918,98970,98944
 4.0000e-001 99625  9.1504e+000  3.1685e+001  8.3942e+000 41232 99648,99380,99354
 4.0000e-001 99602  1.5367e+000  2.2966e+001  2.9141e+000 41232 99648,99354,99328
 4.0000e-001 99579  4.8681e+000  2.0110e+001  3.8334e+000 41232 99720,99432,99380
 4.0000e-001 99556 -1.4026e+000  1.7578e+001  3.7205e+000 41232 99380,99432,99406
 4.0000e-001 99533 -6.4129e+000  1.6948e+001 -4.6345e-001 41232 99328,99484,99458
 4.0000e-001 99510 -1.0251e+001  2.1638e+001  2.9060e+000 41232 99302,99484,99328
 4.0000e-001 99674  2.7880e+000  2.1389e+001  3.6352e+000 41232 99720,99380,99648
 4.0000e-001 99697  3.4138e+000  1.8696e+001 -4.2104e-001 41232 99458,99648,99328
 4.0000e-001 99746  5.6297e+000  2.1382e+001  3.1299e+000 41232 99458,99432,99720
 4.0000e-001 99769  4.9143e+000  2.3771e+001  2.5156e+000 41232 99458,99720,99648
 4.0000e-001 100275  1.3286e+001  1.5202e+001  6.0404e+000 40728 99952,100004,99978
 4.0000e-001 100252  3.6751e+000  1.2883e+001  1.2970e+000 40728 99952,100030,100004
 4.0000e-001 100229  5.0739e+000  1.6555e+001  7.4703e-001 40728 99952,100134,100030
 4.0000e-001 100206 -8.8731e-001  1.6655e+001 -1.1254e+000 40728 100298,100108,100082
 4.0000e-001 100183  1.0069e+000  1.1294e+001 -2.7816e+000 40728 100298,100082,100030
 4.0000e-001 100160 -9.1641e+000  1.7260e+001 -1.5976e+001 40728 100030,100082,100056
 4.0000e-001 100324  1.1016e-001  2.0409e+001  5.0166e-001 40728 100134,100108,100298
 4.0000e-001 100347  1.9602e+000  1.4384e+001 -8.4401e-001 40728 100134,100298,100030
 4.0000e-001 100853  8.6366e+000  3.4037e+001 -1.4775e+000 40274 100876,100686,100660
 4.0000e-001 100830  1.0865e+001  2.6626e+001  1.1545e+000 40274 100948,100876,100660
 4.0000e-001 100807  8.5798e+000  2.5643e+001 -1.2012e+000 40274 100948,100660,100608
 4.0000e-001 100784  1.1023e+001  3.4215e+001  2.5244e+000 40274 101020,100556,100712
 4.0000e-001 100761  9.7833e+000  3.0988e+001  1.2971e+000 40274 100530,100712,100556
 4.0000e-001 100738  5.1584e+000  2.8290e+001  1.9553e-001 40274 100608,100660,100634
 4.0000e-001 100902  8.8185e+000  4.4398e+001  1.8834e+000 40274 100712,100686,100876
 4.0000e-001 100925  6.9260e+000  3.3881e+001 -6.0897e-001 40274 101020,100712,100876
 4.0000e-001 100974  9.1732e+000  2.4673e+001 -2.3773e+000 40274 100582,100876,100948
 4.0000e-001 100997  4.5459e+000  2.3135e+001 -4.6892e+000 40274 100582,100948,100608
 4.0000e-001 101046  1.6672e+001  3.6502e+001  5.4180e+000 40274 100582,100556,101020
 4.0000e-001 101069  1.2810e+001  3.4641e+001  1.6390e+000 40274 100582,101020,100876
 4.0000e-001 101496 -9.0082e-001  2.1036e+001  1.6057e+000 39820 101519,101277,101225
 4.0000e-001 101473 -5.8204e+000  1.5805e+001 -7.1569e-001 39820 101519,101225,101199
 4.0000e-001 101450 -2.7131e+000  1.3583e+001  1.0247e+000 39820 101173,101355,101199
 4.0000e-001 101427 -7.1179e-001  1.6761e+001  5.6104e+000 39820 101277,101355,101303
 4.0000e-001 101404  4.8766e-001  1.8393e+001 -3.9140e+000 39820 101225,101277,101251
 4.0000e-001 101381  4.3062e+000  1.2470e+001  7.8136e+000 39820 101303,101355,101329
 4.0000e-001 101545  1.4579e+000  1.8176e+001  3.8947e+000 39820 101355,101277,101519
 4.0000e-001 101568 -7.9014e-001  1.6843e+001  2.5148e+000 39820 101355,101519,101199
 4.0000e-001 101816  1.0342e+001  2.3900e+001  7.1285e+000 39066 101839,101695,101643
 4.0000e-001 101793  6.0755e+000  2.4895e+001  3.8542e+000 39066 101839,101643,101591
 4.0000e-001 101770  2.7006e+000  1.5312e+001  1.6371e+000 39066 101643,101695,101669
 4.0000e-001 101747  9.6967e+000  2.5086e+001  1.7619e+000 39066 101591,101643,101617
 4.0000e-001 101865  1.3491e+001  2.4696e+001  7.7059e+000 39066 101721,101695,101839
 4.0000e-001 101888  1.0490e+001  2.6095e+001  4.0373e+000 39066 101721,101839,101591
 4.0000e-001 102087  2.8674e+000  2.5429e+001 -1.2661e+000 38726 101937,101989,101963
 4.0000e-001 102064 -3.4295e+000  2.1701e+001  4.4421e-001 38726 101937,102015,101989
 4.0000e-001 102041  2.6535e+000  2.4952e+001  1.6817e+000 38726 101911,102015,101937
 4.0000e-001 102337  3.2385e+000  2.1711e+001  3.8133e-001 38322 102112,102190,102138
 4.0000e-001 102314  1.5567e+000  2.1433e+001  2.7162e+000 38322 102112,102216,102190
 4.0000e-001 102291  1.0785e+001  2.1535e+001  3.4403e+000 38322 102112,102242,102216
 4.0000e-001 102268 -1.4638e+000  2.1604e+001 -1.0783e-001 38322 102138,102190,102164
 4.0000e-001 102489  1.7532e+001  3.1276e+001  2.6652e+000 38032 102512,102388,102362
 4.0000e-001 102466  1.0878e+001  3.5779e+001  7.8035e-002 38032 102512,102362,102440
 4.0000e-001 102538  1.2415e+001  2.9036e+001  1.1778e+000 38032 102414,102388,102512
 4.0000e-001 102561  2.6248e+000  3.0073e+001 -2.6731e+000 38032 102414,102512,102440
 4.0000e-001 102894  1.2027e+001  2.8254e+001  5.5770e+000 37592 102669,102773,102695
 4.0000e-001 102871  1.1047e+001  2.8023e+001  5.9482e+000 37592 102669,102799,102773
 4.0000e-001 102848  1.1920e+001  3.8319e+001  7.6788e+000 37592 102721,102773,102747
 4.0000e-001 102825  1.1230e+001  3.0114e+001  5.3833e+000 37592 102695,102773,102721
 4.0000e-001 103093  1.5914e+000  2.4547e+001  4.7406e-001 37188 102917,102995,102943
 4.0000e-001 103070  6.7619e-001  2.6108e+001  2.7304e+000 37188 102917,103021,102995
 4.0000e-001 103047  1.4690e+000  2.1980e+001  1.6471e+000 37188 102943,102995,102969
 4.0000e-001 103341 -3.2876e+000  1.8004e+001 -4.7099e-001 36605 103142,103194,103168
 4.0000e-001 103318  6.2480e+000  2.2292e+001 -1.7417e+000 36605 103142,103220,103194
 4.0000e-001 103295  2.8368e+000  2.2123e+001 -1.6329e+000 36605 103116,103220,103142
 4.0000e-001 103272 -6.2189e+000  2.1860e+001 -2.4313e+000 36605 103116,103246,103220
 4.0000e-001 103949  1.4226e+001  1.5174e+001  5.6440e+000 36127 103554,103606,103580
 4.0000e-001 103926 -7.2575e-001  1.9463e+001  5.3893e+000 36127 103528,103606,103554
 4.0000e-001 103903 -8.6194e-001  1.3336e+001 -1.0127e+000 36127 103528,103736,103606
 4.0000e-001 103880  1.1987e+000  1.7194e+001 -2.3514e+000 36127 103972,103710,103632
 4.0000e-001 103857 -1.6805e+000  1.0597e+001 -5.2887e+000 36127 103972,103632,103606
 4.0000e-001 103834  3.3104e+000  1.9395e+001 -1.4587e+000 36127 103632,103710,103658
 4.0000e-001 103811 -1.4983e+001  1.8134e+001 -9.3393e+000 36127 103528,103762,103736
 4.0000e-001 103788  9.8527e+000  3.0423e+001 -7.0643e+000 36127 103658,103710,103684
 4.0000e-001 103998  2.8659e+000  2.2577e+001  2.4760e+000 36127 103736,103710,103972
 4.0000e-001 104021 -1.9284e-001  1.6503e+001 -6.0347e-001 36127 103736,103972,103606
 4.0000e-001 104220  6.5791e+000  2.6532e+001 -1.7121e+000 35787 104070,104148,104122
 4.0000e-001 104197  1.2004e+001  2.7139e+001 -5.7606e-001 35787 104044,104148,104070
 4.0000e-001 104174  4.6039e+000  3.2089e+001 -5.7669e+000 35787 104070,104122,104096
 4.0000e-001 104419  2.0028e+001  3.5226e+001  6.7829e-001 35440 104269,104321,104295
 4.0000e-001 104396  1.8312e+001  3.4862e+001  1.1816e+000 35440 104269,104347,104321
 4.0000e-001 104373  1.2063e+001  3.0837e+001 -1.0504e+000 35440 104243,104347,104269
 4.0000e-001 104718  6.9640e+000  2.5964e+001 -3.3036e-001 34986 104496,104548,104522
 4.0000e-001 104695  5.3618e+000  2.5120e+001 -1.5324e-003 34986 104741,104548,104496
 4.0000e-001 104672  7.4820e+000  2.4361e+001 -6.3287e-002 34986 104741,104496,104444
 4.0000e-001 104649  4.5848e+000  2.4804e+001  1.4875e+000 34986 104813,104574,104548
 4.0000e-001 104626  9.1397e+000  2.8789e+001  1.9269e+000 34986 104444,104496,104470
 4.0000e-001 104767  4.5062e+000  2.4797e+001  4.7549e-001 34986 104813,104548,104741
 4.0000e-001 104790  6.2587e+000  2.3179e+001  4.2112e-001 34986 104600,104741,104444
 4.0000e-001 104839  7.2284e+000  2.6630e+001  2.2946e+000 34986 104600,104574,104813
 4.0000e-001 104862  5.9183e+000  2.5403e+001  7.6633e-001 34986 104600,104813,104741
 4.0000e-001 105014  4.9422e-001  2.2631e+001 -4.2604e+000 34696 105169,105037,104913
 4.0000e-001 104991  2.3288e+000  2.0098e+001 -7.9920e-001 34696 105169,104913,104887
 4.0000e-001 105063  1.1164e+001  2.9820e+001 -8.3948e-001 34696 104939,104913,105037
 4.0000e-001 105195 -3.8657e+000  2.1517e+001 -2.5461e+000 34696 104965,105037,105169
 4.0000e-001 105218 -2.1005e+000  1.9359e+001  8.5856e-001 34696 104965,105169,104887
 4.0000e-001 105368  1.4886e+000  3.0279e+001 -2.7659e+000 34384 105267,105319,105293
 4.0000e-001 105345  4.9248e+000  3.6269e+001 -9.4788e-001 34384 105241,105319,105267
 4.0000e-001 105616  1.8883e+000  2.3860e+001  1.8863e+000 33730 105639,105417,105391
 4.0000e-001 105593  2.0378e+000  2.3465e+001  1.6874e+000 33730 105639,105391,105495
 4.0000e-001 105570  2.1692e+000  2.5525e+001  9.2259e-001 33730 105391,105521,105495
 4.0000e-001 105547  3.5051e+000  2.2900e+001  5.8284e+000 33730 105417,105469,105443
 4.0000e-001 105665  2.0164e+000  2.4170e+001  2.0892e+000 33730 105469,105417,105639
 4.0000e-001 105688  2.2873e+000  2.3604e+001  1.9895e+000 33730 105469,105639,105495
 4.0000e-001 105840  1.2570e+001  3.7075e+001 -2.0616e+000 33390 105713,105765,105739
 4.0000e-001 105817  1.0813e+001  3.5653e+001 -1.3255e+000 33390 105713,105791,105765
 4.0000e-001 106090  7.6292e+000  2.7904e+001  9.5726e-001 33043 106113,105943,105891
 4.0000e-001 106067  4.4334e+000  2.6725e+001  1.0011e+000 33043 106113,105891,105865
 4.0000e-001 106044  1.3090e+001  3.3347e+001 -2.9356e+000 33043 105891,105943,105917
 4.0000e-001 106021  1.8877e+000  2.6400e+001 -1.9777e+000 33043 105865,105995,105969
 4.0000e-001 106139  1.5279e+001  2.7490e+001 -1.4278e+000 33043 105969,105943,106113
 4.0000e-001 106162  7.4091e+000  2.4121e+001 -1.5542e+000 33043 105969,106113,105865
 4.0000e-001 106412  1.3753e+000  1.6497e+001  2.1401e+000 32539 106435,106291,106239
 4.0000e-001 106389  7.3018e+000  1.4318e+001  4.1351e+000 32539 106187,106317,106291
 4.0000e-001 106366  1.8592e+000  1.7620e+001  2.0938e+000 32539 106435,106239,106213
 4.0000e-001 106343  4.6462e+000  2.0605e+001  3.5764e+000 32539 106239,106291,106265
 4.0000e-001 106461  1.7118e+000  1.6063e+001  1.4014e+000 32539 106187,106291,106435
 4.0000e-001 106484  2.1661e+000  1.7113e+001  1.3102e+000 32539 106187,106435,106213
 4.0000e-001 106685  7.3838e+000  2.3982e+001 -2.5848e+000 31835 106535,106587,106561
 4.0000e-001 106662  1.0515e+000  2.3998e+001  2.0676e+000 31835 106509,106587,106535
 4.0000e-001 106639  1.1336e+001  3.0971e+001 -1.2358e+000 31835 106509,106613,106587
 4.0000e-001 106935  3.0349e+000  2.1762e+001  8.9457e-001 31530 106736,106814,106788
 4.0000e-001 106912  3.2335e+000  2.2248e+001  1.3791e+000 31530 106710,106814,106736
 4.0000e-001 106889  1.9002e+000  1.9343e+001  1.7660e+000 31530 106736,106788,106762
 4.0000e-001 106866  4.4591e+000  2.3092e+001  7.2839e-001 31530 106710,106840,106814
 4.0000e-001 107339 -1.2965e+000  2.3724e+001 -4.5741e+000 31026 107117,107221,107195
 4.0000e-001 107316  7.1948e-001  1.2185e+001 -2.9399e+000 31026 107091,107221,107117
 4.0000e-001 107293  3.2713e+000  1.3212e+001 -2.8685e+000 31026 107065,107221,107091
 4.0000e-001 107270 -1.0030e+001  2.9092e+001  1.9852e+000 31026 107143,107195,107169
 4.0000e-001 107247 -2.2018e+001  1.4533e+001 -6.1863e+000 31026 107117,107195,107143
 4.0000e-001 107538  7.5622e+000  3.4526e+001 -8.2446e-001 30714 107561,107388,107362
 4.0000e-001 107515  9.0325e+000  3.5497e+001 -1.3670e+000 30714 107561,107362,107466
 4.0000e-001 107492  9.4113e+000  3.2092e+001 -3.6502e+000 30714 107414,107466,107440
 4.0000e-001 107587  9.2724e+000  3.2606e+001 -5.4521e-001 30714 107414,107388,107561
 4.0000e-001 107610  1.0901e+001  3.3832e+001 -1.2165e+000 30714 107414,107561,107466
 4.0000e-001 107990  7.8332e+000  2.3211e+001  2.5840e+000 30260 108013,107846,107768
 4.0000e-001 107967  9.7014e+000  2.7652e+001  1.1816e+000 30260 108013,107768,107716
 4.0000e-001 107944  3.6065e+000  3.1286e+001  1.4949e+000 30260 107716,107768,107742
 4.0000e-001 107921  1.6351e+001  2.7842e+001  4.6826e+000 30260 107768,107846,107820
 4.0000e-001 107898  1.5688e+001  2.5478e+001  3.3948e+000 30260 107768,107820,107794
 4.0000e-001 108039  8.4564e+000  2.4765e+001 -6.4059e-001 30260 107872,107846,108013
 4.0000e-001 108062  9.8377e+000  2.9401e+001 -1.7951e+000 30260 107872,108013,107716
 4.0000e-001 108261  2.3247e+000  2.4896e+001  3.2407e+000 29870 108284,108085,108163
 4.0000e-001 108238  9.4870e+000  2.3756e+001  4.8514e+000 29870 108085,108189,108163
 4.0000e-001 108215 -2.9191e+000  2.2756e+001  2.7779e+000 29870 108284,108163,108137
 4.0000e-001 108310  4.6987e+000  2.2352e+001  1.5187e+000 29870 108111,108085,108284
 4.0000e-001 108333  2.1353e+000  2.1848e+001  1.4155e+000 29870 108111,108284,108137
 4.0000e-001 108664  1.3309e+001  2.7892e+001  4.7816e-001 29480 108465,108569,108543
 4.0000e-001 108641  7.3928e-001  2.4454e+001  3.1111e+000 29480 108439,108569,108465
 4.0000e-001 108618  1.3805e+001  2.3374e+001  3.7784e+000 29480 108465,108543,108491
 4.0000e-001 108595  1.2075e+001  1.8107e+001  2.2740e+000 29480 108491,108543,108517
 4.0000e-001 108993  1.0709e+001  3.4716e+001  4.3410e+000 29076 108794,108872,108820
 4.0000e-001 108970  7.2956e+000  2.3733e+001  5.1203e+000 29076 108768,108872,108794
 4.0000e-001 108947  4.4476e+000  3.6590e+001  8.9540e+000 29076 108820,108872,108846
 4.0000e-001 108924  1.1909e+001  2.5538e+001  4.6211e+000 29076 108768,108898,108872
 4.0000e-001 109420  3.2350e+000  1.8378e+001  3.2250e+000 28472 109123,109227,109201
 4.0000e-001 109397 -3.8897e-001  2.0296e+001  2.7194e+000 28472 109123,109253,109227
 4.0000e-001 109374  2.0918e+000  1.5171e+001  3.6199e+000 28472 109123,109201,109175
 4.0000e-001 109351 -6.6719e+000  1.8471e+001  2.4052e+000 28472 109123,109279,109253
 4.0000e-001 109328  2.8549e+000  1.4748e+001  5.0045e+000 28472 109123,109175,109149
 4.0000e-001 109305 -9.0870e+000  2.4576e+001 -1.1398e-002 28472 109097,109279,109123
 4.0000e-001 109749  1.5572e+001  3.7438e+001  4.7359e-001 28018 109772,109602,109576
 4.0000e-001 109726  1.6312e+001  3.3289e+001  2.7375e+000 28018 109772,109576,109550
 4.0000e-001 109703  6.3581e+000  2.4294e+001 -1.0457e+000 28018 109524,109628,109550
 4.0000e-001 109680  9.2536e+000  2.4936e+001 -4.5063e-001 28018 109524,109654,109628
 4.0000e-001 109798  1.1571e+001  3.4974e+001  3.5234e+000 28018 109628,109602,109772
 4.0000e-001 109821  1.5470e+001  3.0769e+001  4.6075e+000 28018 109628,109772,109550
 4.0000e-001 110199  4.4811e+000  2.1650e+001 -5.1844e+000 27564 110029,110081,110055
 4.0000e-001 110176  1.0026e+001  2.4450e+001 -7.8669e-001 27564 109925,110081,110029
 4.0000e-001 110153  1.2876e+001  1.8127e+001  6.2335e-001 27564 109925,110029,109977
 4.0000e-001 110130  1.6777e+001  1.9768e+001  4.8151e-001 27564 109977,110029,110003
 4.0000e-001 110107  1.6091e+001  2.1493e+001  4.1959e+000 27564 109925,109977,109951
 4.0000e-001 110398  4.2284e+000  2.1487e+001  8.3288e-001 27003 110248,110326,110300
 4.0000e-001 110375  5.1739e+000  2.1755e+001  1.4792e+000 27003 110222,110326,110248
 4.0000e-001 110352  4.8449e-001  1.8911e+001 -7.1803e-001 27003 110248,110300,110274
 4.0000e-001 110646  5.3913e+000  2.4503e+001 -2.3614e-001 26563 110669,110473,110421
 4.0000e-001 110623  4.6173e+000  2.2915e+001  3.9661e-001 26563 110669,110421,110551
 4.0000e-001 110600  8.9505e+000  2.2913e+001 -2.0608e+000 26563 110473,110525,110499
 4.0000e-001 110577  5.8211e+000  2.4026e+001 -3.0018e+000 26563 110421,110473,110447
 4.0000e-001 110695  5.0141e+000  2.5023e+001 -5.9999e-001 26563 110525,110473,110669
 4.0000e-001 110718  5.0044e+000  2.4445e+001 -3.9533e-002 26563 110525,110669,110551
 4.0000e-001 110870 -2.9449e+000  2.0551e+001 -9.2290e-001 26166 110769,110821,110795
 4.0000e-001 110847  1.4446e+000  1.1569e+001  2.5783e+000 26166 110743,110821,110769
 4.0000e-001 111380 -5.9481e-001  1.9263e+001  5.2971e+000 25712 111403,111109,111083
 4.0000e-001 111357  3.9196e+000  2.1473e+001  4.3661e+000 25712 111403,111083,111239
 4.0000e-001 111334 -8.5842e+000  2.1394e+001  1.5134e+001 25712 111109,111161,111135
 4.0000e-001 111311 -1.0102e+000  1.8997e+001  3.5093e+000 25712 111057,111239,111083
 4.0000e-001 111288  7.9338e+000  1.4659e+001  3.9447e+000 25712 111161,111239,111187
 4.0000e-001 111265  1.5046e+001  1.7466e+001  3.3772e+000 25712 111187,111239,111213
 4.0000e-001 111429  3.5982e+000  1.5817e+001  6.7827e+000 25712 111161,111109,111403
 4.0000e-001 111452  9.0515e+000  1.8552e+001  5.7498e+000 25712 111161,111403,111239
 4.0000e-001 111651  7.5070e+000  2.4156e+001  1.0941e+000 25300 111674,111501,111475
 4.0000e-001 111628  7.7750e+000  1.9682e+001  1.4686e+000 25300 111674,111475,111579
 4.0000e-001 111605  7.1012e+000  2.6433e+001 -1.2074e+000 25300 111501,111553,111527
 4.0000e-001 111700  7.0751e+000  2.7646e+001  1.0531e+000 25300 111553,111501,111674
 4.0000e-001 111723  7.9057e+000  2.3978e+001  1.7832e+000 25300 111553,111674,111579
 4.0000e-001 111922 -1.9782e+000  1.8282e+001 -3.7607e+000 24732 111798,111850,111824
 4.0000e-001 111899  1.9221e+000  2.1160e+001 -2.1572e-001 24732 111772,111850,111798
 4.0000e-001 111876  1.4095e+000  2.2693e+001  7.4951e-001 24732 111746,111850,111772
 4.0000e-001 112255  1.7491e+001  4.3579e+001 -7.0784e+000 24142 112056,112108,112082
 4.0000e-001 112232  2.0863e+001  4.2455e+001 -3.5187e+000 24142 112056,112134,112108
 4.0000e-001 112209  1.2417e+001  2.6946e+001  1.1252e-001 24142 112056,112160,112134
 4.0000e-001 112186  1.9690e+001  2.5516e+001 -2.0116e+000 24142 112030,112160,112056
 4.0000e-001 112601  2.9063e+000  2.3114e+001  5.8016e-001 23852 112624,112382,112356
 4.0000e-001 112578  2.2940e+000  2.3492e+001 -9.6152e-002 23852 112696,112624,112356
 4.0000e-001 112555  3.2075e+000  2.3409e+001 -1.5345e+000 23852 112696,112356,112304
 4.0000e-001 112532  3.6199e-001  2.3950e+001 -8.7519e-001 23852 112304,112356,112330
 4.0000e-001 112509  8.1015e+000  2.7412e+001 -8.5937e-001 23852 112278,112460,112304
 4.0000e-001 112486  3.2178e+000  2.5926e+001  1.9469e+000 23852 112382,112434,112408
 4.0000e-001 112650  4.0692e+000  2.3918e+001  1.2446e-001 23852 112434,112382,112624
 4.0000e-001 112673  3.4590e+000  2.3837e+001  2.6347e-002 23852 112434,112624,112460
 4.0000e-001 112722  4.7922e+000  2.4430e+001 -3.9461e-001 23852 112460,112624,112696
 4.0000e-001 112745  5.4866e+000  2.4463e+001 -1.9872e+000 23852 112460,112696,112304
 4.0000e-001 113015 -3.4197e+000  3.3422e+001 -5.3448e+000 23490 112842,112894,112868
 4.0000e-001 112992  5.2949e+000  2.5052e+001 -2.9234e+000 23490 112816,112894,112842
 4.0000e-001 112969 -1.5307e+000  2.2247e+001  1.4813e+000 23490 112790,112894,112816
 4.0000e-001 112946  4.4388e+000  3.8605e+001  1.7701e+000 23490 112790,112920,112894
 4.0000e-001 113348  8.6604e+000  1.6980e+001 -1.7176e+000 22970 113175,113253,113227
 4.0000e-001 113325  1.1211e+001  1.7757e+001 -2.0935e+000 22970 113149,113253,113175
 4.0000e-001 113302  9.0594e+000  1.7712e+001 -1.9527e+000 22970 113175,113227,113201
 4.0000e-001 113279  1.2172e+001  1.9230e+001 -1.4122e+000 22970 113123,113253,113149
 4.0000e-001 113645  1.3106e+000  2.0770e+001  2.6258e-001 22366 113423,113527,113449
 4.0000e-001 113622 -2.3701e+000  1.6923e+001 -1.2423e+000 22366 113371,113527,113423
 4.0000e-001 113599 -1.0020e-001  1.8272e+001  3.6522e+000 22366 113449,113527,113501
 4.0000e-001 113576  4.0058e+000  1.8085e+001  7.9067e+000 22366 113449,113501,113475
 4.0000e-001 113553  2.8008e-001  1.9986e+001 -4.6199e+000 22366 113371,113423,113397
 4.0000e-001 113893  3.4596e+000  2.2362e+001 -6.7243e-001 21912 113916,113746,113720
 4.0000e-001 113870  3.3180e+000  2.6002e+001 -2.0611e-001 21912 113916,113720,113668
 4.0000e-001 113847  4.8064e+000  2.6251e+001 -2.4225e-001 21912 113988,113798,113772
 4.0000e-001 113824  2.6340e+000  2.5300e+001 -2.8437e+000 21912 113668,113720,113694
 4.0000e-001 113942  4.7915e+000  2.6204e+001 -1.0723e+000 21912 113772,113746,113916
 4.0000e-001 113965  4.1134e+000  2.6138e+001 -2.3621e-001 21912 113988,113772,113916
 4.0000e-001 114014  3.9290e+000  2.6057e+001 -3.3569e-001 21912 113668,113798,113988
 4.0000e-001 114037  3.7101e+000  2.6245e+001 -4.1464e-001 21912 113668,113988,113916
 4.0000e-001 114287  6.8441e+000  2.6806e+001  3.1521e-001 21408 114088,114140,114114
 4.0000e-001 114264  7.2292e+000  2.7226e+001  8.7358e-002 21408 114310,114140,114088
 4.0000e-001 114241  7.9886e+000  2.7383e+001  2.9416e-001 21408 114310,114088,114192
 4.0000e-001 114218  1.0080e+001  2.5766e+001 -4.0657e-001 21408 114062,114192,114088
 4.0000e-001 114336  7.8277e+000  2.7399e+001  3.9937e-001 21408 114166,114140,114310
 4.0000e-001 114359  8.3196e+000  2.7297e+001  5.5889e-001 21408 114166,114310,114192
 4.0000e-001 114609  5.3452e+000  2.1263e+001  2.9845e+000 21018 114632,114488,114436
 4.0000e-001 114586  5.4789e+000  2.3979e+001  1.4640e+000 21018 114632,114436,114410
 4.0000e-001 114563  5.4881e+000  2.4151e+001 -6.8279e-001 21018 114384,114514,114410
 4.0000e-001 114540 -3.1725e+000  2.0518e+001  2.5372e+000 21018 114436,114488,114462
 4.0000e-001 114658  6.8646e+000  2.2806e+001  1.1553e+000 21018 114514,114488,114632
 4.0000e-001 114681  6.2976e+000  2.5081e+001 -2.4382e-001 21018 114514,114632,114410
 4.0000e-001 114882  3.7408e+001  3.4890e+001  7.0663e+000 20614 114732,114784,114758
 4.0000e-001 114859  2.4714e+001  3.2467e+001  3.2031e+000 20614 114732,114810,114784
 4.0000e-001 114836  2.1126e+001  2.8074e+001  1.4913e+000 20614 114706,114810,114732
 4.0000e-001 115132  3.7537e+000  2.7171e+001 -1.6504e+000 20110 114907,115011,114933
 4.0000e-001 115109  1.0289e+001  2.8933e+001 -8.3671e-001 20110 114907,115037,115011
 4.0000e-001 115086  4.8312e+000  2.6694e+001 -1.7837e+000 20110 114933,115011,114985
 4.0000e-001 115063  4.9198e+000  3.3751e+001 -8.5022e+000 20110 114933,114985,114959
 4.0000e-001 115284  1.2781e+000  2.8843e+001  7.4966e-002 19456 115378,115307,115157
 4.0000e-001 115261  5.7831e-001  2.9783e+001 -1.8036e-001 19456 115378,115157,115235
 4.0000e-001 115333  1.0803e+000  2.8509e+001  1.5838e-001 19456 115183,115157,115307
 4.0000e-001 115404  7.4398e-001  2.7384e+001 -1.4730e-001 19456 115209,115307,115378
 4.0000e-001 115427  1.4715e-001  2.8513e+001 -4.7380e-001 19456 115209,115378,115235
 4.0000e-001 115677  9.2952e-001  2.3642e+001  2.5540e-001 19002 115504,115582,115530
 4.0000e-001 115654  3.7562e+000  2.4514e+001  6.1718e-001 19002 115478,115582,115504
 4.0000e-001 115631  8.0525e-002  2.3728e+001  6.4229e+000 19002 115452,115582,115478
 4.0000e-001 115608  1.2968e+001  2.5204e+001 -1.0431e+001 19002 115530,115582,115556
 4.0000e-001 115998  9.5801e+000  2.2093e+001 -2.2554e+000 18712 115802,115880,115854
 4.0000e-001 115975  1.1204e+001  2.7947e+001 -2.5844e+000 18712 115724,115880,115802
 4.0000e-001 115952  8.0365e+000  2.4862e+001 -1.0854e+000 18712 115724,115802,115776
 4.0000e-001 115929  9.2752e+000  2.9040e+001 -2.2405e+000 18712 115724,115776,115750
 4.0000e-001 115906  1.4715e+001  2.3665e+001 -3.5025e+000 18712 115802,115854,115828
 4.0000e-001 116270  2.2776e+000  2.4556e+001  6.1122e-001 18308 116045,116123,116071
 4.0000e-001 116247  2.8655e+000  2.6281e+001 -5.6546e-002 18308 116045,116175,116123
 4.0000e-001 116224  2.9612e+000  2.5808e+001 -9.5029e-002 18308 116123,116175,116149
 4.0000e-001 116201  1.0349e+001  2.8439e+001 -5.4158e-001 18308 116071,116123,116097
 4.0000e-001 116422  3.7757e+000  2.5216e+001  4.5826e-002 17996 116321,116373,116347
 4.0000e-001 116399  4.5108e+000  2.5248e+001  5.4590e-001 17996 116295,116373,116321
 4.0000e-001 116574  2.3564e+000  2.5036e+001 -1.1227e+000 17392 116473,116525,116499
 4.0000e-001 116551  6.8024e+000  3.1149e+001  1.6069e+000 17392 116447,116525,116473
 4.0000e-001 116797  5.9384e+000  2.8226e+001  1.4072e+000 16938 116621,116699,116673
 4.0000e-001 116774 -7.3148e+000  3.3115e+001  1.7018e+000 16938 116621,116725,116699
 4.0000e-001 116751  4.6454e+000  2.5209e+001  6.2828e-001 16938 116621,116673,116647
 4.0000e-001 116998  3.5923e+000  2.4481e+001 -3.6356e-001 16434 117021,116874,116848
 4.0000e-001 116975  3.6090e+000  2.5511e+001 -1.5179e-001 16434 117021,116848,116822
 4.0000e-001 116952  3.1572e+000  2.3458e+001 -1.1973e+000 16434 116874,116926,116900
 4.0000e-001 117047  3.3791e+000  2.5242e+001 -7.0355e-001 16434 116926,116874,117021
 4.0000e-001 117070  3.3705e+000  2.5974e+001 -8.0126e-001 16434 116926,117021,116822
 4.0000e-001 117293  1.5584e+001  7.9948e+000  2.1464e+000 16070 117117,117169,117143
 4.0000e-001 117270  7.8893e-001  3.3502e+000  9.1150e-001 16070 117117,117221,117169
 4.0000e-001 117247  5.6645e-001  7.3653e+000  6.5581e-001 16070 117169,117221,117195
 4.0000e-001 117445  2.8192e-001  3.7944e+000  5.2017e-001 15645 117318,117370,117344
 4.0000e-001 117422 -1.0324e+001 -5.4316e-001  4.2663e-001 15645 117318,117396,117370
 4.0000e-001 117548  1.5054e+001  2.2450e+001  8.0592e+000 417 117470,117522,117496
 5.0000e-001 70760  1.5313e+000 -1.0258e+000 -1.8686e-001 70380 70633,70685,70659
 5.0000e-001 70737 -1.4945e+000  5.2535e-001 -9.6825e-001 70380 70633,70711,70685
 5.0000e-001 70861  4.7686e-002  1.7696e+000 -1.0670e+000 70068 70783,70835,70809
 5.0000e-001 71180  1.8213e-001  6.0937e+000 -5.9634e-001 69870 70932,70984,70958
 5.0000e-001 71157 -1.2338e+000  5.5014e+000 -4.9373e-001 69870 70932,71010,70984
 5.0000e-001 71134 -2.0342e+000  4.1183e+000 -8.4605e-001 69870 70932,71036,71010
 5.0000e-001 71111 -1.8863e+000  3.0625e+000  2.5223e+000 69870 70932,71062,71036
 5.0000e-001 71088 -1.0650e-001  4.5770e+000  2.9387e-001 69870 70906,71062,70932
 5.0000e-001 71428  1.3858e+001  2.7365e+001  5.5760e-001 69694 71451,71281,71255
 5.0000e-001 71405  1.7904e+001  3.3159e+001  2.4191e+000 69694 71523,71451,71255
 5.0000e-001 71382  2.1374e+001  3.5505e+001  1.0372e+001 69694 71523,71255,71229
 5.0000e-001 71359  4.4665e+000  2.3736e+001 -8.8328e-001 69694 71595,71333,71307
 5.0000e-001 71477  2.0995e+001  3.3040e+001 -5.2453e+000 69694 71307,71281,71451
 5.0000e-001 71500  7.6075e+000  2.8636e+001 -3.8356e+000 69694 71595,71307,71451
 5.0000e-001 71549  5.4715e+000  2.9406e+001  7.3654e-001 69694 71203,71451,71523
 5.0000e-001 71572  5.0247e+000  2.8370e+001  7.7468e+000 69694 71203,71523,71229
 5.0000e-001 71621  9.8555e+000  1.8759e+001 -1.5756e+000 69694 71203,71333,71595
 5.0000e-001 71644  8.7625e+000  2.0906e+001 -2.4955e+000 69694 71203,71595,71451
 5.0000e-001 71745 -8.7256e-001  6.1168e-001 -1.1603e+000 69382 71667,71719,71693
 5.0000e-001 72100 -2.9968e+000  1.2417e+001 -3.5238e+000 69184 71875,71979,71901
 5.0000e-001 72077  5.2312e-001  1.8059e+001 -2.0211e+000 69184 71875,72005,71979
 5.0000e-001 72054 -2.9573e+000 -2.5167e+000 -7.0701e+000 69184 71901,71979,71953
 5.0000e-001 72031  1.5740e+000  6.5421e+000 -5.2435e+000 69184 71901,71953,71927
 5.0000e-001 72250 -3.0598e+000  1.3866e+001  2.2118e+000 68986 72149,72201,72175
 5.0000e-001 72227 -4.5248e+000  2.8180e+001 -3.9662e+000 68986 72123,72201,72149
 5.0000e-001 72547 -1.0048e+000  2.1765e+001 -2.1784e+000 68582 72570,72403,72377
 5.0000e-001 72524 -4.4386e-001  2.0351e+001 -2.8846e+000 68582 72570,72377,72351
 5.0000e-001 72501 -1.0417e+000  1.8337e+001 -8.7889e-001 68582 72642,72299,72429
 5.0000e-001 72478 -4.9761e-001  1.3137e+001 -3.5098e+000 68582 72273,72429,72299
 5.0000e-001 72455  1.7032e+000  3.1820e+001 -7.0250e-001 68582 72299,72351,72325
 5.0000e-001 72596  1.2505e+000  2.4134e+001  7.5518e-001 68582 72429,72403,72570
 5.0000e-001 72619 -7.8596e-001  1.9276e+001 -7.6562e-001 68582 72642,72429,72570
 5.0000e-001 72668 -2.6430e+000  1.8903e+001 -2.7737e+000 68582 72351,72299,72642
 5.0000e-001 72691 -1.7606e+000  2.0914e+001 -2.3923e+000 68582 72351,72642,72570
 5.0000e-001 73095 -1.3959e+000  6.2435e+000 -5.5262e-001 68384 72873,72925,72899
 5.0000e-001 73072 -2.8150e+000  8.0341e+000  1.4584e+000 68384 72847,72925,72873
 5.0000e-001 73049 -2.3999e+000 -8.8069e-001  5.0206e+000 68384 72847,72951,72925
 5.0000e-001 73026  2.2245e+000  4.8586e+000  2.9383e+000 68384 72821,72951,72847
 5.0000e-001 73003  4.3189e-001  3.1936e+000  1.7229e+000 68384 72821,72977,72951
 5.0000e-001 73552 -1.9957e-001  2.1822e+001  5.3379e-001 68044 73304,73434,73408
 5.0000e-001 73529  5.4663e+000  2.0094e+001 -4.0625e+000 68044 73278,73434,73304
 5.0000e-001 73506 -1.0484e+001  3.2796e+001  2.4574e+000 68044 73356,73408,73382
 5.0000e-001 73483  3.8555e+000  3.4751e+001 -2.2411e+000 68044 73304,73408,73356
 5.0000e-001 73460  2.7365e+000  3.7828e+001 -2.8377e+000 68044 73304,73356,73330
 5.0000e-001 73871  2.9844e+000  2.3242e+001  1.2568e+000 67846 73675,73727,73701
 5.0000e-001 73848 -5.6734e+000  1.6817e+001  4.1786e+000 67846 73649,73727,73675
 5.0000e-001 73825  8.1433e-002  2.6838e+001 -1.7937e+000 67846 73623,73727,73649
 5.0000e-001 73802 -5.4241e+000  2.1988e+001 -4.0282e+000 67846 73623,73753,73727
 5.0000e-001 73779 -1.7663e+000  1.6746e+001 -1.3757e+001 67846 73597,73753,73623
 5.0000e-001 74021 -6.8970e+000  1.5664e+001 -2.4216e+000 67598 73920,73972,73946
 5.0000e-001 73998 -3.5816e+000  1.9784e+001  5.7757e-001 67598 73894,73972,73920
 5.0000e-001 74271 -2.0147e+000  1.6990e+001 -1.7719e+000 67286 74072,74176,74150
 5.0000e-001 74248  2.8274e+000  1.4370e+001 -3.1025e+000 67286 74046,74176,74072
 5.0000e-001 74225  3.1750e+000  1.8674e+001  2.2418e+000 67286 74072,74150,74098
 5.0000e-001 74202  4.7417e+000  2.1202e+001  4.4393e+000 67286 74098,74150,74124
 5.0000e-001 74374  9.6626e-001  1.3271e+001  1.0105e+001 67088 74296,74348,74322
 5.0000e-001 74646 -5.0369e+000  1.5403e+001 -6.4589e+000 66890 74421,74525,74447
 5.0000e-001 74623  2.3233e-001  1.8699e+001 -2.2838e+000 66890 74421,74551,74525
 5.0000e-001 74600  1.7159e+000  2.9828e+001 -4.5648e+000 66890 74447,74525,74473
 5.0000e-001 74577 -1.0654e+001  1.9429e+001  8.6533e-001 66890 74473,74525,74499
 5.0000e-001 75254  6.7568e-001  7.7799e+000 -3.1842e+000 66528 74885,75067,75041
 5.0000e-001 75231  4.6823e+000  4.8929e+000 -4.4167e+000 66528 74859,75067,74885
 5.0000e-001 75208  2.9616e+000  2.3348e+001 -1.7018e+000 66528 74937,75015,74963
 5.0000e-001 75185 -9.1272e+000  8.6802e+000 -7.8027e+000 66528 74911,75015,74937
 5.0000e-001 75162  1.6650e+000  1.5683e+001 -4.7578e+000 66528 74911,75041,75015
 5.0000e-001 75139 -6.1269e-002  6.2637e+000 -3.9091e+000 66528 74885,75041,74911
 5.0000e-001 75116  1.1266e+000  5.3559e+000 -3.9044e+000 66528 74833,75067,74859
 5.0000e-001 75093 -2.2654e+000  3.0131e+001  1.3412e+000 66528 74963,75015,74989
 5.0000e-001 75453  1.3368e+000  1.4201e+001  3.2215e+000 66238 75303,75381,75355
 5.0000e-001 75430 -4.8343e+000  1.3911e+001  5.3004e+000 66238 75277,75381,75303
 5.0000e-001 75407  3.3742e+000  7.0390e+000  5.8615e+000 66238 75303,75355,75329
 5.0000e-001 75701  1.4038e+001  5.1419e+001  6.7594e+000 65834 75528,75606,75580
 5.0000e-001 75678  3.4992e-002  4.9362e+001  5.5363e-001 65834 75502,75606,75528
 5.0000e-001 75655  1.5255e+001  6.5246e+001  2.0387e+001 65834 75528,75580,75554
 5.0000e-001 75632  1.4757e+001  5.7327e+001  5.3968e+000 65834 75476,75606,75502
 5.0000e-001 75902 -3.0392e+000  1.8017e+001 -4.8337e+000 65636 75726,75804,75752
 5.0000e-001 75879  8.0593e+000  2.3287e+001 -6.3686e+000 65636 75726,75830,75804
 5.0000e-001 75856  2.2711e+001  2.2456e+001 -6.1985e+000 65636 75752,75804,75778
 5.0000e-001 76103 -9.5111e+000  1.4334e+001 -7.4138e-001 65296 76126,75979,75953
 5.0000e-001 76080 -1.3339e+001  1.9392e+001  2.4250e+000 65296 76126,75953,75927
 5.0000e-001 76057 -2.2005e+000  3.3623e+001 -1.0807e+001 65296 76198,76005,75979
 5.0000e-001 76152 -3.3329e+000  2.4980e+001 -3.3890e+000 65296 76198,75979,76126
 5.0000e-001 76175 -1.1787e+001  2.3343e+001  2.2720e+000 65296 76031,76126,75927
 5.0000e-001 76224 -1.4631e+001  2.0814e+001 -5.6410e+000 65296 76031,76005,76198
 5.0000e-001 76247 -1.4148e+001  1.5960e+001  1.0054e+000 65296 76031,76198,76126
 5.0000e-001 76602  4.6531e+000  2.4980e+001  1.8717e+000 64892 76377,76481,76403
 5.0000e-001 76579  4.5963e+000  2.3696e+001  1.0737e+000 64892 76377,76507,76481
 5.0000e-001 76556  1.0765e+001  2.5680e+001 -5.7331e-001 64892 76403,76481,76429
 5.0000e-001 76533 -1.4849e+001  1.4233e+001 -4.0488e+000 64892 76429,76481,76455
 5.0000e-001 76801 -1.6014e+001  2.4782e+001  1.5055e+001 64438 76677,76729,76703
 5.0000e-001 76778 -4.1800e+000  3.6074e+001  1.2153e+000 64438 76651,76729,76677
 5.0000e-001 76755 -2.4525e+000  2.6457e+001  5.2558e+000 64438 76625,76729,76651
 5.0000e-001 77230 -8.5820e-001  2.3366e+001 -5.1565e-001 63920 77253,76959,76933
 5.0000e-001 77207  9.4290e-001  2.3173e+001  2.9304e-001 63920 77253,76933,77063
 5.0000e-001 77184 -3.5856e+000  2.1078e+001 -1.8838e+000 63920 76959,77037,76985
 5.0000e-001 77161 -4.0510e+000  1.9866e+001 -1.6939e+000 63920 76907,77063,76933
 5.0000e-001 77138 -4.5633e-001  2.5356e+001 -3.8260e-001 63920 76985,77037,77011
 5.0000e-001 77115 -5.5857e+000  2.5542e+001 -1.6933e+000 63920 76907,77089,77063
 5.0000e-001 77279  7.1813e-001  2.4010e+001 -1.1422e-001 63920 77037,76959,77253
 5.0000e-001 77302  2.6082e+000  2.3991e+001  7.8184e-001 63920 77037,77253,77063
 5.0000e-001 77680  2.0378e+001  3.8304e+001 -5.1523e-001 63316 77703,77484,77432
 5.0000e-001 77657  1.9411e+001  3.7979e+001 -5.1483e-001 63316 77703,77432,77406
 5.0000e-001 77634  2.9755e+000  3.1232e+001  2.2713e+000 63316 77406,77536,77510
 5.0000e-001 77611  2.4531e+001  3.1489e+001  7.0233e+000 63316 77432,77484,77458
 5.0000e-001 77588  1.0633e+001  3.3487e+001  5.4123e+000 63316 77406,77562,77536
 5.0000e-001 77729  2.1704e+001  3.8099e+001 -1.4578e+000 63316 77510,77484,77703
 5.0000e-001 77752  2.0053e+001  3.7397e+001 -1.4076e+000 63316 77510,77703,77406
 5.0000e-001 78000 -2.9669e+001  1.2420e+001  1.5881e+000 62812 77801,77853,77827
 5.0000e-001 77977 -1.8580e+001  1.1746e+001 -4.0072e+000 62812 77801,77879,77853
 5.0000e-001 77954 -2.5733e+001  1.1022e+001 -1.1100e+001 62812 77801,77905,77879
 5.0000e-001 77931 -9.2163e+000  1.3538e+001 -1.1227e+001 62812 77775,77905,77801
 5.0000e-001 78380  1.7447e+000  1.7934e+001 -2.2211e+000 62350 78184,78262,78236
 5.0000e-001 78357  9.0103e-001  2.9857e+001 -1.2269e+000 62350 78132,78262,78184
 5.0000e-001 78334 -4.9964e-001  2.8765e+001 -8.0258e+000 62350 78106,78262,78132
 5.0000e-001 78311 -1.2406e+001  3.1501e+001  1.0084e+001 62350 78132,78184,78158
 5.0000e-001 78288 -9.0514e+000  1.7903e+001 -3.9350e+000 62350 78184,78236,78210
 5.0000e-001 78837  5.4011e+000  3.0905e+001 -4.8344e+000 61946 78615,78667,78641
 5.0000e-001 78814  1.9891e+001  3.8428e+001 -1.9249e+000 61946 78589,78667,78615
 5.0000e-001 78791  1.3304e+001  3.1467e+001  1.2685e+000 61946 78589,78719,78667
 5.0000e-001 78768  1.7896e+001  5.2223e+001  3.2577e+000 61946 78667,78719,78693
 5.0000e-001 78745  1.5787e+001  2.7136e+001 -1.1711e+000 61946 78563,78719,78589
 5.0000e-001 78987 -5.4034e+000  2.4423e+001  8.2330e-001 61335 79010,78886,78860
 5.0000e-001 78964 -2.7441e+000  2.7428e+001 -3.1266e-001 61335 79010,78860,78938
 5.0000e-001 79036  5.7908e-001  2.9312e+001 -2.6736e+000 61335 79082,79010,78912
 5.0000e-001 79059 -3.1210e+000  2.5977e+001 -8.5527e-001 61335 78912,79010,78938
 5.0000e-001 79108 -3.3976e+000  1.9531e+001 -7.7422e-001 61335 78886,79010,79082
 5.0000e-001 79437  3.7349e+000  1.8972e+001 -1.7740e+001 60888 79460,79238,79212
 5.0000e-001 79414 -3.5781e+000  6.4427e+000 -1.2014e+001 60888 79460,79212,79342
 5.0000e-001 79391 -1.0555e+001  1.6736e+001 -1.4464e+001 60888 79532,79264,79238
 5.0000e-001 79368 -1.3039e+001  3.8416e+001  2.0976e+000 60888 79264,79316,79290
 5.0000e-001 79486 -8.7868e+000  1.4365e+001 -1.2520e+001 60888 79532,79238,79460
 5.0000e-001 79509 -3.9875e+000  1.3303e+001 -6.3493e+000 60888 79316,79460,79342
 5.0000e-001 79558 -1.1940e+001  1.7320e+001 -8.6324e+000 60888 79316,79264,79532
 5.0000e-001 79581 -1.3971e+000  1.8782e+001 -7.4600e+000 60888 79316,79532,79460
 5.0000e-001 79878 -1.5820e+001  1.0639e+001 -1.3055e+001 60484 79682,79760,79734
 5.0000e-001 79855 -1.7216e+001  1.1897e+001 -7.7773e+000 60484 79656,79760,79682
 5.0000e-001 79832 -1.1933e+001  1.5627e+001 -6.1454e+000 60484 79604,79760,79656
 5.0000e-001 79809 -1.7211e+001  1.8029e+001 -1.0897e+001 60484 79604,79656,79630
 5.0000e-001 79786 -6.4719e+000  1.0638e+001 -1.1301e+001 60484 79682,79734,79708
 5.0000e-001 80101  2.1246e-001  6.8712e+000 -5.2644e-001 60022 79951,80029,80003
 5.0000e-001 80078 -2.2218e+001  1.8082e+000 -2.1569e+000 60022 79925,80029,79951
 5.0000e-001 80055 -1.9457e+001 -6.0769e-001  1.3928e+000 60022 79951,80003,79977
 5.0000e-001 80351  2.0341e+001  3.6376e+001  6.1399e+000 59625 80152,80256,80204
 5.0000e-001 80328  1.5330e+001  4.5300e+001  1.1769e+001 59625 80126,80256,80152
 5.0000e-001 80305  2.6845e+001  5.0323e+001  3.7601e+000 59625 80204,80256,80230
 5.0000e-001 80282  3.5836e+001  4.2485e+001  2.5007e+000 59625 80152,80204,80178
 5.0000e-001 80552  9.1739e+000  2.8115e+001 -5.4967e+000 59121 80575,80402,80376
 5.0000e-001 80529  8.4350e+000  2.5871e+001 -5.2896e+000 59121 80575,80376,80480
 5.0000e-001 80506  4.3008e+000  3.4031e+001 -8.3100e+000 59121 80428,80480,80454
 5.0000e-001 80601  8.0789e+000  2.9468e+001 -3.9656e+000 59121 80428,80402,80575
 5.0000e-001 80624  7.4472e+000  2.7423e+001 -3.8196e+000 59121 80428,80575,80480
 5.0000e-001 81183  1.6593e+001  2.3711e+001  2.8314e+000 58553 81206,80863,80837
 5.0000e-001 81160  2.6837e+000  2.7407e+001  4.2286e+000 58553 81350,81206,80837
 5.0000e-001 81137  9.3224e+000  1.9601e+001 -2.0377e+000 58553 81278,80915,80863
 5.0000e-001 81114 -7.4397e+000  2.3389e+001  6.9685e+000 58553 81350,80837,80811
 5.0000e-001 81091  6.0497e+000  2.4833e+001 -2.2680e+000 58553 81422,80967,80941
 5.0000e-001 81068  3.2987e+000  2.7020e+001  2.6584e+000 58553 80967,81019,80993
 5.0000e-001 81045  2.2256e+001  1.6668e+001 -8.4900e+000 58553 80863,80915,80889
 5.0000e-001 81232  8.6142e+000  1.8989e+001 -1.7497e+000 58553 81278,80863,81206
 5.0000e-001 81255  6.9313e+000  2.6476e+001 -1.9296e+000 58553 81422,80941,81206
 5.0000e-001 81304  8.6076e+000  2.1981e+001 -3.6099e+000 58553 80941,80915,81278
 5.0000e-001 81327  6.3337e+000  2.0395e+001 -2.9095e+000 58553 80941,81278,81206
 5.0000e-001 81376  1.4648e+000  2.8645e+001 -1.6502e+000 58553 81019,81206,81350
 5.0000e-001 81399 -6.7315e-001  2.7503e+001  1.0300e+000 58553 81019,81350,80811
 5.0000e-001 81448  5.4705e+000  2.6446e+001 -2.8490e+000 58553 81019,80967,81422
 5.0000e-001 81471  5.7267e+000  2.7040e+001 -2.7697e+000 58553 81019,81422,81206
 5.0000e-001 81768  1.0448e+000  2.3763e+001 -3.3317e+000 57877 81791,81572,81520
 5.0000e-001 81745  6.6406e+000  2.6387e+001 -1.0696e+001 57877 81791,81520,81494
 5.0000e-001 81722 -8.6345e+000  2.3443e+001 -3.5136e+000 57877 81863,81650,81598
 5.0000e-001 81699 -5.3159e+000  2.8918e+001 -1.1133e+001 57877 81598,81650,81624
 5.0000e-001 81676 -7.5523e+000  2.6362e+001 -1.4519e+000 57877 81520,81572,81546
 5.0000e-001 81817 -9.6947e-001  1.8671e+001 -3.3999e+000 57877 81598,81572,81791
 5.0000e-001 81840 -6.5805e+000  2.3477e+001 -4.9921e+000 57877 81863,81598,81791
 5.0000e-001 81889 -3.0031e+000  1.3016e+001 -1.0623e+000 57877 81494,81650,81863
 5.0000e-001 81912  3.6587e+000  1.8650e+001 -4.6127e+000 57877 81494,81863,81791
 5.0000e-001 82160  1.1309e+001  2.9803e+001  1.1822e+001 57473 81935,82039,82013
 5.0000e-001 82137  3.0762e+001  3.8163e+001  8.0578e+000 57473 81935,82065,82039
 5.0000e-001 82114  1.0547e+001  3.6520e+001  1.5570e+001 57473 81935,82013,81961
 5.0000e-001 82091  1.7800e+001  2.6101e+001  1.8632e+001 57473 81961,82013,81987
 5.0000e-001 82719  2.6187e+000  2.4769e+001  1.0901e+000 56962 82814,82742,82425
 5.0000e-001 82696  1.6503e+000  2.1031e+001  3.0156e+000 56962 82742,82347,82555
 5.0000e-001 82673  3.7133e+000  2.6708e+001  4.1262e-001 56962 82814,82425,82399
 5.0000e-001 82650  1.4286e+000  2.6206e+001  2.3604e+000 56962 82425,82477,82451
 5.0000e-001 82627  5.8307e+000  2.7993e+001  2.2953e+000 56962 82425,82529,82477
 5.0000e-001 82604  4.2438e+000  3.8947e+001  7.4316e+000 56962 82477,82529,82503
 5.0000e-001 82581  6.6538e+000  2.5719e+001 -3.1379e-001 56962 82347,82399,82373
 5.0000e-001 82768  2.4855e+000  2.3366e+001  6.2161e-001 56962 82529,82425,82742
 5.0000e-001 82791  1.5505e+000  2.4014e+001  1.1072e+000 56962 82529,82742,82555
 5.0000e-001 82840  4.0335e+000  2.2422e+001  1.6632e+000 56962 82347,82742,82814
 5.0000e-001 82863  4.3463e+000  2.3700e+001  1.2859e+000 56962 82347,82814,82399
 5.0000e-001 83467 -1.0330e+001  1.9898e+001 -1.0271e+001 56300 83124,83176,83150
 5.0000e-001 83444 -1.1742e+000  1.8435e+001 -2.1236e+000 56300 83490,83176,83124
 5.0000e-001 83421 -4.3431e-001  2.1208e+001 -7.5311e-001 56300 83490,83124,83280
 5.0000e-001 83398  1.8065e+000  2.0440e+001  1.2827e+000 56300 83202,83280,83254
 5.0000e-001 83375  2.1481e+000  2.5655e+001  6.4074e-001 56300 83046,83280,83124
 5.0000e-001 83352  1.1527e+000  2.6818e+001  1.5540e+000 56300 83046,83124,83098
 5.0000e-001 83329  1.9521e+000  3.0774e+001  2.1091e+000 56300 83202,83254,83228
 5.0000e-001 83306  4.2760e+000  3.9067e+001  9.0600e-001 56300 83046,83098,83072
 5.0000e-001 83516 -6.7888e-001  2.2361e+001 -1.7514e+000 56300 83202,83176,83490
 5.0000e-001 83539 -1.0591e+000  2.2947e+001 -8.7071e-002 56300 83202,83490,83280
 5.0000e-001 83787 -1.6774e-001  2.1052e+001  1.1589e+000 55960 83588,83692,83666
 5.0000e-001 83764 -7.9471e+000  4.2179e+001  1.0668e+001 55960 83562,83692,83588
 5.0000e-001 83741  1.8474e+001  2.6926e+001  1.1705e+000 55960 83588,83666,83614
 5.0000e-001 83718  4.5378e+000  2.1339e+001 -1.1953e+000 55960 83614,83666,83640
 5.0000e-001 83937 -4.7109e+000  2.2430e+001  1.1974e+000 55499 83810,83862,83836
 5.0000e-001 83914 -4.4923e-001  2.3307e+001  3.1883e-001 55499 83810,83888,83862
 5.0000e-001 84138  1.3360e+000  1.8038e+001 -5.5044e+000 55152 83988,84066,84040
 5.0000e-001 84115  8.8576e+000  3.7655e+001 -2.3223e+000 55152 83962,84066,83988
 5.0000e-001 84092  8.5762e+000  2.9742e+001 -1.4520e+000 55152 83988,84040,84014
 5.0000e-001 84471 -2.2687e+000  3.0607e+001 -4.0488e+000 54648 84324,84376,84350
 5.0000e-001 84448 -1.0631e+001  1.6655e+001 -4.7069e-001 54648 84272,84376,84324
 5.0000e-001 84425 -1.1251e+001  9.4171e+000  1.7609e+000 54648 84246,84376,84272
 5.0000e-001 84402 -1.0417e+001  1.5724e+001 -4.5838e+000 54648 84272,84324,84298
 5.0000e-001 84849  9.7821e+000  1.8648e+001 -2.1225e+000 53922 84627,84731,84705
 5.0000e-001 84826  1.4189e+001  1.5824e+001  2.0331e-001 53922 84575,84731,84627
 5.0000e-001 84803  1.9589e+001  1.9546e+001 -1.0317e+001 53922 84575,84627,84601
 5.0000e-001 84780  8.0700e+000  1.9066e+001 -4.9906e+000 53922 84627,84705,84653
 5.0000e-001 84757  1.0392e+001  2.9464e+001 -2.8562e+000 53922 84653,84705,84679
 5.0000e-001 85581 -3.2637e+000  1.3244e+001 -4.8234e+000 53582 85604,85111,85319
 5.0000e-001 85558  1.3110e+001  1.6869e+001 -6.3045e+000 53582 85111,85345,85319
 5.0000e-001 85535  6.1458e+000  1.6832e+001 -5.8180e+000 53582 85604,85319,85293
 5.0000e-001 85512 -1.2369e+001  1.3422e+001  6.9322e+000 53582 85241,85293,85267
 5.0000e-001 85489 -8.4326e+000  1.9445e+001  2.3779e+000 53582 85676,85241,85189
 5.0000e-001 85466 -4.2701e+000  1.9360e+001 -2.1080e+000 53582 85676,85189,85137
 5.0000e-001 85443 -9.0090e+000  2.7786e+001  2.0744e+000 53582 85189,85241,85215
 5.0000e-001 85420 -6.7422e+000  3.0254e+001 -4.6303e+000 53582 85137,85189,85163
 5.0000e-001 85397  8.2331e+000  2.1905e+001 -9.6457e+000 53582 85111,85371,85345
 5.0000e-001 85630 -5.7112e+000  1.3093e+001  1.2263e+000 53582 85137,85111,85604
 5.0000e-001 85653  1.2675e+000  1.7687e+001  1.3148e+000 53582 85748,85604,85293
 5.0000e-001 85702 -1.1217e+001  1.2650e+001  7.3077e+000 53582 85293,85241,85676
 5.0000e-001 85725 -2.0945e+000  1.9409e+001  2.0493e+000 53582 85748,85293,85676
 5.0000e-001 85774 -3.7559e+000  1.5835e+001 -3.4478e-001 53582 85137,85604,85748
 5.0000e-001 85797 -6.0353e+000  1.8350e+001  3.8813e-001 53582 85137,85748,85676
 5.0000e-001 86303  7.1312e+000  1.5523e+001 -5.8326e+000 53178 86326,86084,86006
 5.0000e-001 86280  5.5931e+000  1.6962e+001 -5.1752e+000 53178 86326,86006,86162
 5.0000e-001 86257  7.1442e+000  1.6480e+001 -1.0503e+001 53178 86398,86110,86084
 5.0000e-001 86234  9.8828e-001  1.1563e+001 -4.7224e+000 53178 86006,86058,86032
 5.0000e-001 86211  4.6734e+000  1.0436e+001 -6.6549e+000 53178 86006,86084,86058
 5.0000e-001 86188  1.8497e+000  1.4543e+001 -2.6811e+000 53178 85980,86162,86006
 5.0000e-001 86352  4.6774e+000  1.3585e+001 -6.6830e+000 53178 86398,86084,86326
 5.0000e-001 86375  5.1001e-001  1.7046e+001 -6.3001e+000 53178 86136,86326,86162
 5.0000e-001 86424  7.5847e+000  1.8811e+001 -1.1760e+001 53178 86136,86110,86398
 5.0000e-001 86447  7.4324e+000  2.0992e+001 -7.9884e+000 53178 86136,86398,86326
 5.0000e-001 86904  5.5702e+000  2.8607e+001  5.6972e-001 52774 86708,86760,86734
 5.0000e-001 86881  3.6310e+000  1.9858e+001 -8.9813e-001 52774 86656,86760,86708
 5.0000e-001 86858  7.3217e+000  2.0939e+001 -8.8252e-001 52774 86656,86708,86682
 5.0000e-001 86835  9.5264e+000  2.1155e+001  6.9685e-001 52774 86630,86760,86656
 5.0000e-001 86812  3.8295e+000  1.9022e+001  3.4150e-001 52774 86630,86786,86760
 5.0000e-001 87489  4.7850e+000  3.0246e+001  5.3954e+000 52234 87512,87218,87192
 5.0000e-001 87466  1.7465e+000  2.4733e+001  6.0898e-001 52234 87512,87192,87348
 5.0000e-001 87443 -3.7145e+000  2.0309e+001 -1.9042e+000 52234 87166,87348,87192
 5.0000e-001 87420 -3.0347e+000  1.8736e+001 -4.1406e-001 52234 87296,87348,87322
 5.0000e-001 87397  2.0143e+000  1.4396e+001  1.0658e+000 52234 87218,87296,87270
 5.0000e-001 87374  6.0487e+000  1.3987e+001  2.4581e+000 52234 87218,87270,87244
 5.0000e-001 87538  1.2925e+000  2.1455e+001  2.9451e+000 52234 87296,87218,87512
 5.0000e-001 87561  8.0135e-001  2.1507e+001 -1.8002e+000 52234 87296,87512,87348
 5.0000e-001 87841  6.6960e+000  2.7654e+001  2.8681e+000 51830 87665,87743,87691
 5.0000e-001 87818 -2.7809e+000  2.2245e+001 -5.8317e-001 51830 87665,87769,87743
 5.0000e-001 87795 -4.7631e+000  1.5473e+001 -2.0507e+000 51830 87864,87691,87743
 5.0000e-001 87890 -1.0348e+001  1.3079e+001 -2.2970e+000 51830 87717,87691,87864
 5.0000e-001 88418  1.8218e+000  2.3558e+001 -1.0850e+000 51262 88095,88173,88121
 5.0000e-001 88395  3.0273e+000  2.4897e+001 -5.3608e-001 51262 88095,88251,88173
 5.0000e-001 88372 -1.0120e+001  1.6510e+001 -6.7123e+000 51262 88173,88251,88199
 5.0000e-001 88349  3.7102e+000  3.5394e+001  1.7752e+000 51262 88095,88277,88251
 5.0000e-001 88326  3.9474e+000  3.9187e+001 -2.8894e-001 51262 88199,88251,88225
 5.0000e-001 88303  2.6549e+000  2.1425e+001 -2.2459e+000 51262 88121,88173,88147
 5.0000e-001 88875 -8.9841e+000  1.2357e+001 -2.2484e+000 50750 88601,88731,88627
 5.0000e-001 88852 -1.1370e+001  2.4060e+001 -4.6069e+000 50750 88601,88757,88731
 5.0000e-001 88829  6.1209e+000  2.3483e+001  5.0660e+000 50750 88627,88731,88653
 5.0000e-001 88806  3.3257e+000  1.6659e+001  4.7059e+000 50750 88653,88731,88705
 5.0000e-001 88783 -2.5671e+000  1.1393e+001 -1.0769e+000 50750 88653,88705,88679
 5.0000e-001 89145  3.5066e+000  3.3872e+001 -4.4394e-001 50438 88946,89024,88972
 5.0000e-001 89122  8.3089e+000  3.0627e+001 -8.9727e-001 50438 88946,89050,89024
 5.0000e-001 89099 -3.2890e+000  2.2268e+001 -4.5456e+000 50438 88920,89050,88946
 5.0000e-001 89076  1.3485e+000  2.7340e+001 -1.2347e+001 50438 88972,89024,88998
 5.0000e-001 89525 -1.4662e+000  2.4447e+001 -1.6737e+000 49934 89548,89277,89251
 5.0000e-001 89502  1.6346e+000  2.2009e+001 -3.4293e+000 49934 89548,89251,89381
 5.0000e-001 89479  1.0561e+001  1.9099e+001 -3.0718e-001 49934 89303,89381,89329
 5.0000e-001 89456  5.5830e+000  2.8045e+001 -8.9389e+000 49934 89251,89407,89381
 5.0000e-001 89433  1.8257e+001  1.9153e+001 -6.5380e+000 49934 89329,89381,89355
 5.0000e-001 89574  1.0904e+001  4.2579e+001  3.7041e+000 49934 89303,89277,89548
 5.0000e-001 89597  1.2364e+000  2.3736e+001 -2.2674e+000 49934 89303,89548,89381
 5.0000e-001 90054  5.8781e+000  2.1795e+001 -3.9367e+000 49380 89832,89936,89910
 5.0000e-001 90031  9.2151e+000  2.2608e+001 -1.8492e-001 49380 89780,89936,89832
 5.0000e-001 90008  1.8330e+001  3.3188e+001 -4.0560e+000 49380 89780,89832,89806
 5.0000e-001 89985  8.0112e+000  1.5714e+001 -6.3175e+000 49380 89832,89910,89858
 5.0000e-001 89962  1.8284e+001  4.3718e+001 -2.9877e+000 49380 89858,89910,89884
 5.0000e-001 90560  1.8145e+001  3.2403e+001  3.3862e+000 48890 90289,90341,90315
 5.0000e-001 90537  1.2272e+001  2.9812e+001  6.6229e-001 48890 90289,90393,90341
 5.0000e-001 90514  1.8190e+000  2.7626e+001 -2.7722e+000 48890 90263,90393,90289
 5.0000e-001 90491  9.0368e+000  3.3932e+001 -1.2238e+001 48890 90237,90393,90263
 5.0000e-001 90468  2.1959e+001  4.4004e+001 -3.5926e+000 48890 90341,90393,90367
 5.0000e-001 90445  1.6062e+001  3.2138e+001 -5.9388e+000 48890 90237,90419,90393
 5.0000e-001 91115  1.3309e+001  3.3677e+001 -4.8211e+000 48486 90795,90873,90847
 5.0000e-001 91092  7.3411e+000  3.5830e+001 -6.5041e+000 48486 90795,90925,90873
 5.0000e-001 91069 -3.2249e+000  3.4893e+001 -2.6035e+000 48486 90769,90925,90795
 5.0000e-001 91046 -1.2846e+001  3.2581e+001 -2.0636e+000 48486 90769,90951,90925
 5.0000e-001 91023  1.0025e+001  3.0040e+001 -7.7157e-001 48486 90795,90847,90821
 5.0000e-001 91000  6.2133e+000  2.5937e+001 -1.5293e+001 48486 90873,90925,90899
 5.0000e-001 90977  2.2120e+000  4.0376e+001  1.1100e+000 48486 90743,90951,90769
 5.0000e-001 91265  2.3018e+001  5.4862e+001 -6.8560e+000 48082 91288,91190,91164
 5.0000e-001 91242  1.6076e+001  3.9264e+001 -8.3108e+000 48082 91360,91288,91164
 5.0000e-001 91314  2.1621e+001  4.7631e+001 -1.9860e+000 48082 91216,91190,91288
 5.0000e-001 91337  2.3505e+001  4.8908e+001 -1.1288e+000 48082 91216,91288,91138
 5.0000e-001 91386  2.4803e+001  4.8827e+001 -1.1824e+000 48082 91138,91288,91360
 5.0000e-001 92022 -4.7609e+000  1.2587e+001 -1.8871e+000 47514 92261,92045,91754
 5.0000e-001 91999  1.6660e+000  1.3255e+001 -4.6478e+000 47514 92189,92045,91702
 5.0000e-001 91976  2.3145e+000  1.9497e+001 -9.4985e-001 47514 92117,91806,91754
 5.0000e-001 91953  1.5171e+000  8.6998e+000 -3.6528e-001 47514 92189,91702,91650
 5.0000e-001 91930 -1.3664e+001  1.9446e+001 -5.9639e+000 47514 92261,91754,91728
 5.0000e-001 91907 -5.4143e-001  2.4124e+001 -7.9328e-001 47514 91754,91806,91780
 5.0000e-001 91884  7.2256e+000  6.9902e+000 -2.4023e+000 47514 91650,91702,91676
 5.0000e-001 92071  4.0124e-001  1.5819e+001 -4.2142e+000 47514 92117,91754,92045
 5.0000e-001 92094 -5.0605e+000  6.5233e+000 -2.3920e+000 47514 91832,92045,91858
 5.0000e-001 92143  5.7235e+000  2.1623e+001  4.1788e+000 47514 91832,91806,92117
 5.0000e-001 92166  4.3450e+000  1.4091e+001  9.9456e-001 47514 91832,92117,92045
 5.0000e-001 92215 -3.5900e+000  9.3484e+000 -2.9205e+000 47514 91858,92045,92189
 5.0000e-001 92238 -1.1508e+000  6.7664e+000  6.8121e-001 47514 91858,92189,91650
 5.0000e-001 92287 -8.6651e+000  5.2455e+000 -8.5921e+000 47514 91702,92045,92261
 5.0000e-001 92310 -1.6141e+001  9.3737e+000 -1.3371e+001 47514 91702,92261,91728
 5.0000e-001 92460 -1.2011e+001 -5.2421e-001 -4.8173e+000 47124 92483,92359,92333
 5.0000e-001 92437 -9.9512e+000 -3.1434e+000 -7.5025e+000 47124 92555,92483,92333
 5.0000e-001 92509 -9.9735e+000 -4.7399e+000 -7.9261e+000 47124 92685,92483,92385
 5.0000e-001 92532 -9.3826e+000  1.0187e+000 -6.8532e+000 47124 92385,92483,92411
 5.0000e-001 92581  1.9606e+000  6.2407e+000 -3.1827e+000 47124 92411,92483,92555
 5.0000e-001 92711  1.2048e+000  5.3762e+000 -3.6349e+000 47124 92359,92483,92685
 5.0000e-001 93571  3.4753e+000  2.1366e+001  1.6554e+000 46834 93594,93208,93104
 5.0000e-001 93548 -9.2968e+000  1.5839e+001  2.1770e+000 46834 93738,93594,93104
 5.0000e-001 93525 -5.4175e+000  2.0743e+000 -1.1250e+001 46834 93666,93234,93208
 5.0000e-001 93502 -1.3397e+001  1.6227e+001  2.6511e+000 46834 93738,93104,93078
 5.0000e-001 93479 -5.5164e-001  2.5178e+001 -1.2355e+001 46834 93810,93260,93234
 5.0000e-001 93456  7.2311e+000  1.1019e+001  5.8871e+000 46834 93104,93182,93156
 5.0000e-001 93433  3.7924e+000  1.2468e+001  1.2938e+000 46834 93104,93208,93182
 5.0000e-001 93410 -1.1150e+001  2.7759e+001  3.3134e-001 46834 93286,93338,93312
 5.0000e-001 93387 -1.7097e+001  1.5452e+001  8.5888e-001 46834 93052,93338,93078
 5.0000e-001 93364  9.2792e+000  1.5245e+001  6.5356e+000 46834 93104,93156,93130
 5.0000e-001 93620 -4.3635e+000  1.5745e+001 -4.6001e+000 46834 93666,93208,93594
 5.0000e-001 93643 -5.0158e+000  2.4411e+001 -1.0190e+000 46834 93286,93594,93338
 5.0000e-001 93692  4.1371e-001  2.1026e+001 -9.7785e+000 46834 93810,93234,93666
 5.0000e-001 93715 -6.3724e+000  2.3443e+001 -4.4231e+000 46834 93286,93666,93594
 5.0000e-001 93764 -6.5354e+000  1.6702e+001  1.2574e+000 46834 93338,93594,93738
 5.0000e-001 93787 -8.2351e+000  1.8834e+001  1.4201e+000 46834 93338,93738,93078
 5.0000e-001 93836 -5.5569e+000  2.1167e+001 -7.6439e+000 46834 93286,93260,93810
 5.0000e-001 93859 -3.9341e+000  1.7747e+001 -5.1341e+000 46834 93286,93810,93666
 5.0000e-001 94210  1.3582e+001  3.9920e+001  1.8679e+000 46472 94011,94115,94089
 5.0000e-001 94187  1.3316e+001  4.5269e+001  9.4952e-001 46472 93985,94115,94011
 5.0000e-001 94164 -9.9605e+000  3.3328e+001 -5.1953e-001 46472 94037,94089,94063
 5.0000e-001 94141 -7.5386e+000  3.0411e+001  3.8241e+000 46472 94011,94089,94037
 5.0000e-001 94746  1.2254e+001  1.7238e+001 -2.5858e+000 46068 94576,94628,94602
 5.0000e-001 94723  1.1606e+001  1.7250e+001 -4.0809e+000 46068 94498,94628,94576
 5.0000e-001 94700  1.7782e+001  2.9559e+001 -6.4162e+000 46068 94472,94628,94498
 5.0000e-001 94677  1.3286e+001  1.4520e+001 -3.0597e+000 46068 94524,94576,94550
 5.0000e-001 94654  1.3927e+001  1.6685e+001 -3.1289e+000 46068 94498,94576,94524
 5.0000e-001 95380  1.3344e+001  3.6227e+001 -5.5178e+000 45342 95034,95112,95086
 5.0000e-001 95357  1.1446e+001  2.9429e+001 -2.0737e+000 45342 95034,95190,95112
 5.0000e-001 95334  6.3162e+000  3.6438e+001  1.1901e+000 45342 95403,95164,95138
 5.0000e-001 95311  1.1236e+001  4.1340e+001 -9.6533e-001 45342 95403,95138,95112
 5.0000e-001 95288  1.2199e+001  2.9874e+001 -1.8849e+000 45342 95034,95216,95190
 5.0000e-001 95265  9.4188e+000  4.1647e+001 -1.9736e+000 45342 95034,95086,95060
 5.0000e-001 95242  1.9573e+001  4.7139e+001 -1.9131e+000 45342 95008,95216,95034
 5.0000e-001 95429  1.1286e+001  3.3630e+001  9.4154e-001 45342 95190,95164,95403
 5.0000e-001 95452  1.3769e+001  3.5518e+001 -3.6384e-002 45342 95190,95403,95112
 5.0000e-001 96007  5.4069e+000  3.5696e+001  3.9571e+000 44716 96030,95791,95765
 5.0000e-001 95984  6.8880e+000  2.5424e+001  5.3412e+000 44716 96030,95765,95713
 5.0000e-001 95961  5.9954e+000  3.5404e+001  6.9159e+000 44716 96174,96102,95661
 5.0000e-001 95938  6.7579e+000  3.2569e+001  6.3872e+000 44716 96174,95661,95635
 5.0000e-001 95915  1.1281e+001  4.0865e+001  4.5234e+000 44716 95661,95713,95687
 5.0000e-001 95892  6.0976e+000  2.6461e+001  8.3778e+000 44716 95713,95765,95739
 5.0000e-001 95869  5.6693e+000  2.9723e+001  6.4876e+000 44716 95635,95843,95817
 5.0000e-001 96056  7.6123e+000  4.9210e+001  9.3205e+000 44716 95817,95791,96030
 5.0000e-001 96079  3.6012e+000  3.4297e+001  6.5679e+000 44716 96102,95817,96030
 5.0000e-001 96128  6.0262e+000  3.5356e+001  6.8122e+000 44716 95713,95661,96102
 5.0000e-001 96151  7.1175e+000  3.6459e+001  5.0370e+000 44716 95713,96102,96030
 5.0000e-001 96200  4.6477e+000  3.1668e+001  7.4523e+000 44716 95817,96102,96174
 5.0000e-001 96223  6.1276e+000  2.9964e+001  6.4001e+000 44716 95817,96174,95635
 5.0000e-001 96680  5.1331e+000  2.3495e+001  1.4219e-002 44198 96775,96703,96458
 5.0000e-001 96657  5.9070e+000  2.3087e+001 -5.7420e+000 44198 96703,96406,96562
 5.0000e-001 96634 -3.3637e+000  2.7392e+001 -6.0866e-001 44198 96775,96458,96432
 5.0000e-001 96611  8.8939e+000  3.8291e+001  7.6480e+000 44198 96484,96536,96510
 5.0000e-001 96588  1.0844e+001  2.5973e+001  5.2373e+000 44198 96458,96536,96484
 5.0000e-001 96729  2.3911e+000  1.8768e+001  1.2319e+000 44198 96536,96458,96703
 5.0000e-001 96752  4.6551e+000  1.7980e+001 -2.1239e+000 44198 96536,96703,96562
 5.0000e-001 96801 -3.4335e+000  1.8004e+001 -2.9298e+000 44198 96406,96703,96775
 5.0000e-001 96824 -9.7783e+000  2.4516e+001 -2.1756e+000 44198 96406,96775,96432
 5.0000e-001 97202  6.7971e+000  6.7542e+000  6.6480e+000 43750 97225,96980,96928
 5.0000e-001 97179  6.2314e+000  1.1777e+000  1.0021e+001 43750 97225,96928,97084
 5.0000e-001 97156  6.0059e+000  1.9255e+001  8.1732e+000 43750 96928,96980,96954
 5.0000e-001 97133  1.0561e+001  1.3920e+001  2.0870e+000 43750 97006,97084,97058
 5.0000e-001 97110  2.1393e+001  1.0968e+001  2.4958e+000 43750 97006,97058,97032
 5.0000e-001 97251  8.8736e+000  1.6836e+001  2.5921e+000 43750 97006,96980,97225
 5.0000e-001 97274  4.5194e+000  7.2228e+000  6.6396e+000 43750 97006,97225,97084
 5.0000e-001 97522  3.6959e+000  3.6723e+001 -2.9837e+000 43360 97545,97375,97349
 5.0000e-001 97499 -2.0260e+000  2.9132e+001 -6.3248e+000 43360 97545,97349,97323
 5.0000e-001 97476  5.0079e+000  2.6710e+001 -7.4243e+000 43360 97617,97427,97401
 5.0000e-001 97453  3.6351e-001  9.4468e+000 -1.6669e+001 43360 97297,97427,97323
 5.0000e-001 97571  3.6975e+000  2.5864e+001 -2.4318e+000 43360 97401,97375,97545
 5.0000e-001 97594  4.7531e+000  2.5003e+001 -6.2481e+000 43360 97617,97401,97545
 5.0000e-001 97643  5.8060e+000  2.8784e+001 -8.3368e+000 43360 97323,97427,97617
 5.0000e-001 97666  5.7079e+000  2.7987e+001 -7.0068e+000 43360 97323,97617,97545
 5.0000e-001 98019  9.6242e+000  2.3006e+001 -9.3652e-001 42956 97794,97898,97820
 5.0000e-001 97996  9.0951e-001  1.4562e+001  2.5250e+000 42956 97794,97924,97898
 5.0000e-001 97973 -8.1306e+000  1.7655e+001 -2.2909e-001 42956 97820,97872,97846
 5.0000e-001 97950 -5.8945e+000  1.9086e+001 -1.3231e+000 42956 97820,97898,97872
 5.0000e-001 98446  1.6869e+001  2.7459e+001 -3.9083e+000 42559 98149,98305,98279
 5.0000e-001 98423  2.1850e+001  3.0885e+001 -2.2618e+000 42559 98123,98305,98149
 5.0000e-001 98400  1.2638e+001  2.5009e+001 -4.3530e+000 42559 98469,98175,98149
 5.0000e-001 98377  1.8022e+001  3.7484e+001 -7.0263e+000 42559 98469,98149,98279
 5.0000e-001 98354  1.3174e+001  3.7290e+001 -8.8541e+000 42559 98175,98253,98227
 5.0000e-001 98331  1.5442e+001  4.1050e+001 -1.1484e+001 42559 98175,98227,98201
 5.0000e-001 98495  1.6001e+001  3.3306e+001 -1.0553e+001 42559 98253,98175,98469
 5.0000e-001 98518  1.7439e+001  3.7826e+001 -1.3135e+001 42559 98253,98469,98279
 5.0000e-001 98847  1.0895e+001  2.3502e+001 -4.6632e+000 42247 98674,98752,98700
 5.0000e-001 98824  7.1669e+000  2.3163e+001 -2.3272e+000 42247 98648,98752,98674
 5.0000e-001 98801  4.8973e+000  1.7676e+001 -3.8433e+000 42247 98622,98752,98648
 5.0000e-001 98778 -2.5932e+000  1.3835e+001  2.5133e+000 42247 98700,98752,98726
 5.0000e-001 99117  5.4869e+000  1.0988e+001 -2.8094e+000 41843 98892,98996,98918
 5.0000e-001 99094 -3.7702e+000  1.6940e+001 -8.4658e+000 41843 98892,99022,98996
 5.0000e-001 99071  1.7654e+001  2.8747e+001  2.5102e+000 41843 98918,98996,98970
 5.0000e-001 99048  6.6283e+000  2.6023e+001  4.0307e-001 41843 98918,98970,98944
 5.0000e-001 99625  9.4250e+000  3.8503e+001  1.0011e+001 41232 99648,99380,99354
 5.0000e-001 99602  4.3024e-001  2.7622e+001  3.0407e+000 41232 99648,99354,99328
 5.0000e-001 99579  4.0143e+000  2.4003e+001  4.4934e+000 41232 99720,99432,99380
 5.0000e-001 99556 -4.8302e+000  2.0335e+001  4.1732e+000 41232 99380,99432,99406
 5.0000e-001 99533 -9.6966e+000  2.0050e+001 -9.4433e-001 41232 99328,99484,99458
 5.0000e-001 99510 -1.5227e+001  2.5649e+001  3.1944e+000 41232 99302,99484,99328
 5.0000e-001 99674  1.5613e+000  2.5611e+001  4.2782e+000 41232 99720,99380,99648
 5.0000e-001 99697  2.4926e+000  2.2189e+001 -8.7582e-001 41232 99458,99648,99328
 5.0000e-001 99746  4.8186e+000  2.5614e+001  3.5822e+000 41232 99458,99432,99720
 5.0000e-001 99769  4.0173e+000  2.8586e+001  2.8682e+000 41232 99458,99720,99648
 5.0000e-001 100275  1.4747e+001  1.6929e+001  6.8944e+000 40728 99952,100004,99978
 5.0000e-001 100252  3.5741e+000  1.4553e+001  1.3659e+000 40728 99952,100030,100004
 5.0000e-001 100229  5.6301e+000  1.8905e+001  5.2015e-001 40728 99952,100134,100030
 5.0000e-001 100206 -2.3552e+000  1.9677e+001 -1.5816e+000 40728 100298,100108,100082
 5.0000e-001 100183  3.6963e-001  1.2645e+001 -3.8963e+000 40728 100298,100082,100030
 5.0000e-001 100160 -1.1779e+001  2.0111e+001 -2.0100e+001 40728 100030,100082,100056
 5.0000e-001 100324 -8.2514e-001  2.4505e+001  5.1215e-001 40728 100134,100108,100298
 5.0000e-001 100347  1.9146e+000  1.6679e+001 -1.4133e+000 40728 100134,100298,100030
 5.0000e-001 100853  6.5864e+000  3.8738e+001 -3.2114e+000 40274 100876,100686,100660
 5.0000e-001 100830  9.4767e+000  3.0413e+001 -2.7702e-001 40274 100948,100876,100660
 5.0000e-001 100807  6.2400e+000  2.9024e+001 -3.4416e+000 40274 100948,100660,100608
 5.0000e-001 100784  9.2943e+000  3.6482e+001  2.3306e+000 40274 101020,100556,100712
 5.0000e-001 100761  7.7191e+000  3.4210e+001  1.4246e+000 40274 100530,100712,100556
 5.0000e-001 100738  2.7486e+000  3.3428e+001 -1.1893e+000 40274 100608,100660,100634
 5.0000e-001 100902  7.6726e+000  5.3545e+001  1.6669e+000 40274 100712,100686,100876
 5.0000e-001 100925  4.3274e+000  3.7176e+001 -1.7070e+000 40274 101020,100712,100876
 5.0000e-001 100974  7.1784e+000  2.7929e+001 -5.3573e+000 40274 100582,100876,100948
 5.0000e-001 100997  5.4017e-001  2.5680e+001 -8.4443e+000 40274 100582,100948,100608
 5.0000e-001 101046  1.5719e+001  3.9156e+001  4.0227e+000 40274 100582,100556,101020
 5.0000e-001 101069  1.1792e+001  3.9391e+001 -7.2417e-001 40274 100582,101020,100876
 5.0000e-001 101496 -2.4282e+000  2.4483e+001  1.3388e+000 39820 101519,101277,101225
 5.0000e-001 101473 -8.6528e+000  1.8406e+001 -1.6455e+000 39820 101519,101225,101199
 5.0000e-001 101450 -4.8205e+000  1.5243e+001  8.3099e-002 39820 101173,101355,101199
 5.0000e-001 101427 -2.2461e+000  1.8965e+001  6.1766e+000 39820 101277,101355,101303
 5.0000e-001 101404 -1.4832e+000  2.1052e+001 -5.2455e+000 39820 101225,101277,101251
 5.0000e-001 101381  4.1414e+000  1.3917e+001  8.7835e+000 39820 101303,101355,101329
 5.0000e-001 101545  6.2412e-001  2.1189e+001  4.0267e+000 39820 101355,101277,101519
 5.0000e-001 101568 -2.2919e+000  1.9807e+001  2.1731e+000 39820 101355,101519,101199
 5.0000e-001 101816  3.2055e+000 -6.5131e-001  6.4185e+000 39066 101839,101695,101643
 5.0000e-001 101793  2.0677e+000  5.8715e+000  4.3881e+000 39066 101839,101643,101591
 5.0000e-001 101770  7.3331e+000 -4.0717e+000  2.3020e+000 39066 101643,101695,101669
 5.0000e-001 101747  1.1432e+001  2.0815e+001  4.0631e-001 39066 101591,101643,101617
 5.0000e-001 101865  2.7410e+000  1.8454e+000  2.5934e+000 39066 101721,101695,101839
 5.0000e-001 101888  3.6735e+000  1.0758e+001  3.5982e-001 39066 101721,101839,101591
 5.0000e-001 102087  3.5623e+000  3.9426e+001 -1.1278e+000 38726 101937,101989,101963
 5.0000e-001 102064 -7.1905e+000  2.7282e+001  3.8548e+000 38726 101937,102015,101989
 5.0000e-001 102041  1.3873e+001  3.5382e+001  4.6886e+000 38726 101911,102015,101937
 5.0000e-001 102337  1.6826e+000  2.5687e+001 -1.2281e+000 38322 102112,102190,102138
 5.0000e-001 102314 -1.0436e+000  2.4651e+001  2.2229e+000 38322 102112,102216,102190
 5.0000e-001 102291  1.0489e+001  2.4892e+001  3.0643e+000 38322 102112,102242,102216
 5.0000e-001 102268 -6.7709e+000  2.5895e+001 -2.3536e+000 38322 102138,102190,102164
 5.0000e-001 102489  1.9969e+001  5.0785e+001  1.9239e+000 38032 102512,102388,102362
 5.0000e-001 102466  1.6188e+001  6.4027e+001 -4.9449e+000 38032 102512,102362,102440
 5.0000e-001 102538  2.1731e+001  3.9715e+001  1.3688e-001 38032 102414,102388,102512
 5.0000e-001 102561  1.4000e+001  4.7139e+001 -9.0081e+000 38032 102414,102512,102440
 5.0000e-001 102894  1.3848e+001  3.3304e+001  6.5345e+000 37592 102669,102773,102695
 5.0000e-001 102871  1.2558e+001  3.2816e+001  6.6197e+000 37592 102669,102799,102773
 5.0000e-001 102848  1.4024e+001  4.4935e+001  8.6494e+000 37592 102721,102773,102747
 5.0000e-001 102825  1.2906e+001  3.5336e+001  6.2967e+000 37592 102695,102773,102721
 5.0000e-001 103093 -3.5232e-001  2.9351e+001 -4.7346e-001 37188 102917,102995,102943
 5.0000e-001 103070 -1.7509e+000  3.1101e+001  2.6113e+000 37188 102917,103021,102995
 5.0000e-001 103047 -1.2978e+000  2.6874e+001  6.4563e-001 37188 102943,102995,102969
 5.0000e-001 103341 -8.5906e+000  2.1642e+001 -1.2607e+000 36605 103142,103194,103168
 5.0000e-001 103318  5.2689e+000  2.6847e+001 -2.2910e+000 36605 103142,103220,103194
 5.0000e-001 103295  1.4763e+000  2.5995e+001 -2.5149e+000 36605 103116,103220,103142
 5.0000e-001 103272 -8.7372e+000  2.5556e+001 -3.3304e+000 36605 103116,103246,103220
 5.0000e-001 103949  1.7800e+001  1.7714e+001  5.2001e+000 36127 103554,103606,103580
 5.0000e-001 103926 -2.1466e+000  2.3059e+001  4.9803e+000 36127 103528,103606,103554
 5.0000e-001 103903 -2.8241e+000  1.4956e+001 -2.1560e+000 36127 103528,103736,103606
 5.0000e-001 103880 -1.0606e+000  2.0057e+001 -3.8272e+000 36127 103972,103710,103632
 5.0000e-001 103857 -5.2088e+000  1.0575e+001 -8.5588e+000 36127 103972,103632,103606
 5.0000e-001 103834  1.6758e+000  2.3649e+001 -2.6355e+000 36127 103632,103710,103658
 5.0000e-001 103811 -2.0230e+001  2.1261e+001 -1.2771e+001 36127 103528,103762,103736
 5.0000e-001 103788  1.0167e+001  3.8480e+001 -9.2955e+000 36127 103658,103710,103684
 5.0000e-001 103998  1.9303e+000  2.7973e+001  3.0945e+000 36127 103736,103710,103972
 5.0000e-001 104021 -2.5593e+000  1.9202e+001 -1.8408e+000 36127 103736,103972,103606
 5.0000e-001 104220  5.9705e+000  3.2334e+001 -2.4364e+000 35787 104070,104148,104122
 5.0000e-001 104197  1.3242e+001  3.2661e+001 -1.0178e+000 35787 104044,104148,104070
 5.0000e-001 104174  2.8268e+000  3.9582e+001 -7.8122e+000 35787 104070,104122,104096
 5.0000e-001 104419  2.3930e+001  4.4240e+001 -3.4625e-002 35440 104269,104321,104295
 5.0000e-001 104396  2.0146e+001  4.4103e+001  2.1629e+000 35440 104269,104347,104321
 5.0000e-001 104373  1.5081e+001  4.0249e+001  2.7642e-001 35440 104243,104347,104269
 5.0000e-001 104718  5.7536e+000  3.1223e+001 -1.6579e+000 34986 104496,104548,104522
 5.0000e-001 104695  3.3439e+000  3.0367e+001 -1.7158e+000 34986 104741,104548,104496
 5.0000e-001 104672  5.5813e+000  2.8787e+001 -2.0335e+000 34986 104741,104496,104444
 5.0000e-001 104649  2.8000e+000  2.9468e+001  5.9333e-002 34986 104813,104574,104548
 5.0000e-001 104626  8.3425e+000  3.5842e+001  1.2367e-001 34986 104444,104496,104470
 5.0000e-001 104767  2.6737e+000  2.9430e+001 -1.4164e+000 34986 104813,104548,104741
 5.0000e-001 104790  4.5606e+000  2.6346e+001 -1.3981e+000 34986 104600,104741,104444
 5.0000e-001 104839  6.7884e+000  3.2936e+001  1.5425e+000 34986 104600,104574,104813
 5.0000e-001 104862  4.5095e+000  3.0221e+001 -6.8179e-001 34986 104600,104813,104741
 5.0000e-001 105014 -1.1787e+000  2.7037e+001 -5.5606e+000 34696 105169,105037,104913
 5.0000e-001 104991 -2.1340e-001  2.4751e+001 -3.3030e+000 34696 105169,104913,104887
 5.0000e-001 105063  1.2618e+001  3.7172e+001 -9.2909e-001 34696 104939,104913,105037
 5.0000e-001 105195 -4.0879e+000  2.6493e+001 -3.9135e+000 34696 104965,105037,105169
 5.0000e-001 105218 -3.1141e+000  2.4590e+001 -1.6840e+000 34696 104965,105169,104887
 5.0000e-001 105368  1.0486e+000  3.9344e+001 -3.2767e+000 34384 105267,105319,105293
 5.0000e-001 105345  5.4988e+000  4.7094e+001 -9.2364e-001 34384 105241,105319,105267
 5.0000e-001 105616 -8.5906e-001  2.8681e+001  8.9724e-001 33730 105639,105417,105391
 5.0000e-001 105593 -5.8883e-001  2.8118e+001  5.6964e-001 33730 105639,105391,105495
 5.0000e-001 105570 -9.2298e-002  3.0049e+001 -1.6690e-001 33730 105391,105521,105495
 5.0000e-001 105547  1.9735e+000  2.7344e+001  6.7475e+000 33730 105417,105469,105443
 5.0000e-001 105665 -6.1150e-001  2.9097e+001  1.1555e+000 33730 105469,105417,105639
 5.0000e-001 105688 -7.5111e-002  2.8378e+001  9.5008e-001 33730 105469,105639,105495
 5.0000e-001 105840  1.8667e+001  4.7657e+001 -2.2485e+000 33390 105713,105765,105739
 5.0000e-001 105817  1.7735e+001  4.6739e+001 -1.7290e+000 33390 105713,105791,105765
 5.0000e-001 106090  7.1046e+000  3.5641e+001  5.1079e-001 33043 106113,105943,105891
 5.0000e-001 106067  2.3946e+000  3.3874e+001  5.3553e-001 33043 106113,105891,105865
 5.0000e-001 106044  1.4845e+001  4.2655e+001 -4.2319e+000 33043 105891,105943,105917
 5.0000e-001 106021 -6.0533e-001  3.4277e+001 -4.2366e+000 33043 105865,105995,105969
 5.0000e-001 106139  1.8374e+001  3.4949e+001 -2.9963e+000 33043 105969,105943,106113
 5.0000e-001 106162  6.7776e+000  2.9986e+001 -3.2385e+000 33043 105969,106113,105865
 5.0000e-001 106412  9.0288e-001  1.8394e+001  3.0182e+000 32539 106435,106291,106239
 5.0000e-001 106389  8.3451e+000  1.5340e+001  4.1941e+000 32539 106187,106317,106291
 5.0000e-001 106366  2.0329e+000  2.1686e+001  3.7103e+000 32539 106435,106239,106213
 5.0000e-001 106343  6.1674e+000  1.9602e+001  4.5643e+000 32539 106239,106291,106265
 5.0000e-001 106461  1.3030e+000  1.7098e+001  1.1088e+000 32539 106187,106291,106435
 5.0000e-001 106484  1.9016e+000  1.9989e+001  1.6255e+000 32539 106187,106435,106213
 5.0000e-001 106685  6.6423e+000  2.9860e+001 -3.6413e+000 31835 106535,106587,106561
 5.0000e-001 106662 -1.7220e+000  2.9857e+001  2.4763e+000 31835 106509,106587,106535
 5.0000e-001 106639  1.2087e+001  3.9131e+001 -1.9380e+000 31835 106509,106613,106587
 5.0000e-001 106935  1.9514e-001  2.5365e+001 -5.3793e-001 31530 106736,106814,106788
 5.0000e-001 106912  6.9957e-001  2.6746e+001  8.6342e-001 31530 106710,106814,106736
 5.0000e-001 106889  2.2017e-001  2.2076e+001  5.0024e-001 31530 106736,106788,106762
 5.0000e-001 106866  3.1739e+000  2.8112e+001  1.6898e-001 31530 106710,106840,106814
 5.0000e-001 107339 -5.2289e+000  2.7243e+001 -5.8795e+000 31026 107117,107221,107195
 5.0000e-001 107316 -2.4491e+000  1.3236e+001 -3.7247e+000 31026 107091,107221,107117
 5.0000e-001 107293  6.3550e-001  1.4619e+001 -3.4292e+000 31026 107065,107221,107091
 5.0000e-001 107270 -1.6451e+001  3.3190e+001  2.8247e+000 31026 107143,107195,107169
 5.0000e-001 107247 -3.1599e+001  1.5574e+001 -7.8499e+000 31026 107117,107195,107143
 5.0000e-001 107538  8.4264e+000  4.1025e+001 -9.9993e-001 30714 107561,107388,107362
 5.0000e-001 107515  1.0087e+001  4.3045e+001 -1.7153e+000 30714 107561,107362,107466
 5.0000e-001 107492  1.0869e+001  3.8543e+001 -4.6973e+000 30714 107414,107466,107440
 5.0000e-001 107587  1.0543e+001  3.7717e+001 -7.6098e-001 30714 107414,107388,107561
 5.0000e-001 107610  1.2538e+001  4.0231e+001 -1.6249e+000 30714 107414,107561,107466
 5.0000e-001 107990  1.1831e+001  2.9901e+001  4.1825e+000 30260 108013,107846,107768
 5.0000e-001 107967  1.3700e+001  3.4410e+001  1.6668e+000 30260 108013,107768,107716
 5.0000e-001 107944  7.4757e+000  3.9046e+001  1.7857e+000 30260 107716,107768,107742
 5.0000e-001 107921  2.0730e+001  3.8399e+001  7.8079e+000 30260 107768,107846,107820
 5.0000e-001 107898  1.9855e+001  3.2918e+001  4.7633e+000 30260 107768,107820,107794
 5.0000e-001 108039  1.3674e+001  3.1904e+001  1.0932e+000 30260 107872,107846,108013
 5.0000e-001 108062  1.4477e+001  3.6329e+001 -1.1616e+000 30260 107872,108013,107716
 5.0000e-001 108261 -1.0522e+000  3.0683e+001  3.5823e+000 29870 108284,108085,108163
 5.0000e-001 108238  9.1031e+000  2.8549e+001  6.1866e+000 29870 108085,108189,108163
 5.0000e-001 108215 -9.9787e+000  2.8137e+001  3.7657e+000 29870 108284,108163,108137
 5.0000e-001 108310  2.8559e+000  2.7784e+001  8.9005e-001 29870 108111,108085,108284
 5.0000e-001 108333 -1.7243e+000  2.8138e+001  1.3683e+000 29870 108111,108284,108137
 5.0000e-001 108664  1.5117e+001  3.4517e+001 -3.7157e-002 29480 108465,108569,108543
 5.0000e-001 108641 -3.4347e+000  2.9026e+001  3.1323e+000 29480 108439,108569,108465
 5.0000e-001 108618  1.5078e+001  2.8251e+001  4.4123e+000 29480 108465,108543,108491
 5.0000e-001 108595  1.2966e+001  2.1723e+001  2.5535e+000 29480 108491,108543,108517
 5.0000e-001 108993  1.1835e+001  4.5374e+001  4.8404e+000 29076 108794,108872,108820
 5.0000e-001 108970  4.0544e+000  2.7225e+001  3.4403e+000 29076 108768,108872,108794
 5.0000e-001 108947  4.2883e+000  4.6391e+001  1.0199e+001 29076 108820,108872,108846
 5.0000e-001 108924  1.5730e+001  3.2237e+001  3.7930e+000 29076 108768,108898,108872
 5.0000e-001 109420  1.3264e+000  2.0840e+001  3.8957e+000 28472 109123,109227,109201
 5.0000e-001 109397 -2.6728e+000  2.4001e+001  2.9568e+000 28472 109123,109253,109227
 5.0000e-001 109374  2.2795e-002  1.6838e+001  4.3227e+000 28472 109123,109201,109175
 5.0000e-001 109351 -1.2900e+001  2.1062e+001  2.4656e+000 28472 109123,109279,109253
 5.0000e-001 109328  1.2316e+000  1.6544e+001  6.2992e+000 28472 109123,109175,109149
 5.0000e-001 109305 -1.6021e+001  3.0454e+001 -8.6878e-001 28472 109097,109279,109123
 5.0000e-001 109749  1.6460e+001  4.4291e+001  1.5902e+000 28018 109772,109602,109576
 5.0000e-001 109726  1.7488e+001  3.9659e+001  4.3297e+000 28018 109772,109576,109550
 5.0000e-001 109703  3.8151e+000  2.8218e+001 -1.4403e+000 28018 109524,109628,109550
 5.0000e-001 109680  8.3343e+000  2.9359e+001 -6.9857e-001 28018 109524,109654,109628
 5.0000e-001 109798  1.1206e+001  4.1281e+001  4.7076e+000 28018 109628,109602,109772
 5.0000e-001 109821  1.6286e+001  3.7031e+001  6.2017e+000 28018 109628,109772,109550
 5.0000e-001 110199  2.4977e+000  2.7535e+001 -7.4839e+000 27564 110029,110081,110055
 5.0000e-001 110176  1.0715e+001  3.2122e+001 -1.1061e+000 27564 109925,110081,110029
 5.0000e-001 110153  1.4380e+001  2.1884e+001  1.2921e+000 27564 109925,110029,109977
 5.0000e-001 110130  1.9471e+001  2.4163e+001  2.0155e+000 27564 109977,110029,110003
 5.0000e-001 110107  1.9152e+001  2.7971e+001  5.7485e+000 27564 109925,109977,109951
 5.0000e-001 110398  2.1857e+000  2.3473e+001  3.2156e-002 27003 110248,110326,110300
 5.0000e-001 110375  3.5486e+000  2.4669e+001  8.0840e-001 27003 110222,110326,110248
 5.0000e-001 110352 -5.8808e-001  2.1021e+001 -1.8280e+000 27003 110248,110300,110274
 5.0000e-001 110646  1.6125e+001  3.5346e+001 -2.5014e+000 26563 110669,110473,110421
 5.0000e-001 110623  1.0334e+001  2.8769e+001  2.3449e-001 26563 110669,110421,110551
 5.0000e-001 110600  9.8074e+000  3.7896e+001 -4.7155e+000 26563 110473,110525,110499
 5.0000e-001 110577  1.3396e+001  2.8676e+001 -2.9230e+000 26563 110421,110473,110447
 5.0000e-001 110695  1.3251e+001  3.7839e+001 -5.0105e+000 26563 110525,110473,110669
 5.0000e-001 110718  1.1176e+001  3.5212e+001 -3.1121e+000 26563 110525,110669,110551
 5.0000e-001 110870 -7.1327e+000  2.4549e+001 -1.5784e+000 26166 110769,110821,110795
 5.0000e-001 110847 -8.3510e-001  1.2654e+001  3.3391e+000 26166 110743,110821,110769
 5.0000e-001 111380  3.7564e-001  2.3899e+001  6.0801e+000 25712 111403,111109,111083
 5.0000e-001 111357  5.7789e+000  2.6771e+001  4.8588e+000 25712 111403,111083,111239
 5.0000e-001 111334 -9.6236e+000  2.6195e+001  1.7960e+001 25712 111109,111161,111135
 5.0000e-001 111311  6.5300e-001  2.3622e+001  3.1411e+000 25712 111057,111239,111083
 5.0000e-001 111288  1.0594e+001  1.8665e+001  4.8929e+000 25712 111161,111239,111187
 5.0000e-001 111265  1.9603e+001  2.2041e+001  4.3279e+000 25712 111187,111239,111213
 5.0000e-001 111429  5.4504e+000  1.9568e+001  7.8707e+000 25712 111161,111109,111403
 5.0000e-001 111452  1.1971e+001  2.3043e+001  6.5090e+000 25712 111161,111403,111239
 5.0000e-001 111651  8.3548e+000  2.9304e+001  1.2404e+000 25300 111674,111501,111475
 5.0000e-001 111628  8.3995e+000  2.4858e+001  1.6802e+000 25300 111674,111475,111579
 5.0000e-001 111605  7.9983e+000  3.1501e+001 -1.8092e+000 25300 111501,111553,111527
 5.0000e-001 111700  7.7122e+000  3.2974e+001  1.1242e+000 25300 111553,111501,111674
 5.0000e-001 111723  8.2577e+000  2.9284e+001  1.9065e+000 25300 111553,111674,111579
 5.0000e-001 111922 -5.4984e+000  1.8889e+001 -3.9634e+000 24732 111798,111850,111824
 5.0000e-001 111899  1.6635e+000  2.4526e+001  2.3864e+000 24732 111772,111850,111798
 5.0000e-001 111876 -5.7841e+000  2.5163e+001  3.5528e+000 24732 111746,111850,111772
 5.0000e-001 112255  2.0505e+001  5.1494e+001 -7.9295e+000 24142 112056,112108,112082
 5.0000e-001 112232  2.4987e+001  5.2032e+001 -3.8247e+000 24142 112056,112134,112108
 5.0000e-001 112209  1.3487e+001  3.2803e+001  1.1476e+000 24142 112056,112160,112134
 5.0000e-001 112186  2.2709e+001  3.1510e+001 -1.1930e+000 24142 112030,112160,112056
 5.0000e-001 112601 -1.6524e+000  1.3286e+001  2.8717e+000 23852 112624,112382,112356
 5.0000e-001 112578 -7.0343e-001  2.1373e+001  1.3723e+000 23852 112696,112624,112356
 5.0000e-001 112555  4.3230e-001  2.2823e+001  4.9824e-001 23852 112696,112356,112304
 5.0000e-001 112532 -3.7186e+000  2.8075e+001  8.1784e-001 23852 112304,112356,112330
 5.0000e-001 112509  6.1657e+000  2.7859e+001 -1.9379e+000 23852 112278,112460,112304
 5.0000e-001 112486  9.7069e+000  2.3541e+001 -1.0953e+001 23852 112382,112434,112408
 5.0000e-001 112650  9.3921e-001  1.8921e+001 -2.6859e+000 23852 112434,112382,112624
 5.0000e-001 112673 -1.6665e+000  2.2306e+001 -2.0545e+000 23852 112434,112624,112460
 5.0000e-001 112722  6.3973e-001  2.0636e+001 -2.3659e+000 23852 112460,112624,112696
 5.0000e-001 112745  2.6877e+000  2.4522e+001 -3.4250e+000 23852 112460,112696,112304
 5.0000e-001 113015 -6.4707e+000  3.7132e+001 -6.1141e+000 23490 112842,112894,112868
 5.0000e-001 112992  3.9473e+000  2.7115e+001 -3.2205e+000 23490 112816,112894,112842
 5.0000e-001 112969 -4.9396e+000  2.3456e+001  2.2712e+000 23490 112790,112894,112816
 5.0000e-001 112946  3.5095e+000  4.6167e+001  2.4501e+000 23490 112790,112920,112894
 5.0000e-001 113348  8.6035e+000  2.0686e+001 -2.3971e+000 22970 113175,113253,113227
 5.0000e-001 113325  1.2375e+001  2.0982e+001 -2.6098e+000 22970 113149,113253,113175
 5.0000e-001 113302  8.5262e+000  1.9964e+001 -2.9258e+000 22970 113175,113227,113201
 5.0000e-001 113279  1.4102e+001  2.3816e+001 -1.5197e+000 22970 113123,113253,113149
 5.0000e-001 113645 -1.0548e+000  2.5113e+001  3.4438e-001 22366 113423,113527,113449
 5.0000e-001 113622 -5.7034e+000  1.9786e+001 -1.6481e+000 22366 113371,113527,113423
 5.0000e-001 113599 -3.1158e+000  2.1296e+001  4.5950e+000 22366 113449,113527,113501
 5.0000e-001 113576  2.3240e+000  2.1370e+001  1.0118e+001 22366 113449,113501,113475
 5.0000e-001 113553 -1.9999e+000  2.4903e+001 -5.5305e+000 22366 113371,113423,113397
 5.0000e-001 113893  9.5262e-001  2.6784e+001 -4.8845e-001 21912 113916,113746,113720
 5.0000e-001 113870  1.1809e+000  3.1144e+001  1.7567e-001 21912 113916,113720,113668
 5.0000e-001 113847  6.6514e+000  3.1379e+001  1.6967e+000 21912 113988,113798,113772
 5.0000e-001 113824  4.2982e-001  3.0656e+001 -3.5488e+000 21912 113668,113720,113694
 5.0000e-001 113942  2.9609e+000  3.1693e+001 -4.1596e-001 21912 113772,113746,113916
 5.0000e-001 113965  3.4538e+000  3.2259e+001  9.4657e-001 21912 113988,113772,113916
 5.0000e-001 114014  3.0497e+000  2.9026e+001  6.6418e-001 21912 113668,113798,113988
 5.0000e-001 114037  1.3373e+000  3.0563e+001  1.8450e-002 21912 113668,113988,113916
 5.0000e-001 114287  5.9204e+000  3.2104e+001  3.5971e-001 21408 114088,114140,114114
 5.0000e-001 114264  6.4543e+000  3.3020e+001  1.3719e-001 21408 114310,114140,114088
 5.0000e-001 114241  7.4604e+000  3.3164e+001  5.0655e-001 21408 114310,114088,114192
 5.0000e-001 114218  1.0345e+001  3.0747e+001 -5.4176e-001 21408 114062,114192,114088
 5.0000e-001 114336  7.2398e+000  3.3406e+001  5.3514e-001 21408 114166,114140,114310
 5.0000e-001 114359  7.8830e+000  3.3159e+001  8.2400e-001 21408 114166,114310,114192
 5.0000e-001 114609 -1.5573e+000  1.7051e+001 -1.4585e+000 21018 114632,114488,114436
 5.0000e-001 114586 -3.9408e+000  1.5013e+001 -4.0453e+000 21018 114632,114436,114410
 5.0000e-001 114563  1.1732e+001  1.2646e+001 -3.4191e+000 21018 114384,114514,114410
 5.0000e-001 114540 -1.1036e+001  2.3527e+001  1.0687e+000 21018 114436,114488,114462
 5.0000e-001 114658  2.4285e+000  1.7314e+001  1.1842e+000 21018 114514,114488,114632
 5.0000e-001 114681 -7.5750e-001  1.5105e+001 -1.3551e+000 21018 114514,114632,114410
 5.0000e-001 114882  4.5922e+001  4.2982e+001  8.5567e+000 20614 114732,114784,114758
 5.0000e-001 114859  3.0083e+001  3.9742e+001  4.0703e+000 20614 114732,114810,114784
 5.0000e-001 114836  2.6156e+001  3.4339e+001  2.0144e+000 20614 114706,114810,114732
 5.0000e-001 115132  2.9545e+000  3.3292e+001 -1.9256e+000 20110 114907,115011,114933
 5.0000e-001 115109  1.0489e+001  3.5332e+001 -9.9804e-001 20110 114907,115037,115011
 5.0000e-001 115086  3.7179e+000  3.2366e+001 -2.2427e+000 20110 114933,115011,114985
 5.0000e-001 115063  4.7361e+000  4.1233e+001 -1.0400e+001 20110 114933,114985,114959
 5.0000e-001 115284 -8.3053e-001  3.5587e+001  5.6763e-002 19456 115378,115307,115157
 5.0000e-001 115261 -1.8403e+000  3.6841e+001 -2.7753e-001 19456 115378,115157,115235
 5.0000e-001 115333 -1.1726e+000  3.4741e+001  1.2908e-001 19456 115183,115157,115307
 5.0000e-001 115404 -1.6676e+000  3.3717e+001 -2.9791e-001 19456 115209,115307,115378
 5.0000e-001 115427 -2.5941e+000  3.5185e+001 -7.1002e-001 19456 115209,115378,115235
 5.0000e-001 115677  1.1444e+000  2.8365e+001  1.3670e-001 19002 115504,115582,115530
 5.0000e-001 115654  4.4672e+000  2.9485e+001  6.0523e-001 19002 115478,115582,115504
 5.0000e-001 115631  9.2668e-002  2.8461e+001  6.8645e+000 19002 115452,115582,115478
 5.0000e-001 115608  1.5793e+001  3.0879e+001 -1.2682e+001 19002 115530,115582,115556
 5.0000e-001 115998  8.7956e+000  2.4129e+001 -2.8529e+000 18712 115802,115880,115854
 5.0000e-001 115975  9.1828e+000  2.9131e+001 -4.1347e+000 18712 115724,115880,115802
 5.0000e-001 115952  5.7857e+000  2.8976e+001 -2.2869e+000 18712 115724,115802,115776
 5.0000e-001 115929  6.8289e+000  3.5866e+001 -6.5988e+000 18712 115724,115776,115750
 5.0000e-001 115906  1.4475e+001  2.6041e+001 -3.8275e+000 18712 115802,115854,115828
 5.0000e-001 116270 -9.9107e-001  3.0996e+001  1.3286e+000 18308 116045,116123,116071
 5.0000e-001 116247  7.3749e-001  3.4818e+001  1.8307e+000 18308 116045,116175,116123
 5.0000e-001 116224 -2.5527e+000  3.4732e+001  9.3718e-001 18308 116123,116175,116149
 5.0000e-001 116201  1.1166e+001  3.7011e+001 -6.2432e-001 18308 116071,116123,116097
 5.0000e-001 116422  3.9770e+000  2.8936e+001 -2.5174e-002 17996 116321,116373,116347
 5.0000e-001 116399  4.9929e+000  2.9528e+001  5.7713e-001 17996 116295,116373,116321
 5.0000e-001 116574 -3.4752e+000  3.2409e+001 -1.3557e+000 17392 116473,116525,116499
 5.0000e-001 116551 -5.7228e+000  4.3062e+001  3.5467e+000 17392 116447,116525,116473
 5.0000e-001 116797  4.4186e+000  3.5112e+001  2.0738e+000 16938 116621,116699,116673
 5.0000e-001 116774 -1.5126e+001  4.1213e+001  2.8209e+000 16938 116621,116725,116699
 5.0000e-001 116751  2.4136e+000  3.0432e+001  8.6591e-001 16938 116621,116673,116647
 5.0000e-001 116998  1.2569e+001  3.2043e+001 -8.1939e-001 16434 117021,116874,116848
 5.0000e-001 116975  5.6560e+000  3.5936e+001 -1.4001e+000 16434 117021,116848,116822
 5.0000e-001 116952  1.1731e+001  3.4346e+001  4.2450e-001 16434 116874,116926,116900
 5.0000e-001 117047  1.4091e+001  3.4952e+001 -2.1042e+000 16434 116926,116874,117021
 5.0000e-001 117070  1.1740e+001  4.0560e+001 -4.2858e+000 16434 116926,117021,116822
 5.0000e-001 117293  1.8547e+001  1.0026e+001  2.4803e+000 16070 117117,117169,117143
 5.0000e-001 117270 -8.8295e-002  4.1997e+000  8.9140e-001 16070 117117,117221,117169
 5.0000e-001 117247 -8.6409e-001  8.1059e+000  3.6974e-001 16070 117169,117221,117195
 5.0000e-001 117445 -1.9981e+000  3.3116e+000  4.6758e-001 15645 117318,117370,117344
 5.0000e-001 117422 -1.4431e+001 -1.8298e+000  4.9896e-001 15645 117318,117396,117370
 5.0000e-001 117548  1.7709e+001  2.7573e+001  1.0165e+001 417 117470,117522,117496
 6.0000e-001 70760  6.3566e+000 -1.9502e+000 -3.7011e-001 70380 70633,70685,70659
 6.0000e-001 70737 -4.0538e+000  2.0611e+000 -3.1992e+000 70380 70633,70711,70685
 6.0000e-001 70861  3.4967e-001  1.9396e+000 -1.2231e+000 70068 70783,70835,70809
 6.0000e-001 71180  6.0303e-002  6.6537e+000 -9.3778e-001 69870 70932,70984,70958
 6.0000e-001 71157 -1.6067e+000  5.9640e+000 -7.5578e-001 69870 70932,71010,70984
 6.0000e-001 71134 -2.1985e+000  4.1560e+000 -1.0249e+000 69870 70932,71036,71010
 6.0000e-001 71111 -1.7618e+000  3.5260e+000  2.9499e+000 69870 70932,71062,71036
 6.0000e-001 71088  5.2268e-002  5.2262e+000  2.3075e-001 69870 70906,71062,70932
 6.0000e-001 71428  1.5223e+001  3.0946e+001  1.8431e-001 69694 71451,71281,71255
 6.0000e-001 71405  1.9870e+001  3.6639e+001  2.1978e+000 69694 71523,71451,71255
 6.0000e-001 71382  2.3633e+001  3.8895e+001  1.1207e+001 69694 71523,71255,71229
 6.0000e-001 71359  3.8895e+000  2.6015e+001 -1.0807e+000 69694 71595,71333,71307
 6.0000e-001 71477  2.3144e+001  3.6866e+001 -6.4047e+000 69694 71307,71281,71451
 6.0000e-001 71500  7.9634e+000  3.1980e+001 -4.6318e+000 69694 71595,71307,71451
 6.0000e-001 71549  5.7701e+000  3.2142e+001  6.6651e-001 69694 71203,71451,71523
 6.0000e-001 71572  5.2280e+000  3.0882e+001  8.6295e+000 69694 71203,71523,71229
 6.0000e-001 71621  1.0651e+001  2.0058e+001 -1.8672e+000 69694 71203,71333,71595
 6.0000e-001 71644  9.4518e+000  2.2591e+001 -2.9535e+000 69694 71203,71595,71451
 6.0000e-001 71745 -1.0006e+000  1.0145e+000 -1.2958e+000 69382 71667,71719,71693
 6.0000e-001 72100 -3.3219e+000  8.6913e+000 -8.3321e-001 69184 71875,71979,71901
 6.0000e-001 72077  5.8706e-001  1.0314e+001  1.1043e+000 69184 71875,72005,71979
 6.0000e-001 72054 -2.2003e+000 -3.7226e+000 -4.6892e+000 69184 71901,71979,71953
 6.0000e-001 72031 -1.1846e+000  6.8259e+000 -4.7816e+000 69184 71901,71953,71927
 6.0000e-001 72250  1.2543e-002  6.0059e+000  1.7635e+000 68986 72149,72201,72175
 6.0000e-001 72227 -2.4304e+000  1.5261e+001 -2.2127e+000 68986 72123,72201,72149
 6.0000e-001 72547 -1.4226e+000  2.0029e+001  1.5403e+000 68582 72570,72403,72377
 6.0000e-001 72524  8.1246e-001  2.1706e+001  1.9110e-001 68582 72570,72377,72351
 6.0000e-001 72501  9.8871e-001  1.8212e+001  7.3535e-001 68582 72642,72299,72429
 6.0000e-001 72478  2.5212e+000  1.1660e+001 -2.6288e+000 68582 72273,72429,72299
 6.0000e-001 72455  5.2607e+000  3.4134e+001  1.7321e+000 68582 72299,72351,72325
 6.0000e-001 72596  2.1195e+000  2.1801e+001  2.2256e+000 68582 72429,72403,72570
 6.0000e-001 72619  9.7662e-001  1.9038e+001  7.3312e-001 68582 72642,72429,72570
 6.0000e-001 72668  9.6444e-002  1.8796e+001 -7.4057e-001 68582 72351,72299,72642
 6.0000e-001 72691  5.4004e-001  2.0435e+001 -5.5090e-001 68582 72351,72642,72570
 6.0000e-001 73095 -2.3183e-001  9.5779e+000 -7.7083e-001 68384 72873,72925,72899
 6.0000e-001 73072  1.1546e+000  1.4830e+001 -4.0967e-001 68384 72847,72925,72873
 6.0000e-001 73049 -2.7755e+000 -5.2213e-001  9.2067e-001 68384 72847,72951,72925
 6.0000e-001 73026 -5.5606e+000  1.8591e+001  3.6842e+000 68384 72821,72951,72847
 6.0000e-001 73003  1.4649e+000  1.9827e+001  1.0116e+001 68384 72821,72977,72951
 6.0000e-001 73552 -1.0067e+001  3.7466e+001 -9.1718e+000 68044 73304,73434,73408
 6.0000e-001 73529  1.2791e+001  5.1585e+001 -2.0599e+000 68044 73278,73434,73304
 6.0000e-001 73506 -3.4174e+000  3.1726e+001  2.3186e+001 68044 73356,73408,73382
 6.0000e-001 73483  2.5173e+000  1.0105e+001 -9.2203e+000 68044 73304,73408,73356
 6.0000e-001 73460  1.1667e+001  4.2230e+001 -5.6739e+000 68044 73304,73356,73330
 6.0000e-001 73871  3.0285e+000  2.8351e+001  7.3661e-001 67846 73675,73727,73701
 6.0000e-001 73848 -6.0876e+000  2.0955e+001  3.9706e+000 67846 73649,73727,73675
 6.0000e-001 73825 -2.1543e-002  3.1531e+001 -2.2872e+000 67846 73623,73727,73649
 6.0000e-001 73802 -5.6839e+000  2.5793e+001 -4.6394e+000 67846 73623,73753,73727
 6.0000e-001 73779 -1.7640e+000  1.9964e+001 -1.5190e+001 67846 73597,73753,73623
 6.0000e-001 74021 -3.1592e+000  6.3529e+000 -6.5564e-001 67598 73920,73972,73946
 6.0000e-001 73998  8.1937e-001  1.4661e+001  5.4859e-001 67598 73894,73972,73920
 6.0000e-001 74271 -2.1245e+000  8.9444e+000 -4.6152e-001 67286 74072,74176,74150
 6.0000e-001 74248  9.4601e-001  8.6936e+000 -1.4323e+000 67286 74046,74176,74072
 6.0000e-001 74225  2.9862e+000  1.4346e+001  2.5225e+000 67286 74072,74150,74098
 6.0000e-001 74202  3.5643e+000  1.5163e+001  3.5466e+000 67286 74098,74150,74124
 6.0000e-001 74374  1.0597e+000  1.5417e+001  1.0724e+001 67088 74296,74348,74322
 6.0000e-001 74646 -5.8011e+000  1.6657e+001 -6.9439e+000 66890 74421,74525,74447
 6.0000e-001 74623  6.0150e-001  2.0565e+001 -2.2390e+000 66890 74421,74551,74525
 6.0000e-001 74600  1.5306e+000  3.2866e+001 -5.0933e+000 66890 74447,74525,74473
 6.0000e-001 74577 -1.2120e+001  2.0922e+001  8.9655e-001 66890 74473,74525,74499
 6.0000e-001 75254  2.8535e-001  1.5539e+001 -5.8045e+000 66528 74885,75067,75041
 6.0000e-001 75231  1.1452e+001  1.4766e+001 -6.0988e+000 66528 74859,75067,74885
 6.0000e-001 75208  5.1271e+000  2.2283e+001 -7.6430e-002 66528 74937,75015,74963
 6.0000e-001 75185 -6.5703e+000  9.1212e-001 -4.6115e+000 66528 74911,75015,74937
 6.0000e-001 75162 -2.5642e-001  1.6609e+001  2.4186e+000 66528 74911,75041,75015
 6.0000e-001 75139 -8.0744e+000  1.7767e+001 -4.3331e+000 66528 74885,75041,74911
 6.0000e-001 75116  1.6715e+000  1.1100e+001 -7.3732e+000 66528 74833,75067,74859
 6.0000e-001 75093 -2.7154e+000  2.7334e+001  4.2311e+000 66528 74963,75015,74989
 6.0000e-001 75453  1.3495e+000  1.9505e+001  2.7347e+000 66238 75303,75381,75355
 6.0000e-001 75430 -4.8245e+000  1.8431e+001  4.8757e+000 66238 75277,75381,75303
 6.0000e-001 75407  2.2044e+000  1.0673e+001  4.8330e+000 66238 75303,75355,75329
 6.0000e-001 75701  1.4164e+001  5.5140e+001  7.4070e+000 65834 75528,75606,75580
 6.0000e-001 75678 -1.4007e+000  5.2892e+001  5.0996e-001 65834 75502,75606,75528
 6.0000e-001 75655  1.5213e+001  7.0348e+001  2.2496e+001 65834 75528,75580,75554
 6.0000e-001 75632  1.5380e+001  6.1791e+001  5.5642e+000 65834 75476,75606,75502
 6.0000e-001 75902 -3.6398e+000  1.9471e+001 -5.1831e+000 65636 75726,75804,75752
 6.0000e-001 75879  8.8544e+000  2.5447e+001 -6.9905e+000 65636 75726,75830,75804
 6.0000e-001 75856  2.4783e+001  2.4387e+001 -6.6781e+000 65636 75752,75804,75778
 6.0000e-001 76103 -1.0750e+001  1.5923e+001 -7.2236e-001 65296 76126,75979,75953
 6.0000e-001 76080 -1.5844e+001  2.1162e+001  2.6519e+000 65296 76126,75953,75927
 6.0000e-001 76057 -2.1455e+000  3.6701e+001 -1.2257e+001 65296 76198,76005,75979
 6.0000e-001 76152 -3.4833e+000  2.7139e+001 -4.2885e+000 65296 76198,75979,76126
 6.0000e-001 76175 -1.3656e+001  2.4526e+001  1.4929e+000 65296 76031,76126,75927
 6.0000e-001 76224 -1.5481e+001  2.2442e+001 -6.5616e+000 65296 76031,76005,76198
 6.0000e-001 76247 -1.4962e+001  1.7211e+001  6.1429e-001 65296 76031,76198,76126
 6.0000e-001 76602  6.3594e+000  2.4953e+001  1.8224e+000 64892 76377,76481,76403
 6.0000e-001 76579  6.0971e+000  2.2522e+001  5.8453e-001 64892 76377,76507,76481
 6.0000e-001 76556  1.4898e+001  3.3641e+001 -1.8205e+000 64892 76403,76481,76429
 6.0000e-001 76533 -2.0533e+001  2.0140e+001 -4.8613e+000 64892 76429,76481,76455
 6.0000e-001 76801 -1.6707e+001  2.6062e+001  1.4935e+001 64438 76677,76729,76703
 6.0000e-001 76778 -3.8589e+000  4.0353e+001  1.4712e+000 64438 76651,76729,76677
 6.0000e-001 76755 -3.0138e+000  2.8209e+001  5.4171e+000 64438 76625,76729,76651
 6.0000e-001 77230  1.1576e+001  3.2312e+001 -3.8399e+000 63920 77253,76959,76933
 6.0000e-001 77207  6.9849e+000  2.8765e+001 -1.8084e+000 63920 77253,76933,77063
 6.0000e-001 77184  9.3897e+000  3.2050e+001 -1.1384e+001 63920 76959,77037,76985
 6.0000e-001 77161  3.6782e-001  2.5046e+001 -3.5091e+000 63920 76907,77063,76933
 6.0000e-001 77138 -7.9688e+000  4.7103e+001 -1.1319e+001 63920 76985,77037,77011
 6.0000e-001 77115 -5.7319e+000  2.5820e+001 -1.6009e+000 63920 76907,77089,77063
 6.0000e-001 77279  5.2287e+000  3.6093e+001 -3.8725e+000 63920 77037,76959,77253
 6.0000e-001 77302  1.1962e+000  3.3123e+001 -2.0002e+000 63920 77037,77253,77063
 6.0000e-001 77680  2.1666e+001  3.9914e+001  1.2339e+000 63316 77703,77484,77432
 6.0000e-001 77657  2.0783e+001  3.7561e+001 -8.5486e-001 63316 77703,77432,77406
 6.0000e-001 77634  3.3674e+000  3.2518e+001  5.2386e-001 63316 77406,77536,77510
 6.0000e-001 77611  2.9084e+001  3.3262e+001  9.6029e+000 63316 77432,77484,77458
 6.0000e-001 77588  1.0375e+001  3.4391e+001  4.0262e+000 63316 77406,77562,77536
 6.0000e-001 77729  2.1918e+001  3.5652e+001  3.7422e-001 63316 77510,77484,77703
 6.0000e-001 77752  2.1165e+001  3.5103e+001 -2.1547e+000 63316 77510,77703,77406
 6.0000e-001 78000 -3.3651e+001  1.2804e+001  2.1003e+000 62812 77801,77853,77827
 6.0000e-001 77977 -2.0628e+001  1.2308e+001 -4.4578e+000 62812 77801,77879,77853
 6.0000e-001 77954 -2.8728e+001  1.1437e+001 -1.2334e+001 62812 77801,77905,77879
 6.0000e-001 77931 -1.1015e+001  1.4687e+001 -1.2152e+001 62812 77775,77905,77801
 6.0000e-001 78380 -2.3942e-002  1.9798e+001 -1.5873e+000 62350 78184,78262,78236
 6.0000e-001 78357  2.6830e+000  2.9213e+001  2.2313e-001 62350 78132,78262,78184
 6.0000e-001 78334 -1.3711e-001  2.7522e+001 -6.6589e+000 62350 78106,78262,78132
 6.0000e-001 78311 -9.9821e+000  2.9696e+001  1.0756e+001 62350 78132,78184,78158
 6.0000e-001 78288 -1.1719e+001  1.9290e+001 -3.1135e+000 62350 78184,78236,78210
 6.0000e-001 78837  3.0550e+001  3.5245e+001 -1.9145e+001 61946 78615,78667,78641
 6.0000e-001 78814  3.1327e+000  3.0664e+001 -1.0000e+001 61946 78589,78667,78615
 6.0000e-001 78791  1.6189e+001  7.6627e-001  5.5212e+000 61946 78589,78719,78667
 6.0000e-001 78768  3.1718e+001  5.4783e+001  7.3489e+000 61946 78667,78719,78693
 6.0000e-001 78745  2.3717e+001  3.1719e+001  2.1336e+001 61946 78563,78719,78589
 6.0000e-001 78987 -2.7223e-002  2.4909e+001  6.4705e-001 61335 79010,78886,78860
 6.0000e-001 78964 -4.0037e-001  3.0701e+001  5.2928e-001 61335 79010,78860,78938
 6.0000e-001 79036  2.6446e+000  2.9446e+001 -2.1204e+000 61335 79082,79010,78912
 6.0000e-001 79059 -7.2973e+000  2.5969e+001 -1.5734e+000 61335 78912,79010,78938
 6.0000e-001 79108 -9.5369e-001  2.0716e+001 -8.9202e-001 61335 78886,79010,79082
 6.0000e-001 79437  3.1257e+000  2.0552e+001 -1.9389e+001 60888 79460,79238,79212
 6.0000e-001 79414 -4.9285e+000  6.3768e+000 -1.3508e+001 60888 79460,79212,79342
 6.0000e-001 79391 -1.2348e+001  1.8071e+001 -1.5630e+001 60888 79532,79264,79238
 6.0000e-001 79368 -1.4475e+001  4.1773e+001  2.5010e+000 60888 79264,79316,79290
 6.0000e-001 79486 -1.0436e+001  1.5586e+001 -1.3581e+001 60888 79532,79238,79460
 6.0000e-001 79509 -4.6652e+000  1.4319e+001 -7.1229e+000 60888 79316,79460,79342
 6.0000e-001 79558 -1.3915e+001  1.8582e+001 -9.2607e+000 60888 79316,79264,79532
 6.0000e-001 79581 -2.4222e+000  2.0289e+001 -8.0720e+000 60888 79316,79532,79460
 6.0000e-001 79878 -1.8137e+001  1.1403e+001 -1.3883e+001 60484 79682,79760,79734
 6.0000e-001 79855 -2.0249e+001  1.2166e+001 -7.2226e+000 60484 79656,79760,79682
 6.0000e-001 79832 -1.4925e+001  1.3544e+001 -6.5544e+000 60484 79604,79760,79656
 6.0000e-001 79809 -1.8815e+001  1.8397e+001 -1.0755e+001 60484 79604,79656,79630
 6.0000e-001 79786 -4.8574e+000  1.0528e+001 -1.1572e+001 60484 79682,79734,79708
 6.0000e-001 80101 -5.7085e-001  6.2484e+000 -7.8567e-001 60022 79951,80029,80003
 6.0000e-001 80078 -2.5542e+001  8.5370e-001 -2.4819e+000 60022 79925,80029,79951
 6.0000e-001 80055 -2.2644e+001 -2.1032e+000  1.4847e+000 60022 79951,80003,79977
 6.0000e-001 80351  2.0791e+001  3.8425e+001  7.6025e+000 59625 80152,80256,80204
 6.0000e-001 80328  1.5739e+001  4.7928e+001  1.3569e+001 59625 80126,80256,80152
 6.0000e-001 80305  2.8194e+001  5.4065e+001  4.5187e+000 59625 80204,80256,80230
 6.0000e-001 80282  3.8796e+001  4.5819e+001  3.2914e+000 59625 80152,80204,80178
 6.0000e-001 80552  8.7234e+000  2.9687e+001 -5.5913e+000 59121 80575,80402,80376
 6.0000e-001 80529  8.1199e+000  2.6558e+001 -5.5523e+000 59121 80575,80376,80480
 6.0000e-001 80506  4.3725e+000  3.5807e+001 -7.8552e+000 59121 80428,80480,80454
 6.0000e-001 80601  7.6325e+000  3.1634e+001 -3.5257e+000 59121 80428,80402,80575
 6.0000e-001 80624  7.1472e+000  2.8757e+001 -3.5679e+000 59121 80428,80575,80480
 6.0000e-001 81183  1.2264e+001  2.4110e+001  8.1231e+000 58553 81206,80863,80837
 6.0000e-001 81160 -4.3286e-001  2.6378e+001  9.6470e+000 58553 81350,81206,80837
 6.0000e-001 81137  6.8367e+000  2.1046e+001  6.6401e-001 58553 81278,80915,80863
 6.0000e-001 81114 -1.4797e+001  2.0338e+001  1.0501e+001 58553 81350,80837,80811
 6.0000e-001 81091  2.8396e+000  4.0390e+001 -2.4125e+000 58553 81422,80967,80941
 6.0000e-001 81068  1.8554e+001  6.8604e+001 -6.3466e+000 58553 80967,81019,80993
 6.0000e-001 81045  1.7719e+001  1.2385e+001 -4.9827e+000 58553 80863,80915,80889
 6.0000e-001 81232  5.5157e+000  1.9298e+001  1.5631e+000 58553 81278,80863,81206
 6.0000e-001 81255  2.9622e+000  3.1921e+001 -8.9972e-001 58553 81422,80941,81206
 6.0000e-001 81304  5.4622e+000  2.7116e+001 -2.8946e+000 58553 80941,80915,81278
 6.0000e-001 81327  5.1447e-001  2.3061e+001 -1.0138e+000 58553 80941,81278,81206
 6.0000e-001 81376 -3.8239e+000  2.4176e+001  1.2125e+000 58553 81019,81206,81350
 6.0000e-001 81399 -6.5976e+000  2.2894e+001  2.3808e+000 58553 81019,81350,80811
 6.0000e-001 81448  7.4182e-001  3.2625e+001  6.1767e-001 58553 81019,80967,81422
 6.0000e-001 81471  2.6127e+000  2.7790e+001  2.7141e+000 58553 81019,81422,81206
 6.0000e-001 81768 -8.2172e-001  2.4181e+001 -3.3030e+000 57877 81791,81572,81520
 6.0000e-001 81745  5.2767e+000  2.7038e+001 -1.1291e+001 57877 81791,81520,81494
 6.0000e-001 81722 -1.1927e+001  2.4053e+001 -3.4438e+000 57877 81863,81650,81598
 6.0000e-001 81699 -8.3079e+000  3.0051e+001 -1.1652e+001 57877 81598,81650,81624
 6.0000e-001 81676 -1.0273e+001  2.7647e+001 -1.3229e+000 57877 81520,81572,81546
 6.0000e-001 81817 -3.0088e+000  1.9005e+001 -3.5861e+000 57877 81598,81572,81791
 6.0000e-001 81840 -9.5517e+000  2.3926e+001 -5.1838e+000 57877 81863,81598,81791
 6.0000e-001 81889 -5.4589e+000  1.2623e+001 -6.2912e-001 57877 81494,81650,81863
 6.0000e-001 81912  2.0757e+000  1.8723e+001 -4.6841e+000 57877 81494,81863,81791
 6.0000e-001 82160  1.1418e+001  3.1416e+001  1.3271e+001 57473 81935,82039,82013
 6.0000e-001 82137  3.3298e+001  4.1190e+001  8.8838e+000 57473 81935,82065,82039
 6.0000e-001 82114  1.0991e+001  3.9342e+001  1.7136e+001 57473 81935,82013,81961
 6.0000e-001 82091  1.7732e+001  2.7546e+001  2.0708e+001 57473 81961,82013,81987
 6.0000e-001 82719 -3.8273e+000  2.9442e+001  4.5764e+000 56962 82814,82742,82425
 6.0000e-001 82696 -1.1662e-001  3.8286e+001  1.5117e+000 56962 82742,82347,82555
 6.0000e-001 82673  5.8979e+000  2.0230e+001  5.9009e+000 56962 82814,82425,82399
 6.0000e-001 82650 -9.2565e+000  2.6708e+001 -3.6591e+000 56962 82425,82477,82451
 6.0000e-001 82627  7.9694e-001  3.3208e+001  2.1199e+000 56962 82425,82529,82477
 6.0000e-001 82604 -1.9359e+000  3.9185e+001  6.7769e+000 56962 82477,82529,82503
 6.0000e-001 82581  2.3400e+001  2.0535e+001 -1.5379e+000 56962 82347,82399,82373
 6.0000e-001 82768  4.9159e-001  3.4517e+001  1.5225e+000 56962 82529,82425,82742
 6.0000e-001 82791 -1.3553e+001  1.7883e+001 -6.8993e+000 56962 82529,82742,82555
 6.0000e-001 82840  5.9755e+000  3.8721e+001  8.8076e+000 56962 82347,82742,82814
 6.0000e-001 82863  1.4224e+001  2.9189e+001  1.0106e+001 56962 82347,82814,82399
 6.0000e-001 83467 -9.3018e+000  2.8724e+001 -8.5078e+000 56300 83124,83176,83150
 6.0000e-001 83444  3.2970e+000  2.7776e+001  9.7120e-001 56300 83490,83176,83124
 6.0000e-001 83421  4.4497e+000  2.4542e+001 -7.2979e-001 56300 83490,83124,83280
 6.0000e-001 83398  9.1071e+000  2.5423e+001 -1.1008e+000 56300 83202,83280,83254
 6.0000e-001 83375  6.7079e+000  3.0491e+001 -8.6803e-001 56300 83046,83280,83124
 6.0000e-001 83352  6.8305e+000  3.6158e+001  4.7907e-002 56300 83046,83124,83098
 6.0000e-001 83329  1.7960e+001  1.4445e+001 -7.0704e+000 56300 83202,83254,83228
 6.0000e-001 83306  8.6149e+000  4.1528e+001  1.4295e-001 56300 83046,83098,83072
 6.0000e-001 83516  4.0141e-001  2.3071e+001  2.2037e+000 56300 83202,83176,83490
 6.0000e-001 83539  3.4223e+000  2.3217e+001 -2.4528e-001 56300 83202,83490,83280
 6.0000e-001 83787 -1.9173e+000  2.1718e+001  2.0641e+000 55960 83588,83692,83666
 6.0000e-001 83764 -1.0409e+001  4.4564e+001  1.2341e+001 55960 83562,83692,83588
 6.0000e-001 83741  1.9224e+001  2.8782e+001  1.7106e+000 55960 83588,83666,83614
 6.0000e-001 83718  3.4476e+000  2.2889e+001 -7.7343e-001 55960 83614,83666,83640
 6.0000e-001 83937 -4.2565e+000 -2.1200e+000 -1.5835e-002 55499 83810,83862,83836
 6.0000e-001 83914 -1.7622e+001 -1.4754e+000  1.9011e+000 55499 83810,83888,83862
 6.0000e-001 84138  2.4065e-001  1.8730e+001 -5.2082e+000 55152 83988,84066,84040
 6.0000e-001 84115  8.6282e+000  4.0661e+001 -1.5701e+000 55152 83962,84066,83988
 6.0000e-001 84092  8.0968e+000  3.2076e+001 -6.4720e-001 55152 83988,84040,84014
 6.0000e-001 84471 -3.9305e+000  3.3606e+001 -3.6068e+000 54648 84324,84376,84350
 6.0000e-001 84448 -1.4344e+001  1.7337e+001  8.8673e-001 54648 84272,84376,84324
 6.0000e-001 84425 -1.5797e+001  6.4864e+000  3.6359e+000 54648 84246,84376,84272
 6.0000e-001 84402 -1.4637e+001  1.5994e+001 -4.0137e+000 54648 84272,84324,84298
 6.0000e-001 84849  9.1870e+000  1.8853e+001 -1.8387e+000 53922 84627,84731,84705
 6.0000e-001 84826  1.4325e+001  1.5650e+001  8.7016e-001 53922 84575,84731,84627
 6.0000e-001 84803  1.9984e+001  1.9208e+001 -1.0532e+001 53922 84575,84627,84601
 6.0000e-001 84780  6.6344e+000  1.8999e+001 -4.9010e+000 53922 84627,84705,84653
 6.0000e-001 84757  1.0086e+001  3.1168e+001 -2.2180e+000 53922 84653,84705,84679
 6.0000e-001 85581 -5.2953e+000  1.4928e+001 -2.8267e+000 53582 85604,85111,85319
 6.0000e-001 85558  1.3635e+001  1.8227e+001 -4.1317e+000 53582 85111,85345,85319
 6.0000e-001 85535  5.5892e+000  1.8691e+001 -5.1087e+000 53582 85604,85319,85293
 6.0000e-001 85512 -1.2737e+001  1.6651e+001  1.1371e+001 53582 85241,85293,85267
 6.0000e-001 85489 -1.3845e+001  2.0740e+001  3.0999e+000 53582 85676,85241,85189
 6.0000e-001 85466 -7.2503e+000  2.1710e+001 -1.2485e+000 53582 85676,85189,85137
 6.0000e-001 85443 -1.4886e+001  3.1658e+001  2.8035e+000 53582 85189,85241,85215
 6.0000e-001 85420 -1.0392e+001  3.3613e+001 -4.2662e+000 53582 85137,85189,85163
 6.0000e-001 85397  5.2807e+000  1.9165e+001 -5.4527e+000 53582 85111,85371,85345
 6.0000e-001 85630 -9.4641e+000  1.1859e+001  4.5121e+000 53582 85137,85111,85604
 6.0000e-001 85653 -4.2721e-001  1.9572e+001  3.5908e+000 53582 85748,85604,85293
 6.0000e-001 85702 -1.6508e+001  1.4122e+001  9.8577e+000 53582 85293,85241,85676
 6.0000e-001 85725 -4.7466e+000  2.1970e+001  4.5111e+000 53582 85748,85293,85676
 6.0000e-001 85774 -6.8347e+000  1.6934e+001  1.4406e+000 53582 85137,85604,85748
 6.0000e-001 85797 -9.7862e+000  2.0325e+001  2.3826e+000 53582 85137,85748,85676
 6.0000e-001 86303  6.4748e+000  1.8606e+001 -8.6261e+000 53178 86326,86084,86006
 6.0000e-001 86280  6.2575e+000  2.0120e+001 -8.5389e+000 53178 86326,86006,86162
 6.0000e-001 86257  8.3100e+000  1.9447e+001 -1.3552e+001 53178 86398,86110,86084
 6.0000e-001 86234 -2.5645e+000  1.4449e+001 -6.9429e+000 53178 86006,86058,86032
 6.0000e-001 86211  3.0282e+000  1.2159e+001 -1.0366e+001 53178 86006,86084,86058
 6.0000e-001 86188  1.5197e+001  2.2149e+001 -3.5813e+000 53178 85980,86162,86006
 6.0000e-001 86352  5.5230e+000  1.6378e+001 -9.6393e+000 53178 86398,86084,86326
 6.0000e-001 86375  2.3709e+000  1.9868e+001 -9.4559e+000 53178 86136,86326,86162
 6.0000e-001 86424  8.6719e+000  2.1863e+001 -1.5086e+001 53178 86136,86110,86398
 6.0000e-001 86447  8.2799e+000  2.3989e+001 -1.1251e+001 53178 86136,86398,86326
 6.0000e-001 86904  6.8317e+000  3.4493e+001  1.4538e+000 52774 86708,86760,86734
 6.0000e-001 86881  6.1212e+000  2.6580e+001 -1.1290e+000 52774 86656,86760,86708
 6.0000e-001 86858  9.3695e+000  2.6442e+001 -1.9410e-001 52774 86656,86708,86682
 6.0000e-001 86835  1.2056e+001  2.5076e+001  5.3817e-003 52774 86630,86760,86656
 6.0000e-001 86812  1.3776e+001  2.5785e+001 -2.2718e-002 52774 86630,86786,86760
 6.0000e-001 87489  7.7668e+000  3.9153e+001  6.4084e+000 52234 87512,87218,87192
 6.0000e-001 87466  4.4808e+000  3.2667e+001  6.6847e-001 52234 87512,87192,87348
 6.0000e-001 87443  1.4118e+000  3.0438e+001 -7.5350e-001 52234 87166,87348,87192
 6.0000e-001 87420 -5.9298e+000  2.8983e+001  4.3687e-001 52234 87296,87348,87322
 6.0000e-001 87397  1.2026e+000  1.9299e+001  9.4983e-001 52234 87218,87296,87270
 6.0000e-001 87374  6.7460e+000  1.7519e+001  3.9094e+000 52234 87218,87270,87244
 6.0000e-001 87538  3.5307e+000  2.8592e+001  3.8359e+000 52234 87296,87218,87512
 6.0000e-001 87561  3.2917e+000  2.8808e+001 -1.8908e+000 52234 87296,87512,87348
 6.0000e-001 87841  1.3172e+001  4.0413e+001  8.3663e+000 51830 87665,87743,87691
 6.0000e-001 87818  9.6784e+000  4.0310e+001  1.1357e+001 51830 87665,87769,87743
 6.0000e-001 87795 -5.7951e+000  2.3341e+001  3.0332e-001 51830 87864,87691,87743
 6.0000e-001 87890 -3.8819e+000  2.4161e+001  3.8737e-001 51830 87717,87691,87864
 6.0000e-001 88418  5.5206e-002  2.4882e+001 -4.9555e-001 51262 88095,88173,88121
 6.0000e-001 88395  1.4674e+000  2.7808e+001  6.9225e-002 51262 88095,88251,88173
 6.0000e-001 88372 -1.4927e+001  1.7162e+001 -8.0035e+000 51262 88173,88251,88199
 6.0000e-001 88349  9.3636e-001  3.7550e+001  3.2529e+000 51262 88095,88277,88251
 6.0000e-001 88326  3.4120e+000  4.4643e+001  2.2972e-001 51262 88199,88251,88225
 6.0000e-001 88303  8.8549e-001  2.2860e+001 -1.6277e+000 51262 88121,88173,88147
 6.0000e-001 88875 -7.6085e+000  1.6927e+001 -2.3050e+000 50750 88601,88731,88627
 6.0000e-001 88852 -1.1466e+001  3.0297e+001 -4.8062e+000 50750 88601,88757,88731
 6.0000e-001 88829  1.0288e+001  3.0113e+001  6.3728e+000 50750 88627,88731,88653
 6.0000e-001 88806  6.1777e+000  2.1184e+001  5.3304e+000 50750 88653,88731,88705
 6.0000e-001 88783  4.6435e+000  1.7871e+001 -7.1482e-002 50750 88653,88705,88679
 6.0000e-001 89145  1.3161e+000  3.5356e+001 -4.3444e-001 50438 88946,89024,88972
 6.0000e-001 89122  6.8034e+000  3.1490e+001 -9.2321e-001 50438 88946,89050,89024
 6.0000e-001 89099 -5.8419e+000  2.2096e+001 -5.0210e+000 50438 88920,89050,88946
 6.0000e-001 89076 -1.4710e+000  2.7802e+001 -1.3958e+001 50438 88972,89024,88998
 6.0000e-001 89525 -4.3557e+000  2.4530e+001 -1.8010e+000 49934 89548,89277,89251
 6.0000e-001 89502 -8.9245e-001  2.1880e+001 -3.7567e+000 49934 89548,89251,89381
 6.0000e-001 89479  9.5618e+000  2.0062e+001 -2.9337e-002 49934 89303,89381,89329
 6.0000e-001 89456  3.3645e+000  2.8529e+001 -9.8680e+000 49934 89251,89407,89381
 6.0000e-001 89433  1.7735e+001  1.9691e+001 -6.7433e+000 49934 89329,89381,89355
 6.0000e-001 89574  9.3170e+000  4.4171e+001  4.1630e+000 49934 89303,89277,89548
 6.0000e-001 89597 -1.2193e+000  2.3748e+001 -2.5143e+000 49934 89303,89548,89381
 6.0000e-001 90054  4.4663e+000  2.2986e+001 -3.7621e+000 49380 89832,89936,89910
 6.0000e-001 90031  7.9950e+000  2.3417e+001  4.0179e-001 49380 89780,89936,89832
 6.0000e-001 90008  1.7829e+001  3.4848e+001 -3.7762e+000 49380 89780,89832,89806
 6.0000e-001 89985  6.8912e+000  1.5777e+001 -6.5853e+000 49380 89832,89910,89858
 6.0000e-001 89962  1.9542e+001  5.0372e+001 -2.3737e+000 49380 89858,89910,89884
 6.0000e-001 90560  1.7879e+001  3.5081e+001  3.9471e+000 48890 90289,90341,90315
 6.0000e-001 90537  1.1316e+001  3.2196e+001  1.3031e+000 48890 90289,90393,90341
 6.0000e-001 90514 -7.6325e-001  2.9431e+001 -2.6907e+000 48890 90263,90393,90289
 6.0000e-001 90491  7.9080e+000  3.6719e+001 -1.3245e+001 48890 90237,90393,90263
 6.0000e-001 90468  2.2345e+001  4.8436e+001 -3.5327e+000 48890 90341,90393,90367
 6.0000e-001 90445  1.5707e+001  3.4428e+001 -5.8252e+000 48890 90237,90419,90393
 6.0000e-001 91115  1.2359e+001  3.5207e+001 -5.3191e+000 48486 90795,90873,90847
 6.0000e-001 91092  5.7093e+000  3.7575e+001 -7.1769e+000 48486 90795,90925,90873
 6.0000e-001 91069 -6.3021e+000  3.6522e+001 -2.7273e+000 48486 90769,90925,90795
 6.0000e-001 91046 -1.7545e+001  3.3428e+001 -1.8831e+000 48486 90769,90951,90925
 6.0000e-001 91023  8.9340e+000  3.1649e+001 -8.7960e-001 48486 90795,90847,90821
 6.0000e-001 91000  4.3324e+000  2.6152e+001 -1.7104e+001 48486 90873,90925,90899
 6.0000e-001 90977 -8.0619e-001  4.1804e+001  1.1465e+000 48486 90743,90951,90769
 6.0000e-001 91265  2.2986e+001  5.9594e+001 -7.7155e+000 48082 91288,91190,91164
 6.0000e-001 91242  1.4802e+001  4.1019e+001 -9.3338e+000 48082 91360,91288,91164
 6.0000e-001 91314  2.1372e+001  5.0897e+001 -1.8462e+000 48082 91216,91190,91288
 6.0000e-001 91337  2.3558e+001  5.2016e+001 -8.4225e-001 48082 91216,91288,91138
 6.0000e-001 91386  2.5012e+001  5.2202e+001 -1.0001e+000 48082 91138,91288,91360
 6.0000e-001 92022 -5.1316e-001  1.4575e+001 -2.0187e+000 47514 92261,92045,91754
 6.0000e-001 91999  2.7568e+000  1.3808e+001 -4.2115e+000 47514 92189,92045,91702
 6.0000e-001 91976  6.8105e+000  1.8776e+001 -2.4836e+000 47514 92117,91806,91754
 6.0000e-001 91953  2.8548e+000  9.7690e+000  1.4850e-001 47514 92189,91702,91650
 6.0000e-001 91930 -8.7964e+000  2.2223e+001 -6.4652e+000 47514 92261,91754,91728
 6.0000e-001 91907  4.5975e+000  2.5230e+001 -1.8644e+000 47514 91754,91806,91780
 6.0000e-001 91884  9.1764e+000  8.3945e+000 -2.1346e+000 47514 91650,91702,91676
 6.0000e-001 92071  5.3185e+000  1.5826e+001 -4.6932e+000 47514 92117,91754,92045
 6.0000e-001 92094 -2.5218e+000  7.7761e+000 -3.6912e+000 47514 91832,92045,91858
 6.0000e-001 92143  9.2337e+000  2.0359e+001  1.7132e+000 47514 91832,91806,92117
 6.0000e-001 92166  7.7971e+000  1.4087e+001 -3.8280e-001 47514 91832,92117,92045
 6.0000e-001 92215 -2.6701e+000  1.0341e+001 -2.7238e+000 47514 91858,92045,92189
 6.0000e-001 92238 -9.6974e-002  8.0089e+000  9.2540e-001 47514 91858,92189,91650
 6.0000e-001 92287 -4.5958e+000  6.6584e+000 -8.1003e+000 47514 91702,92045,92261
 6.0000e-001 92310 -1.1833e+001  1.1239e+001 -1.3172e+001 47514 91702,92261,91728
 6.0000e-001 92460 -1.1693e+001 -1.0069e+000 -8.3132e+000 47124 92483,92359,92333
 6.0000e-001 92437 -1.0689e+001 -6.2727e+000 -1.0801e+001 47124 92555,92483,92333
 6.0000e-001 92509 -1.0950e+001 -6.2219e+000 -1.0771e+001 47124 92685,92483,92385
 6.0000e-001 92532 -1.0869e+001 -3.3894e-001 -9.2098e+000 47124 92385,92483,92411
 6.0000e-001 92581  2.2107e+000  5.5986e+000 -5.8194e+000 47124 92411,92483,92555
 6.0000e-001 92711  3.0179e+000  6.0177e+000 -5.4787e+000 47124 92359,92483,92685
 6.0000e-001 93571  1.3353e+000  2.2594e+001  1.5623e+000 46834 93594,93208,93104
 6.0000e-001 93548 -1.4031e+001  1.5828e+001  2.6982e+000 46834 93738,93594,93104
 6.0000e-001 93525 -8.6554e+000 -8.2556e-001 -1.3986e+001 46834 93666,93234,93208
 6.0000e-001 93502 -1.8606e+001  1.6685e+001  3.4522e+000 46834 93738,93104,93078
 6.0000e-001 93479 -3.3156e+000  2.6654e+001 -1.5937e+001 46834 93810,93260,93234
 6.0000e-001 93456  6.3467e+000  1.1656e+001  6.3622e+000 46834 93104,93182,93156
 6.0000e-001 93433  1.9993e+000  1.2397e+001  1.0069e+000 46834 93104,93208,93182
 6.0000e-001 93410 -1.6245e+001  3.2591e+001  1.1071e-001 46834 93286,93338,93312
 6.0000e-001 93387 -2.2460e+001  1.6206e+001  8.7896e-001 46834 93052,93338,93078
 6.0000e-001 93364  8.5777e+000  1.5992e+001  7.1482e+000 46834 93104,93156,93130
 6.0000e-001 93620 -8.3222e+000  1.5413e+001 -6.0525e+000 46834 93666,93208,93594
 6.0000e-001 93643 -9.1317e+000  2.7333e+001 -1.2899e+000 46834 93286,93594,93338
 6.0000e-001 93692 -1.5769e+000  2.1922e+001 -1.2317e+001 46834 93810,93234,93666
 6.0000e-001 93715 -1.0280e+001  2.6292e+001 -6.1091e+000 46834 93286,93666,93594
 6.0000e-001 93764 -1.1058e+001  1.7512e+001  1.6265e+000 46834 93338,93594,93738
 6.0000e-001 93787 -1.3066e+001  2.0224e+001  1.8612e+000 46834 93338,93738,93078
 6.0000e-001 93836 -1.0642e+001  2.1589e+001 -1.0990e+001 46834 93286,93260,93810
 6.0000e-001 93859 -8.0899e+000  1.7672e+001 -7.4755e+000 46834 93286,93810,93666
 6.0000e-001 94210  1.2420e+001  4.2098e+001  2.0826e+000 46472 94011,94115,94089
 6.0000e-001 94187  1.1945e+001  4.7297e+001  1.0496e+000 46472 93985,94115,94011
 6.0000e-001 94164 -1.4498e+001  3.2301e+001 -6.9987e-001 46472 94037,94089,94063
 6.0000e-001 94141 -1.0842e+001  3.1676e+001  4.1346e+000 46472 94011,94089,94037
 6.0000e-001 94746  1.5268e+001  2.1465e+001 -2.4083e+000 46068 94576,94628,94602
 6.0000e-001 94723  1.3189e+001  2.1089e+001 -5.0583e+000 46068 94498,94628,94576
 6.0000e-001 94700  2.0765e+001  3.7028e+001 -7.8235e+000 46068 94472,94628,94498
 6.0000e-001 94677  1.7229e+001  1.8582e+001 -3.8842e+000 46068 94524,94576,94550
 6.0000e-001 94654  1.7211e+001  2.1250e+001 -3.3897e+000 46068 94498,94576,94524
 6.0000e-001 95380  1.6093e+001  4.4958e+001 -9.1536e+000 45342 95034,95112,95086
 6.0000e-001 95357  1.0300e+001  3.4018e+001 -3.7760e+000 45342 95034,95190,95112
 6.0000e-001 95334  1.2016e+001  4.3823e+001  2.1588e+000 45342 95403,95164,95138
 6.0000e-001 95311  1.4188e+001  5.2441e+001  1.2364e+000 45342 95403,95138,95112
 6.0000e-001 95288  1.3010e+001  3.6155e+001 -2.8270e+000 45342 95034,95216,95190
 6.0000e-001 95265  9.3312e+000  4.9254e+001 -3.8496e+000 45342 95034,95086,95060
 6.0000e-001 95242  2.0483e+001  5.1100e+001 -1.1266e+001 45342 95008,95216,95034
 6.0000e-001 95429  1.4709e+001  3.9601e+001  1.2377e+000 45342 95190,95164,95403
 6.0000e-001 95452  1.4113e+001  4.4480e+001  1.0516e+000 45342 95190,95403,95112
 6.0000e-001 96007  1.3762e+001  4.1474e+001  7.5758e+000 44716 96030,95791,95765
 6.0000e-001 95984  9.2726e+000  2.7373e+001  1.0996e+001 44716 96030,95765,95713
 6.0000e-001 95961  9.6539e+000  4.5639e+001  7.5323e+000 44716 96174,96102,95661
 6.0000e-001 95938  1.1083e+001  3.9715e+001  6.4022e+000 44716 96174,95661,95635
 6.0000e-001 95915  1.6618e+000  2.0774e+001  2.0645e+001 44716 95661,95713,95687
 6.0000e-001 95892  6.6896e+000  2.7343e+001  1.3282e+001 44716 95713,95765,95739
 6.0000e-001 95869  8.9570e+000  3.3955e+001  5.9861e+000 44716 95635,95843,95817
 6.0000e-001 96056  9.4620e+000  5.1153e+001  1.1212e+001 44716 95817,95791,96030
 6.0000e-001 96079  8.0855e+000  4.3050e+001  8.4801e+000 44716 96102,95817,96030
 6.0000e-001 96128  9.0510e+000  4.7216e+001  1.0637e+001 44716 95713,95661,96102
 6.0000e-001 96151  7.4044e+000  4.2282e+001  9.5081e+000 44716 95713,96102,96030
 6.0000e-001 96200  7.1789e+000  3.7753e+001  8.4903e+000 44716 95817,96102,96174
 6.0000e-001 96223  9.9669e+000  3.4092e+001  6.2638e+000 44716 95817,96174,95635
 6.0000e-001 96680  4.6412e+000  1.2858e+001  3.6441e-001 44198 96775,96703,96458
 6.0000e-001 96657  6.3139e+000  2.2770e+001 -7.5718e+000 44198 96703,96406,96562
 6.0000e-001 96634 -4.0695e+000  1.3487e+001  8.4706e-001 44198 96775,96458,96432
 6.0000e-001 96611  2.0935e+001  1.4996e+001 -4.7423e+000 44198 96484,96536,96510
 6.0000e-001 96588  9.2914e+000  1.4049e+001  2.0013e+000 44198 96458,96536,96484
 6.0000e-001 96729  5.5752e+000  1.4606e+001  6.0914e-003 44198 96536,96458,96703
 6.0000e-001 96752  2.8200e+000  1.1889e+001 -3.1625e+000 44198 96536,96703,96562
 6.0000e-001 96801 -6.2899e+000  1.5076e+001 -1.9149e+000 44198 96406,96703,96775
 6.0000e-001 96824 -1.4921e+001  1.5668e+001  2.6475e-001 44198 96406,96775,96432
 6.0000e-001 97202  4.1158e+000  4.8240e+000  7.4276e+000 43750 97225,96980,96928
 6.0000e-001 97179  3.6498e+000 -1.6959e+000  1.1395e+001 43750 97225,96928,97084
 6.0000e-001 97156  3.3965e+000  1.8062e+001  8.9775e+000 43750 96928,96980,96954
 6.0000e-001 97133  8.7910e+000  1.3414e+001  2.4994e+000 43750 97006,97084,97058
 6.0000e-001 97110  2.0351e+001  9.5156e+000  2.7199e+000 43750 97006,97058,97032
 6.0000e-001 97251  6.6146e+000  1.6547e+001  2.8834e+000 43750 97006,96980,97225
 6.0000e-001 97274  1.8085e+000  5.3342e+000  7.6002e+000 43750 97006,97225,97084
 6.0000e-001 97522  2.6873e+000  3.8257e+001 -4.2433e+000 43360 97545,97375,97349
 6.0000e-001 97499 -4.5430e+000  2.9074e+001 -8.2846e+000 43360 97545,97349,97323
 6.0000e-001 97476  4.9947e+000  2.6938e+001 -8.9534e+000 43360 97617,97427,97401
 6.0000e-001 97453 -3.3978e+000  5.2792e+000 -2.1519e+001 43360 97297,97427,97323
 6.0000e-001 97571  8.6171e-001  2.4874e+001 -2.8908e+000 43360 97401,97375,97545
 6.0000e-001 97594  4.1911e+000  2.4695e+001 -7.4930e+000 43360 97617,97401,97545
 6.0000e-001 97643  5.9826e+000  2.9712e+001 -1.0973e+001 43360 97323,97427,97617
 6.0000e-001 97666  5.0407e+000  2.8405e+001 -9.3382e+000 43360 97323,97617,97545
 6.0000e-001 98019  1.0633e+001  3.4036e+001 -5.5413e+000 42956 97794,97898,97820
 6.0000e-001 97996  3.3869e+000  1.6226e+001  4.8694e-001 42956 97794,97924,97898
 6.0000e-001 97973 -1.1582e+001  7.1274e+001 -4.0083e+000 42956 97820,97872,97846
 6.0000e-001 97950 -1.6899e+001  3.0751e+001 -3.8488e+000 42956 97820,97898,97872
 6.0000e-001 98446  1.5856e+001  2.7523e+001 -4.1103e+000 42559 98149,98305,98279
 6.0000e-001 98423  2.0505e+001  3.1354e+001 -2.0376e+000 42559 98123,98305,98149
 6.0000e-001 98400  1.1144e+001  2.5795e+001 -4.9573e+000 42559 98469,98175,98149
 6.0000e-001 98377  1.6937e+001  3.9222e+001 -7.7206e+000 42559 98469,98149,98279
 6.0000e-001 98354  1.1649e+001  3.8919e+001 -9.8327e+000 42559 98175,98253,98227
 6.0000e-001 98331  1.4281e+001  4.3584e+001 -1.2397e+001 42559 98175,98227,98201
 6.0000e-001 98495  1.4656e+001  3.4706e+001 -1.1639e+001 42559 98253,98175,98469
 6.0000e-001 98518  1.6215e+001  3.9553e+001 -1.4318e+001 42559 98253,98469,98279
 6.0000e-001 98847  2.7869e+000  1.2258e+001 -1.4655e+000 42247 98674,98752,98700
 6.0000e-001 98824  7.1603e+000  2.1170e+001 -3.0692e+000 42247 98648,98752,98674
 6.0000e-001 98801  4.3597e+000  1.4238e+001 -6.2617e+000 42247 98622,98752,98648
 6.0000e-001 98778  9.2711e+000  2.2527e+001 -1.4043e+001 42247 98700,98752,98726
 6.0000e-001 99117  3.7815e+000  1.0071e+001 -3.1035e+000 41843 98892,98996,98918
 6.0000e-001 99094 -6.9036e+000  1.5406e+001 -8.5732e+000 41843 98892,99022,98996
 6.0000e-001 99071  1.6979e+001  2.9278e+001  2.6661e+000 41843 98918,98996,98970
 6.0000e-001 99048  5.1752e+000  2.6381e+001  3.8281e-001 41843 98918,98970,98944
 6.0000e-001 99625  2.4016e+001  5.9370e+001  1.3576e+001 41232 99648,99380,99354
 6.0000e-001 99602  1.9925e+000  3.9891e+001  2.5874e+000 41232 99648,99354,99328
 6.0000e-001 99579  7.1652e+000  3.9495e+001 -5.4387e-001 41232 99720,99432,99380
 6.0000e-001 99556  2.3504e+001  4.0399e+001 -9.7102e+000 41232 99380,99432,99406
 6.0000e-001 99533 -7.5368e+000  2.8201e+001 -4.0450e+000 41232 99328,99484,99458
 6.0000e-001 99510 -2.3794e+001  9.9719e+000 -1.3374e+001 41232 99302,99484,99328
 6.0000e-001 99674  1.0076e+001  4.0133e+001  1.9190e-001 41232 99720,99380,99648
 6.0000e-001 99697  7.6288e+000  3.3213e+001 -5.3809e+000 41232 99458,99648,99328
 6.0000e-001 99746  3.8429e+000  4.0460e+001 -1.5766e+000 41232 99458,99432,99720
 6.0000e-001 99769  5.8856e+000  4.0891e+001 -4.5938e-001 41232 99458,99720,99648
 6.0000e-001 100275  2.0631e+001  2.3173e+001  1.0676e+001 40728 99952,100004,99978
 6.0000e-001 100252  7.8433e+000  2.1299e+001  4.2999e+000 40728 99952,100030,100004
 6.0000e-001 100229  1.2378e+001  3.7760e+001  2.6779e+000 40728 99952,100134,100030
 6.0000e-001 100206  4.2058e+000  3.7500e+001 -6.2234e+000 40728 100298,100108,100082
 6.0000e-001 100183  5.4636e+000  2.2480e+001 -8.4976e+000 40728 100298,100082,100030
 6.0000e-001 100160 -1.5421e+001  3.1030e+001 -3.0492e+001 40728 100030,100082,100056
 6.0000e-001 100324  3.2450e+000  4.9670e+001 -9.5220e-001 40728 100134,100108,100298
 6.0000e-001 100347  3.1814e+000  3.1523e+001 -2.0397e+000 40728 100134,100298,100030
 6.0000e-001 100853  5.9431e+000  4.1045e+001 -4.6093e+000 40274 100876,100686,100660
 6.0000e-001 100830  8.6306e+000  3.0943e+001 -1.0110e+000 40274 100948,100876,100660
 6.0000e-001 100807  4.9505e+000  2.9366e+001 -4.0366e+000 40274 100948,100660,100608
 6.0000e-001 100784  7.9425e+000  3.8046e+001  2.1058e+000 40274 101020,100556,100712
 6.0000e-001 100761  6.1271e+000  3.6307e+001  1.3756e+000 40274 100530,100712,100556
 6.0000e-001 100738  1.6600e+000  3.4000e+001 -1.6780e+000 40274 100608,100660,100634
 6.0000e-001 100902  6.7911e+000  5.9267e+001  1.3542e+000 40274 100712,100686,100876
 6.0000e-001 100925  2.4149e+000  3.9147e+001 -2.4591e+000 40274 101020,100712,100876
 6.0000e-001 100974  6.3502e+000  2.9047e+001 -7.0223e+000 40274 100582,100876,100948
 6.0000e-001 100997 -1.4524e+000  2.6267e+001 -9.9085e+000 40274 100582,100948,100608
 6.0000e-001 101046  1.5000e+001  4.1004e+001  3.5118e+000 40274 100582,100556,101020
 6.0000e-001 101069  1.0834e+001  4.1963e+001 -1.8260e+000 40274 100582,101020,100876
 6.0000e-001 101496 -1.1579e+000  3.1333e+001 -1.3575e+000 39820 101519,101277,101225
 6.0000e-001 101473 -7.5223e+000  2.2943e+001 -4.2194e+000 39820 101519,101225,101199
 6.0000e-001 101450 -6.8759e+000  1.8805e+001 -1.5451e+000 39820 101173,101355,101199
 6.0000e-001 101427 -5.2061e+000  2.2298e+001  7.7441e+000 39820 101277,101355,101303
 6.0000e-001 101404 -3.3695e+000  2.4919e+001 -1.0946e+001 39820 101225,101277,101251
 6.0000e-001 101381  2.6840e+000  1.7392e+001  1.0326e+001 39820 101303,101355,101329
 6.0000e-001 101545  1.7022e+000  2.6659e+001  2.2317e+000 39820 101355,101277,101519
 6.0000e-001 101568 -9.8162e-001  2.4032e+001  7.7293e-001 39820 101355,101519,101199
 6.0000e-001 101816  1.1069e+000 -2.6126e+000  7.0581e+000 39066 101839,101695,101643
 6.0000e-001 101793 -3.0020e-001  4.3949e+000  4.7427e+000 39066 101839,101643,101591
 6.0000e-001 101770  5.0328e+000 -6.0675e+000  2.9655e+000 39066 101643,101695,101669
 6.0000e-001 101747  9.9095e+000  1.9882e+001  3.2192e-001 39066 101591,101643,101617
 6.0000e-001 101865  7.5304e-001  8.1388e-002  3.0117e+000 39066 101721,101695,101839
 6.0000e-001 101888  1.6102e+000  9.6525e+000  4.6132e-001 39066 101721,101839,101591
 6.0000e-001 102087  1.6600e+000  4.0509e+001 -1.2514e+000 38726 101937,101989,101963
 6.0000e-001 102064 -9.8532e+000  2.7602e+001  4.0492e+000 38726 101937,102015,101989
 6.0000e-001 102041  1.3010e+001  3.6474e+001  5.0416e+000 38726 101911,102015,101937
 6.0000e-001 102337 -4.0126e-001  2.5945e+001 -3.8288e+000 38322 102112,102190,102138
 6.0000e-001 102314 -2.8580e+000  2.5261e+001 -5.7698e-001 38322 102112,102216,102190
 6.0000e-001 102291 -5.6710e-001  2.5771e+001 -6.6937e-001 38322 102112,102242,102216
 6.0000e-001 102268 -6.6608e+000  2.7110e+001 -5.2830e+000 38322 102138,102190,102164
 6.0000e-001 102489  1.8871e+001  5.3303e+001  2.0692e+000 38032 102512,102388,102362
 6.0000e-001 102466  1.4737e+001  6.7759e+001 -5.4295e+000 38032 102512,102362,102440
 6.0000e-001 102538  2.0775e+001  4.1215e+001  1.1392e-001 38032 102414,102388,102512
 6.0000e-001 102561  1.2328e+001  4.9323e+001 -9.8708e+000 38032 102414,102512,102440
 6.0000e-001 102894  2.3276e+001  4.6806e+001  5.3028e+000 37592 102669,102773,102695
 6.0000e-001 102871  1.5932e+001  4.4279e+001  6.3353e+000 37592 102669,102799,102773
 6.0000e-001 102848  2.0846e+001  6.3868e+001  9.7002e+000 37592 102721,102773,102747
 6.0000e-001 102825  2.0928e+001  5.0418e+001  4.6338e+000 37592 102695,102773,102721
 6.0000e-001 103093 -1.6071e+000  2.9872e+001 -4.3503e+000 37188 102917,102995,102943
 6.0000e-001 103070 -3.2360e+000  3.0787e+001 -1.3999e+000 37188 102917,103021,102995
 6.0000e-001 103047 -8.5471e-001  2.5963e+001 -2.5500e+000 37188 102943,102995,102969
 6.0000e-001 103341 -1.8524e+000  1.6483e+001 -7.0847e+000 36605 103142,103194,103168
 6.0000e-001 103318  1.2180e+001  2.5543e+001 -1.1142e+001 36605 103142,103220,103194
 6.0000e-001 103295  3.9896e-001  2.6686e+001 -9.8696e+000 36605 103116,103220,103142
 6.0000e-001 103272 -1.9631e+001  2.6761e+001 -1.2027e+001 36605 103116,103246,103220
 6.0000e-001 103949  1.9978e+001  2.1632e+001  8.8333e+000 36127 103554,103606,103580
 6.0000e-001 103926  6.0968e-001  2.7444e+001  8.4375e+000 36127 103528,103606,103554
 6.0000e-001 103903  9.4427e-001  1.6735e+001 -4.3380e+000 36127 103528,103736,103606
 6.0000e-001 103880  1.0960e+001  1.4281e+001 -2.3421e+000 36127 103972,103710,103632
 6.0000e-001 103857  1.3733e+001  2.0543e+001  3.1251e+000 36127 103972,103632,103606
 6.0000e-001 103834  1.4422e+001  6.1199e+000 -1.4264e+000 36127 103632,103710,103658
 6.0000e-001 103811 -2.4450e+001  2.7324e+001 -2.1020e+001 36127 103528,103762,103736
 6.0000e-001 103788  1.1238e+001  6.1578e-001  1.1192e+000 36127 103658,103710,103684
 6.0000e-001 103998  6.2303e+000  8.1682e+000 -6.8729e+000 36127 103736,103710,103972
 6.0000e-001 104021  9.6714e+000  1.4214e+001 -1.2633e+000 36127 103736,103972,103606
 6.0000e-001 104220 -2.5425e+001  7.5870e+000  5.3669e+000 35787 104070,104148,104122
 6.0000e-001 104197 -2.7128e+001  2.7161e+000  4.0029e+000 35787 104044,104148,104070
 6.0000e-001 104174 -4.9401e+000  1.2307e+001  5.3502e+000 35787 104070,104122,104096
 6.0000e-001 104419  2.3630e+001  4.5212e+001 -6.1920e-001 35440 104269,104321,104295
 6.0000e-001 104396  1.8833e+001  4.4741e+001  1.6841e+000 35440 104269,104347,104321
 6.0000e-001 104373  1.3984e+001  4.1319e+001 -8.6590e-002 35440 104243,104347,104269
 6.0000e-001 104718  5.8620e+000  3.0956e+001 -5.7658e-001 34986 104496,104548,104522
 6.0000e-001 104695  2.9840e+000  3.1008e+001 -2.0820e+000 34986 104741,104548,104496
 6.0000e-001 104672  4.5637e+000  2.8496e+001 -2.7594e+000 34986 104741,104496,104444
 6.0000e-001 104649  2.6911e+000  2.9231e+001 -1.3664e+000 34986 104813,104574,104548
 6.0000e-001 104626  8.0546e+000  3.7295e+001 -4.6672e-001 34986 104444,104496,104470
 6.0000e-001 104767  2.6482e+000  2.9254e+001 -2.0718e+000 34986 104813,104548,104741
 6.0000e-001 104790  3.9797e+000  2.5737e+001 -2.1796e+000 34986 104600,104741,104444
 6.0000e-001 104839  4.6789e+000  3.1278e+001 -5.0868e-001 34986 104600,104574,104813
 6.0000e-001 104862  3.4352e+000  2.9594e+001 -1.5713e+000 34986 104600,104813,104741
 6.0000e-001 105014 -3.1468e+000  2.8101e+001 -6.4902e+000 34696 105169,105037,104913
 6.0000e-001 104991 -2.0359e+000  2.5683e+001 -3.9909e+000 34696 105169,104913,104887
 6.0000e-001 105063  1.1863e+001  3.9245e+001 -1.4223e+000 34696 104939,104913,105037
 6.0000e-001 105195 -6.3498e+000  2.7466e+001 -4.7663e+000 34696 104965,105037,105169
 6.0000e-001 105218 -5.2396e+000  2.5446e+001 -2.2996e+000 34696 104965,105169,104887
 6.0000e-001 105368 -8.7653e-001  4.0068e+001 -3.5291e+000 34384 105267,105319,105293
 6.0000e-001 105345  3.6641e+000  4.8494e+001 -1.0386e+000 34384 105241,105319,105267
 6.0000e-001 105616 -2.2209e+000  2.6926e+001 -2.9157e-001 33730 105639,105417,105391
 6.0000e-001 105593 -3.5224e-001  2.5406e+001 -2.0555e+000 33730 105639,105391,105495
 6.0000e-001 105570 -2.2585e+000  2.8192e+001 -2.9842e+000 33730 105391,105521,105495
 6.0000e-001 105547  5.3962e+000  2.6390e+001  6.0861e+000 33730 105417,105469,105443
 6.0000e-001 105665 -3.8529e-001  2.7287e+001 -3.7364e-001 33730 105469,105417,105639
 6.0000e-001 105688  4.1447e+000  2.7309e+001 -2.2288e+000 33730 105469,105639,105495
 6.0000e-001 105840  1.7823e+001  4.9019e+001 -2.4158e+000 33390 105713,105765,105739
 6.0000e-001 105817  1.6308e+001  4.8114e+001 -2.0361e+000 33390 105713,105791,105765
 6.0000e-001 106090  5.6694e+000  3.6331e+001  6.7123e-001 33043 106113,105943,105891
 6.0000e-001 106067  6.7835e-001  3.4274e+001  4.3938e-001 33043 106113,105891,105865
 6.0000e-001 106044  1.3503e+001  4.4073e+001 -4.8340e+000 33043 105891,105943,105917
 6.0000e-001 106021 -2.0970e+000  3.5250e+001 -4.9696e+000 33043 105865,105995,105969
 6.0000e-001 106139  1.7605e+001  3.5150e+001 -3.0027e+000 33043 105969,105943,106113
 6.0000e-001 106162  5.3297e+000  2.9907e+001 -3.6095e+000 33043 105969,106113,105865
 6.0000e-001 106412  9.3846e-001  6.2927e+000 -2.7462e+000 32539 106435,106291,106239
 6.0000e-001 106389  1.0796e+001  1.1856e+000 -2.9951e+000 32539 106187,106317,106291
 6.0000e-001 106366  3.0106e+000  1.4557e+001  1.1834e+000 32539 106435,106239,106213
 6.0000e-001 106343  8.2058e+000  1.9002e+000 -1.4689e+000 32539 106239,106291,106265
 6.0000e-001 106461  3.7141e-001  2.9497e+000 -6.8807e+000 32539 106187,106291,106435
 6.0000e-001 106484 -6.2492e-002  9.7206e+000 -3.5070e+000 32539 106187,106435,106213
 6.0000e-001 106685  4.7375e+000  2.9542e+001 -4.0871e+000 31835 106535,106587,106561
 6.0000e-001 106662 -4.3836e+000  2.9370e+001  2.2779e+000 31835 106509,106587,106535
 6.0000e-001 106639  1.0344e+001  3.9632e+001 -2.5234e+000 31835 106509,106613,106587
 6.0000e-001 106935  2.8954e+000  2.0027e+001 -3.4396e+000 31530 106736,106814,106788
 6.0000e-001 106912 -4.9344e-001  1.9661e+001 -2.4532e+000 31530 106710,106814,106736
 6.0000e-001 106889 -4.9208e-001  1.6002e+001 -1.8497e+000 31530 106736,106788,106762
 6.0000e-001 106866  1.0442e+000  2.2144e+001 -5.8872e+000 31530 106710,106840,106814
 6.0000e-001 107339 -2.0663e+001  1.4000e+001 -4.3861e+000 31026 107117,107221,107195
 6.0000e-001 107316 -1.3696e+001  5.8195e+000 -3.9763e-001 31026 107091,107221,107117
 6.0000e-001 107293 -6.7302e+000  7.2955e+000 -2.1844e+000 31026 107065,107221,107091
 6.0000e-001 107270 -2.8134e+001  2.1587e+001  1.9636e+000 31026 107143,107195,107169
 6.0000e-001 107247 -4.0808e+001  4.9989e+000 -6.1459e+000 31026 107117,107195,107143
 6.0000e-001 107538  7.2587e+000  4.1349e+001 -1.1152e+000 30714 107561,107388,107362
 6.0000e-001 107515  8.8974e+000  4.3738e+001 -1.8650e+000 30714 107561,107362,107466
 6.0000e-001 107492  9.7456e+000  3.9049e+001 -5.2787e+000 30714 107414,107466,107440
 6.0000e-001 107587  9.4293e+000  3.7596e+001 -9.1166e-001 30714 107414,107388,107561
 6.0000e-001 107610  1.1464e+001  4.0559e+001 -1.8096e+000 30714 107414,107561,107466
 6.0000e-001 107990  1.0497e+001  2.9713e+001  4.1588e+000 30260 108013,107846,107768
 6.0000e-001 107967  1.2605e+001  3.4791e+001  1.4701e+000 30260 108013,107768,107716
 6.0000e-001 107944  6.1605e+000  3.9069e+001  1.7074e+000 30260 107716,107768,107742
 6.0000e-001 107921  1.9742e+001  3.8084e+001  7.7460e+000 30260 107768,107846,107820
 6.0000e-001 107898  1.8605e+001  3.1854e+001  4.2974e+000 30260 107768,107820,107794
 6.0000e-001 108039  1.2412e+001  3.1912e+001  6.6006e-001 30260 107872,107846,108013
 6.0000e-001 108062  1.3395e+001  3.6931e+001 -1.7358e+000 30260 107872,108013,107716
 6.0000e-001 108261  1.1632e+000  1.1026e+001  1.1859e+000 29870 108284,108085,108163
 6.0000e-001 108238  8.1334e+000  1.3070e+001  7.7940e-001 29870 108085,108189,108163
 6.0000e-001 108215  7.1734e-001  1.5810e+001  5.5287e+000 29870 108284,108163,108137
 6.0000e-001 108310  7.9166e-001  1.7181e+001  2.1043e+000 29870 108111,108085,108284
 6.0000e-001 108333 -3.8855e-001  2.2627e+001  5.0586e+000 29870 108111,108284,108137
 6.0000e-001 108664  1.5473e+001  3.5333e+001  6.7840e-001 29480 108465,108569,108543
 6.0000e-001 108641 -4.5561e+000  2.8863e+001  3.1695e+000 29480 108439,108569,108465
 6.0000e-001 108618  1.4419e+001  2.9369e+001  4.7334e+000 29480 108465,108543,108491
 6.0000e-001 108595  1.3728e+001  2.2152e+001  2.9594e+000 29480 108491,108543,108517
 6.0000e-001 108993  6.5097e+000  3.8369e+000 -1.4327e+000 29076 108794,108872,108820
 6.0000e-001 108970  6.6083e+000  3.1671e+000 -1.0000e+000 29076 108768,108872,108794
 6.0000e-001 108947  6.1987e+000  2.3421e+000 -1.4648e+000 29076 108820,108872,108846
 6.0000e-001 108924  1.2423e+001  5.1648e+000 -2.6355e+000 29076 108768,108898,108872
 6.0000e-001 109420 -4.4523e+000  1.6890e+001  8.2065e+000 28472 109123,109227,109201
 6.0000e-001 109397  1.5884e-001  2.4552e+001  5.1615e+000 28472 109123,109253,109227
 6.0000e-001 109374 -2.1272e+000  1.9778e+001  7.1592e+000 28472 109123,109201,109175
 6.0000e-001 109351 -1.5309e+001  1.8339e+001  3.2772e+000 28472 109123,109279,109253
 6.0000e-001 109328 -2.7082e+000  1.7677e+001  7.5005e+000 28472 109123,109175,109149
 6.0000e-001 109305 -1.9004e+001  2.7978e+001 -4.6382e-001 28472 109097,109279,109123
 6.0000e-001 109749  6.7430e+000  3.1424e+001 -6.8336e+000 28018 109772,109602,109576
 6.0000e-001 109726  3.5767e+000  2.2600e+001 -6.9953e+000 28018 109772,109576,109550
 6.0000e-001 109703  1.4111e+001  1.3945e+001 -1.1179e+000 28018 109524,109628,109550
 6.0000e-001 109680  1.1404e+001  1.0791e+001  1.7648e+000 28018 109524,109654,109628
 6.0000e-001 109798  1.6861e+001  3.2355e+001  6.2788e+000 28018 109628,109602,109772
 6.0000e-001 109821  8.1113e+000  1.3035e+001  1.9450e+000 28018 109628,109772,109550
 6.0000e-001 110199  2.3991e-001  2.6897e+001 -8.3988e+000 27564 110029,110081,110055
 6.0000e-001 110176  8.7659e+000  3.1746e+001 -1.8120e+000 27564 109925,110081,110029
 6.0000e-001 110153  1.3076e+001  2.1075e+001  6.2417e-001 27564 109925,110029,109977
 6.0000e-001 110130  1.8446e+001  2.3371e+001  6.7216e-001 27564 109977,110029,110003
 6.0000e-001 110107  1.7806e+001  2.6598e+001  5.4324e+000 27564 109925,109977,109951
 6.0000e-001 110398  4.6355e+000  1.7572e+001  4.5602e-001 27003 110248,110326,110300
 6.0000e-001 110375  7.0685e+000  2.1970e+001  1.4080e+000 27003 110222,110326,110248
 6.0000e-001 110352  3.7742e+000  1.5332e+001 -2.0602e+000 27003 110248,110300,110274
 6.0000e-001 110646  1.0908e+001  7.0673e+000  1.5489e+000 26563 110669,110473,110421
 6.0000e-001 110623  1.3015e+001  1.5784e+001 -1.8307e+000 26563 110669,110421,110551
 6.0000e-001 110600  1.0717e+001  4.2594e+000  2.6602e+000 26563 110473,110525,110499
 6.0000e-001 110577  1.0898e+001  9.5381e+000  6.1549e+000 26563 110421,110473,110447
 6.0000e-001 110695  1.1897e+001  4.5322e+000  2.7169e+000 26563 110525,110473,110669
 6.0000e-001 110718  1.0275e+001  7.5137e+000 -7.1462e-001 26563 110525,110669,110551
 6.0000e-001 110870 -9.7845e+000  2.5960e+001 -2.2653e+000 26166 110769,110821,110795
 6.0000e-001 110847 -2.9295e+000  1.2909e+001  3.0939e+000 26166 110743,110821,110769
 6.0000e-001 111380 -1.2886e+000  2.2717e+001  6.0199e+000 25712 111403,111109,111083
 6.0000e-001 111357  4.1989e+000  2.5919e+001  4.6457e+000 25712 111403,111083,111239
 6.0000e-001 111334 -1.1570e+001  2.4887e+001  1.8303e+001 25712 111109,111161,111135
 6.0000e-001 111311 -1.4005e+000  2.2605e+001  2.9509e+000 25712 111057,111239,111083
 6.0000e-001 111288  9.1591e+000  1.7375e+001  4.8237e+000 25712 111161,111239,111187
 6.0000e-001 111265  1.7666e+001  2.1329e+001  3.6297e+000 25712 111187,111239,111213
 6.0000e-001 111429  3.9683e+000  1.8016e+001  7.8663e+000 25712 111161,111109,111403
 6.0000e-001 111452  1.0591e+001  2.1804e+001  6.3244e+000 25712 111161,111403,111239
 6.0000e-001 111651  7.3716e+000  2.8607e+001  1.2115e+000 25300 111674,111501,111475
 6.0000e-001 111628  7.4485e+000  2.4305e+001  1.6268e+000 25300 111674,111475,111579
 6.0000e-001 111605  6.9898e+000  3.0399e+001 -2.2271e+000 25300 111501,111553,111527
 6.0000e-001 111700  6.7715e+000  3.2114e+001  1.1059e+000 25300 111553,111501,111674
 6.0000e-001 111723  7.3417e+000  2.8551e+001  1.8543e+000 25300 111553,111674,111579
 6.0000e-001 111922  9.6178e+000  1.8369e+001 -5.5955e+000 24732 111798,111850,111824
 6.0000e-001 111899  8.2496e+000  2.0473e+001 -8.2573e+000 24732 111772,111850,111798
 6.0000e-001 111876  1.2129e+001  2.0589e+001 -8.5973e+000 24732 111746,111850,111772
 6.0000e-001 112255  1.9705e+001  5.1337e+001 -8.5037e+000 24142 112056,112108,112082
 6.0000e-001 112232  2.4012e+001  5.0476e+001 -4.1341e+000 24142 112056,112134,112108
 6.0000e-001 112209  1.2589e+001  3.1743e+001  8.0968e-001 24142 112056,112160,112134
 6.0000e-001 112186  2.1790e+001  2.9913e+001 -1.8944e+000 24142 112030,112160,112056
 6.0000e-001 112601 -1.0930e+001 -3.5735e+000  1.7596e+001 23852 112624,112382,112356
 6.0000e-001 112578 -9.9013e+000  1.3905e+001  1.3397e+001 23852 112696,112624,112356
 6.0000e-001 112555 -6.0080e+000  1.7774e+001  9.7683e+000 23852 112696,112356,112304
 6.0000e-001 112532 -1.8962e+001  3.4126e+001  1.0756e+001 23852 112304,112356,112330
 6.0000e-001 112509  2.2235e+000  1.8267e+001 -1.4416e+000 23852 112278,112460,112304
 6.0000e-001 112486  1.0648e+001  2.3301e+000  2.5526e+000 23852 112382,112434,112408
 6.0000e-001 112650  7.9866e+000  1.0482e+001  9.0185e+000 23852 112434,112382,112624
 6.0000e-001 112673 -8.7720e+000  4.6714e+000  5.3120e+000 23852 112434,112624,112460
 6.0000e-001 112722 -4.0471e+000  1.2691e+001  2.9041e+000 23852 112460,112624,112696
 6.0000e-001 112745  2.1400e+000  2.3316e+001 -1.3638e+000 23852 112460,112696,112304
 6.0000e-001 113015 -2.0868e+001  5.0046e+001 -1.0205e+001 23490 112842,112894,112868
 6.0000e-001 112992 -1.0533e+001  2.7240e+001 -8.2296e+000 23490 112816,112894,112842
 6.0000e-001 112969 -1.3594e+001  2.6150e+001 -4.0026e-002 23490 112790,112894,112816
 6.0000e-001 112946 -1.1004e+001  3.7914e+001  2.5227e+000 23490 112790,112920,112894
 6.0000e-001 113348  6.4637e+000  2.0230e+001 -3.3196e+000 22970 113175,113253,113227
 6.0000e-001 113325  1.0761e+001  1.9658e+001 -3.1962e+000 22970 113149,113253,113175
 6.0000e-001 113302  6.7497e+000  1.9925e+001 -4.3113e+000 22970 113175,113227,113201
 6.0000e-001 113279  1.2755e+001  2.2752e+001 -1.8073e+000 22970 113123,113253,113149
 6.0000e-001 113645 -4.8042e+000  2.1819e+001 -1.0429e+000 22366 113423,113527,113449
 6.0000e-001 113622 -9.0694e+000  1.8227e+001 -2.6166e+000 22366 113371,113527,113423
 6.0000e-001 113599 -4.9916e+000  2.2680e+001  4.5102e+000 22366 113449,113527,113501
 6.0000e-001 113576  1.1794e+000  2.2220e+001  1.0951e+001 22366 113449,113501,113475
 6.0000e-001 113553 -5.2436e+000  2.2969e+001 -7.1760e+000 22366 113371,113423,113397
 6.0000e-001 113893  1.2767e+001  3.4595e+001  4.0313e+000 21912 113916,113746,113720
 6.0000e-001 113870  1.1916e+001  4.2550e+001  4.9076e+000 21912 113916,113720,113668
 6.0000e-001 113847  1.0198e+001  4.1191e+001  7.2795e+000 21912 113988,113798,113772
 6.0000e-001 113824  1.1390e+001  4.1897e+001  3.2084e+000 21912 113668,113720,113694
 6.0000e-001 113942  1.5751e+001  4.7108e+001  1.4892e-001 21912 113772,113746,113916
 6.0000e-001 113965  1.1849e+001  4.6590e+001  4.4070e+000 21912 113988,113772,113916
 6.0000e-001 114014  1.3861e+001  3.6485e+001  5.3811e+000 21912 113668,113798,113988
 6.0000e-001 114037  1.1926e+001  3.8634e+001  4.4740e+000 21912 113668,113988,113916
 6.0000e-001 114287  5.5318e+000  2.5320e+001 -1.3361e+000 21408 114088,114140,114114
 6.0000e-001 114264  9.3790e+000  3.4987e+001 -2.0842e+000 21408 114310,114140,114088
 6.0000e-001 114241 -3.4465e+000  2.9004e+001 -5.1916e-001 21408 114310,114088,114192
 6.0000e-001 114218  6.2434e+000  3.1203e+001  4.4487e-001 21408 114062,114192,114088
 6.0000e-001 114336 -1.1471e+000  3.9845e+001 -8.1504e+000 21408 114166,114140,114310
 6.0000e-001 114359 -9.9635e+000  3.5636e+001 -6.7146e+000 21408 114166,114310,114192
 6.0000e-001 114609  1.1892e+001  2.7338e+001 -4.4513e+000 21018 114632,114488,114436
 6.0000e-001 114586  7.8977e+000  2.6841e+001 -1.0647e+001 21018 114632,114436,114410
 6.0000e-001 114563  2.1663e+001  2.6789e+001 -9.1095e+000 21018 114384,114514,114410
 6.0000e-001 114540  1.4699e+000  3.4141e+001 -1.7980e+000 21018 114436,114488,114462
 6.0000e-001 114658  2.0516e+001  2.9524e+001 -1.9206e+000 21018 114514,114488,114632
 6.0000e-001 114681  1.4351e+001  2.8243e+001 -7.8969e+000 21018 114514,114632,114410
 6.0000e-001 114882  4.5620e+001  4.1892e+001  8.9378e+000 20614 114732,114784,114758
 6.0000e-001 114859  2.9534e+001  3.9131e+001  3.5638e+000 20614 114732,114810,114784
 6.0000e-001 114836  2.5757e+001  3.3935e+001  1.5868e+000 20614 114706,114810,114732
 6.0000e-001 115132  1.0975e+000  3.1069e+001 -2.4097e+000 20110 114907,115011,114933
 6.0000e-001 115109  9.4257e+000  3.3565e+001 -1.6898e+000 20110 114907,115037,115011
 6.0000e-001 115086  2.0627e+000  3.0742e+001 -2.4915e+000 20110 114933,115011,114985
 6.0000e-001 115063  3.4103e+000  3.9416e+001 -1.0362e+001 20110 114933,114985,114959
 6.0000e-001 115284 -2.7461e+000  3.2998e+001 -5.8730e-001 19456 115378,115307,115157
 6.0000e-001 115261 -5.3816e+000  3.6504e+001 -1.5364e+000 19456 115378,115157,115235
 6.0000e-001 115333 -3.3234e+000  3.2042e+001 -3.3761e-001 19456 115183,115157,115307
 6.0000e-001 115404 -4.7843e+000  2.7580e+001 -1.4381e+000 19456 115209,115307,115378
 6.0000e-001 115427 -7.0550e+000  3.1781e+001 -2.6465e+000 19456 115209,115378,115235
 6.0000e-001 115677 -1.8282e-001  2.7291e+001  5.6694e-002 19002 115504,115582,115530
 6.0000e-001 115654  3.2011e+000  2.8678e+001  6.4539e-001 19002 115478,115582,115504
 6.0000e-001 115631 -1.1232e+000  2.7661e+001  6.7918e+000 19002 115452,115582,115478
 6.0000e-001 115608  1.4196e+001  2.9954e+001 -1.2470e+001 19002 115530,115582,115556
 6.0000e-001 115998  1.2332e+001  3.1476e+001 -4.1916e+000 18712 115802,115880,115854
 6.0000e-001 115975  1.4178e+001  3.7592e+001 -4.3853e+000 18712 115724,115880,115802
 6.0000e-001 115952  1.2178e+001  3.6948e+001 -3.3394e+000 18712 115724,115802,115776
 6.0000e-001 115929  1.3178e+001  4.3795e+001 -7.7091e+000 18712 115724,115776,115750
 6.0000e-001 115906  1.8476e+001  3.3681e+001 -4.9273e+000 18712 115802,115854,115828
 6.0000e-001 116270 -1.7110e+001  1.5536e+001  9.9766e+000 18308 116045,116123,116071
 6.0000e-001 116247 -4.9662e+000  4.2956e+001  1.2393e+001 18308 116045,116175,116123
 6.0000e-001 116224 -2.1584e+001  3.3136e+001  6.6052e+000 18308 116123,116175,116149
 6.0000e-001 116201  2.3841e+001  3.1894e+001  8.4722e+000 18308 116071,116123,116097
 6.0000e-001 116422  2.5000e+000  2.8098e+001  2.2574e-002 17996 116321,116373,116347
 6.0000e-001 116399  3.5912e+000  2.8426e+001  7.1932e-001 17996 116295,116373,116321
 6.0000e-001 116574  8.7797e+000  4.3741e+001 -1.2733e+000 17392 116473,116525,116499
 6.0000e-001 116551  5.2451e+000  5.3487e+001  3.2337e+000 17392 116447,116525,116473
 6.0000e-001 116797 -7.8922e+000 -6.3460e+000  3.5005e+000 16938 116621,116699,116673
 6.0000e-001 116774 -1.3458e+001 -8.5992e-001  2.6562e+000 16938 116621,116725,116699
 6.0000e-001 116751 -1.1140e+001 -1.3925e+001  1.5446e+000 16938 116621,116673,116647
 6.0000e-001 116998  2.8959e+001  4.1208e+001  2.4681e+000 16434 117021,116874,116848
 6.0000e-001 116975  2.0823e+001  5.5530e+001  3.7387e+000 16434 117021,116848,116822
 6.0000e-001 116952  2.7545e+001  4.8867e+001 -2.0218e+000 16434 116874,116926,116900
 6.0000e-001 117047  2.8801e+001  5.1815e+001 -2.2535e+000 16434 116926,116874,117021
 6.0000e-001 117070  2.5889e+001  6.5375e+001 -5.7902e+000 16434 116926,117021,116822
 6.0000e-001 117293  1.7858e+001  9.6069e+000  2.4384e+000 16070 117117,117169,117143
 6.0000e-001 117270 -7.1008e-001  3.9627e+000  6.3639e-001 16070 117117,117221,117169
 6.0000e-001 117247 -1.5041e+000  7.8305e+000  1.0737e-001 16070 117169,117221,117195
 6.0000e-001 117445 -2.2729e+001 -7.7469e+000 -1.0788e+000 15645 117318,117370,117344
 6.0000e-001 117422 -3.4157e+001 -1.3073e+001  4.4604e-001 15645 117318,117396,117370
 6.0000e-001 117548  1.6547e+001  2.5908e+001  1.0220e+001 417 117470,117522,117496
 7.0000e-001 70760  4.7725e+000 -1.2658e+000 -3.1138e-002 70380 70633,70685,70659
 7.0000e-001 70737 -3.0532e+000  8.2563e-001 -2.2408e+000 70380 70633,70711,70685
 7.0000e-001 70861  1.0744e-001  1.1525e+000 -1.0186e+000 70068 70783,70835,70809
 7.0000e-001 71180  1.1284e-001  7.4707e+000 -1.0834e+000 69870 70932,70984,70958
 7.0000e-001 71157 -1.9809e+000  6.6112e+000 -7.9959e-001 69870 70932,71010,70984
 7.0000e-001 71134 -3.0301e+000  4.2245e+000 -1.2677e+000 69870 70932,71036,71010
 7.0000e-001 71111 -2.1681e+000  4.2369e+000  3.5626e+000 69870 70932,71062,71036
 7.0000e-001 71088  4.8125e-002  6.3778e+000  6.5686e-002 69870 70906,71062,70932
 7.0000e-001 71428  1.7465e+001  3.5961e+001  2.6558e-001 69694 71451,71281,71255
 7.0000e-001 71405  2.2640e+001  4.3236e+001  2.6289e+000 69694 71523,71451,71255
 7.0000e-001 71382  2.7014e+001  4.5843e+001  1.3109e+001 69694 71523,71255,71229
 7.0000e-001 71359  4.0614e+000  3.0948e+001 -1.5493e+000 69694 71595,71333,71307
 7.0000e-001 71477  2.7004e+001  4.3308e+001 -7.5832e+000 69694 71307,71281,71451
 7.0000e-001 71500  8.8764e+000  3.7514e+001 -5.4000e+000 69694 71595,71307,71451
 7.0000e-001 71549  6.2387e+000  3.7985e+001  8.7936e-001 69694 71203,71451,71523
 7.0000e-001 71572  5.6176e+000  3.6531e+001  1.0145e+001 69694 71203,71523,71229
 7.0000e-001 71621  1.1986e+001  2.4566e+001 -2.3034e+000 69694 71203,71333,71595
 7.0000e-001 71644  1.0735e+001  2.7186e+001 -3.4271e+000 69694 71203,71595,71451
 7.0000e-001 71745 -1.6332e+000  1.3153e+000 -1.5521e+000 69382 71667,71719,71693
 7.0000e-001 72100 -3.8133e+000  9.5578e+000 -7.8836e-001 69184 71875,71979,71901
 7.0000e-001 72077  2.8634e-001  1.1514e+001  1.2275e+000 69184 71875,72005,71979
 7.0000e-001 72054 -2.1169e+000 -3.8097e+000 -5.3470e+000 69184 71901,71979,71953
 7.0000e-001 72031 -1.1472e+000  7.4113e+000 -5.5011e+000 69184 71901,71953,71927
 7.0000e-001 72250  1.6464e-001  5.7674e+000  2.2496e+000 68986 72149,72201,72175
 7.0000e-001 72227 -3.7762e+000  1.6726e+001 -2.4489e+000 68986 72123,72201,72149
 7.0000e-001 72547 -2.0179e+000  2.3351e+001  1.6792e+000 68582 72570,72403,72377
 7.0000e-001 72524  4.8877e-001  2.5514e+001  2.2262e-001 68582 72570,72377,72351
 7.0000e-001 72501  8.6564e-001  2.0915e+001  1.0131e+000 68582 72642,72299,72429
 7.0000e-001 72478  2.8014e+000  1.2870e+001 -3.1242e+000 68582 72273,72429,72299
 7.0000e-001 72455  6.4472e+000  4.0736e+001  2.9561e+000 68582 72299,72351,72325
 7.0000e-001 72596  1.7784e+000  2.5197e+001  2.3083e+000 68582 72429,72403,72570
 7.0000e-001 72619  4.9105e-001  2.2102e+001  8.5611e-001 68582 72642,72429,72570
 7.0000e-001 72668  3.8263e-001  2.1847e+001 -7.6101e-001 68582 72351,72299,72642
 7.0000e-001 72691  5.0178e-001  2.3975e+001 -7.1601e-001 68582 72351,72642,72570
 7.0000e-001 73095 -6.6306e-002  1.2282e+001 -9.2709e-001 68384 72873,72925,72899
 7.0000e-001 73072  1.6988e+000  1.9294e+001 -3.5797e-001 68384 72847,72925,72873
 7.0000e-001 73049 -3.2542e+000  8.7602e-001  9.8587e-001 68384 72847,72951,72925
 7.0000e-001 73026 -6.4855e+000  2.3569e+001  4.2401e+000 68384 72821,72951,72847
 7.0000e-001 73003  1.8702e+000  2.7002e+001  1.1251e+001 68384 72821,72977,72951
 7.0000e-001 73552 -1.4102e+001  4.1618e+001 -9.3865e+000 68044 73304,73434,73408
 7.0000e-001 73529  1.1431e+001  5.9567e+001  1.2446e+000 68044 73278,73434,73304
 7.0000e-001 73506 -5.8187e+000  3.6020e+001  2.7002e+001 68044 73356,73408,73382
 7.0000e-001 73483  1.7813e+000  1.1618e+001 -1.0044e+001 68044 73304,73408,73356
 7.0000e-001 73460  1.2699e+001  4.8432e+001 -5.7706e+000 68044 73304,73356,73330
 7.0000e-001 73871  3.1653e+000  3.5030e+001  3.2522e-001 67846 73675,73727,73701
 7.0000e-001 73848 -6.7517e+000  2.6091e+001  4.0664e+000 67846 73649,73727,73675
 7.0000e-001 73825  1.0142e-001  3.8020e+001 -3.0334e+000 67846 73623,73727,73649
 7.0000e-001 73802 -6.6322e+000  3.1246e+001 -5.8271e+000 67846 73623,73753,73727
 7.0000e-001 73779 -2.1284e+000  2.3586e+001 -1.8579e+001 67846 73597,73753,73623
 7.0000e-001 74021 -3.6789e+000  5.7783e+000 -6.7826e-001 67598 73920,73972,73946
 7.0000e-001 73998  1.2267e+000  1.6416e+001  5.2634e-001 67598 73894,73972,73920
 7.0000e-001 74271 -2.7693e+000  9.6203e+000 -6.3505e-001 67286 74072,74176,74150
 7.0000e-001 74248  9.6170e-001  9.6871e+000 -1.8475e+000 67286 74046,74176,74072
 7.0000e-001 74225  3.2511e+000  1.6543e+001  2.7354e+000 67286 74072,74150,74098
 7.0000e-001 74202  3.8385e+000  1.7260e+001  3.9865e+000 67286 74098,74150,74124
 7.0000e-001 74374  1.6689e+000  1.8778e+001  1.2300e+001 67088 74296,74348,74322
 7.0000e-001 74646 -7.2339e+000  1.9474e+001 -8.3740e+000 66890 74421,74525,74447
 7.0000e-001 74623  6.4160e-001  2.4123e+001 -3.2023e+000 66890 74421,74551,74525
 7.0000e-001 74600  1.5997e+000  3.7918e+001 -5.7360e+000 66890 74447,74525,74473
 7.0000e-001 74577 -1.4502e+001  2.4184e+001  1.3318e+000 66890 74473,74525,74499
 7.0000e-001 75254  4.6186e-001  1.8091e+001 -6.6112e+000 66528 74885,75067,75041
 7.0000e-001 75231  1.4713e+001  1.8500e+001 -6.3890e+000 66528 74859,75067,74885
 7.0000e-001 75208  5.7809e+000  2.6481e+001  2.9680e-001 66528 74937,75015,74963
 7.0000e-001 75185 -7.2323e+000  1.9973e+000 -4.6150e+000 66528 74911,75015,74937
 7.0000e-001 75162 -5.6432e-001  1.9457e+001  3.2144e+000 66528 74911,75041,75015
 7.0000e-001 75139 -9.1623e+000  2.1638e+001 -4.4250e+000 66528 74885,75041,74911
 7.0000e-001 75116  2.7056e+000  1.2914e+001 -8.5412e+000 66528 74833,75067,74859
 7.0000e-001 75093 -3.2737e+000  3.1661e+001  5.2420e+000 66528 74963,75015,74989
 7.0000e-001 75453  1.4031e+000  2.4395e+001  2.9778e+000 66238 75303,75381,75355
 7.0000e-001 75430 -5.5741e+000  2.1971e+001  5.4948e+000 66238 75277,75381,75303
 7.0000e-001 75407  2.1551e+000  1.3414e+001  5.3654e+000 66238 75303,75355,75329
 7.0000e-001 75701  1.5987e+001  6.3442e+001  8.4987e+000 65834 75528,75606,75580
 7.0000e-001 75678 -2.1854e+000  6.0867e+001  4.4739e-001 65834 75502,75606,75528
 7.0000e-001 75655  1.6769e+001  8.0239e+001  2.5295e+001 65834 75528,75580,75554
 7.0000e-001 75632  1.7513e+001  7.1137e+001  5.9257e+000 65834 75476,75606,75502
 7.0000e-001 75902 -4.3959e+000  2.2452e+001 -5.9503e+000 65636 75726,75804,75752
 7.0000e-001 75879  1.0029e+001  2.9384e+001 -8.0942e+000 65636 75726,75830,75804
 7.0000e-001 75856  2.9039e+001  2.7728e+001 -8.0714e+000 65636 75752,75804,75778
 7.0000e-001 76103 -1.2971e+001  1.8532e+001 -5.9663e-001 65296 76126,75979,75953
 7.0000e-001 76080 -1.9358e+001  2.4950e+001  3.5498e+000 65296 76126,75953,75927
 7.0000e-001 76057 -2.5382e+000  4.3423e+001 -1.4260e+001 65296 76198,76005,75979
 7.0000e-001 76152 -4.2393e+000  3.1899e+001 -4.9196e+000 65296 76198,75979,76126
 7.0000e-001 76175 -1.6516e+001  2.8929e+001  1.8791e+000 65296 76031,76126,75927
 7.0000e-001 76224 -1.8196e+001  2.6272e+001 -7.4515e+000 65296 76031,76005,76198
 7.0000e-001 76247 -1.7621e+001  2.0040e+001  9.8715e-001 65296 76031,76198,76126
 7.0000e-001 76602  7.4955e+000  2.9318e+001  2.2089e+000 64892 76377,76481,76403
 7.0000e-001 76579  7.1762e+000  2.6109e+001  5.2748e-001 64892 76377,76507,76481
 7.0000e-001 76556  1.7446e+001  4.0253e+001 -2.0603e+000 64892 76403,76481,76429
 7.0000e-001 76533 -2.6321e+001  2.3729e+001 -5.7010e+000 64892 76429,76481,76455
 7.0000e-001 76801 -1.8911e+001  3.1024e+001  1.7246e+001 64438 76677,76729,76703
 7.0000e-001 76778 -4.4622e+000  4.7103e+001  2.1054e+000 64438 76651,76729,76677
 7.0000e-001 76755 -4.1208e+000  3.4231e+001  5.8070e+000 64438 76625,76729,76651
 7.0000e-001 77230  1.3746e+001  3.8916e+001 -4.9595e+000 63920 77253,76959,76933
 7.0000e-001 77207  7.9634e+000  3.4322e+001 -2.2735e+000 63920 77253,76933,77063
 7.0000e-001 77184  1.1262e+001  3.9141e+001 -1.4043e+001 63920 76959,77037,76985
 7.0000e-001 77161 -5.9185e-001  2.9542e+001 -4.4329e+000 63920 76907,77063,76933
 7.0000e-001 77138 -1.1349e+001  5.7324e+001 -1.4271e+001 63920 76985,77037,77011
 7.0000e-001 77115 -7.7396e+000  3.0160e+001 -2.1709e+000 63920 76907,77089,77063
 7.0000e-001 77279  5.7312e+000  4.3839e+001 -4.9631e+000 63920 77037,76959,77253
 7.0000e-001 77302  6.7264e-001  4.0005e+001 -2.4752e+000 63920 77037,77253,77063
 7.0000e-001 77680  2.5338e+001  4.6356e+001  1.7004e+000 63316 77703,77484,77432
 7.0000e-001 77657  2.4269e+001  4.3668e+001 -6.6634e-001 63316 77703,77432,77406
 7.0000e-001 77634  4.0228e+000  3.8281e+001  8.7322e-001 63316 77406,77536,77510
 7.0000e-001 77611  3.3649e+001  3.8334e+001  1.1604e+001 63316 77432,77484,77458
 7.0000e-001 77588  1.2243e+001  4.0567e+001  4.6789e+000 63316 77406,77562,77536
 7.0000e-001 77729  2.5656e+001  4.1595e+001  7.1456e-001 63316 77510,77484,77703
 7.0000e-001 77752  2.4722e+001  4.0941e+001 -2.1412e+000 63316 77510,77703,77406
 7.0000e-001 78000 -4.0423e+001  1.3242e+001  2.7721e+000 62812 77801,77853,77827
 7.0000e-001 77977 -2.4362e+001  1.4549e+001 -5.2288e+000 62812 77801,77879,77853
 7.0000e-001 77954 -3.3645e+001  1.3466e+001 -1.3990e+001 62812 77801,77905,77879
 7.0000e-001 77931 -1.3264e+001  1.6503e+001 -1.4191e+001 62812 77775,77905,77801
 7.0000e-001 78380 -8.7064e-001  2.3658e+001 -1.2671e+000 62350 78184,78262,78236
 7.0000e-001 78357  3.0742e+000  3.4066e+001  1.0231e+000 62350 78132,78262,78184
 7.0000e-001 78334 -1.5062e+000  3.1525e+001 -7.3146e+000 62350 78106,78262,78132
 7.0000e-001 78311 -1.1391e+001  3.5506e+001  1.3279e+001 62350 78132,78184,78158
 7.0000e-001 78288 -1.4030e+001  2.2592e+001 -2.6434e+000 62350 78184,78236,78210
 7.0000e-001 78837  3.5970e+001  4.0395e+001 -2.2963e+001 61946 78615,78667,78641
 7.0000e-001 78814  4.1183e+000  3.5685e+001 -1.1346e+001 61946 78589,78667,78615
 7.0000e-001 78791  1.9189e+001  1.0304e+000  6.6128e+000 61946 78589,78719,78667
 7.0000e-001 78768  3.6565e+001  6.3237e+001  9.2154e+000 61946 78667,78719,78693
 7.0000e-001 78745  2.8185e+001  3.6855e+001  2.4902e+001 61946 78563,78719,78589
 7.0000e-001 78987 -2.4660e-001  2.9327e+001  7.2947e-001 61335 79010,78886,78860
 7.0000e-001 78964 -7.0687e-001  3.6341e+001  5.9147e-001 61335 79010,78860,78938
 7.0000e-001 79036  3.0283e+000  3.5156e+001 -2.7324e+000 61335 79082,79010,78912
 7.0000e-001 79059 -9.3596e+000  3.0689e+001 -1.9436e+000 61335 78912,79010,78938
 7.0000e-001 79108 -1.4803e+000  2.4206e+001 -1.1577e+000 61335 78886,79010,79082
 7.0000e-001 79437  2.8154e+000  2.3465e+001 -2.2418e+001 60888 79460,79238,79212
 7.0000e-001 79414 -6.4772e+000  7.1591e+000 -1.5569e+001 60888 79460,79212,79342
 7.0000e-001 79391 -1.4801e+001  2.0314e+001 -1.7814e+001 60888 79532,79264,79238
 7.0000e-001 79368 -1.7548e+001  4.7489e+001  3.4717e+000 60888 79264,79316,79290
 7.0000e-001 79486 -1.2766e+001  1.7764e+001 -1.5700e+001 60888 79532,79238,79460
 7.0000e-001 79509 -6.0689e+000  1.6216e+001 -8.3105e+000 60888 79316,79460,79342
 7.0000e-001 79558 -1.6920e+001  2.0240e+001 -1.0346e+001 60888 79316,79264,79532
 7.0000e-001 79581 -3.6579e+000  2.2659e+001 -9.3300e+000 60888 79316,79532,79460
 7.0000e-001 79878 -2.1074e+001  1.3650e+001 -1.5759e+001 60484 79682,79760,79734
 7.0000e-001 79855 -2.3790e+001  1.3800e+001 -8.1404e+000 60484 79656,79760,79682
 7.0000e-001 79832 -1.7467e+001  1.5097e+001 -7.4870e+000 60484 79604,79760,79656
 7.0000e-001 79809 -2.2707e+001  2.0096e+001 -1.2799e+001 60484 79604,79656,79630
 7.0000e-001 79786 -5.6573e+000  1.2157e+001 -1.3179e+001 60484 79682,79734,79708
 7.0000e-001 80101 -1.6576e+000  6.4280e+000 -9.4285e-001 60022 79951,80029,80003
 7.0000e-001 80078 -2.9985e+001  7.3401e-001 -2.6569e+000 60022 79925,80029,79951
 7.0000e-001 80055 -2.6923e+001 -3.0543e+000  1.8719e+000 60022 79951,80003,79977
 7.0000e-001 80351  2.2573e+001  4.3026e+001  8.7416e+000 59625 80152,80256,80204
 7.0000e-001 80328  1.7029e+001  5.3521e+001  1.5328e+001 59625 80126,80256,80152
 7.0000e-001 80305  3.1536e+001  6.1962e+001  5.0056e+000 59625 80204,80256,80230
 7.0000e-001 80282  4.2736e+001  5.1171e+001  3.9515e+000 59625 80152,80204,80178
 7.0000e-001 80552  9.7050e+000  3.4258e+001 -6.3697e+000 59121 80575,80402,80376
 7.0000e-001 80529  9.1569e+000  3.1045e+001 -6.3719e+000 59121 80575,80376,80480
 7.0000e-001 80506  4.7736e+000  4.1168e+001 -9.4495e+000 59121 80428,80480,80454
 7.0000e-001 80601  8.6677e+000  3.6264e+001 -4.2647e+000 59121 80428,80402,80575
 7.0000e-001 80624  8.2353e+000  3.3306e+001 -4.3493e+000 59121 80428,80575,80480
 7.0000e-001 81183  1.3472e+001  2.7459e+001  1.0019e+001 58553 81206,80863,80837
 7.0000e-001 81160 -1.2392e+000  3.0398e+001  1.1709e+001 58553 81350,81206,80837
 7.0000e-001 81137  7.3418e+000  2.3737e+001  1.2397e+000 58553 81278,80915,80863
 7.0000e-001 81114 -1.7450e+001  2.3571e+001  1.2574e+001 58553 81350,80837,80811
 7.0000e-001 81091  2.3011e+000  4.7416e+001 -2.4911e+000 58553 81422,80967,80941
 7.0000e-001 81068  2.0883e+001  8.0429e+001 -7.3479e+000 58553 80967,81019,80993
 7.0000e-001 81045  1.9230e+001  1.3538e+001 -4.9527e+000 58553 80863,80915,80889
 7.0000e-001 81232  5.6964e+000  2.1833e+001  2.1970e+000 58553 81278,80863,81206
 7.0000e-001 81255  2.5495e+000  3.6998e+001 -5.6053e-001 58553 81422,80941,81206
 7.0000e-001 81304  5.6484e+000  3.0707e+001 -2.9678e+000 58553 80941,80915,81278
 7.0000e-001 81327 -2.5900e-001  2.6109e+001 -8.6507e-001 58553 80941,81278,81206
 7.0000e-001 81376 -5.1503e+000  2.7753e+001  2.1254e+000 58553 81019,81206,81350
 7.0000e-001 81399 -8.1840e+000  2.6355e+001  3.3601e+000 58553 81019,81350,80811
 7.0000e-001 81448 -3.3299e-001  3.7894e+001  1.2296e+000 58553 81019,80967,81422
 7.0000e-001 81471  2.0424e+000  3.1913e+001  3.8677e+000 58553 81019,81422,81206
 7.0000e-001 81768 -1.5252e+000  2.6831e+001 -3.9236e+000 57877 81791,81572,81520
 7.0000e-001 81745  5.5680e+000  3.0147e+001 -1.2982e+001 57877 81791,81520,81494
 7.0000e-001 81722 -1.4087e+001  2.6759e+001 -3.9427e+000 57877 81863,81650,81598
 7.0000e-001 81699 -9.8956e+000  3.3810e+001 -1.3109e+001 57877 81598,81650,81624
 7.0000e-001 81676 -1.2406e+001  2.9600e+001 -1.4720e+000 57877 81520,81572,81546
 7.0000e-001 81817 -3.9512e+000  2.0920e+001 -4.1367e+000 57877 81598,81572,81791
 7.0000e-001 81840 -1.1354e+001  2.6530e+001 -5.9606e+000 57877 81863,81598,81791
 7.0000e-001 81889 -6.6445e+000  1.3901e+001 -7.0708e-001 57877 81494,81650,81863
 7.0000e-001 81912  1.9512e+000  2.0726e+001 -5.3539e+000 57877 81494,81863,81791
 7.0000e-001 82160  1.2922e+001  3.6610e+001  1.4982e+001 57473 81935,82039,82013
 7.0000e-001 82137  3.8467e+001  4.6954e+001  1.0306e+001 57473 81935,82065,82039
 7.0000e-001 82114  1.1959e+001  4.4555e+001  1.9490e+001 57473 81935,82013,81961
 7.0000e-001 82091  1.9636e+001  3.1695e+001  2.3360e+001 57473 81961,82013,81987
 7.0000e-001 82719 -4.7322e+000  3.4303e+001  5.8885e+000 56962 82814,82742,82425
 7.0000e-001 82696 -3.5317e-001  4.5038e+001  1.7748e+000 56962 82742,82347,82555
 7.0000e-001 82673  6.1531e+000  2.3528e+001  7.4951e+000 56962 82814,82425,82399
 7.0000e-001 82650 -1.2488e+001  3.1307e+001 -3.9906e+000 56962 82425,82477,82451
 7.0000e-001 82627  4.7794e-001  3.9302e+001  2.5181e+000 56962 82425,82529,82477
 7.0000e-001 82604 -2.8698e+000  4.5572e+001  7.8847e+000 56962 82477,82529,82503
 7.0000e-001 82581  2.5876e+001  2.3407e+001 -1.3081e+000 56962 82347,82399,82373
 7.0000e-001 82768  4.1446e-001  4.0278e+001  2.2134e+000 56962 82529,82425,82742
 7.0000e-001 82791 -1.6354e+001  2.0256e+001 -7.9445e+000 56962 82529,82742,82555
 7.0000e-001 82840  6.2018e+000  4.5209e+001  1.0613e+001 56962 82347,82742,82814
 7.0000e-001 82863  1.5527e+001  3.4172e+001  1.2145e+001 56962 82347,82814,82399
 7.0000e-001 83467 -1.1237e+001  3.4786e+001 -1.0764e+001 56300 83124,83176,83150
 7.0000e-001 83444  2.3520e+000  3.2718e+001  1.1279e+000 56300 83490,83176,83124
 7.0000e-001 83421  3.5938e+000  2.9117e+001 -7.6507e-001 56300 83490,83124,83280
 7.0000e-001 83398  1.0056e+001  3.0691e+001 -1.4639e+000 56300 83202,83280,83254
 7.0000e-001 83375  6.4090e+000  3.6731e+001 -1.0655e+000 56300 83046,83280,83124
 7.0000e-001 83352  7.0388e+000  4.3294e+001 -3.5103e-001 56300 83046,83124,83098
 7.0000e-001 83329  2.1094e+001  1.7920e+001 -8.8266e+000 56300 83202,83254,83228
 7.0000e-001 83306  8.7936e+000  4.7544e+001  3.4413e-002 56300 83046,83098,83072
 7.0000e-001 83516 -8.0180e-001  2.7491e+001  2.4512e+000 56300 83202,83176,83490
 7.0000e-001 83539  2.5105e+000  2.7638e+001 -2.6620e-001 56300 83202,83490,83280
 7.0000e-001 83787 -2.7143e+000  2.4951e+001  2.1057e+000 55960 83588,83692,83666
 7.0000e-001 83764 -1.1909e+001  5.1676e+001  1.4119e+001 55960 83562,83692,83588
 7.0000e-001 83741  2.0354e+001  3.2031e+001  2.2944e+000 55960 83588,83666,83614
 7.0000e-001 83718  3.0962e+000  2.4880e+001 -7.4185e-001 55960 83614,83666,83640
 7.0000e-001 83937 -6.6857e+000 -2.9908e+000 -1.9303e-002 55499 83810,83862,83836
 7.0000e-001 83914 -2.2269e+001 -1.7578e+000  2.0961e+000 55499 83810,83888,83862
 7.0000e-001 84138 -8.3340e-001  2.0420e+001 -5.7116e+000 55152 83988,84066,84040
 7.0000e-001 84115  8.9856e+000  4.5719e+001 -2.0991e+000 55152 83962,84066,83988
 7.0000e-001 84092  8.6647e+000  3.5948e+001 -3.5187e-001 55152 83988,84040,84014
 7.0000e-001 84471 -5.4083e+000  3.8332e+001 -4.0110e+000 54648 84324,84376,84350
 7.0000e-001 84448 -1.7140e+001  1.9522e+001  1.0351e+000 54648 84272,84376,84324
 7.0000e-001 84425 -1.8526e+001  8.2665e+000  4.0254e+000 54648 84246,84376,84272
 7.0000e-001 84402 -1.7746e+001  1.7950e+001 -4.2581e+000 54648 84272,84324,84298
 7.0000e-001 84849  9.5529e+000  2.1155e+001 -1.6680e+000 53922 84627,84731,84705
 7.0000e-001 84826  1.5497e+001  1.7347e+001  1.4707e+000 53922 84575,84731,84627
 7.0000e-001 84803  2.2107e+001  2.1660e+001 -1.1659e+001 53922 84575,84627,84601
 7.0000e-001 84780  6.8112e+000  2.1527e+001 -5.5072e+000 53922 84627,84705,84653
 7.0000e-001 84757  1.1146e+001  3.4618e+001 -2.4626e+000 53922 84653,84705,84679
 7.0000e-001 85581 -7.4913e+000  1.6167e+001 -2.6544e+000 53582 85604,85111,85319
 7.0000e-001 85558  1.5044e+001  2.0165e+001 -4.2389e+000 53582 85111,85345,85319
 7.0000e-001 85535  4.8631e+000  2.0417e+001 -5.3065e+000 53582 85604,85319,85293
 7.0000e-001 85512 -1.4991e+001  1.8064e+001  1.3967e+001 53582 85241,85293,85267
 7.0000e-001 85489 -1.7523e+001  2.2482e+001  3.8190e+000 53582 85676,85241,85189
 7.0000e-001 85466 -9.6068e+000  2.3744e+001 -1.1635e+000 53582 85676,85189,85137
 7.0000e-001 85443 -1.9084e+001  3.5344e+001  3.5907e+000 53582 85189,85241,85215
 7.0000e-001 85420 -1.3323e+001  3.7603e+001 -4.7098e+000 53582 85137,85189,85163
 7.0000e-001 85397  4.9629e+000  2.0661e+001 -5.4681e+000 53582 85111,85371,85345
 7.0000e-001 85630 -1.2306e+001  1.2481e+001  5.6763e+000 53582 85137,85111,85604
 7.0000e-001 85653 -1.9938e+000  2.1327e+001  4.5655e+000 53582 85748,85604,85293
 7.0000e-001 85702 -2.0548e+001  1.4940e+001  1.1772e+001 53582 85293,85241,85676
 7.0000e-001 85725 -6.8987e+000  2.4023e+001  5.6158e+000 53582 85748,85293,85676
 7.0000e-001 85774 -9.2641e+000  1.8346e+001  2.1281e+000 53582 85137,85604,85748
 7.0000e-001 85797 -1.2618e+001  2.2166e+001  3.2017e+000 53582 85137,85748,85676
 7.0000e-001 86303  6.2957e+000  2.1782e+001 -9.9161e+000 53178 86326,86084,86006
 7.0000e-001 86280  6.3034e+000  2.3476e+001 -9.9263e+000 53178 86326,86006,86162
 7.0000e-001 86257  9.1261e+000  2.3048e+001 -1.6131e+001 53178 86398,86110,86084
 7.0000e-001 86234 -4.5151e+000  1.6885e+001 -8.2259e+000 53178 86006,86058,86032
 7.0000e-001 86211  2.0136e+000  1.4077e+001 -1.2338e+001 53178 86006,86084,86058
 7.0000e-001 86188  1.6016e+001  2.5523e+001 -4.0863e+000 53178 85980,86162,86006
 7.0000e-001 86352  5.4156e+000  1.9074e+001 -1.1153e+001 53178 86398,86084,86326
 7.0000e-001 86375  1.5608e+000  2.3386e+001 -1.1006e+001 53178 86136,86326,86162
 7.0000e-001 86424  9.5377e+000  2.6157e+001 -1.8232e+001 53178 86136,86110,86398
 7.0000e-001 86447  8.8895e+000  2.8790e+001 -1.3371e+001 53178 86136,86398,86326
 7.0000e-001 86904  5.3869e+000  4.1263e+001  1.8511e+000 52774 86708,86760,86734
 7.0000e-001 86881  4.7370e+000  3.0853e+001 -1.8916e+000 52774 86656,86760,86708
 7.0000e-001 86858  8.9954e+000  3.1535e+001 -1.3961e+000 52774 86656,86708,86682
 7.0000e-001 86835  1.1625e+001  2.9263e+001 -5.4961e-001 52774 86630,86760,86656
 7.0000e-001 86812  1.5030e+001  3.0126e+001  4.9847e-001 52774 86630,86786,86760
 7.0000e-001 87489  8.1310e+000  4.6543e+001  7.9148e+000 52234 87512,87218,87192
 7.0000e-001 87466  3.9482e+000  3.8764e+001  1.1153e+000 52234 87512,87192,87348
 7.0000e-001 87443  5.3223e-001  3.5383e+001 -4.3214e-001 52234 87166,87348,87192
 7.0000e-001 87420 -8.3470e+000  3.3248e+001  7.2537e-001 52234 87296,87348,87322
 7.0000e-001 87397  1.2807e+000  2.2749e+001  1.1469e+000 52234 87218,87296,87270
 7.0000e-001 87374  7.9319e+000  2.0387e+001  4.8896e+000 52234 87218,87270,87244
 7.0000e-001 87538  3.1638e+000  3.4072e+001  4.5448e+000 52234 87296,87218,87512
 7.0000e-001 87561  2.5953e+000  3.4206e+001 -2.2100e+000 52234 87296,87512,87348
 7.0000e-001 87841  1.5112e+001  4.9166e+001  1.0054e+001 51830 87665,87743,87691
 7.0000e-001 87818  9.2231e+000  4.8342e+001  1.3631e+001 51830 87665,87769,87743
 7.0000e-001 87795 -9.3576e+000  2.8847e+001 -3.0545e-001 51830 87864,87691,87743
 7.0000e-001 87890 -9.8124e+000  2.8652e+001 -3.2545e-001 51830 87717,87691,87864
 7.0000e-001 88418 -1.4630e+000  2.7654e+001 -2.0361e-001 51262 88095,88173,88121
 7.0000e-001 88395  4.1316e-002  3.0622e+001  4.0662e-001 51262 88095,88251,88173
 7.0000e-001 88372 -1.8706e+001  1.8306e+001 -9.1137e+000 51262 88173,88251,88199
 7.0000e-001 88349 -1.9022e-001  4.2718e+001  3.9780e+000 51262 88095,88277,88251
 7.0000e-001 88326  2.7598e+000  5.0058e+001  4.9639e-001 51262 88199,88251,88225
 7.0000e-001 88303 -2.4730e-001  2.5426e+001 -1.6931e+000 51262 88121,88173,88147
 7.0000e-001 88875 -1.1893e+001  1.9588e+001 -3.9709e+000 50750 88601,88731,88627
 7.0000e-001 88852 -1.7169e+001  3.5498e+001 -6.8290e+000 50750 88601,88757,88731
 7.0000e-001 88829  1.1708e+001  3.7400e+001  8.0352e+000 50750 88627,88731,88653
 7.0000e-001 88806  5.9192e+000  2.6626e+001  5.7296e+000 50750 88653,88731,88705
 7.0000e-001 88783 -3.9750e-001  2.0441e+001 -1.5471e+000 50750 88653,88705,88679
 7.0000e-001 89145  2.2380e-001  3.8139e+001 -4.8587e-001 50438 88946,89024,88972
 7.0000e-001 89122  6.7803e+000  3.4067e+001 -1.1694e+000 50438 88946,89050,89024
 7.0000e-001 89099 -6.9318e+000  2.3791e+001 -5.6516e+000 50438 88920,89050,88946
 7.0000e-001 89076 -2.8756e+000  2.9620e+001 -1.5782e+001 50438 88972,89024,88998
 7.0000e-001 89525 -5.6013e+000  2.6805e+001 -1.9334e+000 49934 89548,89277,89251
 7.0000e-001 89502 -1.8205e+000  2.3745e+001 -4.0775e+000 49934 89548,89251,89381
 7.0000e-001 89479  9.4431e+000  2.0874e+001  7.8419e-003 49934 89303,89381,89329
 7.0000e-001 89456  2.5541e+000  3.1071e+001 -1.0949e+001 49934 89251,89407,89381
 7.0000e-001 89433  1.8473e+001  2.0369e+001 -7.4299e+000 49934 89329,89381,89355
 7.0000e-001 89574  9.7160e+000  4.9673e+001  4.7055e+000 49934 89303,89277,89548
 7.0000e-001 89597 -2.3832e+000  2.5953e+001 -2.5853e+000 49934 89303,89548,89381
 7.0000e-001 90054  3.3248e+000  2.4978e+001 -3.7622e+000 49380 89832,89936,89910
 7.0000e-001 90031  6.8321e+000  2.4769e+001  6.6536e-001 49380 89780,89936,89832
 7.0000e-001 90008  1.8993e+001  3.8975e+001 -4.5083e+000 49380 89780,89832,89806
 7.0000e-001 89985  6.2863e+000  1.6333e+001 -7.1462e+000 49380 89832,89910,89858
 7.0000e-001 89962  2.0669e+001  5.5935e+001 -2.0658e+000 49380 89858,89910,89884
 7.0000e-001 90560  1.7739e+001  3.7701e+001  4.7364e+000 48890 90289,90341,90315
 7.0000e-001 90537  1.0698e+001  3.4601e+001  1.7257e+000 48890 90289,90393,90341
 7.0000e-001 90514 -3.4974e+000  3.2365e+001 -2.8653e+000 48890 90263,90393,90289
 7.0000e-001 90491  7.2024e+000  4.1228e+001 -1.5509e+001 48890 90237,90393,90263
 7.0000e-001 90468  2.3040e+001  5.3607e+001 -3.5959e+000 48890 90341,90393,90367
 7.0000e-001 90445  1.6400e+001  3.8709e+001 -7.0218e+000 48890 90237,90419,90393
 7.0000e-001 91115  1.2069e+001  3.6972e+001 -6.2608e+000 48486 90795,90873,90847
 7.0000e-001 91092  4.6363e+000  3.9789e+001 -8.4313e+000 48486 90795,90925,90873
 7.0000e-001 91069 -8.6411e+000  3.8853e+001 -3.2139e+000 48486 90769,90925,90795
 7.0000e-001 91046 -2.1024e+001  3.6305e+001 -2.7530e+000 48486 90769,90951,90925
 7.0000e-001 91023  8.3857e+000  3.2958e+001 -1.6581e+000 48486 90795,90847,90821
 7.0000e-001 91000  3.3435e+000  2.7589e+001 -1.9553e+001 48486 90873,90925,90899
 7.0000e-001 90977 -2.0990e+000  4.6288e+001  1.5563e+000 48486 90743,90951,90769
 7.0000e-001 91265  2.3885e+001  6.6260e+001 -8.9517e+000 48082 91288,91190,91164
 7.0000e-001 91242  1.4618e+001  4.5071e+001 -1.0703e+001 48082 91360,91288,91164
 7.0000e-001 91314  2.2440e+001  5.6139e+001 -2.0448e+000 48082 91216,91190,91288
 7.0000e-001 91337  2.4720e+001  5.6518e+001 -9.7784e-001 48082 91216,91288,91138
 7.0000e-001 91386  2.6378e+001  5.7616e+001 -1.4705e+000 48082 91138,91288,91360
 7.0000e-001 92022 -5.5747e+000  1.7703e+001 -2.8256e+000 47514 92261,92045,91754
 7.0000e-001 91999  4.9980e-001  1.8319e+001 -7.4409e+000 47514 92189,92045,91702
 7.0000e-001 91976  1.0029e+001  2.8643e+001 -8.0331e+000 47514 92117,91806,91754
 7.0000e-001 91953  1.8897e-001  1.1630e+001 -1.3928e+000 47514 92189,91702,91650
 7.0000e-001 91930 -2.0449e+001  2.8509e+001 -9.2571e+000 47514 92261,91754,91728
 7.0000e-001 91907 -4.5359e+000  4.1777e+001 -9.0627e+000 47514 91754,91806,91780
 7.0000e-001 91884  8.7406e+000  8.9483e+000 -4.4417e+000 47514 91650,91702,91676
 7.0000e-001 92071  7.6865e+000  2.3367e+001 -8.8622e+000 47514 92117,91754,92045
 7.0000e-001 92094 -8.2456e+000  7.4803e+000 -5.1898e+000 47514 91832,92045,91858
 7.0000e-001 92143  1.2112e+001  3.0597e+001  1.2197e-001 47514 91832,91806,92117
 7.0000e-001 92166  7.0253e+000  1.7623e+001 -1.2933e-001 47514 91832,92117,92045
 7.0000e-001 92215 -6.8917e+000  1.2570e+001 -4.8786e+000 47514 91858,92045,92189
 7.0000e-001 92238 -3.4765e+000  8.8018e+000  2.1685e-001 47514 91858,92189,91650
 7.0000e-001 92287 -1.1853e+001  6.0903e+000 -1.4137e+001 47514 91702,92045,92261
 7.0000e-001 92310 -2.4208e+001  1.2608e+001 -2.1776e+001 47514 91702,92261,91728
 7.0000e-001 92460 -1.5826e+001 -1.7420e+000 -9.9735e+000 47124 92483,92359,92333
 7.0000e-001 92437 -1.4554e+001 -8.5792e+000 -1.3178e+001 47124 92555,92483,92333
 7.0000e-001 92509 -1.4815e+001 -8.9017e+000 -1.2655e+001 47124 92685,92483,92385
 7.0000e-001 92532 -1.4375e+001 -1.6398e+000 -1.1030e+001 47124 92385,92483,92411
 7.0000e-001 92581  1.2511e+000  5.4327e+000 -7.1689e+000 47124 92411,92483,92555
 7.0000e-001 92711  2.1820e+000  6.9948e+000 -6.0395e+000 47124 92359,92483,92685
 7.0000e-001 93571 -8.2841e-001  2.4495e+001  1.8929e+000 46834 93594,93208,93104
 7.0000e-001 93548 -1.8113e+001  1.6838e+001  3.3756e+000 46834 93738,93594,93104
 7.0000e-001 93525 -1.1399e+001 -2.7767e+000 -1.5987e+001 46834 93666,93234,93208
 7.0000e-001 93502 -2.3203e+001  1.7723e+001  4.1791e+000 46834 93738,93104,93078
 7.0000e-001 93479 -4.9666e+000  2.9899e+001 -1.9103e+001 46834 93810,93260,93234
 7.0000e-001 93456  4.2415e+000  1.1987e+001  6.4029e+000 46834 93104,93182,93156
 7.0000e-001 93433 -1.7111e-001  1.1979e+001  1.2835e+000 46834 93104,93208,93182
 7.0000e-001 93410 -2.1418e+001  3.5996e+001  7.1615e-001 46834 93286,93338,93312
 7.0000e-001 93387 -2.8050e+001  1.7102e+001  1.5280e+000 46834 93052,93338,93078
 7.0000e-001 93364  6.7934e+000  1.6099e+001  7.5546e+000 46834 93104,93156,93130
 7.0000e-001 93620 -1.1754e+001  1.6230e+001 -6.6668e+000 46834 93666,93208,93594
 7.0000e-001 93643 -1.2462e+001  3.0116e+001 -1.1384e+000 46834 93286,93594,93338
 7.0000e-001 93692 -2.6813e+000  2.4040e+001 -1.4486e+001 46834 93810,93234,93666
 7.0000e-001 93715 -1.3461e+001  2.9030e+001 -6.9386e+000 46834 93286,93666,93594
 7.0000e-001 93764 -1.4780e+001  1.8596e+001  2.1879e+000 46834 93338,93594,93738
 7.0000e-001 93787 -1.6993e+001  2.1562e+001  2.4422e+000 46834 93338,93738,93078
 7.0000e-001 93836 -1.4363e+001  2.3544e+001 -1.3107e+001 46834 93286,93260,93810
 7.0000e-001 93859 -1.1062e+001  1.8682e+001 -8.6262e+000 46834 93286,93810,93666
 7.0000e-001 94210  1.2971e+001  4.5966e+001  2.2630e+000 46472 94011,94115,94089
 7.0000e-001 94187  1.2573e+001  5.1845e+001  1.1859e+000 46472 93985,94115,94011
 7.0000e-001 94164 -1.8295e+001  3.2493e+001 -8.4344e-001 46472 94037,94089,94063
 7.0000e-001 94141 -1.3320e+001  3.4191e+001  4.5732e+000 46472 94011,94089,94037
 7.0000e-001 94746  1.7045e+001  2.4932e+001 -2.5594e+000 46068 94576,94628,94602
 7.0000e-001 94723  1.3964e+001  2.4257e+001 -5.8666e+000 46068 94498,94628,94576
 7.0000e-001 94700  2.2752e+001  4.1703e+001 -9.1976e+000 46068 94472,94628,94498
 7.0000e-001 94677  1.8600e+001  2.0390e+001 -4.6865e+000 46068 94524,94576,94550
 7.0000e-001 94654  1.8387e+001  2.3029e+001 -4.0560e+000 46068 94498,94576,94524
 7.0000e-001 95380  1.7327e+001  5.0346e+001 -1.0616e+001 45342 95034,95112,95086
 7.0000e-001 95357  1.0570e+001  3.8030e+001 -4.5785e+000 45342 95034,95190,95112
 7.0000e-001 95334  1.2205e+001  4.9357e+001  2.7059e+000 45342 95403,95164,95138
 7.0000e-001 95311  1.4870e+001  5.9236e+001  1.5719e+000 45342 95403,95138,95112
 7.0000e-001 95288  1.3887e+001  4.1163e+001 -3.1560e+000 45342 95034,95216,95190
 7.0000e-001 95265  9.9333e+000  5.6308e+001 -4.6088e+000 45342 95034,95086,95060
 7.0000e-001 95242  2.2233e+001  5.7800e+001 -1.2764e+001 45342 95008,95216,95034
 7.0000e-001 95429  1.5445e+001  4.4518e+001  1.6664e+000 45342 95190,95164,95403
 7.0000e-001 95452  1.4907e+001  5.0082e+001  1.4082e+000 45342 95190,95403,95112
 7.0000e-001 96007  9.9636e+000  4.7325e+001  7.1052e+000 44716 96030,95791,95765
 7.0000e-001 95984  8.2468e+000  2.8981e+001  1.0592e+001 44716 96030,95765,95713
 7.0000e-001 95961  9.3323e+000  5.0901e+001  8.2085e+000 44716 96174,96102,95661
 7.0000e-001 95938  1.1022e+001  4.4728e+001  7.0632e+000 44716 96174,95661,95635
 7.0000e-001 95915 -6.7126e-001  2.1445e+001  2.3197e+001 44716 95661,95713,95687
 7.0000e-001 95892  7.5356e+000  2.8633e+001  1.0465e+001 44716 95713,95765,95739
 7.0000e-001 95869  8.4526e+000  3.8529e+001  7.3033e+000 44716 95635,95843,95817
 7.0000e-001 96056  8.8650e+000  6.2652e+001  1.3066e+001 44716 95817,95791,96030
 7.0000e-001 96079  6.0120e+000  4.7961e+001  8.6601e+000 44716 96102,95817,96030
 7.0000e-001 96128  8.7996e+000  5.2546e+001  1.1384e+001 44716 95713,95661,96102
 7.0000e-001 96151  7.6419e+000  4.8192e+001  9.5615e+000 44716 95713,96102,96030
 7.0000e-001 96200  6.3636e+000  4.2816e+001  9.3951e+000 44716 95817,96102,96174
 7.0000e-001 96223  9.6369e+000  3.9120e+001  7.1106e+000 44716 95817,96174,95635
 7.0000e-001 96680  5.1833e+000  1.9911e+001 -7.7090e-001 44198 96775,96703,96458
 7.0000e-001 96657  6.4433e+000  2.6992e+001 -9.6796e+000 44198 96703,96406,96562
 7.0000e-001 96634 -5.9597e+000  2.2461e+001 -7.3226e-001 44198 96775,96458,96432
 7.0000e-001 96611  2.6577e+001  1.9339e+001 -6.2287e+000 44198 96484,96536,96510
 7.0000e-001 96588  1.1609e+001  1.8897e+001  2.5205e+000 44198 96458,96536,96484
 7.0000e-001 96729  4.9914e+000  1.8886e+001 -9.6830e-001 44198 96536,96458,96703
 7.0000e-001 96752  2.9496e+000  1.5986e+001 -5.0657e+000 44198 96536,96703,96562
 7.0000e-001 96801 -7.6613e+000  1.8700e+001 -4.0600e+000 44198 96406,96703,96775
 7.0000e-001 96824 -1.7604e+001  2.2604e+001 -1.9990e+000 44198 96406,96775,96432
 7.0000e-001 97202  9.8447e-001  3.2464e+000  7.9313e+000 43750 97225,96980,96928
 7.0000e-001 97179  8.6247e-001 -3.8293e+000  1.2281e+001 43750 97225,96928,97084
 7.0000e-001 97156  1.5820e+000  1.7907e+001  8.8640e+000 43750 96928,96980,96954
 7.0000e-001 97133  7.0803e+000  1.3996e+001  3.0705e+000 43750 97006,97084,97058
 7.0000e-001 97110  2.1438e+001  1.0167e+001  3.6348e+000 43750 97006,97058,97032
 7.0000e-001 97251  3.8405e+000  1.5954e+001  3.3079e+000 43750 97006,96980,97225
 7.0000e-001 97274 -8.6987e-001  3.8014e+000  8.4111e+000 43750 97006,97225,97084
 7.0000e-001 97522  1.3081e+000  4.1383e+001 -6.5593e+000 43360 97545,97375,97349
 7.0000e-001 97499 -5.1395e+000  3.1448e+001 -1.0942e+001 43360 97545,97349,97323
 7.0000e-001 97476  4.1012e+000  2.9457e+001 -1.1050e+001 43360 97617,97427,97401
 7.0000e-001 97453 -5.7600e+000  4.1160e+000 -2.5492e+001 43360 97297,97427,97323
 7.0000e-001 97571 -2.5281e+000  2.6809e+001 -4.4064e+000 43360 97401,97375,97545
 7.0000e-001 97594  3.1012e+000  2.7351e+001 -9.7235e+000 43360 97617,97401,97545
 7.0000e-001 97643  5.0209e+000  3.2149e+001 -1.3382e+001 43360 97323,97427,97617
 7.0000e-001 97666  3.7081e+000  3.0784e+001 -1.1904e+001 43360 97323,97617,97545
 7.0000e-001 98019 -3.7970e+001  8.0808e+000 -3.2494e+000 42956 97794,97898,97820
 7.0000e-001 97996 -2.3712e+001  2.9336e+001 -1.1102e+001 42956 97794,97924,97898
 7.0000e-001 97973 -7.0164e+001  2.2184e+000 -1.3112e+000 42956 97820,97872,97846
 7.0000e-001 97950 -5.2982e+001 -7.1985e+000 -1.1040e+001 42956 97820,97898,97872
 7.0000e-001 98446  1.6502e+001  2.9833e+001 -4.9580e+000 42559 98149,98305,98279
 7.0000e-001 98423  2.2543e+001  3.4194e+001 -2.7840e+000 42559 98123,98305,98149
 7.0000e-001 98400  9.8747e+000  2.7547e+001 -6.3487e+000 42559 98469,98175,98149
 7.0000e-001 98377  1.5684e+001  4.1044e+001 -8.2129e+000 42559 98469,98149,98279
 7.0000e-001 98354  9.1952e+000  4.0377e+001 -1.1118e+001 42559 98175,98253,98227
 7.0000e-001 98331  1.2417e+001  4.6379e+001 -1.3792e+001 42559 98175,98227,98201
 7.0000e-001 98495  1.2453e+001  3.6212e+001 -1.3054e+001 42559 98253,98175,98469
 7.0000e-001 98518  1.4154e+001  4.1048e+001 -1.4940e+001 42559 98253,98469,98279
 7.0000e-001 98847  1.3314e+000  1.2735e+001 -2.1826e+000 42247 98674,98752,98700
 7.0000e-001 98824  5.9551e+000  2.2496e+001 -3.8319e+000 42247 98648,98752,98674
 7.0000e-001 98801  2.8869e+000  1.4811e+001 -8.1364e+000 42247 98622,98752,98648
 7.0000e-001 98778  9.3481e+000  2.5050e+001 -1.7079e+001 42247 98700,98752,98726
 7.0000e-001 99117  2.5203e+000  9.2752e+000 -3.7071e+000 41843 98892,98996,98918
 7.0000e-001 99094 -1.0687e+001  1.4515e+001 -9.5307e+000 41843 98892,99022,98996
 7.0000e-001 99071  1.7967e+001  2.9294e+001  3.0232e+000 41843 98918,98996,98970
 7.0000e-001 99048  4.0071e+000  2.5449e+001  9.2245e-001 41843 98918,98970,98944
 7.0000e-001 99625  1.5025e+001  4.2094e+001  1.7235e+001 41232 99648,99380,99354
 7.0000e-001 99602  1.4222e+001  2.3272e+001  1.2793e+000 41232 99648,99354,99328
 7.0000e-001 99579  7.4116e+000  2.3193e+001  1.1788e+001 41232 99720,99432,99380
 7.0000e-001 99556  7.9300e+000  2.4847e+001  1.4218e+001 41232 99380,99432,99406
 7.0000e-001 99533  2.1603e+001  3.4638e+001 -2.0201e+001 41232 99328,99484,99458
 7.0000e-001 99510 -4.1629e+001  1.8001e+001 -2.2644e+001 41232 99302,99484,99328
 7.0000e-001 99674  4.5054e+000  2.3131e+001  1.1167e+001 41232 99720,99380,99648
 7.0000e-001 99697  9.8610e+000  1.5524e+000 -1.7408e+000 41232 99458,99648,99328
 7.0000e-001 99746  1.0547e+001  2.2474e+001  1.2632e+001 41232 99458,99432,99720
 7.0000e-001 99769  8.6981e+000  2.2851e+001  1.1559e+001 41232 99458,99720,99648
 7.0000e-001 100275  1.8414e+001  2.0622e+001  7.5770e+000 40728 99952,100004,99978
 7.0000e-001 100252  5.2491e+000  1.7772e+001  1.0661e+000 40728 99952,100030,100004
 7.0000e-001 100229  9.7934e+000  3.2292e+001 -6.2603e-001 40728 99952,100134,100030
 7.0000e-001 100206  6.0059e+000  3.5110e+001 -1.1743e+001 40728 100298,100108,100082
 7.0000e-001 100183  6.3436e+000  1.4889e+001 -1.4030e+001 40728 100298,100082,100030
 7.0000e-001 100160 -1.9206e+001  2.0237e+001 -3.3993e+001 40728 100030,100082,100056
 7.0000e-001 100324  3.3733e+000  5.2125e+001 -4.3544e+000 40728 100134,100108,100298
 7.0000e-001 100347  1.5105e+000  2.7236e+001 -4.9251e+000 40728 100134,100298,100030
 7.0000e-001 100853  5.7756e+000  4.3957e+001 -4.9959e+000 40274 100876,100686,100660
 7.0000e-001 100830  6.0723e+000  3.2752e+001 -8.7709e-001 40274 100948,100876,100660
 7.0000e-001 100807  1.0077e+000  3.0587e+001 -4.6796e+000 40274 100948,100660,100608
 7.0000e-001 100784  5.8131e+000  3.9497e+001  1.6980e+000 40274 101020,100556,100712
 7.0000e-001 100761  2.9465e+000  3.6591e+001  4.8740e-001 40274 100530,100712,100556
 7.0000e-001 100738  5.0948e+000  3.8315e+001 -1.0677e+000 40274 100608,100660,100634
 7.0000e-001 100902  4.8977e+000  6.4094e+001  1.4448e+000 40274 100712,100686,100876
 7.0000e-001 100925  1.4542e-001  4.1324e+001 -3.1310e+000 40274 101020,100712,100876
 7.0000e-001 100974  3.1392e+000  3.0723e+001 -9.2712e+000 40274 100582,100876,100948
 7.0000e-001 100997 -7.7438e+000  2.6766e+001 -1.2850e+001 40274 100582,100948,100608
 7.0000e-001 101046  1.2810e+001  4.2476e+001  2.0786e+000 40274 100582,100556,101020
 7.0000e-001 101069  8.9855e+000  4.4975e+001 -3.5032e+000 40274 100582,101020,100876
 7.0000e-001 101496 -3.5233e+000  2.9764e+001 -1.1643e+000 39820 101519,101277,101225
 7.0000e-001 101473 -1.1096e+001  2.2676e+001 -4.8199e+000 39820 101519,101225,101199
 7.0000e-001 101450 -1.0670e+001  1.8773e+001 -2.7262e+000 39820 101173,101355,101199
 7.0000e-001 101427 -5.9971e+000  2.1066e+001  6.7248e+000 39820 101277,101355,101303
 7.0000e-001 101404 -7.1456e+000  2.2736e+001 -1.0869e+001 39820 101225,101277,101251
 7.0000e-001 101381  4.1629e+000  1.5233e+001  9.8135e+000 39820 101303,101355,101329
 7.0000e-001 101545  2.1814e-001  2.5841e+001  2.0498e+000 39820 101355,101277,101519
 7.0000e-001 101568 -3.3284e+000  2.4414e+001 -2.4968e-001 39820 101355,101519,101199
 7.0000e-001 101816 -4.7346e-001 -3.4382e+000  7.1454e+000 39066 101839,101695,101643
 7.0000e-001 101793 -2.6627e+000  3.3787e+000  4.2983e+000 39066 101839,101643,101591
 7.0000e-001 101770  2.8027e+000 -6.8026e+000  3.3067e+000 39066 101643,101695,101669
 7.0000e-001 101747  8.4042e+000  1.9906e+001 -5.1936e-001 39066 101591,101643,101617
 7.0000e-001 101865 -1.8568e-001 -7.1857e-001  3.4129e+000 39066 101721,101695,101839
 7.0000e-001 101888  2.2925e-002  8.6112e+000  2.6615e-001 39066 101721,101839,101591
 7.0000e-001 102087  4.1889e-001  4.2386e+001 -1.0536e+000 38726 101937,101989,101963
 7.0000e-001 102064 -1.0912e+001  2.8998e+001  4.4078e+000 38726 101937,102015,101989
 7.0000e-001 102041  1.3581e+001  3.8665e+001  5.6494e+000 38726 101911,102015,101937
 7.0000e-001 102337 -2.8775e+000  2.9732e+001 -5.9018e+000 38322 102112,102190,102138
 7.0000e-001 102314 -7.6226e+000  2.6690e+001 -5.9497e-001 38322 102112,102216,102190
 7.0000e-001 102291 -2.6007e+000  2.8411e+001 -1.1362e+000 38322 102112,102242,102216
 7.0000e-001 102268 -1.9277e+001  2.8231e+001 -6.9123e+000 38322 102138,102190,102164
 7.0000e-001 102489  1.6689e+001  5.7304e+001  2.1018e+000 38032 102512,102388,102362
 7.0000e-001 102466  1.2662e+001  7.3621e+001 -6.3303e+000 38032 102512,102362,102440
 7.0000e-001 102538  1.9509e+001  4.3449e+001 -8.6149e-003 38032 102414,102388,102512
 7.0000e-001 102561  1.0831e+001  5.2786e+001 -1.1190e+001 38032 102414,102512,102440
 7.0000e-001 102894  2.3661e+001  4.5886e+001  3.3798e+000 37592 102669,102773,102695
 7.0000e-001 102871  1.5519e+001  4.3836e+001  6.1909e+000 37592 102669,102799,102773
 7.0000e-001 102848  2.2515e+001  6.0250e+001  6.9490e+000 37592 102721,102773,102747
 7.0000e-001 102825  2.1459e+001  4.5353e+001  2.5468e+000 37592 102695,102773,102721
 7.0000e-001 103093 -3.5858e+000  3.2964e+001 -4.6661e+000 37188 102917,102995,102943
 7.0000e-001 103070 -5.8829e+000  3.2698e+001 -1.3903e+000 37188 102917,103021,102995
 7.0000e-001 103047 -8.9438e+000  2.4393e+001 -8.2823e-001 37188 102943,102995,102969
 7.0000e-001 103341  2.7928e+000  1.2744e+001 -1.2481e+000 36605 103142,103194,103168
 7.0000e-001 103318  9.3495e+000  2.4450e+001 -9.0861e+000 36605 103142,103220,103194
 7.0000e-001 103295 -1.2290e+000  2.3981e+001 -8.7150e+000 36605 103116,103220,103142
 7.0000e-001 103272 -1.7061e+001  2.5908e+001 -1.1515e+001 36605 103116,103246,103220
 7.0000e-001 103949  1.2549e+001  1.4416e+001  9.1081e+000 36127 103554,103606,103580
 7.0000e-001 103926 -3.7411e+000  2.0745e+001  8.3130e+000 36127 103528,103606,103554
 7.0000e-001 103903 -7.0736e+000  4.3912e+000 -9.8756e-001 36127 103528,103736,103606
 7.0000e-001 103880  2.3047e-001  1.8429e+000  1.4574e+000 36127 103972,103710,103632
 7.0000e-001 103857  3.6793e+000  9.6592e+000  6.7979e+000 36127 103972,103632,103606
 7.0000e-001 103834 -5.4240e+000  2.2650e+000 -6.3576e-001 36127 103632,103710,103658
 7.0000e-001 103811 -1.6075e+001  2.1636e+001 -1.8989e+001 36127 103528,103762,103736
 7.0000e-001 103788 -4.4443e+000  3.3365e-001 -5.7692e+000 36127 103658,103710,103684
 7.0000e-001 103998 -4.4225e+000 -5.3303e+000 -4.1730e+000 36127 103736,103710,103972
 7.0000e-001 104021 -3.9660e-001  2.0916e+000  1.3354e+000 36127 103736,103972,103606
 7.0000e-001 104220 -1.9717e+001  1.5017e+001  6.5065e+000 35787 104070,104148,104122
 7.0000e-001 104197 -2.1701e+001  3.5066e+001  1.0452e+001 35787 104044,104148,104070
 7.0000e-001 104174  4.8261e+000  1.7411e+001  8.6879e+000 35787 104070,104122,104096
 7.0000e-001 104419  2.3230e+001  4.4569e+001 -3.7174e+000 35440 104269,104321,104295
 7.0000e-001 104396  1.6549e+001  4.4160e+001 -9.9818e-002 35440 104269,104347,104321
 7.0000e-001 104373  1.2817e+001  4.1658e+001 -1.4450e+000 35440 104243,104347,104269
 7.0000e-001 104718 -1.0833e+000  3.4135e+001 -1.5714e+000 34986 104496,104548,104522
 7.0000e-001 104695 -1.0093e+000  3.8282e+001 -7.0880e+000 34986 104741,104548,104496
 7.0000e-001 104672  8.3010e+000  3.2629e+001 -8.1105e+000 34986 104741,104496,104444
 7.0000e-001 104649 -5.0178e+000  3.4806e+001 -2.1248e+000 34986 104813,104574,104548
 7.0000e-001 104626  1.1234e+001  4.1660e+001 -1.1531e-001 34986 104444,104496,104470
 7.0000e-001 104767 -5.2788e+000  3.4682e+001 -4.9245e+000 34986 104813,104548,104741
 7.0000e-001 104790  2.8747e+000  2.7629e+001 -6.0000e+000 34986 104600,104741,104444
 7.0000e-001 104839  1.9629e+000  3.7487e+001 -7.8993e-001 34986 104600,104574,104813
 7.0000e-001 104862 -6.5014e-001  3.6665e+001 -5.0514e+000 34986 104600,104813,104741
 7.0000e-001 105014 -4.8934e+000  3.0548e+001 -7.7198e+000 34696 105169,105037,104913
 7.0000e-001 104991 -4.7414e+000  2.7405e+001 -6.0911e+000 34696 105169,104913,104887
 7.0000e-001 105063  1.2426e+001  4.4980e+001 -1.4807e+000 34696 104939,104913,105037
 7.0000e-001 105195 -7.1400e+000  3.0604e+001 -5.2450e+000 34696 104965,105037,105169
 7.0000e-001 105218 -6.8517e+000  2.8069e+001 -3.6144e+000 34696 104965,105169,104887
 7.0000e-001 105368 -2.1061e+000  3.7351e+001 -3.7076e+000 34384 105267,105319,105293
 7.0000e-001 105345  2.4322e+000  4.7302e+001 -9.5365e-001 34384 105241,105319,105267
 7.0000e-001 105616 -9.0821e+000  2.6430e+001 -8.0876e-001 33730 105639,105417,105391
 7.0000e-001 105593 -8.2829e+000  2.5297e+001 -1.6664e+000 33730 105639,105391,105495
 7.0000e-001 105570 -5.3502e+000  3.1097e+001 -3.9519e+000 33730 105391,105521,105495
 7.0000e-001 105547 -8.5358e+000  2.2684e+001  8.1999e+000 33730 105417,105469,105443
 7.0000e-001 105665 -8.3263e+000  2.7102e+001 -4.5888e-001 33730 105469,105417,105639
 7.0000e-001 105688 -6.5602e+000  2.6086e+001 -1.1626e+000 33730 105469,105639,105495
 7.0000e-001 105840  1.5810e+001  4.7003e+001 -2.4074e+000 33390 105713,105765,105739
 7.0000e-001 105817  1.4541e+001  4.7556e+001 -3.1263e+000 33390 105713,105791,105765
 7.0000e-001 106090  6.7980e-001  2.6407e+001 -1.3047e+001 33043 106113,105943,105891
 7.0000e-001 106067 -5.4105e+000  3.2052e+001 -1.8222e+000 33043 106113,105891,105865
 7.0000e-001 106044  1.0322e+001  2.1046e+001 -3.5095e+000 33043 105891,105943,105917
 7.0000e-001 106021  1.4772e+000  3.9938e+001 -4.2564e+000 33043 105865,105995,105969
 7.0000e-001 106139  1.3690e+001  4.6038e+001 -1.8984e+001 33043 105969,105943,106113
 7.0000e-001 106162 -6.6550e-001  3.9356e+001 -3.9080e+000 33043 105969,106113,105865
 7.0000e-001 106412  8.7286e+000  4.7271e+000 -6.5926e+000 32539 106435,106291,106239
 7.0000e-001 106389  1.7258e+001  2.9794e+000 -5.5374e+000 32539 106187,106317,106291
 7.0000e-001 106366  8.7846e+000  9.5027e+000 -9.9127e-001 32539 106435,106239,106213
 7.0000e-001 106343  1.7533e+001  5.6423e+000 -4.1702e+000 32539 106239,106291,106265
 7.0000e-001 106461  5.9443e+000  2.6759e+000 -7.9337e+000 32539 106187,106291,106435
 7.0000e-001 106484  2.7589e+000  5.8358e+000 -2.8294e+000 32539 106187,106435,106213
 7.0000e-001 106685  3.2470e+000  2.6070e+001 -4.0615e+000 31835 106535,106587,106561
 7.0000e-001 106662 -7.0872e+000  2.4119e+001 -6.1723e-002 31835 106509,106587,106535
 7.0000e-001 106639  8.8062e+000  4.0970e+001 -6.6877e+000 31835 106509,106613,106587
 7.0000e-001 106935 -1.8896e+000  2.0142e+001 -3.6634e+000 31530 106736,106814,106788
 7.0000e-001 106912 -2.6222e+000  2.2542e+001 -5.5059e-001 31530 106710,106814,106736
 7.0000e-001 106889 -1.2391e+001  1.3163e+001 -4.7295e-001 31530 106736,106788,106762
 7.0000e-001 106866  3.9068e+000  2.6425e+001 -2.8895e+000 31530 106710,106840,106814
 7.0000e-001 107339 -1.6160e+001  4.9221e+000 -1.9347e+000 31026 107117,107221,107195
 7.0000e-001 107316 -1.0683e+001  6.6390e-001  1.0856e+000 31026 107091,107221,107117
 7.0000e-001 107293 -6.4394e+000  1.3524e+000 -3.1442e-001 31026 107065,107221,107091
 7.0000e-001 107270 -2.6159e+001  7.0053e+000  2.0674e+000 31026 107143,107195,107169
 7.0000e-001 107247 -3.4085e+001 -2.9763e+000 -3.1757e+000 31026 107117,107195,107143
 7.0000e-001 107538  6.2656e+000  3.9573e+001 -9.7427e-001 30714 107561,107388,107362
 7.0000e-001 107515  7.7463e+000  4.2611e+001 -1.7496e+000 30714 107561,107362,107466
 7.0000e-001 107492  8.1749e+000  3.5811e+001 -4.8181e+000 30714 107414,107466,107440
 7.0000e-001 107587  8.4028e+000  3.5070e+001 -8.6641e-001 30714 107414,107388,107561
 7.0000e-001 107610  1.0391e+001  3.8828e+001 -1.7793e+000 30714 107414,107561,107466
 7.0000e-001 107990  9.2949e+000  2.6719e+001  3.6058e+000 30260 108013,107846,107768
 7.0000e-001 107967  1.2091e+001  3.3426e+001  5.6187e-001 30260 108013,107768,107716
 7.0000e-001 107944  5.6572e+000  3.5348e+001  1.3126e+000 30260 107716,107768,107742
 7.0000e-001 107921  1.7927e+001  3.3278e+001  6.4635e+000 30260 107768,107846,107820
 7.0000e-001 107898  1.6324e+001  2.7023e+001  3.0402e+000 30260 107768,107820,107794
 7.0000e-001 108039  1.1267e+001  2.9437e+001 -1.1152e+000 30260 107872,107846,108013
 7.0000e-001 108062  1.2841e+001  3.6198e+001 -3.7759e+000 30260 107872,108013,107716
 7.0000e-001 108261  9.9754e+000  1.4655e+001  2.2236e+000 29870 108284,108085,108163
 7.0000e-001 108238  1.1794e+001  1.6178e+001  1.4968e+000 29870 108085,108189,108163
 7.0000e-001 108215  2.1000e+001  1.5958e+001  3.5323e-001 29870 108284,108163,108137
 7.0000e-001 108310  5.4170e+000  1.5907e+001  5.1358e+000 29870 108111,108085,108284
 7.0000e-001 108333  1.1464e+001  1.3445e+001  3.4290e+000 29870 108111,108284,108137
 7.0000e-001 108664  1.3521e+001  2.0369e+001 -9.6478e+000 29480 108465,108569,108543
 7.0000e-001 108641  1.2382e+000  2.6512e+001  9.1349e+000 29480 108439,108569,108465
 7.0000e-001 108618 -2.0471e+000  1.2071e+001 -6.4922e+000 29480 108465,108543,108491
 7.0000e-001 108595  1.1045e+001  1.6394e+001 -3.2608e+000 29480 108491,108543,108517
 7.0000e-001 108993  1.2593e+000  2.3459e+000 -3.8197e+000 29076 108794,108872,108820
 7.0000e-001 108970 -6.9033e-001 -3.9680e+000 -3.3623e+000 29076 108768,108872,108794
 7.0000e-001 108947 -3.1438e+000  8.0892e-001 -1.0364e+000 29076 108820,108872,108846
 7.0000e-001 108924  6.1383e+000 -9.4613e-001 -2.8270e+000 29076 108768,108898,108872
 7.0000e-001 109420 -6.8781e+000  7.7225e+000 -2.3931e+000 28472 109123,109227,109201
 7.0000e-001 109397 -1.7278e+001  9.3453e+000 -2.4216e+000 28472 109123,109253,109227
 7.0000e-001 109374 -8.9277e+000  6.5478e+000 -1.3772e+000 28472 109123,109201,109175
 7.0000e-001 109351 -2.2928e+001  1.5134e+001  2.0944e+000 28472 109123,109279,109253
 7.0000e-001 109328 -4.7968e+000  8.0473e+000  3.9198e+000 28472 109123,109175,109149
 7.0000e-001 109305 -2.9069e+001  3.2262e+001 -4.2910e+000 28472 109097,109279,109123
 7.0000e-001 109749 -7.6418e-002  1.5010e+001 -3.2830e+000 28018 109772,109602,109576
 7.0000e-001 109726 -1.8424e+000  8.7470e+000 -2.8928e+000 28018 109772,109576,109550
 7.0000e-001 109703  2.7357e+000  2.8723e+000  2.2754e+000 28018 109524,109628,109550
 7.0000e-001 109680 -2.0222e+000  1.4534e+000  1.7832e+000 28018 109524,109654,109628
 7.0000e-001 109798  5.2208e+000  1.5047e+001  5.3444e+000 28018 109628,109602,109772
 7.0000e-001 109821  7.3966e-001  2.3954e+000  2.9416e+000 28018 109628,109772,109550
 7.0000e-001 110199 -1.0364e+000  1.6965e+001 -8.8489e+000 27564 110029,110081,110055
 7.0000e-001 110176  8.3545e+000  2.9322e+001 -3.7430e+000 27564 109925,110081,110029
 7.0000e-001 110153  1.2071e+001  1.5845e+001 -4.5646e-001 27564 109925,110029,109977
 7.0000e-001 110130  1.6678e+001  1.8215e+001  2.2301e+000 27564 109977,110029,110003
 7.0000e-001 110107  1.7145e+001  2.2422e+001  4.1929e+000 27564 109925,109977,109951
 7.0000e-001 110398 -1.1969e+000  1.7452e+001 -4.3866e+000 27003 110248,110326,110300
 7.0000e-001 110375  1.1649e+000  1.8618e+001 -2.8698e+000 27003 110222,110326,110248
 7.0000e-001 110352 -1.5672e+001  7.6217e+000 -1.0223e+001 27003 110248,110300,110274
 7.0000e-001 110646  1.6526e+001  1.1018e+001 -3.8631e+000 26563 110669,110473,110421
 7.0000e-001 110623  1.6536e+001  5.6372e+000 -1.8456e+000 26563 110669,110421,110551
 7.0000e-001 110600  1.1199e+001  1.7761e+001 -6.2141e-001 26563 110473,110525,110499
 7.0000e-001 110577  1.2028e+001  6.0774e+000  6.9404e+000 26563 110421,110473,110447
 7.0000e-001 110695  1.6535e+001  1.2244e+001 -4.0752e+000 26563 110525,110473,110669
 7.0000e-001 110718  1.8544e+001  1.0499e+001 -1.7392e+000 26563 110525,110669,110551
 7.0000e-001 110870  4.3674e+000  3.2062e+001 -5.2067e+000 26166 110769,110821,110795
 7.0000e-001 110847  5.8199e+000  1.9554e+001 -3.0837e+000 26166 110743,110821,110769
 7.0000e-001 111380 -1.1332e+000  2.1531e+001  5.7734e+000 25712 111403,111109,111083
 7.0000e-001 111357  3.9781e+000  2.5007e+001  4.2618e+000 25712 111403,111083,111239
 7.0000e-001 111334 -1.1594e+001  2.3717e+001  1.8056e+001 25712 111109,111161,111135
 7.0000e-001 111311 -1.5953e+000  2.1701e+001  2.5632e+000 25712 111057,111239,111083
 7.0000e-001 111288  8.2283e+000  1.5841e+001  5.0742e+000 25712 111161,111239,111187
 7.0000e-001 111265  1.5604e+001  1.9759e+001  3.6172e+000 25712 111187,111239,111213
 7.0000e-001 111429  3.8986e+000  1.6732e+001  7.5289e+000 25712 111161,111109,111403
 7.0000e-001 111452  1.0056e+001  2.0698e+001  5.8216e+000 25712 111161,111403,111239
 7.0000e-001 111651  6.7493e+000  2.7729e+001  1.1669e+000 25300 111674,111501,111475
 7.0000e-001 111628  6.4596e+000  2.4315e+001  1.6037e+000 25300 111674,111475,111579
 7.0000e-001 111605  5.9105e+000  2.9145e+001 -1.9350e+000 25300 111501,111553,111527
 7.0000e-001 111700  5.9409e+000  3.0724e+001  9.6195e-001 25300 111553,111501,111674
 7.0000e-001 111723  5.9532e+000  2.7829e+001  1.6441e+000 25300 111553,111674,111579
 7.0000e-001 111922 -1.7259e+000  2.9180e+000 -1.3813e+000 24732 111798,111850,111824
 7.0000e-001 111899 -8.4234e-001  3.9330e+000 -7.4438e-001 24732 111772,111850,111798
 7.0000e-001 111876  2.5905e+000  4.8011e+000 -5.9117e-001 24732 111746,111850,111772
 7.0000e-001 112255  1.8192e+001  4.8283e+001 -7.6642e+000 24142 112056,112108,112082
 7.0000e-001 112232  2.1954e+001  4.7325e+001 -3.7847e+000 24142 112056,112134,112108
 7.0000e-001 112209  1.0047e+001  2.9741e+001  1.3975e+000 24142 112056,112160,112134
 7.0000e-001 112186  1.9935e+001  2.7362e+001 -1.7907e+000 24142 112030,112160,112056
 7.0000e-001 112601 -5.4845e+000  1.6764e+001  1.2483e+001 23852 112624,112382,112356
 7.0000e-001 112578 -1.6288e+001  2.0828e+001  1.4638e+000 23852 112696,112624,112356
 7.0000e-001 112555 -1.0920e+001  1.7914e+001 -8.5348e+000 23852 112696,112356,112304
 7.0000e-001 112532 -1.8306e+001  1.3191e+001 -5.9386e+000 23852 112304,112356,112330
 7.0000e-001 112509  4.6324e+000  2.9709e+001 -5.1387e+000 23852 112278,112460,112304
 7.0000e-001 112486  4.5269e+001  2.7047e+001 -1.4782e-001 23852 112382,112434,112408
 7.0000e-001 112650  3.3500e+001  2.8995e+001  1.4472e+001 23852 112434,112382,112624
 7.0000e-001 112673 -1.0592e+000  1.8728e+001  7.3698e+000 23852 112434,112624,112460
 7.0000e-001 112722  1.3118e+000  2.9418e+001  5.1489e+000 23852 112460,112624,112696
 7.0000e-001 112745  3.4711e+000  2.3490e+001 -5.7566e+000 23852 112460,112696,112304
 7.0000e-001 113015 -1.9384e+001  2.4881e+001 -6.0175e+000 23490 112842,112894,112868
 7.0000e-001 112992 -1.2558e+001  1.0865e+001 -4.6422e+000 23490 112816,112894,112842
 7.0000e-001 112969 -1.5580e+001  9.7125e+000  6.2249e-001 23490 112790,112894,112816
 7.0000e-001 112946 -1.3242e+001  1.9385e+001  2.4425e+000 23490 112790,112920,112894
 7.0000e-001 113348  3.3860e+000  2.2144e+001 -6.5635e+000 22970 113175,113253,113227
 7.0000e-001 113325  1.0477e+001  1.8071e+001 -5.1044e+000 22970 113149,113253,113175
 7.0000e-001 113302  3.1580e+000  1.2137e+001 -1.5938e+001 22970 113175,113227,113201
 7.0000e-001 113279  1.3076e+001  2.2342e+001 -3.4716e+000 22970 113123,113253,113149
 7.0000e-001 113645 -5.8630e+000  1.3709e+001 -1.1265e+000 22366 113423,113527,113449
 7.0000e-001 113622 -8.0003e+000  4.8245e+000 -3.3089e+000 22366 113371,113527,113423
 7.0000e-001 113599 -6.2602e+000  1.3742e+001  2.9787e+000 22366 113449,113527,113501
 7.0000e-001 113576 -1.8074e+000  1.3717e+001  7.5261e+000 22366 113449,113501,113475
 7.0000e-001 113553  1.8782e+000  2.2802e+001 -9.3452e+000 22366 113371,113423,113397
 7.0000e-001 113893 -2.7743e-001  1.1820e+001 -6.0698e+000 21912 113916,113746,113720
 7.0000e-001 113870 -4.0553e+000  1.8255e+001 -6.1746e+000 21912 113916,113720,113668
 7.0000e-001 113847 -1.5747e+001  1.9460e+001 -1.4249e+001 21912 113988,113798,113772
 7.0000e-001 113824 -2.5899e+000  2.2967e+001 -9.8916e+000 21912 113668,113720,113694
 7.0000e-001 113942 -4.0401e-001  1.6285e+001 -9.7108e+000 21912 113772,113746,113916
 7.0000e-001 113965 -7.2855e+000  1.3271e+001 -1.0136e+001 21912 113988,113772,113916
 7.0000e-001 114014 -7.4059e+000  2.9536e+001 -9.9248e+000 21912 113668,113798,113988
 7.0000e-001 114037 -1.0300e+000  2.3533e+001 -7.4114e+000 21912 113668,113988,113916
 7.0000e-001 114287  6.5513e+000  1.9317e+001 -7.7842e-002 21408 114088,114140,114114
 7.0000e-001 114264  9.0493e+000  2.2430e+001 -1.4476e+000 21408 114310,114140,114088
 7.0000e-001 114241  3.8062e+000  2.2163e+001 -4.1016e+000 21408 114310,114088,114192
 7.0000e-001 114218  6.7386e+000  2.4107e+001 -3.2527e+000 21408 114062,114192,114088
 7.0000e-001 114336  4.9976e+000  1.9323e+001 -3.4192e+000 21408 114166,114140,114310
 7.0000e-001 114359  1.7219e+000  2.1466e+001 -5.5229e+000 21408 114166,114310,114192
 7.0000e-001 114609  1.1941e+001  1.1203e+001  3.8239e+000 21018 114632,114488,114436
 7.0000e-001 114586  1.1875e+001  1.1276e+001  3.6704e+000 21018 114632,114436,114410
 7.0000e-001 114563  1.7809e+001  9.6940e+000  2.4560e+000 21018 114384,114514,114410
 7.0000e-001 114540  1.1783e+000  1.0792e+001  3.4821e+000 21018 114436,114488,114462
 7.0000e-001 114658  1.2134e+001  1.1282e+001  3.8211e+000 21018 114514,114488,114632
 7.0000e-001 114681  1.2010e+001  1.1329e+001  3.6751e+000 21018 114514,114632,114410
 7.0000e-001 114882  4.5880e+001  3.8699e+001  8.8712e+000 20614 114732,114784,114758
 7.0000e-001 114859  2.9177e+001  3.5937e+001  3.1311e+000 20614 114732,114810,114784
 7.0000e-001 114836  2.5673e+001  3.1172e+001  1.3136e+000 20614 114706,114810,114732
 7.0000e-001 115132  2.5989e+000  2.5762e+001 -2.4169e+000 20110 114907,115011,114933
 7.0000e-001 115109  1.1284e+001  3.0937e+001 -4.9178e+000 20110 114907,115037,115011
 7.0000e-001 115086  4.0226e+000  2.6857e+001 -1.9408e+000 20110 114933,115011,114985
 7.0000e-001 115063  5.1856e+000  3.3592e+001 -8.0212e+000 20110 114933,114985,114959
 7.0000e-001 115284 -2.5562e+000  2.7235e+001 -1.0308e-001 19456 115378,115307,115157
 7.0000e-001 115261 -4.7654e+000  2.9880e+001 -8.0151e-001 19456 115378,115157,115235
 7.0000e-001 115333 -3.0355e+000  2.5963e+001 -2.4837e-002 19456 115183,115157,115307
 7.0000e-001 115404 -4.3531e+000  2.3303e+001 -8.6578e-001 19456 115209,115307,115378
 7.0000e-001 115427 -6.3992e+000  2.6392e+001 -1.7246e+000 19456 115209,115378,115235
 7.0000e-001 115677 -8.5669e-001  2.5658e+001 -7.6755e-003 19002 115504,115582,115530
 7.0000e-001 115654  2.5118e+000  2.7109e+001  6.1017e-001 19002 115478,115582,115504
 7.0000e-001 115631 -1.5752e+000  2.6140e+001  6.3588e+000 19002 115452,115582,115478
 7.0000e-001 115608  1.2733e+001  2.7934e+001 -1.1919e+001 19002 115530,115582,115556
 7.0000e-001 115998  4.5048e+000  1.3626e+001 -2.1190e+000 18712 115802,115880,115854
 7.0000e-001 115975  8.1232e+000  1.8413e+001 -9.6738e-002 18712 115724,115880,115802
 7.0000e-001 115952  8.4649e+000  1.3541e+001 -6.5507e-001 18712 115724,115802,115776
 7.0000e-001 115929  1.0059e+001  1.5345e+001  1.3913e+000 18712 115724,115776,115750
 7.0000e-001 115906  7.0680e+000  1.4598e+001 -2.2998e+000 18712 115802,115854,115828
 7.0000e-001 116270 -2.0182e+001 -5.0587e+000 -2.2834e-001 18308 116045,116123,116071
 7.0000e-001 116247 -2.1643e+001 -9.5518e+000  1.8306e+000 18308 116045,116175,116123
 7.0000e-001 116224 -2.6935e+001 -1.4476e+000  1.5133e+000 18308 116123,116175,116149
 7.0000e-001 116201 -3.2131e+000  4.5431e-001  7.7363e-001 18308 116071,116123,116097
 7.0000e-001 116422  2.1153e+000  2.7955e+001 -5.2193e-002 17996 116321,116373,116347
 7.0000e-001 116399  3.4785e+000  2.8862e+001  7.3753e-001 17996 116295,116373,116321
 7.0000e-001 116574  1.0690e+001  4.0897e+000  3.0941e+000 17392 116473,116525,116499
 7.0000e-001 116551  2.4423e+001  1.5868e+001  8.2748e+000 17392 116447,116525,116473
 7.0000e-001 116797  8.4546e-002 -9.6677e-002  1.5265e+000 16938 116621,116699,116673
 7.0000e-001 116774  1.9409e-001  1.1390e+000  1.1625e+000 16938 116621,116725,116699
 7.0000e-001 116751 -7.5349e-001 -2.0515e+000  1.0217e+000 16938 116621,116673,116647
 7.0000e-001 116998  2.1235e+001  2.0467e+000  3.5457e+000 16434 117021,116874,116848
 7.0000e-001 116975 -8.9500e+000 -3.6148e+000 -3.5918e+000 16434 117021,116848,116822
 7.0000e-001 116952  3.2665e+001  1.7210e+001  1.3197e+001 16434 116874,116926,116900
 7.0000e-001 117047  3.2433e+001 -1.9217e+000  5.3992e+000 16434 116926,116874,117021
 7.0000e-001 117070  2.2530e+001  6.3321e+000 -1.9032e+000 16434 116926,117021,116822
 7.0000e-001 117293  1.7118e+001  7.3606e+000  2.5848e+000 16070 117117,117169,117143
 7.0000e-001 117270 -1.7304e+000  2.0598e+000  1.7472e-001 16070 117117,117221,117169
 7.0000e-001 117247 -3.6950e+000  3.3485e+000 -8.3122e-001 16070 117169,117221,117195
 7.0000e-001 117445 -1.9913e+001 -8.6279e+000 -1.3465e+000 15645 117318,117370,117344
 7.0000e-001 117422 -2.7012e+001 -1.2205e+001  2.7142e-001 15645 117318,117396,117370
 7.0000e-001 117548  1.5561e+001  2.2378e+001  8.6301e+000 417 117470,117522,117496
 8.0000e-001 70760 -2.2583e+000  5.7141e+000 -1.2938e+000 70380 70633,70685,70659
 8.0000e-001 70737  2.1324e+000  3.8285e+000 -9.2521e-002 70380 70633,70711,70685
 8.0000e-001 70861 -6.6816e-001  1.2526e+001 -2.4137e+000 70068 70783,70835,70809
 8.0000e-001 71180  9.8043e-002  5.9412e+000 -4.6260e-001 69870 70932,70984,70958
 8.0000e-001 71157 -1.5139e+000  5.2784e+000 -2.5214e-001 69870 70932,71010,70984
 8.0000e-001 71134 -1.9071e+000  3.4819e+000 -4.3749e-001 69870 70932,71036,71010
 8.0000e-001 71111 -1.6328e+000  2.8713e+000  2.5742e+000 69870 70932,71062,71036
 8.0000e-001 71088  2.2201e-001  4.4615e+000  2.0743e-001 69870 70906,71062,70932
 8.0000e-001 71428  4.8334e+000  1.9547e+001  8.5284e+000 69694 71451,71281,71255
 8.0000e-001 71405  8.7081e+000  1.6092e+001  9.1484e+000 69694 71523,71451,71255
 8.0000e-001 71382  1.2412e+001  2.1605e+001  1.3619e+001 69694 71523,71255,71229
 8.0000e-001 71359  3.2539e+000  9.8442e+000  4.3698e+000 69694 71595,71333,71307
 8.0000e-001 71477  3.9614e+000  1.5524e+001  7.9084e+000 69694 71307,71281,71451
 8.0000e-001 71500  2.9841e+000  1.2029e+001  2.7571e+000 69694 71595,71307,71451
 8.0000e-001 71549  1.9500e+000  1.6562e+001  4.3151e+000 69694 71203,71451,71523
 8.0000e-001 71572  2.0935e+000  1.6900e+001  8.0513e+000 69694 71203,71523,71229
 8.0000e-001 71621  3.6141e+000  6.7129e+000  3.5462e+000 69694 71203,71333,71595
 8.0000e-001 71644  2.5561e+000  8.3800e+000  2.8358e+000 69694 71203,71595,71451
 8.0000e-001 71745  3.3462e-001  8.1829e-001 -5.9312e-002 69382 71667,71719,71693
 8.0000e-001 72100 -4.8275e+000  5.0513e+000  2.5512e-001 69184 71875,71979,71901
 8.0000e-001 72077  6.8516e-001  3.1419e+000  3.2298e+000 69184 71875,72005,71979
 8.0000e-001 72054 -1.7442e+000 -1.5188e+000 -3.8213e+000 69184 71901,71979,71953
 8.0000e-001 72031  9.4496e-001  2.9944e+000 -2.6851e+000 69184 71901,71953,71927
 8.0000e-001 72250  5.8000e-001  2.2562e+000  1.1147e+000 68986 72149,72201,72175
 8.0000e-001 72227 -2.1728e+000  4.5094e+000  1.5700e-001 68986 72123,72201,72149
 8.0000e-001 72547  3.8367e-002  7.9665e+000  4.6614e+000 68582 72570,72403,72377
 8.0000e-001 72524  7.1623e-001  8.1568e+000  4.1880e+000 68582 72570,72377,72351
 8.0000e-001 72501  6.9515e-001  1.0929e+001  2.5347e+000 68582 72642,72299,72429
 8.0000e-001 72478  2.6425e+000  6.6212e+000  2.7821e-001 68582 72273,72429,72299
 8.0000e-001 72455  9.3517e-001  1.9890e+001  1.1059e+001 68582 72299,72351,72325
 8.0000e-001 72596  6.8465e-001  7.6466e+000  3.4853e+000 68582 72429,72403,72570
 8.0000e-001 72619  1.6089e+000  9.7686e+000  2.9240e+000 68582 72642,72429,72570
 8.0000e-001 72668  5.7988e-002  9.8555e+000  3.8429e+000 68582 72351,72299,72642
 8.0000e-001 72691  6.9759e-001  8.0614e+000  4.1321e+000 68582 72351,72642,72570
 8.0000e-001 73095 -6.7143e+000  6.3630e+000 -8.5146e-001 68384 72873,72925,72899
 8.0000e-001 73072 -5.1151e+000  2.4836e+001  3.7334e+000 68384 72847,72925,72873
 8.0000e-001 73049 -3.7096e+000  8.8497e+000  1.0731e+001 68384 72847,72951,72925
 8.0000e-001 73026  7.5356e+000  1.6575e+001  5.2314e+000 68384 72821,72951,72847
 8.0000e-001 73003  5.4995e+000  2.3300e+001  1.1161e+000 68384 72821,72977,72951
 8.0000e-001 73552 -1.0708e+001  1.1335e+001  4.1535e+000 68044 73304,73434,73408
 8.0000e-001 73529 -9.4668e+000  5.2111e+000 -3.8721e+000 68044 73278,73434,73304
 8.0000e-001 73506  2.0563e+000  2.7337e-001  5.1939e+000 68044 73356,73408,73382
 8.0000e-001 73483  1.1128e+001 -4.2213e-001 -3.9067e-001 68044 73304,73408,73356
 8.0000e-001 73460  5.6352e+000  2.2227e+000 -3.0379e+000 68044 73304,73356,73330
 8.0000e-001 73871 -3.0504e+000  1.2007e+001 -4.8653e+000 67846 73675,73727,73701
 8.0000e-001 73848  2.3855e+000  1.2636e+001 -5.8459e+000 67846 73649,73727,73675
 8.0000e-001 73825 -2.9225e+000 -3.9194e-001 -6.5823e+000 67846 73623,73727,73649
 8.0000e-001 73802  4.0062e+000  4.0432e+000 -3.8876e+000 67846 73623,73753,73727
 8.0000e-001 73779  9.4552e-002 -3.2388e-001 -1.6994e-001 67846 73597,73753,73623
 8.0000e-001 74021  3.4127e-001 -2.8072e+000  4.7042e-001 67598 73920,73972,73946
 8.0000e-001 73998  2.5635e+000  3.1423e+000  2.1234e-001 67598 73894,73972,73920
 8.0000e-001 74271 -1.9285e-002  5.3657e-001  1.3625e+000 67286 74072,74176,74150
 8.0000e-001 74248 -2.8504e-001  3.1262e+000  1.2228e+000 67286 74046,74176,74072
 8.0000e-001 74225  1.7798e+000  4.0152e+000  2.0072e+000 67286 74072,74150,74098
 8.0000e-001 74202  1.4097e+000  3.5044e+000  1.3279e+000 67286 74098,74150,74124
 8.0000e-001 74374  7.9492e-001  1.3436e+001  8.2951e+000 67088 74296,74348,74322
 8.0000e-001 74646 -3.8373e+000  1.1002e+001 -4.7858e+000 66890 74421,74525,74447
 8.0000e-001 74623  2.3643e-001  1.3527e+001 -1.6159e+000 66890 74421,74551,74525
 8.0000e-001 74600  1.6268e+000  2.3950e+001 -3.7335e+000 66890 74447,74525,74473
 8.0000e-001 74577 -8.3826e+000  1.4003e+001  6.5231e-001 66890 74473,74525,74499
 8.0000e-001 75254 -1.2487e+000  5.5856e+000 -3.8494e-001 66528 74885,75067,75041
 8.0000e-001 75231  1.1266e+001  2.1551e+001  6.5626e+000 66528 74859,75067,74885
 8.0000e-001 75208  3.1269e+000  1.7862e+001  2.2365e+000 66528 74937,75015,74963
 8.0000e-001 75185  1.9599e+000  1.1441e+001  2.5972e+000 66528 74911,75015,74937
 8.0000e-001 75162 -1.2861e+000  1.1418e+001  2.6253e+000 66528 74911,75041,75015
 8.0000e-001 75139  5.5455e+000  1.9554e+001  6.3035e+000 66528 74885,75041,74911
 8.0000e-001 75116 -1.9958e+000  4.4424e+000 -1.7800e+000 66528 74833,75067,74859
 8.0000e-001 75093 -3.6394e+000  1.9447e+001  5.7981e+000 66528 74963,75015,74989
 8.0000e-001 75453 -2.5699e+000  2.2011e+001 -4.0731e+000 66238 75303,75381,75355
 8.0000e-001 75430  3.9455e+000  1.0878e+001 -5.3492e+000 66238 75277,75381,75303
 8.0000e-001 75407 -4.0470e+000  7.9673e+000 -2.7262e+000 66238 75303,75355,75329
 8.0000e-001 75701  9.2533e+000  4.1382e+001  6.3743e+000 65834 75528,75606,75580
 8.0000e-001 75678 -3.5356e+000  3.9181e+001  7.0802e-001 65834 75502,75606,75528
 8.0000e-001 75655  9.5510e+000  5.5151e+001  2.0252e+001 65834 75528,75580,75554
 8.0000e-001 75632  1.0433e+001  4.6320e+001  4.2310e+000 65834 75476,75606,75502
 8.0000e-001 75902 -3.1504e+000  1.4187e+001 -2.1842e+000 65636 75726,75804,75752
 8.0000e-001 75879  6.4257e+000  1.8909e+001 -3.8256e+000 65636 75726,75830,75804
 8.0000e-001 75856  2.1474e+001  1.7846e+001 -3.9073e+000 65636 75752,75804,75778
 8.0000e-001 76103  1.9771e+001  1.5647e+001 -5.8261e+000 65296 76126,75979,75953
 8.0000e-001 76080  1.7218e+001  2.5523e+001 -6.4903e-002 65296 76126,75953,75927
 8.0000e-001 76057  3.3553e+001  4.9898e+001 -1.3274e+001 65296 76198,76005,75979
 8.0000e-001 76152  2.8561e+001  3.4073e+001 -8.4557e+000 65296 76198,75979,76126
 8.0000e-001 76175  1.7842e+001  1.9982e+001 -3.1633e+000 65296 76031,76126,75927
 8.0000e-001 76224  2.6100e+001  2.6686e+001 -5.5966e+000 65296 76031,76005,76198
 8.0000e-001 76247  2.5809e+001  2.1122e+001 -2.0293e-001 65296 76031,76198,76126
 8.0000e-001 76602  5.1037e+000  1.1245e+001  1.1741e+000 64892 76377,76481,76403
 8.0000e-001 76579  5.0697e+000  9.5342e+000  3.8284e-002 64892 76377,76507,76481
 8.0000e-001 76556  1.0144e+001  1.9145e+001 -1.0573e+000 64892 76403,76481,76429
 8.0000e-001 76533 -9.4060e+000  1.2613e+001 -2.0384e+000 64892 76429,76481,76455
 8.0000e-001 76801 -8.6776e+000  1.0851e+001 -1.0031e+000 64438 76677,76729,76703
 8.0000e-001 76778 -2.2217e+000  3.0899e+001  1.9993e+000 64438 76651,76729,76677
 8.0000e-001 76755 -2.3170e+001  1.3524e+001 -1.1608e+001 64438 76625,76729,76651
 8.0000e-001 77230  1.4548e+001  1.9217e+001 -3.2591e+000 63920 77253,76959,76933
 8.0000e-001 77207  8.7508e+000  1.5543e+001 -1.5092e+000 63920 77253,76933,77063
 8.0000e-001 77184  8.1226e+000  1.9931e+001 -8.0463e+000 63920 76959,77037,76985
 8.0000e-001 77161  4.4014e+000  1.3778e+001 -1.6706e+000 63920 76907,77063,76933
 8.0000e-001 77138 -3.6278e+000  2.9647e+001 -8.1037e+000 63920 76985,77037,77011
 8.0000e-001 77115 -8.4747e-001  1.1857e+001  1.9693e-001 63920 76907,77089,77063
 8.0000e-001 77279  6.9984e+000  2.2902e+001 -3.4975e+000 63920 77037,76959,77253
 8.0000e-001 77302  1.7479e+000  1.9752e+001 -1.9612e+000 63920 77037,77253,77063
 8.0000e-001 77680 -5.1393e+000  7.6320e+000  1.1524e+001 63316 77703,77484,77432
 8.0000e-001 77657 -8.6424e+000  4.1063e+000  9.1374e+000 63316 77703,77432,77406
 8.0000e-001 77634 -1.2127e+001 -4.5921e-001  6.0310e+000 63316 77406,77536,77510
 8.0000e-001 77611  1.0524e+001  7.7670e+000  1.6022e+001 63316 77432,77484,77458
 8.0000e-001 77588 -2.6521e+000  5.6792e+000 -1.1344e+000 63316 77406,77562,77536
 8.0000e-001 77729 -1.3236e+000  2.3907e+000  8.0631e+000 63316 77510,77484,77703
 8.0000e-001 77752 -6.4599e+000 -5.2892e-002  5.3061e+000 63316 77510,77703,77406
 8.0000e-001 78000 -3.0686e+001  1.9819e+000  6.0105e+000 62812 77801,77853,77827
 8.0000e-001 77977 -1.7068e+001  4.1339e+000 -7.2303e-001 62812 77801,77879,77853
 8.0000e-001 77954 -2.2871e+001  2.7630e+000 -4.0373e+000 62812 77801,77905,77879
 8.0000e-001 77931 -8.5951e+000  2.4218e+000 -5.5957e+000 62812 77775,77905,77801
 8.0000e-001 78380 -1.1747e+001  5.0778e-002  4.8279e-002 62350 78184,78262,78236
 8.0000e-001 78357 -4.5313e+000 -1.1169e+000  2.1042e+000 62350 78132,78262,78184
 8.0000e-001 78334 -6.7452e+000 -1.9564e+000  3.6622e+000 62350 78106,78262,78132
 8.0000e-001 78311 -1.9909e+000 -1.5901e+000 -9.9188e-002 62350 78132,78184,78158
 8.0000e-001 78288 -1.2512e+001  3.4766e+000 -2.4186e+000 62350 78184,78236,78210
 8.0000e-001 78837  2.6467e+000  6.6016e+000  8.6511e-001 61946 78615,78667,78641
 8.0000e-001 78814  1.2043e+000  5.1948e+000 -4.1417e-001 61946 78589,78667,78615
 8.0000e-001 78791  6.5436e+000  8.4144e-001  2.0137e+000 61946 78589,78719,78667
 8.0000e-001 78768  9.9933e+000  2.6750e+000 -6.8909e-001 61946 78667,78719,78693
 8.0000e-001 78745  6.5531e+000  3.6014e+000  3.4680e+000 61946 78563,78719,78589
 8.0000e-001 78987  9.8722e+000  7.1330e+000 -7.8921e-001 61335 79010,78886,78860
 8.0000e-001 78964  2.5880e+000  1.3187e+001  1.6856e+000 61335 79010,78860,78938
 8.0000e-001 79036  2.7755e+000  6.7344e+000  1.7408e+000 61335 79082,79010,78912
 8.0000e-001 79059 -6.2300e+000  7.5118e+000 -8.6760e-001 61335 78912,79010,78938
 8.0000e-001 79108  1.7192e+000  5.1986e+000 -1.9915e+000 61335 78886,79010,79082
 8.0000e-001 79437 -7.4132e+000  6.6457e+000 -1.0221e+001 60888 79460,79238,79212
 8.0000e-001 79414 -1.0283e+001  5.0227e+000 -4.2872e+000 60888 79460,79212,79342
 8.0000e-001 79391 -1.8254e+001  6.4245e+000 -1.1904e+001 60888 79532,79264,79238
 8.0000e-001 79368 -1.4958e+001  3.8503e+001  6.4186e+000 60888 79264,79316,79290
 8.0000e-001 79486 -1.6106e+001  3.0792e+000 -9.2196e+000 60888 79532,79238,79460
 8.0000e-001 79509 -1.4444e+001  5.4700e+000 -2.9544e+000 60888 79316,79460,79342
 8.0000e-001 79558 -1.7823e+001  1.0207e+001 -7.7557e+000 60888 79316,79264,79532
 8.0000e-001 79581 -9.4195e+000  9.2948e+000 -5.1805e+000 60888 79316,79532,79460
 8.0000e-001 79878 -2.0340e+001 -1.6143e+000 -2.2113e+000 60484 79682,79760,79734
 8.0000e-001 79855 -2.7596e+001 -1.5201e+001  2.2221e+000 60484 79656,79760,79682
 8.0000e-001 79832 -2.7222e+001 -1.4239e+001  2.6242e+000 60484 79604,79760,79656
 8.0000e-001 79809 -2.8903e+001 -2.5111e+001  3.7302e+000 60484 79604,79656,79630
 8.0000e-001 79786 -4.5525e+000 -1.1572e+000  8.4227e-001 60484 79682,79734,79708
 8.0000e-001 80101 -3.7467e+000  2.4016e+000 -6.2963e-001 60022 79951,80029,80003
 8.0000e-001 80078 -2.5238e+001 -2.2911e+000 -2.1143e+000 60022 79925,80029,79951
 8.0000e-001 80055 -2.2783e+001 -4.8129e+000  1.2935e+000 60022 79951,80003,79977
 8.0000e-001 80351  1.9243e+001  3.0983e+001  1.1395e+001 59625 80152,80256,80204
 8.0000e-001 80328  1.4504e+001  3.7847e+001  1.5817e+001 59625 80126,80256,80152
 8.0000e-001 80305  2.6551e+001  4.7336e+001  9.8246e+000 59625 80204,80256,80230
 8.0000e-001 80282  3.7751e+001  3.7679e+001  7.2176e+000 59625 80152,80204,80178
 8.0000e-001 80552  2.2417e+001  2.3296e+001 -7.2790e+000 59121 80575,80402,80376
 8.0000e-001 80529  2.2928e+001  1.3065e+001 -8.6090e+000 59121 80575,80376,80480
 8.0000e-001 80506  3.5438e+001  3.0154e+001  6.0042e+000 59121 80428,80480,80454
 8.0000e-001 80601  2.1678e+001  2.9825e+001 -1.1693e+000 59121 80428,80402,80575
 8.0000e-001 80624  2.2381e+001  2.0249e+001 -2.7306e+000 59121 80428,80575,80480
 8.0000e-001 81183  5.6769e+000  3.7333e+000  5.0702e+000 58553 81206,80863,80837
 8.0000e-001 81160  6.6556e+000  7.4527e+000  4.0247e+000 58553 81350,81206,80837
 8.0000e-001 81137  6.4165e+000  2.9268e+000  6.4210e+000 58553 81278,80915,80863
 8.0000e-001 81114  4.7577e+000  6.2026e+000  1.9953e-001 58553 81350,80837,80811
 8.0000e-001 81091  6.3519e+000 -5.3457e-001  1.5258e+000 58553 81422,80967,80941
 8.0000e-001 81068  2.2179e+000  2.6316e-001  3.2139e-001 58553 80967,81019,80993
 8.0000e-001 81045  4.5285e+000 -5.6556e-001  7.2117e+000 58553 80863,80915,80889
 8.0000e-001 81232  6.2817e+000  4.1676e+000  5.6685e+000 58553 81278,80863,81206
 8.0000e-001 81255  1.0263e+001  1.5000e+000  3.9098e+000 58553 81422,80941,81206
 8.0000e-001 81304  6.3556e+000 -2.2581e-001  7.4671e+000 58553 80941,80915,81278
 8.0000e-001 81327  7.4611e+000  1.9065e+000  6.3253e+000 58553 80941,81278,81206
 8.0000e-001 81376  4.0132e+000  2.0513e+000  2.7518e+000 58553 81019,81206,81350
 8.0000e-001 81399  4.0520e+000  2.3435e+000 -5.2587e-001 58553 81019,81350,80811
 8.0000e-001 81448  2.6585e+000  1.8420e+000  7.9150e-001 58553 81019,80967,81422
 8.0000e-001 81471  4.9198e+000  1.5084e+000  2.4083e+000 58553 81019,81422,81206
 8.0000e-001 81768 -9.6904e+000  1.3054e+001 -1.5983e+000 57877 81791,81572,81520
 8.0000e-001 81745 -3.3316e+000  1.5975e+001 -7.9511e+000 57877 81791,81520,81494
 8.0000e-001 81722 -2.1087e+001  1.4542e+001 -3.0113e-001 57877 81863,81650,81598
 8.0000e-001 81699 -1.7419e+001  2.0608e+001 -8.6948e+000 57877 81598,81650,81624
 8.0000e-001 81676 -1.3482e+001  1.9053e+001 -1.4553e+000 57877 81520,81572,81546
 8.0000e-001 81817 -1.1066e+001  9.9790e+000 -1.8824e+000 57877 81598,81572,81791
 8.0000e-001 81840 -1.8169e+001  1.2931e+001 -2.7066e+000 57877 81863,81598,81791
 8.0000e-001 81889 -1.3427e+001  5.9761e+000  3.0315e+000 57877 81494,81650,81863
 8.0000e-001 81912 -5.5970e+000  9.8681e+000 -1.5312e+000 57877 81494,81863,81791
 8.0000e-001 82160  5.3662e+000  1.8869e+001  1.6035e+001 57473 81935,82039,82013
 8.0000e-001 82137  2.8057e+001  2.8934e+001  1.1514e+001 57473 81935,82065,82039
 8.0000e-001 82114  8.3921e+000  3.1232e+001  1.7708e+001 57473 81935,82013,81961
 8.0000e-001 82091  7.5476e+000  2.2851e+001  2.0642e+001 57473 81961,82013,81987
 8.0000e-001 82719  4.1691e+000  1.7817e+001 -4.3743e+000 56962 82814,82742,82425
 8.0000e-001 82696  3.1986e+000 -1.9196e+000  2.4823e+000 56962 82742,82347,82555
 8.0000e-001 82673  7.2895e+000  3.1335e+001 -8.5218e+000 56962 82814,82425,82399
 8.0000e-001 82650 -1.1682e+001  1.3411e+001 -2.9453e+000 56962 82425,82477,82451
 8.0000e-001 82627  1.0289e+000  2.0005e+001  3.5549e-001 56962 82425,82529,82477
 8.0000e-001 82604 -4.0977e+000  2.4644e+001  6.9310e+000 56962 82477,82529,82503
 8.0000e-001 82581  4.0883e-001  2.1324e-001 -9.3175e-001 56962 82347,82399,82373
 8.0000e-001 82768 -3.2650e+000  7.1310e+000 -5.7823e-003 56962 82529,82425,82742
 8.0000e-001 82791  9.4255e+000  1.3895e+001  2.6655e+000 56962 82529,82742,82555
 8.0000e-001 82840  9.1338e+000  2.0072e+000 -2.4579e+000 56962 82347,82742,82814
 8.0000e-001 82863  8.3733e+000  1.1988e+001 -4.9307e+000 56962 82347,82814,82399
 8.0000e-001 83467 -2.3329e+001  1.7034e+001 -2.8964e+001 56300 83124,83176,83150
 8.0000e-001 83444 -1.6883e+000  1.1826e+001 -6.9574e+000 56300 83490,83176,83124
 8.0000e-001 83421  4.5745e+000  1.5200e+001 -5.5560e+000 56300 83490,83124,83280
 8.0000e-001 83398  9.7765e+000  2.4251e+001 -3.4394e+000 56300 83202,83280,83254
 8.0000e-001 83375  6.7756e+000  2.0648e+001 -5.4614e+000 56300 83046,83280,83124
 8.0000e-001 83352  7.0781e+000  2.3078e+001 -5.2483e+000 56300 83046,83124,83098
 8.0000e-001 83329  1.1604e+001  1.0898e+001 -5.6497e+000 56300 83202,83254,83228
 8.0000e-001 83306  1.2614e+001  2.9036e+001 -1.9254e+000 56300 83046,83098,83072
 8.0000e-001 83516 -7.2120e+000  1.6336e+001 -2.0861e+000 56300 83202,83176,83490
 8.0000e-001 83539 -8.1423e-001  1.9255e+001 -1.4059e+000 56300 83202,83490,83280
 8.0000e-001 83787 -3.7026e+000  1.7481e+001  3.5235e+000 55960 83588,83692,83666
 8.0000e-001 83764 -1.4754e+001  4.0589e+001  1.3944e+001 55960 83562,83692,83588
 8.0000e-001 83741  1.7911e+001  2.2271e+001  5.3856e+000 55960 83588,83666,83614
 8.0000e-001 83718  3.4596e-001  1.7876e+001  3.5978e+000 55960 83614,83666,83640
 8.0000e-001 83937  7.9789e-001 -1.6450e+000 -3.1965e+000 55499 83810,83862,83836
 8.0000e-001 83914 -1.3222e+001  1.5386e+000 -1.8119e+000 55499 83810,83888,83862
 8.0000e-001 84138  3.1787e-001  5.7464e+000 -2.1334e+000 55152 83988,84066,84040
 8.0000e-001 84115  1.2924e+001  3.7315e+001  9.1456e-001 55152 83962,84066,83988
 8.0000e-001 84092  1.5056e+001  3.0873e+001  6.4447e+000 55152 83988,84040,84014
 8.0000e-001 84471 -8.6273e+000  2.8162e+001  1.3138e+001 54648 84324,84376,84350
 8.0000e-001 84448 -1.2926e+001  6.8313e+000  1.4497e+001 54648 84272,84376,84324
 8.0000e-001 84425 -2.0770e+001 -1.4336e+001  1.4124e+001 54648 84246,84376,84272
 8.0000e-001 84402 -2.6257e+001  1.1047e+000  1.4117e+001 54648 84272,84324,84298
 8.0000e-001 84849  5.7202e+000  1.4186e+001  8.9781e-001 53922 84627,84731,84705
 8.0000e-001 84826  1.2345e+001  1.0877e+001  4.3544e+000 53922 84575,84731,84627
 8.0000e-001 84803  1.8774e+001  1.5560e+001 -7.8716e+000 53922 84575,84627,84601
 8.0000e-001 84780  6.0619e+000  1.5463e+001 -2.0007e+000 53922 84627,84705,84653
 8.0000e-001 84757  1.1321e+001  2.7030e+001  1.0528e+000 53922 84653,84705,84679
 8.0000e-001 85581 -1.4405e+001  8.6427e+000  8.3805e+000 53582 85604,85111,85319
 8.0000e-001 85558  1.5382e+000  2.7873e+000  1.1142e+001 53582 85111,85345,85319
 8.0000e-001 85535 -8.3519e+000  1.2443e+001  1.2147e+001 53582 85604,85319,85293
 8.0000e-001 85512 -3.1258e+001  2.1412e+001  2.2876e+001 53582 85241,85293,85267
 8.0000e-001 85489 -2.9061e+001  1.9077e+001  1.0132e+001 53582 85676,85241,85189
 8.0000e-001 85466 -8.4666e+000  2.5285e+001  4.4662e+000 53582 85676,85189,85137
 8.0000e-001 85443 -3.0797e+001  3.6709e+001  9.6677e+000 53582 85189,85241,85215
 8.0000e-001 85420 -1.2308e+001  3.9449e+001  8.0859e-001 53582 85137,85189,85163
 8.0000e-001 85397 -8.4262e-001  7.4149e+000  8.2673e+000 53582 85111,85371,85345
 8.0000e-001 85630 -1.4361e+001  1.3269e+001  1.3139e+001 53582 85137,85111,85604
 8.0000e-001 85653 -8.9226e+000  1.9897e+001  1.6782e+001 53582 85748,85604,85293
 8.0000e-001 85702 -3.0201e+001  1.5665e+001  2.2943e+001 53582 85293,85241,85676
 8.0000e-001 85725 -1.2818e+001  2.6008e+001  1.7126e+001 53582 85748,85293,85676
 8.0000e-001 85774 -1.4086e+001  1.1623e+001  1.4318e+001 53582 85137,85604,85748
 8.0000e-001 85797 -1.7206e+001  1.8042e+001  1.5183e+001 53582 85137,85748,85676
 8.0000e-001 86303  1.2817e+001  3.8094e+001 -1.1357e+001 53178 86326,86084,86006
 8.0000e-001 86280  1.5644e+001  4.1916e+001 -1.2590e+001 53178 86326,86006,86162
 8.0000e-001 86257  1.6261e+001  3.5342e+001 -2.2053e+001 53178 86398,86110,86084
 8.0000e-001 86234  1.6445e+001  2.8423e+001 -6.9069e+000 53178 86006,86058,86032
 8.0000e-001 86211  9.9289e+000  2.6127e+001 -7.1931e+000 53178 86006,86084,86058
 8.0000e-001 86188  3.8524e+000  3.1319e+001  4.1673e+000 53178 85980,86162,86006
 8.0000e-001 86352  1.3633e+001  3.0680e+001 -1.4798e+001 53178 86398,86084,86326
 8.0000e-001 86375  1.6571e+001  3.9356e+001 -1.2830e+001 53178 86136,86326,86162
 8.0000e-001 86424  1.7798e+001  3.9693e+001 -2.2668e+001 53178 86136,86110,86398
 8.0000e-001 86447  1.9407e+001  4.4716e+001 -1.5287e+001 53178 86136,86398,86326
 8.0000e-001 86904  1.1910e+001  5.5841e+001 -8.2102e-001 52774 86708,86760,86734
 8.0000e-001 86881  7.6917e+000  3.8943e+001 -3.0907e+000 52774 86656,86760,86708
 8.0000e-001 86858  1.2650e+001  3.9729e+001 -2.5058e+000 52774 86656,86708,86682
 8.0000e-001 86835  1.3465e+001  3.9351e+001 -1.6729e+000 52774 86630,86760,86656
 8.0000e-001 86812  1.6455e+001  3.9183e+001  1.1434e+000 52774 86630,86786,86760
 8.0000e-001 87489  6.7148e+000  6.2009e+001  1.1976e+001 52234 87512,87218,87192
 8.0000e-001 87466 -1.1254e+000  5.0217e+001  2.2244e+000 52234 87512,87192,87348
 8.0000e-001 87443 -1.4993e+001  4.5726e+001 -4.4159e+000 52234 87166,87348,87192
 8.0000e-001 87420 -6.9283e+000  4.1178e+001 -2.8102e+000 52234 87296,87348,87322
 8.0000e-001 87397  2.7897e+000  2.9666e+001  1.6593e+000 52234 87218,87296,87270
 8.0000e-001 87374  9.3417e+000  2.7178e+001  5.4855e+000 52234 87218,87270,87244
 8.0000e-001 87538 -2.1016e-001  4.4114e+001  5.3120e+000 52234 87296,87218,87512
 8.0000e-001 87561 -2.8492e+000  4.3505e+001 -4.1930e+000 52234 87296,87512,87348
 8.0000e-001 87841  1.2334e+001  4.8112e+001  4.8341e+000 51830 87665,87743,87691
 8.0000e-001 87818  1.2045e+001  4.7779e+001  4.3513e+000 51830 87665,87769,87743
 8.0000e-001 87795 -1.0920e+001  3.0192e+001 -4.9824e+000 51830 87864,87691,87743
 8.0000e-001 87890 -2.6945e+001  2.3323e+001 -5.6921e+000 51830 87717,87691,87864
 8.0000e-001 88418 -3.7904e+000  1.7787e+001  4.6819e+000 51262 88095,88173,88121
 8.0000e-001 88395 -1.6135e+000  2.6540e+001  5.3057e+000 51262 88095,88251,88173
 8.0000e-001 88372 -2.3137e+001  1.2479e+001 -5.4470e+000 51262 88173,88251,88199
 8.0000e-001 88349 -9.1274e+000  3.5983e+001  1.4649e+001 51262 88095,88277,88251
 8.0000e-001 88326  5.3506e+000  5.1317e+001  7.0835e+000 51262 88199,88251,88225
 8.0000e-001 88303  2.1043e-002  1.8839e+001  1.8578e+000 51262 88121,88173,88147
 8.0000e-001 88875 -1.5726e+001  2.2625e+001 -6.5519e+000 50750 88601,88731,88627
 8.0000e-001 88852 -1.3690e+001  4.3431e+001 -1.1780e+001 50750 88601,88757,88731
 8.0000e-001 88829  1.1257e+001  4.4122e+001  8.6710e+000 50750 88627,88731,88653
 8.0000e-001 88806  4.5487e+000  3.3906e+001  4.9387e+000 50750 88653,88731,88705
 8.0000e-001 88783 -1.9217e+001  1.8851e+001 -5.9527e+000 50750 88653,88705,88679
 8.0000e-001 89145 -5.5321e+000  3.1392e+001  9.4000e-002 50438 88946,89024,88972
 8.0000e-001 89122 -4.2468e-001  2.5905e+001 -1.6426e-002 50438 88946,89050,89024
 8.0000e-001 89099 -9.0326e+000  1.7311e+001 -3.7508e+000 50438 88920,89050,88946
 8.0000e-001 89076 -1.0753e+001  2.1765e+001 -1.5729e+001 50438 88972,89024,88998
 8.0000e-001 89525 -1.2088e+001  1.8706e+001 -8.6385e-001 49934 89548,89277,89251
 8.0000e-001 89502 -8.8233e+000  1.5803e+001 -2.7312e+000 49934 89548,89251,89381
 8.0000e-001 89479  1.3935e+000  1.2916e+001  1.2119e+000 49934 89303,89381,89329
 8.0000e-001 89456 -6.2289e+000  2.2678e+001 -9.8283e+000 49934 89251,89407,89381
 8.0000e-001 89433  1.0931e+001  1.4144e+001 -6.2363e+000 49934 89329,89381,89355
 8.0000e-001 89574  1.7673e+000  4.1053e+001  5.0601e+000 49934 89303,89277,89548
 8.0000e-001 89597 -9.7383e+000  1.8018e+001 -1.1863e+000 49934 89303,89548,89381
 8.0000e-001 90054  1.3073e+000  2.0587e+001 -4.5126e-001 49380 89832,89936,89910
 8.0000e-001 90031  3.4938e+000  1.9189e+001  2.8826e+000 49380 89780,89936,89832
 8.0000e-001 90008  1.5292e+001  3.1695e+001 -2.0113e+000 49380 89780,89832,89806
 8.0000e-001 89985  3.8629e+000  1.4237e+001 -2.9253e+000 49380 89832,89910,89858
 8.0000e-001 89962  1.8826e+001  5.7096e+001  4.1020e+000 49380 89858,89910,89884
 8.0000e-001 90560  1.3164e+001  3.5703e+001  5.8497e+000 48890 90289,90341,90315
 8.0000e-001 90537  7.0267e+000  3.3011e+001  3.6286e+000 48890 90289,90393,90341
 8.0000e-001 90514 -6.4413e+000  3.0146e+001 -8.0270e-001 48890 90263,90393,90289
 8.0000e-001 90491  6.1444e+000  3.8686e+001 -1.0281e+001 48890 90237,90393,90263
 8.0000e-001 90468  1.8595e+001  5.2009e+001 -1.2317e+000 48890 90341,90393,90367
 8.0000e-001 90445  1.5322e+001  3.6052e+001 -1.6253e+000 48890 90237,90419,90393
 8.0000e-001 91115  6.9062e+000  3.3645e+001 -6.2439e+000 48486 90795,90873,90847
 8.0000e-001 91092 -1.1050e+000  3.6407e+001 -8.4311e+000 48486 90795,90925,90873
 8.0000e-001 91069 -1.5215e+001  3.5174e+001 -3.1982e+000 48486 90769,90925,90795
 8.0000e-001 91046 -2.8198e+001  3.1985e+001 -2.4324e+000 48486 90769,90951,90925
 8.0000e-001 91023  2.9502e+000  2.9315e+001 -1.3185e+000 48486 90795,90847,90821
 8.0000e-001 91000 -1.7267e+000  2.5405e+001 -2.0057e+001 48486 90873,90925,90899
 8.0000e-001 90977 -6.8342e+000  4.2704e+001  1.4849e+000 48486 90743,90951,90769
 8.0000e-001 91265  1.8105e+001  6.3961e+001 -9.2670e+000 48082 91288,91190,91164
 8.0000e-001 91242  8.3947e+000  4.0833e+001 -1.0619e+001 48082 91360,91288,91164
 8.0000e-001 91314  1.5110e+001  5.3002e+001 -2.0350e+000 48082 91216,91190,91288
 8.0000e-001 91337  1.8906e+001  5.3408e+001 -2.5288e-001 48082 91216,91288,91138
 8.0000e-001 91386  2.1896e+001  5.4497e+001 -8.2698e-001 48082 91138,91288,91360
 8.0000e-001 92022 -1.2919e+000  1.8843e+001 -2.0930e+001 47514 92261,92045,91754
 8.0000e-001 91999  5.3388e+000  2.1836e+001 -8.6005e+000 47514 92189,92045,91702
 8.0000e-001 91976 -1.8445e+000  4.1840e+001 -9.3732e+000 47514 92117,91806,91754
 8.0000e-001 91953  5.7215e+000  1.4039e+001  3.1788e-001 47514 92189,91702,91650
 8.0000e-001 91930  5.2441e+000  2.7911e+001 -2.5279e+001 47514 92261,91754,91728
 8.0000e-001 91907 -3.1934e+001  5.0358e+001 -1.4740e+001 47514 91754,91806,91780
 8.0000e-001 91884  1.2472e+001  1.0267e+001 -2.0063e+000 47514 91650,91702,91676
 8.0000e-001 92071 -7.0346e+000  3.1818e+001 -1.8054e+001 47514 92117,91754,92045
 8.0000e-001 92094 -4.4367e+000  9.0713e+000 -9.0256e+000 47514 91832,92045,91858
 8.0000e-001 92143  7.6282e+000  4.7734e+001  4.6909e+000 47514 91832,91806,92117
 8.0000e-001 92166  3.7430e+000  2.7098e+001 -3.7541e+000 47514 91832,92117,92045
 8.0000e-001 92215 -5.7849e+000  1.5150e+001 -5.7715e+000 47514 91858,92045,92189
 8.0000e-001 92238 -4.5743e-001  1.0613e+001  1.6848e+000 47514 91858,92189,91650
 8.0000e-001 92287 -3.4341e+000  1.2058e+001 -1.4165e+001 47514 91702,92045,92261
 8.0000e-001 92310 -1.1339e+000  1.7220e+001 -1.7675e+001 47514 91702,92261,91728
 8.0000e-001 92460 -2.2835e+001  6.9242e-001 -6.2095e+000 47124 92483,92359,92333
 8.0000e-001 92437 -1.8001e+001 -4.2695e+000 -1.2159e+001 47124 92555,92483,92333
 8.0000e-001 92509 -1.8086e+001 -6.7798e+000 -1.0619e+001 47124 92685,92483,92385
 8.0000e-001 92532 -1.5332e+001  1.6535e+000 -1.0737e+001 47124 92385,92483,92411
 8.0000e-001 92581  5.0240e-001  8.9365e+000 -5.6909e+000 47124 92411,92483,92555
 8.0000e-001 92711 -2.6456e-001  1.0979e+001 -3.4929e+000 47124 92359,92483,92685
 8.0000e-001 93571 -4.1105e+000  2.5102e+001  1.9038e+000 46834 93594,93208,93104
 8.0000e-001 93548 -2.2538e+001  1.6570e+001  5.1000e+000 46834 93738,93594,93104
 8.0000e-001 93525 -1.7194e+001 -9.6709e+000 -2.0965e+001 46834 93666,93234,93208
 8.0000e-001 93502 -2.5400e+001  1.7656e+001  5.8641e+000 46834 93738,93104,93078
 8.0000e-001 93479 -7.2516e+000  3.6014e+001 -2.3958e+001 46834 93810,93260,93234
 8.0000e-001 93456  1.4073e+000  1.0764e+001  6.5616e+000 46834 93104,93182,93156
 8.0000e-001 93433 -3.2186e+000  1.0880e+001  1.1429e+000 46834 93104,93208,93182
 8.0000e-001 93410 -2.8091e+001  4.4510e+001  1.9111e+000 46834 93286,93338,93312
 8.0000e-001 93387 -3.2852e+001  1.7247e+001  4.5092e+000 46834 93052,93338,93078
 8.0000e-001 93364  3.9858e+000  1.4070e+001  7.9779e+000 46834 93104,93156,93130
 8.0000e-001 93620 -1.6117e+001  1.7095e+001 -7.8932e+000 46834 93666,93208,93594
 8.0000e-001 93643 -1.7651e+001  3.3559e+001  2.3959e-001 46834 93286,93594,93338
 8.0000e-001 93692 -5.2332e+000  2.7560e+001 -1.8682e+001 46834 93810,93234,93666
 8.0000e-001 93715 -1.9078e+001  3.2027e+001 -7.8727e+000 46834 93286,93666,93594
 8.0000e-001 93764 -2.0817e+001  1.8509e+001  4.3756e+000 46834 93338,93594,93738
 8.0000e-001 93787 -2.2207e+001  2.0655e+001  4.5977e+000 46834 93338,93738,93078
 8.0000e-001 93836 -1.7454e+001  2.7834e+001 -1.4383e+001 46834 93286,93260,93810
 8.0000e-001 93859 -1.4106e+001  2.0853e+001 -9.2399e+000 46834 93286,93810,93666
 8.0000e-001 94210  6.2426e+000  4.1717e+001  2.3694e+000 46472 94011,94115,94089
 8.0000e-001 94187  6.9896e+000  4.8353e+001  1.9292e+000 46472 93985,94115,94011
 8.0000e-001 94164 -2.3707e+001  3.3037e+001 -6.5634e-001 46472 94037,94089,94063
 8.0000e-001 94141 -2.0587e+001  2.9689e+001  4.7511e+000 46472 94011,94089,94037
 8.0000e-001 94746  2.5757e+001  3.7568e+001 -5.4705e+000 46068 94576,94628,94602
 8.0000e-001 94723  2.3505e+001  3.7201e+001 -8.5676e+000 46068 94498,94628,94576
 8.0000e-001 94700  3.3742e+001  5.9256e+001 -1.2245e+001 46068 94472,94628,94498
 8.0000e-001 94677  2.8814e+001  2.9592e+001 -5.5202e+000 46068 94524,94576,94550
 8.0000e-001 94654  3.0278e+001  3.3772e+001 -5.8163e+000 46068 94498,94576,94524
 8.0000e-001 95380  1.4479e+001  5.5293e+001 -1.2088e+001 45342 95034,95112,95086
 8.0000e-001 95357  1.8983e+001  4.4530e+001 -6.1814e+000 45342 95034,95190,95112
 8.0000e-001 95334  2.5235e+001  5.4429e+001  1.7075e+000 45342 95403,95164,95138
 8.0000e-001 95311  2.4707e+001  6.2374e+001  1.9787e+000 45342 95403,95138,95112
 8.0000e-001 95288  1.5553e+001  4.3764e+001 -6.4056e+000 45342 95034,95216,95190
 8.0000e-001 95265  3.2237e+001  6.6850e+001 -2.2351e+001 45342 95034,95086,95060
 8.0000e-001 95242  2.8431e+001  7.0088e+001 -1.8926e+001 45342 95008,95216,95034
 8.0000e-001 95429  2.5346e+001  5.0811e+001  6.6591e-001 45342 95190,95164,95403
 8.0000e-001 95452  2.2855e+001  5.5913e+001  1.0941e+000 45342 95190,95403,95112
 8.0000e-001 96007  7.3714e+000  5.0507e+001  7.3910e+000 44716 96030,95791,95765
 8.0000e-001 95984  7.0113e+000  3.1358e+001  1.0690e+001 44716 96030,95765,95713
 8.0000e-001 95961  7.6539e+000  5.1617e+001  1.0368e+001 44716 96174,96102,95661
 8.0000e-001 95938  9.4391e+000  4.7477e+001  9.7109e+000 44716 96174,95661,95635
 8.0000e-001 95915 -3.6001e+000  2.1767e+001  2.2497e+001 44716 95661,95713,95687
 8.0000e-001 95892  9.9628e+000  3.1913e+001  9.2320e+000 44716 95713,95765,95739
 8.0000e-001 95869  7.6779e+000  4.4613e+001  1.0249e+001 44716 95635,95843,95817
 8.0000e-001 96056  7.7877e+000  7.0247e+001  1.5139e+001 44716 95817,95791,96030
 8.0000e-001 96079  2.7697e+000  4.9763e+001  1.0599e+001 44716 96102,95817,96030
 8.0000e-001 96128  6.2264e+000  5.1517e+001  1.1163e+001 44716 95713,95661,96102
 8.0000e-001 96151  6.8145e+000  5.1778e+001  9.8214e+000 44716 95713,96102,96030
 8.0000e-001 96200  4.2965e+000  4.6568e+001  1.1825e+001 44716 95817,96102,96174
 8.0000e-001 96223  7.7064e+000  4.4487e+001  1.0416e+001 44716 95817,96174,95635
 8.0000e-001 96680  1.0245e+001  2.8451e+001  1.3746e-002 44198 96775,96703,96458
 8.0000e-001 96657  1.0434e+001  3.2446e+001 -9.0649e+000 44198 96703,96406,96562
 8.0000e-001 96634 -3.1937e+000  3.2780e+001 -3.5279e-001 44198 96775,96458,96432
 8.0000e-001 96611  3.5491e+001  2.9340e+001 -9.7030e+000 44198 96484,96536,96510
 8.0000e-001 96588  1.5362e+001  2.8024e+001  1.9762e+000 44198 96458,96536,96484
 8.0000e-001 96729  9.8064e+000  2.5267e+001 -7.8033e-001 44198 96536,96458,96703
 8.0000e-001 96752  7.0213e+000  2.1982e+001 -5.0463e+000 44198 96536,96703,96562
 8.0000e-001 96801 -4.4153e+000  2.4188e+001 -4.2001e+000 44198 96406,96703,96775
 8.0000e-001 96824 -1.5628e+001  3.1142e+001 -2.2283e+000 44198 96406,96775,96432
 8.0000e-001 97202 -5.1880e+000 -7.0568e-001  7.3608e+000 43750 97225,96980,96928
 8.0000e-001 97179 -4.7989e+000 -8.0916e+000  1.1963e+001 43750 97225,96928,97084
 8.0000e-001 97156 -3.9795e+000  1.4017e+001  7.9547e+000 43750 96928,96980,96954
 8.0000e-001 97133  1.9015e+000  1.0207e+001  2.9512e+000 43750 97006,97084,97058
 8.0000e-001 97110  1.6058e+001  6.8456e+000  3.6276e+000 43750 97006,97058,97032
 8.0000e-001 97251 -2.0114e+000  1.2402e+001  3.0611e+000 43750 97006,96980,97225
 8.0000e-001 97274 -6.1794e+000 -2.2123e-001  8.3488e+000 43750 97006,97225,97084
 8.0000e-001 97522 -2.0965e+000  3.9112e+001 -8.0450e+000 43360 97545,97375,97349
 8.0000e-001 97499 -5.5768e+000  2.8932e+001 -1.2561e+001 43360 97545,97349,97323
 8.0000e-001 97476 -2.4901e+000  2.5097e+001 -1.6228e+001 43360 97617,97427,97401
 8.0000e-001 97453  1.8497e+001 -5.9052e+000 -3.0777e+001 43360 97297,97427,97323
 8.0000e-001 97571 -3.4028e+000  2.3694e+001 -6.7884e+000 43360 97401,97375,97545
 8.0000e-001 97594 -1.7469e+000  2.1984e+001 -1.3876e+001 43360 97617,97401,97545
 8.0000e-001 97643 -9.0340e-001  2.8716e+001 -1.5840e+001 43360 97323,97427,97617
 8.0000e-001 97666  9.8904e-001  2.7913e+001 -1.3136e+001 43360 97323,97617,97545
 8.0000e-001 98019 -3.8620e+001  5.6408e+000 -6.1295e+000 42956 97794,97898,97820
 8.0000e-001 97996 -4.6065e+001 -8.4079e+000 -1.1756e+000 42956 97794,97924,97898
 8.0000e-001 97973 -9.3660e+001  1.7160e+000 -3.6308e-001 42956 97820,97872,97846
 8.0000e-001 97950 -8.0453e+001 -6.0026e+000 -7.8765e+000 42956 97820,97898,97872
 8.0000e-001 98446  1.1824e+001  2.5736e+001 -4.7252e+000 42559 98149,98305,98279
 8.0000e-001 98423  1.7533e+001  2.9374e+001 -3.0760e+000 42559 98123,98305,98149
 8.0000e-001 98400  4.7860e+000  2.5922e+001 -7.1066e+000 42559 98469,98175,98149
 8.0000e-001 98377  1.0050e+001  3.8171e+001 -8.2397e+000 42559 98469,98149,98279
 8.0000e-001 98354  4.4414e+000  3.8759e+001 -1.1792e+001 42559 98175,98253,98227
 8.0000e-001 98331  7.6574e+000  4.5263e+001 -1.3625e+001 42559 98175,98227,98201
 8.0000e-001 98495  6.5708e+000  3.3626e+001 -1.3197e+001 42559 98253,98175,98469
 8.0000e-001 98518  8.1938e+000  3.7983e+001 -1.4413e+001 42559 98253,98469,98279
 8.0000e-001 98847  1.1508e+001  1.5303e+001 -2.2927e+000 42247 98674,98752,98700
 8.0000e-001 98824  1.5464e+001  2.5347e+001 -3.4757e+000 42247 98648,98752,98674
 8.0000e-001 98801  1.1025e+001  1.4428e+001 -8.1263e+000 42247 98622,98752,98648
 8.0000e-001 98778  2.0249e+001  2.5776e+001 -1.3740e+001 42247 98700,98752,98726
 8.0000e-001 99117 -1.5340e+000  6.9043e+000 -3.5679e+000 41843 98892,98996,98918
 8.0000e-001 99094 -1.3591e+001  1.3882e+001 -1.0405e+001 41843 98892,99022,98996
 8.0000e-001 99071  1.3714e+001  2.7434e+001  3.0826e+000 41843 98918,98996,98970
 8.0000e-001 99048  5.4064e-001  2.4021e+001  7.9213e-001 41843 98918,98970,98944
 8.0000e-001 99625  1.0245e+001  4.6453e+001  2.5471e+001 41232 99648,99380,99354
 8.0000e-001 99602  3.9810e+000  2.8366e+001  1.1571e+001 41232 99648,99354,99328
 8.0000e-001 99579  5.6229e+000  2.9754e+001  1.8677e+001 41232 99720,99432,99380
 8.0000e-001 99556  5.5321e+000  2.8777e+001  1.7104e+001 41232 99380,99432,99406
 8.0000e-001 99533 -6.7831e-002  1.1540e+001  1.7769e+000 41232 99328,99484,99458
 8.0000e-001 99510 -8.1314e+000 -8.4915e+000 -9.7069e+000 41232 99302,99484,99328
 8.0000e-001 99674 -7.0902e-001  2.8911e+001  1.7187e+001 41232 99720,99380,99648
 8.0000e-001 99697  2.8695e+000  6.4014e+000  5.1751e+000 41232 99458,99648,99328
 8.0000e-001 99746  1.2277e+001  2.8347e+001  2.0398e+001 41232 99458,99432,99720
 8.0000e-001 99769  8.0823e+000  2.8280e+001  1.8038e+001 41232 99458,99720,99648
 8.0000e-001 100275  2.2302e+001  2.3155e+001  6.8959e+000 40728 99952,100004,99978
 8.0000e-001 100252  8.0514e+000  1.9454e+001 -1.1005e-001 40728 99952,100030,100004
 8.0000e-001 100229  1.1434e+001  2.7982e+001 -1.4497e+000 40728 99952,100134,100030
 8.0000e-001 100206  1.4125e+001  3.4292e+001 -1.1089e+001 40728 100298,100108,100082
 8.0000e-001 100183  1.2089e+001  2.0577e+001 -1.1302e+001 40728 100298,100082,100030
 8.0000e-001 100160 -1.1611e+001  3.0044e+001 -3.5810e+001 40728 100030,100082,100056
 8.0000e-001 100324  1.0377e+001  4.6722e+001 -5.6997e+000 40728 100134,100108,100298
 8.0000e-001 100347  6.1796e+000  2.9134e+001 -4.5874e+000 40728 100134,100298,100030
 8.0000e-001 100853  4.8355e+000  4.3247e+001 -7.6510e+000 40274 100876,100686,100660
 8.0000e-001 100830  4.6483e+000  2.9410e+001 -2.5438e+000 40274 100948,100876,100660
 8.0000e-001 100807 -7.2392e-001  2.7114e+001 -5.2053e+000 40274 100948,100660,100608
 8.0000e-001 100784  3.5769e+000  3.7861e+001  5.4240e-001 40274 101020,100556,100712
 8.0000e-001 100761  1.3604e+000  3.7665e+001  3.4005e-001 40274 100530,100712,100556
 8.0000e-001 100738  2.2229e+000  3.3427e+001 -2.2395e+000 40274 100608,100660,100634
 8.0000e-001 100902  3.7636e+000  6.8292e+001  3.7126e-001 40274 100712,100686,100876
 8.0000e-001 100925 -2.5040e+000  4.0271e+001 -4.7346e+000 40274 101020,100712,100876
 8.0000e-001 100974  2.3324e+000  2.9471e+001 -1.1979e+001 40274 100582,100876,100948
 8.0000e-001 100997 -9.7937e+000  2.4748e+001 -1.4281e+001 40274 100582,100948,100608
 8.0000e-001 101046  1.0909e+001  4.1018e+001  2.0011e-001 40274 100582,100556,101020
 8.0000e-001 101069  7.1144e+000  4.4721e+001 -5.8535e+000 40274 100582,101020,100876
 8.0000e-001 101496 -1.5215e+000  2.9256e+001 -1.2018e-001 39820 101519,101277,101225
 8.0000e-001 101473 -8.2437e+000  2.0801e+001 -3.1765e+000 39820 101519,101225,101199
 8.0000e-001 101450 -1.2015e+001  2.1328e+001  1.8456e+000 39820 101173,101355,101199
 8.0000e-001 101427 -2.5509e+000  2.2580e+001  6.9825e+000 39820 101277,101355,101303
 8.0000e-001 101404 -4.3700e+000  2.2798e+001 -9.3862e+000 39820 101225,101277,101251
 8.0000e-001 101381  5.8718e+000  1.6917e+001  9.9321e+000 39820 101303,101355,101329
 8.0000e-001 101545  1.5328e+000  2.4550e+001  3.5092e+000 39820 101355,101277,101519
 8.0000e-001 101568 -1.3603e+000  2.1997e+001  1.8884e+000 39820 101355,101519,101199
 8.0000e-001 101816 -5.2750e+000 -6.6617e+000  7.2577e+000 39066 101839,101695,101643
 8.0000e-001 101793 -7.4632e+000  4.0540e-001  4.3650e+000 39066 101839,101643,101591
 8.0000e-001 101770 -2.2368e+000 -9.6300e+000  3.8319e+000 39066 101643,101695,101669
 8.0000e-001 101747  3.2356e+000  1.5685e+001 -3.6112e-001 39066 101591,101643,101617
 8.0000e-001 101865 -5.0333e+000 -3.8529e+000  3.3726e+000 39066 101721,101695,101839
 8.0000e-001 101888 -4.7565e+000  5.8148e+000  1.7603e-001 39066 101721,101839,101591
 8.0000e-001 102087 -2.7429e+000  3.9237e+001 -1.1588e+000 38726 101937,101989,101963
 8.0000e-001 102064 -1.3846e+001  2.7067e+001  3.8539e+000 38726 101937,102015,101989
 8.0000e-001 102041  9.9472e+000  3.6807e+001  5.4416e+000 38726 101911,102015,101937
 8.0000e-001 102337  1.5216e+000  2.7115e+001 -7.8758e+000 38322 102112,102190,102138
 8.0000e-001 102314 -4.6543e+000  2.2904e+001 -1.0955e+000 38322 102112,102216,102190
 8.0000e-001 102291  3.2185e+000  1.9599e+001  1.4107e+000 38322 102112,102242,102216
 8.0000e-001 102268 -1.9593e+001  2.5000e+001 -9.0538e+000 38322 102138,102190,102164
 8.0000e-001 102489  1.2069e+001  5.4510e+001  1.5982e+000 38032 102512,102388,102362
 8.0000e-001 102466  7.9735e+000  7.0343e+001 -6.5917e+000 38032 102512,102362,102440
 8.0000e-001 102538  1.4623e+001  4.1077e+001 -4.8568e-001 38032 102414,102388,102512
 8.0000e-001 102561  5.9527e+000  5.0085e+001 -1.1361e+001 38032 102414,102512,102440
 8.0000e-001 102894  2.7102e+001  4.3791e+001  2.6505e+000 37592 102669,102773,102695
 8.0000e-001 102871  1.9498e+001  4.2048e+001  5.6644e+000 37592 102669,102799,102773
 8.0000e-001 102848  2.8881e+001  6.0778e+001  4.1046e+000 37592 102721,102773,102747
 8.0000e-001 102825  2.4762e+001  4.2489e+001  1.7266e+000 37592 102695,102773,102721
 8.0000e-001 103093 -1.5044e+000  3.0535e+001 -3.5563e+000 37188 102917,102995,102943
 8.0000e-001 103070 -3.6589e+000  3.0177e+001 -5.4005e-001 37188 102917,103021,102995
 8.0000e-001 103047 -8.2586e+000  2.3033e+001 -2.2976e-001 37188 102943,102995,102969
 8.0000e-001 103341  1.0049e+001  1.0629e+001  1.2838e+000 36605 103142,103194,103168
 8.0000e-001 103318  1.3146e+001  2.2648e+001 -7.5642e+000 36605 103142,103220,103194
 8.0000e-001 103295  1.8290e+000  2.2800e+001 -6.8197e+000 36605 103116,103220,103142
 8.0000e-001 103272 -1.1449e+001  2.6087e+001 -1.0147e+001 36605 103116,103246,103220
 8.0000e-001 103949  7.2954e+000  1.5285e+001  9.4901e+000 36127 103554,103606,103580
 8.0000e-001 103926 -1.0351e+001  1.6482e+001  1.0514e+001 36127 103528,103606,103554
 8.0000e-001 103903 -1.1929e+001  4.3629e+000  1.2084e+000 36127 103528,103736,103606
 8.0000e-001 103880 -2.6293e+000  3.0767e+000  3.7753e+000 36127 103972,103710,103632
 8.0000e-001 103857  6.3047e-001  1.0429e+001  9.4517e+000 36127 103972,103632,103606
 8.0000e-001 103834 -8.2087e+000  1.3261e+000  1.6097e+000 36127 103632,103710,103658
 8.0000e-001 103811 -3.1926e+001  1.3757e+001 -1.2820e+001 36127 103528,103762,103736
 8.0000e-001 103788 -6.9903e+000  1.6408e+000 -1.5473e+000 36127 103658,103710,103684
 8.0000e-001 103998 -7.2378e+000 -3.7686e+000 -1.5443e+000 36127 103736,103710,103972
 8.0000e-001 104021 -3.3240e+000  3.2605e+000  4.2986e+000 36127 103736,103972,103606
 8.0000e-001 104220 -2.6360e+001  1.7375e+001  8.4395e+000 35787 104070,104148,104122
 8.0000e-001 104197 -2.7927e+001  4.8586e+001  1.4858e+001 35787 104044,104148,104070
 8.0000e-001 104174  1.1322e+000  2.2669e+001  9.1160e+000 35787 104070,104122,104096
 8.0000e-001 104419  2.1224e+001  4.2160e+001 -5.1126e+000 35440 104269,104321,104295
 8.0000e-001 104396  1.1874e+001  4.0562e+001 -1.7317e+000 35440 104269,104347,104321
 8.0000e-001 104373  9.9964e+000  4.0164e+001 -2.2952e+000 35440 104243,104347,104269
 8.0000e-001 104718 -1.0903e+000  2.9304e+001 -2.6216e+000 34986 104496,104548,104522
 8.0000e-001 104695 -1.5762e+000  3.3421e+001 -8.3622e+000 34986 104741,104548,104496
 8.0000e-001 104672  6.4533e+000  2.9737e+001 -8.8633e+000 34986 104741,104496,104444
 8.0000e-001 104649 -5.2686e+000  3.1270e+001 -3.0995e+000 34986 104813,104574,104548
 8.0000e-001 104626  8.9788e+000  3.7569e+001 -1.7109e+000 34986 104444,104496,104470
 8.0000e-001 104767 -5.5859e+000  3.1082e+001 -6.2146e+000 34986 104813,104548,104741
 8.0000e-001 104790  1.7586e+000  2.6355e+001 -7.1865e+000 34986 104600,104741,104444
 8.0000e-001 104839  2.4891e+000  3.4267e+001 -1.6117e+000 34986 104600,104574,104813
 8.0000e-001 104862 -4.5492e-001  3.3281e+001 -6.3513e+000 34986 104600,104813,104741
 8.0000e-001 105014 -6.3055e+000  3.0372e+001 -9.0506e+000 34696 105169,105037,104913
 8.0000e-001 104991 -5.7570e+000  2.8557e+001 -7.5349e+000 34696 105169,104913,104887
 8.0000e-001 105063  1.0562e+001  4.3483e+001 -3.2098e+000 34696 104939,104913,105037
 8.0000e-001 105195 -8.2785e+000  3.0091e+001 -7.7042e+000 34696 104965,105037,105169
 8.0000e-001 105218 -7.6996e+000  2.8595e+001 -6.2032e+000 34696 104965,105169,104887
 8.0000e-001 105368 -5.0590e+000  3.3912e+001 -3.7600e+000 34384 105267,105319,105293
 8.0000e-001 105345 -6.2342e-001  4.3541e+001 -1.0853e+000 34384 105241,105319,105267
 8.0000e-001 105616 -8.1897e+000  2.5087e+001 -2.0545e+000 33730 105639,105417,105391
 8.0000e-001 105593 -7.9697e+000  2.4075e+001 -2.4400e+000 33730 105639,105391,105495
 8.0000e-001 105570 -3.2606e+000  2.9456e+001 -4.6618e+000 33730 105391,105521,105495
 8.0000e-001 105547 -9.5249e+000  2.1448e+001  6.6381e+000 33730 105417,105469,105443
 8.0000e-001 105665 -8.0245e+000  2.6072e+001 -1.3631e+000 33730 105469,105417,105639
 8.0000e-001 105688 -7.8181e+000  2.4247e+001 -1.4130e+000 33730 105469,105639,105495
 8.0000e-001 105840  1.1933e+001  4.2890e+001 -2.2822e+000 33390 105713,105765,105739
 8.0000e-001 105817  1.0097e+001  4.3653e+001 -3.2927e+000 33390 105713,105791,105765
 8.0000e-001 106090 -1.7069e-001  2.2742e+001 -1.2256e+001 33043 106113,105943,105891
 8.0000e-001 106067 -5.5031e+000  2.7504e+001 -2.6840e+000 33043 106113,105891,105865
 8.0000e-001 106044  7.6807e+000  1.8132e+001 -4.2203e+000 33043 105891,105943,105917
 8.0000e-001 106021 -5.7285e-001  3.7141e+001 -5.8506e+000 33043 105865,105995,105969
 8.0000e-001 106139  1.1246e+001  3.9441e+001 -1.7418e+001 33043 105969,105943,106113
 8.0000e-001 106162 -1.3380e+000  3.3599e+001 -4.5704e+000 33043 105969,106113,105865
 8.0000e-001 106412  1.6725e+001  4.5606e+000 -6.1403e+000 32539 106435,106291,106239
 8.0000e-001 106389  2.1925e+001  9.1988e-001 -6.7394e+000 32539 106187,106317,106291
 8.0000e-001 106366  1.7418e+001  1.2433e+001  1.3762e+000 32539 106435,106239,106213
 8.0000e-001 106343  2.2625e+001  4.8955e+000 -4.5570e+000 32539 106239,106291,106265
 8.0000e-001 106461  1.3456e+001  1.2199e+000 -8.9537e+000 32539 106187,106291,106435
 8.0000e-001 106484  9.7340e+000  6.8212e+000 -2.1638e+000 32539 106187,106435,106213
 8.0000e-001 106685  8.6599e-001  2.2319e+001 -4.0263e+000 31835 106535,106587,106561
 8.0000e-001 106662 -9.7669e+000  1.9759e+001 -9.2676e-001 31835 106509,106587,106535
 8.0000e-001 106639  5.7009e+000  3.5387e+001 -7.1826e+000 31835 106509,106613,106587
 8.0000e-001 106935 -2.8409e+000  1.7077e+001 -1.6725e+000 31530 106736,106814,106788
 8.0000e-001 106912 -2.2736e+000  1.8299e+001 -4.7877e-001 31530 106710,106814,106736
 8.0000e-001 106889 -1.5429e+001  9.9384e+000  1.7670e+000 31530 106736,106788,106762
 8.0000e-001 106866  5.6025e+000  2.2113e+001 -1.7060e+000 31530 106710,106840,106814
 8.0000e-001 107339 -1.5410e+001  4.9879e+000 -1.4134e+000 31026 107117,107221,107195
 8.0000e-001 107316 -8.3408e+000 -2.0214e+000  2.5605e+000 31026 107091,107221,107117
 8.0000e-001 107293 -2.6040e+000 -1.8705e+000 -5.0085e-001 31026 107065,107221,107091
 8.0000e-001 107270 -1.6751e+001  1.0597e+001  1.2738e+000 31026 107143,107195,107169
 8.0000e-001 107247 -2.2960e+001  1.5429e+000 -2.2850e+000 31026 107117,107195,107143
 8.0000e-001 107538  3.4741e+000  3.5578e+001 -1.3222e+000 30714 107561,107388,107362
 8.0000e-001 107515  4.7755e+000  3.9324e+001 -2.1233e+000 30714 107561,107362,107466
 8.0000e-001 107492  4.9587e+000  3.1845e+001 -6.2052e+000 30714 107414,107466,107440
 8.0000e-001 107587  5.5678e+000  3.0315e+001 -1.3140e+000 30714 107414,107388,107561
 8.0000e-001 107610  7.4946e+000  3.4932e+001 -2.2390e+000 30714 107414,107561,107466
 8.0000e-001 107990  6.5755e+000  2.4005e+001  2.3794e+000 30260 108013,107846,107768
 8.0000e-001 107967  9.4554e+000  3.0886e+001 -2.8711e-001 30260 108013,107768,107716
 8.0000e-001 107944  3.3319e+000  3.2502e+001  4.7413e-001 30260 107716,107768,107742
 8.0000e-001 107921  1.5566e+001  2.9386e+001  4.7874e+000 30260 107768,107846,107820
 8.0000e-001 107898  1.2940e+001  2.2819e+001  1.2778e+000 30260 107768,107820,107794
 8.0000e-001 108039  8.0988e+000  2.6617e+001 -2.5375e+000 30260 107872,107846,108013
 8.0000e-001 108062  9.9633e+000  3.3671e+001 -4.8147e+000 30260 107872,108013,107716
 8.0000e-001 108261  1.4310e+001  6.4258e+000  3.6090e+000 29870 108284,108085,108163
 8.0000e-001 108238  1.0572e+001  1.1705e+001 -1.4134e-001 29870 108085,108189,108163
 8.0000e-001 108215  3.5163e+001  1.1916e+001  2.7532e+000 29870 108284,108163,108137
 8.0000e-001 108310  5.3441e+000  1.2572e+001  9.7695e+000 29870 108111,108085,108284
 8.0000e-001 108333  1.6246e+001  1.1310e+001  8.3694e+000 29870 108111,108284,108137
 8.0000e-001 108664  1.2754e+001  1.9426e+001 -9.9750e+000 29480 108465,108569,108543
 8.0000e-001 108641  6.9502e-001  2.3881e+001  5.8301e+000 29480 108439,108569,108465
 8.0000e-001 108618 -1.9175e-001  1.1369e+001 -6.5289e+000 29480 108465,108543,108491
 8.0000e-001 108595  1.0780e+001  1.5455e+001 -3.7164e+000 29480 108491,108543,108517
 8.0000e-001 108993 -6.9764e+000 -2.0950e-001 -2.9682e+000 29076 108794,108872,108820
 8.0000e-001 108970 -9.2652e+000 -9.2971e+000 -1.6644e+000 29076 108768,108872,108794
 8.0000e-001 108947 -1.5903e+001 -3.6881e+000  2.6220e+000 29076 108820,108872,108846
 8.0000e-001 108924 -1.4025e+000 -5.3574e+000  6.4390e-001 29076 108768,108898,108872
 8.0000e-001 109420 -7.4050e+000  5.4530e+000 -3.2825e+000 28472 109123,109227,109201
 8.0000e-001 109397 -1.9023e+001  6.6096e+000 -3.0708e+000 28472 109123,109253,109227
 8.0000e-001 109374 -8.9286e+000  3.6355e+000 -2.5910e+000 28472 109123,109201,109175
 8.0000e-001 109351 -2.3759e+001  1.1618e+001  8.2184e-001 28472 109123,109279,109253
 8.0000e-001 109328 -3.8981e+000  5.9379e+000  3.5781e+000 28472 109123,109175,109149
 8.0000e-001 109305 -2.9755e+001  2.8644e+001 -5.4394e+000 28472 109097,109279,109123
 8.0000e-001 109749  1.2397e-001  1.3891e+001 -2.7110e+000 28018 109772,109602,109576
 8.0000e-001 109726 -4.7672e-001  8.8260e+000 -1.5280e+000 28018 109772,109576,109550
 8.0000e-001 109703  5.8341e+000  6.0862e+000  1.3556e+000 28018 109524,109628,109550
 8.0000e-001 109680 -4.5723e+000  2.9820e+000  2.8429e-001 28018 109524,109654,109628
 8.0000e-001 109798  1.1593e+000  1.2841e+001  3.1183e+000 28018 109628,109602,109772
 8.0000e-001 109821  5.0428e-001  4.4127e+000  2.3308e+000 28018 109628,109772,109550
 8.0000e-001 110199 -2.4638e+000  1.4639e+001 -9.0944e+000 27564 110029,110081,110055
 8.0000e-001 110176  6.2837e+000  2.7001e+001 -4.5980e+000 27564 109925,110081,110029
 8.0000e-001 110153  1.0637e+001  1.5054e+001 -1.8186e+000 27564 109925,110029,109977
 8.0000e-001 110130  1.5021e+001  1.7157e+001 -2.6487e-001 27564 109977,110029,110003
 8.0000e-001 110107  1.4561e+001  1.8373e+001  3.1293e+000 27564 109925,109977,109951
 8.0000e-001 110398 -1.7302e+000  1.5720e+001 -3.5263e+000 27003 110248,110326,110300
 8.0000e-001 110375 -3.8558e-001  1.7419e+001 -2.8610e+000 27003 110222,110326,110248
 8.0000e-001 110352 -2.0171e+001  4.5437e+000 -9.1970e+000 27003 110248,110300,110274
 8.0000e-001 110646  1.6854e+001  1.9581e+000  1.9890e+000 26563 110669,110473,110421
 8.0000e-001 110623  1.4791e+001 -1.0624e+001  6.7980e+000 26563 110669,110421,110551
 8.0000e-001 110600  1.4017e+001  7.9721e+000  2.2912e+000 26563 110473,110525,110499
 8.0000e-001 110577  9.7011e+000 -7.5574e+000  1.6127e+001 26563 110421,110473,110447
 8.0000e-001 110695  1.5921e+001  5.3890e+000  7.1452e-001 26563 110525,110473,110669
 8.0000e-001 110718  1.9000e+001  1.1516e+000  5.8116e+000 26563 110525,110669,110551
 8.0000e-001 110870  2.1517e+000  2.6678e+001 -6.6973e+000 26166 110769,110821,110795
 8.0000e-001 110847  4.9499e+000  1.8066e+001 -4.1822e+000 26166 110743,110821,110769
 8.0000e-001 111380 -2.7493e+000  1.7860e+001  4.7371e+000 25712 111403,111109,111083
 8.0000e-001 111357  2.0750e+000  2.1031e+001  3.3620e+000 25712 111403,111083,111239
 8.0000e-001 111334 -1.1614e+001  1.9513e+001  1.5556e+001 25712 111109,111161,111135
 8.0000e-001 111311 -3.7608e+000  1.7055e+001  8.4314e-001 25712 111057,111239,111083
 8.0000e-001 111288  5.9380e+000  1.2408e+001  4.3788e+000 25712 111161,111239,111187
 8.0000e-001 111265  1.1748e+001  1.5208e+001  3.4769e+000 25712 111187,111239,111213
 8.0000e-001 111429  1.9672e+000  1.3457e+001  6.3870e+000 25712 111161,111109,111403
 8.0000e-001 111452  7.7798e+000  1.7101e+001  4.8370e+000 25712 111161,111403,111239
 8.0000e-001 111651  4.5931e+000  2.3448e+001  9.8307e-001 25300 111674,111501,111475
 8.0000e-001 111628  4.5794e+000  2.0431e+001  1.2950e+000 25300 111674,111475,111579
 8.0000e-001 111605  3.8284e+000  2.4518e+001 -1.5433e+000 25300 111501,111553,111527
 8.0000e-001 111700  4.1148e+000  2.5948e+001  8.8824e-001 25300 111553,111501,111674
 8.0000e-001 111723  4.4297e+000  2.3436e+001  1.4299e+000 25300 111553,111674,111579
 8.0000e-001 111922 -1.1986e+001  3.6685e+000 -4.4174e+000 24732 111798,111850,111824
 8.0000e-001 111899 -1.1209e+001  2.9694e+000 -3.1348e+000 24732 111772,111850,111798
 8.0000e-001 111876 -9.4336e+000  3.6297e+000 -2.9293e+000 24732 111746,111850,111772
 8.0000e-001 112255  1.6302e+001  4.3395e+001 -7.9004e+000 24142 112056,112108,112082
 8.0000e-001 112232  1.9461e+001  4.0619e+001 -4.0352e+000 24142 112056,112134,112108
 8.0000e-001 112209  1.0286e+001  2.6332e+001 -5.2907e-002 24142 112056,112160,112134
 8.0000e-001 112186  1.8812e+001  2.3537e+001 -3.3090e+000 24142 112030,112160,112056
 8.0000e-001 112601 -1.0077e+001  1.5049e+001  2.1050e+001 23852 112624,112382,112356
 8.0000e-001 112578 -2.5727e+001  1.8308e+001  5.9264e+000 23852 112696,112624,112356
 8.0000e-001 112555 -1.8394e+001  1.4006e+001 -7.9983e+000 23852 112696,112356,112304
 8.0000e-001 112532 -2.3366e+001  7.9545e+000 -5.8445e+000 23852 112304,112356,112330
 8.0000e-001 112509  2.7721e+000  3.0965e+001 -2.8098e+000 23852 112278,112460,112304
 8.0000e-001 112486  6.1870e+001  2.4734e+001  6.4590e+000 23852 112382,112434,112408
 8.0000e-001 112650  4.7081e+001  3.0810e+001  2.6412e+001 23852 112434,112382,112624
 8.0000e-001 112673 -3.4791e+000  1.2025e+001  1.4976e+001 23852 112434,112624,112460
 8.0000e-001 112722 -1.2038e+000  3.0449e+001  1.1615e+001 23852 112460,112624,112696
 8.0000e-001 112745  1.5022e+000  2.1587e+001 -3.5510e+000 23852 112460,112696,112304
 8.0000e-001 113015 -1.4619e+001  2.4322e+001 -5.5176e+000 23490 112842,112894,112868
 8.0000e-001 112992 -9.0200e+000  1.2746e+001 -4.3944e+000 23490 112816,112894,112842
 8.0000e-001 112969 -1.0108e+001  1.2390e+001 -3.7681e-001 23490 112790,112894,112816
 8.0000e-001 112946 -1.0109e+001  1.5738e+001  1.3727e+000 23490 112790,112920,112894
 8.0000e-001 113348  1.4566e+000  1.9774e+001 -7.4898e+000 22970 113175,113253,113227
 8.0000e-001 113325  7.9431e+000  1.4568e+001 -5.5612e+000 22970 113149,113253,113175
 8.0000e-001 113302  7.6567e-001  8.8122e+000 -1.6705e+001 22970 113175,113227,113201
 8.0000e-001 113279  1.0738e+001  1.9438e+001 -4.0063e+000 22970 113123,113253,113149
 8.0000e-001 113645 -6.0294e+000  8.8022e+000 -2.2868e+000 22366 113423,113527,113449
 8.0000e-001 113622 -7.8386e+000  1.0295e+000 -4.1849e+000 22366 113371,113527,113423
 8.0000e-001 113599 -5.9588e+000  9.8110e+000  1.3287e+000 22366 113449,113527,113501
 8.0000e-001 113576 -2.3070e+000  8.7054e+000  5.4286e+000 22366 113449,113501,113475
 8.0000e-001 113553  2.3331e+000  2.0525e+001 -9.4168e+000 22366 113371,113423,113397
 8.0000e-001 113893 -5.3996e+000  6.1485e+000 -7.6179e+000 21912 113916,113746,113720
 8.0000e-001 113870 -6.5227e+000  1.2929e+001 -6.9707e+000 21912 113916,113720,113668
 8.0000e-001 113847 -2.1651e+001  1.4290e+001 -1.5219e+001 21912 113988,113798,113772
 8.0000e-001 113824 -4.8904e+000  1.8133e+001 -1.0947e+001 21912 113668,113720,113694
 8.0000e-001 113942 -4.6813e+000  1.0861e+001 -9.8381e+000 21912 113772,113746,113916
 8.0000e-001 113965 -1.1665e+001  7.6744e+000 -1.0758e+001 21912 113988,113772,113916
 8.0000e-001 114014 -1.1621e+001  2.5480e+001 -1.0404e+001 21912 113668,113798,113988
 8.0000e-001 114037 -4.4137e+000  1.8752e+001 -7.5965e+000 21912 113668,113988,113916
 8.0000e-001 114287  7.2545e+000  1.4300e+001 -1.4111e+000 21408 114088,114140,114114
 8.0000e-001 114264  8.7569e+000  1.6587e+001 -2.1184e+000 21408 114310,114140,114088
 8.0000e-001 114241  3.6363e+000  1.6623e+001 -5.1554e+000 21408 114310,114088,114192
 8.0000e-001 114218  5.8770e+000  1.8727e+001 -4.2374e+000 21408 114062,114192,114088
 8.0000e-001 114336  4.8351e+000  1.2856e+001 -3.9734e+000 21408 114166,114140,114310
 8.0000e-001 114359  1.6796e+000  1.5474e+001 -6.3911e+000 21408 114166,114310,114192
 8.0000e-001 114609  1.4129e+001  1.6557e+001  4.2990e+000 21018 114632,114488,114436
 8.0000e-001 114586  1.3536e+001  1.5032e+001  4.3053e+000 21018 114632,114436,114410
 8.0000e-001 114563  2.2389e+001  1.0830e+001  3.0598e+000 21018 114384,114514,114410
 8.0000e-001 114540 -1.3153e+000  1.3582e+001  2.8226e+000 21018 114436,114488,114462
 8.0000e-001 114658  1.4434e+001  1.6009e+001  5.6138e+000 21018 114514,114488,114632
 8.0000e-001 114681  1.3931e+001  1.4616e+001  5.5835e+000 21018 114514,114632,114410
 8.0000e-001 114882  3.8790e+001  3.1901e+001  7.1406e+000 20614 114732,114784,114758
 8.0000e-001 114859  2.4788e+001  2.9892e+001  1.8590e+000 20614 114732,114810,114784
 8.0000e-001 114836  2.1485e+001  2.5483e+001  1.7122e-001 20614 114706,114810,114732
 8.0000e-001 115132  2.2960e+000  2.0764e+001 -2.5885e+000 20110 114907,115011,114933
 8.0000e-001 115109  9.7873e+000  2.6093e+001 -5.8379e+000 20110 114907,115037,115011
 8.0000e-001 115086  3.1497e+000  2.1352e+001 -2.3290e+000 20110 114933,115011,114985
 8.0000e-001 115063  4.4862e+000  2.5979e+001 -6.3420e+000 20110 114933,114985,114959
 8.0000e-001 115284 -2.6568e+000  2.0046e+001 -7.1271e-001 19456 115378,115307,115157
 8.0000e-001 115261 -5.3803e+000  2.3346e+001 -1.5858e+000 19456 115378,115157,115235
 8.0000e-001 115333 -2.1434e+000  2.0893e+001 -9.3552e-001 19456 115183,115157,115307
 8.0000e-001 115404 -4.9615e+000  1.5264e+001 -1.6950e+000 19456 115209,115307,115378
 8.0000e-001 115427 -7.5244e+000  1.9082e+001 -2.7527e+000 19456 115209,115378,115235
 8.0000e-001 115677 -1.8218e+000  2.1847e+001 -2.7207e-001 19002 115504,115582,115530
 8.0000e-001 115654  1.2751e+000  2.3369e+001  3.8103e-001 19002 115478,115582,115504
 8.0000e-001 115631 -2.2249e+000  2.2547e+001  5.3746e+000 19002 115452,115582,115478
 8.0000e-001 115608  9.6749e+000  2.3214e+001 -1.0518e+001 19002 115530,115582,115556
 8.0000e-001 115998 -1.7056e+000  1.3942e+001 -2.7831e+000 18712 115802,115880,115854
 8.0000e-001 115975  2.6015e+000  2.1056e+001 -8.4763e-001 18712 115724,115880,115802
 8.0000e-001 115952  1.9062e+000  1.5249e+001 -9.0931e-001 18712 115724,115802,115776
 8.0000e-001 115929  3.9255e+000  1.6329e+001  2.8714e+000 18712 115724,115776,115750
 8.0000e-001 115906  2.8008e+000  1.5969e+001 -2.3622e+000 18712 115802,115854,115828
 8.0000e-001 116270 -2.6775e+001 -8.2285e+000 -1.6086e+000 18308 116045,116123,116071
 8.0000e-001 116247 -2.8542e+001 -1.5200e+001  3.8671e+000 18308 116045,116175,116123
 8.0000e-001 116224 -4.0957e+001 -2.1039e+000  2.3258e+000 18308 116123,116175,116149
 8.0000e-001 116201 -7.1629e+000 -1.9555e+000 -3.2386e-001 18308 116071,116123,116097
 8.0000e-001 116422  3.0393e-001  2.2204e+001 -1.5359e-001 17996 116321,116373,116347
 8.0000e-001 116399  1.8152e+000  2.3801e+001  6.2580e-001 17996 116295,116373,116321
 8.0000e-001 116574  1.2100e+001  3.7825e+000  5.3009e+000 17392 116473,116525,116499
 8.0000e-001 116551  3.1783e+001  1.9965e+001  1.2406e+001 17392 116447,116525,116473
 8.0000e-001 116797 -7.4222e-001 -1.8119e+000  6.9698e-001 16938 116621,116699,116673
 8.0000e-001 116774 -4.3683e+000 -1.6588e+000  1.1028e+000 16938 116621,116725,116699
 8.0000e-001 116751 -1.4902e+000 -3.5565e+000  2.4628e-001 16938 116621,116673,116647
 8.0000e-001 116998  3.0872e+001  2.4465e+000  5.0740e+000 16434 117021,116874,116848
 8.0000e-001 116975 -1.2024e+001 -5.3495e+000 -5.0342e+000 16434 117021,116848,116822
 8.0000e-001 116952  4.7322e+001  2.4309e+001  1.8407e+001 16434 116874,116926,116900
 8.0000e-001 117047  4.6704e+001 -3.0001e+000  7.6282e+000 16434 116926,116874,117021
 8.0000e-001 117070  3.2664e+001  8.9222e+000 -2.7861e+000 16434 116926,117021,116822
 8.0000e-001 117293  1.5116e+001  8.1443e+000  1.9395e+000 16070 117117,117169,117143
 8.0000e-001 117270  9.6305e-002  3.9548e+000 -2.6405e-002 16070 117117,117221,117169
 8.0000e-001 117247 -2.2671e+000  3.1245e+000 -1.1498e+000 16070 117169,117221,117195
 8.0000e-001 117445 -1.5388e+001 -6.5732e+000 -1.1055e+000 15645 117318,117370,117344
 8.0000e-001 117422 -2.1669e+001 -9.7045e+000  2.4088e-001 15645 117318,117396,117370
 8.0000e-001 117548  1.3502e+001  1.8169e+001  6.6562e+000 417 117470,117522,117496
 9.0000e-001 70760  7.3224e+000 -1.8986e+000 -1.5978e+000 70380 70633,70685,70659
 9.0000e-001 70737 -4.3830e+000  2.3802e+000 -4.7708e+000 70380 70633,70711,70685
 9.0000e-001 70861  1.5776e-001 -7.4169e-001 -1.4933e-001 70068 70783,70835,70809
 9.0000e-001 71180 -1.2869e-002  7.4714e+000 -5.2878e-001 69870 70932,70984,70958
 9.0000e-001 71157 -1.2204e+000  6.9632e+000 -4.6586e-001 69870 70932,71010,70984
 9.0000e-001 71134 -2.8934e+000  3.8766e+000 -1.2046e+000 69870 70932,71036,71010
 9.0000e-001 71111 -2.2256e+000  3.3819e+000  3.7405e+000 69870 70932,71062,71036
 9.0000e-001 71088 -2.4265e-001  5.4007e+000  3.0872e-001 69870 70906,71062,70932
 9.0000e-001 71428  2.3917e+000  2.0509e+001  7.7559e+000 69694 71451,71281,71255
 9.0000e-001 71405  7.0536e+000  1.7055e+001  8.5868e+000 69694 71523,71451,71255
 9.0000e-001 71382  1.0226e+001  2.2035e+001  1.2050e+001 69694 71523,71255,71229
 9.0000e-001 71359  2.5531e+000  1.2139e+001  5.8744e+000 69694 71595,71333,71307
 9.0000e-001 71477  8.9983e-001  1.7350e+001  8.1802e+000 69694 71307,71281,71451
 9.0000e-001 71500  1.7726e+000  1.4995e+001  3.6945e+000 69694 71595,71307,71451
 9.0000e-001 71549  1.8484e+000  1.7877e+001  4.1630e+000 69694 71203,71451,71523
 9.0000e-001 71572  2.0210e+000  1.8271e+001  7.0207e+000 69694 71203,71523,71229
 9.0000e-001 71621  2.5553e+000  7.7594e+000  4.6554e+000 69694 71203,71333,71595
 9.0000e-001 71644  9.7559e-001  1.0073e+001  3.6732e+000 69694 71203,71595,71451
 9.0000e-001 71745  1.8026e-001 -8.6742e-001  3.8478e-002 69382 71667,71719,71693
 9.0000e-001 72100 -2.9966e+000  3.4976e+000 -8.1315e-004 69184 71875,71979,71901
 9.0000e-001 72077  3.4943e-001  2.2102e+000  1.8149e+000 69184 71875,72005,71979
 9.0000e-001 72054 -1.1689e+000 -7.5331e-001 -2.4994e+000 69184 71901,71979,71953
 9.0000e-001 72031  6.3694e-001  1.9806e+000 -1.7190e+000 69184 71901,71953,71927
 9.0000e-001 72250  9.4173e-002  1.5202e+000  6.2722e-001 68986 72149,72201,72175
 9.0000e-001 72227 -1.4946e+000  2.5909e+000  1.7193e-001 68986 72123,72201,72149
 9.0000e-001 72547 -7.2886e-001  3.2891e+000  2.9136e+000 68582 72570,72403,72377
 9.0000e-001 72524 -2.9764e-001  3.2143e+000  2.5732e+000 68582 72570,72377,72351
 9.0000e-001 72501 -4.2474e-001  5.6465e+000  1.3142e+000 68582 72642,72299,72429
 9.0000e-001 72478  8.5717e-001  3.3084e+000  8.1018e-002 68582 72273,72429,72299
 9.0000e-001 72455  4.1387e-001  1.3588e+001  6.7481e+000 68582 72299,72351,72325
 9.0000e-001 72596 -1.9588e-001  3.1531e+000  2.2035e+000 68582 72429,72403,72570
 9.0000e-001 72619  4.5748e-001  4.6450e+000  1.6911e+000 68582 72642,72429,72570
 9.0000e-001 72668 -1.2215e+000  4.7122e+000  2.3040e+000 68582 72351,72299,72642
 9.0000e-001 72691 -5.1806e-001  3.2509e+000  2.6207e+000 68582 72351,72642,72570
 9.0000e-001 73095 -9.0814e+000  4.8842e+000 -1.3091e-001 68384 72873,72925,72899
 9.0000e-001 73072 -1.0160e+001  2.3675e+001  7.3300e+000 68384 72847,72925,72873
 9.0000e-001 73049 -4.7813e+000  7.5780e+000  1.8317e+001 68384 72847,72951,72925
 9.0000e-001 73026  1.2453e+001  4.3101e+000  8.7763e+000 68384 72821,72951,72847
 9.0000e-001 73003  2.0061e+000  1.3908e+001 -4.3525e+000 68384 72821,72977,72951
 9.0000e-001 73552  1.2454e+000  1.4868e+001  2.9764e+000 68044 73304,73434,73408
 9.0000e-001 73529  2.0636e+000  1.0872e+001 -2.2596e+000 68044 73278,73434,73304
 9.0000e-001 73506  1.6591e+001  1.6400e+000  5.0141e+000 68044 73356,73408,73382
 9.0000e-001 73483  1.9877e+001 -9.3394e-001 -1.7639e-001 68044 73304,73408,73356
 9.0000e-001 73460  8.8781e+000  2.9591e+000 -5.4423e+000 68044 73304,73356,73330
 9.0000e-001 73871 -3.8152e+000  1.3589e+001 -5.9894e+000 67846 73675,73727,73701
 9.0000e-001 73848  2.1026e+000  1.2755e+001 -6.6863e+000 67846 73649,73727,73675
 9.0000e-001 73825 -3.0634e+000 -4.2460e-001 -8.2577e+000 67846 73623,73727,73649
 9.0000e-001 73802  5.7625e+000  3.2386e+000 -4.9765e+000 67846 73623,73753,73727
 9.0000e-001 73779  1.3800e+000 -1.1908e-001  2.6273e-001 67846 73597,73753,73623
 9.0000e-001 74021  3.8531e-001 -2.4250e+000  3.7666e-001 67598 73920,73972,73946
 9.0000e-001 73998  1.3728e+000  2.4468e-001  2.4371e-001 67598 73894,73972,73920
 9.0000e-001 74271 -3.0628e-002 -3.2770e-001  9.3844e-001 67286 74072,74176,74150
 9.0000e-001 74248 -2.3008e-001  1.0613e+000  8.8154e-001 67286 74046,74176,74072
 9.0000e-001 74225  7.2011e-001  9.2614e-001  1.2584e+000 67286 74072,74150,74098
 9.0000e-001 74202  4.8838e-001  5.5119e-001  9.3557e-001 67286 74098,74150,74124
 9.0000e-001 74374  2.1001e-001  1.2259e+001  7.0416e+000 67088 74296,74348,74322
 9.0000e-001 74646 -5.0245e+000  1.2090e+001 -5.6408e+000 66890 74421,74525,74447
 9.0000e-001 74623 -2.1150e-002  1.5366e+001 -1.0629e+000 66890 74421,74551,74525
 9.0000e-001 74600  6.9488e-001  2.3130e+001 -3.5939e+000 66890 74447,74525,74473
 9.0000e-001 74577 -9.4630e+000  1.5032e+001  8.6950e-001 66890 74473,74525,74499
 9.0000e-001 75254 -1.2073e+000  3.4444e+000 -1.9238e+000 66528 74885,75067,75041
 9.0000e-001 75231  5.0433e+000  8.4527e+000  2.6174e-001 66528 74859,75067,74885
 9.0000e-001 75208  1.5021e+000  1.2140e+001 -5.3703e-001 66528 74937,75015,74963
 9.0000e-001 75185 -1.7555e+000  3.7160e+000 -1.3305e+000 66528 74911,75015,74937
 9.0000e-001 75162 -9.9845e-001  6.2547e+000 -1.9017e-001 66528 74911,75041,75015
 9.0000e-001 75139 -1.0910e-001  7.7574e+000  1.8219e-001 66528 74885,75041,74911
 9.0000e-001 75116 -2.4937e+000  1.4987e+000 -2.9683e+000 66528 74833,75067,74859
 9.0000e-001 75093 -3.8910e+000  9.2540e+000  2.0768e+000 66528 74963,75015,74989
 9.0000e-001 75453 -3.6766e+000  2.3919e+001 -4.0809e+000 66238 75303,75381,75355
 9.0000e-001 75430  3.9691e+000  1.1135e+001 -5.6362e+000 66238 75277,75381,75303
 9.0000e-001 75407 -3.7565e+000  7.1800e+000 -1.3409e+000 66238 75303,75355,75329
 9.0000e-001 75701  6.7022e+000  3.4285e+001  4.4125e+000 65834 75528,75606,75580
 9.0000e-001 75678 -2.8974e+000  3.6033e+001  1.3951e-001 65834 75502,75606,75528
 9.0000e-001 75655  7.1540e+000  4.3977e+001  1.4104e+001 65834 75528,75580,75554
 9.0000e-001 75632  8.9778e+000  4.2172e+001  3.3154e+000 65834 75476,75606,75502
 9.0000e-001 75902 -2.5390e+000  1.3625e+001 -2.7003e+000 65636 75726,75804,75752
 9.0000e-001 75879  5.8094e+000  1.8299e+001 -5.1472e+000 65636 75726,75830,75804
 9.0000e-001 75856  1.7619e+001  1.5998e+001 -4.5534e+000 65636 75752,75804,75778
 9.0000e-001 76103  2.2830e+001  1.8019e+001 -6.9399e+000 65296 76126,75979,75953
 9.0000e-001 76080  2.1554e+001  2.8002e+001 -1.2090e+000 65296 76126,75953,75927
 9.0000e-001 76057  3.5008e+001  5.0653e+001 -1.2400e+001 65296 76198,76005,75979
 9.0000e-001 76152  3.0297e+001  3.6070e+001 -8.3357e+000 65296 76198,75979,76126
 9.0000e-001 76175  2.1813e+001  2.4249e+001 -3.1252e+000 65296 76031,76126,75927
 9.0000e-001 76224  2.8716e+001  2.9259e+001 -5.4095e+000 65296 76031,76005,76198
 9.0000e-001 76247  2.8405e+001  2.4252e+001 -7.3645e-001 65296 76031,76198,76126
 9.0000e-001 76602  2.6910e+000  5.5972e+000  6.1332e-001 64892 76377,76481,76403
 9.0000e-001 76579  2.6268e+000  4.6736e+000  8.0891e-002 64892 76377,76507,76481
 9.0000e-001 76556  5.6365e+000  1.0864e+001 -7.0993e-001 64892 76403,76481,76429
 9.0000e-001 76533 -6.4026e+000  6.9687e+000 -1.2174e+000 64892 76429,76481,76455
 9.0000e-001 76801 -1.1466e+001  1.1484e+001  6.4676e-001 64438 76677,76729,76703
 9.0000e-001 76778 -3.9190e+000  3.2215e+001  2.1322e+000 64438 76651,76729,76677
 9.0000e-001 76755 -2.5530e+001  1.6312e+001 -1.2388e+001 64438 76625,76729,76651
 9.0000e-001 77230  9.4291e+000  1.0611e+001 -2.5824e+000 63920 77253,76959,76933
 9.0000e-001 77207  5.2822e+000  8.0288e+000 -1.3772e+000 63920 77253,76933,77063
 9.0000e-001 77184  3.7424e+000  1.1151e+001 -5.3398e+000 63920 76959,77037,76985
 9.0000e-001 77161  2.9095e+000  7.2674e+000 -1.1817e+000 63920 76907,77063,76933
 9.0000e-001 77138 -2.9223e+000  1.6763e+001 -5.3498e+000 63920 76985,77037,77011
 9.0000e-001 77115 -5.6766e-001  6.0424e+000  5.0868e-002 63920 76907,77089,77063
 9.0000e-001 77279  4.0505e+000  1.3187e+001 -2.7648e+000 63920 77037,76959,77253
 9.0000e-001 77302  2.8650e-001  1.0968e+001 -1.7130e+000 63920 77037,77253,77063
 9.0000e-001 77680 -9.1970e+000  6.8022e+000  1.4359e+001 63316 77703,77484,77432
 9.0000e-001 77657 -1.2067e+001  2.4704e+000  1.0919e+001 63316 77703,77432,77406
 9.0000e-001 77634 -2.0407e+001 -3.9273e+000  9.0368e+000 63316 77406,77536,77510
 9.0000e-001 77611  4.4922e+000  6.2068e+000  1.8912e+001 63316 77432,77484,77458
 9.0000e-001 77588 -5.1444e+000  5.0551e+000  6.3640e-001 63316 77406,77562,77536
 9.0000e-001 77729 -6.8509e+000 -4.0628e-001  1.1566e+001 63316 77510,77484,77703
 9.0000e-001 77752 -1.0496e+001 -2.3124e+000  7.4825e+000 63316 77510,77703,77406
 9.0000e-001 78000 -2.8637e+001  1.5223e+000  2.4295e+000 62812 77801,77853,77827
 9.0000e-001 77977 -1.7834e+001  5.8581e+000 -2.7958e+000 62812 77801,77879,77853
 9.0000e-001 77954 -2.4424e+001  4.0765e+000 -5.8345e+000 62812 77801,77905,77879
 9.0000e-001 77931 -1.0752e+001  4.4330e+000 -6.9405e+000 62812 77775,77905,77801
 9.0000e-001 78380 -1.1643e+001 -3.6369e+000 -6.3088e-001 62350 78184,78262,78236
 9.0000e-001 78357 -7.2443e+000 -3.6647e+000  6.9568e-001 62350 78132,78262,78184
 9.0000e-001 78334 -6.4624e+000 -3.2423e+000  1.9445e+000 62350 78106,78262,78132
 9.0000e-001 78311 -7.9442e+000 -3.0701e+000  1.4110e+000 62350 78132,78184,78158
 9.0000e-001 78288 -9.9325e+000 -7.1191e-001 -2.3584e+000 62350 78184,78236,78210
 9.0000e-001 78837  6.5753e+000  1.1647e+001  2.4668e+000 61946 78615,78667,78641
 9.0000e-001 78814  2.9698e+000  7.0775e+000 -2.3038e+000 61946 78589,78667,78615
 9.0000e-001 78791  6.5241e+000  6.1612e-001  1.0976e+000 61946 78589,78719,78667
 9.0000e-001 78768  1.1949e+001  6.0633e+000 -2.3715e+000 61946 78667,78719,78693
 9.0000e-001 78745  7.1224e+000  5.2333e+000  3.4947e+000 61946 78563,78719,78589
 9.0000e-001 78987  6.5207e+000  1.8280e+000 -1.6186e+000 61335 79010,78886,78860
 9.0000e-001 78964  7.3139e-001  5.5986e+000  3.9248e-001 61335 79010,78860,78938
 9.0000e-001 79036  5.2356e-002  4.4430e-002  1.0457e+000 61335 79082,79010,78912
 9.0000e-001 79059 -5.4715e+000  1.5970e+000 -1.4074e+000 61335 78912,79010,78938
 9.0000e-001 79108  4.2251e-001  1.6852e+000 -2.0589e+000 61335 78886,79010,79082
 9.0000e-001 79437 -1.1842e+001  4.6826e+000 -9.7467e+000 60888 79460,79238,79212
 9.0000e-001 79414 -1.4538e+001  3.0744e+000 -4.2397e+000 60888 79460,79212,79342
 9.0000e-001 79391 -2.0013e+001  3.5515e+000 -9.6017e+000 60888 79532,79264,79238
 9.0000e-001 79368 -2.0065e+001  2.8043e+001  5.6379e+000 60888 79264,79316,79290
 9.0000e-001 79486 -1.8817e+001  1.9140e+000 -8.2659e+000 60888 79532,79238,79460
 9.0000e-001 79509 -1.9028e+001  3.0972e+000 -3.1708e+000 60888 79316,79460,79342
 9.0000e-001 79558 -2.0538e+001  4.5173e+000 -6.2574e+000 60888 79316,79264,79532
 9.0000e-001 79581 -1.4308e+001  5.0206e+000 -5.2823e+000 60888 79316,79532,79460
 9.0000e-001 79878 -2.3624e+001 -7.2777e+000 -2.6470e+000 60484 79682,79760,79734
 9.0000e-001 79855 -3.0596e+001 -1.9101e+001  3.0669e+000 60484 79656,79760,79682
 9.0000e-001 79832 -2.7470e+001 -1.5827e+001  4.4724e+000 60484 79604,79760,79656
 9.0000e-001 79809 -2.8224e+001 -2.7192e+001  6.4097e+000 60484 79604,79656,79630
 9.0000e-001 79786 -1.5931e+001 -1.7221e+000 -2.2266e-002 60484 79682,79734,79708
 9.0000e-001 80101 -2.5159e+000  1.7286e+000 -4.6123e-001 60022 79951,80029,80003
 9.0000e-001 80078 -1.8666e+001 -1.4301e+000 -1.3967e+000 60022 79925,80029,79951
 9.0000e-001 80055 -1.7122e+001 -3.7447e+000  1.1845e+000 60022 79951,80003,79977
 9.0000e-001 80351  6.9982e+000  2.0638e+001  6.7258e+000 59625 80152,80256,80204
 9.0000e-001 80328  4.7586e+000  2.6656e+001  1.0428e+001 59625 80126,80256,80152
 9.0000e-001 80305  1.3323e+001  3.6033e+001  7.3800e+000 59625 80204,80256,80230
 9.0000e-001 80282  1.9560e+001  2.4841e+001  3.9833e+000 59625 80152,80204,80178
 9.0000e-001 80552  2.3783e+001  1.8840e+001 -8.6078e+000 59121 80575,80402,80376
 9.0000e-001 80529  2.4087e+001  6.7458e+000 -1.0015e+001 59121 80575,80376,80480
 9.0000e-001 80506  3.7092e+001  1.9156e+001  8.0417e+000 59121 80428,80480,80454
 9.0000e-001 80601  2.2568e+001  2.6475e+001 -1.3447e+000 59121 80428,80402,80575
 9.0000e-001 80624  2.3124e+001  1.5177e+001 -3.0275e+000 59121 80428,80575,80480
 9.0000e-001 81183  1.2103e+001  9.2038e+000 -4.0980e-001 58553 81206,80863,80837
 9.0000e-001 81160  9.2531e+000  1.0484e+001 -2.4426e-001 58553 81350,81206,80837
 9.0000e-001 81137  7.8081e+000  7.8218e+000  2.0074e-001 58553 81278,80915,80863
 9.0000e-001 81114  6.4149e+000  9.0377e+000 -2.3486e+000 58553 81350,80837,80811
 9.0000e-001 81091  1.0797e+001 -1.3375e+000  2.3691e+000 58553 81422,80967,80941
 9.0000e-001 81068  1.1162e+001  5.7159e-001  1.8051e+000 58553 80967,81019,80993
 9.0000e-001 81045  1.2782e+001  8.7119e+000 -2.2135e+000 58553 80863,80915,80889
 9.0000e-001 81232  8.4657e+000  7.8702e+000  2.4098e-001 58553 81278,80863,81206
 9.0000e-001 81255  9.7642e+000  4.7887e+000  6.3609e-001 58553 81422,80941,81206
 9.0000e-001 81304  8.4706e+000  6.8628e+000  1.2177e+000 58553 80941,80915,81278
 9.0000e-001 81327  1.0068e+001  7.4533e+000  1.0334e+000 58553 80941,81278,81206
 9.0000e-001 81376  7.2673e+000  7.0127e+000 -2.0188e+000 58553 81019,81206,81350
 9.0000e-001 81399  6.9695e+000  7.0386e+000 -3.7600e+000 58553 81019,81350,80811
 9.0000e-001 81448  1.3288e+001  4.0789e+000  2.2461e-001 58553 81019,80967,81422
 9.0000e-001 81471  1.1294e+001  7.9647e+000 -1.7745e+000 58553 81019,81422,81206
 9.0000e-001 81768 -5.8207e+000  1.0790e+001 -1.4961e+000 57877 81791,81572,81520
 9.0000e-001 81745 -7.7875e-001  1.3106e+001 -6.4815e+000 57877 81791,81520,81494
 9.0000e-001 81722 -1.2400e+001  1.1117e+001 -7.5467e-001 57877 81863,81650,81598
 9.0000e-001 81699 -1.0286e+001  1.4589e+001 -5.6900e+000 57877 81598,81650,81624
 9.0000e-001 81676 -1.0208e+001  1.3844e+001 -7.7968e-001 57877 81520,81572,81546
 9.0000e-001 81817 -6.6703e+000  7.8551e+000 -1.0598e+000 57877 81598,81572,81791
 9.0000e-001 81840 -1.0730e+001  1.0822e+001 -2.0161e+000 57877 81863,81598,81791
 9.0000e-001 81889 -7.9003e+000  3.9562e+000  1.2048e+000 57877 81494,81650,81863
 9.0000e-001 81912 -2.8291e+000  7.6957e+000 -1.5752e+000 57877 81494,81863,81791
 9.0000e-001 82160  3.9714e+000  1.7356e+001  1.0019e+001 57473 81935,82039,82013
 9.0000e-001 82137  2.1793e+001  2.3595e+001  7.1577e+000 57473 81935,82065,82039
 9.0000e-001 82114  5.0091e+000  2.2750e+001  1.1085e+001 57473 81935,82013,81961
 9.0000e-001 82091  7.6813e+000  1.4508e+001  1.3720e+001 57473 81961,82013,81987
 9.0000e-001 82719  1.9447e+000  6.3187e+000  2.1533e+000 56962 82814,82742,82425
 9.0000e-001 82696  1.4499e+000  1.0734e+000  4.9765e+000 56962 82742,82347,82555
 9.0000e-001 82673  3.0474e+000  9.4853e+000  1.1339e+000 56962 82814,82425,82399
 9.0000e-001 82650 -4.4934e+000  7.7102e+000 -1.0636e+000 56962 82425,82477,82451
 9.0000e-001 82627  1.1396e-001  1.0840e+001  1.9270e+000 56962 82425,82529,82477
 9.0000e-001 82604 -1.7515e+000  1.7097e+001  5.8073e+000 56962 82477,82529,82503
 9.0000e-001 82581  3.3767e+000  4.7853e-001  1.0049e+000 56962 82347,82399,82373
 9.0000e-001 82768 -4.5634e-002  3.9770e+000  3.5582e+000 56962 82529,82425,82742
 9.0000e-001 82791  4.4468e+000  7.9913e+000  5.4705e+000 56962 82529,82742,82555
 9.0000e-001 82840  3.5312e+000  2.5814e+000  2.7818e+000 56962 82347,82742,82814
 9.0000e-001 82863  3.5901e+000  4.8275e+000  2.1902e+000 56962 82347,82814,82399
 9.0000e-001 83467 -1.6693e+001  8.3148e+000 -1.9050e+001 56300 83124,83176,83150
 9.0000e-001 83444 -2.8911e+000  5.4065e+000 -5.6217e+000 56300 83490,83176,83124
 9.0000e-001 83421  1.9748e+000  8.1321e+000 -4.4798e+000 56300 83490,83124,83280
 9.0000e-001 83398  5.8492e+000  1.6109e+001 -3.2778e+000 56300 83202,83280,83254
 9.0000e-001 83375  3.8094e+000  1.2432e+001 -4.2420e+000 56300 83046,83280,83124
 9.0000e-001 83352  3.7785e+000  1.3293e+001 -4.0684e+000 56300 83046,83124,83098
 9.0000e-001 83329  5.0387e+000  5.1787e+000 -3.7814e+000 56300 83202,83254,83228
 9.0000e-001 83306  8.8944e+000  2.0457e+001 -1.4660e+000 56300 83046,83098,83072
 9.0000e-001 83516 -7.1241e+000  9.0714e+000 -1.8538e+000 56300 83202,83176,83490
 9.0000e-001 83539 -2.2026e+000  1.1351e+001 -1.2553e+000 56300 83202,83490,83280
 9.0000e-001 83787 -1.0113e+001  1.1496e+001 -1.4125e+000 55960 83588,83692,83666
 9.0000e-001 83764 -1.7039e+001  3.4025e+001  8.7498e+000 55960 83562,83692,83588
 9.0000e-001 83741  6.9708e+000  1.3540e+001  1.6388e+000 55960 83588,83666,83614
 9.0000e-001 83718 -7.3242e+000  1.1177e+001  7.4030e-001 55960 83614,83666,83640
 9.0000e-001 83937  7.9955e-001 -1.5282e+000 -3.5748e+000 55499 83810,83862,83836
 9.0000e-001 83914 -1.0315e+001  7.0395e-001 -2.4043e+000 55499 83810,83888,83862
 9.0000e-001 84138 -2.0906e+000 -2.0791e+000 -3.4483e+000 55152 83988,84066,84040
 9.0000e-001 84115  1.1080e+001  3.0008e+001 -1.8028e+000 55152 83962,84066,83988
 9.0000e-001 84092  1.1554e+001  2.3979e+001  5.2155e+000 55152 83988,84040,84014
 9.0000e-001 84471 -7.8748e+000  2.3365e+001  1.5293e+001 54648 84324,84376,84350
 9.0000e-001 84448 -9.0879e+000  2.5739e+000  1.5161e+001 54648 84272,84376,84324
 9.0000e-001 84425 -1.5703e+001 -1.7644e+001  1.5798e+001 54648 84246,84376,84272
 9.0000e-001 84402 -1.9279e+001 -1.3049e+000  1.6888e+001 54648 84272,84324,84298
 9.0000e-001 84849 -3.2082e+000  7.4930e+000 -1.9543e+000 53922 84627,84731,84705
 9.0000e-001 84826  2.6228e+000  8.2357e+000  9.2117e-001 53922 84575,84731,84627
 9.0000e-001 84803  5.8994e+000  9.4705e+000 -6.6628e+000 53922 84575,84627,84601
 9.0000e-001 84780 -5.2232e+000  7.5278e+000 -4.1563e+000 53922 84627,84705,84653
 9.0000e-001 84757 -6.8905e+000  1.4495e+001 -3.5380e+000 53922 84653,84705,84679
 9.0000e-001 85581 -1.1170e+001  9.0951e+000 -7.5781e-002 53582 85604,85111,85319
 9.0000e-001 85558  4.4622e+000  7.8236e+000  6.0569e-001 53582 85111,85345,85319
 9.0000e-001 85535 -5.1646e+000  1.2670e+001  3.1093e+000 53582 85604,85319,85293
 9.0000e-001 85512  2.2097e+000  1.3629e+001  1.5490e+001 53582 85241,85293,85267
 9.0000e-001 85489 -8.6752e+000  1.3236e+001  6.6408e+000 53582 85676,85241,85189
 9.0000e-001 85466 -1.4237e+000  1.4718e+001  2.8651e+000 53582 85676,85189,85137
 9.0000e-001 85443 -1.2446e+001  2.3675e+001  7.3566e+000 53582 85189,85241,85215
 9.0000e-001 85420 -9.5724e-001  3.4217e+001  1.2124e+000 53582 85137,85189,85163
 9.0000e-001 85397  1.4344e+000  1.3809e+001 -3.0880e+000 53582 85111,85371,85345
 9.0000e-001 85630 -1.0436e+001  1.6223e+001  5.6106e+000 53582 85137,85111,85604
 9.0000e-001 85653 -7.4404e+000  1.4016e+001  6.9439e+000 53582 85748,85604,85293
 9.0000e-001 85702 -1.0214e+001  9.3852e+000  1.0721e+001 53582 85293,85241,85676
 9.0000e-001 85725 -5.9810e+000  1.3548e+001  6.5893e+000 53582 85748,85293,85676
 9.0000e-001 85774 -5.2280e+000  1.4507e+001  7.6344e+000 53582 85137,85604,85748
 9.0000e-001 85797 -4.2582e+000  1.3672e+001  7.3096e+000 53582 85137,85748,85676
 9.0000e-001 86303  9.6324e+000  1.5680e+001  1.2483e-001 53178 86326,86084,86006
 9.0000e-001 86280  1.2166e+001  1.7058e+001 -9.7393e-001 53178 86326,86006,86162
 9.0000e-001 86257  1.6271e+001  1.6998e+001 -9.6818e+000 53178 86398,86110,86084
 9.0000e-001 86234  8.8497e+000  1.1439e+001 -1.6522e+000 53178 86006,86058,86032
 9.0000e-001 86211  6.8721e+000  1.0912e+001 -1.5991e+000 53178 86006,86084,86058
 9.0000e-001 86188  8.6227e+000  1.3872e+001  3.9704e+000 53178 85980,86162,86006
 9.0000e-001 86352  1.0732e+001  1.0959e+001 -2.0897e+000 53178 86398,86084,86326
 9.0000e-001 86375  9.0030e+000  1.7446e+001 -1.6127e+000 53178 86136,86326,86162
 9.0000e-001 86424  1.6921e+001  2.1724e+001 -1.2783e+001 53178 86136,86110,86398
 9.0000e-001 86447  1.6047e+001  2.5767e+001 -5.3539e+000 53178 86136,86398,86326
 9.0000e-001 86904  4.9137e+000  3.3286e+001 -1.0220e+000 52774 86708,86760,86734
 9.0000e-001 86881  3.4126e+000  2.1049e+001 -4.5218e+000 52774 86656,86760,86708
 9.0000e-001 86858  1.4343e+001  2.2885e+001 -3.3131e+000 52774 86656,86708,86682
 9.0000e-001 86835  1.1185e+001  2.1215e+001 -2.6746e+000 52774 86630,86760,86656
 9.0000e-001 86812  1.0770e+001  1.9712e+001  5.3075e-002 52774 86630,86786,86760
 9.0000e-001 87489  7.2948e+000  3.4752e+001  8.5979e+000 52234 87512,87218,87192
 9.0000e-001 87466  1.7857e+000  2.7181e+001  2.5144e+000 52234 87512,87192,87348
 9.0000e-001 87443 -4.0498e+000  2.2931e+001 -1.8827e-001 52234 87166,87348,87192
 9.0000e-001 87420 -3.3088e+000  1.9883e+001 -5.7319e-001 52234 87296,87348,87322
 9.0000e-001 87397  2.9259e+000  1.9617e+001  2.6698e+000 52234 87218,87296,87270
 9.0000e-001 87374  9.2778e+000  2.1006e+001  3.1183e+000 52234 87218,87270,87244
 9.0000e-001 87538  3.0422e+000  2.3590e+001  3.7927e+000 52234 87296,87218,87512
 9.0000e-001 87561  7.9760e-001  2.2954e+001 -2.0725e+000 52234 87296,87512,87348
 9.0000e-001 87841  5.1459e+000  3.1267e+001  1.3331e+000 51830 87665,87743,87691
 9.0000e-001 87818  8.3534e+000  3.2613e+001  1.4094e+000 51830 87665,87769,87743
 9.0000e-001 87795 -1.1408e+001  1.9639e+001 -5.6287e+000 51830 87864,87691,87743
 9.0000e-001 87890 -2.6605e+001  1.3124e+001 -6.3024e+000 51830 87717,87691,87864
 9.0000e-001 88418 -4.7091e+000  9.5432e+000  3.5406e+000 51262 88095,88173,88121
 9.0000e-001 88395 -4.1184e+000  1.6702e+001  3.4367e+000 51262 88095,88251,88173
 9.0000e-001 88372 -1.5445e+001  7.9227e+000 -5.0128e+000 51262 88173,88251,88199
 9.0000e-001 88349 -1.1636e+001  2.8307e+001  1.3416e+001 51262 88095,88277,88251
 9.0000e-001 88326 -4.7565e+000  2.5723e+001 -9.2913e-002 51262 88199,88251,88225
 9.0000e-001 88303 -1.7215e+000  1.5101e+001  2.4102e+000 51262 88121,88173,88147
 9.0000e-001 88875 -7.6255e+000  1.4271e+001 -8.8498e+000 50750 88601,88731,88627
 9.0000e-001 88852 -1.0313e+001  2.9314e+001 -1.1949e+001 50750 88601,88757,88731
 9.0000e-001 88829  4.5090e+000  2.7725e+001  3.0308e+000 50750 88627,88731,88653
 9.0000e-001 88806  1.5613e+000  2.1010e+001  2.4292e+000 50750 88653,88731,88705
 9.0000e-001 88783 -2.2097e+001  6.4871e+000 -7.4826e+000 50750 88653,88705,88679
 9.0000e-001 89145 -4.8214e+000  1.8024e+001 -1.5454e-001 50438 88946,89024,88972
 9.0000e-001 89122 -1.4406e+000  1.6186e+001 -5.5582e-001 50438 88946,89050,89024
 9.0000e-001 89099 -7.6343e+000  1.1433e+001 -2.6283e+000 50438 88920,89050,88946
 9.0000e-001 89076 -6.8834e+000  1.2693e+001 -9.6007e+000 50438 88972,89024,88998
 9.0000e-001 89525 -7.7857e+000  1.1955e+001 -8.3184e-001 49934 89548,89277,89251
 9.0000e-001 89502 -5.8106e+000  1.0481e+001 -1.9468e+000 49934 89548,89251,89381
 9.0000e-001 89479  1.0376e+000  8.2488e+000  2.5078e-001 49934 89303,89381,89329
 9.0000e-001 89456 -2.9478e+000  1.5522e+001 -6.7298e+000 49934 89251,89407,89381
 9.0000e-001 89433  5.6775e+000  8.2388e+000 -3.5209e+000 49934 89329,89381,89355
 9.0000e-001 89574 -6.8582e-002  2.2974e+001  2.5378e+000 49934 89303,89277,89548
 9.0000e-001 89597 -5.9934e+000  1.1523e+001 -1.2526e+000 49934 89303,89548,89381
 9.0000e-001 90054 -7.5225e+000  7.5120e+000 -3.9216e+000 49380 89832,89936,89910
 9.0000e-001 90031 -3.4577e+000  9.2194e+000  3.1928e-001 49380 89780,89936,89832
 9.0000e-001 90008  4.2460e+000  2.0400e+001 -3.1703e+000 49380 89780,89832,89806
 9.0000e-001 89985 -4.8057e+000  2.6742e+000 -5.7920e+000 49380 89832,89910,89858
 9.0000e-001 89962  3.8190e+000  2.4975e+001 -4.2711e+000 49380 89858,89910,89884
 9.0000e-001 90560  6.0159e+000  1.3289e+001  2.2067e+000 48890 90289,90341,90315
 9.0000e-001 90537 -1.8052e+000  9.8663e+000 -4.2953e-001 48890 90289,90393,90341
 9.0000e-001 90514 -8.7686e+000  9.3304e+000 -2.6230e+000 48890 90263,90393,90289
 9.0000e-001 90491 -5.0328e+000  1.3798e+001 -1.0970e+001 48890 90237,90393,90263
 9.0000e-001 90468  6.9357e+000  2.1781e+001 -4.3650e+000 48890 90341,90393,90367
 9.0000e-001 90445 -1.9305e+000  1.2789e+001 -7.8854e+000 48890 90237,90419,90393
 9.0000e-001 91115 -1.9040e-002  1.6131e+001 -2.7336e+000 48486 90795,90873,90847
 9.0000e-001 91092 -2.9660e+000  1.7647e+001 -3.8168e+000 48486 90795,90925,90873
 9.0000e-001 91069 -1.0964e+001  1.6580e+001 -1.3309e+000 48486 90769,90925,90795
 9.0000e-001 91046 -1.7494e+001  1.5645e+001 -1.3104e+000 48486 90769,90951,90925
 9.0000e-001 91023 -9.5374e-001  1.6409e+001 -3.6976e-001 48486 90795,90847,90821
 9.0000e-001 91000 -4.6669e+000  1.0092e+001 -8.0745e+000 48486 90873,90925,90899
 9.0000e-001 90977 -6.7246e+000  2.1258e+001  1.0285e+000 48486 90743,90951,90769
 9.0000e-001 91265  7.0473e+000  2.9016e+001 -2.8217e+000 48082 91288,91190,91164
 9.0000e-001 91242  1.4049e+000  1.8747e+001 -5.2583e+000 48082 91360,91288,91164
 9.0000e-001 91314  8.0995e+000  2.5096e+001  1.3009e-001 48082 91216,91190,91288
 9.0000e-001 91337  8.2165e+000  2.6512e+001  1.4995e-001 48082 91216,91288,91138
 9.0000e-001 91386  1.0062e+001  2.6579e+001  8.6131e-003 48082 91138,91288,91360
 9.0000e-001 92022  6.7509e+000 -1.0591e+000 -2.2609e+001 47514 92261,92045,91754
 9.0000e-001 91999 -3.2972e+000  3.7649e+000  3.3825e+000 47514 92189,92045,91702
 9.0000e-001 91976 -5.7522e+000  2.1798e+001 -6.1244e+000 47514 92117,91806,91754
 9.0000e-001 91953  8.9244e-001  1.5519e+001  1.7177e+000 47514 92189,91702,91650
 9.0000e-001 91930  2.9986e+001  2.9245e+000 -2.3257e+001 47514 92261,91754,91728
 9.0000e-001 91907 -2.2839e+001  1.7810e+001 -1.0703e+001 47514 91754,91806,91780
 9.0000e-001 91884  1.8131e+001  1.6660e+001 -4.6902e+000 47514 91650,91702,91676
 9.0000e-001 92071 -9.8624e+000  1.4231e+001 -1.4735e+001 47514 92117,91754,92045
 9.0000e-001 92094 -4.4167e-001  3.8771e+000 -6.7201e+000 47514 91832,92045,91858
 9.0000e-001 92143  2.5760e+000  2.6706e+001  3.9977e+000 47514 91832,91806,92117
 9.0000e-001 92166  1.3330e+000  1.2335e+001 -4.6567e+000 47514 91832,92117,92045
 9.0000e-001 92215 -2.2272e+000  1.3818e+001 -1.8194e+000 47514 91858,92045,92189
 9.0000e-001 92238 -1.6862e+000  1.9797e+001 -3.4838e+000 47514 91858,92189,91650
 9.0000e-001 92287  9.0963e+000 -7.2293e-001 -2.3645e+000 47514 91702,92045,92261
 9.0000e-001 92310  2.3599e+001  1.1817e+000 -7.4348e-001 47514 91702,92261,91728
 9.0000e-001 92460 -9.7454e+000  5.8395e+000  1.0080e+000 47124 92483,92359,92333
 9.0000e-001 92437 -4.2467e+000 -4.4743e+000 -7.1586e+000 47124 92555,92483,92333
 9.0000e-001 92509 -3.6312e+000  8.9806e+000  2.5386e+000 47124 92685,92483,92385
 9.0000e-001 92532  2.7229e+000  4.8532e+000 -4.2905e+000 47124 92385,92483,92411
 9.0000e-001 92581  1.4560e+000  4.3075e+000 -4.3285e+000 47124 92411,92483,92555
 9.0000e-001 92711  2.0317e+000  1.1764e+001  4.3015e+000 47124 92359,92483,92685
 9.0000e-001 93571 -1.2712e+001 -1.4356e+000  3.3012e+000 46834 93594,93208,93104
 9.0000e-001 93548 -2.0584e+001 -4.5757e+000  2.4553e+000 46834 93738,93594,93104
 9.0000e-001 93525 -2.1574e+001 -1.4272e+001 -4.0163e+000 46834 93666,93234,93208
 9.0000e-001 93502 -2.4499e+001 -4.1238e+000  2.9530e+000 46834 93738,93104,93078
 9.0000e-001 93479 -1.8325e+001 -4.0633e+000  1.4376e+000 46834 93810,93260,93234
 9.0000e-001 93456 -7.6192e+000 -2.6832e+000  7.1829e+000 46834 93104,93182,93156
 9.0000e-001 93433 -1.3557e+001 -1.0404e+001  3.4826e+000 46834 93104,93208,93182
 9.0000e-001 93410 -2.3849e+001 -4.0474e+000  3.9996e+000 46834 93286,93338,93312
 9.0000e-001 93387 -2.3475e+001 -3.9763e+000  6.0327e-001 46834 93052,93338,93078
 9.0000e-001 93364 -6.9063e+000  4.0642e+000  5.8314e+000 46834 93104,93156,93130
 9.0000e-001 93620 -1.7284e+001 -5.7064e+000  1.6258e-002 46834 93666,93208,93594
 9.0000e-001 93643 -1.6715e+001 -4.8169e-001  1.5347e+000 46834 93286,93594,93338
 9.0000e-001 93692 -2.0542e+001 -4.5424e+000 -7.6601e-001 46834 93810,93234,93666
 9.0000e-001 93715 -2.0033e+001 -1.9910e+000  7.2304e-001 46834 93286,93666,93594
 9.0000e-001 93764 -1.7912e+001 -3.5934e+000  1.5491e+000 46834 93338,93594,93738
 9.0000e-001 93787 -1.9541e+001 -1.4857e+000  1.7208e+000 46834 93338,93738,93078
 9.0000e-001 93836 -1.2864e+001 -2.6873e+000  3.5333e+000 46834 93286,93260,93810
 9.0000e-001 93859 -1.5240e+001 -3.0141e+000  1.4330e+000 46834 93286,93810,93666
 9.0000e-001 94210  2.5355e+000  2.3934e+001  1.5125e+000 46472 94011,94115,94089
 9.0000e-001 94187  1.9737e+000  2.5851e+001  8.8022e-001 46472 93985,94115,94011
 9.0000e-001 94164 -1.6905e+001  1.6115e+001 -3.1085e-001 46472 94037,94089,94063
 9.0000e-001 94141 -1.4332e+001  1.6524e+001  2.7040e+000 46472 94011,94089,94037
 9.0000e-001 94746  1.0409e+001  2.1884e+001  5.7227e-001 46068 94576,94628,94602
 9.0000e-001 94723  1.7530e-002  1.7749e+001 -8.6611e-001 46068 94498,94628,94576
 9.0000e-001 94700  1.1922e+001  2.2341e+001 -7.6479e+000 46068 94472,94628,94498
 9.0000e-001 94677  3.0514e+001  2.3985e+001 -3.2328e-002 46068 94524,94576,94550
 9.0000e-001 94654  1.8780e+001  1.5039e+001  6.8158e+000 46068 94498,94576,94524
 9.0000e-001 95380  2.7614e+001  2.5263e+000  3.1491e+000 45342 95034,95112,95086
 9.0000e-001 95357 -1.6895e+000 -1.9302e+000  3.7453e+000 45342 95034,95190,95112
 9.0000e-001 95334  3.8599e+001 -5.6263e+000 -8.3175e+000 45342 95403,95164,95138
 9.0000e-001 95311  1.7220e+001 -1.6167e+000  1.2193e+000 45342 95403,95138,95112
 9.0000e-001 95288  2.5336e+001 -5.9514e+000  3.3027e-001 45342 95034,95216,95190
 9.0000e-001 95265  1.9424e+001  5.7065e+000  9.2575e+000 45342 95034,95086,95060
 9.0000e-001 95242  2.7825e+001  2.2123e-001  1.3752e+000 45342 95008,95216,95034
 9.0000e-001 95429  1.8899e+001 -5.1528e+000 -1.0438e+001 45342 95190,95164,95403
 9.0000e-001 95452  1.3465e+000  2.4391e+000 -5.1767e+000 45342 95190,95403,95112
 9.0000e-001 96007 -5.5826e+000 -2.8464e+000 -4.6653e+000 44716 96030,95791,95765
 9.0000e-001 95984  1.3865e+000 -3.1366e+000 -6.2323e+000 44716 96030,95765,95713
 9.0000e-001 95961  2.7730e+000 -6.3395e+000 -5.5445e-001 44716 96174,96102,95661
 9.0000e-001 95938  2.6173e+000 -4.2254e+000 -9.0307e-002 44716 96174,95661,95635
 9.0000e-001 95915  5.8136e+000  1.3427e+000 -4.4262e+000 44716 95661,95713,95687
 9.0000e-001 95892  1.6383e+001  3.6346e+000 -4.7990e+000 44716 95713,95765,95739
 9.0000e-001 95869  3.1826e+000 -2.3087e-001 -1.1929e+000 44716 95635,95843,95817
 9.0000e-001 96056  9.7062e-001  1.2421e+000 -2.8454e+000 44716 95817,95791,96030
 9.0000e-001 96079 -1.8537e+000 -6.2561e+000 -2.9775e+000 44716 96102,95817,96030
 9.0000e-001 96128  4.1108e+000 -6.3839e+000 -1.5394e+000 44716 95713,95661,96102
 9.0000e-001 96151  6.5132e+000 -2.4926e+000 -3.7439e+000 44716 95713,96102,96030
 9.0000e-001 96200  2.8639e+000 -3.2700e+000 -5.1000e-001 44716 95817,96102,96174
 9.0000e-001 96223  2.5455e+000 -1.7391e+000  3.5789e-001 44716 95817,96174,95635
 9.0000e-001 96680  1.0551e+001  2.2716e+001 -3.3115e+000 44198 96775,96703,96458
 9.0000e-001 96657  1.2710e+001  4.6781e+000 -9.2841e+000 44198 96703,96406,96562
 9.0000e-001 96634  1.1778e+001  3.0333e+001 -5.9597e+000 44198 96775,96458,96432
 9.0000e-001 96611  1.7000e+001  1.6292e+001 -1.1567e+001 44198 96484,96536,96510
 9.0000e-001 96588 -3.8173e+000  2.0142e+001  9.2223e-001 44198 96458,96536,96484
 9.0000e-001 96729 -2.0934e+000  2.6207e+000  2.9778e+000 44198 96536,96458,96703
 9.0000e-001 96752  1.1462e+001  1.7868e+000 -9.3883e+000 44198 96536,96703,96562
 9.0000e-001 96801  1.6934e+001  4.3375e+000 -4.7016e+000 44198 96406,96703,96775
 9.0000e-001 96824  2.3004e+001  1.8197e+001 -8.2411e+000 44198 96406,96775,96432
 9.0000e-001 97202 -4.5900e+000 -1.5571e+000  6.1464e+000 43750 97225,96980,96928
 9.0000e-001 97179 -4.5221e+000 -5.1441e+000  8.3675e+000 43750 97225,96928,97084
 9.0000e-001 97156 -4.4020e+000  6.7641e+000  6.7578e+000 43750 96928,96980,96954
 9.0000e-001 97133  3.9856e-001  6.7340e+000  3.0382e+000 43750 97006,97084,97058
 9.0000e-001 97110  9.7843e+000  4.3730e+000  3.4442e+000 43750 97006,97058,97032
 9.0000e-001 97251 -3.0950e+000  4.8338e+000  3.9398e+000 43750 97006,96980,97225
 9.0000e-001 97274 -5.2954e+000 -1.3146e+000  6.5168e+000 43750 97006,97225,97084
 9.0000e-001 97522  5.2994e-001  2.2497e+001 -1.8881e+000 43360 97545,97375,97349
 9.0000e-001 97499 -3.3632e+000  1.4601e+001 -5.3753e+000 43360 97545,97349,97323
 9.0000e-001 97476  3.5871e+000  1.6190e+001 -5.5831e+000 43360 97617,97427,97401
 9.0000e-001 97453  4.8043e+000  1.4034e+001 -1.3500e+001 43360 97297,97427,97323
 9.0000e-001 97571 -1.1226e+001  8.6801e+000  3.1510e+000 43360 97401,97375,97545
 9.0000e-001 97594  1.5665e+000  1.1956e+001 -2.9201e+000 43360 97617,97401,97545
 9.0000e-001 97643  5.4014e+000  2.1528e+001 -1.0279e+001 43360 97323,97427,97617
 9.0000e-001 97666  2.7510e+000  1.8783e+001 -7.3153e+000 43360 97323,97617,97545
 9.0000e-001 98019 -4.3303e+001 -8.2465e-001 -9.2942e+000 42956 97794,97898,97820
 9.0000e-001 97996 -3.8976e+001 -1.2977e+001 -6.2310e+000 42956 97794,97924,97898
 9.0000e-001 97973 -8.3238e+001  1.6839e+000 -2.3153e+000 42956 97820,97872,97846
 9.0000e-001 97950 -7.3054e+001 -5.4633e+000 -8.1827e+000 42956 97820,97898,97872
 9.0000e-001 98446 -3.6155e+000  1.0207e+001  6.6061e-001 42559 98149,98305,98279
 9.0000e-001 98423  6.8643e+000  1.6829e+001  3.6372e+000 42559 98123,98305,98149
 9.0000e-001 98400 -1.1997e+000  1.0203e+001 -1.2069e+000 42559 98469,98175,98149
 9.0000e-001 98377  4.6802e+000  2.3824e+001 -4.3040e+000 42559 98469,98149,98279
 9.0000e-001 98354 -4.6203e-001  2.0130e+001 -6.3101e+000 42559 98175,98253,98227
 9.0000e-001 98331  1.6209e+000  2.4392e+001 -7.4173e+000 42559 98175,98227,98201
 9.0000e-001 98495  2.6416e+000  1.9312e+001 -7.9708e+000 42559 98253,98175,98469
 9.0000e-001 98518  4.1852e+000  2.4259e+001 -1.0950e+001 42559 98253,98469,98279
 9.0000e-001 98847  1.7965e+001  1.0861e+001 -2.2658e+000 42247 98674,98752,98700
 9.0000e-001 98824  8.2538e+000  1.7009e+001  4.7678e+000 42247 98648,98752,98674
 9.0000e-001 98801  9.7441e+000  2.1243e+001  1.1281e+001 42247 98622,98752,98648
 9.0000e-001 98778  2.7345e+001  9.3301e+000  6.2789e+000 42247 98700,98752,98726
 9.0000e-001 99117 -6.8820e+000  1.7772e-001 -1.6528e+000 41843 98892,98996,98918
 9.0000e-001 99094 -1.2818e+001  3.3778e+000 -4.8804e+000 41843 98892,99022,98996
 9.0000e-001 99071  5.7760e-001  1.2797e+001  1.6245e+000 41843 98918,98996,98970
 9.0000e-001 99048 -6.2789e+000  1.1362e+001 -5.5954e-002 41843 98918,98970,98944
 9.0000e-001 99625  2.4690e+000  1.8612e+001  1.0418e+001 41232 99648,99380,99354
 9.0000e-001 99602  1.2037e+001  1.9399e+001  8.6560e+000 41232 99648,99354,99328
 9.0000e-001 99579  1.3124e+001  2.7886e+001  1.3989e+001 41232 99720,99432,99380
 9.0000e-001 99556  5.2687e-001  1.7865e+001  5.5654e+000 41232 99380,99432,99406
 9.0000e-001 99533  9.5760e+000  4.8893e+000  5.3808e+000 41232 99328,99484,99458
 9.0000e-001 99510  2.6325e+001  6.7779e+000  4.5678e+000 41232 99302,99484,99328
 9.0000e-001 99674  5.1888e+000  2.3987e+001  1.1576e+001 41232 99720,99380,99648
 9.0000e-001 99697  8.3572e+000  2.5206e+000  6.6762e+000 41232 99458,99648,99328
 9.0000e-001 99746  2.4126e+001  2.2881e+001  1.8555e+001 41232 99458,99432,99720
 9.0000e-001 99769  1.7661e+001  1.8373e+001  1.5287e+001 41232 99458,99720,99648
 9.0000e-001 100275  2.2730e+001  1.2124e+001 -7.2741e+000 40728 99952,100004,99978
 9.0000e-001 100252  8.4179e+000  5.8629e+000 -1.4231e+001 40728 99952,100030,100004
 9.0000e-001 100229 -3.8119e+000 -1.2642e+001 -8.9344e+000 40728 99952,100134,100030
 9.0000e-001 100206  5.3189e+000  4.8735e+000 -1.1481e+001 40728 100298,100108,100082
 9.0000e-001 100183  3.7351e+000 -1.1500e+000 -1.1156e+001 40728 100298,100082,100030
 9.0000e-001 100160 -1.8498e+001  8.2650e+000 -3.5198e+001 40728 100030,100082,100056
 9.0000e-001 100324  3.0178e+000  1.0626e+001 -9.0166e+000 40728 100134,100108,100298
 9.0000e-001 100347  2.6874e-001  2.6762e+000 -8.0554e+000 40728 100134,100298,100030
 9.0000e-001 100853 -1.1265e+001  2.3700e+001  1.0717e+000 40274 100876,100686,100660
 9.0000e-001 100830 -8.6444e+000  1.6068e+001  3.7598e+000 40274 100948,100876,100660
 9.0000e-001 100807 -1.2853e+001  1.4269e+001 -1.7300e+000 40274 100948,100660,100608
 9.0000e-001 100784 -8.3212e+000  2.1820e+001  5.4034e+000 40274 101020,100556,100712
 9.0000e-001 100761 -6.7665e+000  2.1869e+001  5.5136e+000 40274 100530,100712,100556
 9.0000e-001 100738 -9.5495e+000  2.4544e+001  3.1433e+000 40274 100608,100660,100634
 9.0000e-001 100902 -1.0674e+001  3.7418e+001  5.5589e+000 40274 100712,100686,100876
 9.0000e-001 100925 -1.3123e+001  2.2179e+001  1.5708e+000 40274 101020,100712,100876
 9.0000e-001 100974 -1.2446e+001  1.0628e+001 -2.3328e+000 40274 100582,100876,100948
 9.0000e-001 100997 -2.0511e+001  8.2296e+000 -7.8428e+000 40274 100582,100948,100608
 9.0000e-001 101046 -1.9643e+000  2.4440e+001  7.6214e+000 40274 100582,100556,101020
 9.0000e-001 101069 -5.9978e+000  2.3912e+001  3.0766e+000 40274 100582,101020,100876
 9.0000e-001 101496  8.4843e+000  1.1180e+001  6.7407e+000 39820 101519,101277,101225
 9.0000e-001 101473 -1.5056e+000  5.5772e+000  1.5990e+000 39820 101519,101225,101199
 9.0000e-001 101450  9.4359e+000  1.1974e+001  7.3822e+000 39820 101173,101355,101199
 9.0000e-001 101427  2.5169e+001  4.1506e+000 -3.3230e+000 39820 101277,101355,101303
 9.0000e-001 101404  7.1044e+000  6.5670e+000 -3.1424e-001 39820 101225,101277,101251
 9.0000e-001 101381  1.7600e+001  7.9765e+000 -5.4876e+000 39820 101303,101355,101329
 9.0000e-001 101545  1.3869e+001  8.2679e+000  9.5190e+000 39820 101355,101277,101519
 9.0000e-001 101568  8.6717e+000  8.4570e+000  5.7397e+000 39820 101355,101519,101199
 9.0000e-001 101816 -6.8936e+000 -7.3328e+000  6.1761e+000 39066 101839,101695,101643
 9.0000e-001 101793 -8.3910e+000 -2.5949e+000  4.2162e+000 39066 101839,101643,101591
 9.0000e-001 101770 -3.1898e+000 -9.7462e+000  3.0579e+000 39066 101643,101695,101669
 9.0000e-001 101747 -5.0601e-001  8.8594e+000  7.5154e-001 39066 101591,101643,101617
 9.0000e-001 101865 -6.7073e+000 -5.4503e+000  3.5853e+000 39066 101721,101695,101839
 9.0000e-001 101888 -6.5443e+000  1.0322e+000  1.4181e+000 39066 101721,101839,101591
 9.0000e-001 102087 -8.8535e+000  1.9774e+001 -1.1093e+000 38726 101937,101989,101963
 9.0000e-001 102064 -1.8529e+001  1.0199e+001  2.8914e+000 38726 101937,102015,101989
 9.0000e-001 102041 -1.5493e+000  1.7024e+001  3.8867e+000 38726 101911,102015,101937
 9.0000e-001 102337  1.2117e+001  2.3420e+001 -3.6333e+000 38322 102112,102190,102138
 9.0000e-001 102314  1.0715e+000  1.8095e+001  9.7558e+000 38322 102112,102216,102190
 9.0000e-001 102291  2.4188e+001  2.0706e+001  1.0224e+001 38322 102112,102242,102216
 9.0000e-001 102268 -1.2178e+001  1.8021e+001 -3.1821e+000 38322 102138,102190,102164
 9.0000e-001 102489  6.0205e+000  3.0266e+001  2.4077e+000 38032 102512,102388,102362
 9.0000e-001 102466  2.9815e+000  4.1550e+001 -3.4334e+000 38032 102512,102362,102440
 9.0000e-001 102538  7.7257e+000  2.0797e+001  9.1763e-001 38032 102414,102388,102512
 9.0000e-001 102561  1.3803e+000  2.7171e+001 -6.8454e+000 38032 102414,102512,102440
 9.0000e-001 102894  1.2644e+000  2.3943e+001 -1.9777e+000 37592 102669,102773,102695
 9.0000e-001 102871  2.2592e+001  2.6854e+001 -1.4530e+001 37592 102669,102799,102773
 9.0000e-001 102848  1.7984e+001  3.6698e+001 -1.3239e+000 37592 102721,102773,102747
 9.0000e-001 102825  6.3208e+000  3.2723e+000 -1.1650e+000 37592 102695,102773,102721
 9.0000e-001 103093  1.1452e+001  4.0171e+001 -4.1530e+000 37188 102917,102995,102943
 9.0000e-001 103070  6.8376e+000  4.2365e+001  4.0352e+000 37188 102917,103021,102995
 9.0000e-001 103047  1.1012e+001  2.5479e+001  2.5469e+000 37188 102943,102995,102969
 9.0000e-001 103341  1.7921e+001  3.1449e+001  6.5347e+000 36605 103142,103194,103168
 9.0000e-001 103318  2.1797e+001  3.1571e+001  7.3199e+000 36605 103142,103220,103194
 9.0000e-001 103295  3.6022e+001  1.7627e+001 -7.9939e-001 36605 103116,103220,103142
 9.0000e-001 103272  5.0465e+001  3.9750e+001 -1.2339e+001 36605 103116,103246,103220
 9.0000e-001 103949 -7.5871e+000 -8.3091e+000 -3.2398e+000 36127 103554,103606,103580
 9.0000e-001 103926 -1.4259e+001 -7.7663e+000 -2.8899e+000 36127 103528,103606,103554
 9.0000e-001 103903 -1.0328e+001 -1.2659e+000 -6.1708e+000 36127 103528,103736,103606
 9.0000e-001 103880 -9.9826e+000 -5.8551e+000 -4.4959e+000 36127 103972,103710,103632
 9.0000e-001 103857 -1.1664e+001 -9.6196e+000 -8.3710e+000 36127 103972,103632,103606
 9.0000e-001 103834 -9.6966e+000 -3.4134e+000 -4.2726e+000 36127 103632,103710,103658
 9.0000e-001 103811 -2.3774e+001  2.7948e+000 -1.3653e+001 36127 103528,103762,103736
 9.0000e-001 103788 -9.4933e+000 -3.0101e-001 -1.1547e+000 36127 103658,103710,103684
 9.0000e-001 103998 -6.4788e+000 -2.0170e+000 -1.8239e+000 36127 103736,103710,103972
 9.0000e-001 104021 -8.6549e+000 -5.6985e+000 -5.7830e+000 36127 103736,103972,103606
 9.0000e-001 104220 -2.1388e+001  9.4232e+000  5.6147e+000 35787 104070,104148,104122
 9.0000e-001 104197 -1.9758e+001  4.4908e+001  1.3532e+001 35787 104044,104148,104070
 9.0000e-001 104174 -3.5887e+000  1.3115e+001  5.8745e+000 35787 104070,104122,104096
 9.0000e-001 104419  5.2675e+000  2.8030e+001  7.4393e-001 35440 104269,104321,104295
 9.0000e-001 104396  6.6686e+000  3.0592e+001  4.0384e+000 35440 104269,104347,104321
 9.0000e-001 104373 -1.9014e-002  2.4972e+001  1.4779e+000 35440 104243,104347,104269
 9.0000e-001 104718 -5.1184e+000  2.5371e+001 -2.7200e+000 34986 104496,104548,104522
 9.0000e-001 104695 -5.7093e+000  2.7815e+001 -6.2780e+000 34986 104741,104548,104496
 9.0000e-001 104672  4.1194e+000  2.6085e+001 -5.9847e+000 34986 104741,104496,104444
 9.0000e-001 104649 -1.0934e+001  2.7162e+001  1.9025e+000 34986 104813,104574,104548
 9.0000e-001 104626  5.7355e+000  3.1540e+001  1.6789e-001 34986 104444,104496,104470
 9.0000e-001 104767 -1.1455e+001  2.6805e+001 -2.9477e+000 34986 104813,104548,104741
 9.0000e-001 104790 -1.7996e+000  2.4713e+001 -4.3294e+000 34986 104600,104741,104444
 9.0000e-001 104839  9.8396e-001  3.0807e+001  3.8293e+000 34986 104600,104574,104813
 9.0000e-001 104862 -3.1739e+000  3.0351e+001 -3.5599e+000 34986 104600,104813,104741
 9.0000e-001 105014 -1.8947e+001  1.0757e+001 -2.3491e+000 34696 105169,105037,104913
 9.0000e-001 104991 -1.9426e+001  6.1838e+000 -8.5225e-001 34696 105169,104913,104887
 9.0000e-001 105063 -2.3764e+000  2.2509e+001  3.1074e+000 34696 104939,104913,105037
 9.0000e-001 105195 -2.1213e+001  1.1287e+001  1.3330e+000 34696 104965,105037,105169
 9.0000e-001 105218 -2.1424e+001  7.6351e+000  2.8556e+000 34696 104965,105169,104887
 9.0000e-001 105368 -1.0593e+001  2.3609e+001 -3.0233e+000 34384 105267,105319,105293
 9.0000e-001 105345 -6.7418e+000  3.1650e+001 -7.5626e-001 34384 105241,105319,105267
 9.0000e-001 105616 -9.5199e-001  2.5342e+001 -1.8621e+000 33730 105639,105417,105391
 9.0000e-001 105593 -2.3324e-001  2.3968e+001 -2.7102e+000 33730 105639,105391,105495
 9.0000e-001 105570 -1.9010e+000  3.3275e+001 -6.0395e+000 33730 105391,105521,105495
 9.0000e-001 105547 -6.1138e+000  1.8233e+001  1.0510e+001 33730 105417,105469,105443
 9.0000e-001 105665 -3.1204e-001  2.6438e+001 -1.1788e+000 33730 105469,105417,105639
 9.0000e-001 105688  1.0728e+000  2.4630e+001 -1.7124e+000 33730 105469,105639,105495
 9.0000e-001 105840  4.9324e+000  3.2490e+001 -1.9382e+000 33390 105713,105765,105739
 9.0000e-001 105817  4.2570e+000  3.2235e+001 -1.8863e+000 33390 105713,105791,105765
 9.0000e-001 106090 -1.0440e+001  1.8010e+001 -1.1540e+001 33043 106113,105943,105891
 9.0000e-001 106067 -1.6383e+001  2.2912e+001 -1.4447e+000 33043 106113,105891,105865
 9.0000e-001 106044  9.4363e-001  1.3769e+001 -2.5587e+000 33043 105891,105943,105917
 9.0000e-001 106021 -9.5833e+000  3.0339e+001 -4.2664e+000 33043 105865,105995,105969
 9.0000e-001 106139  2.3733e+000  3.5600e+001 -1.7230e+001 33043 105969,105943,106113
 9.0000e-001 106162 -1.1681e+001  2.9106e+001 -3.6951e+000 33043 105969,106113,105865
 9.0000e-001 106412  2.6527e+001  2.0880e+001  6.3130e-001 32539 106435,106291,106239
 9.0000e-001 106389  2.4557e+001  2.1195e+001 -7.1517e-001 32539 106187,106317,106291
 9.0000e-001 106366  2.3999e+001  2.8795e+001  1.7317e+001 32539 106435,106239,106213
 9.0000e-001 106343  3.0266e+001  2.2827e+001  1.8872e+000 32539 106239,106291,106265
 9.0000e-001 106461  1.6631e+001  1.7222e+001  6.6611e-001 32539 106187,106291,106435
 9.0000e-001 106484  4.7170e+000  2.0767e+001  1.6141e+001 32539 106187,106435,106213
 9.0000e-001 106685 -7.0318e+000  1.3908e+001 -4.9818e+000 31835 106535,106587,106561
 9.0000e-001 106662 -1.4641e+001  1.4651e+001  1.9647e+000 31835 106509,106587,106535
 9.0000e-001 106639 -2.9569e+000  3.2946e+001 -4.3816e+000 31835 106509,106613,106587
 9.0000e-001 106935  6.2992e+000  1.6264e+001 -4.6745e+000 31530 106736,106814,106788
 9.0000e-001 106912  1.0023e+001  1.7815e+001 -4.4208e+000 31530 106710,106814,106736
 9.0000e-001 106889  5.7556e+000  6.2716e+000 -1.4724e+000 31530 106736,106788,106762
 9.0000e-001 106866  1.7156e+001  2.2507e+001 -7.7927e+000 31530 106710,106840,106814
 9.0000e-001 107339 -1.1166e+001  2.6684e+000 -6.9423e-001 31026 107117,107221,107195
 9.0000e-001 107316 -7.3106e+000 -4.3473e+000  1.6391e+000 31026 107091,107221,107117
 9.0000e-001 107293 -5.6887e+000 -4.5076e+000  4.7556e-001 31026 107065,107221,107091
 9.0000e-001 107270 -1.1381e+001  1.6174e+001 -1.9062e+000 31026 107143,107195,107169
 9.0000e-001 107247 -1.7796e+001 -6.3270e-001 -2.2745e+000 31026 107117,107195,107143
 9.0000e-001 107538 -3.9057e+000  2.6596e+001 -7.3790e-001 30714 107561,107388,107362
 9.0000e-001 107515 -2.5560e+000  2.8826e+001 -1.3847e+000 30714 107561,107362,107466
 9.0000e-001 107492 -1.6288e+000  2.4145e+001 -3.1008e+000 30714 107414,107466,107440
 9.0000e-001 107587 -2.0626e+000  2.3156e+001 -5.9411e-001 30714 107414,107388,107561
 9.0000e-001 107610 -3.4073e-001  2.5921e+001 -1.3645e+000 30714 107414,107561,107466
 9.0000e-001 107990 -2.3379e+000  1.5385e+001  4.6900e+000 30260 108013,107846,107768
 9.0000e-001 107967 -6.3065e-001  1.9558e+001  1.5267e+000 30260 108013,107768,107716
 9.0000e-001 107944 -6.3854e+000  2.3042e+001  1.8127e+000 30260 107716,107768,107742
 9.0000e-001 107921  4.0587e+000  2.4944e+001  8.6491e+000 30260 107768,107846,107820
 9.0000e-001 107898  3.6048e+000  1.6861e+001  4.0808e+000 30260 107768,107820,107794
 9.0000e-001 108039  2.7877e-001  1.7554e+001  1.9865e+000 30260 107872,107846,108013
 9.0000e-001 108062  5.6240e-001  2.1430e+001 -9.2808e-001 30260 107872,108013,107716
 9.0000e-001 108261  9.0981e+000 -6.5533e+000  4.6540e+000 29870 108284,108085,108163
 9.0000e-001 108238  2.8026e+000  9.9029e-001 -8.4419e-001 29870 108085,108189,108163
 9.0000e-001 108215  4.3014e+001  7.6404e+000  7.9547e+000 29870 108284,108163,108137
 9.0000e-001 108310 -6.2564e+000  1.0262e+001  1.5902e+001 29870 108111,108085,108284
 9.0000e-001 108333  1.0382e+001  1.3989e+001  1.6779e+001 29870 108111,108284,108137
 9.0000e-001 108664  8.2354e+000  1.6480e+001 -9.9241e+000 29480 108465,108569,108543
 9.0000e-001 108641 -3.1286e+000  2.2577e+001  8.2122e+000 29480 108439,108569,108465
 9.0000e-001 108618 -2.4272e+000  7.7829e+000 -5.6215e+000 29480 108465,108543,108491
 9.0000e-001 108595  5.3843e+000  1.0477e+001 -3.6674e+000 29480 108491,108543,108517
 9.0000e-001 108993 -8.9760e-001  1.7916e+000  7.4136e-001 29076 108794,108872,108820
 9.0000e-001 108970 -1.1407e-001  1.8372e+000  1.7047e+000 29076 108768,108872,108794
 9.0000e-001 108947  1.4252e+000  1.8431e+000 -8.4964e-001 29076 108820,108872,108846
 9.0000e-001 108924 -7.6496e-001  3.7913e+000  9.7491e+000 29076 108768,108898,108872
 9.0000e-001 109420 -4.6198e+000  5.2657e+000 -5.9510e+000 28472 109123,109227,109201
 9.0000e-001 109397 -2.4477e+001  4.3322e+000 -4.5323e+000 28472 109123,109253,109227
 9.0000e-001 109374 -8.2498e+000  7.0697e-001 -4.3192e+000 28472 109123,109201,109175
 9.0000e-001 109351 -2.1328e+001  1.2906e+001  5.7684e-001 28472 109123,109279,109253
 9.0000e-001 109328 -3.0704e+000  3.2257e+000  1.9563e+000 28472 109123,109175,109149
 9.0000e-001 109305 -2.8078e+001  3.1124e+001 -6.3391e+000 28472 109097,109279,109123
 9.0000e-001 109749 -1.1060e+001  1.0899e+001 -9.1433e+000 28018 109772,109602,109576
 9.0000e-001 109726 -1.1204e+001  5.6579e+000 -7.4217e+000 28018 109772,109576,109550
 9.0000e-001 109703 -1.3135e+001 -1.0335e+000 -7.1580e+000 28018 109524,109628,109550
 9.0000e-001 109680 -1.1243e+001 -3.2360e+000 -3.2454e+000 28018 109524,109654,109628
 9.0000e-001 109798 -1.1855e+001  9.1871e+000 -3.7650e+000 28018 109628,109602,109772
 9.0000e-001 109821 -1.0827e+001  1.4968e+000 -3.9185e+000 28018 109628,109772,109550
 9.0000e-001 110199 -1.1320e+001  7.3243e+000 -8.0393e+000 27564 110029,110081,110055
 9.0000e-001 110176 -1.9386e+000  1.9756e+001 -2.9641e+000 27564 109925,110081,110029
 9.0000e-001 110153  1.4465e+000  6.3829e+000  3.3780e-001 27564 109925,110029,109977
 9.0000e-001 110130  5.8483e+000  8.7851e+000  3.8042e+000 27564 109977,110029,110003
 9.0000e-001 110107  6.6946e+000  1.5288e+001  3.5373e+000 27564 109925,109977,109951
 9.0000e-001 110398  1.1873e+001  2.2612e+001 -3.3954e+000 27003 110248,110326,110300
 9.0000e-001 110375  1.1517e+001  2.0877e+001 -3.3268e+000 27003 110222,110326,110248
 9.0000e-001 110352 -9.5178e+000  9.4410e+000 -1.0248e+001 27003 110248,110300,110274
 9.0000e-001 110646  2.5124e+001  1.7684e+000  9.3443e+000 26563 110669,110473,110421
 9.0000e-001 110623  2.0426e+001 -1.7928e+001  1.6963e+001 26563 110669,110421,110551
 9.0000e-001 110600  2.6959e+001  8.6585e+000  7.1151e+000 26563 110473,110525,110499
 9.0000e-001 110577  1.5013e+001 -1.4368e+001  2.3997e+001 26563 110421,110473,110447
 9.0000e-001 110695  2.2901e+001  7.4169e+000  6.7418e+000 26563 110525,110473,110669
 9.0000e-001 110718  2.6625e+001  7.0506e-001  1.4490e+001 26563 110525,110669,110551
 9.0000e-001 110870 -7.4973e+000  2.0176e+001 -7.6948e+000 26166 110769,110821,110795
 9.0000e-001 110847 -2.9670e+000  1.2324e+001 -4.2385e+000 26166 110743,110821,110769
 9.0000e-001 111380 -1.1704e+001  1.1162e+001  6.2111e+000 25712 111403,111109,111083
 9.0000e-001 111357 -7.1821e+000  1.4445e+001  4.7764e+000 25712 111403,111083,111239
 9.0000e-001 111334 -2.2328e+001  1.3193e+001  1.7767e+001 25712 111109,111161,111135
 9.0000e-001 111311 -1.1364e+001  1.2295e+001  3.9784e+000 25712 111057,111239,111083
 9.0000e-001 111288 -2.5359e+000  7.8150e+000  5.1595e+000 25712 111161,111239,111187
 9.0000e-001 111265  3.5526e+000  1.1414e+001  3.6414e+000 25712 111187,111239,111213
 9.0000e-001 111429 -7.1792e+000  6.7114e+000  7.7847e+000 25712 111161,111109,111403
 9.0000e-001 111452 -1.7326e+000  1.0407e+001  6.1593e+000 25712 111161,111403,111239
 9.0000e-001 111651 -4.3209e+000  1.6558e+001  1.3229e+000 25300 111674,111501,111475
 9.0000e-001 111628 -4.3228e+000  1.2568e+001  1.7302e+000 25300 111674,111475,111579
 9.0000e-001 111605 -5.3569e+000  1.7917e+001 -1.9893e+000 25300 111501,111553,111527
 9.0000e-001 111700 -4.9502e+000  1.9803e+001  1.1965e+000 25300 111553,111501,111674
 9.0000e-001 111723 -4.5119e+000  1.6486e+001  1.9081e+000 25300 111553,111674,111579
 9.0000e-001 111922  1.2217e+000  3.6244e+000 -9.9759e-001 24732 111798,111850,111824
 9.0000e-001 111899 -6.0931e-001  6.2374e+000 -4.4648e+000 24732 111772,111850,111798
 9.0000e-001 111876 -7.8638e-001  6.5382e+000 -4.2657e+000 24732 111746,111850,111772
 9.0000e-001 112255  7.0199e+000  3.8936e+001 -8.1639e+000 24142 112056,112108,112082
 9.0000e-001 112232  1.0819e+001  3.5715e+001 -3.5502e+000 24142 112056,112134,112108
 9.0000e-001 112209 -9.0113e-001  1.9286e+001  1.5634e+000 24142 112056,112160,112134
 9.0000e-001 112186  7.7853e+000  1.8665e+001 -2.3722e-001 24142 112030,112160,112056
 9.0000e-001 112601 -1.7436e+001  1.4748e+001  2.6702e+001 23852 112624,112382,112356
 9.0000e-001 112578 -3.4560e+001  1.4157e+001  1.1372e+001 23852 112696,112624,112356
 9.0000e-001 112555 -2.8251e+001  9.2084e+000 -1.4045e+000 23852 112696,112356,112304
 9.0000e-001 112532 -2.6251e+001  2.0314e+000 -9.2250e-001 23852 112304,112356,112330
 9.0000e-001 112509  1.0675e+001  3.7904e+001  1.4294e+001 23852 112278,112460,112304
 9.0000e-001 112486  7.1597e+001  2.4448e+001  9.0066e+000 23852 112382,112434,112408
 9.0000e-001 112650  4.8936e+001  2.9073e+001  3.7519e+001 23852 112434,112382,112624
 9.0000e-001 112673 -1.0359e+001  1.1673e+000  2.2427e+001 23852 112434,112624,112460
 9.0000e-001 112722 -1.1924e+001  2.6162e+001  1.9035e+001 23852 112460,112624,112696
 9.0000e-001 112745 -1.0563e+001  1.5418e+001  5.1810e+000 23852 112460,112696,112304
 9.0000e-001 113015 -2.9500e+001  3.4546e+001 -9.0884e+000 23490 112842,112894,112868
 9.0000e-001 112992 -2.3193e+001  1.1946e+001 -8.4884e+000 23490 112816,112894,112842
 9.0000e-001 112969 -2.0220e+001  1.3378e+001 -2.6448e+000 23490 112790,112894,112816
 9.0000e-001 112946 -2.5706e+001  2.9541e-001 -1.8909e+000 23490 112790,112920,112894
 9.0000e-001 113348 -5.1100e+000  1.3499e+001 -7.4636e+000 22970 113175,113253,113227
 9.0000e-001 113325  1.0876e+000  8.6082e+000 -5.6533e+000 22970 113149,113253,113175
 9.0000e-001 113302 -5.6433e+000  3.2443e+000 -1.6352e+001 22970 113175,113227,113201
 9.0000e-001 113279  3.6455e+000  1.2776e+001 -4.0189e+000 22970 113123,113253,113149
 9.0000e-001 113645 -1.1137e+001  5.2067e+000 -2.4426e+000 22366 113423,113527,113449
 9.0000e-001 113622 -1.4637e+001 -2.9070e+000 -4.7505e+000 22366 113371,113527,113423
 9.0000e-001 113599 -1.2048e+001  3.6814e+000  1.3081e-001 22366 113449,113527,113501
 9.0000e-001 113576 -8.2548e+000  2.7270e+000  4.3263e+000 22366 113449,113501,113475
 9.0000e-001 113553 -4.5117e+000  1.6303e+001 -1.0151e+001 22366 113371,113423,113397
 9.0000e-001 113893 -7.2335e+000 -6.2822e-001 -9.5818e+000 21912 113916,113746,113720
 9.0000e-001 113870 -7.2155e+000  4.0398e+000 -8.9268e+000 21912 113916,113720,113668
 9.0000e-001 113847 -1.3638e+001  4.8407e+000 -1.2606e+001 21912 113988,113798,113772
 9.0000e-001 113824 -5.4431e+000  1.0495e+001 -1.5554e+001 21912 113668,113720,113694
 9.0000e-001 113942 -6.1371e+000  3.1338e+000 -1.0363e+001 21912 113772,113746,113916
 9.0000e-001 113965 -9.4054e+000  1.7105e+000 -1.0534e+001 21912 113988,113772,113916
 9.0000e-001 114014 -9.4979e+000  9.9063e+000 -1.0432e+001 21912 113668,113798,113988
 9.0000e-001 114037 -6.2820e+000  6.8897e+000 -9.1733e+000 21912 113668,113988,113916
 9.0000e-001 114287  5.7525e+000  1.1075e+001 -1.2342e+000 21408 114088,114140,114114
 9.0000e-001 114264  7.7644e+000  1.1517e+001 -2.9140e+000 21408 114310,114140,114088
 9.0000e-001 114241  7.0804e+000  1.4139e+001 -7.2743e+000 21408 114310,114088,114192
 9.0000e-001 114218  5.6795e+000  1.5077e+001 -6.8666e+000 21408 114062,114192,114088
 9.0000e-001 114336  7.5551e+000  4.9086e+000 -2.5477e+000 21408 114166,114140,114310
 9.0000e-001 114359  7.5316e+000  9.9075e+000 -6.1033e+000 21408 114166,114310,114192
 9.0000e-001 114609  2.3996e+001  2.0721e+001  6.1135e+000 21018 114632,114488,114436
 9.0000e-001 114586  2.1152e+001  1.7793e+001  3.3481e+000 21018 114632,114436,114410
 9.0000e-001 114563  2.9505e+001  1.3673e+001  4.4618e+000 21018 114384,114514,114410
 9.0000e-001 114540  6.3931e+000  1.7261e+001  4.4007e+000 21018 114436,114488,114462
 9.0000e-001 114658  2.8426e+001  2.0732e+001  9.5955e+000 21018 114514,114488,114632
 9.0000e-001 114681  2.4768e+001  1.7687e+001  6.8636e+000 21018 114514,114632,114410
 9.0000e-001 114882  3.4302e+001  2.8870e+001  7.9566e+000 20614 114732,114784,114758
 9.0000e-001 114859  1.9589e+001  2.6844e+001  2.2730e+000 20614 114732,114810,114784
 9.0000e-001 114836  1.6438e+001  2.1986e+001  4.6294e-001 20614 114706,114810,114732
 9.0000e-001 115132 -5.4106e+000  1.7600e+001 -3.0317e+000 20110 114907,115011,114933
 9.0000e-001 115109  3.2243e+000  2.2983e+001 -5.8187e+000 20110 114907,115037,115011
 9.0000e-001 115086 -3.6548e+000  1.8465e+001 -2.6278e+000 20110 114933,115011,114985
 9.0000e-001 115063 -3.3849e+000  2.5321e+001 -9.1004e+000 20110 114933,114985,114959
 9.0000e-001 115284 -8.0258e+000  1.8256e+001 -1.1817e+000 19456 115378,115307,115157
 9.0000e-001 115261 -1.0536e+001  2.1761e+001 -2.1403e+000 19456 115378,115157,115235
 9.0000e-001 115333 -8.1584e+000  1.8781e+001 -9.2367e-001 19456 115183,115157,115307
 9.0000e-001 115404 -9.8419e+000  1.2608e+001 -1.9276e+000 19456 115209,115307,115378
 9.0000e-001 115427 -1.1873e+001  1.6895e+001 -3.1836e+000 19456 115209,115378,115235
 9.0000e-001 115677 -1.1455e+001  1.6783e+001  3.3125e-001 19002 115504,115582,115530
 9.0000e-001 115654 -8.0288e+000  1.7421e+001  5.8101e-001 19002 115478,115582,115504
 9.0000e-001 115631 -1.1560e+001  1.6692e+001  6.3565e+000 19002 115452,115582,115478
 9.0000e-001 115608  6.0762e-001  1.7369e+001 -1.0664e+001 19002 115530,115582,115556
 9.0000e-001 115998  5.8848e+000  1.9385e+001 -2.9243e+000 18712 115802,115880,115854
 9.0000e-001 115975  1.1939e+001  2.8024e+001  2.4978e-001 18712 115724,115880,115802
 9.0000e-001 115952  1.1967e+001  1.9562e+001 -4.1065e-001 18712 115724,115802,115776
 9.0000e-001 115929  1.3667e+001  2.0272e+001  2.9718e+000 18712 115724,115776,115750
 9.0000e-001 115906  9.7032e+000  2.0989e+001 -2.8334e+000 18712 115802,115854,115828
 9.0000e-001 116270 -3.1277e+001 -1.3564e+001 -1.4932e+000 18308 116045,116123,116071
 9.0000e-001 116247 -3.2176e+001 -2.0635e+001  8.1512e+000 18308 116045,116175,116123
 9.0000e-001 116224 -5.3075e+001 -3.4513e+000  4.8986e+000 18308 116123,116175,116149
 9.0000e-001 116201 -1.2483e+001 -6.4802e+000 -1.6537e+000 18308 116071,116123,116097
 9.0000e-001 116422 -9.3595e+000  1.6013e+001 -1.1713e-001 17996 116321,116373,116347
 9.0000e-001 116399 -7.5586e+000  1.7509e+001  8.7771e-001 17996 116295,116373,116321
 9.0000e-001 116574  1.9969e+001  5.3777e+000  6.2905e+000 17392 116473,116525,116499
 9.0000e-001 116551  4.0488e+001  2.3386e+001  1.4216e+001 17392 116447,116525,116473
 9.0000e-001 116797  2.5278e+000 -3.6691e-001 -7.2363e-001 16938 116621,116699,116673
 9.0000e-001 116774 -1.2690e+000 -1.8306e+000  1.5595e-001 16938 116621,116725,116699
 9.0000e-001 116751  3.4237e+000  1.7240e+000 -1.8392e-001 16938 116621,116673,116647
 9.0000e-001 116998  3.5641e+001  4.1621e+000  6.2850e+000 16434 117021,116874,116848
 9.0000e-001 116975 -1.4334e+001 -5.8301e+000 -5.6846e+000 16434 117021,116848,116822
 9.0000e-001 116952  5.6425e+001  2.9509e+001  2.0613e+001 16434 116874,116926,116900
 9.0000e-001 117047  5.4253e+001 -2.8332e+000  9.5591e+000 16434 116926,116874,117021
 9.0000e-001 117070  3.7931e+001  1.0412e+001 -2.4929e+000 16434 116926,117021,116822
 9.0000e-001 117293  5.9146e+000  3.9125e+000  1.0631e+000 16070 117117,117169,117143
 9.0000e-001 117270 -9.3559e+000 -7.7769e-001 -3.5012e-001 16070 117117,117221,117169
 9.0000e-001 117247 -1.2146e+001 -2.5909e+000 -1.6459e+000 16070 117169,117221,117195
 9.0000e-001 117445 -3.5057e+001 -1.7358e+001 -2.3991e+000 15645 117318,117370,117344
 9.0000e-001 117422 -4.1500e+001 -2.1074e+001  2.3654e-001 15645 117318,117396,117370
 9.0000e-001 117548  7.6140e+000  1.4082e+001  8.0903e+000 417 117470,117522,117496
 1.0000e+000 70760  9.8243e+000 -5.3367e+000 -1.6671e+000 70380 70633,70685,70659
 1.0000e+000 70737 -6.0736e+000  1.2223e+000 -5.9213e+000 70380 70633,70711,70685
 1.0000e+000 70861 -1.3744e-001 -2.2310e-001  2.0478e-001 70068 70783,70835,70809
 1.0000e+000 71180 -5.3433e-002  6.7473e+000 -3.8227e-001 69870 70932,70984,70958
 1.0000e+000 71157 -1.4232e+000  6.1512e+000 -4.7072e-001 69870 70932,71010,70984
 1.0000e+000 71134 -3.5148e+000  2.9652e+000 -1.3868e+000 69870 70932,71036,71010
 1.0000e+000 71111 -2.4431e+000  3.1962e+000  4.0904e+000 69870 70932,71062,71036
 1.0000e+000 71088 -2.9692e-001  5.2971e+000  6.1602e-001 69870 70906,71062,70932
 1.0000e+000 71428  2.1908e+000  2.3644e+001  8.3137e+000 69694 71451,71281,71255
 1.0000e+000 71405  7.9532e+000  1.9880e+001  9.4025e+000 69694 71523,71451,71255
 1.0000e+000 71382  1.1388e+001  2.5306e+001  1.3092e+001 69694 71523,71255,71229
 1.0000e+000 71359  3.8154e+000  1.4961e+001  7.2248e+000 69694 71595,71333,71307
 1.0000e+000 71477  7.7501e-002  2.0412e+001  9.4133e+000 69694 71307,71281,71451
 1.0000e+000 71500  2.2533e+000  1.8340e+001  4.5354e+000 69694 71595,71307,71451
 1.0000e+000 71549  2.4248e+000  2.0884e+001  4.5123e+000 69694 71203,71451,71523
 1.0000e+000 71572  2.6004e+000  2.1274e+001  7.5498e+000 69694 71203,71523,71229
 1.0000e+000 71621  3.0603e+000  9.3796e+000  5.5734e+000 69694 71203,71333,71595
 1.0000e+000 71644  9.4010e-001  1.2354e+001  4.3133e+000 69694 71203,71595,71451
 1.0000e+000 71745 -1.1672e-001 -3.8744e-001 -1.5058e-001 69382 71667,71719,71693
 1.0000e+000 72100 -3.3987e+000  4.7827e+000  6.9493e-003 69184 71875,71979,71901
 1.0000e+000 72077  6.8029e-001  3.0831e+000  2.2298e+000 69184 71875,72005,71979
 1.0000e+000 72054 -1.3320e+000 -1.3224e+000 -3.1206e+000 69184 71901,71979,71953
 1.0000e+000 72031  3.8308e-001  3.0515e+000 -2.4847e+000 69184 71901,71953,71927
 1.0000e+000 72250 -4.7085e-001  2.9567e+000  5.4188e-001 68986 72149,72201,72175
 1.0000e+000 72227 -1.6351e+000  3.7823e+000  1.9016e-001 68986 72123,72201,72149
 1.0000e+000 72547 -3.7861e-001  3.4544e+000  3.1738e+000 68582 72570,72403,72377
 1.0000e+000 72524 -5.5987e-002  2.6808e+000  2.7750e+000 68582 72570,72377,72351
 1.0000e+000 72501 -3.4369e-001  6.6253e+000  1.2291e+000 68582 72642,72299,72429
 1.0000e+000 72478  1.5025e+000  4.5823e+000  1.1906e-001 68582 72273,72429,72299
 1.0000e+000 72455  3.5960e-001  1.4623e+001  6.9632e+000 68582 72299,72351,72325
 1.0000e+000 72596  1.4382e-001  3.3553e+000  2.5473e+000 68582 72429,72403,72570
 1.0000e+000 72619  9.4547e-001  5.1763e+000  1.7805e+000 68582 72642,72429,72570
 1.0000e+000 72668 -1.5263e+000  5.2696e+000  2.6503e+000 68582 72351,72299,72642
 1.0000e+000 72691 -4.9053e-001  3.1623e+000  3.1173e+000 68582 72351,72642,72570
 1.0000e+000 73095 -1.1422e+001  3.6997e+000 -5.5767e-002 68384 72873,72925,72899
 1.0000e+000 73072 -1.3227e+001  2.4255e+001  8.7838e+000 68384 72847,72925,72873
 1.0000e+000 73049 -5.4681e+000  8.3244e+000  2.2065e+001 68384 72847,72951,72925
 1.0000e+000 73026  1.4675e+001  2.1173e-001  1.0561e+001 68384 72821,72951,72847
 1.0000e+000 73003  8.6083e-001  1.3707e+001 -7.0129e+000 68384 72821,72977,72951
 1.0000e+000 73552  1.3087e+000  1.6532e+001  4.0840e+000 68044 73304,73434,73408
 1.0000e+000 73529  1.1545e+000  1.1156e+001 -2.4073e+000 68044 73278,73434,73304
 1.0000e+000 73506  1.9874e+001  2.0027e+000  6.3476e+000 68044 73356,73408,73382
 1.0000e+000 73483  2.2500e+001 -1.3161e+000  4.9079e-001 68044 73304,73408,73356
 1.0000e+000 73460  9.3954e+000  3.4219e+000 -5.7971e+000 68044 73304,73356,73330
 1.0000e+000 73871 -4.2158e+000  1.5704e+001 -6.6760e+000 67846 73675,73727,73701
 1.0000e+000 73848  2.0050e+000  1.3689e+001 -7.1300e+000 67846 73649,73727,73675
 1.0000e+000 73825 -3.4304e+000 -4.6620e-001 -9.2812e+000 67846 73623,73727,73649
 1.0000e+000 73802  6.6493e+000  4.1589e+000 -5.5059e+000 67846 73623,73753,73727
 1.0000e+000 73779  1.6164e+000 -1.9252e-001  1.9146e-001 67846 73597,73753,73623
 1.0000e+000 74021  1.6285e-001 -1.3431e+000  2.1373e-001 67598 73920,73972,73946
 1.0000e+000 73998  8.9761e-001  5.1493e-001  2.0605e-001 67598 73894,73972,73920
 1.0000e+000 74271  3.0374e-001  7.6674e-001  1.0407e+000 67286 74072,74176,74150
 1.0000e+000 74248  1.0738e-001  2.0982e+000  9.8775e-001 67286 74046,74176,74072
 1.0000e+000 74225  8.6466e-001  1.1516e+000  1.4219e+000 67286 74072,74150,74098
 1.0000e+000 74202  6.9152e-001  9.5038e-001  1.0325e+000 67286 74098,74150,74124
 1.0000e+000 74374 -6.6205e-001  9.2537e+000  6.9839e+000 67088 74296,74348,74322
 1.0000e+000 74646 -5.5785e+000  1.3822e+001 -6.1664e+000 66890 74421,74525,74447
 1.0000e+000 74623 -2.8701e-001  1.7163e+001 -1.7914e+000 66890 74421,74551,74525
 1.0000e+000 74600  6.2441e-001  2.4434e+001 -3.4362e+000 66890 74447,74525,74473
 1.0000e+000 74577 -1.0039e+001  1.8031e+001  1.2630e+000 66890 74473,74525,74499
 1.0000e+000 75254 -1.8057e+000  4.2561e+000 -2.5794e+000 66528 74885,75067,75041
 1.0000e+000 75231  4.1799e+000  8.1310e+000 -8.8437e-001 66528 74859,75067,74885
 1.0000e+000 75208  1.7824e+000  1.3308e+001 -7.4794e-001 66528 74937,75015,74963
 1.0000e+000 75185 -3.3110e+000  3.0723e+000 -2.5451e+000 66528 74911,75015,74937
 1.0000e+000 75162 -1.3174e+000  7.2569e+000 -6.7592e-001 66528 74911,75041,75015
 1.0000e+000 75139 -1.5555e+000  7.5559e+000 -9.4485e-001 66528 74885,75041,74911
 1.0000e+000 75116 -3.6416e+000  1.8025e+000 -3.7518e+000 66528 74833,75067,74859
 1.0000e+000 75093 -4.1824e+000  1.1117e+001  2.1945e+000 66528 74963,75015,74989
 1.0000e+000 75453 -3.8208e+000  2.5844e+001 -4.3786e+000 66238 75303,75381,75355
 1.0000e+000 75430  4.3102e+000  1.1996e+001 -6.0291e+000 66238 75277,75381,75303
 1.0000e+000 75407 -3.3035e+000  7.1459e+000 -9.1730e-001 66238 75303,75355,75329
 1.0000e+000 75701  6.9581e+000  3.2474e+001  4.0112e+000 65834 75528,75606,75580
 1.0000e+000 75678 -1.9382e+000  3.5053e+001  4.5712e-002 65834 75502,75606,75528
 1.0000e+000 75655  7.0012e+000  4.0629e+001  1.2283e+001 65834 75528,75580,75554
 1.0000e+000 75632  9.4644e+000  4.1093e+001  3.4717e+000 65834 75476,75606,75502
 1.0000e+000 75902 -1.7579e+000  1.4123e+001 -2.8564e+000 65636 75726,75804,75752
 1.0000e+000 75879  7.3063e+000  1.9186e+001 -5.4902e+000 65636 75726,75830,75804
 1.0000e+000 75856  1.8557e+001  1.6710e+001 -4.5860e+000 65636 75752,75804,75778
 1.0000e+000 76103  2.5804e+001  2.2840e+001 -7.0135e+000 65296 76126,75979,75953
 1.0000e+000 76080  2.4825e+001  3.3467e+001 -9.3779e-001 65296 76126,75953,75927
 1.0000e+000 76057  3.8716e+001  5.7958e+001 -1.3004e+001 65296 76198,76005,75979
 1.0000e+000 76152  3.3744e+001  4.2294e+001 -8.4026e+000 65296 76198,75979,76126
 1.0000e+000 76175  2.4759e+001  2.9401e+001 -2.6047e+000 65296 76031,76126,75927
 1.0000e+000 76224  3.1549e+001  3.4969e+001 -5.4535e+000 65296 76031,76005,76198
 1.0000e+000 76247  3.1252e+001  2.9496e+001 -2.5028e-001 65296 76031,76198,76126
 1.0000e+000 76602  3.1009e+000  5.9981e+000  5.2235e-001 64892 76377,76481,76403
 1.0000e+000 76579  3.0472e+000  5.2258e+000  7.7247e-002 64892 76377,76507,76481
 1.0000e+000 76556  5.6638e+000  1.0453e+001 -6.2530e-001 64892 76403,76481,76429
 1.0000e+000 76533 -5.0586e+000  6.9178e+000 -1.1275e+000 64892 76429,76481,76455
 1.0000e+000 76801 -1.4510e+001  1.1951e+001  2.7070e+000 64438 76677,76729,76703
 1.0000e+000 76778 -4.4609e+000  3.7812e+001  3.3604e+000 64438 76651,76729,76677
 1.0000e+000 76755 -2.8841e+001  1.9665e+001 -1.2947e+001 64438 76625,76729,76651
 1.0000e+000 77230  1.0161e+001  9.9556e+000 -2.3769e+000 63920 77253,76959,76933
 1.0000e+000 77207  5.9691e+000  7.5867e+000 -1.4028e+000 63920 77253,76933,77063
 1.0000e+000 77184  3.8785e+000  1.0373e+001 -4.6209e+000 63920 76959,77037,76985
 1.0000e+000 77161  3.7862e+000  7.0611e+000 -9.7690e-001 63920 76907,77063,76933
 1.0000e+000 77138 -1.5274e+000  1.4058e+001 -4.8170e+000 63920 76985,77037,77011
 1.0000e+000 77115  2.5615e-001  6.5081e+000  2.1402e-001 63920 76907,77089,77063
 1.0000e+000 77279  4.8705e+000  1.2238e+001 -2.6193e+000 63920 77037,76959,77253
 1.0000e+000 77302  1.0178e+000  1.0175e+001 -1.8040e+000 63920 77037,77253,77063
 1.0000e+000 77680 -8.9373e+000  1.0004e+001  1.7725e+001 63316 77703,77484,77432
 1.0000e+000 77657 -1.2066e+001  4.0646e+000  1.2721e+001 63316 77703,77432,77406
 1.0000e+000 77634 -2.4413e+001 -4.3992e+000  1.0911e+001 63316 77406,77536,77510
 1.0000e+000 77611  7.9042e+000  8.5518e+000  2.3979e+001 63316 77432,77484,77458
 1.0000e+000 77588 -5.2313e+000  6.8775e+000  4.7620e-001 63316 77406,77562,77536
 1.0000e+000 77729 -6.9814e+000 -1.5737e-001  1.4712e+001 63316 77510,77484,77703
 1.0000e+000 77752 -1.0477e+001 -2.1537e+000  8.7256e+000 63316 77510,77703,77406
 1.0000e+000 78000 -2.8472e+001  5.2801e+000  1.3041e+000 62812 77801,77853,77827
 1.0000e+000 77977 -1.8872e+001  7.2802e+000 -3.4289e+000 62812 77801,77879,77853
 1.0000e+000 77954 -2.5691e+001  5.3959e+000 -6.4358e+000 62812 77801,77905,77879
 1.0000e+000 77931 -1.0772e+001  5.6409e+000 -7.7320e+000 62812 77775,77905,77801
 1.0000e+000 78380 -1.2844e+001 -4.6580e+000 -8.3111e-001 62350 78184,78262,78236
 1.0000e+000 78357 -8.9872e+000 -4.6139e+000  3.4043e-001 62350 78132,78262,78184
 1.0000e+000 78334 -6.5735e+000 -3.4809e+000  1.7412e+000 62350 78106,78262,78132
 1.0000e+000 78311 -1.0188e+001 -3.4432e+000  1.6037e+000 62350 78132,78184,78158
 1.0000e+000 78288 -1.1953e+001 -1.4524e+000 -2.8837e+000 62350 78184,78236,78210
 1.0000e+000 78837  7.6972e+000  1.4187e+001  2.7110e+000 61946 78615,78667,78641
 1.0000e+000 78814  3.0748e+000  8.6265e+000 -2.9498e+000 61946 78589,78667,78615
 1.0000e+000 78791  7.5013e+000  7.9063e-001  1.1866e+000 61946 78589,78719,78667
 1.0000e+000 78768  1.4393e+001  7.4404e+000 -3.2964e+000 61946 78667,78719,78693
 1.0000e+000 78745  7.3392e+000  6.2836e+000  4.0890e+000 61946 78563,78719,78589
 1.0000e+000 78987  7.6972e+000  9.9733e-001 -1.4348e+000 61335 79010,78886,78860
 1.0000e+000 78964  1.4827e+000  5.4122e+000  7.0547e-001 61335 79010,78860,78938
 1.0000e+000 79036  8.6240e-001 -1.5133e+000  1.5740e+000 61335 79082,79010,78912
 1.0000e+000 79059 -4.4461e+000  6.8121e-001 -1.3406e+000 61335 78912,79010,78938
 1.0000e+000 79108  1.3155e+000  4.4438e-001 -2.0387e+000 61335 78886,79010,79082
 1.0000e+000 79437 -1.2872e+001  5.5171e+000 -9.7347e+000 60888 79460,79238,79212
 1.0000e+000 79414 -1.5146e+001  4.6617e+000 -4.5098e+000 60888 79460,79212,79342
 1.0000e+000 79391 -1.9390e+001  3.8669e+000 -9.0198e+000 60888 79532,79264,79238
 1.0000e+000 79368 -2.0572e+001  2.4686e+001  5.0344e+000 60888 79264,79316,79290
 1.0000e+000 79486 -1.8736e+001  3.1940e+000 -8.4445e+000 60888 79532,79238,79460
 1.0000e+000 79509 -1.9466e+001  4.0343e+000 -4.0075e+000 60888 79316,79460,79342
 1.0000e+000 79558 -2.0581e+001  3.0827e+000 -5.9214e+000 60888 79316,79264,79532
 1.0000e+000 79581 -1.5269e+001  4.5385e+000 -5.9002e+000 60888 79316,79532,79460
 1.0000e+000 79878 -2.7717e+001 -7.0888e+000 -2.8087e+000 60484 79682,79760,79734
 1.0000e+000 79855 -3.6314e+001 -2.1313e+001  4.6586e+000 60484 79656,79760,79682
 1.0000e+000 79832 -3.0842e+001 -1.8157e+001  6.0567e+000 60484 79604,79760,79656
 1.0000e+000 79809 -3.0053e+001 -3.0593e+001  9.4469e+000 60484 79604,79656,79630
 1.0000e+000 79786 -2.0896e+001 -2.4627e+000 -5.4530e-001 60484 79682,79734,79708
 1.0000e+000 80101 -2.5837e+000  1.4584e+000 -3.8655e-001 60022 79951,80029,80003
 1.0000e+000 80078 -1.5734e+001 -1.1216e+000 -1.1526e+000 60022 79925,80029,79951
 1.0000e+000 80055 -1.4580e+001 -3.0435e+000  9.4483e-001 60022 79951,80003,79977
 1.0000e+000 80351  5.4334e+000  1.7814e+001  6.2056e+000 59625 80152,80256,80204
 1.0000e+000 80328  4.4205e+000  2.6424e+001  1.1291e+001 59625 80126,80256,80152
 1.0000e+000 80305  1.1478e+001  3.2566e+001  6.8962e+000 59625 80204,80256,80230
 1.0000e+000 80282  1.6585e+001  2.2036e+001  3.6321e+000 59625 80152,80204,80178
 1.0000e+000 80552  2.4362e+001  1.9034e+001 -9.1494e+000 59121 80575,80402,80376
 1.0000e+000 80529  2.5079e+001  5.1026e+000 -1.0994e+001 59121 80575,80376,80480
 1.0000e+000 80506  3.9382e+001  1.7442e+001  9.3020e+000 59121 80428,80480,80454
 1.0000e+000 80601  2.3396e+001  2.7868e+001 -8.5772e-001 59121 80428,80402,80575
 1.0000e+000 80624  2.4377e+001  1.4834e+001 -3.0138e+000 59121 80428,80575,80480
 1.0000e+000 81183  1.3179e+001  1.1535e+001  1.8232e+000 58553 81206,80863,80837
 1.0000e+000 81160  1.0757e+001  1.3865e+001  1.6698e+000 58553 81350,81206,80837
 1.0000e+000 81137  1.0678e+001  9.8685e+000  3.0911e+000 58553 81278,80915,80863
 1.0000e+000 81114  4.9378e+000  1.1030e+001 -1.4798e+000 58553 81350,80837,80811
 1.0000e+000 81091  1.3265e+001 -2.0096e+000  4.0226e+000 58553 81422,80967,80941
 1.0000e+000 81068  1.4228e+001  3.1905e-001  2.1732e+000 58553 80967,81019,80993
 1.0000e+000 81045  1.5125e+001  8.5698e+000  8.5188e-001 58553 80863,80915,80889
 1.0000e+000 81232  1.0517e+001  1.0651e+001  2.6106e+000 58553 81278,80863,81206
 1.0000e+000 81255  1.1810e+001  5.8909e+000  1.7010e+000 58553 81422,80941,81206
 1.0000e+000 81304  1.0617e+001  7.8762e+000  3.7241e+000 58553 80941,80915,81278
 1.0000e+000 81327  1.1219e+001  9.2134e+000  3.0014e+000 58553 80941,81278,81206
 1.0000e+000 81376  7.3985e+000  8.3946e+000 -1.8976e+000 58553 81019,81206,81350
 1.0000e+000 81399  6.6394e+000  8.2953e+000 -4.4682e+000 58553 81019,81350,80811
 1.0000e+000 81448  1.6586e+001  5.0564e+000  1.2211e+000 58553 81019,80967,81422
 1.0000e+000 81471  1.3894e+001  1.0053e+001 -1.4377e+000 58553 81019,81422,81206
 1.0000e+000 81768 -3.4746e+000  9.5665e+000 -1.6594e+000 57877 81791,81572,81520
 1.0000e+000 81745  1.1733e+000  1.1699e+001 -6.1616e+000 57877 81791,81520,81494
 1.0000e+000 81722 -8.6308e+000  9.6879e+000 -9.8490e-001 57877 81863,81650,81598
 1.0000e+000 81699 -6.8662e+000  1.2609e+001 -5.0444e+000 57877 81598,81650,81624
 1.0000e+000 81676 -7.8819e+000  1.0677e+001 -6.6318e-001 57877 81520,81572,81546
 1.0000e+000 81817 -4.1525e+000  6.6470e+000 -9.7088e-001 57877 81598,81572,81791
 1.0000e+000 81840 -7.2992e+000  9.6084e+000 -1.9626e+000 57877 81863,81598,81791
 1.0000e+000 81889 -4.9792e+000  3.2434e+000  6.0499e-001 57877 81494,81650,81863
 1.0000e+000 81912 -7.3346e-001  6.6770e+000 -1.6794e+000 57877 81494,81863,81791
 1.0000e+000 82160  5.5780e+000  1.8312e+001  8.5022e+000 57473 81935,82039,82013
 1.0000e+000 82137  2.2277e+001  2.3954e+001  5.9046e+000 57473 81935,82065,82039
 1.0000e+000 82114  5.9339e+000  2.1382e+001  9.3870e+000 57473 81935,82013,81961
 1.0000e+000 82091  9.3438e+000  1.4869e+001  1.1374e+001 57473 81961,82013,81987
 1.0000e+000 82719  1.9000e+000  6.4331e+000  2.3665e+000 56962 82814,82742,82425
 1.0000e+000 82696  1.5226e+000  1.4877e+000  5.6113e+000 56962 82742,82347,82555
 1.0000e+000 82673  3.3669e+000  9.1349e+000  1.4293e+000 56962 82814,82425,82399
 1.0000e+000 82650 -4.7603e+000  8.1191e+000 -1.0749e+000 56962 82425,82477,82451
 1.0000e+000 82627 -3.9358e-002  1.1539e+001  2.5031e+000 56962 82425,82529,82477
 1.0000e+000 82604 -1.9547e+000  1.9677e+001  7.0421e+000 56962 82477,82529,82503
 1.0000e+000 82581  4.1070e+000  6.7621e-001  1.3719e+000 56962 82347,82399,82373
 1.0000e+000 82768 -2.6040e-001  4.4500e+000  4.1425e+000 56962 82529,82425,82742
 1.0000e+000 82791  5.3088e+000  9.5897e+000  6.6096e+000 56962 82529,82742,82555
 1.0000e+000 82840  3.8337e+000  3.1675e+000  3.1482e+000 56962 82347,82742,82814
 1.0000e+000 82863  4.2257e+000  4.9601e+000  2.6262e+000 56962 82347,82814,82399
 1.0000e+000 83467 -1.3461e+001  8.3851e+000 -1.6031e+001 56300 83124,83176,83150
 1.0000e+000 83444 -1.2729e+000  6.3444e+000 -5.0086e+000 56300 83490,83176,83124
 1.0000e+000 83421  3.2143e+000  8.7804e+000 -3.9947e+000 56300 83490,83124,83280
 1.0000e+000 83398  7.0912e+000  1.6947e+001 -3.2941e+000 56300 83202,83280,83254
 1.0000e+000 83375  4.9170e+000  1.3800e+001 -4.4551e+000 56300 83046,83280,83124
 1.0000e+000 83352  4.1333e+000  1.4114e+001 -3.8437e+000 56300 83046,83124,83098
 1.0000e+000 83329  5.4523e+000  5.2612e+000 -3.3945e+000 56300 83202,83254,83228
 1.0000e+000 83306  9.7392e+000  2.3517e+001 -1.4335e+000 56300 83046,83098,83072
 1.0000e+000 83516 -5.2281e+000  9.6122e+000 -1.5192e+000 56300 83202,83176,83490
 1.0000e+000 83539 -6.5360e-001  1.1706e+001 -1.0188e+000 56300 83202,83490,83280
 1.0000e+000 83787 -9.4270e+000  1.0477e+001 -1.3867e+000 55960 83588,83692,83666
 1.0000e+000 83764 -1.5365e+001  3.1714e+001  8.1972e+000 55960 83562,83692,83588
 1.0000e+000 83741  5.7628e+000  1.1825e+001  1.7512e+000 55960 83588,83666,83614
 1.0000e+000 83718 -7.9459e+000  1.0832e+001  1.4688e+000 55960 83614,83666,83640
 1.0000e+000 83937  2.2469e+000 -7.4873e-001 -3.7996e+000 55499 83810,83862,83836
 1.0000e+000 83914 -7.9629e+000  1.9259e+000 -2.8791e+000 55499 83810,83888,83862
 1.0000e+000 84138 -1.9831e+000 -3.6811e+000 -2.6457e+000 55152 83988,84066,84040
 1.0000e+000 84115  1.1912e+001  2.9853e+001 -1.4588e+000 55152 83962,84066,83988
 1.0000e+000 84092  1.1527e+001  2.3563e+001  6.3054e+000 55152 83988,84040,84014
 1.0000e+000 84471 -9.0419e+000  2.4249e+001  1.6743e+001 54648 84324,84376,84350
 1.0000e+000 84448 -1.0777e+001  1.3732e+000  1.6786e+001 54648 84272,84376,84324
 1.0000e+000 84425 -1.7353e+001 -2.0025e+001  1.7941e+001 54648 84246,84376,84272
 1.0000e+000 84402 -2.0372e+001 -2.1690e+000  1.8863e+001 54648 84272,84324,84298
 1.0000e+000 84849 -2.8207e+000  6.8753e+000 -1.5030e+000 53922 84627,84731,84705
 1.0000e+000 84826  2.4611e+000  7.3153e+000  1.1102e+000 53922 84575,84731,84627
 1.0000e+000 84803  5.5344e+000  8.9366e+000 -5.4902e+000 53922 84575,84627,84601
 1.0000e+000 84780 -2.9266e+000  7.3681e+000 -2.8640e+000 53922 84627,84705,84653
 1.0000e+000 84757 -4.9024e+000  1.2534e+001 -2.5903e+000 53922 84653,84705,84679
 1.0000e+000 85581 -1.4776e+001  8.4413e+000  4.1074e-001 53582 85604,85111,85319
 1.0000e+000 85558  1.8174e+000  6.8468e+000  1.2426e+000 53582 85111,85345,85319
 1.0000e+000 85535 -9.4306e+000  1.2089e+001  4.6348e+000 53582 85604,85319,85293
 1.0000e+000 85512  2.6619e+000  1.5322e+001  1.6941e+001 53582 85241,85293,85267
 1.0000e+000 85489 -1.0210e+001  1.4741e+001  8.1522e+000 53582 85676,85241,85189
 1.0000e+000 85466 -2.0207e+000  1.6387e+001  3.8207e+000 53582 85676,85189,85137
 1.0000e+000 85443 -1.4625e+001  2.5499e+001  9.0794e+000 53582 85189,85241,85215
 1.0000e+000 85420 -1.0753e+000  3.5213e+001  2.5161e+000 53582 85137,85189,85163
 1.0000e+000 85397 -2.3633e+000  1.2731e+001 -2.4980e+000 53582 85111,85371,85345
 1.0000e+000 85630 -1.4592e+001  1.5318e+001  7.2494e+000 53582 85137,85111,85604
 1.0000e+000 85653 -1.1016e+001  1.5005e+001  8.3337e+000 53582 85748,85604,85293
 1.0000e+000 85702 -1.1357e+001  1.1842e+001  1.1635e+001 53582 85293,85241,85676
 1.0000e+000 85725 -8.6480e+000  1.5332e+001  7.6250e+000 53582 85748,85293,85676
 1.0000e+000 85774 -7.2536e+000  1.4070e+001  9.2954e+000 53582 85137,85604,85748
 1.0000e+000 85797 -5.8219e+000  1.3618e+001  8.7795e+000 53582 85137,85748,85676
 1.0000e+000 86303  1.3323e+001  1.7366e+001  1.4770e+000 53178 86326,86084,86006
 1.0000e+000 86280  1.5436e+001  1.8336e+001  5.6131e-001 53178 86326,86006,86162
 1.0000e+000 86257  2.0102e+001  1.9470e+001 -8.6637e+000 53178 86398,86110,86084
 1.0000e+000 86234  1.3414e+001  1.2119e+001 -6.3402e-001 53178 86006,86058,86032
 1.0000e+000 86211  1.0627e+001  1.2241e+001  1.9133e-001 53178 86006,86084,86058
 1.0000e+000 86188  1.1378e+001  1.5225e+001  4.6695e+000 53178 85980,86162,86006
 1.0000e+000 86352  1.3902e+001  1.2928e+001 -5.9449e-001 53178 86398,86084,86326
 1.0000e+000 86375  1.0962e+001  1.9426e+001 -2.4769e-001 53178 86136,86326,86162
 1.0000e+000 86424  2.0673e+001  2.4488e+001 -1.2244e+001 53178 86136,86110,86398
 1.0000e+000 86447  1.9459e+001  2.8658e+001 -4.3831e+000 53178 86136,86398,86326
 1.0000e+000 86904  5.2356e+000  3.0518e+001 -7.5483e-001 52774 86708,86760,86734
 1.0000e+000 86881  4.0652e+000  1.8920e+001 -4.3703e+000 52774 86656,86760,86708
 1.0000e+000 86858  1.5206e+001  2.0477e+001 -2.8702e+000 52774 86656,86708,86682
 1.0000e+000 86835  1.1524e+001  1.9955e+001 -2.4499e+000 52774 86630,86760,86656
 1.0000e+000 86812  1.0952e+001  1.8603e+001 -1.5801e-001 52774 86630,86786,86760
 1.0000e+000 87489  7.2598e+000  3.2770e+001  8.2880e+000 52234 87512,87218,87192
 1.0000e+000 87466  2.0776e+000  2.5662e+001  2.5857e+000 52234 87512,87192,87348
 1.0000e+000 87443 -3.2703e+000  2.2690e+001  7.1498e-002 52234 87166,87348,87192
 1.0000e+000 87420 -3.1100e+000  1.9732e+001 -3.4452e-001 52234 87296,87348,87322
 1.0000e+000 87397  3.7991e+000  1.8581e+001  2.8109e+000 52234 87218,87296,87270
 1.0000e+000 87374  1.0379e+001  2.0716e+001  2.6793e+000 52234 87218,87270,87244
 1.0000e+000 87538  3.2715e+000  2.2293e+001  3.7788e+000 52234 87296,87218,87512
 1.0000e+000 87561  1.1496e+000  2.1684e+001 -1.7175e+000 52234 87296,87512,87348
 1.0000e+000 87841  5.7567e+000  2.9461e+001  5.4238e-001 51830 87665,87743,87691
 1.0000e+000 87818  9.6901e+000  3.1430e+001  1.3516e+000 51830 87665,87769,87743
 1.0000e+000 87795 -8.9717e+000  1.9325e+001 -5.6470e+000 51830 87864,87691,87743
 1.0000e+000 87890 -2.3923e+001  1.2916e+001 -6.3097e+000 51830 87717,87691,87864
 1.0000e+000 88418 -4.8210e+000  7.7203e+000  5.0038e+000 51262 88095,88173,88121
 1.0000e+000 88395 -5.1997e+000  1.5045e+001  4.3886e+000 51262 88095,88251,88173
 1.0000e+000 88372 -1.5580e+001  6.8403e+000 -3.6781e+000 51262 88173,88251,88199
 1.0000e+000 88349 -1.3220e+001  2.6642e+001  1.4822e+001 51262 88095,88277,88251
 1.0000e+000 88326 -4.4643e+000  2.5802e+001  1.4692e+000 51262 88199,88251,88225
 1.0000e+000 88303 -1.3162e+000  1.4743e+001  3.7940e+000 51262 88121,88173,88147
 1.0000e+000 88875 -2.9371e+000  1.4477e+001 -8.7903e+000 50750 88601,88731,88627
 1.0000e+000 88852 -6.4505e+000  2.7894e+001 -1.1373e+001 50750 88601,88757,88731
 1.0000e+000 88829  5.2557e+000  2.5340e+001  1.5997e+000 50750 88627,88731,88653
 1.0000e+000 88806  3.5052e+000  2.0508e+001  1.6370e+000 50750 88653,88731,88705
 1.0000e+000 88783 -2.1032e+001  5.8321e+000 -7.8712e+000 50750 88653,88705,88679
 1.0000e+000 89145 -2.9917e+000  1.3693e+001  5.7984e-002 50438 88946,89024,88972
 1.0000e+000 89122 -6.6187e-004  1.2632e+001 -4.0019e-001 50438 88946,89050,89024
 1.0000e+000 89099 -5.9164e+000  8.6003e+000 -2.1611e+000 50438 88920,89050,88946
 1.0000e+000 89076 -4.8202e+000  9.6067e+000 -6.9636e+000 50438 88972,89024,88998
 1.0000e+000 89525 -5.0200e+000  9.1887e+000 -4.2068e-001 49934 89548,89277,89251
 1.0000e+000 89502 -3.4884e+000  7.9551e+000 -1.2911e+000 49934 89548,89251,89381
 1.0000e+000 89479  1.9268e+000  6.3318e+000  5.2820e-001 49934 89303,89381,89329
 1.0000e+000 89456 -9.6172e-001  1.2269e+001 -5.3503e+000 49934 89251,89407,89381
 1.0000e+000 89433  5.7800e+000  6.8519e+000 -2.4819e+000 49934 89329,89381,89355
 1.0000e+000 89574  1.1836e+000  1.8410e+001  2.2706e+000 49934 89303,89277,89548
 1.0000e+000 89597 -3.7061e+000  8.8443e+000 -6.8973e-001 49934 89303,89548,89381
 1.0000e+000 90054 -8.0651e+000  6.1162e+000 -3.0868e+000 49380 89832,89936,89910
 1.0000e+000 90031 -4.3325e+000  7.0770e+000  1.0770e+000 49380 89780,89936,89832
 1.0000e+000 90008  2.8916e+000  1.6480e+001 -2.0900e+000 49380 89780,89832,89806
 1.0000e+000 89985 -4.8872e+000  2.9559e+000 -4.2733e+000 49380 89832,89910,89858
 1.0000e+000 89962  2.8167e+000  2.3144e+001 -2.6296e+000 49380 89858,89910,89884
 1.0000e+000 90560  4.8030e+000  9.6654e+000  2.4092e+000 48890 90289,90341,90315
 1.0000e+000 90537 -2.5296e+000  6.4530e+000 -1.8859e-001 48890 90289,90393,90341
 1.0000e+000 90514 -7.0088e+000  6.7571e+000 -1.5336e+000 48890 90263,90393,90289
 1.0000e+000 90491 -3.5326e+000  1.0556e+001 -8.2738e+000 48890 90237,90393,90263
 1.0000e+000 90468  5.0013e+000  1.6907e+001 -3.5591e+000 48890 90341,90393,90367
 1.0000e+000 90445 -2.3065e+000  9.7592e+000 -6.4925e+000 48890 90237,90419,90393
 1.0000e+000 91115  5.1013e-001  1.3536e+001 -1.8710e+000 48486 90795,90873,90847
 1.0000e+000 91092 -1.7928e+000  1.4260e+001 -2.4609e+000 48486 90795,90925,90873
 1.0000e+000 91069 -7.6827e+000  1.3225e+001 -9.5557e-001 48486 90769,90925,90795
 1.0000e+000 91046 -1.3197e+001  1.2082e+001 -7.4542e-001 48486 90769,90951,90925
 1.0000e+000 91023 -8.2474e-001  1.2562e+001  2.3965e-001 48486 90795,90847,90821
 1.0000e+000 91000 -3.2068e+000  8.1016e+000 -5.8495e+000 48486 90873,90925,90899
 1.0000e+000 90977 -3.7388e+000  1.6978e+001  1.2535e+000 48486 90743,90951,90769
 1.0000e+000 91265  6.8709e+000  2.2822e+001 -1.1789e+000 48082 91288,91190,91164
 1.0000e+000 91242  2.6180e+000  1.5520e+001 -3.2440e+000 48082 91360,91288,91164
 1.0000e+000 91314  8.1726e+000  2.0178e+001  9.1429e-001 48082 91216,91190,91288
 1.0000e+000 91337  7.9698e+000  2.1071e+001  7.9651e-001 48082 91216,91288,91138
 1.0000e+000 91386  9.6272e+000  2.1441e+001  5.6040e-001 48082 91138,91288,91360
 1.0000e+000 92022  1.0708e+001 -1.7964e+000 -2.4462e+001 47514 92261,92045,91754
 1.0000e+000 91999 -2.0043e+000  2.8447e+000  4.3547e+000 47514 92189,92045,91702
 1.0000e+000 91976 -4.9004e+000  2.1125e+001 -6.1266e+000 47514 92117,91806,91754
 1.0000e+000 91953  2.3761e+000  1.6723e+001  9.6173e-001 47514 92189,91702,91650
 1.0000e+000 91930  3.7778e+001  1.5622e+000 -2.4531e+001 47514 92261,91754,91728
 1.0000e+000 91907 -2.1859e+001  1.6156e+001 -1.0847e+001 47514 91754,91806,91780
 1.0000e+000 91884  1.9577e+001  1.7959e+001 -5.4318e+000 47514 91650,91702,91676
 1.0000e+000 92071 -9.0099e+000  1.3656e+001 -1.5171e+001 47514 92117,91754,92045
 1.0000e+000 92094  3.2642e+000  5.0727e+000 -6.7786e+000 47514 91832,92045,91858
 1.0000e+000 92143  3.7021e+000  2.6119e+001  3.7548e+000 47514 91832,91806,92117
 1.0000e+000 92166  2.9184e+000  1.2240e+001 -5.3960e+000 47514 91832,92117,92045
 1.0000e+000 92215  1.1680e+000  1.4715e+001 -1.6724e+000 47514 91858,92045,92189
 1.0000e+000 92238  7.7529e-001  2.1874e+001 -4.7964e+000 47514 91858,92189,91650
 1.0000e+000 92287  1.3888e+001 -2.8251e-001 -1.0614e+000 47514 91702,92045,92261
 1.0000e+000 92310  3.1062e+001  1.1853e+000  1.4720e+000 47514 91702,92261,91728
 1.0000e+000 92460 -8.4784e+000  8.2371e+000  4.7963e+000 47124 92483,92359,92333
 1.0000e+000 92437 -1.3014e+000  5.4124e-002 -4.2877e+000 47124 92555,92483,92333
 1.0000e+000 92509 -4.6633e-001  1.3277e+001  5.9112e+000 47124 92685,92483,92385
 1.0000e+000 92532  6.7402e+000  7.7757e+000 -2.0571e+000 47124 92385,92483,92411
 1.0000e+000 92581  3.0644e+000  6.1866e+000 -2.2264e+000 47124 92411,92483,92555
 1.0000e+000 92711  2.4220e+000  1.3342e+001  6.5731e+000 47124 92359,92483,92685
 1.0000e+000 93571 -1.2688e+001 -2.2579e+000  3.5958e+000 46834 93594,93208,93104
 1.0000e+000 93548 -1.9609e+001 -5.0233e+000  2.8731e+000 46834 93738,93594,93104
 1.0000e+000 93525 -2.1960e+001 -1.5347e+001 -3.9821e+000 46834 93666,93234,93208
 1.0000e+000 93502 -2.1437e+001 -4.2326e+000  3.4137e+000 46834 93738,93104,93078
 1.0000e+000 93479 -1.8939e+001 -4.0224e+000  1.1694e+000 46834 93810,93260,93234
 1.0000e+000 93456 -7.1744e+000 -3.0566e+000  7.4241e+000 46834 93104,93182,93156
 1.0000e+000 93433 -1.3318e+001 -1.1242e+001  3.6761e+000 46834 93104,93208,93182
 1.0000e+000 93410 -2.5823e+001 -3.4540e+000  4.6440e+000 46834 93286,93338,93312
 1.0000e+000 93387 -2.2650e+001 -4.4527e+000  1.4398e+000 46834 93052,93338,93078
 1.0000e+000 93364 -6.5946e+000  4.1477e+000  5.8109e+000 46834 93104,93156,93130
 1.0000e+000 93620 -1.7259e+001 -6.3500e+000  2.4612e-001 46834 93666,93208,93594
 1.0000e+000 93643 -1.7683e+001 -7.1114e-001  1.9891e+000 46834 93286,93594,93338
 1.0000e+000 93692 -2.0750e+001 -4.6968e+000 -5.2673e-001 46834 93810,93234,93666
 1.0000e+000 93715 -2.0689e+001 -2.0900e+000  1.1529e+000 46834 93286,93666,93594
 1.0000e+000 93764 -1.8548e+001 -3.6390e+000  2.4064e+000 46834 93338,93594,93738
 1.0000e+000 93787 -1.9463e+001 -2.1896e+000  2.5617e+000 46834 93338,93738,93078
 1.0000e+000 93836 -1.4646e+001 -3.1182e+000  3.2460e+000 46834 93286,93260,93810
 1.0000e+000 93859 -1.6549e+001 -3.6171e+000  1.6325e+000 46834 93286,93810,93666
 1.0000e+000 94210  1.5112e+000  1.6655e+001  1.1841e+000 46472 94011,94115,94089
 1.0000e+000 94187  1.3944e+000  1.8897e+001  7.9509e-001 46472 93985,94115,94011
 1.0000e+000 94164 -1.2515e+001  1.3138e+001 -1.3963e-001 46472 94037,94089,94063
 1.0000e+000 94141 -1.1446e+001  1.0910e+001  2.2051e+000 46472 94011,94089,94037
 1.0000e+000 94746  1.1451e+001  2.4569e+001 -3.7915e-001 46068 94576,94628,94602
 1.0000e+000 94723 -3.6002e-001  1.9650e+001 -8.8645e-001 46068 94498,94628,94576
 1.0000e+000 94700  1.1655e+001  2.5500e+001 -7.5846e+000 46068 94472,94628,94498
 1.0000e+000 94677  3.3558e+001  2.6606e+001 -2.6281e-001 46068 94524,94576,94550
 1.0000e+000 94654  2.0377e+001  1.7636e+001  7.6241e+000 46068 94498,94576,94524
 1.0000e+000 95380  2.9012e+001  6.0299e-001  3.6549e+000 45342 95034,95112,95086
 1.0000e+000 95357 -1.4090e+000 -2.7116e+000  3.5885e+000 45342 95034,95190,95112
 1.0000e+000 95334  4.4019e+001 -7.3195e+000 -9.0314e+000 45342 95403,95164,95138
 1.0000e+000 95311  1.9471e+001 -4.5913e+000  1.9145e+000 45342 95403,95138,95112
 1.0000e+000 95288  2.6493e+001 -6.5805e+000  2.0524e-001 45342 95034,95216,95190
 1.0000e+000 95265  2.1208e+001  4.2702e+000  9.5750e+000 45342 95034,95086,95060
 1.0000e+000 95242  2.9146e+001 -8.5507e-002  1.0196e+000 45342 95008,95216,95034
 1.0000e+000 95429  2.1308e+001 -5.8454e+000 -1.1205e+001 45342 95190,95164,95403
 1.0000e+000 95452  1.6329e+000  1.7045e+000 -5.2324e+000 45342 95190,95403,95112
 1.0000e+000 96007 -5.1872e+000 -5.2587e+000 -4.3330e+000 44716 96030,95791,95765
 1.0000e+000 95984  9.5819e-001 -3.4959e+000 -6.0556e+000 44716 96030,95765,95713
 1.0000e+000 95961  1.8319e+000 -8.7261e+000 -6.0743e-001 44716 96174,96102,95661
 1.0000e+000 95938  1.4664e+000 -6.2513e+000 -9.4912e-002 44716 96174,95661,95635
 1.0000e+000 95915  6.2441e+000 -6.4915e-001 -5.0302e+000 44716 95661,95713,95687
 1.0000e+000 95892  2.0833e+001  6.1191e+000 -2.7294e+000 44716 95713,95765,95739
 1.0000e+000 95869  1.4410e+000 -2.2419e+000 -1.4960e+000 44716 95635,95843,95817
 1.0000e+000 96056  5.2392e-001 -3.2157e+000 -3.3412e+000 44716 95817,95791,96030
 1.0000e+000 96079 -1.7854e+000 -8.3652e+000 -2.8573e+000 44716 96102,95817,96030
 1.0000e+000 96128  3.2237e+000 -8.9130e+000 -1.8745e+000 44716 95713,95661,96102
 1.0000e+000 96151  5.5362e+000 -4.9617e+000 -3.7571e+000 44716 95713,96102,96030
 1.0000e+000 96200  2.3377e+000 -5.2759e+000 -7.4977e-001 44716 95817,96102,96174
 1.0000e+000 96223  1.6152e+000 -3.6018e+000  2.2861e-001 44716 95817,96174,95635
 1.0000e+000 96680  1.1993e+001  2.1772e+001 -4.4225e+000 44198 96775,96703,96458
 1.0000e+000 96657  1.4562e+001  2.7563e+000 -9.4415e+000 44198 96703,96406,96562
 1.0000e+000 96634  1.5344e+001  2.9036e+001 -7.1192e+000 44198 96775,96458,96432
 1.0000e+000 96611  1.6348e+001  1.7077e+001 -1.2800e+001 44198 96484,96536,96510
 1.0000e+000 96588 -5.0114e+000  1.7328e+001 -3.5348e-001 44198 96458,96536,96484
 1.0000e+000 96729 -1.4276e+000  1.2978e+000  2.5959e+000 44198 96536,96458,96703
 1.0000e+000 96752  1.3799e+001  1.1387e+000 -9.7576e+000 44198 96536,96703,96562
 1.0000e+000 96801  2.0920e+001  3.4362e+000 -5.1873e+000 44198 96406,96703,96775
 1.0000e+000 96824  2.8942e+001  1.6760e+001 -9.1651e+000 44198 96406,96775,96432
 1.0000e+000 97202 -3.2042e+000 -1.9524e+000  5.9914e+000 43750 97225,96980,96928
 1.0000e+000 97179 -3.1821e+000 -4.8961e+000  7.8105e+000 43750 97225,96928,97084
 1.0000e+000 97156 -3.2535e+000  4.9068e+000  6.6093e+000 43750 96928,96980,96954
 1.0000e+000 97133  1.3122e+000  5.6393e+000  3.1521e+000 43750 97006,97084,97058
 1.0000e+000 97110  8.2349e+000  2.7129e+000  3.1088e+000 43750 97006,97058,97032
 1.0000e+000 97251 -1.9961e+000  3.2905e+000  4.1429e+000 43750 97006,96980,97225
 1.0000e+000 97274 -3.8520e+000 -1.7594e+000  6.2605e+000 43750 97006,97225,97084
 1.0000e+000 97522  5.5037e-001  2.0302e+001 -2.2743e+000 43360 97545,97375,97349
 1.0000e+000 97499 -3.1071e+000  1.2533e+001 -5.7047e+000 43360 97545,97349,97323
 1.0000e+000 97476  3.4080e+000  1.4798e+001 -6.5243e+000 43360 97617,97427,97401
 1.0000e+000 97453  4.5736e+000  1.4506e+001 -1.4646e+001 43360 97297,97427,97323
 1.0000e+000 97571 -1.2838e+001  5.9728e+000  3.3929e+000 43360 97401,97375,97545
 1.0000e+000 97594  1.2379e+000  9.6049e+000 -3.2029e+000 43360 97617,97401,97545
 1.0000e+000 97643  5.6662e+000  2.1294e+001 -1.1727e+001 43360 97323,97427,97617
 1.0000e+000 97666  2.9576e+000  1.8101e+001 -8.0194e+000 43360 97323,97617,97545
 1.0000e+000 98019 -4.3887e+001 -1.3687e+000 -9.6668e+000 42956 97794,97898,97820
 1.0000e+000 97996 -3.8164e+001 -1.3387e+001 -6.8009e+000 42956 97794,97924,97898
 1.0000e+000 97973 -8.3228e+001  1.6011e+000 -2.4352e+000 42956 97820,97872,97846
 1.0000e+000 97950 -7.3043e+001 -5.4835e+000 -8.2990e+000 42956 97820,97898,97872
 1.0000e+000 98446 -5.8168e+000  7.0490e+000  2.8146e+000 42559 98149,98305,98279
 1.0000e+000 98423  3.8859e+000  1.2372e+001  4.8906e+000 42559 98123,98305,98149
 1.0000e+000 98400 -1.4695e+000  7.4351e+000  8.4465e-001 42559 98469,98175,98149
 1.0000e+000 98377  4.7969e+000  2.1936e+001 -2.7823e+000 42559 98469,98149,98279
 1.0000e+000 98354 -4.2860e-001  1.6230e+001 -4.6549e+000 42559 98175,98253,98227
 1.0000e+000 98331  1.4396e+000  1.9732e+001 -6.1674e+000 42559 98175,98227,98201
 1.0000e+000 98495  2.9708e+000  1.7241e+001 -6.3627e+000 42559 98253,98175,98469
 1.0000e+000 98518  4.5659e+000  2.2518e+001 -9.8244e+000 42559 98253,98469,98279
 1.0000e+000 98847  2.1118e+001  1.2734e+001 -3.3219e+000 42247 98674,98752,98700
 1.0000e+000 98824  8.8918e+000  1.5348e+001  4.8483e+000 42247 98648,98752,98674
 1.0000e+000 98801  1.2421e+001  2.4479e+001  1.2609e+001 42247 98622,98752,98648
 1.0000e+000 98778  3.3112e+001  1.0939e+001  7.3441e+000 42247 98700,98752,98726
 1.0000e+000 99117 -6.5663e+000 -1.7099e+000 -1.2344e+000 41843 98892,98996,98918
 1.0000e+000 99094 -1.0713e+001  1.3351e+000 -4.0655e+000 41843 98892,99022,98996
 1.0000e+000 99071 -5.1247e-001  1.0124e+001  1.4401e+000 41843 98918,98996,98970
 1.0000e+000 99048 -5.8111e+000  9.3276e+000 -3.0528e-001 41843 98918,98970,98944
 1.0000e+000 99625  3.3289e+000  1.8082e+001  8.9829e+000 41232 99648,99380,99354
 1.0000e+000 99602  1.4886e+001  1.9623e+001  7.3582e+000 41232 99648,99354,99328
 1.0000e+000 99579  1.4112e+001  2.8507e+001  1.3327e+001 41232 99720,99432,99380
 1.0000e+000 99556  3.8084e-001  1.8016e+001  4.8646e+000 41232 99380,99432,99406
 1.0000e+000 99533  1.2114e+001  4.2411e+000  5.3955e+000 41232 99328,99484,99458
 1.0000e+000 99510  3.5952e+001  9.5858e+000  5.8620e+000 41232 99302,99484,99328
 1.0000e+000 99674  6.8233e+000  2.4392e+001  1.1009e+001 41232 99720,99380,99648
 1.0000e+000 99697  1.0265e+001  2.4967e+000  6.2426e+000 41232 99458,99648,99328
 1.0000e+000 99746  2.4752e+001  2.3270e+001  1.7994e+001 41232 99458,99432,99720
 1.0000e+000 99769  1.8578e+001  1.8289e+001  1.4933e+001 41232 99458,99720,99648
 1.0000e+000 100275  2.8161e+001  1.6038e+001 -8.7080e+000 40728 99952,100004,99978
 1.0000e+000 100252  1.2249e+001  9.1586e+000 -1.6451e+001 40728 99952,100030,100004
 1.0000e+000 100229 -2.5369e+000 -1.2789e+001 -1.0033e+001 40728 99952,100134,100030
 1.0000e+000 100206  7.0124e+000  6.2826e+000 -1.2841e+001 40728 100298,100108,100082
 1.0000e+000 100183  5.6418e+000 -1.3769e+000 -1.2803e+001 40728 100298,100082,100030
 1.0000e+000 100160 -1.8144e+001  7.4191e+000 -3.6826e+001 40728 100030,100082,100056
 1.0000e+000 100324  4.6253e+000  1.3358e+001 -9.8109e+000 40728 100134,100108,100298
 1.0000e+000 100347  1.9553e+000  3.4412e+000 -9.0071e+000 40728 100134,100298,100030
 1.0000e+000 100853 -9.8508e+000  2.2437e+001  1.6745e+000 40274 100876,100686,100660
 1.0000e+000 100830 -7.6870e+000  1.4512e+001  4.4946e+000 40274 100948,100876,100660
 1.0000e+000 100807 -1.1704e+001  1.2793e+001 -6.4530e-001 40274 100948,100660,100608
 1.0000e+000 100784 -8.2043e+000  2.0522e+001  6.3153e+000 40274 101020,100556,100712
 1.0000e+000 100761 -4.8595e+000  2.3299e+001  7.5082e+000 40274 100530,100712,100556
 1.0000e+000 100738 -9.4200e+000  2.2889e+001  4.1746e+000 40274 100608,100660,100634
 1.0000e+000 100902 -9.7596e+000  3.6861e+001  6.3446e+000 40274 100712,100686,100876
 1.0000e+000 100925 -1.2731e+001  2.0913e+001  2.6898e+000 40274 101020,100712,100876
 1.0000e+000 100974 -1.1240e+001  9.4811e+000 -1.2949e+000 40274 100582,100876,100948
 1.0000e+000 100997 -1.8931e+001  7.1742e+000 -6.4466e+000 40274 100582,100948,100608
 1.0000e+000 101046 -2.2445e+000  2.2983e+001  8.3053e+000 40274 100582,100556,101020
 1.0000e+000 101069 -6.0051e+000  2.2614e+001  4.0137e+000 40274 100582,101020,100876
 1.0000e+000 101496  9.0678e+000  1.3417e+001  7.3178e+000 39820 101519,101277,101225
 1.0000e+000 101473 -2.3886e+000  6.3972e+000  1.4770e+000 39820 101519,101225,101199
 1.0000e+000 101450  1.0581e+001  1.5706e+001  9.2632e+000 39820 101173,101355,101199
 1.0000e+000 101427  2.7734e+001  4.7336e+000 -3.7867e+000 39820 101277,101355,101303
 1.0000e+000 101404  7.0161e+000  7.5137e+000 -1.5414e+000 39820 101225,101277,101251
 1.0000e+000 101381  1.9621e+001  8.6796e+000 -6.0249e+000 39820 101303,101355,101329
 1.0000e+000 101545  1.5205e+001  9.8461e+000  1.0649e+001 39820 101355,101277,101519
 1.0000e+000 101568  9.2805e+000  9.6286e+000  6.4230e+000 39820 101355,101519,101199
 1.0000e+000 101816 -5.5861e+000 -7.0123e+000  5.9592e+000 39066 101839,101695,101643
 1.0000e+000 101793 -6.8089e+000 -2.9439e+000  4.3221e+000 39066 101839,101643,101591
 1.0000e+000 101770 -2.3834e+000 -9.1772e+000  3.1953e+000 39066 101643,101695,101669
 1.0000e+000 101747 -1.9223e-001  6.7487e+000  1.4225e+000 39066 101591,101643,101617
 1.0000e+000 101865 -5.4750e+000 -5.4038e+000  3.7190e+000 39066 101721,101695,101839
 1.0000e+000 101888 -5.2864e+000  1.6182e-001  1.9092e+000 39066 101721,101839,101591
 1.0000e+000 102087 -8.7618e+000  1.5497e+001 -1.0791e+000 38726 101937,101989,101963
 1.0000e+000 102064 -1.7737e+001  6.8102e+000  2.5624e+000 38726 101937,102015,101989
 1.0000e+000 102041 -2.3206e+000  1.2920e+001  3.3709e+000 38726 101911,102015,101937
 1.0000e+000 102337  1.6473e+001  2.3976e+001 -6.0561e+000 38322 102112,102190,102138
 1.0000e+000 102314  2.7902e+000  1.7552e+001  1.0629e+001 38322 102112,102216,102190
 1.0000e+000 102291  2.9341e+001  1.9779e+001  1.1597e+001 38322 102112,102242,102216
 1.0000e+000 102268 -1.3120e+001  1.5305e+001 -4.2263e+000 38322 102138,102190,102164
 1.0000e+000 102489  5.7964e+000  2.3982e+001  2.5697e+000 38032 102512,102388,102362
 1.0000e+000 102466  3.2283e+000  3.3110e+001 -2.1612e+000 38032 102512,102362,102440
 1.0000e+000 102538  7.0446e+000  1.6351e+001  1.3429e+000 38032 102414,102388,102512
 1.0000e+000 102561  1.7629e+000  2.1471e+001 -4.9520e+000 38032 102414,102512,102440
 1.0000e+000 102894  3.7334e-001  2.8923e+001 -2.4064e+000 37592 102669,102773,102695
 1.0000e+000 102871  2.7875e+001  3.2736e+001 -1.8413e+001 37592 102669,102799,102773
 1.0000e+000 102848  1.9617e+001  3.9525e+001 -1.4520e+000 37592 102721,102773,102747
 1.0000e+000 102825  6.8726e+000  2.8706e+000 -1.3202e+000 37592 102695,102773,102721
 1.0000e+000 103093  1.4795e+001  4.4113e+001 -6.9254e+000 37188 102917,102995,102943
 1.0000e+000 103070  9.2372e+000  4.8862e+001  4.1693e+000 37188 102917,103021,102995
 1.0000e+000 103047  1.4897e+001  2.8738e+001  9.2737e-002 37188 102943,102995,102969
 1.0000e+000 103341  2.1280e+001  3.9017e+001  6.8679e+000 36605 103142,103194,103168
 1.0000e+000 103318  2.6472e+001  3.8882e+001  8.1543e+000 36605 103142,103220,103194
 1.0000e+000 103295  4.4491e+001  2.2809e+001 -1.3151e+000 36605 103116,103220,103142
 1.0000e+000 103272  6.0910e+001  4.9556e+001 -1.5354e+001 36605 103116,103246,103220
 1.0000e+000 103949 -5.8718e+000 -8.5979e+000 -5.5237e+000 36127 103554,103606,103580
 1.0000e+000 103926 -1.2723e+001 -8.5972e+000 -4.9790e+000 36127 103528,103606,103554
 1.0000e+000 103903 -8.4541e+000 -1.6401e+000 -8.6510e+000 36127 103528,103736,103606
 1.0000e+000 103880 -1.1984e+001 -7.2962e+000 -6.9181e+000 36127 103972,103710,103632
 1.0000e+000 103857 -1.4380e+001 -1.2640e+001 -1.3012e+001 36127 103972,103632,103606
 1.0000e+000 103834 -1.1796e+001 -2.5444e+000 -6.6223e+000 36127 103632,103710,103658
 1.0000e+000 103811 -2.1017e+001  3.4042e+000 -1.6777e+001 36127 103528,103762,103736
 1.0000e+000 103788 -1.2493e+001 -7.7273e-002 -1.6835e+000 36127 103658,103710,103684
 1.0000e+000 103998 -6.3260e+000 -1.5930e+000 -3.0988e+000 36127 103736,103710,103972
 1.0000e+000 104021 -9.5223e+000 -6.8640e+000 -9.3123e+000 36127 103736,103972,103606
 1.0000e+000 104220 -2.1712e+001  8.9297e+000  5.4662e+000 35787 104070,104148,104122
 1.0000e+000 104197 -1.9820e+001  4.4949e+001  1.3546e+001 35787 104044,104148,104070
 1.0000e+000 104174 -4.0616e+000  1.2970e+001  5.4684e+000 35787 104070,104122,104096
 1.0000e+000 104419  3.2869e+000  2.5302e+001  1.2890e+000 35440 104269,104321,104295
 1.0000e+000 104396  6.3560e+000  2.8887e+001  5.1855e+000 35440 104269,104347,104321
 1.0000e+000 104373 -1.7211e+000  2.2194e+001  2.1055e+000 35440 104243,104347,104269
 1.0000e+000 104718 -3.6218e+000  2.5213e+001 -3.8922e+000 34986 104496,104548,104522
 1.0000e+000 104695 -4.0474e+000  2.7311e+001 -6.9029e+000 34986 104741,104548,104496
 1.0000e+000 104672  6.1031e+000  2.7688e+001 -5.8971e+000 34986 104741,104496,104444
 1.0000e+000 104649 -9.2587e+000  2.8618e+001  1.5388e+000 34986 104813,104574,104548
 1.0000e+000 104626  7.1575e+000  3.1972e+001  7.4912e-001 34986 104444,104496,104470
 1.0000e+000 104767 -9.7551e+000  2.8329e+001 -3.3757e+000 34986 104813,104548,104741
 1.0000e+000 104790 -4.3167e-001  2.7501e+001 -4.2816e+000 34986 104600,104741,104444
 1.0000e+000 104839  2.9854e+000  3.3089e+001  3.7895e+000 34986 104600,104574,104813
 1.0000e+000 104862 -1.5378e+000  3.1849e+001 -3.6985e+000 34986 104600,104813,104741
 1.0000e+000 105014 -1.9024e+001  8.0952e+000 -9.4453e-001 34696 105169,105037,104913
 1.0000e+000 104991 -1.9938e+001  2.9877e+000  2.5360e-001 34696 105169,104913,104887
 1.0000e+000 105063 -2.6666e+000  1.9441e+001  4.3786e+000 34696 104939,104913,105037
 1.0000e+000 105195 -2.0984e+001  8.9504e+000  3.2328e+000 34696 104965,105037,105169
 1.0000e+000 105218 -2.1560e+001  4.8979e+000  4.4727e+000 34696 104965,105169,104887
 1.0000e+000 105368 -1.0889e+001  2.1515e+001 -2.8094e+000 34384 105267,105319,105293
 1.0000e+000 105345 -7.2827e+000  2.9379e+001 -6.2848e-001 34384 105241,105319,105267
 1.0000e+000 105616  2.2260e+000  2.6402e+001 -3.0301e+000 33730 105639,105417,105391
 1.0000e+000 105593  3.9344e+000  2.4721e+001 -4.7092e+000 33730 105639,105391,105495
 1.0000e+000 105570  1.8680e+000  3.5900e+001 -8.7057e+000 33730 105391,105521,105495
 1.0000e+000 105547 -3.5612e+000  1.6407e+001  1.2324e+001 33730 105417,105469,105443
 1.0000e+000 105665  3.8901e+000  2.7035e+001 -2.8806e+000 33730 105469,105417,105639
 1.0000e+000 105688  7.9378e+000  2.6451e+001 -4.5303e+000 33730 105469,105639,105495
 1.0000e+000 105840  3.7230e+000  2.9869e+001 -1.9159e+000 33390 105713,105765,105739
 1.0000e+000 105817  4.3088e+000  2.9491e+001 -1.4871e+000 33390 105713,105791,105765
 1.0000e+000 106090 -9.9554e+000  1.8871e+001 -1.1872e+001 33043 106113,105943,105891
 1.0000e+000 106067 -1.5747e+001  2.4163e+001 -1.3094e+000 33043 106113,105891,105865
 1.0000e+000 106044  1.4555e+000  1.4335e+001 -2.5565e+000 33043 105891,105943,105917
 1.0000e+000 106021 -8.8915e+000  2.9848e+001 -3.0874e+000 33043 105865,105995,105969
 1.0000e+000 106139  2.4157e+000  3.7314e+001 -1.7497e+001 33043 105969,105943,106113
 1.0000e+000 106162 -1.1238e+001  3.0967e+001 -3.3152e+000 33043 105969,106113,105865
 1.0000e+000 106412  3.0051e+001  2.6369e+001  3.0362e+000 32539 106435,106291,106239
 1.0000e+000 106389  2.7504e+001  2.4601e+001  1.1809e+000 32539 106187,106317,106291
 1.0000e+000 106366  2.7791e+001  3.7873e+001  2.3197e+001 32539 106435,106239,106213
 1.0000e+000 106343  3.4309e+001  2.8525e+001  4.4589e+000 32539 106239,106291,106265
 1.0000e+000 106461  1.8601e+001  2.1208e+001  1.8561e+000 32539 106187,106291,106435
 1.0000e+000 106484  4.9162e+000  2.7301e+001  2.0475e+001 32539 106187,106435,106213
 1.0000e+000 106685 -7.5759e+000  1.3437e+001 -4.9729e+000 31835 106535,106587,106561
 1.0000e+000 106662 -1.4350e+001  1.4569e+001  2.0728e+000 31835 106509,106587,106535
 1.0000e+000 106639 -3.7062e+000  3.2451e+001 -4.0128e+000 31835 106509,106613,106587
 1.0000e+000 106935  1.0703e+001  1.6911e+001 -7.6046e+000 31530 106736,106814,106788
 1.0000e+000 106912  1.7901e+001  2.0636e+001 -6.2618e+000 31530 106710,106814,106736
 1.0000e+000 106889  5.8748e+000  9.0883e+000 -4.6848e+000 31530 106736,106788,106762
 1.0000e+000 106866  2.3551e+001  2.5369e+001 -1.0785e+001 31530 106710,106840,106814
 1.0000e+000 107339 -1.4498e+001  4.2974e+000 -1.3516e+000 31026 107117,107221,107195
 1.0000e+000 107316 -1.0521e+001 -3.7645e+000  1.0982e+000 31026 107091,107221,107117
 1.0000e+000 107293 -7.1532e+000 -3.2334e+000 -3.5761e-002 31026 107065,107221,107091
 1.0000e+000 107270 -1.6385e+001  2.2092e+001 -2.6502e+000 31026 107143,107195,107169
 1.0000e+000 107247 -2.5578e+001 -1.0809e+000 -3.5821e+000 31026 107117,107195,107143
 1.0000e+000 107538 -4.9894e+000  2.4237e+001 -4.6805e-001 30714 107561,107388,107362
 1.0000e+000 107515 -3.5636e+000  2.6202e+001 -1.1078e+000 30714 107561,107362,107466
 1.0000e+000 107492 -2.4511e+000  2.1801e+001 -2.1311e+000 30714 107414,107466,107440
 1.0000e+000 107587 -3.1218e+000  2.1129e+001 -2.7920e-001 30714 107414,107388,107561
 1.0000e+000 107610 -1.3713e+000  2.3568e+001 -1.0470e+000 30714 107414,107561,107466
 1.0000e+000 107990 -3.3149e+000  1.3730e+001  5.2177e+000 30260 108013,107846,107768
 1.0000e+000 107967 -1.9422e+000  1.7137e+001  1.8138e+000 30260 108013,107768,107716
 1.0000e+000 107944 -7.6269e+000  2.0681e+001  2.0742e+000 30260 107716,107768,107742
 1.0000e+000 107921  2.0878e+000  2.4313e+001  9.5448e+000 30260 107768,107846,107820
 1.0000e+000 107898  2.3093e+000  1.5920e+001  4.7394e+000 30260 107768,107820,107794
 1.0000e+000 108039 -2.6240e-001  1.5815e+001  3.1689e+000 30260 107872,107846,108013
 1.0000e+000 108062 -4.8205e-001  1.8765e+001 -2.5426e-002 30260 107872,108013,107716
 1.0000e+000 108261  7.7099e+000 -8.2412e+000  6.1242e+000 29870 108284,108085,108163
 1.0000e+000 108238  5.1072e-001  4.1976e-001 -1.8439e-001 29870 108085,108189,108163
 1.0000e+000 108215  4.5769e+001  8.8936e+000  1.0897e+001 29870 108284,108163,108137
 1.0000e+000 108310 -9.6531e+000  1.2154e+001  1.9010e+001 29870 108111,108085,108284
 1.0000e+000 108333  8.7960e+000  1.7675e+001  2.0720e+001 29870 108111,108284,108137
 1.0000e+000 108664  1.0190e+001  1.8318e+001 -1.0543e+001 29480 108465,108569,108543
 1.0000e+000 108641 -1.8087e-001  2.5613e+001  8.9603e+000 29480 108439,108569,108465
 1.0000e+000 108618 -1.8536e-001  9.0273e+000 -5.7671e+000 29480 108465,108543,108491
 1.0000e+000 108595  7.6802e+000  1.1328e+001 -3.8936e+000 29480 108491,108543,108517
 1.0000e+000 108993  5.7188e+000  5.8944e+000  2.1706e+000 29076 108794,108872,108820
 1.0000e+000 108970  6.1793e+000  4.6181e+000  3.3396e+000 29076 108768,108872,108794
 1.0000e+000 108947  1.2069e+001  3.9839e+000 -2.4985e+000 29076 108820,108872,108846
 1.0000e+000 108924  3.0571e+000  5.6817e+000  1.1900e+001 29076 108768,108898,108872
 1.0000e+000 109420 -8.3196e-002  8.4841e+000 -7.9834e+000 28472 109123,109227,109201
 1.0000e+000 109397 -2.5569e+001  5.4845e+000 -5.5083e+000 28472 109123,109253,109227
 1.0000e+000 109374 -6.1383e+000  9.3858e-001 -5.2577e+000 28472 109123,109201,109175
 1.0000e+000 109351 -1.7707e+001  1.6514e+001  5.3697e-001 28472 109123,109279,109253
 1.0000e+000 109328 -1.9473e-001  3.9107e+000  1.8999e+000 28472 109123,109175,109149
 1.0000e+000 109305 -2.5768e+001  3.5829e+001 -7.3858e+000 28472 109097,109279,109123
 1.0000e+000 109749 -1.6518e+001  1.4728e+001 -1.3227e+001 28018 109772,109602,109576
 1.0000e+000 109726 -1.7127e+001  7.7004e+000 -1.1358e+001 28018 109772,109576,109550
 1.0000e+000 109703 -2.1082e+001 -2.2464e+000 -1.0287e+001 28018 109524,109628,109550
 1.0000e+000 109680 -1.4670e+001 -3.9370e+000 -4.7857e+000 28018 109524,109654,109628
 1.0000e+000 109798 -1.5951e+001  1.2978e+001 -5.4614e+000 28018 109628,109602,109772
 1.0000e+000 109821 -1.6061e+001  1.7749e+000 -6.2464e+000 28018 109628,109772,109550
 1.0000e+000 110199 -1.1884e+001  7.0319e+000 -8.1600e+000 27564 110029,110081,110055
 1.0000e+000 110176 -2.4996e+000  1.9553e+001 -3.1090e+000 27564 109925,110081,110029
 1.0000e+000 110153  6.9396e-001  5.7851e+000  3.2801e-001 27564 109925,110029,109977
 1.0000e+000 110130  5.3826e+000  8.2229e+000  3.2240e+000 27564 109977,110029,110003
 1.0000e+000 110107  5.8497e+000  1.4200e+001  3.7284e+000 27564 109925,109977,109951
 1.0000e+000 110398  2.4631e+001  3.0236e+001 -3.0741e+000 27003 110248,110326,110300
 1.0000e+000 110375  2.2238e+001  2.6688e+001 -4.1579e+000 27003 110222,110326,110248
 1.0000e+000 110352 -1.3647e+000  1.4591e+001 -1.0926e+001 27003 110248,110300,110274
 1.0000e+000 110646  3.1302e+001  3.6060e+000  1.2082e+001 26563 110669,110473,110421
 1.0000e+000 110623  2.5685e+001 -1.7557e+001  2.0296e+001 26563 110669,110421,110551
 1.0000e+000 110600  3.5282e+001  1.1491e+001  9.4915e+000 26563 110473,110525,110499
 1.0000e+000 110577  2.0484e+001 -1.3416e+001  2.8225e+001 26563 110421,110473,110447
 1.0000e+000 110695  2.8647e+001  9.8025e+000  9.0712e+000 26563 110525,110473,110669
 1.0000e+000 110718  3.2207e+001  2.5480e+000  1.7301e+001 26563 110525,110669,110551
 1.0000e+000 110870 -7.3219e+000  2.1316e+001 -8.6669e+000 26166 110769,110821,110795
 1.0000e+000 110847 -1.7695e+000  1.3917e+001 -4.6552e+000 26166 110743,110821,110769
 1.0000e+000 111380 -1.3383e+001  9.5587e+000  6.7653e+000 25712 111403,111109,111083
 1.0000e+000 111357 -8.7391e+000  1.2996e+001  5.2610e+000 25712 111403,111083,111239
 1.0000e+000 111334 -2.4931e+001  1.1453e+001  1.8662e+001 25712 111109,111161,111135
 1.0000e+000 111311 -1.2186e+001  1.1384e+001  4.8334e+000 25712 111057,111239,111083
 1.0000e+000 111288 -3.8708e+000  6.2457e+000  5.4429e+000 25712 111161,111239,111187
 1.0000e+000 111265  2.1783e+000  1.0318e+001  3.5078e+000 25712 111187,111239,111213
 1.0000e+000 111429 -8.7336e+000  4.9629e+000  8.3815e+000 25712 111161,111109,111403
 1.0000e+000 111452 -3.1444e+000  8.8140e+000  6.6771e+000 25712 111161,111403,111239
 1.0000e+000 111651 -5.9215e+000  1.4734e+001  1.5561e+000 25300 111674,111501,111475
 1.0000e+000 111628 -6.0344e+000  1.0431e+001  2.0294e+000 25300 111674,111475,111579
 1.0000e+000 111605 -7.3434e+000  1.6286e+001 -1.9889e+000 25300 111501,111553,111527
 1.0000e+000 111700 -6.7035e+000  1.8366e+001  1.3847e+000 25300 111553,111501,111674
 1.0000e+000 111723 -6.3714e+000  1.4765e+001  2.1810e+000 25300 111553,111674,111579
 1.0000e+000 111922  1.2137e+001  5.9634e+000  2.0824e+000 24732 111798,111850,111824
 1.0000e+000 111899  9.1049e+000  8.5362e+000 -2.8621e+000 24732 111772,111850,111798
 1.0000e+000 111876  8.4442e+000  8.7967e+000 -2.6359e+000 24732 111746,111850,111772
 1.0000e+000 112255  5.1307e+000  3.8026e+001 -7.5877e+000 24142 112056,112108,112082
 1.0000e+000 112232  9.2714e+000  3.5955e+001 -3.0024e+000 24142 112056,112134,112108
 1.0000e+000 112209 -3.3282e+000  1.7858e+001  2.4886e+000 24142 112056,112160,112134
 1.0000e+000 112186  5.6087e+000  1.6351e+001  4.5420e-002 24142 112030,112160,112056
 1.0000e+000 112601 -2.0804e+001  1.5378e+001  3.0942e+001 23852 112624,112382,112356
 1.0000e+000 112578 -3.9993e+001  1.4210e+001  1.3945e+001 23852 112696,112624,112356
 1.0000e+000 112555 -3.3602e+001  8.3636e+000  4.6537e-001 23852 112696,112356,112304
 1.0000e+000 112532 -3.0164e+001 -1.1416e+000  8.9259e-001 23852 112304,112356,112330
 1.0000e+000 112509  9.4949e+000  4.4490e+001  1.9638e+001 23852 112278,112460,112304
 1.0000e+000 112486  8.0359e+001  2.9545e+001  9.9468e+000 23852 112382,112434,112408
 1.0000e+000 112650  5.2446e+001  3.0830e+001  4.3237e+001 23852 112434,112382,112624
 1.0000e+000 112673 -1.3372e+001  9.5808e-001  2.6810e+001 23852 112434,112624,112460
 1.0000e+000 112722 -1.6044e+001  2.7378e+001  2.3487e+001 23852 112460,112624,112696
 1.0000e+000 112745 -1.5289e+001  1.4461e+001  8.9095e+000 23852 112460,112696,112304
 1.0000e+000 113015 -4.1786e+001  4.7432e+001 -1.2584e+001 23490 112842,112894,112868
 1.0000e+000 112992 -3.3263e+001  1.5371e+001 -1.1877e+001 23490 112816,112894,112842
 1.0000e+000 112969 -2.8858e+001  1.7480e+001 -3.5911e+000 23490 112790,112894,112816
 1.0000e+000 112946 -3.6284e+001 -4.9373e-001 -2.7088e+000 23490 112790,112920,112894
 1.0000e+000 113348 -5.1846e+000  1.4078e+001 -7.8252e+000 22970 113175,113253,113227
 1.0000e+000 113325  5.9898e-001  8.2596e+000 -5.6306e+000 22970 113149,113253,113175
 1.0000e+000 113302 -6.2326e+000  1.9419e+000 -1.7334e+001 22970 113175,113227,113201
 1.0000e+000 113279  3.6583e+000  1.3611e+001 -3.9428e+000 22970 113123,113253,113149
 1.0000e+000 113645 -9.9876e+000  4.1357e+000 -2.9430e+000 22366 113423,113527,113449
 1.0000e+000 113622 -1.4343e+001 -3.2446e+000 -5.2800e+000 22366 113371,113527,113423
 1.0000e+000 113599 -1.0677e+001  3.0305e+000 -7.8636e-001 22366 113449,113527,113501
 1.0000e+000 113576 -6.9541e+000  1.6510e+000  3.4849e+000 22366 113449,113501,113475
 1.0000e+000 113553 -4.1586e+000  1.6332e+001 -1.0453e+001 22366 113371,113423,113397
 1.0000e+000 113893 -2.8215e+000 -2.5384e+000 -1.1146e+001 21912 113916,113746,113720
 1.0000e+000 113870 -2.4644e+000  1.7847e+000 -1.0449e+001 21912 113916,113720,113668
 1.0000e+000 113847 -6.8576e+000  2.0312e+000 -1.2104e+001 21912 113988,113798,113772
 1.0000e+000 113824 -1.8425e-001  9.7829e+000 -1.8073e+001 21912 113668,113720,113694
 1.0000e+000 113942 -1.4273e+000  2.0816e+000 -1.2013e+001 21912 113772,113746,113916
 1.0000e+000 113965 -4.0002e+000  1.1580e+000 -1.1391e+001 21912 113988,113772,113916
 1.0000e+000 114014 -3.6679e+000  4.2133e+000 -1.1149e+001 21912 113668,113798,113988
 1.0000e+000 114037 -2.0967e+000  2.7958e+000 -1.0558e+001 21912 113668,113988,113916
 1.0000e+000 114287  9.7727e+000  9.0438e+000 -1.2089e+000 21408 114088,114140,114114
 1.0000e+000 114264  1.3045e+001  1.0451e+001 -3.7489e+000 21408 114310,114140,114088
 1.0000e+000 114241  1.2600e+001  1.3859e+001 -9.1581e+000 21408 114310,114088,114192
 1.0000e+000 114218  9.2261e+000  1.4927e+001 -8.6959e+000 21408 114062,114192,114088
 1.0000e+000 114336  1.3109e+001  2.1868e+000 -3.1138e+000 21408 114166,114140,114310
 1.0000e+000 114359  1.3356e+001  8.4669e+000 -7.5310e+000 21408 114166,114310,114192
 1.0000e+000 114609  3.2148e+001  2.3896e+001  8.4929e+000 21018 114632,114488,114436
 1.0000e+000 114586  2.9365e+001  2.1333e+001  5.5942e+000 21018 114632,114436,114410
 1.0000e+000 114563  3.6805e+001  1.6703e+001  6.1569e+000 21018 114384,114514,114410
 1.0000e+000 114540  1.3516e+001  2.0616e+001  6.8377e+000 21018 114436,114488,114462
 1.0000e+000 114658  3.6685e+001  2.4094e+001  1.1692e+001 21018 114514,114488,114632
 1.0000e+000 114681  3.3020e+001  2.1365e+001  8.8399e+000 21018 114514,114632,114410
 1.0000e+000 114882  3.4516e+001  2.8994e+001  8.4635e+000 20614 114732,114784,114758
 1.0000e+000 114859  1.9889e+001  2.6985e+001  2.8024e+000 20614 114732,114810,114784
 1.0000e+000 114836  1.6346e+001  2.2549e+001  1.0819e+000 20614 114706,114810,114732
 1.0000e+000 115132 -5.6996e+000  1.7909e+001 -2.9114e+000 20110 114907,115011,114933
 1.0000e+000 115109  3.8127e+000  2.3865e+001 -6.0144e+000 20110 114907,115037,115011
 1.0000e+000 115086 -3.2394e+000  1.8519e+001 -2.5735e+000 20110 114933,115011,114985
 1.0000e+000 115063 -3.9492e+000  2.5098e+001 -9.0867e+000 20110 114933,114985,114959
 1.0000e+000 115284 -6.8685e+000  1.8469e+001 -1.5317e+000 19456 115378,115307,115157
 1.0000e+000 115261 -9.4610e+000  2.2457e+001 -2.6440e+000 19456 115378,115157,115235
 1.0000e+000 115333 -7.6318e+000  1.8483e+001 -8.5749e-001 19456 115183,115157,115307
 1.0000e+000 115404 -8.4790e+000  1.1678e+001 -2.1663e+000 19456 115209,115307,115378
 1.0000e+000 115427 -1.0311e+001  1.6715e+001 -3.6866e+000 19456 115209,115378,115235
 1.0000e+000 115677 -1.3568e+001  1.5803e+001  6.7944e-001 19002 115504,115582,115530
 1.0000e+000 115654 -1.0069e+001  1.5921e+001  6.9290e-001 19002 115478,115582,115504
 1.0000e+000 115631 -1.3540e+001  1.5230e+001  6.5611e+000 19002 115452,115582,115478
 1.0000e+000 115608 -9.2624e-001  1.6458e+001 -1.0829e+001 19002 115530,115582,115556
 1.0000e+000 115998  1.4577e+001  2.5971e+001 -2.9218e+000 18712 115802,115880,115854
 1.0000e+000 115975  2.2136e+001  3.5257e+001  1.5401e+000 18712 115724,115880,115802
 1.0000e+000 115952  2.3196e+001  2.4510e+001  1.3968e-001 18712 115724,115802,115776
 1.0000e+000 115929  2.5417e+001  2.5724e+001  4.2743e+000 18712 115724,115776,115750
 1.0000e+000 115906  1.8531e+001  2.7117e+001 -4.0314e+000 18712 115802,115854,115828
 1.0000e+000 116270 -3.4468e+001 -1.9399e+001 -2.8369e-001 18308 116045,116123,116071
 1.0000e+000 116247 -3.3486e+001 -2.3021e+001  1.1285e+001 18308 116045,116175,116123
 1.0000e+000 116224 -5.9359e+001 -5.8212e+000  6.7021e+000 18308 116123,116175,116149
 1.0000e+000 116201 -1.3623e+001 -1.0770e+001 -1.4601e+000 18308 116071,116123,116097
 1.0000e+000 116422 -1.1350e+001  1.4564e+001 -7.2435e-002 17996 116321,116373,116347
 1.0000e+000 116399 -9.5937e+000  1.5764e+001  9.3966e-001 17996 116295,116373,116321
 1.0000e+000 116574  2.8474e+001  7.6151e+000  6.2789e+000 17392 116473,116525,116499
 1.0000e+000 116551  5.2273e+001  2.5735e+001  1.4209e+001 17392 116447,116525,116473
 1.0000e+000 116797  8.4647e+000 -4.2212e+000 -1.1234e+000 16938 116621,116699,116673
 1.0000e+000 116774  9.6821e+000 -9.1361e+000  9.5013e-002 16938 116621,116725,116699
 1.0000e+000 116751  9.7769e+000 -1.1596e+000 -3.3295e-001 16938 116621,116673,116647
 1.0000e+000 116998  3.9838e+001  4.6076e+000  6.8793e+000 16434 117021,116874,116848
 1.0000e+000 116975 -1.5215e+001 -6.2565e+000 -6.2854e+000 16434 117021,116848,116822
 1.0000e+000 116952  6.2107e+001  3.1018e+001  2.2602e+001 16434 116874,116926,116900
 1.0000e+000 117047  6.0300e+001 -2.9750e+000  1.0434e+001 16434 116926,116874,117021
 1.0000e+000 117070  4.2332e+001  1.1718e+001 -2.8636e+000 16434 116926,117021,116822
 1.0000e+000 117293  3.7354e+000  2.7418e+000  8.4370e-001 16070 117117,117169,117143
 1.0000e+000 117270 -1.1875e+001 -2.2129e+000 -3.8384e-001 16070 117117,117221,117169
 1.0000e+000 117247 -1.4693e+001 -4.0102e+000 -1.6937e+000 16070 117169,117221,117195
 1.0000e+000 117445 -5.0133e+001 -2.4317e+001 -3.3783e+000 15645 117318,117370,117344
 1.0000e+000 117422 -5.8152e+001 -2.9099e+001  2.9120e-001 15645 117318,117396,117370
 1.0000e+000 117548  7.7674e+000  1.3977e+001  8.5711e+000 417 117470,117522,117496
 1.1000e+000 70760  1.0123e+001 -8.8253e+000  1.8924e-001 70380 70633,70685,70659
 1.1000e+000 70737 -8.8597e+000 -4.8460e+000 -5.2570e+000 70380 70633,70711,70685
 1.1000e+000 70861 -2.6394e-001 -4.1794e+000  5.6962e-001 70068 70783,70835,70809
 1.1000e+000 71180 -1.2613e-001  4.9656e+000 -1.4804e-002 69870 70932,70984,70958
 1.1000e+000 71157 -8.9754e-001  4.6110e+000 -2.1857e-001 69870 70932,71010,70984
 1.1000e+000 71134 -3.2398e+000  9.1166e-001 -1.2459e+000 69870 70932,71036,71010
 1.1000e+000 71111 -1.8924e+000  2.0291e+000  3.6583e+000 69870 70932,71062,71036
 1.1000e+000 71088  2.8074e-001  4.0203e+000  5.2219e-001 69870 70906,71062,70932
 1.1000e+000 71428  2.5250e+000  2.1415e+001  8.6872e+000 69694 71451,71281,71255
 1.1000e+000 71405  5.1843e+000  1.6527e+001  8.7768e+000 69694 71523,71451,71255
 1.1000e+000 71382  7.8161e+000  2.1063e+001  1.1097e+001 69694 71523,71255,71229
 1.1000e+000 71359  2.3479e+000  1.1955e+001  5.9968e+000 69694 71595,71333,71307
 1.1000e+000 71477  1.3036e+000  1.7154e+001  8.3610e+000 69694 71307,71281,71451
 1.1000e+000 71500  1.7733e+000  1.4691e+001  3.9439e+000 69694 71595,71307,71451
 1.1000e+000 71549  1.7900e+000  1.7897e+001  4.6095e+000 69694 71203,71451,71523
 1.1000e+000 71572  1.9874e+000  1.8344e+001  6.4637e+000 69694 71203,71523,71229
 1.1000e+000 71621  2.5776e+000  7.8137e+000  4.8697e+000 69694 71203,71333,71595
 1.1000e+000 71644  1.0991e+000  9.9272e+000  3.9755e+000 69694 71203,71595,71451
 1.1000e+000 71745 -5.5111e-001  1.1719e+000 -3.7803e-001 69382 71667,71719,71693
 1.1000e+000 72100 -3.3367e+000  3.6664e+000  6.0120e-002 69184 71875,71979,71901
 1.1000e+000 72077  4.0853e-001  1.9058e+000  2.1117e+000 69184 71875,72005,71979
 1.1000e+000 72054 -1.2804e+000 -7.0706e-001 -2.6529e+000 69184 71901,71979,71953
 1.1000e+000 72031  7.4698e-001  2.0369e+000 -1.7576e+000 69184 71901,71953,71927
 1.1000e+000 72250 -1.3713e-001  1.8227e+000  5.2255e-001 68986 72149,72201,72175
 1.1000e+000 72227 -1.4272e+000  2.2084e+000  3.6122e-001 68986 72123,72201,72149
 1.1000e+000 72547 -4.7664e-001  2.2550e+000  3.3115e+000 68582 72570,72403,72377
 1.1000e+000 72524 -2.7142e-001  1.9785e+000  3.1011e+000 68582 72570,72377,72351
 1.1000e+000 72501 -5.4722e-001  5.4528e+000  1.4171e+000 68582 72642,72299,72429
 1.1000e+000 72478  1.1117e+000  3.4022e+000  3.1123e-001 68582 72273,72429,72299
 1.1000e+000 72455  4.7842e-001  1.4996e+001  7.9059e+000 68582 72299,72351,72325
 1.1000e+000 72596 -2.5963e-001  1.8876e+000  2.3922e+000 68582 72429,72403,72570
 1.1000e+000 72619  6.8391e-001  4.0607e+000  1.9432e+000 68582 72642,72429,72570
 1.1000e+000 72668 -1.6600e+000  4.1529e+000  2.7919e+000 68582 72351,72299,72642
 1.1000e+000 72691 -6.7687e-001  2.1222e+000  3.2349e+000 68582 72351,72642,72570
 1.1000e+000 73095 -1.2359e+001  4.4582e-001 -3.0170e-001 68384 72873,72925,72899
 1.1000e+000 73072 -1.4114e+001  2.1905e+001  8.8126e+000 68384 72847,72925,72873
 1.1000e+000 73049 -6.2213e+000  3.8298e+000  2.2928e+001 68384 72847,72951,72925
 1.1000e+000 73026  1.4429e+001 -1.8523e+000  1.1301e+001 68384 72821,72951,72847
 1.1000e+000 73003  1.0904e-001  8.6604e+000 -5.7738e+000 68384 72821,72977,72951
 1.1000e+000 73552 -2.2592e+000  1.5470e+001  5.1601e+000 68044 73304,73434,73408
 1.1000e+000 73529 -2.8407e+000  9.0162e+000 -2.4785e+000 68044 73278,73434,73304
 1.1000e+000 73506  1.6899e+001  1.5141e+000  6.9026e+000 68044 73356,73408,73382
 1.1000e+000 73483  2.1063e+001 -1.3767e+000  8.2916e-001 68044 73304,73408,73356
 1.1000e+000 73460  8.4184e+000  3.3987e+000 -5.2320e+000 68044 73304,73356,73330
 1.1000e+000 73871 -3.9128e+000  1.4174e+001 -5.5754e+000 67846 73675,73727,73701
 1.1000e+000 73848  1.3365e+000  1.1620e+001 -5.7509e+000 67846 73649,73727,73675
 1.1000e+000 73825 -3.0677e+000 -1.7779e-001 -8.0630e+000 67846 73623,73727,73649
 1.1000e+000 73802  5.9455e+000  4.0672e+000 -4.6828e+000 67846 73623,73753,73727
 1.1000e+000 73779  1.5233e+000 -6.4309e-001 -2.7271e-001 67846 73597,73753,73623
 1.1000e+000 74021  5.7921e-001 -2.6721e+000  4.0927e-001 67598 73920,73972,73946
 1.1000e+000 73998  1.3064e+000 -5.4251e-001  1.9496e-001 67598 73894,73972,73920
 1.1000e+000 74271  3.2621e-001 -5.3178e-001  1.1762e+000 67286 74072,74176,74150
 1.1000e+000 74248 -2.4326e-001  1.1700e+000  1.2118e+000 67286 74046,74176,74072
 1.1000e+000 74225  6.6481e-001  1.5875e-001  1.2884e+000 67286 74072,74150,74098
 1.1000e+000 74202  3.8219e-001 -2.4067e-001  7.8608e-001 67286 74098,74150,74124
 1.1000e+000 74374 -1.3275e+000  4.1179e+000  4.4146e+000 67088 74296,74348,74322
 1.1000e+000 74646 -4.8496e+000  1.2101e+001 -5.0230e+000 66890 74421,74525,74447
 1.1000e+000 74623 -1.3439e-001  1.5267e+001 -3.6807e-001 66890 74421,74551,74525
 1.1000e+000 74600 -4.6942e-002  1.9078e+001 -2.4457e+000 66890 74447,74525,74473
 1.1000e+000 74577 -8.4047e+000  1.5521e+001  1.2476e+000 66890 74473,74525,74499
 1.1000e+000 75254 -2.5600e+000  2.3587e+000 -2.9118e+000 66528 74885,75067,75041
 1.1000e+000 75231  4.2239e+000  8.4172e+000 -2.7049e-001 66528 74859,75067,74885
 1.1000e+000 75208  8.9481e-001  1.3106e+001 -1.1032e+000 66528 74937,75015,74963
 1.1000e+000 75185 -3.1107e+000  3.2431e+000 -2.1726e+000 66528 74911,75015,74937
 1.1000e+000 75162 -2.2295e+000  5.7159e+000 -1.0637e+000 66528 74911,75041,75015
 1.1000e+000 75139 -1.0128e+000  7.3958e+000 -4.6390e-001 66528 74885,75041,74911
 1.1000e+000 75116 -4.2065e+000 -4.3483e-001 -4.4678e+000 66528 74833,75067,74859
 1.1000e+000 75093 -5.0585e+000  8.2392e+000  1.6917e+000 66528 74963,75015,74989
 1.1000e+000 75453 -3.0378e+000  2.3424e+001 -3.2700e+000 66238 75303,75381,75355
 1.1000e+000 75430  3.2241e+000  1.1377e+001 -4.4439e+000 66238 75277,75381,75303
 1.1000e+000 75407 -2.9535e+000  2.5641e+000  2.3696e-001 66238 75303,75355,75329
 1.1000e+000 75701  2.8401e+000  1.7692e+001  2.4326e+000 65834 75528,75606,75580
 1.1000e+000 75678 -2.4975e+000  2.0628e+001  4.4487e-002 65834 75502,75606,75528
 1.1000e+000 75655  2.1193e+000  2.1597e+001  6.6467e+000 65834 75528,75580,75554
 1.1000e+000 75632  5.4371e+000  2.4833e+001  2.4403e+000 65834 75476,75606,75502
 1.1000e+000 75902 -3.5672e-001  9.5597e+000 -1.1434e+000 65636 75726,75804,75752
 1.1000e+000 75879  5.6561e+000  1.3289e+001 -3.5636e+000 65636 75726,75830,75804
 1.1000e+000 75856  1.4066e+001  1.0458e+001 -3.0376e+000 65636 75752,75804,75778
 1.1000e+000 76103  2.0513e+001  1.4542e+001 -5.4099e+000 65296 76126,75979,75953
 1.1000e+000 76080  1.9556e+001  2.5535e+001  8.7885e-001 65296 76126,75953,75927
 1.1000e+000 76057  3.3544e+001  5.0791e+001 -1.1888e+001 65296 76198,76005,75979
 1.1000e+000 76152  2.8614e+001  3.4736e+001 -6.7034e+000 65296 76198,75979,76126
 1.1000e+000 76175  1.9528e+001  2.2559e+001 -3.6996e-001 65296 76031,76126,75927
 1.1000e+000 76224  2.5382e+001  2.7354e+001 -4.1000e+000 65296 76031,76005,76198
 1.1000e+000 76247  2.5113e+001  2.1489e+001  1.5865e+000 65296 76031,76198,76126
 1.1000e+000 76602  2.5818e+000  4.3754e+000  5.3909e-001 64892 76377,76481,76403
 1.1000e+000 76579  2.5534e+000  3.5870e+000  3.8191e-002 64892 76377,76507,76481
 1.1000e+000 76556  5.1271e+000  9.1785e+000 -6.1177e-001 64892 76403,76481,76429
 1.1000e+000 76533 -4.5373e+000  6.2046e+000 -9.0328e-001 64892 76429,76481,76455
 1.1000e+000 76801 -1.6888e+001  6.4992e+000  5.6274e+000 64438 76677,76729,76703
 1.1000e+000 76778 -5.7470e+000  3.3479e+001  5.0543e+000 64438 76651,76729,76677
 1.1000e+000 76755 -2.7793e+001  1.5266e+001 -9.2055e+000 64438 76625,76729,76651
 1.1000e+000 77230  9.8803e+000  8.9846e+000 -2.3506e+000 63920 77253,76959,76933
 1.1000e+000 77207  5.6881e+000  6.5410e+000 -1.3010e+000 63920 77253,76933,77063
 1.1000e+000 77184  3.4083e+000  9.4780e+000 -4.5364e+000 63920 76959,77037,76985
 1.1000e+000 77161  3.6125e+000  6.0533e+000 -8.7878e-001 63920 76907,77063,76933
 1.1000e+000 77138 -1.6071e+000  1.3674e+001 -4.5498e+000 63920 76985,77037,77011
 1.1000e+000 77115  2.1701e-001  4.8435e+000  3.2599e-001 63920 76907,77089,77063
 1.1000e+000 77279  4.5413e+000  1.1366e+001 -2.5755e+000 63920 77037,76959,77253
 1.1000e+000 77302  7.0333e-001  9.2464e+000 -1.6836e+000 63920 77037,77253,77063
 1.1000e+000 77680 -9.1301e+000  7.8194e+000  1.8366e+001 63316 77703,77484,77432
 1.1000e+000 77657 -1.1918e+001  2.4786e+000  1.3853e+001 63316 77703,77432,77406
 1.1000e+000 77634 -2.6152e+001 -5.7218e+000  1.2704e+001 63316 77406,77536,77510
 1.1000e+000 77611  6.9993e+000  6.0923e+000  2.4656e+001 63316 77432,77484,77458
 1.1000e+000 77588 -6.1950e+000  5.7816e+000  2.6100e+000 63316 77406,77562,77536
 1.1000e+000 77729 -7.3250e+000 -1.3326e+000  1.5617e+001 63316 77510,77484,77703
 1.1000e+000 77752 -1.0454e+001 -3.1183e+000  1.0216e+001 63316 77510,77703,77406
 1.1000e+000 78000 -2.1936e+001  1.2935e+000  1.7693e-001 62812 77801,77853,77827
 1.1000e+000 77977 -1.4100e+001  5.7213e+000 -3.5567e+000 62812 77801,77879,77853
 1.1000e+000 77954 -2.1818e+001  2.7929e+000 -4.4832e+000 62812 77801,77905,77879
 1.1000e+000 77931 -9.0579e+000  3.3748e+000 -5.3779e+000 62812 77775,77905,77801
 1.1000e+000 78380 -1.4592e+001 -5.4472e+000  6.0920e-002 62350 78184,78262,78236
 1.1000e+000 78357 -1.0104e+001 -5.6764e+000  1.3939e+000 62350 78132,78262,78184
 1.1000e+000 78334 -8.4186e+000 -4.9019e+000  2.1458e+000 62350 78106,78262,78132
 1.1000e+000 78311 -1.1044e+001 -4.3438e+000  2.4822e+000 62350 78132,78184,78158
 1.1000e+000 78288 -1.3355e+001 -2.5205e+000 -1.7446e+000 62350 78184,78236,78210
 1.1000e+000 78837  7.4365e+000  1.3252e+001  2.7377e+000 61946 78615,78667,78641
 1.1000e+000 78814  3.1701e+000  7.8666e+000 -2.8721e+000 61946 78589,78667,78615
 1.1000e+000 78791  6.2585e+000  8.4486e-001  7.8916e-001 61946 78589,78719,78667
 1.1000e+000 78768  1.2793e+001  7.1445e+000 -3.4682e+000 61946 78667,78719,78693
 1.1000e+000 78745  6.5416e+000  5.2638e+000  3.1015e+000 61946 78563,78719,78589
 1.1000e+000 78987  7.3168e+000 -4.3605e-001 -9.5706e-001 61335 79010,78886,78860
 1.1000e+000 78964  1.4091e+000  4.1473e+000  1.0611e+000 61335 79010,78860,78938
 1.1000e+000 79036  9.1864e-001 -2.7358e+000  1.7425e+000 61335 79082,79010,78912
 1.1000e+000 79059 -4.8389e+000 -7.8673e-001 -1.0765e+000 61335 78912,79010,78938
 1.1000e+000 79108  1.2995e+000 -1.0248e+000 -1.5498e+000 61335 78886,79010,79082
 1.1000e+000 79437 -1.4242e+001 -1.0531e+000 -5.5366e+000 60888 79460,79238,79212
 1.1000e+000 79414 -1.5866e+001 -2.0786e+000 -2.2673e+000 60888 79460,79212,79342
 1.1000e+000 79391 -1.7653e+001 -1.8132e+000 -4.3221e+000 60888 79532,79264,79238
 1.1000e+000 79368 -1.7231e+001  1.4760e+001  4.9993e+000 60888 79264,79316,79290
 1.1000e+000 79486 -1.7377e+001 -2.1818e+000 -4.0209e+000 60888 79532,79238,79460
 1.1000e+000 79509 -2.0000e+001 -2.2712e+000 -1.4538e+000 60888 79316,79460,79342
 1.1000e+000 79558 -1.7895e+001 -1.7477e+000 -3.3517e+000 60888 79316,79264,79532
 1.1000e+000 79581 -1.6158e+001 -1.4764e+000 -3.1836e+000 60888 79316,79532,79460
 1.1000e+000 79878 -2.8772e+001 -8.9745e+000 -2.1845e+000 60484 79682,79760,79734
 1.1000e+000 79855 -3.7952e+001 -2.4373e+001  5.5666e+000 60484 79656,79760,79682
 1.1000e+000 79832 -3.2168e+001 -2.1965e+001  6.6606e+000 60484 79604,79760,79656
 1.1000e+000 79809 -3.1511e+001 -3.3004e+001  9.6285e+000 60484 79604,79656,79630
 1.1000e+000 79786 -2.2183e+001 -4.1827e+000  7.0535e-002 60484 79682,79734,79708
 1.1000e+000 80101 -2.7599e+000 -1.5957e+000 -3.0513e-001 60022 79951,80029,80003
 1.1000e+000 80078 -9.2857e+000 -2.3356e+000 -4.2069e-001 60022 79925,80029,79951
 1.1000e+000 80055 -9.2105e+000 -3.9295e+000  6.4864e-001 60022 79951,80003,79977
 1.1000e+000 80351  1.2178e-001  5.9954e+000  5.4140e+000 59625 80152,80256,80204
 1.1000e+000 80328 -5.7976e-001  1.3428e+001  9.7924e+000 59625 80126,80256,80152
 1.1000e+000 80305  4.6616e+000  1.7760e+001  7.0533e+000 59625 80204,80256,80230
 1.1000e+000 80282  7.2066e+000  8.3817e+000  3.8609e+000 59625 80152,80204,80178
 1.1000e+000 80552  2.2358e+001  1.2797e+001 -6.2664e+000 59121 80575,80402,80376
 1.1000e+000 80529  2.2277e+001  1.9829e+000 -7.3258e+000 59121 80575,80376,80480
 1.1000e+000 80506  3.4197e+001  1.1285e+001  9.9709e+000 59121 80428,80480,80454
 1.1000e+000 80601  2.0865e+001  1.9619e+001  3.5347e-001 59121 80428,80402,80575
 1.1000e+000 80624  2.1038e+001  9.5441e+000 -9.5752e-001 59121 80428,80575,80480
 1.1000e+000 81183  1.0661e+001  9.8870e+000  3.3374e+000 58553 81206,80863,80837
 1.1000e+000 81160  9.1969e+000  1.3391e+001  2.7497e+000 58553 81350,81206,80837
 1.1000e+000 81137  9.1954e+000  7.5573e+000  4.5686e+000 58553 81278,80915,80863
 1.1000e+000 81114  4.0146e+000  1.0785e+001 -8.1411e-001 58553 81350,80837,80811
 1.1000e+000 81091  1.2014e+001 -2.3152e+000  4.4738e+000 58553 81422,80967,80941
 1.1000e+000 81068  1.3265e+001  1.6314e-001  1.8511e+000 58553 80967,81019,80993
 1.1000e+000 81045  1.1532e+001  5.6956e+000  3.3438e+000 58553 80863,80915,80889
 1.1000e+000 81232  8.7002e+000  9.1366e+000  3.5821e+000 58553 81278,80863,81206
 1.1000e+000 81255  1.0851e+001  4.8219e+000  2.4848e+000 58553 81422,80941,81206
 1.1000e+000 81304  8.8115e+000  3.9828e+000  5.4196e+000 58553 80941,80915,81278
 1.1000e+000 81327  9.4562e+000  6.4470e+000  4.0413e+000 58553 80941,81278,81206
 1.1000e+000 81376  5.8232e+000  7.6341e+000 -4.5862e-001 58553 81019,81206,81350
 1.1000e+000 81399  5.2294e+000  7.6421e+000 -3.4211e+000 58553 81019,81350,80811
 1.1000e+000 81448  1.4862e+001  4.1353e+000  1.9263e+000 58553 81019,80967,81422
 1.1000e+000 81471  1.2524e+001  8.5709e+000 -3.9584e-001 58553 81019,81422,81206
 1.1000e+000 81768 -4.7120e+000  6.1864e-002 -4.3525e-001 57877 81791,81572,81520
 1.1000e+000 81745 -1.2790e+000  1.6102e+000 -2.8576e+000 57877 81791,81520,81494
 1.1000e+000 81722 -7.1536e+000  5.2579e-001  5.2438e-001 57877 81863,81650,81598
 1.1000e+000 81699 -6.1070e+000  2.4866e+000 -1.1367e+000 57877 81598,81650,81624
 1.1000e+000 81676 -6.1042e+000  5.9128e-002 -7.0551e-002 57877 81520,81572,81546
 1.1000e+000 81817 -4.6742e+000 -1.2307e+000  3.8421e-001 57877 81598,81572,81791
 1.1000e+000 81840 -6.3241e+000  2.8327e-001 -1.2026e-001 57877 81863,81598,81791
 1.1000e+000 81889 -4.8724e+000 -3.0102e+000  1.5181e+000 57877 81494,81650,81863
 1.1000e+000 81912 -2.3379e+000 -1.2402e+000  1.1516e-001 57877 81494,81863,81791
 1.1000e+000 82160  3.1998e+000  9.1728e+000  5.4966e+000 57473 81935,82039,82013
 1.1000e+000 82137  1.5369e+001  1.3351e+001  3.5737e+000 57473 81935,82065,82039
 1.1000e+000 82114  3.8293e+000  1.0500e+001  5.3161e+000 57473 81935,82013,81961
 1.1000e+000 82091  4.0289e+000  7.7600e+000  6.2378e+000 57473 81961,82013,81987
 1.1000e+000 82719 -3.3757e-001  4.6639e+000  3.2942e+000 56962 82814,82742,82425
 1.1000e+000 82696 -3.8508e-001  1.3565e+000  5.8678e+000 56962 82742,82347,82555
 1.1000e+000 82673  1.1566e+000  6.2404e+000  2.6664e+000 56962 82814,82425,82399
 1.1000e+000 82650 -6.9040e+000  7.0617e+000 -9.1801e-001 56962 82425,82477,82451
 1.1000e+000 82627 -2.0914e+000  1.0661e+001  3.0104e+000 56962 82425,82529,82477
 1.1000e+000 82604 -4.0494e+000  1.8223e+001  7.4055e+000 56962 82477,82529,82503
 1.1000e+000 82581  3.6831e+000  4.5436e-001  1.2476e+000 56962 82347,82399,82373
 1.1000e+000 82768 -2.0617e+000  3.4719e+000  4.8891e+000 56962 82529,82425,82742
 1.1000e+000 82791  2.7436e+000  7.7037e+000  6.8972e+000 56962 82529,82742,82555
 1.1000e+000 82840  1.5153e+000  2.6774e+000  4.0547e+000 56962 82347,82742,82814
 1.1000e+000 82863  2.1557e+000  3.5721e+000  3.7308e+000 56962 82347,82814,82399
 1.1000e+000 83467 -1.2737e+001  8.5631e+000 -1.4856e+001 56300 83124,83176,83150
 1.1000e+000 83444 -1.4744e+000  6.5452e+000 -4.4578e+000 56300 83490,83176,83124
 1.1000e+000 83421  2.6361e+000  8.5975e+000 -3.6199e+000 56300 83490,83124,83280
 1.1000e+000 83398  6.6625e+000  1.6575e+001 -3.2763e+000 56300 83202,83280,83254
 1.1000e+000 83375  4.3468e+000  1.3671e+001 -4.1014e+000 56300 83046,83280,83124
 1.1000e+000 83352  3.6086e+000  1.4026e+001 -3.5147e+000 56300 83046,83124,83098
 1.1000e+000 83329  4.9972e+000  4.9739e+000 -3.3550e+000 56300 83202,83254,83228
 1.1000e+000 83306  8.7310e+000  2.2510e+001 -1.2811e+000 56300 83046,83098,83072
 1.1000e+000 83516 -5.1708e+000  9.2797e+000 -1.2557e+000 56300 83202,83176,83490
 1.1000e+000 83539 -8.9333e-001  1.1180e+001 -9.1645e-001 56300 83202,83490,83280
 1.1000e+000 83787 -9.6107e+000  3.3900e+000 -8.0363e-001 55960 83588,83692,83666
 1.1000e+000 83764 -1.3645e+001  1.9780e+001  6.6013e+000 55960 83562,83692,83588
 1.1000e+000 83741  6.8548e-001  3.4169e+000  2.1282e+000 55960 83588,83666,83614
 1.1000e+000 83718 -9.2859e+000  4.1132e+000  2.5699e+000 55960 83614,83666,83640
 1.1000e+000 83937  1.3311e+000 -1.2364e+000 -3.5808e+000 55499 83810,83862,83836
 1.1000e+000 83914 -8.4821e+000  1.3933e+000 -2.7102e+000 55499 83810,83888,83862
 1.1000e+000 84138 -3.5092e+000 -9.6885e+000 -8.3503e-001 55152 83988,84066,84040
 1.1000e+000 84115  8.6506e+000  1.9247e+001 -5.1475e-001 55152 83962,84066,83988
 1.1000e+000 84092  8.0029e+000  1.5751e+001  7.3663e+000 55152 83988,84040,84014
 1.1000e+000 84471 -1.1800e+001  1.9186e+001  1.7171e+001 54648 84324,84376,84350
 1.1000e+000 84448 -1.3990e+001 -3.8385e+000  1.7424e+001 54648 84272,84376,84324
 1.1000e+000 84425 -1.9242e+001 -2.2855e+001  1.9119e+001 54648 84246,84376,84272
 1.1000e+000 84402 -2.1729e+001 -6.4835e+000  1.9967e+001 54648 84272,84324,84298
 1.1000e+000 84849 -5.4163e+000 -1.5161e+000  1.3898e-001 53922 84627,84731,84705
 1.1000e+000 84826 -1.3668e+000  6.4414e-001  2.0623e+000 53922 84575,84731,84627
 1.1000e+000 84803  4.3432e-001  2.0665e+000 -1.2820e+000 53922 84575,84627,84601
 1.1000e+000 84780 -3.5402e+000 -8.5000e-001  4.1287e-001 53922 84627,84705,84653
 1.1000e+000 84757 -5.6354e+000  1.2780e+000  2.0509e-001 53922 84653,84705,84679
 1.1000e+000 85581 -1.8530e+001  3.8056e+000  1.6813e+000 53582 85604,85111,85319
 1.1000e+000 85558 -2.6651e+000  1.5708e+000  2.7893e+000 53582 85111,85345,85319
 1.1000e+000 85535 -1.3163e+001  7.4146e+000  5.7722e+000 53582 85604,85319,85293
 1.1000e+000 85512 -2.5370e+000  1.0102e+001  1.8764e+001 53582 85241,85293,85267
 1.1000e+000 85489 -1.5188e+001  9.7765e+000  9.0808e+000 53582 85676,85241,85189
 1.1000e+000 85466 -5.7831e+000  1.1746e+001  4.2965e+000 53582 85676,85189,85137
 1.1000e+000 85443 -1.9051e+001  1.9584e+001  9.8695e+000 53582 85189,85241,85215
 1.1000e+000 85420 -4.1248e+000  2.8546e+001  3.6111e+000 53582 85137,85189,85163
 1.1000e+000 85397 -6.4448e+000  6.9854e+000 -6.4341e-001 53582 85111,85371,85345
 1.1000e+000 85630 -1.8393e+001  1.0475e+001  8.4349e+000 53582 85137,85111,85604
 1.1000e+000 85653 -1.4785e+001  1.0291e+001  9.5052e+000 53582 85748,85604,85293
 1.1000e+000 85702 -1.6551e+001  6.3144e+000  1.3446e+001 53582 85293,85241,85676
 1.1000e+000 85725 -1.2610e+001  1.0648e+001  8.8470e+000 53582 85748,85293,85676
 1.1000e+000 85774 -1.1260e+001  9.3040e+000  1.0392e+001 53582 85137,85604,85748
 1.1000e+000 85797 -9.9663e+000  8.9215e+000  9.9239e+000 53582 85137,85748,85676
 1.1000e+000 86303  1.2236e+001  1.5072e+001  1.8456e+000 53178 86326,86084,86006
 1.1000e+000 86280  1.3251e+001  1.5297e+001  1.4060e+000 53178 86326,86006,86162
 1.1000e+000 86257  1.7852e+001  1.7903e+001 -7.4249e+000 53178 86398,86110,86084
 1.1000e+000 86234  1.3168e+001  1.0526e+001 -1.5640e-001 53178 86006,86058,86032
 1.1000e+000 86211  1.0076e+001  1.0844e+001  9.1961e-001 53178 86006,86084,86058
 1.1000e+000 86188  1.0927e+001  1.3277e+001  4.4374e+000 53178 85980,86162,86006
 1.1000e+000 86352  1.1693e+001  1.1580e+001  2.3453e-001 53178 86398,86084,86326
 1.1000e+000 86375  7.4933e+000  1.7299e+001  4.7258e-001 53178 86136,86326,86162
 1.1000e+000 86424  1.8299e+001  2.2686e+001 -1.1071e+001 53178 86136,86110,86398
 1.1000e+000 86447  1.6895e+001  2.6525e+001 -3.6382e+000 53178 86136,86398,86326
 1.1000e+000 86904  3.9010e+000  2.8317e+001 -5.0622e-001 52774 86708,86760,86734
 1.1000e+000 86881  3.1136e+000  1.7474e+001 -4.2555e+000 52774 86656,86760,86708
 1.1000e+000 86858  1.3525e+001  1.8897e+001 -2.8266e+000 52774 86656,86708,86682
 1.1000e+000 86835  1.0425e+001  1.8195e+001 -2.4226e+000 52774 86630,86760,86656
 1.1000e+000 86812  9.9670e+000  1.6891e+001 -1.3574e-001 52774 86630,86786,86760
 1.1000e+000 87489  5.3060e+000  3.1098e+001  8.6454e+000 52234 87512,87218,87192
 1.1000e+000 87466  1.3928e-001  2.3982e+001  2.9258e+000 52234 87512,87192,87348
 1.1000e+000 87443 -4.6333e+000  2.1279e+001  6.8476e-001 52234 87166,87348,87192
 1.1000e+000 87420 -5.3170e+000  1.7814e+001  1.0146e-001 52234 87296,87348,87322
 1.1000e+000 87397  2.0535e+000  1.6934e+001  3.2153e+000 52234 87218,87296,87270
 1.1000e+000 87374  8.6064e+000  1.9006e+001  3.1298e+000 52234 87218,87270,87244
 1.1000e+000 87538  1.3042e+000  2.0595e+001  4.1420e+000 52234 87296,87218,87512
 1.1000e+000 87561 -7.9269e-001  2.0001e+001 -1.3738e+000 52234 87296,87512,87348
 1.1000e+000 87841  5.0545e+000  2.8330e+001  6.9022e-001 51830 87665,87743,87691
 1.1000e+000 87818  8.6256e+000  3.0188e+001  1.5861e+000 51830 87665,87769,87743
 1.1000e+000 87795 -9.7726e+000  1.8353e+001 -5.5349e+000 51830 87864,87691,87743
 1.1000e+000 87890 -2.4810e+001  1.1906e+001 -6.2013e+000 51830 87717,87691,87864
 1.1000e+000 88418 -7.5624e+000  1.1387e+000  6.0207e+000 51262 88095,88173,88121
 1.1000e+000 88395 -8.5105e+000  7.3145e+000  5.1781e+000 51262 88095,88251,88173
 1.1000e+000 88372 -1.6389e+001  1.1850e+000 -7.5470e-001 51262 88173,88251,88199
 1.1000e+000 88349 -1.5677e+001  1.9852e+001  1.5121e+001 51262 88095,88277,88251
 1.1000e+000 88326 -5.6047e+000  1.6991e+001  4.0644e+000 51262 88199,88251,88225
 1.1000e+000 88303 -4.2223e+000  8.8911e+000  5.1128e+000 51262 88121,88173,88147
 1.1000e+000 88875 -3.6403e+000  1.3470e+001 -8.6766e+000 50750 88601,88731,88627
 1.1000e+000 88852 -7.6751e+000  2.6201e+001 -1.1011e+001 50750 88601,88757,88731
 1.1000e+000 88829  4.4397e+000  2.4278e+001  1.6965e+000 50750 88627,88731,88653
 1.1000e+000 88806  2.5080e+000  1.9449e+001  1.5021e+000 50750 88653,88731,88705
 1.1000e+000 88783 -2.1969e+001  4.8592e+000 -7.8833e+000 50750 88653,88705,88679
 1.1000e+000 89145 -5.2938e+000  5.7506e-001  5.2433e-001 50438 88946,89024,88972
 1.1000e+000 89122 -3.3067e+000  7.8781e-001  5.2405e-002 50438 88946,89050,89024
 1.1000e+000 89099 -5.4677e+000 -5.4624e-001 -5.3112e-001 50438 88920,89050,88946
 1.1000e+000 89076 -6.9094e+000 -1.6091e+000 -2.6766e+000 50438 88972,89024,88998
 1.1000e+000 89525 -5.6435e+000 -1.1777e+000  4.4103e-001 49934 89548,89277,89251
 1.1000e+000 89502 -5.2123e+000 -1.7751e+000  1.8096e-001 49934 89548,89251,89381
 1.1000e+000 89479 -3.1914e+000 -3.5123e+000  9.9968e-001 49934 89303,89381,89329
 1.1000e+000 89456 -4.2326e+000  7.0296e-001 -2.3517e+000 49934 89251,89407,89381
 1.1000e+000 89433 -1.9072e+000 -2.5102e+000  1.8846e-001 49934 89329,89381,89355
 1.1000e+000 89574 -3.2779e+000  4.0220e+000  1.3862e+000 49934 89303,89277,89548
 1.1000e+000 89597 -5.7047e+000 -1.2120e+000  6.1063e-001 49934 89303,89548,89381
 1.1000e+000 90054 -1.0421e+001  1.0099e-001 -4.3620e-001 49380 89832,89936,89910
 1.1000e+000 90031 -7.6716e+000  7.3562e-001  2.6593e+000 49380 89780,89936,89832
 1.1000e+000 90008 -1.2680e+000  6.1151e+000  1.3854e-001 49380 89780,89832,89806
 1.1000e+000 89985 -7.0288e+000 -3.5672e-002 -4.0438e-001 49380 89832,89910,89858
 1.1000e+000 89962 -2.0606e+000  1.4080e+001  1.8201e+000 49380 89858,89910,89884
 1.1000e+000 90560 -1.9670e+000  1.3133e+000  3.4395e+000 48890 90289,90341,90315
 1.1000e+000 90537 -6.3458e+000 -6.1911e-001  1.3579e+000 48890 90289,90393,90341
 1.1000e+000 90514 -7.7153e+000  3.0759e-001  1.0312e+000 48890 90263,90393,90289
 1.1000e+000 90491 -4.3755e+000  2.9262e+000 -2.4950e+000 48890 90237,90393,90263
 1.1000e+000 90468 -2.2747e+000  7.1248e+000 -2.3842e-001 48890 90341,90393,90367
 1.1000e+000 90445 -4.6628e+000  2.4689e+000 -2.0008e+000 48890 90237,90419,90393
 1.1000e+000 91115 -5.2736e+000  1.5060e+000 -6.9616e-001 48486 90795,90873,90847
 1.1000e+000 91092 -6.0838e+000  1.9714e+000 -1.0211e+000 48486 90795,90925,90873
 1.1000e+000 91069 -8.1881e+000  1.4361e+000 -6.9939e-001 48486 90769,90925,90795
 1.1000e+000 91046 -1.2725e+001  1.1417e-001 -3.1818e-001 48486 90769,90951,90925
 1.1000e+000 91023 -6.6496e+000 -4.2359e-001  6.2500e-001 48486 90795,90847,90821
 1.1000e+000 91000 -7.7082e+000 -3.3472e+000 -2.7639e+000 48486 90873,90925,90899
 1.1000e+000 90977 -5.0276e+000  4.3778e+000  1.7914e+000 48486 90743,90951,90769
 1.1000e+000 91265 -6.7066e-001  9.1340e+000 -1.5813e-001 48082 91288,91190,91164
 1.1000e+000 91242 -3.1331e+000  3.9190e+000 -8.3992e-001 48082 91360,91288,91164
 1.1000e+000 91314 -4.2240e-001  6.9360e+000  1.4377e+000 48082 91216,91190,91288
 1.1000e+000 91337  1.8510e-001  5.9184e+000  1.7492e+000 48082 91216,91288,91138
 1.1000e+000 91386  2.0940e+000  7.4896e+000  1.0735e+000 48082 91138,91288,91360
 1.1000e+000 92022  8.6582e+000 -1.8808e+000 -2.4076e+001 47514 92261,92045,91754
 1.1000e+000 91999 -2.7185e+000  2.5759e+000  3.4932e+000 47514 92189,92045,91702
 1.1000e+000 91976 -6.0028e+000  2.0825e+001 -6.3425e+000 47514 92117,91806,91754
 1.1000e+000 91953  1.4167e+000  1.5258e+001  7.2899e-001 47514 92189,91702,91650
 1.1000e+000 91930  3.4295e+001  1.8017e+000 -2.4411e+001 47514 92261,91754,91728
 1.1000e+000 91907 -2.3197e+001  1.6911e+001 -1.0933e+001 47514 91754,91806,91780
 1.1000e+000 91884  1.7482e+001  1.6236e+001 -5.2371e+000 47514 91650,91702,91676
 1.1000e+000 92071 -1.0115e+001  1.3314e+001 -1.5218e+001 47514 92117,91754,92045
 1.1000e+000 92094  1.6026e+000  3.9374e+000 -6.8778e+000 47514 91832,92045,91858
 1.1000e+000 92143  2.5083e+000  2.5792e+001  3.6419e+000 47514 91832,91806,92117
 1.1000e+000 92166  1.5400e+000  1.1709e+001 -5.3162e+000 47514 91832,92117,92045
 1.1000e+000 92215 -2.6642e-001  1.3423e+001 -2.0405e+000 47514 91858,92045,92189
 1.1000e+000 92238 -3.8231e-001  1.9943e+001 -4.6220e+000 47514 91858,92189,91650
 1.1000e+000 92287  1.1499e+001 -8.7918e-001 -1.8422e+000 47514 91702,92045,92261
 1.1000e+000 92310  2.7655e+001  8.0501e-001  3.0396e-001 47514 91702,92261,91728
 1.1000e+000 92460 -1.0430e+001  6.6430e+000  5.2191e+000 47124 92483,92359,92333
 1.1000e+000 92437 -3.5415e+000 -1.3207e+000 -3.5364e+000 47124 92555,92483,92333
 1.1000e+000 92509 -2.5478e+000  1.1908e+001  6.4934e+000 47124 92685,92483,92385
 1.1000e+000 92532  4.1362e+000  5.9897e+000 -1.1265e+000 47124 92385,92483,92411
 1.1000e+000 92581  7.5713e-001  4.5018e+000 -1.5449e+000 47124 92411,92483,92555
 1.1000e+000 92711 -9.0014e-002  1.1507e+001  6.9765e+000 47124 92359,92483,92685
 1.1000e+000 93571 -1.4953e+001 -4.7181e+000  3.4663e+000 46834 93594,93208,93104
 1.1000e+000 93548 -1.9208e+001 -6.5060e+000  3.4067e+000 46834 93738,93594,93104
 1.1000e+000 93525 -2.3321e+001 -1.6688e+001 -3.4427e+000 46834 93666,93234,93208
 1.1000e+000 93502 -1.7270e+001 -5.7751e+000  3.6683e+000 46834 93738,93104,93078
 1.1000e+000 93479 -2.0704e+001 -5.4670e+000  1.3340e+000 46834 93810,93260,93234
 1.1000e+000 93456 -9.0656e+000 -5.1935e+000  5.9254e+000 46834 93104,93182,93156
 1.1000e+000 93433 -1.4378e+001 -1.3030e+001  2.9963e+000 46834 93104,93208,93182
 1.1000e+000 93410 -3.0095e+001 -5.4461e+000  6.3540e+000 46834 93286,93338,93312
 1.1000e+000 93387 -2.0768e+001 -6.9633e+000  2.8472e+000 46834 93052,93338,93078
 1.1000e+000 93364 -9.0694e+000  3.8739e-001  4.2507e+000 46834 93104,93156,93130
 1.1000e+000 93620 -1.8688e+001 -7.9164e+000  6.7787e-001 46834 93666,93208,93594
 1.1000e+000 93643 -1.9939e+001 -2.0709e+000  3.0466e+000 46834 93286,93594,93338
 1.1000e+000 93692 -2.2145e+001 -6.1103e+000  2.2726e-002 46834 93810,93234,93666
 1.1000e+000 93715 -2.2306e+001 -3.2427e+000  1.6230e+000 46834 93286,93666,93594
 1.1000e+000 93764 -2.0779e+001 -5.4310e+000  3.7617e+000 46834 93338,93594,93738
 1.1000e+000 93787 -2.0213e+001 -5.7040e+000  3.8038e+000 46834 93338,93738,93078
 1.1000e+000 93836 -1.7302e+001 -4.8073e+000  3.1168e+000 46834 93286,93260,93810
 1.1000e+000 93859 -1.8804e+001 -5.2929e+000  1.8710e+000 46834 93286,93810,93666
 1.1000e+000 94210 -6.0062e+000 -2.3845e+000  5.0177e-001 46472 94011,94115,94089
 1.1000e+000 94187 -4.7075e+000  1.6714e+000  7.7808e-001 46472 93985,94115,94011
 1.1000e+000 94164 -1.2154e+001 -2.5128e-001 -1.0759e-001 46472 94037,94089,94063
 1.1000e+000 94141 -1.2888e+001 -5.6259e+000  1.4258e+000 46472 94011,94089,94037
 1.1000e+000 94746  9.1529e+000  2.1026e+001 -7.7468e-001 46068 94576,94628,94602
 1.1000e+000 94723 -4.3385e-001  1.6977e+001 -8.9210e-001 46068 94498,94628,94576
 1.1000e+000 94700  9.7273e+000  2.1830e+001 -6.5708e+000 46068 94472,94628,94498
 1.1000e+000 94677  2.9099e+001  2.2779e+001 -6.9239e-001 46068 94524,94576,94550
 1.1000e+000 94654  1.7356e+001  1.5178e+001  6.4063e+000 46068 94498,94576,94524
 1.1000e+000 95380  2.5856e+001  7.0030e-001  3.3272e+000 45342 95034,95112,95086
 1.1000e+000 95357 -1.3817e+000 -2.3677e+000  3.3233e+000 45342 95034,95190,95112
 1.1000e+000 95334  4.0214e+001 -6.6198e+000 -8.0077e+000 45342 95403,95164,95138
 1.1000e+000 95311  1.7829e+001 -3.3766e+000  1.9811e+000 45342 95403,95138,95112
 1.1000e+000 95288  2.3613e+001 -5.8661e+000  2.7680e-001 45342 95034,95216,95190
 1.1000e+000 95265  1.8798e+001  4.0595e+000  8.6903e+000 45342 95034,95086,95060
 1.1000e+000 95242  2.5997e+001  5.3675e-003  1.1130e+000 45342 95008,95216,95034
 1.1000e+000 95429  1.9534e+001 -5.6343e+000 -1.0087e+001 45342 95190,95164,95403
 1.1000e+000 95452  1.4066e+000  1.7321e+000 -4.6109e+000 45342 95190,95403,95112
 1.1000e+000 96007 -7.7316e+000 -5.2138e+000 -2.8127e+000 44716 96030,95791,95765
 1.1000e+000 95984 -2.1567e+000 -4.3370e+000 -4.2540e+000 44716 96030,95765,95713
 1.1000e+000 95961 -1.0945e+000 -7.9969e+000  3.8320e-001 44716 96174,96102,95661
 1.1000e+000 95938 -1.3684e+000 -6.0392e+000  7.9150e-001 44716 96174,95661,95635
 1.1000e+000 95915  1.6425e+000 -1.4139e+000 -2.7325e+000 44716 95661,95713,95687
 1.1000e+000 95892  1.6563e+001  4.7551e+000 -1.0396e+000 44716 95713,95765,95739
 1.1000e+000 95869 -5.3558e-001 -2.4208e+000 -4.8823e-001 44716 95635,95843,95817
 1.1000e+000 96056 -2.5550e+000 -3.3128e+000 -1.8947e+000 44716 95817,95791,96030
 1.1000e+000 96079 -4.4637e+000 -7.8681e+000 -1.6754e+000 44716 96102,95817,96030
 1.1000e+000 96128  2.5588e-001 -7.8729e+000 -3.2153e-001 44716 95713,95661,96102
 1.1000e+000 96151  2.1063e+000 -4.9783e+000 -2.1416e+000 44716 95713,96102,96030
 1.1000e+000 96200 -6.9761e-001 -5.2723e+000  2.7224e-001 44716 95817,96102,96174
 1.1000e+000 96223 -1.2500e+000 -3.9445e+000  1.0470e+000 44716 95817,96174,95635
 1.1000e+000 96680  1.0593e+001  2.0679e+001 -3.7709e+000 44198 96775,96703,96458
 1.1000e+000 96657  1.2809e+001  2.8466e+000 -8.5919e+000 44198 96703,96406,96562
 1.1000e+000 96634  1.3636e+001  2.7508e+001 -6.2971e+000 44198 96775,96458,96432
 1.1000e+000 96611  1.6259e+001  1.6534e+001 -1.2409e+001 44198 96484,96536,96510
 1.1000e+000 96588 -4.7491e+000  1.6669e+001 -1.7079e-001 44198 96458,96536,96484
 1.1000e+000 96729 -1.6609e+000  1.5261e+000  2.4542e+000 44198 96536,96458,96703
 1.1000e+000 96752  1.1867e+001  1.0115e+000 -9.2585e+000 44198 96536,96703,96562
 1.1000e+000 96801  1.8852e+001  3.4788e+000 -4.5192e+000 44198 96406,96703,96775
 1.1000e+000 96824  2.6285e+001  1.6000e+001 -8.2291e+000 44198 96406,96775,96432
 1.1000e+000 97202 -7.7751e+000 -6.9509e+000  4.7645e+000 43750 97225,96980,96928
 1.1000e+000 97179 -7.3560e+000 -8.6509e+000  5.8643e+000 43750 97225,96928,97084
 1.1000e+000 97156 -7.6571e+000 -3.5909e+000  4.9860e+000 43750 96928,96980,96954
 1.1000e+000 97133 -3.5259e+000 -1.3939e+000  2.8782e+000 43750 97006,97084,97058
 1.1000e+000 97110 -6.9346e-002 -2.8295e+000  2.8652e+000 43750 97006,97058,97032
 1.1000e+000 97251 -6.9194e+000 -3.9948e+000  4.0752e+000 43750 97006,96980,97225
 1.1000e+000 97274 -7.4258e+000 -6.8780e+000  5.2748e+000 43750 97006,97225,97084
 1.1000e+000 97522 -1.1063e+000  1.2951e+001 -2.1505e+000 43360 97545,97375,97349
 1.1000e+000 97499 -4.3802e+000  6.4802e+000 -5.0074e+000 43360 97545,97349,97323
 1.1000e+000 97476  7.4346e-001  8.8493e+000 -6.8464e+000 43360 97617,97427,97401
 1.1000e+000 97453  2.3801e+000  1.0588e+001 -1.3729e+001 43360 97297,97427,97323
 1.1000e+000 97571 -1.3111e+001  2.9385e-001  2.9215e+000 43360 97401,97375,97545
 1.1000e+000 97594 -1.0551e+000  3.2555e+000 -3.1742e+000 43360 97617,97401,97545
 1.1000e+000 97643  3.2093e+000  1.5713e+001 -1.1524e+001 43360 97323,97427,97617
 1.1000e+000 97666  1.2210e+000  1.2569e+001 -7.4057e+000 43360 97323,97617,97545
 1.1000e+000 98019 -4.5574e+001 -1.1001e+000 -9.9136e+000 42956 97794,97898,97820
 1.1000e+000 97996 -4.0351e+001 -1.3738e+001 -6.8098e+000 42956 97794,97924,97898
 1.1000e+000 97973 -8.7188e+001  1.6419e+000 -2.5570e+000 42956 97820,97872,97846
 1.1000e+000 97950 -7.6602e+001 -5.7836e+000 -8.6551e+000 42956 97820,97898,97872
 1.1000e+000 98446 -1.1738e+001 -1.8585e+000  4.0684e+000 42559 98149,98305,98279
 1.1000e+000 98423 -4.0702e+000  2.8035e+000  6.0978e+000 42559 98123,98305,98149
 1.1000e+000 98400 -6.9882e+000 -6.4474e-001  2.1971e+000 42559 98469,98175,98149
 1.1000e+000 98377 -1.6103e+000  1.1791e+001 -1.1067e+000 42559 98469,98149,98279
 1.1000e+000 98354 -5.6925e+000  6.2703e+000 -2.6688e+000 42559 98175,98253,98227
 1.1000e+000 98331 -4.7397e+000  8.3137e+000 -3.0267e+000 42559 98175,98227,98201
 1.1000e+000 98495 -2.9842e+000  7.8212e+000 -3.9855e+000 42559 98253,98175,98469
 1.1000e+000 98518 -1.6419e+000  1.2357e+001 -7.1259e+000 42559 98253,98469,98279
 1.1000e+000 98847  2.0752e+001  1.0073e+001 -3.3116e+000 42247 98674,98752,98700
 1.1000e+000 98824  9.0181e+000  1.2877e+001  4.5732e+000 42247 98648,98752,98674
 1.1000e+000 98801  1.1881e+001  2.0475e+001  1.2587e+001 42247 98622,98752,98648
 1.1000e+000 98778  3.0435e+001  7.7699e+000  6.6887e+000 42247 98700,98752,98726
 1.1000e+000 99117 -1.1601e+001 -9.8728e+000 -7.6392e-001 41843 98892,98996,98918
 1.1000e+000 99094 -1.2883e+001 -8.2961e+000 -2.1134e+000 41843 98892,99022,98996
 1.1000e+000 99071 -7.1993e+000 -5.3437e-001  1.1878e+000 41843 98918,98996,98970
 1.1000e+000 99048 -1.0804e+001 -8.8951e-001 -2.6578e-001 41843 98918,98970,98944
 1.1000e+000 99625  2.0652e+000  1.9560e+001  9.8725e+000 41232 99648,99380,99354
 1.1000e+000 99602  1.2762e+001  2.0145e+001  7.6528e+000 41232 99648,99354,99328
 1.1000e+000 99579  1.2813e+001  2.8711e+001  1.3776e+001 41232 99720,99432,99380
 1.1000e+000 99556 -1.4943e+000  1.7955e+001  5.2485e+000 41232 99380,99432,99406
 1.1000e+000 99533  1.0544e+001  4.0680e+000  5.1643e+000 41232 99328,99484,99458
 1.1000e+000 99510  3.1448e+001  8.2241e+000  5.2516e+000 41232 99302,99484,99328
 1.1000e+000 99674  4.8442e+000  2.4736e+001  1.1341e+001 41232 99720,99380,99648
 1.1000e+000 99697  8.4440e+000  2.3083e+000  5.9924e+000 41232 99458,99648,99328
 1.1000e+000 99746  2.3954e+001  2.3600e+001  1.8428e+001 41232 99458,99432,99720
 1.1000e+000 99769  1.7432e+001  1.8974e+001  1.5138e+001 41232 99458,99720,99648
 1.1000e+000 100275  2.5447e+001  1.4823e+001 -7.5089e+000 40728 99952,100004,99978
 1.1000e+000 100252  1.0228e+001  8.3384e+000 -1.4917e+001 40728 99952,100030,100004
 1.1000e+000 100229 -2.9120e+000 -1.1879e+001 -9.2377e+000 40728 99952,100134,100030
 1.1000e+000 100206  5.6059e+000  6.3139e+000 -1.2241e+001 40728 100298,100108,100082
 1.1000e+000 100183  4.3469e+000 -1.2330e+000 -1.2258e+001 40728 100298,100082,100030
 1.1000e+000 100160 -1.8594e+001  7.8336e+000 -3.6201e+001 40728 100030,100082,100056
 1.1000e+000 100324  3.3646e+000  1.3236e+001 -9.2742e+000 40728 100134,100108,100298
 1.1000e+000 100347  8.5891e-001  3.5010e+000 -8.5463e+000 40728 100134,100298,100030
 1.1000e+000 100853 -1.2615e+001  1.3860e+001  1.1373e+000 40274 100876,100686,100660
 1.1000e+000 100830 -1.0332e+001  6.7129e+000  3.6640e+000 40274 100948,100876,100660
 1.1000e+000 100807 -1.3819e+001  5.2202e+000 -6.6917e-001 40274 100948,100660,100608
 1.1000e+000 100784 -1.1845e+001  1.1374e+001  5.5512e+000 40274 101020,100556,100712
 1.1000e+000 100761 -8.2159e+000  1.5924e+001  7.3943e+000 40274 100530,100712,100556
 1.1000e+000 100738 -1.2238e+001  1.3204e+001  3.1497e+000 40274 100608,100660,100634
 1.1000e+000 100902 -1.1925e+001  2.8751e+001  6.0102e+000 40274 100712,100686,100876
 1.1000e+000 100925 -1.5381e+001  1.2078e+001  2.6318e+000 40274 101020,100712,100876
 1.1000e+000 100974 -1.3365e+001  2.5162e+000 -1.4473e+000 40274 100582,100876,100948
 1.1000e+000 100997 -2.0121e+001  4.5452e-001 -5.7803e+000 40274 100582,100948,100608
 1.1000e+000 101046 -7.3038e+000  1.3275e+001  6.5128e+000 40274 100582,100556,101020
 1.1000e+000 101069 -9.9911e+000  1.3843e+001  3.0934e+000 40274 100582,101020,100876
 1.1000e+000 101496  4.7752e+000  1.0400e+001  7.1003e+000 39820 101519,101277,101225
 1.1000e+000 101473 -5.2250e+000  2.4976e+000  2.1551e+000 39820 101519,101225,101199
 1.1000e+000 101450  4.0542e+000  1.1824e+001  1.0567e+001 39820 101173,101355,101199
 1.1000e+000 101427  2.2251e+001  3.2888e+000 -2.8314e+000 39820 101277,101355,101303
 1.1000e+000 101404  4.4025e+000  5.4848e+000 -1.1975e+000 39820 101225,101277,101251
 1.1000e+000 101381  1.5205e+001  6.3745e+000 -4.6236e+000 39820 101303,101355,101329
 1.1000e+000 101545  9.9260e+000  6.2459e+000  1.0671e+001 39820 101355,101277,101519
 1.1000e+000 101568  4.9838e+000  5.0385e+000  7.3332e+000 39820 101355,101519,101199
 1.1000e+000 101816 -9.3989e+000 -1.0231e+001  4.7838e+000 39066 101839,101695,101643
 1.1000e+000 101793 -1.0895e+001 -8.5159e+000  3.3831e+000 39066 101839,101643,101591
 1.1000e+000 101770 -7.0639e+000 -1.1813e+001  2.7668e+000 39066 101643,101695,101669
 1.1000e+000 101747 -6.0770e+000 -1.6494e+000  1.2527e+000 39066 101591,101643,101617
 1.1000e+000 101865 -8.5618e+000 -9.4571e+000  4.1330e+000 39066 101721,101695,101839
 1.1000e+000 101888 -9.2388e+000 -7.1082e+000  2.5709e+000 39066 101721,101839,101591
 1.1000e+000 102087 -1.2802e+001  3.1105e+000 -8.6645e-001 38726 101937,101989,101963
 1.1000e+000 102064 -1.9311e+001 -2.7145e+000  1.6048e+000 38726 101937,102015,101989
 1.1000e+000 102041 -8.2567e+000  1.9343e+000  2.4774e+000 38726 101911,102015,101937
 1.1000e+000 102337  1.4346e+001  1.7196e+001 -5.2221e+000 38322 102112,102190,102138
 1.1000e+000 102314  2.0657e+000  1.2302e+001  1.0263e+001 38322 102112,102216,102190
 1.1000e+000 102291  2.6417e+001  1.1860e+001  1.2536e+001 38322 102112,102242,102216
 1.1000e+000 102268 -1.1443e+001  9.4186e+000 -3.4898e+000 38322 102138,102190,102164
 1.1000e+000 102489 -2.0530e+000  9.5756e+000  2.0296e+000 38032 102512,102388,102362
 1.1000e+000 102466 -3.9360e+000  1.5559e+001 -1.0814e+000 38032 102512,102362,102440
 1.1000e+000 102538 -1.4394e+000  4.6133e+000  1.1909e+000 38032 102414,102388,102512
 1.1000e+000 102561 -5.1685e+000  7.9112e+000 -2.9633e+000 38032 102414,102512,102440
 1.1000e+000 102894 -9.6222e-001  2.5453e+001 -2.0337e+000 37592 102669,102773,102695
 1.1000e+000 102871  2.4287e+001  2.9241e+001 -1.6132e+001 37592 102669,102799,102773
 1.1000e+000 102848  1.7404e+001  3.7069e+001 -1.3733e+000 37592 102721,102773,102747
 1.1000e+000 102825  5.0606e+000  2.2851e+000 -9.8572e-001 37592 102695,102773,102721
 1.1000e+000 103093  1.1107e+001  3.5378e+001 -6.0645e+000 37188 102917,102995,102943
 1.1000e+000 103070  6.9271e+000  4.1705e+001  3.8771e+000 37188 102917,103021,102995
 1.1000e+000 103047  1.2784e+001  2.3572e+001 -6.5658e-001 37188 102943,102995,102969
 1.1000e+000 103341  1.7171e+001  3.3201e+001  6.2707e+000 36605 103142,103194,103168
 1.1000e+000 103318  2.2618e+001  3.3457e+001  7.3027e+000 36605 103142,103220,103194
 1.1000e+000 103295  3.8491e+001  1.8874e+001 -1.2637e+000 36605 103116,103220,103142
 1.1000e+000 103272  5.2176e+001  4.2942e+001 -1.4010e+001 36605 103116,103246,103220
 1.1000e+000 103949 -7.5550e+000 -1.0043e+001 -4.6053e+000 36127 103554,103606,103580
 1.1000e+000 103926 -1.5102e+001 -9.2223e+000 -4.2804e+000 36127 103528,103606,103554
 1.1000e+000 103903 -1.0901e+001 -2.9422e+000 -8.5154e+000 36127 103528,103736,103606
 1.1000e+000 103880 -1.4288e+001 -8.7156e+000 -6.8633e+000 36127 103972,103710,103632
 1.1000e+000 103857 -1.6768e+001 -1.4256e+001 -1.2990e+001 36127 103972,103632,103606
 1.1000e+000 103834 -1.4054e+001 -3.6755e+000 -6.5368e+000 36127 103632,103710,103658
 1.1000e+000 103811 -2.5414e+001  1.8724e+000 -1.6986e+001 36127 103528,103762,103736
 1.1000e+000 103788 -1.4322e+001 -2.7280e-001 -1.7119e+000 36127 103658,103710,103684
 1.1000e+000 103998 -8.6279e+000 -2.8787e+000 -2.9109e+000 36127 103736,103710,103972
 1.1000e+000 104021 -1.1905e+001 -8.3270e+000 -9.1609e+000 36127 103736,103972,103606
 1.1000e+000 104220 -2.4264e+001  8.3504e+000  5.5983e+000 35787 104070,104148,104122
 1.1000e+000 104197 -2.2266e+001  4.5265e+001  1.3890e+001 35787 104044,104148,104070
 1.1000e+000 104174 -6.2416e+000  1.2930e+001  5.2941e+000 35787 104070,104122,104096
 1.1000e+000 104419 -4.2665e+000  1.2838e+001  8.9453e-001 35440 104269,104321,104295
 1.1000e+000 104396 -1.0385e+000  1.6083e+001  4.1316e+000 35440 104269,104347,104321
 1.1000e+000 104373 -7.4079e+000  1.0557e+001  1.6700e+000 35440 104243,104347,104269
 1.1000e+000 104718 -4.2462e+000  1.7356e+001 -4.4661e+000 34986 104496,104548,104522
 1.1000e+000 104695 -5.6727e+000  1.8083e+001 -6.1391e+000 34986 104741,104548,104496
 1.1000e+000 104672  2.3186e+000  1.9430e+001 -5.0086e+000 34986 104741,104496,104444
 1.1000e+000 104649 -9.6518e+000  2.0045e+001  1.1184e+000 34986 104813,104574,104548
 1.1000e+000 104626  3.2546e+000  2.2825e+001 -5.9378e-001 34986 104444,104496,104470
 1.1000e+000 104767 -1.0103e+001  1.9780e+001 -3.2991e+000 34986 104813,104548,104741
 1.1000e+000 104790 -2.8436e+000  1.9600e+001 -3.7820e+000 34986 104600,104741,104444
 1.1000e+000 104839  1.5053e+000  2.5044e+001  3.5132e+000 34986 104600,104574,104813
 1.1000e+000 104862 -3.0017e+000  2.2824e+001 -3.2087e+000 34986 104600,104813,104741
 1.1000e+000 105014 -2.0116e+001  5.2093e-001 -4.5554e-001 34696 105169,105037,104913
 1.1000e+000 104991 -2.0944e+001 -4.0075e+000  5.8579e-001 34696 105169,104913,104887
 1.1000e+000 105063 -6.5744e+000  9.1844e+000  3.7698e+000 34696 104939,104913,105037
 1.1000e+000 105195 -2.1830e+001  1.2877e+000  3.2427e+000 34696 104965,105037,105169
 1.1000e+000 105218 -2.2357e+001 -2.3060e+000  4.3214e+000 34696 104965,105169,104887
 1.1000e+000 105368 -1.4398e+001  9.3693e+000 -2.0298e+000 34384 105267,105319,105293
 1.1000e+000 105345 -1.1802e+001  1.4966e+001 -4.7109e-001 34384 105241,105319,105267
 1.1000e+000 105616  1.0636e+000  1.9519e+001 -3.0531e+000 33730 105639,105417,105391
 1.1000e+000 105593  2.7027e+000  1.8215e+001 -4.5996e+000 33730 105639,105391,105495
 1.1000e+000 105570  2.6564e-001  2.7079e+001 -7.7251e+000 33730 105391,105521,105495
 1.1000e+000 105547 -5.4573e+000  9.7775e+000  1.0202e+001 33730 105417,105469,105443
 1.1000e+000 105665  2.6803e+000  1.9777e+001 -3.1695e+000 33730 105469,105417,105639
 1.1000e+000 105688  6.6855e+000  1.9895e+001 -4.8164e+000 33730 105469,105639,105495
 1.1000e+000 105840 -3.6866e+000  1.5723e+001 -1.4071e+000 33390 105713,105765,105739
 1.1000e+000 105817 -3.3556e+000  1.5666e+001 -1.2883e+000 33390 105713,105791,105765
 1.1000e+000 106090 -1.1563e+001  1.1002e+001 -9.5422e+000 33043 106113,105943,105891
 1.1000e+000 106067 -1.6232e+001  1.5073e+001 -1.3156e+000 33043 106113,105891,105865
 1.1000e+000 106044 -3.4852e+000  7.9217e+000 -3.0830e+000 33043 105891,105943,105917
 1.1000e+000 106021 -1.1194e+001  2.1215e+001 -3.4247e+000 33043 105865,105995,105969
 1.1000e+000 106139 -1.5673e+000  2.5347e+001 -1.4038e+001 33043 105969,105943,106113
 1.1000e+000 106162 -1.2583e+001  2.0253e+001 -2.9962e+000 33043 105969,106113,105865
 1.1000e+000 106412  2.6277e+001  2.2144e+001  3.0476e+000 32539 106435,106291,106239
 1.1000e+000 106389  2.3755e+001  1.9991e+001  8.8132e-001 32539 106187,106317,106291
 1.1000e+000 106366  2.4295e+001  3.4070e+001  2.2934e+001 32539 106435,106239,106213
 1.1000e+000 106343  3.0376e+001  2.3842e+001  4.3636e+000 32539 106239,106291,106265
 1.1000e+000 106461  1.5162e+001  1.6801e+001  1.4646e+000 32539 106187,106291,106435
 1.1000e+000 106484  1.8879e+000  2.3350e+001  1.9806e+001 32539 106187,106435,106213
 1.1000e+000 106685 -1.0799e+001  4.7109e+000 -4.7510e+000 31835 106535,106587,106561
 1.1000e+000 106662 -1.5709e+001  6.0053e+000  1.2159e+000 31835 106509,106587,106535
 1.1000e+000 106639 -8.1382e+000  2.0115e+001 -3.4610e+000 31835 106509,106613,106587
 1.1000e+000 106935  7.4121e+000  1.1619e+001 -7.3769e+000 31530 106736,106814,106788
 1.1000e+000 106912  1.4624e+001  1.5455e+001 -5.9104e+000 31530 106710,106814,106736
 1.1000e+000 106889  2.6533e+000  4.3729e+000 -4.6460e+000 31530 106736,106788,106762
 1.1000e+000 106866  1.8263e+001  1.9258e+001 -1.0200e+001 31530 106710,106840,106814
 1.1000e+000 107339 -1.7624e+001  3.0993e+000 -1.5424e+000 31026 107117,107221,107195
 1.1000e+000 107316 -1.3096e+001 -4.9357e+000  1.1882e+000 31026 107091,107221,107117
 1.1000e+000 107293 -9.5103e+000 -4.2688e+000  1.3219e-001 31026 107065,107221,107091
 1.1000e+000 107270 -1.9962e+001  2.0780e+001 -2.4740e+000 31026 107143,107195,107169
 1.1000e+000 107247 -2.9583e+001 -2.6582e+000 -3.8106e+000 31026 107117,107195,107143
 1.1000e+000 107538 -1.0200e+001  1.0753e+001 -5.0360e-001 30714 107561,107388,107362
 1.1000e+000 107515 -9.2590e+000  1.2733e+001 -1.0019e+000 30714 107561,107362,107466
 1.1000e+000 107492 -8.5229e+000  8.9651e+000 -2.3329e+000 30714 107414,107466,107440
 1.1000e+000 107587 -8.8303e+000  7.8394e+000 -4.3746e-001 30714 107414,107388,107561
 1.1000e+000 107610 -7.5588e+000  1.0287e+001 -1.0232e+000 30714 107414,107561,107466
 1.1000e+000 107990 -8.8535e+000  3.7596e+000  3.5132e+000 30260 108013,107846,107768
 1.1000e+000 107967 -7.9250e+000  6.0784e+000  9.6967e-001 30260 108013,107768,107716
 1.1000e+000 107944 -1.1684e+001  8.7183e+000  1.0767e+000 30260 107716,107768,107742
 1.1000e+000 107921 -5.5314e+000  1.1952e+001  6.8344e+000 30260 107768,107846,107820
 1.1000e+000 107898 -5.8136e+000  4.5163e+000  2.6212e+000 30260 107768,107820,107794
 1.1000e+000 108039 -6.5189e+000  5.2697e+000  2.1551e+000 30260 107872,107846,108013
 1.1000e+000 108062 -6.7918e+000  7.2197e+000 -2.4423e-001 30260 107872,108013,107716
 1.1000e+000 108261  3.6756e+000 -1.2488e+001  6.3935e+000 29870 108284,108085,108163
 1.1000e+000 108238 -3.2352e+000 -3.6253e+000 -4.0122e-003 29870 108085,108189,108163
 1.1000e+000 108215  4.2080e+001  4.6869e+000  1.1107e+001 29870 108284,108163,108137
 1.1000e+000 108310 -1.3844e+001  7.9047e+000  1.9379e+001 29870 108111,108085,108284
 1.1000e+000 108333  4.7998e+000  1.3356e+001  2.1037e+001 29870 108111,108284,108137
 1.1000e+000 108664  7.1899e+000  1.3887e+001 -9.7879e+000 29480 108465,108569,108543
 1.1000e+000 108641 -2.5879e+000  1.8890e+001  5.4426e+000 29480 108439,108569,108465
 1.1000e+000 108618 -8.3741e-002  5.0290e+000 -4.7767e+000 29480 108465,108543,108491
 1.1000e+000 108595  3.8336e+000  5.4141e+000 -4.0188e+000 29480 108491,108543,108517
 1.1000e+000 108993  2.7996e+000  4.0948e+000  2.3335e+000 29076 108794,108872,108820
 1.1000e+000 108970  2.7960e+000  1.9342e+000  3.3277e+000 29076 108768,108872,108794
 1.1000e+000 108947  8.5769e+000  2.5920e+000 -1.8763e+000 29076 108820,108872,108846
 1.1000e+000 108924 -1.3437e-001  2.8615e+000  1.1107e+001 29076 108768,108898,108872
 1.1000e+000 109420 -1.2546e+000  5.0305e+000 -7.6630e+000 28472 109123,109227,109201
 1.1000e+000 109397 -2.5207e+001  2.4071e+000 -5.4051e+000 28472 109123,109253,109227
 1.1000e+000 109374 -6.3238e+000 -1.5971e+000 -5.4019e+000 28472 109123,109201,109175
 1.1000e+000 109351 -1.6916e+001  1.1358e+001 -7.6129e-001 28472 109123,109279,109253
 1.1000e+000 109328 -1.0955e+000  1.2228e+000  7.7406e-001 28472 109123,109175,109149
 1.1000e+000 109305 -2.4099e+001  2.8153e+001 -7.7480e+000 28472 109097,109279,109123
 1.1000e+000 109749 -1.8633e+001  1.3855e+001 -1.3057e+001 28018 109772,109602,109576
 1.1000e+000 109726 -1.9376e+001  6.7244e+000 -1.1290e+001 28018 109772,109576,109550
 1.1000e+000 109703 -2.3168e+001 -3.4882e+000 -1.0137e+001 28018 109524,109628,109550
 1.1000e+000 109680 -1.6888e+001 -5.0886e+000 -4.8229e+000 28018 109524,109654,109628
 1.1000e+000 109798 -1.7571e+001  1.2241e+001 -5.0027e+000 28018 109628,109602,109772
 1.1000e+000 109821 -1.8130e+001  6.0072e-001 -5.9732e+000 28018 109628,109772,109550
 1.1000e+000 110199 -1.4006e+001  3.0790e-001 -7.1135e+000 27564 110029,110081,110055
 1.1000e+000 110176 -7.0103e+000  1.0516e+001 -3.6129e+000 27564 109925,110081,110029
 1.1000e+000 110153 -3.9142e+000 -4.0341e-001 -9.5543e-001 27564 109925,110029,109977
 1.1000e+000 110130 -7.9146e-001  1.2049e+000  8.7597e-001 27564 109977,110029,110003
 1.1000e+000 110107 -7.9873e-001  4.2598e+000  1.4262e+000 27564 109925,109977,109951
 1.1000e+000 110398  2.2276e+001  2.6518e+001 -2.2477e+000 27003 110248,110326,110300
 1.1000e+000 110375  1.8614e+001  2.1522e+001 -3.9891e+000 27003 110222,110326,110248
 1.1000e+000 110352 -2.8797e+000  1.1563e+001 -9.6065e+000 27003 110248,110300,110274
 1.1000e+000 110646  2.7598e+001  1.2252e+000  1.2232e+001 26563 110669,110473,110421
 1.1000e+000 110623  2.1709e+001 -2.0350e+001  2.0612e+001 26563 110669,110421,110551
 1.1000e+000 110600  3.1324e+001  8.8026e+000  9.2745e+000 26563 110473,110525,110499
 1.1000e+000 110577  1.6783e+001 -1.5744e+001  2.8464e+001 26563 110421,110473,110447
 1.1000e+000 110695  2.4800e+001  7.5638e+000  9.0929e+000 26563 110525,110473,110669
 1.1000e+000 110718  2.8308e+001  1.5683e-001  1.7455e+001 26563 110525,110669,110551
 1.1000e+000 110870 -1.0606e+001  1.2430e+001 -9.0438e+000 26166 110769,110821,110795
 1.1000e+000 110847 -4.3425e+000  8.6859e+000 -4.9860e+000 26166 110743,110821,110769
 1.1000e+000 111380 -1.6307e+001 -2.8978e-001  4.6392e+000 25712 111403,111109,111083
 1.1000e+000 111357 -1.2933e+001  2.2450e+000  3.5286e+000 25712 111403,111083,111239
 1.1000e+000 111334 -2.4343e+001  6.8443e-001  1.2816e+001 25712 111109,111161,111135
 1.1000e+000 111311 -1.5518e+001  7.4511e-001  2.7897e+000 25712 111057,111239,111083
 1.1000e+000 111288 -9.0630e+000 -1.8447e+000  3.6791e+000 25712 111161,111239,111187
 1.1000e+000 111265 -5.6499e+000  6.7505e-001  2.3943e+000 25712 111187,111239,111213
 1.1000e+000 111429 -1.2927e+001 -3.6129e+000  5.8160e+000 25712 111161,111109,111403
 1.1000e+000 111452 -8.8698e+000 -7.8504e-001  4.5587e+000 25712 111161,111403,111239
 1.1000e+000 111651 -1.0794e+001  2.9787e+000  1.1344e+000 25300 111674,111501,111475
 1.1000e+000 111628 -1.0767e+001 -1.4577e-001  1.4447e+000 25300 111674,111475,111579
 1.1000e+000 111605 -1.1756e+001  4.0233e+000 -1.3774e+000 25300 111501,111553,111527
 1.1000e+000 111700 -1.1251e+001  5.5394e+000  1.0503e+000 25300 111553,111501,111674
 1.1000e+000 111723 -1.0873e+001  2.9457e+000  1.6009e+000 25300 111553,111674,111579
 1.1000e+000 111922  8.8344e+000  4.6651e+000  1.6343e+000 24732 111798,111850,111824
 1.1000e+000 111899  5.7283e+000  6.9782e+000 -3.2841e+000 24732 111772,111850,111798
 1.1000e+000 111876  4.5888e+000  7.3551e+000 -2.9383e+000 24732 111746,111850,111772
 1.1000e+000 112255 -2.9239e+000  2.0250e+001 -5.5783e+000 24142 112056,112108,112082
 1.1000e+000 112232  1.7246e-001  1.8393e+001 -2.0559e+000 24142 112056,112134,112108
 1.1000e+000 112209 -7.6749e+000  6.7140e+000  1.3579e+000 24142 112056,112160,112134
 1.1000e+000 112186 -1.7315e+000  5.0115e+000 -7.4259e-001 24142 112030,112160,112056
 1.1000e+000 112601 -2.4722e+001  9.7247e+000  3.2284e+001 23852 112624,112382,112356
 1.1000e+000 112578 -4.2917e+001  9.6672e+000  1.5862e+001 23852 112696,112624,112356
 1.1000e+000 112555 -3.6636e+001  4.3616e+000  2.8852e+000 23852 112696,112356,112304
 1.1000e+000 112532 -3.2854e+001 -4.2363e+000  3.0956e+000 23852 112304,112356,112330
 1.1000e+000 112509  5.5855e+000  4.0298e+001  2.0710e+001 23852 112278,112460,112304
 1.1000e+000 112486  7.3786e+001  2.2992e+001  1.1028e+001 23852 112382,112434,112408
 1.1000e+000 112650  4.6794e+001  2.5340e+001  4.3685e+001 23852 112434,112382,112624
 1.1000e+000 112673 -1.7468e+001 -4.1421e+000  2.7557e+001 23852 112434,112624,112460
 1.1000e+000 112722 -1.9892e+001  2.2053e+001  2.4207e+001 23852 112460,112624,112696
 1.1000e+000 112745 -1.8798e+001  1.0492e+001  1.0148e+001 23852 112460,112696,112304
 1.1000e+000 113015 -4.4595e+001  4.6563e+001 -1.2751e+001 23490 112842,112894,112868
 1.1000e+000 112992 -3.5953e+001  1.4270e+001 -1.2018e+001 23490 112816,112894,112842
 1.1000e+000 112969 -3.1555e+001  1.6381e+001 -3.5830e+000 23490 112790,112894,112816
 1.1000e+000 112946 -3.8778e+001 -6.5250e-001 -2.4896e+000 23490 112790,112920,112894
 1.1000e+000 113348 -8.7872e+000  6.7395e+000 -7.7055e+000 22970 113175,113253,113227
 1.1000e+000 113325 -4.5544e+000  5.0136e-001 -5.3025e+000 22970 113149,113253,113175
 1.1000e+000 113302 -1.0517e+001 -5.6006e+000 -1.5773e+001 22970 113175,113227,113201
 1.1000e+000 113279 -1.9328e+000  5.6227e+000 -4.2467e+000 22970 113123,113253,113149
 1.1000e+000 113645 -1.1136e+001 -2.6243e+000 -3.5399e+000 22366 113423,113527,113449
 1.1000e+000 113622 -1.4964e+001 -7.8688e+000 -5.3497e+000 22366 113371,113527,113423
 1.1000e+000 113599 -1.1788e+001 -3.8089e+000 -2.0953e+000 22366 113449,113527,113501
 1.1000e+000 113576 -8.8150e+000 -5.1335e+000  1.3923e+000 22366 113449,113501,113475
 1.1000e+000 113553 -6.3706e+000  9.0053e+000 -9.3590e+000 22366 113371,113423,113397
 1.1000e+000 113893 -6.1156e+000 -7.7923e+000 -1.0945e+001 21912 113916,113746,113720
 1.1000e+000 113870 -3.8057e+000 -3.1225e+000 -9.6855e+000 21912 113916,113720,113668
 1.1000e+000 113847 -9.7838e+000 -3.2365e+000 -1.0041e+001 21912 113988,113798,113772
 1.1000e+000 113824 -1.8359e+000  3.8330e+000 -1.6384e+001 21912 113668,113720,113694
 1.1000e+000 113942 -3.8241e+000 -1.7084e+000 -1.1226e+001 21912 113772,113746,113916
 1.1000e+000 113965 -6.3963e+000 -2.5178e+000 -1.0167e+001 21912 113988,113772,113916
 1.1000e+000 114014 -5.4729e+000 -2.4201e+000 -9.6419e+000 21912 113668,113798,113988
 1.1000e+000 114037 -4.4497e+000 -3.2217e+000 -9.3088e+000 21912 113668,113988,113916
 1.1000e+000 114287  6.8112e+000  2.9430e-001 -2.3398e+000 21408 114088,114140,114114
 1.1000e+000 114264  1.0107e+001  3.2580e+000 -4.4675e+000 21408 114310,114140,114088
 1.1000e+000 114241  9.3865e+000  6.0196e+000 -9.0570e+000 21408 114310,114088,114192
 1.1000e+000 114218  5.9701e+000  7.7365e+000 -8.3115e+000 21408 114062,114192,114088
 1.1000e+000 114336  9.8842e+000 -3.6698e+000 -4.0864e+000 21408 114166,114140,114310
 1.1000e+000 114359  9.8634e+000  1.5973e+000 -7.8303e+000 21408 114166,114310,114192
 1.1000e+000 114609  2.8670e+001  2.2456e+001  8.0584e+000 21018 114632,114488,114436
 1.1000e+000 114586  2.5884e+001  1.9775e+001  5.2312e+000 21018 114632,114436,114410
 1.1000e+000 114563  3.3809e+001  1.5091e+001  5.8316e+000 21018 114384,114514,114410
 1.1000e+000 114540  1.0028e+001  1.9376e+001  6.4861e+000 21018 114436,114488,114462
 1.1000e+000 114658  3.3130e+001  2.2584e+001  1.1335e+001 21018 114514,114488,114632
 1.1000e+000 114681  2.9494e+001  1.9756e+001  8.5493e+000 21018 114514,114632,114410
 1.1000e+000 114882  1.9435e+001  1.4855e+001  5.6396e+000 20614 114732,114784,114758
 1.1000e+000 114859  1.0016e+001  1.3906e+001  1.4645e+000 20614 114732,114810,114784
 1.1000e+000 114836  7.0212e+000  1.0858e+001  2.2536e-001 20614 114706,114810,114732
 1.1000e+000 115132 -8.6564e+000  7.4236e+000 -2.6452e+000 20110 114907,115011,114933
 1.1000e+000 115109 -1.2170e+000  1.2475e+001 -5.5697e+000 20110 114907,115037,115011
 1.1000e+000 115086 -6.6394e+000  7.9144e+000 -2.3717e+000 20110 114933,115011,114985
 1.1000e+000 115063 -7.5837e+000  1.2017e+001 -6.5943e+000 20110 114933,114985,114959
 1.1000e+000 115284 -8.4411e+000  8.0643e+000 -1.9108e+000 19456 115378,115307,115157
 1.1000e+000 115261 -1.1305e+001  1.2512e+001 -3.1532e+000 19456 115378,115157,115235
 1.1000e+000 115333 -9.2325e+000  8.1372e+000 -1.1960e+000 19456 115183,115157,115307
 1.1000e+000 115404 -1.0260e+001  5.7522e-001 -2.6307e+000 19456 115209,115307,115378
 1.1000e+000 115427 -1.2299e+001  6.1722e+000 -4.3191e+000 19456 115209,115378,115235
 1.1000e+000 115677 -1.5974e+001  4.4329e+000  5.4203e-001 19002 115504,115582,115530
 1.1000e+000 115654 -1.3537e+001  4.2467e+000  4.3005e-001 19002 115478,115582,115504
 1.1000e+000 115631 -1.5861e+001  3.8070e+000  4.5395e+000 19002 115452,115582,115478
 1.1000e+000 115608 -7.9795e+000  5.0362e+000 -6.6868e+000 19002 115530,115582,115556
 1.1000e+000 115998  1.1727e+001  2.4668e+001 -3.0011e+000 18712 115802,115880,115854
 1.1000e+000 115975  1.9028e+001  3.3894e+001  1.2234e+000 18712 115724,115880,115802
 1.1000e+000 115952  1.9862e+001  2.3581e+001 -1.9939e-002 18712 115724,115802,115776
 1.1000e+000 115929  2.2007e+001  2.4912e+001  3.8174e+000 18712 115724,115776,115750
 1.1000e+000 115906  1.6130e+001  2.6091e+001 -3.8941e+000 18712 115802,115854,115828
 1.1000e+000 116270 -3.7995e+001 -2.2771e+001  7.1323e-002 18308 116045,116123,116071
 1.1000e+000 116247 -3.6247e+001 -2.5106e+001  1.2652e+001 18308 116045,116175,116123
 1.1000e+000 116224 -6.4200e+001 -6.6477e+000  7.6829e+000 18308 116123,116175,116149
 1.1000e+000 116201 -1.6181e+001 -1.3276e+001 -1.7621e+000 18308 116071,116123,116097
 1.1000e+000 116422 -1.4855e+001  2.2222e+000 -1.0354e-001 17996 116321,116373,116347
 1.1000e+000 116399 -1.3343e+001  3.5100e+000  7.2617e-001 17996 116295,116373,116321
 1.1000e+000 116574  2.4867e+001  7.4478e+000  5.9918e+000 17392 116473,116525,116499
 1.1000e+000 116551  4.7914e+001  2.5332e+001  1.3825e+001 17392 116447,116525,116473
 1.1000e+000 116797  5.1259e+000 -9.5395e+000 -1.5930e+000 16938 116621,116699,116673
 1.1000e+000 116774  6.3905e+000 -1.5808e+001 -1.7022e-003 16938 116621,116725,116699
 1.1000e+000 116751  6.6413e+000 -6.0041e+000 -6.8004e-001 16938 116621,116673,116647
 1.1000e+000 116998  3.7230e+001  4.4422e+000  6.4983e+000 16434 117021,116874,116848
 1.1000e+000 116975 -1.4403e+001 -5.7885e+000 -5.8521e+000 16434 117021,116848,116822
 1.1000e+000 116952  5.8051e+001  2.9653e+001  2.1559e+001 16434 116874,116926,116900
 1.1000e+000 117047  5.6436e+001 -2.7062e+000  9.8467e+000 16434 116926,116874,117021
 1.1000e+000 117070  3.9573e+001  1.1041e+001 -2.6174e+000 16434 116926,117021,116822
 1.1000e+000 117293 -3.1613e+000 -1.5603e+000 -5.2291e-001 16070 117117,117169,117143
 1.1000e+000 117270 -1.2783e+001 -4.7025e+000 -1.1565e+000 16070 117117,117221,117169
 1.1000e+000 117247 -1.4889e+001 -6.6861e+000 -2.1121e+000 16070 117169,117221,117195
 1.1000e+000 117445 -5.3209e+001 -2.6090e+001 -3.6260e+000 15645 117318,117370,117344
 1.1000e+000 117422 -6.1191e+001 -3.0955e+001  2.8765e-001 15645 117318,117396,117370
 1.1000e+000 117548  1.0507e+000  4.5432e+000  5.8835e+000 417 117470,117522,117496
 1.2000e+000 70760  9.8785e+000 -9.2518e+000  7.9257e-001 70380 70633,70685,70659
 1.2000e+000 70737 -7.1273e+000 -7.2851e+000 -4.2343e+000 70380 70633,70711,70685
 1.2000e+000 70861 -2.8591e-001 -2.5390e+000 -9.2005e-002 70068 70783,70835,70809
 1.2000e+000 71180 -4.5733e-002  4.0335e+000  1.7702e-001 69870 70932,70984,70958
 1.2000e+000 71157 -6.6407e-001  3.7360e+000 -9.4371e-002 69870 70932,71010,70984
 1.2000e+000 71134 -2.6193e+000  1.4823e+000 -9.4258e-001 69870 70932,71036,71010
 1.2000e+000 71111 -1.7707e+000  1.7053e+000  3.3006e+000 69870 70932,71062,71036
 1.2000e+000 71088 -4.0299e-001  3.2440e+000  4.9050e-001 69870 70906,71062,70932
 1.2000e+000 71428  1.8022e+000  1.8252e+001  6.9510e+000 69694 71451,71281,71255
 1.2000e+000 71405  5.0953e+000  1.4292e+001  7.3357e+000 69694 71523,71451,71255
 1.2000e+000 71382  7.3047e+000  1.7892e+001  9.5608e+000 69694 71523,71255,71229
 1.2000e+000 71359  1.8587e+000  1.0657e+001  5.7668e+000 69694 71595,71333,71307
 1.2000e+000 71477  4.2429e-001  1.5059e+001  7.2318e+000 69694 71307,71281,71451
 1.2000e+000 71500  1.4115e+000  1.3364e+001  3.7572e+000 69694 71595,71307,71451
 1.2000e+000 71549  1.7931e+000  1.5124e+001  4.0563e+000 69694 71203,71451,71523
 1.2000e+000 71572  1.9190e+000  1.5407e+001  5.8717e+000 69694 71203,71523,71229
 1.2000e+000 71621  2.2090e+000  6.6477e+000  4.6920e+000 69694 71203,71333,71595
 1.2000e+000 71644  8.0966e-001  8.7059e+000  3.8207e+000 69694 71203,71595,71451
 1.2000e+000 71745 -9.4659e-001  5.7658e-002 -3.3319e-001 69382 71667,71719,71693
 1.2000e+000 72100 -2.9338e+000  2.6309e+000  1.8709e-001 69184 71875,71979,71901
 1.2000e+000 72077  3.2325e-001  8.1819e-001  1.9873e+000 69184 71875,72005,71979
 1.2000e+000 72054 -9.3612e-001 -2.7584e-001 -2.1327e+000 69184 71901,71979,71953
 1.2000e+000 72031  8.7039e-001  1.1165e+000 -1.2731e+000 69184 71901,71953,71927
 1.2000e+000 72250  1.7903e-001  8.1865e-001  4.2160e-001 68986 72149,72201,72175
 1.2000e+000 72227 -1.0207e+000  7.4196e-001  4.5921e-001 68986 72123,72201,72149
 1.2000e+000 72547 -6.4463e-001  1.1490e+000  3.1992e+000 68582 72570,72403,72377
 1.2000e+000 72524 -4.0942e-001  1.1118e+000  3.0142e+000 68582 72570,72377,72351
 1.2000e+000 72501 -6.1487e-001  4.2066e+000  1.3674e+000 68582 72642,72299,72429
 1.2000e+000 72478  1.0258e+000  2.5291e+000  4.4960e-001 68582 72273,72429,72299
 1.2000e+000 72455  5.3917e-001  1.3546e+001  7.5054e+000 68582 72299,72351,72325
 1.2000e+000 72596 -4.5368e-001  7.2765e-001  2.1921e+000 68582 72429,72403,72570
 1.2000e+000 72619  4.9303e-001  2.9144e+000  1.8406e+000 68582 72642,72429,72570
 1.2000e+000 72668 -1.5950e+000  3.0101e+000  2.6599e+000 68582 72351,72299,72642
 1.2000e+000 72691 -7.2608e-001  1.1137e+000  3.0516e+000 68582 72351,72642,72570
 1.2000e+000 73095 -1.1627e+001 -1.0191e+000 -5.3798e-002 68384 72873,72925,72899
 1.2000e+000 73072 -1.2955e+001  1.8993e+001  8.1188e+000 68384 72847,72925,72873
 1.2000e+000 73049 -6.1012e+000  1.2726e+000  2.1089e+001 68384 72847,72951,72925
 1.2000e+000 73026  1.2862e+001 -2.9046e+000  1.0503e+001 68384 72821,72951,72847
 1.2000e+000 73003 -8.7189e-001  4.1385e+000 -4.9292e+000 68384 72821,72977,72951
 1.2000e+000 73552 -1.9909e+000  1.4307e+001  4.5541e+000 68044 73304,73434,73408
 1.2000e+000 73529 -1.4559e+000  7.6569e+000 -3.8256e+000 68044 73278,73434,73304
 1.2000e+000 73506  1.4626e+001  1.2193e+000  6.1529e+000 68044 73356,73408,73382
 1.2000e+000 73483  1.8945e+001 -1.1496e+000  7.0415e-001 68044 73304,73408,73356
 1.2000e+000 73460  7.5039e+000  3.0660e+000 -4.7717e+000 68044 73304,73356,73330
 1.2000e+000 73871 -3.0103e+000  1.2768e+001 -4.8004e+000 67846 73675,73727,73701
 1.2000e+000 73848  1.0014e+000  1.0332e+001 -4.8144e+000 67846 73649,73727,73675
 1.2000e+000 73825 -2.8846e+000 -2.9512e-001 -7.2207e+000 67846 73623,73727,73649
 1.2000e+000 73802  5.0879e+000  3.9406e+000 -4.1949e+000 67846 73623,73753,73727
 1.2000e+000 73779  1.0963e+000 -5.7515e-001 -3.9798e-001 67846 73597,73753,73623
 1.2000e+000 74021  6.4395e-001 -3.5467e+000  4.9764e-001 67598 73920,73972,73946
 1.2000e+000 73998  1.3201e+000 -1.4881e+000  2.4266e-001 67598 73894,73972,73920
 1.2000e+000 74271  2.6324e-001 -1.4569e+000  1.2178e+000 67286 74072,74176,74150
 1.2000e+000 74248 -3.9154e-001  2.6357e-001  1.2794e+000 67286 74046,74176,74072
 1.2000e+000 74225  4.5448e-001 -6.4423e-001  1.1725e+000 67286 74072,74150,74098
 1.2000e+000 74202  1.2314e-001 -1.1563e+000  6.6557e-001 67286 74098,74150,74124
 1.2000e+000 74374 -1.4042e+000  2.0194e+000  4.0324e+000 67088 74296,74348,74322
 1.2000e+000 74646 -4.3627e+000  1.0392e+001 -4.2107e+000 66890 74421,74525,74447
 1.2000e+000 74623 -4.6057e-002  1.3048e+001 -8.8179e-001 66890 74421,74551,74525
 1.2000e+000 74600  2.7545e-002  1.6497e+001 -1.7521e+000 66890 74447,74525,74473
 1.2000e+000 74577 -7.2441e+000  1.3402e+001  1.4605e+000 66890 74473,74525,74499
 1.2000e+000 75254 -2.2902e+000  1.2314e+000 -2.8934e+000 66528 74885,75067,75041
 1.2000e+000 75231  3.4011e+000  6.7998e+000 -4.6687e-001 66528 74859,75067,74885
 1.2000e+000 75208  4.5547e-001  1.1674e+001 -1.1558e+000 66528 74937,75015,74963
 1.2000e+000 75185 -2.9900e+000  2.6248e+000 -1.9691e+000 66528 74911,75015,74937
 1.2000e+000 75162 -2.2232e+000  4.2405e+000 -1.2465e+000 66528 74911,75041,75015
 1.2000e+000 75139 -8.7085e-001  6.0256e+000 -5.6015e-001 66528 74885,75041,74911
 1.2000e+000 75116 -3.8539e+000 -1.9007e+000 -4.6702e+000 66528 74833,75067,74859
 1.2000e+000 75093 -4.8978e+000  5.7940e+000  1.2771e+000 66528 74963,75015,74989
 1.2000e+000 75453 -2.7024e+000  2.0830e+001 -2.7618e+000 66238 75303,75381,75355
 1.2000e+000 75430  1.8518e+000  9.3511e+000 -3.4037e+000 66238 75277,75381,75303
 1.2000e+000 75407 -2.7934e+000  1.7297e-002  6.2156e-001 66238 75303,75355,75329
 1.2000e+000 75701  2.2987e+000  1.4715e+001  1.8614e+000 65834 75528,75606,75580
 1.2000e+000 75678 -1.8614e+000  1.7756e+001 -4.5940e-003 65834 75502,75606,75528
 1.2000e+000 75655  1.5691e+000  1.7833e+001  5.2787e+000 65834 75528,75580,75554
 1.2000e+000 75632  5.2579e+000  2.1546e+001  2.1921e+000 65834 75476,75606,75502
 1.2000e+000 75902  1.0033e-001  8.5239e+000 -9.3022e-001 65636 75726,75804,75752
 1.2000e+000 75879  5.2667e+000  1.1692e+001 -2.9441e+000 65636 75726,75830,75804
 1.2000e+000 75856  1.2719e+001  9.2486e+000 -2.6299e+000 65636 75752,75804,75778
 1.2000e+000 76103  1.8345e+001  1.3818e+001 -4.6031e+000 65296 76126,75979,75953
 1.2000e+000 76080  1.7463e+001  2.3321e+001  8.3783e-001 65296 76126,75953,75927
 1.2000e+000 76057  2.9856e+001  4.5481e+001 -1.0363e+001 65296 76198,76005,75979
 1.2000e+000 76152  2.5519e+001  3.1404e+001 -5.8533e+000 65296 76198,75979,76126
 1.2000e+000 76175  1.7409e+001  2.0284e+001 -4.0515e-001 65296 76031,76126,75927
 1.2000e+000 76224  2.2794e+001  2.4889e+001 -3.5332e+000 65296 76031,76005,76198
 1.2000e+000 76247  2.2570e+001  1.9794e+001  1.4313e+000 65296 76031,76198,76126
 1.2000e+000 76602  2.0461e+000  2.9071e+000  5.6656e-001 64892 76377,76481,76403
 1.2000e+000 76579  2.0468e+000  2.2060e+000  7.5332e-002 64892 76377,76507,76481
 1.2000e+000 76556  4.4310e+000  7.5336e+000 -5.1547e-001 64892 76403,76481,76429
 1.2000e+000 76533 -4.2910e+000  4.9253e+000 -7.2118e-001 64892 76429,76481,76455
 1.2000e+000 76801 -1.5748e+001  5.4221e+000  5.7268e+000 64438 76677,76729,76703
 1.2000e+000 76778 -5.5161e+000  3.0126e+001  5.1412e+000 64438 76651,76729,76677
 1.2000e+000 76755 -2.5812e+001  1.3020e+001 -7.8986e+000 64438 76625,76729,76651
 1.2000e+000 77230  8.7443e+000  7.4064e+000 -2.1449e+000 63920 77253,76959,76933
 1.2000e+000 77207  4.8783e+000  5.0952e+000 -1.1184e+000 63920 77253,76933,77063
 1.2000e+000 77184  2.6814e+000  7.9245e+000 -4.1394e+000 63920 76959,77037,76985
 1.2000e+000 77161  3.0738e+000  4.6838e+000 -7.3357e-001 63920 76907,77063,76933
 1.2000e+000 77138 -1.9203e+000  1.2042e+001 -4.0934e+000 63920 76985,77037,77011
 1.2000e+000 77115 -2.2054e-002  3.2283e+000  3.9564e-001 63920 76907,77089,77063
 1.2000e+000 77279  3.7877e+000  9.6837e+000 -2.3369e+000 63920 77037,76959,77253
 1.2000e+000 77302  2.5983e-001  7.6864e+000 -1.4550e+000 63920 77037,77253,77063
 1.2000e+000 77680 -8.2460e+000  6.6965e+000  1.7040e+001 63316 77703,77484,77432
 1.2000e+000 77657 -1.0707e+001  1.9486e+000  1.3023e+001 63316 77703,77432,77406
 1.2000e+000 77634 -2.3543e+001 -5.4134e+000  1.2130e+001 63316 77406,77536,77510
 1.2000e+000 77611  6.5790e+000  4.8572e+000  2.3054e+001 63316 77432,77484,77458
 1.2000e+000 77588 -4.5222e+000  5.4096e+000  2.9422e+000 63316 77406,77562,77536
 1.2000e+000 77729 -6.7530e+000 -1.4253e+000  1.4676e+001 63316 77510,77484,77703
 1.2000e+000 77752 -9.4648e+000 -2.9835e+000  9.8714e+000 63316 77510,77703,77406
 1.2000e+000 78000 -1.9208e+001 -2.5428e-001  2.0744e-001 62812 77801,77853,77827
 1.2000e+000 77977 -1.2413e+001  4.8211e+000 -2.9708e+000 62812 77801,77879,77853
 1.2000e+000 77954 -1.8458e+001  2.6742e+000 -4.1509e+000 62812 77801,77905,77879
 1.2000e+000 77931 -8.0469e+000  3.1185e+000 -4.8974e+000 62812 77775,77905,77801
 1.2000e+000 78380 -1.4272e+001 -5.7581e+000  5.9435e-001 62350 78184,78262,78236
 1.2000e+000 78357 -1.0016e+001 -6.0101e+000  1.8544e+000 62350 78132,78262,78184
 1.2000e+000 78334 -8.7710e+000 -5.4525e+000  2.2101e+000 62350 78106,78262,78132
 1.2000e+000 78311 -1.0702e+001 -4.7108e+000  2.7268e+000 62350 78132,78184,78158
 1.2000e+000 78288 -1.2805e+001 -3.1494e+000 -9.5624e-001 62350 78184,78236,78210
 1.2000e+000 78837  6.6024e+000  1.1636e+001  2.3978e+000 61946 78615,78667,78641
 1.2000e+000 78814  2.8587e+000  6.8172e+000 -2.6675e+000 61946 78589,78667,78615
 1.2000e+000 78791  5.0157e+000  8.0691e-001  4.4233e-001 61946 78589,78719,78667
 1.2000e+000 78768  1.0898e+001  6.4047e+000 -3.4148e+000 61946 78667,78719,78693
 1.2000e+000 78745  5.5425e+000  4.3738e+000  2.2914e+000 61946 78563,78719,78589
 1.2000e+000 78987  6.5670e+000 -1.4422e+000 -6.9550e-001 61335 79010,78886,78860
 1.2000e+000 78964  1.1443e+000  2.9140e+000  1.1505e+000 61335 79010,78860,78938
 1.2000e+000 79036  7.2200e-001 -3.5823e+000  1.7499e+000 61335 79082,79010,78912
 1.2000e+000 79059 -4.7263e+000 -1.7846e+000 -8.8048e-001 61335 78912,79010,78938
 1.2000e+000 79108  1.0688e+000 -2.0224e+000 -1.2517e+000 61335 78886,79010,79082
 1.2000e+000 79437 -1.2084e+001 -7.3627e-001 -4.7086e+000 60888 79460,79238,79212
 1.2000e+000 79414 -1.3231e+001 -1.5507e+000 -2.5048e+000 60888 79460,79212,79342
 1.2000e+000 79391 -1.4145e+001 -1.6673e+000 -3.5262e+000 60888 79532,79264,79238
 1.2000e+000 79368 -1.3524e+001  9.7318e+000  3.5521e+000 60888 79264,79316,79290
 1.2000e+000 79486 -1.4155e+001 -1.4753e+000 -3.6607e+000 60888 79532,79238,79460
 1.2000e+000 79509 -1.5631e+001 -1.6991e+000 -2.0627e+000 60888 79316,79460,79342
 1.2000e+000 79558 -1.4778e+001 -2.5956e+000 -2.6532e+000 60888 79316,79264,79532
 1.2000e+000 79581 -1.3479e+001 -1.7453e+000 -3.0369e+000 60888 79316,79532,79460
 1.2000e+000 79878 -2.7061e+001 -9.9455e+000 -1.9663e+000 60484 79682,79760,79734
 1.2000e+000 79855 -3.5448e+001 -2.3700e+001  5.4779e+000 60484 79656,79760,79682
 1.2000e+000 79832 -2.9707e+001 -2.1193e+001  6.6123e+000 60484 79604,79760,79656
 1.2000e+000 79809 -2.8832e+001 -3.1685e+001  9.6329e+000 60484 79604,79656,79630
 1.2000e+000 79786 -1.9123e+001 -4.3289e+000  7.1623e-001 60484 79682,79734,79708
 1.2000e+000 80101 -2.7008e+000 -1.7832e+000 -2.9166e-001 60022 79951,80029,80003
 1.2000e+000 80078 -7.8774e+000 -2.6306e+000 -5.1143e-001 60022 79925,80029,79951
 1.2000e+000 80055 -7.1835e+000 -3.4168e+000  3.3711e-001 60022 79951,80003,79977
 1.2000e+000 80351 -1.0986e-001  4.0840e+000  4.6048e+000 59625 80152,80256,80204
 1.2000e+000 80328 -1.4216e+000  9.7414e+000  8.0166e+000 59625 80126,80256,80152
 1.2000e+000 80305  3.5567e+000  1.3590e+001  5.9357e+000 59625 80204,80256,80230
 1.2000e+000 80282  4.8217e+000  5.8547e+000  3.4930e+000 59625 80152,80204,80178
 1.2000e+000 80552  1.7790e+001  8.8682e+000 -5.2597e+000 59121 80575,80402,80376
 1.2000e+000 80529  1.8156e+001 -9.1669e-001 -6.4755e+000 59121 80575,80376,80480
 1.2000e+000 80506  3.0453e+001  8.0326e+000  9.8284e+000 59121 80428,80480,80454
 1.2000e+000 80601  1.6943e+001  1.5073e+001  6.1433e-001 59121 80428,80402,80575
 1.2000e+000 80624  1.7501e+001  5.9215e+000 -8.2375e-001 59121 80428,80575,80480
 1.2000e+000 81183  9.5561e+000  8.4059e+000  3.7133e+000 58553 81206,80863,80837
 1.2000e+000 81160  8.3074e+000  1.2495e+001  2.9520e+000 58553 81350,81206,80837
 1.2000e+000 81137  8.1831e+000  5.5944e+000  4.6343e+000 58553 81278,80915,80863
 1.2000e+000 81114  4.1317e+000  1.0335e+001 -4.7131e-001 58553 81350,80837,80811
 1.2000e+000 81091  1.1149e+001 -2.1743e+000  4.1844e+000 58553 81422,80967,80941
 1.2000e+000 81068  1.2121e+001  2.5889e-002  1.8298e+000 58553 80967,81019,80993
 1.2000e+000 81045  9.4440e+000  3.5262e+000  3.9299e+000 58553 80863,80915,80889
 1.2000e+000 81232  7.6286e+000  7.5158e+000  3.4394e+000 58553 81278,80863,81206
 1.2000e+000 81255  1.0308e+001  4.0462e+000  2.5719e+000 58553 81422,80941,81206
 1.2000e+000 81304  7.7430e+000  1.2115e+000  5.7087e+000 58553 80941,80915,81278
 1.2000e+000 81327  8.6113e+000  4.2301e+000  4.0285e+000 58553 80941,81278,81206
 1.2000e+000 81376  5.2618e+000  7.0968e+000  3.4083e-001 58553 81019,81206,81350
 1.2000e+000 81399  4.8431e+000  7.1719e+000 -2.5220e+000 58553 81019,81350,80811
 1.2000e+000 81448  1.3483e+001  3.4807e+000  1.9592e+000 58553 81019,80967,81422
 1.2000e+000 81471  1.1571e+001  7.2871e+000  3.2277e-002 58553 81019,81422,81206
 1.2000e+000 81768 -3.8842e+000 -9.9737e-001 -4.7329e-001 57877 81791,81572,81520
 1.2000e+000 81745 -1.0260e+000  2.7070e-001 -1.8266e+000 57877 81791,81520,81494
 1.2000e+000 81722 -4.8021e+000 -5.1310e-001  6.2784e-001 57877 81863,81650,81598
 1.2000e+000 81699 -4.1742e+000  6.2872e-001 -4.9141e-001 57877 81598,81650,81624
 1.2000e+000 81676 -5.0544e+000 -2.3959e+000  3.0080e-002 57877 81520,81572,81546
 1.2000e+000 81817 -3.4054e+000 -1.3123e+000  4.4195e-001 57877 81598,81572,81791
 1.2000e+000 81840 -4.2821e+000 -6.4737e-001  2.2705e-001 57877 81863,81598,81791
 1.2000e+000 81889 -3.3505e+000 -2.8230e+000  1.2606e+000 57877 81494,81650,81863
 1.2000e+000 81912 -1.7311e+000 -1.6542e+000  3.7000e-001 57877 81494,81863,81791
 1.2000e+000 82160  3.3753e+000  8.2676e+000  4.3382e+000 57473 81935,82039,82013
 1.2000e+000 82137  1.3182e+001  1.1144e+001  2.9925e+000 57473 81935,82065,82039
 1.2000e+000 82114  4.0418e+000  9.0160e+000  3.8678e+000 57473 81935,82013,81961
 1.2000e+000 82091  4.3940e+000  6.7579e+000  4.6137e+000 57473 81961,82013,81987
 1.2000e+000 82719 -1.3421e+000  2.9799e+000  3.6113e+000 56962 82814,82742,82425
 1.2000e+000 82696 -1.3580e+000  4.4552e-001  5.9007e+000 56962 82742,82347,82555
 1.2000e+000 82673  2.3755e-001  3.9454e+000  3.1423e+000 56962 82814,82425,82399
 1.2000e+000 82650 -7.2217e+000  5.5918e+000 -6.0440e-001 56962 82425,82477,82451
 1.2000e+000 82627 -2.7621e+000  8.9066e+000  2.9856e+000 56962 82425,82529,82477
 1.2000e+000 82604 -4.5650e+000  1.5454e+001  6.8980e+000 56962 82477,82529,82503
 1.2000e+000 82581  2.3296e+000 -6.8047e-001  2.3625e+000 56962 82347,82399,82373
 1.2000e+000 82768 -2.6047e+000  2.2380e+000  4.8387e+000 56962 82529,82425,82742
 1.2000e+000 82791  1.0765e+000  5.7067e+000  6.5125e+000 56962 82529,82742,82555
 1.2000e+000 82840  5.4975e-001  1.6813e+000  4.3953e+000 56962 82347,82742,82814
 1.2000e+000 82863  1.3705e+000  2.0719e+000  4.1766e+000 56962 82347,82814,82399
 1.2000e+000 83467 -1.1852e+001  7.3848e+000 -1.3715e+001 56300 83124,83176,83150
 1.2000e+000 83444 -1.6852e+000  5.4136e+000 -4.0869e+000 56300 83490,83176,83124
 1.2000e+000 83421  2.0683e+000  7.3932e+000 -3.2684e+000 56300 83490,83124,83280
 1.2000e+000 83398  5.9133e+000  1.5002e+001 -3.0740e+000 56300 83202,83280,83254
 1.2000e+000 83375  3.6801e+000  1.2109e+001 -3.6793e+000 56300 83046,83280,83124
 1.2000e+000 83352  2.7810e+000  1.2146e+001 -3.0342e+000 56300 83046,83124,83098
 1.2000e+000 83329  4.1077e+000  4.2406e+000 -3.0000e+000 56300 83202,83254,83228
 1.2000e+000 83306  7.3711e+000  1.9640e+001 -1.0018e+000 56300 83046,83098,83072
 1.2000e+000 83516 -5.0061e+000  8.0628e+000 -1.1737e+000 56300 83202,83176,83490
 1.2000e+000 83539 -1.1507e+000  9.8089e+000 -7.9359e-001 56300 83202,83490,83280
 1.2000e+000 83787 -7.9698e+000  1.1865e+000 -1.5139e-001 55960 83588,83692,83666
 1.2000e+000 83764 -1.1639e+001  1.4238e+001  5.7528e+000 55960 83562,83692,83588
 1.2000e+000 83741  1.9815e-002  1.8323e+000  1.5538e+000 55960 83588,83666,83614
 1.2000e+000 83718 -8.2241e+000  4.1735e+000  2.7217e+000 55960 83614,83666,83640
 1.2000e+000 83937  6.3920e-001 -1.5073e+000 -3.2501e+000 55499 83810,83862,83836
 1.2000e+000 83914 -8.2930e+000  7.9815e-001 -2.4351e+000 55499 83810,83888,83862
 1.2000e+000 84138 -3.7309e+000 -9.7269e+000 -7.6221e-002 55152 83988,84066,84040
 1.2000e+000 84115  6.0050e+000  1.3338e+001 -1.7280e-003 55152 83962,84066,83988
 1.2000e+000 84092  6.2777e+000  1.2310e+001  7.0342e+000 55152 83988,84040,84014
 1.2000e+000 84471 -1.1521e+001  1.6037e+001  1.5725e+001 54648 84324,84376,84350
 1.2000e+000 84448 -1.3416e+001 -5.1152e+000  1.5900e+001 54648 84272,84376,84324
 1.2000e+000 84425 -1.8386e+001 -2.2479e+001  1.7249e+001 54648 84246,84376,84272
 1.2000e+000 84402 -2.0897e+001 -7.7891e+000  1.7886e+001 54648 84272,84324,84298
 1.2000e+000 84849 -4.1855e+000 -3.2047e+000  6.1756e-001 53922 84627,84731,84705
 1.2000e+000 84826 -1.4991e+000 -5.6872e-001  1.8414e+000 53922 84575,84731,84627
 1.2000e+000 84803 -1.4134e-001  7.3477e-001 -4.1990e-001 53922 84575,84627,84601
 1.2000e+000 84780 -2.8321e+000 -3.2986e+000  2.2654e+000 53922 84627,84705,84653
 1.2000e+000 84757 -5.3812e+000 -1.9745e+000  1.8233e+000 53922 84653,84705,84679
 1.2000e+000 85581 -1.7941e+001  1.7366e+000  1.9164e+000 53582 85604,85111,85319
 1.2000e+000 85558 -3.2478e+000 -6.4389e-001  3.0801e+000 53582 85111,85345,85319
 1.2000e+000 85535 -1.2944e+001  5.1470e+000  5.8760e+000 53582 85604,85319,85293
 1.2000e+000 85512 -4.3767e+000  7.7407e+000  1.7752e+001 53582 85241,85293,85267
 1.2000e+000 85489 -1.5430e+001  7.3363e+000  8.7659e+000 53582 85676,85241,85189
 1.2000e+000 85466 -6.6430e+000  9.1829e+000  4.3118e+000 53582 85676,85189,85137
 1.2000e+000 85443 -1.9211e+001  1.7177e+001  9.5239e+000 53582 85189,85241,85215
 1.2000e+000 85420 -5.3514e+000  2.4491e+001  3.5599e+000 53582 85137,85189,85163
 1.2000e+000 85397 -6.9049e+000  4.3517e+000 -1.0153e-001 53582 85111,85371,85345
 1.2000e+000 85630 -1.7460e+001  8.4477e+000  7.8263e+000 53582 85137,85111,85604
 1.2000e+000 85653 -1.4365e+001  7.8452e+000  9.2387e+000 53582 85748,85604,85293
 1.2000e+000 85702 -1.6746e+001  3.9887e+000  1.3032e+001 53582 85293,85241,85676
 1.2000e+000 85725 -1.2630e+001  8.2284e+000  8.7016e+000 53582 85748,85293,85676
 1.2000e+000 85774 -1.1544e+001  6.7959e+000  9.9170e+000 53582 85137,85604,85748
 1.2000e+000 85797 -1.0537e+001  6.5553e+000  9.5501e+000 53582 85137,85748,85676
 1.2000e+000 86303  1.0857e+001  1.2239e+001  2.0008e+000 53178 86326,86084,86006
 1.2000e+000 86280  1.1259e+001  1.2203e+001  1.8270e+000 53178 86326,86006,86162
 1.2000e+000 86257  1.5813e+001  1.5453e+001 -5.6463e+000 53178 86398,86110,86084
 1.2000e+000 86234  1.2060e+001  8.8439e+000  1.9217e-001 53178 86006,86058,86032
 1.2000e+000 86211  9.2349e+000  9.1760e+000  1.2104e+000 53178 86006,86084,86058
 1.2000e+000 86188  8.5930e+000  9.8677e+000  5.3553e+000 53178 85980,86162,86006
 1.2000e+000 86352  1.0046e+001  9.8446e+000  9.0471e-001 53178 86398,86084,86326
 1.2000e+000 86375  4.9689e+000  1.4324e+001  7.9613e-001 53178 86136,86326,86162
 1.2000e+000 86424  1.6033e+001  1.9589e+001 -9.2001e+000 53178 86136,86110,86398
 1.2000e+000 86447  1.4372e+001  2.2660e+001 -2.8965e+000 53178 86136,86398,86326
 1.2000e+000 86904  2.7322e+000  2.5286e+001 -3.4996e-001 52774 86708,86760,86734
 1.2000e+000 86881  2.0697e+000  1.5414e+001 -3.8305e+000 52774 86656,86760,86708
 1.2000e+000 86858  1.1628e+001  1.6777e+001 -2.5686e+000 52774 86656,86708,86682
 1.2000e+000 86835  9.0311e+000  1.6174e+001 -2.0735e+000 52774 86630,86760,86656
 1.2000e+000 86812  8.6124e+000  1.4996e+001 -1.2411e-002 52774 86630,86786,86760
 1.2000e+000 87489  4.0782e+000  2.7767e+001  7.8649e+000 52234 87512,87218,87192
 1.2000e+000 87466 -4.7696e-001  2.1344e+001  2.6618e+000 52234 87512,87192,87348
 1.2000e+000 87443 -3.8016e+000  1.9078e+001  1.1156e+000 52234 87166,87348,87192
 1.2000e+000 87420 -5.8508e+000  1.5828e+001  3.0624e-001 52234 87296,87348,87322
 1.2000e+000 87397  1.1039e+000  1.4698e+001  3.0100e+000 52234 87218,87296,87270
 1.2000e+000 87374  7.3766e+000  1.6563e+001  3.0298e+000 52234 87218,87270,87244
 1.2000e+000 87538  4.2462e-001  1.8218e+001  3.9064e+000 52234 87296,87218,87512
 1.2000e+000 87561 -1.3386e+000  1.7741e+001 -1.1257e+000 52234 87296,87512,87348
 1.2000e+000 87841  3.9588e+000  2.5425e+001  6.9678e-001 51830 87665,87743,87691
 1.2000e+000 87818  7.1452e+000  2.7064e+001  1.4531e+000 51830 87665,87769,87743
 1.2000e+000 87795 -9.7067e+000  1.6267e+001 -5.0394e+000 51830 87864,87691,87743
 1.2000e+000 87890 -2.3811e+001  1.0220e+001 -5.6641e+000 51830 87717,87691,87864
 1.2000e+000 88418 -7.6826e+000 -7.6256e-001  6.0283e+000 51262 88095,88173,88121
 1.2000e+000 88395 -8.4041e+000  5.0517e+000  5.3244e+000 51262 88095,88251,88173
 1.2000e+000 88372 -1.5621e+001 -5.4170e-001 -6.9144e-002 51262 88173,88251,88199
 1.2000e+000 88349 -1.4961e+001  1.6309e+001  1.4363e+001 51262 88095,88277,88251
 1.2000e+000 88326 -4.9452e+000  1.3663e+001  4.6042e+000 51262 88199,88251,88225
 1.2000e+000 88303 -4.5697e+000  7.1850e+000  5.3492e+000 51262 88121,88173,88147
 1.2000e+000 88875 -4.4072e+000  1.1647e+001 -7.9249e+000 50750 88601,88731,88627
 1.2000e+000 88852 -7.9602e+000  2.3331e+001 -1.0091e+001 50750 88601,88757,88731
 1.2000e+000 88829  3.3345e+000  2.1772e+001  1.7119e+000 50750 88627,88731,88653
 1.2000e+000 88806  1.3749e+000  1.7162e+001  1.3796e+000 50750 88653,88731,88705
 1.2000e+000 88783 -2.1137e+001  3.7485e+000 -7.2475e+000 50750 88653,88705,88679
 1.2000e+000 89145 -4.8181e+000 -2.4948e+000  6.5398e-001 50438 88946,89024,88972
 1.2000e+000 89122 -3.0641e+000 -1.9495e+000  1.7227e-001 50438 88946,89050,89024
 1.2000e+000 89099 -4.8258e+000 -2.8366e+000 -2.1713e-001 50438 88920,89050,88946
 1.2000e+000 89076 -6.2911e+000 -4.1483e+000 -1.5527e+000 50438 88972,89024,88998
 1.2000e+000 89525 -4.9165e+000 -3.4557e+000  7.2315e-001 49934 89548,89277,89251
 1.2000e+000 89502 -4.9039e+000 -3.7434e+000  6.9958e-001 49934 89548,89251,89381
 1.2000e+000 89479 -3.3273e+000 -4.7518e+000  1.3994e+000 49934 89303,89381,89329
 1.2000e+000 89456 -3.6112e+000 -1.3851e+000 -1.5551e+000 49934 89251,89407,89381
 1.2000e+000 89433 -2.7009e+000 -3.4113e+000  1.2021e+000 49934 89329,89381,89355
 1.2000e+000 89574 -4.1408e+000 -3.3518e-001  9.6521e-001 49934 89303,89277,89548
 1.2000e+000 89597 -5.3957e+000 -3.3588e+000  1.0144e+000 49934 89303,89548,89381
 1.2000e+000 90054 -9.6874e+000 -8.2714e-001  6.8764e-001 49380 89832,89936,89910
 1.2000e+000 90031 -7.4659e+000 -3.9264e-001  3.2232e+000 49380 89780,89936,89832
 1.2000e+000 90008 -2.2600e+000  2.1184e+000  1.3543e+000 49380 89780,89832,89806
 1.2000e+000 89985 -6.4173e+000 -4.2755e-001  9.3146e-001 49380 89832,89910,89858
 1.2000e+000 89962 -2.6173e+000  1.1191e+001  3.5065e+000 49380 89858,89910,89884
 1.2000e+000 90560 -3.1980e+000 -5.5731e-001  3.5900e+000 48890 90289,90341,90315
 1.2000e+000 90537 -6.4273e+000 -1.9906e+000  1.7386e+000 48890 90289,90393,90341
 1.2000e+000 90514 -7.0456e+000 -1.3394e+000  1.6148e+000 48890 90263,90393,90289
 1.2000e+000 90491 -3.6296e+000  6.6692e-001 -6.8897e-002 48890 90237,90393,90263
 1.2000e+000 90468 -3.9950e+000  3.6112e+000  8.9009e-001 48890 90341,90393,90367
 1.2000e+000 90445 -4.3153e+000  4.6126e-001 -1.4237e-001 48890 90237,90419,90393
 1.2000e+000 91115 -5.4209e+000 -1.2786e+000 -6.0770e-001 48486 90795,90873,90847
 1.2000e+000 91092 -6.1360e+000 -1.0818e+000 -7.7552e-001 48486 90795,90925,90873
 1.2000e+000 91069 -7.2650e+000 -1.0788e+000 -2.2428e-001 48486 90769,90925,90795
 1.2000e+000 91046 -1.1046e+001 -2.1611e+000  8.2780e-002 48486 90769,90951,90925
 1.2000e+000 91023 -6.3667e+000 -2.4193e+000  4.7167e-001 48486 90795,90847,90821
 1.2000e+000 91000 -7.6867e+000 -5.8965e+000 -2.1189e+000 48486 90873,90925,90899
 1.2000e+000 90977 -3.9039e+000  1.8566e+000  2.1479e+000 48486 90743,90951,90769
 1.2000e+000 91265 -1.4481e+000  5.7426e+000  1.8848e-001 48082 91288,91190,91164
 1.2000e+000 91242 -3.5587e+000  1.0414e+000 -2.7535e-001 48082 91360,91288,91164
 1.2000e+000 91314 -1.7722e+000  3.7570e+000  1.5347e+000 48082 91216,91190,91288
 1.2000e+000 91337 -8.5494e-001  3.2818e+000  1.9786e+000 48082 91216,91288,91138
 1.2000e+000 91386  8.9754e-001  4.2425e+000  1.5280e+000 48082 91138,91288,91360
 1.2000e+000 92022  6.1265e+000 -2.2561e+000 -2.1512e+001 47514 92261,92045,91754
 1.2000e+000 91999 -2.7330e+000  2.3231e+000  2.5007e+000 47514 92189,92045,91702
 1.2000e+000 91976 -6.4685e+000  1.8656e+001 -5.7049e+000 47514 92117,91806,91754
 1.2000e+000 91953  9.1895e-001  1.3024e+001  5.8133e-001 47514 92189,91702,91650
 1.2000e+000 91930  2.8469e+001  4.5427e-001 -2.1548e+001 47514 92261,91754,91728
 1.2000e+000 91907 -2.2383e+001  1.4861e+001 -9.9832e+000 47514 91754,91806,91780
 1.2000e+000 91884  1.4787e+001  1.3875e+001 -4.5754e+000 47514 91650,91702,91676
 1.2000e+000 92071 -1.0213e+001  1.1820e+001 -1.3779e+001 47514 92117,91754,92045
 1.2000e+000 92094  1.9494e-001  2.7773e+000 -6.3442e+000 47514 91832,92045,91858
 1.2000e+000 92143  1.2786e+000  2.3175e+001  3.3814e+000 47514 91832,91806,92117
 1.2000e+000 92166  3.8919e-001  1.0353e+001 -4.7699e+000 47514 91832,92117,92045
 1.2000e+000 92215 -1.2139e+000  1.1478e+001 -2.2007e+000 47514 91858,92045,92189
 1.2000e+000 92238 -1.0137e+000  1.6952e+001 -4.0438e+000 47514 91858,92189,91650
 1.2000e+000 92287  8.7893e+000 -9.5831e-001 -2.1835e+000 47514 91702,92045,92261
 1.2000e+000 92310  2.2979e+001  2.1741e-001 -6.3732e-002 47514 91702,92261,91728
 1.2000e+000 92460 -9.5254e+000  6.1593e+000  4.3737e+000 47124 92483,92359,92333
 1.2000e+000 92437 -4.2610e+000 -1.6957e+000 -2.8401e+000 47124 92555,92483,92333
 1.2000e+000 92509 -2.9912e+000  1.0396e+001  6.3009e+000 47124 92685,92483,92385
 1.2000e+000 92532  2.2342e+000  4.5129e+000 -3.8397e-003 47124 92385,92483,92411
 1.2000e+000 92581 -1.8000e-001  3.3749e+000 -1.0305e+000 47124 92411,92483,92555
 1.2000e+000 92711 -1.3224e+000  1.0284e+001  6.6572e+000 47124 92359,92483,92685
 1.2000e+000 93571 -1.4080e+001 -5.0893e+000  3.3355e+000 46834 93594,93208,93104
 1.2000e+000 93548 -1.7528e+001 -6.6347e+000  3.7099e+000 46834 93738,93594,93104
 1.2000e+000 93525 -2.1281e+001 -1.5779e+001 -2.8997e+000 46834 93666,93234,93208
 1.2000e+000 93502 -1.5068e+001 -5.6881e+000  4.0518e+000 46834 93738,93104,93078
 1.2000e+000 93479 -1.9110e+001 -5.7671e+000  1.2732e+000 46834 93810,93260,93234
 1.2000e+000 93456 -8.6717e+000 -5.7177e+000  4.9984e+000 46834 93104,93182,93156
 1.2000e+000 93433 -1.3164e+001 -1.2826e+001  2.7184e+000 46834 93104,93208,93182
 1.2000e+000 93410 -2.8368e+001 -4.9100e+000  6.3594e+000 46834 93286,93338,93312
 1.2000e+000 93387 -1.9414e+001 -6.8469e+000  3.2853e+000 46834 93052,93338,93078
 1.2000e+000 93364 -8.8398e+000 -8.3115e-001  3.3778e+000 46834 93104,93156,93130
 1.2000e+000 93620 -1.7423e+001 -7.8904e+000  8.1824e-001 46834 93666,93208,93594
 1.2000e+000 93643 -1.8843e+001 -2.0259e+000  3.2905e+000 46834 93286,93594,93338
 1.2000e+000 93692 -2.0223e+001 -6.2150e+000  2.4162e-001 46834 93810,93234,93666
 1.2000e+000 93715 -2.0543e+001 -2.9456e+000  1.5726e+000 46834 93286,93666,93594
 1.2000e+000 93764 -1.9535e+001 -5.2717e+000  4.1647e+000 46834 93338,93594,93738
 1.2000e+000 93787 -1.8814e+001 -5.5941e+000  4.2235e+000 46834 93338,93738,93078
 1.2000e+000 93836 -1.6484e+001 -5.2229e+000  2.5662e+000 46834 93286,93260,93810
 1.2000e+000 93859 -1.7653e+001 -5.5622e+000  1.5847e+000 46834 93286,93810,93666
 1.2000e+000 94210 -5.8854e+000 -3.0795e+000  5.2206e-001 46472 94011,94115,94089
 1.2000e+000 94187 -5.1771e+000 -2.0481e+000  8.3728e-001 46472 93985,94115,94011
 1.2000e+000 94164 -1.1137e+001 -5.4587e+000 -1.4703e-001 46472 94037,94089,94063
 1.2000e+000 94141 -1.0152e+001 -4.9686e+000  8.5294e-001 46472 94011,94089,94037
 1.2000e+000 94746  7.5004e+000  1.7147e+001 -7.6769e-001 46068 94576,94628,94602
 1.2000e+000 94723 -5.4509e-001  1.3757e+001 -9.0556e-001 46068 94498,94628,94576
 1.2000e+000 94700  8.8416e+000  1.8813e+001 -6.0834e+000 46068 94472,94628,94498
 1.2000e+000 94677  2.3808e+001  1.9262e+001 -7.6230e-001 46068 94524,94576,94550
 1.2000e+000 94654  1.4030e+001  1.2571e+001  5.0815e+000 46068 94498,94576,94524
 1.2000e+000 95380  2.2439e+001  9.0015e-001  2.9932e+000 45342 95034,95112,95086
 1.2000e+000 95357 -1.2828e+000 -1.9948e+000  3.1040e+000 45342 95034,95190,95112
 1.2000e+000 95334  3.5412e+001 -5.9598e+000 -6.7502e+000 45342 95403,95164,95138
 1.2000e+000 95311  1.5782e+001 -1.8108e+000  2.0101e+000 45342 95403,95138,95112
 1.2000e+000 95288  2.0702e+001 -5.2446e+000  3.4412e-001 45342 95034,95216,95190
 1.2000e+000 95265  1.6276e+001  3.5266e+000  7.6255e+000 45342 95034,95086,95060
 1.2000e+000 95242  2.2903e+001  1.2681e-001  9.2022e-001 45342 95008,95216,95034
 1.2000e+000 95429  1.7392e+001 -5.7016e+000 -8.7381e+000 45342 95190,95164,95403
 1.2000e+000 95452  1.1585e+000  1.5745e+000 -3.8886e+000 45342 95190,95403,95112
 1.2000e+000 96007 -9.1363e+000 -5.3136e+000 -1.8936e+000 44716 96030,95791,95765
 1.2000e+000 95984 -3.6035e+000 -5.6837e+000 -3.1137e+000 44716 96030,95765,95713
 1.2000e+000 95961 -2.5724e+000 -7.3569e+000  7.6016e-001 44716 96174,96102,95661
 1.2000e+000 95938 -2.9923e+000 -5.6528e+000  1.0846e+000 44716 96174,95661,95635
 1.2000e+000 95915 -1.5758e+000 -2.1164e+000 -7.7230e-001 44716 95661,95713,95687
 1.2000e+000 95892  1.2725e+001  1.9433e+000 -9.8738e-001 44716 95713,95765,95739
 1.2000e+000 95869  1.3777e-003 -1.6734e+000 -6.8120e-001 44716 95635,95843,95817
 1.2000e+000 96056 -3.8700e+000 -3.3135e+000 -9.3357e-001 44716 95817,95791,96030
 1.2000e+000 96079 -5.2178e+000 -7.4460e+000 -1.3304e+000 44716 96102,95817,96030
 1.2000e+000 96128 -7.8366e-001 -6.6207e+000  8.1032e-001 44716 95713,95661,96102
 1.2000e+000 96151  4.8397e-001 -5.2300e+000 -1.1273e+000 44716 95713,96102,96030
 1.2000e+000 96200 -1.7850e+000 -5.1126e+000  4.4892e-001 44716 95817,96102,96174
 1.2000e+000 96223 -2.6221e+000 -4.0779e+000  1.0840e+000 44716 95817,96174,95635
 1.2000e+000 96680  8.5212e+000  1.8004e+001 -3.3174e+000 44198 96775,96703,96458
 1.2000e+000 96657  1.0549e+001  2.7158e+000 -7.2933e+000 44198 96703,96406,96562
 1.2000e+000 96634  1.1765e+001  2.3661e+001 -5.4659e+000 44198 96775,96458,96432
 1.2000e+000 96611  1.4328e+001  1.4175e+001 -1.0382e+001 44198 96484,96536,96510
 1.2000e+000 96588 -3.9080e+000  1.5020e+001  3.2715e-001 44198 96458,96536,96484
 1.2000e+000 96729 -2.0891e+000  1.6338e+000  2.1604e+000 44198 96536,96458,96703
 1.2000e+000 96752  9.7756e+000  1.2693e+000 -7.9438e+000 44198 96536,96703,96562
 1.2000e+000 96801  1.6280e+001  3.4658e+000 -3.7636e+000 44198 96406,96703,96775
 1.2000e+000 96824  2.3176e+001  1.3872e+001 -7.0355e+000 44198 96406,96775,96432
 1.2000e+000 97202 -7.8809e+000 -7.3551e+000  4.0548e+000 43750 97225,96980,96928
 1.2000e+000 97179 -7.3808e+000 -8.9005e+000  5.0689e+000 43750 97225,96928,97084
 1.2000e+000 97156 -7.3616e+000 -5.4193e+000  3.9284e+000 43750 96928,96980,96954
 1.2000e+000 97133 -3.9805e+000 -2.1801e+000  2.7452e+000 43750 97006,97084,97058
 1.2000e+000 97110 -1.6751e+000 -3.2946e+000  2.6915e+000 43750 97006,97058,97032
 1.2000e+000 97251 -7.0317e+000 -4.6336e+000  3.5450e+000 43750 97006,96980,97225
 1.2000e+000 97274 -7.3269e+000 -7.2495e+000  4.6304e+000 43750 97006,97225,97084
 1.2000e+000 97522 -1.7646e+000  9.2740e+000 -1.8590e+000 43360 97545,97375,97349
 1.2000e+000 97499 -4.7175e+000  4.0599e+000 -4.1597e+000 43360 97545,97349,97323
 1.2000e+000 97476 -4.6041e-001  6.2209e+000 -6.1700e+000 43360 97617,97427,97401
 1.2000e+000 97453  1.6446e+000  7.8056e+000 -1.2253e+001 43360 97297,97427,97323
 1.2000e+000 97571 -1.1874e+001 -1.3266e+000  2.4096e+000 43360 97401,97375,97545
 1.2000e+000 97594 -1.9598e+000  1.0589e+000 -2.7524e+000 43360 97617,97401,97545
 1.2000e+000 97643  1.8457e+000  1.2561e+001 -1.0210e+001 43360 97323,97427,97617
 1.2000e+000 97666  2.8652e-001  9.7464e+000 -6.3701e+000 43360 97323,97617,97545
 1.2000e+000 98019 -4.2753e+001 -9.9232e-001 -9.2571e+000 42956 97794,97898,97820
 1.2000e+000 97996 -3.8101e+001 -1.3000e+001 -6.2730e+000 42956 97794,97924,97898
 1.2000e+000 97973 -8.1977e+001  1.5743e+000 -2.3529e+000 42956 97820,97872,97846
 1.2000e+000 97950 -7.2036e+001 -5.4339e+000 -8.0824e+000 42956 97820,97898,97872
 1.2000e+000 98446 -1.1625e+001 -3.4720e+000  3.9005e+000 42559 98149,98305,98279
 1.2000e+000 98423 -5.8959e+000  6.4576e-002  5.4679e+000 42559 98123,98305,98149
 1.2000e+000 98400 -7.0132e+000 -2.0655e+000  2.1862e+000 42559 98469,98175,98149
 1.2000e+000 98377 -2.3909e+000  8.6225e+000 -7.1259e-001 42559 98469,98149,98279
 1.2000e+000 98354 -5.9564e+000  3.3986e+000 -1.9680e+000 42559 98175,98253,98227
 1.2000e+000 98331 -4.9655e+000  5.7012e+000 -2.0524e+000 42559 98175,98227,98201
 1.2000e+000 98495 -3.5125e+000  5.2326e+000 -3.1311e+000 42559 98253,98175,98469
 1.2000e+000 98518 -2.3691e+000  9.1301e+000 -5.8834e+000 42559 98253,98469,98279
 1.2000e+000 98847  1.9508e+001  7.3723e+000 -3.1094e+000 42247 98674,98752,98700
 1.2000e+000 98824  8.3333e+000  1.0693e+001  4.4848e+000 42247 98648,98752,98674
 1.2000e+000 98801  1.0624e+001  1.6895e+001  1.1927e+001 42247 98622,98752,98648
 1.2000e+000 98778  2.7115e+001  5.0383e+000  5.6049e+000 42247 98700,98752,98726
 1.2000e+000 99117 -1.0654e+001 -1.0619e+001 -4.5654e-001 41843 98892,98996,98918
 1.2000e+000 99094 -1.2318e+001 -1.0866e+001 -6.1337e-001 41843 98892,99022,98996
 1.2000e+000 99071 -7.5721e+000 -3.7270e+000  9.1336e-001 41843 98918,98996,98970
 1.2000e+000 99048 -1.0498e+001 -4.0910e+000 -1.5774e-001 41843 98918,98970,98944
 1.2000e+000 99625  1.2947e+000  1.8201e+001  9.2481e+000 41232 99648,99380,99354
 1.2000e+000 99602  1.0576e+001  1.8444e+001  7.0980e+000 41232 99648,99354,99328
 1.2000e+000 99579  1.1191e+001  2.5923e+001  1.2675e+001 41232 99720,99432,99380
 1.2000e+000 99556 -2.1408e+000  1.5743e+001  4.4681e+000 41232 99380,99432,99406
 1.2000e+000 99533  8.7377e+000  3.7039e+000  4.6399e+000 41232 99328,99484,99458
 1.2000e+000 99510  2.5311e+001  6.8337e+000  4.6180e+000 41232 99302,99484,99328
 1.2000e+000 99674  3.5472e+000  2.2438e+001  1.0401e+001 41232 99720,99380,99648
 1.2000e+000 99697  6.8639e+000  2.1731e+000  5.3551e+000 41232 99458,99648,99328
 1.2000e+000 99746  2.1574e+001  2.1419e+001  1.6846e+001 41232 99458,99432,99720
 1.2000e+000 99769  1.5460e+001  1.7496e+001  1.3725e+001 41232 99458,99720,99648
 1.2000e+000 100275  2.1269e+001  1.1628e+001 -7.1001e+000 40728 99952,100004,99978
 1.2000e+000 100252  8.2860e+000  6.1552e+000 -1.3425e+001 40728 99952,100030,100004
 1.2000e+000 100229 -3.3637e+000 -1.1114e+001 -8.3669e+000 40728 99952,100134,100030
 1.2000e+000 100206  3.2213e+000  4.7365e+000 -1.0565e+001 40728 100298,100108,100082
 1.2000e+000 100183  2.6629e+000 -2.4405e+000 -1.0955e+001 40728 100298,100082,100030
 1.2000e+000 100160 -1.8589e+001  6.0877e+000 -3.3310e+001 40728 100030,100082,100056
 1.2000e+000 100324  1.6847e+000  1.1013e+001 -7.8706e+000 40728 100134,100108,100298
 1.2000e+000 100347  1.4104e-001  1.9717e+000 -7.6054e+000 40728 100134,100298,100030
 1.2000e+000 100853 -1.2436e+001  1.0584e+001  1.1833e+000 40274 100876,100686,100660
 1.2000e+000 100830 -9.8809e+000  4.5438e+000  3.2875e+000 40274 100948,100876,100660
 1.2000e+000 100807 -1.2908e+001  3.2479e+000 -5.0454e-001 40274 100948,100660,100608
 1.2000e+000 100784 -1.1324e+001  8.2393e+000  4.9619e+000 40274 101020,100556,100712
 1.2000e+000 100761 -7.9597e+000  1.2367e+001  6.6385e+000 40274 100530,100712,100556
 1.2000e+000 100738 -1.1966e+001  9.7608e+000  2.6230e+000 40274 100608,100660,100634
 1.2000e+000 100902 -1.1141e+001  2.4120e+001  5.6715e+000 40274 100712,100686,100876
 1.2000e+000 100925 -1.4241e+001  8.9301e+000  2.5305e+000 40274 101020,100712,100876
 1.2000e+000 100974 -1.2532e+001  8.4912e-001 -1.1292e+000 40274 100582,100876,100948
 1.2000e+000 100997 -1.8375e+001 -9.2479e-001 -4.9238e+000 40274 100582,100948,100608
 1.2000e+000 101046 -7.6367e+000  9.7903e+000  5.5753e+000 40274 100582,100556,101020
 1.2000e+000 101069 -9.7785e+000  1.0507e+001  2.7394e+000 40274 100582,101020,100876
 1.2000e+000 101496  2.1444e+000  8.9363e+000  6.4026e+000 39820 101519,101277,101225
 1.2000e+000 101473 -7.1955e+000 -1.2205e-001  1.9266e+000 39820 101519,101225,101199
 1.2000e+000 101450 -5.9721e-001  8.2057e+000  1.0624e+001 39820 101173,101355,101199
 1.2000e+000 101427  1.8695e+001  2.8966e+000 -2.1012e+000 39820 101277,101355,101303
 1.2000e+000 101404  3.0104e+000  4.5469e+000 -1.8264e+000 39820 101225,101277,101251
 1.2000e+000 101381  1.2637e+001  5.4689e+000 -3.6191e+000 39820 101303,101355,101329
 1.2000e+000 101545  6.7535e+000  4.0427e+000  1.0389e+001 39820 101355,101277,101519
 1.2000e+000 101568  2.3690e+000  1.9846e+000  7.6058e+000 39820 101355,101519,101199
 1.2000e+000 101816 -8.8836e+000 -1.0278e+001  3.9993e+000 39066 101839,101695,101643
 1.2000e+000 101793 -1.0389e+001 -9.2744e+000  2.7232e+000 39066 101839,101643,101591
 1.2000e+000 101770 -7.2441e+000 -1.1549e+001  2.4429e+000 39066 101643,101695,101669
 1.2000e+000 101747 -6.1405e+000 -3.1914e+000  8.4713e-001 39066 101591,101643,101617
 1.2000e+000 101865 -7.9095e+000 -9.7462e+000  3.7699e+000 39066 101721,101695,101839
 1.2000e+000 101888 -8.7844e+000 -8.3548e+000  2.3451e+000 39066 101721,101839,101591
 1.2000e+000 102087 -1.2330e+001 -5.9109e-001 -7.1696e-001 38726 101937,101989,101963
 1.2000e+000 102064 -1.7530e+001 -5.3538e+000  1.2962e+000 38726 101937,102015,101989
 1.2000e+000 102041 -8.4205e+000 -1.4966e+000  2.0441e+000 38726 101911,102015,101937
 1.2000e+000 102337  1.1927e+001  1.3772e+001 -4.3615e+000 38322 102112,102190,102138
 1.2000e+000 102314  9.2154e-001  9.4294e+000  9.5427e+000 38322 102112,102216,102190
 1.2000e+000 102291  2.3347e+001  7.2109e+000  1.2650e+001 38322 102112,102242,102216
 1.2000e+000 102268 -1.0077e+001  6.7213e+000 -2.6290e+000 38322 102138,102190,102164
 1.2000e+000 102489 -3.3786e+000  5.6637e+000  1.8313e+000 38032 102512,102388,102362
 1.2000e+000 102466 -4.8993e+000  1.0769e+001 -8.1882e-001 38032 102512,102362,102440
 1.2000e+000 102538 -2.7880e+000  1.4885e+000  1.1408e+000 38032 102414,102388,102512
 1.2000e+000 102561 -5.8586e+000  4.3223e+000 -2.3900e+000 38032 102414,102512,102440
 1.2000e+000 102894 -1.7015e+000  2.2126e+001 -1.5920e+000 37592 102669,102773,102695
 1.2000e+000 102871  2.0843e+001  2.5695e+001 -1.3785e+001 37592 102669,102799,102773
 1.2000e+000 102848  1.4930e+001  3.3485e+001 -6.0442e-001 37592 102721,102773,102747
 1.2000e+000 102825  3.9527e+000  1.7878e+000 -5.4073e-001 37592 102695,102773,102721
 1.2000e+000 103093  8.2149e+000  2.9921e+001 -5.1435e+000 37188 102917,102995,102943
 1.2000e+000 103070  4.8629e+000  3.5817e+001  3.2988e+000 37188 102917,103021,102995
 1.2000e+000 103047  1.0514e+001  1.9697e+001 -4.4858e-001 37188 102943,102995,102969
 1.2000e+000 103341  1.4285e+001  2.8213e+001  5.4604e+000 36605 103142,103194,103168
 1.2000e+000 103318  1.9521e+001  2.8759e+001  6.2147e+000 36605 103142,103220,103194
 1.2000e+000 103295  3.2940e+001  1.5752e+001 -1.3769e+000 36605 103116,103220,103142
 1.2000e+000 103272  4.4603e+001  3.7400e+001 -1.2915e+001 36605 103116,103246,103220
 1.2000e+000 103949 -7.7512e+000 -1.2371e+001 -3.3922e+000 36127 103554,103606,103580
 1.2000e+000 103926 -1.5385e+001 -9.4850e+000 -3.7526e+000 36127 103528,103606,103554
 1.2000e+000 103903 -1.1551e+001 -3.8983e+000 -7.7761e+000 36127 103528,103736,103606
 1.2000e+000 103880 -1.4016e+001 -9.4369e+000 -6.6264e+000 36127 103972,103710,103632
 1.2000e+000 103857 -1.6794e+001 -1.5673e+001 -1.2615e+001 36127 103972,103632,103606
 1.2000e+000 103834 -1.2907e+001 -5.5723e+000 -6.0282e+000 36127 103632,103710,103658
 1.2000e+000 103811 -2.5360e+001  7.6449e-001 -1.5911e+001 36127 103528,103762,103736
 1.2000e+000 103788 -1.2381e+001 -3.9331e-001 -1.3516e+000 36127 103658,103710,103684
 1.2000e+000 103998 -8.6778e+000 -3.1943e+000 -2.1603e+000 36127 103736,103710,103972
 1.2000e+000 104021 -1.2191e+001 -9.2415e+000 -8.2857e+000 36127 103736,103972,103606
 1.2000e+000 104220 -2.4043e+001  6.7352e+000  5.2787e+000 35787 104070,104148,104122
 1.2000e+000 104197 -2.2258e+001  4.0852e+001  1.2932e+001 35787 104044,104148,104070
 1.2000e+000 104174 -8.0360e+000  1.1509e+001  4.5315e+000 35787 104070,104122,104096
 1.2000e+000 104419 -5.4607e+000  8.5238e+000  9.8886e-001 35440 104269,104321,104295
 1.2000e+000 104396 -2.0973e+000  1.1395e+001  3.5277e+000 35440 104269,104347,104321
 1.2000e+000 104373 -7.3880e+000  6.5765e+000  1.4529e+000 35440 104243,104347,104269
 1.2000e+000 104718 -4.7213e+000  1.3992e+001 -4.0167e+000 34986 104496,104548,104522
 1.2000e+000 104695 -5.9314e+000  1.4435e+001 -5.1995e+000 34986 104741,104548,104496
 1.2000e+000 104672  1.0817e+000  1.5215e+001 -4.3385e+000 34986 104741,104496,104444
 1.2000e+000 104649 -9.4380e+000  1.5785e+001  1.1729e+000 34986 104813,104574,104548
 1.2000e+000 104626  2.0771e+000  1.8456e+001 -9.9484e-001 34986 104444,104496,104470
 1.2000e+000 104767 -9.8330e+000  1.5562e+001 -2.7379e+000 34986 104813,104548,104741
 1.2000e+000 104790 -3.3650e+000  1.5073e+001 -3.2357e+000 34986 104600,104741,104444
 1.2000e+000 104839  4.4945e-001  2.0187e+001  3.2852e+000 34986 104600,104574,104813
 1.2000e+000 104862 -3.5254e+000  1.8265e+001 -2.6686e+000 34986 104600,104813,104741
 1.2000e+000 105014 -1.8214e+001 -1.2748e+000 -1.6036e-001 34696 105169,105037,104913
 1.2000e+000 104991 -1.8865e+001 -5.2419e+000  8.4527e-001 34696 105169,104913,104887
 1.2000e+000 105063 -6.6872e+000  6.0510e+000  3.4241e+000 34696 104939,104913,105037
 1.2000e+000 105195 -1.9824e+001 -6.5554e-001  3.0616e+000 34696 104965,105037,105169
 1.2000e+000 105218 -2.0219e+001 -3.8101e+000  4.0972e+000 34696 104965,105169,104887
 1.2000e+000 105368 -1.3547e+001  5.3509e+000 -1.7067e+000 34384 105267,105319,105293
 1.2000e+000 105345 -1.1377e+001  1.0319e+001 -3.5374e-001 34384 105241,105319,105267
 1.2000e+000 105616  1.0455e-001  1.5872e+001 -2.4768e+000 33730 105639,105417,105391
 1.2000e+000 105593  1.5945e+000  1.4693e+001 -3.8812e+000 33730 105639,105391,105495
 1.2000e+000 105570 -1.1451e+000  2.2557e+001 -6.6240e+000 33730 105391,105521,105495
 1.2000e+000 105547 -5.6317e+000  7.4239e+000  8.8703e+000 33730 105417,105469,105443
 1.2000e+000 105665  1.5751e+000  1.6093e+001 -2.5931e+000 33730 105469,105417,105639
 1.2000e+000 105688  5.2232e+000  1.6222e+001 -4.0936e+000 33730 105469,105639,105495
 1.2000e+000 105840 -4.3982e+000  1.1132e+001 -1.1709e+000 33390 105713,105765,105739
 1.2000e+000 105817 -4.1633e+000  1.1254e+001 -1.2155e+000 33390 105713,105791,105765
 1.2000e+000 106090 -1.0855e+001  7.5723e+000 -8.1573e+000 33043 106113,105943,105891
 1.2000e+000 106067 -1.4760e+001  1.1002e+001 -1.2495e+000 33043 106113,105891,105865
 1.2000e+000 106044 -4.3857e+000  5.1134e+000 -2.9886e+000 33043 105891,105943,105917
 1.2000e+000 106021 -1.0711e+001  1.6744e+001 -3.1952e+000 33043 105865,105995,105969
 1.2000e+000 106139 -2.4940e+000  1.9624e+001 -1.1924e+001 33043 105969,105943,106113
 1.2000e+000 106162 -1.1708e+001  1.5367e+001 -2.6492e+000 33043 105969,106113,105865
 1.2000e+000 106412  2.2034e+001  1.7961e+001  2.8102e+000 32539 106435,106291,106239
 1.2000e+000 106389  1.9969e+001  1.5465e+001  4.2148e-001 32539 106187,106317,106291
 1.2000e+000 106366  2.0553e+001  2.9813e+001  2.1172e+001 32539 106435,106239,106213
 1.2000e+000 106343  2.5985e+001  1.9569e+001  4.0748e+000 32539 106239,106291,106265
 1.2000e+000 106461  1.2007e+001  1.2701e+001  8.0526e-001 32539 106187,106291,106435
 1.2000e+000 106484  6.5354e-002  1.9531e+001  1.7704e+001 32539 106187,106435,106213
 1.2000e+000 106685 -1.0116e+001  2.2919e+000 -3.9569e+000 31835 106535,106587,106561
 1.2000e+000 106662 -1.3848e+001  3.5631e+000  1.0993e+000 31835 106509,106587,106535
 1.2000e+000 106639 -8.0330e+000  1.5707e+001 -2.8203e+000 31835 106509,106613,106587
 1.2000e+000 106935  5.0893e+000  8.5413e+000 -6.4909e+000 31530 106736,106814,106788
 1.2000e+000 106912  1.1710e+001  1.2102e+001 -5.0981e+000 31530 106710,106814,106736
 1.2000e+000 106889  9.1149e-001  1.7490e+000 -3.9577e+000 31530 106736,106788,106762
 1.2000e+000 106866  1.4249e+001  1.5423e+001 -9.3102e+000 31530 106710,106840,106814
 1.2000e+000 107339 -1.8077e+001  2.2143e+000 -1.5873e+000 31026 107117,107221,107195
 1.2000e+000 107316 -1.3777e+001 -7.1741e+000  1.0965e+000 31026 107091,107221,107117
 1.2000e+000 107293 -1.1413e+001 -6.6372e+000  5.4648e-001 31026 107065,107221,107091
 1.2000e+000 107270 -2.0378e+001  1.9713e+001 -2.1419e+000 31026 107143,107195,107169
 1.2000e+000 107247 -3.0264e+001 -3.6346e+000 -3.8435e+000 31026 107117,107195,107143
 1.2000e+000 107538 -9.7176e+000  6.4282e+000 -3.4181e-001 30714 107561,107388,107362
 1.2000e+000 107515 -9.0156e+000  7.9263e+000 -7.1580e-001 30714 107561,107362,107466
 1.2000e+000 107492 -8.8518e+000  4.2698e+000 -1.8357e+000 30714 107414,107466,107440
 1.2000e+000 107587 -8.6932e+000  4.2431e+000 -2.9308e-001 30714 107414,107388,107561
 1.2000e+000 107610 -7.7423e+000  6.0929e+000 -7.3192e-001 30714 107414,107561,107466
 1.2000e+000 107990 -8.6207e+000  1.4722e+000  2.8341e+000 30260 108013,107846,107768
 1.2000e+000 107967 -7.8381e+000  3.4254e+000  7.0294e-001 30260 108013,107768,107716
 1.2000e+000 107944 -1.0594e+001  5.3176e+000  7.9045e-001 30260 107716,107768,107742
 1.2000e+000 107921 -6.1492e+000  8.0208e+000  5.4834e+000 30260 107768,107846,107820
 1.2000e+000 107898 -6.1854e+000  1.4737e+000  1.7539e+000 30260 107768,107820,107794
 1.2000e+000 108039 -6.6772e+000  2.7424e+000  1.6708e+000 30260 107872,107846,108013
 1.2000e+000 108062 -6.8989e+000  4.3915e+000 -3.3863e-001 30260 107872,108013,107716
 1.2000e+000 108261  1.3826e+000 -1.3098e+001  5.9650e+000 29870 108284,108085,108163
 1.2000e+000 108238 -4.7077e+000 -5.4334e+000  4.1328e-001 29870 108085,108189,108163
 1.2000e+000 108215  3.6738e+001  2.8361e+000  1.0414e+001 29870 108284,108163,108137
 1.2000e+000 108310 -1.4767e+001  5.8257e+000  1.7940e+001 29870 108111,108085,108284
 1.2000e+000 108333  2.3659e+000  1.0976e+001  1.9541e+001 29870 108111,108284,108137
 1.2000e+000 108664  5.2235e+000  1.1176e+001 -8.4791e+000 29480 108465,108569,108543
 1.2000e+000 108641 -3.3882e+000  1.5335e+001  4.5254e+000 29480 108439,108569,108465
 1.2000e+000 108618 -4.2853e-001  3.5237e+000 -4.0399e+000 29480 108465,108543,108491
 1.2000e+000 108595  2.4367e+000  4.1731e+000 -3.4010e+000 29480 108491,108543,108517
 1.2000e+000 108993  7.8279e-001  1.8597e+000  2.4560e+000 29076 108794,108872,108820
 1.2000e+000 108970  1.8692e-001 -6.5963e-001  2.8707e+000 29076 108768,108872,108794
 1.2000e+000 108947  5.2317e+000  1.3801e+000 -6.7834e-001 29076 108820,108872,108846
 1.2000e+000 108924 -2.1391e+000  4.1362e-001  1.0260e+001 29076 108768,108898,108872
 1.2000e+000 109420 -1.8546e+000  3.8222e+000 -6.7146e+000 28472 109123,109227,109201
 1.2000e+000 109397 -2.3306e+001  1.2797e+000 -4.6220e+000 28472 109123,109253,109227
 1.2000e+000 109374 -6.2222e+000 -2.0652e+000 -4.7783e+000 28472 109123,109201,109175
 1.2000e+000 109351 -1.5534e+001  8.8043e+000 -8.2922e-001 28472 109123,109279,109253
 1.2000e+000 109328 -1.7782e+000  4.3690e-001  4.1148e-001 28472 109123,109175,109149
 1.2000e+000 109305 -2.1605e+001  2.3213e+001 -6.7593e+000 28472 109097,109279,109123
 1.2000e+000 109749 -1.7303e+001  1.3670e+001 -1.2869e+001 28018 109772,109602,109576
 1.2000e+000 109726 -1.7615e+001  6.1259e+000 -1.0504e+001 28018 109772,109576,109550
 1.2000e+000 109703 -2.1577e+001 -3.9560e+000 -9.7184e+000 28018 109524,109628,109550
 1.2000e+000 109680 -1.6796e+001 -6.2265e+000 -4.2621e+000 28018 109524,109654,109628
 1.2000e+000 109798 -1.8031e+001  1.1349e+001 -5.0065e+000 28018 109628,109602,109772
 1.2000e+000 109821 -1.6926e+001  6.5339e-002 -5.3725e+000 28018 109628,109772,109550
 1.2000e+000 110199 -1.2850e+001 -1.6325e+000 -6.2172e+000 27564 110029,110081,110055
 1.2000e+000 110176 -7.1225e+000  7.1238e+000 -3.4730e+000 27564 109925,110081,110029
 1.2000e+000 110153 -4.4752e+000 -2.2413e+000 -1.1919e+000 27564 109925,110029,109977
 1.2000e+000 110130 -2.3176e+000 -1.0006e+000  9.2704e-001 27564 109977,110029,110003
 1.2000e+000 110107 -1.9488e+000  1.5325e+000  7.4635e-001 27564 109925,109977,109951
 1.2000e+000 110398  1.8752e+001  2.2533e+001 -1.5808e+000 27003 110248,110326,110300
 1.2000e+000 110375  1.5332e+001  1.8086e+001 -3.2489e+000 27003 110222,110326,110248
 1.2000e+000 110352 -3.9533e+000  9.3762e+000 -7.7706e+000 27003 110248,110300,110274
 1.2000e+000 110646  2.3151e+001 -9.1112e-001  1.1332e+001 26563 110669,110473,110421
 1.2000e+000 110623  1.8256e+001 -2.0437e+001  1.8899e+001 26563 110669,110421,110551
 1.2000e+000 110600  2.6923e+001  5.4454e+000  8.5715e+000 26563 110473,110525,110499
 1.2000e+000 110577  1.3312e+001 -1.6262e+001  2.6228e+001 26563 110421,110473,110447
 1.2000e+000 110695  2.0840e+001  4.7627e+000  8.6608e+000 26563 110525,110473,110669
 1.2000e+000 110718  2.4353e+001 -1.9048e+000  1.6303e+001 26563 110525,110669,110551
 1.2000e+000 110870 -1.0626e+001  8.8182e+000 -8.1784e+000 26166 110769,110821,110795
 1.2000e+000 110847 -4.6779e+000  6.1515e+000 -4.4146e+000 26166 110743,110821,110769
 1.2000e+000 111380 -1.4630e+001 -2.2806e+000  3.5718e+000 25712 111403,111109,111083
 1.2000e+000 111357 -1.1806e+001 -4.7567e-001  2.7908e+000 25712 111403,111083,111239
 1.2000e+000 111334 -2.1062e+001 -9.2685e-001  1.0527e+001 25712 111109,111161,111135
 1.2000e+000 111311 -1.4022e+001 -1.6764e+000  2.2799e+000 25712 111057,111239,111083
 1.2000e+000 111288 -8.7184e+000 -3.5228e+000  3.2647e+000 25712 111161,111239,111187
 1.2000e+000 111265 -5.7669e+000 -1.6037e+000  2.3765e+000 25712 111187,111239,111213
 1.2000e+000 111429 -1.1890e+001 -4.7948e+000  4.5325e+000 25712 111161,111109,111403
 1.2000e+000 111452 -8.4880e+000 -2.7088e+000  3.6542e+000 25712 111161,111403,111239
 1.2000e+000 111651 -1.0442e+001 -1.2506e-001  8.8641e-001 25300 111674,111501,111475
 1.2000e+000 111628 -1.0373e+001 -2.3754e+000  1.0947e+000 25300 111674,111475,111579
 1.2000e+000 111605 -1.1068e+001  5.5757e-001 -1.1140e+000 25300 111501,111553,111527
 1.2000e+000 111700 -1.0733e+001  1.7499e+000  8.4156e-001 25300 111553,111501,111674
 1.2000e+000 111723 -1.0401e+001 -1.1122e-001  1.2265e+000 25300 111553,111674,111579
 1.2000e+000 111922  5.6133e+000  1.5128e+000  6.7727e-001 24732 111798,111850,111824
 1.2000e+000 111899  3.6726e+000  5.6433e+000 -3.6178e+000 24732 111772,111850,111798
 1.2000e+000 111876  1.7678e+000  6.1588e+000 -3.1088e+000 24732 111746,111850,111772
 1.2000e+000 112255 -4.1490e+000  1.4139e+001 -4.2229e+000 24142 112056,112108,112082
 1.2000e+000 112232 -1.7881e+000  1.2279e+001 -1.4001e+000 24142 112056,112134,112108
 1.2000e+000 112209 -7.5500e+000  3.9155e+000  1.1096e+000 24142 112056,112160,112134
 1.2000e+000 112186 -2.3987e+000  2.7738e+000 -4.8293e-001 24142 112030,112160,112056
 1.2000e+000 112601 -2.4511e+001  6.4335e+000  3.0255e+001 23852 112624,112382,112356
 1.2000e+000 112578 -4.0771e+001  7.0047e+000  1.5371e+001 23852 112696,112624,112356
 1.2000e+000 112555 -3.5111e+001  2.3272e+000  3.7686e+000 23852 112696,112356,112304
 1.2000e+000 112532 -3.1788e+001 -5.1963e+000  3.9525e+000 23852 112304,112356,112330
 1.2000e+000 112509  3.1815e+000  3.5341e+001  1.9716e+001 23852 112278,112460,112304
 1.2000e+000 112486  6.5162e+001  1.9761e+001  1.0575e+001 23852 112382,112434,112408
 1.2000e+000 112650  4.0304e+001  2.0950e+001  4.0214e+001 23852 112434,112382,112624
 1.2000e+000 112673 -1.7992e+001 -5.5106e+000  2.5654e+001 23852 112434,112624,112460
 1.2000e+000 112722 -2.0174e+001  1.8027e+001  2.2636e+001 23852 112460,112624,112696
 1.2000e+000 112745 -1.9098e+001  7.8829e+000  1.0058e+001 23852 112460,112696,112304
 1.2000e+000 113015 -4.3746e+001  4.2273e+001 -1.1911e+001 23490 112842,112894,112868
 1.2000e+000 112992 -3.5347e+001  1.1177e+001 -1.1181e+001 23490 112816,112894,112842
 1.2000e+000 112969 -3.1912e+001  1.2869e+001 -2.9204e+000 23490 112790,112894,112816
 1.2000e+000 112946 -3.7761e+001 -1.5253e+000 -2.3492e+000 23490 112790,112920,112894
 1.2000e+000 113348 -8.6128e+000  4.5511e+000 -6.8746e+000 22970 113175,113253,113227
 1.2000e+000 113325 -5.3151e+000 -1.6862e+000 -4.4477e+000 22970 113149,113253,113175
 1.2000e+000 113302 -1.0909e+001 -7.9183e+000 -1.3706e+001 22970 113175,113227,113201
 1.2000e+000 113279 -2.8816e+000  3.3193e+000 -3.6512e+000 22970 113123,113253,113149
 1.2000e+000 113645 -1.0572e+001 -4.1371e+000 -3.1658e+000 22366 113423,113527,113449
 1.2000e+000 113622 -1.3629e+001 -8.3593e+000 -4.6177e+000 22366 113371,113527,113423
 1.2000e+000 113599 -1.0693e+001 -4.1392e+000 -1.9675e+000 22366 113449,113527,113501
 1.2000e+000 113576 -8.2553e+000 -5.4214e+000  9.6133e-001 22366 113449,113501,113475
 1.2000e+000 113553 -6.4389e+000  5.9881e+000 -7.7418e+000 22366 113371,113423,113397
 1.2000e+000 113893 -7.1485e+000 -8.6550e+000 -9.5593e+000 21912 113916,113746,113720
 1.2000e+000 113870 -4.5016e+000 -4.4748e+000 -8.2790e+000 21912 113916,113720,113668
 1.2000e+000 113847 -1.0679e+001 -4.7614e+000 -8.1981e+000 21912 113988,113798,113772
 1.2000e+000 113824 -2.6163e+000  1.9514e+000 -1.4033e+001 21912 113668,113720,113694
 1.2000e+000 113942 -4.8817e+000 -2.7939e+000 -9.7186e+000 21912 113772,113746,113916
 1.2000e+000 113965 -7.2824e+000 -3.5187e+000 -8.6133e+000 21912 113988,113772,113916
 1.2000e+000 114014 -6.1905e+000 -4.4577e+000 -8.0108e+000 21912 113668,113798,113988
 1.2000e+000 114037 -5.4141e+000 -4.9961e+000 -7.7875e+000 21912 113668,113988,113916
 1.2000e+000 114287  6.1062e+000  8.7406e-002 -2.0294e+000 21408 114088,114140,114114
 1.2000e+000 114264  8.3114e+000  1.3341e+000 -3.6578e+000 21408 114310,114140,114088
 1.2000e+000 114241  7.2705e+000  3.7724e+000 -7.9461e+000 21408 114310,114088,114192
 1.2000e+000 114218  4.2927e+000  5.1255e+000 -7.3588e+000 21408 114062,114192,114088
 1.2000e+000 114336  7.8041e+000 -5.0752e+000 -3.4680e+000 21408 114166,114140,114310
 1.2000e+000 114359  7.5355e+000 -2.2359e-001 -6.9611e+000 21408 114166,114310,114192
 1.2000e+000 114609  2.4215e+001  1.8782e+001  7.6934e+000 21018 114632,114488,114436
 1.2000e+000 114586  2.1487e+001  1.6811e+001  4.5071e+000 21018 114632,114436,114410
 1.2000e+000 114563  2.8930e+001  1.3036e+001  5.0140e+000 21018 114384,114514,114410
 1.2000e+000 114540  5.7474e+000  1.6779e+001  6.5699e+000 21018 114436,114488,114462
 1.2000e+000 114658  2.9021e+001  1.9302e+001  1.0475e+001 21018 114514,114488,114632
 1.2000e+000 114681  2.5274e+001  1.7073e+001  7.3605e+000 21018 114514,114632,114410
 1.2000e+000 114882  1.4433e+001  9.7754e+000  4.6298e+000 20614 114732,114784,114758
 1.2000e+000 114859  6.7908e+000  9.1728e+000  9.8453e-001 20614 114732,114810,114784
 1.2000e+000 114836  4.3573e+000  7.1400e+000  1.1388e-001 20614 114706,114810,114732
 1.2000e+000 115132 -8.2981e+000  3.9671e+000 -2.2684e+000 20110 114907,115011,114933
 1.2000e+000 115109 -2.5228e+000  8.0580e+000 -4.7528e+000 20110 114907,115037,115011
 1.2000e+000 115086 -6.4717e+000  4.9488e+000 -1.8174e+000 20110 114933,115011,114985
 1.2000e+000 115063 -6.4770e+000  8.6649e+000 -5.3796e+000 20110 114933,114985,114959
 1.2000e+000 115284 -7.9349e+000  5.1292e+000 -1.5854e+000 19456 115378,115307,115157
 1.2000e+000 115261 -1.0458e+001  8.9092e+000 -2.6342e+000 19456 115378,115157,115235
 1.2000e+000 115333 -8.6863e+000  4.7975e+000 -1.0149e+000 19456 115183,115157,115307
 1.2000e+000 115404 -9.5849e+000 -1.1230e+000 -2.2463e+000 19456 115209,115307,115378
 1.2000e+000 115427 -1.1462e+001  3.5911e+000 -3.6559e+000 19456 115209,115378,115235
 1.2000e+000 115677 -1.4482e+001  1.7310e+000  6.6327e-001 19002 115504,115582,115530
 1.2000e+000 115654 -1.2460e+001  1.4507e+000  5.1350e-001 19002 115478,115582,115504
 1.2000e+000 115631 -1.4435e+001  1.1364e+000  4.4471e+000 19002 115452,115582,115478
 1.2000e+000 115608 -8.8763e+000  1.1883e+000 -4.6927e+000 19002 115530,115582,115556
 1.2000e+000 115998  9.8368e+000  2.1950e+001 -3.1581e+000 18712 115802,115880,115854
 1.2000e+000 115975  1.6909e+001  3.1452e+001  7.4528e-001 18712 115724,115880,115802
 1.2000e+000 115952  1.7345e+001  2.1361e+001 -2.6313e-001 18712 115724,115802,115776
 1.2000e+000 115929  1.9607e+001  2.3646e+001  2.9129e+000 18712 115724,115776,115750
 1.2000e+000 115906  1.3132e+001  2.3184e+001 -3.4307e+000 18712 115802,115854,115828
 1.2000e+000 116270 -3.6780e+001 -2.2352e+001  4.9861e-001 18308 116045,116123,116071
 1.2000e+000 116247 -3.4864e+001 -2.3909e+001  1.2349e+001 18308 116045,116175,116123
 1.2000e+000 116224 -6.1224e+001 -6.7499e+000  7.6265e+000 18308 116123,116175,116149
 1.2000e+000 116201 -1.6325e+001 -1.3347e+001 -1.3525e+000 18308 116071,116123,116097
 1.2000e+000 116422 -1.3455e+001  9.5466e-002  4.8066e-002 17996 116321,116373,116347
 1.2000e+000 116399 -1.2507e+001  2.0535e-001  6.8213e-001 17996 116295,116373,116321
 1.2000e+000 116574  2.0327e+001  6.7788e+000  5.1400e+000 17392 116473,116525,116499
 1.2000e+000 116551  4.1972e+001  2.3968e+001  1.2676e+001 17392 116447,116525,116473
 1.2000e+000 116797  3.4816e+000 -1.0194e+001 -1.0615e+000 16938 116621,116699,116673
 1.2000e+000 116774  4.3779e+000 -1.5770e+001  3.8224e-001 16938 116621,116725,116699
 1.2000e+000 116751  4.7308e+000 -7.2795e+000 -3.0894e-001 16938 116621,116673,116647
 1.2000e+000 116998  3.2700e+001  4.0849e+000  5.8135e+000 16434 117021,116874,116848
 1.2000e+000 116975 -1.3170e+001 -5.2432e+000 -5.1990e+000 16434 117021,116848,116822
 1.2000e+000 116952  5.1134e+001  2.6969e+001  1.9714e+001 16434 116874,116926,116900
 1.2000e+000 117047  4.9824e+001 -2.4533e+000  8.8690e+000 16434 116926,116874,117021
 1.2000e+000 117070  3.4832e+001  9.5852e+000 -2.1733e+000 16434 116926,117021,116822
 1.2000e+000 117293 -3.9842e+000 -3.2089e+000 -6.8209e-001 16070 117117,117169,117143
 1.2000e+000 117270 -1.2102e+001 -5.9819e+000 -1.0501e+000 16070 117117,117221,117169
 1.2000e+000 117247 -1.3927e+001 -7.7884e+000 -1.8753e+000 16070 117169,117221,117195
 1.2000e+000 117445 -5.1490e+001 -2.5492e+001 -3.5328e+000 15645 117318,117370,117344
 1.2000e+000 117422 -5.9274e+001 -3.0235e+001  2.8055e-001 15645 117318,117396,117370
 1.2000e+000 117548 -3.3856e-001  1.6256e+000  4.8371e+000 417 117470,117522,117496
 1.3000e+000 70760  7.1727e+000 -1.0001e+001  1.7373e+000 70380 70633,70685,70659
 1.3000e+000 70737 -5.7516e+000 -9.6140e+000 -2.1830e+000 70380 70633,70711,70685
 1.3000e+000 70861 -4.1122e-001 -3.2601e+000  4.9513e-001 70068 70783,70835,70809
 1.3000e+000 71180  6.5537e-002  3.5072e+000  2.1722e-001 69870 70932,70984,70958
 1.3000e+000 71157 -4.7838e-001  3.2556e+000  6.1246e-002 69870 70932,71010,70984
 1.3000e+000 71134 -2.0200e+000  1.8646e+000 -6.0312e-001 69870 70932,71036,71010
 1.3000e+000 71111 -1.5972e+000  1.3719e+000  2.9602e+000 69870 70932,71062,71036
 1.3000e+000 71088  2.2117e-001  2.9733e+000  4.9613e-001 69870 70906,71062,70932
 1.3000e+000 71428  1.6319e+000  1.6056e+001  6.2738e+000 69694 71451,71281,71255
 1.3000e+000 71405  4.2025e+000  1.2423e+001  6.5043e+000 69694 71523,71451,71255
 1.3000e+000 71382  6.1007e+000  1.5521e+001  8.4126e+000 69694 71523,71255,71229
 1.3000e+000 71359  1.2275e+000  9.2339e+000  4.8604e+000 69694 71595,71333,71307
 1.3000e+000 71477  5.5424e-001  1.3105e+001  6.3113e+000 69694 71307,71281,71451
 1.3000e+000 71500  1.0826e+000  1.1470e+001  3.2395e+000 69694 71595,71307,71451
 1.3000e+000 71549  1.3683e+000  1.3142e+001  3.6791e+000 69694 71203,71451,71523
 1.3000e+000 71572  1.4748e+000  1.3384e+001  5.2353e+000 69694 71203,71523,71229
 1.3000e+000 71621  1.7923e+000  6.0174e+000  4.0344e+000 69694 71203,71333,71595
 1.3000e+000 71644  7.0310e-001  7.6098e+000  3.3601e+000 69694 71203,71595,71451
 1.3000e+000 71745 -2.4819e-001  9.3328e-001 -1.0827e-001 69382 71667,71719,71693
 1.3000e+000 72100 -2.5240e+000  1.7047e+000  4.4300e-001 69184 71875,71979,71901
 1.3000e+000 72077  2.4724e-001 -2.5008e-001  1.9988e+000 69184 71875,72005,71979
 1.3000e+000 72054 -5.8961e-001  6.9742e-002 -1.5248e+000 69184 71901,71979,71953
 1.3000e+000 72031  7.4249e-001  6.0400e-001 -8.6218e-001 69184 71901,71953,71927
 1.3000e+000 72250  2.6255e-001 -1.3714e-001  2.5159e-001 68986 72149,72201,72175
 1.3000e+000 72227 -5.0436e-001 -6.9125e-001  4.9320e-001 68986 72123,72201,72149
 1.3000e+000 72547 -8.2619e-001  1.7551e-001  2.9984e+000 68582 72570,72403,72377
 1.3000e+000 72524 -5.0857e-001  1.5588e-001  2.7549e+000 68582 72570,72377,72351
 1.3000e+000 72501 -6.4919e-001  3.0348e+000  1.2162e+000 68582 72642,72299,72429
 1.3000e+000 72478  7.7150e-001  1.6477e+000  4.5443e-001 68582 72273,72429,72299
 1.3000e+000 72455  5.1402e-001  1.1480e+001  6.7601e+000 68582 72299,72351,72325
 1.3000e+000 72596 -5.5597e-001 -2.0222e-001  2.0149e+000 68582 72429,72403,72570
 1.3000e+000 72619  3.3236e-001  1.8464e+000  1.6353e+000 68582 72642,72429,72570
 1.3000e+000 72668 -1.4511e+000  1.9438e+000  2.4516e+000 68582 72351,72299,72642
 1.3000e+000 72691 -7.1036e-001  1.6950e-001  2.7862e+000 68582 72351,72642,72570
 1.3000e+000 73095 -1.0019e+001 -1.7291e+000 -2.1486e-001 68384 72873,72925,72899
 1.3000e+000 73072 -1.1380e+001  1.6138e+001  7.2341e+000 68384 72847,72925,72873
 1.3000e+000 73049 -5.5828e+000 -5.2985e-001  1.8821e+001 68384 72847,72951,72925
 1.3000e+000 73026  1.1390e+001 -3.2798e+000  9.4436e+000 68384 72821,72951,72847
 1.3000e+000 73003 -5.1424e-001  2.3032e+000 -3.7976e+000 68384 72821,72977,72951
 1.3000e+000 73552 -1.8129e+000  1.2219e+001  3.9327e+000 68044 73304,73434,73408
 1.3000e+000 73529 -2.7621e+000  6.6246e+000 -2.4776e+000 68044 73278,73434,73304
 1.3000e+000 73506  1.3278e+001  1.1968e+000  5.4622e+000 68044 73356,73408,73382
 1.3000e+000 73483  1.6211e+001 -1.2331e+000  6.4073e-001 68044 73304,73408,73356
 1.3000e+000 73460  6.4728e+000  2.4152e+000 -4.0192e+000 68044 73304,73356,73330
 1.3000e+000 73871 -2.6905e+000  1.0849e+001 -4.1227e+000 67846 73675,73727,73701
 1.3000e+000 73848  8.2747e-001  8.9114e+000 -4.1827e+000 67846 73649,73727,73675
 1.3000e+000 73825 -2.5613e+000 -4.1281e-001 -6.3701e+000 67846 73623,73727,73649
 1.3000e+000 73802  4.5370e+000  3.6581e+000 -3.6530e+000 67846 73623,73753,73727
 1.3000e+000 73779  9.5428e-001 -1.7398e-001 -9.9379e-002 67846 73597,73753,73623
 1.3000e+000 74021  7.1594e-001 -4.0571e+000  5.7487e-001 67598 73920,73972,73946
 1.3000e+000 73998  1.2286e+000 -2.2720e+000  2.2203e-001 67598 73894,73972,73920
 1.3000e+000 74271  2.8181e-001 -2.0317e+000  1.0977e+000 67286 74072,74176,74150
 1.3000e+000 74248 -4.9571e-001 -5.5836e-001  1.2205e+000 67286 74046,74176,74072
 1.3000e+000 74225  3.7537e-001 -1.4321e+000  1.0235e+000 67286 74072,74150,74098
 1.3000e+000 74202  2.4303e-002 -1.9847e+000  5.0517e-001 67286 74098,74150,74124
 1.3000e+000 74374 -9.1114e-001  2.5523e+000  3.0933e+000 67088 74296,74348,74322
 1.3000e+000 74646 -3.8263e+000  9.0393e+000 -3.6271e+000 66890 74421,74525,74447
 1.3000e+000 74623 -3.5300e-002  1.1332e+001 -8.4094e-001 66890 74421,74551,74525
 1.3000e+000 74600 -1.5968e-001  1.4135e+001 -1.5721e+000 66890 74447,74525,74473
 1.3000e+000 74577 -6.3485e+000  1.1357e+001  1.1604e+000 66890 74473,74525,74499
 1.3000e+000 75254 -1.6850e+000  2.8581e-001 -3.0264e+000 66528 74885,75067,75041
 1.3000e+000 75231  3.2900e+000  4.1911e+000 -1.3214e+000 66528 74859,75067,74885
 1.3000e+000 75208 -1.3738e-001  9.4781e+000 -1.1637e+000 66528 74937,75015,74963
 1.3000e+000 75185 -2.9972e+000  1.9106e+000 -1.8280e+000 66528 74911,75015,74937
 1.3000e+000 75162 -2.2034e+000  2.8369e+000 -1.4179e+000 66528 74911,75041,75015
 1.3000e+000 75139 -1.1199e+000  4.5283e+000 -9.3079e-001 66528 74885,75041,74911
 1.3000e+000 75116 -1.7574e+000 -2.6821e+000 -4.6940e+000 66528 74833,75067,74859
 1.3000e+000 75093 -5.2305e+000  3.1054e+000  1.1093e+000 66528 74963,75015,74989
 1.3000e+000 75453 -2.3638e+000  1.7688e+001 -2.1877e+000 66238 75303,75381,75355
 1.3000e+000 75430  1.5110e+000  8.5319e+000 -2.7764e+000 66238 75277,75381,75303
 1.3000e+000 75407 -2.3257e+000 -1.9501e-001  8.1162e-001 66238 75303,75355,75329
 1.3000e+000 75701  1.7952e+000  1.2297e+001  1.4760e+000 65834 75528,75606,75580
 1.3000e+000 75678 -1.3535e+000  1.5102e+001  6.0551e-002 65834 75502,75606,75528
 1.3000e+000 75655  1.5923e+000  1.5071e+001  4.3625e+000 65834 75528,75580,75554
 1.3000e+000 75632  3.7128e+000  1.8100e+001  2.4065e+000 65834 75476,75606,75502
 1.3000e+000 75902  3.1693e-001  7.1131e+000 -6.6488e-001 65636 75726,75804,75752
 1.3000e+000 75879  4.4231e+000  9.7023e+000 -2.3945e+000 65636 75726,75830,75804
 1.3000e+000 75856  1.0492e+001  7.8096e+000 -1.9538e+000 65636 75752,75804,75778
 1.3000e+000 76103  1.5647e+001  1.1834e+001 -3.8690e+000 65296 76126,75979,75953
 1.3000e+000 76080  1.4937e+001  2.0365e+001  1.0053e+000 65296 76126,75953,75927
 1.3000e+000 76057  2.6438e+001  4.0981e+001 -9.2315e+000 65296 76198,76005,75979
 1.3000e+000 76152  2.2361e+001  2.7904e+001 -5.1766e+000 65296 76198,75979,76126
 1.3000e+000 76175  1.4650e+001  1.6508e+001 -3.1193e-001 65296 76031,76126,75927
 1.3000e+000 76224  2.0104e+001  2.1794e+001 -2.8931e+000 65296 76031,76005,76198
 1.3000e+000 76247  1.9890e+001  1.7144e+001  1.6178e+000 65296 76031,76198,76126
 1.3000e+000 76602  1.7240e+000  1.8316e+000  4.0651e-001 64892 76377,76481,76403
 1.3000e+000 76579  1.7187e+000  1.2913e+000  3.8213e-002 64892 76377,76507,76481
 1.3000e+000 76556  3.5920e+000  5.9017e+000 -4.5412e-001 64892 76403,76481,76429
 1.3000e+000 76533 -3.5318e+000  3.8653e+000 -5.5092e-001 64892 76429,76481,76455
 1.3000e+000 76801 -1.4721e+001  3.9055e+000  5.6863e+000 64438 76677,76729,76703
 1.3000e+000 76778 -5.2031e+000  2.6863e+001  5.1217e+000 64438 76651,76729,76677
 1.3000e+000 76755 -2.3679e+001  1.0666e+001 -6.5927e+000 64438 76625,76729,76651
 1.3000e+000 77230  7.6794e+000  5.8557e+000 -1.9080e+000 63920 77253,76959,76933
 1.3000e+000 77207  4.2390e+000  3.8040e+000 -9.9965e-001 63920 77253,76933,77063
 1.3000e+000 77184  1.7965e+000  6.2609e+000 -3.5058e+000 63920 76959,77037,76985
 1.3000e+000 77161  2.8170e+000  3.5412e+000 -6.0999e-001 63920 76907,77063,76933
 1.3000e+000 77138 -1.4970e+000  9.7328e+000 -3.3591e+000 63920 76985,77037,77011
 1.3000e+000 77115  3.9153e-002  2.0573e+000  4.1872e-001 63920 76907,77089,77063
 1.3000e+000 77279  3.2603e+000  7.8707e+000 -2.0831e+000 63920 77037,76959,77253
 1.3000e+000 77302  1.2066e-001  6.0972e+000 -1.3034e+000 63920 77037,77253,77063
 1.3000e+000 77680 -7.2650e+000  5.7080e+000  1.5539e+001 63316 77703,77484,77432
 1.3000e+000 77657 -9.8644e+000  1.7132e+000  1.2347e+001 63316 77703,77432,77406
 1.3000e+000 77634 -2.0702e+001 -4.8022e+000  1.1246e+001 63316 77406,77536,77510
 1.3000e+000 77611  5.9959e+000  4.5765e+000  2.0452e+001 63316 77432,77484,77458
 1.3000e+000 77588 -4.3594e+000  4.4911e+000  3.3287e+000 63316 77406,77562,77536
 1.3000e+000 77729 -5.1696e+000 -8.3218e-001  1.3023e+001 63316 77510,77484,77703
 1.3000e+000 77752 -8.4237e+000 -2.5412e+000  9.2385e+000 63316 77510,77703,77406
 1.3000e+000 78000 -1.6179e+001  7.2170e-001 -3.2125e-001 62812 77801,77853,77827
 1.3000e+000 77977 -1.0639e+001  4.0407e+000 -2.9495e+000 62812 77801,77879,77853
 1.3000e+000 77954 -1.6435e+001  1.7687e+000 -3.4221e+000 62812 77801,77905,77879
 1.3000e+000 77931 -7.0617e+000  1.6746e+000 -4.3788e+000 62812 77775,77905,77801
 1.3000e+000 78380 -1.3385e+001 -5.6330e+000  7.9441e-001 62350 78184,78262,78236
 1.3000e+000 78357 -9.1496e+000 -5.8138e+000  2.0559e+000 62350 78132,78262,78184
 1.3000e+000 78334 -8.1316e+000 -5.3830e+000  1.9909e+000 62350 78106,78262,78132
 1.3000e+000 78311 -9.7369e+000 -4.5344e+000  2.8419e+000 62350 78132,78184,78158
 1.3000e+000 78288 -1.1554e+001 -3.4923e+000 -3.7733e-001 62350 78184,78236,78210
 1.3000e+000 78837  6.0491e+000  1.0178e+001  2.3440e+000 61946 78615,78667,78641
 1.3000e+000 78814  2.8045e+000  5.8698e+000 -2.2440e+000 61946 78589,78667,78615
 1.3000e+000 78791  4.4682e+000  7.5821e-001  3.9326e-001 61946 78589,78719,78667
 1.3000e+000 78768  9.3921e+000  5.3289e+000 -2.8714e+000 61946 78667,78719,78693
 1.3000e+000 78745  5.3476e+000  3.7898e+000  1.9376e+000 61946 78563,78719,78589
 1.3000e+000 78987  6.1683e+000 -2.2835e+000 -4.8764e-001 61335 79010,78886,78860
 1.3000e+000 78964  1.1777e+000  1.9568e+000  1.2004e+000 61335 79010,78860,78938
 1.3000e+000 79036  7.3112e-001 -4.6143e+000  1.7970e+000 61335 79082,79010,78912
 1.3000e+000 79059 -4.3246e+000 -2.7391e+000 -8.0814e-001 61335 78912,79010,78938
 1.3000e+000 79108  1.2187e+000 -2.7814e+000 -9.7981e-001 61335 78886,79010,79082
 1.3000e+000 79437 -1.0322e+001 -8.1283e-001 -4.0694e+000 60888 79460,79238,79212
 1.3000e+000 79414 -1.1239e+001 -1.6028e+000 -2.4662e+000 60888 79460,79212,79342
 1.3000e+000 79391 -1.1705e+001 -1.6925e+000 -2.9195e+000 60888 79532,79264,79238
 1.3000e+000 79368 -1.0722e+001  7.9728e+000  3.0850e+000 60888 79264,79316,79290
 1.3000e+000 79486 -1.1806e+001 -1.3245e+000 -3.1911e+000 60888 79532,79238,79460
 1.3000e+000 79509 -1.2989e+001 -1.6706e+000 -2.1114e+000 60888 79316,79460,79342
 1.3000e+000 79558 -1.2325e+001 -2.7517e+000 -2.2908e+000 60888 79316,79264,79532
 1.3000e+000 79581 -1.1487e+001 -1.8788e+000 -2.7933e+000 60888 79316,79532,79460
 1.3000e+000 79878 -2.4549e+001 -9.7585e+000 -1.5207e+000 60484 79682,79760,79734
 1.3000e+000 79855 -3.1890e+001 -2.1776e+001  5.0122e+000 60484 79656,79760,79682
 1.3000e+000 79832 -2.7552e+001 -1.9915e+001  5.8558e+000 60484 79604,79760,79656
 1.3000e+000 79809 -2.6483e+001 -2.9958e+001  8.9335e+000 60484 79604,79656,79630
 1.3000e+000 79786 -1.6959e+001 -4.6217e+000  9.9463e-001 60484 79682,79734,79708
 1.3000e+000 80101 -2.2300e+000 -1.4464e+000 -3.9299e-001 60022 79951,80029,80003
 1.3000e+000 80078 -5.8567e+000 -2.0109e+000 -5.3292e-001 60022 79925,80029,79951
 1.3000e+000 80055 -5.4636e+000 -2.6243e+000  6.0683e-002 60022 79951,80003,79977
 1.3000e+000 80351 -4.9755e-001  2.3545e+000  4.0208e+000 59625 80152,80256,80204
 1.3000e+000 80328 -1.4843e+000  8.1830e+000  7.5011e+000 59625 80126,80256,80152
 1.3000e+000 80305  2.3502e+000  9.7954e+000  5.1469e+000 59625 80204,80256,80230
 1.3000e+000 80282  3.6327e+000  3.6279e+000  3.1484e+000 59625 80152,80204,80178
 1.3000e+000 80552  1.4495e+001  6.5902e+000 -4.4775e+000 59121 80575,80402,80376
 1.3000e+000 80529  1.5228e+001 -2.0970e+000 -5.7952e+000 59121 80575,80376,80480
 1.3000e+000 80506  2.6921e+001  6.3584e+000  8.7560e+000 59121 80428,80480,80454
 1.3000e+000 80601  1.4208e+001  1.2138e+001  6.3833e-001 59121 80428,80402,80575
 1.3000e+000 80624  1.5077e+001  3.9815e+000 -8.7197e-001 59121 80428,80575,80480
 1.3000e+000 81183  8.9581e+000  6.8569e+000  3.3093e+000 58553 81206,80863,80837
 1.3000e+000 81160  7.4397e+000  9.9890e+000  2.8187e+000 58553 81350,81206,80837
 1.3000e+000 81137  7.5218e+000  3.9638e+000  4.1666e+000 58553 81278,80915,80863
 1.3000e+000 81114  3.8077e+000  8.1730e+000  4.2046e-001 58553 81350,80837,80811
 1.3000e+000 81091  1.0435e+001 -1.6570e+000  3.4052e+000 58553 81422,80967,80941
 1.3000e+000 81068  1.1164e+001  2.7426e-001  1.7096e+000 58553 80967,81019,80993
 1.3000e+000 81045  7.5248e+000  2.6893e+000  4.1119e+000 58553 80863,80915,80889
 1.3000e+000 81232  6.9892e+000  5.9244e+000  2.9509e+000 58553 81278,80863,81206
 1.3000e+000 81255  9.8067e+000  3.3332e+000  2.1435e+000 58553 81422,80941,81206
 1.3000e+000 81304  7.0491e+000 -4.6836e-001  5.2243e+000 58553 80941,80915,81278
 1.3000e+000 81327  7.9320e+000  2.5906e+000  3.5222e+000 58553 80941,81278,81206
 1.3000e+000 81376  5.1542e+000  6.1320e+000  5.8635e-001 58553 81019,81206,81350
 1.3000e+000 81399  4.7137e+000  6.1203e+000 -1.4084e+000 58553 81019,81350,80811
 1.3000e+000 81448  1.2266e+001  2.8692e+000  1.6260e+000 58553 81019,80967,81422
 1.3000e+000 81471  1.0770e+001  5.9165e+000  1.0752e-001 58553 81019,81422,81206
 1.3000e+000 81768 -3.2744e+000 -1.6422e+000 -2.9277e-001 57877 81791,81572,81520
 1.3000e+000 81745 -7.7638e-001 -5.3483e-001 -1.4476e+000 57877 81791,81520,81494
 1.3000e+000 81722 -3.8953e+000 -1.3925e+000  5.7457e-001 57877 81863,81650,81598
 1.3000e+000 81699 -3.4308e+000 -5.2748e-001 -1.9001e-001 57877 81598,81650,81624
 1.3000e+000 81676 -3.7728e+000 -2.5091e+000 -4.0309e-002 57877 81520,81572,81546
 1.3000e+000 81817 -2.7741e+000 -1.6154e+000  4.5407e-001 57877 81598,81572,81791
 1.3000e+000 81840 -3.5369e+000 -1.2384e+000  3.4361e-001 57877 81863,81598,81791
 1.3000e+000 81889 -2.8371e+000 -3.8322e+000  1.0361e+000 57877 81494,81650,81863
 1.3000e+000 81912 -1.4968e+000 -2.4454e+000  3.5851e-001 57877 81494,81863,81791
 1.3000e+000 82160  2.7840e+000  6.2644e+000  3.4014e+000 57473 81935,82039,82013
 1.3000e+000 82137  1.1085e+001  8.9685e+000  2.1505e+000 57473 81935,82065,82039
 1.3000e+000 82114  3.2062e+000  6.6815e+000  3.0791e+000 57473 81935,82013,81961
 1.3000e+000 82091  3.5940e+000  4.8133e+000  3.6889e+000 57473 81961,82013,81987
 1.3000e+000 82719 -1.5312e+000  1.8511e+000  3.5282e+000 56962 82814,82742,82425
 1.3000e+000 82696 -1.4047e+000 -1.5663e-001  5.6466e+000 56962 82742,82347,82555
 1.3000e+000 82673  2.9390e-001  2.3656e+000  3.1534e+000 56962 82814,82425,82399
 1.3000e+000 82650 -6.5720e+000  4.6323e+000 -2.6442e-001 56962 82425,82477,82451
 1.3000e+000 82627 -3.0017e+000  7.3766e+000  2.8259e+000 56962 82425,82529,82477
 1.3000e+000 82604 -4.7161e+000  1.3128e+001  6.3901e+000 56962 82477,82529,82503
 1.3000e+000 82581  1.8723e+000 -1.6146e+000  3.2153e+000 56962 82347,82399,82373
 1.3000e+000 82768 -2.6339e+000  1.3892e+000  4.6842e+000 56962 82529,82425,82742
 1.3000e+000 82791  6.5905e-001  4.3847e+000  6.1174e+000 56962 82529,82742,82555
 1.3000e+000 82840  5.8341e-001  1.0348e+000  4.4115e+000 56962 82347,82742,82814
 1.3000e+000 82863  1.6578e+000  1.0119e+000  4.2642e+000 56962 82347,82814,82399
 1.3000e+000 83467 -9.9513e+000  6.1802e+000 -1.1781e+001 56300 83124,83176,83150
 1.3000e+000 83444 -1.5789e+000  4.3794e+000 -3.5604e+000 56300 83490,83176,83124
 1.3000e+000 83421  1.6482e+000  6.2700e+000 -2.7610e+000 56300 83490,83124,83280
 1.3000e+000 83398  5.4137e+000  1.3420e+001 -2.8129e+000 56300 83202,83280,83254
 1.3000e+000 83375  3.1430e+000  1.0871e+001 -3.2930e+000 56300 83046,83280,83124
 1.3000e+000 83352  2.3715e+000  1.0429e+001 -2.8229e+000 56300 83046,83124,83098
 1.3000e+000 83329  3.0648e+000  3.2759e+000 -2.3772e+000 56300 83202,83254,83228
 1.3000e+000 83306  6.1912e+000  1.7219e+001 -1.2884e+000 56300 83046,83098,83072
 1.3000e+000 83516 -4.3424e+000  6.9276e+000 -1.0723e+000 56300 83202,83176,83490
 1.3000e+000 83539 -1.1181e+000  8.4480e+000 -6.1968e-001 56300 83202,83490,83280
 1.3000e+000 83787 -7.1030e+000 -2.2896e-001  3.7756e-001 55960 83588,83692,83666
 1.3000e+000 83764 -1.0479e+001  1.0690e+001  5.3205e+000 55960 83562,83692,83588
 1.3000e+000 83741 -6.7808e-001 -2.2994e-001  2.2247e+000 55960 83588,83666,83614
 1.3000e+000 83718 -7.2585e+000  1.2702e+000  2.9894e+000 55960 83614,83666,83640
 1.3000e+000 83937  4.9498e-001 -1.4483e+000 -2.9708e+000 55499 83810,83862,83836
 1.3000e+000 83914 -7.4066e+000  5.0481e-001 -2.2279e+000 55499 83810,83888,83862
 1.3000e+000 84138 -3.9495e+000 -9.8041e+000  4.7417e-001 55152 83988,84066,84040
 1.3000e+000 84115  4.5382e+000  1.0221e+001  3.9058e-001 55152 83962,84066,83988
 1.3000e+000 84092  5.3269e+000  9.3837e+000  6.7467e+000 55152 83988,84040,84014
 1.3000e+000 84471 -1.0846e+001  1.3933e+001  1.4044e+001 54648 84324,84376,84350
 1.3000e+000 84448 -1.2731e+001 -5.4977e+000  1.4277e+001 54648 84272,84376,84324
 1.3000e+000 84425 -1.7442e+001 -2.1773e+001  1.5483e+001 54648 84246,84376,84272
 1.3000e+000 84402 -1.8573e+001 -7.6833e+000  1.5434e+001 54648 84272,84324,84298
 1.3000e+000 84849 -3.9475e+000 -3.1887e+000  7.8355e-001 53922 84627,84731,84705
 1.3000e+000 84826 -1.4152e+000 -1.8908e+000  1.9886e+000 53922 84575,84731,84627
 1.3000e+000 84803 -4.9500e-001 -9.3203e-001  5.3916e-001 53922 84575,84627,84601
 1.3000e+000 84780 -1.8729e+000 -2.5645e+000  1.3703e+000 53922 84627,84705,84653
 1.3000e+000 84757 -3.1577e+000 -2.0102e+000  1.1335e+000 53922 84653,84705,84679
 1.3000e+000 85581 -1.6282e+001 -9.8638e-002  1.3838e+000 53582 85604,85111,85319
 1.3000e+000 85558 -3.3317e+000 -2.3139e+000  2.4614e+000 53582 85111,85345,85319
 1.3000e+000 85535 -1.0997e+001  3.2138e+000  4.6890e+000 53582 85604,85319,85293
 1.3000e+000 85512 -5.1130e+000  5.4162e+000  1.6534e+001 53582 85241,85293,85267
 1.3000e+000 85489 -1.4362e+001  4.7864e+000  8.0768e+000 53582 85676,85241,85189
 1.3000e+000 85466 -6.6111e+000  6.2300e+000  3.6843e+000 53582 85676,85189,85137
 1.3000e+000 85443 -1.8356e+001  1.2547e+001  9.0350e+000 53582 85189,85241,85215
 1.3000e+000 85420 -5.4273e+000  2.0089e+001  3.0123e+000 53582 85137,85189,85163
 1.3000e+000 85397 -6.8288e+000  2.2523e+000 -4.6024e-001 53582 85111,85371,85345
 1.3000e+000 85630 -1.5719e+001  6.3378e+000  6.7831e+000 53582 85137,85111,85604
 1.3000e+000 85653 -1.2766e+001  5.1534e+000  8.1379e+000 53582 85748,85604,85293
 1.3000e+000 85702 -1.5996e+001  7.0015e-001  1.2299e+001 53582 85293,85241,85676
 1.3000e+000 85725 -1.1464e+001  5.2289e+000  7.7608e+000 53582 85748,85293,85676
 1.3000e+000 85774 -1.0691e+001  4.7573e+000  8.6823e+000 53582 85137,85604,85748
 1.3000e+000 85797 -9.8993e+000  4.4110e+000  8.4014e+000 53582 85137,85748,85676
 1.3000e+000 86303  9.7410e+000  9.6014e+000  1.9635e+000 53178 86326,86084,86006
 1.3000e+000 86280  9.5999e+000  9.1669e+000  2.0258e+000 53178 86326,86006,86162
 1.3000e+000 86257  1.3837e+001  1.3042e+001 -3.8969e+000 53178 86398,86110,86084
 1.3000e+000 86234  1.0645e+001  6.9886e+000  7.0753e-001 53178 86006,86058,86032
 1.3000e+000 86211  8.5763e+000  7.2845e+000  1.4957e+000 53178 86006,86084,86058
 1.3000e+000 86188  6.8082e+000  6.8062e+000  5.4776e+000 53178 85980,86162,86006
 1.3000e+000 86352  8.7078e+000  8.3263e+000  1.3920e+000 53178 86398,86084,86326
 1.3000e+000 86375  3.2658e+000  1.1482e+001  1.0191e+000 53178 86136,86326,86162
 1.3000e+000 86424  1.3847e+001  1.6395e+001 -7.1896e+000 53178 86136,86110,86398
 1.3000e+000 86447  1.2070e+001  1.8675e+001 -2.1513e+000 53178 86136,86398,86326
 1.3000e+000 86904  1.9633e+000  2.1445e+001 -1.3923e-001 52774 86708,86760,86734
 1.3000e+000 86881  1.4711e+000  1.2850e+001 -3.2705e+000 52774 86656,86760,86708
 1.3000e+000 86858  9.1572e+000  1.3500e+001 -1.8777e+000 52774 86656,86708,86682
 1.3000e+000 86835  6.9617e+000  1.3612e+001 -1.8579e+000 52774 86630,86760,86656
 1.3000e+000 86812  6.4416e+000  1.2463e+001  5.9801e-002 52774 86630,86786,86760
 1.3000e+000 87489  3.1303e+000  2.3183e+001  6.5447e+000 52234 87512,87218,87192
 1.3000e+000 87466 -6.4901e-001  1.7802e+001  2.1738e+000 52234 87512,87192,87348
 1.3000e+000 87443 -2.7767e+000  1.5884e+001  1.2024e+000 52234 87166,87348,87192
 1.3000e+000 87420 -5.9789e+000  1.3225e+001  4.3882e-001 52234 87296,87348,87322
 1.3000e+000 87397 -1.3329e-001  1.2064e+001  2.3774e+000 52234 87218,87296,87270
 1.3000e+000 87374  5.0309e+000  1.3087e+001  2.8342e+000 52234 87218,87270,87244
 1.3000e+000 87538  5.8860e-002  1.5168e+001  3.2671e+000 52234 87296,87218,87512
 1.3000e+000 87561 -1.3745e+000  1.4787e+001 -9.6476e-001 52234 87296,87512,87348
 1.3000e+000 87841  2.8745e+000  2.1786e+001  5.1427e-001 51830 87665,87743,87691
 1.3000e+000 87818  6.3116e+000  2.3561e+001  1.3427e+000 51830 87665,87769,87743
 1.3000e+000 87795 -8.9887e+000  1.3699e+001 -4.4685e+000 51830 87864,87691,87743
 1.3000e+000 87890 -2.1357e+001  8.3976e+000 -5.0158e+000 51830 87717,87691,87864
 1.3000e+000 88418 -7.1577e+000 -2.3191e+000  5.5823e+000 51262 88095,88173,88121
 1.3000e+000 88395 -8.1846e+000  2.1379e+000  4.7975e+000 51262 88095,88251,88173
 1.3000e+000 88372 -1.4026e+001 -2.2795e+000  6.5301e-001 51262 88173,88251,88199
 1.3000e+000 88349 -1.3085e+001  1.3206e+001  1.2295e+001 51262 88095,88277,88251
 1.3000e+000 88326 -3.9380e+000  1.0103e+001  4.9982e+000 51262 88199,88251,88225
 1.3000e+000 88303 -5.1190e+000  2.4311e+000  5.0320e+000 51262 88121,88173,88147
 1.3000e+000 88875 -3.8081e+000  9.6595e+000 -7.0635e+000 50750 88601,88731,88627
 1.3000e+000 88852 -6.9458e+000  2.0038e+001 -8.9913e+000 50750 88601,88757,88731
 1.3000e+000 88829  2.4530e+000  1.8242e+001  1.2580e+000 50750 88627,88731,88653
 1.3000e+000 88806  1.0547e+000  1.4483e+001  1.2399e+000 50750 88653,88731,88705
 1.3000e+000 88783 -1.9393e+001  2.3627e+000 -6.4737e+000 50750 88653,88705,88679
 1.3000e+000 89145 -4.3711e+000 -4.2285e+000  5.7996e-001 50438 88946,89024,88972
 1.3000e+000 89122 -2.7713e+000 -2.7772e+000 -3.3194e-002 50438 88946,89050,89024
 1.3000e+000 89099 -4.0316e+000 -2.8294e+000 -6.1077e-002 50438 88920,89050,88946
 1.3000e+000 89076 -6.2558e+000 -5.3499e+000 -1.5700e-001 50438 88972,89024,88998
 1.3000e+000 89525 -3.9505e+000 -3.6307e+000  4.7609e-001 49934 89548,89277,89251
 1.3000e+000 89502 -3.9163e+000 -3.9720e+000  4.3809e-001 49934 89548,89251,89381
 1.3000e+000 89479 -3.2982e+000 -4.7554e+000  9.7374e-001 49934 89303,89381,89329
 1.3000e+000 89456 -3.2125e+000 -2.5969e+000 -8.9836e-001 49934 89251,89407,89381
 1.3000e+000 89433 -2.6394e+000 -3.8057e+000  6.5862e-001 49934 89329,89381,89355
 1.3000e+000 89574 -3.0223e+000  2.9929e-002  7.6931e-001 49934 89303,89277,89548
 1.3000e+000 89597 -4.5091e+000 -3.5339e+000  8.0124e-001 49934 89303,89548,89381
 1.3000e+000 90054 -8.5751e+000 -2.4353e+000  1.0952e+000 49380 89832,89936,89910
 1.3000e+000 90031 -7.0524e+000 -2.2135e+000  2.8672e+000 49380 89780,89936,89832
 1.3000e+000 90008 -2.3509e+000  7.5718e-001  1.1113e+000 49380 89780,89832,89806
 1.3000e+000 89985 -6.2103e+000 -1.6838e+000  1.4573e+000 49380 89832,89910,89858
 1.3000e+000 89962 -3.0565e+000  8.4713e+000  4.1371e+000 49380 89858,89910,89884
 1.3000e+000 90560 -3.9437e+000 -1.9172e+000  3.3867e+000 48890 90289,90341,90315
 1.3000e+000 90537 -6.3387e+000 -2.9922e+000  1.5634e+000 48890 90289,90393,90341
 1.3000e+000 90514 -6.0730e+000 -1.7207e+000  1.7739e+000 48890 90263,90393,90289
 1.3000e+000 90491 -3.1347e+000 -1.4366e-001  7.4847e-001 48890 90237,90393,90263
 1.3000e+000 90468 -4.8764e+000  1.5118e+000  1.1760e+000 48890 90341,90393,90367
 1.3000e+000 90445 -3.4265e+000 -3.1502e-001  8.3770e-001 48890 90237,90419,90393
 1.3000e+000 91115 -5.1816e+000 -2.8847e+000 -4.0178e-001 48486 90795,90873,90847
 1.3000e+000 91092 -5.7148e+000 -2.7310e+000 -5.3083e-001 48486 90795,90925,90873
 1.3000e+000 91069 -6.1352e+000 -2.7157e+000 -3.0702e-001 48486 90769,90925,90795
 1.3000e+000 91046 -9.3515e+000 -3.6201e+000 -5.4716e-002 48486 90769,90951,90925
 1.3000e+000 91023 -5.7896e+000 -3.3187e+000  5.6752e-001 48486 90795,90847,90821
 1.3000e+000 91000 -6.9975e+000 -6.9251e+000 -1.9007e+000 48486 90873,90925,90899
 1.3000e+000 90977 -3.3392e+000  3.3822e-002  2.1541e+000 48486 90743,90951,90769
 1.3000e+000 91265 -1.6492e+000  3.3392e+000  2.3633e-001 48082 91288,91190,91164
 1.3000e+000 91242 -3.0699e+000 -2.9782e-001  1.7009e-001 48082 91360,91288,91164
 1.3000e+000 91314 -2.0536e+000  1.5953e+000  1.3980e+000 48082 91216,91190,91288
 1.3000e+000 91337 -1.1615e+000  5.7821e-001  1.8435e+000 48082 91216,91288,91138
 1.3000e+000 91386  3.0675e-001  1.8977e+000  1.2847e+000 48082 91138,91288,91360
 1.3000e+000 92022  4.6581e+000 -2.9580e+000 -1.8870e+001 47514 92261,92045,91754
 1.3000e+000 91999 -2.3416e+000  1.7950e+000  1.8314e+000 47514 92189,92045,91702
 1.3000e+000 91976 -6.4828e+000  1.5599e+001 -4.7077e+000 47514 92117,91806,91754
 1.3000e+000 91953  7.7671e-001  1.0715e+001  4.2153e-001 47514 92189,91702,91650
 1.3000e+000 91930  2.4420e+001 -1.8307e+000 -1.8240e+001 47514 92261,91754,91728
 1.3000e+000 91907 -2.0333e+001  1.1331e+001 -8.5970e+000 47514 91754,91806,91780
 1.3000e+000 91884  1.1992e+001  1.1273e+001 -3.7471e+000 47514 91650,91702,91676
 1.3000e+000 92071 -9.7642e+000  9.6696e+000 -1.2035e+001 47514 92117,91754,92045
 1.3000e+000 92094 -9.5327e-002  1.9760e+000 -5.6729e+000 47514 91832,92045,91858
 1.3000e+000 92143  4.8881e-001  1.9618e+001  3.1287e+000 47514 91832,91806,92117
 1.3000e+000 92166 -3.4370e-002  8.6539e+000 -4.3054e+000 47514 91832,92117,92045
 1.3000e+000 92215 -1.3255e+000  9.4237e+000 -2.0997e+000 47514 91858,92045,92189
 1.3000e+000 92238 -1.0207e+000  1.3977e+001 -3.4814e+000 47514 91858,92189,91650
 1.3000e+000 92287  7.4742e+000 -7.0713e-001 -1.9433e+000 47514 91702,92045,92261
 1.3000e+000 92310  2.0313e+001 -4.0538e-001  5.6606e-001 47514 91702,92261,91728
 1.3000e+000 92460 -7.5678e+000  5.7595e+000  3.6105e+000 47124 92483,92359,92333
 1.3000e+000 92437 -3.5996e+000 -1.6005e+000 -2.2498e+000 47124 92555,92483,92333
 1.3000e+000 92509 -2.4788e+000  9.8126e+000  5.7715e+000 47124 92685,92483,92385
 1.3000e+000 92532  1.4481e+000  3.9441e+000  6.3568e-001 47124 92385,92483,92411
 1.3000e+000 92581 -5.0420e-001  2.9663e+000 -7.4930e-001 47124 92411,92483,92555
 1.3000e+000 92711 -1.0311e+000  9.2159e+000  5.9937e+000 47124 92359,92483,92685
 1.3000e+000 93571 -1.2755e+001 -5.1842e+000  2.8011e+000 46834 93594,93208,93104
 1.3000e+000 93548 -1.5293e+001 -6.3289e+000  3.1077e+000 46834 93738,93594,93104
 1.3000e+000 93525 -1.9229e+001 -1.4836e+001 -2.5596e+000 46834 93666,93234,93208
 1.3000e+000 93502 -1.2259e+001 -5.4593e+000  3.3708e+000 46834 93738,93104,93078
 1.3000e+000 93479 -1.7551e+001 -6.1988e+000  1.3188e+000 46834 93810,93260,93234
 1.3000e+000 93456 -7.4463e+000 -5.2032e+000  4.1278e+000 46834 93104,93182,93156
 1.3000e+000 93433 -1.1730e+001 -1.2446e+001  2.1442e+000 46834 93104,93208,93182
 1.3000e+000 93410 -2.5948e+001 -4.2192e+000  5.8404e+000 46834 93286,93338,93312
 1.3000e+000 93387 -1.6385e+001 -6.6471e+000  2.8595e+000 46834 93052,93338,93078
 1.3000e+000 93364 -7.7203e+000 -3.0170e-001  2.4030e+000 46834 93104,93156,93130
 1.3000e+000 93620 -1.5668e+001 -7.8957e+000  7.0550e-001 46834 93666,93208,93594
 1.3000e+000 93643 -1.6963e+001 -2.1666e+000  3.0248e+000 46834 93286,93594,93338
 1.3000e+000 93692 -1.8462e+001 -6.4125e+000  4.1660e-001 46834 93810,93234,93666
 1.3000e+000 93715 -1.8637e+001 -3.0628e+000  1.4147e+000 46834 93286,93666,93594
 1.3000e+000 93764 -1.7677e+001 -5.1246e+000  3.6923e+000 46834 93338,93594,93738
 1.3000e+000 93787 -1.6711e+001 -5.7623e+000  3.7258e+000 46834 93338,93738,93078
 1.3000e+000 93836 -1.5319e+001 -5.6286e+000  2.1592e+000 46834 93286,93260,93810
 1.3000e+000 93859 -1.6300e+001 -5.7854e+000  1.2983e+000 46834 93286,93810,93666
 1.3000e+000 94210 -5.7606e+000 -5.3414e+000  2.8267e-001 46472 94011,94115,94089
 1.3000e+000 94187 -5.0697e+000 -4.0166e+000  5.4561e-001 46472 93985,94115,94011
 1.3000e+000 94164 -8.7801e+000 -5.6603e+000 -4.4718e-002 46472 94037,94089,94063
 1.3000e+000 94141 -8.6281e+000 -6.6560e+000  5.9512e-001 46472 94011,94089,94037
 1.3000e+000 94746  5.6109e+000  1.3666e+001 -7.9375e-001 46068 94576,94628,94602
 1.3000e+000 94723 -4.4304e-001  1.1058e+001 -6.0755e-001 46068 94498,94628,94576
 1.3000e+000 94700  8.2768e+000  1.6206e+001 -5.3627e+000 46068 94472,94628,94498
 1.3000e+000 94677  1.9270e+001  1.5532e+001 -8.3361e-001 46068 94524,94576,94550
 1.3000e+000 94654  1.1154e+001  1.0853e+001  4.1732e+000 46068 94498,94576,94524
 1.3000e+000 95380  1.9447e+001  9.1330e-001  2.7132e+000 45342 95034,95112,95086
 1.3000e+000 95357 -1.1801e+000 -1.7460e+000  2.8798e+000 45342 95034,95190,95112
 1.3000e+000 95334  3.0550e+001 -5.4218e+000 -5.5839e+000 45342 95403,95164,95138
 1.3000e+000 95311  1.3699e+001 -5.5215e-001  1.9355e+000 45342 95403,95138,95112
 1.3000e+000 95288  1.8220e+001 -4.7559e+000  3.8128e-001 45342 95034,95216,95190
 1.3000e+000 95265  1.4209e+001  3.0990e+000  6.6390e+000 45342 95034,95086,95060
 1.3000e+000 95242  2.0180e+001  3.3803e-002  8.8210e-001 45342 95008,95216,95034
 1.3000e+000 95429  1.5180e+001 -5.8092e+000 -7.4588e+000 45342 95190,95164,95403
 1.3000e+000 95452  9.1129e-001  1.2583e+000 -3.2520e+000 45342 95190,95403,95112
 1.3000e+000 96007 -9.6301e+000 -5.8275e+000 -1.5694e+000 44716 96030,95791,95765
 1.3000e+000 95984 -4.3011e+000 -7.2674e+000 -2.5596e+000 44716 96030,95765,95713
 1.3000e+000 95961 -2.7806e+000 -7.0795e+000  6.2397e-001 44716 96174,96102,95661
 1.3000e+000 95938 -3.1535e+000 -5.9155e+000  8.3070e-001 44716 96174,95661,95635
 1.3000e+000 95915 -2.7604e+000 -3.9182e+000  8.9541e-001 44716 95661,95713,95687
 1.3000e+000 95892  9.4166e+000 -1.2909e+000 -1.7319e+000 44716 95713,95765,95739
 1.3000e+000 95869  7.3666e-001 -2.1703e+000 -9.7816e-001 44716 95635,95843,95817
 1.3000e+000 96056 -4.5955e+000 -4.1057e+000 -7.2532e-001 44716 95817,95791,96030
 1.3000e+000 96079 -5.4752e+000 -7.5509e+000 -1.4336e+000 44716 96102,95817,96030
 1.3000e+000 96128 -8.6178e-001 -5.8232e+000  1.4786e+000 44716 95713,95661,96102
 1.3000e+000 96151 -1.2118e-001 -5.7947e+000 -5.6476e-001 44716 95713,96102,96030
 1.3000e+000 96200 -2.1046e+000 -5.5594e+000  3.4501e-001 44716 95817,96102,96174
 1.3000e+000 96223 -2.8209e+000 -4.8945e+000  7.6668e-001 44716 95817,96174,95635
 1.3000e+000 96680  6.9988e+000  1.4722e+001 -3.0212e+000 44198 96775,96703,96458
 1.3000e+000 96657  8.9825e+000  2.2876e+000 -6.1915e+000 44198 96703,96406,96562
 1.3000e+000 96634  1.0404e+001  1.9129e+001 -4.7632e+000 44198 96775,96458,96432
 1.3000e+000 96611  1.1517e+001  1.1308e+001 -8.0704e+000 44198 96484,96536,96510
 1.3000e+000 96588 -3.2490e+000  1.1802e+001  5.9362e-001 44198 96458,96536,96484
 1.3000e+000 96729 -2.0842e+000  1.2635e+000  1.8931e+000 44198 96536,96458,96703
 1.3000e+000 96752  8.4387e+000  1.2070e+000 -6.5421e+000 44198 96536,96703,96562
 1.3000e+000 96801  1.4187e+001  3.0431e+000 -3.1485e+000 44198 96406,96703,96775
 1.3000e+000 96824  2.0463e+001  1.1196e+001 -5.9412e+000 44198 96406,96775,96432
 1.3000e+000 97202 -7.3999e+000 -7.5467e+000  3.5812e+000 43750 97225,96980,96928
 1.3000e+000 97179 -6.8843e+000 -8.8723e+000  4.4618e+000 43750 97225,96928,97084
 1.3000e+000 97156 -6.9933e+000 -6.2074e+000  3.4670e+000 43750 96928,96980,96954
 1.3000e+000 97133 -3.9551e+000 -3.3322e+000  2.5189e+000 43750 97006,97084,97058
 1.3000e+000 97110 -2.2707e+000 -3.3264e+000  2.7182e+000 43750 97006,97058,97032
 1.3000e+000 97251 -6.6727e+000 -5.3270e+000  3.2352e+000 43750 97006,96980,97225
 1.3000e+000 97274 -6.7925e+000 -7.5497e+000  4.1554e+000 43750 97006,97225,97084
 1.3000e+000 97522 -2.2248e+000  6.2907e+000 -1.4151e+000 43360 97545,97375,97349
 1.3000e+000 97499 -4.6999e+000  1.8235e+000 -3.3863e+000 43360 97545,97349,97323
 1.3000e+000 97476 -1.5270e+000  3.6186e+000 -5.7017e+000 43360 97617,97427,97401
 1.3000e+000 97453  1.0586e+000  4.9932e+000 -1.0988e+001 43360 97297,97427,97323
 1.3000e+000 97571 -1.0793e+001 -3.0253e+000  2.2194e+000 43360 97401,97375,97545
 1.3000e+000 97594 -2.6698e+000 -1.2213e+000 -2.4493e+000 43360 97617,97401,97545
 1.3000e+000 97643  6.6478e-001  9.5260e+000 -9.0443e+000 43360 97323,97427,97617
 1.3000e+000 97666 -3.4633e-001  7.0295e+000 -5.3807e+000 43360 97323,97617,97545
 1.3000e+000 98019 -3.8412e+001 -9.6446e-001 -8.4112e+000 42956 97794,97898,97820
 1.3000e+000 97996 -3.4103e+001 -1.1988e+001 -5.6768e+000 42956 97794,97924,97898
 1.3000e+000 97973 -7.3900e+001  1.4663e+000 -2.1007e+000 42956 97820,97872,97846
 1.3000e+000 97950 -6.4927e+001 -4.8736e+000 -7.2740e+000 42956 97820,97898,97872
 1.3000e+000 98446 -1.1070e+001 -4.7862e+000  3.8219e+000 42559 98149,98305,98279
 1.3000e+000 98423 -5.5782e+000 -1.3966e+000  5.3260e+000 42559 98123,98305,98149
 1.3000e+000 98400 -7.0712e+000 -4.2550e+000  2.5830e+000 42559 98469,98175,98149
 1.3000e+000 98377 -2.6818e+000  5.8899e+000 -2.7609e-001 42559 98469,98149,98279
 1.3000e+000 98354 -5.7672e+000  1.3013e+000 -1.4255e+000 42559 98175,98253,98227
 1.3000e+000 98331 -5.3221e+000  2.4463e+000 -1.2901e+000 42559 98175,98227,98201
 1.3000e+000 98495 -3.6605e+000  2.6692e+000 -2.4402e+000 42559 98253,98175,98469
 1.3000e+000 98518 -2.5777e+000  6.4029e+000 -5.1483e+000 42559 98253,98469,98279
 1.3000e+000 98847  1.8532e+001  4.9486e+000 -3.1666e+000 42247 98674,98752,98700
 1.3000e+000 98824  8.3242e+000  9.2841e+000  3.9394e+000 42247 98648,98752,98674
 1.3000e+000 98801  9.7444e+000  1.3463e+001  1.1363e+001 42247 98622,98752,98648
 1.3000e+000 98778  2.4112e+001  2.5439e+000  4.3650e+000 42247 98700,98752,98726
 1.3000e+000 99117 -9.1897e+000 -9.8368e+000 -4.3833e-001 41843 98892,98996,98918
 1.3000e+000 99094 -1.0517e+001 -9.4664e+000 -9.6980e-001 41843 98892,99022,98996
 1.3000e+000 99071 -6.7244e+000 -4.4676e+000  6.5605e-001 41843 98918,98996,98970
 1.3000e+000 99048 -9.7447e+000 -5.0732e+000 -1.2144e-001 41843 98918,98970,98944
 1.3000e+000 99625  7.8780e-001  1.5914e+001  7.8571e+000 41232 99648,99380,99354
 1.3000e+000 99602  9.3186e+000  1.6132e+001  5.8764e+000 41232 99648,99354,99328
 1.3000e+000 99579  9.5145e+000  2.2278e+001  1.1076e+001 41232 99720,99432,99380
 1.3000e+000 99556 -1.9387e+000  1.3142e+001  3.3784e+000 41232 99380,99432,99406
 1.3000e+000 99533  7.6131e+000  3.1981e+000  4.0182e+000 41232 99328,99484,99458
 1.3000e+000 99510  2.2977e+001  5.9892e+000  3.9332e+000 41232 99302,99484,99328
 1.3000e+000 99674  2.7658e+000  1.9377e+001  9.1017e+000 41232 99720,99380,99648
 1.3000e+000 99697  5.8672e+000  1.9523e+000  4.5754e+000 41232 99458,99648,99328
 1.3000e+000 99746  1.8529e+001  1.8489e+001  1.4620e+001 41232 99458,99432,99720
 1.3000e+000 99769  1.3202e+001  1.5295e+001  1.1883e+001 41232 99458,99720,99648
 1.3000e+000 100275  1.7319e+001  8.0102e+000 -7.3413e+000 40728 99952,100004,99978
 1.3000e+000 100252  6.9578e+000  3.5263e+000 -1.2387e+001 40728 99952,100030,100004
 1.3000e+000 100229 -3.5923e+000 -1.0899e+001 -7.7647e+000 40728 99952,100134,100030
 1.3000e+000 100206  1.5821e+000  3.1613e+000 -9.3109e+000 40728 100298,100108,100082
 1.3000e+000 100183  1.6688e+000 -4.1247e+000 -1.0090e+001 40728 100298,100082,100030
 1.3000e+000 100160 -1.8462e+001  3.5964e+000 -3.0786e+001 40728 100030,100082,100056
 1.3000e+000 100324  6.2595e-001  9.3110e+000 -6.6671e+000 40728 100134,100108,100298
 1.3000e+000 100347 -9.8264e-002  3.2704e-001 -6.8282e+000 40728 100134,100298,100030
 1.3000e+000 100853 -1.1045e+001  7.6789e+000  1.2610e+000 40274 100876,100686,100660
 1.3000e+000 100830 -9.0895e+000  2.2662e+000  3.1640e+000 40274 100948,100876,100660
 1.3000e+000 100807 -1.1748e+001  1.1275e+000 -1.2199e-001 40274 100948,100660,100608
 1.3000e+000 100784 -1.0522e+001  5.7391e+000  4.4978e+000 40274 101020,100556,100712
 1.3000e+000 100761 -7.4855e+000  1.0019e+001  6.2090e+000 40274 100530,100712,100556
 1.3000e+000 100738 -1.0974e+001  6.6523e+000  2.5314e+000 40274 100608,100660,100634
 1.3000e+000 100902 -1.0157e+001  1.9675e+001  5.2151e+000 40274 100712,100686,100876
 1.3000e+000 100925 -1.2922e+001  6.3082e+000  2.4973e+000 40274 101020,100712,100876
 1.3000e+000 100974 -1.1381e+001 -8.8526e-001 -7.2820e-001 40274 100582,100876,100948
 1.3000e+000 100997 -1.6528e+001 -2.4591e+000 -4.0111e+000 40274 100582,100948,100608
 1.3000e+000 101046 -7.4886e+000  7.0152e+000  4.9977e+000 40274 100582,100556,101020
 1.3000e+000 101069 -9.2493e+000  7.6086e+000  2.6646e+000 40274 100582,101020,100876
 1.3000e+000 101496  1.1668e+000  7.9917e+000  5.6606e+000 39820 101519,101277,101225
 1.3000e+000 101473 -7.4060e+000 -1.6491e+000  1.6647e+000 39820 101519,101225,101199
 1.3000e+000 101450 -3.4583e+000  5.1337e+000  1.0056e+001 39820 101173,101355,101199
 1.3000e+000 101427  1.6528e+001  2.3359e+000 -1.7219e+000 39820 101277,101355,101303
 1.3000e+000 101404  3.0477e+000  4.7127e+000 -1.3173e+000 39820 101225,101277,101251
 1.3000e+000 101381  1.0902e+001  4.5284e+000 -3.0473e+000 39820 101303,101355,101329
 1.3000e+000 101545  5.2346e+000  2.7033e+000  9.8351e+000 39820 101355,101277,101519
 1.3000e+000 101568  1.3906e+000  7.5765e-002  7.5425e+000 39820 101355,101519,101199
 1.3000e+000 101816 -8.0675e+000 -9.5229e+000  3.3523e+000 39066 101839,101695,101643
 1.3000e+000 101793 -9.6069e+000 -9.4100e+000  2.2157e+000 39066 101839,101643,101591
 1.3000e+000 101770 -6.2064e+000 -1.0630e+001  1.8806e+000 39066 101643,101695,101669
 1.3000e+000 101747 -6.0382e+000 -4.2740e+000  6.4218e-001 39066 101591,101643,101617
 1.3000e+000 101865 -6.8809e+000 -9.3283e+000  3.7207e+000 39066 101721,101695,101839
 1.3000e+000 101888 -8.0331e+000 -9.1614e+000  2.4455e+000 39066 101721,101839,101591
 1.3000e+000 102087 -1.0850e+001 -1.9932e+000 -6.1139e-001 38726 101937,101989,101963
 1.3000e+000 102064 -1.5295e+001 -6.0121e+000  1.0908e+000 38726 101937,102015,101989
 1.3000e+000 102041 -7.8908e+000 -2.9545e+000  1.6140e+000 38726 101911,102015,101937
 1.3000e+000 102337  9.8977e+000  1.0325e+001 -3.6553e+000 38322 102112,102190,102138
 1.3000e+000 102314  5.6319e-001  7.2081e+000  8.4544e+000 38322 102112,102216,102190
 1.3000e+000 102291  2.0589e+001  3.4052e+000  1.2254e+001 38322 102112,102242,102216
 1.3000e+000 102268 -8.7603e+000  5.1039e+000 -2.6518e+000 38322 102138,102190,102164
 1.3000e+000 102489 -3.8158e+000  2.6106e+000  1.6681e+000 38032 102512,102388,102362
 1.3000e+000 102466 -4.9854e+000  6.8170e+000 -5.1159e-001 38032 102512,102362,102440
 1.3000e+000 102538 -3.2235e+000 -9.0695e-001  1.1058e+000 38032 102414,102388,102512
 1.3000e+000 102561 -5.6407e+000  1.4515e+000 -1.7926e+000 38032 102414,102512,102440
 1.3000e+000 102894 -1.8869e+000  1.9247e+001 -1.5136e+000 37592 102669,102773,102695
 1.3000e+000 102871  1.7626e+001  2.2377e+001 -1.1985e+001 37592 102669,102799,102773
 1.3000e+000 102848  1.2478e+001  2.9668e+001 -9.9243e-002 37592 102721,102773,102747
 1.3000e+000 102825  3.0747e+000  9.6351e-001 -6.1592e-001 37592 102695,102773,102721
 1.3000e+000 103093  6.7649e+000  2.5251e+001 -4.4757e+000 37188 102917,102995,102943
 1.3000e+000 103070  4.2941e+000  3.0792e+001  2.4277e+000 37188 102917,103021,102995
 1.3000e+000 103047  9.0394e+000  1.6869e+001 -6.1891e-001 37188 102943,102995,102969
 1.3000e+000 103341  1.2926e+001  2.4314e+001  4.3192e+000 36605 103142,103194,103168
 1.3000e+000 103318  1.7011e+001  2.4352e+001  5.2218e+000 36605 103142,103220,103194
 1.3000e+000 103295  2.8674e+001  1.3237e+001 -1.2695e+000 36605 103116,103220,103142
 1.3000e+000 103272  3.8994e+001  3.1685e+001 -1.1074e+001 36605 103116,103246,103220
 1.3000e+000 103949 -7.6542e+000 -1.3511e+001 -2.9453e+000 36127 103554,103606,103580
 1.3000e+000 103926 -1.4598e+001 -9.3661e+000 -3.7814e+000 36127 103528,103606,103554
 1.3000e+000 103903 -1.1050e+001 -4.0886e+000 -7.3869e+000 36127 103528,103736,103606
 1.3000e+000 103880 -1.3197e+001 -9.6964e+000 -6.3962e+000 36127 103972,103710,103632
 1.3000e+000 103857 -1.6099e+001 -1.6219e+001 -1.2404e+001 36127 103972,103632,103606
 1.3000e+000 103834 -1.1153e+001 -6.6950e+000 -5.4896e+000 36127 103632,103710,103658
 1.3000e+000 103811 -2.3317e+001  4.3657e-001 -1.4961e+001 36127 103528,103762,103736
 1.3000e+000 103788 -9.9522e+000 -1.7281e-001 -1.1381e+000 36127 103658,103710,103684
 1.3000e+000 103998 -7.9258e+000 -3.2466e+000 -1.6994e+000 36127 103736,103710,103972
 1.3000e+000 104021 -1.1550e+001 -9.5421e+000 -7.8505e+000 36127 103736,103972,103606
 1.3000e+000 104220 -2.2629e+001  5.1534e+000  4.8044e+000 35787 104070,104148,104122
 1.3000e+000 104197 -2.1373e+001  3.5105e+001  1.1467e+001 35787 104044,104148,104070
 1.3000e+000 104174 -9.0734e+000  9.8876e+000  3.7049e+000 35787 104070,104122,104096
 1.3000e+000 104419 -5.8192e+000  5.7541e+000  7.4229e-001 35440 104269,104321,104295
 1.3000e+000 104396 -2.1777e+000  8.6045e+000  3.0680e+000 35440 104269,104347,104321
 1.3000e+000 104373 -6.6177e+000  4.5594e+000  1.3266e+000 35440 104243,104347,104269
 1.3000e+000 104718 -4.7942e+000  1.0676e+001 -3.6804e+000 34986 104496,104548,104522
 1.3000e+000 104695 -5.7321e+000  1.0912e+001 -4.4505e+000 34986 104741,104548,104496
 1.3000e+000 104672  2.8063e-001  1.1827e+001 -3.6324e+000 34986 104741,104496,104444
 1.3000e+000 104649 -8.7836e+000  1.2287e+001  9.4069e-001 34986 104813,104574,104548
 1.3000e+000 104626  7.4675e-001  1.3726e+001 -6.7022e-001 34986 104444,104496,104470
 1.3000e+000 104767 -9.1247e+000  1.2068e+001 -2.2908e+000 34986 104813,104548,104741
 1.3000e+000 104790 -3.6124e+000  1.2034e+001 -2.7195e+000 34986 104600,104741,104444
 1.3000e+000 104839 -6.6852e-001  1.5656e+001  2.5836e+000 34986 104600,104574,104813
 1.3000e+000 104862 -3.8488e+000  1.4329e+001 -2.3375e+000 34986 104600,104813,104741
 1.3000e+000 105014 -1.6124e+001 -2.5325e+000  1.2921e-001 34696 105169,105037,104913
 1.3000e+000 104991 -1.6865e+001 -6.3849e+000  9.6977e-001 34696 105169,104913,104887
 1.3000e+000 105063 -6.4738e+000  3.5259e+000  3.1116e+000 34696 104939,104913,105037
 1.3000e+000 105195 -1.7517e+001 -1.8522e+000  3.2789e+000 34696 104965,105037,105169
 1.3000e+000 105218 -1.7997e+001 -4.9074e+000  4.1525e+000 34696 104965,105169,104887
 1.3000e+000 105368 -1.1965e+001  3.1476e+000 -1.4093e+000 34384 105267,105319,105293
 1.3000e+000 105345 -1.0231e+001  7.3134e+000 -2.9410e-001 34384 105241,105319,105267
 1.3000e+000 105616 -6.5042e-002  1.3331e+001 -2.2125e+000 33730 105639,105417,105391
 1.3000e+000 105593  1.3631e+000  1.2405e+001 -3.5151e+000 33730 105639,105391,105495
 1.3000e+000 105570 -1.4461e+000  1.8679e+001 -5.6723e+000 33730 105391,105521,105495
 1.3000e+000 105547 -5.4214e+000  5.3897e+000  7.8812e+000 33730 105417,105469,105443
 1.3000e+000 105665  1.3537e+000  1.3331e+001 -2.4815e+000 33730 105469,105417,105639
 1.3000e+000 105688  4.9176e+000  1.3878e+001 -3.9550e+000 33730 105469,105639,105495
 1.3000e+000 105840 -4.9678e+000  7.3492e+000 -9.1344e-001 33390 105713,105765,105739
 1.3000e+000 105817 -4.7088e+000  7.5893e+000 -1.0460e+000 33390 105713,105791,105765
 1.3000e+000 106090 -9.8799e+000  5.3065e+000 -7.0259e+000 33043 106113,105943,105891
 1.3000e+000 106067 -1.3070e+001  8.2736e+000 -1.1549e+000 33043 106113,105891,105865
 1.3000e+000 106044 -4.4736e+000  3.3006e+000 -2.7568e+000 33043 105891,105943,105917
 1.3000e+000 106021 -9.8050e+000  1.2712e+001 -2.5124e+000 33043 105865,105995,105969
 1.3000e+000 106139 -3.0736e+000  1.5572e+001 -1.0134e+001 33043 105969,105943,106113
 1.3000e+000 106162 -1.0593e+001  1.2091e+001 -2.2429e+000 33043 105969,106113,105865
 1.3000e+000 106412  1.9358e+001  1.5010e+001  2.3638e+000 32539 106435,106291,106239
 1.3000e+000 106389  1.7516e+001  1.2511e+001  4.3537e-001 32539 106187,106317,106291
 1.3000e+000 106366  1.7959e+001  2.5825e+001  1.9247e+001 32539 106435,106239,106213
 1.3000e+000 106343  2.3127e+001  1.7579e+001  3.7154e+000 32539 106239,106291,106265
 1.3000e+000 106461  1.0113e+001  1.0207e+001  5.7586e-001 32539 106187,106291,106435
 1.3000e+000 106484 -9.0017e-001  1.6409e+001  1.6116e+001 32539 106187,106435,106213
 1.3000e+000 106685 -9.1007e+000  1.4133e+000 -3.0288e+000 31835 106535,106587,106561
 1.3000e+000 106662 -1.2198e+001  2.2089e+000  6.8515e-001 31835 106509,106587,106535
 1.3000e+000 106639 -7.6309e+000  1.2266e+001 -2.5236e+000 31835 106509,106613,106587
 1.3000e+000 106935  4.2222e+000  6.5816e+000 -6.1929e+000 31530 106736,106814,106788
 1.3000e+000 106912  9.9315e+000  9.7505e+000 -4.8767e+000 31530 106710,106814,106736
 1.3000e+000 106889  3.4465e-001  6.5873e-001 -3.9618e+000 31530 106736,106788,106762
 1.3000e+000 106866  1.1800e+001  1.2424e+001 -8.4000e+000 31530 106710,106840,106814
 1.3000e+000 107339 -1.7679e+001  6.6352e-001 -1.4644e+000 31026 107117,107221,107195
 1.3000e+000 107316 -1.3781e+001 -9.4970e+000  1.0538e+000 31026 107091,107221,107117
 1.3000e+000 107293 -1.3155e+001 -9.2572e+000  1.0562e+000 31026 107065,107221,107091
 1.3000e+000 107270 -1.9606e+001  1.7266e+001 -1.8978e+000 31026 107143,107195,107169
 1.3000e+000 107247 -2.9009e+001 -4.7821e+000 -3.5860e+000 31026 107117,107195,107143
 1.3000e+000 107538 -9.0478e+000  3.4452e+000 -2.1758e-001 30714 107561,107388,107362
 1.3000e+000 107515 -8.5008e+000  4.4154e+000 -4.8710e-001 30714 107561,107362,107466
 1.3000e+000 107492 -8.2997e+000  2.2166e+000 -1.4421e+000 30714 107414,107466,107440
 1.3000e+000 107587 -8.2979e+000  1.9928e+000 -1.6501e-001 30714 107414,107388,107561
 1.3000e+000 107610 -7.5911e+000  3.1919e+000 -4.8392e-001 30714 107414,107561,107466
 1.3000e+000 107990 -8.3719e+000 -6.7919e-001  2.5998e+000 30260 108013,107846,107768
 1.3000e+000 107967 -7.5720e+000  1.2968e+000  7.5473e-001 30260 108013,107768,107716
 1.3000e+000 107944 -9.6364e+000  2.4794e+000  8.7131e-001 30260 107716,107768,107742
 1.3000e+000 107921 -7.1451e+000  5.5002e+000  5.0628e+000 30260 107768,107846,107820
 1.3000e+000 107898 -7.0453e+000 -1.1315e+000  1.2737e+000 30260 107768,107820,107794
 1.3000e+000 108039 -6.7480e+000  4.8437e-001  1.3732e+000 30260 107872,107846,108013
 1.3000e+000 108062 -6.8021e+000  2.2324e+000 -3.5140e-001 30260 107872,108013,107716
 1.3000e+000 108261  1.7363e-001 -1.4103e+001  4.9076e+000 29870 108284,108085,108163
 1.3000e+000 108238 -6.1448e+000 -6.5337e+000 -6.1620e-001 29870 108085,108189,108163
 1.3000e+000 108215  3.2263e+001  6.9961e-001  9.2478e+000 29870 108284,108163,108137
 1.3000e+000 108310 -1.4523e+001  3.5332e+000  1.5842e+001 29870 108111,108085,108284
 1.3000e+000 108333  9.4968e-001  8.5739e+000  1.7500e+001 29870 108111,108284,108137
 1.3000e+000 108664  4.1293e+000  8.9683e+000 -7.4142e+000 29480 108465,108569,108543
 1.3000e+000 108641 -3.6248e+000  1.2216e+001  3.4453e+000 29480 108439,108569,108465
 1.3000e+000 108618 -5.9211e-001  2.0336e+000 -3.3205e+000 29480 108465,108543,108491
 1.3000e+000 108595  1.3477e+000  1.8822e+000 -3.0237e+000 29480 108491,108543,108517
 1.3000e+000 108993  1.0848e-001  6.1925e-001  2.9639e+000 29076 108794,108872,108820
 1.3000e+000 108970 -8.2697e-001 -1.7288e+000  2.8720e+000 29076 108768,108872,108794
 1.3000e+000 108947  3.7641e+000  1.2259e+000  5.4925e-001 29076 108820,108872,108846
 1.3000e+000 108924 -2.4542e+000 -5.1315e-001  9.7140e+000 29076 108768,108898,108872
 1.3000e+000 109420 -1.9559e+000  2.4250e+000 -5.9282e+000 28472 109123,109227,109201
 1.3000e+000 109397 -2.0953e+001  5.4114e-001 -4.2099e+000 28472 109123,109253,109227
 1.3000e+000 109374 -5.8742e+000 -2.7123e+000 -4.1813e+000 28472 109123,109201,109175
 1.3000e+000 109351 -1.3881e+001  7.3848e+000 -7.6099e-001 28472 109123,109279,109253
 1.3000e+000 109328 -2.0311e+000 -1.6661e-001  8.9186e-002 28472 109123,109175,109149
 1.3000e+000 109305 -1.9445e+001  1.9119e+001 -5.9908e+000 28472 109097,109279,109123
 1.3000e+000 109749 -1.6303e+001  1.2131e+001 -1.1392e+001 28018 109772,109602,109576
 1.3000e+000 109726 -1.6408e+001  5.0961e+000 -8.9923e+000 28018 109772,109576,109550
 1.3000e+000 109703 -1.9158e+001 -4.0620e+000 -9.2816e+000 28018 109524,109628,109550
 1.3000e+000 109680 -1.6193e+001 -7.2133e+000 -3.5589e+000 28018 109524,109654,109628
 1.3000e+000 109798 -1.7710e+001  9.7262e+000 -4.3209e+000 28018 109628,109602,109772
 1.3000e+000 109821 -1.6010e+001 -3.8772e-001 -4.4023e+000 28018 109628,109772,109550
 1.3000e+000 110199 -1.1398e+001 -2.9242e+000 -5.0637e+000 27564 110029,110081,110055
 1.3000e+000 110176 -6.7776e+000  4.7433e+000 -3.0342e+000 27564 109925,110081,110029
 1.3000e+000 110153 -4.6294e+000 -3.3468e+000 -1.0451e+000 27564 109925,110029,109977
 1.3000e+000 110130 -3.6666e+000 -2.5813e+000  1.2963e+000 27564 109977,110029,110003
 1.3000e+000 110107 -2.6997e+000 -1.5233e-001  1.9667e-001 27564 109925,109977,109951
 1.3000e+000 110398  1.6859e+001  1.9630e+001 -1.4792e+000 27003 110248,110326,110300
 1.3000e+000 110375  1.3618e+001  1.5556e+001 -3.0873e+000 27003 110222,110326,110248
 1.3000e+000 110352 -3.1936e+000  8.1365e+000 -6.7772e+000 27003 110248,110300,110274
 1.3000e+000 110646  1.9762e+001 -1.7923e+000  1.0455e+001 26563 110669,110473,110421
 1.3000e+000 110623  1.5919e+001 -1.9438e+001  1.7270e+001 26563 110669,110421,110551
 1.3000e+000 110600  2.3445e+001  4.0643e+000  8.2748e+000 26563 110473,110525,110499
 1.3000e+000 110577  1.1050e+001 -1.5216e+001  2.3927e+001 26563 110421,110473,110447
 1.3000e+000 110695  1.7977e+001  3.2882e+000  8.2648e+000 26563 110525,110473,110669
 1.3000e+000 110718  2.1611e+001 -2.6812e+000  1.5265e+001 26563 110525,110669,110551
 1.3000e+000 110870 -1.0121e+001  6.3261e+000 -7.1673e+000 26166 110769,110821,110795
 1.3000e+000 110847 -4.6633e+000  3.8133e+000 -3.7061e+000 26166 110743,110821,110769
 1.3000e+000 111380 -1.2968e+001 -3.2547e+000  2.8179e+000 25712 111403,111109,111083
 1.3000e+000 111357 -1.0754e+001 -1.9646e+000  2.2643e+000 25712 111403,111083,111239
 1.3000e+000 111334 -1.8179e+001 -2.3899e+000  8.0240e+000 25712 111109,111161,111135
 1.3000e+000 111311 -1.2408e+001 -2.8341e+000  1.9216e+000 25712 111057,111239,111083
 1.3000e+000 111288 -8.4835e+000 -4.4029e+000  2.8035e+000 25712 111161,111239,111187
 1.3000e+000 111265 -6.2045e+000 -2.7228e+000  1.9458e+000 25712 111187,111239,111213
 1.3000e+000 111429 -1.0852e+001 -5.1113e+000  3.5637e+000 25712 111161,111109,111403
 1.3000e+000 111452 -8.1808e+000 -3.5869e+000  2.9440e+000 25712 111161,111403,111239
 1.3000e+000 111651 -9.4746e+000 -1.6546e+000  6.8504e-001 25300 111674,111501,111475
 1.3000e+000 111628 -9.4236e+000 -3.4888e+000  8.5645e-001 25300 111674,111475,111579
 1.3000e+000 111605 -1.0134e+001 -1.1782e+000 -8.9298e-001 25300 111501,111553,111527
 1.3000e+000 111700 -9.7207e+000 -1.8095e-001  6.4305e-001 25300 111553,111501,111674
 1.3000e+000 111723 -9.4550e+000 -1.6971e+000  9.5743e-001 25300 111553,111674,111579
 1.3000e+000 111922  4.5700e+000  1.0104e+000  5.0872e-001 24732 111798,111850,111824
 1.3000e+000 111899  2.9820e+000  5.1978e+000 -3.3736e+000 24732 111772,111850,111798
 1.3000e+000 111876  1.1311e+000  5.4442e+000 -3.0300e+000 24732 111746,111850,111772
 1.3000e+000 112255 -4.5086e+000  9.7216e+000 -3.7087e+000 24142 112056,112108,112082
 1.3000e+000 112232 -2.5304e+000  8.2343e+000 -1.3660e+000 24142 112056,112134,112108
 1.3000e+000 112209 -7.0502e+000  1.6238e+000  6.0192e-001 24142 112056,112160,112134
 1.3000e+000 112186 -3.0986e+000  1.3462e+000 -2.1213e-001 24142 112030,112160,112056
 1.3000e+000 112601 -2.3094e+001  4.4166e+000  2.7302e+001 23852 112624,112382,112356
 1.3000e+000 112578 -3.7420e+001  4.8890e+000  1.4166e+001 23852 112696,112624,112356
 1.3000e+000 112555 -3.2384e+001  8.2221e-001  3.9250e+000 23852 112696,112356,112304
 1.3000e+000 112532 -2.9351e+001 -5.1406e+000  3.9688e+000 23852 112304,112356,112330
 1.3000e+000 112509  1.6221e+000  3.0194e+001  1.7945e+001 23852 112278,112460,112304
 1.3000e+000 112486  5.6840e+001  1.5822e+001  9.7929e+000 23852 112382,112434,112408
 1.3000e+000 112650  3.4704e+001  1.7285e+001  3.6319e+001 23852 112434,112382,112624
 1.3000e+000 112673 -1.7239e+001 -6.7768e+000  2.3197e+001 23852 112434,112624,112460
 1.3000e+000 112722 -1.9240e+001  1.4584e+001  2.0454e+001 23852 112460,112624,112696
 1.3000e+000 112745 -1.8216e+001  5.7725e+000  9.3460e+000 23852 112460,112696,112304
 1.3000e+000 113015 -4.0697e+001  3.8237e+001 -1.0839e+001 23490 112842,112894,112868
 1.3000e+000 112992 -3.2593e+001  1.0213e+001 -9.9974e+000 23490 112816,112894,112842
 1.3000e+000 112969 -3.0063e+001  1.1497e+001 -2.5064e+000 23490 112790,112894,112816
 1.3000e+000 112946 -3.5377e+001 -1.6233e+000 -2.0108e+000 23490 112790,112920,112894
 1.3000e+000 113348 -8.0135e+000  3.1720e+000 -6.1319e+000 22970 113175,113253,113227
 1.3000e+000 113325 -4.8894e+000 -2.1078e+000 -4.0854e+000 22970 113149,113253,113175
 1.3000e+000 113302 -9.9109e+000 -7.6017e+000 -1.2241e+001 22970 113175,113227,113201
 1.3000e+000 113279 -3.2469e+000  1.1675e+000 -3.4725e+000 22970 113123,113253,113149
 1.3000e+000 113645 -9.6831e+000 -4.9114e+000 -2.8751e+000 22366 113423,113527,113449
 1.3000e+000 113622 -1.2528e+001 -8.5145e+000 -4.1622e+000 22366 113371,113527,113423
 1.3000e+000 113599 -9.8041e+000 -4.9534e+000 -1.8490e+000 22366 113449,113527,113501
 1.3000e+000 113576 -7.7778e+000 -5.9391e+000  5.5856e-001 22366 113449,113501,113475
 1.3000e+000 113553 -6.1753e+000  4.4737e+000 -6.6101e+000 22366 113371,113423,113397
 1.3000e+000 113893 -6.9330e+000 -8.7102e+000 -8.7416e+000 21912 113916,113746,113720
 1.3000e+000 113870 -4.2436e+000 -4.7623e+000 -7.4826e+000 21912 113916,113720,113668
 1.3000e+000 113847 -9.2826e+000 -5.0978e+000 -6.9014e+000 21912 113988,113798,113772
 1.3000e+000 113824 -3.0117e+000 -8.8393e-002 -1.2612e+001 21912 113668,113720,113694
 1.3000e+000 113942 -4.6467e+000 -2.9736e+000 -8.7700e+000 21912 113772,113746,113916
 1.3000e+000 113965 -6.6122e+000 -3.4914e+000 -7.5764e+000 21912 113988,113772,113916
 1.3000e+000 114014 -5.5521e+000 -5.4938e+000 -7.0160e+000 21912 113668,113798,113988
 1.3000e+000 114037 -5.2490e+000 -5.6049e+000 -6.9709e+000 21912 113668,113988,113916
 1.3000e+000 114287  5.4490e+000 -6.3909e-001 -2.6566e+000 21408 114088,114140,114114
 1.3000e+000 114264  6.7990e+000 -5.0883e-001 -3.8299e+000 21408 114310,114140,114088
 1.3000e+000 114241  6.0312e+000  1.4164e+000 -7.1837e+000 21408 114310,114088,114192
 1.3000e+000 114218  2.8304e+000  2.6386e+000 -6.6537e+000 21408 114062,114192,114088
 1.3000e+000 114336  6.4423e+000 -5.5365e+000 -3.6589e+000 21408 114166,114140,114310
 1.3000e+000 114359  6.2616e+000 -1.7350e+000 -6.3908e+000 21408 114166,114310,114192
 1.3000e+000 114609  2.1272e+001  1.6389e+001  6.8308e+000 21018 114632,114488,114436
 1.3000e+000 114586  1.8806e+001  1.4789e+001  3.8330e+000 21018 114632,114436,114410
 1.3000e+000 114563  2.5294e+001  1.1601e+001  4.2798e+000 21018 114384,114514,114410
 1.3000e+000 114540  4.6960e+000  1.4749e+001  5.8871e+000 21018 114436,114488,114462
 1.3000e+000 114658  2.5739e+001  1.6968e+001  9.2285e+000 21018 114514,114488,114632
 1.3000e+000 114681  2.2299e+001  1.5105e+001  6.3040e+000 21018 114514,114632,114410
 1.3000e+000 114882  1.0665e+001  6.1115e+000  3.9033e+000 20614 114732,114784,114758
 1.3000e+000 114859  4.6812e+000  5.9145e+000  6.2537e-001 20614 114732,114810,114784
 1.3000e+000 114836  2.4979e+000  3.6752e+000 -2.8314e-001 20614 114706,114810,114732
 1.3000e+000 115132 -7.5289e+000  2.0880e+000 -1.9722e+000 20110 114907,115011,114933
 1.3000e+000 115109 -2.7724e+000  5.4858e+000 -4.0544e+000 20110 114907,115037,115011
 1.3000e+000 115086 -6.0922e+000  2.3252e+000 -1.8198e+000 20110 114933,115011,114985
 1.3000e+000 115063 -5.3482e+000  4.6356e+000 -3.8058e+000 20110 114933,114985,114959
 1.3000e+000 115284 -7.3348e+000  2.7007e+000 -1.6889e+000 19456 115378,115307,115157
 1.3000e+000 115261 -9.9747e+000  6.6261e+000 -2.7763e+000 19456 115378,115157,115235
 1.3000e+000 115333 -7.8939e+000  2.8298e+000 -1.1631e+000 19456 115183,115157,115307
 1.3000e+000 115404 -9.0890e+000 -3.8147e+000 -2.3935e+000 19456 115209,115307,115378
 1.3000e+000 115427 -1.1066e+001  1.0779e+000 -3.8540e+000 19456 115209,115378,115235
 1.3000e+000 115677 -1.2922e+001 -6.1772e-001  3.2869e-001 19002 115504,115582,115530
 1.3000e+000 115654 -1.1404e+001 -5.8116e-001  3.2787e-001 19002 115478,115582,115504
 1.3000e+000 115631 -1.2822e+001 -7.7553e-001  3.3910e+000 19002 115452,115582,115478
 1.3000e+000 115608 -8.9365e+000 -9.8764e-001 -3.4763e+000 19002 115530,115582,115556
 1.3000e+000 115998  7.8787e+000  1.9353e+001 -2.8726e+000 18712 115802,115880,115854
 1.3000e+000 115975  1.4359e+001  2.7760e+001  8.0416e-001 18712 115724,115880,115802
 1.3000e+000 115952  1.5065e+001  1.8749e+001 -2.6983e-001 18712 115724,115802,115776
 1.3000e+000 115929  1.7091e+001  2.0873e+001  2.4973e+000 18712 115724,115776,115750
 1.3000e+000 115906  1.1032e+001  2.0563e+001 -3.0660e+000 18712 115802,115854,115828
 1.3000e+000 116270 -3.3898e+001 -2.0816e+001  5.9527e-001 18308 116045,116123,116071
 1.3000e+000 116247 -3.1890e+001 -2.1576e+001  1.1328e+001 18308 116045,116175,116123
 1.3000e+000 116224 -5.5876e+001 -6.1190e+000  7.0078e+000 18308 116123,116175,116149
 1.3000e+000 116201 -1.4708e+001 -1.2322e+001 -1.2021e+000 18308 116071,116123,116097
 1.3000e+000 116422 -1.2284e+001 -2.1757e+000  2.0276e-002 17996 116321,116373,116347
 1.3000e+000 116399 -1.1588e+001 -2.0020e+000  4.7085e-001 17996 116295,116373,116321
 1.3000e+000 116574  1.7708e+001  5.9837e+000  4.5274e+000 17392 116473,116525,116499
 1.3000e+000 116551  3.6987e+001  2.1268e+001  1.1229e+001 17392 116447,116525,116473
 1.3000e+000 116797  2.4346e+000 -9.6297e+000 -1.3632e+000 16938 116621,116699,116673
 1.3000e+000 116774  2.8833e+000 -1.5937e+001  3.4075e-001 16938 116621,116725,116699
 1.3000e+000 116751  3.4240e+000 -7.3215e+000 -7.6722e-001 16938 116621,116673,116647
 1.3000e+000 116998  2.8712e+001  3.6360e+000  5.0843e+000 16434 117021,116874,116848
 1.3000e+000 116975 -1.1959e+001 -4.6247e+000 -4.6720e+000 16434 117021,116848,116822
 1.3000e+000 116952  4.5098e+001  2.3906e+001  1.7363e+001 16434 116874,116926,116900
 1.3000e+000 117047  4.3901e+001 -2.1641e+000  7.7916e+000 16434 116926,116874,117021
 1.3000e+000 117070  3.0595e+001  8.5138e+000 -1.9951e+000 16434 116926,117021,116822
 1.3000e+000 117293 -3.7197e+000 -3.1099e+000 -8.1734e-001 16070 117117,117169,117143
 1.3000e+000 117270 -1.0486e+001 -5.5943e+000 -8.8829e-001 16070 117117,117221,117169
 1.3000e+000 117247 -1.2125e+001 -7.4006e+000 -1.6225e+000 16070 117169,117221,117195
 1.3000e+000 117445 -4.7285e+001 -2.3448e+001 -3.2481e+000 15645 117318,117370,117344
 1.3000e+000 117422 -5.4991e+001 -2.8044e+001  2.7981e-001 15645 117318,117396,117370
 1.3000e+000 117548 -1.0581e+000 -4.9061e-001  3.5010e+000 417 117470,117522,117496
 1.4000e+000 70760  6.0634e+000 -1.0415e+001  2.6900e+000 70380 70633,70685,70659
 1.4000e+000 70737 -4.5935e+000 -1.2896e+001 -8.1195e-001 70380 70633,70711,70685
 1.4000e+000 70861  5.9392e-002 -4.1636e+000  4.7577e-001 70068 70783,70835,70809
 1.4000e+000 71180 -1.3392e-001  2.5953e+000  1.2497e-001 69870 70932,70984,70958
 1.4000e+000 71157 -7.2211e-001  2.3237e+000 -3.8964e-002 69870 70932,71010,70984
 1.4000e+000 71134 -1.6596e+000  1.8023e+000 -4.3919e-001 69870 70932,71036,71010
 1.4000e+000 71111 -1.5744e+000  7.5537e-001  2.5528e+000 69870 70932,71062,71036
 1.4000e+000 71088 -7.2869e-002  2.2618e+000 -2.0111e-002 69870 70906,71062,70932
 1.4000e+000 71428  1.2978e+000  1.3317e+001  5.2909e+000 69694 71451,71281,71255
 1.4000e+000 71405  3.7003e+000  1.0135e+001  5.5350e+000 69694 71523,71451,71255
 1.4000e+000 71382  5.4230e+000  1.3028e+001  7.1617e+000 69694 71523,71255,71229
 1.4000e+000 71359  5.6505e-001  7.3009e+000  3.6671e+000 69694 71595,71333,71307
 1.4000e+000 71477  1.6886e-001  1.0566e+001  5.4669e+000 69694 71307,71281,71451
 1.4000e+000 71500  7.5279e-001  9.0052e+000  2.4847e+000 69694 71595,71307,71451
 1.4000e+000 71549  1.3488e+000  1.0926e+001  2.8864e+000 69694 71203,71451,71523
 1.4000e+000 71572  1.4609e+000  1.1184e+001  4.2042e+000 69694 71203,71523,71229
 1.4000e+000 71621  1.3923e+000  5.0711e+000  3.1496e+000 69694 71203,71333,71595
 1.4000e+000 71644  6.6846e-001  6.1734e+000  2.6829e+000 69694 71203,71595,71451
 1.4000e+000 71745 -4.3392e-001  2.8894e-001 -1.6171e-001 69382 71667,71719,71693
 1.4000e+000 72100 -2.2725e+000  7.4218e-001  4.3079e-001 69184 71875,71979,71901
 1.4000e+000 72077  3.8851e-002 -9.8123e-001  1.7342e+000 69184 71875,72005,71979
 1.4000e+000 72054 -6.7903e-001  1.4666e-001 -1.0128e+000 69184 71901,71979,71953
 1.4000e+000 72031  5.7740e-001  7.5090e-002 -3.5417e-001 69184 71901,71953,71927
 1.4000e+000 72250  3.5917e-001 -7.7922e-001  2.4899e-002 68986 72149,72201,72175
 1.4000e+000 72227 -3.7145e-001 -2.4124e+000  7.3150e-001 68986 72123,72201,72149
 1.4000e+000 72547 -8.3543e-001 -6.5652e-001  2.7255e+000 68582 72570,72403,72377
 1.4000e+000 72524 -3.7421e-001 -5.8480e-001  2.3920e+000 68582 72570,72377,72351
 1.4000e+000 72501 -4.7608e-001  1.9245e+000  9.7237e-001 68582 72642,72299,72429
 1.4000e+000 72478  9.6362e-001  1.0079e+000  4.4617e-001 68582 72273,72429,72299
 1.4000e+000 72455  7.2589e-001  9.5433e+000  5.4447e+000 68582 72299,72351,72325
 1.4000e+000 72596 -3.2303e-001 -8.9073e-001  1.8342e+000 68582 72429,72403,72570
 1.4000e+000 72619  4.3856e-001  8.5620e-001  1.3632e+000 68582 72642,72429,72570
 1.4000e+000 72668 -1.2729e+000  9.3143e-001  2.0556e+000 68582 72351,72299,72642
 1.4000e+000 72691 -5.6071e-001 -6.4474e-001  2.3769e+000 68582 72351,72642,72570
 1.4000e+000 73095 -9.0564e+000 -2.6552e+000 -2.0075e-001 68384 72873,72925,72899
 1.4000e+000 73072 -1.0219e+001  1.3135e+001  6.3236e+000 68384 72847,72925,72873
 1.4000e+000 73049 -5.0067e+000 -2.3912e+000  1.6960e+001 68384 72847,72951,72925
 1.4000e+000 73026  1.0296e+001 -3.7677e+000  8.6024e+000 68384 72821,72951,72847
 1.4000e+000 73003 -7.5866e-001 -1.0362e+000 -2.9388e+000 68384 72821,72977,72951
 1.4000e+000 73552 -1.5435e+000  1.0510e+001  3.3565e+000 68044 73304,73434,73408
 1.4000e+000 73529 -2.0463e+000  6.0698e+000 -1.8324e+000 68044 73278,73434,73304
 1.4000e+000 73506  1.1441e+001  1.0468e+000  4.7328e+000 68044 73356,73408,73382
 1.4000e+000 73483  1.3994e+001 -1.0788e+000  5.1980e-001 68044 73304,73408,73356
 1.4000e+000 73460  5.7762e+000  2.0489e+000 -3.4121e+000 68044 73304,73356,73330
 1.4000e+000 73871 -2.0443e+000  9.4037e+000 -3.4557e+000 67846 73675,73727,73701
 1.4000e+000 73848  6.7817e-001  7.8346e+000 -3.4839e+000 67846 73649,73727,73675
 1.4000e+000 73825 -2.2266e+000 -2.0318e-001 -5.4307e+000 67846 73623,73727,73649
 1.4000e+000 73802  3.9175e+000  3.0186e+000 -3.1002e+000 67846 73623,73753,73727
 1.4000e+000 73779  9.2862e-001  9.2923e-003 -1.2176e-002 67846 73597,73753,73623
 1.4000e+000 74021  1.0469e+000 -4.0710e+000  5.4743e-001 67598 73920,73972,73946
 1.4000e+000 73998  1.2856e+000 -2.8675e+000  1.1852e-001 67598 73894,73972,73920
 1.4000e+000 74271  3.1576e-001 -2.6334e+000  9.8943e-001 67286 74072,74176,74150
 1.4000e+000 74248 -4.8679e-001 -1.2577e+000  1.1288e+000 67286 74046,74176,74072
 1.4000e+000 74225  2.7092e-001 -2.0528e+000  8.0167e-001 67286 74072,74150,74098
 1.4000e+000 74202 -1.1126e-001 -2.6702e+000  2.6699e-001 67286 74098,74150,74124
 1.4000e+000 74374 -1.2846e+000  1.2070e+000  2.4782e+000 67088 74296,74348,74322
 1.4000e+000 74646 -3.1698e+000  7.5334e+000 -3.1428e+000 66890 74421,74525,74447
 1.4000e+000 74623  2.5502e-001  9.5182e+000 -9.5033e-001 66890 74421,74551,74525
 1.4000e+000 74600  7.1304e-002  1.1931e+001 -1.2856e+000 66890 74447,74525,74473
 1.4000e+000 74577 -5.0664e+000  9.9007e+000  9.8369e-001 66890 74473,74525,74499
 1.4000e+000 75254 -1.5401e+000 -9.8160e-001 -3.2622e+000 66528 74885,75067,75041
 1.4000e+000 75231  2.9414e+000  2.1465e+000 -1.8949e+000 66528 74859,75067,74885
 1.4000e+000 75208 -6.0056e-001  7.3732e+000 -1.3568e+000 66528 74937,75015,74963
 1.4000e+000 75185 -2.8722e+000  1.0771e+000 -1.8304e+000 66528 74911,75015,74937
 1.4000e+000 75162 -2.1307e+000  1.3486e+000 -1.7163e+000 66528 74911,75041,75015
 1.4000e+000 75139 -1.1557e+000  2.9726e+000 -1.3025e+000 66528 74885,75041,74911
 1.4000e+000 75116 -5.2729e-001 -3.8501e+000 -4.9077e+000 66528 74833,75067,74859
 1.4000e+000 75093 -4.9663e+000  8.4399e-001  5.3430e-001 66528 74963,75015,74989
 1.4000e+000 75453 -1.8925e+000  1.4311e+001 -1.6928e+000 66238 75303,75381,75355
 1.4000e+000 75430  1.4609e+000  6.7020e+000 -2.2233e+000 66238 75277,75381,75303
 1.4000e+000 75407 -1.8781e+000 -2.3798e+000  1.1005e+000 66238 75303,75355,75329
 1.4000e+000 75701  7.0299e-001  8.7071e+000  9.2053e-001 65834 75528,75606,75580
 1.4000e+000 75678 -1.3453e+000  1.1534e+001 -6.2214e-003 65834 75502,75606,75528
 1.4000e+000 75655  3.8318e-001  1.0684e+001  3.0376e+000 65834 75528,75580,75554
 1.4000e+000 75632  2.5805e+000  1.3851e+001  1.8029e+000 65834 75476,75606,75502
 1.4000e+000 75902  6.1120e-001  5.7704e+000 -4.1627e-001 65636 75726,75804,75752
 1.4000e+000 75879  3.6895e+000  7.7557e+000 -1.7933e+000 65636 75726,75830,75804
 1.4000e+000 75856  8.5566e+000  6.2479e+000 -1.4685e+000 65636 75752,75804,75778
 1.4000e+000 76103  1.3206e+001  9.3915e+000 -3.1086e+000 65296 76126,75979,75953
 1.4000e+000 76080  1.2267e+001  1.6721e+001  1.1062e+000 65296 76126,75953,75927
 1.4000e+000 76057  2.2553e+001  3.4245e+001 -7.7938e+000 65296 76198,76005,75979
 1.4000e+000 76152  1.9032e+001  2.3010e+001 -4.3583e+000 65296 76198,75979,76126
 1.4000e+000 76175  1.2308e+001  1.3607e+001 -2.8155e-001 65296 76031,76126,75927
 1.4000e+000 76224  1.7225e+001  1.7896e+001 -2.4001e+000 65296 76031,76005,76198
 1.4000e+000 76247  1.7007e+001  1.3863e+001  1.4319e+000 65296 76031,76198,76126
 1.4000e+000 76602  1.4034e+000  8.0872e-001  1.6802e-001 64892 76377,76481,76403
 1.4000e+000 76579  1.3800e+000  3.9230e-001 -8.1645e-002 64892 76377,76507,76481
 1.4000e+000 76556  2.5331e+000  4.2653e+000 -3.8170e-001 64892 76403,76481,76429
 1.4000e+000 76533 -2.6703e+000  2.9528e+000 -3.1989e-001 64892 76429,76481,76455
 1.4000e+000 76801 -1.3076e+001  2.6328e+000  5.1857e+000 64438 76677,76729,76703
 1.4000e+000 76778 -4.6353e+000  2.3069e+001  4.7413e+000 64438 76651,76729,76677
 1.4000e+000 76755 -2.1111e+001  7.5864e+000 -5.4371e+000 64438 76625,76729,76651
 1.4000e+000 77230  6.8508e+000  4.4027e+000 -1.6802e+000 63920 77253,76959,76933
 1.4000e+000 77207  3.6547e+000  2.5930e+000 -9.3385e-001 63920 77253,76933,77063
 1.4000e+000 77184  1.3329e+000  4.7540e+000 -3.0057e+000 63920 76959,77037,76985
 1.4000e+000 77161  2.5708e+000  2.5015e+000 -4.8381e-001 63920 76907,77063,76933
 1.4000e+000 77138 -1.3463e+000  7.5316e+000 -2.8964e+000 63920 76985,77037,77011
 1.4000e+000 77115  2.8809e-001  9.9512e-001  3.8653e-001 63920 76907,77089,77063
 1.4000e+000 77279  2.7932e+000  6.1511e+000 -1.8662e+000 63920 77037,76959,77253
 1.4000e+000 77302 -1.4157e-001  4.5759e+000 -1.2412e+000 63920 77037,77253,77063
 1.4000e+000 77680 -6.4192e+000  4.8256e+000  1.3554e+001 63316 77703,77484,77432
 1.4000e+000 77657 -8.5676e+000  1.6759e+000  1.1073e+001 63316 77703,77432,77406
 1.4000e+000 77634 -1.7783e+001 -4.4842e+000  1.0469e+001 63316 77406,77536,77510
 1.4000e+000 77611  4.5022e+000  3.1792e+000  1.8263e+001 63316 77432,77484,77458
 1.4000e+000 77588 -4.1428e+000  3.5341e+000  2.9859e+000 63316 77406,77562,77536
 1.4000e+000 77729 -4.5904e+000 -3.0748e-001  1.1454e+001 63316 77510,77484,77703
 1.4000e+000 77752 -7.3504e+000 -1.7356e+000  8.5183e+000 63316 77510,77703,77406
 1.4000e+000 78000 -1.2957e+001  6.1695e-001  7.3894e-002 62812 77801,77853,77827
 1.4000e+000 77977 -8.1551e+000  3.1516e+000 -2.2186e+000 62812 77801,77879,77853
 1.4000e+000 77954 -1.3835e+001  8.9847e-001 -2.5994e+000 62812 77801,77905,77879
 1.4000e+000 77931 -5.3802e+000  1.1292e+000 -3.2778e+000 62812 77775,77905,77801
 1.4000e+000 78380 -1.2052e+001 -5.4102e+000  7.9830e-001 62350 78184,78262,78236
 1.4000e+000 78357 -8.3320e+000 -5.4681e+000  1.9170e+000 62350 78132,78262,78184
 1.4000e+000 78334 -7.5901e+000 -5.1778e+000  1.5386e+000 62350 78106,78262,78132
 1.4000e+000 78311 -8.6819e+000 -4.4483e+000  2.4458e+000 62350 78132,78184,78158
 1.4000e+000 78288 -1.0415e+001 -3.5919e+000 -1.8402e-001 62350 78184,78236,78210
 1.4000e+000 78837  5.5914e+000  8.8325e+000  2.1098e+000 61946 78615,78667,78641
 1.4000e+000 78814  2.7493e+000  5.0027e+000 -1.9929e+000 61946 78589,78667,78615
 1.4000e+000 78791  3.8878e+000  6.1259e-001  2.5899e-001 61946 78589,78719,78667
 1.4000e+000 78768  7.9714e+000  4.5612e+000 -2.4013e+000 61946 78667,78719,78693
 1.4000e+000 78745  5.3245e+000  3.2399e+000  1.5549e+000 61946 78563,78719,78589
 1.4000e+000 78987  5.4091e+000 -2.7482e+000 -2.9548e-001 61335 79010,78886,78860
 1.4000e+000 78964  1.1197e+000  1.1122e+000  1.1454e+000 61335 79010,78860,78938
 1.4000e+000 79036  8.5598e-001 -4.9012e+000  1.6778e+000 61335 79082,79010,78912
 1.4000e+000 79059 -3.4486e+000 -3.1587e+000 -6.5581e-001 61335 78912,79010,78938
 1.4000e+000 79108  1.2580e+000 -3.3491e+000 -7.7273e-001 61335 78886,79010,79082
 1.4000e+000 79437 -9.2515e+000 -2.0372e+000 -2.7580e+000 60888 79460,79238,79212
 1.4000e+000 79414 -9.7639e+000 -2.4869e+000 -1.8724e+000 60888 79460,79212,79342
 1.4000e+000 79391 -9.8732e+000 -2.5786e+000 -2.0219e+000 60888 79532,79264,79238
 1.4000e+000 79368 -7.4876e+000  4.2625e+000  2.1207e+000 60888 79264,79316,79290
 1.4000e+000 79486 -1.0004e+001 -2.2874e+000 -2.2454e+000 60888 79532,79238,79460
 1.4000e+000 79509 -1.0673e+001 -2.5342e+000 -1.6981e+000 60888 79316,79460,79342
 1.4000e+000 79558 -1.0332e+001 -3.4264e+000 -1.6562e+000 60888 79316,79264,79532
 1.4000e+000 79581 -9.9156e+000 -2.8176e+000 -2.0438e+000 60888 79316,79532,79460
 1.4000e+000 79878 -2.1673e+001 -9.0997e+000 -1.5546e+000 60484 79682,79760,79734
 1.4000e+000 79855 -2.8867e+001 -2.0828e+001  4.8976e+000 60484 79656,79760,79682
 1.4000e+000 79832 -2.5447e+001 -1.9128e+001  5.6589e+000 60484 79604,79760,79656
 1.4000e+000 79809 -2.4338e+001 -2.8983e+001  8.7306e+000 60484 79604,79656,79630
 1.4000e+000 79786 -1.2875e+001 -5.0927e+000  9.4389e-001 60484 79682,79734,79708
 1.4000e+000 80101 -2.2580e+000 -2.1409e+000 -4.3998e-001 60022 79951,80029,80003
 1.4000e+000 80078 -5.0950e+000 -2.6297e+000 -5.7279e-001 60022 79925,80029,79951
 1.4000e+000 80055 -4.2954e+000 -2.8611e+000 -9.4811e-002 60022 79951,80003,79977
 1.4000e+000 80351 -5.3600e-001  1.2338e+000  3.3186e+000 59625 80152,80256,80204
 1.4000e+000 80328 -1.2235e+000  5.4875e+000  5.8608e+000 59625 80126,80256,80152
 1.4000e+000 80305  1.7577e+000  7.1846e+000  4.1555e+000 59625 80204,80256,80230
 1.4000e+000 80282  2.4367e+000  1.7237e+000  2.8101e+000 59625 80152,80204,80178
 1.4000e+000 80552  1.1156e+001  3.7467e+000 -2.9676e+000 59121 80575,80402,80376
 1.4000e+000 80529  1.2217e+001 -3.2457e+000 -4.3032e+000 59121 80575,80376,80480
 1.4000e+000 80506  2.3478e+001  5.4012e+000  8.0354e+000 59121 80428,80480,80454
 1.4000e+000 80601  1.1458e+001  8.2916e+000  1.0680e+000 59121 80428,80402,80575
 1.4000e+000 80624  1.2592e+001  1.6935e+000 -4.1800e-001 59121 80428,80575,80480
 1.4000e+000 81183  7.7531e+000  5.3352e+000  3.2992e+000 58553 81206,80863,80837
 1.4000e+000 81160  6.5498e+000  9.1803e+000  2.5878e+000 58553 81350,81206,80837
 1.4000e+000 81137  6.2249e+000  2.5928e+000  3.1737e+000 58553 81278,80915,80863
 1.4000e+000 81114  3.8284e+000  7.7849e+000  4.8023e-001 58553 81350,80837,80811
 1.4000e+000 81091  9.4966e+000 -1.0075e+000  2.7712e+000 58553 81422,80967,80941
 1.4000e+000 81068  9.7603e+000  4.7196e-002  1.6257e+000 58553 80967,81019,80993
 1.4000e+000 81045  5.6825e+000  2.3072e+000  3.4261e+000 58553 80863,80915,80889
 1.4000e+000 81232  5.9068e+000  4.2269e+000  2.1736e+000 58553 81278,80863,81206
 1.4000e+000 81255  9.0040e+000  2.9957e+000  1.7669e+000 58553 81422,80941,81206
 1.4000e+000 81304  6.0291e+000 -1.3837e+000  4.3573e+000 58553 80941,80915,81278
 1.4000e+000 81327  7.1700e+000  1.3268e+000  2.8854e+000 58553 80941,81278,81206
 1.4000e+000 81376  4.6543e+000  5.8628e+000  9.0286e-001 58553 81019,81206,81350
 1.4000e+000 81399  4.3550e+000  5.8909e+000 -8.5948e-001 58553 81019,81350,80811
 1.4000e+000 81448  1.0928e+001  2.6027e+000  1.3537e+000 58553 81019,80967,81422
 1.4000e+000 81471  9.7356e+000  5.0476e+000  1.4053e-001 58553 81019,81422,81206
 1.4000e+000 81768 -3.0525e+000 -3.0084e+000 -1.2866e-001 57877 81791,81572,81520
 1.4000e+000 81745 -1.2937e+000 -2.2418e+000 -5.3433e-001 57877 81791,81520,81494
 1.4000e+000 81722 -3.3598e+000 -2.5455e+000  6.9068e-001 57877 81863,81650,81598
 1.4000e+000 81699 -2.9388e+000 -1.6369e+000  4.1378e-001 57877 81598,81650,81624
 1.4000e+000 81676 -3.6065e+000 -4.5319e+000  2.3088e-001 57877 81520,81572,81546
 1.4000e+000 81817 -2.4558e+000 -2.2444e+000  3.3089e-001 57877 81598,81572,81791
 1.4000e+000 81840 -3.0889e+000 -2.5855e+000  4.8750e-001 57877 81863,81598,81791
 1.4000e+000 81889 -2.5598e+000 -3.9435e+000  1.0399e+000 57877 81494,81650,81863
 1.4000e+000 81912 -1.6534e+000 -3.2185e+000  5.5172e-001 57877 81494,81863,81791
 1.4000e+000 82160  2.5801e+000  5.2137e+000  2.6593e+000 57473 81935,82039,82013
 1.4000e+000 82137  9.0841e+000  6.9165e+000  1.8522e+000 57473 81935,82065,82039
 1.4000e+000 82114  3.0650e+000  5.5943e+000  2.2472e+000 57473 81935,82013,81961
 1.4000e+000 82091  3.1925e+000  4.6146e+000  2.5714e+000 57473 81961,82013,81987
 1.4000e+000 82719 -1.5147e+000  6.5966e-001  3.6615e+000 56962 82814,82742,82425
 1.4000e+000 82696 -1.5628e+000 -7.3263e-001  5.5103e+000 56962 82742,82347,82555
 1.4000e+000 82673  2.7920e-002  7.6289e-001  3.4367e+000 56962 82814,82425,82399
 1.4000e+000 82650 -6.1044e+000  3.4518e+000  4.2823e-002 56962 82425,82477,82451
 1.4000e+000 82627 -2.7196e+000  5.8422e+000  2.4553e+000 56962 82425,82529,82477
 1.4000e+000 82604 -4.2352e+000  1.0972e+001  5.6203e+000 56962 82477,82529,82503
 1.4000e+000 82581  7.1329e-001 -2.6616e+000  3.9246e+000 56962 82347,82399,82373
 1.4000e+000 82768 -2.0929e+000  5.9086e-001  4.3459e+000 56962 82529,82425,82742
 1.4000e+000 82791 -7.7849e-003  3.1045e+000  5.6213e+000 56962 82529,82742,82555
 1.4000e+000 82840  2.1832e-001  3.3893e-001  4.3892e+000 56962 82347,82742,82814
 1.4000e+000 82863  1.1994e+000  5.9386e-002  4.3219e+000 56962 82347,82814,82399
 1.4000e+000 83467 -9.2013e+000  4.5804e+000 -9.8635e+000 56300 83124,83176,83150
 1.4000e+000 83444 -1.5151e+000  3.3678e+000 -3.0277e+000 56300 83490,83176,83124
 1.4000e+000 83421  1.2924e+000  5.0389e+000 -2.3189e+000 56300 83490,83124,83280
 1.4000e+000 83398  4.5694e+000  1.1383e+001 -2.4163e+000 56300 83202,83280,83254
 1.4000e+000 83375  2.6573e+000  9.2195e+000 -2.7908e+000 56300 83046,83280,83124
 1.4000e+000 83352  1.7883e+000  8.2819e+000 -2.3384e+000 56300 83046,83124,83098
 1.4000e+000 83329  2.3953e+000  2.6384e+000 -1.9567e+000 56300 83202,83254,83228
 1.4000e+000 83306  5.3799e+000  1.4476e+001 -8.4081e-001 56300 83046,83098,83072
 1.4000e+000 83516 -3.9067e+000  5.6233e+000 -8.6513e-001 56300 83202,83176,83490
 1.4000e+000 83539 -1.1142e+000  6.9487e+000 -4.5384e-001 56300 83202,83490,83280
 1.4000e+000 83787 -5.8869e+000 -1.5119e+000  5.2341e-001 55960 83588,83692,83666
 1.4000e+000 83764 -8.0248e+000  6.5376e+000  4.1685e+000 55960 83562,83692,83588
 1.4000e+000 83741 -6.2892e-001 -1.1160e+000  1.6736e+000 55960 83588,83666,83614
 1.4000e+000 83718 -6.3598e+000  2.1402e-002  2.2635e+000 55960 83614,83666,83640
 1.4000e+000 83937  2.6886e-001 -1.5069e+000 -2.7420e+000 55499 83810,83862,83836
 1.4000e+000 83914 -6.3993e+000  3.1944e-001 -2.1585e+000 55499 83810,83888,83862
 1.4000e+000 84138 -3.8274e+000 -9.9408e+000  7.0494e-001 55152 83988,84066,84040
 1.4000e+000 84115  3.4881e+000  7.0266e+000  1.1823e-001 55152 83962,84066,83988
 1.4000e+000 84092  4.3252e+000  7.2300e+000  6.2962e+000 55152 83988,84040,84014
 1.4000e+000 84471 -1.0384e+001  1.1241e+001  1.2553e+001 54648 84324,84376,84350
 1.4000e+000 84448 -1.1906e+001 -5.6718e+000  1.2700e+001 54648 84272,84376,84324
 1.4000e+000 84425 -1.6501e+001 -2.0857e+001  1.3598e+001 54648 84246,84376,84272
 1.4000e+000 84402 -1.6948e+001 -7.7476e+000  1.2929e+001 54648 84272,84324,84298
 1.4000e+000 84849 -3.4384e+000 -4.7929e+000  9.4280e-001 53922 84627,84731,84705
 1.4000e+000 84826 -1.3636e+000 -2.1229e+000  1.8608e+000 53922 84575,84731,84627
 1.4000e+000 84803 -7.3709e-001 -1.6351e+000  6.8154e-001 53922 84575,84627,84601
 1.4000e+000 84780 -1.3341e+000 -4.4942e+000  2.3837e+000 53922 84627,84705,84653
 1.4000e+000 84757 -2.9794e+000 -4.1826e+000  2.0197e+000 53922 84653,84705,84679
 1.4000e+000 85581 -1.4517e+001 -1.1022e+000  1.3785e+000 53582 85604,85111,85319
 1.4000e+000 85558 -3.1469e+000 -3.0827e+000  2.3402e+000 53582 85111,85345,85319
 1.4000e+000 85535 -9.4502e+000  1.8522e+000  3.8856e+000 53582 85604,85319,85293
 1.4000e+000 85512 -5.7592e+000  3.7786e+000  1.5266e+001 53582 85241,85293,85267
 1.4000e+000 85489 -1.3514e+001  2.8897e+000  7.4095e+000 53582 85676,85241,85189
 1.4000e+000 85466 -6.6900e+000  4.0314e+000  3.2191e+000 53582 85676,85189,85137
 1.4000e+000 85443 -1.7400e+001  9.9450e+000  8.3716e+000 53582 85189,85241,85215
 1.4000e+000 85420 -5.8481e+000  1.6207e+001  2.5136e+000 53582 85137,85189,85163
 1.4000e+000 85397 -5.1816e+000  1.0567e+000 -2.0458e-001 53582 85111,85371,85345
 1.4000e+000 85630 -1.4168e+001  4.2240e+000  6.1438e+000 53582 85137,85111,85604
 1.4000e+000 85653 -1.1378e+001  3.1682e+000  7.2277e+000 53582 85748,85604,85293
 1.4000e+000 85702 -1.5284e+001 -1.5059e+000  1.1491e+001 53582 85293,85241,85676
 1.4000e+000 85725 -1.0520e+001  3.0881e+000  6.9953e+000 53582 85748,85293,85676
 1.4000e+000 85774 -1.0022e+001  3.0772e+000  7.6035e+000 53582 85137,85604,85748
 1.4000e+000 85797 -9.4899e+000  2.7339e+000  7.4198e+000 53582 85137,85748,85676
 1.4000e+000 86303  8.4393e+000  7.1345e+000  1.8543e+000 53178 86326,86084,86006
 1.4000e+000 86280  8.0123e+000  6.4324e+000  2.0410e+000 53178 86326,86006,86162
 1.4000e+000 86257  1.2045e+001  1.0679e+001 -2.6146e+000 53178 86398,86110,86084
 1.4000e+000 86234  8.7401e+000  5.1874e+000  7.5191e-001 53178 86006,86058,86032
 1.4000e+000 86211  7.5905e+000  5.5902e+000  1.3914e+000 53178 86006,86084,86058
 1.4000e+000 86188  4.8851e+000  3.7715e+000  5.9559e+000 53178 85980,86162,86006
 1.4000e+000 86352  7.4112e+000  6.6715e+000  1.6598e+000 53178 86398,86084,86326
 1.4000e+000 86375  1.7925e+000  8.7771e+000  1.0653e+000 53178 86136,86326,86162
 1.4000e+000 86424  1.1889e+001  1.3425e+001 -5.7111e+000 53178 86136,86110,86398
 1.4000e+000 86447  1.0003e+001  1.5061e+001 -1.6917e+000 53178 86136,86398,86326
 1.4000e+000 86904  1.3077e+000  1.7837e+001 -2.2058e-002 52774 86708,86760,86734
 1.4000e+000 86881  9.9204e-001  1.0475e+001 -2.8322e+000 52774 86656,86760,86708
 1.4000e+000 86858  7.4513e+000  1.0775e+001 -1.4548e+000 52774 86656,86708,86682
 1.4000e+000 86835  5.9684e+000  1.1282e+001 -1.5326e+000 52774 86630,86760,86656
 1.4000e+000 86812  5.6426e+000  1.0399e+001  3.1636e-004 52774 86630,86786,86760
 1.4000e+000 87489  2.1900e+000  1.9358e+001  5.6018e+000 52234 87512,87218,87192
 1.4000e+000 87466 -1.0245e+000  1.4686e+001  1.7817e+000 52234 87512,87192,87348
 1.4000e+000 87443 -1.9042e+000  1.2938e+001  1.4172e+000 52234 87166,87348,87192
 1.4000e+000 87420 -5.4762e+000  1.0720e+001  2.9963e-001 52234 87296,87348,87322
 1.4000e+000 87397 -7.3074e-001  9.8993e+000  2.1211e+000 52234 87218,87296,87270
 1.4000e+000 87374  3.4049e+000  1.0464e+001  2.7042e+000 52234 87218,87270,87244
 1.4000e+000 87538 -5.0077e-001  1.2364e+001  2.8375e+000 52234 87296,87218,87512
 1.4000e+000 87561 -1.6666e+000  1.2069e+001 -8.6996e-001 52234 87296,87512,87348
 1.4000e+000 87841  2.1599e+000  1.8347e+001  2.8850e-001 51830 87665,87743,87691
 1.4000e+000 87818  4.9421e+000  1.9829e+001  1.0610e+000 51830 87665,87769,87743
 1.4000e+000 87795 -7.9984e+000  1.1387e+001 -3.9789e+000 51830 87864,87691,87743
 1.4000e+000 87890 -1.9085e+001  6.6345e+000 -4.4691e+000 51830 87717,87691,87864
 1.4000e+000 88418 -6.7988e+000 -3.3592e+000  4.9468e+000 51262 88095,88173,88121
 1.4000e+000 88395 -7.5374e+000  6.7077e-001  4.3359e+000 51262 88095,88251,88173
 1.4000e+000 88372 -1.2592e+001 -2.9902e+000  1.0748e+000 51262 88173,88251,88199
 1.4000e+000 88349 -1.1315e+001  1.1133e+001  1.0655e+001 51262 88095,88277,88251
 1.4000e+000 88326 -3.0988e+000  7.3795e+000  5.0770e+000 51262 88199,88251,88225
 1.4000e+000 88303 -4.6378e+000  2.0550e+000  4.4511e+000 51262 88121,88173,88147
 1.4000e+000 88875 -2.9798e+000  8.1378e+000 -6.2194e+000 50750 88601,88731,88627
 1.4000e+000 88852 -6.2928e+000  1.6721e+001 -7.6952e+000 50750 88601,88757,88731
 1.4000e+000 88829  1.5771e+000  1.5113e+001  8.1163e-001 50750 88627,88731,88653
 1.4000e+000 88806  5.0792e-001  1.2033e+001  8.9318e-001 50750 88653,88731,88705
 1.4000e+000 88783 -1.7388e+001  1.4636e+000 -5.7852e+000 50750 88653,88705,88679
 1.4000e+000 89145 -4.2023e+000 -5.2715e+000  5.4164e-001 50438 88946,89024,88972
 1.4000e+000 89122 -3.0614e+000 -4.7409e+000  1.9630e-001 50438 88946,89050,89024
 1.4000e+000 89099 -3.6773e+000 -4.9786e+000  9.1425e-002 50438 88920,89050,88946
 1.4000e+000 89076 -5.3459e+000 -5.6772e+000  6.7561e-001 50438 88972,89024,88998
 1.4000e+000 89525 -3.7432e+000 -4.9438e+000  7.2716e-001 49934 89548,89277,89251
 1.4000e+000 89502 -3.8325e+000 -5.1960e+000  7.5891e-001 49934 89548,89251,89381
 1.4000e+000 89479 -3.4922e+000 -6.0780e+000  1.1139e+000 49934 89303,89381,89329
 1.4000e+000 89456 -3.5886e+000 -4.2549e+000 -2.5811e-001 49934 89251,89407,89381
 1.4000e+000 89433 -2.9813e+000 -4.8380e+000  9.8680e-001 49934 89329,89381,89355
 1.4000e+000 89574 -3.3401e+000 -2.3094e+000  8.0451e-001 49934 89303,89277,89548
 1.4000e+000 89597 -4.3492e+000 -4.8758e+000  1.0358e+000 49934 89303,89548,89381
 1.4000e+000 90054 -7.6433e+000 -3.2851e+000  1.6676e+000 49380 89832,89936,89910
 1.4000e+000 90031 -6.4942e+000 -2.5899e+000  2.7683e+000 49380 89780,89936,89832
 1.4000e+000 90008 -3.1586e+000 -2.3121e+000  1.6999e+000 49380 89780,89832,89806
 1.4000e+000 89985 -5.7685e+000 -2.0925e+000  2.1946e+000 49380 89832,89910,89858
 1.4000e+000 89962 -3.6080e+000  5.7495e+000  4.9692e+000 49380 89858,89910,89884
 1.4000e+000 90560 -4.1590e+000 -3.2608e+000  3.0237e+000 48890 90289,90341,90315
 1.4000e+000 90537 -6.0410e+000 -4.0988e+000  1.8369e+000 48890 90289,90393,90341
 1.4000e+000 90514 -5.8238e+000 -3.1551e+000  1.9993e+000 48890 90263,90393,90289
 1.4000e+000 90491 -3.0676e+000 -1.9417e+000  1.7969e+000 48890 90237,90393,90263
 1.4000e+000 90468 -5.1190e+000  1.1713e-001  1.7412e+000 48890 90341,90393,90367
 1.4000e+000 90445 -3.4925e+000 -2.1291e+000  1.8378e+000 48890 90237,90419,90393
 1.4000e+000 91115 -4.7388e+000 -2.9479e+000 -3.0975e-001 48486 90795,90873,90847
 1.4000e+000 91092 -5.5483e+000 -3.2406e+000 -2.1315e-001 48486 90795,90925,90873
 1.4000e+000 91069 -5.2048e+000 -3.1414e+000 -2.5006e-001 48486 90769,90925,90795
 1.4000e+000 91046 -8.4371e+000 -4.7720e+000  3.9731e-001 48486 90769,90951,90925
 1.4000e+000 91023 -5.3566e+000 -3.4447e+000  6.2363e-001 48486 90795,90847,90821
 1.4000e+000 91000 -5.7860e+000 -5.1707e+000 -1.8778e+000 48486 90873,90925,90899
 1.4000e+000 90977 -2.9762e+000 -1.6007e+000  2.1510e+000 48486 90743,90951,90769
 1.4000e+000 91265 -2.2892e+000  5.4568e-001  8.4265e-001 48082 91288,91190,91164
 1.4000e+000 91242 -3.2729e+000 -1.9593e+000  7.9004e-001 48082 91360,91288,91164
 1.4000e+000 91314 -2.7580e+000 -5.2523e-001  1.5179e+000 48082 91216,91190,91288
 1.4000e+000 91337 -1.8804e+000 -1.1528e+000  1.9469e+000 48082 91216,91288,91138
 1.4000e+000 91386 -4.0066e-001 -2.7125e-001  1.5416e+000 48082 91138,91288,91360
 1.4000e+000 92022  3.5118e+000 -3.3712e+000 -1.6418e+001 47514 92261,92045,91754
 1.4000e+000 91999 -1.8558e+000  1.3721e+000  1.2963e+000 47514 92189,92045,91702
 1.4000e+000 91976 -6.2558e+000  1.3028e+001 -3.8887e+000 47514 92117,91806,91754
 1.4000e+000 91953  8.4252e-001  8.9384e+000  2.3553e-001 47514 92189,91702,91650
 1.4000e+000 91930  2.0784e+001 -3.3416e+000 -1.5370e+001 47514 92261,91754,91728
 1.4000e+000 91907 -1.7947e+001  8.6654e+000 -7.3025e+000 47514 91754,91806,91780
 1.4000e+000 91884  1.0163e+001  9.6546e+000 -3.2449e+000 47514 91650,91702,91676
 1.4000e+000 92071 -9.1045e+000  7.9264e+000 -1.0428e+001 47514 92117,91754,92045
 1.4000e+000 92094 -2.5717e-001  1.3330e+000 -5.0290e+000 47514 91832,92045,91858
 1.4000e+000 92143 -8.0322e-002  1.6556e+001  2.8145e+000 47514 91832,91806,92117
 1.4000e+000 92166 -3.4894e-001  7.2410e+000 -3.8465e+000 47514 91832,92117,92045
 1.4000e+000 92215 -1.1800e+000  7.8472e+000 -2.0502e+000 47514 91858,92045,92189
 1.4000e+000 92238 -8.2586e-001  1.1698e+001 -3.1134e+000 47514 91858,92189,91650
 1.4000e+000 92287  6.3217e+000 -5.7321e-001 -1.7468e+000 47514 91702,92045,92261
 1.4000e+000 92310  1.7761e+001 -8.6431e-001  9.2281e-001 47514 91702,92261,91728
 1.4000e+000 92460 -6.2829e+000  5.3230e+000  2.7274e+000 47124 92483,92359,92333
 1.4000e+000 92437 -3.7423e+000 -1.9985e+000 -1.7958e+000 47124 92555,92483,92333
 1.4000e+000 92509 -2.6262e+000  8.3066e+000  5.3762e+000 47124 92685,92483,92385
 1.4000e+000 92532  2.0680e-001  2.7276e+000  1.2992e+000 47124 92385,92483,92411
 1.4000e+000 92581 -1.2422e+000  1.9179e+000 -5.4334e-001 47124 92411,92483,92555
 1.4000e+000 92711 -1.5004e+000  8.1940e+000  5.6107e+000 47124 92359,92483,92685
 1.4000e+000 93571 -1.1392e+001 -5.1363e+000  2.4464e+000 46834 93594,93208,93104
 1.4000e+000 93548 -1.3180e+001 -5.9948e+000  2.8899e+000 46834 93738,93594,93104
 1.4000e+000 93525 -1.6938e+001 -1.4150e+001 -2.3248e+000 46834 93666,93234,93208
 1.4000e+000 93502 -9.7396e+000 -5.0770e+000  3.1519e+000 46834 93738,93104,93078
 1.4000e+000 93479 -1.5527e+001 -6.2963e+000  1.1435e+000 46834 93810,93260,93234
 1.4000e+000 93456 -7.4863e+000 -5.2583e+000  2.7984e+000 46834 93104,93182,93156
 1.4000e+000 93433 -1.0545e+001 -1.1667e+001  1.8904e+000 46834 93104,93208,93182
 1.4000e+000 93410 -2.3487e+001 -4.1004e+000  5.5829e+000 46834 93286,93338,93312
 1.4000e+000 93387 -1.4103e+001 -5.5895e+000  3.3553e+000 46834 93052,93338,93078
 1.4000e+000 93364 -7.7353e+000 -2.2878e+000  1.6732e+000 46834 93104,93156,93130
 1.4000e+000 93620 -1.3945e+001 -7.7506e+000  6.9674e-001 46834 93666,93208,93594
 1.4000e+000 93643 -1.5182e+001 -1.9893e+000  2.9551e+000 46834 93286,93594,93338
 1.4000e+000 93692 -1.6232e+001 -6.3884e+000  4.1744e-001 46834 93810,93234,93666
 1.4000e+000 93715 -1.6516e+001 -2.7498e+000  1.2566e+000 46834 93286,93666,93594
 1.4000e+000 93764 -1.5856e+001 -4.7339e+000  3.5562e+000 46834 93338,93594,93738
 1.4000e+000 93787 -1.4742e+001 -5.5121e+000  3.5853e+000 46834 93338,93738,93078
 1.4000e+000 93836 -1.3736e+001 -5.7863e+000  1.6923e+000 46834 93286,93260,93810
 1.4000e+000 93859 -1.4507e+001 -5.8497e+000  9.9856e-001 46834 93286,93810,93666
 1.4000e+000 94210 -5.8672e+000 -6.8722e+000  2.6404e-001 46472 94011,94115,94089
 1.4000e+000 94187 -5.2656e+000 -5.5689e+000  4.7199e-001 46472 93985,94115,94011
 1.4000e+000 94164 -8.0138e+000 -7.3719e+000 -1.9400e-001 46472 94037,94089,94063
 1.4000e+000 94141 -7.5495e+000 -7.6802e+000  5.2100e-001 46472 94011,94089,94037
 1.4000e+000 94746  4.2913e+000  1.0667e+001 -6.1750e-001 46068 94576,94628,94602
 1.4000e+000 94723 -4.0913e-001  8.6500e+000 -5.1262e-001 46068 94498,94628,94576
 1.4000e+000 94700  7.7188e+000  1.3512e+001 -4.9375e+000 46068 94472,94628,94498
 1.4000e+000 94677  1.5714e+001  1.3208e+001 -1.0017e+000 46068 94524,94576,94550
 1.4000e+000 94654  8.7453e+000  9.0560e+000  3.2724e+000 46068 94498,94576,94524
 1.4000e+000 95380  1.6974e+001  1.0488e+000  2.4193e+000 45342 95034,95112,95086
 1.4000e+000 95357 -9.8723e-001 -1.4940e+000  2.6809e+000 45342 95034,95190,95112
 1.4000e+000 95334  2.5265e+001 -4.8182e+000 -4.4019e+000 45342 95403,95164,95138
 1.4000e+000 95311  1.1490e+001  7.9691e-001  1.7486e+000 45342 95403,95138,95112
 1.4000e+000 95288  1.5997e+001 -4.2780e+000  4.2394e-001 45342 95034,95216,95190
 1.4000e+000 95265  1.2377e+001  2.7806e+000  5.8327e+000 45342 95034,95086,95060
 1.4000e+000 95242  1.7803e+001  1.2086e-001  8.1366e-001 45342 95008,95216,95034
 1.4000e+000 95429  1.2829e+001 -5.8991e+000 -6.1435e+000 45342 95190,95164,95403
 1.4000e+000 95452  7.4015e-001  9.0122e-001 -2.6445e+000 45342 95190,95403,95112
 1.4000e+000 96007 -9.6004e+000 -5.7867e+000 -1.2584e+000 44716 96030,95791,95765
 1.4000e+000 95984 -4.4343e+000 -8.0358e+000 -2.0727e+000 44716 96030,95765,95713
 1.4000e+000 95961 -2.4690e+000 -6.3762e+000  1.9115e-001 44716 96174,96102,95661
 1.4000e+000 95938 -2.7387e+000 -5.5687e+000  3.3252e-001 44716 96174,95661,95635
 1.4000e+000 95915 -3.6305e+000 -5.0329e+000  1.8182e+000 44716 95661,95713,95687
 1.4000e+000 95892  6.3231e+000 -3.6068e+000 -1.9954e+000 44716 95713,95765,95739
 1.4000e+000 95869  8.1351e-001 -2.4802e+000 -1.1728e+000 44716 95635,95843,95817
 1.4000e+000 96056 -4.6478e+000 -4.2255e+000 -4.7945e-001 44716 95817,95791,96030
 1.4000e+000 96079 -5.0058e+000 -7.0503e+000 -1.6225e+000 44716 96102,95817,96030
 1.4000e+000 96128 -7.1367e-001 -4.8637e+000  1.5949e+000 44716 95713,95661,96102
 1.4000e+000 96151 -4.9222e-001 -5.8903e+000 -2.1963e-001 44716 95713,96102,96030
 1.4000e+000 96200 -1.9731e+000 -5.3201e+000 -1.5228e-002 44716 95817,96102,96174
 1.4000e+000 96223 -2.4905e+000 -4.8650e+000  2.7531e-001 44716 95817,96174,95635
 1.4000e+000 96680  5.5745e+000  1.2303e+001 -2.7721e+000 44198 96775,96703,96458
 1.4000e+000 96657  7.3116e+000  1.9828e+000 -5.2676e+000 44198 96703,96406,96562
 1.4000e+000 96634  8.9997e+000  1.5736e+001 -4.1892e+000 44198 96775,96458,96432
 1.4000e+000 96611  9.0255e+000  9.1130e+000 -6.4679e+000 44198 96484,96536,96510
 1.4000e+000 96588 -2.8693e+000  8.8835e+000  4.5728e-001 44198 96458,96536,96484
 1.4000e+000 96729 -2.0328e+000  1.1646e+000  1.3987e+000 44198 96536,96458,96703
 1.4000e+000 96752  6.8420e+000  1.1254e+000 -5.6986e+000 44198 96536,96703,96562
 1.4000e+000 96801  1.2216e+001  2.8221e+000 -2.6811e+000 44198 96406,96703,96775
 1.4000e+000 96824  1.7917e+001  9.2332e+000 -5.0779e+000 44198 96406,96775,96432
 1.4000e+000 97202 -7.3979e+000 -8.3359e+000  2.7294e+000 43750 97225,96980,96928
 1.4000e+000 97179 -6.6222e+000 -9.7924e+000  3.7219e+000 43750 97225,96928,97084
 1.4000e+000 97156 -6.6507e+000 -7.6199e+000  2.3703e+000 43750 96928,96980,96954
 1.4000e+000 97133 -3.8510e+000 -4.1208e+000  2.2931e+000 43750 97006,97084,97058
 1.4000e+000 97110 -2.9589e+000 -3.6722e+000  2.5290e+000 43750 97006,97058,97032
 1.4000e+000 97251 -6.5174e+000 -5.9060e+000  2.5218e+000 43750 97006,96980,97225
 1.4000e+000 97274 -6.3717e+000 -8.3394e+000  3.5244e+000 43750 97006,97225,97084
 1.4000e+000 97522 -2.6134e+000  4.7977e+000 -1.2048e+000 43360 97545,97375,97349
 1.4000e+000 97499 -4.2490e+000  5.5898e-001 -3.0795e+000 43360 97545,97349,97323
 1.4000e+000 97476 -2.3531e+000  1.6900e+000 -5.4635e+000 43360 97617,97427,97401
 1.4000e+000 97453  7.3425e-001  2.4037e+000 -9.7713e+000 43360 97297,97427,97323
 1.4000e+000 97571 -9.7504e+000 -3.7661e+000  1.8633e+000 43360 97401,97375,97545
 1.4000e+000 97594 -3.0792e+000 -2.4991e+000 -2.6006e+000 43360 97617,97401,97545
 1.4000e+000 97643 -4.2669e-001  6.7650e+000 -7.9049e+000 43360 97323,97427,97617
 1.4000e+000 97666 -8.4937e-001  4.7474e+000 -4.6708e+000 43360 97323,97617,97545
 1.4000e+000 98019 -3.4449e+001 -9.7723e-001 -7.5697e+000 42956 97794,97898,97820
 1.4000e+000 97996 -3.0409e+001 -1.0858e+001 -5.1394e+000 42956 97794,97924,97898
 1.4000e+000 97973 -6.6128e+001  1.2415e+000 -1.8485e+000 42956 97820,97872,97846
 1.4000e+000 97950 -5.8054e+001 -4.3664e+000 -6.4979e+000 42956 97820,97898,97872
 1.4000e+000 98446 -9.9581e+000 -5.4091e+000  3.1173e+000 42559 98149,98305,98279
 1.4000e+000 98423 -5.3053e+000 -1.5104e+000  5.2628e+000 42559 98123,98305,98149
 1.4000e+000 98400 -6.6659e+000 -5.0854e+000  2.1816e+000 42559 98469,98175,98149
 1.4000e+000 98377 -2.9570e+000  3.4854e+000 -2.9789e-001 42559 98469,98149,98279
 1.4000e+000 98354 -5.7898e+000 -8.2241e-001 -1.0791e+000 42559 98175,98253,98227
 1.4000e+000 98331 -5.5150e+000  1.4502e-001 -5.7849e-001 42559 98175,98227,98201
 1.4000e+000 98495 -3.6864e+000  8.1097e-001 -2.0768e+000 42559 98253,98175,98469
 1.4000e+000 98518 -2.7859e+000  3.9555e+000 -4.4193e+000 42559 98253,98469,98279
 1.4000e+000 98847  1.7394e+001  2.9187e+000 -3.0661e+000 42247 98674,98752,98700
 1.4000e+000 98824  8.2672e+000  8.5890e+000  3.5232e+000 42247 98648,98752,98674
 1.4000e+000 98801  8.7179e+000  1.0522e+001  1.1021e+001 42247 98622,98752,98648
 1.4000e+000 98778  2.1413e+001  3.7022e-001  3.7005e+000 42247 98700,98752,98726
 1.4000e+000 99117 -8.1338e+000 -9.3295e+000 -4.7664e-001 41843 98892,98996,98918
 1.4000e+000 99094 -9.5540e+000 -1.0497e+001  3.5519e-002 41843 98892,99022,98996
 1.4000e+000 99071 -5.4163e+000 -4.5486e+000  7.1902e-001 41843 98918,98996,98970
 1.4000e+000 99048 -8.3091e+000 -5.2107e+000  9.1704e-002 41843 98918,98970,98944
 1.4000e+000 99625  5.1911e-001  1.3597e+001  6.7967e+000 41232 99648,99380,99354
 1.4000e+000 99602  7.8384e+000  1.3819e+001  5.1274e+000 41232 99648,99354,99328
 1.4000e+000 99579  8.4092e+000  1.8928e+001  9.6504e+000 41232 99720,99432,99380
 1.4000e+000 99556 -1.5024e+000  1.0645e+001  2.3621e+000 41232 99380,99432,99406
 1.4000e+000 99533  6.9772e+000  2.3732e+000  3.5890e+000 41232 99328,99484,99458
 1.4000e+000 99510  2.1096e+001  5.6670e+000  3.9668e+000 41232 99302,99484,99328
 1.4000e+000 99674  2.2044e+000  1.6518e+001  7.8832e+000 41232 99720,99380,99648
 1.4000e+000 99697  4.9520e+000  1.5054e+000  3.8864e+000 41232 99458,99648,99328
 1.4000e+000 99746  1.6514e+001  1.5705e+001  1.2720e+001 41232 99458,99432,99720
 1.4000e+000 99769  1.1720e+001  1.3159e+001  1.0227e+001 41232 99458,99720,99648
 1.4000e+000 100275  1.3158e+001  5.0833e+000 -7.2121e+000 40728 99952,100004,99978
 1.4000e+000 100252  5.4781e+000  1.2467e+000 -1.0930e+001 40728 99952,100030,100004
 1.4000e+000 100229 -3.4519e+000 -1.0680e+001 -7.0077e+000 40728 99952,100134,100030
 1.4000e+000 100206  3.1161e-001  2.0208e+000 -8.1286e+000 40728 100298,100108,100082
 1.4000e+000 100183  8.8012e-001 -5.1282e+000 -9.1757e+000 40728 100298,100082,100030
 1.4000e+000 100160 -1.7517e+001  1.7592e+000 -2.7869e+001 40728 100030,100082,100056
 1.4000e+000 100324 -1.6650e-001  7.8407e+000 -5.6239e+000 40728 100134,100108,100298
 1.4000e+000 100347 -2.4382e-001 -8.1391e-001 -6.1045e+000 40728 100134,100298,100030
 1.4000e+000 100853 -9.9346e+000  5.2842e+000  9.1936e-001 40274 100876,100686,100660
 1.4000e+000 100830 -8.0542e+000  3.9269e-001  2.6336e+000 40274 100948,100876,100660
 1.4000e+000 100807 -1.0207e+001 -5.2975e-001  1.1153e-001 40274 100948,100660,100608
 1.4000e+000 100784 -9.4088e+000  3.8727e+000  3.5980e+000 40274 101020,100556,100712
 1.4000e+000 100761 -6.6728e+000  7.7726e+000  5.1555e+000 40274 100530,100712,100556
 1.4000e+000 100738 -1.0029e+001  4.2397e+000  2.4186e+000 40274 100608,100660,100634
 1.4000e+000 100902 -8.9434e+000  1.5821e+001  4.4109e+000 40274 100712,100686,100876
 1.4000e+000 100925 -1.1313e+001  4.2515e+000  2.0271e+000 40274 101020,100712,100876
 1.4000e+000 100974 -9.8374e+000 -1.9687e+000 -5.4941e-001 40274 100582,100876,100948
 1.4000e+000 100997 -1.4045e+001 -3.2878e+000 -3.0590e+000 40274 100582,100948,100608
 1.4000e+000 101046 -6.9459e+000  4.9023e+000  4.1410e+000 40274 100582,100556,101020
 1.4000e+000 101069 -8.4028e+000  5.1889e+000  2.2982e+000 40274 100582,101020,100876
 1.4000e+000 101496  9.2877e-001  7.2600e+000  4.8301e+000 39820 101519,101277,101225
 1.4000e+000 101473 -6.4572e+000 -2.5548e+000  1.5166e+000 39820 101519,101225,101199
 1.4000e+000 101450 -5.2720e+000  2.9876e+000  9.5393e+000 39820 101173,101355,101199
 1.4000e+000 101427  1.4530e+001  2.0256e+000 -1.2990e+000 39820 101277,101355,101303
 1.4000e+000 101404  3.3496e+000  4.8790e+000 -9.4460e-001 39820 101225,101277,101251
 1.4000e+000 101381  9.3648e+000  3.8750e+000 -2.4474e+000 39820 101303,101355,101329
 1.4000e+000 101545  4.2460e+000  1.7827e+000  9.0213e+000 39820 101355,101277,101519
 1.4000e+000 101568  1.1446e+000 -1.3096e+000  7.3478e+000 39820 101355,101519,101199
 1.4000e+000 101816 -7.3316e+000 -9.7046e+000  2.9187e+000 39066 101839,101695,101643
 1.4000e+000 101793 -8.7898e+000 -9.6284e+000  1.8478e+000 39066 101839,101643,101591
 1.4000e+000 101770 -5.6171e+000 -1.0952e+001  1.3624e+000 39066 101643,101695,101669
 1.4000e+000 101747 -6.1714e+000 -5.9847e+000  6.8067e-001 39066 101591,101643,101617
 1.4000e+000 101865 -6.1992e+000 -9.5083e+000  3.2552e+000 39066 101721,101695,101839
 1.4000e+000 101888 -7.2936e+000 -9.3796e+000  2.0549e+000 39066 101721,101839,101591
 1.4000e+000 102087 -9.5768e+000 -3.9122e+000 -5.1296e-001 38726 101937,101989,101963
 1.4000e+000 102064 -1.3343e+001 -6.5212e+000  6.4537e-001 38726 101937,102015,101989
 1.4000e+000 102041 -6.7579e+000 -3.5978e+000  1.3340e+000 38726 101911,102015,101937
 1.4000e+000 102337  8.5229e+000  7.8613e+000 -3.2805e+000 38322 102112,102190,102138
 1.4000e+000 102314  4.6231e-001  5.0996e+000  7.1307e+000 38322 102112,102216,102190
 1.4000e+000 102291  1.7209e+001  1.0330e-001  1.1328e+001 38322 102112,102242,102216
 1.4000e+000 102268 -7.2307e+000  3.0914e+000 -2.2127e+000 38322 102138,102190,102164
 1.4000e+000 102489 -3.8231e+000  3.2810e-001  1.2642e+000 38032 102512,102388,102362
 1.4000e+000 102466 -4.8021e+000  3.6876e+000 -4.7861e-001 38032 102512,102362,102440
 1.4000e+000 102538 -3.4029e+000 -2.4685e+000  8.0658e-001 38032 102414,102388,102512
 1.4000e+000 102561 -5.3937e+000 -5.9786e-001 -1.5142e+000 38032 102414,102512,102440
 1.4000e+000 102894 -1.8035e+000  1.5868e+001 -1.3308e+000 37592 102669,102773,102695
 1.4000e+000 102871  1.4274e+001  1.8633e+001 -9.5623e+000 37592 102669,102799,102773
 1.4000e+000 102848  1.0485e+001  2.6511e+001  5.7793e-002 37592 102721,102773,102747
 1.4000e+000 102825  2.2231e+000  6.7529e-001 -6.2378e-001 37592 102695,102773,102721
 1.4000e+000 103093  5.4475e+000  2.0866e+001 -3.5716e+000 37188 102917,102995,102943
 1.4000e+000 103070  3.4556e+000  2.4931e+001  1.7526e+000 37188 102917,103021,102995
 1.4000e+000 103047  7.8480e+000  1.4731e+001 -7.3741e-001 37188 102943,102995,102969
 1.4000e+000 103341  1.1477e+001  2.0683e+001  3.6398e+000 36605 103142,103194,103168
 1.4000e+000 103318  1.4617e+001  2.0496e+001  4.5108e+000 36605 103142,103220,103194
 1.4000e+000 103295  2.4380e+001  1.1265e+001 -8.7815e-001 36605 103116,103220,103142
 1.4000e+000 103272  3.3400e+001  2.6320e+001 -8.8254e+000 36605 103116,103246,103220
 1.4000e+000 103949 -6.9211e+000 -1.2734e+001 -2.6964e+000 36127 103554,103606,103580
 1.4000e+000 103926 -1.3364e+001 -8.5308e+000 -3.5910e+000 36127 103528,103606,103554
 1.4000e+000 103903 -1.0611e+001 -4.6360e+000 -6.6081e+000 36127 103528,103736,103606
 1.4000e+000 103880 -1.2065e+001 -9.9730e+000 -5.6942e+000 36127 103972,103710,103632
 1.4000e+000 103857 -1.4954e+001 -1.6474e+001 -1.1447e+001 36127 103972,103632,103606
 1.4000e+000 103834 -9.6582e+000 -8.3415e+000 -4.7173e+000 36127 103632,103710,103658
 1.4000e+000 103811 -2.0537e+001 -3.1684e-001 -1.3333e+001 36127 103528,103762,103736
 1.4000e+000 103788 -7.6375e+000 -2.0402e-001 -7.8587e-001 36127 103658,103710,103684
 1.4000e+000 103998 -7.1070e+000 -3.6357e+000 -1.0049e+000 36127 103736,103710,103972
 1.4000e+000 104021 -1.0674e+001 -9.8881e+000 -6.9009e+000 36127 103736,103972,103606
 1.4000e+000 104220 -2.1166e+001  3.6835e+000  4.3549e+000 35787 104070,104148,104122
 1.4000e+000 104197 -2.0425e+001  2.9753e+001  1.0090e+001 35787 104044,104148,104070
 1.4000e+000 104174 -1.0181e+001  8.2323e+000  2.9828e+000 35787 104070,104122,104096
 1.4000e+000 104419 -5.7810e+000  3.2482e+000  8.5709e-001 35440 104269,104321,104295
 1.4000e+000 104396 -2.4898e+000  5.6236e+000  2.6307e+000 35440 104269,104347,104321
 1.4000e+000 104373 -6.1989e+000  1.7524e+000  1.1113e+000 35440 104243,104347,104269
 1.4000e+000 104718 -4.4582e+000  8.2295e+000 -3.5491e+000 34986 104496,104548,104522
 1.4000e+000 104695 -5.2333e+000  7.9872e+000 -3.5981e+000 34986 104741,104548,104496
 1.4000e+000 104672 -4.5073e-001  9.0836e+000 -2.8280e+000 34986 104741,104496,104444
 1.4000e+000 104649 -7.6372e+000  9.4229e+000  7.8467e-001 34986 104813,104574,104548
 1.4000e+000 104626 -4.0811e-002  1.0661e+001 -5.6482e-001 34986 104444,104496,104470
 1.4000e+000 104767 -7.9072e+000  9.2632e+000 -1.8559e+000 34986 104813,104548,104741
 1.4000e+000 104790 -3.5893e+000  9.4545e+000 -2.1246e+000 34986 104600,104741,104444
 1.4000e+000 104839 -9.5756e-001  1.2363e+001  2.1996e+000 34986 104600,104574,104813
 1.4000e+000 104862 -3.6292e+000  1.1097e+001 -1.8239e+000 34986 104600,104813,104741
 1.4000e+000 105014 -1.4259e+001 -3.5982e+000  2.8716e-001 34696 105169,105037,104913
 1.4000e+000 104991 -1.4815e+001 -6.8547e+000  1.0865e+000 34696 105169,104913,104887
 1.4000e+000 105063 -6.0612e+000  1.2675e+000  2.7508e+000 34696 104939,104913,105037
 1.4000e+000 105195 -1.5538e+001 -3.0780e+000  2.9178e+000 34696 104965,105037,105169
 1.4000e+000 105218 -1.5883e+001 -5.6703e+000  3.7423e+000 34696 104965,105169,104887
 1.4000e+000 105368 -1.0735e+001  7.5136e-001 -1.2168e+000 34384 105267,105319,105293
 1.4000e+000 105345 -9.2840e+000  4.6627e+000 -2.1017e-001 34384 105241,105319,105267
 1.4000e+000 105616 -4.6461e-001  1.0681e+001 -1.8135e+000 33730 105639,105417,105391
 1.4000e+000 105593  9.7808e-001  9.8596e+000 -3.1046e+000 33730 105639,105391,105495
 1.4000e+000 105570 -1.7645e+000  1.4064e+001 -4.5068e+000 33730 105391,105521,105495
 1.4000e+000 105547 -4.8223e+000  3.6130e+000  6.9849e+000 33730 105417,105469,105443
 1.4000e+000 105665  9.7609e-001  1.0557e+001 -2.1775e+000 33730 105469,105417,105639
 1.4000e+000 105688  4.6181e+000  1.1354e+001 -3.6875e+000 33730 105469,105639,105495
 1.4000e+000 105840 -4.5881e+000  4.8626e+000 -8.2379e-001 33390 105713,105765,105739
 1.4000e+000 105817 -4.6258e+000  5.0236e+000 -9.5964e-001 33390 105713,105791,105765
 1.4000e+000 106090 -8.6900e+000  3.8138e+000 -5.7024e+000 33043 106113,105943,105891
 1.4000e+000 106067 -1.1401e+001  6.3438e+000 -7.0614e-001 33043 106113,105891,105865
 1.4000e+000 106044 -4.3981e+000  2.2939e+000 -2.3901e+000 33043 105891,105943,105917
 1.4000e+000 106021 -8.7000e+000  1.0004e+001 -1.7981e+000 33043 105865,105995,105969
 1.4000e+000 106139 -2.9354e+000  1.2553e+001 -8.3360e+000 33043 105969,105943,106113
 1.4000e+000 106162 -9.3099e+000  9.6046e+000 -1.6178e+000 33043 105969,106113,105865
 1.4000e+000 106412  1.7158e+001  1.2513e+001  1.9535e+000 32539 106435,106291,106239
 1.4000e+000 106389  1.5054e+001  1.0633e+001 -3.2207e-001 32539 106187,106317,106291
 1.4000e+000 106366  1.5941e+001  2.2329e+001  1.7119e+001 32539 106435,106239,106213
 1.4000e+000 106343  2.0174e+001  1.4791e+001  3.0666e+000 32539 106239,106291,106265
 1.4000e+000 106461  8.8804e+000  8.1435e+000  2.6201e-001 32539 106187,106291,106435
 1.4000e+000 106484 -9.7698e-001  1.3807e+001  1.4215e+001 32539 106187,106435,106213
 1.4000e+000 106685 -7.9562e+000 -3.4975e-001 -2.8657e+000 31835 106535,106587,106561
 1.4000e+000 106662 -1.0538e+001  5.9744e-001  7.4619e-001 31835 106509,106587,106535
 1.4000e+000 106639 -7.1174e+000  8.9315e+000 -1.8581e+000 31835 106509,106613,106587
 1.4000e+000 106935  3.4346e+000  4.5751e+000 -5.6677e+000 31530 106736,106814,106788
 1.4000e+000 106912  7.4594e+000  7.2840e+000 -4.1838e+000 31530 106710,106814,106736
 1.4000e+000 106889 -5.0760e-001  2.0239e-001 -3.9193e+000 31530 106736,106788,106762
 1.4000e+000 106866  8.6107e+000  9.5092e+000 -7.4140e+000 31530 106710,106840,106814
 1.4000e+000 107339 -1.6128e+001 -7.2250e-001 -1.1260e+000 31026 107117,107221,107195
 1.4000e+000 107316 -1.2840e+001 -1.1391e+001  1.1063e+000 31026 107091,107221,107117
 1.4000e+000 107293 -1.3122e+001 -1.1197e+001  1.5593e+000 31026 107065,107221,107091
 1.4000e+000 107270 -1.7454e+001  1.4662e+001 -1.7137e+000 31026 107143,107195,107169
 1.4000e+000 107247 -2.5853e+001 -5.4303e+000 -3.0459e+000 31026 107117,107195,107143
 1.4000e+000 107538 -8.0242e+000  1.4294e+000 -1.2380e-001 30714 107561,107388,107362
 1.4000e+000 107515 -7.6948e+000  2.1898e+000 -3.0567e-001 30714 107561,107362,107466
 1.4000e+000 107492 -7.6923e+000  3.5872e-001 -1.1089e+000 30714 107414,107466,107440
 1.4000e+000 107587 -7.5306e+000  3.0769e-001 -1.0814e-001 30714 107414,107388,107561
 1.4000e+000 107610 -7.0731e+000  1.2482e+000 -3.2135e-001 30714 107414,107561,107466
 1.4000e+000 107990 -7.5628e+000 -1.8375e+000  2.0702e+000 30260 108013,107846,107768
 1.4000e+000 107967 -6.9099e+000 -2.2804e-001  6.2070e-001 30260 108013,107768,107716
 1.4000e+000 107944 -8.6966e+000  7.4492e-002  8.7905e-001 30260 107716,107768,107742
 1.4000e+000 107921 -6.4563e+000  2.4273e+000  3.7800e+000 30260 107768,107846,107820
 1.4000e+000 107898 -6.5054e+000 -2.2165e+000  1.1363e+000 30260 107768,107820,107794
 1.4000e+000 108039 -6.2906e+000 -9.0877e-001  1.0662e+000 30260 107872,107846,108013
 1.4000e+000 108062 -6.3057e+000  5.2810e-001 -2.8588e-001 30260 107872,108013,107716
 1.4000e+000 108261 -3.5882e-001 -1.3913e+001  3.9725e+000 29870 108284,108085,108163
 1.4000e+000 108238 -6.5265e+000 -7.0683e+000 -1.0840e+000 29870 108085,108189,108163
 1.4000e+000 108215  2.8528e+001 -3.4415e-001  8.0957e+000 29870 108284,108163,108137
 1.4000e+000 108310 -1.3612e+001  2.2925e+000  1.3858e+001 29870 108111,108085,108284
 1.4000e+000 108333  2.6275e-001  7.0930e+000  1.5496e+001 29870 108111,108284,108137
 1.4000e+000 108664  3.0082e+000  6.4151e+000 -6.2761e+000 29480 108465,108569,108543
 1.4000e+000 108641 -3.8419e+000  9.0242e+000  2.8753e+000 29480 108439,108569,108465
 1.4000e+000 108618 -8.5953e-001  5.4938e-001 -2.7914e+000 29480 108465,108543,108491
 1.4000e+000 108595  5.7913e-001  1.3223e+000 -2.3677e+000 29480 108491,108543,108517
 1.4000e+000 108993 -6.4055e-001 -1.2415e+000  3.2234e+000 29076 108794,108872,108820
 1.4000e+000 108970 -1.8933e+000 -3.1183e+000  2.5144e+000 29076 108768,108872,108794
 1.4000e+000 108947  1.7217e+000 -1.0244e+000  1.6333e+000 29076 108820,108872,108846
 1.4000e+000 108924 -2.7182e+000 -1.7610e+000  8.6500e+000 29076 108768,108898,108872
 1.4000e+000 109420 -1.9700e+000  1.1124e+000 -5.1099e+000 28472 109123,109227,109201
 1.4000e+000 109397 -1.8505e+001 -1.9508e-001 -3.7358e+000 28472 109123,109253,109227
 1.4000e+000 109374 -5.3523e+000 -3.2395e+000 -3.5964e+000 28472 109123,109201,109175
 1.4000e+000 109351 -1.1972e+001  5.9432e+000 -6.6902e-001 28472 109123,109279,109253
 1.4000e+000 109328 -2.1109e+000 -1.1311e+000  2.8633e-002 28472 109123,109175,109149
 1.4000e+000 109305 -1.6625e+001  1.5604e+001 -5.0207e+000 28472 109097,109279,109123
 1.4000e+000 109749 -1.4562e+001  1.0132e+001 -9.8129e+000 28018 109772,109602,109576
 1.4000e+000 109726 -1.4373e+001  3.8424e+000 -7.3700e+000 28018 109772,109576,109550
 1.4000e+000 109703 -1.6480e+001 -4.2343e+000 -8.8119e+000 28018 109524,109628,109550
 1.4000e+000 109680 -1.5163e+001 -8.0667e+000 -3.0058e+000 28018 109524,109654,109628
 1.4000e+000 109798 -1.6935e+001  7.6127e+000 -3.8864e+000 28018 109628,109602,109772
 1.4000e+000 109821 -1.4395e+001 -8.0874e-001 -3.5622e+000 28018 109628,109772,109550
 1.4000e+000 110199 -9.7319e+000 -3.3044e+000 -4.0968e+000 27564 110029,110081,110055
 1.4000e+000 110176 -6.0874e+000  2.8738e+000 -2.5353e+000 27564 109925,110081,110029
 1.4000e+000 110153 -4.3093e+000 -4.1600e+000 -7.9381e-001 27564 109925,110029,109977
 1.4000e+000 110130 -3.3359e+000 -3.5722e+000  3.5319e-001 27564 109977,110029,110003
 1.4000e+000 110107 -3.1770e+000 -2.2276e+000 -1.0787e-001 27564 109925,109977,109951
 1.4000e+000 110398  1.4727e+001  1.6327e+001 -1.2340e+000 27003 110248,110326,110300
 1.4000e+000 110375  1.1669e+001  1.2675e+001 -2.7874e+000 27003 110222,110326,110248
 1.4000e+000 110352 -2.8560e+000  6.4240e+000 -5.6485e+000 27003 110248,110300,110274
 1.4000e+000 110646  1.6210e+001 -3.1811e+000  9.4996e+000 26563 110669,110473,110421
 1.4000e+000 110623  1.3323e+001 -1.9026e+001  1.5595e+001 26563 110669,110421,110551
 1.4000e+000 110600  1.9572e+001  1.8245e+000  7.6814e+000 26563 110473,110525,110499
 1.4000e+000 110577  8.7777e+000 -1.4490e+001  2.1228e+001 26563 110421,110473,110447
 1.4000e+000 110695  1.4893e+001  1.3041e+000  7.7505e+000 26563 110525,110473,110669
 1.4000e+000 110718  1.8599e+001 -4.0061e+000  1.4131e+001 26563 110525,110669,110551
 1.4000e+000 110870 -9.3404e+000  4.1264e+000 -6.3729e+000 26166 110769,110821,110795
 1.4000e+000 110847 -4.2503e+000  2.3507e+000 -3.2018e+000 26166 110743,110821,110769
 1.4000e+000 111380 -1.1499e+001 -4.3568e+000  2.2725e+000 25712 111403,111109,111083
 1.4000e+000 111357 -9.7765e+000 -3.3103e+000  1.8216e+000 25712 111403,111083,111239
 1.4000e+000 111334 -1.5514e+001 -3.7204e+000  6.3355e+000 25712 111109,111161,111135
 1.4000e+000 111311 -1.0804e+001 -3.9794e+000  1.4233e+000 25712 111057,111239,111083
 1.4000e+000 111288 -7.8261e+000 -4.7816e+000  2.3453e+000 25712 111161,111239,111187
 1.4000e+000 111265 -5.7771e+000 -3.3499e+000  1.6413e+000 25712 111187,111239,111213
 1.4000e+000 111429 -9.8427e+000 -5.8584e+000  2.8546e+000 25712 111161,111109,111403
 1.4000e+000 111452 -7.7645e+000 -4.6333e+000  2.3484e+000 25712 111161,111403,111239
 1.4000e+000 111651 -8.4919e+000 -2.7418e+000  5.3841e-001 25300 111674,111501,111475
 1.4000e+000 111628 -8.4553e+000 -4.1760e+000  6.7345e-001 25300 111674,111475,111579
 1.4000e+000 111605 -9.0199e+000 -2.2929e+000 -5.7634e-001 25300 111501,111553,111527
 1.4000e+000 111700 -8.6730e+000 -1.5648e+000  5.1085e-001 25300 111553,111501,111674
 1.4000e+000 111723 -8.4695e+000 -2.7513e+000  7.5757e-001 25300 111553,111674,111579
 1.4000e+000 111922  3.3113e+000  3.7517e-001  1.7365e-001 24732 111798,111850,111824
 1.4000e+000 111899  1.9274e+000  4.2919e+000 -3.3319e+000 24732 111772,111850,111798
 1.4000e+000 111876  4.0216e-001  4.3493e+000 -3.1348e+000 24732 111746,111850,111772
 1.4000e+000 112255 -4.5244e+000  6.4761e+000 -2.7615e+000 24142 112056,112108,112082
 1.4000e+000 112232 -3.0349e+000  5.1956e+000 -9.4805e-001 24142 112056,112134,112108
 1.4000e+000 112209 -6.6354e+000  1.5430e-001  6.2298e-001 24142 112056,112160,112134
 1.4000e+000 112186 -2.8791e+000 -7.5339e-001 -5.8890e-001 24142 112030,112160,112056
 1.4000e+000 112601 -2.1115e+001  2.6958e+000  2.4398e+001 23852 112624,112382,112356
 1.4000e+000 112578 -3.3468e+001  3.1924e+000  1.3019e+001 23852 112696,112624,112356
 1.4000e+000 112555 -2.9078e+001 -2.5045e-001  4.1748e+000 23852 112696,112356,112304
 1.4000e+000 112532 -2.6399e+001 -5.2650e+000  4.1807e+000 23852 112304,112356,112330
 1.4000e+000 112509 -1.6507e-001  2.5354e+001  1.5846e+001 23852 112278,112460,112304
 1.4000e+000 112486  4.8787e+001  1.2142e+001  9.1958e+000 23852 112382,112434,112408
 1.4000e+000 112650  2.9617e+001  1.3975e+001  3.2373e+001 23852 112434,112382,112624
 1.4000e+000 112673 -1.5946e+001 -7.6417e+000  2.0709e+001 23852 112434,112624,112460
 1.4000e+000 112722 -1.7732e+001  1.1516e+001  1.8238e+001 23852 112460,112624,112696
 1.4000e+000 112745 -1.6747e+001  4.1133e+000  8.6365e+000 23852 112460,112696,112304
 1.4000e+000 113015 -3.6064e+001  3.2937e+001 -9.4417e+000 23490 112842,112894,112868
 1.4000e+000 112992 -2.8654e+001  8.5649e+000 -8.5858e+000 23490 112816,112894,112842
 1.4000e+000 112969 -2.6810e+001  9.5298e+000 -2.0810e+000 23490 112790,112894,112816
 1.4000e+000 112946 -3.1490e+001 -2.4681e+000 -1.8752e+000 23490 112790,112920,112894
 1.4000e+000 113348 -6.8571e+000  2.0077e+000 -5.3696e+000 22970 113175,113253,113227
 1.4000e+000 113325 -4.6618e+000 -3.0693e+000 -3.3810e+000 22970 113149,113253,113175
 1.4000e+000 113302 -8.9948e+000 -8.3916e+000 -1.0527e+001 22970 113175,113227,113201
 1.4000e+000 113279 -2.7617e+000  1.2373e+000 -3.0498e+000 22970 113123,113253,113149
 1.4000e+000 113645 -8.6514e+000 -5.2567e+000 -2.4193e+000 22366 113423,113527,113449
 1.4000e+000 113622 -1.0668e+001 -8.0425e+000 -3.3770e+000 22366 113371,113527,113423
 1.4000e+000 113599 -8.7720e+000 -5.3874e+000 -1.7775e+000 22366 113449,113527,113501
 1.4000e+000 113576 -7.0418e+000 -6.6256e+000  4.1557e-001 22366 113449,113501,113475
 1.4000e+000 113553 -5.2475e+000  3.3298e+000 -5.1730e+000 22366 113371,113423,113397
 1.4000e+000 113893 -6.9199e+000 -9.4352e+000 -7.4074e+000 21912 113916,113746,113720
 1.4000e+000 113870 -4.1848e+000 -5.6432e+000 -6.1581e+000 21912 113916,113720,113668
 1.4000e+000 113847 -8.5714e+000 -5.9819e+000 -5.3299e+000 21912 113988,113798,113772
 1.4000e+000 113824 -3.0820e+000 -1.5281e+000 -1.0561e+001 21912 113668,113720,113694
 1.4000e+000 113942 -4.6297e+000 -3.8501e+000 -7.3136e+000 21912 113772,113746,113916
 1.4000e+000 113965 -6.3212e+000 -4.2489e+000 -6.1091e+000 21912 113988,113772,113916
 1.4000e+000 114014 -5.3158e+000 -6.7078e+000 -5.5882e+000 21912 113668,113798,113988
 1.4000e+000 114037 -5.2443e+000 -6.6146e+000 -5.6283e+000 21912 113668,113988,113916
 1.4000e+000 114287  4.0934e+000 -2.4327e+000 -1.8749e+000 21408 114088,114140,114114
 1.4000e+000 114264  5.4991e+000 -1.8212e+000 -2.9633e+000 21408 114310,114140,114088
 1.4000e+000 114241  4.6030e+000 -1.0046e-001 -6.0842e+000 21408 114310,114088,114192
 1.4000e+000 114218  2.0182e+000  8.6263e-001 -5.6668e+000 21408 114062,114192,114088
 1.4000e+000 114336  5.0190e+000 -6.4552e+000 -2.8873e+000 21408 114166,114140,114310
 1.4000e+000 114359  4.7293e+000 -2.9513e+000 -5.4278e+000 21408 114166,114310,114192
 1.4000e+000 114609  1.8182e+001  1.3825e+001  5.8467e+000 21018 114632,114488,114436
 1.4000e+000 114586  1.5966e+001  1.2585e+001  3.0250e+000 21018 114632,114436,114410
 1.4000e+000 114563  2.1406e+001  1.0016e+001  3.4536e+000 21018 114384,114514,114410
 1.4000e+000 114540  3.6111e+000  1.2417e+001  5.0309e+000 21018 114436,114488,114462
 1.4000e+000 114658  2.2326e+001  1.4461e+001  7.8766e+000 21018 114514,114488,114632
 1.4000e+000 114681  1.9176e+001  1.2949e+001  5.1301e+000 21018 114514,114632,114410
 1.4000e+000 114882  8.7410e+000  4.6087e+000  2.9040e+000 20614 114732,114784,114758
 1.4000e+000 114859  3.2889e+000  4.0166e+000  5.5532e-001 20614 114732,114810,114784
 1.4000e+000 114836  1.4693e+000  2.5875e+000 -6.7809e-002 20614 114706,114810,114732
 1.4000e+000 115132 -6.5311e+000  6.1386e-001 -1.4321e+000 20110 114907,115011,114933
 1.4000e+000 115109 -2.9148e+000  3.3711e+000 -3.2352e+000 20110 114907,115037,115011
 1.4000e+000 115086 -5.9484e+000  8.6507e-001 -1.3115e+000 20110 114933,115011,114985
 1.4000e+000 115063 -5.3787e+000  2.6800e+000 -2.8788e+000 20110 114933,114985,114959
 1.4000e+000 115284 -6.7213e+000  1.0936e+000 -1.2486e+000 19456 115378,115307,115157
 1.4000e+000 115261 -8.8983e+000  4.2756e+000 -2.1274e+000 19456 115378,115157,115235
 1.4000e+000 115333 -7.1115e+000  1.2252e+000 -8.7051e-001 19456 115183,115157,115307
 1.4000e+000 115404 -8.2090e+000 -4.1383e+000 -1.8504e+000 19456 115209,115307,115378
 1.4000e+000 115427 -9.8796e+000 -1.9521e-001 -3.0218e+000 19456 115209,115378,115235
 1.4000e+000 115677 -1.1193e+001 -1.5955e+000  3.9316e-001 19002 115504,115582,115530
 1.4000e+000 115654 -1.0067e+001 -2.1293e+000  1.3886e-001 19002 115478,115582,115504
 1.4000e+000 115631 -1.0967e+001 -2.1786e+000  2.6376e+000 19002 115452,115582,115478
 1.4000e+000 115608 -8.4529e+000 -2.4767e+000 -2.4092e+000 19002 115530,115582,115556
 1.4000e+000 115998  6.0569e+000  1.6472e+001 -2.6264e+000 18712 115802,115880,115854
 1.4000e+000 115975  1.1890e+001  2.3962e+001  7.0908e-001 18712 115724,115880,115802
 1.4000e+000 115952  1.2619e+001  1.5904e+001 -3.0449e-001 18712 115724,115802,115776
 1.4000e+000 115929  1.4400e+001  1.7791e+001  2.1099e+000 18712 115724,115776,115750
 1.4000e+000 115906  8.7272e+000  1.7577e+001 -2.5998e+000 18712 115802,115854,115828
 1.4000e+000 116270 -3.0782e+001 -1.9498e+001  8.5403e-001 18308 116045,116123,116071
 1.4000e+000 116247 -2.8722e+001 -1.9581e+001  1.0526e+001 18308 116045,116175,116123
 1.4000e+000 116224 -5.0401e+001 -6.1403e+000  6.5462e+000 18308 116123,116175,116149
 1.4000e+000 116201 -1.3928e+001 -1.1814e+001 -1.0164e+000 18308 116071,116123,116097
 1.4000e+000 116422 -1.0998e+001 -4.0010e+000 -1.2574e-001 17996 116321,116373,116347
 1.4000e+000 116399 -1.0018e+001 -2.8038e+000  3.5325e-001 17996 116295,116373,116321
 1.4000e+000 116574  1.5100e+001  4.8372e+000  3.9374e+000 17392 116473,116525,116499
 1.4000e+000 116551  3.1924e+001  1.8260e+001  9.8241e+000 17392 116447,116525,116473
 1.4000e+000 116797  1.7187e+000 -1.0299e+001 -9.8343e-001 16938 116621,116699,116673
 1.4000e+000 116774  2.4379e+000 -1.5754e+001  4.4855e-001 16938 116621,116725,116699
 1.4000e+000 116751  2.6363e+000 -8.1581e+000 -4.3075e-001 16938 116621,116673,116647
 1.4000e+000 116998  2.4809e+001  3.0334e+000  4.4313e+000 16434 117021,116874,116848
 1.4000e+000 116975 -1.0660e+001 -4.1464e+000 -4.0673e+000 16434 117021,116848,116822
 1.4000e+000 116952  3.9143e+001  2.0676e+001  1.5068e+001 16434 116874,116926,116900
 1.4000e+000 117047  3.8059e+001 -2.0084e+000  6.7823e+000 16434 116926,116874,117021
 1.4000e+000 117070  2.6441e+001  7.3141e+000 -1.7517e+000 16434 116926,117021,116822
 1.4000e+000 117293 -3.5197e+000 -3.7879e+000 -1.0143e+000 16070 117117,117169,117143
 1.4000e+000 117270 -9.2037e+000 -5.9675e+000 -9.4729e-001 16070 117117,117221,117169
 1.4000e+000 117247 -1.0554e+001 -7.4365e+000 -1.5527e+000 16070 117169,117221,117195
 1.4000e+000 117445 -4.1187e+001 -2.0558e+001 -2.8562e+000 15645 117318,117370,117344
 1.4000e+000 117422 -4.8389e+001 -2.4782e+001  2.6297e-001 15645 117318,117396,117370
 1.4000e+000 117548 -1.5574e+000 -8.7426e-001  2.8473e+000 417 117470,117522,117496
 1.5000e+000 70760  5.8593e+000 -1.0119e+001  2.7031e+000 70380 70633,70685,70659
 1.5000e+000 70737 -3.9491e+000 -1.3091e+001 -5.8521e-001 70380 70633,70711,70685
 1.5000e+000 70861 -2.3657e-002 -2.5946e+000 -1.1565e-001 70068 70783,70835,70809
 1.5000e+000 71180 -1.8177e-002  2.6163e+000  1.6439e-001 69870 70932,70984,70958
 1.5000e+000 71157 -3.6648e-001  2.4455e+000 -1.4030e-002 69870 70932,71010,70984
 1.5000e+000 71134 -1.2551e+000  1.5006e+000 -3.9837e-001 69870 70932,71036,71010
 1.5000e+000 71111 -1.1926e+000  6.4109e-001  2.0159e+000 69870 70932,71062,71036
 1.5000e+000 71088 -1.3306e-001  1.6881e+000  2.2148e-001 69870 70906,71062,70932
 1.5000e+000 71428  1.1056e+000  1.0926e+001  4.3333e+000 69694 71451,71281,71255
 1.5000e+000 71405  2.7521e+000  8.0713e+000  4.4134e+000 69694 71523,71451,71255
 1.5000e+000 71382  4.0710e+000  1.0232e+001  5.7322e+000 69694 71523,71255,71229
 1.5000e+000 71359  4.1720e-001  5.7870e+000  2.8628e+000 69694 71595,71333,71307
 1.5000e+000 71477  2.4808e-001  8.4342e+000  4.3057e+000 69694 71307,71281,71451
 1.5000e+000 71500  5.5419e-001  7.1275e+000  1.9307e+000 69694 71595,71307,71451
 1.5000e+000 71549  8.1802e-001  8.6257e+000  2.3820e+000 69694 71203,71451,71523
 1.5000e+000 71572  8.7053e-001  8.7469e+000  3.4569e+000 69694 71203,71523,71229
 1.5000e+000 71621  1.0849e+000  3.9778e+000  2.4429e+000 69694 71203,71333,71595
 1.5000e+000 71644  4.7747e-001  4.8159e+000  2.0885e+000 69694 71203,71595,71451
 1.5000e+000 71745 -6.8618e-001  6.0096e-002 -3.9041e-002 69382 71667,71719,71693
 1.5000e+000 72100 -1.9088e+000  5.1184e-001  5.6600e-001 69184 71875,71979,71901
 1.5000e+000 72077  2.0573e-001 -1.4821e+000  1.7830e+000 69184 71875,72005,71979
 1.5000e+000 72054 -3.9424e-001  1.9103e-001 -7.4787e-001 69184 71901,71979,71953
 1.5000e+000 72031  4.1335e-001 -2.3372e-001 -3.0226e-001 69184 71901,71953,71927
 1.5000e+000 72250  2.7606e-001 -1.2805e+000  7.6262e-002 68986 72149,72201,72175
 1.5000e+000 72227 -1.4344e-001 -2.8144e+000  7.3896e-001 68986 72123,72201,72149
 1.5000e+000 72547 -7.7266e-001 -1.1112e+000  2.3272e+000 68582 72570,72403,72377
 1.5000e+000 72524 -4.3187e-001 -1.2669e+000  2.0389e+000 68582 72570,72377,72351
 1.5000e+000 72501 -4.7591e-001  1.1362e+000  8.7727e-001 68582 72642,72299,72429
 1.5000e+000 72478  1.0599e+000  5.4876e-001  5.1203e-001 68582 72273,72429,72299
 1.5000e+000 72455  9.4282e-001  7.5952e+000  4.2970e+000 68582 72299,72351,72325
 1.5000e+000 72596 -4.4967e-001 -1.3519e+000  1.5778e+000 68582 72429,72403,72570
 1.5000e+000 72619  2.2882e-001  2.0548e-001  1.1781e+000 68582 72642,72429,72570
 1.5000e+000 72668 -9.6472e-001  2.9830e-001  1.9050e+000 68582 72351,72299,72642
 1.5000e+000 72691 -4.7643e-001 -1.1307e+000  2.1268e+000 68582 72351,72642,72570
 1.5000e+000 73095 -7.9586e+000 -3.2445e+000 -1.3330e-002 68384 72873,72925,72899
 1.5000e+000 73072 -8.8416e+000  1.0534e+001  5.5301e+000 68384 72847,72925,72873
 1.5000e+000 73049 -4.2767e+000 -3.2248e+000  1.4933e+001 68384 72847,72951,72925
 1.5000e+000 73026  8.7886e+000 -4.4191e+000  7.8125e+000 68384 72821,72951,72847
 1.5000e+000 73003 -1.0217e+000 -3.6151e+000 -1.9367e+000 68384 72821,72977,72951
 1.5000e+000 73552 -1.0807e+000  9.0170e+000  2.9485e+000 68044 73304,73434,73408
 1.5000e+000 73529 -8.5350e-001  5.1774e+000 -1.8244e+000 68044 73278,73434,73304
 1.5000e+000 73506  9.9598e+000  8.3557e-001  3.8670e+000 68044 73356,73408,73382
 1.5000e+000 73483  1.2296e+001 -7.6285e-001  4.8547e-001 68044 73304,73408,73356
 1.5000e+000 73460  4.9341e+000  2.0387e+000 -3.0370e+000 68044 73304,73356,73330
 1.5000e+000 73871 -1.6969e+000  7.6686e+000 -2.8278e+000 67846 73675,73727,73701
 1.5000e+000 73848  5.2587e-001  6.4219e+000 -2.8585e+000 67846 73649,73727,73675
 1.5000e+000 73825 -1.8839e+000 -1.7960e-001 -4.3576e+000 67846 73623,73727,73649
 1.5000e+000 73802  3.0037e+000  2.2793e+000 -2.5105e+000 67846 73623,73753,73727
 1.5000e+000 73779  6.7650e-001  2.6129e-003 -6.5753e-002 67846 73597,73753,73623
 1.5000e+000 74021  1.1115e+000 -3.8449e+000  5.3833e-001 67598 73920,73972,73946
 1.5000e+000 73998  1.1030e+000 -3.3547e+000  1.7486e-001 67598 73894,73972,73920
 1.5000e+000 74271  7.9230e-002 -2.7990e+000  7.6223e-001 67286 74072,74176,74150
 1.5000e+000 74248 -6.5907e-001 -1.6678e+000  9.0208e-001 67286 74046,74176,74072
 1.5000e+000 74225  4.5334e-002 -2.5541e+000  6.7023e-001 67286 74072,74150,74098
 1.5000e+000 74202 -2.7507e-001 -3.1046e+000  2.8361e-001 67286 74098,74150,74124
 1.5000e+000 74374 -1.0850e+000  7.6463e-001  1.9535e+000 67088 74296,74348,74322
 1.5000e+000 74646 -2.3052e+000  5.7089e+000 -2.3311e+000 66890 74421,74525,74447
 1.5000e+000 74623  4.1825e-002  7.0812e+000 -7.4628e-001 66890 74421,74551,74525
 1.5000e+000 74600  1.9801e-001  9.5035e+000 -1.0460e+000 66890 74447,74525,74473
 1.5000e+000 74577 -3.9916e+000  7.5054e+000  8.0224e-001 66890 74473,74525,74499
 1.5000e+000 75254 -1.0010e+000 -1.3227e+000 -3.1988e+000 66528 74885,75067,75041
 1.5000e+000 75231  2.0192e+000  7.3716e-001 -2.2976e+000 66528 74859,75067,74885
 1.5000e+000 75208 -8.0059e-001  5.6751e+000 -1.3683e+000 66528 74937,75015,74963
 1.5000e+000 75185 -3.0785e+000  1.0322e-001 -1.9837e+000 66528 74911,75015,74937
 1.5000e+000 75162 -1.9509e+000  5.0179e-001 -1.8165e+000 66528 74911,75041,75015
 1.5000e+000 75139 -1.4727e+000  1.6426e+000 -1.6963e+000 66528 74885,75041,74911
 1.5000e+000 75116 -9.8812e-002 -4.1941e+000 -4.8297e+000 66528 74833,75067,74859
 1.5000e+000 75093 -4.4590e+000 -5.0597e-001  1.7839e-001 66528 74963,75015,74989
 1.5000e+000 75453 -1.4885e+000  1.1780e+001 -1.2670e+000 66238 75303,75381,75355
 1.5000e+000 75430  6.5298e-001  5.5237e+000 -1.4943e+000 66238 75277,75381,75303
 1.5000e+000 75407 -1.4697e+000 -2.7883e+000  1.1839e+000 66238 75303,75355,75329
 1.5000e+000 75701 -4.9703e-002  5.3976e+000  4.8461e-001 65834 75528,75606,75580
 1.5000e+000 75678 -9.8042e-001  8.1670e+000  5.4759e-002 65834 75502,75606,75528
 1.5000e+000 75655  7.6588e-002  7.1703e+000  2.2418e+000 65834 75528,75580,75554
 1.5000e+000 75632  1.8581e+000  9.7134e+000  1.0369e+000 65834 75476,75606,75502
 1.5000e+000 75902  1.2715e+000  4.4371e+000 -1.3140e-001 65636 75726,75804,75752
 1.5000e+000 75879  3.0197e+000  5.9357e+000 -1.5882e+000 65636 75726,75830,75804
 1.5000e+000 75856  6.6278e+000  4.5995e+000 -9.5216e-001 65636 75752,75804,75778
 1.5000e+000 76103  1.0575e+001  7.5080e+000 -2.3036e+000 65296 76126,75979,75953
 1.5000e+000 76080  9.8456e+000  1.3564e+001  1.1730e+000 65296 76126,75953,75927
 1.5000e+000 76057  1.9071e+001  2.9299e+001 -6.7143e+000 65296 76198,76005,75979
 1.5000e+000 76152  1.5889e+001  1.9219e+001 -3.6920e+000 65296 76198,75979,76126
 1.5000e+000 76175  9.4983e+000  9.2580e+000 -2.6379e-001 65296 76031,76126,75927
 1.5000e+000 76224  1.4375e+001  1.4568e+001 -1.8640e+000 65296 76031,76005,76198
 1.5000e+000 76247  1.4183e+001  1.1003e+001  1.5293e+000 65296 76031,76198,76126
 1.5000e+000 76602  1.0458e+000  1.3207e-001  9.1920e-002 64892 76377,76481,76403
 1.5000e+000 76579  1.0271e+000 -1.0322e-001 -3.9537e-002 64892 76377,76507,76481
 1.5000e+000 76556  1.8026e+000  2.9966e+000 -2.9249e-001 64892 76403,76481,76429
 1.5000e+000 76533 -1.8634e+000  2.1996e+000 -1.5217e-001 64892 76429,76481,76455
 1.5000e+000 76801 -1.1342e+001  1.4767e+000  4.9757e+000 64438 76677,76729,76703
 1.5000e+000 76778 -4.1787e+000  1.8882e+001  4.6438e+000 64438 76651,76729,76677
 1.5000e+000 76755 -1.8385e+001  5.3940e+000 -4.1011e+000 64438 76625,76729,76651
 1.5000e+000 77230  5.9912e+000  3.0813e+000 -1.4156e+000 63920 77253,76959,76933
 1.5000e+000 77207  3.1772e+000  1.5785e+000 -8.5007e-001 63920 77253,76933,77063
 1.5000e+000 77184  8.6646e-001  3.2800e+000 -2.4181e+000 63920 76959,77037,76985
 1.5000e+000 77161  2.4608e+000  1.6301e+000 -3.9480e-001 63920 76907,77063,76933
 1.5000e+000 77138 -9.6486e-001  5.1425e+000 -2.3512e+000 63920 76985,77037,77011
 1.5000e+000 77115  4.6672e-001  2.7515e-001  3.6887e-001 63920 76907,77089,77063
 1.5000e+000 77279  2.4847e+000  4.4962e+000 -1.6005e+000 63920 77037,76959,77253
 1.5000e+000 77302 -1.1807e-001  3.1761e+000 -1.1428e+000 63920 77037,77253,77063
 1.5000e+000 77680 -5.5097e+000  3.5074e+000  1.1636e+001 63316 77703,77484,77432
 1.5000e+000 77657 -7.3830e+000  1.2290e+000  9.9534e+000 63316 77703,77432,77406
 1.5000e+000 77634 -1.5298e+001 -4.3168e+000  9.6828e+000 63316 77406,77536,77510
 1.5000e+000 77611  4.5815e+000  2.9371e+000  1.5115e+001 63316 77432,77484,77458
 1.5000e+000 77588 -3.1732e+000  2.8130e+000  2.9926e+000 63316 77406,77562,77536
 1.5000e+000 77729 -3.7042e+000 -1.0227e-001  9.8035e+000 63316 77510,77484,77703
 1.5000e+000 77752 -6.2901e+000 -1.3759e+000  7.8312e+000 63316 77510,77703,77406
 1.5000e+000 78000 -1.0251e+001 -7.4183e-001 -2.3050e-001 62812 77801,77853,77827
 1.5000e+000 77977 -6.4342e+000  2.4827e+000 -1.9943e+000 62812 77801,77879,77853
 1.5000e+000 77954 -1.1173e+001  4.8789e-001 -1.9548e+000 62812 77801,77905,77879
 1.5000e+000 77931 -4.0111e+000  8.6835e-001 -2.4207e+000 62812 77775,77905,77801
 1.5000e+000 78380 -1.0821e+001 -5.4456e+000  7.8895e-001 62350 78184,78262,78236
 1.5000e+000 78357 -7.6747e+000 -5.3133e+000  1.7546e+000 62350 78132,78262,78184
 1.5000e+000 78334 -6.7129e+000 -4.9416e+000  1.1965e+000 62350 78106,78262,78132
 1.5000e+000 78311 -8.2115e+000 -4.3721e+000  2.4179e+000 62350 78132,78184,78158
 1.5000e+000 78288 -9.0621e+000 -3.8439e+000 -2.5306e-002 62350 78184,78236,78210
 1.5000e+000 78837  4.7251e+000  7.5533e+000  1.8804e+000 61946 78615,78667,78641
 1.5000e+000 78814  2.2744e+000  4.2102e+000 -1.7173e+000 61946 78589,78667,78615
 1.5000e+000 78791  3.0840e+000  5.0140e-001  1.7869e-001 61946 78589,78719,78667
 1.5000e+000 78768  6.6178e+000  3.9565e+000 -2.1119e+000 61946 78667,78719,78693
 1.5000e+000 78745  4.1927e+000  2.6445e+000  1.2396e+000 61946 78563,78719,78589
 1.5000e+000 78987  4.6959e+000 -3.2149e+000 -1.6592e-001 61335 79010,78886,78860
 1.5000e+000 78964  8.7080e-001  3.6884e-001  1.1121e+000 61335 79010,78860,78938
 1.5000e+000 79036  6.6664e-001 -5.2820e+000  1.6542e+000 61335 79082,79010,78912
 1.5000e+000 79059 -2.8172e+000 -3.5312e+000 -5.0434e-001 61335 78912,79010,78938
 1.5000e+000 79108  9.5426e-001 -4.0243e+000 -6.9049e-001 61335 78886,79010,79082
 1.5000e+000 79437 -7.6613e+000 -2.0476e+000 -2.0974e+000 60888 79460,79238,79212
 1.5000e+000 79414 -8.0329e+000 -2.6642e+000 -1.7835e+000 60888 79460,79212,79342
 1.5000e+000 79391 -7.5632e+000 -2.6238e+000 -1.1677e+000 60888 79532,79264,79238
 1.5000e+000 79368 -5.6066e+000  1.9897e+000  1.7255e+000 60888 79264,79316,79290
 1.5000e+000 79486 -7.8352e+000 -2.0539e+000 -1.6078e+000 60888 79532,79238,79460
 1.5000e+000 79509 -8.3778e+000 -2.5434e+000 -1.6047e+000 60888 79316,79460,79342
 1.5000e+000 79558 -8.0617e+000 -3.7523e+000 -1.0839e+000 60888 79316,79264,79532
 1.5000e+000 79581 -8.2137e+000 -3.0321e+000 -1.6844e+000 60888 79316,79532,79460
 1.5000e+000 79878 -1.8208e+001 -8.5094e+000 -1.4976e+000 60484 79682,79760,79734
 1.5000e+000 79855 -2.4668e+001 -1.9077e+001  4.2529e+000 60484 79656,79760,79682
 1.5000e+000 79832 -2.2481e+001 -1.7811e+001  4.8140e+000 60484 79604,79760,79656
 1.5000e+000 79809 -2.1564e+001 -2.6776e+001  7.5381e+000 60484 79604,79656,79630
 1.5000e+000 79786 -9.4444e+000 -4.5824e+000  9.7771e-001 60484 79682,79734,79708
 1.5000e+000 80101 -1.7331e+000 -2.5599e+000 -8.1207e-001 60022 79951,80029,80003
 1.5000e+000 80078 -3.4148e+000 -2.0201e+000 -4.8439e-001 60022 79925,80029,79951
 1.5000e+000 80055 -2.5940e+000 -2.6642e+000 -1.1686e-001 60022 79951,80003,79977
 1.5000e+000 80351 -8.4903e-001 -7.7759e-001  2.9431e+000 59625 80152,80256,80204
 1.5000e+000 80328 -2.0487e+000  2.5817e+000  5.0177e+000 59625 80126,80256,80152
 1.5000e+000 80305  8.8461e-001  3.7304e+000  3.5910e+000 59625 80204,80256,80230
 1.5000e+000 80282  1.3548e+000 -3.8707e-001  2.5586e+000 59625 80152,80204,80178
 1.5000e+000 80552  8.4860e+000  2.0766e+000 -2.1802e+000 59121 80575,80402,80376
 1.5000e+000 80529  9.7268e+000 -3.7302e+000 -3.4989e+000 59121 80575,80376,80480
 1.5000e+000 80506  1.9667e+001  3.7099e+000  6.6922e+000 59121 80428,80480,80454
 1.5000e+000 80601  9.1715e+000  5.8300e+000  1.0269e+000 59121 80428,80402,80575
 1.5000e+000 80624  1.0438e+001  3.1447e-001 -4.1082e-001 59121 80428,80575,80480
 1.5000e+000 81183  6.3626e+000  4.1136e+000  2.7705e+000 58553 81206,80863,80837
 1.5000e+000 81160  5.2703e+000  7.4853e+000  2.1525e+000 58553 81350,81206,80837
 1.5000e+000 81137  4.7110e+000  1.0959e+000  2.6055e+000 58553 81278,80915,80863
 1.5000e+000 81114  3.2001e+000  6.4280e+000  5.9257e-001 58553 81350,80837,80811
 1.5000e+000 81091  8.4962e+000 -7.4748e-001  2.0692e+000 58553 81422,80967,80941
 1.5000e+000 81068  8.6617e+000 -2.3348e-001  1.4409e+000 58553 80967,81019,80993
 1.5000e+000 81045  3.8272e+000  5.4016e-001  3.0153e+000 58553 80863,80915,80889
 1.5000e+000 81232  4.4243e+000  2.9221e+000  1.4950e+000 58553 81278,80863,81206
 1.5000e+000 81255  7.9365e+000  2.2717e+000  1.1811e+000 58553 81422,80941,81206
 1.5000e+000 81304  4.5050e+000 -3.3152e+000  3.9304e+000 58553 80941,80915,81278
 1.5000e+000 81327  5.8462e+000 -2.9055e-001  2.2945e+000 58553 80941,81278,81206
 1.5000e+000 81376  3.8222e+000  4.9612e+000  8.5000e-001 58553 81019,81206,81350
 1.5000e+000 81399  3.6200e+000  4.9892e+000 -4.4681e-001 58553 81019,81350,80811
 1.5000e+000 81448  9.7775e+000  1.9979e+000  9.8260e-001 58553 81019,80967,81422
 1.5000e+000 81471  8.7349e+000  3.8874e+000 -3.8204e-002 58553 81019,81422,81206
 1.5000e+000 81768 -2.5990e+000 -3.6257e+000  1.0626e-001 57877 81791,81572,81520
 1.5000e+000 81745 -1.3991e+000 -3.1071e+000 -3.4081e-002 57877 81791,81520,81494
 1.5000e+000 81722 -2.8602e+000 -3.2380e+000  7.1326e-001 57877 81863,81650,81598
 1.5000e+000 81699 -2.6503e+000 -2.8143e+000  4.6745e-001 57877 81598,81650,81624
 1.5000e+000 81676 -2.5987e+000 -4.3787e+000  2.1196e-001 57877 81520,81572,81546
 1.5000e+000 81817 -2.0890e+000 -2.6784e+000  3.2582e-001 57877 81598,81572,81791
 1.5000e+000 81840 -2.6515e+000 -3.2381e+000  5.6242e-001 57877 81863,81598,81791
 1.5000e+000 81889 -2.2962e+000 -4.2756e+000  9.5966e-001 57877 81494,81650,81863
 1.5000e+000 81912 -1.6258e+000 -3.7164e+000  6.0199e-001 57877 81494,81863,81791
 1.5000e+000 82160  1.7030e+000  2.6974e+000  2.0275e+000 57473 81935,82039,82013
 1.5000e+000 82137  6.6365e+000  4.5759e+000  1.1715e+000 57473 81935,82065,82039
 1.5000e+000 82114  2.3319e+000  3.4562e+000  1.6062e+000 57473 81935,82013,81961
 1.5000e+000 82091  2.0610e+000  2.8737e+000  1.8229e+000 57473 81961,82013,81987
 1.5000e+000 82719 -1.7070e+000 -3.0232e-001  3.4758e+000 56962 82814,82742,82425
 1.5000e+000 82696 -1.6850e+000 -1.2453e+000  5.1826e+000 56962 82742,82347,82555
 1.5000e+000 82673 -9.0437e-002 -5.6238e-001  3.3427e+000 56962 82814,82425,82399
 1.5000e+000 82650 -5.6846e+000  2.2742e+000  3.9943e-001 56962 82425,82477,82451
 1.5000e+000 82627 -2.7924e+000  4.2525e+000  2.3010e+000 56962 82425,82529,82477
 1.5000e+000 82604 -4.1813e+000  8.7767e+000  5.1429e+000 56962 82477,82529,82503
 1.5000e+000 82581 -1.1776e-001 -4.0438e+000  4.4617e+000 56962 82347,82399,82373
 1.5000e+000 82768 -2.0931e+000 -1.3140e-001  4.0308e+000 56962 82529,82425,82742
 1.5000e+000 82791 -4.3111e-001  2.0504e+000  5.1534e+000 56962 82529,82742,82555
 1.5000e+000 82840  8.3404e-002 -2.2844e-001  4.2321e+000 56962 82347,82742,82814
 1.5000e+000 82863  1.1824e+000 -8.1662e-001  4.2284e+000 56962 82347,82814,82399
 1.5000e+000 83467 -7.0701e+000  3.4286e+000 -7.9573e+000 56300 83124,83176,83150
 1.5000e+000 83444 -1.2088e+000  2.3948e+000 -2.5637e+000 56300 83490,83176,83124
 1.5000e+000 83421  1.2749e+000  3.9102e+000 -1.9178e+000 56300 83490,83124,83280
 1.5000e+000 83398  3.8674e+000  9.4801e+000 -1.9819e+000 56300 83202,83280,83254
 1.5000e+000 83375  2.4710e+000  7.7198e+000 -2.4278e+000 56300 83046,83280,83124
 1.5000e+000 83352  1.4287e+000  6.3897e+000 -1.9214e+000 56300 83046,83124,83098
 1.5000e+000 83329  1.6021e+000  1.8539e+000 -1.3724e+000 56300 83202,83254,83228
 1.5000e+000 83306  4.2409e+000  1.2110e+001 -9.9524e-001 56300 83046,83098,83072
 1.5000e+000 83516 -3.3131e+000  4.4383e+000 -6.5018e-001 56300 83202,83176,83490
 1.5000e+000 83539 -8.6090e-001  5.6145e+000 -2.6153e-001 56300 83202,83490,83280
 1.5000e+000 83787 -4.4728e+000 -2.7121e+000  9.5333e-001 55960 83588,83692,83666
 1.5000e+000 83764 -6.5467e+000  3.4624e+000  3.7555e+000 55960 83562,83692,83588
 1.5000e+000 83741 -1.2793e+000 -2.9840e+000  2.1201e+000 55960 83588,83666,83614
 1.5000e+000 83718 -5.1182e+000 -2.3188e+000  2.4717e+000 55960 83614,83666,83640
 1.5000e+000 83937  2.1448e-001 -1.3300e+000 -2.5130e+000 55499 83810,83862,83836
 1.5000e+000 83914 -5.0825e+000  2.3442e-001 -2.0771e+000 55499 83810,83888,83862
 1.5000e+000 84138 -3.4794e+000 -9.2513e+000  1.2851e+000 55152 83988,84066,84040
 1.5000e+000 84115  1.9736e+000  3.3136e+000  7.0200e-001 55152 83962,84066,83988
 1.5000e+000 84092  3.3376e+000  4.4833e+000  5.8003e+000 55152 83988,84040,84014
 1.5000e+000 84471 -8.9226e+000  8.6101e+000  1.0842e+001 54648 84324,84376,84350
 1.5000e+000 84448 -1.0586e+001 -5.9502e+000  1.1141e+001 54648 84272,84376,84324
 1.5000e+000 84425 -1.4949e+001 -1.9328e+001  1.1574e+001 54648 84246,84376,84272
 1.5000e+000 84402 -1.4737e+001 -7.7387e+000  1.1005e+001 54648 84272,84324,84298
 1.5000e+000 84849 -2.9673e+000 -4.8454e+000  1.0779e+000 53922 84627,84731,84705
 1.5000e+000 84826 -1.1755e+000 -3.2321e+000  1.9008e+000 53922 84575,84731,84627
 1.5000e+000 84803 -9.3148e-001 -3.0113e+000  1.4694e+000 53922 84575,84627,84601
 1.5000e+000 84780 -1.2470e+000 -4.4682e+000  1.9198e+000 53922 84627,84705,84653
 1.5000e+000 84757 -1.6825e+000 -4.7748e+000  1.7699e+000 53922 84653,84705,84679
 1.5000e+000 85581 -1.2406e+001 -1.5596e+000  1.5600e+000 53582 85604,85111,85319
 1.5000e+000 85558 -2.8450e+000 -3.5048e+000  2.4939e+000 53582 85111,85345,85319
 1.5000e+000 85535 -7.6806e+000  9.8639e-001  3.2717e+000 53582 85604,85319,85293
 1.5000e+000 85512 -5.7322e+000  2.4618e+000  1.3339e+001 53582 85241,85293,85267
 1.5000e+000 85489 -1.2141e+001  1.2412e+000  6.3992e+000 53582 85676,85241,85189
 1.5000e+000 85466 -6.3532e+000  2.2753e+000  3.0101e+000 53582 85676,85189,85137
 1.5000e+000 85443 -1.5802e+001  7.9340e+000  7.3029e+000 53582 85189,85241,85215
 1.5000e+000 85420 -5.3930e+000  1.3321e+001  2.4839e+000 53582 85137,85189,85163
 1.5000e+000 85397 -4.4108e+000  2.8519e-002  3.3731e-001 53582 85111,85371,85345
 1.5000e+000 85630 -1.2290e+001  2.6010e+000  5.6776e+000 53582 85137,85111,85604
 1.5000e+000 85653 -9.7174e+000  1.6666e+000  6.4326e+000 53582 85748,85604,85293
 1.5000e+000 85702 -1.3709e+001 -2.6580e+000  1.0135e+001 53582 85293,85241,85676
 1.5000e+000 85725 -9.1798e+000  1.4373e+000  6.3088e+000 53582 85748,85293,85676
 1.5000e+000 85774 -8.9341e+000  1.9248e+000  6.6871e+000 53582 85137,85604,85748
 1.5000e+000 85797 -8.5673e+000  1.5706e+000  6.5660e+000 53582 85137,85748,85676
 1.5000e+000 86303  6.9814e+000  4.5755e+000  1.7928e+000 53178 86326,86084,86006
 1.5000e+000 86280  6.3631e+000  3.5783e+000  2.0630e+000 53178 86326,86006,86162
 1.5000e+000 86257  1.0002e+001  8.0824e+000 -1.2776e+000 53178 86398,86110,86084
 1.5000e+000 86234  6.7010e+000  3.1619e+000  6.5736e-001 53178 86006,86058,86032
 1.5000e+000 86211  6.4314e+000  3.8190e+000  1.2857e+000 53178 86006,86084,86058
 1.5000e+000 86188  2.7796e+000  6.0949e-001  6.3202e+000 53178 85980,86162,86006
 1.5000e+000 86352  5.9981e+000  4.8571e+000  1.9431e+000 53178 86398,86084,86326
 1.5000e+000 86375  5.9731e-001  5.9560e+000  1.1946e+000 53178 86136,86326,86162
 1.5000e+000 86424  9.7062e+000  1.0176e+001 -4.0667e+000 53178 86136,86110,86398
 1.5000e+000 86447  7.8137e+000  1.1191e+001 -1.0932e+000 53178 86136,86398,86326
 1.5000e+000 86904  6.2994e-001  1.4187e+001  3.8205e-002 52774 86708,86760,86734
 1.5000e+000 86881  4.8648e-001  8.1177e+000 -2.4181e+000 52774 86656,86760,86708
 1.5000e+000 86858  6.0251e+000  8.1633e+000 -1.0577e+000 52774 86656,86708,86682
 1.5000e+000 86835  4.6977e+000  8.8082e+000 -1.3172e+000 52774 86630,86760,86656
 1.5000e+000 86812  4.3674e+000  8.0511e+000 -4.5696e-002 52774 86630,86786,86760
 1.5000e+000 87489  2.0891e+000  1.5257e+001  4.4135e+000 52234 87512,87218,87192
 1.5000e+000 87466 -4.9791e-001  1.1491e+001  1.3345e+000 52234 87512,87192,87348
 1.5000e+000 87443 -9.4230e-001  9.5893e+000  1.1901e+000 52234 87166,87348,87192
 1.5000e+000 87420 -4.7262e+000  8.2164e+000  2.9324e-001 52234 87296,87348,87322
 1.5000e+000 87397 -9.3014e-001  7.8744e+000  1.5797e+000 52234 87218,87296,87270
 1.5000e+000 87374  2.5638e+000  8.1565e+000  2.2398e+000 52234 87218,87270,87244
 1.5000e+000 87538 -8.5425e-002  9.6013e+000  2.1675e+000 52234 87296,87218,87512
 1.5000e+000 87561 -1.0185e+000  9.3664e+000 -8.2083e-001 52234 87296,87512,87348
 1.5000e+000 87841  1.5058e+000  1.4854e+001 -4.6369e-002 51830 87665,87743,87691
 1.5000e+000 87818  4.2705e+000  1.6337e+001  7.4619e-001 51830 87665,87769,87743
 1.5000e+000 87795 -6.6532e+000  9.3104e+000 -3.4725e+000 51830 87864,87691,87743
 1.5000e+000 87890 -1.6507e+001  5.0863e+000 -3.9080e+000 51830 87717,87691,87864
 1.5000e+000 88418 -6.2933e+000 -4.3875e+000  4.5272e+000 51262 88095,88173,88121
 1.5000e+000 88395 -6.7966e+000 -8.6052e-001  4.0668e+000 51262 88095,88251,88173
 1.5000e+000 88372 -1.1041e+001 -3.9991e+000  1.1979e+000 51262 88173,88251,88199
 1.5000e+000 88349 -1.0278e+001  6.9769e+000  9.3839e+000 51262 88095,88277,88251
 1.5000e+000 88326 -2.8358e+000  3.8458e+000  4.5812e+000 51262 88199,88251,88225
 1.5000e+000 88303 -4.2798e+000 -6.8597e-001  3.7548e+000 51262 88121,88173,88147
 1.5000e+000 88875 -2.0706e+000  6.4707e+000 -5.3186e+000 50750 88601,88731,88627
 1.5000e+000 88852 -4.6000e+000  1.3657e+001 -6.5951e+000 50750 88601,88757,88731
 1.5000e+000 88829  1.1302e+000  1.1958e+001  4.0656e-001 50750 88627,88731,88653
 1.5000e+000 88806  4.1162e-001  9.7002e+000  5.4864e-001 50750 88653,88731,88705
 1.5000e+000 88783 -1.5164e+001  5.5403e-001 -5.1606e+000 50750 88653,88705,88679
 1.5000e+000 89145 -3.4783e+000 -5.4854e+000  4.4531e-001 50438 88946,89024,88972
 1.5000e+000 89122 -2.7683e+000 -4.9797e+000  1.9847e-001 50438 88946,89050,89024
 1.5000e+000 89099 -3.1523e+000 -5.0163e+000  1.8122e-001 50438 88920,89050,88946
 1.5000e+000 89076 -4.1494e+000 -5.9609e+000  3.0974e-002 50438 88972,89024,88998
 1.5000e+000 89525 -3.2383e+000 -5.6965e+000  5.5044e-001 49934 89548,89277,89251
 1.5000e+000 89502 -3.3787e+000 -5.7867e+000  6.1839e-001 49934 89548,89251,89381
 1.5000e+000 89479 -3.0497e+000 -5.5885e+000  9.3708e-001 49934 89303,89381,89329
 1.5000e+000 89456 -3.3212e+000 -5.3054e+000  6.9068e-002 49934 89251,89407,89381
 1.5000e+000 89433 -2.7799e+000 -4.7196e+000  9.1922e-001 49934 89329,89381,89355
 1.5000e+000 89574 -3.3356e+000 -4.5821e+000  4.4840e-001 49934 89303,89277,89548
 1.5000e+000 89597 -3.6888e+000 -5.6401e+000  7.5531e-001 49934 89303,89548,89381
 1.5000e+000 90054 -6.4950e+000 -3.7572e+000  1.7899e+000 49380 89832,89936,89910
 1.5000e+000 90031 -6.2254e+000 -4.3620e+000  2.3921e+000 49380 89780,89936,89832
 1.5000e+000 90008 -3.1362e+000 -3.8352e+000  1.3764e+000 49380 89780,89832,89806
 1.5000e+000 89985 -5.0995e+000 -2.8265e+000  2.1994e+000 49380 89832,89910,89858
 1.5000e+000 89962 -3.6009e+000  3.5038e+000  5.0684e+000 49380 89858,89910,89884
 1.5000e+000 90560 -4.4908e+000 -4.2267e+000  2.4085e+000 48890 90289,90341,90315
 1.5000e+000 90537 -5.5387e+000 -4.6942e+000  1.7075e+000 48890 90289,90393,90341
 1.5000e+000 90514 -4.8051e+000 -3.2667e+000  2.0774e+000 48890 90263,90393,90289
 1.5000e+000 90491 -2.2914e+000 -2.1716e+000  1.9238e+000 48890 90237,90393,90263
 1.5000e+000 90468 -5.3196e+000 -1.5465e+000  1.9163e+000 48890 90341,90393,90367
 1.5000e+000 90445 -2.2692e+000 -2.2430e+000  2.0408e+000 48890 90237,90419,90393
 1.5000e+000 91115 -4.7012e+000 -4.9530e+000 -2.8173e-001 48486 90795,90873,90847
 1.5000e+000 91092 -5.2777e+000 -5.1432e+000 -2.2309e-001 48486 90795,90925,90873
 1.5000e+000 91069 -4.7077e+000 -4.7266e+000  4.4352e-002 48486 90769,90925,90795
 1.5000e+000 91046 -7.0695e+000 -5.6030e+000  3.4541e-001 48486 90769,90951,90925
 1.5000e+000 91023 -5.4072e+000 -5.7334e+000  5.8888e-001 48486 90795,90847,90821
 1.5000e+000 91000 -6.1693e+000 -8.3006e+000 -1.4717e+000 48486 90873,90925,90899
 1.5000e+000 90977 -3.0314e+000 -3.6234e+000  1.0163e+000 48486 90743,90951,90769
 1.5000e+000 91265 -2.1245e+000 -5.9065e-001  4.5884e-001 48082 91288,91190,91164
 1.5000e+000 91242 -2.9358e+000 -3.3410e+000  7.7179e-001 48082 91360,91288,91164
 1.5000e+000 91314 -2.7181e+000 -2.1658e+000  1.4686e+000 48082 91216,91190,91288
 1.5000e+000 91337 -1.9888e+000 -3.2688e+000  1.8395e+000 48082 91216,91288,91138
 1.5000e+000 91386 -1.4092e+000 -2.2083e+000  1.4288e+000 48082 91138,91288,91360
 1.5000e+000 92022  2.8710e+000 -3.7654e+000 -1.4100e+001 47514 92261,92045,91754
 1.5000e+000 91999 -1.2920e+000  9.1438e-001  9.5288e-001 47514 92189,92045,91702
 1.5000e+000 91976 -5.8952e+000  1.0458e+001 -3.0470e+000 47514 92117,91806,91754
 1.5000e+000 91953  9.7102e-001  7.3972e+000 -7.6046e-002 47514 92189,91702,91650
 1.5000e+000 91930  1.8158e+001 -4.9901e+000 -1.2521e+001 47514 92261,91754,91728
 1.5000e+000 91907 -1.5470e+001  5.8257e+000 -6.0258e+000 47514 91754,91806,91780
 1.5000e+000 91884  8.2381e+000  7.8265e+000 -2.7858e+000 47514 91650,91702,91676
 1.5000e+000 92071 -8.3008e+000  6.2046e+000 -8.7928e+000 47514 92117,91754,92045
 1.5000e+000 92094  9.9808e-002  9.8587e-001 -4.2827e+000 47514 91832,92045,91858
 1.5000e+000 92143 -5.2822e-001  1.3482e+001  2.4761e+000 47514 91832,91806,92117
 1.5000e+000 92166 -5.1674e-001  5.8828e+000 -3.4077e+000 47514 91832,92117,92045
 1.5000e+000 92215 -5.4679e-001  6.4612e+000 -1.9026e+000 47514 91858,92045,92189
 1.5000e+000 92238 -3.2957e-001  9.7719e+000 -2.9105e+000 47514 91858,92189,91650
 1.5000e+000 92287  5.8049e+000 -2.1596e-001 -1.2747e+000 47514 91702,92045,92261
 1.5000e+000 92310  1.6209e+001 -1.2018e+000  1.7125e+000 47514 91702,92261,91728
 1.5000e+000 92460 -4.5892e+000  4.5835e+000  2.0163e+000 47124 92483,92359,92333
 1.5000e+000 92437 -3.0006e+000 -2.0973e+000 -1.4334e+000 47124 92555,92483,92333
 1.5000e+000 92509 -2.2459e+000  7.0364e+000  4.6409e+000 47124 92685,92483,92385
 1.5000e+000 92532 -6.3500e-002  2.0876e+000  1.3205e+000 47124 92385,92483,92411
 1.5000e+000 92581 -1.7348e+000  1.1779e+000 -5.6981e-001 47124 92411,92483,92555
 1.5000e+000 92711 -1.2156e+000  6.8463e+000  4.8404e+000 47124 92359,92483,92685
 1.5000e+000 93571 -1.0109e+001 -5.2905e+000  1.8203e+000 46834 93594,93208,93104
 1.5000e+000 93548 -1.1345e+001 -5.9710e+000  2.5071e+000 46834 93738,93594,93104
 1.5000e+000 93525 -1.4789e+001 -1.3121e+001 -2.1999e+000 46834 93666,93234,93208
 1.5000e+000 93502 -8.0123e+000 -4.9651e+000  2.8232e+000 46834 93738,93104,93078
 1.5000e+000 93479 -1.3736e+001 -6.6028e+000  1.0275e+000 46834 93810,93260,93234
 1.5000e+000 93456 -6.8240e+000 -5.4071e+000  1.7466e+000 46834 93104,93182,93156
 1.5000e+000 93433 -9.1528e+000 -1.0738e+001  1.2388e+000 46834 93104,93208,93182
 1.5000e+000 93410 -2.0815e+001 -3.7334e+000  5.0623e+000 46834 93286,93338,93312
 1.5000e+000 93387 -1.1581e+001 -5.4003e+000  2.6467e+000 46834 93052,93338,93078
 1.5000e+000 93364 -7.2082e+000 -3.6181e+000  8.4790e-001 46834 93104,93156,93130
 1.5000e+000 93620 -1.2220e+001 -7.5780e+000  4.1832e-001 46834 93666,93208,93594
 1.5000e+000 93643 -1.3245e+001 -1.9692e+000  2.6866e+000 46834 93286,93594,93338
 1.5000e+000 93692 -1.4321e+001 -6.4446e+000  3.3724e-001 46834 93810,93234,93666
 1.5000e+000 93715 -1.4465e+001 -2.6936e+000  8.7242e-001 46834 93286,93666,93594
 1.5000e+000 93764 -1.3951e+001 -4.5368e+000  3.1336e+000 46834 93338,93594,93738
 1.5000e+000 93787 -1.2900e+001 -5.1989e+000  3.1770e+000 46834 93338,93738,93078
 1.5000e+000 93836 -1.2112e+001 -6.0042e+000  1.1984e+000 46834 93286,93260,93810
 1.5000e+000 93859 -1.2784e+001 -5.8644e+000  5.3643e-001 46834 93286,93810,93666
 1.5000e+000 94210 -5.4936e+000 -6.5622e+000  1.7162e-001 46472 94011,94115,94089
 1.5000e+000 94187 -5.3914e+000 -7.6226e+000  3.8558e-001 46472 93985,94115,94011
 1.5000e+000 94164 -5.1008e+000 -4.9514e+000 -3.8998e-002 46472 94037,94089,94063
 1.5000e+000 94141 -5.6523e+000 -6.5380e+000 -6.4729e-003 46472 94011,94089,94037
 1.5000e+000 94746  2.9663e+000  7.4570e+000 -1.8372e-001 46068 94576,94628,94602
 1.5000e+000 94723 -4.4460e-001  6.0316e+000 -3.0501e-001 46068 94498,94628,94576
 1.5000e+000 94700  6.9187e+000  1.0931e+001 -4.2543e+000 46068 94472,94628,94498
 1.5000e+000 94677  1.1462e+001  9.6512e+000 -9.1363e-001 46068 94524,94576,94550
 1.5000e+000 94654  6.1772e+000  7.1686e+000  2.4487e+000 46068 94498,94576,94524
 1.5000e+000 95380  1.4110e+001  1.0564e+000  2.1317e+000 45342 95034,95112,95086
 1.5000e+000 95357 -8.2822e-001 -1.2195e+000  2.4317e+000 45342 95034,95190,95112
 1.5000e+000 95334  1.9890e+001 -4.2518e+000 -3.1999e+000 45342 95403,95164,95138
 1.5000e+000 95311  9.1739e+000  1.8836e+000  1.5895e+000 45342 95403,95138,95112
 1.5000e+000 95288  1.3613e+001 -3.7725e+000  4.2375e-001 45342 95034,95216,95190
 1.5000e+000 95265  1.0359e+001  2.3661e+000  4.8994e+000 45342 95034,95086,95060
 1.5000e+000 95242  1.5180e+001  1.4847e-002  6.2879e-001 45342 95008,95216,95034
 1.5000e+000 95429  1.0348e+001 -5.9152e+000 -4.7797e+000 45342 95190,95164,95403
 1.5000e+000 95452  4.8651e-001  4.8344e-001 -1.9933e+000 45342 95190,95403,95112
 1.5000e+000 96007 -9.6842e+000 -5.7367e+000 -8.5037e-001 44716 96030,95791,95765
 1.5000e+000 95984 -4.4979e+000 -8.5165e+000 -1.5780e+000 44716 96030,95765,95713
 1.5000e+000 95961 -1.6428e+000 -5.6482e+000 -1.9607e-001 44716 96174,96102,95661
 1.5000e+000 95938 -1.6674e+000 -5.3305e+000 -1.2674e-001 44716 96174,95661,95635
 1.5000e+000 95915 -3.9115e+000 -5.7990e+000  2.7433e+000 44716 95661,95713,95687
 1.5000e+000 95892  4.0139e+000 -5.5191e+000 -2.6408e+000 44716 95713,95765,95739
 1.5000e+000 95869  1.1473e+000 -2.8311e+000 -1.4336e+000 44716 95635,95843,95817
 1.5000e+000 96056 -4.6745e+000 -4.6799e+000 -2.6583e-001 44716 95817,95791,96030
 1.5000e+000 96079 -4.4659e+000 -6.5878e+000 -1.7348e+000 44716 96102,95817,96030
 1.5000e+000 96128 -2.5348e-001 -3.9022e+000  1.8537e+000 44716 95713,95661,96102
 1.5000e+000 96151 -5.3833e-001 -5.9520e+000  2.6834e-001 44716 95713,96102,96030
 1.5000e+000 96200 -1.6123e+000 -5.1951e+000 -1.9789e-001 44716 95817,96102,96174
 1.5000e+000 96223 -1.6676e+000 -4.9691e+000 -6.9095e-002 44716 95817,96174,95635
 1.5000e+000 96680  4.3056e+000  9.5748e+000 -2.4909e+000 44198 96775,96703,96458
 1.5000e+000 96657  5.9510e+000  1.7623e+000 -4.5324e+000 44198 96703,96406,96562
 1.5000e+000 96634  7.6816e+000  1.2012e+001 -3.5706e+000 44198 96775,96458,96432
 1.5000e+000 96611  6.7542e+000  6.7555e+000 -4.9901e+000 44198 96484,96536,96510
 1.5000e+000 96588 -2.4754e+000  6.2822e+000  3.5976e-001 44198 96458,96536,96484
 1.5000e+000 96729 -1.8674e+000  8.7256e-001  1.0301e+000 44198 96536,96458,96703
 1.5000e+000 96752  5.4936e+000  8.5413e-001 -4.8290e+000 44198 96536,96703,96562
 1.5000e+000 96801  1.0224e+001  2.4574e+000 -2.1977e+000 44198 96406,96703,96775
 1.5000e+000 96824  1.5240e+001  7.0586e+000 -4.1602e+000 44198 96406,96775,96432
 1.5000e+000 97202 -6.7198e+000 -7.8538e+000  2.2670e+000 43750 97225,96980,96928
 1.5000e+000 97179 -5.9829e+000 -8.7021e+000  2.8796e+000 43750 97225,96928,97084
 1.5000e+000 97156 -6.2042e+000 -7.8233e+000  1.9794e+000 43750 96928,96980,96954
 1.5000e+000 97133 -3.4967e+000 -4.4287e+000  1.8763e+000 43750 97006,97084,97058
 1.5000e+000 97110 -3.6241e+000 -3.7443e+000  2.0623e+000 43750 97006,97058,97032
 1.5000e+000 97251 -6.1068e+000 -6.5000e+000  2.3998e+000 43750 97006,96980,97225
 1.5000e+000 97274 -5.6303e+000 -7.8952e+000  2.9679e+000 43750 97006,97225,97084
 1.5000e+000 97522 -3.1150e+000  2.1408e+000 -7.1801e-001 43360 97545,97375,97349
 1.5000e+000 97499 -4.5045e+000 -1.4798e+000 -2.3193e+000 43360 97545,97349,97323
 1.5000e+000 97476 -3.4571e+000 -7.2535e-001 -5.1478e+000 43360 97617,97427,97401
 1.5000e+000 97453  2.9994e-001  8.6196e-002 -8.6610e+000 43360 97297,97427,97323
 1.5000e+000 97571 -8.6648e+000 -5.3809e+000  1.7115e+000 43360 97401,97375,97545
 1.5000e+000 97594 -3.8352e+000 -4.7444e+000 -2.3434e+000 43360 97617,97401,97545
 1.5000e+000 97643 -1.5719e+000  4.1022e+000 -6.9467e+000 43360 97323,97427,97617
 1.5000e+000 97666 -1.4300e+000  2.3403e+000 -3.7673e+000 43360 97323,97617,97545
 1.5000e+000 98019 -2.9928e+001 -1.0339e+000 -6.6679e+000 42956 97794,97898,97820
 1.5000e+000 97996 -2.6218e+001 -9.7738e+000 -4.5340e+000 42956 97794,97924,97898
 1.5000e+000 97973 -5.7153e+001  1.1236e+000 -1.6040e+000 42956 97820,97872,97846
 1.5000e+000 97950 -5.0197e+001 -3.7351e+000 -5.6116e+000 42956 97820,97898,97872
 1.5000e+000 98446 -8.8290e+000 -6.0496e+000  2.8625e+000 42559 98149,98305,98279
 1.5000e+000 98423 -5.6972e+000 -3.2959e+000  4.4243e+000 42559 98123,98305,98149
 1.5000e+000 98400 -6.3567e+000 -6.3224e+000  2.2299e+000 42559 98469,98175,98149
 1.5000e+000 98377 -3.0280e+000  1.3706e+000  1.7843e-002 42559 98469,98149,98279
 1.5000e+000 98354 -5.6296e+000 -2.3341e+000 -6.7361e-001 42559 98175,98253,98227
 1.5000e+000 98331 -5.5460e+000 -1.7369e+000 -3.8982e-002 42559 98175,98227,98201
 1.5000e+000 98495 -3.7178e+000 -1.0420e+000 -1.5913e+000 42559 98253,98175,98469
 1.5000e+000 98518 -2.9085e+000  1.7781e+000 -3.6843e+000 42559 98253,98469,98279
 1.5000e+000 98847  1.6100e+001  6.7704e-001 -2.9184e+000 42247 98674,98752,98700
 1.5000e+000 98824  8.1106e+000  6.8583e+000  3.0089e+000 42247 98648,98752,98674
 1.5000e+000 98801  7.9131e+000  7.2780e+000  1.0423e+001 42247 98622,98752,98648
 1.5000e+000 98778  1.8066e+001 -1.9922e+000  2.7258e+000 42247 98700,98752,98726
 1.5000e+000 99117 -7.0605e+000 -9.5374e+000 -2.0765e-001 41843 98892,98996,98918
 1.5000e+000 99094 -7.7047e+000 -8.7757e+000 -9.0521e-001 41843 98892,99022,98996
 1.5000e+000 99071 -5.4323e+000 -6.5360e+000  5.0998e-001 41843 98918,98996,98970
 1.5000e+000 99048 -7.8139e+000 -7.1886e+000  1.4721e-001 41843 98918,98970,98944
 1.5000e+000 99625  4.3362e-001  1.1203e+001  5.3562e+000 41232 99648,99380,99354
 1.5000e+000 99602  7.1746e+000  1.1580e+001  3.9656e+000 41232 99648,99354,99328
 1.5000e+000 99579  7.0467e+000  1.5783e+001  7.9887e+000 41232 99720,99432,99380
 1.5000e+000 99556 -1.7442e+000  8.4109e+000  1.4854e+000 41232 99380,99432,99406
 1.5000e+000 99533  6.4547e+000  2.0152e+000  3.0686e+000 41232 99328,99484,99458
 1.5000e+000 99510  2.0440e+001  5.5941e+000  3.6390e+000 41232 99302,99484,99328
 1.5000e+000 99674  2.0296e+000  1.3786e+001  6.5503e+000 41232 99720,99380,99648
 1.5000e+000 99697  4.5102e+000  1.4027e+000  3.2206e+000 41232 99458,99648,99328
 1.5000e+000 99746  1.3658e+001  1.3136e+001  1.0504e+001 41232 99458,99432,99720
 1.5000e+000 99769  9.7600e+000  1.1003e+001  8.4829e+000 41232 99458,99720,99648
 1.5000e+000 100275  9.3030e+000  2.0954e+000 -6.8289e+000 40728 99952,100004,99978
 1.5000e+000 100252  3.7693e+000 -6.3735e-001 -9.5128e+000 40728 99952,100030,100004
 1.5000e+000 100229 -3.8934e+000 -1.0585e+001 -6.1376e+000 40728 99952,100134,100030
 1.5000e+000 100206 -2.8629e-001  8.2694e-001 -7.0163e+000 40728 100298,100108,100082
 1.5000e+000 100183  3.5333e-001 -6.1606e+000 -8.0896e+000 40728 100298,100082,100030
 1.5000e+000 100160 -1.6217e+001 -5.7820e-002 -2.4795e+001 40728 100030,100082,100056
 1.5000e+000 100324 -6.8442e-001  6.4998e+000 -4.5739e+000 40728 100134,100108,100298
 1.5000e+000 100347 -6.5534e-001 -1.9400e+000 -5.0982e+000 40728 100134,100298,100030
 1.5000e+000 100853 -8.4385e+000  3.1894e+000  9.4447e-001 40274 100876,100686,100660
 1.5000e+000 100830 -6.8853e+000 -6.8315e-001  2.2988e+000 40274 100948,100876,100660
 1.5000e+000 100807 -8.6574e+000 -1.4430e+000  5.1068e-002 40274 100948,100660,100608
 1.5000e+000 100784 -8.3134e+000  1.9644e+000  3.1267e+000 40274 101020,100556,100712
 1.5000e+000 100761 -6.1584e+000  5.5126e+000  4.5237e+000 40274 100530,100712,100556
 1.5000e+000 100738 -8.9883e+000  2.0179e+000  1.7409e+000 40274 100608,100660,100634
 1.5000e+000 100902 -7.6672e+000  1.2019e+001  3.8644e+000 40274 100712,100686,100876
 1.5000e+000 100925 -9.7236e+000  2.3090e+000  1.9495e+000 40274 101020,100712,100876
 1.5000e+000 100974 -8.4550e+000 -2.9101e+000 -2.4926e-001 40274 100582,100876,100948
 1.5000e+000 100997 -1.1841e+001 -3.9276e+000 -2.5024e+000 40274 100582,100948,100608
 1.5000e+000 101046 -6.4997e+000  2.7245e+000  3.4863e+000 40274 100582,100556,101020
 1.5000e+000 101069 -7.5548e+000  3.0371e+000  2.1073e+000 40274 100582,101020,100876
 1.5000e+000 101496  6.5603e-001  6.1971e+000  4.4197e+000 39820 101519,101277,101225
 1.5000e+000 101473 -5.4412e+000 -3.2691e+000  1.8020e+000 39820 101519,101225,101199
 1.5000e+000 101450 -7.2931e+000  2.7300e-001  8.7785e+000 39820 101173,101355,101199
 1.5000e+000 101427  1.2410e+001  1.6345e+000 -6.1942e-001 39820 101277,101355,101303
 1.5000e+000 101404  4.3087e+000  4.6415e+000 -7.5706e-001 39820 101225,101277,101251
 1.5000e+000 101381  7.2541e+000  3.5749e+000 -1.8123e+000 39820 101303,101355,101329
 1.5000e+000 101545  3.2311e+000  8.7181e-001  8.3996e+000 39820 101355,101277,101519
 1.5000e+000 101568  8.5018e-001 -2.4526e+000  7.2877e+000 39820 101355,101519,101199
 1.5000e+000 101816 -6.6144e+000 -8.7034e+000  2.3971e+000 39066 101839,101695,101643
 1.5000e+000 101793 -8.1418e+000 -9.5635e+000  1.4485e+000 39066 101839,101643,101591
 1.5000e+000 101770 -5.1273e+000 -9.4910e+000  1.3067e+000 39066 101643,101695,101669
 1.5000e+000 101747 -5.7388e+000 -5.8132e+000  4.1757e-001 39066 101591,101643,101617
 1.5000e+000 101865 -5.2220e+000 -8.8660e+000  3.3887e+000 39066 101721,101695,101839
 1.5000e+000 101888 -6.6375e+000 -1.0032e+001  2.3174e+000 39066 101721,101839,101591
 1.5000e+000 102087 -8.9318e+000 -5.1920e+000 -3.4314e-001 38726 101937,101989,101963
 1.5000e+000 102064 -1.1613e+001 -7.6010e+000  6.7824e-001 38726 101937,102015,101989
 1.5000e+000 102041 -6.5176e+000 -5.4822e+000  1.0545e+000 38726 101911,102015,101937
 1.5000e+000 102337  7.3073e+000  5.4517e+000 -2.6523e+000 38322 102112,102190,102138
 1.5000e+000 102314  5.2607e-001  3.0897e+000  6.0779e+000 38322 102112,102216,102190
 1.5000e+000 102291  1.3961e+001 -3.7361e+000  1.1027e+001 38322 102112,102242,102216
 1.5000e+000 102268 -5.7858e+000  1.5756e+000 -1.8203e+000 38322 102138,102190,102164
 1.5000e+000 102489 -4.2120e+000 -1.6266e+000  1.3635e+000 38032 102512,102388,102362
 1.5000e+000 102466 -4.9206e+000  1.4166e+000 -2.0682e-001 38032 102512,102362,102440
 1.5000e+000 102538 -3.6414e+000 -4.1965e+000  9.8096e-001 38032 102414,102388,102512
 1.5000e+000 102561 -5.2077e+000 -2.4537e+000 -1.0965e+000 38032 102414,102512,102440
 1.5000e+000 102894 -1.2599e+000  1.2529e+001 -1.3161e+000 37592 102669,102773,102695
 1.5000e+000 102871  1.1170e+001  1.4752e+001 -7.4971e+000 37592 102669,102799,102773
 1.5000e+000 102848  8.4737e+000  2.2232e+001  5.1464e-001 37592 102721,102773,102747
 1.5000e+000 102825  2.0536e+000  2.2039e-001 -7.2644e-001 37592 102695,102773,102721
 1.5000e+000 103093  3.9732e+000  1.5630e+001 -2.8540e+000 37188 102917,102995,102943
 1.5000e+000 103070  2.3259e+000  1.8232e+001  1.1059e+000 37188 102917,103021,102995
 1.5000e+000 103047  6.6619e+000  1.1551e+001 -9.5305e-001 37188 102943,102995,102969
 1.5000e+000 103341  1.0036e+001  1.7631e+001  2.2066e+000 36605 103142,103194,103168
 1.5000e+000 103318  1.2507e+001  1.6543e+001  3.6450e+000 36605 103142,103220,103194
 1.5000e+000 103295  2.0177e+001  8.9984e+000 -7.3598e-001 36605 103116,103220,103142
 1.5000e+000 103272  2.7429e+001  2.0450e+001 -6.7477e+000 36605 103116,103246,103220
 1.5000e+000 103949 -8.0344e+000 -1.2508e+001 -1.7996e+000 36127 103554,103606,103580
 1.5000e+000 103926 -1.2082e+001 -7.7605e+000 -3.0637e+000 36127 103528,103606,103554
 1.5000e+000 103903 -9.9499e+000 -4.8753e+000 -5.5449e+000 36127 103528,103736,103606
 1.5000e+000 103880 -1.0539e+001 -9.7742e+000 -5.4757e+000 36127 103972,103710,103632
 1.5000e+000 103857 -1.3609e+001 -1.6720e+001 -1.0679e+001 36127 103972,103632,103606
 1.5000e+000 103834 -7.0051e+000 -9.7711e+000 -4.1559e+000 36127 103632,103710,103658
 1.5000e+000 103811 -1.7622e+001 -2.9464e-001 -1.1869e+001 36127 103528,103762,103736
 1.5000e+000 103788 -4.2759e+000 -1.7001e-001 -5.0554e-001 36127 103658,103710,103684
 1.5000e+000 103998 -6.3059e+000 -3.3357e+000 -4.4358e-001 36127 103736,103710,103972
 1.5000e+000 104021 -9.9344e+000 -9.9273e+000 -5.7984e+000 36127 103736,103972,103606
 1.5000e+000 104220 -1.8701e+001  2.1714e+000  3.8553e+000 35787 104070,104148,104122
 1.5000e+000 104197 -1.8350e+001  2.4563e+001  8.7301e+000 35787 104044,104148,104070
 1.5000e+000 104174 -1.0732e+001  6.5103e+000  2.1587e+000 35787 104070,104122,104096
 1.5000e+000 104419 -6.1826e+000  6.9158e-001  7.6056e-001 35440 104269,104321,104295
 1.5000e+000 104396 -2.7560e+000  2.8593e+000  2.1082e+000 35440 104269,104347,104321
 1.5000e+000 104373 -5.6836e+000 -2.6555e-003  9.3440e-001 35440 104243,104347,104269
 1.5000e+000 104718 -3.9045e+000  6.1455e+000 -2.8494e+000 34986 104496,104548,104522
 1.5000e+000 104695 -4.8415e+000  5.9146e+000 -2.9931e+000 34986 104741,104548,104496
 1.5000e+000 104672 -8.2262e-001  6.5259e+000 -2.4466e+000 34986 104741,104496,104444
 1.5000e+000 104649 -6.8052e+000  6.8925e+000  4.4805e-001 34986 104813,104574,104548
 1.5000e+000 104626 -4.3779e-001  7.8865e+000 -7.6377e-001 34986 104444,104496,104470
 1.5000e+000 104767 -7.0118e+000  6.7743e+000 -1.5981e+000 34986 104813,104548,104741
 1.5000e+000 104790 -3.4598e+000  6.6007e+000 -1.8180e+000 34986 104600,104741,104444
 1.5000e+000 104839 -1.6521e+000  9.1597e+000  1.5395e+000 34986 104600,104574,104813
 1.5000e+000 104862 -3.7158e+000  8.1870e+000 -1.5737e+000 34986 104600,104813,104741
 1.5000e+000 105014 -1.2409e+001 -4.6063e+000  2.9276e-001 34696 105169,105037,104913
 1.5000e+000 104991 -1.3002e+001 -7.7372e+000  9.8739e-001 34696 105169,104913,104887
 1.5000e+000 105063 -5.8873e+000 -8.7077e-001  2.2189e+000 34696 104939,104913,105037
 1.5000e+000 105195 -1.3561e+001 -4.0609e+000  2.8557e+000 34696 104965,105037,105169
 1.5000e+000 105218 -1.3943e+001 -6.5429e+000  3.5766e+000 34696 104965,105169,104887
 1.5000e+000 105368 -9.4465e+000 -8.5257e-001 -8.2799e-001 34384 105267,105319,105293
 1.5000e+000 105345 -8.4599e+000  2.0962e+000 -9.3454e-002 34384 105241,105319,105267
 1.5000e+000 105616 -8.3292e-001  7.9034e+000 -1.6973e+000 33730 105639,105417,105391
 1.5000e+000 105593  5.3812e-001  7.1299e+000 -2.9224e+000 33730 105639,105391,105495
 1.5000e+000 105570 -1.9262e+000  1.0442e+001 -4.0121e+000 33730 105391,105521,105495
 1.5000e+000 105547 -4.2082e+000  2.0533e+000  5.5441e+000 33730 105417,105469,105443
 1.5000e+000 105665  5.2849e-001  7.7790e+000 -2.0461e+000 33730 105469,105417,105639
 1.5000e+000 105688  3.9866e+000  8.5455e+000 -3.4797e+000 33730 105469,105639,105495
 1.5000e+000 105840 -4.8566e+000  2.2595e+000 -5.3324e-001 33390 105713,105765,105739
 1.5000e+000 105817 -4.7295e+000  2.8570e+000 -9.7799e-001 33390 105713,105791,105765
 1.5000e+000 106090 -7.6338e+000  1.9060e+000 -4.9178e+000 33043 106113,105943,105891
 1.5000e+000 106067 -9.7795e+000  3.9850e+000 -8.5873e-001 33043 106113,105891,105865
 1.5000e+000 106044 -4.2141e+000  8.3319e-001 -2.4288e+000 33043 105891,105943,105917
 1.5000e+000 106021 -7.9388e+000  6.3781e+000 -1.4765e+000 33043 105865,105995,105969
 1.5000e+000 106139 -3.0739e+000  8.9996e+000 -7.0204e+000 33043 105969,105943,106113
 1.5000e+000 106162 -8.1279e+000  6.6598e+000 -1.5614e+000 33043 105969,106113,105865
 1.5000e+000 106412  1.4740e+001  1.0348e+001  1.7970e+000 32539 106435,106291,106239
 1.5000e+000 106389  1.2259e+001  8.5940e+000 -2.7888e-001 32539 106187,106317,106291
 1.5000e+000 106366  1.3667e+001  1.9057e+001  1.5223e+001 32539 106435,106239,106213
 1.5000e+000 106343  1.6914e+001  1.1122e+001  2.4781e+000 32539 106239,106291,106265
 1.5000e+000 106461  7.4128e+000  6.4859e+000  3.0783e-001 32539 106187,106291,106435
 1.5000e+000 106484 -1.3092e+000  1.1517e+001  1.2658e+001 32539 106187,106435,106213
 1.5000e+000 106685 -6.9931e+000 -1.5813e+000 -2.3283e+000 31835 106535,106587,106561
 1.5000e+000 106662 -9.1628e+000 -9.0401e-001  4.8564e-001 31835 106509,106587,106535
 1.5000e+000 106639 -6.4934e+000  6.0082e+000 -1.6491e+000 31835 106509,106613,106587
 1.5000e+000 106935  2.4427e+000  2.8789e+000 -5.0708e+000 31530 106736,106814,106788
 1.5000e+000 106912  5.8415e+000  5.0857e+000 -3.9125e+000 31530 106710,106814,106736
 1.5000e+000 106889 -8.3460e-001 -6.7079e-001 -3.6446e+000 31530 106736,106788,106762
 1.5000e+000 106866  6.2067e+000  6.6240e+000 -6.4637e+000 31530 106710,106840,106814
 1.5000e+000 107339 -1.4586e+001 -2.0754e+000 -8.0643e-001 31026 107117,107221,107195
 1.5000e+000 107316 -1.1816e+001 -1.3178e+001  1.1834e+000 31026 107091,107221,107117
 1.5000e+000 107293 -1.3568e+001 -1.3276e+001  2.0442e+000 31026 107065,107221,107091
 1.5000e+000 107270 -1.5215e+001  1.2287e+001 -1.5637e+000 31026 107143,107195,107169
 1.5000e+000 107247 -2.2680e+001 -6.0392e+000 -2.5393e+000 31026 107117,107195,107143
 1.5000e+000 107538 -7.4823e+000 -1.1121e+000 -1.3217e-001 30714 107561,107388,107362
 1.5000e+000 107515 -7.4101e+000 -1.5247e-001 -2.6011e-001 30714 107561,107362,107466
 1.5000e+000 107492 -7.5030e+000 -1.8490e+000 -1.0519e+000 30714 107414,107466,107440
 1.5000e+000 107587 -7.2233e+000 -2.3381e+000 -1.9689e-001 30714 107414,107388,107561
 1.5000e+000 107610 -6.9906e+000 -1.1625e+000 -3.3422e-001 30714 107414,107561,107466
 1.5000e+000 107990 -7.0331e+000 -3.2966e+000  1.5840e+000 30260 108013,107846,107768
 1.5000e+000 107967 -6.4355e+000 -1.8317e+000  3.9220e-001 30260 108013,107768,107716
 1.5000e+000 107944 -7.3184e+000 -1.4538e+000  4.6985e-001 30260 107716,107768,107742
 1.5000e+000 107921 -6.9880e+000  7.1156e-001  3.1579e+000 30260 107768,107846,107820
 1.5000e+000 107898 -6.6185e+000 -3.6370e+000  6.4473e-001 30260 107768,107820,107794
 1.5000e+000 108039 -6.0204e+000 -2.5032e+000  6.5012e-001 30260 107872,107846,108013
 1.5000e+000 108062 -5.9644e+000 -1.1627e+000 -4.5406e-001 30260 107872,108013,107716
 1.5000e+000 108261 -1.2329e+000 -1.4066e+001  3.0723e+000 29870 108284,108085,108163
 1.5000e+000 108238 -7.1562e+000 -7.3009e+000 -1.9078e+000 29870 108085,108189,108163
 1.5000e+000 108215  2.4598e+001 -1.9278e+000  6.7647e+000 29870 108284,108163,108137
 1.5000e+000 108310 -1.3113e+001  3.9246e-001  1.1916e+001 29870 108111,108085,108284
 1.5000e+000 108333 -7.1295e-001  4.6906e+000  1.3387e+001 29870 108111,108284,108137
 1.5000e+000 108664  2.1352e+000  4.8222e+000 -5.1633e+000 29480 108465,108569,108543
 1.5000e+000 108641 -3.8033e+000  6.7677e+000  2.2282e+000 29480 108439,108569,108465
 1.5000e+000 108618 -6.0770e-001 -4.4523e-002 -2.1900e+000 29480 108465,108543,108491
 1.5000e+000 108595 -2.6031e-001 -3.6229e-001 -2.2034e+000 29480 108491,108543,108517
 1.5000e+000 108993 -1.2397e+000 -3.3099e+000  3.5324e+000 29076 108794,108872,108820
 1.5000e+000 108970 -2.7722e+000 -4.6031e+000  2.2014e+000 29076 108768,108872,108794
 1.5000e+000 108947  7.9781e-001 -2.8628e+000  2.2024e+000 29076 108820,108872,108846
 1.5000e+000 108924 -4.1407e+000 -3.6583e+000  7.6751e+000 29076 108768,108898,108872
 1.5000e+000 109420 -1.7725e+000  6.4027e-001 -4.4452e+000 28472 109123,109227,109201
 1.5000e+000 109397 -1.6172e+001 -1.0078e+000 -3.0640e+000 28472 109123,109253,109227
 1.5000e+000 109374 -4.4636e+000 -2.4658e+000 -3.2170e+000 28472 109123,109201,109175
 1.5000e+000 109351 -1.0572e+001  3.5586e+000 -8.8504e-001 28472 109123,109279,109253
 1.5000e+000 109328 -1.9899e+000 -1.1191e+000 -2.9913e-001 28472 109123,109175,109149
 1.5000e+000 109305 -1.4077e+001  1.1791e+001 -4.2946e+000 28472 109097,109279,109123
 1.5000e+000 109749 -1.2594e+001  8.3927e+000 -8.3449e+000 28018 109772,109602,109576
 1.5000e+000 109726 -1.2155e+001  2.7973e+000 -5.8873e+000 28018 109772,109576,109550
 1.5000e+000 109703 -1.3850e+001 -4.4596e+000 -8.5293e+000 28018 109524,109628,109550
 1.5000e+000 109680 -1.3405e+001 -8.8261e+000 -2.4467e+000 28018 109524,109654,109628
 1.5000e+000 109798 -1.5762e+001  5.8020e+000 -3.4481e+000 28018 109628,109602,109772
 1.5000e+000 109821 -1.2530e+001 -1.0995e+000 -2.7813e+000 28018 109628,109772,109550
 1.5000e+000 110199 -8.7642e+000 -4.6541e+000 -3.3323e+000 27564 110029,110081,110055
 1.5000e+000 110176 -5.8764e+000  7.7398e-001 -2.2578e+000 27564 109925,110081,110029
 1.5000e+000 110153 -4.2108e+000 -5.1218e+000 -8.1964e-001 27564 109925,110029,109977
 1.5000e+000 110130 -4.0128e+000 -4.7325e+000  1.1916e+000 27564 109977,110029,110003
 1.5000e+000 110107 -3.2194e+000 -2.8667e+000 -6.5213e-001 27564 109925,109977,109951
 1.5000e+000 110398  1.2831e+001  1.3625e+001 -8.2478e-001 27003 110248,110326,110300
 1.5000e+000 110375  1.0129e+001  1.0223e+001 -2.1645e+000 27003 110222,110326,110248
 1.5000e+000 110352 -1.7922e+000  4.9898e+000 -5.0203e+000 27003 110248,110300,110274
 1.5000e+000 110646  1.2885e+001 -4.7385e+000  8.7289e+000 26563 110669,110473,110421
 1.5000e+000 110623  1.0884e+001 -1.8952e+001  1.4172e+001 26563 110669,110421,110551
 1.5000e+000 110600  1.5729e+001 -1.1736e-001  7.4763e+000 26563 110473,110525,110499
 1.5000e+000 110577  6.4904e+000 -1.4299e+001  1.9112e+001 26563 110421,110473,110447
 1.5000e+000 110695  1.2003e+001 -7.9115e-001  7.3876e+000 26563 110525,110473,110669
 1.5000e+000 110718  1.5789e+001 -5.5016e+000  1.3208e+001 26563 110525,110669,110551
 1.5000e+000 110870 -8.8089e+000  1.8361e+000 -5.3456e+000 26166 110769,110821,110795
 1.5000e+000 110847 -3.8990e+000  7.9021e-001 -2.3538e+000 26166 110743,110821,110769
 1.5000e+000 111380 -1.0123e+001 -5.0007e+000  1.9422e+000 25712 111403,111109,111083
 1.5000e+000 111357 -8.8033e+000 -3.9402e+000  1.4753e+000 25712 111403,111083,111239
 1.5000e+000 111334 -1.3577e+001 -5.1263e+000  4.8461e+000 25712 111109,111161,111135
 1.5000e+000 111311 -9.2221e+000 -4.5517e+000  8.2592e-001 25712 111057,111239,111083
 1.5000e+000 111288 -7.0344e+000 -4.8013e+000  1.9149e+000 25712 111161,111239,111187
 1.5000e+000 111265 -5.6395e+000 -3.9388e+000  1.5307e+000 25712 111187,111239,111213
 1.5000e+000 111429 -8.7776e+000 -6.3649e+000  2.4100e+000 25712 111161,111109,111403
 1.5000e+000 111452 -7.1906e+000 -5.1970e+000  1.8800e+000 25712 111161,111403,111239
 1.5000e+000 111651 -8.1379e+000 -4.5184e+000  5.2865e-001 25300 111674,111501,111475
 1.5000e+000 111628 -8.0099e+000 -6.1452e+000  6.5536e-001 25300 111674,111475,111579
 1.5000e+000 111605 -8.5681e+000 -3.8549e+000 -4.9445e-001 25300 111501,111553,111527
 1.5000e+000 111700 -8.2760e+000 -3.1861e+000  5.2338e-001 25300 111553,111501,111674
 1.5000e+000 111723 -7.9389e+000 -4.5175e+000  7.8233e-001 25300 111553,111674,111579
 1.5000e+000 111922  2.4586e+000 -3.2160e-001 -1.3087e-001 24732 111798,111850,111824
 1.5000e+000 111899  1.5441e+000  3.7531e+000 -3.1246e+000 24732 111772,111850,111798
 1.5000e+000 111876  3.0805e-001  3.4489e+000 -3.1728e+000 24732 111746,111850,111772
 1.5000e+000 112255 -4.9701e+000  3.0604e+000 -2.1431e+000 24142 112056,112108,112082
 1.5000e+000 112232 -3.3823e+000  2.8735e+000 -5.7366e-001 24142 112056,112134,112108
 1.5000e+000 112209 -5.9038e+000 -5.3610e-001  5.2831e-001 24142 112056,112160,112134
 1.5000e+000 112186 -3.1554e+000 -1.0965e+000 -2.8716e-001 24142 112030,112160,112056
 1.5000e+000 112601 -1.9363e+001  4.3696e-001  2.1249e+001 23852 112624,112382,112356
 1.5000e+000 112578 -2.9755e+001  1.0388e+000  1.1601e+001 23852 112696,112624,112356
 1.5000e+000 112555 -2.6000e+001 -1.7483e+000  4.1495e+000 23852 112696,112356,112304
 1.5000e+000 112532 -2.3593e+001 -5.4117e+000  4.0379e+000 23852 112304,112356,112330
 1.5000e+000 112509 -9.3500e-001  1.9951e+001  1.3978e+001 23852 112278,112460,112304
 1.5000e+000 112486  4.0133e+001  7.6838e+000  8.8508e+000 23852 112382,112434,112408
 1.5000e+000 112650  2.4508e+001  1.0214e+001  2.8154e+001 23852 112434,112382,112624
 1.5000e+000 112673 -1.4884e+001 -9.0163e+000  1.7910e+001 23852 112434,112624,112460
 1.5000e+000 112722 -1.6533e+001  7.9513e+000  1.5731e+001 23852 112460,112624,112696
 1.5000e+000 112745 -1.5572e+001  2.0027e+000  7.6333e+000 23852 112460,112696,112304
 1.5000e+000 113015 -3.1579e+001  2.8094e+001 -8.1349e+000 23490 112842,112894,112868
 1.5000e+000 112992 -2.4881e+001  7.0608e+000 -7.2924e+000 23490 112816,112894,112842
 1.5000e+000 112969 -2.3691e+001  7.7213e+000 -1.6860e+000 23490 112790,112894,112816
 1.5000e+000 112946 -2.7741e+001 -3.0957e+000 -1.7343e+000 23490 112790,112920,112894
 1.5000e+000 113348 -6.6090e+000  9.8066e-001 -4.5524e+000 22970 113175,113253,113227
 1.5000e+000 113325 -4.5161e+000 -3.5580e+000 -2.7773e+000 22970 113149,113253,113175
 1.5000e+000 113302 -8.5247e+000 -8.1994e+000 -9.0348e+000 22970 113175,113227,113201
 1.5000e+000 113279 -3.1370e+000 -3.0755e-001 -2.6281e+000 22970 113123,113253,113149
 1.5000e+000 113645 -7.5386e+000 -5.3131e+000 -2.0149e+000 22366 113423,113527,113449
 1.5000e+000 113622 -9.3422e+000 -7.8876e+000 -2.8879e+000 22366 113371,113527,113423
 1.5000e+000 113599 -7.9385e+000 -6.1323e+000 -1.5229e+000 22366 113449,113527,113501
 1.5000e+000 113576 -6.6471e+000 -7.1600e+000  1.5066e-001 22366 113449,113501,113475
 1.5000e+000 113553 -4.3286e+000  2.7544e+000 -4.4262e+000 22366 113371,113423,113397
 1.5000e+000 113893 -6.1961e+000 -9.3090e+000 -6.2811e+000 21912 113916,113746,113720
 1.5000e+000 113870 -3.7046e+000 -5.8974e+000 -5.1491e+000 21912 113916,113720,113668
 1.5000e+000 113847 -6.6393e+000 -6.2157e+000 -4.0148e+000 21912 113988,113798,113772
 1.5000e+000 113824 -2.6641e+000 -2.1399e+000 -8.9499e+000 21912 113668,113720,113694
 1.5000e+000 113942 -4.0493e+000 -4.2044e+000 -6.0939e+000 21912 113772,113746,113916
 1.5000e+000 113965 -5.2448e+000 -4.3989e+000 -4.9097e+000 21912 113988,113772,113916
 1.5000e+000 114014 -4.3949e+000 -7.4200e+000 -4.4861e+000 21912 113668,113798,113988
 1.5000e+000 114037 -4.7089e+000 -6.9918e+000 -4.6661e+000 21912 113668,113988,113916
 1.5000e+000 114287  2.6730e+000 -3.8915e+000 -1.2507e+000 21408 114088,114140,114114
 1.5000e+000 114264  4.2727e+000 -2.7891e+000 -2.3755e+000 21408 114310,114140,114088
 1.5000e+000 114241  3.6234e+000 -1.1460e+000 -5.2363e+000 21408 114310,114088,114192
 1.5000e+000 114218  1.4073e+000 -4.4581e-001 -4.9333e+000 21408 114062,114192,114088
 1.5000e+000 114336  3.9697e+000 -7.0760e+000 -2.2285e+000 21408 114166,114140,114310
 1.5000e+000 114359  3.8200e+000 -3.8335e+000 -4.5592e+000 21408 114166,114310,114192
 1.5000e+000 114609  1.5328e+001  1.1416e+001  4.9058e+000 21018 114632,114488,114436
 1.5000e+000 114586  1.3444e+001  1.0595e+001  2.3581e+000 21018 114632,114436,114410
 1.5000e+000 114563  1.7882e+001  8.6798e+000  2.6935e+000 21018 114384,114514,114410
 1.5000e+000 114540  2.7612e+000  1.0334e+001  4.2567e+000 21018 114436,114488,114462
 1.5000e+000 114658  1.9013e+001  1.2098e+001  6.4848e+000 21018 114514,114488,114632
 1.5000e+000 114681  1.6269e+001  1.1005e+001  4.0121e+000 21018 114514,114632,114410
 1.5000e+000 114882  6.1001e+000  1.6706e+000  2.2417e+000 20614 114732,114784,114758
 1.5000e+000 114859  1.7152e+000  1.2357e+000  2.8953e-001 20614 114732,114810,114784
 1.5000e+000 114836  2.2057e-002  2.8464e-001 -1.7416e-001 20614 114706,114810,114732
 1.5000e+000 115132 -5.6870e+000 -6.9060e-001 -1.2411e+000 20110 114907,115011,114933
 1.5000e+000 115109 -2.8086e+000  1.3861e+000 -2.5274e+000 20110 114907,115037,115011
 1.5000e+000 115086 -5.1628e+000 -4.8447e-002 -9.7517e-001 20110 114933,115011,114985
 1.5000e+000 115063 -3.6648e+000  2.4444e+000 -2.9032e+000 20110 114933,114985,114959
 1.5000e+000 115284 -5.9319e+000  2.0575e-001 -9.6586e-001 19456 115378,115307,115157
 1.5000e+000 115261 -7.6639e+000  2.6586e+000 -1.6391e+000 19456 115378,115157,115235
 1.5000e+000 115333 -6.2581e+000  7.7512e-002 -7.1400e-001 19456 115183,115157,115307
 1.5000e+000 115404 -7.1693e+000 -3.7504e+000 -1.4723e+000 19456 115209,115307,115378
 1.5000e+000 115427 -8.5543e+000 -7.4355e-001 -2.3568e+000 19456 115209,115378,115235
 1.5000e+000 115677 -1.0376e+001 -3.2933e+000  3.5682e-001 19002 115504,115582,115530
 1.5000e+000 115654 -9.2838e+000 -3.5618e+000  2.2290e-001 19002 115478,115582,115504
 1.5000e+000 115631 -9.9043e+000 -3.5756e+000  2.1005e+000 19002 115452,115582,115478
 1.5000e+000 115608 -8.5723e+000 -4.1203e+000 -1.5613e+000 19002 115530,115582,115556
 1.5000e+000 115998  4.5895e+000  1.3687e+001 -2.3580e+000 18712 115802,115880,115854
 1.5000e+000 115975  9.7090e+000  2.0105e+001  6.2159e-001 18712 115724,115880,115802
 1.5000e+000 115952  1.0585e+001  1.3285e+001 -3.7769e-001 18712 115724,115802,115776
 1.5000e+000 115929  1.2131e+001  1.4980e+001  1.6644e+000 18712 115724,115776,115750
 1.5000e+000 115906  6.7368e+000  1.4644e+001 -2.1759e+000 18712 115802,115854,115828
 1.5000e+000 116270 -2.6916e+001 -1.7444e+001  9.9381e-001 18308 116045,116123,116071
 1.5000e+000 116247 -2.4889e+001 -1.7001e+001  9.4961e+000 18308 116045,116175,116123
 1.5000e+000 116224 -4.3982e+001 -5.3283e+000  5.9672e+000 18308 116123,116175,116149
 1.5000e+000 116201 -1.1977e+001 -1.0496e+001 -8.4378e-001 18308 116071,116123,116097
 1.5000e+000 116422 -9.8744e+000 -5.0392e+000 -1.4216e-002 17996 116321,116373,116347
 1.5000e+000 116399 -9.4416e+000 -4.7653e+000  2.3894e-001 17996 116295,116373,116321
 1.5000e+000 116574  1.2659e+001  3.8726e+000  3.2552e+000 17392 116473,116525,116499
 1.5000e+000 116551  2.7093e+001  1.5395e+001  8.3088e+000 17392 116447,116525,116473
 1.5000e+000 116797  1.1209e+000 -1.0287e+001 -7.6418e-001 16938 116621,116699,116673
 1.5000e+000 116774  1.4151e+000 -1.5167e+001  5.5969e-001 16938 116621,116725,116699
 1.5000e+000 116751  1.7672e+000 -8.7794e+000 -3.7497e-001 16938 116621,116673,116647
 1.5000e+000 116998  2.0987e+001  2.4620e+000  3.7129e+000 16434 117021,116874,116848
 1.5000e+000 116975 -9.2114e+000 -3.6213e+000 -3.5124e+000 16434 117021,116848,116822
 1.5000e+000 116952  3.3197e+001  1.7478e+001  1.2756e+001 16434 116874,116926,116900
 1.5000e+000 117047  3.2267e+001 -1.8251e+000  5.7099e+000 16434 116926,116874,117021
 1.5000e+000 117070  2.2367e+001  6.1357e+000 -1.5542e+000 16434 116926,117021,116822
 1.5000e+000 117293 -3.4017e+000 -4.1396e+000 -1.1129e+000 16070 117117,117169,117143
 1.5000e+000 117270 -8.3097e+000 -6.1198e+000 -9.2106e-001 16070 117117,117221,117169
 1.5000e+000 117247 -9.6913e+000 -7.9071e+000 -1.5303e+000 16070 117169,117221,117195
 1.5000e+000 117445 -3.5488e+001 -1.7871e+001 -2.4758e+000 15645 117318,117370,117344
 1.5000e+000 117422 -4.2179e+001 -2.1724e+001  2.4580e-001 15645 117318,117396,117370
 1.5000e+000 117548 -1.9456e+000 -2.4534e+000  2.2511e+000 417 117470,117522,117496
 1.6000e+000 70760  3.9575e+000 -6.9207e+000  5.5524e-001 70380 70633,70685,70659
 1.6000e+000 70737 -2.7610e+000 -6.2344e+000 -1.4155e+000 70380 70633,70711,70685
 1.6000e+000 70861 -2.2489e-001  1.0291e+000  2.5619e-001 70068 70783,70835,70809
 1.6000e+000 71180 -2.1505e-002  2.0149e+000  1.5700e-001 69870 70932,70984,70958
 1.6000e+000 71157 -1.7100e-001  1.9342e+000  2.2035e-002 69870 70932,71010,70984
 1.6000e+000 71134 -1.3458e+000  8.7795e-001 -4.8404e-001 69870 70932,71036,71010
 1.6000e+000 71111 -8.6660e-001  1.1471e+000  1.5741e+000 69870 70932,71062,71036
 1.6000e+000 71088 -1.0528e-001  1.9029e+000  2.4953e-001 69870 70906,71062,70932
 1.6000e+000 71428  8.0654e-001  8.5091e+000  3.4575e+000 69694 71451,71281,71255
 1.6000e+000 71405  2.0648e+000  5.9292e+000  3.4674e+000 69694 71523,71451,71255
 1.6000e+000 71382  3.1828e+000  7.7130e+000  4.6505e+000 69694 71523,71255,71229
 1.6000e+000 71359  3.7166e-001  3.9404e+000  2.2884e+000 69694 71595,71333,71307
 1.6000e+000 71477  9.4148e-002  6.2543e+000  3.3606e+000 69694 71307,71281,71451
 1.6000e+000 71500  3.3155e-001  5.1705e+000  1.4030e+000 69694 71595,71307,71451
 1.6000e+000 71549  3.0967e-001  6.3077e+000  1.8163e+000 69694 71203,71451,71523
 1.6000e+000 71572  3.5161e-001  6.4057e+000  2.7879e+000 69694 71203,71523,71229
 1.6000e+000 71621  7.3576e-001  2.1840e+000  1.8455e+000 69694 71203,71333,71595
 1.6000e+000 71644  1.4492e-001  3.0387e+000  1.4835e+000 69694 71203,71595,71451
 1.6000e+000 71745 -1.9330e-001  1.5725e+000  2.1584e-001 69382 71667,71719,71693
 1.6000e+000 72100 -2.3329e+000  5.3442e-001  3.7515e-001 69184 71875,71979,71901
 1.6000e+000 72077  3.9547e-002 -1.2014e+000  1.7121e+000 69184 71875,72005,71979
 1.6000e+000 72054 -8.7795e-001 -6.5398e-001 -1.0942e+000 69184 71901,71979,71953
 1.6000e+000 72031  3.9449e-001 -1.5878e-001 -4.6012e-001 69184 71901,71953,71927
 1.6000e+000 72250  4.0578e-001 -9.4346e-001 -1.7668e-001 68986 72149,72201,72175
 1.6000e+000 72227  1.7995e-001 -2.2798e+000  4.0036e-001 68986 72123,72201,72149
 1.6000e+000 72547 -7.7975e-001 -1.1075e+000  2.0037e+000 68582 72570,72403,72377
 1.6000e+000 72524 -6.1734e-001 -1.7105e+000  1.7601e+000 68582 72570,72377,72351
 1.6000e+000 72501 -7.4745e-001  1.3084e+000  6.0920e-001 68582 72642,72299,72429
 1.6000e+000 72478  2.2388e-001  6.8645e-001  2.5284e-001 68582 72273,72429,72299
 1.6000e+000 72455  1.6923e-001  7.0078e+000  4.3755e+000 68582 72299,72351,72325
 1.6000e+000 72596 -5.9086e-001 -1.3195e+000  1.4220e+000 68582 72429,72403,72570
 1.6000e+000 72619  8.7266e-002  2.3310e-001  9.6588e-001 68582 72642,72429,72570
 1.6000e+000 72668 -1.3814e+000  3.3637e-001  1.7607e+000 68582 72351,72299,72642
 1.6000e+000 72691 -7.8132e-001 -1.2920e+000  2.0331e+000 68582 72351,72642,72570
 1.6000e+000 73095 -6.6815e+000 -1.5376e+000  3.5770e-001 68384 72873,72925,72899
 1.6000e+000 73072 -7.1045e+000  9.4433e+000  4.4790e+000 68384 72847,72925,72873
 1.6000e+000 73049 -3.5643e+000 -1.2939e+000  1.1825e+001 68384 72847,72951,72925
 1.6000e+000 73026  6.7642e+000 -2.1847e+000  6.2173e+000 68384 72821,72951,72847
 1.6000e+000 73003 -2.0434e-001  3.6114e-001 -1.3541e+000 68384 72821,72977,72951
 1.6000e+000 73552 -1.1886e+000  6.5323e+000  2.8336e+000 68044 73304,73434,73408
 1.6000e+000 73529 -1.3204e+000  3.2965e+000 -1.0349e+000 68044 73278,73434,73304
 1.6000e+000 73506  7.9387e+000  6.0515e-001  3.4562e+000 68044 73356,73408,73382
 1.6000e+000 73483  9.6069e+000 -7.3538e-001  7.7026e-001 68044 73304,73408,73356
 1.6000e+000 73460  3.5074e+000  1.6618e+000 -2.1500e+000 68044 73304,73356,73330
 1.6000e+000 73871 -1.4741e+000  6.1514e+000 -2.1356e+000 67846 73675,73727,73701
 1.6000e+000 73848  6.2341e-001  5.5050e+000 -2.2957e+000 67846 73649,73727,73675
 1.6000e+000 73825 -1.4908e+000 -2.0751e-001 -3.4744e+000 67846 73623,73727,73649
 1.6000e+000 73802  2.7754e+000  1.3757e+000 -1.9026e+000 67846 73623,73753,73727
 1.6000e+000 73779  8.3943e-001  1.9366e-001  6.1138e-001 67846 73597,73753,73623
 1.6000e+000 74021  7.6972e-001 -3.1251e+000  3.9137e-001 67598 73920,73972,73946
 1.6000e+000 73998  4.9385e-001 -3.4669e+000  1.4156e-001 67598 73894,73972,73920
 1.6000e+000 74271  2.0729e-002 -2.3989e+000  5.1436e-001 67286 74072,74176,74150
 1.6000e+000 74248 -3.3917e-001 -1.7663e+000  5.7531e-001 67286 74046,74176,74072
 1.6000e+000 74225  6.2797e-003 -2.6419e+000  5.6467e-001 67286 74072,74150,74098
 1.6000e+000 74202 -2.4178e-001 -3.0903e+000  3.0694e-001 67286 74098,74150,74124
 1.6000e+000 74374 -8.9674e-001  1.4884e-001  7.6639e-001 67088 74296,74348,74322
 1.6000e+000 74646 -1.6528e+000  4.1480e+000 -1.7176e+000 66890 74421,74525,74447
 1.6000e+000 74623 -2.1930e-002  5.0780e+000 -6.7024e-001 66890 74421,74551,74525
 1.6000e+000 74600  3.8580e-003  6.8427e+000 -9.3587e-001 66890 74447,74525,74473
 1.6000e+000 74577 -2.8796e+000  5.5343e+000  3.3622e-001 66890 74473,74525,74499
 1.6000e+000 75254 -1.7375e+000 -9.4479e-002 -1.7769e+000 66528 74885,75067,75041
 1.6000e+000 75231  1.7377e+000  2.6438e+000 -5.8092e-001 66528 74859,75067,74885
 1.6000e+000 75208 -4.5034e-001  6.1583e+000 -8.5240e-001 66528 74937,75015,74963
 1.6000e+000 75185 -2.2757e+000  9.3145e-001 -1.2005e+000 66528 74911,75015,74937
 1.6000e+000 75162 -1.7430e+000  1.4667e+000 -9.6449e-001 66528 74911,75041,75015
 1.6000e+000 75139 -9.3779e-001  2.4577e+000 -5.3840e-001 66528 74885,75041,74911
 1.6000e+000 75116 -2.1122e+000 -2.0258e+000 -2.8406e+000 66528 74833,75067,74859
 1.6000e+000 75093 -3.9026e+000  1.4820e+000  6.6895e-001 66528 74963,75015,74989
 1.6000e+000 75453 -1.4025e+000  9.7681e+000 -1.1645e+000 66238 75303,75381,75355
 1.6000e+000 75430  5.8225e-001  4.9602e+000 -1.4501e+000 66238 75277,75381,75303
 1.6000e+000 75407 -1.1769e+000 -5.7411e-001  7.3040e-001 66238 75303,75355,75329
 1.6000e+000 75701 -6.3288e-001  2.1803e+000  1.7921e-001 65834 75528,75606,75580
 1.6000e+000 75678 -1.3092e+000  4.4701e+000 -1.3489e-001 65834 75502,75606,75528
 1.6000e+000 75655 -6.0349e-001  3.1745e+000  1.1788e+000 65834 75528,75580,75554
 1.6000e+000 75632  5.2166e-001  5.6957e+000  1.0965e+000 65834 75476,75606,75502
 1.6000e+000 75902  1.2126e+000  3.2212e+000 -5.7171e-002 65636 75726,75804,75752
 1.6000e+000 75879  2.2859e+000  4.2860e+000 -1.2145e+000 65636 75726,75830,75804
 1.6000e+000 75856  4.1084e+000  2.7415e+000 -9.0169e-001 65636 75752,75804,75778
 1.6000e+000 76103  8.8949e+000  6.1303e+000 -1.8311e+000 65296 76126,75979,75953
 1.6000e+000 76080  8.0483e+000  1.1193e+001  1.0942e+000 65296 76126,75953,75927
 1.6000e+000 76057  1.6282e+001  2.4696e+001 -5.8065e+000 65296 76198,76005,75979
 1.6000e+000 76152  1.3566e+001  1.6057e+001 -3.1801e+000 65296 76198,75979,76126
 1.6000e+000 76175  7.8477e+000  7.3739e+000 -3.0724e-001 65296 76031,76126,75927
 1.6000e+000 76224  1.2188e+001  1.2061e+001 -1.6377e+000 65296 76031,76005,76198
 1.6000e+000 76247  1.2030e+001  8.9981e+000  1.2977e+000 65296 76031,76198,76126
 1.6000e+000 76602  1.0514e+000  1.9337e-001 -1.4406e-001 64892 76377,76481,76403
 1.6000e+000 76579  9.6538e-001  9.7665e-002 -5.9658e-002 64892 76377,76507,76481
 1.6000e+000 76556  1.2336e+000  2.1122e+000 -2.7280e-001 64892 76403,76481,76429
 1.6000e+000 76533 -1.3479e+000  1.5581e+000 -1.6865e-001 64892 76429,76481,76455
 1.6000e+000 76801 -9.4778e+000  1.0391e+000  3.5913e+000 64438 76677,76729,76703
 1.6000e+000 76778 -3.4046e+000  1.6358e+001  3.7391e+000 64438 76651,76729,76677
 1.6000e+000 76755 -1.5539e+001  4.5536e+000 -3.6591e+000 64438 76625,76729,76651
 1.6000e+000 77230  4.6355e+000  1.9355e+000 -1.2090e+000 63920 77253,76959,76933
 1.6000e+000 77207  2.5192e+000  8.2834e-001 -8.0699e-001 63920 77253,76933,77063
 1.6000e+000 77184 -1.2326e-001  1.8217e+000 -1.8176e+000 63920 76959,77037,76985
 1.6000e+000 77161  2.1239e+000  9.8912e-001 -3.6969e-001 63920 76907,77063,76933
 1.6000e+000 77138 -3.3321e-001  2.9144e+000 -1.6195e+000 63920 76985,77037,77011
 1.6000e+000 77115  5.4624e-001  3.8091e-001  1.9392e-001 63920 76907,77089,77063
 1.6000e+000 77279  2.0108e+000  2.9665e+000 -1.3545e+000 63920 77037,76959,77253
 1.6000e+000 77302  4.8853e-002  1.9909e+000 -1.0339e+000 63920 77037,77253,77063
 1.6000e+000 77680 -4.8280e+000  2.4904e+000  9.1565e+000 63316 77703,77484,77432
 1.6000e+000 77657 -6.3760e+000  7.5413e-001  7.9169e+000 63316 77703,77432,77406
 1.6000e+000 77634 -1.2198e+001 -3.7312e+000  7.6460e+000 63316 77406,77536,77510
 1.6000e+000 77611  4.0267e+000  2.3747e+000  1.1858e+001 63316 77432,77484,77458
 1.6000e+000 77588 -3.2111e+000  1.6201e+000  2.4354e+000 63316 77406,77562,77536
 1.6000e+000 77729 -3.2341e+000 -1.9202e-001  7.6229e+000 63316 77510,77484,77703
 1.6000e+000 77752 -5.4359e+000 -1.2574e+000  6.1781e+000 63316 77510,77703,77406
 1.6000e+000 78000 -6.9810e+000  4.1151e-001 -5.7776e-001 62812 77801,77853,77827
 1.6000e+000 77977 -4.5525e+000  1.7114e+000 -1.7322e+000 62812 77801,77879,77853
 1.6000e+000 77954 -8.9968e+000 -2.4688e-001 -1.4244e+000 62812 77801,77905,77879
 1.6000e+000 77931 -3.1452e+000 -3.2991e-001 -2.0318e+000 62812 77775,77905,77801
 1.6000e+000 78380 -9.6826e+000 -5.2319e+000  1.0713e+000 62350 78184,78262,78236
 1.6000e+000 78357 -6.9512e+000 -4.9946e+000  1.9227e+000 62350 78132,78262,78184
 1.6000e+000 78334 -6.3585e+000 -4.7769e+000  1.4232e+000 62350 78106,78262,78132
 1.6000e+000 78311 -7.0276e+000 -4.2866e+000  2.1522e+000 62350 78132,78184,78158
 1.6000e+000 78288 -8.0752e+000 -3.9020e+000  4.1865e-001 62350 78184,78236,78210
 1.6000e+000 78837  3.5066e+000  6.0555e+000  1.3590e+000 61946 78615,78667,78641
 1.6000e+000 78814  1.6448e+000  3.4387e+000 -1.4885e+000 61946 78589,78667,78615
 1.6000e+000 78791  2.2697e+000  4.0679e-001  6.0619e-002 61946 78589,78719,78667
 1.6000e+000 78768  5.2505e+000  3.2924e+000 -1.8800e+000 61946 78667,78719,78693
 1.6000e+000 78745  2.8533e+000  2.0175e+000  8.7347e-001 61946 78563,78719,78589
 1.6000e+000 78987  4.0885e+000 -3.5823e+000  2.3978e-001 61335 79010,78886,78860
 1.6000e+000 78964  9.1313e-001  1.9637e-001  1.2637e+000 61335 79010,78860,78938
 1.6000e+000 79036  9.9038e-001 -5.6965e+000  1.6478e+000 61335 79082,79010,78912
 1.6000e+000 79059 -2.4725e+000 -4.0196e+000 -4.4841e-001 61335 78912,79010,78938
 1.6000e+000 79108  1.2733e+000 -4.5539e+000 -2.8271e-001 61335 78886,79010,79082
 1.6000e+000 79437 -6.5255e+000 -2.6620e+000 -1.1496e+000 60888 79460,79238,79212
 1.6000e+000 79414 -6.6747e+000 -3.3117e+000 -1.4766e+000 60888 79460,79212,79342
 1.6000e+000 79391 -5.7102e+000 -2.8323e+000 -3.5199e-001 60888 79532,79264,79238
 1.6000e+000 79368 -3.2634e+000 -1.1183e-001  7.6218e-001 60888 79264,79316,79290
 1.6000e+000 79486 -5.9767e+000 -2.3679e+000 -7.1820e-001 60888 79532,79238,79460
 1.6000e+000 79509 -6.7273e+000 -3.0036e+000 -1.2140e+000 60888 79316,79460,79342
 1.6000e+000 79558 -5.8316e+000 -3.4244e+000 -8.1081e-001 60888 79316,79264,79532
 1.6000e+000 79581 -6.7909e+000 -3.2139e+000 -1.1876e+000 60888 79316,79532,79460
 1.6000e+000 79878 -1.4651e+001 -7.4371e+000 -1.6017e+000 60484 79682,79760,79734
 1.6000e+000 79855 -1.9998e+001 -1.5892e+001  3.4897e+000 60484 79656,79760,79682
 1.6000e+000 79832 -1.8672e+001 -1.4789e+001  3.9682e+000 60484 79604,79760,79656
 1.6000e+000 79809 -1.7463e+001 -2.2973e+001  6.7538e+000 60484 79604,79656,79630
 1.6000e+000 79786 -5.3880e+000 -3.0331e+000  1.0693e+000 60484 79682,79734,79708
 1.6000e+000 80101 -2.0241e+000 -2.4740e+000 -4.6937e-001 60022 79951,80029,80003
 1.6000e+000 80078 -2.0290e+000 -2.1643e+000 -3.1807e-001 60022 79925,80029,79951
 1.6000e+000 80055 -1.6429e+000 -2.2444e+000 -2.7662e-001 60022 79951,80003,79977
 1.6000e+000 80351 -1.4388e+000 -2.1619e+000  2.4331e+000 59625 80152,80256,80204
 1.6000e+000 80328 -2.7556e+000  5.6835e-001  4.1568e+000 59625 80126,80256,80152
 1.6000e+000 80305 -5.2287e-001  2.7974e-001  2.8721e+000 59625 80204,80256,80230
 1.6000e+000 80282  6.7880e-001 -2.1821e+000  2.1745e+000 59625 80152,80204,80178
 1.6000e+000 80552  6.5018e+000  1.7028e-001 -1.5161e+000 59121 80575,80402,80376
 1.6000e+000 80529  7.7709e+000 -4.2289e+000 -2.7070e+000 59121 80575,80376,80480
 1.6000e+000 80506  1.6697e+001  3.0182e+000  5.4868e+000 59121 80428,80480,80454
 1.6000e+000 80601  7.3578e+000  3.0601e+000  8.5829e-001 59121 80428,80402,80575
 1.6000e+000 80624  8.6209e+000 -1.1402e+000 -4.1988e-001 59121 80428,80575,80480
 1.6000e+000 81183  4.0558e+000  2.1604e+000  2.6714e+000 58553 81206,80863,80837
 1.6000e+000 81160  3.4985e+000  5.5583e+000  1.9587e+000 58553 81350,81206,80837
 1.6000e+000 81137  2.7830e+000 -8.0876e-001  1.9782e+000 58553 81278,80915,80863
 1.6000e+000 81114  2.0736e+000  4.8218e+000  8.1058e-001 58553 81350,80837,80811
 1.6000e+000 81091  6.7889e+000  8.8928e-002  9.5176e-001 58553 81422,80967,80941
 1.6000e+000 81068  6.6083e+000  2.2312e-001  1.0600e+000 58553 80967,81019,80993
 1.6000e+000 81045  1.4317e+000 -1.0431e+000  2.6306e+000 58553 80863,80915,80889
 1.6000e+000 81232  2.5283e+000  9.9019e-001  8.8697e-001 58553 81278,80863,81206
 1.6000e+000 81255  6.5689e+000  1.5155e+000  5.6213e-001 58553 81422,80941,81206
 1.6000e+000 81304  2.6334e+000 -5.2356e+000  3.3667e+000 58553 80941,80915,81278
 1.6000e+000 81327  4.0598e+000 -2.2111e+000  1.7393e+000 58553 80941,81278,81206
 1.6000e+000 81376  2.4893e+000  3.7861e+000  1.0689e+000 58553 81019,81206,81350
 1.6000e+000 81399  2.3473e+000  3.8103e+000  1.0453e-001 58553 81019,81350,80811
 1.6000e+000 81448  7.3606e+000  1.3936e+000  4.3771e-001 58553 81019,80967,81422
 1.6000e+000 81471  6.9003e+000  2.2715e+000 -2.0137e-002 58553 81019,81422,81206
 1.6000e+000 81768 -2.4502e+000 -4.6690e+000  2.0078e-001 57877 81791,81572,81520
 1.6000e+000 81745 -1.5432e+000 -4.2870e+000  4.0808e-001 57877 81791,81520,81494
 1.6000e+000 81722 -2.6510e+000 -4.3160e+000  6.7131e-001 57877 81863,81650,81598
 1.6000e+000 81699 -2.3156e+000 -3.4534e+000  9.0916e-001 57877 81598,81650,81624
 1.6000e+000 81676 -2.2419e+000 -5.9537e+000  3.2686e-001 57877 81520,81572,81546
 1.6000e+000 81817 -1.7433e+000 -2.6402e+000  8.3464e-002 57877 81598,81572,81791
 1.6000e+000 81840 -2.5532e+000 -4.0430e+000  6.5074e-001 57877 81863,81598,81791
 1.6000e+000 81889 -2.3482e+000 -5.7829e+000  8.0383e-001 57877 81494,81650,81863
 1.6000e+000 81912 -1.7833e+000 -4.8673e+000  5.6527e-001 57877 81494,81863,81791
 1.6000e+000 82160  1.1725e+000  9.4883e-001  1.2077e+000 57473 81935,82039,82013
 1.6000e+000 82137  4.0373e+000  1.9792e+000  7.3577e-001 57473 81935,82065,82039
 1.6000e+000 82114  1.5656e+000  1.2280e+000  8.6133e-001 57473 81935,82013,81961
 1.6000e+000 82091  6.6324e-001  1.2962e+000  9.0036e-001 57473 81961,82013,81987
 1.6000e+000 82719 -2.0912e+000 -1.3035e+000  3.2177e+000 56962 82814,82742,82425
 1.6000e+000 82696 -2.1763e+000 -2.0305e+000  4.7830e+000 56962 82742,82347,82555
 1.6000e+000 82673 -5.9397e-001 -1.7022e+000  3.1386e+000 56962 82814,82425,82399
 1.6000e+000 82650 -4.9132e+000  1.3371e+000  6.9134e-001 56962 82425,82477,82451
 1.6000e+000 82627 -2.8520e+000  2.7545e+000  2.0593e+000 56962 82425,82529,82477
 1.6000e+000 82604 -3.9414e+000  6.7974e+000  4.4479e+000 56962 82477,82529,82503
 1.6000e+000 82581 -1.3217e+000 -4.3453e+000  4.9715e+000 56962 82347,82399,82373
 1.6000e+000 82768 -2.2492e+000 -1.0074e+000  3.5469e+000 56962 82529,82425,82742
 1.6000e+000 82791 -1.2358e+000  8.2921e-001  4.5330e+000 56962 82529,82742,82555
 1.6000e+000 82840 -4.4852e-001 -1.0544e+000  3.9138e+000 56962 82347,82742,82814
 1.6000e+000 82863  6.0196e-001 -1.7238e+000  3.9385e+000 56962 82347,82814,82399
 1.6000e+000 83467 -5.8625e+000  1.8869e+000 -6.1824e+000 56300 83124,83176,83150
 1.6000e+000 83444 -1.5493e+000  1.0705e+000 -2.1197e+000 56300 83490,83176,83124
 1.6000e+000 83421  4.2939e-001  2.5676e+000 -1.4583e+000 56300 83490,83124,83280
 1.6000e+000 83398  3.3367e+000  7.8774e+000 -1.8018e+000 56300 83202,83280,83254
 1.6000e+000 83375  1.5984e+000  6.3174e+000 -1.9745e+000 56300 83046,83280,83124
 1.6000e+000 83352  6.2094e-001  4.3802e+000 -1.6208e+000 56300 83046,83124,83098
 1.6000e+000 83329  2.0400e-001  7.7806e-001 -6.5534e-001 56300 83202,83254,83228
 1.6000e+000 83306  3.2138e+000  9.5749e+000 -7.4374e-001 56300 83046,83098,83072
 1.6000e+000 83516 -3.0821e+000  3.1285e+000 -6.2016e-001 56300 83202,83176,83490
 1.6000e+000 83539 -1.2675e+000  4.0950e+000 -1.1748e-001 56300 83202,83490,83280
 1.6000e+000 83787 -3.2661e+000 -3.6296e+000  6.5372e-001 55960 83588,83692,83666
 1.6000e+000 83764 -4.7387e+000  1.1465e+000  2.8230e+000 55960 83562,83692,83588
 1.6000e+000 83741 -1.8407e+000 -4.4276e+000  1.7925e+000 55960 83588,83666,83614
 1.6000e+000 83718 -4.3121e+000 -3.2675e+000  2.3514e+000 55960 83614,83666,83640
 1.6000e+000 83937  2.5097e-001 -1.1373e+000 -2.2297e+000 55499 83810,83862,83836
 1.6000e+000 83914 -3.9718e+000 -4.3053e-002 -1.8440e+000 55499 83810,83888,83862
 1.6000e+000 84138 -3.1645e+000 -9.1051e+000  8.3652e-001 55152 83988,84066,84040
 1.6000e+000 84115  1.2575e+000  9.3886e-001  1.0790e-001 55152 83962,84066,83988
 1.6000e+000 84092  2.8701e+000  2.8040e+000  4.7693e+000 55152 83988,84040,84014
 1.6000e+000 84471 -7.9868e+000  6.2249e+000  8.8703e+000 54648 84324,84376,84350
 1.6000e+000 84448 -9.2675e+000 -5.6781e+000  9.0778e+000 54648 84272,84376,84324
 1.6000e+000 84425 -1.3253e+001 -1.8275e+001  9.6272e+000 54648 84246,84376,84272
 1.6000e+000 84402 -1.2128e+001 -7.1154e+000  8.1539e+000 54648 84272,84324,84298
 1.6000e+000 84849 -2.5661e+000 -5.9192e+000  9.9891e-001 53922 84627,84731,84705
 1.6000e+000 84826 -9.6397e-001 -3.6511e+000  1.6989e+000 53922 84575,84731,84627
 1.6000e+000 84803 -1.1937e+000 -4.0867e+000  1.8208e+000 53922 84575,84627,84601
 1.6000e+000 84780 -1.0977e+000 -5.7349e+000  2.0662e+000 53922 84627,84705,84653
 1.6000e+000 84757 -8.6279e-001 -5.6732e+000  2.1411e+000 53922 84653,84705,84679
 1.6000e+000 85581 -1.0649e+001 -2.9618e+000  1.4970e+000 53582 85604,85111,85319
 1.6000e+000 85558 -2.1310e+000 -4.5903e+000  2.2830e+000 53582 85111,85345,85319
 1.6000e+000 85535 -6.0616e+000 -7.0529e-001  2.5151e+000 53582 85604,85319,85293
 1.6000e+000 85512 -6.1438e+000  8.1907e-001  1.1838e+001 53582 85241,85293,85267
 1.6000e+000 85489 -1.1161e+001 -1.2831e+000  5.5941e+000 53582 85676,85241,85189
 1.6000e+000 85466 -6.4217e+000 -4.7809e-001  2.7162e+000 53582 85676,85189,85137
 1.6000e+000 85443 -1.4804e+001  4.8869e+000  6.5221e+000 53582 85189,85241,85215
 1.6000e+000 85420 -5.5129e+000  8.7649e+000  2.3368e+000 53582 85137,85189,85163
 1.6000e+000 85397 -3.7994e+000 -2.2195e+000  7.8040e-001 53582 85111,85371,85345
 1.6000e+000 85630 -1.0570e+001  4.9204e-001  4.9523e+000 53582 85137,85111,85604
 1.6000e+000 85653 -8.2782e+000 -7.3351e-001  5.5540e+000 53582 85748,85604,85293
 1.6000e+000 85702 -1.2729e+001 -5.1662e+000  9.0902e+000 53582 85293,85241,85676
 1.6000e+000 85725 -8.1627e+000 -1.2511e+000  5.5848e+000 53582 85748,85293,85676
 1.6000e+000 85774 -8.1451e+000  6.3742e-003  5.6807e+000 53582 85137,85604,85748
 1.6000e+000 85797 -8.0188e+000 -4.7412e-001  5.6557e+000 53582 85137,85748,85676
 1.6000e+000 86303  5.1025e+000  1.9593e+000  1.5131e+000 53178 86326,86084,86006
 1.6000e+000 86280  4.4730e+000  5.7691e-001  1.7894e+000 53178 86326,86006,86162
 1.6000e+000 86257  8.0151e+000  5.6178e+000  9.7508e-003 53178 86398,86110,86084
 1.6000e+000 86234  4.5663e+000  1.3829e+000  9.3509e-001 53178 86006,86058,86032
 1.6000e+000 86211  4.9971e+000  1.9496e+000  1.3015e+000 53178 86006,86084,86058
 1.6000e+000 86188  4.1583e-001 -2.6139e+000  6.1212e+000 53178 85980,86162,86006
 1.6000e+000 86352  4.4999e+000  3.1634e+000  2.0839e+000 53178 86398,86084,86326
 1.6000e+000 86375 -8.0595e-001  3.0273e+000  1.0419e+000 53178 86136,86326,86162
 1.6000e+000 86424  7.5022e+000  7.0172e+000 -2.6186e+000 53178 86136,86110,86398
 1.6000e+000 86447  5.4220e+000  7.2727e+000 -8.0452e-001 53178 86136,86398,86326
 1.6000e+000 86904  1.6982e-001  1.0712e+001  6.0134e-002 52774 86708,86760,86734
 1.6000e+000 86881  5.1051e-002  5.6886e+000 -1.9727e+000 52774 86656,86760,86708
 1.6000e+000 86858  4.3349e+000  5.3183e+000 -5.7716e-001 52774 86656,86708,86682
 1.6000e+000 86835  3.0796e+000  6.6642e+000 -1.1010e+000 52774 86630,86760,86656
 1.6000e+000 86812  2.6272e+000  5.9159e+000  5.1398e-002 52774 86630,86786,86760
 1.6000e+000 87489  1.1581e+000  1.0937e+001  3.1202e+000 52234 87512,87218,87192
 1.6000e+000 87466 -6.2711e-001  8.1247e+000  7.6675e-001 52234 87512,87192,87348
 1.6000e+000 87443 -3.3407e-001  6.1403e+000  9.8870e-001 52234 87166,87348,87192
 1.6000e+000 87420 -4.3352e+000  5.2825e+000  3.2364e-001 52234 87296,87348,87322
 1.6000e+000 87397 -1.8299e+000  5.4065e+000  1.1043e+000 52234 87218,87296,87270
 1.6000e+000 87374  7.4109e-001  5.1473e+000  1.9905e+000 52234 87218,87270,87244
 1.6000e+000 87538 -5.2331e-001  6.6206e+000  1.6072e+000 52234 87296,87218,87512
 1.6000e+000 87561 -1.0479e+000  6.5227e+000 -6.9644e-001 52234 87296,87512,87348
 1.6000e+000 87841  6.3035e-001  1.1124e+001 -2.8089e-001 51830 87665,87743,87691
 1.6000e+000 87818  3.7439e+000  1.2780e+001  5.8118e-001 51830 87665,87769,87743
 1.6000e+000 87795 -5.5131e+000  6.8455e+000 -2.8631e+000 51830 87864,87691,87743
 1.6000e+000 87890 -1.3615e+001  3.3727e+000 -3.2208e+000 51830 87717,87691,87864
 1.6000e+000 88418 -5.5304e+000 -5.0860e+000  3.9519e+000 51262 88095,88173,88121
 1.6000e+000 88395 -5.7786e+000 -2.4136e+000  3.6719e+000 51262 88095,88251,88173
 1.6000e+000 88372 -9.2379e+000 -4.9714e+000  1.3346e+000 51262 88173,88251,88199
 1.6000e+000 88349 -8.1893e+000  4.1246e+000  7.6627e+000 51262 88095,88277,88251
 1.6000e+000 88326 -9.7028e-001  1.5332e+000  4.6490e+000 51262 88199,88251,88225
 1.6000e+000 88303 -4.3372e+000 -2.5298e+000  3.5774e+000 51262 88121,88173,88147
 1.6000e+000 88875 -9.8082e-001  4.7305e+000 -4.3422e+000 50750 88601,88731,88627
 1.6000e+000 88852 -2.8768e+000  1.0602e+001 -5.4138e+000 50750 88601,88757,88731
 1.6000e+000 88829  3.3664e-001  8.3761e+000 -1.3362e-001 50750 88627,88731,88653
 1.6000e+000 88806  2.5855e-001  7.1612e+000  3.3245e-001 50750 88653,88731,88705
 1.6000e+000 88783 -1.3058e+001 -5.4795e-001 -4.3304e+000 50750 88653,88705,88679
 1.6000e+000 89145 -3.7896e+000 -6.5130e+000  3.3404e-001 50438 88946,89024,88972
 1.6000e+000 89122 -3.1562e+000 -6.7288e+000  2.3538e-001 50438 88946,89050,89024
 1.6000e+000 89099 -2.7558e+000 -6.8683e+000  1.7726e-001 50438 88920,89050,88946
 1.6000e+000 89076 -3.4004e+000 -5.9107e+000  1.2777e+000 50438 88972,89024,88998
 1.6000e+000 89525 -2.9345e+000 -6.8519e+000  7.3011e-001 49934 89548,89277,89251
 1.6000e+000 89502 -3.1666e+000 -6.8130e+000  8.5348e-001 49934 89548,89251,89381
 1.6000e+000 89479 -3.5875e+000 -6.7133e+000  8.8088e-001 49934 89303,89381,89329
 1.6000e+000 89456 -3.8093e+000 -6.9284e+000  7.1416e-001 49934 89251,89407,89381
 1.6000e+000 89433 -3.2589e+000 -6.3782e+000  6.9028e-001 49934 89329,89381,89355
 1.6000e+000 89574 -3.5217e+000 -6.6620e+000  4.2511e-001 49934 89303,89277,89548
 1.6000e+000 89597 -3.4157e+000 -6.7601e+000  9.2178e-001 49934 89303,89548,89381
 1.6000e+000 90054 -5.2213e+000 -3.8278e+000  2.0716e+000 49380 89832,89936,89910
 1.6000e+000 90031 -5.3495e+000 -4.3117e+000  2.1308e+000 49380 89780,89936,89832
 1.6000e+000 90008 -3.0313e+000 -5.2136e+000  1.4947e+000 49380 89780,89832,89806
 1.6000e+000 89985 -4.4639e+000 -3.3155e+000  2.2966e+000 49380 89832,89910,89858
 1.6000e+000 89962 -3.5425e+000  1.7636e+000  5.3190e+000 49380 89858,89910,89884
 1.6000e+000 90560 -4.8244e+000 -5.1611e+000  1.9581e+000 48890 90289,90341,90315
 1.6000e+000 90537 -5.2143e+000 -5.3344e+000  1.7190e+000 48890 90289,90393,90341
 1.6000e+000 90514 -4.3991e+000 -3.8415e+000  2.1205e+000 48890 90263,90393,90289
 1.6000e+000 90491 -2.3206e+000 -3.0672e+000  2.3658e+000 48890 90237,90393,90263
 1.6000e+000 90468 -5.8415e+000 -2.7237e+000  2.3753e+000 48890 90341,90393,90367
 1.6000e+000 90445 -1.9884e+000 -3.0282e+000  2.4933e+000 48890 90237,90419,90393
 1.6000e+000 91115 -4.6285e+000 -5.4452e+000  7.3166e-002 48486 90795,90873,90847
 1.6000e+000 91092 -5.0817e+000 -6.0052e+000  3.4749e-001 48486 90795,90925,90873
 1.6000e+000 91069 -3.5278e+000 -5.8561e+000 -2.1078e-001 48486 90769,90925,90795
 1.6000e+000 91046 -5.6876e+000 -7.0230e+000  2.6397e-001 48486 90769,90951,90925
 1.6000e+000 91023 -5.2458e+000 -6.1887e+000  7.7788e-001 48486 90795,90847,90821
 1.6000e+000 91000 -5.2105e+000 -7.3992e+000 -9.8068e-001 48486 90873,90925,90899
 1.6000e+000 90977 -3.2485e+000 -5.8621e+000  6.1454e-001 48486 90743,90951,90769
 1.6000e+000 91265 -3.1673e+000 -3.2427e+000  8.0641e-001 48082 91288,91190,91164
 1.6000e+000 91242 -3.0632e+000 -4.3293e+000  1.5163e+000 48082 91360,91288,91164
 1.6000e+000 91314 -3.5986e+000 -4.2427e+000  1.4382e+000 48082 91216,91190,91288
 1.6000e+000 91337 -2.9486e+000 -6.3115e+000  1.7958e+000 48082 91216,91288,91138
 1.6000e+000 91386 -2.2630e+000 -4.4380e+000  1.0919e+000 48082 91138,91288,91360
 1.6000e+000 92022  2.0876e+000 -4.2918e+000 -1.1508e+001 47514 92261,92045,91754
 1.6000e+000 91999 -5.7662e-001  4.0779e-001  4.4483e-001 47514 92189,92045,91702
 1.6000e+000 91976 -5.4219e+000  7.5108e+000 -2.1341e+000 47514 92117,91806,91754
 1.6000e+000 91953  1.2338e+000  5.6642e+000 -4.4867e-001 47514 92189,91702,91650
 1.6000e+000 91930  1.4844e+001 -6.8149e+000 -9.4076e+000 47514 92261,91754,91728
 1.6000e+000 91907 -1.3069e+001  2.3990e+000 -4.7574e+000 47514 91754,91806,91780
 1.6000e+000 91884  6.2045e+000  5.7114e+000 -2.2919e+000 47514 91650,91702,91676
 1.6000e+000 92071 -7.3310e+000  4.2167e+000 -7.0278e+000 47514 92117,91754,92045
 1.6000e+000 92094  4.2462e-001  6.2623e-001 -3.5428e+000 47514 91832,92045,91858
 1.6000e+000 92143 -9.4363e-001  9.9793e+000  2.0658e+000 47514 91832,91806,92117
 1.6000e+000 92166 -5.8612e-001  4.3259e+000 -2.9877e+000 47514 91832,92117,92045
 1.6000e+000 92215  1.1446e-001  4.9136e+000 -1.8687e+000 47514 91858,92045,92189
 1.6000e+000 92238  2.4660e-001  7.6009e+000 -2.7340e+000 47514 91858,92189,91650
 1.6000e+000 92287  5.0755e+000 -3.1910e-002 -9.8756e-001 47514 91702,92045,92261
 1.6000e+000 92310  1.4091e+001 -1.7286e+000  2.2543e+000 47514 91702,92261,91728
 1.6000e+000 92460 -2.8047e+000  4.2797e+000  9.1493e-001 47124 92483,92359,92333
 1.6000e+000 92437 -2.5656e+000 -2.1645e+000 -1.2112e+000 47124 92555,92483,92333
 1.6000e+000 92509 -1.7995e+000  6.3394e+000  3.8552e+000 47124 92685,92483,92385
 1.6000e+000 92532 -1.1163e+000  1.3020e+000  1.8507e+000 47124 92385,92483,92411
 1.6000e+000 92581 -1.6579e+000  8.2962e-001 -4.7745e-001 47124 92411,92483,92555
 1.6000e+000 92711 -7.3945e-001  6.0893e+000  4.0513e+000 47124 92359,92483,92685
 1.6000e+000 93571 -8.6885e+000 -5.1761e+000  1.5399e+000 46834 93594,93208,93104
 1.6000e+000 93548 -9.2643e+000 -5.5429e+000  2.0776e+000 46834 93738,93594,93104
 1.6000e+000 93525 -1.2724e+001 -1.2246e+001 -1.8820e+000 46834 93666,93234,93208
 1.6000e+000 93502 -5.7745e+000 -4.4243e+000  2.4432e+000 46834 93738,93104,93078
 1.6000e+000 93479 -1.1957e+001 -6.3862e+000  8.3857e-001 46834 93810,93260,93234
 1.6000e+000 93456 -5.7822e+000 -5.2085e+000  1.0827e+000 46834 93104,93182,93156
 1.6000e+000 93433 -7.5158e+000 -9.6133e+000  8.8106e-001 46834 93104,93208,93182
 1.6000e+000 93410 -1.8079e+001 -3.1898e+000  4.3385e+000 46834 93286,93338,93312
 1.6000e+000 93387 -9.0705e+000 -4.5405e+000  2.3335e+000 46834 93052,93338,93078
 1.6000e+000 93364 -5.9074e+000 -2.8902e+000  2.6722e-001 46834 93104,93156,93130
 1.6000e+000 93620 -1.0460e+001 -7.3208e+000  4.4505e-001 46834 93666,93208,93594
 1.6000e+000 93643 -1.1567e+001 -2.0967e+000  2.3454e+000 46834 93286,93594,93338
 1.6000e+000 93692 -1.2304e+001 -6.2334e+000  4.0481e-001 46834 93810,93234,93666
 1.6000e+000 93715 -1.2550e+001 -2.6833e+000  8.6197e-001 46834 93286,93666,93594
 1.6000e+000 93764 -1.2034e+001 -3.9565e+000  2.7368e+000 46834 93338,93594,93738
 1.6000e+000 93787 -1.0953e+001 -4.5959e+000  2.7905e+000 46834 93338,93738,93078
 1.6000e+000 93836 -1.0927e+001 -5.9679e+000  8.5611e-001 46834 93286,93260,93810
 1.6000e+000 93859 -1.1336e+001 -5.8396e+000  4.3947e-001 46834 93286,93810,93666
 1.6000e+000 94210 -5.9516e+000 -1.1336e+001  5.4923e-002 46472 94011,94115,94089
 1.6000e+000 94187 -5.5520e+000 -9.7483e+000  9.1946e-002 46472 93985,94115,94011
 1.6000e+000 94164 -4.9660e+000 -8.4473e+000 -1.3533e-001 46472 94037,94089,94063
 1.6000e+000 94141 -5.6904e+000 -1.1342e+001  2.7850e-001 46472 94011,94089,94037
 1.6000e+000 94746  1.3180e+000  3.9048e+000 -8.6041e-002 46068 94576,94628,94602
 1.6000e+000 94723 -2.6176e-001  3.2660e+000 -2.5256e-001 46068 94498,94628,94576
 1.6000e+000 94700  6.4187e+000  8.2023e+000 -3.7763e+000 46068 94472,94628,94498
 1.6000e+000 94677  7.1715e+000  6.3646e+000 -1.2768e+000 46068 94524,94576,94550
 1.6000e+000 94654  3.2820e+000  4.7530e+000  1.2370e+000 46068 94498,94576,94524
 1.6000e+000 95380  1.1393e+001  1.0596e+000  1.8563e+000 45342 95034,95112,95086
 1.6000e+000 95357 -6.5355e-001 -1.0015e+000  2.2141e+000 45342 95034,95190,95112
 1.6000e+000 95334  1.5195e+001 -3.6998e+000 -2.1726e+000 45342 95403,95164,95138
 1.6000e+000 95311  7.2139e+000  3.0588e+000  1.3999e+000 45342 95403,95138,95112
 1.6000e+000 95288  1.1371e+001 -3.3336e+000  4.4372e-001 45342 95034,95216,95190
 1.6000e+000 95265  8.4968e+000  1.8767e+000  3.9593e+000 45342 95034,95086,95060
 1.6000e+000 95242  1.2790e+001  3.6815e-002  4.0300e-001 45342 95008,95216,95034
 1.6000e+000 95429  8.2592e+000 -5.9568e+000 -3.6270e+000 45342 95190,95164,95403
 1.6000e+000 95452  3.4265e-001  1.7869e-001 -1.4715e+000 45342 95190,95403,95112
 1.6000e+000 96007 -9.5954e+000 -5.6413e+000 -7.4041e-001 44716 96030,95791,95765
 1.6000e+000 95984 -4.7741e+000 -9.4753e+000 -1.2028e+000 44716 96030,95765,95713
 1.6000e+000 95961 -1.4482e+000 -4.9919e+000 -5.1991e-001 44716 96174,96102,95661
 1.6000e+000 95938 -1.2871e+000 -5.0819e+000 -5.1345e-001 44716 96174,95661,95635
 1.6000e+000 95915 -4.8577e+000 -6.7496e+000  3.5543e+000 44716 95661,95713,95687
 1.6000e+000 95892  1.5094e+000 -7.8374e+000 -3.2581e+000 44716 95713,95765,95739
 1.6000e+000 95869  1.7332e+000 -2.7503e+000 -1.7254e+000 44716 95635,95843,95817
 1.6000e+000 96056 -4.9479e+000 -4.4318e+000 -1.0799e-001 44716 95817,95791,96030
 1.6000e+000 96079 -4.4913e+000 -6.1714e+000 -1.8574e+000 44716 96102,95817,96030
 1.6000e+000 96128 -3.0242e-001 -3.0810e+000  1.9729e+000 44716 95713,95661,96102
 1.6000e+000 96151 -9.4989e-001 -5.8773e+000  5.3765e-001 44716 95713,96102,96030
 1.6000e+000 96200 -1.7678e+000 -5.0400e+000 -3.6927e-001 44716 95817,96102,96174
 1.6000e+000 96223 -1.4706e+000 -5.0142e+000 -3.7768e-001 44716 95817,96174,95635
 1.6000e+000 96680  2.9130e+000  6.5088e+000 -2.0938e+000 44198 96775,96703,96458
 1.6000e+000 96657  4.3931e+000  1.2562e+000 -3.4923e+000 44198 96703,96406,96562
 1.6000e+000 96634  6.0489e+000  7.9372e+000 -2.8171e+000 44198 96775,96458,96432
 1.6000e+000 96611  3.4899e+000  3.7556e+000 -2.9771e+000 44198 96484,96536,96510
 1.6000e+000 96588 -2.2211e+000  2.8573e+000  2.7700e-001 44198 96458,96536,96484
 1.6000e+000 96729 -1.6951e+000  4.4602e-001  7.1039e-001 44198 96536,96458,96703
 1.6000e+000 96752  4.0767e+000  5.7329e-001 -3.6049e+000 44198 96536,96703,96562
 1.6000e+000 96801  7.9009e+000  1.8530e+000 -1.6323e+000 44198 96406,96703,96775
 1.6000e+000 96824  1.2038e+001  4.6196e+000 -3.1061e+000 44198 96406,96775,96432
 1.6000e+000 97202 -6.7573e+000 -8.3573e+000  1.5873e+000 43750 97225,96980,96928
 1.6000e+000 97179 -5.7846e+000 -9.4899e+000  2.4039e+000 43750 97225,96928,97084
 1.6000e+000 97156 -6.0488e+000 -9.3636e+000  1.1027e+000 43750 96928,96980,96954
 1.6000e+000 97133 -3.5648e+000 -5.2174e+000  1.8234e+000 43750 97006,97084,97058
 1.6000e+000 97110 -3.7442e+000 -4.5367e+000  2.0023e+000 43750 97006,97058,97032
 1.6000e+000 97251 -5.9364e+000 -6.5605e+000  1.7783e+000 43750 97006,96980,97225
 1.6000e+000 97274 -5.3020e+000 -8.4166e+000  2.5341e+000 43750 97006,97225,97084
 1.6000e+000 97522 -3.3352e+000  3.3547e-001 -5.9874e-001 43360 97545,97375,97349
 1.6000e+000 97499 -4.2511e+000 -2.6209e+000 -1.9074e+000 43360 97545,97349,97323
 1.6000e+000 97476 -4.2272e+000 -2.4435e+000 -4.9053e+000 43360 97617,97427,97401
 1.6000e+000 97453  8.3035e-002 -2.6720e+000 -7.6588e+000 43360 97297,97427,97323
 1.6000e+000 97571 -6.8820e+000 -5.8115e+000  1.0220e+000 43360 97401,97375,97545
 1.6000e+000 97594 -4.1976e+000 -5.8724e+000 -2.4486e+000 43360 97617,97401,97545
 1.6000e+000 97643 -2.5758e+000  1.6317e+000 -5.8252e+000 43360 97323,97427,97617
 1.6000e+000 97666 -1.8450e+000  3.2249e-001 -3.0280e+000 43360 97323,97617,97545
 1.6000e+000 98019 -2.5274e+001 -1.0742e+000 -5.8028e+000 42956 97794,97898,97820
 1.6000e+000 97996 -2.1673e+001 -8.6210e+000 -4.0058e+000 42956 97794,97924,97898
 1.6000e+000 97973 -4.7920e+001  8.5800e-001 -1.4409e+000 42956 97820,97872,97846
 1.6000e+000 97950 -4.2178e+001 -3.0509e+000 -4.7427e+000 42956 97820,97898,97872
 1.6000e+000 98446 -8.0130e+000 -7.0087e+000  2.6038e+000 42559 98149,98305,98279
 1.6000e+000 98423 -6.0786e+000 -5.1571e+000  3.7058e+000 42559 98123,98305,98149
 1.6000e+000 98400 -5.8602e+000 -6.9449e+000  2.0264e+000 42559 98469,98175,98149
 1.6000e+000 98377 -3.0576e+000 -4.6980e-001  1.1410e-001 42559 98469,98149,98279
 1.6000e+000 98354 -5.3706e+000 -3.5720e+000 -3.2575e-001 42559 98175,98253,98227
 1.6000e+000 98331 -5.5140e+000 -3.3330e+000  5.9832e-001 42559 98175,98227,98201
 1.6000e+000 98495 -3.5771e+000 -2.4785e+000 -1.1933e+000 42559 98253,98175,98469
 1.6000e+000 98518 -2.9035e+000 -1.0427e-001 -2.9988e+000 42559 98253,98469,98279
 1.6000e+000 98847  1.4900e+001 -1.6297e+000 -2.8361e+000 42247 98674,98752,98700
 1.6000e+000 98824  8.1820e+000  6.1008e+000  2.4802e+000 42247 98648,98752,98674
 1.6000e+000 98801  7.0668e+000  4.3891e+000  9.8769e+000 42247 98622,98752,98648
 1.6000e+000 98778  1.5242e+001 -4.4750e+000  2.0557e+000 42247 98700,98752,98726
 1.6000e+000 99117 -7.0258e+000 -9.7112e+000 -3.4326e-001 41843 98892,98996,98918
 1.6000e+000 99094 -7.6629e+000 -1.1268e+001  5.5960e-001 41843 98892,99022,98996
 1.6000e+000 99071 -5.6417e+000 -7.9813e+000  2.5897e-001 41843 98918,98996,98970
 1.6000e+000 99048 -7.3298e+000 -8.5232e+000  1.1505e-001 41843 98918,98970,98944
 1.6000e+000 99625  2.5125e-001  8.5480e+000  3.8042e+000 41232 99648,99380,99354
 1.6000e+000 99602  6.0811e+000  9.1777e+000  2.8600e+000 41232 99648,99354,99328
 1.6000e+000 99579  5.8067e+000  1.2748e+001  6.1349e+000 41232 99720,99432,99380
 1.6000e+000 99556 -1.7031e+000  6.3351e+000  3.9093e-001 41232 99380,99432,99406
 1.6000e+000 99533  5.4373e+000  1.2785e+000  2.3713e+000 41232 99328,99484,99458
 1.6000e+000 99510  1.8052e+001  5.2804e+000  3.3699e+000 41232 99302,99484,99328
 1.6000e+000 99674  1.7974e+000  1.1046e+001  4.9651e+000 41232 99720,99380,99648
 1.6000e+000 99697  3.7943e+000  9.4325e-001  2.3896e+000 41232 99458,99648,99328
 1.6000e+000 99746  1.1180e+001  1.0511e+001  8.2334e+000 41232 99458,99432,99720
 1.6000e+000 99769  8.0190e+000  8.6403e+000  6.6070e+000 41232 99458,99720,99648
 1.6000e+000 100275  6.0151e+000 -4.8368e-002 -7.2349e+000 40728 99952,100004,99978
 1.6000e+000 100252  3.5503e+000 -2.4368e+000 -8.3790e+000 40728 99952,100030,100004
 1.6000e+000 100229 -3.3473e+000 -1.0265e+001 -5.3019e+000 40728 99952,100134,100030
 1.6000e+000 100206 -1.6521e+000 -2.4732e-001 -5.7177e+000 40728 100298,100108,100082
 1.6000e+000 100183 -4.1923e-001 -6.9081e+000 -7.1055e+000 40728 100298,100082,100030
 1.6000e+000 100160 -1.5405e+001 -1.8098e+000 -2.1652e+001 40728 100030,100082,100056
 1.6000e+000 100324 -1.4458e+000  4.8859e+000 -3.5049e+000 40728 100134,100108,100298
 1.6000e+000 100347 -6.0354e-001 -2.9542e+000 -4.4195e+000 40728 100134,100298,100030
 1.6000e+000 100853 -7.4033e+000  9.1677e-001  7.5795e-001 40274 100876,100686,100660
 1.6000e+000 100830 -6.0739e+000 -2.1625e+000  1.8305e+000 40274 100948,100876,100660
 1.6000e+000 100807 -7.3499e+000 -2.7100e+000  2.5045e-001 40274 100948,100660,100608
 1.6000e+000 100784 -7.6092e+000 -3.9352e-002  2.4954e+000 40274 101020,100556,100712
 1.6000e+000 100761 -5.5658e+000  3.6194e+000  3.9252e+000 40274 100530,100712,100556
 1.6000e+000 100738 -7.8804e+000 -4.2322e-001  1.3777e+000 40274 100608,100660,100634
 1.6000e+000 100902 -6.6235e+000  8.4533e+000  3.2606e+000 40274 100712,100686,100876
 1.6000e+000 100925 -8.4677e+000  2.2652e-001  1.7666e+000 40274 101020,100712,100876
 1.6000e+000 100974 -7.1885e+000 -3.7156e+000 -2.7129e-002 40274 100582,100876,100948
 1.6000e+000 100997 -9.6476e+000 -4.4652e+000 -1.6080e+000 40274 100582,100948,100608
 1.6000e+000 101046 -6.5410e+000  4.1450e-001  2.5727e+000 40274 100582,100556,101020
 1.6000e+000 101069 -7.1293e+000  7.6666e-001  1.7285e+000 40274 100582,101020,100876
 1.6000e+000 101496  2.5554e-001  5.3019e+000  3.4549e+000 39820 101519,101277,101225
 1.6000e+000 101473 -5.0245e+000 -4.6345e+000  1.3393e+000 39820 101519,101225,101199
 1.6000e+000 101450 -9.3746e+000 -1.9681e+000  8.2633e+000 39820 101173,101355,101199
 1.6000e+000 101427  1.0588e+001  1.1462e+000 -3.0799e-001 39820 101277,101355,101303
 1.6000e+000 101404  4.6527e+000  4.5969e+000 -7.4835e-001 39820 101225,101277,101251
 1.6000e+000 101381  5.9188e+000  2.7034e+000 -1.3039e+000 39820 101303,101355,101329
 1.6000e+000 101545  2.2705e+000 -3.6043e-001  7.5804e+000 39820 101355,101277,101519
 1.6000e+000 101568  4.4734e-001 -4.2024e+000  6.9660e+000 39820 101355,101519,101199
 1.6000e+000 101816 -5.9514e+000 -8.1874e+000  1.7202e+000 39066 101839,101695,101643
 1.6000e+000 101793 -7.3503e+000 -9.4136e+000  9.3234e-001 39066 101839,101643,101591
 1.6000e+000 101770 -4.7135e+000 -8.7245e+000  9.1728e-001 39066 101643,101695,101669
 1.6000e+000 101747 -5.7226e+000 -6.7179e+000  2.4907e-001 39066 101591,101643,101617
 1.6000e+000 101865 -4.5814e+000 -8.5028e+000  2.9185e+000 39066 101721,101695,101839
 1.6000e+000 101888 -6.0019e+000 -1.0175e+001  2.0245e+000 39066 101721,101839,101591
 1.6000e+000 102087 -7.9973e+000 -7.1852e+000 -3.1977e-001 38726 101937,101989,101963
 1.6000e+000 102064 -1.0201e+001 -9.0083e+000  4.6370e-001 38726 101937,102015,101989
 1.6000e+000 102041 -6.6772e+000 -7.5454e+000  7.2170e-001 38726 101911,102015,101937
 1.6000e+000 102337  5.8190e+000  3.0907e+000 -2.3024e+000 38322 102112,102190,102138
 1.6000e+000 102314  3.7747e-001  9.1082e-001  4.5356e+000 38322 102112,102216,102190
 1.6000e+000 102291  1.0971e+001 -6.8430e+000  9.7713e+000 38322 102112,102242,102216
 1.6000e+000 102268 -4.2046e+000  2.1239e-001 -1.7214e+000 38322 102138,102190,102164
 1.6000e+000 102489 -4.6017e+000 -3.7164e+000  1.0906e+000 38032 102512,102388,102362
 1.6000e+000 102466 -5.0138e+000 -1.3896e+000 -1.0399e-001 38032 102512,102362,102440
 1.6000e+000 102538 -4.0235e+000 -5.7047e+000  8.2273e-001 38032 102414,102388,102512
 1.6000e+000 102561 -5.0487e+000 -4.3371e+000 -7.4754e-001 38032 102414,102512,102440
 1.6000e+000 102894 -9.9594e-001  9.7973e+000 -1.0750e+000 37592 102669,102773,102695
 1.6000e+000 102871  8.3455e+000  1.1445e+001 -5.7728e+000 37592 102669,102799,102773
 1.6000e+000 102848  6.7983e+000  1.8863e+001  7.0788e-001 37592 102721,102773,102747
 1.6000e+000 102825  1.6446e+000  3.8247e-001 -5.8637e-001 37592 102695,102773,102721
 1.6000e+000 103093  2.5281e+000  1.0585e+001 -2.1836e+000 37188 102917,102995,102943
 1.6000e+000 103070  1.9819e+000  1.3330e+001  2.0805e-001 37188 102917,103021,102995
 1.6000e+000 103047  5.3226e+000  8.6515e+000 -1.2600e+000 37188 102943,102995,102969
 1.6000e+000 103341  9.3825e+000  1.4135e+001  1.7334e+000 36605 103142,103194,103168
 1.6000e+000 103318  1.0567e+001  1.3166e+001  2.7900e+000 36605 103142,103220,103194
 1.6000e+000 103295  1.6015e+001  7.1367e+000 -6.6651e-001 36605 103116,103220,103142
 1.6000e+000 103272  2.2001e+001  1.5162e+001 -4.7894e+000 36605 103116,103246,103220
 1.6000e+000 103949 -6.5418e+000 -1.1252e+001 -1.7167e+000 36127 103554,103606,103580
 1.6000e+000 103926 -1.0310e+001 -6.9201e+000 -2.8640e+000 36127 103528,103606,103554
 1.6000e+000 103903 -8.9065e+000 -5.2607e+000 -4.7581e+000 36127 103528,103736,103606
 1.6000e+000 103880 -9.1142e+000 -9.3427e+000 -4.8770e+000 36127 103972,103710,103632
 1.6000e+000 103857 -1.2115e+001 -1.6146e+001 -9.6826e+000 36127 103972,103632,103606
 1.6000e+000 103834 -5.5870e+000 -8.5325e+000 -3.5207e+000 36127 103632,103710,103658
 1.6000e+000 103811 -1.4307e+001 -4.1780e-001 -1.0677e+001 36127 103528,103762,103736
 1.6000e+000 103788 -2.9825e+000  2.6506e-001 -4.8564e-001 36127 103658,103710,103684
 1.6000e+000 103998 -5.3088e+000 -3.1930e+000  7.0577e-003 36127 103736,103710,103972
 1.6000e+000 104021 -8.8097e+000 -9.6317e+000 -4.9465e+000 36127 103736,103972,103606
 1.6000e+000 104220 -1.6707e+001  4.7987e-001  3.0749e+000 35787 104070,104148,104122
 1.6000e+000 104197 -1.6248e+001  1.9466e+001  7.2389e+000 35787 104044,104148,104070
 1.6000e+000 104174 -1.1026e+001  4.5822e+000  1.1840e+000 35787 104070,104122,104096
 1.6000e+000 104419 -6.0957e+000 -1.2771e+000  6.5992e-001 35440 104269,104321,104295
 1.6000e+000 104396 -2.9944e+000  5.6254e-001  1.6797e+000 35440 104269,104347,104321
 1.6000e+000 104373 -5.4374e+000 -2.2477e+000  6.4468e-001 35440 104243,104347,104269
 1.6000e+000 104718 -3.5561e+000  4.1074e+000 -2.5041e+000 34986 104496,104548,104522
 1.6000e+000 104695 -4.3063e+000  3.6182e+000 -2.2096e+000 34986 104741,104548,104496
 1.6000e+000 104672 -1.4848e+000  3.8453e+000 -1.8915e+000 34986 104741,104496,104444
 1.6000e+000 104649 -5.7452e+000  4.1140e+000  1.5950e-001 34986 104813,104574,104548
 1.6000e+000 104626 -1.4275e+000  4.3121e+000 -6.7545e-001 34986 104444,104496,104470
 1.6000e+000 104767 -5.8982e+000  4.0004e+000 -1.2136e+000 34986 104813,104548,104741
 1.6000e+000 104790 -3.3200e+000  3.8812e+000 -1.4516e+000 34986 104600,104741,104444
 1.6000e+000 104839 -2.3116e+000  5.3775e+000  7.9494e-001 34986 104600,104574,104813
 1.6000e+000 104862 -3.5949e+000  4.9873e+000 -1.3018e+000 34986 104600,104813,104741
 1.6000e+000 105014 -1.0890e+001 -5.7119e+000  4.0888e-001 34696 105169,105037,104913
 1.6000e+000 104991 -1.1489e+001 -8.4298e+000  9.0671e-001 34696 105169,104913,104887
 1.6000e+000 105063 -5.7376e+000 -2.8649e+000  1.9048e+000 34696 104939,104913,105037
 1.6000e+000 105195 -1.1767e+001 -5.1806e+000  2.6510e+000 34696 104965,105037,105169
 1.6000e+000 105218 -1.2173e+001 -7.3285e+000  3.1744e+000 34696 104965,105169,104887
 1.6000e+000 105368 -8.4830e+000 -2.5562e+000 -7.2630e-001 34384 105267,105319,105293
 1.6000e+000 105345 -7.5242e+000 -5.6150e-002 -7.5717e-002 34384 105241,105319,105267
 1.6000e+000 105616 -1.2578e+000  4.8918e+000 -1.3234e+000 33730 105639,105417,105391
 1.6000e+000 105593  1.9616e-001  4.1297e+000 -2.6097e+000 33730 105639,105391,105495
 1.6000e+000 105570 -2.1377e+000  6.3183e+000 -3.2943e+000 33730 105391,105521,105495
 1.6000e+000 105547 -3.6597e+000 -7.7855e-002  4.6540e+000 33730 105417,105469,105443
 1.6000e+000 105665  1.8458e-001  4.6888e+000 -1.7449e+000 33730 105469,105417,105639
 1.6000e+000 105688  3.8750e+000  5.6319e+000 -3.2769e+000 33730 105469,105639,105495
 1.6000e+000 105840 -5.1372e+000 -8.2190e-001 -3.7503e-001 33390 105713,105765,105739
 1.6000e+000 105817 -5.0718e+000 -3.9908e-002 -9.7947e-001 33390 105713,105791,105765
 1.6000e+000 106090 -6.5074e+000  1.6931e-001 -3.8398e+000 33043 106113,105943,105891
 1.6000e+000 106067 -8.1677e+000  1.8297e+000 -6.2936e-001 33043 106113,105891,105865
 1.6000e+000 106044 -4.4050e+000 -6.3834e-001 -2.1457e+000 33043 105891,105943,105917
 1.6000e+000 106021 -6.6843e+000  3.9020e+000 -1.1301e+000 33043 105865,105995,105969
 1.6000e+000 106139 -3.0079e+000  5.7996e+000 -5.4709e+000 33043 105969,105943,106113
 1.6000e+000 106162 -6.9018e+000  3.9956e+000 -1.1477e+000 33043 105969,106113,105865
 1.6000e+000 106412  1.2230e+001  7.4582e+000  1.2133e+000 32539 106435,106291,106239
 1.6000e+000 106389  1.0606e+001  5.6715e+000 -5.5933e-001 32539 106187,106317,106291
 1.6000e+000 106366  1.1417e+001  1.5333e+001  1.2897e+001 32539 106435,106239,106213
 1.6000e+000 106343  1.4481e+001  8.9918e+000  2.0213e+000 32539 106239,106291,106265
 1.6000e+000 106461  5.9387e+000  3.9836e+000 -2.7392e-001 32539 106187,106291,106435
 1.6000e+000 106484 -1.5441e+000  8.6364e+000  1.0460e+001 32539 106187,106435,106213
 1.6000e+000 106685 -6.1271e+000 -2.9032e+000 -1.9770e+000 31835 106535,106587,106561
 1.6000e+000 106662 -7.8414e+000 -2.3560e+000  2.6314e-001 31835 106509,106587,106535
 1.6000e+000 106639 -6.4937e+000  2.4898e+000 -1.1544e+000 31835 106509,106613,106587
 1.6000e+000 106935  1.3870e+000  5.3829e-001 -4.8049e+000 31530 106736,106814,106788
 1.6000e+000 106912  4.0534e+000  2.8615e+000 -3.2044e+000 31530 106710,106814,106736
 1.6000e+000 106889 -1.7829e+000 -1.9521e+000 -3.7231e+000 31530 106736,106788,106762
 1.6000e+000 106866  3.9272e+000  3.9191e+000 -5.2382e+000 31530 106710,106840,106814
 1.6000e+000 107339 -1.3186e+001 -3.0549e+000 -5.9484e-001 31026 107117,107221,107195
 1.6000e+000 107316 -1.1053e+001 -1.3128e+001  1.0169e+000 31026 107091,107221,107117
 1.6000e+000 107293 -1.3225e+001 -1.3296e+001  2.0127e+000 31026 107065,107221,107091
 1.6000e+000 107270 -1.3431e+001  9.8411e+000 -1.3341e+000 31026 107143,107195,107169
 1.6000e+000 107247 -1.9986e+001 -6.4088e+000 -2.1212e+000 31026 107117,107195,107143
 1.6000e+000 107538 -7.1219e+000 -3.2572e+000 -9.3412e-002 30714 107561,107388,107362
 1.6000e+000 107515 -7.0424e+000 -2.7313e+000 -1.7533e-001 30714 107561,107362,107466
 1.6000e+000 107492 -7.2953e+000 -4.1733e+000 -6.9268e-001 30714 107414,107466,107440
 1.6000e+000 107587 -6.9438e+000 -3.9419e+000 -1.1974e-001 30714 107414,107388,107561
 1.6000e+000 107610 -6.7772e+000 -3.2974e+000 -2.0987e-001 30714 107414,107561,107466
 1.6000e+000 107990 -6.6638e+000 -4.6624e+000  1.3163e+000 30260 108013,107846,107768
 1.6000e+000 107967 -6.1570e+000 -3.4200e+000  3.0131e-001 30260 108013,107768,107716
 1.6000e+000 107944 -6.6420e+000 -3.2239e+000  3.4632e-001 30260 107716,107768,107742
 1.6000e+000 107921 -6.9384e+000 -2.9545e+000  1.9795e+000 30260 107768,107846,107820
 1.6000e+000 107898 -6.5971e+000 -5.1682e+000  6.8397e-001 30260 107768,107820,107794
 1.6000e+000 108039 -5.8015e+000 -3.9897e+000  5.2816e-001 30260 107872,107846,108013
 1.6000e+000 108062 -5.7563e+000 -2.8545e+000 -4.1247e-001 30260 107872,108013,107716
 1.6000e+000 108261 -1.6241e+000 -1.4043e+001  1.9145e+000 29870 108284,108085,108163
 1.6000e+000 108238 -7.4430e+000 -7.8954e+000 -2.6709e+000 29870 108085,108189,108163
 1.6000e+000 108215  2.0592e+001 -2.8031e+000  5.7975e+000 29870 108284,108163,108137
 1.6000e+000 108310 -1.1937e+001 -6.2365e-001  9.6814e+000 29870 108111,108085,108284
 1.6000e+000 108333 -1.4211e+000  3.9620e+000  1.1430e+001 29870 108111,108284,108137
 1.6000e+000 108664  1.3266e+000  2.5973e+000 -4.1987e+000 29480 108465,108569,108543
 1.6000e+000 108641 -3.6160e+000  4.1095e+000  1.7706e+000 29480 108439,108569,108465
 1.6000e+000 108618 -7.5062e-001 -1.5499e+000 -1.6191e+000 29480 108465,108543,108491
 1.6000e+000 108595 -1.3035e+000 -2.4176e+000 -1.9127e+000 29480 108491,108543,108517
 1.6000e+000 108993 -1.4004e+000 -4.1374e+000  4.0326e+000 29076 108794,108872,108820
 1.6000e+000 108970 -3.6419e+000 -5.8809e+000  2.0167e+000 29076 108768,108872,108794
 1.6000e+000 108947  7.3660e-002 -4.2643e+000  2.9966e+000 29076 108820,108872,108846
 1.6000e+000 108924 -4.3112e+000 -4.9190e+000  6.4896e+000 29076 108768,108898,108872
 1.6000e+000 109420 -1.2764e+000  3.4166e-001 -3.8065e+000 28472 109123,109227,109201
 1.6000e+000 109397 -1.3569e+001 -1.5970e+000 -2.4339e+000 28472 109123,109253,109227
 1.6000e+000 109374 -3.9794e+000 -2.9017e+000 -2.5812e+000 28472 109123,109201,109175
 1.6000e+000 109351 -8.8873e+000  1.8407e+000 -8.5788e-001 28472 109123,109279,109253
 1.6000e+000 109328 -2.2020e+000 -2.0756e+000 -4.0250e-001 28472 109123,109175,109149
 1.6000e+000 109305 -1.1443e+001  8.2654e+000 -3.4015e+000 28472 109097,109279,109123
 1.6000e+000 109749 -1.0882e+001  6.6953e+000 -7.0096e+000 28018 109772,109602,109576
 1.6000e+000 109726 -1.0300e+001  1.7873e+000 -4.6468e+000 28018 109772,109576,109550
 1.6000e+000 109703 -1.1696e+001 -4.7793e+000 -8.2294e+000 28018 109524,109628,109550
 1.6000e+000 109680 -1.1634e+001 -9.8802e+000 -1.3533e+000 28018 109524,109654,109628
 1.6000e+000 109798 -1.4442e+001  4.1644e+000 -2.9903e+000 28018 109628,109602,109772
 1.6000e+000 109821 -1.0896e+001 -1.4559e+000 -2.1285e+000 28018 109628,109772,109550
 1.6000e+000 110199 -7.5696e+000 -5.7895e+000 -2.3094e+000 27564 110029,110081,110055
 1.6000e+000 110176 -5.4272e+000 -9.9800e-001 -1.7463e+000 27564 109925,110081,110029
 1.6000e+000 110153 -4.4866e+000 -6.1590e+000 -4.2172e-001 27564 109925,110029,109977
 1.6000e+000 110130 -4.3952e+000 -5.8937e+000  1.0749e+000 27564 109977,110029,110003
 1.6000e+000 110107 -3.9758e+000 -4.6027e+000 -6.3730e-001 27564 109925,109977,109951
 1.6000e+000 110398  1.0914e+001  1.0119e+001 -5.4226e-001 27003 110248,110326,110300
 1.6000e+000 110375  8.4756e+000  6.9578e+000 -1.7344e+000 27003 110222,110326,110248
 1.6000e+000 110352 -1.4733e+000  3.1346e+000 -3.6595e+000 27003 110248,110300,110274
 1.6000e+000 110646  9.5051e+000 -5.4762e+000  7.9543e+000 26563 110669,110473,110421
 1.6000e+000 110623  8.4571e+000 -1.7735e+001  1.2621e+001 26563 110669,110421,110551
 1.6000e+000 110600  1.2383e+001 -1.8869e+000  6.9646e+000 26563 110473,110525,110499
 1.6000e+000 110577  3.5923e+000 -1.4887e+001  1.6452e+001 26563 110421,110473,110447
 1.6000e+000 110695  9.0789e+000 -2.1747e+000  7.0546e+000 26563 110525,110473,110669
 1.6000e+000 110718  1.2879e+001 -6.1754e+000  1.2188e+001 26563 110525,110669,110551
 1.6000e+000 110870 -8.0605e+000  1.5558e-002 -4.6076e+000 26166 110769,110821,110795
 1.6000e+000 110847 -3.5565e+000 -8.6399e-001 -1.8706e+000 26166 110743,110821,110769
 1.6000e+000 111380 -8.9119e+000 -5.5463e+000  1.4801e+000 25712 111403,111109,111083
 1.6000e+000 111357 -7.9241e+000 -4.9376e+000  1.2175e+000 25712 111403,111083,111239
 1.6000e+000 111334 -1.1090e+001 -5.9033e+000  3.1318e+000 25712 111109,111161,111135
 1.6000e+000 111311 -7.9684e+000 -5.2374e+000  8.1128e-001 25712 111057,111239,111083
 1.6000e+000 111288 -6.5309e+000 -4.9233e+000  1.8490e+000 25712 111161,111239,111187
 1.6000e+000 111265 -5.6818e+000 -4.0042e+000  1.2737e+000 25712 111187,111239,111213
 1.6000e+000 111429 -7.9507e+000 -6.3987e+000  1.8189e+000 25712 111161,111109,111403
 1.6000e+000 111452 -6.7589e+000 -5.6887e+000  1.5241e+000 25712 111161,111403,111239
 1.6000e+000 111651 -7.3098e+000 -5.4182e+000  3.9474e-001 25300 111674,111501,111475
 1.6000e+000 111628 -7.2064e+000 -6.8589e+000  5.0999e-001 25300 111674,111475,111579
 1.6000e+000 111605 -7.7435e+000 -4.8285e+000 -3.1499e-001 25300 111501,111553,111527
 1.6000e+000 111700 -7.4392e+000 -4.3271e+000  3.8412e-001 25300 111553,111501,111674
 1.6000e+000 111723 -7.1501e+000 -5.5045e+000  6.1462e-001 25300 111553,111674,111579
 1.6000e+000 111922  1.9816e+000 -9.5332e-001 -2.5483e-001 24732 111798,111850,111824
 1.6000e+000 111899  1.3133e+000  3.0982e+000 -2.9324e+000 24732 111772,111850,111798
 1.6000e+000 111876 -1.1705e-001  2.6365e+000 -3.0537e+000 24732 111746,111850,111772
 1.6000e+000 112255 -4.9567e+000  3.8304e-001 -1.7736e+000 24142 112056,112108,112082
 1.6000e+000 112232 -3.9137e+000 -3.3135e-001 -5.6029e-001 24142 112056,112134,112108
 1.6000e+000 112209 -5.7171e+000 -2.5569e+000  2.3102e-001 24142 112056,112160,112134
 1.6000e+000 112186 -3.7366e+000 -2.7745e+000 -2.2947e-001 24142 112030,112160,112056
 1.6000e+000 112601 -1.7173e+001 -1.0075e+000  1.7994e+001 23852 112624,112382,112356
 1.6000e+000 112578 -2.5699e+001 -5.5853e-001  1.0070e+001 23852 112696,112624,112356
 1.6000e+000 112555 -2.2711e+001 -2.8611e+000  4.1064e+000 23852 112696,112356,112304
 1.6000e+000 112532 -2.0843e+001 -5.3353e+000  3.9690e+000 23852 112304,112356,112330
 1.6000e+000 112509 -2.4379e+000  1.5450e+001  1.2239e+001 23852 112278,112460,112304
 1.6000e+000 112486  3.3052e+001  6.4546e+000  7.5427e+000 23852 112382,112434,112408
 1.6000e+000 112650  1.9271e+001  7.0354e+000  2.3854e+001 23852 112434,112382,112624
 1.6000e+000 112673 -1.3502e+001 -9.0944e+000  1.5287e+001 23852 112434,112624,112460
 1.6000e+000 112722 -1.5096e+001  5.0361e+000  1.3520e+001 23852 112460,112624,112696
 1.6000e+000 112745 -1.4387e+001  1.0679e-001  7.0412e+000 23852 112460,112696,112304
 1.6000e+000 113015 -2.7368e+001  2.3245e+001 -6.8742e+000 23490 112842,112894,112868
 1.6000e+000 112992 -2.1525e+001  5.4526e+000 -6.1014e+000 23490 112816,112894,112842
 1.6000e+000 112969 -2.0772e+001  5.9033e+000 -1.3497e+000 23490 112790,112894,112816
 1.6000e+000 112946 -2.4169e+001 -3.3400e+000 -1.4807e+000 23490 112790,112920,112894
 1.6000e+000 113348 -6.0172e+000 -3.1598e-001 -3.9669e+000 22970 113175,113253,113227
 1.6000e+000 113325 -4.0915e+000 -4.1032e+000 -2.4898e+000 22970 113149,113253,113175
 1.6000e+000 113302 -8.1253e+000 -9.0810e+000 -7.5743e+000 22970 113175,113227,113201
 1.6000e+000 113279 -3.2293e+000 -2.0931e+000 -2.3804e+000 22970 113123,113253,113149
 1.6000e+000 113645 -6.8736e+000 -6.4273e+000 -2.0023e+000 22366 113423,113527,113449
 1.6000e+000 113622 -8.1797e+000 -7.8279e+000 -2.5432e+000 22366 113371,113527,113423
 1.6000e+000 113599 -6.9904e+000 -6.6408e+000 -1.7510e+000 22366 113449,113527,113501
 1.6000e+000 113576 -5.9678e+000 -7.6118e+000 -3.7116e-001 22366 113449,113501,113475
 1.6000e+000 113553 -4.4418e+000  3.8263e-001 -3.4128e+000 22366 113371,113423,113397
 1.6000e+000 113893 -5.5966e+000 -8.4702e+000 -5.2806e+000 21912 113916,113746,113720
 1.6000e+000 113870 -3.4082e+000 -6.1183e+000 -4.3761e+000 21912 113916,113720,113668
 1.6000e+000 113847 -5.5708e+000 -6.6171e+000 -2.8011e+000 21912 113988,113798,113772
 1.6000e+000 113824 -2.3982e+000 -2.6743e+000 -7.4825e+000 21912 113668,113720,113694
 1.6000e+000 113942 -3.8639e+000 -4.3043e+000 -5.1649e+000 21912 113772,113746,113916
 1.6000e+000 113965 -4.6442e+000 -4.3274e+000 -3.9967e+000 21912 113988,113772,113916
 1.6000e+000 114014 -3.7415e+000 -8.4982e+000 -3.5598e+000 21912 113668,113798,113988
 1.6000e+000 114037 -4.4688e+000 -7.6660e+000 -3.9092e+000 21912 113668,113988,113916
 1.6000e+000 114287  2.8526e+000 -3.1500e+000 -1.6654e+000 21408 114088,114140,114114
 1.6000e+000 114264  3.5534e+000 -3.2152e+000 -2.3101e+000 21408 114310,114140,114088
 1.6000e+000 114241  2.9681e+000 -2.0750e+000 -4.3736e+000 21408 114310,114088,114192
 1.6000e+000 114218  5.8381e-001 -1.8465e+000 -4.2760e+000 21408 114062,114192,114088
 1.6000e+000 114336  3.2379e+000 -6.2810e+000 -2.2585e+000 21408 114166,114140,114310
 1.6000e+000 114359  3.0517e+000 -3.9635e+000 -3.9384e+000 21408 114166,114310,114192
 1.6000e+000 114609  1.2465e+001  8.9170e+000  4.0398e+000 21018 114632,114488,114436
 1.6000e+000 114586  1.0777e+001  8.3703e+000  1.6354e+000 21018 114632,114436,114410
 1.6000e+000 114563  1.3791e+001  6.7081e+000  1.8661e+000 21018 114384,114514,114410
 1.6000e+000 114540  1.9198e+000  8.1549e+000  3.5551e+000 21018 114436,114488,114462
 1.6000e+000 114658  1.5889e+001  9.6425e+000  5.3263e+000 21018 114514,114488,114632
 1.6000e+000 114681  1.3376e+001  8.8196e+000  2.9980e+000 21018 114514,114632,114410
 1.6000e+000 114882  3.2155e+000 -8.0752e-001  1.5788e+000 20614 114732,114784,114758
 1.6000e+000 114859 -7.3622e-002 -1.0849e+000  3.9536e-002 20614 114732,114810,114784
 1.6000e+000 114836 -1.1506e+000 -2.0498e+000 -3.6575e-001 20614 114706,114810,114732
 1.6000e+000 115132 -5.2670e+000 -2.7426e+000 -1.0087e+000 20110 114907,115011,114933
 1.6000e+000 115109 -3.2914e+000 -1.1012e+000 -2.1647e+000 20110 114907,115037,115011
 1.6000e+000 115086 -4.8101e+000 -2.5396e+000 -9.1176e-001 20110 114933,115011,114985
 1.6000e+000 115063 -3.3828e+000 -1.5663e+000 -1.4083e+000 20110 114933,114985,114959
 1.6000e+000 115284 -5.3964e+000 -2.2197e+000 -9.4414e-001 19456 115378,115307,115157
 1.6000e+000 115261 -7.1084e+000  2.1196e-001 -1.6120e+000 19456 115378,115157,115235
 1.6000e+000 115333 -5.5895e+000 -1.9942e+000 -7.1391e-001 19456 115183,115157,115307
 1.6000e+000 115404 -6.5868e+000 -6.1390e+000 -1.4296e+000 19456 115209,115307,115378
 1.6000e+000 115427 -7.9436e+000 -3.1517e+000 -2.3099e+000 19456 115209,115378,115235
 1.6000e+000 115677 -8.8567e+000 -4.4675e+000  2.0049e-001 19002 115504,115582,115530
 1.6000e+000 115654 -8.1176e+000 -4.8616e+000  1.3738e-002 19002 115478,115582,115504
 1.6000e+000 115631 -8.3777e+000 -4.8087e+000  1.2442e+000 19002 115452,115582,115478
 1.6000e+000 115608 -8.2636e+000 -5.4958e+000 -6.5472e-001 19002 115530,115582,115556
 1.6000e+000 115998  3.4949e+000  1.1002e+001 -1.9867e+000 18712 115802,115880,115854
 1.6000e+000 115975  7.8535e+000  1.6404e+001  5.7096e-001 18712 115724,115880,115802
 1.6000e+000 115952  8.6955e+000  1.0682e+001 -3.2601e-001 18712 115724,115802,115776
 1.6000e+000 115929  1.0008e+001  1.2261e+001  1.2680e+000 18712 115724,115776,115750
 1.6000e+000 115906  5.1139e+000  1.1768e+001 -1.7438e+000 18712 115802,115854,115828
 1.6000e+000 116270 -2.3749e+001 -1.5798e+001  1.1769e+000 18308 116045,116123,116071
 1.6000e+000 116247 -2.1625e+001 -1.4491e+001  8.4459e+000 18308 116045,116175,116123
 1.6000e+000 116224 -3.7907e+001 -4.8470e+000  5.3928e+000 18308 116123,116175,116149
 1.6000e+000 116201 -1.1425e+001 -9.5898e+000 -9.5917e-001 18308 116071,116123,116097
 1.6000e+000 116422 -8.7982e+000 -6.5829e+000 -1.4806e-001 17996 116321,116373,116347
 1.6000e+000 116399 -8.1434e+000 -5.3870e+000  1.0791e-001 17996 116295,116373,116321
 1.6000e+000 116574  1.0183e+001  3.0104e+000  2.6797e+000 17392 116473,116525,116499
 1.6000e+000 116551  2.1979e+001  1.2582e+001  6.8807e+000 17392 116447,116525,116473
 1.6000e+000 116797  3.6825e-001 -9.2099e+000 -7.5538e-001 16938 116621,116699,116673
 1.6000e+000 116774  1.0048e+000 -1.3004e+001  2.2190e-001 16938 116621,116725,116699
 1.6000e+000 116751  1.0245e+000 -7.6791e+000 -3.6024e-001 16938 116621,116673,116647
 1.6000e+000 116998  1.6987e+001  2.0056e+000  3.0621e+000 16434 117021,116874,116848
 1.6000e+000 116975 -7.7535e+000 -3.0187e+000 -2.8619e+000 16434 117021,116848,116822
 1.6000e+000 116952  2.7055e+001  1.4283e+001  1.0434e+001 16434 116874,116926,116900
 1.6000e+000 117047  2.6244e+001 -1.5402e+000  4.7116e+000 16434 116926,116874,117021
 1.6000e+000 117070  1.8125e+001  4.9494e+000 -1.2325e+000 16434 116926,117021,116822
 1.6000e+000 117293 -3.2152e+000 -4.0595e+000 -1.2712e+000 16070 117117,117169,117143
 1.6000e+000 117270 -7.1678e+000 -5.8904e+000 -7.9496e-001 16070 117117,117221,117169
 1.6000e+000 117247 -8.4005e+000 -7.6461e+000 -1.3327e+000 16070 117169,117221,117195
 1.6000e+000 117445 -3.0383e+001 -1.5542e+001 -2.1676e+000 15645 117318,117370,117344
 1.6000e+000 117422 -3.6372e+001 -1.8972e+001  2.2039e-001 15645 117318,117396,117370
 1.6000e+000 117548 -2.6656e+000 -3.8984e+000  9.7427e-001 417 117470,117522,117496
 1.7000e+000 70760  3.0072e+000 -6.5630e+000  8.0065e-001 70380 70633,70685,70659
 1.7000e+000 70737 -3.1617e+000 -6.1378e+000 -1.0249e+000 70380 70633,70711,70685
 1.7000e+000 70861 -6.9065e-001 -4.1994e+000 -8.0124e-002 70068 70783,70835,70809
 1.7000e+000 71180 -1.8950e-002  1.0493e+000  2.2482e-001 69870 70932,70984,70958
 1.7000e+000 71157 -1.5315e-001  9.7784e-001  1.1148e-001 69870 70932,71010,70984
 1.7000e+000 71134 -8.8243e-001  3.6766e-001 -2.0200e-001 69870 70932,71036,71010
 1.7000e+000 71111 -6.9633e-001  2.2140e-001  1.2003e+000 69870 70932,71062,71036
 1.7000e+000 71088 -5.0464e-001  6.3571e-001  1.6944e-001 69870 70906,71062,70932
 1.7000e+000 71428  7.2128e-001  6.3693e+000  2.5977e+000 69694 71451,71281,71255
 1.7000e+000 71405  1.3906e+000  4.4970e+000  2.5382e+000 69694 71523,71451,71255
 1.7000e+000 71382  2.1640e+000  5.6682e+000  3.4413e+000 69694 71523,71255,71229
 1.7000e+000 71359  5.0245e-001  3.1409e+000  1.7113e+000 69694 71595,71333,71307
 1.7000e+000 71477  2.0891e-001  4.6400e+000  2.4848e+000 69694 71307,71281,71451
 1.7000e+000 71500  3.6445e-001  3.8968e+000  1.1474e+000 69694 71595,71307,71451
 1.7000e+000 71549  9.3847e-002  4.6645e+000  1.4921e+000 69694 71203,71451,71523
 1.7000e+000 71572  1.2253e-001  4.7326e+000  2.2477e+000 69694 71203,71523,71229
 1.7000e+000 71621  5.6989e-001  2.0166e+000  1.4072e+000 69694 71203,71333,71595
 1.7000e+000 71644  1.8439e-001  2.6047e+000  1.1584e+000 69694 71203,71595,71451
 1.7000e+000 71745  2.0763e-001 -2.6235e-001  3.7186e-002 69382 71667,71719,71693
 1.7000e+000 72100 -1.7480e+000  3.5591e-001  4.8527e-001 69184 71875,71979,71901
 1.7000e+000 72077  4.6716e-002 -1.2574e+000  1.5144e+000 69184 71875,72005,71979
 1.7000e+000 72054 -4.0948e-001  6.8238e-002 -6.7638e-001 69184 71901,71979,71953
 1.7000e+000 72031  4.2492e-001 -1.8754e-001 -2.2651e-001 69184 71901,71953,71927
 1.7000e+000 72250  9.3778e-002 -7.9476e-001 -7.9902e-002 68986 72149,72201,72175
 1.7000e+000 72227  4.5553e-002 -2.3215e+000  5.7864e-001 68986 72123,72201,72149
 1.7000e+000 72547 -5.7893e-001 -1.0352e+000  1.8756e+000 68582 72570,72403,72377
 1.7000e+000 72524 -2.7758e-001 -1.5650e+000  1.5420e+000 68582 72570,72377,72351
 1.7000e+000 72501 -3.2637e-001  9.3799e-001  6.1950e-001 68582 72642,72299,72429
 1.7000e+000 72478  7.0687e-001  5.6375e-001  3.8463e-001 68582 72273,72429,72299
 1.7000e+000 72455  7.3950e-001  5.6345e+000  3.2697e+000 68582 72299,72351,72325
 1.7000e+000 72596 -2.1658e-001 -1.1249e+000  1.3992e+000 68582 72429,72403,72570
 1.7000e+000 72619  3.1087e-001  7.2538e-002  8.9168e-001 68582 72642,72429,72570
 1.7000e+000 72668 -7.3866e-001  1.6678e-001  1.5893e+000 68582 72351,72299,72642
 1.7000e+000 72691 -3.1015e-001 -1.1719e+000  1.7845e+000 68582 72351,72642,72570
 1.7000e+000 73095 -4.6368e+000 -1.2893e+000  5.0019e-002 68384 72873,72925,72899
 1.7000e+000 73072 -5.4580e+000  6.6396e+000  3.5376e+000 68384 72847,72925,72873
 1.7000e+000 73049 -3.0009e+000 -1.9528e+000  9.0475e+000 68384 72847,72951,72925
 1.7000e+000 73026  5.0820e+000 -2.1202e+000  4.7044e+000 68384 72821,72951,72847
 1.7000e+000 73003  8.9143e-003 -6.6007e-001 -6.9072e-001 68384 72821,72977,72951
 1.7000e+000 73552 -1.6542e+000  4.8296e+000  2.4406e+000 68044 73304,73434,73408
 1.7000e+000 73529 -1.9710e+000  1.9398e+000 -9.2020e-001 68044 73278,73434,73304
 1.7000e+000 73506  5.5106e+000  1.5682e-001  2.6787e+000 68044 73356,73408,73382
 1.7000e+000 73483  7.0439e+000 -6.8925e-001  7.3629e-001 68044 73304,73408,73356
 1.7000e+000 73460  2.3451e+000  1.2025e+000 -1.5133e+000 68044 73304,73356,73330
 1.7000e+000 73871 -1.0183e+000  5.0376e+000 -1.6875e+000 67846 73675,73727,73701
 1.7000e+000 73848  4.4138e-001  4.2630e+000 -1.7177e+000 67846 73649,73727,73675
 1.7000e+000 73825 -1.1166e+000  4.5692e-002 -2.5975e+000 67846 73623,73727,73649
 1.7000e+000 73802  1.8246e+000  1.7957e+000 -1.4653e+000 67846 73623,73753,73727
 1.7000e+000 73779  3.2379e-001  2.6491e-001  6.2096e-002 67846 73597,73753,73623
 1.7000e+000 74021  5.7538e-001 -2.7814e+000  3.3269e-001 67598 73920,73972,73946
 1.7000e+000 73998  4.2439e-001 -2.9065e+000  1.5199e-001 67598 73894,73972,73920
 1.7000e+000 74271 -1.1987e-001 -2.0029e+000  5.7389e-001 67286 74072,74176,74150
 1.7000e+000 74248 -4.2229e-001 -1.4193e+000  6.2054e-001 67286 74046,74176,74072
 1.7000e+000 74225 -1.7469e-001 -2.4114e+000  6.3227e-001 67286 74072,74150,74098
 1.7000e+000 74202 -3.7585e-001 -2.7499e+000  3.7595e-001 67286 74098,74150,74124
 1.7000e+000 74374 -6.7393e-001 -4.7810e-001  6.0409e-001 67088 74296,74348,74322
 1.7000e+000 74646 -1.3741e+000  2.9563e+000 -1.3265e+000 66890 74421,74525,74447
 1.7000e+000 74623 -1.5504e-001  3.7767e+000 -2.5341e-002 66890 74421,74551,74525
 1.7000e+000 74600  2.9001e-001  5.7262e+000 -5.6472e-001 66890 74447,74525,74473
 1.7000e+000 74577 -2.1900e+000  4.3031e+000  5.2761e-001 66890 74473,74525,74499
 1.7000e+000 75254 -1.5785e+000 -9.1453e-001 -1.5639e+000 66528 74885,75067,75041
 1.7000e+000 75231  1.2196e+000  1.5726e+000 -4.7851e-001 66528 74859,75067,74885
 1.7000e+000 75208 -4.2391e-001  4.4391e+000 -9.3813e-001 66528 74937,75015,74963
 1.7000e+000 75185 -1.3513e+000  7.4079e-001 -9.1683e-001 66528 74911,75015,74937
 1.7000e+000 75162 -1.5455e+000  4.7933e-001 -1.0329e+000 66528 74911,75041,75015
 1.7000e+000 75139 -4.1554e-001  1.5869e+000 -3.6691e-001 66528 74885,75041,74911
 1.7000e+000 75116 -1.3188e+000 -2.3964e+000 -2.4539e+000 66528 74833,75067,74859
 1.7000e+000 75093 -3.3460e+000  3.3966e-002  3.2570e-001 66528 74963,75015,74989
 1.7000e+000 75453 -6.1739e-001  7.9178e+000 -8.8992e-001 66238 75303,75381,75355
 1.7000e+000 75430  7.4179e-001  3.5261e+000 -9.9798e-001 66238 75277,75381,75303
 1.7000e+000 75407 -9.0235e-001 -1.0182e+000  4.1635e-001 66238 75303,75355,75329
 1.7000e+000 75701 -1.2121e+000 -8.7347e-002 -1.5338e-001 65834 75528,75606,75580
 1.7000e+000 75678 -8.5368e-001  2.1120e+000 -6.9570e-003 65834 75502,75606,75528
 1.7000e+000 75655 -1.0476e+000  3.8030e-001  2.6534e-001 65834 75528,75580,75554
 1.7000e+000 75632  3.8749e-001  2.8153e+000  5.0799e-001 65834 75476,75606,75502
 1.7000e+000 75902  1.2070e+000  1.7861e+000  2.1462e-001 65636 75726,75804,75752
 1.7000e+000 75879  1.5577e+000  2.4095e+000 -6.6421e-001 65636 75726,75830,75804
 1.7000e+000 75856  2.7039e+000  1.2104e+000 -4.5235e-001 65636 75752,75804,75778
 1.7000e+000 76103  6.6133e+000  4.7011e+000 -1.3222e+000 65296 76126,75979,75953
 1.7000e+000 76080  5.6908e+000  8.4195e+000  8.5203e-001 65296 76126,75953,75927
 1.7000e+000 76057  1.2723e+001  1.9210e+001 -4.9066e+000 65296 76198,76005,75979
 1.7000e+000 76152  1.0547e+001  1.2246e+001 -2.7428e+000 65296 76198,75979,76126
 1.7000e+000 76175  5.5243e+000  4.6057e+000 -5.8782e-001 65296 76031,76126,75927
 1.7000e+000 76224  9.3411e+000  9.0494e+000 -1.5434e+000 65296 76031,76005,76198
 1.7000e+000 76247  9.2139e+000  6.5505e+000  8.5688e-001 65296 76031,76198,76126
 1.7000e+000 76602  6.9041e-001 -4.1844e-003  4.3351e-003 64892 76377,76481,76403
 1.7000e+000 76579  6.3045e-001 -1.7631e-001 -1.0444e-002 64892 76377,76507,76481
 1.7000e+000 76556  1.0316e+000  1.3532e+000 -1.7098e-001 64892 76403,76481,76429
 1.7000e+000 76533 -1.2454e+000  7.4966e-001 -1.6609e-001 64892 76429,76481,76455
 1.7000e+000 76801 -7.8875e+000  1.2939e-001  3.0203e+000 64438 76677,76729,76703
 1.7000e+000 76778 -2.9345e+000  1.2344e+001  2.9264e+000 64438 76651,76729,76677
 1.7000e+000 76755 -1.2544e+001  2.5323e+000 -2.8129e+000 64438 76625,76729,76651
 1.7000e+000 77230  3.4749e+000  1.0147e+000 -6.8595e-001 63920 77253,76959,76933
 1.7000e+000 77207  1.7989e+000  2.7674e-001 -5.0821e-001 63920 77253,76933,77063
 1.7000e+000 77184 -4.0068e-001  8.1787e-001 -1.0162e+000 63920 76959,77037,76985
 1.7000e+000 77161  1.7734e+000  5.2272e-001 -1.4845e-001 63920 76907,77063,76933
 1.7000e+000 77138 -2.7701e-001  7.4695e-001 -1.0088e+000 63920 76985,77037,77011
 1.7000e+000 77115  3.5318e-001  3.9292e-001  3.2240e-001 63920 76907,77089,77063
 1.7000e+000 77279  1.4661e+000  1.6521e+000 -8.3507e-001 63920 77037,76959,77253
 1.7000e+000 77302 -1.1377e-001  9.8377e-001 -7.2437e-001 63920 77037,77253,77063
 1.7000e+000 77680 -4.2776e+000  1.3231e+000  7.0135e+000 63316 77703,77484,77432
 1.7000e+000 77657 -5.3278e+000  1.2647e-001  6.1539e+000 63316 77703,77432,77406
 1.7000e+000 77634 -9.9750e+000 -3.5999e+000  6.2274e+000 63316 77406,77536,77510
 1.7000e+000 77611  2.1590e+000  1.0191e+000  9.1821e+000 63316 77432,77484,77458
 1.7000e+000 77588 -2.7230e+000  8.0881e-001  1.7066e+000 63316 77406,77562,77536
 1.7000e+000 77729 -3.1627e+000 -5.0324e-001  5.9496e+000 63316 77510,77484,77703
 1.7000e+000 77752 -4.6604e+000 -1.2296e+000  4.9469e+000 63316 77510,77703,77406
 1.7000e+000 78000 -5.1229e+000 -1.4931e+000 -4.2892e-001 62812 77801,77853,77827
 1.7000e+000 77977 -2.8998e+000  1.3726e+000 -1.4064e+000 62812 77801,77879,77853
 1.7000e+000 77954 -6.5555e+000 -3.0988e-001 -9.3059e-001 62812 77801,77905,77879
 1.7000e+000 77931 -1.8984e+000 -1.5224e-001 -1.2833e+000 62812 77775,77905,77801
 1.7000e+000 78380 -7.5901e+000 -4.4414e+000  1.0328e+000 62350 78184,78262,78236
 1.7000e+000 78357 -5.2548e+000 -4.2430e+000  1.7603e+000 62350 78132,78262,78184
 1.7000e+000 78334 -4.7470e+000 -4.0657e+000  1.2047e+000 62350 78106,78262,78132
 1.7000e+000 78311 -5.3101e+000 -3.7093e+000  1.9309e+000 62350 78132,78184,78158
 1.7000e+000 78288 -5.4279e+000 -2.9830e+000  3.8153e-001 62350 78184,78236,78210
 1.7000e+000 78837  2.9313e+000  4.5690e+000  1.2006e+000 61946 78615,78667,78641
 1.7000e+000 78814  1.3973e+000  2.4338e+000 -1.1146e+000 61946 78589,78667,78615
 1.7000e+000 78791  1.4102e+000  4.4685e-001 -1.1765e-001 61946 78589,78719,78667
 1.7000e+000 78768  3.5634e+000  2.3990e+000 -1.5609e+000 61946 78667,78719,78693
 1.7000e+000 78745  1.8583e+000  1.1636e+000  2.3212e-001 61946 78563,78719,78589
 1.7000e+000 78987  3.5686e+000 -3.3840e+000  4.7816e-001 61335 79010,78886,78860
 1.7000e+000 78964  8.5901e-001 -1.2929e-001  1.3503e+000 61335 79010,78860,78938
 1.7000e+000 79036  9.0143e-001 -5.1834e+000  1.7048e+000 61335 79082,79010,78912
 1.7000e+000 79059 -1.7356e+000 -3.6752e+000 -7.4750e-002 61335 78912,79010,78938
 1.7000e+000 79108  1.0104e+000 -4.4856e+000 -7.3617e-002 61335 78886,79010,79082
 1.7000e+000 79437 -5.3448e+000 -3.1839e+000 -7.6633e-001 60888 79460,79238,79212
 1.7000e+000 79414 -5.2385e+000 -3.4228e+000 -1.3238e+000 60888 79460,79212,79342
 1.7000e+000 79391 -3.8689e+000 -3.3568e+000  5.0613e-002 60888 79532,79264,79238
 1.7000e+000 79368 -2.3400e+000 -2.6265e+000  1.0363e-001 60888 79264,79316,79290
 1.7000e+000 79486 -4.2718e+000 -2.6864e+000 -4.8116e-001 60888 79532,79238,79460
 1.7000e+000 79509 -5.2046e+000 -3.3359e+000 -1.2612e+000 60888 79316,79460,79342
 1.7000e+000 79558 -4.0257e+000 -4.1726e+000 -6.1850e-001 60888 79316,79264,79532
 1.7000e+000 79581 -5.4411e+000 -3.8803e+000 -1.1604e+000 60888 79316,79532,79460
 1.7000e+000 79878 -1.1497e+001 -6.6511e+000 -1.2136e+000 60484 79682,79760,79734
 1.7000e+000 79855 -1.5554e+001 -1.2787e+001  2.9689e+000 60484 79656,79760,79682
 1.7000e+000 79832 -1.5513e+001 -1.2890e+001  2.9277e+000 60484 79604,79760,79656
 1.7000e+000 79809 -1.4402e+001 -1.9497e+001  5.2855e+000 60484 79604,79656,79630
 1.7000e+000 79786 -2.0677e+000 -1.7509e+000  1.5948e+000 60484 79682,79734,79708
 1.7000e+000 80101 -1.5714e+000 -2.8613e+000 -6.1367e-001 60022 79951,80029,80003
 1.7000e+000 80078 -1.0444e+000 -2.1336e+000 -2.7760e-001 60022 79925,80029,79951
 1.7000e+000 80055 -6.6358e-001 -2.3662e+000 -2.9235e-001 60022 79951,80003,79977
 1.7000e+000 80351 -1.6004e+000 -3.6842e+000  1.6696e+000 59625 80152,80256,80204
 1.7000e+000 80328 -2.8029e+000 -2.1838e+000  2.6728e+000 59625 80126,80256,80152
 1.7000e+000 80305 -1.2751e+000 -2.6805e+000  2.0468e+000 59625 80204,80256,80230
 1.7000e+000 80282 -4.2842e-001 -4.1650e+000  1.6579e+000 59625 80152,80204,80178
 1.7000e+000 80552  4.6016e+000 -9.7672e-001 -1.4446e+000 59121 80575,80402,80376
 1.7000e+000 80529  5.6999e+000 -4.7438e+000 -2.4705e+000 59121 80575,80376,80480
 1.7000e+000 80506  1.2922e+001  1.7069e+000  4.0904e+000 59121 80428,80480,80454
 1.7000e+000 80601  5.3650e+000  1.5038e+000  5.8483e-001 59121 80428,80402,80575
 1.7000e+000 80624  6.4563e+000 -2.0948e+000 -5.1555e-001 59121 80428,80575,80480
 1.7000e+000 81183  2.5400e+000  6.3939e-001  2.1897e+000 58553 81206,80863,80837
 1.7000e+000 81160  1.9351e+000  3.8274e+000  1.5346e+000 58553 81350,81206,80837
 1.7000e+000 81137  1.0899e+000 -2.3781e+000  1.2854e+000 58553 81278,80915,80863
 1.7000e+000 81114  9.7236e-001  3.3550e+000  9.8917e-001 58553 81350,80837,80811
 1.7000e+000 81091  5.3926e+000 -1.9142e-002 -3.1923e-002 58553 81422,80967,80941
 1.7000e+000 81068  4.6892e+000  1.9366e-003  7.1507e-001 58553 80967,81019,80993
 1.7000e+000 81045 -3.1531e-001 -2.3816e+000  1.9735e+000 58553 80863,80915,80889
 1.7000e+000 81232  9.3637e-001 -6.1562e-001  2.2651e-001 58553 81278,80863,81206
 1.7000e+000 81255  5.5491e+000  6.1943e-001 -3.0598e-002 58553 81422,80941,81206
 1.7000e+000 81304  1.0830e+000 -6.8634e+000  2.8407e+000 58553 80941,80915,81278
 1.7000e+000 81327  2.7525e+000 -3.8014e+000  1.2161e+000 58553 80941,81278,81206
 1.7000e+000 81376  1.3601e+000  2.8801e+000  9.3992e-001 58553 81019,81206,81350
 1.7000e+000 81399  1.2425e+000  2.8688e+000  4.9467e-001 58553 81019,81350,80811
 1.7000e+000 81448  5.3918e+000  6.5329e-001 -2.8253e-001 58553 81019,80967,81422
 1.7000e+000 81471  5.3470e+000  9.2260e-001 -3.5668e-001 58553 81019,81422,81206
 1.7000e+000 81768 -1.6956e+000 -5.0911e+000  2.1805e-001 57877 81791,81572,81520
 1.7000e+000 81745 -1.3768e+000 -4.9702e+000  7.1041e-001 57877 81791,81520,81494
 1.7000e+000 81722 -1.8636e+000 -4.6874e+000  5.3788e-001 57877 81863,81650,81598
 1.7000e+000 81699 -1.7675e+000 -4.3121e+000  1.0206e+000 57877 81598,81650,81624
 1.7000e+000 81676 -1.4005e+000 -6.5720e+000  3.4902e-001 57877 81520,81572,81546
 1.7000e+000 81817 -1.1628e+000 -3.2401e+000 -5.9774e-002 57877 81598,81572,81791
 1.7000e+000 81840 -1.7934e+000 -4.6348e+000  4.9682e-001 57877 81863,81598,81791
 1.7000e+000 81889 -1.6563e+000 -5.2579e+000  6.2865e-001 57877 81494,81650,81863
 1.7000e+000 81912 -1.3706e+000 -4.9282e+000  4.8934e-001 57877 81494,81863,81791
 1.7000e+000 82160  6.9078e-001 -5.3988e-001  6.1568e-001 57473 81935,82039,82013
 1.7000e+000 82137  2.3252e+000  2.3894e-001  2.6706e-001 57473 81935,82065,82039
 1.7000e+000 82114  1.1862e+000  1.1581e-001  3.0842e-001 57473 81935,82013,81961
 1.7000e+000 82091  2.9515e-001  1.3123e-001  3.6465e-001 57473 81961,82013,81987
 1.7000e+000 82719 -1.8639e+000 -2.0269e+000  2.8866e+000 56962 82814,82742,82425
 1.7000e+000 82696 -1.9376e+000 -2.2525e+000  4.1552e+000 56962 82742,82347,82555
 1.7000e+000 82673 -4.0293e-001 -2.7472e+000  2.9015e+000 56962 82814,82425,82399
 1.7000e+000 82650 -2.8838e+000  4.5781e-001  2.8846e-001 56962 82425,82477,82451
 1.7000e+000 82627 -2.2582e+000  1.3353e+000  1.7818e+000 56962 82425,82529,82477
 1.7000e+000 82604 -2.5617e+000  4.5005e+000  3.1104e+000 56962 82477,82529,82503
 1.7000e+000 82581 -1.5786e+000 -5.0272e+000  5.0496e+000 56962 82347,82399,82373
 1.7000e+000 82768 -1.7247e+000 -1.4742e+000  2.9642e+000 56962 82529,82425,82742
 1.7000e+000 82791 -1.4953e+000 -2.6533e-001  3.6600e+000 56962 82529,82742,82555
 1.7000e+000 82840 -3.2115e-001 -1.3975e+000  3.5446e+000 56962 82347,82742,82814
 1.7000e+000 82863  7.8123e-001 -2.3063e+000  3.6242e+000 56962 82347,82814,82399
 1.7000e+000 83467 -3.4291e+000  1.0019e+000 -3.7859e+000 56300 83124,83176,83150
 1.7000e+000 83444 -6.1992e-001  6.1002e-001 -1.3644e+000 56300 83490,83176,83124
 1.7000e+000 83421  8.6740e-001  1.8466e+000 -8.1087e-001 56300 83490,83124,83280
 1.7000e+000 83398  2.7055e+000  5.9022e+000 -1.1174e+000 56300 83202,83280,83254
 1.7000e+000 83375  1.7615e+000  5.0526e+000 -1.4291e+000 56300 83046,83280,83124
 1.7000e+000 83352  6.9038e-001  2.9277e+000 -1.0419e+000 56300 83046,83124,83098
 1.7000e+000 83329  3.7728e-001  2.7255e-001 -2.9677e-001 56300 83202,83254,83228
 1.7000e+000 83306  2.2989e+000  6.9745e+000 -7.3050e-001 56300 83046,83098,83072
 1.7000e+000 83516 -1.6959e+000  2.2821e+000 -2.6944e-001 56300 83202,83176,83490
 1.7000e+000 83539 -3.8131e-001  3.0219e+000  1.8327e-001 56300 83202,83490,83280
 1.7000e+000 83787 -2.5730e+000 -4.4365e+000  5.0137e-001 55960 83588,83692,83666
 1.7000e+000 83764 -4.1416e+000 -2.5055e+000  1.3954e+000 55960 83562,83692,83588
 1.7000e+000 83741 -2.0831e+000 -5.3832e+000  1.5069e+000 55960 83588,83666,83614
 1.7000e+000 83718 -3.2145e+000 -4.9819e+000  1.7049e+000 55960 83614,83666,83640
 1.7000e+000 83937  4.6331e-001 -7.6172e-001 -1.8539e+000 55499 83810,83862,83836
 1.7000e+000 83914 -2.6215e+000  2.0025e-001 -1.6118e+000 55499 83810,83888,83862
 1.7000e+000 84138 -2.7777e+000 -8.5290e+000  7.0225e-001 55152 83988,84066,84040
 1.7000e+000 84115  4.4629e-001 -1.2640e+000  6.9461e-002 55152 83962,84066,83988
 1.7000e+000 84092  2.1318e+000  1.0177e+000  3.8652e+000 55152 83988,84040,84014
 1.7000e+000 84471 -6.6548e+000  4.1673e+000  6.8924e+000 54648 84324,84376,84350
 1.7000e+000 84448 -7.9964e+000 -5.5972e+000  7.2048e+000 54648 84272,84376,84324
 1.7000e+000 84425 -1.1038e+001 -1.5728e+001  7.8338e+000 54648 84246,84376,84272
 1.7000e+000 84402 -9.0789e+000 -6.4106e+000  5.7636e+000 54648 84272,84324,84298
 1.7000e+000 84849 -1.9079e+000 -5.9953e+000  1.0207e+000 53922 84627,84731,84705
 1.7000e+000 84826 -5.8080e-001 -4.0185e+000  1.5963e+000 53922 84575,84731,84627
 1.7000e+000 84803 -1.2305e+000 -5.1588e+000  2.0680e+000 53922 84575,84627,84601
 1.7000e+000 84780 -1.0565e-001 -5.6453e+000  2.0181e+000 53922 84627,84705,84653
 1.7000e+000 84757  1.1213e-001 -6.3939e+000  1.9683e+000 53922 84653,84705,84679
 1.7000e+000 85581 -8.3990e+000 -3.7251e+000  1.7704e+000 53582 85604,85111,85319
 1.7000e+000 85558 -2.5158e+000 -4.9920e+000  2.3748e+000 53582 85111,85345,85319
 1.7000e+000 85535 -4.0920e+000 -1.8670e+000  1.9504e+000 53582 85604,85319,85293
 1.7000e+000 85512 -7.5997e+000 -1.1906e+000  1.0131e+001 53582 85241,85293,85267
 1.7000e+000 85489 -1.0158e+001 -3.3029e+000  4.7950e+000 53582 85676,85241,85189
 1.7000e+000 85466 -6.3330e+000 -2.6911e+000  2.3788e+000 53582 85676,85189,85137
 1.7000e+000 85443 -1.3848e+001  1.7289e+000  5.8087e+000 53582 85189,85241,85215
 1.7000e+000 85420 -6.4331e+000  3.3902e+000  1.7230e+000 53582 85137,85189,85163
 1.7000e+000 85397 -2.5163e+000 -4.2170e+000  1.9368e+000 53582 85111,85371,85345
 1.7000e+000 85630 -8.3447e+000 -1.1871e+000  4.3177e+000 53582 85137,85111,85604
 1.7000e+000 85653 -6.4256e+000 -2.6474e+000  4.7593e+000 53582 85748,85604,85293
 1.7000e+000 85702 -1.1776e+001 -7.3041e+000  8.2512e+000 53582 85293,85241,85676
 1.7000e+000 85725 -6.8532e+000 -3.3847e+000  4.9704e+000 53582 85748,85293,85676
 1.7000e+000 85774 -7.1608e+000 -1.4516e+000  4.6925e+000 53582 85137,85604,85748
 1.7000e+000 85797 -7.3456e+000 -1.9489e+000  4.7848e+000 53582 85137,85748,85676
 1.7000e+000 86303  3.2356e+000 -4.0874e-001  1.1291e+000 53178 86326,86084,86006
 1.7000e+000 86280  2.5904e+000 -2.2987e+000  1.4138e+000 53178 86326,86006,86162
 1.7000e+000 86257  6.0223e+000  3.4411e+000  7.7648e-001 53178 86398,86110,86084
 1.7000e+000 86234  3.1344e+000  3.1021e-001  1.0898e+000 53178 86006,86058,86032
 1.7000e+000 86211  3.6626e+000  5.8513e-001  1.1785e+000 53178 86006,86084,86058
 1.7000e+000 86188 -1.9142e+000 -5.6463e+000  5.6602e+000 53178 85980,86162,86006
 1.7000e+000 86352  2.8363e+000  1.5265e+000  2.0351e+000 53178 86398,86084,86326
 1.7000e+000 86375 -2.3075e+000  4.4073e-001  8.0254e-001 53178 86136,86326,86162
 1.7000e+000 86424  5.3502e+000  4.3567e+000 -1.7578e+000 53178 86136,86110,86398
 1.7000e+000 86447  3.1201e+000  4.0633e+000 -7.7033e-001 53178 86136,86398,86326
 1.7000e+000 86904 -5.5075e-001  6.4556e+000  1.5979e-001 52774 86708,86760,86734
 1.7000e+000 86881 -3.9614e-001  2.9256e+000 -1.5545e+000 52774 86656,86760,86708
 1.7000e+000 86858  2.8781e+000  2.4001e+000 -2.8305e-001 52774 86656,86708,86682
 1.7000e+000 86835  1.7812e+000  3.8131e+000 -8.9688e-001 52774 86630,86760,86656
 1.7000e+000 86812  1.8717e+000  3.3652e+000  9.0237e-002 52774 86630,86786,86760
 1.7000e+000 87489  1.6365e-001  6.9346e+000  2.0444e+000 52234 87512,87218,87192
 1.7000e+000 87466 -7.7641e-001  4.9565e+000  2.7287e-001 52234 87512,87192,87348
 1.7000e+000 87443  2.1828e-001  3.1554e+000  8.3304e-001 52234 87166,87348,87192
 1.7000e+000 87420 -3.9452e+000  2.9140e+000  3.5813e-001 52234 87296,87348,87322
 1.7000e+000 87397 -2.0824e+000  2.9116e+000  9.5979e-001 52234 87218,87296,87270
 1.7000e+000 87374 -2.7796e-001  2.5400e+000  1.7437e+000 52234 87218,87270,87244
 1.7000e+000 87538 -1.1464e+000  3.6793e+000  1.2916e+000 52234 87296,87218,87512
 1.7000e+000 87561 -1.1427e+000  3.7787e+000 -4.8310e-001 52234 87296,87512,87348
 1.7000e+000 87841  2.4662e-001  7.4896e+000 -5.6859e-001 51830 87665,87743,87691
 1.7000e+000 87818  2.9189e+000  9.0232e+000  4.2251e-001 51830 87665,87769,87743
 1.7000e+000 87795 -3.9674e+000  4.7019e+000 -2.3362e+000 51830 87864,87691,87743
 1.7000e+000 87890 -1.0561e+001  1.8756e+000 -2.6270e+000 51830 87717,87691,87864
 1.7000e+000 88418 -4.8336e+000 -5.9959e+000  3.0197e+000 51262 88095,88173,88121
 1.7000e+000 88395 -4.3479e+000 -3.7832e+000  3.1460e+000 51262 88095,88251,88173
 1.7000e+000 88372 -7.0130e+000 -5.6595e+000  1.5353e+000 51262 88173,88251,88199
 1.7000e+000 88349 -5.2639e+000  2.5329e+000  5.7333e+000 51262 88095,88277,88251
 1.7000e+000 88326  3.3879e-001 -6.3951e-001  4.4307e+000 51262 88199,88251,88225
 1.7000e+000 88303 -3.4867e+000 -3.4430e+000  2.5203e+000 51262 88121,88173,88147
 1.7000e+000 88875  2.9529e-001  3.1815e+000 -3.4819e+000 50750 88601,88731,88627
 1.7000e+000 88852 -1.6864e+000  6.8575e+000 -4.0216e+000 50750 88601,88757,88731
 1.7000e+000 88829 -3.0068e-001  5.1385e+000 -5.7042e-001 50750 88627,88731,88653
 1.7000e+000 88806 -3.1659e-002  4.6043e+000  1.7305e-002 50750 88653,88731,88705
 1.7000e+000 88783 -1.0496e+001 -1.4053e+000 -3.5521e+000 50750 88653,88705,88679
 1.7000e+000 89145 -2.8637e+000 -7.6328e+000  3.8637e-001 50438 88946,89024,88972
 1.7000e+000 89122 -2.5426e+000 -7.5418e+000  2.9989e-001 50438 88946,89050,89024
 1.7000e+000 89099 -2.2573e+000 -7.4496e+000  3.4097e-001 50438 88920,89050,88946
 1.7000e+000 89076 -2.7834e+000 -7.0851e+000  1.4793e+000 50438 88972,89024,88998
 1.7000e+000 89525 -2.4295e+000 -7.6989e+000  5.3154e-001 49934 89548,89277,89251
 1.7000e+000 89502 -2.7561e+000 -7.5945e+000  7.0812e-001 49934 89548,89251,89381
 1.7000e+000 89479 -3.5595e+000 -7.0238e+000  6.7290e-001 49934 89303,89381,89329
 1.7000e+000 89456 -3.6071e+000 -8.2114e+000  1.0770e+000 49934 89251,89407,89381
 1.7000e+000 89433 -3.5110e+000 -6.6227e+000  7.2529e-001 49934 89329,89381,89355
 1.7000e+000 89574 -3.3806e+000 -7.9763e+000  6.5233e-002 49934 89303,89277,89548
 1.7000e+000 89597 -3.0141e+000 -7.5860e+000  7.4902e-001 49934 89303,89548,89381
 1.7000e+000 90054 -4.2767e+000 -4.9371e+000  2.3421e+000 49380 89832,89936,89910
 1.7000e+000 90031 -4.8678e+000 -5.5403e+000  1.8859e+000 49380 89780,89936,89832
 1.7000e+000 90008 -3.4206e+000 -6.9603e+000  1.5719e+000 49380 89780,89832,89806
 1.7000e+000 89985 -3.5746e+000 -4.3309e+000  2.6036e+000 49380 89832,89910,89858
 1.7000e+000 89962 -3.3511e+000 -8.8455e-001  5.6850e+000 49380 89858,89910,89884
 1.7000e+000 90560 -5.6247e+000 -6.8413e+000  1.6757e+000 48890 90289,90341,90315
 1.7000e+000 90537 -4.7405e+000 -6.4678e+000  1.4643e+000 48890 90289,90393,90341
 1.7000e+000 90514 -3.6257e+000 -4.7592e+000  1.9797e+000 48890 90263,90393,90289
 1.7000e+000 90491 -1.6418e+000 -4.4436e+000  3.4262e+000 48890 90237,90393,90263
 1.7000e+000 90468 -6.2415e+000 -5.0354e+000  2.5156e+000 48890 90341,90393,90367
 1.7000e+000 90445 -1.6613e+000 -4.2756e+000  3.1832e+000 48890 90237,90419,90393
 1.7000e+000 91115 -4.4055e+000 -6.6319e+000 -1.2243e-001 48486 90795,90873,90847
 1.7000e+000 91092 -4.6020e+000 -7.1308e+000  1.3888e-001 48486 90795,90925,90873
 1.7000e+000 91069 -3.1063e+000 -6.7156e+000 -4.4171e-002 48486 90769,90925,90795
 1.7000e+000 91046 -4.9252e+000 -7.9274e+000  4.8063e-001 48486 90769,90951,90925
 1.7000e+000 91023 -5.0769e+000 -7.4206e+000  6.6255e-001 48486 90795,90847,90821
 1.7000e+000 91000 -4.5133e+000 -8.0611e+000 -1.2602e+000 48486 90873,90925,90899
 1.7000e+000 90977 -3.2039e+000 -7.2673e+000  4.5839e-001 48486 90743,90951,90769
 1.7000e+000 91265 -2.8732e+000 -4.7250e+000  5.9600e-001 48082 91288,91190,91164
 1.7000e+000 91242 -2.6701e+000 -5.7283e+000  1.3990e+000 48082 91360,91288,91164
 1.7000e+000 91314 -3.6465e+000 -5.7432e+000  1.1812e+000 48082 91216,91190,91288
 1.7000e+000 91337 -2.9732e+000 -7.1091e+000  1.5324e+000 48082 91216,91288,91138
 1.7000e+000 91386 -2.9627e+000 -6.0497e+000  1.1585e+000 48082 91138,91288,91360
 1.7000e+000 92022  9.4479e-001 -4.4675e+000 -8.7140e+000 47514 92261,92045,91754
 1.7000e+000 91999 -3.9857e-001  6.3511e-003  2.9364e-002 47514 92189,92045,91702
 1.7000e+000 91976 -4.8563e+000  4.9979e+000 -1.2932e+000 47514 92117,91806,91754
 1.7000e+000 91953  9.4661e-001  4.0734e+000 -7.9876e-001 47514 92189,91702,91650
 1.7000e+000 91930  1.0826e+001 -7.8509e+000 -6.3438e+000 47514 92261,91754,91728
 1.7000e+000 91907 -1.0441e+001  7.9108e-002 -3.4140e+000 47514 91754,91806,91780
 1.7000e+000 91884  3.7994e+000  4.0178e+000 -1.8541e+000 47514 91650,91702,91676
 1.7000e+000 92071 -6.3046e+000  2.5604e+000 -5.2527e+000 47514 92117,91754,92045
 1.7000e+000 92094  2.2193e-001  1.0141e-001 -2.7531e+000 47514 91832,92045,91858
 1.7000e+000 92143 -1.2959e+000  6.9200e+000  1.7478e+000 47514 91832,91806,92117
 1.7000e+000 92166 -7.6289e-001  2.9211e+000 -2.3711e+000 47514 91832,92117,92045
 1.7000e+000 92215  3.1448e-001  3.5019e+000 -1.7540e+000 47514 91858,92045,92189
 1.7000e+000 92238  3.1417e-001  5.5862e+000 -2.5357e+000 47514 91858,92189,91650
 1.7000e+000 92287  3.7677e+000  5.7418e-002 -7.4811e-001 47514 91702,92045,92261
 1.7000e+000 92310  1.1075e+001 -2.0862e+000  2.4741e+000 47514 91702,92261,91728
 1.7000e+000 92460 -2.2460e+000  3.1438e+000  2.8273e-001 47124 92483,92359,92333
 1.7000e+000 92437 -2.5641e+000 -2.3547e+000 -1.0472e+000 47124 92555,92483,92333
 1.7000e+000 92509 -1.6664e+000  4.4033e+000  3.2389e+000 47124 92685,92483,92385
 1.7000e+000 92532 -1.6655e+000 -2.0023e-001  1.9630e+000 47124 92385,92483,92411
 1.7000e+000 92581 -1.7215e+000 -4.8101e-001 -5.2672e-001 47124 92411,92483,92555
 1.7000e+000 92711 -1.2920e+000  4.4620e+000  3.3338e+000 47124 92359,92483,92685
 1.7000e+000 93571 -7.0949e+000 -5.1275e+000  1.0246e+000 46834 93594,93208,93104
 1.7000e+000 93548 -7.1729e+000 -5.3070e+000  1.6649e+000 46834 93738,93594,93104
 1.7000e+000 93525 -1.0424e+001 -1.1479e+001 -1.7857e+000 46834 93666,93234,93208
 1.7000e+000 93502 -3.7961e+000 -4.0929e+000  2.0887e+000 46834 93738,93104,93078
 1.7000e+000 93479 -9.9171e+000 -6.5380e+000  7.2126e-001 46834 93810,93260,93234
 1.7000e+000 93456 -5.2951e+000 -5.4836e+000  2.3585e-002 46834 93104,93182,93156
 1.7000e+000 93433 -6.1935e+000 -9.1930e+000  5.0205e-001 46834 93104,93208,93182
 1.7000e+000 93410 -1.5200e+001 -2.4226e+000  3.8091e+000 46834 93286,93338,93312
 1.7000e+000 93387 -6.7856e+000 -2.9691e+000  2.7944e+000 46834 93052,93338,93078
 1.7000e+000 93364 -6.0369e+000 -5.4727e+000 -6.7879e-001 46834 93104,93156,93130
 1.7000e+000 93620 -8.5143e+000 -7.1558e+000  2.5983e-001 46834 93666,93208,93594
 1.7000e+000 93643 -9.4017e+000 -1.9495e+000  2.0941e+000 46834 93286,93594,93338
 1.7000e+000 93692 -1.0152e+001 -6.2044e+000  3.4206e-001 46834 93810,93234,93666
 1.7000e+000 93715 -1.0330e+001 -2.5154e+000  5.8111e-001 46834 93286,93666,93594
 1.7000e+000 93764 -9.8998e+000 -3.5710e+000  2.2953e+000 46834 93338,93594,93738
 1.7000e+000 93787 -8.8883e+000 -4.0820e+000  2.3649e+000 46834 93338,93738,93078
 1.7000e+000 93836 -9.0582e+000 -6.0702e+000  4.5054e-001 46834 93286,93260,93810
 1.7000e+000 93859 -9.3663e+000 -5.7955e+000  8.4487e-002 46834 93286,93810,93666
 1.7000e+000 94210 -5.7482e+000 -9.6273e+000 -2.3984e-001 46472 94011,94115,94089
 1.7000e+000 94187 -5.1898e+000 -1.0311e+001  2.1765e-001 46472 93985,94115,94011
 1.7000e+000 94164 -3.7902e+000 -9.2335e+000 -1.7245e-001 46472 94037,94089,94063
 1.7000e+000 94141 -3.8593e+000 -8.7406e+000 -4.8823e-001 46472 94011,94089,94037
 1.7000e+000 94746 -1.1900e-002  8.1586e-001  3.7173e-001 46068 94576,94628,94602
 1.7000e+000 94723 -5.1846e-001  6.6894e-001  1.9971e-002 46068 94498,94628,94576
 1.7000e+000 94700  5.4212e+000  5.1333e+000 -3.1041e+000 46068 94472,94628,94498
 1.7000e+000 94677  4.2781e+000  4.3107e+000 -9.3650e-001 46068 94524,94576,94550
 1.7000e+000 94654  1.4807e+000  3.2438e+000  8.8980e-001 46068 94498,94576,94524
 1.7000e+000 95380  8.8629e+000  8.8068e-001  1.5876e+000 45342 95034,95112,95086
 1.7000e+000 95357 -5.1246e-001 -8.2360e-001  1.9183e+000 45342 95034,95190,95112
 1.7000e+000 95334  1.1847e+001 -3.2579e+000 -1.3180e+000 45342 95403,95164,95138
 1.7000e+000 95311  5.6887e+000  3.0873e+000  1.4437e+000 45342 95403,95138,95112
 1.7000e+000 95288  8.9997e+000 -2.8604e+000  4.2293e-001 45342 95034,95216,95190
 1.7000e+000 95265  6.5975e+000  1.3342e+000  3.2022e+000 45342 95034,95086,95060
 1.7000e+000 95242  1.0194e+001  2.0642e-002  5.0483e-001 45342 95008,95216,95034
 1.7000e+000 95429  6.5829e+000 -5.5215e+000 -2.5820e+000 45342 95190,95164,95403
 1.7000e+000 95452  1.7940e-001 -7.8243e-002 -8.7570e-001 45342 95190,95403,95112
 1.7000e+000 96007 -9.0886e+000 -5.2786e+000 -1.9147e-001 44716 96030,95791,95765
 1.7000e+000 95984 -4.5656e+000 -9.0641e+000 -5.9272e-001 44716 96030,95765,95713
 1.7000e+000 95961 -1.7720e+000 -4.0960e+000 -2.5741e-001 44716 96174,96102,95661
 1.7000e+000 95938 -1.9651e+000 -4.3218e+000 -3.4239e-001 44716 96174,95661,95635
 1.7000e+000 95915 -4.7648e+000 -4.0844e+000  4.0008e+000 44716 95661,95713,95687
 1.7000e+000 95892 -3.4074e-002 -8.2209e+000 -2.8226e+000 44716 95713,95765,95739
 1.7000e+000 95869  1.4163e+000 -2.8838e+000 -1.6283e+000 44716 95635,95843,95817
 1.7000e+000 96056 -4.6990e+000 -5.0031e+000  6.8040e-002 44716 95817,95791,96030
 1.7000e+000 96079 -3.6614e+000 -5.4052e+000 -1.7779e+000 44716 96102,95817,96030
 1.7000e+000 96128  1.5391e-001 -1.5425e+000  2.8073e+000 44716 95713,95661,96102
 1.7000e+000 96151 -9.2853e-001 -5.6522e+000  1.0630e+000 44716 95713,96102,96030
 1.7000e+000 96200 -1.3164e+000 -4.5328e+000 -4.8609e-001 44716 95817,96102,96174
 1.7000e+000 96223 -1.6782e+000 -4.8267e+000 -6.1921e-001 44716 95817,96174,95635
 1.7000e+000 96680  1.3848e+000  4.0974e+000 -1.8561e+000 44198 96775,96703,96458
 1.7000e+000 96657  2.6069e+000  8.9029e-001 -2.9001e+000 44198 96703,96406,96562
 1.7000e+000 96634  4.3408e+000  4.7265e+000 -2.2979e+000 44198 96775,96458,96432
 1.7000e+000 96611  1.0105e+000  1.6513e+000 -1.6693e+000 44198 96484,96536,96510
 1.7000e+000 96588 -2.1705e+000 -1.4972e-001  1.5111e-002 44198 96458,96536,96484
 1.7000e+000 96729 -1.8221e+000  9.5329e-002  1.8378e-001 44198 96536,96458,96703
 1.7000e+000 96752  2.1960e+000  3.8637e-002 -3.1060e+000 44198 96536,96703,96562
 1.7000e+000 96801  5.6212e+000  1.3872e+000 -1.2658e+000 44198 96406,96703,96775
 1.7000e+000 96824  9.0686e+000  2.6979e+000 -2.3535e+000 44198 96406,96775,96432
 1.7000e+000 97202 -6.2162e+000 -8.1618e+000  1.0079e+000 43750 97225,96980,96928
 1.7000e+000 97179 -5.1511e+000 -9.2111e+000  1.7842e+000 43750 97225,96928,97084
 1.7000e+000 97156 -5.2012e+000 -9.1930e+000  3.4904e-001 43750 96928,96980,96954
 1.7000e+000 97133 -3.1801e+000 -5.2972e+000  1.6527e+000 43750 97006,97084,97058
 1.7000e+000 97110 -4.3983e+000 -4.1339e+000  1.8509e+000 43750 97006,97058,97032
 1.7000e+000 97251 -5.3943e+000 -6.5461e+000  1.3494e+000 43750 97006,96980,97225
 1.7000e+000 97274 -4.5704e+000 -8.2466e+000  2.0377e+000 43750 97006,97225,97084
 1.7000e+000 97522 -3.7170e+000 -1.6170e+000 -1.9155e-001 43360 97545,97375,97349
 1.7000e+000 97499 -4.1856e+000 -4.1979e+000 -1.3360e+000 43360 97545,97349,97323
 1.7000e+000 97476 -4.8516e+000 -4.2600e+000 -4.3633e+000 43360 97617,97427,97401
 1.7000e+000 97453 -2.3507e-001 -4.1026e+000 -6.3069e+000 43360 97297,97427,97323
 1.7000e+000 97571 -6.4190e+000 -7.0088e+000  1.0792e+000 43360 97401,97375,97545
 1.7000e+000 97594 -4.6076e+000 -7.3407e+000 -2.1168e+000 43360 97617,97401,97545
 1.7000e+000 97643 -3.3457e+000 -6.2949e-001 -4.8327e+000 43360 97323,97427,97617
 1.7000e+000 97666 -2.3199e+000 -1.6892e+000 -2.2672e+000 43360 97323,97617,97545
 1.7000e+000 98019 -2.0142e+001 -1.0033e+000 -4.7131e+000 42956 97794,97898,97820
 1.7000e+000 97996 -1.7196e+001 -7.2313e+000 -3.2276e+000 42956 97794,97924,97898
 1.7000e+000 97973 -3.8138e+001  6.6429e-001 -1.1580e+000 42956 97820,97872,97846
 1.7000e+000 97950 -3.3591e+001 -2.4258e+000 -3.7719e+000 42956 97820,97898,97872
 1.7000e+000 98446 -7.0153e+000 -7.4393e+000  2.1035e+000 42559 98149,98305,98279
 1.7000e+000 98423 -5.5876e+000 -5.6014e+000  3.3225e+000 42559 98123,98305,98149
 1.7000e+000 98400 -5.3498e+000 -7.5307e+000  1.7796e+000 42559 98469,98175,98149
 1.7000e+000 98377 -3.1320e+000 -2.4091e+000  1.8067e-001 42559 98469,98149,98279
 1.7000e+000 98354 -5.3068e+000 -5.4578e+000  1.0572e-001 42559 98175,98253,98227
 1.7000e+000 98331 -5.4611e+000 -5.1212e+000  1.2280e+000 42559 98175,98227,98201
 1.7000e+000 98495 -3.4517e+000 -3.9657e+000 -7.7091e-001 42559 98253,98175,98469
 1.7000e+000 98518 -2.9328e+000 -2.0874e+000 -2.2756e+000 42559 98253,98469,98279
 1.7000e+000 98847  1.2626e+001 -2.9362e+000 -2.4744e+000 42247 98674,98752,98700
 1.7000e+000 98824  7.4248e+000  4.6297e+000  1.8513e+000 42247 98648,98752,98674
 1.7000e+000 98801  5.8435e+000  1.7887e+000  8.8672e+000 42247 98622,98752,98648
 1.7000e+000 98778  1.1392e+001 -5.4105e+000  7.8922e-001 42247 98700,98752,98726
 1.7000e+000 99117 -6.4086e+000 -1.0370e+001 -9.5913e-002 41843 98892,98996,98918
 1.7000e+000 99094 -6.8175e+000 -1.1543e+001  5.7483e-001 41843 98892,99022,98996
 1.7000e+000 99071 -5.2401e+000 -8.5016e+000  4.1633e-001 41843 98918,98996,98970
 1.7000e+000 99048 -6.2823e+000 -8.7296e+000  1.7553e-001 41843 98918,98970,98944
 1.7000e+000 99625 -4.3688e-001  6.8011e+000  2.6152e+000 41232 99648,99380,99354
 1.7000e+000 99602  4.5920e+000  7.0864e+000  1.5828e+000 41232 99648,99354,99328
 1.7000e+000 99579  4.1340e+000  9.1269e+000  4.7406e+000 41232 99720,99432,99380
 1.7000e+000 99556 -2.0842e+000  3.3539e+000 -7.8005e-001 41232 99380,99432,99406
 1.7000e+000 99533  4.6503e+000  3.1591e-001  1.8469e+000 41232 99328,99484,99458
 1.7000e+000 99510  1.5415e+001  3.7241e+000  2.7032e+000 41232 99302,99484,99328
 1.7000e+000 99674  6.2544e-001  8.0872e+000  3.8014e+000 41232 99720,99380,99648
 1.7000e+000 99697  2.5595e+000  5.9458e-001  1.4434e+000 41232 99458,99648,99328
 1.7000e+000 99746  8.3905e+000  7.6770e+000  6.2001e+000 41232 99458,99432,99720
 1.7000e+000 99769  5.8180e+000  6.7416e+000  4.8246e+000 41232 99458,99720,99648
 1.7000e+000 100275  2.4139e+000 -1.7727e+000 -6.4440e+000 40728 99952,100004,99978
 1.7000e+000 100252  2.1849e+000 -3.3919e+000 -6.4917e+000 40728 99952,100030,100004
 1.7000e+000 100229 -2.8352e+000 -8.8930e+000 -4.2453e+000 40728 99952,100134,100030
 1.7000e+000 100206 -2.3598e+000 -1.0893e+000 -4.4782e+000 40728 100298,100108,100082
 1.7000e+000 100183 -9.1012e-001 -7.3335e+000 -5.9516e+000 40728 100298,100082,100030
 1.7000e+000 100160 -1.3755e+001 -3.4843e+000 -1.7722e+001 40728 100030,100082,100056
 1.7000e+000 100324 -1.8793e+000  3.5865e+000 -2.4609e+000 40728 100134,100108,100298
 1.7000e+000 100347 -7.0300e-001 -3.6632e+000 -3.5157e+000 40728 100134,100298,100030
 1.7000e+000 100853 -5.9422e+000 -1.3344e+000  6.7634e-001 40274 100876,100686,100660
 1.7000e+000 100830 -5.0748e+000 -3.6397e+000  1.4857e+000 40274 100948,100876,100660
 1.7000e+000 100807 -5.8992e+000 -3.9935e+000  4.8550e-001 40274 100948,100660,100608
 1.7000e+000 100784 -6.7587e+000 -1.9854e+000  1.9382e+000 40274 101020,100556,100712
 1.7000e+000 100761 -5.2222e+000  1.0552e+000  3.1169e+000 40274 100530,100712,100556
 1.7000e+000 100738 -6.9402e+000 -2.5929e+000  1.2006e+000 40274 100608,100660,100634
 1.7000e+000 100902 -5.4412e+000  4.7464e+000  2.6841e+000 40274 100712,100686,100876
 1.7000e+000 100925 -7.0422e+000 -1.7810e+000  1.6723e+000 40274 101020,100712,100876
 1.7000e+000 100974 -5.7916e+000 -4.6377e+000  2.9035e-001 40274 100582,100876,100948
 1.7000e+000 100997 -7.3784e+000 -5.1249e+000 -7.1053e-001 40274 100582,100948,100608
 1.7000e+000 101046 -6.4410e+000 -1.8429e+000  1.7982e+000 40274 100582,100556,101020
 1.7000e+000 101069 -6.5638e+000 -1.4813e+000  1.4998e+000 40274 100582,101020,100876
 1.7000e+000 101496  1.4353e-001  4.4024e+000  2.7847e+000 39820 101519,101277,101225
 1.7000e+000 101473 -3.7332e+000 -4.6320e+000  1.3832e+000 39820 101519,101225,101199
 1.7000e+000 101450 -9.9211e+000 -4.6639e+000  6.6071e+000 39820 101173,101355,101199
 1.7000e+000 101427  8.4939e+000  1.0255e+000 -4.1260e-002 39820 101277,101355,101303
 1.7000e+000 101404  4.7648e+000  4.5047e+000 -1.7007e-001 39820 101225,101277,101251
 1.7000e+000 101381  4.5320e+000  2.3539e+000 -9.0574e-001 39820 101303,101355,101329
 1.7000e+000 101545  1.4110e+000 -8.0387e-001  6.4902e+000 39820 101355,101277,101519
 1.7000e+000 101568  3.1071e-001 -4.5894e+000  6.3881e+000 39820 101355,101519,101199
 1.7000e+000 101816 -5.2274e+000 -7.6701e+000  1.4372e+000 39066 101839,101695,101643
 1.7000e+000 101793 -6.6160e+000 -9.0974e+000  6.9380e-001 39066 101839,101643,101591
 1.7000e+000 101770 -4.1220e+000 -8.0748e+000  7.8641e-001 39066 101643,101695,101669
 1.7000e+000 101747 -5.8563e+000 -8.2801e+000  3.3061e-001 39066 101591,101643,101617
 1.7000e+000 101865 -3.8410e+000 -8.0349e+000  2.7152e+000 39066 101721,101695,101839
 1.7000e+000 101888 -5.3007e+000 -9.9631e+000  1.8725e+000 39066 101721,101839,101591
 1.7000e+000 102087 -6.8315e+000 -8.0835e+000 -2.1474e-001 38726 101937,101989,101963
 1.7000e+000 102064 -8.4338e+000 -8.9938e+000  2.0679e-001 38726 101937,102015,101989
 1.7000e+000 102041 -5.4809e+000 -7.5294e+000  6.8388e-001 38726 101911,102015,101937
 1.7000e+000 102337  4.3028e+000  9.3962e-001 -1.7916e+000 38322 102112,102190,102138
 1.7000e+000 102314  1.8919e-001 -5.6102e-001  3.4592e+000 38322 102112,102216,102190
 1.7000e+000 102291  7.4214e+000 -8.7895e+000  8.6801e+000 38322 102112,102242,102216
 1.7000e+000 102268 -2.7294e+000 -1.0546e+000 -1.4007e+000 38322 102138,102190,102164
 1.7000e+000 102489 -4.8346e+000 -6.3456e+000  9.1212e-001 38032 102512,102388,102362
 1.7000e+000 102466 -5.0641e+000 -4.8484e+000  1.4512e-001 38032 102512,102362,102440
 1.7000e+000 102538 -4.4301e+000 -7.6498e+000  7.4155e-001 38032 102414,102388,102512
 1.7000e+000 102561 -5.0421e+000 -6.7601e+000 -2.6401e-001 38032 102414,102512,102440
 1.7000e+000 102894 -1.2998e+000  6.4864e+000 -6.3274e-001 37592 102669,102773,102695
 1.7000e+000 102871  5.5356e+000  7.8678e+000 -3.6894e+000 37592 102669,102799,102773
 1.7000e+000 102848  4.7138e+000  1.5051e+001  1.1936e+000 37592 102721,102773,102747
 1.7000e+000 102825  7.7449e-001 -2.1340e-001 -2.1420e-001 37592 102695,102773,102721
 1.7000e+000 103093  1.6125e+000  7.3415e+000 -1.4248e+000 37188 102917,102995,102943
 1.7000e+000 103070  1.1970e+000  8.4274e+000 -1.8273e-001 37188 102917,103021,102995
 1.7000e+000 103047  4.4377e+000  6.5432e+000 -1.0190e+000 37188 102943,102995,102969
 1.7000e+000 103341  7.3780e+000  1.0256e+001  8.4955e-001 36605 103142,103194,103168
 1.7000e+000 103318  8.0464e+000  9.0924e+000  1.9458e+000 36605 103142,103220,103194
 1.7000e+000 103295  1.2234e+001  5.0409e+000 -4.0535e-001 36605 103116,103220,103142
 1.7000e+000 103272  1.6209e+001  9.7233e+000 -2.7626e+000 36605 103116,103246,103220
 1.7000e+000 103949 -6.1327e+000 -9.4361e+000 -1.2395e+000 36127 103554,103606,103580
 1.7000e+000 103926 -8.3611e+000 -5.1958e+000 -2.4768e+000 36127 103528,103606,103554
 1.7000e+000 103903 -7.2808e+000 -4.2504e+000 -4.2985e+000 36127 103528,103736,103606
 1.7000e+000 103880 -7.0979e+000 -8.3741e+000 -4.4037e+000 36127 103972,103710,103632
 1.7000e+000 103857 -1.0182e+001 -1.5373e+001 -9.2640e+000 36127 103972,103632,103606
 1.7000e+000 103834 -3.7279e+000 -7.1180e+000 -3.0847e+000 36127 103632,103710,103658
 1.7000e+000 103811 -1.2329e+001 -6.6180e-001 -8.9857e+000 36127 103528,103762,103736
 1.7000e+000 103788 -1.8339e+000 -7.1633e-002 -1.0843e-001 36127 103658,103710,103684
 1.7000e+000 103998 -3.2720e+000 -2.0521e+000  6.4509e-001 36127 103736,103710,103972
 1.7000e+000 104021 -6.8545e+000 -8.6636e+000 -4.3673e+000 36127 103736,103972,103606
 1.7000e+000 104220 -1.4199e+001 -1.0857e+000  2.4409e+000 35787 104070,104148,104122
 1.7000e+000 104197 -1.3861e+001  1.3899e+001  5.7245e+000 35787 104044,104148,104070
 1.7000e+000 104174 -1.0503e+001  2.7886e+000  3.9673e-001 35787 104070,104122,104096
 1.7000e+000 104419 -6.3791e+000 -3.8513e+000  8.1897e-001 35440 104269,104321,104295
 1.7000e+000 104396 -3.1043e+000 -2.2073e+000  1.4083e+000 35440 104269,104347,104321
 1.7000e+000 104373 -5.0399e+000 -4.3702e+000  5.9663e-001 35440 104243,104347,104269
 1.7000e+000 104718 -3.0008e+000  1.8728e+000 -1.7359e+000 34986 104496,104548,104522
 1.7000e+000 104695 -4.0207e+000  1.2591e+000 -1.4087e+000 34986 104741,104548,104496
 1.7000e+000 104672 -2.0866e+000  1.3563e+000 -1.2097e+000 34986 104741,104496,104444
 1.7000e+000 104649 -5.0205e+000  1.5878e+000  5.7463e-002 34986 104813,104574,104548
 1.7000e+000 104626 -2.3915e+000  8.8485e-001 -3.2538e-001 34986 104444,104496,104470
 1.7000e+000 104767 -5.1183e+000  1.4979e+000 -7.2460e-001 34986 104813,104548,104741
 1.7000e+000 104790 -3.3848e+000  1.4630e+000 -9.1149e-001 34986 104600,104741,104444
 1.7000e+000 104839 -3.0986e+000  2.0723e+000  3.3037e-001 34986 104600,104574,104813
 1.7000e+000 104862 -3.7354e+000  2.0901e+000 -8.6783e-001 34986 104600,104813,104741
 1.7000e+000 105014 -8.8712e+000 -6.4488e+000  5.7427e-001 34696 105169,105037,104913
 1.7000e+000 104991 -9.5337e+000 -8.9099e+000  8.7473e-001 34696 105169,104913,104887
 1.7000e+000 105063 -5.5362e+000 -4.9763e+000  1.4502e+000 34696 104939,104913,105037
 1.7000e+000 105195 -9.4892e+000 -5.8931e+000  2.6099e+000 34696 104965,105037,105169
 1.7000e+000 105218 -9.9659e+000 -7.8337e+000  2.9374e+000 34696 104965,105169,104887
 1.7000e+000 105368 -7.2603e+000 -4.2426e+000 -4.4454e-001 34384 105267,105319,105293
 1.7000e+000 105345 -6.6853e+000 -2.5198e+000 -1.5718e-002 34384 105241,105319,105267
 1.7000e+000 105616 -1.4180e+000  3.1223e+000 -1.0072e+000 33730 105639,105417,105391
 1.7000e+000 105593 -5.7349e-002  2.5435e+000 -2.1821e+000 33730 105639,105391,105495
 1.7000e+000 105570 -2.4565e+000  2.9792e+000 -2.2194e+000 33730 105391,105521,105495
 1.7000e+000 105547 -2.8051e+000 -1.0716e+000  3.8636e+000 33730 105417,105469,105443
 1.7000e+000 105665 -4.1797e-002  2.7563e+000 -1.5354e+000 33730 105469,105417,105639
 1.7000e+000 105688  3.4886e+000  3.9722e+000 -3.0067e+000 33730 105469,105639,105495
 1.7000e+000 105840 -5.0588e+000 -3.1250e+000 -1.4491e-001 33390 105713,105765,105739
 1.7000e+000 105817 -4.9784e+000 -2.2719e+000 -8.0234e-001 33390 105713,105791,105765
 1.7000e+000 106090 -5.6562e+000 -1.5590e+000 -2.7320e+000 33043 106113,105943,105891
 1.7000e+000 106067 -6.6556e+000 -3.9363e-001 -5.6870e-001 33043 106113,105891,105865
 1.7000e+000 106044 -4.1751e+000 -1.8177e+000 -1.8790e+000 33043 105891,105943,105917
 1.7000e+000 106021 -6.2454e+000  1.5180e-001 -4.5282e-001 33043 105865,105995,105969
 1.7000e+000 106139 -3.5844e+000  2.2399e+000 -3.7408e+000 33043 105969,105943,106113
 1.7000e+000 106162 -5.9176e+000  1.1502e+000 -8.2191e-001 33043 105969,106113,105865
 1.7000e+000 106412  9.5508e+000  4.8202e+000  8.7166e-001 32539 106435,106291,106239
 1.7000e+000 106389  8.2596e+000  2.9172e+000 -4.8702e-001 32539 106187,106317,106291
 1.7000e+000 106366  8.8922e+000  1.1642e+001  1.0859e+001 32539 106435,106239,106213
 1.7000e+000 106343  1.1318e+001  6.7469e+000  1.6078e+000 32539 106239,106291,106265
 1.7000e+000 106461  4.2183e+000  1.7850e+000 -5.0743e-001 32539 106187,106291,106435
 1.7000e+000 106484 -2.1461e+000  5.8436e+000  8.6636e+000 32539 106187,106435,106213
 1.7000e+000 106685 -5.3011e+000 -4.0983e+000 -1.3330e+000 31835 106535,106587,106561
 1.7000e+000 106662 -6.4388e+000 -3.6021e+000  3.9019e-001 31835 106509,106587,106535
 1.7000e+000 106639 -5.6537e+000  3.5893e-001 -7.2079e-001 31835 106509,106613,106587
 1.7000e+000 106935  5.4297e-001 -5.3195e-001 -4.1321e+000 31530 106736,106814,106788
 1.7000e+000 106912  2.4472e+000  1.1187e+000 -2.9992e+000 31530 106710,106814,106736
 1.7000e+000 106889 -1.7171e+000 -2.0970e+000 -3.4280e+000 31530 106736,106788,106762
 1.7000e+000 106866  1.8170e+000  1.7793e+000 -4.6760e+000 31530 106710,106840,106814
 1.7000e+000 107339 -1.1559e+001 -3.5080e+000 -4.4761e-001 31026 107117,107221,107195
 1.7000e+000 107316 -9.8248e+000 -1.2442e+001  9.0158e-001 31026 107091,107221,107117
 1.7000e+000 107293 -1.2199e+001 -1.2684e+001  1.9026e+000 31026 107065,107221,107091
 1.7000e+000 107270 -1.1471e+001  7.7269e+000 -1.1015e+000 31026 107143,107195,107169
 1.7000e+000 107247 -1.7089e+001 -6.2564e+000 -1.7510e+000 31026 107117,107195,107143
 1.7000e+000 107538 -6.2244e+000 -5.1807e+000 -6.6331e-002 30714 107561,107388,107362
 1.7000e+000 107515 -6.3218e+000 -4.7805e+000 -8.2023e-002 30714 107561,107362,107466
 1.7000e+000 107492 -6.9352e+000 -6.4348e+000 -4.5074e-001 30714 107414,107466,107440
 1.7000e+000 107587 -6.2559e+000 -5.6118e+000 -1.2479e-001 30714 107414,107388,107561
 1.7000e+000 107610 -6.2876e+000 -5.1267e+000 -1.3279e-001 30714 107414,107561,107466
 1.7000e+000 107990 -6.1746e+000 -5.6507e+000  8.9999e-001 30260 108013,107846,107768
 1.7000e+000 107967 -5.8219e+000 -4.7763e+000  2.8481e-002 30260 108013,107768,107716
 1.7000e+000 107944 -5.6970e+000 -4.9997e+000  5.4416e-002 30260 107716,107768,107742
 1.7000e+000 107921 -6.7821e+000 -4.6843e+000  1.2622e+000 30260 107768,107846,107820
 1.7000e+000 107898 -6.4598e+000 -6.5815e+000  1.4823e-001 30260 107768,107820,107794
 1.7000e+000 108039 -5.3935e+000 -5.1143e+000  3.6740e-001 30260 107872,107846,108013
 1.7000e+000 108062 -5.4473e+000 -4.3550e+000 -4.5048e-001 30260 107872,108013,107716
 1.7000e+000 108261 -2.4403e+000 -1.3525e+001  1.0178e+000 29870 108284,108085,108163
 1.7000e+000 108238 -7.8622e+000 -8.6546e+000 -2.7227e+000 29870 108085,108189,108163
 1.7000e+000 108215  1.5541e+001 -4.1184e+000  4.4338e+000 29870 108284,108163,108137
 1.7000e+000 108310 -1.0822e+001 -2.2653e+000  7.3642e+000 29870 108111,108085,108284
 1.7000e+000 108333 -2.3743e+000  1.7859e+000  8.9649e+000 29870 108111,108284,108137
 1.7000e+000 108664  3.6769e-001  8.4227e-001 -2.7825e+000 29480 108465,108569,108543
 1.7000e+000 108641 -3.5072e+000  1.6701e+000  1.2825e+000 29480 108439,108569,108465
 1.7000e+000 108618 -4.4070e-001 -1.9105e+000 -9.6985e-001 29480 108465,108543,108491
 1.7000e+000 108595 -1.1684e+000 -2.3290e+000 -1.1900e+000 29480 108491,108543,108517
 1.7000e+000 108993 -8.4891e-001 -4.0925e+000  4.0933e+000 29076 108794,108872,108820
 1.7000e+000 108970 -3.7128e+000 -6.3762e+000  1.5431e+000 29076 108768,108872,108794
 1.7000e+000 108947  4.1178e-002 -4.1303e+000  3.4728e+000 29076 108820,108872,108846
 1.7000e+000 108924 -4.8809e+000 -5.8565e+000  5.1788e+000 29076 108768,108898,108872
 1.7000e+000 109420 -1.5036e+000 -9.3263e-001 -3.1186e+000 28472 109123,109227,109201
 1.7000e+000 109397 -1.1576e+001 -2.6989e+000 -1.9296e+000 28472 109123,109253,109227
 1.7000e+000 109374 -3.8254e+000 -3.6193e+000 -2.0594e+000 28472 109123,109201,109175
 1.7000e+000 109351 -7.3582e+000  1.3916e-001 -6.7710e-001 28472 109123,109279,109253
 1.7000e+000 109328 -2.3382e+000 -2.6277e+000 -4.0773e-001 28472 109123,109175,109149
 1.7000e+000 109305 -9.0127e+000  4.5383e+000 -2.3568e+000 28472 109097,109279,109123
 1.7000e+000 109749 -9.1525e+000  5.2160e+000 -5.6992e+000 28018 109772,109602,109576
 1.7000e+000 109726 -8.4839e+000  1.0406e+000 -3.5064e+000 28018 109772,109576,109550
 1.7000e+000 109703 -9.2633e+000 -4.5433e+000 -7.5640e+000 28018 109524,109628,109550
 1.7000e+000 109680 -1.0214e+001 -1.0097e+001 -5.8752e-001 28018 109524,109654,109628
 1.7000e+000 109798 -1.2863e+001  2.8367e+000 -2.5202e+000 28018 109628,109602,109772
 1.7000e+000 109821 -9.2219e+000 -1.5659e+000 -1.5437e+000 28018 109628,109772,109550
 1.7000e+000 110199 -6.2588e+000 -6.2232e+000 -1.6742e+000 27564 110029,110081,110055
 1.7000e+000 110176 -4.8820e+000 -2.8631e+000 -1.3984e+000 27564 109925,110081,110029
 1.7000e+000 110153 -4.2983e+000 -6.4745e+000 -4.6211e-001 27564 109925,110029,109977
 1.7000e+000 110130 -4.3886e+000 -6.3509e+000  6.1598e-001 27564 109977,110029,110003
 1.7000e+000 110107 -4.1552e+000 -5.6586e+000 -8.1238e-001 27564 109925,109977,109951
 1.7000e+000 110398  8.9121e+000  7.5451e+000 -4.5235e-001 27003 110248,110326,110300
 1.7000e+000 110375  7.0521e+000  4.5770e+000 -1.2552e+000 27003 110222,110326,110248
 1.7000e+000 110352 -4.4789e-001  2.1911e+000 -2.9077e+000 27003 110248,110300,110274
 1.7000e+000 110646  6.5149e+000 -5.4900e+000  6.5952e+000 26563 110669,110473,110421
 1.7000e+000 110623  6.1343e+000 -1.6279e+001  1.0679e+001 26563 110669,110421,110551
 1.7000e+000 110600  9.2439e+000 -2.1999e+000  6.0640e+000 26563 110473,110525,110499
 1.7000e+000 110577  1.9912e+000 -1.2570e+001  1.3302e+001 26563 110421,110473,110447
 1.7000e+000 110695  6.4173e+000 -2.6694e+000  6.0174e+000 26563 110525,110473,110669
 1.7000e+000 110718  1.0181e+001 -6.1452e+000  1.0627e+001 26563 110525,110669,110551
 1.7000e+000 110870 -7.4195e+000 -1.6965e+000 -3.7015e+000 26166 110769,110821,110795
 1.7000e+000 110847 -3.3974e+000 -2.4437e+000 -1.2606e+000 26166 110743,110821,110769
 1.7000e+000 111380 -7.6672e+000 -6.4883e+000  8.4202e-001 25712 111403,111109,111083
 1.7000e+000 111357 -7.0996e+000 -6.1628e+000  7.0249e-001 25712 111403,111083,111239
 1.7000e+000 111334 -9.1984e+000 -6.4071e+000  2.1021e+000 25712 111109,111161,111135
 1.7000e+000 111311 -6.8833e+000 -6.1581e+000  5.9127e-001 25712 111057,111239,111083
 1.7000e+000 111288 -6.2001e+000 -5.5088e+000  1.5785e+000 25712 111161,111239,111187
 1.7000e+000 111265 -5.3369e+000 -4.9509e+000  1.3178e+000 25712 111187,111239,111213
 1.7000e+000 111429 -7.1318e+000 -6.9651e+000  1.0307e+000 25712 111161,111109,111403
 1.7000e+000 111452 -6.4468e+000 -6.5787e+000  8.7471e-001 25712 111161,111403,111239
 1.7000e+000 111651 -6.6828e+000 -6.8874e+000  2.2604e-001 25300 111674,111501,111475
 1.7000e+000 111628 -6.5135e+000 -7.8036e+000  2.6759e-001 25300 111674,111475,111579
 1.7000e+000 111605 -6.9821e+000 -6.6657e+000 -3.2180e-001 25300 111501,111553,111527
 1.7000e+000 111700 -6.6661e+000 -6.2247e+000  2.5657e-001 25300 111553,111501,111674
 1.7000e+000 111723 -6.3531e+000 -6.9547e+000  3.7742e-001 25300 111553,111674,111579
 1.7000e+000 111922  1.7924e+000 -1.4828e+000 -2.4312e-001 24732 111798,111850,111824
 1.7000e+000 111899  1.3574e+000  2.4664e+000 -2.5848e+000 24732 111772,111850,111798
 1.7000e+000 111876 -4.3990e-001  1.9769e+000 -2.6838e+000 24732 111746,111850,111772
 1.7000e+000 112255 -5.7278e+000 -3.1568e+000 -1.0525e+000 24142 112056,112108,112082
 1.7000e+000 112232 -5.0445e+000 -4.4706e+000  3.3253e-003 24142 112056,112134,112108
 1.7000e+000 112209 -5.5173e+000 -4.1629e+000  2.2404e-001 24142 112056,112160,112134
 1.7000e+000 112186 -3.7767e+000 -4.2402e+000 -1.0306e-001 24142 112030,112160,112056
 1.7000e+000 112601 -1.4808e+001 -2.2181e+000  1.4484e+001 23852 112624,112382,112356
 1.7000e+000 112578 -2.1346e+001 -1.8562e+000  8.3877e+000 23852 112696,112624,112356
 1.7000e+000 112555 -1.9030e+001 -3.5473e+000  3.8325e+000 23852 112696,112356,112304
 1.7000e+000 112532 -1.8017e+001 -4.8852e+000  3.7577e+000 23852 112304,112356,112330
 1.7000e+000 112509 -3.3455e+000  1.0399e+001  9.9857e+000 23852 112278,112460,112304
 1.7000e+000 112486  2.4036e+001  1.8903e+000  6.7777e+000 23852 112382,112434,112408
 1.7000e+000 112650  1.4075e+001  4.0521e+000  1.9277e+001 23852 112434,112382,112624
 1.7000e+000 112673 -1.1878e+001 -9.2569e+000  1.2336e+001 23852 112434,112624,112460
 1.7000e+000 112722 -1.3265e+001  2.3699e+000  1.0895e+001 23852 112460,112624,112696
 1.7000e+000 112745 -1.2653e+001 -1.2443e+000  5.9436e+000 23852 112460,112696,112304
 1.7000e+000 113015 -2.3149e+001  1.8650e+001 -5.6740e+000 23490 112842,112894,112868
 1.7000e+000 112992 -1.8109e+001  3.9481e+000 -4.9627e+000 23490 112816,112894,112842
 1.7000e+000 112969 -1.7753e+001  4.2074e+000 -1.0154e+000 23490 112790,112894,112816
 1.7000e+000 112946 -2.0468e+001 -3.4102e+000 -1.2394e+000 23490 112790,112920,112894
 1.7000e+000 113348 -5.6363e+000 -1.8032e+000 -3.2581e+000 22970 113175,113253,113227
 1.7000e+000 113325 -3.9721e+000 -4.6901e+000 -2.1368e+000 22970 113149,113253,113175
 1.7000e+000 113302 -7.3637e+000 -8.8822e+000 -6.1113e+000 22970 113175,113227,113201
 1.7000e+000 113279 -2.7986e+000 -2.0185e+000 -1.9410e+000 22970 113123,113253,113149
 1.7000e+000 113645 -5.8772e+000 -6.5021e+000 -1.8591e+000 22366 113423,113527,113449
 1.7000e+000 113622 -6.8387e+000 -7.5300e+000 -2.2567e+000 22366 113371,113527,113423
 1.7000e+000 113599 -5.9821e+000 -6.7491e+000 -1.8679e+000 22366 113449,113527,113501
 1.7000e+000 113576 -4.9783e+000 -7.8065e+000 -4.7723e-001 22366 113449,113501,113475
 1.7000e+000 113553 -4.1069e+000 -1.3547e+000 -2.7170e+000 22366 113371,113423,113397
 1.7000e+000 113893 -5.0947e+000 -8.5854e+000 -4.5046e+000 21912 113916,113746,113720
 1.7000e+000 113870 -3.0598e+000 -6.1070e+000 -3.6230e+000 21912 113916,113720,113668
 1.7000e+000 113847 -3.4301e+000 -6.6058e+000 -1.5579e+000 21912 113988,113798,113772
 1.7000e+000 113824 -2.6229e+000 -4.2353e+000 -6.0744e+000 21912 113668,113720,113694
 1.7000e+000 113942 -3.2629e+000 -4.2703e+000 -4.3145e+000 21912 113772,113746,113916
 1.7000e+000 113965 -3.5706e+000 -4.0519e+000 -2.9874e+000 21912 113988,113772,113916
 1.7000e+000 114014 -2.8013e+000 -9.2315e+000 -2.6433e+000 21912 113668,113798,113988
 1.7000e+000 114037 -4.0873e+000 -7.8984e+000 -3.2028e+000 21912 113668,113988,113916
 1.7000e+000 114287  1.0021e+000 -5.7850e+000 -1.1551e+000 21408 114088,114140,114114
 1.7000e+000 114264  2.4691e+000 -3.9075e+000 -1.9438e+000 21408 114310,114140,114088
 1.7000e+000 114241  2.0120e+000 -2.9224e+000 -3.6987e+000 21408 114310,114088,114192
 1.7000e+000 114218 -1.5378e-001 -3.1548e+000 -3.8016e+000 21408 114062,114192,114088
 1.7000e+000 114336  2.2346e+000 -6.5171e+000 -1.8813e+000 21408 114166,114140,114310
 1.7000e+000 114359  2.1041e+000 -4.5386e+000 -3.3107e+000 21408 114166,114310,114192
 1.7000e+000 114609  9.4595e+000  6.4185e+000  3.1613e+000 21018 114632,114488,114436
 1.7000e+000 114586  8.0760e+000  6.1565e+000  1.0704e+000 21018 114632,114436,114410
 1.7000e+000 114563  1.0370e+001  5.3393e+000  1.4150e+000 21018 114384,114514,114410
 1.7000e+000 114540  1.1988e+000  6.1027e+000  2.8978e+000 21018 114436,114488,114462
 1.7000e+000 114658  1.2397e+001  7.1247e+000  4.1012e+000 21018 114514,114488,114632
 1.7000e+000 114681  1.0284e+001  6.6043e+000  2.0816e+000 21018 114514,114632,114410
 1.7000e+000 114882  6.8254e-001 -2.6490e+000  1.0263e+000 20614 114732,114784,114758
 1.7000e+000 114859 -1.0047e+000 -2.4144e+000 -3.4466e-001 20614 114732,114810,114784
 1.7000e+000 114836 -1.4924e+000 -2.8708e+000 -5.3408e-001 20614 114706,114810,114732
 1.7000e+000 115132 -4.5562e+000 -4.1940e+000 -7.8405e-001 20110 114907,115011,114933
 1.7000e+000 115109 -3.3699e+000 -2.9429e+000 -1.8140e+000 20110 114907,115037,115011
 1.7000e+000 115086 -4.5473e+000 -3.8204e+000 -6.4208e-001 20110 114933,115011,114985
 1.7000e+000 115063 -3.3015e+000 -3.0303e+000 -1.0203e+000 20110 114933,114985,114959
 1.7000e+000 115284 -4.8088e+000 -3.2488e+000 -7.9641e-001 19456 115378,115307,115157
 1.7000e+000 115261 -6.1186e+000 -1.4244e+000 -1.2955e+000 19456 115378,115157,115235
 1.7000e+000 115333 -5.1994e+000 -3.7842e+000 -5.9781e-001 19456 115183,115157,115307
 1.7000e+000 115404 -5.7671e+000 -6.1187e+000 -1.1914e+000 19456 115209,115307,115378
 1.7000e+000 115427 -6.8443e+000 -3.9039e+000 -1.8385e+000 19456 115209,115378,115235
 1.7000e+000 115677 -7.4717e+000 -5.4155e+000  2.9116e-001 19002 115504,115582,115530
 1.7000e+000 115654 -7.1372e+000 -5.6841e+000  1.6578e-001 19002 115478,115582,115504
 1.7000e+000 115631 -7.2142e+000 -5.5460e+000  1.4484e+000 19002 115452,115582,115478
 1.7000e+000 115608 -7.4391e+000 -5.9369e+000  1.0577e-001 19002 115530,115582,115556
 1.7000e+000 115998  2.8038e+000  8.4612e+000 -1.6084e+000 18712 115802,115880,115854
 1.7000e+000 115975  6.3111e+000  1.2744e+001  4.7152e-001 18712 115724,115880,115802
 1.7000e+000 115952  7.0590e+000  8.1564e+000 -2.8726e-001 18712 115724,115802,115776
 1.7000e+000 115929  8.0917e+000  9.5415e+000  8.2583e-001 18712 115724,115776,115750
 1.7000e+000 115906  3.8760e+000  9.0012e+000 -1.3704e+000 18712 115802,115854,115828
 1.7000e+000 116270 -2.0091e+001 -1.3775e+001  1.1607e+000 18308 116045,116123,116071
 1.7000e+000 116247 -1.8064e+001 -1.1970e+001  7.0107e+000 18308 116045,116175,116123
 1.7000e+000 116224 -3.1096e+001 -4.1481e+000  4.5800e+000 18308 116123,116175,116149
 1.7000e+000 116201 -1.0028e+001 -8.4379e+000 -9.3375e-001 18308 116071,116123,116097
 1.7000e+000 116422 -7.5567e+000 -6.4194e+000  7.5312e-002 17996 116321,116373,116347
 1.7000e+000 116399 -7.5022e+000 -6.8607e+000  1.8467e-001 17996 116295,116373,116321
 1.7000e+000 116574  7.7767e+000  2.2700e+000  1.9973e+000 17392 116473,116525,116499
 1.7000e+000 116551  1.6769e+001  9.8063e+000  5.3098e+000 17392 116447,116525,116473
 1.7000e+000 116797 -1.1985e-001 -9.1413e+000 -7.9983e-001 16938 116621,116699,116673
 1.7000e+000 116774  9.8070e-001 -1.2741e+001  6.4849e-002 16938 116621,116725,116699
 1.7000e+000 116751  4.1068e-001 -7.9038e+000 -4.8043e-001 16938 116621,116673,116647
 1.7000e+000 116998  1.2796e+001  1.5760e+000  2.3501e+000 16434 117021,116874,116848
 1.7000e+000 116975 -6.1818e+000 -2.3584e+000 -2.2075e+000 16434 117021,116848,116822
 1.7000e+000 116952  2.0618e+001  1.1023e+001  7.9863e+000 16434 116874,116926,116900
 1.7000e+000 117047  1.9918e+001 -1.2099e+000  3.6438e+000 16434 116926,116874,117021
 1.7000e+000 117070  1.3685e+001  3.7102e+000 -9.0521e-001 16434 116926,117021,116822
 1.7000e+000 117293 -5.0116e+000 -3.7256e+000 -7.5018e-001 16070 117117,117169,117143
 1.7000e+000 117270 -5.6055e+000 -3.7552e+000 -1.0053e+000 16070 117117,117221,117169
 1.7000e+000 117247 -6.4925e+000 -5.6205e+000 -1.3703e+000 16070 117169,117221,117195
 1.7000e+000 117445 -2.5214e+001 -1.3208e+001 -1.8420e+000 15645 117318,117370,117344
 1.7000e+000 117422 -3.0525e+001 -1.6216e+001  1.9610e-001 15645 117318,117396,117370
 1.7000e+000 117548 -2.9631e+000 -4.6361e+000  5.1643e-001 417 117470,117522,117496
 1.8000e+000 70760  2.2443e+000 -4.3666e+000  7.4910e-001 70380 70633,70685,70659
 1.8000e+000 70737 -1.8448e+000 -4.3049e+000 -4.6700e-001 70380 70633,70711,70685
 1.8000e+000 70861 -4.4063e-001 -2.1579e+000  1.9823e-002 70068 70783,70835,70809
 1.8000e+000 71180 -3.9782e-002 -4.4518e-001  1.9276e-001 69870 70932,70984,70958
 1.8000e+000 71157 -2.9534e-001 -5.5988e-001  1.5011e-001 69870 70932,71010,70984
 1.8000e+000 71134 -6.6686e-001 -6.3548e-001 -6.7222e-003 69870 70932,71036,71010
 1.8000e+000 71111 -3.9884e-001 -2.9162e-001  6.8169e-001 69870 70932,71062,71036
 1.8000e+000 71088  5.2605e-004 -2.6030e-001  9.8650e-001 69870 70906,71062,70932
 1.8000e+000 71428  3.9847e-001  3.8291e+000  1.6036e+000 69694 71451,71281,71255
 1.8000e+000 71405  7.1818e-001  2.2460e+000  1.4860e+000 69694 71523,71451,71255
 1.8000e+000 71382  1.0993e+000  2.6485e+000  2.1657e+000 69694 71523,71255,71229
 1.8000e+000 71359 -6.0831e-001  1.3717e+000  8.1886e-001 69694 71595,71333,71307
 1.8000e+000 71477  3.6746e-004  2.2775e+000  1.4327e+000 69694 71307,71281,71451
 1.8000e+000 71500 -1.8922e-001  1.7266e+000  6.4121e-001 69694 71595,71307,71451
 1.8000e+000 71549 -3.4048e-001  2.0532e+000  1.1452e+000 69694 71203,71451,71523
 1.8000e+000 71572 -3.6462e-001  1.9989e+000  1.7333e+000 69694 71203,71523,71229
 1.8000e+000 71621  3.2610e-002  1.1353e+000  8.3440e-001 69694 71203,71333,71595
 1.8000e+000 71644  1.8324e-002  1.2115e+000  8.0347e-001 69694 71203,71595,71451
 1.8000e+000 71745 -4.9165e-002  3.3866e-002  1.8502e-001 69382 71667,71719,71693
 1.8000e+000 72100 -1.6586e+000  2.5273e-001  3.9571e-001 69184 71875,71979,71901
 1.8000e+000 72077 -1.8735e-001 -1.0333e+000  1.2377e+000 69184 71875,72005,71979
 1.8000e+000 72054 -5.5241e-001 -1.2677e-001 -5.9755e-001 69184 71901,71979,71953
 1.8000e+000 72031  1.8207e-001  2.4094e-002 -2.2355e-001 69184 71901,71953,71927
 1.8000e+000 72250  1.6713e-001 -5.9329e-001 -2.4778e-001 68986 72149,72201,72175
 1.8000e+000 72227 -3.9813e-001 -2.2259e+000  4.5851e-001 68986 72123,72201,72149
 1.8000e+000 72547 -6.8917e-001 -1.1171e+000  1.4581e+000 68582 72570,72403,72377
 1.8000e+000 72524 -4.5734e-001 -2.0346e+000  1.0992e+000 68582 72570,72377,72351
 1.8000e+000 72501 -4.7553e-001  7.6754e-001  3.3012e-001 68582 72642,72299,72429
 1.8000e+000 72478  5.7753e-001  5.6669e-001  1.8149e-001 68582 72273,72429,72299
 1.8000e+000 72455  4.5090e-001  4.4718e+000  2.6866e+000 68582 72299,72351,72325
 1.8000e+000 72596 -3.6898e-001 -1.1393e+000  1.1525e+000 68582 72429,72403,72570
 1.8000e+000 72619  9.4351e-002 -9.6531e-002  5.7339e-001 68582 72642,72429,72570
 1.8000e+000 72668 -7.7000e-001  1.0664e-002  1.3506e+000 68582 72351,72299,72642
 1.8000e+000 72691 -4.3219e-001 -1.3599e+000  1.5061e+000 68582 72351,72642,72570
 1.8000e+000 73095 -3.2501e+000 -4.7313e-002  3.5175e-001 68384 72873,72925,72899
 1.8000e+000 73072 -3.6378e+000  4.7392e+000  2.3429e+000 68384 72847,72925,72873
 1.8000e+000 73049 -1.9813e+000 -1.6099e+000  6.2676e+000 68384 72847,72951,72925
 1.8000e+000 73026  3.5160e+000 -1.3475e+000  3.3475e+000 68384 72821,72951,72847
 1.8000e+000 73003 -8.6130e-002 -8.0661e-001 -3.3434e-001 68384 72821,72977,72951
 1.8000e+000 73552 -8.2757e-001  3.0273e+000  1.7445e+000 68044 73304,73434,73408
 1.8000e+000 73529 -1.8140e+000  6.5481e-001 -6.8430e-001 68044 73278,73434,73304
 1.8000e+000 73506  4.2814e+000  1.0400e-001  1.9432e+000 68044 73356,73408,73382
 1.8000e+000 73483  4.6290e+000 -6.7077e-001  7.0784e-001 68044 73304,73408,73356
 1.8000e+000 73460  1.2936e+000  6.2898e-001 -8.8782e-001 68044 73304,73356,73330
 1.8000e+000 73871 -6.9933e-001  3.2357e+000 -1.1114e+000 67846 73675,73727,73701
 1.8000e+000 73848  3.5300e-001  2.8704e+000 -1.1809e+000 67846 73649,73727,73675
 1.8000e+000 73825 -6.6663e-001  1.4455e-001 -1.6983e+000 67846 73623,73727,73649
 1.8000e+000 73802  1.0844e+000  8.4960e-001 -1.0483e+000 67846 73623,73753,73727
 1.8000e+000 73779  1.3211e-001  3.3808e-001  2.2793e-001 67846 73597,73753,73623
 1.8000e+000 74021  1.4444e-001 -2.3751e+000  1.6983e-001 67598 73920,73972,73946
 1.8000e+000 73998 -9.1491e-002 -2.9860e+000  1.8277e-001 67598 73894,73972,73920
 1.8000e+000 74271 -2.0257e-001 -1.6671e+000  2.8645e-001 67286 74072,74176,74150
 1.8000e+000 74248 -4.8915e-002 -1.4274e+000  2.1572e-001 67286 74046,74176,74072
 1.8000e+000 74225 -1.7914e-001 -2.3980e+000  4.9498e-001 67286 74072,74150,74098
 1.8000e+000 74202 -2.6161e-001 -2.6109e+000  5.2929e-001 67286 74098,74150,74124
 1.8000e+000 74374 -5.8673e-001 -1.3028e+000  3.3342e-002 67088 74296,74348,74322
 1.8000e+000 74646 -8.9707e-001  1.7354e+000 -4.8532e-001 66890 74421,74525,74447
 1.8000e+000 74623 -2.1138e-001  2.3099e+000  7.3600e-001 66890 74421,74551,74525
 1.8000e+000 74600 -2.0055e-001  2.6697e+000 -8.1836e-002 66890 74447,74525,74473
 1.8000e+000 74577 -1.3506e+000  2.3328e+000  4.2606e-001 66890 74473,74525,74499
 1.8000e+000 75254 -1.0135e+000 -4.0724e-001 -1.0350e+000 66528 74885,75067,75041
 1.8000e+000 75231  8.9341e-001  1.3859e+000 -2.5242e-001 66528 74859,75067,74885
 1.8000e+000 75208 -2.0404e-001  3.7619e+000 -6.6228e-001 66528 74937,75015,74963
 1.8000e+000 75185 -1.1424e+000  6.2105e-001 -7.5465e-001 66528 74911,75015,74937
 1.8000e+000 75162 -9.8734e-001  6.7580e-001 -7.3170e-001 66528 74911,75041,75015
 1.8000e+000 75139 -2.6666e-001  1.2054e+000 -2.6416e-001 66528 74885,75041,74911
 1.8000e+000 75116 -8.7236e-001 -1.4108e+000 -1.6464e+000 66528 74833,75067,74859
 1.8000e+000 75093 -2.9744e+000  1.0034e-001  5.6332e-001 66528 74963,75015,74989
 1.8000e+000 75453 -6.0554e-001  5.1845e+000 -4.5713e-001 66238 75303,75381,75355
 1.8000e+000 75430  3.0302e-001  3.0019e+000 -5.8775e-001 66238 75277,75381,75303
 1.8000e+000 75407 -6.3843e-001 -2.8249e-001  4.4437e-001 66238 75303,75355,75329
 1.8000e+000 75701 -1.6431e+000 -1.8419e+000 -2.2926e-001 65834 75528,75606,75580
 1.8000e+000 75678 -1.1100e+000 -1.0063e+000  2.8861e-003 65834 75502,75606,75528
 1.8000e+000 75655 -1.6089e-001 -1.2309e+000 -1.1472e-001 65834 75528,75580,75554
 1.8000e+000 75632 -7.3278e-001 -6.9231e-001  4.3719e-001 65834 75476,75606,75502
 1.8000e+000 75902  1.4715e+000  1.5217e+000  2.3327e-001 65636 75726,75804,75752
 1.8000e+000 75879  7.2607e-001  1.2609e+000  1.6742e-001 65636 75726,75830,75804
 1.8000e+000 75856  1.3656e+000  8.4674e-001 -2.2287e-001 65636 75752,75804,75778
 1.8000e+000 76103  4.1046e+000  2.8726e+000 -4.9075e-001 65296 76126,75979,75953
 1.8000e+000 76080  3.2973e+000  5.3917e+000  9.9708e-001 65296 76126,75953,75927
 1.8000e+000 76057  9.0854e+000  1.3959e+001 -3.6354e+000 65296 76198,76005,75979
 1.8000e+000 76152  7.3706e+000  8.4541e+000 -1.9074e+000 65296 76198,75979,76126
 1.8000e+000 76175  3.0159e+000  1.3690e+000 -3.9475e-001 65296 76031,76126,75927
 1.8000e+000 76224  6.4185e+000  5.8945e+000 -9.6698e-001 65296 76031,76005,76198
 1.8000e+000 76247  6.3333e+000  3.9396e+000  9.5065e-001 65296 76031,76198,76126
 1.8000e+000 76602  5.2399e-002 -3.2597e-001 -1.1136e-001 64892 76377,76481,76403
 1.8000e+000 76579 -3.6302e-002 -3.5580e-001  2.3841e-002 64892 76377,76507,76481
 1.8000e+000 76556  8.0427e-002  3.7063e-001 -1.4302e-001 64892 76403,76481,76429
 1.8000e+000 76533 -6.1988e-001  2.7344e-001 -7.4554e-002 64892 76429,76481,76455
 1.8000e+000 76801 -6.0515e+000 -4.0718e-001  2.2675e+000 64438 76677,76729,76703
 1.8000e+000 76778 -2.7003e+000  8.2544e+000  2.5063e+000 64438 76651,76729,76677
 1.8000e+000 76755 -9.8577e+000  1.3543e+000 -1.8771e+000 64438 76625,76729,76651
 1.8000e+000 77230  2.2635e+000 -7.6868e-002 -5.3846e-001 63920 77253,76959,76933
 1.8000e+000 77207  1.1716e+000 -4.9383e-001 -4.8727e-001 63920 77253,76933,77063
 1.8000e+000 77184 -8.3483e-001 -4.2878e-001 -6.3514e-001 63920 76959,77037,76985
 1.8000e+000 77161  1.2519e+000 -2.0278e-001 -1.2065e-001 63920 76907,77063,76933
 1.8000e+000 77138  2.1337e-001 -8.6437e-001 -5.3693e-001 63920 76985,77037,77011
 1.8000e+000 77115  2.4525e-001  3.0039e-001  1.6097e-001 63920 76907,77089,77063
 1.8000e+000 77279  1.0033e+000  2.4795e-001 -6.5075e-001 63920 77037,76959,77253
 1.8000e+000 77302 -3.9569e-002 -1.4053e-001 -6.4395e-001 63920 77037,77253,77063
 1.8000e+000 77680 -3.2243e+000  2.6152e-001  4.9381e+000 63316 77703,77484,77432
 1.8000e+000 77657 -4.2470e+000 -2.8476e-001  4.7322e+000 63316 77703,77432,77406
 1.8000e+000 77634 -6.5983e+000 -2.9187e+000  4.6326e+000 63316 77406,77536,77510
 1.8000e+000 77611  1.4271e+000  4.6490e-001  6.1158e+000 63316 77432,77484,77458
 1.8000e+000 77588 -3.5737e+000 -7.6573e-001  1.6761e+000 63316 77406,77562,77536
 1.8000e+000 77729 -1.9184e+000 -3.1566e-001  3.9469e+000 63316 77510,77484,77703
 1.8000e+000 77752 -3.5822e+000 -1.0438e+000  3.7480e+000 63316 77510,77703,77406
 1.8000e+000 78000 -2.8604e+000 -2.6468e+000 -4.5210e-001 62812 77801,77853,77827
 1.8000e+000 77977 -1.5190e+000 -3.3024e-001 -1.0112e+000 62812 77801,77879,77853
 1.8000e+000 77954 -4.4576e+000 -1.7140e+000 -5.3131e-001 62812 77801,77905,77879
 1.8000e+000 77931 -1.6809e+000 -8.5975e-001 -2.9998e-001 62812 77775,77905,77801
 1.8000e+000 78380 -6.3473e+000 -4.4055e+000  1.0458e+000 62350 78184,78262,78236
 1.8000e+000 78357 -4.5448e+000 -3.8596e+000  1.6488e+000 62350 78132,78262,78184
 1.8000e+000 78334 -4.0346e+000 -3.6755e+000  1.1765e+000 62350 78106,78262,78132
 1.8000e+000 78311 -4.6893e+000 -3.7482e+000  1.7919e+000 62350 78132,78184,78158
 1.8000e+000 78288 -5.1730e+000 -3.1155e+000  3.5069e-001 62350 78184,78236,78210
 1.8000e+000 78837  2.0232e+000  3.3972e+000  7.6536e-001 61946 78615,78667,78641
 1.8000e+000 78814  9.2260e-001  1.8385e+000 -9.3583e-001 61946 78589,78667,78615
 1.8000e+000 78791  8.4887e-001  3.2736e-001 -1.8115e-001 61946 78589,78719,78667
 1.8000e+000 78768  2.5763e+000  1.7768e+000 -1.3748e+000 61946 78667,78719,78693
 1.8000e+000 78745  1.2543e+000  8.6727e-001  7.7898e-002 61946 78563,78719,78589
 1.8000e+000 78987  2.7127e+000 -3.5228e+000  5.2922e-001 61335 79010,78886,78860
 1.8000e+000 78964  5.3897e-001 -4.7618e-001  1.2087e+000 61335 79010,78860,78938
 1.8000e+000 79036  6.9725e-001 -5.4355e+000  1.5940e+000 61335 79082,79010,78912
 1.8000e+000 79059 -1.1637e+000 -3.8264e+000 -9.3554e-002 61335 78912,79010,78938
 1.8000e+000 79108  8.3904e-001 -4.7054e+000 -7.3068e-003 61335 78886,79010,79082
 1.8000e+000 79437 -3.9699e+000 -3.7085e+000  1.5282e-001 60888 79460,79238,79212
 1.8000e+000 79414 -3.3007e+000 -2.8016e+000 -6.4041e-001 60888 79460,79212,79342
 1.8000e+000 79391 -2.1741e+000 -3.6497e+000  1.8606e-001 60888 79532,79264,79238
 1.8000e+000 79368 -1.5998e-001 -4.0735e+000 -4.9089e-001 60888 79264,79316,79290
 1.8000e+000 79486 -2.4950e+000 -3.1320e+000 -2.2637e-001 60888 79532,79238,79460
 1.8000e+000 79509 -2.9569e+000 -3.2961e+000 -1.1220e+000 60888 79316,79460,79342
 1.8000e+000 79558 -2.2216e+000 -4.2024e+000 -4.7723e-001 60888 79316,79264,79532
 1.8000e+000 79581 -3.5436e+000 -4.0789e+000 -8.6565e-001 60888 79316,79532,79460
 1.8000e+000 79878 -8.2502e+000 -5.5049e+000 -5.4058e-001 60484 79682,79760,79734
 1.8000e+000 79855 -1.1497e+001 -1.0871e+001  2.2795e+000 60484 79656,79760,79682
 1.8000e+000 79832 -1.2302e+001 -1.0976e+001  2.2223e+000 60484 79604,79760,79656
 1.8000e+000 79809 -1.1598e+001 -1.7244e+001  4.1845e+000 60484 79604,79656,79630
 1.8000e+000 79786 -2.3475e+000 -2.3632e+000  1.2349e+000 60484 79682,79734,79708
 1.8000e+000 80101 -1.3927e+000 -4.1565e+000 -4.0046e-001 60022 79951,80029,80003
 1.8000e+000 80078 -1.1017e+000 -4.0122e+000 -3.4143e-001 60022 79925,80029,79951
 1.8000e+000 80055 -3.6854e-001 -3.7125e+000 -3.5305e-001 60022 79951,80003,79977
 1.8000e+000 80351 -1.6774e+000 -5.1658e+000  8.8401e-001 59625 80152,80256,80204
 1.8000e+000 80328 -2.7938e+000 -4.2426e+000  1.5464e+000 59625 80126,80256,80152
 1.8000e+000 80305 -1.5436e+000 -4.6484e+000  1.2084e+000 59625 80204,80256,80230
 1.8000e+000 80282 -8.2122e-001 -5.2481e+000  8.0017e-001 59625 80152,80204,80178
 1.8000e+000 80552  1.7968e+000 -2.7432e+000 -7.4478e-001 59121 80575,80402,80376
 1.8000e+000 80529  3.1059e+000 -5.3863e+000 -1.7797e+000 59121 80575,80376,80480
 1.8000e+000 80506  9.0603e+000  1.5888e-001  2.6533e+000 59121 80428,80480,80454
 1.8000e+000 80601  2.9656e+000 -9.8554e-001  5.1440e-001 59121 80428,80402,80575
 1.8000e+000 80624  4.2226e+000 -3.5560e+000 -5.6507e-001 59121 80428,80575,80480
 1.8000e+000 81183  6.7841e-001 -4.0662e-001  1.7965e+000 58553 81206,80863,80837
 1.8000e+000 81160  7.6732e-001  1.9744e+000  1.2181e+000 58553 81350,81206,80837
 1.8000e+000 81137  2.6729e-001 -3.5247e+000  1.0741e+000 58553 81278,80915,80863
 1.8000e+000 81114  7.1472e-002  1.6532e+000  1.0086e+000 58553 81350,80837,80811
 1.8000e+000 81091  4.3522e+000  1.1807e+000 -8.6981e-001 58553 81422,80967,80941
 1.8000e+000 81068  3.6381e+000 -7.9258e-002  5.8039e-001 58553 80967,81019,80993
 1.8000e+000 81045 -1.5284e+000 -4.2790e+000  1.9247e+000 58553 80863,80915,80889
 1.8000e+000 81232 -2.5929e-001 -1.4029e+000 -2.3656e-001 58553 81278,80863,81206
 1.8000e+000 81255  4.2371e+000  2.4500e-001 -7.9598e-001 58553 81422,80941,81206
 1.8000e+000 81304 -1.1064e-001 -8.4883e+000  2.4148e+000 58553 80941,80915,81278
 1.8000e+000 81327  1.0741e+000 -5.0754e+000  5.3574e-001 58553 80941,81278,81206
 1.8000e+000 81376  4.6109e-001  1.5442e+000  7.9655e-001 58553 81019,81206,81350
 1.8000e+000 81399  3.5698e-001  1.5137e+000  6.3395e-001 58553 81019,81350,80811
 1.8000e+000 81448  4.2809e+000  3.0022e-001 -5.3476e-001 58553 81019,80967,81422
 1.8000e+000 81471  4.4043e+000 -1.7889e-001 -3.7217e-001 58553 81019,81422,81206
 1.8000e+000 81768 -1.4808e+000 -6.2550e+000  4.4002e-002 57877 81791,81572,81520
 1.8000e+000 81745 -1.5058e+000 -6.2833e+000  5.9314e-001 57877 81791,81520,81494
 1.8000e+000 81722 -1.7974e+000 -5.8409e+000  2.6311e-001 57877 81863,81650,81598
 1.8000e+000 81699 -1.9121e+000 -6.0816e+000  3.3740e-001 57877 81598,81650,81624
 1.8000e+000 81676 -1.3194e+000 -7.6889e+000  2.0341e-001 57877 81520,81572,81546
 1.8000e+000 81817 -1.1280e+000 -4.7315e+000 -3.1528e-001 57877 81598,81572,81791
 1.8000e+000 81840 -1.7141e+000 -5.9685e+000  1.7958e-001 57877 81863,81598,81791
 1.8000e+000 81889 -1.5519e+000 -5.8783e+000  3.7051e-001 57877 81494,81650,81863
 1.8000e+000 81912 -1.3680e+000 -5.9183e+000  2.4537e-001 57877 81494,81863,81791
 1.8000e+000 82160 -2.3171e-001 -2.8955e+000  2.0176e-001 57473 81935,82039,82013
 1.8000e+000 82137 -1.5857e-001 -2.5959e+000  7.6084e-002 57473 81935,82065,82039
 1.8000e+000 82114 -9.5805e-002 -2.3305e+000  2.8105e-001 57473 81935,82013,81961
 1.8000e+000 82091 -6.1595e-002 -3.3209e+000  6.1573e-001 57473 81961,82013,81987
 1.8000e+000 82719 -1.7619e+000 -2.8696e+000  2.6936e+000 56962 82814,82742,82425
 1.8000e+000 82696 -2.0119e+000 -2.8717e+000  3.8734e+000 56962 82742,82347,82555
 1.8000e+000 82673 -6.3194e-001 -3.7068e+000  2.7829e+000 56962 82814,82425,82399
 1.8000e+000 82650 -2.9194e+000 -9.4020e-001 -5.6717e-003 56962 82425,82477,82451
 1.8000e+000 82627 -2.2220e+000 -1.1248e-001  1.2936e+000 56962 82425,82529,82477
 1.8000e+000 82604 -2.5600e+000  3.0440e+000  2.6529e+000 56962 82477,82529,82503
 1.8000e+000 82581 -2.6699e+000 -5.8692e+000  5.2979e+000 56962 82347,82399,82373
 1.8000e+000 82768 -1.3870e+000 -2.1775e+000  2.5427e+000 56962 82529,82425,82742
 1.8000e+000 82791 -1.6538e+000 -9.6216e-001  3.2953e+000 56962 82529,82742,82555
 1.8000e+000 82840 -5.9069e-001 -2.0799e+000  3.1964e+000 56962 82347,82742,82814
 1.8000e+000 82863  3.1549e-001 -3.0081e+000  3.3092e+000 56962 82347,82814,82399
 1.8000e+000 83467 -1.4477e+000 -3.8766e-001 -1.3053e+000 56300 83124,83176,83150
 1.8000e+000 83444 -5.1974e-001 -4.1217e-001 -6.7335e-001 56300 83490,83176,83124
 1.8000e+000 83421  1.8640e-001  6.5139e-001 -1.6894e-001 56300 83490,83124,83280
 1.8000e+000 83398  2.3744e+000  4.1661e+000 -8.8527e-001 56300 83202,83280,83254
 1.8000e+000 83375  6.7868e-001  3.5488e+000 -1.2579e+000 56300 83046,83280,83124
 1.8000e+000 83352 -8.6364e-001  1.1347e+000 -5.8704e-001 56300 83046,83124,83098
 1.8000e+000 83329 -4.7346e-001 -3.6618e-001  3.2544e-001 56300 83202,83254,83228
 1.8000e+000 83306  5.2864e-001  4.8762e+000 -3.8470e-001 56300 83046,83098,83072
 1.8000e+000 83516 -8.0148e-001  1.0649e+000 -1.9308e-001 56300 83202,83176,83490
 1.8000e+000 83539 -4.0529e-001  1.4649e+000  3.3947e-001 56300 83202,83490,83280
 1.8000e+000 83787 -1.3398e+000 -4.9583e+000  4.5534e-001 55960 83588,83692,83666
 1.8000e+000 83764 -2.1069e+000 -4.2812e+000  7.8015e-001 55960 83562,83692,83588
 1.8000e+000 83741 -1.8216e+000 -5.5016e+000  8.1267e-001 55960 83588,83666,83614
 1.8000e+000 83718 -2.0794e+000 -4.5462e+000  1.2513e+000 55960 83614,83666,83640
 1.8000e+000 83937  3.0435e-001 -7.1325e-001 -1.5089e+000 55499 83810,83862,83836
 1.8000e+000 83914 -1.4902e+000  5.4760e-002 -1.4190e+000 55499 83810,83888,83862
 1.8000e+000 84138 -2.3761e+000 -7.9941e+000  6.7887e-001 55152 83988,84066,84040
 1.8000e+000 84115 -5.2054e-001 -3.8545e+000  2.4160e-001 55152 83962,84066,83988
 1.8000e+000 84092  1.5769e+000 -7.8062e-001  3.1042e+000 55152 83988,84040,84014
 1.8000e+000 84471 -5.8886e+000  5.5865e-001  5.0306e+000 54648 84324,84376,84350
 1.8000e+000 84448 -6.8901e+000 -6.1950e+000  5.2831e+000 54648 84272,84376,84324
 1.8000e+000 84425 -9.3650e+000 -1.4036e+001  5.6332e+000 54648 84246,84376,84272
 1.8000e+000 84402 -7.2696e+000 -6.9577e+000  2.8407e+000 54648 84272,84324,84298
 1.8000e+000 84849 -1.7939e+000 -7.9134e+000  8.7529e-001 53922 84627,84731,84705
 1.8000e+000 84826 -1.4401e+000 -6.0310e+000  9.6994e-001 53922 84575,84731,84627
 1.8000e+000 84803 -1.6807e+000 -6.2621e+000  1.3551e+000 53922 84575,84627,84601
 1.8000e+000 84780 -6.3680e-001 -8.0025e+000  2.3098e+000 53922 84627,84705,84653
 1.8000e+000 84757 -4.5042e-001 -8.0962e+000  2.3499e+000 53922 84653,84705,84679
 1.8000e+000 85581 -6.2845e+000 -4.9305e+000  1.7645e+000 53582 85604,85111,85319
 1.8000e+000 85558 -2.5982e+000 -5.7469e+000  2.1514e+000 53582 85111,85345,85319
 1.8000e+000 85535 -1.8840e+000 -3.4406e+000  7.3220e-001 53582 85604,85319,85293
 1.8000e+000 85512 -7.7008e+000 -2.9034e+000  8.6300e+000 53582 85241,85293,85267
 1.8000e+000 85489 -8.9822e+000 -5.8689e+000  3.8596e+000 53582 85676,85241,85189
 1.8000e+000 85466 -6.3279e+000 -5.5631e+000  1.8858e+000 53582 85676,85189,85137
 1.8000e+000 85443 -1.2514e+001 -1.2773e+000  4.8432e+000 53582 85189,85241,85215
 1.8000e+000 85420 -6.5116e+000 -1.2364e+000  1.3539e+000 53582 85137,85189,85163
 1.8000e+000 85397 -2.0071e+000 -6.4848e+000  2.6325e+000 53582 85111,85371,85345
 1.8000e+000 85630 -6.8358e+000 -4.2525e+000  3.8901e+000 53582 85137,85111,85604
 1.8000e+000 85653 -4.6887e+000 -5.1574e+000  3.7029e+000 53582 85748,85604,85293
 1.8000e+000 85702 -1.0677e+001 -1.0035e+001  7.1297e+000 53582 85293,85241,85676
 1.8000e+000 85725 -5.5607e+000 -6.1762e+000  4.0740e+000 53582 85748,85293,85676
 1.8000e+000 85774 -6.2699e+000 -3.4813e+000  3.4517e+000 53582 85137,85604,85748
 1.8000e+000 85797 -6.6840e+000 -4.0722e+000  3.6343e+000 53582 85137,85748,85676
 1.8000e+000 86303  1.9720e+000 -3.1134e+000  8.8472e-001 53178 86326,86084,86006
 1.8000e+000 86280  9.8261e-001 -4.8147e+000  1.3176e+000 53178 86326,86006,86162
 1.8000e+000 86257  3.9001e+000  4.0269e-001  1.3312e+000 53178 86398,86110,86084
 1.8000e+000 86234  1.2364e+000 -1.5719e+000  1.0024e+000 53178 86006,86058,86032
 1.8000e+000 86211  2.8220e+000 -1.1181e+000  9.6859e-001 53178 86006,86084,86058
 1.8000e+000 86188 -3.4519e+000 -8.2645e+000  5.9463e+000 53178 85980,86162,86006
 1.8000e+000 86352  1.3445e+000 -9.2054e-001  1.9145e+000 53178 86398,86084,86326
 1.8000e+000 86375 -3.6516e+000 -2.4036e+000  7.0702e-001 53178 86136,86326,86162
 1.8000e+000 86424  3.2243e+000  8.8509e-001 -7.8353e-001 53178 86136,86110,86398
 1.8000e+000 86447  1.1952e+000  2.8804e-001 -4.4215e-001 53178 86136,86398,86326
 1.8000e+000 86904 -1.3150e+000  2.3164e+000  4.2784e-001 52774 86708,86760,86734
 1.8000e+000 86881 -7.8263e-001  2.4918e-001 -1.1059e+000 52774 86656,86760,86708
 1.8000e+000 86858  9.8949e-001 -8.1926e-001  2.4565e-001 52774 86656,86708,86682
 1.8000e+000 86835  2.2895e-001  1.1063e+000 -7.2615e-001 52774 86630,86760,86656
 1.8000e+000 86812 -4.9255e-001  3.7316e-001  1.7164e-001 52774 86630,86786,86760
 1.8000e+000 87489 -5.4979e-001  2.8386e+000  8.5920e-001 52234 87512,87218,87192
 1.8000e+000 87466 -9.1778e-001  1.6107e+000 -3.1997e-001 52234 87512,87192,87348
 1.8000e+000 87443  1.0785e+000 -2.5785e-001  7.3607e-001 52234 87166,87348,87192
 1.8000e+000 87420 -3.2991e+000  2.3543e-001  3.4748e-002 52234 87296,87348,87322
 1.8000e+000 87397 -2.5318e+000  4.9100e-001  4.2999e-001 52234 87218,87296,87270
 1.8000e+000 87374 -1.4526e+000 -3.4991e-001  1.4292e+000 52234 87218,87270,87244
 1.8000e+000 87538 -1.4502e+000  6.7057e-001  6.1602e-001 52234 87296,87218,87512
 1.8000e+000 87561 -1.1944e+000  8.4665e-001 -5.9127e-001 52234 87296,87512,87348
 1.8000e+000 87841 -4.0579e-001  3.7531e+000 -8.0862e-001 51830 87665,87743,87691
 1.8000e+000 87818  1.9488e+000  5.1810e+000  2.3699e-001 51830 87665,87769,87743
 1.8000e+000 87795 -2.4651e+000  2.4144e+000 -1.6717e+000 51830 87864,87691,87743
 1.8000e+000 87890 -7.2988e+000  3.4257e-001 -1.8847e+000 51830 87717,87691,87864
 1.8000e+000 88418 -4.0866e+000 -6.6706e+000  2.0691e+000 51262 88095,88173,88121
 1.8000e+000 88395 -3.5739e+000 -5.6411e+000  2.2763e+000 51262 88095,88251,88173
 1.8000e+000 88372 -5.6018e+000 -6.7177e+000  1.7589e+000 51262 88173,88251,88199
 1.8000e+000 88349 -3.9711e+000 -2.0534e+000  3.6349e+000 51262 88095,88277,88251
 1.8000e+000 88326  1.3149e+000 -4.6492e+000  4.3029e+000 51262 88199,88251,88225
 1.8000e+000 88303 -3.3652e+000 -5.3057e+000  1.8003e+000 51262 88121,88173,88147
 1.8000e+000 88875  1.4831e+000  1.6032e+000 -2.5888e+000 50750 88601,88731,88627
 1.8000e+000 88852 -3.0463e-001  3.4827e+000 -2.7370e+000 50750 88601,88757,88731
 1.8000e+000 88829 -5.9887e-001  1.9447e+000 -1.0916e+000 50750 88627,88731,88653
 1.8000e+000 88806 -4.7975e-002  1.9830e+000 -4.1435e-001 50750 88653,88731,88705
 1.8000e+000 88783 -8.2649e+000 -2.5417e+000 -2.8295e+000 50750 88653,88705,88679
 1.8000e+000 89145 -2.9264e+000 -8.7564e+000  2.3958e-001 50438 88946,89024,88972
 1.8000e+000 89122 -2.8300e+000 -8.7226e+000  2.1252e-001 50438 88946,89050,89024
 1.8000e+000 89099 -2.4078e+000 -8.5469e+000  2.9017e-001 50438 88920,89050,88946
 1.8000e+000 89076 -2.1174e+000 -7.1982e+000  2.8301e+000 50438 88972,89024,88998
 1.8000e+000 89525 -1.9649e+000 -8.3976e+000  4.7164e-001 49934 89548,89277,89251
 1.8000e+000 89502 -2.2742e+000 -8.3215e+000  6.3754e-001 49934 89548,89251,89381
 1.8000e+000 89479 -3.2258e+000 -7.6576e+000  5.6667e-001 49934 89303,89381,89329
 1.8000e+000 89456 -2.6009e+000 -9.1710e+000  1.5091e+000 49934 89251,89407,89381
 1.8000e+000 89433 -3.6505e+000 -7.1147e+000  1.0369e+000 49934 89329,89381,89355
 1.8000e+000 89574 -2.7883e+000 -8.5651e+000  6.4602e-002 49934 89303,89277,89548
 1.8000e+000 89597 -2.4906e+000 -8.2937e+000  6.8517e-001 49934 89303,89548,89381
 1.8000e+000 90054 -3.1046e+000 -5.2229e+000  2.5161e+000 49380 89832,89936,89910
 1.8000e+000 90031 -4.0674e+000 -5.4696e+000  1.4435e+000 49380 89780,89936,89832
 1.8000e+000 90008 -2.8425e+000 -8.3820e+000  1.3438e+000 49380 89780,89832,89806
 1.8000e+000 89985 -3.3656e+000 -4.4343e+000  2.8266e+000 49380 89832,89910,89858
 1.8000e+000 89962 -4.0589e+000 -3.1258e+000  5.9919e+000 49380 89858,89910,89884
 1.8000e+000 90560 -5.5881e+000 -7.7309e+000  8.4884e-001 48890 90289,90341,90315
 1.8000e+000 90537 -4.4785e+000 -7.2434e+000  1.2939e+000 48890 90289,90393,90341
 1.8000e+000 90514 -3.1425e+000 -5.2612e+000  1.9049e+000 48890 90263,90393,90289
 1.8000e+000 90491 -1.2350e+000 -4.9743e+000  3.3421e+000 48890 90237,90393,90263
 1.8000e+000 90468 -6.6221e+000 -6.0698e+000  2.7011e+000 48890 90341,90393,90367
 1.8000e+000 90445 -9.8182e-001 -4.7693e+000  3.1934e+000 48890 90237,90419,90393
 1.8000e+000 91115 -4.1302e+000 -7.3961e+000 -9.8084e-002 48486 90795,90873,90847
 1.8000e+000 91092 -4.4158e+000 -8.2746e+000  3.6703e-001 48486 90795,90925,90873
 1.8000e+000 91069 -2.4930e+000 -7.8053e+000  4.7608e-002 48486 90769,90925,90795
 1.8000e+000 91046 -3.8442e+000 -9.2952e+000  7.5930e-001 48486 90769,90951,90925
 1.8000e+000 91023 -4.8604e+000 -8.4172e+000  6.0503e-001 48486 90795,90847,90821
 1.8000e+000 91000 -4.1150e+000 -8.6715e+000 -1.0018e+000 48486 90873,90925,90899
 1.8000e+000 90977 -2.9584e+000 -9.0805e+000  5.3994e-001 48486 90743,90951,90769
 1.8000e+000 91265 -3.0672e+000 -6.1491e+000  6.6862e-001 48082 91288,91190,91164
 1.8000e+000 91242 -2.7064e+000 -6.9253e+000  1.5712e+000 48082 91360,91288,91164
 1.8000e+000 91314 -3.8783e+000 -7.1047e+000  1.2031e+000 48082 91216,91190,91288
 1.8000e+000 91337 -3.2302e+000 -8.5806e+000  1.5451e+000 48082 91216,91288,91138
 1.8000e+000 91386 -3.3561e+000 -7.5119e+000  1.1766e+000 48082 91138,91288,91360
 1.8000e+000 92022 -1.1710e-001 -4.7239e+000 -5.9865e+000 47514 92261,92045,91754
 1.8000e+000 91999 -1.9695e-001 -6.3000e-001 -4.1168e-001 47514 92189,92045,91702
 1.8000e+000 91976 -4.4589e+000  2.1398e+000 -5.0783e-001 47514 92117,91806,91754
 1.8000e+000 91953  6.4554e-001  2.1809e+000 -1.1994e+000 47514 92189,91702,91650
 1.8000e+000 91930  7.0908e+000 -8.9626e+000 -3.3357e+000 47514 92261,91754,91728
 1.8000e+000 91907 -8.0381e+000 -2.8546e+000 -2.1862e+000 47514 91754,91806,91780
 1.8000e+000 91884  1.7508e+000  2.0905e+000 -1.6062e+000 47514 91650,91702,91676
 1.8000e+000 92071 -5.4053e+000  6.3477e-001 -3.4545e+000 47514 92117,91754,92045
 1.8000e+000 92094  1.3887e-001 -5.4450e-001 -1.9559e+000 47514 91832,92045,91858
 1.8000e+000 92143 -1.8692e+000  3.4807e+000  1.2743e+000 47514 91832,91806,92117
 1.8000e+000 92166 -1.1398e+000  1.2839e+000 -1.8329e+000 47514 91832,92117,92045
 1.8000e+000 92215  5.7094e-001  1.7893e+000 -1.6290e+000 47514 91858,92045,92189
 1.8000e+000 92238  4.1114e-001  3.2413e+000 -2.3456e+000 47514 91858,92189,91650
 1.8000e+000 92287  2.5724e+000  1.0414e-001 -4.0742e-001 47514 91702,92045,92261
 1.8000e+000 92310  8.3055e+000 -2.4860e+000  2.8239e+000 47514 91702,92261,91728
 1.8000e+000 92460 -1.2411e+000  2.1113e+000 -2.7042e-001 47124 92483,92359,92333
 1.8000e+000 92437 -2.0995e+000 -2.4954e+000 -8.3546e-001 47124 92555,92483,92333
 1.8000e+000 92509 -1.4382e+000  3.5301e+000  2.5294e+000 47124 92685,92483,92385
 1.8000e+000 92532 -2.5020e+000 -1.2508e+000  2.1549e+000 47124 92385,92483,92411
 1.8000e+000 92581 -1.9431e+000 -1.2949e+000 -5.8744e-001 47124 92411,92483,92555
 1.8000e+000 92711 -7.7908e-001  3.1746e+000  2.6166e+000 47124 92359,92483,92685
 1.8000e+000 93571 -5.9708e+000 -5.1904e+000  3.8608e-001 46834 93594,93208,93104
 1.8000e+000 93548 -5.1546e+000 -5.0479e+000  1.2738e+000 46834 93738,93594,93104
 1.8000e+000 93525 -8.3768e+000 -9.9064e+000 -1.4878e+000 46834 93666,93234,93208
 1.8000e+000 93502 -1.6103e+000 -3.8233e+000  1.6922e+000 46834 93738,93104,93078
 1.8000e+000 93479 -8.2468e+000 -6.3367e+000  6.5857e-001 46834 93810,93260,93234
 1.8000e+000 93456 -4.1111e+000 -4.9136e+000 -9.9993e-001 46834 93104,93182,93156
 1.8000e+000 93433 -4.8486e+000 -8.8750e+000 -2.3137e-001 46834 93104,93208,93182
 1.8000e+000 93410 -1.2560e+001 -2.2382e+000  3.3788e+000 46834 93286,93338,93312
 1.8000e+000 93387 -4.6287e+000 -2.7659e+000  2.3714e+000 46834 93052,93338,93078
 1.8000e+000 93364 -4.9682e+000 -5.9181e+000 -1.5073e+000 46834 93104,93156,93130
 1.8000e+000 93620 -6.7461e+000 -6.5914e+000  7.4623e-002 46834 93666,93208,93594
 1.8000e+000 93643 -7.5115e+000 -1.9486e+000  1.9002e+000 46834 93286,93594,93338
 1.8000e+000 93692 -8.3493e+000 -5.8686e+000  3.7123e-001 46834 93810,93234,93666
 1.8000e+000 93715 -8.3695e+000 -2.4868e+000  3.6533e-001 46834 93286,93666,93594
 1.8000e+000 93764 -8.0065e+000 -3.2914e+000  1.9395e+000 46834 93338,93594,93738
 1.8000e+000 93787 -6.9374e+000 -3.8736e+000  2.0037e+000 46834 93338,93738,93078
 1.8000e+000 93836 -7.6928e+000 -5.8804e+000  1.1388e-001 46834 93286,93260,93810
 1.8000e+000 93859 -7.8752e+000 -5.5019e+000 -1.6649e-001 46834 93286,93810,93666
 1.8000e+000 94210 -5.0911e+000 -1.0190e+001 -2.8653e-001 46472 94011,94115,94089
 1.8000e+000 94187 -5.1032e+000 -1.1752e+001 -7.6741e-002 46472 93985,94115,94011
 1.8000e+000 94164 -2.2142e+000 -9.6094e+000 -6.4660e-003 46472 94037,94089,94063
 1.8000e+000 94141 -2.5064e+000 -8.9527e+000 -6.7513e-001 46472 94011,94089,94037
 1.8000e+000 94746 -1.4832e+000 -2.3241e+000  7.2651e-001 46068 94576,94628,94602
 1.8000e+000 94723 -2.5911e-001 -1.6970e+000  1.7483e-001 46068 94498,94628,94576
 1.8000e+000 94700  5.1023e+000  2.7662e+000 -2.5931e+000 46068 94472,94628,94498
 1.8000e+000 94677  1.8223e+000  1.7631e+000 -6.2331e-001 46068 94524,94576,94550
 1.8000e+000 94654  3.0563e-001  1.7127e+000  4.6551e-001 46068 94498,94576,94524
 1.8000e+000 95380  6.0547e+000  1.0088e+000  1.2741e+000 45342 95034,95112,95086
 1.8000e+000 95357 -4.2659e-001 -4.7902e-001  1.6645e+000 45342 95034,95190,95112
 1.8000e+000 95334  7.6745e+000 -2.5338e+000 -3.9612e-001 45342 95403,95164,95138
 1.8000e+000 95311  3.9109e+000  4.2689e+000  1.3042e+000 45342 95403,95138,95112
 1.8000e+000 95288  6.4633e+000 -2.1700e+000  4.7436e-001 45342 95034,95216,95190
 1.8000e+000 95265  4.6651e+000  1.0176e+000  2.2201e+000 45342 95034,95086,95060
 1.8000e+000 95242  7.3688e+000  1.4870e-002  4.8515e-001 45342 95008,95216,95034
 1.8000e+000 95429  4.6823e+000 -5.2784e+000 -1.5393e+000 45342 95190,95164,95403
 1.8000e+000 95452  1.3741e-004 -1.2282e-001 -3.8465e-001 45342 95190,95403,95112
 1.8000e+000 96007 -8.2441e+000 -5.1040e+000  8.7557e-002 44716 96030,95791,95765
 1.8000e+000 95984 -4.6092e+000 -9.9057e+000  6.4830e-002 44716 96030,95765,95713
 1.8000e+000 95961 -1.9121e+000 -3.2807e+000  6.2729e-003 44716 96174,96102,95661
 1.8000e+000 95938 -2.1264e+000 -3.9708e+000 -1.8964e-001 44716 96174,95661,95635
 1.8000e+000 95915 -3.0957e+000 -4.9312e+000  5.5886e+000 44716 95661,95713,95687
 1.8000e+000 95892 -1.9497e+000 -1.0124e+001 -2.8199e+000 44716 95713,95765,95739
 1.8000e+000 95869  1.3864e+000 -3.1078e+000 -1.6633e+000 44716 95635,95843,95817
 1.8000e+000 96056 -4.9590e+000 -5.1393e+000  1.8807e-001 44716 95817,95791,96030
 1.8000e+000 96079 -3.7037e+000 -4.9008e+000 -1.6093e+000 44716 96102,95817,96030
 1.8000e+000 96128  3.6397e-001 -2.2463e-001  3.6918e+000 44716 95713,95661,96102
 1.8000e+000 96151 -1.0393e+000 -5.3709e+000  1.6438e+000 44716 95713,96102,96030
 1.8000e+000 96200 -1.3716e+000 -4.4379e+000 -2.8256e-001 44716 95817,96102,96174
 1.8000e+000 96223 -1.7659e+000 -5.1026e+000 -6.1666e-001 44716 95817,96174,95635
 1.8000e+000 96680  4.0145e-002  1.3789e+000 -1.8000e+000 44198 96775,96703,96458
 1.8000e+000 96657  9.5937e-001  3.5932e-002 -2.0206e+000 44198 96703,96406,96562
 1.8000e+000 96634  3.0417e+000  1.0892e+000 -1.9382e+000 44198 96775,96458,96432
 1.8000e+000 96611 -1.5307e+000 -1.4076e+000 -1.3671e-001 44198 96484,96536,96510
 1.8000e+000 96588 -1.6656e+000 -3.2940e+000 -2.4603e-001 44198 96458,96536,96484
 1.8000e+000 96729 -1.7436e+000 -3.7457e-001 -4.7373e-001 44198 96536,96458,96703
 1.8000e+000 96752  7.3651e-001 -3.1573e-001 -2.3201e+000 44198 96536,96703,96562
 1.8000e+000 96801  3.7899e+000  7.3277e-001 -9.9763e-001 44198 96406,96703,96775
 1.8000e+000 96824  6.7229e+000  4.0497e-001 -1.7195e+000 44198 96406,96775,96432
 1.8000e+000 97202 -5.4685e+000 -8.3336e+000  7.7518e-001 43750 97225,96980,96928
 1.8000e+000 97179 -4.4883e+000 -9.1249e+000  1.3820e+000 43750 97225,96928,97084
 1.8000e+000 97156 -5.0524e+000 -9.9688e+000  4.0129e-001 43750 96928,96980,96954
 1.8000e+000 97133 -2.8758e+000 -6.0014e+000  1.5019e+000 43750 97006,97084,97058
 1.8000e+000 97110 -4.2495e+000 -4.8949e+000  1.6657e+000 43750 97006,97058,97032
 1.8000e+000 97251 -4.7658e+000 -7.0985e+000  1.1874e+000 43750 97006,96980,97225
 1.8000e+000 97274 -3.9065e+000 -8.3740e+000  1.6997e+000 43750 97006,97225,97084
 1.8000e+000 97522 -3.8365e+000 -3.2549e+000  1.1151e-001 43360 97545,97375,97349
 1.8000e+000 97499 -3.7867e+000 -5.3685e+000 -8.2824e-001 43360 97545,97349,97323
 1.8000e+000 97476 -5.4955e+000 -5.8838e+000 -4.1105e+000 43360 97617,97427,97401
 1.8000e+000 97453 -3.2930e-001 -6.0520e+000 -5.2649e+000 43360 97297,97427,97323
 1.8000e+000 97571 -5.1408e+000 -7.7291e+000  8.2001e-001 43360 97401,97375,97545
 1.8000e+000 97594 -4.8982e+000 -8.6070e+000 -2.0558e+000 43360 97617,97401,97545
 1.8000e+000 97643 -4.1296e+000 -2.7459e+000 -3.8660e+000 43360 97323,97427,97617
 1.8000e+000 97666 -2.5641e+000 -3.4730e+000 -1.5077e+000 43360 97323,97617,97545
 1.8000e+000 98019 -1.5002e+001 -1.0172e+000 -3.6986e+000 42956 97794,97898,97820
 1.8000e+000 97996 -1.2400e+001 -5.9098e+000 -2.5648e+000 42956 97794,97924,97898
 1.8000e+000 97973 -2.8047e+001  4.3445e-001 -9.7449e-001 42956 97820,97872,97846
 1.8000e+000 97950 -2.4851e+001 -1.7555e+000 -2.8126e+000 42956 97820,97898,97872
 1.8000e+000 98446 -6.0800e+000 -7.6830e+000  1.7669e+000 42559 98149,98305,98279
 1.8000e+000 98423 -4.5718e+000 -5.6731e+000  3.1121e+000 42559 98123,98305,98149
 1.8000e+000 98400 -5.0180e+000 -8.4425e+000  1.6899e+000 42559 98469,98175,98149
 1.8000e+000 98377 -3.0863e+000 -3.9809e+000  3.3697e-001 42559 98469,98149,98279
 1.8000e+000 98354 -4.9004e+000 -6.7278e+000  1.7376e-001 42559 98175,98253,98227
 1.8000e+000 98331 -5.4715e+000 -7.8693e+000  5.0606e-001 42559 98175,98227,98201
 1.8000e+000 98495 -3.4117e+000 -5.3653e+000 -5.2020e-001 42559 98253,98175,98469
 1.8000e+000 98518 -2.9474e+000 -3.7163e+000 -1.7953e+000 42559 98253,98469,98279
 1.8000e+000 98847  1.0295e+001 -5.1957e+000 -1.9103e+000 42247 98674,98752,98700
 1.8000e+000 98824  7.0279e+000  3.2840e+000  1.3014e+000 42247 98648,98752,98674
 1.8000e+000 98801  4.7419e+000 -1.2226e+000  8.0848e+000 42247 98622,98752,98648
 1.8000e+000 98778  7.0535e+000 -7.5251e+000 -1.7904e-001 42247 98700,98752,98726
 1.8000e+000 99117 -5.2973e+000 -1.0229e+001 -1.1783e-001 41843 98892,98996,98918
 1.8000e+000 99094 -6.4047e+000 -1.1002e+001  1.5755e-001 41843 98892,99022,98996
 1.8000e+000 99071 -4.4066e+000 -9.3456e+000  2.6746e-001 41843 98918,98996,98970
 1.8000e+000 99048 -5.8405e+000 -9.8801e+000  2.5120e-001 41843 98918,98970,98944
 1.8000e+000 99625 -1.1223e+000  4.8754e+000  1.5334e+000 41232 99648,99380,99354
 1.8000e+000 99602  2.4230e+000  4.8242e+000  5.9216e-001 41232 99648,99354,99328
 1.8000e+000 99579  2.2610e+000  5.2829e+000  3.1834e+000 41232 99720,99432,99380
 1.8000e+000 99556 -2.3234e+000  6.1969e-001 -1.5580e+000 41232 99380,99432,99406
 1.8000e+000 99533  3.1155e+000 -2.1542e-002  1.1357e+000 41232 99328,99484,99458
 1.8000e+000 99510  1.0846e+001  2.8662e+000  2.0371e+000 41232 99302,99484,99328
 1.8000e+000 99674 -6.6046e-001  4.9365e+000  2.4988e+000 41232 99720,99380,99648
 1.8000e+000 99697  9.9613e-001  5.0922e-001  5.7608e-001 41232 99458,99648,99328
 1.8000e+000 99746  5.3031e+000  4.6761e+000  3.9559e+000 41232 99458,99432,99720
 1.8000e+000 99769  3.3853e+000  4.7077e+000  2.8660e+000 41232 99458,99720,99648
 1.8000e+000 100275 -5.7408e-001 -3.2143e+000 -5.7090e+000 40728 99952,100004,99978
 1.8000e+000 100252  9.3349e-001 -4.4582e+000 -4.8939e+000 40728 99952,100030,100004
 1.8000e+000 100229 -2.7721e+000 -8.0604e+000 -3.2199e+000 40728 99952,100134,100030
 1.8000e+000 100206 -3.1563e+000 -1.9051e+000 -3.0477e+000 40728 100298,100108,100082
 1.8000e+000 100183 -1.3923e+000 -7.9508e+000 -4.6855e+000 40728 100298,100082,100030
 1.8000e+000 100160 -1.1702e+001 -4.5424e+000 -1.4571e+001 40728 100030,100082,100056
 1.8000e+000 100324 -2.3700e+000  2.4873e+000 -1.1509e+000 40728 100134,100108,100298
 1.8000e+000 100347 -7.6679e-001 -4.4234e+000 -2.4095e+000 40728 100134,100298,100030
 1.8000e+000 100853 -4.8141e+000 -3.3733e+000  6.2870e-001 40274 100876,100686,100660
 1.8000e+000 100830 -4.1704e+000 -5.2518e+000  1.2916e+000 40274 100948,100876,100660
 1.8000e+000 100807 -4.6524e+000 -5.4589e+000  6.4820e-001 40274 100948,100660,100608
 1.8000e+000 100784 -5.7936e+000 -3.4883e+000  1.4224e+000 40274 101020,100556,100712
 1.8000e+000 100761 -4.4933e+000 -2.1935e-001  2.6686e+000 40274 100530,100712,100556
 1.8000e+000 100738 -6.0796e+000 -4.8511e+000  9.9217e-001 40274 100608,100660,100634
 1.8000e+000 100902 -4.5022e+000  1.3687e+000  2.1874e+000 40274 100712,100686,100876
 1.8000e+000 100925 -5.7283e+000 -3.4955e+000  1.4750e+000 40274 101020,100712,100876
 1.8000e+000 100974 -4.6299e+000 -5.9348e+000  5.9921e-001 40274 100582,100876,100948
 1.8000e+000 100997 -5.5444e+000 -6.2021e+000 -4.9621e-002 40274 100582,100948,100608
 1.8000e+000 101046 -5.8512e+000 -3.5139e+000  1.4382e+000 40274 100582,100556,101020
 1.8000e+000 101069 -5.8122e+000 -3.5422e+000  1.4962e+000 40274 100582,101020,100876
 1.8000e+000 101496  8.3931e-002  3.0059e+000  2.0309e+000 39820 101519,101277,101225
 1.8000e+000 101473 -2.3231e+000 -5.1608e+000  1.3849e+000 39820 101519,101225,101199
 1.8000e+000 101450 -1.0691e+001 -6.7831e+000  5.4471e+000 39820 101173,101355,101199
 1.8000e+000 101427  6.2178e+000  5.9195e-001  4.0862e-001 39820 101277,101355,101303
 1.8000e+000 101404  4.4850e+000  3.6289e+000  1.3026e-001 39820 101225,101277,101251
 1.8000e+000 101381  2.7307e+000  1.5943e+000 -2.8503e-001 39820 101303,101355,101329
 1.8000e+000 101545  5.6883e-001 -1.7529e+000  5.3167e+000 39820 101355,101277,101519
 1.8000e+000 101568  2.3240e-001 -5.5324e+000  5.7665e+000 39820 101355,101519,101199
 1.8000e+000 101816 -4.5261e+000 -7.2250e+000  7.8570e-001 39066 101839,101695,101643
 1.8000e+000 101793 -5.7522e+000 -8.9502e+000  2.1490e-001 39066 101839,101643,101591
 1.8000e+000 101770 -3.6852e+000 -8.0639e+000 -1.7538e-001 39066 101643,101695,101669
 1.8000e+000 101747 -5.5946e+000 -9.0350e+000  1.1351e-001 39066 101591,101643,101617
 1.8000e+000 101865 -3.1950e+000 -7.7283e+000  2.2318e+000 39066 101721,101695,101839
 1.8000e+000 101888 -4.6177e+000 -1.0075e+001  1.5795e+000 39066 101721,101839,101591
 1.8000e+000 102087 -5.7649e+000 -9.2401e+000 -1.4212e-001 38726 101937,101989,101963
 1.8000e+000 102064 -6.8626e+000 -9.7320e+000  9.9696e-002 38726 101937,102015,101989
 1.8000e+000 102041 -5.2199e+000 -8.9138e+000  3.6929e-001 38726 101911,102015,101937
 1.8000e+000 102337  2.8607e+000 -1.2284e+000 -1.2748e+000 38322 102112,102190,102138
 1.8000e+000 102314  8.7428e-002 -2.5518e+000  2.0851e+000 38322 102112,102216,102190
 1.8000e+000 102291  3.4290e+000 -1.1171e+001  7.1995e+000 38322 102112,102242,102216
 1.8000e+000 102268 -9.5116e-001 -1.7802e+000 -1.3892e+000 38322 102138,102190,102164
 1.8000e+000 102489 -4.8392e+000 -8.2722e+000  7.6274e-001 38032 102512,102388,102362
 1.8000e+000 102466 -4.6804e+000 -7.3935e+000  3.2652e-001 38032 102512,102362,102440
 1.8000e+000 102538 -4.3374e+000 -9.0997e+000  7.0487e-001 38032 102414,102388,102512
 1.8000e+000 102561 -4.3084e+000 -8.4988e+000  1.5618e-001 38032 102414,102512,102440
 1.8000e+000 102894 -1.2923e+000  3.8130e+000 -4.6487e-001 37592 102669,102773,102695
 1.8000e+000 102871  2.6126e+000  4.7780e+000 -1.8271e+000 37592 102669,102799,102773
 1.8000e+000 102848  3.5205e+000  1.1517e+001  1.3748e+000 37592 102721,102773,102747
 1.8000e+000 102825  6.1604e-001 -6.3086e-001  7.8906e-003 37592 102695,102773,102721
 1.8000e+000 103093  1.4186e-001  2.3573e+000 -5.7931e-001 37188 102917,102995,102943
 1.8000e+000 103070  6.1886e-001  3.2639e+000 -7.7072e-001 37188 102917,103021,102995
 1.8000e+000 103047  3.7525e+000  4.1807e+000 -1.3602e+000 37188 102943,102995,102969
 1.8000e+000 103341  5.8508e+000  7.4867e+000  2.1261e-001 36605 103142,103194,103168
 1.8000e+000 103318  5.7565e+000  5.9459e+000  1.4394e+000 36605 103142,103220,103194
 1.8000e+000 103295  8.0231e+000  3.0204e+000 -2.1235e-001 36605 103116,103220,103142
 1.8000e+000 103272  1.0829e+001  4.6681e+000 -8.9466e-001 36605 103116,103246,103220
 1.8000e+000 103949 -4.1028e+000 -6.4008e+000 -5.8208e-001 36127 103554,103606,103580
 1.8000e+000 103926 -7.1240e+000 -4.0749e+000 -1.1163e+000 36127 103528,103606,103554
 1.8000e+000 103903 -6.3867e+000 -4.3090e+000 -3.3225e+000 36127 103528,103736,103606
 1.8000e+000 103880 -6.4645e+000 -8.2097e+000 -2.6420e+000 36127 103972,103710,103632
 1.8000e+000 103857 -8.9810e+000 -1.3903e+001 -7.2245e+000 36127 103972,103632,103606
 1.8000e+000 103834 -3.9658e+000 -5.0718e+000 -1.5593e+000 36127 103632,103710,103658
 1.8000e+000 103811 -1.0494e+001 -9.5905e-001 -7.5288e+000 36127 103528,103762,103736
 1.8000e+000 103788 -2.4327e+000 -1.4232e-001 -9.8474e-002 36127 103658,103710,103684
 1.8000e+000 103998 -2.6241e+000 -2.8360e+000  1.4507e+000 36127 103736,103710,103972
 1.8000e+000 104021 -5.6586e+000 -8.2750e+000 -3.2567e+000 36127 103736,103972,103606
 1.8000e+000 104220 -1.1704e+001 -4.0133e+000  1.9987e+000 35787 104070,104148,104122
 1.8000e+000 104197 -1.2197e+001  7.5905e+000  4.4025e+000 35787 104044,104148,104070
 1.8000e+000 104174 -8.6269e+000  5.8173e-001 -6.2701e-001 35787 104070,104122,104096
 1.8000e+000 104419 -6.4793e+000 -5.7710e+000  6.6247e-001 35440 104269,104321,104295
 1.8000e+000 104396 -2.8276e+000 -4.1515e+000  9.7089e-001 35440 104269,104347,104321
 1.8000e+000 104373 -4.4699e+000 -5.1017e+000  3.9854e-001 35440 104243,104347,104269
 1.8000e+000 104718 -2.5296e+000 -2.2056e-001 -1.1140e+000 34986 104496,104548,104522
 1.8000e+000 104695 -3.3945e+000 -8.5704e-001 -6.7855e-001 34986 104741,104548,104496
 1.8000e+000 104672 -2.1396e+000 -9.1949e-001 -5.9021e-001 34986 104741,104496,104444
 1.8000e+000 104649 -4.1415e+000 -7.6623e-001 -1.6179e-002 34986 104813,104574,104548
 1.8000e+000 104626 -2.3037e+000 -1.1583e+000 -6.0710e-002 34986 104444,104496,104470
 1.8000e+000 104767 -4.1831e+000 -8.3057e-001 -2.0290e-001 34986 104813,104548,104741
 1.8000e+000 104790 -3.0422e+000 -5.9612e-001 -4.2243e-001 34986 104600,104741,104444
 1.8000e+000 104839 -3.8023e+000 -1.4362e+000 -2.4916e-001 34986 104600,104574,104813
 1.8000e+000 104862 -3.6231e+000 -5.9178e-001 -5.4478e-001 34986 104600,104813,104741
 1.8000e+000 105014 -7.2204e+000 -7.0500e+000  3.6737e-001 34696 105169,105037,104913
 1.8000e+000 104991 -8.1369e+000 -9.5690e+000  3.7638e-001 34696 105169,104913,104887
 1.8000e+000 105063 -5.1545e+000 -6.4943e+000  8.2110e-001 34696 104939,104913,105037
 1.8000e+000 105195 -7.5152e+000 -6.3186e+000  2.5092e+000 34696 104965,105037,105169
 1.8000e+000 105218 -8.2147e+000 -8.2840e+000  2.5539e+000 34696 104965,105169,104887
 1.8000e+000 105368 -6.0785e+000 -5.8578e+000 -2.4975e-001 34384 105267,105319,105293
 1.8000e+000 105345 -5.7336e+000 -4.7382e+000  2.2381e-002 34384 105241,105319,105267
 1.8000e+000 105616 -1.5307e+000  4.9024e-001 -6.9881e-001 33730 105639,105417,105391
 1.8000e+000 105593 -2.2026e-001 -2.1748e-001 -1.8618e+000 33730 105639,105391,105495
 1.8000e+000 105570 -2.5421e+000 -6.6716e-001 -1.5777e+000 33730 105391,105521,105495
 1.8000e+000 105547 -2.2459e+000 -2.4810e+000  2.8877e+000 33730 105417,105469,105443
 1.8000e+000 105665 -2.1666e-001  3.2543e-001 -1.0675e+000 33730 105469,105417,105639
 1.8000e+000 105688  3.1122e+000  1.1448e+000 -2.4481e+000 33730 105469,105639,105495
 1.8000e+000 105840 -4.7749e+000 -5.1945e+000 -4.1618e-002 33390 105713,105765,105739
 1.8000e+000 105817 -5.0533e+000 -4.5274e+000 -6.3151e-001 33390 105713,105791,105765
 1.8000e+000 106090 -4.7070e+000 -3.0800e+000 -1.8777e+000 33043 106113,105943,105891
 1.8000e+000 106067 -5.2316e+000 -2.1723e+000 -3.2869e-001 33043 106113,105891,105865
 1.8000e+000 106044 -3.9742e+000 -3.0618e+000 -1.6163e+000 33043 105891,105943,105917
 1.8000e+000 106021 -5.1795e+000 -2.6061e+000  2.4919e-001 33043 105865,105995,105969
 1.8000e+000 106139 -3.6711e+000 -3.3189e-001 -2.4605e+000 33043 105969,105943,106113
 1.8000e+000 106162 -4.8771e+000 -9.1251e-001 -3.6003e-001 33043 105969,106113,105865
 1.8000e+000 106412  6.5094e+000  3.0218e+000  1.1247e+000 32539 106435,106291,106239
 1.8000e+000 106389  4.7056e+000  1.6827e+000 -2.3090e-001 32539 106187,106317,106291
 1.8000e+000 106366  6.0203e+000  8.3560e+000  8.8561e+000 32539 106435,106239,106213
 1.8000e+000 106343  7.3262e+000  3.9545e+000  1.4718e+000 32539 106239,106291,106265
 1.8000e+000 106461  2.3853e+000  6.7288e-001  5.6062e-002 32539 106187,106291,106435
 1.8000e+000 106484 -2.5229e+000  3.8641e+000  7.1521e+000 32539 106187,106435,106213
 1.8000e+000 106685 -4.0937e+000 -4.3782e+000 -9.0353e-001 31835 106535,106587,106561
 1.8000e+000 106662 -4.9127e+000 -4.0681e+000  2.4479e-001 31835 106509,106587,106535
 1.8000e+000 106639 -5.0428e+000 -1.7258e+000 -3.2233e-001 31835 106509,106613,106587
 1.8000e+000 106935  3.0029e-001 -1.5619e+000 -3.4031e+000 31530 106736,106814,106788
 1.8000e+000 106912  1.3230e+000 -1.1365e-001 -2.1388e+000 31530 106710,106814,106736
 1.8000e+000 106889 -1.9157e+000 -2.1102e+000 -3.0246e+000 31530 106736,106788,106762
 1.8000e+000 106866 -3.3388e-001 -2.1969e-001 -3.1637e+000 31530 106710,106840,106814
 1.8000e+000 107339 -1.0026e+001 -2.9629e+000 -3.4549e-001 31026 107117,107221,107195
 1.8000e+000 107316 -8.2819e+000 -9.2621e+000  8.7288e-001 31026 107091,107221,107117
 1.8000e+000 107293 -9.6509e+000 -9.5674e+000  1.2052e+000 31026 107065,107221,107091
 1.8000e+000 107270 -9.9175e+000  5.7023e+000 -7.4598e-001 31026 107143,107195,107169
 1.8000e+000 107247 -1.4343e+001 -5.1043e+000 -1.3507e+000 31026 107117,107195,107143
 1.8000e+000 107538 -5.6336e+000 -6.7496e+000  4.6242e-003 30714 107561,107388,107362
 1.8000e+000 107515 -5.7519e+000 -6.6408e+000  2.7491e-002 30714 107561,107362,107466
 1.8000e+000 107492 -5.8712e+000 -6.7322e+000 -3.5478e-002 30714 107414,107466,107440
 1.8000e+000 107587 -5.7379e+000 -6.8104e+000 -3.2672e-002 30714 107414,107388,107561
 1.8000e+000 107610 -5.8387e+000 -6.6817e+000  4.5634e-004 30714 107414,107561,107466
 1.8000e+000 107990 -5.6320e+000 -7.0259e+000  8.7557e-001 30260 108013,107846,107768
 1.8000e+000 107967 -5.3667e+000 -6.3660e+000  1.7728e-001 30260 108013,107768,107716
 1.8000e+000 107944 -4.8523e+000 -7.1052e+000  2.4527e-001 30260 107716,107768,107742
 1.8000e+000 107921 -7.0591e+000 -6.1316e+000  1.1822e+000 30260 107768,107846,107820
 1.8000e+000 107898 -6.1623e+000 -8.1086e+000 -2.8991e-002 30260 107768,107820,107794
 1.8000e+000 108039 -4.9950e+000 -6.6024e+000  4.7574e-001 30260 107872,107846,108013
 1.8000e+000 108062 -5.0573e+000 -6.0388e+000 -1.8174e-001 30260 107872,108013,107716
 1.8000e+000 108261 -3.5052e+000 -1.2492e+001  3.3378e-001 29870 108284,108085,108163
 1.8000e+000 108238 -8.2841e+000 -7.8846e+000 -3.1647e+000 29870 108085,108189,108163
 1.8000e+000 108215  9.9243e+000 -4.8633e+000  3.4169e+000 29870 108284,108163,108137
 1.8000e+000 108310 -9.8284e+000 -3.2497e+000  5.1995e+000 29870 108111,108085,108284
 1.8000e+000 108333 -3.6520e+000  4.2714e-001  6.7492e+000 29870 108111,108284,108137
 1.8000e+000 108664 -3.8693e-001 -9.4819e-001 -1.9796e+000 29480 108465,108569,108543
 1.8000e+000 108641 -3.3364e+000 -5.6297e-001  6.9360e-001 29480 108439,108569,108465
 1.8000e+000 108618 -6.0205e-001 -3.0820e+000 -5.0208e-001 29480 108465,108543,108491
 1.8000e+000 108595 -1.9571e+000 -3.4185e+000 -8.1059e-001 29480 108491,108543,108517
 1.8000e+000 108993 -5.5852e-001 -3.5515e+000  4.0287e+000 29076 108794,108872,108820
 1.8000e+000 108970 -3.3624e+000 -5.9014e+000  1.5837e+000 29076 108768,108872,108794
 1.8000e+000 108947  5.0898e-001 -2.9141e+000  3.3959e+000 29076 108820,108872,108846
 1.8000e+000 108924 -4.0514e+000 -5.5513e+000  3.8847e+000 29076 108768,108898,108872
 1.8000e+000 109420 -1.1874e+000 -1.3287e+000 -2.3419e+000 28472 109123,109227,109201
 1.8000e+000 109397 -9.3433e+000 -2.9039e+000 -1.3268e+000 28472 109123,109253,109227
 1.8000e+000 109374 -3.0878e+000 -3.1155e+000 -1.4472e+000 28472 109123,109201,109175
 1.8000e+000 109351 -5.8149e+000 -1.2578e+000 -7.4929e-001 28472 109123,109279,109253
 1.8000e+000 109328 -2.1971e+000 -2.6474e+000 -3.8487e-001 28472 109123,109175,109149
 1.8000e+000 109305 -6.8132e+000  1.4689e+000 -1.7722e+000 28472 109097,109279,109123
 1.8000e+000 109749 -7.5788e+000  3.8263e+000 -4.4924e+000 28018 109772,109602,109576
 1.8000e+000 109726 -7.1096e+000  5.4707e-001 -2.8273e+000 28018 109772,109576,109550
 1.8000e+000 109703 -8.1638e+000 -4.2211e+000 -6.2185e+000 28018 109524,109628,109550
 1.8000e+000 109680 -7.8190e+000 -8.5016e+000 -2.9343e-001 28018 109524,109654,109628
 1.8000e+000 109798 -1.0281e+001  2.0293e+000 -1.9235e+000 28018 109628,109602,109772
 1.8000e+000 109821 -7.6170e+000 -1.5438e+000 -1.2317e+000 28018 109628,109772,109550
 1.8000e+000 110199 -5.0370e+000 -6.9885e+000 -9.2885e-001 27564 110029,110081,110055
 1.8000e+000 110176 -4.2334e+000 -4.2169e+000 -1.0163e+000 27564 109925,110081,110029
 1.8000e+000 110153 -4.0109e+000 -7.0263e+000 -2.5868e-001 27564 109925,110029,109977
 1.8000e+000 110130 -4.6172e+000 -7.2195e+000  1.8623e-001 27564 109977,110029,110003
 1.8000e+000 110107 -4.4992e+000 -7.3230e+000 -9.6255e-001 27564 109925,109977,109951
 1.8000e+000 110398  7.1391e+000  5.2927e+000 -3.5396e-001 27003 110248,110326,110300
 1.8000e+000 110375  5.8768e+000  2.4847e+000 -7.4706e-001 27003 110222,110326,110248
 1.8000e+000 110352  2.1071e-001  1.8419e+000 -1.4976e+000 27003 110248,110300,110274
 1.8000e+000 110646  3.7751e+000 -5.0606e+000  5.6030e+000 26563 110669,110473,110421
 1.8000e+000 110623  3.5887e+000 -1.3808e+001  8.9102e+000 26563 110669,110421,110551
 1.8000e+000 110600  6.0376e+000 -2.6552e+000  5.0686e+000 26563 110473,110525,110499
 1.8000e+000 110577  3.8501e-001 -1.0617e+001  1.0145e+001 26563 110421,110473,110447
 1.8000e+000 110695  3.7616e+000 -2.7609e+000  5.1788e+000 26563 110525,110473,110669
 1.8000e+000 110718  6.9163e+000 -5.5622e+000  8.9342e+000 26563 110525,110669,110551
 1.8000e+000 110870 -6.8712e+000 -3.5182e+000 -2.9009e+000 26166 110769,110821,110795
 1.8000e+000 110847 -3.1522e+000 -3.9321e+000 -6.7170e-001 26166 110743,110821,110769
 1.8000e+000 111380 -6.3998e+000 -6.8505e+000  5.8436e-001 25712 111403,111109,111083
 1.8000e+000 111357 -6.1187e+000 -6.5274e+000  4.3917e-001 25712 111403,111083,111239
 1.8000e+000 111334 -7.2333e+000 -7.5441e+000  7.0269e-001 25712 111109,111161,111135
 1.8000e+000 111311 -5.3473e+000 -6.4119e+000  1.8284e-001 25712 111057,111239,111083
 1.8000e+000 111288 -5.7675e+000 -6.3459e+000  1.3219e+000 25712 111161,111239,111187
 1.8000e+000 111265 -5.5403e+000 -5.6280e+000  7.5745e-001 25712 111187,111239,111213
 1.8000e+000 111429 -6.0918e+000 -7.2031e+000  6.9008e-001 25712 111161,111109,111403
 1.8000e+000 111452 -5.7575e+000 -6.8694e+000  5.2443e-001 25712 111161,111403,111239
 1.8000e+000 111651 -5.8777e+000 -7.3738e+000  2.1493e-001 25300 111674,111501,111475
 1.8000e+000 111628 -5.6949e+000 -8.3245e+000  2.5587e-001 25300 111674,111475,111579
 1.8000e+000 111605 -5.9714e+000 -6.8846e+000  5.7271e-002 25300 111501,111553,111527
 1.8000e+000 111700 -5.8580e+000 -6.7355e+000  2.4574e-001 25300 111553,111501,111674
 1.8000e+000 111723 -5.5232e+000 -7.4900e+000  3.6880e-001 25300 111553,111674,111579
 1.8000e+000 111922  2.0179e+000 -1.6070e+000  6.4165e-002 24732 111798,111850,111824
 1.8000e+000 111899  1.4677e+000  1.5673e+000 -2.0694e+000 24732 111772,111850,111798
 1.8000e+000 111876 -5.5961e-001  1.3725e+000 -1.9694e+000 24732 111746,111850,111772
 1.8000e+000 112255 -5.5792e+000 -5.1880e+000 -4.6813e-001 24142 112056,112108,112082
 1.8000e+000 112232 -5.2851e+000 -6.3387e+000  1.6667e-001 24142 112056,112134,112108
 1.8000e+000 112209 -5.2187e+000 -5.5502e+000  1.4802e-001 24142 112056,112160,112134
 1.8000e+000 112186 -4.2052e+000 -6.2170e+000 -4.6487e-001 24142 112030,112160,112056
 1.8000e+000 112601 -1.2181e+001 -3.1443e+000  1.0835e+001 23852 112624,112382,112356
 1.8000e+000 112578 -1.6661e+001 -2.7909e+000  6.6154e+000 23852 112696,112624,112356
 1.8000e+000 112555 -1.5141e+001 -3.9294e+000  3.6185e+000 23852 112696,112356,112304
 1.8000e+000 112532 -1.5435e+001 -4.5194e+000  3.7775e+000 23852 112304,112356,112330
 1.8000e+000 112509 -4.1439e+000  6.2316e+000  8.0172e+000 23852 112278,112460,112304
 1.8000e+000 112486  1.5505e+001 -2.3849e-001  5.1675e+000 23852 112382,112434,112408
 1.8000e+000 112650  8.2391e+000  1.2844e+000  1.4249e+001 23852 112434,112382,112624
 1.8000e+000 112673 -1.0168e+001 -8.2445e+000  9.2973e+000 23852 112434,112624,112460
 1.8000e+000 112722 -1.1335e+001  1.2657e-002  8.3143e+000 23852 112460,112624,112696
 1.8000e+000 112745 -1.0951e+001 -2.4238e+000  5.0565e+000 23852 112460,112696,112304
 1.8000e+000 113015 -1.8793e+001  1.4081e+001 -4.4993e+000 23490 112842,112894,112868
 1.8000e+000 112992 -1.4863e+001  2.3354e+000 -3.9647e+000 23490 112816,112894,112842
 1.8000e+000 112969 -1.4575e+001  2.5463e+000 -7.5960e-001 23490 112790,112894,112816
 1.8000e+000 112946 -1.6470e+001 -2.6876e+000 -8.7242e-001 23490 112790,112920,112894
 1.8000e+000 113348 -4.6571e+000 -2.5808e+000 -2.5008e+000 22970 113175,113253,113227
 1.8000e+000 113325 -3.6464e+000 -5.2321e+000 -1.4579e+000 22970 113149,113253,113175
 1.8000e+000 113302 -6.5862e+000 -9.4459e+000 -4.6560e+000 22970 113175,113227,113201
 1.8000e+000 113279 -2.3957e+000 -2.1705e+000 -1.4057e+000 22970 113123,113253,113149
 1.8000e+000 113645 -4.8109e+000 -6.1416e+000 -1.0764e+000 22366 113423,113527,113449
 1.8000e+000 113622 -5.6845e+000 -7.4994e+000 -1.5209e+000 22366 113371,113527,113423
 1.8000e+000 113599 -5.1601e+000 -7.0004e+000 -1.2565e+000 22366 113449,113527,113501
 1.8000e+000 113576 -4.7540e+000 -8.1198e+000 -4.5427e-001 22366 113449,113501,113475
 1.8000e+000 113553 -3.6771e+000 -2.4690e+000 -1.3645e+000 22366 113371,113423,113397
 1.8000e+000 113893 -4.1680e+000 -7.8201e+000 -3.2396e+000 21912 113916,113746,113720
 1.8000e+000 113870 -2.6379e+000 -5.5793e+000 -2.5246e+000 21912 113916,113720,113668
 1.8000e+000 113847 -1.5964e+000 -6.0946e+000 -2.0401e-001 21912 113988,113798,113772
 1.8000e+000 113824 -2.3690e+000 -4.3536e+000 -4.2515e+000 21912 113668,113720,113694
 1.8000e+000 113942 -2.5190e+000 -3.7700e+000 -3.1950e+000 21912 113772,113746,113916
 1.8000e+000 113965 -2.4987e+000 -3.3896e+000 -1.7806e+000 21912 113988,113772,113916
 1.8000e+000 114014 -1.8490e+000 -9.2346e+000 -1.5154e+000 21912 113668,113798,113988
 1.8000e+000 114037 -3.5165e+000 -7.5682e+000 -2.2154e+000 21912 113668,113988,113916
 1.8000e+000 114287  7.7811e-001 -4.5715e+000 -1.0626e+000 21408 114088,114140,114114
 1.8000e+000 114264  1.3635e+000 -4.3560e+000 -1.5247e+000 21408 114310,114140,114088
 1.8000e+000 114241  1.1753e+000 -3.8203e+000 -2.4441e+000 21408 114310,114088,114192
 1.8000e+000 114218 -8.3757e-001 -4.1930e+000 -2.6081e+000 21408 114062,114192,114088
 1.8000e+000 114336  1.2775e+000 -5.7399e+000 -1.4707e+000 21408 114166,114140,114310
 1.8000e+000 114359  1.2440e+000 -4.6942e+000 -2.2201e+000 21408 114166,114310,114192
 1.8000e+000 114609  6.2928e+000  3.9897e+000  2.3333e+000 21018 114632,114488,114436
 1.8000e+000 114586  5.0729e+000  3.7584e+000  4.8867e-001 21018 114632,114436,114410
 1.8000e+000 114563  6.5016e+000  3.3437e+000  9.8499e-001 21018 114384,114514,114410
 1.8000e+000 114540  3.6171e-001  4.0379e+000  2.2576e+000 21018 114436,114488,114462
 1.8000e+000 114658  8.8816e+000  4.6143e+000  3.1577e+000 21018 114514,114488,114632
 1.8000e+000 114681  7.0170e+000  4.1545e+000  1.3758e+000 21018 114514,114632,114410
 1.8000e+000 114882 -7.7297e-001 -4.5837e+000  5.8150e-001 20614 114732,114784,114758
 1.8000e+000 114859 -2.0788e+000 -4.4606e+000 -3.8872e-001 20614 114732,114810,114784
 1.8000e+000 114836 -2.4057e+000 -4.1993e+000 -3.4179e-001 20614 114706,114810,114732
 1.8000e+000 115132 -3.6911e+000 -5.1099e+000 -4.6184e-001 20110 114907,115011,114933
 1.8000e+000 115109 -3.3863e+000 -4.6208e+000 -9.3864e-001 20110 114907,115037,115011
 1.8000e+000 115086 -4.0407e+000 -4.7435e+000 -3.3814e-001 20110 114933,115011,114985
 1.8000e+000 115063 -2.3015e+000 -5.0661e+000  5.0228e-001 20110 114933,114985,114959
 1.8000e+000 115284 -4.1113e+000 -3.9886e+000 -5.5489e-001 19456 115378,115307,115157
 1.8000e+000 115261 -5.2281e+000 -2.4591e+000 -9.7190e-001 19456 115378,115157,115235
 1.8000e+000 115333 -4.3509e+000 -4.2833e+000 -4.2396e-001 19456 115183,115157,115307
 1.8000e+000 115404 -4.9413e+000 -6.3711e+000 -8.9847e-001 19456 115209,115307,115378
 1.8000e+000 115427 -5.8759e+000 -4.5239e+000 -1.4353e+000 19456 115209,115378,115235
 1.8000e+000 115677 -6.3429e+000 -5.9990e+000  2.2076e-001 19002 115504,115582,115530
 1.8000e+000 115654 -6.0792e+000 -6.6222e+000 -6.4184e-002 19002 115478,115582,115504
 1.8000e+000 115631 -5.6061e+000 -6.3398e+000  5.4613e-001 19002 115452,115582,115478
 1.8000e+000 115608 -7.2209e+000 -6.9346e+000  7.5781e-001 19002 115530,115582,115556
 1.8000e+000 115998  2.5596e+000  6.0417e+000 -1.1444e+000 18712 115802,115880,115854
 1.8000e+000 115975  5.0682e+000  9.2234e+000  3.0380e-001 18712 115724,115880,115802
 1.8000e+000 115952  5.4896e+000  5.8282e+000 -1.8527e-001 18712 115724,115802,115776
 1.8000e+000 115929  6.1889e+000  6.9670e+000  3.6976e-001 18712 115724,115776,115750
 1.8000e+000 115906  3.0493e+000  6.3314e+000 -9.3276e-001 18712 115802,115854,115828
 1.8000e+000 116270 -1.6622e+001 -1.2405e+001  1.4830e+000 18308 116045,116123,116071
 1.8000e+000 116247 -1.4458e+001 -9.4476e+000  5.7148e+000 18308 116045,116175,116123
 1.8000e+000 116224 -2.3852e+001 -3.9623e+000  3.9407e+000 18308 116123,116175,116149
 1.8000e+000 116201 -9.1265e+000 -7.9022e+000 -7.6472e-001 18308 116071,116123,116097
 1.8000e+000 116422 -6.7045e+000 -8.6414e+000 -1.2716e-001 17996 116321,116373,116347
 1.8000e+000 116399 -6.2771e+000 -7.6720e+000  9.2718e-003 17996 116295,116373,116321
 1.8000e+000 116574  5.0884e+000  1.6627e+000  1.3111e+000 17392 116473,116525,116499
 1.8000e+000 116551  1.1043e+001  7.1157e+000  3.7165e+000 17392 116447,116525,116473
 1.8000e+000 116797 -3.8146e-002 -7.6710e+000 -5.0110e-001 16938 116621,116699,116673
 1.8000e+000 116774  1.4999e+000 -1.0008e+001 -4.4175e-002 16938 116621,116725,116699
 1.8000e+000 116751  2.3947e-001 -7.0236e+000 -3.3412e-001 16938 116621,116673,116647
 1.8000e+000 116998  8.2420e+000  1.2394e+000  1.6664e+000 16434 117021,116874,116848
 1.8000e+000 116975 -4.3880e+000 -1.6084e+000 -1.4113e+000 16434 117021,116848,116822
 1.8000e+000 116952  1.3656e+001  7.7575e+000  5.4820e+000 16434 116874,116926,116900
 1.8000e+000 117047  1.3034e+001 -7.8654e-001  2.6040e+000 16434 116926,116874,117021
 1.8000e+000 117070  8.8837e+000  2.3222e+000 -3.9890e-001 16434 116926,117021,116822
 1.8000e+000 117293 -4.4656e+000 -4.3204e+000 -6.5584e-001 16070 117117,117169,117143
 1.8000e+000 117270 -4.8237e+000 -4.3590e+000 -7.7862e-001 16070 117117,117221,117169
 1.8000e+000 117247 -5.8990e+000 -6.7482e+000 -1.2163e+000 16070 117169,117221,117195
 1.8000e+000 117445 -2.0347e+001 -1.1141e+001 -1.5516e+000 15645 117318,117370,117344
 1.8000e+000 117422 -2.4659e+001 -1.3606e+001  1.5876e-001 15645 117318,117396,117370
 1.8000e+000 117548 -3.4635e+000 -5.6276e+000  5.6516e-002 417 117470,117522,117496
 1.9000e+000 70760  3.8994e-001 -3.0598e+000  5.0781e-001 70380 70633,70685,70659
 1.9000e+000 70737 -1.5823e+000 -2.9619e+000 -4.6199e-002 70380 70633,70711,70685
 1.9000e+000 70861 -7.2979e-001 -3.9049e+000  2.1407e-001 70068 70783,70835,70809
 1.9000e+000 71180 -1.2311e-001 -1.6566e+000  8.4537e-002 69870 70932,70984,70958
 1.9000e+000 71157 -5.9798e-002 -1.6402e+000  6.4352e-004 69870 70932,71010,70984
 1.9000e+000 71134  4.0967e-001 -6.6626e-001  2.0970e-001 69870 70932,71036,71010
 1.9000e+000 71111 -1.1299e-001 -1.7857e+000 -5.1479e-002 69870 70932,71062,71036
 1.9000e+000 71088 -2.8193e-001 -1.8898e+000 -3.8081e-002 69870 70906,71062,70932
 1.9000e+000 71428 -1.1313e-001  2.6004e-001  8.1203e-001 69694 71451,71281,71255
 1.9000e+000 71405  1.0799e-001  3.4036e-001  8.8312e-001 69694 71523,71451,71255
 1.9000e+000 71382  3.0139e-001  5.9771e-001  1.1576e+000 69694 71523,71255,71229
 1.9000e+000 71359 -1.1004e+000 -1.5356e-001  3.3168e-001 69694 71595,71333,71307
 1.9000e+000 71477  1.9792e-001  3.8186e-001  5.0828e-001 69694 71307,71281,71451
 1.9000e+000 71500 -5.3953e-001 -1.3334e-002  3.3309e-001 69694 71595,71307,71451
 1.9000e+000 71549 -2.9642e-001  3.3906e-001  6.3976e-001 69694 71203,71451,71523
 1.9000e+000 71572 -3.0375e-001  3.2344e-001  8.7345e-001 69694 71203,71523,71229
 1.9000e+000 71621 -3.4646e-001 -2.2034e-002  4.6397e-001 69694 71203,71333,71595
 1.9000e+000 71644 -2.2222e-001 -1.6246e-001  5.2546e-001 69694 71203,71595,71451
 1.9000e+000 71745 -5.5534e-002  2.5670e-001  3.9900e-001 69382 71667,71719,71693
 1.9000e+000 72100 -1.4464e+000  1.1695e-001  4.4710e-001 69184 71875,71979,71901
 1.9000e+000 72077 -1.3012e-001 -1.1200e+000  1.2057e+000 69184 71875,72005,71979
 1.9000e+000 72054 -3.5548e-001 -5.1300e-002 -4.8362e-001 69184 71901,71979,71953
 1.9000e+000 72031  2.5286e-001  6.7282e-002 -1.7341e-001 69184 71901,71953,71927
 1.9000e+000 72250 -2.4381e-001 -7.2497e-001 -2.0754e-001 68986 72149,72201,72175
 1.9000e+000 72227  2.9466e-002 -2.1021e+000  3.8572e-001 68986 72123,72201,72149
 1.9000e+000 72547 -8.4770e-001 -1.2592e+000  1.1746e+000 68582 72570,72403,72377
 1.9000e+000 72524 -5.5206e-001 -2.3378e+000  7.3548e-001 68582 72570,72377,72351
 1.9000e+000 72501 -5.2096e-001  4.3710e-001  1.2169e-001 68582 72642,72299,72429
 1.9000e+000 72478  5.1043e-001  4.1392e-001  6.3262e-002 68582 72273,72429,72299
 1.9000e+000 72455  5.5557e-001  3.2159e+000  1.5303e+000 68582 72299,72351,72325
 1.9000e+000 72596 -4.2841e-001 -1.1814e+000  9.8978e-001 68582 72429,72403,72570
 1.9000e+000 72619 -5.5698e-002 -3.5651e-001  3.2013e-001 68582 72642,72429,72570
 1.9000e+000 72668 -6.6362e-001 -2.3787e-001  1.1064e+000 68582 72351,72299,72642
 1.9000e+000 72691 -4.3524e-001 -1.5290e+000  1.2132e+000 68582 72351,72642,72570
 1.9000e+000 73095 -2.2508e+000  5.1033e-001  5.4718e-001 68384 72873,72925,72899
 1.9000e+000 73072 -2.6866e+000  2.4215e+000  1.6227e+000 68384 72847,72925,72873
 1.9000e+000 73049 -1.5901e+000 -1.5295e+000  4.1411e+000 68384 72847,72951,72925
 1.9000e+000 73026  1.7597e+000 -1.2560e+000  2.3732e+000 68384 72821,72951,72847
 1.9000e+000 73003 -4.7554e-001 -3.0374e-001 -1.1439e-001 68384 72821,72977,72951
 1.9000e+000 73552 -2.5807e-002  1.5745e+000  1.0896e+000 68044 73304,73434,73408
 1.9000e+000 73529 -5.2567e-001  2.2292e-001 -3.0940e-001 68044 73278,73434,73304
 1.9000e+000 73506  3.0622e+000  1.1047e-002  1.1769e+000 68044 73356,73408,73382
 1.9000e+000 73483  2.6484e+000 -5.5142e-001  6.2266e-001 68044 73304,73408,73356
 1.9000e+000 73460  3.7635e-001  2.5734e-001 -4.6217e-001 68044 73304,73356,73330
 1.9000e+000 73871 -4.3138e-001  1.9365e+000 -6.7183e-001 67846 73675,73727,73701
 1.9000e+000 73848 -4.6947e-002  1.1041e+000 -5.2277e-001 67846 73649,73727,73675
 1.9000e+000 73825 -3.4060e-001  2.5853e-001 -7.7213e-001 67846 73623,73727,73649
 1.9000e+000 73802  6.7578e-001  8.9373e-001 -3.7802e-001 67846 73623,73753,73727
 1.9000e+000 73779  2.0682e-001  1.0148e+000  4.9711e-001 67846 73597,73753,73623
 1.9000e+000 74021  1.6079e-001 -1.4123e+000  1.2628e-001 67598 73920,73972,73946
 1.9000e+000 73998 -4.1395e-001 -2.9199e+000  1.7132e-001 67598 73894,73972,73920
 1.9000e+000 74271 -1.7046e-001 -1.3174e+000  8.1235e-002 67286 74072,74176,74150
 1.9000e+000 74248 -1.4958e-001 -1.3968e+000  8.1403e-002 67286 74046,74176,74072
 1.9000e+000 74225 -1.5946e-001 -2.3401e+000  3.5439e-001 67286 74072,74150,74098
 1.9000e+000 74202 -1.8024e-001 -2.4430e+000  4.5578e-001 67286 74098,74150,74124
 1.9000e+000 74374 -8.7776e-001 -3.4687e+000 -3.7549e-001 67088 74296,74348,74322
 1.9000e+000 74646  1.5541e-001  3.9945e-001 -2.5686e-002 66890 74421,74525,74447
 1.9000e+000 74623 -6.4736e-002  3.7906e-001  3.7507e-001 66890 74421,74551,74525
 1.9000e+000 74600  1.6048e-001  6.5535e-001 -1.1636e-001 66890 74447,74525,74473
 1.9000e+000 74577 -7.6910e-001  2.6743e-001  2.9343e-001 66890 74473,74525,74499
 1.9000e+000 75254 -8.7925e-001 -4.2729e-001 -6.0980e-001 66528 74885,75067,75041
 1.9000e+000 75231 -3.5286e-002  4.4824e-001 -2.2712e-001 66528 74859,75067,74885
 1.9000e+000 75208 -2.8178e-001  2.4816e+000 -5.0116e-001 66528 74937,75015,74963
 1.9000e+000 75185 -9.2904e-001  2.1463e-001 -5.4556e-001 66528 74911,75015,74937
 1.9000e+000 75162 -8.3058e-001  1.4943e-001 -5.7620e-001 66528 74911,75041,75015
 1.9000e+000 75139 -4.1047e-001  3.0498e-001 -2.6663e-001 66528 74885,75041,74911
 1.9000e+000 75116 -6.5643e-001 -7.4614e-001 -8.3384e-001 66528 74833,75067,74859
 1.9000e+000 75093 -2.3958e+000 -2.6135e-001  4.3669e-001 66528 74963,75015,74989
 1.9000e+000 75453 -1.9324e-001  2.6957e+000 -1.4667e-001 66238 75303,75381,75355
 1.9000e+000 75430 -3.1163e-002  2.1174e+000 -1.5503e-001 66238 75277,75381,75303
 1.9000e+000 75407 -1.3849e-001 -6.9173e-002  3.6099e-001 66238 75303,75355,75329
 1.9000e+000 75701 -1.5551e+000 -3.8235e+000 -1.9234e-001 65834 75528,75606,75580
 1.9000e+000 75678 -1.0253e+000 -4.4390e+000  4.7023e-002 65834 75502,75606,75528
 1.9000e+000 75655  2.6128e-001 -3.1505e+000 -1.2875e-001 65834 75528,75580,75554
 1.9000e+000 75632 -1.5030e+000 -4.5116e+000  3.9776e-001 65834 75476,75606,75502
 1.9000e+000 75902  7.9884e-001 -1.2633e+000  2.0014e-001 65636 75726,75804,75752
 1.9000e+000 75879 -8.7284e-001 -2.0682e+000  4.5219e-001 65636 75726,75830,75804
 1.9000e+000 75856 -3.8573e-001 -1.3559e+000  3.4595e-001 65636 75752,75804,75778
 1.9000e+000 76103  1.8940e+000  7.4867e-001  3.2231e-001 65296 76126,75979,75953
 1.9000e+000 76080  8.5807e-001  1.9335e+000  1.0783e+000 65296 76126,75953,75927
 1.9000e+000 76057  5.4197e+000  7.3192e+000 -2.1253e+000 65296 76198,76005,75979
 1.9000e+000 76152  4.2663e+000  3.7157e+000 -1.0843e+000 65296 76198,75979,76126
 1.9000e+000 76175  8.1292e-001 -1.7449e+000 -4.4632e-001 65296 76031,76126,75927
 1.9000e+000 76224  3.8458e+000  2.1018e+000 -4.1562e-001 65296 76031,76005,76198
 1.9000e+000 76247  3.7661e+000  8.3079e-001  7.6757e-001 65296 76031,76198,76126
 1.9000e+000 76602  1.8122e-001 -2.2768e-001 -3.3217e-001 64892 76377,76481,76403
 1.9000e+000 76579  5.2842e-002 -4.5506e-002  2.0926e-002 64892 76377,76507,76481
 1.9000e+000 76556 -5.5602e-001 -5.0819e-001 -3.1541e-002 64892 76403,76481,76429
 1.9000e+000 76533 -5.9384e-003 -2.8161e-001  2.8441e-002 64892 76429,76481,76455
 1.9000e+000 76801 -4.0301e+000 -1.8519e+000  1.5337e+000 64438 76677,76729,76703
 1.9000e+000 76778 -1.5806e+000  4.9082e+000  2.0347e+000 64438 76651,76729,76677
 1.9000e+000 76755 -6.7965e+000 -4.1240e-001 -1.0840e+000 64438 76625,76729,76651
 1.9000e+000 77230  1.3362e+000 -1.0718e+000 -2.0408e-001 63920 77253,76959,76933
 1.9000e+000 77207  6.6052e-001 -1.1262e+000 -3.7865e-001 63920 77253,76933,77063
 1.9000e+000 77184 -1.2629e+000 -1.5821e+000  5.7594e-002 63920 76959,77037,76985
 1.9000e+000 77161  9.7844e-001 -7.5587e-001 -2.7394e-002 63920 76907,77063,76933
 1.9000e+000 77138  5.9331e-001 -3.2354e+000  4.0420e-002 63920 76985,77037,77011
 1.9000e+000 77115  3.8101e-001 -2.8960e-002  1.0222e-001 63920 76907,77089,77063
 1.9000e+000 77279  6.7212e-001 -1.1418e+000 -3.2330e-001 63920 77037,76959,77253
 1.9000e+000 77302 -1.2894e-002 -1.2300e+000 -5.2868e-001 63920 77037,77253,77063
 1.9000e+000 77680 -2.9584e+000 -1.5322e+000  2.8606e+000 63316 77703,77484,77432
 1.9000e+000 77657 -3.5088e+000 -1.3893e+000  3.1942e+000 63316 77703,77432,77406
 1.9000e+000 77634 -4.5378e+000 -2.9228e+000  3.3329e+000 63316 77406,77536,77510
 1.9000e+000 77611 -4.7781e-001 -1.3924e+000  3.4604e+000 63316 77432,77484,77458
 1.9000e+000 77588 -3.7206e+000 -2.1054e+000  1.7131e+000 63316 77406,77562,77536
 1.9000e+000 77729 -2.0018e+000 -9.9980e-001  2.2898e+000 63316 77510,77484,77703
 1.9000e+000 77752 -3.0806e+000 -1.4218e+000  2.7275e+000 63316 77510,77703,77406
 1.9000e+000 78000 -9.0543e-001 -4.1668e+000 -7.8040e-002 62812 77801,77853,77827
 1.9000e+000 77977 -5.2082e-002 -1.7297e+000 -3.8604e-001 62812 77801,77879,77853
 1.9000e+000 77954 -2.2070e+000 -2.8729e+000  3.6643e-001 62812 77801,77905,77879
 1.9000e+000 77931 -8.7860e-001 -1.7171e+000  9.1089e-001 62812 77775,77905,77801
 1.9000e+000 78380 -5.2800e+000 -4.1935e+000  9.7720e-001 62350 78184,78262,78236
 1.9000e+000 78357 -3.6880e+000 -3.3590e+000  1.5469e+000 62350 78132,78262,78184
 1.9000e+000 78334 -3.7223e+000 -3.4225e+000  8.7402e-001 62350 78106,78262,78132
 1.9000e+000 78311 -3.3615e+000 -3.5357e+000  1.2352e+000 62350 78132,78184,78158
 1.9000e+000 78288 -3.7526e+000 -3.1222e+000  4.8875e-001 62350 78184,78236,78210
 1.9000e+000 78837  1.4105e+000  2.1398e+000  5.6316e-001 61946 78615,78667,78641
 1.9000e+000 78814  6.2373e-001  9.9115e-001 -7.0480e-001 61946 78589,78667,78615
 1.9000e+000 78791  9.2260e-002  2.3105e-001 -3.4797e-001 61946 78589,78719,78667
 1.9000e+000 78768  1.2971e+000  1.2211e+000 -1.1875e+000 61946 78667,78719,78693
 1.9000e+000 78745  3.6647e-001  4.2892e-001 -2.6111e-001 61946 78563,78719,78589
 1.9000e+000 78987  1.7841e+000 -3.8325e+000  7.5688e-001 61335 79010,78886,78860
 1.9000e+000 78964  1.7830e-001 -9.5977e-001  1.2302e+000 61335 79010,78860,78938
 1.9000e+000 79036  5.0760e-001 -5.6524e+000  1.5650e+000 61335 79082,79010,78912
 1.9000e+000 79059 -7.0902e-001 -4.0882e+000  5.5777e-002 61335 78912,79010,78938
 1.9000e+000 79108  5.3402e-001 -5.2461e+000  1.7906e-001 61335 78886,79010,79082
 1.9000e+000 79437 -2.5106e+000 -4.9982e+000  1.5500e-001 60888 79460,79238,79212
 1.9000e+000 79414 -1.7384e+000 -3.7606e+000 -5.4420e-001 60888 79460,79212,79342
 1.9000e+000 79391 -9.8959e-001 -4.8686e+000 -1.4077e-001 60888 79532,79264,79238
 1.9000e+000 79368  1.3450e+000 -6.8680e+000 -1.6141e+000 60888 79264,79316,79290
 1.9000e+000 79486 -1.2012e+000 -4.5197e+000 -4.1804e-001 60888 79532,79238,79460
 1.9000e+000 79509 -1.3838e+000 -4.4090e+000 -1.1530e+000 60888 79316,79460,79342
 1.9000e+000 79558 -9.6834e-001 -5.1621e+000 -6.5911e-001 60888 79316,79264,79532
 1.9000e+000 79581 -1.9622e+000 -5.1344e+000 -8.9972e-001 60888 79316,79532,79460
 1.9000e+000 79878 -5.3118e+000 -4.5354e+000  4.1479e-001 60484 79682,79760,79734
 1.9000e+000 79855 -7.3930e+000 -8.1982e+000  1.9638e+000 60484 79656,79760,79682
 1.9000e+000 79832 -8.2657e+000 -8.5196e+000  1.8160e+000 60484 79604,79760,79656
 1.9000e+000 79809 -8.1875e+000 -1.4386e+001  3.1930e+000 60484 79604,79656,79630
 1.9000e+000 79786 -1.5335e+000 -2.3662e+000  1.5866e+000 60484 79682,79734,79708
 1.9000e+000 80101 -1.4578e+000 -5.9774e+000 -3.9463e-001 60022 79951,80029,80003
 1.9000e+000 80078 -1.3299e+000 -6.4009e+000 -6.0776e-001 60022 79925,80029,79951
 1.9000e+000 80055 -2.8944e-001 -5.5757e+000 -6.2914e-001 60022 79951,80003,79977
 1.9000e+000 80351 -1.2256e+000 -5.7491e+000  2.1830e-001 59625 80152,80256,80204
 1.9000e+000 80328 -2.3879e+000 -5.6737e+000  3.9598e-001 59625 80126,80256,80152
 1.9000e+000 80305 -1.7918e+000 -6.9989e+000  3.6786e-001 59625 80204,80256,80230
 1.9000e+000 80282 -6.8667e-001 -7.0724e+000  5.2185e-001 59625 80152,80204,80178
 1.9000e+000 80552 -5.7598e-001 -4.9137e+000 -8.0285e-002 59121 80575,80402,80376
 1.9000e+000 80529  7.3375e-001 -6.1941e+000 -9.7723e-001 59121 80575,80376,80480
 1.9000e+000 80506  5.6419e+000 -1.0314e-001  1.2422e+000 59121 80428,80480,80454
 1.9000e+000 80601  7.6449e-001 -4.0103e+000  3.5700e-001 59121 80428,80402,80575
 1.9000e+000 80624  1.9926e+000 -5.3076e+000 -5.5290e-001 59121 80428,80575,80480
 1.9000e+000 81183 -9.2215e-001 -2.0350e+000  1.6320e+000 58553 81206,80863,80837
 1.9000e+000 81160 -1.9849e-001  5.3757e-001  9.0389e-001 58553 81350,81206,80837
 1.9000e+000 81137  2.1577e-001 -4.9781e+000  1.0663e+000 58553 81278,80915,80863
 1.9000e+000 81114 -6.1912e-001  3.7640e-001  1.0758e+000 58553 81350,80837,80811
 1.9000e+000 81091  3.0947e+000  7.9954e-001 -1.8026e+000 58553 81422,80967,80941
 1.9000e+000 81068  1.7716e+000 -3.8502e-001  3.6785e-001 58553 80967,81019,80993
 1.9000e+000 81045 -2.7738e+000 -6.4670e+000  2.4754e+000 58553 80863,80915,80889
 1.9000e+000 81232 -6.8569e-001 -2.5564e+000 -4.6131e-001 58553 81278,80863,81206
 1.9000e+000 81255  3.4182e+000 -7.3857e-001 -1.3253e+000 58553 81422,80941,81206
 1.9000e+000 81304 -5.4227e-001 -1.0213e+001  2.1110e+000 58553 80941,80915,81278
 1.9000e+000 81327  6.3920e-002 -6.5725e+000  3.9977e-002 58553 80941,81278,81206
 1.9000e+000 81376 -2.1011e-001  6.8502e-001  6.5720e-001 58553 81019,81206,81350
 1.9000e+000 81399 -2.9683e-001  6.3367e-001  8.1658e-001 58553 81019,81350,80811
 1.9000e+000 81448  2.4207e+000 -5.4242e-001 -1.2666e+000 58553 81019,80967,81422
 1.9000e+000 81471  2.9633e+000 -1.5466e+000 -7.3087e-001 58553 81019,81422,81206
 1.9000e+000 81768 -1.0977e+000 -7.3112e+000  9.0207e-003 57877 81791,81572,81520
 1.9000e+000 81745 -1.4484e+000 -7.4860e+000  7.8068e-001 57877 81791,81520,81494
 1.9000e+000 81722 -1.4228e+000 -6.9354e+000  6.8246e-002 57877 81863,81650,81598
 1.9000e+000 81699 -1.7261e+000 -7.7565e+000 -3.1917e-001 57877 81598,81650,81624
 1.9000e+000 81676 -1.4000e+000 -8.4138e+000  2.4320e-001 57877 81520,81572,81546
 1.9000e+000 81817 -7.0341e-001 -5.2367e+000 -6.1180e-001 57877 81598,81572,81791
 1.9000e+000 81840 -1.4091e+000 -6.9260e+000  6.0061e-002 57877 81863,81598,81791
 1.9000e+000 81889 -1.3604e+000 -7.1014e+000  9.5793e-002 57877 81494,81650,81863
 1.9000e+000 81912 -1.2831e+000 -7.0104e+000  5.8621e-002 57877 81494,81863,81791
 1.9000e+000 82160 -4.9807e-001 -4.0787e+000 -6.2178e-002 57473 81935,82039,82013
 1.9000e+000 82137 -1.1136e+000 -4.6584e+000  1.8812e-001 57473 81935,82065,82039
 1.9000e+000 82114 -8.7908e-001 -4.5365e+000  1.9336e-001 57473 81935,82013,81961
 1.9000e+000 82091  7.1775e-001 -4.6133e+000  1.0310e-001 57473 81961,82013,81987
 1.9000e+000 82719 -2.0975e+000 -3.6593e+000  2.2150e+000 56962 82814,82742,82425
 1.9000e+000 82696 -2.2026e+000 -3.2573e+000  3.2777e+000 56962 82742,82347,82555
 1.9000e+000 82673 -6.7498e-001 -4.8725e+000  2.3723e+000 56962 82814,82425,82399
 1.9000e+000 82650 -1.5282e+000 -1.9121e+000  7.2006e-002 56962 82425,82477,82451
 1.9000e+000 82627 -2.0876e+000 -1.6625e+000  1.2236e+000 56962 82425,82529,82477
 1.9000e+000 82604 -1.6564e+000  1.0058e+000  1.6664e+000 56962 82477,82529,82503
 1.9000e+000 82581 -3.1194e+000 -6.8332e+000  5.6111e+000 56962 82347,82399,82373
 1.9000e+000 82768 -1.5527e+000 -2.7343e+000  1.9593e+000 56962 82529,82425,82742
 1.9000e+000 82791 -2.2739e+000 -2.0377e+000  2.4511e+000 56962 82529,82742,82555
 1.9000e+000 82840 -6.1868e-001 -2.4693e+000  2.8520e+000 56962 82347,82742,82814
 1.9000e+000 82863  5.5130e-001 -3.7648e+000  3.0232e+000 56962 82347,82814,82399
 1.9000e+000 83467  3.2444e-001 -1.6567e+000  1.0184e+000 56300 83124,83176,83150
 1.9000e+000 83444 -5.1795e-001 -1.3366e+000 -3.3911e-002 56300 83490,83176,83124
 1.9000e+000 83421 -9.8711e-002 -6.6118e-001  2.8780e-001 56300 83490,83124,83280
 1.9000e+000 83398  1.4894e+000  2.2100e+000 -5.0152e-001 56300 83202,83280,83254
 1.9000e+000 83375  3.6625e-001  2.0615e+000 -7.3177e-001 56300 83046,83280,83124
 1.9000e+000 83352 -1.0762e+000 -9.5700e-001 -2.3796e-001 56300 83046,83124,83098
 1.9000e+000 83329 -1.3923e+000 -1.4464e+000  8.0513e-001 56300 83202,83254,83228
 1.9000e+000 83306  5.9457e-002  2.6089e+000 -2.1842e-001 56300 83046,83098,83072
 1.9000e+000 83516 -6.6323e-001 -3.9713e-001  2.4671e-001 56300 83202,83176,83490
 1.9000e+000 83539 -4.4877e-001 -1.5490e-001  5.9216e-001 56300 83202,83490,83280
 1.9000e+000 83787 -5.1429e-001 -6.8730e+000  4.2259e-001 55960 83588,83692,83666
 1.9000e+000 83764 -1.2958e+000 -7.3878e+000  2.1321e-001 55960 83562,83692,83588
 1.9000e+000 83741 -2.2456e+000 -8.3401e+000  1.2640e+000 55960 83588,83666,83614
 1.9000e+000 83718 -9.3799e-001 -8.7084e+000  1.0828e+000 55960 83614,83666,83640
 1.9000e+000 83937  1.5761e-001 -1.7267e+000 -1.1286e+000 55499 83810,83862,83836
 1.9000e+000 83914 -6.7312e-001 -5.8559e-001 -1.2801e+000 55499 83810,83888,83862
 1.9000e+000 84138 -2.3005e+000 -8.2250e+000  5.8224e-001 55152 83988,84066,84040
 1.9000e+000 84115 -1.8153e+000 -7.3466e+000  1.1002e-001 55152 83962,84066,83988
 1.9000e+000 84092  1.6016e-001 -4.3806e+000  1.9267e+000 55152 83988,84040,84014
 1.9000e+000 84471 -4.4993e+000 -2.2432e+000  2.5149e+000 54648 84324,84376,84350
 1.9000e+000 84448 -5.4788e+000 -6.1678e+000  2.8549e+000 54648 84272,84376,84324
 1.9000e+000 84425 -7.4999e+000 -1.3040e+001  3.3312e+000 54648 84246,84376,84272
 1.9000e+000 84402 -4.3768e+000 -6.4835e+000 -3.1483e-001 54648 84272,84324,84298
 1.9000e+000 84849 -1.7063e+000 -8.4387e+000  5.8645e-001 53922 84627,84731,84705
 1.9000e+000 84826 -1.8447e+000 -8.1575e+000  5.0532e-001 53922 84575,84731,84627
 1.9000e+000 84803 -2.0013e+000 -8.5650e+000  4.5813e-001 53922 84575,84627,84601
 1.9000e+000 84780 -7.1080e-001 -8.2944e+000  1.2612e+000 53922 84627,84705,84653
 1.9000e+000 84757  1.3759e+000 -8.7128e+000  1.7344e+000 53922 84653,84705,84679
 1.9000e+000 85581 -5.0565e+000 -7.5061e+000  1.7436e+000 53582 85604,85111,85319
 1.9000e+000 85558 -2.6009e+000 -7.6032e+000  1.7996e+000 53582 85111,85345,85319
 1.9000e+000 85535 -1.0702e+000 -6.3001e+000  3.8280e-001 53582 85604,85319,85293
 1.9000e+000 85512 -8.4825e+000 -4.5619e+000  7.2349e+000 53582 85241,85293,85267
 1.9000e+000 85489 -8.6335e+000 -8.6801e+000  3.1731e+000 53582 85676,85241,85189
 1.9000e+000 85466 -6.8835e+000 -8.5484e+000  1.6980e+000 53582 85676,85189,85137
 1.9000e+000 85443 -1.2157e+001 -4.3955e+000  4.1720e+000 53582 85189,85241,85215
 1.9000e+000 85420 -7.2163e+000 -7.0336e+000  1.3557e+000 53582 85137,85189,85163
 1.9000e+000 85397 -3.0090e+000 -9.5139e+000  2.8600e+000 53582 85111,85371,85345
 1.9000e+000 85630 -5.4505e+000 -7.1954e+000  3.0768e+000 53582 85137,85111,85604
 1.9000e+000 85653 -3.6798e+000 -8.0953e+000  3.0425e+000 53582 85748,85604,85293
 1.9000e+000 85702 -1.0206e+001 -1.2541e+001  6.1433e+000 53582 85293,85241,85676
 1.9000e+000 85725 -5.1333e+000 -8.9872e+000  3.5620e+000 53582 85748,85293,85676
 1.9000e+000 85774 -6.0466e+000 -6.5690e+000  2.5482e+000 53582 85137,85604,85748
 1.9000e+000 85797 -6.8622e+000 -6.8984e+000  2.8687e+000 53582 85137,85748,85676
 1.9000e+000 86303  7.3191e-001 -6.2857e+000  3.7594e-001 53178 86326,86084,86006
 1.9000e+000 86280 -7.7683e-001 -8.1239e+000  1.0335e+000 53178 86326,86006,86162
 1.9000e+000 86257  1.3733e+000 -3.1034e+000  1.3123e+000 53178 86398,86110,86084
 1.9000e+000 86234  1.6532e-001 -3.5507e+000  1.7686e+000 53178 86006,86058,86032
 1.9000e+000 86211  1.8788e+000 -4.0512e+000  8.7739e-001 53178 86006,86084,86058
 1.9000e+000 86188 -5.7567e+000 -1.1839e+001  5.7785e+000 53178 85980,86162,86006
 1.9000e+000 86352 -5.5054e-001 -3.9633e+000  1.4779e+000 53178 86398,86084,86326
 1.9000e+000 86375 -5.1982e+000 -5.6366e+000  4.8318e-001 53178 86136,86326,86162
 1.9000e+000 86424  7.6959e-001 -2.9086e+000 -3.4440e-001 53178 86136,86110,86398
 1.9000e+000 86447 -9.0982e-001 -3.5893e+000 -3.7636e-001 53178 86136,86398,86326
 1.9000e+000 86904 -2.3233e+000 -1.9530e+000  4.6292e-001 52774 86708,86760,86734
 1.9000e+000 86881 -1.6117e+000 -2.9442e+000 -8.1920e-001 52774 86656,86760,86708
 1.9000e+000 86858 -9.6937e-001 -4.4035e+000  5.7830e-001 52774 86656,86708,86682
 1.9000e+000 86835 -1.0896e+000 -1.9188e+000 -5.2593e-001 52774 86630,86760,86656
 1.9000e+000 86812 -1.5967e+000 -2.4847e+000  2.0712e-001 52774 86630,86786,86760
 1.9000e+000 87489 -1.1033e+000 -2.0552e+000 -3.7471e-001 52234 87512,87218,87192
 1.9000e+000 87466 -6.2937e-001 -2.2914e+000 -8.0261e-001 52234 87512,87192,87348
 1.9000e+000 87443  1.4737e+000 -4.0148e+000  3.0109e-001 52234 87166,87348,87192
 1.9000e+000 87420 -2.8944e+000 -3.0866e+000  2.7419e-001 52234 87296,87348,87322
 1.9000e+000 87397 -3.0570e+000 -2.1966e+000  1.4351e-001 52234 87218,87296,87270
 1.9000e+000 87374 -2.1387e+000 -3.0443e+000  1.1071e+000 52234 87218,87270,87244
 1.9000e+000 87538 -1.4976e+000 -2.8424e+000  1.5946e-001 52234 87296,87218,87512
 1.9000e+000 87561 -8.0939e-001 -2.5202e+000 -3.4009e-001 52234 87296,87512,87348
 1.9000e+000 87841 -1.4081e+000 -1.9152e-001 -1.0009e+000 51830 87665,87743,87691
 1.9000e+000 87818  1.3065e+000  1.5153e+000  3.4077e-001 51830 87665,87769,87743
 1.9000e+000 87795 -1.4359e+000 -3.9099e-001 -1.0169e+000 51830 87864,87691,87743
 1.9000e+000 87890 -4.5114e+000 -1.7092e+000 -1.1522e+000 51830 87717,87691,87864
 1.9000e+000 88418 -3.9593e+000 -9.2882e+000  1.2865e+000 51262 88095,88173,88121
 1.9000e+000 88395 -2.5497e+000 -7.7681e+000  1.9304e+000 51262 88095,88251,88173
 1.9000e+000 88372 -3.8886e+000 -8.1154e+000  2.3222e+000 51262 88173,88251,88199
 1.9000e+000 88349 -1.7636e+000 -6.3811e+000  1.6121e+000 51262 88095,88277,88251
 1.9000e+000 88326  2.5338e+000 -8.0785e+000  4.5566e+000 51262 88199,88251,88225
 1.9000e+000 88303 -3.5594e+000 -9.9997e+000  7.9779e-001 51262 88121,88173,88147
 1.9000e+000 88875  2.7462e+000 -4.2421e-001 -1.6760e+000 50750 88601,88731,88627
 1.9000e+000 88852  1.4381e+000 -1.3083e-001 -1.5296e+000 50750 88601,88757,88731
 1.9000e+000 88829 -1.9558e+000 -2.2441e+000 -1.7568e+000 50750 88627,88731,88653
 1.9000e+000 88806 -5.3686e-001 -1.1480e+000 -4.7597e-001 50750 88653,88731,88705
 1.9000e+000 88783 -5.5462e+000 -3.8574e+000 -1.8510e+000 50750 88653,88705,88679
 1.9000e+000 89145 -2.3600e+000 -8.6408e+000  1.7097e-001 50438 88946,89024,88972
 1.9000e+000 89122 -2.5007e+000 -8.8901e+000  2.4718e-001 50438 88946,89050,89024
 1.9000e+000 89099 -1.9147e+000 -8.7599e+000  3.0597e-001 50438 88920,89050,88946
 1.9000e+000 89076 -1.5378e+000 -7.1424e+000  2.6258e+000 50438 88972,89024,88998
 1.9000e+000 89525 -1.3603e+000 -8.8921e+000  4.1022e-001 49934 89548,89277,89251
 1.9000e+000 89502 -1.5504e+000 -8.8533e+000  5.1168e-001 49934 89548,89251,89381
 1.9000e+000 89479 -2.3251e+000 -7.6474e+000  5.8521e-001 49934 89303,89381,89329
 1.9000e+000 89456 -1.4415e+000 -9.9810e+000  1.9024e+000 49934 89251,89407,89381
 1.9000e+000 89433 -2.4509e+000 -7.2915e+000  7.6861e-001 49934 89329,89381,89355
 1.9000e+000 89574 -1.8538e+000 -8.6362e+000  1.4960e-001 49934 89303,89277,89548
 1.9000e+000 89597 -1.7936e+000 -8.7974e+000  5.8110e-001 49934 89303,89548,89381
 1.9000e+000 90054 -1.7428e+000 -6.9684e+000  2.7885e+000 49380 89832,89936,89910
 1.9000e+000 90031 -3.7045e+000 -7.8822e+000  7.8746e-001 49380 89780,89936,89832
 1.9000e+000 90008 -3.5121e+000 -1.0844e+001  1.0147e+000 49380 89780,89832,89806
 1.9000e+000 89985 -3.0845e+000 -6.0581e+000  3.1206e+000 49380 89832,89910,89858
 1.9000e+000 89962 -4.0283e+000 -5.3795e+000  6.2604e+000 49380 89858,89910,89884
 1.9000e+000 90560 -5.5066e+000 -8.4604e+000  9.9285e-001 48890 90289,90341,90315
 1.9000e+000 90537 -4.0829e+000 -7.8410e+000  1.3348e+000 48890 90289,90393,90341
 1.9000e+000 90514 -3.1307e+000 -6.3493e+000  1.7783e+000 48890 90263,90393,90289
 1.9000e+000 90491 -1.7063e+000 -6.4746e+000  3.8191e+000 48890 90237,90393,90263
 1.9000e+000 90468 -6.3690e+000 -7.1506e+000  2.7753e+000 48890 90341,90393,90367
 1.9000e+000 90445 -3.8706e-001 -6.1011e+000  4.0045e+000 48890 90237,90419,90393
 1.9000e+000 91115 -3.8600e+000 -8.8534e+000 -8.6374e-002 48486 90795,90873,90847
 1.9000e+000 91092 -4.2127e+000 -9.8159e+000  4.1996e-001 48486 90795,90925,90873
 1.9000e+000 91069 -2.0119e+000 -9.2458e+000  9.7205e-002 48486 90769,90925,90795
 1.9000e+000 91046 -2.1471e+000 -9.4264e+000  1.8544e-001 48486 90769,90951,90925
 1.9000e+000 91023 -4.8431e+000 -1.0738e+001  3.9048e-001 48486 90795,90847,90821
 1.9000e+000 91000 -4.3258e+000 -1.0846e+001 -5.0972e-001 48486 90873,90925,90899
 1.9000e+000 90977 -2.7976e+000 -9.7017e+000  1.6939e-001 48486 90743,90951,90769
 1.9000e+000 91265 -2.7288e+000 -7.2661e+000  5.3921e-001 48082 91288,91190,91164
 1.9000e+000 91242 -1.9096e+000 -7.0653e+000  1.5651e+000 48082 91360,91288,91164
 1.9000e+000 91314 -2.7373e+000 -8.1243e+000  1.1442e+000 48082 91216,91190,91288
 1.9000e+000 91337 -2.9281e+000 -1.0508e+001  1.1134e+000 48082 91216,91288,91138
 1.9000e+000 91386 -3.9815e+000 -8.7151e+000  5.4924e-001 48082 91138,91288,91360
 1.9000e+000 92022 -9.8989e-001 -5.9128e+000 -3.1342e+000 47514 92261,92045,91754
 1.9000e+000 91999 -6.5042e-001 -2.1432e+000 -2.7750e-001 47514 92189,92045,91702
 1.9000e+000 91976 -3.9086e+000 -1.5223e+000  5.0564e-001 47514 92117,91806,91754
 1.9000e+000 91953 -6.1794e-002  5.7447e-001 -1.5988e+000 47514 92189,91702,91650
 1.9000e+000 91930  3.3202e+000 -1.0423e+001 -5.2026e-001 47514 92261,91754,91728
 1.9000e+000 91907 -5.0102e+000 -6.5824e+000 -6.2172e-001 47514 91754,91806,91780
 1.9000e+000 91884 -2.0564e-001  3.2610e-001 -1.5347e+000 47514 91650,91702,91676
 1.9000e+000 92071 -4.3566e+000 -2.0839e+000 -1.5128e+000 47514 92117,91754,92045
 1.9000e+000 92094 -2.8854e-002 -1.1251e+000 -9.6446e-001 47514 91832,92045,91858
 1.9000e+000 92143 -2.2732e+000 -7.6018e-001  9.9130e-001 47514 91832,91806,92117
 1.9000e+000 92166 -1.2665e+000 -1.0767e+000 -1.1965e+000 47514 91832,92117,92045
 1.9000e+000 92215  8.5462e-001  1.8860e-001 -1.4052e+000 47514 91858,92045,92189
 1.9000e+000 92238  2.9801e-001  1.6404e+000 -2.5503e+000 47514 91858,92189,91650
 1.9000e+000 92287  1.3234e+000 -1.3150e+000 -4.7346e-002 47514 91702,92045,92261
 1.9000e+000 92310  5.1965e+000 -4.0104e+000  2.8677e+000 47514 91702,92261,91728
 1.9000e+000 92460 -2.4299e-001  6.4260e-001 -1.3481e+000 47124 92483,92359,92333
 1.9000e+000 92437 -2.1709e+000 -3.5826e+000 -8.0880e-001 47124 92555,92483,92333
 1.9000e+000 92509 -1.6122e+000  1.4092e+000  1.5728e+000 47124 92685,92483,92385
 1.9000e+000 92532 -3.5156e+000 -2.8447e+000  2.0934e+000 47124 92385,92483,92411
 1.9000e+000 92581 -2.5576e+000 -2.7280e+000 -7.4320e-001 47124 92411,92483,92555
 1.9000e+000 92711 -1.1606e+000  1.1562e+000  1.6310e+000 47124 92359,92483,92685
 1.9000e+000 93571 -4.8841e+000 -5.0009e+000  1.7715e-001 46834 93594,93208,93104
 1.9000e+000 93548 -3.7129e+000 -4.7288e+000  1.1552e+000 46834 93738,93594,93104
 1.9000e+000 93525 -6.6159e+000 -9.4103e+000 -1.3865e+000 46834 93666,93234,93208
 1.9000e+000 93502  2.0284e-001 -3.8493e+000  1.3657e+000 46834 93738,93104,93078
 1.9000e+000 93479 -6.5425e+000 -6.1982e+000  3.9403e-001 46834 93810,93260,93234
 1.9000e+000 93456 -3.6982e+000 -5.9974e+000 -8.8543e-001 46834 93104,93182,93156
 1.9000e+000 93433 -4.1569e+000 -8.8391e+000 -2.5824e-001 46834 93104,93208,93182
 1.9000e+000 93410 -1.0612e+001 -2.0098e+000  3.3366e+000 46834 93286,93338,93312
 1.9000e+000 93387 -1.9211e+000 -3.1717e+000  2.2475e+000 46834 93052,93338,93078
 1.9000e+000 93364 -4.3994e+000 -5.5481e+000 -1.6815e+000 46834 93104,93156,93130
 1.9000e+000 93620 -5.4893e+000 -6.4014e+000  4.5091e-002 46834 93666,93208,93594
 1.9000e+000 93643 -5.9751e+000 -1.7572e+000  1.9804e+000 46834 93286,93594,93338
 1.9000e+000 93692 -6.5259e+000 -5.7193e+000  2.3059e-001 46834 93810,93234,93666
 1.9000e+000 93715 -6.7251e+000 -2.2768e+000  1.9949e-001 46834 93286,93666,93594
 1.9000e+000 93764 -6.7078e+000 -3.5584e+000  1.9269e+000 46834 93338,93594,93738
 1.9000e+000 93787 -5.3961e+000 -4.5767e+000  1.9384e+000 46834 93338,93738,93078
 1.9000e+000 93836 -6.2855e+000 -5.8338e+000 -2.2337e-001 46834 93286,93260,93810
 1.9000e+000 93859 -6.3370e+000 -5.4475e+000 -3.8513e-001 46834 93286,93810,93666
 1.9000e+000 94210 -4.9513e+000 -1.1509e+001 -3.3415e-001 46472 94011,94115,94089
 1.9000e+000 94187 -4.9500e+000 -1.2570e+001 -1.8556e-001 46472 93985,94115,94011
 1.9000e+000 94164 -2.1413e+000 -1.3469e+001 -1.7802e-001 46472 94037,94089,94063
 1.9000e+000 94141 -1.2164e+000 -9.8192e+000 -6.9650e-001 46472 94011,94089,94037
 1.9000e+000 94746 -2.3953e+000 -6.1343e+000  6.4532e-001 46068 94576,94628,94602
 1.9000e+000 94723 -4.7865e-001 -5.2120e+000  8.6682e-002 46068 94498,94628,94576
 1.9000e+000 94700  4.3103e+000  3.6209e-002 -2.2350e+000 46068 94472,94628,94498
 1.9000e+000 94677 -4.9661e-003  2.2697e-001 -2.7043e-001 46068 94524,94576,94550
 1.9000e+000 94654 -6.6964e-001 -4.8888e-001  8.5820e-002 46068 94498,94576,94524
 1.9000e+000 95380  3.4960e+000  1.2389e+000  9.3984e-001 45342 95034,95112,95086
 1.9000e+000 95357 -3.3341e-001 -1.7829e-001  1.4520e+000 45342 95034,95190,95112
 1.9000e+000 95334  4.4973e+000 -1.9938e+000  4.0264e-001 45342 95403,95164,95138
 1.9000e+000 95311  2.5611e+000  5.2248e+000  1.2933e+000 45342 95403,95138,95112
 1.9000e+000 95288  4.3389e+000 -1.6829e+000  4.6575e-001 45342 95034,95216,95190
 1.9000e+000 95265  2.7522e+000  7.8284e-001  1.3711e+000 45342 95034,95086,95060
 1.9000e+000 95242  5.0471e+000 -2.7481e-002  2.4618e-001 45342 95008,95216,95034
 1.9000e+000 95429  3.2478e+000 -5.1365e+000 -6.5622e-001 45342 95190,95164,95403
 1.9000e+000 95452 -1.4139e-001 -1.6053e-001  8.0560e-002 45342 95190,95403,95112
 1.9000e+000 96007 -6.9069e+000 -4.9050e+000  5.0475e-001 44716 96030,95791,95765
 1.9000e+000 95984 -4.3572e+000 -1.0376e+001  8.4741e-001 44716 96030,95765,95713
 1.9000e+000 95961 -1.9219e+000 -2.4895e+000  2.0744e-001 44716 96174,96102,95661
 1.9000e+000 95938 -2.2308e+000 -3.3577e+000 -4.5604e-002 44716 96174,95661,95635
 1.9000e+000 95915 -3.4602e+000 -4.3297e+000  6.4746e+000 44716 95661,95713,95687
 1.9000e+000 95892 -3.6375e+000 -1.1529e+001 -2.3510e+000 44716 95713,95765,95739
 1.9000e+000 95869  1.1317e+000 -3.0747e+000 -1.5748e+000 44716 95635,95843,95817
 1.9000e+000 96056 -4.7991e+000 -5.5442e+000  3.2950e-001 44716 95817,95791,96030
 1.9000e+000 96079 -3.1705e+000 -4.2527e+000 -1.4126e+000 44716 96102,95817,96030
 1.9000e+000 96128  6.3887e-001  9.4083e-001  4.3372e+000 44716 95713,95661,96102
 1.9000e+000 96151 -1.1384e+000 -5.1619e+000  2.2269e+000 44716 95713,96102,96030
 1.9000e+000 96200 -1.1033e+000 -3.9758e+000 -2.2222e-001 44716 95817,96102,96174
 1.9000e+000 96223 -1.6875e+000 -4.8446e+000 -6.5354e-001 44716 95817,96174,95635
 1.9000e+000 96680 -1.2052e+000 -1.9679e+000 -1.1992e+000 44198 96775,96703,96458
 1.9000e+000 96657 -3.1331e-001 -1.1505e+000 -1.5022e+000 44198 96703,96406,96562
 1.9000e+000 96634  1.4354e+000 -2.9257e+000 -1.0858e+000 44198 96775,96458,96432
 1.9000e+000 96611 -3.3513e+000 -5.3101e+000  3.4495e-001 44198 96484,96536,96510
 1.9000e+000 96588 -2.2830e+000 -6.4913e+000 -3.9913e-001 44198 96458,96536,96484
 1.9000e+000 96729 -1.8549e+000 -1.9765e+000 -4.6094e-001 44198 96536,96458,96703
 1.9000e+000 96752 -7.8777e-001 -2.1683e+000 -1.6817e+000 44198 96536,96703,96562
 1.9000e+000 96801  1.6115e+000 -8.8350e-001 -3.4563e-001 44198 96406,96703,96775
 1.9000e+000 96824  3.7429e+000 -2.4466e+000 -6.8307e-001 44198 96406,96775,96432
 1.9000e+000 97202 -4.2910e+000 -7.7888e+000  4.6811e-001 43750 97225,96980,96928
 1.9000e+000 97179 -3.5956e+000 -8.2978e+000  8.6621e-001 43750 97225,96928,97084
 1.9000e+000 97156 -4.3144e+000 -1.0355e+001  2.6157e-001 43750 96928,96980,96954
 1.9000e+000 97133 -2.8581e+000 -6.5699e+000  1.3191e+000 43750 97006,97084,97058
 1.9000e+000 97110 -3.8299e+000 -5.5038e+000  1.5180e+000 43750 97006,97058,97032
 1.9000e+000 97251 -3.8340e+000 -7.0626e+000  7.9949e-001 43750 97006,96980,97225
 1.9000e+000 97274 -3.1836e+000 -7.8695e+000  1.1218e+000 43750 97006,97225,97084
 1.9000e+000 97522 -4.4751e+000 -5.6254e+000  1.8988e-001 43360 97545,97375,97349
 1.9000e+000 97499 -3.8541e+000 -7.0103e+000 -4.2934e-001 43360 97545,97349,97323
 1.9000e+000 97476 -6.6622e+000 -7.8933e+000 -3.9061e+000 43360 97617,97427,97401
 1.9000e+000 97453 -7.1820e-001 -8.2093e+000 -4.1797e+000 43360 97297,97427,97323
 1.9000e+000 97571 -4.2964e+000 -8.7864e+000  2.8451e-001 43360 97401,97375,97545
 1.9000e+000 97594 -5.7217e+000 -1.0191e+001 -2.0940e+000 43360 97617,97401,97545
 1.9000e+000 97643 -5.4565e+000 -5.2937e+000 -2.9532e+000 43360 97323,97427,97617
 1.9000e+000 97666 -3.3849e+000 -5.6691e+000 -8.5903e-001 43360 97323,97617,97545
 1.9000e+000 98019 -9.7330e+000 -1.1209e+000 -2.6540e+000 42956 97794,97898,97820
 1.9000e+000 97996 -7.3395e+000 -4.6189e+000 -1.9046e+000 42956 97794,97924,97898
 1.9000e+000 97973 -1.7518e+001  1.1520e-001 -7.5940e-001 42956 97820,97872,97846
 1.9000e+000 97950 -1.5723e+001 -1.0653e+000 -1.7883e+000 42956 97820,97898,97872
 1.9000e+000 98446 -5.3411e+000 -7.8317e+000  1.4392e+000 42559 98149,98305,98279
 1.9000e+000 98423 -4.4857e+000 -6.5897e+000  2.3014e+000 42559 98123,98305,98149
 1.9000e+000 98400 -4.3476e+000 -9.1328e+000  1.5073e+000 42559 98469,98175,98149
 1.9000e+000 98377 -2.7426e+000 -5.4237e+000  4.3830e-001 42559 98469,98149,98279
 1.9000e+000 98354 -4.4421e+000 -7.9414e+000  3.0495e-001 42559 98175,98253,98227
 1.9000e+000 98331 -4.9029e+000 -9.0282e+000  3.0421e-001 42559 98175,98227,98201
 1.9000e+000 98495 -3.0701e+000 -6.5928e+000 -3.2933e-001 42559 98253,98175,98469
 1.9000e+000 98518 -2.6758e+000 -5.2239e+000 -1.3400e+000 42559 98253,98469,98279
 1.9000e+000 98847  8.8193e+000 -6.9610e+000 -1.7332e+000 42247 98674,98752,98700
 1.9000e+000 98824  6.8507e+000  2.0282e+000  7.1603e-001 42247 98648,98752,98674
 1.9000e+000 98801  4.0415e+000 -3.6914e+000  7.5104e+000 42247 98622,98752,98648
 1.9000e+000 98778  4.1008e+000 -9.2838e+000 -9.6387e-001 42247 98700,98752,98726
 1.9000e+000 99117 -4.6494e+000 -1.1184e+001  3.5929e-002 41843 98892,98996,98918
 1.9000e+000 99094 -5.2641e+000 -1.2626e+001  8.4986e-001 41843 98892,99022,98996
 1.9000e+000 99071 -3.7372e+000 -1.0279e+001  4.3048e-001 41843 98918,98996,98970
 1.9000e+000 99048 -5.1936e+000 -1.0821e+001  4.1288e-001 41843 98918,98970,98944
 1.9000e+000 99625 -1.7826e+000  1.9664e+000  2.0255e-002 41232 99648,99380,99354
 1.9000e+000 99602  1.0098e+000  2.1621e+000 -5.2029e-001 41232 99648,99354,99328
 1.9000e+000 99579  4.2352e-001  1.8729e+000  1.4133e+000 41232 99720,99432,99380
 1.9000e+000 99556 -3.4293e+000 -2.1980e+000 -2.8192e+000 41232 99380,99432,99406
 1.9000e+000 99533  1.8707e+000 -6.4439e-001  3.8726e-001 41232 99328,99484,99458
 1.9000e+000 99510  6.5988e+000  1.0211e+000  8.9588e-001 41232 99302,99484,99328
 1.9000e+000 99674 -1.3610e+000  1.8752e+000  1.0348e+000 41232 99720,99380,99648
 1.9000e+000 99697 -1.1079e-001 -1.1160e-001 -1.5831e-001 41232 99458,99648,99328
 1.9000e+000 99746  2.1558e+000  1.7600e+000  1.7067e+000 41232 99458,99432,99720
 1.9000e+000 99769  1.0719e+000  2.1078e+000  1.0612e+000 41232 99458,99720,99648
 1.9000e+000 100275 -3.1515e+000 -3.9904e+000 -4.7649e+000 40728 99952,100004,99978
 1.9000e+000 100252  6.0797e-002 -4.9962e+000 -3.0958e+000 40728 99952,100030,100004
 1.9000e+000 100229 -2.9463e+000 -6.6691e+000 -1.6943e+000 40728 99952,100134,100030
 1.9000e+000 100206 -4.2344e+000 -2.8012e+000 -1.9991e+000 40728 100298,100108,100082
 1.9000e+000 100183 -2.6351e+000 -8.4365e+000 -3.4993e+000 40728 100298,100082,100030
 1.9000e+000 100160 -1.0357e+001 -5.8551e+000 -1.0949e+001 40728 100030,100082,100056
 1.9000e+000 100324 -3.5319e+000  1.3409e+000 -2.1085e-001 40728 100134,100108,100298
 1.9000e+000 100347 -2.0991e+000 -5.1223e+000 -1.3529e+000 40728 100134,100298,100030
 1.9000e+000 100853 -3.8937e+000 -5.4469e+000  4.4363e-001 40274 100876,100686,100660
 1.9000e+000 100830 -3.3728e+000 -6.5878e+000  8.3975e-001 40274 100948,100876,100660
 1.9000e+000 100807 -3.5242e+000 -6.6530e+000  5.5724e-001 40274 100948,100660,100608
 1.9000e+000 100784 -4.9447e+000 -5.4022e+000  8.1126e-001 40274 101020,100556,100712
 1.9000e+000 100761 -3.9413e+000 -2.4675e+000  1.9203e+000 40274 100530,100712,100556
 1.9000e+000 100738 -4.8339e+000 -5.7632e+000  1.0338e+000 40274 100608,100660,100634
 1.9000e+000 100902 -3.5259e+000 -1.9855e+000  1.5937e+000 40274 100712,100686,100876
 1.9000e+000 100925 -4.4860e+000 -5.4736e+000  1.1850e+000 40274 101020,100712,100876
 1.9000e+000 100974 -3.5593e+000 -6.9274e+000  6.6578e-001 40274 100582,100876,100948
 1.9000e+000 100997 -3.8028e+000 -6.9764e+000  3.7449e-001 40274 100582,100948,100608
 1.9000e+000 101046 -5.5548e+000 -5.6565e+000  6.5657e-001 40274 100582,100556,101020
 1.9000e+000 101069 -5.1920e+000 -5.6862e+000  1.0972e+000 40274 100582,101020,100876
 1.9000e+000 101496  8.7203e-002  2.0114e+000  1.2757e+000 39820 101519,101277,101225
 1.9000e+000 101473 -8.7726e-001 -5.7416e+000  1.4104e+000 39820 101519,101225,101199
 1.9000e+000 101450 -1.2070e+001 -9.1139e+000  4.5297e+000 39820 101173,101355,101199
 1.9000e+000 101427  4.0936e+000  1.9411e-001  8.6707e-001 39820 101277,101355,101303
 1.9000e+000 101404  4.3845e+000  2.8685e+000 -1.4743e-001 39820 101225,101277,101251
 1.9000e+000 101381  9.1882e-001  8.2116e-001  3.6281e-001 39820 101303,101355,101329
 1.9000e+000 101545 -2.7387e-001 -2.5955e+000  4.3304e+000 39820 101355,101277,101519
 1.9000e+000 101568  2.0201e-001 -6.6027e+000  5.4109e+000 39820 101355,101519,101199
 1.9000e+000 101816 -4.4824e+000 -8.4057e+000  5.6410e-001 39066 101839,101695,101643
 1.9000e+000 101793 -5.3992e+000 -9.9677e+000  1.8729e-001 39066 101839,101643,101591
 1.9000e+000 101770 -3.5390e+000 -9.4435e+000 -5.9925e-001 39066 101643,101695,101669
 1.9000e+000 101747 -5.1680e+000 -9.6280e+000  8.5027e-002 39066 101591,101643,101617
 1.9000e+000 101865 -3.4275e+000 -8.8906e+000  1.8334e+000 39066 101721,101695,101839
 1.9000e+000 101888 -4.5700e+000 -1.1024e+001  1.3991e+000 39066 101721,101839,101591
 1.9000e+000 102087 -5.0033e+000 -1.0285e+001 -8.8864e-002 38726 101937,101989,101963
 1.9000e+000 102064 -5.5823e+000 -1.0147e+001 -1.0311e-001 38726 101937,102015,101989
 1.9000e+000 102041 -4.4164e+000 -9.4162e+000  2.5304e-001 38726 101911,102015,101937
 1.9000e+000 102337  1.7097e+000 -3.2937e+000 -1.1520e+000 38322 102112,102190,102138
 1.9000e+000 102314  1.4446e-001 -4.6026e+000  4.2341e-001 38322 102112,102216,102190
 1.9000e+000 102291 -3.5477e-001 -1.4596e+001  5.9857e+000 38322 102112,102242,102216
 1.9000e+000 102268  3.0504e-001 -3.6688e+000 -1.0910e+000 38322 102138,102190,102164
 1.9000e+000 102489 -4.7190e+000 -9.8075e+000  5.0778e-001 38032 102512,102388,102362
 1.9000e+000 102466 -4.3616e+000 -9.3694e+000  3.0348e-001 38032 102512,102362,102440
 1.9000e+000 102538 -4.1507e+000 -1.0286e+001  5.3140e-001 38032 102414,102388,102512
 1.9000e+000 102561 -3.7651e+000 -9.9102e+000  2.9643e-001 38032 102414,102512,102440
 1.9000e+000 102894 -1.4708e+000  7.1407e-001 -4.3716e-003 37592 102669,102773,102695
 1.9000e+000 102871 -6.2785e-001  1.1047e+000  1.0211e-001 37592 102669,102799,102773
 1.9000e+000 102848  1.2045e+000  7.4681e+000  2.0075e+000 37592 102721,102773,102747
 1.9000e+000 102825 -2.3526e-001 -1.2207e+000  3.5030e-001 37592 102695,102773,102721
 1.9000e+000 103093 -1.2173e+000 -2.4770e+000  1.0308e-001 37188 102917,102995,102943
 1.9000e+000 103070 -2.5442e-001 -2.8307e+000 -1.5310e+000 37188 102917,103021,102995
 1.9000e+000 103047  2.5941e+000  1.3648e+000 -1.5980e+000 37188 102943,102995,102969
 1.9000e+000 103341  4.0443e+000  3.6590e+000 -1.0682e+000 36605 103142,103194,103168
 1.9000e+000 103318  3.7339e+000  1.7675e+000  3.9017e-001 36605 103142,103220,103194
 1.9000e+000 103295  3.5907e+000  5.6134e-001 -2.2843e-001 36605 103116,103220,103142
 1.9000e+000 103272  4.9408e+000 -6.1116e-001  6.1038e-001 36605 103116,103246,103220
 1.9000e+000 103949 -3.7290e+000 -5.7700e+000 -1.1276e-002 36127 103554,103606,103580
 1.9000e+000 103926 -5.2679e+000 -3.3837e+000 -6.8174e-001 36127 103528,103606,103554
 1.9000e+000 103903 -4.9795e+000 -4.2283e+000 -2.3678e+000 36127 103528,103736,103606
 1.9000e+000 103880 -5.2038e+000 -7.4258e+000 -1.9087e+000 36127 103972,103710,103632
 1.9000e+000 103857 -7.7171e+000 -1.3121e+001 -6.3411e+000 36127 103972,103632,103606
 1.9000e+000 103834 -2.8588e+000 -3.7515e+000 -8.5819e-001 36127 103632,103710,103658
 1.9000e+000 103811 -7.5978e+000 -1.2297e+000 -5.8345e+000 36127 103528,103762,103736
 1.9000e+000 103788 -1.9329e+000 -9.1791e-001 -1.6571e-001 36127 103658,103710,103684
 1.9000e+000 103998 -1.5190e+000 -2.0966e+000  2.1893e+000 36127 103736,103710,103972
 1.9000e+000 104021 -4.5238e+000 -7.5242e+000 -2.3677e+000 36127 103736,103972,103606
 1.9000e+000 104220 -8.9757e+000 -5.5204e+000  1.1765e+000 35787 104070,104148,104122
 1.9000e+000 104197 -9.4300e+000  2.2004e+000  2.7542e+000 35787 104044,104148,104070
 1.9000e+000 104174 -7.9546e+000 -1.2627e+000 -1.5400e+000 35787 104070,104122,104096
 1.9000e+000 104419 -6.1912e+000 -7.1844e+000  7.3771e-001 35440 104269,104321,104295
 1.9000e+000 104396 -2.7494e+000 -5.6246e+000  1.0828e+000 35440 104269,104347,104321
 1.9000e+000 104373 -4.1822e+000 -6.9184e+000  5.2243e-001 35440 104243,104347,104269
 1.9000e+000 104718 -2.1588e+000 -2.3658e+000 -8.3451e-001 34986 104496,104548,104522
 1.9000e+000 104695 -3.1282e+000 -3.2555e+000 -1.1317e-001 34986 104741,104548,104496
 1.9000e+000 104672 -2.7866e+000 -3.5951e+000 -1.9393e-001 34986 104741,104496,104444
 1.9000e+000 104649 -3.3945e+000 -3.5042e+000 -2.9979e-001 34986 104813,104574,104548
 1.9000e+000 104626 -3.5355e+000 -5.3078e+000 -4.7699e-002 34986 104444,104496,104470
 1.9000e+000 104767 -3.3804e+000 -3.5257e+000  8.5488e-003 34986 104813,104548,104741
 1.9000e+000 104790 -3.0918e+000 -3.4684e+000 -1.3999e-001 34986 104600,104741,104444
 1.9000e+000 104839 -4.3099e+000 -4.6264e+000 -7.6139e-001 34986 104600,104574,104813
 1.9000e+000 104862 -3.6699e+000 -3.6509e+000 -2.9691e-001 34986 104600,104813,104741
 1.9000e+000 105014 -5.7672e+000 -7.9184e+000  7.7628e-001 34696 105169,105037,104913
 1.9000e+000 104991 -6.3986e+000 -9.4508e+000  6.8937e-001 34696 105169,104913,104887
 1.9000e+000 105063 -5.1610e+000 -9.1522e+000  5.6130e-001 34696 104939,104913,105037
 1.9000e+000 105195 -5.8228e+000 -7.4175e+000  2.0918e+000 34696 104965,105037,105169
 1.9000e+000 105218 -6.3143e+000 -8.6081e+000  2.0293e+000 34696 104965,105169,104887
 1.9000e+000 105368 -5.1210e+000 -6.9243e+000 -2.7464e-002 34384 105267,105319,105293
 1.9000e+000 105345 -5.0484e+000 -6.5738e+000  4.9671e-002 34384 105241,105319,105267
 1.9000e+000 105616 -1.9763e+000 -2.3207e+000 -6.1000e-001 33730 105639,105417,105391
 1.9000e+000 105593 -7.5739e-001 -3.0352e+000 -1.7034e+000 33730 105639,105391,105495
 1.9000e+000 105570 -2.9860e+000 -4.7619e+000 -9.5435e-001 33730 105391,105521,105495
 1.9000e+000 105547 -1.6283e+000 -4.1043e+000  1.7171e+000 33730 105417,105469,105443
 1.9000e+000 105665 -7.5744e-001 -2.4279e+000 -9.1839e-001 33730 105469,105417,105639
 1.9000e+000 105688  2.3274e+000 -1.7689e+000 -2.1956e+000 33730 105469,105639,105495
 1.9000e+000 105840 -4.7382e+000 -7.0101e+000  2.2897e-001 33390 105713,105765,105739
 1.9000e+000 105817 -4.6812e+000 -6.2455e+000 -3.6366e-001 33390 105713,105791,105765
 1.9000e+000 106090 -4.1640e+000 -4.9982e+000 -8.1389e-001 33043 106113,105943,105891
 1.9000e+000 106067 -4.0467e+000 -4.6272e+000 -3.5772e-001 33043 106113,105891,105865
 1.9000e+000 106044 -4.5207e+000 -4.8860e+000 -1.0748e+000 33043 105891,105943,105917
 1.9000e+000 106021 -4.3607e+000 -5.3330e+000  3.1585e-001 33043 105865,105995,105969
 1.9000e+000 106139 -4.5154e+000 -4.1515e+000 -7.8072e-001 33043 105969,105943,106113
 1.9000e+000 106162 -4.1994e+000 -4.0345e+000 -1.4651e-001 33043 105969,106113,105865
 1.9000e+000 106412  3.7338e+000  1.0914e+000  7.3096e-001 32539 106435,106291,106239
 1.9000e+000 106389  2.1864e+000  3.1222e-001 -5.5870e-001 32539 106187,106317,106291
 1.9000e+000 106366  3.2969e+000  5.3048e+000  6.9767e+000 32539 106435,106239,106213
 1.9000e+000 106343  4.6447e+000  1.6769e+000  1.0541e+000 32539 106239,106291,106265
 1.9000e+000 106461  3.7495e-001 -7.7958e-001 -8.4114e-002 32539 106187,106291,106435
 1.9000e+000 106484 -3.6277e+000  1.7084e+000  5.6518e+000 32539 106187,106435,106213
 1.9000e+000 106685 -3.3640e+000 -5.7864e+000 -4.0629e-001 31835 106535,106587,106561
 1.9000e+000 106662 -3.7525e+000 -5.7017e+000  1.4633e-002 31835 106509,106587,106535
 1.9000e+000 106639 -4.9908e+000 -4.7588e+000 -3.4244e-002 31835 106509,106613,106587
 1.9000e+000 106935 -7.2325e-001 -3.4753e+000 -2.7160e+000 31530 106736,106814,106788
 1.9000e+000 106912 -4.4656e-001 -2.5783e+000 -1.7842e+000 31530 106710,106814,106736
 1.9000e+000 106889 -2.2105e+000 -3.4267e+000 -2.5948e+000 31530 106736,106788,106762
 1.9000e+000 106866 -2.8989e+000 -3.1840e+000 -2.4763e+000 31530 106710,106840,106814
 1.9000e+000 107339 -8.5547e+000 -2.8836e+000 -3.1001e-001 31026 107117,107221,107195
 1.9000e+000 107316 -7.2321e+000 -7.4581e+000  6.0361e-001 31026 107091,107221,107117
 1.9000e+000 107293 -8.1582e+000 -7.6232e+000  8.9101e-001 31026 107065,107221,107091
 1.9000e+000 107270 -8.6018e+000  3.5791e+000 -5.1146e-001 31026 107143,107195,107169
 1.9000e+000 107247 -1.2035e+001 -4.5944e+000 -1.0739e+000 31026 107117,107195,107143
 1.9000e+000 107538 -5.1100e+000 -8.4040e+000  5.9672e-002 30714 107561,107388,107362
 1.9000e+000 107515 -5.2444e+000 -8.5984e+000  1.2096e-001 30714 107561,107362,107466
 1.9000e+000 107492 -5.7388e+000 -8.9250e+000  4.3257e-003 30714 107414,107466,107440
 1.9000e+000 107587 -5.2884e+000 -8.0911e+000  4.3498e-002 30714 107414,107388,107561
 1.9000e+000 107610 -5.4552e+000 -8.3326e+000  1.1715e-001 30714 107414,107561,107466
 1.9000e+000 107990 -4.9395e+000 -7.4883e+000  4.1980e-001 30260 108013,107846,107768
 1.9000e+000 107967 -4.7719e+000 -7.0682e+000 -7.8193e-002 30260 108013,107768,107716
 1.9000e+000 107944 -4.0966e+000 -8.6125e+000  1.3666e-001 30260 107716,107768,107742
 1.9000e+000 107921 -6.8708e+000 -7.9461e+000  1.8058e-001 30260 107768,107846,107820
 1.9000e+000 107898 -6.5477e+000 -8.9910e+000 -4.4843e-001 30260 107768,107820,107794
 1.9000e+000 108039 -4.4742e+000 -7.1981e+000  1.7551e-001 30260 107872,107846,108013
 1.9000e+000 108062 -4.5432e+000 -6.8535e+000 -2.9608e-001 30260 107872,108013,107716
 1.9000e+000 108261 -4.6554e+000 -1.1442e+001 -3.9214e-001 29870 108284,108085,108163
 1.9000e+000 108238 -8.9003e+000 -8.4396e+000 -2.8225e+000 29870 108085,108189,108163
 1.9000e+000 108215  5.3758e+000 -5.6430e+000  2.0000e+000 29870 108284,108163,108137
 1.9000e+000 108310 -9.4181e+000 -4.4850e+000  3.2681e+000 29870 108111,108085,108284
 1.9000e+000 108333 -4.8178e+000 -1.6157e+000  4.4917e+000 29870 108111,108284,108137
 1.9000e+000 108664 -1.1320e+000 -2.5598e+000 -1.0049e+000 29480 108465,108569,108543
 1.9000e+000 108641 -3.0452e+000 -2.7900e+000 -9.7474e-002 29480 108439,108569,108465
 1.9000e+000 108618 -6.4895e-001 -4.1059e+000  1.7802e-001 29480 108465,108543,108491
 1.9000e+000 108595 -2.9443e+000 -4.8565e+000 -3.8635e-001 29480 108491,108543,108517
 1.9000e+000 108993 -4.3642e-002 -3.4305e+000  3.9398e+000 29076 108794,108872,108820
 1.9000e+000 108970 -3.3518e+000 -6.2449e+000  1.0734e+000 29076 108768,108872,108794
 1.9000e+000 108947  1.2330e+000 -1.8708e+000  3.3129e+000 29076 108820,108872,108846
 1.9000e+000 108924 -3.8837e+000 -6.0877e+000  2.4428e+000 29076 108768,108898,108872
 1.9000e+000 109420 -1.4791e+000 -2.0355e+000 -1.3765e+000 28472 109123,109227,109201
 1.9000e+000 109397 -7.1411e+000 -3.3794e+000 -5.8068e-001 28472 109123,109253,109227
 1.9000e+000 109374 -2.8660e+000 -3.0352e+000 -7.0308e-001 28472 109123,109201,109175
 1.9000e+000 109351 -4.5518e+000 -3.2615e+000 -8.6063e-001 28472 109123,109279,109253
 1.9000e+000 109328 -2.3142e+000 -2.2719e+000 -3.1559e-001 28472 109123,109175,109149
 1.9000e+000 109305 -4.5743e+000 -2.2280e+000 -1.0171e+000 28472 109097,109279,109123
 1.9000e+000 109749 -6.3097e+000  2.3429e+000 -3.4528e+000 28018 109772,109602,109576
 1.9000e+000 109726 -5.9607e+000 -1.3575e-001 -2.1992e+000 28018 109772,109576,109550
 1.9000e+000 109703 -6.8676e+000 -3.9185e+000 -4.9921e+000 28018 109524,109628,109550
 1.9000e+000 109680 -6.1523e+000 -7.2586e+000 -1.3988e-001 28018 109524,109654,109628
 1.9000e+000 109798 -8.3259e+000  9.9259e-001 -1.4970e+000 28018 109628,109602,109772
 1.9000e+000 109821 -6.3345e+000 -1.7254e+000 -9.8256e-001 28018 109628,109772,109550
 1.9000e+000 110199 -4.1558e+000 -7.5818e+000 -1.3899e-001 27564 110029,110081,110055
 1.9000e+000 110176 -4.0767e+000 -5.7738e+000 -6.1831e-001 27564 109925,110081,110029
 1.9000e+000 110153 -3.4121e+000 -6.4906e+000 -5.0100e-001 27564 109925,110029,109977
 1.9000e+000 110130 -4.3649e+000 -6.9251e+000 -6.6902e-001 27564 109977,110029,110003
 1.9000e+000 110107 -4.6496e+000 -8.6630e+000 -1.1961e+000 27564 109925,109977,109951
 1.9000e+000 110398  4.9966e+000  2.1133e+000  4.3230e-002 27003 110248,110326,110300
 1.9000e+000 110375  4.0928e+000 -4.5672e-001 -1.3110e-001 27003 110222,110326,110248
 1.9000e+000 110352  9.1226e-001  7.1122e-002 -6.4096e-001 27003 110248,110300,110274
 1.9000e+000 110646  6.9669e-001 -4.8026e+000  4.0093e+000 26563 110669,110473,110421
 1.9000e+000 110623  1.1946e+000 -1.2207e+001  6.7808e+000 26563 110669,110421,110551
 1.9000e+000 110600  3.6768e+000 -3.6752e+000  3.3249e+000 26563 110473,110525,110499
 1.9000e+000 110577 -1.6017e+000 -8.5720e+000  7.0756e+000 26563 110421,110473,110447
 1.9000e+000 110695  1.0196e+000 -2.9667e+000  3.9100e+000 26563 110525,110473,110669
 1.9000e+000 110718  4.1957e+000 -5.2841e+000  7.1999e+000 26563 110525,110669,110551
 1.9000e+000 110870 -6.3393e+000 -4.9926e+000 -2.1002e+000 26166 110769,110821,110795
 1.9000e+000 110847 -3.3998e+000 -4.7371e+000 -3.9726e-001 26166 110743,110821,110769
 1.9000e+000 111380 -5.3961e+000 -7.8317e+000 -2.1416e-003 25712 111403,111109,111083
 1.9000e+000 111357 -5.2149e+000 -8.1594e+000  1.5594e-001 25712 111403,111083,111239
 1.9000e+000 111334 -5.2825e+000 -8.0823e+000 -4.5684e-001 25712 111109,111161,111135
 1.9000e+000 111311 -4.5303e+000 -8.1331e+000 -1.8103e-001 25712 111057,111239,111083
 1.9000e+000 111288 -5.0409e+000 -7.1126e+000  9.5370e-001 25712 111161,111239,111187
 1.9000e+000 111265 -5.6933e+000 -7.0581e+000  7.3141e-001 25712 111187,111239,111213
 1.9000e+000 111429 -5.3518e+000 -7.5631e+000  2.5176e-002 25712 111161,111109,111403
 1.9000e+000 111452 -5.1267e+000 -7.8249e+000  2.1410e-001 25712 111161,111403,111239
 1.9000e+000 111651 -5.3092e+000 -8.9143e+000  4.2479e-002 25300 111674,111501,111475
 1.9000e+000 111628 -5.1782e+000 -9.2678e+000  3.8334e-002 25300 111674,111475,111579
 1.9000e+000 111605 -5.2123e+000 -8.7732e+000 -1.0638e-001 25300 111501,111553,111527
 1.9000e+000 111700 -5.2416e+000 -8.6838e+000  7.7094e-002 25300 111553,111501,111674
 1.9000e+000 111723 -5.0387e+000 -8.9531e+000  1.0729e-001 25300 111553,111674,111579
 1.9000e+000 111922  2.0830e+000 -2.1968e+000  3.6300e-001 24732 111798,111850,111824
 1.9000e+000 111899  1.5737e+000  5.3066e-001 -1.5170e+000 24732 111772,111850,111798
 1.9000e+000 111876 -9.2796e-001  1.3786e-001 -1.4848e+000 24732 111746,111850,111772
 1.9000e+000 112255 -5.3428e+000 -8.3516e+000  2.0980e-001 24142 112056,112108,112082
 1.9000e+000 112232 -5.1305e+000 -7.7955e+000  2.4029e-001 24142 112056,112134,112108
 1.9000e+000 112209 -4.2587e+000 -6.5663e+000 -1.3998e-001 24142 112056,112160,112134
 1.9000e+000 112186 -3.1785e+000 -7.0494e+000 -6.3822e-001 24142 112030,112160,112056
 1.9000e+000 112601 -1.0056e+001 -4.8555e+000  7.4874e+000 23852 112624,112382,112356
 1.9000e+000 112578 -1.2451e+001 -4.4865e+000  5.1730e+000 23852 112696,112624,112356
 1.9000e+000 112555 -1.1689e+001 -5.0531e+000  3.6769e+000 23852 112696,112356,112304
 1.9000e+000 112532 -1.2278e+001 -4.0840e+000  3.6893e+000 23852 112304,112356,112330
 1.9000e+000 112509 -5.4929e+000  1.2189e+000  5.9577e+000 23852 112278,112460,112304
 1.9000e+000 112486  6.5504e+000 -3.5723e+000  4.1213e+000 23852 112382,112434,112408
 1.9000e+000 112650  2.3182e+000 -2.2040e+000  9.6056e+000 23852 112434,112382,112624
 1.9000e+000 112673 -8.8690e+000 -8.5884e+000  6.4271e+000 23852 112434,112624,112460
 1.9000e+000 112722 -9.8014e+000 -3.1592e+000  5.8191e+000 23852 112460,112624,112696
 1.9000e+000 112745 -9.5489e+000 -4.2398e+000  4.1853e+000 23852 112460,112696,112304
 1.9000e+000 113015 -1.5113e+001  9.7392e+000 -3.4291e+000 23490 112842,112894,112868
 1.9000e+000 112992 -1.2271e+001  5.1755e-001 -3.0938e+000 23490 112816,112894,112842
 1.9000e+000 112969 -1.1919e+001  7.3804e-001 -5.5094e-001 23490 112790,112894,112816
 1.9000e+000 112946 -1.3114e+001 -2.6116e+000 -6.4753e-001 23490 112790,112920,112894
 1.9000e+000 113348 -4.0880e+000 -2.5037e+000 -1.9318e+000 22970 113175,113253,113227
 1.9000e+000 113325 -4.1270e+000 -5.7183e+000 -6.3550e-001 22970 113149,113253,113175
 1.9000e+000 113302 -6.5700e+000 -9.7708e+000 -3.1542e+000 22970 113175,113227,113201
 1.9000e+000 113279 -3.2233e+000 -3.5997e+000 -5.2960e-001 22970 113123,113253,113149
 1.9000e+000 113645 -4.3629e+000 -6.5408e+000 -7.4762e-001 22366 113423,113527,113449
 1.9000e+000 113622 -4.5963e+000 -6.5930e+000 -8.0534e-001 22366 113371,113527,113423
 1.9000e+000 113599 -4.4811e+000 -6.8739e+000 -9.9058e-001 22366 113449,113527,113501
 1.9000e+000 113576 -4.2594e+000 -7.7545e+000 -4.5896e-001 22366 113449,113501,113475
 1.9000e+000 113553 -3.3495e+000 -3.0822e+000 -3.2099e-001 22366 113371,113423,113397
 1.9000e+000 113893 -3.9418e+000 -7.7894e+000 -2.4648e+000 21912 113916,113746,113720
 1.9000e+000 113870 -2.4662e+000 -5.7625e+000 -1.7939e+000 21912 113916,113720,113668
 1.9000e+000 113847 -6.0516e-001 -6.3688e+000  9.5492e-001 21912 113988,113798,113772
 1.9000e+000 113824 -2.4836e+000 -5.4342e+000 -2.8657e+000 21912 113668,113720,113694
 1.9000e+000 113942 -2.3155e+000 -3.7938e+000 -2.4223e+000 21912 113772,113746,113916
 1.9000e+000 113965 -2.0100e+000 -3.2610e+000 -8.8746e-001 21912 113988,113772,113916
 1.9000e+000 114014 -1.3454e+000 -1.0141e+001 -6.2599e-001 21912 113668,113798,113988
 1.9000e+000 114037 -3.4050e+000 -8.0944e+000 -1.4860e+000 21912 113668,113988,113916
 1.9000e+000 114287 -4.9861e-001 -6.5029e+000 -5.1547e-001 21408 114088,114140,114114
 1.9000e+000 114264  3.2749e-001 -5.3455e+000 -9.3000e-001 21408 114310,114140,114088
 1.9000e+000 114241 -7.8765e-002 -4.9350e+000 -1.7873e+000 21408 114310,114088,114192
 1.9000e+000 114218 -1.6051e+000 -5.2688e+000 -1.9339e+000 21408 114062,114192,114088
 1.9000e+000 114336  7.4929e-002 -6.5888e+000 -9.7640e-001 21408 114166,114140,114310
 1.9000e+000 114359 -1.1533e-001 -5.6581e+000 -1.6717e+000 21408 114166,114310,114192
 1.9000e+000 114609  3.1900e+000  1.4571e+000  1.5274e+000 21018 114632,114488,114436
 1.9000e+000 114586  2.2061e+000  1.3175e+000  8.8360e-003 21018 114632,114436,114410
 1.9000e+000 114563  2.6452e+000  1.1611e+000  5.1151e-001 21018 114384,114514,114410
 1.9000e+000 114540 -4.4591e-001  1.9021e+000  1.6530e+000 21018 114436,114488,114462
 1.9000e+000 114658  5.3097e+000  1.9886e+000  2.1637e+000 21018 114514,114488,114632
 1.9000e+000 114681  3.7921e+000  1.6564e+000  6.9789e-001 21018 114514,114632,114410
 1.9000e+000 114882 -2.5301e+000 -6.3411e+000  4.6286e-001 20614 114732,114784,114758
 1.9000e+000 114859 -3.5076e+000 -6.2954e+000 -1.9147e-001 20614 114732,114810,114784
 1.9000e+000 114836 -3.9267e+000 -5.8403e+000 -9.4563e-002 20614 114706,114810,114732
 1.9000e+000 115132 -3.3718e+000 -6.0546e+000 -7.7226e-002 20110 114907,115011,114933
 1.9000e+000 115109 -3.3181e+000 -5.9161e+000 -2.2779e-001 20110 114907,115037,115011
 1.9000e+000 115086 -3.8332e+000 -6.3262e+000 -1.9974e-001 20110 114933,115011,114985
 1.9000e+000 115063 -1.8852e+000 -6.4060e+000  4.7229e-001 20110 114933,114985,114959
 1.9000e+000 115284 -3.5831e+000 -5.0036e+000 -1.9219e-001 19456 115378,115307,115157
 1.9000e+000 115261 -4.4662e+000 -3.8751e+000 -4.9524e-001 19456 115378,115157,115235
 1.9000e+000 115333 -3.5321e+000 -4.8391e+000 -1.9280e-001 19456 115183,115157,115307
 1.9000e+000 115404 -4.2837e+000 -6.7140e+000 -4.8665e-001 19456 115209,115307,115378
 1.9000e+000 115427 -5.0692e+000 -5.3768e+000 -8.6651e-001 19456 115209,115378,115235
 1.9000e+000 115677 -5.2191e+000 -8.2740e+000 -7.2774e-002 19002 115504,115582,115530
 1.9000e+000 115654 -5.1518e+000 -8.2534e+000 -6.4326e-002 19002 115478,115582,115504
 1.9000e+000 115631 -5.0759e+000 -8.1669e+000  3.4946e-001 19002 115452,115582,115478
 1.9000e+000 115608 -5.9465e+000 -7.5993e+000  8.0119e-001 19002 115530,115582,115556
 1.9000e+000 115998  2.1802e+000  3.5207e+000 -7.2533e-001 18712 115802,115880,115854
 1.9000e+000 115975  3.7894e+000  5.6932e+000  1.5996e-001 18712 115724,115880,115802
 1.9000e+000 115952  3.9195e+000  3.3397e+000 -9.0210e-002 18712 115724,115802,115776
 1.9000e+000 115929  4.3611e+000  4.3864e+000 -6.3692e-002 18712 115724,115776,115750
 1.9000e+000 115906  2.0717e+000  3.5211e+000 -6.1583e-001 18712 115802,115854,115828
 1.9000e+000 116270 -1.2971e+001 -1.0033e+001  1.4194e+000 18308 116045,116123,116071
 1.9000e+000 116247 -1.0966e+001 -6.8184e+000  4.4114e+000 18308 116045,116175,116123
 1.9000e+000 116224 -1.7907e+001 -3.7864e+000  2.9621e+000 18308 116123,116175,116149
 1.9000e+000 116201 -7.5534e+000 -6.5736e+000 -4.7522e-001 18308 116071,116123,116097
 1.9000e+000 116422 -5.6595e+000 -1.0115e+001 -2.6630e-002 17996 116321,116373,116347
 1.9000e+000 116399 -5.6833e+000 -9.9596e+000 -6.8012e-002 17996 116295,116373,116321
 1.9000e+000 116574  2.4507e+000  1.0385e+000  6.0058e-001 17392 116473,116525,116499
 1.9000e+000 116551  5.4671e+000  4.2877e+000  2.0423e+000 17392 116447,116525,116473
 1.9000e+000 116797 -7.6852e-001 -7.7088e+000 -2.0990e-002 16938 116621,116699,116673
 1.9000e+000 116774  3.6510e-001 -9.1284e+000  2.2964e-001 16938 116621,116725,116699
 1.9000e+000 116751 -7.6536e-001 -7.7018e+000 -1.9383e-002 16938 116621,116673,116647
 1.9000e+000 116998  3.7893e+000  8.8224e-001  9.1863e-001 16434 117021,116874,116848
 1.9000e+000 116975 -2.4150e+000 -8.1278e-001 -6.5258e-001 16434 117021,116848,116822
 1.9000e+000 116952  6.6187e+000  4.2367e+000  2.9213e+000 16434 116874,116926,116900
 1.9000e+000 117047  6.2070e+000 -3.2764e-001  1.4758e+000 16434 116926,116874,117021
 1.9000e+000 117070  4.1665e+000  9.8334e-001  2.9908e-002 16434 116926,117021,116822
 1.9000e+000 117293 -4.5365e+000 -6.6920e+000 -2.5173e-001 16070 117117,117169,117143
 1.9000e+000 117270 -4.9250e+000 -6.6528e+000 -4.9561e-001 16070 117117,117221,117169
 1.9000e+000 117247 -5.2624e+000 -7.2982e+000 -6.3679e-001 16070 117169,117221,117195
 1.9000e+000 117445 -1.6305e+001 -9.4840e+000 -1.3231e+000 15645 117318,117370,117344
 1.9000e+000 117422 -1.9655e+001 -1.1445e+001  1.2234e-001 15645 117318,117396,117370
 1.9000e+000 117548 -3.9365e+000 -7.0013e+000 -6.2408e-001 417 117470,117522,117496
 2.0000e+000 70760  9.3081e-001 -2.8210e+000  2.7266e-001 70380 70633,70685,70659
 2.0000e+000 70737 -1.4820e+000 -2.7319e+000 -4.1735e-001 70380 70633,70711,70685
 2.0000e+000 70861 -3.6378e-001 -2.8408e+000  2.2119e-001 70068 70783,70835,70809
 2.0000e+000 71180 -1.6619e-002 -3.2835e+000  7.9652e-002 69870 70932,70984,70958
 2.0000e+000 71157  1.1843e-001 -3.2270e+000  7.3198e-002 69870 70932,71010,70984
 2.0000e+000 71134  2.0511e-001 -3.2033e+000  1.1046e-001 69870 70932,71036,71010
 2.0000e+000 71111  2.1272e-001 -2.7810e+000 -8.6184e-001 69870 70932,71062,71036
 2.0000e+000 71088 -2.7698e-001 -3.0676e+000 -7.1241e-001 69870 70906,71062,70932
 2.0000e+000 71428 -2.5850e-001 -2.5787e+000 -5.1158e-001 69694 71451,71281,71255
 2.0000e+000 71405 -5.3759e-001 -1.6028e+000 -4.6184e-001 69694 71523,71451,71255
 2.0000e+000 71382 -8.0161e-001 -2.2221e+000 -4.7638e-001 69694 71523,71255,71229
 2.0000e+000 71359 -4.4765e-001 -1.2016e+000 -1.7880e-001 69694 71595,71333,71307
 2.0000e+000 71477  1.5165e-001 -1.7592e+000 -6.4817e-001 69694 71307,71281,71451
 2.0000e+000 71500 -3.2570e-001 -1.5149e+000  6.8625e-002 69694 71595,71307,71451
 2.0000e+000 71549 -5.2214e-001 -1.9806e+000  1.3783e-001 69694 71203,71451,71523
 2.0000e+000 71572 -5.6891e-001 -2.0891e+000  1.5730e-001 69694 71203,71523,71229
 2.0000e+000 71621 -4.1459e-001 -6.8974e-001 -3.1880e-002 69694 71203,71333,71595
 2.0000e+000 71644 -2.1679e-001 -9.4881e-001  8.0293e-002 69694 71203,71595,71451
 2.0000e+000 71745 -2.0549e-001  2.1859e-001 -1.9850e-002 69382 71667,71719,71693
 2.0000e+000 72100 -1.2149e+000  8.5177e-002  2.5834e-001 69184 71875,71979,71901
 2.0000e+000 72077 -7.4981e-002 -9.9716e-001  9.1627e-001 69184 71875,72005,71979
 2.0000e+000 72054 -3.2761e-001 -2.2916e-001 -5.4036e-001 69184 71901,71979,71953
 2.0000e+000 72031  3.9255e-001 -7.8615e-003 -1.7785e-001 69184 71901,71953,71927
 2.0000e+000 72250 -2.7425e-001 -2.7831e-001 -2.9496e-001 68986 72149,72201,72175
 2.0000e+000 72227  3.4440e-001 -1.8811e+000  3.9474e-001 68986 72123,72201,72149
 2.0000e+000 72547 -1.0594e+000 -1.4430e+000  1.1535e+000 68582 72570,72403,72377
 2.0000e+000 72524 -4.1419e-001 -2.4890e+000  4.5772e-001 68582 72570,72377,72351
 2.0000e+000 72501 -3.0099e-001  1.4079e-001 -9.6758e-002 68582 72642,72299,72429
 2.0000e+000 72478  8.3714e-001  5.4045e-001  5.2021e-002 68582 72273,72429,72299
 2.0000e+000 72455  4.1885e-001  2.0701e+000  1.2895e+000 68582 72299,72351,72325
 2.0000e+000 72596 -1.2886e-001 -1.1251e+000  1.0361e+000 68582 72429,72403,72570
 2.0000e+000 72619  1.2578e-001 -5.9494e-001  8.5318e-002 68582 72642,72429,72570
 2.0000e+000 72668 -4.1486e-001 -4.8394e-001  8.2619e-001 68582 72351,72299,72642
 2.0000e+000 72691 -2.1191e-001 -1.6872e+000  9.2144e-001 68582 72351,72642,72570
 2.0000e+000 73095 -1.3184e+000  2.8202e-001  5.1946e-001 68384 72873,72925,72899
 2.0000e+000 73072 -1.3284e+000  1.1400e+000  8.1794e-001 68384 72847,72925,72873
 2.0000e+000 73049 -7.9677e-001 -1.2871e+000  2.2205e+000 68384 72847,72951,72925
 2.0000e+000 73026  9.7280e-001 -9.0803e-001  1.3031e+000 68384 72821,72951,72847
 2.0000e+000 73003 -3.7996e-001 -1.1178e+000  4.9349e-002 68384 72821,72977,72951
 2.0000e+000 73552 -1.4653e+000 -5.6891e-001  1.7155e+000 68044 73304,73434,73408
 2.0000e+000 73529 -2.1761e+000 -1.8938e+000  4.4277e-001 68044 73278,73434,73304
 2.0000e+000 73506  1.4421e+000 -7.6936e-001  9.1486e-001 68044 73356,73408,73382
 2.0000e+000 73483  7.7446e-001 -8.6070e-001  1.1342e+000 68044 73304,73408,73356
 2.0000e+000 73460 -7.4464e-001 -2.5930e-001  4.0787e-001 68044 73304,73356,73330
 2.0000e+000 73871 -6.0387e-002  7.6288e-001 -1.8841e-001 67846 73675,73727,73701
 2.0000e+000 73848  1.1915e-001  6.5765e-001 -1.8948e-001 67846 73649,73727,73675
 2.0000e+000 73825 -1.2978e-001  1.8715e-001  8.6190e-003 67846 73623,73727,73649
 2.0000e+000 73802 -2.4101e-001  4.3647e-001 -1.0606e-002 67846 73623,73753,73727
 2.0000e+000 73779 -2.3543e-001  2.9551e-001 -1.2526e-001 67846 73597,73753,73623
 2.0000e+000 74021  3.9974e-002 -1.1472e+000  9.4289e-002 67598 73920,73972,73946
 2.0000e+000 73998 -6.1342e-001 -2.7673e+000  7.8793e-002 67598 73894,73972,73920
 2.0000e+000 74271  6.8701e-003 -9.1706e-001  1.2455e-001 67286 74072,74176,74150
 2.0000e+000 74248  6.9932e-002 -1.1931e+000  1.2835e-001 67286 74046,74176,74072
 2.0000e+000 74225 -2.1297e-001 -2.3213e+000  2.9836e-001 67286 74072,74150,74098
 2.0000e+000 74202 -1.8190e-001 -2.3809e+000  5.4855e-001 67286 74098,74150,74124
 2.0000e+000 74374 -1.2560e-001 -3.7928e+000 -5.6306e-001 67088 74296,74348,74322
 2.0000e+000 74646  5.5156e-001 -2.0167e+000  7.0456e-002 66890 74421,74525,74447
 2.0000e+000 74623 -1.2766e-001 -2.4212e+000 -2.6030e-001 66890 74421,74551,74525
 2.0000e+000 74600  3.4215e-001 -1.7116e+000 -2.7132e-001 66890 74447,74525,74473
 2.0000e+000 74577  5.6525e-002 -1.7099e+000 -1.4494e-001 66890 74473,74525,74499
 2.0000e+000 75254 -9.0229e-001 -8.5609e-001 -3.1331e-001 66528 74885,75067,75041
 2.0000e+000 75231 -3.6851e-001  3.4543e-001  2.0898e-001 66528 74859,75067,74885
 2.0000e+000 75208 -6.8898e-001  1.3381e+000 -5.5285e-001 66528 74937,75015,74963
 2.0000e+000 75185 -6.7646e-001  7.9316e-002 -3.0383e-001 66528 74911,75015,74937
 2.0000e+000 75162 -9.0071e-001 -1.6628e-001 -4.1237e-001 66528 74911,75041,75015
 2.0000e+000 75139 -3.7287e-001 -1.4208e-001  1.7942e-002 66528 74885,75041,74911
 2.0000e+000 75116 -1.0186e+000 -1.2064e+000 -5.8976e-001 66528 74833,75067,74859
 2.0000e+000 75093 -2.3204e+000 -6.6413e-001  1.7690e-001 66528 74963,75015,74989
 2.0000e+000 75453  3.9464e-002  9.3674e-001  9.0954e-002 66238 75303,75381,75355
 2.0000e+000 75430 -3.2331e-001  9.2600e-001  2.1247e-001 66238 75277,75381,75303
 2.0000e+000 75407 -1.2168e-001 -4.4740e-001  2.1386e-001 66238 75303,75355,75329
 2.0000e+000 75701 -1.4147e+000 -5.7421e+000 -2.0000e-001 65834 75528,75606,75580
 2.0000e+000 75678 -9.0054e-001 -6.9610e+000  3.6043e-002 65834 75502,75606,75528
 2.0000e+000 75655  7.1214e-001 -5.0339e+000 -2.0661e-001 65834 75528,75580,75554
 2.0000e+000 75632 -1.6233e+000 -7.4272e+000 -3.6576e-001 65834 75476,75606,75502
 2.0000e+000 75902  7.7311e-001 -3.3867e+000  5.2157e-002 65636 75726,75804,75752
 2.0000e+000 75879 -1.0353e+000 -4.2212e+000  2.5892e-001 65636 75726,75830,75804
 2.0000e+000 75856  4.1264e-001 -3.5146e+000  2.8723e-002 65636 75752,75804,75778
 2.0000e+000 76103 -4.6918e-001 -1.6298e+000  1.6283e-001 65296 76126,75979,75953
 2.0000e+000 76080 -8.8520e-001 -1.5658e+000  2.3470e-001 65296 76126,75953,75927
 2.0000e+000 76057  8.4967e-001  2.8444e-001 -8.5882e-001 65296 76198,76005,75979
 2.0000e+000 76152  4.2196e-001 -1.0026e+000 -5.3491e-001 65296 76198,75979,76126
 2.0000e+000 76175 -1.0132e+000 -3.6050e+000 -4.8879e-001 65296 76031,76126,75927
 2.0000e+000 76224  3.6909e-001 -1.4485e+000 -2.9577e-001 65296 76031,76005,76198
 2.0000e+000 76247  3.0342e-001 -1.9507e+000  8.0612e-002 65296 76031,76198,76126
 2.0000e+000 76602  2.1368e-001 -3.3403e-001 -2.5042e-001 64892 76377,76481,76403
 2.0000e+000 76579  1.6142e-001 -1.6723e-001 -4.2063e-002 64892 76377,76507,76481
 2.0000e+000 76556 -7.3721e-001 -1.1293e+000  1.5010e-001 64892 76403,76481,76429
 2.0000e+000 76533 -2.9118e-001 -1.0692e+000  1.0509e-001 64892 76429,76481,76455
 2.0000e+000 76801 -1.6745e+000 -2.2814e+000  5.6923e-001 64438 76677,76729,76703
 2.0000e+000 76778 -7.7011e-001  2.4025e-001  7.7392e-001 64438 76651,76729,76677
 2.0000e+000 76755 -2.3373e+000 -2.3936e+000  1.0905e-001 64438 76625,76729,76651
 2.0000e+000 77230  7.3602e-001 -1.9774e+000  1.2810e-001 63920 77253,76959,76933
 2.0000e+000 77207  1.7648e-001 -1.8265e+000 -2.1505e-001 63920 77253,76933,77063
 2.0000e+000 77184 -1.7421e+000 -2.7981e+000  3.3287e-001 63920 76959,77037,76985
 2.0000e+000 77161  5.3464e-001 -1.4522e+000  1.2023e-001 63920 76907,77063,76933
 2.0000e+000 77138  1.5985e-001 -4.9207e+000  2.2242e-001 63920 76985,77037,77011
 2.0000e+000 77115  4.0488e-001 -1.1984e-001  4.5566e-002 63920 76907,77089,77063
 2.0000e+000 77279  2.9603e-001 -2.2975e+000 -1.8990e-002 63920 77037,76959,77253
 2.0000e+000 77302 -3.0930e-001 -2.2240e+000 -3.9086e-001 63920 77037,77253,77063
 2.0000e+000 77680 -1.9269e+000 -2.0914e+000  8.6337e-001 63316 77703,77484,77432
 2.0000e+000 77657 -1.8823e+000 -1.8099e+000  1.1342e+000 63316 77703,77432,77406
 2.0000e+000 77634 -2.7989e+000 -2.0134e+000  1.4323e+000 63316 77406,77536,77510
 2.0000e+000 77611 -1.8675e+000 -2.1036e+000  8.9183e-001 63316 77432,77484,77458
 2.0000e+000 77588 -2.5878e+000 -1.7052e+000  6.5026e-001 63316 77406,77562,77536
 2.0000e+000 77729 -1.7736e+000 -1.5240e+000  8.4971e-001 63316 77510,77484,77703
 2.0000e+000 77752 -1.8246e+000 -1.5157e+000  1.1801e+000 63316 77510,77703,77406
 2.0000e+000 78000 -7.9629e-001 -6.5837e+000 -6.9636e-001 62812 77801,77853,77827
 2.0000e+000 77977 -3.7564e-001 -4.4671e+000 -8.0129e-001 62812 77801,77879,77853
 2.0000e+000 77954 -5.9780e-001 -4.8741e+000  1.7646e-001 62812 77801,77905,77879
 2.0000e+000 77931 -1.1210e+000 -5.0653e+000  1.1981e-001 62812 77775,77905,77801
 2.0000e+000 78380 -4.1483e+000 -3.9021e+000  8.8117e-001 62350 78184,78262,78236
 2.0000e+000 78357 -2.6404e+000 -2.8828e+000  1.4449e+000 62350 78132,78262,78184
 2.0000e+000 78334 -2.5557e+000 -2.9168e+000  4.7754e-001 62350 78106,78262,78132
 2.0000e+000 78311 -2.4525e+000 -3.2986e+000  1.1901e+000 62350 78132,78184,78158
 2.0000e+000 78288 -2.6248e+000 -3.2560e+000  6.8366e-001 62350 78184,78236,78210
 2.0000e+000 78837  8.0107e-001  9.4197e-001  2.6237e-001 61946 78615,78667,78641
 2.0000e+000 78814  3.4064e-001  1.7989e-001 -6.1513e-001 61946 78589,78667,78615
 2.0000e+000 78791 -7.3126e-001  5.3717e-002 -6.0146e-001 61946 78589,78719,78667
 2.0000e+000 78768 -2.2529e-001  6.5230e-001 -8.9984e-001 61946 78667,78719,78693
 2.0000e+000 78745 -5.1150e-001 -2.2604e-001 -7.6309e-001 61946 78563,78719,78589
 2.0000e+000 78987  1.1879e+000 -4.2343e+000  7.9651e-001 61335 79010,78886,78860
 2.0000e+000 78964 -2.1815e-001 -1.5876e+000  1.2047e+000 61335 79010,78860,78938
 2.0000e+000 79036  1.1099e-001 -6.2336e+000  1.6573e+000 61335 79082,79010,78912
 2.0000e+000 79059 -2.9217e-001 -4.4664e+000  1.6791e-001 61335 78912,79010,78938
 2.0000e+000 79108  1.6457e-001 -5.7461e+000  1.9871e-001 61335 78886,79010,79082
 2.0000e+000 79437 -8.8334e-001 -5.2913e+000 -4.2101e-001 60888 79460,79238,79212
 2.0000e+000 79414 -3.9594e-001 -4.5539e+000 -9.1169e-001 60888 79460,79212,79342
 2.0000e+000 79391  3.5013e-001 -5.2606e+000 -4.5791e-001 60888 79532,79264,79238
 2.0000e+000 79368  3.1099e+000 -9.1155e+000 -2.7492e+000 60888 79264,79316,79290
 2.0000e+000 79486  1.0629e-001 -4.9135e+000 -7.3931e-001 60888 79532,79238,79460
 2.0000e+000 79509 -2.0213e-001 -4.9814e+000 -1.3038e+000 60888 79316,79460,79342
 2.0000e+000 79558  3.0668e-001 -5.6399e+000 -8.7388e-001 60888 79316,79264,79532
 2.0000e+000 79581 -5.6664e-001 -5.5395e+000 -1.1453e+000 60888 79316,79532,79460
 2.0000e+000 79878 -1.9332e+000 -2.4078e+000  4.2095e-001 60484 79682,79760,79734
 2.0000e+000 79855 -2.8145e+000 -4.1056e+000  9.0832e-001 60484 79656,79760,79682
 2.0000e+000 79832 -3.9075e+000 -5.1786e+000  4.4735e-001 60484 79604,79760,79656
 2.0000e+000 79809 -3.8763e+000 -8.8342e+000  1.2921e+000 60484 79604,79656,79630
 2.0000e+000 79786 -7.4523e-001 -9.2437e-001  9.6322e-001 60484 79682,79734,79708
 2.0000e+000 80101 -1.7965e+000 -7.9239e+000 -4.1481e-001 60022 79951,80029,80003
 2.0000e+000 80078 -1.2277e+000 -8.3896e+000 -6.6526e-001 60022 79925,80029,79951
 2.0000e+000 80055  1.3457e-001 -7.2437e+000 -7.5506e-001 60022 79951,80003,79977
 2.0000e+000 80351 -1.1430e+000 -8.0952e+000  4.0910e-002 59625 80152,80256,80204
 2.0000e+000 80328 -1.9616e+000 -7.5420e+000  4.6314e-001 59625 80126,80256,80152
 2.0000e+000 80305 -1.4791e+000 -8.8851e+000  5.1778e-002 59625 80204,80256,80230
 2.0000e+000 80282 -3.1879e-001 -8.3117e+000 -1.2260e-003 59625 80152,80204,80178
 2.0000e+000 80552 -2.6815e+000 -6.7629e+000 -2.1165e-001 59121 80575,80402,80376
 2.0000e+000 80529 -1.7433e+000 -6.7478e+000 -7.6004e-001 59121 80575,80376,80480
 2.0000e+000 80506  7.3686e-001 -2.7792e+000 -7.7183e-001 59121 80428,80480,80454
 2.0000e+000 80601 -1.6126e+000 -6.7197e+000 -4.7544e-001 59121 80428,80402,80575
 2.0000e+000 80624 -7.5340e-001 -6.7790e+000 -1.0111e+000 59121 80428,80575,80480
 2.0000e+000 81183 -2.4451e+000 -3.1148e+000  1.0108e+000 58553 81206,80863,80837
 2.0000e+000 81160 -1.5685e+000 -1.0517e+000  3.7828e-001 58553 81350,81206,80837
 2.0000e+000 81137  3.0174e-001 -5.9617e+000  1.1347e+000 58553 81278,80915,80863
 2.0000e+000 81114 -2.1069e+000 -1.1864e+000  1.2419e+000 58553 81350,80837,80811
 2.0000e+000 81091  1.3844e+000  1.9374e-001 -2.9453e+000 58553 81422,80967,80941
 2.0000e+000 81068 -4.5491e-001 -7.3960e-002  1.2433e-001 58553 80967,81019,80993
 2.0000e+000 81045 -2.3165e+000 -7.5723e+000  2.3563e+000 58553 80863,80915,80889
 2.0000e+000 81232 -1.2235e+000 -3.1118e+000 -7.1117e-001 58553 81278,80863,81206
 2.0000e+000 81255  2.2381e+000 -1.5832e+000 -2.0612e+000 58553 81422,80941,81206
 2.0000e+000 81304 -1.0086e+000 -1.1631e+001  1.7620e+000 58553 80941,80915,81278
 2.0000e+000 81327 -1.3065e+000 -7.6557e+000 -5.9592e-001 58553 80941,81278,81206
 2.0000e+000 81376 -1.2107e+000 -1.9960e-003  1.0052e-001 58553 81019,81206,81350
 2.0000e+000 81399 -1.4037e+000 -1.5180e-001  8.6236e-001 58553 81019,81350,80811
 2.0000e+000 81448  1.0687e-001 -1.3058e+000 -2.3225e+000 58553 81019,80967,81422
 2.0000e+000 81471  1.0708e+000 -2.6374e+000 -1.4445e+000 58553 81019,81422,81206
 2.0000e+000 81768 -9.9353e-001 -9.5010e+000 -1.7292e-001 57877 81791,81572,81520
 2.0000e+000 81745 -1.4510e+000 -9.7215e+000  5.9548e-001 57877 81791,81520,81494
 2.0000e+000 81722 -1.2399e+000 -9.1326e+000 -1.5758e-001 57877 81863,81650,81598
 2.0000e+000 81699 -1.3610e+000 -9.6038e+000 -8.0063e-001 57877 81598,81650,81624
 2.0000e+000 81676 -9.0222e-001 -1.0623e+001 -3.9089e-002 57877 81520,81572,81546
 2.0000e+000 81817 -6.6611e-001 -7.6525e+000 -7.6254e-001 57877 81598,81572,81791
 2.0000e+000 81840 -1.2583e+000 -9.1872e+000 -1.5421e-001 57877 81863,81598,81791
 2.0000e+000 81889 -1.2242e+000 -9.0885e+000 -1.5045e-001 57877 81494,81650,81863
 2.0000e+000 81912 -1.2473e+000 -9.1540e+000 -1.4426e-001 57877 81494,81863,81791
 2.0000e+000 82160 -6.4627e-001 -7.0533e+000 -2.1428e-001 57473 81935,82039,82013
 2.0000e+000 82137 -1.0169e+000 -6.5567e+000 -4.1525e-001 57473 81935,82065,82039
 2.0000e+000 82114 -7.0757e-001 -6.6345e+000  3.5806e-002 57473 81935,82013,81961
 2.0000e+000 82091  8.0226e-001 -7.3737e+000  1.7898e-001 57473 81961,82013,81987
 2.0000e+000 82719 -1.9400e+000 -4.7034e+000  2.1619e+000 56962 82814,82742,82425
 2.0000e+000 82696 -2.0889e+000 -3.9603e+000  2.9797e+000 56962 82742,82347,82555
 2.0000e+000 82673 -6.0431e-001 -6.1092e+000  2.3840e+000 56962 82814,82425,82399
 2.0000e+000 82650 -9.6500e-001 -2.9040e+000  3.7160e-001 56962 82425,82477,82451
 2.0000e+000 82627 -2.0104e+000 -3.1711e+000  7.5227e-001 56962 82425,82529,82477
 2.0000e+000 82604 -1.5554e+000 -1.1787e+000  9.5173e-001 56962 82477,82529,82503
 2.0000e+000 82581 -4.3170e+000 -8.2470e+000  6.5232e+000 56962 82347,82399,82373
 2.0000e+000 82768 -1.1191e+000 -3.6250e+000  1.6344e+000 56962 82529,82425,82742
 2.0000e+000 82791 -2.6178e+000 -3.4714e+000  1.8856e+000 56962 82529,82742,82555
 2.0000e+000 82840 -6.2555e-001 -3.2740e+000  2.7320e+000 56962 82347,82742,82814
 2.0000e+000 82863  5.4274e-001 -4.6917e+000  2.9355e+000 56962 82347,82814,82399
 2.0000e+000 83467  1.4601e+000 -3.5930e+000  3.7832e+000 56300 83124,83176,83150
 2.0000e+000 83444 -4.8827e-001 -2.5064e+000  7.8033e-001 56300 83490,83176,83124
 2.0000e+000 83421 -4.0076e-001 -2.4623e+000  7.9834e-001 56300 83490,83124,83280
 2.0000e+000 83398  6.9109e-001  1.7675e-001 -3.7780e-001 56300 83202,83280,83254
 2.0000e+000 83375 -2.8643e-002  3.2916e-001 -4.2300e-001 56300 83046,83280,83124
 2.0000e+000 83352 -1.7868e+000 -3.2267e+000  2.0062e-001 56300 83046,83124,83098
 2.0000e+000 83329 -1.6650e+000 -2.4660e+000  7.2049e-001 56300 83202,83254,83228
 2.0000e+000 83306 -1.2646e+000  4.0207e-002 -2.5125e-001 56300 83046,83098,83072
 2.0000e+000 83516 -5.7668e-001 -2.4554e+000  8.5413e-001 56300 83202,83176,83490
 2.0000e+000 83539 -4.8627e-001 -2.4150e+000  8.6160e-001 56300 83202,83490,83280
 2.0000e+000 83787  3.1589e-001 -8.8145e+000  3.7922e-001 55960 83588,83692,83666
 2.0000e+000 83764  3.5078e-002 -9.8229e+000 -5.5402e-002 55960 83562,83692,83588
 2.0000e+000 83741 -1.8088e+000 -9.9186e+000  7.7546e-001 55960 83588,83666,83614
 2.0000e+000 83718 -7.1439e-002 -1.0576e+001  4.5800e-001 55960 83614,83666,83640
 2.0000e+000 83937  2.5290e-001 -4.8485e+000 -6.2477e-001 55499 83810,83862,83836
 2.0000e+000 83914 -1.0281e+000 -2.3908e+000 -1.0309e+000 55499 83810,83888,83862
 2.0000e+000 84138 -2.2711e+000 -8.5096e+000 -7.2043e-002 55152 83988,84066,84040
 2.0000e+000 84115 -2.7785e+000 -9.8597e+000 -3.3534e-001 55152 83962,84066,83988
 2.0000e+000 84092 -1.1130e+000 -7.4982e+000  3.5655e-001 55152 83988,84040,84014
 2.0000e+000 84471 -3.7145e+000 -5.5911e+000 -1.9413e-001 54648 84324,84376,84350
 2.0000e+000 84448 -4.5842e+000 -6.8692e+000  1.8389e-001 54648 84272,84376,84324
 2.0000e+000 84425 -5.5453e+000 -1.0785e+001  6.7273e-001 54648 84246,84376,84272
 2.0000e+000 84402 -1.1381e+000 -6.2486e+000 -3.2092e+000 54648 84272,84324,84298
 2.0000e+000 84849 -1.3543e+000 -1.0641e+001  4.1575e-001 53922 84627,84731,84705
 2.0000e+000 84826 -2.1052e+000 -1.0369e+001  2.9641e-002 53922 84575,84731,84627
 2.0000e+000 84803 -1.7377e+000 -1.0004e+001 -5.7528e-001 53922 84575,84627,84601
 2.0000e+000 84780  1.3469e-001 -1.0574e+001  1.8052e+000 53922 84627,84705,84653
 2.0000e+000 84757  2.2417e+000 -1.1673e+001  2.1826e+000 53922 84653,84705,84679
 2.0000e+000 85581 -4.3836e+000 -1.0317e+001  1.6708e+000 53582 85604,85111,85319
 2.0000e+000 85558 -3.1915e+000 -8.4778e+000  8.5122e-001 53582 85111,85345,85319
 2.0000e+000 85535 -9.4122e-001 -9.4692e+000 -7.9088e-002 53582 85604,85319,85293
 2.0000e+000 85512 -9.9914e+000 -6.9596e+000  5.8435e+000 53582 85241,85293,85267
 2.0000e+000 85489 -8.5221e+000 -1.1552e+001  2.6062e+000 53582 85676,85241,85189
 2.0000e+000 85466 -7.2664e+000 -1.1594e+001  1.2071e+000 53582 85676,85189,85137
 2.0000e+000 85443 -1.2075e+001 -7.3860e+000  3.6224e+000 53582 85189,85241,85215
 2.0000e+000 85420 -7.9144e+000 -1.3260e+001  9.9430e-001 53582 85137,85189,85163
 2.0000e+000 85397 -3.0931e+000 -1.1148e+001  2.3925e+000 53582 85111,85371,85345
 2.0000e+000 85630 -4.9872e+000 -1.0971e+001  2.5200e+000 53582 85137,85111,85604
 2.0000e+000 85653 -3.3561e+000 -1.1285e+001  2.3010e+000 53582 85748,85604,85293
 2.0000e+000 85702 -1.0086e+001 -1.5376e+001  5.3207e+000 53582 85293,85241,85676
 2.0000e+000 85725 -5.0581e+000 -1.1912e+001  2.8578e+000 53582 85748,85293,85676
 2.0000e+000 85774 -6.1007e+000 -1.0001e+001  1.6694e+000 53582 85137,85604,85748
 2.0000e+000 85797 -7.0845e+000 -1.0005e+001  2.0374e+000 53582 85137,85748,85676
 2.0000e+000 86303 -5.3045e-001 -9.8458e+000 -1.1673e-001 53178 86326,86084,86006
 2.0000e+000 86280 -2.5114e+000 -1.1702e+001  7.4471e-001 53178 86326,86006,86162
 2.0000e+000 86257 -7.0186e-001 -6.7227e+000  1.7291e+000 53178 86398,86110,86084
 2.0000e+000 86234  2.0220e-001 -5.7365e+000  2.6109e+000 53178 86006,86058,86032
 2.0000e+000 86211  9.8927e-001 -7.3838e+000  9.7175e-001 53178 86006,86084,86058
 2.0000e+000 86188 -9.0668e+000 -1.5962e+001  5.1635e+000 53178 85980,86162,86006
 2.0000e+000 86352 -2.1244e+000 -7.0419e+000  1.2140e+000 53178 86398,86084,86326
 2.0000e+000 86375 -7.0407e+000 -9.3030e+000  1.5440e-001 53178 86136,86326,86162
 2.0000e+000 86424 -1.3698e+000 -6.9450e+000  3.3105e-001 53178 86136,86110,86398
 2.0000e+000 86447 -2.9619e+000 -7.9865e+000 -3.6638e-001 53178 86136,86398,86326
 2.0000e+000 86904 -3.8912e+000 -6.9300e+000  6.5415e-001 52774 86708,86760,86734
 2.0000e+000 86881 -2.5970e+000 -6.2849e+000 -6.1729e-001 52774 86656,86760,86708
 2.0000e+000 86858 -2.1824e+000 -7.8389e+000  8.0310e-001 52774 86656,86708,86682
 2.0000e+000 86835 -2.3387e+000 -5.4634e+000 -4.1981e-001 52774 86630,86760,86656
 2.0000e+000 86812 -2.9389e+000 -5.9685e+000  1.1151e-001 52774 86630,86786,86760
 2.0000e+000 87489 -1.7438e+000 -7.3662e+000 -1.6658e+000 52234 87512,87218,87192
 2.0000e+000 87466 -5.9880e-001 -6.8091e+000 -1.4924e+000 52234 87512,87192,87348
 2.0000e+000 87443  2.7043e+000 -9.0287e+000  2.2255e-001 52234 87166,87348,87192
 2.0000e+000 87420 -2.4115e+000 -7.0158e+000  1.0938e-002 52234 87296,87348,87322
 2.0000e+000 87397 -3.3854e+000 -5.1531e+000 -2.4439e-001 52234 87218,87296,87270
 2.0000e+000 87374 -2.8601e+000 -6.3137e+000  8.8667e-001 52234 87218,87270,87244
 2.0000e+000 87538 -1.7201e+000 -7.0299e+000 -5.5821e-001 52234 87296,87218,87512
 2.0000e+000 87561 -6.8502e-001 -6.5902e+000 -4.9115e-001 52234 87296,87512,87348
 2.0000e+000 87841 -2.2595e+000 -4.1866e+000 -1.1266e+000 51830 87665,87743,87691
 2.0000e+000 87818  8.7548e-001 -2.0384e+000  8.2063e-001 51830 87665,87769,87743
 2.0000e+000 87795 -1.1553e-001 -3.2360e+000 -2.3885e-001 51830 87864,87691,87743
 2.0000e+000 87890 -9.9504e-001 -3.6129e+000 -2.7751e-001 51830 87717,87691,87864
 2.0000e+000 88418 -3.6987e+000 -1.1444e+001  2.8900e-001 51262 88095,88173,88121
 2.0000e+000 88395 -1.8010e+000 -1.1015e+001  1.2472e+000 51262 88095,88251,88173
 2.0000e+000 88372 -2.1788e+000 -1.0426e+001  2.7444e+000 51262 88173,88251,88199
 2.0000e+000 88349  3.8998e-001 -1.1178e+001 -7.6432e-001 51262 88095,88277,88251
 2.0000e+000 88326  3.9114e+000 -1.1622e+001  4.7796e+000 51262 88199,88251,88225
 2.0000e+000 88303 -3.2095e+000 -1.2235e+001 -2.9026e-001 51262 88121,88173,88147
 2.0000e+000 88875  4.3339e+000 -2.5685e+000 -8.4159e-001 50750 88601,88731,88627
 2.0000e+000 88852  3.0294e+000 -4.1203e+000 -2.6061e-001 50750 88601,88757,88731
 2.0000e+000 88829 -2.8174e+000 -6.5198e+000 -2.5465e+000 50750 88627,88731,88653
 2.0000e+000 88806 -6.5253e-001 -4.6451e+000 -6.8731e-001 50750 88653,88731,88705
 2.0000e+000 88783 -2.8409e+000 -5.6627e+000 -9.5483e-001 50750 88653,88705,88679
 2.0000e+000 89145 -2.2539e+000 -1.0735e+001  1.5241e-001 50438 88946,89024,88972
 2.0000e+000 89122 -2.3123e+000 -1.0597e+001  1.4021e-001 50438 88946,89050,89024
 2.0000e+000 89099 -1.4398e+000 -1.0120e+001  3.4955e-001 50438 88920,89050,88946
 2.0000e+000 89076 -1.1443e+000 -8.9001e+000  3.0671e+000 50438 88972,89024,88998
 2.0000e+000 89525 -7.2917e-001 -1.0860e+001  3.2710e-001 49934 89548,89277,89251
 2.0000e+000 89502 -1.0682e+000 -1.0729e+001  5.1176e-001 49934 89548,89251,89381
 2.0000e+000 89479 -2.6040e+000 -9.4666e+000  3.8747e-001 49934 89303,89381,89329
 2.0000e+000 89456 -7.5529e-001 -1.2307e+001  2.5283e+000 49934 89251,89407,89381
 2.0000e+000 89433 -2.8557e+000 -1.1946e+001  1.0539e-002 49934 89329,89381,89355
 2.0000e+000 89574 -1.7672e+000 -1.1125e+001 -1.8362e-001 49934 89303,89277,89548
 2.0000e+000 89597 -1.3752e+000 -1.0717e+001  5.6130e-001 49934 89303,89548,89381
 2.0000e+000 90054 -3.2290e-001 -7.6728e+000  3.0230e+000 49380 89832,89936,89910
 2.0000e+000 90031 -2.9224e+000 -8.5842e+000  2.3782e-001 49380 89780,89936,89832
 2.0000e+000 90008 -3.1391e+000 -1.3635e+001  7.9565e-001 49380 89780,89832,89806
 2.0000e+000 89985 -2.5517e+000 -6.8146e+000  3.3120e+000 49380 89832,89910,89858
 2.0000e+000 89962 -4.8279e+000 -9.1703e+000  6.6522e+000 49380 89858,89910,89884
 2.0000e+000 90560 -5.1712e+000 -9.2240e+000  7.6686e-001 48890 90289,90341,90315
 2.0000e+000 90537 -3.6580e+000 -8.5581e+000  1.4236e+000 48890 90289,90393,90341
 2.0000e+000 90514 -3.2759e+000 -7.4912e+000  1.6491e+000 48890 90263,90393,90289
 2.0000e+000 90491 -1.5519e+000 -7.5066e+000  3.7316e+000 48890 90237,90393,90263
 2.0000e+000 90468 -6.9329e+000 -9.6317e+000  3.2644e+000 48890 90341,90393,90367
 2.0000e+000 90445  3.0817e-001 -7.5022e+000  4.7290e+000 48890 90237,90419,90393
 2.0000e+000 91115 -3.7186e+000 -1.0491e+001 -5.5365e-002 48486 90795,90873,90847
 2.0000e+000 91092 -3.8869e+000 -1.0847e+001  1.2864e-001 48486 90795,90925,90873
 2.0000e+000 91069 -9.4406e-001 -9.8286e+000  3.0772e-002 48486 90769,90925,90795
 2.0000e+000 91046 -1.3276e+000 -1.0552e+001  3.9665e-001 48486 90769,90951,90925
 2.0000e+000 91023 -4.5430e+000 -1.1920e+001  4.8372e-001 48486 90795,90847,90821
 2.0000e+000 91000 -3.8501e+000 -1.1697e+001 -1.0214e+000 48486 90873,90925,90899
 2.0000e+000 90977 -1.7818e+000 -1.0886e+001  1.4641e-001 48486 90743,90951,90769
 2.0000e+000 91265 -2.3550e+000 -9.3907e+000  8.6475e-001 48082 91288,91190,91164
 2.0000e+000 91242 -1.4819e+000 -8.9546e+000  1.8426e+000 48082 91360,91288,91164
 2.0000e+000 91314 -2.1294e+000 -1.0248e+001  1.5100e+000 48082 91216,91190,91288
 2.0000e+000 91337 -2.6967e+000 -1.2352e+001  1.2949e+000 48082 91216,91288,91138
 2.0000e+000 91386 -4.5004e+000 -1.0876e+001  8.9041e-001 48082 91138,91288,91360
 2.0000e+000 92022 -1.5025e+000 -8.3168e+000 -4.9390e-001 47514 92261,92045,91754
 2.0000e+000 91999 -1.2691e+000 -4.7588e+000  4.3272e-001 47514 92189,92045,91702
 2.0000e+000 91976 -3.7082e+000 -6.2947e+000  1.4469e+000 47514 92117,91806,91754
 2.0000e+000 91953 -6.9256e-001 -1.1663e+000 -1.8133e+000 47514 92189,91702,91650
 2.0000e+000 91930  5.0400e-001 -1.2917e+001  2.0264e+000 47514 92261,91754,91728
 2.0000e+000 91907 -1.9173e+000 -1.1558e+001  9.4045e-001 47514 91754,91806,91780
 2.0000e+000 91884 -1.3146e+000 -1.0028e+000 -1.5921e+000 47514 91650,91702,91676
 2.0000e+000 92071 -3.5949e+000 -5.8054e+000  5.1726e-001 47514 92117,91754,92045
 2.0000e+000 92094 -9.6592e-003 -1.8760e+000  2.7334e-001 47514 91832,92045,91858
 2.0000e+000 92143 -3.1619e+000 -6.1875e+000  4.8874e-001 47514 91832,91806,92117
 2.0000e+000 92166 -1.8829e+000 -4.4277e+000 -6.1474e-001 47514 91832,92117,92045
 2.0000e+000 92215  1.3784e+000 -1.6773e+000 -1.0183e+000 47514 91858,92045,92189
 2.0000e+000 92238  2.7878e-001  2.7627e-001 -2.9382e+000 47514 91858,92189,91650
 2.0000e+000 92287  4.6343e-001 -4.0188e+000  6.4437e-001 47514 91702,92045,92261
 2.0000e+000 92310  2.8202e+000 -6.7292e+000  3.2470e+000 47514 91702,92261,91728
 2.0000e+000 92460  1.0721e+000 -7.6483e-001 -2.6327e+000 47124 92483,92359,92333
 2.0000e+000 92437 -2.0492e+000 -5.0611e+000 -1.0084e+000 47124 92555,92483,92333
 2.0000e+000 92509 -1.3891e+000 -5.9074e-001  5.9839e-001 47124 92685,92483,92385
 2.0000e+000 92532 -3.8315e+000 -4.2693e+000  1.7589e+000 47124 92385,92483,92411
 2.0000e+000 92581 -2.9169e+000 -4.1680e+000 -1.0432e+000 47124 92411,92483,92555
 2.0000e+000 92711 -1.7516e+000 -1.0208e+000  4.4146e-001 47124 92359,92483,92685
 2.0000e+000 93571 -4.0604e+000 -5.6753e+000 -2.7511e-001 46834 93594,93208,93104
 2.0000e+000 93548 -2.2275e+000 -5.1908e+000  1.0000e+000 46834 93738,93594,93104
 2.0000e+000 93525 -5.1106e+000 -9.9134e+000 -1.5704e+000 46834 93666,93234,93208
 2.0000e+000 93502  2.1252e+000 -4.2884e+000  1.1940e+000 46834 93738,93104,93078
 2.0000e+000 93479 -5.0316e+000 -6.4333e+000 -2.0747e-001 46834 93810,93260,93234
 2.0000e+000 93456 -3.3392e+000 -7.7665e+000 -1.4145e+000 46834 93104,93182,93156
 2.0000e+000 93433 -3.1052e+000 -8.6470e+000 -7.9688e-001 46834 93104,93208,93182
 2.0000e+000 93410 -8.6722e+000 -2.0575e+000  3.1730e+000 46834 93286,93338,93312
 2.0000e+000 93387  1.4873e-001 -3.8115e+000  1.9551e+000 46834 93052,93338,93078
 2.0000e+000 93364 -3.3692e+000 -6.3975e+000 -1.8593e+000 46834 93104,93156,93130
 2.0000e+000 93620 -4.3216e+000 -6.8810e+000 -1.1434e-001 46834 93666,93208,93594
 2.0000e+000 93643 -4.6877e+000 -2.0604e+000  2.0342e+000 46834 93286,93594,93338
 2.0000e+000 93692 -4.8312e+000 -6.0802e+000 -1.2708e-001 46834 93810,93234,93666
 2.0000e+000 93715 -5.3627e+000 -2.5807e+000 -3.9398e-002 46834 93286,93666,93594
 2.0000e+000 93764 -5.5490e+000 -4.0043e+000  1.8677e+000 46834 93338,93594,93738
 2.0000e+000 93787 -4.0785e+000 -5.2028e+000  1.8680e+000 46834 93338,93738,93078
 2.0000e+000 93836 -5.3313e+000 -6.3118e+000 -7.9172e-001 46834 93286,93260,93810
 2.0000e+000 93859 -5.1637e+000 -6.0341e+000 -7.1925e-001 46834 93286,93810,93666
 2.0000e+000 94210 -5.7842e+000 -1.4825e+001 -5.6394e-001 46472 94011,94115,94089
 2.0000e+000 94187 -5.4750e+000 -1.5565e+001 -2.6047e-001 46472 93985,94115,94011
 2.0000e+000 94164 -1.0933e+000 -1.5667e+001 -2.2108e-001 46472 94037,94089,94063
 2.0000e+000 94141 -5.2936e-001 -1.2500e+001 -9.6901e-001 46472 94011,94089,94037
 2.0000e+000 94746 -2.8741e+000 -9.7480e+000 -9.5268e-002 46068 94576,94628,94602
 2.0000e+000 94723 -3.9755e-001 -8.6538e+000 -3.1281e-001 46068 94498,94628,94576
 2.0000e+000 94700  3.9712e+000 -2.6842e+000 -2.2899e+000 46068 94472,94628,94498
 2.0000e+000 94677 -2.9647e+000 -3.2406e+000 -5.7652e-001 46068 94524,94576,94550
 2.0000e+000 94654 -2.3522e+000 -3.3977e+000 -1.0362e+000 46068 94498,94576,94524
 2.0000e+000 95380  9.8193e-001  1.0920e+000  6.1654e-001 45342 95034,95112,95086
 2.0000e+000 95357 -2.5222e-001 -1.0043e-001  1.1672e+000 45342 95034,95190,95112
 2.0000e+000 95334  1.6610e+000 -1.7396e+000  9.0721e-001 45342 95403,95164,95138
 2.0000e+000 95311  1.2700e+000  5.2482e+000  1.1110e+000 45342 95403,95138,95112
 2.0000e+000 95288  2.0495e+000 -1.6870e+000  2.5540e-001 45342 95034,95216,95190
 2.0000e+000 95265  9.8813e-001  1.9533e-001  4.6638e-001 45342 95034,95086,95060
 2.0000e+000 95242  2.7312e+000 -1.0073e-001  1.2312e-002 45342 95008,95216,95034
 2.0000e+000 95429  1.8372e+000 -4.9402e+000 -4.2430e-003 45342 95190,95164,95403
 2.0000e+000 95452 -3.0298e-001 -4.7615e-001  3.5561e-001 45342 95190,95403,95112
 2.0000e+000 96007 -6.5238e+000 -5.8172e+000  9.4729e-001 44716 96030,95791,95765
 2.0000e+000 95984 -4.4489e+000 -1.1375e+001  1.4159e+000 44716 96030,95765,95713
 2.0000e+000 95961 -1.9928e+000 -2.5756e+000 -7.7589e-002 44716 96174,96102,95661
 2.0000e+000 95938 -2.4691e+000 -3.7863e+000 -4.3807e-001 44716 96174,95661,95635
 2.0000e+000 95915 -2.8461e+000 -4.6744e+000  7.2876e+000 44716 95661,95713,95687
 2.0000e+000 95892 -5.3852e+000 -1.3314e+001 -2.0208e+000 44716 95713,95765,95739
 2.0000e+000 95869  1.2486e+000 -4.1582e+000 -2.1207e+000 44716 95635,95843,95817
 2.0000e+000 96056 -4.9098e+000 -7.7943e+000  2.3465e-001 44716 95817,95791,96030
 2.0000e+000 96079 -2.4383e+000 -4.5669e+000 -1.6491e+000 44716 96102,95817,96030
 2.0000e+000 96128  9.5463e-001  1.4756e+000  4.8468e+000 44716 95713,95661,96102
 2.0000e+000 96151 -1.4685e+000 -6.2337e+000  2.6807e+000 44716 95713,96102,96030
 2.0000e+000 96200 -8.2736e-001 -4.6704e+000 -6.8804e-001 44716 95817,96102,96174
 2.0000e+000 96223 -1.7078e+000 -5.8991e+000 -1.2938e+000 44716 95817,96174,95635
 2.0000e+000 96680 -2.9572e+000 -6.1259e+000 -8.0835e-001 44198 96775,96703,96458
 2.0000e+000 96657 -1.6809e+000 -2.6929e+000 -1.6029e+000 44198 96703,96406,96562
 2.0000e+000 96634 -3.3925e-001 -7.8992e+000 -4.2013e-001 44198 96775,96458,96432
 2.0000e+000 96611 -5.1542e+000 -8.9068e+000  7.8133e-001 44198 96484,96536,96510
 2.0000e+000 96588 -3.7001e+000 -1.0248e+001 -2.0540e-001 44198 96458,96536,96484
 2.0000e+000 96729 -2.9535e+000 -4.5501e+000 -1.7430e-001 44198 96536,96458,96703
 2.0000e+000 96752 -2.5511e+000 -4.9470e+000 -1.2718e+000 44198 96536,96703,96562
 2.0000e+000 96801 -6.6237e-001 -3.0991e+000  2.2961e-001 44198 96406,96703,96775
 2.0000e+000 96824  9.3532e-001 -6.1359e+000  2.4064e-001 44198 96406,96775,96432
 2.0000e+000 97202 -3.5625e+000 -9.1286e+000  4.4031e-001 43750 97225,96980,96928
 2.0000e+000 97179 -3.2387e+000 -9.1736e+000  5.0700e-001 43750 97225,96928,97084
 2.0000e+000 97156 -3.5878e+000 -1.0838e+001  3.0805e-001 43750 96928,96980,96954
 2.0000e+000 97133 -3.0549e+000 -8.7438e+000  9.9595e-001 43750 97006,97084,97058
 2.0000e+000 97110 -3.4570e+000 -1.0205e+001  5.2805e-001 43750 97006,97058,97032
 2.0000e+000 97251 -3.4084e+000 -9.0788e+000  7.1255e-001 43750 97006,96980,97225
 2.0000e+000 97274 -2.9879e+000 -9.1313e+000  7.2724e-001 43750 97006,97225,97084
 2.0000e+000 97522 -5.3722e+000 -8.2551e+000  2.6787e-001 43360 97545,97375,97349
 2.0000e+000 97499 -4.2198e+000 -9.0805e+000 -1.0579e-001 43360 97545,97349,97323
 2.0000e+000 97476 -8.2648e+000 -1.0491e+001 -4.0345e+000 43360 97617,97427,97401
 2.0000e+000 97453 -1.2754e+000 -1.1232e+001 -3.4796e+000 43360 97297,97427,97323
 2.0000e+000 97571 -3.5080e+000 -1.0386e+001 -3.1162e-001 43360 97401,97375,97545
 2.0000e+000 97594 -6.8849e+000 -1.2491e+001 -2.3560e+000 43360 97617,97401,97545
 2.0000e+000 97643 -7.1517e+000 -8.2989e+000 -2.2509e+000 43360 97323,97427,97617
 2.0000e+000 97666 -4.3848e+000 -8.3203e+000 -2.9377e-001 43360 97323,97617,97545
 2.0000e+000 98019 -5.2153e+000 -1.4905e+000 -1.9007e+000 42956 97794,97898,97820
 2.0000e+000 97996 -2.4240e+000 -3.7160e+000 -1.5687e+000 42956 97794,97924,97898
 2.0000e+000 97973 -7.9803e+000 -5.9168e-002 -4.8265e-001 42956 97820,97872,97846
 2.0000e+000 97950 -7.2357e+000 -3.7252e-001 -8.9712e-001 42956 97820,97898,97872
 2.0000e+000 98446 -4.1743e+000 -8.5415e+000  1.0012e+000 42559 98149,98305,98279
 2.0000e+000 98423 -3.8417e+000 -8.1208e+000  1.3023e+000 42559 98123,98305,98149
 2.0000e+000 98400 -4.0978e+000 -1.0920e+001  1.3681e+000 42559 98469,98175,98149
 2.0000e+000 98377 -2.7172e+000 -7.7245e+000  5.9911e-001 42559 98469,98149,98279
 2.0000e+000 98354 -4.3962e+000 -9.2224e+000  4.0807e-001 42559 98175,98253,98227
 2.0000e+000 98331 -5.1225e+000 -1.0931e+001  4.1963e-001 42559 98175,98227,98201
 2.0000e+000 98495 -3.1491e+000 -8.7787e+000 -2.1279e-001 42559 98253,98175,98469
 2.0000e+000 98518 -2.7867e+000 -7.6054e+000 -9.4845e-001 42559 98253,98469,98279
 2.0000e+000 98847  7.6792e+000 -9.1300e+000 -1.6111e+000 42247 98674,98752,98700
 2.0000e+000 98824  7.1414e+000  8.1616e-001  5.0128e-002 42247 98648,98752,98674
 2.0000e+000 98801  3.4735e+000 -6.8566e+000  7.1852e+000 42247 98622,98752,98648
 2.0000e+000 98778  1.3264e+000 -1.1514e+001 -1.7940e+000 42247 98700,98752,98726
 2.0000e+000 99117 -3.9077e+000 -1.1672e+001 -1.2377e-002 41843 98892,98996,98918
 2.0000e+000 99094 -4.5465e+000 -1.3867e+001  1.3141e+000 41843 98892,99022,98996
 2.0000e+000 99071 -2.7510e+000 -1.1749e+001  4.7631e-001 41843 98918,98996,98970
 2.0000e+000 99048 -4.5204e+000 -1.2599e+001  7.2821e-001 41843 98918,98970,98944
 2.0000e+000 99625 -2.0535e+000 -8.3498e-001 -1.6187e+000 41232 99648,99380,99354
 2.0000e+000 99602 -4.2951e-001 -3.9060e-001 -1.6527e+000 41232 99648,99354,99328
 2.0000e+000 99579 -8.6854e-001 -1.8265e+000 -5.2663e-001 41232 99720,99432,99380
 2.0000e+000 99556 -4.2133e+000 -5.0678e+000 -3.7136e+000 41232 99380,99432,99406
 2.0000e+000 99533  8.5190e-001 -9.7656e-001 -3.4368e-001 41232 99328,99484,99458
 2.0000e+000 99510  4.2503e+000  6.9264e-001  3.2749e-001 41232 99302,99484,99328
 2.0000e+000 99674 -1.7861e+000 -1.2852e+000 -6.2019e-001 41232 99720,99380,99648
 2.0000e+000 99697 -9.9776e-001 -2.0391e-001 -1.0198e+000 41232 99458,99648,99328
 2.0000e+000 99746 -4.7067e-001 -1.2923e+000 -8.1263e-001 41232 99458,99432,99720
 2.0000e+000 99769 -7.9911e-001 -2.7788e-001 -1.0890e+000 41232 99458,99720,99648
 2.0000e+000 100275 -6.7283e+000 -6.2669e+000 -4.5554e+000 40728 99952,100004,99978
 2.0000e+000 100252 -1.2902e+000 -6.9669e+000 -1.7691e+000 40728 99952,100030,100004
 2.0000e+000 100229 -3.3663e+000 -6.2520e+000 -7.3764e-001 40728 99952,100134,100030
 2.0000e+000 100206 -4.7469e+000 -3.8109e+000 -1.2238e+000 40728 100298,100108,100082
 2.0000e+000 100183 -3.2260e+000 -9.6516e+000 -2.6984e+000 40728 100298,100082,100030
 2.0000e+000 100160 -9.3443e+000 -8.2604e+000 -7.7179e+000 40728 100030,100082,100056
 2.0000e+000 100324 -4.1702e+000  5.1675e-001  6.4383e-001 40728 100134,100108,100298
 2.0000e+000 100347 -2.8632e+000 -6.2229e+000 -4.4872e-001 40728 100134,100298,100030
 2.0000e+000 100853 -2.5630e+000 -8.0592e+000  3.6795e-001 40274 100876,100686,100660
 2.0000e+000 100830 -2.8063e+000 -8.7894e+000  6.5024e-001 40274 100948,100876,100660
 2.0000e+000 100807 -2.7203e+000 -8.7526e+000  8.1039e-001 40274 100948,100660,100608
 2.0000e+000 100784 -4.2630e+000 -7.6212e+000  1.3688e-001 40274 101020,100556,100712
 2.0000e+000 100761 -3.4879e+000 -4.3866e+000  1.3395e+000 40274 100530,100712,100556
 2.0000e+000 100738 -4.4942e+000 -9.6702e+000  4.2704e-001 40274 100608,100660,100634
 2.0000e+000 100902 -2.7213e+000 -5.9651e+000  1.0302e+000 40274 100712,100686,100876
 2.0000e+000 100925 -3.3165e+000 -7.8212e+000  9.1942e-001 40274 101020,100712,100876
 2.0000e+000 100974 -2.7044e+000 -8.6118e+000  7.5950e-001 40274 100582,100876,100948
 2.0000e+000 100997 -2.5575e+000 -8.5802e+000  9.2350e-001 40274 100582,100948,100608
 2.0000e+000 101046 -5.4848e+000 -8.1332e+000 -1.0667e-001 40274 100582,100556,101020
 2.0000e+000 101069 -4.7698e+000 -8.3067e+000  8.1023e-001 40274 100582,101020,100876
 2.0000e+000 101496  1.4348e-001  9.8870e-001  5.1814e-001 39820 101519,101277,101225
 2.0000e+000 101473  9.8469e-001 -6.5005e+000  1.6543e+000 39820 101519,101225,101199
 2.0000e+000 101450 -1.3575e+001 -1.1883e+001  3.7782e+000 39820 101173,101355,101199
 2.0000e+000 101427  1.6190e+000 -8.0324e-001  1.3449e+000 39820 101277,101355,101303
 2.0000e+000 101404  5.3490e+000  2.8845e+000  2.6623e-001 39820 101225,101277,101251
 2.0000e+000 101381 -4.5685e-001 -1.2105e+000  1.3708e+000 39820 101303,101355,101329
 2.0000e+000 101545 -1.2842e+000 -3.5310e+000  3.3514e+000 39820 101355,101277,101519
 2.0000e+000 101568  2.2870e-001 -7.9997e+000  5.2698e+000 39820 101355,101519,101199
 2.0000e+000 101816 -4.2307e+000 -9.6922e+000 -4.7238e-002 39066 101839,101695,101643
 2.0000e+000 101793 -5.0914e+000 -1.1685e+001 -3.0402e-001 39066 101839,101643,101591
 2.0000e+000 101770 -2.8062e+000 -9.8659e+000 -5.8102e-001 39066 101643,101695,101669
 2.0000e+000 101747 -5.5256e+000 -1.1493e+001 -3.2604e-002 39066 101591,101643,101617
 2.0000e+000 101865 -3.1423e+000 -1.0328e+001  1.4564e+000 39066 101721,101695,101839
 2.0000e+000 101888 -4.3569e+000 -1.3041e+001  1.1556e+000 39066 101721,101839,101591
 2.0000e+000 102087 -4.4927e+000 -1.1918e+001  6.9685e-003 38726 101937,101989,101963
 2.0000e+000 102064 -4.7155e+000 -1.1669e+001 -6.8362e-002 38726 101937,102015,101989
 2.0000e+000 102041 -3.9763e+000 -1.1348e+001  1.2046e-003 38726 101911,102015,101937
 2.0000e+000 102337  8.6247e-001 -5.1787e+000 -1.2266e+000 38322 102112,102190,102138
 2.0000e+000 102314  2.1401e-001 -6.9192e+000 -1.2564e+000 38322 102112,102216,102190
 2.0000e+000 102291 -3.9866e+000 -1.8642e+001  4.9656e+000 38322 102112,102242,102216
 2.0000e+000 102268  2.7508e+000 -4.6460e+000 -1.3339e+000 38322 102138,102190,102164
 2.0000e+000 102489 -4.8789e+000 -1.1386e+001  3.4330e-001 38032 102512,102388,102362
 2.0000e+000 102466 -4.1493e+000 -1.1245e+001  3.0686e-001 38032 102512,102362,102440
 2.0000e+000 102538 -4.0472e+000 -1.1699e+001  4.5327e-001 38032 102414,102388,102512
 2.0000e+000 102561 -3.1056e+000 -1.1410e+001  4.6339e-001 38032 102414,102512,102440
 2.0000e+000 102894 -2.0891e+000 -2.9724e+000  5.7723e-002 37592 102669,102773,102695
 2.0000e+000 102871 -3.1279e+000 -2.3320e+000  2.3790e+000 37592 102669,102799,102773
 2.0000e+000 102848 -5.6371e-001  3.4164e+000  2.3551e+000 37592 102721,102773,102747
 2.0000e+000 102825 -9.0907e-001 -2.6076e+000  5.1066e-001 37592 102695,102773,102721
 2.0000e+000 103093 -2.5637e+000 -6.7706e+000  1.0285e+000 37188 102917,102995,102943
 2.0000e+000 103070 -8.6395e-001 -7.8990e+000 -2.1383e+000 37188 102917,103021,102995
 2.0000e+000 103047  2.1843e+000 -1.3272e+000 -1.3919e+000 37188 102943,102995,102969
 2.0000e+000 103341  3.9886e+000  9.5688e-001 -1.7629e+000 36605 103142,103194,103168
 2.0000e+000 103318  2.1650e+000 -1.3257e+000 -3.3202e-001 36605 103142,103220,103194
 2.0000e+000 103295  2.4357e-002 -8.8833e-001  1.6738e-002 36605 103116,103220,103142
 2.0000e+000 103272 -4.0654e-001 -6.2434e+000  3.1567e+000 36605 103116,103246,103220
 2.0000e+000 103949 -3.0654e+000 -5.1153e+000  8.4357e-001 36127 103554,103606,103580
 2.0000e+000 103926 -3.3822e+000 -2.6299e+000  4.4376e-002 36127 103528,103606,103554
 2.0000e+000 103903 -3.9129e+000 -5.1508e+000 -1.3114e+000 36127 103528,103736,103606
 2.0000e+000 103880 -4.8901e+000 -7.8163e+000 -5.3634e-001 36127 103972,103710,103632
 2.0000e+000 103857 -7.1053e+000 -1.2826e+001 -4.9029e+000 36127 103972,103632,103606
 2.0000e+000 103834 -2.8911e+000 -3.2396e+000  4.2649e-001 36127 103632,103710,103658
 2.0000e+000 103811 -3.7118e+000 -1.4252e+000 -4.6368e+000 36127 103528,103762,103736
 2.0000e+000 103788 -1.3557e+000 -7.8048e-002 -2.3871e-001 36127 103658,103710,103684
 2.0000e+000 103998 -1.1051e+000 -2.9526e+000  3.0608e+000 36127 103736,103710,103972
 2.0000e+000 104021 -3.8359e+000 -7.7712e+000 -1.4162e+000 36127 103736,103972,103606
 2.0000e+000 104220 -6.3976e+000 -8.4070e+000  7.1811e-001 35787 104070,104148,104122
 2.0000e+000 104197 -7.4007e+000 -4.7700e+000  1.3174e+000 35787 104044,104148,104070
 2.0000e+000 104174 -6.6382e+000 -3.6379e+000 -2.5383e+000 35787 104070,104122,104096
 2.0000e+000 104419 -6.0386e+000 -9.4481e+000  6.3452e-001 35440 104269,104321,104295
 2.0000e+000 104396 -3.0655e+000 -8.2909e+000  6.2253e-001 35440 104269,104347,104321
 2.0000e+000 104373 -3.6684e+000 -8.2637e+000  4.6184e-001 35440 104243,104347,104269
 2.0000e+000 104718 -2.0430e+000 -4.2630e+000 -1.3301e-001 34986 104496,104548,104522
 2.0000e+000 104695 -2.9630e+000 -5.1847e+000  6.5611e-001 34986 104741,104548,104496
 2.0000e+000 104672 -3.3214e+000 -6.5720e+000  1.7472e-001 34986 104741,104496,104444
 2.0000e+000 104649 -3.0354e+000 -6.4571e+000 -3.5603e-001 34986 104813,104574,104548
 2.0000e+000 104626 -4.0332e+000 -8.1765e+000  3.9845e-001 34986 104444,104496,104470
 2.0000e+000 104767 -2.9795e+000 -6.4815e+000  5.2452e-001 34986 104813,104548,104741
 2.0000e+000 104790 -3.0667e+000 -6.7593e+000  1.4251e-001 34986 104600,104741,104444
 2.0000e+000 104839 -5.5098e+000 -8.9602e+000 -1.4067e+000 34986 104600,104574,104813
 2.0000e+000 104862 -3.9770e+000 -6.9113e+000 -7.9130e-002 34986 104600,104813,104741
 2.0000e+000 105014 -4.5552e+000 -9.5559e+000  6.8520e-001 34696 105169,105037,104913
 2.0000e+000 104991 -5.5147e+000 -1.1078e+001  1.8308e-001 34696 105169,104913,104887
 2.0000e+000 105063 -5.1635e+000 -1.1471e+001  1.1517e-001 34696 104939,104913,105037
 2.0000e+000 105195 -4.1189e+000 -8.8319e+000  2.0510e+000 34696 104965,105037,105169
 2.0000e+000 105218 -4.9040e+000 -9.9913e+000  1.5847e+000 34696 104965,105169,104887
 2.0000e+000 105368 -4.6316e+000 -8.8482e+000  7.7698e-002 34384 105267,105319,105293
 2.0000e+000 105345 -4.4941e+000 -8.7632e+000  1.2370e-001 34384 105241,105319,105267
 2.0000e+000 105616 -2.4279e+000 -4.7200e+000 -9.9397e-002 33730 105639,105417,105391
 2.0000e+000 105593 -8.6918e-001 -5.4744e+000 -1.4631e+000 33730 105639,105391,105495
 2.0000e+000 105570 -3.4196e+000 -8.6983e+000 -1.4612e-001 33730 105391,105521,105495
 2.0000e+000 105547 -1.0948e+000 -5.9447e+000  1.0212e+000 33730 105417,105469,105443
 2.0000e+000 105665 -8.5886e-001 -5.0246e+000 -6.1816e-001 33730 105469,105417,105639
 2.0000e+000 105688  3.1402e+000 -3.8477e+000 -2.2796e+000 33730 105469,105639,105495
 2.0000e+000 105840 -4.6020e+000 -9.4349e+000  4.0608e-001 33390 105713,105765,105739
 2.0000e+000 105817 -4.3595e+000 -8.5459e+000 -2.4378e-001 33390 105713,105791,105765
 2.0000e+000 106090 -3.7948e+000 -7.4409e+000 -1.2948e-001 33043 106113,105943,105891
 2.0000e+000 106067 -3.1036e+000 -7.3332e+000 -3.4622e-001 33043 106113,105891,105865
 2.0000e+000 106044 -4.9604e+000 -7.6475e+000 -3.5092e-001 33043 105891,105943,105917
 2.0000e+000 106021 -4.0999e+000 -8.6731e+000  7.8080e-001 33043 105865,105995,105969
 2.0000e+000 106139 -5.4407e+000 -7.7080e+000  4.1744e-001 33043 105969,105943,106113
 2.0000e+000 106162 -3.7336e+000 -6.9679e+000  1.6311e-001 33043 105969,106113,105865
 2.0000e+000 106412  4.3158e-001 -1.3523e+000  5.3594e-001 32539 106435,106291,106239
 2.0000e+000 106389 -1.1344e+000 -2.2512e+000 -1.4342e-001 32539 106187,106317,106291
 2.0000e+000 106366  1.2496e-001  1.5051e+000  4.7959e+000 32539 106435,106239,106213
 2.0000e+000 106343  3.6354e-001 -5.3108e-001  6.3520e-001 32539 106239,106291,106265
 2.0000e+000 106461 -1.8611e+000 -2.6178e+000 -5.0010e-003 32539 106187,106291,106435
 2.0000e+000 106484 -4.5990e+000 -9.3641e-001  3.9074e+000 32539 106187,106435,106213
 2.0000e+000 106685 -2.9370e+000 -6.9924e+000  5.9060e-001 31835 106535,106587,106561
 2.0000e+000 106662 -2.8808e+000 -7.3842e+000 -1.8356e-001 31835 106509,106587,106535
 2.0000e+000 106639 -5.1173e+000 -7.7039e+000  2.3496e-001 31835 106509,106613,106587
 2.0000e+000 106935 -1.1629e+000 -5.7837e+000 -2.4012e+000 31530 106736,106814,106788
 2.0000e+000 106912 -2.3779e+000 -5.6115e+000 -1.6931e+000 31530 106710,106814,106736
 2.0000e+000 106889 -2.6825e+000 -3.6594e+000 -2.9341e+000 31530 106736,106788,106762
 2.0000e+000 106866 -5.9132e+000 -6.9765e+000 -1.7857e+000 31530 106710,106840,106814
 2.0000e+000 107339 -7.1833e+000 -3.1758e+000 -1.1228e-001 31026 107117,107221,107195
 2.0000e+000 107316 -6.0047e+000 -5.6795e+000  6.2024e-001 31026 107091,107221,107117
 2.0000e+000 107293 -6.1855e+000 -5.8539e+000  4.6816e-001 31026 107065,107221,107091
 2.0000e+000 107270 -6.9522e+000  1.4426e+000 -2.7300e-001 31026 107143,107195,107169
 2.0000e+000 107247 -9.3164e+000 -4.2427e+000 -6.3486e-001 31026 107117,107195,107143
 2.0000e+000 107538 -4.5861e+000 -1.0031e+001  6.4831e-002 30714 107561,107388,107362
 2.0000e+000 107515 -4.8131e+000 -1.0428e+001  1.7598e-001 30714 107561,107362,107466
 2.0000e+000 107492 -5.9537e+000 -1.1770e+001  2.7334e-001 30714 107414,107466,107440
 2.0000e+000 107587 -4.9131e+000 -9.4207e+000  3.9305e-002 30714 107414,107388,107561
 2.0000e+000 107610 -5.2073e+000 -9.9128e+000  1.7188e-001 30714 107414,107561,107466
 2.0000e+000 107990 -4.5941e+000 -8.9454e+000  2.8685e-001 30260 108013,107846,107768
 2.0000e+000 107967 -4.5993e+000 -8.9288e+000 -2.0386e-001 30260 108013,107768,107716
 2.0000e+000 107944 -3.5339e+000 -1.1067e+001  7.0159e-002 30260 107716,107768,107742
 2.0000e+000 107921 -6.3363e+000 -1.0738e+001 -4.6823e-001 30260 107768,107846,107820
 2.0000e+000 107898 -5.3183e+000 -1.0506e+001 -4.3357e-001 30260 107768,107820,107794
 2.0000e+000 108039 -4.0570e+000 -8.7518e+000  3.5665e-001 30260 107872,107846,108013
 2.0000e+000 108062 -4.3174e+000 -8.8596e+000 -1.2906e-001 30260 107872,108013,107716
 2.0000e+000 108261 -6.0555e+000 -1.1126e+001 -1.1069e+000 29870 108284,108085,108163
 2.0000e+000 108238 -9.2158e+000 -8.7598e+000 -3.0051e+000 29870 108085,108189,108163
 2.0000e+000 108215  4.8895e-001 -6.7244e+000  9.9779e-001 29870 108284,108163,108137
 2.0000e+000 108310 -9.2201e+000 -5.7425e+000  1.4066e+000 29870 108111,108085,108284
 2.0000e+000 108333 -6.3459e+000 -3.1975e+000  2.5685e+000 29870 108111,108284,108137
 2.0000e+000 108664 -2.5066e+000 -4.6291e+000  3.5464e-002 29480 108465,108569,108543
 2.0000e+000 108641 -2.6891e+000 -4.9041e+000 -3.1394e-001 29480 108439,108569,108465
 2.0000e+000 108618 -8.6174e-001 -4.9225e+000  5.3316e-001 29480 108465,108543,108491
 2.0000e+000 108595 -3.1005e+000 -5.3100e+000  6.1817e-002 29480 108491,108543,108517
 2.0000e+000 108993 -1.7255e-001 -3.4846e+000  3.9454e+000 29076 108794,108872,108820
 2.0000e+000 108970 -3.6317e+000 -6.8219e+000  1.1297e+000 29076 108768,108872,108794
 2.0000e+000 108947  1.3226e+000 -2.6389e+000  3.0533e+000 29076 108820,108872,108846
 2.0000e+000 108924 -4.4109e+000 -6.9901e+000  1.7045e+000 29076 108768,108898,108872
 2.0000e+000 109420 -1.6181e+000 -4.0024e+000 -7.9945e-001 28472 109123,109227,109201
 2.0000e+000 109397 -5.2070e+000 -4.9034e+000 -2.7715e-001 28472 109123,109253,109227
 2.0000e+000 109374 -2.7206e+000 -4.2640e+000 -2.2819e-001 28472 109123,109201,109175
 2.0000e+000 109351 -3.1563e+000 -5.2658e+000 -7.9273e-001 28472 109123,109279,109253
 2.0000e+000 109328 -2.8889e+000 -3.9628e+000 -6.5008e-001 28472 109123,109175,109149
 2.0000e+000 109305 -2.1675e+000 -5.4506e+000 -1.2573e-001 28472 109097,109279,109123
 2.0000e+000 109749 -5.2193e+000  5.9160e-001 -2.3805e+000 28018 109772,109602,109576
 2.0000e+000 109726 -4.9647e+000 -1.0307e+000 -1.5319e+000 28018 109772,109576,109550
 2.0000e+000 109703 -6.1794e+000 -4.2117e+000 -4.3926e+000 28018 109524,109628,109550
 2.0000e+000 109680 -4.0507e+000 -6.8473e+000  2.2817e-001 28018 109524,109654,109628
 2.0000e+000 109798 -6.6487e+000 -3.2786e-001 -1.1414e+000 28018 109628,109602,109772
 2.0000e+000 109821 -5.2472e+000 -2.0446e+000 -7.6614e-001 28018 109628,109772,109550
 2.0000e+000 110199 -3.2974e+000 -8.7334e+000  7.4665e-001 27564 110029,110081,110055
 2.0000e+000 110176 -3.9409e+000 -7.9604e+000 -1.0104e-001 27564 109925,110081,110029
 2.0000e+000 110153 -4.1340e+000 -7.5288e+000 -1.9769e-001 27564 109925,110029,109977
 2.0000e+000 110130 -4.4837e+000 -7.7590e+000 -7.1037e-001 27564 109977,110029,110003
 2.0000e+000 110107 -4.8271e+000 -8.1783e+000 -1.0223e+000 27564 109925,109977,109951
 2.0000e+000 110398  3.3118e+000 -6.4282e-001  1.1322e-001 27003 110248,110326,110300
 2.0000e+000 110375  2.4646e+000 -4.0451e+000  1.4027e-001 27003 110222,110326,110248
 2.0000e+000 110352  1.8682e+000 -9.3237e-001  4.3858e-001 27003 110248,110300,110274
 2.0000e+000 110646 -3.0281e+000 -5.4440e+000  3.1452e+000 26563 110669,110473,110421
 2.0000e+000 110623 -1.2986e+000 -1.0357e+001  4.9235e+000 26563 110669,110421,110551
 2.0000e+000 110600  2.3803e-001 -5.1531e+000  3.0287e+000 26563 110473,110525,110499
 2.0000e+000 110577 -4.4452e+000 -8.1096e+000  4.3982e+000 26563 110421,110473,110447
 2.0000e+000 110695 -2.0937e+000 -4.3788e+000  3.6242e+000 26563 110525,110473,110669
 2.0000e+000 110718  1.1165e+000 -5.7842e+000  6.0340e+000 26563 110525,110669,110551
 2.0000e+000 110870 -5.4044e+000 -6.3285e+000 -1.2028e+000 26166 110769,110821,110795
 2.0000e+000 110847 -3.3166e+000 -6.0331e+000 -4.4888e-003 26166 110743,110821,110769
 2.0000e+000 111380 -4.6288e+000 -9.0274e+000 -3.2786e-001 25712 111403,111109,111083
 2.0000e+000 111357 -4.4749e+000 -9.8123e+000  4.4328e-002 25712 111403,111083,111239
 2.0000e+000 111334 -3.5810e+000 -8.9089e+000 -1.1491e+000 25712 111109,111161,111135
 2.0000e+000 111311 -3.5446e+000 -9.9084e+000 -6.0318e-001 25712 111057,111239,111083
 2.0000e+000 111288 -5.2209e+000 -9.6354e+000  1.5884e+000 25712 111161,111239,111187
 2.0000e+000 111265 -4.8138e+000 -8.2245e+000  4.7298e-001 25712 111187,111239,111213
 2.0000e+000 111429 -4.7410e+000 -8.3689e+000 -3.4625e-001 25712 111161,111109,111403
 2.0000e+000 111452 -4.5388e+000 -9.0400e+000  9.2777e-002 25712 111161,111403,111239
 2.0000e+000 111651 -5.0143e+000 -1.0268e+001 -8.2286e-002 25300 111674,111501,111475
 2.0000e+000 111628 -4.8123e+000 -1.0368e+001 -1.3397e-001 25300 111674,111475,111579
 2.0000e+000 111605 -4.7857e+000 -9.9156e+000  6.2722e-001 25300 111501,111553,111527
 2.0000e+000 111700 -4.8337e+000 -1.0279e+001 -1.2644e-002 25300 111553,111501,111674
 2.0000e+000 111723 -4.5697e+000 -1.0324e+001 -4.5479e-002 25300 111553,111674,111579
 2.0000e+000 111922  2.0399e+000 -2.8751e+000  5.5950e-001 24732 111798,111850,111824
 2.0000e+000 111899  1.4655e+000 -6.3121e-001 -1.1821e+000 24732 111772,111850,111798
 2.0000e+000 111876 -1.3678e+000 -9.7737e-001 -1.0876e+000 24732 111746,111850,111772
 2.0000e+000 112255 -5.1356e+000 -1.0648e+001  4.5621e-001 24142 112056,112108,112082
 2.0000e+000 112232 -5.2774e+000 -1.0011e+001  1.2462e-001 24142 112056,112134,112108
 2.0000e+000 112209 -4.2141e+000 -8.4061e+000 -3.3765e-001 24142 112056,112160,112134
 2.0000e+000 112186 -3.4404e+000 -8.9638e+000 -8.3796e-001 24142 112030,112160,112056
 2.0000e+000 112601 -8.1084e+000 -6.1461e+000  4.2178e+000 23852 112624,112382,112356
 2.0000e+000 112578 -8.5043e+000 -5.8622e+000  3.7684e+000 23852 112696,112624,112356
 2.0000e+000 112555 -8.6164e+000 -5.8206e+000  3.9629e+000 23852 112696,112356,112304
 2.0000e+000 112532 -9.7775e+000 -4.7038e+000  4.1017e+000 23852 112304,112356,112330
 2.0000e+000 112509 -7.3127e+000 -4.0262e+000  4.5369e+000 23852 112278,112460,112304
 2.0000e+000 112486 -1.2881e+000 -5.1784e+000  2.7406e+000 23852 112382,112434,112408
 2.0000e+000 112650 -3.4818e+000 -5.3317e+000  5.2240e+000 23852 112434,112382,112624
 2.0000e+000 112673 -7.8398e+000 -8.5550e+000  3.7782e+000 23852 112434,112624,112460
 2.0000e+000 112722 -8.8552e+000 -6.0523e+000  3.6409e+000 23852 112460,112624,112696
 2.0000e+000 112745 -8.8888e+000 -5.9148e+000  3.8513e+000 23852 112460,112696,112304
 2.0000e+000 113015 -1.1490e+001  5.2544e+000 -2.3375e+000 23490 112842,112894,112868
 2.0000e+000 112992 -9.6130e+000 -1.2410e+000 -2.1445e+000 23490 112816,112894,112842
 2.0000e+000 112969 -9.3409e+000 -1.0745e+000 -3.2847e-001 23490 112790,112894,112816
 2.0000e+000 112946 -9.9837e+000 -2.8905e+000 -3.8862e-001 23490 112790,112920,112894
 2.0000e+000 113348 -4.3175e+000 -4.8166e+000 -1.0509e+000 22970 113175,113253,113227
 2.0000e+000 113325 -4.1903e+000 -6.7357e+000 -2.8052e-001 22970 113149,113253,113175
 2.0000e+000 113302 -5.5349e+000 -8.7046e+000 -1.9704e+000 22970 113175,113227,113201
 2.0000e+000 113279 -3.2718e+000 -4.7790e+000 -2.9148e-002 22970 113123,113253,113149
 2.0000e+000 113645 -3.5332e+000 -6.7824e+000 -5.5802e-001 22366 113423,113527,113449
 2.0000e+000 113622 -3.6221e+000 -6.4350e+000 -5.0780e-001 22366 113371,113527,113423
 2.0000e+000 113599 -3.3491e+000 -6.4750e+000 -1.0817e+000 22366 113449,113527,113501
 2.0000e+000 113576 -3.3835e+000 -7.9188e+000 -6.1750e-001 22366 113449,113501,113475
 2.0000e+000 113553 -3.0176e+000 -4.2209e+000  2.4002e-001 22366 113371,113423,113397
 2.0000e+000 113893 -3.1229e+000 -6.7635e+000 -1.2004e+000 21912 113916,113746,113720
 2.0000e+000 113870 -2.0523e+000 -5.5213e+000 -7.4536e-001 21912 113916,113720,113668
 2.0000e+000 113847  1.3018e+000 -6.2681e+000  2.5782e+000 21912 113988,113798,113772
 2.0000e+000 113824 -2.6704e+000 -6.7145e+000 -1.4909e+000 21912 113668,113720,113694
 2.0000e+000 113942 -1.8059e+000 -3.4297e+000 -1.2412e+000 21912 113772,113746,113916
 2.0000e+000 113965 -9.6644e-001 -2.6485e+000  3.7878e-001 21912 113988,113772,113916
 2.0000e+000 114014 -3.4369e-001 -1.0957e+001  6.0343e-001 21912 113668,113798,113988
 2.0000e+000 114037 -2.9890e+000 -8.3509e+000 -4.9310e-001 21912 113668,113988,113916
 2.0000e+000 114287 -1.4323e+000 -6.5119e+000 -4.1788e-001 21408 114088,114140,114114
 2.0000e+000 114264 -8.9635e-001 -5.6622e+000 -6.5793e-001 21408 114310,114140,114088
 2.0000e+000 114241 -9.0742e-001 -5.5599e+000 -8.1879e-001 21408 114310,114088,114192
 2.0000e+000 114218 -2.5820e+000 -6.9380e+000 -1.4197e+000 21408 114062,114192,114088
 2.0000e+000 114336 -8.9680e-001 -5.9044e+000 -6.4035e-001 21408 114166,114140,114310
 2.0000e+000 114359 -8.8637e-001 -5.7163e+000 -7.7209e-001 21408 114166,114310,114192
 2.0000e+000 114609  1.8235e-001 -9.1798e-001  6.3309e-001 21018 114632,114488,114436
 2.0000e+000 114586 -6.3425e-001 -1.0316e+000 -6.2932e-001 21018 114632,114436,114410
 2.0000e+000 114563 -1.0238e+000 -9.4171e-001 -4.9675e-002 21018 114384,114514,114410
 2.0000e+000 114540 -1.1668e+000 -8.2422e-002  9.5749e-001 21018 114436,114488,114462
 2.0000e+000 114658  1.9452e+000 -4.7548e-001  1.1618e+000 21018 114514,114488,114632
 2.0000e+000 114681  6.8474e-001 -7.4944e-001 -5.6698e-002 21018 114514,114632,114410
 2.0000e+000 114882 -4.0706e+000 -8.5400e+000 -2.8399e-001 20614 114732,114784,114758
 2.0000e+000 114859 -5.1453e+000 -9.0128e+000 -1.9563e-001 20614 114732,114810,114784
 2.0000e+000 114836 -5.0638e+000 -8.1423e+000  7.9547e-002 20614 114706,114810,114732
 2.0000e+000 115132 -3.1245e+000 -7.9779e+000  1.5730e-001 20110 114907,115011,114933
 2.0000e+000 115109 -4.0223e+000 -8.4903e+000  3.8700e-001 20110 114907,115037,115011
 2.0000e+000 115086 -3.5068e+000 -7.8396e+000  1.9326e-001 20110 114933,115011,114985
 2.0000e+000 115063 -1.1089e+000 -8.0883e+000  1.1667e+000 20110 114933,114985,114959
 2.0000e+000 115284 -3.2426e+000 -6.3053e+000 -2.2808e-002 19456 115378,115307,115157
 2.0000e+000 115261 -3.8736e+000 -5.5130e+000 -2.3476e-001 19456 115378,115157,115235
 2.0000e+000 115333 -3.5152e+000 -6.9549e+000  4.1436e-002 19456 115183,115157,115307
 2.0000e+000 115404 -3.7617e+000 -7.4923e+000 -2.4211e-001 19456 115209,115307,115378
 2.0000e+000 115427 -4.3351e+000 -6.5611e+000 -5.0448e-001 19456 115209,115378,115235
 2.0000e+000 115677 -4.6093e+000 -9.9609e+000 -1.4846e-001 19002 115504,115582,115530
 2.0000e+000 115654 -4.5723e+000 -9.8865e+000 -1.1534e-001 19002 115478,115582,115504
 2.0000e+000 115631 -4.2960e+000 -9.7172e+000  2.7809e-001 19002 115452,115582,115478
 2.0000e+000 115608 -5.7248e+000 -9.9261e+000  8.9635e-001 19002 115530,115582,115556
 2.0000e+000 115998  1.6534e+000  1.0255e+000 -3.0179e-001 18712 115802,115880,115854
 2.0000e+000 115975  2.3213e+000  2.1294e+000 -1.7703e-003 18712 115724,115880,115802
 2.0000e+000 115952  2.1979e+000  9.6571e-001 -2.2678e-002 18712 115724,115802,115776
 2.0000e+000 115929  2.3432e+000  1.7993e+000 -4.9830e-001 18712 115724,115776,115750
 2.0000e+000 115906  9.5059e-001  8.1454e-001 -1.1646e-001 18712 115802,115854,115828
 2.0000e+000 116270 -9.6218e+000 -8.2669e+000  1.8919e+000 18308 116045,116123,116071
 2.0000e+000 116247 -7.4889e+000 -4.0975e+000  3.5972e+000 18308 116045,116175,116123
 2.0000e+000 116224 -1.1419e+001 -2.6172e+000  2.7442e+000 18308 116123,116175,116149
 2.0000e+000 116201 -6.0227e+000 -5.0544e+000 -5.5836e-001 18308 116071,116123,116097
 2.0000e+000 116422 -4.6332e+000 -1.1408e+001 -5.9892e-002 17996 116321,116373,116347
 2.0000e+000 116399 -4.8462e+000 -1.1129e+001 -2.5147e-001 17996 116295,116373,116321
 2.0000e+000 116574 -1.0862e-001  5.3239e-001 -1.0391e-001 17392 116473,116525,116499
 2.0000e+000 116551  3.4410e-002  1.6387e+000  4.0105e-001 17392 116447,116525,116473
 2.0000e+000 116797 -1.4673e+000 -6.5832e+000 -6.8033e-003 16938 116621,116699,116673
 2.0000e+000 116774  9.7478e-002 -6.8254e+000 -1.3964e-001 16938 116621,116725,116699
 2.0000e+000 116751 -1.5975e+000 -6.8873e+000 -8.5503e-002 16938 116621,116673,116647
 2.0000e+000 116998 -4.7414e-001  5.2075e-001  1.8421e-001 16434 117021,116874,116848
 2.0000e+000 116975 -4.5021e-001  3.0096e-002  8.8523e-002 16434 117021,116848,116822
 2.0000e+000 116952 -8.8610e-002  9.7973e-001  3.5213e-001 16434 116874,116926,116900
 2.0000e+000 117047 -3.7890e-001  1.6106e-001  3.4741e-001 16434 116926,116874,117021
 2.0000e+000 117070 -3.6792e-001 -2.0154e-001  4.0112e-001 16434 116926,117021,116822
 2.0000e+000 117293 -3.9110e+000 -9.3256e+000 -2.8364e-001 16070 117117,117169,117143
 2.0000e+000 117270 -4.8706e+000 -9.7761e+000 -1.5398e-001 16070 117117,117221,117169
 2.0000e+000 117247 -5.1669e+000 -1.0198e+001 -2.8330e-001 16070 117169,117221,117195
 2.0000e+000 117445 -1.2105e+001 -7.7601e+000 -1.0662e+000 15645 117318,117370,117344
 2.0000e+000 117422 -1.4621e+001 -9.2617e+000  9.1275e-002 15645 117318,117396,117370
 2.0000e+000 117548 -4.7926e+000 -8.4153e+000 -1.4058e+000 417 117470,117522,117496
