time zIndex S11 S22 S12 block gridPoints
f i f f f i l
 1.0000e-001 66549  1.4461e+000  5.2012e+000 -4.0633e-001 66104 66350,66454,66428
 1.0000e-001 66526  1.3762e-001  4.6782e+000 -6.3906e-001 66104 66324,66454,66350
 1.0000e-001 66503  3.6131e-001  5.9934e+000  1.4839e-001 66104 66350,66428,66402
 1.0000e-001 66480 -1.1028e+000  5.6305e+000 -2.6060e-001 66104 66350,66402,66376
 1.0000e-001 66947  1.1776e+000  5.9161e+000  6.3301e-001 65906 66699,66829,66803
 1.0000e-001 66924 -1.0401e+000  5.8783e+000  7.1593e-002 65906 66673,66829,66699
 1.0000e-001 66901  7.2896e-001  5.0755e+000 -5.1974e-001 65906 66725,66777,66751
 1.0000e-001 66878 -1.3450e-001  4.7201e+000 -7.0696e-001 65906 66725,66803,66777
 1.0000e-001 66855 -2.6397e-001  2.5075e+000 -4.7566e-001 65906 66699,66803,66725
 1.0000e-001 67146 -1.4795e+000  3.6367e+000  1.3480e+000 65708 67022,67074,67048
 1.0000e-001 67123 -1.9274e-001  5.3749e+000  6.4300e-001 65708 66970,67074,67022
 1.0000e-001 67100 -1.8928e-001  4.3214e+000  2.0788e+000 65708 66970,67022,66996
 1.0000e-001 67477  5.9444e-001  2.4032e+000  1.8483e-001 65418 67278,67356,67330
 1.0000e-001 67454  1.2003e+000  3.1034e+000  4.4187e-001 65418 67278,67382,67356
 1.0000e-001 67431  1.6367e+000  3.0685e+000 -1.2477e-001 65418 67278,67330,67304
 1.0000e-001 67408  6.2844e-001  5.8534e+000  1.4705e+000 65418 67252,67382,67278
 1.0000e-001 68111  5.8187e-001  2.4796e+000  6.7289e-002 65014 67791,67921,67869
 1.0000e-001 68088  3.8751e-001  2.3997e+000  2.2198e-002 65014 67765,67921,67791
 1.0000e-001 68065  5.6672e-001  3.7929e+000  1.8731e-001 65014 67869,67921,67895
 1.0000e-001 68042  1.8204e-001  2.7289e+000 -7.7783e-002 65014 67765,67947,67921
 1.0000e-001 68019  1.7840e+000  4.4005e+000 -4.4359e-001 65014 67791,67869,67817
 1.0000e-001 67996 -2.7254e-001  3.4152e+000 -1.3983e-001 65014 67817,67869,67843
 1.0000e-001 67973  2.3755e-001  2.8914e+000  7.4001e-002 65014 67739,67947,67765
 1.0000e-001 68359  1.1884e+000  1.2793e+001 -3.7795e-001 64816 68186,68238,68212
 1.0000e-001 68336  2.8745e+000  1.2314e+001 -7.8474e-001 64816 68186,68264,68238
 1.0000e-001 68313  1.1358e+000  1.1483e+001 -1.7514e+000 64816 68160,68264,68186
 1.0000e-001 68290  1.0295e+000  9.4516e+000  3.8392e-001 64816 68134,68264,68160
 1.0000e-001 68509 -1.0489e+000  2.0572e+000 -1.7847e+000 64362 68864,68532,68434
 1.0000e-001 68486 -3.1612e-001  2.9564e+000 -3.0998e-001 64362 68532,68408,68382
 1.0000e-001 68558  1.0129e+000  4.1291e+000 -5.6965e-001 64362 68736,68532,68460
 1.0000e-001 68581  1.2583e-001  3.0341e+000 -4.9651e-001 64362 68604,68532,68382
 1.0000e-001 68630  1.5302e+000  5.2932e+000  2.2661e-001 64362 68460,68532,68604
 1.0000e-001 68762 -1.9132e+000  2.5969e+000  5.1676e-002 64362 68434,68532,68736
 1.0000e-001 68890  1.9142e+000  3.8931e+000 -5.3193e-001 64362 68408,68532,68864
 1.0000e-001 69168  1.6040e+000  8.7481e+000 -1.8311e-001 64164 69018,69070,69044
 1.0000e-001 69145  1.3372e+000  9.2616e+000 -1.2155e-001 64164 68992,69070,69018
 1.0000e-001 69122  1.7712e+000  1.0287e+001 -1.3831e-001 64164 68992,69096,69070
 1.0000e-001 69367  7.4590e-001  3.6131e+000 -2.7969e-001 63966 69462,69390,69269
 1.0000e-001 69344  2.1201e+000  7.7844e+000 -6.5432e-001 63966 69390,69243,69217
 1.0000e-001 69321  9.5195e-001  5.1202e+000 -1.8562e-001 63966 69191,69295,69217
 1.0000e-001 69416  9.2853e-001  6.1249e+000 -2.5901e-001 63966 69295,69269,69390
 1.0000e-001 69439  1.5287e+000  6.1242e+000 -6.2912e-001 63966 69295,69390,69217
 1.0000e-001 69488  3.7983e+000  8.4223e+000  1.0270e+000 63966 69243,69390,69462
 1.0000e-001 69900 -3.2779e+000  4.5127e+000  1.1777e+000 63676 69701,69779,69727
 1.0000e-001 69877 -3.4419e-001  5.9438e+000  6.9290e-001 63676 69675,69779,69701
 1.0000e-001 69854  4.7619e-001  6.0430e+000  5.3462e-001 63676 69675,69805,69779
 1.0000e-001 69831 -3.9357e+000  8.8411e+000  2.6265e+000 63676 69727,69779,69753
 1.0000e-001 70050  1.4312e-001  8.2583e+000  3.9214e-001 63472 70073,69949,69923
 1.0000e-001 70027 -2.7782e+000  7.3987e+000  1.3117e-001 63472 70073,69923,70001
 1.0000e-001 70099  2.4205e+000  7.8291e+000  7.5927e-001 63472 69975,69949,70073
 1.0000e-001 70122 -8.3230e-002  7.2631e+000  5.4759e-001 63472 69975,70073,70001
 1.0000e-001 70321 -1.0286e+000  8.3395e+000 -1.3778e-001 63274 70145,70223,70171
 1.0000e-001 70298 -4.7925e-001  8.8700e+000  3.1984e-001 63274 70145,70249,70223
 1.0000e-001 70275 -1.3961e+000  8.5653e+000 -5.8377e-001 63274 70171,70223,70197
 1.0000e-001 70593 -4.4914e-001  5.0951e+000  1.7638e-001 63076 70368,70472,70420
 1.0000e-001 70570 -1.4202e+000  6.4911e+000  2.2016e-002 63076 70368,70498,70472
 1.0000e-001 70547 -1.9334e+000  5.0767e+000  1.8622e+000 63076 70420,70472,70446
 1.0000e-001 70524  1.8461e-001  5.2979e+000  3.6366e-001 63076 70368,70420,70394
 1.0000e-001 70843  1.6346e-001  3.7452e+000 -1.7778e-002 62736 70866,70644,70618
 1.0000e-001 70820 -4.6064e-001  2.9104e+000  2.5742e-001 62736 70866,70618,70748
 1.0000e-001 70797 -1.5583e+000  3.6411e+000  7.6360e-001 62736 70644,70722,70696
 1.0000e-001 70774 -1.4248e+000  6.8649e+000  1.2911e+000 62736 70644,70696,70670
 1.0000e-001 70892 -4.9172e-001  4.2690e+000  4.9689e-001 62736 70722,70644,70866
 1.0000e-001 70915 -1.0025e+000  3.4539e+000  7.3595e-001 62736 70722,70866,70748
 1.0000e-001 71018 -4.0604e+000  4.2805e+000  2.3405e+000 62516 70940,70992,70966
 1.0000e-001 71219  1.2822e+000  1.1201e+001 -4.1340e-001 62226 71069,71147,71095
 1.0000e-001 71196 -8.1085e-001  1.0748e+001  1.6937e-001 62226 71043,71147,71069
 1.0000e-001 71173  7.1474e-001  1.2226e+001  3.3914e-002 62226 71095,71147,71121
 1.0000e-001 71857 -9.4905e-001  9.7205e-001 -9.5831e-001 61708 71511,71693,71667
 1.0000e-001 71834  4.0354e-002  2.9215e+000  2.4203e-001 61708 71485,71693,71511
 1.0000e-001 71811 -8.7537e-001  2.3372e+000 -3.3513e-002 61708 71880,71537,71511
 1.0000e-001 71788  6.3299e-002  2.2150e+000  1.6207e-002 61708 71880,71511,71667
 1.0000e-001 71765 -9.5272e-001  2.4678e+000  9.7558e-001 61708 71537,71615,71589
 1.0000e-001 71742  1.0497e+000  2.4163e+000 -3.9134e-002 61708 71615,71667,71641
 1.0000e-001 71719 -9.4036e-001  3.1476e+000 -2.5306e-001 61708 71537,71589,71563
 1.0000e-001 71906 -1.2801e-001  2.3241e+000  2.1354e-001 61708 71615,71537,71880
 1.0000e-001 71929  6.8523e-001  2.1549e+000  3.2837e-001 61708 71615,71880,71667
 1.0000e-001 72226  1.5925e+000  9.5814e+000  1.7011e-002 61204 72249,72056,72004
 1.0000e-001 72203  2.9892e-001  9.1026e+000 -8.4420e-001 61204 72249,72004,71978
 1.0000e-001 72180  7.2634e-001  7.3406e+000 -1.5762e+000 61204 71978,72108,72082
 1.0000e-001 72157  1.4509e+000  9.6704e+000  1.9579e-001 61204 72004,72056,72030
 1.0000e-001 72134  5.6152e-001  1.1321e+001 -1.8676e+000 61204 71952,72108,71978
 1.0000e-001 72275  3.1094e+000  9.1118e+000  3.6193e-001 61204 72082,72056,72249
 1.0000e-001 72298  1.7488e+000  8.9589e+000 -2.5594e-001 61204 72082,72249,71978
 1.0000e-001 72757  7.0699e-001  5.9090e+000  2.2883e-001 60800 72483,72613,72509
 1.0000e-001 72734  1.6956e+000  8.4800e+000 -9.0019e-002 60800 72483,72639,72613
 1.0000e-001 72711  6.7340e-001  8.2178e+000 -3.6631e-001 60800 72561,72613,72587
 1.0000e-001 72688  2.3615e+000  7.2263e+000 -5.7638e-001 60800 72509,72613,72561
 1.0000e-001 72665  4.1931e+000  1.1056e+001 -1.8693e+000 60800 72509,72561,72535
 1.0000e-001 72907 -5.0263e-001  2.6034e+000 -3.8408e-001 60552 72780,72832,72806
 1.0000e-001 72884  2.9574e-001  4.3558e+000 -6.8816e-001 60552 72780,72858,72832
 1.0000e-001 73464  8.7626e-001  6.5035e+000 -6.9889e-002 60240 73487,73222,73196
 1.0000e-001 73441  1.1200e+000  6.0257e+000 -6.8101e-001 60240 73559,73487,73196
 1.0000e-001 73418  1.4829e+000  5.6820e+000 -6.7777e-001 60240 73559,73196,73170
 1.0000e-001 73395  2.5749e+000  6.4498e+000  1.1367e-001 60240 73222,73274,73248
 1.0000e-001 73372 -1.0526e-001  4.2946e+000 -1.4743e+000 60240 73118,73300,73274
 1.0000e-001 73349  2.0165e+000  8.8427e+000 -7.6409e-001 60240 73092,73300,73118
 1.0000e-001 73326  3.2415e+000  8.2475e+000 -2.4545e+000 60240 73118,73170,73144
 1.0000e-001 73513  1.9147e+000  6.7894e+000  2.7609e-001 60240 73274,73222,73487
 1.0000e-001 73536  1.4710e+000  6.4050e+000 -3.2340e-001 60240 73274,73487,73118
 1.0000e-001 73585  1.4877e+000  6.5509e+000 -4.4731e-001 60240 73118,73487,73559
 1.0000e-001 73608  1.7866e+000  6.1426e+000 -4.6293e-001 60240 73118,73559,73170
 1.0000e-001 73758 -2.2793e+000  1.5741e-002  6.4139e-002 59871 73657,73709,73683
 1.0000e-001 73735 -6.6059e-001 -1.0283e+000  4.0109e-001 59871 73631,73709,73657
 1.0000e-001 74187  1.7190e+000  1.2332e+001 -1.4233e-001 59474 74210,73890,73864
 1.0000e-001 74164  2.2322e+000  1.2419e+001 -2.7096e-001 59474 74210,73864,74046
 1.0000e-001 74141  1.3682e+000  1.1827e+001  2.2678e-001 59474 73890,73942,73916
 1.0000e-001 74118  1.4903e+000  1.1834e+001  1.8938e-001 59474 73890,73994,73942
 1.0000e-001 74095  3.6933e+000  1.2985e+001 -9.9197e-001 59474 73994,74046,74020
 1.0000e-001 74072  1.4806e+000  8.6554e+000  5.3811e-001 59474 73942,73994,73968
 1.0000e-001 74236  2.2011e+000  1.2040e+001 -3.4425e-003 59474 73994,73890,74210
 1.0000e-001 74259  2.6699e+000  1.2092e+001 -5.1044e-002 59474 73994,74210,74046
 1.0000e-001 74716  1.8483e+000  6.4305e+000  1.6507e-001 58770 74468,74598,74494
 1.0000e-001 74693  3.4289e+000  5.0948e+000 -9.4282e-001 58770 74442,74598,74468
 1.0000e-001 74670  1.1090e+000  3.9825e+000 -8.8991e-001 58770 74494,74572,74520
 1.0000e-001 74647  2.9866e+000  6.5340e+000  8.6712e-001 58770 74494,74598,74572
 1.0000e-001 74624  2.8322e+000  4.8740e+000  6.8006e-001 58770 74520,74572,74546
 1.0000e-001 75222  1.2326e+000  8.3013e+000 -4.2968e-002 58266 74951,75081,75029
 1.0000e-001 75199  1.9177e+000  9.3754e+000  2.5752e-001 58266 74925,75081,74951
 1.0000e-001 75176  2.9296e+000  9.2342e+000 -1.3658e+000 58266 75029,75081,75055
 1.0000e-001 75153  2.6561e-001  8.7446e+000 -1.1828e-001 58266 74951,75003,74977
 1.0000e-001 75130  5.2784e-001  7.9832e+000  7.2064e-002 58266 74951,75029,75003
 1.0000e-001 75107 -1.4592e+000  8.3349e+000  3.9356e-001 58266 74899,75081,74925
 1.0000e-001 75421  1.5746e+000  1.0171e+001 -6.4482e-002 57826 75444,75297,75245
 1.0000e-001 75398  1.7589e+000  8.6516e+000  4.4957e-001 57826 75444,75245,75349
 1.0000e-001 75375  2.6927e+000  1.1562e+001  4.3165e-002 57826 75516,75297,75271
 1.0000e-001 75470  1.7738e+000  1.0774e+001 -8.4328e-002 57826 75323,75297,75444
 1.0000e-001 75493  2.4769e+000  1.0269e+001  5.9530e-001 57826 75323,75444,75349
 1.0000e-001 75542  5.5176e-001  9.5768e+000  9.2528e-001 57826 75245,75297,75516
 1.0000e-001 76257  6.3034e-001  4.5376e+000 -1.4271e+000 57422 76280,76093,76067
 1.0000e-001 76234  1.6803e+000  5.3013e+000 -3.5083e-001 57422 75885,76093,75911
 1.0000e-001 76211  2.3850e+000  5.6977e+000 -7.2717e-001 57422 76424,76280,76067
 1.0000e-001 76188  1.7130e+000  5.6610e+000 -2.2989e-002 57422 76352,75937,75911
 1.0000e-001 76165  2.6628e+000  5.3212e+000 -5.5406e-001 57422 76424,76067,76015
 1.0000e-001 76142  3.3189e+000  8.0242e+000  3.2645e-001 57422 76015,76067,76041
 1.0000e-001 76119 -4.0017e-001  4.6499e+000 -1.7442e+000 57422 75963,76015,75989
 1.0000e-001 76306  1.1932e+000  5.4859e+000 -3.2251e-001 57422 75911,76093,76280
 1.0000e-001 76329  1.9196e+000  5.3068e+000 -1.3235e-001 57422 76352,75911,76280
 1.0000e-001 76378  2.0692e+000  6.1926e+000  2.8446e-001 57422 75963,75937,76352
 1.0000e-001 76401  2.1668e+000  5.8246e+000  1.2261e-001 57422 75963,76352,76280
 1.0000e-001 76450  1.8086e+000  5.4666e+000 -5.5258e-001 57422 75963,76280,76424
 1.0000e-001 76473  2.3800e+000  5.3434e+000 -4.9156e-001 57422 75963,76424,76015
 1.0000e-001 76949  6.2060e-001  4.2777e+000  4.1197e-001 56904 76972,76707,76681
 1.0000e-001 76926  8.0411e-001  4.8011e+000  2.7314e-001 56904 77044,76972,76681
 1.0000e-001 76903  1.1891e+000  5.1864e+000  9.7036e-002 56904 77044,76681,76629
 1.0000e-001 76880  9.2033e-001  4.5016e+000  2.5238e-002 56904 76707,76785,76759
 1.0000e-001 76857  1.0195e+000  4.5046e+000  2.3938e-001 56904 76577,76785,76603
 1.0000e-001 76834  1.1732e+000  4.8809e+000  2.7190e-001 56904 76707,76759,76733
 1.0000e-001 76811  2.5207e+000  5.2400e+000  8.8090e-001 56904 76629,76681,76655
 1.0000e-001 76998  7.8619e-001  4.4845e+000  7.5232e-002 56904 76785,76707,76972
 1.0000e-001 77021  8.6732e-001  4.3951e+000  1.7693e-001 56904 76785,76972,76603
 1.0000e-001 77070  1.4011e+000  4.5150e+000  1.2588e-001 56904 76603,76972,77044
 1.0000e-001 77093  1.5832e+000  4.6724e+000  1.6924e-002 56904 76603,77044,76629
 1.0000e-001 77471  1.3546e+000  4.1940e+000  3.1235e-001 56542 77566,77494,77275
 1.0000e-001 77448  1.0209e+000  3.5176e+000 -8.0120e-003 56542 77494,77223,77353
 1.0000e-001 77425  1.5000e+000  4.4439e+000  1.9764e-001 56542 77566,77275,77249
 1.0000e-001 77402  1.8581e+000  3.3428e+000  1.2020e+000 56542 77197,77353,77223
 1.0000e-001 77379  1.3722e+000  4.4966e+000 -8.5027e-002 56542 77275,77327,77301
 1.0000e-001 77520  9.7276e-001  4.5388e+000  4.1925e-002 56542 77327,77275,77494
 1.0000e-001 77543  2.1204e-001  4.0840e+000  2.3105e-001 56542 77327,77494,77353
 1.0000e-001 77592  1.2917e+000  4.2602e+000 -1.5372e-001 56542 77223,77494,77566
 1.0000e-001 77615  1.6025e+000  5.0070e+000 -2.3497e-001 56542 77223,77566,77249
 1.0000e-001 77814  9.4093e-001  4.5108e+000  5.9919e-001 56038 77837,77690,77664
 1.0000e-001 77791  2.3586e-001  4.3766e+000  2.4469e-001 56038 77837,77664,77742
 1.0000e-001 77768  4.6297e-002  4.5356e+000  1.8775e-001 56038 77638,77742,77664
 1.0000e-001 77863  9.7194e-001  4.2147e+000  1.1558e-001 56038 77716,77690,77837
 1.0000e-001 77886  2.0989e-001  4.0878e+000 -2.3448e-001 56038 77716,77837,77742
 1.0000e-001 78345  4.1489e+000  1.1827e+001  1.5273e+000 55534 78071,78123,78097
 1.0000e-001 78322  1.4488e+000  9.1717e+000 -6.6454e-001 55534 78071,78201,78123
 1.0000e-001 78299 -1.4760e-001  1.1256e+001  1.7089e-001 55534 78071,78227,78201
 1.0000e-001 78276  1.7734e-001  8.8161e+000 -2.2020e+000 55534 78123,78175,78149
 1.0000e-001 78253  1.1113e+000  8.0694e+000 -1.3153e+000 55534 78123,78201,78175
 1.0000e-001 78802  8.1001e-001  5.1792e+000 -2.3312e-001 55030 78825,78632,78606
 1.0000e-001 78779  1.7493e+000  5.2535e+000 -6.5565e-001 55030 78897,78825,78606
 1.0000e-001 78756  9.0426e-002  5.8742e+000 -1.2067e+000 55030 78897,78606,78580
 1.0000e-001 78733  1.5425e+000  4.3212e+000 -1.0122e+000 55030 78554,78684,78658
 1.0000e-001 78710  2.7949e+000  7.5046e+000  2.6677e-001 55030 78528,78684,78554
 1.0000e-001 78851  1.9729e+000  6.9715e+000  4.8328e-001 55030 78658,78632,78825
 1.0000e-001 78874  1.7254e+000  4.6608e+000 -9.1397e-001 55030 78658,78825,78554
 1.0000e-001 78923  3.1499e-001  3.8973e+000 -1.6951e+000 55030 78554,78825,78897
 1.0000e-001 78946 -4.2402e-001  4.7246e+000 -2.3301e+000 55030 78554,78897,78580
 1.0000e-001 79403  1.1982e+000  5.7461e+000  4.4126e-001 54426 79426,79233,79155
 1.0000e-001 79380 -1.8027e+000  5.7414e+000  1.5635e+000 54426 79426,79155,79129
 1.0000e-001 79357  1.6467e+000  7.5730e+000 -1.1674e+000 54426 79233,79285,79259
 1.0000e-001 79334  1.2811e+000  4.7657e+000  3.8069e-001 54426 79181,79233,79207
 1.0000e-001 79311  1.8511e+000  5.0814e+000  5.5508e-001 54426 79155,79233,79181
 1.0000e-001 79452  1.9430e+000  5.9985e+000 -6.4235e-001 54426 79285,79233,79426
 1.0000e-001 79475  2.5906e-001  7.3064e+000  2.8649e-001 54426 79285,79426,79129
 1.0000e-001 79932  2.4339e+000  6.4625e+000  1.4844e-001 53915 79658,79762,79684
 1.0000e-001 79909  5.6936e+000  8.7383e+000 -1.1406e+000 53915 79658,79814,79762
 1.0000e-001 79886  4.2754e+000  9.3156e+000 -3.3988e+000 53915 79762,79814,79788
 1.0000e-001 79863  4.4447e+000  7.5390e+000 -1.1353e-001 53915 79710,79762,79736
 1.0000e-001 79840  3.9492e+000  7.2965e+000 -1.9426e-001 53915 79684,79762,79710
 1.0000e-001 80033  2.2900e+000  1.2899e+001  1.2185e-001 53667 79955,80007,79981
 1.0000e-001 80401  1.0517e+000  1.1060e+001 -1.5073e+000 53263 80104,80260,80234
 1.0000e-001 80378  3.1298e+000  1.3083e+001 -5.9445e-001 53263 80078,80260,80104
 1.0000e-001 80355  2.9952e+000  1.0159e+001 -5.9157e-001 53263 80104,80234,80130
 1.0000e-001 80332  3.3583e+000  1.1116e+001 -2.2862e-001 53263 80130,80208,80182
 1.0000e-001 80309  4.8970e+000  1.1261e+001 -4.3927e-002 53263 80130,80234,80208
 1.0000e-001 80286  3.1873e+000  1.1309e+001  1.6053e-001 53263 80130,80182,80156
 1.0000e-001 80911  1.0435e+000  8.0754e+000 -2.0286e+000 52965 80640,80770,80744
 1.0000e-001 80888  4.9624e+000  1.2245e+001  1.4111e-001 52965 80614,80770,80640
 1.0000e-001 80865  3.9038e+000  1.2040e+001  2.7776e-001 52965 80640,80744,80666
 1.0000e-001 80842  4.1507e+000  9.4927e+000 -2.7557e+000 52965 80588,80770,80614
 1.0000e-001 80819  3.0714e+000  9.2636e+000 -1.0003e+000 52965 80666,80718,80692
 1.0000e-001 80796  3.7320e+000  9.4434e+000  6.7920e-001 52965 80666,80744,80718
 1.0000e-001 81262  2.3879e+000  4.6063e+000  1.3363e-001 52561 81037,81141,81063
 1.0000e-001 81239  1.1415e+000  3.9417e+000  8.0407e-001 52561 81037,81167,81141
 1.0000e-001 81216  2.7659e-001  3.6976e+000 -5.2139e-002 52561 81063,81115,81089
 1.0000e-001 81193  6.0416e-001  3.9161e+000 -4.1327e-001 52561 81063,81141,81115
 1.0000e-001 81719  1.4000e+000  4.9081e+000  2.4343e-001 51900 81445,81523,81471
 1.0000e-001 81696  1.2253e+000  4.0923e+000 -7.1779e-003 51900 81445,81575,81523
 1.0000e-001 81673  4.2623e-001  4.0041e+000  3.3875e-002 51900 81445,81601,81575
 1.0000e-001 81650  1.2220e+000  4.1874e+000  2.4842e-002 51900 81523,81575,81549
 1.0000e-001 81627  1.0644e+000  5.1829e+000 -4.4457e-002 51900 81471,81523,81497
 1.0000e-001 82323  2.5518e+000  6.7100e+000  1.4367e-001 51317 82418,82346,82032
 1.0000e-001 82300  1.6526e+000  5.1609e+000 -4.3305e-001 51317 82490,82346,81954
 1.0000e-001 82277  2.8822e+000  7.4723e+000  1.8410e-001 51317 82418,82032,82006
 1.0000e-001 82254  9.1779e-001  4.5771e+000  5.2334e-002 51317 82490,81954,81928
 1.0000e-001 82231  1.3784e+000  6.1216e+000 -9.1526e-001 51317 82058,82110,82084
 1.0000e-001 82208  6.9032e-001  5.1465e+000 -3.1734e-001 51317 81928,82136,82110
 1.0000e-001 82185  1.8160e+000  7.4571e+000 -1.2195e+000 51317 81954,82006,81980
 1.0000e-001 82162 -1.6148e-001  4.7689e+000 -9.1859e-001 51317 81902,82136,81928
 1.0000e-001 82372  1.6967e+000  5.6997e+000 -2.2137e-001 51317 82058,82032,82346
 1.0000e-001 82395  1.9413e+000  6.3300e+000 -3.5809e-001 51317 82058,82346,82110
 1.0000e-001 82444  2.5964e+000  6.3097e+000 -8.4108e-001 51317 81954,82346,82418
 1.0000e-001 82467  2.9113e+000  7.0380e+000 -8.1084e-001 51317 81954,82418,82006
 1.0000e-001 82516  1.5489e+000  5.5643e+000 -8.2097e-001 51317 82110,82346,82490
 1.0000e-001 82539  1.5276e+000  5.4090e+000 -4.4742e-001 51317 82110,82490,81928
 1.0000e-001 83015  1.6283e+000  9.1266e+000  2.8541e-001 50813 82669,82747,82695
 1.0000e-001 82992  1.5156e+000  7.0049e+000 -1.7123e-001 50813 83038,82669,82851
 1.0000e-001 82969  2.0776e+000  6.6665e+000  1.4544e-002 50813 83038,82851,82799
 1.0000e-001 82946 -1.2044e+000  5.8558e+000  1.2929e+000 50813 82747,82799,82773
 1.0000e-001 82923  1.0051e+000  5.4142e+000 -1.8191e+000 50813 82643,82851,82669
 1.0000e-001 82900  1.4520e+000  4.9553e+000  2.8443e-002 50813 82799,82851,82825
 1.0000e-001 82877  1.4419e+000  8.9365e+000  4.8587e-001 50813 82695,82747,82721
 1.0000e-001 83064  7.2764e-001  6.7546e+000 -1.2168e-001 50813 82747,82669,83038
 1.0000e-001 83087  1.5887e+000  6.6112e+000 -3.8023e-003 50813 82747,83038,82799
 1.0000e-001 83286  1.6010e+000  5.6254e+000 -1.6344e-001 50352 83309,83162,83136
 1.0000e-001 83263  1.8120e+000  5.0654e+000 -3.3042e-001 50352 83511,83309,83136
 1.0000e-001 83240  1.8767e+000  5.1667e+000 -2.9870e-001 50352 83511,83136,83381
 1.0000e-001 83335  1.3023e+000  5.1041e+000 -4.2015e-002 50352 83188,83162,83309
 1.0000e-001 83358  1.6478e+000  4.9053e+000 -3.9766e-001 50352 83188,83309,83214
 1.0000e-001 83407  2.5249e+000  5.3131e+000 -8.3974e-002 50352 83110,83214,83381
 1.0000e-001 83537  1.7256e+000  5.1300e+000 -3.8385e-001 50352 83214,83309,83511
 1.0000e-001 83560  1.7451e+000  5.1562e+000 -3.6937e-001 50352 83214,83511,83381
 1.0000e-001 83889  3.7256e+000  1.1117e+001 -1.0914e-001 49548 83716,83794,83742
 1.0000e-001 83866  3.1340e+000  1.0225e+001 -4.0522e-001 49548 83690,83794,83716
 1.0000e-001 83843  6.8904e-001  9.9232e+000 -5.5648e-001 49548 83664,83794,83690
 1.0000e-001 83820  3.3809e+000  1.1903e+001 -4.5599e-001 49548 83742,83794,83768
 1.0000e-001 84137  7.4720e-001  4.3587e+000  8.2138e-002 49208 84160,84016,83938
 1.0000e-001 84114  1.1144e+000  5.2195e+000  1.4268e-001 49208 84160,83938,83912
 1.0000e-001 84091  7.3692e-001  4.0158e+000 -1.5139e-001 49208 83938,84016,83964
 1.0000e-001 84068  5.6195e-001  4.4497e+000 -3.8446e-001 49208 83964,84016,83990
 1.0000e-001 84186  6.7769e-001  4.6794e+000 -3.8914e-001 49208 84042,84016,84160
 1.0000e-001 84209  9.1475e-001  5.1949e+000 -3.2425e-001 49208 84042,84160,83912
 1.0000e-001 84796  1.4800e+000  4.4336e+000 -5.8876e-002 48861 84499,84629,84551
 1.0000e-001 84773  1.3756e+000  4.0616e+000 -1.6162e-001 48861 84499,84655,84629
 1.0000e-001 84750  2.1222e+000  5.8111e+000 -3.3774e-001 48861 84551,84629,84577
 1.0000e-001 84727  1.4544e+000  5.1241e+000 -5.7705e-002 48861 84577,84629,84603
 1.0000e-001 84704  9.8738e-002  3.5678e+000  3.2721e-001 48861 84499,84551,84525
 1.0000e-001 84681  1.5479e+000  4.5100e+000  1.4445e-003 48861 84473,84655,84499
 1.0000e-001 85351  7.2922e+000  1.0669e+001 -2.5898e+000 48457 85374,85031,85005
 1.0000e-001 85328  3.5536e+000  7.9092e+000 -7.9992e-001 48457 85374,85005,85161
 1.0000e-001 85305  1.7352e+000  8.4487e+000 -1.3839e+000 48457 85446,85057,85031
 1.0000e-001 85282  4.1393e+000  7.4504e+000  6.9511e-002 48457 85005,85187,85161
 1.0000e-001 85259  5.2890e+000  9.7667e+000  7.9630e-001 48457 85083,85161,85109
 1.0000e-001 85236  4.8626e+000  7.5503e+000 -7.8350e-002 48457 84979,85187,85005
 1.0000e-001 85213  4.4100e+000  1.1805e+001  2.8904e+000 48457 85109,85161,85135
 1.0000e-001 85400  2.6867e+000  8.3990e+000 -1.3948e+000 48457 85446,85031,85374
 1.0000e-001 85423  4.1019e+000  8.7570e+000 -2.6547e-001 48457 85083,85374,85161
 1.0000e-001 85472  2.8965e+000  7.8420e+000 -2.8154e-001 48457 85083,85057,85446
 1.0000e-001 85495  4.1269e+000  8.0608e+000 -2.2029e-001 48457 85083,85446,85374
 1.0000e-001 86080 -1.8360e-001  5.7312e+000 -1.9792e+000 48053 86319,86103,85783
 1.0000e-001 86057  2.3992e+000  7.9182e+000 -1.5255e+000 48053 86103,85757,85939
 1.0000e-001 86034  3.0779e+000  6.7182e+000 -1.5406e-001 48053 86247,86175,85887
 1.0000e-001 86011  3.4184e+000  7.6855e+000 -2.4816e-001 48053 86247,85887,85835
 1.0000e-001 85988  7.6763e-001  4.7696e+000  6.6223e-002 48053 85887,85939,85913
 1.0000e-001 85965  1.9650e+000  9.5079e+000  9.9292e-001 48053 85835,85887,85861
 1.0000e-001 86129  9.6363e-001  6.5848e+000 -5.4792e-001 48053 85809,85783,86103
 1.0000e-001 86152  2.1067e+000  6.8460e+000 -7.0004e-001 48053 86175,85809,86103
 1.0000e-001 86201  2.4261e+000  5.6250e+000 -5.1875e-001 48053 85939,85887,86175
 1.0000e-001 86224  1.8040e+000  6.8945e+000 -6.0075e-001 48053 85939,86175,86103
 1.0000e-001 86273  2.6463e+000  7.6710e+000 -1.0462e+000 48053 85809,86175,86247
 1.0000e-001 86296  2.9685e+000  8.7566e+000 -9.9382e-001 48053 85809,86247,85835
 1.0000e-001 86345  1.9068e+000  7.2981e+000 -1.2524e+000 48053 85757,86103,86319
 1.0000e-001 86851  2.1052e-001  4.5026e+000 -7.2816e-001 47541 86874,86580,86554
 1.0000e-001 86828  1.6797e+000  5.0656e+000 -2.6418e-001 47541 86946,86874,86554
 1.0000e-001 86805  1.9193e+000  4.7960e+000 -4.0396e-001 47541 86946,86554,86528
 1.0000e-001 86782  5.6447e-001  5.1649e+000  1.4983e-001 47541 86580,86658,86606
 1.0000e-001 86759  9.8243e-001  5.1311e+000 -3.1266e-001 47541 86528,86710,86684
 1.0000e-001 86736  3.4828e-001  4.9148e+000  5.6817e-002 47541 86606,86658,86632
 1.0000e-001 86900  1.2347e+000  4.9092e+000 -6.3947e-002 47541 86658,86580,86874
 1.0000e-001 86923  2.2312e+000  4.9183e+000  3.1237e-001 47541 86658,86874,86684
 1.0000e-001 86972  1.1990e+000  4.5821e+000  6.0571e-002 47541 86684,86874,86946
 1.0000e-001 86995  1.6917e+000  4.6948e+000 -1.6417e-001 47541 86684,86946,86528
 1.0000e-001 87324  2.1485e+000  9.4082e+000  3.1222e-001 47044 87151,87203,87177
 1.0000e-001 87301  3.2797e+000  9.3899e+000 -1.2015e-001 47044 87125,87203,87151
 1.0000e-001 87278  4.5528e+000  9.8498e+000 -2.6557e-001 47044 87099,87203,87125
 1.0000e-001 87255  4.1169e+000  9.5591e+000 -1.5104e+000 47044 87099,87229,87203
 1.0000e-001 87572  3.8773e+000  1.0341e+001  3.4086e-001 46697 87595,87425,87373
 1.0000e-001 87549  3.4104e+000  1.1102e+001 -6.2550e-002 46697 87595,87373,87477
 1.0000e-001 87526  3.5681e+000  1.1267e+001  3.9351e-001 46697 87347,87477,87373
 1.0000e-001 87503  4.8889e+000  9.1639e+000 -7.4887e-001 46697 87373,87425,87399
 1.0000e-001 87621  3.6430e+000  8.8374e+000  4.2581e-001 46697 87451,87425,87595
 1.0000e-001 87644  3.8242e+000  1.0290e+001 -1.7704e-001 46697 87451,87595,87477
 1.0000e-001 87794  6.3088e-001  1.5206e+001 -1.1944e+000 46235 87693,87745,87719
 1.0000e-001 87771  1.4710e+000  1.0624e+001  6.5780e-001 46235 87667,87745,87693
 1.0000e-001 88304  3.0013e+000  8.7605e+000  4.7065e-001 45731 88085,88163,88137
 1.0000e-001 88281  3.1028e+000  9.3446e+000  4.4586e-001 45731 88007,88163,88085
 1.0000e-001 88258  1.1903e+000  8.6852e+000  6.8088e-001 45731 87981,88163,88007
 1.0000e-001 88235  3.6690e+000  9.9353e+000  2.0913e-001 45731 88007,88085,88059
 1.0000e-001 88212  4.3666e+000  9.2184e+000 -1.5070e+000 45731 88085,88137,88111
 1.0000e-001 88189  2.4853e+000  9.3102e+000 -1.0960e+000 45731 88007,88059,88033
 1.0000e-001 88682  2.2548e+000  6.0710e+000  8.9039e-002 45312 88434,88512,88486
 1.0000e-001 88659  1.1695e+000  3.6881e+000  3.3432e-001 45312 88434,88538,88512
 1.0000e-001 88636  1.2207e+000  3.7445e+000  3.1294e-001 45312 88434,88564,88538
 1.0000e-001 88613  2.1833e+000  5.4050e+000 -9.4391e-002 45312 88434,88486,88460
 1.0000e-001 88590 -2.9984e-001  3.1419e+000  1.8796e-001 45312 88408,88564,88434
 1.0000e-001 88930  1.2004e+000  5.2172e+000  1.4908e-001 44808 88953,88731,88705
 1.0000e-001 88907  1.5093e+000  4.9041e+000 -4.4923e-001 44808 88953,88705,88835
 1.0000e-001 88884  2.1098e+000  5.1083e+000 -9.4351e-002 44808 89025,88783,88757
 1.0000e-001 88861  3.0919e+000  6.9795e+000  1.9029e-001 44808 88783,88835,88809
 1.0000e-001 88979  2.0625e+000  5.4874e+000  2.9513e-001 44808 88757,88731,88953
 1.0000e-001 89002  1.5637e+000  5.1508e+000 -8.0445e-002 44808 89025,88757,88953
 1.0000e-001 89051  2.4804e+000  5.0835e+000 -1.2843e-001 44808 88835,88783,89025
 1.0000e-001 89074  2.1997e+000  5.3505e+000 -2.2610e-001 44808 88835,89025,88953
 1.0000e-001 89224  1.2731e+000  6.9336e+000  1.5476e+000 44404 89123,89175,89149
 1.0000e-001 89201  1.4856e-001  6.3011e+000 -1.8304e-001 44404 89097,89175,89123
 1.0000e-001 89783  2.0309e+000  7.2752e+000 -5.7589e-001 43850 89806,89541,89515
 1.0000e-001 89760  1.7661e+000  6.6618e+000 -6.0151e-001 43850 89806,89515,89463
 1.0000e-001 89737  1.1357e+000  6.0439e+000 -7.0933e-001 43850 89950,89878,89593
 1.0000e-001 89714  1.4273e+000  5.7751e+000 -1.2168e+000 43850 89950,89593,89567
 1.0000e-001 89691  4.3889e+000  8.6084e+000  4.4692e-001 43850 89411,89619,89463
 1.0000e-001 89668  9.1013e-001  6.3566e+000 -3.7231e-001 43850 89463,89515,89489
 1.0000e-001 89645  1.3942e+000  9.3598e+000  2.0692e+000 43850 89411,89463,89437
 1.0000e-001 89832  1.8443e+000  7.0943e+000 -3.3836e-001 43850 89878,89541,89806
 1.0000e-001 89855  2.5047e+000  6.9343e+000 -6.0791e-001 43850 89619,89806,89463
 1.0000e-001 89904  1.4491e+000  5.7942e+000 -1.3230e-001 43850 89619,89593,89878
 1.0000e-001 89927  1.9945e+000  6.2744e+000 -3.6012e-001 43850 89619,89878,89806
 1.0000e-001 89976  2.5574e+000  6.6765e+000 -4.0100e-001 43850 89541,89878,89950
 1.0000e-001 89999  3.2145e+000  6.3773e+000 -9.5673e-001 43850 89541,89950,89567
 1.0000e-001 90247  1.6694e+000  7.2744e+000  1.9716e+000 43488 90022,90074,90048
 1.0000e-001 90224  1.9272e+000  6.0242e+000  1.6729e-002 43488 90270,90022,90152
 1.0000e-001 90201  1.9233e+000  5.8603e+000 -1.1842e-002 43488 90342,90270,90152
 1.0000e-001 90178  1.8988e+000  5.8226e+000 -4.2926e-002 43488 90342,90152,90126
 1.0000e-001 90296  1.8182e+000  5.8838e+000  7.8824e-002 43488 90074,90022,90270
 1.0000e-001 90319  1.9867e+000  5.8975e+000  2.4415e-002 43488 90074,90270,90100
 1.0000e-001 90368  1.9810e+000  5.8594e+000  2.3736e-002 43488 90100,90270,90342
 1.0000e-001 90391  1.9515e+000  5.8141e+000 -8.5707e-003 43488 90100,90342,90126
 1.0000e-001 90590  4.0822e+000  1.1914e+001 -2.9455e-003 43048 90414,90492,90440
 1.0000e-001 90567  4.7013e+000  8.9700e+000  6.6238e-001 43048 90414,90518,90492
 1.0000e-001 90544  2.5087e+000  1.2497e+001  4.0364e-001 43048 90440,90492,90466
 1.0000e-001 91070  4.8116e+000  1.0834e+001 -4.7647e-001 42430 91237,90880,90854
 1.0000e-001 91047  4.1595e+000  1.0262e+001  5.2029e-001 42430 90698,90906,90880
 1.0000e-001 91024  3.6525e+000  1.0663e+001 -6.5551e-001 42430 91093,90750,90698
 1.0000e-001 91001  4.5083e+000  1.0486e+001 -3.2979e-001 42430 91237,90854,91093
 1.0000e-001 90978  2.4282e+000  8.6119e+000 -1.0784e+000 42430 91165,90802,90776
 1.0000e-001 90955  1.8760e+000  1.0036e+001 -1.2959e-001 42430 90802,90854,90828
 1.0000e-001 90932  4.4742e+000  1.2521e+001  7.3591e-006 42430 90698,90750,90724
 1.0000e-001 91119  5.6821e+000  1.1058e+001 -9.6350e-002 42430 90776,90750,91093
 1.0000e-001 91142  3.6150e+000  9.0421e+000 -1.0184e+000 42430 91165,90776,91093
 1.0000e-001 91191  2.2310e+000  8.8123e+000  4.4500e-002 42430 90854,90802,91165
 1.0000e-001 91214  3.3296e+000  9.3600e+000  2.3388e-001 42430 90854,91165,91093
 1.0000e-001 91263  4.2622e+000  1.1199e+001 -1.5819e-001 42430 90698,90880,91237
 1.0000e-001 91286  3.9855e+000  1.0918e+001 -2.9927e-002 42430 90698,91237,91093
 1.0000e-001 91694  4.4637e+000  6.8760e+000 -2.1190e-001 41769 91469,91573,91495
 1.0000e-001 91671  6.8459e-001  6.2829e+000 -8.5810e-001 41769 91469,91599,91573
 1.0000e-001 91648  3.2220e+000  7.2624e+000 -3.7889e-001 41769 91495,91547,91521
 1.0000e-001 91625  4.1944e+000  7.5375e+000  3.9231e-002 41769 91495,91573,91547
 1.0000e-001 92040  2.2804e+000  5.2951e+000  1.3157e-001 41379 91769,91873,91847
 1.0000e-001 92017  9.7271e-001  4.6820e+000 -3.6516e-002 41379 91743,91873,91769
 1.0000e-001 91994  2.3292e+000  5.5001e+000  3.7814e-002 41379 91769,91847,91795
 1.0000e-001 91971  4.1636e-001  5.0197e+000 -3.9659e-001 41379 91743,91899,91873
 1.0000e-001 91948  3.2400e-001  6.1087e+000  1.2150e+000 41379 91717,91899,91743
 1.0000e-001 91925  2.8356e+000  6.1126e+000  5.0691e-001 41379 91795,91847,91821
 1.0000e-001 92597  4.0194e+000  8.1452e+000 -3.7834e-001 40975 92225,92407,92303
 1.0000e-001 92574  2.2965e+000  8.0668e+000 -4.8256e-001 40975 92225,92433,92407
 1.0000e-001 92551  3.1820e+000  1.0884e+001  1.6461e+000 40975 92225,92303,92277
 1.0000e-001 92528  3.5214e+000  7.9959e+000 -1.6688e-001 40975 92329,92407,92381
 1.0000e-001 92505  2.9055e+000  7.4401e+000 -6.8354e-001 40975 92303,92407,92329
 1.0000e-001 92482  6.0646e-001  7.4824e+000  1.4814e-001 40975 92225,92277,92251
 1.0000e-001 92459  1.5197e+000  8.5547e+000  1.0804e+000 40975 92329,92381,92355
 1.0000e-001 93231 -3.1974e+000  1.0640e+001  3.9044e-001 40521 92937,92989,92963
 1.0000e-001 93208  2.2211e+000  8.6035e+000  3.6760e-001 40521 93254,92937,92885
 1.0000e-001 93185  2.9546e+000  9.2217e+000 -1.4096e-001 40521 93254,92885,93067
 1.0000e-001 93162  4.6574e+000  9.4755e+000 -6.1740e-001 40521 92885,92937,92911
 1.0000e-001 93139  2.0443e+000  9.8557e+000 -6.1075e-003 40521 92859,93067,92885
 1.0000e-001 93116  4.5831e+000  1.0245e+001 -3.1329e-001 40521 92989,93067,93015
 1.0000e-001 93093  4.8766e+000  1.0646e+001 -4.6436e-001 40521 93015,93067,93041
 1.0000e-001 93280  1.7741e+000  7.4204e+000  1.3152e+000 40521 92989,92937,93254
 1.0000e-001 93303  3.3918e+000  8.8080e+000  6.2871e-001 40521 92989,93254,93067
 1.0000e-001 93632  2.4185e+000  7.2911e+000 -4.6819e-001 40231 93433,93537,93511
 1.0000e-001 93609  1.6610e+000  6.2147e+000 -9.7897e-001 40231 93407,93537,93433
 1.0000e-001 93586  1.9056e+000  7.5501e+000 -4.9669e-001 40231 93459,93511,93485
 1.0000e-001 93563  2.5783e+000  7.3137e+000 -3.3024e-001 40231 93433,93511,93459
 1.0000e-001 94010  2.1971e+000  5.2785e+000  1.6160e-001 39869 93762,93866,93788
 1.0000e-001 93987  1.7300e+000  4.3194e+000 -5.3482e-001 39869 93762,93892,93866
 1.0000e-001 93964  9.7857e-001  3.9750e+000 -3.6095e-001 39869 93788,93866,93840
 1.0000e-001 93941  1.2097e+000  4.7418e+000 -1.1806e+000 39869 93788,93840,93814
 1.0000e-001 93918  2.8962e+000  5.8842e+000  2.2519e-001 39869 93736,93892,93762
 1.0000e-001 94160  4.2200e+000  1.1911e+001 -7.2339e-001 39457 94033,94085,94059
 1.0000e-001 94137  2.5159e+000  1.0149e+001 -2.7121e-002 39457 94033,94111,94085
 1.0000e-001 94359  5.0960e-001  5.2588e+000 -8.1607e-002 39053 94382,94235,94209
 1.0000e-001 94336  2.3630e+000  6.4632e+000 -6.0727e-001 39053 94382,94209,94183
 1.0000e-001 94313  2.9459e+000  6.2619e+000 -3.0922e-001 39053 94183,94287,94261
 1.0000e-001 94408  3.2157e+000  6.4137e+000 -5.2854e-001 39053 94454,94382,94261
 1.0000e-001 94431  2.0494e+000  5.8757e+000 -5.6665e-002 39053 94261,94382,94183
 1.0000e-001 94480  1.1648e+000  3.6175e+000  3.7750e-001 39053 94235,94382,94454
 1.0000e-001 94892  2.3753e+000  6.6893e+000 -1.8680e-001 38392 94915,94771,94719
 1.0000e-001 94869  2.1651e+000  6.3374e+000 -3.1754e-001 38392 94915,94719,94693
 1.0000e-001 94846  8.8301e-001  6.0446e+000 -3.4489e-001 38392 94719,94771,94745
 1.0000e-001 94823  1.8467e+000  5.3546e+000 -7.5064e-001 38392 94667,94797,94693
 1.0000e-001 94941  2.7120e+000  6.3323e+000 -3.0255e-002 38392 94797,94771,94915
 1.0000e-001 94964  2.5378e+000  5.9918e+000 -1.2215e-001 38392 94797,94915,94693
 1.0000e-001 95261  4.6156e+000  8.0230e+000 -1.4012e+000 37831 95013,95065,95039
 1.0000e-001 95238  2.4380e+000  7.3269e+000 -2.7010e-001 37831 95284,95065,95013
 1.0000e-001 95215  2.6210e+000  7.5416e+000 -4.8438e-001 37831 95284,95013,94987
 1.0000e-001 95192  2.8933e+000  8.6654e+000 -2.1377e-001 37831 94987,95143,95117
 1.0000e-001 95169  1.7510e+000  7.6979e+000  5.9491e-001 37831 95065,95117,95091
 1.0000e-001 95310  2.5111e+000  6.9679e+000 -7.4480e-002 37831 95117,95065,95284
 1.0000e-001 95333  2.6710e+000  7.2399e+000 -2.7130e-001 37831 95117,95284,94987
 1.0000e-001 95554  1.8514e+000  4.3828e+000 -4.9895e-001 37419 95404,95456,95430
 1.0000e-001 95531  2.7211e+000  5.9150e+000 -7.3388e-003 37419 95378,95456,95404
 1.0000e-001 95508  2.3264e+000  5.9145e+000  3.3548e-002 37419 95378,95482,95456
 1.0000e-001 95887  4.5660e+000  1.0391e+001  1.5586e-001 37221 95662,95714,95688
 1.0000e-001 95864  4.3037e+000  8.5245e+000  2.9979e-001 37221 95662,95792,95714
 1.0000e-001 95841  7.1042e+000  1.2934e+001  8.5323e-001 37221 95714,95766,95740
 1.0000e-001 95818  5.8598e+000  1.2310e+001  6.4322e-001 37221 95714,95792,95766
 1.0000e-001 95988 -3.6131e+000  2.0565e+000 -9.5209e-001 36731 95910,95962,95936
 1.0000e-001 96138  1.9722e+000  5.3184e+000 -6.3154e-003 36327 96293,96063,96037
 1.0000e-001 96115  5.0434e-001  3.7734e+000 -3.9226e-001 36327 96161,96037,96011
 1.0000e-001 96187  2.0475e+000  5.4206e+000  2.8607e-001 36327 96293,96037,96161
 1.0000e-001 96319  1.9519e+000  5.7004e+000  2.7637e-001 36327 96089,96063,96293
 1.0000e-001 96342  2.3135e+000  5.9397e+000  6.1111e-001 36327 96089,96293,96161
 1.0000e-001 96710  2.2814e+000  5.4146e+000  7.7776e-003 36037 96733,96491,96439
 1.0000e-001 96687  2.6696e+000  5.3387e+000  1.5169e-002 36037 96733,96439,96413
 1.0000e-001 96664  1.1313e+000  4.8636e+000 -3.8838e-001 36037 96439,96491,96465
 1.0000e-001 96641  1.8001e+000  5.3901e+000  1.7706e-001 36037 96387,96517,96413
 1.0000e-001 96618  1.6727e+000  4.9411e+000  2.2637e-001 36037 96387,96543,96517
 1.0000e-001 96595  2.6336e+000  4.4296e+000  8.2840e-001 36037 96387,96569,96543
 1.0000e-001 96759  1.4550e+000  5.3534e+000  8.5732e-002 36037 96517,96491,96733
 1.0000e-001 96782  2.3134e+000  5.6088e+000  1.2305e-001 36037 96517,96733,96413
 1.0000e-001 96932  7.0394e+000  9.7104e+000 -1.2261e+000 35633 97027,96955,96831
 1.0000e-001 96909  2.6384e+000  5.7540e+000 -1.3832e+000 35633 97159,96955,96805
 1.0000e-001 96981  4.7281e+000  1.1019e+001  4.3038e-001 35633 96857,96831,96955
 1.0000e-001 97004  3.8063e+000  8.7625e+000  3.2023e-001 35633 96857,96955,96883
 1.0000e-001 97053  2.8241e+000  6.9597e+000 -2.8539e-002 35633 96805,96955,97027
 1.0000e-001 97185  5.1411e+000  9.4300e+000 -9.7508e-003 35633 96883,96955,97159
 1.0000e-001 97593  4.8535e+000  1.0995e+001 -1.2967e+000 35186 97446,97498,97472
 1.0000e-001 97570  4.1313e+000  8.4481e+000 -6.0119e-001 35186 97368,97498,97446
 1.0000e-001 97547  4.3493e+000  8.2788e+000 -1.0836e+000 35186 97368,97446,97394
 1.0000e-001 97524  5.2905e+000  8.5058e+000 -9.3480e-001 35186 97394,97446,97420
 1.0000e-001 98050  2.5605e+000  5.9889e+000 -5.6820e-001 34632 97802,97932,97854
 1.0000e-001 98027  3.0018e+000  7.2066e+000 -2.3371e-001 34632 97776,97932,97802
 1.0000e-001 98004  9.1148e-001  4.6257e+000  4.8397e-001 34632 97802,97854,97828
 1.0000e-001 97981  1.5665e+000  5.1133e+000 -6.7547e-002 34632 97880,97932,97906
 1.0000e-001 97958  2.8428e+000  6.4370e+000 -7.2415e-001 34632 97854,97932,97880
 1.0000e-001 98526  4.0679e+000  1.0829e+001 -3.1104e-001 34064 98693,98180,98362
 1.0000e-001 98503 -2.9014e+000  1.0766e+001  1.2686e+000 34064 98154,98362,98180
 1.0000e-001 98480  3.9115e+000  9.4263e+000  5.3547e-001 34064 98549,98258,98232
 1.0000e-001 98457  5.7489e+000  9.9935e+000  4.5958e-001 34064 98549,98232,98206
 1.0000e-001 98434  3.4908e+000  9.2958e+000 -6.2688e-001 34064 98837,98621,98362
 1.0000e-001 98411  3.6724e+000  6.7894e+000  1.1703e+000 34064 98765,98284,98258
 1.0000e-001 98388  4.0949e+000  9.1306e+000 -7.1162e-001 34064 98837,98362,98336
 1.0000e-001 98575  3.2331e+000  8.1065e+000  8.3990e-001 34064 98765,98258,98549
 1.0000e-001 98598  3.9179e+000  8.9651e+000 -1.3326e-001 34064 98621,98310,98549
 1.0000e-001 98647  3.6029e+000  9.7224e+000 -4.3582e-001 34064 98693,98362,98621
 1.0000e-001 98670  4.0152e+000  9.2062e+000 -2.4827e-001 34064 98206,98621,98549
 1.0000e-001 98719  3.8437e+000  9.4609e+000 -3.2512e-001 34064 98206,98180,98693
 1.0000e-001 98742  3.9822e+000  9.3359e+000 -2.1372e-001 34064 98206,98693,98621
 1.0000e-001 98791  4.4629e+000  8.1875e+000  2.8952e-001 34064 98310,98284,98765
 1.0000e-001 98814  3.7679e+000  9.1065e+000 -5.1833e-002 34064 98310,98765,98549
 1.0000e-001 98863  4.2274e+000  9.2662e+000 -5.3587e-001 34064 98310,98621,98837
 1.0000e-001 98886  4.8758e+000  9.1383e+000 -6.6382e-001 34064 98310,98837,98336
 1.0000e-001 99264  3.8410e+000  7.3542e+000 -4.7730e-001 33446 99287,99094,99068
 1.0000e-001 99241  3.7252e+000  7.6194e+000 -7.2208e-001 33446 99287,99068,99016
 1.0000e-001 99218  2.1786e+000  7.1943e+000 -1.1628e-002 33446 99016,99068,99042
 1.0000e-001 99195  1.7419e+000  6.6121e+000 -1.1272e+000 33446 99016,99146,99120
 1.0000e-001 99172  2.7640e+000  9.2838e+000 -1.3130e+000 33446 98990,99146,99016
 1.0000e-001 99313  4.2727e+000  7.5566e+000 -5.3201e-001 33446 99120,99094,99287
 1.0000e-001 99336  3.8674e+000  7.6734e+000 -7.3235e-001 33446 99120,99287,99016
 1.0000e-001 99861  2.3293e+000  6.5476e+000  1.5106e-001 32940 100172,99956,99884
 1.0000e-001 99838  2.8186e+000  6.8245e+000  4.1874e-001 32940 100100,99884,99518
 1.0000e-001 99815  2.8407e+000  6.0912e+000  6.2546e-003 32940 100244,99956,99622
 1.0000e-001 99792  2.8870e+000  6.7296e+000  8.3574e-002 32940 100028,99648,99622
 1.0000e-001 99769  2.9026e+000  7.3782e+000  5.2489e-001 32940 100100,99518,99492
 1.0000e-001 99746  2.7697e+000  7.2477e+000  9.9518e-001 32940 99570,99622,99596
 1.0000e-001 99723  2.4210e+000  6.9640e+000 -9.1195e-003 32940 100244,99622,99570
 1.0000e-001 99700  3.1286e+000  8.8713e+000 -2.9992e-001 32940 99440,99492,99466
 1.0000e-001 99910  2.5485e+000  6.7298e+000  1.5918e-002 32940 100172,99884,100028
 1.0000e-001 99933  2.2359e+000  6.0808e+000  2.6718e-001 32940 99674,99884,99440
 1.0000e-001 99982  2.3417e+000  6.0084e+000  2.2056e-001 32940 99518,99884,99956
 1.0000e-001 100005  1.7830e+000  4.3401e+000 -1.0273e+000 32940 99518,99956,99544
 1.0000e-001 100054  2.3789e+000  6.7819e+000  1.4762e-001 32940 99674,99648,100028
 1.0000e-001 100077  2.5303e+000  6.8032e+000  1.0239e-001 32940 99674,100028,99884
 1.0000e-001 100126  2.8351e+000  6.5319e+000  6.6547e-002 32940 99440,99884,100100
 1.0000e-001 100149  2.8198e+000  6.8319e+000  2.1527e-001 32940 99440,100100,99492
 1.0000e-001 100198  2.4141e+000  6.3375e+000  3.3964e-001 32940 99622,99956,100172
 1.0000e-001 100221  2.4075e+000  6.3717e+000  2.4065e-001 32940 99622,100172,100028
 1.0000e-001 100270  3.0246e+000  7.1314e+000 -5.9005e-001 32940 99544,99956,100244
 1.0000e-001 100293  2.6352e+000  7.9938e+000 -6.4258e-001 32940 99544,100244,99570
 1.0000e-001 100750  2.3845e+000  5.3380e+000 -3.8681e-001 32365 100773,100580,100502
 1.0000e-001 100727  1.7058e+000  4.4557e+000  1.9547e-001 32365 100773,100502,100632
 1.0000e-001 100704  7.5358e-001  4.4737e+000  3.9121e-001 32365 100476,100632,100502
 1.0000e-001 100681  2.0606e+000  5.2194e+000  2.8567e-001 32365 100528,100580,100554
 1.0000e-001 100658  3.4007e+000  6.8491e+000 -9.5033e-001 32365 100502,100580,100528
 1.0000e-001 100799  1.5628e+000  6.4476e+000 -7.0152e-001 32365 100606,100580,100773
 1.0000e-001 100822  1.1509e+000  5.6343e+000 -2.3315e-001 32365 100606,100773,100632
 1.0000e-001 101021  1.0942e+000  4.9263e+000 -9.6385e-002 31853 100871,100923,100897
 1.0000e-001 100998  2.0818e+000  5.4743e+000  1.5900e-001 31853 100871,100949,100923
 1.0000e-001 100975  2.1817e+000  5.3934e+000  4.5136e-001 31853 100845,100949,100871
 1.0000e-001 101529  2.5459e+000  5.4375e+000  5.2323e-001 31249 101552,101310,101232
 1.0000e-001 101506  2.1068e+000  3.8758e+000  1.4182e+000 31249 101552,101232,101206
 1.0000e-001 101483  3.4805e+000  8.1988e+000  1.8812e-003 31249 101206,101388,101336
 1.0000e-001 101460  2.8826e+000  5.7614e+000 -4.9724e-001 31249 101232,101284,101258
 1.0000e-001 101437  2.9989e+000  5.0386e+000  1.5926e-001 31249 101232,101310,101284
 1.0000e-001 101414  2.5791e+000  7.6005e+000 -1.2579e+000 31249 101336,101388,101362
 1.0000e-001 101578  2.7703e+000  7.5031e+000 -3.8905e-001 31249 101336,101310,101552
 1.0000e-001 101601  2.1005e+000  5.5131e+000  4.8954e-001 31249 101336,101552,101206
 1.0000e-001 101751  4.6407e+000  1.1630e+001  6.8616e-002 30515 101774,101650,101624
 1.0000e-001 101728  5.6520e+000  1.2880e+001 -5.8790e-001 30515 101846,101774,101624
 1.0000e-001 101800  4.9077e+000  1.1108e+001  6.9351e-002 30515 101676,101650,101774
 1.0000e-001 101823  4.7498e+000  1.1049e+001  1.2190e-001 30515 101676,101774,101702
 1.0000e-001 101872  4.4378e+000  9.8489e+000 -2.6002e-001 30515 101702,101774,101846
 1.0000e-001 102557  1.9895e+000  5.6507e+000  2.3820e-005 29947 102652,102580,102266
 1.0000e-001 102534  2.0191e+000  5.9409e+000  1.9195e-001 29947 102580,102136,102370
 1.0000e-001 102511  1.8382e+000  5.2664e+000  9.3774e-002 29947 102724,102652,102266
 1.0000e-001 102488  2.1485e+000  5.2090e+000 -7.0104e-002 29947 102724,102266,102240
 1.0000e-001 102465  2.4791e+000  6.4784e+000 -3.4389e-001 29947 102796,102318,102292
 1.0000e-001 102442  2.8940e+000  6.4510e+000  4.1431e-002 29947 102162,102214,102188
 1.0000e-001 102419  3.2310e+000  6.8324e+000  2.9638e-001 29947 102162,102240,102214
 1.0000e-001 102396  2.2762e+000  6.2845e+000  9.6584e-001 29947 102318,102370,102344
 1.0000e-001 102606  1.8485e+000  4.4787e+000 -2.1984e-001 29947 102292,102266,102580
 1.0000e-001 102629  2.4293e+000  5.9123e+000 -2.7418e-001 29947 102796,102292,102580
 1.0000e-001 102678  1.7815e+000  5.3876e+000  2.1985e-001 29947 102136,102580,102652
 1.0000e-001 102701  1.9709e+000  4.9353e+000  3.6046e-001 29947 102136,102652,102162
 1.0000e-001 102750  2.3291e+000  5.4255e+000  1.7895e-001 29947 102162,102652,102724
 1.0000e-001 102773  2.4165e+000  5.2124e+000 -9.7729e-003 29947 102162,102724,102240
 1.0000e-001 102822  2.3871e+000  5.8358e+000 -8.5651e-002 29947 102370,102318,102796
 1.0000e-001 102845  2.4790e+000  5.5490e+000  3.3122e-002 29947 102370,102796,102580
 1.0000e-001 103044  4.8014e+000  1.0883e+001  2.6644e-001 29450 102868,102920,102894
 1.0000e-001 103021  5.1972e+000  1.1725e+001  5.6929e-002 29450 102868,102972,102920
 1.0000e-001 102998  4.4765e+000  1.1338e+001 -4.0013e-001 29450 102920,102972,102946
 1.0000e-001 103292  3.4898e+000  9.9550e+000 -1.1065e-001 29060 103315,103171,103119
 1.0000e-001 103269  4.1094e+000  1.0045e+001 -2.1972e-001 29060 103315,103119,103067
 1.0000e-001 103246  2.6691e+000  9.2698e+000  2.6042e-001 29060 103119,103171,103145
 1.0000e-001 103223  2.8603e+000  1.2054e+001 -5.8937e-001 29060 103067,103119,103093
 1.0000e-001 103341  2.7531e+000  1.0178e+001  2.9247e-001 29060 103197,103171,103315
 1.0000e-001 103364  3.7645e+000  1.0365e+001  4.3549e-001 29060 103197,103315,103067
 1.0000e-001 104002  2.4693e+000  5.7101e+000 -3.3409e-001 28599 104097,104025,103708
 1.0000e-001 103979  2.6143e+000  6.0219e+000  7.2095e-002 28599 104169,104025,103656
 1.0000e-001 103956  2.7428e+000  5.4876e+000 -3.0211e-001 28599 104097,103708,103682
 1.0000e-001 103933  2.4249e+000  5.8725e+000  7.3030e-003 28599 104169,103656,103630
 1.0000e-001 103910  4.0741e+000  8.2778e+000  1.9660e-001 28599 103760,103812,103786
 1.0000e-001 103887  1.3267e+000  5.1310e+000  8.0714e-001 28599 103630,103838,103812
 1.0000e-001 103864  1.5558e+000  6.9983e+000 -3.5832e-001 28599 103708,103760,103734
 1.0000e-001 104051  2.3753e+000  6.1976e+000 -8.2474e-002 28599 103760,103708,104025
 1.0000e-001 104074  3.3098e+000  6.2605e+000  4.0684e-001 28599 103760,104025,103812
 1.0000e-001 104123  2.6936e+000  6.1658e+000 -2.0677e-001 28599 103656,104025,104097
 1.0000e-001 104146  2.8711e+000  5.7777e+000 -1.6170e-001 28599 103656,104097,103682
 1.0000e-001 104195  2.7301e+000  5.7820e+000  3.0138e-002 28599 103812,104025,104169
 1.0000e-001 104218  2.6626e+000  5.7376e+000  1.0897e-002 28599 103812,104169,103630
 1.0000e-001 104596  5.5682e+000  9.2483e+000 -3.1247e-001 28344 104619,104374,104322
 1.0000e-001 104573  5.7281e+000  9.2829e+000 -2.7688e-001 28344 104619,104322,104478
 1.0000e-001 104550  5.3468e+000  9.1180e+000 -2.1993e-001 28344 104322,104374,104348
 1.0000e-001 104527  5.0407e+000  1.4093e+001 -9.3678e-001 28344 104400,104452,104426
 1.0000e-001 104504  4.1718e+000  1.0793e+001  2.9522e-001 28344 104374,104452,104400
 1.0000e-001 104645  5.6132e+000  9.1941e+000 -1.4592e-001 28344 104452,104374,104619
 1.0000e-001 104668  5.8372e+000  9.2629e+000 -1.1393e-001 28344 104452,104619,104478
 1.0000e-001 104987  2.2377e+000  5.4900e+000  7.2201e-002 27947 104713,104843,104765
 1.0000e-001 104964  2.0067e+000  5.5485e+000 -5.7401e-002 27947 104713,104869,104843
 1.0000e-001 104941  2.1482e+000  5.3973e+000  2.4809e-002 27947 104765,104843,104791
 1.0000e-001 104918  1.3827e+000  3.2990e+000  1.4198e-001 27947 104791,104843,104817
 1.0000e-001 104895  2.3714e+000  6.9010e+000  1.2578e+000 27947 104713,104765,104739
 1.0000e-001 105367  5.2465e+000  1.0513e+001  2.1621e-001 27443 105390,105197,105119
 1.0000e-001 105344  3.8676e+000  1.0171e+001  6.5993e-001 27443 105390,105119,105093
 1.0000e-001 105321  6.0532e+000  9.9511e+000  4.3891e-001 27443 105119,105197,105145
 1.0000e-001 105298  5.2238e+000  1.4934e+001 -2.8764e+000 27443 105197,105249,105223
 1.0000e-001 105275  6.0170e+000  9.9580e+000  4.5314e-001 27443 105145,105197,105171
 1.0000e-001 105416  6.1680e+000  1.0462e+001 -6.6202e-001 27443 105249,105197,105390
 1.0000e-001 105439  4.6522e+000  1.0227e+001 -3.2208e-001 27443 105249,105390,105093
 1.0000e-001 105994  3.4438e+000  6.9227e+000  7.0060e-001 27096 106161,106017,105700
 1.0000e-001 105971  2.0808e+000  5.6673e+000  2.7696e-001 27096 106305,106017,105648
 1.0000e-001 105948  3.2343e+000  5.7065e+000 -3.4880e-001 27096 106089,105804,105778
 1.0000e-001 105925  3.4661e+000  7.2916e+000  8.1700e-001 27096 106161,105700,105674
 1.0000e-001 105902  2.3789e+000  5.7257e+000 -1.1030e-001 27096 106233,105726,105700
 1.0000e-001 105879  1.2866e+000  5.4314e+000  2.5713e-001 27096 106305,105648,105622
 1.0000e-001 105856  2.1629e+000  6.6897e+000 -2.1416e-001 27096 105726,105778,105752
 1.0000e-001 106043  2.4552e+000  5.9972e+000  3.0993e-002 27096 106233,105700,106017
 1.0000e-001 106066  2.5619e+000  6.6205e+000 -4.6095e-002 27096 106089,105778,106017
 1.0000e-001 106115  2.0353e+000  5.1198e+000 -8.6536e-001 27096 105830,105804,106089
 1.0000e-001 106138  2.2110e+000  5.7571e+000 -3.3378e-001 27096 106377,106089,106017
 1.0000e-001 106187  3.4200e+000  6.2695e+000  7.6521e-002 27096 105648,106017,106161
 1.0000e-001 106210  3.7356e+000  7.3716e+000  5.4101e-002 27096 105648,106161,105674
 1.0000e-001 106259  2.2468e+000  6.1079e+000 -1.3204e-002 27096 105778,105726,106233
 1.0000e-001 106282  2.3313e+000  6.3537e+000  1.4553e-001 27096 105778,106233,106017
 1.0000e-001 106331  2.3532e+000  5.6385e+000 -5.7645e-002 27096 106377,106017,106305
 1.0000e-001 106354  1.9712e+000  5.6962e+000  7.8199e-002 27096 105830,106305,105622
 1.0000e-001 106403  1.7289e+000  5.5190e+000 -2.4053e-001 27096 105830,106089,106377
 1.0000e-001 106426  1.7859e+000  5.3823e+000 -3.5623e-003 27096 105830,106377,106305
 1.0000e-001 106625  3.9093e+000  1.1363e+001  4.8611e-002 26684 106475,106553,106527
 1.0000e-001 106602  4.1021e+000  1.2391e+001  2.6714e-001 26684 106449,106553,106475
 1.0000e-001 106579  3.4742e+000  1.1500e+001 -4.8718e-001 26684 106475,106527,106501
 1.0000e-001 107084  2.4492e+000  7.3371e+000  1.6281e-001 26244 107107,106914,106862
 1.0000e-001 107061  2.7398e+000  7.7009e+000 -6.2765e-003 26244 107107,106862,106836
 1.0000e-001 107038  1.9886e+000  1.0789e+001  1.3951e-001 26244 106810,106966,106836
 1.0000e-001 107015  1.8330e+000  6.6425e+000 -1.6061e-001 26244 106862,106914,106888
 1.0000e-001 106992  2.4805e+000  6.0425e+000  1.2157e-001 26244 106914,106966,106940
 1.0000e-001 107133  2.7046e+000  7.1205e+000 -3.1890e-001 26244 106966,106914,107107
 1.0000e-001 107156  3.0502e+000  7.7964e+000 -5.0666e-001 26244 106966,107107,106836
 1.0000e-001 107662  1.5027e+000  5.4076e+000  6.4659e-002 25904 107365,107495,107391
 1.0000e-001 107639  2.1060e+000  5.0824e+000  7.2674e-002 25904 107365,107521,107495
 1.0000e-001 107616  2.4738e+000  5.8272e+000  1.8260e-002 25904 107391,107469,107443
 1.0000e-001 107593  2.1138e+000  5.6712e+000  9.5216e-002 25904 107391,107495,107469
 1.0000e-001 107570  2.7620e+000  6.2652e+000 -1.4867e-001 25904 107391,107443,107417
 1.0000e-001 107547  6.0078e-001  4.3136e+000 -6.6581e-001 25904 107339,107521,107365
 1.0000e-001 108247  2.2284e+000  5.7443e+000  1.1339e-001 25450 108270,108002,107950
 1.0000e-001 108224  2.0721e+000  5.7219e+000  7.9033e-002 25450 108270,107950,108106
 1.0000e-001 108201  1.9657e+000  5.5550e+000  5.3798e-002 25450 108342,108028,108002
 1.0000e-001 108178  2.6122e+000  6.0725e+000 -1.4198e-001 25450 107950,108002,107976
 1.0000e-001 108155  1.7254e+000  6.5630e+000  3.3830e-001 25450 107924,108106,107950
 1.0000e-001 108132  2.9113e+000  6.7830e+000 -2.6364e-002 25450 108054,108106,108080
 1.0000e-001 108296  2.0971e+000  5.5108e+000  6.1223e-002 25450 108342,108002,108270
 1.0000e-001 108319  2.2429e+000  5.9478e+000  2.6279e-001 25450 108054,108270,108106
 1.0000e-001 108368  1.5078e+000  5.6463e+000  1.1450e-001 25450 108054,108028,108342
 1.0000e-001 108391  1.8210e+000  5.7456e+000  1.8706e-001 25450 108054,108342,108270
 1.0000e-001 108818  2.9762e+000  7.2281e+000  6.0617e-001 24939 108521,108677,108651
 1.0000e-001 108795  2.6192e+000  4.7812e+000  1.1043e+000 24939 108495,108677,108521
 1.0000e-001 108772  3.5772e+000  7.4802e+000 -9.0864e-002 24939 108521,108651,108625
 1.0000e-001 108749  3.5427e+000  7.3737e+000 -4.8433e-002 24939 108521,108625,108599
 1.0000e-001 108726  2.0157e+000  6.5542e+000 -3.8647e-001 24939 108547,108599,108573
 1.0000e-001 108703  3.7658e+000  6.9170e+000 -4.6927e-001 24939 108521,108599,108547
 1.0000e-001 109403  3.3185e+000  7.5798e+000  8.5236e-002 24741 109158,109210,109184
 1.0000e-001 109380  4.8937e+000  7.8789e+000  3.1870e-002 24741 109158,109262,109210
 1.0000e-001 109357  5.3312e+000  9.0688e+000  8.1724e-002 24741 109080,109262,109158
 1.0000e-001 109334  6.5838e+000  1.1984e+001 -4.4099e-001 24741 109080,109158,109132
 1.0000e-001 109311  4.4850e+000  6.7088e+000  3.9424e-001 24741 109210,109262,109236
 1.0000e-001 109288  2.4801e+000  1.5058e+001 -2.5899e+000 24741 109080,109132,109106
 1.0000e-001 109781  1.8587e+000  5.7383e+000 -1.1792e-001 24337 109533,109611,109559
 1.0000e-001 109758  2.2492e+000  5.7899e+000 -1.3317e-001 24337 109533,109637,109611
 1.0000e-001 109735  2.0612e+000  6.0329e+000  1.7459e-001 24337 109559,109611,109585
 1.0000e-001 109712  2.2572e+000  5.8698e+000  4.5402e-001 24337 109533,109663,109637
 1.0000e-001 109689  1.9051e+000  5.0042e+000  1.2817e-002 24337 109507,109663,109533
 1.0000e-001 110159  4.1039e+000  7.8731e+000  1.3325e+000 23833 110182,109963,109911
 1.0000e-001 110136  1.3871e+000  5.6444e+000  2.7007e+000 23833 110182,109911,109885
 1.0000e-001 110113  3.7845e+000  1.0808e+001  4.4189e-001 23833 109885,110041,109989
 1.0000e-001 110090  4.8126e+000  8.2145e+000  6.6629e-001 23833 109911,109963,109937
 1.0000e-001 110067  3.9427e+000  1.5050e+001 -1.9372e+000 23833 109989,110041,110015
 1.0000e-001 110208  3.0661e+000  8.7650e+000  2.5327e-001 23833 109989,109963,110182
 1.0000e-001 110231  2.6609e+000  7.9235e+000  1.2019e+000 23833 109989,110182,109885
 1.0000e-001 110332  1.5219e+000  7.6715e+000 -3.3079e-001 23429 110254,110306,110280
 1.0000e-001 110580  2.4446e+000  7.2750e+000  1.6631e-001 22825 110603,110407,110381
 1.0000e-001 110557  2.7782e+000  7.4509e+000 -2.8216e-002 22825 110603,110381,110485
 1.0000e-001 110534  3.3545e+000  7.9887e+000 -5.8535e-002 22825 110433,110485,110459
 1.0000e-001 110511  2.5951e+000  8.0914e+000 -4.1594e-002 22825 110355,110485,110381
 1.0000e-001 110629  2.4719e+000  7.0724e+000  4.1152e-001 22825 110433,110407,110603
 1.0000e-001 110652  2.6601e+000  7.2455e+000  2.2902e-001 22825 110433,110603,110485
 1.0000e-001 110902  3.2760e+000  6.1479e+000  1.6244e-001 22428 110703,110755,110729
 1.0000e-001 110879  3.2278e+000  6.5550e+000  9.1533e-002 22428 110703,110781,110755
 1.0000e-001 110856  1.5375e+000  5.7483e+000 -3.5066e-001 22428 110703,110807,110781
 1.0000e-001 110833  1.8177e+000  6.9516e+000 -2.8451e-001 22428 110677,110807,110703
 1.0000e-001 111284  4.6588e+000  9.6350e+000 -3.0031e-001 22138 111088,111140,111114
 1.0000e-001 111261  4.7539e+000  9.2558e+000 -5.8250e-002 22138 111062,111140,111088
 1.0000e-001 111238  4.7943e+000  9.2992e+000 -1.4925e-001 22138 111036,111140,111062
 1.0000e-001 111215  3.5231e+000  7.1484e+000 -8.0648e-001 22138 111010,111140,111036
 1.0000e-001 111192  2.9932e+000  6.8796e+000 -7.1365e-001 22138 111010,111166,111140
 1.0000e-001 111385  4.0072e+000  1.0909e+001  3.6729e-001 21826 111307,111359,111333
 1.0000e-001 111731  3.2515e+000  9.9017e+000  9.0113e-001 21264 111754,111538,111434
 1.0000e-001 111708  4.5295e+000  1.0359e+001  1.7407e-002 21264 111754,111434,111408
 1.0000e-001 111685  2.9860e+000  1.0850e+001  6.1999e-001 21264 111434,111538,111460
 1.0000e-001 111662  7.1086e-001  9.8715e+000  8.0667e-001 21264 111460,111538,111486
 1.0000e-001 111639  4.8445e+000  8.9732e+000  1.2906e+000 21264 111408,111590,111564
 1.0000e-001 111616 -8.0990e-001  1.2902e+001  2.2204e+000 21264 111486,111538,111512
 1.0000e-001 111780  2.8527e+000  9.5967e+000  1.1758e+000 21264 111564,111538,111754
 1.0000e-001 111803  3.2580e+000  8.6629e+000  6.0728e-001 21264 111564,111754,111408
 1.0000e-001 111955  5.4415e+000  1.0582e+001  3.6798e-001 20860 111978,111906,111880
 1.0000e-001 111932  7.1940e+000  1.1060e+001  9.0205e-001 20860 112110,111828,111906
 1.0000e-001 112004  6.4505e+000  1.1416e+001  1.0169e+000 20860 112110,111906,111978
 1.0000e-001 112136  7.5666e+000  1.1248e+001  5.3528e-001 20860 111854,111828,112110
 1.0000e-001 112159  6.9547e+000  1.1799e+001  5.9387e-001 20860 111854,112110,111978
 1.0000e-001 112407  3.9788e+000  1.0308e+001 -7.2666e-002 20320 112182,112286,112208
 1.0000e-001 112384  4.6291e+000  1.1346e+001 -9.1856e-001 20320 112182,112312,112286
 1.0000e-001 112361  2.4482e+000  9.9099e+000 -3.5009e-001 20320 112208,112286,112260
 1.0000e-001 112338  4.1194e-002  1.2864e+001 -2.9750e+000 20320 112208,112260,112234
 1.0000e-001 112655  3.8206e+000  8.2755e+000  5.5554e-003 19916 112508,112560,112534
 1.0000e-001 112632  3.5599e+000  7.9137e+000 -1.1145e-001 19916 112430,112560,112508
 1.0000e-001 112609  3.7641e+000  7.9951e+000  1.0057e-001 19916 112430,112508,112456
 1.0000e-001 112586  4.8659e+000  8.0885e+000 -2.3705e-001 19916 112456,112508,112482
 1.0000e-001 112807  2.2797e+000  6.4272e+000  1.5504e-001 19626 112680,112732,112706
 1.0000e-001 112784  2.7443e+000  6.8891e+000 -6.0233e-002 19626 112680,112758,112732
 1.0000e-001 113008  3.2324e+000  8.1928e+000  4.6027e-002 19165 112858,112936,112884
 1.0000e-001 112985  2.9815e+000  7.8116e+000 -6.2350e-002 19165 112832,112936,112858
 1.0000e-001 112962  2.7162e+000  8.2175e+000  4.1904e-001 19165 112884,112936,112910
 1.0000e-001 113209  2.2967e+000  6.1068e+000  5.8516e-002 18596 113033,113085,113059
 1.0000e-001 113186  2.6942e+000  6.1240e+000 -3.1142e-002 18596 113033,113111,113085
 1.0000e-001 113163  2.4508e+000  5.8534e+000  1.3750e-001 18596 113033,113137,113111
 1.0000e-001 113481  1.4846e+000  5.8310e+000  7.9077e-002 18348 113256,113308,113282
 1.0000e-001 113458  2.2479e+000  6.4456e+000 -1.8678e-001 18348 113256,113386,113308
 1.0000e-001 113435  1.8595e+000  5.4296e+000 -1.8872e-001 18348 113308,113386,113360
 1.0000e-001 113412  2.3020e+000  5.8340e+000 -5.7109e-003 18348 113308,113360,113334
 1.0000e-001 113753  2.1297e+000  5.8568e+000 -2.5092e-002 17830 113554,113606,113580
 1.0000e-001 113730  1.9226e+000  5.6593e+000  7.3487e-002 17830 113528,113606,113554
 1.0000e-001 113707  1.8749e+000  5.5123e+000 -1.3045e-001 17830 113528,113658,113606
 1.0000e-001 113684  2.7766e+000  6.0580e+000  1.2439e-001 17830 113606,113658,113632
 1.0000e-001 113954  4.2174e+000  9.3778e+000 -3.6071e-001 17326 113778,113830,113804
 1.0000e-001 113931  4.1986e+000  8.5362e+000 -2.9218e-001 17326 113778,113882,113830
 1.0000e-001 113908  4.0787e+000  8.9489e+000 -5.2988e-001 17326 113830,113882,113856
 1.0000e-001 114106  1.2421e+000  6.0629e+000 -1.8446e-001 16870 113979,114031,114005
 1.0000e-001 114083  1.9920e+000  5.7120e+000 -4.0183e-001 16870 113979,114057,114031
 1.0000e-001 114461  7.7244e+000  1.2206e+001 -2.1139e+000 16266 114236,114288,114262
 1.0000e-001 114438  5.9343e+000  8.5507e+000 -1.9172e-001 16266 114236,114366,114288
 1.0000e-001 114415  7.6104e+000  1.1814e+001  1.2228e+000 16266 114288,114340,114314
 1.0000e-001 114392  7.0224e+000  1.1291e+001  2.0029e-001 16266 114288,114366,114340
 1.0000e-001 114562  4.0771e+000  1.1582e+001  0.0000e+000 15830 114484,114536,114510
 1.0000e-001 114663  4.3708e+000  8.4922e+000 -4.3530e-002 15151 114585,114637,114611
 1.0000e-001 114886  2.5165e+000  7.4073e+000 -2.8007e-001 417 114762,114814,114788
 1.0000e-001 114863  2.7356e+000  7.7651e+000 -1.7736e-001 417 114710,114814,114762
 1.0000e-001 114840  3.1187e+000  7.7007e+000 -9.5738e-002 417 114710,114762,114736
 2.0000e-001 66549 -5.8506e-001  7.2370e+000  1.5606e+000 66104 66350,66454,66428
 2.0000e-001 66526  1.4779e-001  7.6984e+000  5.6370e-001 66104 66324,66454,66350
 2.0000e-001 66503 -4.9820e-002  1.0608e+001  1.4189e+000 66104 66350,66428,66402
 2.0000e-001 66480 -3.3514e+000  9.3393e+000  4.2406e-001 66104 66350,66402,66376
 2.0000e-001 66947  2.3551e+000  7.7520e-001 -1.0003e+000 65906 66699,66829,66803
 2.0000e-001 66924 -4.5582e-001 -1.0307e+000 -1.7519e-001 65906 66673,66829,66699
 2.0000e-001 66901  7.7771e-001  9.9929e+000 -1.5817e+000 65906 66725,66777,66751
 2.0000e-001 66878 -1.1509e+000  7.4234e+000 -2.5908e+000 65906 66725,66803,66777
 2.0000e-001 66855 -4.8614e-001 -1.6441e+000 -2.0336e+000 65906 66699,66803,66725
 2.0000e-001 67146 -3.4841e+000  7.5759e+000  2.7308e+000 65708 67022,67074,67048
 2.0000e-001 67123  1.1545e+000  1.1997e+001  8.6615e-001 65708 66970,67074,67022
 2.0000e-001 67100 -6.5813e-001  1.0067e+001  2.5625e+000 65708 66970,67022,66996
 2.0000e-001 67477  1.5101e+000  5.5610e+000  2.3198e-001 65418 67278,67356,67330
 2.0000e-001 67454  2.5958e+000  8.0962e+000  8.5456e-001 65418 67278,67382,67356
 2.0000e-001 67431  4.5249e+000  7.7176e+000 -8.8020e-001 65418 67278,67330,67304
 2.0000e-001 67408  1.3366e+000  1.4687e+001  3.2345e+000 65418 67252,67382,67278
 2.0000e-001 68111  4.4631e-001  6.8151e+000  6.4265e-001 65014 67791,67921,67869
 2.0000e-001 68088 -1.2242e+000  6.1682e+000 -2.8532e-001 65014 67765,67921,67791
 2.0000e-001 68065  9.4791e-001  9.1608e+000  1.0236e+000 65014 67869,67921,67895
 2.0000e-001 68042  5.1131e-001  6.7646e+000 -6.1138e-001 65014 67765,67947,67921
 2.0000e-001 68019  2.7891e+000  9.8412e+000 -4.2354e-001 65014 67791,67869,67817
 2.0000e-001 67996 -1.2116e+000  7.4900e+000  5.8009e-001 65014 67817,67869,67843
 2.0000e-001 67973  1.0985e+000  6.7275e+000 -8.6403e-001 65014 67739,67947,67765
 2.0000e-001 68359  1.1551e+000  2.0753e+001 -4.6577e-001 64816 68186,68238,68212
 2.0000e-001 68336  4.8350e+000  1.9253e+001 -1.2951e+000 64816 68186,68264,68238
 2.0000e-001 68313  1.3084e+000  1.7631e+001 -2.5424e+000 64816 68160,68264,68186
 2.0000e-001 68290  1.5019e+000  1.5356e+001 -3.3861e-002 64816 68134,68264,68160
 2.0000e-001 68509 -7.0407e-001  5.6304e+000 -3.1218e+000 64362 68864,68532,68434
 2.0000e-001 68486  2.0851e+000  8.2892e+000 -2.6673e-001 64362 68532,68408,68382
 2.0000e-001 68558  4.2295e+000  1.1457e+001 -1.8217e+000 64362 68736,68532,68460
 2.0000e-001 68581  1.2548e+000  8.5379e+000  7.9128e-002 64362 68604,68532,68382
 2.0000e-001 68630  3.6925e+000  1.4276e+001  4.9349e-001 64362 68460,68532,68604
 2.0000e-001 68762 -2.6722e+000  6.1190e+000  5.6414e-001 64362 68434,68532,68736
 2.0000e-001 68890  5.2431e+000  9.6139e+000 -6.0218e-001 64362 68408,68532,68864
 2.0000e-001 69168  2.6886e+000  1.6022e+001 -5.4990e-001 64164 69018,69070,69044
 2.0000e-001 69145  1.9214e+000  1.5945e+001 -2.7431e-001 64164 68992,69070,69018
 2.0000e-001 69122  2.9372e+000  1.8116e+001  2.9881e-001 64164 68992,69096,69070
 2.0000e-001 69367  1.2081e+000  7.3488e+000 -3.9313e-001 63966 69462,69390,69269
 2.0000e-001 69344  3.5540e+000  1.4504e+001 -1.0852e+000 63966 69390,69243,69217
 2.0000e-001 69321  1.5764e+000  9.6531e+000 -3.7387e-001 63966 69191,69295,69217
 2.0000e-001 69416  1.3919e+000  1.1505e+001 -2.9986e-001 63966 69295,69269,69390
 2.0000e-001 69439  2.5669e+000  1.1421e+001 -1.1549e+000 63966 69295,69390,69217
 2.0000e-001 69488  6.7714e+000  1.5731e+001  2.0369e+000 63966 69243,69390,69462
 2.0000e-001 69900 -6.4659e+000  8.1768e+000  2.3660e+000 63676 69701,69779,69727
 2.0000e-001 69877 -1.5001e+000  1.0778e+001  1.4068e+000 63676 69675,69779,69701
 2.0000e-001 69854  1.4963e+000  1.2096e+001  6.0247e-001 63676 69675,69805,69779
 2.0000e-001 69831 -7.3447e+000  1.6411e+001  5.1471e+000 63676 69727,69779,69753
 2.0000e-001 70050  2.9460e-001  1.5618e+001  5.0313e-001 63472 70073,69949,69923
 2.0000e-001 70027 -4.0171e+000  1.4240e+001  5.9654e-002 63472 70073,69923,70001
 2.0000e-001 70099  3.6840e+000  1.4951e+001  1.0648e+000 63472 69975,69949,70073
 2.0000e-001 70122 -1.1688e-002  1.4004e+001  7.0046e-001 63472 69975,70073,70001
 2.0000e-001 70321 -2.3206e+000  1.4576e+001 -7.4325e-001 63274 70145,70223,70171
 2.0000e-001 70298 -8.1507e-001  1.5624e+001 -6.5672e-002 63274 70145,70249,70223
 2.0000e-001 70275 -3.4495e+000  1.4406e+001 -1.8230e+000 63274 70171,70223,70197
 2.0000e-001 70593 -6.0448e-001  8.9580e+000  1.0740e-001 63076 70368,70472,70420
 2.0000e-001 70570 -2.3771e+000  1.2058e+001 -1.1824e-001 63076 70368,70498,70472
 2.0000e-001 70547 -3.4414e+000  9.2367e+000  3.4579e+000 63076 70420,70472,70446
 2.0000e-001 70524  4.3328e-001  9.2293e+000  5.9769e-001 63076 70368,70420,70394
 2.0000e-001 70843 -8.8625e-001  6.9138e+000  7.0749e-001 62736 70866,70644,70618
 2.0000e-001 70820 -3.4500e+000  5.2736e+000  1.9253e+000 62736 70866,70618,70748
 2.0000e-001 70797 -4.6793e+000  6.6859e+000  2.3533e+000 62736 70644,70722,70696
 2.0000e-001 70774 -3.7132e+000  1.5071e+001  3.2660e+000 62736 70644,70696,70670
 2.0000e-001 70892 -3.5895e+000  7.6545e+000  1.7790e+000 62736 70722,70644,70866
 2.0000e-001 70915 -5.2688e+000  6.4049e+000  3.0423e+000 62736 70722,70866,70748
 2.0000e-001 71018 -4.5523e+000  6.3413e+000  3.3003e+000 62516 70940,70992,70966
 2.0000e-001 71219  1.8883e+000  1.8041e+001 -6.1350e-001 62226 71069,71147,71095
 2.0000e-001 71196 -2.1100e+000  1.7553e+001  1.1035e+000 62226 71043,71147,71069
 2.0000e-001 71173  1.0616e+000  2.0564e+001  4.8690e-001 62226 71095,71147,71121
 2.0000e-001 71857 -4.1275e+000  2.2261e+000 -2.8216e+000 61708 71511,71693,71667
 2.0000e-001 71834 -2.0893e+000  6.1377e+000 -2.0471e-002 61708 71485,71693,71511
 2.0000e-001 71811 -3.7839e+000  5.8519e+000 -3.3852e-001 61708 71880,71537,71511
 2.0000e-001 71788 -6.3868e-001  5.7431e+000 -3.0194e-001 61708 71880,71511,71667
 2.0000e-001 71765 -2.3418e+000  6.4147e+000  2.6083e+000 61708 71537,71615,71589
 2.0000e-001 71742  2.3882e+000  6.0302e+000 -5.3514e-002 61708 71615,71667,71641
 2.0000e-001 71719 -1.9551e+000  7.9395e+000  1.1456e-001 61708 71537,71589,71563
 2.0000e-001 71906 -1.1604e+000  5.5937e+000  5.1114e-001 61708 71615,71537,71880
 2.0000e-001 71929  1.4933e+000  5.2559e+000  7.8006e-001 61708 71615,71880,71667
 2.0000e-001 72226  1.8541e+000  1.6547e+001  5.4877e-001 61204 72249,72056,72004
 2.0000e-001 72203 -6.2154e-001  1.5838e+001 -1.1391e+000 61204 72249,72004,71978
 2.0000e-001 72180  8.8862e-001  1.3350e+001 -2.0215e+000 61204 71978,72108,72082
 2.0000e-001 72157  8.3555e-001  1.5977e+001  3.0327e-001 61204 72004,72056,72030
 2.0000e-001 72134 -5.2722e-001  2.0424e+001 -3.1154e+000 61204 71952,72108,71978
 2.0000e-001 72275  4.8328e+000  1.5812e+001  1.1273e+000 61204 72082,72056,72249
 2.0000e-001 72298  2.1618e+000  1.5644e+001 -8.7910e-002 61204 72082,72249,71978
 2.0000e-001 72757  1.6591e+000  1.1394e+001  4.7546e-001 60800 72483,72613,72509
 2.0000e-001 72734  3.0096e+000  1.5899e+001  1.4136e-001 60800 72483,72639,72613
 2.0000e-001 72711  1.5941e+000  1.5624e+001 -1.8195e-001 60800 72561,72613,72587
 2.0000e-001 72688  4.2038e+000  1.3400e+001 -7.4096e-001 60800 72509,72613,72561
 2.0000e-001 72665  7.5131e+000  2.0297e+001 -3.1367e+000 60800 72509,72561,72535
 2.0000e-001 72907 -1.6960e+000  6.7197e+000 -1.0104e+000 60552 72780,72832,72806
 2.0000e-001 72884  5.9632e-001  1.1287e+001 -1.9186e+000 60552 72780,72858,72832
 2.0000e-001 73464  1.0832e+000  1.2362e+001  7.4618e-001 60240 73487,73222,73196
 2.0000e-001 73441  1.8900e+000  1.1965e+001 -6.2821e-001 60240 73559,73487,73196
 2.0000e-001 73418  2.2377e+000  1.1629e+001 -6.2350e-001 60240 73559,73196,73170
 2.0000e-001 73395  5.0409e+000  1.0470e+001  1.1536e+000 60240 73222,73274,73248
 2.0000e-001 73372 -2.0174e-001  7.6745e+000 -2.6350e+000 60240 73118,73300,73274
 2.0000e-001 73349  3.5521e+000  1.5940e+001 -1.4162e+000 60240 73092,73300,73118
 2.0000e-001 73326  4.0537e+000  1.3256e+001 -4.2230e+000 60240 73118,73170,73144
 2.0000e-001 73513  3.5396e+000  1.3139e+001  1.3203e+000 60240 73274,73222,73487
 2.0000e-001 73536  2.4825e+000  1.2187e+001 -7.8069e-002 60240 73274,73487,73118
 2.0000e-001 73585  2.1778e+000  1.2465e+001 -4.0524e-001 60240 73118,73487,73559
 2.0000e-001 73608  2.4617e+000  1.2064e+001 -4.1805e-001 60240 73118,73559,73170
 2.0000e-001 73758 -6.4845e+000 -1.9522e-001 -8.7803e-002 59871 73657,73709,73683
 2.0000e-001 73735 -1.9357e+000 -3.2653e+000  8.4177e-001 59871 73631,73709,73657
 2.0000e-001 74187  1.9189e+000  1.9536e+001 -2.5071e-002 59474 74210,73890,73864
 2.0000e-001 74164  2.7295e+000  1.9411e+001 -1.8095e-001 59474 74210,73864,74046
 2.0000e-001 74141  2.6347e+000  1.8774e+001  2.5649e-001 59474 73890,73942,73916
 2.0000e-001 74118  1.9819e+000  1.9141e+001  4.1533e-001 59474 73890,73994,73942
 2.0000e-001 74095  4.4733e+000  1.9818e+001 -8.7951e-001 59474 73994,74046,74020
 2.0000e-001 74072  1.7838e+000  1.4011e+001  8.6786e-001 59474 73942,73994,73968
 2.0000e-001 74236  2.6673e+000  1.9331e+001  2.0987e-001 59474 73994,73890,74210
 2.0000e-001 74259  3.4841e+000  1.9256e+001  1.8571e-001 59474 73994,74210,74046
 2.0000e-001 74716  3.7778e+000  1.4929e+001  2.5063e-002 58770 74468,74598,74494
 2.0000e-001 74693  7.5913e+000  1.1151e+001 -3.0128e+000 58770 74442,74598,74468
 2.0000e-001 74670  1.9653e+000  8.9259e+000 -8.3731e-001 58770 74494,74572,74520
 2.0000e-001 74647  6.4176e+000  1.3357e+001  1.8841e+000 58770 74494,74598,74572
 2.0000e-001 74624  6.0024e+000  1.1528e+001  2.6382e+000 58770 74520,74572,74546
 2.0000e-001 75222  1.7777e+000  1.6625e+001  4.9794e-002 58266 74951,75081,75029
 2.0000e-001 75199  2.9589e+000  1.7467e+001  5.5666e-001 58266 74925,75081,74951
 2.0000e-001 75176  3.3815e+000  1.6176e+001 -1.6075e+000 58266 75029,75081,75055
 2.0000e-001 75153  1.2509e-001  1.8610e+001 -6.2276e-001 58266 74951,75003,74977
 2.0000e-001 75130 -7.9097e-001  1.5478e+001  3.9173e-001 58266 74951,75029,75003
 2.0000e-001 75107 -3.1380e+000  1.6052e+001  1.3005e+000 58266 74899,75081,74925
 2.0000e-001 75421  1.5463e+000  1.6952e+001  4.3813e-002 57826 75444,75297,75245
 2.0000e-001 75398  1.7887e+000  1.4241e+001  9.6705e-001 57826 75444,75245,75349
 2.0000e-001 75375  3.5236e+000  1.8795e+001 -5.7673e-002 57826 75516,75297,75271
 2.0000e-001 75470  1.8505e+000  1.8168e+001 -1.1047e-001 57826 75323,75297,75444
 2.0000e-001 75493  3.0219e+000  1.7254e+001  1.0907e+000 57826 75323,75444,75349
 2.0000e-001 75542 -7.7571e-001  1.4374e+001  1.7410e+000 57826 75245,75297,75516
 2.0000e-001 76257  2.2730e-002  9.1976e+000 -3.2862e+000 57422 76280,76093,76067
 2.0000e-001 76234  3.0695e+000  1.1670e+001 -9.0954e-003 57422 75885,76093,75911
 2.0000e-001 76211  4.3917e+000  1.1982e+001 -1.6924e+000 57422 76424,76280,76067
 2.0000e-001 76188  4.8107e+000  1.1469e+001 -1.8295e-001 57422 76352,75937,75911
 2.0000e-001 76165  5.1562e+000  1.0692e+001 -1.1986e+000 57422 76424,76067,76015
 2.0000e-001 76142  6.1487e+000  1.6296e+001  1.3671e+000 57422 76015,76067,76041
 2.0000e-001 76119 -3.1344e+000  8.4610e+000 -3.5433e+000 57422 75963,76015,75989
 2.0000e-001 76306  1.3357e+000  1.1264e+001 -2.7270e-001 57422 75911,76093,76280
 2.0000e-001 76329  4.2424e+000  1.1220e+001  8.1479e-002 57422 76352,75911,76280
 2.0000e-001 76378  3.6694e+000  1.1625e+001  1.0879e-001 57422 75963,75937,76352
 2.0000e-001 76401  3.3790e+000  1.1624e+001  3.4105e-001 57422 75963,76352,76280
 2.0000e-001 76450  2.7140e+000  1.1136e+001 -1.1562e+000 57422 75963,76280,76424
 2.0000e-001 76473  4.3783e+000  1.0649e+001 -1.0094e+000 57422 75963,76424,76015
 2.0000e-001 76949  1.2806e+000  9.7098e+000  1.3751e+000 56904 76972,76707,76681
 2.0000e-001 76926  1.5304e+000  1.0564e+001  9.6387e-001 56904 77044,76972,76681
 2.0000e-001 76903  2.2219e+000  1.0923e+001  6.3115e-001 56904 77044,76681,76629
 2.0000e-001 76880  1.3355e+000  1.0311e+001  7.4437e-001 56904 76707,76785,76759
 2.0000e-001 76857  2.0921e+000  1.1227e+001  1.4205e+000 56904 76577,76785,76603
 2.0000e-001 76834  2.3544e+000  1.2281e+001  1.2689e+000 56904 76707,76759,76733
 2.0000e-001 76811  4.3960e+000  1.0662e+001  2.4911e+000 56904 76629,76681,76655
 2.0000e-001 76998  1.5480e+000  1.0107e+001  6.7735e-001 56904 76785,76707,76972
 2.0000e-001 77021  1.7428e+000  1.0496e+001  7.4307e-001 56904 76785,76972,76603
 2.0000e-001 77070  2.5765e+000  1.0317e+001  8.2488e-001 56904 76603,76972,77044
 2.0000e-001 77093  2.9035e+000  1.0314e+001  5.6617e-001 56904 76603,77044,76629
 2.0000e-001 77471  2.8099e+000  1.0706e+001  9.4822e-001 56542 77566,77494,77275
 2.0000e-001 77448  1.9467e+000  8.9752e+000  2.8353e-002 56542 77494,77223,77353
 2.0000e-001 77425  3.2660e+000  1.1442e+001  5.3374e-001 56542 77566,77275,77249
 2.0000e-001 77402  4.1958e+000  8.4488e+000  3.4101e+000 56542 77197,77353,77223
 2.0000e-001 77379  2.3833e+000  1.0999e+001 -2.4586e-001 56542 77275,77327,77301
 2.0000e-001 77520  1.7987e+000  1.1446e+001  2.5200e-001 56542 77327,77275,77494
 2.0000e-001 77543 -1.4088e-001  1.0431e+001  6.4317e-001 56542 77327,77494,77353
 2.0000e-001 77592  2.7457e+000  1.0945e+001 -3.8572e-001 56542 77223,77494,77566
 2.0000e-001 77615  3.6239e+000  1.3079e+001 -7.0939e-001 56542 77223,77566,77249
 2.0000e-001 77814  1.6004e+000  1.1048e+001  1.6986e+000 56038 77837,77690,77664
 2.0000e-001 77791 -3.5140e-001  1.0678e+001  7.1482e-001 56038 77837,77664,77742
 2.0000e-001 77768 -1.7020e-001  1.1845e+001  8.5269e-001 56038 77638,77742,77664
 2.0000e-001 77863  1.7011e+000  1.0241e+001  3.2880e-001 56038 77716,77690,77837
 2.0000e-001 77886 -4.1338e-001  9.8890e+000 -6.4253e-001 56038 77716,77837,77742
 2.0000e-001 78345  5.9313e+000  1.9696e+001  2.5583e+000 55534 78071,78123,78097
 2.0000e-001 78322  1.3268e+000  1.5298e+001 -1.2422e+000 55534 78071,78201,78123
 2.0000e-001 78299 -2.0522e+000  1.9775e+001  5.2769e-001 55534 78071,78227,78201
 2.0000e-001 78276 -7.9717e-001  1.4650e+001 -4.0719e+000 55534 78123,78175,78149
 2.0000e-001 78253  9.0149e-001  1.3286e+001 -2.4539e+000 55534 78123,78201,78175
 2.0000e-001 78802  7.2988e-001  1.0569e+001  9.2690e-003 55030 78825,78632,78606
 2.0000e-001 78779  2.9590e+000  1.1225e+001 -9.8870e-001 55030 78897,78825,78606
 2.0000e-001 78756 -9.4505e-001  1.3139e+001 -2.5553e+000 55030 78897,78606,78580
 2.0000e-001 78733  2.0444e+000  8.7822e+000 -2.0489e+000 55030 78554,78684,78658
 2.0000e-001 78710  5.7592e+000  1.8045e+001  8.3116e-001 55030 78528,78684,78554
 2.0000e-001 78851  3.3559e+000  1.4057e+001  1.4229e+000 55030 78658,78632,78825
 2.0000e-001 78874  2.9801e+000  9.2754e+000 -1.7433e+000 55030 78658,78825,78554
 2.0000e-001 78923 -5.9541e-001  7.4089e+000 -3.3953e+000 55030 78554,78825,78897
 2.0000e-001 78946 -2.4988e+000  9.6303e+000 -5.0892e+000 55030 78554,78897,78580
 2.0000e-001 79403  1.4981e+000  1.1037e+001  2.1672e+000 54426 79426,79233,79155
 2.0000e-001 79380 -4.5457e+000  1.0488e+001  3.8437e+000 54426 79426,79155,79129
 2.0000e-001 79357  1.1203e+000  1.3241e+001 -2.0370e+000 54426 79233,79285,79259
 2.0000e-001 79334  6.5676e-001  9.9009e+000  4.1133e+000 54426 79181,79233,79207
 2.0000e-001 79311  2.9653e+000  9.9577e+000  2.3035e+000 54426 79155,79233,79181
 2.0000e-001 79452  2.9080e+000  1.0941e+001 -2.6457e-001 54426 79285,79233,79426
 2.0000e-001 79475 -4.6582e-001  1.2782e+001  1.1418e+000 54426 79285,79426,79129
 2.0000e-001 79932  4.0806e+000  1.3471e+001  8.7824e-001 53915 79658,79762,79684
 2.0000e-001 79909  9.8268e+000  1.7306e+001 -1.3822e+000 53915 79658,79814,79762
 2.0000e-001 79886  7.1871e+000  1.7551e+001 -5.1550e+000 53915 79762,79814,79788
 2.0000e-001 79863  7.6129e+000  1.6618e+001  9.3938e-001 53915 79710,79762,79736
 2.0000e-001 79840  7.3201e+000  1.5386e+001 -1.1679e-002 53915 79684,79762,79710
 2.0000e-001 80033  3.2189e+000  2.0233e+001  6.8206e-002 53667 79955,80007,79981
 2.0000e-001 80401  3.6571e-001  1.7139e+001 -2.0591e+000 53263 80104,80260,80234
 2.0000e-001 80378  3.0369e+000  2.0957e+001 -2.8946e-001 53263 80078,80260,80104
 2.0000e-001 80355  3.5000e+000  1.6358e+001 -1.0370e+000 53263 80104,80234,80130
 2.0000e-001 80332  4.1328e+000  1.8330e+001 -9.7117e-002 53263 80130,80208,80182
 2.0000e-001 80309  7.4548e+000  1.8737e+001  2.3241e-001 53263 80130,80234,80208
 2.0000e-001 80286  5.0453e+000  2.1599e+001  4.7255e-001 53263 80130,80182,80156
 2.0000e-001 80911 -3.4624e-002  1.1767e+001 -3.3310e+000 52965 80640,80770,80744
 2.0000e-001 80888  7.2123e+000  2.0064e+001  5.5293e-001 52965 80614,80770,80640
 2.0000e-001 80865  4.9494e+000  1.8446e+001  5.2434e-001 52965 80640,80744,80666
 2.0000e-001 80842  4.7815e+000  1.5052e+001 -4.3199e+000 52965 80588,80770,80614
 2.0000e-001 80819  3.9726e+000  1.4498e+001 -1.4229e+000 52965 80666,80718,80692
 2.0000e-001 80796  5.2939e+000  1.4884e+001  1.5179e+000 52965 80666,80744,80718
 2.0000e-001 81262  5.2029e+000  1.1141e+001  2.8764e-001 52561 81037,81141,81063
 2.0000e-001 81239  1.8293e+000  9.5797e+000  2.1279e+000 52561 81037,81167,81141
 2.0000e-001 81216 -1.4003e-001  8.4595e+000 -1.4676e-001 52561 81063,81115,81089
 2.0000e-001 81193  8.1964e-001  9.3279e+000 -1.0745e+000 52561 81063,81141,81115
 2.0000e-001 81719  2.8765e+000  1.1876e+001  6.3024e-001 51900 81445,81523,81471
 2.0000e-001 81696  2.4735e+000  9.9573e+000  2.7460e-002 51900 81445,81575,81523
 2.0000e-001 81673 -5.9769e-002  9.8521e+000  8.2378e-002 51900 81445,81601,81575
 2.0000e-001 81650  2.4008e+000  9.8276e+000 -2.1962e-002 51900 81523,81575,81549
 2.0000e-001 81627  2.1537e+000  1.2379e+001  8.0138e-002 51900 81471,81523,81497
 2.0000e-001 82323  4.5932e+000  1.3280e+001  1.1460e+000 51317 82418,82346,82032
 2.0000e-001 82300  2.2979e+000  1.0112e+001 -1.4959e-001 51317 82490,82346,81954
 2.0000e-001 82277  5.4259e+000  1.4930e+001  1.5151e+000 51317 82418,82032,82006
 2.0000e-001 82254  6.5516e-001  8.9581e+000  6.8648e-001 51317 82490,81954,81928
 2.0000e-001 82231  1.4953e+000  1.2358e+001 -1.5389e+000 51317 82058,82110,82084
 2.0000e-001 82208 -6.4530e-001  1.0126e+001 -1.7386e-001 51317 81928,82136,82110
 2.0000e-001 82185  1.5973e+000  1.6137e+001 -1.9180e+000 51317 81954,82006,81980
 2.0000e-001 82162 -2.2496e+000  9.4082e+000 -1.6465e+000 51317 81902,82136,81928
 2.0000e-001 82372  2.4528e+000  1.0797e+001  2.3609e-001 51317 82058,82032,82346
 2.0000e-001 82395  2.8277e+000  1.2388e+001 -3.2579e-002 51317 82058,82346,82110
 2.0000e-001 82444  4.3064e+000  1.2247e+001 -1.0084e+000 51317 81954,82346,82418
 2.0000e-001 82467  5.0599e+000  1.3804e+001 -6.6331e-001 51317 81954,82418,82006
 2.0000e-001 82516  1.9725e+000  1.0763e+001 -1.0114e+000 51317 82110,82346,82490
 2.0000e-001 82539  1.8576e+000  1.0471e+001 -3.9025e-001 51317 82110,82490,81928
 2.0000e-001 83015  1.4134e+000  1.5417e+001  9.0409e-001 50813 82669,82747,82695
 2.0000e-001 82992  5.5883e-001  1.1524e+001 -1.9425e-001 50813 83038,82669,82851
 2.0000e-001 82969  1.2960e+000  1.0559e+001  2.0808e-002 50813 83038,82851,82799
 2.0000e-001 82946 -3.8173e+000  8.9662e+000  2.8143e+000 50813 82747,82799,82773
 2.0000e-001 82923  1.1862e-001  9.2071e+000 -2.7217e+000 50813 82643,82851,82669
 2.0000e-001 82900  1.0808e+000  7.9700e+000 -8.1678e-001 50813 82799,82851,82825
 2.0000e-001 82877  8.5476e-001  1.4373e+001  1.1624e+000 50813 82695,82747,82721
 2.0000e-001 83064 -3.8264e-001  1.0741e+001  1.8510e-001 50813 82747,82669,83038
 2.0000e-001 83087  8.2479e-001  1.0090e+001  2.4879e-001 50813 82747,83038,82799
 2.0000e-001 83286  2.2088e+000  1.1599e+001 -4.0579e-002 50352 83309,83162,83136
 2.0000e-001 83263  2.7637e+000  1.0689e+001 -2.9407e-001 50352 83511,83309,83136
 2.0000e-001 83240  2.8975e+000  1.1081e+001 -2.9477e-001 50352 83511,83136,83381
 2.0000e-001 83335  1.5686e+000  1.0852e+001  3.1502e-001 50352 83188,83162,83309
 2.0000e-001 83358  2.3598e+000  1.0450e+001 -4.3983e-001 50352 83188,83309,83214
 2.0000e-001 83407  5.5169e+000  1.1530e+001  3.8593e-001 50352 83110,83214,83381
 2.0000e-001 83537  2.7035e+000  1.1111e+001 -5.7429e-001 50352 83214,83309,83511
 2.0000e-001 83560  2.7031e+000  1.1201e+001 -6.2893e-001 50352 83214,83511,83381
 2.0000e-001 83889  5.3173e+000  1.7609e+001  3.9008e-001 49548 83716,83794,83742
 2.0000e-001 83866  4.1491e+000  1.6253e+001 -3.3274e-001 49548 83690,83794,83716
 2.0000e-001 83843 -7.2211e-002  1.5207e+001 -8.1637e-001 49548 83664,83794,83690
 2.0000e-001 83820  4.6813e+000  1.8976e+001 -2.1364e-001 49548 83742,83794,83768
 2.0000e-001 84137  9.0568e-001  9.9770e+000  4.3874e-001 49208 84160,84016,83938
 2.0000e-001 84114  1.8081e+000  1.2099e+001  6.9524e-001 49208 84160,83938,83912
 2.0000e-001 84091  8.1341e-001  9.0723e+000 -1.6695e-001 49208 83938,84016,83964
 2.0000e-001 84068  5.3312e-001  1.0639e+001 -7.3178e-001 49208 83964,84016,83990
 2.0000e-001 84186  6.3292e-001  1.0741e+001 -7.3847e-001 49208 84042,84016,84160
 2.0000e-001 84209  1.2524e+000  1.2015e+001 -4.7876e-001 49208 84042,84160,83912
 2.0000e-001 84796  2.3961e+000  9.6869e+000 -1.1428e-001 48861 84499,84629,84551
 2.0000e-001 84773  2.4034e+000  9.4515e+000 -1.6662e-001 48861 84499,84655,84629
 2.0000e-001 84750  4.0998e+000  1.3384e+001 -7.6655e-001 48861 84551,84629,84577
 2.0000e-001 84727  2.5397e+000  1.2051e+001 -1.9904e-001 48861 84577,84629,84603
 2.0000e-001 84704 -6.7707e-001  7.8134e+000  6.9929e-001 48861 84499,84551,84525
 2.0000e-001 84681  2.7161e+000  1.0311e+001  2.9690e-001 48861 84473,84655,84499
 2.0000e-001 85351  1.0227e+001  1.6896e+001 -4.4294e+000 48457 85374,85031,85005
 2.0000e-001 85328  5.1451e+000  1.3031e+001 -2.0033e+000 48457 85374,85005,85161
 2.0000e-001 85305  1.7165e+000  1.3646e+001 -3.0692e+000 48457 85446,85057,85031
 2.0000e-001 85282  3.6570e+000  1.1575e+001 -8.3700e-001 48457 85005,85187,85161
 2.0000e-001 85259  6.2733e+000  1.2789e+001 -2.2035e+000 48457 85083,85161,85109
 2.0000e-001 85236  7.4194e+000  1.3036e+001 -6.4099e-001 48457 84979,85187,85005
 2.0000e-001 85213  8.0897e+000  1.4018e+001 -3.9494e+000 48457 85109,85161,85135
 2.0000e-001 85400  3.4833e+000  1.3702e+001 -3.1477e+000 48457 85446,85031,85374
 2.0000e-001 85423  7.3382e+000  1.4253e+001 -1.5226e+000 48457 85083,85374,85161
 2.0000e-001 85472  3.8117e+000  1.2337e+001 -1.0288e+000 48457 85083,85057,85446
 2.0000e-001 85495  6.0673e+000  1.2836e+001 -9.8617e-001 48457 85083,85446,85374
 2.0000e-001 86080  5.8392e+000  1.2851e+001 -2.6925e+000 48053 86319,86103,85783
 2.0000e-001 86057  6.3784e+000  1.6419e+001 -2.1049e+000 48053 86103,85757,85939
 2.0000e-001 86034  6.7265e+000  1.5473e+001 -6.3475e-001 48053 86247,86175,85887
 2.0000e-001 86011  7.5880e+000  1.7266e+001 -3.6384e-001 48053 86247,85887,85835
 2.0000e-001 85988  1.5559e+000  1.0599e+001 -6.8075e-001 48053 85887,85939,85913
 2.0000e-001 85965  2.7053e+000  1.9403e+001  3.2083e+000 48053 85835,85887,85861
 2.0000e-001 86129  6.4226e+000  1.4781e+001 -3.0178e+000 48053 85809,85783,86103
 2.0000e-001 86152  3.7374e+000  1.4420e+001 -2.7550e+000 48053 86175,85809,86103
 2.0000e-001 86201  5.4758e+000  1.2481e+001 -1.5436e+000 48053 85939,85887,86175
 2.0000e-001 86224  6.1058e+000  1.5718e+001 -2.2526e+000 48053 85939,86175,86103
 2.0000e-001 86273  4.7186e+000  1.7231e+001 -2.5742e+000 48053 85809,86175,86247
 2.0000e-001 86296  6.0401e+000  1.9567e+001 -2.0440e+000 48053 85809,86247,85835
 2.0000e-001 86345  7.8390e+000  1.5099e+001 -1.5070e+000 48053 85757,86103,86319
 2.0000e-001 86851 -9.0460e-001  9.5580e+000 -1.6063e+000 47541 86874,86580,86554
 2.0000e-001 86828  2.5809e+000  1.0880e+001 -4.0514e-001 47541 86946,86874,86554
 2.0000e-001 86805  3.1053e+000  1.0445e+001 -6.3548e-001 47541 86946,86554,86528
 2.0000e-001 86782  2.8552e-001  1.0773e+001  4.5215e-001 47541 86580,86658,86606
 2.0000e-001 86759  1.0332e+000  1.1582e+001 -5.3184e-001 47541 86528,86710,86684
 2.0000e-001 86736 -7.9925e-002  1.0140e+001  2.5424e-001 47541 86606,86658,86632
 2.0000e-001 86900  1.6567e+000  1.0380e+001  9.0034e-002 47541 86658,86580,86874
 2.0000e-001 86923  4.4536e+000  1.0633e+001  8.9389e-001 47541 86658,86874,86684
 2.0000e-001 86972  1.6313e+000  1.0087e+001  2.9222e-001 47541 86684,86874,86946
 2.0000e-001 86995  2.6426e+000  1.0347e+001 -9.8415e-002 47541 86684,86946,86528
 2.0000e-001 87324  3.1118e+000  1.5811e+001  5.2633e-001 47044 87151,87203,87177
 2.0000e-001 87301  5.0308e+000  1.6187e+001  2.2480e-001 47044 87125,87203,87151
 2.0000e-001 87278  6.6937e+000  1.6031e+001  4.6901e-001 47044 87099,87203,87125
 2.0000e-001 87255  5.1192e+000  1.3689e+001 -1.8618e+000 47044 87099,87229,87203
 2.0000e-001 87572  5.2004e+000  1.7194e+001  1.4158e+000 46697 87595,87425,87373
 2.0000e-001 87549  4.4834e+000  1.8763e+001  5.9548e-001 46697 87595,87373,87477
 2.0000e-001 87526  4.7368e+000  1.8984e+001  1.1270e+000 46697 87347,87477,87373
 2.0000e-001 87503  7.8250e+000  1.7470e+001 -6.4024e-001 46697 87373,87425,87399
 2.0000e-001 87621  4.8492e+000  1.4130e+001  1.6764e+000 46697 87451,87425,87595
 2.0000e-001 87644  5.5580e+000  1.7159e+001  4.1370e-001 46697 87451,87595,87477
 2.0000e-001 87794 -1.5761e+000  2.9039e+001 -2.6845e+000 46235 87693,87745,87719
 2.0000e-001 87771 -3.6169e-002  1.8274e+001  1.3044e+000 46235 87667,87745,87693
 2.0000e-001 88304  5.0193e+000  1.5314e+001  1.2001e+000 45731 88085,88163,88137
 2.0000e-001 88281  4.5547e+000  1.5391e+001  8.6907e-001 45731 88007,88163,88085
 2.0000e-001 88258  7.5665e-001  1.4691e+001  2.5815e+000 45731 87981,88163,88007
 2.0000e-001 88235  5.3630e+000  1.6237e+001  5.3092e-001 45731 88007,88085,88059
 2.0000e-001 88212  6.2643e+000  1.5629e+001 -2.2237e+000 45731 88085,88137,88111
 2.0000e-001 88189  3.0184e+000  1.5035e+001 -2.0731e+000 45731 88007,88059,88033
 2.0000e-001 88682  4.4303e+000  1.3796e+001  9.9771e-002 45312 88434,88512,88486
 2.0000e-001 88659  1.6593e+000  7.8510e+000  8.2950e-001 45312 88434,88538,88512
 2.0000e-001 88636  1.9601e+000  8.1819e+000  7.0399e-001 45312 88434,88564,88538
 2.0000e-001 88613  3.9137e+000  1.2301e+001 -3.6275e-001 45312 88434,88486,88460
 2.0000e-001 88590 -1.6427e+000  6.8979e+000  5.3069e-001 45312 88408,88564,88434
 2.0000e-001 88930  7.5188e-001  9.6228e+000  1.0987e+000 44808 88953,88731,88705
 2.0000e-001 88907  1.9453e+000  9.7974e+000 -4.7854e-001 44808 88953,88705,88835
 2.0000e-001 88884  3.3044e+000  1.0479e+001 -2.9126e-002 44808 89025,88783,88757
 2.0000e-001 88861  6.0780e+000  1.5384e+001  7.4411e-001 44808 88783,88835,88809
 2.0000e-001 88979  2.9142e+000  1.0667e+001  7.6187e-001 44808 88757,88731,88953
 2.0000e-001 89002  1.9517e+000  1.0386e+001 -7.9158e-002 44808 89025,88757,88953
 2.0000e-001 89051  4.3539e+000  1.0161e+001 -5.2456e-002 44808 88835,88783,89025
 2.0000e-001 89074  3.5630e+000  1.0481e+001 -3.4439e-001 44808 88835,89025,88953
 2.0000e-001 89224  1.8009e+000  1.6248e+001  3.7859e+000 44404 89123,89175,89149
 2.0000e-001 89201 -7.7716e-001  1.5203e+001 -5.0432e-001 44404 89097,89175,89123
 2.0000e-001 89783  8.0528e-001  1.0514e+001 -9.3797e-001 43850 89806,89541,89515
 2.0000e-001 89760 -8.6437e-001  8.1054e+000 -2.9705e+000 43850 89806,89515,89463
 2.0000e-001 89737 -2.0330e-001  9.1312e+000 -6.9233e-001 43850 89950,89878,89593
 2.0000e-001 89714  3.7795e-001  8.6919e+000 -1.6571e+000 43850 89950,89593,89567
 2.0000e-001 89691  4.2295e+000  7.8952e+000 -2.2979e+000 43850 89411,89619,89463
 2.0000e-001 89668 -6.7973e+000  1.0036e+001 -2.2128e+000 43850 89463,89515,89489
 2.0000e-001 89645  5.7920e+000  7.0934e+000 -3.1693e+000 43850 89411,89463,89437
 2.0000e-001 89832  7.9205e-001  1.0373e+001 -6.2938e-001 43850 89878,89541,89806
 2.0000e-001 89855  4.5785e+000  1.0482e+001 -2.5191e+000 43850 89619,89806,89463
 2.0000e-001 89904  3.1535e-003  7.5744e+000  4.3551e-001 43850 89619,89593,89878
 2.0000e-001 89927  1.4874e+000  9.3902e+000 -4.8800e-001 43850 89619,89878,89806
 2.0000e-001 89976  2.5156e+000  1.0274e+001 -9.6007e-001 43850 89541,89878,89950
 2.0000e-001 89999  4.0580e+000  1.0397e+001 -2.0985e+000 43850 89541,89950,89567
 2.0000e-001 90247  3.8443e+000  1.2833e+001  2.8789e+000 43488 90022,90074,90048
 2.0000e-001 90224  3.2329e+000  1.1126e+001 -7.7500e-002 43488 90270,90022,90152
 2.0000e-001 90201  2.8073e+000  1.1522e+001 -1.0920e-001 43488 90342,90270,90152
 2.0000e-001 90178  2.7432e+000  1.1232e+001  9.7858e-002 43488 90342,90152,90126
 2.0000e-001 90296  4.5762e+000  1.1659e+001 -3.0452e-001 43488 90074,90022,90270
 2.0000e-001 90319  2.9721e+000  1.1389e+001  5.1342e-002 43488 90074,90270,90100
 2.0000e-001 90368  2.6320e+000  1.1228e+001  2.3659e-001 43488 90100,90270,90342
 2.0000e-001 90391  2.5555e+000  1.0887e+001  4.4030e-001 43488 90100,90342,90126
 2.0000e-001 90590  4.3966e+000  2.1010e+001  9.8998e-002 43048 90414,90492,90440
 2.0000e-001 90567  6.6211e+000  1.4688e+001  1.3985e+000 43048 90414,90518,90492
 2.0000e-001 90544 -9.3866e-001  2.3564e+001  1.7798e+000 43048 90440,90492,90466
 2.0000e-001 91070  7.8039e+000  1.9319e+001 -2.8695e-001 42430 91237,90880,90854
 2.0000e-001 91047  7.1924e+000  1.9452e+001  9.4666e-001 42430 90698,90906,90880
 2.0000e-001 91024  6.3028e+000  1.9542e+001 -4.3263e-001 42430 91093,90750,90698
 2.0000e-001 91001  7.3837e+000  1.8468e+001 -1.3135e-001 42430 91237,90854,91093
 2.0000e-001 90978  5.0618e+000  1.5152e+001 -1.4485e+000 42430 91165,90802,90776
 2.0000e-001 90955  2.4273e+000  1.7007e+001 -1.2166e+000 42430 90802,90854,90828
 2.0000e-001 90932  6.5539e+000  2.3830e+001  9.1522e-001 42430 90698,90750,90724
 2.0000e-001 91119  8.8666e+000  1.9394e+001  1.2219e+000 42430 90776,90750,91093
 2.0000e-001 91142  6.3030e+000  1.5231e+001 -7.6947e-001 42430 91165,90776,91093
 2.0000e-001 91191  4.9857e+000  1.5804e+001 -4.6916e-002 42430 90854,90802,91165
 2.0000e-001 91214  6.4908e+000  1.6900e+001  7.5493e-001 42430 90854,91165,91093
 2.0000e-001 91263  6.9398e+000  2.0146e+001  3.7966e-001 42430 90698,90880,91237
 2.0000e-001 91286  6.6072e+000  1.9451e+001  5.1135e-001 42430 90698,91237,91093
 2.0000e-001 91694  1.0647e+001  1.3392e+001  1.9255e-001 41769 91469,91573,91495
 2.0000e-001 91671  9.3210e+000  1.3124e+001  2.3829e-002 41769 91469,91599,91573
 2.0000e-001 91648  8.1966e+000  1.6362e+001 -5.6552e-001 41769 91495,91547,91521
 2.0000e-001 91625  1.1340e+001  1.6986e+001  1.6265e+000 41769 91495,91573,91547
 2.0000e-001 92040  3.9963e+000  1.1027e+001  3.3454e-001 41379 91769,91873,91847
 2.0000e-001 92017  1.1392e+000  9.7215e+000  8.9767e-003 41379 91743,91873,91769
 2.0000e-001 91994  4.0028e+000  1.1449e+001  1.3989e-001 41379 91769,91847,91795
 2.0000e-001 91971 -7.5844e-001  1.0168e+001 -6.9393e-001 41379 91743,91899,91873
 2.0000e-001 91948 -9.3358e-002  1.2993e+001  2.9931e+000 41379 91717,91899,91743
 2.0000e-001 91925  4.8924e+000  1.3105e+001  1.5856e+000 41379 91795,91847,91821
 2.0000e-001 92597  7.7717e+000  1.5971e+001 -1.0864e+000 40975 92225,92407,92303
 2.0000e-001 92574  4.8661e+000  1.5639e+001 -1.1498e+000 40975 92225,92433,92407
 2.0000e-001 92551  5.5266e+000  2.0265e+001  3.1372e+000 40975 92225,92303,92277
 2.0000e-001 92528  7.0495e+000  1.5876e+001 -9.4306e-001 40975 92329,92407,92381
 2.0000e-001 92505  5.9331e+000  1.4525e+001 -1.7213e+000 40975 92303,92407,92329
 2.0000e-001 92482  6.4720e-001  1.2857e+001  6.5482e-001 40975 92225,92277,92251
 2.0000e-001 92459  4.0433e+000  1.7559e+001  1.7850e+000 40975 92329,92381,92355
 2.0000e-001 93231 -7.0262e+000  2.0178e+001  7.5881e-001 40521 92937,92989,92963
 2.0000e-001 93208  3.0057e+000  1.5107e+001  7.5965e-001 40521 93254,92937,92885
 2.0000e-001 93185  4.2325e+000  1.6117e+001 -5.4000e-002 40521 93254,92885,93067
 2.0000e-001 93162  8.2470e+000  1.7266e+001 -1.3688e+000 40521 92885,92937,92911
 2.0000e-001 93139  3.5374e+000  1.8061e+001  5.3136e-001 40521 92859,93067,92885
 2.0000e-001 93116  7.1627e+000  1.8644e+001 -1.7669e-001 40521 92989,93067,93015
 2.0000e-001 93093  7.5990e+000  1.9393e+001 -4.4646e-001 40521 93015,93067,93041
 2.0000e-001 93280  2.2630e+000  1.3137e+001  2.3521e+000 40521 92989,92937,93254
 2.0000e-001 93303  4.9611e+000  1.5407e+001  1.2375e+000 40521 92989,93254,93067
 2.0000e-001 93632  3.5874e+000  1.4515e+001 -1.8126e+000 40231 93433,93537,93511
 2.0000e-001 93609  2.2541e+000  1.0984e+001 -3.5487e+000 40231 93407,93537,93433
 2.0000e-001 93586  1.9858e+000  1.4705e+001 -9.2895e-001 40231 93459,93511,93485
 2.0000e-001 93563  1.6921e+000  1.3511e+001 -1.1535e+000 40231 93433,93511,93459
 2.0000e-001 94010  3.7253e+000  1.1277e+001  3.4380e-001 39869 93762,93866,93788
 2.0000e-001 93987  2.7342e+000  9.1614e+000 -1.2023e+000 39869 93762,93892,93866
 2.0000e-001 93964  8.5617e-001  8.0513e+000 -8.9077e-001 39869 93788,93866,93840
 2.0000e-001 93941  1.4195e+000  9.8612e+000 -2.8177e+000 39869 93788,93840,93814
 2.0000e-001 93918  5.6014e+000  1.2761e+001  7.8494e-001 39869 93736,93892,93762
 2.0000e-001 94160  4.1767e+000  2.2594e+001 -1.9765e+000 39457 94033,94085,94059
 2.0000e-001 94137 -4.3487e-001  1.6414e+001  2.3570e-001 39457 94033,94111,94085
 2.0000e-001 94359 -5.0978e-001  1.0159e+001 -2.8248e-001 39053 94382,94235,94209
 2.0000e-001 94336  3.7228e+000  1.2543e+001 -1.2345e+000 39053 94382,94209,94183
 2.0000e-001 94313  5.2301e+000  1.2926e+001 -6.0949e-001 39053 94183,94287,94261
 2.0000e-001 94408  5.8158e+000  1.2925e+001 -1.3107e+000 39053 94454,94382,94261
 2.0000e-001 94431  3.2204e+000  1.1704e+001  3.0846e-002 39053 94261,94382,94183
 2.0000e-001 94480  1.0536e+000  6.4819e+000  7.9648e-001 39053 94235,94382,94454
 2.0000e-001 94892  3.7209e+000  1.2633e+001 -4.0473e-001 38392 94915,94771,94719
 2.0000e-001 94869  3.0946e+000  1.2297e+001 -5.6958e-001 38392 94915,94719,94693
 2.0000e-001 94846 -1.5776e-001  1.0953e+001 -9.2441e-001 38392 94719,94771,94745
 2.0000e-001 94823  2.3093e+000  1.0653e+001 -1.7390e+000 38392 94667,94797,94693
 2.0000e-001 94941  4.3154e+000  1.2271e+001 -2.4569e-001 38392 94797,94771,94915
 2.0000e-001 94964  3.8619e+000  1.2042e+001 -3.9996e-001 38392 94797,94915,94693
 2.0000e-001 95261  9.3538e+000  1.5343e+001 -2.4913e+000 37831 95013,95065,95039
 2.0000e-001 95238  4.2879e+000  1.4142e+001  1.7018e-001 37831 95284,95065,95013
 2.0000e-001 95215  4.3203e+000  1.4068e+001  2.9814e-001 37831 95284,95013,94987
 2.0000e-001 95192  6.4520e+000  1.8716e+001 -4.6290e-001 37831 94987,95143,95117
 2.0000e-001 95169  2.7415e+000  1.5288e+001  1.1540e+000 37831 95065,95117,95091
 2.0000e-001 95310  4.3295e+000  1.4313e+001  1.5426e-001 37831 95117,95065,95284
 2.0000e-001 95333  4.3430e+000  1.4185e+001  2.7058e-001 37831 95117,95284,94987
 2.0000e-001 95554  2.9108e+000  9.0072e+000 -1.1721e+000 37419 95404,95456,95430
 2.0000e-001 95531  5.1552e+000  1.3057e+001  2.1975e-002 37419 95378,95456,95404
 2.0000e-001 95508  4.4231e+000  1.3192e+001  5.6258e-002 37419 95378,95482,95456
 2.0000e-001 95887  5.0891e+000  1.3047e+001  2.7897e-001 37221 95662,95714,95688
 2.0000e-001 95864  4.9070e+000  1.1345e+001  3.8681e-001 37221 95662,95792,95714
 2.0000e-001 95841  1.5967e+001  1.6904e+001 -1.3944e+000 37221 95714,95766,95740
 2.0000e-001 95818  6.2117e+000  1.3998e+001 -6.7759e-001 37221 95714,95792,95766
 2.0000e-001 95988 -1.0387e+001  3.5796e+000 -2.3116e+000 36731 95910,95962,95936
 2.0000e-001 96138  3.2155e+000  1.1354e+001 -1.4727e-001 36327 96293,96063,96037
 2.0000e-001 96115 -2.3211e-001  7.6567e+000 -1.0611e+000 36327 96161,96037,96011
 2.0000e-001 96187  3.4601e+000  1.1631e+001  5.7337e-001 36327 96293,96037,96161
 2.0000e-001 96319  3.0901e+000  1.2295e+001  6.7423e-001 36327 96089,96063,96293
 2.0000e-001 96342  4.1544e+000  1.2959e+001  1.5051e+000 36327 96089,96293,96161
 2.0000e-001 96710  4.0495e+000  1.1343e+001  2.3485e-002 36037 96733,96491,96439
 2.0000e-001 96687  4.9392e+000  1.1260e+001  7.0362e-002 36037 96733,96439,96413
 2.0000e-001 96664  1.1318e+000  9.9484e+000 -9.5662e-001 36037 96439,96491,96465
 2.0000e-001 96641  2.7898e+000  1.1505e+001  3.8802e-001 36037 96387,96517,96413
 2.0000e-001 96618  2.5895e+000  1.0469e+001  4.5789e-001 36037 96387,96543,96517
 2.0000e-001 96595  4.8429e+000  9.1544e+000  1.9595e+000 36037 96387,96569,96543
 2.0000e-001 96759  2.1004e+000  1.1297e+001  1.7298e-001 36037 96517,96491,96733
 2.0000e-001 96782  4.0944e+000  1.1980e+001  3.2110e-001 36037 96517,96733,96413
 2.0000e-001 96932  1.3387e+001  1.7972e+001 -2.9518e+000 35633 97027,96955,96831
 2.0000e-001 96909  4.3185e+000  1.0180e+001 -3.5193e+000 35633 97159,96955,96805
 2.0000e-001 96981  8.6007e+000  2.0106e+001  7.6608e-004 35633 96857,96831,96955
 2.0000e-001 97004  7.0747e+000  1.6271e+001 -3.3872e-001 35633 96857,96955,96883
 2.0000e-001 97053  4.6515e+000  1.2577e+001 -6.6958e-001 35633 96805,96955,97027
 2.0000e-001 97185  9.2463e+000  1.7344e+001 -8.3713e-001 35633 96883,96955,97159
 2.0000e-001 97593  9.1229e+000  2.1075e+001 -2.3544e+000 35186 97446,97498,97472
 2.0000e-001 97570  7.4749e+000  1.6221e+001 -1.6246e+000 35186 97368,97498,97446
 2.0000e-001 97547  7.6635e+000  1.5555e+001 -2.3891e+000 35186 97368,97446,97394
 2.0000e-001 97524  9.3895e+000  1.6486e+001 -2.7624e+000 35186 97394,97446,97420
 2.0000e-001 98050  4.1692e+000  1.2015e+001 -1.2619e+000 34632 97802,97932,97854
 2.0000e-001 98027  5.1530e+000  1.5626e+001 -3.3371e-001 34632 97776,97932,97802
 2.0000e-001 98004  2.1475e-001  8.8725e+000  1.0800e+000 34632 97802,97854,97828
 2.0000e-001 97981  2.1344e+000  1.0155e+001 -1.0073e-001 34632 97880,97932,97906
 2.0000e-001 97958  4.8070e+000  1.3097e+001 -1.5784e+000 34632 97854,97932,97880
 2.0000e-001 98526  5.1384e+000  1.8685e+001 -1.7928e+000 34064 98693,98180,98362
 2.0000e-001 98503 -4.7719e+000  9.5459e+000 -6.9020e+000 34064 98154,98362,98180
 2.0000e-001 98480  5.8917e+000  2.0478e+001  3.2591e+000 34064 98549,98258,98232
 2.0000e-001 98457  8.8905e+000  1.9972e+001  1.5858e+000 34064 98549,98232,98206
 2.0000e-001 98434  5.4732e+000  1.7081e+001 -1.3122e+000 34064 98837,98621,98362
 2.0000e-001 98411  5.0507e+000  9.3397e+000  5.0652e+000 34064 98765,98284,98258
 2.0000e-001 98388  6.7203e+000  1.6742e+001 -1.4875e+000 34064 98837,98362,98336
 2.0000e-001 98575  3.1290e+000  1.4180e+001  3.6840e+000 34064 98765,98258,98549
 2.0000e-001 98598  5.1058e+000  1.5908e+001 -4.5274e-001 34064 98621,98310,98549
 2.0000e-001 98647  5.7852e+000  1.7973e+001 -1.1386e+000 34064 98693,98362,98621
 2.0000e-001 98670  6.3419e+000  1.8766e+001 -2.2714e-001 34064 98206,98621,98549
 2.0000e-001 98719  4.0647e+000  1.7942e+001 -1.2313e+000 34064 98206,98180,98693
 2.0000e-001 98742  4.4656e+000  1.7305e+001 -8.6760e-001 34064 98206,98693,98621
 2.0000e-001 98791  8.4168e+000  1.4457e+001  1.9329e+000 34064 98310,98284,98765
 2.0000e-001 98814  5.5822e+000  1.7895e+001  5.4760e-001 34064 98310,98765,98549
 2.0000e-001 98863  7.0408e+000  1.6993e+001 -1.1256e+000 34064 98310,98621,98837
 2.0000e-001 98886  8.3864e+000  1.6737e+001 -1.3929e+000 34064 98310,98837,98336
 2.0000e-001 99264  7.4765e+000  1.3318e+001 -1.7531e+000 33446 99287,99094,99068
 2.0000e-001 99241  7.4590e+000  1.3678e+001 -1.9229e+000 33446 99287,99068,99016
 2.0000e-001 99218  5.7711e+000  1.1846e+001 -1.1754e+000 33446 99016,99068,99042
 2.0000e-001 99195  3.0748e+000  1.1804e+001 -2.4552e+000 33446 99016,99146,99120
 2.0000e-001 99172  4.6966e+000  1.5926e+001 -2.6342e+000 33446 98990,99146,99016
 2.0000e-001 99313  7.7061e+000  1.3522e+001 -1.9084e+000 33446 99120,99094,99287
 2.0000e-001 99336  7.4952e+000  1.3806e+001 -2.0202e+000 33446 99120,99287,99016
 2.0000e-001 99861  3.3831e+000  1.2951e+001  2.9412e-001 32940 100172,99956,99884
 2.0000e-001 99838  4.4348e+000  1.3551e+001  7.8224e-001 32940 100100,99884,99518
 2.0000e-001 99815  4.5850e+000  1.1933e+001 -1.5109e-002 32940 100244,99956,99622
 2.0000e-001 99792  4.9425e+000  1.3404e+001  2.0774e-001 32940 100028,99648,99622
 2.0000e-001 99769  4.3918e+000  1.4607e+001  1.1933e+000 32940 100100,99518,99492
 2.0000e-001 99746  3.9871e+000  1.3168e+001  2.3910e+000 32940 99570,99622,99596
 2.0000e-001 99723  3.7036e+000  1.3807e+001 -4.2454e-002 32940 100244,99622,99570
 2.0000e-001 99700  4.6769e+000  1.7028e+001  2.5762e-002 32940 99440,99492,99466
 2.0000e-001 99910  3.9294e+000  1.3361e+001  1.7486e-002 32940 100172,99884,100028
 2.0000e-001 99933  3.3029e+000  1.2444e+001  3.7026e-001 32940 99674,99884,99440
 2.0000e-001 99982  3.4756e+000  1.1694e+001  4.3913e-001 32940 99518,99884,99956
 2.0000e-001 100005  2.1373e+000  7.9135e+000 -2.3713e+000 32940 99518,99956,99544
 2.0000e-001 100054  3.5211e+000  1.3460e+001  3.3820e-001 32940 99674,99648,100028
 2.0000e-001 100077  3.7569e+000  1.3528e+001  2.6348e-001 32940 99674,100028,99884
 2.0000e-001 100126  4.0612e+000  1.2884e+001  1.5382e-001 32940 99440,99884,100100
 2.0000e-001 100149  3.9103e+000  1.3541e+001  6.2039e-001 32940 99440,100100,99492
 2.0000e-001 100198  3.6137e+000  1.2505e+001  7.5392e-001 32940 99622,99956,100172
 2.0000e-001 100221  3.6257e+000  1.2582e+001  5.6124e-001 32940 99622,100172,100028
 2.0000e-001 100270  4.9311e+000  1.4172e+001 -1.3032e+000 32940 99544,99956,100244
 2.0000e-001 100293  4.1113e+000  1.6020e+001 -1.4108e+000 32940 99544,100244,99570
 2.0000e-001 100750  4.0529e+000  1.0982e+001 -9.3181e-001 32365 100773,100580,100502
 2.0000e-001 100727  2.3648e+000  8.7500e+000  5.4815e-001 32365 100773,100502,100632
 2.0000e-001 100704 -1.0263e-001  8.9796e+000  1.1906e+000 32365 100476,100632,100502
 2.0000e-001 100681  2.9527e+000  1.0285e+001  6.1039e-001 32365 100528,100580,100554
 2.0000e-001 100658  6.1678e+000  1.4008e+001 -2.1567e+000 32365 100502,100580,100528
 2.0000e-001 100799  2.0075e+000  1.3782e+001 -1.7139e+000 32365 100606,100580,100773
 2.0000e-001 100822  9.8348e-001  1.1717e+001 -5.2164e-001 32365 100606,100773,100632
 2.0000e-001 101021  1.0151e+000  1.0118e+001 -2.4370e-001 31853 100871,100923,100897
 2.0000e-001 100998  3.1959e+000  1.1458e+001  3.6658e-001 31853 100871,100949,100923
 2.0000e-001 100975  3.5093e+000  1.1340e+001  1.1621e+000 31853 100845,100949,100871
 2.0000e-001 101529  3.7060e+000  1.0402e+001  7.0083e-001 31249 101552,101310,101232
 2.0000e-001 101506  3.0737e+000  6.9839e+000  2.6958e+000 31249 101552,101232,101206
 2.0000e-001 101483  5.6521e+000  1.5510e+001  5.9743e-002 31249 101206,101388,101336
 2.0000e-001 101460  4.2507e+000  1.1569e+001 -1.6776e+000 31249 101232,101284,101258
 2.0000e-001 101437  4.4165e+000  9.2973e+000  5.6902e-002 31249 101232,101310,101284
 2.0000e-001 101414  3.9304e+000  1.4961e+001 -2.8040e+000 31249 101336,101388,101362
 2.0000e-001 101578  4.3454e+000  1.4928e+001 -1.0643e+000 31249 101336,101310,101552
 2.0000e-001 101601  3.1935e+000  1.0536e+001  8.7621e-001 31249 101336,101552,101206
 2.0000e-001 101751  6.3112e+000  2.3835e+001 -6.2883e-001 30515 101774,101650,101624
 2.0000e-001 101728  7.9766e+000  2.5745e+001 -1.6169e+000 30515 101846,101774,101624
 2.0000e-001 101800  7.2405e+000  2.1105e+001 -7.4976e-001 30515 101676,101650,101774
 2.0000e-001 101823  9.8949e+000  2.2592e+001 -1.6917e+000 30515 101676,101774,101702
 2.0000e-001 101872  5.8181e+000  2.1147e+001 -2.5891e+000 30515 101702,101774,101846
 2.0000e-001 102557  2.9290e+000  1.1778e+001 -1.2495e-001 29947 102652,102580,102266
 2.0000e-001 102534  3.1535e+000  1.2654e+001  5.0209e-001 29947 102580,102136,102370
 2.0000e-001 102511  2.5751e+000  1.0858e+001  1.6282e-001 29947 102724,102652,102266
 2.0000e-001 102488  3.3168e+000  1.0802e+001 -2.2429e-001 29947 102724,102266,102240
 2.0000e-001 102465  4.2589e+000  1.3930e+001 -8.9012e-001 29947 102796,102318,102292
 2.0000e-001 102442  4.7247e+000  1.3525e+001  2.6696e-001 29947 102162,102214,102188
 2.0000e-001 102419  5.8120e+000  1.4294e+001  6.5926e-001 29947 102162,102240,102214
 2.0000e-001 102396  3.9045e+000  1.3505e+001  2.3398e+000 29947 102318,102370,102344
 2.0000e-001 102606  2.6291e+000  8.8097e+000 -6.6779e-001 29947 102292,102266,102580
 2.0000e-001 102629  4.0700e+000  1.2461e+001 -7.5276e-001 29947 102796,102292,102580
 2.0000e-001 102678  2.5058e+000  1.1073e+001  5.1942e-001 29947 102136,102580,102652
 2.0000e-001 102701  2.8950e+000  9.6746e+000  8.4585e-001 29947 102136,102652,102162
 2.0000e-001 102750  3.7478e+000  1.1140e+001  3.3092e-001 29947 102162,102652,102724
 2.0000e-001 102773  3.9631e+000  1.0702e+001 -9.7904e-002 29947 102162,102724,102240
 2.0000e-001 102822  4.1142e+000  1.2267e+001 -2.2456e-001 29947 102370,102318,102796
 2.0000e-001 102845  4.3119e+000  1.1544e+001  5.0402e-002 29947 102370,102796,102580
 2.0000e-001 103044  7.3952e+000  1.7090e+001  3.4561e-001 29450 102868,102920,102894
 2.0000e-001 103021  8.4144e+000  1.9348e+001 -2.0358e-001 29450 102868,102972,102920
 2.0000e-001 102998  5.6173e+000  2.0354e+001 -2.4577e+000 29450 102920,102972,102946
 2.0000e-001 103292  1.1182e+001  2.1766e+001  3.6754e-001 29060 103315,103171,103119
 2.0000e-001 103269  1.0702e+001  2.1701e+001  4.5671e-001 29060 103315,103119,103067
 2.0000e-001 103246  1.2857e+001  1.8115e+001  3.8447e+000 29060 103119,103171,103145
 2.0000e-001 103223  7.2413e+000  2.5971e+001 -6.2970e-001 29060 103067,103119,103093
 2.0000e-001 103341  1.1672e+001  2.1604e+001  9.8661e-002 29060 103197,103171,103315
 2.0000e-001 103364  1.0947e+001  2.1505e+001  7.5832e-003 29060 103197,103315,103067
 2.0000e-001 104002  3.4331e+000  1.0265e+001 -7.4345e-001 28599 104097,104025,103708
 2.0000e-001 103979  4.0601e+000  1.2004e+001  3.1267e-001 28599 104169,104025,103656
 2.0000e-001 103956  4.3278e+000  9.3975e+000 -5.9865e-001 28599 104097,103708,103682
 2.0000e-001 103933  3.8922e+000  1.1559e+001  1.3451e-001 28599 104169,103656,103630
 2.0000e-001 103910  7.3230e+000  1.7165e+001  5.9362e-001 28599 103760,103812,103786
 2.0000e-001 103887  8.5842e-001  9.7258e+000  2.1557e+000 28599 103630,103838,103812
 2.0000e-001 103864  1.7677e+000  1.3787e+001 -9.6830e-001 28599 103708,103760,103734
 2.0000e-001 104051  3.7075e+000  1.2484e+001 -2.9017e-001 28599 103760,103708,104025
 2.0000e-001 104074  5.3759e+000  1.2239e+001  1.1601e+000 28599 103760,104025,103812
 2.0000e-001 104123  4.0043e+000  1.2222e+001 -2.9075e-001 28599 103656,104025,104097
 2.0000e-001 104146  4.3550e+000  1.0552e+001 -1.6401e-002 28599 103656,104097,103682
 2.0000e-001 104195  4.1402e+000  1.1467e+001  2.9164e-001 28599 103812,104025,104169
 2.0000e-001 104218  4.1851e+000  1.1235e+001  1.8106e-001 28599 103812,104169,103630
 2.0000e-001 104596  9.2134e+000  1.6879e+001 -1.1906e+000 28344 104619,104374,104322
 2.0000e-001 104573  9.7953e+000  1.7074e+001 -1.1566e+000 28344 104619,104322,104478
 2.0000e-001 104550  7.1131e+000  1.6364e+001 -3.3012e-001 28344 104322,104374,104348
 2.0000e-001 104527  8.8890e+000  2.6891e+001 -2.6748e+000 28344 104400,104452,104426
 2.0000e-001 104504  6.9774e+000  1.9453e+001  2.2597e-001 28344 104374,104452,104400
 2.0000e-001 104645  9.3789e+000  1.6656e+001 -5.5387e-001 28344 104452,104374,104619
 2.0000e-001 104668  1.0199e+001  1.6968e+001 -5.3588e-001 28344 104452,104619,104478
 2.0000e-001 104987  3.6095e+000  1.1550e+001  1.4109e-001 27947 104713,104843,104765
 2.0000e-001 104964  3.2475e+000  1.1805e+001 -2.2009e-001 27947 104713,104869,104843
 2.0000e-001 104941  3.5672e+000  1.1370e+001  3.1227e-002 27947 104765,104843,104791
 2.0000e-001 104918  1.6861e+000  6.1632e+000  3.5431e-001 27947 104791,104843,104817
 2.0000e-001 104895  3.9768e+000  1.5107e+001  3.0525e+000 27947 104713,104765,104739
 2.0000e-001 105367  5.9872e+000  1.6814e+001 -5.6781e-001 27443 105390,105197,105119
 2.0000e-001 105344  2.6386e+000  1.6473e+001  1.5129e+000 27443 105390,105119,105093
 2.0000e-001 105321  8.3770e+000  1.5216e+001  6.3649e-002 27443 105119,105197,105145
 2.0000e-001 105298  4.9225e+000  2.7574e+001 -8.3236e+000 27443 105197,105249,105223
 2.0000e-001 105275  9.8239e+000  1.5928e+001  3.0338e-001 27443 105145,105197,105171
 2.0000e-001 105416  8.1403e+000  1.7614e+001 -2.3446e+000 27443 105249,105197,105390
 2.0000e-001 105439  4.8014e+000  1.8048e+001 -5.1726e-001 27443 105249,105390,105093
 2.0000e-001 105994  6.0831e+000  1.3919e+001  1.4093e+000 27096 106161,106017,105700
 2.0000e-001 105971  2.8649e+000  1.0814e+001  5.0586e-001 27096 106305,106017,105648
 2.0000e-001 105948  5.8383e+000  1.1294e+001 -1.1109e+000 27096 106089,105804,105778
 2.0000e-001 105925  6.1255e+000  1.4787e+001  1.6942e+000 27096 106161,105700,105674
 2.0000e-001 105902  3.5297e+000  1.1369e+001 -3.3949e-001 27096 106233,105726,105700
 2.0000e-001 105879  9.9588e-001  1.0419e+001  5.7906e-001 27096 106305,105648,105622
 2.0000e-001 105856  2.9346e+000  1.3573e+001 -5.7686e-001 27096 105726,105778,105752
 2.0000e-001 106043  3.8266e+000  1.1812e+001 -1.2098e-001 27096 106233,105700,106017
 2.0000e-001 106066  4.1014e+000  1.3175e+001 -3.3157e-001 27096 106089,105778,106017
 2.0000e-001 106115  2.8358e+000  9.8665e+000 -2.1145e+000 27096 105830,105804,106089
 2.0000e-001 106138  3.2552e+000  1.1393e+001 -9.4004e-001 27096 106377,106089,106017
 2.0000e-001 106187  6.0000e+000  1.2371e+001 -6.1735e-002 27096 105648,106017,106161
 2.0000e-001 106210  6.7234e+000  1.4960e+001 -1.0094e-001 27096 105648,106161,105674
 2.0000e-001 106259  3.1209e+000  1.2036e+001 -7.4441e-002 27096 105778,105726,106233
 2.0000e-001 106282  3.4663e+000  1.2467e+001  1.6937e-001 27096 105778,106233,106017
 2.0000e-001 106331  3.5694e+000  1.0993e+001 -2.5195e-001 27096 106377,106017,106305
 2.0000e-001 106354  2.6154e+000  1.1178e+001  1.2555e-001 27096 105830,106305,105622
 2.0000e-001 106403  2.0852e+000  1.0708e+001 -6.5427e-001 27096 105830,106089,106377
 2.0000e-001 106426  2.2262e+000  1.0347e+001 -4.8715e-002 27096 105830,106377,106305
 2.0000e-001 106625  6.5905e+000  1.7069e+001  1.6028e-001 26684 106475,106553,106527
 2.0000e-001 106602  6.4807e+000  1.8317e+001  3.4606e-001 26684 106449,106553,106475
 2.0000e-001 106579  5.3993e+000  1.7456e+001 -1.3288e+000 26684 106475,106527,106501
 2.0000e-001 107084  3.9661e+000  1.3231e+001  9.3875e-001 26244 107107,106914,106862
 2.0000e-001 107061  4.3437e+000  1.4253e+001  9.0160e-001 26244 107107,106862,106836
 2.0000e-001 107038  1.3780e+000  1.9475e+001  4.5273e-001 26244 106810,106966,106836
 2.0000e-001 107015  2.1388e+000  1.0806e+001  5.1564e-002 26244 106862,106914,106888
 2.0000e-001 106992  2.7650e+000  1.0142e+001  5.2780e-001 26244 106914,106966,106940
 2.0000e-001 107133  3.9762e+000  1.2361e+001 -3.9700e-001 26244 106966,106914,107107
 2.0000e-001 107156  4.8196e+000  1.4358e+001 -4.2717e-001 26244 106966,107107,106836
 2.0000e-001 107662  1.8309e+000  1.1532e+001  1.0604e-001 25904 107365,107495,107391
 2.0000e-001 107639  3.2279e+000  1.0580e+001  1.7840e-001 25904 107365,107521,107495
 2.0000e-001 107616  4.3086e+000  1.2602e+001  5.2571e-002 25904 107391,107469,107443
 2.0000e-001 107593  3.3214e+000  1.2180e+001  2.6150e-001 25904 107391,107495,107469
 2.0000e-001 107570  4.9133e+000  1.3460e+001 -3.2816e-001 25904 107391,107443,107417
 2.0000e-001 107547 -3.1613e-001  8.7778e+000 -1.5172e+000 25904 107339,107521,107365
 2.0000e-001 108247  3.4718e+000  1.2136e+001  2.0654e-001 25450 108270,108002,107950
 2.0000e-001 108224  3.1854e+000  1.2149e+001  8.5759e-002 25450 108270,107950,108106
 2.0000e-001 108201  2.8512e+000  1.1756e+001  1.0043e-001 25450 108342,108028,108002
 2.0000e-001 108178  4.3268e+000  1.2556e+001 -4.5156e-001 25450 107950,108002,107976
 2.0000e-001 108155  2.2118e+000  1.3681e+001  5.3261e-001 25450 107924,108106,107950
 2.0000e-001 108132  5.2980e+000  1.4764e+001 -2.1166e-001 25450 108054,108106,108080
 2.0000e-001 108296  3.2087e+000  1.1614e+001  1.1503e-001 25450 108342,108002,108270
 2.0000e-001 108319  3.5437e+000  1.2542e+001  5.4855e-001 25450 108054,108270,108106
 2.0000e-001 108368  1.7443e+000  1.1897e+001  2.6503e-001 25450 108054,108028,108342
 2.0000e-001 108391  2.5205e+000  1.2074e+001  4.2757e-001 25450 108054,108342,108270
 2.0000e-001 108818  2.7255e+000  1.0242e+001  1.5831e+000 24939 108521,108677,108651
 2.0000e-001 108795  2.1880e+000  7.1006e+000  2.1406e+000 24939 108495,108677,108521
 2.0000e-001 108772  3.8711e+000  1.0716e+001 -5.8131e-001 24939 108521,108651,108625
 2.0000e-001 108749  4.3795e+000  9.7936e+000 -2.4375e-001 24939 108521,108625,108599
 2.0000e-001 108726  7.7208e+000  7.1651e+000  5.0358e-001 24939 108547,108599,108573
 2.0000e-001 108703  3.6702e+000  7.9671e+000 -1.6520e-001 24939 108521,108599,108547
 2.0000e-001 109403  1.0173e+001  1.0301e+001  4.5271e-001 24741 109158,109210,109184
 2.0000e-001 109380  9.2407e+000  1.0085e+001  4.5807e-001 24741 109158,109262,109210
 2.0000e-001 109357  9.7483e+000  1.0170e+001  9.1405e-001 24741 109080,109262,109158
 2.0000e-001 109334  1.0799e+001  8.4426e+000  3.8947e-001 24741 109080,109158,109132
 2.0000e-001 109311  9.4904e+000  8.5970e+000  8.0883e-001 24741 109210,109262,109236
 2.0000e-001 109288  1.2155e+001  8.2257e+000  1.0688e+000 24741 109080,109132,109106
 2.0000e-001 109781  2.6388e+000  1.2233e+001 -2.5181e-001 24337 109533,109611,109559
 2.0000e-001 109758  3.6191e+000  1.2396e+001 -3.0564e-001 24337 109533,109637,109611
 2.0000e-001 109735  3.1398e+000  1.2947e+001  4.5081e-001 24337 109559,109611,109585
 2.0000e-001 109712  3.6333e+000  1.2589e+001  1.1268e+000 24337 109533,109663,109637
 2.0000e-001 109689  2.7706e+000  1.0449e+001  3.5695e-002 24337 109507,109663,109533
 2.0000e-001 110159  4.1581e+000  8.6959e+000  2.6067e+000 23833 110182,109963,109911
 2.0000e-001 110136  1.5120e-001  7.2539e+000  2.6802e+000 23833 110182,109911,109885
 2.0000e-001 110113  9.7772e+000  7.2835e+000 -1.1068e+000 23833 109885,110041,109989
 2.0000e-001 110090  5.6730e+000  1.1773e+001  2.1232e+000 23833 109911,109963,109937
 2.0000e-001 110067  6.8704e+000  5.5652e-001 -1.5530e+000 23833 109989,110041,110015
 2.0000e-001 110208  2.1606e+000  8.3881e+000  1.0219e+000 23833 109989,109963,110182
 2.0000e-001 110231  9.2455e-001  8.1359e+000  7.2681e-001 23833 109989,110182,109885
 2.0000e-001 110332  1.8250e+000  1.6928e+001 -8.3070e-001 23429 110254,110306,110280
 2.0000e-001 110580  2.1489e+000  1.2247e+001 -1.5594e+000 22825 110603,110407,110381
 2.0000e-001 110557  4.3847e+000  1.3173e+001 -1.4158e+000 22825 110603,110381,110485
 2.0000e-001 110534  5.8346e+000  1.5411e+001 -7.6057e-001 22825 110433,110485,110459
 2.0000e-001 110511  6.2407e+000  1.3357e+001 -7.7503e-001 22825 110355,110485,110381
 2.0000e-001 110629  2.9126e+000  1.2502e+001 -9.1681e-002 22825 110433,110407,110603
 2.0000e-001 110652  4.1032e+000  1.2913e+001  3.1242e-002 22825 110433,110603,110485
 2.0000e-001 110902  5.8060e+000  1.3480e+001 -2.4118e-001 22428 110703,110755,110729
 2.0000e-001 110879  5.4561e+000  1.3319e+001 -1.3859e-001 22428 110703,110781,110755
 2.0000e-001 110856  1.8795e+000  1.1584e+001 -1.2148e+000 22428 110703,110807,110781
 2.0000e-001 110833  2.6124e+000  1.3824e+001 -9.7773e-001 22428 110677,110807,110703
 2.0000e-001 111284  1.1464e+001  1.3827e+001  2.7051e+000 22138 111088,111140,111114
 2.0000e-001 111261  7.2969e+000  1.2578e+001  2.9861e+000 22138 111062,111140,111088
 2.0000e-001 111238  9.3325e+000  1.6272e+001  1.0241e+000 22138 111036,111140,111062
 2.0000e-001 111215  9.2648e+000  1.2180e+001  3.2078e-001 22138 111010,111140,111036
 2.0000e-001 111192  1.0482e+001  1.3977e+001 -1.3634e+000 22138 111010,111166,111140
 2.0000e-001 111385  5.5133e+000  1.5949e+001  8.8183e-001 21826 111307,111359,111333
 2.0000e-001 111731  5.0097e+000  1.5704e+001  1.1342e+000 21264 111754,111538,111434
 2.0000e-001 111708  6.6831e+000  1.6326e+001  2.0388e-001 21264 111754,111434,111408
 2.0000e-001 111685  4.6670e+000  1.6549e+001  8.9278e-001 21264 111434,111538,111460
 2.0000e-001 111662  4.9255e-001  1.4745e+001  1.8466e+000 21264 111460,111538,111486
 2.0000e-001 111639  7.9046e+000  1.4928e+001  2.7432e+000 21264 111408,111590,111564
 2.0000e-001 111616 -1.4814e+000  1.9631e+001  4.1177e+000 21264 111486,111538,111512
 2.0000e-001 111780  4.4393e+000  1.5527e+001  1.6008e+000 21264 111564,111538,111754
 2.0000e-001 111803  5.0572e+000  1.4612e+001  1.0234e+000 21264 111564,111754,111408
 2.0000e-001 111955  5.7266e+000  1.8193e+001  4.9285e-001 20860 111978,111906,111880
 2.0000e-001 111932  9.1645e+000  1.8641e+001  2.0418e+000 20860 112110,111828,111906
 2.0000e-001 112004  7.7017e+000  1.8757e+001  2.0386e+000 20860 112110,111906,111978
 2.0000e-001 112136  9.8401e+000  1.8383e+001  1.1153e+000 20860 111854,111828,112110
 2.0000e-001 112159  8.5723e+000  1.8739e+001  1.0307e+000 20860 111854,112110,111978
 2.0000e-001 112407  6.8975e+000  1.7352e+001 -3.2876e-001 20320 112182,112286,112208
 2.0000e-001 112384  1.0298e+001  2.0417e+001 -2.3082e+000 20320 112182,112312,112286
 2.0000e-001 112361  4.2042e+000  1.7284e+001 -6.2293e-001 20320 112208,112286,112260
 2.0000e-001 112338 -4.0810e+000  2.3779e+001 -6.9586e+000 20320 112208,112260,112234
 2.0000e-001 112655  1.1481e+001  1.8765e+001 -1.5729e-001 19916 112508,112560,112534
 2.0000e-001 112632  1.2146e+001  1.8750e+001  4.0932e-002 19916 112430,112560,112508
 2.0000e-001 112609  1.2384e+001  1.9649e+001 -6.5684e-002 19916 112430,112508,112456
 2.0000e-001 112586  1.2370e+001  1.8778e+001  3.4056e-002 19916 112456,112508,112482
 2.0000e-001 112807  3.3005e+000  1.3467e+001  1.7802e-001 19626 112680,112732,112706
 2.0000e-001 112784  4.3550e+000  1.4404e+001 -3.1725e-001 19626 112680,112758,112732
 2.0000e-001 113008  5.1568e+000  1.7004e+001 -7.6914e-001 19165 112858,112936,112884
 2.0000e-001 112985  2.8205e+000  1.7609e+001 -2.0240e+000 19165 112832,112936,112858
 2.0000e-001 112962  3.2171e+000  1.6206e+001  4.7420e-001 19165 112884,112936,112910
 2.0000e-001 113209  3.3457e+000  1.2857e+001  4.0077e-002 18596 113033,113085,113059
 2.0000e-001 113186  4.5494e+000  1.2819e+001 -2.1492e-001 18596 113033,113111,113085
 2.0000e-001 113163  3.8995e+000  1.2017e+001  3.0372e-001 18596 113033,113137,113111
 2.0000e-001 113481  1.7958e+000  1.2580e+001  1.4351e-001 18348 113256,113308,113282
 2.0000e-001 113458  3.6926e+000  1.3971e+001 -4.6478e-001 18348 113256,113386,113308
 2.0000e-001 113435  2.7688e+000  1.1511e+001 -4.4519e-001 18348 113308,113386,113360
 2.0000e-001 113412  3.8791e+000  1.2609e+001  5.6472e-002 18348 113308,113360,113334
 2.0000e-001 113753  3.3885e+000  1.2556e+001  1.2525e-002 17830 113554,113606,113580
 2.0000e-001 113730  2.9165e+000  1.2135e+001  2.1820e-001 17830 113528,113606,113554
 2.0000e-001 113707  2.7446e+000  1.1649e+001 -2.6664e-001 17830 113528,113658,113606
 2.0000e-001 113684  4.8967e+000  1.2959e+001  3.4402e-001 17830 113606,113658,113632
 2.0000e-001 113954  9.5308e+000  1.7180e+001  9.6078e-005 17326 113778,113830,113804
 2.0000e-001 113931  6.7663e+000  1.7559e+001  9.1255e-001 17326 113778,113882,113830
 2.0000e-001 113908  4.7618e+000  1.7173e+001 -8.5618e-001 17326 113830,113882,113856
 2.0000e-001 114106  1.0191e+000  1.3040e+001 -4.4999e-001 16870 113979,114031,114005
 2.0000e-001 114083  2.9658e+000  1.2234e+001 -1.0230e+000 16870 113979,114057,114031
 2.0000e-001 114461  1.0366e+001  1.7938e+001 -2.2395e+000 16266 114236,114288,114262
 2.0000e-001 114438  6.8354e+000  1.3229e+001  1.2507e-001 16266 114236,114366,114288
 2.0000e-001 114415  1.1233e+001  2.0794e+001  2.1312e+000 16266 114288,114340,114314
 2.0000e-001 114392  8.9749e+000  1.9493e+001  8.3316e-001 16266 114288,114366,114340
 2.0000e-001 114562  6.0284e+000  1.8804e+001  0.0000e+000 15830 114484,114536,114510
 2.0000e-001 114663  9.4289e+000  1.8133e+001 -1.5268e+000 15151 114585,114637,114611
 2.0000e-001 114886  3.2085e+000  1.4148e+001 -9.5748e-001 417 114762,114814,114788
 2.0000e-001 114863  3.7366e+000  1.5402e+001 -8.5628e-001 417 114710,114814,114762
 2.0000e-001 114840  3.7360e+000  1.5544e+001 -9.4183e-001 417 114710,114762,114736
 3.0000e-001 66549 -6.8717e-001  1.0522e+001  2.2499e+000 66104 66350,66454,66428
 3.0000e-001 66526 -1.2575e-001  1.1041e+001  3.9221e-001 66104 66324,66454,66350
 3.0000e-001 66503  1.2324e-001  1.6526e+001  2.0679e+000 66104 66350,66428,66402
 3.0000e-001 66480 -4.7863e+000  1.3533e+001  4.0980e-001 66104 66350,66402,66376
 3.0000e-001 66947  3.3890e+000  1.1261e+000 -1.5095e+000 65906 66699,66829,66803
 3.0000e-001 66924 -5.6592e-001 -1.4631e+000 -3.0518e-001 65906 66673,66829,66699
 3.0000e-001 66901  1.7677e+000  1.6062e+001 -2.5197e+000 65906 66725,66777,66751
 3.0000e-001 66878 -1.1959e+000  1.1457e+001 -4.2895e+000 65906 66725,66803,66777
 3.0000e-001 66855 -9.6595e-001 -2.7952e+000 -3.1503e+000 65906 66699,66803,66725
 3.0000e-001 67146 -6.5722e+000  1.1646e+001  4.1463e+000 65708 67022,67074,67048
 3.0000e-001 67123  3.2475e+000  1.9529e+001  7.3959e-001 65708 66970,67074,67022
 3.0000e-001 67100  2.7112e+000  1.7546e+001  3.1571e+000 65708 66970,67022,66996
 3.0000e-001 67477  2.4550e+000  8.9311e+000  3.9608e-001 65418 67278,67356,67330
 3.0000e-001 67454  4.1222e+000  1.3220e+001  1.4022e+000 65418 67278,67382,67356
 3.0000e-001 67431  7.0767e+000  1.2402e+001 -1.4625e+000 65418 67278,67330,67304
 3.0000e-001 67408  2.1373e+000  2.3418e+001  5.1152e+000 65418 67252,67382,67278
 3.0000e-001 68111  1.0131e+000  1.0752e+001  9.9885e-001 65014 67791,67921,67869
 3.0000e-001 68088 -2.0550e+000  9.5395e+000 -3.6270e-001 65014 67765,67921,67791
 3.0000e-001 68065  1.8678e+000  1.4986e+001  1.6713e+000 65014 67869,67921,67895
 3.0000e-001 68042  1.2307e+000  1.0577e+001 -9.4891e-001 65014 67765,67947,67921
 3.0000e-001 68019  4.3165e+000  1.5577e+001 -4.4971e-001 65014 67791,67869,67817
 3.0000e-001 67996 -1.8900e+000  1.2794e+001  2.8700e-001 65014 67817,67869,67843
 3.0000e-001 67973  1.0656e+000  1.0241e+001 -1.2450e+000 65014 67739,67947,67765
 3.0000e-001 68359  2.0606e+000  2.6889e+001  5.0670e-001 64816 68186,68238,68212
 3.0000e-001 68336 -2.9565e-001  1.8677e+001  2.2041e+000 64816 68186,68264,68238
 3.0000e-001 68313  4.9745e+000  2.0336e+001 -4.4211e+000 64816 68160,68264,68186
 3.0000e-001 68290  1.9490e+000  2.4856e+001 -1.0353e+001 64816 68134,68264,68160
 3.0000e-001 68509 -3.0222e-001  9.5054e+000 -5.1229e+000 64362 68864,68532,68434
 3.0000e-001 68486  4.1954e+000  1.3051e+001 -6.2330e-001 64362 68532,68408,68382
 3.0000e-001 68558  7.0863e+000  1.8044e+001 -2.7710e+000 64362 68736,68532,68460
 3.0000e-001 68581  2.7605e+000  1.3527e+001 -2.5861e-002 64362 68604,68532,68382
 3.0000e-001 68630  6.5339e+000  2.2296e+001  6.6826e-001 64362 68460,68532,68604
 3.0000e-001 68762 -3.5177e+000  1.0092e+001  7.6082e-001 64362 68434,68532,68736
 3.0000e-001 68890  8.6567e+000  1.4904e+001 -1.3388e+000 64362 68408,68532,68864
 3.0000e-001 69168  4.5852e+000  2.0477e+001 -1.4078e+000 64164 69018,69070,69044
 3.0000e-001 69145  1.6490e+000  2.0439e+001 -3.6997e-001 64164 68992,69070,69018
 3.0000e-001 69122  2.8440e+000  2.2292e+001  2.1877e+000 64164 68992,69096,69070
 3.0000e-001 69367  1.1731e+000  1.1265e+001  1.1774e+000 63966 69462,69390,69269
 3.0000e-001 69344  5.8910e+000  2.3580e+001 -1.9167e+000 63966 69390,69243,69217
 3.0000e-001 69321  2.3044e+000  1.4093e+001 -7.8887e-001 63966 69191,69295,69217
 3.0000e-001 69416  2.0218e+000  1.7398e+001  1.0261e+000 63966 69295,69269,69390
 3.0000e-001 69439  3.1122e+000  1.6109e+001 -1.6812e+000 63966 69295,69390,69217
 3.0000e-001 69488  9.2385e+000  2.4701e+001  4.5380e+000 63966 69243,69390,69462
 3.0000e-001 69900 -9.6172e+000  1.2989e+001  3.9435e+000 63676 69701,69779,69727
 3.0000e-001 69877 -5.0235e-001  1.7121e+001  2.6807e+000 63676 69675,69779,69701
 3.0000e-001 69854  1.1276e+000  1.8003e+001  2.2040e+000 63676 69675,69805,69779
 3.0000e-001 69831 -1.2746e+001  2.6598e+001  8.4216e+000 63676 69727,69779,69753
 3.0000e-001 70050  4.3302e-001  1.8127e+001  1.0263e+000 63472 70073,69949,69923
 3.0000e-001 70027 -6.1628e+000  1.7107e+001  9.3071e-001 63472 70073,69923,70001
 3.0000e-001 70099  5.1949e+000  1.7887e+001  1.4475e+000 63472 69975,69949,70073
 3.0000e-001 70122 -4.9039e-001  1.7501e+001  1.3853e+000 63472 69975,70073,70001
 3.0000e-001 70321 -3.9761e+000  1.2994e+001 -5.8540e+000 63274 70145,70223,70171
 3.0000e-001 70298 -5.2402e+000  2.2197e+001  7.8280e+000 63274 70145,70249,70223
 3.0000e-001 70275  8.4683e-001  1.9295e+001 -3.1171e+000 63274 70171,70223,70197
 3.0000e-001 70593 -1.2635e+000  1.1465e+001 -1.0449e+000 63076 70368,70472,70420
 3.0000e-001 70570 -1.8394e+000  1.5655e+001 -7.9267e-001 63076 70368,70498,70472
 3.0000e-001 70547 -5.8692e+000  1.3055e+001  4.8610e+000 63076 70420,70472,70446
 3.0000e-001 70524  1.2025e+000  1.3218e+001 -3.2312e+000 63076 70368,70420,70394
 3.0000e-001 70843 -2.0442e+000  9.3609e+000  1.7850e+000 62736 70866,70644,70618
 3.0000e-001 70820 -5.8610e+000  7.9029e+000  3.6464e+000 62736 70866,70618,70748
 3.0000e-001 70797 -6.1640e+000  9.1862e+000  3.2535e+000 62736 70644,70722,70696
 3.0000e-001 70774 -5.2388e+000  2.1083e+001  4.8803e+000 62736 70644,70696,70670
 3.0000e-001 70892 -6.0160e+000  9.7111e+000  2.8127e+000 62736 70722,70644,70866
 3.0000e-001 70915 -8.2860e+000  9.0046e+000  4.8487e+000 62736 70722,70866,70748
 3.0000e-001 71018 -1.0865e+001  1.2804e+001  6.4132e+000 62516 70940,70992,70966
 3.0000e-001 71219  5.9339e+000  3.0244e+001 -1.5228e+000 62226 71069,71147,71095
 3.0000e-001 71196  3.4129e+000  3.1241e+001  1.6468e+000 62226 71043,71147,71069
 3.0000e-001 71173  5.5220e+000  3.5347e+001  7.0212e-001 62226 71095,71147,71121
 3.0000e-001 71857 -6.7060e+000  3.3371e+000 -4.5418e+000 61708 71511,71693,71667
 3.0000e-001 71834 -3.2843e+000  1.0247e+001 -9.6449e-001 61708 71485,71693,71511
 3.0000e-001 71811 -6.0389e+000  8.5864e+000 -6.2404e-001 61708 71880,71537,71511
 3.0000e-001 71788 -1.1890e+000  8.7556e+000 -7.1331e-001 61708 71880,71511,71667
 3.0000e-001 71765 -1.2012e+000  9.7476e+000  3.1986e+000 61708 71537,71615,71589
 3.0000e-001 71742  3.6649e+000  9.3862e+000 -3.0930e-001 61708 71615,71667,71641
 3.0000e-001 71719 -5.6753e+000  9.0050e+000  1.3045e+000 61708 71537,71589,71563
 3.0000e-001 71906 -1.9326e+000  7.9231e+000  6.8423e-001 61708 71615,71537,71880
 3.0000e-001 71929  2.0929e+000  7.6648e+000  9.6653e-001 61708 71615,71880,71667
 3.0000e-001 72226  1.1748e+000  2.3155e+001  5.3796e-001 61204 72249,72056,72004
 3.0000e-001 72203 -2.5244e+000  2.2447e+001 -2.0516e+000 61204 72249,72004,71978
 3.0000e-001 72180 -2.9910e-001  2.0042e+001 -2.2395e+000 61204 71978,72108,72082
 3.0000e-001 72157  1.4444e+000  2.3214e+001  4.8797e-001 61204 72004,72056,72030
 3.0000e-001 72134 -9.9466e+000  3.0816e+001 -7.7527e+000 61204 71952,72108,71978
 3.0000e-001 72275  5.7064e+000  2.2306e+001  1.2754e+000 61204 72082,72056,72249
 3.0000e-001 72298  1.5973e+000  2.2269e+001 -5.9775e-001 61204 72082,72249,71978
 3.0000e-001 72757  6.2169e+000  1.8372e+001  8.7278e-001 60800 72483,72613,72509
 3.0000e-001 72734  1.0868e+001  2.3332e+001 -1.3567e+000 60800 72483,72639,72613
 3.0000e-001 72711  9.0827e+000  2.4470e+001  1.7628e+000 60800 72561,72613,72587
 3.0000e-001 72688  6.9530e+000  1.9507e+001 -7.9987e-002 60800 72509,72613,72561
 3.0000e-001 72665  1.3368e+001  3.2754e+001 -5.0789e+000 60800 72509,72561,72535
 3.0000e-001 72907 -2.7377e+000  1.0845e+001 -1.8596e+000 60552 72780,72832,72806
 3.0000e-001 72884  8.9066e-001  1.8595e+001 -3.2580e+000 60552 72780,72858,72832
 3.0000e-001 73464  5.0089e-001  1.6353e+001  1.0193e+000 60240 73487,73222,73196
 3.0000e-001 73441  6.9848e-001  1.5186e+001  9.6733e-002 60240 73559,73487,73196
 3.0000e-001 73418 -1.1915e+000  1.5252e+001  4.4221e-001 60240 73559,73196,73170
 3.0000e-001 73395  6.0363e+000  1.2130e+001  1.2363e+000 60240 73222,73274,73248
 3.0000e-001 73372 -6.4447e+000  8.4573e+000 -4.3036e+000 60240 73118,73300,73274
 3.0000e-001 73349 -2.2180e+000  2.0908e+001 -3.4733e+000 60240 73092,73300,73118
 3.0000e-001 73326 -1.1152e+000  2.3470e+001  7.8081e-001 60240 73118,73170,73144
 3.0000e-001 73513  1.4874e+000  1.6291e+001  2.1602e+000 60240 73274,73222,73487
 3.0000e-001 73536  6.9588e-001  1.6774e+001  1.0208e-001 60240 73274,73487,73118
 3.0000e-001 73585 -2.5946e+000  1.5540e+001  2.9824e-001 60240 73118,73487,73559
 3.0000e-001 73608 -4.4074e+000  1.5615e+001  7.4814e-001 60240 73118,73559,73170
 3.0000e-001 73758 -1.2278e+001 -1.0240e+000 -6.1123e-001 59871 73657,73709,73683
 3.0000e-001 73735 -3.4437e+000 -6.1771e+000  1.2893e+000 59871 73631,73709,73657
 3.0000e-001 74187  2.3274e+000  2.6766e+001  5.5447e-002 59474 74210,73890,73864
 3.0000e-001 74164  2.3721e+000  2.9113e+001 -3.7731e-001 59474 74210,73864,74046
 3.0000e-001 74141  2.2813e+000  2.3954e+001  1.9949e-001 59474 73890,73942,73916
 3.0000e-001 74118  1.5138e+000  2.4827e+001  3.3996e-001 59474 73890,73994,73942
 3.0000e-001 74095  5.6590e+000  2.6640e+001 -5.2013e+000 59474 73994,74046,74020
 3.0000e-001 74072  3.3658e-001  1.8525e+001  3.3254e-001 59474 73942,73994,73968
 3.0000e-001 74236  2.7851e+000  2.5238e+001  8.9835e-002 59474 73994,73890,74210
 3.0000e-001 74259  2.1803e+000  2.6716e+001 -3.9650e-001 59474 73994,74210,74046
 3.0000e-001 74716  5.6287e+000  2.3068e+001 -5.9888e-001 58770 74468,74598,74494
 3.0000e-001 74693  1.2491e+001  1.7196e+001 -5.4551e+000 58770 74442,74598,74468
 3.0000e-001 74670  3.2317e+000  1.3129e+001 -2.2660e+000 58770 74494,74572,74520
 3.0000e-001 74647  1.0055e+001  2.0586e+001  2.5001e+000 58770 74494,74598,74572
 3.0000e-001 74624  1.0349e+001  1.7888e+001  3.7878e+000 58770 74520,74572,74546
 3.0000e-001 75222  9.3276e-001  2.1287e+001 -7.7309e-002 58266 74951,75081,75029
 3.0000e-001 75199  3.0026e+000  2.3460e+001  8.1859e-001 58266 74925,75081,74951
 3.0000e-001 75176  3.8323e+000  2.0520e+001 -3.0596e+000 58266 75029,75081,75055
 3.0000e-001 75153 -2.4057e+000  2.4491e+001 -5.5491e-001 58266 74951,75003,74977
 3.0000e-001 75130 -2.3547e+000  1.9749e+001  8.1380e-001 58266 74951,75029,75003
 3.0000e-001 75107 -7.9472e+000  2.1051e+001  2.2952e+000 58266 74899,75081,74925
 3.0000e-001 75421  2.2118e+000  2.3216e+001 -2.7582e-001 57826 75444,75297,75245
 3.0000e-001 75398  2.7932e+000  1.5882e+001  2.2269e+000 57826 75444,75245,75349
 3.0000e-001 75375  5.2517e+000  2.4819e+001 -1.9172e-001 57826 75516,75297,75271
 3.0000e-001 75470  3.0235e+000  2.6414e+001 -6.6819e-001 57826 75323,75297,75444
 3.0000e-001 75493  6.0969e+000  2.3917e+001  2.5765e+000 57826 75323,75444,75349
 3.0000e-001 75542 -8.4952e-002  2.1751e+001  1.8899e+000 57826 75245,75297,75516
 3.0000e-001 76257 -8.8316e-001  1.3162e+001 -5.1926e+000 57422 76280,76093,76067
 3.0000e-001 76234  3.5208e+000  1.6085e+001 -3.7127e-001 57422 75885,76093,75911
 3.0000e-001 76211  5.9240e+000  1.7570e+001 -2.6105e+000 57422 76424,76280,76067
 3.0000e-001 76188  6.6439e+000  1.6817e+001 -1.8760e-002 57422 76352,75937,75911
 3.0000e-001 76165  6.8771e+000  1.6609e+001 -2.0376e+000 57422 76424,76067,76015
 3.0000e-001 76142  8.2224e+000  2.4865e+001  1.9760e+000 57422 76015,76067,76041
 3.0000e-001 76119 -7.0613e+000  1.2660e+001 -4.9988e+000 57422 75963,76015,75989
 3.0000e-001 76306  1.3460e+000  1.6745e+001 -3.0083e-001 57422 75911,76093,76280
 3.0000e-001 76329  5.9153e+000  1.6566e+001  3.2224e-001 57422 76352,75911,76280
 3.0000e-001 76378  5.1565e+000  1.6910e+001  2.8603e-001 57422 75963,75937,76352
 3.0000e-001 76401  4.7864e+000  1.6965e+001  5.9483e-001 57422 75963,76352,76280
 3.0000e-001 76450  4.0178e+000  1.7095e+001 -2.0810e+000 57422 75963,76280,76424
 3.0000e-001 76473  5.8603e+000  1.6866e+001 -1.8428e+000 57422 75963,76424,76015
 3.0000e-001 76949  9.7823e-001  1.6568e+001  1.1745e+000 56904 76972,76707,76681
 3.0000e-001 76926  8.7209e-001  1.6427e+001  1.0007e+000 56904 77044,76972,76681
 3.0000e-001 76903  2.2721e+000  1.6320e+001  2.8579e-001 56904 77044,76681,76629
 3.0000e-001 76880 -3.5541e-001  1.5890e+001  1.5103e+000 56904 76707,76785,76759
 3.0000e-001 76857  2.6547e+000  1.7117e+001  2.0633e+000 56904 76577,76785,76603
 3.0000e-001 76834  1.6706e+000  1.9058e+001  3.3437e+000 56904 76707,76759,76733
 3.0000e-001 76811  6.7084e+000  1.5558e+001  4.4633e+000 56904 76629,76681,76655
 3.0000e-001 76998  1.0471e+000  1.6687e+001  9.5440e-001 56904 76785,76707,76972
 3.0000e-001 77021  1.3452e+000  1.6073e+001  1.4118e+000 56904 76785,76972,76603
 3.0000e-001 77070  2.9519e+000  1.6765e+001  1.1118e+000 56904 76603,76972,77044
 3.0000e-001 77093  3.6425e+000  1.6103e+001  4.2012e-001 56904 76603,77044,76629
 3.0000e-001 77471  2.4004e+000  1.7793e+001 -5.3255e-002 56542 77566,77494,77275
 3.0000e-001 77448  2.0330e+000  1.5149e+001 -5.6171e-001 56542 77494,77223,77353
 3.0000e-001 77425  3.2029e+000  1.8670e+001 -1.2647e+000 56542 77566,77275,77249
 3.0000e-001 77402  6.4604e+000  1.4397e+001  5.4306e+000 56542 77197,77353,77223
 3.0000e-001 77379  2.4038e+000  2.0556e+001 -1.6356e+000 56542 77275,77327,77301
 3.0000e-001 77520  1.3753e+000  2.1001e+001 -1.0363e+000 56542 77327,77275,77494
 3.0000e-001 77543 -2.3611e+000  1.7748e+001  5.3334e-001 56542 77327,77494,77353
 3.0000e-001 77592  3.6553e+000  1.8589e+001 -1.3626e+000 56542 77223,77494,77566
 3.0000e-001 77615  4.3914e+000  2.0606e+001 -2.5566e+000 56542 77223,77566,77249
 3.0000e-001 77814  1.0777e+001  2.1662e+001  4.9726e+000 56038 77837,77690,77664
 3.0000e-001 77791  3.7893e+000  1.9788e+001  2.7131e+000 56038 77837,77664,77742
 3.0000e-001 77768  8.6187e-001  1.9953e+001  1.6909e+000 56038 77638,77742,77664
 3.0000e-001 77863  1.1612e+001  1.9835e+001 -2.2391e-002 56038 77716,77690,77837
 3.0000e-001 77886  3.9764e+000  1.7893e+001 -2.2261e+000 56038 77716,77837,77742
 3.0000e-001 78345  6.9845e+000  2.6160e+001  4.1631e+000 55534 78071,78123,78097
 3.0000e-001 78322  6.6032e-001  2.0328e+001 -1.1546e+000 55534 78071,78201,78123
 3.0000e-001 78299 -2.8615e+000  2.7335e+001  7.6482e-001 55534 78071,78227,78201
 3.0000e-001 78276 -1.2354e+000  1.8902e+001 -4.3403e+000 55534 78123,78175,78149
 3.0000e-001 78253  1.2276e+000  1.7846e+001 -2.7883e+000 55534 78123,78201,78175
 3.0000e-001 78802  1.6571e-002  1.6212e+001 -2.0750e-001 55030 78825,78632,78606
 3.0000e-001 78779  3.8431e+000  1.6706e+001 -1.9275e+000 55030 78897,78825,78606
 3.0000e-001 78756 -2.5782e+000  1.9201e+001 -4.1129e+000 55030 78897,78606,78580
 3.0000e-001 78733  2.8000e+000  1.2984e+001 -4.1475e+000 55030 78554,78684,78658
 3.0000e-001 78710  8.3506e+000  2.6915e+001  5.8947e-001 55030 78528,78684,78554
 3.0000e-001 78851  4.6767e+000  2.1923e+001  2.1273e+000 55030 78658,78632,78825
 3.0000e-001 78874  4.4165e+000  1.4392e+001 -3.5315e+000 55030 78658,78825,78554
 3.0000e-001 78923 -1.7648e+000  1.1259e+001 -5.9391e+000 55030 78554,78825,78897
 3.0000e-001 78946 -4.6805e+000  1.4498e+001 -8.4286e+000 55030 78554,78897,78580
 3.0000e-001 79403  4.2441e+000  1.6138e+001  2.7456e+000 54426 79426,79233,79155
 3.0000e-001 79380 -7.9170e-001  1.6375e+001  4.8958e+000 54426 79426,79155,79129
 3.0000e-001 79357  1.3487e+000  1.9563e+001 -2.5603e+000 54426 79233,79285,79259
 3.0000e-001 79334  2.0760e+000  1.3615e+001  5.2572e+000 54426 79181,79233,79207
 3.0000e-001 79311  6.0143e+000  1.4165e+001  3.1025e+000 54426 79155,79233,79181
 3.0000e-001 79452  5.5408e+000  1.6894e+001  1.0663e+000 54426 79285,79233,79426
 3.0000e-001 79475  2.6891e+000  1.9437e+001  2.8314e+000 54426 79285,79426,79129
 3.0000e-001 79932  4.9545e+000  1.7482e+001  2.9389e+000 53915 79658,79762,79684
 3.0000e-001 79909  7.8850e+000  1.7760e+001  1.8974e+000 53915 79658,79814,79762
 3.0000e-001 79886  8.7650e+000  1.5515e+001  4.2786e+000 53915 79762,79814,79788
 3.0000e-001 79863  5.6070e+000  2.0473e+001  4.2503e+000 53915 79710,79762,79736
 3.0000e-001 79840  6.3363e+000  1.8444e+001  2.3871e+000 53915 79684,79762,79710
 3.0000e-001 80033  2.7528e+000  2.5033e+001  1.2287e-001 53667 79955,80007,79981
 3.0000e-001 80401 -2.0361e-001  2.1446e+001 -2.5069e+000 53263 80104,80260,80234
 3.0000e-001 80378  2.9816e+000  2.6136e+001 -3.2836e-001 53263 80078,80260,80104
 3.0000e-001 80355  4.1694e+000  2.0589e+001 -1.2389e+000 53263 80104,80234,80130
 3.0000e-001 80332  5.0130e+000  2.3851e+001 -2.7256e-001 53263 80130,80208,80182
 3.0000e-001 80309  8.3064e+000  2.3454e+001  6.4137e-001 53263 80130,80234,80208
 3.0000e-001 80286  5.5085e+000  2.6679e+001  6.8545e-001 53263 80130,80182,80156
 3.0000e-001 80911 -1.1596e+000  1.4128e+001 -4.5376e+000 52965 80640,80770,80744
 3.0000e-001 80888  8.8230e+000  2.5617e+001  7.9919e-001 52965 80614,80770,80640
 3.0000e-001 80865  6.4501e+000  2.3483e+001  7.5261e-001 52965 80640,80744,80666
 3.0000e-001 80842  7.0595e+000  1.9526e+001 -5.6298e+000 52965 80588,80770,80614
 3.0000e-001 80819  1.1818e+001  1.8707e+001  7.1631e+000 52965 80666,80718,80692
 3.0000e-001 80796  4.7535e+000  1.6049e+001  9.8733e-001 52965 80666,80744,80718
 3.0000e-001 81262  4.5876e+000  1.3304e+001  5.6364e-001 52561 81037,81141,81063
 3.0000e-001 81239 -2.6033e+000  1.2986e+001  4.8073e+000 52561 81037,81167,81141
 3.0000e-001 81216 -3.0969e+000  6.7618e+000  1.0663e-001 52561 81063,81115,81089
 3.0000e-001 81193 -1.0695e+000  9.3009e+000 -1.4523e+000 52561 81063,81141,81115
 3.0000e-001 81719  4.4796e-002  8.1487e+000  3.1335e+000 51900 81445,81523,81471
 3.0000e-001 81696  2.2877e+000  1.0768e+001  1.0779e+000 51900 81445,81575,81523
 3.0000e-001 81673 -2.3523e+000  1.1863e+001  6.2236e-001 51900 81445,81601,81575
 3.0000e-001 81650  1.6915e+000  7.7237e+000  8.5325e-004 51900 81523,81575,81549
 3.0000e-001 81627  4.4959e+000  9.3122e+000  3.1881e+000 51900 81471,81523,81497
 3.0000e-001 82323  6.3378e+000  2.0512e+001  2.5687e+000 51317 82418,82346,82032
 3.0000e-001 82300  2.3733e+000  1.5054e+001  1.4555e-001 51317 82490,82346,81954
 3.0000e-001 82277  7.8750e+000  2.3406e+001  3.3993e+000 51317 82418,82032,82006
 3.0000e-001 82254 -4.1102e-001  1.3304e+001  1.2252e+000 51317 82490,81954,81928
 3.0000e-001 82231  1.3640e+000  1.8536e+001 -1.5991e+000 51317 82058,82110,82084
 3.0000e-001 82208 -2.5176e+000  1.4680e+001 -1.7424e-001 51317 81928,82136,82110
 3.0000e-001 82185  5.7843e-001  2.5332e+001 -2.7734e+000 51317 81954,82006,81980
 3.0000e-001 82162 -4.5577e+000  1.3754e+001 -2.7375e+000 51317 81902,82136,81928
 3.0000e-001 82372  2.5651e+000  1.6110e+001  9.6283e-001 51317 82058,82032,82346
 3.0000e-001 82395  3.2810e+000  1.8790e+001  4.8356e-001 51317 82058,82346,82110
 3.0000e-001 82444  5.5962e+000  1.8590e+001 -1.2360e+000 51317 81954,82346,82418
 3.0000e-001 82467  6.9656e+000  2.1310e+001 -4.4868e-001 51317 81954,82418,82006
 3.0000e-001 82516  1.6571e+000  1.5763e+001 -1.3343e+000 51317 82110,82346,82490
 3.0000e-001 82539  1.4053e+000  1.5358e+001 -5.6706e-001 51317 82110,82490,81928
 3.0000e-001 83015  2.6544e+000  2.9581e+001  6.2603e+000 50813 82669,82747,82695
 3.0000e-001 82992 -2.2189e+000  1.2278e+001  7.3567e-001 50813 83038,82669,82851
 3.0000e-001 82969 -1.4708e+000  1.2011e+001  9.9304e-001 50813 83038,82851,82799
 3.0000e-001 82946 -1.1314e+001  9.6285e+000  5.1435e+000 50813 82747,82799,82773
 3.0000e-001 82923 -1.4409e+000  9.4880e+000 -2.8582e+000 50813 82643,82851,82669
 3.0000e-001 82900 -2.8541e+000  8.1584e+000  9.9456e-001 50813 82799,82851,82825
 3.0000e-001 82877  1.8788e-001  1.6612e+001  1.3551e+000 50813 82695,82747,82721
 3.0000e-001 83064 -3.3539e+000  1.2094e+001  6.9042e-001 50813 82747,82669,83038
 3.0000e-001 83087 -2.2328e+000  1.2068e+001  8.8015e-001 50813 82747,83038,82799
 3.0000e-001 83286  2.0384e+000  1.7249e+001  8.7580e-001 50352 83309,83162,83136
 3.0000e-001 83263  3.3297e+000  1.5143e+001  2.8965e-001 50352 83511,83309,83136
 3.0000e-001 83240  3.3535e+000  1.6085e+001 -2.6464e-002 50352 83511,83136,83381
 3.0000e-001 83335  2.3692e-001  1.5590e+001  1.9895e+000 50352 83188,83162,83309
 3.0000e-001 83358  2.8638e+000  1.5068e+001  3.8653e-001 50352 83188,83309,83214
 3.0000e-001 83407  8.2230e+000  1.6840e+001  8.3428e-001 50352 83110,83214,83381
 3.0000e-001 83537  3.8287e+000  1.6277e+001 -3.7289e-001 50352 83214,83309,83511
 3.0000e-001 83560  3.7266e+000  1.6666e+001 -7.6529e-001 50352 83214,83511,83381
 3.0000e-001 83889  5.8866e+000  2.2091e+001  4.7137e-001 49548 83716,83794,83742
 3.0000e-001 83866  4.4242e+000  1.9993e+001 -2.9719e-001 49548 83690,83794,83716
 3.0000e-001 83843 -7.7201e-001  1.9252e+001 -6.6137e-001 49548 83664,83794,83690
 3.0000e-001 83820  7.6358e+000  2.4685e+001 -6.6615e-001 49548 83742,83794,83768
 3.0000e-001 84137 -1.2190e+000  8.9039e+000 -5.0529e-001 49208 84160,84016,83938
 3.0000e-001 84114  1.7918e+000  1.6091e+001  1.9802e+000 49208 84160,83938,83912
 3.0000e-001 84091  5.0116e+000  1.3657e+001  1.7474e+000 49208 83938,84016,83964
 3.0000e-001 84068 -2.3193e-002  8.1014e-001  6.0867e-001 49208 83964,84016,83990
 3.0000e-001 84186 -3.5994e+000  1.1047e+001 -4.6334e+000 49208 84042,84016,84160
 3.0000e-001 84209 -9.3665e-001  1.5477e+001 -2.2404e+000 49208 84042,84160,83912
 3.0000e-001 84796  3.0114e+000  1.5945e+001  7.1361e-001 48861 84499,84629,84551
 3.0000e-001 84773  5.8711e+000  1.8910e+001  1.8832e+000 48861 84499,84655,84629
 3.0000e-001 84750  6.8839e+000  2.4456e+001 -5.4893e-001 48861 84551,84629,84577
 3.0000e-001 84727  1.8555e+000  2.2162e+001  6.4173e-001 48861 84577,84629,84603
 3.0000e-001 84704 -2.3332e-002  1.3383e+001  2.1298e+000 48861 84499,84551,84525
 3.0000e-001 84681  6.7585e+000  2.1573e+001  4.0097e+000 48861 84473,84655,84499
 3.0000e-001 85351  1.5686e+001  2.5657e+001 -8.1803e+000 48457 85374,85031,85005
 3.0000e-001 85328  6.4047e+000  1.8267e+001 -3.7695e+000 48457 85374,85005,85161
 3.0000e-001 85305  4.3962e-001  1.9768e+001 -5.4314e+000 48457 85446,85057,85031
 3.0000e-001 85282  5.1440e+000  1.6411e+001 -1.9809e+000 48457 85005,85187,85161
 3.0000e-001 85259  8.4065e+000  1.8121e+001 -3.4534e+000 48457 85083,85161,85109
 3.0000e-001 85236  1.1015e+001  1.7862e+001 -2.5246e+000 48457 84979,85187,85005
 3.0000e-001 85213  1.1141e+001  2.0730e+001 -5.7231e+000 48457 85109,85161,85135
 3.0000e-001 85400  3.5238e+000  1.9808e+001 -5.5445e+000 48457 85446,85031,85374
 3.0000e-001 85423  9.9980e+000  2.0722e+001 -2.6364e+000 48457 85083,85374,85161
 3.0000e-001 85472  4.0943e+000  1.7633e+001 -1.9074e+000 48457 85083,85057,85446
 3.0000e-001 85495  8.0370e+000  1.8463e+001 -1.8032e+000 48457 85083,85446,85374
 3.0000e-001 86080  7.9033e+000  1.8777e+001 -4.0790e+000 48053 86319,86103,85783
 3.0000e-001 86057  9.3881e+000  2.2749e+001 -2.7304e+000 48053 86103,85757,85939
 3.0000e-001 86034  8.7608e+000  2.3112e+001  3.7745e-001 48053 86247,86175,85887
 3.0000e-001 86011  1.0229e+001  2.6806e+001  3.4219e-001 48053 86247,85887,85835
 3.0000e-001 85988  2.0613e+000  1.5518e+001 -4.2360e-001 48053 85887,85939,85913
 3.0000e-001 85965  2.7822e+000  3.1344e+001  5.9818e+000 48053 85835,85887,85861
 3.0000e-001 86129  9.0779e+000  2.2358e+001 -4.5187e+000 48053 85809,85783,86103
 3.0000e-001 86152  4.1798e+000  2.0695e+001 -3.6648e+000 48053 86175,85809,86103
 3.0000e-001 86201  7.4618e+000  1.7960e+001 -1.0451e+000 48053 85939,85887,86175
 3.0000e-001 86224  9.7416e+000  2.3650e+001 -2.5555e+000 48053 85939,86175,86103
 3.0000e-001 86273  6.2376e+000  2.6712e+001 -3.2098e+000 48053 85809,86175,86247
 3.0000e-001 86296  7.9904e+000  3.1083e+001 -2.6960e+000 48053 85809,86247,85835
 3.0000e-001 86345  1.1375e+001  2.2075e+001 -2.4167e+000 48053 85757,86103,86319
 3.0000e-001 86851 -2.3155e+000  1.4726e+001 -2.8350e+000 47541 86874,86580,86554
 3.0000e-001 86828  2.4927e+000  1.6463e+001 -5.4024e-001 47541 86946,86874,86554
 3.0000e-001 86805  2.9355e+000  1.5983e+001 -7.8964e-001 47541 86946,86554,86528
 3.0000e-001 86782 -6.6802e-001  1.6597e+001  9.1065e-002 47541 86580,86658,86606
 3.0000e-001 86759  1.6472e+000  1.7728e+001 -1.0359e+000 47541 86528,86710,86684
 3.0000e-001 86736 -1.8576e+000  1.5257e+001 -4.1385e-001 47541 86606,86658,86632
 3.0000e-001 86900  1.5102e+000  1.6208e+001 -3.4711e-001 47541 86658,86580,86874
 3.0000e-001 86923  6.5956e+000  1.6641e+001  1.1462e+000 47541 86658,86874,86684
 3.0000e-001 86972  1.6133e+000  1.5643e+001  7.5242e-002 47541 86684,86874,86946
 3.0000e-001 86995  2.5207e+000  1.5854e+001 -3.2729e-001 47541 86684,86946,86528
 3.0000e-001 87324  3.2651e+000  2.0397e+001  1.4920e+000 47044 87151,87203,87177
 3.0000e-001 87301  5.9193e+000  2.0455e+001  5.8458e-001 47044 87125,87203,87151
 3.0000e-001 87278  8.7040e+000  1.9749e+001  1.2484e+000 47044 87099,87203,87125
 3.0000e-001 87255  7.4641e+000  1.8035e+001 -8.0517e-001 47044 87099,87229,87203
 3.0000e-001 87572  5.8388e+000  2.1562e+001  2.1601e+000 46697 87595,87425,87373
 3.0000e-001 87549  5.0058e+000  2.3855e+001  9.7020e-001 46697 87595,87373,87477
 3.0000e-001 87526  5.9112e+000  2.4362e+001  1.5393e+000 46697 87347,87477,87373
 3.0000e-001 87503  9.5814e+000  2.1854e+001 -7.9402e-001 46697 87373,87425,87399
 3.0000e-001 87621  5.4826e+000  1.6774e+001  2.7005e+000 46697 87451,87425,87595
 3.0000e-001 87644  7.0306e+000  2.1411e+001  7.5944e-001 46697 87451,87595,87477
 3.0000e-001 87794 -3.4860e+000  3.8713e+001 -3.5394e+000 46235 87693,87745,87719
 3.0000e-001 87771 -1.2354e+000  2.3177e+001  2.2430e+000 46235 87667,87745,87693
 3.0000e-001 88304  4.7554e+000  2.1308e+001  1.6941e+000 45731 88085,88163,88137
 3.0000e-001 88281  4.6340e+000  2.2136e+001  1.4771e+000 45731 88007,88163,88085
 3.0000e-001 88258 -2.7886e-001  2.1698e+001  4.6446e+000 45731 87981,88163,88007
 3.0000e-001 88235  5.3839e+000  2.1448e+001  1.2644e+000 45731 88007,88085,88059
 3.0000e-001 88212  7.2192e+000  2.1995e+001 -4.1322e+000 45731 88085,88137,88111
 3.0000e-001 88189  2.3418e+000  1.9297e+001 -1.8075e+000 45731 88007,88059,88033
 3.0000e-001 88682  7.1729e+000  2.2787e+001 -1.3574e-003 45312 88434,88512,88486
 3.0000e-001 88659  2.3507e+000  1.2887e+001  1.6001e+000 45312 88434,88538,88512
 3.0000e-001 88636  2.4277e+000  1.3914e+001  1.4199e+000 45312 88434,88564,88538
 3.0000e-001 88613  7.1580e+000  2.1212e+001 -4.1323e-001 45312 88434,88486,88460
 3.0000e-001 88590 -5.0526e+000  1.0568e+001  4.7992e-001 45312 88408,88564,88434
 3.0000e-001 88930 -3.5703e-001  1.3658e+001  2.8277e+000 44808 88953,88731,88705
 3.0000e-001 88907  2.3002e+000  1.4972e+001 -1.9250e-001 44808 88953,88705,88835
 3.0000e-001 88884  4.3191e+000  1.5317e+001  1.9617e-001 44808 89025,88783,88757
 3.0000e-001 88861  8.6417e+000  2.3658e+001  1.0411e+000 44808 88783,88835,88809
 3.0000e-001 88979  4.7367e+000  1.6094e+001  2.0818e+000 44808 88757,88731,88953
 3.0000e-001 89002  2.5226e+000  1.5325e+001  1.8537e-001 44808 89025,88757,88953
 3.0000e-001 89051  5.6240e+000  1.5087e+001  1.1864e-001 44808 88835,88783,89025
 3.0000e-001 89074  4.6381e+000  1.5739e+001 -2.3573e-001 44808 88835,89025,88953
 3.0000e-001 89224  7.2067e+000  3.2344e+001  7.3900e+000 44404 89123,89175,89149
 3.0000e-001 89201  1.0930e+000  2.7653e+001 -9.9872e-001 44404 89097,89175,89123
 3.0000e-001 89783 -2.9027e-001  1.6683e+001 -1.5535e+000 43850 89806,89541,89515
 3.0000e-001 89760 -3.5116e+000  1.1306e+001 -4.5388e+000 43850 89806,89515,89463
 3.0000e-001 89737 -2.6955e+000  1.2505e+001 -7.1997e-001 43850 89950,89878,89593
 3.0000e-001 89714 -1.6750e+000  1.1657e+001 -2.4493e+000 43850 89950,89593,89567
 3.0000e-001 89691  5.2005e+000  1.1263e+001 -3.3669e+000 43850 89411,89619,89463
 3.0000e-001 89668 -1.1927e+001  1.3619e+001 -3.3761e+000 43850 89463,89515,89489
 3.0000e-001 89645  7.7747e+000  9.4538e+000 -4.8320e+000 43850 89411,89463,89437
 3.0000e-001 89832 -8.7578e-001  1.5888e+001 -2.9199e-001 43850 89878,89541,89806
 3.0000e-001 89855  6.0384e+000  1.5616e+001 -3.5580e+000 43850 89619,89806,89463
 3.0000e-001 89904 -2.2236e+000  9.2118e+000  1.7162e+000 43850 89619,89593,89878
 3.0000e-001 89927  5.3076e-001  1.2761e+001 -1.0439e-001 43850 89619,89878,89806
 3.0000e-001 89976  2.1124e+000  1.4569e+001 -6.3910e-001 43850 89541,89878,89950
 3.0000e-001 89999  4.6764e+000  1.4319e+001 -2.6214e+000 43850 89541,89950,89567
 3.0000e-001 90247  1.1839e+001  3.1877e+001 -1.1868e+000 43488 90022,90074,90048
 3.0000e-001 90224  3.2357e+000  1.7248e+001  6.7051e-001 43488 90270,90022,90152
 3.0000e-001 90201  2.8411e+000  1.6482e+001  4.4956e-001 43488 90342,90270,90152
 3.0000e-001 90178  2.6803e+000  1.5863e+001  8.0678e-001 43488 90342,90152,90126
 3.0000e-001 90296  4.6631e+000  1.6563e+001  9.9280e-001 43488 90074,90022,90270
 3.0000e-001 90319  3.2706e+000  1.5875e+001  7.7112e-001 43488 90074,90270,90100
 3.0000e-001 90368  2.5772e+000  1.5899e+001  1.1861e+000 43488 90100,90270,90342
 3.0000e-001 90391  2.3843e+000  1.5166e+001  1.5351e+000 43488 90100,90342,90126
 3.0000e-001 90590  5.4232e+000  2.7668e+001  8.4528e-002 43048 90414,90492,90440
 3.0000e-001 90567  8.2004e+000  1.9149e+001  1.8686e+000 43048 90414,90518,90492
 3.0000e-001 90544 -2.4320e+000  3.1172e+001  2.4221e+000 43048 90440,90492,90466
 3.0000e-001 91070  8.8811e+000  2.5722e+001  1.0083e-001 42430 91237,90880,90854
 3.0000e-001 91047  7.4977e+000  2.5348e+001  2.2875e+000 42430 90698,90906,90880
 3.0000e-001 91024  7.4433e+000  2.5362e+001 -2.9634e-001 42430 91093,90750,90698
 3.0000e-001 91001  8.6227e+000  2.4178e+001  6.4902e-002 42430 91237,90854,91093
 3.0000e-001 90978  5.5908e+000  1.9841e+001 -1.7662e+000 42430 91165,90802,90776
 3.0000e-001 90955  1.2823e+000  2.3472e+001 -1.7175e+000 42430 90802,90854,90828
 3.0000e-001 90932  8.7809e+000  3.1141e+001  1.6200e+000 42430 90698,90750,90724
 3.0000e-001 91119  1.1171e+001  2.5449e+001  1.6680e+000 42430 90776,90750,91093
 3.0000e-001 91142  7.3607e+000  2.0018e+001 -9.0535e-001 42430 91165,90776,91093
 3.0000e-001 91191  5.4432e+000  2.0656e+001  1.9512e-001 42430 90854,90802,91165
 3.0000e-001 91214  7.5269e+000  2.2127e+001  1.2334e+000 42430 90854,91165,91093
 3.0000e-001 91263  8.2029e+000  2.7113e+001  1.1105e+000 42430 90698,90880,91237
 3.0000e-001 91286  8.1320e+000  2.5830e+001  1.0673e+000 42430 90698,91237,91093
 3.0000e-001 91694  1.4844e+001  1.9013e+001  1.7746e-001 41769 91469,91573,91495
 3.0000e-001 91671  1.2755e+001  1.8556e+001 -5.1854e-002 41769 91469,91599,91573
 3.0000e-001 91648  1.1316e+001  2.3852e+001 -8.6186e-001 41769 91495,91547,91521
 3.0000e-001 91625  1.6122e+001  2.4806e+001  2.4936e+000 41769 91495,91573,91547
 3.0000e-001 92040  5.4980e+000  1.7532e+001 -4.4160e-001 41379 91769,91873,91847
 3.0000e-001 92017  1.5137e+000  1.5839e+001 -7.4197e-001 41379 91743,91873,91769
 3.0000e-001 91994  6.4725e+000  1.8501e+001 -8.7150e-001 41379 91769,91847,91795
 3.0000e-001 91971 -1.7830e+000  1.6304e+001 -1.7326e+000 41379 91743,91899,91873
 3.0000e-001 91948 -1.1375e+000  2.0899e+001  4.4978e+000 41379 91717,91899,91743
 3.0000e-001 91925  7.0955e+000  2.0746e+001  1.3027e+000 41379 91795,91847,91821
 3.0000e-001 92597  9.8818e+000  2.3008e+001 -1.6907e+000 40975 92225,92407,92303
 3.0000e-001 92574  5.8067e+000  2.3350e+001 -2.2340e+000 40975 92225,92433,92407
 3.0000e-001 92551  6.8083e+000  3.0494e+001  4.7313e+000 40975 92225,92303,92277
 3.0000e-001 92528  9.2523e+000  2.2617e+001 -1.4936e+000 40975 92329,92407,92381
 3.0000e-001 92505  7.5983e+000  2.0734e+001 -2.7012e+000 40975 92303,92407,92329
 3.0000e-001 92482  3.5947e-001  2.0969e+001  1.3551e+000 40975 92225,92277,92251
 3.0000e-001 92459  4.8322e+000  2.5269e+001  2.6951e+000 40975 92329,92381,92355
 3.0000e-001 93231 -1.2457e+001  2.7241e+001  1.8479e+000 40521 92937,92989,92963
 3.0000e-001 93208  1.6843e+000  2.0853e+001  1.5400e+000 40521 93254,92937,92885
 3.0000e-001 93185  3.6692e+000  2.2536e+001  1.4798e-001 40521 93254,92885,93067
 3.0000e-001 93162  9.4378e+000  2.4020e+001 -1.6074e+000 40521 92885,92937,92911
 3.0000e-001 93139  2.7746e+000  2.5102e+001  9.2250e-001 40521 92859,93067,92885
 3.0000e-001 93116  8.0537e+000  2.5875e+001  4.5303e-002 40521 92989,93067,93015
 3.0000e-001 93093  9.0950e+000  2.7853e+001 -6.5486e-001 40521 93015,93067,93041
 3.0000e-001 93280  4.9421e-001  1.7693e+001  4.1059e+000 40521 92989,92937,93254
 3.0000e-001 93303  4.8773e+000  2.1469e+001  2.2356e+000 40521 92989,93254,93067
 3.0000e-001 93632  1.4220e+000  2.0563e+001 -1.9018e+000 40231 93433,93537,93511
 3.0000e-001 93609  6.9473e+000  9.7069e+000 -7.7520e+000 40231 93407,93537,93433
 3.0000e-001 93586 -7.9545e-001  2.2240e+001 -1.5852e+000 40231 93459,93511,93485
 3.0000e-001 93563  2.4052e-001  1.9957e+001 -1.5533e+000 40231 93433,93511,93459
 3.0000e-001 94010  5.4106e+000  1.8409e+001  2.2580e-001 39869 93762,93866,93788
 3.0000e-001 93987  4.1286e+000  1.4904e+001 -2.4266e+000 39869 93762,93892,93866
 3.0000e-001 93964  6.2441e-001  1.2893e+001 -1.8374e+000 39869 93788,93866,93840
 3.0000e-001 93941  5.8599e-001  1.5634e+001 -5.1434e+000 39869 93788,93840,93814
 3.0000e-001 93918  8.1647e+000  2.1173e+001 -2.0740e-001 39869 93736,93892,93762
 3.0000e-001 94160  4.4578e+000  2.9352e+001 -2.9776e+000 39457 94033,94085,94059
 3.0000e-001 94137 -2.1555e+000  2.0999e+001  7.6694e-002 39457 94033,94111,94085
 3.0000e-001 94359 -8.4096e-001  1.5367e+001  6.3666e-002 39053 94382,94235,94209
 3.0000e-001 94336  5.6299e+000  2.0064e+001 -2.1053e+000 39053 94382,94209,94183
 3.0000e-001 94313  7.7675e+000  2.0356e+001 -1.2257e+000 39053 94183,94287,94261
 3.0000e-001 94408  8.3930e+000  1.9458e+001 -1.4492e+000 39053 94454,94382,94261
 3.0000e-001 94431  4.3378e+000  1.7602e+001  5.9306e-003 39053 94261,94382,94183
 3.0000e-001 94480  1.3305e+000  9.2279e+000  1.6324e+000 39053 94235,94382,94454
 3.0000e-001 94892  4.6129e+000  2.0359e+001 -6.3220e-002 38392 94915,94771,94719
 3.0000e-001 94869  3.9613e+000  1.9289e+001 -4.6214e-001 38392 94915,94719,94693
 3.0000e-001 94846 -1.0507e+000  1.7921e+001 -4.0495e-001 38392 94719,94771,94745
 3.0000e-001 94823  3.6167e+000  1.6486e+001 -1.9624e+000 38392 94667,94797,94693
 3.0000e-001 94941  5.6480e+000  1.9315e+001  3.9536e-001 38392 94797,94771,94915
 3.0000e-001 94964  5.1076e+000  1.8277e+001  1.1280e-001 38392 94797,94915,94693
 3.0000e-001 95261  1.3238e+001  2.2070e+001 -3.5328e+000 37831 95013,95065,95039
 3.0000e-001 95238  5.3255e+000  1.9760e+001  5.9122e-001 37831 95284,95065,95013
 3.0000e-001 95215  4.8633e+000  1.9478e+001  7.4671e-001 37831 95284,95013,94987
 3.0000e-001 95192  7.6627e+000  2.6799e+001 -5.7784e-001 37831 94987,95143,95117
 3.0000e-001 95169  3.4185e+000  2.1085e+001  1.2570e+000 37831 95065,95117,95091
 3.0000e-001 95310  5.0635e+000  2.0072e+001  2.2035e-001 37831 95117,95065,95284
 3.0000e-001 95333  4.6910e+000  1.9792e+001  3.6724e-001 37831 95117,95284,94987
 3.0000e-001 95554  3.6781e+000  1.4255e+001 -2.0403e+000 37419 95404,95456,95430
 3.0000e-001 95531  7.6232e+000  2.1558e+001 -8.5101e-002 37419 95378,95456,95404
 3.0000e-001 95508  6.5909e+000  2.1932e+001 -9.2510e-002 37419 95378,95482,95456
 3.0000e-001 95887  6.4843e+000  1.7619e+001  3.4493e-001 37221 95662,95714,95688
 3.0000e-001 95864  5.9101e+000  1.3944e+001  6.5210e-001 37221 95662,95792,95714
 3.0000e-001 95841  2.0014e+001  2.1756e+001 -1.7703e+000 37221 95714,95766,95740
 3.0000e-001 95818  7.8570e+000  1.7745e+001 -1.3412e+000 37221 95714,95792,95766
 3.0000e-001 95988 -1.8978e+001  4.9621e+000 -3.9758e+000 36731 95910,95962,95936
 3.0000e-001 96138  4.2024e+000  1.8578e+001 -5.8707e-001 36327 96293,96063,96037
 3.0000e-001 96115 -1.2890e+000  1.2002e+001 -2.4247e+000 36327 96161,96037,96011
 3.0000e-001 96187  4.7901e+000  1.9077e+001  4.5275e-001 36327 96293,96037,96161
 3.0000e-001 96319  3.6707e+000  1.9909e+001  1.1621e+000 36327 96089,96063,96293
 3.0000e-001 96342  5.9555e+000  2.1191e+001  2.3857e+000 36327 96089,96293,96161
 3.0000e-001 96710  5.4322e+000  1.5834e+001  2.7993e-001 36037 96733,96491,96439
 3.0000e-001 96687  6.4924e+000  1.6348e+001  5.3742e-001 36037 96733,96439,96413
 3.0000e-001 96664  1.9307e+000  1.4171e+001 -8.2704e-001 36037 96439,96491,96465
 3.0000e-001 96641  3.2743e+000  1.7721e+001  5.6323e-001 36037 96387,96517,96413
 3.0000e-001 96618  2.9205e+000  1.6360e+001  6.9761e-001 36037 96387,96543,96517
 3.0000e-001 96595  7.1521e+000  1.4213e+001  3.2683e+000 36037 96387,96569,96543
 3.0000e-001 96759  2.6132e+000  1.6441e+001  2.6281e-001 36037 96517,96491,96733
 3.0000e-001 96782  5.2263e+000  1.7955e+001  8.7909e-001 36037 96517,96733,96413
 3.0000e-001 96932  1.8246e+001  2.5368e+001 -4.1766e+000 35633 97027,96955,96831
 3.0000e-001 96909  4.3559e+000  1.3523e+001 -5.2825e+000 35633 97159,96955,96805
 3.0000e-001 96981  1.1279e+001  2.8633e+001  2.5432e-001 35633 96857,96831,96955
 3.0000e-001 97004  8.9472e+000  2.2689e+001 -3.9565e-001 35633 96857,96955,96883
 3.0000e-001 97053  4.6678e+000  1.6911e+001 -5.8307e-001 35633 96805,96955,97027
 3.0000e-001 97185  1.2633e+001  2.4465e+001 -1.1066e+000 35633 96883,96955,97159
 3.0000e-001 97593  1.2434e+001  2.9853e+001 -3.2429e+000 35186 97446,97498,97472
 3.0000e-001 97570  9.9329e+000  2.2603e+001 -2.2387e+000 35186 97368,97498,97446
 3.0000e-001 97547  1.0089e+001  2.1461e+001 -3.2662e+000 35186 97368,97446,97394
 3.0000e-001 97524  1.2210e+001  2.2267e+001 -3.3013e+000 35186 97394,97446,97420
 3.0000e-001 98050  7.1890e+000  1.9089e+001 -2.5260e+000 34632 97802,97932,97854
 3.0000e-001 98027  8.6529e+000  2.6079e+001 -8.1585e-001 34632 97776,97932,97802
 3.0000e-001 98004  3.0894e+000  1.5034e+001  1.0427e+000 34632 97802,97854,97828
 3.0000e-001 97981  3.8772e+000  1.6865e+001 -9.8816e-001 34632 97880,97932,97906
 3.0000e-001 97958  8.2500e+000  2.0998e+001 -2.9951e+000 34632 97854,97932,97880
 3.0000e-001 98526  5.4146e+000  2.8843e+001 -1.7928e+000 34064 98693,98180,98362
 3.0000e-001 98503 -8.3581e+000  1.4956e+001 -9.8563e+000 34064 98154,98362,98180
 3.0000e-001 98480  4.1929e+000  1.7907e+001  4.4832e+000 34064 98549,98258,98232
 3.0000e-001 98457  8.3446e+000  2.7290e+001  1.3057e+001 34064 98549,98232,98206
 3.0000e-001 98434  3.9672e+000  2.2162e+001 -9.6109e-001 34064 98837,98621,98362
 3.0000e-001 98411  5.3547e+000  9.9632e+000  7.7133e+000 34064 98765,98284,98258
 3.0000e-001 98388  5.3872e+000  2.1855e+001 -1.1768e+000 34064 98837,98362,98336
 3.0000e-001 98575  2.8270e+000  1.6171e+001  5.9065e+000 34064 98765,98258,98549
 3.0000e-001 98598  3.1830e+000  1.9881e+001  1.5156e+000 34064 98621,98310,98549
 3.0000e-001 98647  5.0861e+000  2.4684e+001 -1.1583e+000 34064 98693,98362,98621
 3.0000e-001 98670  5.4419e+000  2.5238e+001  8.2320e-001 34064 98206,98621,98549
 3.0000e-001 98719  3.1315e+000  2.3838e+001 -9.6910e-001 34064 98206,98180,98693
 3.0000e-001 98742  4.1242e+000  2.2562e+001 -1.1257e-001 34064 98206,98693,98621
 3.0000e-001 98791  9.8233e+000  1.6542e+001  3.7136e+000 34064 98310,98284,98765
 3.0000e-001 98814  6.1343e+000  2.0965e+001  1.9114e+000 34064 98310,98765,98549
 3.0000e-001 98863  5.7624e+000  2.1932e+001 -7.8162e-001 34064 98310,98621,98837
 3.0000e-001 98886  7.3096e+000  2.1742e+001 -1.1064e+000 34064 98310,98837,98336
 3.0000e-001 99264  9.6563e+000  1.7536e+001 -2.2732e+000 33446 99287,99094,99068
 3.0000e-001 99241  9.4765e+000  1.7818e+001 -2.5998e+000 33446 99287,99068,99016
 3.0000e-001 99218  7.7295e+000  1.2984e+001 -1.8855e+000 33446 99016,99068,99042
 3.0000e-001 99195  4.3231e+000  1.5580e+001 -2.8339e+000 33446 99016,99146,99120
 3.0000e-001 99172  7.8258e+000  2.3528e+001 -2.2748e+000 33446 98990,99146,99016
 3.0000e-001 99313  1.0245e+001  1.7782e+001 -2.3078e+000 33446 99120,99094,99287
 3.0000e-001 99336  9.6794e+000  1.7860e+001 -2.5848e+000 33446 99120,99287,99016
 3.0000e-001 99861  2.5466e+000  1.8002e+001 -9.3597e-001 32940 100172,99956,99884
 3.0000e-001 99838  4.7274e+000  1.7662e+001  5.6609e-001 32940 100100,99884,99518
 3.0000e-001 99815  3.8160e+000  1.5595e+001 -3.0703e+000 32940 100244,99956,99622
 3.0000e-001 99792  5.5665e+000  1.8713e+001 -2.6642e-002 32940 100028,99648,99622
 3.0000e-001 99769  4.2205e+000  1.8791e+001  1.4787e+000 32940 100100,99518,99492
 3.0000e-001 99746  6.5917e+000  2.2441e+001 -3.9843e-001 32940 99570,99622,99596
 3.0000e-001 99723  2.9358e+000  1.5397e+001 -3.3452e+000 32940 100244,99622,99570
 3.0000e-001 99700  4.3048e+000  2.2868e+001  1.9711e-001 32940 99440,99492,99466
 3.0000e-001 99910  3.2676e+000  1.8037e+001 -6.1793e-001 32940 100172,99884,100028
 3.0000e-001 99933  1.8769e+000  1.6523e+001  2.6325e-001 32940 99674,99884,99440
 3.0000e-001 99982  2.4847e+000  1.3732e+001 -3.4204e-001 32940 99518,99884,99956
 3.0000e-001 100005  2.7144e+000  9.6766e+000 -3.7599e+000 32940 99518,99956,99544
 3.0000e-001 100054  3.0020e+000  1.8228e+001 -1.0751e-001 32940 99674,99648,100028
 3.0000e-001 100077  2.6411e+000  1.8368e+001 -2.3385e-002 32940 99674,100028,99884
 3.0000e-001 100126  3.4572e+000  1.6737e+001  1.3099e-002 32940 99440,99884,100100
 3.0000e-001 100149  3.0225e+000  1.7642e+001  9.2820e-001 32940 99440,100100,99492
 3.0000e-001 100198  3.2401e+000  1.8513e+001 -3.3580e-001 32940 99622,99956,100172
 3.0000e-001 100221  3.4953e+000  1.8489e+001  1.3225e-002 32940 99622,100172,100028
 3.0000e-001 100270  5.2167e+000  1.5262e+001 -2.7277e+000 32940 99544,99956,100244
 3.0000e-001 100293  4.4471e+000  1.5159e+001 -2.9868e+000 32940 99544,100244,99570
 3.0000e-001 100750  6.3080e+000  2.0612e+001 -2.9784e+000 32365 100773,100580,100502
 3.0000e-001 100727  4.6385e+000  1.6469e+001  1.4796e-001 32365 100773,100502,100632
 3.0000e-001 100704  1.4044e+000  1.5849e+001  3.1067e-001 32365 100476,100632,100502
 3.0000e-001 100681  9.7885e+000  2.3190e+001 -4.9816e+000 32365 100528,100580,100554
 3.0000e-001 100658  9.8693e+000  2.3982e+001 -5.7891e+000 32365 100502,100580,100528
 3.0000e-001 100799  3.7512e+000  2.6150e+001 -3.9156e+000 32365 100606,100580,100773
 3.0000e-001 100822  2.9281e+000  2.2006e+001 -1.3523e+000 32365 100606,100773,100632
 3.0000e-001 101021  1.0086e+000  1.7015e+001  1.6500e-001 31853 100871,100923,100897
 3.0000e-001 100998  2.7407e+000  1.8068e+001  6.4579e-001 31853 100871,100949,100923
 3.0000e-001 100975  3.2437e+000  1.9253e+001  6.8830e-001 31853 100845,100949,100871
 3.0000e-001 101529  4.4421e+000  1.4894e+001  1.1786e+000 31249 101552,101310,101232
 3.0000e-001 101506  3.8706e+000  9.9606e+000  4.0962e+000 31249 101552,101232,101206
 3.0000e-001 101483  7.5163e+000  2.1354e+001  4.6071e-001 31249 101206,101388,101336
 3.0000e-001 101460  4.7525e+000  1.5930e+001 -2.5181e+000 31249 101232,101284,101258
 3.0000e-001 101437  5.2670e+000  1.2843e+001  3.1371e-001 31249 101232,101310,101284
 3.0000e-001 101414  5.4597e+000  2.1053e+001 -3.2352e+000 31249 101336,101388,101362
 3.0000e-001 101578  5.5224e+000  2.1440e+001 -1.1288e+000 31249 101336,101310,101552
 3.0000e-001 101601  4.1858e+000  1.5064e+001  1.6907e+000 31249 101336,101552,101206
 3.0000e-001 101751  6.4327e+000  3.7467e+001 -5.5816e-001 30515 101774,101650,101624
 3.0000e-001 101728  1.2029e+001  3.9684e+001 -1.2403e+000 30515 101846,101774,101624
 3.0000e-001 101800  9.0203e+000  3.7022e+001  7.4977e-002 30515 101676,101650,101774
 3.0000e-001 101823  1.3708e+001  3.4410e+001 -9.7827e-001 30515 101676,101774,101702
 3.0000e-001 101872  7.1764e+000  2.9249e+001 -3.2339e+000 30515 101702,101774,101846
 3.0000e-001 102557  1.7904e+000  1.3626e+001 -7.7214e-001 29947 102652,102580,102266
 3.0000e-001 102534  2.3746e+000  1.5713e+001  8.2157e-001 29947 102580,102136,102370
 3.0000e-001 102511  1.1489e+000  1.1873e+001  2.2197e-002 29947 102724,102652,102266
 3.0000e-001 102488  3.3452e+000  1.2434e+001 -1.0824e+000 29947 102724,102266,102240
 3.0000e-001 102465  4.1217e+000  1.7332e+001 -1.7248e+000 29947 102796,102318,102292
 3.0000e-001 102442  1.1991e+001  1.2459e+001 -1.8453e+000 29947 102162,102214,102188
 3.0000e-001 102419  5.2490e+000  1.1249e+001 -9.6579e-001 29947 102162,102240,102214
 3.0000e-001 102396  4.6278e+000  1.7941e+001  3.3011e+000 29947 102318,102370,102344
 3.0000e-001 102606  1.1709e+000  8.3454e+000 -1.7581e+000 29947 102292,102266,102580
 3.0000e-001 102629  3.5263e+000  1.4740e+001 -1.6740e+000 29947 102796,102292,102580
 3.0000e-001 102678  8.6403e-001  1.1948e+001  7.9816e-001 29947 102136,102580,102652
 3.0000e-001 102701  1.9664e+000  7.4827e+000  1.7641e+000 29947 102136,102652,102162
 3.0000e-001 102750  4.5954e+000  1.1866e+001  2.1360e-001 29947 102162,102652,102724
 3.0000e-001 102773  5.2985e+000  1.1228e+001 -8.6074e-001 29947 102162,102724,102240
 3.0000e-001 102822  4.2210e+000  1.4366e+001 -5.4745e-001 29947 102370,102318,102796
 3.0000e-001 102845  4.3900e+000  1.3191e+001 -2.1059e-001 29947 102370,102796,102580
 3.0000e-001 103044  7.1782e+000  1.6197e+001  1.0796e+000 29450 102868,102920,102894
 3.0000e-001 103021  5.2861e+000  1.3160e+001  1.9741e+000 29450 102868,102972,102920
 3.0000e-001 102998  8.3566e+000  1.1616e+001  4.5310e+000 29450 102920,102972,102946
 3.0000e-001 103292  1.5339e+001  3.0820e+001  2.4246e-001 29060 103315,103171,103119
 3.0000e-001 103269  1.4234e+001  3.0899e+001  6.6911e-001 29060 103315,103119,103067
 3.0000e-001 103246  1.6539e+001  2.4374e+001  5.9478e+000 29060 103119,103171,103145
 3.0000e-001 103223  7.2739e+000  3.7436e+001 -1.6172e+000 29060 103067,103119,103093
 3.0000e-001 103341  1.6261e+001  3.0786e+001 -2.4678e-001 29060 103197,103171,103315
 3.0000e-001 103364  1.4988e+001  3.1291e+001 -1.8112e-001 29060 103197,103315,103067
 3.0000e-001 104002  3.4330e+000  1.3895e+001 -8.3678e-001 28599 104097,104025,103708
 3.0000e-001 103979  4.8422e+000  1.7486e+001  9.0467e-001 28599 104169,104025,103656
 3.0000e-001 103956  5.0264e+000  1.2277e+001 -5.5818e-001 28599 104097,103708,103682
 3.0000e-001 103933  5.1444e+000  1.6553e+001  5.5534e-001 28599 104169,103656,103630
 3.0000e-001 103910  9.7482e+000  2.5715e+001  1.4919e+000 28599 103760,103812,103786
 3.0000e-001 103887  2.7684e-001  1.3605e+001  4.3304e+000 28599 103630,103838,103812
 3.0000e-001 103864  1.6826e-001  2.0207e+001 -1.5711e+000 28599 103708,103760,103734
 3.0000e-001 104051  4.1731e+000  1.8267e+001 -1.3915e-001 28599 103760,103708,104025
 3.0000e-001 104074  6.5101e+000  1.7583e+001  2.4425e+000 28599 103760,104025,103812
 3.0000e-001 104123  4.3570e+000  1.7650e+001 -9.1254e-003 28599 103656,104025,104097
 3.0000e-001 104146  4.8494e+000  1.4455e+001  5.5086e-001 28599 103656,104097,103682
 3.0000e-001 104195  4.5473e+000  1.6415e+001  1.0478e+000 28599 103812,104025,104169
 3.0000e-001 104218  5.1031e+000  1.5825e+001  7.5534e-001 28599 103812,104169,103630
 3.0000e-001 104596  1.1723e+001  2.3959e+001 -2.2335e+000 28344 104619,104374,104322
 3.0000e-001 104573  1.3014e+001  2.4369e+001 -2.1257e+000 28344 104619,104322,104478
 3.0000e-001 104550  7.6176e+000  2.2988e+001 -5.5283e-001 28344 104322,104374,104348
 3.0000e-001 104527  1.2415e+001  4.1379e+001 -4.2782e+000 28344 104400,104452,104426
 3.0000e-001 104504  8.7470e+000  2.7957e+001  4.2294e-001 28344 104374,104452,104400
 3.0000e-001 104645  1.2099e+001  2.3514e+001 -8.4905e-001 28344 104452,104374,104619
 3.0000e-001 104668  1.3910e+001  2.4181e+001 -7.7425e-001 28344 104452,104619,104478
 3.0000e-001 104987  5.5609e+000  1.6226e+001  1.6632e-002 27947 104713,104843,104765
 3.0000e-001 104964  4.2881e+000  1.6379e+001 -5.3445e-001 27947 104713,104869,104843
 3.0000e-001 104941  4.2703e+000  1.5339e+001 -3.7793e-001 27947 104765,104843,104791
 3.0000e-001 104918  1.5815e+000  7.2913e+000  5.0553e-001 27947 104791,104843,104817
 3.0000e-001 104895  5.7586e+000  1.9307e+001  2.8531e+000 27947 104713,104765,104739
 3.0000e-001 105367  1.0510e+001  2.2969e+001 -1.3331e+000 27443 105390,105197,105119
 3.0000e-001 105344  7.9433e+000  2.3640e+001  2.1692e+000 27443 105390,105119,105093
 3.0000e-001 105321  1.3283e+001  2.1829e+001 -8.9759e-001 27443 105119,105197,105145
 3.0000e-001 105298  6.2801e+000  4.1614e+001 -1.2225e+001 27443 105197,105249,105223
 3.0000e-001 105275  1.4999e+001  2.1762e+001 -1.3570e+000 27443 105145,105197,105171
 3.0000e-001 105416  1.1994e+001  2.5331e+001 -2.0136e+000 27443 105249,105197,105390
 3.0000e-001 105439  1.0082e+001  2.7576e+001  1.2919e+000 27443 105249,105390,105093
 3.0000e-001 105994  1.0418e+001  2.1513e+001  1.5729e+000 27096 106161,106017,105700
 3.0000e-001 105971  6.1063e+000  1.7226e+001  2.5527e-002 27096 106305,106017,105648
 3.0000e-001 105948  9.7427e+000  1.6733e+001 -1.2124e+000 27096 106089,105804,105778
 3.0000e-001 105925  1.0280e+001  2.2978e+001  2.2843e+000 27096 106161,105700,105674
 3.0000e-001 105902  7.0224e+000  1.8345e+001 -3.5704e-001 27096 106233,105726,105700
 3.0000e-001 105879  9.7982e-001  1.6056e+001  1.6185e-001 27096 106305,105648,105622
 3.0000e-001 105856  6.1388e+000  2.0528e+001 -6.0421e-001 27096 105726,105778,105752
 3.0000e-001 106043  7.5454e+000  1.8549e+001 -2.8434e-001 27096 106233,105700,106017
 3.0000e-001 106066  8.3739e+000  2.0110e+001 -5.8893e-001 27096 106089,105778,106017
 3.0000e-001 106115  7.4128e+000  1.5480e+001 -2.9889e+000 27096 105830,105804,106089
 3.0000e-001 106138  7.0838e+000  1.6900e+001 -1.6569e+000 27096 106377,106089,106017
 3.0000e-001 106187  9.9247e+000  1.9072e+001 -6.3223e-001 27096 105648,106017,106161
 3.0000e-001 106210  1.0592e+001  2.2990e+001 -3.7694e-001 27096 105648,106161,105674
 3.0000e-001 106259  6.3866e+000  1.8723e+001  9.7055e-003 27096 105778,105726,106233
 3.0000e-001 106282  7.0112e+000  1.8985e+001  8.6652e-002 27096 105778,106233,106017
 3.0000e-001 106331  7.1352e+000  1.6648e+001 -1.4392e+000 27096 106377,106017,106305
 3.0000e-001 106354  6.4850e+000  1.8559e+001 -1.3621e+000 27096 105830,106305,105622
 3.0000e-001 106403  6.7125e+000  1.6537e+001 -1.4860e+000 27096 105830,106089,106377
 3.0000e-001 106426  6.7609e+000  1.6414e+001 -1.2787e+000 27096 105830,106377,106305
 3.0000e-001 106625  2.0918e+000  2.2236e+001 -2.2681e-001 26684 106475,106553,106527
 3.0000e-001 106602  4.9854e+000  2.6036e+001  1.0863e+000 26684 106449,106553,106475
 3.0000e-001 106579  4.0074e+000  2.4225e+001 -2.3605e+000 26684 106475,106527,106501
 3.0000e-001 107084  4.4220e+000  1.8182e+001  1.7682e+000 26244 107107,106914,106862
 3.0000e-001 107061  5.0209e+000  1.9852e+001  1.7255e+000 26244 107107,106862,106836
 3.0000e-001 107038  4.0365e-001  2.7903e+001  9.5918e-001 26244 106810,106966,106836
 3.0000e-001 107015  2.3665e+000  1.5525e+001  7.5627e-001 26244 106862,106914,106888
 3.0000e-001 106992  2.2289e+000  1.3764e+001  9.3055e-001 26244 106914,106966,106940
 3.0000e-001 107133  4.4477e+000  1.6806e+001 -3.5057e-001 26244 106966,106914,107107
 3.0000e-001 107156  5.8026e+000  2.0030e+001 -3.7887e-001 26244 106966,107107,106836
 3.0000e-001 107662 -4.3119e-001  1.6461e+001 -3.8510e-001 25904 107365,107495,107391
 3.0000e-001 107639  4.3442e+000  1.5409e+001 -7.3385e-001 25904 107365,107521,107495
 3.0000e-001 107616  4.4633e+000  1.8408e+001 -1.2688e-001 25904 107391,107469,107443
 3.0000e-001 107593  3.3271e+000  1.8098e+001  5.0505e-002 25904 107391,107495,107469
 3.0000e-001 107570  5.4539e+000  1.9845e+001 -7.3549e-001 25904 107391,107443,107417
 3.0000e-001 107547 -8.1148e-001  1.2696e+001 -3.7232e+000 25904 107339,107521,107365
 3.0000e-001 108247  2.9948e+000  1.8015e+001  3.0308e-001 25450 108270,108002,107950
 3.0000e-001 108224  2.5359e+000  1.8352e+001 -2.3247e-001 25450 108270,107950,108106
 3.0000e-001 108201  2.2035e+000  1.6803e+001  9.1214e-002 25450 108342,108028,108002
 3.0000e-001 108178  3.0958e+000  1.7676e+001  1.1408e-001 25450 107950,108002,107976
 3.0000e-001 108155 -1.3681e+000  2.0509e+001  2.0640e-001 25450 107924,108106,107950
 3.0000e-001 108132  7.3028e+000  2.3489e+001 -1.5052e+000 25450 108054,108106,108080
 3.0000e-001 108296  2.4726e+000  1.6872e+001  1.4772e-001 25450 108342,108002,108270
 3.0000e-001 108319  2.8523e+000  1.8473e+001  3.9553e-001 25450 108054,108270,108106
 3.0000e-001 108368  8.0947e-001  1.7413e+001  2.0179e-001 25450 108054,108028,108342
 3.0000e-001 108391  1.7186e+000  1.8036e+001  4.9580e-001 25450 108054,108342,108270
 3.0000e-001 108818  1.7632e+000  1.4037e+001  2.3258e+000 24939 108521,108677,108651
 3.0000e-001 108795  3.7530e-001  9.3838e+000  2.5339e+000 24939 108495,108677,108521
 3.0000e-001 108772  3.5015e+000  1.4756e+001 -1.0631e+000 24939 108521,108651,108625
 3.0000e-001 108749  4.4986e+000  1.3324e+001 -5.4728e-001 24939 108521,108625,108599
 3.0000e-001 108726  9.5059e+000  8.2595e+000  9.1582e-001 24939 108547,108599,108573
 3.0000e-001 108703  3.4981e+000  1.0393e+001 -5.7312e-001 24939 108521,108599,108547
 3.0000e-001 109403  1.3233e+001  1.3456e+001  4.2448e-001 24741 109158,109210,109184
 3.0000e-001 109380  1.1252e+001  1.3391e+001  7.0756e-001 24741 109158,109262,109210
 3.0000e-001 109357  1.2603e+001  1.5406e+001  1.3712e+000 24741 109080,109262,109158
 3.0000e-001 109334  1.4378e+001  1.1626e+001  4.6754e-001 24741 109080,109158,109132
 3.0000e-001 109311  1.2881e+001  1.2541e+001  6.9540e-001 24741 109210,109262,109236
 3.0000e-001 109288  1.6579e+001  1.2218e+001  1.5317e+000 24741 109080,109132,109106
 3.0000e-001 109781  2.5059e+000  1.7744e+001 -5.3070e-001 24337 109533,109611,109559
 3.0000e-001 109758  4.0420e+000  1.7818e+001 -5.3031e-001 24337 109533,109637,109611
 3.0000e-001 109735  3.0511e+000  1.8852e+001  6.7785e-001 24337 109559,109611,109585
 3.0000e-001 109712  4.1718e+000  1.8165e+001  1.6996e+000 24337 109533,109663,109637
 3.0000e-001 109689  2.4832e+000  1.4664e+001 -6.5779e-002 24337 109507,109663,109533
 3.0000e-001 110159  4.6181e+000  1.0875e+001  4.4190e+000 23833 110182,109963,109911
 3.0000e-001 110136 -2.0126e+000  8.3699e+000  4.6655e+000 23833 110182,109911,109885
 3.0000e-001 110113  1.2339e+001  9.3402e+000 -1.3903e+000 23833 109885,110041,109989
 3.0000e-001 110090  6.5198e+000  1.4732e+001  3.8102e+000 23833 109911,109963,109937
 3.0000e-001 110067  8.8546e+000  7.9535e-001 -1.6253e+000 23833 109989,110041,110015
 3.0000e-001 110208  1.3267e+000  1.0432e+001  1.7912e+000 23833 109989,109963,110182
 3.0000e-001 110231 -6.7874e-001  9.9473e+000  1.4164e+000 23833 109989,110182,109885
 3.0000e-001 110332  1.0552e+000  2.4510e+001 -1.4643e+000 23429 110254,110306,110280
 3.0000e-001 110580  1.4406e+000  1.8306e+001 -2.6222e+000 22825 110603,110407,110381
 3.0000e-001 110557  5.5333e+000  2.0043e+001 -2.5975e+000 22825 110603,110381,110485
 3.0000e-001 110534  7.6602e+000  2.3856e+001 -1.2055e+000 22825 110433,110485,110459
 3.0000e-001 110511  8.7926e+000  1.9900e+001 -1.5075e+000 22825 110355,110485,110381
 3.0000e-001 110629  2.7454e+000  1.8504e+001  1.0136e-001 22825 110433,110407,110603
 3.0000e-001 110652  4.9305e+000  1.9377e+001  1.0545e-001 22825 110433,110603,110485
 3.0000e-001 110902  8.8635e+000  1.9975e+001 -3.4374e-001 22428 110703,110755,110729
 3.0000e-001 110879  8.5549e+000  1.9917e+001 -2.6996e-001 22428 110703,110781,110755
 3.0000e-001 110856  1.8731e+000  1.6596e+001 -2.6764e+000 22428 110703,110807,110781
 3.0000e-001 110833  3.4505e+000  2.1277e+001 -2.1560e+000 22428 110677,110807,110703
 3.0000e-001 111284  1.4930e+001  2.0703e+001  4.7857e+000 22138 111088,111140,111114
 3.0000e-001 111261  8.8366e+000  1.8410e+001  5.4812e+000 22138 111062,111140,111088
 3.0000e-001 111238  1.1522e+001  2.2742e+001  1.9461e+000 22138 111036,111140,111062
 3.0000e-001 111215  1.1295e+001  1.7813e+001  1.0653e+000 22138 111010,111140,111036
 3.0000e-001 111192  1.3891e+001  2.0235e+001 -7.6927e-001 22138 111010,111166,111140
 3.0000e-001 111385  4.4651e+000  2.3764e+001  1.2435e+000 21826 111307,111359,111333
 3.0000e-001 111731  5.2552e+000  2.2778e+001  1.3262e+000 21264 111754,111538,111434
 3.0000e-001 111708  7.1722e+000  2.3417e+001 -4.7638e-001 21264 111754,111434,111408
 3.0000e-001 111685  4.3053e+000  2.3001e+001  1.3392e+000 21264 111434,111538,111460
 3.0000e-001 111662 -1.2035e+000  2.0631e+001  1.9008e+000 21264 111460,111538,111486
 3.0000e-001 111639  8.1261e+000  2.0767e+001  8.2581e-001 21264 111408,111590,111564
 3.0000e-001 111616 -4.9407e+000  2.6138e+001  4.4847e+000 21264 111486,111538,111512
 3.0000e-001 111780  4.7631e+000  2.1875e+001  1.5153e+000 21264 111564,111538,111754
 3.0000e-001 111803  5.1861e+000  1.9827e+001  3.1019e-001 21264 111564,111754,111408
 3.0000e-001 111955  5.6039e+000  2.4303e+001  8.3487e-001 20860 111978,111906,111880
 3.0000e-001 111932  1.0664e+001  2.4286e+001  2.7330e+000 20860 112110,111828,111906
 3.0000e-001 112004  8.4618e+000  2.5250e+001  3.0378e+000 20860 112110,111906,111978
 3.0000e-001 112136  1.1757e+001  2.4741e+001  1.6128e+000 20860 111854,111828,112110
 3.0000e-001 112159  9.9358e+000  2.6258e+001  1.7555e+000 20860 111854,112110,111978
 3.0000e-001 112407  8.7843e+000  2.4096e+001 -3.3235e-001 20320 112182,112286,112208
 3.0000e-001 112384  1.3750e+001  2.7797e+001 -2.4209e+000 20320 112182,112312,112286
 3.0000e-001 112361  4.7856e+000  2.3570e+001 -9.0003e-001 20320 112208,112286,112260
 3.0000e-001 112338 -8.1586e+000  3.2649e+001 -1.0012e+001 20320 112208,112260,112234
 3.0000e-001 112655  1.5902e+001  2.8380e+001 -4.0306e-002 19916 112508,112560,112534
 3.0000e-001 112632  1.6905e+001  2.8084e+001  2.2927e-001 19916 112430,112560,112508
 3.0000e-001 112609  1.7145e+001  2.9968e+001 -3.0906e-001 19916 112430,112508,112456
 3.0000e-001 112586  1.6091e+001  2.6994e+001  3.3081e-001 19916 112456,112508,112482
 3.0000e-001 112807  5.7017e+000  1.9195e+001  1.4321e-002 19626 112680,112732,112706
 3.0000e-001 112784  6.8604e+000  1.9560e+001 -5.6979e-001 19626 112680,112758,112732
 3.0000e-001 113008  5.7378e+000  2.5681e+001 -1.1532e+000 19165 112858,112936,112884
 3.0000e-001 112985  1.7824e+000  2.7067e+001 -3.2995e+000 19165 112832,112936,112858
 3.0000e-001 112962  2.8281e+000  2.4703e+001  7.5132e-001 19165 112884,112936,112910
 3.0000e-001 113209  4.9378e+000  1.8805e+001  4.4933e-001 18596 113033,113085,113059
 3.0000e-001 113186  6.6147e+000  1.9629e+001 -6.5918e-002 18596 113033,113111,113085
 3.0000e-001 113163  4.4943e+000  1.6236e+001  2.2885e+000 18596 113033,113137,113111
 3.0000e-001 113481 -1.5270e-001  1.8749e+001  2.2062e-001 18348 113256,113308,113282
 3.0000e-001 113458  3.6272e+000  2.1122e+001 -8.3794e-001 18348 113256,113386,113308
 3.0000e-001 113435  2.1571e+000  1.7045e+001 -7.1851e-001 18348 113308,113386,113360
 3.0000e-001 113412  4.2214e+000  1.8686e+001  1.1596e-002 18348 113308,113360,113334
 3.0000e-001 113753  2.7461e+000  1.8429e+001 -9.9212e-002 17830 113554,113606,113580
 3.0000e-001 113730  2.8141e+000  1.7957e+001  2.1230e-001 17830 113528,113606,113554
 3.0000e-001 113707  2.4334e+000  1.6951e+001 -4.5055e-001 17830 113528,113658,113606
 3.0000e-001 113684  5.9427e+000  1.9070e+001  5.3971e-001 17830 113606,113658,113632
 3.0000e-001 113954  1.1810e+001  2.4265e+001  8.9848e-001 17326 113778,113830,113804
 3.0000e-001 113931  7.9992e+000  2.6525e+001  2.0280e+000 17326 113778,113882,113830
 3.0000e-001 113908  4.2438e+000  2.5378e+001 -1.1577e+000 17326 113830,113882,113856
 3.0000e-001 114106 -4.6294e-001  1.9139e+001 -7.5881e-001 16870 113979,114031,114005
 3.0000e-001 114083  2.8232e+000  1.7782e+001 -1.7262e+000 16870 113979,114057,114031
 3.0000e-001 114461  1.3217e+001  2.5806e+001 -4.1940e+000 16266 114236,114288,114262
 3.0000e-001 114438  7.1080e+000  1.7350e+001  7.2082e-002 16266 114236,114366,114288
 3.0000e-001 114415  1.4648e+001  2.9509e+001  2.9229e+000 16266 114288,114340,114314
 3.0000e-001 114392  1.0435e+001  2.7261e+001  1.1611e+000 16266 114288,114366,114340
 3.0000e-001 114562  6.2550e+000  2.4715e+001  0.0000e+000 15830 114484,114536,114510
 3.0000e-001 114663  1.1319e+001  2.6419e+001 -1.7983e+000 15151 114585,114637,114611
 3.0000e-001 114886  3.5741e+000  2.1279e+001 -1.7878e+000 417 114762,114814,114788
 3.0000e-001 114863  4.7435e+000  2.4102e+001 -1.5802e+000 417 114710,114814,114762
 3.0000e-001 114840  4.4078e+000  2.3915e+001 -1.5049e+000 417 114710,114762,114736
 4.0000e-001 66549 -1.9781e+000  1.5749e+001  3.5907e+000 66104 66350,66454,66428
 4.0000e-001 66526  2.0829e-001  1.7061e+001  1.0738e+000 66104 66324,66454,66350
 4.0000e-001 66503  1.1235e-001  2.4377e+001  2.8797e+000 66104 66350,66428,66402
 4.0000e-001 66480 -6.6732e+000  2.0119e+001  5.6868e-001 66104 66350,66402,66376
 4.0000e-001 66947  6.3362e+000  1.5866e+000 -2.5450e+000 65906 66699,66829,66803
 4.0000e-001 66924 -2.3849e+000 -3.2791e+000 -6.2502e-001 65906 66673,66829,66699
 4.0000e-001 66901  2.1238e+000  2.4344e+001 -3.8092e+000 65906 66725,66777,66751
 4.0000e-001 66878 -2.9703e+000  1.7613e+001 -6.4579e+000 65906 66725,66803,66777
 4.0000e-001 66855 -1.6599e+000 -3.7764e+000 -5.0657e+000 65906 66699,66803,66725
 4.0000e-001 67146 -8.0808e+000  1.7144e+001  6.3711e+000 65708 67022,67074,67048
 4.0000e-001 67123  1.6137e+000  2.7492e+001  2.0708e+000 65708 66970,67074,67022
 4.0000e-001 67100  1.6513e+000  2.3217e+001  7.8838e+000 65708 66970,67022,66996
 4.0000e-001 67477  3.2263e+000  1.2221e+001  5.6540e-001 65418 67278,67356,67330
 4.0000e-001 67454  5.8472e+000  1.8016e+001  2.0273e+000 65418 67278,67382,67356
 4.0000e-001 67431  9.2940e+000  1.6759e+001 -1.8568e+000 65418 67278,67330,67304
 4.0000e-001 67408  3.1302e+000  3.2768e+001  7.2842e+000 65418 67252,67382,67278
 4.0000e-001 68111  8.9708e-001  1.3475e+001  1.7746e+000 65014 67791,67921,67869
 4.0000e-001 68088 -5.6679e+000  1.0749e+001  6.6189e-001 65014 67765,67921,67791
 4.0000e-001 68065  6.5054e-001  1.8711e+001  2.1986e+000 65014 67869,67921,67895
 4.0000e-001 68042 -6.2451e-001  1.2897e+001 -4.3079e-001 65014 67765,67947,67921
 4.0000e-001 68019  2.0595e+000  1.2910e+001  1.0410e+000 65014 67791,67869,67817
 4.0000e-001 67996 -3.7442e-001  2.7374e+001 -1.3365e+001 65014 67817,67869,67843
 4.0000e-001 67973 -3.8328e-001  1.2894e+001 -5.2167e-001 65014 67739,67947,67765
 4.0000e-001 68359  2.9657e+000  3.4200e+001  5.8032e-001 64816 68186,68238,68212
 4.0000e-001 68336  7.3241e-003  2.3621e+001  2.7457e+000 64816 68186,68264,68238
 4.0000e-001 68313  6.0772e+000  2.5479e+001 -5.4773e+000 64816 68160,68264,68186
 4.0000e-001 68290  2.7136e+000  3.0780e+001 -1.2363e+001 64816 68134,68264,68160
 4.0000e-001 68509  1.9683e+000  1.3409e+001 -4.5267e+000 64362 68864,68532,68434
 4.0000e-001 68486  4.7312e+000  1.8704e+001  2.1214e-001 64362 68532,68408,68382
 4.0000e-001 68558  1.1362e+001  2.5021e+001 -4.7322e+000 64362 68736,68532,68460
 4.0000e-001 68581  3.9512e+000  1.8687e+001  5.4029e-001 64362 68604,68532,68382
 4.0000e-001 68630  8.6499e+000  3.1191e+001  6.7264e-001 64362 68460,68532,68604
 4.0000e-001 68762 -6.8870e-001  1.3940e+001  3.7037e-001 64362 68434,68532,68736
 4.0000e-001 68890  1.1979e+001  2.1768e+001 -2.5631e-001 64362 68408,68532,68864
 4.0000e-001 69168  5.3300e+000  2.5665e+001 -1.6002e+000 64164 69018,69070,69044
 4.0000e-001 69145  2.2686e+000  2.6807e+001 -5.9380e-001 64164 68992,69070,69018
 4.0000e-001 69122  3.9271e+000  2.9682e+001  2.1409e+000 64164 68992,69096,69070
 4.0000e-001 69367  1.7189e+000  1.4570e+001  1.4267e+000 63966 69462,69390,69269
 4.0000e-001 69344  8.0155e+000  3.1992e+001 -2.6527e+000 63966 69390,69243,69217
 4.0000e-001 69321  2.7391e+000  1.8520e+001 -1.0426e+000 63966 69191,69295,69217
 4.0000e-001 69416  3.6225e+000  2.3642e+001  8.7833e-001 63966 69295,69269,69390
 4.0000e-001 69439  4.3795e+000  2.1802e+001 -2.4932e+000 63966 69295,69390,69217
 4.0000e-001 69488  1.2826e+001  3.3634e+001  5.9833e+000 63966 69243,69390,69462
 4.0000e-001 69900 -1.3337e+001  1.6484e+001  5.6515e+000 63676 69701,69779,69727
 4.0000e-001 69877 -5.9255e-001  2.3204e+001  3.1551e+000 63676 69675,69779,69701
 4.0000e-001 69854  1.0414e+000  2.3458e+001  2.8265e+000 63676 69675,69805,69779
 4.0000e-001 69831 -1.7636e+001  3.3357e+001  1.1169e+001 63676 69727,69779,69753
 4.0000e-001 70050  2.7901e-001  2.3732e+001  1.1455e+000 63472 70073,69949,69923
 4.0000e-001 70027 -7.5003e+000  2.2413e+001  9.7017e-001 63472 70073,69923,70001
 4.0000e-001 70099  5.9218e+000  2.3336e+001  1.7034e+000 63472 69975,69949,70073
 4.0000e-001 70122 -7.7896e-001  2.2769e+001  1.5774e+000 63472 69975,70073,70001
 4.0000e-001 70321 -5.5618e+000  1.5679e+001 -7.3188e+000 63274 70145,70223,70171
 4.0000e-001 70298 -7.5136e+000  2.7590e+001  1.0520e+001 63274 70145,70249,70223
 4.0000e-001 70275  4.5307e-001  2.4378e+001 -4.1876e+000 63274 70171,70223,70197
 4.0000e-001 70593 -2.0043e+000  1.5090e+001 -1.4927e+000 63076 70368,70472,70420
 4.0000e-001 70570 -2.3396e+000  2.0614e+001 -1.0308e+000 63076 70368,70498,70472
 4.0000e-001 70547 -7.8504e+000  1.7610e+001  6.2095e+000 63076 70420,70472,70446
 4.0000e-001 70524  1.9670e+000  1.7659e+001 -4.2427e+000 63076 70368,70420,70394
 4.0000e-001 70843 -3.9635e+000  1.1097e+001  2.5892e+000 62736 70866,70644,70618
 4.0000e-001 70820 -8.3399e+000  9.1247e+000  4.7091e+000 62736 70866,70618,70748
 4.0000e-001 70797 -9.0847e+000  1.0474e+001  5.0239e+000 62736 70644,70722,70696
 4.0000e-001 70774 -7.1220e+000  2.7361e+001  6.8508e+000 62736 70644,70696,70670
 4.0000e-001 70892 -8.5754e+000  1.1769e+001  3.9790e+000 62736 70722,70644,70866
 4.0000e-001 70915 -1.1248e+001  1.0608e+001  6.2660e+000 62736 70722,70866,70748
 4.0000e-001 71018 -1.4199e+001  1.4672e+001  8.2420e+000 62516 70940,70992,70966
 4.0000e-001 71219  7.7953e+000  3.7897e+001 -1.8704e+000 62226 71069,71147,71095
 4.0000e-001 71196  4.7068e+000  3.9094e+001  1.9716e+000 62226 71043,71147,71069
 4.0000e-001 71173  5.1558e+000  4.4240e+001  8.9253e-001 62226 71095,71147,71121
 4.0000e-001 71857 -9.1335e+000  3.8934e+000 -5.8789e+000 61708 71511,71693,71667
 4.0000e-001 71834 -4.0277e+000  1.3987e+001  1.2719e-001 61708 71485,71693,71511
 4.0000e-001 71811 -7.3930e+000  1.1197e+001 -1.0934e+000 61708 71880,71537,71511
 4.0000e-001 71788 -1.4877e+000  1.0989e+001 -1.0244e+000 61708 71880,71511,71667
 4.0000e-001 71765 -2.6126e+000  1.3032e+001  4.3723e+000 61708 71537,71615,71589
 4.0000e-001 71742  4.5881e+000  1.2366e+001 -6.7380e-001 61708 71615,71667,71641
 4.0000e-001 71719 -6.7920e+000  1.3175e+001  1.0846e+000 61708 71537,71589,71563
 4.0000e-001 71906 -2.4679e+000  1.0722e+001  5.0060e-001 61708 71615,71537,71880
 4.0000e-001 71929  2.5141e+000  1.0085e+001  1.0050e+000 61708 71615,71880,71667
 4.0000e-001 72226  1.0757e+000  3.1055e+001  4.0055e-001 61204 72249,72056,72004
 4.0000e-001 72203 -3.5861e+000  2.8632e+001 -2.5707e+000 61204 72249,72004,71978
 4.0000e-001 72180 -3.1775e-001  2.4828e+001 -2.6063e+000 61204 71978,72108,72082
 4.0000e-001 72157  1.6489e+000  3.0601e+001 -4.4070e-001 61204 72004,72056,72030
 4.0000e-001 72134 -1.2304e+001  4.1376e+001 -9.6357e+000 61204 71952,72108,71978
 4.0000e-001 72275  6.4018e+000  2.8812e+001  1.9273e+000 61204 72082,72056,72249
 4.0000e-001 72298  1.7568e+000  2.7873e+001 -1.7874e-001 61204 72082,72249,71978
 4.0000e-001 72757  8.5759e+000  2.4797e+001  1.0761e+000 60800 72483,72613,72509
 4.0000e-001 72734  1.4163e+001  3.0166e+001 -1.6621e+000 60800 72483,72639,72613
 4.0000e-001 72711  1.1618e+001  3.2243e+001  1.8754e+000 60800 72561,72613,72587
 4.0000e-001 72688  9.7035e+000  2.6411e+001 -2.4653e-001 60800 72509,72613,72561
 4.0000e-001 72665  1.8032e+001  4.3372e+001 -7.3838e+000 60800 72509,72561,72535
 4.0000e-001 72907 -4.0429e+000  1.4435e+001 -2.2718e+000 60552 72780,72832,72806
 4.0000e-001 72884  1.2210e+000  2.5266e+001 -4.3317e+000 60552 72780,72858,72832
 4.0000e-001 73464  1.5022e-001  2.0711e+001  1.2856e+000 60240 73487,73222,73196
 4.0000e-001 73441  5.2498e-001  1.9353e+001  4.3673e-003 60240 73559,73487,73196
 4.0000e-001 73418 -2.0702e+000  1.9492e+001  4.6887e-001 60240 73559,73196,73170
 4.0000e-001 73395  7.2599e+000  1.3644e+001  1.7752e+000 60240 73222,73274,73248
 4.0000e-001 73372 -9.3081e+000  1.0409e+001 -5.7470e+000 60240 73118,73300,73274
 4.0000e-001 73349 -3.3205e+000  2.7975e+001 -4.5592e+000 60240 73092,73300,73118
 4.0000e-001 73326 -1.8557e+000  3.0628e+001  9.5853e-001 60240 73118,73170,73144
 4.0000e-001 73513  1.5980e+000  2.0719e+001  2.7210e+000 60240 73274,73222,73487
 4.0000e-001 73536  5.0485e-001  2.1296e+001 -4.6255e-002 60240 73274,73487,73118
 4.0000e-001 73585 -3.8724e+000  1.9669e+001  2.0145e-001 60240 73118,73487,73559
 4.0000e-001 73608 -6.3495e+000  1.9834e+001  8.0670e-001 60240 73118,73559,73170
 4.0000e-001 73758 -1.6751e+001 -1.0838e+000 -8.0548e-001 59871 73657,73709,73683
 4.0000e-001 73735 -4.8892e+000 -7.7353e+000  1.7767e+000 59871 73631,73709,73657
 4.0000e-001 74187  3.8798e+000  3.3864e+001  1.6907e-002 59474 74210,73890,73864
 4.0000e-001 74164  3.7540e+000  3.6594e+001 -4.4737e-001 59474 74210,73864,74046
 4.0000e-001 74141  3.2009e+000  3.0203e+001  6.5652e-001 59474 73890,73942,73916
 4.0000e-001 74118  2.4574e+000  3.1600e+001  7.3498e-001 59474 73890,73994,73942
 4.0000e-001 74095  7.7530e+000  3.3947e+001 -6.5521e+000 59474 73994,74046,74020
 4.0000e-001 74072  8.8247e-001  2.2844e+001  7.6134e-001 59474 73942,73994,73968
 4.0000e-001 74236  4.1721e+000  3.1964e+001 -3.3043e-002 59474 73994,73890,74210
 4.0000e-001 74259  3.2888e+000  3.3667e+001 -5.8154e-001 59474 73994,74210,74046
 4.0000e-001 74716  6.8064e+000  2.8332e+001 -9.0695e-001 58770 74468,74598,74494
 4.0000e-001 74693  1.4347e+001  1.9952e+001 -7.5086e+000 58770 74442,74598,74468
 4.0000e-001 74670 -4.7055e-002  1.6392e+001  2.2540e+000 58770 74494,74572,74520
 4.0000e-001 74647  1.1445e+001  2.0766e+001  2.9747e+000 58770 74494,74598,74572
 4.0000e-001 74624  1.7859e+001  5.6976e+001  6.3211e+000 58770 74520,74572,74546
 4.0000e-001 75222  4.5848e-001  2.7697e+001 -2.1442e-001 58266 74951,75081,75029
 4.0000e-001 75199  3.0539e+000  3.0282e+001  9.0747e-001 58266 74925,75081,74951
 4.0000e-001 75176  4.7096e+000  2.5925e+001 -4.7820e+000 58266 75029,75081,75055
 4.0000e-001 75153 -3.3293e+000  3.2397e+001 -1.0873e+000 58266 74951,75003,74977
 4.0000e-001 75130 -3.6648e+000  2.5773e+001  8.7209e-001 58266 74951,75029,75003
 4.0000e-001 75107 -1.1135e+001  2.6525e+001  2.1384e+000 58266 74899,75081,74925
 4.0000e-001 75421  3.1319e+000  2.9646e+001 -4.6504e-001 57826 75444,75297,75245
 4.0000e-001 75398  4.1382e+000  2.0633e+001  2.5917e+000 57826 75444,75245,75349
 4.0000e-001 75375  7.1706e+000  3.1982e+001 -2.0591e-001 57826 75516,75297,75271
 4.0000e-001 75470  4.2477e+000  3.3410e+001 -7.3865e-001 57826 75323,75297,75444
 4.0000e-001 75493  8.3429e+000  3.0410e+001  3.2796e+000 57826 75323,75444,75349
 4.0000e-001 75542  9.0969e-001  2.9434e+001  2.1706e+000 57826 75245,75297,75516
 4.0000e-001 76257 -2.2950e+000  1.7395e+001 -6.6345e+000 57422 76280,76093,76067
 4.0000e-001 76234  3.7764e+000  2.0768e+001 -3.8140e-001 57422 75885,76093,75911
 4.0000e-001 76211  6.9998e+000  2.3322e+001 -3.2413e+000 57422 76424,76280,76067
 4.0000e-001 76188  7.8740e+000  2.2237e+001  2.5382e-001 57422 76352,75937,75911
 4.0000e-001 76165  8.4154e+000  2.1240e+001 -2.3454e+000 57422 76424,76067,76015
 4.0000e-001 76142  1.0135e+001  3.2761e+001  3.5698e+000 57422 76015,76067,76041
 4.0000e-001 76119 -1.0856e+001  1.5461e+001 -6.3806e+000 57422 75963,76015,75989
 4.0000e-001 76306  6.5507e-001  2.2136e+001 -1.3632e-001 57422 75911,76093,76280
 4.0000e-001 76329  6.8448e+000  2.1850e+001  7.3442e-001 57422 76352,75911,76280
 4.0000e-001 76378  5.7315e+000  2.2378e+001  6.9707e-001 57422 75963,75937,76352
 4.0000e-001 76401  5.2070e+000  2.2424e+001  1.1273e+000 57422 75963,76352,76280
 4.0000e-001 76450  3.9619e+000  2.1963e+001 -2.2992e+000 57422 75963,76280,76424
 4.0000e-001 76473  6.9354e+000  2.1240e+001 -1.9996e+000 57422 75963,76424,76015
 4.0000e-001 76949  1.4411e+000  2.3132e+001  1.5648e+000 56904 76972,76707,76681
 4.0000e-001 76926  1.0542e+000  2.2065e+001  1.7977e+000 56904 77044,76972,76681
 4.0000e-001 76903  3.3802e+000  2.1558e+001  5.9294e-001 56904 77044,76681,76629
 4.0000e-001 76880 -1.1152e+000  2.2647e+001  2.4810e+000 56904 76707,76785,76759
 4.0000e-001 76857  8.6756e+000  2.7341e+001  6.8399e+000 56904 76577,76785,76603
 4.0000e-001 76834  1.2601e+000  2.6197e+001  4.8012e+000 56904 76707,76759,76733
 4.0000e-001 76811  7.7889e+000  1.9713e+001  6.5551e+000 56904 76629,76681,76655
 4.0000e-001 76998  9.9006e-001  2.2892e+001  1.6964e+000 56904 76785,76707,76972
 4.0000e-001 77021  1.7235e+000  2.1314e+001  2.8404e+000 56904 76785,76972,76603
 4.0000e-001 77070  4.4854e+000  2.2944e+001  2.1307e+000 56904 76603,76972,77044
 4.0000e-001 77093  5.6424e+000  2.1582e+001  9.1472e-001 56904 76603,77044,76629
 4.0000e-001 77471  2.5587e+000  2.4289e+001 -3.0758e-001 56542 77566,77494,77275
 4.0000e-001 77448  2.3652e+000  2.0640e+001 -9.2517e-001 56542 77494,77223,77353
 4.0000e-001 77425  3.7303e+000  2.5494e+001 -2.1632e+000 56542 77566,77275,77249
 4.0000e-001 77402  8.8340e+000  1.9860e+001  7.0868e+000 56542 77197,77353,77223
 4.0000e-001 77379  2.7479e+000  2.8001e+001 -2.4415e+000 56542 77275,77327,77301
 4.0000e-001 77520  1.3440e+000  2.8708e+001 -1.5417e+000 56542 77327,77275,77494
 4.0000e-001 77543 -3.3214e+000  2.4315e+001  6.2686e-001 56542 77327,77494,77353
 4.0000e-001 77592  4.6371e+000  2.5521e+001 -2.0509e+000 56542 77223,77494,77566
 4.0000e-001 77615  5.5747e+000  2.8175e+001 -3.9061e+000 56542 77223,77566,77249
 4.0000e-001 77814  1.4241e+001  2.9894e+001  7.0969e+000 56038 77837,77690,77664
 4.0000e-001 77791  4.6423e+000  2.7443e+001  3.7167e+000 56038 77837,77664,77742
 4.0000e-001 77768 -3.7024e-001  2.7406e+001  1.9471e+000 56038 77638,77742,77664
 4.0000e-001 77863  1.5294e+001  2.7170e+001  2.4878e-001 56038 77716,77690,77837
 4.0000e-001 77886  4.8134e+000  2.4649e+001 -3.0592e+000 56038 77716,77837,77742
 4.0000e-001 78345  8.9704e+000  3.3510e+001  5.0150e+000 55534 78071,78123,78097
 4.0000e-001 78322  7.0608e-001  2.5692e+001 -1.8440e+000 55534 78071,78201,78123
 4.0000e-001 78299 -3.9552e+000  3.4141e+001  6.6827e-001 55534 78071,78227,78201
 4.0000e-001 78276 -3.1440e-002  2.5555e+001 -7.0199e+000 55534 78123,78175,78149
 4.0000e-001 78253  1.6375e+000  2.2512e+001 -3.9622e+000 55534 78123,78201,78175
 4.0000e-001 78802 -2.2207e-001  2.1460e+001 -8.0115e-001 55030 78825,78632,78606
 4.0000e-001 78779  3.9834e+000  2.2108e+001 -2.6905e+000 55030 78897,78825,78606
 4.0000e-001 78756 -4.5478e+000  2.5575e+001 -5.6837e+000 55030 78897,78606,78580
 4.0000e-001 78733  2.5749e+000  1.7157e+001 -3.9957e+000 55030 78554,78684,78658
 4.0000e-001 78710  9.9704e+000  3.5637e+001  1.8791e+000 55030 78528,78684,78554
 4.0000e-001 78851  4.9349e+000  3.0706e+001  2.8497e+000 55030 78658,78632,78825
 4.0000e-001 78874  3.1736e+000  1.8431e+001 -3.6489e+000 55030 78658,78825,78554
 4.0000e-001 78923 -3.5363e+000  1.4655e+001 -8.0149e+000 55030 78554,78825,78897
 4.0000e-001 78946 -7.4602e+000  1.9052e+001 -1.1391e+001 55030 78554,78897,78580
 4.0000e-001 79403  4.4764e+000  2.0247e+001  3.9256e+000 54426 79426,79233,79155
 4.0000e-001 79380 -1.8619e+000  2.0715e+001  6.8161e+000 54426 79426,79155,79129
 4.0000e-001 79357 -1.4943e-001  2.5430e+001 -3.5931e+000 54426 79233,79285,79259
 4.0000e-001 79334  1.5488e+000  1.7046e+001  6.9099e+000 54426 79181,79233,79207
 4.0000e-001 79311  6.6563e+000  1.7872e+001  4.3492e+000 54426 79155,79233,79181
 4.0000e-001 79452  6.1494e+000  2.1384e+001  1.8658e+000 54426 79285,79233,79426
 4.0000e-001 79475  2.5721e+000  2.4843e+001  4.2365e+000 54426 79285,79426,79129
 4.0000e-001 79932  5.2616e+000  2.2035e+001  4.0940e+000 53915 79658,79762,79684
 4.0000e-001 79909  9.4739e+000  2.2129e+001  2.6175e+000 53915 79658,79814,79762
 4.0000e-001 79886  1.0715e+001  1.9977e+001  5.4494e+000 53915 79762,79814,79788
 4.0000e-001 79863  6.4913e+000  2.7011e+001  5.8757e+000 53915 79710,79762,79736
 4.0000e-001 79840  7.4569e+000  2.3781e+001  2.9576e+000 53915 79684,79762,79710
 4.0000e-001 80033  4.5363e+000  3.3487e+001 -2.8954e-001 53667 79955,80007,79981
 4.0000e-001 80401  6.8461e-001  2.7623e+001 -3.2749e+000 53263 80104,80260,80234
 4.0000e-001 80378  4.4854e+000  3.3218e+001 -6.7394e-001 53263 80078,80260,80104
 4.0000e-001 80355  6.5073e+000  2.6596e+001 -1.6637e+000 53263 80104,80234,80130
 4.0000e-001 80332  6.6615e+000  3.1147e+001 -4.7831e-002 53263 80130,80208,80182
 4.0000e-001 80309  1.2049e+001  3.0725e+001  1.2822e+000 53263 80130,80234,80208
 4.0000e-001 80286  8.1897e+000  3.7798e+001  1.6307e+000 53263 80130,80182,80156
 4.0000e-001 80911  2.2706e-001  1.9638e+001 -6.1356e+000 52965 80640,80770,80744
 4.0000e-001 80888  1.2592e+001  3.2959e+001  6.7543e-001 52965 80614,80770,80640
 4.0000e-001 80865  1.0297e+001  3.1262e+001  3.2878e-001 52965 80640,80744,80666
 4.0000e-001 80842  9.4932e+000  2.4704e+001 -7.7405e+000 52965 80588,80770,80614
 4.0000e-001 80819  1.6558e+001  2.4683e+001  6.9385e+000 52965 80666,80718,80692
 4.0000e-001 80796  8.1335e+000  2.1444e+001  6.9891e-001 52965 80666,80744,80718
 4.0000e-001 81262  5.1503e+000  1.7950e+001  7.3295e-001 52561 81037,81141,81063
 4.0000e-001 81239 -4.5789e+000  1.7706e+001  6.4960e+000 52561 81037,81167,81141
 4.0000e-001 81216 -5.7722e+000  8.4480e+000  1.3469e-001 52561 81063,81115,81089
 4.0000e-001 81193 -2.7830e+000  1.2305e+001 -2.0990e+000 52561 81063,81141,81115
 4.0000e-001 81719 -1.0034e+000  1.0631e+001  4.4538e+000 51900 81445,81523,81471
 4.0000e-001 81696  2.2182e+000  1.4466e+001  1.5515e+000 51900 81445,81575,81523
 4.0000e-001 81673 -4.3758e+000  1.6304e+001  7.8249e-001 51900 81445,81601,81575
 4.0000e-001 81650  1.2634e+000  9.8434e+000 -8.7175e-002 51900 81523,81575,81549
 4.0000e-001 81627  5.2387e+000  1.2435e+001  4.3962e+000 51900 81471,81523,81497
 4.0000e-001 82323  7.6790e+000  2.6817e+001  3.5106e+000 51317 82418,82346,82032
 4.0000e-001 82300  2.1895e+000  1.9718e+001  4.7631e-001 51317 82490,82346,81954
 4.0000e-001 82277  9.6621e+000  3.0690e+001  4.4449e+000 51317 82418,82032,82006
 4.0000e-001 82254 -1.8171e+000  1.7259e+001  1.9325e+000 51317 82490,81954,81928
 4.0000e-001 82231  8.1809e-001  2.5028e+001 -2.1512e+000 51317 82058,82110,82084
 4.0000e-001 82208 -4.6025e+000  1.9278e+001 -1.4357e-001 51317 81928,82136,82110
 4.0000e-001 82185  2.5118e-001  3.3359e+001 -3.7345e+000 51317 81954,82006,81980
 4.0000e-001 82162 -6.5415e+000  1.8363e+001 -4.4250e+000 51317 81902,82136,81928
 4.0000e-001 82372  2.4984e+000  2.0960e+001  1.3214e+000 51317 82058,82032,82346
 4.0000e-001 82395  3.2304e+000  2.4685e+001  7.3787e-001 51317 82058,82346,82110
 4.0000e-001 82444  6.9202e+000  2.4361e+001 -1.5349e+000 51317 81954,82346,82418
 4.0000e-001 82467  8.7081e+000  2.8014e+001 -6.5693e-001 51317 81954,82418,82006
 4.0000e-001 82516  1.1278e+000  2.0688e+001 -1.6698e+000 51317 82110,82346,82490
 4.0000e-001 82539  7.7477e-001  2.0145e+001 -6.5790e-001 51317 82110,82490,81928
 4.0000e-001 83015  1.8217e+000  3.7110e+001  6.3998e+000 50813 82669,82747,82695
 4.0000e-001 82992 -4.1970e+000  1.4815e+001  5.9464e-001 50813 83038,82669,82851
 4.0000e-001 82969 -3.1907e+000  1.5237e+001  9.8379e-001 50813 83038,82851,82799
 4.0000e-001 82946 -1.6969e+001  1.2888e+001  7.5575e+000 50813 82747,82799,82773
 4.0000e-001 82923 -3.0940e+000  1.1060e+001 -4.2665e+000 50813 82643,82851,82669
 4.0000e-001 82900 -5.2086e+000  9.3641e+000  8.8007e-001 50813 82799,82851,82825
 4.0000e-001 82877 -4.1440e-001  2.2250e+001 -2.9397e-001 50813 82695,82747,82721
 4.0000e-001 83064 -5.8771e+000  1.5196e+001  9.4972e-002 50813 82747,82669,83038
 4.0000e-001 83087 -4.4871e+000  1.5851e+001  4.8534e-001 50813 82747,83038,82799
 4.0000e-001 83286  1.4659e+000  2.2707e+001  1.5342e+000 50352 83309,83162,83136
 4.0000e-001 83263  3.1152e+000  1.9787e+001  7.1054e-001 50352 83511,83309,83136
 4.0000e-001 83240  3.1038e+000  2.0977e+001  2.6703e-001 50352 83511,83136,83381
 4.0000e-001 83335 -9.3218e-001  2.0347e+001  2.9777e+000 50352 83188,83162,83309
 4.0000e-001 83358  2.5658e+000  1.9648e+001  8.3857e-001 50352 83188,83309,83214
 4.0000e-001 83407  1.0317e+001  2.1809e+001  1.6899e+000 50352 83110,83214,83381
 4.0000e-001 83537  3.8144e+000  2.1237e+001 -1.2871e-001 50352 83214,83309,83511
 4.0000e-001 83560  3.6667e+000  2.1745e+001 -6.6367e-001 50352 83214,83511,83381
 4.0000e-001 83889  9.3158e+000  2.8152e+001  9.2113e-001 49548 83716,83794,83742
 4.0000e-001 83866  8.5415e+000  2.7821e+001  2.4794e-001 49548 83690,83794,83716
 4.0000e-001 83843  1.1499e+000  2.5660e+001 -7.3959e-001 49548 83664,83794,83690
 4.0000e-001 83820  1.1075e+001  3.3897e+001 -1.6046e+000 49548 83742,83794,83768
 4.0000e-001 84137 -2.5941e+000  1.1751e+001 -5.5694e-001 49208 84160,84016,83938
 4.0000e-001 84114  1.6146e+000  2.1814e+001  3.1395e+000 49208 84160,83938,83912
 4.0000e-001 84091  5.9201e+000  1.8962e+001  3.0110e+000 49208 83938,84016,83964
 4.0000e-001 84068 -1.0920e+000  9.8476e-001  1.4448e+000 49208 83964,84016,83990
 4.0000e-001 84186 -6.1440e+000  1.4668e+001 -6.3340e+000 49208 84042,84016,84160
 4.0000e-001 84209 -2.3314e+000  2.0903e+001 -2.7802e+000 49208 84042,84160,83912
 4.0000e-001 84796  2.6210e+000  2.1230e+001  1.0396e+000 48861 84499,84629,84551
 4.0000e-001 84773  6.7382e+000  2.5824e+001  2.7974e+000 48861 84499,84655,84629
 4.0000e-001 84750  8.2836e+000  3.3697e+001 -7.6348e-001 48861 84551,84629,84577
 4.0000e-001 84727  1.2259e+000  3.0621e+001  8.6213e-001 48861 84577,84629,84603
 4.0000e-001 84704 -1.8613e+000  1.7512e+001  3.0740e+000 48861 84499,84551,84525
 4.0000e-001 84681  7.8190e+000  2.9222e+001  5.9583e+000 48861 84473,84655,84499
 4.0000e-001 85351  1.9651e+001  3.2524e+001 -1.1025e+001 48457 85374,85031,85005
 4.0000e-001 85328  7.6637e+000  2.3069e+001 -5.3241e+000 48457 85374,85005,85161
 4.0000e-001 85305  9.2189e-001  2.4887e+001 -7.1317e+000 48457 85446,85057,85031
 4.0000e-001 85282  5.2256e+000  2.0125e+001 -2.6947e+000 48457 85005,85187,85161
 4.0000e-001 85259  9.3428e+000  2.3262e+001 -4.7787e+000 48457 85083,85161,85109
 4.0000e-001 85236  1.3437e+001  2.2052e+001 -3.5597e+000 48457 84979,85187,85005
 4.0000e-001 85213  1.2617e+001  2.6140e+001 -7.6104e+000 48457 85109,85161,85135
 4.0000e-001 85400  4.4490e+000  2.5103e+001 -7.3279e+000 48457 85446,85031,85374
 4.0000e-001 85423  1.1188e+001  2.6093e+001 -3.7420e+000 48457 85083,85374,85161
 4.0000e-001 85472  5.1208e+000  2.2218e+001 -3.0288e+000 48457 85083,85057,85446
 4.0000e-001 85495  9.6029e+000  2.3278e+001 -2.9924e+000 48457 85083,85446,85374
 4.0000e-001 86080  9.6801e+000  2.4757e+001 -5.2316e+000 48053 86319,86103,85783
 4.0000e-001 86057  1.1135e+001  2.9489e+001 -3.6784e+000 48053 86103,85757,85939
 4.0000e-001 86034  1.0802e+001  3.0202e+001  4.3729e-001 48053 86247,86175,85887
 4.0000e-001 86011  1.2806e+001  3.5178e+001  4.3943e-001 48053 86247,85887,85835
 4.0000e-001 85988  1.0906e+000  1.9613e+001  1.6864e-001 48053 85887,85939,85913
 4.0000e-001 85965  2.1372e+000  4.0863e+001  8.3965e+000 48053 85835,85887,85861
 4.0000e-001 86129  1.0749e+001  2.8305e+001 -5.8362e+000 48053 85809,85783,86103
 4.0000e-001 86152  4.4879e+000  2.6895e+001 -5.0121e+000 48053 86175,85809,86103
 4.0000e-001 86201  8.8448e+000  2.3326e+001 -1.4976e+000 48053 85939,85887,86175
 4.0000e-001 86224  1.1686e+001  3.0873e+001 -3.4601e+000 48053 85939,86175,86103
 4.0000e-001 86273  7.2883e+000  3.5043e+001 -4.4180e+000 48053 85809,86175,86247
 4.0000e-001 86296  9.7282e+000  4.0963e+001 -3.6783e+000 48053 85809,86247,85835
 4.0000e-001 86345  1.4060e+001  2.8673e+001 -3.2950e+000 48053 85757,86103,86319
 4.0000e-001 86851 -4.6215e+000  1.9349e+001 -3.9868e+000 47541 86874,86580,86554
 4.0000e-001 86828  2.0657e+000  2.1727e+001 -5.0869e-001 47541 86946,86874,86554
 4.0000e-001 86805  2.5548e+000  2.1071e+001 -8.4449e-001 47541 86946,86554,86528
 4.0000e-001 86782 -2.2357e+000  2.2055e+001  1.5363e-001 47541 86580,86658,86606
 4.0000e-001 86759  9.2308e-001  2.3532e+001 -1.3706e+000 47541 86528,86710,86684
 4.0000e-001 86736 -3.3977e+000  2.0334e+001 -4.1908e-001 47541 86606,86658,86632
 4.0000e-001 86900  8.3895e-001  2.1534e+001 -4.4858e-001 47541 86658,86580,86874
 4.0000e-001 86923  8.5913e+000  2.2210e+001  1.8093e+000 47541 86658,86874,86684
 4.0000e-001 86972  1.0330e+000  2.0635e+001  1.6970e-001 47541 86684,86874,86946
 4.0000e-001 86995  2.0871e+000  2.0857e+001 -3.5559e-001 47541 86684,86946,86528
 4.0000e-001 87324  1.4032e+001  3.0720e+001  3.3565e+000 47044 87151,87203,87177
 4.0000e-001 87301  1.1731e+001  2.7937e+001  1.2418e+000 47044 87125,87203,87151
 4.0000e-001 87278  1.6954e+001  2.9070e+001  1.0781e+000 47044 87099,87203,87125
 4.0000e-001 87255  1.3393e+001  2.3913e+001 -4.4421e+000 47044 87099,87229,87203
 4.0000e-001 87572  8.4969e+000  2.9115e+001  3.5660e+000 46697 87595,87425,87373
 4.0000e-001 87549  7.0148e+000  3.1858e+001  2.1196e+000 46697 87595,87373,87477
 4.0000e-001 87526  7.3907e+000  3.2084e+001  2.4321e+000 46697 87347,87477,87373
 4.0000e-001 87503  1.3532e+001  3.0823e+001 -1.0245e-001 46697 87373,87425,87399
 4.0000e-001 87621  7.7077e+000  2.3793e+001  3.8960e+000 46697 87451,87425,87595
 4.0000e-001 87644  8.5499e+000  2.9001e+001  1.7309e+000 46697 87451,87595,87477
 4.0000e-001 87794 -6.9857e+000  5.3330e+001 -5.8224e+000 46235 87693,87745,87719
 4.0000e-001 87771 -3.6070e+000  2.9117e+001  3.0911e+000 46235 87667,87745,87693
 4.0000e-001 88304  3.0554e+000  2.3072e+001  1.6397e+000 45731 88085,88163,88137
 4.0000e-001 88281  5.3285e+000  2.7344e+001  2.5084e+000 45731 88007,88163,88085
 4.0000e-001 88258 -5.0422e+000  2.5304e+001  6.9103e+000 45731 87981,88163,88007
 4.0000e-001 88235  3.1283e+000  2.0443e+001  3.7450e+000 45731 88007,88085,88059
 4.0000e-001 88212  8.8554e+000  2.4896e+001 -8.8494e+000 45731 88085,88137,88111
 4.0000e-001 88189  5.8007e+000  1.7818e+001  8.7860e+000 45731 88007,88059,88033
 4.0000e-001 88682  8.4718e+000  3.0995e+001 -3.7959e-002 45312 88434,88512,88486
 4.0000e-001 88659  1.5080e+000  1.6776e+001  2.3325e+000 45312 88434,88538,88512
 4.0000e-001 88636  1.8406e+000  1.8450e+001  1.9880e+000 45312 88434,88564,88538
 4.0000e-001 88613  8.3691e+000  2.9053e+001 -5.5787e-001 45312 88434,88486,88460
 4.0000e-001 88590 -8.6253e+000  1.3784e+001  6.8586e-001 45312 88408,88564,88434
 4.0000e-001 88930 -1.7139e+000  1.8064e+001  3.9371e+000 44808 88953,88731,88705
 4.0000e-001 88907  1.6256e+000  1.9566e+001  6.3945e-002 44808 88953,88705,88835
 4.0000e-001 88884  4.5761e+000  1.9701e+001  6.8598e-001 44808 89025,88783,88757
 4.0000e-001 88861  1.0996e+001  3.1952e+001  1.6074e+000 44808 88783,88835,88809
 4.0000e-001 88979  4.6328e+000  2.1075e+001  3.0544e+000 44808 88757,88731,88953
 4.0000e-001 89002  1.8014e+000  1.9820e+001  7.1454e-001 44808 89025,88757,88953
 4.0000e-001 89051  6.4788e+000  1.9495e+001  5.3455e-001 44808 88835,88783,89025
 4.0000e-001 89074  5.0106e+000  2.0689e+001  1.5072e-002 44808 88835,89025,88953
 4.0000e-001 89224  9.1245e+000  4.5170e+001  1.0550e+001 44404 89123,89175,89149
 4.0000e-001 89201  4.8933e-001  3.8741e+001 -1.4455e+000 44404 89097,89175,89123
 4.0000e-001 89783 -2.3519e+000  2.1177e+001 -1.6984e+000 43850 89806,89541,89515
 4.0000e-001 89760 -6.6463e+000  1.4251e+001 -5.9930e+000 43850 89806,89515,89463
 4.0000e-001 89737 -5.5128e+000  1.5658e+001 -1.2367e+000 43850 89950,89878,89593
 4.0000e-001 89714 -4.1826e+000  1.4420e+001 -3.5528e+000 43850 89950,89593,89567
 4.0000e-001 89691  5.8428e+000  1.4796e+001 -4.3108e+000 43850 89411,89619,89463
 4.0000e-001 89668 -1.9297e+001  1.7718e+001 -4.2438e+000 43850 89463,89515,89489
 4.0000e-001 89645  9.5535e+000  1.2066e+001 -6.4288e+000 43850 89411,89463,89437
 4.0000e-001 89832 -2.8062e+000  2.0343e+001 -2.2436e-001 43850 89878,89541,89806
 4.0000e-001 89855  6.4672e+000  2.0040e+001 -4.8197e+000 43850 89619,89806,89463
 4.0000e-001 89904 -4.5631e+000  1.2305e+001  1.9082e+000 43850 89619,89593,89878
 4.0000e-001 89927 -1.1340e+000  1.6187e+001 -3.8736e-002 43850 89619,89878,89806
 4.0000e-001 89976  7.9755e-001  1.8411e+001 -5.7505e-001 43850 89541,89878,89950
 4.0000e-001 89999  4.0143e+000  1.7568e+001 -3.1664e+000 43850 89541,89950,89567
 4.0000e-001 90247  1.3362e+001  4.1428e+001 -8.5711e-001 43488 90022,90074,90048
 4.0000e-001 90224  2.6808e+000  2.2888e+001  1.2174e+000 43488 90270,90022,90152
 4.0000e-001 90201  2.1967e+000  2.1609e+001  8.8929e-001 43488 90342,90270,90152
 4.0000e-001 90178  1.8870e+000  2.0426e+001  1.5634e+000 43488 90342,90152,90126
 4.0000e-001 90296  4.1740e+000  2.1675e+001  1.7779e+000 43488 90074,90022,90270
 4.0000e-001 90319  2.8033e+000  2.1082e+001  1.6582e+000 43488 90074,90270,90100
 4.0000e-001 90368  1.6781e+000  2.0510e+001  2.2664e+000 43488 90100,90270,90342
 4.0000e-001 90391  1.3089e+000  1.9116e+001  2.9253e+000 43488 90100,90342,90126
 4.0000e-001 90590  5.1015e+000  3.4856e+001 -6.1542e-001 43048 90414,90492,90440
 4.0000e-001 90567  8.0511e+000  2.0927e+001  2.5374e+000 43048 90414,90518,90492
 4.0000e-001 90544 -4.4129e+000  4.1625e+001  3.5413e+000 43048 90440,90492,90466
 4.0000e-001 91070  8.8335e+000  2.9917e+001  2.5106e+000 42430 91237,90880,90854
 4.0000e-001 91047  1.5678e+001  2.6114e+001  7.3731e+000 42430 90698,90906,90880
 4.0000e-001 91024  1.0558e+001  3.1813e+001  7.1669e-001 42430 91093,90750,90698
 4.0000e-001 91001  9.4365e+000  2.9093e+001  2.0242e+000 42430 91237,90854,91093
 4.0000e-001 90978  8.4370e+000  2.4798e+001  3.4728e-001 42430 91165,90802,90776
 4.0000e-001 90955  3.8420e+000  2.9773e+001 -7.5449e-002 42430 90802,90854,90828
 4.0000e-001 90932  1.1329e+001  3.8480e+001  2.8492e+000 42430 90698,90750,90724
 4.0000e-001 91119  1.3486e+001  3.0492e+001  4.2983e+000 42430 90776,90750,91093
 4.0000e-001 91142  9.7606e+000  2.4625e+001  1.4997e+000 42430 91165,90776,91093
 4.0000e-001 91191  8.4070e+000  2.5733e+001  2.0367e+000 42430 90854,90802,91165
 4.0000e-001 91214  1.0256e+001  2.7264e+001  3.3114e+000 42430 90854,91165,91093
 4.0000e-001 91263  9.6101e+000  3.0588e+001  2.8392e+000 42430 90698,90880,91237
 4.0000e-001 91286  1.0367e+001  2.9891e+001  2.3963e+000 42430 90698,91237,91093
 4.0000e-001 91694  1.7222e+001  2.4007e+001  2.0802e-001 41769 91469,91573,91495
 4.0000e-001 91671  1.5286e+001  2.4380e+001 -7.9042e-001 41769 91469,91599,91573
 4.0000e-001 91648  1.2734e+001  3.1058e+001 -1.5076e+000 41769 91495,91547,91521
 4.0000e-001 91625  2.0318e+001  3.2599e+001  3.6805e+000 41769 91495,91573,91547
 4.0000e-001 92040  5.7950e+000  2.2509e+001 -3.9128e-001 41379 91769,91873,91847
 4.0000e-001 92017  3.5799e-001  2.0207e+001 -7.9049e-001 41379 91743,91873,91769
 4.0000e-001 91994  7.0522e+000  2.3680e+001 -9.0932e-001 41379 91769,91847,91795
 4.0000e-001 91971 -4.6511e+000  2.1024e+001 -2.3769e+000 41379 91743,91899,91873
 4.0000e-001 91948 -3.2613e+000  2.7699e+001  6.4262e+000 41379 91717,91899,91743
 4.0000e-001 91925  8.0671e+000  2.6480e+001  1.7154e+000 41379 91795,91847,91821
 4.0000e-001 92597  1.0632e+001  2.9032e+001 -2.7434e+000 40975 92225,92407,92303
 4.0000e-001 92574  6.5131e+000  2.8963e+001 -3.0600e+000 40975 92225,92433,92407
 4.0000e-001 92551  6.8988e+000  4.1428e+001  6.3681e+000 40975 92225,92303,92277
 4.0000e-001 92528  1.0968e+001  2.8588e+001 -9.5144e-001 40975 92329,92407,92381
 4.0000e-001 92505  7.8738e+000  2.6491e+001 -3.8678e+000 40975 92303,92407,92329
 4.0000e-001 92482 -4.6782e+000  2.7672e+001 -9.1724e-001 40975 92225,92277,92251
 4.0000e-001 92459  3.9905e+000  3.2346e+001  5.2236e+000 40975 92329,92381,92355
 4.0000e-001 93231 -1.8016e+001  3.6902e+001 -7.6964e-001 40521 92937,92989,92963
 4.0000e-001 93208  5.8608e+000  2.8781e+001  1.6475e+000 40521 93254,92937,92885
 4.0000e-001 93185  7.4705e+000  3.0329e+001  2.4146e-001 40521 93254,92885,93067
 4.0000e-001 93162  1.7947e+001  3.0189e+001 -3.1397e+000 40521 92885,92937,92911
 4.0000e-001 93139  1.1950e+001  3.8020e+001  3.1482e+000 40521 92859,93067,92885
 4.0000e-001 93116  1.3281e+001  3.7628e+001 -1.7671e-001 40521 92989,93067,93015
 4.0000e-001 93093  1.3266e+001  4.1812e+001 -1.4118e+000 40521 93015,93067,93041
 4.0000e-001 93280  4.6949e+000  2.5721e+001  3.9415e+000 40521 92989,92937,93254
 4.0000e-001 93303  8.5298e+000  2.9302e+001  2.1172e+000 40521 92989,93254,93067
 4.0000e-001 93632 -6.7101e-001  2.6076e+001 -1.8355e+000 40231 93433,93537,93511
 4.0000e-001 93609  6.3025e+000  1.2062e+001 -9.3795e+000 40231 93407,93537,93433
 4.0000e-001 93586 -2.1006e+000  2.8362e+001 -9.7170e-001 40231 93459,93511,93485
 4.0000e-001 93563 -2.5271e+000  2.5182e+001 -1.4669e+000 40231 93433,93511,93459
 4.0000e-001 94010  5.7732e+000  2.4343e+001  3.2746e-001 39869 93762,93866,93788
 4.0000e-001 93987  4.0823e+000  1.9504e+001 -3.3531e+000 39869 93762,93892,93866
 4.0000e-001 93964 -9.6773e-001  1.6399e+001 -2.5831e+000 39869 93788,93866,93840
 4.0000e-001 93941 -8.0482e-001  2.0369e+001 -7.2766e+000 39869 93788,93840,93814
 4.0000e-001 93918  9.8804e+000  2.8039e+001  6.1520e-002 39869 93736,93892,93762
 4.0000e-001 94160  3.8297e+000  3.8467e+001 -4.0327e+000 39457 94033,94085,94059
 4.0000e-001 94137 -4.7597e+000  2.2653e+001  1.0888e+000 39457 94033,94111,94085
 4.0000e-001 94359 -3.3710e+000  1.9113e+001  6.9838e-001 39053 94382,94235,94209
 4.0000e-001 94336  6.5441e+000  2.6524e+001 -2.7710e+000 39053 94382,94209,94183
 4.0000e-001 94313  8.8942e+000  2.6376e+001 -1.0427e+000 39053 94183,94287,94261
 4.0000e-001 94408  1.0441e+001  2.5283e+001 -1.4705e+000 39053 94454,94382,94261
 4.0000e-001 94431  4.4626e+000  2.2553e+001  6.0356e-001 39053 94261,94382,94183
 4.0000e-001 94480 -6.6200e-002  9.7034e+000  3.0911e+000 39053 94235,94382,94454
 4.0000e-001 94892  3.4758e+000  2.5631e+001  7.8881e-001 38392 94915,94771,94719
 4.0000e-001 94869  1.3893e+000  2.4022e+001  8.4544e-002 38392 94915,94719,94693
 4.0000e-001 94846 -3.0595e+000  2.2817e+001  3.8587e-001 38392 94719,94771,94745
 4.0000e-001 94823  2.7679e+000  2.0545e+001 -1.8195e+000 38392 94667,94797,94693
 4.0000e-001 94941  5.7442e+000  2.3997e+001  1.5076e+000 38392 94797,94771,94915
 4.0000e-001 94964  4.1859e+000  2.2688e+001  9.0975e-001 38392 94797,94915,94693
 4.0000e-001 95261  1.4569e+001  2.7778e+001 -3.4380e+000 37831 95013,95065,95039
 4.0000e-001 95238  4.6784e+000  2.5418e+001  1.7531e+000 37831 95284,95065,95013
 4.0000e-001 95215  4.2116e+000  2.5164e+001  1.8635e+000 37831 95284,95013,94987
 4.0000e-001 95192  8.5927e+000  3.4875e+001 -1.4479e-001 37831 94987,95143,95117
 4.0000e-001 95169  3.3472e+000  2.7370e+001  2.8317e+000 37831 95065,95117,95091
 4.0000e-001 95310  4.3947e+000  2.5645e+001  1.3890e+000 37831 95117,95065,95284
 4.0000e-001 95333  4.0227e+000  2.5410e+001  1.4952e+000 37831 95117,95284,94987
 4.0000e-001 95554  3.2010e+000  1.8146e+001 -2.8703e+000 37419 95404,95456,95430
 4.0000e-001 95531  9.0391e+000  2.9082e+001 -7.6877e-002 37419 95378,95456,95404
 4.0000e-001 95508  7.6173e+000  2.9699e+001 -1.1828e-001 37419 95378,95482,95456
 4.0000e-001 95887  3.5671e+000  1.9196e+001  1.1598e+000 37221 95662,95714,95688
 4.0000e-001 95864  2.0212e+000  1.1372e+001  1.9461e+000 37221 95662,95792,95714
 4.0000e-001 95841  2.5207e+001  2.7066e+001 -2.2157e+000 37221 95714,95766,95740
 4.0000e-001 95818  6.8489e+000  2.1636e+001 -8.2426e-001 37221 95714,95792,95766
 4.0000e-001 95988 -2.8968e+001  5.0256e+000 -5.6322e+000 36731 95910,95962,95936
 4.0000e-001 96138  4.0487e+000  2.4036e+001 -7.2092e-001 36327 96293,96063,96037
 4.0000e-001 96115 -3.8300e+000  1.4986e+001 -3.1587e+000 36327 96161,96037,96011
 4.0000e-001 96187  4.8391e+000  2.4744e+001  8.2785e-001 36327 96293,96037,96161
 4.0000e-001 96319  3.3778e+000  2.6027e+001  1.6883e+000 36327 96089,96063,96293
 4.0000e-001 96342  6.5162e+000  2.7822e+001  3.5020e+000 36327 96089,96293,96161
 4.0000e-001 96710  5.6367e+000  1.9382e+001  4.8261e-001 36037 96733,96491,96439
 4.0000e-001 96687  6.9441e+000  2.0370e+001  9.1607e-001 36037 96733,96439,96413
 4.0000e-001 96664  1.3229e+000  1.7314e+001 -1.0078e+000 36037 96439,96491,96465
 4.0000e-001 96641  2.5086e+000  2.2585e+001  7.8242e-001 36037 96387,96517,96413
 4.0000e-001 96618  2.1183e+000  2.1017e+001  9.2901e-001 36037 96387,96543,96517
 4.0000e-001 96595  8.1428e+000  1.7939e+001  4.6068e+000 36037 96387,96569,96543
 4.0000e-001 96759  1.9057e+000  2.0504e+001  3.4961e-001 36037 96517,96491,96733
 4.0000e-001 96782  5.2492e+000  2.2763e+001  1.3577e+000 36037 96517,96733,96413
 4.0000e-001 96932  2.4187e+001  3.3520e+001 -5.2890e+000 35633 97027,96955,96831
 4.0000e-001 96909  4.8371e+000  1.7746e+001 -6.2465e+000 35633 97159,96955,96805
 4.0000e-001 96981  1.3382e+001  3.6794e+001  8.5849e-002 35633 96857,96831,96955
 4.0000e-001 97004  1.0427e+001  2.9953e+001  3.5383e-001 35633 96857,96955,96883
 4.0000e-001 97053  5.7504e+000  2.2887e+001 -9.6420e-001 35633 96805,96955,97027
 4.0000e-001 97185  1.5717e+001  3.2495e+001 -6.4761e-001 35633 96883,96955,97159
 4.0000e-001 97593  1.4359e+001  3.8624e+001 -3.4638e+000 35186 97446,97498,97472
 4.0000e-001 97570  1.1222e+001  2.8705e+001 -1.4632e+000 35186 97368,97498,97446
 4.0000e-001 97547  1.1273e+001  2.6435e+001 -3.0655e+000 35186 97368,97446,97394
 4.0000e-001 97524  1.3271e+001  2.7773e+001 -3.8250e+000 35186 97394,97446,97420
 4.0000e-001 98050  7.7087e+000  2.3739e+001 -2.8152e+000 34632 97802,97932,97854
 4.0000e-001 98027  9.0853e+000  3.3606e+001 -5.3713e-001 34632 97776,97932,97802
 4.0000e-001 98004  1.8376e+000  1.7925e+001  2.3064e+000 34632 97802,97854,97828
 4.0000e-001 97981  3.2185e+000  2.1026e+001 -7.9659e-001 34632 97880,97932,97906
 4.0000e-001 97958  9.2834e+000  2.6612e+001 -3.4910e+000 34632 97854,97932,97880
 4.0000e-001 98526  9.8983e+000  3.7894e+001 -2.1237e+000 34064 98693,98180,98362
 4.0000e-001 98503 -6.0793e+000  2.1088e+001 -1.2041e+001 34064 98154,98362,98180
 4.0000e-001 98480  1.6420e+001  2.7664e+001  6.1495e+000 34064 98549,98258,98232
 4.0000e-001 98457  1.0261e+001  3.8984e+001  2.0684e+001 34064 98549,98232,98206
 4.0000e-001 98434  1.2151e+001  3.3469e+001 -1.8289e+000 34064 98837,98621,98362
 4.0000e-001 98411  2.0122e+001  2.9210e+001  4.2925e+000 34064 98765,98284,98258
 4.0000e-001 98388  1.6939e+001  3.2307e+001 -2.5275e+000 34064 98837,98362,98336
 4.0000e-001 98575  1.9086e+001  3.1305e+001  3.5848e+000 34064 98765,98258,98549
 4.0000e-001 98598  1.1618e+001  2.9382e+001  9.9555e-001 34064 98621,98310,98549
 4.0000e-001 98647  1.2630e+001  3.6396e+001  3.2025e-001 34064 98693,98362,98621
 4.0000e-001 98670  1.6566e+001  4.0580e+001  3.9143e+000 34064 98206,98621,98549
 4.0000e-001 98719  6.2527e+000  3.6610e+001 -8.4330e-002 34064 98206,98180,98693
 4.0000e-001 98742  7.4782e+000  3.4381e+001  1.0709e+000 34064 98206,98693,98621
 4.0000e-001 98791  2.1938e+001  3.1402e+001  3.0223e+000 34064 98310,98284,98765
 4.0000e-001 98814  2.0535e+001  3.2946e+001  2.3399e+000 34064 98310,98765,98549
 4.0000e-001 98863  1.8098e+001  3.2972e+001 -1.1623e+000 34064 98310,98621,98837
 4.0000e-001 98886  2.3270e+001  3.2150e+001 -2.2155e+000 34064 98310,98837,98336
 4.0000e-001 99264  1.2390e+001  2.0618e+001  1.5677e+000 33446 99287,99094,99068
 4.0000e-001 99241  1.2638e+001  2.4736e+001  1.4070e-001 33446 99287,99068,99016
 4.0000e-001 99218 -6.2629e-001  2.8948e+001  6.3923e+000 33446 99016,99068,99042
 4.0000e-001 99195  1.4601e+000  2.1561e+001 -3.2335e+000 33446 99016,99146,99120
 4.0000e-001 99172  4.7936e+000  3.3195e+001 -6.7483e+000 33446 98990,99146,99016
 4.0000e-001 99313  1.3636e+001  2.2947e+001 -9.0246e-001 33446 99120,99094,99287
 4.0000e-001 99336  1.2410e+001  2.6801e+001 -1.6290e+000 33446 99120,99287,99016
 4.0000e-001 99861  1.4803e+000  2.1353e+001 -2.0127e-001 32940 100172,99956,99884
 4.0000e-001 99838  3.7075e+000  2.0692e+001  1.7647e+000 32940 100100,99884,99518
 4.0000e-001 99815  3.3615e+000  1.8313e+001 -3.2576e+000 32940 100244,99956,99622
 4.0000e-001 99792  5.1083e+000  2.1994e+001  8.5919e-001 32940 100028,99648,99622
 4.0000e-001 99769  2.9887e+000  2.1851e+001  2.9050e+000 32940 100100,99518,99492
 4.0000e-001 99746  7.3738e+000  2.7212e+001 -3.6566e-001 32940 99570,99622,99596
 4.0000e-001 99723  2.6127e+000  1.7685e+001 -3.5467e+000 32940 100244,99622,99570
 4.0000e-001 99700  3.6016e+000  2.7694e+001  1.8546e+000 32940 99440,99492,99466
 4.0000e-001 99910  2.1408e+000  2.1292e+001  2.1639e-001 32940 100172,99884,100028
 4.0000e-001 99933  1.5575e-001  1.9872e+001  1.3853e+000 32940 99674,99884,99440
 4.0000e-001 99982  9.6998e-001  1.5749e+001  6.9375e-001 32940 99518,99884,99956
 4.0000e-001 100005  1.8697e+000  1.0877e+001 -3.5636e+000 32940 99518,99956,99544
 4.0000e-001 100054  1.7686e+000  2.1208e+001  6.7034e-001 32940 99674,99648,100028
 4.0000e-001 100077  7.9654e-001  2.1467e+001  9.1145e-001 32940 99674,100028,99884
 4.0000e-001 100126  2.0307e+000  1.9635e+001  1.2290e+000 32940 99440,99884,100100
 4.0000e-001 100149  1.4598e+000  2.0638e+001  2.3491e+000 32940 99440,100100,99492
 4.0000e-001 100198  2.1870e+000  2.2030e+001  3.4475e-001 32940 99622,99956,100172
 4.0000e-001 100221  2.4681e+000  2.1986e+001  7.7539e-001 32940 99622,100172,100028
 4.0000e-001 100270  4.7905e+000  1.7461e+001 -2.6048e+000 32940 99544,99956,100244
 4.0000e-001 100293  4.1464e+000  1.6939e+001 -2.8591e+000 32940 99544,100244,99570
 4.0000e-001 100750  6.5884e+000  2.5939e+001 -3.5699e+000 32365 100773,100580,100502
 4.0000e-001 100727  4.2837e+000  2.0042e+001  8.9708e-001 32365 100773,100502,100632
 4.0000e-001 100704 -5.1483e-001  1.9362e+001  1.3147e+000 32365 100476,100632,100502
 4.0000e-001 100681  1.0684e+001  2.8627e+001 -5.9935e+000 32365 100528,100580,100554
 4.0000e-001 100658  1.1537e+001  3.0411e+001 -7.5681e+000 32365 100502,100580,100528
 4.0000e-001 100799  3.0245e+000  3.3823e+001 -4.8722e+000 32365 100606,100580,100773
 4.0000e-001 100822  1.9034e+000  2.7911e+001 -1.2071e+000 32365 100606,100773,100632
 4.0000e-001 101021 -4.3750e-001  2.1185e+001  6.9485e-001 31853 100871,100923,100897
 4.0000e-001 100998  1.3238e+000  2.2702e+001  1.3423e+000 31853 100871,100949,100923
 4.0000e-001 100975  2.0038e+000  2.4472e+001  1.2490e+000 31853 100845,100949,100871
 4.0000e-001 101529  3.7338e+000  1.5107e+001  2.8275e+000 31249 101552,101310,101232
 4.0000e-001 101506  2.3535e+000  6.9791e+000  7.5837e+000 31249 101552,101232,101206
 4.0000e-001 101483  7.3485e+000  2.4436e+001  1.7000e+000 31249 101206,101388,101336
 4.0000e-001 101460  4.9025e+000  1.4723e+001 -1.4665e+000 31249 101232,101284,101258
 4.0000e-001 101437  5.8013e+000  1.2995e+001  1.1195e+000 31249 101232,101310,101284
 4.0000e-001 101414  4.8022e+000  2.3226e+001 -2.2393e+000 31249 101336,101388,101362
 4.0000e-001 101578  5.3082e+000  2.5850e+001 -1.2684e+000 31249 101336,101310,101552
 4.0000e-001 101601  2.6971e+000  1.5406e+001  3.3497e+000 31249 101336,101552,101206
 4.0000e-001 101751  4.8245e+000  5.5978e+001 -1.0528e+000 30515 101774,101650,101624
 4.0000e-001 101728  1.2641e+001  5.9771e+001 -2.4424e+000 30515 101846,101774,101624
 4.0000e-001 101800  8.0223e+000  5.5032e+001 -3.2402e-001 30515 101676,101650,101774
 4.0000e-001 101823  1.4199e+001  5.1396e+001 -1.6888e+000 30515 101676,101774,101702
 4.0000e-001 101872  4.9822e+000  4.3085e+001 -5.1671e+000 30515 101702,101774,101846
 4.0000e-001 102557  4.5351e-001  1.5633e+001 -8.1647e-001 29947 102652,102580,102266
 4.0000e-001 102534  1.1881e+000  1.8418e+001  1.2756e+000 29947 102580,102136,102370
 4.0000e-001 102511 -5.5067e-001  1.2900e+001  3.9266e-001 29947 102724,102652,102266
 4.0000e-001 102488  2.3322e+000  1.3455e+001 -1.0672e+000 29947 102724,102266,102240
 4.0000e-001 102465  3.6406e+000  2.0543e+001 -2.1987e+000 29947 102796,102318,102292
 4.0000e-001 102442  1.2993e+001  1.3800e+001 -1.9633e+000 29947 102162,102214,102188
 4.0000e-001 102419  4.7852e+000  1.2206e+001 -1.0050e+000 29947 102162,102240,102214
 4.0000e-001 102396  4.4620e+000  2.1613e+001  4.3543e+000 29947 102318,102370,102344
 4.0000e-001 102606 -2.8534e-001  8.7841e+000 -2.0793e+000 29947 102292,102266,102580
 4.0000e-001 102629  2.8564e+000  1.7034e+001 -2.1138e+000 29947 102796,102292,102580
 4.0000e-001 102678 -1.0495e+000  1.3130e+001  1.4764e+000 29947 102136,102580,102652
 4.0000e-001 102701  5.1318e-001  7.1246e+000  2.8206e+000 29947 102136,102652,102162
 4.0000e-001 102750  3.9844e+000  1.3101e+001  7.2079e-001 29947 102162,102652,102724
 4.0000e-001 102773  4.8903e+000  1.2100e+001 -7.3703e-001 29947 102162,102724,102240
 4.0000e-001 102822  3.7495e+000  1.6551e+001 -6.1314e-001 29947 102370,102318,102796
 4.0000e-001 102845  3.9889e+000  1.4943e+001 -1.4597e-001 29947 102370,102796,102580
 4.0000e-001 103044  5.2731e+000  8.5305e+000  1.5938e+000 29450 102868,102920,102894
 4.0000e-001 103021  3.9671e+000  7.9257e+000  2.0497e+000 29450 102868,102972,102920
 4.0000e-001 102998  4.0095e+000  5.8337e+000  2.4814e+000 29450 102920,102972,102946
 4.0000e-001 103292  1.0172e+001  1.2426e+001  2.3441e+000 29060 103315,103171,103119
 4.0000e-001 103269  8.9081e+000  1.3691e+001  3.9673e+000 29060 103315,103119,103067
 4.0000e-001 103246  1.7485e+001  1.6608e+001  6.5060e-001 29060 103119,103171,103145
 4.0000e-001 103223  1.9511e+001  7.2375e+000  7.6034e+000 29060 103067,103119,103093
 4.0000e-001 103341  9.4476e+000  1.4285e+001  2.8449e+000 29060 103197,103171,103315
 4.0000e-001 103364  1.0536e+001  1.8947e+001  4.4819e+000 29060 103197,103315,103067
 4.0000e-001 104002  2.3759e+000  1.4842e+001 -1.6473e-001 28599 104097,104025,103708
 4.0000e-001 103979  4.3314e+000  1.9255e+001  2.0045e+000 28599 104169,104025,103656
 4.0000e-001 103956  3.7564e+000  1.3188e+001  1.4942e-001 28599 104097,103708,103682
 4.0000e-001 103933  5.1948e+000  1.8568e+001  1.7718e+000 28599 104169,103656,103630
 4.0000e-001 103910  9.5922e+000  2.9278e+001  2.9545e+000 28599 103760,103812,103786
 4.0000e-001 103887 -9.3687e-001  1.5467e+001  7.0244e+000 28599 103630,103838,103812
 4.0000e-001 103864 -1.6742e+000  2.2970e+001 -1.0971e+000 28599 103708,103760,103734
 4.0000e-001 104051  3.3759e+000  2.0541e+001  7.0945e-001 28599 103760,103708,104025
 4.0000e-001 104074  5.8778e+000  1.9496e+001  3.9790e+000 28599 103760,104025,103812
 4.0000e-001 104123  2.8349e+000  1.9179e+001  6.4493e-001 28599 103656,104025,104097
 4.0000e-001 104146  2.7494e+000  1.5572e+001  1.4021e+000 28599 103656,104097,103682
 4.0000e-001 104195  3.6522e+000  1.8554e+001  2.2961e+000 28599 103812,104025,104169
 4.0000e-001 104218  4.4990e+000  1.8007e+001  2.0166e+000 28599 103812,104169,103630
 4.0000e-001 104596  2.0215e+001  1.9944e+001  6.0763e-001 28344 104619,104374,104322
 4.0000e-001 104573  1.8683e+001  1.8324e+001  2.0461e+000 28344 104619,104322,104478
 4.0000e-001 104550  2.5742e+001  2.1848e+001 -1.6700e+000 28344 104322,104374,104348
 4.0000e-001 104527  1.8151e+001  4.4626e+001 -8.3800e+000 28344 104400,104452,104426
 4.0000e-001 104504  1.1154e+001  2.1908e+001 -2.3951e+000 28344 104374,104452,104400
 4.0000e-001 104645  2.0296e+001  2.2300e+001 -1.5946e+000 28344 104452,104374,104619
 4.0000e-001 104668  1.8009e+001  2.0461e+001 -2.7521e-002 28344 104452,104619,104478
 4.0000e-001 104987  5.7923e+000  1.9391e+001  7.8246e-002 27947 104713,104843,104765
 4.0000e-001 104964  4.1098e+000  1.9650e+001 -7.0393e-001 27947 104713,104869,104843
 4.0000e-001 104941  4.0067e+000  1.8071e+001 -5.2761e-001 27947 104765,104843,104791
 4.0000e-001 104918  6.4386e-001  7.8784e+000  6.6662e-001 27947 104791,104843,104817
 4.0000e-001 104895  5.9189e+000  2.2860e+001  3.5231e+000 27947 104713,104765,104739
 4.0000e-001 105367  8.3005e+000  1.2624e+001  2.7382e+000 27443 105390,105197,105119
 4.0000e-001 105344  7.3119e+000  1.1398e+001  1.0481e+000 27443 105390,105119,105093
 4.0000e-001 105321  5.6438e+000  1.1987e+001  3.0415e+000 27443 105119,105197,105145
 4.0000e-001 105298  1.1399e+001  8.5599e+000  4.1871e+000 27443 105197,105249,105223
 4.0000e-001 105275  5.9608e+000  1.5588e+001  5.9071e+000 27443 105145,105197,105171
 4.0000e-001 105416  9.1268e+000  1.0767e+001  1.4081e+000 27443 105249,105197,105390
 4.0000e-001 105439  7.3619e+000  8.5867e+000 -3.5326e-001 27443 105249,105390,105093
 4.0000e-001 105994  1.1491e+001  2.4456e+001  2.2213e+000 27096 106161,106017,105700
 4.0000e-001 105971  6.5235e+000  1.9690e+001  6.1645e-001 27096 106305,106017,105648
 4.0000e-001 105948  1.0511e+001  1.9249e+001 -8.8365e-001 27096 106089,105804,105778
 4.0000e-001 105925  1.1240e+001  2.6113e+001  3.1288e+000 27096 106161,105700,105674
 4.0000e-001 105902  7.7043e+000  2.1003e+001 -1.4519e-001 27096 106233,105726,105700
 4.0000e-001 105879  6.6528e-001  1.8419e+001  8.2186e-001 27096 106305,105648,105622
 4.0000e-001 105856  6.7541e+000  2.3846e+001 -5.2718e-001 27096 105726,105778,105752
 4.0000e-001 106043  8.2134e+000  2.1359e+001  1.0786e-002 27096 106233,105700,106017
 4.0000e-001 106066  8.9889e+000  2.3013e+001 -1.9066e-001 27096 106089,105778,106017
 4.0000e-001 106115  7.8711e+000  1.7828e+001 -2.9026e+000 27096 105830,105804,106089
 4.0000e-001 106138  7.6235e+000  1.9446e+001 -1.3691e+000 27096 106377,106089,106017
 4.0000e-001 106187  1.0758e+001  2.1776e+001 -1.3892e-001 27096 105648,106017,106161
 4.0000e-001 106210  1.1257e+001  2.5991e+001  2.9708e-001 27096 105648,106161,105674
 4.0000e-001 106259  7.0613e+000  2.1584e+001  2.3944e-001 27096 105778,105726,106233
 4.0000e-001 106282  7.6647e+000  2.1974e+001  4.1049e-001 27096 105778,106233,106017
 4.0000e-001 106331  7.7418e+000  1.9179e+001 -1.0444e+000 27096 106377,106017,106305
 4.0000e-001 106354  6.8998e+000  2.1464e+001 -9.5139e-001 27096 105830,106305,105622
 4.0000e-001 106403  7.0704e+000  1.9034e+001 -1.1857e+000 27096 105830,106089,106377
 4.0000e-001 106426  7.1381e+000  1.8856e+001 -8.9042e-001 27096 105830,106377,106305
 4.0000e-001 106625  4.1037e+000  1.8248e+001  2.6005e+000 26684 106475,106553,106527
 4.0000e-001 106602  2.0142e+000  1.5215e+001  1.6034e+000 26684 106449,106553,106475
 4.0000e-001 106579 -3.5693e+000  1.8312e+001 -2.7716e+000 26684 106475,106527,106501
 4.0000e-001 107084  3.4323e+000  1.9923e+001  2.9648e+000 26244 107107,106914,106862
 4.0000e-001 107061  4.2042e+000  2.2088e+001  2.9137e+000 26244 107107,106862,106836
 4.0000e-001 107038  5.9131e-001  2.7898e+001  9.8650e-001 26244 106810,106966,106836
 4.0000e-001 107015  9.4861e-001  1.4822e+001  2.1144e+000 26244 106862,106914,106888
 4.0000e-001 106992 -8.9416e-001  1.2569e+001  2.5149e+000 26244 106914,106966,106940
 4.0000e-001 107133  3.4410e+000  1.8102e+001  1.7730e-001 26244 106966,106914,107107
 4.0000e-001 107156  5.2081e+000  2.2311e+001  1.4470e-001 26244 106966,107107,106836
 4.0000e-001 107662 -2.3206e+000  1.9152e+001 -4.4961e-001 25904 107365,107495,107391
 4.0000e-001 107639  3.9434e+000  1.8024e+001 -9.7520e-001 25904 107365,107521,107495
 4.0000e-001 107616  3.9634e+000  2.1578e+001 -1.2635e-001 25904 107391,107469,107443
 4.0000e-001 107593  2.6095e+000  2.1295e+001  5.3935e-002 25904 107391,107495,107469
 4.0000e-001 107570  5.0906e+000  2.3239e+001 -8.0576e-001 25904 107391,107443,107417
 4.0000e-001 107547 -2.6715e+000  1.4554e+001 -4.7418e+000 25904 107339,107521,107365
 4.0000e-001 108247  2.1105e+000  2.0928e+001  5.9222e-001 25450 108270,108002,107950
 4.0000e-001 108224  1.3851e+000  2.1264e+001 -4.1503e-002 25450 108270,107950,108106
 4.0000e-001 108201  1.0668e+000  1.9295e+001  2.5134e-001 25450 108342,108028,108002
 4.0000e-001 108178  1.9028e+000  2.0062e+001  5.3327e-001 25450 107950,108002,107976
 4.0000e-001 108155 -3.0936e+000  2.4503e+001  7.2089e-001 25450 107924,108106,107950
 4.0000e-001 108132  7.3288e+000  2.8045e+001 -1.6939e+000 25450 108054,108106,108080
 4.0000e-001 108296  1.3595e+000  1.9440e+001  3.3086e-001 25450 108342,108002,108270
 4.0000e-001 108319  1.8098e+000  2.1556e+001  6.7514e-001 25450 108054,108270,108106
 4.0000e-001 108368 -6.4673e-001  2.0156e+001  3.6257e-001 25450 108054,108028,108342
 4.0000e-001 108391  4.6123e-001  2.1020e+001  7.4714e-001 25450 108054,108342,108270
 4.0000e-001 108818 -4.9020e+000  1.2775e+001  1.4867e+000 24939 108521,108677,108651
 4.0000e-001 108795 -1.0607e+001  9.0671e+000 -3.1534e+000 24939 108495,108677,108521
 4.0000e-001 108772 -1.4022e+000  1.4260e+001 -5.3814e-001 24939 108521,108651,108625
 4.0000e-001 108749 -9.8859e-002  1.1428e+001  5.0726e-001 24939 108521,108625,108599
 4.0000e-001 108726  3.7176e+000  7.2816e+000  3.5088e+000 24939 108547,108599,108573
 4.0000e-001 108703 -1.2577e+000  1.0597e+001  1.4624e+000 24939 108521,108599,108547
 4.0000e-001 109403  2.3751e+001  1.4481e+001 -3.3848e+000 24741 109158,109210,109184
 4.0000e-001 109380  2.2363e+001  1.5056e+001 -2.7566e+000 24741 109158,109262,109210
 4.0000e-001 109357  2.0989e+001  9.7598e+000 -2.4347e+000 24741 109080,109262,109158
 4.0000e-001 109334  1.9555e+001  1.2914e+001 -1.7013e+000 24741 109080,109158,109132
 4.0000e-001 109311  2.4900e+001  1.8752e+001 -4.0792e+000 24741 109210,109262,109236
 4.0000e-001 109288  2.0821e+001  1.3282e+001 -1.0902e+000 24741 109080,109132,109106
 4.0000e-001 109781  1.6279e+000  2.0772e+001 -6.6102e-001 24337 109533,109611,109559
 4.0000e-001 109758  3.5945e+000  2.0933e+001 -6.9134e-001 24337 109533,109637,109611
 4.0000e-001 109735  2.3434e+000  2.2158e+001  8.3317e-001 24337 109559,109611,109585
 4.0000e-001 109712  3.8139e+000  2.1392e+001  2.1034e+000 24337 109533,109663,109637
 4.0000e-001 109689  1.5627e+000  1.7017e+001 -9.2725e-002 24337 109507,109663,109533
 4.0000e-001 110159  1.3515e+001  1.3420e+001  8.6221e-002 23833 110182,109963,109911
 4.0000e-001 110136  1.6632e+001  1.5484e+001 -9.6474e-001 23833 110182,109911,109885
 4.0000e-001 110113  1.7850e+001  1.3445e+001  1.7390e-001 23833 109885,110041,109989
 4.0000e-001 110090  1.5273e+001  1.7916e+001 -1.0411e-001 23833 109911,109963,109937
 4.0000e-001 110067  1.1286e+001  7.3755e-001 -2.3744e+000 23833 109989,110041,110015
 4.0000e-001 110208  1.4842e+001  1.2847e+001  1.3281e+000 23833 109989,109963,110182
 4.0000e-001 110231  1.5473e+001  1.3549e+001  6.8947e-001 23833 109989,110182,109885
 4.0000e-001 110332 -1.1179e-001  2.9367e+001 -1.8032e+000 23429 110254,110306,110280
 4.0000e-001 110580 -7.4382e-001  1.9257e+001 -3.0453e+000 22825 110603,110407,110381
 4.0000e-001 110557  4.5582e+000  2.1510e+001 -3.0294e+000 22825 110603,110381,110485
 4.0000e-001 110534  6.7554e+000  2.5901e+001 -1.0036e+000 22825 110433,110485,110459
 4.0000e-001 110511  1.0154e+001  2.0468e+001 -1.2187e+000 22825 110355,110485,110381
 4.0000e-001 110629  9.4349e-001  1.9511e+001  4.7880e-001 22825 110433,110407,110603
 4.0000e-001 110652  3.7802e+000  2.0652e+001  4.6763e-001 22825 110433,110603,110485
 4.0000e-001 110902  9.1461e+000  2.1778e+001 -4.2875e-001 22428 110703,110755,110729
 4.0000e-001 110879  8.6896e+000  2.1710e+001 -3.2324e-001 22428 110703,110781,110755
 4.0000e-001 110856  7.5864e-001  1.7798e+001 -3.0322e+000 22428 110703,110807,110781
 4.0000e-001 110833  3.1510e+000  2.3314e+001 -2.1314e+000 22428 110677,110807,110703
 4.0000e-001 111284  2.6791e+001  3.2560e+001  5.7880e+000 22138 111088,111140,111114
 4.0000e-001 111261  1.8901e+001  2.9642e+001  6.6572e+000 22138 111062,111140,111088
 4.0000e-001 111238  2.6405e+001  4.7713e+001  7.2244e+000 22138 111036,111140,111062
 4.0000e-001 111215  1.6236e+001  2.7845e+001  1.5146e+000 22138 111010,111140,111036
 4.0000e-001 111192  2.0847e+001  3.1227e+001 -5.9309e-001 22138 111010,111166,111140
 4.0000e-001 111385 -5.5782e-001  2.1458e+001  4.1738e+000 21826 111307,111359,111333
 4.0000e-001 111731 -2.8540e+000  2.3891e+001  3.2396e+000 21264 111754,111538,111434
 4.0000e-001 111708  2.8893e+000  2.6022e+001 -2.6399e-003 21264 111754,111434,111408
 4.0000e-001 111685 -4.1208e+000  2.7184e+001  2.2943e+000 21264 111434,111538,111460
 4.0000e-001 111662 -1.3735e+001  2.3035e+001  3.9714e+000 21264 111460,111538,111486
 4.0000e-001 111639  6.1669e+000  2.1070e+001  8.0643e+000 21264 111408,111590,111564
 4.0000e-001 111616 -1.8852e+001  3.5504e+001  9.7614e+000 21264 111486,111538,111512
 4.0000e-001 111780 -4.8107e+000  2.3241e+001  4.8280e+000 21264 111564,111538,111754
 4.0000e-001 111803 -2.7098e+000  2.0033e+001  2.8084e+000 21264 111564,111754,111408
 4.0000e-001 111955  1.7184e+001  2.8362e+001 -7.5514e-001 20860 111978,111906,111880
 4.0000e-001 111932  2.0733e+001  3.2634e+001  2.9548e-001 20860 112110,111828,111906
 4.0000e-001 112004  1.9459e+001  3.2386e+001  1.5615e-001 20860 112110,111906,111978
 4.0000e-001 112136  2.1297e+001  3.2048e+001 -6.3984e-001 20860 111854,111828,112110
 4.0000e-001 112159  2.0155e+001  3.1924e+001 -8.3253e-001 20860 111854,112110,111978
 4.0000e-001 112407  2.2774e+001  3.6198e+001 -6.7156e+000 20320 112182,112286,112208
 4.0000e-001 112384  1.7354e+001  3.5019e+001 -7.4020e+000 20320 112182,112312,112286
 4.0000e-001 112361  3.5635e+001  1.9156e+001 -1.0666e+001 20320 112208,112286,112260
 4.0000e-001 112338  4.4995e+001  2.1009e+001 -1.0270e+001 20320 112208,112260,112234
 4.0000e-001 112655  1.6470e+001  2.5592e+001  1.6964e+000 19916 112508,112560,112534
 4.0000e-001 112632  2.1220e+001  3.2007e+001  3.8094e+000 19916 112430,112560,112508
 4.0000e-001 112609  2.6814e+001  2.6846e+001  1.2860e+001 19916 112430,112508,112456
 4.0000e-001 112586  2.8993e+001  1.8166e+001  1.3158e+001 19916 112456,112508,112482
 4.0000e-001 112807  5.9472e+000  2.1411e+001 -3.7507e-002 19626 112680,112732,112706
 4.0000e-001 112784  6.9687e+000  2.1361e+001 -5.7474e-001 19626 112680,112758,112732
 4.0000e-001 113008  3.9934e+000  2.6199e+001 -6.4935e-001 19165 112858,112936,112884
 4.0000e-001 112985  1.0117e+000  3.2331e+001 -2.5702e+000 19165 112832,112936,112858
 4.0000e-001 112962  1.1397e+000  2.6211e+001  1.3914e+000 19165 112884,112936,112910
 4.0000e-001 113209  4.8597e+000  2.1378e+001  6.9992e-001 18596 113033,113085,113059
 4.0000e-001 113186  6.6630e+000  2.2590e+001  8.6164e-002 18596 113033,113111,113085
 4.0000e-001 113163  3.9799e+000  1.7963e+001  3.3520e+000 18596 113033,113137,113111
 4.0000e-001 113481 -1.6532e+000  2.1780e+001  3.0488e-001 18348 113256,113308,113282
 4.0000e-001 113458  2.8740e+000  2.4707e+001 -9.9549e-001 18348 113256,113386,113308
 4.0000e-001 113435  1.0693e+000  1.9775e+001 -8.8932e-001 18348 113308,113386,113360
 4.0000e-001 113412  3.7038e+000  2.1832e+001  2.3075e-002 18348 113308,113360,113334
 4.0000e-001 113753  1.8440e+000  2.1585e+001 -1.2235e-001 17830 113554,113606,113580
 4.0000e-001 113730  2.0089e+000  2.1004e+001  2.7110e-001 17830 113528,113606,113554
 4.0000e-001 113707  1.5441e+000  1.9774e+001 -5.5814e-001 17830 113528,113658,113606
 4.0000e-001 113684  5.9684e+000  2.2397e+001  6.7459e-001 17830 113606,113658,113632
 4.0000e-001 113954  4.6873e-001  6.8369e+000 -2.8468e+000 17326 113778,113830,113804
 4.0000e-001 113931  3.2765e+000  1.2407e+000 -3.3896e+000 17326 113778,113882,113830
 4.0000e-001 113908  4.7987e+000  5.2801e-001 -1.7360e+000 17326 113830,113882,113856
 4.0000e-001 114106 -2.0283e+000  2.2495e+001 -9.4903e-001 16870 113979,114031,114005
 4.0000e-001 114083  2.0866e+000  2.0799e+001 -2.1606e+000 16870 113979,114057,114031
 4.0000e-001 114461  1.9743e+001  3.3561e+001 -9.2949e+000 16266 114236,114288,114262
 4.0000e-001 114438  1.7418e+001  1.9097e+001 -1.2660e+000 16266 114236,114366,114288
 4.0000e-001 114415  1.9385e+001  2.3414e+001  1.8879e+000 16266 114288,114340,114314
 4.0000e-001 114392  2.0478e+001  2.3390e+001  8.1229e-002 16266 114288,114366,114340
 4.0000e-001 114562 -1.0524e-001  3.1835e+001  0.0000e+000 15830 114484,114536,114510
 4.0000e-001 114663  9.2963e+000 -9.4187e+000 -6.4616e+000 15151 114585,114637,114611
 4.0000e-001 114886  2.1089e+000  2.2870e+001 -2.2088e+000 417 114762,114814,114788
 4.0000e-001 114863  3.5618e+000  2.6266e+001 -1.9093e+000 417 114710,114814,114762
 4.0000e-001 114840  3.0175e+000  2.5040e+001 -1.2306e+000 417 114710,114762,114736
 5.0000e-001 66549 -5.9893e+000  2.0411e+001  4.9919e+000 66104 66350,66454,66428
 5.0000e-001 66526  8.8927e-001  2.3779e+001  2.0864e+000 66104 66324,66454,66350
 5.0000e-001 66503 -4.8604e-001  3.3517e+001  2.7770e+000 66104 66350,66428,66402
 5.0000e-001 66480 -7.5690e+000  2.5645e+001 -1.9220e-001 66104 66350,66402,66376
 5.0000e-001 66947  3.7641e+000 -9.5657e+000 -3.7590e+000 65906 66699,66829,66803
 5.0000e-001 66924 -5.4723e-001 -1.3853e+001 -1.1662e+000 65906 66673,66829,66699
 5.0000e-001 66901  3.5960e+000  7.7576e+000 -6.6788e-001 65906 66725,66777,66751
 5.0000e-001 66878 -4.3254e+000  2.9098e+000 -2.9127e+000 65906 66725,66803,66777
 5.0000e-001 66855  2.2305e+000 -9.6264e+000 -3.9832e+000 65906 66699,66803,66725
 5.0000e-001 67146 -2.8694e+000  2.4738e+000  3.2051e+000 65708 67022,67074,67048
 5.0000e-001 67123 -1.5310e+000  2.9380e+000  2.9618e+000 65708 66970,67074,67022
 5.0000e-001 67100 -5.5374e+000  3.3095e+000  3.8403e-001 65708 66970,67022,66996
 5.0000e-001 67477  1.9271e+000  6.7681e+000 -3.9608e-001 65418 67278,67356,67330
 5.0000e-001 67454  2.5655e+000  1.1519e+001  3.8236e-001 65418 67278,67382,67356
 5.0000e-001 67431  7.9041e+000  1.2114e+001 -3.5983e+000 65418 67278,67330,67304
 5.0000e-001 67408  2.5806e-001  1.9814e+001  3.9383e+000 65418 67252,67382,67278
 5.0000e-001 68111  7.0495e+000  1.4719e+001  3.6934e+000 65014 67791,67921,67869
 5.0000e-001 68088 -4.2702e+000  9.9969e+000  2.0383e+000 65014 67765,67921,67791
 5.0000e-001 68065  7.1751e+000  1.4504e+001  3.7123e+000 65014 67869,67921,67895
 5.0000e-001 68042  5.3296e+000  1.4054e+001 -2.9012e-002 65014 67765,67947,67921
 5.0000e-001 68019  4.7857e-001  7.0700e+000  6.7675e+000 65014 67791,67869,67817
 5.0000e-001 67996 -3.2745e+000  1.0307e+001  2.5520e+000 65014 67817,67869,67843
 5.0000e-001 67973  5.4976e+000  1.1845e+001 -2.4318e+000 65014 67739,67947,67765
 5.0000e-001 68359  3.3149e+000  3.7685e+001  4.9008e-001 64816 68186,68238,68212
 5.0000e-001 68336 -1.4560e-001  2.5814e+001  2.9591e+000 64816 68186,68264,68238
 5.0000e-001 68313  6.7417e+000  2.7932e+001 -6.2691e+000 64816 68160,68264,68186
 5.0000e-001 68290  2.6755e+000  3.4151e+001 -1.4386e+001 64816 68134,68264,68160
 5.0000e-001 68509  5.9094e+000  1.6338e+001  9.7277e-001 64362 68864,68532,68434
 5.0000e-001 68486  7.3317e+000  2.4271e+001  2.8754e+000 64362 68532,68408,68382
 5.0000e-001 68558  1.1942e+001  2.6813e+001 -5.0564e-001 64362 68736,68532,68460
 5.0000e-001 68581  7.4605e+000  2.4076e+001  2.8235e+000 64362 68604,68532,68382
 5.0000e-001 68630  1.0449e+001  3.1239e+001  3.2732e+000 64362 68460,68532,68604
 5.0000e-001 68762  4.7547e+000  1.7710e+001  3.8679e+000 64362 68434,68532,68736
 5.0000e-001 68890  1.4987e+001  2.7710e+001  4.9158e+000 64362 68408,68532,68864
 5.0000e-001 69168  6.0071e+000  3.0098e+001 -2.2544e+000 64164 69018,69070,69044
 5.0000e-001 69145  2.3408e+000  3.0953e+001 -1.0171e+000 64164 68992,69070,69018
 5.0000e-001 69122  4.2133e+000  3.4091e+001  2.3672e+000 64164 68992,69096,69070
 5.0000e-001 69367  3.3593e+000  1.8448e+001  3.4163e+000 63966 69462,69390,69269
 5.0000e-001 69344  9.8676e+000  4.0273e+001 -2.5093e+000 63966 69390,69243,69217
 5.0000e-001 69321  3.0886e+000  2.2697e+001 -2.1209e+000 63966 69191,69295,69217
 5.0000e-001 69416  9.7649e+000  2.9910e+001  7.2360e-001 63966 69295,69269,69390
 5.0000e-001 69439  5.7869e+000  2.5716e+001 -3.4485e+000 63966 69295,69390,69217
 5.0000e-001 69488  1.5342e+001  4.2118e+001  7.9377e+000 63966 69243,69390,69462
 5.0000e-001 69900 -1.7048e+001  1.8532e+001  6.4671e+000 63676 69701,69779,69727
 5.0000e-001 69877 -2.6154e+000  2.5896e+001  3.8308e+000 63676 69675,69779,69701
 5.0000e-001 69854  9.3412e-001  2.6802e+001  3.0333e+000 63676 69675,69805,69779
 5.0000e-001 69831 -2.4334e+001  4.0079e+001  1.3380e+001 63676 69727,69779,69753
 5.0000e-001 70050  3.7624e-001  2.9128e+001  1.1017e+000 63472 70073,69949,69923
 5.0000e-001 70027 -8.5617e+000  2.6976e+001  5.5932e-001 63472 70073,69923,70001
 5.0000e-001 70099  7.1455e+000  2.8146e+001  2.0385e+000 63472 69975,69949,70073
 5.0000e-001 70122 -5.2402e-001  2.6884e+001  1.6086e+000 63472 69975,70073,70001
 5.0000e-001 70321 -6.4000e+000  1.8288e+001 -8.5735e+000 63274 70145,70223,70171
 5.0000e-001 70298 -8.0849e+000  3.1660e+001  1.1156e+001 63274 70145,70249,70223
 5.0000e-001 70275 -3.5810e-001  2.6539e+001 -5.2620e+000 63274 70171,70223,70197
 5.0000e-001 70593 -2.6091e+000  1.9419e+001 -1.9236e+000 63076 70368,70472,70420
 5.0000e-001 70570 -3.1248e+000  2.4305e+001 -1.5834e+000 63076 70368,70498,70472
 5.0000e-001 70547 -1.0305e+001  2.1590e+001  7.7448e+000 63076 70420,70472,70446
 5.0000e-001 70524  2.4764e+000  2.2726e+001 -5.5032e+000 63076 70368,70420,70394
 5.0000e-001 70843 -8.5662e+000  6.6814e+000  3.4069e+000 62736 70866,70644,70618
 5.0000e-001 70820 -1.0475e+001  3.6727e+000  4.2264e+000 62736 70866,70618,70748
 5.0000e-001 70797 -7.5190e+000  7.5287e+000  7.1521e+000 62736 70644,70722,70696
 5.0000e-001 70774 -8.4490e+000  2.0896e+001  1.0433e+001 62736 70644,70696,70670
 5.0000e-001 70892 -1.0595e+001  8.6242e+000  5.2368e+000 62736 70722,70644,70866
 5.0000e-001 70915 -1.2264e+001  5.5963e+000  5.8966e+000 62736 70722,70866,70748
 5.0000e-001 71018 -1.5132e+001  1.6773e+001  9.1265e+000 62516 70940,70992,70966
 5.0000e-001 71219  9.1396e+000  4.2512e+001 -2.7379e+000 62226 71069,71147,71095
 5.0000e-001 71196  4.7724e+000  4.3713e+001  1.9042e+000 62226 71043,71147,71069
 5.0000e-001 71173  7.5831e+000  4.9108e+001  1.3548e-001 62226 71095,71147,71121
 5.0000e-001 71857 -7.4077e+000  5.5960e+000 -3.4508e+000 61708 71511,71693,71667
 5.0000e-001 71834 -5.0823e+000  1.0439e+001 -1.4843e+000 61708 71485,71693,71511
 5.0000e-001 71811 -1.1235e+001  1.0445e+001  1.7130e-001 61708 71880,71537,71511
 5.0000e-001 71788 -2.9674e+000  1.0430e+001  1.4888e-001 61708 71880,71511,71667
 5.0000e-001 71765 -1.7697e+000  1.2603e+001  5.7829e+000 61708 71537,71615,71589
 5.0000e-001 71742  5.5012e+000  1.2640e+001  9.6923e-001 61708 71615,71667,71641
 5.0000e-001 71719 -1.6889e+001  1.0204e+001 -7.8665e-001 61708 71537,71589,71563
 5.0000e-001 71906 -4.3061e+000  9.5396e+000  2.3931e+000 61708 71615,71537,71880
 5.0000e-001 71929  2.6133e+000  8.8594e+000  2.9916e+000 61708 71615,71880,71667
 5.0000e-001 72226  7.2591e-001  3.5062e+001 -5.2769e-001 61204 72249,72056,72004
 5.0000e-001 72203 -3.8275e+000  3.1922e+001 -3.2831e+000 61204 72249,72004,71978
 5.0000e-001 72180 -1.0984e+000  2.7209e+001 -3.7159e+000 61204 71978,72108,72082
 5.0000e-001 72157  2.0098e+000  3.3876e+001 -2.6239e+000 61204 72004,72056,72030
 5.0000e-001 72134 -1.4709e+001  4.2700e+001 -1.1525e+001 61204 71952,72108,71978
 5.0000e-001 72275  5.6699e+000  3.2352e+001  1.2235e+000 61204 72082,72056,72249
 5.0000e-001 72298  1.3701e+000  3.0938e+001 -7.1899e-001 61204 72082,72249,71978
 5.0000e-001 72757  9.2587e+000  2.9431e+001  8.1401e-001 60800 72483,72613,72509
 5.0000e-001 72734  1.6705e+001  3.6114e+001 -2.8833e+000 60800 72483,72639,72613
 5.0000e-001 72711  1.2474e+001  4.0916e+001  2.3117e+000 60800 72561,72613,72587
 5.0000e-001 72688  1.0595e+001  3.1569e+001 -9.9856e-001 60800 72509,72613,72561
 5.0000e-001 72665  2.0845e+001  5.2629e+001 -9.2479e+000 60800 72509,72561,72535
 5.0000e-001 72907 -4.0036e+000  9.4502e+000 -2.0308e+000 60552 72780,72832,72806
 5.0000e-001 72884  2.4690e+000  2.2624e+001 -4.5744e+000 60552 72780,72858,72832
 5.0000e-001 73464 -2.3928e+000  2.1067e+001  6.9371e+000 60240 73487,73222,73196
 5.0000e-001 73441  1.9250e+000  2.5822e+001  3.3468e+000 60240 73559,73487,73196
 5.0000e-001 73418 -3.6407e+000  2.8385e+001  3.8643e+000 60240 73559,73196,73170
 5.0000e-001 73395  1.3023e+001  1.0116e+001  3.3537e+000 60240 73222,73274,73248
 5.0000e-001 73372 -1.2910e+001  1.1673e+001 -7.7371e+000 60240 73118,73300,73274
 5.0000e-001 73349 -5.0905e+000  3.4643e+001 -6.1937e+000 60240 73092,73300,73118
 5.0000e-001 73326 -4.5964e+000  3.8837e+001  6.9218e-001 60240 73118,73170,73144
 5.0000e-001 73513  2.1579e+000  2.3669e+001  5.1623e+000 60240 73274,73222,73487
 5.0000e-001 73536  1.0198e+000  2.6797e+001  1.3732e-001 60240 73274,73487,73118
 5.0000e-001 73585 -5.7526e+000  2.2617e+001  1.9861e+000 60240 73118,73487,73559
 5.0000e-001 73608 -1.0739e+001  2.5658e+001  2.8013e+000 60240 73118,73559,73170
 5.0000e-001 73758 -1.7252e+001 -2.2297e+000 -1.7303e+000 59871 73657,73709,73683
 5.0000e-001 73735 -3.7076e+000 -1.4104e+001  7.0147e-001 59871 73631,73709,73657
 5.0000e-001 74187  3.8782e+000  3.6058e+001 -9.7031e-002 59474 74210,73890,73864
 5.0000e-001 74164  3.7427e+000  3.9082e+001 -6.1226e-001 59474 74210,73864,74046
 5.0000e-001 74141  3.8452e+000  3.1373e+001  3.7638e-001 59474 73890,73942,73916
 5.0000e-001 74118  3.1298e+000  3.3800e+001  3.3814e-001 59474 73890,73994,73942
 5.0000e-001 74095  8.5273e+000  3.5812e+001 -8.0618e+000 59474 73994,74046,74020
 5.0000e-001 74072  3.9592e-001  2.3666e+001 -1.8073e-001 59474 73942,73994,73968
 5.0000e-001 74236  4.2016e+000  3.4026e+001 -1.4683e-001 59474 73994,73890,74210
 5.0000e-001 74259  3.2364e+000  3.5924e+001 -7.5908e-001 59474 73994,74210,74046
 5.0000e-001 74716  7.8972e+000  2.1819e+001 -2.2344e+000 58770 74468,74598,74494
 5.0000e-001 74693  1.0094e+001  1.1522e+001 -9.3111e+000 58770 74442,74598,74468
 5.0000e-001 74670  7.3943e+000  1.2085e+001  5.4307e+000 58770 74494,74572,74520
 5.0000e-001 74647  6.1914e+000  4.3951e+000 -1.0790e+000 58770 74494,74598,74572
 5.0000e-001 74624 -1.2783e+000  9.4131e-001  1.1104e-001 58770 74520,74572,74546
 5.0000e-001 75222 -2.1602e+000  2.7924e+001 -1.7915e+000 58266 74951,75081,75029
 5.0000e-001 75199  4.8179e-001  3.2215e+001 -6.3111e-001 58266 74925,75081,74951
 5.0000e-001 75176  5.8638e+000  2.7266e+001 -9.5854e+000 58266 75029,75081,75055
 5.0000e-001 75153 -3.5749e+000  3.3485e+001 -2.8520e+000 58266 74951,75003,74977
 5.0000e-001 75130 -4.7667e+000  2.6651e+001 -7.3195e-001 58266 74951,75029,75003
 5.0000e-001 75107 -1.5229e+001  2.8781e+001  1.5076e+000 58266 74899,75081,74925
 5.0000e-001 75421  3.2869e+000  3.1866e+001 -9.6770e-001 57826 75444,75297,75245
 5.0000e-001 75398  3.5902e+000  2.1646e+001  2.5561e+000 57826 75444,75245,75349
 5.0000e-001 75375  7.3990e+000  3.4153e+001 -8.2767e-001 57826 75516,75297,75271
 5.0000e-001 75470  4.1710e+000  3.6469e+001 -1.8661e+000 57826 75323,75297,75444
 5.0000e-001 75493  7.8984e+000  3.2868e+001  2.6059e+000 57826 75323,75444,75349
 5.0000e-001 75542 -3.3119e-002  2.9585e+001  2.0898e+000 57826 75245,75297,75516
 5.0000e-001 76257  7.4841e+000  2.9293e+001 -5.0474e+000 57422 76280,76093,76067
 5.0000e-001 76234  1.2587e+001  2.7547e+001  1.7703e+000 57422 75885,76093,75911
 5.0000e-001 76211  1.7097e+001  3.5344e+001 -1.6557e+000 57422 76424,76280,76067
 5.0000e-001 76188  1.5577e+001  3.5000e+001  4.4135e+000 57422 76352,75937,75911
 5.0000e-001 76165  1.7408e+001  3.0007e+001 -1.1291e+000 57422 76424,76067,76015
 5.0000e-001 76142  2.2589e+001  4.9487e+001  4.2832e+000 57422 76015,76067,76041
 5.0000e-001 76119  1.9630e+001  2.9307e+001 -4.1397e+000 57422 75963,76015,75989
 5.0000e-001 76306  9.4159e+000  3.1211e+001  2.7966e+000 57422 75911,76093,76280
 5.0000e-001 76329  1.7527e+001  3.1751e+001  3.3862e+000 57422 76352,75911,76280
 5.0000e-001 76378  1.8741e+001  3.9900e+001  7.2647e+000 57422 75963,75937,76352
 5.0000e-001 76401  1.9688e+001  3.6537e+001  5.7464e+000 57422 75963,76352,76280
 5.0000e-001 76450  1.5176e+001  3.0223e+001 -3.5740e-001 57422 75963,76280,76424
 5.0000e-001 76473  1.7585e+001  2.7202e+001 -7.0031e-001 57422 75963,76424,76015
 5.0000e-001 76949  5.7869e+000  3.7879e+001 -6.9586e-001 56904 76972,76707,76681
 5.0000e-001 76926  4.0086e+000  3.2853e+001  5.5342e-001 56904 77044,76972,76681
 5.0000e-001 76903  7.2252e+000  2.9083e+001 -1.2710e+000 56904 77044,76681,76629
 5.0000e-001 76880 -3.7433e-001  3.0337e+001  1.1286e+000 56904 76707,76785,76759
 5.0000e-001 76857 -1.5151e+000  2.5027e+001 -8.2566e+000 56904 76577,76785,76603
 5.0000e-001 76834  4.1271e+000  3.5987e+001  6.6396e+000 56904 76707,76759,76733
 5.0000e-001 76811  1.0547e+001  2.3374e+001  1.0400e+001 56904 76629,76681,76655
 5.0000e-001 76998  2.0852e+000  3.6098e+001 -7.4749e-002 56904 76785,76707,76972
 5.0000e-001 77021  5.0955e+000  3.6909e+001  2.4672e+000 56904 76785,76972,76603
 5.0000e-001 77070  8.5213e+000  3.7044e+001  2.4149e+000 56904 76603,76972,77044
 5.0000e-001 77093  1.0223e+001  3.2732e+001  1.0944e-001 56904 76603,77044,76629
 5.0000e-001 77471  3.0410e+000  3.0090e+001 -1.0046e+000 56542 77566,77494,77275
 5.0000e-001 77448  3.2718e+000  2.4708e+001 -1.5980e+000 56542 77494,77223,77353
 5.0000e-001 77425  4.4278e+000  3.1461e+001 -3.2684e+000 56542 77566,77275,77249
 5.0000e-001 77402  1.0124e+001  2.3759e+001  7.1672e+000 56542 77197,77353,77223
 5.0000e-001 77379  3.1788e+000  3.5306e+001 -3.5651e+000 56542 77275,77327,77301
 5.0000e-001 77520  1.7340e+000  3.6222e+001 -2.4860e+000 56542 77327,77275,77494
 5.0000e-001 77543 -3.0495e+000  3.0161e+001  7.1599e-001 56542 77327,77494,77353
 5.0000e-001 77592  5.6771e+000  3.1593e+001 -2.9099e+000 56542 77223,77494,77566
 5.0000e-001 77615  6.6673e+000  3.4479e+001 -5.1915e+000 56542 77223,77566,77249
 5.0000e-001 77814  2.2543e+001  4.3053e+001  1.4581e+001 56038 77837,77690,77664
 5.0000e-001 77791  6.8219e+000  3.9428e+001  8.1876e+000 56038 77837,77664,77742
 5.0000e-001 77768 -6.4611e+000  3.5635e+001  3.2711e+000 56038 77638,77742,77664
 5.0000e-001 77863  2.3943e+001  3.7877e+001  3.4270e+000 56038 77716,77690,77837
 5.0000e-001 77886  6.8005e+000  3.4211e+001 -2.8626e+000 56038 77716,77837,77742
 5.0000e-001 78345  8.9317e+000  3.3483e+001  4.7531e+000 55534 78071,78123,78097
 5.0000e-001 78322  7.9056e-001  2.7751e+001 -2.9320e+000 55534 78071,78201,78123
 5.0000e-001 78299 -3.6202e+000  3.6473e+001 -5.3351e-001 55534 78071,78227,78201
 5.0000e-001 78276  2.0396e-001  2.5795e+001 -8.4500e+000 55534 78123,78175,78149
 5.0000e-001 78253 -6.5526e-001  2.2645e+001 -5.9580e+000 55534 78123,78201,78175
 5.0000e-001 78802 -7.1690e+000  2.9803e+001 -1.8491e+000 55030 78825,78632,78606
 5.0000e-001 78779  1.2500e+000  3.0828e+001 -5.6358e+000 55030 78897,78825,78606
 5.0000e-001 78756 -1.0621e+001  3.7510e+001 -1.0905e+001 55030 78897,78606,78580
 5.0000e-001 78733  4.7914e+000  2.3765e+001 -3.6202e+000 55030 78554,78684,78658
 5.0000e-001 78710  1.0807e+001  3.8686e+001  5.7549e-001 55030 78528,78684,78554
 5.0000e-001 78851  3.3033e+000  4.7107e+001  5.0290e+000 55030 78658,78632,78825
 5.0000e-001 78874 -1.1851e+000  2.3646e+001 -5.0980e+000 55030 78658,78825,78554
 5.0000e-001 78923 -9.8344e+000  1.8307e+001 -1.2912e+001 55030 78554,78825,78897
 5.0000e-001 78946 -1.5867e+001  2.5649e+001 -1.8477e+001 55030 78554,78897,78580
 5.0000e-001 79403  1.1175e-002  2.0668e+001  4.1356e-001 54426 79426,79233,79155
 5.0000e-001 79380 -3.7797e+000  2.3095e+001  4.4664e+000 54426 79426,79155,79129
 5.0000e-001 79357 -1.1986e+001  3.6449e+001 -1.2165e+001 54426 79233,79285,79259
 5.0000e-001 79334  9.0776e+000  1.9203e+001 -8.3950e-001 54426 79181,79233,79207
 5.0000e-001 79311  8.4310e+000  1.9263e+001 -1.7820e-001 54426 79155,79233,79181
 5.0000e-001 79452  1.3987e+000  2.3901e+001  2.2180e-001 54426 79285,79233,79426
 5.0000e-001 79475 -8.4576e-001  2.9096e+001  3.4739e+000 54426 79285,79426,79129
 5.0000e-001 79932  1.9446e+000  1.9462e+001  3.4773e+000 53915 79658,79762,79684
 5.0000e-001 79909  8.9825e+000  2.2541e+001  8.1591e-001 53915 79658,79814,79762
 5.0000e-001 79886  1.2134e+001  2.2354e+001  5.2578e+000 53915 79762,79814,79788
 5.0000e-001 79863  4.1409e+000  2.6775e+001  5.6380e+000 53915 79710,79762,79736
 5.0000e-001 79840  5.7336e+000  2.2394e+001  1.6121e+000 53915 79684,79762,79710
 5.0000e-001 80033  4.6764e+000  3.4094e+001 -4.2849e-001 53667 79955,80007,79981
 5.0000e-001 80401  7.6955e-001  2.7959e+001 -3.5432e+000 53263 80104,80260,80234
 5.0000e-001 80378  5.1011e+000  3.5249e+001 -1.3037e-001 53263 80078,80260,80104
 5.0000e-001 80355  6.6826e+000  2.6731e+001 -1.7817e+000 53263 80104,80234,80130
 5.0000e-001 80332  7.0356e+000  3.1090e+001 -2.3924e-001 53263 80130,80208,80182
 5.0000e-001 80309  1.2134e+001  3.0715e+001  1.0014e+000 53263 80130,80234,80208
 5.0000e-001 80286  8.3435e+000  3.7335e+001  1.5378e+000 53263 80130,80182,80156
 5.0000e-001 80911 -4.6706e-001  1.8396e+001 -6.3902e+000 52965 80640,80770,80744
 5.0000e-001 80888  1.2473e+001  3.2497e+001  7.0287e-001 52965 80614,80770,80640
 5.0000e-001 80865  1.0199e+001  3.0306e+001  1.7229e-001 52965 80640,80744,80666
 5.0000e-001 80842  7.9831e+000  2.3165e+001 -8.3930e+000 52965 80588,80770,80614
 5.0000e-001 80819  1.6823e+001  2.5253e+001  5.3733e+000 52965 80666,80718,80692
 5.0000e-001 80796  7.0872e+000  2.1422e+001 -3.7262e-001 52965 80666,80744,80718
 5.0000e-001 81262  4.7071e+000  2.7841e+001  8.6116e-001 52561 81037,81141,81063
 5.0000e-001 81239 -5.9017e+000  2.6099e+001  6.9890e+000 52561 81037,81167,81141
 5.0000e-001 81216 -1.5477e+001  1.4279e+001  1.0723e+000 52561 81063,81115,81089
 5.0000e-001 81193 -9.8913e+000  1.9977e+001 -3.9597e+000 52561 81063,81141,81115
 5.0000e-001 81719  1.7621e+000  1.8986e+001  4.7561e+000 51900 81445,81523,81471
 5.0000e-001 81696  5.0076e+000  2.3216e+001  2.0818e+000 51900 81445,81575,81523
 5.0000e-001 81673 -5.3018e+000  2.7215e+001  3.9130e-001 51900 81445,81601,81575
 5.0000e-001 81650  2.6567e+000  1.6238e+001 -4.5825e-001 51900 81523,81575,81549
 5.0000e-001 81627  1.3985e+001  2.0753e+001  6.0344e+000 51900 81471,81523,81497
 5.0000e-001 82323  4.1229e+000  1.2942e+001 -1.4244e-001 51317 82418,82346,82032
 5.0000e-001 82300 -5.3374e-001  1.5861e+001  3.2855e+000 51317 82490,82346,81954
 5.0000e-001 82277  2.8190e+000  1.3203e+001 -3.5305e+000 51317 82418,82032,82006
 5.0000e-001 82254 -7.9381e+000  1.1911e+001  5.0016e+000 51317 82490,81954,81928
 5.0000e-001 82231 -6.2137e+000  1.3789e+001 -1.8114e+000 51317 82058,82110,82084
 5.0000e-001 82208 -1.3356e+001  1.9760e+001 -9.2428e-001 51317 81928,82136,82110
 5.0000e-001 82185  1.4415e+001  8.4525e+000 -1.5582e+000 51317 81954,82006,81980
 5.0000e-001 82162 -1.3764e+001  1.9431e+001 -9.2821e+000 51317 81902,82136,81928
 5.0000e-001 82372 -2.1077e-002  1.2504e+001 -1.5358e+000 51317 82058,82032,82346
 5.0000e-001 82395 -4.2053e+000  1.6443e+001 -5.9469e-001 51317 82058,82346,82110
 5.0000e-001 82444  8.8678e+000  1.4784e+001 -3.9073e-001 51317 81954,82346,82418
 5.0000e-001 82467  8.1105e+000  1.5263e+001 -3.7555e+000 51317 81954,82418,82006
 5.0000e-001 82516 -2.9414e+000  1.6559e+001 -7.2062e-001 51317 82110,82346,82490
 5.0000e-001 82539 -3.7779e+000  1.5805e+001  3.2069e-001 51317 82110,82490,81928
 5.0000e-001 83015  2.0884e+000  3.5607e+001  5.2102e+000 50813 82669,82747,82695
 5.0000e-001 82992 -4.7474e+000  1.2579e+001  2.6477e-001 50813 83038,82669,82851
 5.0000e-001 82969 -3.9076e+000  1.3014e+001  5.9420e-001 50813 83038,82851,82799
 5.0000e-001 82946 -1.6414e+001  1.1230e+001  7.6437e+000 50813 82747,82799,82773
 5.0000e-001 82923 -3.5539e+000  7.6520e+000 -6.0043e+000 50813 82643,82851,82669
 5.0000e-001 82900 -6.3299e+000  4.4062e+000 -1.8429e-001 50813 82799,82851,82825
 5.0000e-001 82877  3.6844e-001  2.2784e+001 -9.3331e-001 50813 82695,82747,82721
 5.0000e-001 83064 -6.1199e+000  1.2990e+001 -2.1004e-001 50813 82747,82669,83038
 5.0000e-001 83087 -4.9736e+000  1.3610e+001  1.3006e-001 50813 82747,83038,82799
 5.0000e-001 83286  1.6732e+000  1.6938e+001 -1.2860e-001 50352 83309,83162,83136
 5.0000e-001 83263  8.2710e+000  1.7645e+001  6.5110e-001 50352 83511,83309,83136
 5.0000e-001 83240  9.7527e+000  1.8985e+001  1.7312e+000 50352 83511,83136,83381
 5.0000e-001 83335 -3.2320e+000  1.8066e+001  4.3551e+000 50352 83188,83162,83309
 5.0000e-001 83358  4.2735e+000  1.9492e+001  3.0109e+000 50352 83188,83309,83214
 5.0000e-001 83407  1.4683e+001  2.1717e+001  3.4596e+000 50352 83110,83214,83381
 5.0000e-001 83537  6.1889e+000  1.8753e+001 -3.4952e-001 50352 83214,83309,83511
 5.0000e-001 83560  6.5777e+000  1.8517e+001  3.9527e-001 50352 83214,83511,83381
 5.0000e-001 83889  8.3072e+000  2.6641e+001  4.7659e-001 49548 83716,83794,83742
 5.0000e-001 83866  8.3987e+000  2.7060e+001  4.2632e-001 49548 83690,83794,83716
 5.0000e-001 83843  6.7696e-001  2.3605e+001 -1.1116e+000 49548 83664,83794,83690
 5.0000e-001 83820  1.3406e+001  3.3288e+001 -2.4373e+000 49548 83742,83794,83768
 5.0000e-001 84137 -6.6303e+000  1.1342e+001 -3.1104e+000 49208 84160,84016,83938
 5.0000e-001 84114 -2.4135e+000  2.1732e+001  5.6982e+000 49208 84160,83938,83912
 5.0000e-001 84091  4.9857e+000  1.1722e+001 -4.7266e+000 49208 83938,84016,83964
 5.0000e-001 84068  5.4541e+000  9.7530e-001 -2.0037e+000 49208 83964,84016,83990
 5.0000e-001 84186 -1.5097e+001  1.2863e+001 -9.4953e+000 49208 84042,84016,84160
 5.0000e-001 84209 -9.4114e+000  1.9658e+001 -1.1732e+000 49208 84042,84160,83912
 5.0000e-001 84796  2.1327e+000  2.0962e+001 -4.9646e+000 48861 84499,84629,84551
 5.0000e-001 84773  9.7861e+000  2.5661e+001 -2.5715e+000 48861 84499,84655,84629
 5.0000e-001 84750  1.1286e+001  4.2573e+001 -4.8838e+000 48861 84551,84629,84577
 5.0000e-001 84727  3.3603e-001  3.7255e+001 -2.1875e+000 48861 84577,84629,84603
 5.0000e-001 84704  1.5155e+001  2.6440e+001 -6.2937e+000 48861 84499,84551,84525
 5.0000e-001 84681  9.3387e+000  2.4088e+001 -4.4917e+000 48861 84473,84655,84499
 5.0000e-001 85351  2.1004e+001  3.1068e+001 -1.1436e+001 48457 85374,85031,85005
 5.0000e-001 85328  9.5729e+000  1.8342e+001 -6.2235e+000 48457 85374,85005,85161
 5.0000e-001 85305  4.5450e+000  2.3857e+001 -5.7928e+000 48457 85446,85057,85031
 5.0000e-001 85282  1.1755e+001  1.8465e+001 -5.3414e+000 48457 85005,85187,85161
 5.0000e-001 85259  1.1519e+001  1.9627e+001 -1.2974e+000 48457 85083,85161,85109
 5.0000e-001 85236  1.6662e+001  1.7935e+001 -7.5775e+000 48457 84979,85187,85005
 5.0000e-001 85213  1.5666e+001  1.8728e+001 -7.0166e+000 48457 85109,85161,85135
 5.0000e-001 85400  7.1076e+000  2.3666e+001 -5.7972e+000 48457 85446,85031,85374
 5.0000e-001 85423  1.1638e+001  2.3246e+001 -2.9091e+000 48457 85083,85374,85161
 5.0000e-001 85472  7.6554e+000  2.2319e+001 -2.8527e+000 48457 85083,85057,85446
 5.0000e-001 85495  1.0975e+001  2.2871e+001 -2.6576e+000 48457 85083,85446,85374
 5.0000e-001 86080  9.5491e+000  1.9593e+001 -3.1097e+000 48053 86319,86103,85783
 5.0000e-001 86057  5.0698e+000  1.7356e+001 -3.5885e+000 48053 86103,85757,85939
 5.0000e-001 86034  5.4548e+000  1.6482e+001 -8.2630e+000 48053 86247,86175,85887
 5.0000e-001 86011  4.7001e+000  1.4281e+001 -8.0087e+000 48053 86247,85887,85835
 5.0000e-001 85988 -1.3951e+001  8.6728e+000 -9.2438e+000 48053 85887,85939,85913
 5.0000e-001 85965  9.0107e+000  1.0051e+001 -1.1502e+001 48053 85835,85887,85861
 5.0000e-001 86129  7.8062e+000  1.8313e+001 -5.3048e+000 48053 85809,85783,86103
 5.0000e-001 86152  7.7854e+000  1.9212e+001 -5.6398e+000 48053 86175,85809,86103
 5.0000e-001 86201  6.4035e+000  1.6923e+001 -8.0014e+000 48053 85939,85887,86175
 5.0000e-001 86224  5.1761e+000  1.5984e+001 -7.5606e+000 48053 85939,86175,86103
 5.0000e-001 86273  6.3134e+000  1.4362e+001 -6.2969e+000 48053 85809,86175,86247
 5.0000e-001 86296  5.6498e+000  1.1930e+001 -6.3738e+000 48053 85809,86247,85835
 5.0000e-001 86345  1.1561e+001  1.8552e+001 -4.0769e+000 48053 85757,86103,86319
 5.0000e-001 86851 -5.7942e-001  1.8353e+001 -4.8833e+000 47541 86874,86580,86554
 5.0000e-001 86828  3.2703e+000  1.9868e+001 -3.9507e+000 47541 86946,86874,86554
 5.0000e-001 86805  4.0650e+000  2.1066e+001 -3.3964e+000 47541 86946,86554,86528
 5.0000e-001 86782  1.4353e+000  1.9418e+001 -1.1302e+000 47541 86580,86658,86606
 5.0000e-001 86759  4.4282e+000  2.7036e+001 -4.2451e+000 47541 86528,86710,86684
 5.0000e-001 86736  1.1164e+001  7.6841e+000 -1.3969e+000 47541 86606,86658,86632
 5.0000e-001 86900  2.8451e+000  1.7660e+001 -2.2886e+000 47541 86658,86580,86874
 5.0000e-001 86923  6.4301e+000  1.9459e+001 -2.8902e+000 47541 86658,86874,86684
 5.0000e-001 86972  2.9179e+000  2.1699e+001 -2.9595e+000 47541 86684,86874,86946
 5.0000e-001 86995  3.6641e+000  2.2256e+001 -2.3420e+000 47541 86684,86946,86528
 5.0000e-001 87324  1.4157e+001  2.9849e+001  2.8273e+000 47044 87151,87203,87177
 5.0000e-001 87301  1.0774e+001  2.7150e+001  1.1962e+000 47044 87125,87203,87151
 5.0000e-001 87278  1.6297e+001  2.7170e+001  1.7001e+000 47044 87099,87203,87125
 5.0000e-001 87255  1.3192e+001  2.2897e+001 -3.5049e+000 47044 87099,87229,87203
 5.0000e-001 87572  7.2401e+000  2.8013e+001  3.9517e+000 46697 87595,87425,87373
 5.0000e-001 87549  5.4641e+000  3.1148e+001  2.2940e+000 46697 87595,87373,87477
 5.0000e-001 87526  7.3458e+000  3.1941e+001  2.2712e+000 46697 87347,87477,87373
 5.0000e-001 87503  1.3233e+001  3.1237e+001 -1.3909e-001 46697 87373,87425,87399
 5.0000e-001 87621  6.2909e+000  2.2259e+001  4.2429e+000 46697 87451,87425,87595
 5.0000e-001 87644  6.9623e+000  2.8043e+001  1.8423e+000 46697 87451,87595,87477
 5.0000e-001 87794 -9.1180e+000  5.4446e+001 -5.8147e+000 46235 87693,87745,87719
 5.0000e-001 87771 -6.8897e+000  2.5731e+001  3.2586e+000 46235 87667,87745,87693
 5.0000e-001 88304  1.3823e+000  2.1852e+001 -7.4922e-002 45731 88085,88163,88137
 5.0000e-001 88281  6.5798e+000  2.6525e+001  2.7371e+000 45731 88007,88163,88085
 5.0000e-001 88258 -5.0357e+000  2.3680e+001  6.5180e+000 45731 87981,88163,88007
 5.0000e-001 88235  7.0753e-001  2.0871e+001  5.1594e+000 45731 88007,88085,88059
 5.0000e-001 88212  1.0050e+001  2.5499e+001 -1.0146e+000 45731 88085,88137,88111
 5.0000e-001 88189  2.6651e+000  1.9368e+001  8.6369e+000 45731 88007,88059,88033
 5.0000e-001 88682  1.2265e+000  7.2888e+000  4.2145e-001 45312 88434,88512,88486
 5.0000e-001 88659 -6.7163e+000 -4.2107e+000  6.6321e+000 45312 88434,88538,88512
 5.0000e-001 88636 -4.3141e+000  4.5807e+000  4.6640e+000 45312 88434,88564,88538
 5.0000e-001 88613  1.1921e+001  7.2329e+000  1.9343e+000 45312 88434,88486,88460
 5.0000e-001 88590 -7.9594e+000 -6.7931e+000 -4.1363e+000 45312 88408,88564,88434
 5.0000e-001 88930  2.7830e+000  2.1785e+001 -3.0711e+000 44808 88953,88731,88705
 5.0000e-001 88907  1.4524e+000  1.8392e+001 -3.0075e+000 44808 88953,88705,88835
 5.0000e-001 88884  3.8469e+000  1.6032e+001 -1.1209e+000 44808 89025,88783,88757
 5.0000e-001 88861  8.5965e+000  2.7722e+001 -1.2640e+000 44808 88783,88835,88809
 5.0000e-001 88979  2.1942e+000  2.0298e+001 -6.6929e-001 44808 88757,88731,88953
 5.0000e-001 89002  1.1944e+000  1.7185e+001 -6.5128e-001 44808 89025,88757,88953
 5.0000e-001 89051  4.5403e+000  1.7322e+001 -1.5790e+000 44808 88835,88783,89025
 5.0000e-001 89074  3.6646e+000  2.0279e+001 -1.8022e+000 44808 88835,89025,88953
 5.0000e-001 89224 -1.3650e+001  7.2500e+001  2.3548e+000 44404 89123,89175,89149
 5.0000e-001 89201 -2.4458e+001  5.1138e+001 -1.9952e+000 44404 89097,89175,89123
 5.0000e-001 89783  3.5108e+000  2.6613e+001 -6.3754e+000 43850 89806,89541,89515
 5.0000e-001 89760 -1.1431e+000  1.9274e+001 -1.1263e+001 43850 89806,89515,89463
 5.0000e-001 89737  1.0106e+001  2.0365e+001 -4.6259e+000 43850 89950,89878,89593
 5.0000e-001 89714  9.6854e+000  2.0201e+001 -4.1606e+000 43850 89950,89593,89567
 5.0000e-001 89691  7.2241e+000  1.6165e+001 -6.7964e+000 43850 89411,89619,89463
 5.0000e-001 89668 -1.7734e+001  2.5941e+001 -9.4122e+000 43850 89463,89515,89489
 5.0000e-001 89645  8.7736e+000  1.2287e+001 -7.8465e+000 43850 89411,89463,89437
 5.0000e-001 89832  9.1564e+000  2.7389e+001 -2.8686e+000 43850 89878,89541,89806
 5.0000e-001 89855  7.3660e+000  2.4694e+001 -8.2632e+000 43850 89619,89806,89463
 5.0000e-001 89904  9.8338e+000  2.2596e+001 -6.2165e+000 43850 89619,89593,89878
 5.0000e-001 89927  2.5799e+000  2.0283e+001 -5.6194e+000 43850 89619,89878,89806
 5.0000e-001 89976  8.6288e+000  2.0002e+001 -1.3009e+000 43850 89541,89878,89950
 5.0000e-001 89999  6.7379e+000  1.7238e+001 -4.3146e-001 43850 89541,89950,89567
 5.0000e-001 90247  1.1405e+001  5.0807e+001 -2.7143e-001 43488 90022,90074,90048
 5.0000e-001 90224 -2.0183e+000  2.9540e+001 -1.6639e+000 43488 90270,90022,90152
 5.0000e-001 90201 -1.6873e+000  2.4626e+001 -2.4144e+000 43488 90342,90270,90152
 5.0000e-001 90178 -2.1698e+000  2.1698e+001  2.7852e-001 43488 90342,90152,90126
 5.0000e-001 90296  2.1531e-002  2.4244e+001  7.4714e-001 43488 90074,90022,90270
 5.0000e-001 90319 -1.2195e+000  2.2161e+001 -1.1605e+000 43488 90074,90270,90100
 5.0000e-001 90368 -4.5305e+000  2.1476e+001  7.3241e-001 43488 90100,90270,90342
 5.0000e-001 90391 -5.0720e+000  1.8112e+001  3.4088e+000 43488 90100,90342,90126
 5.0000e-001 90590  1.7601e+000  3.4004e+001 -6.2528e-001 43048 90414,90492,90440
 5.0000e-001 90567  4.3009e+000  1.7688e+001  3.2018e+000 43048 90414,90518,90492
 5.0000e-001 90544 -1.0920e+001  4.2723e+001  4.7511e+000 43048 90440,90492,90466
 5.0000e-001 91070  7.4842e+000  2.6744e+001  3.4187e+000 42430 91237,90880,90854
 5.0000e-001 91047  1.0791e+001  2.5253e+001  4.6263e+000 42430 90698,90906,90880
 5.0000e-001 91024  1.0548e+001  3.1248e+001  1.3636e+000 42430 91093,90750,90698
 5.0000e-001 91001  8.0879e+000  2.6877e+001  3.0552e+000 42430 91237,90854,91093
 5.0000e-001 90978  9.4832e+000  2.3024e+001  2.6389e+000 42430 91165,90802,90776
 5.0000e-001 90955  9.5572e+000  2.9160e+001  3.4266e+000 42430 90802,90854,90828
 5.0000e-001 90932  1.0105e+001  3.8466e+001  3.5430e+000 42430 90698,90750,90724
 5.0000e-001 91119  1.1797e+001  2.8179e+001  6.5683e+000 42430 90776,90750,91093
 5.0000e-001 91142  9.8947e+000  2.2502e+001  3.7757e+000 42430 91165,90776,91093
 5.0000e-001 91191  9.5839e+000  2.3778e+001  3.5016e+000 42430 90854,90802,91165
 5.0000e-001 91214  1.0604e+001  2.4914e+001  4.6608e+000 42430 90854,91165,91093
 5.0000e-001 91263  8.5780e+000  2.6616e+001  3.1786e+000 42430 90698,90880,91237
 5.0000e-001 91286  9.2040e+000  2.6715e+001  2.8549e+000 42430 90698,91237,91093
 5.0000e-001 91694  2.7361e+001  3.0727e+001 -1.3360e-002 41769 91469,91573,91495
 5.0000e-001 91671  2.0063e+001  2.6342e+001  1.9297e+000 41769 91469,91599,91573
 5.0000e-001 91648  2.7128e+001  4.0138e+001 -5.8069e+000 41769 91495,91547,91521
 5.0000e-001 91625  2.5373e+001  3.6849e+001  2.3203e+000 41769 91495,91573,91547
 5.0000e-001 92040  6.0796e+000  2.5690e+001 -7.1130e-001 41379 91769,91873,91847
 5.0000e-001 92017 -5.2249e-001  2.2574e+001 -1.5855e+000 41379 91743,91873,91769
 5.0000e-001 91994  7.0030e+000  2.7609e+001 -1.5807e+000 41379 91769,91847,91795
 5.0000e-001 91971 -4.1046e+000  2.1469e+001 -1.4633e+000 41379 91743,91899,91873
 5.0000e-001 91948 -1.2389e+000  2.6227e+001  3.7868e+000 41379 91717,91899,91743
 5.0000e-001 91925  8.3536e+000  3.1374e+001  1.9519e+000 41379 91795,91847,91821
 5.0000e-001 92597  1.1008e+001  2.5855e+001 -8.9918e+000 40975 92225,92407,92303
 5.0000e-001 92574  1.0086e+000  1.4505e+001 -3.4605e+000 40975 92225,92433,92407
 5.0000e-001 92551  6.4980e+000  1.2839e+001 -9.0761e+000 40975 92225,92303,92277
 5.0000e-001 92528 -2.3464e+000  2.4735e+001 -9.0262e+000 40975 92329,92407,92381
 5.0000e-001 92505 -9.6724e+000  1.4875e+001 -1.3679e+001 40975 92303,92407,92329
 5.0000e-001 92482  8.8380e+000  6.0594e+000 -4.0710e+000 40975 92225,92277,92251
 5.0000e-001 92459 -3.8374e+000  2.3094e+001 -1.0178e+001 40975 92329,92381,92355
 5.0000e-001 93231 -4.1416e+001  5.0652e+001  4.4529e+000 40521 92937,92989,92963
 5.0000e-001 93208 -2.1883e+000  2.4973e+001  4.3729e+000 40521 93254,92937,92885
 5.0000e-001 93185  4.9733e+000  2.7798e+001  4.2864e+000 40521 93254,92885,93067
 5.0000e-001 93162  9.9746e+000  3.1281e+001 -5.9919e-001 40521 92885,92937,92911
 5.0000e-001 93139  1.0840e+001  2.1559e+001  2.7131e+000 40521 92859,93067,92885
 5.0000e-001 93116  8.2373e+000  1.8253e+001  5.6176e+000 40521 92989,93067,93015
 5.0000e-001 93093  1.6197e+001  1.3420e+001  6.1789e+000 40521 93015,93067,93041
 5.0000e-001 93280 -3.1687e+000  2.1711e+001  1.1136e+001 40521 92989,92937,93254
 5.0000e-001 93303  8.6570e+000  2.6583e+001  9.6876e+000 40521 92989,93254,93067
 5.0000e-001 93632  1.4659e+000  3.0198e+001 -4.5682e-003 40231 93433,93537,93511
 5.0000e-001 93609  7.6300e+000  1.4541e+001 -8.3234e+000 40231 93407,93537,93433
 5.0000e-001 93586  2.0389e+000  3.5000e+001  2.1785e-001 40231 93459,93511,93485
 5.0000e-001 93563 -3.2778e+000  2.8859e+001 -2.0363e+000 40231 93433,93511,93459
 5.0000e-001 94010  6.5941e+000  2.8149e+001  2.9849e+000 39869 93762,93866,93788
 5.0000e-001 93987  1.0305e+001  2.7742e+001  1.6969e+000 39869 93762,93892,93866
 5.0000e-001 93964 -4.0233e+000  1.9781e+001 -1.4905e+000 39869 93788,93866,93840
 5.0000e-001 93941 -1.4351e-001  2.6030e+001 -7.3102e+000 39869 93788,93840,93814
 5.0000e-001 93918  1.0023e+001  2.6636e+001  1.8638e+000 39869 93736,93892,93762
 5.0000e-001 94160  6.4957e-001  4.2542e+001 -4.7651e+000 39457 94033,94085,94059
 5.0000e-001 94137 -1.0145e+001  2.0469e+001  2.1848e+000 39457 94033,94111,94085
 5.0000e-001 94359 -1.0856e+001  2.0794e+001 -1.2475e-001 39053 94382,94235,94209
 5.0000e-001 94336  5.8699e+000  3.2577e+001 -5.4913e+000 39053 94382,94209,94183
 5.0000e-001 94313  8.3082e+000  2.9946e+001 -1.7513e+000 39053 94183,94287,94261
 5.0000e-001 94408  9.4277e+000  2.8556e+001 -1.9232e+000 39053 94454,94382,94261
 5.0000e-001 94431  2.0383e+000  2.5198e+001  4.4041e-001 39053 94261,94382,94183
 5.0000e-001 94480 -4.3997e+000  8.7832e+000  4.1267e+000 39053 94235,94382,94454
 5.0000e-001 94892  2.0128e+000  3.0265e+001  1.9019e+000 38392 94915,94771,94719
 5.0000e-001 94869 -5.0259e+000  2.9151e+001  8.8373e-001 38392 94915,94719,94693
 5.0000e-001 94846 -6.1777e+000  2.6718e+001  8.1911e-001 38392 94719,94771,94745
 5.0000e-001 94823  2.1001e-001  2.7533e+001  3.1605e-001 38392 94667,94797,94693
 5.0000e-001 94941  7.2826e+000  2.8632e+001  2.6251e+000 38392 94797,94771,94915
 5.0000e-001 94964  2.4538e+000  2.9017e+001  1.3423e+000 38392 94797,94915,94693
 5.0000e-001 95261  2.4714e+001  2.8683e+001 -1.0557e+001 37831 95013,95065,95039
 5.0000e-001 95238  5.3275e+000  2.8873e+001 -5.8186e-002 37831 95284,95065,95013
 5.0000e-001 95215  6.8146e+000  2.8324e+001  1.6090e+000 37831 95284,95013,94987
 5.0000e-001 95192  1.4181e+001  3.7975e+001 -1.1587e+000 37831 94987,95143,95117
 5.0000e-001 95169  5.0363e+000  3.2285e+001  1.6671e+000 37831 95065,95117,95091
 5.0000e-001 95310  6.5659e+000  3.1016e+001  4.6764e-001 37831 95117,95065,95284
 5.0000e-001 95333  7.5752e+000  2.9634e+001  1.9680e+000 37831 95117,95284,94987
 5.0000e-001 95554 -2.4843e+000  2.1408e+001 -4.6801e+000 37419 95404,95456,95430
 5.0000e-001 95531  4.6750e+000  3.6150e+001 -2.2961e+000 37419 95378,95456,95404
 5.0000e-001 95508  9.5007e+000  3.9914e+001 -3.9411e+000 37419 95378,95482,95456
 5.0000e-001 95887 -1.5038e-001  1.8370e+001  1.7773e+000 37221 95662,95714,95688
 5.0000e-001 95864 -1.2579e+000  9.7055e+000  2.4002e+000 37221 95662,95792,95714
 5.0000e-001 95841  2.4027e+001  2.6021e+001 -1.3898e+000 37221 95714,95766,95740
 5.0000e-001 95818  3.2991e+000  1.9253e+001 -5.7675e-001 37221 95714,95792,95766
 5.0000e-001 95988 -5.4282e+001 -1.9438e-001 -9.0644e+000 36731 95910,95962,95936
 5.0000e-001 96138  3.8458e+000  2.8496e+001 -8.7443e-002 36327 96293,96063,96037
 5.0000e-001 96115 -2.5057e+000  1.7342e+001 -2.6453e+000 36327 96161,96037,96011
 5.0000e-001 96187  4.7270e+000  2.9385e+001  2.0468e+000 36327 96293,96037,96161
 5.0000e-001 96319  3.1997e+000  3.1265e+001  2.7855e+000 36327 96089,96063,96293
 5.0000e-001 96342  6.9081e+000  3.3473e+001  5.2654e+000 36327 96089,96293,96161
 5.0000e-001 96710  6.3212e+000  2.3003e+001  7.0557e-001 36037 96733,96491,96439
 5.0000e-001 96687  7.9815e+000  2.4447e+001  1.3182e+000 36037 96733,96439,96413
 5.0000e-001 96664  8.9566e-001  2.0386e+001 -1.2687e+000 36037 96439,96491,96465
 5.0000e-001 96641  2.7905e+000  2.7348e+001  1.4153e+000 36037 96387,96517,96413
 5.0000e-001 96618  1.0736e+000  2.6980e+001  2.2122e+000 36037 96387,96543,96517
 5.0000e-001 96595  1.0201e+001  2.0760e+001  8.9963e+000 36037 96387,96569,96543
 5.0000e-001 96759  1.4376e+000  2.4627e+001  4.7743e-001 36037 96517,96491,96733
 5.0000e-001 96782  5.7521e+000  2.7707e+001  1.8914e+000 36037 96517,96733,96413
 5.0000e-001 96932  3.4846e+001  4.6528e+001 -8.8646e+000 35633 97027,96955,96831
 5.0000e-001 96909  2.7981e+001  3.6606e+001  2.4664e+000 35633 97159,96955,96805
 5.0000e-001 96981  2.4111e+001  5.0094e+001 -3.2800e+000 35633 96857,96831,96955
 5.0000e-001 97004  2.0645e+001  4.5593e+001  2.5596e+000 35633 96857,96955,96883
 5.0000e-001 97053  2.7693e+001  3.3675e+001 -1.4724e+000 35633 96805,96955,97027
 5.0000e-001 97185  3.0986e+001  4.8635e+001  6.4037e+000 35633 96883,96955,97159
 5.0000e-001 97593  1.8507e+001  4.8678e+001 -5.2172e+000 35186 97446,97498,97472
 5.0000e-001 97570  1.5827e+001  4.1755e+001 -4.8977e+000 35186 97368,97498,97446
 5.0000e-001 97547  1.0741e+001  3.2828e+001 -2.2502e+000 35186 97368,97446,97394
 5.0000e-001 97524  1.8577e+001  3.6793e+001 -3.6175e+000 35186 97394,97446,97420
 5.0000e-001 98050  7.3965e+000  2.8822e+001 -3.8971e+000 34632 97802,97932,97854
 5.0000e-001 98027  7.8686e+000  4.3477e+001 -8.2367e-001 34632 97776,97932,97802
 5.0000e-001 98004 -5.7894e-001  2.0818e+001  3.2125e+000 34632 97802,97854,97828
 5.0000e-001 97981  2.6174e+000  2.5426e+001 -1.8702e+000 34632 97880,97932,97906
 5.0000e-001 97958  9.2376e+000  3.1717e+001 -4.9284e+000 34632 97854,97932,97880
 5.0000e-001 98526  7.4198e+000  4.3228e+001 -1.0145e+000 34064 98693,98180,98362
 5.0000e-001 98503 -9.4759e+000  2.3394e+001 -1.3172e+001 34064 98154,98362,98180
 5.0000e-001 98480  1.7436e+001  3.3530e+001  8.4813e+000 34064 98549,98258,98232
 5.0000e-001 98457  8.3690e+000  4.8758e+001  2.8290e+001 34064 98549,98232,98206
 5.0000e-001 98434  1.1340e+001  4.2089e+001 -1.1165e+000 34064 98837,98621,98362
 5.0000e-001 98411  2.1742e+001  3.6332e+001  4.9942e+000 34064 98765,98284,98258
 5.0000e-001 98388  1.6200e+001  4.1374e+001 -1.9189e+000 34064 98837,98362,98336
 5.0000e-001 98575  2.1361e+001  3.8782e+001  4.6141e+000 34064 98765,98258,98549
 5.0000e-001 98598  1.0485e+001  3.6873e+001  1.5287e+000 34064 98621,98310,98549
 5.0000e-001 98647  1.1180e+001  4.4066e+001  1.7303e+000 34064 98693,98362,98621
 5.0000e-001 98670  1.6643e+001  5.0773e+001  5.5185e+000 34064 98206,98621,98549
 5.0000e-001 98719  4.3739e+000  4.5021e+001  9.9760e-001 34064 98206,98180,98693
 5.0000e-001 98742  5.3512e+000  4.2982e+001  1.9590e+000 34064 98206,98693,98621
 5.0000e-001 98791  2.2457e+001  3.8887e+001  3.2436e+000 34064 98310,98284,98765
 5.0000e-001 98814  2.1557e+001  4.0511e+001  2.7921e+000 34064 98310,98765,98549
 5.0000e-001 98863  1.7713e+001  4.0763e+001 -6.1363e-001 34064 98310,98621,98837
 5.0000e-001 98886  2.3086e+001  4.0544e+001 -1.8145e+000 34064 98310,98837,98336
 5.0000e-001 99264  1.5405e+001  2.5694e+001  1.3087e+000 33446 99287,99094,99068
 5.0000e-001 99241  1.5277e+001  3.1329e+001 -1.1927e+000 33446 99287,99068,99016
 5.0000e-001 99218 -2.4808e+000  3.7165e+001  7.1718e+000 33446 99016,99068,99042
 5.0000e-001 99195 -2.0832e+000  2.5627e+001 -5.7805e+000 33446 99016,99146,99120
 5.0000e-001 99172  4.1276e+000  4.6758e+001 -1.1822e+001 33446 98990,99146,99016
 5.0000e-001 99313  1.8321e+001  2.9127e+001 -1.8015e+000 33446 99120,99094,99287
 5.0000e-001 99336  1.5503e+001  3.3974e+001 -3.3370e+000 33446 99120,99287,99016
 5.0000e-001 99861  1.1034e+000  2.5359e+001  1.9844e-001 32940 100172,99956,99884
 5.0000e-001 99838  3.4230e+000  2.4198e+001  2.1542e+000 32940 100100,99884,99518
 5.0000e-001 99815  3.6201e+000  2.1823e+001 -3.6662e+000 32940 100244,99956,99622
 5.0000e-001 99792  4.7906e+000  2.6769e+001  1.9126e+000 32940 100028,99648,99622
 5.0000e-001 99769  2.3984e+000  2.4930e+001  3.4588e+000 32940 100100,99518,99492
 5.0000e-001 99746  8.3412e+000  3.2601e+001 -5.5699e-001 32940 99570,99622,99596
 5.0000e-001 99723  2.6492e+000  2.1037e+001 -4.0375e+000 32940 100244,99622,99570
 5.0000e-001 99700  2.6692e+000  3.1798e+001  2.3737e+000 32940 99440,99492,99466
 5.0000e-001 99910  2.1155e+000  2.5098e+001  1.0671e+000 32940 100172,99884,100028
 5.0000e-001 99933 -5.6916e-002  2.2992e+001  2.1890e+000 32940 99674,99884,99440
 5.0000e-001 99982  6.4557e-001  1.8450e+001  1.2571e+000 32940 99518,99884,99956
 5.0000e-001 100005  1.6062e+000  1.2119e+001 -4.2213e+000 32940 99518,99956,99544
 5.0000e-001 100054  1.8200e+000  2.7040e+001  2.2662e+000 32940 99674,99648,100028
 5.0000e-001 100077  1.3269e+000  2.6160e+001  2.5138e+000 32940 99674,100028,99884
 5.0000e-001 100126  1.2627e+000  2.3255e+001  1.9566e+000 32940 99440,99884,100100
 5.0000e-001 100149  5.6343e-001  2.4137e+001  3.1771e+000 32940 99440,100100,99492
 5.0000e-001 100198  2.3243e+000  2.6758e+001  1.0449e+000 32940 99622,99956,100172
 5.0000e-001 100221  2.8228e+000  2.6643e+001  1.9080e+000 32940 99622,100172,100028
 5.0000e-001 100270  5.4516e+000  2.0758e+001 -2.8460e+000 32940 99544,99956,100244
 5.0000e-001 100293  4.6154e+000  2.0109e+001 -3.1737e+000 32940 99544,100244,99570
 5.0000e-001 100750  6.5220e+000  3.1660e+001 -4.9266e+000 32365 100773,100580,100502
 5.0000e-001 100727  3.8435e+000  2.4295e+001  7.0295e-001 32365 100773,100502,100632
 5.0000e-001 100704 -1.9275e+000  2.3300e+001  1.0746e+000 32365 100476,100632,100502
 5.0000e-001 100681  1.1308e+001  3.5050e+001 -7.4243e+000 32365 100528,100580,100554
 5.0000e-001 100658  1.3184e+001  3.8208e+001 -1.0081e+001 32365 100502,100580,100528
 5.0000e-001 100799  2.2472e+000  4.1553e+001 -6.4794e+000 32365 100606,100580,100773
 5.0000e-001 100822  9.9539e-001  3.4131e+001 -1.8556e+000 32365 100606,100773,100632
 5.0000e-001 101021 -1.7317e+000  2.5399e+001  1.0310e+000 31853 100871,100923,100897
 5.0000e-001 100998  7.8345e-001  2.7152e+001  1.8086e+000 31853 100871,100949,100923
 5.0000e-001 100975  1.4641e+000  2.9375e+001  1.3075e+000 31853 100845,100949,100871
 5.0000e-001 101529  4.7678e+000  1.9290e+001  3.0401e+000 31249 101552,101310,101232
 5.0000e-001 101506  3.3844e+000  9.0024e+000  9.1037e+000 31249 101552,101232,101206
 5.0000e-001 101483  9.5012e+000  2.9737e+001  1.8210e+000 31249 101206,101388,101336
 5.0000e-001 101460  6.3859e+000  1.9083e+001 -1.3853e+000 31249 101232,101284,101258
 5.0000e-001 101437  7.1748e+000  1.7216e+001  1.1109e+000 31249 101232,101310,101284
 5.0000e-001 101414  7.3125e+000  2.9339e+001 -2.0674e+000 31249 101336,101388,101362
 5.0000e-001 101578  6.9217e+000  3.2901e+001 -1.9034e+000 31249 101336,101310,101552
 5.0000e-001 101601  3.9666e+000  1.9645e+001  3.9645e+000 31249 101336,101552,101206
 5.0000e-001 101751  2.0315e+000  7.0551e+001 -1.3084e+000 30515 101774,101650,101624
 5.0000e-001 101728  1.2754e+001  7.5369e+001 -2.9729e+000 30515 101846,101774,101624
 5.0000e-001 101800  6.0821e+000  7.0800e+001 -1.8905e-001 30515 101676,101650,101774
 5.0000e-001 101823  1.3291e+001  6.4370e+001 -1.5254e+000 30515 101676,101774,101702
 5.0000e-001 101872  2.3301e+000  5.2440e+001 -6.2487e+000 30515 101702,101774,101846
 5.0000e-001 102557 -6.4771e-001  1.8177e+001 -1.0802e+000 29947 102652,102580,102266
 5.0000e-001 102534  2.7650e-001  2.1740e+001  1.4707e+000 29947 102580,102136,102370
 5.0000e-001 102511 -1.9450e+000  1.4672e+001  4.0202e-001 29947 102724,102652,102266
 5.0000e-001 102488  1.5735e+000  1.5212e+001 -1.3870e+000 29947 102724,102266,102240
 5.0000e-001 102465  3.4183e+000  2.4030e+001 -2.7467e+000 29947 102796,102318,102292
 5.0000e-001 102442  1.4659e+001  1.5901e+001 -2.6030e+000 29947 102162,102214,102188
 5.0000e-001 102419  4.5677e+000  1.4008e+001 -1.3631e+000 29947 102162,102240,102214
 5.0000e-001 102396  4.6667e+000  2.5603e+001  5.1627e+000 29947 102318,102370,102344
 5.0000e-001 102606 -1.5528e+000  9.5057e+000 -2.6711e+000 29947 102292,102266,102580
 5.0000e-001 102629  2.3742e+000  1.9810e+001 -2.7183e+000 29947 102796,102292,102580
 5.0000e-001 102678 -2.5672e+000  1.5058e+001  1.7581e+000 29947 102136,102580,102652
 5.0000e-001 102701 -6.3787e-001  7.8318e+000  3.4041e+000 29947 102136,102652,102162
 5.0000e-001 102750  3.5836e+000  1.5072e+001  8.5819e-001 29947 102162,102652,102724
 5.0000e-001 102773  4.6770e+000  1.3725e+001 -9.5801e-001 29947 102162,102724,102240
 5.0000e-001 102822  3.6925e+000  1.9218e+001 -8.3904e-001 29947 102370,102318,102796
 5.0000e-001 102845  3.9122e+000  1.7324e+001 -3.3364e-001 29947 102370,102796,102580
 5.0000e-001 103044  3.3265e+000  9.5386e+000  1.9663e+000 29450 102868,102920,102894
 5.0000e-001 103021  1.4112e+000  7.9748e+000  2.7081e+000 29450 102868,102972,102920
 5.0000e-001 102998  7.3394e-001  4.2988e+000  2.9122e+000 29450 102920,102972,102946
 5.0000e-001 103292  1.0191e+001  1.3935e+001  3.0742e+000 29060 103315,103171,103119
 5.0000e-001 103269  8.0760e+000  1.5211e+001  4.9771e+000 29060 103315,103119,103067
 5.0000e-001 103246  1.9587e+001  1.9022e+001  1.1374e+000 29060 103119,103171,103145
 5.0000e-001 103223  2.1437e+001  7.4657e+000  9.5796e+000 29060 103067,103119,103093
 5.0000e-001 103341  1.0319e+001  1.5729e+001  3.1206e+000 29060 103197,103171,103315
 5.0000e-001 103364  1.0291e+001  2.0600e+001  4.7360e+000 29060 103197,103315,103067
 5.0000e-001 104002  2.5430e+000  1.7247e+001  8.6822e-002 28599 104097,104025,103708
 5.0000e-001 103979  5.0570e+000  2.3003e+001  2.8974e+000 28599 104169,104025,103656
 5.0000e-001 103956  3.9972e+000  1.5289e+001  4.8012e-001 28599 104097,103708,103682
 5.0000e-001 103933  6.2671e+000  2.2539e+001  2.7639e+000 28599 104169,103656,103630
 5.0000e-001 103910  1.1242e+001  3.5892e+001  4.3252e+000 28599 103760,103812,103786
 5.0000e-001 103887 -1.3542e+000  1.9069e+001  9.8605e+000 28599 103630,103838,103812
 5.0000e-001 103864 -2.0844e+000  2.7589e+001 -1.0359e+000 28599 103708,103760,103734
 5.0000e-001 104051  3.9916e+000  2.4871e+001  1.1469e+000 28599 103760,103708,104025
 5.0000e-001 104074  6.8345e+000  2.3348e+001  5.4054e+000 28599 103760,104025,103812
 5.0000e-001 104123  2.7246e+000  2.2786e+001  1.0233e+000 28599 103656,104025,104097
 5.0000e-001 104146  2.1783e+000  1.8249e+001  2.0618e+000 28599 103656,104097,103682
 5.0000e-001 104195  4.1564e+000  2.2623e+001  3.2720e+000 28599 103812,104025,104169
 5.0000e-001 104218  5.1601e+000  2.2143e+001  3.0205e+000 28599 103812,104169,103630
 5.0000e-001 104596  2.4323e+001  2.3751e+001  3.2086e-001 28344 104619,104374,104322
 5.0000e-001 104573  2.2535e+001  2.2156e+001  1.5924e+000 28344 104619,104322,104478
 5.0000e-001 104550  3.0781e+001  2.5670e+001 -2.3314e+000 28344 104322,104374,104348
 5.0000e-001 104527  2.2426e+001  5.3519e+001 -1.1117e+001 28344 104400,104452,104426
 5.0000e-001 104504  1.3263e+001  2.4079e+001 -3.5697e+000 28344 104374,104452,104400
 5.0000e-001 104645  2.4289e+001  2.6035e+001 -2.0956e+000 28344 104452,104374,104619
 5.0000e-001 104668  2.1659e+001  2.4163e+001 -6.9740e-001 28344 104452,104619,104478
 5.0000e-001 104987  6.3477e+000  2.2823e+001  2.9230e-002 27947 104713,104843,104765
 5.0000e-001 104964  4.3471e+000  2.3128e+001 -8.9874e-001 27947 104713,104869,104843
 5.0000e-001 104941  4.1724e+000  2.1254e+001 -6.8377e-001 27947 104765,104843,104791
 5.0000e-001 104918  1.0744e-001  8.8989e+000  7.8394e-001 27947 104791,104843,104817
 5.0000e-001 104895  6.5120e+000  2.6967e+001  4.1093e+000 27947 104713,104765,104739
 5.0000e-001 105367  6.9129e+000  1.3404e+001  3.6590e+000 27443 105390,105197,105119
 5.0000e-001 105344  4.7395e+000  1.1531e+001  1.6245e+000 27443 105390,105119,105093
 5.0000e-001 105321  3.8617e+000  1.3229e+001  3.7759e+000 27443 105119,105197,105145
 5.0000e-001 105298  1.1201e+001  8.8444e+000  4.2808e+000 27443 105197,105249,105223
 5.0000e-001 105275  4.8784e+000  1.9324e+001  8.5116e+000 27443 105145,105197,105171
 5.0000e-001 105416  8.6273e+000  1.0833e+001  1.2843e+000 27443 105249,105197,105390
 5.0000e-001 105439  5.3019e+000  7.7157e+000 -9.1176e-001 27443 105249,105390,105093
 5.0000e-001 105994  1.3626e+001  2.9452e+001  2.9344e+000 27096 106161,106017,105700
 5.0000e-001 105971  7.6821e+000  2.3883e+001  1.1216e+000 27096 106305,106017,105648
 5.0000e-001 105948  1.2433e+001  2.3399e+001 -7.2821e-001 27096 106089,105804,105778
 5.0000e-001 105925  1.3311e+001  3.1378e+001  4.0149e+000 27096 106161,105700,105674
 5.0000e-001 105902  9.3239e+000  2.5296e+001  5.1901e-003 27096 106233,105726,105700
 5.0000e-001 105879  5.2204e-001  2.2354e+001  1.3909e+000 27096 106305,105648,105622
 5.0000e-001 105856  8.3955e+000  2.8616e+001 -4.5395e-001 27096 105726,105778,105752
 5.0000e-001 106043  9.7484e+000  2.5878e+001  2.8946e-001 27096 106233,105700,106017
 5.0000e-001 106066  1.0668e+001  2.7835e+001  7.5157e-002 27096 106089,105778,106017
 5.0000e-001 106115  9.3809e+000  2.1760e+001 -3.0331e+000 27096 105830,105804,106089
 5.0000e-001 106138  9.0705e+000  2.3668e+001 -1.3016e+000 27096 106377,106089,106017
 5.0000e-001 106187  1.2737e+001  2.6363e+001  2.2689e-001 27096 105648,106017,106161
 5.0000e-001 106210  1.3252e+001  3.1205e+001  7.7028e-001 27096 105648,106161,105674
 5.0000e-001 106259  8.7340e+000  2.6166e+001  3.8103e-001 27096 105778,105726,106233
 5.0000e-001 106282  9.2302e+000  2.6737e+001  6.9783e-001 27096 105778,106233,106017
 5.0000e-001 106331  9.1781e+000  2.3262e+001 -9.1444e-001 27096 106377,106017,106305
 5.0000e-001 106354  8.1559e+000  2.5982e+001 -7.5745e-001 27096 105830,106305,105622
 5.0000e-001 106403  8.4084e+000  2.3074e+001 -1.0261e+000 27096 105830,106089,106377
 5.0000e-001 106426  8.4919e+000  2.2856e+001 -6.6322e-001 27096 105830,106377,106305
 5.0000e-001 106625  1.2619e+000  2.1232e+001  3.1174e+000 26684 106475,106553,106527
 5.0000e-001 106602 -1.2107e+000  1.7888e+001  1.9790e+000 26684 106449,106553,106475
 5.0000e-001 106579 -8.3000e+000  2.1290e+001 -3.5351e+000 26684 106475,106527,106501
 5.0000e-001 107084  4.2999e+000  2.4174e+001  3.7507e+000 26244 107107,106914,106862
 5.0000e-001 107061  5.1241e+000  2.6809e+001  3.8032e+000 26244 107107,106862,106836
 5.0000e-001 107038  5.4201e-001  3.2856e+001  1.2142e+000 26244 106810,106966,106836
 5.0000e-001 107015  1.5139e+000  1.7103e+001  3.0627e+000 26244 106862,106914,106888
 5.0000e-001 106992 -1.1701e+000  1.4663e+001  3.4189e+000 26244 106914,106966,106940
 5.0000e-001 107133  4.1284e+000  2.1894e+001  3.7199e-001 26244 106966,106914,107107
 5.0000e-001 107156  6.2432e+000  2.7037e+001  4.6287e-001 26244 106966,107107,106836
 5.0000e-001 107662 -3.8453e+000  2.2707e+001 -5.9665e-001 25904 107365,107495,107391
 5.0000e-001 107639  4.2033e+000  2.1532e+001 -1.3463e+000 25904 107365,107521,107495
 5.0000e-001 107616  4.1145e+000  2.5695e+001 -1.4920e-001 25904 107391,107469,107443
 5.0000e-001 107593  2.4716e+000  2.5452e+001  3.3157e-002 25904 107391,107495,107469
 5.0000e-001 107570  5.4602e+000  2.7665e+001 -9.6620e-001 25904 107391,107443,107417
 5.0000e-001 107547 -3.7933e+000  1.7315e+001 -6.0341e+000 25904 107339,107521,107365
 5.0000e-001 108247  1.7875e+000  2.5113e+001  8.3857e-001 25450 108270,108002,107950
 5.0000e-001 108224  7.8115e-001  2.5526e+001  1.6249e-002 25450 108270,107950,108106
 5.0000e-001 108201  5.2974e-001  2.2846e+001  3.6004e-001 25450 108342,108028,108002
 5.0000e-001 108178  1.1835e+000  2.3638e+001  9.6575e-001 25450 107950,108002,107976
 5.0000e-001 108155 -4.8625e+000  3.0182e+001  1.1703e+000 25450 107924,108106,107950
 5.0000e-001 108132  8.2720e+000  3.4329e+001 -2.1800e+000 25450 108054,108106,108080
 5.0000e-001 108296  7.7266e-001  2.3151e+001  4.7368e-001 25450 108342,108002,108270
 5.0000e-001 108319  1.2775e+000  2.5890e+001  8.3214e-001 25450 108054,108270,108106
 5.0000e-001 108368 -1.4609e+000  2.4083e+001  4.3626e-001 25450 108054,108028,108342
 5.0000e-001 108391 -2.0922e-001  2.5307e+001  9.3229e-001 25450 108054,108342,108270
 5.0000e-001 108818 -8.4816e+000  1.3824e+001  1.4195e+000 24939 108521,108677,108651
 5.0000e-001 108795 -1.6501e+001  1.0579e+001 -5.8110e+000 24939 108495,108677,108521
 5.0000e-001 108772 -3.2435e+000  1.6050e+001 -9.4439e-001 24939 108521,108651,108625
 5.0000e-001 108749 -2.1130e+000  1.2444e+001  4.0711e-001 24939 108521,108625,108599
 5.0000e-001 108726  2.8732e+000  7.1925e+000  3.7260e+000 24939 108547,108599,108573
 5.0000e-001 108703 -3.6396e+000  1.0773e+001  1.4438e+000 24939 108521,108599,108547
 5.0000e-001 109403  2.9232e+001  1.5832e+001 -5.1086e+000 24741 109158,109210,109184
 5.0000e-001 109380  2.6694e+001  1.7099e+001 -3.8121e+000 24741 109158,109262,109210
 5.0000e-001 109357  2.4822e+001  1.1046e+001 -3.7296e+000 24741 109080,109262,109158
 5.0000e-001 109334  2.2453e+001  1.4488e+001 -2.5557e+000 24741 109080,109158,109132
 5.0000e-001 109311  3.1516e+001  2.4105e+001 -6.3215e+000 24741 109210,109262,109236
 5.0000e-001 109288  2.4989e+001  1.5719e+001 -1.3522e+000 24741 109080,109132,109106
 5.0000e-001 109781  1.2937e+000  2.4619e+001 -8.2384e-001 24337 109533,109611,109559
 5.0000e-001 109758  3.7136e+000  2.4801e+001 -8.5360e-001 24337 109533,109637,109611
 5.0000e-001 109735  2.1708e+000  2.6314e+001  1.0022e+000 24337 109559,109611,109585
 5.0000e-001 109712  3.9176e+000  2.5329e+001  2.5143e+000 24337 109533,109663,109637
 5.0000e-001 109689  1.1032e+000  1.9966e+001 -1.7329e-001 24337 109507,109663,109533
 5.0000e-001 110159  1.4505e+001  1.4449e+001  2.0643e-001 23833 110182,109963,109911
 5.0000e-001 110136  1.6986e+001  1.6058e+001 -5.9473e-001 23833 110182,109911,109885
 5.0000e-001 110113  1.9448e+001  1.4242e+001  1.3573e-002 23833 109885,110041,109989
 5.0000e-001 110090  1.6629e+001  2.0644e+001  2.8193e-001 23833 109911,109963,109937
 5.0000e-001 110067  1.2318e+001  3.3482e-001 -2.6936e+000 23833 109989,110041,110015
 5.0000e-001 110208  1.5561e+001  1.4008e+001  1.1919e+000 23833 109989,109963,110182
 5.0000e-001 110231  1.6077e+001  1.4548e+001  7.1601e-001 23833 109989,110182,109885
 5.0000e-001 110332 -8.5783e-001  3.4884e+001 -2.2087e+000 23429 110254,110306,110280
 5.0000e-001 110580 -2.1764e+000  2.2473e+001 -4.4234e+000 22825 110603,110407,110381
 5.0000e-001 110557  5.0714e+000  2.5503e+001 -4.1123e+000 22825 110603,110381,110485
 5.0000e-001 110534  7.7511e+000  3.0793e+001 -1.1648e+000 22825 110433,110485,110459
 5.0000e-001 110511  1.2590e+001  2.3461e+001 -1.7276e+000 22825 110355,110485,110381
 5.0000e-001 110629  2.4906e-001  2.3149e+001  3.6024e-001 22825 110433,110407,110603
 5.0000e-001 110652  4.1114e+000  2.4559e+001  6.1327e-001 22825 110433,110603,110485
 5.0000e-001 110902  1.0516e+001  2.6132e+001 -4.0523e-001 22428 110703,110755,110729
 5.0000e-001 110879  1.0334e+001  2.6041e+001 -3.5041e-001 22428 110703,110781,110755
 5.0000e-001 110856  6.6358e-001  2.1315e+001 -3.4347e+000 22428 110703,110807,110781
 5.0000e-001 110833  3.2387e+000  2.7627e+001 -2.4914e+000 22428 110677,110807,110703
 5.0000e-001 111284  3.3295e+001  4.1503e+001  8.2664e+000 22138 111088,111140,111114
 5.0000e-001 111261  2.1974e+001  3.7564e+001  9.3620e+000 22138 111062,111140,111088
 5.0000e-001 111238  3.1205e+001  5.9731e+001  9.9501e+000 22138 111036,111140,111062
 5.0000e-001 111215  1.6956e+001  3.4872e+001  2.4514e+000 22138 111010,111140,111036
 5.0000e-001 111192  2.3295e+001  3.8891e+001  3.3784e-001 22138 111010,111166,111140
 5.0000e-001 111385 -5.3220e+000  2.4512e+001  5.2546e+000 21826 111307,111359,111333
 5.0000e-001 111731 -7.5945e+000  2.8015e+001  4.0353e+000 21264 111754,111538,111434
 5.0000e-001 111708 -7.9650e-001  3.0547e+001  2.9075e-001 21264 111754,111434,111408
 5.0000e-001 111685 -9.4946e+000  3.1603e+001  3.0516e+000 21264 111434,111538,111460
 5.0000e-001 111662 -2.2567e+001  2.5960e+001  5.4603e+000 21264 111460,111538,111486
 5.0000e-001 111639  3.6206e+000  2.4222e+001  1.1660e+001 21264 111408,111590,111564
 5.0000e-001 111616 -2.9345e+001  4.2641e+001  1.3200e+001 21264 111486,111538,111512
 5.0000e-001 111780 -9.9562e+000  2.7311e+001  5.9758e+000 21264 111564,111538,111754
 5.0000e-001 111803 -7.4371e+000  2.3639e+001  3.6534e+000 21264 111564,111754,111408
 5.0000e-001 111955  1.9529e+001  3.4524e+001 -9.6689e-001 20860 111978,111906,111880
 5.0000e-001 111932  2.3938e+001  3.9435e+001 -2.6502e-002 20860 112110,111828,111906
 5.0000e-001 112004  2.2229e+001  3.9685e+001  1.5207e-002 20860 112110,111906,111978
 5.0000e-001 112136  2.4750e+001  3.9277e+001 -1.0746e+000 20860 111854,111828,112110
 5.0000e-001 112159  2.3281e+001  3.9836e+001 -1.1338e+000 20860 111854,112110,111978
 5.0000e-001 112407  2.5568e+001  4.4453e+001 -9.2944e+000 20320 112182,112286,112208
 5.0000e-001 112384  1.9107e+001  4.1697e+001 -8.7122e+000 20320 112182,112312,112286
 5.0000e-001 112361  4.2343e+001  2.3874e+001 -1.3943e+001 20320 112208,112286,112260
 5.0000e-001 112338  4.9621e+001  2.4122e+001 -1.2769e+001 20320 112208,112260,112234
 5.0000e-001 112655  2.0552e+001  3.2437e+001  2.4097e+000 19916 112508,112560,112534
 5.0000e-001 112632  2.6074e+001  4.0945e+001  4.9778e+000 19916 112430,112560,112508
 5.0000e-001 112609  3.3137e+001  3.3982e+001  1.6600e+001 19916 112430,112508,112456
 5.0000e-001 112586  3.6053e+001  2.2831e+001  1.6947e+001 19916 112456,112508,112482
 5.0000e-001 112807  6.9137e+000  2.5330e+001  9.8494e-002 19626 112680,112732,112706
 5.0000e-001 112784  8.3611e+000  2.5570e+001 -6.4402e-001 19626 112680,112758,112732
 5.0000e-001 113008  3.8582e+000  3.2291e+001 -8.9407e-001 19165 112858,112936,112884
 5.0000e-001 112985 -9.4463e-001  4.0893e+001 -3.9141e+000 19165 112832,112936,112858
 5.0000e-001 112962  5.3742e-001  3.2363e+001  1.4916e+000 19165 112884,112936,112910
 5.0000e-001 113209  5.5628e+000  2.5500e+001  9.9657e-001 18596 113033,113085,113059
 5.0000e-001 113186  7.7859e+000  2.7265e+001  1.9050e-001 18596 113033,113111,113085
 5.0000e-001 113163  4.2515e+000  2.0966e+001  4.6677e+000 18596 113033,113137,113111
 5.0000e-001 113481 -2.9992e+000  2.5952e+001  4.1060e-001 18348 113256,113308,113282
 5.0000e-001 113458  2.8298e+000  2.9649e+001 -1.2362e+000 18348 113256,113386,113308
 5.0000e-001 113435  6.0349e-001  2.3504e+001 -1.0719e+000 18348 113308,113386,113360
 5.0000e-001 113412  3.8748e+000  2.5943e+001  3.0418e-003 18348 113308,113360,113334
 5.0000e-001 113753  1.4646e+000  2.5697e+001 -1.8940e-001 17830 113554,113606,113580
 5.0000e-001 113730  1.8196e+000  2.5020e+001  2.9105e-001 17830 113528,113606,113554
 5.0000e-001 113707  1.2258e+000  2.3461e+001 -6.9467e-001 17830 113528,113658,113606
 5.0000e-001 113684  6.6208e+000  2.6667e+001  8.1111e-001 17830 113606,113658,113632
 5.0000e-001 113954 -3.3439e+000  6.8882e+000 -3.1262e+000 17326 113778,113830,113804
 5.0000e-001 113931  7.8067e-001 -1.6743e-001 -4.0087e+000 17326 113778,113882,113830
 5.0000e-001 113908  3.7833e+000  4.4009e-001 -1.3610e+000 17326 113830,113882,113856
 5.0000e-001 114106 -3.0840e+000  2.6799e+001 -1.1616e+000 16870 113979,114031,114005
 5.0000e-001 114083  1.8888e+000  2.4695e+001 -2.6211e+000 16870 113979,114057,114031
 5.0000e-001 114461  2.2308e+001  4.1367e+001 -1.1665e+001 16266 114236,114288,114262
 5.0000e-001 114438  1.9719e+001  2.3051e+001 -1.4691e+000 16266 114236,114366,114288
 5.0000e-001 114415  2.2292e+001  2.8224e+001  2.4987e+000 16266 114288,114340,114314
 5.0000e-001 114392  2.3549e+001  2.8147e+001  2.3654e-001 16266 114288,114366,114340
 5.0000e-001 114562 -4.2082e+000  3.8133e+001  0.0000e+000 15830 114484,114536,114510
 5.0000e-001 114663  1.1306e+001 -1.1420e+001 -7.6927e+000 15151 114585,114637,114611
 5.0000e-001 114886  2.0947e+000  2.7549e+001 -2.5588e+000 417 114762,114814,114788
 5.0000e-001 114863  3.7706e+000  3.1781e+001 -2.3298e+000 417 114710,114814,114762
 5.0000e-001 114840  2.2818e+000  3.0311e+001 -1.6096e+000 417 114710,114762,114736
 6.0000e-001 66549 -1.0088e+001  2.0219e+001  8.0244e+000 66104 66350,66454,66428
 6.0000e-001 66526 -9.3756e-001  2.4797e+001  3.5919e+000 66104 66324,66454,66350
 6.0000e-001 66503 -5.3957e-001  3.6353e+001  3.9510e+000 66104 66350,66428,66402
 6.0000e-001 66480 -8.4503e+000  2.6405e+001  4.4596e-001 66104 66350,66402,66376
 6.0000e-001 66947  4.2589e+000 -2.1406e+001 -5.5325e+000 65906 66699,66829,66803
 6.0000e-001 66924  1.3759e+000 -2.8181e+001 -3.9219e-001 65906 66673,66829,66699
 6.0000e-001 66901  2.5217e+000  4.5913e+000 -5.8602e-001 65906 66725,66777,66751
 6.0000e-001 66878 -6.3553e+000 -3.9669e-001 -2.9520e+000 65906 66725,66803,66777
 6.0000e-001 66855  8.6443e-001 -1.4447e+001 -4.1211e+000 65906 66699,66803,66725
 6.0000e-001 67146  5.1787e-001  3.2687e-002  4.8346e-001 65708 67022,67074,67048
 6.0000e-001 67123  2.0239e-001  7.3245e-001  2.4053e-001 65708 66970,67074,67022
 6.0000e-001 67100  5.7804e-001  9.5756e-001  7.8955e-002 65708 66970,67022,66996
 6.0000e-001 67477 -1.8417e+000  1.2415e+000 -3.5498e+000 65418 67278,67356,67330
 6.0000e-001 67454  2.1344e+000  5.0404e+000 -1.9638e+000 65418 67278,67382,67356
 6.0000e-001 67431  5.8479e+000  9.1727e+000 -8.6512e+000 65418 67278,67330,67304
 6.0000e-001 67408  7.0469e-001  2.5814e+000 -1.3792e+000 65418 67252,67382,67278
 6.0000e-001 68111 -2.3757e+000  1.7665e+001  8.7780e+000 65014 67791,67921,67869
 6.0000e-001 68088 -1.2511e+001  1.3445e+001  7.2548e+000 65014 67765,67921,67791
 6.0000e-001 68065  2.4858e+001  2.7170e+001  1.8201e+001 65014 67869,67921,67895
 6.0000e-001 68042  7.2206e+000  1.4084e+001  5.6581e+000 65014 67765,67947,67921
 6.0000e-001 68019 -5.9973e+000  1.0722e+001  1.0202e+001 65014 67791,67869,67817
 6.0000e-001 67996 -1.0761e+001  1.5748e+001  4.0044e+000 65014 67817,67869,67843
 6.0000e-001 67973  3.0707e+000  6.3959e+000 -9.9035e-001 65014 67739,67947,67765
 6.0000e-001 68359 -1.0410e+000  9.9325e+000  5.8058e-001 64816 68186,68238,68212
 6.0000e-001 68336 -9.9014e-001  5.7014e+000  1.1042e+000 64816 68186,68264,68238
 6.0000e-001 68313  2.0653e-001  6.0624e+000 -5.6390e-001 64816 68160,68264,68186
 6.0000e-001 68290  5.2047e-001  4.3573e+000  1.3715e+000 64816 68134,68264,68160
 6.0000e-001 68509  6.1016e+000  1.9452e+001  1.9475e+000 64362 68864,68532,68434
 6.0000e-001 68486  1.1411e+001  2.9496e+001  4.2904e+000 64362 68532,68408,68382
 6.0000e-001 68558  1.3168e+001  3.2794e+001 -3.9746e-001 64362 68736,68532,68460
 6.0000e-001 68581  7.5121e+000  2.7339e+001  5.9578e+000 64362 68604,68532,68382
 6.0000e-001 68630  9.8345e+000  3.7649e+001  4.1271e+000 64362 68460,68532,68604
 6.0000e-001 68762  5.9076e+000  2.2711e+001  4.4865e+000 64362 68434,68532,68736
 6.0000e-001 68890  1.6481e+001  3.1833e+001  6.4436e+000 64362 68408,68532,68864
 6.0000e-001 69168  4.6177e+000  2.8207e+001 -4.9475e+000 64164 69018,69070,69044
 6.0000e-001 69145 -3.5457e-001  2.0183e+001 -2.6836e+000 64164 68992,69070,69018
 6.0000e-001 69122  1.7208e+000  2.3392e+001  1.7631e+000 64164 68992,69096,69070
 6.0000e-001 69367  3.5848e+000  1.5260e+001  1.4010e+000 63966 69462,69390,69269
 6.0000e-001 69344  8.8033e+000  3.4491e+001 -3.3003e+000 63966 69390,69243,69217
 6.0000e-001 69321  2.1744e+000  2.1089e+001 -3.8234e+000 63966 69191,69295,69217
 6.0000e-001 69416  9.9872e+000  2.5862e+001 -1.3274e+000 63966 69295,69269,69390
 6.0000e-001 69439  5.5901e+000  2.2255e+001 -4.3212e+000 63966 69295,69390,69217
 6.0000e-001 69488  1.3842e+001  3.6234e+001  5.1838e+000 63966 69243,69390,69462
 6.0000e-001 69900 -6.3486e+000  1.4963e+001  2.7890e+000 63676 69701,69779,69727
 6.0000e-001 69877 -2.2608e+000  1.6123e+001  2.7585e+000 63676 69675,69779,69701
 6.0000e-001 69854  1.2720e+000  1.8336e+001  1.6536e+000 63676 69675,69805,69779
 6.0000e-001 69831 -2.0617e+001  3.5735e+001  8.9605e+000 63676 69727,69779,69753
 6.0000e-001 70050  6.7591e-001  1.9367e+001  9.6295e-001 63472 70073,69949,69923
 6.0000e-001 70027 -6.1945e+000  1.8281e+001  8.5256e-001 63472 70073,69923,70001
 6.0000e-001 70099  5.6391e+000  1.9097e+001  1.4102e+000 63472 69975,69949,70073
 6.0000e-001 70122 -2.8247e-001  1.8671e+001  1.3362e+000 63472 69975,70073,70001
 6.0000e-001 70321 -6.2338e+000  5.6624e+000 -6.4209e+000 63274 70145,70223,70171
 6.0000e-001 70298  4.8938e-001  1.1007e+001 -2.4485e+000 63274 70145,70249,70223
 6.0000e-001 70275 -3.5676e+000  2.5174e+001 -1.0306e+001 63274 70171,70223,70197
 6.0000e-001 70593 -2.5145e+000  1.3645e+001 -3.4308e+000 63076 70368,70472,70420
 6.0000e-001 70570 -7.8604e-002  1.7446e+001 -2.2969e+000 63076 70368,70498,70472
 6.0000e-001 70547 -9.6364e+000  1.6751e+001  5.9728e+000 63076 70420,70472,70446
 6.0000e-001 70524  3.0520e+000  1.7795e+001 -8.9368e+000 63076 70368,70420,70394
 6.0000e-001 70843 -8.8149e+000  8.2876e-002  1.4413e+000 62736 70866,70644,70618
 6.0000e-001 70820 -1.3499e+001 -2.5681e+000  3.6849e+000 62736 70866,70618,70748
 6.0000e-001 70797 -4.9136e+000  9.3621e-001  6.0901e+000 62736 70644,70722,70696
 6.0000e-001 70774 -3.9550e+000  1.3872e+001  7.8878e+000 62736 70644,70696,70670
 6.0000e-001 70892 -1.3798e+001  1.2048e+000  3.2390e+000 62736 70722,70644,70866
 6.0000e-001 70915 -1.6784e+001 -6.7055e-001  5.6030e+000 62736 70722,70866,70748
 6.0000e-001 71018 -2.5288e+000  2.8090e+000  1.4682e+000 62516 70940,70992,70966
 6.0000e-001 71219  6.0410e+000  1.3782e+001  2.4037e-001 62226 71069,71147,71095
 6.0000e-001 71196  1.0889e+001  1.3241e+001 -3.6468e+000 62226 71043,71147,71069
 6.0000e-001 71173  2.3636e+001  1.0652e+001 -1.1173e+000 62226 71095,71147,71121
 6.0000e-001 71857  2.1008e+000  8.3767e+000  7.3923e-001 61708 71511,71693,71667
 6.0000e-001 71834  8.7119e-001  5.7465e+000 -6.2977e-002 61708 71485,71693,71511
 6.0000e-001 71811 -1.1847e+000  1.3355e+001 -8.5628e-001 61708 71880,71537,71511
 6.0000e-001 71788  3.1318e+000  8.9849e+000  1.0118e+000 61708 71880,71511,71667
 6.0000e-001 71765 -1.5358e+001  1.6271e+001  1.0744e+001 61708 71537,71615,71589
 6.0000e-001 71742  5.8874e+000  1.5794e+001  3.9560e+000 61708 71615,71667,71641
 6.0000e-001 71719  5.6582e+001  4.6185e+001  8.5529e+000 61708 71537,71589,71563
 6.0000e-001 71906  1.4189e+000  1.6419e+001  2.5453e-001 61708 71615,71537,71880
 6.0000e-001 71929  5.9482e+000  1.2703e+001  2.2536e+000 61708 71615,71880,71667
 6.0000e-001 72226 -1.7199e+001  2.6878e+001 -1.0716e+001 61204 72249,72056,72004
 6.0000e-001 72203 -2.6095e+001  1.6092e+001 -1.5202e+001 61204 72249,72004,71978
 6.0000e-001 72180 -3.6800e+000  6.7405e+000 -1.8831e+001 61204 71978,72108,72082
 6.0000e-001 72157  7.6452e-001  3.6706e+001 -6.6386e+000 61204 72004,72056,72030
 6.0000e-001 72134 -1.7998e+001 -8.6252e+000 -2.5334e+001 61204 71952,72108,71978
 6.0000e-001 72275 -8.8740e+000  1.8048e+001 -5.5302e+000 61204 72082,72056,72249
 6.0000e-001 72298 -1.5686e+001  1.2518e+001 -8.5580e+000 61204 72082,72249,71978
 6.0000e-001 72757  1.2497e+001  2.6369e+001 -2.2773e+000 60800 72483,72613,72509
 6.0000e-001 72734  1.8573e+001  2.9348e+001 -5.5499e+000 60800 72483,72639,72613
 6.0000e-001 72711  1.1724e+001  3.6436e+001  4.4513e-001 60800 72561,72613,72587
 6.0000e-001 72688  9.9373e+000  2.6278e+001 -3.1368e+000 60800 72509,72613,72561
 6.0000e-001 72665  2.0456e+001  4.7046e+001 -1.3983e+001 60800 72509,72561,72535
 6.0000e-001 72907 -3.7964e+000  4.5322e+000 -2.4440e+000 60552 72780,72832,72806
 6.0000e-001 72884  7.4502e+000  2.8281e+001 -6.7988e+000 60552 72780,72858,72832
 6.0000e-001 73464 -5.9732e+000  1.2737e+001  7.0665e+000 60240 73487,73222,73196
 6.0000e-001 73441  2.5908e-002  2.0524e+001  2.7201e+000 60240 73559,73487,73196
 6.0000e-001 73418 -5.0885e+000  2.3887e+001  2.9851e+000 60240 73559,73196,73170
 6.0000e-001 73395  9.5267e+000  6.4511e-001  2.4411e+000 60240 73222,73274,73248
 6.0000e-001 73372 -1.4138e+001  5.1391e+000 -9.0393e+000 60240 73118,73300,73274
 6.0000e-001 73349 -7.6556e+000  2.5617e+001 -8.0029e+000 60240 73092,73300,73118
 6.0000e-001 73326 -5.1968e+000  3.2261e+001  4.7192e-001 60240 73118,73170,73144
 6.0000e-001 73513  1.6105e-001  1.6712e+001  3.5397e+000 60240 73274,73222,73487
 6.0000e-001 73536 -9.3065e-001  1.9811e+001 -1.3516e+000 60240 73274,73487,73118
 6.0000e-001 73585 -6.1865e+000  1.5878e+001  6.8960e-001 60240 73118,73487,73559
 6.0000e-001 73608 -1.0619e+001  1.9872e+001  1.2258e+000 60240 73118,73559,73170
 6.0000e-001 73758 -3.2720e+001 -9.8722e+000 -5.5729e+000 59871 73657,73709,73683
 6.0000e-001 73735 -5.6227e+000 -3.5533e+001 -9.5538e-001 59871 73631,73709,73657
 6.0000e-001 74187 -5.9035e-001  4.2578e+001 -4.9924e-001 59474 74210,73890,73864
 6.0000e-001 74164  1.7320e+000  4.5659e+001 -1.5657e+000 59474 74210,73864,74046
 6.0000e-001 74141  3.3855e+000  3.3207e+001 -5.7910e-001 59474 73890,73942,73916
 6.0000e-001 74118 -9.1892e-001  3.8381e+001  1.7649e-001 59474 73890,73994,73942
 6.0000e-001 74095  1.3206e+000  4.6698e+001  4.9880e+000 59474 73994,74046,74020
 6.0000e-001 74072 -1.6465e+001  2.9991e+001 -8.2692e+000 59474 73942,73994,73968
 6.0000e-001 74236  2.0621e+000  3.9593e+001  1.5699e-001 59474 73994,73890,74210
 6.0000e-001 74259  3.4510e+000  4.1531e+001 -6.1623e-001 59474 73994,74210,74046
 6.0000e-001 74716  2.3691e+000  1.6802e+001 -7.7678e+000 58770 74468,74598,74494
 6.0000e-001 74693  1.0248e+001  7.8929e+000 -1.4765e+001 58770 74442,74598,74468
 6.0000e-001 74670 -1.2771e+000 -8.9538e-002 -4.0728e+000 58770 74494,74572,74520
 6.0000e-001 74647  4.3692e+000  1.1639e+000 -4.5181e+000 58770 74494,74598,74572
 6.0000e-001 74624  1.8169e+000  4.5253e-001 -8.3631e-001 58770 74520,74572,74546
 6.0000e-001 75222 -3.5629e+000  2.8964e+001 -4.3493e+000 58266 74951,75081,75029
 6.0000e-001 75199 -2.9605e+000  4.0243e+001 -3.9682e+000 58266 74925,75081,74951
 6.0000e-001 75176  5.1547e+000  2.5578e+001 -1.3646e+001 58266 75029,75081,75055
 6.0000e-001 75153 -5.5916e+000  3.3281e+001 -2.8066e+000 58266 74951,75003,74977
 6.0000e-001 75130 -7.4238e+000  2.6756e+001 -7.0294e-001 58266 74951,75029,75003
 6.0000e-001 75107 -1.9834e+001  2.2873e+001 -1.6381e+001 58266 74899,75081,74925
 6.0000e-001 75421  1.8166e+001  5.0823e+001 -3.7214e+000 57826 75444,75297,75245
 6.0000e-001 75398  2.7787e+001  4.4397e+001 -2.1537e+000 57826 75444,75245,75349
 6.0000e-001 75375  2.5080e+001  4.7471e+001 -4.8773e+000 57826 75516,75297,75271
 6.0000e-001 75470  2.3344e+001  5.0574e+001  2.4373e+000 57826 75323,75297,75444
 6.0000e-001 75493  3.5993e+001  5.0574e+001  6.1869e+000 57826 75323,75444,75349
 6.0000e-001 75542  1.3034e+001  4.4149e+001 -4.0216e-001 57826 75245,75297,75516
 6.0000e-001 76257  9.0142e+000  2.9451e+001 -5.2535e+000 57422 76280,76093,76067
 6.0000e-001 76234  1.3962e+001  2.5568e+001 -2.0718e-001 57422 75885,76093,75911
 6.0000e-001 76211  1.6777e+001  3.4945e+001 -1.6527e+000 57422 76424,76280,76067
 6.0000e-001 76188  1.3856e+001  3.5724e+001  3.3150e+000 57422 76352,75937,75911
 6.0000e-001 76165  1.6870e+001  3.0193e+001 -1.2824e+000 57422 76424,76067,76015
 6.0000e-001 76142  2.1097e+001  4.9071e+001  5.5665e+000 57422 76015,76067,76041
 6.0000e-001 76119  1.9157e+001  2.9190e+001 -3.4082e+000 57422 75963,76015,75989
 6.0000e-001 76306  1.0514e+001  3.0771e+001  1.3267e+000 57422 75911,76093,76280
 6.0000e-001 76329  1.6814e+001  3.1219e+001  1.7669e+000 57422 76352,75911,76280
 6.0000e-001 76378  1.8939e+001  4.2681e+001  7.2689e+000 57422 75963,75937,76352
 6.0000e-001 76401  2.0373e+001  3.7924e+001  5.0440e+000 57422 75963,76352,76280
 6.0000e-001 76450  1.5449e+001  3.0272e+001 -5.6879e-001 57422 75963,76280,76424
 6.0000e-001 76473  1.7306e+001  2.7518e+001 -9.3610e-001 57422 75963,76424,76015
 6.0000e-001 76949 -6.1993e+000  3.7224e+000  8.4730e+000 56904 76972,76707,76681
 6.0000e-001 76926 -1.2750e-001  2.1854e+001  2.7264e+000 56904 77044,76972,76681
 6.0000e-001 76903  4.6350e+000  2.7460e+001  5.8672e-001 56904 77044,76681,76629
 6.0000e-001 76880 -1.1092e+001  5.0785e+001 -1.1998e+001 56904 76707,76785,76759
 6.0000e-001 76857 -5.7898e+000  3.2132e+001 -1.1321e+001 56904 76577,76785,76603
 6.0000e-001 76834  1.3375e+001  7.8134e+001  1.9999e+001 56904 76707,76759,76733
 6.0000e-001 76811  6.2195e+000  2.0003e+001  1.4012e+001 56904 76629,76681,76655
 6.0000e-001 76998 -1.0539e+001  9.8158e+000 -1.0233e+001 56904 76785,76707,76972
 6.0000e-001 77021  1.3958e-001  3.6907e+001 -8.2913e+000 56904 76785,76972,76603
 6.0000e-001 77070  7.4862e+000  1.7172e+001  3.4000e-001 56904 76603,76972,77044
 6.0000e-001 77093  9.6130e+000  1.9613e+001 -8.0319e-001 56904 76603,77044,76629
 6.0000e-001 77471  7.1481e+000  4.2603e+001  5.6400e+000 56542 77566,77494,77275
 6.0000e-001 77448  1.6329e+000  3.9323e+001 -5.5034e-001 56542 77494,77223,77353
 6.0000e-001 77425  1.1421e+001  4.8290e+001  4.0228e-001 56542 77566,77275,77249
 6.0000e-001 77402  1.5029e+001  4.0251e+001  1.0104e+001 56542 77197,77353,77223
 6.0000e-001 77379  5.3579e+000  2.8464e+001 -7.5319e+000 56542 77275,77327,77301
 6.0000e-001 77520  2.0395e+000  4.0278e+001  2.8036e+000 56542 77327,77275,77494
 6.0000e-001 77543 -1.0920e+001  4.1545e+001  3.4548e-001 56542 77327,77494,77353
 6.0000e-001 77592  1.0347e+001  4.5885e+001 -4.0131e+000 56542 77223,77494,77566
 6.0000e-001 77615  1.6314e+001  6.1021e+001 -8.7931e+000 56542 77223,77566,77249
 6.0000e-001 77814  1.7786e+001  1.8655e+001 -3.7329e+000 56038 77837,77690,77664
 6.0000e-001 77791  1.2399e+001  9.7812e+000  1.1679e+001 56038 77837,77664,77742
 6.0000e-001 77768  4.2444e+001  6.9482e+001  2.6009e+001 56038 77638,77742,77664
 6.0000e-001 77863  2.4990e+001  3.1475e+001 -9.4458e+000 56038 77716,77690,77837
 6.0000e-001 77886  1.8218e+001  2.0797e+001  6.1797e+000 56038 77716,77837,77742
 6.0000e-001 78345  1.1207e+001  3.6697e+001  1.2299e+001 55534 78071,78123,78097
 6.0000e-001 78322 -1.1165e+000  3.0287e+001 -3.7600e-001 55534 78071,78201,78123
 6.0000e-001 78299 -1.3893e-001  5.0303e+001 -2.0655e-001 55534 78071,78227,78201
 6.0000e-001 78276  7.1882e+000  2.8873e+001 -3.8749e+000 55534 78123,78175,78149
 6.0000e-001 78253  5.2634e+000  2.7333e+001 -3.0492e+000 55534 78123,78201,78175
 6.0000e-001 78802 -1.2303e+001  2.7559e+001 -3.2439e+000 55030 78825,78632,78606
 6.0000e-001 78779 -2.9140e+000  2.5550e+001 -7.5105e+000 55030 78897,78825,78606
 6.0000e-001 78756 -1.7540e+001  2.9497e+001 -1.1430e+001 55030 78897,78606,78580
 6.0000e-001 78733  1.6580e+000  2.1475e+001 -6.9582e+000 55030 78554,78684,78658
 6.0000e-001 78710  6.5434e+000  3.3691e+001 -3.0499e+000 55030 78528,78684,78554
 6.0000e-001 78851  3.8340e-001  4.8984e+001  5.2671e+000 55030 78658,78632,78825
 6.0000e-001 78874 -3.9477e+000  2.1792e+001 -8.2756e+000 55030 78658,78825,78554
 6.0000e-001 78923 -1.5137e+001  1.5225e+001 -1.6822e+001 55030 78554,78825,78897
 6.0000e-001 78946 -2.1205e+001  2.1480e+001 -2.1685e+001 55030 78554,78897,78580
 6.0000e-001 79403 -1.0713e+000  1.9176e+001 -1.4843e+000 54426 79426,79233,79155
 6.0000e-001 79380 -4.0030e+000  2.2359e+001  3.0690e+000 54426 79426,79155,79129
 6.0000e-001 79357 -1.3778e+001  3.7697e+001 -1.4252e+001 54426 79233,79285,79259
 6.0000e-001 79334  9.5907e+000  1.8479e+001 -3.4378e+000 54426 79181,79233,79207
 6.0000e-001 79311  1.0101e+001  1.9014e+001 -2.7610e+000 54426 79155,79233,79181
 6.0000e-001 79452  2.7823e-001  2.3302e+001 -1.0194e+000 54426 79285,79233,79426
 6.0000e-001 79475 -1.5136e+000  2.9222e+001  2.6145e+000 54426 79285,79426,79129
 6.0000e-001 79932 -2.7665e+000  1.8443e+001  2.7350e+000 53915 79658,79762,79684
 6.0000e-001 79909  5.6910e+000  1.8746e+001 -2.4022e-001 53915 79658,79814,79762
 6.0000e-001 79886  9.5265e+000  1.8107e+001  5.3721e+000 53915 79762,79814,79788
 6.0000e-001 79863 -6.2374e-001  2.5125e+001  6.1714e+000 53915 79710,79762,79736
 6.0000e-001 79840  2.4932e+000  2.0983e+001  1.9683e+000 53915 79684,79762,79710
 6.0000e-001 80033  3.3686e+000  3.6144e+001 -1.5710e+000 53667 79955,80007,79981
 6.0000e-001 80401  3.5668e+000  2.9516e+001 -4.0808e+000 53263 80104,80260,80234
 6.0000e-001 80378  3.3241e+000  3.5321e+001 -1.2227e+000 53263 80078,80260,80104
 6.0000e-001 80355  8.4327e+000  2.7033e+001 -1.6336e+000 53263 80104,80234,80130
 6.0000e-001 80332  9.0032e+000  3.1368e+001 -5.5409e-001 53263 80130,80208,80182
 6.0000e-001 80309  1.1157e+001  2.9849e+001  9.6881e-001 53263 80130,80234,80208
 6.0000e-001 80286  1.0262e+001  3.8834e+001  2.0518e+000 53263 80130,80182,80156
 6.0000e-001 80911  3.8897e+000  1.4950e+001 -6.7257e+000 52965 80640,80770,80744
 6.0000e-001 80888  1.3720e+001  3.1038e+001 -2.5201e+000 52965 80614,80770,80640
 6.0000e-001 80865  1.1744e+001  2.4804e+001 -1.1235e+000 52965 80640,80744,80666
 6.0000e-001 80842  5.6349e+000  1.6451e+001 -1.6293e+001 52965 80588,80770,80614
 6.0000e-001 80819  1.2917e+001  1.7292e+001 -2.0792e+000 52965 80666,80718,80692
 6.0000e-001 80796  5.3358e+000  1.4152e+001 -3.8179e+000 52965 80666,80744,80718
 6.0000e-001 81262 -1.2573e+001  1.7546e+001  8.6410e-001 52561 81037,81141,81063
 6.0000e-001 81239 -1.9044e+001  1.2626e+001  4.1905e+000 52561 81037,81167,81141
 6.0000e-001 81216 -3.4603e+001  1.6018e+001 -1.5290e+000 52561 81063,81115,81089
 6.0000e-001 81193 -3.4272e+001  9.4634e+000 -5.7435e+000 52561 81063,81141,81115
 6.0000e-001 81719  3.1997e+000  1.1614e+001  3.4546e+000 51900 81445,81523,81471
 6.0000e-001 81696  4.7068e+000  1.3333e+001  2.0481e+000 51900 81445,81575,81523
 6.0000e-001 81673  1.1055e+000  1.7218e+001  3.8316e-001 51900 81445,81601,81575
 6.0000e-001 81650  7.0478e+000  1.3195e+001  2.1767e+000 51900 81523,81575,81549
 6.0000e-001 81627  8.0989e+000  1.2777e+001  3.6080e+000 51900 81471,81523,81497
 6.0000e-001 82323  9.9390e-001  8.6707e+000  2.3484e+000 51317 82418,82346,82032
 6.0000e-001 82300 -4.3899e+000  1.3148e+001  5.6597e+000 51317 82490,82346,81954
 6.0000e-001 82277 -1.0341e-001  9.0129e+000 -6.2464e-001 51317 82418,82032,82006
 6.0000e-001 82254 -1.2278e+001  9.6955e+000  6.2489e+000 51317 82490,81954,81928
 6.0000e-001 82231 -1.0147e+001  5.6155e+000  1.0096e+000 51317 82058,82110,82084
 6.0000e-001 82208 -1.8700e+001  1.7889e+001 -5.7051e-001 51317 81928,82136,82110
 6.0000e-001 82185  1.1077e+001  6.2362e+000  1.3658e+000 51317 81954,82006,81980
 6.0000e-001 82162 -1.6949e+001  1.8492e+001 -8.9597e+000 51317 81902,82136,81928
 6.0000e-001 82372 -3.7644e+000  6.0196e+000  5.6734e-001 51317 82058,82032,82346
 6.0000e-001 82395 -7.6335e+000  1.2258e+001  1.1914e+000 51317 82058,82346,82110
 6.0000e-001 82444  5.2016e+000  1.0235e+001  1.9654e+000 51317 81954,82346,82418
 6.0000e-001 82467  4.5823e+000  1.0763e+001 -9.8862e-001 51317 81954,82418,82006
 6.0000e-001 82516 -7.5113e+000  1.2519e+001  1.3509e+000 51317 82110,82346,82490
 6.0000e-001 82539 -8.6516e+000  1.2026e+001  1.4050e+000 51317 82110,82490,81928
 6.0000e-001 83015  1.3980e+000  3.3017e+001  2.3272e+000 50813 82669,82747,82695
 6.0000e-001 82992 -5.8544e+000  1.3744e+001  2.0781e+000 50813 83038,82669,82851
 6.0000e-001 82969 -5.7717e+000  1.4797e+001  2.1657e+000 50813 83038,82851,82799
 6.0000e-001 82946 -2.2194e+001  1.2190e+001  1.1979e+001 50813 82747,82799,82773
 6.0000e-001 82923 -3.7009e+000  9.7126e+000 -3.5436e+000 50813 82643,82851,82669
 6.0000e-001 82900 -1.0965e+001  3.2561e+000  3.4036e+000 50813 82799,82851,82825
 6.0000e-001 82877  1.3375e+000  2.9858e+001  1.6198e-001 50813 82695,82747,82721
 6.0000e-001 83064 -6.1534e+000  1.4618e+001  1.4551e+000 50813 82747,82669,83038
 6.0000e-001 83087 -6.1947e+000  1.5571e+001  1.6630e+000 50813 82747,83038,82799
 6.0000e-001 83286  4.4410e+000  1.0494e+001 -2.7530e-002 50352 83309,83162,83136
 6.0000e-001 83263  8.0597e+000  1.2030e+001  7.7768e-001 50352 83511,83309,83136
 6.0000e-001 83240  1.1943e+001  1.5224e+001  3.7237e+000 50352 83511,83136,83381
 6.0000e-001 83335  6.1640e+000  1.2221e+001 -1.0567e+000 50352 83188,83162,83309
 6.0000e-001 83358  1.4612e+000  7.6871e+000 -4.2605e+000 50352 83188,83309,83214
 6.0000e-001 83407  1.4277e+001  2.2655e+001  4.8675e+000 50352 83110,83214,83381
 6.0000e-001 83537  2.3707e+000  1.4528e+001 -1.6121e+000 50352 83214,83309,83511
 6.0000e-001 83560  3.4289e+000  1.3774e+001  4.7680e-001 50352 83214,83511,83381
 6.0000e-001 83889  1.1017e+001  3.1759e+001 -4.1385e-001 49548 83716,83794,83742
 6.0000e-001 83866  1.2613e+001  3.0897e+001  1.5008e+000 49548 83690,83794,83716
 6.0000e-001 83843  6.4386e+000  2.7766e+001  1.1593e-001 49548 83664,83794,83690
 6.0000e-001 83820  1.1327e+001  3.6242e+001 -2.3895e+000 49548 83742,83794,83768
 6.0000e-001 84137  1.6447e+000  1.6073e+001 -3.7431e+000 49208 84160,84016,83938
 6.0000e-001 84114  8.8614e+000  3.3487e+001  5.1675e+000 49208 84160,83938,83912
 6.0000e-001 84091  1.0355e+001  1.5399e+001 -5.6084e+000 49208 83938,84016,83964
 6.0000e-001 84068  8.8590e+000  1.7021e+000 -3.7761e+000 49208 83964,84016,83990
 6.0000e-001 84186 -6.9478e+000  2.0371e+001 -1.3966e+001 49208 84042,84016,84160
 6.0000e-001 84209  5.4453e-001  3.1348e+001 -5.4695e+000 49208 84042,84160,83912
 6.0000e-001 84796  3.6057e+000  5.1102e+000 -6.9381e-001 48861 84499,84629,84551
 6.0000e-001 84773  5.9570e+000  6.0946e+000 -6.2633e-002 48861 84499,84655,84629
 6.0000e-001 84750  3.5396e+000  6.0594e+000  1.5647e+000 48861 84551,84629,84577
 6.0000e-001 84727  1.1621e+001  4.5497e+000  1.3104e+000 48861 84577,84629,84603
 6.0000e-001 84704  6.9211e+000  5.9197e+000 -5.2758e-001 48861 84499,84551,84525
 6.0000e-001 84681  6.6198e+000  7.3311e+000 -1.2124e+000 48861 84473,84655,84499
 6.0000e-001 85351  2.6520e+001  3.7149e+001 -1.2787e+001 48457 85374,85031,85005
 6.0000e-001 85328  1.1099e+001  2.1344e+001 -5.6751e+000 48457 85374,85005,85161
 6.0000e-001 85305  7.3904e+000  2.5949e+001 -4.1437e+000 48457 85446,85057,85031
 6.0000e-001 85282  1.2539e+001  2.1483e+001 -5.1650e+000 48457 85005,85187,85161
 6.0000e-001 85259  1.1368e+001  1.8061e+001  9.6089e-001 48457 85083,85161,85109
 6.0000e-001 85236  1.8856e+001  1.9761e+001 -9.1062e+000 48457 84979,85187,85005
 6.0000e-001 85213  1.4341e+001  1.6844e+001 -3.4127e+000 48457 85109,85161,85135
 6.0000e-001 85400  9.6080e+000  2.7889e+001 -4.9780e+000 48457 85446,85031,85374
 6.0000e-001 85423  1.2337e+001  2.6588e+001 -1.9343e+000 48457 85083,85374,85161
 6.0000e-001 85472  1.0058e+001  2.1828e+001 -9.3751e-001 48457 85083,85057,85446
 6.0000e-001 85495  1.2593e+001  2.3656e+001 -1.7911e+000 48457 85083,85446,85374
 6.0000e-001 86080  4.4253e+000  1.7844e+001 -4.3341e+000 48053 86319,86103,85783
 6.0000e-001 86057  2.6109e+000  1.7962e+001 -4.7679e+000 48053 86103,85757,85939
 6.0000e-001 86034  2.6640e+000  1.5426e+001 -8.3315e+000 48053 86247,86175,85887
 6.0000e-001 86011  1.9437e+000  1.2879e+001 -7.7401e+000 48053 86247,85887,85835
 6.0000e-001 85988 -1.7416e+001  7.7908e+000 -1.1161e+001 48053 85887,85939,85913
 6.0000e-001 85965  6.7068e+000  8.7779e+000 -1.1516e+001 48053 85835,85887,85861
 6.0000e-001 86129  3.8520e+000  1.7703e+001 -5.2542e+000 48053 85809,85783,86103
 6.0000e-001 86152  4.7419e+000  1.8384e+001 -5.5507e+000 48053 86175,85809,86103
 6.0000e-001 86201  3.2792e+000  1.5716e+001 -8.1609e+000 48053 85939,85887,86175
 6.0000e-001 86224  1.7718e+000  1.4808e+001 -7.6626e+000 48053 85939,86175,86103
 6.0000e-001 86273  3.0101e+000  1.2923e+001 -6.1729e+000 48053 85809,86175,86247
 6.0000e-001 86296  2.7048e+000  1.0295e+001 -5.9813e+000 48053 85809,86247,85835
 6.0000e-001 86345  7.6128e+000  1.7942e+001 -4.7237e+000 48053 85757,86103,86319
 6.0000e-001 86851 -2.7649e-001  9.2589e+000 -1.3748e+000 47541 86874,86580,86554
 6.0000e-001 86828  5.3741e+000  1.1362e+001  8.6974e-001 47541 86946,86874,86554
 6.0000e-001 86805  5.5399e+000  9.2175e+000 -1.7934e-001 47541 86946,86554,86528
 6.0000e-001 86782 -2.2081e-001  1.7122e+001  6.3189e+000 47541 86580,86658,86606
 6.0000e-001 86759  9.3661e+000  8.2594e+000 -5.1663e-001 47541 86528,86710,86684
 6.0000e-001 86736  2.1813e+001  1.0388e+001  9.5673e+000 47541 86606,86658,86632
 6.0000e-001 86900  3.9221e+000  9.6507e+000  1.5795e+000 47541 86658,86580,86874
 6.0000e-001 86923  1.2429e+001  1.0999e+001  3.3848e+000 47541 86658,86874,86684
 6.0000e-001 86972  3.8625e+000  7.9069e+000  1.2238e+000 47541 86684,86874,86946
 6.0000e-001 86995  5.0461e+000  7.8182e+000 -2.0486e-001 47541 86684,86946,86528
 6.0000e-001 87324  1.3038e+001  2.8962e+001  3.6093e+000 47044 87151,87203,87177
 6.0000e-001 87301  1.2835e+001  2.6692e+001  1.2769e+000 47044 87125,87203,87151
 6.0000e-001 87278  1.4344e+001  2.5063e+001  2.3541e+000 47044 87099,87203,87125
 6.0000e-001 87255  1.1162e+001  2.1396e+001 -4.1986e+000 47044 87099,87229,87203
 6.0000e-001 87572  1.1064e+001  2.8313e+001  4.3202e+000 46697 87595,87425,87373
 6.0000e-001 87549  9.3440e+000  3.1042e+001  2.8684e+000 46697 87595,87373,87477
 6.0000e-001 87526  8.0334e+000  3.0065e+001  9.1422e-001 46697 87347,87477,87373
 6.0000e-001 87503  1.5171e+001  3.1785e+001  1.8070e+000 46697 87373,87425,87399
 6.0000e-001 87621  1.0097e+001  2.3414e+001  4.4591e+000 46697 87451,87425,87595
 6.0000e-001 87644  1.0328e+001  2.8337e+001  2.4204e+000 46697 87451,87595,87477
 6.0000e-001 87794 -6.0594e+000  5.8598e+001 -5.8440e+000 46235 87693,87745,87719
 6.0000e-001 87771 -5.6251e+000  2.4943e+001  2.9585e+000 46235 87667,87745,87693
 6.0000e-001 88304 -4.5116e+000  2.0848e+001 -1.9016e+000 45731 88085,88163,88137
 6.0000e-001 88281  3.6067e+000  2.5724e+001  2.8902e+000 45731 88007,88163,88085
 6.0000e-001 88258 -7.7220e+000  2.2715e+001  6.0902e+000 45731 87981,88163,88007
 6.0000e-001 88235  1.0111e+000  2.1491e+001  4.0807e+000 45731 88007,88085,88059
 6.0000e-001 88212  7.8502e+000  2.6225e+001 -6.2383e-001 45731 88085,88137,88111
 6.0000e-001 88189  3.4318e+000  2.0148e+001  8.1240e+000 45731 88007,88059,88033
 6.0000e-001 88682  2.1353e+000  3.8924e+000 -7.4296e-001 45312 88434,88512,88486
 6.0000e-001 88659 -7.4237e+000 -9.7760e+000  6.8511e+000 45312 88434,88538,88512
 6.0000e-001 88636  4.8638e+000  5.6478e+000  1.4246e+000 45312 88434,88564,88538
 6.0000e-001 88613  6.7155e+000  4.6759e+000  1.1699e-001 45312 88434,88486,88460
 6.0000e-001 88590  2.3487e+000  1.8216e+001  1.2772e+001 45312 88408,88564,88434
 6.0000e-001 88930  6.4466e+000  1.9786e+001 -3.4329e+000 44808 88953,88731,88705
 6.0000e-001 88907  3.7584e+000  1.2788e+001 -3.3816e+000 44808 88953,88705,88835
 6.0000e-001 88884  6.3057e+000  1.0649e+001  1.7086e-001 44808 89025,88783,88757
 6.0000e-001 88861  1.0408e+001  2.6581e+001  2.3361e+000 44808 88783,88835,88809
 6.0000e-001 88979  6.6165e+000  1.7202e+001  1.6568e+000 44808 88757,88731,88953
 6.0000e-001 89002  4.1621e+000  1.2270e+001  8.4338e-001 44808 89025,88757,88953
 6.0000e-001 89051  6.1120e+000  1.2662e+001 -4.0139e-001 44808 88835,88783,89025
 6.0000e-001 89074  5.7537e+000  1.6254e+001 -4.0083e-001 44808 88835,89025,88953
 6.0000e-001 89224 -7.6197e+001 -1.4917e+001  3.1565e+000 44404 89123,89175,89149
 6.0000e-001 89201 -7.3015e+001 -1.9845e+000 -9.0842e-001 44404 89097,89175,89123
 6.0000e-001 89783 -2.2759e-001  2.3902e+001 -5.7818e+000 43850 89806,89541,89515
 6.0000e-001 89760 -5.2438e+000  1.5646e+001 -1.0602e+001 43850 89806,89515,89463
 6.0000e-001 89737  6.9419e+000  1.6921e+001 -3.0313e+000 43850 89950,89878,89593
 6.0000e-001 89714  6.1818e+000  1.6972e+001 -2.0242e+000 43850 89950,89593,89567
 6.0000e-001 89691  4.0587e+000  1.1734e+001 -6.0895e+000 43850 89411,89619,89463
 6.0000e-001 89668 -1.8895e+001  2.0315e+001 -8.9118e+000 43850 89463,89515,89489
 6.0000e-001 89645  4.3705e+000  8.4671e+000 -6.4542e+000 43850 89411,89463,89437
 6.0000e-001 89832  4.9067e+000  2.4318e+001 -1.9322e+000 43850 89878,89541,89806
 6.0000e-001 89855  4.3599e+000  2.1436e+001 -7.6553e+000 43850 89619,89806,89463
 6.0000e-001 89904  5.9771e+000  1.6976e+001 -4.4311e+000 43850 89619,89593,89878
 6.0000e-001 89927 -1.2053e+000  1.6014e+001 -4.6337e+000 43850 89619,89878,89806
 6.0000e-001 89976  3.9864e+000  1.5895e+001 -8.0210e-002 43850 89541,89878,89950
 6.0000e-001 89999  1.3840e+000  1.3410e+001  1.3797e+000 43850 89541,89950,89567
 6.0000e-001 90247  1.2706e+001  5.3021e+001 -3.7711e+000 43488 90022,90074,90048
 6.0000e-001 90224 -4.9087e+000  2.9774e+001 -9.3116e-001 43488 90270,90022,90152
 6.0000e-001 90201 -4.6601e+000  2.4135e+001 -1.8234e+000 43488 90342,90270,90152
 6.0000e-001 90178 -5.5666e+000  1.8528e+001  3.3791e+000 43488 90342,90152,90126
 6.0000e-001 90296 -1.6974e+000  2.3530e+001  1.9191e+000 43488 90074,90022,90270
 6.0000e-001 90319 -4.4453e+000  2.1917e+001  1.1861e+000 43488 90074,90270,90100
 6.0000e-001 90368 -1.0185e+001  1.8083e+001  4.1873e+000 43488 90100,90270,90342
 6.0000e-001 90391 -1.1208e+001  1.1636e+001  9.3608e+000 43488 90100,90342,90126
 6.0000e-001 90590  3.7301e+000  3.3725e+001 -1.3224e+000 43048 90414,90492,90440
 6.0000e-001 90567  5.5936e+000  1.8058e+001  2.4367e+000 43048 90414,90518,90492
 6.0000e-001 90544 -8.7289e+000  4.5998e+001  5.9038e+000 43048 90440,90492,90466
 6.0000e-001 91070  1.1389e+001  2.6877e+001  5.1479e+000 42430 91237,90880,90854
 6.0000e-001 91047  1.2862e+001  2.1423e+001  6.1417e+000 42430 90698,90906,90880
 6.0000e-001 91024  1.3198e+001  3.2447e+001  2.9276e+000 42430 91093,90750,90698
 6.0000e-001 91001  1.1323e+001  2.9534e+001  5.5287e+000 42430 91237,90854,91093
 6.0000e-001 90978  1.1799e+001  2.6238e+001  2.9991e+000 42430 91165,90802,90776
 6.0000e-001 90955  1.4883e+001  3.4297e+001  4.7096e+000 42430 90802,90854,90828
 6.0000e-001 90932  1.3769e+001  3.8291e+001  4.7843e+000 42430 90698,90750,90724
 6.0000e-001 91119  1.3102e+001  2.9311e+001  7.4807e+000 42430 90776,90750,91093
 6.0000e-001 91142  1.1550e+001  2.4785e+001  5.2575e+000 42430 91165,90776,91093
 6.0000e-001 91191  1.2279e+001  2.7740e+001  3.6078e+000 42430 90854,90802,91165
 6.0000e-001 91214  1.3362e+001  2.9557e+001  5.7925e+000 42430 90854,91165,91093
 6.0000e-001 91263  1.1612e+001  2.4527e+001  3.5791e+000 42430 90698,90880,91237
 6.0000e-001 91286  1.1195e+001  2.6753e+001  3.9369e+000 42430 90698,91237,91093
 6.0000e-001 91694  3.1109e+001  2.8521e+001  2.1133e+000 41769 91469,91573,91495
 6.0000e-001 91671  1.9460e+001  2.2317e+001  4.4310e+000 41769 91469,91599,91573
 6.0000e-001 91648  2.9486e+001  3.8150e+001 -4.8115e+000 41769 91495,91547,91521
 6.0000e-001 91625  2.5109e+001  3.3581e+001  3.8981e+000 41769 91495,91573,91547
 6.0000e-001 92040  6.1705e+000  3.0039e+001 -3.5878e-001 41379 91769,91873,91847
 6.0000e-001 92017 -3.6359e+000  2.6563e+001 -2.5962e-001 41379 91743,91873,91769
 6.0000e-001 91994  1.2137e+001  3.2494e+001 -1.3851e+000 41379 91769,91847,91795
 6.0000e-001 91971 -8.6348e+000  2.3547e+001  1.0078e+000 41379 91743,91899,91873
 6.0000e-001 91948 -1.6241e+000  2.9809e+001  6.1498e+000 41379 91717,91899,91743
 6.0000e-001 91925  1.0664e+001  3.4993e+001  1.8363e+000 41379 91795,91847,91821
 6.0000e-001 92597  8.3213e+000  2.7422e+001 -1.4067e+001 40975 92225,92407,92303
 6.0000e-001 92574 -4.5994e+000  1.2564e+001 -6.8107e+000 40975 92225,92433,92407
 6.0000e-001 92551  3.5576e+000  1.1062e+001 -1.5185e+001 40975 92225,92303,92277
 6.0000e-001 92528 -1.2454e+001  2.7171e+001 -1.2085e+001 40975 92329,92407,92381
 6.0000e-001 92505 -2.5508e+001  1.0999e+001 -2.1023e+001 40975 92303,92407,92329
 6.0000e-001 92482  1.1141e+001  9.5124e-001 -3.3601e+000 40975 92225,92277,92251
 6.0000e-001 92459 -6.5449e+000  2.9285e+001 -1.1950e+001 40975 92329,92381,92355
 6.0000e-001 93231 -5.6892e+001  5.6068e+001  3.0413e+000 40521 92937,92989,92963
 6.0000e-001 93208 -7.3350e+000  2.9467e+001  5.1483e+000 40521 93254,92937,92885
 6.0000e-001 93185  2.3437e+000  3.1718e+001  7.4273e+000 40521 93254,92885,93067
 6.0000e-001 93162  4.7838e+000  3.5654e+001  2.0103e-001 40521 92885,92937,92911
 6.0000e-001 93139  5.5014e+000  2.6917e+001  6.1117e+000 40521 92859,93067,92885
 6.0000e-001 93116  7.9034e+000  2.1971e+001  7.2970e+000 40521 92989,93067,93015
 6.0000e-001 93093  1.8104e+001  1.2878e+001  8.8987e+000 40521 93015,93067,93041
 6.0000e-001 93280 -7.0509e+000  2.8991e+001  1.3180e+001 40521 92989,92937,93254
 6.0000e-001 93303  7.0686e+000  3.1372e+001  1.3784e+001 40521 92989,93254,93067
 6.0000e-001 93632 -1.2796e-001  2.9484e+001 -2.0748e+000 40231 93433,93537,93511
 6.0000e-001 93609  8.6091e+000  1.0918e+001 -1.2025e+001 40231 93407,93537,93433
 6.0000e-001 93586 -1.5097e+000  3.5232e+001  2.7570e-002 40231 93459,93511,93485
 6.0000e-001 93563 -6.6587e+000  2.6866e+001 -2.4371e+000 40231 93433,93511,93459
 6.0000e-001 94010  1.3425e+001  3.6942e+001  4.3622e+000 39869 93762,93866,93788
 6.0000e-001 93987  1.7318e+001  3.9298e+001  5.3756e+000 39869 93762,93892,93866
 6.0000e-001 93964  2.8863e-001  2.7844e+001 -1.1426e+000 39869 93788,93866,93840
 6.0000e-001 93941  7.0699e+000  3.5261e+001 -7.1093e+000 39869 93788,93840,93814
 6.0000e-001 93918  1.4409e+001  3.0178e+001  5.9935e+000 39869 93736,93892,93762
 6.0000e-001 94160  1.7552e+000  4.5818e+001 -4.9465e+000 39457 94033,94085,94059
 6.0000e-001 94137 -8.3692e+000  1.9316e+001  2.9238e+000 39457 94033,94111,94085
 6.0000e-001 94359 -6.1639e+000  2.8241e+001 -1.8763e+000 39053 94382,94235,94209
 6.0000e-001 94336  1.0976e+001  3.7879e+001 -5.7204e+000 39053 94382,94209,94183
 6.0000e-001 94313  1.0599e+001  3.5137e+001 -1.4577e+000 39053 94183,94287,94261
 6.0000e-001 94408  1.6135e+001  3.6431e+001 -4.1869e+000 39053 94454,94382,94261
 6.0000e-001 94431  8.1734e+000  3.2717e+001 -4.8869e-001 39053 94261,94382,94183
 6.0000e-001 94480  9.2537e-001  1.7259e+001  2.6351e+000 39053 94235,94382,94454
 6.0000e-001 94892 -4.3586e+000  2.0295e+001 -2.6016e+000 38392 94915,94771,94719
 6.0000e-001 94869 -1.4226e+000  2.3072e+001 -1.4496e+000 38392 94915,94719,94693
 6.0000e-001 94846 -1.3378e+000  2.2223e+001  1.3719e+001 38392 94719,94771,94745
 6.0000e-001 94823 -5.4582e+000  2.6159e+001 -1.7802e+000 38392 94667,94797,94693
 6.0000e-001 94941 -7.8517e+000  2.3048e+001 -3.8155e+000 38392 94797,94771,94915
 6.0000e-001 94964 -5.6081e+000  2.5457e+001 -2.8872e+000 38392 94797,94915,94693
 6.0000e-001 95261  2.6967e+001  3.5603e+001 -1.6707e+001 37831 95013,95065,95039
 6.0000e-001 95238  1.0170e+000  3.1482e+001 -2.9854e+000 37831 95284,95065,95013
 6.0000e-001 95215  6.4077e+000  3.2500e+001 -1.4130e+000 37831 95284,95013,94987
 6.0000e-001 95192  1.4755e+001  4.0145e+001 -1.1162e+000 37831 94987,95143,95117
 6.0000e-001 95169  2.3393e+000  3.6823e+001  3.8282e+000 37831 95065,95117,95091
 6.0000e-001 95310  4.6777e+000  3.2600e+001  3.4396e-001 37831 95117,95065,95284
 6.0000e-001 95333  8.7061e+000  3.2293e+001  1.7170e+000 37831 95117,95284,94987
 6.0000e-001 95554 -1.1946e-001  2.8471e+001 -5.4569e+000 37419 95404,95456,95430
 6.0000e-001 95531  7.8693e+000  4.6576e+001 -4.0948e+000 37419 95378,95456,95404
 6.0000e-001 95508  1.8264e+001  5.3160e+001 -7.1726e+000 37419 95378,95482,95456
 6.0000e-001 95887 -7.8286e-001  2.0263e+001  2.2965e+000 37221 95662,95714,95688
 6.0000e-001 95864 -2.6207e+000  8.5070e+000  3.2789e+000 37221 95662,95792,95714
 6.0000e-001 95841  2.9121e+001  3.0717e+001 -2.0481e+000 37221 95714,95766,95740
 6.0000e-001 95818  4.3136e+000  2.3514e+001 -1.2367e-002 37221 95714,95792,95766
 6.0000e-001 95988 -6.0918e+001  8.5652e-001 -1.0279e+001 36731 95910,95962,95936
 6.0000e-001 96138  8.4225e+000  3.5693e+001 -1.4183e-001 36327 96293,96063,96037
 6.0000e-001 96115 -6.5427e-001  2.1265e+001 -4.7451e+000 36327 96161,96037,96011
 6.0000e-001 96187  8.9324e+000  3.6213e+001  1.1193e+000 36327 96293,96037,96161
 6.0000e-001 96319  8.0707e+000  3.7332e+001  1.5064e+000 36327 96089,96063,96293
 6.0000e-001 96342  1.0207e+001  3.8614e+001  2.9701e+000 36327 96089,96293,96161
 6.0000e-001 96710  1.0188e+001  2.6234e+001  2.6006e-001 36037 96733,96491,96439
 6.0000e-001 96687  1.2192e+001  2.7535e+001  8.5452e-001 36037 96733,96439,96413
 6.0000e-001 96664  4.2369e+000  2.3351e+001 -1.9883e+000 36037 96439,96491,96465
 6.0000e-001 96641  7.0015e+000  3.0072e+001  1.5655e+000 36037 96387,96517,96413
 6.0000e-001 96618  4.8104e+000  3.1621e+001  2.6294e+000 36037 96387,96543,96517
 6.0000e-001 96595  1.5947e+001  2.4033e+001  1.0908e+001 36037 96387,96569,96543
 6.0000e-001 96759  4.6376e+000  2.7726e+001  1.2282e-001 36037 96517,96491,96733
 6.0000e-001 96782  9.6824e+000  3.0948e+001  1.5162e+000 36037 96517,96733,96413
 6.0000e-001 96932  4.3389e+001  6.1314e+001 -1.0333e+001 35633 97027,96955,96831
 6.0000e-001 96909  3.7677e+001  4.7116e+001  6.9725e+000 35633 97159,96955,96805
 6.0000e-001 96981  3.0313e+001  6.5088e+001 -4.0093e+000 35633 96857,96831,96955
 6.0000e-001 97004  2.8055e+001  6.4461e+001  3.4040e+000 35633 96857,96955,96883
 6.0000e-001 97053  3.7325e+001  4.2811e+001  9.2540e-001 35633 96805,96955,97027
 6.0000e-001 97185  4.2763e+001  6.7244e+001  1.3557e+001 35633 96883,96955,97159
 6.0000e-001 97593  2.1225e+001  6.2291e+001 -5.5378e+000 35186 97446,97498,97472
 6.0000e-001 97570  1.7753e+001  5.3864e+001 -5.6085e+000 35186 97368,97498,97446
 6.0000e-001 97547  8.1306e+000  3.7968e+001  6.5699e-002 35186 97368,97446,97394
 6.0000e-001 97524  2.2678e+001  4.4779e+001 -1.7801e+000 35186 97394,97446,97420
 6.0000e-001 98050  6.9623e+000  3.4089e+001 -7.0539e+000 34632 97802,97932,97854
 6.0000e-001 98027  4.8259e+000  8.9508e+000 -1.2621e+001 34632 97776,97932,97802
 6.0000e-001 98004 -2.0459e+000  2.2589e+001  4.4831e+000 34632 97802,97854,97828
 6.0000e-001 97981 -4.5996e+000  1.8998e+001 -1.6329e+000 34632 97880,97932,97906
 6.0000e-001 97958  7.3116e+000  3.2423e+001 -8.4037e+000 34632 97854,97932,97880
 6.0000e-001 98526  7.5145e+000  5.1371e+001 -7.6435e-001 34064 98693,98180,98362
 6.0000e-001 98503 -1.2416e+001  2.8109e+001 -1.4992e+001 34064 98154,98362,98180
 6.0000e-001 98480  1.9645e+001  3.9060e+001  1.0057e+001 34064 98549,98258,98232
 6.0000e-001 98457  7.6968e+000  5.8103e+001  3.5008e+001 34064 98549,98232,98206
 6.0000e-001 98434  1.2377e+001  5.1959e+001 -1.2746e+000 34064 98837,98621,98362
 6.0000e-001 98411  2.4590e+001  4.2984e+001  5.8424e+000 34064 98765,98284,98258
 6.0000e-001 98388  1.7803e+001  5.2249e+001 -2.3920e+000 34064 98837,98362,98336
 6.0000e-001 98575  2.4496e+001  4.5893e+001  5.5837e+000 34064 98765,98258,98549
 6.0000e-001 98598  1.1176e+001  4.3816e+001  1.9163e+000 34064 98621,98310,98549
 6.0000e-001 98647  1.1631e+001  5.2971e+001  2.0963e+000 34064 98693,98362,98621
 6.0000e-001 98670  1.8693e+001  6.0845e+001  6.2859e+000 34064 98206,98621,98549
 6.0000e-001 98719  4.4889e+000  5.4026e+001  1.3268e+000 34064 98206,98180,98693
 6.0000e-001 98742  5.3602e+000  5.2065e+001  2.2062e+000 34064 98206,98693,98621
 6.0000e-001 98791  2.4916e+001  4.6006e+001  3.6708e+000 34064 98310,98284,98765
 6.0000e-001 98814  2.4178e+001  4.7872e+001  3.2895e+000 34064 98310,98765,98549
 6.0000e-001 98863  2.0043e+001  4.8754e+001 -1.1005e+000 34064 98310,98621,98837
 6.0000e-001 98886  2.6287e+001  4.9909e+001 -2.7354e+000 34064 98310,98837,98336
 6.0000e-001 99264  1.7340e+001  2.9207e+001  2.2241e+000 33446 99287,99094,99068
 6.0000e-001 99241  1.6482e+001  3.6723e+001 -1.9198e+000 33446 99287,99068,99016
 6.0000e-001 99218 -5.5227e+000  4.3960e+001  8.4373e+000 33446 99016,99068,99042
 6.0000e-001 99195 -5.6451e+000  2.8308e+001 -8.6872e+000 33446 99016,99146,99120
 6.0000e-001 99172  2.2318e+000  5.5102e+001 -1.6369e+001 33446 98990,99146,99016
 6.0000e-001 99313  2.2990e+001  3.4104e+001 -1.4767e+000 33446 99120,99094,99287
 6.0000e-001 99336  1.7547e+001  3.9923e+001 -4.3244e+000 33446 99120,99287,99016
 6.0000e-001 99861 -7.2954e-001  3.0931e+001 -2.3012e+000 32940 100172,99956,99884
 6.0000e-001 99838  2.6852e+000  2.9151e+001  1.7812e+000 32940 100100,99884,99518
 6.0000e-001 99815  2.7155e+000  2.5291e+001 -5.9824e+000 32940 100244,99956,99622
 6.0000e-001 99792  9.4332e+000  3.4017e+001 -4.4702e-001 32940 100028,99648,99622
 6.0000e-001 99769  1.0808e+000  2.9538e+001  3.5588e+000 32940 100100,99518,99492
 6.0000e-001 99746  8.9409e+000  3.9305e+001 -4.0194e-001 32940 99570,99622,99596
 6.0000e-001 99723  1.5583e+000  2.5077e+001 -6.3382e+000 32940 100244,99622,99570
 6.0000e-001 99700  1.3519e+000  3.8313e+001  2.9189e+000 32940 99440,99492,99466
 6.0000e-001 99910  1.9056e+000  3.1659e+001 -1.9449e+000 32940 100172,99884,100028
 6.0000e-001 99933 -5.6020e+000  2.4773e+001  3.4859e+000 32940 99674,99884,99440
 6.0000e-001 99982 -2.3768e+000  2.1450e+001 -5.7228e-001 32940 99518,99884,99956
 6.0000e-001 100005 -1.1525e+000  1.2372e+001 -8.3831e+000 32940 99518,99956,99544
 6.0000e-001 100054 -3.8336e-001  3.4886e+001  7.0169e-001 32940 99674,99648,100028
 6.0000e-001 100077 -2.1169e+000  3.3341e+001  1.3799e+000 32940 99674,100028,99884
 6.0000e-001 100126 -4.9916e-001  2.8125e+001  1.9182e+000 32940 99440,99884,100100
 6.0000e-001 100149 -1.5079e+000  2.9039e+001  3.5206e+000 32940 99440,100100,99492
 6.0000e-001 100198  1.3669e+000  3.1550e+001 -9.1059e-002 32940 99622,99956,100172
 6.0000e-001 100221  2.0131e+000  3.1610e+001  4.6867e-001 32940 99622,100172,100028
 6.0000e-001 100270  4.5270e+000  2.4931e+001 -5.5809e+000 32940 99544,99956,100244
 6.0000e-001 100293  3.5132e+000  2.4838e+001 -5.9185e+000 32940 99544,100244,99570
 6.0000e-001 100750  5.7895e+000  3.6056e+001 -7.1927e+000 32365 100773,100580,100502
 6.0000e-001 100727  1.3539e+000  2.8608e+001 -1.9476e+000 32365 100773,100502,100632
 6.0000e-001 100704 -3.4448e+000  2.4618e+001 -3.9710e+000 32365 100476,100632,100502
 6.0000e-001 100681  1.2964e+001  4.1943e+001 -9.0475e+000 32365 100528,100580,100554
 6.0000e-001 100658  1.3923e+001  4.5770e+001 -1.2741e+001 32365 100502,100580,100528
 6.0000e-001 100799 -7.5095e-003  4.5677e+001 -9.3734e+000 32365 100606,100580,100773
 6.0000e-001 100822 -2.5381e+000  3.8544e+001 -5.1135e+000 32365 100606,100773,100632
 6.0000e-001 101021 -5.9853e-001  2.8703e+001 -4.0987e-001 31853 100871,100923,100897
 6.0000e-001 100998  1.9542e+000  2.8710e+001 -2.4972e-001 31853 100871,100949,100923
 6.0000e-001 100975  3.8866e+000  3.2164e+001  9.0362e-001 31853 100845,100949,100871
 6.0000e-001 101529  3.7667e+000  2.1103e+001  5.9216e+000 31249 101552,101310,101232
 6.0000e-001 101506  9.3077e-001  7.3226e+000  1.3929e+001 31249 101552,101232,101206
 6.0000e-001 101483  8.9941e+000  3.5384e+001  3.3223e+000 31249 101206,101388,101336
 6.0000e-001 101460  6.4107e+000  2.2220e+001  5.3447e-001 31249 101232,101284,101258
 6.0000e-001 101437  6.5939e+000  1.7996e+001  3.5506e+000 31249 101232,101310,101284
 6.0000e-001 101414  5.2984e+000  3.4326e+001 -2.9599e+000 31249 101336,101388,101362
 6.0000e-001 101578  6.2001e+000  3.9349e+001 -1.4124e+000 31249 101336,101310,101552
 6.0000e-001 101601  1.3205e+000  2.1726e+001  6.3860e+000 31249 101336,101552,101206
 6.0000e-001 101751 -1.3387e+000  8.1590e+001 -1.3919e+000 30515 101774,101650,101624
 6.0000e-001 101728  1.2147e+001  8.7210e+001 -3.2087e+000 30515 101846,101774,101624
 6.0000e-001 101800  3.7492e+000  8.3136e+001  1.8122e-001 30515 101676,101650,101774
 6.0000e-001 101823  1.1672e+001  7.4122e+001 -1.0587e+000 30515 101676,101774,101702
 6.0000e-001 101872 -3.8259e-001  5.9426e+001 -6.7045e+000 30515 101702,101774,101846
 6.0000e-001 102557 -1.2600e+000  2.0084e+001 -1.7333e+000 29947 102652,102580,102266
 6.0000e-001 102534 -4.1287e-001  2.3842e+001  2.0097e-001 29947 102580,102136,102370
 6.0000e-001 102511 -2.4817e+000  1.6760e+001 -2.5920e-001 29947 102724,102652,102266
 6.0000e-001 102488  9.6984e-001  1.7363e+001 -2.0093e+000 29947 102724,102266,102240
 6.0000e-001 102465  3.8514e+000  2.4938e+001 -3.4748e+000 29947 102796,102318,102292
 6.0000e-001 102442  1.6742e+001  1.9093e+001 -3.0789e+000 29947 102162,102214,102188
 6.0000e-001 102419  4.2212e+000  1.6522e+001 -1.7497e+000 29947 102162,102240,102214
 6.0000e-001 102396  5.7317e+000  2.6718e+001  4.0081e+000 29947 102318,102370,102344
 6.0000e-001 102606 -2.1229e+000  9.8456e+000 -3.5604e+000 29947 102292,102266,102580
 6.0000e-001 102629  2.3965e+000  2.1259e+001 -3.8479e+000 29947 102796,102292,102580
 6.0000e-001 102678 -3.4695e+000  1.7079e+001  8.5108e-001 29947 102136,102580,102652
 6.0000e-001 102701 -1.3285e+000  1.0303e+001  2.5798e+000 29947 102136,102652,102162
 6.0000e-001 102750  2.9404e+000  1.7069e+001  1.5890e-001 29947 102162,102652,102724
 6.0000e-001 102773  4.0204e+000  1.5815e+001 -1.6022e+000 29947 102162,102724,102240
 6.0000e-001 102822  4.8405e+000  2.0660e+001 -1.8001e+000 29947 102370,102318,102796
 6.0000e-001 102845  4.6664e+000  1.9233e+001 -1.6646e+000 29947 102370,102796,102580
 6.0000e-001 103044 -3.5788e-001  8.3849e+000  2.3842e+000 29450 102868,102920,102894
 6.0000e-001 103021 -2.1394e+000  7.7795e+000  2.9824e+000 29450 102868,102972,102920
 6.0000e-001 102998 -3.1187e+000  1.7911e+000  3.4048e+000 29450 102920,102972,102946
 6.0000e-001 103292  1.0029e+001  1.5235e+001  2.7865e+000 29060 103315,103171,103119
 6.0000e-001 103269  7.3643e+000  1.7168e+001  5.4962e+000 29060 103315,103119,103067
 6.0000e-001 103246  2.1534e+001  2.1582e+001  3.1695e-001 29060 103119,103171,103145
 6.0000e-001 103223  2.3854e+001  8.0782e+000  1.1201e+001 29060 103067,103119,103093
 6.0000e-001 103341  9.7718e+000  1.7996e+001  3.0969e+000 29060 103197,103171,103315
 6.0000e-001 103364  1.0382e+001  2.5223e+001  5.5456e+000 29060 103197,103315,103067
 6.0000e-001 104002  1.0580e-001  1.7302e+001 -3.8572e+000 28599 104097,104025,103708
 6.0000e-001 103979  5.6623e+000  2.6776e+001  1.9570e+000 28599 104169,104025,103656
 6.0000e-001 103956  5.9056e+000  1.2256e+001 -3.0803e+000 28599 104097,103708,103682
 6.0000e-001 103933  8.5247e+000  2.6748e+001  2.0549e+000 28599 104169,103656,103630
 6.0000e-001 103910  1.4166e+001  4.7004e+001  3.2626e+000 28599 103760,103812,103786
 6.0000e-001 103887 -3.7388e+000  2.2270e+001  1.1163e+001 28599 103630,103838,103812
 6.0000e-001 103864 -5.4775e+000  3.5643e+001 -3.8625e+000 28599 103708,103760,103734
 6.0000e-001 104051  1.8970e+000  3.0581e+001 -1.2897e+000 28599 103760,103708,104025
 6.0000e-001 104074  6.9502e+000  2.8466e+001  5.3226e+000 28599 103760,104025,103812
 6.0000e-001 104123  4.4774e+000  2.7524e+001 -1.1611e+000 28599 103656,104025,104097
 6.0000e-001 104146  7.8725e+000  1.8591e+001  1.9610e-002 28599 103656,104097,103682
 6.0000e-001 104195  3.6188e+000  2.7139e+001  2.7792e+000 28599 103812,104025,104169
 6.0000e-001 104218  5.5968e+000  2.6622e+001  2.4863e+000 28599 103812,104169,103630
 6.0000e-001 104596  2.7756e+001  2.8184e+001  1.0607e-001 28344 104619,104374,104322
 6.0000e-001 104573  2.6523e+001  2.6246e+001  2.1409e+000 28344 104619,104322,104478
 6.0000e-001 104550  3.6836e+001  3.0532e+001 -3.6137e+000 28344 104322,104374,104348
 6.0000e-001 104527  2.5372e+001  6.9593e+001 -1.2945e+001 28344 104400,104452,104426
 6.0000e-001 104504  1.2923e+001  3.0261e+001 -3.3492e+000 28344 104374,104452,104400
 6.0000e-001 104645  2.8124e+001  3.1091e+001 -1.9523e+000 28344 104452,104374,104619
 6.0000e-001 104668  2.6216e+001  2.9030e+001  2.3512e-001 28344 104452,104619,104478
 6.0000e-001 104987  8.8850e+000  2.4562e+001 -6.2044e-001 27947 104713,104843,104765
 6.0000e-001 104964  7.3327e+000  2.4591e+001 -1.1401e+000 27947 104713,104869,104843
 6.0000e-001 104941  6.3824e+000  2.3537e+001 -9.3904e-001 27947 104765,104843,104791
 6.0000e-001 104918  2.3498e+000  1.0992e+001  7.1827e-001 27947 104791,104843,104817
 6.0000e-001 104895  9.3880e+000  2.8946e+001  2.8313e+000 27947 104713,104765,104739
 6.0000e-001 105367  6.1564e+000  1.5400e+001  3.9106e+000 27443 105390,105197,105119
 6.0000e-001 105344  2.8736e+000  1.2848e+001  1.4068e+000 27443 105390,105119,105093
 6.0000e-001 105321  2.0975e+000  1.3997e+001  4.5531e+000 27443 105119,105197,105145
 6.0000e-001 105298  1.1900e+001  9.4328e+000  4.3462e+000 27443 105197,105249,105223
 6.0000e-001 105275  3.3240e+000  2.1109e+001  1.0068e+001 27443 105145,105197,105171
 6.0000e-001 105416  8.6665e+000  1.2027e+001  5.5219e-001 27443 105249,105197,105390
 6.0000e-001 105439  3.8442e+000  7.8924e+000 -2.1957e+000 27443 105249,105390,105093
 6.0000e-001 105994  1.3940e+001  3.5398e+001  4.4264e+000 27096 106161,106017,105700
 6.0000e-001 105971  5.4708e+000  2.7254e+001  1.5059e+000 27096 106305,106017,105648
 6.0000e-001 105948  1.3468e+001  2.6463e+001 -1.4184e+000 27096 106089,105804,105778
 6.0000e-001 105925  1.3081e+001  3.8647e+001  6.6096e+000 27096 106161,105700,105674
 6.0000e-001 105902  8.9495e+000  2.8975e+001  7.6696e-001 27096 106233,105726,105700
 6.0000e-001 105879 -6.8054e+000  2.4741e+001  2.0484e+000 27096 106305,105648,105622
 6.0000e-001 105856  8.8081e+000  3.1927e+001 -1.8312e-002 27096 105726,105778,105752
 6.0000e-001 106043  8.6963e+000  2.9643e+001  1.1462e+000 27096 106233,105700,106017
 6.0000e-001 106066  1.0561e+001  3.2189e+001 -1.0386e-001 27096 106089,105778,106017
 6.0000e-001 106115  8.7994e+000  2.4047e+001 -4.3092e+000 27096 105830,105804,106089
 6.0000e-001 106138  7.9149e+000  2.6666e+001 -1.9926e+000 27096 106377,106089,106017
 6.0000e-001 106187  1.1830e+001  3.0463e+001  3.2053e-001 27096 105648,106017,106161
 6.0000e-001 106210  1.1809e+001  3.7883e+001  1.7523e+000 27096 105648,106161,105674
 6.0000e-001 106259  9.1332e+000  2.9824e+001  7.2667e-001 27096 105778,105726,106233
 6.0000e-001 106282  8.8098e+000  3.0355e+001  1.1571e+000 27096 105778,106233,106017
 6.0000e-001 106331  7.8403e+000  2.6109e+001 -1.7882e+000 27096 106377,106017,106305
 6.0000e-001 106354  6.6074e+000  3.1194e+001 -1.7430e+000 27096 105830,106305,105622
 6.0000e-001 106403  7.5663e+000  2.5968e+001 -1.6344e+000 27096 105830,106089,106377
 6.0000e-001 106426  7.6161e+000  2.5818e+001 -1.4005e+000 27096 105830,106377,106305
 6.0000e-001 106625 -3.5041e+000  2.3386e+001  3.6423e+000 26684 106475,106553,106527
 6.0000e-001 106602 -6.0226e+000  1.9495e+001  2.4005e+000 26684 106449,106553,106475
 6.0000e-001 106579 -1.3769e+001  2.4082e+001 -4.5910e+000 26684 106475,106527,106501
 6.0000e-001 107084  5.5958e+000  2.9623e+001  7.3973e+000 26244 107107,106914,106862
 6.0000e-001 107061  6.3384e+000  3.4355e+001  8.2257e+000 26244 107107,106862,106836
 6.0000e-001 107038 -3.4633e-001  4.2491e+001  3.4175e+000 26244 106810,106966,106836
 6.0000e-001 107015  4.6615e+000  1.7307e+001  9.1275e+000 26244 106862,106914,106888
 6.0000e-001 106992 -3.6782e+000  1.5706e+001  5.4078e+000 26244 106914,106966,106940
 6.0000e-001 107133  4.1239e+000  2.5132e+001  1.4146e+000 26244 106966,106914,107107
 6.0000e-001 107156  7.6931e+000  3.4499e+001  2.4140e+000 26244 106966,107107,106836
 6.0000e-001 107662 -4.2831e+000  2.4413e+001 -9.5090e-001 25904 107365,107495,107391
 6.0000e-001 107639  5.9569e+000  2.4084e+001 -2.2206e+000 25904 107365,107521,107495
 6.0000e-001 107616  4.7087e+000  2.7489e+001 -2.0604e-001 25904 107391,107469,107443
 6.0000e-001 107593  3.3119e+000  2.7712e+001 -2.0551e-001 25904 107391,107495,107469
 6.0000e-001 107570  6.1640e+000  2.9984e+001 -9.0585e-001 25904 107391,107443,107417
 6.0000e-001 107547 -2.2128e+000  1.9626e+001 -7.8679e+000 25904 107339,107521,107365
 6.0000e-001 108247  1.4042e+000  2.7745e+001  1.1545e+000 25450 108270,108002,107950
 6.0000e-001 108224  4.1701e-001  2.8501e+001 -3.1833e-002 25450 108270,107950,108106
 6.0000e-001 108201  4.2484e-001  2.4418e+001  6.2607e-001 25450 108342,108028,108002
 6.0000e-001 108178 -3.7080e-001  2.5677e+001  2.1775e+000 25450 107950,108002,107976
 6.0000e-001 108155 -7.3650e+000  3.3726e+001  1.1531e+000 25450 107924,108106,107950
 6.0000e-001 108132  9.4575e+000  3.8747e+001 -2.9845e+000 25450 108054,108106,108080
 6.0000e-001 108296  2.3539e-001  2.5205e+001  8.0227e-001 25450 108342,108002,108270
 6.0000e-001 108319  7.4112e-001  2.8473e+001  7.5813e-001 25450 108054,108270,108106
 6.0000e-001 108368 -1.1322e+000  2.6317e+001  4.7761e-001 25450 108054,108028,108342
 6.0000e-001 108391 -2.9052e-001  2.8151e+001  1.0630e+000 25450 108054,108342,108270
 6.0000e-001 108818 -1.2614e+001  1.6444e+001  2.2949e+000 24939 108521,108677,108651
 6.0000e-001 108795 -2.2786e+001  1.0244e+001 -6.1312e+000 24939 108495,108677,108521
 6.0000e-001 108772 -1.3005e+001  1.6259e+001  4.8077e-002 24939 108521,108651,108625
 6.0000e-001 108749 -3.7138e+000  1.9428e+001 -1.5223e+000 24939 108521,108625,108599
 6.0000e-001 108726  4.7304e+000  6.0632e+000  1.6435e+000 24939 108547,108599,108573
 6.0000e-001 108703 -7.5090e+000  9.7621e+000 -1.0601e+000 24939 108521,108599,108547
 6.0000e-001 109403  3.1791e+001  1.5584e+001 -6.9325e+000 24741 109158,109210,109184
 6.0000e-001 109380  3.0514e+001  1.8425e+001 -4.7548e+000 24741 109158,109262,109210
 6.0000e-001 109357  2.7160e+001  1.0046e+001 -5.3644e+000 24741 109080,109262,109158
 6.0000e-001 109334  2.4896e+001  1.4977e+001 -4.2085e+000 24741 109080,109158,109132
 6.0000e-001 109311  3.4386e+001  2.6287e+001 -7.3506e+000 24741 109210,109262,109236
 6.0000e-001 109288  2.7176e+001  1.6331e+001 -3.1365e+000 24741 109080,109132,109106
 6.0000e-001 109781  2.6652e+000  2.6320e+001 -9.7687e-001 24337 109533,109611,109559
 6.0000e-001 109758  5.2234e+000  2.6372e+001 -9.4249e-001 24337 109533,109637,109611
 6.0000e-001 109735  3.5347e+000  2.8115e+001  9.8660e-001 24337 109559,109611,109585
 6.0000e-001 109712  5.7155e+000  2.7000e+001  2.2487e+000 24337 109533,109663,109637
 6.0000e-001 109689  1.9809e+000  2.1248e+001 -5.8413e-001 24337 109507,109663,109533
 6.0000e-001 110159  1.6162e+001  1.6767e+001 -6.6846e-001 23833 110182,109963,109911
 6.0000e-001 110136  1.8190e+001  1.7797e+001 -1.0219e+000 23833 110182,109911,109885
 6.0000e-001 110113  2.1915e+001  1.5984e+001 -7.8600e-001 23833 109885,110041,109989
 6.0000e-001 110090  1.7599e+001  2.1955e+001 -2.1795e-001 23833 109911,109963,109937
 6.0000e-001 110067  1.4701e+001  1.3257e+000 -3.1604e+000 23833 109989,110041,110015
 6.0000e-001 110208  1.7096e+001  1.6656e+001  1.3466e-001 23833 109989,109963,110182
 6.0000e-001 110231  1.7617e+001  1.6944e+001  8.4958e-003 23833 109989,110182,109885
 6.0000e-001 110332  8.4814e-001  3.5708e+001 -2.1919e+000 23429 110254,110306,110280
 6.0000e-001 110580  1.7493e+001  4.2424e+001 -6.1854e+000 22825 110603,110407,110381
 6.0000e-001 110557  1.5082e+001  4.0600e+001 -1.6228e+000 22825 110603,110381,110485
 6.0000e-001 110534  1.5050e+001  4.8912e+001 -3.9980e+000 22825 110433,110485,110459
 6.0000e-001 110511  2.2549e+001  3.2268e+001  2.6203e-001 22825 110355,110485,110381
 6.0000e-001 110629  1.8587e+001  4.7468e+001 -8.3330e+000 22825 110433,110407,110603
 6.0000e-001 110652  1.7077e+001  4.4587e+001 -4.0830e+000 22825 110433,110603,110485
 6.0000e-001 110902  1.5214e+001  1.8639e+001  6.8880e+000 22428 110703,110755,110729
 6.0000e-001 110879  1.2813e+001  3.1890e+001  4.7423e+000 22428 110703,110781,110755
 6.0000e-001 110856 -9.1324e+000  2.1486e+001 -6.6969e-001 22428 110703,110807,110781
 6.0000e-001 110833 -1.3876e+001  3.8904e+001 -4.4567e+000 22428 110677,110807,110703
 6.0000e-001 111284  3.6778e+001  4.4963e+001  8.9651e+000 22138 111088,111140,111114
 6.0000e-001 111261  2.5105e+001  4.1128e+001  9.9575e+000 22138 111062,111140,111088
 6.0000e-001 111238  3.5018e+001  6.4834e+001  1.0413e+001 22138 111036,111140,111062
 6.0000e-001 111215  1.9682e+001  3.8608e+001  2.4318e+000 22138 111010,111140,111036
 6.0000e-001 111192  2.6348e+001  4.2717e+001  3.5265e-001 22138 111010,111166,111140
 6.0000e-001 111385 -1.0696e+001  2.6542e+001  5.9202e+000 21826 111307,111359,111333
 6.0000e-001 111731 -1.3245e+001  3.0394e+001  5.0913e+000 21264 111754,111538,111434
 6.0000e-001 111708 -5.1257e+000  3.3401e+001  4.4447e-001 21264 111754,111434,111408
 6.0000e-001 111685 -1.5330e+001  3.5320e+001  3.6946e+000 21264 111434,111538,111460
 6.0000e-001 111662 -3.1440e+001  2.8365e+001  6.6790e+000 21264 111460,111538,111486
 6.0000e-001 111639 -8.8202e-002  2.5567e+001  1.3641e+001 21264 111408,111590,111564
 6.0000e-001 111616 -3.9451e+001  4.9051e+001  1.6264e+001 21264 111486,111538,111512
 6.0000e-001 111780 -1.6026e+001  2.9409e+001  7.3322e+000 21264 111564,111538,111754
 6.0000e-001 111803 -1.3087e+001  2.4786e+001  4.4283e+000 21264 111564,111754,111408
 6.0000e-001 111955  2.2896e+001  3.8989e+001 -7.6393e-001 20860 111978,111906,111880
 6.0000e-001 111932  2.6805e+001  4.2314e+001 -6.8298e-001 20860 112110,111828,111906
 6.0000e-001 112004  2.4909e+001  4.3621e+001 -2.3327e-001 20860 112110,111906,111978
 6.0000e-001 112136  2.7792e+001  4.3202e+001 -1.4853e+000 20860 111854,111828,112110
 6.0000e-001 112159  2.6275e+001  4.5101e+001 -1.1991e+000 20860 111854,112110,111978
 6.0000e-001 112407  2.6155e+001  4.8120e+001 -1.0325e+001 20320 112182,112286,112208
 6.0000e-001 112384  2.0872e+001  4.5860e+001 -9.8425e+000 20320 112182,112312,112286
 6.0000e-001 112361  4.3017e+001  2.7321e+001 -1.5029e+001 20320 112208,112286,112260
 6.0000e-001 112338  4.4765e+001  2.6869e+001 -1.4381e+001 20320 112208,112260,112234
 6.0000e-001 112655  2.8950e+001  3.1266e+001 -9.4887e-001 19916 112508,112560,112534
 6.0000e-001 112632  3.2088e+001  4.8077e+001  1.7876e+000 19916 112430,112560,112508
 6.0000e-001 112609  4.0401e+001  3.7712e+001  1.6422e+001 19916 112430,112508,112456
 6.0000e-001 112586  4.1134e+001  2.5492e+001  1.7532e+001 19916 112456,112508,112482
 6.0000e-001 112807  5.3248e+000  2.3820e+001  1.4009e+000 19626 112680,112732,112706
 6.0000e-001 112784  7.6123e+000  2.6125e+001  3.4303e-001 19626 112680,112758,112732
 6.0000e-001 113008 -6.5725e+000  2.3651e+001 -7.3251e+000 19165 112858,112936,112884
 6.0000e-001 112985 -8.2628e+000  4.4939e+001 -9.4620e+000 19165 112832,112936,112858
 6.0000e-001 112962  2.9488e+000  1.6958e+001 -1.5321e+001 19165 112884,112936,112910
 6.0000e-001 113209  5.5023e+000  2.5972e+001  1.7671e+000 18596 113033,113085,113059
 6.0000e-001 113186  7.7806e+000  2.9040e+001  7.1093e-001 18596 113033,113111,113085
 6.0000e-001 113163  2.9660e+000  2.1103e+001  6.2610e+000 18596 113033,113137,113111
 6.0000e-001 113481 -2.7675e+000  2.7331e+001  7.6419e-001 18348 113256,113308,113282
 6.0000e-001 113458  3.2286e+000  3.1716e+001 -1.1540e+000 18348 113256,113386,113308
 6.0000e-001 113435  7.3417e-001  2.5054e+001 -1.0914e+000 18348 113308,113386,113360
 6.0000e-001 113412  4.2314e+000  2.7609e+001  3.1283e-002 18348 113308,113360,113334
 6.0000e-001 113753  2.4152e+000  2.7325e+001 -1.1596e-001 17830 113554,113606,113580
 6.0000e-001 113730  2.9861e+000  2.6884e+001  2.4263e-001 17830 113528,113606,113554
 6.0000e-001 113707  2.2495e+000  2.4986e+001 -7.7270e-001 17830 113528,113658,113606
 6.0000e-001 113684  7.8907e+000  2.8328e+001  7.9827e-001 17830 113606,113658,113632
 6.0000e-001 113954 -2.4039e+000  8.6767e+000 -3.6315e+000 17326 113778,113830,113804
 6.0000e-001 113931  2.1810e+000  1.2919e-001 -4.5606e+000 17326 113778,113882,113830
 6.0000e-001 113908  5.2351e+000  8.0983e-001 -1.8861e+000 17326 113830,113882,113856
 6.0000e-001 114106 -1.8341e+000  2.8416e+001 -1.1700e+000 16870 113979,114031,114005
 6.0000e-001 114083  3.2064e+000  2.6311e+001 -2.6516e+000 16870 113979,114057,114031
 6.0000e-001 114461  2.3754e+001  4.6565e+001 -1.4595e+001 16266 114236,114288,114262
 6.0000e-001 114438  2.1378e+001  2.4404e+001 -2.1969e+000 16266 114236,114366,114288
 6.0000e-001 114415  2.6227e+001  3.3017e+001  2.7999e+000 16266 114288,114340,114314
 6.0000e-001 114392  2.7138e+001  3.2735e+001  3.2015e-001 16266 114288,114366,114340
 6.0000e-001 114562 -9.0986e+000  4.3298e+001  0.0000e+000 15830 114484,114536,114510
 6.0000e-001 114663  1.3939e+001 -1.4493e+001 -9.6475e+000 15151 114585,114637,114611
 6.0000e-001 114886 -1.1900e+001  1.1221e+001  2.5601e+000 417 114762,114814,114788
 6.0000e-001 114863 -1.2366e+001  1.9385e+000  5.5161e+000 417 114710,114814,114762
 6.0000e-001 114840  1.2343e+001  8.5058e+000  4.3110e+000 417 114710,114762,114736
 7.0000e-001 66549 -1.4291e+001  1.7944e+001  9.8661e+000 66104 66350,66454,66428
 7.0000e-001 66526 -1.8987e+000  2.4056e+001  4.3550e+000 66104 66324,66454,66350
 7.0000e-001 66503 -9.0221e-001  3.8822e+001  4.0903e+000 66104 66350,66428,66402
 7.0000e-001 66480 -7.9191e+000  2.4938e+001  1.5948e-001 66104 66350,66402,66376
 7.0000e-001 66947  7.1948e+000 -3.8663e+001 -8.2440e+000 65906 66699,66829,66803
 7.0000e-001 66924  7.2176e-001 -4.7584e+001 -2.1806e+000 65906 66673,66829,66699
 7.0000e-001 66901  1.0458e+000  3.5942e+000 -2.0088e+000 65906 66725,66777,66751
 7.0000e-001 66878 -7.1440e+000 -4.6218e+000 -5.3970e+000 65906 66725,66803,66777
 7.0000e-001 66855 -2.5062e+000 -2.2854e+001 -5.3346e+000 65906 66699,66803,66725
 7.0000e-001 67146  1.1133e+000  5.0174e-001  6.0423e-001 65708 67022,67074,67048
 7.0000e-001 67123  1.2047e-001  1.4721e+000  2.9324e-001 65708 66970,67074,67022
 7.0000e-001 67100  1.2189e+000  2.9750e+000 -1.2554e+000 65708 66970,67022,66996
 7.0000e-001 67477 -4.4734e+000  2.1518e+000 -8.6493e+000 65418 67278,67356,67330
 7.0000e-001 67454  1.5114e+000  1.4749e+001 -5.3972e+000 65418 67278,67382,67356
 7.0000e-001 67431 -4.8355e+000  8.9970e+000 -1.5155e+001 65418 67278,67330,67304
 7.0000e-001 67408 -7.7419e-003  5.4037e+000 -6.1956e+000 65418 67252,67382,67278
 7.0000e-001 68111 -4.3332e+000  1.3094e+001 -3.3022e+000 65014 67791,67921,67869
 7.0000e-001 68088 -1.0772e+001  9.4982e+000  8.8317e+000 65014 67765,67921,67791
 7.0000e-001 68065  6.0594e+000  2.5919e+001  1.1846e+000 65014 67869,67921,67895
 7.0000e-001 68042  2.3284e+000  2.5730e+001  2.2970e+000 65014 67765,67947,67921
 7.0000e-001 68019 -1.0154e+001  2.7397e+001  1.4864e+000 65014 67791,67869,67817
 7.0000e-001 67996  1.2595e+001  2.6928e+001  8.9283e+000 65014 67817,67869,67843
 7.0000e-001 67973  2.0557e+000  1.7443e+001 -6.3352e+000 65014 67739,67947,67765
 7.0000e-001 68359 -1.5921e+000  1.3547e+001  1.1416e+000 64816 68186,68238,68212
 7.0000e-001 68336 -1.2310e+000  7.7246e+000  1.7812e+000 64816 68186,68264,68238
 7.0000e-001 68313  5.4568e-001  8.2556e+000 -7.5083e-001 64816 68160,68264,68186
 7.0000e-001 68290  5.7517e-001  6.2648e+000  1.3848e+000 64816 68134,68264,68160
 7.0000e-001 68509  2.7488e+001  3.2227e+001  1.3892e+001 64362 68864,68532,68434
 7.0000e-001 68486  1.6853e+001  2.8465e+001  1.3871e+000 64362 68532,68408,68382
 7.0000e-001 68558  1.3566e+000  3.7938e+001 -1.3055e+001 64362 68736,68532,68460
 7.0000e-001 68581  7.5896e+000  3.3407e+001  5.2337e+000 64362 68604,68532,68382
 7.0000e-001 68630  1.3147e+001  5.8640e+001  5.8311e-001 64362 68460,68532,68604
 7.0000e-001 68762  1.8542e+001  7.0068e-001  7.9983e+000 64362 68434,68532,68736
 7.0000e-001 68890  2.8570e+001  3.4532e+001  1.4378e+001 64362 68408,68532,68864
 7.0000e-001 69168  4.7885e+000  2.5986e+001 -4.6123e+000 64164 69018,69070,69044
 7.0000e-001 69145 -4.2214e-001  1.7889e+001 -2.2598e+000 64164 68992,69070,69018
 7.0000e-001 69122  2.6015e+000  2.3947e+001  5.1903e-001 64164 68992,69096,69070
 7.0000e-001 69367  4.5931e+000  1.2252e+001 -5.7220e-001 63966 69462,69390,69269
 7.0000e-001 69344  7.3085e+000  2.8096e+001 -3.1758e+000 63966 69390,69243,69217
 7.0000e-001 69321  1.2307e+000  1.8401e+001 -5.0184e+000 63966 69191,69295,69217
 7.0000e-001 69416  1.1968e+001  2.1966e+001 -3.8263e+000 63966 69295,69269,69390
 7.0000e-001 69439  6.0331e+000  1.8806e+001 -5.1667e+000 63966 69295,69390,69217
 7.0000e-001 69488  1.3366e+001  3.0413e+001  2.6338e+000 63966 69243,69390,69462
 7.0000e-001 69900 -8.6152e+000  1.0230e+001  2.0199e+000 63676 69701,69779,69727
 7.0000e-001 69877 -4.5114e+000  1.1557e+001  1.8630e+000 63676 69675,69779,69701
 7.0000e-001 69854 -1.1087e-001  1.2309e+001  9.6042e-001 63676 69675,69805,69779
 7.0000e-001 69831 -2.0701e+001  3.3056e+001  9.0535e+000 63676 69727,69779,69753
 7.0000e-001 70050 -2.1813e-001  1.9399e+001  1.3370e+000 63472 70073,69949,69923
 7.0000e-001 70027 -5.7481e+000  1.7161e+001  5.1721e-001 63472 70073,69923,70001
 7.0000e-001 70099  4.3694e+000  1.8167e+001  2.2673e+000 63472 69975,69949,70073
 7.0000e-001 70122 -3.4745e-001  1.6502e+001  1.5904e+000 63472 69975,70073,70001
 7.0000e-001 70321 -5.7688e+000  4.8010e+000 -5.8834e+000 63274 70145,70223,70171
 7.0000e-001 70298  4.8185e-001  9.4098e+000 -2.7016e+000 63274 70145,70249,70223
 7.0000e-001 70275 -3.5908e+000  2.1604e+001 -9.3442e+000 63274 70171,70223,70197
 7.0000e-001 70593 -1.8155e+000  1.3392e+001 -1.9448e+000 63076 70368,70472,70420
 7.0000e-001 70570 -1.1275e+000  1.5157e+001 -1.5540e+000 63076 70368,70498,70472
 7.0000e-001 70547 -7.3875e+000  1.4114e+001  4.7075e+000 63076 70420,70472,70446
 7.0000e-001 70524  2.3865e+000  1.5592e+001 -3.2930e+000 63076 70368,70420,70394
 7.0000e-001 70843 -1.0017e+001 -5.3243e+000 -1.2976e+000 62736 70866,70644,70618
 7.0000e-001 70820 -1.5042e+001 -9.1819e+000  1.0577e+000 62736 70866,70618,70748
 7.0000e-001 70797 -4.1411e-001 -1.0989e+000  3.5861e+000 62736 70644,70722,70696
 7.0000e-001 70774 -9.4574e-001  7.8834e+000  5.7117e+000 62736 70644,70696,70670
 7.0000e-001 70892 -1.5409e+001 -3.3183e+000  1.2285e+000 62736 70722,70644,70866
 7.0000e-001 70915 -1.8851e+001 -6.5194e+000  3.6030e+000 62736 70722,70866,70748
 7.0000e-001 71018 -3.5821e+000  4.3514e+000  2.0347e+000 62516 70940,70992,70966
 7.0000e-001 71219  4.2515e+000  1.3734e+001  3.0580e+000 62226 71069,71147,71095
 7.0000e-001 71196  1.0013e+001  1.3329e+001 -1.1844e+000 62226 71043,71147,71069
 7.0000e-001 71173  2.5144e+001  8.8484e+000  9.2949e-001 62226 71095,71147,71121
 7.0000e-001 71857  5.7120e+000  1.8819e+001  3.2623e+000 61708 71511,71693,71667
 7.0000e-001 71834  4.2944e+000  1.6446e+001  7.6185e-002 61708 71485,71693,71511
 7.0000e-001 71811 -3.4561e-001  1.9017e+001 -7.2878e-003 61708 71880,71537,71511
 7.0000e-001 71788  6.4089e+000  1.6891e+001  8.9697e-001 61708 71880,71511,71667
 7.0000e-001 71765  9.5368e+000  1.9944e+001 -1.3541e+000 61708 71537,71615,71589
 7.0000e-001 71742  1.6138e+001  3.5464e+001  5.0628e+000 61708 71615,71667,71641
 7.0000e-001 71719 -2.3681e-002  1.3673e+001  3.1129e+000 61708 71537,71589,71563
 7.0000e-001 71906  4.8052e+000  2.0016e+001  1.7856e+000 61708 71615,71537,71880
 7.0000e-001 71929  1.0907e+001  1.7837e+001  3.1009e+000 61708 71615,71880,71667
 7.0000e-001 72226 -1.5715e+001  2.3974e+001 -9.1798e+000 61204 72249,72056,72004
 7.0000e-001 72203 -2.4986e+001  1.3787e+001 -1.4054e+001 61204 72249,72004,71978
 7.0000e-001 72180 -4.7840e+000  4.8318e+000 -1.6638e+001 61204 71978,72108,72082
 7.0000e-001 72157  4.4615e+000  3.5104e+001 -4.4831e+000 61204 72004,72056,72030
 7.0000e-001 72134 -1.7573e+001 -8.6455e+000 -2.2458e+001 61204 71952,72108,71978
 7.0000e-001 72275 -6.7054e+000  1.5548e+001 -4.1680e+000 61204 72082,72056,72249
 7.0000e-001 72298 -1.4146e+001  1.0431e+001 -7.4871e+000 61204 72082,72249,71978
 7.0000e-001 72757  4.9918e+000  2.2050e+001 -6.7453e-001 60800 72483,72613,72509
 7.0000e-001 72734  7.8107e+000  2.1931e+001 -2.3447e+000 60800 72483,72639,72613
 7.0000e-001 72711  3.1722e+000  3.3295e+001  1.3155e+000 60800 72561,72613,72587
 7.0000e-001 72688  2.7771e+000  2.2768e+001 -2.2833e+000 60800 72509,72613,72561
 7.0000e-001 72665  1.2925e+001  4.2943e+001 -1.2305e+001 60800 72509,72561,72535
 7.0000e-001 72907 -5.7326e+000  1.8476e+001 -3.4558e+000 60552 72780,72832,72806
 7.0000e-001 72884  3.2854e+000  3.5488e+001 -7.1013e+000 60552 72780,72858,72832
 7.0000e-001 73464 -8.6336e-001  1.0126e+001  6.5388e+000 60240 73487,73222,73196
 7.0000e-001 73441  4.6530e+000  1.8405e+001  3.1596e+000 60240 73559,73487,73196
 7.0000e-001 73418  3.7791e-001  2.1783e+001  3.2580e+000 60240 73559,73196,73170
 7.0000e-001 73395  9.4231e+000 -3.3027e+000  2.5941e+000 60240 73222,73274,73248
 7.0000e-001 73372 -7.4087e+000  5.3619e+000 -6.9420e+000 60240 73118,73300,73274
 7.0000e-001 73349  7.8621e-001  2.2407e+001 -4.1096e+000 60240 73092,73300,73118
 7.0000e-001 73326  1.2034e+000  2.8504e+001  4.4877e-001 60240 73118,73170,73144
 7.0000e-001 73513  3.9228e+000  1.3785e+001  2.4113e+000 60240 73274,73222,73487
 7.0000e-001 73536  3.5593e+000  1.6897e+001 -9.8504e-001 60240 73274,73487,73118
 7.0000e-001 73585 -3.4560e-002  1.3531e+001  1.0083e+000 60240 73118,73487,73559
 7.0000e-001 73608 -3.6534e+000  1.7546e+001  1.3311e+000 60240 73118,73559,73170
 7.0000e-001 73758 -3.4737e+001 -9.5144e+000 -3.5801e+000 59871 73657,73709,73683
 7.0000e-001 73735 -1.3053e+001 -4.3209e+001 -1.4875e+000 59871 73631,73709,73657
 7.0000e-001 74187 -4.7266e+000  4.6764e+001  7.6726e-001 59474 74210,73890,73864
 7.0000e-001 74164 -9.8095e-001  4.8357e+001 -3.4412e-001 59474 74210,73864,74046
 7.0000e-001 74141 -2.4295e+000  3.5121e+001  4.5982e-001 59474 73890,73942,73916
 7.0000e-001 74118 -7.0078e+000  4.1412e+001  1.1824e+000 59474 73890,73994,73942
 7.0000e-001 74095 -2.5409e+000  4.7677e+001  9.1406e+000 59474 73994,74046,74020
 7.0000e-001 74072 -1.5694e+001  3.1243e+001 -2.9210e+000 59474 73942,73994,73968
 7.0000e-001 74236 -9.2757e-001  4.4190e+001  1.8386e+000 59474 73994,73890,74210
 7.0000e-001 74259  2.2275e+000  4.5182e+001  1.2902e+000 59474 73994,74210,74046
 7.0000e-001 74716  3.0163e-001  1.2506e+001 -1.2831e+001 58770 74468,74598,74494
 7.0000e-001 74693  3.7867e+000  4.5905e+000 -1.8521e+001 58770 74442,74598,74468
 7.0000e-001 74670 -6.4805e+000 -1.0660e+001 -1.7580e+001 58770 74494,74572,74520
 7.0000e-001 74647  9.3822e-001 -6.7847e-001 -1.0737e+001 58770 74494,74598,74572
 7.0000e-001 74624  8.3643e+000 -1.2462e+000 -4.7418e+000 58770 74520,74572,74546
 7.0000e-001 75222 -6.1081e+000  2.9719e+001 -2.4553e+000 58266 74951,75081,75029
 7.0000e-001 75199 -4.0525e+000  3.9548e+001 -1.4805e+000 58266 74925,75081,74951
 7.0000e-001 75176  2.2362e+000  2.5755e+001 -1.1565e+001 58266 75029,75081,75055
 7.0000e-001 75153 -1.4378e+001  3.5320e+001  2.1704e+000 58266 74951,75003,74977
 7.0000e-001 75130 -7.3602e+000  2.8290e+001  3.3966e+000 58266 74951,75029,75003
 7.0000e-001 75107 -2.2624e+001  2.1743e+001 -1.3723e+001 58266 74899,75081,74925
 7.0000e-001 75421  1.7032e+001  5.2828e+001  2.8281e-001 57826 75444,75297,75245
 7.0000e-001 75398  2.9822e+001  4.5935e+001  1.7900e+000 57826 75444,75245,75349
 7.0000e-001 75375  2.0840e+001  5.2268e+001 -1.0554e+000 57826 75516,75297,75271
 7.0000e-001 75470  2.3814e+001  5.1708e+001  8.6649e+000 57826 75323,75297,75444
 7.0000e-001 75493  4.0071e+001  5.2293e+001  1.2927e+001 57826 75323,75444,75349
 7.0000e-001 75542  1.2607e+001  4.5198e+001  2.3033e+000 57826 75245,75297,75516
 7.0000e-001 76257  1.1419e+001  2.6867e+001 -3.1106e+000 57422 76280,76093,76067
 7.0000e-001 76234  1.5635e+001  2.0700e+001 -3.1852e-001 57422 75885,76093,75911
 7.0000e-001 76211  1.6282e+001  3.1584e+001  9.3905e-001 57422 76424,76280,76067
 7.0000e-001 76188  1.3299e+001  3.3800e+001  4.3327e+000 57422 76352,75937,75911
 7.0000e-001 76165  1.5673e+001  2.8720e+001  8.0879e-001 57422 76424,76067,76015
 7.0000e-001 76142  2.0740e+001  4.7864e+001  6.1422e+000 57422 76015,76067,76041
 7.0000e-001 76119  2.2271e+001  2.9495e+001 -8.3086e-001 57422 75963,76015,75989
 7.0000e-001 76306  1.2619e+001  2.8013e+001  1.9594e+000 57422 75911,76093,76280
 7.0000e-001 76329  1.7044e+001  2.8146e+001  2.3821e+000 57422 76352,75911,76280
 7.0000e-001 76378  1.9740e+001  4.2502e+001  9.2571e+000 57422 75963,75937,76352
 7.0000e-001 76401  2.1553e+001  3.6509e+001  6.4589e+000 57422 75963,76352,76280
 7.0000e-001 76450  1.6625e+001  2.8434e+001  1.3799e+000 57422 75963,76280,76424
 7.0000e-001 76473  1.6702e+001  2.6540e+001  9.3684e-001 57422 75963,76424,76015
 7.0000e-001 76949 -8.7622e+000  6.5843e-001  8.7045e+000 56904 76972,76707,76681
 7.0000e-001 76926 -4.0721e+000  1.4188e+001  4.8781e+000 56904 77044,76972,76681
 7.0000e-001 76903 -3.1709e+000  2.3071e+001  4.8496e+000 56904 77044,76681,76629
 7.0000e-001 76880  2.3679e+000 -2.2170e+000  1.0743e+000 56904 76707,76785,76759
 7.0000e-001 76857  7.1409e+000  6.4299e+000 -3.9678e+000 56904 76577,76785,76603
 7.0000e-001 76834  2.7648e+000 -1.0823e+000  9.0757e-001 56904 76707,76759,76733
 7.0000e-001 76811  2.7294e+000  1.7541e+001  1.8033e+001 56904 76629,76681,76655
 7.0000e-001 76998 -2.5537e+000  5.7875e+000  2.4462e+000 56904 76785,76707,76972
 7.0000e-001 77021 -4.4230e+000  6.4042e+000  5.2920e-001 56904 76785,76972,76603
 7.0000e-001 77070 -1.9287e+000  5.6787e+000  8.5883e-001 56904 76603,76972,77044
 7.0000e-001 77093 -1.7966e+000  1.2331e+001  2.2203e+000 56904 76603,77044,76629
 7.0000e-001 77471  2.7017e+000  2.1896e+001 -4.7130e+000 56542 77566,77494,77275
 7.0000e-001 77448  3.0308e+000  2.7036e+001  9.5520e-001 56542 77494,77223,77353
 7.0000e-001 77425  2.5246e+000  2.0104e+001 -6.2881e+000 56542 77566,77275,77249
 7.0000e-001 77402  3.1953e+000  2.0529e+001  1.6301e+001 56542 77197,77353,77223
 7.0000e-001 77379 -1.5417e+000  2.9907e+001 -1.2618e+001 56542 77275,77327,77301
 7.0000e-001 77520  2.4168e+000  3.8300e+001 -6.7355e+000 56542 77327,77275,77494
 7.0000e-001 77543 -1.9826e+001  2.3889e+001 -5.0608e-001 56542 77327,77494,77353
 7.0000e-001 77592  7.6431e+000  2.3119e+001 -3.5730e-001 56542 77223,77494,77566
 7.0000e-001 77615  4.3427e+000  1.5922e+001 -2.4809e+000 56542 77223,77566,77249
 7.0000e-001 77814  1.2145e+001  1.6426e+001 -1.0840e+001 56038 77837,77690,77664
 7.0000e-001 77791  8.2531e+000  1.4453e+001 -9.9739e+000 56038 77837,77664,77742
 7.0000e-001 77768  1.2353e+001  6.7115e+000 -9.0173e+000 56038 77638,77742,77664
 7.0000e-001 77863  1.3431e+001  1.7180e+001 -1.3865e+001 56038 77716,77690,77837
 7.0000e-001 77886  9.0633e+000  1.4949e+001 -1.2944e+001 56038 77716,77837,77742
 7.0000e-001 78345  2.1524e+001  4.8077e+001  2.1551e+001 55534 78071,78123,78097
 7.0000e-001 78322  3.2759e+000  3.2187e+001  5.8052e+000 55534 78071,78201,78123
 7.0000e-001 78299  8.3492e+000  5.1620e+001  3.9844e+000 55534 78071,78227,78201
 7.0000e-001 78276  2.6411e+001  3.5219e+001  1.0124e+001 55534 78123,78175,78149
 7.0000e-001 78253  2.2130e+001  3.7704e+001  6.8679e+000 55534 78123,78201,78175
 7.0000e-001 78802 -7.1041e+000  2.1678e+001 -1.7562e+000 55030 78825,78632,78606
 7.0000e-001 78779 -2.9939e-001  2.5092e+001 -4.7834e+000 55030 78897,78825,78606
 7.0000e-001 78756 -1.5717e+001  3.2350e+001 -1.0803e+001 55030 78897,78606,78580
 7.0000e-001 78733 -1.8364e-002  1.2275e+001 -9.9259e+000 55030 78554,78684,78658
 7.0000e-001 78710  4.6174e+000  2.4446e+001 -3.5785e+000 55030 78528,78684,78554
 7.0000e-001 78851  2.4808e-001  3.1383e+001  2.1771e+000 55030 78658,78632,78825
 7.0000e-001 78874  2.6934e-001  1.7707e+001 -9.0051e+000 55030 78658,78825,78554
 7.0000e-001 78923 -1.4170e+001  1.0440e+001 -1.4295e+001 55030 78554,78825,78897
 7.0000e-001 78946 -2.1631e+001  1.9004e+001 -2.0869e+001 55030 78554,78897,78580
 7.0000e-001 79403  3.4231e+000  1.9099e+001 -1.9808e+000 54426 79426,79233,79155
 7.0000e-001 79380  3.1387e+000  2.1446e+001  6.6438e-001 54426 79426,79155,79129
 7.0000e-001 79357 -9.5911e+000  3.8010e+001 -1.4186e+001 54426 79233,79285,79259
 7.0000e-001 79334  1.5312e+001  1.9706e+001 -5.9121e+000 54426 79181,79233,79207
 7.0000e-001 79311  1.4029e+001  2.0321e+001 -3.5819e+000 54426 79155,79233,79181
 7.0000e-001 79452  3.9101e+000  2.1847e+001 -9.8278e-001 54426 79285,79233,79426
 7.0000e-001 79475  3.6641e+000  2.5407e+001  1.1161e+000 54426 79285,79426,79129
 7.0000e-001 79932 -1.4192e+001  1.8105e+001  6.2208e+000 53915 79658,79762,79684
 7.0000e-001 79909 -2.6619e+000  1.7600e+001  2.2327e+000 53915 79658,79814,79762
 7.0000e-001 79886 -6.9454e-001  1.4516e+001  6.5586e+000 53915 79762,79814,79788
 7.0000e-001 79863 -7.5667e+000  2.3663e+001  1.1575e+001 53915 79710,79762,79736
 7.0000e-001 79840 -1.0038e+001  1.8324e+001  7.7460e+000 53915 79684,79762,79710
 7.0000e-001 80033 -2.6081e+000  3.7715e+001 -6.8367e-003 53667 79955,80007,79981
 7.0000e-001 80401 -5.4470e+000  2.4247e+001 -6.9691e+000 53263 80104,80260,80234
 7.0000e-001 80378 -2.2508e+000  3.9405e+001  3.4162e-001 53263 80078,80260,80104
 7.0000e-001 80355  2.1747e+000  1.7473e+001 -1.1875e+000 53263 80104,80234,80130
 7.0000e-001 80332  2.6215e+000  1.9486e+001 -1.0468e-001 53263 80130,80208,80182
 7.0000e-001 80309  6.5132e+000  2.0078e+001  1.9718e-001 53263 80130,80234,80208
 7.0000e-001 80286  3.2399e+000  2.3212e+001  1.2114e+000 53263 80130,80182,80156
 7.0000e-001 80911 -4.9899e+000  1.3547e+001 -9.0944e+000 52965 80640,80770,80744
 7.0000e-001 80888  9.4053e+000  3.4049e+001 -2.2698e+000 52965 80614,80770,80640
 7.0000e-001 80865  5.8952e+000  2.7833e+001 -8.7597e-001 52965 80640,80744,80666
 7.0000e-001 80842  6.2344e+000  2.2385e+001 -1.4719e+001 52965 80588,80770,80614
 7.0000e-001 80819  1.0912e+001  1.9547e+001 -9.5305e-001 52965 80666,80718,80692
 7.0000e-001 80796 -6.3396e-001  1.4742e+001 -3.1624e+000 52965 80666,80744,80718
 7.0000e-001 81262 -3.3951e+001  3.1561e+000  1.3460e+000 52561 81037,81141,81063
 7.0000e-001 81239 -4.3856e+001 -5.0411e+000  6.3682e+000 52561 81037,81167,81141
 7.0000e-001 81216 -6.0547e+001  9.2650e+000 -2.0765e+000 52561 81063,81115,81089
 7.0000e-001 81193 -6.3201e+001 -7.1392e+000 -7.4684e+000 52561 81063,81141,81115
 7.0000e-001 81719 -9.1278e+000  2.3236e+000  1.5199e+000 51900 81445,81523,81471
 7.0000e-001 81696 -1.0140e+001 -2.8904e+000 -2.5830e-001 51900 81445,81575,81523
 7.0000e-001 81673 -7.6737e+000 -4.2417e+000  3.1620e-001 51900 81445,81601,81575
 7.0000e-001 81650 -5.0692e+000  5.7060e+000  3.0347e+000 51900 81523,81575,81549
 7.0000e-001 81627 -1.5973e+000  3.7449e+000  2.0407e+000 51900 81471,81523,81497
 7.0000e-001 82323 -2.4817e-001  5.2138e+000  4.7898e+000 51317 82418,82346,82032
 7.0000e-001 82300 -7.4083e+000  1.1157e+001  9.1052e+000 51317 82490,82346,81954
 7.0000e-001 82277 -1.1900e+000  4.7518e+000  2.9710e+000 51317 82418,82032,82006
 7.0000e-001 82254 -1.6806e+001  6.6927e+000  1.0384e+001 51317 82490,81954,81928
 7.0000e-001 82231 -1.0418e+001  4.9887e+000  3.2129e+000 51317 82058,82110,82084
 7.0000e-001 82208 -2.3768e+001  1.4082e+001  3.4394e+000 51317 81928,82136,82110
 7.0000e-001 82185  9.0157e+000  5.5209e+000  6.5588e+000 51317 81954,82006,81980
 7.0000e-001 82162 -2.4432e+001  1.3758e+001  1.7527e+000 51317 81902,82136,81928
 7.0000e-001 82372 -5.9467e+000  1.5549e+000  2.6125e+000 51317 82058,82032,82346
 7.0000e-001 82395 -9.0839e+000  9.7413e+000  2.8085e+000 51317 82058,82346,82110
 7.0000e-001 82444  2.2006e+000  6.5148e+000  5.4785e+000 51317 81954,82346,82418
 7.0000e-001 82467  1.5609e+000  6.1970e+000  3.6799e+000 51317 81954,82418,82006
 7.0000e-001 82516 -1.0837e+001  1.1064e+001  3.9976e+000 51317 82110,82346,82490
 7.0000e-001 82539 -1.2089e+001  1.0330e+001  4.5554e+000 51317 82110,82490,81928
 7.0000e-001 83015 -2.4931e+000  1.5079e-001  1.8952e-002 50813 82669,82747,82695
 7.0000e-001 82992 -7.8232e+000  4.8411e+000  1.0136e+001 50813 83038,82669,82851
 7.0000e-001 82969 -1.1876e+001  7.7421e+000  8.8156e+000 50813 83038,82851,82799
 7.0000e-001 82946 -2.4102e+001  3.1825e+000  1.2900e+001 50813 82747,82799,82773
 7.0000e-001 82923 -5.6311e+000  5.7521e+000  1.0288e+001 50813 82643,82851,82669
 7.0000e-001 82900 -1.4970e+001 -3.2884e-001  9.0531e+000 50813 82799,82851,82825
 7.0000e-001 82877 -2.3267e+000 -1.5860e-001 -4.9697e-001 50813 82695,82747,82721
 7.0000e-001 83064 -1.9813e+000  7.0368e+000  9.5448e+000 50813 82747,82669,83038
 7.0000e-001 83087 -8.2711e+000  8.4695e+000  8.7643e+000 50813 82747,83038,82799
 7.0000e-001 83286  5.2234e+000  7.5708e+000  1.4409e-001 50352 83309,83162,83136
 7.0000e-001 83263  6.4247e+000  1.1518e+001  1.5390e+000 50352 83511,83309,83136
 7.0000e-001 83240  9.4424e+000  1.4251e+001  3.7451e+000 50352 83511,83136,83381
 7.0000e-001 83335  9.1472e+000  1.1527e+001 -2.1890e+000 50352 83188,83162,83309
 7.0000e-001 83358  1.8413e+000  7.8368e+000 -3.4417e+000 50352 83188,83309,83214
 7.0000e-001 83407  1.3684e+001  2.7907e+001  5.7074e+000 50352 83110,83214,83381
 7.0000e-001 83537  2.2092e+000  1.3789e+001 -5.1410e-001 50352 83214,83309,83511
 7.0000e-001 83560  3.0010e+000  1.3304e+001  1.0117e+000 50352 83214,83511,83381
 7.0000e-001 83889  2.0874e+000  4.6708e+000  2.0271e+000 49548 83716,83794,83742
 7.0000e-001 83866  5.4267e+000  1.3447e+001  2.4233e+000 49548 83690,83794,83716
 7.0000e-001 83843 -2.5306e+000  5.5678e+000 -9.8702e-001 49548 83664,83794,83690
 7.0000e-001 83820  1.3484e+001  5.9742e+000  1.4880e+000 49548 83742,83794,83768
 7.0000e-001 84137  1.2645e+001  1.2887e+001  1.9879e+000 49208 84160,84016,83938
 7.0000e-001 84114  2.1741e+001  3.3915e+001 -8.0457e-001 49208 84160,83938,83912
 7.0000e-001 84091  1.7445e+001  9.2854e+000 -1.2484e+000 49208 83938,84016,83964
 7.0000e-001 84068  1.1311e+001  2.1451e+000 -4.5059e+000 49208 83964,84016,83990
 7.0000e-001 84186  1.5356e+001  2.2168e+001 -9.2514e+000 49208 84042,84016,84160
 7.0000e-001 84209  1.9657e+001  3.4410e+001 -1.1619e+001 49208 84042,84160,83912
 7.0000e-001 84796 -8.9525e+000  5.7405e-001  8.6530e-001 48861 84499,84629,84551
 7.0000e-001 84773 -4.4200e+000  2.9468e+000  2.1897e+000 48861 84499,84655,84629
 7.0000e-001 84750 -8.9083e+000  1.4472e+000  2.4387e+000 48861 84551,84629,84577
 7.0000e-001 84727 -6.2222e-001  2.0058e+000  1.5043e+000 48861 84577,84629,84603
 7.0000e-001 84704 -7.5125e+000 -1.8867e+000  3.3612e+000 48861 84499,84551,84525
 7.0000e-001 84681 -3.4582e+000  4.3680e+000 -8.1366e-001 48861 84473,84655,84499
 7.0000e-001 85351  2.5562e+001  3.4271e+001 -9.3576e+000 48457 85374,85031,85005
 7.0000e-001 85328  1.3803e+001  1.8865e+001 -4.1355e+000 48457 85374,85005,85161
 7.0000e-001 85305  1.0479e+001  2.6516e+001 -1.7769e+000 48457 85446,85057,85031
 7.0000e-001 85282  1.6975e+001  2.0191e+001 -4.3309e+000 48457 85005,85187,85161
 7.0000e-001 85259  1.4456e+001  1.7201e+001  4.2562e+000 48457 85083,85161,85109
 7.0000e-001 85236  2.0549e+001  1.7215e+001 -8.5986e+000 48457 84979,85187,85005
 7.0000e-001 85213  1.7945e+001  1.4393e+001 -1.5067e+000 48457 85109,85161,85135
 7.0000e-001 85400  1.2259e+001  2.6628e+001 -1.8745e+000 48457 85446,85031,85374
 7.0000e-001 85423  1.4534e+001  2.5121e+001  4.7202e-001 48457 85083,85374,85161
 7.0000e-001 85472  1.2595e+001  2.5201e+001  2.9570e-001 48457 85083,85057,85446
 7.0000e-001 85495  1.4856e+001  2.5737e+001  3.1586e-001 48457 85083,85446,85374
 7.0000e-001 86080  5.4296e+000  1.7887e+001 -2.6036e+000 48053 86319,86103,85783
 7.0000e-001 86057  2.3394e+000  1.3511e+001 -2.3555e+000 48053 86103,85757,85939
 7.0000e-001 86034  2.8384e+000  1.4153e+001 -6.8211e+000 48053 86247,86175,85887
 7.0000e-001 86011  2.1232e+000  1.2424e+001 -6.8588e+000 48053 86247,85887,85835
 7.0000e-001 85988 -1.5678e+001  6.0244e+000 -8.6020e+000 48053 85887,85939,85913
 7.0000e-001 85965  7.0935e+000  9.3316e+000 -1.0610e+001 48053 85835,85887,85861
 7.0000e-001 86129  4.1931e+000  1.6711e+001 -3.9760e+000 48053 85809,85783,86103
 7.0000e-001 86152  5.4234e+000  1.7212e+001 -4.2210e+000 48053 86175,85809,86103
 7.0000e-001 86201  4.1651e+000  1.3880e+001 -6.6618e+000 48053 85939,85887,86175
 7.0000e-001 86224  3.1408e+000  1.3722e+001 -6.4045e+000 48053 85939,86175,86103
 7.0000e-001 86273  4.1648e+000  1.2500e+001 -5.1243e+000 48053 85809,86175,86247
 7.0000e-001 86296  3.2573e+000  1.0418e+001 -5.4155e+000 48053 85809,86247,85835
 7.0000e-001 86345  1.0318e+001  1.7018e+001 -3.8625e+000 48053 85757,86103,86319
 7.0000e-001 86851  1.8677e+000  6.3553e+000  1.3747e+000 47541 86874,86580,86554
 7.0000e-001 86828  1.4738e+001  1.1556e+001  3.5287e+000 47541 86946,86874,86554
 7.0000e-001 86805  1.6682e+001  7.3836e+000  1.4348e+000 47541 86946,86554,86528
 7.0000e-001 86782 -1.9749e+000  1.5773e+001  1.4376e+001 47541 86580,86658,86606
 7.0000e-001 86759  1.9480e+001  7.4364e+000  2.1973e+000 47541 86528,86710,86684
 7.0000e-001 86736  4.1644e+001  1.8379e+001  2.3909e+001 47541 86606,86658,86632
 7.0000e-001 86900  1.0265e+001  5.9591e+000  7.5065e+000 47541 86658,86580,86874
 7.0000e-001 86923  2.2298e+001  8.5632e+000  9.2925e+000 47541 86658,86874,86684
 7.0000e-001 86972  9.7290e+000  4.6517e+000  6.2639e+000 47541 86684,86874,86946
 7.0000e-001 86995  1.4581e+001  5.3948e+000  3.1566e+000 47541 86684,86946,86528
 7.0000e-001 87324  7.1308e+000  2.3749e+001  5.7703e+000 47044 87151,87203,87177
 7.0000e-001 87301  6.8776e+000  2.0353e+001  2.2615e+000 47044 87125,87203,87151
 7.0000e-001 87278  1.0366e+001  1.7337e+001  4.3207e+000 47044 87099,87203,87125
 7.0000e-001 87255  9.6033e+000  1.5220e+001  4.8566e+000 47044 87099,87229,87203
 7.0000e-001 87572  3.7485e+000  1.4857e+001  2.3873e+000 46697 87595,87425,87373
 7.0000e-001 87549  1.7251e-001  1.4498e+001  2.4035e+000 46697 87595,87373,87477
 7.0000e-001 87526  1.0298e-001  1.4766e+001  3.7894e+000 46697 87347,87477,87373
 7.0000e-001 87503  4.8820e+000  1.3234e+001  1.0959e+000 46697 87373,87425,87399
 7.0000e-001 87621  1.1155e+000  1.9008e+001 -1.1386e-001 46697 87451,87425,87595
 7.0000e-001 87644 -6.9171e+000  1.5593e+001  1.4330e+000 46697 87451,87595,87477
 7.0000e-001 87794 -6.9940e+000  2.8071e+001 -3.6496e+000 46235 87693,87745,87719
 7.0000e-001 87771 -4.9547e+000  1.5268e+001  1.2715e+000 46235 87667,87745,87693
 7.0000e-001 88304 -9.0343e+000  2.0092e+001 -8.5648e-001 45731 88085,88163,88137
 7.0000e-001 88281 -1.2942e+000  2.2327e+001  4.1060e+000 45731 88007,88163,88085
 7.0000e-001 88258 -6.0115e+000  2.2439e+001  8.2115e+000 45731 87981,88163,88007
 7.0000e-001 88235 -4.3415e-001  1.8798e+001  4.0540e+000 45731 88007,88085,88059
 7.0000e-001 88212  5.8333e+000  2.6443e+001 -1.0168e+000 45731 88085,88137,88111
 7.0000e-001 88189  1.6164e+000  1.8139e+001  7.2352e+000 45731 88007,88059,88033
 7.0000e-001 88682 -9.5222e+000 -2.6157e+000  1.4799e+000 45312 88434,88512,88486
 7.0000e-001 88659 -2.2717e+001 -2.3389e+001  1.0552e+001 45312 88434,88538,88512
 7.0000e-001 88636 -7.0444e+000 -3.0006e+000  3.5184e+000 45312 88434,88564,88538
 7.0000e-001 88613 -7.2582e+000 -4.2399e+000  1.3831e+000 45312 88434,88486,88460
 7.0000e-001 88590 -1.4465e+001  1.1546e+001  1.7801e+001 45312 88408,88564,88434
 7.0000e-001 88930  6.2868e+000  1.8178e+001 -2.1854e+000 44808 88953,88731,88705
 7.0000e-001 88907  3.2829e+000  1.2316e+001 -1.0904e+000 44808 88953,88705,88835
 7.0000e-001 88884  6.1453e+000  9.0451e+000  1.7641e+000 44808 89025,88783,88757
 7.0000e-001 88861  1.0037e+001  2.5253e+001  6.3558e+000 44808 88783,88835,88809
 7.0000e-001 88979  3.5517e+000  1.5023e+001  1.7807e+000 44808 88757,88731,88953
 7.0000e-001 89002  2.8055e+000  1.0690e+001  2.4339e+000 44808 89025,88757,88953
 7.0000e-001 89051  6.8330e+000  1.0978e+001  1.1160e+000 44808 88835,88783,89025
 7.0000e-001 89074  5.8291e+000  1.5038e+001  8.8253e-001 44808 88835,89025,88953
 7.0000e-001 89224 -1.1409e+002 -2.6296e+001  7.0623e+000 44404 89123,89175,89149
 7.0000e-001 89201 -1.0879e+002 -2.9638e+000 -1.1421e+000 44404 89097,89175,89123
 7.0000e-001 89783  2.4242e+000  1.8270e+001 -3.7784e+000 43850 89806,89541,89515
 7.0000e-001 89760 -9.6217e-001  1.1022e+001 -4.8799e+000 43850 89806,89515,89463
 7.0000e-001 89737  5.5772e+000  1.0881e+001 -6.8985e-001 43850 89950,89878,89593
 7.0000e-001 89714  4.4666e+000  1.1375e+001  9.7427e-001 43850 89950,89593,89567
 7.0000e-001 89691  5.2472e+000  5.2165e+000 -1.7896e+000 43850 89411,89619,89463
 7.0000e-001 89668 -7.9347e+000  1.5280e+001 -4.4144e+000 43850 89463,89515,89489
 7.0000e-001 89645  4.5724e+000  4.5699e+000 -1.4770e+000 43850 89411,89463,89437
 7.0000e-001 89832  2.8941e+000  1.6949e+001 -2.9538e-001 43850 89878,89541,89806
 7.0000e-001 89855  5.4087e+000  1.4517e+001 -3.3920e+000 43850 89619,89806,89463
 7.0000e-001 89904  4.4802e+000  7.3562e+000 -3.4067e-001 43850 89619,89593,89878
 7.0000e-001 89927  1.3224e+000  8.7198e+000 -1.5038e+000 43850 89619,89878,89806
 7.0000e-001 89976  7.8992e-001  9.0339e+000  1.7022e+000 43850 89541,89878,89950
 7.0000e-001 89999 -2.5933e+000  7.1455e+000  3.8622e+000 43850 89541,89950,89567
 7.0000e-001 90247  1.0165e+001  4.3056e+001 -2.7543e+000 43488 90022,90074,90048
 7.0000e-001 90224 -6.7394e+000  2.7555e+001 -5.3708e-001 43488 90270,90022,90152
 7.0000e-001 90201 -6.2796e+000  2.1657e+001 -1.4180e+000 43488 90342,90270,90152
 7.0000e-001 90178 -6.9546e+000  1.6043e+001  4.6837e+000 43488 90342,90152,90126
 7.0000e-001 90296 -1.0179e+000  2.0975e+001  2.5074e+000 43488 90074,90022,90270
 7.0000e-001 90319 -6.6942e+000  1.7379e+001  6.8840e-001 43488 90074,90270,90100
 7.0000e-001 90368 -1.3255e+001  1.5220e+001  4.3434e+000 43488 90100,90270,90342
 7.0000e-001 90391 -1.3965e+001  8.8487e+000  1.0436e+001 43488 90100,90342,90126
 7.0000e-001 90590 -1.1952e+000  1.0195e+001 -1.8458e+000 43048 90414,90492,90440
 7.0000e-001 90567 -3.3812e+000  3.3554e+000  2.2919e-001 43048 90414,90518,90492
 7.0000e-001 90544 -6.5084e-002  1.5206e+001  7.2364e-001 43048 90440,90492,90466
 7.0000e-001 91070  3.3275e+000 -5.7673e-001 -1.6922e+000 42430 91237,90880,90854
 7.0000e-001 91047  3.0023e+000 -1.0638e+000 -2.4625e+000 42430 90698,90906,90880
 7.0000e-001 91024  6.6103e-001  4.0269e+000  1.1559e+000 42430 91093,90750,90698
 7.0000e-001 91001  1.3628e+000  1.4793e+000 -1.9092e-001 42430 91237,90854,91093
 7.0000e-001 90978  5.3225e+000  2.0394e+000  4.0996e+000 42430 91165,90802,90776
 7.0000e-001 90955  7.5271e+000  4.2500e+000  2.5489e+000 42430 90802,90854,90828
 7.0000e-001 90932  1.6646e-001  4.4929e+000  1.2511e+000 42430 90698,90750,90724
 7.0000e-001 91119 -8.3487e-001  1.5523e+000  3.9408e+000 42430 90776,90750,91093
 7.0000e-001 91142  2.9566e+000  1.3759e+000  3.6570e+000 42430 91165,90776,91093
 7.0000e-001 91191  5.6300e+000  1.3486e+000  1.7236e+000 42430 90854,90802,91165
 7.0000e-001 91214  3.2550e+000 -1.7428e-002  1.0299e+000 42430 90854,91165,91093
 7.0000e-001 91263  5.1982e-001 -2.0117e+000 -2.2300e+000 42430 90698,90880,91237
 7.0000e-001 91286 -1.8444e+000 -2.3379e-001 -8.7433e-001 42430 90698,91237,91093
 7.0000e-001 91694  4.1403e+001  2.4128e+001  1.0444e+001 41769 91469,91573,91495
 7.0000e-001 91671  2.0385e+001  1.6612e+001  1.0987e+001 41769 91469,91599,91573
 7.0000e-001 91648  3.4643e+001  2.7225e+001  1.3220e+000 41769 91495,91547,91521
 7.0000e-001 91625  2.4383e+001  2.0689e+001  8.5212e+000 41769 91495,91573,91547
 7.0000e-001 92040  3.1548e+000  2.9019e+001  1.1324e+000 41379 91769,91873,91847
 7.0000e-001 92017 -4.3349e+000  2.6833e+001  1.7732e+000 41379 91743,91873,91769
 7.0000e-001 91994  9.2604e+000  3.0993e+001  3.3250e-001 41379 91769,91847,91795
 7.0000e-001 91971 -1.5658e+001  2.0699e+001  4.1256e+000 41379 91743,91899,91873
 7.0000e-001 91948  2.5464e+000  3.0526e+001  8.2622e+000 41379 91717,91899,91743
 7.0000e-001 91925  6.2717e+000  3.2453e+001  2.9957e+000 41379 91795,91847,91821
 7.0000e-001 92597  4.8735e+000  1.3013e+001 -3.4303e+000 40975 92225,92407,92303
 7.0000e-001 92574 -8.7680e+000  4.8601e+000 -1.7010e-002 40975 92225,92433,92407
 7.0000e-001 92551  3.5378e+000  4.8026e+000 -5.1580e+000 40975 92225,92303,92277
 7.0000e-001 92528 -9.9132e+000  1.5608e+000 -1.0083e+001 40975 92329,92407,92381
 7.0000e-001 92505 -6.3696e+000  4.7010e+000 -7.0648e+000 40975 92303,92407,92329
 7.0000e-001 92482  5.6813e+000  1.0130e-001 -1.0904e+000 40975 92225,92277,92251
 7.0000e-001 92459  1.0822e+001  9.6382e+000 -8.9308e+000 40975 92329,92381,92355
 7.0000e-001 93231 -2.7840e+001  2.9982e+000 -8.2456e+000 40521 92937,92989,92963
 7.0000e-001 93208 -4.1100e+000  3.9662e-001 -2.3330e+000 40521 93254,92937,92885
 7.0000e-001 93185 -3.1955e+000  2.2882e-001 -1.5373e+000 40521 93254,92885,93067
 7.0000e-001 93162  4.1215e+000  1.1279e+000 -5.5775e+000 40521 92885,92937,92911
 7.0000e-001 93139  1.5093e+000 -2.1551e+000 -1.9321e+000 40521 92859,93067,92885
 7.0000e-001 93116 -2.1606e+000  4.9838e-001 -2.1580e+000 40521 92989,93067,93015
 7.0000e-001 93093  3.0025e+000 -1.3812e+000 -2.1671e+000 40521 93015,93067,93041
 7.0000e-001 93280 -3.6716e+000  1.3559e+000 -1.8667e+000 40521 92989,92937,93254
 7.0000e-001 93303 -2.8057e+000  5.5062e-001 -1.1828e+000 40521 92989,93254,93067
 7.0000e-001 93632 -3.2447e-001  1.9649e+001 -1.5855e+000 40231 93433,93537,93511
 7.0000e-001 93609  5.9319e+000  6.6847e+000 -8.5043e+000 40231 93407,93537,93433
 7.0000e-001 93586 -3.6280e+000  2.6581e+001 -3.1157e+000 40231 93459,93511,93485
 7.0000e-001 93563  1.2068e+000  2.0548e+001 -2.4035e+000 40231 93433,93511,93459
 7.0000e-001 94010  1.0006e+001  3.9941e+001  8.4106e+000 39869 93762,93866,93788
 7.0000e-001 93987  2.1626e+001  4.9372e+001  1.3468e+001 39869 93762,93892,93866
 7.0000e-001 93964 -8.0023e+000  2.8444e+001  8.8799e-001 39869 93788,93866,93840
 7.0000e-001 93941  4.1016e+000  3.8332e+001 -5.7389e+000 39869 93788,93840,93814
 7.0000e-001 93918  1.3291e+001  2.9225e+001  1.2355e+001 39869 93736,93892,93762
 7.0000e-001 94160 -1.0478e+000  1.0764e+001 -6.2582e-001 39457 94033,94085,94059
 7.0000e-001 94137 -4.4504e-001  2.6743e-001  1.7091e+000 39457 94033,94111,94085
 7.0000e-001 94359 -1.0076e+001  2.5141e+001 -1.4298e+000 39053 94382,94235,94209
 7.0000e-001 94336  9.0458e+000  3.6810e+001 -6.3409e+000 39053 94382,94209,94183
 7.0000e-001 94313  6.9792e+000  3.3042e+001  4.5580e-002 39053 94183,94287,94261
 7.0000e-001 94408  1.2676e+001  3.4065e+001 -3.0261e+000 39053 94454,94382,94261
 7.0000e-001 94431  5.6226e+000  3.0737e+001  7.8589e-001 39053 94261,94382,94183
 7.0000e-001 94480 -2.4042e+000  1.2150e+001  3.5491e+000 39053 94235,94382,94454
 7.0000e-001 94892 -5.8723e+000  1.4325e+001 -3.5457e+000 38392 94915,94771,94719
 7.0000e-001 94869  9.5096e-001  1.8291e+001 -1.6467e+000 38392 94915,94719,94693
 7.0000e-001 94846 -7.7697e+000  1.4071e+001  9.6413e+000 38392 94719,94771,94745
 7.0000e-001 94823 -5.9313e+000  2.3305e+001 -1.4154e+000 38392 94667,94797,94693
 7.0000e-001 94941 -1.2601e+001  1.8486e+001 -5.3990e+000 38392 94797,94771,94915
 7.0000e-001 94964 -7.6277e+000  2.1323e+001 -3.6602e+000 38392 94797,94915,94693
 7.0000e-001 95261  2.2111e+001  1.9790e+001 -6.2201e+000 37831 95013,95065,95039
 7.0000e-001 95238  1.2990e+001  1.4497e+001 -1.6667e+000 37831 95284,95065,95013
 7.0000e-001 95215  1.1988e+001  1.0832e+001  3.2318e+000 37831 95284,95013,94987
 7.0000e-001 95192  1.4255e+001  2.6938e+001  6.2549e-001 37831 94987,95143,95117
 7.0000e-001 95169  1.1324e+001  2.2701e+001 -3.0173e+000 37831 95065,95117,95091
 7.0000e-001 95310  1.3307e+001  2.1977e+001 -3.9009e+000 37831 95117,95065,95284
 7.0000e-001 95333  1.2121e+001  1.6590e+001  5.6482e-001 37831 95117,95284,94987
 7.0000e-001 95554 -1.1313e+001  2.5035e+001 -6.6962e+000 37419 95404,95456,95430
 7.0000e-001 95531  2.7986e+000  5.7983e+001 -5.0507e+000 37419 95378,95456,95404
 7.0000e-001 95508  1.4841e+001  6.7043e+001 -9.0536e+000 37419 95378,95482,95456
 7.0000e-001 95887 -5.9086e+000 -4.4944e-001  3.1431e+000 37221 95662,95714,95688
 7.0000e-001 95864 -4.8979e+000 -5.4940e+000  2.8261e+000 37221 95662,95792,95714
 7.0000e-001 95841  6.1674e+000  3.3910e+000  6.8366e-001 37221 95714,95766,95740
 7.0000e-001 95818 -1.5375e+000  2.3601e+000  2.7340e+000 37221 95714,95792,95766
 7.0000e-001 95988 -8.8317e+001 -8.3001e+000 -1.3059e+001 36731 95910,95962,95936
 7.0000e-001 96138  4.5699e+000  3.4474e+001  1.6241e+000 36327 96293,96063,96037
 7.0000e-001 96115 -2.6374e+000  1.9681e+001 -1.8154e+000 36327 96161,96037,96011
 7.0000e-001 96187  5.0345e+000  3.5284e+001  4.1477e+000 36327 96293,96037,96161
 7.0000e-001 96319  4.7207e+000  3.7833e+001  3.5550e+000 36327 96089,96063,96293
 7.0000e-001 96342  7.1929e+000  3.9626e+001  6.4248e+000 36327 96089,96293,96161
 7.0000e-001 96710  7.4636e+000  1.8616e+001  1.0744e+000 36037 96733,96491,96439
 7.0000e-001 96687  8.6259e+000  2.2132e+001  2.3245e+000 36037 96733,96439,96413
 7.0000e-001 96664  3.3649e+000  1.6581e+001 -7.8770e-001 36037 96439,96491,96465
 7.0000e-001 96641  3.8736e+000  2.7602e+001  2.1554e+000 36037 96387,96517,96413
 7.0000e-001 96618  3.6218e-001  3.2725e+001  3.9220e+000 36037 96387,96543,96517
 7.0000e-001 96595  1.4434e+001  2.2142e+001  1.5159e+001 36037 96387,96569,96543
 7.0000e-001 96759  2.0809e+000  2.2432e+001  1.1974e-001 36037 96517,96491,96733
 7.0000e-001 96782  6.0341e+000  2.7420e+001  2.8920e+000 36037 96517,96733,96413
 7.0000e-001 96932  1.7104e+001  1.1661e+001 -1.2866e+001 35633 97027,96955,96831
 7.0000e-001 96909  6.2523e+000  8.8188e+000 -4.8540e+000 35633 97159,96955,96805
 7.0000e-001 96981  1.6356e+000  5.3749e+000 -1.4330e+001 35633 96857,96831,96955
 7.0000e-001 97004  4.2401e-001  9.2931e+000 -3.8818e+000 35633 96857,96955,96883
 7.0000e-001 97053  7.5739e+000  7.9002e+000 -1.1777e+001 35633 96805,96955,97027
 7.0000e-001 97185  8.7628e+000  1.2631e+001 -3.4424e+000 35633 96883,96955,97159
 7.0000e-001 97593  1.5668e+001  2.3886e+001 -1.2892e+001 35186 97446,97498,97472
 7.0000e-001 97570  1.3126e+001  1.7434e+001 -1.2687e+001 35186 97368,97498,97446
 7.0000e-001 97547  6.5054e+000  3.1816e+000 -1.0994e+001 35186 97368,97446,97394
 7.0000e-001 97524  2.1065e+001  2.7561e+001 -3.4883e+001 35186 97394,97446,97420
 7.0000e-001 98050  3.6137e+000  3.1602e+001 -7.6279e+000 34632 97802,97932,97854
 7.0000e-001 98027  1.5002e+000  7.3953e+000 -1.2981e+001 34632 97776,97932,97802
 7.0000e-001 98004 -1.0543e+001  1.7119e+001  5.4168e+000 34632 97802,97854,97828
 7.0000e-001 97981 -8.3418e+000  1.6909e+001 -1.1454e+000 34632 97880,97932,97906
 7.0000e-001 97958  2.5751e+000  2.9285e+001 -7.4009e+000 34632 97854,97932,97880
 7.0000e-001 98526  8.1851e+000  2.7989e+001  2.2938e+000 34064 98693,98180,98362
 7.0000e-001 98503  7.8892e+000  1.7998e+001 -5.7214e+000 34064 98154,98362,98180
 7.0000e-001 98480  1.6570e+001  3.4347e+001  1.1545e+001 34064 98549,98258,98232
 7.0000e-001 98457  1.6834e+000  5.1109e+001  3.5043e+001 34064 98549,98232,98206
 7.0000e-001 98434  1.1037e+001  2.7469e+001  1.4234e+000 34064 98837,98621,98362
 7.0000e-001 98411  2.1933e+001  4.8520e+001  3.2644e+000 34064 98765,98284,98258
 7.0000e-001 98388  1.3358e+001  2.1581e+001  2.1842e+000 34064 98837,98362,98336
 7.0000e-001 98575  2.4076e+001  4.4945e+001  4.6882e+000 34064 98765,98258,98549
 7.0000e-001 98598  6.8967e+000  3.4261e+001  3.4911e+000 34064 98621,98310,98549
 7.0000e-001 98647  1.3216e+001  3.5376e+001  4.6248e+000 34064 98693,98362,98621
 7.0000e-001 98670  1.6317e+001  5.5565e+001  9.7310e+000 34064 98206,98621,98549
 7.0000e-001 98719  7.8449e+000  3.7751e+001  3.5430e+000 34064 98206,98180,98693
 7.0000e-001 98742  7.4111e+000  3.7207e+001  3.3353e+000 34064 98206,98693,98621
 7.0000e-001 98791  1.8191e+001  4.4701e+001  5.3744e+000 34064 98310,98284,98765
 7.0000e-001 98814  2.0930e+001  4.2007e+001  6.7155e+000 34064 98310,98765,98549
 7.0000e-001 98863  1.0778e+001  3.5802e+001  3.6151e+000 34064 98310,98621,98837
 7.0000e-001 98886  1.2031e+001  2.8515e+001  4.5829e+000 34064 98310,98837,98336
 7.0000e-001 99264  1.3391e+001  7.1511e+001 -1.2493e+001 33446 99287,99094,99068
 7.0000e-001 99241  1.1893e+001  3.9135e+001 -4.6423e-001 33446 99287,99068,99016
 7.0000e-001 99218 -6.7353e+000  4.9486e+001  8.3020e+000 33446 99016,99068,99042
 7.0000e-001 99195  3.3870e+000  8.5514e+000 -5.3189e+000 33446 99016,99146,99120
 7.0000e-001 99172  8.5443e+000  1.9488e+001 -3.7094e+000 33446 98990,99146,99016
 7.0000e-001 99313  2.2437e+000  5.2936e+001  7.1186e+000 33446 99120,99094,99287
 7.0000e-001 99336  1.2955e+001  2.2678e+001  1.3653e+001 33446 99120,99287,99016
 7.0000e-001 99861 -9.0583e+000  2.6915e+001 -4.7222e+000 32940 100172,99956,99884
 7.0000e-001 99838 -1.4576e+000  2.7960e+001 -1.6923e+000 32940 100100,99884,99518
 7.0000e-001 99815 -5.9512e+000  2.0084e+001 -5.6939e+000 32940 100244,99956,99622
 7.0000e-001 99792  3.4700e+000  3.2144e+001 -2.4572e+000 32940 100028,99648,99622
 7.0000e-001 99769  2.4758e+000  3.3347e+001 -3.8485e+000 32940 100100,99518,99492
 7.0000e-001 99746  4.3188e-001  2.6427e+001  1.2099e-001 32940 99570,99622,99596
 7.0000e-001 99723 -4.8118e+000  1.7152e+001 -5.7153e+000 32940 100244,99622,99570
 7.0000e-001 99700  8.8789e+000  2.1431e+001 -1.2079e+000 32940 99440,99492,99466
 7.0000e-001 99910 -3.7676e+000  2.9204e+001 -5.1277e+000 32940 100172,99884,100028
 7.0000e-001 99933 -7.5183e+000  1.6061e+001 -1.3945e+000 32940 99674,99884,99440
 7.0000e-001 99982 -7.3096e+000  1.6540e+001 -3.7591e+000 32940 99518,99884,99956
 7.0000e-001 100005 -1.1070e+001  6.8137e+000 -1.0857e+001 32940 99518,99956,99544
 7.0000e-001 100054 -5.1104e+000  3.2678e+001 -1.5856e+000 32940 99674,99648,100028
 7.0000e-001 100077 -6.2106e-001  3.2449e+001 -2.8084e+000 32940 99674,100028,99884
 7.0000e-001 100126  4.6622e+000  2.6581e+001 -5.8581e+000 32940 99440,99884,100100
 7.0000e-001 100149  6.3664e+000  2.8156e+001 -7.2098e+000 32940 99440,100100,99492
 7.0000e-001 100198 -5.4592e+000  2.6437e+001 -2.4703e-001 32940 99622,99956,100172
 7.0000e-001 100221 -4.5694e+000  2.6760e+001 -1.2185e-001 32940 99622,100172,100028
 7.0000e-001 100270 -6.1329e+000  1.6569e+001 -3.6245e+000 32940 99544,99956,100244
 7.0000e-001 100293 -5.0642e+000  1.3695e+001 -3.5182e+000 32940 99544,100244,99570
 7.0000e-001 100750 -2.0330e-001  3.1344e+001 -5.8806e+000 32365 100773,100580,100502
 7.0000e-001 100727 -3.2568e+000  2.4360e+001 -6.6748e-001 32365 100773,100502,100632
 7.0000e-001 100704 -7.4251e+000  2.0697e+001 -2.5692e+000 32365 100476,100632,100502
 7.0000e-001 100681  4.0914e+000  3.3734e+001 -6.4946e+000 32365 100528,100580,100554
 7.0000e-001 100658  9.3870e+000  4.1618e+001 -1.2921e+001 32365 100502,100580,100528
 7.0000e-001 100799 -4.7147e+000  4.0626e+001 -7.5500e+000 32365 100606,100580,100773
 7.0000e-001 100822 -6.2721e+000  3.3699e+001 -3.2825e+000 32365 100606,100773,100632
 7.0000e-001 101021 -3.1943e+000  2.4519e+001  1.4033e+000 31853 100871,100923,100897
 7.0000e-001 100998 -2.6406e+000  2.5190e+001  1.6757e+000 31853 100871,100949,100923
 7.0000e-001 100975 -1.1628e+000  2.8342e+001  2.0972e+000 31853 100845,100949,100871
 7.0000e-001 101529 -2.2528e+000  2.7145e+001 -1.5055e+001 31249 101552,101310,101232
 7.0000e-001 101506  1.3203e+000  2.4539e+001 -1.3060e+001 31249 101552,101232,101206
 7.0000e-001 101483 -1.9333e+000  3.9339e+001 -3.8805e+000 31249 101206,101388,101336
 7.0000e-001 101460  5.9366e+000  3.4409e+001 -1.1229e+001 31249 101232,101284,101258
 7.0000e-001 101437  1.2247e+000  3.0981e+001 -1.6796e+001 31249 101232,101310,101284
 7.0000e-001 101414  1.3036e+001  6.5237e+001  4.8378e+000 31249 101336,101388,101362
 7.0000e-001 101578  9.2065e-002  3.0650e+001 -1.3501e+001 31249 101336,101310,101552
 7.0000e-001 101601  3.0644e+000  2.6819e+001 -1.1775e+001 31249 101336,101552,101206
 7.0000e-001 101751 -9.6149e+000  6.2824e+001 -5.1847e-001 30515 101774,101650,101624
 7.0000e-001 101728  5.2043e+000  6.7699e+001 -1.6972e+000 30515 101846,101774,101624
 7.0000e-001 101800 -5.1111e+000  7.1271e+001  1.8323e+000 30515 101676,101650,101774
 7.0000e-001 101823 -3.3800e+000  5.5581e+001  3.1669e+000 30515 101676,101774,101702
 7.0000e-001 101872 -7.3859e+000  3.8293e+001 -2.2644e+000 30515 101702,101774,101846
 7.0000e-001 102557 -5.6246e+000  9.1951e+000  1.4592e-001 29947 102652,102580,102266
 7.0000e-001 102534 -5.0303e+000  1.3425e+001  1.0312e+000 29947 102580,102136,102370
 7.0000e-001 102511 -7.6797e+000  3.9269e+000  1.6051e+000 29947 102724,102652,102266
 7.0000e-001 102488 -5.0622e+000  2.4223e+000  1.7004e-001 29947 102724,102266,102240
 7.0000e-001 102465 -2.8775e-001  1.0050e+001 -1.4066e+000 29947 102796,102318,102292
 7.0000e-001 102442  6.5345e+000  8.9788e+000 -1.6439e+000 29947 102162,102214,102188
 7.0000e-001 102419 -2.2922e+000  7.1821e+000 -6.9948e-001 29947 102162,102240,102214
 7.0000e-001 102396  3.4223e+000  1.5361e+001  2.6150e+000 29947 102318,102370,102344
 7.0000e-001 102606 -5.5931e+000  3.4161e-001 -1.2421e+000 29947 102292,102266,102580
 7.0000e-001 102629 -1.7810e+000  8.5645e+000 -2.2192e+000 29947 102796,102292,102580
 7.0000e-001 102678 -9.0443e+000  5.6892e+000  2.8129e+000 29947 102136,102580,102652
 7.0000e-001 102701 -6.6806e+000  1.8828e+000  4.4296e+000 29947 102136,102652,102162
 7.0000e-001 102750 -3.4423e+000  6.4376e+000  2.7530e+000 29947 102162,102652,102724
 7.0000e-001 102773 -2.8077e+000  3.6990e+000  9.0005e-001 29947 102162,102724,102240
 7.0000e-001 102822  1.3634e+000  8.1978e+000 -7.1499e-001 29947 102370,102318,102796
 7.0000e-001 102845  6.8267e-001  7.9870e+000 -1.1687e+000 29947 102370,102796,102580
 7.0000e-001 103044 -1.0517e+001  2.8260e+000  2.1252e+000 29450 102868,102920,102894
 7.0000e-001 103021 -1.1638e+001  9.7623e-001  2.6606e+000 29450 102868,102972,102920
 7.0000e-001 102998 -1.2038e+001 -4.7597e+000  3.4619e+000 29450 102920,102972,102946
 7.0000e-001 103292  1.2143e+001  1.2950e+001  2.4760e+000 29060 103315,103171,103119
 7.0000e-001 103269  3.2598e+000  1.4177e+001  6.4421e+000 29060 103315,103119,103067
 7.0000e-001 103246  2.3277e+001  2.0671e+001 -1.2444e+000 29060 103119,103171,103145
 7.0000e-001 103223  1.7978e+001  5.8673e+000  1.1566e+001 29060 103067,103119,103093
 7.0000e-001 103341  1.8671e+001  1.3901e+001 -8.9563e-001 29060 103197,103171,103315
 7.0000e-001 103364  9.8286e+000  2.0096e+001  4.1843e-001 29060 103197,103315,103067
 7.0000e-001 104002 -7.1574e+000  1.6897e+001 -2.3410e+001 28599 104097,104025,103708
 7.0000e-001 103979  8.2190e+000  2.9807e+000 -9.1267e+000 28599 104169,104025,103656
 7.0000e-001 103956  1.2827e+001  9.3534e+000 -2.3413e+001 28599 104097,103708,103682
 7.0000e-001 103933  1.7951e+001  5.7209e+000 -7.6785e+000 28599 104169,103656,103630
 7.0000e-001 103910  1.6755e+000  4.0383e+001  4.9142e+000 28599 103760,103812,103786
 7.0000e-001 103887  1.9924e+001  1.2142e+001  1.9439e+001 28599 103630,103838,103812
 7.0000e-001 103864 -1.0243e+001  3.2078e+000  4.0412e+000 28599 103708,103760,103734
 7.0000e-001 104051 -3.0255e+001  9.5076e+000 -3.3487e+000 28599 103760,103708,104025
 7.0000e-001 104074  1.0798e+001  2.5491e+001 -3.1384e+000 28599 103760,104025,103812
 7.0000e-001 104123  2.0413e+001  1.1279e+001 -1.7543e+001 28599 103656,104025,104097
 7.0000e-001 104146  5.1221e+001  1.2206e+001 -2.3602e+001 28599 103656,104097,103682
 7.0000e-001 104195  1.4404e+000  7.5416e+000 -6.5202e+000 28599 103812,104025,104169
 7.0000e-001 104218  7.1259e+000  7.4161e+000 -6.7014e+000 28599 103812,104169,103630
 7.0000e-001 104596  2.9284e+001  1.9406e+001 -5.9860e+000 28344 104619,104374,104322
 7.0000e-001 104573  3.0992e+001  1.9373e+001 -5.0345e+000 28344 104619,104322,104478
 7.0000e-001 104550  2.6280e+001  2.5395e+001 -4.9410e+000 28344 104322,104374,104348
 7.0000e-001 104527  2.7974e+001 -3.0777e+000 -7.6572e+000 28344 104400,104452,104426
 7.0000e-001 104504  3.1798e+001  7.0919e+000 -8.6377e+000 28344 104374,104452,104400
 7.0000e-001 104645  3.0068e+001  1.9830e+001 -4.4489e+000 28344 104452,104374,104619
 7.0000e-001 104668  3.2388e+001  2.0177e+001 -3.4921e+000 28344 104452,104619,104478
 7.0000e-001 104987  5.9313e+000  1.3148e+001  9.7275e-002 27947 104713,104843,104765
 7.0000e-001 104964  5.0323e+000  1.4091e+001 -1.0993e+000 27947 104713,104869,104843
 7.0000e-001 104941  4.1566e+000  1.0989e+001 -1.0491e+000 27947 104765,104843,104791
 7.0000e-001 104918  2.5176e+000  5.1570e+000  1.3507e-001 27947 104791,104843,104817
 7.0000e-001 104895  5.3322e+000  1.1456e+001 -1.6939e-001 27947 104713,104765,104739
 7.0000e-001 105367  8.8359e-001  1.2855e+001  2.4740e+000 27443 105390,105197,105119
 7.0000e-001 105344 -5.7543e+000  9.3923e+000  8.8853e-001 27443 105390,105119,105093
 7.0000e-001 105321 -2.3750e+000  1.0815e+001  3.3711e+000 27443 105119,105197,105145
 7.0000e-001 105298  9.1714e+000  5.1176e+000  1.3928e+000 27443 105197,105249,105223
 7.0000e-001 105275 -9.5888e-002  1.7361e+001  8.1743e+000 27443 105145,105197,105171
 7.0000e-001 105416  5.6887e+000  9.2442e+000 -3.0971e+000 27443 105249,105197,105390
 7.0000e-001 105439 -2.8790e+000  4.3725e+000 -5.1806e+000 27443 105249,105390,105093
 7.0000e-001 105994 -1.7383e+000  7.4907e+000  1.6800e+000 27096 106161,106017,105700
 7.0000e-001 105971 -3.0680e+000  1.2172e+001  3.5440e+000 27096 106305,106017,105648
 7.0000e-001 105948  2.8271e+000  1.1678e+001  1.3838e+000 27096 106089,105804,105778
 7.0000e-001 105925 -2.0879e+000  5.9024e+000  1.4581e+000 27096 106161,105700,105674
 7.0000e-001 105902  5.6546e-001  7.5459e+000  9.2906e-001 27096 106233,105726,105700
 7.0000e-001 105879 -1.7160e+001  1.1071e+001  5.4714e+000 27096 106305,105648,105622
 7.0000e-001 105856  3.1427e+000  8.2619e+000  1.6315e+000 27096 105726,105778,105752
 7.0000e-001 106043 -8.6054e-001  9.2768e+000  1.9631e+000 27096 106233,105700,106017
 7.0000e-001 106066  5.4926e-002  9.7979e+000  2.6013e+000 27096 106089,105778,106017
 7.0000e-001 106115 -1.0466e+000  9.9315e+000  7.5004e-001 27096 105830,105804,106089
 7.0000e-001 106138 -1.4932e+000  1.0430e+001  2.5906e+000 27096 106377,106089,106017
 7.0000e-001 106187 -2.1077e+000  1.0570e+001  4.7608e+000 27096 105648,106017,106161
 7.0000e-001 106210 -4.1808e+000  5.1963e+000  5.2663e+000 27096 105648,106161,105674
 7.0000e-001 106259  1.9367e+000  9.6533e+000  3.3865e-001 27096 105778,105726,106233
 7.0000e-001 106282  1.7372e-001  1.0903e+001  1.5206e+000 27096 105778,106233,106017
 7.0000e-001 106331 -1.1734e+000  1.2939e+001  1.6377e+000 27096 106377,106017,106305
 7.0000e-001 106354 -1.5060e+000  2.5520e+001 -5.2421e-001 27096 105830,106305,105622
 7.0000e-001 106403  1.2790e-001  1.3538e+001  9.9773e-001 27096 105830,106089,106377
 7.0000e-001 106426 -8.4000e-002  1.4263e+001 -7.7281e-002 27096 105830,106377,106305
 7.0000e-001 106625 -1.5122e+001  1.9127e+001  2.5877e+000 26684 106475,106553,106527
 7.0000e-001 106602 -1.5111e+001  1.6471e+001  2.1407e+000 26684 106449,106553,106475
 7.0000e-001 106579 -1.9889e+001  2.1375e+001 -4.5743e+000 26684 106475,106527,106501
 7.0000e-001 107084 -1.4883e+001 -7.0450e-001  1.8575e+000 26244 107107,106914,106862
 7.0000e-001 107061 -1.3076e+001 -1.9642e+000 -3.4439e-001 26244 107107,106862,106836
 7.0000e-001 107038 -4.6500e+000 -2.3538e+000  1.3551e+000 26244 106810,106966,106836
 7.0000e-001 107015 -1.0990e+001  2.4178e+001 -1.9568e-001 26244 106862,106914,106888
 7.0000e-001 106992 -2.0213e+001 -7.7380e+000  7.1131e+000 26244 106914,106966,106940
 7.0000e-001 107133 -1.1400e+001  1.5026e+000  3.1624e+000 26244 106966,106914,107107
 7.0000e-001 107156 -1.1691e+001 -1.2905e+000  6.4365e-001 26244 106966,107107,106836
 7.0000e-001 107662 -4.6801e+000  8.7337e+000 -2.6876e-001 25904 107365,107495,107391
 7.0000e-001 107639  3.4456e+000  1.1491e+001 -2.0936e+000 25904 107365,107521,107495
 7.0000e-001 107616  1.1395e-001  9.2721e+000  2.3729e-001 25904 107391,107469,107443
 7.0000e-001 107593  1.1561e+000  1.1217e+001 -5.2342e-001 25904 107391,107495,107469
 7.0000e-001 107570  1.0325e-001  9.3611e+000  2.9654e-001 25904 107391,107443,107417
 7.0000e-001 107547 -8.5600e-001  9.2295e+000 -4.5645e+000 25904 107339,107521,107365
 7.0000e-001 108247 -3.6276e+000  9.9703e+000  1.5091e+000 25450 108270,108002,107950
 7.0000e-001 108224 -4.0671e+000  1.0143e+001  1.1580e+000 25450 108270,107950,108106
 7.0000e-001 108201 -2.9017e+000  5.8437e+000  1.1763e+000 25450 108342,108028,108002
 7.0000e-001 108178 -7.9574e+000  3.5501e+000  3.6098e+000 25450 107950,108002,107976
 7.0000e-001 108155 -8.6937e+000  1.8251e+001  3.5506e+000 25450 107924,108106,107950
 7.0000e-001 108132  1.7599e+000  2.0035e+001 -1.1389e+000 25450 108054,108106,108080
 7.0000e-001 108296 -4.4040e+000  7.6549e+000  1.4282e+000 25450 108342,108002,108270
 7.0000e-001 108319 -3.6656e+000  1.0961e+001  1.3123e+000 25450 108054,108270,108106
 7.0000e-001 108368 -1.7832e+000  8.5751e+000  3.6785e-001 25450 108054,108028,108342
 7.0000e-001 108391 -2.9610e+000  1.1077e+001  8.1003e-001 25450 108054,108342,108270
 7.0000e-001 108818 -9.0922e+000  2.0071e+001  8.4962e+000 24939 108521,108677,108651
 7.0000e-001 108795 -1.9020e+001  1.4835e+001 -5.6152e-002 24939 108495,108677,108521
 7.0000e-001 108772 -2.4731e+000  2.2792e+001 -1.5904e+000 24939 108521,108651,108625
 7.0000e-001 108749 -6.0218e+000  1.7245e+001  6.8806e-001 24939 108521,108625,108599
 7.0000e-001 108726  1.5114e+000  2.2411e+000  2.3886e+000 24939 108547,108599,108573
 7.0000e-001 108703 -8.6747e+000  6.5191e+000 -5.0311e-001 24939 108521,108599,108547
 7.0000e-001 109403  3.6453e+001  1.2369e+001 -8.9156e+000 24741 109158,109210,109184
 7.0000e-001 109380  2.9764e+001  1.7506e+001 -4.2815e+000 24741 109158,109262,109210
 7.0000e-001 109357  2.5096e+001  6.8673e+000 -5.4400e+000 24741 109080,109262,109158
 7.0000e-001 109334  1.8814e+001  1.1953e+001 -2.4320e+000 24741 109080,109158,109132
 7.0000e-001 109311  3.9945e+001  2.2997e+001 -7.1554e+000 24741 109210,109262,109236
 7.0000e-001 109288  2.2595e+001  1.5477e+001 -7.0261e-001 24741 109080,109132,109106
 7.0000e-001 109781  1.3012e+000  8.6735e+000 -2.1166e-001 24337 109533,109611,109559
 7.0000e-001 109758  2.7367e+000  9.7314e+000 -6.7449e-001 24337 109533,109637,109611
 7.0000e-001 109735  1.7869e+000  9.0562e+000  5.6883e-002 24337 109559,109611,109585
 7.0000e-001 109712  3.2532e+000  1.0109e+001  5.3136e-001 24337 109533,109663,109637
 7.0000e-001 109689  5.9924e-001  8.3742e+000 -2.1655e-001 24337 109507,109663,109533
 7.0000e-001 110159  1.3363e+001  1.4811e+001 -3.2399e+000 23833 110182,109963,109911
 7.0000e-001 110136  1.0729e+001  1.1748e+001 -9.5864e-001 23833 110182,109911,109885
 7.0000e-001 110113  2.1357e+001  1.5007e+001 -4.5016e+000 23833 109885,110041,109989
 7.0000e-001 110090  1.2818e+001  1.7079e+001 -1.7167e+000 23833 109911,109963,109937
 7.0000e-001 110067  1.6253e+001  1.2154e+000 -4.0428e+000 23833 109989,110041,110015
 7.0000e-001 110208  1.2566e+001  1.6457e+001 -4.3050e+000 23833 109989,109963,110182
 7.0000e-001 110231  1.2510e+001  1.5168e+001 -2.5535e+000 23833 109989,110182,109885
 7.0000e-001 110332  1.5002e+000  1.3668e+001 -9.1968e-001 23429 110254,110306,110280
 7.0000e-001 110580  2.0642e+001  1.2001e+001  5.6611e+000 22825 110603,110407,110381
 7.0000e-001 110557  2.6502e+001  1.6284e+001 -4.6035e+000 22825 110603,110381,110485
 7.0000e-001 110534  8.4782e+000  5.2779e+000  5.3657e+000 22825 110433,110485,110459
 7.0000e-001 110511  5.8074e-002  3.0097e+001 -1.2516e+001 22825 110355,110485,110381
 7.0000e-001 110629  1.8269e+001  5.6593e-001  1.0793e+001 22825 110433,110407,110603
 7.0000e-001 110652  2.1939e+001  7.1807e+000  1.2241e+000 22825 110433,110603,110485
 7.0000e-001 110902 -2.7093e+001  1.3474e+001 -5.8336e+000 22428 110703,110755,110729
 7.0000e-001 110879 -1.6712e+001  3.6858e+000 -5.9909e+000 22428 110703,110781,110755
 7.0000e-001 110856 -2.3275e+001  1.8499e-001 -9.5233e+000 22428 110703,110807,110781
 7.0000e-001 110833 -4.0131e+001 -9.9853e+000 -1.7895e+001 22428 110677,110807,110703
 7.0000e-001 111284  3.4719e+001  2.6840e+001 -3.4113e+000 22138 111088,111140,111114
 7.0000e-001 111261  2.7618e+001  2.7668e+001 -4.7237e+000 22138 111062,111140,111088
 7.0000e-001 111238  2.7310e+001  2.8656e+001 -1.7304e+000 22138 111036,111140,111062
 7.0000e-001 111215  1.7360e+001  2.3624e+001 -4.8934e+000 22138 111010,111140,111036
 7.0000e-001 111192  1.6981e+001  2.1935e+001 -2.9661e+000 22138 111010,111166,111140
 7.0000e-001 111385 -1.9175e+001  1.9936e+001  3.7108e+000 21826 111307,111359,111333
 7.0000e-001 111731 -2.0900e+001  2.1760e+001  5.1796e+000 21264 111754,111538,111434
 7.0000e-001 111708 -1.4136e+001  2.4182e+001  4.8661e-001 21264 111754,111434,111408
 7.0000e-001 111685 -2.3906e+001  2.7470e+001  3.6123e+000 21264 111434,111538,111460
 7.0000e-001 111662 -4.0127e+001  2.0457e+001  7.2922e+000 21264 111460,111538,111486
 7.0000e-001 111639 -1.1185e+001  1.5695e+001  1.0678e+001 21264 111408,111590,111564
 7.0000e-001 111616 -4.7721e+001  4.1254e+001  1.6919e+001 21264 111486,111538,111512
 7.0000e-001 111780 -2.3015e+001  2.0169e+001  6.6434e+000 21264 111564,111538,111754
 7.0000e-001 111803 -2.0880e+001  1.5202e+001  3.6192e+000 21264 111564,111754,111408
 7.0000e-001 111955  2.3012e+001  3.1001e+001  6.9838e-001 20860 111978,111906,111880
 7.0000e-001 111932  2.1540e+001  2.7860e+001 -2.9585e+000 20860 112110,111828,111906
 7.0000e-001 112004  2.0907e+001  3.1996e+001 -1.3610e+000 20860 112110,111906,111978
 7.0000e-001 112136  2.2196e+001  3.2066e+001 -1.9136e+000 20860 111854,111828,112110
 7.0000e-001 112159  2.2089e+001  3.7291e+001 -5.5668e-001 20860 111854,112110,111978
 7.0000e-001 112407  1.1169e+001  2.5296e+001 -6.4377e+000 20320 112182,112286,112208
 7.0000e-001 112384  1.9813e+001  2.9114e+001 -7.3516e+000 20320 112182,112312,112286
 7.0000e-001 112361  1.7640e+001  2.5592e+001 -5.6893e+000 20320 112208,112286,112260
 7.0000e-001 112338 -5.3757e+000  2.5018e+001 -9.6305e+000 20320 112208,112260,112234
 7.0000e-001 112655  1.2507e+001  1.1257e+001  1.7984e+000 19916 112508,112560,112534
 7.0000e-001 112632  1.4867e+001  2.0339e+001  3.4775e+000 19916 112430,112560,112508
 7.0000e-001 112609  1.5375e+001  1.3668e+001  7.0370e+000 19916 112430,112508,112456
 7.0000e-001 112586  1.4071e+001  8.5960e+000  7.9787e+000 19916 112456,112508,112482
 7.0000e-001 112807 -8.8168e+000  6.7545e+000 -1.0603e+000 19626 112680,112732,112706
 7.0000e-001 112784 -6.4179e+000  1.0922e+000 -2.6538e+000 19626 112680,112758,112732
 7.0000e-001 113008 -5.6565e+000  4.9035e+000 -1.4544e+000 19165 112858,112936,112884
 7.0000e-001 112985 -8.8303e+000  1.4891e+001 -3.7045e+000 19165 112832,112936,112858
 7.0000e-001 112962 -3.3118e+000  1.0014e+000 -3.8240e+000 19165 112884,112936,112910
 7.0000e-001 113209 -2.5404e+000  6.7802e+000  1.3640e+000 18596 113033,113085,113059
 7.0000e-001 113186  1.3380e+000  9.4700e+000  2.9010e-002 18596 113033,113111,113085
 7.0000e-001 113163 -3.7729e+000  2.1213e-002  6.7976e+000 18596 113033,113137,113111
 7.0000e-001 113481 -6.9799e+000  7.7276e+000  8.0455e-001 18348 113256,113308,113282
 7.0000e-001 113458 -1.5404e+000  1.0008e+001 -2.8143e-001 18348 113256,113386,113308
 7.0000e-001 113435 -2.0272e+000  7.9487e+000  1.4522e-001 18348 113308,113386,113360
 7.0000e-001 113412  6.0718e-001  8.0993e+000  9.4441e-002 18348 113308,113360,113334
 7.0000e-001 113753 -7.9885e-001  8.4141e+000 -4.7744e-002 17830 113554,113606,113580
 7.0000e-001 113730  1.4495e+000  8.6802e+000  8.3426e-002 17830 113528,113606,113554
 7.0000e-001 113707  1.3352e+000  8.3902e+000 -4.8183e-002 17830 113528,113658,113606
 7.0000e-001 113684  3.3756e+000  8.9159e+000  2.9711e-001 17830 113606,113658,113632
 7.0000e-001 113954  1.6012e+001  1.5779e+001 -3.0847e+000 17326 113778,113830,113804
 7.0000e-001 113931  2.5957e+001  1.1465e+001 -6.1475e+000 17326 113778,113882,113830
 7.0000e-001 113908  2.1569e+001  2.7393e+000 -7.6295e+000 17326 113830,113882,113856
 7.0000e-001 114106  1.4387e-001  9.0228e+000 -3.7256e-001 16870 113979,114031,114005
 7.0000e-001 114083  2.0960e+000  8.5016e+000 -9.7097e-001 16870 113979,114057,114031
 7.0000e-001 114461  1.7266e+001  4.1037e+001 -1.3714e+001 16266 114236,114288,114262
 7.0000e-001 114438  1.7412e+001  2.0319e+001 -1.9061e+000 16266 114236,114366,114288
 7.0000e-001 114415  2.3120e+001  2.6559e+001  3.4429e+000 16266 114288,114340,114314
 7.0000e-001 114392  2.2267e+001  2.5370e+001  3.5689e-001 16266 114288,114366,114340
 7.0000e-001 114562 -1.7415e+001  3.6933e+001  0.0000e+000 15830 114484,114536,114510
 7.0000e-001 114663  2.5683e+000 -3.1125e+000 -1.9026e+000 15151 114585,114637,114611
 7.0000e-001 114886  1.9427e+001  1.7824e+001  3.3554e+000 417 114762,114814,114788
 7.0000e-001 114863  1.8138e+001  1.2284e+001  4.0324e+000 417 114710,114814,114762
 7.0000e-001 114840  2.4282e+001  1.0812e+001  5.6066e+000 417 114710,114762,114736
 8.0000e-001 66549 -2.0520e+001  2.0632e+001  1.2498e+001 66104 66350,66454,66428
 8.0000e-001 66526 -1.8800e+000  2.9461e+001  6.5590e+000 66104 66324,66454,66350
 8.0000e-001 66503 -1.9986e+000  4.6119e+001  4.3893e+000 66104 66350,66428,66402
 8.0000e-001 66480 -7.3896e+000  2.7490e+001  8.2674e-002 66104 66350,66402,66376
 8.0000e-001 66947  8.7786e+000 -5.1188e+001 -1.1144e+001 65906 66699,66829,66803
 8.0000e-001 66924  2.5589e+000 -6.4978e+001 -7.2283e-001 65906 66673,66829,66699
 8.0000e-001 66901  9.9170e-001  3.6282e+000 -2.8356e+000 65906 66725,66777,66751
 8.0000e-001 66878 -8.6126e+000 -7.2836e+000 -7.2310e+000 65906 66725,66803,66777
 8.0000e-001 66855 -2.3587e+000 -3.0757e+001 -7.2198e+000 65906 66699,66803,66725
 8.0000e-001 67146 -7.0235e-001 -6.7061e-001  9.5668e-002 65708 67022,67074,67048
 8.0000e-001 67123  2.7157e-001 -4.6443e-001 -3.2350e-002 65708 66970,67074,67022
 8.0000e-001 67100  9.6267e-001  9.7662e-002 -5.0567e-001 65708 66970,67022,66996
 8.0000e-001 67477 -5.1057e+000  2.4289e+000 -1.0809e+001 65418 67278,67356,67330
 8.0000e-001 67454  1.0146e+000  1.9499e+001 -6.9634e+000 65418 67278,67382,67356
 8.0000e-001 67431 -1.1001e+001  8.3128e+000 -1.8084e+001 65418 67278,67330,67304
 8.0000e-001 67408  1.2354e-001  6.2581e+000 -9.0539e+000 65418 67252,67382,67278
 8.0000e-001 68111 -5.5285e+000  1.6956e+001 -4.3150e+000 65014 67791,67921,67869
 8.0000e-001 68088 -1.4297e+001  1.2140e+001  1.1578e+001 65014 67765,67921,67791
 8.0000e-001 68065  1.0268e+001  3.3282e+001  2.2064e+000 65014 67869,67921,67895
 8.0000e-001 68042  3.7224e+000  3.2247e+001  3.3568e+000 65014 67765,67947,67921
 8.0000e-001 68019 -1.3332e+001  3.4502e+001  1.9289e+000 65014 67791,67869,67817
 8.0000e-001 67996  1.4483e+001  3.3605e+001  1.1362e+001 65014 67817,67869,67843
 8.0000e-001 67973  2.5901e+000  2.2321e+001 -6.6554e+000 65014 67739,67947,67765
 8.0000e-001 68359 -2.0667e+000  1.4587e+001  1.5696e+000 64816 68186,68238,68212
 8.0000e-001 68336 -1.1623e+000  7.7047e+000  2.1932e+000 64816 68186,68264,68238
 8.0000e-001 68313  4.0148e-001  8.1130e+000 -6.8657e-001 64816 68160,68264,68186
 8.0000e-001 68290  6.7980e-001  5.6947e+000  1.9986e+000 64816 68134,68264,68160
 8.0000e-001 68509  3.4145e+001  3.9130e+001  1.7766e+001 64362 68864,68532,68434
 8.0000e-001 68486  2.2115e+001  3.7057e+001  1.5629e+000 64362 68532,68408,68382
 8.0000e-001 68558  1.4302e+000  4.8219e+001 -1.6235e+001 64362 68736,68532,68460
 8.0000e-001 68581  8.7673e+000  4.2776e+001  7.1096e+000 64362 68604,68532,68382
 8.0000e-001 68630  1.6339e+001  7.5227e+001  1.6442e+000 64362 68460,68532,68604
 8.0000e-001 68762  2.3777e+001  1.5200e+000  1.0281e+001 64362 68434,68532,68736
 8.0000e-001 68890  3.4160e+001  4.3570e+001  1.7846e+001 64362 68408,68532,68864
 8.0000e-001 69168  5.2124e+000  2.5206e+001 -5.6219e+000 64164 69018,69070,69044
 8.0000e-001 69145 -2.1020e-001  1.8087e+001 -3.2563e+000 64164 68992,69070,69018
 8.0000e-001 69122  2.5222e+000  2.4367e+001 -2.8953e+000 64164 68992,69096,69070
 8.0000e-001 69367  6.0377e+000  1.2797e+001 -2.7165e+000 63966 69462,69390,69269
 8.0000e-001 69344  7.2116e+000  2.6828e+001 -2.8552e+000 63966 69390,69243,69217
 8.0000e-001 69321  1.5112e+000  1.9302e+001 -4.9564e+000 63966 69191,69295,69217
 8.0000e-001 69416  1.3117e+001  2.2609e+001 -5.8184e+000 63966 69295,69269,69390
 8.0000e-001 69439  7.6602e+000  2.0674e+001 -5.5242e+000 63966 69295,69390,69217
 8.0000e-001 69488  1.5303e+001  3.0117e+001  9.0400e-001 63966 69243,69390,69462
 8.0000e-001 69900 -8.3654e+000  9.9528e+000  7.0515e-001 63676 69701,69779,69727
 8.0000e-001 69877 -5.0156e+000  1.1346e+001  3.3770e-001 63676 69675,69779,69701
 8.0000e-001 69854  1.9597e-001  1.1920e+001 -6.5496e-001 63676 69675,69805,69779
 8.0000e-001 69831 -1.8505e+001  3.3040e+001  7.9509e+000 63676 69727,69779,69753
 8.0000e-001 70050 -6.3525e-001  2.6238e+001  6.5555e-001 63472 70073,69949,69923
 8.0000e-001 70027 -5.4866e+000  2.1579e+001 -1.5082e+000 63472 70073,69923,70001
 8.0000e-001 70099  4.5997e+000  2.3125e+001  2.6206e+000 63472 69975,69949,70073
 8.0000e-001 70122  5.6531e-001  1.9053e+001  8.0934e-001 63472 69975,70073,70001
 8.0000e-001 70321 -5.5035e+000  5.3343e+000 -5.9884e+000 63274 70145,70223,70171
 8.0000e-001 70298  6.0905e-001  1.0213e+001 -2.3494e+000 63274 70145,70249,70223
 8.0000e-001 70275 -3.8705e+000  2.4317e+001 -1.0739e+001 63274 70171,70223,70197
 8.0000e-001 70593 -1.3656e+000  1.5119e+001 -1.6310e-002 63076 70368,70472,70420
 8.0000e-001 70570 -3.4105e+000  1.8315e+001 -3.1804e-001 63076 70368,70498,70472
 8.0000e-001 70547 -6.2378e+000  1.4823e+001  5.4173e+000 63076 70420,70472,70446
 8.0000e-001 70524  9.2550e-001  1.5320e+001  2.2811e+000 63076 70368,70420,70394
 8.0000e-001 70843 -1.3399e+001 -4.7789e+000 -3.2477e+000 62736 70866,70644,70618
 8.0000e-001 70820 -1.7217e+001 -9.5631e+000 -1.5493e+000 62736 70866,70618,70748
 8.0000e-001 70797 -1.7494e+000  6.3705e-002  2.6182e+000 62736 70644,70722,70696
 8.0000e-001 70774 -9.8655e-001  1.5160e+001  4.9579e+000 62736 70644,70696,70670
 8.0000e-001 70892 -1.7570e+001 -1.8474e+000 -2.7818e-001 62736 70722,70644,70866
 8.0000e-001 70915 -2.0620e+001 -6.4546e+000  1.2340e+000 62736 70722,70866,70748
 8.0000e-001 71018 -3.7113e+000  3.9134e+000  2.1972e+000 62516 70940,70992,70966
 8.0000e-001 71219  4.8064e+000  1.5599e+001  3.6738e+000 62226 71069,71147,71095
 8.0000e-001 71196  9.9742e+000  1.4543e+001 -1.2358e+000 62226 71043,71147,71069
 8.0000e-001 71173  2.7475e+001  8.6618e+000  6.5254e-001 62226 71095,71147,71121
 8.0000e-001 71857  7.7860e+000  2.5368e+001  5.6597e+000 61708 71511,71693,71667
 8.0000e-001 71834  5.8569e+000  2.2679e+001 -6.6617e-001 61708 71485,71693,71511
 8.0000e-001 71811 -5.6848e+000  2.3602e+001  3.6407e-001 61708 71880,71537,71511
 8.0000e-001 71788  5.7354e+000  2.0857e+001  1.5342e+000 61708 71880,71511,71667
 8.0000e-001 71765  1.2129e+001  2.5102e+001 -1.4171e+000 61708 71537,71615,71589
 8.0000e-001 71742  2.1093e+001  4.6325e+001  7.5470e+000 61708 71615,71667,71641
 8.0000e-001 71719 -1.0590e+000  1.6584e+001  4.5090e+000 61708 71537,71589,71563
 8.0000e-001 71906  3.2422e+000  2.4587e+001  3.4152e+000 61708 71615,71537,71880
 8.0000e-001 71929  1.3364e+001  2.1547e+001  5.3192e+000 61708 71615,71880,71667
 8.0000e-001 72226 -1.4143e+001  2.5461e+001 -1.0050e+001 61204 72249,72056,72004
 8.0000e-001 72203 -2.3745e+001  1.4289e+001 -1.4982e+001 61204 72249,72004,71978
 8.0000e-001 72180 -4.0086e+000  3.9552e+000 -1.7899e+001 61204 71978,72108,72082
 8.0000e-001 72157  5.9244e+000  3.7921e+001 -3.6159e+000 61204 72004,72056,72030
 8.0000e-001 72134 -1.5026e+001 -7.6550e+000 -2.2914e+001 61204 71952,72108,71978
 8.0000e-001 72275 -4.9994e+000  1.6288e+001 -4.6283e+000 61204 72082,72056,72249
 8.0000e-001 72298 -1.2505e+001  1.0607e+001 -7.9710e+000 61204 72082,72249,71978
 8.0000e-001 72757 -5.4007e-001  1.9166e+001  3.2906e-001 60800 72483,72613,72509
 8.0000e-001 72734 -3.0315e-001  1.9871e+001  2.6143e-001 60800 72483,72639,72613
 8.0000e-001 72711 -2.7621e+000  3.0686e+001  1.4354e+000 60800 72561,72613,72587
 8.0000e-001 72688 -1.4320e+000  2.0823e+001 -1.8033e+000 60800 72509,72613,72561
 8.0000e-001 72665  8.5190e+000  4.0427e+001 -1.2035e+001 60800 72509,72561,72535
 8.0000e-001 72907 -6.3800e+000  2.5125e+001 -3.7582e+000 60552 72780,72832,72806
 8.0000e-001 72884  9.7962e-001  3.6344e+001 -6.9334e+000 60552 72780,72858,72832
 8.0000e-001 73464  1.6032e+000  1.2169e+001  7.1093e+000 60240 73487,73222,73196
 8.0000e-001 73441  7.0966e+000  2.0345e+001  3.7119e+000 60240 73559,73487,73196
 8.0000e-001 73418  3.7399e+000  2.3550e+001  3.6693e+000 60240 73559,73196,73170
 8.0000e-001 73395  1.0898e+001 -4.0216e-002  3.6662e+000 60240 73222,73274,73248
 8.0000e-001 73372 -2.1091e+000  7.7973e+000 -5.2863e+000 60240 73118,73300,73274
 8.0000e-001 73349  7.2420e+000  2.2674e+001 -1.2636e+000 60240 73092,73300,73118
 8.0000e-001 73326  4.3304e+000  2.6696e+001  1.2403e+000 60240 73118,73170,73144
 8.0000e-001 73513  6.9369e+000  1.5990e+001  3.1269e+000 60240 73274,73222,73487
 8.0000e-001 73536  6.2542e+000  1.7882e+001  8.8769e-002 60240 73274,73487,73118
 8.0000e-001 73585  3.8552e+000  1.5486e+001  1.5521e+000 60240 73118,73487,73559
 8.0000e-001 73608  1.0977e+000  1.9300e+001  1.6833e+000 60240 73118,73559,73170
 8.0000e-001 73758 -3.6376e+001 -6.2375e+000 -5.3534e+000 59871 73657,73709,73683
 8.0000e-001 73735 -1.4515e+001 -4.1888e+001 -3.4390e+000 59871 73631,73709,73657
 8.0000e-001 74187 -6.8312e+000  5.0004e+001  1.4211e+000 59474 74210,73890,73864
 8.0000e-001 74164 -2.8928e+000  5.0056e+001  5.4510e-001 59474 74210,73864,74046
 8.0000e-001 74141 -6.1545e+000  3.8682e+001  9.9433e-001 59474 73890,73942,73916
 8.0000e-001 74118 -1.1150e+001  4.4801e+001  1.8614e+000 59474 73890,73994,73942
 8.0000e-001 74095 -5.1002e+000  4.8871e+001  1.0462e+001 59474 73994,74046,74020
 8.0000e-001 74072 -1.7704e+001  3.3409e+001 -8.2043e-001 59474 73942,73994,73968
 8.0000e-001 74236 -3.0990e+000  4.8398e+001  2.5454e+000 59474 73994,73890,74210
 8.0000e-001 74259  6.6757e-001  4.8422e+001  2.3016e+000 59474 73994,74210,74046
 8.0000e-001 74716 -1.6898e+000  1.2798e+001 -1.5112e+001 58770 74468,74598,74494
 8.0000e-001 74693 -3.0847e+000  3.1828e+000 -2.1203e+001 58770 74442,74598,74468
 8.0000e-001 74670 -7.9483e+000 -1.4916e+001 -2.2825e+001 58770 74494,74572,74520
 8.0000e-001 74647 -2.2021e+000 -2.5906e+000 -1.3447e+001 58770 74494,74598,74572
 8.0000e-001 74624  8.3988e+000 -4.8224e+000 -8.5694e+000 58770 74520,74572,74546
 8.0000e-001 75222 -5.5237e+000  3.3382e+001 -1.2867e+000 58266 74951,75081,75029
 8.0000e-001 75199 -2.8905e+000  4.3043e+001 -7.4167e-002 58266 74925,75081,74951
 8.0000e-001 75176  8.4403e-001  2.7425e+001 -9.1160e+000 58266 75029,75081,75055
 8.0000e-001 75153 -1.6589e+001  3.9618e+001  4.2383e+000 58266 74951,75003,74977
 8.0000e-001 75130 -6.7564e+000  3.1852e+001  5.3630e+000 58266 74951,75029,75003
 8.0000e-001 75107 -2.1197e+001  2.3267e+001 -1.4515e+001 58266 74899,75081,74925
 8.0000e-001 75421  1.7108e+001  5.6625e+001  1.3125e+000 57826 75444,75297,75245
 8.0000e-001 75398  3.1578e+001  5.0056e+001  2.5955e+000 57826 75444,75245,75349
 8.0000e-001 75375  1.9551e+001  5.8974e+001  5.4401e-001 57826 75516,75297,75271
 8.0000e-001 75470  2.4721e+001  5.4860e+001  1.0935e+001 57826 75323,75297,75444
 8.0000e-001 75493  4.2699e+001  5.5964e+001  1.5223e+001 57826 75323,75444,75349
 8.0000e-001 75542  1.2640e+001  4.9441e+001  3.5863e+000 57826 75245,75297,75516
 8.0000e-001 76257  1.0939e+001  3.0278e+001 -3.0489e+000 57422 76280,76093,76067
 8.0000e-001 76234  1.4007e+001  2.3958e+001  1.8644e+000 57422 75885,76093,75911
 8.0000e-001 76211  1.4241e+001  3.3441e+001 -3.6198e-001 57422 76424,76280,76067
 8.0000e-001 76188  1.5821e+001  3.4921e+001  5.1679e+000 57422 76352,75937,75911
 8.0000e-001 76165  1.1752e+001  2.7433e+001 -1.2829e+000 57422 76424,76067,76015
 8.0000e-001 76142  1.8068e+001  5.6483e+001  9.5416e+000 57422 76015,76067,76041
 8.0000e-001 76119  2.9022e+001  2.6100e+001  2.6799e+000 57422 75963,76015,75989
 8.0000e-001 76306  1.0774e+001  2.7937e+001  2.9799e+000 57422 75911,76093,76280
 8.0000e-001 76329  1.9634e+001  2.9256e+001  3.1926e+000 57422 76352,75911,76280
 8.0000e-001 76378  2.2238e+001  4.3697e+001  1.0140e+001 57422 75963,75937,76352
 8.0000e-001 76401  2.4106e+001  3.7698e+001  7.3062e+000 57422 75963,76352,76280
 8.0000e-001 76450  1.7138e+001  2.6220e+001  1.5927e-001 57422 75963,76280,76424
 8.0000e-001 76473  1.5395e+001  2.1818e+001 -1.1770e+000 57422 75963,76424,76015
 8.0000e-001 76949 -1.3254e+001 -2.5156e+000  8.8005e+000 56904 76972,76707,76681
 8.0000e-001 76926 -7.9299e+000  1.3073e+001  4.0620e+000 56904 77044,76972,76681
 8.0000e-001 76903 -6.2116e+000  2.3239e+001  3.6781e+000 56904 77044,76681,76629
 8.0000e-001 76880 -2.0824e+000 -7.2471e+000  1.0034e+000 56904 76707,76785,76759
 8.0000e-001 76857  5.9508e+000  3.4545e+000 -6.2737e+000 56904 76577,76785,76603
 8.0000e-001 76834  6.3197e-001 -3.1600e+000  3.6713e+000 56904 76707,76759,76733
 8.0000e-001 76811  2.7628e+000  1.9372e+001  1.6138e+001 56904 76629,76681,76655
 8.0000e-001 76998 -5.4901e+000  3.6075e+000  1.6644e+000 56904 76785,76707,76972
 8.0000e-001 77021 -7.9399e+000  3.6523e+000 -6.2511e-001 56904 76785,76972,76603
 8.0000e-001 77070 -4.4460e+000  3.4248e+000 -5.1017e-001 56904 76603,76972,77044
 8.0000e-001 77093 -3.9625e+000  1.0750e+001  7.1881e-001 56904 76603,77044,76629
 8.0000e-001 77471  4.4798e+000  2.4263e+001 -3.9911e+000 56542 77566,77494,77275
 8.0000e-001 77448  3.9049e+000  3.0864e+001  1.7321e+000 56542 77494,77223,77353
 8.0000e-001 77425  3.9964e+000  2.2276e+001 -4.9409e+000 56542 77566,77275,77249
 8.0000e-001 77402  2.1409e+000  2.2316e+001  2.0014e+001 56542 77197,77353,77223
 8.0000e-001 77379 -5.4580e-001  2.9927e+001 -1.3818e+001 56542 77275,77327,77301
 8.0000e-001 77520  3.7555e+000  4.0483e+001 -6.2607e+000 56542 77327,77275,77494
 8.0000e-001 77543 -2.0747e+001  2.6190e+001 -3.9410e-001 56542 77327,77494,77353
 8.0000e-001 77592  8.6050e+000  2.5110e+001  5.1933e-001 56542 77223,77494,77566
 8.0000e-001 77615  5.2897e+000  1.7716e+001 -9.4937e-001 56542 77223,77566,77249
 8.0000e-001 77814  1.2168e+001  1.6900e+001 -1.1291e+001 56038 77837,77690,77664
 8.0000e-001 77791  9.6913e+000  1.5783e+001 -1.1057e+001 56038 77837,77664,77742
 8.0000e-001 77768  1.3955e+001  7.6840e+000 -1.0062e+001 56038 77638,77742,77664
 8.0000e-001 77863  1.2864e+001  1.7120e+001 -1.3170e+001 56038 77716,77690,77837
 8.0000e-001 77886  1.0103e+001  1.5872e+001 -1.2905e+001 56038 77716,77837,77742
 8.0000e-001 78345  2.7835e+001  5.9170e+001  2.6833e+001 55534 78071,78123,78097
 8.0000e-001 78322  5.1840e+000  3.7592e+001  8.1324e+000 55534 78071,78201,78123
 8.0000e-001 78299  1.1408e+001  5.6984e+001  5.7503e+000 55534 78071,78227,78201
 8.0000e-001 78276  3.3749e+001  4.2081e+001  1.5202e+001 55534 78123,78175,78149
 8.0000e-001 78253  2.9350e+001  4.6220e+001  1.0480e+001 55534 78123,78201,78175
 8.0000e-001 78802 -8.4023e+000  2.2338e+001 -2.9623e+000 55030 78825,78632,78606
 8.0000e-001 78779 -1.0310e+000  2.5967e+001 -6.2396e+000 55030 78897,78825,78606
 8.0000e-001 78756 -1.8237e+001  3.4338e+001 -1.3130e+001 55030 78897,78606,78580
 8.0000e-001 78733 -2.5560e+000  1.3252e+001 -1.0674e+001 55030 78554,78684,78658
 8.0000e-001 78710  2.1501e+000  2.5797e+001 -3.5043e+000 55030 78528,78684,78554
 8.0000e-001 78851 -3.5523e-001  3.5186e+001  2.1484e+000 55030 78658,78632,78825
 8.0000e-001 78874 -1.6478e+000  1.7216e+001 -9.8329e+000 55030 78658,78825,78554
 8.0000e-001 78923 -1.6563e+001  9.3663e+000 -1.6831e+001 55030 78554,78825,78897
 8.0000e-001 78946 -2.4969e+001  1.9110e+001 -2.4312e+001 55030 78554,78897,78580
 8.0000e-001 79403  4.6978e+000  1.9894e+001 -1.3398e+000 54426 79426,79233,79155
 8.0000e-001 79380  5.9909e+000  2.1886e+001  3.2603e-001 54426 79426,79155,79129
 8.0000e-001 79357 -8.6923e+000  3.7863e+001 -1.3017e+001 54426 79233,79285,79259
 8.0000e-001 79334  1.8263e+001  2.1551e+001 -5.3499e+000 54426 79181,79233,79207
 8.0000e-001 79311  1.5974e+001  2.1688e+001 -3.1779e+000 54426 79155,79233,79181
 8.0000e-001 79452  4.7455e+000  2.2178e+001  8.2763e-002 54426 79285,79233,79426
 8.0000e-001 79475  5.3770e+000  2.4510e+001  1.3770e+000 54426 79285,79426,79129
 8.0000e-001 79932 -1.6816e+001  2.0424e+001  7.7668e+000 53915 79658,79762,79684
 8.0000e-001 79909 -5.0865e+000  1.9834e+001  3.7249e+000 53915 79658,79814,79762
 8.0000e-001 79886 -4.1154e+000  1.5343e+001  7.4227e+000 53915 79762,79814,79788
 8.0000e-001 79863 -8.2184e+000  2.6246e+001  1.3846e+001 53915 79710,79762,79736
 8.0000e-001 79840 -1.2238e+001  2.0297e+001  9.8945e+000 53915 79684,79762,79710
 8.0000e-001 80033 -5.9756e+000  4.2415e+001  1.0341e-001 53667 79955,80007,79981
 8.0000e-001 80401 -1.1907e+001  2.4995e+001 -8.3737e+000 53263 80104,80260,80234
 8.0000e-001 80378 -6.7961e+000  4.2508e+001  2.0935e-002 53263 80078,80260,80104
 8.0000e-001 80355 -1.2155e+000  1.7817e+001 -1.8382e+000 53263 80104,80234,80130
 8.0000e-001 80332  3.6291e-001  2.0511e+001 -6.8626e-001 53263 80130,80208,80182
 8.0000e-001 80309  4.1070e+000  2.0920e+001 -2.7735e-001 53263 80130,80234,80208
 8.0000e-001 80286  4.1338e-001  2.4218e+001  1.5158e+000 53263 80130,80182,80156
 8.0000e-001 80911 -1.1799e+001  1.4298e+001 -1.1645e+001 52965 80640,80770,80744
 8.0000e-001 80888  8.0638e+000  3.8642e+001 -1.3668e+000 52965 80614,80770,80640
 8.0000e-001 80865  4.0906e+000  3.3615e+001 -7.4140e-001 52965 80640,80744,80666
 8.0000e-001 80842  5.5583e+000  2.6588e+001 -1.4574e+001 52965 80588,80770,80614
 8.0000e-001 80819  1.0831e+001  2.3218e+001 -7.8394e-001 52965 80666,80718,80692
 8.0000e-001 80796 -4.5974e+000  1.6803e+001 -3.9074e+000 52965 80666,80744,80718
 8.0000e-001 81262 -3.8030e+001  4.6934e+000  1.3902e+000 52561 81037,81141,81063
 8.0000e-001 81239 -4.6850e+001 -5.5304e+000  5.5509e+000 52561 81037,81167,81141
 8.0000e-001 81216 -6.8790e+001  1.2431e+001 -2.2461e+000 52561 81063,81115,81089
 8.0000e-001 81193 -7.1613e+001 -6.0415e+000 -8.5621e+000 52561 81063,81141,81115
 8.0000e-001 81719 -6.4978e+000  2.8529e+000  1.5041e+000 51900 81445,81523,81471
 8.0000e-001 81696 -7.2531e+000 -1.5346e+000 -1.5579e-001 51900 81445,81575,81523
 8.0000e-001 81673 -4.4712e+000 -2.5210e+000  2.6027e-001 51900 81445,81601,81575
 8.0000e-001 81650 -2.1845e+000  8.2890e+000  3.5525e+000 51900 81523,81575,81549
 8.0000e-001 81627 -5.7175e-001  3.9115e+000  1.9604e+000 51900 81471,81523,81497
 8.0000e-001 82323 -2.0855e+000  4.9655e+000  6.3064e+000 51317 82418,82346,82032
 8.0000e-001 82300 -1.1723e+001  3.3481e+000  6.3471e+000 51317 82490,82346,81954
 8.0000e-001 82277 -4.6966e-001  7.2843e+000  7.9128e+000 51317 82418,82032,82006
 8.0000e-001 82254 -1.7106e+001 -1.6760e+000  1.1168e+001 51317 82490,81954,81928
 8.0000e-001 82231 -1.0396e+001 -1.2581e+000  4.3961e+000 51317 82058,82110,82084
 8.0000e-001 82208 -2.2960e+001  1.6208e+001  3.7975e+000 51317 81928,82136,82110
 8.0000e-001 82185  1.1920e+001  8.2755e+000  1.0683e+001 51317 81954,82006,81980
 8.0000e-001 82162 -2.8366e+001  1.3845e+001  1.9302e+000 51317 81902,82136,81928
 8.0000e-001 82372 -8.8218e+000 -4.7941e+000  3.2815e+000 51317 82058,82032,82346
 8.0000e-001 82395 -9.3818e+000  6.6116e+000  2.3558e+000 51317 82058,82346,82110
 8.0000e-001 82444 -3.9936e+000  2.8978e+000  3.3292e+000 51317 81954,82346,82418
 8.0000e-001 82467 -2.6623e+000  5.0176e+000  4.8938e+000 51317 81954,82418,82006
 8.0000e-001 82516 -1.1871e+001  7.7699e+000  3.5482e+000 51317 82110,82346,82490
 8.0000e-001 82539 -1.1769e+001  6.3422e+000  7.3551e+000 51317 82110,82490,81928
 8.0000e-001 83015 -2.4486e-001 -5.2412e-002  2.8244e-002 50813 82669,82747,82695
 8.0000e-001 82992 -6.4774e+000  7.8477e+000  1.3181e+001 50813 83038,82669,82851
 8.0000e-001 82969 -1.1129e+001  9.9049e+000  1.1592e+001 50813 83038,82851,82799
 8.0000e-001 82946 -2.0552e+001  4.8971e+000  1.4333e+001 50813 82747,82799,82773
 8.0000e-001 82923 -3.1161e+000  1.0319e+001  1.4665e+001 50813 82643,82851,82669
 8.0000e-001 82900 -1.2738e+001  2.3064e+000  1.0298e+001 50813 82799,82851,82825
 8.0000e-001 82877 -1.7774e-001 -2.3210e-001 -2.1538e-001 50813 82695,82747,82721
 8.0000e-001 83064  4.3273e-001  9.4554e+000  1.3142e+001 50813 82747,82669,83038
 8.0000e-001 83087 -6.5853e+000  9.9885e+000  1.2025e+001 50813 82747,83038,82799
 8.0000e-001 83286  2.8243e+000 -2.4248e+000 -4.7687e+000 50352 83309,83162,83136
 8.0000e-001 83263  3.2162e+000  9.0635e+000 -9.7210e-001 50352 83511,83309,83136
 8.0000e-001 83240  6.8331e+000  1.0966e+001  2.1777e+000 50352 83511,83136,83381
 8.0000e-001 83335  1.0359e+001  8.2655e+000 -8.4600e+000 50352 83188,83162,83309
 8.0000e-001 83358 -1.9260e+000  6.3095e+000 -5.8726e+000 50352 83188,83309,83214
 8.0000e-001 83407  8.2631e+000  2.6090e+001  4.5597e+000 50352 83110,83214,83381
 8.0000e-001 83537 -2.7393e+000  1.0065e+001 -2.4492e+000 50352 83214,83309,83511
 8.0000e-001 83560 -1.6324e+000  8.8999e+000 -1.6261e-002 50352 83214,83511,83381
 8.0000e-001 83889 -7.8538e-001  4.5571e+000  1.0537e+000 49548 83716,83794,83742
 8.0000e-001 83866  2.6959e+000  1.2826e+001  1.7664e+000 49548 83690,83794,83716
 8.0000e-001 83843 -8.7571e+000  2.6481e+000 -2.6499e+000 49548 83664,83794,83690
 8.0000e-001 83820  1.3229e+001  4.8656e+000  9.6642e-001 49548 83742,83794,83768
 8.0000e-001 84137  8.6411e+000  1.2007e+001 -1.6972e-001 49208 84160,84016,83938
 8.0000e-001 84114  1.8199e+001  3.4008e+001 -4.3236e+000 49208 84160,83938,83912
 8.0000e-001 84091  1.3562e+001  9.9389e+000 -2.3720e+000 49208 83938,84016,83964
 8.0000e-001 84068  9.5753e+000  1.4863e+000 -3.6455e+000 49208 83964,84016,83990
 8.0000e-001 84186  1.2682e+001  2.2061e+001 -1.1792e+001 49208 84042,84016,84160
 8.0000e-001 84209  1.6770e+001  3.4806e+001 -1.5413e+001 49208 84042,84160,83912
 8.0000e-001 84796 -6.7389e+000  6.8332e-001 -3.7754e-001 48861 84499,84629,84551
 8.0000e-001 84773 -1.3988e+000  4.6073e+000  1.4394e+000 48861 84499,84655,84629
 8.0000e-001 84750 -6.0541e+000  3.0558e+000  1.1768e+000 48861 84551,84629,84577
 8.0000e-001 84727  3.1692e+000  1.6565e+000  7.8213e-001 48861 84577,84629,84603
 8.0000e-001 84704  2.9323e+000  2.8554e+000  2.6949e-001 48861 84499,84551,84525
 8.0000e-001 84681 -8.8276e-001  5.3703e+000 -1.8739e-001 48861 84473,84655,84499
 8.0000e-001 85351  2.5987e+001  3.4586e+001 -6.7188e+000 48457 85374,85031,85005
 8.0000e-001 85328  1.7452e+001  2.0828e+001 -3.0792e+000 48457 85374,85005,85161
 8.0000e-001 85305  1.5626e+001  2.9527e+001 -1.0174e-001 48457 85446,85057,85031
 8.0000e-001 85282  1.9049e+001  2.1501e+001 -3.1828e+000 48457 85005,85187,85161
 8.0000e-001 85259  1.6611e+001  1.8884e+001  5.6611e+000 48457 85083,85161,85109
 8.0000e-001 85236  2.2369e+001  1.8690e+001 -7.1811e+000 48457 84979,85187,85005
 8.0000e-001 85213  2.0546e+001  1.4943e+001 -1.1750e+000 48457 85109,85161,85135
 8.0000e-001 85400  1.6495e+001  2.8713e+001  1.9540e-001 48457 85446,85031,85374
 8.0000e-001 85423  1.6637e+001  2.6942e+001  1.7234e+000 48457 85083,85374,85161
 8.0000e-001 85472  1.6667e+001  3.0018e+001  6.4349e-001 48457 85083,85057,85446
 8.0000e-001 85495  1.7913e+001  2.9725e+001  1.0770e+000 48457 85083,85446,85374
 8.0000e-001 86080  6.4896e+000  1.8001e+001 -1.5562e+000 48053 86319,86103,85783
 8.0000e-001 86057  4.0102e+000  1.3920e+001 -1.5161e+000 48053 86103,85757,85939
 8.0000e-001 86034  2.1439e+000  1.4336e+001 -5.4815e+000 48053 86247,86175,85887
 8.0000e-001 86011  1.3838e+000  1.3044e+001 -5.9515e+000 48053 86247,85887,85835
 8.0000e-001 85988 -1.5456e+001  5.5370e+000 -7.4647e+000 48053 85887,85939,85913
 8.0000e-001 85965  8.6368e+000  9.3299e+000 -1.1288e+001 48053 85835,85887,85861
 8.0000e-001 86129  5.3433e+000  1.7165e+001 -3.0157e+000 48053 85809,85783,86103
 8.0000e-001 86152  5.3752e+000  1.7306e+001 -3.0698e+000 48053 86175,85809,86103
 8.0000e-001 86201  4.4725e+000  1.3378e+001 -5.3110e+000 48053 85939,85887,86175
 8.0000e-001 86224  4.7310e+000  1.3960e+001 -5.4718e+000 48053 85939,86175,86103
 8.0000e-001 86273  4.2914e+000  1.3105e+001 -3.9297e+000 48053 85809,86175,86247
 8.0000e-001 86296  2.9008e+000  1.1231e+001 -4.5757e+000 48053 85809,86247,85835
 8.0000e-001 86345  1.2450e+001  1.7201e+001 -2.9156e+000 48053 85757,86103,86319
 8.0000e-001 86851  1.4259e+000  2.5619e-001 -3.4193e+000 47541 86874,86580,86554
 8.0000e-001 86828  5.8066e+000  1.9513e+000 -2.1357e+000 47541 86946,86874,86554
 8.0000e-001 86805  7.0419e+000  1.8988e+000 -2.2042e+000 47541 86946,86554,86528
 8.0000e-001 86782  2.3776e+000  3.0897e+000 -1.5103e+000 47541 86580,86658,86606
 8.0000e-001 86759  1.1115e+001  3.9497e+000 -1.5806e+000 47541 86528,86710,86684
 8.0000e-001 86736  2.1704e+000  1.9622e+000 -1.7681e+000 47541 86606,86658,86632
 8.0000e-001 86900  4.2222e+000  2.7902e+000 -1.8631e+000 47541 86658,86580,86874
 8.0000e-001 86923  3.3809e+000  1.4656e+000 -7.2099e-001 47541 86658,86874,86684
 8.0000e-001 86972  4.1557e+000  1.7158e+000 -5.3233e-001 47541 86684,86874,86946
 8.0000e-001 86995  6.1268e+000  2.4133e+000 -8.1751e-001 47541 86684,86946,86528
 8.0000e-001 87324  5.1782e+000  2.5474e+001  6.3029e+000 47044 87151,87203,87177
 8.0000e-001 87301  4.1015e+000  2.0744e+001  1.6833e+000 47044 87125,87203,87151
 8.0000e-001 87278  9.2749e+000  1.6978e+001  4.3336e+000 47044 87099,87203,87125
 8.0000e-001 87255  7.3236e+000  1.2281e+001  4.4747e+000 47044 87099,87229,87203
 8.0000e-001 87572  1.1685e+000  1.4694e+001  1.8295e+000 46697 87595,87425,87373
 8.0000e-001 87549 -2.6759e+000  1.4059e+001  1.9717e+000 46697 87595,87373,87477
 8.0000e-001 87526 -4.4390e+000  1.3840e+001  4.4310e+000 46697 87347,87477,87373
 8.0000e-001 87503  1.2813e+000  1.0840e+001  8.4732e-001 46697 87373,87425,87399
 8.0000e-001 87621 -1.7078e+000  1.9712e+001 -9.8288e-001 46697 87451,87425,87595
 8.0000e-001 87644 -1.0696e+001  1.5484e+001  9.1580e-001 46697 87451,87595,87477
 8.0000e-001 87794 -1.0386e+001  2.7519e+001 -4.1364e+000 46235 87693,87745,87719
 8.0000e-001 87771 -8.1162e+000  1.4739e+001  9.7409e-001 46235 87667,87745,87693
 8.0000e-001 88304 -9.9089e+000  2.2230e+001 -1.1513e+000 45731 88085,88163,88137
 8.0000e-001 88281 -2.2134e+000  2.1958e+001  4.1952e+000 45731 88007,88163,88085
 8.0000e-001 88258 -7.5318e+000  2.1724e+001  8.0837e+000 45731 87981,88163,88007
 8.0000e-001 88235 -1.1387e+000  2.0605e+001  3.9186e+000 45731 88007,88085,88059
 8.0000e-001 88212  7.1329e+000  2.9510e+001 -1.3146e+000 45731 88085,88137,88111
 8.0000e-001 88189  1.6416e+000  1.9624e+001  8.2790e+000 45731 88007,88059,88033
 8.0000e-001 88682 -8.1018e+000  2.2103e+000 -2.1482e+000 45312 88434,88512,88486
 8.0000e-001 88659 -1.9852e+001 -1.4999e+001  6.8711e+000 45312 88434,88538,88512
 8.0000e-001 88636 -8.8478e+000  3.2213e+000  1.3172e+000 45312 88434,88564,88538
 8.0000e-001 88613  4.3538e+000  3.1130e+000 -1.2735e-001 45312 88434,88486,88460
 8.0000e-001 88590 -1.2774e+001  2.1221e+001  1.7631e+001 45312 88408,88564,88434
 8.0000e-001 88930  9.2377e+000  1.7138e+001 -4.6970e+000 44808 88953,88731,88705
 8.0000e-001 88907  4.5098e+000  1.1427e+001 -1.1211e+000 44808 88953,88705,88835
 8.0000e-001 88884  7.9884e+000  1.7828e+000  1.3442e+000 44808 89025,88783,88757
 8.0000e-001 88861  8.2638e+000  1.0872e+001  3.8879e+000 44808 88783,88835,88809
 8.0000e-001 88979  2.8041e+000  1.2005e+001  2.2592e-001 44808 88757,88731,88953
 8.0000e-001 89002  3.0778e+000  5.0720e+000  2.6984e+000 44808 89025,88757,88953
 8.0000e-001 89051  8.0888e+000  5.8741e+000  1.2369e-001 44808 88835,88783,89025
 8.0000e-001 89074  7.0514e+000  1.3358e+001  7.8762e-003 44808 88835,89025,88953
 8.0000e-001 89224 -1.3305e+002 -2.8811e+001  7.3594e+000 44404 89123,89175,89149
 8.0000e-001 89201 -1.2716e+002 -3.4593e+000 -1.2931e+000 44404 89097,89175,89123
 8.0000e-001 89783  7.6601e-001  1.5452e+001 -4.7988e-001 43850 89806,89541,89515
 8.0000e-001 89760 -2.0437e+000  1.0174e+001 -2.3672e+000 43850 89806,89515,89463
 8.0000e-001 89737  6.1120e+000  8.8749e+000  1.3232e+000 43850 89950,89878,89593
 8.0000e-001 89714  4.4639e+000  9.6953e+000  3.8263e+000 43850 89950,89593,89567
 8.0000e-001 89691  5.2560e+000  3.1914e+000 -4.9502e-001 43850 89411,89619,89463
 8.0000e-001 89668 -1.1998e+001  1.5514e+001 -1.5636e+000 43850 89463,89515,89489
 8.0000e-001 89645  4.5967e+000  3.5231e+000 -1.3271e-001 43850 89411,89463,89437
 8.0000e-001 89832  2.4243e+000  1.5147e+001  1.8002e+000 43850 89878,89541,89806
 8.0000e-001 89855  5.4639e+000  1.3116e+001 -2.1897e+000 43850 89619,89806,89463
 8.0000e-001 89904  4.7804e+000  5.8657e+000  1.0583e+000 43850 89619,89593,89878
 8.0000e-001 89927  2.1984e-001  6.2370e+000  3.3205e-001 43850 89619,89878,89806
 8.0000e-001 89976 -1.0938e+000  6.0509e+000  4.3213e+000 43850 89541,89878,89950
 8.0000e-001 89999 -5.9793e+000  3.7191e+000  7.5125e+000 43850 89541,89950,89567
 8.0000e-001 90247  1.0056e+001  3.6061e+001  3.9099e-001 43488 90022,90074,90048
 8.0000e-001 90224 -6.7809e+000  3.0140e+001 -5.8463e-002 43488 90270,90022,90152
 8.0000e-001 90201 -6.4193e+000  2.1740e+001 -1.3777e+000 43488 90342,90270,90152
 8.0000e-001 90178 -7.2573e+000  1.4610e+001  6.4657e+000 43488 90342,90152,90126
 8.0000e-001 90296  2.3076e+000  2.0948e+001  4.2214e+000 43488 90074,90022,90270
 8.0000e-001 90319 -6.6557e+000  1.4897e+001  9.2228e-001 43488 90074,90270,90100
 8.0000e-001 90368 -1.5421e+001  1.3510e+001  5.9527e+000 43488 90100,90270,90342
 8.0000e-001 90391 -1.6304e+001  5.4114e+000  1.3788e+001 43488 90100,90342,90126
 8.0000e-001 90590 -3.9831e+000  8.1711e+000 -2.3283e+000 43048 90414,90492,90440
 8.0000e-001 90567 -7.0190e+000  8.0023e-001  6.8803e-003 43048 90414,90518,90492
 8.0000e-001 90544 -8.0350e-001  1.3471e+001  2.6520e-001 43048 90440,90492,90466
 8.0000e-001 91070  1.0007e+000 -3.3263e+000 -2.5386e+000 42430 91237,90880,90854
 8.0000e-001 91047  1.0138e+000 -5.0193e+000 -2.6028e+000 42430 90698,90906,90880
 8.0000e-001 91024 -3.6019e+000  1.1208e+000  9.6534e-001 42430 91093,90750,90698
 8.0000e-001 91001 -1.7148e+000 -6.5665e-001 -4.8665e-001 42430 91237,90854,91093
 8.0000e-001 90978  1.0982e+000 -5.7013e-001  3.1169e+000 42430 91165,90802,90776
 8.0000e-001 90955  3.9317e+000  3.9459e+000  2.0030e+000 42430 90802,90854,90828
 8.0000e-001 90932 -3.6479e+000  9.5671e-001  9.1127e-001 42430 90698,90750,90724
 8.0000e-001 91119 -4.0777e+000 -7.6529e-001  3.4612e+000 42430 90776,90750,91093
 8.0000e-001 91142 -1.1870e+000 -1.3939e+000  2.9932e+000 42430 91165,90776,91093
 8.0000e-001 91191  1.4600e+000 -1.0125e+000  9.4175e-001 42430 90854,90802,91165
 8.0000e-001 91214 -6.5873e-001 -2.0739e+000  5.6924e-001 42430 90854,91165,91093
 8.0000e-001 91263 -2.8644e+000 -5.2052e+000 -3.2160e+000 42430 90698,90880,91237
 8.0000e-001 91286 -6.1144e+000 -2.8991e+000 -1.3621e+000 42430 90698,91237,91093
 8.0000e-001 91694  4.4681e+001  2.5171e+001  1.2985e+001 41769 91469,91573,91495
 8.0000e-001 91671  2.2628e+001  1.7273e+001  1.3556e+001 41769 91469,91599,91573
 8.0000e-001 91648  3.2794e+001  2.8279e+001  4.5074e+000 41769 91495,91547,91521
 8.0000e-001 91625  2.5874e+001  2.3207e+001  1.1563e+001 41769 91495,91573,91547
 8.0000e-001 92040  2.2909e+001  3.5680e+001  2.0030e+000 41379 91769,91873,91847
 8.0000e-001 92017  9.1343e+000  2.8009e+001 -1.2348e+000 41379 91743,91873,91769
 8.0000e-001 91994  2.2250e+001  3.7814e+001  1.0039e+000 41379 91769,91847,91795
 8.0000e-001 91971  9.9109e+000  2.6069e+001  3.6434e-001 41379 91743,91899,91873
 8.0000e-001 91948  7.3814e+000  2.4459e+001 -5.5853e-001 41379 91717,91899,91743
 8.0000e-001 91925  1.5453e+001  3.4705e+001  1.8617e-001 41379 91795,91847,91821
 8.0000e-001 92597  5.5444e+000  1.4337e+001 -3.5992e+000 40975 92225,92407,92303
 8.0000e-001 92574 -1.2046e+001  3.5732e+000  9.4340e-001 40975 92225,92433,92407
 8.0000e-001 92551  3.1611e+000  3.9790e+000 -4.9900e+000 40975 92225,92303,92277
 8.0000e-001 92528 -1.1222e+001  9.7544e+000 -1.1541e+001 40975 92329,92407,92381
 8.0000e-001 92505 -9.5049e+000  5.5420e+000 -7.3896e+000 40975 92303,92407,92329
 8.0000e-001 92482  5.0893e+000  2.0795e-001 -1.4856e+000 40975 92225,92277,92251
 8.0000e-001 92459 -4.5693e+000  1.8926e+001 -4.5788e+000 40975 92329,92381,92355
 8.0000e-001 93231 -3.7648e+001  6.2313e+000 -1.4790e+001 40521 92937,92989,92963
 8.0000e-001 93208 -3.2309e+000  3.1418e-001 -5.3149e+000 40521 93254,92937,92885
 8.0000e-001 93185 -1.6560e+000 -8.7264e-001 -2.5732e+000 40521 93254,92885,93067
 8.0000e-001 93162  7.3126e+000 -4.4093e-001 -9.4128e+000 40521 92885,92937,92911
 8.0000e-001 93139  2.4200e+000 -4.1927e+000 -3.3269e+000 40521 92859,93067,92885
 8.0000e-001 93116  1.3228e-001  1.2395e+000 -3.9769e+000 40521 92989,93067,93015
 8.0000e-001 93093  5.7761e+000 -2.2423e+000 -3.5590e+000 40521 93015,93067,93041
 8.0000e-001 93280 -1.5697e+000  4.1772e+000 -5.1952e+000 40521 92989,92937,93254
 8.0000e-001 93303 -1.1734e+000  3.7716e-001 -2.5492e+000 40521 92989,93254,93067
 8.0000e-001 93632 -6.0486e-001  1.8941e+001 -1.0025e+000 40231 93433,93537,93511
 8.0000e-001 93609  3.8560e+000  9.4580e+000 -6.0368e+000 40231 93407,93537,93433
 8.0000e-001 93586 -2.1841e+000  2.0891e+001 -1.9629e+000 40231 93459,93511,93485
 8.0000e-001 93563  2.9892e+000  2.0296e+001 -5.2059e-001 40231 93433,93511,93459
 8.0000e-001 94010 -6.3275e+000  2.6242e+001  9.5348e-001 39869 93762,93866,93788
 8.0000e-001 93987  2.1956e+000  2.6293e+001 -1.1591e+000 39869 93762,93892,93866
 8.0000e-001 93964 -1.5766e+001  1.3057e+001 -3.1757e+000 39869 93788,93866,93840
 8.0000e-001 93941 -1.8132e+001  2.0667e+001 -1.3346e+001 39869 93788,93840,93814
 8.0000e-001 93918 -3.8747e+000  1.9171e+001 -5.6158e+000 39869 93736,93892,93762
 8.0000e-001 94160 -2.3111e+000  8.9053e+000 -7.1710e-001 39457 94033,94085,94059
 8.0000e-001 94137 -1.8022e+000 -1.8085e+000  1.6842e+000 39457 94033,94111,94085
 8.0000e-001 94359 -9.0362e+000  2.6355e+001 -1.3250e+000 39053 94382,94235,94209
 8.0000e-001 94336  1.0906e+001  4.0251e+001 -7.6248e+000 39053 94382,94209,94183
 8.0000e-001 94313  5.8098e+000  3.4248e+001  1.9017e+000 39053 94183,94287,94261
 8.0000e-001 94408  1.1908e+001  3.5910e+001 -1.8538e+000 39053 94454,94382,94261
 8.0000e-001 94431  6.8977e+000  3.3466e+001  1.8565e+000 39053 94261,94382,94183
 8.0000e-001 94480 -1.6504e+000  1.0617e+001  3.7019e+000 39053 94235,94382,94454
 8.0000e-001 94892 -5.9694e+000  1.1741e+001 -3.2049e+000 38392 94915,94771,94719
 8.0000e-001 94869  2.4792e+000  1.6981e+001 -7.4872e-001 38392 94915,94719,94693
 8.0000e-001 94846 -9.9782e+000  1.0448e+001  6.4494e+000 38392 94719,94771,94745
 8.0000e-001 94823 -3.5364e+000  2.5186e+001  3.9892e-001 38392 94667,94797,94693
 8.0000e-001 94941 -1.4486e+001  1.7184e+001 -5.6400e+000 38392 94797,94771,94915
 8.0000e-001 94964 -8.2958e+000  2.1062e+001 -3.4297e+000 38392 94797,94915,94693
 8.0000e-001 95261  2.1873e+001  1.6747e+001  3.0474e+000 37831 95013,95065,95039
 8.0000e-001 95238  1.8097e+001  1.2987e+001  4.8195e+000 37831 95284,95065,95013
 8.0000e-001 95215  1.2413e+001  9.0063e+000  7.5062e+000 37831 95284,95013,94987
 8.0000e-001 95192  1.1960e+001  2.5820e+001  3.1699e+000 37831 94987,95143,95117
 8.0000e-001 95169  1.3898e+001  1.0435e+001 -5.4016e+000 37831 95065,95117,95091
 8.0000e-001 95310  1.5116e+001  1.8221e+001 -2.3677e-002 37831 95117,95065,95284
 8.0000e-001 95333  1.0488e+001  1.3979e+001  2.4808e+000 37831 95117,95284,94987
 8.0000e-001 95554 -1.4411e+001  1.3708e+001 -5.4297e+000 37419 95404,95456,95430
 8.0000e-001 95531 -4.7811e+000  3.6048e+001 -4.1921e+000 37419 95378,95456,95404
 8.0000e-001 95508  5.3601e+000  4.3035e+001 -7.3672e+000 37419 95378,95482,95456
 8.0000e-001 95887 -7.6418e+000 -1.1682e+000  2.9675e+000 37221 95662,95714,95688
 8.0000e-001 95864 -6.5991e+000 -6.5911e+000  2.6449e+000 37221 95662,95792,95714
 8.0000e-001 95841  6.8494e+000  3.6621e+000  5.4020e-001 37221 95714,95766,95740
 8.0000e-001 95818 -2.9536e+000  2.0067e+000  2.7455e+000 37221 95714,95792,95766
 8.0000e-001 95988 -7.7778e+001 -5.9327e+000 -1.1795e+001 36731 95910,95962,95936
 8.0000e-001 96138 -3.2627e+000  3.0670e+001  3.9653e+000 36327 96293,96063,96037
 8.0000e-001 96115 -1.7633e+001  1.8733e+001  3.2336e+000 36327 96161,96037,96011
 8.0000e-001 96187 -2.2791e+000  3.2304e+001  8.9933e+000 36327 96293,96037,96161
 8.0000e-001 96319 -3.0411e+000  3.7362e+001  7.9558e+000 36327 96089,96063,96293
 8.0000e-001 96342  2.0643e+000  4.1003e+001  1.3678e+001 36327 96089,96293,96161
 8.0000e-001 96710  1.4148e+000  1.6494e+001  2.5869e+000 36037 96733,96491,96439
 8.0000e-001 96687  2.6177e+000  2.1430e+001  4.3056e+000 36037 96733,96439,96413
 8.0000e-001 96664 -2.5776e+000  1.4456e+001  4.1303e-001 36037 96439,96491,96465
 8.0000e-001 96641 -7.0401e+000  2.9486e+001  2.3585e+000 36037 96387,96517,96413
 8.0000e-001 96618 -7.3461e+000  2.9264e+001  2.4969e+000 36037 96387,96543,96517
 8.0000e-001 96595  5.0004e+000  2.1738e+001  1.0988e+001 36037 96387,96569,96543
 8.0000e-001 96759 -5.1669e+000  2.1831e+001  1.1872e+000 36037 96517,96491,96733
 8.0000e-001 96782 -5.9551e-001  2.8456e+001  4.9779e+000 36037 96517,96733,96413
 8.0000e-001 96932  1.1741e+001  8.9209e+000 -9.3493e+000 35633 97027,96955,96831
 8.0000e-001 96909  9.1475e+000  6.5521e+000 -8.4363e+000 35633 97159,96955,96805
 8.0000e-001 96981  8.0993e+000  4.4866e+000 -1.2131e+001 35633 96857,96831,96955
 8.0000e-001 97004  1.2609e+001  1.4208e+001 -1.3646e+001 35633 96857,96955,96883
 8.0000e-001 97053  8.5292e+000  5.5680e+000 -7.6061e+000 35633 96805,96955,97027
 8.0000e-001 97185  7.7307e+000  1.0170e+001 -7.5134e+000 35633 96883,96955,97159
 8.0000e-001 97593 -3.4991e+000 -6.2608e+000 -4.1472e+000 35186 97446,97498,97472
 8.0000e-001 97570 -1.1482e+000  4.7331e+000 -8.9410e+000 35186 97368,97498,97446
 8.0000e-001 97547 -6.7688e+000 -2.8738e+000 -4.5580e+000 35186 97368,97446,97394
 8.0000e-001 97524 -8.1724e+000 -2.5118e+000 -5.6753e+000 35186 97394,97446,97420
 8.0000e-001 98050  6.3428e+000  3.3551e+001 -9.7990e+000 34632 97802,97932,97854
 8.0000e-001 98027  4.1639e+000  9.9088e+000 -1.5041e+001 34632 97776,97932,97802
 8.0000e-001 98004 -9.2944e+000  1.8773e+001  2.8770e+000 34632 97802,97854,97828
 8.0000e-001 97981 -9.2715e+000  2.0452e+001 -6.3242e+000 34632 97880,97932,97906
 8.0000e-001 97958  3.8362e+000  2.7837e+001 -9.3150e+000 34632 97854,97932,97880
 8.0000e-001 98526  7.3224e+000  2.6630e+001 -3.4372e-001 34064 98693,98180,98362
 8.0000e-001 98503 -4.8445e-001  1.5301e+001 -7.6953e+000 34064 98154,98362,98180
 8.0000e-001 98480  1.8351e+001  2.6835e+001  1.3002e+001 34064 98549,98258,98232
 8.0000e-001 98457  2.8283e+000  3.7256e+001  3.0010e+001 34064 98549,98232,98206
 8.0000e-001 98434  1.2862e+001  2.8926e+001 -1.7531e+000 34064 98837,98621,98362
 8.0000e-001 98411  2.6972e+001  1.1997e+001  1.6415e+001 34064 98765,98284,98258
 8.0000e-001 98388  2.4531e+001  2.4147e+001 -3.0385e+000 34064 98837,98362,98336
 8.0000e-001 98575  1.7882e+001  2.3094e+001  1.0721e+001 34064 98765,98258,98549
 8.0000e-001 98598  1.2509e+001  2.4445e+001  2.0953e+000 34064 98621,98310,98549
 8.0000e-001 98647  1.2605e+001  3.1957e+001  2.6251e+000 34064 98693,98362,98621
 8.0000e-001 98670  2.0868e+001  4.3406e+001  6.7902e+000 34064 98206,98621,98549
 8.0000e-001 98719  5.4697e+000  3.4038e+001  1.5585e+000 34064 98206,98180,98693
 8.0000e-001 98742  5.6480e+000  3.2585e+001  1.8977e+000 34064 98206,98693,98621
 8.0000e-001 98791  4.2263e+001  2.3994e+001  1.0499e+001 34064 98310,98284,98765
 8.0000e-001 98814  3.1515e+001  3.2758e+001  5.3336e+000 34064 98310,98765,98549
 8.0000e-001 98863  2.6302e+001  3.0765e+001  5.5836e-001 34064 98310,98621,98837
 8.0000e-001 98886  3.8449e+001  2.6246e+001 -1.4595e+000 34064 98310,98837,98336
 8.0000e-001 99264  3.7181e+000  1.4865e+000  1.2060e+001 33446 99287,99094,99068
 8.0000e-001 99241 -5.0700e+000  1.7405e+001 -4.7203e+000 33446 99287,99068,99016
 8.0000e-001 99218 -2.3756e+001  1.6503e+000  3.6440e+000 33446 99016,99068,99042
 8.0000e-001 99195 -1.8242e+001  1.3627e+001 -9.8435e-001 33446 99016,99146,99120
 8.0000e-001 99172 -2.0547e+001  2.2967e+001 -1.6023e+001 33446 98990,99146,99016
 8.0000e-001 99313  3.3631e+001  1.5038e+001  8.8930e+000 33446 99120,99094,99287
 8.0000e-001 99336  5.1675e+000  2.0830e+001 -5.0715e+000 33446 99120,99287,99016
 8.0000e-001 99861 -1.0539e+001  2.7075e+001 -7.2501e+000 32940 100172,99956,99884
 8.0000e-001 99838  1.2748e+000  2.7240e+001 -4.3897e+000 32940 100100,99884,99518
 8.0000e-001 99815 -7.3493e+000  1.9728e+001 -7.0992e+000 32940 100244,99956,99622
 8.0000e-001 99792  2.6793e+000  3.4321e+001 -4.5841e+000 32940 100028,99648,99622
 8.0000e-001 99769  5.6561e+000  3.1016e+001 -7.5452e+000 32940 100100,99518,99492
 8.0000e-001 99746 -7.1016e-001  2.6535e+001  2.3187e-001 32940 99570,99622,99596
 8.0000e-001 99723 -6.4094e+000  1.6994e+001 -7.1527e+000 32940 100244,99622,99570
 8.0000e-001 99700  1.0288e+001  1.1417e+001 -3.6402e+000 32940 99440,99492,99466
 8.0000e-001 99910 -3.7208e+000  2.9949e+001 -7.6685e+000 32940 100172,99884,100028
 8.0000e-001 99933 -5.9169e+000  1.6249e+001 -2.8394e+000 32940 99674,99884,99440
 8.0000e-001 99982 -5.2565e+000  1.6214e+001 -7.1486e+000 32940 99518,99884,99956
 8.0000e-001 100005 -1.4017e+001  3.3748e+000 -1.5595e+001 32940 99518,99956,99544
 8.0000e-001 100054 -5.1949e+000  3.7314e+001 -2.4480e+000 32940 99674,99648,100028
 8.0000e-001 100077  2.0771e+000  3.5184e+001 -4.2023e+000 32940 99674,100028,99884
 8.0000e-001 100126  8.6761e+000  2.7067e+001 -7.6707e+000 32940 99440,99884,100100
 8.0000e-001 100149  1.0843e+001  2.7486e+001 -1.0061e+001 32940 99440,100100,99492
 8.0000e-001 100198 -5.9068e+000  2.6539e+001 -1.5132e+000 32940 99622,99956,100172
 8.0000e-001 100221 -4.7029e+000  2.6944e+001 -1.2563e+000 32940 99622,100172,100028
 8.0000e-001 100270 -7.3403e+000  1.6441e+001 -5.1425e+000 32940 99544,99956,100244
 8.0000e-001 100293 -6.4516e+000  1.3773e+001 -5.0763e+000 32940 99544,100244,99570
 8.0000e-001 100750  3.2698e-001  2.9450e+001 -5.6708e+000 32365 100773,100580,100502
 8.0000e-001 100727  6.8814e-001  2.3402e+001 -3.6941e-001 32365 100773,100502,100632
 8.0000e-001 100704  2.0503e-001  1.4731e+001 -6.6624e+000 32365 100476,100632,100502
 8.0000e-001 100681  4.1416e+000  3.1637e+001 -6.6606e+000 32365 100528,100580,100554
 8.0000e-001 100658  9.3674e+000  3.8860e+001 -1.2418e+001 32365 100502,100580,100528
 8.0000e-001 100799 -1.0114e+000  3.8147e+001 -6.0532e+000 32365 100606,100580,100773
 8.0000e-001 100822 -1.6476e-001  3.1491e+001 -1.6258e+000 32365 100606,100773,100632
 8.0000e-001 101021 -4.8047e+000  2.2783e+001  4.4776e+000 31853 100871,100923,100897
 8.0000e-001 100998  7.2369e-001  2.7780e+001  6.5929e+000 31853 100871,100949,100923
 8.0000e-001 100975 -3.1035e+000  1.9635e+001  5.4847e+000 31853 100845,100949,100871
 8.0000e-001 101529  3.1969e-001  3.3183e+001 -2.2836e+001 31249 101552,101310,101232
 8.0000e-001 101506  7.5880e+000  3.3928e+001 -2.2449e+001 31249 101552,101232,101206
 8.0000e-001 101483 -5.9149e-001  3.6107e+001 -6.4594e+000 31249 101206,101388,101336
 8.0000e-001 101460  2.9088e+000  3.2310e+001 -2.5561e+001 31249 101232,101284,101258
 8.0000e-001 101437  5.6656e+000  3.9213e+001 -2.5490e+001 31249 101232,101310,101284
 8.0000e-001 101414  1.7751e+001  7.1627e+001  1.3302e+000 31249 101336,101388,101362
 8.0000e-001 101578  3.4411e+000  3.2282e+001 -1.7306e+001 31249 101336,101310,101552
 8.0000e-001 101601  1.0467e+001  3.2398e+001 -1.7311e+001 31249 101336,101552,101206
 8.0000e-001 101751 -1.0214e+001  5.4777e+001 -5.6965e-001 30515 101774,101650,101624
 8.0000e-001 101728  2.4038e+000  6.0203e+001 -2.3755e+000 30515 101846,101774,101624
 8.0000e-001 101800 -5.8304e+000  5.8929e+001  1.1676e+000 30515 101676,101650,101774
 8.0000e-001 101823 -3.0373e+000  4.8596e+001  1.5649e+000 30515 101676,101774,101702
 8.0000e-001 101872 -8.3757e+000  3.5071e+001 -2.9492e+000 30515 101702,101774,101846
 8.0000e-001 102557 -4.9576e+000  8.2268e+000  1.2723e+000 29947 102652,102580,102266
 8.0000e-001 102534 -3.8928e+000  1.2431e+001  3.0122e+000 29947 102580,102136,102370
 8.0000e-001 102511 -7.0261e+000  3.1144e+000  2.1304e+000 29947 102724,102652,102266
 8.0000e-001 102488 -4.4729e+000  1.1534e+000  7.0395e-001 29947 102724,102266,102240
 8.0000e-001 102465 -6.9691e-001  1.0238e+001  1.6099e-001 29947 102796,102318,102292
 8.0000e-001 102442  6.7281e+000  9.1844e+000 -1.8804e+000 29947 102162,102214,102188
 8.0000e-001 102419 -2.0231e+000  7.2873e+000 -1.0542e+000 29947 102162,102240,102214
 8.0000e-001 102396  2.7267e+000  1.6668e+001  5.5060e+000 29947 102318,102370,102344
 8.0000e-001 102606 -4.9937e+000  5.9960e-001  6.1838e-002 29947 102292,102266,102580
 8.0000e-001 102629 -1.8268e+000  8.2940e+000 -2.9984e-001 29947 102796,102292,102580
 8.0000e-001 102678 -7.1597e+000  5.2935e+000  3.7800e+000 29947 102136,102580,102652
 8.0000e-001 102701 -5.5755e+000  2.1734e+000  4.9101e+000 29947 102136,102652,102162
 8.0000e-001 102750 -2.8908e+000  6.1530e+000  3.4632e+000 29947 102162,102652,102724
 8.0000e-001 102773 -2.3097e+000  3.0450e+000  1.5222e+000 29947 102162,102724,102240
 8.0000e-001 102822  3.2460e-001  7.9238e+000  1.0547e+000 29947 102370,102318,102796
 8.0000e-001 102845 -9.6550e-003  7.3178e+000  9.2406e-001 29947 102370,102796,102580
 8.0000e-001 103044 -1.0616e+001  2.9194e+000  2.4670e+000 29450 102868,102920,102894
 8.0000e-001 103021 -1.1293e+001  1.3087e+000  2.8438e+000 29450 102868,102972,102920
 8.0000e-001 102998 -1.1253e+001 -3.6867e+000  3.8275e+000 29450 102920,102972,102946
 8.0000e-001 103292  1.7122e+001  2.0445e+001  5.6126e+000 29060 103315,103171,103119
 8.0000e-001 103269  1.2894e+001  2.4081e+001  1.0455e+001 29060 103315,103119,103067
 8.0000e-001 103246  3.1620e+001  2.9177e+001  1.8837e+000 29060 103119,103171,103145
 8.0000e-001 103223  3.1119e+001  1.1121e+001  1.6633e+001 29060 103067,103119,103093
 8.0000e-001 103341  1.5898e+001  2.5682e+001  6.5894e+000 29060 103197,103171,103315
 8.0000e-001 103364  1.8038e+001  3.9073e+001  1.1205e+001 29060 103197,103315,103067
 8.0000e-001 104002 -8.3511e+000  2.0300e+001 -3.1106e+001 28599 104097,104025,103708
 8.0000e-001 103979  1.2130e+001  2.4013e+000 -1.3531e+001 28599 104169,104025,103656
 8.0000e-001 103956  1.8894e+001  9.9459e+000 -3.1020e+001 28599 104097,103708,103682
 8.0000e-001 103933  2.5996e+001  6.3474e+000 -1.1444e+001 28599 104169,103656,103630
 8.0000e-001 103910  1.2048e+000  4.6349e+001  3.1297e+000 28599 103760,103812,103786
 8.0000e-001 103887  2.2235e+001  1.3068e+001  1.6954e+001 28599 103630,103838,103812
 8.0000e-001 103864 -1.2239e+001  8.4256e-001  5.1190e+000 28599 103708,103760,103734
 8.0000e-001 104051 -3.9148e+001  9.2603e+000 -4.8459e+000 28599 103760,103708,104025
 8.0000e-001 104074  1.2827e+001  3.0748e+001 -6.6222e+000 28599 103760,104025,103812
 8.0000e-001 104123  2.9125e+001  1.3072e+001 -2.3009e+001 28599 103656,104025,104097
 8.0000e-001 104146  7.0894e+001  1.3986e+001 -3.1101e+001 28599 103656,104097,103682
 8.0000e-001 104195  2.4768e+000  8.9582e+000 -9.8377e+000 28599 103812,104025,104169
 8.0000e-001 104218  1.0577e+001  8.8066e+000 -1.0078e+001 28599 103812,104169,103630
 8.0000e-001 104596  2.8719e+001  2.8631e+001 -1.3327e+001 28344 104619,104374,104322
 8.0000e-001 104573  3.0585e+001  2.7247e+001 -1.0398e+001 28344 104619,104322,104478
 8.0000e-001 104550  1.9718e+001  3.8734e+001 -9.9870e+000 28344 104322,104374,104348
 8.0000e-001 104527  3.6209e+001 -3.8526e+000 -1.0462e+001 28344 104400,104452,104426
 8.0000e-001 104504  3.9003e+001  1.0785e+001 -1.8636e+001 28344 104374,104452,104400
 8.0000e-001 104645  3.0255e+001  3.1369e+001 -1.2307e+001 28344 104452,104374,104619
 8.0000e-001 104668  3.2624e+001  3.0505e+001 -9.2625e+000 28344 104452,104619,104478
 8.0000e-001 104987  2.6561e+000  1.2329e+001  1.5355e+000 27947 104713,104843,104765
 8.0000e-001 104964  3.9473e-001  1.3999e+001 -7.9607e-001 27947 104713,104869,104843
 8.0000e-001 104941  1.2306e+000  8.4469e+000 -7.6489e-001 27947 104765,104843,104791
 8.0000e-001 104918 -4.8243e-001  2.6375e+000  2.7323e-001 27947 104791,104843,104817
 8.0000e-001 104895  9.5249e-001  9.0740e+000  2.4670e+000 27947 104713,104765,104739
 8.0000e-001 105367 -3.0676e+000  7.5237e+000  5.4668e+000 27443 105390,105197,105119
 8.0000e-001 105344 -4.1687e+000  5.4656e+000  2.1623e+000 27443 105390,105119,105093
 8.0000e-001 105321 -7.5432e+000  6.4540e+000  5.9767e+000 27443 105119,105197,105145
 8.0000e-001 105298 -8.5671e-001  3.8067e+000  4.6054e+000 27443 105197,105249,105223
 8.0000e-001 105275 -6.3546e+000  1.4670e+001  1.2401e+001 27443 105145,105197,105171
 8.0000e-001 105416 -1.9880e+000  4.1486e+000  3.4448e+000 27443 105249,105197,105390
 8.0000e-001 105439 -4.4503e+000  2.8665e-001  6.0368e-002 27443 105249,105390,105093
 8.0000e-001 105994 -5.1492e+000  4.8690e+000  8.2283e-001 27096 106161,106017,105700
 8.0000e-001 105971 -6.5144e+000  1.1328e+001  3.1636e+000 27096 106305,106017,105648
 8.0000e-001 105948  1.1757e+000  1.0333e+001  8.3283e-001 27096 106089,105804,105778
 8.0000e-001 105925 -5.2941e+000  2.5251e+000  9.1865e-002 27096 106161,105700,105674
 8.0000e-001 105902 -2.2631e+000  4.8176e+000  3.0239e-001 27096 106233,105726,105700
 8.0000e-001 105879 -2.4622e+001  9.7328e+000  5.4982e+000 27096 106305,105648,105622
 8.0000e-001 105856  1.0113e+000  5.4752e+000  1.6381e+000 27096 105726,105778,105752
 8.0000e-001 106043 -3.7764e+000  6.8794e+000  1.5199e+000 27096 106233,105700,106017
 8.0000e-001 106066 -2.1579e+000  7.8553e+000  2.2956e+000 27096 106089,105778,106017
 8.0000e-001 106115 -3.1912e+000  8.3955e+000  3.2490e-001 27096 105830,105804,106089
 8.0000e-001 106138 -4.3198e+000  8.7651e+000  2.2874e+000 27096 106377,106089,106017
 8.0000e-001 106187 -5.0475e+000  9.1105e+000  4.8705e+000 27096 105648,106017,106161
 8.0000e-001 106210 -7.1186e+000  1.9972e+000  5.0491e+000 27096 105648,106161,105674
 8.0000e-001 106259 -8.4625e-001  7.3204e+000 -2.8561e-001 27096 105778,105726,106233
 8.0000e-001 106282 -2.7250e+000  8.8381e+000  1.1039e+000 27096 105778,106233,106017
 8.0000e-001 106331 -4.2332e+000  1.1806e+001  6.8336e-001 27096 106377,106017,106305
 8.0000e-001 106354 -4.1742e+000  2.7573e+001 -2.0960e+000 27096 105830,106305,105622
 8.0000e-001 106403 -1.5872e+000  1.2681e+001  3.3475e-001 27096 105830,106089,106377
 8.0000e-001 106426 -1.9266e+000  1.3771e+001 -1.3298e+000 27096 105830,106377,106305
 8.0000e-001 106625 -1.3478e+001  1.7802e+001  3.9276e+000 26684 106475,106553,106527
 8.0000e-001 106602 -1.5957e+001  1.2644e+001  2.4806e+000 26684 106449,106553,106475
 8.0000e-001 106579 -2.4108e+001  1.8254e+001 -4.1387e+000 26684 106475,106527,106501
 8.0000e-001 107084 -2.1192e+001 -3.3397e+000 -2.7112e-001 26244 107107,106914,106862
 8.0000e-001 107061 -1.7830e+001 -6.3606e+000 -4.5776e+000 26244 107107,106862,106836
 8.0000e-001 107038 -1.5882e+001 -4.5749e+000 -1.9559e+000 26244 106810,106966,106836
 8.0000e-001 107015 -1.5807e+001  2.9819e+001 -2.8819e+000 26244 106862,106914,106888
 8.0000e-001 106992 -2.2186e+001 -7.6017e+000  6.8445e+000 26244 106914,106966,106940
 8.0000e-001 107133 -1.4211e+001  1.4999e+000  2.9656e+000 26244 106966,106914,107107
 8.0000e-001 107156 -1.5200e+001 -5.0153e+000 -1.9763e+000 26244 106966,107107,106836
 8.0000e-001 107662 -3.6191e+000  6.2669e+000  5.6060e-001 25904 107365,107495,107391
 8.0000e-001 107639  1.3876e+000  8.3950e+000 -6.8007e-001 25904 107365,107521,107495
 8.0000e-001 107616 -2.7899e-001  6.4924e+000  4.9179e-001 25904 107391,107469,107443
 8.0000e-001 107593  8.7118e-001  8.1433e+000 -1.6935e-001 25904 107391,107495,107469
 8.0000e-001 107570 -6.1736e-001  5.9034e+000  6.4993e-001 25904 107391,107443,107417
 8.0000e-001 107547 -2.6653e+000  6.5258e+000 -1.5075e+000 25904 107339,107521,107365
 8.0000e-001 108247 -4.0238e+000  7.3636e+000  1.3165e+000 25450 108270,108002,107950
 8.0000e-001 108224 -4.0329e+000  7.3105e+000  1.3705e+000 25450 108270,107950,108106
 8.0000e-001 108201 -2.7888e+000  3.3010e+000  1.1932e+000 25450 108342,108028,108002
 8.0000e-001 108178 -8.2355e+000  1.0486e+000  3.3397e+000 25450 107950,108002,107976
 8.0000e-001 108155 -8.4819e+000  1.5193e+001  3.6982e+000 25450 107924,108106,107950
 8.0000e-001 108132  4.1722e-001  1.5927e+001 -1.6506e-001 25450 108054,108106,108080
 8.0000e-001 108296 -4.4902e+000  5.2342e+000  1.4477e+000 25450 108342,108002,108270
 8.0000e-001 108319 -3.4146e+000  8.5691e+000  1.6097e+000 25450 108054,108270,108106
 8.0000e-001 108368 -1.2087e+000  6.0165e+000  3.0665e-001 25450 108054,108028,108342
 8.0000e-001 108391 -2.7480e+000  8.5237e+000  6.9450e-001 25450 108054,108342,108270
 8.0000e-001 108818 -1.6967e+001  2.3559e+001  8.5100e+000 24939 108521,108677,108651
 8.0000e-001 108795 -3.0185e+001  1.4617e+001 -2.1883e+000 24939 108495,108677,108521
 8.0000e-001 108772 -2.3993e+000  2.9642e+001 -4.4563e+000 24939 108521,108651,108625
 8.0000e-001 108749 -1.0328e+001  2.2399e+001 -1.3610e+000 24939 108521,108625,108599
 8.0000e-001 108726  1.6200e+000  4.2673e+000  2.5105e+000 24939 108547,108599,108573
 8.0000e-001 108703 -1.4338e+001  1.0206e+001 -1.6257e+000 24939 108521,108599,108547
 8.0000e-001 109403  4.1349e+001  1.8544e+001 -1.0096e+001 24741 109158,109210,109184
 8.0000e-001 109380  3.0891e+001  2.2974e+001 -5.3285e+000 24741 109158,109262,109210
 8.0000e-001 109357  2.8012e+001  1.2696e+001 -4.8912e+000 24741 109080,109262,109158
 8.0000e-001 109334  2.2255e+001  2.1226e+001 -2.0538e+000 24741 109080,109158,109132
 8.0000e-001 109311  4.7737e+001  2.8100e+001 -9.0468e+000 24741 109210,109262,109236
 8.0000e-001 109288  3.2823e+001  2.3937e+001  3.0577e+000 24741 109080,109132,109106
 8.0000e-001 109781 -2.9641e-002  5.6338e+000  2.0163e-001 24337 109533,109611,109559
 8.0000e-001 109758  1.3103e+000  7.4821e+000 -6.3386e-001 24337 109533,109637,109611
 8.0000e-001 109735  8.4476e-001  5.7609e+000 -6.5733e-002 24337 109559,109611,109585
 8.0000e-001 109712  1.4583e+000  7.7459e+000  9.0343e-001 24337 109533,109663,109637
 8.0000e-001 109689 -6.1479e-002  7.0021e+000  6.0947e-001 24337 109507,109663,109533
 8.0000e-001 110159  1.5994e+001  1.3440e+001 -5.7718e+000 23833 110182,109963,109911
 8.0000e-001 110136  1.7199e+001  1.4785e+001 -6.7552e+000 23833 110182,109911,109885
 8.0000e-001 110113  2.2876e+001  1.5290e+001 -7.8378e+000 23833 109885,110041,109989
 8.0000e-001 110090  1.6790e+001  1.8195e+001 -4.7687e+000 23833 109911,109963,109937
 8.0000e-001 110067  1.7909e+001 -1.8510e+000 -5.0948e+000 23833 109989,110041,110015
 8.0000e-001 110208  1.6367e+001  1.2731e+001 -5.2890e+000 23833 109989,109963,110182
 8.0000e-001 110231  1.6420e+001  1.3295e+001 -6.0379e+000 23833 109989,110182,109885
 8.0000e-001 110332 -9.2086e-002  1.3114e+001 -8.4678e-001 23429 110254,110306,110280
 8.0000e-001 110580  2.3687e+001  1.4144e+001  6.0064e+000 22825 110603,110407,110381
 8.0000e-001 110557  3.1208e+001  1.9613e+001 -6.9767e+000 22825 110603,110381,110485
 8.0000e-001 110534  9.3167e+000  5.2005e+000  5.5573e+000 22825 110433,110485,110459
 8.0000e-001 110511 -6.9742e+000  3.9114e+001 -1.8450e+001 22825 110355,110485,110381
 8.0000e-001 110629  2.0788e+001 -1.9065e-001  1.2604e+001 22825 110433,110407,110603
 8.0000e-001 110652  2.5482e+001  8.2128e+000  4.9242e-001 22825 110433,110603,110485
 8.0000e-001 110902 -3.5020e+001  1.4381e+001 -6.9322e+000 22428 110703,110755,110729
 8.0000e-001 110879 -2.2183e+001  2.8359e+000 -7.2376e+000 22428 110703,110781,110755
 8.0000e-001 110856 -2.9998e+001 -1.3206e+000 -1.1378e+001 22428 110703,110807,110781
 8.0000e-001 110833 -5.2426e+001 -1.3591e+001 -2.2614e+001 22428 110677,110807,110703
 8.0000e-001 111284  3.8801e+001  2.4623e+001 -5.9545e+000 22138 111088,111140,111114
 8.0000e-001 111261  3.0789e+001  2.6563e+001 -8.0482e+000 22138 111062,111140,111088
 8.0000e-001 111238  2.9590e+001  2.5515e+001 -4.9247e+000 22138 111036,111140,111062
 8.0000e-001 111215  2.0746e+001  2.1754e+001 -7.6158e+000 22138 111010,111140,111036
 8.0000e-001 111192  2.3868e+001  2.1963e+001 -6.4592e+000 22138 111010,111166,111140
 8.0000e-001 111385 -2.1167e+001  1.9017e+001  5.1770e+000 21826 111307,111359,111333
 8.0000e-001 111731 -2.5458e+001  2.1273e+001  6.2364e+000 21264 111754,111538,111434
 8.0000e-001 111708 -1.6351e+001  2.4616e+001  7.3424e-001 21264 111754,111434,111408
 8.0000e-001 111685 -2.8209e+001  2.8631e+001  4.1171e+000 21264 111434,111538,111460
 8.0000e-001 111662 -4.6871e+001  2.0564e+001  8.2400e+000 21264 111460,111538,111486
 8.0000e-001 111639 -1.2343e+001  1.4825e+001  1.4881e+001 21264 111408,111590,111564
 8.0000e-001 111616 -5.5157e+001  4.5159e+001  1.9609e+001 21264 111486,111538,111512
 8.0000e-001 111780 -2.8488e+001  1.9904e+001  8.5928e+000 21264 111564,111538,111754
 8.0000e-001 111803 -2.5297e+001  1.4326e+001  5.1227e+000 21264 111564,111754,111408
 8.0000e-001 111955  2.8017e+001  3.3412e+001  2.2987e-001 20860 111978,111906,111880
 8.0000e-001 111932  2.6648e+001  3.0869e+001 -3.7838e+000 20860 112110,111828,111906
 8.0000e-001 112004  2.5692e+001  3.5042e+001 -2.1821e+000 20860 112110,111906,111978
 8.0000e-001 112136  2.7457e+001  3.5013e+001 -2.9507e+000 20860 111854,111828,112110
 8.0000e-001 112159  2.7073e+001  4.0333e+001 -1.6079e+000 20860 111854,112110,111978
 8.0000e-001 112407  1.3541e+001  2.5013e+001 -6.3638e+000 20320 112182,112286,112208
 8.0000e-001 112384  2.4417e+001  3.1460e+001 -9.2177e+000 20320 112182,112312,112286
 8.0000e-001 112361  1.9438e+001  2.7016e+001 -5.1505e+000 20320 112208,112286,112260
 8.0000e-001 112338  6.0653e-001  3.1200e+001 -1.1786e+001 20320 112208,112260,112234
 8.0000e-001 112655  1.1554e+001  9.8849e+000  4.4888e-001 19916 112508,112560,112534
 8.0000e-001 112632  1.4889e+001  2.1288e+001  2.6693e+000 19916 112430,112560,112508
 8.0000e-001 112609  1.3540e+001  1.1335e+001  5.4199e+000 19916 112430,112508,112456
 8.0000e-001 112586  1.1704e+001  7.5219e+000  6.3812e+000 19916 112456,112508,112482
 8.0000e-001 112807 -1.3576e+001  6.2542e+000 -1.0935e+000 19626 112680,112732,112706
 8.0000e-001 112784 -9.8288e+000 -1.3192e-001 -3.4345e+000 19626 112680,112758,112732
 8.0000e-001 113008 -8.1815e+000  5.8800e+000 -2.9454e+000 19165 112858,112936,112884
 8.0000e-001 112985 -1.2001e+001  1.5517e+001 -5.5095e+000 19165 112832,112936,112858
 8.0000e-001 112962 -5.7581e+000  1.9339e+000 -5.3807e+000 19165 112884,112936,112910
 8.0000e-001 113209 -4.8183e+000  4.2991e+000  1.2519e+000 18596 113033,113085,113059
 8.0000e-001 113186  3.5345e-001  7.0330e+000 -3.7243e-001 18596 113033,113111,113085
 8.0000e-001 113163 -4.8519e+000 -1.9298e+000  5.9566e+000 18596 113033,113137,113111
 8.0000e-001 113481 -7.7137e+000  4.4308e+000  9.0210e-001 18348 113256,113308,113282
 8.0000e-001 113458 -1.8740e+000  6.4722e+000 -1.0703e-001 18348 113256,113386,113308
 8.0000e-001 113435 -1.9297e+000  5.2557e+000  4.7728e-001 18348 113308,113386,113360
 8.0000e-001 113412  6.1725e-001  4.9494e+000  1.9990e-001 18348 113308,113360,113334
 8.0000e-001 113753 -1.2082e+000  5.2732e+000  3.0139e-002 17830 113554,113606,113580
 8.0000e-001 113730  8.4245e-001  5.2825e+000  2.9910e-001 17830 113528,113606,113554
 8.0000e-001 113707  1.1191e+000  5.9205e+000  2.5207e-001 17830 113528,113658,113606
 8.0000e-001 113684  2.4689e+000  5.7372e+000  3.0728e-001 17830 113606,113658,113632
 8.0000e-001 113954  2.3616e+001  1.9556e+001 -4.6659e+000 17326 113778,113830,113804
 8.0000e-001 113931  3.2574e+001  1.3861e+001 -7.2936e+000 17326 113778,113882,113830
 8.0000e-001 113908  2.7087e+001  3.7417e+000 -9.3889e+000 17326 113830,113882,113856
 8.0000e-001 114106 -2.7727e-001  5.9249e+000 -2.8061e-001 16870 113979,114031,114005
 8.0000e-001 114083  1.4277e+000  5.6329e+000 -8.1683e-001 16870 113979,114057,114031
 8.0000e-001 114461  1.9864e+001  4.5016e+001 -1.5700e+001 16266 114236,114288,114262
 8.0000e-001 114438  2.1848e+001  2.2022e+001 -2.4326e+000 16266 114236,114366,114288
 8.0000e-001 114415  2.5679e+001  2.5779e+001  2.9139e+000 16266 114288,114340,114314
 8.0000e-001 114392  2.6999e+001  2.5579e+001  9.7395e-002 16266 114288,114366,114340
 8.0000e-001 114562 -2.1039e+001  3.9193e+001  0.0000e+000 15830 114484,114536,114510
 8.0000e-001 114663  2.7870e+000 -3.2953e+000 -1.9075e+000 15151 114585,114637,114611
 8.0000e-001 114886  1.9719e+001  2.0143e+001  3.7367e+000 417 114762,114814,114788
 8.0000e-001 114863  1.8516e+001  1.3684e+001  4.8495e+000 417 114710,114814,114762
 8.0000e-001 114840  2.7842e+001  1.2652e+001  6.5153e+000 417 114710,114762,114736
 9.0000e-001 66549 -5.0758e+000  1.4056e+001  6.7073e+000 66104 66350,66454,66428
 9.0000e-001 66526 -4.2933e-001  1.6771e+001  1.3378e+000 66104 66324,66454,66350
 9.0000e-001 66503 -1.3200e+000  4.8250e+001  5.9848e+000 66104 66350,66428,66402
 9.0000e-001 66480 -5.6230e+000  1.8231e+001  1.3623e-001 66104 66350,66402,66376
 9.0000e-001 66947  1.1421e+001 -1.0419e+001 -6.6810e+000 65906 66699,66829,66803
 9.0000e-001 66924 -2.3291e+000 -2.0124e+001 -1.8625e+000 65906 66673,66829,66699
 9.0000e-001 66901  1.2867e+001  6.3124e+000  2.7739e+000 65906 66725,66777,66751
 9.0000e-001 66878 -2.4205e+001  8.7991e+000  5.9443e-001 65906 66725,66803,66777
 9.0000e-001 66855  4.8008e+000 -8.8175e+000 -7.1842e+000 65906 66699,66803,66725
 9.0000e-001 67146  5.8552e-001 -9.5604e-001  7.5654e-002 65708 67022,67074,67048
 9.0000e-001 67123 -1.2819e+000 -1.1558e+000  2.4342e-001 65708 66970,67074,67022
 9.0000e-001 67100  2.5331e+000  1.1745e+000 -1.0421e+000 65708 66970,67022,66996
 9.0000e-001 67477 -5.3497e+000  2.9335e+000 -7.3863e+000 65418 67278,67356,67330
 9.0000e-001 67454  3.8728e+000  6.6767e+000 -4.3486e+000 65418 67278,67382,67356
 9.0000e-001 67431 -1.6673e+000  1.0977e+001 -1.3790e+001 65418 67278,67330,67304
 9.0000e-001 67408 -3.4308e-001  1.2209e+000 -2.2420e+000 65418 67252,67382,67278
 9.0000e-001 68111 -8.0035e+000  1.5831e+001 -6.5065e+000 65014 67791,67921,67869
 9.0000e-001 68088 -1.4215e+001  1.2938e+001 -3.5859e+000 65014 67765,67921,67791
 9.0000e-001 68065  7.1289e-001  4.4219e+001 -1.0285e+000 65014 67869,67921,67895
 9.0000e-001 68042  9.8262e+000 -5.1175e-001 -6.2928e-001 65014 67765,67947,67921
 9.0000e-001 68019 -4.5365e-001  5.1786e+001 -7.2830e+000 65014 67791,67869,67817
 9.0000e-001 67996  4.7331e+001  4.4923e+001  1.3704e+001 65014 67817,67869,67843
 9.0000e-001 67973  9.5567e+000  4.5298e+000  4.8082e+000 65014 67739,67947,67765
 9.0000e-001 68359 -2.4770e+000  1.3720e+001  1.6091e+000 64816 68186,68238,68212
 9.0000e-001 68336 -9.5049e-001  7.5275e+000  1.9725e+000 64816 68186,68264,68238
 9.0000e-001 68313  1.5864e-001  7.7633e+000 -6.6306e-001 64816 68160,68264,68186
 9.0000e-001 68290  4.4992e-001  5.9218e+000  1.4092e+000 64816 68134,68264,68160
 9.0000e-001 68509  4.3851e+001  4.4285e+001  3.7862e+001 64362 68864,68532,68434
 9.0000e-001 68486  4.1572e+000  1.4455e+001  9.0369e+000 64362 68532,68408,68382
 9.0000e-001 68558 -5.9890e+000  6.3617e+000  5.1826e+000 64362 68736,68532,68460
 9.0000e-001 68581  1.9674e+001  9.5436e+000  2.6785e+000 64362 68604,68532,68382
 9.0000e-001 68630  1.3279e+001  2.1546e+000 -2.0284e+000 64362 68460,68532,68604
 9.0000e-001 68762  4.0925e+001 -1.6921e+000  1.3156e+001 64362 68434,68532,68736
 9.0000e-001 68890  3.4864e+001  2.9917e+001  3.3914e+001 64362 68408,68532,68864
 9.0000e-001 69168  4.6035e+000  2.4477e+001 -4.9674e+000 64164 69018,69070,69044
 9.0000e-001 69145  1.2660e-001  1.6046e+001 -2.8517e+000 64164 68992,69070,69018
 9.0000e-001 69122  2.9375e+000  2.2794e+001 -3.2572e+000 64164 68992,69096,69070
 9.0000e-001 69367  7.0511e+000  1.2570e+001 -9.1975e-001 63966 69462,69390,69269
 9.0000e-001 69344  3.6462e+000  1.9288e+001  5.5150e-003 63966 69390,69243,69217
 9.0000e-001 69321  1.9268e-001  1.1798e+001 -4.4442e+000 63966 69191,69295,69217
 9.0000e-001 69416  1.6896e+001  1.7706e+001 -5.5992e+000 63966 69295,69269,69390
 9.0000e-001 69439  7.0080e+000  1.4007e+001 -5.3764e+000 63966 69295,69390,69217
 9.0000e-001 69488  1.2992e+001  2.3226e+001  1.4583e+000 63966 69243,69390,69462
 9.0000e-001 69900 -6.9101e+000  9.3369e+000  7.5787e-001 63676 69701,69779,69727
 9.0000e-001 69877 -4.5121e+000  1.0268e+001  5.4641e-001 63676 69675,69779,69701
 9.0000e-001 69854  1.8613e+000  1.0259e+001 -4.9700e-001 63676 69675,69805,69779
 9.0000e-001 69831 -1.4180e+001  2.9880e+001  7.3233e+000 63676 69727,69779,69753
 9.0000e-001 70050 -5.1023e-001  2.3084e+001  8.8126e-001 63472 70073,69949,69923
 9.0000e-001 70027 -4.3725e+000  1.8093e+001 -1.5262e+000 63472 70073,69923,70001
 9.0000e-001 70099  4.2269e+000  1.9588e+001  3.0218e+000 63472 69975,69949,70073
 9.0000e-001 70122  1.0669e+000  1.5109e+001  1.0050e+000 63472 69975,70073,70001
 9.0000e-001 70321 -4.4923e+000  4.2733e+000 -4.9610e+000 63274 70145,70223,70171
 9.0000e-001 70298  1.0592e+000  8.0670e+000 -2.5626e+000 63274 70145,70249,70223
 9.0000e-001 70275 -3.8077e+000  2.0578e+001 -9.7648e+000 63274 70171,70223,70197
 9.0000e-001 70593 -2.7234e-001  1.3705e+001  1.1426e+000 63076 70368,70472,70420
 9.0000e-001 70570 -2.9048e+000  1.3229e+001  2.8587e-001 63076 70368,70498,70472
 9.0000e-001 70547 -4.0412e+000  9.7970e+000  3.8525e+000 63076 70420,70472,70446
 9.0000e-001 70524  1.9991e+000  1.3783e+001  3.8041e+000 63076 70368,70420,70394
 9.0000e-001 70843 -1.7340e+001 -1.3022e+001 -1.8156e+000 62736 70866,70644,70618
 9.0000e-001 70820 -1.3999e+001 -2.1342e+001 -3.8828e+000 62736 70866,70618,70748
 9.0000e-001 70797 -1.2988e+000 -1.6182e+000  2.5908e+000 62736 70644,70722,70696
 9.0000e-001 70774 -2.8266e+000  8.2330e+000  5.5993e+000 62736 70644,70696,70670
 9.0000e-001 70892 -1.4347e+001 -5.9937e+000  2.7872e+000 62736 70722,70644,70866
 9.0000e-001 70915 -1.4587e+001 -1.6624e+001 -4.7286e-001 62736 70722,70866,70748
 9.0000e-001 71018 -3.6033e+000  3.6426e+000  1.9685e+000 62516 70940,70992,70966
 9.0000e-001 71219  4.0456e+000  1.4829e+001  4.6867e+000 62226 71069,71147,71095
 9.0000e-001 71196  8.9218e+000  1.3412e+001 -6.1836e-001 62226 71043,71147,71069
 9.0000e-001 71173  2.4981e+001  7.7484e+000  1.6031e+000 62226 71095,71147,71121
 9.0000e-001 71857  2.0772e+000  1.2503e+001  2.1424e-001 61708 71511,71693,71667
 9.0000e-001 71834 -9.7850e-001  5.4609e+000 -1.4075e-001 61708 71485,71693,71511
 9.0000e-001 71811  2.1187e-001  2.0802e+001 -3.3466e+000 61708 71880,71537,71511
 9.0000e-001 71788  5.2577e+000  1.3293e+001 -1.3726e-001 61708 71880,71511,71667
 9.0000e-001 71765  2.0445e+001  3.3313e+001 -2.0086e+000 61708 71537,71615,71589
 9.0000e-001 71742  1.6882e+001  3.6280e+001 -2.0067e+000 61708 71615,71667,71641
 9.0000e-001 71719  3.1714e+000  2.4099e+001  2.1934e+000 61708 71537,71589,71563
 9.0000e-001 71906  2.6752e+000  2.6297e+001 -2.0835e+000 61708 71615,71537,71880
 9.0000e-001 71929  8.4758e+000  2.0104e+001  1.1729e+000 61708 71615,71880,71667
 9.0000e-001 72226 -1.2505e+001  2.4597e+001 -8.9834e+000 61204 72249,72056,72004
 9.0000e-001 72203 -2.1463e+001  1.3258e+001 -1.3412e+001 61204 72249,72004,71978
 9.0000e-001 72180 -3.9912e+000  3.3474e+000 -1.5328e+001 61204 71978,72108,72082
 9.0000e-001 72157  7.5224e+000  3.7827e+001 -1.5589e+000 61204 72004,72056,72030
 9.0000e-001 72134 -1.3201e+001 -7.4360e+000 -1.9463e+001 61204 71952,72108,71978
 9.0000e-001 72275 -4.2062e+000  1.5306e+001 -3.5474e+000 61204 72082,72056,72249
 9.0000e-001 72298 -1.0888e+001  9.4814e+000 -6.5129e+000 61204 72082,72249,71978
 9.0000e-001 72757 -1.8284e+000  1.6998e+001  2.6340e+000 60800 72483,72613,72509
 9.0000e-001 72734 -1.9131e-001  1.6134e+001  1.5866e+000 60800 72483,72639,72613
 9.0000e-001 72711 -1.5140e-001  3.0112e+001  4.0638e+000 60800 72561,72613,72587
 9.0000e-001 72688 -2.3965e+000  1.9075e+001  1.6333e-001 60800 72509,72613,72561
 9.0000e-001 72665  6.7961e+000  3.7615e+001 -8.0662e+000 60800 72509,72561,72535
 9.0000e-001 72907 -5.3799e+000  8.9798e+000 -3.0804e+000 60552 72780,72832,72806
 9.0000e-001 72884  6.9641e+000  3.9166e+001 -7.5491e+000 60552 72780,72858,72832
 9.0000e-001 73464  4.8938e+000  9.9819e+000  7.8582e+000 60240 73487,73222,73196
 9.0000e-001 73441  9.4935e+000  1.8625e+001  5.9921e+000 60240 73559,73487,73196
 9.0000e-001 73418  4.4329e+000  2.2919e+001  6.0370e+000 60240 73559,73196,73170
 9.0000e-001 73395  1.3587e+001 -5.4733e+000  4.0094e+000 60240 73222,73274,73248
 9.0000e-001 73372 -5.8909e-001  5.7079e+000 -3.0628e+000 60240 73118,73300,73274
 9.0000e-001 73349  7.9419e+000  1.6864e+001  1.0285e+000 60240 73092,73300,73118
 9.0000e-001 73326  1.0027e+000  2.4099e+001  9.5319e+000 60240 73118,73170,73144
 9.0000e-001 73513  7.6364e+000  1.2753e+001  3.8092e+000 60240 73274,73222,73487
 9.0000e-001 73536  7.6135e+000  1.5018e+001  1.8264e+000 60240 73274,73487,73118
 9.0000e-001 73585  4.1926e+000  1.2377e+001  3.2296e+000 60240 73118,73487,73559
 9.0000e-001 73608 -4.8686e-002  1.7480e+001  3.5400e+000 60240 73118,73559,73170
 9.0000e-001 73758 -3.3294e+001 -5.5744e+000 -1.0413e+000 59871 73657,73709,73683
 9.0000e-001 73735 -1.4253e+001 -4.7855e+001 -7.6395e-001 59871 73631,73709,73657
 9.0000e-001 74187 -7.6407e+000  4.7470e+001  1.7299e+000 59474 74210,73890,73864
 9.0000e-001 74164 -3.6483e+000  4.6582e+001  1.0114e+000 59474 74210,73864,74046
 9.0000e-001 74141 -6.9276e+000  3.8623e+001  9.5144e-001 59474 73890,73942,73916
 9.0000e-001 74118 -1.2054e+001  4.2865e+001  2.0569e+000 59474 73890,73994,73942
 9.0000e-001 74095 -5.3806e+000  4.7435e+001  1.1065e+001 59474 73994,74046,74020
 9.0000e-001 74072 -1.6366e+001  3.3715e+001  4.7658e-001 59474 73942,73994,73968
 9.0000e-001 74236 -4.0183e+000  4.6512e+001  2.8679e+000 59474 73994,73890,74210
 9.0000e-001 74259  6.5908e-002  4.5951e+001  2.8114e+000 59474 73994,74210,74046
 9.0000e-001 74716 -1.1183e+001  4.6752e-001 -9.7072e+000 58770 74468,74598,74494
 9.0000e-001 74693 -1.9150e+001 -3.4298e+000 -1.1123e+001 58770 74442,74598,74468
 9.0000e-001 74670 -7.9570e+000 -2.0355e+001 -3.5138e+001 58770 74494,74572,74520
 9.0000e-001 74647 -1.1247e+001  6.4637e+000 -1.0539e+001 58770 74494,74598,74572
 9.0000e-001 74624  3.1136e+001  1.0840e+001 -3.8156e+000 58770 74520,74572,74546
 9.0000e-001 75222 -4.9764e+000  3.1101e+001  3.1138e-001 58266 74951,75081,75029
 9.0000e-001 75199 -1.4539e+000  3.9982e+001  1.8900e+000 58266 74925,75081,74951
 9.0000e-001 75176  5.5510e-001  2.5737e+001 -6.5404e+000 58266 75029,75081,75055
 9.0000e-001 75153 -1.8321e+001  3.8357e+001  5.7892e+000 58266 74951,75003,74977
 9.0000e-001 75130 -4.9453e+000  3.0165e+001  6.6333e+000 58266 74951,75029,75003
 9.0000e-001 75107 -2.0136e+001  2.0071e+001 -1.2546e+001 58266 74899,75081,74925
 9.0000e-001 75421  1.5382e+001  5.4100e+001  2.2188e+000 57826 75444,75297,75245
 9.0000e-001 75398  2.9364e+001  4.7375e+001  3.5895e+000 57826 75444,75245,75349
 9.0000e-001 75375  1.7020e+001  5.7131e+001  1.4625e+000 57826 75516,75297,75271
 9.0000e-001 75470  2.2750e+001  5.2546e+001  1.1469e+001 57826 75323,75297,75444
 9.0000e-001 75493  4.0249e+001  5.3478e+001  1.5778e+001 57826 75323,75444,75349
 9.0000e-001 75542  1.1863e+001  4.8091e+001  3.8518e+000 57826 75245,75297,75516
 9.0000e-001 76257  1.3174e+001  3.2696e+001  4.5042e-002 57422 76280,76093,76067
 9.0000e-001 76234  1.3603e+001  1.9697e+001  4.5148e+000 57422 75885,76093,75911
 9.0000e-001 76211  1.5711e+001  3.3843e+001  3.0470e-001 57422 76424,76280,76067
 9.0000e-001 76188  1.5805e+001  3.5740e+001  6.2967e+000 57422 76352,75937,75911
 9.0000e-001 76165  1.3519e+001  2.8346e+001 -4.9092e-001 57422 76424,76067,76015
 9.0000e-001 76142  2.1096e+001  6.2116e+001  1.1565e+001 57422 76015,76067,76041
 9.0000e-001 76119  3.2305e+001  2.8918e+001  1.9864e+000 57422 75963,76015,75989
 9.0000e-001 76306  1.0750e+001  2.5082e+001  6.1286e+000 57422 75911,76093,76280
 9.0000e-001 76329  1.9988e+001  3.0073e+001  4.1533e+000 57422 76352,75911,76280
 9.0000e-001 76378  2.3011e+001  4.4535e+001  1.1149e+001 57422 75963,75937,76352
 9.0000e-001 76401  2.5048e+001  3.8366e+001  8.1523e+000 57422 75963,76352,76280
 9.0000e-001 76450  1.8203e+001  2.7287e+001  8.1658e-001 57422 75963,76280,76424
 9.0000e-001 76473  1.6739e+001  2.3288e+001 -3.7594e-001 57422 75963,76424,76015
 9.0000e-001 76949 -1.0466e+001 -4.8928e+000  1.3159e+001 56904 76972,76707,76681
 9.0000e-001 76926 -4.6379e+000  1.3548e+001  5.8358e+000 56904 77044,76972,76681
 9.0000e-001 76903  3.5228e+000  2.3932e+001  2.2128e+000 56904 77044,76681,76629
 9.0000e-001 76880 -7.2924e+000 -3.4007e+000  4.4212e+000 56904 76707,76785,76759
 9.0000e-001 76857  3.7155e+001  1.7991e+001 -7.1927e-001 56904 76577,76785,76603
 9.0000e-001 76834 -7.0181e+000 -1.1271e+000  2.7446e+000 56904 76707,76759,76733
 9.0000e-001 76811  6.1444e+000  1.5794e+001  1.7649e+001 56904 76629,76681,76655
 9.0000e-001 76998 -1.7272e+000  3.3023e+000  2.0287e+000 56904 76785,76707,76972
 9.0000e-001 77021 -2.0991e+000  5.6972e+000  9.8040e-001 56904 76785,76972,76603
 9.0000e-001 77070  8.5183e+000  4.7440e+000  1.4314e+000 56904 76603,76972,77044
 9.0000e-001 77093  1.2128e+001  9.5492e+000 -3.5655e-001 56904 76603,77044,76629
 9.0000e-001 77471  4.1741e+000  2.5972e+001 -3.9705e+000 56542 77566,77494,77275
 9.0000e-001 77448  5.8965e-001  2.5570e+001 -8.2456e-001 56542 77494,77223,77353
 9.0000e-001 77425  2.8086e+000  2.4352e+001 -2.0408e+000 56542 77566,77275,77249
 9.0000e-001 77402 -3.7665e+000  1.7226e+001  1.4445e+001 56542 77197,77353,77223
 9.0000e-001 77379 -2.0232e+000  3.3021e+001 -1.5470e+001 56542 77275,77327,77301
 9.0000e-001 77520  4.9380e-001  4.2837e+001 -8.0933e+000 56542 77327,77275,77494
 9.0000e-001 77543 -2.3289e+001  2.6204e+001 -6.6222e-001 56542 77327,77494,77353
 9.0000e-001 77592  2.4305e+000  2.4712e+001 -1.3993e+000 56542 77223,77494,77566
 9.0000e-001 77615  9.2254e-001  2.0717e+001  4.5787e-001 56542 77223,77566,77249
 9.0000e-001 77814  1.4725e+001  1.7956e+001 -1.1612e+001 56038 77837,77690,77664
 9.0000e-001 77791  1.2539e+001  1.6998e+001 -1.1468e+001 56038 77837,77664,77742
 9.0000e-001 77768  1.5184e+001  8.2378e+000 -1.1092e+001 56038 77638,77742,77664
 9.0000e-001 77863  1.5316e+001  1.8098e+001 -1.3271e+001 56038 77716,77690,77837
 9.0000e-001 77886  1.2881e+001  1.7030e+001 -1.3101e+001 56038 77716,77837,77742
 9.0000e-001 78345  2.8326e+001  5.9476e+001  2.8360e+001 55534 78071,78123,78097
 9.0000e-001 78322  5.4626e+000  3.7662e+001  9.4918e+000 55534 78071,78201,78123
 9.0000e-001 78299  1.1929e+001  5.4558e+001  6.9128e+000 55534 78071,78227,78201
 9.0000e-001 78276  3.4040e+001  4.3173e+001  1.6095e+001 55534 78123,78175,78149
 9.0000e-001 78253  3.1556e+001  4.7067e+001  1.2084e+001 55534 78123,78201,78175
 9.0000e-001 78802 -4.8808e+000  2.4915e+001 -7.8721e+000 55030 78825,78632,78606
 9.0000e-001 78779 -1.5271e+000  2.3817e+001 -9.3877e+000 55030 78897,78825,78606
 9.0000e-001 78756 -2.3107e+001  2.8321e+001 -1.4442e+001 55030 78897,78606,78580
 9.0000e-001 78733 -3.8615e+000  1.7127e+001 -9.5508e+000 55030 78554,78684,78658
 9.0000e-001 78710 -3.6711e+000  1.9399e+001 -1.3363e+000 55030 78528,78684,78554
 9.0000e-001 78851 -2.1828e-001  4.9967e+001  1.4664e+000 55030 78658,78632,78825
 9.0000e-001 78874 -7.2294e+000  1.8061e+001 -1.0238e+001 55030 78658,78825,78554
 9.0000e-001 78923 -1.9001e+001  1.0205e+001 -2.3222e+001 55030 78554,78825,78897
 9.0000e-001 78946 -2.7554e+001  1.8565e+001 -2.9843e+001 55030 78554,78897,78580
 9.0000e-001 79403  8.4932e+000  2.0514e+001  3.9515e-002 54426 79426,79233,79155
 9.0000e-001 79380  1.0713e+001  2.1876e+001  6.7953e-001 54426 79426,79155,79129
 9.0000e-001 79357 -4.7220e+000  4.0891e+001 -1.1921e+001 54426 79233,79285,79259
 9.0000e-001 79334  2.3268e+001  2.4293e+001 -4.1997e+000 54426 79181,79233,79207
 9.0000e-001 79311  1.6055e+001  2.2708e+001 -1.4773e+000 54426 79155,79233,79181
 9.0000e-001 79452  8.2088e+000  2.1971e+001  1.4686e+000 54426 79285,79233,79426
 9.0000e-001 79475  9.4062e+000  2.2988e+001  1.9427e+000 54426 79285,79426,79129
 9.0000e-001 79932 -1.5870e+001  2.0574e+001  9.3578e+000 53915 79658,79762,79684
 9.0000e-001 79909 -6.3199e+000  1.6702e+001  6.3002e+000 53915 79658,79814,79762
 9.0000e-001 79886 -3.7306e+000  1.4325e+001  1.1140e+001 53915 79762,79814,79788
 9.0000e-001 79863 -7.2884e+000  2.5097e+001  1.5661e+001 53915 79710,79762,79736
 9.0000e-001 79840 -1.4537e+001  1.8727e+001  1.2145e+001 53915 79684,79762,79710
 9.0000e-001 80033 -6.8930e+000  4.0239e+001  6.0612e-002 53667 79955,80007,79981
 9.0000e-001 80401 -1.3127e+001  2.3375e+001 -8.0181e+000 53263 80104,80260,80234
 9.0000e-001 80378 -6.2811e+000  4.2755e+001  1.2257e+000 53263 80078,80260,80104
 9.0000e-001 80355 -2.4875e+000  1.6718e+001 -1.8431e+000 53263 80104,80234,80130
 9.0000e-001 80332 -9.5087e-001  1.9518e+001 -6.4667e-001 53263 80130,80208,80182
 9.0000e-001 80309  3.0177e+000  1.9943e+001 -2.0659e-001 53263 80130,80234,80208
 9.0000e-001 80286 -1.0112e+000  2.3184e+001  1.7050e+000 53263 80130,80182,80156
 9.0000e-001 80911 -1.4119e+001  1.3287e+001 -1.1588e+001 52965 80640,80770,80744
 9.0000e-001 80888  6.6647e+000  3.7965e+001 -6.5856e-001 52965 80614,80770,80640
 9.0000e-001 80865  2.7265e+000  3.2542e+001 -8.9567e-001 52965 80640,80744,80666
 9.0000e-001 80842  4.8480e+000  2.5740e+001 -1.4363e+001 52965 80588,80770,80614
 9.0000e-001 80819  9.4083e+000  2.2078e+001 -1.1625e+000 52965 80666,80718,80692
 9.0000e-001 80796 -6.1103e+000  1.5617e+001 -4.1518e+000 52965 80666,80744,80718
 9.0000e-001 81262 -4.6623e+001  6.2722e+000  1.6953e+000 52561 81037,81141,81063
 9.0000e-001 81239 -5.7049e+001 -7.5303e+000  6.4302e+000 52561 81037,81167,81141
 9.0000e-001 81216 -8.6111e+001  1.8069e+001 -3.0359e+000 52561 81063,81115,81089
 9.0000e-001 81193 -9.0293e+001 -7.1484e+000 -1.1165e+001 52561 81063,81141,81115
 9.0000e-001 81719 -9.4975e+000  3.8254e+000  2.3353e+000 51900 81445,81523,81471
 9.0000e-001 81696 -1.0110e+001 -1.2953e+000 -6.1361e-002 51900 81445,81575,81523
 9.0000e-001 81673 -7.4105e+000 -3.2328e+000  7.6519e-001 51900 81445,81601,81575
 9.0000e-001 81650 -3.0964e+000  1.2364e+001  5.0927e+000 51900 81523,81575,81549
 9.0000e-001 81627 -1.5699e+000  5.6047e+000  2.6610e+000 51900 81471,81523,81497
 9.0000e-001 82323 -1.1180e+000  6.0392e+000  6.9221e+000 51317 82418,82346,82032
 9.0000e-001 82300 -1.0290e+001  4.2007e+000  5.9014e+000 51317 82490,82346,81954
 9.0000e-001 82277  7.6022e-001  9.0841e+000  8.4443e+000 51317 82418,82032,82006
 9.0000e-001 82254 -1.4129e+001  3.5553e-002  1.0313e+001 51317 82490,81954,81928
 9.0000e-001 82231 -7.7870e+000 -4.4875e+000  6.9220e+000 51317 82058,82110,82084
 9.0000e-001 82208 -1.9116e+001  1.9795e+001  2.7812e+000 51317 81928,82136,82110
 9.0000e-001 82185  1.4876e+001  9.8304e+000  1.0847e+001 51317 81954,82006,81980
 9.0000e-001 82162 -1.8887e+001  1.9762e+001 -2.6487e+000 51317 81902,82136,81928
 9.0000e-001 82372 -7.3339e+000 -6.0747e+000  3.8759e+000 51317 82058,82032,82346
 9.0000e-001 82395 -7.4172e+000  7.1039e+000  2.6260e+000 51317 82058,82346,82110
 9.0000e-001 82444 -2.8132e+000  3.6417e+000  2.9904e+000 51317 81954,82346,82418
 9.0000e-001 82467 -1.2142e+000  6.4633e+000  4.4622e+000 51317 81954,82418,82006
 9.0000e-001 82516 -9.9502e+000  8.4367e+000  3.9429e+000 51317 82110,82346,82490
 9.0000e-001 82539 -9.6947e+000  7.1773e+000  7.4866e+000 51317 82110,82490,81928
 9.0000e-001 83015 -1.9213e+000 -1.6953e-001 -1.0635e-001 50813 82669,82747,82695
 9.0000e-001 82992 -7.9771e+000  7.8685e+000  1.3923e+001 50813 83038,82669,82851
 9.0000e-001 82969 -1.2379e+001  9.7174e+000  1.2414e+001 50813 83038,82851,82799
 9.0000e-001 82946 -2.2090e+001  4.3684e+000  1.4091e+001 50813 82747,82799,82773
 9.0000e-001 82923 -4.7255e+000  1.0423e+001  1.5549e+001 50813 82643,82851,82669
 9.0000e-001 82900 -1.2875e+001  5.9808e+000  1.1433e+001 50813 82799,82851,82825
 9.0000e-001 82877 -1.5903e+000  6.7544e-002 -5.2460e-001 50813 82695,82747,82721
 9.0000e-001 83064 -1.4451e+000  9.3927e+000  1.3883e+001 50813 82747,82669,83038
 9.0000e-001 83087 -8.0663e+000  9.8184e+000  1.2813e+001 50813 82747,83038,82799
 9.0000e-001 83286  7.4295e+000 -4.7845e+000 -3.7844e+000 50352 83309,83162,83136
 9.0000e-001 83263  8.8743e+000  8.5960e+000  7.2116e-001 50352 83511,83309,83136
 9.0000e-001 83240  1.2858e+001  1.1883e+001  3.7542e+000 50352 83511,83136,83381
 9.0000e-001 83335  1.5053e+001  8.1586e+000 -6.9757e+000 50352 83188,83162,83309
 9.0000e-001 83358  2.9443e+000  6.2170e+000 -4.4376e+000 50352 83188,83309,83214
 9.0000e-001 83407  1.4121e+001  3.0523e+001  5.2071e+000 50352 83110,83214,83381
 9.0000e-001 83537  3.0610e+000  1.1142e+001 -1.7361e+000 50352 83214,83309,83511
 9.0000e-001 83560  4.1519e+000  1.0386e+001  4.2236e-001 50352 83214,83511,83381
 9.0000e-001 83889 -1.9184e+000  4.0047e+000  9.6305e-001 49548 83716,83794,83742
 9.0000e-001 83866  1.2185e+000  1.1231e+001  1.6819e+000 49548 83690,83794,83716
 9.0000e-001 83843 -1.0383e+001  1.3271e+000 -2.6203e+000 49548 83664,83794,83690
 9.0000e-001 83820  1.2158e+001  4.3053e+000  8.7956e-001 49548 83742,83794,83768
 9.0000e-001 84137  1.0168e+001  1.3397e+001  6.6729e-002 49208 84160,84016,83938
 9.0000e-001 84114  2.0615e+001  3.7570e+001 -2.8875e+000 49208 84160,83938,83912
 9.0000e-001 84091  1.5325e+001  1.0731e+001 -2.5872e+000 49208 83938,84016,83964
 9.0000e-001 84068  1.0690e+001  1.4989e+000 -4.2005e+000 49208 83964,84016,83990
 9.0000e-001 84186  1.3064e+001  2.4000e+001 -1.2865e+001 49208 84042,84016,84160
 9.0000e-001 84209  1.8097e+001  3.8097e+001 -1.5345e+001 49208 84042,84160,83912
 9.0000e-001 84796 -9.2101e+000  5.1954e-001 -3.4319e-001 48861 84499,84629,84551
 9.0000e-001 84773 -3.8797e+000  4.5292e+000  1.4913e+000 48861 84499,84655,84629
 9.0000e-001 84750 -8.6165e+000  2.4581e+000  7.6555e-001 48861 84551,84629,84577
 9.0000e-001 84727  2.6184e+000  1.1008e+000  1.7304e-001 48861 84577,84629,84603
 9.0000e-001 84704  2.1506e+000  3.6182e+000 -5.6336e-002 48861 84499,84551,84525
 9.0000e-001 84681 -3.3102e+000  5.1131e+000 -1.2420e+000 48861 84473,84655,84499
 9.0000e-001 85351  2.1448e+001  3.0508e+001 -8.5965e+000 48457 85374,85031,85005
 9.0000e-001 85328  1.1281e+001  2.4165e+001 -3.6737e+000 48457 85374,85005,85161
 9.0000e-001 85305  1.9156e+001  1.9965e+001  3.4072e-001 48457 85446,85057,85031
 9.0000e-001 85282  1.3759e+001  2.2137e+001  1.4423e-001 48457 85005,85187,85161
 9.0000e-001 85259  1.0215e+001  2.2505e+001  5.9309e+000 48457 85083,85161,85109
 9.0000e-001 85236  1.6734e+001  2.0032e+001 -3.0189e+000 48457 84979,85187,85005
 9.0000e-001 85213  3.2066e+001  3.2738e+001 -1.7099e+001 48457 85109,85161,85135
 9.0000e-001 85400  1.6282e+001  2.6597e+001 -2.2048e+000 48457 85446,85031,85374
 9.0000e-001 85423  4.0611e+000  2.3541e+001 -2.6713e+000 48457 85083,85374,85161
 9.0000e-001 85472  1.5508e+001  1.2980e+001 -9.8702e-001 48457 85083,85057,85446
 9.0000e-001 85495  1.0741e+001  1.6467e+001 -4.3438e+000 48457 85083,85446,85374
 9.0000e-001 86080  1.5336e+001  1.4681e+001 -4.9080e-001 48053 86319,86103,85783
 9.0000e-001 86057  6.0276e+000  1.2419e+001  2.0924e+000 48053 86103,85757,85939
 9.0000e-001 86034  4.9398e+000  1.5040e+001 -5.4767e+000 48053 86247,86175,85887
 9.0000e-001 86011  4.4527e+000  1.5186e+001 -6.5510e+000 48053 86247,85887,85835
 9.0000e-001 85988 -1.3302e+001  6.4898e+000 -5.6128e+000 48053 85887,85939,85913
 9.0000e-001 85965  1.1996e+001  1.2486e+001 -1.1921e+001 48053 85835,85887,85861
 9.0000e-001 86129  1.4579e+001  2.2267e+001 -7.2637e+000 48053 85809,85783,86103
 9.0000e-001 86152  7.6638e+000  1.5951e+001 -4.5758e+000 48053 86175,85809,86103
 9.0000e-001 86201  7.2189e+000  1.5013e+001 -5.0976e+000 48053 85939,85887,86175
 9.0000e-001 86224  8.5035e+000  1.5089e+001 -5.3972e+000 48053 85939,86175,86103
 9.0000e-001 86273  7.6694e+000  1.5270e+001 -4.9984e+000 48053 85809,86175,86247
 9.0000e-001 86296  6.0196e+000  1.4690e+001 -6.0160e+000 48053 85809,86247,85835
 9.0000e-001 86345  1.4719e+001  1.6097e+001  5.1784e-001 48053 85757,86103,86319
 9.0000e-001 86851  6.4941e+000 -4.8080e-001 -1.7455e+000 47541 86874,86580,86554
 9.0000e-001 86828  9.4026e+000  6.6760e-001 -1.0654e+000 47541 86946,86874,86554
 9.0000e-001 86805  1.0716e+001  1.6556e+000 -6.3124e-001 47541 86946,86554,86528
 9.0000e-001 86782  8.6563e+000  1.8357e+000 -1.1737e+000 47541 86580,86658,86606
 9.0000e-001 86759  1.4193e+001  4.9868e+000  1.7526e-002 47541 86528,86710,86684
 9.0000e-001 86736  2.5558e+000  2.2306e+000 -2.3601e+000 47541 86606,86658,86632
 9.0000e-001 86900  8.2750e+000  2.1697e+000 -9.4384e-001 47541 86658,86580,86874
 9.0000e-001 86923  4.4774e+000  3.8903e-001 -4.4566e-001 47541 86658,86874,86684
 9.0000e-001 86972  8.2642e+000  2.0960e+000  5.8880e-001 47541 86684,86874,86946
 9.0000e-001 86995  9.9144e+000  2.9282e+000  9.6408e-001 47541 86684,86946,86528
 9.0000e-001 87324  4.2134e+000  2.3412e+001  6.1337e+000 47044 87151,87203,87177
 9.0000e-001 87301  2.6470e+000  1.8809e+001  1.8269e+000 47044 87125,87203,87151
 9.0000e-001 87278  8.0540e+000  1.5941e+001  3.9831e+000 47044 87099,87203,87125
 9.0000e-001 87255  6.4344e+000  1.2006e+001  4.1630e+000 47044 87099,87229,87203
 9.0000e-001 87572  2.0712e-001  1.3855e+001  2.2576e+000 46697 87595,87425,87373
 9.0000e-001 87549 -3.5266e+000  1.3298e+001  2.3658e+000 46697 87595,87373,87477
 9.0000e-001 87526 -5.3443e+000  1.2972e+001  4.4377e+000 46697 87347,87477,87373
 9.0000e-001 87503  5.1487e-001  1.0678e+001  1.2744e+000 46697 87373,87425,87399
 9.0000e-001 87621 -2.5670e+000  1.8714e+001 -4.5822e-001 46697 87451,87425,87595
 9.0000e-001 87644 -1.1266e+001  1.4691e+001  1.3509e+000 46697 87451,87595,87477
 9.0000e-001 87794 -1.1367e+001  2.7769e+001 -4.2000e+000 46235 87693,87745,87719
 9.0000e-001 87771 -9.6483e+000  1.3110e+001  9.1724e-001 46235 87667,87745,87693
 9.0000e-001 88304 -1.2640e+001  1.9011e+001 -9.6121e-001 45731 88085,88163,88137
 9.0000e-001 88281 -4.4819e+000  1.9401e+001  4.5961e+000 45731 88007,88163,88085
 9.0000e-001 88258 -9.4955e+000  1.8936e+001  7.7675e+000 45731 87981,88163,88007
 9.0000e-001 88235 -3.4076e+000  1.8374e+001  4.2969e+000 45731 88007,88085,88059
 9.0000e-001 88212  4.2113e+000  2.6277e+001 -1.4330e-001 45731 88085,88137,88111
 9.0000e-001 88189 -6.8763e-001  1.7840e+001  8.3407e+000 45731 88007,88059,88033
 9.0000e-001 88682 -1.2544e+001  1.2356e+000 -1.1241e+000 45312 88434,88512,88486
 9.0000e-001 88659 -2.5496e+001 -1.8458e+001  8.2838e+000 45312 88434,88538,88512
 9.0000e-001 88636 -1.3716e+001  1.6129e+000  2.2499e+000 45312 88434,88564,88538
 9.0000e-001 88613  2.4742e+000  1.2842e+000  1.0406e+000 45312 88434,88486,88460
 9.0000e-001 88590 -1.8894e+001  2.4196e+001  2.2769e+001 45312 88408,88564,88434
 9.0000e-001 88930  1.6312e+001  2.0414e+001 -4.5814e+000 44808 88953,88731,88705
 9.0000e-001 88907  9.3399e+000  1.2998e+001  1.2222e+000 44808 88953,88705,88835
 9.0000e-001 88884  1.3021e+001  1.2097e+000  4.0064e+000 44808 89025,88783,88757
 9.0000e-001 88861  1.2193e+001  8.5322e+000  6.3878e+000 44808 88783,88835,88809
 9.0000e-001 88979  5.4265e+000  1.2951e+001  1.3880e+000 44808 88757,88731,88953
 9.0000e-001 89002  7.2255e+000  5.1338e+000  5.6238e+000 44808 89025,88757,88953
 9.0000e-001 89051  1.3087e+001  6.0987e+000  2.5548e+000 44808 88835,88783,89025
 9.0000e-001 89074  1.1883e+001  1.5004e+001  2.4307e+000 44808 88835,89025,88953
 9.0000e-001 89224 -1.6898e+002 -3.7686e+001  9.5794e+000 44404 89123,89175,89149
 9.0000e-001 89201 -1.6115e+002 -4.3934e+000 -1.5972e+000 44404 89097,89175,89123
 9.0000e-001 89783  6.4738e+000  1.8826e+001 -1.3636e+000 43850 89806,89541,89515
 9.0000e-001 89760  3.3252e+000  1.1479e+001 -1.5943e+000 43850 89806,89515,89463
 9.0000e-001 89737  9.3914e+000  1.2473e+001  1.5840e+000 43850 89950,89878,89593
 9.0000e-001 89714  7.3736e+000  1.3354e+001  4.5833e+000 43850 89950,89593,89567
 9.0000e-001 89691  8.5907e+000  1.6270e+001  1.4975e-001 43850 89411,89619,89463
 9.0000e-001 89668  4.2993e+000  8.3035e+000 -1.1183e+000 43850 89463,89515,89489
 9.0000e-001 89645  1.1133e+001  8.4937e+000 -1.6255e+000 43850 89411,89463,89437
 9.0000e-001 89832  5.7924e+000  1.6965e+001  2.3149e+000 43850 89878,89541,89806
 9.0000e-001 89855  8.2523e+000  1.4670e+001  2.0228e-001 43850 89619,89806,89463
 9.0000e-001 89904  8.5714e+000  1.0724e+001  1.3640e+000 43850 89619,89593,89878
 9.0000e-001 89927  5.1918e+000  9.8313e+000  1.5262e+000 43850 89619,89878,89806
 9.0000e-001 89976  7.3617e-001  9.0622e+000  4.9077e+000 43850 89541,89878,89950
 9.0000e-001 89999 -5.0784e+000  6.3570e+000  8.7138e+000 43850 89541,89950,89567
 9.0000e-001 90247  1.3244e+001  4.0070e+001  7.3453e-002 43488 90022,90074,90048
 9.0000e-001 90224 -5.1946e+000  3.4554e+001  5.2558e-001 43488 90270,90022,90152
 9.0000e-001 90201 -4.1783e+000  2.5146e+001 -8.0573e-001 43488 90342,90270,90152
 9.0000e-001 90178 -5.2128e+000  1.5692e+001  9.8882e+000 43488 90342,90152,90126
 9.0000e-001 90296  4.4348e+000  2.3910e+001  5.4823e+000 43488 90074,90022,90270
 9.0000e-001 90319 -5.3637e+000  1.7935e+001  2.6176e+000 43488 90074,90270,90100
 9.0000e-001 90368 -1.6558e+001  1.4130e+001  8.8226e+000 43488 90100,90270,90342
 9.0000e-001 90391 -1.7639e+001  3.4058e+000  1.9516e+001 43488 90100,90342,90126
 9.0000e-001 90590 -4.3905e+000  8.7520e+000 -2.1884e+000 43048 90414,90492,90440
 9.0000e-001 90567 -7.0239e+000  5.9356e-001  2.9069e-001 43048 90414,90518,90492
 9.0000e-001 90544 -2.7335e+000  1.3621e+001  2.7358e-001 43048 90440,90492,90466
 9.0000e-001 91070  4.6176e-001 -2.9463e+000 -2.5375e+000 42430 91237,90880,90854
 9.0000e-001 91047  2.9361e-001 -4.2700e+000 -2.3110e+000 42430 90698,90906,90880
 9.0000e-001 91024 -3.9708e+000  1.2791e+000  1.0222e+000 42430 91093,90750,90698
 9.0000e-001 91001 -2.1061e+000 -7.4443e-001 -6.3784e-001 42430 91237,90854,91093
 9.0000e-001 90978  8.1362e-001 -7.4309e-001  3.2391e+000 42430 91165,90802,90776
 9.0000e-001 90955  3.8074e+000  3.4491e+000  2.2110e+000 42430 90802,90854,90828
 9.0000e-001 90932 -4.1670e+000  9.3581e-001  8.9788e-001 42430 90698,90750,90724
 9.0000e-001 91119 -4.5066e+000 -6.5785e-001  3.5587e+000 42430 90776,90750,91093
 9.0000e-001 91142 -1.4183e+000 -1.4690e+000  2.9875e+000 42430 91165,90776,91093
 9.0000e-001 91191  1.1523e+000 -1.2402e+000  1.0635e+000 42430 90854,90802,91165
 9.0000e-001 91214 -9.9265e-001 -2.3880e+000  5.7137e-001 42430 90854,91165,91093
 9.0000e-001 91263 -3.3070e+000 -4.3711e+000 -2.9315e+000 42430 90698,90880,91237
 9.0000e-001 91286 -6.3316e+000 -2.4501e+000 -1.2200e+000 42430 90698,91237,91093
 9.0000e-001 91694  2.1521e+001  1.0965e+001  1.2224e+000 41769 91469,91573,91495
 9.0000e-001 91671  6.6394e+000  1.9213e+000  5.3014e+000 41769 91469,91599,91573
 9.0000e-001 91648  2.7273e+001  2.0073e+001  3.7892e+000 41769 91495,91547,91521
 9.0000e-001 91625  2.9817e+001  2.0682e+001  5.2918e+000 41769 91495,91573,91547
 9.0000e-001 92040  3.4719e+001  4.1835e+001  5.3869e+000 41379 91769,91873,91847
 9.0000e-001 92017  1.9559e+001  3.1904e+001  2.4457e-002 41379 91743,91873,91769
 9.0000e-001 91994  3.2218e+001  4.4616e+001  4.0547e+000 41379 91769,91847,91795
 9.0000e-001 91971  1.9365e+001  2.8585e+001  2.4610e+000 41379 91743,91899,91873
 9.0000e-001 91948  1.4522e+001  2.4506e+001 -7.3315e-001 41379 91717,91899,91743
 9.0000e-001 91925  2.3300e+001  3.9056e+001  1.3974e+000 41379 91795,91847,91821
 9.0000e-001 92597  9.7377e+000  1.6423e+001 -5.1911e+000 40975 92225,92407,92303
 9.0000e-001 92574 -4.2489e+000  6.9736e+000 -1.0735e+000 40975 92225,92433,92407
 9.0000e-001 92551  7.7430e+000  5.9539e+000 -7.0463e+000 40975 92225,92303,92277
 9.0000e-001 92528 -9.0752e+000  1.9117e+001 -1.3019e+001 40975 92329,92407,92381
 9.0000e-001 92505 -9.6265e+000  8.2711e+000 -8.6169e+000 40975 92303,92407,92329
 9.0000e-001 92482  9.5258e+000  3.6310e-001 -3.0042e+000 40975 92225,92277,92251
 9.0000e-001 92459 -2.2417e+001  1.7437e+001 -1.0262e+001 40975 92329,92381,92355
 9.0000e-001 93231 -4.8348e+001  5.8322e+000 -1.6636e+001 40521 92937,92989,92963
 9.0000e-001 93208 -6.2157e+000 -4.2552e-001 -5.6177e+000 40521 93254,92937,92885
 9.0000e-001 93185 -4.1103e+000 -1.4300e+000 -2.8417e+000 40521 93254,92885,93067
 9.0000e-001 93162  6.5781e+000 -1.2435e+000 -1.0593e+001 40521 92885,92937,92911
 9.0000e-001 93139  1.0969e+000 -4.4527e+000 -3.4043e+000 40521 92859,93067,92885
 9.0000e-001 93116 -1.8298e+000  9.2272e-001 -4.0115e+000 40521 92989,93067,93015
 9.0000e-001 93093  4.2687e+000 -3.3070e+000 -3.4209e+000 40521 93015,93067,93041
 9.0000e-001 93280 -4.6143e+000  3.2293e+000 -5.0111e+000 40521 92989,92937,93254
 9.0000e-001 93303 -3.3688e+000 -2.7723e-001 -2.4313e+000 40521 92989,93254,93067
 9.0000e-001 93632  2.3536e+000  2.1976e+001 -1.0833e+000 40231 93433,93537,93511
 9.0000e-001 93609  7.1972e+000  1.2007e+001 -6.3684e+000 40231 93407,93537,93433
 9.0000e-001 93586  5.0826e-001  2.7182e+001 -1.4142e+000 40231 93459,93511,93485
 9.0000e-001 93563 -4.9743e-002  2.1329e+001 -2.2434e+000 40231 93433,93511,93459
 9.0000e-001 94010 -1.1224e+001  2.6238e+001  1.4153e+000 39869 93762,93866,93788
 9.0000e-001 93987  3.6731e-002  2.6484e+001 -1.2240e+000 39869 93762,93892,93866
 9.0000e-001 93964 -2.1220e+001  1.1476e+001 -2.9786e+000 39869 93788,93866,93840
 9.0000e-001 93941 -2.3893e+001  2.0810e+001 -1.5348e+001 39869 93788,93840,93814
 9.0000e-001 93918 -5.7942e+000  1.7619e+001 -4.5247e+000 39869 93736,93892,93762
 9.0000e-001 94160 -3.7032e+000  8.6831e+000 -7.4354e-001 39457 94033,94085,94059
 9.0000e-001 94137 -2.7359e+000 -1.8194e+000  1.5315e+000 39457 94033,94111,94085
 9.0000e-001 94359 -6.1054e+000  2.9692e+001  7.9653e-001 39053 94382,94235,94209
 9.0000e-001 94336  1.5959e+001  4.6419e+001 -7.0982e+000 39053 94382,94209,94183
 9.0000e-001 94313  6.4245e+000  3.6907e+001  5.9643e+000 39053 94183,94287,94261
 9.0000e-001 94408  1.5417e+001  4.0599e+001  8.3155e-001 39053 94454,94382,94261
 9.0000e-001 94431  1.1173e+001  3.8468e+001  4.7290e+000 39053 94261,94382,94183
 9.0000e-001 94480  1.5833e+000  1.0528e+001  6.2293e+000 39053 94235,94382,94454
 9.0000e-001 94892 -7.5874e+000  1.3879e+001 -1.8378e+000 38392 94915,94771,94719
 9.0000e-001 94869 -6.8734e-001  1.8892e+001  3.9714e-001 38392 94915,94719,94693
 9.0000e-001 94846 -7.6966e+000  1.4473e+001  1.2191e+001 38392 94719,94771,94745
 9.0000e-001 94823 -3.8697e+000  2.7933e+001  2.2568e+000 38392 94667,94797,94693
 9.0000e-001 94941 -1.4953e+001  1.8985e+001 -4.1253e+000 38392 94797,94771,94915
 9.0000e-001 94964 -9.8284e+000  2.2963e+001 -2.1973e+000 38392 94797,94915,94693
 9.0000e-001 95261  2.7546e+001  2.1964e+001  4.3613e+000 37831 95013,95065,95039
 9.0000e-001 95238  2.9978e+001  2.2161e+001  3.0726e+000 37831 95284,95065,95013
 9.0000e-001 95215  2.5728e+001  2.1026e+001  2.3095e+000 37831 95284,95013,94987
 9.0000e-001 95192  2.2697e+001  2.9738e+001  1.6584e+000 37831 94987,95143,95117
 9.0000e-001 95169  2.6860e+001  1.3894e+001 -5.3663e+000 37831 95065,95117,95091
 9.0000e-001 95310  2.7255e+001  2.1967e+001  3.4559e-001 37831 95117,95065,95284
 9.0000e-001 95333  2.4016e+001  2.1681e+001 -3.0236e-001 37831 95117,95284,94987
 9.0000e-001 95554 -1.7868e+001  1.3239e+001 -5.9158e+000 37419 95404,95456,95430
 9.0000e-001 95531 -6.9021e+000  3.8135e+001 -4.0807e+000 37419 95378,95456,95404
 9.0000e-001 95508  2.8386e+000  4.5238e+001 -7.2503e+000 37419 95378,95482,95456
 9.0000e-001 95887 -8.7480e+000 -1.8635e+000  3.2608e+000 37221 95662,95714,95688
 9.0000e-001 95864 -7.5171e+000 -7.4548e+000  2.8641e+000 37221 95662,95792,95714
 9.0000e-001 95841  5.8320e+000  3.6950e+000  1.5074e+000 37221 95714,95766,95740
 9.0000e-001 95818 -3.6641e+000  1.7211e+000  3.2013e+000 37221 95714,95792,95766
 9.0000e-001 95988 -9.1357e+001 -7.8112e+000 -1.3555e+001 36731 95910,95962,95936
 9.0000e-001 96138 -4.8468e+000  3.3425e+001  7.3449e+000 36327 96293,96063,96037
 9.0000e-001 96115 -2.0645e+001  2.2145e+001  8.4372e+000 36327 96161,96037,96011
 9.0000e-001 96187 -3.8563e+000  3.5509e+001  1.4220e+001 36327 96293,96037,96161
 9.0000e-001 96319 -3.9732e+000  4.2630e+001  1.1897e+001 36327 96089,96063,96293
 9.0000e-001 96342  1.8244e+000  4.7095e+001  1.9680e+001 36327 96089,96293,96161
 9.0000e-001 96710  1.5042e+000  1.9266e+001  3.7288e+000 36037 96733,96491,96439
 9.0000e-001 96687  2.8288e+000  2.5442e+001  5.8636e+000 36037 96733,96439,96413
 9.0000e-001 96664 -2.7799e+000  1.6998e+001  8.7067e-001 36037 96439,96491,96465
 9.0000e-001 96641 -9.3052e+000  3.5449e+001  3.2269e+000 36037 96387,96517,96413
 9.0000e-001 96618 -9.8095e+000  3.4324e+001  3.4371e+000 36037 96387,96543,96517
 9.0000e-001 96595  3.8854e+000  2.5686e+001  1.3081e+001 36037 96387,96569,96543
 9.0000e-001 96759 -6.3199e+000  2.5931e+001  1.9539e+000 36037 96517,96491,96733
 9.0000e-001 96782 -1.0144e+000  3.4058e+001  6.6530e+000 36037 96517,96733,96413
 9.0000e-001 96932  1.5611e+001  1.1076e+001 -1.2359e+001 35633 97027,96955,96831
 9.0000e-001 96909  1.3150e+001  8.0047e+000 -1.2239e+001 35633 97159,96955,96805
 9.0000e-001 96981  1.1596e+001  5.7210e+000 -1.5805e+001 35633 96857,96831,96955
 9.0000e-001 97004  1.8282e+001  1.9003e+001 -1.9762e+001 35633 96857,96955,96883
 9.0000e-001 97053  1.2642e+001  7.7623e+000 -1.0604e+001 35633 96805,96955,97027
 9.0000e-001 97185  7.3510e+000  1.1840e+001 -1.1739e+001 35633 96883,96955,97159
 9.0000e-001 97593 -1.2297e+001 -1.4547e+001 -1.2341e+001 35186 97446,97498,97472
 9.0000e-001 97570 -5.8137e+000  1.2180e+000 -1.2267e+001 35186 97368,97498,97446
 9.0000e-001 97547 -1.2074e+001 -6.1353e+000 -6.6765e+000 35186 97368,97446,97394
 9.0000e-001 97524 -8.6588e+000 -3.4220e+000 -8.5301e+000 35186 97394,97446,97420
 9.0000e-001 98050  8.9120e+000  3.3837e+001 -8.2381e+000 34632 97802,97932,97854
 9.0000e-001 98027  4.2440e+000  1.0396e+001 -1.3923e+001 34632 97776,97932,97802
 9.0000e-001 98004 -5.0386e+000  1.9360e+001  4.9410e+000 34632 97802,97854,97828
 9.0000e-001 97981 -9.8266e+000  2.1971e+001 -5.9700e+000 34632 97880,97932,97906
 9.0000e-001 97958  6.4541e+000  2.8090e+001 -7.8375e+000 34632 97854,97932,97880
 9.0000e-001 98526  7.3748e+000  2.9179e+001  1.0940e-001 34064 98693,98180,98362
 9.0000e-001 98503 -4.7920e-001  1.7099e+001 -7.8383e+000 34064 98154,98362,98180
 9.0000e-001 98480  2.0262e+001  3.0006e+001  1.4592e+001 34064 98549,98258,98232
 9.0000e-001 98457  2.5964e+000  4.0460e+001  3.2422e+001 34064 98549,98232,98206
 9.0000e-001 98434  1.3278e+001  3.1832e+001 -2.0250e+000 34064 98837,98621,98362
 9.0000e-001 98411  2.8544e+001  1.5078e+001  1.6541e+001 34064 98765,98284,98258
 9.0000e-001 98388  2.5083e+001  2.7408e+001 -3.4074e+000 34064 98837,98362,98336
 9.0000e-001 98575  2.0184e+001  2.6010e+001  1.1246e+001 34064 98765,98258,98549
 9.0000e-001 98598  1.3048e+001  2.6456e+001  2.1083e+000 34064 98621,98310,98549
 9.0000e-001 98647  1.2717e+001  3.4739e+001  3.0750e+000 34064 98693,98362,98621
 9.0000e-001 98670  2.2194e+001  4.7160e+001  7.6184e+000 34064 98206,98621,98549
 9.0000e-001 98719  5.5668e+000  3.6774e+001  2.0043e+000 34064 98206,98180,98693
 9.0000e-001 98742  5.7271e+000  3.5423e+001  2.3163e+000 34064 98206,98693,98621
 9.0000e-001 98791  4.2679e+001  2.6934e+001  1.0504e+001 34064 98310,98284,98765
 9.0000e-001 98814  3.2621e+001  3.5435e+001  5.6598e+000 34064 98310,98765,98549
 9.0000e-001 98863  2.6999e+001  3.3021e+001  1.5182e-001 34064 98310,98621,98837
 9.0000e-001 98886  3.9373e+001  2.8971e+001 -1.9965e+000 34064 98310,98837,98336
 9.0000e-001 99264  6.5547e+000  1.5779e+000  1.2225e+001 33446 99287,99094,99068
 9.0000e-001 99241 -2.8466e+000  2.0474e+001 -6.5215e+000 33446 99287,99068,99016
 9.0000e-001 99218 -2.2363e+001  4.3093e+000  2.2158e+000 33446 99016,99068,99042
 9.0000e-001 99195 -1.9726e+001  1.5860e+001 -3.9067e+000 33446 99016,99146,99120
 9.0000e-001 99172 -2.2216e+001  2.4127e+001 -1.8351e+001 33446 98990,99146,99016
 9.0000e-001 99313  3.9439e+001  1.7209e+001  7.7801e+000 33446 99120,99094,99287
 9.0000e-001 99336  8.1447e+000  2.5036e+001 -7.6324e+000 33446 99120,99287,99016
 9.0000e-001 99861 -1.0731e+001  1.9185e+001 -8.6350e+000 32940 100172,99956,99884
 9.0000e-001 99838  5.5653e+000  1.2534e+001 -5.8787e+000 32940 100100,99884,99518
 9.0000e-001 99815 -6.4375e+000  1.5448e+001 -7.6065e+000 32940 100244,99956,99622
 9.0000e-001 99792  3.5953e+000  2.8020e+001 -3.7997e+000 32940 100028,99648,99622
 9.0000e-001 99769  4.1583e+000  4.1275e+000 -7.3149e+000 32940 100100,99518,99492
 9.0000e-001 99746 -5.5691e-001  2.2110e+001  2.8614e-001 32940 99570,99622,99596
 9.0000e-001 99723 -5.6670e+000  1.4172e+001 -7.5354e+000 32940 100244,99622,99570
 9.0000e-001 99700  8.1253e+000  6.8655e+000  3.4809e+000 32940 99440,99492,99466
 9.0000e-001 99910 -3.6895e+000  2.0874e+001 -7.3121e+000 32940 100172,99884,100028
 9.0000e-001 99933 -5.2975e+000  1.5073e+001  1.2158e+000 32940 99674,99884,99440
 9.0000e-001 99982  8.7726e-002  1.2113e+001 -1.0519e+001 32940 99518,99884,99956
 9.0000e-001 100005 -1.5830e+001 -3.7764e+000 -1.9757e+001 32940 99518,99956,99544
 9.0000e-001 100054 -5.5253e+000  3.3491e+001 -2.6385e-001 32940 99674,99648,100028
 9.0000e-001 100077  3.8074e-002  2.7962e+001 -1.1050e+000 32940 99674,100028,99884
 9.0000e-001 100126  4.9874e+000  1.6941e+001 -5.1832e-001 32940 99440,99884,100100
 9.0000e-001 100149  5.1611e+000  1.2457e+001 -2.6261e+000 32940 99440,100100,99492
 9.0000e-001 100198 -4.9295e+000  2.1487e+001 -2.7188e+000 32940 99622,99956,100172
 9.0000e-001 100221 -3.0858e+000  2.1590e+001 -9.0678e-001 32940 99622,100172,100028
 9.0000e-001 100270 -6.9029e+000  1.3958e+001 -6.7693e+000 32940 99544,99956,100244
 9.0000e-001 100293 -6.1956e+000  1.2683e+001 -6.6448e+000 32940 99544,100244,99570
 9.0000e-001 100750  3.0232e+000  2.9071e+001 -3.6687e+000 32365 100773,100580,100502
 9.0000e-001 100727  4.1138e+000  2.3016e+001  1.8309e+000 32365 100773,100502,100632
 9.0000e-001 100704  5.3048e+000  1.2322e+001 -6.2712e+000 32365 100476,100632,100502
 9.0000e-001 100681  5.8254e+000  2.8439e+001 -4.7704e+000 32365 100528,100580,100554
 9.0000e-001 100658  1.1187e+001  3.5729e+001 -1.0552e+001 32365 100502,100580,100528
 9.0000e-001 100799  2.3074e+000  3.7960e+001 -3.7927e+000 32365 100606,100580,100773
 9.0000e-001 100822  3.6899e+000  3.1139e+001  8.1724e-001 32365 100606,100773,100632
 9.0000e-001 101021 -3.6023e+000  2.4709e+001  7.1775e+000 31853 100871,100923,100897
 9.0000e-001 100998  4.7459e+000  3.2566e+001  1.0482e+001 31853 100871,100949,100923
 9.0000e-001 100975 -1.7983e+000  1.7753e+001  9.3876e+000 31853 100845,100949,100871
 9.0000e-001 101529 -3.2665e-001  1.5589e+001 -2.0553e+001 31249 101552,101310,101232
 9.0000e-001 101506  1.1289e+001  2.3407e+001 -2.3979e+001 31249 101552,101232,101206
 9.0000e-001 101483  1.0029e+001  4.2180e+000 -1.1117e+001 31249 101206,101388,101336
 9.0000e-001 101460 -1.5065e+000  1.9775e+001 -1.9630e+001 31249 101232,101284,101258
 9.0000e-001 101437  4.4208e-001  2.4836e+001 -1.9703e+001 31249 101232,101310,101284
 9.0000e-001 101414  1.4555e+001  3.1512e+000 -1.5632e+000 31249 101336,101388,101362
 9.0000e-001 101578  2.7445e+000  5.0589e+000 -9.0416e+000 31249 101336,101310,101552
 9.0000e-001 101601  1.5078e+001  1.3959e+001 -1.2925e+001 31249 101336,101552,101206
 9.0000e-001 101751 -1.1898e+001  5.9701e+001 -4.8658e-001 30515 101774,101650,101624
 9.0000e-001 101728  2.7037e+000  6.5818e+001 -2.4742e+000 30515 101846,101774,101624
 9.0000e-001 101800 -6.6176e+000  6.4721e+001  1.6086e+000 30515 101676,101650,101774
 9.0000e-001 101823 -3.7005e+000  5.2785e+001  2.1574e+000 30515 101676,101774,101702
 9.0000e-001 101872 -9.2809e+000  3.7729e+001 -2.8240e+000 30515 101702,101774,101846
 9.0000e-001 102557 -2.7367e+000  9.9721e+000  1.8781e+000 29947 102652,102580,102266
 9.0000e-001 102534 -1.3101e+000  1.4109e+001  4.1948e+000 29947 102580,102136,102370
 9.0000e-001 102511 -4.9618e+000  4.5327e+000  2.6076e+000 29947 102724,102652,102266
 9.0000e-001 102488 -2.1848e+000  2.3457e+000  1.0529e+000 29947 102724,102266,102240
 9.0000e-001 102465  1.1943e+000  1.3209e+001  7.1121e-001 29947 102796,102318,102292
 9.0000e-001 102442  7.7572e+000  1.0320e+001 -1.9108e+000 29947 102162,102214,102188
 9.0000e-001 102419 -1.3550e-002  8.4880e+000 -1.3146e+000 29947 102162,102240,102214
 9.0000e-001 102396  4.3502e+000  2.0164e+001  7.1127e+000 29947 102318,102370,102344
 9.0000e-001 102606 -2.6006e+000  3.2846e+000  8.5738e-001 29947 102292,102266,102580
 9.0000e-001 102629  3.4237e-001  1.0560e+001  5.8646e-001 29947 102796,102292,102580
 9.0000e-001 102678 -4.4283e+000  6.9783e+000  4.6699e+000 29947 102136,102580,102652
 9.0000e-001 102701 -3.1488e+000  3.4190e+000  5.6663e+000 29947 102136,102652,102162
 9.0000e-001 102750 -4.5948e-001  7.8988e+000  4.0795e+000 29947 102162,102652,102724
 9.0000e-001 102773  1.6678e-001  4.4684e+000  1.9542e+000 29947 102162,102724,102240
 9.0000e-001 102822  1.6359e+000  1.0166e+001  1.9119e+000 29947 102370,102318,102796
 9.0000e-001 102845  1.6403e+000  9.0550e+000  2.1190e+000 29947 102370,102796,102580
 9.0000e-001 103044 -1.2239e+001  2.5080e+000  2.7343e+000 29450 102868,102920,102894
 9.0000e-001 103021 -1.2673e+001  2.4309e+000  2.8723e+000 29450 102868,102972,102920
 9.0000e-001 102998 -1.2592e+001 -3.7500e+000  4.1113e+000 29450 102920,102972,102946
 9.0000e-001 103292  2.2158e+001  2.2846e+001  9.2374e+000 29060 103315,103171,103119
 9.0000e-001 103269  1.5812e+001  2.4829e+001  1.3148e+001 29060 103315,103119,103067
 9.0000e-001 103246  3.2436e+001  3.0124e+001  5.6803e+000 29060 103119,103171,103145
 9.0000e-001 103223  3.2882e+001  1.1475e+001  1.8885e+001 29060 103067,103119,103093
 9.0000e-001 103341  2.5236e+001  2.5182e+001  7.7618e+000 29060 103197,103171,103315
 9.0000e-001 103364  2.1197e+001  3.3375e+001  1.0145e+001 29060 103197,103315,103067
 9.0000e-001 104002 -9.5135e+000  2.2771e+001 -3.5025e+001 28599 104097,104025,103708
 9.0000e-001 103979  1.5198e+001  4.0194e+000 -1.6779e+001 28599 104169,104025,103656
 9.0000e-001 103956  2.3805e+001  9.7017e+000 -3.4768e+001 28599 104097,103708,103682
 9.0000e-001 103933  3.3808e+001  9.5550e+000 -1.3890e+001 28599 104169,103656,103630
 9.0000e-001 103910  3.1863e-001  4.5391e+001 -2.8322e+000 28599 103760,103812,103786
 9.0000e-001 103887  1.4846e+001  1.3659e+001 -7.6574e+000 28599 103630,103838,103812
 9.0000e-001 103864 -1.6589e+001 -3.4305e-001  4.8372e+000 28599 103708,103760,103734
 9.0000e-001 104051 -4.4489e+001  9.5218e+000 -5.4481e+000 28599 103760,103708,104025
 9.0000e-001 104074  9.9704e+000  3.4086e+001 -1.0703e+001 28599 103760,104025,103812
 9.0000e-001 104123  3.5715e+001  1.5666e+001 -2.4991e+001 28599 103656,104025,104097
 9.0000e-001 104146  8.5887e+001  1.5377e+001 -3.4408e+001 28599 103656,104097,103682
 9.0000e-001 104195  2.2480e+000  1.3088e+001 -1.1822e+001 28599 103812,104025,104169
 9.0000e-001 104218  1.3036e+001  1.3030e+001 -1.2081e+001 28599 103812,104169,103630
 9.0000e-001 104596  2.4919e+001  1.8914e+001 -9.7997e+000 28344 104619,104374,104322
 9.0000e-001 104573  2.7811e+001  1.6179e+001 -4.4057e+000 28344 104619,104322,104478
 9.0000e-001 104550  1.0097e+001  3.0464e+001 -4.1820e+000 28344 104322,104374,104348
 9.0000e-001 104527  3.3093e+001 -7.5783e+000 -1.1594e+001 28344 104400,104452,104426
 9.0000e-001 104504  3.7621e+001  5.6327e+000 -1.3976e+001 28344 104374,104452,104400
 9.0000e-001 104645  2.7567e+001  2.4079e+001 -8.4949e+000 28344 104452,104374,104619
 9.0000e-001 104668  3.1175e+001  2.2201e+001 -2.8782e+000 28344 104452,104619,104478
 9.0000e-001 104987  3.1134e+000  1.4751e+001  2.3126e+000 27947 104713,104843,104765
 9.0000e-001 104964  3.8341e-001  1.6839e+001 -5.7191e-001 27947 104713,104869,104843
 9.0000e-001 104941  1.8803e+000  1.0102e+001 -5.0606e-001 27947 104765,104843,104791
 9.0000e-001 104918 -3.0208e-002  3.8637e+000  4.8395e-001 27947 104791,104843,104817
 9.0000e-001 104895  1.0213e+000  1.1171e+001  3.9096e+000 27947 104713,104765,104739
 9.0000e-001 105367 -3.8501e+000  8.9542e+000  5.7312e+000 27443 105390,105197,105119
 9.0000e-001 105344 -5.4745e+000  6.5389e+000  2.1275e+000 27443 105390,105119,105093
 9.0000e-001 105321 -8.7718e+000  7.1624e+000  6.5487e+000 27443 105119,105197,105145
 9.0000e-001 105298 -1.1104e+000  3.9886e+000  4.7409e+000 27443 105197,105249,105223
 9.0000e-001 105275 -7.9788e+000  1.5808e+001  1.3417e+001 27443 105145,105197,105171
 9.0000e-001 105416 -2.3873e+000  5.1132e+000  3.2108e+000 27443 105249,105197,105390
 9.0000e-001 105439 -5.5855e+000  6.9165e-001 -5.1256e-001 27443 105249,105390,105093
 9.0000e-001 105994 -6.3725e+000  5.0355e+000 -2.7886e-001 27096 106161,106017,105700
 9.0000e-001 105971 -9.2592e+000  1.0983e+001  1.8378e+000 27096 106305,106017,105648
 9.0000e-001 105948  8.3933e-001  9.4198e+000 -5.3130e-001 27096 106089,105804,105778
 9.0000e-001 105925 -6.6281e+000  2.8840e+000 -8.1634e-001 27096 106161,105700,105674
 9.0000e-001 105902 -4.2406e+000  4.7613e+000 -6.9161e-001 27096 106233,105726,105700
 9.0000e-001 105879 -3.1227e+001  8.3251e+000  4.1350e+000 27096 106305,105648,105622
 9.0000e-001 105856 -1.0918e+000  5.1907e+000  9.9617e-001 27096 105726,105778,105752
 9.0000e-001 106043 -5.3674e+000  6.3950e+000  2.6804e-001 27096 106233,105700,106017
 9.0000e-001 106066 -2.5803e+000  7.7220e+000  9.7241e-001 27096 106089,105778,106017
 9.0000e-001 106115 -3.0324e+000  7.7646e+000 -5.6118e-001 27096 105830,105804,106089
 9.0000e-001 106138 -5.6921e+000  7.9745e+000  6.6221e-001 27096 106377,106089,106017
 9.0000e-001 106187 -6.5155e+000  9.0005e+000  3.5803e+000 27096 105648,106017,106161
 9.0000e-001 106210 -8.7355e+000  2.2231e+000  3.9304e+000 27096 105648,106161,105674
 9.0000e-001 106259 -3.2316e+000  6.7736e+000 -1.0948e+000 27096 105778,105726,106233
 9.0000e-001 106282 -4.6297e+000  7.9902e+000  5.8290e-004 27096 105778,106233,106017
 9.0000e-001 106331 -6.5133e+000  1.0097e+001 -1.7647e+000 27096 106377,106017,106305
 9.0000e-001 106354 -5.7456e+000  2.6371e+001 -4.3677e+000 27096 105830,106305,105622
 9.0000e-001 106403 -1.5862e+000  1.1177e+001 -7.8300e-001 27096 105830,106089,106377
 9.0000e-001 106426 -2.0856e+000  1.2518e+001 -3.0066e+000 27096 105830,106377,106305
 9.0000e-001 106625 -1.5307e+001  1.9118e+001  4.4003e+000 26684 106475,106553,106527
 9.0000e-001 106602 -1.8392e+001  1.3594e+001  2.7508e+000 26684 106449,106553,106475
 9.0000e-001 106579 -2.7503e+001  1.9334e+001 -4.3234e+000 26684 106475,106527,106501
 9.0000e-001 107084 -1.5769e+001 -1.6685e+000 -3.9396e+000 26244 107107,106914,106862
 9.0000e-001 107061 -1.2988e+001 -4.7595e+000 -7.6865e+000 26244 107107,106862,106836
 9.0000e-001 107038 -1.6882e+001  6.8199e-001 -4.5305e+000 26244 106810,106966,106836
 9.0000e-001 107015 -6.8111e+000  3.0501e+001 -3.6639e+000 26244 106862,106914,106888
 9.0000e-001 106992 -4.4284e+000  7.2955e+000 -2.3814e+000 26244 106914,106966,106940
 9.0000e-001 107133 -9.6899e+000  2.9613e+000 -5.0309e-001 26244 106966,106914,107107
 9.0000e-001 107156 -1.0924e+001 -3.6285e+000 -4.8064e+000 26244 106966,107107,106836
 9.0000e-001 107662 -1.6394e+000  7.2113e+000  8.6229e-001 25904 107365,107495,107391
 9.0000e-001 107639  1.8399e+000  8.6967e+000 -1.6558e-003 25904 107365,107521,107495
 9.0000e-001 107616  8.3616e-001  7.2757e+000  6.0763e-001 25904 107391,107469,107443
 9.0000e-001 107593  1.9331e+000  8.6885e+000  3.5379e-002 25904 107391,107495,107469
 9.0000e-001 107570  4.7067e-001  6.5117e+000  7.1398e-001 25904 107391,107443,107417
 9.0000e-001 107547 -2.7989e+000  6.7287e+000  3.2743e-002 25904 107339,107521,107365
 9.0000e-001 108247 -3.1420e+000  7.2446e+000  8.9827e-001 25450 108270,108002,107950
 9.0000e-001 108224 -2.6070e+000  7.2304e+000  1.1143e+000 25450 108270,107950,108106
 9.0000e-001 108201 -1.8510e+000  4.1460e+000  1.0811e+000 25450 108342,108028,108002
 9.0000e-001 108178 -6.1296e+000  2.4157e+000  2.2337e+000 25450 107950,108002,107976
 9.0000e-001 108155 -6.6115e+000  1.3922e+001  3.0738e+000 25450 107924,108106,107950
 9.0000e-001 108132  8.9866e-001  1.4157e+001  3.4028e-001 25450 108054,108106,108080
 9.0000e-001 108296 -3.1660e+000  5.6222e+000  1.2733e+000 25450 108342,108002,108270
 9.0000e-001 108319 -1.8899e+000  8.4250e+000  1.6489e+000 25450 108054,108270,108106
 9.0000e-001 108368 -5.9842e-001  6.2173e+000  3.9651e-001 25450 108054,108028,108342
 9.0000e-001 108391 -1.8061e+000  8.1199e+000  6.8482e-001 25450 108054,108342,108270
 9.0000e-001 108818 -1.3208e+001  2.9070e+001  9.6041e+000 24939 108521,108677,108651
 9.0000e-001 108795 -2.7712e+001  1.7780e+001 -1.6187e+000 24939 108495,108677,108521
 9.0000e-001 108772  2.1553e+000  3.5458e+001 -5.0268e+000 24939 108521,108651,108625
 9.0000e-001 108749 -7.0293e+000  2.5366e+001 -7.7993e-001 24939 108521,108625,108599
 9.0000e-001 108726  2.8810e+000  8.9005e+000  5.0058e+000 24939 108547,108599,108573
 9.0000e-001 108703 -1.1187e+001  1.6192e+001  2.7017e-001 24939 108521,108599,108547
 9.0000e-001 109403  4.4842e+001  2.5367e+001 -8.7034e+000 24741 109158,109210,109184
 9.0000e-001 109380  3.0265e+001  2.7453e+001 -4.8827e+000 24741 109158,109262,109210
 9.0000e-001 109357  3.1178e+001  2.2819e+001 -2.5709e+000 24741 109080,109262,109158
 9.0000e-001 109334  2.2520e+001  2.4414e+001  1.4731e+000 24741 109080,109158,109132
 9.0000e-001 109311  5.1521e+001  3.2020e+001 -9.0706e+000 24741 109210,109262,109236
 9.0000e-001 109288  3.3415e+001  2.3690e+001  6.8883e+000 24741 109080,109132,109106
 9.0000e-001 109781  8.0891e-001  6.7668e+000  3.3943e-001 24337 109533,109611,109559
 9.0000e-001 109758  2.1246e+000  8.8522e+000 -6.0775e-001 24337 109533,109637,109611
 9.0000e-001 109735  1.7445e+000  6.8377e+000 -3.3604e-002 24337 109559,109611,109585
 9.0000e-001 109712  2.2771e+000  9.1484e+000  1.1619e+000 24337 109533,109663,109637
 9.0000e-001 109689  1.2494e+000  8.6048e+000  9.4135e-001 24337 109507,109663,109533
 9.0000e-001 110159  1.6012e+001  1.4592e+001 -5.5122e+000 23833 110182,109963,109911
 9.0000e-001 110136  1.6693e+001  1.5682e+001 -6.4156e+000 23833 110182,109911,109885
 9.0000e-001 110113  2.1182e+001  1.3897e+001 -7.0623e+000 23833 109885,110041,109989
 9.0000e-001 110090  1.7097e+001  2.0109e+001 -4.5317e+000 23833 109911,109963,109937
 9.0000e-001 110067  1.6915e+001 -4.0219e-001 -4.9637e+000 23833 109989,110041,110015
 9.0000e-001 110208  1.6083e+001  1.3762e+001 -5.2502e+000 23833 109989,109963,110182
 9.0000e-001 110231  1.5987e+001  1.4239e+001 -5.9569e+000 23833 109989,110182,109885
 9.0000e-001 110332  6.2546e-001  1.5552e+001 -7.4510e-001 23429 110254,110306,110280
 9.0000e-001 110580  2.9290e+001  1.5355e+001  4.7152e+000 22825 110603,110407,110381
 9.0000e-001 110557  4.0548e+001  2.2554e+001 -9.0796e+000 22825 110603,110381,110485
 9.0000e-001 110534  1.2477e+001  7.1912e+000  7.6076e+000 22825 110433,110485,110459
 9.0000e-001 110511  1.4020e+000  4.6503e+001 -2.0558e+001 22825 110355,110485,110381
 9.0000e-001 110629  2.7228e+001  2.3029e-001  1.3896e+001 22825 110433,110407,110603
 9.0000e-001 110652  3.3983e+001  9.8831e+000  1.0105e+000 22825 110433,110603,110485
 9.0000e-001 110902 -3.7493e+001  1.7257e+001 -7.9675e+000 22428 110703,110755,110729
 9.0000e-001 110879 -2.4503e+001  4.1866e+000 -8.0035e+000 22428 110703,110781,110755
 9.0000e-001 110856 -3.3021e+001 -5.7369e-001 -1.3659e+001 22428 110703,110807,110781
 9.0000e-001 110833 -5.5570e+001 -1.4440e+001 -2.4841e+001 22428 110677,110807,110703
 9.0000e-001 111284  4.2883e+001  2.8427e+001 -6.0569e+000 22138 111088,111140,111114
 9.0000e-001 111261  3.3174e+001  3.0366e+001 -8.3493e+000 22138 111062,111140,111088
 9.0000e-001 111238  3.1757e+001  2.9419e+001 -4.1498e+000 22138 111036,111140,111062
 9.0000e-001 111215  2.1467e+001  2.4079e+001 -7.4431e+000 22138 111010,111140,111036
 9.0000e-001 111192  2.2351e+001  2.2545e+001 -5.1341e+000 22138 111010,111166,111140
 9.0000e-001 111385 -2.3917e+001  2.1400e+001  6.1438e+000 21826 111307,111359,111333
 9.0000e-001 111731 -2.8988e+001  2.3804e+001  6.9622e+000 21264 111754,111538,111434
 9.0000e-001 111708 -1.8633e+001  2.7605e+001  6.9679e-001 21264 111754,111434,111408
 9.0000e-001 111685 -3.2075e+001  3.1824e+001  4.6606e+000 21264 111434,111538,111460
 9.0000e-001 111662 -5.2333e+001  2.3075e+001  8.6265e+000 21264 111460,111538,111486
 9.0000e-001 111639 -1.3838e+001  1.6430e+001  1.7003e+001 21264 111408,111590,111564
 9.0000e-001 111616 -6.2092e+001  5.0034e+001  2.1096e+001 21264 111486,111538,111512
 9.0000e-001 111780 -3.2447e+001  2.2218e+001  9.6457e+000 21264 111564,111538,111754
 9.0000e-001 111803 -2.8822e+001  1.5865e+001  5.6930e+000 21264 111564,111754,111408
 9.0000e-001 111955  2.8772e+001  3.6804e+001  4.5012e-001 20860 111978,111906,111880
 9.0000e-001 111932  2.7715e+001  3.3415e+001 -3.8495e+000 20860 112110,111828,111906
 9.0000e-001 112004  2.6493e+001  3.8438e+001 -1.9238e+000 20860 112110,111906,111978
 9.0000e-001 112136  2.8724e+001  3.8424e+001 -2.8793e+000 20860 111854,111828,112110
 9.0000e-001 112159  2.8198e+001  4.4836e+001 -1.2693e+000 20860 111854,112110,111978
 9.0000e-001 112407  1.3972e+001  2.7962e+001 -6.5959e+000 20320 112182,112286,112208
 9.0000e-001 112384  2.3832e+001  3.3914e+001 -9.2948e+000 20320 112182,112312,112286
 9.0000e-001 112361  1.9274e+001  3.0211e+001 -5.3670e+000 20320 112208,112286,112260
 9.0000e-001 112338 -3.3445e+000  3.6101e+001 -1.3967e+001 20320 112208,112260,112234
 9.0000e-001 112655  1.3546e+001  1.1916e+001  1.4770e+000 19916 112508,112560,112534
 9.0000e-001 112632  1.6420e+001  2.3396e+001  3.5659e+000 19916 112430,112560,112508
 9.0000e-001 112609  1.5523e+001  1.3473e+001  6.8537e+000 19916 112430,112508,112456
 9.0000e-001 112586  1.3088e+001  8.6820e+000  8.1005e+000 19916 112456,112508,112482
 9.0000e-001 112807 -1.5767e+001  8.0706e+000 -1.4741e+000 19626 112680,112732,112706
 9.0000e-001 112784 -1.1516e+001  1.0919e+000 -4.1136e+000 19626 112680,112758,112732
 9.0000e-001 113008 -7.7347e-001  8.1870e+000 -2.4064e+000 19165 112858,112936,112884
 9.0000e-001 112985 -6.1132e+000  1.9845e+001 -5.8872e+000 19165 112832,112936,112858
 9.0000e-001 112962  1.8956e+000  6.1912e+000 -4.6696e+000 19165 112884,112936,112910
 9.0000e-001 113209 -5.6092e+000  5.0827e+000  8.1985e-001 18596 113033,113085,113059
 9.0000e-001 113186  6.5230e-002  6.9314e+000 -7.5204e-001 18596 113033,113111,113085
 9.0000e-001 113163 -4.4452e+000 -2.4500e-001  4.2268e+000 18596 113033,113137,113111
 9.0000e-001 113481 -6.7015e+000  4.8780e+000  8.6726e-001 18348 113256,113308,113282
 9.0000e-001 113458 -1.0743e+000  6.8791e+000 -1.1831e-001 18348 113256,113386,113308
 9.0000e-001 113435 -1.1078e+000  5.7692e+000  4.3957e-001 18348 113308,113386,113360
 9.0000e-001 113412  1.4060e+000  5.5447e+000  2.0513e-001 18348 113308,113360,113334
 9.0000e-001 113753 -1.1067e-001  6.1019e+000  4.2250e-002 17830 113554,113606,113580
 9.0000e-001 113730  1.5928e+000  5.8775e+000  4.1419e-001 17830 113528,113606,113554
 9.0000e-001 113707  2.0345e+000  6.8908e+000  3.0847e-001 17830 113528,113658,113606
 9.0000e-001 113684  3.4044e+000  6.6402e+000  3.4343e-001 17830 113606,113658,113632
 9.0000e-001 113954  2.3929e+001  2.1151e+001 -4.5693e+000 17326 113778,113830,113804
 9.0000e-001 113931  3.4131e+001  1.4621e+001 -7.5575e+000 17326 113778,113882,113830
 9.0000e-001 113908  2.8594e+001  4.9100e+000 -9.8239e+000 17326 113830,113882,113856
 9.0000e-001 114106  5.7667e-001  6.8341e+000 -2.6200e-001 16870 113979,114031,114005
 9.0000e-001 114083  2.3166e+000  6.6249e+000 -8.1661e-001 16870 113979,114057,114031
 9.0000e-001 114461  2.0593e+001  4.9113e+001 -1.8182e+001 16266 114236,114288,114262
 9.0000e-001 114438  2.1418e+001  2.2346e+001 -2.8795e+000 16266 114236,114366,114288
 9.0000e-001 114415  2.7727e+001  3.0836e+001  3.6393e+000 16266 114288,114340,114314
 9.0000e-001 114392  2.8584e+001  3.0333e+001  4.2252e-001 16266 114288,114366,114340
 9.0000e-001 114562 -2.3797e+001  4.2529e+001  0.0000e+000 15830 114484,114536,114510
 9.0000e-001 114663  2.8357e+000 -2.8828e+000 -1.9297e+000 15151 114585,114637,114611
 9.0000e-001 114886  2.4599e+001  2.4025e+001  4.0823e+000 417 114762,114814,114788
 9.0000e-001 114863  2.3463e+001  1.7025e+001  5.4697e+000 417 114710,114814,114762
 9.0000e-001 114840  3.4298e+001  1.5163e+001  7.8071e+000 417 114710,114762,114736
 1.0000e+000 66549 -1.8491e+000  2.2894e+000 -2.0826e-001 66104 66350,66454,66428
 1.0000e+000 66526  2.9885e-002  2.9710e+000  2.3989e-001 66104 66324,66454,66350
 1.0000e+000 66503 -2.8588e-001  5.6209e+000 -8.5417e-001 66104 66350,66428,66402
 1.0000e+000 66480  1.4457e+000  5.5171e-001 -1.2454e+000 66104 66350,66402,66376
 1.0000e+000 66947 -4.8690e-002  1.9726e+000 -1.4542e+000 65906 66699,66829,66803
 1.0000e+000 66924  6.3331e-001  6.3275e-001 -1.1353e-001 65906 66673,66829,66699
 1.0000e+000 66901  3.0395e+000  1.2273e+000  9.2296e-001 65906 66725,66777,66751
 1.0000e+000 66878 -4.9391e+000  2.9503e+000  8.4568e-001 65906 66725,66803,66777
 1.0000e+000 66855  3.3782e+000 -2.4075e-001 -1.5718e+000 65906 66699,66803,66725
 1.0000e+000 67146 -3.7079e-002  9.1578e-001  4.8233e-001 65708 67022,67074,67048
 1.0000e+000 67123 -8.4447e-002  1.6160e+000  2.2342e-001 65708 66970,67074,67022
 1.0000e+000 67100 -5.6289e+000 -1.1965e+000  1.1445e+000 65708 66970,67022,66996
 1.0000e+000 67477 -2.2122e+000 -6.8866e-001 -3.7851e+000 65418 67278,67356,67330
 1.0000e+000 67454  1.0450e+000  5.2257e+000 -2.1318e+000 65418 67278,67382,67356
 1.0000e+000 67431  1.3460e+000  4.6525e+000 -7.7072e+000 65418 67278,67330,67304
 1.0000e+000 67408 -6.0239e-002  2.0081e+000 -1.9594e+000 65418 67252,67382,67278
 1.0000e+000 68111 -1.5849e+000  1.7054e+000 -1.5623e+000 65014 67791,67921,67869
 1.0000e+000 68088 -2.3825e-003  2.3639e+000 -1.3064e+000 65014 67765,67921,67791
 1.0000e+000 68065 -1.1146e+000  1.9583e+000 -1.3896e+000 65014 67869,67921,67895
 1.0000e+000 68042  8.2824e-001  1.0606e+000 -9.1035e-001 65014 67765,67947,67921
 1.0000e+000 68019  2.6381e+000 -1.2483e+000 -4.2991e+000 65014 67791,67869,67817
 1.0000e+000 67996  6.6838e+000 -3.0323e+000 -1.3605e+000 65014 67817,67869,67843
 1.0000e+000 67973  3.7286e+000  2.9383e+000  2.8030e-002 65014 67739,67947,67765
 1.0000e+000 68359 -2.4381e+000  1.1123e+001  1.6134e+000 64816 68186,68238,68212
 1.0000e+000 68336 -5.7141e-001  5.8322e+000  1.7678e+000 64816 68186,68264,68238
 1.0000e+000 68313  1.0152e-001  5.9177e+000 -4.6721e-001 64816 68160,68264,68186
 1.0000e+000 68290  4.2623e-001  4.2923e+000  1.3859e+000 64816 68134,68264,68160
 1.0000e+000 68509  3.0649e-001  1.7298e-001  2.0067e-001 64362 68864,68532,68434
 1.0000e+000 68486  2.2264e+000  1.9143e+000 -9.5826e-001 64362 68532,68408,68382
 1.0000e+000 68558 -3.3740e+000  3.0631e-001  1.4878e+000 64362 68736,68532,68460
 1.0000e+000 68581  1.0483e+000  3.7869e+000 -4.9547e-001 64362 68604,68532,68382
 1.0000e+000 68630  1.2615e+000  1.0300e+000  1.0662e+000 64362 68460,68532,68604
 1.0000e+000 68762 -1.1590e+000 -6.2391e-001  2.1428e+000 64362 68434,68532,68736
 1.0000e+000 68890  1.3778e+000  1.6923e+000  6.6927e-001 64362 68408,68532,68864
 1.0000e+000 69168  1.8531e+000  1.9351e+001 -2.5222e+000 64164 69018,69070,69044
 1.0000e+000 69145 -3.6611e-001  1.0295e+001 -1.1625e+000 64164 68992,69070,69018
 1.0000e+000 69122  1.3295e+000  1.3328e+001  1.3958e+000 64164 68992,69096,69070
 1.0000e+000 69367  3.7540e+000  5.1059e+000  2.3135e+000 63966 69462,69390,69269
 1.0000e+000 69344 -1.1811e+000  2.9213e-001  2.7827e+000 63966 69390,69243,69217
 1.0000e+000 69321 -8.8914e-001 -1.9321e+000 -1.7939e+000 63966 69191,69295,69217
 1.0000e+000 69416  8.9570e+000  1.3070e+000 -4.3379e-001 63966 69295,69269,69390
 1.0000e+000 69439  2.3144e+000 -2.0829e+000 -1.6979e+000 63966 69295,69390,69217
 1.0000e+000 69488  3.2007e+000  2.1885e+000  2.3389e+000 63966 69243,69390,69462
 1.0000e+000 69900 -3.2493e+000  9.3449e+000  2.0525e+000 63676 69701,69779,69727
 1.0000e+000 69877 -2.3281e+000  9.2186e+000  2.3465e+000 63676 69675,69779,69701
 1.0000e+000 69854  3.5410e+000  8.9453e+000  1.4496e+000 63676 69675,69805,69779
 1.0000e+000 69831 -4.7680e+000  2.4145e+001  7.0475e+000 63676 69727,69779,69753
 1.0000e+000 70050 -6.9216e-001  1.0997e+001  1.5872e+000 63472 70073,69949,69923
 1.0000e+000 70027 -3.8352e+000  7.7411e+000  5.9545e-002 63472 70073,69923,70001
 1.0000e+000 70099  2.8018e+000  8.7591e+000  2.9863e+000 63472 69975,69949,70073
 1.0000e+000 70122  1.9926e-001  5.8958e+000  1.7087e+000 63472 69975,70073,70001
 1.0000e+000 70321 -3.2895e+000  2.8639e+000 -3.4676e+000 63274 70145,70223,70171
 1.0000e+000 70298  4.6166e-001  5.5239e+000 -1.7084e+000 63274 70145,70249,70223
 1.0000e+000 70275 -1.6673e+000  1.6188e+001 -6.3208e+000 63274 70171,70223,70197
 1.0000e+000 70593  1.3434e+000  6.5997e+000  2.6660e+000 63076 70368,70472,70420
 1.0000e+000 70570 -1.8299e+000  1.5332e+000  1.1785e+000 63076 70368,70498,70472
 1.0000e+000 70547  1.4031e+000 -4.9627e-001 -2.4862e-001 63076 70420,70472,70446
 1.0000e+000 70524  9.3520e-001  4.9280e+000  7.2602e+000 63076 70368,70420,70394
 1.0000e+000 70843 -1.0661e+000 -9.0800e+000 -2.4282e+000 62736 70866,70644,70618
 1.0000e+000 70820 -1.5452e+000 -1.1310e+001 -2.2902e+000 62736 70866,70618,70748
 1.0000e+000 70797  8.7489e+000 -7.1618e+000  1.7413e+000 62736 70644,70722,70696
 1.0000e+000 70774  1.4567e+001 -4.9272e+000 -2.1118e+000 62736 70644,70696,70670
 1.0000e+000 70892 -1.6659e+000 -7.4353e+000 -1.1062e+000 62736 70722,70644,70866
 1.0000e+000 70915 -2.4287e+000 -9.9257e+000 -1.1688e+000 62736 70722,70866,70748
 1.0000e+000 71018 -2.8325e+000  2.5144e+000  1.5538e+000 62516 70940,70992,70966
 1.0000e+000 71219  2.0767e+000  1.1738e+001  4.6744e+000 62226 71069,71147,71095
 1.0000e+000 71196  5.8120e+000  1.0467e+001  3.1225e-001 62226 71043,71147,71069
 1.0000e+000 71173  2.0659e+001  4.8982e+000  1.6929e+000 62226 71095,71147,71121
 1.0000e+000 71857  2.9944e+000  3.4154e+000  1.6267e-001 61708 71511,71693,71667
 1.0000e+000 71834  2.8936e+000  3.3183e+000 -2.7475e-001 61708 71485,71693,71511
 1.0000e+000 71811  4.9799e+000  1.7431e+000 -8.3450e-001 61708 71880,71537,71511
 1.0000e+000 71788  3.9957e+000  2.5391e+000 -1.1760e+000 61708 71880,71511,71667
 1.0000e+000 71765  1.0662e+001  2.6572e+000 -2.7606e+000 61708 71537,71615,71589
 1.0000e+000 71742  3.6915e+000  7.4076e+000  9.3167e-001 61708 71615,71667,71641
 1.0000e+000 71719  5.2605e-001 -2.6663e+000 -4.4675e-001 61708 71537,71589,71563
 1.0000e+000 71906  4.3426e+000  1.2099e+000 -1.0891e+000 61708 71615,71537,71880
 1.0000e+000 71929  3.3513e+000  1.9027e+000 -1.4695e+000 61708 71615,71880,71667
 1.0000e+000 72226 -1.3317e+001  2.1095e+001 -5.6636e+000 61204 72249,72056,72004
 1.0000e+000 72203 -2.2094e+001  1.0688e+001 -1.0136e+001 61204 72249,72004,71978
 1.0000e+000 72180 -4.4613e+000  2.4386e+000 -1.1273e+001 61204 71978,72108,72082
 1.0000e+000 72157  4.3746e+000  3.4056e+001  2.5082e+000 61204 72004,72056,72030
 1.0000e+000 72134 -1.3550e+001 -6.8785e+000 -1.5423e+001 61204 71952,72108,71978
 1.0000e+000 72275 -4.9972e+000  1.2580e+001 -6.3659e-001 61204 72082,72056,72249
 1.0000e+000 72298 -1.1795e+001  7.2676e+000 -3.6624e+000 61204 72082,72249,71978
 1.0000e+000 72757 -3.7361e+000  1.2270e+001  6.5159e+000 60800 72483,72613,72509
 1.0000e+000 72734 -3.6113e+000  3.8127e+000  5.5909e+000 60800 72483,72639,72613
 1.0000e+000 72711  3.9249e+000  2.4593e+001  8.6416e+000 60800 72561,72613,72587
 1.0000e+000 72688 -4.2009e+000  1.4008e+001  4.4504e+000 60800 72509,72613,72561
 1.0000e+000 72665  3.1428e+000  2.9326e+001 -7.4813e-001 60800 72509,72561,72535
 1.0000e+000 72907 -3.1873e+000  5.9679e+000 -1.6006e+000 60552 72780,72832,72806
 1.0000e+000 72884  5.1375e+000  2.0178e+001 -5.0778e+000 60552 72780,72858,72832
 1.0000e+000 73464  5.3238e+000  5.0686e+000  1.0662e+001 60240 73487,73222,73196
 1.0000e+000 73441  8.8702e+000  1.4758e+001  1.0858e+001 60240 73559,73487,73196
 1.0000e+000 73418  1.5664e+000  2.0700e+001  1.0976e+001 60240 73559,73196,73170
 1.0000e+000 73395  1.1021e+001 -6.0085e+000  6.1420e+000 60240 73222,73274,73248
 1.0000e+000 73372  4.4973e+000  5.0738e+000  3.9874e+000 60240 73118,73300,73274
 1.0000e+000 73349  7.1751e+000  4.8444e+000  5.9234e+000 60240 73092,73300,73118
 1.0000e+000 73326 -6.6683e+000  1.6169e+001  1.7161e+001 60240 73118,73170,73144
 1.0000e+000 73513  5.0307e+000  6.6053e+000  6.5579e+000 60240 73274,73222,73487
 1.0000e+000 73536  5.6163e+000  8.5807e+000  6.1005e+000 60240 73274,73487,73118
 1.0000e+000 73585  9.9783e-001  6.0989e+000  7.0359e+000 60240 73118,73487,73559
 1.0000e+000 73608 -5.1596e+000  1.3167e+001  7.5369e+000 60240 73118,73559,73170
 1.0000e+000 73758 -2.5713e+001 -9.8357e+000 -5.0210e+000 59871 73657,73709,73683
 1.0000e+000 73735 -4.7400e+000 -2.8587e+001 -1.3007e+000 59871 73631,73709,73657
 1.0000e+000 74187 -7.9720e+000  3.9528e+001  1.8129e+000 59474 74210,73890,73864
 1.0000e+000 74164 -4.6619e+000  3.7954e+001  1.3681e+000 59474 74210,73864,74046
 1.0000e+000 74141 -7.3946e+000  3.1784e+001  7.9811e-001 59474 73890,73942,73916
 1.0000e+000 74118 -1.2314e+001  3.5955e+001  1.8483e+000 59474 73890,73994,73942
 1.0000e+000 74095 -6.7780e+000  3.9772e+001  1.0931e+001 59474 73994,74046,74020
 1.0000e+000 74072 -1.5805e+001  2.7527e+001  6.8253e-001 59474 73942,73994,73968
 1.0000e+000 74236 -5.0850e+000  3.9317e+001  2.7632e+000 59474 73994,73890,74210
 1.0000e+000 74259 -1.4680e+000  3.8327e+001  2.8881e+000 59474 73994,74210,74046
 1.0000e+000 74716 -6.5261e+000 -1.1320e+001 -9.6549e+000 58770 74468,74598,74494
 1.0000e+000 74693  2.8601e+000 -6.4773e+000 -7.8246e+000 58770 74442,74598,74468
 1.0000e+000 74670 -1.5640e+001 -2.3749e+001 -1.7740e+001 58770 74494,74572,74520
 1.0000e+000 74647 -4.9664e-001 -6.3597e+000 -6.4805e+000 58770 74494,74598,74572
 1.0000e+000 74624  7.7405e+000  1.8055e+000 -1.6366e+000 58770 74520,74572,74546
 1.0000e+000 75222 -5.1957e+000  3.0392e+001  3.1879e+000 58266 74951,75081,75029
 1.0000e+000 75199  5.2798e-001  3.4576e+001  5.6484e+000 58266 74925,75081,74951
 1.0000e+000 75176 -7.7848e+000  2.0396e+001  2.5896e+000 58266 75029,75081,75055
 1.0000e+000 75153 -1.8055e+001  3.8989e+001  5.4651e+000 58266 74951,75003,74977
 1.0000e+000 75130 -1.1272e+001  2.7057e+001  8.1578e+000 58266 74951,75029,75003
 1.0000e+000 75107 -1.7959e+001  1.5103e+001 -8.3957e+000 58266 74899,75081,74925
 1.0000e+000 75421  1.1582e+001  4.6965e+001  2.9515e+000 57826 75444,75297,75245
 1.0000e+000 75398  2.3762e+001  3.9621e+001  4.6603e+000 57826 75444,75245,75349
 1.0000e+000 75375  1.2520e+001  4.9246e+001  1.7494e+000 57826 75516,75297,75271
 1.0000e+000 75470  1.8111e+001  4.6350e+001  1.0834e+001 57826 75323,75297,75444
 1.0000e+000 75493  3.3855e+001  4.6631e+001  1.5233e+001 57826 75323,75444,75349
 1.0000e+000 75542  8.6160e+000  4.0455e+001  3.6792e+000 57826 75245,75297,75516
 1.0000e+000 76257  2.3793e+001  3.4878e+001  2.0044e+000 57422 76280,76093,76067
 1.0000e+000 76234  2.6882e+001  1.8269e+001  3.1724e+000 57422 75885,76093,75911
 1.0000e+000 76211  2.1052e+001  3.2795e+001  5.4234e-001 57422 76424,76280,76067
 1.0000e+000 76188  2.6284e+001  3.4038e+001  5.6309e+000 57422 76352,75937,75911
 1.0000e+000 76165  1.6635e+001  3.0535e+001 -1.6752e+000 57422 76424,76067,76015
 1.0000e+000 76142  2.3761e+001  6.3911e+001  1.0946e+001 57422 76015,76067,76041
 1.0000e+000 76119  4.2244e+001  3.1863e+001  3.3857e+000 57422 75963,76015,75989
 1.0000e+000 76306  2.0812e+001  2.6751e+001  5.6010e+000 57422 75911,76093,76280
 1.0000e+000 76329  2.9363e+001  3.0862e+001  4.0835e+000 57422 76352,75911,76280
 1.0000e+000 76378  3.1803e+001  3.9215e+001  8.2819e+000 57422 75963,75937,76352
 1.0000e+000 76401  3.3311e+001  3.5489e+001  6.2521e+000 57422 75963,76352,76280
 1.0000e+000 76450  2.8320e+001  2.8351e+001 -4.1643e-001 57422 75963,76280,76424
 1.0000e+000 76473  2.2197e+001  2.5474e+001 -2.0978e+000 57422 75963,76424,76015
 1.0000e+000 76949 -1.3068e+001 -2.0414e+000  1.2297e+001 56904 76972,76707,76681
 1.0000e+000 76926 -6.7634e+000  1.8090e+001  3.9035e+000 56904 77044,76972,76681
 1.0000e+000 76903 -5.1679e+000  2.9238e+001  3.6169e+000 56904 77044,76681,76629
 1.0000e+000 76880 -6.1094e-001  3.3828e+000  2.4617e+000 56904 76707,76785,76759
 1.0000e+000 76857  6.7053e+000  1.4861e+001 -3.2626e+000 56904 76577,76785,76603
 1.0000e+000 76834 -2.7015e+000  2.8866e-001  3.8591e-001 56904 76707,76759,76733
 1.0000e+000 76811  6.6663e+000  2.4526e+001  1.9521e+001 56904 76629,76681,76655
 1.0000e+000 76998 -1.2229e+000  6.8355e+000  2.4989e+000 56904 76785,76707,76972
 1.0000e+000 77021 -5.4774e+000  1.1078e+001 -2.7286e+000 56904 76785,76972,76603
 1.0000e+000 77070 -3.3984e+000  7.4469e+000 -1.1071e+000 56904 76603,76972,77044
 1.0000e+000 77093 -3.0067e+000  1.5612e+001  3.6623e-001 56904 76603,77044,76629
 1.0000e+000 77471 -9.2630e+000  1.9228e+001 -1.1783e+001 56542 77566,77494,77275
 1.0000e+000 77448 -2.7237e+000  2.1142e+001 -4.8424e+000 56542 77494,77223,77353
 1.0000e+000 77425 -7.5128e+000  1.8173e+001 -1.7836e+001 56542 77566,77275,77249
 1.0000e+000 77402  7.3726e+000  2.1463e+001  4.0905e+000 56542 77197,77353,77223
 1.0000e+000 77379 -7.8796e+000  2.8915e+001 -1.8002e+001 56542 77275,77327,77301
 1.0000e+000 77520 -5.9715e+000  3.7102e+001 -1.1807e+001 56542 77327,77275,77494
 1.0000e+000 77543 -1.8741e+001  2.2591e+001 -4.3032e+000 56542 77327,77494,77353
 1.0000e+000 77592  3.2832e+000  2.3613e+001 -7.0831e+000 56542 77223,77494,77566
 1.0000e+000 77615 -9.2317e-001  1.5484e+001 -1.4120e+001 56542 77223,77566,77249
 1.0000e+000 77814  1.5842e+001  2.2660e+001 -1.6740e+001 56038 77837,77690,77664
 1.0000e+000 77791  1.7924e+001  2.2095e+001 -1.3468e+001 56038 77837,77664,77742
 1.0000e+000 77768  1.9080e+001  1.0282e+001 -1.3797e+001 56038 77638,77742,77664
 1.0000e+000 77863  1.6582e+001  2.5362e+001 -1.5525e+001 56038 77716,77690,77837
 1.0000e+000 77886  1.8711e+001  2.4539e+001 -1.2244e+001 56038 77716,77837,77742
 1.0000e+000 78345  2.1366e+001  4.9384e+001  2.7099e+001 55534 78071,78123,78097
 1.0000e+000 78322  2.7650e-001  3.1773e+001  8.5078e+000 55534 78071,78201,78123
 1.0000e+000 78299  9.2894e-001  4.5500e+001  8.6241e+000 55534 78071,78227,78201
 1.0000e+000 78276  2.6520e+001  3.7764e+001  1.3601e+001 55534 78123,78175,78149
 1.0000e+000 78253  2.2526e+001  3.9849e+001  1.0755e+001 55534 78123,78201,78175
 1.0000e+000 78802 -1.1661e+001  2.5510e+001 -9.3241e-001 55030 78825,78632,78606
 1.0000e+000 78779 -7.3825e-001  3.0706e+001 -5.7803e+000 55030 78897,78825,78606
 1.0000e+000 78756 -1.4891e+001  4.2435e+001 -1.4388e+001 55030 78897,78606,78580
 1.0000e+000 78733  7.7177e+000  1.8109e+001 -3.3204e+000 55030 78554,78684,78658
 1.0000e+000 78710  5.0134e+000  1.1242e+001 -5.7734e+000 55030 78528,78684,78554
 1.0000e+000 78851  6.2860e-001  4.1154e+001  5.4219e+000 55030 78658,78632,78825
 1.0000e+000 78874 -3.0207e+000  1.7964e+001 -5.9891e+000 55030 78658,78825,78554
 1.0000e+000 78923 -1.5157e+001  1.1046e+001 -1.4032e+001 55030 78554,78825,78897
 1.0000e+000 78946 -2.3717e+001  2.2144e+001 -2.2435e+001 55030 78554,78897,78580
 1.0000e+000 79403  8.5986e+000  2.2316e+001  5.2988e+000 54426 79426,79233,79155
 1.0000e+000 79380  1.1910e+001  2.2213e+001  3.9538e+000 54426 79426,79155,79129
 1.0000e+000 79357 -5.9569e+000  3.0315e+001 -5.4331e+000 54426 79233,79285,79259
 1.0000e+000 79334  1.2763e+001  2.5169e+001  1.1878e+001 54426 79181,79233,79207
 1.0000e+000 79311  1.2735e+001  2.1761e+001  4.9775e+000 54426 79155,79233,79181
 1.0000e+000 79452  7.6931e+000  2.1767e+001  6.4471e+000 54426 79285,79233,79426
 1.0000e+000 79475  9.5679e+000  2.0186e+001  5.3463e+000 54426 79285,79426,79129
 1.0000e+000 79932 -1.0865e+001  2.4202e+001  1.1118e+001 53915 79658,79762,79684
 1.0000e+000 79909 -8.6296e+000  1.5992e+001  1.0897e+001 53915 79658,79814,79762
 1.0000e+000 79886 -4.7198e+000  1.2397e+001  1.8195e+001 53915 79762,79814,79788
 1.0000e+000 79863 -7.9784e+000  3.1140e+001  1.9769e+001 53915 79710,79762,79736
 1.0000e+000 79840 -1.1667e+001  2.2149e+001  1.3229e+001 53915 79684,79762,79710
 1.0000e+000 80033 -7.8240e+000  3.3461e+001 -4.0044e-002 53667 79955,80007,79981
 1.0000e+000 80401 -1.3924e+001  1.7685e+001 -7.1873e+000 53263 80104,80260,80234
 1.0000e+000 80378 -8.6110e+000  3.4950e+001  1.0781e+000 53263 80078,80260,80104
 1.0000e+000 80355 -4.1891e+000  1.1863e+001 -1.7184e+000 53263 80104,80234,80130
 1.0000e+000 80332 -2.1439e+000  1.4178e+001 -8.3186e-001 53263 80130,80208,80182
 1.0000e+000 80309  2.3469e-001  1.4372e+001 -5.2371e-001 53263 80130,80234,80208
 1.0000e+000 80286 -2.4551e+000  1.7495e+001  1.7017e+000 53263 80130,80182,80156
 1.0000e+000 80911 -1.5458e+001  8.5514e+000 -1.0353e+001 52965 80640,80770,80744
 1.0000e+000 80888  3.8243e+000  3.0696e+001 -4.7607e-002 52965 80614,80770,80640
 1.0000e+000 80865  1.5873e-001  2.7106e+001  5.6214e-002 52965 80640,80744,80666
 1.0000e+000 80842  2.8665e+000  2.0195e+001 -1.2066e+001 52965 80588,80770,80614
 1.0000e+000 80819  6.3744e+000  1.8974e+001 -6.4291e-001 52965 80666,80718,80692
 1.0000e+000 80796 -8.6513e+000  1.2726e+001 -3.7023e+000 52965 80666,80744,80718
 1.0000e+000 81262 -5.4253e+001  6.9075e+000  1.7520e+000 52561 81037,81141,81063
 1.0000e+000 81239 -6.0522e+001 -6.7512e+000  4.0274e+000 52561 81037,81167,81141
 1.0000e+000 81216 -9.6201e+001  2.9134e+001 -3.8313e+000 52561 81063,81115,81089
 1.0000e+000 81193 -1.0439e+002 -8.3592e+000 -1.2994e+001 52561 81063,81141,81115
 1.0000e+000 81719 -1.6184e+001  2.4730e+000  2.3765e+000 51900 81445,81523,81471
 1.0000e+000 81696 -1.5697e+001 -1.1187e+000 -8.5841e-001 51900 81445,81575,81523
 1.0000e+000 81673 -1.1612e+001  1.2681e+000 -1.9027e+000 51900 81445,81601,81575
 1.0000e+000 81650 -7.8893e+000  1.0623e+001  3.7026e+000 51900 81523,81575,81549
 1.0000e+000 81627 -3.8688e+000  6.2031e+000  2.1309e+000 51900 81471,81523,81497
 1.0000e+000 82323 -9.7105e-001  9.6452e+000  8.4732e+000 51317 82418,82346,82032
 1.0000e+000 82300 -1.1580e+001  5.1269e+000  7.2621e+000 51317 82490,82346,81954
 1.0000e+000 82277  1.2675e+000  1.3106e+001  1.0467e+001 51317 82418,82032,82006
 1.0000e+000 82254 -1.6990e+001 -6.4464e-001  1.3342e+001 51317 82490,81954,81928
 1.0000e+000 82231 -8.1687e+000 -4.7393e-002  7.6533e+000 51317 82058,82110,82084
 1.0000e+000 82208 -2.2933e+001  2.0597e+001  5.2103e+000 51317 81928,82136,82110
 1.0000e+000 82185  2.0347e+001  1.3822e+001  1.4477e+001 51317 81954,82006,81980
 1.0000e+000 82162 -3.0767e+001  1.7225e+001  4.7226e+000 51317 81902,82136,81928
 1.0000e+000 82372 -8.3970e+000 -2.2419e+000  5.0490e+000 51317 82058,82032,82346
 1.0000e+000 82395 -7.9015e+000  1.0476e+001  3.6519e+000 51317 82058,82346,82110
 1.0000e+000 82444 -3.2268e+000  6.7480e+000  3.9425e+000 51317 81954,82346,82418
 1.0000e+000 82467 -1.3480e+000  9.9362e+000  5.8771e+000 51317 81954,82418,82006
 1.0000e+000 82516 -1.1155e+001  1.0949e+001  4.4920e+000 51317 82110,82346,82490
 1.0000e+000 82539 -1.0814e+001  9.2263e+000  9.3689e+000 51317 82110,82490,81928
 1.0000e+000 83015 -3.1999e+000  1.0552e-001 -1.1602e-001 50813 82669,82747,82695
 1.0000e+000 82992 -1.2224e+001  4.3047e+000  1.2902e+001 50813 83038,82669,82851
 1.0000e+000 82969 -1.7276e+001  5.5310e+000  1.1121e+001 50813 83038,82851,82799
 1.0000e+000 82946 -2.1418e+001  1.9627e+000  1.5143e+001 50813 82747,82799,82773
 1.0000e+000 82923 -6.1813e+000  6.3694e+000  1.2795e+001 50813 82643,82851,82669
 1.0000e+000 82900 -1.6761e+001 -1.8942e+000  7.4266e+000 50813 82799,82851,82825
 1.0000e+000 82877 -2.9987e+000 -1.4303e-001 -6.4655e-001 50813 82695,82747,82721
 1.0000e+000 83064 -4.4978e+000  5.2233e+000  1.3443e+001 50813 82747,82669,83038
 1.0000e+000 83087 -1.1968e+001  4.9103e+000  1.2056e+001 50813 82747,83038,82799
 1.0000e+000 83286  8.6662e+000 -3.1829e+000 -4.3171e+000 50352 83309,83162,83136
 1.0000e+000 83263  7.1982e+000  1.1810e+001  4.5313e-001 50352 83511,83309,83136
 1.0000e+000 83240  1.0749e+001  1.4836e+001  3.1312e+000 50352 83511,83136,83381
 1.0000e+000 83335  1.9318e+001  1.1147e+001 -9.7273e+000 50352 83188,83162,83309
 1.0000e+000 83358  2.7625e+000  8.7795e+000 -5.9711e+000 50352 83188,83309,83214
 1.0000e+000 83407  1.3609e+001  3.5457e+001  5.1969e+000 50352 83110,83214,83381
 1.0000e+000 83537  2.0647e+000  1.4163e+001 -1.7976e+000 50352 83214,83309,83511
 1.0000e+000 83560  3.0300e+000  1.3541e+001  9.5902e-002 50352 83214,83511,83381
 1.0000e+000 83889 -3.9383e+000  2.5802e+000 -2.2635e-001 49548 83716,83794,83742
 1.0000e+000 83866 -5.6541e-001  8.0272e+000  1.3396e+000 49548 83690,83794,83716
 1.0000e+000 83843 -1.1277e+001 -1.8111e+000 -2.9260e+000 49548 83664,83794,83690
 1.0000e+000 83820  7.3704e+000  2.0750e+000  3.6899e-002 49548 83742,83794,83768
 1.0000e+000 84137  1.4007e+001  1.6397e+001  4.8923e-001 49208 84160,84016,83938
 1.0000e+000 84114  2.5758e+001  4.3345e+001 -5.5680e+000 49208 84160,83938,83912
 1.0000e+000 84091  2.1089e+001  1.3242e+001 -2.7934e+000 49208 83938,84016,83964
 1.0000e+000 84068  1.4120e+001  2.3927e+000 -5.8925e+000 49208 83964,84016,83990
 1.0000e+000 84186  1.9901e+001  2.9052e+001 -1.3760e+001 49208 84042,84016,84160
 1.0000e+000 84209  2.4552e+001  4.4517e+001 -1.9097e+001 49208 84042,84160,83912
 1.0000e+000 84796 -1.3410e+001  6.6471e-001 -1.3242e-001 48861 84499,84629,84551
 1.0000e+000 84773 -7.9239e+000  7.1944e+000  2.3024e+000 48861 84499,84655,84629
 1.0000e+000 84750 -1.2569e+001  3.4690e+000  1.5482e+000 48861 84551,84629,84577
 1.0000e+000 84727  3.4581e+000  1.7164e+000  6.5206e-001 48861 84577,84629,84603
 1.0000e+000 84704 -3.8471e+000  2.8512e+000  4.7514e-001 48861 84499,84551,84525
 1.0000e+000 84681 -6.4842e+000  9.3318e+000 -2.1212e+000 48861 84473,84655,84499
 1.0000e+000 85351  1.1244e+001  2.1646e+001 -4.9413e+000 48457 85374,85031,85005
 1.0000e+000 85328  1.0515e+001  1.8483e+001 -4.7450e+000 48457 85374,85005,85161
 1.0000e+000 85305  1.9285e+001  1.7509e+001  7.1359e-001 48457 85446,85057,85031
 1.0000e+000 85282  9.8615e-001  1.2957e+001 -2.1584e+000 48457 85005,85187,85161
 1.0000e+000 85259  2.4753e+000  1.5589e+001 -6.6625e+000 48457 85083,85161,85109
 1.0000e+000 85236  9.0403e+000  1.2782e+001 -5.0863e+000 48457 84979,85187,85005
 1.0000e+000 85213  5.0145e+000  2.0304e+001 -7.7613e+000 48457 85109,85161,85135
 1.0000e+000 85400  1.5474e+001  2.2394e+001 -1.1148e+000 48457 85446,85031,85374
 1.0000e+000 85423  5.6938e+000  1.8429e+001 -3.8068e+000 48457 85083,85374,85161
 1.0000e+000 85472  1.4690e+001  1.3528e+001 -2.1394e+000 48457 85083,85057,85446
 1.0000e+000 85495  9.0064e+000  1.5649e+001 -4.6881e+000 48457 85083,85446,85374
 1.0000e+000 86080  2.5555e+001  2.2264e+001  3.8317e+000 48053 86319,86103,85783
 1.0000e+000 86057  1.8625e+001  2.5110e+001  3.5613e+000 48053 86103,85757,85939
 1.0000e+000 86034  1.2345e+001  2.0457e+001 -4.2722e+000 48053 86247,86175,85887
 1.0000e+000 86011  1.0885e+001  1.9730e+001 -6.5734e+000 48053 86247,85887,85835
 1.0000e+000 85988 -4.6230e-001  1.5237e+001 -8.1947e+000 48053 85887,85939,85913
 1.0000e+000 85965  1.9326e+001  1.5309e+001 -1.2776e+001 48053 85835,85887,85861
 1.0000e+000 86129  2.3843e+001  2.4403e+001 -7.8704e-001 48053 85809,85783,86103
 1.0000e+000 86152  1.9497e+001  2.4309e+001 -5.5726e-001 48053 86175,85809,86103
 1.0000e+000 86201  1.7193e+001  2.1393e+001 -3.2348e+000 48053 85939,85887,86175
 1.0000e+000 86224  1.7822e+001  2.0371e+001 -3.1932e+000 48053 85939,86175,86103
 1.0000e+000 86273  1.8881e+001  1.9949e+001 -2.2379e+000 48053 85809,86175,86247
 1.0000e+000 86296  1.4847e+001  1.7475e+001 -4.5689e+000 48053 85809,86247,85835
 1.0000e+000 86345  2.9489e+001  2.3771e+001  4.2603e+000 48053 85757,86103,86319
 1.0000e+000 86851  1.0310e+001 -7.9981e-001 -1.0815e+000 47541 86874,86580,86554
 1.0000e+000 86828  1.2366e+001  6.5455e-002 -9.9128e-001 47541 86946,86874,86554
 1.0000e+000 86805  1.3473e+001  1.7048e+000 -2.3434e-001 47541 86946,86554,86528
 1.0000e+000 86782  1.6851e+001  1.7977e-001 -3.7381e-001 47541 86580,86658,86606
 1.0000e+000 86759  2.0849e+001  7.6885e+000 -7.7993e-001 47541 86528,86710,86684
 1.0000e+000 86736  3.1155e+000  2.8016e+000 -2.7277e+000 47541 86606,86658,86632
 1.0000e+000 86900  1.1887e+001 -1.1326e-001 -6.6782e-002 47541 86658,86580,86874
 1.0000e+000 86923  9.5334e+000 -3.4512e-001 -7.2777e-001 47541 86658,86874,86684
 1.0000e+000 86972  1.1894e+001  2.5617e+000  3.4462e-001 47541 86684,86874,86946
 1.0000e+000 86995  1.2938e+001  3.3331e+000  1.1842e+000 47541 86684,86946,86528
 1.0000e+000 87324  2.5965e+000  1.6651e+001  4.8501e+000 47044 87151,87203,87177
 1.0000e+000 87301 -3.8984e-001  1.2207e+001  1.2275e+000 47044 87125,87203,87151
 1.0000e+000 87278  4.8285e+000  9.4201e+000  3.3195e+000 47044 87099,87203,87125
 1.0000e+000 87255  2.5845e+000  4.9436e+000  1.9107e+000 47044 87099,87229,87203
 1.0000e+000 87572 -1.7363e+000  9.2875e+000  1.9149e+000 46697 87595,87425,87373
 1.0000e+000 87549 -4.3790e+000  8.7954e+000  2.0404e+000 46697 87595,87373,87477
 1.0000e+000 87526 -7.6928e+000  7.7837e+000  3.8700e+000 46697 87347,87477,87373
 1.0000e+000 87503 -1.7243e+000  7.1653e+000  1.4141e+000 46697 87373,87425,87399
 1.0000e+000 87621 -3.7168e+000  1.2920e+001 -5.0521e-002 46697 87451,87425,87595
 1.0000e+000 87644 -9.9962e+000  9.8669e+000  1.3174e+000 46697 87451,87595,87477
 1.0000e+000 87794 -1.1823e+001  2.0665e+001 -3.5971e+000 46235 87693,87745,87719
 1.0000e+000 87771 -1.1143e+001  6.5418e+000  5.1042e-001 46235 87667,87745,87693
 1.0000e+000 88304 -1.4926e+001  1.5495e+001  8.0634e-001 45731 88085,88163,88137
 1.0000e+000 88281 -9.7039e+000  1.3253e+001  4.7734e+000 45731 88007,88163,88085
 1.0000e+000 88258 -1.6454e+001  1.1722e+001  7.2020e+000 45731 87981,88163,88007
 1.0000e+000 88235 -1.0515e+001  1.3719e+001  5.0205e+000 45731 88007,88085,88059
 1.0000e+000 88212  2.8913e+000  2.2995e+001 -9.4427e-001 45731 88085,88137,88111
 1.0000e+000 88189 -8.5541e+000  1.1964e+001  8.6540e+000 45731 88007,88059,88033
 1.0000e+000 88682 -1.7291e+001 -5.9407e-001 -1.3707e+000 45312 88434,88512,88486
 1.0000e+000 88659 -3.1791e+001 -2.2747e+001  9.0787e+000 45312 88434,88538,88512
 1.0000e+000 88636 -1.8509e+001  3.1952e-001  2.2062e+000 45312 88434,88564,88538
 1.0000e+000 88613 -2.5881e+000  7.8946e-002  9.1355e-001 45312 88434,88486,88460
 1.0000e+000 88590 -2.3906e+001  3.1965e+001  3.0439e+001 45312 88408,88564,88434
 1.0000e+000 88930  1.6492e+001  2.3268e+001 -2.4849e+000 44808 88953,88731,88705
 1.0000e+000 88907  9.5165e+000  1.5098e+001  2.9087e+000 44808 88953,88705,88835
 1.0000e+000 88884  1.5347e+001  3.4775e+000  6.3775e+000 44808 89025,88783,88757
 1.0000e+000 88861  1.4805e+001  7.6227e+000  9.9860e+000 44808 88783,88835,88809
 1.0000e+000 88979  4.2728e+000  1.5479e+001  3.1003e+000 44808 88757,88731,88953
 1.0000e+000 89002  6.6342e+000  7.4325e+000  7.9736e+000 44808 89025,88757,88953
 1.0000e+000 89051  1.7517e+001  8.0081e+000  4.7957e+000 44808 88835,88783,89025
 1.0000e+000 89074  1.4725e+001  1.8000e+001  4.0901e+000 44808 88835,89025,88953
 1.0000e+000 89224 -2.2547e+002 -5.0059e+001  1.1858e+001 44404 89123,89175,89149
 1.0000e+000 89201 -2.2306e+002 -2.5131e+001 -3.3683e+000 44404 89097,89175,89123
 1.0000e+000 89783  1.9416e+001  3.1045e+001 -4.0258e+000 43850 89806,89541,89515
 1.0000e+000 89760  1.5512e+001  1.8722e+001 -3.0476e-002 43850 89806,89515,89463
 1.0000e+000 89737  1.6222e+001  1.8525e+001  7.4301e-001 43850 89950,89878,89593
 1.0000e+000 89714  1.3682e+001  1.9659e+001  4.5121e+000 43850 89950,89593,89567
 1.0000e+000 89691  2.0031e+001  1.5241e+001  3.5689e+000 43850 89411,89619,89463
 1.0000e+000 89668  2.7504e+001  2.1010e+001 -2.7963e+000 43850 89463,89515,89489
 1.0000e+000 89645  2.3342e+001  1.6447e+001  1.9146e+000 43850 89411,89463,89437
 1.0000e+000 89832  1.2476e+001  2.5494e+001  2.3072e+000 43850 89878,89541,89806
 1.0000e+000 89855  1.9832e+001  2.1982e+001  2.1576e+000 43850 89619,89806,89463
 1.0000e+000 89904  1.6080e+001  1.3044e+001  3.5540e+000 43850 89619,89593,89878
 1.0000e+000 89927  1.6936e+001  1.4340e+001  2.8672e+000 43850 89619,89878,89806
 1.0000e+000 89976  5.3214e+000  1.4341e+001  5.9754e+000 43850 89541,89878,89950
 1.0000e+000 89999 -2.3369e+000  1.0194e+001  1.0857e+001 43850 89541,89950,89567
 1.0000e+000 90247  8.9154e+000  4.5778e+001  1.0383e+001 43488 90022,90074,90048
 1.0000e+000 90224 -5.6345e+000  4.1554e+001  2.6527e+000 43488 90270,90022,90152
 1.0000e+000 90201 -4.2979e+000  2.9771e+001  1.0130e+000 43488 90342,90270,90152
 1.0000e+000 90178 -5.7553e+000  1.8724e+001  1.2716e+001 43488 90342,90152,90126
 1.0000e+000 90296  2.3234e+000  2.8293e+001  8.8064e+000 43488 90074,90022,90270
 1.0000e+000 90319 -5.0970e+000  2.3117e+001  5.8951e+000 43488 90074,90270,90100
 1.0000e+000 90368 -1.7475e+001  1.7235e+001  1.2567e+001 43488 90100,90270,90342
 1.0000e+000 90391 -1.9076e+001  4.6046e+000  2.4254e+001 43488 90100,90342,90126
 1.0000e+000 90590 -6.7172e+000  4.4961e+000 -1.9059e+000 43048 90414,90492,90440
 1.0000e+000 90567 -9.1323e+000 -3.7321e+000  5.5912e-001 43048 90414,90518,90492
 1.0000e+000 90544 -5.5471e+000  9.8195e+000  8.2583e-001 43048 90440,90492,90466
 1.0000e+000 91070 -1.5085e-001 -4.6778e+000 -2.0434e+000 42430 91237,90880,90854
 1.0000e+000 91047 -4.8774e-001 -4.7442e+000 -2.0253e+000 42430 90698,90906,90880
 1.0000e+000 91024 -4.8510e+000 -1.0651e+000  1.5164e+000 42430 91093,90750,90698
 1.0000e+000 91001 -2.7037e+000 -3.2029e+000 -2.4586e-001 42430 91237,90854,91093
 1.0000e+000 90978 -4.2176e-002 -3.1041e+000  3.6284e+000 42430 91165,90802,90776
 1.0000e+000 90955  5.0057e+000  7.0709e-002  3.6031e+000 42430 90802,90854,90828
 1.0000e+000 90932 -5.1492e+000 -1.4304e+000  1.3752e+000 42430 90698,90750,90724
 1.0000e+000 91119 -6.4293e+000 -3.2117e+000  3.7749e+000 42430 90776,90750,91093
 1.0000e+000 91142 -2.1964e+000 -3.7450e+000  3.2866e+000 42430 91165,90776,91093
 1.0000e+000 91191  2.6133e-001 -3.6562e+000  1.4988e+000 42430 90854,90802,91165
 1.0000e+000 91214 -1.8670e+000 -4.8486e+000  9.2675e-001 42430 90854,91165,91093
 1.0000e+000 91263 -3.9787e+000 -5.5705e+000 -2.0807e+000 42430 90698,90880,91237
 1.0000e+000 91286 -6.8989e+000 -4.2707e+000 -4.6255e-001 42430 90698,91237,91093
 1.0000e+000 91694  1.1343e+001  1.4952e+001 -7.2117e+000 41769 91469,91573,91495
 1.0000e+000 91671  7.2099e+000  1.4611e+001 -8.2469e+000 41769 91469,91599,91573
 1.0000e+000 91648  1.7469e+001  1.8629e+001 -4.0875e+000 41769 91495,91547,91521
 1.0000e+000 91625  8.7041e+000  1.5829e+001 -6.9655e+000 41769 91495,91573,91547
 1.0000e+000 92040  4.5460e+001  4.5693e+001  8.3715e+000 41379 91769,91873,91847
 1.0000e+000 92017  2.8234e+001  3.4284e+001  2.1356e+000 41379 91743,91873,91769
 1.0000e+000 91994  3.9500e+001  4.7772e+001  7.2948e+000 41379 91769,91847,91795
 1.0000e+000 91971  3.0043e+001  3.2142e+001  4.0913e+000 41379 91743,91899,91873
 1.0000e+000 91948  1.9452e+001  2.5288e+001  6.5374e-002 41379 91717,91899,91743
 1.0000e+000 91925  2.6966e+001  3.7791e+001  1.2464e+000 41379 91795,91847,91821
 1.0000e+000 92597  1.6088e+001  1.8072e+001 -7.7639e+000 40975 92225,92407,92303
 1.0000e+000 92574  9.5264e+000  1.2670e+001 -5.2817e+000 40975 92225,92433,92407
 1.0000e+000 92551  1.5541e+001  1.1067e+001 -9.8796e+000 40975 92225,92303,92277
 1.0000e+000 92528 -1.1627e+000  2.0831e+001 -1.2919e+001 40975 92329,92407,92381
 1.0000e+000 92505 -7.2452e-001  1.4230e+001 -9.2517e+000 40975 92303,92407,92329
 1.0000e+000 92482  1.6577e+001  1.4967e+000 -5.1557e+000 40975 92225,92277,92251
 1.0000e+000 92459 -1.6592e+001  1.8716e+001 -9.9034e+000 40975 92329,92381,92355
 1.0000e+000 93231 -6.6734e+001  3.7456e+000 -1.8000e+001 40521 92937,92989,92963
 1.0000e+000 93208 -1.3750e+001 -1.5809e+000 -5.0023e+000 40521 93254,92937,92885
 1.0000e+000 93185 -1.0155e+001 -2.3123e+000 -1.7673e+000 40521 93254,92885,93067
 1.0000e+000 93162 -1.8691e-001 -5.6119e+000 -1.0172e+001 40521 92885,92937,92911
 1.0000e+000 93139 -6.4969e+000 -3.8810e+000 -1.9800e+000 40521 92859,93067,92885
 1.0000e+000 93116 -6.1539e+000  9.9078e-001 -2.9587e+000 40521 92989,93067,93015
 1.0000e+000 93093  1.7688e+000 -2.5669e+000 -2.7688e+000 40521 93015,93067,93041
 1.0000e+000 93280 -1.2004e+001  2.2437e+000 -3.2222e+000 40521 92989,92937,93254
 1.0000e+000 93303 -8.6826e+000 -1.1002e+000 -4.2834e-001 40521 92989,93254,93067
 1.0000e+000 93632  4.7595e-001  1.1704e+001  5.8915e+000 40231 93433,93537,93511
 1.0000e+000 93609 -4.2695e+000  1.0737e+001  5.6289e+000 40231 93407,93537,93433
 1.0000e+000 93586  1.1319e+000  3.0289e+001 -2.3685e+000 40231 93459,93511,93485
 1.0000e+000 93563  8.0491e+000  1.7256e+001 -1.8142e+000 40231 93433,93511,93459
 1.0000e+000 94010 -1.6850e+001  2.4506e+001  1.5300e+000 39869 93762,93866,93788
 1.0000e+000 93987 -2.6804e+000  2.6410e+001 -4.3454e-001 39869 93762,93892,93866
 1.0000e+000 93964 -2.5553e+001  7.9529e+000 -2.3898e+000 39869 93788,93866,93840
 1.0000e+000 93941 -2.9416e+001  1.7686e+001 -1.5756e+001 39869 93788,93840,93814
 1.0000e+000 93918 -8.7467e+000  1.7192e+001 -3.8730e+000 39869 93736,93892,93762
 1.0000e+000 94160 -6.2823e+000  5.9565e+000 -4.5763e-001 39457 94033,94085,94059
 1.0000e+000 94137 -4.7860e+000 -4.2332e+000  1.6553e+000 39457 94033,94111,94085
 1.0000e+000 94359 -3.8893e+000  3.1193e+001  2.9582e+000 39053 94382,94235,94209
 1.0000e+000 94336  1.7153e+001  4.8463e+001 -5.4802e+000 39053 94382,94209,94183
 1.0000e+000 94313  5.6102e+000  3.8295e+001  9.4190e+000 39053 94183,94287,94261
 1.0000e+000 94408  1.5779e+001  4.3118e+001  3.1140e+000 39053 94454,94382,94261
 1.0000e+000 94431  1.2596e+001  4.1416e+001  7.4331e+000 39053 94261,94382,94183
 1.0000e+000 94480  2.5880e+000  9.4137e+000  7.9540e+000 39053 94235,94382,94454
 1.0000e+000 94892 -9.7589e+000  1.3414e+001 -7.5335e-001 38392 94915,94771,94719
 1.0000e+000 94869 -4.6208e+000  1.7482e+001  1.0151e+000 38392 94915,94719,94693
 1.0000e+000 94846 -7.6202e+000  1.4974e+001  1.2606e+001 38392 94719,94771,94745
 1.0000e+000 94823 -4.1571e+000  2.7676e+001  5.5147e+000 38392 94667,94797,94693
 1.0000e+000 94941 -1.5419e+001  1.7506e+001 -2.5963e+000 38392 94797,94771,94915
 1.0000e+000 94964 -1.1572e+001  2.0837e+001 -1.1043e+000 38392 94797,94915,94693
 1.0000e+000 95261  2.0307e+001  1.6174e+001  2.2763e-001 37831 95013,95065,95039
 1.0000e+000 95238  2.1658e+001  1.5940e+001 -5.0792e-001 37831 95284,95065,95013
 1.0000e+000 95215  1.5728e+001  1.5209e+001 -2.8633e+000 37831 95284,95013,94987
 1.0000e+000 95192  7.6584e+000  1.3246e+001 -2.6974e+000 37831 94987,95143,95117
 1.0000e+000 95169  1.9890e+001  8.6010e+000 -8.0722e+000 37831 95065,95117,95091
 1.0000e+000 95310  1.7561e+001  1.3765e+001 -3.9632e+000 37831 95117,95065,95284
 1.0000e+000 95333  1.3162e+001  1.4713e+001 -6.0448e+000 37831 95117,95284,94987
 1.0000e+000 95554 -2.2741e+001  8.0935e+000 -5.7647e+000 37419 95404,95456,95430
 1.0000e+000 95531 -1.0057e+001  3.7764e+001 -4.3279e+000 37419 95378,95456,95404
 1.0000e+000 95508 -3.0262e-002  4.5575e+001 -7.7430e+000 37419 95378,95482,95456
 1.0000e+000 95887 -1.1732e+001 -5.1473e+000  3.7130e+000 37221 95662,95714,95688
 1.0000e+000 95864 -9.3397e+000 -9.1272e+000  2.8085e+000 37221 95662,95792,95714
 1.0000e+000 95841  3.9586e+000  8.5411e-002  9.6132e-001 37221 95714,95766,95740
 1.0000e+000 95818 -6.1103e+000 -1.1906e+000  3.7313e+000 37221 95714,95792,95766
 1.0000e+000 95988 -9.6616e+001 -8.6165e+000 -1.4099e+001 36731 95910,95962,95936
 1.0000e+000 96138 -6.5474e+000  3.0965e+001  9.7814e+000 36327 96293,96063,96037
 1.0000e+000 96115 -2.2134e+001  2.3810e+001  1.4532e+001 36327 96161,96037,96011
 1.0000e+000 96187 -5.5336e+000  3.3647e+001  1.9071e+001 36327 96293,96037,96161
 1.0000e+000 96319 -4.8548e+000  4.3447e+001  1.5115e+001 36327 96089,96063,96293
 1.0000e+000 96342  1.9013e+000  4.9015e+001  2.5593e+001 36327 96089,96293,96161
 1.0000e+000 96710  1.7056e+000  1.8455e+001  4.3846e+000 36037 96733,96491,96439
 1.0000e+000 96687  2.9000e+000  2.5725e+001  6.8663e+000 36037 96733,96439,96413
 1.0000e+000 96664 -2.9982e+000  1.5953e+001  1.1806e+000 36037 96439,96491,96465
 1.0000e+000 96641 -1.0588e+001  3.7346e+001  3.6084e+000 36037 96387,96517,96413
 1.0000e+000 96618 -1.0937e+001  3.6240e+001  3.7462e+000 36037 96387,96543,96517
 1.0000e+000 96595  3.1433e+000  2.7213e+001  1.3775e+001 36037 96387,96569,96543
 1.0000e+000 96759 -6.6690e+000  2.6280e+001  2.2447e+000 36037 96517,96491,96733
 1.0000e+000 96782 -1.2602e+000  3.5523e+001  7.6887e+000 36037 96517,96733,96413
 1.0000e+000 96932  2.4061e+001  1.2798e+001 -1.7206e+001 35633 97027,96955,96831
 1.0000e+000 96909  1.9959e+001  9.1789e+000 -1.7539e+001 35633 97159,96955,96805
 1.0000e+000 96981  1.8392e+001  8.5218e+000 -1.9365e+001 35633 96857,96831,96955
 1.0000e+000 97004  2.3573e+001  1.8851e+001 -2.2362e+001 35633 96857,96955,96883
 1.0000e+000 97053  2.0957e+001  1.1838e+001 -1.7027e+001 35633 96805,96955,97027
 1.0000e+000 97185  1.1780e+001  1.2351e+001 -1.7499e+001 35633 96883,96955,97159
 1.0000e+000 97593 -7.3704e+000 -1.0827e+001 -1.0082e+001 35186 97446,97498,97472
 1.0000e+000 97570 -1.7718e+000  2.3601e+000 -9.6259e+000 35186 97368,97498,97446
 1.0000e+000 97547 -6.1516e+000 -3.9920e+000 -6.5074e+000 35186 97368,97446,97394
 1.0000e+000 97524 -6.2505e+000 -3.4517e+000 -7.2459e+000 35186 97394,97446,97420
 1.0000e+000 98050  1.0312e+001  3.1863e+001 -7.7795e+000 34632 97802,97932,97854
 1.0000e+000 98027  4.5832e+000  1.0207e+001 -1.3296e+001 34632 97776,97932,97802
 1.0000e+000 98004 -3.1220e+000  1.8608e+001  3.9571e+000 34632 97802,97854,97828
 1.0000e+000 97981 -1.0059e+001  2.1985e+001 -5.9584e+000 34632 97880,97932,97906
 1.0000e+000 97958  7.2774e+000  2.6198e+001 -6.5462e+000 34632 97854,97932,97880
 1.0000e+000 98526  5.8475e+000  2.9635e+001  1.1756e+000 34064 98693,98180,98362
 1.0000e+000 98503 -2.1416e-001  1.7084e+001 -7.5742e+000 34064 98154,98362,98180
 1.0000e+000 98480  2.0491e+001  3.1850e+001  1.5916e+001 34064 98549,98258,98232
 1.0000e+000 98457  5.7913e-001  4.3389e+001  3.5735e+001 34064 98549,98232,98206
 1.0000e+000 98434  1.1967e+001  3.3870e+001 -1.5419e+000 34064 98837,98621,98362
 1.0000e+000 98411  2.8042e+001  1.6321e+001  1.6461e+001 34064 98765,98284,98258
 1.0000e+000 98388  2.3333e+001  2.9363e+001 -2.8221e+000 34064 98837,98362,98336
 1.0000e+000 98575  2.0790e+001  2.7813e+001  1.1721e+001 34064 98765,98258,98549
 1.0000e+000 98598  1.1764e+001  2.9229e+001  2.2392e+000 34064 98621,98310,98549
 1.0000e+000 98647  1.1220e+001  3.6586e+001  3.8651e+000 34064 98693,98362,98621
 1.0000e+000 98670  2.1078e+001  5.0276e+001  8.1840e+000 34064 98206,98621,98549
 1.0000e+000 98719  4.9015e+000  3.8898e+001  2.7366e+000 34064 98206,98180,98693
 1.0000e+000 98742  4.7122e+000  3.8025e+001  2.7421e+000 34064 98206,98693,98621
 1.0000e+000 98791  4.0448e+001  2.8629e+001  9.7582e+000 34064 98310,98284,98765
 1.0000e+000 98814  3.1278e+001  3.7295e+001  5.3234e+000 34064 98310,98765,98549
 1.0000e+000 98863  2.5069e+001  3.5377e+001  6.3688e-001 34064 98310,98621,98837
 1.0000e+000 98886  3.6933e+001  3.1167e+001 -1.3662e+000 34064 98310,98837,98336
 1.0000e+000 99264  1.1168e+001  2.4750e+000  1.0675e+001 33446 99287,99094,99068
 1.0000e+000 99241  1.3732e+000  2.3117e+001 -9.2667e+000 33446 99287,99068,99016
 1.0000e+000 99218 -1.8846e+001  6.7996e+000 -2.0917e-001 33446 99016,99068,99042
 1.0000e+000 99195 -2.0077e+001  1.7458e+001 -6.3601e+000 33446 99016,99146,99120
 1.0000e+000 99172 -2.0255e+001  2.9937e+001 -1.9422e+001 33446 98990,99146,99016
 1.0000e+000 99313  4.5919e+001  1.9326e+001  5.5407e+000 33446 99120,99094,99287
 1.0000e+000 99336  1.2870e+001  2.8296e+001 -1.0767e+001 33446 99120,99287,99016
 1.0000e+000 99861 -1.7019e+001  1.3144e+001 -1.2796e+001 32940 100172,99956,99884
 1.0000e+000 99838  2.0498e+000  6.7480e+000 -9.6373e+000 32940 100100,99884,99518
 1.0000e+000 99815 -1.0722e+001  1.0750e+001 -1.0270e+001 32940 100244,99956,99622
 1.0000e+000 99792  2.0358e+000  2.3921e+001 -5.4046e+000 32940 100028,99648,99622
 1.0000e+000 99769  1.5161e+000 -2.1336e-001 -1.1460e+001 32940 100100,99518,99492
 1.0000e+000 99746 -3.2847e+000  2.0650e+001  3.7354e-001 32940 99570,99622,99596
 1.0000e+000 99723 -9.5839e+000  1.1167e+001 -9.8925e+000 32940 100244,99622,99570
 1.0000e+000 99700  6.7445e+000  1.2044e+000 -9.1181e-001 32940 99440,99492,99466
 1.0000e+000 99910 -7.9630e+000  1.4890e+001 -1.0498e+001 32940 100172,99884,100028
 1.0000e+000 99933 -1.0358e+001  1.2178e+000 -1.0559e+000 32940 99674,99884,99440
 1.0000e+000 99982 -4.3216e+000  7.3955e+000 -1.5347e+001 32940 99518,99884,99956
 1.0000e+000 100005 -2.4425e+001 -1.2437e+001 -2.6806e+001 32940 99518,99956,99544
 1.0000e+000 100054 -8.9461e+000  2.8188e+001 -2.3998e+000 32940 99674,99648,100028
 1.0000e+000 100077 -1.0891e+000  2.3388e+001 -3.9601e+000 32940 99674,100028,99884
 1.0000e+000 100126  2.7366e+000  1.0710e+001 -5.3261e+000 32940 99440,99884,100100
 1.0000e+000 100149  3.2701e+000  6.7472e+000 -7.6328e+000 32940 99440,100100,99492
 1.0000e+000 100198 -9.2751e+000  1.6978e+001 -5.2084e+000 32940 99622,99956,100172
 1.0000e+000 100221 -6.6947e+000  1.7008e+001 -2.3483e+000 32940 99622,100172,100028
 1.0000e+000 100270 -1.2606e+001  1.1386e+001 -1.0851e+001 32940 99544,99956,100244
 1.0000e+000 100293 -1.1614e+001  1.1671e+001 -1.0501e+001 32940 99544,100244,99570
 1.0000e+000 100750  4.4410e+000  2.4166e+001 -2.3493e+000 32365 100773,100580,100502
 1.0000e+000 100727  7.0793e+000  1.9809e+001  2.1003e+000 32365 100773,100502,100632
 1.0000e+000 100704  1.0760e+001  8.1482e+000 -7.1766e+000 32365 100476,100632,100502
 1.0000e+000 100681  6.0098e+000  2.2959e+001 -4.9967e+000 32365 100528,100580,100554
 1.0000e+000 100658  1.1276e+001  2.8282e+001 -8.7292e+000 32365 100502,100580,100528
 1.0000e+000 100799  5.4895e+000  3.0984e+001 -1.7913e+000 32365 100606,100580,100773
 1.0000e+000 100822  7.8413e+000  2.5669e+001  1.9824e+000 32365 100606,100773,100632
 1.0000e+000 101021 -2.0536e+000  2.2021e+001  8.2730e+000 31853 100871,100923,100897
 1.0000e+000 100998  1.0297e+001  3.4142e+001  1.3338e+001 31853 100871,100949,100923
 1.0000e+000 100975  3.1090e-001  1.1589e+001  1.1623e+001 31853 100845,100949,100871
 1.0000e+000 101529  2.4679e-001  1.1829e+001 -1.5490e+001 31249 101552,101310,101232
 1.0000e+000 101506  8.9178e+000  1.8411e+001 -1.8506e+001 31249 101552,101232,101206
 1.0000e+000 101483  8.8471e+000  1.8205e+000 -9.9150e+000 31249 101206,101388,101336
 1.0000e+000 101460  1.0138e+000  1.6117e+001 -1.5602e+001 31249 101232,101284,101258
 1.0000e+000 101437  3.2503e+000  2.2307e+001 -1.5941e+001 31249 101232,101310,101284
 1.0000e+000 101414  1.2260e+001  3.7625e-001 -2.1620e+000 31249 101336,101388,101362
 1.0000e+000 101578  2.3542e+000  3.1559e+000 -6.6491e+000 31249 101336,101310,101552
 1.0000e+000 101601  1.1683e+001  1.0775e+001 -9.9845e+000 31249 101336,101552,101206
 1.0000e+000 101751 -1.5419e+001  6.2179e+001 -5.2349e-001 30515 101774,101650,101624
 1.0000e+000 101728  1.7504e-001  6.8904e+001 -2.7671e+000 30515 101846,101774,101624
 1.0000e+000 101800 -9.6460e+000  6.7331e+001  1.7218e+000 30515 101676,101650,101774
 1.0000e+000 101823 -6.8970e+000  5.4992e+001  2.3661e+000 30515 101676,101774,101702
 1.0000e+000 101872 -1.2308e+001  3.9446e+001 -2.7361e+000 30515 101702,101774,101846
 1.0000e+000 102557 -3.3809e-001  1.0098e+001  2.0003e+000 29947 102652,102580,102266
 1.0000e+000 102534  1.9547e+000  1.4615e+001  4.6844e+000 29947 102580,102136,102370
 1.0000e+000 102511 -2.1662e+000  5.8742e+000  1.8087e+000 29947 102724,102652,102266
 1.0000e+000 102488 -6.7671e-002  3.4480e+000  5.9235e-001 29947 102724,102266,102240
 1.0000e+000 102465  3.0734e+000  1.2759e+001  1.5780e+000 29947 102796,102318,102292
 1.0000e+000 102442  8.1745e+000  1.2288e+001 -2.6282e+000 29947 102162,102214,102188
 1.0000e+000 102419  1.0154e+000  9.9756e+000 -2.6596e+000 29947 102162,102240,102214
 1.0000e+000 102396  5.9997e+000  2.0347e+001  7.6815e+000 29947 102318,102370,102344
 1.0000e+000 102606  2.1396e-001  4.2515e+000  1.2146e+000 29947 102292,102266,102580
 1.0000e+000 102629  2.4738e+000  1.0801e+001  1.5080e+000 29947 102796,102292,102580
 1.0000e+000 102678 -2.0293e-001  8.4338e+000  4.0028e+000 29947 102136,102580,102652
 1.0000e+000 102701 -1.4122e-001  6.6216e+000  4.1836e+000 29947 102136,102652,102162
 1.0000e+000 102750  1.2719e+000  9.3276e+000  3.2513e+000 29947 102162,102652,102724
 1.0000e+000 102773  1.6776e+000  6.0377e+000  1.4401e+000 29947 102162,102724,102240
 1.0000e+000 102822  3.3571e+000  1.0509e+001  2.4672e+000 29947 102370,102318,102796
 1.0000e+000 102845  3.3817e+000  9.6780e+000  2.6377e+000 29947 102370,102796,102580
 1.0000e+000 103044 -1.5558e+001 -9.6635e-002  2.7571e+000 29450 102868,102920,102894
 1.0000e+000 103021 -1.6151e+001  8.5334e-001  2.8318e+000 29450 102868,102972,102920
 1.0000e+000 102998 -1.6167e+001 -6.0160e+000  4.1298e+000 29450 102920,102972,102946
 1.0000e+000 103292  2.7738e+001  2.4401e+001  1.2801e+001 29060 103315,103171,103119
 1.0000e+000 103269  1.9059e+001  2.4228e+001  1.5368e+001 29060 103315,103119,103067
 1.0000e+000 103246  3.5015e+001  3.1399e+001  8.7331e+000 29060 103119,103171,103145
 1.0000e+000 103223  3.3513e+001  1.1069e+001  2.0138e+001 29060 103067,103119,103093
 1.0000e+000 103341  3.6016e+001  2.3179e+001  8.3681e+000 29060 103197,103171,103315
 1.0000e+000 103364  2.4546e+001  2.4562e+001  7.8860e+000 29060 103197,103315,103067
 1.0000e+000 104002 -1.2319e+001  2.4923e+001 -4.0690e+001 28599 104097,104025,103708
 1.0000e+000 103979  1.6679e+001  4.6254e+000 -1.9139e+001 28599 104169,104025,103656
 1.0000e+000 103956  2.7233e+001  9.0967e+000 -4.0213e+001 28599 104097,103708,103682
 1.0000e+000 103933  3.8597e+001  1.1861e+001 -1.5454e+001 28599 104169,103656,103630
 1.0000e+000 103910 -1.9256e-001  5.6956e+001 -3.9650e+000 28599 103760,103812,103786
 1.0000e+000 103887  1.6548e+001  1.7488e+001 -8.6009e+000 28599 103630,103838,103812
 1.0000e+000 103864 -1.9017e+001 -2.5952e+000  5.2622e+000 28599 103708,103760,103734
 1.0000e+000 104051 -5.1925e+001  1.1546e+001 -6.7910e+000 28599 103760,103708,104025
 1.0000e+000 104074  9.3451e+000  3.9155e+001 -1.2653e+001 28599 103760,104025,103812
 1.0000e+000 104123  4.0820e+001  1.8226e+001 -2.8584e+001 28599 103656,104025,104097
 1.0000e+000 104146  9.9521e+001  1.6586e+001 -3.9265e+001 28599 103656,104097,103682
 1.0000e+000 104195  1.4691e+000  1.6177e+001 -1.3363e+001 28599 103812,104025,104169
 1.0000e+000 104218  1.3916e+001  1.6513e+001 -1.3467e+001 28599 103812,104169,103630
 1.0000e+000 104596  2.3927e+001  1.5149e+001 -7.8153e+000 28344 104619,104374,104322
 1.0000e+000 104573  2.7155e+001  1.2295e+001 -2.0580e+000 28344 104619,104322,104478
 1.0000e+000 104550  3.5243e+000  2.3717e+001  9.9544e-002 28344 104322,104374,104348
 1.0000e+000 104527  3.1841e+001 -1.0453e+001 -1.6393e+001 28344 104400,104452,104426
 1.0000e+000 104504  3.8183e+001  7.8155e-001 -1.2103e+001 28344 104374,104452,104400
 1.0000e+000 104645  2.6802e+001  2.0632e+001 -6.2618e+000 28344 104452,104374,104619
 1.0000e+000 104668  3.0852e+001  1.8718e+001 -2.7054e-001 28344 104452,104619,104478
 1.0000e+000 104987  3.1833e+000  1.4067e+001  2.6791e+000 27947 104713,104843,104765
 1.0000e+000 104964  8.2013e-001  1.6779e+001 -6.9345e-001 27947 104713,104869,104843
 1.0000e+000 104941  2.5823e+000  8.9393e+000 -5.3253e-001 27947 104765,104843,104791
 1.0000e+000 104918  1.0980e+000  3.7598e+000  4.6825e-001 27947 104791,104843,104817
 1.0000e+000 104895  8.6582e-001  9.7848e+000  4.1040e+000 27947 104713,104765,104739
 1.0000e+000 105367 -6.1575e+000  7.2940e+000  5.1442e+000 27443 105390,105197,105119
 1.0000e+000 105344 -8.4749e+000  4.8305e+000  2.0153e+000 27443 105390,105119,105093
 1.0000e+000 105321 -1.0925e+001  4.8946e+000  6.2129e+000 27443 105119,105197,105145
 1.0000e+000 105298 -2.7716e+000  2.2719e+000  4.0841e+000 27443 105197,105249,105223
 1.0000e+000 105275 -1.0440e+001  1.3645e+001  1.3241e+001 27443 105145,105197,105171
 1.0000e+000 105416 -4.2539e+000  3.6815e+000  2.2782e+000 27443 105249,105197,105390
 1.0000e+000 105439 -8.1251e+000 -6.0307e-001 -1.0218e+000 27443 105249,105390,105093
 1.0000e+000 105994 -1.0709e+001  3.6852e+000 -1.5242e+000 27096 106161,106017,105700
 1.0000e+000 105971 -1.5543e+001  1.1090e+001  6.5969e-001 27096 106305,106017,105648
 1.0000e+000 105948  9.0234e-002  8.6182e+000 -3.2986e+000 27096 106089,105804,105778
 1.0000e+000 105925 -1.0935e+001  1.0421e+000 -2.2794e+000 27096 106161,105700,105674
 1.0000e+000 105902 -8.9486e+000  2.3733e+000 -2.2334e+000 27096 106233,105726,105700
 1.0000e+000 105879 -4.4463e+001  7.0773e+000  3.2955e+000 27096 106305,105648,105622
 1.0000e+000 105856 -5.1770e+000  3.6795e+000 -6.2365e-002 27096 105726,105778,105752
 1.0000e+000 106043 -1.0060e+001  4.3365e+000 -1.0979e+000 27096 106233,105700,106017
 1.0000e+000 106066 -5.9606e+000  6.8226e+000 -6.3486e-001 27096 106089,105778,106017
 1.0000e+000 106115 -7.3177e+000  5.4206e+000 -3.5596e+000 27096 105830,105804,106089
 1.0000e+000 106138 -1.0892e+001  6.5989e+000 -1.3035e+000 27096 106377,106089,106017
 1.0000e+000 106187 -1.0709e+001  8.5144e+000  3.1181e+000 27096 105648,106017,106161
 1.0000e+000 106210 -1.3210e+001  3.6200e-001  3.4167e+000 27096 105648,106161,105674
 1.0000e+000 106259 -7.9778e+000  4.8244e+000 -2.5865e+000 27096 105778,105726,106233
 1.0000e+000 106282 -9.3705e+000  6.3244e+000 -1.2935e+000 27096 105778,106233,106017
 1.0000e+000 106331 -1.1931e+001  9.2525e+000 -4.3591e+000 27096 106377,106017,106305
 1.0000e+000 106354 -1.0979e+001  2.9789e+001 -7.6435e+000 27096 105830,106305,105622
 1.0000e+000 106403 -5.7020e+000  1.0606e+001 -3.1073e+000 27096 105830,106089,106377
 1.0000e+000 106426 -6.3226e+000  1.2302e+001 -5.9009e+000 27096 105830,106377,106305
 1.0000e+000 106625 -1.9027e+001  1.6140e+001  3.9959e+000 26684 106475,106553,106527
 1.0000e+000 106602 -2.1841e+001  1.2781e+001  2.7760e+000 26684 106449,106553,106475
 1.0000e+000 106579 -3.0839e+001  1.6705e+001 -5.0648e+000 26684 106475,106527,106501
 1.0000e+000 107084 -1.1841e+001  6.7010e-001 -3.7763e+000 26244 107107,106914,106862
 1.0000e+000 107061 -9.5179e+000 -2.7506e+000 -7.1702e+000 26244 107107,106862,106836
 1.0000e+000 107038 -1.1191e+001  4.8992e+000 -2.5426e+000 26244 106810,106966,106836
 1.0000e+000 107015 -2.0220e+000  3.6172e+001 -3.5408e+000 26244 106862,106914,106888
 1.0000e+000 106992  9.6850e-001  1.1898e+001 -2.7111e+000 26244 106914,106966,106940
 1.0000e+000 107133 -6.3136e+000  5.3866e+000  9.9062e-002 26244 106966,106914,107107
 1.0000e+000 107156 -7.9134e+000 -1.7684e+000 -3.8068e+000 26244 106966,107107,106836
 1.0000e+000 107662  6.7316e-001  5.5449e+000  1.2481e+000 25904 107365,107495,107391
 1.0000e+000 107639  2.8016e+000  7.3262e+000  4.8279e-001 25904 107365,107521,107495
 1.0000e+000 107616  1.6546e+000  5.2097e+000  5.3890e-001 25904 107391,107469,107443
 1.0000e+000 107593  3.3215e+000  6.5957e+000 -5.6480e-002 25904 107391,107495,107469
 1.0000e+000 107570  1.3633e+000  4.3216e+000  4.8293e-001 25904 107391,107443,107417
 1.0000e+000 107547 -8.9575e-001  5.9704e+000  1.7269e+000 25904 107339,107521,107365
 1.0000e+000 108247 -3.4177e+000  5.1657e+000 -3.8790e-001 25450 108270,108002,107950
 1.0000e+000 108224 -1.5254e+000  5.1842e+000  3.0245e-001 25450 108270,107950,108106
 1.0000e+000 108201 -1.1644e+000  2.9017e+000  4.7648e-001 25450 108342,108028,108002
 1.0000e+000 108178 -5.3615e+000  1.9917e+000  4.7160e-001 25450 107950,108002,107976
 1.0000e+000 108155 -6.9495e+000  1.0244e+001  1.6017e+000 25450 107924,108106,107950
 1.0000e+000 108132  1.5700e+000  1.0671e+001  2.5949e-001 25450 108054,108106,108080
 1.0000e+000 108296 -2.4849e+000  4.2005e+000  6.2196e-001 25450 108342,108002,108270
 1.0000e+000 108319 -5.9734e-001  6.4514e+000  1.2661e+000 25450 108054,108270,108106
 1.0000e+000 108368  6.6106e-001  4.4533e+000 -1.9319e-001 25450 108054,108028,108342
 1.0000e+000 108391 -8.8453e-001  5.8564e+000 -8.1038e-002 25450 108054,108342,108270
 1.0000e+000 108818 -1.1161e+001  3.3655e+001  9.4536e+000 24939 108521,108677,108651
 1.0000e+000 108795 -2.8129e+001  2.1362e+001 -4.0310e+000 24939 108495,108677,108521
 1.0000e+000 108772  5.7845e+000  4.0705e+001 -5.0604e+000 24939 108521,108651,108625
 1.0000e+000 108749 -4.8206e+000  2.8714e+001 -2.3235e-002 24939 108521,108625,108599
 1.0000e+000 108726  4.5709e+000  1.3668e+001  7.8476e+000 24939 108547,108599,108573
 1.0000e+000 108703 -9.4715e+000  2.2059e+001  2.5249e+000 24939 108521,108599,108547
 1.0000e+000 109403  4.8947e+001  3.2943e+001 -7.2429e+000 24741 109158,109210,109184
 1.0000e+000 109380  2.9795e+001  3.3156e+001 -3.9735e+000 24741 109158,109262,109210
 1.0000e+000 109357  3.3683e+001  3.3757e+001 -4.3879e-001 24741 109080,109262,109158
 1.0000e+000 109334  2.1560e+001  3.0292e+001  5.1085e+000 24741 109080,109158,109132
 1.0000e+000 109311  5.4524e+001  3.9557e+001 -9.1239e+000 24741 109210,109262,109236
 1.0000e+000 109288  3.5755e+001  3.1010e+001  1.2102e+001 24741 109080,109132,109106
 1.0000e+000 109781  2.0054e+000  4.6924e+000  5.3356e-001 24337 109533,109611,109559
 1.0000e+000 109758  3.0814e+000  7.0739e+000 -5.5794e-001 24337 109533,109637,109611
 1.0000e+000 109735  2.9226e+000  4.4555e+000 -2.4136e-001 24337 109559,109611,109585
 1.0000e+000 109712  3.2471e+000  7.3503e+000  1.0176e+000 24337 109533,109663,109637
 1.0000e+000 109689  2.7079e+000  7.8823e+000  1.3414e+000 24337 109507,109663,109533
 1.0000e+000 110159  1.4217e+001  1.1771e+001 -5.4476e+000 23833 110182,109963,109911
 1.0000e+000 110136  1.5360e+001  1.3610e+001 -6.9731e+000 23833 110182,109911,109885
 1.0000e+000 110113  2.0215e+001  1.1748e+001 -7.5962e+000 23833 109885,110041,109989
 1.0000e+000 110090  1.5668e+001  1.8005e+001 -4.5940e+000 23833 109911,109963,109937
 1.0000e+000 110067  1.2760e+001 -7.4547e+000 -7.5242e+000 23833 109989,110041,110015
 1.0000e+000 110208  1.4433e+001  1.0604e+001 -4.9833e+000 23833 109989,109963,110182
 1.0000e+000 110231  1.4283e+001  1.1437e+001 -6.2093e+000 23833 109989,110182,109885
 1.0000e+000 110332  2.0754e+000  1.3510e+001 -5.0843e-001 23429 110254,110306,110280
 1.0000e+000 110580  3.4070e+001  1.5295e+001  2.8239e+000 22825 110603,110407,110381
 1.0000e+000 110557  4.9728e+001  2.4349e+001 -1.0906e+001 22825 110603,110381,110485
 1.0000e+000 110534  1.6415e+001  9.3321e+000  9.9333e+000 22825 110433,110485,110459
 1.0000e+000 110511  8.9799e+000  5.1947e+001 -2.2678e+001 22825 110355,110485,110381
 1.0000e+000 110629  3.3444e+001  4.6991e-001  1.4930e+001 22825 110433,110407,110603
 1.0000e+000 110652  4.2567e+001  1.1058e+001  2.0783e+000 22825 110433,110603,110485
 1.0000e+000 110902 -4.4455e+001  2.0379e+001 -9.4896e+000 22428 110703,110755,110729
 1.0000e+000 110879 -2.9489e+001  5.2247e+000 -9.5139e+000 22428 110703,110781,110755
 1.0000e+000 110856 -3.8855e+001 -1.5706e-002 -1.5760e+001 22428 110703,110807,110781
 1.0000e+000 110833 -6.5489e+001 -1.7034e+001 -2.8925e+001 22428 110677,110807,110703
 1.0000e+000 111284  4.5714e+001  2.7969e+001 -7.0714e+000 22138 111088,111140,111114
 1.0000e+000 111261  3.3948e+001  3.0577e+001 -1.0017e+001 22138 111062,111140,111088
 1.0000e+000 111238  3.1978e+001  2.8825e+001 -4.9525e+000 22138 111036,111140,111062
 1.0000e+000 111215  1.9946e+001  2.3392e+001 -8.6684e+000 22138 111010,111140,111036
 1.0000e+000 111192  1.9484e+001  2.1924e+001 -7.0570e+000 22138 111010,111166,111140
 1.0000e+000 111385 -2.7084e+001  1.8025e+001  6.4596e+000 21826 111307,111359,111333
 1.0000e+000 111731 -3.1855e+001  2.1147e+001  6.9666e+000 21264 111754,111538,111434
 1.0000e+000 111708 -2.1413e+001  2.4995e+001  8.0379e-001 21264 111754,111434,111408
 1.0000e+000 111685 -3.4830e+001  2.8983e+001  4.7138e+000 21264 111434,111538,111460
 1.0000e+000 111662 -5.5611e+001  2.0008e+001  8.8075e+000 21264 111460,111538,111486
 1.0000e+000 111639 -1.6624e+001  1.4513e+001  1.6350e+001 21264 111408,111590,111564
 1.0000e+000 111616 -6.5416e+001  4.7441e+001  2.1493e+001 21264 111486,111538,111512
 1.0000e+000 111780 -3.5373e+001  1.9720e+001  9.7491e+000 21264 111564,111538,111754
 1.0000e+000 111803 -3.1660e+001  1.3522e+001  5.8765e+000 21264 111564,111754,111408
 1.0000e+000 111955  2.5639e+001  3.5600e+001  7.6409e-001 20860 111978,111906,111880
 1.0000e+000 111932  2.5589e+001  3.1202e+001 -3.3395e+000 20860 112110,111828,111906
 1.0000e+000 112004  2.3581e+001  3.6655e+001 -1.2712e+000 20860 112110,111906,111978
 1.0000e+000 112136  2.6993e+001  3.6427e+001 -2.7503e+000 20860 111854,111828,112110
 1.0000e+000 112159  2.5826e+001  4.3488e+001 -1.0597e+000 20860 111854,112110,111978
 1.0000e+000 112407  1.1362e+001  2.7481e+001 -5.8512e+000 20320 112182,112286,112208
 1.0000e+000 112384  2.1949e+001  3.3592e+001 -8.4581e+000 20320 112182,112312,112286
 1.0000e+000 112361  1.5573e+001  2.9693e+001 -4.7446e+000 20320 112208,112286,112260
 1.0000e+000 112338 -5.4911e+000  3.6614e+001 -1.3810e+001 20320 112208,112260,112234
 1.0000e+000 112655  1.4251e+001  1.1784e+001  2.3107e+000 19916 112508,112560,112534
 1.0000e+000 112632  1.6529e+001  2.3142e+001  4.2067e+000 19916 112430,112560,112508
 1.0000e+000 112609  1.4379e+001  1.1972e+001  6.5246e+000 19916 112430,112508,112456
 1.0000e+000 112586  1.1331e+001  7.6595e+000  7.9009e+000 19916 112456,112508,112482
 1.0000e+000 112807 -2.1796e+001  9.6957e+000 -1.5372e+000 19626 112680,112732,112706
 1.0000e+000 112784 -1.5510e+001  3.4242e+000 -5.1976e+000 19626 112680,112758,112732
 1.0000e+000 113008  7.2844e+000  9.8384e+000 -1.4426e+000 19165 112858,112936,112884
 1.0000e+000 112985  1.8549e-001  2.0886e+001 -5.8091e+000 19165 112832,112936,112858
 1.0000e+000 112962  1.0207e+001  1.0125e+001 -3.4803e+000 19165 112884,112936,112910
 1.0000e+000 113209 -9.2612e+000  4.5335e+000  2.6081e-001 18596 113033,113085,113059
 1.0000e+000 113186 -1.1074e+000  5.7855e+000 -1.7411e+000 18596 113033,113111,113085
 1.0000e+000 113163 -5.5129e+000  5.3949e-001  1.6136e+000 18596 113033,113137,113111
 1.0000e+000 113481 -7.8176e+000  2.8670e+000  9.0107e-001 18348 113256,113308,113282
 1.0000e+000 113458 -6.1532e-001  5.1226e+000 -2.4251e-001 18348 113256,113386,113308
 1.0000e+000 113435 -4.7074e-001  3.9202e+000  6.2122e-001 18348 113308,113386,113360
 1.0000e+000 113412  2.1113e+000  3.3454e+000  2.0650e-001 18348 113308,113360,113334
 1.0000e+000 113753  7.7912e-001  3.8250e+000  6.7097e-002 17830 113554,113606,113580
 1.0000e+000 113730  2.8906e+000  3.7654e+000  3.8830e-001 17830 113528,113606,113554
 1.0000e+000 113707  3.4704e+000  5.1357e+000  4.7978e-001 17830 113528,113658,113606
 1.0000e+000 113684  4.0596e+000  4.2655e+000  2.4609e-001 17830 113606,113658,113632
 1.0000e+000 113954  2.3402e+001  2.2357e+001 -4.8921e+000 17326 113778,113830,113804
 1.0000e+000 113931  3.5979e+001  1.5367e+001 -8.6525e+000 17326 113778,113882,113830
 1.0000e+000 113908  3.0363e+001  4.3373e+000 -1.0592e+001 17326 113830,113882,113856
 1.0000e+000 114106  2.4933e+000  4.4914e+000 -1.1255e-001 16870 113979,114031,114005
 1.0000e+000 114083  3.6567e+000  4.5799e+000 -5.0238e-001 16870 113979,114057,114031
 1.0000e+000 114461  1.8526e+001  4.7630e+001 -1.7847e+001 16266 114236,114288,114262
 1.0000e+000 114438  1.9123e+001  2.1267e+001 -2.7938e+000 16266 114236,114366,114288
 1.0000e+000 114415  2.5624e+001  3.0002e+001  4.3803e+000 16266 114288,114340,114314
 1.0000e+000 114392  2.6110e+001  2.9142e+001  4.1929e-001 16266 114288,114366,114340
 1.0000e+000 114562 -2.6633e+001  3.9913e+001  0.0000e+000 15830 114484,114536,114510
 1.0000e+000 114663  1.3402e+000 -1.9193e+000 -9.5338e-001 15151 114585,114637,114611
 1.0000e+000 114886  2.9405e+001  2.8330e+001  4.8626e+000 417 114762,114814,114788
 1.0000e+000 114863  2.7995e+001  2.0086e+001  6.4192e+000 417 114710,114814,114762
 1.0000e+000 114840  4.0267e+001  1.7813e+001  9.1683e+000 417 114710,114762,114736
 1.1000e+000 66549 -2.1331e+000  6.7602e-001 -3.1057e-001 66104 66350,66454,66428
 1.1000e+000 66526  1.5495e-001  1.5074e+000  3.1033e-001 66104 66324,66454,66350
 1.1000e+000 66503 -7.5291e-001  4.3864e+000 -8.5651e-001 66104 66350,66428,66402
 1.1000e+000 66480  2.0834e+000 -2.4971e+000 -1.2686e+000 66104 66350,66402,66376
 1.1000e+000 66947 -7.3218e-001  1.8068e+000 -1.0143e+000 65906 66699,66829,66803
 1.1000e+000 66924  6.0948e-001  8.4183e-001  1.7633e-001 65906 66673,66829,66699
 1.1000e+000 66901  2.7086e+000  5.8893e-001  1.0401e+000 65906 66725,66777,66751
 1.1000e+000 66878 -4.7289e+000  2.4733e+000  1.0574e+000 65906 66725,66803,66777
 1.1000e+000 66855  3.1334e+000 -8.7891e-001 -1.1953e+000 65906 66699,66803,66725
 1.1000e+000 67146 -2.5187e-001  4.3010e-001  1.5773e-001 65708 67022,67074,67048
 1.1000e+000 67123  1.4991e-001  1.4501e+000 -2.4238e-001 65708 66970,67074,67022
 1.1000e+000 67100 -5.0561e+000 -1.1726e+000  5.9353e-001 65708 66970,67022,66996
 1.1000e+000 67477 -1.9732e+000 -1.4641e+000 -3.7519e+000 65418 67278,67356,67330
 1.1000e+000 67454  3.4830e-001  5.6570e+000 -2.2073e+000 65418 67278,67382,67356
 1.1000e+000 67431 -3.5078e-002  3.2754e+000 -7.5972e+000 65418 67278,67330,67304
 1.1000e+000 67408 -8.8174e-002  1.4407e+000 -2.7630e+000 65418 67252,67382,67278
 1.1000e+000 68111 -1.3930e+000  1.2172e+000 -1.1841e+000 65014 67791,67921,67869
 1.1000e+000 68088  1.0306e+000  2.2760e+000 -1.5027e+000 65014 67765,67921,67791
 1.1000e+000 68065 -1.5568e+000 -1.7400e+000 -1.5132e+000 65014 67869,67921,67895
 1.1000e+000 68042  8.6591e-002  1.5975e+000 -1.2032e+000 65014 67765,67947,67921
 1.1000e+000 68019  3.3008e+000 -1.2027e+000 -4.1363e+000 65014 67791,67869,67817
 1.1000e+000 67996  6.9304e+000 -2.9911e+000 -1.3159e+000 65014 67817,67869,67843
 1.1000e+000 67973  3.3890e+000  3.5060e+000 -3.7793e-001 65014 67739,67947,67765
 1.1000e+000 68359 -2.1504e+000  5.2550e+000  1.5369e+000 64816 68186,68238,68212
 1.1000e+000 68336 -9.2830e-003  2.7098e+000  1.2661e+000 64816 68186,68264,68238
 1.1000e+000 68313  1.1760e-001  2.6460e+000 -3.9631e-002 64816 68160,68264,68186
 1.1000e+000 68290 -1.2783e-001  1.9514e+000  6.0638e-001 64816 68134,68264,68160
 1.1000e+000 68509 -8.3033e-001 -4.2330e-001  8.1696e-001 64362 68864,68532,68434
 1.1000e+000 68486  2.9999e-001  8.7656e-001 -9.0772e-002 64362 68532,68408,68382
 1.1000e+000 68558 -4.3794e+000 -4.5506e-001  2.1461e+000 64362 68736,68532,68460
 1.1000e+000 68581 -2.5026e-001  3.4215e+000  9.9690e-002 64362 68604,68532,68382
 1.1000e+000 68630  1.6979e-001  5.6544e-001  1.9737e+000 64362 68460,68532,68604
 1.1000e+000 68762 -2.3369e+000 -1.3241e+000  2.7571e+000 64362 68434,68532,68736
 1.1000e+000 68890 -3.8161e-001  6.8165e-001  1.0206e+000 64362 68408,68532,68864
 1.1000e+000 69168 -6.9466e-001  7.6999e+000  5.5110e-001 64164 69018,69070,69044
 1.1000e+000 69145 -6.4776e-001  1.1239e+000  9.5265e-001 64164 68992,69070,69018
 1.1000e+000 69122  8.9713e-002  1.7502e+000  3.9305e+000 64164 68992,69096,69070
 1.1000e+000 69367  3.3877e+000  9.3958e-001  7.9990e-001 63966 69462,69390,69269
 1.1000e+000 69344 -3.3421e+000 -8.2761e+000  2.6733e+000 63966 69390,69243,69217
 1.1000e+000 69321 -1.5725e+000 -7.2156e+000 -1.8793e+000 63966 69191,69295,69217
 1.1000e+000 69416  8.3002e+000 -4.7086e+000 -1.8825e+000 63966 69295,69269,69390
 1.1000e+000 69439  1.2408e+000 -7.3836e+000 -1.7786e+000 63966 69295,69390,69217
 1.1000e+000 69488 -2.0769e-001 -6.7971e+000 -4.7429e-001 63966 69243,69390,69462
 1.1000e+000 69900 -1.4863e+000  4.5910e+000  3.2513e+000 63676 69701,69779,69727
 1.1000e+000 69877 -1.4764e+000  4.8490e+000  3.0528e+000 63676 69675,69779,69701
 1.1000e+000 69854  2.6686e+000  4.5725e+000  2.4395e+000 63676 69675,69805,69779
 1.1000e+000 69831  1.2502e+000  1.2489e+001  6.1670e+000 63676 69727,69779,69753
 1.1000e+000 70050 -6.2271e-001  2.9085e-001  1.6062e+000 63472 70073,69949,69923
 1.1000e+000 70027 -1.5061e+000 -1.3448e+000  7.9165e-001 63472 70073,69923,70001
 1.1000e+000 70099  6.8748e-001 -8.9160e-001  2.3115e+000 63472 69975,69949,70073
 1.1000e+000 70122 -1.5330e-002 -2.3923e+000  1.6284e+000 63472 69975,70073,70001
 1.1000e+000 70321 -4.7588e-001  3.6333e-001 -3.0288e-001 63274 70145,70223,70171
 1.1000e+000 70298  4.3192e-002  6.8929e-001 -1.1531e-001 63274 70145,70249,70223
 1.1000e+000 70275  2.7462e-001  5.6586e+000 -1.3255e+000 63274 70171,70223,70197
 1.1000e+000 70593  1.7829e+000  1.2988e+000  2.8055e+000 63076 70368,70472,70420
 1.1000e+000 70570 -4.1172e-001 -6.3917e+000  1.3522e+000 63076 70368,70498,70472
 1.1000e+000 70547  3.2712e+000 -7.2378e+000 -2.3055e+000 63076 70420,70472,70446
 1.1000e+000 70524  5.6920e-001 -7.6316e-001  7.5610e+000 63076 70368,70420,70394
 1.1000e+000 70843 -4.4754e+000 -1.2962e+001 -2.2698e+000 62736 70866,70644,70618
 1.1000e+000 70820 -2.8314e+000 -1.5684e+001 -3.2193e+000 62736 70866,70618,70748
 1.1000e+000 70797  5.3137e+000 -1.0553e+001  1.6976e+000 62736 70644,70722,70696
 1.1000e+000 70774  4.9520e+000 -4.5144e+000  3.1064e+000 62736 70644,70696,70670
 1.1000e+000 70892 -2.9445e+000 -1.0535e+001 -7.7777e-001 62736 70722,70644,70866
 1.1000e+000 70915 -2.7445e+000 -1.4160e+001 -2.1663e+000 62736 70722,70866,70748
 1.1000e+000 71018 -1.7148e+000  9.5655e-001  8.8130e-001 62516 70940,70992,70966
 1.1000e+000 71219 -3.8427e-001  4.5108e+000  4.6305e+000 62226 71069,71147,71095
 1.1000e+000 71196  5.0408e-001  3.3736e+000  2.2526e+000 62226 71043,71147,71069
 1.1000e+000 71173  9.0108e+000  6.1851e-002  2.6885e+000 62226 71095,71147,71121
 1.1000e+000 71857  2.4247e+000  3.4128e+000  3.1841e-001 61708 71511,71693,71667
 1.1000e+000 71834  2.4006e+000  3.5808e+000 -4.0735e-001 61708 71485,71693,71511
 1.1000e+000 71811  3.5896e+000  3.1081e-001 -4.2170e-001 61708 71880,71537,71511
 1.1000e+000 71788  3.1001e+000  2.2155e+000 -1.2450e+000 61708 71880,71511,71667
 1.1000e+000 71765  9.4754e+000 -2.4876e-001 -2.7576e+000 61708 71537,71615,71589
 1.1000e+000 71742  2.8130e+000  6.3861e+000  1.8465e+000 61708 71615,71667,71641
 1.1000e+000 71719  4.4213e-001 -4.8283e+000 -9.9758e-001 61708 71537,71589,71563
 1.1000e+000 71906  3.6214e+000 -1.1697e+000 -5.2908e-001 61708 71615,71537,71880
 1.1000e+000 71929  2.8142e+000  3.4092e-001 -1.3057e+000 61708 71615,71880,71667
 1.1000e+000 72226 -8.6398e+000  9.9652e+000 -1.5716e-001 61204 72249,72056,72004
 1.1000e+000 72203 -1.3740e+001  2.7970e+000 -2.5435e+000 61204 72249,72004,71978
 1.1000e+000 72180 -3.5685e+000 -1.3296e+000 -1.7427e+000 61204 71978,72108,72082
 1.1000e+000 72157  3.8980e+000  2.0152e+001  6.8968e+000 61204 72004,72056,72030
 1.1000e+000 72134 -6.1271e+000 -1.7818e+000 -3.0180e+000 61204 71952,72108,71978
 1.1000e+000 72275 -4.1188e+000  4.2398e+000  3.1578e+000 61204 72082,72056,72249
 1.1000e+000 72298 -7.7116e+000  4.5396e-001  1.5727e+000 61204 72082,72249,71978
 1.1000e+000 72757 -5.3917e+000  5.5292e+000  7.0600e+000 60800 72483,72613,72509
 1.1000e+000 72734 -5.6942e+000 -4.2602e+000  6.2508e+000 60800 72483,72639,72613
 1.1000e+000 72711  4.5019e+000  1.3018e+001  9.9735e+000 60800 72561,72613,72587
 1.1000e+000 72688 -5.5197e+000  5.7581e+000  6.7629e+000 60800 72509,72613,72561
 1.1000e+000 72665 -1.5311e+000  1.4633e+001  5.4465e+000 60800 72509,72561,72535
 1.1000e+000 72907 -3.2058e+000  6.4463e+000 -1.7462e+000 60552 72780,72832,72806
 1.1000e+000 72884  3.7166e+000  1.7736e+001 -4.6774e+000 60552 72780,72858,72832
 1.1000e+000 73464  5.5776e+000  1.0121e+000  1.0603e+001 60240 73487,73222,73196
 1.1000e+000 73441  8.4423e+000  9.9230e+000  1.1348e+001 60240 73559,73487,73196
 1.1000e+000 73418  8.8155e-001  1.5713e+001  1.1547e+001 60240 73559,73196,73170
 1.1000e+000 73395  9.6592e+000 -9.4067e+000  6.5102e+000 60240 73222,73274,73248
 1.1000e+000 73372  5.5483e+000  2.2764e+000  5.4690e+000 60240 73118,73300,73274
 1.1000e+000 73349  6.4851e+000 -2.8965e+000  7.0350e+000 60240 73092,73300,73118
 1.1000e+000 73326 -9.2609e+000  1.0060e+001  2.0644e+001 60240 73118,73170,73144
 1.1000e+000 73513  4.2689e+000  1.9756e+000  6.8816e+000 60240 73274,73222,73487
 1.1000e+000 73536  5.0421e+000  4.0826e+000  6.7068e+000 60240 73274,73487,73118
 1.1000e+000 73585  2.3805e-002  1.4885e+000  7.6324e+000 60240 73118,73487,73559
 1.1000e+000 73608 -6.4005e+000  8.3808e+000  8.2276e+000 60240 73118,73559,73170
 1.1000e+000 73758 -2.5577e+001 -9.7986e+000 -5.5215e+000 59871 73657,73709,73683
 1.1000e+000 73735 -5.1581e+000 -2.6519e+001 -1.7100e+000 59871 73631,73709,73657
 1.1000e+000 74187 -7.4919e+000  1.7034e+001  1.9643e+000 59474 74210,73890,73864
 1.1000e+000 74164 -5.6264e+000  1.5053e+001  1.9107e+000 59474 74210,73864,74046
 1.1000e+000 74141 -8.7269e+000  1.3857e+001  1.1318e+000 59474 73890,73942,73916
 1.1000e+000 74118 -1.1724e+001  1.5052e+001  1.9153e+000 59474 73890,73994,73942
 1.1000e+000 74095 -7.3397e+000  1.7509e+001  8.3798e+000 59474 73994,74046,74020
 1.1000e+000 74072 -9.4704e+000  1.1743e+001  3.6414e+000 59474 73942,73994,73968
 1.1000e+000 74236 -6.0308e+000  1.7640e+001  2.5009e+000 59474 73994,73890,74210
 1.1000e+000 74259 -3.6925e+000  1.6393e+001  2.7971e+000 59474 73994,74210,74046
 1.1000e+000 74716 -8.9935e+000 -1.5659e+001 -1.0095e+001 58770 74468,74598,74494
 1.1000e+000 74693 -8.1789e-001 -1.0566e+001 -7.9309e+000 58770 74442,74598,74468
 1.1000e+000 74670 -1.7713e+001 -2.7296e+001 -1.8474e+001 58770 74494,74572,74520
 1.1000e+000 74647 -3.5084e+000 -1.0302e+001 -7.3164e+000 58770 74494,74598,74572
 1.1000e+000 74624  2.9070e+000 -5.1387e+000 -4.1068e+000 58770 74520,74572,74546
 1.1000e+000 75222 -5.1031e+000  1.5827e+001  5.4841e+000 58266 74951,75081,75029
 1.1000e+000 75199  2.9509e+000  1.7886e+001  8.9077e+000 58266 74925,75081,74951
 1.1000e+000 75176 -1.0660e+001  7.3798e+000  8.1593e+000 58266 75029,75081,75055
 1.1000e+000 75153 -1.4099e+001  2.1916e+001  7.3239e+000 58266 74951,75003,74977
 1.1000e+000 75130 -8.9270e+000  1.3650e+001  9.1378e+000 58266 74951,75029,75003
 1.1000e+000 75107 -1.4024e+001  3.2099e+000 -5.4256e-001 58266 74899,75081,74925
 1.1000e+000 75421  2.5153e+000  2.3873e+001  4.5629e+000 57826 75444,75297,75245
 1.1000e+000 75398  1.0083e+001  1.8248e+001  5.9921e+000 57826 75444,75245,75349
 1.1000e+000 75375  1.1586e+000  2.5412e+001  3.6411e+000 57826 75516,75297,75271
 1.1000e+000 75470  6.6352e+000  2.3977e+001  9.3372e+000 57826 75323,75297,75444
 1.1000e+000 75493  1.6781e+001  2.3776e+001  1.2533e+001 57826 75323,75444,75349
 1.1000e+000 75542  2.8532e+000  2.1893e+001  3.2595e+000 57826 75245,75297,75516
 1.1000e+000 76257  1.7316e+001  2.7839e+001  2.2677e+000 57422 76280,76093,76067
 1.1000e+000 76234  1.5005e+001  1.6080e+001  5.2875e+000 57422 75885,76093,75911
 1.1000e+000 76211  1.6198e+001  2.6568e+001  1.0827e+000 57422 76424,76280,76067
 1.1000e+000 76188  2.2725e+001  2.7204e+001  5.9554e+000 57422 76352,75937,75911
 1.1000e+000 76165  1.2610e+001  2.4900e+001 -7.3107e-001 57422 76424,76067,76015
 1.1000e+000 76142  1.9555e+001  5.4194e+001  8.9380e+000 57422 76015,76067,76041
 1.1000e+000 76119  3.3832e+001  2.6557e+001  2.3891e+000 57422 75963,76015,75989
 1.1000e+000 76306  1.4837e+001  2.0601e+001  6.8011e+000 57422 75911,76093,76280
 1.1000e+000 76329  2.4330e+001  2.5128e+001  5.1389e+000 57422 76352,75911,76280
 1.1000e+000 76378  2.5437e+001  3.0505e+001  7.7729e+000 57422 75963,75937,76352
 1.1000e+000 76401  2.6231e+001  2.8238e+001  6.6372e+000 57422 75963,76352,76280
 1.1000e+000 76450  2.2166e+001  2.3082e+001  2.7067e-001 57422 75963,76280,76424
 1.1000e+000 76473  1.7131e+001  2.0843e+001 -1.0821e+000 57422 75963,76424,76015
 1.1000e+000 76949 -1.3970e+001 -2.8258e+000  1.1575e+001 56904 76972,76707,76681
 1.1000e+000 76926 -8.1927e+000  1.6034e+001  3.1726e+000 56904 77044,76972,76681
 1.1000e+000 76903 -6.6193e+000  2.6583e+001  2.8658e+000 56904 77044,76681,76629
 1.1000e+000 76880 -1.1907e+000  3.1452e+000  3.2637e+000 56904 76707,76785,76759
 1.1000e+000 76857  5.3954e+000  9.8058e+000 -5.2314e+000 56904 76577,76785,76603
 1.1000e+000 76834 -3.6848e+000 -2.3344e-001  4.3673e-001 56904 76707,76759,76733
 1.1000e+000 76811  4.6279e+000  2.1972e+001  1.8240e+001 56904 76629,76681,76655
 1.1000e+000 76998 -1.2252e+000  5.8595e+000  3.1288e+000 56904 76785,76707,76972
 1.1000e+000 77021 -6.5759e+000  8.0649e+000 -2.5257e+000 56904 76785,76972,76603
 1.1000e+000 77070 -4.9015e+000  5.9420e+000 -1.5728e+000 56904 76603,76972,77044
 1.1000e+000 77093 -4.5084e+000  1.3630e+001 -2.0908e-001 56904 76603,77044,76629
 1.1000e+000 77471 -1.1255e+001  1.8215e+001 -1.2046e+001 56542 77566,77494,77275
 1.1000e+000 77448 -3.8986e+000  2.0680e+001 -4.8622e+000 56542 77494,77223,77353
 1.1000e+000 77425 -9.1358e+000  1.7298e+001 -1.8953e+001 56542 77566,77275,77249
 1.1000e+000 77402  7.1653e+000  2.1523e+001  3.7789e+000 56542 77197,77353,77223
 1.1000e+000 77379 -8.6756e+000  2.7646e+001 -1.8011e+001 56542 77275,77327,77301
 1.1000e+000 77520 -7.3547e+000  3.5839e+001 -1.1674e+001 56542 77327,77275,77494
 1.1000e+000 77543 -1.9338e+001  2.1890e+001 -4.4232e+000 56542 77327,77494,77353
 1.1000e+000 77592  2.7039e+000  2.3195e+001 -7.3105e+000 56542 77223,77494,77566
 1.1000e+000 77615 -1.6580e+000  1.4921e+001 -1.5279e+001 56542 77223,77566,77249
 1.1000e+000 77814  1.4245e+001  2.2151e+001 -1.6606e+001 56038 77837,77690,77664
 1.1000e+000 77791  1.6814e+001  2.1828e+001 -1.3429e+001 56038 77837,77664,77742
 1.1000e+000 77768  1.8407e+001  1.0265e+001 -1.3585e+001 56038 77638,77742,77664
 1.1000e+000 77863  1.4831e+001  2.4771e+001 -1.5021e+001 56038 77716,77690,77837
 1.1000e+000 77886  1.7505e+001  2.4221e+001 -1.1842e+001 56038 77716,77837,77742
 1.1000e+000 78345  1.1694e+001  2.8745e+001  2.3107e+001 55534 78071,78123,78097
 1.1000e+000 78322 -4.7498e+000  1.3920e+001  9.1176e+000 55534 78071,78201,78123
 1.1000e+000 78299 -5.8519e+000  2.0936e+001  9.8670e+000 55534 78071,78227,78201
 1.1000e+000 78276  1.6624e+001  2.1184e+001  1.5039e+001 55534 78123,78175,78149
 1.1000e+000 78253  1.4826e+001  2.3444e+001  1.2615e+001 55534 78123,78201,78175
 1.1000e+000 78802 -1.3376e+001  2.2915e+001 -5.5517e-001 55030 78825,78632,78606
 1.1000e+000 78779 -2.8227e+000  2.6747e+001 -5.2444e+000 55030 78897,78825,78606
 1.1000e+000 78756 -1.4754e+001  3.6793e+001 -1.2613e+001 55030 78897,78606,78580
 1.1000e+000 78733  5.9989e+000  1.7128e+001 -1.8627e+000 55030 78554,78684,78658
 1.1000e+000 78710  3.6396e+000  1.1317e+001 -3.1790e+000 55030 78528,78684,78554
 1.1000e+000 78851 -1.0868e+000  3.8449e+001  5.7567e+000 55030 78658,78632,78825
 1.1000e+000 78874 -4.9341e+000  1.5851e+001 -4.7579e+000 55030 78658,78825,78554
 1.1000e+000 78923 -1.5047e+001  9.9203e+000 -1.2186e+001 55030 78554,78825,78897
 1.1000e+000 78946 -2.2318e+001  1.9369e+001 -1.9349e+001 55030 78554,78897,78580
 1.1000e+000 79403  7.8802e+000  1.6813e+001  5.8816e+000 54426 79426,79233,79155
 1.1000e+000 79380  1.5326e+001  1.6194e+001  2.4466e+000 54426 79426,79155,79129
 1.1000e+000 79357 -7.3307e+000  2.1826e+001 -2.8926e+000 54426 79233,79285,79259
 1.1000e+000 79334  9.6613e+000  1.8985e+001  1.2116e+001 54426 79181,79233,79207
 1.1000e+000 79311  9.2333e+000  1.5804e+001  6.0169e+000 54426 79155,79233,79181
 1.1000e+000 79452  5.8888e+000  1.5390e+001  8.2615e+000 54426 79285,79233,79426
 1.1000e+000 79475  1.0117e+001  1.1253e+001  5.4495e+000 54426 79285,79426,79129
 1.1000e+000 79932 -7.6159e+000  1.5755e+001  1.0339e+001 53915 79658,79762,79684
 1.1000e+000 79909 -1.3247e+001  4.4567e+000  1.3062e+001 53915 79658,79814,79762
 1.1000e+000 79886 -8.4370e+000  1.3215e+000  2.1363e+001 53915 79762,79814,79788
 1.1000e+000 79863 -1.0171e+001  1.9220e+001  1.9001e+001 53915 79710,79762,79736
 1.1000e+000 79840 -1.2897e+001  1.1435e+001  1.3230e+001 53915 79684,79762,79710
 1.1000e+000 80033 -9.1953e+000  1.3699e+001  3.0729e-001 53667 79955,80007,79981
 1.1000e+000 80401 -1.5468e+001  2.3327e+000 -3.9410e+000 53263 80104,80260,80234
 1.1000e+000 80378 -1.0504e+001  1.3946e+001  1.5706e+000 53263 80078,80260,80104
 1.1000e+000 80355 -8.9959e+000 -6.8684e-001 -8.7982e-001 53263 80104,80234,80130
 1.1000e+000 80332 -8.9003e+000  2.0776e+000 -2.2284e-001 53263 80130,80208,80182
 1.1000e+000 80309 -7.4314e+000  1.0578e+000  8.0323e-001 53263 80130,80234,80208
 1.1000e+000 80286 -8.3875e+000  6.2250e+000  1.5193e+000 53263 80130,80182,80156
 1.1000e+000 80911 -1.9006e+001 -2.9564e+000 -6.3761e+000 52965 80640,80770,80744
 1.1000e+000 80888 -4.2563e+000  1.2428e+001  1.8505e+000 52965 80614,80770,80640
 1.1000e+000 80865 -8.4291e+000  1.0359e+001  1.2025e+000 52965 80640,80744,80666
 1.1000e+000 80842 -1.9304e+000  7.8147e+000 -4.5806e+000 52965 80588,80770,80614
 1.1000e+000 80819 -4.6067e+000  5.7755e+000  1.3098e+000 52965 80666,80718,80692
 1.1000e+000 80796 -1.4112e+001  1.8705e+000 -1.3832e+000 52965 80666,80744,80718
 1.1000e+000 81262 -5.6198e+001  6.5043e+000  1.7894e+000 52561 81037,81141,81063
 1.1000e+000 81239 -6.1530e+001 -7.1396e+000  3.5080e+000 52561 81037,81167,81141
 1.1000e+000 81216 -9.8722e+001  3.0768e+001 -4.0123e+000 52561 81063,81115,81089
 1.1000e+000 81193 -1.0772e+002 -9.1334e+000 -1.3355e+001 52561 81063,81141,81115
 1.1000e+000 81719 -1.7748e+001  1.4063e+000  2.1077e+000 51900 81445,81523,81471
 1.1000e+000 81696 -1.7273e+001 -1.7877e+000 -8.3691e-001 51900 81445,81575,81523
 1.1000e+000 81673 -1.3932e+001  1.1857e+000 -2.1323e+000 51900 81445,81601,81575
 1.1000e+000 81650 -1.0286e+001  9.0373e+000  3.3519e+000 51900 81523,81575,81549
 1.1000e+000 81627 -6.3298e+000  5.0661e+000  1.7226e+000 51900 81471,81523,81497
 1.1000e+000 82323 -3.8336e+000  7.9327e+000  7.4543e+000 51317 82418,82346,82032
 1.1000e+000 82300 -1.2635e+001  4.4070e+000  6.9680e+000 51317 82490,82346,81954
 1.1000e+000 82277 -2.3889e+000  1.0884e+001  8.0161e+000 51317 82418,82032,82006
 1.1000e+000 82254 -1.8415e+001 -9.9613e-001  1.2198e+001 51317 82490,81954,81928
 1.1000e+000 82231 -9.4552e+000 -9.1184e-001  8.3131e+000 51317 82058,82110,82084
 1.1000e+000 82208 -2.2742e+001  1.7423e+001  4.5260e+000 51317 81928,82136,82110
 1.1000e+000 82185  1.5662e+001  1.0942e+001  1.1429e+001 51317 81954,82006,81980
 1.1000e+000 82162 -3.0634e+001  1.4043e+001  4.6434e+000 51317 81902,82136,81928
 1.1000e+000 82372 -1.0197e+001 -1.6173e+000  4.5725e+000 51317 82058,82032,82346
 1.1000e+000 82395 -1.0073e+001  9.1317e+000  3.4797e+000 51317 82058,82346,82110
 1.1000e+000 82444 -4.1674e+000  6.1157e+000  3.6039e+000 51317 81954,82346,82418
 1.1000e+000 82467 -2.8480e+000  8.9081e+000  4.1240e+000 51317 81954,82418,82006
 1.1000e+000 82516 -1.2748e+001  9.2231e+000  3.9659e+000 51317 82110,82346,82490
 1.1000e+000 82539 -1.2635e+001  7.6936e+000  8.1004e+000 51317 82110,82490,81928
 1.1000e+000 83015 -3.8783e+000  2.1672e-001  1.4476e-001 50813 82669,82747,82695
 1.1000e+000 82992 -1.1381e+001  3.3481e+000  1.3246e+001 50813 83038,82669,82851
 1.1000e+000 82969 -1.4553e+001  2.9702e+000  1.2066e+001 50813 83038,82851,82799
 1.1000e+000 82946 -1.5099e+001  7.4003e-001  1.5481e+001 50813 82747,82799,82773
 1.1000e+000 82923 -4.2506e+000  5.3050e+000  1.2563e+001 50813 82643,82851,82669
 1.1000e+000 82900 -1.3607e+001 -3.4592e+000  8.2855e+000 50813 82799,82851,82825
 1.1000e+000 82877 -3.5982e+000 -1.2131e-001 -5.8792e-001 50813 82695,82747,82721
 1.1000e+000 83064 -6.3180e+000  2.9855e+000  1.4244e+001 50813 82747,82669,83038
 1.1000e+000 83087 -1.0837e+001  1.7726e+000  1.3175e+001 50813 82747,83038,82799
 1.1000e+000 83286  7.2909e+000 -4.6547e+000 -3.7284e+000 50352 83309,83162,83136
 1.1000e+000 83263  4.6371e+000  1.0238e+001  9.0244e-001 50352 83511,83309,83136
 1.1000e+000 83240  7.5179e+000  1.3215e+001  2.8849e+000 50352 83511,83136,83381
 1.1000e+000 83335  1.8427e+001  9.6859e+000 -9.5448e+000 50352 83188,83162,83309
 1.1000e+000 83358  1.4861e+000  7.4807e+000 -5.4708e+000 50352 83188,83309,83214
 1.1000e+000 83407  1.0717e+001  3.2420e+001  4.4622e+000 50352 83110,83214,83381
 1.1000e+000 83537  7.9474e-001  1.2838e+001 -1.3311e+000 50352 83214,83309,83511
 1.1000e+000 83560  1.4995e+000  1.2518e+001 -2.7793e-002 50352 83214,83511,83381
 1.1000e+000 83889 -1.0554e+001 -3.0789e+000  2.5181e-001 49548 83716,83794,83742
 1.1000e+000 83866 -8.4374e+000 -9.0715e-001  1.6591e+000 49548 83690,83794,83716
 1.1000e+000 83843 -1.4761e+001 -6.5702e+000 -7.9783e-001 49548 83664,83794,83690
 1.1000e+000 83820 -5.3549e+000 -2.3137e+000 -6.9743e-002 49548 83742,83794,83768
 1.1000e+000 84137  1.2788e+001  1.4783e+001  9.1465e-001 49208 84160,84016,83938
 1.1000e+000 84114  2.4502e+001  4.1550e+001 -6.2115e+000 49208 84160,83938,83912
 1.1000e+000 84091  2.0256e+001  1.1866e+001 -2.2638e+000 49208 83938,84016,83964
 1.1000e+000 84068  1.3451e+001  2.1706e+000 -5.4883e+000 49208 83964,84016,83990
 1.1000e+000 84186  1.9715e+001  2.7688e+001 -1.3159e+001 49208 84042,84016,84160
 1.1000e+000 84209  2.3954e+001  4.2959e+001 -1.9494e+001 49208 84042,84160,83912
 1.1000e+000 84796 -1.6105e+001 -3.1088e-001  2.8756e-001 48861 84499,84629,84551
 1.1000e+000 84773 -1.1236e+001  6.8179e+000  2.7513e+000 48861 84499,84655,84629
 1.1000e+000 84750 -1.5116e+001  2.7552e+000  1.7916e+000 48861 84551,84629,84577
 1.1000e+000 84727  1.6207e+000  1.4284e+000  6.9637e-001 48861 84577,84629,84603
 1.1000e+000 84704 -8.3934e+000  6.2124e-001  1.4942e+000 48861 84499,84551,84525
 1.1000e+000 84681 -9.7324e+000  8.9392e+000 -2.2467e+000 48861 84473,84655,84499
 1.1000e+000 85351  1.9074e+000  9.1919e+000  2.1403e+000 48457 85374,85031,85005
 1.1000e+000 85328  7.9250e+000  1.1907e+001 -8.2801e-001 48457 85374,85005,85161
 1.1000e+000 85305  1.7899e+001  9.9320e+000  4.2536e+000 48457 85446,85057,85031
 1.1000e+000 85282 -2.2594e+000  6.8242e+000  8.6515e-001 48457 85005,85187,85161
 1.1000e+000 85259  9.6456e-001  9.9240e+000 -4.0262e+000 48457 85083,85161,85109
 1.1000e+000 85236  1.3489e+000  6.2069e+000 -9.9170e-001 48457 84979,85187,85005
 1.1000e+000 85213  2.8254e+000  1.2751e+001 -5.1463e+000 48457 85109,85161,85135
 1.1000e+000 85400  1.3269e+001  1.3783e+001  2.8627e+000 48457 85446,85031,85374
 1.1000e+000 85423  3.2224e+000  1.0194e+001 -1.1714e+000 48457 85083,85374,85161
 1.1000e+000 85472  1.2349e+001  7.8568e+000  1.4086e-001 48457 85083,85057,85446
 1.1000e+000 85495  5.7794e+000  9.0995e+000 -1.9356e+000 48457 85083,85446,85374
 1.1000e+000 86080  2.1463e+001  1.6015e+001  4.5981e+000 48053 86319,86103,85783
 1.1000e+000 86057  1.4626e+001  1.7782e+001  5.3445e+000 48053 86103,85757,85939
 1.1000e+000 86034  9.7314e+000  1.5044e+001 -2.5368e+000 48053 86247,86175,85887
 1.1000e+000 86011  8.4168e+000  1.5143e+001 -5.2108e+000 48053 86247,85887,85835
 1.1000e+000 85988 -1.8131e+000  1.0719e+001 -5.0488e+000 48053 85887,85939,85913
 1.1000e+000 85965  1.5281e+001  1.2219e+001 -1.0155e+001 48053 85835,85887,85861
 1.1000e+000 86129  2.0141e+001  1.8729e+001  2.6533e-001 48053 85809,85783,86103
 1.1000e+000 86152  1.6612e+001  1.8167e+001  6.3462e-001 48053 86175,85809,86103
 1.1000e+000 86201  1.4284e+001  1.6568e+001 -1.4127e+000 48053 85939,85887,86175
 1.1000e+000 86224  1.4699e+001  1.5154e+001 -1.2533e+000 48053 85939,86175,86103
 1.1000e+000 86273  1.6603e+001  1.5321e+001 -1.0742e+000 48053 85809,86175,86247
 1.1000e+000 86296  1.2381e+001  1.3568e+001 -3.6436e+000 48053 85809,86247,85835
 1.1000e+000 86345  2.5181e+001  1.7979e+001  5.3535e+000 48053 85757,86103,86319
 1.1000e+000 86851  9.7103e+000 -2.8324e+000  4.6772e-001 47541 86874,86580,86554
 1.1000e+000 86828  1.1354e+001 -2.0760e+000  5.8368e-002 47541 86946,86874,86554
 1.1000e+000 86805  1.2300e+001 -5.0926e-001  7.8533e-001 47541 86946,86554,86528
 1.1000e+000 86782  1.8309e+001 -3.2441e+000  9.8471e-001 47541 86580,86658,86606
 1.1000e+000 86759  2.0466e+001  6.6105e+000 -4.2238e-001 47541 86528,86710,86684
 1.1000e+000 86736  1.5673e+000  1.5338e+000 -1.5867e+000 47541 86606,86658,86632
 1.1000e+000 86900  1.1063e+001 -3.4494e+000  1.5606e+000 47541 86658,86580,86874
 1.1000e+000 86923  9.7280e+000 -2.7695e+000  2.8195e-001 47541 86658,86874,86684
 1.1000e+000 86972  1.1025e+001  3.4752e-001  1.2227e+000 47541 86684,86874,86946
 1.1000e+000 86995  1.1852e+001  1.0245e+000  2.0488e+000 47541 86684,86946,86528
 1.1000e+000 87324 -5.5427e+000  4.1199e+000  3.6103e+000 47044 87151,87203,87177
 1.1000e+000 87301 -7.7428e+000  9.7169e-001  1.0743e+000 47044 87125,87203,87151
 1.1000e+000 87278 -3.7663e+000  8.4849e-001  1.5175e+000 47044 87099,87203,87125
 1.1000e+000 87255 -7.2488e+000 -5.8317e+000 -1.1213e+000 47044 87099,87229,87203
 1.1000e+000 87572 -9.4124e+000 -1.9514e-001  2.3661e+000 46697 87595,87425,87373
 1.1000e+000 87549 -1.0891e+001 -2.5712e-001  2.3291e+000 46697 87595,87373,87477
 1.1000e+000 87526 -1.2926e+001 -8.9997e-001  3.3540e+000 46697 87347,87477,87373
 1.1000e+000 87503 -8.2904e+000 -3.4794e-001  1.4238e+000 46697 87373,87425,87399
 1.1000e+000 87621 -1.0487e+001  1.4161e+000  1.3591e+000 46697 87451,87425,87595
 1.1000e+000 87644 -1.3732e+001  1.5723e-001  1.9344e+000 46697 87451,87595,87477
 1.1000e+000 87794 -1.7989e+001  1.1646e+001 -3.1536e+000 46235 87693,87745,87719
 1.1000e+000 87771 -1.7989e+001 -4.5180e+000  8.9106e-001 46235 87667,87745,87693
 1.1000e+000 88304 -1.8402e+001  5.4741e+000  2.9203e+000 45731 88085,88163,88137
 1.1000e+000 88281 -1.6289e+001  2.2545e+000  4.9034e+000 45731 88007,88163,88085
 1.1000e+000 88258 -2.3264e+001 -9.3231e-001  4.1649e+000 45731 87981,88163,88007
 1.1000e+000 88235 -1.8616e+001  4.2942e+000  5.5640e+000 45731 88007,88085,88059
 1.1000e+000 88212 -2.4626e+000  1.2117e+001  3.6070e-001 45731 88085,88137,88111
 1.1000e+000 88189 -1.8466e+001  3.0432e+000  6.4308e+000 45731 88007,88059,88033
 1.1000e+000 88682 -2.0084e+001 -2.9429e+000 -9.4479e-001 45312 88434,88512,88486
 1.1000e+000 88659 -3.4088e+001 -2.4589e+001  8.9604e+000 45312 88434,88538,88512
 1.1000e+000 88636 -2.1560e+001 -2.0394e+000  2.3535e+000 45312 88434,88564,88538
 1.1000e+000 88613 -6.8456e+000 -2.4624e+000  1.0793e+000 45312 88434,88486,88460
 1.1000e+000 88590 -2.7370e+001  3.1468e+001  3.2261e+001 45312 88408,88564,88434
 1.1000e+000 88930  1.4545e+001  2.1677e+001 -7.0065e-001 44808 88953,88731,88705
 1.1000e+000 88907  7.2499e+000  1.2486e+001  4.5943e+000 44808 88953,88705,88835
 1.1000e+000 88884  1.4006e+001  1.3943e+000  8.6535e+000 44808 89025,88783,88757
 1.1000e+000 88861  1.3741e+001  4.7201e+000  1.3014e+001 44808 88783,88835,88809
 1.1000e+000 88979  1.4675e+000  1.3457e+001  5.0582e+000 44808 88757,88731,88953
 1.1000e+000 89002  4.0799e+000  5.3077e+000  1.0217e+001 44808 89025,88757,88953
 1.1000e+000 89051  1.7093e+001  5.7134e+000  7.0322e+000 44808 88835,88783,89025
 1.1000e+000 89074  1.3617e+001  1.6063e+001  6.0706e+000 44808 88835,89025,88953
 1.1000e+000 89224 -2.3912e+002 -5.3514e+001  1.2658e+001 44404 89123,89175,89149
 1.1000e+000 89201 -2.3817e+002 -3.0529e+001 -3.8907e+000 44404 89097,89175,89123
 1.1000e+000 89783  1.9108e+001  3.4265e+001 -8.4348e+000 43850 89806,89541,89515
 1.1000e+000 89760  1.3533e+001  1.6897e+001 -3.0466e+000 43850 89806,89515,89463
 1.1000e+000 89737  1.3049e+001  1.8220e+001 -1.0510e+000 43850 89950,89878,89593
 1.1000e+000 89714  1.0808e+001  1.9124e+001  2.2232e+000 43850 89950,89593,89567
 1.1000e+000 89691  1.7126e+001  1.3367e+001  2.4742e+000 43850 89411,89619,89463
 1.1000e+000 89668  2.7953e+001  1.5990e+001 -5.6069e+000 43850 89463,89515,89489
 1.1000e+000 89645  1.9830e+001  1.4354e+001  1.1230e+000 43850 89411,89463,89437
 1.1000e+000 89832  9.8007e+000  2.6561e+001  6.7528e-001 43850 89878,89541,89806
 1.1000e+000 89855  1.7668e+001  2.1713e+001  1.3025e+000 43850 89619,89806,89463
 1.1000e+000 89904  1.3080e+001  1.0962e+001  2.9935e+000 43850 89619,89593,89878
 1.1000e+000 89927  1.5439e+001  1.3869e+001  1.5018e+000 43850 89619,89878,89806
 1.1000e+000 89976  3.4718e+000  1.4623e+001  4.3398e+000 43850 89541,89878,89950
 1.1000e+000 89999 -3.4891e+000  1.0320e+001  8.6690e+000 43850 89541,89950,89567
 1.1000e+000 90247  5.5011e+000  5.6438e+001  1.0481e+001 43488 90022,90074,90048
 1.1000e+000 90224 -9.9800e+000  3.9806e+001  3.2445e+000 43488 90270,90022,90152
 1.1000e+000 90201 -7.6810e+000  2.8992e+001  1.9977e+000 43488 90342,90270,90152
 1.1000e+000 90178 -9.3843e+000  1.6311e+001  1.5376e+001 43488 90342,90152,90126
 1.1000e+000 90296 -6.1257e+000  2.6989e+001  9.1464e+000 43488 90074,90022,90270
 1.1000e+000 90319 -9.6347e+000  2.5347e+001  8.6932e+000 43488 90074,90270,90100
 1.1000e+000 90368 -2.2722e+001  1.4640e+001  1.5285e+001 43488 90100,90270,90342
 1.1000e+000 90391 -2.4607e+001  1.1987e-001  2.8646e+001 43488 90100,90342,90126
 1.1000e+000 90590 -1.4662e+001 -2.4883e+000 -1.2852e+000 43048 90414,90492,90440
 1.1000e+000 90567 -1.5169e+001 -1.0837e+001  9.3305e-001 43048 90414,90518,90492
 1.1000e+000 90544 -1.6867e+001  3.2051e+000  1.8521e+000 43048 90440,90492,90466
 1.1000e+000 91070 -6.2088e+000 -6.8754e+000 -3.3905e-001 42430 91237,90880,90854
 1.1000e+000 91047 -6.2992e+000 -7.0235e+000  3.3701e-001 42430 90698,90906,90880
 1.1000e+000 91024 -1.0433e+001 -4.0475e+000  2.0637e+000 42430 91093,90750,90698
 1.1000e+000 91001 -8.3196e+000 -6.1026e+000  1.0904e+000 42430 91237,90854,91093
 1.1000e+000 90978 -7.3537e+000 -7.0634e+000  2.9243e+000 42430 91165,90802,90776
 1.1000e+000 90955 -3.8315e+000 -5.2799e+000  3.2002e+000 42430 90802,90854,90828
 1.1000e+000 90932 -1.0827e+001 -3.7326e+000  2.1227e+000 42430 90698,90750,90724
 1.1000e+000 91119 -1.2473e+001 -6.2891e+000  4.2030e+000 42430 90776,90750,91093
 1.1000e+000 91142 -8.7202e+000 -7.7932e+000  3.2446e+000 42430 91165,90776,91093
 1.1000e+000 91191 -7.0569e+000 -7.0534e+000  1.7611e+000 42430 90854,90802,91165
 1.1000e+000 91214 -8.0946e+000 -7.3526e+000  1.9249e+000 42430 90854,91165,91093
 1.1000e+000 91263 -9.4297e+000 -7.2293e+000 -1.1013e-001 42430 90698,90880,91237
 1.1000e+000 91286 -1.1786e+001 -6.5296e+000  1.1744e+000 42430 90698,91237,91093
 1.1000e+000 91694  9.6233e+000  1.2312e+001 -6.1605e+000 41769 91469,91573,91495
 1.1000e+000 91671  5.6582e+000  1.1495e+001 -6.6650e+000 41769 91469,91599,91573
 1.1000e+000 91648  1.5333e+001  1.3663e+001 -2.9994e+000 41769 91495,91547,91521
 1.1000e+000 91625  7.2846e+000  1.1386e+001 -6.6036e+000 41769 91495,91573,91547
 1.1000e+000 92040  4.7620e+001  4.2476e+001  1.0989e+001 41379 91769,91873,91847
 1.1000e+000 92017  2.9469e+001  3.0573e+001  4.5649e+000 41379 91743,91873,91769
 1.1000e+000 91994  4.0125e+001  4.3497e+001  1.0371e+001 41379 91769,91847,91795
 1.1000e+000 91971  3.1932e+001  2.9767e+001  5.6530e+000 41379 91743,91899,91873
 1.1000e+000 91948  1.8957e+001  2.2165e+001  1.8575e+000 41379 91717,91899,91743
 1.1000e+000 91925  2.7531e+001  3.1303e+001  1.9793e+000 41379 91795,91847,91821
 1.1000e+000 92597  1.3512e+001  1.3743e+001 -4.8654e+000 40975 92225,92407,92303
 1.1000e+000 92574  7.8533e+000  9.8262e+000 -3.1463e+000 40975 92225,92433,92407
 1.1000e+000 92551  1.3600e+001  8.5703e+000 -6.9741e+000 40975 92225,92303,92277
 1.1000e+000 92528  1.7764e-001  1.5334e+001 -9.2009e+000 40975 92329,92407,92381
 1.1000e+000 92505  1.7087e+000  1.1774e+001 -5.5746e+000 40975 92303,92407,92329
 1.1000e+000 92482  1.3571e+001  1.2374e+000 -4.2387e+000 40975 92225,92277,92251
 1.1000e+000 92459 -1.0815e+001  1.3671e+001 -7.2002e+000 40975 92329,92381,92355
 1.1000e+000 93231 -7.2734e+001 -1.5652e+000 -1.3467e+001 40521 92937,92989,92963
 1.1000e+000 93208 -2.3631e+001 -3.1654e+000 -2.7437e+000 40521 93254,92937,92885
 1.1000e+000 93185 -1.8066e+001 -3.4271e+000  9.2873e-001 40521 93254,92885,93067
 1.1000e+000 93162 -1.1273e+001 -9.0994e+000 -7.3871e+000 40521 92885,92937,92911
 1.1000e+000 93139 -1.7292e+001 -3.2246e+000  1.0600e+000 40521 92859,93067,92885
 1.1000e+000 93116 -1.2073e+001 -1.7807e-001 -4.4954e-001 40521 92989,93067,93015
 1.1000e+000 93093 -3.9031e+000 -2.7706e+000 -5.7760e-001 40521 93015,93067,93041
 1.1000e+000 93280 -2.1843e+001  5.1086e-001  6.8281e-001 40521 92989,92937,93254
 1.1000e+000 93303 -1.5631e+001 -2.3104e+000  3.5700e+000 40521 92989,93254,93067
 1.1000e+000 93632 -5.7534e+000  9.8649e+000  8.0695e+000 40231 93433,93537,93511
 1.1000e+000 93609 -1.1332e+001  5.0729e+000  5.9188e+000 40231 93407,93537,93433
 1.1000e+000 93586 -4.1899e+000  4.0456e+001 -1.0818e+000 40231 93459,93511,93485
 1.1000e+000 93563 -4.5890e+000  1.4134e+001 -4.1807e+000 40231 93433,93511,93459
 1.1000e+000 94010 -2.0096e+001  1.9707e+001  1.9124e+000 39869 93762,93866,93788
 1.1000e+000 93987 -5.1669e+000  2.2514e+001  5.2028e-001 39869 93762,93892,93866
 1.1000e+000 93964 -2.7177e+001  3.4099e+000 -1.3497e+000 39869 93788,93866,93840
 1.1000e+000 93941 -3.0894e+001  1.2569e+001 -1.3959e+001 39869 93788,93840,93814
 1.1000e+000 93918 -1.0492e+001  1.3763e+001 -2.1784e+000 39869 93736,93892,93762
 1.1000e+000 94160 -1.6137e+001  8.6406e-001 -9.9571e-001 39457 94033,94085,94059
 1.1000e+000 94137 -1.6739e+001 -1.0990e+001  1.8580e+000 39457 94033,94111,94085
 1.1000e+000 94359 -6.8149e+000  2.8366e+001  5.5172e+000 39053 94382,94235,94209
 1.1000e+000 94336  1.5671e+001  4.7243e+001 -3.7933e+000 39053 94382,94209,94183
 1.1000e+000 94313  2.6583e+000  3.5069e+001  1.2300e+001 39053 94183,94287,94261
 1.1000e+000 94408  1.4311e+001  4.1135e+001  5.5569e+000 39053 94454,94382,94261
 1.1000e+000 94431  1.0577e+001  3.9197e+001  9.9263e+000 39053 94261,94382,94183
 1.1000e+000 94480  1.6795e-003  4.8602e+000  1.0830e+001 39053 94235,94382,94454
 1.1000e+000 94892 -1.9525e+001  1.4877e+001  2.1350e+000 38392 94915,94771,94719
 1.1000e+000 94869 -2.2129e+001  1.6366e+001  2.3405e+000 38392 94915,94719,94693
 1.1000e+000 94846 -7.7171e+000  2.1003e+001  2.4084e+001 38392 94719,94771,94745
 1.1000e+000 94823 -1.4541e+001  2.3515e+001  6.6013e+000 38392 94667,94797,94693
 1.1000e+000 94941 -1.8622e+001  1.5991e+001  1.6458e+000 38392 94797,94771,94915
 1.1000e+000 94964 -2.0223e+001  1.8238e+001  1.4794e+000 38392 94797,94915,94693
 1.1000e+000 95261  1.8210e+001  1.5188e+001 -7.6437e-001 37831 95013,95065,95039
 1.1000e+000 95238  2.3105e+001  1.6202e+001 -3.3165e+000 37831 95284,95065,95013
 1.1000e+000 95215  1.7638e+001  1.4638e+001 -4.1410e+000 37831 95284,95013,94987
 1.1000e+000 95192  1.0395e+001  1.1780e+001 -4.9343e+000 37831 94987,95143,95117
 1.1000e+000 95169  2.3479e+001  6.8013e+000 -1.4375e+001 37831 95065,95117,95091
 1.1000e+000 95310  1.9576e+001  1.6204e+001 -6.9409e+000 37831 95117,95065,95284
 1.1000e+000 95333  1.5413e+001  1.5680e+001 -7.6343e+000 37831 95117,95284,94987
 1.1000e+000 95554 -2.4886e+001  2.2858e+000 -5.0283e+000 37419 95404,95456,95430
 1.1000e+000 95531 -1.2010e+001  3.2837e+001 -3.9099e+000 37419 95378,95456,95404
 1.1000e+000 95508 -3.1675e+000  4.0259e+001 -7.0844e+000 37419 95378,95482,95456
 1.1000e+000 95887 -1.9924e+001 -1.3454e+001  2.9842e+000 37221 95662,95714,95688
 1.1000e+000 95864 -1.8181e+001 -1.6125e+001  2.3211e+000 37221 95662,95792,95714
 1.1000e+000 95841 -6.3163e+000 -7.9241e+000  8.3136e-002 37221 95714,95766,95740
 1.1000e+000 95818 -1.5173e+001 -8.9375e+000  2.6438e+000 37221 95714,95792,95766
 1.1000e+000 95988 -9.1393e+001 -9.5301e+000 -1.3001e+001 36731 95910,95962,95936
 1.1000e+000 96138 -7.8245e+000  2.4982e+001  1.1554e+001 36327 96293,96063,96037
 1.1000e+000 96115 -2.2593e+001  2.1321e+001  1.8263e+001 36327 96161,96037,96011
 1.1000e+000 96187 -7.1090e+000  2.7700e+001  2.1520e+001 36327 96293,96037,96161
 1.1000e+000 96319 -5.4384e+000  3.8410e+001  1.6357e+001 36327 96089,96063,96293
 1.1000e+000 96342  6.0002e-001  4.3863e+001  2.7557e+001 36327 96089,96293,96161
 1.1000e+000 96710  1.5015e+000  1.4460e+001  4.7170e+000 36037 96733,96491,96439
 1.1000e+000 96687  2.2558e+000  2.1975e+001  7.2417e+000 36037 96733,96439,96413
 1.1000e+000 96664 -1.9464e+000  1.2502e+001  1.5622e+000 36037 96439,96491,96465
 1.1000e+000 96641 -1.0823e+001  3.3675e+001  3.7346e+000 36037 96387,96517,96413
 1.1000e+000 96618 -1.0961e+001  3.2980e+001  3.7831e+000 36037 96387,96543,96517
 1.1000e+000 96595  1.6217e+000  2.4411e+001  1.3132e+001 36037 96387,96569,96543
 1.1000e+000 96759 -6.0852e+000  2.2524e+001  2.4411e+000 36037 96517,96491,96733
 1.1000e+000 96782 -1.5804e+000  3.1662e+001  7.9576e+000 36037 96517,96733,96413
 1.1000e+000 96932  1.8537e+001  9.5166e+000 -1.3085e+001 35633 97027,96955,96831
 1.1000e+000 96909  1.4434e+001  6.6349e+000 -1.2338e+001 35633 97159,96955,96805
 1.1000e+000 96981  1.2647e+001  6.2787e+000 -1.4337e+001 35633 96857,96831,96955
 1.1000e+000 97004  1.5589e+001  1.2930e+001 -1.4851e+001 35633 96857,96955,96883
 1.1000e+000 97053  1.5696e+001  9.0908e+000 -1.3222e+001 35633 96805,96955,97027
 1.1000e+000 97185  8.5809e+000  9.1516e+000 -1.2234e+001 35633 96883,96955,97159
 1.1000e+000 97593 -3.3774e+000 -1.0572e+001 -7.9997e+000 35186 97446,97498,97472
 1.1000e+000 97570  2.2336e+000  2.5816e+000 -7.4826e+000 35186 97368,97498,97446
 1.1000e+000 97547 -1.7240e+000 -2.2913e+000 -4.0957e+000 35186 97368,97446,97394
 1.1000e+000 97524 -5.1590e+000 -2.7312e+000 -5.1526e+000 35186 97394,97446,97420
 1.1000e+000 98050  7.7911e+000  2.4183e+001 -3.3964e+000 34632 97802,97932,97854
 1.1000e+000 98027 -2.8798e+000  4.8238e+000 -9.4199e+000 34632 97776,97932,97802
 1.1000e+000 98004 -2.0053e+000  1.2122e+001  8.6348e+000 34632 97802,97854,97828
 1.1000e+000 97981 -1.2659e+001  1.5292e+001 -3.0520e+000 34632 97880,97932,97906
 1.1000e+000 97958  5.2414e+000  1.8386e+001 -2.8942e+000 34632 97854,97932,97880
 1.1000e+000 98526 -4.1449e+000  1.8437e+001  2.3390e+000 34064 98693,98180,98362
 1.1000e+000 98503 -6.5493e+000  7.0391e+000 -6.3317e+000 34064 98154,98362,98180
 1.1000e+000 98480  6.0531e+000  1.9197e+001  1.4388e+001 34064 98549,98258,98232
 1.1000e+000 98457 -1.1681e+001  3.0406e+001  3.3035e+001 34064 98549,98232,98206
 1.1000e+000 98434 -6.7920e-001  1.9676e+001 -2.7642e-001 34064 98837,98621,98362
 1.1000e+000 98411  1.2553e+001  9.0861e+000  1.4453e+001 34064 98765,98284,98258
 1.1000e+000 98388  7.3051e+000  1.5536e+001 -9.7882e-001 34064 98837,98362,98336
 1.1000e+000 98575  7.0530e+000  1.7640e+001  1.0866e+001 34064 98765,98258,98549
 1.1000e+000 98598 -1.4467e+000  1.7737e+001  3.3456e+000 34064 98621,98310,98549
 1.1000e+000 98647 -6.0288e-001  2.3439e+001  4.0219e+000 34064 98693,98362,98621
 1.1000e+000 98670  6.8770e+000  3.6626e+001  8.0290e+000 34064 98206,98621,98549
 1.1000e+000 98719 -4.5237e+000  2.4985e+001  3.2699e+000 34064 98206,98180,98693
 1.1000e+000 98742 -4.7416e+000  2.4593e+001  3.1836e+000 34064 98206,98693,98621
 1.1000e+000 98791  2.1966e+001  1.8337e+001  9.4289e+000 34064 98310,98284,98765
 1.1000e+000 98814  1.5036e+001  2.4786e+001  6.0732e+000 34064 98310,98765,98549
 1.1000e+000 98863  7.9622e+000  2.2344e+001  1.6091e+000 34064 98310,98621,98837
 1.1000e+000 98886  1.6072e+001  1.8127e+001  4.6924e-001 34064 98310,98837,98336
 1.1000e+000 99264  4.5193e+000  1.8387e-001  5.9467e+000 33446 99287,99094,99068
 1.1000e+000 99241 -1.7129e+000  1.4775e+001 -7.4176e+000 33446 99287,99068,99016
 1.1000e+000 99218 -2.2183e+001  6.7524e+000  1.9087e+000 33446 99016,99068,99042
 1.1000e+000 99195 -2.3837e+001  7.9693e+000 -7.2333e+000 33446 99016,99146,99120
 1.1000e+000 99172 -2.0810e+001  1.9656e+001 -1.1609e+001 33446 98990,99146,99016
 1.1000e+000 99313  2.7379e+001  1.1841e+001  1.8126e+000 33446 99120,99094,99287
 1.1000e+000 99336  5.6375e+000  1.8827e+001 -8.9922e+000 33446 99120,99287,99016
 1.1000e+000 99861 -1.9395e+001  1.6334e+000 -5.7210e+000 32940 100172,99956,99884
 1.1000e+000 99838 -1.7880e+001 -3.5601e+000 -2.9043e+000 32940 100100,99884,99518
 1.1000e+000 99815 -9.3296e+000 -6.6718e-001 -6.3447e+000 32940 100244,99956,99622
 1.1000e+000 99792 -8.2848e-001  8.8374e+000 -8.1408e-001 32940 100028,99648,99622
 1.1000e+000 99769 -1.9279e+001 -9.6388e+000 -3.5543e+000 32940 100100,99518,99492
 1.1000e+000 99746 -2.2436e+000  6.9901e+000  2.5274e-001 32940 99570,99622,99596
 1.1000e+000 99723 -5.9334e+000  1.1094e+000 -5.1570e+000 32940 100244,99622,99570
 1.1000e+000 99700 -1.7802e+001 -3.3352e+000  1.3944e+000 32940 99440,99492,99466
 1.1000e+000 99910 -1.3530e+001  2.7631e+000 -4.2322e+000 32940 100172,99884,100028
 1.1000e+000 99933 -2.4990e+001 -1.0392e+001  4.6284e+000 32940 99674,99884,99440
 1.1000e+000 99982 -2.0197e+001 -4.5699e+000 -4.6485e+000 32940 99518,99884,99956
 1.1000e+000 100005 -2.5605e+001 -2.0404e+001 -1.6349e+001 32940 99518,99956,99544
 1.1000e+000 100054 -1.6840e+001  1.1554e+001  1.6890e+000 32940 99674,99648,100028
 1.1000e+000 100077 -1.7462e+001  7.5952e+000  2.3678e+000 32940 99674,100028,99884
 1.1000e+000 100126 -1.9028e+001 -5.4095e-001  1.0774e+000 32940 99440,99884,100100
 1.1000e+000 100149 -1.9128e+001 -3.6103e+000 -1.0761e-001 32940 99440,100100,99492
 1.1000e+000 100198 -1.4382e+001  4.1185e+000 -8.0898e-001 32940 99622,99956,100172
 1.1000e+000 100221 -1.2705e+001  4.1412e+000  1.0441e+000 32940 99622,100172,100028
 1.1000e+000 100270 -1.5263e+001  1.8627e+000 -8.4863e+000 32940 99544,99956,100244
 1.1000e+000 100293 -1.2313e+001  3.2162e+000 -7.4063e+000 32940 99544,100244,99570
 1.1000e+000 100750  4.7772e+000  1.4995e+001  1.0670e+000 32365 100773,100580,100502
 1.1000e+000 100727  7.9867e+000  1.2491e+001  4.0681e+000 32365 100773,100502,100632
 1.1000e+000 100704  1.2013e+001  1.0076e+000 -5.1421e+000 32365 100476,100632,100502
 1.1000e+000 100681  2.4871e+000  1.0565e+001 -1.0415e+000 32365 100528,100580,100554
 1.1000e+000 100658  9.2567e+000  1.5661e+001 -3.9837e+000 32365 100502,100580,100528
 1.1000e+000 100799  6.8211e+000  1.9295e+001  1.9870e+000 32365 100606,100580,100773
 1.1000e+000 100822  9.4098e+000  1.5870e+001  4.5678e+000 32365 100606,100773,100632
 1.1000e+000 101021 -4.3815e-002  1.6299e+001  9.3125e+000 31853 100871,100923,100897
 1.1000e+000 100998  1.2365e+001  2.9781e+001  1.4864e+001 31853 100871,100949,100923
 1.1000e+000 100975  9.0406e-001  3.3444e+000  1.3394e+001 31853 100845,100949,100871
 1.1000e+000 101529  1.0016e+001  1.3179e+001 -1.5175e+001 31249 101552,101310,101232
 1.1000e+000 101506  1.6451e+001  1.7849e+001 -1.7281e+001 31249 101552,101232,101206
 1.1000e+000 101483  1.5833e+001  3.1598e+000 -1.1235e+001 31249 101206,101388,101336
 1.1000e+000 101460  5.8211e+000  1.2761e+001 -1.3362e+001 31249 101232,101284,101258
 1.1000e+000 101437  9.0975e+000  2.1140e+001 -1.3396e+001 31249 101232,101310,101284
 1.1000e+000 101414  1.8913e+001  6.6129e-001 -3.3187e+000 31249 101336,101388,101362
 1.1000e+000 101578  1.1640e+001  7.0638e+000 -8.7399e+000 31249 101336,101310,101552
 1.1000e+000 101601  1.8523e+001  1.2433e+001 -1.1087e+001 31249 101336,101552,101206
 1.1000e+000 101751 -2.3275e+001  4.3658e+001 -4.3497e-001 30515 101774,101650,101624
 1.1000e+000 101728 -9.6664e+000  4.8941e+001 -2.0247e+000 30515 101846,101774,101624
 1.1000e+000 101800 -1.8517e+001  4.9611e+001  1.6466e+000 30515 101676,101650,101774
 1.1000e+000 101823 -1.6696e+001  3.7443e+001  2.5400e+000 30515 101676,101774,101702
 1.1000e+000 101872 -2.0549e+001  2.3256e+001 -1.9871e+000 30515 101702,101774,101846
 1.1000e+000 102557  2.0341e+000  6.8807e+000  1.9475e+000 29947 102652,102580,102266
 1.1000e+000 102534  4.2529e+000  1.0379e+001  4.5309e+000 29947 102580,102136,102370
 1.1000e+000 102511  5.0952e-001  3.4173e+000  1.5987e+000 29947 102724,102652,102266
 1.1000e+000 102488  1.9008e+000  1.1128e+000  7.5279e-001 29947 102724,102266,102240
 1.1000e+000 102465  4.1185e+000  9.2339e+000  1.9723e+000 29947 102796,102318,102292
 1.1000e+000 102442  3.1119e+000  6.5196e+000 -1.6461e+000 29947 102162,102214,102188
 1.1000e+000 102419  1.4455e+000  5.1020e+000 -2.4686e+000 29947 102162,102240,102214
 1.1000e+000 102396  6.5310e+000  1.6034e+001  6.6261e+000 29947 102318,102370,102344
 1.1000e+000 102606  2.7609e+000  3.9133e+000  1.6571e+000 29947 102292,102266,102580
 1.1000e+000 102629  3.8541e+000  7.6238e+000  2.0819e+000 29947 102796,102292,102580
 1.1000e+000 102678  2.7945e+000  5.6915e+000  3.6550e+000 29947 102136,102580,102652
 1.1000e+000 102701  2.2886e+000  4.5441e+000  3.4670e+000 29947 102136,102652,102162
 1.1000e+000 102750  2.8291e+000  6.5157e+000  2.8495e+000 29947 102162,102652,102724
 1.1000e+000 102773  3.0329e+000  3.7015e+000  1.4633e+000 29947 102162,102724,102240
 1.1000e+000 102822  4.0344e+000  7.4200e+000  2.6977e+000 29947 102370,102318,102796
 1.1000e+000 102845  4.2075e+000  6.6420e+000  2.9657e+000 29947 102370,102796,102580
 1.1000e+000 103044 -2.2626e+001 -1.1731e+001  1.8555e+000 29450 102868,102920,102894
 1.1000e+000 103021 -2.3464e+001 -1.0004e+001  1.9191e+000 29450 102868,102972,102920
 1.1000e+000 102998 -2.4898e+001 -1.6189e+001  2.0449e+000 29450 102920,102972,102946
 1.1000e+000 103292  1.4841e+001  1.3151e+001  9.7363e+000 29060 103315,103171,103119
 1.1000e+000 103269  6.0391e+000  1.3338e+001  1.2691e+001 29060 103315,103119,103067
 1.1000e+000 103246  2.1847e+001  1.8862e+001  6.6816e+000 29060 103119,103171,103145
 1.1000e+000 103223  1.5994e+001  4.9371e+000  1.6011e+001 29060 103067,103119,103093
 1.1000e+000 103341  2.2760e+001  1.2441e+001  5.5207e+000 29060 103197,103171,103315
 1.1000e+000 103364  1.1843e+001  1.5057e+001  5.4938e+000 29060 103197,103315,103067
 1.1000e+000 104002 -1.9309e+001 -1.1756e+000 -9.6072e+000 28599 104097,104025,103708
 1.1000e+000 103979 -1.2027e+001  5.1534e+000 -1.4205e+000 28599 104169,104025,103656
 1.1000e+000 103956 -1.0409e+001 -7.2862e+000 -8.8378e+000 28599 104097,103708,103682
 1.1000e+000 103933 -8.8303e+000  8.2854e+000 -9.2695e-002 28599 104169,103656,103630
 1.1000e+000 103910 -2.0957e+000  3.9215e+001  1.3497e+000 28599 103760,103812,103786
 1.1000e+000 103887 -1.2488e+001  1.0520e+001  6.8274e+000 28599 103630,103838,103812
 1.1000e+000 103864 -1.0181e+001  2.9484e+000  9.6055e-001 28599 103708,103760,103734
 1.1000e+000 104051 -2.2062e+001  1.0198e+001 -3.2661e+000 28599 103760,103708,104025
 1.1000e+000 104074 -9.7812e+000  1.1533e+001  2.4373e+000 28599 103760,104025,103812
 1.1000e+000 104123 -1.0449e+001  7.6086e+000 -6.0618e+000 28599 103656,104025,104097
 1.1000e+000 104146 -1.9869e+000 -7.4771e-001 -5.9387e+000 28599 103656,104097,103682
 1.1000e+000 104195 -1.4057e+001  9.2730e+000 -7.0483e-001 28599 103812,104025,104169
 1.1000e+000 104218 -1.3008e+001  1.0527e+001 -1.4180e-001 28599 103812,104169,103630
 1.1000e+000 104596  1.6660e+001  1.0065e+001 -5.7706e+000 28344 104619,104374,104322
 1.1000e+000 104573  1.6518e+001  7.7804e+000 -2.6432e+000 28344 104619,104322,104478
 1.1000e+000 104550  4.3112e+000  1.4290e+001 -9.3604e-001 28344 104322,104374,104348
 1.1000e+000 104527  2.1518e+001 -1.6164e+001 -2.0863e+001 28344 104400,104452,104426
 1.1000e+000 104504  2.6262e+001 -1.0611e+001 -1.4711e+001 28344 104374,104452,104400
 1.1000e+000 104645  1.7749e+001  1.3912e+001 -7.0365e+000 28344 104452,104374,104619
 1.1000e+000 104668  1.7274e+001  1.1771e+001 -3.7234e+000 28344 104452,104619,104478
 1.1000e+000 104987  3.2867e+000  1.0720e+001  2.6928e+000 27947 104713,104843,104765
 1.1000e+000 104964  1.1439e+000  1.3251e+001 -4.3362e-001 27947 104713,104869,104843
 1.1000e+000 104941  2.9842e+000  5.9058e+000 -3.5863e-001 27947 104765,104843,104791
 1.1000e+000 104918  2.3004e+000  3.2514e+000  2.8922e-001 27947 104791,104843,104817
 1.1000e+000 104895  8.8306e-001  5.4768e+000  3.3007e+000 27947 104713,104765,104739
 1.1000e+000 105367 -1.6987e+001 -5.6850e+000  2.2304e+000 27443 105390,105197,105119
 1.1000e+000 105344 -2.1145e+001 -7.6535e+000  1.6480e+000 27443 105390,105119,105093
 1.1000e+000 105321 -1.8917e+001 -8.6048e+000  3.4749e+000 27443 105119,105197,105145
 1.1000e+000 105298 -1.3243e+001 -7.5933e+000 -3.6724e-001 27443 105197,105249,105223
 1.1000e+000 105275 -1.8047e+001 -1.5970e+000  8.9905e+000 27443 105145,105197,105171
 1.1000e+000 105416 -1.4028e+001 -7.5761e+000 -1.1079e+000 27443 105249,105197,105390
 1.1000e+000 105439 -1.9253e+001 -1.0213e+001 -2.0015e+000 27443 105249,105390,105093
 1.1000e+000 105994 -8.9024e+000  2.8618e+000 -8.4405e-001 27096 106161,106017,105700
 1.1000e+000 105971 -1.4182e+001  4.1398e+000  1.8861e-001 27096 106305,106017,105648
 1.1000e+000 105948 -2.5030e-001  4.3085e+000 -3.3429e+000 27096 106089,105804,105778
 1.1000e+000 105925 -1.0040e+001  2.8312e+000  3.8650e-001 27096 106161,105700,105674
 1.1000e+000 105902 -8.0560e+000  3.7163e-001 -1.6719e+000 27096 106233,105726,105700
 1.1000e+000 105879 -3.6959e+001  1.6121e+000  2.7478e+000 27096 106305,105648,105622
 1.1000e+000 105856 -4.6159e+000  1.2948e+000 -4.1232e-001 27096 105726,105778,105752
 1.1000e+000 106043 -9.3552e+000  1.6441e+000 -8.9396e-001 27096 106233,105700,106017
 1.1000e+000 106066 -5.2720e+000  3.5133e+000 -1.1272e+000 27096 106089,105778,106017
 1.1000e+000 106115 -6.2484e+000  1.8390e+000 -2.7561e+000 27096 105830,105804,106089
 1.1000e+000 106138 -9.4986e+000  3.1122e+000 -1.7578e+000 27096 106377,106089,106017
 1.1000e+000 106187 -1.0974e+001  3.9163e+000  8.2283e-001 27096 105648,106017,106161
 1.1000e+000 106210 -1.4097e+001  1.2020e+000  2.5982e+000 27096 105648,106161,105674
 1.1000e+000 106259 -6.7579e+000  1.8454e+000 -2.2662e+000 27096 105778,105726,106233
 1.1000e+000 106282 -8.3574e+000  2.7211e+000 -1.3752e+000 27096 105778,106233,106017
 1.1000e+000 106331 -1.0828e+001  3.5838e+000 -3.9949e+000 27096 106377,106017,106305
 1.1000e+000 106354 -1.0367e+001  1.8380e+001 -5.6536e+000 27096 105830,106305,105622
 1.1000e+000 106403 -5.7004e+000  4.4254e+000 -2.1789e+000 27096 105830,106089,106377
 1.1000e+000 106426 -6.1437e+000  5.4957e+000 -4.0470e+000 27096 105830,106377,106305
 1.1000e+000 106625 -2.6032e+001 -1.4229e+000  2.2467e+000 26684 106475,106553,106527
 1.1000e+000 106602 -2.7174e+001 -2.1010e+000  1.8676e+000 26684 106449,106553,106475
 1.1000e+000 106579 -3.2756e+001 -5.9538e-001 -3.7962e+000 26684 106475,106527,106501
 1.1000e+000 107084  5.6000e+000  1.0520e+000 -2.7467e+000 26244 107107,106914,106862
 1.1000e+000 107061  4.9033e+000 -4.6259e-001 -2.5541e+000 26244 107107,106862,106836
 1.1000e+000 107038 -2.7634e+000 -4.3464e-002 -1.3738e+000 26244 106810,106966,106836
 1.1000e+000 107015  6.7984e+000  5.8068e+000 -2.7995e+000 26244 106862,106914,106888
 1.1000e+000 106992  8.1297e+000  4.1164e+000 -1.5923e+000 26244 106914,106966,106940
 1.1000e+000 107133  5.3286e+000  2.2602e+000 -7.7664e-001 26244 106966,106914,107107
 1.1000e+000 107156  4.0396e+000 -6.6305e-001 -5.7171e-001 26244 106966,107107,106836
 1.1000e+000 107662  3.0109e+000  2.8406e+000  1.1579e+000 25904 107365,107495,107391
 1.1000e+000 107639  3.3557e+000  4.2134e+000  7.3969e-001 25904 107365,107521,107495
 1.1000e+000 107616  2.4379e+000  2.2556e+000  3.7015e-001 25904 107391,107469,107443
 1.1000e+000 107593  4.1275e+000  3.2398e+000 -8.1714e-002 25904 107391,107495,107469
 1.1000e+000 107570  2.0988e+000  1.3083e+000  3.4862e-001 25904 107391,107443,107417
 1.1000e+000 107547  1.3662e+000  3.7802e+000  3.1054e+000 25904 107339,107521,107365
 1.1000e+000 108247 -1.6355e+000  1.9969e+000 -8.3322e-001 25450 108270,108002,107950
 1.1000e+000 108224  4.0380e-001  2.0355e+000 -1.1010e-001 25450 108270,107950,108106
 1.1000e+000 108201  4.6327e-001  1.0246e+000  1.2954e-001 25450 108342,108028,108002
 1.1000e+000 108178 -2.6789e+000  6.9556e-001 -2.5672e-001 25450 107950,108002,107976
 1.1000e+000 108155 -3.7906e+000  4.5638e+000  4.2868e-001 25450 107924,108106,107950
 1.1000e+000 108132  1.7691e+000  4.0886e+000  3.8603e-001 25450 108054,108106,108080
 1.1000e+000 108296 -4.5441e-001  1.7943e+000  1.9650e-001 25450 108342,108002,108270
 1.1000e+000 108319  1.0794e+000  2.8435e+000  7.0183e-001 25450 108054,108270,108106
 1.1000e+000 108368  2.1283e+000  1.7405e+000 -3.2491e-001 25450 108054,108028,108342
 1.1000e+000 108391  8.2305e-001  2.3586e+000 -3.7097e-001 25450 108054,108342,108270
 1.1000e+000 108818 -1.2291e+001  1.7384e+001  2.7039e+000 24939 108521,108677,108651
 1.1000e+000 108795 -2.8435e+001  1.4217e+001 -1.3170e+001 24939 108495,108677,108521
 1.1000e+000 108772  3.1136e+000  2.3962e+001  8.6921e-001 24939 108521,108651,108625
 1.1000e+000 108749 -7.1532e+000  2.5295e+001  7.1913e-001 24939 108521,108625,108599
 1.1000e+000 108726  2.0708e+000  8.1149e+000  4.3705e+000 24939 108547,108599,108573
 1.1000e+000 108703 -1.0930e+001  1.3896e+001  5.0405e-001 24939 108521,108599,108547
 1.1000e+000 109403  3.5267e+001  2.2704e+001 -7.2754e+000 24741 109158,109210,109184
 1.1000e+000 109380  2.2688e+001  2.2584e+001 -5.3016e+000 24741 109158,109262,109210
 1.1000e+000 109357  2.6237e+001  2.4951e+001 -2.6449e+000 24741 109080,109262,109158
 1.1000e+000 109334  1.6397e+001  2.2154e+001  1.8616e+000 24741 109080,109158,109132
 1.1000e+000 109311  4.5331e+001  3.5348e+001 -1.1837e+001 24741 109210,109262,109236
 1.1000e+000 109288  2.7324e+001  2.3090e+001  7.2281e+000 24741 109080,109132,109106
 1.1000e+000 109781  3.1389e+000  2.0382e+000  5.6332e-001 24337 109533,109611,109559
 1.1000e+000 109758  3.6803e+000  4.0270e+000 -3.5634e-001 24337 109533,109637,109611
 1.1000e+000 109735  3.7704e+000  1.5794e+000 -3.6557e-001 24337 109559,109611,109585
 1.1000e+000 109712  3.7146e+000  4.1638e+000  5.8112e-001 24337 109533,109663,109637
 1.1000e+000 109689  3.8494e+000  5.5101e+000  1.2960e+000 24337 109507,109663,109533
 1.1000e+000 110159  4.2636e-001 -4.8472e+000 -6.0720e+000 23833 110182,109963,109911
 1.1000e+000 110136 -2.2708e-001 -2.8218e+000 -8.4430e+000 23833 110182,109911,109885
 1.1000e+000 110113  5.7879e+000 -2.2978e+000 -1.0661e+001 23833 109885,110041,109989
 1.1000e+000 110090  1.9465e+000  1.6311e+000 -5.1990e+000 23833 109911,109963,109937
 1.1000e+000 110067 -2.8988e+000 -2.2733e+001 -1.1781e+001 23833 109989,110041,110015
 1.1000e+000 110208 -4.5624e-001 -6.8963e+000 -6.3058e+000 23833 109989,109963,110182
 1.1000e+000 110231 -1.4684e+000 -5.7385e+000 -8.4261e+000 23833 109989,110182,109885
 1.1000e+000 110332  3.3659e+000  8.3433e+000 -1.5934e-001 23429 110254,110306,110280
 1.1000e+000 110580  1.0797e+001  8.4382e+000  1.5574e+001 22825 110603,110407,110381
 1.1000e+000 110557  1.4987e+000  5.0978e+000  1.2025e+001 22825 110603,110381,110485
 1.1000e+000 110534  5.9903e+000  4.1812e+000  5.2440e+000 22825 110433,110485,110459
 1.1000e+000 110511 -3.6311e+000  2.0204e+001  1.1439e+001 22825 110355,110485,110381
 1.1000e+000 110629  6.4098e+000  4.0075e+000  9.8126e+000 22825 110433,110407,110603
 1.1000e+000 110652  1.6026e+000  3.8198e+000  6.5555e+000 22825 110433,110603,110485
 1.1000e+000 110902 -2.9331e+001  1.0526e+001 -4.9949e+000 22428 110703,110755,110729
 1.1000e+000 110879 -1.9982e+001  2.4362e+000 -5.2797e+000 22428 110703,110781,110755
 1.1000e+000 110856 -2.6306e+001 -9.7442e-001 -8.8694e+000 22428 110703,110807,110781
 1.1000e+000 110833 -3.9529e+001 -1.0474e+001 -1.5325e+001 22428 110677,110807,110703
 1.1000e+000 111284  2.8184e+001  3.8095e+000 -1.2983e+001 22138 111088,111140,111114
 1.1000e+000 111261  2.7389e+001  9.0385e+000 -1.6251e+001 22138 111062,111140,111088
 1.1000e+000 111238  2.4649e+001  6.8786e+000 -8.7241e+000 22138 111036,111140,111062
 1.1000e+000 111215  1.1569e+001  3.8307e+000 -1.2284e+001 22138 111010,111140,111036
 1.1000e+000 111192  1.1240e+001  4.9750e+000 -1.3874e+001 22138 111010,111166,111140
 1.1000e+000 111385 -3.1009e+001 -8.1819e-001  4.2427e+000 21826 111307,111359,111333
 1.1000e+000 111731 -3.3925e+001  2.5218e+000  5.0341e+000 21264 111754,111538,111434
 1.1000e+000 111708 -2.6988e+001  5.0725e+000  8.9780e-001 21264 111754,111434,111408
 1.1000e+000 111685 -3.6428e+001  8.5840e+000  3.3086e+000 21264 111434,111538,111460
 1.1000e+000 111662 -5.0817e+001  2.3721e+000  6.0046e+000 21264 111460,111538,111486
 1.1000e+000 111639 -2.4045e+001 -2.1691e+000  1.1389e+001 21264 111408,111590,111564
 1.1000e+000 111616 -5.8039e+001  2.0768e+001  1.4534e+001 21264 111486,111538,111512
 1.1000e+000 111780 -3.6248e+001  1.5284e+000  6.8564e+000 21264 111564,111538,111754
 1.1000e+000 111803 -3.3798e+001 -2.6478e+000  4.2542e+000 21264 111564,111754,111408
 1.1000e+000 111955  1.0961e+001  1.3378e+001  3.4502e-001 20860 111978,111906,111880
 1.1000e+000 111932  9.2639e+000  1.0601e+001 -3.2920e+000 20860 112110,111828,111906
 1.1000e+000 112004  8.5505e+000  1.4163e+001 -1.9219e+000 20860 112110,111906,111978
 1.1000e+000 112136  9.9098e+000  1.4165e+001 -2.5156e+000 20860 111854,111828,112110
 1.1000e+000 112159  9.6720e+000  1.8691e+001 -1.3610e+000 20860 111854,112110,111978
 1.1000e+000 112407  6.1009e-001  5.8531e+000 -5.9997e+000 20320 112182,112286,112208
 1.1000e+000 112384  1.0902e+001  1.3408e+001 -1.0208e+001 20320 112182,112312,112286
 1.1000e+000 112361  7.9728e+000  9.3955e+000 -4.1646e+000 20320 112208,112286,112260
 1.1000e+000 112338 -1.2569e+001  1.1310e+001 -9.4712e+000 20320 112208,112260,112234
 1.1000e+000 112655  3.4879e+000 -1.2545e+001  3.0713e+000 19916 112508,112560,112534
 1.1000e+000 112632  1.6883e+000 -9.2707e+000  2.8795e+000 19916 112430,112560,112508
 1.1000e+000 112609 -4.1956e-001 -1.9857e+001  4.9898e+000 19916 112430,112508,112456
 1.1000e+000 112586  5.2165e+000 -5.8603e+000  1.7750e+000 19916 112456,112508,112482
 1.1000e+000 112807 -1.5951e+001  4.8881e+000 -4.4879e-001 19626 112680,112732,112706
 1.1000e+000 112784 -1.0959e+001  2.4881e+000 -3.2015e+000 19626 112680,112758,112732
 1.1000e+000 113008 -1.2264e+001 -7.5617e+000  3.8156e+000 19165 112858,112936,112884
 1.1000e+000 112985 -1.6181e+001 -1.5956e+001  2.2697e+000 19165 112832,112936,112858
 1.1000e+000 112962 -9.1125e+000 -6.5628e+000  1.7446e+000 19165 112884,112936,112910
 1.1000e+000 113209 -7.1026e+000  1.6046e+000  1.5636e-001 18596 113033,113085,113059
 1.1000e+000 113186 -6.1263e-001  2.6386e+000 -1.4442e+000 18596 113033,113111,113085
 1.1000e+000 113163 -3.6630e+000 -1.2802e-001  1.3738e-001 18596 113033,113137,113111
 1.1000e+000 113481 -4.5562e+000  4.1736e-001  6.9566e-001 18348 113256,113308,113282
 1.1000e+000 113458  7.0126e-001  1.9258e+000 -8.6050e-002 18348 113256,113386,113308
 1.1000e+000 113435  1.0368e+000  1.5575e+000  5.9556e-001 18348 113308,113386,113360
 1.1000e+000 113412  2.7733e+000  8.1456e-001  1.3652e-001 18348 113308,113360,113334
 1.1000e+000 113753  2.0372e+000  1.2013e+000  5.3762e-002 17830 113554,113606,113580
 1.1000e+000 113730  3.7889e+000  1.2245e+000  2.7381e-001 17830 113528,113606,113554
 1.1000e+000 113707  4.3528e+000  2.5802e+000  4.9266e-001 17830 113528,113658,113606
 1.1000e+000 113684  4.1012e+000  1.4001e+000  8.6183e-002 17830 113606,113658,113632
 1.1000e+000 113954  1.5997e+001  1.7206e+000 -5.2783e+000 17326 113778,113830,113804
 1.1000e+000 113931  3.0199e+001 -1.4841e+001 -8.8766e+000 17326 113778,113882,113830
 1.1000e+000 113908  3.2056e+001 -7.7047e+000 -9.2921e+000 17326 113830,113882,113856
 1.1000e+000 114106  4.1815e+000  1.5568e+000  7.1528e-002 16870 113979,114031,114005
 1.1000e+000 114083  4.4494e+000  1.9323e+000 -4.7751e-002 16870 113979,114057,114031
 1.1000e+000 114461  3.1062e+000  2.2941e+001 -1.3178e+001 16266 114236,114288,114262
 1.1000e+000 114438  5.3468e+000  4.0805e+000 -2.2370e+000 16266 114236,114366,114288
 1.1000e+000 114415  8.2977e+000  7.1181e+000  2.5451e+000 16266 114288,114340,114314
 1.1000e+000 114392  9.8048e+000  7.0611e+000 -4.0368e-002 16266 114288,114366,114340
 1.1000e+000 114562 -3.0518e+001  1.6072e+001  0.0000e+000 15830 114484,114536,114510
 1.1000e+000 114663  4.0394e+000 -8.9471e+000 -2.5392e+000 15151 114585,114637,114611
 1.1000e+000 114886  1.8184e+001  1.4020e+001  4.6040e+000 417 114762,114814,114788
 1.1000e+000 114863  1.5367e+001  7.9719e+000  3.8245e+000 417 114710,114814,114762
 1.1000e+000 114840  1.3775e+001  7.5301e+000  3.9092e+000 417 114710,114762,114736
 1.2000e+000 66549 -1.6613e+000  7.4393e-002 -4.2482e-001 66104 66350,66454,66428
 1.2000e+000 66526  6.1289e-002  6.9760e-001 -4.4126e-002 66104 66324,66454,66350
 1.2000e+000 66503 -6.0342e-001  3.8696e+000 -8.1280e-001 66104 66350,66428,66402
 1.2000e+000 66480  2.2643e+000 -3.3274e+000 -1.2676e+000 66104 66350,66402,66376
 1.2000e+000 66947 -2.8178e-001  1.5943e+000 -8.1398e-001 65906 66699,66829,66803
 1.2000e+000 66924  7.0050e-001  8.3107e-001  1.0049e-001 65906 66673,66829,66699
 1.2000e+000 66901  2.6701e+000  3.2015e-002  8.5364e-001 65906 66725,66777,66751
 1.2000e+000 66878 -4.1458e+000  2.1171e+000  9.8601e-001 65906 66725,66803,66777
 1.2000e+000 66855  2.8483e+000 -8.1006e-001 -1.0210e+000 65906 66699,66803,66725
 1.2000e+000 67146 -4.2284e-001  6.3009e-001  1.0526e-002 65708 67022,67074,67048
 1.2000e+000 67123  9.1804e-001  1.1862e+000 -2.6700e-001 65708 66970,67074,67022
 1.2000e+000 67100 -3.5294e+000 -1.1333e+000  5.4510e-001 65708 66970,67022,66996
 1.2000e+000 67477 -1.8618e+000 -2.1068e+000 -3.6894e+000 65418 67278,67356,67330
 1.2000e+000 67454 -7.9869e-002  5.6532e+000 -2.2151e+000 65418 67278,67382,67356
 1.2000e+000 67431 -9.9073e-001  2.0431e+000 -7.3040e+000 65418 67278,67330,67304
 1.2000e+000 67408 -1.9948e-001  9.5265e-001 -3.1173e+000 65418 67252,67382,67278
 1.2000e+000 68111 -1.2155e+000  9.3783e-001 -9.8755e-001 65014 67791,67921,67869
 1.2000e+000 68088  9.8450e-001  1.9186e+000 -1.5662e+000 65014 67765,67921,67791
 1.2000e+000 68065 -1.4939e+000 -2.7132e+000 -1.4172e+000 65014 67869,67921,67895
 1.2000e+000 68042  2.3612e-001  1.5358e+000 -1.3829e+000 65014 67765,67947,67921
 1.2000e+000 68019  3.1879e+000 -9.4260e-001 -3.7173e+000 65014 67791,67869,67817
 1.2000e+000 67996  6.2976e+000 -2.5463e+000 -1.2332e+000 65014 67817,67869,67843
 1.2000e+000 67973  3.0451e+000  3.3260e+000 -5.0462e-001 65014 67739,67947,67765
 1.2000e+000 68359 -1.6437e+000  3.2519e+000  1.2181e+000 64816 68186,68238,68212
 1.2000e+000 68336  3.3799e-001  1.3828e+000  9.0561e-001 64816 68186,68264,68238
 1.2000e+000 68313 -1.8117e-001  1.0860e+000  8.0032e-002 64816 68160,68264,68186
 1.2000e+000 68290  3.5176e-001  4.8497e-001  9.1309e-001 64816 68134,68264,68160
 1.2000e+000 68509 -1.0462e+000 -1.1388e+000  7.4289e-001 64362 68864,68532,68434
 1.2000e+000 68486 -1.8314e-001  3.5488e-001  2.3251e-001 64362 68532,68408,68382
 1.2000e+000 68558 -3.5885e+000 -9.6910e-001  2.0409e+000 64362 68736,68532,68460
 1.2000e+000 68581 -3.4003e-001  2.1718e+000  2.6972e-001 64362 68604,68532,68382
 1.2000e+000 68630 -2.9700e-002 -2.8583e-001  1.8180e+000 64362 68460,68532,68604
 1.2000e+000 68762 -1.8861e+000 -1.0616e+000  2.2102e+000 64362 68434,68532,68736
 1.2000e+000 68890 -3.1035e-001  3.7312e-001  1.0721e+000 64362 68408,68532,68864
 1.2000e+000 69168 -1.4128e+000  3.8128e+000  1.2366e+000 64164 69018,69070,69044
 1.2000e+000 69145 -5.2478e-001 -9.7277e-001  1.2279e+000 64164 68992,69070,69018
 1.2000e+000 69122 -1.8420e-001 -1.1880e+000  3.9660e+000 64164 68992,69096,69070
 1.2000e+000 69367  3.1632e+000  1.4146e-004  3.5338e-001 63966 69462,69390,69269
 1.2000e+000 69344 -3.6128e+000 -1.0065e+001  2.4461e+000 63966 69390,69243,69217
 1.2000e+000 69321 -1.5840e+000 -8.1626e+000 -1.8609e+000 63966 69191,69295,69217
 1.2000e+000 69416  7.4837e+000 -6.0821e+000 -2.0539e+000 63966 69295,69269,69390
 1.2000e+000 69439  9.6450e-001 -8.4059e+000 -1.7290e+000 63966 69295,69390,69217
 1.2000e+000 69488 -1.0194e+000 -8.7977e+000 -1.1549e+000 63966 69243,69390,69462
 1.2000e+000 69900 -3.9924e-001  2.7149e+000  3.2131e+000 63676 69701,69779,69727
 1.2000e+000 69877 -4.6418e-001  3.3664e+000  2.6928e+000 63676 69675,69779,69701
 1.2000e+000 69854  2.2801e+000  2.2151e+000  2.5168e+000 63676 69675,69805,69779
 1.2000e+000 69831  3.0593e+000  7.6635e+000  5.1628e+000 63676 69727,69779,69753
 1.2000e+000 70050 -7.4249e-001 -2.8056e+000  1.5754e+000 63472 70073,69949,69923
 1.2000e+000 70027 -8.4110e-001 -3.9228e+000  9.8494e-001 63472 70073,69923,70001
 1.2000e+000 70099 -1.5775e-001 -3.6403e+000  2.0520e+000 63472 69975,69949,70073
 1.2000e+000 70122 -1.9859e-001 -4.7110e+000  1.5553e+000 63472 69975,70073,70001
 1.2000e+000 70321  3.6610e-001 -4.0024e-001  7.1279e-001 63274 70145,70223,70171
 1.2000e+000 70298 -6.8494e-002 -7.6678e-001  4.3123e-001 63274 70145,70249,70223
 1.2000e+000 70275  6.8224e-001  2.2188e+000  1.5401e-001 63274 70171,70223,70197
 1.2000e+000 70593  1.7346e+000 -5.2964e-001  2.4421e+000 63076 70368,70472,70420
 1.2000e+000 70570  1.1253e-001 -8.4327e+000  1.1432e+000 63076 70368,70498,70472
 1.2000e+000 70547  3.5758e+000 -8.0755e+000 -2.6708e+000 63076 70420,70472,70446
 1.2000e+000 70524  1.1055e+000 -2.1469e+000  6.5846e+000 63076 70368,70420,70394
 1.2000e+000 70843 -4.6260e+000 -1.2729e+001 -2.0646e+000 62736 70866,70644,70618
 1.2000e+000 70820 -2.5138e+000 -1.5107e+001 -3.2335e+000 62736 70866,70618,70748
 1.2000e+000 70797  4.4291e+000 -1.0927e+001  1.6689e+000 62736 70644,70722,70696
 1.2000e+000 70774  3.9435e+000 -6.3015e+000  2.9004e+000 62736 70644,70696,70670
 1.2000e+000 70892 -2.5739e+000 -1.0498e+001 -8.1471e-001 62736 70722,70644,70866
 1.2000e+000 70915 -2.0576e+000 -1.3844e+001 -2.4259e+000 62736 70722,70866,70748
 1.2000e+000 71018 -1.0300e+000 -1.0885e-001  3.8337e-001 62516 70940,70992,70966
 1.2000e+000 71219 -1.2441e+000  2.2260e+000  3.8567e+000 62226 71069,71147,71095
 1.2000e+000 71196 -1.2378e+000  1.2367e+000  2.2667e+000 62226 71043,71147,71069
 1.2000e+000 71173  5.1555e+000 -1.7092e+000  2.1395e+000 62226 71095,71147,71121
 1.2000e+000 71857  2.2903e+000  3.2595e+000  4.6413e-001 61708 71511,71693,71667
 1.2000e+000 71834  2.3288e+000  3.6209e+000 -4.2133e-001 61708 71485,71693,71511
 1.2000e+000 71811  3.1778e+000 -5.2853e-001 -1.3661e-001 61708 71880,71537,71511
 1.2000e+000 71788  2.8002e+000  1.9161e+000 -1.1947e+000 61708 71880,71511,71667
 1.2000e+000 71765  6.6857e+000 -2.6723e+000 -2.6162e+000 61708 71537,71615,71589
 1.2000e+000 71742  2.2045e+000  5.3540e+000  2.4512e+000 61708 71615,71667,71641
 1.2000e+000 71719  7.1705e-001 -5.8636e+000 -1.1570e+000 61708 71537,71589,71563
 1.2000e+000 71906  3.4412e+000 -2.4558e+000 -2.0204e-001 61708 71615,71537,71880
 1.2000e+000 71929  2.6126e+000 -5.3826e-001 -1.1806e+000 61708 71615,71880,71667
 1.2000e+000 72226 -6.1566e+000  5.8217e+000  1.2712e+000 61204 72249,72056,72004
 1.2000e+000 72203 -9.6249e+000  4.6995e-001 -2.6116e-001 61204 72249,72004,71978
 1.2000e+000 72180 -3.1154e+000 -2.3602e+000  7.4316e-001 61204 71978,72108,72082
 1.2000e+000 72157  2.9939e+000  1.4090e+001  7.4699e+000 61204 72004,72056,72030
 1.2000e+000 72134 -3.3663e+000 -1.1248e+000  5.5920e-001 61204 71952,72108,71978
 1.2000e+000 72275 -3.1980e+000  1.5832e+000  3.7024e+000 61204 72082,72056,72249
 1.2000e+000 72298 -5.4816e+000 -1.2779e+000  2.7012e+000 61204 72082,72249,71978
 1.2000e+000 72757 -5.3057e+000  2.9174e+000  6.5008e+000 60800 72483,72613,72509
 1.2000e+000 72734 -5.4842e+000 -6.5182e+000  5.6549e+000 60800 72483,72639,72613
 1.2000e+000 72711  4.4409e+000  8.8944e+000  9.4825e+000 60800 72561,72613,72587
 1.2000e+000 72688 -5.4258e+000  2.7339e+000  6.6550e+000 60800 72509,72613,72561
 1.2000e+000 72665 -2.9346e+000  8.6090e+000  6.7328e+000 60800 72509,72561,72535
 1.2000e+000 72907 -2.9072e+000  6.6490e+000 -1.6142e+000 60552 72780,72832,72806
 1.2000e+000 72884  2.7856e+000  1.5182e+001 -4.0812e+000 60552 72780,72858,72832
 1.2000e+000 73464  5.3096e+000 -2.5583e-001  9.5562e+000 60240 73487,73222,73196
 1.2000e+000 73441  7.5630e+000  7.5017e+000  1.0547e+001 60240 73559,73487,73196
 1.2000e+000 73418  6.6116e-001  1.2670e+001  1.0754e+001 60240 73559,73196,73170
 1.2000e+000 73395  8.0425e+000 -1.0605e+001  6.1952e+000 60240 73222,73274,73248
 1.2000e+000 73372  5.2200e+000  8.6674e-001  5.3815e+000 60240 73118,73300,73274
 1.2000e+000 73349  5.1801e+000 -4.4942e+000  6.2890e+000 60240 73092,73300,73118
 1.2000e+000 73326 -9.2031e+000  6.7706e+000  1.9570e+001 60240 73118,73170,73144
 1.2000e+000 73513  3.5840e+000  3.3299e-001  6.3377e+000 60240 73274,73222,73487
 1.2000e+000 73536  4.4063e+000  2.2771e+000  6.4059e+000 60240 73274,73487,73118
 1.2000e+000 73585 -2.2191e-001 -6.5779e-002  7.2157e+000 60240 73118,73487,73559
 1.2000e+000 73608 -6.1017e+000  6.0887e+000  7.7835e+000 60240 73118,73559,73170
 1.2000e+000 73758 -2.3825e+001 -9.5902e+000 -5.3987e+000 59871 73657,73709,73683
 1.2000e+000 73735 -4.8714e+000 -2.4291e+001 -1.7591e+000 59871 73631,73709,73657
 1.2000e+000 74187 -6.6557e+000  9.7804e+000  1.8056e+000 59474 74210,73890,73864
 1.2000e+000 74164 -5.3838e+000  7.0101e+000  2.0249e+000 59474 74210,73864,74046
 1.2000e+000 74141 -8.4328e+000  8.6269e+000  9.6756e-001 59474 73890,73942,73916
 1.2000e+000 74118 -1.0313e+001  9.0533e+000  1.4946e+000 59474 73890,73994,73942
 1.2000e+000 74095 -6.9664e+000  1.0213e+001  7.2513e+000 59474 73994,74046,74020
 1.2000e+000 74072 -7.1462e+000  6.5609e+000  3.6805e+000 59474 73942,73994,73968
 1.2000e+000 74236 -5.9077e+000  1.1151e+001  2.1630e+000 59474 73994,73890,74210
 1.2000e+000 74259 -3.9163e+000  9.4123e+000  2.6552e+000 59474 73994,74210,74046
 1.2000e+000 74716 -8.4751e+000 -1.5135e+001 -9.4042e+000 58770 74468,74598,74494
 1.2000e+000 74693 -1.4740e+000 -1.0534e+001 -7.3948e+000 58770 74442,74598,74468
 1.2000e+000 74670 -1.6164e+001 -2.5640e+001 -1.7083e+001 58770 74494,74572,74520
 1.2000e+000 74647 -3.9561e+000 -1.0621e+001 -7.1280e+000 58770 74494,74598,74572
 1.2000e+000 74624  1.7111e+000 -6.3361e+000 -4.6608e+000 58770 74520,74572,74546
 1.2000e+000 75222 -4.1807e+000  1.0948e+001  5.5036e+000 58266 74951,75081,75029
 1.2000e+000 75199  3.4475e+000  1.0685e+001  8.7243e+000 58266 74925,75081,74951
 1.2000e+000 75176 -1.1068e+001  1.9442e+000  9.2661e+000 58266 75029,75081,75055
 1.2000e+000 75153 -1.1403e+001  1.6032e+001  6.3154e+000 58266 74951,75003,74977
 1.2000e+000 75130 -7.8024e+000  9.0397e+000  7.9392e+000 58266 74951,75029,75003
 1.2000e+000 75107 -1.1445e+001 -9.0045e-001  1.8203e+000 58266 74899,75081,74925
 1.2000e+000 75421 -4.4767e-002  1.5261e+001  4.3963e+000 57826 75444,75297,75245
 1.2000e+000 75398  5.1551e+000  1.0472e+001  5.6991e+000 57826 75444,75245,75349
 1.2000e+000 75375 -2.0242e+000  1.7632e+001  3.4979e+000 57826 75516,75297,75271
 1.2000e+000 75470  2.8413e+000  1.5761e+001  7.5649e+000 57826 75323,75297,75444
 1.2000e+000 75493  1.0124e+001  1.5294e+001  1.0163e+001 57826 75323,75444,75349
 1.2000e+000 75542  7.7696e-001  1.3824e+001  2.7432e+000 57826 75245,75297,75516
 1.2000e+000 76257  1.4546e+001  2.3805e+001  2.4022e+000 57422 76280,76093,76067
 1.2000e+000 76234  1.2281e+001  1.2675e+001  5.1646e+000 57422 75885,76093,75911
 1.2000e+000 76211  1.3802e+001  2.2596e+001  1.1042e+000 57422 76424,76280,76067
 1.2000e+000 76188  1.9832e+001  2.3009e+001  5.5135e+000 57422 76352,75937,75911
 1.2000e+000 76165  1.0727e+001  2.1307e+001 -4.5974e-001 57422 76424,76067,76015
 1.2000e+000 76142  1.7084e+001  4.7175e+001  7.6352e+000 57422 76015,76067,76041
 1.2000e+000 76119  2.8886e+001  2.2994e+001  1.6942e+000 57422 75963,76015,75989
 1.2000e+000 76306  1.2223e+001  1.7029e+001  6.6291e+000 57422 75911,76093,76280
 1.2000e+000 76329  2.0960e+001  2.1461e+001  4.9373e+000 57422 76352,75911,76280
 1.2000e+000 76378  2.1767e+001  2.5431e+001  6.8555e+000 57422 75963,75937,76352
 1.2000e+000 76401  2.2318e+001  2.3754e+001  6.0445e+000 57422 75963,76352,76280
 1.2000e+000 76450  1.8946e+001  1.9758e+001  3.7528e-001 57422 75963,76280,76424
 1.2000e+000 76473  1.4580e+001  1.7921e+001 -7.7234e-001 57422 75963,76424,76015
 1.2000e+000 76949 -1.2513e+001 -2.6278e+000  1.0086e+001 56904 76972,76707,76681
 1.2000e+000 76926 -7.4819e+000  1.3984e+001  2.4630e+000 56904 77044,76972,76681
 1.2000e+000 76903 -6.1540e+000  2.3473e+001  2.2309e+000 56904 77044,76681,76629
 1.2000e+000 76880 -6.2582e-001  1.6350e+000  3.4913e+000 56904 76707,76785,76759
 1.2000e+000 76857  4.0490e+000  6.1689e+000 -5.7281e+000 56904 76577,76785,76603
 1.2000e+000 76834 -2.5830e+000 -1.7742e-001  3.6833e-001 56904 76707,76759,76733
 1.2000e+000 76811  4.3807e+000  1.9983e+001  1.5210e+001 56904 76629,76681,76655
 1.2000e+000 76998 -3.1957e-001  5.2001e+000  3.1852e+000 56904 76785,76707,76972
 1.2000e+000 77021 -5.9018e+000  5.8574e+000 -2.2266e+000 56904 76785,76972,76603
 1.2000e+000 77070 -4.6504e+000  4.9134e+000 -1.7998e+000 56904 76603,76972,77044
 1.2000e+000 77093 -4.3370e+000  1.1871e+001 -5.3324e-001 56904 76603,77044,76629
 1.2000e+000 77471 -1.1163e+001  1.5814e+001 -1.1331e+001 56542 77566,77494,77275
 1.2000e+000 77448 -3.9123e+000  1.8753e+001 -4.4569e+000 56542 77494,77223,77353
 1.2000e+000 77425 -8.9909e+000  1.5026e+001 -1.8232e+001 56542 77566,77275,77249
 1.2000e+000 77402  6.9303e+000  1.9882e+001  3.3073e+000 56542 77197,77353,77223
 1.2000e+000 77379 -8.5715e+000  2.3321e+001 -1.7434e+001 56542 77275,77327,77301
 1.2000e+000 77520 -7.1784e+000  3.1970e+001 -1.0744e+001 56542 77327,77275,77494
 1.2000e+000 77543 -1.8143e+001  1.9421e+001 -4.2444e+000 56542 77327,77494,77353
 1.2000e+000 77592  2.6544e+000  2.0788e+001 -6.8584e+000 56542 77223,77494,77566
 1.2000e+000 77615 -1.5189e+000  1.2943e+001 -1.4796e+001 56542 77223,77566,77249
 1.2000e+000 77814  1.2354e+001  1.9912e+001 -1.4889e+001 56038 77837,77690,77664
 1.2000e+000 77791  1.4783e+001  1.9754e+001 -1.2226e+001 56038 77837,77664,77742
 1.2000e+000 77768  1.6560e+001  9.3779e+000 -1.2243e+001 56038 77638,77742,77664
 1.2000e+000 77863  1.2779e+001  2.2109e+001 -1.3355e+001 56038 77716,77690,77837
 1.2000e+000 77886  1.5326e+001  2.1772e+001 -1.0693e+001 56038 77716,77837,77742
 1.2000e+000 78345  8.1125e+000  2.0653e+001  1.9130e+001 55534 78071,78123,78097
 1.2000e+000 78322 -5.3733e+000  8.1692e+000  7.8057e+000 55534 78071,78201,78123
 1.2000e+000 78299 -7.0215e+000  1.2283e+001  8.7264e+000 55534 78071,78227,78201
 1.2000e+000 78276  1.1686e+001  1.3998e+001  1.3694e+001 55534 78123,78175,78149
 1.2000e+000 78253  1.1113e+001  1.6793e+001  1.1129e+001 55534 78123,78201,78175
 1.2000e+000 78802 -1.2508e+001  1.9611e+001 -6.0223e-001 55030 78825,78632,78606
 1.2000e+000 78779 -3.2267e+000  2.2762e+001 -4.7280e+000 55030 78897,78825,78606
 1.2000e+000 78756 -1.3572e+001  3.1467e+001 -1.1116e+001 55030 78897,78606,78580
 1.2000e+000 78733  4.6332e+000  1.4959e+001 -1.3375e+000 55030 78554,78684,78658
 1.2000e+000 78710  2.0836e+000  8.7724e+000 -2.3511e+000 55030 78528,78684,78554
 1.2000e+000 78851 -1.5959e+000  3.3821e+001  5.1529e+000 55030 78658,78632,78825
 1.2000e+000 78874 -5.2658e+000  1.3320e+001 -4.0329e+000 55030 78658,78825,78554
 1.2000e+000 78923 -1.3824e+001  8.2065e+000 -1.0757e+001 55030 78554,78825,78897
 1.2000e+000 78946 -2.0109e+001  1.6407e+001 -1.6970e+001 55030 78554,78897,78580
 1.2000e+000 79403  6.1527e+000  1.2422e+001  5.3823e+000 54426 79426,79233,79155
 1.2000e+000 79380  1.3889e+001  1.2115e+001  2.1757e+000 54426 79426,79155,79129
 1.2000e+000 79357 -7.3133e+000  1.7698e+001 -1.7790e+000 54426 79233,79285,79259
 1.2000e+000 79334  7.4165e+000  1.5277e+001  1.1144e+001 54426 79181,79233,79207
 1.2000e+000 79311  6.7701e+000  1.2175e+001  5.3824e+000 54426 79155,79233,79181
 1.2000e+000 79452  4.1446e+000  1.1373e+001  8.0333e+000 54426 79285,79233,79426
 1.2000e+000 79475  8.5095e+000  7.5562e+000  5.3940e+000 54426 79285,79426,79129
 1.2000e+000 79932 -5.6164e+000  1.2069e+001  9.2585e+000 53915 79658,79762,79684
 1.2000e+000 79909 -1.3104e+001  6.6996e-001  1.2634e+001 53915 79658,79814,79762
 1.2000e+000 79886 -8.6497e+000 -2.2517e+000  2.0334e+001 53915 79762,79814,79788
 1.2000e+000 79863 -9.6353e+000  1.4962e+001  1.6519e+001 53915 79710,79762,79736
 1.2000e+000 79840 -1.1674e+001  8.1236e+000  1.1364e+001 53915 79684,79762,79710
 1.2000e+000 80033 -8.9685e+000  7.3746e+000  2.9766e-002 53667 79955,80007,79981
 1.2000e+000 80401 -1.4716e+001 -1.8129e+000 -2.6121e+000 53263 80104,80260,80234
 1.2000e+000 80378 -1.0066e+001  7.1779e+000  1.6278e+000 53263 80078,80260,80104
 1.2000e+000 80355 -9.2541e+000 -3.2356e+000 -7.9071e-001 53263 80104,80234,80130
 1.2000e+000 80332 -9.1635e+000 -3.7956e-001 -2.5528e-001 53263 80130,80208,80182
 1.2000e+000 80309 -8.3918e+000 -1.7552e+000  8.9981e-001 53263 80130,80234,80208
 1.2000e+000 80286 -8.6260e+000  3.9083e+000  1.5342e+000 53263 80130,80182,80156
 1.2000e+000 80911 -1.8416e+001 -5.5817e+000 -4.8890e+000 52965 80640,80770,80744
 1.2000e+000 80888 -5.6060e+000  7.0662e+000  2.4151e+000 52965 80614,80770,80640
 1.2000e+000 80865 -8.9391e+000  5.9786e+000  1.6382e+000 52965 80640,80744,80666
 1.2000e+000 80842 -3.0865e+000  3.9640e+000 -2.3059e+000 52965 80588,80770,80614
 1.2000e+000 80819 -6.6097e+000  2.0395e+000  1.7474e+000 52965 80666,80718,80692
 1.2000e+000 80796 -1.4109e+001 -1.0119e+000 -8.6505e-001 52965 80666,80744,80718
 1.2000e+000 81262 -5.5994e+001  4.8360e+000  1.5875e+000 52561 81037,81141,81063
 1.2000e+000 81239 -5.9794e+001 -8.4111e+000  2.4375e+000 52561 81037,81167,81141
 1.2000e+000 81216 -9.9456e+001  2.2326e+001 -3.6622e+000 52561 81063,81115,81089
 1.2000e+000 81193 -1.0553e+002 -9.8018e+000 -1.2912e+001 52561 81063,81141,81115
 1.2000e+000 81719 -1.6339e+001  5.6867e-001  2.0267e+000 51900 81445,81523,81471
 1.2000e+000 81696 -1.6106e+001 -2.6450e+000 -5.1913e-001 51900 81445,81575,81523
 1.2000e+000 81673 -1.2367e+001  8.8539e-001 -2.0564e+000 51900 81445,81601,81575
 1.2000e+000 81650 -8.7610e+000  8.2160e+000  3.7088e+000 51900 81523,81575,81549
 1.2000e+000 81627 -6.3255e+000  3.2776e+000  2.0814e+000 51900 81471,81523,81497
 1.2000e+000 82323 -3.4818e+000  6.6692e+000  6.4505e+000 51317 82418,82346,82032
 1.2000e+000 82300 -1.1376e+001  3.9143e+000  6.0715e+000 51317 82490,82346,81954
 1.2000e+000 82277 -2.2107e+000  9.2352e+000  6.9755e+000 51317 82418,82032,82006
 1.2000e+000 82254 -1.6484e+001 -7.5979e-001  1.0521e+001 51317 82490,81954,81928
 1.2000e+000 82231 -8.3738e+000 -2.1010e+000  7.9052e+000 51317 82058,82110,82084
 1.2000e+000 82208 -1.9352e+001  1.5365e+001  3.6966e+000 51317 81928,82136,82110
 1.2000e+000 82185  1.3079e+001  9.5943e+000  9.7954e+000 51317 81954,82006,81980
 1.2000e+000 82162 -2.7145e+001  1.2035e+001  4.0873e+000 51317 81902,82136,81928
 1.2000e+000 82372 -9.1808e+000 -2.0102e+000  3.8589e+000 51317 82058,82032,82346
 1.2000e+000 82395 -9.1944e+000  7.7944e+000  2.9028e+000 51317 82058,82346,82110
 1.2000e+000 82444 -3.8197e+000  5.0622e+000  3.0817e+000 51317 81954,82346,82418
 1.2000e+000 82467 -2.6638e+000  7.4871e+000  3.5700e+000 51317 81954,82418,82006
 1.2000e+000 82516 -1.1550e+001  7.9926e+000  3.4115e+000 51317 82110,82346,82490
 1.2000e+000 82539 -1.1481e+001  6.6823e+000  6.9174e+000 51317 82110,82490,81928
 1.2000e+000 83015 -3.9008e+000  1.2795e-002  6.8233e-002 50813 82669,82747,82695
 1.2000e+000 82992 -1.0612e+001  2.1913e+000  1.1683e+001 50813 83038,82669,82851
 1.2000e+000 82969 -1.3126e+001  1.3875e+000  1.0721e+001 50813 83038,82851,82799
 1.2000e+000 82946 -1.2995e+001 -4.8944e-001  1.3838e+001 50813 82747,82799,82773
 1.2000e+000 82923 -3.5778e+000  3.9385e+000  1.0796e+001 50813 82643,82851,82669
 1.2000e+000 82900 -1.2368e+001 -4.4922e+000  7.3889e+000 50813 82799,82851,82825
 1.2000e+000 82877 -3.5061e+000 -2.0593e-002 -6.5328e-001 50813 82695,82747,82721
 1.2000e+000 83064 -6.5157e+000  1.5047e+000  1.2752e+001 50813 82747,82669,83038
 1.2000e+000 83087 -1.0019e+001  9.8565e-002  1.1819e+001 50813 82747,83038,82799
 1.2000e+000 83286  6.8273e+000 -5.6873e+000 -3.7542e+000 50352 83309,83162,83136
 1.2000e+000 83263  3.8259e+000  8.3091e+000  5.5781e-001 50352 83511,83309,83136
 1.2000e+000 83240  6.3102e+000  1.0948e+001  2.2404e+000 50352 83511,83136,83381
 1.2000e+000 83335  1.7539e+001  7.7410e+000 -9.4432e+000 50352 83188,83162,83309
 1.2000e+000 83358  1.3126e+000  5.7597e+000 -5.3933e+000 50352 83188,83309,83214
 1.2000e+000 83407  8.3377e+000  2.8269e+001  3.3189e+000 50352 83110,83214,83381
 1.2000e+000 83537  5.4744e-001  1.0637e+001 -1.4176e+000 50352 83214,83309,83511
 1.2000e+000 83560  1.1459e+000  1.0390e+001 -3.2692e-001 50352 83214,83511,83381
 1.2000e+000 83889 -1.1186e+001 -4.6601e+000  3.8405e-002 49548 83716,83794,83742
 1.2000e+000 83866 -9.2793e+000 -3.3604e+000  1.5307e+000 49548 83690,83794,83716
 1.2000e+000 83843 -1.4373e+001 -8.3402e+000 -6.2516e-001 49548 83664,83794,83690
 1.2000e+000 83820 -7.4534e+000 -3.9197e+000 -2.7728e-001 49548 83742,83794,83768
 1.2000e+000 84137  1.1828e+001  1.2978e+001  7.6277e-001 49208 84160,84016,83938
 1.2000e+000 84114  2.2131e+001  3.6482e+001 -6.0177e+000 49208 84160,83938,83912
 1.2000e+000 84091  1.8110e+001  1.0495e+001 -1.9309e+000 49208 83938,84016,83964
 1.2000e+000 84068  1.1890e+001  2.0322e+000 -4.9674e+000 49208 83964,84016,83990
 1.2000e+000 84186  1.8411e+001  2.4472e+001 -1.1562e+001 49208 84042,84016,84160
 1.2000e+000 84209  2.1954e+001  3.7841e+001 -1.7614e+001 49208 84042,84160,83912
 1.2000e+000 84796 -1.5921e+001 -1.5342e+000  1.7360e-001 48861 84499,84629,84551
 1.2000e+000 84773 -1.0502e+001  5.5870e+000  2.7308e+000 48861 84499,84655,84629
 1.2000e+000 84750 -1.4986e+001  1.5346e+000  1.9441e+000 48861 84551,84629,84577
 1.2000e+000 84727 -3.9613e-001  6.8124e-001  8.9146e-001 48861 84577,84629,84603
 1.2000e+000 84704 -8.7113e+000 -5.0849e-001  1.1690e+000 48861 84499,84551,84525
 1.2000e+000 84681 -9.3722e+000  6.9876e+000 -1.7192e+000 48861 84473,84655,84499
 1.2000e+000 85351 -9.9130e-001  4.9854e+000  3.1341e+000 48457 85374,85031,85005
 1.2000e+000 85328  5.4697e+000  9.0612e+000  1.3588e-002 48457 85374,85005,85161
 1.2000e+000 85305  1.4198e+001  6.5807e+000  3.9864e+000 48457 85446,85057,85031
 1.2000e+000 85282 -3.6960e+000  4.2702e+000  1.8194e+000 48457 85005,85187,85161
 1.2000e+000 85259  3.1147e-002  7.3931e+000 -2.8449e+000 48457 85083,85161,85109
 1.2000e+000 85236 -1.1376e+000  3.2741e+000 -6.3948e-002 48457 84979,85187,85005
 1.2000e+000 85213  1.8969e+000  1.0196e+001 -3.9832e+000 48457 85109,85161,85135
 1.2000e+000 85400  1.0122e+001  9.7435e+000  2.8535e+000 48457 85446,85031,85374
 1.2000e+000 85423  1.4057e+000  6.9112e+000 -7.9019e-001 48457 85083,85374,85161
 1.2000e+000 85472  9.3021e+000  5.0886e+000  2.7821e-001 48457 85083,85057,85446
 1.2000e+000 85495  3.5553e+000  6.0372e+000 -1.4368e+000 48457 85083,85446,85374
 1.2000e+000 86080  1.8032e+001  1.1516e+001  4.1244e+000 48053 86319,86103,85783
 1.2000e+000 86057  1.2088e+001  1.4856e+001  5.0846e+000 48053 86103,85757,85939
 1.2000e+000 86034  7.9103e+000  1.1818e+001 -1.9522e+000 48053 86247,86175,85887
 1.2000e+000 86011  6.7824e+000  1.2377e+001 -4.6220e+000 48053 86247,85887,85835
 1.2000e+000 85988 -1.9160e+000  8.8340e+000 -4.0627e+000 48053 85887,85939,85913
 1.2000e+000 85965  1.2493e+001  9.4826e+000 -8.8053e+000 48053 85835,85887,85861
 1.2000e+000 86129  1.7103e+001  1.4247e+001  4.9011e-001 48053 85809,85783,86103
 1.2000e+000 86152  1.4063e+001  1.4238e+001  6.2982e-001 48053 86175,85809,86103
 1.2000e+000 86201  1.1806e+001  1.3786e+001 -8.3685e-001 48053 85939,85887,86175
 1.2000e+000 86224  1.1929e+001  1.2089e+001 -5.6234e-001 48053 85939,86175,86103
 1.2000e+000 86273  1.4414e+001  1.2536e+001 -9.5071e-001 48053 85809,86175,86247
 1.2000e+000 86296  1.0426e+001  1.1338e+001 -3.4468e+000 48053 85809,86247,85835
 1.2000e+000 86345  2.1202e+001  1.4236e+001  5.4473e+000 48053 85757,86103,86319
 1.2000e+000 86851  9.2551e+000 -3.6579e+000  7.9378e-001 47541 86874,86580,86554
 1.2000e+000 86828  9.7538e+000 -3.3775e+000  2.8826e-001 47541 86946,86874,86554
 1.2000e+000 86805  1.0285e+001 -1.9923e+000  9.4149e-001 47541 86946,86554,86528
 1.2000e+000 86782  1.7691e+001 -3.6354e+000  1.2137e+000 47541 86580,86658,86606
 1.2000e+000 86759  1.8109e+001  4.2327e+000 -5.1840e-001 47541 86528,86710,86684
 1.2000e+000 86736  1.2771e+000  1.1845e+000 -1.2814e+000 47541 86606,86658,86632
 1.2000e+000 86900  9.8654e+000 -4.5961e+000  1.4083e+000 47541 86658,86580,86874
 1.2000e+000 86923  8.9595e+000 -3.7965e+000  1.6390e-001 47541 86658,86874,86684
 1.2000e+000 86972  9.8667e+000 -1.2074e+000  9.1639e-001 47541 86684,86874,86946
 1.2000e+000 86995  1.0116e+001 -7.8243e-001  1.7083e+000 47541 86684,86946,86528
 1.2000e+000 87324 -6.4447e+000  1.9205e+000  3.5983e+000 47044 87151,87203,87177
 1.2000e+000 87301 -8.7694e+000 -1.4356e+000  8.8788e-001 47044 87125,87203,87151
 1.2000e+000 87278 -5.1666e+000 -1.4957e+000  1.2600e+000 47044 87099,87203,87125
 1.2000e+000 87255 -8.5100e+000 -7.6592e+000 -1.6976e+000 47044 87099,87229,87203
 1.2000e+000 87572 -1.0413e+001 -2.3688e+000  2.3858e+000 46697 87595,87425,87373
 1.2000e+000 87549 -1.1443e+001 -2.3924e+000  2.3502e+000 46697 87595,87373,87477
 1.2000e+000 87526 -1.3409e+001 -3.1288e+000  2.8037e+000 46697 87347,87477,87373
 1.2000e+000 87503 -8.2586e+000  2.5120e-001  1.2498e+000 46697 87373,87425,87399
 1.2000e+000 87621 -1.1162e+001 -1.3285e+000  1.6976e+000 46697 87451,87425,87595
 1.2000e+000 87644 -1.3378e+001 -2.1458e+000  2.0731e+000 46697 87451,87595,87477
 1.2000e+000 87794 -1.8541e+001  8.5856e+000 -3.0758e+000 46235 87693,87745,87719
 1.2000e+000 87771 -1.8365e+001 -6.9120e+000  9.4978e-001 46235 87667,87745,87693
 1.2000e+000 88304 -1.7381e+001  2.1721e+000  3.2577e+000 45731 88085,88163,88137
 1.2000e+000 88281 -1.6085e+001 -4.6887e-001  4.5827e+000 45731 88007,88163,88085
 1.2000e+000 88258 -2.3193e+001 -3.9690e+000  3.3179e+000 45731 87981,88163,88007
 1.2000e+000 88235 -1.9095e+001  1.2805e+000  5.4990e+000 45731 88007,88085,88059
 1.2000e+000 88212 -3.4100e+000  7.9584e+000  5.0106e-001 45731 88085,88137,88111
 1.2000e+000 88189 -1.9533e+001  2.8024e-001  5.4223e+000 45731 88007,88059,88033
 1.2000e+000 88682 -1.9447e+001 -4.2999e+000 -1.0290e+000 45312 88434,88512,88486
 1.2000e+000 88659 -3.2495e+001 -2.4270e+001  8.3497e+000 45312 88434,88538,88512
 1.2000e+000 88636 -2.0463e+001 -2.9393e+000  2.0555e+000 45312 88434,88564,88538
 1.2000e+000 88613 -7.9039e+000 -4.1852e+000  6.5709e-001 45312 88434,88486,88460
 1.2000e+000 88590 -2.6084e+001  2.7065e+001  2.8957e+001 45312 88408,88564,88434
 1.2000e+000 88930  1.3901e+001  1.9523e+001 -9.2522e-001 44808 88953,88731,88705
 1.2000e+000 88907  6.6952e+000  1.0695e+001  4.4388e+000 44808 88953,88705,88835
 1.2000e+000 88884  1.2822e+001  3.2767e-001  8.2118e+000 44808 89025,88783,88757
 1.2000e+000 88861  1.2353e+001  3.0022e+000  1.2239e+001 44808 88783,88835,88809
 1.2000e+000 88979  8.6191e-001  1.1467e+001  4.5415e+000 44808 88757,88731,88953
 1.2000e+000 89002  3.6657e+000  3.9770e+000  9.6719e+000 44808 89025,88757,88953
 1.2000e+000 89051  1.5632e+001  4.3627e+000  6.7057e+000 44808 88835,88783,89025
 1.2000e+000 89074  1.2444e+001  1.3979e+001  5.8297e+000 44808 88835,89025,88953
 1.2000e+000 89224 -2.1606e+002 -4.8148e+001  1.1668e+001 44404 89123,89175,89149
 1.2000e+000 89201 -2.1173e+002 -1.8967e+001 -3.1452e+000 44404 89097,89175,89123
 1.2000e+000 89783  1.6089e+001  3.0132e+001 -7.7608e+000 43850 89806,89541,89515
 1.2000e+000 89760  1.1002e+001  1.4336e+001 -2.9220e+000 43850 89806,89515,89463
 1.2000e+000 89737  1.0592e+001  1.5211e+001 -1.1455e+000 43850 89950,89878,89593
 1.2000e+000 89714  8.6506e+000  1.5927e+001  1.6630e+000 43850 89950,89593,89567
 1.2000e+000 89691  1.4361e+001  1.1665e+001  1.9100e+000 43850 89411,89619,89463
 1.2000e+000 89668  2.3148e+001  1.3860e+001 -5.1423e+000 43850 89463,89515,89489
 1.2000e+000 89645  1.6624e+001  1.2160e+001  7.5837e-001 43850 89411,89463,89437
 1.2000e+000 89832  7.8154e+000  2.3190e+001  5.4135e-001 43850 89878,89541,89806
 1.2000e+000 89855  1.4887e+001  1.8714e+001  9.7217e-001 43850 89619,89806,89463
 1.2000e+000 89904  1.0673e+001  8.6152e+000  2.5995e+000 43850 89619,89593,89878
 1.2000e+000 89927  1.2738e+001  1.1326e+001  1.1940e+000 43850 89619,89878,89806
 1.2000e+000 89976  2.3056e+000  1.2126e+001  3.8653e+000 43850 89541,89878,89950
 1.2000e+000 89999 -3.8081e+000  8.0935e+000  7.6212e+000 43850 89541,89950,89567
 1.2000e+000 90247  5.0287e+000  5.1839e+001  9.0660e+000 43488 90022,90074,90048
 1.2000e+000 90224 -9.3295e+000  3.5857e+001  2.7205e+000 43488 90270,90022,90152
 1.2000e+000 90201 -7.0138e+000  2.6074e+001  1.6463e+000 43488 90342,90270,90152
 1.2000e+000 90178 -8.5410e+000  1.4271e+001  1.4300e+001 43488 90342,90152,90126
 1.2000e+000 90296 -6.0262e+000  2.4142e+001  8.1072e+000 43488 90074,90022,90270
 1.2000e+000 90319 -9.1410e+000  2.2794e+001  7.8308e+000 43488 90074,90270,90100
 1.2000e+000 90368 -2.1332e+001  1.2624e+001  1.3954e+001 43488 90100,90270,90342
 1.2000e+000 90391 -2.3004e+001 -8.6463e-001  2.6595e+001 43488 90100,90342,90126
 1.2000e+000 90590 -1.5481e+001 -3.0638e+000 -1.1194e+000 43048 90414,90492,90440
 1.2000e+000 90567 -1.5847e+001 -1.2408e+001  1.3341e+000 43048 90414,90518,90492
 1.2000e+000 90544 -1.8198e+001  3.3026e+000  2.4041e+000 43048 90440,90492,90466
 1.2000e+000 91070 -6.1971e+000 -6.4534e+000 -3.2132e-001 42430 91237,90880,90854
 1.2000e+000 91047 -6.7451e+000 -6.0310e+000  7.2470e-001 42430 90698,90906,90880
 1.2000e+000 91024 -1.1202e+001 -4.5671e+000  2.2787e+000 42430 91093,90750,90698
 1.2000e+000 91001 -8.4133e+000 -6.3049e+000  1.0946e+000 42430 91237,90854,91093
 1.2000e+000 90978 -8.3745e+000 -7.5009e+000  2.5925e+000 42430 91165,90802,90776
 1.2000e+000 90955 -5.4044e+000 -6.1161e+000  2.9571e+000 42430 90802,90854,90828
 1.2000e+000 90932 -1.1578e+001 -4.3420e+000  2.3119e+000 42430 90698,90750,90724
 1.2000e+000 91119 -1.3185e+001 -6.4395e+000  3.9095e+000 42430 90776,90750,91093
 1.2000e+000 91142 -9.4090e+000 -8.0806e+000  2.8801e+000 42430 91165,90776,91093
 1.2000e+000 91191 -8.1466e+000 -7.4738e+000  1.7319e+000 42430 90854,90802,91165
 1.2000e+000 91214 -8.9064e+000 -7.6619e+000  1.9002e+000 42430 90854,91165,91093
 1.2000e+000 91263 -9.6855e+000 -6.2395e+000  3.1749e-001 42430 90698,90880,91237
 1.2000e+000 91286 -1.2073e+001 -6.0588e+000  1.5855e+000 42430 90698,91237,91093
 1.2000e+000 91694  8.1147e+000  1.0614e+001 -5.4982e+000 41769 91469,91573,91495
 1.2000e+000 91671  4.9352e+000  9.6207e+000 -5.5655e+000 41769 91469,91599,91573
 1.2000e+000 91648  1.3033e+001  1.1948e+001 -2.8008e+000 41769 91495,91547,91521
 1.2000e+000 91625  6.4134e+000  1.0079e+001 -5.7667e+000 41769 91495,91573,91547
 1.2000e+000 92040  4.4447e+001  3.8763e+001  1.0381e+001 41379 91769,91873,91847
 1.2000e+000 92017  2.7710e+001  2.7653e+001  4.2944e+000 41379 91743,91873,91769
 1.2000e+000 91994  3.7169e+001  3.9780e+001  9.7696e+000 41379 91769,91847,91795
 1.2000e+000 91971  3.0226e+001  2.6885e+001  5.3636e+000 41379 91743,91899,91873
 1.2000e+000 91948  1.7342e+001  1.9262e+001  1.4864e+000 41379 91717,91899,91743
 1.2000e+000 91925  2.5438e+001  2.8285e+001  1.8064e+000 41379 91795,91847,91821
 1.2000e+000 92597  1.0566e+001  1.1888e+001 -4.3277e+000 40975 92225,92407,92303
 1.2000e+000 92574  4.6817e+000  8.4413e+000 -2.8961e+000 40975 92225,92433,92407
 1.2000e+000 92551  1.0405e+001  6.9596e+000 -6.0672e+000 40975 92225,92303,92277
 1.2000e+000 92528 -1.3684e+000  1.2964e+001 -7.9945e+000 40975 92329,92407,92381
 1.2000e+000 92505 -5.6249e-001  9.3906e+000 -5.2896e+000 40975 92303,92407,92329
 1.2000e+000 92482  1.0764e+001  1.2384e+000 -3.5184e+000 40975 92225,92277,92251
 1.2000e+000 92459 -1.0399e+001  1.1556e+001 -6.3884e+000 40975 92329,92381,92355
 1.2000e+000 93231 -6.9062e+001 -2.0419e+000 -1.1141e+001 40521 92937,92989,92963
 1.2000e+000 93208 -2.4211e+001 -3.6846e+000 -1.9528e+000 40521 93254,92937,92885
 1.2000e+000 93185 -1.8742e+001 -3.6377e+000  1.1931e+000 40521 93254,92885,93067
 1.2000e+000 93162 -1.2867e+001 -8.2970e+000 -6.2439e+000 40521 92885,92937,92911
 1.2000e+000 93139 -1.9131e+001 -3.8858e+000  1.0798e+000 40521 92859,93067,92885
 1.2000e+000 93116 -1.2731e+001 -4.9048e-001  4.3234e-002 40521 92989,93067,93015
 1.2000e+000 93093 -4.6663e+000 -3.4861e+000  4.5802e-002 40521 93015,93067,93041
 1.2000e+000 93280 -2.2762e+001 -8.2394e-001  1.6378e+000 40521 92989,92937,93254
 1.2000e+000 93303 -1.6291e+001 -2.7818e+000  3.9798e+000 40521 92989,93254,93067
 1.2000e+000 93632 -6.4072e+000  8.8242e+000  7.3693e+000 40231 93433,93537,93511
 1.2000e+000 93609 -1.1226e+001  3.6863e+000  5.0076e+000 40231 93407,93537,93433
 1.2000e+000 93586 -4.6683e+000  3.6769e+001 -8.6116e-001 40231 93459,93511,93485
 1.2000e+000 93563 -5.3598e+000  1.2715e+001 -3.7934e+000 40231 93433,93511,93459
 1.2000e+000 94010 -1.9422e+001  1.7424e+001  1.8168e+000 39869 93762,93866,93788
 1.2000e+000 93987 -5.5168e+000  2.0238e+001  6.8855e-001 39869 93762,93892,93866
 1.2000e+000 93964 -2.5796e+001  2.2600e+000 -1.1324e+000 39869 93788,93866,93840
 1.2000e+000 93941 -2.9246e+001  1.0733e+001 -1.2803e+001 39869 93788,93840,93814
 1.2000e+000 93918 -1.0385e+001  1.1675e+001 -1.5054e+000 39869 93736,93892,93762
 1.2000e+000 94160 -1.6896e+001  1.0941e+000 -1.2237e+000 39457 94033,94085,94059
 1.2000e+000 94137 -1.8109e+001 -1.0477e+001  1.6673e+000 39457 94033,94111,94085
 1.2000e+000 94359 -6.5973e+000  2.5378e+001  5.0485e+000 39053 94382,94235,94209
 1.2000e+000 94336  1.4388e+001  4.2859e+001 -3.5457e+000 39053 94382,94209,94183
 1.2000e+000 94313  2.0231e+000  3.1547e+001  1.1675e+001 39053 94183,94287,94261
 1.2000e+000 94408  1.2805e+001  3.7157e+001  5.2809e+000 39053 94454,94382,94261
 1.2000e+000 94431  9.6884e+000  3.5502e+001  9.3860e+000 39053 94261,94382,94183
 1.2000e+000 94480 -1.6879e-001  3.6545e+000  1.0023e+001 39053 94235,94382,94454
 1.2000e+000 94892 -1.8295e+001  1.3093e+001  1.9870e+000 38392 94915,94771,94719
 1.2000e+000 94869 -2.1014e+001  1.4588e+001  2.1843e+000 38392 94915,94719,94693
 1.2000e+000 94846 -7.5696e+000  1.8636e+001  2.1896e+001 38392 94719,94771,94745
 1.2000e+000 94823 -1.4079e+001  2.1222e+001  6.0373e+000 38392 94667,94797,94693
 1.2000e+000 94941 -1.7314e+001  1.4208e+001  1.4977e+000 38392 94797,94771,94915
 1.2000e+000 94964 -1.8991e+001  1.6489e+001  1.3153e+000 38392 94797,94915,94693
 1.2000e+000 95261  1.4587e+001  1.2534e+001 -7.6162e-001 37831 95013,95065,95039
 1.2000e+000 95238  1.8661e+001  1.3877e+001 -2.8519e+000 37831 95284,95065,95013
 1.2000e+000 95215  1.4228e+001  1.2492e+001 -3.3432e+000 37831 95284,95013,94987
 1.2000e+000 95192  8.1727e+000  1.0066e+001 -3.9628e+000 37831 94987,95143,95117
 1.2000e+000 95169  2.0032e+001  6.1883e+000 -1.2297e+001 37831 95065,95117,95091
 1.2000e+000 95310  1.5836e+001  1.4143e+001 -5.8416e+000 37831 95117,95065,95284
 1.2000e+000 95333  1.2445e+001  1.3534e+001 -6.2422e+000 37831 95117,95284,94987
 1.2000e+000 95554 -2.3824e+001  1.0573e+000 -4.6102e+000 37419 95404,95456,95430
 1.2000e+000 95531 -1.1896e+001  2.9518e+001 -3.6975e+000 37419 95378,95456,95404
 1.2000e+000 95508 -3.4560e+000  3.6523e+001 -6.7035e+000 37419 95378,95482,95456
 1.2000e+000 95887 -2.0799e+001 -1.3852e+001  2.7508e+000 37221 95662,95714,95688
 1.2000e+000 95864 -1.8860e+001 -1.5975e+001  1.9964e+000 37221 95662,95792,95714
 1.2000e+000 95841 -7.4729e+000 -8.7432e+000 -6.5541e-002 37221 95714,95766,95740
 1.2000e+000 95818 -1.6338e+001 -9.9482e+000  2.2701e+000 37221 95714,95792,95766
 1.2000e+000 95988 -8.5167e+001 -9.4253e+000 -1.2023e+001 36731 95910,95962,95936
 1.2000e+000 96138 -7.6673e+000  2.2166e+001  1.0920e+001 36327 96293,96063,96037
 1.2000e+000 96115 -2.1273e+001  1.9199e+001  1.7442e+001 36327 96161,96037,96011
 1.2000e+000 96187 -7.0134e+000  2.4718e+001  2.0317e+001 36327 96293,96037,96161
 1.2000e+000 96319 -5.3856e+000  3.4827e+001  1.5395e+001 36327 96089,96063,96293
 1.2000e+000 96342  2.4051e-001  3.9939e+001  2.5954e+001 36327 96089,96293,96161
 1.2000e+000 96710  1.0938e+000  1.2420e+001  4.4492e+000 36037 96733,96491,96439
 1.2000e+000 96687  1.7273e+000  1.9514e+001  6.8263e+000 36037 96733,96439,96413
 1.2000e+000 96664 -1.8230e+000  1.0733e+001  1.5755e+000 36037 96439,96491,96465
 1.2000e+000 96641 -1.0432e+001  3.0507e+001  3.5054e+000 36037 96387,96517,96413
 1.2000e+000 96618 -1.0507e+001  3.0023e+001  3.5291e+000 36037 96387,96543,96517
 1.2000e+000 96595  1.0665e+000  2.2043e+001  1.2203e+001 36037 96387,96569,96543
 1.2000e+000 96759 -5.8905e+000  2.0029e+001  2.2900e+000 36037 96517,96491,96733
 1.2000e+000 96782 -1.8161e+000  2.8588e+001  7.4797e+000 36037 96517,96733,96413
 1.2000e+000 96932  1.5070e+001  8.0949e+000 -1.0991e+001 35633 97027,96955,96831
 1.2000e+000 96909  1.1609e+001  5.4690e+000 -9.7619e+000 35633 97159,96955,96805
 1.2000e+000 96981  9.6449e+000  5.0802e+000 -1.2171e+001 35633 96857,96831,96955
 1.2000e+000 97004  1.2190e+001  1.1193e+001 -1.2065e+001 35633 96857,96955,96883
 1.2000e+000 97053  1.2841e+001  7.6354e+000 -1.1015e+001 35633 96805,96955,97027
 1.2000e+000 97185  6.9569e+000  8.1632e+000 -9.4710e+000 35633 96883,96955,97159
 1.2000e+000 97593 -3.7664e+000 -8.4856e+000 -6.7095e+000 35186 97446,97498,97472
 1.2000e+000 97570  8.7490e-001  2.3613e+000 -6.2494e+000 35186 97368,97498,97446
 1.2000e+000 97547 -2.7566e+000 -2.3196e+000 -3.2741e+000 35186 97368,97446,97394
 1.2000e+000 97524 -5.6442e+000 -2.3574e+000 -4.5841e+000 35186 97394,97446,97420
 1.2000e+000 98050  6.9992e+000  2.1772e+001 -3.1714e+000 34632 97802,97932,97854
 1.2000e+000 98027 -2.9666e+000  4.3224e+000 -8.6693e+000 34632 97776,97932,97802
 1.2000e+000 98004 -2.3172e+000  1.0622e+001  7.8017e+000 34632 97802,97854,97828
 1.2000e+000 97981 -1.1910e+001  1.3642e+001 -2.8947e+000 34632 97880,97932,97906
 1.2000e+000 97958  4.4246e+000  1.6137e+001 -2.5519e+000 34632 97854,97932,97880
 1.2000e+000 98526 -6.3062e+000  1.4933e+001  2.2705e+000 34064 98693,98180,98362
 1.2000e+000 98503 -8.1500e+000  4.8907e+000 -5.4292e+000 34064 98154,98362,98180
 1.2000e+000 98480  2.8038e+000  1.6306e+001  1.3398e+001 34064 98549,98258,98232
 1.2000e+000 98457 -1.3219e+001  2.6900e+001  3.0754e+001 34064 98549,98232,98206
 1.2000e+000 98434 -3.2906e+000  1.5913e+001 -1.3199e-001 34064 98837,98621,98362
 1.2000e+000 98411  8.5470e+000  7.6829e+000  1.3043e+001 34064 98765,98284,98258
 1.2000e+000 98388  3.5393e+000  1.2079e+001 -6.7398e-001 34064 98837,98362,98336
 1.2000e+000 98575  3.9077e+000  1.5144e+001  9.9984e+000 34064 98765,98258,98549
 1.2000e+000 98598 -4.2910e+000  1.4613e+001  3.1879e+000 34064 98621,98310,98549
 1.2000e+000 98647 -3.0735e+000  1.9680e+001  3.7673e+000 34064 98693,98362,98621
 1.2000e+000 98670  3.5881e+000  3.2501e+001  7.5576e+000 34064 98206,98621,98549
 1.2000e+000 98719 -6.5413e+000  2.1109e+001  3.0761e+000 34064 98206,98180,98693
 1.2000e+000 98742 -6.7824e+000  2.0826e+001  2.9578e+000 34064 98206,98693,98621
 1.2000e+000 98791  1.6544e+001  1.5682e+001  8.6701e+000 34064 98310,98284,98765
 1.2000e+000 98814  1.0659e+001  2.1305e+001  5.8157e+000 34064 98310,98765,98549
 1.2000e+000 98863  3.9256e+000  1.8673e+001  1.5852e+000 34064 98310,98621,98837
 1.2000e+000 98886  1.0794e+001  1.4687e+001  6.9008e-001 34064 98310,98837,98336
 1.2000e+000 99264  2.0946e+000 -7.0469e-001  4.6134e+000 33446 99287,99094,99068
 1.2000e+000 99241 -2.8926e+000  1.1833e+001 -6.4543e+000 33446 99287,99068,99016
 1.2000e+000 99218 -2.2433e+001  6.8219e+000  2.4979e+000 33446 99016,99068,99042
 1.2000e+000 99195 -2.4133e+001  5.1571e+000 -7.1308e+000 33446 99016,99146,99120
 1.2000e+000 99172 -2.0395e+001  1.6759e+001 -9.6727e+000 33446 98990,99146,99016
 1.2000e+000 99313  2.0789e+001  9.1589e+000  7.9490e-001 33446 99120,99094,99287
 1.2000e+000 99336  2.9966e+000  1.5512e+001 -8.0766e+000 33446 99120,99287,99016
 1.2000e+000 99861 -1.8091e+001  1.0838e+000 -5.0463e+000 32940 100172,99956,99884
 1.2000e+000 99838 -1.7007e+001 -3.4341e+000 -2.4725e+000 32940 100100,99884,99518
 1.2000e+000 99815 -8.7503e+000 -1.1969e+000 -5.6711e+000 32940 100244,99956,99622
 1.2000e+000 99792 -1.1313e+000  7.6396e+000 -7.8694e-001 32940 100028,99648,99622
 1.2000e+000 99769 -1.8329e+001 -8.7370e+000 -2.9380e+000 32940 100100,99518,99492
 1.2000e+000 99746 -2.2747e+000  5.1950e+000  2.7170e-001 32940 99570,99622,99596
 1.2000e+000 99723 -5.4225e+000  2.8252e-001 -4.5383e+000 32940 100244,99622,99570
 1.2000e+000 99700 -1.6617e+001 -2.9480e+000  1.9603e+000 32940 99440,99492,99466
 1.2000e+000 99910 -1.2748e+001  2.2093e+000 -3.8245e+000 32940 100172,99884,100028
 1.2000e+000 99933 -2.3434e+001 -9.6981e+000  4.2051e+000 32940 99674,99884,99440
 1.2000e+000 99982 -1.9132e+001 -4.7978e+000 -3.9562e+000 32940 99518,99884,99956
 1.2000e+000 100005 -2.3811e+001 -1.9234e+001 -1.4690e+001 32940 99518,99956,99544
 1.2000e+000 100054 -1.5933e+001  1.0251e+001  1.5855e+000 32940 99674,99648,100028
 1.2000e+000 100077 -1.6625e+001  6.5595e+000  2.2485e+000 32940 99674,100028,99884
 1.2000e+000 100126 -1.8196e+001 -8.4591e-001  1.0294e+000 32940 99440,99884,100100
 1.2000e+000 100149 -1.8344e+001 -3.4782e+000  8.4814e-002 32940 99440,100100,99492
 1.2000e+000 100198 -1.3606e+001  3.1354e+000 -5.8139e-001 32940 99622,99956,100172
 1.2000e+000 100221 -1.2113e+001  3.1842e+000  9.8752e-001 32940 99622,100172,100028
 1.2000e+000 100270 -1.4425e+001  9.7123e-001 -7.5687e+000 32940 99544,99956,100244
 1.2000e+000 100293 -1.1529e+001  2.0508e+000 -6.5295e+000 32940 99544,100244,99570
 1.2000e+000 100750  4.1994e+000  1.2946e+001  1.1712e+000 32365 100773,100580,100502
 1.2000e+000 100727  7.3915e+000  1.0856e+001  3.8092e+000 32365 100773,100502,100632
 1.2000e+000 100704  1.1394e+001  2.0358e-001 -4.7867e+000 32365 100476,100632,100502
 1.2000e+000 100681  1.5786e+000  8.6887e+000 -7.1581e-001 32365 100528,100580,100554
 1.2000e+000 100658  8.3060e+000  1.3576e+001 -3.4515e+000 32365 100502,100580,100528
 1.2000e+000 100799  6.3450e+000  1.6655e+001  2.1221e+000 32365 100606,100580,100773
 1.2000e+000 100822  8.8809e+000  1.3686e+001  4.3995e+000 32365 100606,100773,100632
 1.2000e+000 101021 -9.6693e-003  1.4248e+001  8.8125e+000 31853 100871,100923,100897
 1.2000e+000 100998  1.1470e+001  2.6810e+001  1.3981e+001 31853 100871,100949,100923
 1.2000e+000 100975  6.7456e-001  1.9369e+000  1.2571e+001 31853 100845,100949,100871
 1.2000e+000 101529  7.3177e+000  1.0425e+001 -1.3031e+001 31249 101552,101310,101232
 1.2000e+000 101506  1.2641e+001  1.4033e+001 -1.4616e+001 31249 101552,101232,101206
 1.2000e+000 101483  1.2098e+001  2.4166e+000 -9.5823e+000 31249 101206,101388,101336
 1.2000e+000 101460  3.4291e+000  9.2464e+000 -1.1357e+001 31249 101232,101284,101258
 1.2000e+000 101437  6.4671e+000  1.7149e+001 -1.1476e+001 31249 101232,101310,101284
 1.2000e+000 101414  1.4871e+001  2.1265e-001 -2.5002e+000 31249 101336,101388,101362
 1.2000e+000 101578  8.7401e+000  5.7098e+000 -7.8029e+000 31249 101336,101310,101552
 1.2000e+000 101601  1.4392e+001  9.8133e+000 -9.5936e+000 31249 101336,101552,101206
 1.2000e+000 101751 -2.3648e+001  3.8737e+001 -3.9219e-001 30515 101774,101650,101624
 1.2000e+000 101728 -1.1018e+001  4.3831e+001 -1.9880e+000 30515 101846,101774,101624
 1.2000e+000 101800 -1.9401e+001  4.4123e+001  1.4756e+000 30515 101676,101650,101774
 1.2000e+000 101823 -1.7685e+001  3.2765e+001  2.3045e+000 30515 101676,101774,101702
 1.2000e+000 101872 -2.1513e+001  1.9118e+001 -2.0650e+000 30515 101702,101774,101846
 1.2000e+000 102557  1.9985e+000  5.5534e+000  1.9125e+000 29947 102652,102580,102266
 1.2000e+000 102534  4.0547e+000  8.7198e+000  4.2398e+000 29947 102580,102136,102370
 1.2000e+000 102511  6.0613e-001  2.4021e+000  1.5565e+000 29947 102724,102652,102266
 1.2000e+000 102488  1.7693e+000  2.1576e-001  8.3451e-001 29947 102724,102266,102240
 1.2000e+000 102465  3.7911e+000  7.4175e+000  2.0340e+000 29947 102796,102318,102292
 1.2000e+000 102442  2.2002e+000  5.2031e+000 -1.4267e+000 29947 102162,102214,102188
 1.2000e+000 102419  1.2206e+000  4.0483e+000 -2.2086e+000 29947 102162,102240,102214
 1.2000e+000 102396  6.0736e+000  1.3860e+001  6.0327e+000 29947 102318,102370,102344
 1.2000e+000 102606  2.7547e+000  3.2079e+000  1.7271e+000 29947 102292,102266,102580
 1.2000e+000 102629  3.5754e+000  6.1315e+000  2.1181e+000 29947 102796,102292,102580
 1.2000e+000 102678  2.7560e+000  4.5188e+000  3.4377e+000 29947 102136,102580,102652
 1.2000e+000 102701  2.2149e+000  3.6787e+000  3.2054e+000 29947 102136,102652,102162
 1.2000e+000 102750  2.5549e+000  5.2954e+000  2.7122e+000 29947 102162,102652,102724
 1.2000e+000 102773  2.7021e+000  2.7080e+000  1.4834e+000 29947 102162,102724,102240
 1.2000e+000 102822  3.7335e+000  5.9665e+000  2.6139e+000 29947 102370,102318,102796
 1.2000e+000 102845  3.8698e+000  5.3486e+000  2.8258e+000 29947 102370,102796,102580
 1.2000e+000 103044 -2.3427e+001 -1.3361e+001  1.8125e+000 29450 102868,102920,102894
 1.2000e+000 103021 -2.3962e+001 -1.1742e+001  1.7975e+000 29450 102868,102972,102920
 1.2000e+000 102998 -2.5439e+001 -1.7180e+001  1.7491e+000 29450 102920,102972,102946
 1.2000e+000 103292  1.0281e+001  8.9773e+000  8.9685e+000 29060 103315,103171,103119
 1.2000e+000 103269  1.9335e+000  9.1337e+000  1.1751e+001 29060 103315,103119,103067
 1.2000e+000 103246  1.6212e+001  1.3384e+001  6.7423e+000 29060 103119,103171,103145
 1.2000e+000 103223  1.0210e+001  2.1356e+000  1.4511e+001 29060 103067,103119,103093
 1.2000e+000 103341  1.7824e+001  8.3313e+000  4.9548e+000 29060 103197,103171,103315
 1.2000e+000 103364  7.4453e+000  1.0761e+001  4.9113e+000 29060 103197,103315,103067
 1.2000e+000 104002 -1.8612e+001 -3.0403e+000 -9.2922e+000 28599 104097,104025,103708
 1.2000e+000 103979 -1.1613e+001  3.0989e+000 -1.4803e+000 28599 104169,104025,103656
 1.2000e+000 103956 -9.9763e+000 -8.9577e+000 -8.5513e+000 28599 104097,103708,103682
 1.2000e+000 103933 -8.5214e+000  5.9864e+000 -2.4994e-001 28599 104169,103656,103630
 1.2000e+000 103910 -2.7224e+000  3.4445e+001  1.3551e+000 28599 103760,103812,103786
 1.2000e+000 103887 -1.1775e+001  8.1313e+000  6.8976e+000 28599 103630,103838,103812
 1.2000e+000 103864 -9.8645e+000  1.1348e+000  8.0528e-001 28599 103708,103760,103734
 1.2000e+000 104051 -2.1223e+001  7.8452e+000 -3.2432e+000 28599 103760,103708,104025
 1.2000e+000 104074 -9.5149e+000  9.1165e+000  2.1918e+000 28599 103760,104025,103812
 1.2000e+000 104123 -1.0014e+001  5.4618e+000 -5.8551e+000 28599 103656,104025,104097
 1.2000e+000 104146 -1.7958e+000 -2.6251e+000 -5.7442e+000 28599 103656,104097,103682
 1.2000e+000 104195 -1.3580e+001  6.9243e+000 -7.8213e-001 28599 103812,104025,104169
 1.2000e+000 104218 -1.2510e+001  8.0561e+000 -2.7660e-001 28599 103812,104169,103630
 1.2000e+000 104596  1.2640e+001  6.5839e+000 -4.3572e+000 28344 104619,104374,104322
 1.2000e+000 104573  1.1963e+001  4.1817e+000 -1.3543e+000 28344 104619,104322,104478
 1.2000e+000 104550  2.6122e+000  1.0018e+001 -4.2685e-001 28344 104322,104374,104348
 1.2000e+000 104527  1.7436e+001 -1.3644e+001 -1.7782e+001 28344 104400,104452,104426
 1.2000e+000 104504  2.0803e+001 -1.0402e+001 -1.2700e+001 28344 104374,104452,104400
 1.2000e+000 104645  1.3533e+001  1.0478e+001 -6.1614e+000 28344 104452,104374,104619
 1.2000e+000 104668  1.2319e+001  8.1109e+000 -2.9653e+000 28344 104452,104619,104478
 1.2000e+000 104987  2.8136e+000  8.8423e+000  2.5667e+000 27947 104713,104843,104765
 1.2000e+000 104964  9.6678e-001  1.1280e+001 -3.7575e-001 27947 104713,104869,104843
 1.2000e+000 104941  2.7294e+000  4.3556e+000 -3.0415e-001 27947 104765,104843,104791
 1.2000e+000 104918  2.3602e+000  2.6676e+000  2.2292e-001 27947 104791,104843,104817
 1.2000e+000 104895  4.7481e-001  3.4929e+000  2.8896e+000 27947 104713,104765,104739
 1.2000e+000 105367 -1.8177e+001 -7.4039e+000  2.1034e+000 27443 105390,105197,105119
 1.2000e+000 105344 -2.2763e+001 -9.2667e+000  2.0929e+000 27443 105390,105119,105093
 1.2000e+000 105321 -2.0241e+001 -1.0566e+001  3.4507e+000 27443 105119,105197,105145
 1.2000e+000 105298 -1.3941e+001 -9.5315e+000 -2.1669e-001 27443 105197,105249,105223
 1.2000e+000 105275 -1.9290e+001 -4.1101e+000  8.4969e+000 27443 105145,105197,105171
 1.2000e+000 105416 -1.4964e+001 -8.9119e+000 -1.3584e+000 27443 105249,105197,105390
 1.2000e+000 105439 -2.0511e+001 -1.1186e+001 -1.7130e+000 27443 105249,105390,105093
 1.2000e+000 105994 -8.9619e+000  1.2610e+000 -9.4523e-001 27096 106161,106017,105700
 1.2000e+000 105971 -1.3377e+001  2.5210e+000  1.0630e-001 27096 106305,106017,105648
 1.2000e+000 105948 -8.0087e-001  2.9062e+000 -2.9991e+000 27096 106089,105804,105778
 1.2000e+000 105925 -9.9752e+000  1.1773e+000  1.2922e-001 27096 106161,105700,105674
 1.2000e+000 105902 -7.8370e+000 -9.6484e-001 -1.4956e+000 27096 106233,105726,105700
 1.2000e+000 105879 -3.4046e+001  4.2227e-001  2.5744e+000 27096 106305,105648,105622
 1.2000e+000 105856 -4.4905e+000 -3.4679e-001 -2.7440e-001 27096 105726,105778,105752
 1.2000e+000 106043 -9.1253e+000  2.1688e-001 -7.6712e-001 27096 106233,105700,106017
 1.2000e+000 106066 -5.3258e+000  1.8790e+000 -1.0035e+000 27096 106089,105778,106017
 1.2000e+000 106115 -6.1564e+000  7.2293e-001 -2.3290e+000 27096 105830,105804,106089
 1.2000e+000 106138 -9.1162e+000  1.7781e+000 -1.4957e+000 27096 106377,106089,106017
 1.2000e+000 106187 -1.0800e+001  2.3061e+000  6.3939e-001 27096 105648,106017,106161
 1.2000e+000 106210 -1.3626e+001 -2.8418e-001  2.2209e+000 27096 105648,106161,105674
 1.2000e+000 106259 -6.5399e+000  3.9415e-001 -2.0972e+000 27096 105778,105726,106233
 1.2000e+000 106282 -8.1231e+000  1.1941e+000 -1.2621e+000 27096 105778,106233,106017
 1.2000e+000 106331 -1.0336e+001  2.2706e+000 -3.5811e+000 27096 106377,106017,106305
 1.2000e+000 106354 -9.8880e+000  1.6042e+001 -5.1476e+000 27096 105830,106305,105622
 1.2000e+000 106403 -5.5779e+000  3.0598e+000 -1.9205e+000 27096 105830,106089,106377
 1.2000e+000 106426 -5.9923e+000  4.0634e+000 -3.6686e+000 27096 105830,106377,106305
 1.2000e+000 106625 -2.6292e+001 -3.4647e+000  2.3025e+000 26684 106475,106553,106527
 1.2000e+000 106602 -2.7658e+001 -4.4252e+000  1.8239e+000 26684 106449,106553,106475
 1.2000e+000 106579 -3.3948e+001 -3.0906e+000 -3.5944e+000 26684 106475,106527,106501
 1.2000e+000 107084  3.5708e+000 -6.7349e-001 -1.8732e+000 26244 107107,106914,106862
 1.2000e+000 107061  2.8540e+000 -1.8005e+000 -1.5345e+000 26244 107107,106862,106836
 1.2000e+000 107038 -3.3818e+000 -2.1410e+000 -8.0092e-001 26244 106810,106966,106836
 1.2000e+000 107015  4.6022e+000  3.1066e+000 -1.8549e+000 26244 106862,106914,106888
 1.2000e+000 106992  4.8926e+000  1.3371e+000 -9.1366e-001 26244 106914,106966,106940
 1.2000e+000 107133  3.0582e+000  1.2296e-001 -3.8002e-001 26244 106966,106914,107107
 1.2000e+000 107156  2.0338e+000 -2.0220e+000 -4.9367e-003 26244 106966,107107,106836
 1.2000e+000 107662  3.2783e+000  1.4825e+000  1.1205e+000 25904 107365,107495,107391
 1.2000e+000 107639  3.1632e+000  2.8492e+000  7.6495e-001 25904 107365,107521,107495
 1.2000e+000 107616  2.2661e+000  6.9862e-001  3.7946e-001 25904 107391,107469,107443
 1.2000e+000 107593  3.9801e+000  1.7065e+000 -8.2349e-002 25904 107391,107495,107469
 1.2000e+000 107570  1.8477e+000 -3.3077e-001  4.2310e-001 25904 107391,107443,107417
 1.2000e+000 107547  1.7463e+000  2.6918e+000  3.3153e+000 25904 107339,107521,107365
 1.2000e+000 108247 -1.4341e+000  5.8823e-001 -7.5256e-001 25450 108270,108002,107950
 1.2000e+000 108224  4.9818e-001  6.2974e-001 -7.2857e-002 25450 108270,107950,108106
 1.2000e+000 108201  6.1938e-001 -3.1998e-001  1.5292e-001 25450 108342,108028,108002
 1.2000e+000 108178 -2.4752e+000 -6.7360e-001 -1.6686e-001 25450 107950,108002,107976
 1.2000e+000 108155 -3.1375e+000  2.8841e+000  4.1576e-001 25450 107924,108106,107950
 1.2000e+000 108132  1.3926e+000  2.1087e+000  4.6163e-001 25450 108054,108106,108080
 1.2000e+000 108296 -3.0801e-001  4.4439e-001  2.1711e-001 25450 108342,108002,108270
 1.2000e+000 108319  1.0757e+000  1.3253e+000  6.1635e-001 25450 108054,108270,108106
 1.2000e+000 108368  2.3430e+000  3.6142e-001 -3.0419e-001 25450 108054,108028,108342
 1.2000e+000 108391  9.9895e-001  9.4778e-001 -3.6408e-001 25450 108054,108342,108270
 1.2000e+000 108818 -1.2887e+001  1.3355e+001  2.2129e+000 24939 108521,108677,108651
 1.2000e+000 108795 -2.7558e+001  9.5770e+000 -1.1873e+001 24939 108495,108677,108521
 1.2000e+000 108772 -1.8436e-001  1.8789e+001  1.3630e+000 24939 108521,108651,108625
 1.2000e+000 108749 -8.8217e+000  2.1460e+001  6.3480e-001 24939 108521,108625,108599
 1.2000e+000 108726  1.8097e+000  6.2718e+000  3.4831e+000 24939 108547,108599,108573
 1.2000e+000 108703 -1.1437e+001  1.1714e+001 -2.2063e-001 24939 108521,108599,108547
 1.2000e+000 109403  2.9744e+001  1.9206e+001 -5.9774e+000 24741 109158,109210,109184
 1.2000e+000 109380  1.8562e+001  1.8926e+001 -4.3412e+000 24741 109158,109262,109210
 1.2000e+000 109357  2.1690e+001  2.0818e+001 -1.9404e+000 24741 109080,109262,109158
 1.2000e+000 109334  1.2695e+001  1.7842e+001  2.1713e+000 24741 109080,109158,109132
 1.2000e+000 109311  3.8270e+001  2.9890e+001 -9.9924e+000 24741 109210,109262,109236
 1.2000e+000 109288  2.0964e+001  1.7878e+001  6.2613e+000 24741 109080,109132,109106
 1.2000e+000 109781  3.0868e+000  5.0676e-001  5.9116e-001 24337 109533,109611,109559
 1.2000e+000 109758  3.4614e+000  2.3863e+000 -2.8109e-001 24337 109533,109637,109611
 1.2000e+000 109735  3.6400e+000 -3.5217e-002 -4.0973e-001 24337 109559,109611,109585
 1.2000e+000 109712  3.4693e+000  2.4765e+000  3.8569e-001 24337 109533,109663,109637
 1.2000e+000 109689  3.7753e+000  4.1109e+000  1.2437e+000 24337 109507,109663,109533
 1.2000e+000 110159 -2.7596e+000 -6.9037e+000 -4.7311e+000 23833 110182,109963,109911
 1.2000e+000 110136 -3.9738e+000 -5.7656e+000 -6.3691e+000 23833 110182,109911,109885
 1.2000e+000 110113  2.0249e+000 -4.8675e+000 -8.7292e+000 23833 109885,110041,109989
 1.2000e+000 110090 -1.4295e+000 -1.6065e+000 -4.1158e+000 23833 109911,109963,109937
 1.2000e+000 110067 -4.6081e+000 -2.0121e+001 -9.7916e+000 23833 109989,110041,110015
 1.2000e+000 110208 -3.7616e+000 -8.3812e+000 -5.2036e+000 23833 109989,109963,110182
 1.2000e+000 110231 -4.6822e+000 -7.6129e+000 -6.7399e+000 23833 109989,110182,109885
 1.2000e+000 110332  3.4412e+000  5.7965e+000 -5.9057e-003 23429 110254,110306,110280
 1.2000e+000 110580  8.4750e+000  6.3620e+000  1.2275e+001 22825 110603,110407,110381
 1.2000e+000 110557  1.0372e+000  3.5594e+000  1.0178e+001 22825 110603,110381,110485
 1.2000e+000 110534  5.0674e+000  3.7764e+000  4.5314e+000 22825 110433,110485,110459
 1.2000e+000 110511 -3.0537e+000  1.6823e+001  9.8022e+000 22825 110355,110485,110381
 1.2000e+000 110629  5.2758e+000  3.6625e+000  7.5849e+000 22825 110433,110407,110603
 1.2000e+000 110652  1.3914e+000  3.1278e+000  5.6702e+000 22825 110433,110603,110485
 1.2000e+000 110902 -2.8085e+001  8.1377e+000 -4.3124e+000 22428 110703,110755,110729
 1.2000e+000 110879 -1.9133e+001  1.1862e+000 -4.7420e+000 22428 110703,110781,110755
 1.2000e+000 110856 -2.5246e+001 -2.0709e+000 -8.0161e+000 22428 110703,110807,110781
 1.2000e+000 110833 -3.8283e+001 -1.0245e+001 -1.4466e+001 22428 110677,110807,110703
 1.2000e+000 111284  2.3741e+001  2.7480e+000 -1.1521e+001 22138 111088,111140,111114
 1.2000e+000 111261  2.2450e+001  7.3716e+000 -1.4476e+001 22138 111062,111140,111088
 1.2000e+000 111238  2.0164e+001  5.8489e+000 -7.7097e+000 22138 111036,111140,111062
 1.2000e+000 111215  7.9616e+000  1.7377e+000 -1.1243e+001 22138 111010,111140,111036
 1.2000e+000 111192  7.2022e+000  1.9535e+000 -1.1872e+001 22138 111010,111166,111140
 1.2000e+000 111385 -3.1454e+001 -2.7084e+000  4.1943e+000 21826 111307,111359,111333
 1.2000e+000 111731 -3.4539e+001 -2.6564e-001  4.4388e+000 21264 111754,111538,111434
 1.2000e+000 111708 -2.7833e+001  2.2171e+000  6.0360e-001 21264 111754,111434,111408
 1.2000e+000 111685 -3.6550e+001  4.7558e+000  3.0040e+000 21264 111434,111538,111460
 1.2000e+000 111662 -5.0011e+001 -1.0592e+000  5.7279e+000 21264 111460,111538,111486
 1.2000e+000 111639 -2.5219e+001 -4.4287e+000  1.0610e+001 21264 111408,111590,111564
 1.2000e+000 111616 -5.6113e+001  1.6710e+001  1.3954e+001 21264 111486,111538,111512
 1.2000e+000 111780 -3.6824e+001 -1.0561e+000  6.2842e+000 21264 111564,111538,111754
 1.2000e+000 111803 -3.4395e+001 -4.8732e+000  3.8881e+000 21264 111564,111754,111408
 1.2000e+000 111955  6.1846e+000  1.0263e+001 -3.6163e-002 20860 111978,111906,111880
 1.2000e+000 111932  5.3794e+000  7.6581e+000 -2.9026e+000 20860 112110,111828,111906
 1.2000e+000 112004  4.4024e+000  1.0807e+001 -1.7023e+000 20860 112110,111906,111978
 1.2000e+000 112136  6.1071e+000  1.0697e+001 -2.4533e+000 20860 111854,111828,112110
 1.2000e+000 112159  5.5945e+000  1.4749e+001 -1.4613e+000 20860 111854,112110,111978
 1.2000e+000 112407 -2.9001e+000  3.5542e+000 -5.5351e+000 20320 112182,112286,112208
 1.2000e+000 112384  6.6407e+000  1.0425e+001 -9.2982e+000 20320 112182,112312,112286
 1.2000e+000 112361  2.6071e+000  7.4630e+000 -3.7762e+000 20320 112208,112286,112260
 1.2000e+000 112338 -1.6181e+001  1.1931e+001 -1.0624e+001 20320 112208,112260,112234
 1.2000e+000 112655  2.9049e+000 -1.0400e+001  2.9328e+000 19916 112508,112560,112534
 1.2000e+000 112632  6.1512e-001 -9.3025e+000  2.3619e+000 19916 112430,112560,112508
 1.2000e+000 112609 -8.8819e-001 -1.7347e+001  4.0838e+000 19916 112430,112508,112456
 1.2000e+000 112586  4.0597e+000 -4.8551e+000  1.2387e+000 19916 112456,112508,112482
 1.2000e+000 112807 -1.5347e+001  2.9485e+000 -3.4742e-001 19626 112680,112732,112706
 1.2000e+000 112784 -1.0610e+001  8.0318e-001 -2.9520e+000 19626 112680,112758,112732
 1.2000e+000 113008 -1.2317e+001 -7.3184e+000  3.4790e+000 19165 112858,112936,112884
 1.2000e+000 112985 -1.7206e+001 -1.5018e+001  1.3845e+000 19165 112832,112936,112858
 1.2000e+000 112962 -7.1865e+000 -6.8782e+000 -1.0092e-001 19165 112884,112936,112910
 1.2000e+000 113209 -6.7364e+000  6.5536e-002  1.6631e-001 18596 113033,113085,113059
 1.2000e+000 113186 -7.3018e-001  1.0535e+000 -1.3206e+000 18596 113033,113111,113085
 1.2000e+000 113163 -3.5250e+000 -1.4432e+000  9.5647e-002 18596 113033,113137,113111
 1.2000e+000 113481 -3.9263e+000 -1.0912e+000  6.7268e-001 18348 113256,113308,113282
 1.2000e+000 113458  7.2492e-001  1.3816e-001  2.1580e-002 18348 113256,113386,113308
 1.2000e+000 113435  1.1739e+000  1.5746e-001  6.5423e-001 18348 113308,113386,113360
 1.2000e+000 113412  2.6328e+000 -7.3675e-001  1.3214e-001 18348 113308,113360,113334
 1.2000e+000 113753  2.0443e+000 -3.3798e-001  6.1427e-002 17830 113554,113606,113580
 1.2000e+000 113730  3.7093e+000 -2.5978e-001  2.3461e-001 17830 113528,113606,113554
 1.2000e+000 113707  4.2808e+000  1.1244e+000  5.1556e-001 17830 113528,113658,113606
 1.2000e+000 113684  3.6684e+000 -2.0966e-001  2.8126e-002 17830 113606,113658,113632
 1.2000e+000 113954  1.1424e+001  8.2939e-001 -4.9576e+000 17326 113778,113830,113804
 1.2000e+000 113931  2.4064e+001 -1.3862e+001 -8.1652e+000 17326 113778,113882,113830
 1.2000e+000 113908  2.6541e+001 -6.6779e+000 -8.0082e+000 17326 113830,113882,113856
 1.2000e+000 114106  4.3769e+000 -6.1658e-002  1.4124e-001 16870 113979,114031,114005
 1.2000e+000 114083  4.3009e+000  4.2045e-001  1.2620e-001 16870 113979,114057,114031
 1.2000e+000 114461 -2.7553e-001  1.7457e+001 -1.1932e+001 16266 114236,114288,114262
 1.2000e+000 114438  1.2281e+000  3.2151e-001 -2.0375e+000 16266 114236,114366,114288
 1.2000e+000 114415  4.9235e+000  5.2126e+000  2.8839e+000 16266 114288,114340,114314
 1.2000e+000 114392  5.9062e+000  4.8987e+000  1.6362e-001 16266 114288,114366,114340
 1.2000e+000 114562 -3.1264e+001  1.2059e+001  0.0000e+000 15830 114484,114536,114510
 1.2000e+000 114663  2.9400e+000 -7.5603e+000 -2.0691e+000 15151 114585,114637,114611
 1.2000e+000 114886  1.5544e+001  1.1022e+001  4.5739e+000 417 114762,114814,114788
 1.2000e+000 114863  1.2486e+001  5.4570e+000  3.3541e+000 417 114710,114814,114762
 1.2000e+000 114840  8.3197e+000  5.5407e+000  2.8327e+000 417 114710,114762,114736
 1.3000e+000 66549 -1.5650e+000 -7.5811e-001 -3.4926e-001 66104 66350,66454,66428
 1.3000e+000 66526  5.5105e-003 -1.9083e-001 -4.0973e-002 66104 66324,66454,66350
 1.3000e+000 66503 -7.1632e-001  2.7519e+000 -6.4552e-001 66104 66350,66428,66402
 1.3000e+000 66480  1.9403e+000 -3.2143e+000 -9.5508e-001 66104 66350,66402,66376
 1.3000e+000 66947 -3.3385e-001  1.1673e+000 -6.5147e-001 65906 66699,66829,66803
 1.3000e+000 66924  8.8188e-002  2.7296e-001  2.2613e-001 65906 66673,66829,66699
 1.3000e+000 66901  2.0828e+000  2.7947e-002  7.4860e-001 65906 66725,66777,66751
 1.3000e+000 66878 -3.6672e+000  1.8611e+000  8.8326e-001 65906 66725,66803,66777
 1.3000e+000 66855  2.5430e+000 -1.1270e+000 -8.6390e-001 65906 66699,66803,66725
 1.3000e+000 67146 -6.1495e-001  3.5858e-001  3.2563e-002 65708 67022,67074,67048
 1.3000e+000 67123  9.9194e-001  9.0608e-001 -2.5532e-001 65708 66970,67074,67022
 1.3000e+000 67100 -3.1531e+000 -1.4989e+000  8.3008e-001 65708 66970,67022,66996
 1.3000e+000 67477 -1.6806e+000 -2.4911e+000 -3.5217e+000 65418 67278,67356,67330
 1.3000e+000 67454 -4.0460e-001  5.5502e+000 -2.1533e+000 65418 67278,67382,67356
 1.3000e+000 67431 -1.7988e+000  9.8822e-001 -6.8064e+000 65418 67278,67330,67304
 1.3000e+000 67408 -1.8885e-001  7.0537e-001 -3.3444e+000 65418 67252,67382,67278
 1.3000e+000 68111 -1.2963e+000  5.1354e-001 -7.1862e-001 65014 67791,67921,67869
 1.3000e+000 68088  5.7397e-001  1.3771e+000 -1.6525e+000 65014 67765,67921,67791
 1.3000e+000 68065 -1.6832e+000 -4.0286e+000 -1.2655e+000 65014 67869,67921,67895
 1.3000e+000 68042  1.0250e-001  1.0067e+000 -1.4921e+000 65014 67765,67947,67921
 1.3000e+000 68019  2.6598e+000 -9.2981e-001 -3.1463e+000 65014 67791,67869,67817
 1.3000e+000 67996  5.4188e+000 -2.2301e+000 -1.0611e+000 65014 67817,67869,67843
 1.3000e+000 67973  2.9068e+000  2.9962e+000 -4.0272e-001 65014 67739,67947,67765
 1.3000e+000 68359 -1.6650e+000  1.5398e+000  1.0200e+000 64816 68186,68238,68212
 1.3000e+000 68336  5.4851e-001  1.4699e-001  5.8280e-001 64816 68186,68264,68238
 1.3000e+000 68313 -8.8191e-002 -1.7615e-001  2.2859e-002 64816 68160,68264,68186
 1.3000e+000 68290  1.8811e-001 -7.5862e-002  1.0473e-002 64816 68134,68264,68160
 1.3000e+000 68509 -5.9925e-001 -1.0974e+000  1.1489e+000 64362 68864,68532,68434
 1.3000e+000 68486 -9.7165e-001  1.2228e-001  6.5601e-001 64362 68532,68408,68382
 1.3000e+000 68558 -2.7465e+000 -1.1160e+000  1.8558e+000 64362 68736,68532,68460
 1.3000e+000 68581 -2.7539e-001  1.8428e+000  3.3938e-001 64362 68604,68532,68382
 1.3000e+000 68630 -1.9703e-002 -4.9419e-001  1.7618e+000 64362 68460,68532,68604
 1.3000e+000 68762 -9.0718e-001 -8.4459e-001  1.8389e+000 64362 68434,68532,68736
 1.3000e+000 68890 -4.4008e-001  3.9959e-001  1.2386e+000 64362 68408,68532,68864
 1.3000e+000 69168 -1.5925e+000  2.7837e+000  1.0889e+000 64164 69018,69070,69044
 1.3000e+000 69145 -6.0430e-001 -2.6852e+000  1.0891e+000 64164 68992,69070,69018
 1.3000e+000 69122 -6.9955e-001 -3.7504e+000  3.3686e+000 64164 68992,69096,69070
 1.3000e+000 69367  2.4988e+000 -1.5486e+000 -6.1096e-002 63966 69462,69390,69269
 1.3000e+000 69344 -3.7153e+000 -1.0487e+001  2.1093e+000 63966 69390,69243,69217
 1.3000e+000 69321 -1.4971e+000 -8.1957e+000 -1.6336e+000 63966 69191,69295,69217
 1.3000e+000 69416  6.7132e+000 -6.5396e+000 -2.3691e+000 63966 69295,69269,69390
 1.3000e+000 69439  4.7510e-001 -8.4163e+000 -1.5168e+000 63966 69295,69390,69217
 1.3000e+000 69488 -1.6803e+000 -9.4515e+000 -1.6818e+000 63966 69243,69390,69462
 1.3000e+000 69900  2.3040e-001  2.3792e+000  2.6016e+000 63676 69701,69779,69727
 1.3000e+000 69877 -7.7310e-001  2.0687e+000  2.6277e+000 63676 69675,69779,69701
 1.3000e+000 69854  1.6449e+000  9.0296e-001  2.5093e+000 63676 69675,69805,69779
 1.3000e+000 69831  4.6906e+000  5.3811e+000  3.9506e+000 63676 69727,69779,69753
 1.3000e+000 70050 -5.4584e-001 -4.7646e+000  1.1562e+000 63472 70073,69949,69923
 1.3000e+000 70027 -3.1613e-001 -5.6772e+000  6.5314e-001 63472 70073,69923,70001
 1.3000e+000 70099 -2.9783e-001 -5.4439e+000  1.5300e+000 63472 69975,69949,70073
 1.3000e+000 70122 -6.6047e-002 -6.3511e+000  1.1040e+000 63472 69975,70073,70001
 1.3000e+000 70321  1.0256e+000 -9.8164e-001  9.0570e-001 63274 70145,70223,70171
 1.3000e+000 70298 -1.9976e-001 -1.6196e+000  6.6620e-001 63274 70145,70249,70223
 1.3000e+000 70275  1.1165e+000 -8.2318e-001  9.4905e-001 63274 70171,70223,70197
 1.3000e+000 70593  1.7318e+000 -1.3669e+000  2.1190e+000 63076 70368,70472,70420
 1.3000e+000 70570  8.1199e-001 -8.8147e+000  1.0823e+000 63076 70368,70498,70472
 1.3000e+000 70547  3.5651e+000 -8.7149e+000 -2.9036e+000 63076 70420,70472,70446
 1.3000e+000 70524  2.5133e+000 -2.3956e+000  6.2678e+000 63076 70368,70420,70394
 1.3000e+000 70843 -4.7835e+000 -1.2460e+001 -2.0431e+000 62736 70866,70644,70618
 1.3000e+000 70820 -3.0069e+000 -1.4936e+001 -3.0485e+000 62736 70866,70618,70748
 1.3000e+000 70797  2.6515e+000 -1.0774e+001  1.5506e+000 62736 70644,70722,70696
 1.3000e+000 70774  2.5439e+000 -6.9349e+000  2.3544e+000 62736 70644,70696,70670
 1.3000e+000 70892 -3.1030e+000 -1.0196e+001 -6.9901e-001 62736 70722,70644,70866
 1.3000e+000 70915 -2.7790e+000 -1.3568e+001 -2.1284e+000 62736 70722,70866,70748
 1.3000e+000 71018  3.9548e-001 -7.6937e-002 -2.5906e-001 62516 70940,70992,70966
 1.3000e+000 71219 -1.3753e+000  6.0928e-001  3.0698e+000 62226 71069,71147,71095
 1.3000e+000 71196 -2.4641e+000 -3.1418e-001  2.2703e+000 62226 71043,71147,71069
 1.3000e+000 71173  1.1308e+000 -2.3237e+000  1.7913e+000 62226 71095,71147,71121
 1.3000e+000 71857  1.8546e+000  2.5791e+000  3.8307e-001 61708 71511,71693,71667
 1.3000e+000 71834  1.9985e+000  3.2280e+000 -6.4094e-001 61708 71485,71693,71511
 1.3000e+000 71811  2.8101e+000 -1.3154e+000 -1.3123e-001 61708 71880,71537,71511
 1.3000e+000 71788  2.5277e+000  1.3018e+000 -1.2648e+000 61708 71880,71511,71667
 1.3000e+000 71765  5.2261e+000 -4.1448e+000 -2.6698e+000 61708 71537,71615,71589
 1.3000e+000 71742  1.6051e+000  4.3112e+000  2.8508e+000 61708 71615,71667,71641
 1.3000e+000 71719  1.9031e-001 -6.9136e+000 -1.3019e+000 61708 71537,71589,71563
 1.3000e+000 71906  3.1944e+000 -3.3989e+000 -1.6850e-001 61708 71615,71537,71880
 1.3000e+000 71929  2.4084e+000 -1.3565e+000 -1.2074e+000 61708 71615,71880,71667
 1.3000e+000 72226 -4.6178e+000  4.2430e+000  1.4520e+000 61204 72249,72056,72004
 1.3000e+000 72203 -7.0611e+000 -4.2309e-001  5.4371e-001 61204 72249,72004,71978
 1.3000e+000 72180 -2.7496e+000 -2.0738e+000  2.3591e+000 61204 71978,72108,72082
 1.3000e+000 72157  3.6976e+000  1.1147e+001  6.3131e+000 61204 72004,72056,72030
 1.3000e+000 72134 -6.0521e-001  1.1116e+000  3.2983e+000 61204 71952,72108,71978
 1.3000e+000 72275 -2.7825e+000  5.8688e-001  3.5048e+000 61204 72082,72056,72249
 1.3000e+000 72298 -4.0897e+000 -1.9640e+000  2.9447e+000 61204 72082,72249,71978
 1.3000e+000 72757 -5.1828e+000  7.5430e-001  6.4488e+000 60800 72483,72613,72509
 1.3000e+000 72734 -4.7740e+000 -8.1282e+000  5.3158e+000 60800 72483,72639,72613
 1.3000e+000 72711  3.9276e+000  6.5569e+000  8.5385e+000 60800 72561,72613,72587
 1.3000e+000 72688 -4.6968e+000  1.2502e+000  6.0932e+000 60800 72509,72613,72561
 1.3000e+000 72665 -2.9152e+000  5.6435e+000  6.6687e+000 60800 72509,72561,72535
 1.3000e+000 72907 -2.6691e+000  6.5133e+000 -1.3740e+000 60552 72780,72832,72806
 1.3000e+000 72884  2.3159e+000  1.2639e+001 -3.6356e+000 60552 72780,72858,72832
 1.3000e+000 73464  4.4923e+000 -1.1924e+000  8.1465e+000 60240 73487,73222,73196
 1.3000e+000 73441  6.3310e+000  5.2305e+000  9.0054e+000 60240 73559,73487,73196
 1.3000e+000 73418  1.8900e-001  9.7600e+000  9.2041e+000 60240 73559,73196,73170
 1.3000e+000 73395  6.3227e+000 -1.1492e+001  5.9773e+000 60240 73222,73274,73248
 1.3000e+000 73372  4.9363e+000  1.0794e-001  5.3560e+000 60240 73118,73300,73274
 1.3000e+000 73349  4.2368e+000 -6.2755e+000  5.9759e+000 60240 73092,73300,73118
 1.3000e+000 73326 -8.9241e+000  4.1791e+000  1.7470e+001 60240 73118,73170,73144
 1.3000e+000 73513  3.1521e+000 -7.8087e-001  5.7601e+000 60240 73274,73222,73487
 1.3000e+000 73536  3.5823e+000  3.4946e-001  5.6990e+000 60240 73274,73487,73118
 1.3000e+000 73585 -6.3030e-001 -1.3934e+000  6.0910e+000 60240 73118,73487,73559
 1.3000e+000 73608 -5.8719e+000  4.0015e+000  6.6103e+000 60240 73118,73559,73170
 1.3000e+000 73758 -2.1315e+001 -8.8404e+000 -5.4006e+000 59871 73657,73709,73683
 1.3000e+000 73735 -4.2600e+000 -2.1768e+001 -2.0865e+000 59871 73631,73709,73657
 1.3000e+000 74187 -5.9959e+000  3.8165e+000  1.6075e+000 59474 74210,73890,73864
 1.3000e+000 74164 -5.1882e+000  1.1756e+000  1.9056e+000 59474 74210,73864,74046
 1.3000e+000 74141 -7.3918e+000  4.0251e+000  9.3888e-001 59474 73890,73942,73916
 1.3000e+000 74118 -8.9847e+000  3.7398e+000  1.4544e+000 59474 73890,73994,73942
 1.3000e+000 74095 -6.2812e+000  4.0659e+000  5.5011e+000 59474 73994,74046,74020
 1.3000e+000 74072 -6.0310e+000  2.6225e+000  3.3601e+000 59474 73942,73994,73968
 1.3000e+000 74236 -5.6438e+000  5.2769e+000  1.8392e+000 59474 73994,73890,74210
 1.3000e+000 74259 -4.1392e+000  3.6170e+000  2.3341e+000 59474 73994,74210,74046
 1.3000e+000 74716 -8.1600e+000 -1.5104e+001 -8.4985e+000 58770 74468,74598,74494
 1.3000e+000 74693 -2.4080e+000 -1.0333e+001 -6.2016e+000 58770 74442,74598,74468
 1.3000e+000 74670 -1.4108e+001 -2.3857e+001 -1.5685e+001 58770 74494,74572,74520
 1.3000e+000 74647 -4.0147e+000 -1.0353e+001 -6.4907e+000 58770 74494,74598,74572
 1.3000e+000 74624  1.1609e+000 -8.8536e+000 -4.4888e+000 58770 74520,74572,74546
 1.3000e+000 75222 -3.6269e+000  7.3988e+000  4.8394e+000 58266 74951,75081,75029
 1.3000e+000 75199  3.1892e+000  6.6982e+000  7.7128e+000 58266 74925,75081,74951
 1.3000e+000 75176 -9.8392e+000  1.5374e-001  8.4997e+000 58266 75029,75081,75055
 1.3000e+000 75153 -9.0325e+000  1.1531e+001  5.6704e+000 58266 74951,75003,74977
 1.3000e+000 75130 -6.7361e+000  5.7358e+000  7.0958e+000 58266 74951,75029,75003
 1.3000e+000 75107 -9.3978e+000 -2.9934e+000  1.9880e+000 58266 74899,75081,74925
 1.3000e+000 75421 -1.6659e+000  9.3903e+000  3.7981e+000 57826 75444,75297,75245
 1.3000e+000 75398  1.7212e+000  4.9132e+000  5.1180e+000 57826 75444,75245,75349
 1.3000e+000 75375 -3.9485e+000  1.0963e+001  3.3165e+000 57826 75516,75297,75271
 1.3000e+000 75470  3.0450e-001  1.0374e+001  5.6937e+000 57826 75323,75297,75444
 1.3000e+000 75493  5.5045e+000  9.5843e+000  7.9761e+000 57826 75323,75444,75349
 1.3000e+000 75542 -7.8153e-001  8.5695e+000  2.3446e+000 57826 75245,75297,75516
 1.3000e+000 76257  1.2411e+001  2.0118e+001  2.1855e+000 57422 76280,76093,76067
 1.3000e+000 76234  1.0743e+001  1.1148e+001  4.5470e+000 57422 75885,76093,75911
 1.3000e+000 76211  1.1602e+001  1.8869e+001  8.6485e-001 57422 76424,76280,76067
 1.3000e+000 76188  1.6488e+001  1.9162e+001  4.6130e+000 57422 76352,75937,75911
 1.3000e+000 76165  8.9720e+000  1.8026e+001 -4.9047e-001 57422 76424,76067,76015
 1.3000e+000 76142  1.4377e+001  4.0019e+001  6.3976e+000 57422 76015,76067,76041
 1.3000e+000 76119  2.4316e+001  1.9646e+001  1.0161e+000 57422 75963,76015,75989
 1.3000e+000 76306  1.0382e+001  1.4290e+001  5.5774e+000 57422 75911,76093,76280
 1.3000e+000 76329  1.7493e+001  1.8052e+001  4.1063e+000 57422 76352,75911,76280
 1.3000e+000 76378  1.8266e+001  2.0997e+001  5.5806e+000 57422 75963,75937,76352
 1.3000e+000 76401  1.8764e+001  1.9732e+001  4.9030e+000 57422 75963,76352,76280
 1.3000e+000 76450  1.6070e+001  1.6682e+001  1.8361e-001 57422 75963,76280,76424
 1.3000e+000 76473  1.2242e+001  1.5264e+001 -7.7616e-001 57422 75963,76424,76015
 1.3000e+000 76949 -1.0963e+001 -2.2966e+000  8.3779e+000 56904 76972,76707,76681
 1.3000e+000 76926 -6.6936e+000  1.1900e+001  1.7566e+000 56904 77044,76972,76681
 1.3000e+000 76903 -5.6897e+000  2.0197e+001  1.6337e+000 56904 77044,76681,76629
 1.3000e+000 76880 -1.2647e-001  1.4068e+000  3.2440e+000 56904 76707,76785,76759
 1.3000e+000 76857  2.3254e+000  3.1095e+000 -5.8573e+000 56904 76577,76785,76603
 1.3000e+000 76834 -1.9956e+000 -3.2845e-001  2.6567e-001 56904 76707,76759,76733
 1.3000e+000 76811  4.3555e+000  1.8108e+001  1.1888e+001 56904 76629,76681,76655
 1.3000e+000 76998  1.9255e-001  4.5017e+000  2.9588e+000 56904 76785,76707,76972
 1.3000e+000 77021 -5.2985e+000  3.9329e+000 -2.0021e+000 56904 76785,76972,76603
 1.3000e+000 77070 -4.4858e+000  3.9173e+000 -1.9905e+000 56904 76603,76972,77044
 1.3000e+000 77093 -4.2895e+000  1.0061e+001 -8.0875e-001 56904 76603,77044,76629
 1.3000e+000 77471 -1.0897e+001  1.3303e+001 -1.0628e+001 56542 77566,77494,77275
 1.3000e+000 77448 -3.9787e+000  1.6548e+001 -4.2073e+000 56542 77494,77223,77353
 1.3000e+000 77425 -8.7384e+000  1.2646e+001 -1.7334e+001 56542 77566,77275,77249
 1.3000e+000 77402  5.9094e+000  1.7729e+001  2.5195e+000 56542 77197,77353,77223
 1.3000e+000 77379 -7.6240e+000  1.9167e+001 -1.6792e+001 56542 77275,77327,77301
 1.3000e+000 77520 -6.9843e+000  2.7846e+001 -9.9027e+000 56542 77327,77275,77494
 1.3000e+000 77543 -1.6943e+001  1.6750e+001 -4.1889e+000 56542 77327,77494,77353
 1.3000e+000 77592  2.4082e+000  1.8133e+001 -6.5145e+000 56542 77223,77494,77566
 1.3000e+000 77615 -1.4832e+000  1.0883e+001 -1.4207e+001 56542 77223,77566,77249
 1.3000e+000 77814  1.0856e+001  1.7451e+001 -1.3166e+001 56038 77837,77690,77664
 1.3000e+000 77791  1.3027e+001  1.7361e+001 -1.0901e+001 56038 77837,77664,77742
 1.3000e+000 77768  1.4694e+001  8.1205e+000 -1.0885e+001 56038 77638,77742,77664
 1.3000e+000 77863  1.1192e+001  1.9320e+001 -1.1782e+001 56038 77716,77690,77837
 1.3000e+000 77886  1.3475e+001  1.9082e+001 -9.5183e+000 56038 77716,77837,77742
 1.3000e+000 78345  5.3692e+000  1.4326e+001  1.6025e+001 55534 78071,78123,78097
 1.3000e+000 78322 -5.7750e+000  3.8984e+000  6.7161e+000 55534 78071,78201,78123
 1.3000e+000 78299 -7.0682e+000  6.2894e+000  7.4119e+000 55534 78071,78227,78201
 1.3000e+000 78276  9.4055e+000  1.0230e+001  1.1953e+001 55534 78123,78175,78149
 1.3000e+000 78253  7.9120e+000  1.1976e+001  1.0052e+001 55534 78123,78201,78175
 1.3000e+000 78802 -1.1047e+001  1.6907e+001 -5.5033e-001 55030 78825,78632,78606
 1.3000e+000 78779 -2.9539e+000  1.9391e+001 -4.1508e+000 55030 78897,78825,78606
 1.3000e+000 78756 -1.2179e+001  2.6758e+001 -9.6074e+000 55030 78897,78606,78580
 1.3000e+000 78733  4.0995e+000  1.3153e+001 -1.0579e+000 55030 78554,78684,78658
 1.3000e+000 78710  1.2392e+000  6.2266e+000 -2.1359e+000 55030 78528,78684,78554
 1.3000e+000 78851 -1.4527e+000  2.9781e+001  4.6479e+000 55030 78658,78632,78825
 1.3000e+000 78874 -4.7903e+000  1.1377e+001 -3.5239e+000 55030 78658,78825,78554
 1.3000e+000 78923 -1.2258e+001  6.8846e+000 -9.5447e+000 55030 78554,78825,78897
 1.3000e+000 78946 -1.7751e+001  1.3933e+001 -1.4895e+001 55030 78554,78897,78580
 1.3000e+000 79403  5.4762e+000  1.1061e+001  4.7425e+000 54426 79426,79233,79155
 1.3000e+000 79380  1.2559e+001  1.0515e+001  1.5231e+000 54426 79426,79155,79129
 1.3000e+000 79357 -6.0105e+000  1.4559e+001 -1.0789e+000 54426 79233,79285,79259
 1.3000e+000 79334  5.8700e+000  1.2584e+001  9.6082e+000 54426 79181,79233,79207
 1.3000e+000 79311  5.1482e+000  1.0056e+001  5.0717e+000 54426 79155,79233,79181
 1.3000e+000 79452  3.5784e+000  9.7452e+000  7.0361e+000 54426 79285,79233,79426
 1.3000e+000 79475  7.5937e+000  5.8729e+000  4.3992e+000 54426 79285,79426,79129
 1.3000e+000 79932 -4.7574e+000  8.9990e+000  7.8280e+000 53915 79658,79762,79684
 1.3000e+000 79909 -1.1797e+001 -1.2095e+000  1.0967e+001 53915 79658,79814,79762
 1.3000e+000 79886 -7.5196e+000 -2.7877e+000  1.7722e+001 53915 79762,79814,79788
 1.3000e+000 79863 -9.3372e+000  1.0908e+001  1.4551e+001 53915 79710,79762,79736
 1.3000e+000 79840 -1.0347e+001  5.1399e+000  1.0033e+001 53915 79684,79762,79710
 1.3000e+000 80033 -8.0220e+000  2.7624e+000 -1.6161e-001 53667 79955,80007,79981
 1.3000e+000 80401 -1.4139e+001 -5.4661e+000 -1.7364e+000 53263 80104,80260,80234
 1.3000e+000 80378 -9.8869e+000  1.3348e+000  1.4480e+000 53263 80078,80260,80104
 1.3000e+000 80355 -9.4217e+000 -5.7698e+000 -7.8992e-001 53263 80104,80234,80130
 1.3000e+000 80332 -9.4273e+000 -2.9202e+000 -3.8424e-001 53263 80130,80208,80182
 1.3000e+000 80309 -9.3767e+000 -4.6213e+000  8.7323e-001 53263 80130,80234,80208
 1.3000e+000 80286 -8.9833e+000  1.5165e+000  1.6446e+000 53263 80130,80182,80156
 1.3000e+000 80911 -1.6714e+001 -6.9063e+000 -3.6497e+000 52965 80640,80770,80744
 1.3000e+000 80888 -6.2937e+000  2.1459e+000  2.5651e+000 52965 80614,80770,80640
 1.3000e+000 80865 -9.2117e+000  2.3939e+000  1.6216e+000 52965 80640,80744,80666
 1.3000e+000 80842 -4.1527e+000  4.0388e-001 -3.8558e-001 52965 80588,80770,80614
 1.3000e+000 80819 -7.1903e+000  1.8807e-001  2.1637e+000 52965 80666,80718,80692
 1.3000e+000 80796 -1.3274e+001 -2.2534e+000 -5.1947e-001 52965 80666,80744,80718
 1.3000e+000 81262 -5.5571e+001  2.8762e+000  1.4295e+000 52561 81037,81141,81063
 1.3000e+000 81239 -5.7330e+001 -9.6035e+000  1.1471e+000 52561 81037,81167,81141
 1.3000e+000 81216 -9.9669e+001  1.2669e+001 -3.1577e+000 52561 81063,81115,81089
 1.3000e+000 81193 -1.0245e+002 -1.0559e+001 -1.2226e+001 52561 81063,81141,81115
 1.3000e+000 81719 -1.4573e+001 -2.6881e-001  1.8059e+000 51900 81445,81523,81471
 1.3000e+000 81696 -1.4771e+001 -3.6812e+000 -1.4260e-001 51900 81445,81575,81523
 1.3000e+000 81673 -1.0216e+001  5.5616e-001 -1.9879e+000 51900 81445,81601,81575
 1.3000e+000 81650 -6.3908e+000  7.4715e+000  4.2619e+000 51900 81523,81575,81549
 1.3000e+000 81627 -5.7429e+000  1.5311e+000  2.3161e+000 51900 81471,81523,81497
 1.3000e+000 82323 -3.4060e+000  5.0533e+000  5.7511e+000 51317 82418,82346,82032
 1.3000e+000 82300 -1.0066e+001  2.9376e+000  5.2990e+000 51317 82490,82346,81954
 1.3000e+000 82277 -2.3254e+000  7.4245e+000  6.0054e+000 51317 82418,82032,82006
 1.3000e+000 82254 -1.4280e+001 -8.7468e-001  8.8927e+000 51317 82490,81954,81928
 1.3000e+000 82231 -7.0861e+000 -3.1658e+000  7.6493e+000 51317 82058,82110,82084
 1.3000e+000 82208 -1.6082e+001  1.2961e+001  2.9841e+000 51317 81928,82136,82110
 1.3000e+000 82185  1.0871e+001  7.6632e+000  8.1046e+000 51317 81954,82006,81980
 1.3000e+000 82162 -2.4449e+001  9.3791e+000  3.1857e+000 51317 81902,82136,81928
 1.3000e+000 82372 -8.2158e+000 -3.0322e+000  3.5015e+000 51317 82058,82032,82346
 1.3000e+000 82395 -8.2018e+000  5.9918e+000  2.6155e+000 51317 82058,82346,82110
 1.3000e+000 82444 -3.3687e+000  3.7214e+000  2.6555e+000 51317 81954,82346,82418
 1.3000e+000 82467 -2.3573e+000  5.9777e+000  2.8779e+000 51317 81954,82418,82006
 1.3000e+000 82516 -1.0261e+001  6.2032e+000  3.0869e+000 51317 82110,82346,82490
 1.3000e+000 82539 -1.0199e+001  5.1471e+000  5.9136e+000 51317 82110,82490,81928
 1.3000e+000 83015 -3.8481e+000  1.2796e-001  1.1520e-002 50813 82669,82747,82695
 1.3000e+000 82992 -9.9432e+000  1.1546e+000  1.0208e+001 50813 83038,82669,82851
 1.3000e+000 82969 -1.1902e+001  9.9806e-002  9.4355e+000 50813 83038,82851,82799
 1.3000e+000 82946 -1.1301e+001 -1.4836e+000  1.2254e+001 50813 82747,82799,82773
 1.3000e+000 82923 -3.4091e+000  2.3202e+000  8.8537e+000 50813 82643,82851,82669
 1.3000e+000 82900 -1.1424e+001 -5.0120e+000  6.7494e+000 50813 82799,82851,82825
 1.3000e+000 82877 -3.5361e+000 -8.7735e-002 -6.9225e-001 50813 82695,82747,82721
 1.3000e+000 83064 -6.6883e+000  2.3877e-001  1.1305e+001 50813 82747,82669,83038
 1.3000e+000 83087 -9.3546e+000 -1.2380e+000  1.0503e+001 50813 82747,83038,82799
 1.3000e+000 83286  6.1987e+000 -6.6091e+000 -3.5112e+000 50352 83309,83162,83136
 1.3000e+000 83263  2.7077e+000  6.1495e+000  3.5953e-001 50352 83511,83309,83136
 1.3000e+000 83240  4.7473e+000  8.4480e+000  1.6916e+000 50352 83511,83136,83381
 1.3000e+000 83335  1.6482e+001  5.6295e+000 -9.1401e+000 50352 83188,83162,83309
 1.3000e+000 83358  9.9764e-001  3.7660e+000 -5.2406e+000 50352 83188,83309,83214
 1.3000e+000 83407  5.9753e+000  2.3145e+001  2.2992e+000 50352 83110,83214,83381
 1.3000e+000 83537  1.4453e-001  8.2417e+000 -1.3604e+000 50352 83214,83309,83511
 1.3000e+000 83560  6.2378e-001  8.0981e+000 -5.2056e-001 50352 83214,83511,83381
 1.3000e+000 83889 -1.0679e+001 -4.6159e+000  7.8933e-002 49548 83716,83794,83742
 1.3000e+000 83866 -9.0384e+000 -4.0949e+000  1.5675e+000 49548 83690,83794,83716
 1.3000e+000 83843 -1.3637e+001 -9.2653e+000 -6.6402e-001 49548 83664,83794,83690
 1.3000e+000 83820 -8.4891e+000 -3.9677e+000 -2.0132e-001 49548 83742,83794,83768
 1.3000e+000 84137  1.0549e+001  1.1153e+001  3.6983e-001 49208 84160,84016,83938
 1.3000e+000 84114  1.9395e+001  3.1313e+001 -5.7698e+000 49208 84160,83938,83912
 1.3000e+000 84091  1.5666e+001  9.3009e+000 -1.7082e+000 49208 83938,84016,83964
 1.3000e+000 84068  1.0451e+001  1.8696e+000 -4.1773e+000 49208 83964,84016,83990
 1.3000e+000 84186  1.6507e+001  2.1112e+001 -1.0177e+001 49208 84042,84016,84160
 1.3000e+000 84209  1.9437e+001  3.2558e+001 -1.5672e+001 49208 84042,84160,83912
 1.3000e+000 84796 -1.4729e+001 -2.4362e+000  8.3580e-002 48861 84499,84629,84551
 1.3000e+000 84773 -9.3871e+000  4.4275e+000  2.5689e+000 48861 84499,84655,84629
 1.3000e+000 84750 -1.3973e+001  3.9639e-001  2.2319e+000 48861 84551,84629,84577
 1.3000e+000 84727 -1.8185e+000  4.1523e-001  1.1206e+000 48861 84577,84629,84603
 1.3000e+000 84704 -8.3699e+000 -1.4141e+000  8.6066e-001 48861 84499,84551,84525
 1.3000e+000 84681 -8.7607e+000  4.7951e+000 -1.3617e+000 48861 84473,84655,84499
 1.3000e+000 85351 -2.3333e+000  1.6594e+000  3.4947e+000 48457 85374,85031,85005
 1.3000e+000 85328  3.3913e+000  5.6539e+000  7.5145e-001 48457 85374,85005,85161
 1.3000e+000 85305  1.0543e+001  3.3880e+000  3.7989e+000 48457 85446,85057,85031
 1.3000e+000 85282 -4.0652e+000  2.1005e+000  1.7724e+000 48457 85005,85187,85161
 1.3000e+000 85259 -7.8077e-001  4.5529e+000 -1.4723e+000 48457 85083,85161,85109
 1.3000e+000 85236 -2.7262e+000  1.5702e+000  7.7716e-001 48457 84979,85187,85005
 1.3000e+000 85213  6.8667e-001  6.0022e+000 -2.7380e+000 48457 85109,85161,85135
 1.3000e+000 85400  7.1907e+000  5.8240e+000  2.9335e+000 48457 85446,85031,85374
 1.3000e+000 85423 -5.4083e-002  3.6490e+000 -6.8071e-002 48457 85083,85374,85161
 1.3000e+000 85472  6.5060e+000  2.3929e+000  6.8624e-001 48457 85083,85057,85446
 1.3000e+000 85495  1.8072e+000  3.0680e+000 -6.4233e-001 48457 85083,85446,85374
 1.3000e+000 86080  1.5684e+001  1.0121e+001  3.6216e+000 48053 86319,86103,85783
 1.3000e+000 86057  9.8468e+000  1.1777e+001  4.3292e+000 48053 86103,85757,85939
 1.3000e+000 86034  7.0550e+000  9.9161e+000 -1.6996e+000 48053 86247,86175,85887
 1.3000e+000 86011  6.1753e+000  1.0891e+001 -4.2069e+000 48053 86247,85887,85835
 1.3000e+000 85988 -1.2659e+000  7.5633e+000 -3.1716e+000 48053 85887,85939,85913
 1.3000e+000 85965  1.1219e+001  8.9459e+000 -7.8166e+000 48053 85835,85887,85861
 1.3000e+000 86129  1.4336e+001  1.1067e+001  5.1828e-001 48053 85809,85783,86103
 1.3000e+000 86152  1.2254e+001  1.1869e+001  3.1021e-001 48053 86175,85809,86103
 1.3000e+000 86201  1.0257e+001  1.1789e+001 -7.2416e-001 48053 85939,85887,86175
 1.3000e+000 86224  1.0081e+001  1.0317e+001 -4.2331e-001 48053 85939,86175,86103
 1.3000e+000 86273  1.2881e+001  1.1017e+001 -1.1859e+000 48053 85809,86175,86247
 1.3000e+000 86296  9.3483e+000  1.0419e+001 -3.4655e+000 48053 85809,86247,85835
 1.3000e+000 86345  1.7645e+001  1.1757e+001  4.4093e+000 48053 85757,86103,86319
 1.3000e+000 86851  8.4499e+000 -4.6079e+000  1.1059e+000 47541 86874,86580,86554
 1.3000e+000 86828  7.6246e+000 -4.9051e+000  6.9510e-001 47541 86946,86874,86554
 1.3000e+000 86805  7.6396e+000 -3.6178e+000  1.3187e+000 47541 86946,86554,86528
 1.3000e+000 86782  1.6804e+001 -3.8205e+000  1.3933e+000 47541 86580,86658,86606
 1.3000e+000 86759  1.5355e+001  1.7947e+000 -5.2040e-001 47541 86528,86710,86684
 1.3000e+000 86736  1.0119e+000  9.3468e-001 -9.8337e-001 47541 86606,86658,86632
 1.3000e+000 86900  8.2851e+000 -5.6164e+000  1.1718e+000 47541 86658,86580,86874
 1.3000e+000 86923  7.8656e+000 -4.8139e+000  1.1459e-001 47541 86658,86874,86684
 1.3000e+000 86972  8.3600e+000 -2.8318e+000  6.5681e-001 47541 86684,86874,86946
 1.3000e+000 86995  7.8364e+000 -2.7088e+000  1.4897e+000 47541 86684,86946,86528
 1.3000e+000 87324 -6.6937e+000 -1.5587e-001  2.9780e+000 47044 87151,87203,87177
 1.3000e+000 87301 -8.8283e+000 -3.1177e+000  6.1622e-001 47044 87125,87203,87151
 1.3000e+000 87278 -5.9008e+000 -3.2434e+000  9.6282e-001 47044 87099,87203,87125
 1.3000e+000 87255 -9.7057e+000 -1.0364e+001 -2.2242e+000 47044 87099,87229,87203
 1.3000e+000 87572 -1.0524e+001 -3.6401e+000  2.0715e+000 46697 87595,87425,87373
 1.3000e+000 87549 -1.1125e+001 -3.8118e+000  2.1300e+000 46697 87595,87373,87477
 1.3000e+000 87526 -1.3674e+001 -4.7513e+000  2.7874e+000 46697 87347,87477,87373
 1.3000e+000 87503 -9.6513e+000 -3.2514e+000  1.4554e+000 46697 87373,87425,87399
 1.3000e+000 87621 -1.0984e+001 -2.5359e+000  1.5723e+000 46697 87451,87425,87595
 1.3000e+000 87644 -1.2569e+001 -3.4291e+000  1.9684e+000 46697 87451,87595,87477
 1.3000e+000 87794 -1.7449e+001  7.5658e+000 -2.5874e+000 46235 87693,87745,87719
 1.3000e+000 87771 -1.8377e+001 -9.3542e+000  8.6356e-001 46235 87667,87745,87693
 1.3000e+000 88304 -1.5538e+001 -1.7700e-002  3.4650e+000 45731 88085,88163,88137
 1.3000e+000 88281 -1.5582e+001 -2.9012e+000  3.9062e+000 45731 88007,88163,88085
 1.3000e+000 88258 -2.2276e+001 -6.4900e+000  2.1224e+000 45731 87981,88163,88007
 1.3000e+000 88235 -1.8713e+001 -1.9132e-001  4.7968e+000 45731 88007,88085,88059
 1.3000e+000 88212 -3.8932e+000  4.8013e+000  1.1351e+000 45731 88085,88137,88111
 1.3000e+000 88189 -1.8710e+001 -1.5799e-002  4.7151e+000 45731 88007,88059,88033
 1.3000e+000 88682 -1.8125e+001 -5.6125e+000 -1.0993e+000 45312 88434,88512,88486
 1.3000e+000 88659 -2.9919e+001 -2.3385e+001  7.5854e+000 45312 88434,88538,88512
 1.3000e+000 88636 -1.8686e+001 -3.7467e+000  1.7525e+000 45312 88434,88564,88538
 1.3000e+000 88613 -8.2750e+000 -6.0562e+000  1.9899e-001 45312 88434,88486,88460
 1.3000e+000 88590 -2.3659e+001  2.2167e+001  2.5034e+001 45312 88408,88564,88434
 1.3000e+000 88930  1.2786e+001  1.6744e+001 -6.0949e-001 44808 88953,88731,88705
 1.3000e+000 88907  6.2276e+000  9.2128e+000  4.5397e+000 44808 88953,88705,88835
 1.3000e+000 88884  1.1518e+001 -6.1697e-001  7.6543e+000 44808 89025,88783,88757
 1.3000e+000 88861  1.0845e+001  1.6222e+000  1.1202e+001 44808 88783,88835,88809
 1.3000e+000 88979  6.3646e-001  9.4091e+000  4.1460e+000 44808 88757,88731,88953
 1.3000e+000 89002  3.4255e+000  2.7284e+000  8.9977e+000 44808 89025,88757,88953
 1.3000e+000 89051  1.3878e+001  3.1283e+000  6.2839e+000 44808 88835,88783,89025
 1.3000e+000 89074  1.1121e+001  1.1839e+001  5.5430e+000 44808 88835,89025,88953
 1.3000e+000 89224 -1.8736e+002 -4.1603e+001  1.0455e+001 44404 89123,89175,89149
 1.3000e+000 89201 -1.7924e+002 -5.8714e+000 -2.0774e+000 44404 89097,89175,89123
 1.3000e+000 89783  1.3456e+001  2.6118e+001 -6.8507e+000 43850 89806,89541,89515
 1.3000e+000 89760  8.9682e+000  1.2189e+001 -2.6068e+000 43850 89806,89515,89463
 1.3000e+000 89737  8.7705e+000  1.2552e+001 -8.4321e-001 43850 89950,89878,89593
 1.3000e+000 89714  7.1154e+000  1.3127e+001  1.5379e+000 43850 89950,89593,89567
 1.3000e+000 89691  1.2382e+001  1.0206e+001  1.3774e+000 43850 89411,89619,89463
 1.3000e+000 89668  2.0282e+001  1.2092e+001 -4.7506e+000 43850 89463,89515,89489
 1.3000e+000 89645  1.3582e+001  9.8059e+000  7.2674e-001 43850 89411,89463,89437
 1.3000e+000 89832  6.1762e+000  2.0010e+001  4.3716e-001 43850 89878,89541,89806
 1.3000e+000 89855  1.2811e+001  1.6032e+001  5.9954e-001 43850 89619,89806,89463
 1.3000e+000 89904  8.6198e+000  5.7900e+000  2.6531e+000 43850 89619,89593,89878
 1.3000e+000 89927  1.0535e+001  8.9462e+000  9.6338e-001 43850 89619,89878,89806
 1.3000e+000 89976  1.6950e+000  9.9058e+000  3.3611e+000 43850 89541,89878,89950
 1.3000e+000 89999 -3.4843e+000  6.4871e+000  6.5454e+000 43850 89541,89950,89567
 1.3000e+000 90247  3.9216e+000  4.5554e+001  8.0383e+000 43488 90022,90074,90048
 1.3000e+000 90224 -8.6271e+000  3.1361e+001  2.3631e+000 43488 90270,90022,90152
 1.3000e+000 90201 -6.1911e+000  2.2627e+001  1.4879e+000 43488 90342,90270,90152
 1.3000e+000 90178 -7.5089e+000  1.1878e+001  1.3254e+001 43488 90342,90152,90126
 1.3000e+000 90296 -6.0142e+000  2.0729e+001  7.2401e+000 43488 90074,90022,90270
 1.3000e+000 90319 -8.4874e+000  1.9648e+001  7.0087e+000 43488 90074,90270,90100
 1.3000e+000 90368 -1.9631e+001  1.0274e+001  1.2602e+001 43488 90100,90270,90342
 1.3000e+000 90391 -2.1050e+001 -1.9761e+000  2.4360e+001 43488 90100,90342,90126
 1.3000e+000 90590 -1.5837e+001 -4.7774e+000 -1.0972e+000 43048 90414,90492,90440
 1.3000e+000 90567 -1.5923e+001 -1.2766e+001  9.6693e-001 43048 90414,90518,90492
 1.3000e+000 90544 -1.8371e+001  2.0439e+000  2.6544e+000 43048 90440,90492,90466
 1.3000e+000 91070 -6.0842e+000 -7.5765e+000 -3.3736e-002 42430 91237,90880,90854
 1.3000e+000 91047 -7.3532e+000 -8.0482e+000  8.3797e-001 42430 90698,90906,90880
 1.3000e+000 91024 -1.1273e+001 -5.5228e+000  2.3434e+000 42430 91093,90750,90698
 1.3000e+000 91001 -8.3975e+000 -6.8201e+000  1.5210e+000 42430 91237,90854,91093
 1.3000e+000 90978 -8.9238e+000 -8.0460e+000  2.3587e+000 42430 91165,90802,90776
 1.3000e+000 90955 -5.6165e+000 -6.3293e+000  3.0461e+000 42430 90802,90854,90828
 1.3000e+000 90932 -1.1626e+001 -4.9111e+000  2.4982e+000 42430 90698,90750,90724
 1.3000e+000 91119 -1.3106e+001 -7.2058e+000  3.7811e+000 42430 90776,90750,91093
 1.3000e+000 91142 -9.8232e+000 -8.6973e+000  2.8533e+000 42430 91165,90776,91093
 1.3000e+000 91191 -8.6816e+000 -7.8785e+000  1.6771e+000 42430 90854,90802,91165
 1.3000e+000 91214 -9.1981e+000 -7.8332e+000  2.0635e+000 42430 90854,91165,91093
 1.3000e+000 91263 -9.6360e+000 -7.8770e+000  2.7716e-001 42430 90698,90880,91237
 1.3000e+000 91286 -1.2206e+001 -7.1848e+000  1.6733e+000 42430 90698,91237,91093
 1.3000e+000 91694  7.1984e+000  8.9028e+000 -4.8428e+000 41769 91469,91573,91495
 1.3000e+000 91671  3.5073e+000  7.7110e+000 -4.8811e+000 41769 91469,91599,91573
 1.3000e+000 91648  1.0480e+001  9.7296e+000 -2.5444e+000 41769 91495,91547,91521
 1.3000e+000 91625  4.9790e+000  8.2312e+000 -5.1825e+000 41769 91495,91573,91547
 1.3000e+000 92040  4.0310e+001  3.4503e+001  9.4991e+000 41379 91769,91873,91847
 1.3000e+000 92017  2.5244e+001  2.4395e+001  3.8903e+000 41379 91743,91873,91769
 1.3000e+000 91994  3.3646e+001  3.5378e+001  8.9661e+000 41379 91769,91847,91795
 1.3000e+000 91971  2.7804e+001  2.3693e+001  4.9191e+000 41379 91743,91899,91873
 1.3000e+000 91948  1.4917e+001  1.6035e+001  9.9416e-001 41379 91717,91899,91743
 1.3000e+000 91925  2.2819e+001  2.4719e+001  1.5621e+000 41379 91795,91847,91821
 1.3000e+000 92597  7.5393e+000  9.2682e+000 -3.7652e+000 40975 92225,92407,92303
 1.3000e+000 92574  1.8891e+000  6.7479e+000 -2.8384e+000 40975 92225,92433,92407
 1.3000e+000 92551  7.3124e+000  5.3824e+000 -5.0277e+000 40975 92225,92303,92277
 1.3000e+000 92528 -2.2389e+000  1.0710e+001 -7.0719e+000 40975 92329,92407,92381
 1.3000e+000 92505 -1.7243e+000  6.9720e+000 -4.6645e+000 40975 92303,92407,92329
 1.3000e+000 92482  7.7831e+000  1.1095e+000 -2.9028e+000 40975 92225,92277,92251
 1.3000e+000 92459 -1.0276e+001  9.7721e+000 -5.3221e+000 40975 92329,92381,92355
 1.3000e+000 93231 -6.3294e+001 -2.1576e+000 -9.2683e+000 40521 92937,92989,92963
 1.3000e+000 93208 -2.3360e+001 -3.7495e+000 -1.3517e+000 40521 93254,92937,92885
 1.3000e+000 93185 -1.8034e+001 -3.6951e+000  1.6995e+000 40521 93254,92885,93067
 1.3000e+000 93162 -1.4069e+001 -8.0359e+000 -4.8501e+000 40521 92885,92937,92911
 1.3000e+000 93139 -1.9623e+001 -3.3454e+000  1.6839e+000 40521 92859,93067,92885
 1.3000e+000 93116 -1.1967e+001 -2.2671e-001  5.2375e-001 40521 92989,93067,93015
 1.3000e+000 93093 -4.7065e+000 -2.7105e+000  4.6237e-001 40521 93015,93067,93041
 1.3000e+000 93280 -2.1938e+001 -9.3684e-001  2.1580e+000 40521 92989,92937,93254
 1.3000e+000 93303 -1.5623e+001 -2.8234e+000  4.4277e+000 40521 92989,93254,93067
 1.3000e+000 93632 -6.4722e+000  6.9875e+000  6.4892e+000 40231 93433,93537,93511
 1.3000e+000 93609 -1.1045e+001  2.7668e+000  4.5778e+000 40231 93407,93537,93433
 1.3000e+000 93586 -4.6604e+000  3.1779e+001 -3.2264e-001 40231 93459,93511,93485
 1.3000e+000 93563 -5.7341e+000  1.0266e+001 -3.0846e+000 40231 93433,93511,93459
 1.3000e+000 94010 -1.7992e+001  1.5108e+001  1.6670e+000 39869 93762,93866,93788
 1.3000e+000 93987 -5.4286e+000  1.7779e+001  7.5554e-001 39869 93762,93892,93866
 1.3000e+000 93964 -2.3653e+001  1.4120e+000 -9.5917e-001 39869 93788,93866,93840
 1.3000e+000 93941 -2.6804e+001  9.0029e+000 -1.1439e+001 39869 93788,93840,93814
 1.3000e+000 93918 -9.7863e+000  9.4676e+000 -8.9582e-001 39869 93736,93892,93762
 1.3000e+000 94160 -1.6789e+001  4.4350e-001 -1.1906e+000 39457 94033,94085,94059
 1.3000e+000 94137 -1.7888e+001 -1.0901e+001  1.6285e+000 39457 94033,94111,94085
 1.3000e+000 94359 -6.2483e+000  2.2301e+001  4.7116e+000 39053 94382,94235,94209
 1.3000e+000 94336  1.2937e+001  3.8518e+001 -3.3039e+000 39053 94382,94209,94183
 1.3000e+000 94313  1.2211e+000  2.7787e+001  1.0893e+001 39053 94183,94287,94261
 1.3000e+000 94408  1.1156e+001  3.3005e+001  5.0620e+000 39053 94454,94382,94261
 1.3000e+000 94431  8.5443e+000  3.1602e+001  8.6977e+000 39053 94261,94382,94183
 1.3000e+000 94480 -4.1331e-001  2.3237e+000  9.2384e+000 39053 94235,94382,94454
 1.3000e+000 94892 -1.7019e+001  1.1155e+001  1.9164e+000 38392 94915,94771,94719
 1.3000e+000 94869 -1.9299e+001  1.2547e+001  2.1257e+000 38392 94915,94719,94693
 1.3000e+000 94846 -7.2453e+000  1.6173e+001  1.9802e+001 38392 94719,94771,94745
 1.3000e+000 94823 -1.3063e+001  1.8426e+001  5.2796e+000 38392 94667,94797,94693
 1.3000e+000 94941 -1.6255e+001  1.2213e+001  1.4517e+000 38392 94797,94771,94915
 1.3000e+000 94964 -1.7648e+001  1.4280e+001  1.3230e+000 38392 94797,94915,94693
 1.3000e+000 95261  1.1886e+001  1.0809e+001 -1.0042e+000 37831 95013,95065,95039
 1.3000e+000 95238  1.5047e+001  1.1780e+001 -2.6308e+000 37831 95284,95065,95013
 1.3000e+000 95215  1.1548e+001  1.0649e+001 -2.9601e+000 37831 95284,95013,94987
 1.3000e+000 95192  6.7637e+000  8.5302e+000 -3.4971e+000 37831 94987,95143,95117
 1.3000e+000 95169  1.6903e+001  5.4066e+000 -1.0520e+001 37831 95065,95117,95091
 1.3000e+000 95310  1.2828e+001  1.2071e+001 -5.0049e+000 37831 95117,95065,95284
 1.3000e+000 95333  1.0146e+001  1.1530e+001 -5.2676e+000 37831 95117,95284,94987
 1.3000e+000 95554 -2.2007e+001  1.9719e-001 -4.1429e+000 37419 95404,95456,95430
 1.3000e+000 95531 -1.1279e+001  2.5920e+001 -3.4180e+000 37419 95378,95456,95404
 1.3000e+000 95508 -3.2758e+000  3.2415e+001 -6.2236e+000 37419 95378,95482,95456
 1.3000e+000 95887 -2.0680e+001 -1.4000e+001  2.5457e+000 37221 95662,95714,95688
 1.3000e+000 95864 -1.8923e+001 -1.6040e+001  1.8648e+000 37221 95662,95792,95714
 1.3000e+000 95841 -7.6453e+000 -8.7136e+000 -1.6273e-001 37221 95714,95766,95740
 1.3000e+000 95818 -1.6357e+001 -9.9254e+000  2.0982e+000 37221 95714,95792,95766
 1.3000e+000 95988 -7.7550e+001 -9.0513e+000 -1.0889e+001 36731 95910,95962,95936
 1.3000e+000 96138 -7.2205e+000  1.9453e+001  1.0080e+001 36327 96293,96063,96037
 1.3000e+000 96115 -1.9497e+001  1.6932e+001  1.6041e+001 36327 96161,96037,96011
 1.3000e+000 96187 -6.6479e+000  2.1751e+001  1.8578e+001 36327 96293,96037,96161
 1.3000e+000 96319 -5.1349e+000  3.0894e+001  1.4084e+001 36327 96089,96063,96293
 1.3000e+000 96342 -1.0234e-001  3.5494e+001  2.3631e+001 36327 96089,96293,96161
 1.3000e+000 96710  7.5359e-001  1.0465e+001  4.0622e+000 36037 96733,96491,96439
 1.3000e+000 96687  1.2854e+000  1.6937e+001  6.2277e+000 36037 96733,96439,96413
 1.3000e+000 96664 -1.7242e+000  9.0156e+000  1.5193e+000 36037 96439,96491,96465
 1.3000e+000 96641 -9.7388e+000  2.6904e+001  3.2115e+000 36037 96387,96517,96413
 1.3000e+000 96618 -9.7835e+000  2.6634e+001  3.2261e+000 36037 96387,96543,96517
 1.3000e+000 96595  6.9502e-001  1.9360e+001  1.1117e+001 36037 96387,96569,96543
 1.3000e+000 96759 -5.5184e+000  1.7404e+001  2.0864e+000 36037 96517,96491,96733
 1.3000e+000 96782 -1.9038e+000  2.5175e+001  6.8119e+000 36037 96517,96733,96413
 1.3000e+000 96932  1.2464e+001  6.6222e+000 -8.8981e+000 35633 97027,96955,96831
 1.3000e+000 96909  9.1855e+000  4.3130e+000 -7.7290e+000 35633 97159,96955,96805
 1.3000e+000 96981  7.5534e+000  3.8612e+000 -9.9927e+000 35633 96857,96831,96955
 1.3000e+000 97004  9.7300e+000  9.2310e+000 -9.6857e+000 35633 96857,96955,96883
 1.3000e+000 97053  1.0154e+001  5.9647e+000 -8.8024e+000 35633 96805,96955,97027
 1.3000e+000 97185  5.7081e+000  6.7961e+000 -7.3703e+000 35633 96883,96955,97159
 1.3000e+000 97593 -3.8021e+000 -7.2897e+000 -5.5939e+000 35186 97446,97498,97472
 1.3000e+000 97570  2.7624e-001  2.3803e+000 -5.3164e+000 35186 97368,97498,97446
 1.3000e+000 97547 -3.0614e+000 -1.8034e+000 -2.5013e+000 35186 97368,97446,97394
 1.3000e+000 97524 -5.8019e+000 -1.8504e+000 -3.7287e+000 35186 97394,97446,97420
 1.3000e+000 98050  6.1380e+000  1.9124e+001 -2.8635e+000 34632 97802,97932,97854
 1.3000e+000 98027 -3.1056e+000  3.4541e+000 -7.8592e+000 34632 97776,97932,97802
 1.3000e+000 98004 -2.4904e+000  8.9540e+000  7.0677e+000 34632 97802,97854,97828
 1.3000e+000 97981 -1.1234e+001  1.1849e+001 -2.6918e+000 34632 97880,97932,97906
 1.3000e+000 97958  3.5761e+000  1.3718e+001 -2.1437e+000 34632 97854,97932,97880
 1.3000e+000 98526 -7.4058e+000  1.1837e+001  1.8934e+000 34064 98693,98180,98362
 1.3000e+000 98503 -1.0144e+001  2.0558e+000 -5.3853e+000 34064 98154,98362,98180
 1.3000e+000 98480  6.8135e-001  1.3529e+001  1.2206e+001 34064 98549,98258,98232
 1.3000e+000 98457 -1.3285e+001  2.3675e+001  2.8323e+001 34064 98549,98232,98206
 1.3000e+000 98434 -4.9457e+000  1.2630e+001 -3.6092e-001 34064 98837,98621,98362
 1.3000e+000 98411  5.2276e+000  6.6333e+000  1.1221e+001 34064 98765,98284,98258
 1.3000e+000 98388  7.4907e-001  9.3262e+000 -7.9261e-001 34064 98837,98362,98336
 1.3000e+000 98575  1.8821e+000  1.2790e+001  8.9687e+000 34064 98765,98258,98549
 1.3000e+000 98598 -6.1544e+000  1.1481e+001  2.7779e+000 34064 98621,98310,98549
 1.3000e+000 98647 -4.6830e+000  1.6130e+001  3.0905e+000 34064 98693,98362,98621
 1.3000e+000 98670  1.2993e+000  2.8435e+001  6.6266e+000 34064 98206,98621,98549
 1.3000e+000 98719 -7.4198e+000  1.7431e+001  2.5049e+000 34064 98206,98180,98693
 1.3000e+000 98742 -7.7250e+000  1.7265e+001  2.3262e+000 34064 98206,98693,98621
 1.3000e+000 98791  1.1067e+001  1.3229e+001  7.4687e+000 34064 98310,98284,98765
 1.3000e+000 98814  6.6474e+000  1.7774e+001  5.3178e+000 34064 98310,98765,98549
 1.3000e+000 98863  9.7741e-001  1.5125e+001  1.1094e+000 34064 98310,98621,98837
 1.3000e+000 98886  6.6755e+000  1.1658e+001  3.9298e-001 34064 98310,98837,98336
 1.3000e+000 99264  4.8141e-001 -9.7209e-001  3.2649e+000 33446 99287,99094,99068
 1.3000e+000 99241 -3.3647e+000  9.4370e+000 -5.5864e+000 33446 99287,99068,99016
 1.3000e+000 99218 -2.1185e+001  6.3297e+000  2.6055e+000 33446 99016,99068,99042
 1.3000e+000 99195 -2.3001e+001  2.8666e+000 -7.2327e+000 33446 99016,99146,99120
 1.3000e+000 99172 -1.9582e+001  1.2373e+001 -8.4382e+000 33446 98990,99146,99016
 1.3000e+000 99313  1.5267e+001  7.0771e+000 -8.4069e-002 33446 99120,99094,99287
 1.3000e+000 99336  1.2027e+000  1.2618e+001 -7.1183e+000 33446 99120,99287,99016
 1.3000e+000 99861 -1.6782e+001  3.8359e-001 -4.4511e+000 32940 100172,99956,99884
 1.3000e+000 99838 -1.5863e+001 -3.5913e+000 -2.0081e+000 32940 100100,99884,99518
 1.3000e+000 99815 -8.2206e+000 -1.7556e+000 -5.0161e+000 32940 100244,99956,99622
 1.3000e+000 99792 -1.4172e+000  6.2508e+000 -7.2904e-001 32940 100028,99648,99622
 1.3000e+000 99769 -1.6954e+001 -8.1828e+000 -2.4667e+000 32940 100100,99518,99492
 1.3000e+000 99746 -2.1722e+000  4.0357e+000  2.2873e-001 32940 99570,99622,99596
 1.3000e+000 99723 -5.0280e+000 -5.1440e-001 -3.9507e+000 32940 100244,99622,99570
 1.3000e+000 99700 -1.5099e+001 -2.9745e+000  2.0334e+000 32940 99440,99492,99466
 1.3000e+000 99910 -1.1975e+001  1.4564e+000 -3.4372e+000 32940 100172,99884,100028
 1.3000e+000 99933 -2.1838e+001 -9.5653e+000  3.9821e+000 32940 99674,99884,99440
 1.3000e+000 99982 -1.7911e+001 -5.0288e+000 -3.4039e+000 32940 99518,99884,99956
 1.3000e+000 100005 -2.2020e+001 -1.8034e+001 -1.3106e+001 32940 99518,99956,99544
 1.3000e+000 100054 -1.4928e+001  8.6002e+000  1.4242e+000 32940 99674,99648,100028
 1.3000e+000 100077 -1.5620e+001  5.3158e+000  2.0342e+000 32940 99674,100028,99884
 1.3000e+000 100126 -1.6789e+001 -1.3300e+000  1.0089e+000 32940 99440,99884,100100
 1.3000e+000 100149 -1.6887e+001 -3.6352e+000  1.4262e-001 32940 99440,100100,99492
 1.3000e+000 100198 -1.2789e+001  2.0881e+000 -4.2719e-001 32940 99622,99956,100172
 1.3000e+000 100221 -1.1481e+001  2.1429e+000  9.1037e-001 32940 99622,100172,100028
 1.3000e+000 100270 -1.3597e+001  8.6134e-002 -6.6860e+000 32940 99544,99956,100244
 1.3000e+000 100293 -1.0814e+001  9.5441e-001 -5.7022e+000 32940 99544,100244,99570
 1.3000e+000 100750  3.5052e+000  1.0838e+001  1.1848e+000 32365 100773,100580,100502
 1.3000e+000 100727  6.4781e+000  9.1448e+000  3.4231e+000 32365 100773,100502,100632
 1.3000e+000 100704  1.0350e+001 -7.0368e-001 -4.5584e+000 32365 100476,100632,100502
 1.3000e+000 100681  8.1555e-001  6.8009e+000 -4.5757e-001 32365 100528,100580,100554
 1.3000e+000 100658  7.1575e+000  1.1333e+001 -2.9562e+000 32365 100502,100580,100528
 1.3000e+000 100799  5.5695e+000  1.3928e+001  2.0908e+000 32365 100606,100580,100773
 1.3000e+000 100822  7.9071e+000  1.1437e+001  4.0296e+000 32365 100606,100773,100632
 1.3000e+000 101021 -4.0884e-002  1.2154e+001  8.0317e+000 31853 100871,100923,100897
 1.3000e+000 100998  1.0359e+001  2.3607e+001  1.2740e+001 31853 100871,100949,100923
 1.3000e+000 100975  4.6966e-001  7.5635e-001  1.1506e+001 31853 100845,100949,100871
 1.3000e+000 101529  5.4413e+000  8.1661e+000 -1.1022e+001 31249 101552,101310,101232
 1.3000e+000 101506  9.8629e+000  1.1091e+001 -1.2295e+001 31249 101552,101232,101206
 1.3000e+000 101483  9.2242e+000  1.6786e+000 -7.9400e+000 31249 101206,101388,101336
 1.3000e+000 101460  1.9776e+000  6.0661e+000 -9.1202e+000 31249 101232,101284,101258
 1.3000e+000 101437  4.7406e+000  1.3974e+001 -9.6993e+000 31249 101232,101310,101284
 1.3000e+000 101414  1.1688e+001  2.3423e-001 -2.0539e+000 31249 101336,101388,101362
 1.3000e+000 101578  6.6603e+000  4.4017e+000 -6.7212e+000 31249 101336,101310,101552
 1.3000e+000 101601  1.1342e+001  7.7146e+000 -8.1659e+000 31249 101336,101552,101206
 1.3000e+000 101751 -2.2980e+001  3.5127e+001 -4.6668e-001 30515 101774,101650,101624
 1.3000e+000 101728 -1.1330e+001  4.0224e+001 -2.1889e+000 30515 101846,101774,101624
 1.3000e+000 101800 -1.9067e+001  3.9500e+001  1.1744e+000 30515 101676,101650,101774
 1.3000e+000 101823 -1.7414e+001  2.9540e+001  1.8580e+000 30515 101676,101774,101702
 1.3000e+000 101872 -2.1216e+001  1.6921e+001 -2.2143e+000 30515 101702,101774,101846
 1.3000e+000 102557  1.7251e+000  4.2780e+000  1.7848e+000 29947 102652,102580,102266
 1.3000e+000 102534  3.5743e+000  7.0609e+000  3.8109e+000 29947 102580,102136,102370
 1.3000e+000 102511  4.8068e-001  1.4789e+000  1.4111e+000 29947 102724,102652,102266
 1.3000e+000 102488  1.4326e+000 -5.6222e-001  8.0601e-001 29947 102724,102266,102240
 1.3000e+000 102465  3.2440e+000  5.7093e+000  1.9688e+000 29947 102796,102318,102292
 1.3000e+000 102442  1.2311e+000  3.9632e+000 -1.2001e+000 29947 102162,102214,102188
 1.3000e+000 102419  8.2426e-001  2.9961e+000 -1.9774e+000 29947 102162,102240,102214
 1.3000e+000 102396  5.3735e+000  1.1685e+001  5.3075e+000 29947 102318,102370,102344
 1.3000e+000 102606  2.4592e+000  2.4414e+000  1.6741e+000 29947 102292,102266,102580
 1.3000e+000 102629  3.0645e+000  4.7163e+000  2.0244e+000 29947 102796,102292,102580
 1.3000e+000 102678  2.4613e+000  3.4221e+000  3.0917e+000 29947 102136,102580,102652
 1.3000e+000 102701  1.9114e+000  2.9083e+000  2.8284e+000 29947 102136,102652,102162
 1.3000e+000 102750  2.0875e+000  4.1392e+000  2.4633e+000 29947 102162,102652,102724
 1.3000e+000 102773  2.1847e+000  1.7931e+000  1.3905e+000 29947 102162,102724,102240
 1.3000e+000 102822  3.2160e+000  4.5861e+000  2.4172e+000 29947 102370,102318,102796
 1.3000e+000 102845  3.3126e+000  4.1143e+000  2.5736e+000 29947 102370,102796,102580
 1.3000e+000 103044 -2.3050e+001 -1.4159e+001  1.7686e+000 29450 102868,102920,102894
 1.3000e+000 103021 -2.3351e+001 -1.2653e+001  1.6956e+000 29450 102868,102972,102920
 1.3000e+000 102998 -2.5102e+001 -1.7800e+001  1.3908e+000 29450 102920,102972,102946
 1.3000e+000 103292  6.4168e+000  5.4375e+000  8.0128e+000 29060 103315,103171,103119
 1.3000e+000 103269 -9.3185e-001  5.3811e+000  1.0275e+001 29060 103315,103119,103067
 1.3000e+000 103246  1.1552e+001  9.4314e+000  5.9351e+000 29060 103119,103171,103145
 1.3000e+000 103223  5.8597e+000  9.1087e-001  1.2602e+001 29060 103067,103119,103093
 1.3000e+000 103341  1.3327e+001  4.5410e+000  4.3169e+000 29060 103197,103171,103315
 1.3000e+000 103364  3.7787e+000  6.0076e+000  4.0231e+000 29060 103197,103315,103067
 1.3000e+000 104002 -1.7542e+001 -4.5565e+000 -8.7252e+000 28599 104097,104025,103708
 1.3000e+000 103979 -1.0852e+001  1.3285e+000 -1.3434e+000 28599 104169,104025,103656
 1.3000e+000 103956 -9.3750e+000 -1.0160e+001 -8.0256e+000 28599 104097,103708,103682
 1.3000e+000 103933 -7.7972e+000  4.1070e+000 -1.5601e-001 28599 104169,103656,103630
 1.3000e+000 103910 -3.0525e+000  3.0139e+001  1.3419e+000 28599 103760,103812,103786
 1.3000e+000 103887 -1.0887e+001  6.2158e+000  6.6501e+000 28599 103630,103838,103812
 1.3000e+000 103864 -9.3446e+000 -2.8887e-001  6.2726e-001 28599 103708,103760,103734
 1.3000e+000 104051 -1.9841e+001  5.9051e+000 -3.1124e+000 28599 103760,103708,104025
 1.3000e+000 104074 -9.1630e+000  6.9453e+000  2.0338e+000 28599 103760,104025,103812
 1.3000e+000 104123 -9.4123e+000  3.5306e+000 -5.4678e+000 28599 103656,104025,104097
 1.3000e+000 104146 -1.6577e+000 -4.1469e+000 -5.3572e+000 28599 103656,104097,103682
 1.3000e+000 104195 -1.2812e+001  5.0124e+000 -6.4320e-001 28599 103812,104025,104169
 1.3000e+000 104218 -1.1730e+001  6.0872e+000 -1.6446e-001 28599 103812,104169,103630
 1.3000e+000 104596  9.2900e+000  3.7676e+000 -3.1629e+000 28344 104619,104374,104322
 1.3000e+000 104573  8.1007e+000  1.4882e+000 -6.0782e-001 28344 104619,104322,104478
 1.3000e+000 104550  1.0459e+000  5.9917e+000  8.7252e-002 28344 104322,104374,104348
 1.3000e+000 104527  1.3537e+001 -1.2408e+001 -1.5336e+001 28344 104400,104452,104426
 1.3000e+000 104504  1.5204e+001 -1.2029e+001 -1.1564e+001 28344 104374,104452,104400
 1.3000e+000 104645  9.8873e+000  7.3501e+000 -5.3832e+000 28344 104452,104374,104619
 1.3000e+000 104668  7.9866e+000  4.9803e+000 -2.6451e+000 28344 104452,104619,104478
 1.3000e+000 104987  2.3240e+000  7.1305e+000  2.3486e+000 27947 104713,104843,104765
 1.3000e+000 104964  6.9418e-001  9.3552e+000 -3.1913e-001 27947 104713,104869,104843
 1.3000e+000 104941  2.3123e+000  3.0560e+000 -2.6745e-001 27947 104765,104843,104791
 1.3000e+000 104918  2.1500e+000  2.0271e+000  1.6409e-001 27947 104791,104843,104817
 1.3000e+000 104895  1.7393e-001  1.9998e+000  2.4144e+000 27947 104713,104765,104739
 1.3000e+000 105367 -1.7680e+001 -7.9619e+000  1.8940e+000 27443 105390,105197,105119
 1.3000e+000 105344 -2.2371e+001 -9.7551e+000  2.1134e+000 27443 105390,105119,105093
 1.3000e+000 105321 -2.0010e+001 -1.1105e+001  3.2375e+000 27443 105119,105197,105145
 1.3000e+000 105298 -1.3375e+001 -9.5841e+000 -5.2921e-001 27443 105197,105249,105223
 1.3000e+000 105275 -1.9183e+001 -5.7953e+000  7.3786e+000 27443 105145,105197,105171
 1.3000e+000 105416 -1.4394e+001 -9.2706e+000 -1.5762e+000 27443 105249,105197,105390
 1.3000e+000 105439 -1.9992e+001 -1.1367e+001 -1.7087e+000 27443 105249,105390,105093
 1.3000e+000 105994 -8.7701e+000  2.8711e-002 -9.8443e-001 27096 106161,106017,105700
 1.3000e+000 105971 -1.2474e+001  1.2129e+000  6.9790e-002 27096 106305,106017,105648
 1.3000e+000 105948 -1.2689e+000  1.7308e+000 -2.6675e+000 27096 106089,105804,105778
 1.3000e+000 105925 -9.6450e+000 -1.1965e-001 -8.5367e-002 27096 106161,105700,105674
 1.3000e+000 105902 -7.5362e+000 -1.8308e+000 -1.3498e+000 27096 106233,105726,105700
 1.3000e+000 105879 -3.1000e+001 -5.3242e-001  2.3850e+000 27096 106305,105648,105622
 1.3000e+000 105856 -4.4180e+000 -1.4361e+000 -2.0842e-001 27096 105726,105778,105752
 1.3000e+000 106043 -8.7402e+000 -7.7439e-001 -6.9474e-001 27096 106233,105700,106017
 1.3000e+000 106066 -5.2936e+000  6.3890e-001 -8.9275e-001 27096 106089,105778,106017
 1.3000e+000 106115 -6.0068e+000 -1.8828e-001 -1.9896e+000 27096 105830,105804,106089
 1.3000e+000 106138 -8.6476e+000  7.0071e-001 -1.2853e+000 27096 106377,106089,106017
 1.3000e+000 106187 -1.0341e+001  1.0543e+000  4.9786e-001 27096 105648,106017,106161
 1.3000e+000 106210 -1.2829e+001 -1.3882e+000  1.8593e+000 27096 105648,106161,105674
 1.3000e+000 106259 -6.3145e+000 -6.3266e-001 -1.9221e+000 27096 105778,105726,106233
 1.3000e+000 106282 -7.7933e+000  7.3393e-002 -1.1708e+000 27096 105778,106233,106017
 1.3000e+000 106331 -9.7392e+000  1.1717e+000 -3.1684e+000 27096 106377,106017,106305
 1.3000e+000 106354 -9.3430e+000  1.3736e+001 -4.5994e+000 27096 105830,106305,105622
 1.3000e+000 106403 -5.4489e+000  1.8888e+000 -1.6858e+000 27096 105830,106089,106377
 1.3000e+000 106426 -5.8237e+000  2.7981e+000 -3.2671e+000 27096 105830,106377,106305
 1.3000e+000 106625 -2.5605e+001 -4.8721e+000  2.2426e+000 26684 106475,106553,106527
 1.3000e+000 106602 -2.6876e+001 -5.8733e+000  1.7792e+000 26684 106449,106553,106475
 1.3000e+000 106579 -3.2407e+001 -4.5721e+000 -2.9433e+000 26684 106475,106527,106501
 1.3000e+000 107084  2.1921e+000 -1.8459e+000 -1.3913e+000 26244 107107,106914,106862
 1.3000e+000 107061  1.5249e+000 -2.7102e+000 -1.0155e+000 26244 107107,106862,106836
 1.3000e+000 107038 -3.4005e+000 -4.0128e+000 -6.8405e-001 26244 106810,106966,106836
 1.3000e+000 107015  3.1087e+000  7.6296e-001 -1.2235e+000 26244 106862,106914,106888
 1.3000e+000 106992  2.7373e+000 -5.9762e-001 -5.2963e-001 26244 106914,106966,106940
 1.3000e+000 107133  1.6280e+000 -1.2878e+000 -2.2488e-001 26244 106966,106914,107107
 1.3000e+000 107156  8.0305e-001 -2.9175e+000  1.9430e-001 26244 106966,107107,106836
 1.3000e+000 107662  3.0516e+000  3.6815e-001  1.0423e+000 25904 107365,107495,107391
 1.3000e+000 107639  2.7269e+000  1.7228e+000  7.1779e-001 25904 107365,107521,107495
 1.3000e+000 107616  1.8534e+000 -4.6213e-001  3.4353e-001 25904 107391,107469,107443
 1.3000e+000 107593  3.5205e+000  4.9639e-001 -9.7798e-002 25904 107391,107495,107469
 1.3000e+000 107570  1.4171e+000 -1.4789e+000  4.1771e-001 25904 107391,107443,107417
 1.3000e+000 107547  1.7613e+000  1.7524e+000  3.2404e+000 25904 107339,107521,107365
 1.3000e+000 108247 -1.4593e+000 -4.7436e-001 -7.0318e-001 25450 108270,108002,107950
 1.3000e+000 108224  3.2528e-001 -4.5317e-001 -5.7002e-002 25450 108270,107950,108106
 1.3000e+000 108201  4.8506e-001 -1.3226e+000  1.2942e-001 25450 108342,108028,108002
 1.3000e+000 108178 -2.4639e+000 -1.6912e+000 -1.3777e-001 25450 107950,108002,107976
 1.3000e+000 108155 -2.8214e+000  1.5320e+000  3.7771e-001 25450 107924,108106,107950
 1.3000e+000 108132  8.9690e-001  6.5738e-001  4.8930e-001 25450 108054,108106,108080
 1.3000e+000 108296 -4.1567e-001 -5.8628e-001  1.9024e-001 25450 108342,108002,108270
 1.3000e+000 108319  8.3717e-001  1.8443e-001  5.3328e-001 25450 108054,108270,108106
 1.3000e+000 108368  2.1775e+000 -6.7928e-001 -3.1369e-001 25450 108054,108028,108342
 1.3000e+000 108391  8.6093e-001 -1.2676e-001 -3.7776e-001 25450 108054,108342,108270
 1.3000e+000 108818 -1.2801e+001  1.0594e+001  1.7062e+000 24939 108521,108677,108651
 1.3000e+000 108795 -2.6172e+001  7.5838e+000 -1.1278e+001 24939 108495,108677,108521
 1.3000e+000 108772 -2.8374e+000  1.4865e+001  1.7590e+000 24939 108521,108651,108625
 1.3000e+000 108749 -9.4553e+000  1.8375e+001  6.3275e-001 24939 108521,108625,108599
 1.3000e+000 108726  1.1524e+000  5.4026e+000  2.7838e+000 24939 108547,108599,108573
 1.3000e+000 108703 -1.1237e+001  1.0213e+001 -5.3095e-001 24939 108521,108599,108547
 1.3000e+000 109403  2.4686e+001  1.5441e+001 -4.8402e+000 24741 109158,109210,109184
 1.3000e+000 109380  1.4440e+001  1.4547e+001 -3.7797e+000 24741 109158,109262,109210
 1.3000e+000 109357  1.7353e+001  1.6333e+001 -1.5516e+000 24741 109080,109262,109158
 1.3000e+000 109334  9.0748e+000  1.3677e+001  2.2354e+000 24741 109080,109158,109132
 1.3000e+000 109311  3.1747e+001  2.4214e+001 -8.7537e+000 24741 109210,109262,109236
 1.3000e+000 109288  1.5687e+001  1.4261e+001  5.4849e+000 24741 109080,109132,109106
 1.3000e+000 109781  2.7577e+000 -6.1016e-001  5.6808e-001 24337 109533,109611,109559
 1.3000e+000 109758  2.9927e+000  1.0978e+000 -2.2698e-001 24337 109533,109637,109611
 1.3000e+000 109735  3.2228e+000 -1.1773e+000 -4.2245e-001 24337 109559,109611,109585
 1.3000e+000 109712  2.9882e+000  1.1570e+000  2.4186e-001 24337 109533,109663,109637
 1.3000e+000 109689  3.3753e+000  2.8899e+000  1.1473e+000 24337 109507,109663,109533
 1.3000e+000 110159 -4.7503e+000 -8.1686e+000 -3.8182e+000 23833 110182,109963,109911
 1.3000e+000 110136 -6.5783e+000 -8.0297e+000 -4.6247e+000 23833 110182,109911,109885
 1.3000e+000 110113 -1.0476e+000 -5.4059e+000 -7.2518e+000 23833 109885,110041,109989
 1.3000e+000 110090 -3.1501e+000 -2.7454e+000 -3.4583e+000 23833 109911,109963,109937
 1.3000e+000 110067 -7.0836e+000 -1.8773e+001 -8.5320e+000 23833 109989,110041,110015
 1.3000e+000 110208 -5.8605e+000 -9.0084e+000 -4.5361e+000 23833 109989,109963,110182
 1.3000e+000 110231 -6.7027e+000 -8.6971e+000 -5.4026e+000 23833 109989,110182,109885
 1.3000e+000 110332  3.1658e+000  3.7952e+000  7.9241e-002 23429 110254,110306,110280
 1.3000e+000 110580  6.5269e+000  4.5627e+000  9.3106e+000 22825 110603,110407,110381
 1.3000e+000 110557  1.2027e+000  2.5097e+000  8.0748e+000 22825 110603,110381,110485
 1.3000e+000 110534  4.5518e+000  3.0802e+000  3.8393e+000 22825 110433,110485,110459
 1.3000e+000 110511 -1.2464e+000  1.4270e+001  8.1409e+000 22825 110355,110485,110381
 1.3000e+000 110629  4.3478e+000  2.9580e+000  5.9012e+000 22825 110433,110407,110603
 1.3000e+000 110652  1.5718e+000  2.4467e+000  4.7750e+000 22825 110433,110603,110485
 1.3000e+000 110902 -2.6171e+001  6.0163e+000 -3.6321e+000 22428 110703,110755,110729
 1.3000e+000 110879 -1.7844e+001  2.5340e-001 -4.1706e+000 22428 110703,110781,110755
 1.3000e+000 110856 -2.3558e+001 -2.7697e+000 -7.1251e+000 22428 110703,110807,110781
 1.3000e+000 110833 -3.6054e+001 -9.6767e+000 -1.3373e+001 22428 110677,110807,110703
 1.3000e+000 111284  1.8377e+001  7.4732e-002 -1.0075e+001 22138 111088,111140,111114
 1.3000e+000 111261  1.7787e+001  4.4389e+000 -1.2790e+001 22138 111062,111140,111088
 1.3000e+000 111238  1.6020e+001  3.8587e+000 -6.5219e+000 22138 111036,111140,111062
 1.3000e+000 111215  4.5893e+000 -1.0815e+000 -1.0015e+001 22138 111010,111140,111036
 1.3000e+000 111192  3.3336e+000 -1.0518e+000 -1.0638e+001 22138 111010,111166,111140
 1.3000e+000 111385 -2.9700e+001 -3.6925e+000  3.8652e+000 21826 111307,111359,111333
 1.3000e+000 111731 -3.3102e+001 -2.0180e+000  4.0417e+000 21264 111754,111538,111434
 1.3000e+000 111708 -2.6752e+001  3.3839e-001  4.6520e-001 21264 111754,111434,111408
 1.3000e+000 111685 -3.4918e+001  2.5667e+000  2.7298e+000 21264 111434,111538,111460
 1.3000e+000 111662 -4.7162e+001 -2.7227e+000  5.2306e+000 21264 111460,111538,111486
 1.3000e+000 111639 -2.3846e+001 -5.3306e+000  9.2645e+000 21264 111408,111590,111564
 1.3000e+000 111616 -5.2713e+001  1.3400e+001  1.2696e+001 21264 111486,111538,111512
 1.3000e+000 111780 -3.5270e+001 -2.7106e+000  5.8093e+000 21264 111564,111538,111754
 1.3000e+000 111803 -3.2948e+001 -6.2499e+000  3.5814e+000 21264 111564,111754,111408
 1.3000e+000 111955  3.4695e+000  7.8755e+000  1.1059e-001 20860 111978,111906,111880
 1.3000e+000 111932  3.0600e+000  5.3189e+000 -2.4336e+000 20860 112110,111828,111906
 1.3000e+000 112004  2.0043e+000  8.3739e+000 -1.2726e+000 20860 112110,111906,111978
 1.3000e+000 112136  3.8018e+000  8.2667e+000 -2.0412e+000 20860 111854,111828,112110
 1.3000e+000 112159  3.2090e+000  1.2213e+001 -1.0883e+000 20860 111854,112110,111978
 1.3000e+000 112407 -4.7716e+000  1.5265e+000 -4.7420e+000 20320 112182,112286,112208
 1.3000e+000 112384  3.6581e+000  7.7911e+000 -8.2680e+000 20320 112182,112312,112286
 1.3000e+000 112361 -1.7834e-001  4.8814e+000 -3.2457e+000 20320 112208,112286,112260
 1.3000e+000 112338 -1.6994e+001  1.0258e+001 -1.0389e+001 20320 112208,112260,112234
 1.3000e+000 112655  1.6984e+000 -1.0994e+001  2.9118e+000 19916 112508,112560,112534
 1.3000e+000 112632 -8.1188e-001 -1.0414e+001  2.2195e+000 19916 112430,112560,112508
 1.3000e+000 112609 -2.0058e+000 -1.6832e+001  3.5995e+000 19916 112430,112508,112456
 1.3000e+000 112586  1.8300e+000 -6.2844e+000  1.2978e+000 19916 112456,112508,112482
 1.3000e+000 112807 -1.4449e+001  1.5694e+000 -2.3941e-001 19626 112680,112732,112706
 1.3000e+000 112784 -1.0040e+001 -3.0821e-001 -2.6564e+000 19626 112680,112758,112732
 1.3000e+000 113008 -1.1571e+001 -6.8622e+000  3.5008e+000 19165 112858,112936,112884
 1.3000e+000 112985 -1.7794e+001 -1.5297e+001  7.5343e-001 19165 112832,112936,112858
 1.3000e+000 112962 -4.6829e+000 -6.7603e+000 -1.3903e+000 19165 112884,112936,112910
 1.3000e+000 113209 -6.4358e+000 -1.0734e+000  1.8980e-001 18596 113033,113085,113059
 1.3000e+000 113186 -9.0542e-001 -8.9602e-002 -1.1929e+000 18596 113033,113111,113085
 1.3000e+000 113163 -3.4142e+000 -2.2701e+000  2.6501e-002 18596 113033,113137,113111
 1.3000e+000 113481 -3.6591e+000 -2.1651e+000  6.4066e-001 18348 113256,113308,113282
 1.3000e+000 113458  5.0899e-001 -1.0992e+000  7.0923e-002 18348 113256,113386,113308
 1.3000e+000 113435  1.0150e+000 -8.5584e-001  6.6288e-001 18348 113308,113386,113360
 1.3000e+000 113412  2.2331e+000 -1.7973e+000  1.2848e-001 18348 113308,113360,113334
 1.3000e+000 113753  1.7636e+000 -1.4216e+000  6.9327e-002 17830 113554,113606,113580
 1.3000e+000 113730  3.3166e+000 -1.3030e+000  2.0162e-001 17830 113528,113606,113554
 1.3000e+000 113707  3.8640e+000  2.8610e-002  5.0315e-001 17830 113528,113658,113606
 1.3000e+000 113684  3.0843e+000 -1.3368e+000 -8.7463e-003 17830 113606,113658,113632
 1.3000e+000 113954  8.0581e+000 -4.7749e-001 -4.0358e+000 17326 113778,113830,113804
 1.3000e+000 113931  1.9230e+001 -1.3443e+001 -6.8722e+000 17326 113778,113882,113830
 1.3000e+000 113908  2.1908e+001 -6.8032e+000 -6.3588e+000 17326 113830,113882,113856
 1.3000e+000 114106  4.1266e+000 -1.2097e+000  1.7551e-001 16870 113979,114031,114005
 1.3000e+000 114083  3.8536e+000 -6.8718e-001  2.2188e-001 16870 113979,114057,114031
 1.3000e+000 114461 -2.4241e+000  1.3802e+001 -1.0743e+001 16266 114236,114288,114262
 1.3000e+000 114438 -1.2495e+000 -1.5169e+000 -1.9119e+000 16266 114236,114366,114288
 1.3000e+000 114415  2.5889e+000  3.9340e+000  2.2592e+000 16266 114288,114340,114314
 1.3000e+000 114392  3.3635e+000  3.7132e+000  2.0725e-001 16266 114288,114366,114340
 1.3000e+000 114562 -3.0081e+001  9.2777e+000  0.0000e+000 15830 114484,114536,114510
 1.3000e+000 114663  1.3026e+000 -8.0788e+000 -1.0863e+000 15151 114585,114637,114611
 1.3000e+000 114886  1.3124e+001  8.2740e+000  4.4471e+000 417 114762,114814,114788
 1.3000e+000 114863  9.8761e+000  3.2017e+000  2.8380e+000 417 114710,114814,114762
 1.3000e+000 114840  3.3417e+000  3.6163e+000  1.8515e+000 417 114710,114762,114736
 1.4000e+000 66549 -1.6022e+000 -2.1692e+000 -7.0499e-002 66104 66350,66454,66428
 1.4000e+000 66526 -1.1451e-001 -1.6373e+000  2.2271e-001 66104 66324,66454,66350
 1.4000e+000 66503 -7.7856e-001  1.2486e+000 -3.5740e-001 66104 66350,66428,66402
 1.4000e+000 66480  1.7996e+000 -4.4706e+000 -6.4728e-001 66104 66350,66402,66376
 1.4000e+000 66947  1.5543e-001  1.0569e+000 -4.4432e-001 65906 66699,66829,66803
 1.4000e+000 66924 -2.8426e-001  3.1836e-001  6.0395e-002 65906 66673,66829,66699
 1.4000e+000 66901  1.7365e+000  3.5164e-001  5.2524e-001 65906 66725,66777,66751
 1.4000e+000 66878 -3.3603e+000  1.1268e+000  3.6265e-001 65906 66725,66803,66777
 1.4000e+000 66855  1.8054e+000 -2.0168e+000 -1.0326e+000 65906 66699,66803,66725
 1.4000e+000 67146 -8.3985e-001  5.6774e-001 -4.1654e-002 65708 67022,67074,67048
 1.4000e+000 67123  1.5922e+000  6.1513e-001 -1.8688e-001 65708 66970,67074,67022
 1.4000e+000 67100 -1.4672e+000 -1.3325e+000  8.3259e-001 65708 66970,67022,66996
 1.4000e+000 67477 -1.5797e+000 -2.9054e+000 -3.4401e+000 65418 67278,67356,67330
 1.4000e+000 67454 -4.7831e-001  5.4452e+000 -2.0819e+000 65418 67278,67382,67356
 1.4000e+000 67431 -2.5373e+000  2.7938e-002 -6.4666e+000 65418 67278,67330,67304
 1.4000e+000 67408 -6.9950e-003  4.7140e-001 -3.4969e+000 65418 67252,67382,67278
 1.4000e+000 68111 -1.2007e+000  2.5711e-001 -5.3075e-001 65014 67791,67921,67869
 1.4000e+000 68088  8.6245e-002  8.8889e-001 -1.7357e+000 65014 67765,67921,67791
 1.4000e+000 68065 -1.8264e+000 -5.5373e+000 -1.2697e+000 65014 67869,67921,67895
 1.4000e+000 68042  5.7063e-002  6.6153e-001 -1.6548e+000 65014 67765,67947,67921
 1.4000e+000 68019  2.2147e+000 -7.1453e-001 -2.5995e+000 65014 67791,67869,67817
 1.4000e+000 67996  4.3836e+000 -1.8742e+000 -8.3218e-001 65014 67817,67869,67843
 1.4000e+000 67973  2.5010e+000  2.6088e+000 -4.8061e-001 65014 67739,67947,67765
 1.4000e+000 68359 -1.5415e+000  6.6832e-001  7.8035e-001 64816 68186,68238,68212
 1.4000e+000 68336  5.0082e-001 -9.0714e-001  4.1395e-001 64816 68186,68264,68238
 1.4000e+000 68313 -4.5526e-001 -1.3472e+000  7.2678e-002 64816 68160,68264,68186
 1.4000e+000 68290 -2.0977e-001 -8.0102e-001 -4.2846e-001 64816 68134,68264,68160
 1.4000e+000 68509 -4.8263e-001 -1.4104e+000  7.5856e-001 64362 68864,68532,68434
 1.4000e+000 68486 -2.2376e+000 -1.1093e+000  1.1241e+000 64362 68532,68408,68382
 1.4000e+000 68558 -1.3216e+000 -1.5606e+000  1.2667e+000 64362 68736,68532,68460
 1.4000e+000 68581 -5.1001e-001  5.7602e-001  3.7854e-001 64362 68604,68532,68382
 1.4000e+000 68630  6.8484e-002 -6.4084e-001  1.6861e+000 64362 68460,68532,68604
 1.4000e+000 68762 -2.2128e-001 -6.2853e-001  8.4219e-001 64362 68434,68532,68736
 1.4000e+000 68890 -1.1388e+000 -6.9576e-001  4.9789e-001 64362 68408,68532,68864
 1.4000e+000 69168 -2.0006e+000 -2.3613e-001  1.6907e+000 64164 69018,69070,69044
 1.4000e+000 69145 -9.0999e-001 -4.9107e+000  1.6048e+000 64164 68992,69070,69018
 1.4000e+000 69122 -6.1912e-001 -4.9071e+000  3.4492e+000 64164 68992,69096,69070
 1.4000e+000 69367  1.9370e+000 -2.7963e+000 -1.8204e-001 63966 69462,69390,69269
 1.4000e+000 69344 -3.6775e+000 -1.1114e+001  1.9223e+000 63966 69390,69243,69217
 1.4000e+000 69321 -1.7440e+000 -7.8075e+000 -1.5439e+000 63966 69191,69295,69217
 1.4000e+000 69416  5.6579e+000 -7.2230e+000 -2.2212e+000 63966 69295,69269,69390
 1.4000e+000 69439  8.2419e-002 -8.6906e+000 -1.1313e+000 63966 69295,69390,69217
 1.4000e+000 69488 -2.3310e+000 -1.0372e+001 -1.9007e+000 63966 69243,69390,69462
 1.4000e+000 69900  2.3273e-001  1.2323e+000  2.1365e+000 63676 69701,69779,69727
 1.4000e+000 69877 -1.1042e+000  5.4441e-001  2.3845e+000 63676 69675,69779,69701
 1.4000e+000 69854  1.5659e+000  3.9854e-001  1.9830e+000 63676 69675,69805,69779
 1.4000e+000 69831  4.8449e+000  2.7332e+000  2.9793e+000 63676 69727,69779,69753
 1.4000e+000 70050 -6.1544e-001 -4.9802e+000  1.1999e+000 63472 70073,69949,69923
 1.4000e+000 70027  1.4231e-001 -5.9661e+000  6.2249e-001 63472 70073,69923,70001
 1.4000e+000 70099 -6.7808e-001 -5.6838e+000  1.5671e+000 63472 69975,69949,70073
 1.4000e+000 70122  1.0299e-002 -6.7166e+000  1.0740e+000 63472 69975,70073,70001
 1.4000e+000 70321  1.6153e+000 -1.2761e+000  1.5307e+000 63274 70145,70223,70171
 1.4000e+000 70298 -1.0654e-001 -2.6963e+000  4.4759e-001 63274 70145,70249,70223
 1.4000e+000 70275  1.6946e+000 -1.1860e+000  1.5856e+000 63274 70171,70223,70197
 1.4000e+000 70593  1.6256e+000 -2.7211e+000  2.0029e+000 63076 70368,70472,70420
 1.4000e+000 70570  5.6765e-001 -8.5752e+000  1.0857e+000 63076 70368,70498,70472
 1.4000e+000 70547  3.8383e+000 -8.5256e+000 -2.8300e+000 63076 70420,70472,70446
 1.4000e+000 70524  8.9715e-001 -4.0355e+000  5.0924e+000 63076 70368,70420,70394
 1.4000e+000 70843 -4.7754e+000 -1.1639e+001 -1.5193e+000 62736 70866,70644,70618
 1.4000e+000 70820 -2.9122e+000 -1.3531e+001 -2.5419e+000 62736 70866,70618,70748
 1.4000e+000 70797  2.7807e+000 -9.3156e+000  8.3952e-001 62736 70644,70722,70696
 1.4000e+000 70774  1.8386e+000 -6.5487e+000  2.0544e+000 62736 70644,70696,70670
 1.4000e+000 70892 -2.9891e+000 -9.7501e+000 -4.7061e-001 62736 70722,70644,70866
 1.4000e+000 70915 -2.4840e+000 -1.2456e+001 -1.8617e+000 62736 70722,70866,70748
 1.4000e+000 71018  7.5720e-001 -1.1655e+000 -6.6525e-001 62516 70940,70992,70966
 1.4000e+000 71219 -1.4044e+000 -1.4980e-001  2.0342e+000 62226 71069,71147,71095
 1.4000e+000 71196 -3.2339e+000 -8.8452e-001  2.0005e+000 62226 71043,71147,71069
 1.4000e+000 71173 -4.2863e-001 -1.8940e+000  1.2752e+000 62226 71095,71147,71121
 1.4000e+000 71857  1.9139e+000  2.2828e+000  4.7125e-001 61708 71511,71693,71667
 1.4000e+000 71834  2.1116e+000  2.9854e+000 -3.1124e-001 61708 71485,71693,71511
 1.4000e+000 71811  2.8006e+000 -1.8520e+000 -1.7800e-001 61708 71880,71537,71511
 1.4000e+000 71788  2.4230e+000  8.0707e-001 -1.3299e+000 61708 71880,71511,71667
 1.4000e+000 71765  3.1826e+000 -5.4744e+000 -2.7502e+000 61708 71537,71615,71589
 1.4000e+000 71742  1.0315e+000  3.4402e+000  3.1154e+000 61708 71615,71667,71641
 1.4000e+000 71719  1.4093e-001 -7.4518e+000 -1.3731e+000 61708 71537,71589,71563
 1.4000e+000 71906  3.1051e+000 -3.9592e+000 -2.4348e-001 61708 71615,71537,71880
 1.4000e+000 71929  2.2328e+000 -1.8757e+000 -1.3066e+000 61708 71615,71880,71667
 1.4000e+000 72226 -3.3305e+000  2.1657e+000  1.7815e+000 61204 72249,72056,72004
 1.4000e+000 72203 -4.7710e+000 -1.7828e+000  1.4752e+000 61204 72249,72004,71978
 1.4000e+000 72180 -1.8506e+000 -2.5032e+000  3.5275e+000 61204 71978,72108,72082
 1.4000e+000 72157  3.0102e+000  8.0171e+000  6.2275e+000 61204 72004,72056,72030
 1.4000e+000 72134  4.7662e-001  1.8637e+000  4.4985e+000 61204 71952,72108,71978
 1.4000e+000 72275 -2.5686e+000 -8.6659e-001  3.4362e+000 61204 72082,72056,72249
 1.4000e+000 72298 -2.9369e+000 -3.0909e+000  3.3000e+000 61204 72082,72249,71978
 1.4000e+000 72757 -4.4484e+000 -3.9726e-001  5.4000e+000 60800 72483,72613,72509
 1.4000e+000 72734 -3.9941e+000 -7.5044e+000  4.4190e+000 60800 72483,72639,72613
 1.4000e+000 72711  3.9243e+000  3.5034e+000  7.1996e+000 60800 72561,72613,72587
 1.4000e+000 72688 -4.1567e+000 -2.2884e-001  5.3272e+000 60800 72509,72613,72561
 1.4000e+000 72665 -3.0832e+000  2.7316e+000  6.5218e+000 60800 72509,72561,72535
 1.4000e+000 72907 -2.4132e+000  6.6962e+000 -1.2103e+000 60552 72780,72832,72806
 1.4000e+000 72884  1.5496e+000  1.0486e+001 -3.0894e+000 60552 72780,72858,72832
 1.4000e+000 73464  3.4227e+000 -2.1480e+000  7.2985e+000 60240 73487,73222,73196
 1.4000e+000 73441  5.3549e+000  4.0431e+000  7.8997e+000 60240 73559,73487,73196
 1.4000e+000 73418 -9.1534e-002  8.1708e+000  8.0529e+000 60240 73559,73196,73170
 1.4000e+000 73395  6.1984e+000 -9.9759e+000  4.6634e+000 60240 73222,73274,73248
 1.4000e+000 73372  4.3316e+000  3.0405e-002  4.7878e+000 60240 73118,73300,73274
 1.4000e+000 73349  2.8971e+000 -6.9538e+000  4.9920e+000 60240 73092,73300,73118
 1.4000e+000 73326 -7.8097e+000  3.9504e+000  1.5761e+001 60240 73118,73170,73144
 1.4000e+000 73513  2.4934e+000 -1.5432e+000  4.8552e+000 60240 73274,73222,73487
 1.4000e+000 73536  2.9376e+000 -3.2626e-001  4.7496e+000 60240 73274,73487,73118
 1.4000e+000 73585 -7.0854e-001 -2.0018e+000  5.2369e+000 60240 73118,73487,73559
 1.4000e+000 73608 -5.3397e+000  2.9136e+000  5.6740e+000 60240 73118,73559,73170
 1.4000e+000 73758 -1.9210e+001 -8.4018e+000 -5.1354e+000 59871 73657,73709,73683
 1.4000e+000 73735 -3.4785e+000 -1.9518e+001 -1.9797e+000 59871 73631,73709,73657
 1.4000e+000 74187 -5.0730e+000 -2.1697e-002  1.4142e+000 59474 74210,73890,73864
 1.4000e+000 74164 -4.7318e+000 -3.0263e+000  1.8806e+000 59474 74210,73864,74046
 1.4000e+000 74141 -6.4186e+000  1.5970e+000  7.0623e-001 59474 73890,73942,73916
 1.4000e+000 74118 -7.3631e+000  8.5994e-001  1.0739e+000 59474 73890,73994,73942
 1.4000e+000 74095 -5.7585e+000 -2.2461e-001  4.3115e+000 59474 73994,74046,74020
 1.4000e+000 74072 -4.0358e+000  3.4830e-001  3.1379e+000 59474 73942,73994,73968
 1.4000e+000 74236 -5.2108e+000  1.9375e+000  1.5206e+000 59474 73994,73890,74210
 1.4000e+000 74259 -4.0473e+000  5.8683e-002  2.1145e+000 59474 73994,74210,74046
 1.4000e+000 74716 -7.2930e+000 -1.5140e+001 -7.7222e+000 58770 74468,74598,74494
 1.4000e+000 74693 -2.9359e+000 -1.0559e+001 -5.3512e+000 58770 74442,74598,74468
 1.4000e+000 74670 -1.2017e+001 -2.2308e+001 -1.4443e+001 58770 74494,74572,74520
 1.4000e+000 74647 -3.8022e+000 -1.0384e+001 -6.1302e+000 58770 74494,74598,74572
 1.4000e+000 74624  2.2494e-001 -1.1170e+001 -5.1162e+000 58770 74520,74572,74546
 1.4000e+000 75222 -3.5570e+000  3.4173e+000  4.6088e+000 58266 74951,75081,75029
 1.4000e+000 75199  2.8401e+000  2.8828e+000  7.3076e+000 58266 74925,75081,74951
 1.4000e+000 75176 -9.2720e+000 -2.3505e+000  8.2487e+000 58266 75029,75081,75055
 1.4000e+000 75153 -7.3857e+000  7.2723e+000  4.6421e+000 58266 74951,75003,74977
 1.4000e+000 75130 -5.9910e+000  2.1764e+000  5.9672e+000 58266 74951,75029,75003
 1.4000e+000 75107 -8.9548e+000 -5.4493e+000  2.7492e+000 58266 74899,75081,74925
 1.4000e+000 75421 -2.7999e+000  4.6899e+000  3.5157e+000 57826 75444,75297,75245
 1.4000e+000 75398 -5.3464e-001  4.9772e-001  4.8143e+000 57826 75444,75245,75349
 1.4000e+000 75375 -4.8222e+000  7.3320e+000  2.9321e+000 57826 75516,75297,75271
 1.4000e+000 75470 -1.3918e+000  5.8947e+000  4.6603e+000 57826 75323,75297,75444
 1.4000e+000 75493  2.4828e+000  4.9353e+000  6.7082e+000 57826 75323,75444,75349
 1.4000e+000 75542 -1.7876e+000  4.2001e+000  2.0539e+000 57826 75245,75297,75516
 1.4000e+000 76257  9.8924e+000  1.5813e+001  2.3034e+000 57422 76280,76093,76067
 1.4000e+000 76234  8.4179e+000  7.4295e+000  4.6673e+000 57422 75885,76093,75911
 1.4000e+000 76211  9.1490e+000  1.4598e+001  9.9363e-001 57422 76424,76280,76067
 1.4000e+000 76188  1.4702e+001  1.4885e+001  3.9001e+000 57422 76352,75937,75911
 1.4000e+000 76165  7.0915e+000  1.4178e+001 -8.2731e-002 57422 76424,76067,76015
 1.4000e+000 76142  1.1777e+001  3.2439e+001  5.2492e+000 57422 76015,76067,76041
 1.4000e+000 76119  1.9153e+001  1.5705e+001  7.4224e-001 57422 75963,76015,75989
 1.4000e+000 76306  7.8985e+000  1.0114e+001  5.5304e+000 57422 75911,76093,76280
 1.4000e+000 76329  1.4836e+001  1.4237e+001  3.8189e+000 57422 76352,75911,76280
 1.4000e+000 76378  1.4731e+001  1.5803e+001  4.5211e+000 57422 75963,75937,76352
 1.4000e+000 76401  1.4803e+001  1.5239e+001  4.3381e+000 57422 75963,76352,76280
 1.4000e+000 76450  1.2725e+001  1.3101e+001  4.0487e-001 57422 75963,76280,76424
 1.4000e+000 76473  9.6431e+000  1.2133e+001 -3.2569e-001 57422 75963,76424,76015
 1.4000e+000 76949 -9.2129e+000 -1.7377e+000  6.6086e+000 56904 76972,76707,76681
 1.4000e+000 76926 -5.8070e+000  9.7789e+000  1.0236e+000 56904 77044,76972,76681
 1.4000e+000 76903 -5.1729e+000  1.6720e+001  1.0251e+000 56904 77044,76681,76629
 1.4000e+000 76880  7.5776e-001  1.8009e+000  2.9087e+000 56904 76707,76785,76759
 1.4000e+000 76857  8.5815e-001 -4.3381e-002 -6.3508e+000 56904 76577,76785,76603
 1.4000e+000 76834 -1.0858e+000 -7.2143e-002  1.4476e-001 56904 76707,76759,76733
 1.4000e+000 76811  3.6308e+000  1.5630e+001  8.7394e+000 56904 76629,76681,76655
 1.4000e+000 76998  8.2137e-001  3.9578e+000  2.7676e+000 56904 76785,76707,76972
 1.4000e+000 77021 -4.5389e+000  2.2509e+000 -1.7314e+000 56904 76785,76972,76603
 1.4000e+000 77070 -4.2454e+000  3.1005e+000 -2.1073e+000 56904 76603,76972,77044
 1.4000e+000 77093 -4.1803e+000  8.3301e+000 -1.0211e+000 56904 76603,77044,76629
 1.4000e+000 77471 -1.0316e+001  1.0773e+001 -9.7105e+000 56542 77566,77494,77275
 1.4000e+000 77448 -3.8262e+000  1.4419e+001 -3.7537e+000 56542 77494,77223,77353
 1.4000e+000 77425 -8.1994e+000  1.0229e+001 -1.6165e+001 56542 77566,77275,77249
 1.4000e+000 77402  5.5417e+000  1.5787e+001  2.0406e+000 56542 77197,77353,77223
 1.4000e+000 77379 -6.8348e+000  1.4793e+001 -1.5996e+001 56542 77275,77327,77301
 1.4000e+000 77520 -6.5177e+000  2.3674e+001 -8.8694e+000 56542 77327,77275,77494
 1.4000e+000 77543 -1.5629e+001  1.4051e+001 -3.9745e+000 56542 77327,77494,77353
 1.4000e+000 77592  2.3633e+000  1.5409e+001 -5.9504e+000 56542 77223,77494,77566
 1.4000e+000 77615 -1.2438e+000  8.7469e+000 -1.3335e+001 56542 77223,77566,77249
 1.4000e+000 77814  9.2689e+000  1.5002e+001 -1.0992e+001 56038 77837,77690,77664
 1.4000e+000 77791  1.0776e+001  1.4920e+001 -9.3751e+000 56038 77837,77664,77742
 1.4000e+000 77768  1.2591e+001  6.9703e+000 -9.2266e+000 56038 77638,77742,77664
 1.4000e+000 77863  9.5192e+000  1.6336e+001 -1.0036e+001 56038 77716,77690,77837
 1.4000e+000 77886  1.1101e+001  1.6146e+001 -8.4202e+000 56038 77716,77837,77742
 1.4000e+000 78345  3.3548e+000  9.5893e+000  1.3818e+001 55534 78071,78123,78097
 1.4000e+000 78322 -5.9416e+000  1.4164e+000  5.8012e+000 55534 78071,78201,78123
 1.4000e+000 78299 -7.6383e+000  1.4286e+000  6.6164e+000 55534 78071,78227,78201
 1.4000e+000 78276  6.8671e+000  6.4387e+000  1.0025e+001 55534 78123,78175,78149
 1.4000e+000 78253  5.2013e+000  7.8100e+000  8.4027e+000 55534 78123,78201,78175
 1.4000e+000 78802 -9.9371e+000  1.3633e+001 -3.8233e-001 55030 78825,78632,78606
 1.4000e+000 78779 -3.0406e+000  1.5520e+001 -3.4535e+000 55030 78897,78825,78606
 1.4000e+000 78756 -1.0759e+001  2.1477e+001 -7.8934e+000 55030 78897,78606,78580
 1.4000e+000 78733  3.5809e+000  1.0687e+001 -8.1752e-001 55030 78554,78684,78658
 1.4000e+000 78710  1.5658e+000  5.6936e+000 -2.1036e+000 55030 78528,78684,78554
 1.4000e+000 78851 -1.6841e+000  2.4503e+001  4.0161e+000 55030 78658,78632,78825
 1.4000e+000 78874 -4.3779e+000  9.1187e+000 -3.0198e+000 55030 78658,78825,78554
 1.4000e+000 78923 -1.0745e+001  5.3299e+000 -7.9812e+000 55030 78554,78825,78897
 1.4000e+000 78946 -1.5271e+001  1.1097e+001 -1.2362e+001 55030 78554,78897,78580
 1.4000e+000 79403  4.2681e+000  8.2170e+000  4.1223e+000 54426 79426,79233,79155
 1.4000e+000 79380  1.0920e+001  7.8652e+000  1.2710e+000 54426 79426,79155,79129
 1.4000e+000 79357 -5.7012e+000  9.4922e+000 -2.5463e-001 54426 79233,79285,79259
 1.4000e+000 79334  3.9515e+000  9.4129e+000  8.6619e+000 54426 79181,79233,79207
 1.4000e+000 79311  3.8977e+000  7.3059e+000  4.4294e+000 54426 79155,79233,79181
 1.4000e+000 79452  2.5342e+000  7.2112e+000  6.3460e+000 54426 79285,79233,79426
 1.4000e+000 79475  6.2993e+000  3.8051e+000  4.0041e+000 54426 79285,79426,79129
 1.4000e+000 79932 -3.5357e+000  6.7007e+000  6.5932e+000 53915 79658,79762,79684
 1.4000e+000 79909 -1.1177e+001 -2.9120e+000  9.9007e+000 53915 79658,79814,79762
 1.4000e+000 79886 -7.4656e+000 -4.8142e+000  1.6043e+001 53915 79762,79814,79788
 1.4000e+000 79863 -8.3591e+000  8.5156e+000  1.2486e+001 53915 79710,79762,79736
 1.4000e+000 79840 -9.0900e+000  3.2542e+000  8.3194e+000 53915 79684,79762,79710
 1.4000e+000 80033 -7.4382e+000 -4.7416e-001 -3.0019e-001 53667 79955,80007,79981
 1.4000e+000 80401 -1.3075e+001 -6.9268e+000 -9.2481e-001 53263 80104,80260,80234
 1.4000e+000 80378 -9.0502e+000 -1.6581e-002  2.3217e+000 53263 80078,80260,80104
 1.4000e+000 80355 -9.1557e+000 -6.3168e+000 -7.2300e-001 53263 80104,80234,80130
 1.4000e+000 80332 -8.5412e+000 -3.7182e+000 -5.0488e-001 53263 80130,80208,80182
 1.4000e+000 80309 -9.4468e+000 -5.5052e+000  6.3454e-001 53263 80130,80234,80208
 1.4000e+000 80286 -8.2083e+000  2.6201e-001  1.4184e+000 53263 80130,80182,80156
 1.4000e+000 80911 -1.5144e+001 -7.3244e+000 -2.6144e+000 52965 80640,80770,80744
 1.4000e+000 80888 -6.4025e+000 -5.5536e-001  2.7818e+000 52965 80614,80770,80640
 1.4000e+000 80865 -8.2860e+000  4.5651e-001  1.6941e+000 52965 80640,80744,80666
 1.4000e+000 80842 -4.9857e+000 -2.0890e+000  3.8624e-001 52965 80588,80770,80614
 1.4000e+000 80819 -6.9861e+000 -1.5314e+000  1.7021e+000 52965 80666,80718,80692
 1.4000e+000 80796 -1.2680e+001 -3.8178e+000 -7.7619e-001 52965 80666,80744,80718
 1.4000e+000 81262 -5.5054e+001  8.4342e-001  1.2761e+000 52561 81037,81141,81063
 1.4000e+000 81239 -5.4827e+001 -1.0922e+001 -1.1129e-001 52561 81037,81167,81141
 1.4000e+000 81216 -1.0086e+002  1.0906e+000 -2.6337e+000 52561 81063,81115,81089
 1.4000e+000 81193 -9.9606e+001 -1.1514e+001 -1.1638e+001 52561 81063,81141,81115
 1.4000e+000 81719 -1.2266e+001 -8.3644e-001  1.7475e+000 51900 81445,81523,81471
 1.4000e+000 81696 -1.2997e+001 -4.8485e+000  3.0230e-001 51900 81445,81575,81523
 1.4000e+000 81673 -8.0315e+000  6.0160e-002 -1.8343e+000 51900 81445,81601,81575
 1.4000e+000 81650 -4.3985e+000  6.1958e+000  4.6866e+000 51900 81523,81575,81549
 1.4000e+000 81627 -4.7149e+000 -1.9535e-002  2.7504e+000 51900 81471,81523,81497
 1.4000e+000 82323 -3.3348e+000  3.4514e+000  5.0236e+000 51317 82418,82346,82032
 1.4000e+000 82300 -8.6447e+000  2.3911e+000  4.6459e+000 51317 82490,82346,81954
 1.4000e+000 82277 -2.5049e+000  5.4131e+000  5.0772e+000 51317 82418,82032,82006
 1.4000e+000 82254 -1.2098e+001 -4.5405e-001  7.1235e+000 51317 82490,81954,81928
 1.4000e+000 82231 -5.5205e+000 -3.6178e+000  7.2970e+000 51317 82058,82110,82084
 1.4000e+000 82208 -1.2808e+001  1.0906e+001  2.0376e+000 51317 81928,82136,82110
 1.4000e+000 82185  8.0388e+000  5.9118e+000  6.6153e+000 51317 81954,82006,81980
 1.4000e+000 82162 -2.1040e+001  7.3794e+000  2.1483e+000 51317 81902,82136,81928
 1.4000e+000 82372 -7.1834e+000 -3.8040e+000  3.1588e+000 51317 82058,82032,82346
 1.4000e+000 82395 -7.0343e+000  4.2862e+000  2.3239e+000 51317 82058,82346,82110
 1.4000e+000 82444 -3.1208e+000  2.4360e+000  2.4845e+000 51317 81954,82346,82418
 1.4000e+000 82467 -2.3227e+000  4.3136e+000  2.5127e+000 51317 81954,82418,82006
 1.4000e+000 82516 -9.0063e+000  4.5612e+000  2.8256e+000 51317 82110,82346,82490
 1.4000e+000 82539 -9.0583e+000  3.8041e+000  4.7436e+000 51317 82110,82490,81928
 1.4000e+000 83015 -3.3500e+000  2.5263e-002  9.7281e-002 50813 82669,82747,82695
 1.4000e+000 82992 -8.9743e+000  4.9862e-001  8.7018e+000 50813 83038,82669,82851
 1.4000e+000 82969 -1.0623e+001 -7.8997e-001  8.0298e+000 50813 83038,82851,82799
 1.4000e+000 82946 -9.1165e+000 -2.0296e+000  1.0790e+001 50813 82747,82799,82773
 1.4000e+000 82923 -2.6476e+000  1.4350e+000  7.1671e+000 50813 82643,82851,82669
 1.4000e+000 82900 -9.7192e+000 -4.5158e+000  5.4240e+000 50813 82799,82851,82825
 1.4000e+000 82877 -3.1123e+000 -2.2014e-001 -4.9597e-001 50813 82695,82747,82721
 1.4000e+000 83064 -6.1238e+000 -6.2866e-001  9.8786e+000 50813 82747,82669,83038
 1.4000e+000 83087 -8.3113e+000 -2.2306e+000  9.1338e+000 50813 82747,83038,82799
 1.4000e+000 83286  5.5449e+000 -8.0235e+000 -3.3803e+000 50352 83309,83162,83136
 1.4000e+000 83263  1.7016e+000  4.0803e+000  2.5108e-001 50352 83511,83309,83136
 1.4000e+000 83240  3.3021e+000  6.1506e+000  1.1976e+000 50352 83511,83136,83381
 1.4000e+000 83335  1.5460e+001  3.5982e+000 -8.8549e+000 50352 83188,83162,83309
 1.4000e+000 83358  6.8399e-001  2.0201e+000 -4.9077e+000 50352 83188,83309,83214
 1.4000e+000 83407  3.8013e+000  1.7956e+001  1.2579e+000 50352 83110,83214,83381
 1.4000e+000 83537 -1.5811e-001  6.0574e+000 -1.2939e+000 50352 83214,83309,83511
 1.4000e+000 83560  1.8195e-001  6.0490e+000 -7.5548e-001 50352 83214,83511,83381
 1.4000e+000 83889 -1.0131e+001 -4.9538e+000 -5.8261e-001 49548 83716,83794,83742
 1.4000e+000 83866 -8.1866e+000 -4.5499e+000  1.2540e+000 49548 83690,83794,83716
 1.4000e+000 83843 -1.2163e+001 -9.5622e+000 -9.0450e-001 49548 83664,83794,83690
 1.4000e+000 83820 -8.8004e+000 -5.1585e+000 -4.8958e-001 49548 83742,83794,83768
 1.4000e+000 84137  9.2942e+000  9.3698e+000  1.0717e-001 49208 84160,84016,83938
 1.4000e+000 84114  1.6649e+001  2.6103e+001 -5.4483e+000 49208 84160,83938,83912
 1.4000e+000 84091  1.2917e+001  7.7053e+000 -1.6052e+000 49208 83938,84016,83964
 1.4000e+000 84068  8.6350e+000  1.0922e+000 -3.5175e+000 49208 83964,84016,83990
 1.4000e+000 84186  1.4677e+001  1.7776e+001 -8.6126e+000 49208 84042,84016,84160
 1.4000e+000 84209  1.6951e+001  2.7245e+001 -1.3603e+001 49208 84042,84160,83912
 1.4000e+000 84796 -1.3614e+001 -3.9412e+000  1.5291e-001 48861 84499,84629,84551
 1.4000e+000 84773 -8.2011e+000  2.7740e+000  2.6167e+000 48861 84499,84655,84629
 1.4000e+000 84750 -1.2704e+001 -6.7430e-001  2.4420e+000 48861 84551,84629,84577
 1.4000e+000 84727 -3.1761e+000 -1.2456e+000  1.7577e+000 48861 84577,84629,84603
 1.4000e+000 84704 -7.8132e+000 -2.5235e+000  4.4344e-001 48861 84499,84551,84525
 1.4000e+000 84681 -8.2882e+000  1.5968e+000 -8.6686e-001 48861 84473,84655,84499
 1.4000e+000 85351 -3.1379e+000 -2.8271e-001  3.2436e+000 48457 85374,85031,85005
 1.4000e+000 85328  1.8318e+000  4.1607e+000  9.1827e-001 48457 85374,85005,85161
 1.4000e+000 85305  7.5006e+000  1.3859e+000  2.8945e+000 48457 85446,85057,85031
 1.4000e+000 85282 -3.6701e+000  1.5754e+000  1.6239e+000 48457 85005,85187,85161
 1.4000e+000 85259 -1.2679e+000  1.9076e+000 -6.9587e-001 48457 85083,85161,85109
 1.4000e+000 85236 -2.9224e+000  9.5092e-001  7.3474e-001 48457 84979,85187,85005
 1.4000e+000 85213 -3.4741e-001  2.3587e+000 -1.7355e+000 48457 85109,85161,85135
 1.4000e+000 85400  4.8776e+000  3.3820e+000  2.1822e+000 48457 85446,85031,85374
 1.4000e+000 85423 -8.6984e-001  1.9616e+000 -1.9968e-001 48457 85083,85374,85161
 1.4000e+000 85472  4.3089e+000  5.1175e-001  4.5583e-001 48457 85083,85057,85446
 1.4000e+000 85495  6.1538e-001  1.0968e+000 -6.2640e-001 48457 85083,85446,85374
 1.4000e+000 86080  1.2491e+001  6.2060e+000  3.0108e+000 48053 86319,86103,85783
 1.4000e+000 86057  7.8664e+000  8.6820e+000  3.7646e+000 48053 86103,85757,85939
 1.4000e+000 86034  5.6425e+000  6.8167e+000 -9.3424e-001 48053 86247,86175,85887
 1.4000e+000 86011  4.9889e+000  8.3623e+000 -3.4458e+000 48053 86247,85887,85835
 1.4000e+000 85988 -1.0620e+000  5.5146e+000 -1.8306e+000 48053 85887,85939,85913
 1.4000e+000 85965  8.4445e+000  7.0333e+000 -5.9218e+000 48053 85835,85887,85861
 1.4000e+000 86129  1.1571e+001  7.0811e+000  7.3241e-001 48053 85809,85783,86103
 1.4000e+000 86152  1.0083e+001  8.0411e+000  4.3882e-001 48053 86175,85809,86103
 1.4000e+000 86201  8.2700e+000  8.9725e+000  9.4676e-003 48053 85939,85887,86175
 1.4000e+000 86224  7.9191e+000  7.3737e+000  3.7162e-001 48053 85939,86175,86103
 1.4000e+000 86273  1.1104e+001  8.4185e+000 -9.2952e-001 48053 85809,86175,86247
 1.4000e+000 86296  7.8339e+000  8.4815e+000 -3.1321e+000 48053 85809,86247,85835
 1.4000e+000 86345  1.3228e+001  8.0420e+000  4.1003e+000 48053 85757,86103,86319
 1.4000e+000 86851  7.5440e+000 -5.4125e+000  1.3159e+000 47541 86874,86580,86554
 1.4000e+000 86828  5.6504e+000 -6.1703e+000  9.4189e-001 47541 86946,86874,86554
 1.4000e+000 86805  5.2642e+000 -5.0026e+000  1.5216e+000 47541 86946,86554,86528
 1.4000e+000 86782  1.5635e+001 -3.9911e+000  1.4595e+000 47541 86580,86658,86606
 1.4000e+000 86759  1.2613e+001 -1.2124e+000 -2.3250e-001 47541 86528,86710,86684
 1.4000e+000 86736  8.3440e-001  7.6605e-001 -7.0833e-001 47541 86606,86658,86632
 1.4000e+000 86900  6.6891e+000 -6.4607e+000  8.8973e-001 47541 86658,86580,86874
 1.4000e+000 86923  6.4913e+000 -5.7280e+000 -2.9461e-003 47541 86658,86874,86684
 1.4000e+000 86972  6.8310e+000 -4.2624e+000  3.9369e-001 47541 86684,86874,86946
 1.4000e+000 86995  5.7260e+000 -4.3779e+000  1.2302e+000 47541 86684,86946,86528
 1.4000e+000 87324 -6.5698e+000 -1.2064e+000  2.8914e+000 47044 87151,87203,87177
 1.4000e+000 87301 -9.1257e+000 -4.2751e+000  5.7010e-001 47044 87125,87203,87151
 1.4000e+000 87278 -6.5562e+000 -4.9039e+000  1.1727e+000 47044 87099,87203,87125
 1.4000e+000 87255 -9.4788e+000 -9.8022e+000 -2.2452e+000 47044 87099,87229,87203
 1.4000e+000 87572 -1.0077e+001 -4.4697e+000  1.8719e+000 46697 87595,87425,87373
 1.4000e+000 87549 -1.0539e+001 -4.9480e+000  2.0908e+000 46697 87595,87373,87477
 1.4000e+000 87526 -1.3302e+001 -6.0433e+000  2.4475e+000 46697 87347,87477,87373
 1.4000e+000 87503 -9.0020e+000 -3.2166e+000  1.2922e+000 46697 87373,87425,87399
 1.4000e+000 87621 -1.0487e+001 -2.8302e+000  1.3192e+000 46697 87451,87425,87595
 1.4000e+000 87644 -1.2197e+001 -4.2954e+000  1.9539e+000 46697 87451,87595,87477
 1.4000e+000 87794 -1.6707e+001  5.3933e+000 -2.3833e+000 46235 87693,87745,87719
 1.4000e+000 87771 -1.7461e+001 -1.0068e+001  8.4874e-001 46235 87667,87745,87693
 1.4000e+000 88304 -1.3700e+001 -1.3296e+000  3.3661e+000 45731 88085,88163,88137
 1.4000e+000 88281 -1.3964e+001 -3.6343e+000  3.5612e+000 45731 88007,88163,88085
 1.4000e+000 88258 -2.0065e+001 -7.0299e+000  1.6833e+000 45731 87981,88163,88007
 1.4000e+000 88235 -1.7407e+001 -7.6303e-001  4.5479e+000 45731 88007,88085,88059
 1.4000e+000 88212 -3.8441e+000  2.8227e+000  2.4922e+000 45731 88085,88137,88111
 1.4000e+000 88189 -1.7853e+001 -1.3597e+000  4.2484e+000 45731 88007,88059,88033
 1.4000e+000 88682 -1.6654e+001 -6.8782e+000 -1.1910e+000 45312 88434,88512,88486
 1.4000e+000 88659 -2.7132e+001 -2.2416e+001  6.7115e+000 45312 88434,88538,88512
 1.4000e+000 88636 -1.6491e+001 -4.4608e+000  1.2880e+000 45312 88434,88564,88538
 1.4000e+000 88613 -8.5849e+000 -7.9010e+000 -2.9843e-001 45312 88434,88486,88460
 1.4000e+000 88590 -2.0643e+001  1.7218e+001  2.0775e+001 45312 88408,88564,88434
 1.4000e+000 88930  1.1947e+001  1.4101e+001 -6.2843e-001 44808 88953,88731,88705
 1.4000e+000 88907  5.6643e+000  7.4594e+000  4.6081e+000 44808 88953,88705,88835
 1.4000e+000 88884  1.0091e+001 -1.8142e+000  7.1659e+000 44808 89025,88783,88757
 1.4000e+000 88861  9.2807e+000  9.1682e-002  1.0188e+001 44808 88783,88835,88809
 1.4000e+000 88979 -4.4198e-004  7.1210e+000  3.5911e+000 44808 88757,88731,88953
 1.4000e+000 89002  3.0123e+000  1.2431e+000  8.3988e+000 44808 89025,88757,88953
 1.4000e+000 89051  1.2010e+001  1.6511e+000  5.9276e+000 44808 88835,88783,89025
 1.4000e+000 89074  9.6641e+000  9.5007e+000  5.3159e+000 44808 88835,89025,88953
 1.4000e+000 89224 -1.5644e+002 -3.4342e+001  9.0167e+000 44404 89123,89175,89149
 1.4000e+000 89201 -1.4449e+002  7.7578e+000 -1.0252e+000 44404 89097,89175,89123
 1.4000e+000 89783  1.0715e+001  2.1830e+001 -5.9132e+000 43850 89806,89541,89515
 1.4000e+000 89760  6.9660e+000  1.0019e+001 -2.1484e+000 43850 89806,89515,89463
 1.4000e+000 89737  6.6780e+000  9.8364e+000 -7.6235e-001 43850 89950,89878,89593
 1.4000e+000 89714  5.2883e+000  1.0348e+001  1.2534e+000 43850 89950,89593,89567
 1.4000e+000 89691  1.0140e+001  8.6535e+000  1.0557e+000 43850 89411,89619,89463
 1.4000e+000 89668  1.5648e+001  9.3738e+000 -3.6775e+000 43850 89463,89515,89489
 1.4000e+000 89645  1.1758e+001  8.7999e+000  2.1783e-001 43850 89411,89463,89437
 1.4000e+000 89832  4.3939e+000  1.6580e+001  2.7395e-001 43850 89878,89541,89806
 1.4000e+000 89855  1.0322e+001  1.3147e+001  3.4932e-001 43850 89619,89806,89463
 1.4000e+000 89904  6.4600e+000  3.4889e+000  2.4032e+000 43850 89619,89593,89878
 1.4000e+000 89927  8.1997e+000  6.6304e+000  7.0409e-001 43850 89619,89878,89806
 1.4000e+000 89976  7.3250e-001  7.6119e+000  2.8040e+000 43850 89541,89878,89950
 1.4000e+000 89999 -3.6373e+000  4.7408e+000  5.4960e+000 43850 89541,89950,89567
 1.4000e+000 90247  3.6641e+000  3.9883e+001  6.9325e+000 43488 90022,90074,90048
 1.4000e+000 90224 -7.8807e+000  2.6756e+001  2.0160e+000 43488 90270,90022,90152
 1.4000e+000 90201 -5.4949e+000  1.9240e+001  1.3278e+000 43488 90342,90270,90152
 1.4000e+000 90178 -6.5791e+000  9.5685e+000  1.2260e+001 43488 90342,90152,90126
 1.4000e+000 90296 -5.3315e+000  1.7472e+001  6.2724e+000 43488 90074,90022,90270
 1.4000e+000 90319 -7.9759e+000  1.6381e+001  6.0993e+000 43488 90074,90270,90100
 1.4000e+000 90368 -1.8159e+001  7.9579e+000  1.1228e+001 43488 90100,90270,90342
 1.4000e+000 90391 -1.9297e+001 -3.0239e+000  2.2160e+001 43488 90100,90342,90126
 1.4000e+000 90590 -1.5276e+001 -5.6537e+000 -1.1798e+000 43048 90414,90492,90440
 1.4000e+000 90567 -1.5956e+001 -1.3509e+001  9.3649e-001 43048 90414,90518,90492
 1.4000e+000 90544 -1.7619e+001  2.8383e-001  2.0948e+000 43048 90440,90492,90466
 1.4000e+000 91070 -6.0872e+000 -7.8020e+000 -2.2557e-001 42430 91237,90880,90854
 1.4000e+000 91047 -6.6006e+000 -7.8902e+000  3.7978e-001 42430 90698,90906,90880
 1.4000e+000 91024 -1.1004e+001 -5.7114e+000  1.9751e+000 42430 91093,90750,90698
 1.4000e+000 91001 -8.3075e+000 -7.0049e+000  1.2756e+000 42430 91237,90854,91093
 1.4000e+000 90978 -8.7594e+000 -8.1467e+000  2.1025e+000 42430 91165,90802,90776
 1.4000e+000 90955 -5.9071e+000 -7.3741e+000  2.5799e+000 42430 90802,90854,90828
 1.4000e+000 90932 -1.1504e+001 -5.9850e+000  1.8424e+000 42430 90698,90750,90724
 1.4000e+000 91119 -1.3064e+001 -7.4576e+000  3.3775e+000 42430 90776,90750,91093
 1.4000e+000 91142 -9.6407e+000 -8.7568e+000  2.5406e+000 42430 91165,90776,91093
 1.4000e+000 91191 -8.4836e+000 -7.9002e+000  1.4201e+000 42430 90854,90802,91165
 1.4000e+000 91214 -9.0176e+000 -7.8963e+000  1.7521e+000 42430 90854,91165,91093
 1.4000e+000 91263 -9.4557e+000 -8.1492e+000  2.8490e-002 42430 90698,90880,91237
 1.4000e+000 91286 -1.1933e+001 -7.4265e+000  1.3775e+000 42430 90698,91237,91093
 1.4000e+000 91694  6.2481e+000  7.3230e+000 -3.9855e+000 41769 91469,91573,91495
 1.4000e+000 91671  3.2429e+000  6.4340e+000 -4.0977e+000 41769 91469,91599,91573
 1.4000e+000 91648  8.6949e+000  8.0735e+000 -2.0017e+000 41769 91495,91547,91521
 1.4000e+000 91625  4.4729e+000  6.9734e+000 -4.1840e+000 41769 91495,91573,91547
 1.4000e+000 92040  3.6067e+001  3.0391e+001  8.5966e+000 41379 91769,91873,91847
 1.4000e+000 92017  2.2713e+001  2.1192e+001  3.3336e+000 41379 91743,91873,91769
 1.4000e+000 91994  3.0103e+001  3.1197e+001  8.1097e+000 41379 91769,91847,91795
 1.4000e+000 91971  2.5123e+001  2.0321e+001  4.4582e+000 41379 91743,91899,91873
 1.4000e+000 91948  1.2531e+001  1.2724e+001  4.5895e-001 41379 91717,91899,91743
 1.4000e+000 91925  2.0274e+001  2.1497e+001  1.3616e+000 41379 91795,91847,91821
 1.4000e+000 92597  5.8777e+000  7.9164e+000 -3.6787e+000 40975 92225,92407,92303
 1.4000e+000 92574  2.0114e-001  5.5861e+000 -2.8617e+000 40975 92225,92433,92407
 1.4000e+000 92551  5.3795e+000  4.4366e+000 -4.4830e+000 40975 92225,92303,92277
 1.4000e+000 92528 -3.1378e+000  8.4319e+000 -5.9357e+000 40975 92329,92407,92381
 1.4000e+000 92505 -3.0296e+000  5.7297e+000 -4.5328e+000 40975 92303,92407,92329
 1.4000e+000 92482  6.4751e+000  7.5886e-001 -1.9085e+000 40975 92225,92277,92251
 1.4000e+000 92459 -1.0031e+001  7.4892e+000 -4.5686e+000 40975 92329,92381,92355
 1.4000e+000 93231 -5.7059e+001 -2.8762e+000 -8.2011e+000 40521 92937,92989,92963
 1.4000e+000 93208 -2.1820e+001 -3.3710e+000 -1.4010e+000 40521 93254,92937,92885
 1.4000e+000 93185 -1.6692e+001 -3.2666e+000  1.4574e+000 40521 93254,92885,93067
 1.4000e+000 93162 -1.4375e+001 -7.6713e+000 -4.1754e+000 40521 92885,92937,92911
 1.4000e+000 93139 -1.8235e+001 -3.1720e+000  1.3616e+000 40521 92859,93067,92885
 1.4000e+000 93116 -1.1081e+001 -5.3929e-001  3.7319e-001 40521 92989,93067,93015
 1.4000e+000 93093 -4.3570e+000 -2.8466e+000  3.1831e-001 40521 93015,93067,93041
 1.4000e+000 93280 -2.0527e+001 -8.4743e-001  2.0116e+000 40521 92989,92937,93254
 1.4000e+000 93303 -1.4386e+001 -2.5198e+000  4.1093e+000 40521 92989,93254,93067
 1.4000e+000 93632 -6.3373e+000  5.7985e+000  5.7423e+000 40231 93433,93537,93511
 1.4000e+000 93609 -9.9067e+000  1.7967e+000  3.8925e+000 40231 93407,93537,93433
 1.4000e+000 93586 -4.6545e+000  2.7069e+001 -1.3881e-001 40231 93459,93511,93485
 1.4000e+000 93563 -6.1529e+000  8.5001e+000 -2.6952e+000 40231 93433,93511,93459
 1.4000e+000 94010 -1.6346e+001  1.2969e+001  1.5300e+000 39869 93762,93866,93788
 1.4000e+000 93987 -5.2341e+000  1.5385e+001  7.6854e-001 39869 93762,93892,93866
 1.4000e+000 93964 -2.1375e+001  6.5598e-001 -8.0759e-001 39869 93788,93866,93840
 1.4000e+000 93941 -2.4221e+001  7.3993e+000 -1.0137e+001 39869 93788,93840,93814
 1.4000e+000 93918 -9.0812e+000  7.3194e+000 -3.3656e-001 39869 93736,93892,93762
 1.4000e+000 94160 -1.6998e+001 -1.2254e+000 -1.1631e+000 39457 94033,94085,94059
 1.4000e+000 94137 -1.8122e+001 -1.2455e+001  1.6333e+000 39457 94033,94111,94085
 1.4000e+000 94359 -5.8045e+000  1.8908e+001  4.3852e+000 39053 94382,94235,94209
 1.4000e+000 94336  1.1422e+001  3.3665e+001 -2.9433e+000 39053 94382,94209,94183
 1.4000e+000 94313  4.0420e-001  2.3849e+001  1.0006e+001 39053 94183,94287,94261
 1.4000e+000 94408  9.5787e+000  2.8464e+001  4.7977e+000 39053 94454,94382,94261
 1.4000e+000 94431  7.3965e+000  2.7282e+001  7.9533e+000 39053 94261,94382,94183
 1.4000e+000 94480 -5.9475e-001  8.9928e-001  8.4318e+000 39053 94235,94382,94454
 1.4000e+000 94892 -1.5543e+001  9.1596e+000  1.7103e+000 38392 94915,94771,94719
 1.4000e+000 94869 -1.7818e+001  1.0394e+001  1.8724e+000 38392 94915,94719,94693
 1.4000e+000 94846 -6.8998e+000  1.3573e+001  1.7462e+001 38392 94719,94771,94745
 1.4000e+000 94823 -1.1949e+001  1.5781e+001  4.8217e+000 38392 94667,94797,94693
 1.4000e+000 94941 -1.4718e+001  1.0081e+001  1.3064e+000 38392 94797,94771,94915
 1.4000e+000 94964 -1.6124e+001  1.1970e+001  1.1528e+000 38392 94797,94915,94693
 1.4000e+000 95261  9.6618e+000  8.6595e+000 -1.1190e+000 37831 95013,95065,95039
 1.4000e+000 95238  1.1816e+001  9.6406e+000 -2.2043e+000 37831 95284,95065,95013
 1.4000e+000 95215  9.2084e+000  8.8178e+000 -2.4789e+000 37831 95284,95013,94987
 1.4000e+000 95192  5.1631e+000  6.9906e+000 -2.5924e+000 37831 94987,95143,95117
 1.4000e+000 95169  1.3383e+001  3.8276e+000 -8.8496e+000 37831 95065,95117,95091
 1.4000e+000 95310  1.0153e+001  9.8156e+000 -3.9664e+000 37831 95117,95065,95284
 1.4000e+000 95333  8.1580e+000  9.4440e+000 -4.1887e+000 37831 95117,95284,94987
 1.4000e+000 95554 -2.0030e+001 -5.0952e-001 -3.6736e+000 37419 95404,95456,95430
 1.4000e+000 95531 -1.0634e+001  2.2233e+001 -3.2069e+000 37419 95378,95456,95404
 1.4000e+000 95508 -3.0345e+000  2.8206e+001 -5.8115e+000 37419 95378,95482,95456
 1.4000e+000 95887 -1.9605e+001 -1.4089e+001  2.1287e+000 37221 95662,95714,95688
 1.4000e+000 95864 -1.8686e+001 -1.6565e+001  1.7997e+000 37221 95662,95792,95714
 1.4000e+000 95841 -8.0103e+000 -8.8012e+000 -2.1551e-001 37221 95714,95766,95740
 1.4000e+000 95818 -1.5875e+001 -1.0011e+001  1.6834e+000 37221 95714,95792,95766
 1.4000e+000 95988 -6.9428e+001 -8.4668e+000 -9.7104e+000 36731 95910,95962,95936
 1.4000e+000 96138 -6.5808e+000  1.6820e+001  9.1202e+000 36327 96293,96063,96037
 1.4000e+000 96115 -1.7662e+001  1.4621e+001  1.4480e+001 36327 96161,96037,96011
 1.4000e+000 96187 -6.0898e+000  1.8868e+001  1.6731e+001 36327 96293,96037,96161
 1.4000e+000 96319 -4.6824e+000  2.7064e+001  1.2653e+001 36327 96089,96063,96293
 1.4000e+000 96342 -2.4308e-001  3.1155e+001  2.1202e+001 36327 96089,96293,96161
 1.4000e+000 96710  5.0689e-001  8.7935e+000  3.6432e+000 36037 96733,96491,96439
 1.4000e+000 96687  9.4990e-001  1.4588e+001  5.5797e+000 36037 96733,96439,96413
 1.4000e+000 96664 -1.5836e+000  7.5576e+000  1.4113e+000 36037 96439,96491,96465
 1.4000e+000 96641 -8.8879e+000  2.3462e+001  2.8905e+000 36037 96387,96517,96413
 1.4000e+000 96618 -8.8906e+000  2.3351e+001  2.8891e+000 36037 96387,96543,96517
 1.4000e+000 96595  4.0387e-001  1.6825e+001  9.9448e+000 36037 96387,96569,96543
 1.4000e+000 96759 -5.0380e+000  1.5006e+001  1.8699e+000 36037 96517,96491,96733
 1.4000e+000 96782 -1.8744e+000  2.1936e+001  6.0942e+000 36037 96517,96733,96413
 1.4000e+000 96932  1.0239e+001  5.6389e+000 -7.4609e+000 35633 97027,96955,96831
 1.4000e+000 96909  7.3069e+000  3.1551e+000 -6.2078e+000 35633 97159,96955,96805
 1.4000e+000 96981  5.7096e+000  3.4399e+000 -8.1839e+000 35633 96857,96831,96955
 1.4000e+000 97004  7.5935e+000  8.0917e+000 -7.9104e+000 35633 96857,96955,96883
 1.4000e+000 97053  8.3228e+000  4.9262e+000 -7.2708e+000 35633 96805,96955,97027
 1.4000e+000 97185  4.0613e+000  5.9083e+000 -5.7422e+000 35633 96883,96955,97159
 1.4000e+000 97593 -4.2557e+000 -7.0688e+000 -4.2269e+000 35186 97446,97498,97472
 1.4000e+000 97570 -6.6190e-001  1.5802e+000 -4.0984e+000 35186 97368,97498,97446
 1.4000e+000 97547 -3.3406e+000 -1.9300e+000 -1.9363e+000 35186 97368,97446,97394
 1.4000e+000 97524 -5.5912e+000 -1.9972e+000 -2.9070e+000 35186 97394,97446,97420
 1.4000e+000 98050  5.2929e+000  1.6571e+001 -2.5714e+000 34632 97802,97932,97854
 1.4000e+000 98027 -2.9752e+000  2.8664e+000 -6.9774e+000 34632 97776,97932,97802
 1.4000e+000 98004 -2.5153e+000  7.4403e+000  6.3056e+000 34632 97802,97854,97828
 1.4000e+000 97981 -1.0377e+001  1.0141e+001 -2.4425e+000 34632 97880,97932,97906
 1.4000e+000 97958  2.8410e+000  1.1556e+001 -1.8014e+000 34632 97854,97932,97880
 1.4000e+000 98526 -8.0738e+000  7.8791e+000  1.9143e+000 34064 98693,98180,98362
 1.4000e+000 98503 -8.8004e+000 -5.8889e-002 -4.3340e+000 34064 98154,98362,98180
 1.4000e+000 98480 -1.0573e+000  1.0111e+001  1.1104e+001 34064 98549,98258,98232
 1.4000e+000 98457 -1.4046e+001  1.9516e+001  2.6060e+001 34064 98549,98232,98206
 1.4000e+000 98434 -6.1631e+000  8.5291e+000 -2.6363e-001 34064 98837,98621,98362
 1.4000e+000 98411  2.8956e+000  4.5142e+000  9.8951e+000 34064 98765,98284,98258
 1.4000e+000 98388 -1.3766e+000  5.3018e+000 -5.3442e-001 34064 98837,98362,98336
 1.4000e+000 98575  2.1368e-001  9.7694e+000  8.0655e+000 34064 98765,98258,98549
 1.4000e+000 98598 -7.4198e+000  8.3168e+000  2.5622e+000 34064 98621,98310,98549
 1.4000e+000 98647 -5.7648e+000  1.2046e+001  2.8164e+000 34064 98693,98362,98621
 1.4000e+000 98670 -5.6773e-001  2.3914e+001  6.0064e+000 34064 98206,98621,98549
 1.4000e+000 98719 -7.7447e+000  1.3214e+001  2.2929e+000 34064 98206,98180,98693
 1.4000e+000 98742 -8.1147e+000  1.3293e+001  2.0335e+000 34064 98206,98693,98621
 1.4000e+000 98791  7.5803e+000  1.0153e+001  6.6270e+000 34064 98310,98284,98765
 1.4000e+000 98814  3.9597e+000  1.3990e+001  4.8613e+000 34064 98310,98765,98549
 1.4000e+000 98863 -1.4592e+000  1.1375e+001  1.1363e+000 34064 98310,98621,98837
 1.4000e+000 98886  3.2219e+000  7.8752e+000  6.5947e-001 34064 98310,98837,98336
 1.4000e+000 99264 -6.2836e-001 -1.0022e+000  2.4571e+000 33446 99287,99094,99068
 1.4000e+000 99241 -3.7879e+000  7.6113e+000 -4.8454e+000 33446 99287,99068,99016
 1.4000e+000 99218 -2.0291e+001  5.2520e+000  2.7500e+000 33446 99016,99068,99042
 1.4000e+000 99195 -2.1516e+001  1.6045e+000 -6.3810e+000 33446 99016,99146,99120
 1.4000e+000 99172 -1.8362e+001  9.3987e+000 -6.5095e+000 33446 98990,99146,99016
 1.4000e+000 99313  1.1522e+001  5.6782e+000 -3.8229e-001 33446 99120,99094,99287
 1.4000e+000 99336 -5.2336e-002  1.0307e+001 -6.1767e+000 33446 99120,99287,99016
 1.4000e+000 99861 -1.5215e+001 -1.2225e-001 -3.7509e+000 32940 100172,99956,99884
 1.4000e+000 99838 -1.4510e+001 -3.5472e+000 -1.5986e+000 32940 100100,99884,99518
 1.4000e+000 99815 -7.5030e+000 -2.1318e+000 -4.2801e+000 32940 100244,99956,99622
 1.4000e+000 99792 -1.6892e+000  5.0798e+000 -5.8296e-001 32940 100028,99648,99622
 1.4000e+000 99769 -1.5331e+001 -7.4789e+000 -2.1078e+000 32940 100100,99518,99492
 1.4000e+000 99746 -2.1111e+000  2.4841e+000  1.6483e-001 32940 99570,99622,99596
 1.4000e+000 99723 -4.4482e+000 -1.2168e+000 -3.2933e+000 32940 100244,99622,99570
 1.4000e+000 99700 -1.3293e+001 -3.2254e+000  2.1658e+000 32940 99440,99492,99466
 1.4000e+000 99910 -1.0951e+001  8.9077e-001 -2.9378e+000 32940 100172,99884,100028
 1.4000e+000 99933 -1.9704e+001 -8.9020e+000  3.6184e+000 32940 99674,99884,99440
 1.4000e+000 99982 -1.6330e+001 -5.0796e+000 -2.7713e+000 32940 99518,99884,99956
 1.4000e+000 100005 -1.9911e+001 -1.6611e+001 -1.1396e+001 32940 99518,99956,99544
 1.4000e+000 100054 -1.3625e+001  7.2663e+000  1.3844e+000 32940 99674,99648,100028
 1.4000e+000 100077 -1.4185e+001  4.3068e+000  1.9155e+000 32940 99674,100028,99884
 1.4000e+000 100126 -1.5092e+001 -1.5623e+000  9.5691e-001 32940 99440,99884,100100
 1.4000e+000 100149 -1.5108e+001 -3.5858e+000  1.1265e-001 32940 99440,100100,99492
 1.4000e+000 100198 -1.1717e+001  1.2570e+000 -1.8055e-001 32940 99622,99956,100172
 1.4000e+000 100221 -1.0586e+001  1.3203e+000  9.2985e-001 32940 99622,100172,100028
 1.4000e+000 100270 -1.2498e+001 -6.8864e-001 -5.6707e+000 32940 99544,99956,100244
 1.4000e+000 100293 -9.8296e+000 -1.1541e-001 -4.7495e+000 32940 99544,100244,99570
 1.4000e+000 100750  2.9299e+000  9.0541e+000  1.1561e+000 32365 100773,100580,100502
 1.4000e+000 100727  5.6344e+000  7.7422e+000  2.9941e+000 32365 100773,100502,100632
 1.4000e+000 100704  9.3919e+000 -1.1685e+000 -4.2781e+000 32365 100476,100632,100502
 1.4000e+000 100681  2.4040e-001  5.3262e+000 -2.8409e-001 32365 100528,100580,100554
 1.4000e+000 100658  6.1544e+000  9.4596e+000 -2.5149e+000 32365 100502,100580,100528
 1.4000e+000 100799  4.8712e+000  1.1540e+001  2.0003e+000 32365 100606,100580,100773
 1.4000e+000 100822  6.9760e+000  9.5232e+000  3.5987e+000 32365 100606,100773,100632
 1.4000e+000 101021 -8.2756e-002  1.0273e+001  7.1952e+000 31853 100871,100923,100897
 1.4000e+000 100998  9.2293e+000  2.0490e+001  1.1398e+001 31853 100871,100949,100923
 1.4000e+000 100975  3.7156e-001 -4.1371e-002  1.0351e+001 31853 100845,100949,100871
 1.4000e+000 101529  3.8867e+000  6.4343e+000 -9.0126e+000 31249 101552,101310,101232
 1.4000e+000 101506  7.5304e+000  9.1581e+000 -1.0253e+001 31249 101552,101232,101206
 1.4000e+000 101483  6.7266e+000  1.4930e+000 -6.2260e+000 31249 101206,101388,101336
 1.4000e+000 101460  7.4809e-001  3.4629e+000 -7.1897e+000 31249 101232,101284,101258
 1.4000e+000 101437  3.1155e+000  1.0554e+001 -7.8912e+000 31249 101232,101310,101284
 1.4000e+000 101414  8.6917e+000  2.1328e-001 -1.4368e+000 31249 101336,101388,101362
 1.4000e+000 101578  4.7941e+000  2.9014e+000 -5.3585e+000 31249 101336,101310,101552
 1.4000e+000 101601  8.7032e+000  6.0424e+000 -6.7322e+000 31249 101336,101552,101206
 1.4000e+000 101751 -2.1794e+001  2.8656e+001 -4.3875e-001 30515 101774,101650,101624
 1.4000e+000 101728 -1.1437e+001  3.3047e+001 -1.8814e+000 30515 101846,101774,101624
 1.4000e+000 101800 -1.8549e+001  3.3118e+001  1.0355e+000 30515 101676,101650,101774
 1.4000e+000 101823 -1.7355e+001  2.3589e+001  1.8018e+000 30515 101676,101774,101702
 1.4000e+000 101872 -2.0457e+001  1.1806e+001 -1.9475e+000 30515 101702,101774,101846
 1.4000e+000 102557  1.5070e+000  3.2657e+000  1.6411e+000 29947 102652,102580,102266
 1.4000e+000 102534  3.1357e+000  5.6884e+000  3.3902e+000 29947 102580,102136,102370
 1.4000e+000 102511  4.0572e-001  8.0092e-001  1.2715e+000 29947 102724,102652,102266
 1.4000e+000 102488  1.1875e+000 -1.0665e+000  7.6363e-001 29947 102724,102266,102240
 1.4000e+000 102465  2.7829e+000  4.3813e+000  1.8473e+000 29947 102796,102318,102292
 1.4000e+000 102442  5.6308e-001  3.0113e+000 -9.7127e-001 29947 102162,102214,102188
 1.4000e+000 102419  5.8640e-001  2.2029e+000 -1.7290e+000 29947 102162,102240,102214
 1.4000e+000 102396  4.6912e+000  9.7358e+000  4.6347e+000 29947 102318,102370,102344
 1.4000e+000 102606  2.1832e+000  1.8032e+000  1.5751e+000 29947 102292,102266,102580
 1.4000e+000 102629  2.6378e+000  3.6052e+000  1.8871e+000 29947 102796,102292,102580
 1.4000e+000 102678  2.1882e+000  2.5584e+000  2.7513e+000 29947 102136,102580,102652
 1.4000e+000 102701  1.6661e+000  2.2862e+000  2.4839e+000 29947 102136,102652,102162
 1.4000e+000 102750  1.7369e+000  3.2106e+000  2.2176e+000 29947 102162,102652,102724
 1.4000e+000 102773  1.7992e+000  1.1110e+000  1.2854e+000 29947 102162,102724,102240
 1.4000e+000 102822  2.7678e+000  3.5027e+000  2.1978e+000 29947 102370,102318,102796
 1.4000e+000 102845  2.8399e+000  3.1359e+000  2.3172e+000 29947 102370,102796,102580
 1.4000e+000 103044 -2.2001e+001 -1.4275e+001  1.5517e+000 29450 102868,102920,102894
 1.4000e+000 103021 -2.2033e+001 -1.3362e+001  1.4625e+000 29450 102868,102972,102920
 1.4000e+000 102998 -2.3666e+001 -1.7029e+001  9.6172e-001 29450 102920,102972,102946
 1.4000e+000 103292  4.2307e+000  2.4411e+000  7.1956e+000 29060 103315,103171,103119
 1.4000e+000 103269 -2.5398e+000  2.4494e+000  9.3373e+000 29060 103315,103119,103067
 1.4000e+000 103246  8.1267e+000  5.8985e+000  5.2602e+000 29060 103119,103171,103145
 1.4000e+000 103223  3.0016e+000 -2.7526e-001  1.1281e+001 29060 103067,103119,103093
 1.4000e+000 103341  1.0527e+001  1.6741e+000  3.8316e+000 29060 103197,103171,103315
 1.4000e+000 103364  1.8321e+000  3.2118e+000  3.6309e+000 29060 103197,103315,103067
 1.4000e+000 104002 -1.6159e+001 -5.8342e+000 -7.9953e+000 28599 104097,104025,103708
 1.4000e+000 103979 -9.8919e+000 -7.6151e-002 -1.1488e+000 28599 104169,104025,103656
 1.4000e+000 103956 -8.5311e+000 -1.1125e+001 -7.3283e+000 28599 104097,103708,103682
 1.4000e+000 103933 -6.9855e+000  2.6517e+000  1.3238e-002 28599 104169,103656,103630
 1.4000e+000 103910 -3.1837e+000  2.5989e+001  1.4938e+000 28599 103760,103812,103786
 1.4000e+000 103887 -9.6357e+000  4.8694e+000  6.1414e+000 28599 103630,103838,103812
 1.4000e+000 103864 -8.4230e+000 -1.7814e+000  6.5487e-001 28599 103708,103760,103734
 1.4000e+000 104051 -1.8172e+001  4.1573e+000 -2.8089e+000 28599 103760,103708,104025
 1.4000e+000 104074 -8.4798e+000  5.0326e+000  1.9694e+000 28599 103760,104025,103812
 1.4000e+000 104123 -8.6276e+000  1.9240e+000 -4.9354e+000 28599 103656,104025,104097
 1.4000e+000 104146 -1.4825e+000 -5.4156e+000 -4.7816e+000 28599 103656,104097,103682
 1.4000e+000 104195 -1.1746e+001  3.5369e+000 -4.8811e-001 28599 103812,104025,104169
 1.4000e+000 104218 -1.0750e+001  4.6067e+000 -9.6825e-003 28599 103812,104169,103630
 1.4000e+000 104596  6.7520e+000  1.8368e+000 -2.2724e+000 28344 104619,104374,104322
 1.4000e+000 104573  5.4640e+000 -4.0059e-001  1.6975e-001 28344 104619,104322,104478
 1.4000e+000 104550 -2.8064e-002  3.6279e+000  4.0286e-001 28344 104322,104374,104348
 1.4000e+000 104527  1.0405e+001 -1.0693e+001 -1.3033e+001 28344 104400,104452,104426
 1.4000e+000 104504  1.1565e+001 -1.1022e+001 -9.8013e+000 28344 104374,104452,104400
 1.4000e+000 104645  7.2917e+000  5.3502e+000 -4.5620e+000 28344 104452,104374,104619
 1.4000e+000 104668  5.2610e+000  2.9962e+000 -1.9396e+000 28344 104452,104619,104478
 1.4000e+000 104987  1.9674e+000  5.7905e+000  2.1184e+000 27947 104713,104843,104765
 1.4000e+000 104964  5.1256e-001  7.7792e+000 -2.6535e-001 27947 104713,104869,104843
 1.4000e+000 104941  1.9748e+000  2.1294e+000 -2.3493e-001 27947 104765,104843,104791
 1.4000e+000 104918  1.9514e+000  1.5601e+000  1.2026e-001 27947 104791,104843,104817
 1.4000e+000 104895  6.3039e-003  9.5486e-001  2.0089e+000 27947 104713,104765,104739
 1.4000e+000 105367 -1.7542e+001 -9.3814e+000  1.7363e+000 27443 105390,105197,105119
 1.4000e+000 105344 -2.2571e+001 -1.1157e+001  2.2725e+000 27443 105390,105119,105093
 1.4000e+000 105321 -1.9706e+001 -1.1949e+001  2.8375e+000 27443 105119,105197,105145
 1.4000e+000 105298 -1.3020e+001 -1.0962e+001 -7.5270e-001 27443 105197,105249,105223
 1.4000e+000 105275 -1.8581e+001 -7.0218e+000  6.5958e+000 27443 105145,105197,105171
 1.4000e+000 105416 -1.4068e+001 -1.0533e+001 -1.8616e+000 27443 105249,105197,105390
 1.4000e+000 105439 -1.9963e+001 -1.2476e+001 -1.7033e+000 27443 105249,105390,105093
 1.4000e+000 105994 -8.2441e+000 -9.4618e-001 -1.0197e+000 27096 106161,106017,105700
 1.4000e+000 105971 -1.1207e+001  2.6068e-001  6.5144e-002 27096 106305,106017,105648
 1.4000e+000 105948 -1.4598e+000  8.7730e-001 -2.2848e+000 27096 106089,105804,105778
 1.4000e+000 105925 -8.9734e+000 -1.1850e+000 -3.1393e-001 27096 106161,105700,105674
 1.4000e+000 105902 -6.9285e+000 -2.3978e+000 -1.2292e+000 27096 106233,105726,105700
 1.4000e+000 105879 -2.7394e+001 -1.1203e+000  2.1968e+000 27096 106305,105648,105622
 1.4000e+000 105856 -4.0879e+000 -2.1232e+000 -1.6167e-001 27096 105726,105778,105752
 1.4000e+000 106043 -8.0180e+000 -1.4429e+000 -6.3674e-001 27096 106233,105700,106017
 1.4000e+000 106066 -4.9806e+000 -2.7378e-001 -7.3276e-001 27096 106089,105778,106017
 1.4000e+000 106115 -5.6026e+000 -7.9242e-001 -1.6346e+000 27096 105830,105804,106089
 1.4000e+000 106138 -7.8759e+000 -5.6294e-002 -1.0249e+000 27096 106377,106089,106017
 1.4000e+000 106187 -9.5373e+000  1.1773e-001  4.1272e-001 27096 105648,106017,106161
 1.4000e+000 106210 -1.1698e+001 -2.2615e+000  1.5469e+000 27096 105648,106161,105674
 1.4000e+000 106259 -5.8236e+000 -1.3145e+000 -1.7467e+000 27096 105778,105726,106233
 1.4000e+000 106282 -7.1618e+000 -6.7640e-001 -1.0673e+000 27096 105778,106233,106017
 1.4000e+000 106331 -8.8115e+000  4.3117e-001 -2.6858e+000 27096 106377,106017,106305
 1.4000e+000 106354 -8.4729e+000  1.1696e+001 -3.9865e+000 27096 105830,106305,105622
 1.4000e+000 106403 -5.0593e+000  1.0686e+000 -1.4214e+000 27096 105830,106089,106377
 1.4000e+000 106426 -5.3911e+000  1.8793e+000 -2.8253e+000 27096 105830,106377,106305
 1.4000e+000 106625 -2.4272e+001 -6.3338e+000  2.0154e+000 26684 106475,106553,106527
 1.4000e+000 106602 -2.5561e+001 -7.2590e+000  1.5607e+000 26684 106449,106553,106475
 1.4000e+000 106579 -3.0726e+001 -6.1520e+000 -2.7291e+000 26684 106475,106527,106501
 1.4000e+000 107084  8.4407e-001 -2.9694e+000 -9.9366e-001 26244 107107,106914,106862
 1.4000e+000 107061  2.8293e-001 -3.7828e+000 -7.0592e-001 26244 107107,106862,106836
 1.4000e+000 107038 -3.5200e+000 -4.4007e+000 -1.5220e-001 26244 106810,106966,106836
 1.4000e+000 107015  1.6820e+000 -1.7867e+000 -5.9856e-001 26244 106862,106914,106888
 1.4000e+000 106992  9.5934e-001 -1.5794e+000 -2.6541e-001 26244 106914,106966,106940
 1.4000e+000 107133  4.0464e-001 -2.4197e+000  8.8826e-002 26244 106966,106914,107107
 1.4000e+000 107156 -3.4826e-001 -3.9599e+000  4.0864e-001 26244 106966,107107,106836
 1.4000e+000 107662  2.8151e+000 -3.3323e-001  9.5419e-001 25904 107365,107495,107391
 1.4000e+000 107639  2.3844e+000  9.6916e-001  6.5799e-001 25904 107365,107521,107495
 1.4000e+000 107616  1.5496e+000 -1.1699e+000  3.1494e-001 25904 107391,107469,107443
 1.4000e+000 107593  3.1071e+000 -2.7500e-001 -9.7174e-002 25904 107391,107495,107469
 1.4000e+000 107570  1.1237e+000 -2.1468e+000  3.9523e-001 25904 107391,107443,107417
 1.4000e+000 107547  1.7297e+000  1.1080e+000  3.0502e+000 25904 107339,107521,107365
 1.4000e+000 108247 -1.3819e+000 -1.1435e+000 -6.5126e-001 25450 108270,108002,107950
 1.4000e+000 108224  2.4200e-001 -1.1600e+000 -2.4762e-002 25450 108270,107950,108106
 1.4000e+000 108201  4.1660e-001 -1.8654e+000  1.0626e-001 25450 108342,108028,108002
 1.4000e+000 108178 -2.3005e+000 -2.2991e+000 -1.4654e-001 25450 107950,108002,107976
 1.4000e+000 108155 -2.4174e+000  6.4294e-001  3.8527e-001 25450 107924,108106,107950
 1.4000e+000 108132  5.8632e-001 -2.4435e-001  5.0212e-001 25450 108054,108106,108080
 1.4000e+000 108296 -4.1944e-001 -1.1937e+000  1.5969e-001 25450 108342,108002,108270
 1.4000e+000 108319  7.0143e-001 -5.5482e-001  4.7300e-001 25450 108054,108270,108106
 1.4000e+000 108368  2.0251e+000 -1.3007e+000 -3.0444e-001 25450 108054,108028,108342
 1.4000e+000 108391  7.8161e-001 -8.2031e-001 -3.7521e-001 25450 108054,108342,108270
 1.4000e+000 108818 -1.2140e+001  8.3324e+000  1.5280e+000 24939 108521,108677,108651
 1.4000e+000 108795 -2.4215e+001  4.1015e+000 -9.6443e+000 24939 108495,108677,108521
 1.4000e+000 108772 -4.4866e+000  1.1614e+001  1.6546e+000 24939 108521,108651,108625
 1.4000e+000 108749 -9.9004e+000  1.4450e+001  7.4704e-001 24939 108521,108625,108599
 1.4000e+000 108726  1.1615e+000  3.8307e+000  2.1621e+000 24939 108547,108599,108573
 1.4000e+000 108703 -1.0602e+001  8.1864e+000 -8.7340e-001 24939 108521,108599,108547
 1.4000e+000 109403  2.0641e+001  1.2731e+001 -3.5047e+000 24741 109158,109210,109184
 1.4000e+000 109380  1.1161e+001  1.1179e+001 -3.0232e+000 24741 109158,109262,109210
 1.4000e+000 109357  1.4060e+001  1.3745e+001 -1.0495e+000 24741 109080,109262,109158
 1.4000e+000 109334  6.6803e+000  1.1323e+001  2.3252e+000 24741 109080,109158,109132
 1.4000e+000 109311  2.6308e+001  1.9485e+001 -7.3361e+000 24741 109210,109262,109236
 1.4000e+000 109288  1.2593e+001  1.1998e+001  5.2257e+000 24741 109080,109132,109106
 1.4000e+000 109781  2.4694e+000 -1.2709e+000  5.3804e-001 24337 109533,109611,109559
 1.4000e+000 109758  2.6199e+000  2.7523e-001 -1.8309e-001 24337 109533,109637,109611
 1.4000e+000 109735  2.8580e+000 -1.8376e+000 -4.1365e-001 24337 109559,109611,109585
 1.4000e+000 109712  2.6102e+000  3.1303e-001  1.3908e-001 24337 109533,109663,109637
 1.4000e+000 109689  3.0266e+000  2.0412e+000  1.0400e+000 24337 109507,109663,109533
 1.4000e+000 110159 -6.1083e+000 -9.6145e+000 -3.0736e+000 23833 110182,109963,109911
 1.4000e+000 110136 -8.2914e+000 -1.0224e+001 -3.2200e+000 23833 110182,109911,109885
 1.4000e+000 110113 -2.4202e+000 -6.0979e+000 -6.1869e+000 23833 109885,110041,109989
 1.4000e+000 110090 -4.6893e+000 -4.5518e+000 -2.6528e+000 23833 109911,109963,109937
 1.4000e+000 110067 -7.9209e+000 -1.7599e+001 -7.7704e+000 23833 109989,110041,110015
 1.4000e+000 110208 -7.2374e+000 -9.9469e+000 -3.9309e+000 23833 109989,109963,110182
 1.4000e+000 110231 -7.9837e+000 -9.9958e+000 -4.2515e+000 23833 109989,110182,109885
 1.4000e+000 110332  2.9041e+000  2.3962e+000  1.3216e-001 23429 110254,110306,110280
 1.4000e+000 110580  3.8748e+000  2.6492e+000  6.3885e+000 22825 110603,110407,110381
 1.4000e+000 110557  8.7975e-001  1.4104e+000  6.1766e+000 22825 110603,110381,110485
 1.4000e+000 110534  3.9538e+000  2.4616e+000  3.3682e+000 22825 110433,110485,110459
 1.4000e+000 110511 -1.5299e-001  1.1308e+001  6.5821e+000 22825 110355,110485,110381
 1.4000e+000 110629  2.8420e+000  2.2792e+000  4.4158e+000 22825 110433,110407,110603
 1.4000e+000 110652  1.2556e+000  1.7418e+000  4.2325e+000 22825 110433,110603,110485
 1.4000e+000 110902 -2.3627e+001  4.6127e+000 -3.0986e+000 22428 110703,110755,110729
 1.4000e+000 110879 -1.6088e+001 -2.5452e-001 -3.6553e+000 22428 110703,110781,110755
 1.4000e+000 110856 -2.1302e+001 -2.9927e+000 -6.2511e+000 22428 110703,110807,110781
 1.4000e+000 110833 -3.3088e+001 -8.9980e+000 -1.2180e+001 22428 110677,110807,110703
 1.4000e+000 111284  1.5803e+001 -9.8804e-001 -8.7946e+000 22138 111088,111140,111114
 1.4000e+000 111261  1.4285e+001  2.8894e+000 -1.1320e+001 22138 111062,111140,111088
 1.4000e+000 111238  1.2433e+001  1.8912e+000 -5.4308e+000 22138 111036,111140,111062
 1.4000e+000 111215  2.3132e+000 -1.1946e+000 -8.3075e+000 22138 111010,111140,111036
 1.4000e+000 111192  2.4800e+000 -3.9950e-001 -9.2369e+000 22138 111010,111166,111140
 1.4000e+000 111385 -2.8365e+001 -5.2305e+000  3.6008e+000 21826 111307,111359,111333
 1.4000e+000 111731 -3.1199e+001 -3.6523e+000  3.7395e+000 21264 111754,111538,111434
 1.4000e+000 111708 -2.5493e+001 -1.5443e+000  4.3466e-001 21264 111754,111434,111408
 1.4000e+000 111685 -3.2890e+001  4.4914e-001  2.5720e+000 21264 111434,111538,111460
 1.4000e+000 111662 -4.3831e+001 -4.2738e+000  4.5704e+000 21264 111460,111538,111486
 1.4000e+000 111639 -2.3098e+001 -7.0658e+000  8.5839e+000 21264 111408,111590,111564
 1.4000e+000 111616 -4.9299e+001  1.0342e+001  1.1348e+001 21264 111486,111538,111512
 1.4000e+000 111780 -3.3130e+001 -4.3803e+000  5.2829e+000 21264 111564,111538,111754
 1.4000e+000 111803 -3.1077e+001 -7.6830e+000  3.2145e+000 21264 111564,111754,111408
 1.4000e+000 111955  6.3723e-001  4.9590e+000  3.0536e-001 20860 111978,111906,111880
 1.4000e+000 111932  5.7734e-001  2.4001e+000 -1.9153e+000 20860 112110,111828,111906
 1.4000e+000 112004 -5.9556e-001  5.2702e+000 -8.3061e-001 20860 112110,111906,111978
 1.4000e+000 112136  1.3636e+000  5.0957e+000 -1.6865e+000 20860 111854,111828,112110
 1.4000e+000 112159  6.4915e-001  8.8302e+000 -8.0626e-001 20860 111854,112110,111978
 1.4000e+000 112407 -6.0507e+000  6.7838e-001 -4.1546e+000 20320 112182,112286,112208
 1.4000e+000 112384  1.6327e+000  5.4880e+000 -6.4351e+000 20320 112182,112312,112286
 1.4000e+000 112361 -2.6277e+000  2.0731e+000 -3.3785e+000 20320 112208,112286,112260
 1.4000e+000 112338 -1.7033e+001  8.2136e+000 -1.0627e+001 20320 112208,112260,112234
 1.4000e+000 112655  1.7208e+000 -9.1733e+000  3.2308e+000 19916 112508,112560,112534
 1.4000e+000 112632 -1.2026e+000 -9.5529e+000  2.3119e+000 19916 112430,112560,112508
 1.4000e+000 112609 -2.5013e+000 -1.4989e+001  3.1316e+000 19916 112430,112508,112456
 1.4000e+000 112586  4.1681e-001 -5.4736e+000  1.2154e+000 19916 112456,112508,112482
 1.4000e+000 112807 -1.3220e+001  6.1470e-001 -1.7783e-001 19626 112680,112732,112706
 1.4000e+000 112784 -9.1750e+000 -1.0250e+000 -2.3906e+000 19626 112680,112758,112732
 1.4000e+000 113008 -9.8288e+000 -5.5245e+000  3.6604e+000 19165 112858,112936,112884
 1.4000e+000 112985 -1.7845e+001 -1.3901e+001 -2.7950e-002 19165 112832,112936,112858
 1.4000e+000 112962 -3.7525e+000 -5.2571e+000 -6.2317e-001 19165 112884,112936,112910
 1.4000e+000 113209 -5.9064e+000 -1.7093e+000  2.0791e-001 18596 113033,113085,113059
 1.4000e+000 113186 -9.0359e-001 -7.8035e-001 -1.0501e+000 18596 113033,113111,113085
 1.4000e+000 113163 -3.1039e+000 -2.6655e+000 -3.9590e-003 18596 113033,113137,113111
 1.4000e+000 113481 -3.3282e+000 -2.7319e+000  6.0738e-001 18348 113256,113308,113282
 1.4000e+000 113458  3.9274e-001 -1.7935e+000  1.0382e-001 18348 113256,113386,113308
 1.4000e+000 113435  9.0624e-001 -1.4367e+000  6.4454e-001 18348 113308,113386,113360
 1.4000e+000 113412  1.9384e+000 -2.3901e+000  1.1304e-001 18348 113308,113360,113334
 1.4000e+000 113753  1.5148e+000 -2.0353e+000  5.9326e-002 17830 113554,113606,113580
 1.4000e+000 113730  2.9626e+000 -1.9041e+000  1.6947e-001 17830 113528,113606,113554
 1.4000e+000 113707  3.4777e+000 -6.4635e-001  4.8069e-001 17830 113528,113658,113606
 1.4000e+000 113684  2.6076e+000 -1.9845e+000 -3.0026e-002 17830 113606,113658,113632
 1.4000e+000 113954  5.2864e+000 -9.0257e-001 -3.5395e+000 17326 113778,113830,113804
 1.4000e+000 113931  1.5089e+001 -1.3059e+001 -5.9707e+000 17326 113778,113882,113830
 1.4000e+000 113908  1.8172e+001 -5.5398e+000 -5.3424e+000 17326 113830,113882,113856
 1.4000e+000 114106  3.8212e+000 -1.8712e+000  1.9129e-001 16870 113979,114031,114005
 1.4000e+000 114083  3.4411e+000 -1.3370e+000  2.7189e-001 16870 113979,114057,114031
 1.4000e+000 114461 -3.8444e+000  1.1141e+001 -9.6379e+000 16266 114236,114288,114262
 1.4000e+000 114438 -3.1538e+000 -3.0647e+000 -1.4827e+000 16266 114236,114366,114288
 1.4000e+000 114415  5.8623e-001  1.1538e+000  1.4862e+000 16266 114288,114340,114314
 1.4000e+000 114392  5.4994e-001  8.0937e-001  2.4204e-001 16266 114288,114366,114340
 1.4000e+000 114562 -2.8095e+001  6.2121e+000  0.0000e+000 15830 114484,114536,114510
 1.4000e+000 114663  3.4009e-001 -6.6275e+000  1.0935e-001 15151 114585,114637,114611
 1.4000e+000 114886  1.0780e+001  6.4216e+000  4.0121e+000 417 114762,114814,114788
 1.4000e+000 114863  7.7460e+000  1.9097e+000  2.4251e+000 417 114710,114814,114762
 1.4000e+000 114840  1.1421e+000  2.5362e+000  1.3032e+000 417 114710,114762,114736
 1.5000e+000 66549 -8.0139e-001 -1.8401e+000 -4.4159e-001 66104 66350,66454,66428
 1.5000e+000 66526 -2.5670e-001 -1.7527e+000  1.2663e-001 66104 66324,66454,66350
 1.5000e+000 66503 -3.1737e-001  9.9968e-002 -6.1200e-001 66104 66350,66428,66402
 1.5000e+000 66480  1.6714e+000 -3.9965e+000 -7.8663e-001 66104 66350,66402,66376
 1.5000e+000 66947  2.3871e-002  4.9407e-001  2.9180e-002 65906 66699,66829,66803
 1.5000e+000 66924 -5.7088e-002  5.1103e-001 -3.6536e-002 65906 66673,66829,66699
 1.5000e+000 66901  9.0751e-001  8.9177e-002  4.8663e-001 65906 66725,66777,66751
 1.5000e+000 66878 -2.5187e+000  9.6985e-002  2.0711e-001 65906 66725,66803,66777
 1.5000e+000 66855  1.1615e+000 -2.9172e+000 -7.2034e-001 65906 66699,66803,66725
 1.5000e+000 67146 -6.3257e-001  1.7586e-001 -2.5340e-003 65708 67022,67074,67048
 1.5000e+000 67123  1.0570e+000  4.8770e-001 -2.0762e-001 65708 66970,67074,67022
 1.5000e+000 67100 -1.6189e+000 -1.3297e+000  8.3097e-001 65708 66970,67022,66996
 1.5000e+000 67477 -1.4954e+000 -3.3313e+000 -3.2155e+000 65418 67278,67356,67330
 1.5000e+000 67454 -7.2602e-001  4.9917e+000 -1.9536e+000 65418 67278,67382,67356
 1.5000e+000 67431 -3.2881e+000 -1.1135e+000 -5.8238e+000 65418 67278,67330,67304
 1.5000e+000 67408 -1.1405e-001  1.8156e-002 -3.4767e+000 65418 67252,67382,67278
 1.5000e+000 68111 -1.0235e+000 -1.4238e-001 -1.2762e-001 65014 67791,67921,67869
 1.5000e+000 68088  1.3852e-001  4.4839e-001 -1.5204e+000 65014 67765,67921,67791
 1.5000e+000 68065 -1.1900e+000 -6.6910e+000 -7.9156e-001 65014 67869,67921,67895
 1.5000e+000 68042 -4.1241e-001  3.5936e-001 -1.4527e+000 65014 67765,67947,67921
 1.5000e+000 68019  1.7629e+000 -4.0066e-001 -1.7642e+000 65014 67791,67869,67817
 1.5000e+000 67996  3.0989e+000 -1.2803e+000 -5.2492e-001 65014 67817,67869,67843
 1.5000e+000 67973  1.7192e+000  2.0105e+000 -4.7749e-001 65014 67739,67947,67765
 1.5000e+000 68359 -1.2196e+000 -3.4037e-001  5.8475e-001 64816 68186,68238,68212
 1.5000e+000 68336  1.1646e+000 -1.4829e+000  6.8576e-002 64816 68186,68264,68238
 1.5000e+000 68313 -2.5320e-001 -2.0942e+000  1.7069e-002 64816 68160,68264,68186
 1.5000e+000 68290 -1.8642e-002 -1.8203e+000 -1.9697e-001 64816 68134,68264,68160
 1.5000e+000 68509 -1.5789e-001 -1.3764e+000  4.8659e-001 64362 68864,68532,68434
 1.5000e+000 68486 -1.5570e+000 -7.6328e-001  4.8131e-001 64362 68532,68408,68382
 1.5000e+000 68558 -7.1462e-001 -1.2452e+000  9.1864e-001 64362 68736,68532,68460
 1.5000e+000 68581 -4.2251e-001 -3.4860e-001  1.0177e-003 64362 68604,68532,68382
 1.5000e+000 68630  7.5131e-001 -1.9631e-001  1.4221e+000 64362 68460,68532,68604
 1.5000e+000 68762  3.1966e-001 -2.3271e-001  4.4642e-001 64362 68434,68532,68736
 1.5000e+000 68890 -1.1028e+000 -6.0302e-001  1.0763e-001 64362 68408,68532,68864
 1.5000e+000 69168 -2.0634e+000 -2.8328e+000  1.5644e+000 64164 69018,69070,69044
 1.5000e+000 69145 -6.1452e-001 -5.9065e+000  1.2501e+000 64164 68992,69070,69018
 1.5000e+000 69122 -1.0816e+000 -7.6967e+000  3.1358e+000 64164 68992,69096,69070
 1.5000e+000 69367  1.7262e+000 -3.0886e+000 -2.7116e-001 63966 69462,69390,69269
 1.5000e+000 69344 -3.7147e+000 -1.1647e+001  1.8268e+000 63966 69390,69243,69217
 1.5000e+000 69321 -1.7049e+000 -8.0066e+000 -1.3000e+000 63966 69191,69295,69217
 1.5000e+000 69416  5.0272e+000 -7.6402e+000 -2.1086e+000 63966 69295,69269,69390
 1.5000e+000 69439 -1.5672e-001 -8.8780e+000 -8.9571e-001 63966 69295,69390,69217
 1.5000e+000 69488 -2.9474e+000 -1.1144e+001 -2.1840e+000 63966 69243,69390,69462
 1.5000e+000 69900  5.2642e-001 -1.3269e-001  1.8887e+000 63676 69701,69779,69727
 1.5000e+000 69877 -5.3762e-001 -4.1144e-001  1.8770e+000 63676 69675,69779,69701
 1.5000e+000 69854  9.8854e-001 -1.1321e+000  1.7991e+000 63676 69675,69805,69779
 1.5000e+000 69831  5.0665e+000 -3.4164e-001  2.1377e+000 63676 69727,69779,69753
 1.5000e+000 70050 -5.0499e-001 -6.7517e+000  7.4627e-001 63472 70073,69949,69923
 1.5000e+000 70027  8.9286e-001 -7.3640e+000  3.2527e-001 63472 70073,69923,70001
 1.5000e+000 70099 -1.1220e+000 -7.3413e+000  1.0185e+000 63472 69975,69949,70073
 1.5000e+000 70122  1.1882e-001 -8.0572e+000  6.6139e-001 63472 69975,70073,70001
 1.5000e+000 70321  1.8513e+000 -2.5209e+000  1.5600e+000 63274 70145,70223,70171
 1.5000e+000 70298 -3.6515e-002 -3.7605e+000  8.2378e-001 63274 70145,70249,70223
 1.5000e+000 70275  1.9055e+000 -3.3344e+000  1.8947e+000 63274 70171,70223,70197
 1.5000e+000 70593  1.6432e+000 -3.2945e+000  1.7327e+000 63076 70368,70472,70420
 1.5000e+000 70570  1.0875e+000 -9.1683e+000  9.6733e-001 63076 70368,70498,70472
 1.5000e+000 70547  3.5428e+000 -8.6214e+000 -2.5560e+000 63076 70420,70472,70446
 1.5000e+000 70524  8.3382e-001 -4.5792e+000  4.6253e+000 63076 70368,70420,70394
 1.5000e+000 70843 -4.4715e+000 -1.0925e+001 -1.1376e+000 62736 70866,70644,70618
 1.5000e+000 70820 -2.7682e+000 -1.2215e+001 -2.0531e+000 62736 70866,70618,70748
 1.5000e+000 70797  1.2352e+000 -9.7348e+000  8.3279e-001 62736 70644,70722,70696
 1.5000e+000 70774  4.8637e-001 -7.9455e+000  1.7196e+000 62736 70644,70696,70670
 1.5000e+000 70892 -2.8136e+000 -9.6090e+000 -4.8513e-001 62736 70722,70644,70866
 1.5000e+000 70915 -2.2515e+000 -1.1571e+001 -1.6892e+000 62736 70722,70866,70748
 1.5000e+000 71018  1.6621e+000 -1.9009e+000 -9.5251e-001 62516 70940,70992,70966
 1.5000e+000 71219 -9.0934e-001 -1.1409e+000  1.6262e+000 62226 71069,71147,71095
 1.5000e+000 71196 -3.8086e+000 -2.2908e+000  1.5962e+000 62226 71043,71147,71069
 1.5000e+000 71173 -2.1145e+000 -2.4959e+000  1.0374e+000 62226 71095,71147,71121
 1.5000e+000 71857  1.4531e+000  1.6508e+000  4.6731e-001 61708 71511,71693,71667
 1.5000e+000 71834  1.6858e+000  2.4405e+000 -3.3276e-001 61708 71485,71693,71511
 1.5000e+000 71811  1.5388e+000 -2.2446e+000 -5.5501e-002 61708 71880,71537,71511
 1.5000e+000 71788  1.7776e+000  2.7907e-001 -1.1502e+000 61708 71880,71511,71667
 1.5000e+000 71765  2.2352e+000 -5.9711e+000 -2.6155e+000 61708 71537,71615,71589
 1.5000e+000 71742  6.4873e-001  2.3979e+000  3.4160e+000 61708 71615,71667,71641
 1.5000e+000 71719 -9.7407e-002 -7.5095e+000 -1.5241e+000 61708 71537,71589,71563
 1.5000e+000 71906  2.3242e+000 -4.2967e+000  4.3798e-002 61708 71615,71537,71880
 1.5000e+000 71929  1.9993e+000 -2.3645e+000 -9.2272e-001 61708 71615,71880,71667
 1.5000e+000 72226 -2.4850e+000  2.6100e-001  1.8973e+000 61204 72249,72056,72004
 1.5000e+000 72203 -3.3663e+000 -3.1395e+000  1.8987e+000 61204 72249,72004,71978
 1.5000e+000 72180 -1.4635e+000 -3.2356e+000  4.0943e+000 61204 71978,72108,72082
 1.5000e+000 72157  2.5712e+000  4.7327e+000  5.1979e+000 61204 72004,72056,72030
 1.5000e+000 72134  1.3742e+000  2.0833e+000  5.2768e+000 61204 71952,72108,71978
 1.5000e+000 72275 -2.3057e+000 -2.2623e+000  3.2455e+000 61204 72082,72056,72249
 1.5000e+000 72298 -2.2171e+000 -4.2429e+000  3.3144e+000 61204 72082,72249,71978
 1.5000e+000 72757 -3.4795e+000 -9.8248e-001  4.7949e+000 60800 72483,72613,72509
 1.5000e+000 72734 -3.6006e+000 -8.3673e+000  4.1228e+000 60800 72483,72639,72613
 1.5000e+000 72711  3.6396e+000  1.4712e+000  6.3753e+000 60800 72561,72613,72587
 1.5000e+000 72688 -3.8190e+000 -1.2035e+000  4.9072e+000 60800 72509,72613,72561
 1.5000e+000 72665 -3.9879e+000 -9.9753e-001  6.5380e+000 60800 72509,72561,72535
 1.5000e+000 72907 -1.9404e+000  6.1338e+000 -1.0626e+000 60552 72780,72832,72806
 1.5000e+000 72884  9.6528e-001  7.7772e+000 -2.5259e+000 60552 72780,72858,72832
 1.5000e+000 73464  2.8611e+000 -3.3111e+000  6.0578e+000 60240 73487,73222,73196
 1.5000e+000 73441  4.0542e+000  1.0667e+000  6.7306e+000 60240 73559,73487,73196
 1.5000e+000 73418 -4.8707e-001  4.3272e+000  6.8979e+000 60240 73559,73196,73170
 1.5000e+000 73395  5.0272e+000 -9.5444e+000  4.2906e+000 60240 73222,73274,73248
 1.5000e+000 73372  4.1068e+000 -1.1891e+000  4.9764e+000 60240 73118,73300,73274
 1.5000e+000 73349  2.2475e+000 -7.9514e+000  4.8409e+000 60240 73092,73300,73118
 1.5000e+000 73326 -7.9199e+000 -3.2271e-001  1.4332e+001 60240 73118,73170,73144
 1.5000e+000 73513  1.8637e+000 -3.1074e+000  4.5392e+000 60240 73274,73222,73487
 1.5000e+000 73536  2.1043e+000 -2.4194e+000  4.4573e+000 60240 73274,73487,73118
 1.5000e+000 73585 -1.1263e+000 -3.6447e+000  4.6598e+000 60240 73118,73487,73559
 1.5000e+000 73608 -5.0141e+000  2.3750e-001  5.0640e+000 60240 73118,73559,73170
 1.5000e+000 73758 -1.6159e+001 -7.2374e+000 -4.8106e+000 59871 73657,73709,73683
 1.5000e+000 73735 -2.8737e+000 -1.6242e+001 -2.0975e+000 59871 73631,73709,73657
 1.5000e+000 74187 -4.0911e+000 -3.8535e+000  1.1936e+000 59474 74210,73890,73864
 1.5000e+000 74164 -4.2232e+000 -6.9439e+000  1.7797e+000 59474 74210,73864,74046
 1.5000e+000 74141 -5.1901e+000 -1.2428e+000  5.5401e-001 59474 73890,73942,73916
 1.5000e+000 74118 -5.8908e+000 -2.3658e+000  8.8921e-001 59474 73890,73994,73942
 1.5000e+000 74095 -4.7107e+000 -3.5290e+000  2.8710e+000 59474 73994,74046,74020
 1.5000e+000 74072 -2.6339e+000 -1.9807e+000  2.8114e+000 59474 73942,73994,73968
 1.5000e+000 74236 -4.7149e+000 -1.7712e+000  1.1466e+000 59474 73994,73890,74210
 1.5000e+000 74259 -3.9922e+000 -3.7166e+000  1.7917e+000 59474 73994,74210,74046
 1.5000e+000 74716 -6.6201e+000 -1.3105e+001 -6.8934e+000 58770 74468,74598,74494
 1.5000e+000 74693 -2.0869e+000 -8.8111e+000 -4.7332e+000 58770 74442,74598,74468
 1.5000e+000 74670 -9.6477e+000 -1.9450e+001 -1.2281e+001 58770 74494,74572,74520
 1.5000e+000 74647 -3.4214e+000 -9.6673e+000 -5.3155e+000 58770 74494,74598,74572
 1.5000e+000 74624 -2.0631e-002 -1.1956e+001 -4.4496e+000 58770 74520,74572,74546
 1.5000e+000 75222 -2.7844e+000  1.0405e+000  3.8555e+000 58266 74951,75081,75029
 1.5000e+000 75199  2.9705e+000 -1.4939e-001  6.2759e+000 58266 74925,75081,74951
 1.5000e+000 75176 -8.3696e+000 -4.0526e+000  7.5786e+000 58266 75029,75081,75055
 1.5000e+000 75153 -5.1298e+000  3.5625e+000  4.0705e+000 58266 74951,75003,74977
 1.5000e+000 75130 -4.9599e+000 -7.4973e-002  5.1112e+000 58266 74951,75029,75003
 1.5000e+000 75107 -7.1370e+000 -6.9542e+000  2.7303e+000 58266 74899,75081,74925
 1.5000e+000 75421 -3.6600e+000  1.0146e-001  2.8586e+000 57826 75444,75297,75245
 1.5000e+000 75398 -2.6029e+000 -3.9775e+000  4.2010e+000 57826 75444,75245,75349
 1.5000e+000 75375 -6.2898e+000  1.8501e+000  2.7512e+000 57826 75516,75297,75271
 1.5000e+000 75470 -2.8625e+000  1.6810e+000  3.1299e+000 57826 75323,75297,75444
 1.5000e+000 75493 -3.4328e-001  4.7303e-001  5.0073e+000 57826 75323,75444,75349
 1.5000e+000 75542 -2.7061e+000 -8.5726e-002  1.6043e+000 57826 75245,75297,75516
 1.5000e+000 76257  7.5873e+000  1.2678e+001  2.0321e+000 57422 76280,76093,76067
 1.5000e+000 76234  5.7818e+000  6.1819e+000  4.0837e+000 57422 75885,76093,75911
 1.5000e+000 76211  7.4046e+000  1.1627e+001  6.5384e-001 57422 76424,76280,76067
 1.5000e+000 76188  1.1538e+001  1.1411e+001  3.2759e+000 57422 76352,75937,75911
 1.5000e+000 76165  5.8815e+000  1.1049e+001 -1.2376e-001 57422 76424,76067,76015
 1.5000e+000 76142  9.4752e+000  2.5446e+001  4.2892e+000 57422 76015,76067,76041
 1.5000e+000 76119  1.5587e+001  1.2390e+001  4.1441e-001 57422 75963,76015,75989
 1.5000e+000 76306  5.9318e+000  7.9504e+000  4.6842e+000 57422 75911,76093,76280
 1.5000e+000 76329  1.1512e+001  1.1303e+001  3.2854e+000 57422 76352,75911,76280
 1.5000e+000 76378  1.1438e+001  1.1581e+001  3.4080e+000 57422 75963,75937,76352
 1.5000e+000 76401  1.1430e+001  1.1514e+001  3.3990e+000 57422 75963,76352,76280
 1.5000e+000 76450  9.9690e+000  1.0272e+001  2.7724e-001 57422 75963,76280,76424
 1.5000e+000 76473  7.7846e+000  9.3981e+000 -2.8508e-001 57422 75963,76424,76015
 1.5000e+000 76949 -7.8292e+000 -1.6215e+000  5.0660e+000 56904 76972,76707,76681
 1.5000e+000 76926 -5.0630e+000  7.7596e+000  4.9706e-001 56904 77044,76972,76681
 1.5000e+000 76903 -4.5991e+000  1.3717e+001  5.4004e-001 56904 77044,76681,76629
 1.5000e+000 76880  6.5660e-001  1.6125e+000  2.7514e+000 56904 76707,76785,76759
 1.5000e+000 76857 -5.0552e-001 -2.9970e+000 -6.2765e+000 56904 76577,76785,76603
 1.5000e+000 76834 -1.0734e+000 -1.6551e-001  1.8278e-001 56904 76707,76759,76733
 1.5000e+000 76811  3.3084e+000  1.3440e+001  6.2657e+000 56904 76629,76681,76655
 1.5000e+000 76998  1.1040e+000  3.1001e+000  2.5077e+000 56904 76785,76707,76972
 1.5000e+000 77021 -4.0082e+000  1.9180e-001 -1.3989e+000 56904 76785,76972,76603
 1.5000e+000 77070 -3.8467e+000  2.0015e+000 -2.2019e+000 56904 76603,76972,77044
 1.5000e+000 77093 -3.8329e+000  6.5166e+000 -1.2298e+000 56904 76603,77044,76629
 1.5000e+000 77471 -9.3335e+000  8.6830e+000 -8.5764e+000 56542 77566,77494,77275
 1.5000e+000 77448 -3.3774e+000  1.2253e+001 -3.2559e+000 56542 77494,77223,77353
 1.5000e+000 77425 -7.4564e+000  8.1751e+000 -1.4326e+001 56542 77566,77275,77249
 1.5000e+000 77402  5.2412e+000  1.3766e+001  1.4785e+000 56542 77197,77353,77223
 1.5000e+000 77379 -5.9519e+000  1.2102e+001 -1.3635e+001 56542 77275,77327,77301
 1.5000e+000 77520 -5.7413e+000  1.9568e+001 -7.6325e+000 56542 77327,77275,77494
 1.5000e+000 77543 -1.3065e+001  1.1634e+001 -3.5729e+000 56542 77327,77494,77353
 1.5000e+000 77592  2.0295e+000  1.2828e+001 -5.1539e+000 56542 77223,77494,77566
 1.5000e+000 77615 -1.2310e+000  6.7844e+000 -1.1741e+001 56542 77223,77566,77249
 1.5000e+000 77814  7.7318e+000  1.2448e+001 -9.3098e+000 56038 77837,77690,77664
 1.5000e+000 77791  9.1921e+000  1.2492e+001 -8.0289e+000 56038 77837,77664,77742
 1.5000e+000 77768  1.0802e+001  6.0473e+000 -7.8592e+000 56038 77638,77742,77664
 1.5000e+000 77863  7.8666e+000  1.3496e+001 -8.3661e+000 56038 77716,77690,77837
 1.5000e+000 77886  9.4133e+000  1.3465e+001 -7.0890e+000 56038 77716,77837,77742
 1.5000e+000 78345  1.4849e+000  4.7399e+000  1.0997e+001 55534 78071,78123,78097
 1.5000e+000 78322 -6.1157e+000 -2.4263e+000  4.6692e+000 55534 78071,78201,78123
 1.5000e+000 78299 -7.4907e+000 -3.1326e+000  5.3075e+000 55534 78071,78227,78201
 1.5000e+000 78276  3.8798e+000  2.4319e+000  8.9484e+000 55534 78123,78175,78149
 1.5000e+000 78253  2.7439e+000  3.8085e+000  7.4605e+000 55534 78123,78201,78175
 1.5000e+000 78802 -8.5140e+000  1.0508e+001 -3.4158e-001 55030 78825,78632,78606
 1.5000e+000 78779 -2.7588e+000  1.1757e+001 -2.9087e+000 55030 78897,78825,78606
 1.5000e+000 78756 -8.8510e+000  1.6464e+001 -6.4137e+000 55030 78897,78606,78580
 1.5000e+000 78733  2.0379e+000  8.9983e+000 -5.2688e-001 55030 78554,78684,78658
 1.5000e+000 78710 -3.4064e-001  3.2258e+000 -1.4986e+000 55030 78528,78684,78554
 1.5000e+000 78851 -1.4492e+000  1.9867e+001  3.4443e+000 55030 78658,78632,78825
 1.5000e+000 78874 -3.8792e+000  6.7064e+000 -2.3380e+000 55030 78658,78825,78554
 1.5000e+000 78923 -8.8469e+000  3.6951e+000 -6.4804e+000 55030 78554,78825,78897
 1.5000e+000 78946 -1.2423e+001  8.2481e+000 -9.9354e+000 55030 78554,78897,78580
 1.5000e+000 79403  3.3586e+000  6.4927e+000  3.5820e+000 54426 79426,79233,79155
 1.5000e+000 79380  1.0174e+001  6.1153e+000  6.4058e-001 54426 79426,79155,79129
 1.5000e+000 79357 -5.4737e+000  7.0534e+000  2.7842e-001 54426 79233,79285,79259
 1.5000e+000 79334  2.6001e+000  6.5771e+000  6.9750e+000 54426 79181,79233,79207
 1.5000e+000 79311  2.5165e+000  5.1180e+000  4.0782e+000 54426 79155,79233,79181
 1.5000e+000 79452  1.5572e+000  5.3877e+000  5.8543e+000 54426 79285,79233,79426
 1.5000e+000 79475  5.4182e+000  1.8777e+000  3.4415e+000 54426 79285,79426,79129
 1.5000e+000 79932 -2.7371e+000  3.9024e+000  5.2850e+000 53915 79658,79762,79684
 1.5000e+000 79909 -1.0111e+001 -4.0468e+000  8.3864e+000 53915 79658,79814,79762
 1.5000e+000 79886 -6.1955e+000 -5.4309e+000  1.4537e+001 53915 79762,79814,79788
 1.5000e+000 79863 -8.0652e+000  4.6947e+000  1.0345e+001 53915 79710,79762,79736
 1.5000e+000 79840 -7.6227e+000  7.3322e-001  6.9684e+000 53915 79684,79762,79710
 1.5000e+000 80033 -6.4579e+000 -3.4172e+000 -6.4916e-001 53667 79955,80007,79981
 1.5000e+000 80401 -1.2080e+001 -9.4920e+000 -3.9599e-001 53263 80104,80260,80234
 1.5000e+000 80378 -8.5478e+000 -4.1274e+000  2.1149e+000 53263 80078,80260,80104
 1.5000e+000 80355 -8.5127e+000 -8.0865e+000 -7.8870e-001 53263 80104,80234,80130
 1.5000e+000 80332 -7.9162e+000 -4.9841e+000 -7.4182e-001 53263 80130,80208,80182
 1.5000e+000 80309 -9.7446e+000 -7.5047e+000  7.6116e-001 53263 80130,80234,80208
 1.5000e+000 80286 -7.9144e+000 -1.2701e+000  1.5410e+000 53263 80130,80182,80156
 1.5000e+000 80911 -1.3366e+001 -8.0723e+000 -1.7357e+000 52965 80640,80770,80744
 1.5000e+000 80888 -6.5671e+000 -4.2573e+000  2.7812e+000 52965 80614,80770,80640
 1.5000e+000 80865 -7.9625e+000 -1.5771e+000  1.9163e+000 52965 80640,80744,80666
 1.5000e+000 80842 -4.8712e+000 -5.1163e+000  1.0646e+000 52965 80588,80770,80614
 1.5000e+000 80819 -7.2076e+000 -2.7901e+000  2.3173e+000 52965 80666,80718,80692
 1.5000e+000 80796 -1.1751e+001 -4.5729e+000 -3.5620e-001 52965 80666,80744,80718
 1.5000e+000 81262 -4.6733e+001  2.3679e-001  1.0420e+000 52561 81037,81141,81063
 1.5000e+000 81239 -4.6234e+001 -9.4032e+000 -2.7991e-001 52561 81037,81167,81141
 1.5000e+000 81216 -8.2393e+001  5.8907e+000 -2.4205e+000 52561 81063,81115,81089
 1.5000e+000 81193 -8.3598e+001 -9.9633e+000 -9.6381e+000 52561 81063,81141,81115
 1.5000e+000 81719 -1.0740e+001 -1.5266e+000  1.1712e+000 51900 81445,81523,81471
 1.5000e+000 81696 -1.1262e+001 -4.5441e+000  3.6820e-002 51900 81445,81575,81523
 1.5000e+000 81673 -7.8657e+000 -2.5551e-001 -1.8268e+000 51900 81445,81601,81575
 1.5000e+000 81650 -5.5249e+000  3.2772e+000  3.1154e+000 51900 81523,81575,81549
 1.5000e+000 81627 -3.7451e+000 -1.9120e+000  2.9965e+000 51900 81471,81523,81497
 1.5000e+000 82323 -2.8294e+000  2.0156e+000  4.5065e+000 51317 82418,82346,82032
 1.5000e+000 82300 -7.3562e+000  1.4942e+000  4.0487e+000 51317 82490,82346,81954
 1.5000e+000 82277 -2.0696e+000  3.7523e+000  4.6153e+000 51317 82418,82032,82006
 1.5000e+000 82254 -1.0049e+001 -6.4893e-001  5.8526e+000 51317 82490,81954,81928
 1.5000e+000 82231 -4.0124e+000 -4.0316e+000  7.0305e+000 51317 82058,82110,82084
 1.5000e+000 82208 -9.5072e+000  8.7045e+000  1.5843e+000 51317 81928,82136,82110
 1.5000e+000 82185  6.1548e+000  4.8235e+000  5.5850e+000 51317 81954,82006,81980
 1.5000e+000 82162 -1.7531e+001  5.2739e+000  1.9587e+000 51317 81902,82136,81928
 1.5000e+000 82372 -6.0788e+000 -4.7796e+000  2.8764e+000 51317 82058,82032,82346
 1.5000e+000 82395 -5.9138e+000  2.7010e+000  2.0983e+000 51317 82058,82346,82110
 1.5000e+000 82444 -2.7156e+000  1.0824e+000  2.2462e+000 51317 81954,82346,82418
 1.5000e+000 82467 -1.9938e+000  2.7405e+000  2.3320e+000 51317 81954,82418,82006
 1.5000e+000 82516 -7.7107e+000  3.0326e+000  2.6117e+000 51317 82110,82346,82490
 1.5000e+000 82539 -7.7570e+000  2.4801e+000  3.9983e+000 51317 82110,82490,81928
 1.5000e+000 83015 -3.0833e+000  4.0826e-001 -3.2826e-002 50813 82669,82747,82695
 1.5000e+000 82992 -7.8312e+000 -3.6473e-002  7.0445e+000 50813 83038,82669,82851
 1.5000e+000 82969 -8.9138e+000 -1.4899e+000  6.5710e+000 50813 83038,82851,82799
 1.5000e+000 82946 -7.3684e+000 -2.5818e+000  8.4512e+000 50813 82747,82799,82773
 1.5000e+000 82923 -1.9857e+000  7.7670e-001  5.5668e+000 50813 82643,82851,82669
 1.5000e+000 82900 -8.4437e+000 -4.7304e+000  4.6723e+000 50813 82799,82851,82825
 1.5000e+000 82877 -2.9605e+000 -7.8912e-002 -5.9327e-001 50813 82695,82747,82721
 1.5000e+000 83064 -5.8501e+000 -1.2196e+000  8.1283e+000 50813 82747,82669,83038
 1.5000e+000 83087 -7.1917e+000 -2.8043e+000  7.5366e+000 50813 82747,83038,82799
 1.5000e+000 83286  4.8104e+000 -8.4603e+000 -3.0340e+000 50352 83309,83162,83136
 1.5000e+000 83263  7.9933e-001  2.3342e+000  1.6003e-001 50352 83511,83309,83136
 1.5000e+000 83240  1.9469e+000  4.0279e+000  7.6162e-001 50352 83511,83136,83381
 1.5000e+000 83335  1.3931e+001  1.9343e+000 -8.1485e+000 50352 83188,83162,83309
 1.5000e+000 83358  4.4203e-001  6.3269e-001 -4.3848e+000 50352 83188,83309,83214
 1.5000e+000 83407  2.0832e+000  1.3850e+001  5.9756e-001 50352 83110,83214,83381
 1.5000e+000 83537 -4.2464e-001  4.0207e+000 -1.1056e+000 50352 83214,83309,83511
 1.5000e+000 83560 -2.1262e-001  4.0897e+000 -8.1548e-001 50352 83214,83511,83381
 1.5000e+000 83889 -9.4761e+000 -5.1228e+000 -8.2003e-001 49548 83716,83794,83742
 1.5000e+000 83866 -8.0091e+000 -6.0961e+000  1.0022e+000 49548 83690,83794,83716
 1.5000e+000 83843 -1.1387e+001 -1.0051e+001 -7.0346e-001 49548 83664,83794,83690
 1.5000e+000 83820 -9.0033e+000 -5.7865e+000 -5.2741e-001 49548 83742,83794,83768
 1.5000e+000 84137  7.8101e+000  7.5073e+000 -2.9415e-001 49208 84160,84016,83938
 1.5000e+000 84114  1.3660e+001  2.0792e+001 -5.1256e+000 49208 84160,83938,83912
 1.5000e+000 84091  1.0330e+001  6.3227e+000 -1.5040e+000 49208 83938,84016,83964
 1.5000e+000 84068  6.9913e+000  9.7409e-001 -2.9508e+000 49208 83964,84016,83990
 1.5000e+000 84186  1.2488e+001  1.4310e+001 -7.1823e+000 49208 84042,84016,84160
 1.5000e+000 84209  1.4150e+001  2.1801e+001 -1.1538e+001 49208 84042,84160,83912
 1.5000e+000 84796 -1.2271e+001 -3.9327e+000 -1.8777e-001 48861 84499,84629,84551
 1.5000e+000 84773 -6.8919e+000  2.2929e+000  2.1590e+000 48861 84499,84655,84629
 1.5000e+000 84750 -1.1108e+001 -6.2314e-002  2.1181e+000 48861 84551,84629,84577
 1.5000e+000 84727 -1.9152e+000 -7.6728e-001  1.5072e+000 48861 84577,84629,84603
 1.5000e+000 84704 -6.7689e+000 -2.0460e+000 -3.7960e-001 48861 84499,84551,84525
 1.5000e+000 84681 -7.5286e+000  1.0519e-001 -3.4829e-001 48861 84473,84655,84499
 1.5000e+000 85351 -3.8357e+000 -2.3082e+000  3.1537e+000 48457 85374,85031,85005
 1.5000e+000 85328  5.7240e-001  1.9065e+000  1.1064e+000 48457 85374,85005,85161
 1.5000e+000 85305  4.9210e+000 -3.9734e-001  2.3384e+000 48457 85446,85057,85031
 1.5000e+000 85282 -3.8978e+000 -2.7124e-001  1.7799e+000 48457 85005,85187,85161
 1.5000e+000 85259 -1.5724e+000  5.6145e-001 -1.9369e-001 48457 85083,85161,85109
 1.5000e+000 85236 -3.4710e+000 -6.1950e-001  1.2804e+000 48457 84979,85187,85005
 1.5000e+000 85213 -4.1381e-001  1.5427e+000 -1.2889e+000 48457 85109,85161,85135
 1.5000e+000 85400  2.8576e+000  8.5040e-001  1.9067e+000 48457 85446,85031,85374
 1.5000e+000 85423 -1.5967e+000 -4.3523e-002  6.8668e-002 48457 85083,85374,85161
 1.5000e+000 85472  2.4777e+000 -7.0271e-001  3.8498e-001 48457 85083,85057,85446
 1.5000e+000 85495 -3.6855e-001 -4.4464e-001 -3.0951e-001 48457 85083,85446,85374
 1.5000e+000 86080  9.7738e+000  4.3038e+000  2.2495e+000 48053 86319,86103,85783
 1.5000e+000 86057  6.2114e+000  6.8953e+000  2.6981e+000 48053 86103,85757,85939
 1.5000e+000 86034  4.6477e+000  5.1089e+000 -9.1836e-001 48053 86247,86175,85887
 1.5000e+000 86011  4.1346e+000  6.4795e+000 -3.0104e+000 48053 86247,85887,85835
 1.5000e+000 85988 -7.6130e-001  4.4220e+000 -1.3796e+000 48053 85887,85939,85913
 1.5000e+000 85965  6.9075e+000  5.9896e+000 -4.9162e+000 48053 85835,85887,85861
 1.5000e+000 86129  8.9230e+000  4.2586e+000  7.5517e-001 48053 85809,85783,86103
 1.5000e+000 86152  8.1593e+000  5.9010e+000  1.7308e-001 48053 86175,85809,86103
 1.5000e+000 86201  6.6582e+000  7.2155e+000 -9.0320e-002 48053 85939,85887,86175
 1.5000e+000 86224  6.0643e+000  5.5561e+000  3.3648e-001 48053 85939,86175,86103
 1.5000e+000 86273  9.1365e+000  6.5112e+000 -9.8693e-001 48053 85809,86175,86247
 1.5000e+000 86296  6.4490e+000  6.6591e+000 -2.8096e+000 48053 85809,86247,85835
 1.5000e+000 86345  1.0194e+001  5.8561e+000  3.1996e+000 48053 85757,86103,86319
 1.5000e+000 86851  7.0170e+000 -5.6628e+000  1.3876e+000 47541 86874,86580,86554
 1.5000e+000 86828  3.8896e+000 -6.9582e+000  1.0970e+000 47541 86946,86874,86554
 1.5000e+000 86805  3.0604e+000 -5.8238e+000  1.6763e+000 47541 86946,86554,86528
 1.5000e+000 86782  1.4861e+001 -3.6472e+000  1.2761e+000 47541 86580,86658,86606
 1.5000e+000 86759  9.6903e+000 -3.1486e+000 -2.0302e-001 47541 86528,86710,86684
 1.5000e+000 86736  8.3437e-001  8.7862e-001 -7.7222e-001 47541 86606,86658,86632
 1.5000e+000 86900  5.4138e+000 -6.6992e+000  4.1817e-001 47541 86658,86580,86874
 1.5000e+000 86923  5.4039e+000 -6.0567e+000 -3.0041e-001 47541 86658,86874,86684
 1.5000e+000 86972  5.6361e+000 -5.0526e+000 -2.8703e-002 47541 86684,86874,86946
 1.5000e+000 86995  3.8457e+000 -5.4232e+000  8.7614e-001 47541 86684,86946,86528
 1.5000e+000 87324 -6.8444e+000 -3.2762e+000  2.1234e+000 47044 87151,87203,87177
 1.5000e+000 87301 -8.6946e+000 -5.6213e+000  3.1199e-001 47044 87125,87203,87151
 1.5000e+000 87278 -6.8548e+000 -6.0825e+000  7.4982e-001 47044 87099,87203,87125
 1.5000e+000 87255 -1.0231e+001 -1.2049e+001 -2.6798e+000 47044 87099,87229,87203
 1.5000e+000 87572 -9.5575e+000 -5.4191e+000  1.6126e+000 46697 87595,87425,87373
 1.5000e+000 87549 -9.6771e+000 -6.0566e+000  1.9273e+000 46697 87595,87373,87477
 1.5000e+000 87526 -1.2584e+001 -7.3216e+000  1.7797e+000 46697 87347,87477,87373
 1.5000e+000 87503 -9.0510e+000 -4.0219e+000  1.5252e+000 46697 87373,87425,87399
 1.5000e+000 87621 -9.7149e+000 -3.8316e+000  1.2430e+000 46697 87451,87425,87595
 1.5000e+000 87644 -1.0849e+001 -5.3445e+000  1.8877e+000 46697 87451,87595,87477
 1.5000e+000 87794 -1.5222e+001  3.5089e+000 -2.0687e+000 46235 87693,87745,87719
 1.5000e+000 87771 -1.6661e+001 -1.1898e+001  5.7227e-001 46235 87667,87745,87693
 1.5000e+000 88304 -1.1736e+001 -3.5425e+000  3.2440e+000 45731 88085,88163,88137
 1.5000e+000 88281 -1.3097e+001 -5.8051e+000  2.6759e+000 45731 88007,88163,88085
 1.5000e+000 88258 -1.8566e+001 -8.9782e+000  7.3031e-001 45731 87981,88163,88007
 1.5000e+000 88235 -1.5934e+001 -2.4505e+000  3.4198e+000 45731 88007,88085,88059
 1.5000e+000 88212 -3.8101e+000 -3.2733e-001  7.4782e-001 45731 88085,88137,88111
 1.5000e+000 88189 -1.6084e+001 -1.2855e+000  2.6090e+000 45731 88007,88059,88033
 1.5000e+000 88682 -1.5363e+001 -8.0650e+000 -1.0924e+000 45312 88434,88512,88486
 1.5000e+000 88659 -2.4532e+001 -2.1347e+001  6.0582e+000 45312 88434,88538,88512
 1.5000e+000 88636 -1.5267e+001 -5.4743e+000  1.2986e+000 45312 88434,88564,88538
 1.5000e+000 88613 -8.4836e+000 -9.7293e+000 -5.3735e-001 45312 88434,88486,88460
 1.5000e+000 88590 -1.9232e+001  1.5619e+001  2.0244e+001 45312 88408,88564,88434
 1.5000e+000 88930  1.0762e+001  1.1655e+001 -3.9841e-001 44808 88953,88731,88705
 1.5000e+000 88907  5.2243e+000  6.4191e+000  4.5477e+000 44808 88953,88705,88835
 1.5000e+000 88884  8.8232e+000 -2.6128e+000  6.4296e+000 44808 89025,88783,88757
 1.5000e+000 88861  7.7453e+000 -1.1566e+000  8.6947e+000 44808 88783,88835,88809
 1.5000e+000 88979  4.5308e-002  5.4964e+000  3.1823e+000 44808 88757,88731,88953
 1.5000e+000 89002  2.8484e+000  2.3186e-001  7.5845e+000 44808 89025,88757,88953
 1.5000e+000 89051  1.0159e+001  6.8820e-001  5.3049e+000 44808 88835,88783,89025
 1.5000e+000 89074  8.3126e+000  7.7757e+000  4.8596e+000 44808 88835,89025,88953
 1.5000e+000 89224 -1.4842e+002 -3.2626e+001  8.1151e+000 44404 89123,89175,89149
 1.5000e+000 89201 -1.4175e+002 -3.8504e+000 -1.7285e+000 44404 89097,89175,89123
 1.5000e+000 89783  8.4265e+000  1.7970e+001 -4.9066e+000 43850 89806,89541,89515
 1.5000e+000 89760  5.2985e+000  8.0068e+000 -1.6345e+000 43850 89806,89515,89463
 1.5000e+000 89737  5.0143e+000  7.1740e+000 -5.6838e-001 43850 89950,89878,89593
 1.5000e+000 89714  3.8557e+000  7.6200e+000  1.1244e+000 43850 89950,89593,89567
 1.5000e+000 89691  8.4281e+000  7.3853e+000  4.6006e-001 43850 89411,89619,89463
 1.5000e+000 89668  1.3493e+001  7.8975e+000 -3.1851e+000 43850 89463,89515,89489
 1.5000e+000 89645  9.7330e+000  6.9822e+000 -2.4759e-001 43850 89411,89463,89437
 1.5000e+000 89832  2.9477e+000  1.3505e+001  2.4279e-001 43850 89878,89541,89806
 1.5000e+000 89855  8.7133e+000  1.0564e+001  7.5559e-002 43850 89619,89806,89463
 1.5000e+000 89904  4.6972e+000  8.4521e-001  2.4367e+000 43850 89619,89593,89878
 1.5000e+000 89927  6.3898e+000  4.2077e+000  6.0106e-001 43850 89619,89878,89806
 1.5000e+000 89976  2.2140e-002  5.3059e+000  2.4692e+000 43850 89541,89878,89950
 1.5000e+000 89999 -3.6512e+000  2.8814e+000  4.7326e+000 43850 89541,89950,89567
 1.5000e+000 90247  2.2638e+000  3.2407e+001  6.0085e+000 43488 90022,90074,90048
 1.5000e+000 90224 -6.9791e+000  2.2306e+001  1.7624e+000 43488 90270,90022,90152
 1.5000e+000 90201 -4.6398e+000  1.5752e+001  1.2201e+000 43488 90342,90270,90152
 1.5000e+000 90178 -5.5429e+000  7.2252e+000  1.1024e+001 43488 90342,90152,90126
 1.5000e+000 90296 -5.1066e+000  1.4096e+001  5.5156e+000 43488 90074,90022,90270
 1.5000e+000 90319 -7.0774e+000  1.3257e+001  5.3570e+000 43488 90074,90270,90100
 1.5000e+000 90368 -1.6057e+001  5.7463e+000  9.8752e+000 43488 90100,90270,90342
 1.5000e+000 90391 -1.6985e+001 -3.9098e+000  1.9681e+001 43488 90100,90342,90126
 1.5000e+000 90590 -1.4663e+001 -6.3698e+000 -1.1955e+000 43048 90414,90492,90440
 1.5000e+000 90567 -1.5426e+001 -1.3862e+001  8.3934e-001 43048 90414,90518,90492
 1.5000e+000 90544 -1.6798e+001  2.0228e-001  2.4001e+000 43048 90440,90492,90466
 1.5000e+000 91070 -5.1589e+000 -6.8934e+000  7.0072e-002 42430 91237,90880,90854
 1.5000e+000 91047 -7.1687e+000 -7.7058e+000  7.8642e-001 42430 90698,90906,90880
 1.5000e+000 91024 -9.9865e+000 -5.5665e+000  2.2132e+000 42430 91093,90750,90698
 1.5000e+000 91001 -7.2425e+000 -6.0883e+000  1.4857e+000 42430 91237,90854,91093
 1.5000e+000 90978 -7.7673e+000 -6.8063e+000  1.4897e+000 42430 91165,90802,90776
 1.5000e+000 90955 -5.5019e+000 -6.9000e+000  1.6056e+000 42430 90802,90854,90828
 1.5000e+000 90932 -1.0653e+001 -5.9499e+000  2.0301e+000 42430 90698,90750,90724
 1.5000e+000 91119 -1.2304e+001 -6.9403e+000  2.9252e+000 42430 90776,90750,91093
 1.5000e+000 91142 -8.9002e+000 -7.7597e+000  2.3337e+000 42430 91165,90776,91093
 1.5000e+000 91191 -7.4094e+000 -6.4072e+000  7.3684e-001 42430 90854,90802,91165
 1.5000e+000 91214 -7.9345e+000 -6.1634e+000  1.4396e+000 42430 90854,91165,91093
 1.5000e+000 91263 -8.3102e+000 -7.2836e+000  2.6488e-001 42430 90698,90880,91237
 1.5000e+000 91286 -1.0643e+001 -6.5590e+000  1.5377e+000 42430 90698,91237,91093
 1.5000e+000 91694  5.1966e+000  5.7620e+000 -3.3637e+000 41769 91469,91573,91495
 1.5000e+000 91671  2.6025e+000  5.0783e+000 -3.5434e+000 41769 91469,91599,91573
 1.5000e+000 91648  6.3962e+000  5.9507e+000 -1.7269e+000 41769 91495,91547,91521
 1.5000e+000 91625  3.2521e+000  5.2224e+000 -3.6417e+000 41769 91495,91573,91547
 1.5000e+000 92040  3.1789e+001  2.6090e+001  7.6849e+000 41379 91769,91873,91847
 1.5000e+000 92017  2.0162e+001  1.7862e+001  2.8368e+000 41379 91743,91873,91769
 1.5000e+000 91994  2.6476e+001  2.6865e+001  7.2260e+000 41379 91769,91847,91795
 1.5000e+000 91971  2.2655e+001  1.6970e+001  3.9926e+000 41379 91743,91899,91873
 1.5000e+000 91948  1.0121e+001  9.1828e+000 -3.1145e-001 41379 91717,91899,91743
 1.5000e+000 91925  1.7642e+001  1.8193e+001  1.2097e+000 41379 91795,91847,91821
 1.5000e+000 92597  3.5413e+000  5.7600e+000 -2.9260e+000 40975 92225,92407,92303
 1.5000e+000 92574 -1.5509e+000  4.4953e+000 -2.6608e+000 40975 92225,92433,92407
 1.5000e+000 92551  3.4236e+000  3.3938e+000 -3.7205e+000 40975 92225,92303,92277
 1.5000e+000 92528 -3.6932e+000  5.9734e+000 -5.3341e+000 40975 92329,92407,92381
 1.5000e+000 92505 -3.2501e+000  3.7513e+000 -3.7331e+000 40975 92303,92407,92329
 1.5000e+000 92482  4.3627e+000  4.0276e-001 -1.5735e+000 40975 92225,92277,92251
 1.5000e+000 92459 -1.0003e+001  5.3001e+000 -3.8891e+000 40975 92329,92381,92355
 1.5000e+000 93231 -5.0177e+001 -2.3961e+000 -6.6514e+000 40521 92937,92989,92963
 1.5000e+000 93208 -2.0281e+001 -3.5497e+000 -1.1295e+000 40521 93254,92937,92885
 1.5000e+000 93185 -1.5567e+001 -3.4758e+000  1.5316e+000 40521 93254,92885,93067
 1.5000e+000 93162 -1.3850e+001 -5.9853e+000 -3.5691e+000 40521 92885,92937,92911
 1.5000e+000 93139 -1.8349e+001 -2.4094e+000  1.6532e+000 40521 92859,93067,92885
 1.5000e+000 93116 -1.0242e+001 -4.0116e-001  5.5739e-001 40521 92989,93067,93015
 1.5000e+000 93093 -4.5019e+000 -1.0645e+000  1.2113e-001 40521 93015,93067,93041
 1.5000e+000 93280 -1.9062e+001 -1.1527e+000  1.9779e+000 40521 92989,92937,93254
 1.5000e+000 93303 -1.3453e+001 -2.7554e+000  3.9449e+000 40521 92989,93254,93067
 1.5000e+000 93632 -5.9943e+000  4.2198e+000  5.1346e+000 40231 93433,93537,93511
 1.5000e+000 93609 -9.4082e+000  9.6415e-001  3.6539e+000 40231 93407,93537,93433
 1.5000e+000 93586 -4.2483e+000  2.2523e+001  1.5081e-001 40231 93459,93511,93485
 1.5000e+000 93563 -5.4639e+000  6.6750e+000 -2.0178e+000 40231 93433,93511,93459
 1.5000e+000 94010 -1.4845e+001  1.0614e+001  1.4725e+000 39869 93762,93866,93788
 1.5000e+000 93987 -5.2090e+000  1.2760e+001  8.5427e-001 39869 93762,93892,93866
 1.5000e+000 93964 -1.9382e+001 -2.1159e-001 -6.2941e-001 39869 93788,93866,93840
 1.5000e+000 93941 -2.1932e+001  5.7089e+000 -8.8416e+000 39869 93788,93840,93814
 1.5000e+000 93918 -8.4932e+000  4.9913e+000  3.3794e-001 39869 93736,93892,93762
 1.5000e+000 94160 -1.6297e+001 -1.5902e+000 -1.2060e+000 39457 94033,94085,94059
 1.5000e+000 94137 -1.7018e+001 -1.1706e+001  1.2640e+000 39457 94033,94111,94085
 1.5000e+000 94359 -5.2813e+000  1.5752e+001  4.0002e+000 39053 94382,94235,94209
 1.5000e+000 94336  1.0039e+001  2.9053e+001 -2.6351e+000 39053 94382,94209,94183
 1.5000e+000 94313 -1.6770e-001  2.0148e+001  9.1198e+000 39053 94183,94287,94261
 1.5000e+000 94408  8.1921e+000  2.4280e+001  4.4450e+000 39053 94454,94382,94261
 1.5000e+000 94431  6.4170e+000  2.3302e+001  7.2024e+000 39053 94261,94382,94183
 1.5000e+000 94480 -6.9517e-001 -4.2594e-001  7.5783e+000 39053 94235,94382,94454
 1.5000e+000 94892 -1.4180e+001  7.0101e+000  1.6944e+000 38392 94915,94771,94719
 1.5000e+000 94869 -1.5976e+001  8.0663e+000  1.8490e+000 38392 94915,94719,94693
 1.5000e+000 94846 -6.5141e+000  1.0888e+001  1.5295e+001 38392 94719,94771,94745
 1.5000e+000 94823 -1.0716e+001  1.2807e+001  4.3556e+000 38392 94667,94797,94693
 1.5000e+000 94941 -1.3579e+001  7.8217e+000  1.3382e+000 38392 94797,94771,94915
 1.5000e+000 94964 -1.4683e+001  9.4035e+000  1.2313e+000 38392 94797,94915,94693
 1.5000e+000 95261  7.8806e+000  6.9356e+000 -1.4918e+000 37831 95013,95065,95039
 1.5000e+000 95238  8.3922e+000  7.3103e+000 -1.7360e+000 37831 95284,95065,95013
 1.5000e+000 95215  6.7226e+000  6.9069e+000 -2.0966e+000 37831 95284,95013,94987
 1.5000e+000 95192  4.2077e+000  5.4352e+000 -2.1784e+000 37831 94987,95143,95117
 1.5000e+000 95169  9.7025e+000  2.1198e+000 -6.8779e+000 37831 95065,95117,95091
 1.5000e+000 95310  7.2911e+000  7.1678e+000 -2.8123e+000 37831 95117,95065,95284
 1.5000e+000 95333  6.0316e+000  7.1252e+000 -3.1234e+000 37831 95117,95284,94987
 1.5000e+000 95554 -1.8282e+001 -1.2029e+000 -3.2524e+000 37419 95404,95456,95430
 1.5000e+000 95531 -1.0099e+001  1.8584e+001 -2.8306e+000 37419 95378,95456,95404
 1.5000e+000 95508 -3.2115e+000  2.3900e+001 -5.1613e+000 37419 95378,95482,95456
 1.5000e+000 95887 -1.8455e+001 -1.4338e+001  1.8367e+000 37221 95662,95714,95688
 1.5000e+000 95864 -1.7558e+001 -1.6107e+001  1.5029e+000 37221 95662,95792,95714
 1.5000e+000 95841 -8.5222e+000 -9.2770e+000 -8.9863e-001 37221 95714,95766,95740
 1.5000e+000 95818 -1.4828e+001 -9.8655e+000  1.0699e+000 37221 95714,95792,95766
 1.5000e+000 95988 -6.2049e+001 -8.1957e+000 -8.6086e+000 36731 95910,95962,95936
 1.5000e+000 96138 -6.1792e+000  1.4180e+001  8.2357e+000 36327 96293,96063,96037
 1.5000e+000 96115 -1.5911e+001  1.2163e+001  1.2974e+001 36327 96161,96037,96011
 1.5000e+000 96187 -5.7559e+000  1.5989e+001  1.4983e+001 36327 96293,96037,96161
 1.5000e+000 96319 -4.4741e+000  2.3261e+001  1.1330e+001 36327 96089,96063,96293
 1.5000e+000 96342 -5.8268e-001  2.6868e+001  1.8908e+001 36327 96089,96293,96161
 1.5000e+000 96710  4.5450e-002  7.1069e+000  3.2698e+000 36037 96733,96491,96439
 1.5000e+000 96687  4.2380e-001  1.2258e+001  4.9903e+000 36037 96733,96439,96413
 1.5000e+000 96664 -1.6867e+000  6.0680e+000  1.3225e+000 36037 96439,96491,96465
 1.5000e+000 96641 -8.3072e+000  2.0117e+001  2.6111e+000 36037 96387,96517,96413
 1.5000e+000 96618 -8.3143e+000  2.0100e+001  2.6141e+000 36037 96387,96543,96517
 1.5000e+000 96595 -1.4021e-001  1.4296e+001  8.8686e+000 36037 96387,96569,96543
 1.5000e+000 96759 -4.8499e+000  1.2629e+001  1.6913e+000 36037 96517,96491,96733
 1.5000e+000 96782 -2.0714e+000  1.8778e+001  5.4436e+000 36037 96517,96733,96413
 1.5000e+000 96932  8.1338e+000  4.5520e+000 -5.9580e+000 35633 97027,96955,96831
 1.5000e+000 96909  5.5727e+000  2.7578e+000 -4.6575e+000 35633 97159,96955,96805
 1.5000e+000 96981  4.2425e+000  2.8134e+000 -6.4545e+000 35633 96857,96831,96955
 1.5000e+000 97004  5.3024e+000  5.8940e+000 -5.5885e+000 35633 96857,96955,96883
 1.5000e+000 97053  6.3899e+000  3.9896e+000 -5.8416e+000 35633 96805,96955,97027
 1.5000e+000 97185  3.5179e+000  4.7241e+000 -4.2948e+000 35633 96883,96955,97159
 1.5000e+000 97593 -4.4015e+000 -6.2626e+000 -2.9234e+000 35186 97446,97498,97472
 1.5000e+000 97570 -1.2884e+000  1.8327e+000 -3.3631e+000 35186 97368,97498,97446
 1.5000e+000 97547 -3.8072e+000 -1.5244e+000 -1.3645e+000 35186 97368,97446,97394
 1.5000e+000 97524 -5.3094e+000 -1.6686e+000 -1.8858e+000 35186 97394,97446,97420
 1.5000e+000 98050  4.5130e+000  1.3987e+001 -2.2338e+000 34632 97802,97932,97854
 1.5000e+000 98027 -2.9680e+000  2.1713e+000 -6.1024e+000 34632 97776,97932,97802
 1.5000e+000 98004 -2.4664e+000  5.8886e+000  5.6034e+000 34632 97802,97854,97828
 1.5000e+000 97981 -9.5117e+000  8.4261e+000 -2.2187e+000 34632 97880,97932,97906
 1.5000e+000 97958  2.1703e+000  9.3165e+000 -1.4352e+000 34632 97854,97932,97880
 1.5000e+000 98526 -7.5462e+000  6.1122e+000  1.6822e+000 34064 98693,98180,98362
 1.5000e+000 98503 -6.6696e+000  5.6296e-001 -2.9966e+000 34064 98154,98362,98180
 1.5000e+000 98480 -2.1606e+000  7.2543e+000  9.7570e+000 34064 98549,98258,98232
 1.5000e+000 98457 -1.3243e+001  1.6177e+001  2.3486e+001 34064 98549,98232,98206
 1.5000e+000 98434 -6.6575e+000  5.2401e+000 -1.1457e-001 34064 98837,98621,98362
 1.5000e+000 98411  8.8669e-001  2.6302e+000  8.4558e+000 34064 98765,98284,98258
 1.5000e+000 98388 -2.8821e+000  1.8560e+000 -1.5696e-001 34064 98837,98362,98336
 1.5000e+000 98575 -9.4272e-001  7.2532e+000  7.1322e+000 34064 98765,98258,98549
 1.5000e+000 98598 -7.8678e+000  6.4913e+000  2.3776e+000 34064 98621,98310,98549
 1.5000e+000 98647 -5.8476e+000  9.2210e+000  2.3365e+000 34064 98693,98362,98621
 1.5000e+000 98670 -2.0658e+000  1.9711e+001  5.1879e+000 34064 98206,98621,98549
 1.5000e+000 98719 -7.2991e+000  1.0090e+001  1.9636e+000 34064 98206,98180,98693
 1.5000e+000 98742 -7.6005e+000  1.0150e+001  1.7531e+000 34064 98206,98693,98621
 1.5000e+000 98791  4.2183e+000  7.5774e+000  5.4375e+000 34064 98310,98284,98765
 1.5000e+000 98814  1.5207e+000  1.0858e+001  4.1126e+000 34064 98310,98765,98549
 1.5000e+000 98863 -3.3999e+000  8.7961e+000  1.2801e+000 34064 98310,98621,98837
 1.5000e+000 98886  1.0322e-001  4.9589e+000  1.1316e+000 34064 98310,98837,98336
 1.5000e+000 99264 -1.7829e+000 -1.2953e+000  1.1333e+000 33446 99287,99094,99068
 1.5000e+000 99241 -4.0845e+000  4.9487e+000 -4.1774e+000 33446 99287,99068,99016
 1.5000e+000 99218 -1.8235e+001  4.7374e+000  2.3699e+000 33446 99016,99068,99042
 1.5000e+000 99195 -1.9643e+001 -6.0175e-001 -5.3963e+000 33446 99016,99146,99120
 1.5000e+000 99172 -1.6140e+001  6.9064e+000 -4.3826e+000 33446 98990,99146,99016
 1.5000e+000 99313  7.0733e+000  3.5401e+000 -8.9082e-001 33446 99120,99094,99287
 1.5000e+000 99336 -1.3564e+000  6.8721e+000 -5.1118e+000 33446 99120,99287,99016
 1.5000e+000 99861 -1.3509e+001 -6.0568e-001 -3.0307e+000 32940 100172,99956,99884
 1.5000e+000 99838 -1.2925e+001 -3.4557e+000 -1.1613e+000 32940 100100,99884,99518
 1.5000e+000 99815 -6.7126e+000 -2.4349e+000 -3.5500e+000 32940 100244,99956,99622
 1.5000e+000 99792 -1.9851e+000  3.8197e+000 -4.2070e-001 32940 100028,99648,99622
 1.5000e+000 99769 -1.3506e+001 -6.6671e+000 -1.6697e+000 32940 100100,99518,99492
 1.5000e+000 99746 -1.9745e+000  1.4339e+000  1.7813e-001 32940 99570,99622,99596
 1.5000e+000 99723 -3.9387e+000 -1.7067e+000 -2.6666e+000 32940 100244,99622,99570
 1.5000e+000 99700 -1.1262e+001 -3.2963e+000  2.3855e+000 32940 99440,99492,99466
 1.5000e+000 99910 -9.8638e+000  3.0861e-001 -2.4036e+000 32940 100172,99884,100028
 1.5000e+000 99933 -1.7354e+001 -8.0823e+000  3.2133e+000 32940 99674,99884,99440
 1.5000e+000 99982 -1.4543e+001 -5.0294e+000 -2.1475e+000 32940 99518,99884,99956
 1.5000e+000 100005 -1.7641e+001 -1.5096e+001 -9.6903e+000 32940 99518,99956,99544
 1.5000e+000 100054 -1.2191e+001  5.7236e+000  1.2854e+000 32940 99674,99648,100028
 1.5000e+000 100077 -1.2643e+001  3.2027e+000  1.7301e+000 32940 99674,100028,99884
 1.5000e+000 100126 -1.3212e+001 -1.7842e+000  9.0927e-001 32940 99440,99884,100100
 1.5000e+000 100149 -1.3172e+001 -3.4741e+000  1.3932e-001 32940 99440,100100,99492
 1.5000e+000 100198 -1.0556e+001  4.6062e-001  2.1538e-002 32940 99622,99956,100172
 1.5000e+000 100221 -9.6122e+000  5.2598e-001  9.1158e-001 32940 99622,100172,100028
 1.5000e+000 100270 -1.1198e+001 -1.2615e+000 -4.7244e+000 32940 99544,99956,100244
 1.5000e+000 100293 -8.7723e+000 -8.3732e-001 -3.8956e+000 32940 99544,100244,99570
 1.5000e+000 100750  2.2977e+000  7.2496e+000  1.1849e+000 32365 100773,100580,100502
 1.5000e+000 100727  4.7499e+000  6.2428e+000  2.6930e+000 32365 100773,100502,100632
 1.5000e+000 100704  8.3064e+000 -1.8043e+000 -3.9075e+000 32365 100476,100632,100502
 1.5000e+000 100681 -3.7846e-001  3.7586e+000 -3.2801e-002 32365 100528,100580,100554
 1.5000e+000 100658  5.0804e+000  7.5098e+000 -2.0232e+000 32365 100502,100580,100528
 1.5000e+000 100799  4.1080e+000  9.2410e+000  1.9660e+000 32365 100606,100580,100773
 1.5000e+000 100822  5.9989e+000  7.6114e+000  3.2832e+000 32365 100606,100773,100632
 1.5000e+000 101021 -2.9102e-001  8.4628e+000  6.4879e+000 31853 100871,100923,100897
 1.5000e+000 100998  7.9218e+000  1.7419e+001  1.0175e+001 31853 100871,100949,100923
 1.5000e+000 100975  5.2861e-002 -8.6554e-001  9.2849e+000 31853 100845,100949,100871
 1.5000e+000 101529  2.2381e+000  4.2257e+000 -6.9252e+000 31249 101552,101310,101232
 1.5000e+000 101506  5.0631e+000  6.6803e+000 -8.0955e+000 31249 101552,101232,101206
 1.5000e+000 101483  4.2540e+000  8.3266e-001 -4.5896e+000 31249 101206,101388,101336
 1.5000e+000 101460  7.6281e-002  1.6925e+000 -5.4995e+000 31249 101232,101284,101258
 1.5000e+000 101437  1.8961e+000  7.4270e+000 -6.2230e+000 31249 101232,101310,101284
 1.5000e+000 101414  5.6661e+000 -2.2929e-001 -1.0423e+000 31249 101336,101388,101362
 1.5000e+000 101578  2.8415e+000  1.0209e+000 -3.9665e+000 31249 101336,101310,101552
 1.5000e+000 101601  5.9281e+000  3.9053e+000 -5.2315e+000 31249 101336,101552,101206
 1.5000e+000 101751 -1.9866e+001  2.4385e+001 -4.4372e-001 30515 101774,101650,101624
 1.5000e+000 101728 -1.0832e+001  2.7941e+001 -1.5298e+000 30515 101846,101774,101624
 1.5000e+000 101800 -1.7277e+001  2.8929e+001  8.6566e-001 30515 101676,101650,101774
 1.5000e+000 101823 -1.6283e+001  1.9837e+001  1.6391e+000 30515 101676,101774,101702
 1.5000e+000 101872 -1.8962e+001  8.9111e+000 -1.8138e+000 30515 101702,101774,101846
 1.5000e+000 102557  1.1315e+000  2.2313e+000  1.5020e+000 29947 102652,102580,102266
 1.5000e+000 102534  2.5438e+000  4.2988e+000  3.0260e+000 29947 102580,102136,102370
 1.5000e+000 102511  1.6284e-001  6.7531e-002  1.1644e+000 29947 102724,102652,102266
 1.5000e+000 102488  8.2503e-001 -1.5968e+000  7.2931e-001 29947 102724,102266,102240
 1.5000e+000 102465  2.1599e+000  3.1687e+000  1.7047e+000 29947 102796,102318,102292
 1.5000e+000 102442 -1.5938e-001  1.8813e+000 -7.9631e-001 29947 102162,102214,102188
 1.5000e+000 102419  2.5319e-001  1.2848e+000 -1.4729e+000 29947 102162,102240,102214
 1.5000e+000 102396  3.8256e+000  7.8985e+000  4.0618e+000 29947 102318,102370,102344
 1.5000e+000 102606  1.7355e+000  1.1347e+000  1.4761e+000 29947 102292,102266,102580
 1.5000e+000 102629  2.0581e+000  2.5185e+000  1.7525e+000 29947 102796,102292,102580
 1.5000e+000 102678  1.7418e+000  1.6248e+000  2.4645e+000 29947 102136,102580,102652
 1.5000e+000 102701  1.2659e+000  1.4497e+000  2.2150e+000 29947 102136,102652,102162
 1.5000e+000 102750  1.2928e+000  2.2058e+000  2.0012e+000 29947 102162,102652,102724
 1.5000e+000 102773  1.3383e+000  3.5327e-001  1.1890e+000 29947 102162,102724,102240
 1.5000e+000 102822  2.1193e+000  2.4360e+000  1.9977e+000 29947 102370,102318,102796
 1.5000e+000 102845  2.1928e+000  2.1203e+000  2.1087e+000 29947 102370,102796,102580
 1.5000e+000 103044 -2.0573e+001 -1.4486e+001  1.3536e+000 29450 102868,102920,102894
 1.5000e+000 103021 -2.0178e+001 -1.3714e+001  1.1522e+000 29450 102868,102972,102920
 1.5000e+000 102998 -2.1904e+001 -1.6724e+001  4.5746e-001 29450 102920,102972,102946
 1.5000e+000 103292  1.6161e+000 -3.3121e-001  6.1971e+000 29060 103315,103171,103119
 1.5000e+000 103269 -4.2523e+000 -4.1351e-001  7.9667e+000 29060 103315,103119,103067
 1.5000e+000 103246  5.0226e+000  2.9559e+000  4.2827e+000 29060 103119,103171,103145
 1.5000e+000 103223 -8.8436e-002 -9.6074e-001  9.4986e+000 29060 103067,103119,103093
 1.5000e+000 103341  7.2059e+000 -1.0928e+000  3.2061e+000 29060 103197,103171,103315
 1.5000e+000 103364 -5.0607e-001 -5.3687e-002  2.9210e+000 29060 103197,103315,103067
 1.5000e+000 104002 -1.4668e+001 -6.9702e+000 -7.2028e+000 28599 104097,104025,103708
 1.5000e+000 103979 -8.7361e+000 -1.0628e+000 -1.0259e+000 28599 104169,104025,103656
 1.5000e+000 103956 -7.6090e+000 -1.1958e+001 -6.5622e+000 28599 104097,103708,103682
 1.5000e+000 103933 -5.8105e+000  1.3845e+000  2.9791e-002 28599 104169,103656,103630
 1.5000e+000 103910 -3.2744e+000  2.1874e+001  1.6607e+000 28599 103760,103812,103786
 1.5000e+000 103887 -8.0936e+000  3.5268e+000  5.7208e+000 28599 103630,103838,103812
 1.5000e+000 103864 -7.5823e+000 -2.8972e+000  6.2184e-001 28599 103708,103760,103734
 1.5000e+000 104051 -1.6339e+001  2.5980e+000 -2.4811e+000 28599 103760,103708,104025
 1.5000e+000 104074 -7.7220e+000  3.2821e+000  1.9156e+000 28599 103760,104025,103812
 1.5000e+000 104123 -7.8204e+000  6.0995e-001 -4.3371e+000 28599 103656,104025,104097
 1.5000e+000 104146 -1.3972e+000 -6.4898e+000 -4.0980e+000 28599 103656,104097,103682
 1.5000e+000 104195 -1.0628e+001  2.2139e+000 -3.3996e-001 28599 103812,104025,104169
 1.5000e+000 104218 -9.5144e+000  3.1205e+000  5.9480e-002 28599 103812,104169,103630
 1.5000e+000 104596  4.2298e+000 -2.7563e-001 -1.3581e+000 28344 104619,104374,104322
 1.5000e+000 104573  2.7262e+000 -2.3685e+000  7.6634e-001 28344 104619,104322,104478
 1.5000e+000 104550 -8.7606e-001  1.2679e+000  6.5274e-001 28344 104322,104374,104348
 1.5000e+000 104527  6.9601e+000 -1.0264e+001 -1.1404e+001 28344 104400,104452,104426
 1.5000e+000 104504  7.6674e+000 -1.1446e+001 -8.4265e+000 28344 104374,104452,104400
 1.5000e+000 104645  4.5916e+000  2.9317e+000 -3.7733e+000 28344 104452,104374,104619
 1.5000e+000 104668  2.2847e+000  6.6296e-001 -1.4810e+000 28344 104452,104619,104478
 1.5000e+000 104987  1.3812e+000  4.4549e+000  1.9054e+000 27947 104713,104843,104765
 1.5000e+000 104964  8.9384e-002  6.2199e+000 -2.1018e-001 27947 104713,104869,104843
 1.5000e+000 104941  1.4098e+000  1.1948e+000 -1.9326e-001 27947 104765,104843,104791
 1.5000e+000 104918  1.4713e+000  9.3655e-001  9.4521e-002 27947 104791,104843,104817
 1.5000e+000 104895 -3.8046e-001  2.8458e-002  1.7174e+000 27947 104713,104765,104739
 1.5000e+000 105367 -1.6304e+001 -9.2508e+000  1.4898e+000 27443 105390,105197,105119
 1.5000e+000 105344 -2.1229e+001 -1.0940e+001  2.1173e+000 27443 105390,105119,105093
 1.5000e+000 105321 -1.8247e+001 -1.1497e+001  2.4541e+000 27443 105119,105197,105145
 1.5000e+000 105298 -1.2041e+001 -1.1245e+001 -9.0188e-001 27443 105197,105249,105223
 1.5000e+000 105275 -1.6698e+001 -7.0832e+000  5.6932e+000 27443 105145,105197,105171
 1.5000e+000 105416 -1.2903e+001 -1.0272e+001 -1.9995e+000 27443 105249,105197,105390
 1.5000e+000 105439 -1.8642e+001 -1.2072e+001 -1.7419e+000 27443 105249,105390,105093
 1.5000e+000 105994 -7.6627e+000 -1.7790e+000 -1.0448e+000 27096 106161,106017,105700
 1.5000e+000 105971 -9.9456e+000 -5.8774e-001  2.1730e-002 27096 106305,106017,105648
 1.5000e+000 105948 -1.7120e+000  8.1406e-002 -1.9099e+000 27096 106089,105804,105778
 1.5000e+000 105925 -8.2589e+000 -2.0802e+000 -5.0807e-001 27096 106161,105700,105674
 1.5000e+000 105902 -6.3482e+000 -2.8147e+000 -1.0838e+000 27096 106233,105726,105700
 1.5000e+000 105879 -2.3936e+001 -1.6417e+000  1.9699e+000 27096 106305,105648,105622
 1.5000e+000 105856 -3.8660e+000 -2.6861e+000 -1.1299e-001 27096 105726,105778,105752
 1.5000e+000 106043 -7.2771e+000 -2.0190e+000 -5.8857e-001 27096 106233,105700,106017
 1.5000e+000 106066 -4.6586e+000 -1.0996e+000 -6.1165e-001 27096 106089,105778,106017
 1.5000e+000 106115 -5.1414e+000 -1.2896e+000 -1.2952e+000 27096 105830,105804,106089
 1.5000e+000 106138 -7.0827e+000 -7.5020e-001 -8.0868e-001 27096 106377,106089,106017
 1.5000e+000 106187 -8.7034e+000 -7.2395e-001  3.0006e-001 27096 105648,106017,106161
 1.5000e+000 106210 -1.0546e+001 -2.9755e+000  1.2249e+000 27096 105648,106161,105674
 1.5000e+000 106259 -5.4030e+000 -1.9166e+000 -1.5286e+000 27096 105778,105726,106233
 1.5000e+000 106282 -6.5435e+000 -1.3885e+000 -9.6043e-001 27096 105778,106233,106017
 1.5000e+000 106331 -7.8785e+000 -2.4702e-001 -2.2707e+000 27096 106377,106017,106305
 1.5000e+000 106354 -7.5794e+000  9.7830e+000 -3.4552e+000 27096 105830,106305,105622
 1.5000e+000 106403 -4.6020e+000  3.2296e-001 -1.2036e+000 27096 105830,106089,106377
 1.5000e+000 106426 -4.8955e+000  1.0448e+000 -2.4484e+000 27096 105830,106377,106305
 1.5000e+000 106625 -2.2424e+001 -6.9589e+000  1.9624e+000 26684 106475,106553,106527
 1.5000e+000 106602 -2.3745e+001 -8.7004e+000  1.3620e+000 26684 106449,106553,106475
 1.5000e+000 106579 -2.8128e+001 -6.8889e+000 -2.0771e+000 26684 106475,106527,106501
 1.5000e+000 107084 -8.2168e-002 -3.5573e+000 -4.1162e-001 26244 107107,106914,106862
 1.5000e+000 107061 -5.1131e-001 -4.0876e+000 -1.6154e-001 26244 107107,106862,106836
 1.5000e+000 107038 -3.5514e+000 -3.8805e+000  3.2148e-001 26244 106810,106966,106836
 1.5000e+000 107015  4.7917e-001 -3.7796e+000  5.6618e-002 26244 106862,106914,106888
 1.5000e+000 106992 -7.6390e-001 -2.3620e+000 -3.6611e-002 26244 106914,106966,106940
 1.5000e+000 107133 -4.7088e-001 -3.2284e+000  3.0989e-001 26244 106966,106914,107107
 1.5000e+000 107156 -9.8450e-001 -4.2277e+000  5.9000e-001 26244 106966,107107,106836
 1.5000e+000 107662  2.3708e+000 -9.8481e-001  8.6645e-001 25904 107365,107495,107391
 1.5000e+000 107639  1.7956e+000  1.8317e-001  6.2591e-001 25904 107365,107521,107495
 1.5000e+000 107616  1.0767e+000 -1.7906e+000  2.8898e-001 25904 107391,107469,107443
 1.5000e+000 107593  2.4973e+000 -9.9081e-001 -8.0988e-002 25904 107391,107495,107469
 1.5000e+000 107570  6.6419e-001 -2.7231e+000  3.7364e-001 25904 107391,107443,107417
 1.5000e+000 107547  1.3771e+000  3.9462e-001  2.8596e+000 25904 107339,107521,107365
 1.5000e+000 108247 -1.4056e+000 -1.7385e+000 -5.6222e-001 25450 108270,108002,107950
 1.5000e+000 108224  2.1826e-002 -1.7580e+000 -6.1673e-003 25450 108270,107950,108106
 1.5000e+000 108201  1.9217e-001 -2.3725e+000  1.0264e-001 25450 108342,108028,108002
 1.5000e+000 108178 -2.2206e+000 -2.8403e+000 -1.3617e-001 25450 107950,108002,107976
 1.5000e+000 108155 -2.1186e+000 -2.0642e-001  3.5816e-001 25450 107924,108106,107950
 1.5000e+000 108132  1.1690e-001 -1.1676e+000  5.2467e-001 25450 108054,108106,108080
 1.5000e+000 108296 -5.5749e-001 -1.7729e+000  1.4988e-001 25450 108342,108002,108270
 1.5000e+000 108319  4.1726e-001 -1.2295e+000  4.1462e-001 25450 108054,108270,108106
 1.5000e+000 108368  1.6411e+000 -1.8726e+000 -2.6537e-001 25450 108054,108028,108342
 1.5000e+000 108391  5.2207e-001 -1.4485e+000 -3.3105e-001 25450 108054,108342,108270
 1.5000e+000 108818 -1.1652e+001  5.4341e+000  1.1730e+000 24939 108521,108677,108651
 1.5000e+000 108795 -2.1919e+001  1.5332e+000 -8.2083e+000 24939 108495,108677,108521
 1.5000e+000 108772 -5.8609e+000  7.9253e+000  1.8786e+000 24939 108521,108651,108625
 1.5000e+000 108749 -1.0214e+001  1.1197e+001  7.6358e-001 24939 108521,108625,108599
 1.5000e+000 108726  6.4879e-001  3.0757e+000  1.4065e+000 24939 108547,108599,108573
 1.5000e+000 108703 -1.0014e+001  6.6978e+000 -1.1708e+000 24939 108521,108599,108547
 1.5000e+000 109403  1.6274e+001  9.6300e+000 -2.6539e+000 24741 109158,109210,109184
 1.5000e+000 109380  8.0235e+000  7.9453e+000 -2.4649e+000 24741 109158,109262,109210
 1.5000e+000 109357  1.0603e+001  1.0073e+001 -6.6162e-001 24741 109080,109262,109158
 1.5000e+000 109334  4.3712e+000  8.5364e+000  2.1980e+000 24741 109080,109158,109132
 1.5000e+000 109311  2.0611e+001  1.4603e+001 -5.9855e+000 24741 109210,109262,109236
 1.5000e+000 109288  8.6292e+000  8.3941e+000  4.3143e+000 24741 109080,109132,109106
 1.5000e+000 109781  1.9271e+000 -1.8799e+000  5.0235e-001 24337 109533,109611,109559
 1.5000e+000 109758  2.0074e+000 -4.9357e-001 -1.4550e-001 24337 109533,109637,109611
 1.5000e+000 109735  2.2512e+000 -2.4267e+000 -3.9042e-001 24337 109559,109611,109585
 1.5000e+000 109712  1.9832e+000 -4.7428e-001  8.2308e-002 24337 109533,109663,109637
 1.5000e+000 109689  2.4454e+000  1.1863e+000  9.4361e-001 24337 109507,109663,109533
 1.5000e+000 110159 -6.9711e+000 -9.9613e+000 -2.2040e+000 23833 110182,109963,109911
 1.5000e+000 110136 -9.1414e+000 -1.0844e+001 -2.0574e+000 23833 110182,109911,109885
 1.5000e+000 110113 -3.9438e+000 -7.0677e+000 -4.7473e+000 23833 109885,110041,109989
 1.5000e+000 110090 -5.9113e+000 -5.5969e+000 -1.6565e+000 23833 109911,109963,109937
 1.5000e+000 110067 -8.4595e+000 -1.6177e+001 -6.2451e+000 23833 109989,110041,110015
 1.5000e+000 110208 -8.0300e+000 -1.0046e+001 -3.0636e+000 23833 109989,109963,110182
 1.5000e+000 110231 -8.6644e+000 -1.0238e+001 -3.1292e+000 23833 109989,110182,109885
 1.5000e+000 110332  2.3388e+000  1.2236e+000  1.5806e-001 23429 110254,110306,110280
 1.5000e+000 110580  1.6385e+000  8.4379e-001  3.3502e+000 22825 110603,110407,110381
 1.5000e+000 110557  7.8009e-001  2.7785e-001  4.5118e+000 22825 110603,110381,110485
 1.5000e+000 110534  3.4372e+000  2.5384e+000  2.9700e+000 22825 110433,110485,110459
 1.5000e+000 110511  8.4758e-001  9.3747e+000  5.2289e+000 22825 110355,110485,110381
 1.5000e+000 110629  1.8386e+000  2.1118e+000  2.6383e+000 22825 110433,110407,110603
 1.5000e+000 110652  1.3251e+000  1.3286e+000  3.7222e+000 22825 110433,110603,110485
 1.5000e+000 110902 -2.1096e+001  3.1019e+000 -2.5406e+000 22428 110703,110755,110729
 1.5000e+000 110879 -1.4352e+001 -7.7517e-001 -3.1330e+000 22428 110703,110781,110755
 1.5000e+000 110856 -1.9046e+001 -3.2291e+000 -5.4152e+000 22428 110703,110807,110781
 1.5000e+000 110833 -2.9903e+001 -8.1781e+000 -1.0918e+001 22428 110677,110807,110703
 1.5000e+000 111284  1.2191e+001 -1.8560e+000 -7.4655e+000 22138 111088,111140,111114
 1.5000e+000 111261  1.1036e+001  1.7909e+000 -9.8077e+000 22138 111062,111140,111088
 1.5000e+000 111238  9.2493e+000  7.2031e-001 -4.3192e+000 22138 111036,111140,111062
 1.5000e+000 111215 -4.9557e-002 -2.4740e+000 -7.0232e+000 22138 111010,111140,111036
 1.5000e+000 111192  1.0448e-001 -2.1994e+000 -7.3092e+000 22138 111010,111166,111140
 1.5000e+000 111385 -2.6029e+001 -5.8605e+000  2.9986e+000 21826 111307,111359,111333
 1.5000e+000 111731 -2.8516e+001 -4.7329e+000  3.1932e+000 21264 111754,111538,111434
 1.5000e+000 111708 -2.3676e+001 -2.9457e+000  3.8041e-001 21264 111754,111434,111408
 1.5000e+000 111685 -2.9599e+001 -1.0850e+000  2.1171e+000 21264 111434,111538,111460
 1.5000e+000 111662 -3.9033e+001 -5.1557e+000  3.7287e+000 21264 111460,111538,111486
 1.5000e+000 111639 -2.1683e+001 -7.8754e+000  7.7562e+000 21264 111408,111590,111564
 1.5000e+000 111616 -4.3147e+001  7.7768e+000  9.7167e+000 21264 111486,111538,111512
 1.5000e+000 111780 -3.0145e+001 -5.3385e+000  4.4970e+000 21264 111564,111538,111754
 1.5000e+000 111803 -2.8408e+001 -8.1545e+000  2.7350e+000 21264 111564,111754,111408
 1.5000e+000 111955 -1.0418e+000  3.1145e+000  2.5074e-001 20860 111978,111906,111880
 1.5000e+000 111932 -1.1926e+000  8.2786e-001 -1.6095e+000 20860 112110,111828,111906
 1.5000e+000 112004 -2.1252e+000  3.2196e+000 -7.0418e-001 20860 112110,111906,111978
 1.5000e+000 112136 -5.5918e-001  3.1075e+000 -1.3781e+000 20860 111854,111828,112110
 1.5000e+000 112159 -1.1159e+000  6.2126e+000 -6.4096e-001 20860 111854,112110,111978
 1.5000e+000 112407 -7.1578e+000 -1.1453e+000 -3.6827e+000 20320 112182,112286,112208
 1.5000e+000 112384 -2.5539e-001  2.6716e+000 -5.2090e+000 20320 112182,112312,112286
 1.5000e+000 112361 -3.8675e+000  8.4577e-001 -2.7371e+000 20320 112208,112286,112260
 1.5000e+000 112338 -1.7326e+001  5.6809e+000 -8.8548e+000 20320 112208,112260,112234
 1.5000e+000 112655  1.1643e+000 -8.4752e+000  3.3813e+000 19916 112508,112560,112534
 1.5000e+000 112632 -2.1856e+000 -9.9216e+000  2.2205e+000 19916 112430,112560,112508
 1.5000e+000 112609 -3.3417e+000 -1.3980e+001  2.6055e+000 19916 112430,112508,112456
 1.5000e+000 112586 -1.2244e+000 -5.5281e+000  1.0435e+000 19916 112456,112508,112482
 1.5000e+000 112807 -1.1983e+001 -2.5680e-001 -1.1484e-001 19626 112680,112732,112706
 1.5000e+000 112784 -8.3161e+000 -1.5896e+000 -2.1116e+000 19626 112680,112758,112732
 1.5000e+000 113008 -8.3405e+000 -4.4746e+000  3.6106e+000 19165 112858,112936,112884
 1.5000e+000 112985 -1.7480e+001 -1.2340e+001 -6.9549e-001 19165 112832,112936,112858
 1.5000e+000 112962 -2.2925e+000 -3.6101e+000 -5.4728e-001 19165 112884,112936,112910
 1.5000e+000 113209 -5.4619e+000 -2.2850e+000  2.0306e-001 18596 113033,113085,113059
 1.5000e+000 113186 -9.9460e-001 -1.3984e+000 -9.3078e-001 18596 113033,113111,113085
 1.5000e+000 113163 -2.9017e+000 -3.0356e+000 -2.1289e-002 18596 113033,113137,113111
 1.5000e+000 113481 -3.1400e+000 -3.1779e+000  5.4259e-001 18348 113256,113308,113282
 1.5000e+000 113458  1.0501e-001 -2.4126e+000  1.2386e-001 18348 113256,113386,113308
 1.5000e+000 113435  6.2005e-001 -1.9566e+000  6.1266e-001 18348 113308,113386,113360
 1.5000e+000 113412  1.4743e+000 -2.8741e+000  1.0790e-001 18348 113308,113360,113334
 1.5000e+000 113753  1.0790e+000 -2.5735e+000  6.0489e-002 17830 113554,113606,113580
 1.5000e+000 113730  2.3727e+000 -2.4413e+000  1.4930e-001 17830 113528,113606,113554
 1.5000e+000 113707  2.8463e+000 -1.2829e+000  4.4811e-001 17830 113528,113658,113606
 1.5000e+000 113684  1.9581e+000 -2.5500e+000 -4.0957e-002 17830 113606,113658,113632
 1.5000e+000 113954  2.6860e+000 -1.8489e+000 -2.5800e+000 17326 113778,113830,113804
 1.5000e+000 113931  1.1953e+001 -1.1329e+001 -5.0270e+000 17326 113778,113882,113830
 1.5000e+000 113908  1.4829e+001 -4.6605e+000 -4.3344e+000 17326 113830,113882,113856
 1.5000e+000 114106  3.2163e+000 -2.4525e+000  1.9243e-001 16870 113979,114031,114005
 1.5000e+000 114083  2.7868e+000 -1.9353e+000  2.9066e-001 16870 113979,114057,114031
 1.5000e+000 114461 -4.8634e+000  7.8288e+000 -8.2480e+000 16266 114236,114288,114262
 1.5000e+000 114438 -4.4479e+000 -4.2205e+000 -1.3446e+000 16266 114236,114366,114288
 1.5000e+000 114415 -1.0020e+000  3.1806e-001  1.7863e+000 16266 114288,114340,114314
 1.5000e+000 114392 -9.8987e-001 -8.9826e-002  2.2887e-001 16266 114288,114366,114340
 1.5000e+000 114562 -2.6087e+001  3.4129e+000  0.0000e+000 15830 114484,114536,114510
 1.5000e+000 114663 -1.0906e+000 -6.0791e+000  9.0257e-001 15151 114585,114637,114611
 1.5000e+000 114886  8.7335e+000  4.4824e+000  3.6659e+000 417 114762,114814,114788
 1.5000e+000 114863  5.8156e+000  5.6225e-001  1.9828e+000 417 114710,114814,114762
 1.5000e+000 114840 -1.5833e+000  1.3444e+000  6.7823e-001 417 114710,114762,114736
 1.6000e+000 66549 -6.3304e-001 -2.3674e+000 -8.7651e-002 66104 66350,66454,66428
 1.6000e+000 66526 -4.7747e-001 -2.4397e+000  4.1223e-001 66104 66324,66454,66350
 1.6000e+000 66503 -2.5841e-001 -1.1927e+000 -2.2998e-001 66104 66350,66428,66402
 1.6000e+000 66480  6.9994e-001 -3.3289e+000 -3.4061e-001 66104 66350,66402,66376
 1.6000e+000 66947  4.2240e-001 -3.8996e-001  4.7463e-002 65906 66699,66829,66803
 1.6000e+000 66924 -2.3469e-001 -6.7330e-001  8.9783e-002 65906 66673,66829,66699
 1.6000e+000 66901  1.7418e+000 -6.8049e-001  3.2419e-001 65906 66725,66777,66751
 1.6000e+000 66878 -3.3745e+000 -1.9574e-001  6.6748e-002 65906 66725,66803,66777
 1.6000e+000 66855  1.2529e+000 -4.8582e+000 -1.0264e+000 65906 66699,66803,66725
 1.6000e+000 67146 -5.4657e-001  3.4770e-001 -3.3232e-001 65708 67022,67074,67048
 1.6000e+000 67123  8.3894e-001  2.8925e-001 -3.8614e-001 65708 66970,67074,67022
 1.6000e+000 67100 -1.0020e-001 -4.0499e-001  8.2240e-003 65708 66970,67022,66996
 1.6000e+000 67477 -1.6070e+000 -3.0097e+000 -2.8016e+000 65418 67278,67356,67330
 1.6000e+000 67454 -3.2568e-001  3.5009e+000 -1.6241e+000 65418 67278,67382,67356
 1.6000e+000 67431 -2.1482e+000 -5.6838e-001 -5.2433e+000 65418 67278,67330,67304
 1.6000e+000 67408 -3.6950e-001 -2.8748e-002 -2.3375e+000 65418 67252,67382,67278
 1.6000e+000 68111 -4.5926e-001  2.6949e-001 -5.8772e-001 65014 67791,67921,67869
 1.6000e+000 68088 -5.2841e-001  2.9063e-001 -1.3310e+000 65014 67765,67921,67791
 1.6000e+000 68065 -1.6350e+000 -2.2238e+000 -1.1926e+000 65014 67869,67921,67895
 1.6000e+000 68042  4.0362e-001 -5.0110e-001 -1.1188e+000 65014 67765,67947,67921
 1.6000e+000 68019  1.0296e+000 -4.7945e-001 -1.5237e+000 65014 67791,67869,67817
 1.6000e+000 67996  2.4155e+000 -1.1146e+000 -5.0657e-001 65014 67817,67869,67843
 1.6000e+000 67973  1.4090e+000  9.2445e-001  2.5896e-002 65014 67739,67947,67765
 1.6000e+000 68359 -1.5407e+000 -2.8443e+000  4.4819e-001 64816 68186,68238,68212
 1.6000e+000 68336  2.8810e-002 -4.6104e+000  2.3728e-001 64816 68186,68264,68238
 1.6000e+000 68313 -9.3585e-001 -4.9611e+000  9.2238e-001 64816 68160,68264,68186
 1.6000e+000 68290  8.4374e-002 -4.0909e+000  3.5983e-001 64816 68134,68264,68160
 1.6000e+000 68509 -1.2923e-001 -1.5997e+000  5.0353e-001 64362 68864,68532,68434
 1.6000e+000 68486 -1.8161e+000 -1.3667e+000  6.6714e-001 64362 68532,68408,68382
 1.6000e+000 68558 -9.4968e-001 -1.7223e+000  1.1101e+000 64362 68736,68532,68460
 1.6000e+000 68581 -4.9960e-001 -9.1134e-001  1.1006e-001 64362 68604,68532,68382
 1.6000e+000 68630  1.0114e+000 -3.4397e-001  1.7636e+000 64362 68460,68532,68604
 1.6000e+000 68762  3.0662e-001 -4.6996e-001  5.2462e-001 64362 68434,68532,68736
 1.6000e+000 68890 -1.1801e+000 -1.1471e+000  7.5993e-002 64362 68408,68532,68864
 1.6000e+000 69168 -2.5151e+000 -4.0925e+000  1.5424e+000 64164 69018,69070,69044
 1.6000e+000 69145 -9.8979e-001 -7.3603e+000  1.2136e+000 64164 68992,69070,69018
 1.6000e+000 69122 -9.9376e-001 -7.8160e+000  2.4297e+000 64164 68992,69096,69070
 1.6000e+000 69367  1.3346e+000 -2.6333e+000 -4.2286e-001 63966 69462,69390,69269
 1.6000e+000 69344 -3.4038e+000 -1.0162e+001  1.5593e+000 63966 69390,69243,69217
 1.6000e+000 69321 -1.4774e+000 -6.9409e+000 -8.5839e-001 63966 69191,69295,69217
 1.6000e+000 69416  4.1088e+000 -6.4627e+000 -1.9678e+000 63966 69295,69269,69390
 1.6000e+000 69439 -3.0782e-001 -7.3464e+000 -6.6636e-001 63966 69295,69390,69217
 1.6000e+000 69488 -2.9361e+000 -9.7980e+000 -2.1961e+000 63966 69243,69390,69462
 1.6000e+000 69900  1.4536e+000 -2.9480e-001  1.1437e+000 63676 69701,69779,69727
 1.6000e+000 69877 -4.1005e-001 -1.3119e+000  1.5347e+000 63676 69675,69779,69701
 1.6000e+000 69854  1.0440e+000 -2.0373e+000  1.4698e+000 63676 69675,69805,69779
 1.6000e+000 69831  6.0294e+000 -6.5000e-001  1.3449e+000 63676 69727,69779,69753
 1.6000e+000 70050 -4.5724e-001 -6.9235e+000  4.5494e-001 63472 70073,69949,69923
 1.6000e+000 70027  9.7049e-001 -7.3818e+000  1.1421e-001 63472 70073,69923,70001
 1.6000e+000 70099 -1.1369e+000 -7.3599e+000  6.4240e-001 63472 69975,69949,70073
 1.6000e+000 70122  1.2364e-001 -7.9316e+000  3.5190e-001 63472 69975,70073,70001
 1.6000e+000 70321  1.6756e+000 -4.0428e+000  1.7725e+000 63274 70145,70223,70171
 1.6000e+000 70298  4.9672e-001 -5.6192e+000  1.7385e-001 63274 70145,70249,70223
 1.6000e+000 70275  8.4775e-001 -5.3134e+000  1.3730e+000 63274 70171,70223,70197
 1.6000e+000 70593  1.2213e+000 -3.7091e+000  1.1112e+000 63076 70368,70472,70420
 1.6000e+000 70570  7.4359e-001 -9.4460e+000  3.8373e-001 63076 70368,70498,70472
 1.6000e+000 70547  3.2074e+000 -7.7581e+000 -2.7636e+000 63076 70420,70472,70446
 1.6000e+000 70524  1.0640e+000 -4.2368e+000  2.5179e+000 63076 70368,70420,70394
 1.6000e+000 70843 -2.9661e+000 -9.5801e+000 -1.1722e+000 62736 70866,70644,70618
 1.6000e+000 70820 -2.2951e+000 -1.0589e+001 -1.5565e+000 62736 70866,70618,70748
 1.6000e+000 70797  8.5910e-001 -8.7389e+000  3.5885e-001 62736 70644,70722,70696
 1.6000e+000 70774  1.3416e-001 -6.5683e+000  1.3018e+000 62736 70644,70696,70670
 1.6000e+000 70892 -2.3244e+000 -8.6842e+000 -6.3509e-001 62736 70722,70644,70866
 1.6000e+000 70915 -2.2203e+000 -1.0045e+001 -1.1874e+000 62736 70722,70866,70748
 1.6000e+000 71018  3.8481e+000 -3.6752e+000 -1.7830e+000 62516 70940,70992,70966
 1.6000e+000 71219 -2.2253e-001 -3.0757e+000  1.4526e+000 62226 71069,71147,71095
 1.6000e+000 71196 -2.7749e+000 -4.2832e+000  1.1134e+000 62226 71043,71147,71069
 1.6000e+000 71173 -2.5239e+000 -3.4804e+000  1.2784e+000 62226 71095,71147,71121
 1.6000e+000 71857  1.0005e+000  9.8303e-001  1.3428e-002 61708 71511,71693,71667
 1.6000e+000 71834  1.0668e+000  1.1983e+000 -1.5952e-001 61708 71485,71693,71511
 1.6000e+000 71811  1.3668e+000 -8.8910e-001 -2.1784e-001 61708 71880,71537,71511
 1.6000e+000 71788  1.7108e+000  4.7581e-001 -8.0975e-001 61708 71880,71511,71667
 1.6000e+000 71765  1.6517e+000 -3.2022e+000 -1.8155e+000 61708 71537,71615,71589
 1.6000e+000 71742  9.3918e-001  2.7435e+000  2.7592e+000 61708 71615,71667,71641
 1.6000e+000 71719  1.0334e+000 -4.0608e+000 -7.1755e-001 61708 71537,71589,71563
 1.6000e+000 71906  1.9674e+000 -2.0273e+000 -1.0846e-001 61708 71615,71537,71880
 1.6000e+000 71929  1.9718e+000 -9.9980e-001 -6.1481e-001 61708 71615,71880,71667
 1.6000e+000 72226 -1.9389e+000 -1.9807e+000  1.8238e+000 61204 72249,72056,72004
 1.6000e+000 72203 -2.0853e+000 -4.3714e+000  2.1740e+000 61204 72249,72004,71978
 1.6000e+000 72180 -1.3018e+000 -4.5541e+000  3.4858e+000 61204 71978,72108,72082
 1.6000e+000 72157  2.4480e+000  2.4333e+000  5.3616e+000 61204 72004,72056,72030
 1.6000e+000 72134 -1.3203e-001 -3.6860e+000  4.0491e+000 61204 71952,72108,71978
 1.6000e+000 72275 -2.4175e+000 -3.7306e+000  2.7200e+000 61204 72082,72056,72249
 1.6000e+000 72298 -1.7942e+000 -5.1648e+000  3.0251e+000 61204 72082,72249,71978
 1.6000e+000 72757 -3.3774e+000 -2.6065e+000  3.6365e+000 60800 72483,72613,72509
 1.6000e+000 72734 -3.1971e+000 -8.7942e+000  2.9082e+000 60800 72483,72639,72613
 1.6000e+000 72711  2.7378e+000  5.0600e-001  5.2254e+000 60800 72561,72613,72587
 1.6000e+000 72688 -3.1992e+000 -2.6207e+000  3.7196e+000 60800 72509,72613,72561
 1.6000e+000 72665 -2.9916e+000 -1.4444e+000  5.5863e+000 60800 72509,72561,72535
 1.6000e+000 72907 -2.1538e+000  4.4866e+000 -7.5006e-001 60552 72780,72832,72806
 1.6000e+000 72884  1.4375e+000  8.2542e+000 -2.4280e+000 60552 72780,72858,72832
 1.6000e+000 73464  2.5757e+000 -2.9460e+000  4.5136e+000 60240 73487,73222,73196
 1.6000e+000 73441  3.2232e+000  1.5721e-002  5.1966e+000 60240 73559,73487,73196
 1.6000e+000 73418 -2.5733e-001  2.2660e+000  5.3775e+000 60240 73559,73196,73170
 1.6000e+000 73395  3.6516e+000 -7.2569e+000  3.0420e+000 60240 73222,73274,73248
 1.6000e+000 73372  3.7570e+000 -4.7872e-001  3.9584e+000 60240 73118,73300,73274
 1.6000e+000 73349  1.5421e+000 -7.0596e+000  3.5393e+000 60240 73092,73300,73118
 1.6000e+000 73326 -5.8757e+000 -3.2529e-001  1.1145e+001 60240 73118,73170,73144
 1.6000e+000 73513  1.2384e+000 -3.0074e+000  3.3044e+000 60240 73274,73222,73487
 1.6000e+000 73536  1.6868e+000 -1.9157e+000  3.3149e+000 60240 73274,73487,73118
 1.6000e+000 73585 -9.3351e-001 -3.2402e+000  3.7717e+000 60240 73118,73487,73559
 1.6000e+000 73608 -3.9468e+000 -5.5662e-001  4.1334e+000 60240 73118,73559,73170
 1.6000e+000 73758 -1.5491e+001 -7.5429e+000 -3.6452e+000 59871 73657,73709,73683
 1.6000e+000 73735 -3.8461e+000 -1.7053e+001 -1.4630e+000 59871 73631,73709,73657
 1.6000e+000 74187 -3.6018e+000 -6.3937e+000  8.8672e-001 59474 74210,73890,73864
 1.6000e+000 74164 -4.0148e+000 -9.0208e+000  1.4512e+000 59474 74210,73864,74046
 1.6000e+000 74141 -4.3768e+000 -3.8111e+000  3.3272e-001 59474 73890,73942,73916
 1.6000e+000 74118 -5.1460e+000 -4.9120e+000  6.8666e-001 59474 73890,73994,73942
 1.6000e+000 74095 -4.3601e+000 -6.1390e+000  1.7872e+000 59474 73994,74046,74020
 1.6000e+000 74072 -2.5367e+000 -3.4796e+000  2.1020e+000 59474 73942,73994,73968
 1.6000e+000 74236 -4.3768e+000 -4.5606e+000  7.6957e-001 59474 73994,73890,74210
 1.6000e+000 74259 -4.0660e+000 -6.2264e+000  1.3410e+000 59474 73994,74210,74046
 1.6000e+000 74716 -6.4574e+000 -1.1923e+001 -5.7112e+000 58770 74468,74598,74494
 1.6000e+000 74693 -1.5264e+000 -7.3027e+000 -3.3935e+000 58770 74442,74598,74468
 1.6000e+000 74670 -8.7244e+000 -1.6920e+001 -1.0955e+001 58770 74494,74572,74520
 1.6000e+000 74647 -1.9640e+000 -6.5089e+000 -3.5713e+000 58770 74494,74598,74572
 1.6000e+000 74624  2.9471e+000 -7.2355e+000 -1.7110e+000 58770 74520,74572,74546
 1.6000e+000 75222 -2.6450e+000 -9.7705e-001  3.2707e+000 58266 74951,75081,75029
 1.6000e+000 75199  2.4515e+000 -2.6535e+000  5.4079e+000 58266 74925,75081,74951
 1.6000e+000 75176 -7.9411e+000 -6.4105e+000  6.6171e+000 58266 75029,75081,75055
 1.6000e+000 75153 -3.3558e+000  1.9533e+000  2.8315e+000 58266 74951,75003,74977
 1.6000e+000 75130 -4.4962e+000 -1.8880e+000  4.0818e+000 58266 74951,75029,75003
 1.6000e+000 75107 -5.6610e+000 -7.5849e+000  3.1325e+000 58266 74899,75081,74925
 1.6000e+000 75421 -3.4981e+000 -2.8124e+000  2.1013e+000 57826 75444,75297,75245
 1.6000e+000 75398 -3.0786e+000 -6.6095e+000  3.3898e+000 57826 75444,75245,75349
 1.6000e+000 75375 -5.8243e+000 -6.8043e-001  2.3411e+000 57826 75516,75297,75271
 1.6000e+000 75470 -3.0345e+000 -1.1605e+000  1.9502e+000 57826 75323,75297,75444
 1.6000e+000 75493 -1.3074e+000 -2.4215e+000  3.6417e+000 57826 75323,75444,75349
 1.6000e+000 75542 -1.9701e+000 -1.0771e+000  1.0021e+000 57826 75245,75297,75516
 1.6000e+000 76257  5.4182e+000  9.9504e+000  1.9624e+000 57422 76280,76093,76067
 1.6000e+000 76234  3.5330e+000  4.1511e+000  3.2988e+000 57422 75885,76093,75911
 1.6000e+000 76211  5.2176e+000  8.7172e+000  3.3542e-001 57422 76424,76280,76067
 1.6000e+000 76188  8.4329e+000  8.3353e+000  2.4055e+000 57422 76352,75937,75911
 1.6000e+000 76165  4.1406e+000  7.8743e+000 -1.8422e-001 57422 76424,76067,76015
 1.6000e+000 76142  6.2037e+000  1.8161e+001  3.9809e+000 57422 76015,76067,76041
 1.6000e+000 76119  9.2297e+000  7.7864e+000  5.4036e-001 57422 75963,76015,75989
 1.6000e+000 76306  3.8463e+000  5.6688e+000  3.8253e+000 57422 75911,76093,76280
 1.6000e+000 76329  8.1897e+000  8.6187e+000  2.5291e+000 57422 76352,75911,76280
 1.6000e+000 76378  7.9398e+000  7.8578e+000  2.1585e+000 57422 75963,75937,76352
 1.6000e+000 76401  7.8241e+000  8.1808e+000  2.3233e+000 57422 75963,76352,76280
 1.6000e+000 76450  6.8382e+000  7.3756e+000  1.7728e-001 57422 75963,76280,76424
 1.6000e+000 76473  5.4496e+000  6.5025e+000 -2.5606e-001 57422 75963,76424,76015
 1.6000e+000 76949 -6.4906e+000 -1.1540e+000  3.6714e+000 56904 76972,76707,76681
 1.6000e+000 76926 -4.3012e+000  6.2881e+000  5.4285e-002 56904 77044,76972,76681
 1.6000e+000 76903 -2.3560e+000  1.0907e+001 -7.0840e-001 56904 77044,76681,76629
 1.6000e+000 76880 -2.6864e-002  1.9412e-001  1.0288e+000 56904 76707,76785,76759
 1.6000e+000 76857  2.8461e+000  9.0291e-002 -4.1776e+000 56904 76577,76785,76603
 1.6000e+000 76834 -4.9736e-001 -5.0954e-003  4.5653e-002 56904 76707,76759,76733
 1.6000e+000 76811  2.2727e+000  1.1244e+001  1.7831e+000 56904 76629,76681,76655
 1.6000e+000 76998 -6.7202e-002  2.6182e+000  9.1235e-001 56904 76785,76707,76972
 1.6000e+000 77021 -3.1034e+000  5.9195e-001 -1.3138e+000 56904 76785,76972,76603
 1.6000e+000 77070 -9.9566e-001  2.0908e+000 -1.9678e+000 56904 76603,76972,77044
 1.6000e+000 77093 -2.0687e-001  4.9351e+000 -1.9655e+000 56904 76603,77044,76629
 1.6000e+000 77471 -6.9932e+000  7.6046e+000 -6.6387e+000 56542 77566,77494,77275
 1.6000e+000 77448 -2.7441e+000  1.0531e+001 -2.3436e+000 56542 77494,77223,77353
 1.6000e+000 77425 -5.7069e+000  7.0551e+000 -1.0813e+001 56542 77566,77275,77249
 1.6000e+000 77402  3.9938e+000  1.1440e+001  1.9941e+000 56542 77197,77353,77223
 1.6000e+000 77379 -5.1943e+000  9.9559e+000 -1.1670e+001 56542 77275,77327,77301
 1.6000e+000 77520 -4.5074e+000  1.6918e+001 -6.1870e+000 56542 77327,77275,77494
 1.6000e+000 77543 -1.1759e+001  9.8678e+000 -2.6753e+000 56542 77327,77494,77353
 1.6000e+000 77592  1.4485e+000  1.0622e+001 -3.7906e+000 56542 77223,77494,77566
 1.6000e+000 77615 -1.1796e+000  5.6395e+000 -8.6078e+000 56542 77223,77566,77249
 1.6000e+000 77814  6.2704e+000  9.9356e+000 -6.8930e+000 56038 77837,77690,77664
 1.6000e+000 77791  6.5749e+000  9.7258e+000 -6.1221e+000 56038 77837,77664,77742
 1.6000e+000 77768  8.9901e+000  4.1555e+000 -5.6155e+000 56038 77638,77742,77664
 1.6000e+000 77863  6.4952e+000  1.0572e+001 -6.7617e+000 56038 77716,77690,77837
 1.6000e+000 77886  6.7879e+000  1.0292e+001 -5.9861e+000 56038 77716,77837,77742
 1.6000e+000 78345  2.0860e-001  1.0275e+000  8.8382e+000 55534 78071,78123,78097
 1.6000e+000 78322 -5.5913e+000 -4.0089e+000  3.8053e+000 55534 78071,78201,78123
 1.6000e+000 78299 -7.1420e+000 -5.2274e+000  4.5120e+000 55534 78071,78227,78201
 1.6000e+000 78276  2.0622e+000 -8.9558e-001  7.7479e+000 55534 78123,78175,78149
 1.6000e+000 78253  1.1517e+000  8.4928e-001  6.0007e+000 55534 78123,78201,78175
 1.6000e+000 78802 -7.8713e+000  7.9544e+000 -6.3276e-001 55030 78825,78632,78606
 1.6000e+000 78779 -3.2804e+000  7.0135e+000 -2.7001e+000 55030 78897,78825,78606
 1.6000e+000 78756 -8.6607e+000  8.9935e+000 -4.4827e+000 55030 78897,78606,78580
 1.6000e+000 78733  1.2770e+000  7.9673e+000 -2.2181e-001 55030 78554,78684,78658
 1.6000e+000 78710 -4.0667e-001  3.6238e+000 -2.1116e+000 55030 78528,78684,78554
 1.6000e+000 78851 -1.6263e+000  1.8203e+001  3.4321e+000 55030 78658,78632,78825
 1.6000e+000 78874 -4.2493e+000  4.9609e+000 -2.0471e+000 55030 78658,78825,78554
 1.6000e+000 78923 -7.9240e+000  2.5330e+000 -6.0493e+000 55030 78554,78825,78897
 1.6000e+000 78946 -1.0360e+001  5.1558e+000 -8.0895e+000 55030 78554,78897,78580
 1.6000e+000 79403  2.5061e+000  4.0112e+000  2.8563e+000 54426 79426,79233,79155
 1.6000e+000 79380  8.0983e+000  3.8525e+000  6.0494e-001 54426 79426,79155,79129
 1.6000e+000 79357 -4.1545e+000  5.0234e+000  5.6860e-001 54426 79233,79285,79259
 1.6000e+000 79334  1.1626e+000  3.9933e+000  5.8707e+000 54426 79181,79233,79207
 1.6000e+000 79311  1.6785e+000  2.9224e+000  3.2679e+000 54426 79155,79233,79181
 1.6000e+000 79452  1.0711e+000  3.3334e+000  4.7995e+000 54426 79285,79233,79426
 1.6000e+000 79475  4.2235e+000  6.6541e-001  2.9443e+000 54426 79285,79426,79129
 1.6000e+000 79932 -2.0158e+000  2.8045e+000  4.2931e+000 53915 79658,79762,79684
 1.6000e+000 79909 -8.3646e+000 -3.9814e+000  6.9594e+000 53915 79658,79814,79762
 1.6000e+000 79886 -5.0733e+000 -4.3865e+000  1.1738e+001 53915 79762,79814,79788
 1.6000e+000 79863 -5.9822e+000  4.0871e+000  8.4265e+000 53915 79710,79762,79736
 1.6000e+000 79840 -6.4995e+000  2.6493e-001  5.3956e+000 53915 79684,79762,79710
 1.6000e+000 80033 -5.8355e+000 -5.8323e+000 -9.9942e-001 53667 79955,80007,79981
 1.6000e+000 80401 -1.0591e+001 -1.0824e+001  1.9732e-001 53263 80104,80260,80234
 1.6000e+000 80378 -8.3799e+000 -7.0368e+000  1.9870e+000 53263 80078,80260,80104
 1.6000e+000 80355 -7.5727e+000 -8.6813e+000 -7.8150e-001 53263 80104,80234,80130
 1.6000e+000 80332 -7.2559e+000 -5.0617e+000 -7.6221e-001 53263 80130,80208,80182
 1.6000e+000 80309 -9.0737e+000 -8.0077e+000  1.0548e+000 53263 80130,80234,80208
 1.6000e+000 80286 -7.4042e+000 -1.8342e+000  1.4581e+000 53263 80130,80182,80156
 1.6000e+000 80911 -1.1856e+001 -8.8477e+000 -1.1579e+000 52965 80640,80770,80744
 1.6000e+000 80888 -6.3243e+000 -6.5787e+000  2.7024e+000 52965 80614,80770,80640
 1.6000e+000 80865 -7.2002e+000 -3.3881e+000  1.8917e+000 52965 80640,80744,80666
 1.6000e+000 80842 -5.6559e+000 -6.7725e+000  2.2046e+000 52965 80588,80770,80614
 1.6000e+000 80819 -7.3657e+000 -4.0732e+000  2.4752e+000 52965 80666,80718,80692
 1.6000e+000 80796 -1.0370e+001 -5.1994e+000 -1.5296e-001 52965 80666,80744,80718
 1.6000e+000 81262 -4.0278e+001 -1.7895e-001  8.6072e-001 52561 81037,81141,81063
 1.6000e+000 81239 -4.0460e+001 -8.8871e+000  4.2613e-002 52561 81037,81167,81141
 1.6000e+000 81216 -6.9976e+001  5.2914e+000 -2.0943e+000 52561 81063,81115,81089
 1.6000e+000 81193 -7.1243e+001 -8.5425e+000 -8.0773e+000 52561 81063,81141,81115
 1.6000e+000 81719 -8.5388e+000 -8.9349e-001  8.8636e-001 51900 81445,81523,81471
 1.6000e+000 81696 -9.4042e+000 -4.1423e+000  1.7948e-001 51900 81445,81575,81523
 1.6000e+000 81673 -6.2958e+000 -7.6222e-001 -1.2906e+000 51900 81445,81601,81575
 1.6000e+000 81650 -4.8086e+000  2.6963e+000  2.8402e+000 51900 81523,81575,81549
 1.6000e+000 81627 -3.4251e+000 -1.1614e+000  2.2080e+000 51900 81471,81523,81497
 1.6000e+000 82323 -2.4651e+000  1.6783e+000  3.2572e+000 51317 82418,82346,82032
 1.6000e+000 82300 -5.4638e+000  1.6402e+000  2.4616e+000 51317 82490,82346,81954
 1.6000e+000 82277 -1.9311e+000  3.3997e+000  2.8315e+000 51317 82418,82032,82006
 1.6000e+000 82254 -6.6281e+000  6.4472e-001  3.3541e+000 51317 82490,81954,81928
 1.6000e+000 82231 -2.9911e+000 -5.3189e+000  6.4018e+000 51317 82058,82110,82084
 1.6000e+000 82208 -6.4804e+000  7.3487e+000  5.1864e-001 51317 81928,82136,82110
 1.6000e+000 82185  4.6539e+000  3.0881e+000  2.7564e+000 51317 81954,82006,81980
 1.6000e+000 82162 -1.1895e+001  5.0046e+000 -2.9902e-001 51317 81902,82136,81928
 1.6000e+000 82372 -4.5887e+000 -4.7068e+000  2.0307e+000 51317 82058,82032,82346
 1.6000e+000 82395 -4.7256e+000  2.0238e+000  1.4225e+000 51317 82058,82346,82110
 1.6000e+000 82444 -1.6098e+000  1.0407e+000  9.7112e-001 51317 81954,82346,82418
 1.6000e+000 82467 -1.0283e+000  2.7179e+000  5.2678e-001 51317 81954,82418,82006
 1.6000e+000 82516 -5.5631e+000  2.4425e+000  1.8430e+000 51317 82110,82346,82490
 1.6000e+000 82539 -5.5581e+000  2.1767e+000  2.5366e+000 51317 82110,82490,81928
 1.6000e+000 83015 -2.6254e+000  4.6564e-001 -1.9736e-001 50813 82669,82747,82695
 1.6000e+000 82992 -6.9596e+000 -4.0920e-001  5.9827e+000 50813 83038,82669,82851
 1.6000e+000 82969 -7.7110e+000 -2.0185e+000  5.6220e+000 50813 83038,82851,82799
 1.6000e+000 82946 -6.5179e+000 -3.4006e+000  6.9306e+000 50813 82747,82799,82773
 1.6000e+000 82923 -1.4194e+000  5.4179e-001  4.7927e+000 50813 82643,82851,82669
 1.6000e+000 82900 -7.3765e+000 -4.7808e+000  4.0803e+000 50813 82799,82851,82825
 1.6000e+000 82877 -2.4673e+000 -6.8424e-002 -8.5406e-001 50813 82695,82747,82721
 1.6000e+000 83064 -5.4305e+000 -1.7686e+000  7.1163e+000 50813 82747,82669,83038
 1.6000e+000 83087 -6.2754e+000 -3.4058e+000  6.6005e+000 50813 82747,83038,82799
 1.6000e+000 83286  3.8785e+000 -8.6006e+000 -2.8703e+000 50352 83309,83162,83136
 1.6000e+000 83263  3.4781e-001  9.9997e-001 -1.9683e-002 50352 83511,83309,83136
 1.6000e+000 83240  1.1589e+000  2.4329e+000  3.1887e-001 50352 83511,83136,83381
 1.6000e+000 83335  1.1684e+001  6.4843e-001 -7.1604e+000 50352 83188,83162,83309
 1.6000e+000 83358  3.1882e-001 -1.4442e-001 -3.6435e+000 50352 83188,83309,83214
 1.6000e+000 83407  6.6897e-001  9.7815e+000 -2.0864e-001 50352 83110,83214,83381
 1.6000e+000 83537 -3.6942e-001  2.4735e+000 -1.0745e+000 50352 83214,83309,83511
 1.6000e+000 83560 -2.4337e-001  2.6305e+000 -9.7263e-001 50352 83214,83511,83381
 1.6000e+000 83889 -8.3581e+000 -4.2419e+000 -7.2264e-001 49548 83716,83794,83742
 1.6000e+000 83866 -6.9623e+000 -5.4962e+000  1.1233e+000 49548 83690,83794,83716
 1.6000e+000 83843 -9.8239e+000 -8.8394e+000 -3.1838e-001 49548 83664,83794,83690
 1.6000e+000 83820 -8.4640e+000 -4.7508e+000 -5.0039e-001 49548 83742,83794,83768
 1.6000e+000 84137  5.2286e+000  5.5025e+000 -7.0439e-001 49208 84160,84016,83938
 1.6000e+000 84114  9.9381e+000  1.6229e+001 -4.3257e+000 49208 84160,83938,83912
 1.6000e+000 84091  6.6984e+000  4.8929e+000 -1.3551e+000 49208 83938,84016,83964
 1.6000e+000 84068  4.7491e+000  8.8091e-001 -1.9994e+000 49208 83964,84016,83990
 1.6000e+000 84186  8.7297e+000  1.0920e+001 -6.2966e+000 49208 84042,84016,84160
 1.6000e+000 84209  1.0161e+001  1.6983e+001 -9.5546e+000 49208 84042,84160,83912
 1.6000e+000 84796 -1.0456e+001 -4.4912e+000 -6.7081e-001 48861 84499,84629,84551
 1.6000e+000 84773 -5.5604e+000  6.1090e-001  1.3370e+000 48861 84499,84655,84629
 1.6000e+000 84750 -9.2574e+000 -6.3358e-001  1.4393e+000 48861 84551,84629,84577
 1.6000e+000 84727 -1.9749e+000 -9.8770e-001  8.8860e-001 48861 84577,84629,84603
 1.6000e+000 84704 -5.7160e+000 -2.1030e+000 -1.4940e+000 48861 84499,84551,84525
 1.6000e+000 84681 -5.9153e+000 -7.7631e-001 -6.7882e-001 48861 84473,84655,84499
 1.6000e+000 85351 -4.9626e+000 -4.1713e+000  2.9860e+000 48457 85374,85031,85005
 1.6000e+000 85328 -8.7172e-001  1.8572e-001  1.1117e+000 48457 85374,85005,85161
 1.6000e+000 85305  2.0844e+000 -1.9336e+000  1.5935e+000 48457 85446,85057,85031
 1.6000e+000 85282 -4.4616e+000 -1.7930e+000  1.9509e+000 48457 85005,85187,85161
 1.6000e+000 85259 -1.7026e+000  4.1780e-001  7.6304e-002 48457 85083,85161,85109
 1.6000e+000 85236 -4.2650e+000 -2.2287e+000  1.4410e+000 48457 84979,85187,85005
 1.6000e+000 85213 -5.2639e-001  1.2349e+000 -1.1189e+000 48457 85109,85161,85135
 1.6000e+000 85400  6.5623e-001 -1.3774e+000  1.4167e+000 48457 85446,85031,85374
 1.6000e+000 85423 -2.4756e+000 -1.6302e+000  6.0352e-002 48457 85083,85374,85161
 1.6000e+000 85472  3.5056e-001 -1.6820e+000  9.4479e-002 48457 85083,85057,85446
 1.6000e+000 85495 -1.5740e+000 -1.7024e+000 -2.3498e-001 48457 85083,85446,85374
 1.6000e+000 86080  6.9922e+000  2.9745e+000  1.7904e+000 48053 86319,86103,85783
 1.6000e+000 86057  4.9187e+000  5.5980e+000  2.4031e+000 48053 86103,85757,85939
 1.6000e+000 86034  3.0399e+000  3.8865e+000 -5.4755e-001 48053 86247,86175,85887
 1.6000e+000 86011  2.5002e+000  4.1936e+000 -1.8494e+000 48053 86247,85887,85835
 1.6000e+000 85988 -1.7326e-002  3.9712e+000 -1.4844e+000 48053 85887,85939,85913
 1.6000e+000 85965  3.9205e+000  3.0228e+000 -2.9626e+000 48053 85835,85887,85861
 1.6000e+000 86129  7.0039e+000  4.8608e+000  4.6522e-001 48053 85809,85783,86103
 1.6000e+000 86152  5.9336e+000  4.6350e+000  5.9894e-001 48053 86175,85809,86103
 1.6000e+000 86201  4.7297e+000  5.5533e+000  1.2436e-001 48053 85939,85887,86175
 1.6000e+000 86224  4.6118e+000  4.0426e+000  4.1847e-001 48053 85939,86175,86103
 1.6000e+000 86273  6.1967e+000  4.2299e+000 -6.0509e-002 48053 85809,86175,86247
 1.6000e+000 86296  4.2572e+000  3.6737e+000 -1.2744e+000 48053 85809,86247,85835
 1.6000e+000 86345  7.5572e+000  4.6964e+000  2.8307e+000 48053 85757,86103,86319
 1.6000e+000 86851  5.6741e+000 -5.0997e+000  1.4667e+000 47541 86874,86580,86554
 1.6000e+000 86828  1.7097e+000 -6.7572e+000  1.2148e+000 47541 86946,86874,86554
 1.6000e+000 86805  5.2655e-001 -5.6266e+000  1.8054e+000 47541 86946,86554,86528
 1.6000e+000 86782  1.1867e+001 -3.4809e+000  1.2532e+000 47541 86580,86658,86606
 1.6000e+000 86759  6.3536e+000 -3.5811e+000 -2.9814e-001 47541 86528,86710,86684
 1.6000e+000 86736  4.8390e-001  1.2725e-001 -4.1533e-001 47541 86606,86658,86632
 1.6000e+000 86900  3.6771e+000 -6.5186e+000  2.8366e-001 47541 86658,86580,86874
 1.6000e+000 86923  4.5532e+000 -5.5474e+000 -4.5405e-001 47541 86658,86874,86684
 1.6000e+000 86972  3.9326e+000 -4.8470e+000 -3.9649e-001 47541 86684,86874,86946
 1.6000e+000 86995  1.5797e+000 -5.4224e+000  5.7755e-001 47541 86684,86946,86528
 1.6000e+000 87324 -5.3951e+000 -2.4928e+000  2.3377e+000 47044 87151,87203,87177
 1.6000e+000 87301 -7.5666e+000 -5.2588e+000  1.9729e-001 47044 87125,87203,87151
 1.6000e+000 87278 -5.7514e+000 -5.7662e+000  6.5933e-001 47044 87099,87203,87125
 1.6000e+000 87255 -9.0000e+000 -1.1453e+001 -2.7295e+000 47044 87099,87229,87203
 1.6000e+000 87572 -8.5139e+000 -4.9667e+000  1.2791e+000 46697 87595,87425,87373
 1.6000e+000 87549 -8.6422e+000 -5.5800e+000  1.5813e+000 46697 87595,87373,87477
 1.6000e+000 87526 -1.2021e+001 -7.0874e+000  1.2376e+000 46697 87347,87477,87373
 1.6000e+000 87503 -8.4051e+000 -3.8936e+000  1.4382e+000 46697 87373,87425,87399
 1.6000e+000 87621 -8.6771e+000 -3.3211e+000  8.9599e-001 46697 87451,87425,87595
 1.6000e+000 87644 -9.8536e+000 -4.8360e+000  1.5423e+000 46697 87451,87595,87477
 1.6000e+000 87794 -1.3323e+001  2.9727e+000 -1.8689e+000 46235 87693,87745,87719
 1.6000e+000 87771 -1.5325e+001 -1.2172e+001  2.3281e-001 46235 87667,87745,87693
 1.6000e+000 88304 -9.5539e+000 -4.4732e+000  3.1105e+000 45731 88085,88163,88137
 1.6000e+000 88281 -1.1025e+001 -5.8231e+000  2.3177e+000 45731 88007,88163,88085
 1.6000e+000 88258 -1.7162e+001 -9.3891e+000  1.2428e-001 45731 87981,88163,88007
 1.6000e+000 88235 -1.5004e+001 -3.3796e+000  3.5194e+000 45731 88007,88085,88059
 1.6000e+000 88212 -3.2373e+000 -1.9477e+000  6.0741e-001 45731 88085,88137,88111
 1.6000e+000 88189 -1.5253e+001 -2.6383e+000  2.7932e+000 45731 88007,88059,88033
 1.6000e+000 88682 -1.3694e+001 -8.3750e+000 -7.0610e-001 45312 88434,88512,88486
 1.6000e+000 88659 -2.1231e+001 -1.9311e+001  5.1612e+000 45312 88434,88538,88512
 1.6000e+000 88636 -1.3597e+001 -6.3072e+000  1.2513e+000 45312 88434,88564,88538
 1.6000e+000 88613 -7.0483e+000 -1.0989e+001 -4.3269e-001 45312 88434,88486,88460
 1.6000e+000 88590 -1.7622e+001  1.1352e+001  1.7301e+001 45312 88408,88564,88434
 1.6000e+000 88930  9.8294e+000  9.7668e+000 -7.6191e-001 44808 88953,88731,88705
 1.6000e+000 88907  4.5050e+000  5.3226e+000  4.3110e+000 44808 88953,88705,88835
 1.6000e+000 88884  7.1568e+000 -3.6264e+000  5.6902e+000 44808 89025,88783,88757
 1.6000e+000 88861  5.6258e+000 -2.2879e+000  7.3719e+000 44808 88783,88835,88809
 1.6000e+000 88979 -3.8832e-001  3.9258e+000  2.5874e+000 44808 88757,88731,88953
 1.6000e+000 89002  2.3744e+000 -9.0597e-001  6.8055e+000 44808 89025,88757,88953
 1.6000e+000 89051  7.7484e+000 -3.4161e-001  4.6539e+000 44808 88835,88783,89025
 1.6000e+000 89074  6.4947e+000  6.1073e+000  4.4162e+000 44808 88835,89025,88953
 1.6000e+000 89224 -1.2585e+002 -2.7870e+001  7.0190e+000 44404 89123,89175,89149
 1.6000e+000 89201 -1.2018e+002 -3.2787e+000 -1.4488e+000 44404 89097,89175,89123
 1.6000e+000 89783  6.1241e+000  1.4139e+001 -3.9162e+000 43850 89806,89541,89515
 1.6000e+000 89760  3.4111e+000  6.0236e+000 -1.7754e+000 43850 89806,89515,89463
 1.6000e+000 89737  3.6207e+000  6.2555e+000 -7.6558e-001 43850 89950,89878,89593
 1.6000e+000 89714  2.7144e+000  6.4888e+000  5.0636e-001 43850 89950,89593,89567
 1.6000e+000 89691  5.4280e+000  4.4579e+000  7.4253e-001 43850 89411,89619,89463
 1.6000e+000 89668  7.8598e+000  5.3633e+000 -2.4940e+000 43850 89463,89515,89489
 1.6000e+000 89645  5.7914e+000  4.4098e+000  5.4672e-001 43850 89411,89463,89437
 1.6000e+000 89832  2.3859e+000  1.0766e+001  3.4587e-001 43850 89878,89541,89806
 1.6000e+000 89855  5.7499e+000  8.4075e+000  2.4182e-001 43850 89619,89806,89463
 1.6000e+000 89904  3.7904e+000  3.3411e+000  1.0672e+000 43850 89619,89593,89878
 1.6000e+000 89927  4.4162e+000  4.4264e+000  4.8379e-001 43850 89619,89878,89806
 1.6000e+000 89976 -2.3557e-001  4.8500e+000  2.0528e+000 43850 89541,89878,89950
 1.6000e+000 89999 -3.2045e+000  2.5334e+000  3.8138e+000 43850 89541,89950,89567
 1.6000e+000 90247  1.9178e+000  2.5936e+001  5.0789e+000 43488 90022,90074,90048
 1.6000e+000 90224 -5.8329e+000  1.9032e+001  1.3220e+000 43488 90270,90022,90152
 1.6000e+000 90201 -3.6951e+000  1.3079e+001  8.2922e-001 43488 90342,90270,90152
 1.6000e+000 90178 -4.4660e+000  5.4996e+000  9.6285e+000 43488 90342,90152,90126
 1.6000e+000 90296 -3.8802e+000  1.1571e+001  4.7306e+000 43488 90074,90022,90270
 1.6000e+000 90319 -5.9138e+000  1.0543e+001  4.3800e+000 43488 90074,90270,90100
 1.6000e+000 90368 -1.3996e+001  4.1403e+000  8.4869e+000 43488 90100,90270,90342
 1.6000e+000 90391 -1.4775e+001 -4.4276e+000  1.7289e+001 43488 90100,90342,90126
 1.6000e+000 90590 -1.3434e+001 -5.8427e+000 -1.2315e+000 43048 90414,90492,90440
 1.6000e+000 90567 -1.4104e+001 -1.2851e+001  6.6514e-001 43048 90414,90518,90492
 1.6000e+000 90544 -1.4805e+001  5.1704e-001  2.2049e+000 43048 90440,90492,90466
 1.6000e+000 91070 -4.2986e+000 -6.3892e+000 -1.5806e-001 42430 91237,90880,90854
 1.6000e+000 91047 -6.0364e+000 -5.9895e+000  5.1862e-001 42430 90698,90906,90880
 1.6000e+000 91024 -9.4873e+000 -5.7291e+000  2.0644e+000 42430 91093,90750,90698
 1.6000e+000 91001 -6.3696e+000 -6.2137e+000  1.1693e+000 42430 91237,90854,91093
 1.6000e+000 90978 -7.5157e+000 -7.1381e+000  1.1554e+000 42430 91165,90802,90776
 1.6000e+000 90955 -4.3384e+000 -5.8733e+000  1.9625e+000 42430 90802,90854,90828
 1.6000e+000 90932 -9.8258e+000 -6.9289e+000  1.6627e+000 42430 90698,90750,90724
 1.6000e+000 91119 -1.1691e+001 -6.8456e+000  2.4634e+000 42430 90776,90750,91093
 1.6000e+000 91142 -8.2942e+000 -7.8262e+000  1.7901e+000 42430 91165,90776,91093
 1.6000e+000 91191 -7.2211e+000 -6.7307e+000  6.6818e-001 42430 90854,90802,91165
 1.6000e+000 91214 -7.5519e+000 -6.5180e+000  1.2039e+000 42430 90854,91165,91093
 1.6000e+000 91263 -7.5392e+000 -6.2206e+000  4.1526e-001 42430 90698,90880,91237
 1.6000e+000 91286 -9.7748e+000 -6.0214e+000  1.6044e+000 42430 90698,91237,91093
 1.6000e+000 91694  3.2194e+000  3.4720e+000 -2.4017e+000 41769 91469,91573,91495
 1.6000e+000 91671  1.3294e+000  2.3730e+000 -1.9360e+000 41769 91469,91599,91573
 1.6000e+000 91648  4.8520e+000  4.5956e+000 -1.3986e+000 41769 91495,91547,91521
 1.6000e+000 91625  1.6692e+000  3.5752e+000 -2.4152e+000 41769 91495,91573,91547
 1.6000e+000 92040  2.6376e+001  2.1541e+001  6.7362e+000 41379 91769,91873,91847
 1.6000e+000 92017  1.7003e+001  1.4481e+001  2.3091e+000 41379 91743,91873,91769
 1.6000e+000 91994  2.2525e+001  2.2289e+001  6.3182e+000 41379 91769,91847,91795
 1.6000e+000 91971  1.7843e+001  1.3165e+001  3.4549e+000 41379 91743,91899,91873
 1.6000e+000 91948  8.5090e+000  6.5793e+000 -8.7823e-001 41379 91717,91899,91743
 1.6000e+000 91925  1.4551e+001  1.4912e+001  1.3678e+000 41379 91795,91847,91821
 1.6000e+000 92597  1.1407e+000  3.8983e+000 -2.2649e+000 40975 92225,92407,92303
 1.6000e+000 92574 -3.0197e+000  2.9518e+000 -2.0969e+000 40975 92225,92433,92407
 1.6000e+000 92551  1.1865e+000  2.2407e+000 -2.9655e+000 40975 92225,92303,92277
 1.6000e+000 92528 -4.9651e+000  3.2947e+000 -3.8301e+000 40975 92329,92407,92381
 1.6000e+000 92505 -4.9269e+000  1.8441e+000 -3.1049e+000 40975 92303,92407,92329
 1.6000e+000 92482  2.5641e+000  2.4851e-001 -7.2032e-001 40975 92225,92277,92251
 1.6000e+000 92459 -9.9073e+000  2.8484e+000 -2.6116e+000 40975 92329,92381,92355
 1.6000e+000 93231 -4.1480e+001 -2.7702e+000 -5.1401e+000 40521 92937,92989,92963
 1.6000e+000 93208 -1.7620e+001 -2.6744e+000 -9.0321e-001 40521 93254,92937,92885
 1.6000e+000 93185 -1.3362e+001 -2.5773e+000  1.4549e+000 40521 93254,92885,93067
 1.6000e+000 93162 -1.3581e+001 -5.4773e+000 -2.3939e+000 40521 92885,92937,92911
 1.6000e+000 93139 -1.6442e+001 -3.1982e+000  9.9643e-001 40521 92859,93067,92885
 1.6000e+000 93116 -8.9519e+000 -8.7410e-001  6.2680e-001 40521 92989,93067,93015
 1.6000e+000 93093 -4.1088e+000 -2.0639e+000  4.4547e-001 40521 93015,93067,93041
 1.6000e+000 93280 -1.6526e+001 -5.2872e-001  1.9378e+000 40521 92989,92937,93254
 1.6000e+000 93303 -1.1417e+001 -1.8970e+000  3.6680e+000 40521 92989,93254,93067
 1.6000e+000 93632 -5.0535e+000  3.2977e+000  4.1047e+000 40231 93433,93537,93511
 1.6000e+000 93609 -7.8752e+000  2.4277e-001  2.6959e+000 40231 93407,93537,93433
 1.6000e+000 93586 -3.4451e+000  1.7052e+001  5.9423e-001 40231 93459,93511,93485
 1.6000e+000 93563 -5.7884e+000  4.7452e+000 -1.5014e+000 40231 93433,93511,93459
 1.6000e+000 94010 -1.2560e+001  8.7767e+000  1.5314e+000 39869 93762,93866,93788
 1.6000e+000 93987 -4.3661e+000  1.0347e+001  7.8822e-001 39869 93762,93892,93866
 1.6000e+000 93964 -1.6900e+001 -5.3422e-001 -4.5229e-001 39869 93788,93866,93840
 1.6000e+000 93941 -1.8598e+001  4.6390e+000 -7.3972e+000 39869 93788,93840,93814
 1.6000e+000 93918 -7.1400e+000  3.0616e+000  7.0136e-001 39869 93736,93892,93762
 1.6000e+000 94160 -1.4910e+001 -1.2340e+000 -1.1423e+000 39457 94033,94085,94059
 1.6000e+000 94137 -1.5617e+001 -1.0649e+001  1.1622e+000 39457 94033,94111,94085
 1.6000e+000 94359 -4.5028e+000  1.2601e+001  3.6602e+000 39053 94382,94235,94209
 1.6000e+000 94336  8.8455e+000  2.4613e+001 -2.4066e+000 39053 94382,94209,94183
 1.6000e+000 94313 -9.9308e-001  1.6510e+001  8.1866e+000 39053 94183,94287,94261
 1.6000e+000 94408  6.6386e+000  1.9783e+001  4.3088e+000 39053 94454,94382,94261
 1.6000e+000 94431  5.4579e+000  1.9110e+001  6.4095e+000 39053 94261,94382,94183
 1.6000e+000 94480 -5.4319e-001 -1.5280e+000  6.7539e+000 39053 94235,94382,94454
 1.6000e+000 94892 -1.2186e+001  5.1334e+000  1.5054e+000 38392 94915,94771,94719
 1.6000e+000 94869 -1.3516e+001  6.1707e+000  1.7005e+000 38392 94915,94719,94693
 1.6000e+000 94846 -5.7500e+000  8.3800e+000  1.3086e+001 38392 94719,94771,94745
 1.6000e+000 94823 -9.0208e+000  1.0586e+001  3.9957e+000 38392 94667,94797,94693
 1.6000e+000 94941 -1.1888e+001  5.9847e+000  1.1309e+000 38392 94797,94771,94915
 1.6000e+000 94964 -1.2682e+001  7.4371e+000  1.0946e+000 38392 94797,94915,94693
 1.6000e+000 95261  4.9127e+000  4.8519e+000 -1.1129e+000 37831 95013,95065,95039
 1.6000e+000 95238  5.3083e+000  5.1908e+000 -1.2972e+000 37831 95284,95065,95013
 1.6000e+000 95215  4.3745e+000  4.9602e+000 -1.4910e+000 37831 95284,95013,94987
 1.6000e+000 95192  2.9852e+000  3.3897e+000 -1.6521e+000 37831 94987,95143,95117
 1.6000e+000 95169  7.0730e+000  9.5951e-001 -5.3152e+000 37831 95065,95117,95091
 1.6000e+000 95310  4.6918e+000  5.1077e+000 -1.8981e+000 37831 95117,95065,95284
 1.6000e+000 95333  3.9855e+000  5.0753e+000 -2.0645e+000 37831 95117,95284,94987
 1.6000e+000 95554 -1.5741e+001 -1.1665e+000 -2.8303e+000 37419 95404,95456,95430
 1.6000e+000 95531 -8.8978e+000  1.5302e+001 -2.4158e+000 37419 95378,95456,95404
 1.6000e+000 95508 -3.0934e+000  1.9755e+001 -4.3721e+000 37419 95378,95482,95456
 1.6000e+000 95887 -1.6718e+001 -1.3074e+001  1.4934e+000 37221 95662,95714,95688
 1.6000e+000 95864 -1.6060e+001 -1.4468e+001  1.2508e+000 37221 95662,95792,95714
 1.6000e+000 95841 -7.9962e+000 -9.4490e+000 -1.2298e+000 37221 95714,95766,95740
 1.6000e+000 95818 -1.4046e+001 -9.9283e+000  7.5698e-001 37221 95714,95792,95766
 1.6000e+000 95988 -5.3669e+001 -7.6013e+000 -7.4173e+000 36731 95910,95962,95936
 1.6000e+000 96138 -5.3647e+000  1.1860e+001  7.1662e+000 36327 96293,96063,96037
 1.6000e+000 96115 -1.3890e+001  9.5752e+000  1.0861e+001 36327 96161,96037,96011
 1.6000e+000 96187 -5.0436e+000  1.3347e+001  1.2764e+001 36327 96293,96037,96161
 1.6000e+000 96319 -3.9083e+000  1.9396e+001  9.6654e+000 36327 96089,96063,96293
 1.6000e+000 96342 -7.6990e-001  2.2350e+001  1.5950e+001 36327 96089,96293,96161
 1.6000e+000 96710 -1.1490e-001  5.6108e+000  2.7978e+000 36037 96733,96491,96439
 1.6000e+000 96687  2.2242e-001  9.9902e+000  4.2623e+000 36037 96733,96439,96413
 1.6000e+000 96664 -1.4718e+000  4.7810e+000  1.1679e+000 36037 96439,96491,96465
 1.6000e+000 96641 -7.2525e+000  1.6641e+001  2.2778e+000 36037 96387,96517,96413
 1.6000e+000 96618 -7.3096e+000  1.6748e+001  2.3071e+000 36037 96387,96543,96517
 1.6000e+000 96595 -4.1051e-001  1.1677e+001  7.7188e+000 36037 96387,96569,96543
 1.6000e+000 96759 -4.3160e+000  1.0307e+001  1.4580e+000 36037 96517,96491,96733
 1.6000e+000 96782 -1.9158e+000  1.5551e+001  4.6531e+000 36037 96517,96733,96413
 1.6000e+000 96932  4.9916e+000  3.2202e+000 -3.6464e+000 35633 97027,96955,96831
 1.6000e+000 96909  3.3726e+000  1.8845e+000 -2.5956e+000 35633 97159,96955,96805
 1.6000e+000 96981  2.2217e+000  1.5999e+000 -4.3149e+000 35633 96857,96831,96955
 1.6000e+000 97004  3.4608e+000  4.8248e+000 -3.8779e+000 35633 96857,96955,96883
 1.6000e+000 97053  3.8787e+000  2.6028e+000 -3.4016e+000 35633 96805,96955,97027
 1.6000e+000 97185  1.8727e+000  3.6233e+000 -2.2396e+000 35633 96883,96955,97159
 1.6000e+000 97593 -4.4950e+000 -4.8335e+000 -1.9828e+000 35186 97446,97498,97472
 1.6000e+000 97570 -2.1472e+000  1.1263e+000 -2.1794e+000 35186 97368,97498,97446
 1.6000e+000 97547 -3.8341e+000 -1.1391e+000 -8.5022e-001 35186 97368,97446,97394
 1.6000e+000 97524 -5.1040e+000 -1.4520e+000 -1.0480e+000 35186 97394,97446,97420
 1.6000e+000 98050  3.7514e+000  1.1367e+001 -1.9085e+000 34632 97802,97932,97854
 1.6000e+000 98027 -2.8128e+000  1.4682e+000 -5.2084e+000 34632 97776,97932,97802
 1.6000e+000 98004 -2.3911e+000  4.2844e+000  4.9180e+000 34632 97802,97854,97828
 1.6000e+000 97981 -8.6726e+000  6.6855e+000 -1.9484e+000 34632 97880,97932,97906
 1.6000e+000 97958  1.4818e+000  7.0556e+000 -1.0245e+000 34632 97854,97932,97880
 1.6000e+000 98526 -7.4781e+000  3.6191e+000  1.7126e+000 34064 98693,98180,98362
 1.6000e+000 98503 -7.8964e+000 -1.5919e+000 -2.3876e+000 34064 98154,98362,98180
 1.6000e+000 98480 -3.0039e+000  4.7809e+000  8.4897e+000 34064 98549,98258,98232
 1.6000e+000 98457 -1.2267e+001  1.2680e+001  2.0448e+001 34064 98549,98232,98206
 1.6000e+000 98434 -7.1734e+000  2.7703e+000 -3.1330e-001 34064 98837,98621,98362
 1.6000e+000 98411 -9.5457e-001  1.5181e+000  6.7826e+000 34064 98765,98284,98258
 1.6000e+000 98388 -4.4987e+000  2.4687e-001 -3.1851e-001 34064 98837,98362,98336
 1.6000e+000 98575 -1.8037e+000  4.9745e+000  6.0733e+000 34064 98765,98258,98549
 1.6000e+000 98598 -8.2283e+000  3.7140e+000  2.0026e+000 34064 98621,98310,98549
 1.6000e+000 98647 -6.5508e+000  6.1029e+000  1.9010e+000 34064 98693,98362,98621
 1.6000e+000 98670 -3.0509e+000  1.5531e+001  4.3285e+000 34064 98206,98621,98549
 1.6000e+000 98719 -6.8252e+000  6.7447e+000  1.6600e+000 34064 98206,98180,98693
 1.6000e+000 98742 -7.1892e+000  7.0553e+000  1.3697e+000 34064 98206,98693,98621
 1.6000e+000 98791  6.7313e-001  5.2218e+000  4.3552e+000 34064 98310,98284,98765
 1.6000e+000 98814 -8.8178e-001  7.5612e+000  3.5819e+000 34064 98310,98765,98549
 1.6000e+000 98863 -4.9625e+000  5.5952e+000  7.4379e-001 34064 98310,98621,98837
 1.6000e+000 98886 -2.5214e+000  2.6989e+000  6.7746e-001 34064 98310,98837,98336
 1.6000e+000 99264 -2.4299e+000 -1.5297e+000  4.1429e-001 33446 99287,99094,99068
 1.6000e+000 99241 -3.7534e+000  3.2568e+000 -3.1431e+000 33446 99287,99068,99016
 1.6000e+000 99218 -1.5563e+001  4.8738e+000  2.3557e+000 33446 99016,99068,99042
 1.6000e+000 99195 -1.7155e+001 -1.6016e+000 -5.2656e+000 33446 99016,99146,99120
 1.6000e+000 99172 -1.4658e+001  2.4863e+000 -3.2738e+000 33446 98990,99146,99016
 1.6000e+000 99313  3.2023e+000  1.9907e+000 -1.4637e+000 33446 99120,99094,99287
 1.6000e+000 99336 -2.1749e+000  4.9734e+000 -4.1869e+000 33446 99120,99287,99016
 1.6000e+000 99861 -1.1594e+001 -9.8787e-001 -2.4295e+000 32940 100172,99956,99884
 1.6000e+000 99838 -1.1170e+001 -3.4149e+000 -8.3629e-001 32940 100100,99884,99518
 1.6000e+000 99815 -5.6590e+000 -2.6285e+000 -2.8903e+000 32940 100244,99956,99622
 1.6000e+000 99792 -1.8010e+000  2.7821e+000 -3.2749e-001 32940 100028,99648,99622
 1.6000e+000 99769 -1.1547e+001 -6.1707e+000 -1.3981e+000 32940 100100,99518,99492
 1.6000e+000 99746 -1.5593e+000  3.9849e-001  1.0611e-001 32940 99570,99622,99596
 1.6000e+000 99723 -3.1123e+000 -2.1069e+000 -2.0971e+000 32940 100244,99622,99570
 1.6000e+000 99700 -9.5269e+000 -3.0286e+000  1.8510e+000 32940 99440,99492,99466
 1.6000e+000 99910 -8.4840e+000 -1.4906e-001 -1.9765e+000 32940 100172,99884,100028
 1.6000e+000 99933 -1.4911e+001 -7.2290e+000  2.8805e+000 32940 99674,99884,99440
 1.6000e+000 99982 -1.2546e+001 -4.8748e+000 -1.6427e+000 32940 99518,99884,99956
 1.6000e+000 100005 -1.5209e+001 -1.3541e+001 -8.1433e+000 32940 99518,99956,99544
 1.6000e+000 100054 -1.0547e+001  4.4890e+000  1.1797e+000 32940 99674,99648,100028
 1.6000e+000 100077 -1.0940e+001  2.2989e+000  1.5655e+000 32940 99674,100028,99884
 1.6000e+000 100126 -1.1184e+001 -1.9235e+000  9.1280e-001 32940 99440,99884,100100
 1.6000e+000 100149 -1.1077e+001 -3.4253e+000  1.4159e-001 32940 99440,100100,99492
 1.6000e+000 100198 -9.1179e+000 -2.0049e-001  1.7162e-001 32940 99622,99956,100172
 1.6000e+000 100221 -8.3369e+000 -1.2865e-001  8.5799e-001 32940 99622,100172,100028
 1.6000e+000 100270 -9.6979e+000 -1.7233e+000 -3.8564e+000 32940 99544,99956,100244
 1.6000e+000 100293 -7.4682e+000 -1.4728e+000 -3.1067e+000 32940 99544,100244,99570
 1.6000e+000 100750  1.7705e+000  5.6317e+000  1.1598e+000 32365 100773,100580,100502
 1.6000e+000 100727  3.7420e+000  4.9119e+000  2.2941e+000 32365 100773,100502,100632
 1.6000e+000 100704  7.1755e+000 -2.0072e+000 -3.4554e+000 32365 100476,100632,100502
 1.6000e+000 100681 -7.1893e-001  2.4994e+000  1.3396e-001 32365 100528,100580,100554
 1.6000e+000 100658  4.1313e+000  5.7910e+000 -1.5900e+000 32365 100502,100580,100528
 1.6000e+000 100799  3.2501e+000  7.1104e+000  1.7953e+000 32365 100606,100580,100773
 1.6000e+000 100822  4.7627e+000  5.8989e+000  2.7887e+000 32365 100606,100773,100632
 1.6000e+000 101021 -4.2268e-001  6.7675e+000  5.5888e+000 31853 100871,100923,100897
 1.6000e+000 100998  6.4030e+000  1.4095e+001  8.6123e+000 31853 100871,100949,100923
 1.6000e+000 100975 -3.7339e-002 -1.1559e+000  8.1412e+000 31853 100845,100949,100871
 1.6000e+000 101529  1.1090e+000  2.7932e+000 -5.2914e+000 31249 101552,101310,101232
 1.6000e+000 101506  3.3193e+000  4.8864e+000 -6.3120e+000 31249 101552,101232,101206
 1.6000e+000 101483  2.8742e+000  5.4813e-001 -3.5553e+000 31249 101206,101388,101336
 1.6000e+000 101460 -1.4061e+000 -4.8967e-001 -4.0750e+000 31249 101232,101284,101258
 1.6000e+000 101437  3.1284e-001  4.5384e+000 -4.5026e+000 31249 101232,101310,101284
 1.6000e+000 101414  4.0436e+000 -1.4861e-001 -7.6328e-001 31249 101336,101388,101362
 1.6000e+000 101578  1.5564e+000  1.0048e-001 -2.9050e+000 31249 101336,101310,101552
 1.6000e+000 101601  3.9996e+000  2.5829e+000 -3.9949e+000 31249 101336,101552,101206
 1.6000e+000 101751 -1.7928e+001  1.9704e+001 -4.8891e-001 30515 101774,101650,101624
 1.6000e+000 101728 -1.0286e+001  2.2947e+001 -1.5556e+000 30515 101846,101774,101624
 1.6000e+000 101800 -1.5993e+001  2.3579e+001  5.5439e-001 30515 101676,101650,101774
 1.6000e+000 101823 -1.5340e+001  1.5660e+001  1.2892e+000 30515 101676,101774,101702
 1.6000e+000 101872 -1.7643e+001  5.7353e+000 -1.8321e+000 30515 101702,101774,101846
 1.6000e+000 102557  8.1712e-001  1.3832e+000  1.3087e+000 29947 102652,102580,102266
 1.6000e+000 102534  1.9516e+000  3.0375e+000  2.5383e+000 29947 102580,102136,102370
 1.6000e+000 102511 -2.3176e-003 -4.4656e-001  1.0212e+000 29947 102724,102652,102266
 1.6000e+000 102488  5.4979e-001 -1.8637e+000  6.5660e-001 29947 102724,102266,102240
 1.6000e+000 102465  1.6154e+000  2.1026e+000  1.4919e+000 29947 102796,102318,102292
 1.6000e+000 102442 -5.8550e-001  9.4026e-001 -6.7560e-001 29947 102162,102214,102188
 1.6000e+000 102419  5.9306e-002  5.8235e-001 -1.1999e+000 29947 102162,102240,102214
 1.6000e+000 102396  3.0489e+000  6.1216e+000  3.3559e+000 29947 102318,102370,102344
 1.6000e+000 102606  1.3130e+000  5.9246e-001  1.3046e+000 29947 102292,102266,102580
 1.6000e+000 102629  1.5329e+000  1.5993e+000  1.5262e+000 29947 102796,102292,102580
 1.6000e+000 102678  1.2960e+000  8.7662e-001  2.0994e+000 29947 102136,102580,102652
 1.6000e+000 102701  9.1678e-001  7.8875e-001  1.8965e+000 29947 102136,102652,102162
 1.6000e+000 102750  9.4214e-001  1.3704e+000  1.7315e+000 29947 102162,102652,102724
 1.6000e+000 102773  9.7710e-001 -2.0120e-001  1.0464e+000 29947 102162,102724,102240
 1.6000e+000 102822  1.5883e+000  1.5347e+000  1.7189e+000 29947 102370,102318,102796
 1.6000e+000 102845  1.6426e+000  1.2916e+000  1.8027e+000 29947 102370,102796,102580
 1.6000e+000 103044 -1.8789e+001 -1.4314e+001  1.1712e+000 29450 102868,102920,102894
 1.6000e+000 103021 -1.8223e+001 -1.4088e+001  9.7789e-001 29450 102868,102972,102920
 1.6000e+000 102998 -1.9657e+001 -1.5660e+001  2.2383e-001 29450 102920,102972,102946
 1.6000e+000 103292 -4.8030e-001 -3.0531e+000  5.1079e+000 29060 103315,103171,103119
 1.6000e+000 103269 -5.5674e+000 -3.1366e+000  6.6304e+000 29060 103315,103119,103067
 1.6000e+000 103246  1.9242e+000 -7.3484e-002  3.2026e+000 29060 103119,103171,103145
 1.6000e+000 103223 -2.5265e+000 -1.8892e+000  7.8272e+000 29060 103067,103119,103093
 1.6000e+000 103341  4.3949e+000 -3.7145e+000  2.4993e+000 29060 103197,103171,103315
 1.6000e+000 103364 -2.3185e+000 -2.8539e+000  2.2371e+000 29060 103197,103315,103067
 1.6000e+000 104002 -1.2780e+001 -6.9525e+000 -6.3539e+000 28599 104097,104025,103708
 1.6000e+000 103979 -7.7085e+000 -1.8671e+000 -9.0908e-001 28599 104169,104025,103656
 1.6000e+000 103956 -6.6998e+000 -1.1256e+001 -5.8039e+000 28599 104097,103708,103682
 1.6000e+000 103933 -5.3115e+000  1.6098e-001 -3.4991e-002 28599 104169,103656,103630
 1.6000e+000 103910 -2.9124e+000  1.7924e+001  1.4975e+000 28599 103760,103812,103786
 1.6000e+000 103887 -6.9405e+000  2.0067e+000  5.3928e+000 28599 103630,103838,103812
 1.6000e+000 103864 -6.2777e+000 -3.4976e+000  4.2765e-001 28599 103708,103760,103734
 1.6000e+000 104051 -1.4103e+001  1.4605e+000 -2.3407e+000 28599 103760,103708,104025
 1.6000e+000 104074 -6.6361e+000  1.9395e+000  1.6480e+000 28599 103760,104025,103812
 1.6000e+000 104123 -6.9041e+000 -3.6954e-001 -3.8821e+000 28599 103656,104025,104097
 1.6000e+000 104146 -1.4014e+000 -6.5251e+000 -3.6671e+000 28599 103656,104097,103682
 1.6000e+000 104195 -9.2554e+000  8.4395e-001 -3.4743e-001 28599 103812,104025,104169
 1.6000e+000 104218 -8.3503e+000  1.6013e+000 -1.3084e-002 28599 103812,104169,103630
 1.6000e+000 104596  1.6183e+000 -2.2811e+000 -3.1641e-001 28344 104619,104374,104322
 1.6000e+000 104573  6.2274e-002 -4.3208e+000  1.7036e+000 28344 104619,104322,104478
 1.6000e+000 104550 -1.8287e+000 -1.1205e+000  1.0394e+000 28344 104322,104374,104348
 1.6000e+000 104527  4.7658e+000 -8.0551e+000 -8.8293e+000 28344 104400,104452,104426
 1.6000e+000 104504  4.6702e+000 -1.0614e+001 -6.4449e+000 28344 104374,104452,104400
 1.6000e+000 104645  1.9344e+000  8.4398e-001 -2.7545e+000 28344 104452,104374,104619
 1.6000e+000 104668 -4.3870e-001 -1.3886e+000 -5.7043e-001 28344 104452,104619,104478
 1.6000e+000 104987  1.0088e+000  3.2851e+000  1.6236e+000 27947 104713,104843,104765
 1.6000e+000 104964 -6.8067e-002  4.7875e+000 -1.6986e-001 27947 104713,104869,104843
 1.6000e+000 104941  1.0597e+000  5.1664e-001 -1.6237e-001 27947 104765,104843,104791
 1.6000e+000 104918  1.1980e+000  5.3368e-001  6.8577e-002 27947 104791,104843,104817
 1.6000e+000 104895 -5.0412e-001 -6.2690e-001  1.3418e+000 27947 104713,104765,104739
 1.6000e+000 105367 -1.4707e+001 -9.6667e+000  1.1698e+000 27443 105390,105197,105119
 1.6000e+000 105344 -1.9538e+001 -1.1139e+001  2.1613e+000 27443 105390,105119,105093
 1.6000e+000 105321 -1.6877e+001 -1.1677e+001  2.0387e+000 27443 105119,105197,105145
 1.6000e+000 105298 -1.0374e+001 -1.1058e+001 -9.3252e-001 27443 105197,105249,105223
 1.6000e+000 105275 -1.5352e+001 -8.3626e+000  4.3859e+000 27443 105145,105197,105171
 1.6000e+000 105416 -1.1411e+001 -1.0342e+001 -2.1171e+000 27443 105249,105197,105390
 1.6000e+000 105439 -1.6912e+001 -1.1730e+001 -1.4891e+000 27443 105249,105390,105093
 1.6000e+000 105994 -6.7209e+000 -2.1913e+000 -9.6983e-001 27096 106161,106017,105700
 1.6000e+000 105971 -8.5147e+000 -1.2624e+000  2.0336e-002 27096 106305,106017,105648
 1.6000e+000 105948 -1.7571e+000 -5.2921e-001 -1.5529e+000 27096 106089,105804,105778
 1.6000e+000 105925 -7.2163e+000 -2.4581e+000 -5.3004e-001 27096 106161,105700,105674
 1.6000e+000 105902 -5.5466e+000 -2.8457e+000 -9.2451e-001 27096 106233,105726,105700
 1.6000e+000 105879 -2.0325e+001 -2.0267e+000  1.7606e+000 27096 106305,105648,105622
 1.6000e+000 105856 -3.4751e+000 -2.8560e+000 -9.3971e-002 27096 105726,105778,105752
 1.6000e+000 106043 -6.3029e+000 -2.2400e+000 -5.4387e-001 27096 106233,105700,106017
 1.6000e+000 106066 -4.1256e+000 -1.5937e+000 -5.0951e-001 27096 106089,105778,106017
 1.6000e+000 106115 -4.4781e+000 -1.6077e+000 -1.0003e+000 27096 105830,105804,106089
 1.6000e+000 106138 -6.0831e+000 -1.2188e+000 -6.4210e-001 27096 106377,106089,106017
 1.6000e+000 106187 -7.5836e+000 -1.2853e+000  1.7587e-001 27096 105648,106017,106161
 1.6000e+000 106210 -9.1268e+000 -3.2053e+000  9.4420e-001 27096 105648,106161,105674
 1.6000e+000 106259 -4.7698e+000 -2.1717e+000 -1.2944e+000 27096 105778,105726,106233
 1.6000e+000 106282 -5.6974e+000 -1.7781e+000 -8.5737e-001 27096 105778,106233,106017
 1.6000e+000 106331 -6.7452e+000 -7.8698e-001 -1.8651e+000 27096 106377,106017,106305
 1.6000e+000 106354 -6.5261e+000  7.8475e+000 -2.8710e+000 27096 105830,106305,105622
 1.6000e+000 106403 -4.0049e+000 -3.0879e-001 -9.7916e-001 27096 105830,106089,106377
 1.6000e+000 106426 -4.2504e+000  2.9732e-001 -2.0214e+000 27096 105830,106377,106305
 1.6000e+000 106625 -2.0002e+001 -8.1426e+000  1.7015e+000 26684 106475,106553,106527
 1.6000e+000 106602 -2.1251e+001 -9.5291e+000  1.1777e+000 26684 106449,106553,106475
 1.6000e+000 106579 -2.4805e+001 -7.7863e+000 -2.2171e+000 26684 106475,106527,106501
 1.6000e+000 107084 -8.3602e-001 -4.0322e+000 -3.5986e-001 26244 107107,106914,106862
 1.6000e+000 107061 -1.2297e+000 -4.5022e+000 -1.2490e-001 26244 107107,106862,106836
 1.6000e+000 107038 -3.9855e+000 -4.6570e+000  2.0606e-001 26244 106810,106966,106836
 1.6000e+000 107015 -7.3856e-002 -4.2262e+000  2.5308e-001 26244 106862,106914,106888
 1.6000e+000 106992 -1.5037e+000 -3.1730e+000  4.5299e-002 26244 106914,106966,106940
 1.6000e+000 107133 -1.2014e+000 -3.7530e+000  2.7453e-001 26244 106966,106914,107107
 1.6000e+000 107156 -1.6585e+000 -4.6314e+000  5.3752e-001 26244 106966,107107,106836
 1.6000e+000 107662  1.9588e+000 -1.3702e+000  7.4037e-001 25904 107365,107495,107391
 1.6000e+000 107639  1.3624e+000 -3.1543e-001  5.3341e-001 25904 107365,107521,107495
 1.6000e+000 107616  7.2800e-001 -2.1091e+000  2.4501e-001 25904 107391,107469,107443
 1.6000e+000 107593  1.9870e+000 -1.4101e+000 -7.9352e-002 25904 107391,107495,107469
 1.6000e+000 107570  3.4825e-001 -2.9587e+000  3.2742e-001 25904 107391,107443,107417
 1.6000e+000 107547  1.1421e+000 -6.3691e-002  2.5159e+000 25904 107339,107521,107365
 1.6000e+000 108247 -1.3129e+000 -2.0408e+000 -4.7859e-001 25450 108270,108002,107950
 1.6000e+000 108224 -1.0789e-001 -2.0711e+000  5.6435e-003 25450 108270,107950,108106
 1.6000e+000 108201  5.3292e-002 -2.5658e+000  8.1584e-002 25450 108342,108028,108002
 1.6000e+000 108178 -1.9920e+000 -3.0034e+000 -1.3631e-001 25450 107950,108002,107976
 1.6000e+000 108155 -1.7661e+000 -8.0555e-001  3.0965e-001 25450 107924,108106,107950
 1.6000e+000 108132 -1.7542e-001 -1.6981e+000  4.9511e-001 25450 108054,108106,108080
 1.6000e+000 108296 -5.9287e-001 -2.0522e+000  1.2153e-001 25450 108342,108002,108270
 1.6000e+000 108319  2.2175e-001 -1.6159e+000  3.4211e-001 25450 108054,108270,108106
 1.6000e+000 108368  1.3133e+000 -2.1460e+000 -2.3513e-001 25450 108054,108028,108342
 1.6000e+000 108391  3.4200e-001 -1.7902e+000 -2.9514e-001 25450 108054,108342,108270
 1.6000e+000 108818 -1.0516e+001  3.4985e+000  8.9777e-001 24939 108521,108677,108651
 1.6000e+000 108795 -1.8839e+001 -1.0763e-001 -6.5351e+000 24939 108495,108677,108521
 1.6000e+000 108772 -5.5478e+000  5.6321e+000  1.2428e+000 24939 108521,108651,108625
 1.6000e+000 108749 -9.7277e+000  6.9409e+000  8.8504e-001 24939 108521,108625,108599
 1.6000e+000 108726  3.7272e-001  2.1656e+000  8.8795e-001 24939 108547,108599,108573
 1.6000e+000 108703 -8.5125e+000  5.0330e+000 -1.1738e+000 24939 108521,108599,108547
 1.6000e+000 109403  1.1960e+001  6.7321e+000 -1.7980e+000 24741 109158,109210,109184
 1.6000e+000 109380  5.1566e+000  5.0213e+000 -1.8631e+000 24741 109158,109262,109210
 1.6000e+000 109357  7.2090e+000  6.8574e+000 -4.7336e-001 24741 109080,109262,109158
 1.6000e+000 109334  2.1115e+000  5.4836e+000  1.8643e+000 24741 109080,109158,109132
 1.6000e+000 109311  1.5385e+001  1.0476e+001 -4.7366e+000 24741 109210,109262,109236
 1.6000e+000 109288  5.2981e+000  5.4028e+000  3.4483e+000 24741 109080,109132,109106
 1.6000e+000 109781  1.5191e+000 -2.1761e+000  4.4300e-001 24337 109533,109611,109559
 1.6000e+000 109758  1.5440e+000 -9.9048e-001 -1.1200e-001 24337 109533,109637,109611
 1.6000e+000 109735  1.7730e+000 -2.6796e+000 -3.5704e-001 24337 109559,109611,109585
 1.6000e+000 109712  1.5301e+000 -9.7947e-001  1.8190e-002 24337 109533,109663,109637
 1.6000e+000 109689  1.9714e+000  5.3096e-001  8.0020e-001 24337 109507,109663,109533
 1.6000e+000 110159 -7.5282e+000 -1.0054e+001 -1.3740e+000 23833 110182,109963,109911
 1.6000e+000 110136 -9.6218e+000 -1.1323e+001 -7.9137e-001 23833 110182,109911,109885
 1.6000e+000 110113 -4.7417e+000 -6.5878e+000 -3.4562e+000 23833 109885,110041,109989
 1.6000e+000 110090 -6.6008e+000 -6.0810e+000 -8.3338e-001 23833 109911,109963,109937
 1.6000e+000 110067 -8.3737e+000 -1.3656e+001 -4.8122e+000 23833 109989,110041,110015
 1.6000e+000 110208 -8.4496e+000 -9.7755e+000 -2.2077e+000 23833 109989,109963,110182
 1.6000e+000 110231 -8.9138e+000 -1.0184e+001 -1.8858e+000 23833 109989,110182,109885
 1.6000e+000 110332  1.9137e+000  2.7779e-001  1.7577e-001 23429 110254,110306,110280
 1.6000e+000 110580  2.7833e-001 -2.2898e-001  2.0531e+000 22825 110603,110407,110381
 1.6000e+000 110557  1.7015e-001 -4.9822e-001  3.3435e+000 22825 110603,110381,110485
 1.6000e+000 110534  2.6444e+000  1.6750e+000  2.2965e+000 22825 110433,110485,110459
 1.6000e+000 110511 -4.2255e-001  7.4192e+000  3.7497e+000 22825 110355,110485,110381
 1.6000e+000 110629  7.6462e-001  1.2348e+000  1.8031e+000 22825 110433,110407,110603
 1.6000e+000 110652  6.6225e-001  5.5495e-001  3.0009e+000 22825 110433,110603,110485
 1.6000e+000 110902 -1.7918e+001  2.1579e+000 -2.1187e+000 22428 110703,110755,110729
 1.6000e+000 110879 -1.2316e+001 -1.0474e+000 -2.6136e+000 22428 110703,110781,110755
 1.6000e+000 110856 -1.6369e+001 -3.1744e+000 -4.6267e+000 22428 110703,110807,110781
 1.6000e+000 110833 -2.5963e+001 -7.1646e+000 -9.5151e+000 22428 110677,110807,110703
 1.6000e+000 111284  8.6530e+000 -2.1386e+000 -5.7773e+000 22138 111088,111140,111114
 1.6000e+000 111261  7.5329e+000  7.0694e-001 -7.6250e+000 22138 111062,111140,111088
 1.6000e+000 111238  6.0248e+000 -2.5970e-001 -3.1023e+000 22138 111036,111140,111062
 1.6000e+000 111215 -1.7653e+000 -2.9333e+000 -5.3672e+000 22138 111010,111140,111036
 1.6000e+000 111192 -1.4390e+000 -2.4884e+000 -5.7875e+000 22138 111010,111166,111140
 1.6000e+000 111385 -2.3244e+001 -7.5131e+000  2.7028e+000 21826 111307,111359,111333
 1.6000e+000 111731 -2.5560e+001 -6.2885e+000  2.7931e+000 21264 111754,111538,111434
 1.6000e+000 111708 -2.1229e+001 -4.6830e+000  3.4448e-001 21264 111754,111434,111408
 1.6000e+000 111685 -2.6910e+001 -3.1786e+000  1.9136e+000 21264 111434,111538,111460
 1.6000e+000 111662 -3.5035e+001 -6.6845e+000  3.3003e+000 21264 111460,111538,111486
 1.6000e+000 111639 -1.8923e+001 -8.2423e+000  5.9496e+000 21264 111408,111590,111564
 1.6000e+000 111616 -3.8985e+001  4.4500e+000  8.4637e+000 21264 111486,111538,111512
 1.6000e+000 111780 -2.7024e+001 -6.7556e+000  3.9868e+000 21264 111564,111538,111754
 1.6000e+000 111803 -2.5443e+001 -9.1831e+000  2.4606e+000 21264 111564,111754,111408
 1.6000e+000 111955 -2.7023e+000  1.3273e+000  5.1726e-001 20860 111978,111906,111880
 1.6000e+000 111932 -2.3450e+000 -7.6819e-001 -9.7045e-001 20860 112110,111828,111906
 1.6000e+000 112004 -3.4849e+000  1.3811e+000 -1.6691e-001 20860 112110,111906,111978
 1.6000e+000 112136 -1.6347e+000  1.1526e+000 -9.8815e-001 20860 111854,111828,112110
 1.6000e+000 112159 -2.3978e+000  3.9879e+000 -3.5099e-001 20860 111854,112110,111978
 1.6000e+000 112407 -7.5686e+000 -1.9883e+000 -2.7526e+000 20320 112182,112286,112208
 1.6000e+000 112384 -2.2063e+000  7.9540e-001 -3.7500e+000 20320 112182,112312,112286
 1.6000e+000 112361 -4.8624e+000  1.7096e-002 -1.8618e+000 20320 112208,112286,112260
 1.6000e+000 112338 -1.6060e+001  4.2873e+000 -7.1428e+000 20320 112208,112260,112234
 1.6000e+000 112655  7.9459e-001 -6.7416e+000  3.1643e+000 19916 112508,112560,112534
 1.6000e+000 112632 -2.7025e+000 -9.1270e+000  1.8594e+000 19916 112430,112560,112508
 1.6000e+000 112609 -3.5908e+000 -1.2032e+001  2.0603e+000 19916 112430,112508,112456
 1.6000e+000 112586 -2.1768e+000 -5.0909e+000  8.7340e-001 19916 112456,112508,112482
 1.6000e+000 112807 -1.0353e+001 -7.0843e-001 -1.2532e-001 19626 112680,112732,112706
 1.6000e+000 112784 -7.2437e+000 -1.9340e+000 -1.8241e+000 19626 112680,112758,112732
 1.6000e+000 113008 -7.0993e+000 -3.9138e+000  2.8100e+000 19165 112858,112936,112884
 1.6000e+000 112985 -1.5401e+001 -8.4777e+000 -1.2552e+000 19165 112832,112936,112858
 1.6000e+000 112962 -2.4102e+000 -2.2145e+000 -2.3322e-001 19165 112884,112936,112910
 1.6000e+000 113209 -4.7968e+000 -2.4887e+000  1.7094e-001 18596 113033,113085,113059
 1.6000e+000 113186 -9.6764e-001 -1.7379e+000 -7.9933e-001 18596 113033,113111,113085
 1.6000e+000 113163 -2.5923e+000 -3.1303e+000 -2.6567e-002 18596 113033,113137,113111
 1.6000e+000 113481 -2.8221e+000 -3.2886e+000  4.6578e-001 18348 113256,113308,113282
 1.6000e+000 113458 -5.6567e-002 -2.6705e+000  1.2202e-001 18348 113256,113386,113308
 1.6000e+000 113435  4.2900e-001 -2.1832e+000  5.5149e-001 18348 113308,113386,113360
 1.6000e+000 113412  1.1142e+000 -3.0347e+000  8.8220e-002 18348 113308,113360,113334
 1.6000e+000 113753  7.5597e-001 -2.7755e+000  4.6531e-002 17830 113554,113606,113580
 1.6000e+000 113730  1.8949e+000 -2.6477e+000  1.1746e-001 17830 113528,113606,113554
 1.6000e+000 113707  2.3113e+000 -1.6261e+000  3.9744e-001 17830 113528,113658,113606
 1.6000e+000 113684  1.4517e+000 -2.7725e+000 -4.9847e-002 17830 113606,113658,113632
 1.6000e+000 113954  3.4923e-001 -2.5876e+000 -1.7514e+000 17326 113778,113830,113804
 1.6000e+000 113931  8.2849e+000 -9.1912e+000 -3.9596e+000 17326 113778,113882,113830
 1.6000e+000 113908  1.0941e+001 -3.6229e+000 -3.1405e+000 17326 113830,113882,113856
 1.6000e+000 114106  2.6928e+000 -2.6933e+000  1.8370e-001 16870 113979,114031,114005
 1.6000e+000 114083  2.2454e+000 -2.2156e+000  2.9113e-001 16870 113979,114057,114031
 1.6000e+000 114461 -6.2508e+000  4.9162e+000 -6.6992e+000 16266 114236,114288,114262
 1.6000e+000 114438 -5.3141e+000 -4.5588e+000 -1.2140e+000 16266 114236,114366,114288
 1.6000e+000 114415 -2.4467e+000 -8.2814e-001  1.9372e+000 16266 114288,114340,114314
 1.6000e+000 114392 -2.3947e+000 -1.2860e+000  1.2979e-001 16266 114288,114366,114340
 1.6000e+000 114562 -2.3397e+001  9.1688e-001  0.0000e+000 15830 114484,114536,114510
 1.6000e+000 114663 -1.6619e+000 -5.1031e+000  1.0777e+000 15151 114585,114637,114611
 1.6000e+000 114886  6.3922e+000  3.3346e+000  2.9273e+000 417 114762,114814,114788
 1.6000e+000 114863  4.0524e+000  1.6380e-001  1.5881e+000 417 114710,114814,114762
 1.6000e+000 114840 -1.7417e+000  9.3605e-001  4.6976e-001 417 114710,114762,114736
 1.7000e+000 66549 -2.9027e-001 -3.0161e+000  2.5702e-002 66104 66350,66454,66428
 1.7000e+000 66526  8.3019e-002 -3.0011e+000  5.3557e-001 66104 66324,66454,66350
 1.7000e+000 66503 -1.0066e-002 -1.3114e+000 -5.3577e-002 66104 66350,66428,66402
 1.7000e+000 66480  2.8818e-001 -3.7133e+000 -3.6622e-001 66104 66350,66402,66376
 1.7000e+000 66947  8.1345e-001 -2.0578e-002 -1.1407e-001 65906 66699,66829,66803
 1.7000e+000 66924 -1.7738e-001 -2.1828e-001 -2.3845e-001 65906 66673,66829,66699
 1.7000e+000 66901  1.4639e+000  4.0844e-001  1.8415e-001 65906 66725,66777,66751
 1.7000e+000 66878 -3.4056e+000  4.1358e-001 -2.1167e-001 65906 66725,66803,66777
 1.7000e+000 66855  1.4929e+000 -4.9525e+000 -1.3322e+000 65906 66699,66803,66725
 1.7000e+000 67146 -7.0821e-001  9.6714e-002 -9.5822e-002 65708 67022,67074,67048
 1.7000e+000 67123  7.3031e-001 -3.1621e-001 -2.2051e-002 65708 66970,67074,67022
 1.7000e+000 67100 -4.0300e-001 -9.4206e-001  1.7806e-001 65708 66970,67022,66996
 1.7000e+000 67477 -1.5091e+000 -3.0760e+000 -2.4562e+000 65418 67278,67356,67330
 1.7000e+000 67454 -2.6410e-001  2.9728e+000 -1.3468e+000 65418 67278,67382,67356
 1.7000e+000 67431 -2.0645e+000 -9.5657e-001 -4.6013e+000 65418 67278,67330,67304
 1.7000e+000 67408 -3.9111e-001 -2.0189e-001 -1.9211e+000 65418 67252,67382,67278
 1.7000e+000 68111 -7.0625e-001  9.4950e-002 -4.0432e-001 65014 67791,67921,67869
 1.7000e+000 68088 -8.2219e-001  1.0447e-001 -1.2643e+000 65014 67765,67921,67791
 1.7000e+000 68065 -1.4495e+000 -1.9295e+000 -8.2875e-001 65014 67869,67921,67895
 1.7000e+000 68042  1.3954e-001 -9.5243e-001 -9.6216e-001 65014 67765,67947,67921
 1.7000e+000 68019  6.7643e-001 -3.1983e-001 -1.2469e+000 65014 67791,67869,67817
 1.7000e+000 67996  1.8415e+000 -8.4391e-001 -4.0494e-001 65014 67817,67869,67843
 1.7000e+000 67973  1.1508e+000  5.8487e-001  2.9861e-001 65014 67739,67947,67765
 1.7000e+000 68359 -1.3155e+000 -5.0082e+000  3.4425e-001 64816 68186,68238,68212
 1.7000e+000 68336 -9.9176e-001 -8.1348e+000  6.5182e-001 64816 68186,68264,68238
 1.7000e+000 68313 -9.5421e-001 -8.0722e+000  1.1662e+000 64816 68160,68264,68186
 1.7000e+000 68290 -1.2373e+000 -7.5468e+000  4.9097e-001 64816 68134,68264,68160
 1.7000e+000 68509  1.2569e-001 -2.2227e+000  1.5217e-001 64362 68864,68532,68434
 1.7000e+000 68486 -2.5078e+000 -1.9622e+000  1.0267e+000 64362 68532,68408,68382
 1.7000e+000 68558  4.8333e-002 -1.9017e+000  8.3082e-001 64362 68736,68532,68460
 1.7000e+000 68581 -4.4111e-001 -1.6063e+000  1.5801e-001 64362 68604,68532,68382
 1.7000e+000 68630  1.7150e+000  1.5474e-001  2.0723e+000 64362 68460,68532,68604
 1.7000e+000 68762  1.1063e+000 -8.1502e-002 -7.3325e-002 64362 68434,68532,68736
 1.7000e+000 68890 -1.0172e+000 -1.4408e+000 -3.0776e-001 64362 68408,68532,68864
 1.7000e+000 69168 -2.4319e+000 -5.6972e+000  1.4615e+000 64164 69018,69070,69044
 1.7000e+000 69145 -6.6988e-001 -8.2571e+000  1.0040e+000 64164 68992,69070,69018
 1.7000e+000 69122 -9.3967e-001 -8.9348e+000  1.1321e+000 64164 68992,69096,69070
 1.7000e+000 69367  4.9755e-001 -4.2093e+000 -1.0320e+000 63966 69462,69390,69269
 1.7000e+000 69344 -3.5561e+000 -1.0237e+001  1.1863e+000 63966 69390,69243,69217
 1.7000e+000 69321 -1.1210e+000 -6.7979e+000 -7.8415e-001 63966 69191,69295,69217
 1.7000e+000 69416  2.8591e+000 -6.8052e+000 -2.3193e+000 63966 69295,69269,69390
 1.7000e+000 69439 -7.5293e-001 -7.1303e+000 -6.3181e-001 63966 69295,69390,69217
 1.7000e+000 69488 -2.8973e+000 -9.7953e+000 -2.4556e+000 63966 69243,69390,69462
 1.7000e+000 69900  1.5731e+000 -2.1769e+000  9.0933e-001 63676 69701,69779,69727
 1.7000e+000 69877 -2.8769e-002 -2.8486e+000  1.0878e+000 63676 69675,69779,69701
 1.7000e+000 69854  2.7032e-001 -3.9720e+000  1.3062e+000 63676 69675,69805,69779
 1.7000e+000 69831  4.9310e+000 -4.2065e+000  4.4833e-001 63676 69727,69779,69753
 1.7000e+000 70050 -4.4814e-001 -7.9725e+000  3.7330e-001 63472 70073,69949,69923
 1.7000e+000 70027  1.5008e+000 -8.2643e+000  8.6403e-002 63472 70073,69923,70001
 1.7000e+000 70099 -1.5613e+000 -8.3789e+000  5.1761e-001 63472 69975,69949,70073
 1.7000e+000 70122  1.4773e-001 -8.8326e+000  2.7285e-001 63472 69975,70073,70001
 1.7000e+000 70321  1.5427e+000 -5.5152e+000  1.5133e+000 63274 70145,70223,70171
 1.7000e+000 70298  2.6732e-001 -7.3039e+000 -3.3480e-001 63274 70145,70249,70223
 1.7000e+000 70275  1.7327e+000 -6.4330e+000  2.0204e+000 63274 70171,70223,70197
 1.7000e+000 70593  1.1129e+000 -3.8401e+000  8.7971e-001 63076 70368,70472,70420
 1.7000e+000 70570  1.6208e+000 -9.2856e+000  4.8429e-001 63076 70368,70498,70472
 1.7000e+000 70547  2.8481e+000 -7.4955e+000 -2.5536e+000 63076 70420,70472,70446
 1.7000e+000 70524  9.8925e-001 -4.2494e+000  1.9664e+000 63076 70368,70420,70394
 1.7000e+000 70843 -3.0745e+000 -8.0145e+000 -1.0622e+000 62736 70866,70644,70618
 1.7000e+000 70820 -2.1467e+000 -8.8308e+000 -1.5671e+000 62736 70866,70618,70748
 1.7000e+000 70797 -4.2481e-001 -7.2866e+000  2.0554e-002 62736 70644,70722,70696
 1.7000e+000 70774 -6.9341e-001 -4.9071e+000  6.6772e-001 62736 70644,70696,70670
 1.7000e+000 70892 -2.2480e+000 -7.1873e+000 -6.1083e-001 62736 70722,70644,70866
 1.7000e+000 70915 -1.9672e+000 -8.3869e+000 -1.2860e+000 62736 70722,70866,70748
 1.7000e+000 71018  4.0140e+000 -5.6456e+000 -2.6390e+000 62516 70940,70992,70966
 1.7000e+000 71219 -5.1270e-001 -5.7782e+000  7.7545e-001 62226 71069,71147,71095
 1.7000e+000 71196 -2.3492e+000 -6.6104e+000  5.8967e-001 62226 71043,71147,71069
 1.7000e+000 71173 -2.1255e+000 -4.0980e+000  1.5103e+000 62226 71095,71147,71121
 1.7000e+000 71857  6.1893e-001  5.7699e-001  7.8929e-002 61708 71511,71693,71667
 1.7000e+000 71834  7.7532e-001  1.1015e+000 -4.2070e-001 61708 71485,71693,71511
 1.7000e+000 71811  7.5401e-001 -9.7491e-001 -3.4850e-002 61708 71880,71537,71511
 1.7000e+000 71788  1.3081e+000  2.3248e-001 -5.5894e-001 61708 71880,71511,71667
 1.7000e+000 71765  5.2204e-001 -3.3501e+000 -1.4367e+000 61708 71537,71615,71589
 1.7000e+000 71742  8.5780e-001  2.2246e+000  2.6033e+000 61708 71615,71667,71641
 1.7000e+000 71719  3.4310e-001 -4.5080e+000  5.2837e-001 61708 71537,71589,71563
 1.7000e+000 71906  1.4869e+000 -2.0098e+000  1.2658e-001 61708 71615,71537,71880
 1.7000e+000 71929  1.7016e+000 -1.1200e+000 -3.0345e-001 61708 71615,71880,71667
 1.7000e+000 72226 -1.8250e+000 -3.3681e+000  1.5045e+000 61204 72249,72056,72004
 1.7000e+000 72203 -1.1312e+000 -5.2775e+000  2.3827e+000 61204 72249,72004,71978
 1.7000e+000 72180 -1.3386e+000 -6.1300e+000  2.4296e+000 61204 71978,72108,72082
 1.7000e+000 72157  2.4084e+000  4.7966e-001  4.3991e+000 61204 72004,72056,72030
 1.7000e+000 72134  2.4399e-001 -7.3733e+000  3.3150e+000 61204 71952,72108,71978
 1.7000e+000 72275 -3.2196e+000 -4.6921e+000  2.1162e+000 61204 72082,72056,72249
 1.7000e+000 72298 -1.7626e+000 -5.9170e+000  2.7989e+000 61204 72082,72249,71978
 1.7000e+000 72757 -3.3805e+000 -4.2528e+000  2.7442e+000 60800 72483,72613,72509
 1.7000e+000 72734 -2.6746e+000 -9.1774e+000  1.8347e+000 60800 72483,72639,72613
 1.7000e+000 72711  1.8256e+000 -2.8133e+000  4.1725e+000 60800 72561,72613,72587
 1.7000e+000 72688 -3.4163e+000 -4.6444e+000  3.1570e+000 60800 72509,72613,72561
 1.7000e+000 72665 -3.6749e+000 -4.4700e+000  5.2735e+000 60800 72509,72561,72535
 1.7000e+000 72907 -1.5301e+000  3.7778e+000 -9.2044e-001 60552 72780,72832,72806
 1.7000e+000 72884  1.2314e+000  6.8898e+000 -2.1945e+000 60552 72780,72858,72832
 1.7000e+000 73464  1.0878e+000 -3.8970e+000  3.5286e+000 60240 73487,73222,73196
 1.7000e+000 73441  1.8164e+000 -1.2571e+000  3.9220e+000 60240 73559,73487,73196
 1.7000e+000 73418 -7.0960e-001  5.5493e-001  4.0157e+000 60240 73559,73196,73170
 1.7000e+000 73395  2.7627e+000 -7.4984e+000  2.1534e+000 60240 73222,73274,73248
 1.7000e+000 73372  2.2259e+000 -1.7228e+000  3.0293e+000 60240 73118,73300,73274
 1.7000e+000 73349  1.7828e-001 -6.8330e+000  2.4720e+000 60240 73092,73300,73118
 1.7000e+000 73326 -5.4713e+000 -2.5289e+000  9.4166e+000 60240 73118,73170,73144
 1.7000e+000 73513  4.1685e-001 -3.7358e+000  2.4491e+000 60240 73274,73222,73487
 1.7000e+000 73536  7.3840e-001 -2.9411e+000  2.4465e+000 60240 73274,73487,73118
 1.7000e+000 73585 -1.1123e+000 -3.8779e+000  2.7705e+000 60240 73118,73487,73559
 1.7000e+000 73608 -3.2762e+000 -1.7221e+000  2.9964e+000 60240 73118,73559,73170
 1.7000e+000 73758 -1.2867e+001 -6.8667e+000 -2.9859e+000 59871 73657,73709,73683
 1.7000e+000 73735 -3.0437e+000 -1.5901e+001 -1.2666e+000 59871 73631,73709,73657
 1.7000e+000 74187 -3.1167e+000 -8.5160e+000  6.5674e-001 59474 74210,73890,73864
 1.7000e+000 74164 -3.7542e+000 -1.0936e+001  1.2333e+000 59474 74210,73864,74046
 1.7000e+000 74141 -3.8956e+000 -5.0707e+000  1.8017e-001 59474 73890,73942,73916
 1.7000e+000 74118 -4.3087e+000 -6.6692e+000  4.7967e-001 59474 73890,73994,73942
 1.7000e+000 74095 -4.5059e+000 -9.7631e+000  7.7862e-001 59474 73994,74046,74020
 1.7000e+000 74072 -2.9262e+000 -5.3725e+000  1.1702e+000 59474 73942,73994,73968
 1.7000e+000 74236 -4.1073e+000 -6.5891e+000  4.7449e-001 59474 73994,73890,74210
 1.7000e+000 74259 -4.0453e+000 -8.1008e+000  1.0068e+000 59474 73994,74210,74046
 1.7000e+000 74716 -5.6051e+000 -1.0647e+001 -4.7713e+000 58770 74468,74598,74494
 1.7000e+000 74693 -1.9728e+000 -6.2633e+000 -2.4222e+000 58770 74442,74598,74468
 1.7000e+000 74670 -6.3752e+000 -1.3954e+001 -9.1936e+000 58770 74494,74572,74520
 1.7000e+000 74647 -1.7154e+000 -5.5113e+000 -2.9773e+000 58770 74494,74598,74572
 1.7000e+000 74624  2.3281e+000 -6.8639e+000 -2.2477e+000 58770 74520,74572,74546
 1.7000e+000 75222 -2.4531e+000 -3.5834e+000  2.5916e+000 58266 74951,75081,75029
 1.7000e+000 75199  1.8508e+000 -4.4917e+000  4.4015e+000 58266 74925,75081,74951
 1.7000e+000 75176 -6.8104e+000 -6.9684e+000  5.6757e+000 58266 75029,75081,75055
 1.7000e+000 75153 -1.9294e+000 -1.0971e+000  2.1002e+000 58266 74951,75003,74977
 1.7000e+000 75130 -4.0491e+000 -4.3698e+000  3.2972e+000 58266 74951,75029,75003
 1.7000e+000 75107 -3.5257e+000 -8.0392e+000  2.5976e+000 58266 74899,75081,74925
 1.7000e+000 75421 -3.4390e+000 -5.1123e+000  1.5272e+000 57826 75444,75297,75245
 1.7000e+000 75398 -3.3393e+000 -8.8330e+000  2.8114e+000 57826 75444,75245,75349
 1.7000e+000 75375 -5.1449e+000 -2.4707e+000  1.5479e+000 57826 75516,75297,75271
 1.7000e+000 75470 -3.1257e+000 -3.4037e+000  1.1755e+000 57826 75323,75297,75444
 1.7000e+000 75493 -1.7776e+000 -4.7162e+000  2.8027e+000 57826 75323,75444,75349
 1.7000e+000 75542 -1.9336e+000 -3.3519e+000  4.6722e-001 57826 75245,75297,75516
 1.7000e+000 76257  3.3193e+000  6.0957e+000  1.4833e+000 57422 76280,76093,76067
 1.7000e+000 76234  1.5341e+000  3.2747e+000  2.7136e+000 57422 75885,76093,75911
 1.7000e+000 76211  3.2508e+000  5.2604e+000  3.4404e-001 57422 76424,76280,76067
 1.7000e+000 76188  5.8858e+000  4.8642e+000  1.4347e+000 57422 76352,75937,75911
 1.7000e+000 76165  2.7710e+000  4.9261e+000  1.0978e-001 57422 76424,76067,76015
 1.7000e+000 76142  4.0875e+000  1.2260e+001  3.3912e+000 57422 76015,76067,76041
 1.7000e+000 76119  5.4775e+000  5.0738e+000  4.1059e-001 57422 75963,76015,75989
 1.7000e+000 76306  2.2714e+000  3.2345e+000  2.7400e+000 57422 75911,76093,76280
 1.7000e+000 76329  5.2435e+000  5.4135e+000  1.7556e+000 57422 76352,75911,76280
 1.7000e+000 76378  4.6645e+000  3.9747e+000  1.0226e+000 57422 75963,75937,76352
 1.7000e+000 76401  4.3587e+000  4.6759e+000  1.4238e+000 57422 75963,76352,76280
 1.7000e+000 76450  4.0120e+000  4.6897e+000  2.5955e-001 57422 75963,76280,76424
 1.7000e+000 76473  3.3786e+000  4.3249e+000  7.0036e-002 57422 75963,76424,76015
 1.7000e+000 76949 -5.7424e+000 -1.5782e+000  2.8963e+000 56904 76972,76707,76681
 1.7000e+000 76926 -4.3157e+000  3.6568e+000 -7.2148e-002 56904 77044,76972,76681
 1.7000e+000 76903 -2.4576e+000  6.7330e+000 -8.6336e-001 56904 77044,76681,76629
 1.7000e+000 76880 -6.5264e-001 -4.5098e-001  1.0982e+000 56904 76707,76785,76759
 1.7000e+000 76857  1.7668e+000 -4.2314e-001 -2.7474e+000 56904 76577,76785,76603
 1.7000e+000 76834 -9.5453e-001 -1.2137e+000  1.1585e+000 56904 76707,76759,76733
 1.7000e+000 76811  8.6764e-001  7.3381e+000  3.0992e-001 56904 76629,76681,76655
 1.7000e+000 76998 -5.8908e-001  1.3280e+000  9.7920e-001 56904 76785,76707,76972
 1.7000e+000 77021 -3.0696e+000 -3.7986e-001 -8.2323e-001 56904 76785,76972,76603
 1.7000e+000 77070 -1.2719e+000  9.4201e-001 -1.4003e+000 56904 76603,76972,77044
 1.7000e+000 77093 -4.7397e-001  2.5976e+000 -1.6649e+000 56904 76603,77044,76629
 1.7000e+000 77471 -5.2022e+000  5.8653e+000 -5.2169e+000 56542 77566,77494,77275
 1.7000e+000 77448 -1.9657e+000  8.3821e+000 -1.7969e+000 56542 77494,77223,77353
 1.7000e+000 77425 -4.1632e+000  5.4560e+000 -8.5493e+000 56542 77566,77275,77249
 1.7000e+000 77402  3.2306e+000  8.9846e+000  1.7783e+000 56542 77197,77353,77223
 1.7000e+000 77379 -3.8109e+000  7.3615e+000 -9.6661e+000 56542 77275,77327,77301
 1.7000e+000 77520 -3.3061e+000  1.3366e+001 -4.9175e+000 56542 77327,77275,77494
 1.7000e+000 77543 -9.6423e+000  7.6713e+000 -2.1420e+000 56542 77327,77494,77353
 1.7000e+000 77592  1.5340e+000  8.2829e+000 -2.9922e+000 56542 77223,77494,77566
 1.7000e+000 77615 -5.2919e-001  4.3882e+000 -6.8355e+000 56542 77223,77566,77249
 1.7000e+000 77814  4.8777e+000  7.6729e+000 -5.2580e+000 56038 77837,77690,77664
 1.7000e+000 77791  5.0916e+000  7.6232e+000 -4.9416e+000 56038 77837,77664,77742
 1.7000e+000 77768  6.7390e+000  3.1948e+000 -4.6355e+000 56038 77638,77742,77664
 1.7000e+000 77863  4.9489e+000  7.9375e+000 -5.1323e+000 56038 77716,77690,77837
 1.7000e+000 77886  5.1677e+000  7.8625e+000 -4.8150e+000 56038 77716,77837,77742
 1.7000e+000 78345 -1.1095e+000 -2.8546e+000  7.1766e+000 55534 78071,78123,78097
 1.7000e+000 78322 -5.5116e+000 -5.9285e+000  3.0032e+000 55534 78071,78201,78123
 1.7000e+000 78299 -6.7483e+000 -7.8180e+000  3.5382e+000 55534 78071,78227,78201
 1.7000e+000 78276  9.0341e-001 -2.7871e+000  5.7828e+000 55534 78123,78175,78149
 1.7000e+000 78253 -7.5609e-001 -2.1334e+000  4.7830e+000 55534 78123,78201,78175
 1.7000e+000 78802 -5.9607e+000  5.1351e+000 -4.7875e-001 55030 78825,78632,78606
 1.7000e+000 78779 -2.8687e+000  3.8244e+000 -1.8779e+000 55030 78897,78825,78606
 1.7000e+000 78756 -7.0429e+000  4.5567e+000 -2.7773e+000 55030 78897,78606,78580
 1.7000e+000 78733  2.5529e-001  5.3967e+000 -1.9000e-001 55030 78554,78684,78658
 1.7000e+000 78710 -1.3386e+000  1.3564e+000 -1.6608e+000 55030 78528,78684,78554
 1.7000e+000 78851 -1.5264e+000  1.3258e+001  2.7152e+000 55030 78658,78632,78825
 1.7000e+000 78874 -3.5461e+000  3.0998e+000 -1.4808e+000 55030 78658,78825,78554
 1.7000e+000 78923 -6.2247e+000  1.2965e+000 -4.5638e+000 55030 78554,78825,78897
 1.7000e+000 78946 -7.8330e+000  2.8199e+000 -5.7750e+000 55030 78554,78897,78580
 1.7000e+000 79403  1.0910e+000  1.5128e+000  2.2712e+000 54426 79426,79233,79155
 1.7000e+000 79380  5.4323e+000  1.3703e+000  5.0180e-001 54426 79426,79155,79129
 1.7000e+000 79357 -4.0007e+000  1.3376e+000  7.1275e-001 54426 79233,79285,79259
 1.7000e+000 79334  1.9875e-001  1.7620e+000  4.9606e+000 54426 79181,79233,79207
 1.7000e+000 79311  5.9713e-001  7.4039e-001  2.5523e+000 54426 79155,79233,79181
 1.7000e+000 79452 -2.0819e-002  9.5427e-001  3.7557e+000 54426 79285,79233,79426
 1.7000e+000 79475  2.4364e+000 -1.1406e+000  2.3005e+000 54426 79285,79426,79129
 1.7000e+000 79932 -1.0148e+000  1.4303e+000  2.8678e+000 53915 79658,79762,79684
 1.7000e+000 79909 -7.9361e+000 -5.9657e+000  5.7744e+000 53915 79658,79814,79762
 1.7000e+000 79886 -4.7980e+000 -6.0183e+000  1.0156e+001 53915 79762,79814,79788
 1.7000e+000 79863 -5.9797e+000  1.3381e+000  6.4532e+000 53915 79710,79762,79736
 1.7000e+000 79840 -5.3956e+000 -1.2460e+000  4.1788e+000 53915 79684,79762,79710
 1.7000e+000 80033 -5.2952e+000 -7.6285e+000 -1.3594e+000 53667 79955,80007,79981
 1.7000e+000 80401 -9.3023e+000 -1.1730e+001  8.2864e-001 53263 80104,80260,80234
 1.7000e+000 80378 -7.8465e+000 -1.0277e+001  1.5079e+000 53263 80078,80260,80104
 1.7000e+000 80355 -6.8914e+000 -8.8493e+000 -7.4664e-001 53263 80104,80234,80130
 1.7000e+000 80332 -6.5508e+000 -6.1722e+000 -6.4119e-001 53263 80130,80208,80182
 1.7000e+000 80309 -8.1169e+000 -8.3584e+000  6.6606e-001 53263 80130,80234,80208
 1.7000e+000 80286 -6.1045e+000 -1.7854e+000  1.3526e+000 53263 80130,80182,80156
 1.7000e+000 80911 -9.8141e+000 -9.2319e+000 -5.9242e-001 52965 80640,80770,80744
 1.7000e+000 80888 -5.8611e+000 -7.9810e+000  2.2483e+000 52965 80614,80770,80640
 1.7000e+000 80865 -5.9936e+000 -4.9770e+000  1.7509e+000 52965 80640,80744,80666
 1.7000e+000 80842 -5.9121e+000 -7.9706e+000  2.2955e+000 52965 80588,80770,80614
 1.7000e+000 80819 -6.1322e+000 -5.2445e+000  1.7799e+000 52965 80666,80718,80692
 1.7000e+000 80796 -9.3643e+000 -6.4876e+000 -5.0838e-001 52965 80666,80744,80718
 1.7000e+000 81262 -3.3040e+001 -4.1063e-001  8.0592e-001 52561 81037,81141,81063
 1.7000e+000 81239 -3.2824e+001 -7.7054e+000 -9.8096e-002 52561 81037,81167,81141
 1.7000e+000 81216 -5.7412e+001  3.5772e+000 -1.6800e+000 52561 81063,81115,81089
 1.7000e+000 81193 -5.8262e+001 -7.0170e+000 -6.4413e+000 52561 81063,81141,81115
 1.7000e+000 81719 -5.9427e+000 -5.7651e-001  8.0400e-001 51900 81445,81523,81471
 1.7000e+000 81696 -6.7436e+000 -3.5975e+000  1.3994e-001 51900 81445,81575,81523
 1.7000e+000 81673 -4.4429e+000 -7.6698e-001 -1.0900e+000 51900 81445,81601,81575
 1.7000e+000 81650 -3.7205e+000  1.6380e+000  2.1401e+000 51900 81523,81575,81549
 1.7000e+000 81627 -1.9995e+000 -4.7499e-001  1.5804e+000 51900 81471,81523,81497
 1.7000e+000 82323 -2.3759e+000  3.2227e-001  2.6218e+000 51317 82418,82346,82032
 1.7000e+000 82300 -4.2177e+000  9.8888e-001  1.8968e+000 51317 82490,82346,81954
 1.7000e+000 82277 -2.0711e+000  1.7880e+000  1.8966e+000 51317 82418,82032,82006
 1.7000e+000 82254 -4.7255e+000  7.3187e-001  1.9917e+000 51317 82490,81954,81928
 1.7000e+000 82231 -1.9396e+000 -5.6142e+000  6.1324e+000 51317 82058,82110,82084
 1.7000e+000 82208 -3.5580e+000  5.3592e+000 -8.6581e-002 51317 81928,82136,82110
 1.7000e+000 82185  2.8280e+000  2.0725e+000  1.3952e+000 51317 81954,82006,81980
 1.7000e+000 82162 -8.3191e+000  3.3113e+000 -2.7951e-001 51317 81902,82136,81928
 1.7000e+000 82372 -3.7042e+000 -5.0958e+000  1.7359e+000 51317 82058,82032,82346
 1.7000e+000 82395 -3.9745e+000  6.1147e-001  1.2702e+000 51317 82058,82346,82110
 1.7000e+000 82444 -1.1406e+000  9.4970e-003  7.2194e-001 51317 81954,82346,82418
 1.7000e+000 82467 -7.3622e-001  1.4629e+000 -1.6271e-002 51317 81954,82418,82006
 1.7000e+000 82516 -4.3868e+000  1.0256e+000  1.6198e+000 51317 82110,82346,82490
 1.7000e+000 82539 -4.4451e+000  9.8183e-001  1.6704e+000 51317 82110,82490,81928
 1.7000e+000 83015 -1.9339e+000  4.0748e-001 -2.4891e-001 50813 82669,82747,82695
 1.7000e+000 82992 -5.8575e+000 -6.6901e-001  4.5421e+000 50813 83038,82669,82851
 1.7000e+000 82969 -6.4779e+000 -2.4852e+000  4.2182e+000 50813 83038,82851,82799
 1.7000e+000 82946 -4.3189e+000 -3.5611e+000  5.3108e+000 50813 82747,82799,82773
 1.7000e+000 82923 -8.2113e-001 -2.8408e-001  2.9026e+000 50813 82643,82851,82669
 1.7000e+000 82900 -6.2702e+000 -4.9198e+000  2.9604e+000 50813 82799,82851,82825
 1.7000e+000 82877 -1.8025e+000  3.8285e-001 -4.9733e-001 50813 82695,82747,82721
 1.7000e+000 83064 -4.5369e+000 -2.1604e+000  5.7321e+000 50813 82747,82669,83038
 1.7000e+000 83087 -5.1576e+000 -3.9395e+000  5.2239e+000 50813 82747,83038,82799
 1.7000e+000 83286  2.6791e+000 -8.9649e+000 -2.6886e+000 50352 83309,83162,83136
 1.7000e+000 83263 -8.6433e-001  3.9466e-002 -3.0219e-002 50352 83511,83309,83136
 1.7000e+000 83240 -4.1460e-001  1.4275e+000 -5.9220e-002 50352 83511,83136,83381
 1.7000e+000 83335  9.8852e+000 -1.8306e-001 -6.5898e+000 50352 83188,83162,83309
 1.7000e+000 83358 -3.6818e-001 -6.4108e-001 -3.1257e+000 50352 83188,83309,83214
 1.7000e+000 83407 -1.1139e+000  6.8071e+000 -1.0068e+000 50352 83110,83214,83381
 1.7000e+000 83537 -8.9917e-001  1.5718e+000 -1.0272e+000 50352 83214,83309,83511
 1.7000e+000 83560 -8.9403e-001  1.9210e+000 -1.2306e+000 50352 83214,83511,83381
 1.7000e+000 83889 -7.3529e+000 -5.0658e+000 -1.0129e+000 49548 83716,83794,83742
 1.7000e+000 83866 -5.6815e+000 -5.9870e+000  9.9936e-001 49548 83690,83794,83716
 1.7000e+000 83843 -8.3895e+000 -1.0123e+001 -7.7596e-001 49548 83664,83794,83690
 1.7000e+000 83820 -7.8057e+000 -5.7219e+000 -7.2694e-001 49548 83742,83794,83768
 1.7000e+000 84137  3.5973e+000  4.3482e+000 -1.2110e+000 49208 84160,84016,83938
 1.7000e+000 84114  6.9551e+000  1.1959e+001 -4.3824e+000 49208 84160,83938,83912
 1.7000e+000 84091  4.5678e+000  4.3236e+000 -1.3821e+000 49208 83938,84016,83964
 1.7000e+000 84068  3.3444e+000  9.3224e-002 -1.4052e+000 49208 83964,84016,83990
 1.7000e+000 84186  6.6581e+000  8.3695e+000 -5.1222e+000 49208 84042,84016,84160
 1.7000e+000 84209  7.4681e+000  1.2636e+001 -7.9952e+000 49208 84042,84160,83912
 1.7000e+000 84796 -8.3715e+000 -4.7718e+000 -8.1659e-001 48861 84499,84629,84551
 1.7000e+000 84773 -3.3824e+000 -7.7188e-001  9.5709e-001 48861 84499,84655,84629
 1.7000e+000 84750 -6.9725e+000 -5.4206e-001  1.0876e+000 48861 84551,84629,84577
 1.7000e+000 84727 -1.2463e+000 -7.2912e-001  6.2476e-001 48861 84577,84629,84603
 1.7000e+000 84704 -3.8695e+000 -1.6197e+000 -2.3600e+000 48861 84499,84551,84525
 1.7000e+000 84681 -3.6104e+000 -1.5535e+000  3.6493e-002 48861 84473,84655,84499
 1.7000e+000 85351 -4.6717e+000 -4.5292e+000  2.5257e+000 48457 85374,85031,85005
 1.7000e+000 85328 -1.7123e+000 -5.2076e-001  1.2194e+000 48457 85374,85005,85161
 1.7000e+000 85305 -7.4361e-002 -2.7516e+000  9.5023e-001 48457 85446,85057,85031
 1.7000e+000 85282 -4.3060e+000 -2.1300e+000  2.0586e+000 48457 85005,85187,85161
 1.7000e+000 85259 -1.5195e+000  5.7000e-001  2.7375e-001 48457 85083,85161,85109
 1.7000e+000 85236 -3.8318e+000 -2.5740e+000  1.4452e+000 48457 84979,85187,85005
 1.7000e+000 85213 -9.3718e-001  8.8524e-001 -4.0283e-001 48457 85109,85161,85135
 1.7000e+000 85400 -8.7318e-001 -2.4772e+000  8.6598e-001 48457 85446,85031,85374
 1.7000e+000 85423 -2.7255e+000 -2.2876e+000  8.4522e-002 48457 85083,85374,85161
 1.7000e+000 85472 -1.0684e+000 -2.5556e+000  7.8827e-002 48457 85083,85057,85446
 1.7000e+000 85495 -2.1403e+000 -2.5911e+000 -8.7056e-002 48457 85083,85446,85374
 1.7000e+000 86080  4.1590e+000  7.6410e-001  1.4085e+000 48053 86319,86103,85783
 1.7000e+000 86057  3.0666e+000  3.7890e+000  1.6423e+000 48053 86103,85757,85939
 1.7000e+000 86034  1.7311e+000  1.7598e+000 -7.5242e-002 48053 86247,86175,85887
 1.7000e+000 86011  1.3695e+000  1.9027e+000 -8.9687e-001 48053 86247,85887,85835
 1.7000e+000 85988 -3.1055e-001  2.2231e+000 -9.6575e-001 48053 85887,85939,85913
 1.7000e+000 85965  1.7881e+000  1.3387e+000 -1.2595e+000 48053 85835,85887,85861
 1.7000e+000 86129  4.3407e+000  2.2547e+000  6.7154e-001 48053 85809,85783,86103
 1.7000e+000 86152  3.6177e+000  2.2462e+000  7.0791e-001 48053 86175,85809,86103
 1.7000e+000 86201  2.7261e+000  3.1432e+000  4.1373e-001 48053 85939,85887,86175
 1.7000e+000 86224  2.4378e+000  1.9141e+000  6.9579e-001 48053 85939,86175,86103
 1.7000e+000 86273  3.7862e+000  1.9544e+000  2.6535e-001 48053 85809,86175,86247
 1.7000e+000 86296  2.5369e+000  1.5456e+000 -5.0818e-001 48053 85809,86247,85835
 1.7000e+000 86345  3.8505e+000  2.1779e+000  2.3716e+000 48053 85757,86103,86319
 1.7000e+000 86851  4.5999e+000 -5.0466e+000  1.2354e+000 47541 86874,86580,86554
 1.7000e+000 86828 -7.7528e-002 -7.0252e+000  1.1084e+000 47541 86946,86874,86554
 1.7000e+000 86805 -1.6023e+000 -5.9786e+000  1.6710e+000 47541 86946,86554,86528
 1.7000e+000 86782  1.0360e+001 -2.9922e+000  1.0088e+000 47541 86580,86658,86606
 1.7000e+000 86759  3.5085e+000 -4.7863e+000 -5.1756e-001 47541 86528,86710,86684
 1.7000e+000 86736  4.0062e-001  2.4701e-001 -4.3152e-001 47541 86606,86658,86632
 1.7000e+000 86900  2.1967e+000 -6.4983e+000 -2.3414e-001 47541 86658,86580,86874
 1.7000e+000 86923  3.5576e+000 -5.4948e+000 -8.1856e-001 47541 86658,86874,86684
 1.7000e+000 86972  2.5288e+000 -5.1913e+000 -9.2171e-001 47541 86684,86874,86946
 1.7000e+000 86995 -3.2223e-001 -5.9664e+000  6.8365e-002 47541 86684,86946,86528
 1.7000e+000 87324 -5.4926e+000 -3.7229e+000  1.9509e+000 47044 87151,87203,87177
 1.7000e+000 87301 -7.0823e+000 -6.2106e+000 -1.0598e-001 47044 87125,87203,87151
 1.7000e+000 87278 -5.8315e+000 -7.2365e+000  6.0139e-001 47044 87099,87203,87125
 1.7000e+000 87255 -8.4315e+000 -1.1527e+001 -2.5519e+000 47044 87099,87229,87203
 1.7000e+000 87572 -7.7005e+000 -5.6200e+000  1.0836e+000 46697 87595,87425,87373
 1.7000e+000 87549 -7.5178e+000 -6.4300e+000  1.4989e+000 46697 87595,87373,87477
 1.7000e+000 87526 -1.1554e+001 -8.2400e+000  1.0434e+000 46697 87347,87477,87373
 1.7000e+000 87503 -7.7037e+000 -4.4604e+000  1.3530e+000 46697 87373,87425,87399
 1.7000e+000 87621 -7.6603e+000 -3.7663e+000  8.0675e-001 46697 87451,87425,87595
 1.7000e+000 87644 -8.4761e+000 -5.5133e+000  1.5429e+000 46697 87451,87595,87477
 1.7000e+000 87794 -1.2096e+001  1.8225e+000 -1.7994e+000 46235 87693,87745,87719
 1.7000e+000 87771 -1.3645e+001 -1.1516e+001  2.3091e-001 46235 87667,87745,87693
 1.7000e+000 88304 -7.8382e+000 -4.6569e+000  2.7924e+000 45731 88085,88163,88137
 1.7000e+000 88281 -9.4293e+000 -6.0891e+000  1.9302e+000 45731 88007,88163,88085
 1.7000e+000 88258 -1.4132e+001 -9.0130e+000 -1.3807e-001 45731 87981,88163,88007
 1.7000e+000 88235 -1.3202e+001 -3.7098e+000  3.0651e+000 45731 88007,88085,88059
 1.7000e+000 88212 -2.5719e+000 -2.5484e+000  7.7943e-001 45731 88085,88137,88111
 1.7000e+000 88189 -1.3492e+001 -2.3930e+000  1.9819e+000 45731 88007,88059,88033
 1.7000e+000 88682 -1.1726e+001 -9.2289e+000 -5.2261e-001 45312 88434,88512,88486
 1.7000e+000 88659 -1.7596e+001 -1.7463e+001  4.2590e+000 45312 88434,88538,88512
 1.7000e+000 88636 -1.1260e+001 -7.0578e+000  1.0750e+000 45312 88434,88564,88538
 1.7000e+000 88613 -5.9965e+000 -1.2661e+001 -5.9375e-001 45312 88434,88486,88460
 1.7000e+000 88590 -1.4638e+001  7.8629e+000  1.4637e+001 45312 88408,88564,88434
 1.7000e+000 88930  8.1857e+000  6.9762e+000 -4.3525e-001 44808 88953,88731,88705
 1.7000e+000 88907  3.7946e+000  4.6083e+000  4.4373e+000 44808 88953,88705,88835
 1.7000e+000 88884  5.5214e+000 -4.6116e+000  4.8137e+000 44808 89025,88783,88757
 1.7000e+000 88861  3.7955e+000 -3.2428e+000  5.8434e+000 44808 88783,88835,88809
 1.7000e+000 88979 -8.6292e-001  2.1096e+000  1.9358e+000 44808 88757,88731,88953
 1.7000e+000 89002  1.8303e+000 -2.0572e+000  5.8695e+000 44808 89025,88757,88953
 1.7000e+000 89051  5.5023e+000 -1.4149e+000  3.8722e+000 44808 88835,88783,89025
 1.7000e+000 89074  4.7649e+000  4.3575e+000  3.8096e+000 44808 88835,89025,88953
 1.7000e+000 89224 -1.0312e+002 -2.2745e+001  5.6317e+000 44404 89123,89175,89149
 1.7000e+000 89201 -9.8472e+001 -2.6746e+000 -1.2468e+000 44404 89097,89175,89123
 1.7000e+000 89783  3.9670e+000  1.0320e+001 -3.0839e+000 43850 89806,89541,89515
 1.7000e+000 89760  1.7710e+000  3.8420e+000 -1.4752e+000 43850 89806,89515,89463
 1.7000e+000 89737  1.8512e+000  4.0671e+000 -7.2447e-001 43850 89950,89878,89593
 1.7000e+000 89714  1.1498e+000  4.2400e+000  2.5793e-001 43850 89950,89593,89567
 1.7000e+000 89691  3.4636e+000  3.1905e+000  4.4912e-001 43850 89411,89619,89463
 1.7000e+000 89668  5.0546e+000  3.4927e+000 -2.0358e+000 43850 89463,89515,89489
 1.7000e+000 89645  4.2191e+000  3.2042e+000  5.1869e-002 43850 89411,89463,89437
 1.7000e+000 89832  1.0485e+000  7.6668e+000  2.8200e-001 43850 89878,89541,89806
 1.7000e+000 89855  3.7309e+000  5.7966e+000  1.5942e-001 43850 89619,89806,89463
 1.7000e+000 89904  2.1034e+000  2.0522e+000  7.3266e-001 43850 89619,89593,89878
 1.7000e+000 89927  2.6397e+000  2.7218e+000  3.8955e-001 43850 89619,89878,89806
 1.7000e+000 89976 -1.0508e+000  3.0265e+000  1.6284e+000 43850 89541,89878,89950
 1.7000e+000 89999 -3.3923e+000  1.1064e+000  3.0002e+000 43850 89541,89950,89567
 1.7000e+000 90247  1.4433e+000  1.9606e+001  3.9341e+000 43488 90022,90074,90048
 1.7000e+000 90224 -5.0461e+000  1.4979e+001  9.0426e-001 43488 90270,90022,90152
 1.7000e+000 90201 -2.9501e+000  9.7653e+000  5.2245e-001 43488 90342,90270,90152
 1.7000e+000 90178 -3.5065e+000  3.2702e+000  8.4165e+000 43488 90342,90152,90126
 1.7000e+000 90296 -3.1759e+000  8.3991e+000  3.9074e+000 43488 90074,90022,90270
 1.7000e+000 90319 -5.2032e+000  7.1452e+000  3.2930e+000 43488 90074,90270,90100
 1.7000e+000 90368 -1.2343e+001  1.9521e+000  6.9718e+000 43488 90100,90270,90342
 1.7000e+000 90391 -1.2869e+001 -5.3498e+000  1.4875e+001 43488 90100,90342,90126
 1.7000e+000 90590 -1.2522e+001 -6.8300e+000 -1.2653e+000 43048 90414,90492,90440
 1.7000e+000 90567 -1.3253e+001 -1.2915e+001  4.0287e-001 43048 90414,90518,90492
 1.7000e+000 90544 -1.3741e+001 -6.9109e-001  2.0454e+000 43048 90440,90492,90466
 1.7000e+000 91070 -3.8519e+000 -6.3990e+000  1.1867e-001 42430 91237,90880,90854
 1.7000e+000 91047 -5.4484e+000 -6.5703e+000 -1.3465e-001 42430 90698,90906,90880
 1.7000e+000 91024 -8.3614e+000 -5.2161e+000  1.9876e+000 42430 91093,90750,90698
 1.7000e+000 91001 -5.8166e+000 -5.2420e+000  1.5041e+000 42430 91237,90854,91093
 1.7000e+000 90978 -6.4922e+000 -5.8071e+000  5.9922e-001 42430 91165,90802,90776
 1.7000e+000 90955 -3.7769e+000 -5.8696e+000  9.3639e-001 42430 90802,90854,90828
 1.7000e+000 90932 -8.6937e+000 -6.2183e+000  1.6476e+000 42430 90698,90750,90724
 1.7000e+000 91119 -1.0567e+001 -6.3272e+000  2.3779e+000 42430 90776,90750,91093
 1.7000e+000 91142 -7.7179e+000 -7.0502e+000  1.8640e+000 42430 91165,90776,91093
 1.7000e+000 91191 -6.0436e+000 -5.1594e+000 -9.7073e-002 42430 90854,90802,91165
 1.7000e+000 91214 -6.4069e+000 -4.5963e+000  1.0080e+000 42430 90854,91165,91093
 1.7000e+000 91263 -6.7296e+000 -7.1293e+000  5.1784e-002 42430 90698,90880,91237
 1.7000e+000 91286 -8.9833e+000 -6.1160e+000  1.3009e+000 42430 90698,91237,91093
 1.7000e+000 91694  1.7542e+000  1.7246e+000 -1.4323e+000 41769 91469,91573,91495
 1.7000e+000 91671  4.2033e-001  5.5872e-001 -7.1727e-001 41769 91469,91599,91573
 1.7000e+000 91648  2.4631e+000  2.1857e+000 -6.5059e-001 41769 91495,91547,91521
 1.7000e+000 91625  6.1824e-001  1.6728e+000 -1.4916e+000 41769 91495,91573,91547
 1.7000e+000 92040  2.1012e+001  1.6907e+001  5.5440e+000 41379 91769,91873,91847
 1.7000e+000 92017  1.3996e+001  1.1170e+001  1.6815e+000 41379 91743,91873,91769
 1.7000e+000 91994  1.8284e+001  1.7414e+001  5.2588e+000 41379 91769,91847,91795
 1.7000e+000 91971  1.4409e+001  9.6277e+000  2.9113e+000 41379 91743,91899,91873
 1.7000e+000 91948  5.8299e+000  3.0650e+000 -1.8039e+000 41379 91717,91899,91743
 1.7000e+000 91925  1.1407e+001  1.1254e+001  1.2049e+000 41379 91795,91847,91821
 1.7000e+000 92597 -7.8137e-001  2.1637e+000 -1.6485e+000 40975 92225,92407,92303
 1.7000e+000 92574 -4.0063e+000  1.7869e+000 -1.7200e+000 40975 92225,92433,92407
 1.7000e+000 92551 -9.3334e-001  1.0383e+000 -1.9217e+000 40975 92225,92303,92277
 1.7000e+000 92528 -5.2709e+000  1.4882e+000 -2.8010e+000 40975 92329,92407,92381
 1.7000e+000 92505 -5.3511e+000  3.8394e-001 -2.3880e+000 40975 92303,92407,92329
 1.7000e+000 92482  3.3664e-001  2.6752e-001 -2.4854e-001 40975 92225,92277,92251
 1.7000e+000 92459 -8.8222e+000  9.8430e-001 -2.1049e+000 40975 92329,92381,92355
 1.7000e+000 93231 -3.4490e+001 -1.7285e+000 -4.2876e+000 40521 92937,92989,92963
 1.7000e+000 93208 -1.5751e+001 -3.3828e+000 -9.2715e-001 40521 93254,92937,92885
 1.7000e+000 93185 -1.2006e+001 -3.6254e+000  1.6466e+000 40521 93254,92885,93067
 1.7000e+000 93162 -1.2834e+001 -4.7092e+000 -2.0271e+000 40521 92885,92937,92911
 1.7000e+000 93139 -1.5202e+001 -2.6664e+000  1.6985e+000 40521 92859,93067,92885
 1.7000e+000 93116 -7.5334e+000 -5.4674e-001  4.3442e-001 40521 92989,93067,93015
 1.7000e+000 93093 -3.3911e+000 -1.4873e+000  2.5614e-001 40521 93015,93067,93041
 1.7000e+000 93280 -1.4447e+001 -6.5888e-001  1.2972e+000 40521 92989,92937,93254
 1.7000e+000 93303 -1.0373e+001 -2.7543e+000  3.3587e+000 40521 92989,93254,93067
 1.7000e+000 93632 -4.4883e+000  2.1859e+000  3.0889e+000 40231 93433,93537,93511
 1.7000e+000 93609 -6.2390e+000 -1.6796e-001  1.9821e+000 40231 93407,93537,93433
 1.7000e+000 93586 -3.0166e+000  1.2853e+001  5.4939e-001 40231 93459,93511,93485
 1.7000e+000 93563 -5.5760e+000  3.1141e+000 -1.3166e+000 40231 93433,93511,93459
 1.7000e+000 94010 -1.0234e+001  6.4130e+000  1.5051e+000 39869 93762,93866,93788
 1.7000e+000 93987 -3.7865e+000  7.5645e+000  8.4830e-001 39869 93762,93892,93866
 1.7000e+000 93964 -1.4185e+001 -1.1471e+000 -2.7748e-001 39869 93788,93866,93840
 1.7000e+000 93941 -1.5221e+001  3.1323e+000 -5.8620e+000 39869 93788,93840,93814
 1.7000e+000 93918 -6.0832e+000  7.7339e-001  1.1424e+000 39869 93736,93892,93762
 1.7000e+000 94160 -1.3535e+001 -1.5953e+000 -1.1322e+000 39457 94033,94085,94059
 1.7000e+000 94137 -1.4379e+001 -1.1232e+001  1.2467e+000 39457 94033,94111,94085
 1.7000e+000 94359 -4.2120e+000  9.0652e+000  3.2800e+000 39053 94382,94235,94209
 1.7000e+000 94336  7.1425e+000  1.9699e+001 -2.1613e+000 39053 94382,94209,94183
 1.7000e+000 94313 -1.8290e+000  1.2647e+001  7.0043e+000 39053 94183,94287,94261
 1.7000e+000 94408  4.8130e+000  1.4979e+001  4.0055e+000 39053 94454,94382,94261
 1.7000e+000 94431  4.0415e+000  1.4530e+001  5.4869e+000 39053 94261,94382,94183
 1.7000e+000 94480 -8.9219e-001 -2.9726e+000  5.8814e+000 39053 94235,94382,94454
 1.7000e+000 94892 -1.0486e+001  2.8125e+000  1.3491e+000 38392 94915,94771,94719
 1.7000e+000 94869 -1.1715e+001  3.8335e+000  1.5498e+000 38392 94915,94719,94693
 1.7000e+000 94846 -5.3607e+000  5.3809e+000  1.0493e+001 38392 94719,94771,94745
 1.7000e+000 94823 -7.7230e+000  7.8137e+000  3.4635e+000 38392 94667,94797,94693
 1.7000e+000 94941 -1.0241e+001  3.6522e+000  9.7991e-001 38392 94797,94771,94915
 1.7000e+000 94964 -1.0968e+001  5.0645e+000  9.5794e-001 38392 94797,94915,94693
 1.7000e+000 95261  2.4414e+000  3.5634e+000 -1.2579e+000 37831 95013,95065,95039
 1.7000e+000 95238  2.4399e+000  3.4495e+000 -1.2600e+000 37831 95284,95065,95013
 1.7000e+000 95215  2.4393e+000  3.5014e+000 -1.3381e+000 37831 95284,95013,94987
 1.7000e+000 95192  2.3690e+000  2.7374e+000 -1.3632e+000 37831 94987,95143,95117
 1.7000e+000 95169  3.6545e+000  2.1881e-001 -3.7001e+000 37831 95065,95117,95091
 1.7000e+000 95310  2.4232e+000  3.3290e+000 -1.2358e+000 37831 95117,95065,95284
 1.7000e+000 95333  2.4291e+000  3.4105e+000 -1.3068e+000 37831 95117,95284,94987
 1.7000e+000 95554 -1.3177e+001 -1.5230e+000 -2.3033e+000 37419 95404,95456,95430
 1.7000e+000 95531 -7.8242e+000  1.1390e+001 -2.0035e+000 37419 95378,95456,95404
 1.7000e+000 95508 -2.9434e+000  1.5025e+001 -3.6148e+000 37419 95378,95482,95456
 1.7000e+000 95887 -1.4942e+001 -1.2596e+001  1.1173e+000 37221 95662,95714,95688
 1.7000e+000 95864 -1.4739e+001 -1.3983e+001  1.0608e+000 37221 95662,95792,95714
 1.7000e+000 95841 -7.1141e+000 -9.5526e+000 -2.2731e+000 37221 95714,95766,95740
 1.7000e+000 95818 -1.2647e+001 -9.3730e+000  2.7375e-001 37221 95714,95792,95766
 1.7000e+000 95988 -4.4543e+001 -7.0745e+000 -6.0638e+000 36731 95910,95962,95936
 1.7000e+000 96138 -4.5819e+000  9.0986e+000  5.9772e+000 36327 96293,96063,96037
 1.7000e+000 96115 -1.1610e+001  6.7427e+000  8.6753e+000 36327 96161,96037,96011
 1.7000e+000 96187 -4.3553e+000  1.0257e+001  1.0382e+001 36327 96293,96037,96161
 1.7000e+000 96319 -3.3993e+000  1.5026e+001  7.8809e+000 36327 96089,96063,96293
 1.7000e+000 96342 -1.0115e+000  1.7315e+001  1.2824e+001 36327 96089,96293,96161
 1.7000e+000 96710 -4.8832e-001  3.8090e+000  2.2790e+000 36037 96733,96491,96439
 1.7000e+000 96687 -2.0025e-001  7.3344e+000  3.4597e+000 36037 96733,96439,96413
 1.7000e+000 96664 -1.4982e+000  3.1805e+000  9.9331e-001 36037 96439,96491,96465
 1.7000e+000 96641 -6.3151e+000  1.2623e+001  1.9159e+000 36037 96387,96517,96413
 1.7000e+000 96618 -6.3590e+000  1.2901e+001  1.9429e+000 36037 96387,96543,96517
 1.7000e+000 96595 -8.0120e-001  8.6733e+000  6.4122e+000 36037 96387,96569,96543
 1.7000e+000 96759 -3.9089e+000  7.5896e+000  1.2034e+000 36037 96517,96491,96733
 1.7000e+000 96782 -1.9384e+000  1.1826e+001  3.7797e+000 36037 96517,96733,96413
 1.7000e+000 96932  2.6259e+000  1.9689e+000 -2.2050e+000 35633 97027,96955,96831
 1.7000e+000 96909  1.6292e+000  8.2420e-001 -1.2079e+000 35633 97159,96955,96805
 1.7000e+000 96981  7.1752e-001  9.8408e-001 -2.5564e+000 35633 96857,96831,96955
 1.7000e+000 97004  1.4948e+000  3.1416e+000 -2.0730e+000 35633 96857,96955,96883
 1.7000e+000 97053  2.0443e+000  1.3899e+000 -1.9082e+000 35633 96805,96955,97027
 1.7000e+000 97185  9.7922e-001  2.4995e+000 -7.7785e-001 35633 96883,96955,97159
 1.7000e+000 97593 -3.9521e+000 -3.6404e+000 -1.2945e+000 35186 97446,97498,97472
 1.7000e+000 97570 -2.1335e+000  1.0582e+000 -1.5202e+000 35186 97368,97498,97446
 1.7000e+000 97547 -3.3581e+000 -8.1183e-001 -7.0248e-001 35186 97368,97446,97394
 1.7000e+000 97524 -3.5623e+000 -6.3240e-001 -1.0264e+000 35186 97394,97446,97420
 1.7000e+000 98050  2.7516e+000  8.5418e+000 -1.6848e+000 34632 97802,97932,97854
 1.7000e+000 98027 -2.7905e+000  7.6642e-001 -4.3531e+000 34632 97776,97932,97802
 1.7000e+000 98004 -2.5219e+000  2.6081e+000  3.9590e+000 34632 97802,97854,97828
 1.7000e+000 97981 -7.7504e+000  4.7405e+000 -1.6824e+000 34632 97880,97932,97906
 1.7000e+000 97958  5.7257e-001  4.6676e+000 -6.9891e-001 34632 97854,97932,97880
 1.7000e+000 98526 -6.8872e+000  4.5383e-001  1.3203e+000 34064 98693,98180,98362
 1.7000e+000 98503 -5.8325e+000 -4.1853e+000 -2.6588e+000 34064 98154,98362,98180
 1.7000e+000 98480 -3.5972e+000  2.4957e+000  7.3956e+000 34064 98549,98258,98232
 1.7000e+000 98457 -1.1004e+001  9.3599e+000  1.7552e+001 34064 98549,98232,98206
 1.7000e+000 98434 -7.1313e+000 -7.3835e-001 -3.6782e-001 34064 98837,98621,98362
 1.7000e+000 98411 -2.5226e+000 -8.8007e-001  5.7010e+000 34064 98765,98284,98258
 1.7000e+000 98388 -5.1571e+000 -3.4456e+000 -1.9924e-001 34064 98837,98362,98336
 1.7000e+000 98575 -2.7598e+000  2.2190e+000  5.3484e+000 34064 98765,98258,98549
 1.7000e+000 98598 -8.2846e+000  1.3443e+000  1.6015e+000 34064 98621,98310,98549
 1.7000e+000 98647 -6.2700e+000  2.7236e+000  1.3134e+000 34064 98693,98362,98621
 1.7000e+000 98670 -3.8627e+000  1.1460e+001  3.3904e+000 34064 98206,98621,98549
 1.7000e+000 98719 -6.0854e+000  3.2479e+000  1.1431e+000 34064 98206,98180,98693
 1.7000e+000 98742 -6.4940e+000  3.6779e+000  8.0499e-001 34064 98206,98693,98621
 1.7000e+000 98791 -1.9230e+000  2.4355e+000  3.3618e+000 34064 98310,98284,98765
 1.7000e+000 98814 -2.8467e+000  4.4235e+000  2.8896e+000 34064 98310,98765,98549
 1.7000e+000 98863 -5.9810e+000  2.6753e+000  7.0410e-001 34064 98310,98621,98837
 1.7000e+000 98886 -4.3739e+000 -5.5066e-001  8.8571e-001 34064 98310,98837,98336
 1.7000e+000 99264 -3.3672e+000 -2.1758e+000 -5.6500e-001 33446 99287,99094,99068
 1.7000e+000 99241 -3.9451e+000  1.1246e+000 -2.6283e+000 33446 99287,99068,99016
 1.7000e+000 99218 -1.3983e+001  3.6457e+000  2.0685e+000 33446 99016,99068,99042
 1.7000e+000 99195 -1.5351e+001 -2.7519e+000 -4.3430e+000 33446 99016,99146,99120
 1.7000e+000 99172 -1.3102e+001  4.9690e-001 -2.1163e+000 33446 98990,99146,99016
 1.7000e+000 99313 -3.6113e-001  1.1178e-001 -2.1090e+000 33446 99120,99094,99287
 1.7000e+000 99336 -3.2451e+000  2.4939e+000 -3.5977e+000 33446 99120,99287,99016
 1.7000e+000 99861 -9.7570e+000 -1.4897e+000 -1.8426e+000 32940 100172,99956,99884
 1.7000e+000 99838 -9.4906e+000 -3.3315e+000 -7.0994e-001 32940 100100,99884,99518
 1.7000e+000 99815 -4.8212e+000 -3.0490e+000 -2.2069e+000 32940 100244,99956,99622
 1.7000e+000 99792 -1.8463e+000  1.7188e+000 -2.8844e-001 32940 100028,99648,99622
 1.7000e+000 99769 -9.7607e+000 -5.5680e+000 -1.2033e+000 32940 100100,99518,99492
 1.7000e+000 99746 -1.4085e+000 -8.0455e-001  9.6759e-002 32940 99570,99622,99596
 1.7000e+000 99723 -2.5972e+000 -2.7506e+000 -1.5333e+000 32940 100244,99622,99570
 1.7000e+000 99700 -7.7862e+000 -2.6919e+000  1.6214e+000 32940 99440,99492,99466
 1.7000e+000 99910 -7.1358e+000 -6.8961e-001 -1.5889e+000 32940 100172,99884,100028
 1.7000e+000 99933 -1.2209e+001 -6.0358e+000  2.1617e+000 32940 99674,99884,99440
 1.7000e+000 99982 -1.0509e+001 -4.9236e+000 -1.1725e+000 32940 99518,99884,99956
 1.7000e+000 100005 -1.2826e+001 -1.2193e+001 -6.6106e+000 32940 99518,99956,99544
 1.7000e+000 100054 -8.9389e+000  3.4492e+000  1.1236e+000 32940 99674,99648,100028
 1.7000e+000 100077 -9.0752e+000  1.4312e+000  1.4152e+000 32940 99674,100028,99884
 1.7000e+000 100126 -9.4280e+000 -2.1031e+000  7.0164e-001 32940 99440,99884,100100
 1.7000e+000 100149 -9.3206e+000 -3.3376e+000  4.3247e-002 32940 99440,100100,99492
 1.7000e+000 100198 -7.7346e+000 -1.0261e+000  3.5587e-001 32940 99622,99956,100172
 1.7000e+000 100221 -7.1248e+000 -9.4464e-001  8.2156e-001 32940 99622,100172,100028
 1.7000e+000 100270 -8.2665e+000 -2.4563e+000 -2.9233e+000 32940 99544,99956,100244
 1.7000e+000 100293 -6.3158e+000 -2.3854e+000 -2.2804e+000 32940 99544,100244,99570
 1.7000e+000 100750  9.4938e-001  3.8102e+000  9.9742e-001 32365 100773,100580,100502
 1.7000e+000 100727  2.4640e+000  3.4366e+000  1.7137e+000 32365 100773,100502,100632
 1.7000e+000 100704  5.7821e+000 -2.4434e+000 -3.2511e+000 32365 100476,100632,100502
 1.7000e+000 100681 -1.2887e+000  1.1882e+000  2.0909e-001 32365 100528,100580,100554
 1.7000e+000 100658  2.9298e+000  4.0342e+000 -1.2718e+000 32365 100502,100580,100528
 1.7000e+000 100799  2.1361e+000  4.6880e+000  1.5012e+000 32365 100606,100580,100773
 1.7000e+000 100822  3.2807e+000  3.9526e+000  2.1352e+000 32365 100606,100773,100632
 1.7000e+000 101021 -7.1506e-001  4.8292e+000  4.5366e+000 31853 100871,100923,100897
 1.7000e+000 100998  4.8151e+000  1.0508e+001  6.8948e+000 31853 100871,100949,100923
 1.7000e+000 100975 -2.4834e-001 -1.6943e+000  6.7153e+000 31853 100845,100949,100871
 1.7000e+000 101529 -7.6577e-001  6.2548e-001 -3.3637e+000 31249 101552,101310,101232
 1.7000e+000 101506  6.6662e-001  2.0286e+000 -4.0533e+000 31249 101552,101232,101206
 1.7000e+000 101483  2.9283e-001  3.2071e-002 -1.9516e+000 31249 101206,101388,101336
 1.7000e+000 101460 -2.9371e+000 -3.6760e+000 -2.2939e+000 31249 101232,101284,101258
 1.7000e+000 101437 -1.4348e+000  1.0157e+000 -2.8607e+000 31249 101232,101310,101284
 1.7000e+000 101414  1.1739e+000  7.2696e-002 -2.8673e-001 31249 101336,101388,101362
 1.7000e+000 101578 -4.8685e-001 -1.1657e+000 -1.8079e+000 31249 101336,101310,101552
 1.7000e+000 101601  1.1036e+000  5.0375e-001 -2.5410e+000 31249 101336,101552,101206
 1.7000e+000 101751 -1.5617e+001  1.4321e+001 -4.9596e-001 30515 101774,101650,101624
 1.7000e+000 101728 -9.6420e+000  1.6654e+001 -1.2033e+000 30515 101846,101774,101624
 1.7000e+000 101800 -1.4177e+001  1.7598e+001  3.3377e-001 30515 101676,101650,101774
 1.7000e+000 101823 -1.3476e+001  1.1095e+001  8.8919e-001 30515 101676,101774,101702
 1.7000e+000 101872 -1.5484e+001  3.0991e+000 -1.6436e+000 30515 101702,101774,101846
 1.7000e+000 102557  2.7557e-001  3.5113e-001  1.0875e+000 29947 102652,102580,102266
 1.7000e+000 102534  1.1439e+000  1.6365e+000  2.0209e+000 29947 102580,102136,102370
 1.7000e+000 102511 -3.9128e-001 -1.1331e+000  8.3865e-001 29947 102724,102652,102266
 1.7000e+000 102488  2.3340e-002 -2.3224e+000  5.5762e-001 29947 102724,102266,102240
 1.7000e+000 102465  8.5003e-001  7.8764e-001  1.2540e+000 29947 102796,102318,102292
 1.7000e+000 102442 -1.1510e+000 -8.9069e-002 -5.6169e-001 29947 102162,102214,102188
 1.7000e+000 102419 -4.0407e-001 -2.6678e-001 -9.4924e-001 29947 102162,102240,102214
 1.7000e+000 102396  2.0242e+000  4.0744e+000  2.6134e+000 29947 102318,102370,102344
 1.7000e+000 102606  6.7417e-001 -1.7748e-001  1.1010e+000 29947 102292,102266,102580
 1.7000e+000 102629  7.9471e-001  4.7101e-001  1.2730e+000 29947 102796,102292,102580
 1.7000e+000 102678  6.3215e-001 -3.6948e-002  1.6887e+000 29947 102136,102580,102652
 1.7000e+000 102701  3.3616e-001  3.2688e-002  1.5193e+000 29947 102136,102652,102162
 1.7000e+000 102750  3.2310e-001  3.7718e-001  1.4252e+000 29947 102162,102652,102724
 1.7000e+000 102773  3.3798e-001 -9.1620e-001  8.7697e-001 29947 102162,102724,102240
 1.7000e+000 102822  8.3900e-001  4.2899e-001  1.3971e+000 29947 102370,102318,102796
 1.7000e+000 102845  8.7136e-001  2.7824e-001  1.4481e+000 29947 102370,102796,102580
 1.7000e+000 103044 -1.5974e+001 -1.2911e+001  1.0410e+000 29450 102868,102920,102894
 1.7000e+000 103021 -1.5853e+001 -1.4590e+001  1.1869e+000 29450 102868,102972,102920
 1.7000e+000 102998 -1.7679e+001 -1.4775e+001 -1.2196e-001 29450 102920,102972,102946
 1.7000e+000 103292 -2.3822e+000 -5.0146e+000  4.3463e+000 29060 103315,103171,103119
 1.7000e+000 103269 -6.3318e+000 -5.0820e+000  5.5254e+000 29060 103315,103119,103067
 1.7000e+000 103246 -6.1812e-001 -2.1740e+000  2.3980e+000 29060 103119,103171,103145
 1.7000e+000 103223 -3.9336e+000 -2.5431e+000  6.5427e+000 29060 103067,103119,103093
 1.7000e+000 103341  1.4049e+000 -5.5565e+000  2.3186e+000 29060 103197,103171,103315
 1.7000e+000 103364 -3.8218e+000 -4.9069e+000  2.1080e+000 29060 103197,103315,103067
 1.7000e+000 104002 -1.1040e+001 -7.6411e+000 -5.5779e+000 28599 104097,104025,103708
 1.7000e+000 103979 -6.5988e+000 -2.9605e+000 -8.0377e-001 28599 104169,104025,103656
 1.7000e+000 103956 -5.7666e+000 -1.1443e+001 -5.0838e+000 28599 104097,103708,103682
 1.7000e+000 103933 -4.5128e+000 -1.1264e+000 -1.6265e-002 28599 104169,103656,103630
 1.7000e+000 103910 -2.7240e+000  1.3866e+001  1.5033e+000 28599 103760,103812,103786
 1.7000e+000 103887 -5.6157e+000  6.7156e-001  4.9341e+000 28599 103630,103838,103812
 1.7000e+000 103864 -5.1972e+000 -4.4945e+000  3.3663e-001 28599 103708,103760,103734
 1.7000e+000 104051 -1.2085e+001 -4.2712e-002 -2.0949e+000 28599 103760,103708,104025
 1.7000e+000 104074 -5.6403e+000  2.9401e-001  1.4679e+000 28599 103760,104025,103812
 1.7000e+000 104123 -6.0025e+000 -1.6907e+000 -3.4098e+000 28599 103656,104025,104097
 1.7000e+000 104146 -1.3403e+000 -7.2267e+000 -3.1648e+000 28599 103656,104097,103682
 1.7000e+000 104195 -7.9340e+000 -5.0687e-001 -3.2032e-001 28599 103812,104025,104169
 1.7000e+000 104218 -7.1732e+000  1.9046e-001 -1.0728e-002 28599 103812,104169,103630
 1.7000e+000 104596 -4.7323e-001 -4.5515e+000  3.0398e-001 28344 104619,104374,104322
 1.7000e+000 104573 -1.8118e+000 -6.3662e+000  2.1242e+000 28344 104619,104322,104478
 1.7000e+000 104550 -2.8071e+000 -3.9331e+000  1.2265e+000 28344 104322,104374,104348
 1.7000e+000 104527  1.6388e+000 -6.4149e+000 -6.3727e+000 28344 104400,104452,104426
 1.7000e+000 104504  1.2259e+000 -9.4253e+000 -4.3157e+000 28344 104374,104452,104400
 1.7000e+000 104645 -1.7763e-001 -1.7765e+000 -1.8207e+000 28344 104452,104374,104619
 1.7000e+000 104668 -2.2256e+000 -3.7524e+000  1.4515e-001 28344 104452,104619,104478
 1.7000e+000 104987  4.2019e-001  1.8752e+000  1.3175e+000 27947 104713,104843,104765
 1.7000e+000 104964 -4.5440e-001  3.0719e+000 -1.1608e-001 27947 104713,104869,104843
 1.7000e+000 104941  4.4912e-001 -3.6636e-001 -1.2700e-001 27947 104765,104843,104791
 1.7000e+000 104918  6.5154e-001 -8.6838e-002  3.3738e-002 27947 104791,104843,104817
 1.7000e+000 104895 -8.1067e-001 -1.4463e+000  9.3718e-001 27947 104713,104765,104739
 1.7000e+000 105367 -1.3158e+001 -1.0218e+001  1.0900e+000 27443 105390,105197,105119
 1.7000e+000 105344 -1.8006e+001 -1.1545e+001  2.3929e+000 27443 105390,105119,105093
 1.7000e+000 105321 -1.5521e+001 -1.1626e+001  1.7109e+000 27443 105119,105197,105145
 1.7000e+000 105298 -9.4861e+000 -1.2408e+001 -1.1868e+000 27443 105197,105249,105223
 1.7000e+000 105275 -1.3541e+001 -8.0996e+000  4.1242e+000 27443 105145,105197,105171
 1.7000e+000 105416 -9.8773e+000 -1.0602e+001 -2.0943e+000 27443 105249,105197,105390
 1.7000e+000 105439 -1.5292e+001 -1.1685e+001 -1.1562e+000 27443 105249,105390,105093
 1.7000e+000 105994 -6.0869e+000 -2.9113e+000 -9.4383e-001 27096 106161,106017,105700
 1.7000e+000 105971 -7.2821e+000 -2.0451e+000  1.0371e-003 27096 106305,106017,105648
 1.7000e+000 105948 -1.9823e+000 -1.2717e+000 -1.1962e+000 27096 106089,105804,105778
 1.7000e+000 105925 -6.4683e+000 -3.2116e+000 -6.4125e-001 27096 106161,105700,105674
 1.7000e+000 105902 -4.9755e+000 -3.1856e+000 -7.7595e-001 27096 106233,105726,105700
 1.7000e+000 105879 -1.6835e+001 -2.5039e+000  1.5288e+000 27096 106305,105648,105622
 1.7000e+000 105856 -3.3074e+000 -3.3341e+000 -6.4167e-002 27096 105726,105778,105752
 1.7000e+000 106043 -5.5649e+000 -2.7327e+000 -4.8956e-001 27096 106233,105700,106017
 1.7000e+000 106066 -3.8284e+000 -2.3218e+000 -3.8375e-001 27096 106089,105778,106017
 1.7000e+000 106115 -4.0860e+000 -2.0965e+000 -7.0675e-001 27096 105830,105804,106089
 1.7000e+000 106138 -5.3346e+000 -1.8586e+000 -4.3607e-001 27096 106377,106089,106017
 1.7000e+000 106187 -6.7358e+000 -2.0532e+000  8.8688e-002 27096 105648,106017,106161
 1.7000e+000 106210 -7.9885e+000 -3.7994e+000  6.7700e-001 27096 105648,106161,105674
 1.7000e+000 106259 -4.3677e+000 -2.6857e+000 -1.0673e+000 27096 105778,105726,106233
 1.7000e+000 106282 -5.0901e+000 -2.3954e+000 -7.3822e-001 27096 105778,106233,106017
 1.7000e+000 106331 -5.8426e+000 -1.4223e+000 -1.4334e+000 27096 106377,106017,106305
 1.7000e+000 106354 -5.6856e+000  5.8823e+000 -2.3070e+000 27096 105830,106305,105622
 1.7000e+000 106403 -3.6395e+000 -1.0211e+000 -7.6382e-001 27096 105830,106089,106377
 1.7000e+000 106426 -3.8417e+000 -5.1882e-001 -1.6241e+000 27096 105830,106377,106305
 1.7000e+000 106625 -1.7358e+001 -8.0057e+000  1.5466e+000 26684 106475,106553,106527
 1.7000e+000 106602 -1.8343e+001 -9.6170e+000  1.0461e+000 26684 106449,106553,106475
 1.7000e+000 106579 -2.2101e+001 -8.0970e+000 -1.5565e+000 26684 106475,106527,106501
 1.7000e+000 107084 -2.3759e+000 -5.0582e+000 -2.7187e-001 26244 107107,106914,106862
 1.7000e+000 107061 -2.4479e+000 -5.4301e+000 -3.2318e-001 26244 107107,106862,106836
 1.7000e+000 107038 -4.1408e+000 -4.8935e+000  4.2261e-002 26244 106810,106966,106836
 1.7000e+000 107015 -1.2060e+000 -5.9606e+000  7.8803e-001 26244 106862,106914,106888
 1.7000e+000 106992 -2.4821e+000 -4.2124e+000 -1.6094e-002 26244 106914,106966,106940
 1.7000e+000 107133 -2.2715e+000 -4.7164e+000  1.8398e-001 26244 106966,106914,107107
 1.7000e+000 107156 -2.5500e+000 -5.4376e+000  1.2017e-001 26244 106966,107107,106836
 1.7000e+000 107662  1.2869e+000 -1.9216e+000  5.9811e-001 25904 107365,107495,107391
 1.7000e+000 107639  7.1783e-001 -1.0114e+000  4.2679e-001 25904 107365,107521,107495
 1.7000e+000 107616  1.5341e-001 -2.5906e+000  1.9945e-001 25904 107391,107469,107443
 1.7000e+000 107593  1.2338e+000 -1.9872e+000 -8.0175e-002 25904 107391,107495,107469
 1.7000e+000 107570 -1.8471e-001 -3.3480e+000  2.7234e-001 25904 107391,107443,107417
 1.7000e+000 107547  7.1678e-001 -7.1788e-001  2.1150e+000 25904 107339,107521,107365
 1.7000e+000 108247 -1.4638e+000 -2.5207e+000 -3.8834e-001 25450 108270,108002,107950
 1.7000e+000 108224 -4.8760e-001 -2.5550e+000  1.4361e-002 25450 108270,107950,108106
 1.7000e+000 108201 -3.2715e-001 -2.9650e+000  6.3487e-002 25450 108342,108028,108002
 1.7000e+000 108178 -2.0254e+000 -3.3989e+000 -1.2882e-001 25450 107950,108002,107976
 1.7000e+000 108155 -1.7032e+000 -1.4954e+000  2.8204e-001 25450 107924,108106,107950
 1.7000e+000 108132 -6.6319e-001 -2.3087e+000  4.3434e-001 25450 108054,108106,108080
 1.7000e+000 108296 -8.7945e-001 -2.5258e+000  9.7671e-002 25450 108342,108002,108270
 1.7000e+000 108319 -2.2739e-001 -2.1800e+000  2.6468e-001 25450 108054,108270,108106
 1.7000e+000 108368  7.5148e-001 -2.6064e+000 -2.0748e-001 25450 108054,108028,108342
 1.7000e+000 108391 -7.9395e-002 -2.3027e+000 -2.5895e-001 25450 108054,108342,108270
 1.7000e+000 108818 -9.2142e+000  1.2600e+000  9.9944e-001 24939 108521,108677,108651
 1.7000e+000 108795 -1.6053e+001 -2.1439e+000 -4.9425e+000 24939 108495,108677,108521
 1.7000e+000 108772 -5.4368e+000  2.8802e+000  1.0924e+000 24939 108521,108651,108625
 1.7000e+000 108749 -9.8034e+000  2.9222e+000  1.2331e+000 24939 108521,108625,108599
 1.7000e+000 108726  3.5404e-001  3.7417e-001  5.1022e-001 24939 108547,108599,108573
 1.7000e+000 108703 -7.3812e+000  3.0423e+000 -1.3732e+000 24939 108521,108599,108547
 1.7000e+000 109403  8.1281e+000  4.0106e+000 -8.9408e-001 24741 109158,109210,109184
 1.7000e+000 109380  2.3380e+000  2.2379e+000 -1.1680e+000 24741 109158,109262,109210
 1.7000e+000 109357  3.5615e+000  2.7151e+000 -1.4841e-001 24741 109080,109262,109158
 1.7000e+000 109334 -4.0540e-002  3.1249e+000  1.5304e+000 24741 109080,109158,109132
 1.7000e+000 109311  1.0062e+001  5.9844e+000 -3.2406e+000 24741 109210,109262,109236
 1.7000e+000 109288  1.3400e+000  2.7148e+000  2.2353e+000 24741 109080,109132,109106
 1.7000e+000 109781  8.8357e-001 -2.6289e+000  3.7379e-001 24337 109533,109611,109559
 1.7000e+000 109758  8.5721e-001 -1.6625e+000 -7.9629e-002 24337 109533,109637,109611
 1.7000e+000 109735  1.0629e+000 -3.0788e+000 -3.1735e-001 24337 109559,109611,109585
 1.7000e+000 109712  8.4687e-001 -1.6625e+000 -4.5559e-002 24337 109533,109663,109637
 1.7000e+000 109689  1.2673e+000 -3.1142e-001  6.5219e-001 24337 109507,109663,109533
 1.7000e+000 110159 -7.3563e+000 -9.7830e+000 -5.4999e-001 23833 110182,109963,109911
 1.7000e+000 110136 -9.6824e+000 -1.1708e+001  6.4014e-001 23833 110182,109911,109885
 1.7000e+000 110113 -5.2327e+000 -6.7580e+000 -1.9114e+000 23833 109885,110041,109989
 1.7000e+000 110090 -7.0820e+000 -6.9565e+000  2.7094e-001 23833 109911,109963,109937
 1.7000e+000 110067 -7.7856e+000 -1.0849e+001 -3.3962e+000 23833 109989,110041,110015
 1.7000e+000 110208 -8.2235e+000 -8.9616e+000 -1.4715e+000 23833 109989,109963,110182
 1.7000e+000 110231 -8.5588e+000 -9.6845e+000 -6.4879e-001 23833 109989,110182,109885
 1.7000e+000 110332  1.2632e+000 -8.4048e-001  1.8487e-001 23429 110254,110306,110280
 1.7000e+000 110580 -1.3918e+000 -1.4682e+000  2.5708e-001 22825 110603,110407,110381
 1.7000e+000 110557 -7.6467e-001 -1.6020e+000  2.5782e+000 22825 110603,110381,110485
 1.7000e+000 110534  1.8252e+000  1.3870e+000  1.8657e+000 22825 110433,110485,110459
 1.7000e+000 110511 -2.0861e+000  5.9600e+000  2.7099e+000 22825 110355,110485,110381
 1.7000e+000 110629 -2.4958e-001  1.1745e+000  3.9610e-001 22825 110433,110407,110603
 1.7000e+000 110652 -2.7061e-002  1.1438e-001  2.5504e+000 22825 110433,110603,110485
 1.7000e+000 110902 -1.5233e+001  5.8276e-001 -1.5432e+000 22428 110703,110755,110729
 1.7000e+000 110879 -1.0519e+001 -1.5900e+000 -2.0636e+000 22428 110703,110781,110755
 1.7000e+000 110856 -1.3999e+001 -3.4098e+000 -3.7605e+000 22428 110703,110807,110781
 1.7000e+000 110833 -2.2488e+001 -6.3180e+000 -8.1293e+000 22428 110677,110807,110703
 1.7000e+000 111284  5.4627e+000 -1.6595e+000 -4.6143e+000 22138 111088,111140,111114
 1.7000e+000 111261  4.6365e+000  3.6449e-001 -5.9259e+000 22138 111062,111140,111088
 1.7000e+000 111238  3.0769e+000 -9.9746e-001 -1.8823e+000 22138 111036,111140,111062
 1.7000e+000 111215 -3.5315e+000 -2.8763e+000 -3.7388e+000 22138 111010,111140,111036
 1.7000e+000 111192 -3.0502e+000 -2.9094e+000 -3.4915e+000 22138 111010,111166,111140
 1.7000e+000 111385 -2.0580e+001 -7.2959e+000  2.2702e+000 21826 111307,111359,111333
 1.7000e+000 111731 -2.2394e+001 -6.2566e+000  2.3447e+000 21264 111754,111538,111434
 1.7000e+000 111708 -1.8815e+001 -4.9298e+000  3.2410e-001 21264 111754,111434,111408
 1.7000e+000 111685 -2.3273e+001 -3.6286e+000  1.5781e+000 21264 111434,111538,111460
 1.7000e+000 111662 -3.0190e+001 -6.6145e+000  2.8134e+000 21264 111460,111538,111486
 1.7000e+000 111639 -1.6922e+001 -8.2809e+000  5.8052e+000 21264 111408,111590,111564
 1.7000e+000 111616 -3.3795e+001  1.7530e+000  6.7053e+000 21264 111486,111538,111512
 1.7000e+000 111780 -2.3610e+001 -6.6426e+000  3.3375e+000 21264 111564,111538,111754
 1.7000e+000 111803 -2.2306e+001 -8.6459e+000  2.0782e+000 21264 111564,111754,111408
 1.7000e+000 111955 -3.6732e+000 -4.8223e-002  5.6791e-001 20860 111978,111906,111880
 1.7000e+000 111932 -3.5025e+000 -2.5299e+000 -7.9460e-001 20860 112110,111828,111906
 1.7000e+000 112004 -4.5292e+000 -5.2288e-001 -4.3024e-002 20860 112110,111906,111978
 1.7000e+000 112136 -2.8576e+000 -6.8048e-001 -7.6466e-001 20860 111854,111828,112110
 1.7000e+000 112159 -3.5384e+000  1.9607e+000 -1.6688e-001 20860 111854,112110,111978
 1.7000e+000 112407 -7.7536e+000 -2.3837e+000 -2.3528e+000 20320 112182,112286,112208
 1.7000e+000 112384 -2.8611e+000 -8.9335e-001 -2.1744e+000 20320 112182,112312,112286
 1.7000e+000 112361 -5.6453e+000 -1.2601e+000 -1.7932e+000 20320 112208,112286,112260
 1.7000e+000 112338 -1.5404e+001  2.8375e+000 -6.6775e+000 20320 112208,112260,112234
 1.7000e+000 112655  8.4399e-001 -5.2626e+000  3.3425e+000 19916 112508,112560,112534
 1.7000e+000 112632 -3.0814e+000 -8.2631e+000  1.8432e+000 19916 112430,112560,112508
 1.7000e+000 112609 -3.8897e+000 -1.0076e+001  1.6590e+000 19916 112430,112508,112456
 1.7000e+000 112586 -3.4062e+000 -4.5977e+000  9.0889e-001 19916 112456,112508,112482
 1.7000e+000 112807 -9.0531e+000 -1.5572e+000 -7.1234e-002 19626 112680,112732,112706
 1.7000e+000 112784 -6.3886e+000 -2.5059e+000 -1.5212e+000 19626 112680,112758,112732
 1.7000e+000 113008 -5.8544e+000 -3.2426e+000  2.6138e+000 19165 112858,112936,112884
 1.7000e+000 112985 -1.4787e+001 -6.2691e+000 -1.8735e+000 19165 112832,112936,112858
 1.7000e+000 112962 -1.7259e+000 -2.0216e+000 -1.1499e-001 19165 112884,112936,112910
 1.7000e+000 113209 -4.3834e+000 -2.9845e+000  1.7737e-001 18596 113033,113085,113059
 1.7000e+000 113186 -1.1387e+000 -2.2625e+000 -6.6051e-001 18596 113033,113111,113085
 1.7000e+000 113163 -2.5087e+000 -3.4586e+000  9.8067e-003 18596 113033,113137,113111
 1.7000e+000 113481 -2.7505e+000 -3.5894e+000  3.9765e-001 18348 113256,113308,113282
 1.7000e+000 113458 -4.5925e-001 -3.0989e+000  1.2115e-001 18348 113256,113386,113308
 1.7000e+000 113435 -8.3579e-003 -2.5922e+000  4.9033e-001 18348 113308,113386,113360
 1.7000e+000 113412  5.1265e-001 -3.3594e+000  7.7513e-002 18348 113308,113360,113334
 1.7000e+000 113753  2.0159e-001 -3.1402e+000  4.2076e-002 17830 113554,113606,113580
 1.7000e+000 113730  1.1816e+000 -3.0083e+000  8.9067e-002 17830 113528,113606,113554
 1.7000e+000 113707  1.5343e+000 -2.1399e+000  3.4490e-001 17830 113528,113658,113606
 1.7000e+000 113684  7.2296e-001 -3.1542e+000 -5.5136e-002 17830 113606,113658,113632
 1.7000e+000 113954 -1.3843e+000 -1.8635e+000 -7.8969e-001 17326 113778,113830,113804
 1.7000e+000 113931  5.7259e+000 -6.6364e+000 -2.8525e+000 17326 113778,113882,113830
 1.7000e+000 113908  7.5364e+000 -2.2615e+000 -2.4686e+000 17326 113830,113882,113856
 1.7000e+000 114106  1.9198e+000 -3.0902e+000  1.7251e-001 16870 113979,114031,114005
 1.7000e+000 114083  1.4674e+000 -2.6554e+000  2.8512e-001 16870 113979,114057,114031
 1.7000e+000 114461 -6.1084e+000  3.2938e+000 -5.5858e+000 16266 114236,114288,114262
 1.7000e+000 114438 -5.8708e+000 -4.8435e+000 -9.2555e-001 16266 114236,114366,114288
 1.7000e+000 114415 -3.3002e+000 -1.9880e+000  1.5581e+000 16266 114288,114340,114314
 1.7000e+000 114392 -3.8016e+000 -2.6025e+000  3.2515e-002 16266 114288,114366,114340
 1.7000e+000 114562 -2.0484e+001 -1.1157e-001  0.0000e+000 15830 114484,114536,114510
 1.7000e+000 114663 -3.2097e+000 -4.0377e+000  1.7959e+000 15151 114585,114637,114611
 1.7000e+000 114886  4.2292e+000  1.3317e+000  2.5391e+000 417 114762,114814,114788
 1.7000e+000 114863  2.0136e+000 -1.5492e+000  1.2258e+000 417 114710,114814,114762
 1.7000e+000 114840 -3.5619e+000 -2.6842e-001 -1.7465e-001 417 114710,114762,114736
 1.8000e+000 66549 -9.2985e-002 -3.5363e+000 -9.2676e-002 66104 66350,66454,66428
 1.8000e+000 66526  1.7516e-001 -3.5014e+000 -5.4590e-002 66104 66324,66454,66350
 1.8000e+000 66503 -3.4343e-002 -2.1731e+000 -7.5921e-002 66104 66350,66428,66402
 1.8000e+000 66480  6.4836e-001 -4.1862e+000 -2.3414e-001 66104 66350,66402,66376
 1.8000e+000 66947  1.4736e+000 -7.5000e-002  2.4361e-001 65906 66699,66829,66803
 1.8000e+000 66924 -9.0782e-001 -6.4568e-001  7.0622e-002 65906 66673,66829,66699
 1.8000e+000 66901  1.5372e+000 -2.6443e-001  3.4375e-001 65906 66725,66777,66751
 1.8000e+000 66878 -3.7195e+000 -7.6247e-001 -2.4950e-001 65906 66725,66803,66777
 1.8000e+000 66855  1.2665e+000 -6.1416e+000 -1.3989e+000 65906 66699,66803,66725
 1.8000e+000 67146 -7.4599e-001 -1.5681e-001 -1.3295e-001 65708 67022,67074,67048
 1.8000e+000 67123  2.6058e-001 -4.9590e-001 -6.4448e-002 65708 66970,67074,67022
 1.8000e+000 67100  4.9247e-001 -6.3125e-001  1.6718e-001 65708 66970,67022,66996
 1.8000e+000 67477 -1.2617e+000 -3.4266e+000 -2.0209e+000 65418 67278,67356,67330
 1.8000e+000 67454 -1.4123e-001  2.0072e+000 -1.0235e+000 65418 67278,67382,67356
 1.8000e+000 67431 -1.8775e+000 -1.7193e+000 -3.7991e+000 65418 67278,67330,67304
 1.8000e+000 67408 -2.8569e-001 -6.0269e-001 -1.4650e+000 65418 67252,67382,67278
 1.8000e+000 68111 -9.6380e-001 -1.3667e-001 -1.1907e-001 65014 67791,67921,67869
 1.8000e+000 68088 -1.4485e+000 -2.7414e-001 -1.1267e+000 65014 67765,67921,67791
 1.8000e+000 68065 -7.6284e-001 -1.2938e+000 -1.6418e-001 65014 67869,67921,67895
 1.8000e+000 68042  3.9821e-001 -1.5315e+000 -8.1530e-001 65014 67765,67947,67921
 1.8000e+000 68019  6.8956e-002 -2.3070e-001 -7.2821e-001 65014 67791,67869,67817
 1.8000e+000 67996  8.2476e-001 -5.5778e-001 -2.0166e-001 65014 67817,67869,67843
 1.8000e+000 67973  9.7355e-001  5.4989e-002  6.5514e-001 65014 67739,67947,67765
 1.8000e+000 68359 -1.3421e+000 -6.5534e+000  1.6908e-001 64816 68186,68238,68212
 1.8000e+000 68336 -1.4776e+000 -1.0792e+001  7.4552e-001 64816 68186,68264,68238
 1.8000e+000 68313 -1.4552e+000 -1.0746e+001  1.1538e+000 64816 68160,68264,68186
 1.8000e+000 68290 -7.1025e-001 -9.8153e+000  4.2444e-001 64816 68134,68264,68160
 1.8000e+000 68509  5.2450e-001 -1.8797e+000  3.7353e-001 64362 68864,68532,68434
 1.8000e+000 68486 -2.6188e+000 -2.0314e+000  1.1066e+000 64362 68532,68408,68382
 1.8000e+000 68558  4.7190e-001 -1.9084e+000  7.0427e-001 64362 68736,68532,68460
 1.8000e+000 68581 -2.5431e-001 -1.3569e+000  1.0875e-001 64362 68604,68532,68382
 1.8000e+000 68630  1.6217e+000 -6.9489e-002  1.8877e+000 64362 68460,68532,68604
 1.8000e+000 68762  1.5160e+000 -1.6907e-001 -1.5709e-001 64362 68434,68532,68736
 1.8000e+000 68890 -1.2215e+000 -1.5590e+000 -3.4307e-001 64362 68408,68532,68864
 1.8000e+000 69168 -2.8717e+000 -7.4572e+000  1.2131e+000 64164 69018,69070,69044
 1.8000e+000 69145 -1.0936e+000 -9.7599e+000  7.3369e-001 64164 68992,69070,69018
 1.8000e+000 69122 -9.3279e-001 -9.7604e+000  1.7660e+000 64164 68992,69096,69070
 1.8000e+000 69367  2.5621e-001 -4.5261e+000 -1.2691e+000 63966 69462,69390,69269
 1.8000e+000 69344 -3.4078e+000 -1.0466e+001  9.3302e-001 63966 69390,69243,69217
 1.8000e+000 69321 -1.2266e+000 -6.1966e+000 -7.2161e-001 63966 69191,69295,69217
 1.8000e+000 69416  1.9959e+000 -6.9638e+000 -2.2410e+000 63966 69295,69269,69390
 1.8000e+000 69439 -9.2689e-001 -6.9210e+000 -3.9450e-001 63966 69295,69390,69217
 1.8000e+000 69488 -3.3638e+000 -1.0281e+001 -2.8129e+000 63966 69243,69390,69462
 1.8000e+000 69900  1.6736e+000 -2.7013e+000 -6.5613e-002 63676 69701,69779,69727
 1.8000e+000 69877 -8.8965e-001 -4.4458e+000  7.4097e-001 63676 69675,69779,69701
 1.8000e+000 69854  3.7355e-001 -4.2293e+000  4.8336e-001 63676 69675,69805,69779
 1.8000e+000 69831  5.2977e+000 -3.8329e+000 -1.9852e-001 63676 69727,69779,69753
 1.8000e+000 70050 -4.7890e-001 -8.4511e+000  6.2287e-002 63472 70073,69949,69923
 1.8000e+000 70027  1.7191e+000 -8.5841e+000 -1.5649e-001 63472 70073,69923,70001
 1.8000e+000 70099 -1.8186e+000 -8.7023e+000  1.1043e-001 63472 69975,69949,70073
 1.8000e+000 70122  9.7598e-002 -9.0297e+000 -7.9809e-002 63472 69975,70073,70001
 1.8000e+000 70321  1.7520e+000 -6.9405e+000  1.3759e+000 63274 70145,70223,70171
 1.8000e+000 70298  4.9541e-001 -8.7487e+000 -5.0960e-001 63274 70145,70249,70223
 1.8000e+000 70275  2.7548e+000 -5.7365e+000  1.9868e+000 63274 70171,70223,70197
 1.8000e+000 70593  8.4397e-001 -4.2313e+000  4.7956e-001 63076 70368,70472,70420
 1.8000e+000 70570  1.3765e+000 -8.5959e+000  2.0093e-001 63076 70368,70498,70472
 1.8000e+000 70547  2.7704e+000 -7.0065e+000 -2.8189e+000 63076 70420,70472,70446
 1.8000e+000 70524  1.1123e+000 -4.3308e+000  1.1183e+000 63076 70368,70420,70394
 1.8000e+000 70843 -3.1052e+000 -6.5209e+000 -5.4772e-001 62736 70866,70644,70618
 1.8000e+000 70820 -1.5418e+000 -6.5046e+000 -1.3340e+000 62736 70866,70618,70748
 1.8000e+000 70797 -9.1694e-001 -6.8929e+000  2.1990e-001 62736 70644,70722,70696
 1.8000e+000 70774 -1.4528e+000 -4.8573e+000  9.9939e-001 62736 70644,70696,70670
 1.8000e+000 70892 -1.5458e+000 -6.1991e+000 -6.0881e-001 62736 70722,70644,70866
 1.8000e+000 70915 -7.4979e-001 -6.5895e+000 -1.5300e+000 62736 70722,70866,70748
 1.8000e+000 71018  5.5166e+000 -6.3466e+000 -3.2977e+000 62516 70940,70992,70966
 1.8000e+000 71219  3.2585e-001 -7.0528e+000  1.1943e+000 62226 71069,71147,71095
 1.8000e+000 71196 -1.6929e+000 -8.3245e+000  4.1873e-001 62226 71043,71147,71069
 1.8000e+000 71173 -2.3818e+000 -5.9642e+000  1.6704e+000 62226 71095,71147,71121
 1.8000e+000 71857  8.3840e-002 -2.5650e-001  6.4977e-003 61708 71511,71693,71667
 1.8000e+000 71834  2.8334e-001  2.5272e-001 -1.0402e-001 61708 71485,71693,71511
 1.8000e+000 71811 -8.2735e-001 -1.2849e+000  3.8013e-002 61708 71880,71537,71511
 1.8000e+000 71788  4.6682e-001 -4.3444e-001 -3.3342e-001 61708 71880,71511,71667
 1.8000e+000 71765  7.8292e-002 -3.0233e+000 -8.4964e-001 61708 71537,71615,71589
 1.8000e+000 71742  8.3676e-001  1.5212e+000  2.4826e+000 61708 71615,71667,71641
 1.8000e+000 71719  9.2590e-001 -4.6800e+000  2.7745e+000 61708 71537,71589,71563
 1.8000e+000 71906  4.4988e-001 -2.1106e+000  3.9699e-001 61708 71615,71537,71880
 1.8000e+000 71929  1.3576e+000 -1.5562e+000  1.5980e-001 61708 71615,71880,71667
 1.8000e+000 72226 -2.4396e+000 -5.9915e+000  1.1757e+000 61204 72249,72056,72004
 1.8000e+000 72203 -1.6071e+000 -6.7248e+000  1.9307e+000 61204 72249,72004,71978
 1.8000e+000 72180 -1.7101e+000 -7.1646e+000  1.4472e+000 61204 71978,72108,72082
 1.8000e+000 72157  5.9290e-001 -2.8113e+000  3.7856e+000 61204 72004,72056,72030
 1.8000e+000 72134 -7.7161e-001 -1.0350e+001  2.1050e+000 61204 71952,72108,71978
 1.8000e+000 72275 -3.6996e+000 -6.4521e+000  1.3387e+000 61204 72082,72056,72249
 1.8000e+000 72298 -2.4733e+000 -6.9807e+000  1.9060e+000 61204 72082,72249,71978
 1.8000e+000 72757 -1.8853e+000 -3.6597e+000  1.8381e+000 60800 72483,72613,72509
 1.8000e+000 72734 -1.6854e+000 -8.2429e+000  1.2590e+000 60800 72483,72639,72613
 1.8000e+000 72711  9.8906e-001 -5.1208e+000  2.2757e+000 60800 72561,72613,72587
 1.8000e+000 72688 -2.8510e+000 -4.3650e+000  2.2406e+000 60800 72509,72613,72561
 1.8000e+000 72665 -4.0240e+000 -6.2661e+000  4.5509e+000 60800 72509,72561,72535
 1.8000e+000 72907 -1.4980e+000  2.2891e+000 -3.7725e-001 60552 72780,72832,72806
 1.8000e+000 72884  8.4508e-001  4.6115e+000 -1.4823e+000 60552 72780,72858,72832
 1.8000e+000 73464  6.4601e-001 -4.2060e+000  2.1035e+000 60240 73487,73222,73196
 1.8000e+000 73441  1.1919e+000 -2.1512e+000  2.4407e+000 60240 73559,73487,73196
 1.8000e+000 73418 -7.7698e-001 -5.2949e-001  2.4700e+000 60240 73559,73196,73170
 1.8000e+000 73395  1.4375e+000 -6.8437e+000  1.6737e+000 60240 73222,73274,73248
 1.8000e+000 73372  1.8560e+000 -2.8927e+000  2.7164e+000 60240 73118,73300,73274
 1.8000e+000 73349 -5.9861e-001 -8.6038e+000  1.9757e+000 60240 73092,73300,73118
 1.8000e+000 73326 -3.9435e+000 -3.3020e+000  5.7645e+000 60240 73118,73170,73144
 1.8000e+000 73513  5.3089e-001 -4.0677e+000  1.6464e+000 60240 73274,73222,73487
 1.8000e+000 73536  3.0348e-001 -4.7352e+000  1.7383e+000 60240 73274,73487,73118
 1.8000e+000 73585 -7.9530e-001 -4.6273e+000  1.3438e+000 60240 73118,73487,73559
 1.8000e+000 73608 -2.4442e+000 -2.6906e+000  1.4729e+000 60240 73118,73559,73170
 1.8000e+000 73758 -9.8026e+000 -5.8702e+000 -2.0368e+000 59871 73657,73709,73683
 1.8000e+000 73735 -2.6782e+000 -1.3121e+001 -8.7311e-001 59871 73631,73709,73657
 1.8000e+000 74187 -2.4507e+000 -1.0194e+001  5.4480e-001 59474 74210,73890,73864
 1.8000e+000 74164 -3.2651e+000 -1.3101e+001  1.2482e+000 59474 74210,73864,74046
 1.8000e+000 74141 -3.0118e+000 -7.0358e+000  2.7343e-001 59474 73890,73942,73916
 1.8000e+000 74118 -2.5155e+000 -7.6023e+000  1.8979e-001 59474 73890,73994,73942
 1.8000e+000 74095 -3.4871e+000 -1.1149e+001  3.7317e-002 59474 73994,74046,74020
 1.8000e+000 74072 -1.5971e+000 -6.9056e+000  6.6737e-001 59474 73942,73994,73968
 1.8000e+000 74236 -3.6799e+000 -8.0303e+000  3.0091e-001 59474 73994,73890,74210
 1.8000e+000 74259 -3.6734e+000 -9.8700e+000  9.5311e-001 59474 73994,74210,74046
 1.8000e+000 74716 -5.0494e+000 -8.8966e+000 -3.7419e+000 58770 74468,74598,74494
 1.8000e+000 74693 -2.7983e+000 -5.2465e+000 -1.6743e+000 58770 74442,74598,74468
 1.8000e+000 74670 -4.9037e+000 -1.1466e+001 -7.7533e+000 58770 74494,74572,74520
 1.8000e+000 74647 -1.5329e+000 -4.1064e+000 -2.1395e+000 58770 74494,74598,74572
 1.8000e+000 74624  2.9238e+000 -4.7617e+000 -1.6387e+000 58770 74520,74572,74546
 1.8000e+000 75222 -2.4203e+000 -5.8013e+000  1.6297e+000 58266 74951,75081,75029
 1.8000e+000 75199  1.4750e+000 -6.7933e+000  3.2654e+000 58266 74925,75081,74951
 1.8000e+000 75176 -6.0487e+000 -8.5961e+000  4.2057e+000 58266 75029,75081,75055
 1.8000e+000 75153 -6.7038e-001 -3.6479e+000  1.4787e+000 58266 74951,75003,74977
 1.8000e+000 75130 -3.4942e+000 -6.4060e+000  2.6065e+000 58266 74951,75029,75003
 1.8000e+000 75107 -4.4426e+000 -9.1746e+000  2.9112e+000 58266 74899,75081,74925
 1.8000e+000 75421 -2.7852e+000 -6.9940e+000  9.0055e-001 57826 75444,75297,75245
 1.8000e+000 75398 -3.1729e+000 -1.0719e+001  2.2198e+000 57826 75444,75245,75349
 1.8000e+000 75375 -4.8709e+000 -4.5321e+000  1.1367e+000 57826 75516,75297,75271
 1.8000e+000 75470 -2.7041e+000 -5.0162e+000  1.6240e-001 57826 75323,75297,75444
 1.8000e+000 75493 -1.8800e+000 -6.4428e+000  1.7404e+000 57826 75323,75444,75349
 1.8000e+000 75542 -2.2943e+000 -6.8334e+000  3.6989e-001 57826 75245,75297,75516
 1.8000e+000 76257  1.2614e+000  3.3750e+000  1.1654e+000 57422 76280,76093,76067
 1.8000e+000 76234  5.1262e-001  1.2923e+000  1.5817e+000 57422 75885,76093,75911
 1.8000e+000 76211  1.2383e+000  2.5677e+000  3.9662e-002 57422 76424,76280,76067
 1.8000e+000 76188  2.3323e+000  2.0588e+000  6.1792e-001 57422 76352,75937,75911
 1.8000e+000 76165  1.2244e+000  2.0272e+000  6.9073e-002 57422 76424,76067,76015
 1.8000e+000 76142  1.7436e+000  5.9771e+000  2.2197e+000 57422 76015,76067,76041
 1.8000e+000 76119  1.2624e+000  1.6875e+000  1.0181e-001 57422 75963,76015,75989
 1.8000e+000 76306  4.5675e-001  1.3536e+000  1.5836e+000 57422 75911,76093,76280
 1.8000e+000 76329  1.7896e+000  2.7368e+000  8.9536e-001 57422 76352,75911,76280
 1.8000e+000 76378  1.3492e+000  9.8876e-001  4.4244e-002 57422 75963,75937,76352
 1.8000e+000 76401  1.0886e+000  1.7474e+000  4.2292e-001 57422 75963,76352,76280
 1.8000e+000 76450  1.1228e+000  2.0214e+000  1.5723e-001 57422 75963,76280,76424
 1.8000e+000 76473  1.2958e+000  1.6995e+000  1.0755e-001 57422 75963,76424,76015
 1.8000e+000 76949 -5.0903e+000 -2.3894e+000  2.2014e+000 56904 76972,76707,76681
 1.8000e+000 76926 -4.1144e+000  1.4268e+000 -1.9784e-001 56904 77044,76972,76681
 1.8000e+000 76903 -2.2126e+000  3.5842e+000 -1.0547e+000 56904 77044,76681,76629
 1.8000e+000 76880 -1.8596e+000 -2.1676e+000  1.1980e+000 56904 76707,76785,76759
 1.8000e+000 76857  1.0002e+000 -1.9742e+000 -2.4140e+000 56904 76577,76785,76603
 1.8000e+000 76834 -1.6857e+000 -2.7724e+000  2.3198e+000 56904 76707,76759,76733
 1.8000e+000 76811 -6.2857e-002  4.3336e+000 -9.0384e-001 56904 76629,76681,76655
 1.8000e+000 76998 -1.0003e+000 -1.2073e-001  7.7461e-001 56904 76785,76707,76972
 1.8000e+000 77021 -2.9069e+000 -1.6560e+000 -5.4357e-001 56904 76785,76972,76603
 1.8000e+000 77070 -1.0758e+000 -3.7505e-001 -1.1023e+000 56904 76603,76972,77044
 1.8000e+000 77093 -2.2388e-001  5.3705e-001 -1.5721e+000 56904 76603,77044,76629
 1.8000e+000 77471 -3.7586e+000  3.9646e+000 -3.7606e+000 56542 77566,77494,77275
 1.8000e+000 77448 -1.5286e+000  5.8801e+000 -1.2340e+000 56542 77494,77223,77353
 1.8000e+000 77425 -3.0320e+000  3.6318e+000 -6.1448e+000 56542 77566,77275,77249
 1.8000e+000 77402  2.6616e+000  6.4704e+000  1.4039e+000 56542 77197,77353,77223
 1.8000e+000 77379 -2.4143e+000  4.9013e+000 -7.5222e+000 56542 77275,77327,77301
 1.8000e+000 77520 -2.4746e+000  9.6869e+000 -3.6306e+000 56542 77327,77275,77494
 1.8000e+000 77543 -7.6525e+000  5.2848e+000 -1.5212e+000 56542 77327,77494,77353
 1.8000e+000 77592  1.0843e+000  5.6942e+000 -2.1186e+000 56542 77223,77494,77566
 1.8000e+000 77615 -4.3483e-001  2.8106e+000 -4.8736e+000 56542 77223,77566,77249
 1.8000e+000 77814  3.5359e+000  5.2347e+000 -3.4329e+000 56038 77837,77690,77664
 1.8000e+000 77791  3.7628e+000  5.4047e+000 -3.6097e+000 56038 77837,77664,77742
 1.8000e+000 77768  5.2257e+000  2.5388e+000 -3.2712e+000 56038 77638,77742,77664
 1.8000e+000 77863  3.4150e+000  5.0841e+000 -3.2501e+000 56038 77716,77690,77837
 1.8000e+000 77886  3.6743e+000  5.2810e+000 -3.4313e+000 56038 77716,77837,77742
 1.8000e+000 78345 -2.6678e+000 -6.5286e+000  4.6806e+000 55534 78071,78123,78097
 1.8000e+000 78322 -5.2824e+000 -7.7374e+000  1.9108e+000 55534 78071,78201,78123
 1.8000e+000 78299 -6.1191e+000 -8.9872e+000  2.2736e+000 55534 78071,78227,78201
 1.8000e+000 78276 -5.8961e-001 -4.8203e+000  4.5150e+000 55534 78123,78175,78149
 1.8000e+000 78253 -2.4741e+000 -4.3948e+000  3.6535e+000 55534 78123,78201,78175
 1.8000e+000 78802 -4.2167e+000  2.6805e+000 -5.9050e-001 55030 78825,78632,78606
 1.8000e+000 78779 -2.2892e+000  7.8404e-001 -1.4735e+000 55030 78897,78825,78606
 1.8000e+000 78756 -5.2780e+000  3.2374e-001 -1.5256e+000 55030 78897,78606,78580
 1.8000e+000 78733 -1.2886e-001  4.2913e+000  1.0700e-001 55030 78554,78684,78658
 1.8000e+000 78710 -1.7437e+000  2.7564e-001 -1.0318e+000 55030 78528,78684,78554
 1.8000e+000 78851 -1.0766e+000  9.5232e+000  2.0681e+000 55030 78658,78632,78825
 1.8000e+000 78874 -2.8538e+000  1.3318e+000 -1.0239e+000 55030 78658,78825,78554
 1.8000e+000 78923 -4.3349e+000  1.7873e-001 -3.4601e+000 55030 78554,78825,78897
 1.8000e+000 78946 -5.1846e+000  6.2758e-001 -3.8688e+000 55030 78554,78897,78580
 1.8000e+000 79403  1.3460e-001 -3.1504e-001  1.5047e+000 54426 79426,79233,79155
 1.8000e+000 79380  4.1976e+000 -4.5300e-001 -1.5724e-001 54426 79426,79155,79129
 1.8000e+000 79357 -3.5578e+000 -1.8246e+000  1.1095e+000 54426 79233,79285,79259
 1.8000e+000 79334 -1.7530e+000 -6.8339e-001  3.2664e+000 54426 79181,79233,79207
 1.8000e+000 79311 -7.5259e-001 -9.9494e-001  1.8050e+000 54426 79155,79233,79181
 1.8000e+000 79452 -9.0746e-001 -8.4568e-001  2.8923e+000 54426 79285,79233,79426
 1.8000e+000 79475  1.3921e+000 -2.8134e+000  1.5256e+000 54426 79285,79426,79129
 1.8000e+000 79932 -5.7525e-001 -6.5038e-001  1.5637e+000 53915 79658,79762,79684
 1.8000e+000 79909 -7.1045e+000 -6.8722e+000  4.2546e+000 53915 79658,79814,79762
 1.8000e+000 79886 -5.6570e+000 -8.4930e+000  7.1151e+000 53915 79762,79814,79788
 1.8000e+000 79863 -5.4629e+000 -2.2206e+000  4.2108e+000 53915 79710,79762,79736
 1.8000e+000 79840 -4.4570e+000 -3.3088e+000  3.0696e+000 53915 79684,79762,79710
 1.8000e+000 80033 -4.0907e+000 -8.8932e+000 -1.3013e+000 53667 79955,80007,79981
 1.8000e+000 80401 -8.3302e+000 -1.2531e+001  1.1257e+000 53263 80104,80260,80234
 1.8000e+000 80378 -6.9998e+000 -1.3172e+001  7.8895e-001 53263 80078,80260,80104
 1.8000e+000 80355 -5.9722e+000 -9.1800e+000 -7.7687e-001 53263 80104,80234,80130
 1.8000e+000 80332 -5.1869e+000 -6.4578e+000 -8.6398e-001 53263 80130,80208,80182
 1.8000e+000 80309 -7.7984e+000 -9.0049e+000  5.1021e-001 53263 80130,80234,80208
 1.8000e+000 80286 -4.9908e+000 -2.4173e+000  1.3119e+000 53263 80130,80182,80156
 1.8000e+000 80911 -7.1931e+000 -8.4239e+000  5.7086e-001 52965 80640,80770,80744
 1.8000e+000 80888 -5.1342e+000 -9.5781e+000  2.4485e+000 52965 80614,80770,80640
 1.8000e+000 80865 -5.1050e+000 -5.7423e+000  2.1034e+000 52965 80640,80744,80666
 1.8000e+000 80842 -5.4261e+000 -9.4538e+000  2.7318e+000 52965 80588,80770,80614
 1.8000e+000 80819 -6.2397e+000 -5.5837e+000  1.9121e+000 52965 80666,80718,80692
 1.8000e+000 80796 -8.1889e+000 -6.2911e+000 -1.3500e-001 52965 80666,80744,80718
 1.8000e+000 81262 -2.6422e+001 -8.9742e-001  4.8475e-001 52561 81037,81141,81063
 1.8000e+000 81239 -2.5940e+001 -6.5474e+000 -4.0189e-001 52561 81037,81167,81141
 1.8000e+000 81216 -4.4348e+001  2.0483e+000 -1.2334e+000 52561 81063,81115,81089
 1.8000e+000 81193 -4.4843e+001 -5.4582e+000 -4.7668e+000 52561 81063,81141,81115
 1.8000e+000 81719 -3.5910e+000  2.7203e-001  2.5910e-001 51900 81445,81523,81471
 1.8000e+000 81696 -4.8426e+000 -2.9242e+000  2.4313e-001 51900 81445,81575,81523
 1.8000e+000 81673 -3.4934e+000 -6.0173e-001 -7.6413e-001 51900 81445,81601,81575
 1.8000e+000 81650 -3.3768e+000  4.0474e-001  1.4809e+000 51900 81523,81575,81549
 1.8000e+000 81627 -5.2550e-001  7.0880e-001  5.8153e-001 51900 81471,81523,81497
 1.8000e+000 82323 -1.9984e+000 -6.1140e-001  1.6032e+000 51317 82418,82346,82032
 1.8000e+000 82300 -3.1877e+000  4.3545e-001  1.0390e+000 51317 82490,82346,81954
 1.8000e+000 82277 -1.8305e+000  5.1024e-001  8.9205e-001 51317 82418,82032,82006
 1.8000e+000 82254 -3.1147e+000  5.4772e-001  9.0045e-001 51317 82490,81954,81928
 1.8000e+000 82231 -1.0786e+000 -5.4756e+000  5.1173e+000 51317 82058,82110,82084
 1.8000e+000 82208 -1.3435e+000  3.2018e+000 -2.4590e-001 51317 81928,82136,82110
 1.8000e+000 82185  1.1088e+000  7.4062e-001  1.0673e-001 51317 81954,82006,81980
 1.8000e+000 82162 -5.1181e+000  1.5751e+000 -4.9957e-001 51317 81902,82136,81928
 1.8000e+000 82372 -2.7929e+000 -5.1317e+000  9.6601e-001 51317 82058,82032,82346
 1.8000e+000 82395 -3.1813e+000 -3.3913e-001  6.2732e-001 51317 82058,82346,82110
 1.8000e+000 82444 -8.4300e-001 -7.5944e-001  1.5715e-001 51317 81954,82346,82418
 1.8000e+000 82467 -5.7337e-001  3.6356e-001 -5.6291e-001 51317 81954,82418,82006
 1.8000e+000 82516 -3.2325e+000  2.8159e-001  1.0608e+000 51317 82110,82346,82490
 1.8000e+000 82539 -3.2283e+000  3.2735e-001  9.4710e-001 51317 82110,82490,81928
 1.8000e+000 83015 -2.1679e+000 -7.3815e-001 -1.1494e-003 50813 82669,82747,82695
 1.8000e+000 82992 -4.7647e+000 -1.3101e+000  3.3066e+000 50813 83038,82669,82851
 1.8000e+000 82969 -4.9204e+000 -3.1538e+000  3.1511e+000 50813 83038,82851,82799
 1.8000e+000 82946 -3.6962e+000 -4.5924e+000  3.1704e+000 50813 82747,82799,82773
 1.8000e+000 82923 -8.8745e-001 -9.6309e-001  2.1047e+000 50813 82643,82851,82669
 1.8000e+000 82900 -5.0253e+000 -4.7337e+000  2.6138e+000 50813 82799,82851,82825
 1.8000e+000 82877 -2.8354e+000 -2.0517e+000  2.6171e-001 50813 82695,82747,82721
 1.8000e+000 83064 -4.1538e+000 -2.8086e+000  4.3948e+000 50813 82747,82669,83038
 1.8000e+000 83087 -4.1003e+000 -4.4832e+000  4.0288e+000 50813 82747,83038,82799
 1.8000e+000 83286  1.3138e+000 -8.9930e+000 -2.4673e+000 50352 83309,83162,83136
 1.8000e+000 83263 -1.8449e+000 -1.3668e+000 -2.2525e-001 50352 83511,83309,83136
 1.8000e+000 83240 -1.6831e+000 -5.3641e-001 -3.5614e-001 50352 83511,83136,83381
 1.8000e+000 83335  7.2544e+000 -1.6419e+000 -5.6566e+000 50352 83188,83162,83309
 1.8000e+000 83358 -1.0685e+000 -1.6235e+000 -2.4068e+000 50352 83188,83309,83214
 1.8000e+000 83407 -2.5635e+000  4.0228e+000 -1.0948e+000 50352 83110,83214,83381
 1.8000e+000 83537 -1.6414e+000 -4.0180e-001 -8.2134e-001 50352 83214,83309,83511
 1.8000e+000 83560 -1.6778e+000 -1.3566e-001 -1.0387e+000 50352 83214,83511,83381
 1.8000e+000 83889 -5.9669e+000 -4.5910e+000 -1.2262e+000 49548 83716,83794,83742
 1.8000e+000 83866 -4.4420e+000 -6.3385e+000  9.1896e-001 49548 83690,83794,83716
 1.8000e+000 83843 -6.5603e+000 -9.8046e+000 -5.6750e-001 49548 83664,83794,83690
 1.8000e+000 83820 -7.4538e+000 -6.2958e+000 -4.8118e-001 49548 83742,83794,83768
 1.8000e+000 84137  1.7907e+000  2.6701e+000 -1.6595e+000 49208 84160,84016,83938
 1.8000e+000 84114  3.9135e+000  7.4621e+000 -3.9984e+000 49208 84160,83938,83912
 1.8000e+000 84091  1.6922e+000  3.2242e+000 -1.2630e+000 49208 83938,84016,83964
 1.8000e+000 84068  1.4327e+000  7.9614e-002 -7.6537e-001 49208 83964,84016,83990
 1.8000e+000 84186  4.0371e+000  5.3149e+000 -4.1107e+000 49208 84042,84016,84160
 1.8000e+000 84209  4.4233e+000  7.9656e+000 -6.2401e+000 49208 84042,84160,83912
 1.8000e+000 84796 -6.8240e+000 -4.7832e+000 -1.2619e+000 48861 84499,84629,84551
 1.8000e+000 84773 -2.4534e+000 -2.1695e+000  8.9655e-002 48861 84499,84655,84629
 1.8000e+000 84750 -5.4484e+000 -5.1826e-001  8.2583e-001 48861 84551,84629,84577
 1.8000e+000 84727 -1.5054e+000 -4.5905e-001  4.4621e-001 48861 84577,84629,84603
 1.8000e+000 84704 -4.3979e+000 -2.1159e+000 -2.9283e+000 48861 84499,84551,84525
 1.8000e+000 84681 -2.5919e+000 -2.6334e+000 -4.4499e-001 48861 84473,84655,84499
 1.8000e+000 85351 -5.0820e+000 -5.2724e+000  2.1116e+000 48457 85374,85031,85005
 1.8000e+000 85328 -3.1489e+000 -2.0287e+000  1.2947e+000 48457 85374,85005,85161
 1.8000e+000 85305 -2.5815e+000 -4.2623e+000  6.7587e-001 48457 85446,85057,85031
 1.8000e+000 85282 -3.5519e+000 -2.6577e+000  1.9159e+000 48457 85005,85187,85161
 1.8000e+000 85259 -1.3912e+000 -4.5876e-001  8.7403e-001 48457 85083,85161,85109
 1.8000e+000 85236 -4.5759e+000 -3.1239e+000  1.7925e+000 48457 84979,85187,85005
 1.8000e+000 85213 -9.7523e-001 -6.4710e-001  1.7157e-001 48457 85109,85161,85135
 1.8000e+000 85400 -2.8516e+000 -3.9048e+000  5.4285e-001 48457 85446,85031,85374
 1.8000e+000 85423 -3.0849e+000 -3.5251e+000  1.4444e-001 48457 85083,85374,85161
 1.8000e+000 85472 -2.9017e+000 -4.4925e+000  4.6666e-001 48457 85083,85057,85446
 1.8000e+000 85495 -3.3072e+000 -4.3352e+000  2.8231e-001 48457 85083,85446,85374
 1.8000e+000 86080  8.9844e-001 -2.0103e+000  5.1207e-001 48053 86319,86103,85783
 1.8000e+000 86057  9.9688e-001  1.1687e+000  1.1412e+000 48053 86103,85757,85939
 1.8000e+000 86034  5.5324e-001 -3.0986e-001  3.0876e-001 48053 86247,86175,85887
 1.8000e+000 86011  4.2377e-001  1.2976e-001 -2.9095e-001 48053 86247,85887,85835
 1.8000e+000 85988 -8.6773e-001  3.2821e-001  2.8822e-001 48053 85887,85939,85913
 1.8000e+000 85965  1.6430e-002  2.3060e-001 -8.8749e-003 48053 85835,85887,85861
 1.8000e+000 86129  1.5544e+000 -3.7993e-001  5.2549e-001 48053 85809,85783,86103
 1.8000e+000 86152  1.4692e+000 -3.8658e-001  5.3200e-001 48053 86175,85809,86103
 1.8000e+000 86201  9.0530e-001  9.7695e-001  6.6726e-001 48053 85939,85887,86175
 1.8000e+000 86224  4.9220e-001 -9.7825e-002  9.4968e-001 48053 85939,86175,86103
 1.8000e+000 86273  1.8236e+000  1.0390e-001  2.7464e-001 48053 85809,86175,86247
 1.8000e+000 86296  1.0679e+000  1.9031e-001 -2.4297e-001 48053 85809,86247,85835
 1.8000e+000 86345  9.6522e-001 -1.3365e-001  1.7246e+000 48053 85757,86103,86319
 1.8000e+000 86851  3.5644e+000 -4.1254e+000  1.0675e+000 47541 86874,86580,86554
 1.8000e+000 86828 -1.1698e+000 -6.1425e+000  1.0454e+000 47541 86946,86874,86554
 1.8000e+000 86805 -2.8674e+000 -5.5626e+000  1.3877e+000 47541 86946,86554,86528
 1.8000e+000 86782  7.7040e+000 -2.4303e+000  7.0674e-001 47541 86580,86658,86606
 1.8000e+000 86759  1.0907e+000 -5.5749e+000 -7.1087e-001 47541 86528,86710,86684
 1.8000e+000 86736  3.1929e-001  1.7708e-001 -3.1888e-001 47541 86606,86658,86632
 1.8000e+000 86900  1.0569e+000 -5.5801e+000 -4.7612e-001 47541 86658,86580,86874
 1.8000e+000 86923  3.1772e+000 -4.5570e+000 -7.8698e-001 47541 86658,86874,86684
 1.8000e+000 86972  1.3986e+000 -5.0409e+000 -1.1992e+000 47541 86684,86874,86946
 1.8000e+000 86995 -1.5287e+000 -5.9564e+000 -4.7738e-001 47541 86684,86946,86528
 1.8000e+000 87324 -4.2747e+000 -4.9926e+000  2.1312e+000 47044 87151,87203,87177
 1.8000e+000 87301 -6.9942e+000 -7.8089e+000  1.3691e-001 47044 87125,87203,87151
 1.8000e+000 87278 -5.7576e+000 -8.6925e+000  7.6109e-001 47044 87099,87203,87125
 1.8000e+000 87255 -8.1529e+000 -1.2376e+001 -2.6010e+000 47044 87099,87229,87203
 1.8000e+000 87572 -6.6492e+000 -6.5001e+000  8.7995e-001 46697 87595,87425,87373
 1.8000e+000 87549 -6.2438e+000 -7.5340e+000  1.4180e+000 46697 87595,87373,87477
 1.8000e+000 87526 -1.0324e+001 -9.4320e+000  6.4168e-001 46697 87347,87477,87373
 1.8000e+000 87503 -6.4449e+000 -4.0320e+000  1.2843e+000 46697 87373,87425,87399
 1.8000e+000 87621 -6.4697e+000 -4.4209e+000  6.6232e-001 46697 87451,87425,87595
 1.8000e+000 87644 -7.0792e+000 -6.4653e+000  1.5179e+000 46697 87451,87595,87477
 1.8000e+000 87794 -9.9428e+000 -1.1391e+000 -1.4711e+000 46235 87693,87745,87719
 1.8000e+000 87771 -1.1837e+001 -1.2371e+001 -2.5788e-001 46235 87667,87745,87693
 1.8000e+000 88304 -6.2034e+000 -6.2485e+000  2.5113e+000 45731 88085,88163,88137
 1.8000e+000 88281 -7.4552e+000 -6.5272e+000  1.6944e+000 45731 88007,88163,88085
 1.8000e+000 88258 -1.0843e+001 -8.9098e+000 -3.5582e-001 45731 87981,88163,88007
 1.8000e+000 88235 -1.1892e+001 -5.1976e+000  3.1322e+000 45731 88007,88085,88059
 1.8000e+000 88212 -2.3298e+000 -4.7143e+000  8.2554e-001 45731 88085,88137,88111
 1.8000e+000 88189 -1.1273e+001 -5.5875e+000  4.1994e+000 45731 88007,88059,88033
 1.8000e+000 88682 -9.7934e+000 -8.8520e+000 -5.1452e-001 45312 88434,88512,88486
 1.8000e+000 88659 -1.4417e+001 -1.5217e+001  3.3436e+000 45312 88434,88538,88512
 1.8000e+000 88636 -9.2855e+000 -7.1080e+000  8.1470e-001 45312 88434,88564,88538
 1.8000e+000 88613 -5.6065e+000 -1.1471e+001 -5.9520e-001 45312 88434,88486,88460
 1.8000e+000 88590 -1.2124e+001  4.4993e+000  1.1425e+001 45312 88408,88564,88434
 1.8000e+000 88930  6.5739e+000  4.7665e+000 -8.3014e-001 44808 88953,88731,88705
 1.8000e+000 88907  2.7984e+000  3.2040e+000  3.6146e+000 44808 88953,88705,88835
 1.8000e+000 88884  3.6521e+000 -4.8820e+000  3.5918e+000 44808 89025,88783,88757
 1.8000e+000 88861  1.9333e+000 -3.7952e+000  3.7507e+000 44808 88783,88835,88809
 1.8000e+000 88979 -1.1411e+000  6.5609e-001  1.1141e+000 44808 88757,88731,88953
 1.8000e+000 89002  1.2451e+000 -2.7165e+000  4.4939e+000 44808 89025,88757,88953
 1.8000e+000 89051  3.0881e+000 -2.0652e+000  2.8237e+000 44808 88835,88783,89025
 1.8000e+000 89074  2.8624e+000  2.5746e+000  2.9157e+000 44808 88835,89025,88953
 1.8000e+000 89224 -7.9223e+001 -1.7412e+001  4.2303e+000 44404 89123,89175,89149
 1.8000e+000 89201 -7.5627e+001 -2.0444e+000 -9.6736e-001 44404 89097,89175,89123
 1.8000e+000 89783  1.5344e+000  6.3050e+000 -2.2153e+000 43850 89806,89541,89515
 1.8000e+000 89760  7.6512e-002  1.9699e+000 -1.1078e+000 43850 89806,89515,89463
 1.8000e+000 89737 -1.2662e-001  1.4883e+000 -9.1699e-001 43850 89950,89878,89593
 1.8000e+000 89714 -4.4989e-001  1.4741e+000 -5.0809e-001 43850 89950,89593,89567
 1.8000e+000 89691  1.2107e+000  9.4101e-001 -1.4708e-002 43850 89411,89619,89463
 1.8000e+000 89668  1.9796e+000  1.4923e+000 -1.3771e+000 43850 89463,89515,89489
 1.8000e+000 89645  9.9597e-001  9.2075e-001  9.2829e-002 43850 89411,89463,89437
 1.8000e+000 89832 -3.3805e-001  4.5535e+000  5.0369e-002 43850 89878,89541,89806
 1.8000e+000 89855  1.5685e+000  3.2225e+000 -1.7730e-001 43850 89619,89806,89463
 1.8000e+000 89904  2.3388e-001  2.1342e-001  2.8901e-001 43850 89619,89593,89878
 1.8000e+000 89927  6.2923e-001  6.9740e-001  4.2054e-002 43850 89619,89878,89806
 1.8000e+000 89976 -1.4339e+000  1.0864e+000  9.6024e-001 43850 89541,89878,89950
 1.8000e+000 89999 -2.7274e+000 -4.5464e-001  1.6235e+000 43850 89541,89950,89567
 1.8000e+000 90247  3.6242e-001  1.3168e+001  2.8310e+000 43488 90022,90074,90048
 1.8000e+000 90224 -4.1560e+000  1.0674e+001  2.7572e-001 43488 90270,90022,90152
 1.8000e+000 90201 -2.2999e+000  6.5083e+000  1.0708e-002 43488 90342,90270,90152
 1.8000e+000 90178 -2.7100e+000  1.2798e+000  6.4829e+000 43488 90342,90152,90126
 1.8000e+000 90296 -2.8340e+000  5.3186e+000  2.7135e+000 43488 90074,90022,90270
 1.8000e+000 90319 -4.2801e+000  4.3489e+000  2.1875e+000 43488 90074,90270,90100
 1.8000e+000 90368 -1.0054e+001  1.6155e-001  5.1666e+000 43488 90100,90270,90342
 1.8000e+000 90391 -1.0425e+001 -5.7002e+000  1.1648e+001 43488 90100,90342,90126
 1.8000e+000 90590 -1.1364e+001 -8.0844e+000 -1.3321e+000 43048 90414,90492,90440
 1.8000e+000 90567 -1.2893e+001 -1.4075e+001  4.2798e-001 43048 90414,90518,90492
 1.8000e+000 90544 -1.2463e+001 -1.9483e+000  1.9697e+000 43048 90440,90492,90466
 1.8000e+000 91070 -4.3131e+000 -6.9671e+000  5.2744e-001 42430 91237,90880,90854
 1.8000e+000 91047 -5.8289e+000 -8.8473e+000  1.8736e+000 42430 90698,90906,90880
 1.8000e+000 91024 -7.7723e+000 -6.5446e+000  2.1487e+000 42430 91093,90750,90698
 1.8000e+000 91001 -5.7568e+000 -6.3259e+000  1.5188e+000 42430 91237,90854,91093
 1.8000e+000 90978 -6.1067e+000 -6.5363e+000  6.8597e-001 42430 91165,90802,90776
 1.8000e+000 90955 -4.0503e+000 -5.9095e+000  7.4260e-001 42430 90802,90854,90828
 1.8000e+000 90932 -8.1054e+000 -7.6324e+000  1.7824e+000 42430 90698,90750,90724
 1.8000e+000 91119 -9.6354e+000 -7.2451e+000  2.1290e+000 42430 90776,90750,91093
 1.8000e+000 91142 -7.2638e+000 -7.6596e+000  1.7966e+000 42430 91165,90776,91093
 1.8000e+000 91191 -5.7011e+000 -5.9865e+000 -3.6676e-003 42430 90854,90802,91165
 1.8000e+000 91214 -6.0922e+000 -5.5256e+000  9.5793e-001 42430 90854,91165,91093
 1.8000e+000 91263 -6.4526e+000 -7.3000e+000  6.1533e-001 42430 90698,90880,91237
 1.8000e+000 91286 -8.0800e+000 -6.7282e+000  1.5075e+000 42430 90698,91237,91093
 1.8000e+000 91694  9.7845e-001  3.9551e-001 -1.1085e+000 41769 91469,91573,91495
 1.8000e+000 91671  5.4616e-002 -5.9719e-001 -4.3093e-001 41769 91469,91599,91573
 1.8000e+000 91648  1.1542e+000  1.0402e+000 -3.4244e-001 41769 91495,91547,91521
 1.8000e+000 91625 -5.6362e-001  5.5519e-001 -1.0985e+000 41769 91495,91573,91547
 1.8000e+000 92040  1.5487e+001  1.2131e+001  4.2526e+000 41379 91769,91873,91847
 1.8000e+000 92017  1.0541e+001  7.7017e+000  1.0627e+000 41379 91743,91873,91769
 1.8000e+000 91994  1.3437e+001  1.2518e+001  4.0361e+000 41379 91769,91847,91795
 1.8000e+000 91971  1.0408e+001  5.8695e+000  2.4015e+000 41379 91743,91899,91873
 1.8000e+000 91948  3.8532e+000  2.5468e-001 -2.0629e+000 41379 91717,91899,91743
 1.8000e+000 91925  7.9797e+000  7.8784e+000  1.0852e+000 41379 91795,91847,91821
 1.8000e+000 92597 -2.0058e+000  1.7823e-001 -1.3861e+000 40975 92225,92407,92303
 1.8000e+000 92574 -4.8296e+000  1.4870e-001 -1.6177e+000 40975 92225,92433,92407
 1.8000e+000 92551 -2.1035e+000  8.5963e-002 -1.3157e+000 40975 92225,92303,92277
 1.8000e+000 92528 -5.6429e+000 -4.1340e-001 -1.8345e+000 40975 92329,92407,92381
 1.8000e+000 92505 -5.6323e+000 -6.5945e-001 -1.7068e+000 40975 92303,92407,92329
 1.8000e+000 92482 -6.4828e-001  3.1245e-001  1.8369e-001 40975 92225,92277,92251
 1.8000e+000 92459 -7.5711e+000 -3.4901e-001 -1.1105e+000 40975 92329,92381,92355
 1.8000e+000 93231 -2.4848e+001 -1.9804e+000 -2.4807e+000 40521 92937,92989,92963
 1.8000e+000 93208 -1.2944e+001 -3.0075e+000 -5.7762e-001 40521 93254,92937,92885
 1.8000e+000 93185 -9.8457e+000 -3.2621e+000  1.6345e+000 40521 93254,92885,93067
 1.8000e+000 93162 -1.1489e+001 -4.2632e+000 -1.1068e+000 40521 92885,92937,92911
 1.8000e+000 93139 -1.2576e+001 -3.3487e+000  1.3808e+000 40521 92859,93067,92885
 1.8000e+000 93116 -5.9079e+000 -2.2053e-001  4.8945e-001 40521 92989,93067,93015
 1.8000e+000 93093 -2.9639e+000 -9.7395e-001  3.8712e-001 40521 93015,93067,93041
 1.8000e+000 93280 -1.1825e+001 -6.5135e-001  1.2255e+000 40521 92989,92937,93254
 1.8000e+000 93303 -8.5145e+000 -2.5256e+000  3.0175e+000 40521 92989,93254,93067
 1.8000e+000 93632 -4.2422e+000  8.6218e-001  2.1617e+000 40231 93433,93537,93511
 1.8000e+000 93609 -5.5374e+000 -1.6569e+000  9.4720e-001 40231 93407,93537,93433
 1.8000e+000 93586 -3.0301e+000  8.0685e+000  6.0404e-001 40231 93459,93511,93485
 1.8000e+000 93563 -4.9671e+000  1.4677e+000 -7.2120e-001 40231 93433,93511,93459
 1.8000e+000 94010 -8.2838e+000  4.2523e+000  1.3358e+000 39869 93762,93866,93788
 1.8000e+000 93987 -3.2899e+000  5.2698e+000  9.3327e-001 39869 93762,93892,93866
 1.8000e+000 93964 -1.1626e+001 -1.8219e+000 -1.6358e-001 39869 93788,93866,93840
 1.8000e+000 93941 -1.2379e+001  1.5203e+000 -4.5006e+000 39869 93788,93840,93814
 1.8000e+000 93918 -5.3558e+000 -1.0639e+000  1.3065e+000 39869 93736,93892,93762
 1.8000e+000 94160 -1.2041e+001 -2.6442e+000 -1.0171e+000 39457 94033,94085,94059
 1.8000e+000 94137 -1.1925e+001 -1.1136e+001  9.3440e-001 39457 94033,94111,94085
 1.8000e+000 94359 -3.8277e+000  6.0540e+000  2.5012e+000 39053 94382,94235,94209
 1.8000e+000 94336  5.2035e+000  1.4682e+001 -1.9407e+000 39053 94382,94209,94183
 1.8000e+000 94313 -2.4354e+000  8.8578e+000  5.5783e+000 39053 94183,94287,94261
 1.8000e+000 94408  2.3671e+000  1.0120e+001  3.5996e+000 39053 94454,94382,94261
 1.8000e+000 94431  2.5254e+000  1.0126e+001  4.3628e+000 39053 94261,94382,94183
 1.8000e+000 94480 -1.0613e+000 -2.8469e+000  4.5879e+000 39053 94235,94382,94454
 1.8000e+000 94892 -8.5227e+000  9.8066e-001  1.0078e+000 38392 94915,94771,94719
 1.8000e+000 94869 -9.1168e+000  1.9483e+000  1.2538e+000 38392 94915,94719,94693
 1.8000e+000 94846 -4.9440e+000  2.7752e+000  7.6649e+000 38392 94719,94771,94745
 1.8000e+000 94823 -6.2784e+000  5.1779e+000  2.5877e+000 38392 94667,94797,94693
 1.8000e+000 94941 -8.6550e+000  1.8128e+000  6.4137e-001 38392 94797,94771,94915
 1.8000e+000 94964 -8.9595e+000  3.0224e+000  7.1149e-001 38392 94797,94915,94693
 1.8000e+000 95261  4.3722e-001  1.7002e+000 -1.0509e+000 37831 95013,95065,95039
 1.8000e+000 95238 -1.8322e-001  1.7325e+000 -7.0849e-001 37831 95284,95065,95013
 1.8000e+000 95215  2.3829e-001  2.1457e+000 -1.0840e+000 37831 95284,95013,94987
 1.8000e+000 95192  1.9856e-001  1.0254e+000 -6.4837e-001 37831 94987,95143,95117
 1.8000e+000 95169  8.0722e-001 -5.6953e-001 -1.6820e+000 37831 95065,95117,95091
 1.8000e+000 95310 -8.3501e-003  1.1147e+000 -3.1905e-001 37831 95117,95065,95284
 1.8000e+000 95333  3.5725e-001  1.6189e+000 -6.6682e-001 37831 95117,95284,94987
 1.8000e+000 95554 -1.1002e+001 -2.2062e+000 -1.8168e+000 37419 95404,95456,95430
 1.8000e+000 95531 -6.7893e+000  7.9798e+000 -1.5989e+000 37419 95378,95456,95404
 1.8000e+000 95508 -2.7613e+000  1.0924e+001 -2.9119e+000 37419 95378,95482,95456
 1.8000e+000 95887 -1.3172e+001 -1.2403e+001  7.6909e-001 37221 95662,95714,95688
 1.8000e+000 95864 -1.3413e+001 -1.3778e+001  8.9458e-001 37221 95662,95792,95714
 1.8000e+000 95841 -7.2840e+000 -9.3297e+000 -2.2212e+000 37221 95714,95766,95740
 1.8000e+000 95818 -1.1174e+001 -8.8947e+000 -7.6091e-002 37221 95714,95792,95766
 1.8000e+000 95988 -3.5501e+001 -6.3086e+000 -4.7916e+000 36731 95910,95962,95936
 1.8000e+000 96138 -4.0142e+000  6.3008e+000  4.6598e+000 36327 96293,96063,96037
 1.8000e+000 96115 -9.6442e+000  4.1643e+000  6.5983e+000 36327 96161,96037,96011
 1.8000e+000 96187 -3.8391e+000  7.1890e+000  8.0386e+000 36327 96293,96037,96161
 1.8000e+000 96319 -3.1111e+000  1.0843e+001  6.1234e+000 36327 96089,96063,96293
 1.8000e+000 96342 -1.2743e+000  1.2601e+001  9.9148e+000 36327 96089,96293,96161
 1.8000e+000 96710 -9.0452e-001  1.9308e+000  1.7831e+000 36037 96733,96491,96439
 1.8000e+000 96687 -7.1387e-001  4.7191e+000  2.7141e+000 36037 96733,96439,96413
 1.8000e+000 96664 -1.6101e+000  1.4842e+000  8.3606e-001 36037 96439,96491,96465
 1.8000e+000 96641 -5.4550e+000  8.8664e+000  1.5037e+000 36037 96387,96517,96413
 1.8000e+000 96618 -5.4850e+000  9.2385e+000  1.5264e+000 36037 96387,96543,96517
 1.8000e+000 96595 -1.1296e+000  5.8755e+000  5.0673e+000 36037 96387,96569,96543
 1.8000e+000 96759 -3.5303e+000  4.9209e+000  9.2705e-001 36037 96517,96491,96733
 1.8000e+000 96782 -2.0537e+000  8.2413e+000  2.9572e+000 36037 96517,96733,96413
 1.8000e+000 96932  4.5828e-001  4.2344e-001 -3.6185e-001 35633 97027,96955,96831
 1.8000e+000 96909 -2.8805e-001 -9.5496e-001  3.9467e-001 35633 97159,96955,96805
 1.8000e+000 96981 -1.0509e+000  2.5778e-002 -3.2383e-001 35633 96857,96831,96955
 1.8000e+000 97004 -6.3760e-001  1.3041e+000  1.3859e-001 35633 96857,96955,96883
 1.8000e+000 97053  5.1983e-001  4.8952e-001 -3.9635e-001 35633 96805,96955,97027
 1.8000e+000 97185 -9.7749e-001  9.1587e-001  8.8004e-001 35633 96883,96955,97159
 1.8000e+000 97593 -3.8733e+000 -2.1859e+000 -4.9691e-001 35186 97446,97498,97472
 1.8000e+000 97570 -2.7527e+000  5.5877e-001 -4.9769e-001 35186 97368,97498,97446
 1.8000e+000 97547 -3.4600e+000 -7.0661e-001 -1.4683e-001 35186 97368,97446,97394
 1.8000e+000 97524 -2.4296e+000 -2.7176e-001 -2.1846e-001 35186 97394,97446,97420
 1.8000e+000 98050  1.5389e+000  5.8222e+000 -1.3315e+000 34632 97802,97932,97854
 1.8000e+000 98027 -2.7062e+000  3.9097e-002 -3.3404e+000 34632 97776,97932,97802
 1.8000e+000 98004 -3.0160e+000  9.9557e-001  3.1103e+000 34632 97802,97854,97828
 1.8000e+000 97981 -6.2698e+000  3.5224e+000 -1.5745e+000 34632 97880,97932,97906
 1.8000e+000 97958 -3.3806e-001  2.6671e+000 -3.8809e-001 34632 97854,97932,97880
 1.8000e+000 98526 -6.2111e+000 -1.0804e-001  1.0996e+000 34064 98693,98180,98362
 1.8000e+000 98503 -5.3509e+000 -3.9311e+000 -2.1674e+000 34064 98154,98362,98180
 1.8000e+000 98480 -4.1421e+000 -3.8698e-001  6.1013e+000 34064 98549,98258,98232
 1.8000e+000 98457 -1.0333e+001  4.9402e+000  1.4153e+001 34064 98549,98232,98206
 1.8000e+000 98434 -7.1565e+000 -2.7410e+000 -2.4724e-001 34064 98837,98621,98362
 1.8000e+000 98411 -3.8459e+000 -3.0805e+000  4.4643e+000 34064 98765,98284,98258
 1.8000e+000 98388 -6.1257e+000 -4.6512e+000 -5.7875e-002 34064 98837,98362,98336
 1.8000e+000 98575 -3.4903e+000 -6.3494e-001  4.4796e+000 34064 98765,98258,98549
 1.8000e+000 98598 -8.0027e+000 -1.0548e+000  1.5427e+000 34064 98621,98310,98549
 1.8000e+000 98647 -6.2865e+000  3.3619e-001  9.4514e-001 34064 98693,98362,98621
 1.8000e+000 98670 -4.6657e+000  6.5982e+000  2.7300e+000 34064 98206,98621,98549
 1.8000e+000 98719 -5.8605e+000  4.2076e-001  9.4750e-001 34064 98206,98180,98693
 1.8000e+000 98742 -6.0111e+000  6.1172e-001  8.1790e-001 34064 98206,98693,98621
 1.8000e+000 98791 -4.2137e+000 -5.4157e-001  2.5128e+000 34064 98310,98284,98765
 1.8000e+000 98814 -4.4364e+000  9.4517e-001  2.3775e+000 34064 98310,98765,98549
 1.8000e+000 98863 -6.9219e+000 -1.5397e-001  4.7916e-001 34064 98310,98621,98837
 1.8000e+000 98886 -6.2086e+000 -2.4886e+000  7.1376e-001 34064 98310,98837,98336
 1.8000e+000 99264 -4.4636e+000 -3.0871e+000 -1.3400e+000 33446 99287,99094,99068
 1.8000e+000 99241 -4.2426e+000 -1.5597e+000 -1.7265e+000 33446 99287,99068,99016
 1.8000e+000 99218 -1.2448e+001  1.0826e+000  2.1246e+000 33446 99016,99068,99042
 1.8000e+000 99195 -1.3262e+001 -4.7988e+000 -3.5389e+000 33446 99016,99146,99120
 1.8000e+000 99172 -1.1928e+001 -4.6085e+000 -4.7919e-001 33446 98990,99146,99016
 1.8000e+000 99313 -4.3038e+000 -2.2586e+000 -2.3582e+000 33446 99120,99094,99287
 1.8000e+000 99336 -4.4521e+000 -7.0898e-001 -2.4863e+000 33446 99120,99287,99016
 1.8000e+000 99861 -8.0391e+000 -1.7093e+000 -1.1402e+000 32940 100172,99956,99884
 1.8000e+000 99838 -7.8411e+000 -3.1140e+000 -3.4544e-001 32940 100100,99884,99518
 1.8000e+000 99815 -3.9857e+000 -3.2102e+000 -1.5608e+000 32940 100244,99956,99622
 1.8000e+000 99792 -1.8954e+000  7.7941e-001 -1.1562e-001 32940 100028,99648,99622
 1.8000e+000 99769 -7.9165e+000 -4.8752e+000 -8.7513e-001 32940 100100,99518,99492
 1.8000e+000 99746 -1.2030e+000 -1.9041e+000  1.5599e-001 32940 99570,99622,99596
 1.8000e+000 99723 -2.0190e+000 -3.2211e+000 -9.9835e-001 32940 100244,99622,99570
 1.8000e+000 99700 -5.9942e+000 -2.0249e+000  1.2661e+000 32940 99440,99492,99466
 1.8000e+000 99910 -5.9843e+000 -9.8385e-001 -1.0758e+000 32940 100172,99884,100028
 1.8000e+000 99933 -9.7120e+000 -4.4497e+000  1.6796e+000 32940 99674,99884,99440
 1.8000e+000 99982 -8.6099e+000 -4.8236e+000 -5.6269e-001 32940 99518,99884,99956
 1.8000e+000 100005 -1.0528e+001 -1.0775e+001 -5.0141e+000 32940 99518,99956,99544
 1.8000e+000 100054 -7.4911e+000  2.2091e+000  1.0363e+000 32940 99674,99648,100028
 1.8000e+000 100077 -7.5736e+000  6.3045e-001  1.2570e+000 32940 99674,100028,99884
 1.8000e+000 100126 -7.5174e+000 -2.0741e+000  7.3735e-001 32940 99440,99884,100100
 1.8000e+000 100149 -7.3508e+000 -3.1036e+000  9.5245e-002 32940 99440,100100,99492
 1.8000e+000 100198 -6.5270e+000 -1.5531e+000  5.8256e-001 32940 99622,99956,100172
 1.8000e+000 100221 -6.0930e+000 -1.4637e+000  8.2816e-001 32940 99622,100172,100028
 1.8000e+000 100270 -6.8875e+000 -3.0295e+000 -1.9743e+000 32940 99544,99956,100244
 1.8000e+000 100293 -5.1560e+000 -3.2256e+000 -1.4260e+000 32940 99544,100244,99570
 1.8000e+000 100750  4.5446e-002  2.0942e+000  8.2592e-001 32365 100773,100580,100502
 1.8000e+000 100727  1.2675e+000  1.9503e+000  1.2678e+000 32365 100773,100502,100632
 1.8000e+000 100704  4.1957e+000 -2.5030e+000 -2.5725e+000 32365 100476,100632,100502
 1.8000e+000 100681 -2.1182e+000 -9.8778e-002  2.0566e-001 32365 100528,100580,100554
 1.8000e+000 100658  1.6113e+000  2.2850e+000 -9.6313e-001 32365 100502,100580,100528
 1.8000e+000 100799  1.0466e+000  2.5771e+000  1.2460e+000 32365 100606,100580,100773
 1.8000e+000 100822  1.9551e+000  2.1555e+000  1.6441e+000 32365 100606,100773,100632
 1.8000e+000 101021 -1.0681e+000  2.8364e+000  3.5464e+000 31853 100871,100923,100897
 1.8000e+000 100998  3.0697e+000  7.0795e+000  5.3089e+000 31853 100871,100949,100923
 1.8000e+000 100975 -6.8115e-001 -2.0632e+000  5.2684e+000 31853 100845,100949,100871
 1.8000e+000 101529 -2.1270e+000 -1.2508e+000 -1.6735e+000 31249 101552,101310,101232
 1.8000e+000 101506 -1.5024e+000 -5.0744e-001 -2.0540e+000 31249 101552,101232,101206
 1.8000e+000 101483 -1.5415e+000 -2.8350e-001 -8.8901e-001 31249 101206,101388,101336
 1.8000e+000 101460 -4.3566e+000 -6.5830e+000 -6.9567e-001 31249 101232,101284,101258
 1.8000e+000 101437 -3.1806e+000 -2.8070e+000 -1.2051e+000 31249 101232,101310,101284
 1.8000e+000 101414 -8.0658e-001 -7.6942e-003  3.1115e-001 31249 101336,101388,101362
 1.8000e+000 101578 -2.0525e+000 -2.2159e+000 -9.5701e-001 31249 101336,101310,101552
 1.8000e+000 101601 -1.3377e+000 -1.3156e+000 -1.3530e+000 31249 101336,101552,101206
 1.8000e+000 101751 -1.3929e+001  8.4159e+000 -3.7632e-001 30515 101774,101650,101624
 1.8000e+000 101728 -9.0978e+000  9.9030e+000 -6.9698e-001 30515 101846,101774,101624
 1.8000e+000 101800 -1.3284e+001  1.2580e+001  3.6034e-001 30515 101676,101650,101774
 1.8000e+000 101823 -1.3436e+001  5.6606e+000  1.2115e+000 30515 101676,101774,101702
 1.8000e+000 101872 -1.4272e+001 -2.0913e+000 -1.1123e+000 30515 101702,101774,101846
 1.8000e+000 102557 -3.4729e-001 -7.6157e-001  8.7449e-001 29947 102652,102580,102266
 1.8000e+000 102534  3.0982e-001  2.1894e-001  1.5487e+000 29947 102580,102136,102370
 1.8000e+000 102511 -8.7744e-001 -1.9385e+000  6.6733e-001 29947 102724,102652,102266
 1.8000e+000 102488 -6.0811e-001 -2.9250e+000  4.7266e-001 29947 102724,102266,102240
 1.8000e+000 102465  5.3894e-002 -6.1648e-001  1.0456e+000 29947 102796,102318,102292
 1.8000e+000 102442 -1.9736e+000 -1.2389e+000 -3.9338e-001 29947 102162,102214,102188
 1.8000e+000 102419 -9.8341e-001 -1.2355e+000 -6.8500e-001 29947 102162,102240,102214
 1.8000e+000 102396  1.0273e+000  2.0420e+000  1.9107e+000 29947 102318,102370,102344
 1.8000e+000 102606 -8.9765e-003 -1.0323e+000  9.1404e-001 29947 102292,102266,102580
 1.8000e+000 102629  1.0537e-002 -7.4372e-001  1.0378e+000 29947 102796,102292,102580
 1.8000e+000 102678 -8.8593e-002 -1.0495e+000  1.3179e+000 29947 102136,102580,102652
 1.8000e+000 102701 -3.2770e-001 -8.4971e-001  1.1697e+000 29947 102136,102652,102162
 1.8000e+000 102750 -4.0098e-001 -7.0763e-001  1.1394e+000 29947 102162,102652,102724
 1.8000e+000 102773 -4.1114e-001 -1.7418e+000  7.2632e-001 29947 102162,102724,102240
 1.8000e+000 102822  7.8308e-002 -7.6338e-001  1.1034e+000 29947 102370,102318,102796
 1.8000e+000 102845  7.6933e-002 -8.1562e-001  1.1120e+000 29947 102370,102796,102580
 1.8000e+000 103044 -1.4288e+001 -1.2706e+001  7.6102e-001 29450 102868,102920,102894
 1.8000e+000 103021 -1.3805e+001 -1.4715e+001  8.3469e-001 29450 102868,102972,102920
 1.8000e+000 102998 -1.5946e+001 -1.5024e+001 -6.8343e-001 29450 102920,102972,102946
 1.8000e+000 103292 -4.1503e+000 -7.0715e+000  3.0265e+000 29060 103315,103171,103119
 1.8000e+000 103269 -6.8936e+000 -6.9791e+000  3.9797e+000 29060 103315,103119,103067
 1.8000e+000 103246 -3.3164e+000 -5.3163e+000  1.7584e+000 29060 103119,103171,103145
 1.8000e+000 103223 -5.8027e+000 -2.8187e+000  4.5841e+000 29060 103067,103119,103093
 1.8000e+000 103341 -1.7264e+000 -7.1821e+000  1.7433e+000 29060 103197,103171,103315
 1.8000e+000 103364 -5.0446e+000 -6.2338e+000  1.7874e+000 29060 103197,103315,103067
 1.8000e+000 104002 -9.4481e+000 -8.2567e+000 -4.8046e+000 28599 104097,104025,103708
 1.8000e+000 103979 -5.6918e+000 -3.8339e+000 -7.7765e-001 28599 104169,104025,103656
 1.8000e+000 103956 -4.8753e+000 -1.1620e+001 -4.3593e+000 28599 104097,103708,103682
 1.8000e+000 103933 -3.9986e+000 -2.4656e+000 -1.8427e-001 28599 104169,103656,103630
 1.8000e+000 103910 -2.6498e+000  9.7845e+000  1.4398e+000 28599 103760,103812,103786
 1.8000e+000 103887 -4.6528e+000 -1.0521e+000  4.7132e+000 28599 103630,103838,103812
 1.8000e+000 103864 -4.2020e+000 -5.4683e+000  1.4424e-001 28599 103708,103760,103734
 1.8000e+000 104051 -1.0131e+001 -1.4885e+000 -1.9415e+000 28599 103760,103708,104025
 1.8000e+000 104074 -4.7443e+000 -1.3208e+000  1.2176e+000 28599 103760,104025,103812
 1.8000e+000 104123 -5.1917e+000 -2.7911e+000 -2.9023e+000 28599 103656,104025,104097
 1.8000e+000 104146 -1.3018e+000 -7.8300e+000 -2.6142e+000 28599 103656,104097,103682
 1.8000e+000 104195 -6.7798e+000 -1.9908e+000 -3.7895e-001 28599 103812,104025,104169
 1.8000e+000 104218 -6.1126e+000 -1.4901e+000 -1.5942e-001 28599 103812,104169,103630
 1.8000e+000 104596 -2.2629e+000 -6.3730e+000  7.0489e-001 28344 104619,104374,104322
 1.8000e+000 104573 -3.3945e+000 -7.9304e+000  2.2744e+000 28344 104619,104322,104478
 1.8000e+000 104550 -3.1953e+000 -5.5078e+000  1.0581e+000 28344 104322,104374,104348
 1.8000e+000 104527 -1.1108e+000 -6.1861e+000 -5.0017e+000 28344 104400,104452,104426
 1.8000e+000 104504 -1.8050e+000 -9.7386e+000 -3.0912e+000 28344 104374,104452,104400
 1.8000e+000 104645 -2.0028e+000 -3.9526e+000 -1.1389e+000 28344 104452,104374,104619
 1.8000e+000 104668 -3.7509e+000 -5.6516e+000  5.5777e-001 28344 104452,104619,104478
 1.8000e+000 104987 -2.2789e-001  3.7073e-001  1.0156e+000 27947 104713,104843,104765
 1.8000e+000 104964 -8.5192e-001  1.3225e+000 -1.0195e-001 27947 104713,104869,104843
 1.8000e+000 104941 -1.8950e-001 -1.3888e+000 -1.2051e-001 27947 104765,104843,104791
 1.8000e+000 104918  1.0635e-001 -8.2598e-001  6.9880e-003 27947 104791,104843,104817
 1.8000e+000 104895 -1.2081e+000 -2.4570e+000  5.1409e-001 27947 104713,104765,104739
 1.8000e+000 105367 -1.1969e+001 -1.1036e+001  9.4417e-001 27443 105390,105197,105119
 1.8000e+000 105344 -1.6889e+001 -1.2323e+001  2.3860e+000 27443 105390,105119,105093
 1.8000e+000 105321 -1.3975e+001 -1.1764e+001  1.2765e+000 27443 105119,105197,105145
 1.8000e+000 105298 -8.2841e+000 -1.3161e+001 -1.3132e+000 27443 105197,105249,105223
 1.8000e+000 105275 -1.1945e+001 -9.3029e+000  2.8082e+000 27443 105145,105197,105171
 1.8000e+000 105416 -8.6681e+000 -1.1313e+001 -2.2267e+000 27443 105249,105197,105390
 1.8000e+000 105439 -1.4116e+001 -1.2289e+001 -1.1545e+000 27443 105249,105390,105093
 1.8000e+000 105994 -5.5378e+000 -3.6267e+000 -8.4167e-001 27096 106161,106017,105700
 1.8000e+000 105971 -6.1743e+000 -2.9114e+000  3.7372e-002 27096 106305,106017,105648
 1.8000e+000 105948 -2.2891e+000 -2.0940e+000 -8.0922e-001 27096 106089,105804,105778
 1.8000e+000 105925 -5.8067e+000 -3.9333e+000 -6.6452e-001 27096 106161,105700,105674
 1.8000e+000 105902 -4.4636e+000 -3.6023e+000 -5.7780e-001 27096 106233,105726,105700
 1.8000e+000 105879 -1.3484e+001 -3.0841e+000  1.3404e+000 27096 106305,105648,105622
 1.8000e+000 105856 -3.1219e+000 -3.8729e+000 -1.2576e-003 27096 105726,105778,105752
 1.8000e+000 106043 -4.9419e+000 -3.2796e+000 -3.6953e-001 27096 106233,105700,106017
 1.8000e+000 106066 -3.6134e+000 -3.0920e+000 -2.2742e-001 27096 106089,105778,106017
 1.8000e+000 106115 -3.7585e+000 -2.6538e+000 -3.5560e-001 27096 105830,105804,106089
 1.8000e+000 106138 -4.6772e+000 -2.5563e+000 -2.0515e-001 27096 106377,106089,106017
 1.8000e+000 106187 -5.9756e+000 -2.8622e+000  3.4401e-002 27096 105648,106017,106161
 1.8000e+000 106210 -6.9211e+000 -4.3576e+000  4.4483e-001 27096 105648,106161,105674
 1.8000e+000 106259 -3.9637e+000 -3.2532e+000 -8.2165e-001 27096 105778,105726,106233
 1.8000e+000 106282 -4.5485e+000 -3.0559e+000 -5.8178e-001 27096 105778,106233,106017
 1.8000e+000 106331 -5.0532e+000 -2.1774e+000 -9.7455e-001 27096 106377,106017,106305
 1.8000e+000 106354 -4.9540e+000  3.7009e+000 -1.6786e+000 27096 105830,106305,105622
 1.8000e+000 106403 -3.3665e+000 -1.8626e+000 -4.8419e-001 27096 105830,106089,106377
 1.8000e+000 106426 -3.5229e+000 -1.4697e+000 -1.1527e+000 27096 105830,106377,106305
 1.8000e+000 106625 -1.4946e+001 -8.9197e+000  1.3107e+000 26684 106475,106553,106527
 1.8000e+000 106602 -1.6070e+001 -1.0607e+001  7.6503e-001 26684 106449,106553,106475
 1.8000e+000 106579 -1.9156e+001 -9.2209e+000 -1.0650e+000 26684 106475,106527,106501
 1.8000e+000 107084 -3.4322e+000 -5.5843e+000  1.9219e-001 26244 107107,106914,106862
 1.8000e+000 107061 -3.2847e+000 -5.4940e+000  7.5211e-002 26244 107107,106862,106836
 1.8000e+000 107038 -4.4677e+000 -4.6980e+000 -6.7338e-002 26244 106810,106966,106836
 1.8000e+000 107015 -2.5689e+000 -7.5897e+000  1.2401e+000 26244 106862,106914,106888
 1.8000e+000 106992 -4.0077e+000 -5.6248e+000  8.5743e-002 26244 106914,106966,106940
 1.8000e+000 107133 -3.2365e+000 -5.5977e+000  5.7326e-002 26244 106966,106914,107107
 1.8000e+000 107156 -3.1234e+000 -5.4366e+000 -7.5837e-002 26244 106966,107107,106836
 1.8000e+000 107662  5.6771e-001 -2.6265e+000  4.6926e-001 25904 107365,107495,107391
 1.8000e+000 107639  4.2300e-002 -1.8075e+000  3.1690e-001 25904 107365,107521,107495
 1.8000e+000 107616 -4.7941e-001 -3.2316e+000  1.6176e-001 25904 107391,107469,107443
 1.8000e+000 107593  4.6152e-001 -2.7068e+000 -8.1492e-002 25904 107391,107495,107469
 1.8000e+000 107570 -7.9030e-001 -3.9081e+000  2.3883e-001 25904 107391,107443,107417
 1.8000e+000 107547  2.7957e-001 -1.4556e+000  1.7588e+000 25904 107339,107521,107365
 1.8000e+000 108247 -1.6885e+000 -3.1202e+000 -2.8578e-001 25450 108270,108002,107950
 1.8000e+000 108224 -9.3294e-001 -3.1570e+000  3.6766e-002 25450 108270,107950,108106
 1.8000e+000 108201 -7.5048e-001 -3.5245e+000  5.9432e-002 25450 108342,108028,108002
 1.8000e+000 108178 -2.2070e+000 -3.9734e+000 -5.8233e-002 25450 107950,108002,107976
 1.8000e+000 108155 -1.7621e+000 -2.2546e+000  2.8030e-001 25450 107924,108106,107950
 1.8000e+000 108132 -1.2017e+000 -3.0231e+000  3.7409e-001 25450 108054,108106,108080
 1.8000e+000 108296 -1.2394e+000 -3.1343e+000  9.0094e-002 25450 108342,108002,108270
 1.8000e+000 108319 -7.4311e-001 -2.8574e+000  1.9419e-001 25450 108054,108270,108106
 1.8000e+000 108368  1.9091e-001 -3.1959e+000 -1.8057e-001 25450 108054,108028,108342
 1.8000e+000 108391 -5.3713e-001 -2.9184e+000 -2.2281e-001 25450 108054,108342,108270
 1.8000e+000 108818 -8.5476e+000 -9.5720e-001  5.4694e-001 24939 108521,108677,108651
 1.8000e+000 108795 -1.3703e+001 -4.1008e+000 -3.7159e+000 24939 108495,108677,108521
 1.8000e+000 108772 -5.4118e+000  3.8821e-001  6.6463e-001 24939 108521,108651,108625
 1.8000e+000 108749 -9.4942e+000  3.3871e-002  9.4937e-001 24939 108521,108625,108599
 1.8000e+000 108726 -5.5392e-001 -7.1333e-001 -6.1664e-001 24939 108547,108599,108573
 1.8000e+000 108703 -6.9526e+000  5.1215e-001 -1.6519e+000 24939 108521,108599,108547
 1.8000e+000 109403  3.7645e+000 -3.9248e-001 -4.1898e-001 24741 109158,109210,109184
 1.8000e+000 109380 -7.8022e-001 -2.0001e+000 -7.8276e-001 24741 109158,109262,109210
 1.8000e+000 109357  2.6199e-001 -1.2677e+000 -1.5446e-002 24741 109080,109262,109158
 1.8000e+000 109334 -2.4182e+000 -1.3689e+000  1.2260e+000 24741 109080,109158,109132
 1.8000e+000 109311  4.8937e+000  6.9629e-001 -2.2912e+000 24741 109210,109262,109236
 1.8000e+000 109288 -2.9738e+000 -1.4302e+000  9.5929e-001 24741 109080,109132,109106
 1.8000e+000 109781  2.1011e-001 -3.2524e+000  3.2063e-001 24337 109533,109611,109559
 1.8000e+000 109758  1.3297e-001 -2.4641e+000 -5.0502e-002 24337 109533,109637,109611
 1.8000e+000 109735  3.2951e-001 -3.6651e+000 -2.9077e-001 24337 109559,109611,109585
 1.8000e+000 109712  1.3841e-001 -2.4702e+000 -1.1485e-001 24337 109533,109663,109637
 1.8000e+000 109689  5.1747e-001 -1.2537e+000  5.1339e-001 24337 109507,109663,109533
 1.8000e+000 110159 -7.7319e+000 -9.7029e+000  1.3105e-002 23833 110182,109963,109911
 1.8000e+000 110136 -1.0012e+001 -1.2301e+001  1.9307e+000 23833 110182,109911,109885
 1.8000e+000 110113 -4.9319e+000 -7.1254e+000 -6.1624e-001 23833 109885,110041,109989
 1.8000e+000 110090 -7.8464e+000 -7.7015e+000  9.4372e-001 23833 109911,109963,109937
 1.8000e+000 110067 -6.3271e+000 -7.8788e+000 -2.3310e+000 23833 109989,110041,110015
 1.8000e+000 110208 -8.3911e+000 -8.2523e+000 -8.8915e-001 23833 109989,109963,110182
 1.8000e+000 110231 -8.4753e+000 -9.3411e+000  5.6949e-001 23833 109989,110182,109885
 1.8000e+000 110332  5.7208e-001 -2.1014e+000  2.0057e-001 23429 110254,110306,110280
 1.8000e+000 110580 -2.4881e+000 -2.4629e+000 -1.3843e+000 22825 110603,110407,110381
 1.8000e+000 110557 -1.2107e+000 -2.4015e+000  1.4091e+000 22825 110603,110381,110485
 1.8000e+000 110534  1.1920e+000  8.2254e-001  1.1155e+000 22825 110433,110485,110459
 1.8000e+000 110511 -3.3164e+000  4.3517e+000  1.2144e+000 22825 110355,110485,110381
 1.8000e+000 110629 -9.4594e-001  7.4622e-001 -8.6881e-001 22825 110433,110407,110603
 1.8000e+000 110652 -3.9935e-001 -4.1690e-001  1.7209e+000 22825 110433,110603,110485
 1.8000e+000 110902 -1.2809e+001 -9.5202e-001 -1.0192e+000 22428 110703,110755,110729
 1.8000e+000 110879 -8.9497e+000 -2.2942e+000 -1.5315e+000 22428 110703,110781,110755
 1.8000e+000 110856 -1.1843e+001 -3.7971e+000 -2.8926e+000 22428 110703,110807,110781
 1.8000e+000 110833 -1.9279e+001 -5.4831e+000 -6.7800e+000 22428 110677,110807,110703
 1.8000e+000 111284  2.4825e+000 -3.5237e+000 -3.0662e+000 22138 111088,111140,111114
 1.8000e+000 111261  1.2631e+000 -1.5698e+000 -4.3800e+000 22138 111062,111140,111088
 1.8000e+000 111238 -2.2441e-001 -3.2190e+000 -1.1306e+000 22138 111036,111140,111062
 1.8000e+000 111215 -5.4485e+000 -4.3126e+000 -2.5325e+000 22138 111010,111140,111036
 1.8000e+000 111192 -5.1050e+000 -5.3438e+000 -1.1013e+000 22138 111010,111166,111140
 1.8000e+000 111385 -1.7558e+001 -8.4500e+000  1.6998e+000 21826 111307,111359,111333
 1.8000e+000 111731 -1.9460e+001 -7.8525e+000  2.0095e+000 21264 111754,111538,111434
 1.8000e+000 111708 -1.6372e+001 -6.7095e+000  2.4583e-001 21264 111754,111434,111408
 1.8000e+000 111685 -2.0058e+001 -5.2172e+000  1.2153e+000 21264 111434,111538,111460
 1.8000e+000 111662 -2.5703e+001 -7.6550e+000  2.2733e+000 21264 111460,111538,111486
 1.8000e+000 111639 -1.4784e+001 -9.1938e+000  4.0144e+000 21264 111408,111590,111564
 1.8000e+000 111616 -2.8326e+001 -8.5211e-001  5.4337e+000 21264 111486,111538,111512
 1.8000e+000 111780 -2.0509e+001 -8.2029e+000  2.8601e+000 21264 111564,111538,111754
 1.8000e+000 111803 -1.9392e+001 -9.9597e+000  1.7585e+000 21264 111564,111754,111408
 1.8000e+000 111955 -4.8869e+000 -2.2689e+000  6.6207e-001 20860 111978,111906,111880
 1.8000e+000 111932 -4.8050e+000 -4.4955e+000 -2.8958e-001 20860 112110,111828,111906
 1.8000e+000 112004 -5.6974e+000 -3.1692e+000  1.9984e-001 20860 112110,111906,111978
 1.8000e+000 112136 -4.2875e+000 -3.3135e+000 -3.9730e-001 20860 111854,111828,112110
 1.8000e+000 112159 -4.9254e+000 -1.5378e+000 -2.0769e-002 20860 111854,112110,111978
 1.8000e+000 112407 -7.9310e+000 -3.3394e+000 -1.8150e+000 20320 112182,112286,112208
 1.8000e+000 112384 -3.8448e+000 -2.5592e+000 -1.1843e+000 20320 112182,112312,112286
 1.8000e+000 112361 -6.3679e+000 -2.8166e+000 -1.4951e+000 20320 112208,112286,112260
 1.8000e+000 112338 -1.4093e+001  1.0442e+000 -5.8241e+000 20320 112208,112260,112234
 1.8000e+000 112655  4.4720e-001 -4.1380e+000  2.9248e+000 19916 112508,112560,112534
 1.8000e+000 112632 -3.0058e+000 -6.7790e+000  1.6060e+000 19916 112430,112560,112508
 1.8000e+000 112609 -3.9812e+000 -8.1023e+000  1.0024e+000 19916 112430,112508,112456
 1.8000e+000 112586 -4.4966e+000 -3.4866e+000  6.4370e-001 19916 112456,112508,112482
 1.8000e+000 112807 -7.8520e+000 -2.5752e+000 -1.3516e-002 19626 112680,112732,112706
 1.8000e+000 112784 -5.6517e+000 -3.3007e+000 -1.2075e+000 19626 112680,112758,112732
 1.8000e+000 113008 -5.0638e+000 -2.7964e+000  2.1230e+000 19165 112858,112936,112884
 1.8000e+000 112985 -1.4128e+001 -5.2930e+000 -2.4642e+000 19165 112832,112936,112858
 1.8000e+000 112962 -1.3526e+000 -1.8565e+000 -3.5859e-001 19165 112884,112936,112910
 1.8000e+000 113209 -4.0333e+000 -3.6247e+000  2.0257e-001 18596 113033,113085,113059
 1.8000e+000 113186 -1.3749e+000 -2.9221e+000 -5.0421e-001 18596 113033,113111,113085
 1.8000e+000 113163 -2.5141e+000 -3.9884e+000  1.1430e-001 18596 113033,113137,113111
 1.8000e+000 113481 -2.7589e+000 -4.0734e+000  3.4593e-001 18348 113256,113308,113282
 1.8000e+000 113458 -9.1522e-001 -3.7155e+000  1.3760e-001 18348 113256,113386,113308
 1.8000e+000 113435 -4.8169e-001 -3.1509e+000  4.5030e-001 18348 113308,113386,113360
 1.8000e+000 113412 -1.1303e-001 -3.8736e+000  6.7343e-002 18348 113308,113360,113334
 1.8000e+000 113753 -3.9943e-001 -3.6817e+000  3.5704e-002 17830 113554,113606,113580
 1.8000e+000 113730  4.5331e-001 -3.5437e+000  6.1729e-002 17830 113528,113606,113554
 1.8000e+000 113707  7.5515e-001 -2.7965e+000  3.0372e-001 17830 113528,113658,113606
 1.8000e+000 113684 -4.2698e-002 -3.7154e+000 -6.4066e-002 17830 113606,113658,113632
 1.8000e+000 113954 -3.6693e+000 -3.2711e+000 -3.1651e-001 17326 113778,113830,113804
 1.8000e+000 113931  2.0149e+000 -5.9515e+000 -2.0503e+000 17326 113778,113882,113830
 1.8000e+000 113908  4.3179e+000 -1.4113e+000 -1.2520e+000 17326 113830,113882,113856
 1.8000e+000 114106  1.1574e+000 -3.6678e+000  1.6747e-001 16870 113979,114031,114005
 1.8000e+000 114083  6.8170e-001 -3.2614e+000  2.9009e-001 16870 113979,114057,114031
 1.8000e+000 114461 -7.1785e+000 -1.7241e-001 -4.1907e+000 16266 114236,114288,114262
 1.8000e+000 114438 -6.8747e+000 -6.4631e+000 -5.7606e-001 16266 114236,114366,114288
 1.8000e+000 114415 -4.6887e+000 -4.2282e+000  1.3263e+000 16266 114288,114340,114314
 1.8000e+000 114392 -5.2650e+000 -4.7734e+000  1.7307e-001 16266 114288,114366,114340
 1.8000e+000 114562 -1.8094e+001 -2.3705e+000  0.0000e+000 15830 114484,114536,114510
 1.8000e+000 114663 -3.4188e+000 -2.7301e+000  2.2497e+000 15151 114585,114637,114611
 1.8000e+000 114886  2.2368e+000 -7.4617e-001  2.2181e+000 417 114762,114814,114788
 1.8000e+000 114863  1.8610e-001 -3.4914e+000  1.0321e+000 417 114710,114814,114762
 1.8000e+000 114840 -4.3565e+000 -1.3590e+000 -7.6641e-001 417 114710,114762,114736
 1.9000e+000 66549 -1.1276e-001 -3.5964e+000 -1.8079e-001 66104 66350,66454,66428
 1.9000e+000 66526 -8.9637e-002 -3.7113e+000  1.5376e-001 66104 66324,66454,66350
 1.9000e+000 66503 -1.6977e-001 -2.3256e+000 -1.1105e-001 66104 66350,66428,66402
 1.9000e+000 66480  6.9371e-001 -3.9105e+000 -1.5735e-001 66104 66350,66402,66376
 1.9000e+000 66947  1.5729e+000  4.7783e-002  3.0506e-001 65906 66699,66829,66803
 1.9000e+000 66924 -9.6699e-001 -2.0419e-001 -1.9214e-001 65906 66673,66829,66699
 1.9000e+000 66901  1.2838e+000  3.2966e-001 -5.1233e-002 65906 66725,66777,66751
 1.9000e+000 66878 -3.0746e+000 -4.8589e-001 -6.7680e-001 65906 66725,66803,66777
 1.9000e+000 66855  1.2534e+000 -6.7191e+000 -1.5395e+000 65906 66699,66803,66725
 1.9000e+000 67146 -2.5556e-001 -1.1945e-001 -2.5539e-001 65708 67022,67074,67048
 1.9000e+000 67123  4.3430e-001 -1.7769e-001 -2.7408e-001 65708 66970,67074,67022
 1.9000e+000 67100  8.6890e-001 -2.2922e-001 -5.3492e-002 65708 66970,67022,66996
 1.9000e+000 67477 -1.0858e+000 -3.5726e+000 -1.5598e+000 65418 67278,67356,67330
 1.9000e+000 67454 -1.7442e-001  1.2402e+000 -6.9877e-001 65418 67278,67382,67356
 1.9000e+000 67431 -2.2354e+000 -2.6035e+000 -2.8083e+000 65418 67278,67330,67304
 1.9000e+000 67408  5.9605e-002 -7.1296e-001 -1.2940e+000 65418 67252,67382,67278
 1.9000e+000 68111 -1.0717e+000 -4.4129e-001  1.4415e-001 65014 67791,67921,67869
 1.9000e+000 68088 -1.8758e+000 -7.0246e-001 -1.0459e+000 65014 67765,67921,67791
 1.9000e+000 68065 -4.9690e-001 -8.9903e-001  2.8281e-001 65014 67869,67921,67895
 1.9000e+000 68042  4.4816e-001 -2.0920e+000 -7.2116e-001 65014 67765,67947,67921
 1.9000e+000 68019 -5.3940e-001 -8.3619e-002 -1.3099e-001 65014 67791,67869,67817
 1.9000e+000 67996 -2.2852e-001 -1.3689e-001 -3.2673e-003 65014 67817,67869,67843
 1.9000e+000 67973  9.0201e-001 -5.8786e-001  7.0661e-001 65014 67739,67947,67765
 1.9000e+000 68359 -1.2030e+000 -1.0546e+001  5.5205e-002 64816 68186,68238,68212
 1.9000e+000 68336 -2.2350e+000 -1.3393e+001  7.0327e-001 64816 68186,68264,68238
 1.9000e+000 68313 -1.7500e+000 -1.3085e+001  1.8152e+000 64816 68160,68264,68186
 1.9000e+000 68290 -8.8969e-001 -1.1624e+001  5.5984e-001 64816 68134,68264,68160
 1.9000e+000 68509  8.6138e-001 -2.8412e+000  2.6165e-001 64362 68864,68532,68434
 1.9000e+000 68486 -2.7410e+000 -1.9408e+000  8.8435e-001 64362 68532,68408,68382
 1.9000e+000 68558  1.4941e+000 -2.0574e+000  3.6366e-001 64362 68736,68532,68460
 1.9000e+000 68581 -3.0485e-001 -2.3819e+000 -1.2816e-001 64362 68604,68532,68382
 1.9000e+000 68630  2.4106e+000  3.5196e-001  2.0395e+000 64362 68460,68532,68604
 1.9000e+000 68762  2.7761e+000  3.5350e-001 -8.4138e-001 64362 68434,68532,68736
 1.9000e+000 68890 -1.6128e+000 -1.5980e+000 -7.3990e-001 64362 68408,68532,68864
 1.9000e+000 69168 -2.5243e+000 -8.1475e+000  8.0853e-001 64164 69018,69070,69044
 1.9000e+000 69145 -1.9021e+000 -1.1888e+001  8.2848e-001 64164 68992,69070,69018
 1.9000e+000 69122 -1.7597e+000 -1.1695e+001  1.2191e+000 64164 68992,69096,69070
 1.9000e+000 69367  4.1975e-002 -4.9202e+000 -1.2957e+000 63966 69462,69390,69269
 1.9000e+000 69344 -2.7233e+000 -9.6100e+000  4.4792e-001 63966 69390,69243,69217
 1.9000e+000 69321 -8.2912e-001 -5.8729e+000 -4.6000e-001 63966 69191,69295,69217
 1.9000e+000 69416  1.4745e+000 -6.5853e+000 -2.0816e+000 63966 69295,69269,69390
 1.9000e+000 69439 -9.5081e-001 -6.3561e+000 -2.4441e-001 63966 69295,69390,69217
 1.9000e+000 69488 -3.5261e+000 -9.8045e+000 -2.9179e+000 63966 69243,69390,69462
 1.9000e+000 69900  2.9175e+000 -3.4378e+000 -6.5765e-001 63676 69701,69779,69727
 1.9000e+000 69877 -5.4444e-001 -5.6847e+000  3.4707e-001 63676 69675,69779,69701
 1.9000e+000 69854 -7.3065e-002 -5.4661e+000  2.1836e-001 63676 69675,69805,69779
 1.9000e+000 69831  4.8346e+000 -6.2492e+000 -1.4887e+000 63676 69727,69779,69753
 1.9000e+000 70050 -5.3057e-001 -9.2787e+000 -1.9281e-002 63472 70073,69949,69923
 1.9000e+000 70027  1.7541e+000 -9.3801e+000 -2.2687e-001 63472 70073,69923,70001
 1.9000e+000 70099 -1.9805e+000 -9.5357e+000  2.4940e-002 63472 69975,69949,70073
 1.9000e+000 70122  7.7441e-003 -9.8408e+000 -1.5628e-001 63472 69975,70073,70001
 1.9000e+000 70321  2.2324e+000 -9.1492e+000  1.6413e+000 63274 70145,70223,70171
 1.9000e+000 70298  8.7326e-001 -1.1038e+001 -3.0321e-001 63274 70145,70249,70223
 1.9000e+000 70275  2.0826e+000 -8.3637e+000  1.2325e+000 63274 70171,70223,70197
 1.9000e+000 70593  6.0719e-001 -4.8452e+000  1.2219e-001 63076 70368,70472,70420
 1.9000e+000 70570  1.2543e+000 -8.0725e+000 -6.0444e-003 63076 70368,70498,70472
 1.9000e+000 70547  2.6367e+000 -6.4563e+000 -2.8268e+000 63076 70420,70472,70446
 1.9000e+000 70524  8.2622e-001 -4.9305e+000  6.5369e-001 63076 70368,70420,70394
 1.9000e+000 70843 -3.5523e+000 -5.9896e+000 -3.2644e-001 62736 70866,70644,70618
 1.9000e+000 70820 -1.6089e+000 -5.8642e+000 -1.2993e+000 62736 70866,70618,70748
 1.9000e+000 70797 -2.5378e+000 -6.6828e+000  1.5059e-001 62736 70644,70722,70696
 1.9000e+000 70774 -2.7715e+000 -5.6041e+000  5.2298e-001 62736 70644,70696,70670
 1.9000e+000 70892 -1.5851e+000 -5.6932e+000 -4.8464e-001 62736 70722,70644,70866
 1.9000e+000 70915 -5.7222e-001 -6.0570e+000 -1.6134e+000 62736 70722,70866,70748
 1.9000e+000 71018  5.7050e+000 -7.6875e+000 -3.7413e+000 62516 70940,70992,70966
 1.9000e+000 71219  1.0982e+000 -8.7712e+000  1.0751e+000 62226 71069,71147,71095
 1.9000e+000 71196 -5.8819e-001 -1.0497e+001 -6.3543e-001 62226 71043,71147,71069
 1.9000e+000 71173 -3.3526e+000 -7.3874e+000  1.6787e+000 62226 71095,71147,71121
 1.9000e+000 71857 -3.0270e-001 -1.0644e+000  6.4162e-002 61708 71511,71693,71667
 1.9000e+000 71834 -2.2049e-002 -4.1075e-001  1.0672e-001 61708 71485,71693,71511
 1.9000e+000 71811 -1.2335e+000 -1.8624e+000  2.7760e-001 61708 71880,71537,71511
 1.9000e+000 71788  1.7994e-002 -1.0731e+000 -6.7263e-002 61708 71880,71511,71667
 1.9000e+000 71765 -3.8256e-002 -3.1189e+000 -1.3593e-001 61708 71537,71615,71589
 1.9000e+000 71742  1.0699e-001 -1.1340e-001  2.5297e+000 61708 71615,71667,71641
 1.9000e+000 71719  4.6636e-002 -4.6994e+000  2.7924e+000 61708 71537,71589,71563
 1.9000e+000 71906 -2.4119e-005 -2.6342e+000  6.2626e-001 61708 71615,71537,71880
 1.9000e+000 71929  8.8325e-001 -2.1245e+000  4.1011e-001 61708 71615,71880,71667
 1.9000e+000 72226 -2.2908e+000 -7.3464e+000  3.7006e-001 61204 72249,72056,72004
 1.9000e+000 72203 -1.0974e+000 -8.5286e+000  1.4777e+000 61204 72249,72004,71978
 1.9000e+000 72180 -1.5166e+000 -8.1469e+000  1.9213e+000 61204 71978,72108,72082
 1.9000e+000 72157  1.9834e-001 -4.7828e+000  2.4547e+000 61204 72004,72056,72030
 1.9000e+000 72134 -1.1214e+000 -1.4200e+001  2.4521e+000 61204 71952,72108,71978
 1.9000e+000 72275 -4.0855e+000 -8.0129e+000  6.0752e-001 61204 72082,72056,72249
 1.9000e+000 72298 -2.2938e+000 -8.8761e+000  1.4378e+000 61204 72082,72249,71978
 1.9000e+000 72757 -2.4570e+000 -5.5827e+000  1.1393e+000 60800 72483,72613,72509
 1.9000e+000 72734 -2.3561e+000 -9.5660e+000  6.7855e-001 60800 72483,72639,72613
 1.9000e+000 72711  4.0747e-001 -6.8762e+000  1.7380e+000 60800 72561,72613,72587
 1.9000e+000 72688 -3.3955e+000 -6.3560e+000  1.6260e+000 60800 72509,72613,72561
 1.9000e+000 72665 -4.6092e+000 -8.4812e+000  3.5860e+000 60800 72509,72561,72535
 1.9000e+000 72907 -7.8676e-001  1.3254e+000 -1.4021e-001 60552 72780,72832,72806
 1.9000e+000 72884  4.9832e-001  1.3951e+000 -8.3703e-001 60552 72780,72858,72832
 1.9000e+000 73464 -2.4767e-001 -4.8240e+000  1.1367e+000 60240 73487,73222,73196
 1.9000e+000 73441 -7.0237e-002 -4.1116e+000  1.2707e+000 60240 73559,73487,73196
 1.9000e+000 73418 -1.1330e+000 -3.3409e+000  1.3086e+000 60240 73559,73196,73170
 1.9000e+000 73395  3.5176e-001 -6.7558e+000  1.2139e+000 60240 73222,73274,73248
 1.9000e+000 73372  1.1876e+000 -3.0364e+000  2.3420e+000 60240 73118,73300,73274
 1.9000e+000 73349 -1.7589e+000 -8.8581e+000  1.2727e+000 60240 73092,73300,73118
 1.9000e+000 73326 -3.7628e+000 -5.8183e+000  4.4762e+000 60240 73118,73170,73144
 1.9000e+000 73513 -1.8121e-001 -4.8078e+000  1.1644e+000 60240 73274,73222,73487
 1.9000e+000 73536 -4.2615e-001 -5.3197e+000  1.0868e+000 60240 73274,73487,73118
 1.9000e+000 73585 -1.1714e+000 -5.2095e+000  7.8678e-001 60240 73118,73487,73559
 1.9000e+000 73608 -2.0765e+000 -4.2897e+000  8.7894e-001 60240 73118,73559,73170
 1.9000e+000 73758 -6.3626e+000 -4.5135e+000 -1.9043e+000 59871 73657,73709,73683
 1.9000e+000 73735 -1.2549e+000 -9.4230e+000 -1.0341e+000 59871 73631,73709,73657
 1.9000e+000 74187 -2.2358e+000 -1.3019e+001  3.9398e-001 59474 74210,73890,73864
 1.9000e+000 74164 -3.1641e+000 -1.6213e+001  1.1742e+000 59474 74210,73864,74046
 1.9000e+000 74141 -1.8909e+000 -7.9588e+000  2.9921e-002 59474 73890,73942,73916
 1.9000e+000 74118 -2.2322e+000 -9.8631e+000  3.4111e-001 59474 73890,73994,73942
 1.9000e+000 74095 -3.4963e+000 -1.3960e+001 -7.6445e-002 59474 73994,74046,74020
 1.9000e+000 74072 -1.9679e+000 -6.5937e+000  1.3604e-001 59474 73942,73994,73968
 1.9000e+000 74236 -3.6124e+000 -1.0523e+001  1.2645e-001 59474 73994,73890,74210
 1.9000e+000 74259 -3.6259e+000 -1.2530e+001  8.3938e-001 59474 73994,74210,74046
 1.9000e+000 74716 -4.4128e+000 -9.1633e+000 -2.7620e+000 58770 74468,74598,74494
 1.9000e+000 74693 -4.2042e+000 -4.8025e+000  6.5248e-002 58770 74442,74598,74468
 1.9000e+000 74670 -2.0361e+000 -9.5479e+000 -6.3819e+000 58770 74494,74572,74520
 1.9000e+000 74647 -1.2858e+000 -3.8030e+000 -1.4786e+000 58770 74494,74598,74572
 1.9000e+000 74624  3.3553e+000 -5.8874e+000 -1.7954e+000 58770 74520,74572,74546
 1.9000e+000 75222 -2.2801e+000 -6.8978e+000  9.8911e-001 58266 74951,75081,75029
 1.9000e+000 75199  3.6671e-002 -7.7046e+000  1.9600e+000 58266 74925,75081,74951
 1.9000e+000 75176 -5.3259e+000 -9.2051e+000  3.1631e+000 58266 75029,75081,75055
 1.9000e+000 75153 -4.7714e-001 -5.4059e+000  7.2184e-001 58266 74951,75003,74977
 1.9000e+000 75130 -2.2711e+000 -6.9527e+000  1.3785e+000 58266 74951,75029,75003
 1.9000e+000 75107 -3.2160e+000 -9.9826e+000  7.3230e-001 58266 74899,75081,74925
 1.9000e+000 75421 -2.4029e+000 -9.2845e+000  4.6604e-001 57826 75444,75297,75245
 1.9000e+000 75398 -2.9758e+000 -1.1699e+001  1.3431e+000 57826 75444,75245,75349
 1.9000e+000 75375 -5.1165e+000 -7.4753e+000  1.2486e+000 57826 75516,75297,75271
 1.9000e+000 75470 -2.4842e+000 -7.8940e+000 -2.1574e-001 57826 75323,75297,75444
 1.9000e+000 75493 -2.3067e+000 -8.8986e+000  7.7535e-001 57826 75323,75444,75349
 1.9000e+000 75542 -1.3754e+000 -7.6479e+000 -6.3427e-002 57826 75245,75297,75516
 1.9000e+000 76257 -8.2023e-001 -3.2144e-001  1.5375e+000 57422 76280,76093,76067
 1.9000e+000 76234 -1.1420e+000 -1.1925e+000  1.7535e+000 57422 75885,76093,75911
 1.9000e+000 76211 -1.0606e+000 -1.4931e+000  1.1982e-002 57422 76424,76280,76067
 1.9000e+000 76188 -7.1326e-001 -2.1494e+000  3.0383e-001 57422 76352,75937,75911
 1.9000e+000 76165 -8.5665e-001 -1.8864e+000  1.4770e-001 57422 76424,76067,76015
 1.9000e+000 76142 -7.9311e-001  3.7433e-003  1.5494e+000 57422 76015,76067,76041
 1.9000e+000 76119 -2.6455e+000 -2.5989e+000  2.7573e-001 57422 75963,76015,75989
 1.9000e+000 76306 -1.6848e+000 -2.2790e+000  1.3276e+000 57422 75911,76093,76280
 1.9000e+000 76329 -1.3348e+000 -1.0660e+000  6.3071e-001 57422 76352,75911,76280
 1.9000e+000 76378 -1.7553e+000 -3.8062e+000 -6.6199e-001 57422 75963,75937,76352
 1.9000e+000 76401 -2.0551e+000 -2.6942e+000 -1.7182e-001 57422 75963,76352,76280
 1.9000e+000 76450 -1.5633e+000 -1.7751e+000  1.7715e-001 57422 75963,76280,76424
 1.9000e+000 76473 -1.1016e+000 -1.9344e+000  2.1273e-001 57422 75963,76424,76015
 1.9000e+000 76949 -4.0932e+000 -2.5779e+000  1.0117e+000 56904 76972,76707,76681
 1.9000e+000 76926 -3.7666e+000 -9.0414e-001 -4.2046e-001 56904 77044,76972,76681
 1.9000e+000 76903 -2.3352e+000  9.6988e-002 -1.0955e+000 56904 77044,76681,76629
 1.9000e+000 76880 -1.8519e+000 -2.8875e+000  9.7701e-001 56904 76707,76785,76759
 1.9000e+000 76857 -3.4225e-001 -3.7236e+000 -1.6843e+000 56904 76577,76785,76603
 1.9000e+000 76834 -1.5419e+000 -2.7220e+000  1.6260e+000 56904 76707,76759,76733
 1.9000e+000 76811 -1.0102e+000  1.4852e+000 -2.5594e+000 56904 76629,76681,76655
 1.9000e+000 76998 -1.3166e+000 -1.3050e+000  6.9701e-001 56904 76785,76707,76972
 1.9000e+000 77021 -2.8200e+000 -3.1980e+000 -1.3908e-001 56904 76785,76972,76603
 1.9000e+000 77070 -1.5562e+000 -1.6528e+000 -8.1721e-001 56904 76603,76972,77044
 1.9000e+000 77093 -8.8894e-001 -1.4537e+000 -1.2984e+000 56904 76603,77044,76629
 1.9000e+000 77471 -2.9388e+000  1.9384e+000 -2.6799e+000 56542 77566,77494,77275
 1.9000e+000 77448 -1.3126e+000  3.6679e+000 -9.4062e-001 56542 77494,77223,77353
 1.9000e+000 77425 -2.3524e+000  1.7704e+000 -4.4874e+000 56542 77566,77275,77249
 1.9000e+000 77402  1.9757e+000  4.4654e+000  3.4894e-001 56542 77197,77353,77223
 1.9000e+000 77379 -1.7972e+000  1.1397e+000 -5.8872e+000 56542 77275,77327,77301
 1.9000e+000 77520 -1.8926e+000  5.3737e+000 -2.4352e+000 56542 77327,77275,77494
 1.9000e+000 77543 -5.1550e+000  2.8956e+000 -1.2921e+000 56542 77327,77494,77353
 1.9000e+000 77592  6.4024e-001  3.2398e+000 -1.5810e+000 56542 77223,77494,77566
 1.9000e+000 77615 -4.0305e-001  1.3031e+000 -3.6543e+000 56542 77223,77566,77249
 1.9000e+000 77814  2.1185e+000  2.8215e+000 -1.7388e+000 56038 77837,77690,77664
 1.9000e+000 77791  2.4743e+000  3.0802e+000 -1.9981e+000 56038 77837,77664,77742
 1.9000e+000 77768  3.2597e+000  1.3410e+000 -1.8284e+000 56038 77638,77742,77664
 1.9000e+000 77863  1.9335e+000  2.6002e+000 -1.4486e+000 56038 77716,77690,77837
 1.9000e+000 77886  2.3406e+000  2.9002e+000 -1.7147e+000 56038 77716,77837,77742
 1.9000e+000 78345 -3.5698e+000 -1.1354e+001  3.1455e+000 55534 78071,78123,78097
 1.9000e+000 78322 -3.9650e+000 -8.4813e+000  1.2861e+000 55534 78071,78201,78123
 1.9000e+000 78299 -4.8261e+000 -1.2865e+001  1.5630e+000 55534 78071,78227,78201
 1.9000e+000 78276 -1.3308e+000 -7.2974e+000  4.0267e+000 55534 78123,78175,78149
 1.9000e+000 78253 -2.5395e+000 -6.0501e+000  2.6319e+000 55534 78123,78201,78175
 1.9000e+000 78802 -2.7347e+000 -3.1069e-002 -2.8409e-001 55030 78825,78632,78606
 1.9000e+000 78779 -1.9852e+000 -2.1985e+000 -6.4147e-001 55030 78897,78825,78606
 1.9000e+000 78756 -3.8368e+000 -3.5676e+000 -2.3342e-002 55030 78897,78606,78580
 1.9000e+000 78733 -6.9145e-001  2.5705e+000  6.6659e-001 55030 78554,78684,78658
 1.9000e+000 78710 -2.5562e+000 -2.0995e+000 -8.2087e-001 55030 78528,78684,78554
 1.9000e+000 78851 -1.0083e+000  5.1321e+000  1.6877e+000 55030 78658,78632,78825
 1.9000e+000 78874 -2.3963e+000 -6.8788e-001 -2.6230e-001 55030 78658,78825,78554
 1.9000e+000 78923 -2.8988e+000 -1.2686e+000 -1.9772e+000 55030 78554,78825,78897
 1.9000e+000 78946 -3.0565e+000 -1.6820e+000 -1.7317e+000 55030 78554,78897,78580
 1.9000e+000 79403 -5.4767e-001 -2.5983e+000  5.4343e-001 54426 79426,79233,79155
 1.9000e+000 79380  2.8810e+000 -2.5479e+000 -6.7998e-001 54426 79426,79155,79129
 1.9000e+000 79357 -1.7027e+000 -4.0362e+000  1.8201e+000 54426 79233,79285,79259
 1.9000e+000 79334 -2.1172e+000 -3.3614e+000  9.8255e-001 54426 79181,79233,79207
 1.9000e+000 79311 -1.4009e+000 -3.1576e+000  8.0481e-001 54426 79155,79233,79181
 1.9000e+000 79452 -1.3927e+000 -2.8121e+000  1.8110e+000 54426 79285,79233,79426
 1.9000e+000 79475  5.2684e-001 -4.2388e+000  7.9511e-001 54426 79285,79426,79129
 1.9000e+000 79932 -1.7913e+000 -3.9856e+000  1.0134e+000 53915 79658,79762,79684
 1.9000e+000 79909 -7.0535e+000 -8.6803e+000  3.1604e+000 53915 79658,79814,79762
 1.9000e+000 79886 -4.7929e+000 -8.2208e+000  6.0584e+000 53915 79762,79814,79788
 1.9000e+000 79863 -5.4789e+000 -5.0391e+000  2.7491e+000 53915 79710,79762,79736
 1.9000e+000 79840 -4.7560e+000 -5.8206e+000  1.9292e+000 53915 79684,79762,79710
 1.9000e+000 80033 -3.1768e+000 -9.4990e+000 -1.6100e+000 53667 79955,80007,79981
 1.9000e+000 80401 -6.5796e+000 -1.3234e+001  1.0236e+000 53263 80104,80260,80234
 1.9000e+000 80378 -6.3091e+000 -1.3949e+001  6.9059e-001 53263 80078,80260,80104
 1.9000e+000 80355 -5.2731e+000 -1.0425e+001 -6.7676e-001 53263 80104,80234,80130
 1.9000e+000 80332 -4.3646e+000 -8.1389e+000 -8.5607e-001 53263 80130,80208,80182
 1.9000e+000 80309 -7.3840e+000 -1.0545e+001  3.3716e-001 53263 80130,80234,80208
 1.9000e+000 80286 -4.2444e+000 -4.2304e+000  1.3586e+000 53263 80130,80182,80156
 1.9000e+000 80911 -5.2636e+000 -9.7866e+000  1.1195e+000 52965 80640,80770,80744
 1.9000e+000 80888 -5.1343e+000 -1.2848e+001  1.8961e+000 52965 80614,80770,80640
 1.9000e+000 80865 -4.4739e+000 -8.1886e+000  2.1119e+000 52965 80640,80744,80666
 1.9000e+000 80842 -5.4286e+000 -1.2323e+001  2.6518e+000 52965 80588,80770,80614
 1.9000e+000 80819 -6.0981e+000 -6.5845e+000  2.3593e+000 52965 80666,80718,80692
 1.9000e+000 80796 -7.2782e+000 -6.9272e+000 -2.8557e-001 52965 80666,80744,80718
 1.9000e+000 81262 -2.0638e+001 -1.7283e+000  3.4218e-001 52561 81037,81141,81063
 1.9000e+000 81239 -1.9150e+001 -5.6875e+000 -9.6266e-001 52561 81037,81167,81141
 1.9000e+000 81216 -3.2890e+001 -9.9670e-001 -7.9222e-001 52561 81063,81115,81089
 1.9000e+000 81193 -3.2643e+001 -4.2549e+000 -3.0106e+000 52561 81063,81141,81115
 1.9000e+000 81719 -1.2730e+000  5.2535e-001 -1.2426e-001 51900 81445,81523,81471
 1.9000e+000 81696 -2.8238e+000 -2.6622e+000  3.7373e-001 51900 81445,81575,81523
 1.9000e+000 81673 -1.4930e+000 -1.2820e-001 -7.2472e-001 51900 81445,81601,81575
 1.9000e+000 81650 -2.2154e+000 -1.0147e+000  9.7765e-001 51900 81523,81575,81549
 1.9000e+000 81627  7.6349e-001  8.0434e-001  9.7860e-002 51900 81471,81523,81497
 1.9000e+000 82323 -1.9564e+000 -2.1440e+000  1.0004e+000 51317 82418,82346,82032
 1.9000e+000 82300 -2.5079e+000 -1.4025e+000  1.0486e-001 51317 82490,82346,81954
 1.9000e+000 82277 -1.6437e+000 -1.2386e+000  8.5632e-001 51317 82418,82032,82006
 1.9000e+000 82254 -1.2597e+000 -6.3815e-001 -3.4857e-001 51317 82490,81954,81928
 1.9000e+000 82231 -6.3238e-001 -5.9893e+000  4.2430e+000 51317 82058,82110,82084
 1.9000e+000 82208  1.7873e-002  8.0142e-001 -5.3821e-001 51317 81928,82136,82110
 1.9000e+000 82185 -1.3115e+000 -9.6790e-001 -3.7100e-001 51317 81954,82006,81980
 1.9000e+000 82162 -2.2664e+000 -1.8132e-001 -5.7175e-001 51317 81902,82136,81928
 1.9000e+000 82372 -2.2324e+000 -5.7070e+000  6.1197e-001 51317 82058,82032,82346
 1.9000e+000 82395 -2.6696e+000 -2.3088e+000  4.2386e-001 51317 82058,82346,82110
 1.9000e+000 82444 -1.5852e+000 -2.5160e+000 -2.2206e-001 51317 81954,82346,82418
 1.9000e+000 82467 -1.2602e+000 -1.6394e+000 -3.7655e-001 51317 81954,82418,82006
 1.9000e+000 82516 -2.1874e+000 -1.7029e+000  7.6148e-001 51317 82110,82346,82490
 1.9000e+000 82539 -2.0570e+000 -1.5256e+000  4.4421e-001 51317 82110,82490,81928
 1.9000e+000 83015 -3.0897e+000 -5.8373e+000  3.3636e-001 50813 82669,82747,82695
 1.9000e+000 82992 -3.8683e+000 -3.8065e+000  2.1032e+000 50813 83038,82669,82851
 1.9000e+000 82969 -4.0893e+000 -5.0101e+000  1.9579e+000 50813 83038,82851,82799
 1.9000e+000 82946 -2.5945e+000 -5.8662e+000  1.8569e+000 50813 82747,82799,82773
 1.9000e+000 82923 -1.2600e+000 -2.7394e+000  2.2665e+000 50813 82643,82851,82669
 1.9000e+000 82900 -3.8904e+000 -4.7658e+000  1.8276e+000 50813 82799,82851,82825
 1.9000e+000 82877 -2.9256e+000 -4.3416e+000  1.1125e+000 50813 82695,82747,82721
 1.9000e+000 83064 -3.3125e+000 -4.8525e+000  2.8818e+000 50813 82747,82669,83038
 1.9000e+000 83087 -3.4515e+000 -5.9827e+000  2.6038e+000 50813 82747,83038,82799
 1.9000e+000 83286  4.2799e-001 -8.3038e+000 -1.9089e+000 50352 83309,83162,83136
 1.9000e+000 83263 -2.2971e+000 -2.5397e+000 -2.4015e-001 50352 83511,83309,83136
 1.9000e+000 83240 -2.3352e+000 -1.9695e+000 -4.8782e-001 50352 83511,83136,83381
 1.9000e+000 83335  5.1071e+000 -2.7292e+000 -4.4770e+000 50352 83188,83162,83309
 1.9000e+000 83358 -1.4048e+000 -2.6964e+000 -1.9102e+000 50352 83188,83309,83214
 1.9000e+000 83407 -3.4657e+000  1.7790e-001 -1.3633e+000 50352 83110,83214,83381
 1.9000e+000 83537 -1.8865e+000 -1.8078e+000 -6.5652e-001 50352 83214,83309,83511
 1.9000e+000 83560 -1.9753e+000 -1.5608e+000 -9.4360e-001 50352 83214,83511,83381
 1.9000e+000 83889 -5.6563e+000 -6.3445e+000 -1.1993e+000 49548 83716,83794,83742
 1.9000e+000 83866 -3.6229e+000 -7.2559e+000  1.1770e+000 49548 83690,83794,83716
 1.9000e+000 83843 -5.2941e+000 -1.1332e+001 -5.6320e-001 49548 83664,83794,83690
 1.9000e+000 83820 -6.4295e+000 -1.1348e+001  1.0049e+000 49548 83742,83794,83768
 1.9000e+000 84137  3.7770e-001  1.1671e+000 -1.9944e+000 49208 84160,84016,83938
 1.9000e+000 84114  1.2968e+000  3.2301e+000 -3.2002e+000 49208 84160,83938,83912
 1.9000e+000 84091 -1.2509e+000  1.7684e+000 -1.3193e+000 49208 83938,84016,83964
 1.9000e+000 84068 -1.6309e-001 -2.4327e-001 -9.0528e-003 49208 83964,84016,83990
 1.9000e+000 84186  1.5380e+000  2.3635e+000 -3.0290e+000 49208 84042,84016,84160
 1.9000e+000 84209  1.6374e+000  3.4948e+000 -4.1307e+000 49208 84042,84160,83912
 1.9000e+000 84796 -5.1069e+000 -5.4134e+000 -1.3589e+000 48861 84499,84629,84551
 1.9000e+000 84773 -1.1706e+000 -3.6347e+000 -2.7227e-001 48861 84499,84655,84629
 1.9000e+000 84750 -3.9031e+000 -1.4673e+000  9.0279e-001 48861 84551,84629,84577
 1.9000e+000 84727 -1.8896e+000 -1.6570e+000  7.7812e-001 48861 84577,84629,84603
 1.9000e+000 84704 -4.6135e+000 -3.1180e+000 -3.2084e+000 48861 84499,84551,84525
 1.9000e+000 84681 -1.3241e+000 -4.0973e+000 -6.7759e-001 48861 84473,84655,84499
 1.9000e+000 85351 -5.9652e+000 -8.2304e+000  2.4270e+000 48457 85374,85031,85005
 1.9000e+000 85328 -4.0854e+000 -4.5091e+000  1.6659e+000 48457 85374,85005,85161
 1.9000e+000 85305 -4.6638e+000 -6.5981e+000  2.0950e-001 48457 85446,85057,85031
 1.9000e+000 85282 -2.9487e+000 -3.8240e+000  1.3236e+000 48457 85005,85187,85161
 1.9000e+000 85259 -1.8254e+000 -3.5830e+000  1.6265e+000 48457 85083,85161,85109
 1.9000e+000 85236 -4.1367e+000 -3.7581e+000  1.7983e+000 48457 84979,85187,85005
 1.9000e+000 85213 -1.8188e+000 -4.9497e+000  8.9067e-001 48457 85109,85161,85135
 1.9000e+000 85400 -4.4354e+000 -7.0237e+000  3.7057e-001 48457 85446,85031,85374
 1.9000e+000 85423 -3.6675e+000 -6.0503e+000  4.0833e-001 48457 85083,85374,85161
 1.9000e+000 85472 -4.3860e+000 -6.1780e+000  3.3796e-001 48457 85083,85057,85446
 1.9000e+000 85495 -4.0240e+000 -6.3904e+000  5.5426e-001 48457 85083,85446,85374
 1.9000e+000 86080 -1.7524e+000 -4.1746e+000 -1.8543e-002 48053 86319,86103,85783
 1.9000e+000 86057 -1.0159e+000 -2.5267e+000  2.9261e-001 48053 86103,85757,85939
 1.9000e+000 86034 -5.9937e-001 -2.9291e+000  8.1141e-001 48053 86247,86175,85887
 1.9000e+000 86011 -5.3335e-001 -2.1795e+000  3.5083e-001 48053 86247,85887,85835
 1.9000e+000 85988 -1.2169e-001 -1.4946e+000  9.5223e-001 48053 85887,85939,85913
 1.9000e+000 85965 -1.4114e+000 -2.0996e+000  9.4227e-001 48053 85835,85887,85861
 1.9000e+000 86129 -1.2800e+000 -3.9515e+000  6.6641e-001 48053 85809,85783,86103
 1.9000e+000 86152 -4.9161e-001 -3.5211e+000  4.6868e-001 48053 86175,85809,86103
 1.9000e+000 86201 -7.9333e-001 -1.8008e+000  1.0416e+000 48053 85939,85887,86175
 1.9000e+000 86224 -1.2404e+000 -2.6404e+000  1.2899e+000 48053 85939,86175,86103
 1.9000e+000 86273  1.0423e-001 -2.1742e+000  3.5566e-001 48053 85809,86175,86247
 1.9000e+000 86296 -2.7211e-001 -1.6106e+000  2.0017e-002 48053 85809,86247,85835
 1.9000e+000 86345 -3.0103e+000 -3.3968e+000  6.6604e-001 48053 85757,86103,86319
 1.9000e+000 86851  2.9337e+000 -4.1451e+000  9.6522e-001 47541 86874,86580,86554
 1.9000e+000 86828 -2.0840e+000 -6.2906e+000  9.9757e-001 47541 86946,86874,86554
 1.9000e+000 86805 -3.9765e+000 -6.0416e+000  1.1859e+000 47541 86946,86554,86528
 1.9000e+000 86782  5.9128e+000 -2.1659e+000  7.3043e-001 47541 86580,86658,86606
 1.9000e+000 86759 -1.2152e+000 -7.5074e+000 -6.8512e-001 47541 86528,86710,86684
 1.9000e+000 86736  1.0230e-001  4.6747e-003 -5.2551e-002 47541 86606,86658,86632
 1.9000e+000 86900  2.0677e-001 -5.6361e+000 -7.2964e-001 47541 86658,86580,86874
 1.9000e+000 86923  2.8322e+000 -4.6104e+000 -8.4724e-001 47541 86658,86874,86684
 1.9000e+000 86972  5.4516e-001 -5.6984e+000 -1.4854e+000 47541 86684,86874,86946
 1.9000e+000 86995 -2.5487e+000 -6.7537e+000 -9.3908e-001 47541 86684,86946,86528
 1.9000e+000 87324 -3.6421e+000 -6.4369e+000  1.7182e+000 47044 87151,87203,87177
 1.9000e+000 87301 -6.2710e+000 -8.7295e+000  2.4569e-001 47044 87125,87203,87151
 1.9000e+000 87278 -5.9420e+000 -1.0135e+001  1.0849e+000 47044 87099,87203,87125
 1.9000e+000 87255 -7.0254e+000 -1.0620e+001 -2.4359e+000 47044 87099,87229,87203
 1.9000e+000 87572 -5.8418e+000 -7.5988e+000  8.4749e-001 46697 87595,87425,87373
 1.9000e+000 87549 -5.3467e+000 -8.8981e+000  1.5231e+000 46697 87595,87373,87477
 1.9000e+000 87526 -9.8370e+000 -1.1030e+001  4.6873e-001 46697 87347,87477,87373
 1.9000e+000 87503 -6.4812e+000 -5.9624e+000  1.7411e+000 46697 87373,87425,87399
 1.9000e+000 87621 -5.6271e+000 -4.9413e+000  5.5909e-001 46697 87451,87425,87595
 1.9000e+000 87644 -6.4398e+000 -7.5353e+000  1.6455e+000 46697 87451,87595,87477
 1.9000e+000 87794 -8.0886e+000 -1.1675e+000 -1.0944e+000 46235 87693,87745,87719
 1.9000e+000 87771 -1.0543e+001 -1.3427e+001 -9.6550e-002 46235 87667,87745,87693
 1.9000e+000 88304 -4.3150e+000 -8.4382e+000  2.1438e+000 45731 88085,88163,88137
 1.9000e+000 88281 -5.8743e+000 -7.9298e+000  9.8692e-001 45731 88007,88163,88085
 1.9000e+000 88258 -8.6372e+000 -9.8045e+000 -5.4666e-001 45731 87981,88163,88007
 1.9000e+000 88235 -9.9046e+000 -6.9492e+000  2.3089e+000 45731 88007,88085,88059
 1.9000e+000 88212 -2.0978e+000 -7.6207e+000  3.4376e-001 45731 88085,88137,88111
 1.9000e+000 88189 -8.9688e+000 -9.0744e+000  4.7186e+000 45731 88007,88059,88033
 1.9000e+000 88682 -8.0023e+000 -9.0953e+000 -6.9735e-001 45312 88434,88512,88486
 1.9000e+000 88659 -1.1322e+001 -1.3385e+001  2.2808e+000 45312 88434,88538,88512
 1.9000e+000 88636 -6.9976e+000 -7.3669e+000  2.7827e-001 45312 88434,88564,88538
 1.9000e+000 88613 -5.4626e+000 -1.0998e+001 -8.2722e-001 45312 88434,88486,88460
 1.9000e+000 88590 -8.7212e+000  1.0298e+000  7.8736e+000 45312 88408,88564,88434
 1.9000e+000 88930  4.6607e+000  2.1107e+000 -1.0468e+000 44808 88953,88731,88705
 1.9000e+000 88907  1.6479e+000  1.5231e+000  2.8518e+000 44808 88953,88705,88835
 1.9000e+000 88884  1.7845e+000 -5.5625e+000  2.4002e+000 44808 89025,88783,88757
 1.9000e+000 88861  3.7912e-002 -5.0848e+000  1.7978e+000 44808 88783,88835,88809
 1.9000e+000 88979 -1.6135e+000 -1.1346e+000  3.4529e-001 44808 88757,88731,88953
 1.9000e+000 89002  4.3652e-001 -3.7557e+000  3.1586e+000 44808 89025,88757,88953
 1.9000e+000 89051  8.3364e-001 -3.1303e+000  1.7892e+000 44808 88835,88783,89025
 1.9000e+000 89074  1.0090e+000  5.0628e-001  1.9972e+000 44808 88835,89025,88953
 1.9000e+000 89224 -5.3517e+001 -1.1621e+001  2.7490e+000 44404 89123,89175,89149
 1.9000e+000 89201 -5.1113e+001 -1.4029e+000 -6.8190e-001 44404 89097,89175,89123
 1.9000e+000 89783 -9.8317e-001  1.1168e+000 -1.1149e+000 43850 89806,89541,89515
 1.9000e+000 89760 -1.6609e+000 -1.1041e+000 -3.3567e-001 43850 89806,89515,89463
 1.9000e+000 89737 -1.8285e+000 -1.9322e+000 -4.8190e-001 43850 89950,89878,89593
 1.9000e+000 89714 -2.0191e+000 -2.0138e+000 -2.7531e-001 43850 89950,89593,89567
 1.9000e+000 89691 -1.3849e+000 -1.0380e+000 -1.3147e-001 43850 89411,89619,89463
 1.9000e+000 89668  1.4228e+000 -6.7935e-001 -1.0207e+000 43850 89463,89515,89489
 1.9000e+000 89645 -1.7092e+000 -6.7673e-001  5.6482e-002 43850 89411,89463,89437
 1.9000e+000 89832 -1.9501e+000  1.8004e-001  1.2522e-001 43850 89878,89541,89806
 1.9000e+000 89855 -1.0984e+000 -6.4133e-001  3.0068e-003 43850 89619,89806,89463
 1.9000e+000 89904 -1.6190e+000 -2.6789e+000  2.2042e-001 43850 89619,89593,89878
 1.9000e+000 89927 -1.5724e+000 -2.3583e+000  3.3496e-002 43850 89619,89878,89806
 1.9000e+000 89976 -2.5351e+000 -2.1370e+000  7.0262e-001 43850 89541,89878,89950
 1.9000e+000 89999 -3.2914e+000 -3.1638e+000  1.0656e+000 43850 89541,89950,89567
 1.9000e+000 90247  3.7932e-001  7.3332e+000  8.6661e-001 43488 90022,90074,90048
 1.9000e+000 90224 -3.5739e+000  5.7529e+000 -6.7174e-002 43488 90270,90022,90152
 1.9000e+000 90201 -2.3090e+000  2.7325e+000 -2.7979e-001 43488 90342,90270,90152
 1.9000e+000 90178 -2.5679e+000 -9.7355e-001  4.4103e+000 43488 90342,90152,90126
 1.9000e+000 90296 -2.1653e+000  1.9292e+000  1.6752e+000 43488 90074,90022,90270
 1.9000e+000 90319 -3.7110e+000  9.5046e-001  1.1794e+000 43488 90074,90270,90100
 1.9000e+000 90368 -7.9449e+000 -1.8379e+000  3.3958e+000 43488 90100,90270,90342
 1.9000e+000 90391 -8.1674e+000 -5.9883e+000  8.0926e+000 43488 90100,90342,90126
 1.9000e+000 90590 -9.9809e+000 -8.4941e+000 -1.4970e+000 43048 90414,90492,90440
 1.9000e+000 90567 -1.1556e+001 -1.2998e+001 -1.1220e-001 43048 90414,90518,90492
 1.9000e+000 90544 -1.0190e+001 -2.4996e+000  1.6748e+000 43048 90440,90492,90466
 1.9000e+000 91070 -4.7684e+000 -7.7709e+000  7.2227e-001 42430 91237,90880,90854
 1.9000e+000 91047 -5.4983e+000 -1.0590e+001  2.5036e+000 42430 90698,90906,90880
 1.9000e+000 91024 -7.4145e+000 -7.7308e+000  2.0287e+000 42430 91093,90750,90698
 1.9000e+000 91001 -5.8664e+000 -7.0371e+000  1.5075e+000 42430 91237,90854,91093
 1.9000e+000 90978 -5.9479e+000 -6.6365e+000  5.7117e-001 42430 91165,90802,90776
 1.9000e+000 90955 -4.6620e+000 -5.8749e+000  2.1861e-001 42430 90802,90854,90828
 1.9000e+000 90932 -7.8359e+000 -9.5851e+000  1.4175e+000 42430 90698,90750,90724
 1.9000e+000 91119 -9.2465e+000 -8.0745e+000  1.5036e+000 42430 90776,90750,91093
 1.9000e+000 91142 -7.1376e+000 -7.7117e+000  1.5807e+000 42430 91165,90776,91093
 1.9000e+000 91191 -5.5507e+000 -6.1442e+000 -1.8094e-001 42430 90854,90802,91165
 1.9000e+000 91214 -6.0301e+000 -5.7830e+000  6.7789e-001 42430 90854,91165,91093
 1.9000e+000 91263 -6.3536e+000 -8.2698e+000  6.2232e-001 42430 90698,90880,91237
 1.9000e+000 91286 -7.6251e+000 -7.6322e+000  1.3313e+000 42430 90698,91237,91093
 1.9000e+000 91694 -4.6996e-001 -1.4537e+000 -2.9751e-001 41769 91469,91573,91495
 1.9000e+000 91671 -1.1747e+000 -2.6071e+000  6.1035e-001 41769 91469,91599,91573
 1.9000e+000 91648 -1.2084e+000 -2.2111e+000  7.6184e-001 41769 91495,91547,91521
 1.9000e+000 91625 -1.9481e+000 -2.0969e+000 -5.9883e-001 41769 91495,91573,91547
 1.9000e+000 92040  1.0176e+001  6.8417e+000  2.9642e+000 41379 91769,91873,91847
 1.9000e+000 92017  7.1309e+000  3.5940e+000  3.6971e-001 41379 91743,91873,91769
 1.9000e+000 91994  8.5369e+000  7.1530e+000  2.7903e+000 41379 91769,91847,91795
 1.9000e+000 91971  7.2130e+000  1.7050e+000  1.7927e+000 41379 91743,91899,91873
 1.9000e+000 91948  1.5918e+000 -3.7055e+000 -2.8898e+000 41379 91717,91899,91743
 1.9000e+000 91925  4.5276e+000  3.7438e+000  6.2173e-001 41379 91795,91847,91821
 1.9000e+000 92597 -4.4454e+000 -2.4855e+000 -7.8331e-001 40975 92225,92407,92303
 1.9000e+000 92574 -6.3241e+000 -1.2625e+000 -1.6393e+000 40975 92225,92433,92407
 1.9000e+000 92551 -3.6460e+000 -5.7575e-001 -9.2878e-001 40975 92225,92303,92277
 1.9000e+000 92528 -6.6835e+000 -3.5051e+000 -1.1602e+000 40975 92329,92407,92381
 1.9000e+000 92505 -6.0579e+000 -2.5833e+000 -7.9858e-001 40975 92303,92407,92329
 1.9000e+000 92482 -2.1815e+000 -2.0329e-002  4.5764e-001 40975 92225,92277,92251
 1.9000e+000 92459 -8.4091e+000 -3.4112e+000 -4.7311e-001 40975 92329,92381,92355
 1.9000e+000 93231 -1.8469e+001 -1.6251e+000 -1.6616e+000 40521 92937,92989,92963
 1.9000e+000 93208 -1.0348e+001 -2.5511e+000 -6.1513e-001 40521 93254,92937,92885
 1.9000e+000 93185 -7.5422e+000 -2.8067e+000  1.4264e+000 40521 93254,92885,93067
 1.9000e+000 93162 -9.7890e+000 -3.7315e+000 -7.9539e-001 40521 92885,92937,92911
 1.9000e+000 93139 -9.7382e+000 -2.4410e+000  1.3657e+000 40521 92859,93067,92885
 1.9000e+000 93116 -4.5753e+000 -7.6028e-001  8.3133e-001 40521 92989,93067,93015
 1.9000e+000 93093 -2.7837e+000 -9.9576e-001  7.0172e-001 40521 93015,93067,93041
 1.9000e+000 93280 -9.2924e+000 -3.1618e-001  9.9433e-001 40521 92989,92937,93254
 1.9000e+000 93303 -6.3305e+000 -2.0859e+000  2.6613e+000 40521 92989,93254,93067
 1.9000e+000 93632 -4.1683e+000 -1.0748e+000  1.2279e+000 40231 93433,93537,93511
 1.9000e+000 93609 -4.7066e+000 -2.5703e+000  4.9483e-001 40231 93407,93537,93433
 1.9000e+000 93586 -3.4348e+000  2.6162e+000  5.8464e-001 40231 93459,93511,93485
 1.9000e+000 93563 -4.8868e+000 -9.0928e-001 -2.4516e-001 40231 93433,93511,93459
 1.9000e+000 94010 -6.5186e+000  1.5853e+000  1.0328e+000 39869 93762,93866,93788
 1.9000e+000 93987 -3.0116e+000  2.5555e+000  9.6701e-001 39869 93762,93892,93866
 1.9000e+000 93964 -8.9089e+000 -2.8215e+000 -4.1422e-002 39869 93788,93866,93840
 1.9000e+000 93941 -9.5130e+000 -5.3033e-001 -3.0524e+000 39869 93788,93840,93814
 1.9000e+000 93918 -4.8328e+000 -3.4549e+000  1.5019e+000 39869 93736,93892,93762
 1.9000e+000 94160 -1.0970e+001 -4.1129e+000 -1.0632e+000 39457 94033,94085,94059
 1.9000e+000 94137 -1.0636e+001 -1.1418e+001  5.7560e-001 39457 94033,94111,94085
 1.9000e+000 94359 -3.5255e+000  2.3848e+000  1.7235e+000 39053 94382,94235,94209
 1.9000e+000 94336  3.0991e+000  9.0155e+000 -1.7382e+000 39053 94382,94209,94183
 1.9000e+000 94313 -3.0490e+000  4.2469e+000  4.0192e+000 39053 94183,94287,94261
 1.9000e+000 94408  2.5888e-001  4.8971e+000  2.9194e+000 39053 94454,94382,94261
 1.9000e+000 94431  8.9524e-001  5.1570e+000  3.0729e+000 39053 94261,94382,94183
 1.9000e+000 94480 -1.4247e+000 -3.7222e+000  3.2612e+000 39053 94235,94382,94454
 1.9000e+000 94892 -6.7615e+000 -1.2056e+000  6.7256e-001 38392 94915,94771,94719
 1.9000e+000 94869 -6.7941e+000 -3.9624e-001  9.2332e-001 38392 94915,94719,94693
 1.9000e+000 94846 -4.7276e+000 -1.8285e-001  4.6891e+000 38392 94719,94771,94745
 1.9000e+000 94823 -5.0450e+000  2.0386e+000  1.7730e+000 38392 94667,94797,94693
 1.9000e+000 94941 -7.1854e+000 -4.4821e-001  3.3882e-001 38392 94797,94771,94915
 1.9000e+000 94964 -7.1298e+000  4.5498e-001  4.6982e-001 38392 94797,94915,94693
 1.9000e+000 95261 -6.0792e-001  4.5696e-001 -1.3709e+000 37831 95013,95065,95039
 1.9000e+000 95238 -2.4315e+000 -1.0365e-002 -4.1375e-001 37831 95284,95065,95013
 1.9000e+000 95215 -1.5409e+000  8.3716e-001 -1.1680e+000 37831 95284,95013,94987
 1.9000e+000 95192 -1.4620e+000 -5.0683e-001 -1.5341e-001 37831 94987,95143,95117
 1.9000e+000 95169 -2.7043e+000 -2.2742e+000 -1.1394e-001 37831 95065,95117,95091
 1.9000e+000 95310 -2.0255e+000 -1.3237e+000  4.4796e-001 37831 95117,95065,95284
 1.9000e+000 95333 -1.2708e+000 -3.0670e-001 -2.4807e-001 37831 95117,95284,94987
 1.9000e+000 95554 -8.7207e+000 -3.5089e+000 -1.2161e+000 37419 95404,95456,95430
 1.9000e+000 95531 -5.7049e+000  4.0764e+000 -1.2892e+000 37419 95378,95456,95404
 1.9000e+000 95508 -2.5050e+000  6.3624e+000 -2.3161e+000 37419 95378,95482,95456
 1.9000e+000 95887 -1.1532e+001 -1.1590e+001  2.3171e-001 37221 95662,95714,95688
 1.9000e+000 95864 -1.2816e+001 -1.4199e+001  8.0869e-001 37221 95662,95792,95714
 1.9000e+000 95841 -8.0196e+000 -9.8897e+000 -2.6733e+000 37221 95714,95766,95740
 1.9000e+000 95818 -1.0352e+001 -8.9640e+000 -6.1428e-001 37221 95714,95792,95766
 1.9000e+000 95988 -2.5920e+001 -5.5584e+000 -3.4306e+000 36731 95910,95962,95936
 1.9000e+000 96138 -3.4858e+000  2.8875e+000  3.3255e+000 36327 96293,96063,96037
 1.9000e+000 96115 -7.5857e+000  1.2263e+000  4.6887e+000 36327 96161,96037,96011
 1.9000e+000 96187 -3.3391e+000  3.5402e+000  5.7777e+000 36327 96293,96037,96161
 1.9000e+000 96319 -2.8583e+000  6.1842e+000  4.4339e+000 36327 96089,96063,96293
 1.9000e+000 96342 -1.4626e+000  7.4874e+000  7.1880e+000 36327 96089,96293,96161
 1.9000e+000 96710 -1.4429e+000 -3.1144e-001  1.2806e+000 36037 96733,96491,96439
 1.9000e+000 96687 -1.3783e+000  1.7187e+000  1.9524e+000 36037 96733,96439,96413
 1.9000e+000 96664 -1.7491e+000 -5.2869e-001  7.1683e-001 36037 96439,96491,96465
 1.9000e+000 96641 -4.6806e+000  4.6453e+000  1.0909e+000 36037 96387,96517,96413
 1.9000e+000 96618 -4.5958e+000  5.2308e+000  1.0647e+000 36037 96387,96543,96517
 1.9000e+000 96595 -1.4491e+000  2.8008e+000  3.6228e+000 36037 96387,96569,96543
 1.9000e+000 96759 -3.1853e+000  1.8618e+000  6.4704e-001 36037 96517,96491,96733
 1.9000e+000 96782 -2.2794e+000  4.2146e+000  2.1079e+000 36037 96517,96733,96413
 1.9000e+000 96932 -1.3700e+000 -1.5244e+000  1.3676e+000 35633 97027,96955,96831
 1.9000e+000 96909 -1.6526e+000 -1.8216e+000  1.7000e+000 35633 97159,96955,96805
 1.9000e+000 96981 -2.2440e+000 -1.7187e+000  1.4203e+000 35633 96857,96831,96955
 1.9000e+000 97004 -2.4046e+000 -1.5932e+000  2.2090e+000 35633 96857,96955,96883
 1.9000e+000 97053 -8.3365e-001 -4.4877e-001  7.3806e-001 35633 96805,96955,97027
 1.9000e+000 97185 -2.2802e+000 -1.3960e+000  1.7599e+000 35633 96883,96955,97159
 1.9000e+000 97593 -4.2457e+000 -2.7260e+000  3.7171e-001 35186 97446,97498,97472
 1.9000e+000 97570 -3.1292e+000  1.6526e-001  2.2906e-001 35186 97368,97498,97446
 1.9000e+000 97547 -3.3052e+000 -1.0649e+000 -2.8858e-001 35186 97368,97446,97394
 1.9000e+000 97524 -1.5930e+000 -2.1760e-001 -5.6458e-001 35186 97394,97446,97420
 1.9000e+000 98050  1.7794e-001  2.5344e+000 -9.9248e-001 34632 97802,97932,97854
 1.9000e+000 98027 -2.9227e+000 -1.0713e+000 -2.3341e+000 34632 97776,97932,97802
 1.9000e+000 98004 -3.4828e+000 -9.3737e-001  1.9896e+000 34632 97802,97854,97828
 1.9000e+000 97981 -4.9524e+000  1.5067e+000 -1.3898e+000 34632 97880,97932,97906
 1.9000e+000 97958 -1.4245e+000  2.1111e-002 -9.3534e-002 34632 97854,97932,97880
 1.9000e+000 98526 -5.8924e+000 -4.7250e+000  6.3790e-001 34064 98693,98180,98362
 1.9000e+000 98503 -4.8119e+000 -6.0763e+000 -6.6993e-001 34064 98154,98362,98180
 1.9000e+000 98480 -4.5140e+000 -3.1093e+000  5.1207e+000 34064 98549,98258,98232
 1.9000e+000 98457 -9.0423e+000  6.8285e-001  1.0901e+001 34064 98549,98232,98206
 1.9000e+000 98434 -7.0711e+000 -6.9637e+000 -7.7356e-001 34064 98837,98621,98362
 1.9000e+000 98411 -5.0205e+000 -6.0475e+000  3.4749e+000 34064 98765,98284,98258
 1.9000e+000 98388 -6.3800e+000 -8.6838e+000 -5.5680e-001 34064 98837,98362,98336
 1.9000e+000 98575 -4.2824e+000 -4.1217e+000  3.7345e+000 34064 98765,98258,98549
 1.9000e+000 98598 -7.9052e+000 -5.1802e+000  8.6869e-001 34064 98621,98310,98549
 1.9000e+000 98647 -6.2217e+000 -4.0816e+000  2.4330e-001 34064 98693,98362,98621
 1.9000e+000 98670 -4.8428e+000  1.8682e+000  1.7427e+000 34064 98206,98621,98549
 1.9000e+000 98719 -5.2062e+000 -4.1294e+000  2.9264e-001 34064 98206,98180,98693
 1.9000e+000 98742 -5.4482e+000 -3.6352e+000  5.5993e-002 34064 98206,98693,98621
 1.9000e+000 98791 -6.0143e+000 -4.0495e+000  1.8021e+000 34064 98310,98284,98765
 1.9000e+000 98814 -5.7727e+000 -2.9678e+000  1.8916e+000 34064 98310,98765,98549
 1.9000e+000 98863 -7.1984e+000 -4.4650e+000 -1.1977e-001 34064 98310,98621,98837
 1.9000e+000 98886 -6.8317e+000 -6.6086e+000  1.6190e-001 34064 98310,98837,98336
 1.9000e+000 99264 -5.0326e+000 -3.4134e+000 -1.7964e+000 33446 99287,99094,99068
 1.9000e+000 99241 -4.6783e+000 -3.4930e+000 -1.3541e+000 33446 99287,99068,99016
 1.9000e+000 99218 -1.0722e+001 -1.2246e+000  1.4881e+000 33446 99016,99068,99042
 1.9000e+000 99195 -1.1812e+001 -7.0454e+000 -3.4400e+000 33446 99016,99146,99120
 1.9000e+000 99172 -1.0311e+001 -7.0758e+000  2.4437e-001 33446 98990,99146,99016
 1.9000e+000 99313 -5.9785e+000 -3.6132e+000 -1.9959e+000 33446 99120,99094,99287
 1.9000e+000 99336 -5.0822e+000 -3.3526e+000 -1.5700e+000 33446 99120,99287,99016
 1.9000e+000 99861 -6.5463e+000 -2.5588e+000 -4.7372e-001 32940 100172,99956,99884
 1.9000e+000 99838 -6.4821e+000 -3.4175e+000 -5.7086e-002 32940 100100,99884,99518
 1.9000e+000 99815 -3.4783e+000 -4.0009e+000 -7.7284e-001 32940 100244,99956,99622
 1.9000e+000 99792 -2.2549e+000 -7.7325e-001 -9.0625e-002 32940 100028,99648,99622
 1.9000e+000 99769 -6.2054e+000 -4.6174e+000 -7.5422e-001 32940 100100,99518,99492
 1.9000e+000 99746 -1.3025e+000 -3.4869e+000  2.4699e-001 32940 99570,99622,99596
 1.9000e+000 99723 -1.7546e+000 -4.2618e+000 -3.1022e-001 32940 100244,99622,99570
 1.9000e+000 99700 -4.3023e+000 -2.3700e+000  6.5185e-001 32940 99440,99492,99466
 1.9000e+000 99910 -5.0327e+000 -1.8398e+000 -6.7757e-001 32940 100172,99884,100028
 1.9000e+000 99933 -7.4135e+000 -3.6114e+000  1.1156e+000 32940 99674,99884,99440
 1.9000e+000 99982 -6.9596e+000 -5.2112e+000 -2.0816e-003 32940 99518,99884,99956
 1.9000e+000 100005 -8.5272e+000 -9.7143e+000 -3.3449e+000 32940 99518,99956,99544
 1.9000e+000 100054 -6.2833e+000  4.6128e-001  8.5140e-001 32940 99674,99648,100028
 1.9000e+000 100077 -6.1855e+000 -7.1257e-001  9.7049e-001 32940 99674,100028,99884
 1.9000e+000 100126 -5.6292e+000 -2.5517e+000  6.0008e-001 32940 99440,99884,100100
 1.9000e+000 100149 -5.3211e+000 -3.3964e+000 -1.3246e-001 32940 99440,100100,99492
 1.9000e+000 100198 -5.5751e+000 -2.8573e+000  8.0078e-001 32940 99622,99956,100172
 1.9000e+000 100221 -5.3470e+000 -2.7479e+000  7.6104e-001 32940 99622,100172,100028
 1.9000e+000 100270 -5.8883e+000 -4.1548e+000 -9.3531e-001 32940 99544,99956,100244
 1.9000e+000 100293 -4.3650e+000 -4.5634e+000 -4.7344e-001 32940 99544,100244,99570
 1.9000e+000 100750 -1.0216e+000 -1.5933e-001  6.5632e-001 32365 100773,100580,100502
 1.9000e+000 100727  4.7397e-002  3.3659e-002  7.6822e-001 32365 100773,100502,100632
 1.9000e+000 100704  2.6822e+000 -3.1262e+000 -2.0636e+000 32365 100476,100632,100502
 1.9000e+000 100681 -3.2103e+000 -2.0517e+000  3.7280e-001 32365 100528,100580,100554
 1.9000e+000 100658  5.8579e-004 -9.0828e-002 -5.3638e-001 32365 100502,100580,100528
 1.9000e+000 100799 -5.9839e-002 -1.9505e-001  1.0502e+000 32365 100606,100580,100773
 1.9000e+000 100822  7.0451e-001 -2.1651e-001  1.1695e+000 32365 100606,100773,100632
 1.9000e+000 101021 -1.3476e+000  4.4901e-001  2.5226e+000 31853 100871,100923,100897
 1.9000e+000 100998  1.3700e+000  3.3592e+000  3.7240e+000 31853 100871,100949,100923
 1.9000e+000 100975 -1.2894e+000 -3.1325e+000  3.7037e+000 31853 100845,100949,100871
 1.9000e+000 101529 -3.5504e+000 -3.2747e+000  3.2114e-002 31249 101552,101310,101232
 1.9000e+000 101506 -3.5361e+000 -2.4307e+000 -4.7930e-001 31249 101552,101232,101206
 1.9000e+000 101483 -3.6804e+000 -1.3761e+000  4.2199e-001 31249 101206,101388,101336
 1.9000e+000 101460 -4.8866e+000 -8.2951e+000  6.9653e-001 31249 101232,101284,101258
 1.9000e+000 101437 -4.2687e+000 -5.8449e+000  1.2547e-001 31249 101232,101310,101284
 1.9000e+000 101414 -3.0426e+000 -1.5552e-001  7.0641e-001 31249 101336,101388,101362
 1.9000e+000 101578 -3.7740e+000 -4.3554e+000  3.4602e-001 31249 101336,101310,101552
 1.9000e+000 101601 -3.6237e+000 -3.2521e+000 -1.4380e-001 31249 101336,101552,101206
 1.9000e+000 101751 -1.1553e+001  3.0881e+000 -4.7778e-001 30515 101774,101650,101624
 1.9000e+000 101728 -8.1051e+000  3.9771e+000 -5.9845e-001 30515 101846,101774,101624
 1.9000e+000 101800 -1.1478e+001  6.5966e+000  1.7266e-002 30515 101676,101650,101774
 1.9000e+000 101823 -1.1463e+001  7.8345e-001  6.9090e-001 30515 101676,101774,101702
 1.9000e+000 101872 -1.2434e+001 -5.8622e+000 -1.3313e+000 30515 101702,101774,101846
 1.9000e+000 102557 -1.0132e+000 -2.2622e+000  6.5841e-001 29947 102652,102580,102266
 1.9000e+000 102534 -5.4793e-001 -1.6129e+000  1.0760e+000 29947 102580,102136,102370
 1.9000e+000 102511 -1.3767e+000 -3.0548e+000  4.7074e-001 29947 102724,102652,102266
 1.9000e+000 102488 -1.3025e+000 -3.8235e+000  3.8912e-001 29947 102724,102266,102240
 1.9000e+000 102465 -8.3562e-001 -2.4419e+000  8.7437e-001 29947 102796,102318,102292
 1.9000e+000 102442 -3.0251e+000 -2.7059e+000 -2.6660e-001 29947 102162,102214,102188
 1.9000e+000 102419 -1.6716e+000 -2.4754e+000 -4.5517e-001 29947 102162,102240,102214
 1.9000e+000 102396 -8.5344e-002 -4.7603e-001  1.1468e+000 29947 102318,102370,102344
 1.9000e+000 102606 -7.2134e-001 -2.1689e+000  7.4417e-001 29947 102292,102266,102580
 1.9000e+000 102629 -8.5746e-001 -2.3454e+000  8.4028e-001 29947 102796,102292,102580
 1.9000e+000 102678 -7.8420e-001 -2.3981e+000  9.1215e-001 29947 102136,102580,102652
 1.9000e+000 102701 -1.0185e+000 -2.0107e+000  7.5169e-001 29947 102136,102652,102162
 1.9000e+000 102750 -1.2207e+000 -2.1357e+000  8.1203e-001 29947 102162,102652,102724
 1.9000e+000 102773 -1.2690e+000 -2.8709e+000  5.6554e-001 29947 102162,102724,102240
 1.9000e+000 102822 -7.7839e-001 -2.3384e+000  8.3154e-001 29947 102370,102318,102796
 1.9000e+000 102845 -8.1420e-001 -2.2765e+000  7.9436e-001 29947 102370,102796,102580
 1.9000e+000 103044 -1.2648e+001 -1.3311e+001  6.2007e-001 29450 102868,102920,102894
 1.9000e+000 103021 -1.1734e+001 -1.5722e+001  6.0904e-001 29450 102868,102972,102920
 1.9000e+000 102998 -1.3481e+001 -1.3865e+001 -1.0333e+000 29450 102920,102972,102946
 1.9000e+000 103292 -4.8457e+000 -9.3629e+000  2.1338e+000 29060 103315,103171,103119
 1.9000e+000 103269 -7.2802e+000 -9.2224e+000  3.0355e+000 29060 103315,103119,103067
 1.9000e+000 103246 -3.9889e+000 -7.8613e+000  1.0841e+000 29060 103119,103171,103145
 1.9000e+000 103223 -6.9629e+000 -3.5114e+000  3.4225e+000 29060 103067,103119,103093
 1.9000e+000 103341 -2.7746e+000 -9.3591e+000  1.0437e+000 29060 103197,103171,103315
 1.9000e+000 103364 -5.5956e+000 -8.3152e+000  1.1597e+000 29060 103197,103315,103067
 1.9000e+000 104002 -8.2310e+000 -1.0269e+001 -4.1636e+000 28599 104097,104025,103708
 1.9000e+000 103979 -4.7280e+000 -5.4056e+000 -7.4762e-001 28599 104169,104025,103656
 1.9000e+000 103956 -4.0067e+000 -1.3509e+001 -3.7155e+000 28599 104097,103708,103682
 1.9000e+000 103933 -3.0413e+000 -4.1813e+000 -2.0988e-001 28599 104169,103656,103630
 1.9000e+000 103910 -2.9546e+000  5.1238e+000  1.5365e+000 28599 103760,103812,103786
 1.9000e+000 103887 -3.3623e+000 -2.7239e+000  4.2602e+000 28599 103630,103838,103812
 1.9000e+000 103864 -3.5939e+000 -7.5136e+000  5.3441e-002 28599 103708,103760,103734
 1.9000e+000 104051 -8.5854e+000 -3.6894e+000 -1.6817e+000 28599 103760,103708,104025
 1.9000e+000 104074 -4.1899e+000 -3.6687e+000  1.0816e+000 28599 103760,104025,103812
 1.9000e+000 104123 -4.4530e+000 -4.6591e+000 -2.3535e+000 28599 103656,104025,104097
 1.9000e+000 104146 -1.1160e+000 -9.7438e+000 -1.9507e+000 28599 103656,104097,103682
 1.9000e+000 104195 -5.8337e+000 -3.7178e+000 -3.3745e-001 28599 103812,104025,104169
 1.9000e+000 104218 -5.1278e+000 -3.3066e+000 -1.6097e-001 28599 103812,104169,103630
 1.9000e+000 104596 -3.8906e+000 -8.5266e+000  4.6198e-001 28344 104619,104374,104322
 1.9000e+000 104573 -4.5912e+000 -9.8245e+000  1.8976e+000 28344 104619,104322,104478
 1.9000e+000 104550 -4.4130e+000 -7.0454e+000  6.3457e-001 28344 104322,104374,104348
 1.9000e+000 104527 -2.7218e+000 -5.3085e+000 -3.3801e+000 28344 104400,104452,104426
 1.9000e+000 104504 -3.5298e+000 -8.9534e+000 -1.6575e+000 28344 104374,104452,104400
 1.9000e+000 104645 -3.5625e+000 -6.4854e+000 -8.2169e-001 28344 104452,104374,104619
 1.9000e+000 104668 -4.6776e+000 -7.8421e+000  7.1862e-001 28344 104452,104619,104478
 1.9000e+000 104987 -9.8474e-001 -1.4883e+000  7.2765e-001 27947 104713,104843,104765
 1.9000e+000 104964 -1.3501e+000 -7.7809e-001 -7.4495e-002 27947 104713,104869,104843
 1.9000e+000 104941 -9.1901e-001 -2.7718e+000 -1.0624e-001 27947 104765,104843,104791
 1.9000e+000 104918 -4.8262e-001 -1.7623e+000 -4.3011e-002 27947 104791,104843,104817
 1.9000e+000 104895 -1.7401e+000 -3.9685e+000  1.3687e-002 27947 104713,104765,104739
 1.9000e+000 105367 -1.0539e+001 -1.1278e+001  7.2507e-001 27443 105390,105197,105119
 1.9000e+000 105344 -1.5368e+001 -1.2394e+001  2.4427e+000 27443 105390,105119,105093
 1.9000e+000 105321 -1.2653e+001 -1.1483e+001  8.4039e-001 27443 105119,105197,105145
 1.9000e+000 105298 -6.8114e+000 -1.2077e+001 -1.5800e+000 27443 105197,105249,105223
 1.9000e+000 105275 -9.9986e+000 -9.6366e+000  1.7227e+000 27443 105145,105197,105171
 1.9000e+000 105416 -7.3048e+000 -1.1251e+001 -2.2909e+000 27443 105249,105197,105390
 1.9000e+000 105439 -1.2552e+001 -1.1905e+001 -9.3636e-001 27443 105249,105390,105093
 1.9000e+000 105994 -5.2992e+000 -4.9506e+000 -8.9310e-001 27096 106161,106017,105700
 1.9000e+000 105971 -5.1397e+000 -4.2053e+000  1.2679e-002 27096 106305,106017,105648
 1.9000e+000 105948 -2.7764e+000 -3.2620e+000 -4.3264e-001 27096 106089,105804,105778
 1.9000e+000 105925 -5.4036e+000 -5.3604e+000 -9.3516e-001 27096 106161,105700,105674
 1.9000e+000 105902 -4.1417e+000 -4.4953e+000 -4.4260e-001 27096 106233,105726,105700
 1.9000e+000 105879 -9.9645e+000 -3.9869e+000  1.1212e+000 27096 106305,105648,105622
 1.9000e+000 105856 -3.1039e+000 -4.8855e+000  5.1361e-002 27096 105726,105778,105752
 1.9000e+000 106043 -4.4877e+000 -4.2946e+000 -3.0954e-001 27096 106233,105700,106017
 1.9000e+000 106066 -3.5888e+000 -4.3598e+000 -7.7980e-002 27096 106089,105778,106017
 1.9000e+000 106115 -3.6432e+000 -3.5677e+000  2.9949e-003 27096 105830,105804,106089
 1.9000e+000 106138 -4.1693e+000 -3.6354e+000  5.6724e-002 27096 106377,106089,106017
 1.9000e+000 106187 -5.4241e+000 -4.1416e+000 -7.2568e-002 27096 105648,106017,106161
 1.9000e+000 106210 -6.0012e+000 -5.5680e+000  8.0653e-002 27096 105648,106161,105674
 1.9000e+000 106259 -3.7742e+000 -4.2892e+000 -6.2536e-001 27096 105778,105726,106233
 1.9000e+000 106282 -4.1965e+000 -4.1747e+000 -4.7176e-001 27096 105778,106233,106017
 1.9000e+000 106331 -4.3779e+000 -3.2375e+000 -4.7612e-001 27096 106377,106017,106305
 1.9000e+000 106354 -4.3417e+000  1.2708e+000 -1.0480e+000 27096 105830,106305,105622
 1.9000e+000 106403 -3.2661e+000 -3.0024e+000 -2.2142e-001 27096 105830,106089,106377
 1.9000e+000 106426 -3.3780e+000 -2.7185e+000 -7.0180e-001 27096 105830,106377,106305
 1.9000e+000 106625 -1.2805e+001 -1.0631e+001  1.2446e+000 26684 106475,106553,106527
 1.9000e+000 106602 -1.3955e+001 -1.2734e+001  6.2272e-001 26684 106449,106553,106475
 1.9000e+000 106579 -1.6302e+001 -1.0762e+001 -9.3637e-001 26684 106475,106527,106501
 1.9000e+000 107084 -4.6917e+000 -7.1605e+000  5.2297e-001 26244 107107,106914,106862
 1.9000e+000 107061 -4.3108e+000 -6.8471e+000  2.4785e-001 26244 107107,106862,106836
 1.9000e+000 107038 -4.8465e+000 -5.9376e+000 -1.4683e-001 26244 106810,106966,106836
 1.9000e+000 107015 -3.8701e+000 -1.0511e+001  1.8063e+000 26244 106862,106914,106888
 1.9000e+000 106992 -5.4979e+000 -6.7877e+000 -7.8908e-002 26244 106914,106966,106940
 1.9000e+000 107133 -4.2464e+000 -7.2742e+000  8.9969e-002 26244 106966,106914,107107
 1.9000e+000 107156 -3.9042e+000 -6.7099e+000 -2.2070e-001 26244 106966,107107,106836
 1.9000e+000 107662 -1.4354e-001 -3.7072e+000  3.5106e-001 25904 107365,107495,107391
 1.9000e+000 107639 -7.2504e-001 -2.9456e+000  2.2173e-001 25904 107365,107521,107495
 1.9000e+000 107616 -1.2231e+000 -4.2856e+000  1.1578e-001 25904 107391,107469,107443
 1.9000e+000 107593 -3.8038e-001 -3.8368e+000 -9.4475e-002 25904 107391,107495,107469
 1.9000e+000 107570 -1.5198e+000 -4.9207e+000  1.9470e-001 25904 107391,107443,107417
 1.9000e+000 107547 -1.2219e-001 -2.4687e+000  1.4885e+000 25904 107339,107521,107365
 1.9000e+000 108247 -2.0047e+000 -4.1170e+000 -2.2900e-001 25450 108270,108002,107950
 1.9000e+000 108224 -1.4359e+000 -4.1724e+000  4.3814e-002 25450 108270,107950,108106
 1.9000e+000 108201 -1.2386e+000 -4.4212e+000  2.6351e-002 25450 108342,108028,108002
 1.9000e+000 108178 -2.4597e+000 -4.9453e+000 -5.2142e-002 25450 107950,108002,107976
 1.9000e+000 108155 -1.8057e+000 -3.4920e+000  2.4665e-001 25450 107924,108106,107950
 1.9000e+000 108132 -1.8903e+000 -4.2754e+000  3.3189e-001 25450 108054,108106,108080
 1.9000e+000 108296 -1.6590e+000 -4.0910e+000  5.1347e-002 25450 108342,108002,108270
 1.9000e+000 108319 -1.3172e+000 -3.9429e+000  1.0135e-001 25450 108054,108270,108106
 1.9000e+000 108368 -3.9994e-001 -4.1610e+000 -1.8018e-001 25450 108054,108028,108342
 1.9000e+000 108391 -1.0419e+000 -3.9427e+000 -2.2397e-001 25450 108054,108342,108270
 1.9000e+000 108818 -8.1449e+000 -4.2283e+000  8.1293e-001 24939 108521,108677,108651
 1.9000e+000 108795 -1.2236e+001 -6.4021e+000 -2.6813e+000 24939 108495,108677,108521
 1.9000e+000 108772 -5.7415e+000 -3.2035e+000  3.5081e-001 24939 108521,108651,108625
 1.9000e+000 108749 -9.9975e+000 -3.9361e+000  7.8852e-001 24939 108521,108625,108599
 1.9000e+000 108726 -6.7010e-001 -2.5307e+000 -1.3175e+000 24939 108547,108599,108573
 1.9000e+000 108703 -6.5195e+000 -1.6365e+000 -2.1427e+000 24939 108521,108599,108547
 1.9000e+000 109403  9.2877e-001 -3.9474e+000 -3.9470e-001 24741 109158,109210,109184
 1.9000e+000 109380 -2.8130e+000 -4.7689e+000 -3.4785e-001 24741 109158,109262,109210
 1.9000e+000 109357 -2.4071e+000 -4.7022e+000  1.8739e-002 24741 109080,109262,109158
 1.9000e+000 109334 -3.6224e+000 -4.1516e+000  5.9309e-001 24741 109080,109158,109132
 1.9000e+000 109311  1.5959e+000 -3.5770e+000 -1.2841e+000 24741 109210,109262,109236
 1.9000e+000 109288 -4.5307e+000 -2.9893e+000  1.0151e-001 24741 109080,109132,109106
 1.9000e+000 109781 -5.2423e-001 -4.2844e+000  2.7742e-001 24337 109533,109611,109559
 1.9000e+000 109758 -6.9128e-001 -3.6802e+000 -9.4864e-003 24337 109533,109637,109611
 1.9000e+000 109735 -4.9679e-001 -4.6909e+000 -2.7968e-001 24337 109559,109611,109585
 1.9000e+000 109712 -6.8610e-001 -3.7048e+000 -2.1515e-001 24337 109533,109663,109637
 1.9000e+000 109689 -2.8627e-001 -2.5321e+000  3.8809e-001 24337 109507,109663,109533
 1.9000e+000 110159 -7.3423e+000 -1.0541e+001 -6.2871e-002 23833 110182,109963,109911
 1.9000e+000 110136 -1.0279e+001 -1.3520e+001  2.0189e+000 23833 110182,109911,109885
 1.9000e+000 110113 -5.0224e+000 -8.9421e+000 -7.1304e-001 23833 109885,110041,109989
 1.9000e+000 110090 -8.0364e+000 -8.6724e+000  1.4707e+000 23833 109911,109963,109937
 1.9000e+000 110067 -5.9795e+000 -8.8241e+000 -2.2697e+000 23833 109989,110041,110015
 1.9000e+000 110208 -8.3194e+000 -9.0676e+000 -1.2355e+000 23833 109989,109963,110182
 1.9000e+000 110231 -8.5515e+000 -1.0277e+001  3.1383e-001 23833 109989,110182,109885
 1.9000e+000 110332 -1.4863e-001 -3.8952e+000  2.3192e-001 23429 110254,110306,110280
 1.9000e+000 110580 -4.5716e+000 -4.3635e+000 -3.6883e+000 22825 110603,110407,110381
 1.9000e+000 110557 -1.9999e+000 -3.9713e+000  3.8656e-001 22825 110603,110381,110485
 1.9000e+000 110534  7.4279e-001  3.4941e-001  6.3945e-001 22825 110433,110485,110459
 1.9000e+000 110511 -4.7103e+000  2.9485e+000 -2.3307e-003 22825 110355,110485,110381
 1.9000e+000 110629 -2.0939e+000  3.7286e-001 -2.4774e+000 22825 110433,110407,110603
 1.9000e+000 110652 -9.0999e-001 -1.1661e+000  1.2948e+000 22825 110433,110603,110485
 1.9000e+000 110902 -1.0592e+001 -2.9521e+000 -4.4798e-001 22428 110703,110755,110729
 1.9000e+000 110879 -7.4366e+000 -3.2259e+000 -1.0298e+000 22428 110703,110781,110755
 1.9000e+000 110856 -9.7754e+000 -4.4129e+000 -1.9921e+000 22428 110703,110807,110781
 1.9000e+000 110833 -1.6497e+001 -4.7841e+000 -5.5869e+000 22428 110677,110807,110703
 1.9000e+000 111284 -6.1967e-001 -3.7515e+000 -2.1077e+000 22138 111088,111140,111114
 1.9000e+000 111261 -6.2493e-001 -2.3593e+000 -2.9374e+000 22138 111062,111140,111088
 1.9000e+000 111238 -2.3615e+000 -4.9038e+000 -2.2260e-001 22138 111036,111140,111062
 1.9000e+000 111215 -7.3223e+000 -4.5987e+000 -1.3296e+000 22138 111010,111140,111036
 1.9000e+000 111192 -5.3797e+000 -4.8489e+000 -1.4133e-001 22138 111010,111166,111140
 1.9000e+000 111385 -1.5290e+001 -1.0374e+001  1.3893e+000 21826 111307,111359,111333
 1.9000e+000 111731 -1.6669e+001 -9.5738e+000  1.4419e+000 21264 111754,111538,111434
 1.9000e+000 111708 -1.4351e+001 -8.6997e+000  2.7966e-001 21264 111754,111434,111408
 1.9000e+000 111685 -1.7037e+001 -7.7617e+000  8.9196e-001 21264 111434,111538,111460
 1.9000e+000 111662 -2.1177e+001 -9.5455e+000  1.3939e+000 21264 111460,111538,111486
 1.9000e+000 111639 -1.2381e+001 -1.0058e+001  3.4228e+000 21264 111408,111590,111564
 1.9000e+000 111616 -2.3198e+001 -4.7818e+000  3.6115e+000 21264 111486,111538,111512
 1.9000e+000 111780 -1.7486e+001 -9.6945e+000  2.1477e+000 21264 111564,111538,111754
 1.9000e+000 111803 -1.6582e+001 -1.0792e+001  1.4410e+000 21264 111564,111754,111408
 1.9000e+000 111955 -5.4504e+000 -4.2673e+000  9.2677e-001 20860 111978,111906,111880
 1.9000e+000 111932 -5.6756e+000 -7.7027e+000 -2.8390e-001 20860 112110,111828,111906
 1.9000e+000 112004 -6.5844e+000 -5.9235e+000  3.8225e-001 20860 112110,111906,111978
 1.9000e+000 112136 -5.0991e+000 -6.0869e+000 -2.7342e-001 20860 111854,111828,112110
 1.9000e+000 112159 -5.7007e+000 -3.7454e+000  2.5673e-001 20860 111854,112110,111978
 1.9000e+000 112407 -8.0811e+000 -4.9814e+000 -1.3381e+000 20320 112182,112286,112208
 1.9000e+000 112384 -3.9361e+000 -5.3259e+000  4.8054e-001 20320 112182,112312,112286
 1.9000e+000 112361 -5.9860e+000 -5.2123e+000 -1.1955e+000 20320 112208,112286,112260
 1.9000e+000 112338 -1.2115e+001 -3.0415e+000 -3.9863e+000 20320 112208,112260,112234
 1.9000e+000 112655  2.4241e-001 -4.1730e+000  3.1752e+000 19916 112508,112560,112534
 1.9000e+000 112632 -3.6776e+000 -7.1919e+000  1.6756e+000 19916 112430,112560,112508
 1.9000e+000 112609 -4.7031e+000 -7.7049e+000  6.5296e-001 19916 112430,112508,112456
 1.9000e+000 112586 -6.2162e+000 -4.2555e+000  7.1824e-001 19916 112456,112508,112482
 1.9000e+000 112807 -6.8409e+000 -3.9017e+000  4.3090e-002 19626 112680,112732,112706
 1.9000e+000 112784 -5.0442e+000 -4.3770e+000 -9.2489e-001 19626 112680,112758,112732
 1.9000e+000 113008 -3.9588e+000 -2.8945e+000  2.1008e+000 19165 112858,112936,112884
 1.9000e+000 112985 -1.3962e+001 -4.5375e+000 -3.0288e+000 19165 112832,112936,112858
 1.9000e+000 112962 -9.2542e-001 -2.0564e+000  8.4249e-002 19165 112884,112936,112910
 1.9000e+000 113209 -3.8419e+000 -4.6431e+000  2.1707e-001 18596 113033,113085,113059
 1.9000e+000 113186 -1.7273e+000 -3.9466e+000 -3.7029e-001 18596 113033,113111,113085
 1.9000e+000 113163 -2.6110e+000 -4.7899e+000  1.2329e-001 18596 113033,113137,113111
 1.9000e+000 113481 -2.8659e+000 -4.9476e+000  2.8670e-001 18348 113256,113308,113282
 1.9000e+000 113458 -1.4627e+000 -4.7347e+000  1.5102e-001 18348 113256,113386,113308
 1.9000e+000 113435 -1.0177e+000 -4.0578e+000  4.1884e-001 18348 113308,113386,113360
 1.9000e+000 113412 -8.4103e-001 -4.7714e+000  4.9737e-002 18348 113308,113360,113334
 1.9000e+000 113753 -1.1111e+000 -4.6404e+000  2.4162e-002 17830 113554,113606,113580
 1.9000e+000 113730 -3.5756e-001 -4.4834e+000  2.4734e-002 17830 113528,113606,113554
 1.9000e+000 113707 -9.9959e-002 -3.8385e+000  2.7221e-001 17830 113528,113658,113606
 1.9000e+000 113684 -9.6083e-001 -4.7084e+000 -8.4929e-002 17830 113606,113658,113632
 1.9000e+000 113954 -5.4150e+000 -4.4450e+000  8.3039e-001 17326 113778,113830,113804
 1.9000e+000 113931  3.8962e-001 -4.4862e+000 -1.1393e+000 17326 113778,113882,113830
 1.9000e+000 113908  2.0822e+000 -8.0332e-001 -6.5612e-001 17326 113830,113882,113856
 1.9000e+000 114106  3.6184e-001 -4.6835e+000  1.7569e-001 16870 113979,114031,114005
 1.9000e+000 114083 -1.9308e-001 -4.2811e+000  3.2471e-001 16870 113979,114057,114031
 1.9000e+000 114461 -7.4307e+000 -2.8469e+000 -2.8945e+000 16266 114236,114288,114262
 1.9000e+000 114438 -7.0369e+000 -7.0519e+000 -4.6034e-001 16266 114236,114366,114288
 1.9000e+000 114415 -5.1507e+000 -5.4398e+000  5.9748e-001 16266 114288,114340,114314
 1.9000e+000 114392 -5.9077e+000 -5.8928e+000  6.7015e-002 16266 114288,114366,114340
 1.9000e+000 114562 -1.5836e+001 -6.2677e+000  0.0000e+000 15830 114484,114536,114510
 1.9000e+000 114663 -4.9118e+000 -2.6934e+000  3.2047e+000 15151 114585,114637,114611
 1.9000e+000 114886 -5.8382e-002 -3.0977e+000  1.8817e+000 417 114762,114814,114788
 1.9000e+000 114863 -2.0307e+000 -5.8089e+000  7.6739e-001 417 114710,114814,114762
 1.9000e+000 114840 -5.7669e+000 -2.7250e+000 -1.5146e+000 417 114710,114762,114736
 2.0000e+000 66549  5.3056e-001 -3.6783e+000 -4.2624e-001 66104 66350,66454,66428
 2.0000e+000 66526 -1.7292e-001 -3.9825e+000 -9.3507e-001 66104 66324,66454,66350
 2.0000e+000 66503  2.4829e-003 -4.1129e+000 -1.8526e-001 66104 66350,66428,66402
 2.0000e+000 66480  9.1473e-003 -4.3951e+000 -2.2905e-001 66104 66350,66402,66376
 2.0000e+000 66947  2.0494e+000 -2.5609e-001  6.1450e-001 65906 66699,66829,66803
 2.0000e+000 66924 -9.9793e-001 -4.3178e-001 -8.6755e-002 65906 66673,66829,66699
 2.0000e+000 66901  1.3229e+000 -1.8154e-001 -1.7765e-002 65906 66725,66777,66751
 2.0000e+000 66878 -3.0961e+000 -1.2212e+000 -7.2136e-001 65906 66725,66803,66777
 2.0000e+000 66855  1.2940e+000 -8.0248e+000 -1.5591e+000 65906 66699,66803,66725
 2.0000e+000 67146 -4.1149e-001  1.3426e-001 -1.5064e-001 65708 67022,67074,67048
 2.0000e+000 67123 -2.8930e-001 -8.8700e-001  2.1367e-001 65708 66970,67074,67022
 2.0000e+000 67100  1.6768e+000  3.9789e-002 -1.1646e-001 65708 66970,67022,66996
 2.0000e+000 67477 -3.0728e-001 -1.6877e+000 -2.1839e-001 65418 67278,67356,67330
 2.0000e+000 67454 -6.6347e-001  1.6375e-002 -1.0214e-001 65418 67278,67382,67356
 2.0000e+000 67431 -1.2630e+000 -1.7783e+000 -4.1940e-001 65418 67278,67330,67304
 2.0000e+000 67408 -1.7721e-001 -8.3182e-001 -6.5888e-001 65418 67252,67382,67278
 2.0000e+000 68111 -8.9619e-001 -5.0990e-001  1.8682e-001 65014 67791,67921,67869
 2.0000e+000 68088 -2.0350e+000 -9.1709e-001 -9.4762e-001 65014 67765,67921,67791
 2.0000e+000 68065  3.7461e-001 -6.3676e-001  5.7555e-001 65014 67869,67921,67895
 2.0000e+000 68042  3.2011e-001 -2.2764e+000 -6.3688e-001 65014 67765,67947,67921
 2.0000e+000 68019 -8.1767e-001 -9.3469e-002  1.8079e-001 65014 67791,67869,67817
 2.0000e+000 67996 -5.4801e-001 -1.5688e-001  3.0517e-001 65014 67817,67869,67843
 2.0000e+000 67973 -1.4758e-001 -1.1834e+000  6.9224e-001 65014 67739,67947,67765
 2.0000e+000 68359 -1.0336e+000 -1.1684e+001 -8.2110e-002 64816 68186,68238,68212
 2.0000e+000 68336 -2.4259e+000 -1.4815e+001  7.0206e-001 64816 68186,68264,68238
 2.0000e+000 68313 -1.9933e+000 -1.4530e+001  1.8086e+000 64816 68160,68264,68186
 2.0000e+000 68290 -4.4245e-001 -1.3277e+001  1.0313e+000 64816 68134,68264,68160
 2.0000e+000 68509  1.0450e+000 -2.5891e+000  6.9946e-002 64362 68864,68532,68434
 2.0000e+000 68486 -2.8411e+000 -2.3432e+000  8.4910e-001 64362 68532,68408,68382
 2.0000e+000 68558  1.2719e+000 -2.2447e+000  2.7335e-001 64362 68736,68532,68460
 2.0000e+000 68581 -2.5432e-001 -2.2994e+000 -2.3435e-001 64362 68604,68532,68382
 2.0000e+000 68630  2.4977e+000  3.3965e-001  2.0209e+000 64362 68460,68532,68604
 2.0000e+000 68762  2.7977e+000  2.8225e-001 -9.7612e-001 64362 68434,68532,68736
 2.0000e+000 68890 -1.7617e+000 -2.0449e+000 -1.0791e+000 64362 68408,68532,68864
 2.0000e+000 69168 -2.5001e+000 -9.4137e+000  5.4923e-001 64164 69018,69070,69044
 2.0000e+000 69145 -1.7686e+000 -1.2131e+001  4.6499e-001 64164 68992,69070,69018
 2.0000e+000 69122 -1.9975e+000 -1.2626e+001  3.6125e-001 64164 68992,69096,69070
 2.0000e+000 69367 -8.9909e-001 -6.5306e+000 -1.5664e+000 63966 69462,69390,69269
 2.0000e+000 69344 -2.9583e+000 -1.0704e+001  1.4303e-001 63966 69390,69243,69217
 2.0000e+000 69321 -3.6068e-001 -5.9173e+000 -1.4095e-001 63966 69191,69295,69217
 2.0000e+000 69416 -3.0737e-001 -7.6735e+000 -1.9111e+000 63966 69295,69269,69390
 2.0000e+000 69439 -1.7639e+000 -6.8525e+000  2.6664e-001 63966 69295,69390,69217
 2.0000e+000 69488 -4.7447e+000 -1.1311e+001 -3.3761e+000 63966 69243,69390,69462
 2.0000e+000 69900  2.8796e+000 -5.0288e+000 -1.1540e+000 63676 69701,69779,69727
 2.0000e+000 69877 -1.9898e-001 -6.8814e+000 -3.7379e-001 63676 69675,69779,69701
 2.0000e+000 69854 -7.2113e-001 -7.3544e+000 -1.7580e-001 63676 69675,69805,69779
 2.0000e+000 69831  4.7714e+000 -9.3370e+000 -2.5030e+000 63676 69727,69779,69753
 2.0000e+000 70050 -6.1650e-001 -1.0290e+001 -3.2293e-001 63472 70073,69949,69923
 2.0000e+000 70027  2.2839e+000 -1.0024e+001 -3.7595e-001 63472 70073,69923,70001
 2.0000e+000 70099 -2.5914e+000 -1.0309e+001 -4.3719e-001 63472 69975,69949,70073
 2.0000e+000 70122 -7.9090e-002 -1.0312e+001 -4.8908e-001 63472 69975,70073,70001
 2.0000e+000 70321  2.2803e+000 -1.0772e+001  1.2774e+000 63274 70145,70223,70171
 2.0000e+000 70298  8.7682e-001 -1.2133e+001  1.0618e-001 63274 70145,70249,70223
 2.0000e+000 70275  2.0275e+000 -1.0593e+001  9.6977e-001 63274 70171,70223,70197
 2.0000e+000 70593  6.1071e-001 -5.4905e+000  1.2152e-001 63076 70368,70472,70420
 2.0000e+000 70570  1.6131e+000 -8.9739e+000  7.5723e-002 63076 70368,70498,70472
 2.0000e+000 70547  2.6446e+000 -6.9037e+000 -2.7547e+000 63076 70420,70472,70446
 2.0000e+000 70524  2.5321e-001 -5.6903e+000  2.6596e-001 63076 70368,70420,70394
 2.0000e+000 70843 -2.8527e+000 -4.4625e+000  7.9854e-002 62736 70866,70644,70618
 2.0000e+000 70820 -9.7700e-001 -3.7324e+000 -8.3122e-001 62736 70866,70618,70748
 2.0000e+000 70797 -3.2375e+000 -5.9818e+000  1.3195e-001 62736 70644,70722,70696
 2.0000e+000 70774 -2.9470e+000 -5.4336e+000  1.4385e-002 62736 70644,70696,70670
 2.0000e+000 70892 -9.1931e-001 -4.6426e+000 -4.2420e-001 62736 70722,70644,70866
 2.0000e+000 70915  2.0011e-001 -4.2792e+000 -1.4195e+000 62736 70722,70866,70748
 2.0000e+000 71018  6.7978e+000 -7.8132e+000 -3.8631e+000 62516 70940,70992,70966
 2.0000e+000 71219  2.3845e-001 -1.1517e+001  5.0902e-001 62226 71069,71147,71095
 2.0000e+000 71196 -4.3936e-001 -1.2723e+001 -9.9961e-001 62226 71043,71147,71069
 2.0000e+000 71173 -2.5079e+000 -1.0803e+001  8.2186e-001 62226 71095,71147,71121
 2.0000e+000 71857 -1.0357e+000 -1.2216e+000 -2.2091e-001 61708 71511,71693,71667
 2.0000e+000 71834 -1.0068e+000 -9.7192e-001 -7.8833e-001 61708 71485,71693,71511
 2.0000e+000 71811 -1.9688e+000 -2.0203e+000 -1.6600e-001 61708 71880,71537,71511
 2.0000e+000 71788 -1.0902e+000 -1.4272e+000 -4.2497e-001 61708 71880,71511,71667
 2.0000e+000 71765 -7.2286e-002 -2.4091e+000 -2.8616e-001 61708 71537,71615,71589
 2.0000e+000 71742 -8.1158e-001 -1.7709e+000  5.7040e-001 61708 71615,71667,71641
 2.0000e+000 71719  6.2381e-001 -2.4439e+000  2.6234e-001 61708 71537,71589,71563
 2.0000e+000 71906 -1.1094e+000 -2.5930e+000  7.3648e-002 61708 71615,71537,71880
 2.0000e+000 71929 -4.9365e-001 -2.2030e+000 -9.4154e-002 61708 71615,71880,71667
 2.0000e+000 72226 -2.0825e+000 -8.9112e+000 -7.4017e-002 61204 72249,72056,72004
 2.0000e+000 72203 -6.8273e-001 -9.7498e+000  1.1198e+000 61204 72249,72004,71978
 2.0000e+000 72180 -1.1605e+000 -9.1653e+000  1.4858e+000 61204 71978,72108,72082
 2.0000e+000 72157 -1.7651e-001 -7.8636e+000  3.7072e-001 61204 72004,72056,72030
 2.0000e+000 72134 -1.5543e+000 -1.6624e+001  1.6866e+000 61204 71952,72108,71978
 2.0000e+000 72275 -4.1007e+000 -9.3828e+000  4.5841e-002 61204 72082,72056,72249
 2.0000e+000 72298 -2.1756e+000 -1.0041e+001  9.3386e-001 61204 72082,72249,71978
 2.0000e+000 72757 -1.9140e+000 -6.6552e+000  5.2886e-001 60800 72483,72613,72509
 2.0000e+000 72734 -1.9656e+000 -9.7382e+000  2.4765e-001 60800 72483,72639,72613
 2.0000e+000 72711 -1.9334e-001 -8.0991e+000  1.0054e+000 60800 72561,72613,72587
 2.0000e+000 72688 -3.2865e+000 -7.5316e+000  9.6343e-001 60800 72509,72613,72561
 2.0000e+000 72665 -5.1860e+000 -1.1251e+001  2.9683e+000 60800 72509,72561,72535
 2.0000e+000 72907  5.0953e-002  8.5615e-002  1.7299e-002 60552 72780,72832,72806
 2.0000e+000 72884 -5.9115e-001 -1.8037e+000  2.2568e-001 60552 72780,72858,72832
 2.0000e+000 73464 -5.4004e-001 -4.5825e+000 -3.6027e-001 60240 73487,73222,73196
 2.0000e+000 73441 -1.2501e+000 -6.1003e+000 -1.7149e-001 60240 73559,73487,73196
 2.0000e+000 73418 -1.3363e+000 -6.5096e+000 -6.9173e-002 60240 73559,73196,73170
 2.0000e+000 73395 -1.2834e+000 -4.8086e+000  8.4253e-001 60240 73222,73274,73248
 2.0000e+000 73372  1.0367e+000 -2.8416e+000  2.1735e+000 60240 73118,73300,73274
 2.0000e+000 73349 -2.3830e+000 -9.2790e+000  8.7660e-001 60240 73092,73300,73118
 2.0000e+000 73326 -3.6040e+000 -8.0760e+000  3.3315e+000 60240 73118,73170,73144
 2.0000e+000 73513 -7.3746e-001 -5.1001e+000  7.1079e-001 60240 73274,73222,73487
 2.0000e+000 73536 -1.1330e+000 -5.8531e+000  5.2304e-001 60240 73274,73487,73118
 2.0000e+000 73585 -1.6887e+000 -5.5336e+000  9.0001e-002 60240 73118,73487,73559
 2.0000e+000 73608 -1.8247e+000 -6.0096e+000  1.9512e-001 60240 73118,73559,73170
 2.0000e+000 73758 -1.0421e+000 -9.7196e-001 -8.1343e-001 59871 73657,73709,73683
 2.0000e+000 73735  1.3767e-001 -5.3727e-001 -4.2376e-001 59871 73631,73709,73657
 2.0000e+000 74187 -1.5645e+000 -1.4052e+001  1.4129e-001 59474 74210,73890,73864
 2.0000e+000 74164 -2.5198e+000 -1.6648e+001  8.1953e-001 59474 74210,73864,74046
 2.0000e+000 74141 -7.9787e-001 -1.0224e+001 -2.2651e-001 59474 73890,73942,73916
 2.0000e+000 74118 -1.2007e+000 -1.1275e+001  1.3588e-002 59474 73890,73994,73942
 2.0000e+000 74095 -2.9486e+000 -1.5597e+001 -7.3381e-001 59474 73994,74046,74020
 2.0000e+000 74072 -2.2630e+000 -8.4188e+000 -9.4637e-001 59474 73942,73994,73968
 2.0000e+000 74236 -2.8769e+000 -1.2030e+001 -1.4164e-001 59474 73994,73890,74210
 2.0000e+000 74259 -3.0908e+000 -1.3672e+001  4.5421e-001 59474 73994,74210,74046
 2.0000e+000 74716 -3.7609e+000 -8.6241e+000 -1.6061e+000 58770 74468,74598,74494
 2.0000e+000 74693 -4.1029e+000 -3.9661e+000  1.4995e+000 58770 74442,74598,74468
 2.0000e+000 74670 -5.4206e-001 -8.4608e+000 -5.8759e+000 58770 74494,74572,74520
 2.0000e+000 74647 -1.2650e+000 -2.9434e+000 -7.6082e-001 58770 74494,74598,74572
 2.0000e+000 74624  3.9373e+000 -5.3611e+000 -2.0929e+000 58770 74520,74572,74546
 2.0000e+000 75222 -2.2925e+000 -9.0841e+000  3.0700e-001 58266 74951,75081,75029
 2.0000e+000 75199 -1.0660e+000 -1.0202e+001  8.1357e-001 58266 74925,75081,74951
 2.0000e+000 75176 -4.6100e+000 -1.1099e+001  1.8828e+000 58266 75029,75081,75055
 2.0000e+000 75153 -2.7555e-001 -8.1104e+000  9.4932e-002 58266 74951,75003,74977
 2.0000e+000 75130 -1.8722e+000 -8.9372e+000  5.1936e-001 58266 74951,75029,75003
 2.0000e+000 75107 -2.0360e+000 -1.1452e+001 -1.5614e-001 58266 74899,75081,74925
 2.0000e+000 75421 -2.0036e+000 -1.1350e+001  1.3317e-001 57826 75444,75297,75245
 2.0000e+000 75398 -2.8617e+000 -1.3690e+001  1.0037e+000 57826 75444,75245,75349
 2.0000e+000 75375 -3.7652e+000 -8.7661e+000  4.3446e-001 57826 75516,75297,75271
 2.0000e+000 75470 -2.2636e+000 -9.9861e+000 -7.4765e-001 57826 75323,75297,75444
 2.0000e+000 75493 -2.4245e+000 -1.1035e+001  1.8351e-001 57826 75323,75444,75349
 2.0000e+000 75542 -4.2249e-001 -8.9545e+000 -7.3578e-001 57826 75245,75297,75516
 2.0000e+000 76257 -2.6114e+000 -2.8861e+000  9.4947e-001 57422 76280,76093,76067
 2.0000e+000 76234 -2.7224e+000 -2.8076e+000  6.9605e-001 57422 75885,76093,75911
 2.0000e+000 76211 -2.7967e+000 -4.1970e+000 -8.0594e-001 57422 76424,76280,76067
 2.0000e+000 76188 -3.3479e+000 -5.2386e+000 -7.0174e-001 57422 76352,75937,75911
 2.0000e+000 76165 -2.2942e+000 -4.9815e+000 -4.8490e-001 57422 76424,76067,76015
 2.0000e+000 76142 -3.0282e+000 -5.3483e+000  6.9165e-001 57422 76015,76067,76041
 2.0000e+000 76119 -5.1156e+000 -5.9098e+000 -4.8843e-001 57422 75963,76015,75989
 2.0000e+000 76306 -3.3530e+000 -4.3470e+000  1.0788e-001 57422 75911,76093,76280
 2.0000e+000 76329 -4.0202e+000 -3.7373e+000 -3.3791e-001 57422 76352,75911,76280
 2.0000e+000 76378 -4.4056e+000 -7.4505e+000 -2.0461e+000 57422 75963,75937,76352
 2.0000e+000 76401 -4.7240e+000 -5.9736e+000 -1.4575e+000 57422 75963,76352,76280
 2.0000e+000 76450 -3.8935e+000 -4.7212e+000 -4.6028e-001 57422 75963,76280,76424
 2.0000e+000 76473 -2.8222e+000 -5.0048e+000 -3.5780e-001 57422 75963,76424,76015
 2.0000e+000 76949 -2.6222e+000 -2.5434e+000 -1.7880e-001 56904 76972,76707,76681
 2.0000e+000 76926 -2.7406e+000 -2.3908e+000 -8.6554e-001 56904 77044,76972,76681
 2.0000e+000 76903 -1.8866e+000 -2.3434e+000 -1.2954e+000 56904 77044,76681,76629
 2.0000e+000 76880 -1.9506e+000 -3.2343e+000  4.0844e-001 56904 76707,76785,76759
 2.0000e+000 76857 -7.6102e-001 -3.9612e+000 -1.5309e+000 56904 76577,76785,76603
 2.0000e+000 76834 -9.2984e-001 -1.0834e+000  7.7057e-001 56904 76707,76759,76733
 2.0000e+000 76811 -1.5578e+000 -8.1120e-001 -3.6499e+000 56904 76629,76681,76655
 2.0000e+000 76998 -1.1858e+000 -2.0523e+000  6.6437e-002 56904 76785,76707,76972
 2.0000e+000 77021 -2.0912e+000 -3.3888e+000 -3.7824e-001 56904 76785,76972,76603
 2.0000e+000 77070 -1.4692e+000 -2.3064e+000 -8.5395e-001 56904 76603,76972,77044
 2.0000e+000 77093 -1.0524e+000 -2.6237e+000 -1.2521e+000 56904 76603,77044,76629
 2.0000e+000 77471 -2.0663e+000 -5.1759e-001 -1.3083e+000 56542 77566,77494,77275
 2.0000e+000 77448 -1.4912e+000 -6.5814e-002 -8.2736e-001 56542 77494,77223,77353
 2.0000e+000 77425 -1.8749e+000 -5.4287e-001 -1.8644e+000 56542 77566,77275,77249
 2.0000e+000 77402  1.4037e-001  6.4313e-001 -9.1949e-001 56542 77197,77353,77223
 2.0000e+000 77379 -1.3381e+000 -2.3747e+000 -3.5628e+000 56542 77275,77327,77301
 2.0000e+000 77520 -1.7290e+000  4.1831e-001 -1.2099e+000 56542 77327,77275,77494
 2.0000e+000 77543 -2.4422e+000 -2.2080e-001 -8.9878e-001 56542 77327,77494,77353
 2.0000e+000 77592 -9.3389e-001 -9.4661e-002 -1.0168e+000 56542 77223,77494,77566
 2.0000e+000 77615 -1.2227e+000 -6.1383e-001 -1.6555e+000 56542 77223,77566,77249
 2.0000e+000 77814  6.6555e-001  1.8938e-001  1.6821e-001 56038 77837,77690,77664
 2.0000e+000 77791  5.8977e-001  2.4428e-001 -2.8828e-002 56038 77837,77664,77742
 2.0000e+000 77768  4.9148e-001 -7.0643e-003 -7.8341e-002 56038 77638,77742,77664
 2.0000e+000 77863  6.1118e-001  2.7208e-002  1.2895e-001 56038 77716,77690,77837
 2.0000e+000 77886  5.3617e-001  9.8268e-002 -6.9102e-002 56038 77716,77837,77742
 2.0000e+000 78345 -3.3640e+000 -1.2946e+001  1.4423e+000 55534 78071,78123,78097
 2.0000e+000 78322 -3.0627e+000 -1.0498e+001  6.7290e-001 55534 78071,78201,78123
 2.0000e+000 78299 -2.8025e+000 -1.4211e+001  4.3154e-001 55534 78071,78227,78201
 2.0000e+000 78276 -8.7071e-001 -9.1021e+000  2.4826e+000 55534 78123,78175,78149
 2.0000e+000 78253 -2.7881e+000 -8.7896e+000  1.7111e+000 55534 78123,78201,78175
 2.0000e+000 78802 -9.7922e-001 -2.3170e+000 -3.8166e-001 55030 78825,78632,78606
 2.0000e+000 78779 -1.5399e+000 -5.3893e+000 -1.5988e-001 55030 78897,78825,78606
 2.0000e+000 78756 -2.4548e+000 -8.2139e+000  1.4317e+000 55030 78897,78606,78580
 2.0000e+000 78733 -1.2335e+000  1.2694e+000  1.1873e+000 55030 78554,78684,78658
 2.0000e+000 78710 -3.0261e+000 -3.3594e+000 -9.4505e-001 55030 78528,78684,78554
 2.0000e+000 78851 -6.4741e-001  2.3443e+000  1.3335e+000 55030 78658,78632,78825
 2.0000e+000 78874 -2.0936e+000 -2.3643e+000  4.0415e-001 55030 78658,78825,78554
 2.0000e+000 78923 -1.2596e+000 -2.3107e+000 -1.0069e+000 55030 78554,78825,78897
 2.0000e+000 78946 -6.2460e-001 -3.8893e+000  1.0016e-001 55030 78554,78897,78580
 2.0000e+000 79403 -6.2204e-001 -4.6205e+000 -4.9451e-001 54426 79426,79233,79155
 2.0000e+000 79380  2.3075e+000 -4.1308e+000 -1.0597e+000 54426 79426,79155,79129
 2.0000e+000 79357  4.1672e-003 -6.2316e+000  2.0762e+000 54426 79233,79285,79259
 2.0000e+000 79334 -3.1967e+000 -6.4261e+000 -1.1677e+000 54426 79181,79233,79207
 2.0000e+000 79311 -2.4781e+000 -5.5650e+000 -4.4357e-003 54426 79155,79233,79181
 2.0000e+000 79452 -1.2616e+000 -4.3298e+000  7.6300e-001 54426 79285,79233,79426
 2.0000e+000 79475  3.8652e-001 -4.8817e+000  2.8105e-001 54426 79285,79426,79129
 2.0000e+000 79932 -3.0093e+000 -7.0295e+000  4.2533e-001 53915 79658,79762,79684
 2.0000e+000 79909 -6.6818e+000 -1.0199e+001  1.9167e+000 53915 79658,79814,79762
 2.0000e+000 79886 -5.0419e+000 -1.0327e+001  4.2615e+000 53915 79762,79814,79788
 2.0000e+000 79863 -6.1406e+000 -8.4237e+000  1.0734e+000 53915 79710,79762,79736
 2.0000e+000 79840 -5.0044e+000 -8.2098e+000  9.7616e-001 53915 79684,79762,79710
 2.0000e+000 80033 -2.5021e+000 -1.2018e+001 -1.8901e+000 53667 79955,80007,79981
 2.0000e+000 80401 -4.9260e+000 -1.5265e+001  1.3414e+000 53263 80104,80260,80234
 2.0000e+000 80378 -6.0034e+000 -1.6349e+001  8.8022e-001 53263 80078,80260,80104
 2.0000e+000 80355 -4.2208e+000 -1.2305e+001 -5.5637e-001 53263 80104,80234,80130
 2.0000e+000 80332 -3.8336e+000 -1.0318e+001 -8.7310e-001 53263 80130,80208,80182
 2.0000e+000 80309 -7.2017e+000 -1.2839e+001  3.3885e-001 53263 80130,80234,80208
 2.0000e+000 80286 -3.8590e+000 -6.9356e+000  1.2475e+000 53263 80130,80182,80156
 2.0000e+000 80911 -3.3743e+000 -9.8631e+000  1.3172e+000 52965 80640,80770,80744
 2.0000e+000 80888 -5.0767e+000 -1.5111e+001  1.1313e+000 52965 80614,80770,80640
 2.0000e+000 80865 -3.5450e+000 -1.0741e+001  7.2659e-001 52965 80640,80744,80666
 2.0000e+000 80842 -5.6553e+000 -1.3737e+001  3.0042e+000 52965 80588,80770,80614
 2.0000e+000 80819 -4.7778e+000 -7.3576e+000  2.2658e+000 52965 80666,80718,80692
 2.0000e+000 80796 -5.0611e+000 -7.2696e+000 -1.1416e+000 52965 80666,80744,80718
 2.0000e+000 81262 -1.4073e+001 -1.6981e+000  1.2520e-001 52561 81037,81141,81063
 2.0000e+000 81239 -1.1677e+001 -4.3127e+000 -1.5767e+000 52561 81037,81167,81141
 2.0000e+000 81216 -2.0632e+001 -1.4769e+000 -4.7348e-001 52561 81063,81115,81089
 2.0000e+000 81193 -2.0252e+001 -2.2709e+000 -1.4874e+000 52561 81063,81141,81115
 2.0000e+000 81719 -5.4671e-001  2.7083e-001 -4.4758e-001 51900 81445,81523,81471
 2.0000e+000 81696 -1.7908e+000 -1.7588e+000  3.0560e-001 51900 81445,81575,81523
 2.0000e+000 81673 -6.4568e-001  3.4535e-001 -6.0652e-001 51900 81445,81601,81575
 2.0000e+000 81650 -1.6931e+000 -9.9522e-001  5.7182e-001 51900 81523,81575,81549
 2.0000e+000 81627  4.6271e-001  2.5129e-002 -3.7956e-002 51900 81471,81523,81497
 2.0000e+000 82323 -1.8831e+000 -3.5285e+000  1.1345e-001 51317 82418,82346,82032
 2.0000e+000 82300 -1.9249e+000 -3.4246e+000 -1.2290e+000 51317 82490,82346,81954
 2.0000e+000 82277 -1.4056e+000 -2.5885e+000  3.3223e-001 51317 82418,82032,82006
 2.0000e+000 82254  5.5563e-001 -2.0617e+000 -1.8709e+000 51317 82490,81954,81928
 2.0000e+000 82231 -1.0068e+000 -7.3529e+000  3.0520e+000 51317 82058,82110,82084
 2.0000e+000 82208  1.1243e+000 -1.8012e+000 -9.9801e-001 51317 81928,82136,82110
 2.0000e+000 82185 -3.0570e+000 -2.9280e+000 -1.4953e+000 51317 81954,82006,81980
 2.0000e+000 82162  4.3579e-001 -2.0981e+000 -9.3725e-001 51317 81902,82136,81928
 2.0000e+000 82372 -1.7789e+000 -6.2130e+000 -7.8309e-002 51317 82058,82032,82346
 2.0000e+000 82395 -2.5825e+000 -4.2067e+000 -1.6780e-002 51317 82058,82346,82110
 2.0000e+000 82444 -2.0514e+000 -4.1402e+000 -1.1566e+000 51317 81954,82346,82418
 2.0000e+000 82467 -1.6205e+000 -3.2543e+000 -9.5153e-001 51317 81954,82418,82006
 2.0000e+000 82516 -1.1317e+000 -3.6803e+000  1.0953e-001 51317 82110,82346,82490
 2.0000e+000 82539 -8.5408e-001 -3.4038e+000 -3.0434e-001 51317 82110,82490,81928
 2.0000e+000 83015 -3.9244e+000 -9.4517e+000 -5.0696e-001 50813 82669,82747,82695
 2.0000e+000 82992 -3.2546e+000 -6.2555e+000  9.9474e-001 50813 83038,82669,82851
 2.0000e+000 82969 -3.4215e+000 -6.3156e+000  9.3041e-001 50813 83038,82851,82799
 2.0000e+000 82946 -7.9425e-001 -5.6439e+000  1.8207e-001 50813 82747,82799,82773
 2.0000e+000 82923 -1.8203e+000 -5.2124e+000  1.6189e+000 50813 82643,82851,82669
 2.0000e+000 82900 -3.6228e+000 -5.7279e+000  1.4114e+000 50813 82799,82851,82825
 2.0000e+000 82877 -3.1813e+000 -5.7529e+000  8.0743e-001 50813 82695,82747,82721
 2.0000e+000 83064 -2.9785e+000 -6.2924e+000  1.0603e+000 50813 82747,82669,83038
 2.0000e+000 83087 -3.2100e+000 -6.3910e+000  9.9744e-001 50813 82747,83038,82799
 2.0000e+000 83286 -5.2665e-001 -7.6648e+000 -1.3431e+000 50352 83309,83162,83136
 2.0000e+000 83263 -2.4132e+000 -4.1340e+000 -3.3654e-001 50352 83511,83309,83136
 2.0000e+000 83240 -2.3936e+000 -3.8240e+000 -4.2812e-001 50352 83511,83136,83381
 2.0000e+000 83335  2.6091e+000 -4.2792e+000 -3.1553e+000 50352 83188,83162,83309
 2.0000e+000 83358 -1.8687e+000 -4.4299e+000 -1.5785e+000 50352 83188,83309,83214
 2.0000e+000 83407 -4.2575e+000 -4.0768e+000 -1.4073e+000 50352 83110,83214,83381
 2.0000e+000 83537 -2.2668e+000 -3.7440e+000 -5.6816e-001 50352 83214,83309,83511
 2.0000e+000 83560 -2.3020e+000 -3.6355e+000 -6.8792e-001 50352 83214,83511,83381
 2.0000e+000 83889 -4.7044e+000 -9.2931e+000 -1.1160e+000 49548 83716,83794,83742
 2.0000e+000 83866 -2.8966e+000 -9.7940e+000  8.9029e-001 49548 83690,83794,83716
 2.0000e+000 83843 -3.3265e+000 -1.2749e+001 -3.6382e-001 49548 83664,83794,83690
 2.0000e+000 83820 -4.4354e+000 -1.4628e+001  1.2378e+000 49548 83742,83794,83768
 2.0000e+000 84137 -1.2472e+000 -5.5293e-001 -2.3595e+000 49208 84160,84016,83938
 2.0000e+000 84114 -1.3489e+000 -7.7182e-001 -2.0795e+000 49208 84160,83938,83912
 2.0000e+000 84091 -4.0158e+000  1.9789e-001 -1.3972e+000 49208 83938,84016,83964
 2.0000e+000 84068 -1.6346e+000 -4.6150e-001  6.3321e-001 49208 83964,84016,83990
 2.0000e+000 84186 -1.5162e+000 -7.2501e-001 -2.2629e+000 49208 84042,84016,84160
 2.0000e+000 84209 -1.4743e+000 -8.3493e-001 -2.0043e+000 49208 84042,84160,83912
 2.0000e+000 84796 -3.7066e+000 -5.4370e+000 -1.7300e+000 48861 84499,84629,84551
 2.0000e+000 84773 -2.2792e-001 -4.1097e+000 -8.2547e-001 48861 84499,84655,84629
 2.0000e+000 84750 -2.9044e+000 -2.5462e+000  3.1211e-001 48861 84551,84629,84577
 2.0000e+000 84727 -2.3261e+000 -2.0094e+000  8.5985e-002 48861 84577,84629,84603
 2.0000e+000 84704 -5.1355e+000 -4.1782e+000 -3.1866e+000 48861 84499,84551,84525
 2.0000e+000 84681 -7.1473e-001 -5.2416e+000 -8.3426e-001 48861 84473,84655,84499
 2.0000e+000 85351 -6.2782e+000 -1.0559e+001  2.0835e+000 48457 85374,85031,85005
 2.0000e+000 85328 -5.1445e+000 -7.8365e+000  1.6528e+000 48457 85374,85005,85161
 2.0000e+000 85305 -6.3266e+000 -9.2081e+000  1.6730e-001 48457 85446,85057,85031
 2.0000e+000 85282 -2.6673e+000 -6.3096e+000  8.6464e-001 48457 85005,85187,85161
 2.0000e+000 85259 -2.2592e+000 -5.2783e+000  1.9297e+000 48457 85083,85161,85109
 2.0000e+000 85236 -4.5113e+000 -5.8488e+000  1.9686e+000 48457 84979,85187,85005
 2.0000e+000 85213 -2.5061e+000 -6.9007e+000  1.3952e+000 48457 85109,85161,85135
 2.0000e+000 85400 -5.8143e+000 -9.9094e+000  4.2799e-001 48457 85446,85031,85374
 2.0000e+000 85423 -4.4920e+000 -8.8562e+000  7.4269e-001 48457 85083,85374,85161
 2.0000e+000 85472 -5.7053e+000 -8.6004e+000  5.3426e-001 48457 85083,85057,85446
 2.0000e+000 85495 -4.9352e+000 -8.9155e+000  8.9578e-001 48457 85083,85446,85374
 2.0000e+000 86080 -3.5572e+000 -5.5863e+000 -2.2746e-001 48053 86319,86103,85783
 2.0000e+000 86057 -3.2943e+000 -6.4215e+000 -1.2173e-001 48053 86103,85757,85939
 2.0000e+000 86034 -1.4457e+000 -4.7773e+000  8.4116e-001 48053 86247,86175,85887
 2.0000e+000 86011 -1.2126e+000 -4.5140e+000  1.0880e+000 48053 86247,85887,85835
 2.0000e+000 85988  7.4530e-001 -2.5886e+000  1.1748e+000 48053 85887,85939,85913
 2.0000e+000 85965 -1.9989e+000 -2.6620e+000  1.8833e+000 48053 85835,85887,85861
 2.0000e+000 86129 -3.8071e+000 -7.3488e+000  5.7556e-001 48053 85809,85783,86103
 2.0000e+000 86152 -2.6462e+000 -6.0742e+000  4.4630e-002 48053 86175,85809,86103
 2.0000e+000 86201 -2.4648e+000 -3.8644e+000  8.8348e-001 48053 85939,85887,86175
 2.0000e+000 86224 -2.7840e+000 -4.7162e+000  1.1051e+000 48053 85939,86175,86103
 2.0000e+000 86273 -2.3056e+000 -4.5501e+000  4.4375e-001 48053 85809,86175,86247
 2.0000e+000 86296 -1.7794e+000 -4.0639e+000  7.2200e-001 48053 85809,86247,85835
 2.0000e+000 86345 -4.9261e+000 -6.0174e+000 -3.1489e-001 48053 85757,86103,86319
 2.0000e+000 86851  2.3732e+000 -3.5511e+000  1.1539e+000 47541 86874,86580,86554
 2.0000e+000 86828 -2.9287e+000 -5.7985e+000  1.0468e+000 47541 86946,86874,86554
 2.0000e+000 86805 -4.9626e+000 -6.1315e+000  9.5725e-001 47541 86946,86554,86528
 2.0000e+000 86782  3.8672e+000 -1.8589e+000  6.4757e-001 47541 86580,86658,86606
 2.0000e+000 86759 -4.3643e+000 -9.4511e+000 -5.3793e-001 47541 86528,86710,86684
 2.0000e+000 86736 -1.4631e-001 -1.6549e-001  1.4594e-001 47541 86606,86658,86632
 2.0000e+000 86900 -7.2159e-001 -5.1087e+000 -7.9329e-001 47541 86658,86580,86874
 2.0000e+000 86923  2.0999e+000 -4.1865e+000 -7.2038e-001 47541 86658,86874,86684
 2.0000e+000 86972 -4.5067e-001 -6.1277e+000 -1.6011e+000 47541 86684,86874,86946
 2.0000e+000 86995 -3.5215e+000 -7.3151e+000 -1.4047e+000 47541 86684,86946,86528
 2.0000e+000 87324 -1.1129e+000 -8.7651e+000  6.1321e-001 47044 87151,87203,87177
 2.0000e+000 87301 -6.0668e+000 -1.0701e+001  3.6322e-001 47044 87125,87203,87151
 2.0000e+000 87278 -5.9201e+000 -1.2257e+001  1.2719e+000 47044 87099,87203,87125
 2.0000e+000 87255 -5.8405e+000 -1.0029e+001 -2.1808e+000 47044 87099,87229,87203
 2.0000e+000 87572 -5.2444e+000 -9.6765e+000  7.4527e-001 46697 87595,87425,87373
 2.0000e+000 87549 -4.5820e+000 -1.1043e+001  1.4621e+000 46697 87595,87373,87477
 2.0000e+000 87526 -8.4304e+000 -1.2956e+001  1.5652e-001 46697 87347,87477,87373
 2.0000e+000 87503 -5.9564e+000 -7.7103e+000  1.7740e+000 46697 87373,87425,87399
 2.0000e+000 87621 -4.8997e+000 -7.0385e+000  5.4988e-001 46697 87451,87425,87595
 2.0000e+000 87644 -5.4273e+000 -9.6430e+000  1.6357e+000 46697 87451,87595,87477
 2.0000e+000 87794 -5.5505e+000 -3.9191e+000 -1.5578e-001 46235 87693,87745,87719
 2.0000e+000 87771 -8.9288e+000 -1.4985e+001 -2.3539e-001 46235 87667,87745,87693
 2.0000e+000 88304 -3.1282e+000 -9.9198e+000  1.1191e+000 45731 88085,88163,88137
 2.0000e+000 88281 -5.1631e+000 -1.0848e+001 -1.3001e-001 45731 88007,88163,88085
 2.0000e+000 88258 -7.4723e+000 -1.1888e+001 -3.4292e-001 45731 87981,88163,88007
 2.0000e+000 88235 -9.7886e+000 -1.1622e+001  1.5210e+000 45731 88007,88085,88059
 2.0000e+000 88212 -3.1041e+000 -9.9389e+000  8.4321e-001 45731 88085,88137,88111
 2.0000e+000 88189 -6.8013e+000 -9.8801e+000  4.7448e+000 45731 88007,88059,88033
 2.0000e+000 88682 -6.4317e+000 -9.1973e+000 -4.3679e-001 45312 88434,88512,88486
 2.0000e+000 88659 -8.2790e+000 -1.1436e+001  1.3315e+000 45312 88434,88538,88512
 2.0000e+000 88636 -5.3772e+000 -7.9508e+000  7.4590e-002 45312 88434,88564,88538
 2.0000e+000 88613 -5.7211e+000 -1.0721e+001 -7.2964e-001 45312 88434,88486,88460
 2.0000e+000 88590 -6.9367e+000 -3.5073e+000  4.2624e+000 45312 88408,88564,88434
 2.0000e+000 88930  2.6276e+000 -5.4394e-001 -1.5130e+000 44808 88953,88731,88705
 2.0000e+000 88907  1.7062e-001 -1.0412e+000  1.6619e+000 44808 88953,88705,88835
 2.0000e+000 88884 -4.9441e-001 -6.2121e+000  1.1971e+000 44808 89025,88783,88757
 2.0000e+000 88861 -2.1735e+000 -6.3915e+000 -3.6182e-001 44808 88783,88835,88809
 2.0000e+000 88979 -1.9313e+000 -3.0500e+000 -2.1835e-001 44808 88757,88731,88953
 2.0000e+000 89002 -4.8873e-001 -4.8941e+000  1.7585e+000 44808 89025,88757,88953
 2.0000e+000 89051 -1.8953e+000 -4.3087e+000  7.9289e-001 44808 88835,88783,89025
 2.0000e+000 89074 -1.2227e+000 -2.0076e+000  1.1408e+000 44808 88835,89025,88953
 2.0000e+000 89224 -2.9505e+001 -7.1504e+000  2.0817e+000 44404 89123,89175,89149
 2.0000e+000 89201 -2.8146e+001 -7.5898e-001 -3.5653e-001 44404 89097,89175,89123
 2.0000e+000 89783 -2.8224e+000 -3.4674e+000 -2.5996e-001 43850 89806,89541,89515
 2.0000e+000 89760 -2.6500e+000 -3.4384e+000  2.3483e-001 43850 89806,89515,89463
 2.0000e+000 89737 -3.6458e+000 -4.3401e+000 -8.1665e-001 43850 89950,89878,89593
 2.0000e+000 89714 -3.7991e+000 -4.3305e+000 -6.1403e-001 43850 89950,89593,89567
 2.0000e+000 89691 -3.0783e+000 -2.6801e+000 -9.5648e-001 43850 89411,89619,89463
 2.0000e+000 89668 -5.6203e-001 -4.4907e+000  4.6206e-002 43850 89463,89515,89489
 2.0000e+000 89645 -4.2055e+000 -3.2787e+000 -4.0574e-001 43850 89411,89463,89437
 2.0000e+000 89832 -3.5369e+000 -3.7242e+000 -3.4191e-001 43850 89878,89541,89806
 2.0000e+000 89855 -2.3809e+000 -3.7068e+000 -2.6265e-001 43850 89619,89806,89463
 2.0000e+000 89904 -3.2998e+000 -4.3073e+000 -3.4356e-001 43850 89619,89593,89878
 2.0000e+000 89927 -2.7423e+000 -4.5278e+000 -1.5140e-001 43850 89619,89878,89806
 2.0000e+000 89976 -4.2765e+000 -4.5468e+000 -2.9743e-002 43850 89541,89878,89950
 2.0000e+000 89999 -4.8643e+000 -5.1889e+000  2.8371e-001 43850 89541,89950,89567
 2.0000e+000 90247  4.5966e-001  1.1802e+000 -7.0878e-001 43488 90022,90074,90048
 2.0000e+000 90224 -2.8589e+000  7.1106e-001 -5.8034e-001 43488 90270,90022,90152
 2.0000e+000 90201 -2.5310e+000 -8.9351e-001 -7.7440e-001 43488 90342,90270,90152
 2.0000e+000 90178 -2.7975e+000 -3.4912e+000  2.1953e+000 43488 90342,90152,90126
 2.0000e+000 90296 -9.5132e-001 -1.2702e+000  3.3240e-001 43488 90074,90022,90270
 2.0000e+000 90319 -3.1387e+000 -1.9998e+000  3.9355e-001 43488 90074,90270,90100
 2.0000e+000 90368 -5.9972e+000 -3.9656e+000  1.8830e+000 43488 90100,90270,90342
 2.0000e+000 90391 -6.2646e+000 -6.9006e+000  4.8503e+000 43488 90100,90342,90126
 2.0000e+000 90590 -8.6904e+000 -9.9174e+000 -1.2493e+000 43048 90414,90492,90440
 2.0000e+000 90567 -1.0867e+001 -1.3184e+001 -9.5057e-002 43048 90414,90518,90492
 2.0000e+000 90544 -9.4871e+000 -5.4103e+000  1.1763e+000 43048 90440,90492,90466
 2.0000e+000 91070 -7.0065e+000 -8.4646e+000  1.9385e+000 42430 91237,90880,90854
 2.0000e+000 91047 -2.9542e+000 -9.2919e+000  2.5064e+000 42430 90698,90906,90880
 2.0000e+000 91024 -6.1512e+000 -8.2736e+000  1.7041e+000 42430 91093,90750,90698
 2.0000e+000 91001 -6.7832e+000 -8.0469e+000  1.8513e+000 42430 91237,90854,91093
 2.0000e+000 90978 -5.5658e+000 -7.0740e+000  7.7363e-001 42430 91165,90802,90776
 2.0000e+000 90955 -7.1633e+000 -5.5675e+000 -8.8589e-001 42430 90802,90854,90828
 2.0000e+000 90932 -6.4744e+000 -1.0886e+001  8.6904e-001 42430 90698,90750,90724
 2.0000e+000 91119 -8.4685e+000 -8.9564e+000  1.4036e+000 42430 90776,90750,91093
 2.0000e+000 91142 -6.7301e+000 -8.1152e+000  1.7435e+000 42430 91165,90776,91093
 2.0000e+000 91191 -5.1725e+000 -6.5884e+000  2.6336e-002 42430 90854,90802,91165
 2.0000e+000 91214 -5.6519e+000 -6.2501e+000  8.4890e-001 42430 90854,91165,91093
 2.0000e+000 91263 -6.5462e+000 -8.9420e+000  1.5605e+000 42430 90698,90880,91237
 2.0000e+000 91286 -6.3681e+000 -8.6080e+000  1.4879e+000 42430 90698,91237,91093
 2.0000e+000 91694 -1.5048e+000 -3.6456e+000 -9.8849e-002 41769 91469,91573,91495
 2.0000e+000 91671 -1.3467e+000 -4.5054e+000  8.0030e-001 41769 91469,91599,91573
 2.0000e+000 91648 -2.7063e+000 -5.2883e+000  1.5080e+000 41769 91495,91547,91521
 2.0000e+000 91625 -3.3670e+000 -4.8906e+000 -6.4843e-001 41769 91495,91573,91547
 2.0000e+000 92040  4.4378e+000  1.2662e+000  1.7334e+000 41379 91769,91873,91847
 2.0000e+000 92017  3.5098e+000 -6.7177e-001 -2.0594e-001 41379 91743,91873,91769
 2.0000e+000 91994  3.5969e+000  1.3635e+000  1.6732e+000 41379 91769,91847,91795
 2.0000e+000 91971  3.6203e+000 -2.9016e+000  1.4759e+000 41379 91743,91899,91873
 2.0000e+000 91948 -5.9029e-001 -7.9549e+000 -3.4673e+000 41379 91717,91899,91743
 2.0000e+000 91925  9.3367e-001 -7.0560e-001  4.4209e-001 41379 91795,91847,91821
 2.0000e+000 92597 -5.5526e+000 -5.2370e+000  8.4342e-003 40975 92225,92407,92303
 2.0000e+000 92574 -7.2786e+000 -2.7428e+000 -1.5505e+000 40975 92225,92433,92407
 2.0000e+000 92551 -4.7268e+000 -1.8606e+000  4.1028e-001 40975 92225,92303,92277
 2.0000e+000 92528 -7.1218e+000 -6.8857e+000 -6.9460e-001 40975 92329,92407,92381
 2.0000e+000 92505 -5.2344e+000 -4.2458e+000  4.6121e-001 40975 92303,92407,92329
 2.0000e+000 92482 -3.5372e+000 -7.2728e-002  1.0445e+000 40975 92225,92277,92251
 2.0000e+000 92459 -7.7071e+000 -6.0402e+000  3.6662e-001 40975 92329,92381,92355
 2.0000e+000 93231 -1.2121e+001 -1.6197e+000 -9.5225e-001 40521 92937,92989,92963
 2.0000e+000 93208 -7.4542e+000 -2.6872e+000 -5.0775e-001 40521 93254,92937,92885
 2.0000e+000 93185 -5.3623e+000 -2.9463e+000  1.1189e+000 40521 93254,92885,93067
 2.0000e+000 93162 -6.1548e+000 -3.2325e+000 -9.9908e-001 40521 92885,92937,92911
 2.0000e+000 93139 -5.0382e+000 -2.3558e+000  1.3408e+000 40521 92859,93067,92885
 2.0000e+000 93116 -3.7911e+000 -3.5892e+000  3.0642e-001 40521 92989,93067,93015
 2.0000e+000 93093 -4.9364e+000 -1.3829e+000 -2.2498e-001 40521 93015,93067,93041
 2.0000e+000 93280 -6.5910e+000 -8.3493e-001  6.4200e-001 40521 92989,92937,93254
 2.0000e+000 93303 -4.4653e+000 -2.3396e+000  1.9978e+000 40521 92989,93254,93067
 2.0000e+000 93632 -4.2462e+000 -3.0349e+000 -1.1779e-001 40231 93433,93537,93511
 2.0000e+000 93609 -4.2552e+000 -4.3371e+000 -7.8019e-001 40231 93407,93537,93433
 2.0000e+000 93586 -3.9596e+000 -3.3793e+000  3.8911e-001 40231 93459,93511,93485
 2.0000e+000 93563 -4.3562e+000 -3.2117e+000  2.9367e-001 40231 93433,93511,93459
 2.0000e+000 94010 -4.8204e+000 -1.7464e+000  9.4579e-001 39869 93762,93866,93788
 2.0000e+000 93987 -2.9300e+000 -8.3059e-001  1.2440e+000 39869 93762,93892,93866
 2.0000e+000 93964 -6.6551e+000 -4.3007e+000  1.4317e-001 39869 93788,93866,93840
 2.0000e+000 93941 -6.7473e+000 -3.0477e+000 -1.4003e+000 39869 93788,93840,93814
 2.0000e+000 93918 -4.5914e+000 -6.3647e+000  1.7566e+000 39869 93736,93892,93762
 2.0000e+000 94160 -9.4837e+000 -5.5054e+000 -9.4393e-001 39457 94033,94085,94059
 2.0000e+000 94137 -9.6914e+000 -1.2947e+001  8.1787e-001 39457 94033,94111,94085
 2.0000e+000 94359 -3.1196e+000 -1.6110e+000  1.2582e+000 39053 94382,94235,94209
 2.0000e+000 94336  8.2160e-001  3.2878e+000 -1.4480e+000 39053 94382,94209,94183
 2.0000e+000 94313 -3.9088e+000 -4.5775e-001  2.5448e+000 39053 94183,94287,94261
 2.0000e+000 94408 -2.0785e+000 -5.5372e-001  2.4797e+000 39053 94454,94382,94261
 2.0000e+000 94431 -9.8216e-001 -3.6708e-002  1.8951e+000 39053 94261,94382,94183
 2.0000e+000 94480 -1.9749e+000 -5.3276e+000  2.1209e+000 39053 94235,94382,94454
 2.0000e+000 94892 -5.0667e+000 -3.7036e+000  4.8374e-001 38392 94915,94771,94719
 2.0000e+000 94869 -4.3210e+000 -3.0358e+000  7.6463e-001 38392 94915,94719,94693
 2.0000e+000 94846 -4.6264e+000 -3.4639e+000  1.8994e+000 38392 94719,94771,94745
 2.0000e+000 94823 -3.6684e+000 -1.5410e+000  8.0867e-001 38392 94667,94797,94693
 2.0000e+000 94941 -5.9324e+000 -3.0139e+000  1.7952e-001 38392 94797,94771,94915
 2.0000e+000 94964 -5.3677e+000 -2.4457e+000  4.0829e-001 38392 94797,94915,94693
 2.0000e+000 95261 -3.1272e+000 -2.3375e+000 -8.1878e-001 37831 95013,95065,95039
 2.0000e+000 95238 -4.5968e+000 -2.7148e+000 -4.5812e-002 37831 95284,95065,95013
 2.0000e+000 95215 -3.3763e+000 -1.4725e+000 -1.1992e+000 37831 95284,95013,94987
 2.0000e+000 95192 -4.5257e+000 -3.2947e+000  1.0471e+000 37831 94987,95143,95117
 2.0000e+000 95169 -6.1361e+000 -5.6543e+000  8.3231e-001 37831 95065,95117,95091
 2.0000e+000 95310 -4.0768e+000 -4.6858e+000  1.1551e+000 37831 95117,95065,95284
 2.0000e+000 95333 -3.0277e+000 -3.1630e+000  9.1674e-002 37831 95117,95284,94987
 2.0000e+000 95554 -6.7773e+000 -5.3018e+000 -6.3673e-001 37419 95404,95456,95430
 2.0000e+000 95531 -4.8223e+000 -2.6274e-001 -7.7918e-001 37419 95378,95456,95404
 2.0000e+000 95508 -2.6867e+000  1.2633e+000 -1.4647e+000 37419 95378,95482,95456
 2.0000e+000 95887 -1.0045e+001 -1.1296e+001 -2.9452e-001 37221 95662,95714,95688
 2.0000e+000 95864 -1.2030e+001 -1.4170e+001  5.7479e-001 37221 95662,95792,95714
 2.0000e+000 95841 -7.9709e+000 -1.0870e+001 -3.7418e+000 37221 95714,95766,95740
 2.0000e+000 95818 -9.7225e+000 -9.5319e+000 -1.4434e+000 37221 95714,95792,95766
 2.0000e+000 95988 -1.6727e+001 -5.4154e+000 -2.0798e+000 36731 95910,95962,95936
 2.0000e+000 96138 -3.2498e+000 -8.8352e-001  2.1415e+000 36327 96293,96063,96037
 2.0000e+000 96115 -5.6281e+000 -2.2378e+000  2.7400e+000 36327 96161,96037,96011
 2.0000e+000 96187 -3.2211e+000 -5.4677e-001  3.4902e+000 36327 96293,96037,96161
 2.0000e+000 96319 -2.8211e+000  9.3644e-001  2.6166e+000 36327 96089,96063,96293
 2.0000e+000 96342 -2.2276e+000  1.5783e+000  4.1256e+000 36327 96089,96293,96161
 2.0000e+000 96710 -2.2022e+000 -3.1363e+000  7.9203e-001 36037 96733,96491,96439
 2.0000e+000 96687 -2.2951e+000 -1.8459e+000  1.2080e+000 36037 96733,96439,96413
 2.0000e+000 96664 -1.9073e+000 -3.0284e+000  6.7633e-001 36037 96439,96491,96465
 2.0000e+000 96641 -4.0342e+000 -9.3929e-002  6.6966e-001 36037 96387,96517,96413
 2.0000e+000 96618 -3.9539e+000  6.8969e-001  6.5012e-001 36037 96387,96543,96517
 2.0000e+000 96595 -2.0422e+000 -8.4224e-001  2.2472e+000 36037 96387,96569,96543
 2.0000e+000 96759 -3.0075e+000 -1.7619e+000  3.7106e-001 36037 96517,96491,96733
 2.0000e+000 96782 -2.7361e+000 -3.8302e-001  1.2686e+000 36037 96517,96733,96413
 2.0000e+000 96932 -2.0894e+000 -4.0605e+000  2.7539e+000 35633 97027,96955,96831
 2.0000e+000 96909 -6.3084e+000 -6.1902e+000  2.8485e-001 35633 97159,96955,96805
 2.0000e+000 96981 -4.2338e+000 -4.0332e+000  3.2985e+000 35633 96857,96831,96955
 2.0000e+000 97004 -5.1777e+000 -5.8624e+000  3.9403e+000 35633 96857,96955,96883
 2.0000e+000 97053 -4.1267e+000 -9.5810e-001  4.2308e-001 35633 96805,96955,97027
 2.0000e+000 97185 -5.6919e+000 -5.0119e+000  7.0453e-001 35633 96883,96955,97159
 2.0000e+000 97593 -4.8899e+000 -4.6118e+000  8.4764e-001 35186 97446,97498,97472
 2.0000e+000 97570 -4.0476e+000 -2.5114e+000  8.1384e-001 35186 97368,97498,97446
 2.0000e+000 97547 -2.9291e+000 -2.0490e+000 -7.5939e-001 35186 97368,97446,97394
 2.0000e+000 97524 -1.2940e+000 -1.7224e+000 -4.1317e-001 35186 97394,97446,97420
 2.0000e+000 98050 -1.1368e+000 -1.1304e+000 -5.9058e-001 34632 97802,97932,97854
 2.0000e+000 98027 -3.0571e+000 -1.9855e+000 -1.1414e+000 34632 97776,97932,97802
 2.0000e+000 98004 -3.7560e+000 -3.3890e+000  1.2181e+000 34632 97802,97854,97828
 2.0000e+000 97981 -3.9418e+000 -8.2989e-001 -1.1578e+000 34632 97880,97932,97906
 2.0000e+000 97958 -2.6331e+000 -3.1729e+000  4.0653e-001 34632 97854,97932,97880
 2.0000e+000 98526 -6.0099e+000 -8.7813e+000  4.2365e-001 34064 98693,98180,98362
 2.0000e+000 98503 -3.2249e+000 -5.6116e+000  2.3898e+000 34064 98154,98362,98180
 2.0000e+000 98480 -5.2977e+000 -7.2368e+000  3.6874e+000 34064 98549,98258,98232
 2.0000e+000 98457 -8.9644e+000 -4.7608e+000  7.7286e+000 34064 98549,98232,98206
 2.0000e+000 98434 -7.0143e+000 -1.0552e+001 -5.6214e-001 34064 98837,98621,98362
 2.0000e+000 98411 -5.7558e+000 -9.5398e+000  2.5226e+000 34064 98765,98284,98258
 2.0000e+000 98388 -6.6915e+000 -1.1932e+001 -3.4273e-001 34064 98837,98362,98336
 2.0000e+000 98575 -5.2098e+000 -8.1299e+000  2.7154e+000 34064 98765,98258,98549
 2.0000e+000 98598 -7.7724e+000 -8.8884e+000  6.2329e-001 34064 98621,98310,98549
 2.0000e+000 98647 -6.3034e+000 -8.3022e+000  9.1825e-002 34064 98693,98362,98621
 2.0000e+000 98670 -5.5356e+000 -3.7297e+000  1.1739e+000 34064 98206,98621,98549
 2.0000e+000 98719 -5.4198e+000 -8.2902e+000  1.2459e-001 34064 98206,98180,98693
 2.0000e+000 98742 -5.6232e+000 -7.9196e+000 -6.7661e-002 34064 98206,98693,98621
 2.0000e+000 98791 -6.5299e+000 -8.0883e+000  1.2972e+000 34064 98310,98284,98765
 2.0000e+000 98814 -6.3517e+000 -7.3006e+000  1.3633e+000 34064 98310,98765,98549
 2.0000e+000 98863 -7.4245e+000 -8.4543e+000 -5.4645e-002 34064 98310,98621,98837
 2.0000e+000 98886 -7.3908e+000 -1.0204e+001  2.3659e-001 34064 98310,98837,98336
 2.0000e+000 99264 -6.0596e+000 -4.9476e+000 -2.4107e+000 33446 99287,99094,99068
 2.0000e+000 99241 -5.4854e+000 -6.7988e+000 -9.6944e-001 33446 99287,99068,99016
 2.0000e+000 99218 -9.7088e+000 -5.4002e+000  1.0128e+000 33446 99016,99068,99042
 2.0000e+000 99195 -1.0394e+001 -9.9544e+000 -2.2143e+000 33446 99016,99146,99120
 2.0000e+000 99172 -9.8092e+000 -1.2335e+001  1.5937e+000 33446 98990,99146,99016
 2.0000e+000 99313 -8.3790e+000 -6.3108e+000 -1.7441e+000 33446 99120,99094,99287
 2.0000e+000 99336 -6.1580e+000 -7.4102e+000 -6.2501e-001 33446 99120,99287,99016
 2.0000e+000 99861 -5.3203e+000 -4.0619e+000  6.5239e-002 32940 100172,99956,99884
 2.0000e+000 99838 -5.3740e+000 -4.4025e+000  2.8208e-002 32940 100100,99884,99518
 2.0000e+000 99815 -3.2908e+000 -5.2813e+000 -1.7913e-001 32940 100244,99956,99622
 2.0000e+000 99792 -2.9734e+000 -3.0017e+000 -1.1547e-003 32940 100028,99648,99622
 2.0000e+000 99769 -4.6880e+000 -4.9701e+000 -8.7047e-001 32940 100100,99518,99492
 2.0000e+000 99746 -1.5962e+000 -5.7884e+000  2.4906e-001 32940 99570,99622,99596
 2.0000e+000 99723 -1.7235e+000 -6.0546e+000  1.7716e-001 32940 100244,99622,99570
 2.0000e+000 99700 -3.2387e+000 -4.1854e+000 -4.9585e-001 32940 99440,99492,99466
 2.0000e+000 99910 -4.3725e+000 -3.4533e+000 -2.7731e-001 32940 100172,99884,100028
 2.0000e+000 99933 -5.1890e+000 -3.6379e+000  3.3766e-001 32940 99674,99884,99440
 2.0000e+000 99982 -5.4802e+000 -6.1661e+000  3.9386e-001 32940 99518,99884,99956
 2.0000e+000 100005 -6.6193e+000 -8.9321e+000 -1.6186e+000 32940 99518,99956,99544
 2.0000e+000 100054 -5.1650e+000 -2.1619e+000  6.0312e-001 32940 99674,99648,100028
 2.0000e+000 100077 -4.8128e+000 -2.8087e+000  5.8474e-001 32940 99674,100028,99884
 2.0000e+000 100126 -3.8933e+000 -3.7190e+000  2.0709e-001 32940 99440,99884,100100
 2.0000e+000 100149 -3.4174e+000 -4.3581e+000 -6.3869e-001 32940 99440,100100,99492
 2.0000e+000 100198 -4.8285e+000 -4.5721e+000  8.6204e-001 32940 99622,99956,100172
 2.0000e+000 100221 -4.7554e+000 -4.4613e+000  6.4540e-001 32940 99622,100172,100028
 2.0000e+000 100270 -5.2174e+000 -6.0922e+000  9.9138e-002 32940 99544,99956,100244
 2.0000e+000 100293 -3.8202e+000 -6.9692e+000  4.7960e-001 32940 99544,100244,99570
 2.0000e+000 100750 -2.0970e+000 -2.9454e+000  6.6529e-001 32365 100773,100580,100502
 2.0000e+000 100727 -1.3240e+000 -2.3308e+000  3.3728e-001 32365 100773,100502,100632
 2.0000e+000 100704  1.1095e+000 -4.2198e+000 -1.5202e+000 32365 100476,100632,100502
 2.0000e+000 100681 -4.1026e+000 -4.5729e+000  4.2759e-001 32365 100528,100580,100554
 2.0000e+000 100658 -1.6657e+000 -3.3206e+000 -1.2657e-002 32365 100502,100580,100528
 2.0000e+000 100799 -1.2710e+000 -3.6466e+000  9.9044e-001 32365 100606,100580,100773
 2.0000e+000 100822 -7.6322e-001 -3.1440e+000  7.3574e-001 32365 100606,100773,100632
 2.0000e+000 101021 -1.8115e+000 -2.4401e+000  1.5992e+000 31853 100871,100923,100897
 2.0000e+000 100998 -5.9852e-001 -1.1116e+000  2.1460e+000 31853 100871,100949,100923
 2.0000e+000 100975 -1.9547e+000 -4.6067e+000  2.3014e+000 31853 100845,100949,100871
 2.0000e+000 101529 -4.6267e+000 -4.9364e+000  8.3076e-001 31249 101552,101310,101232
 2.0000e+000 101506 -4.8424e+000 -3.4982e+000 -6.7750e-002 31249 101552,101232,101206
 2.0000e+000 101483 -5.4207e+000 -2.0876e+000  1.4333e+000 31249 101206,101388,101336
 2.0000e+000 101460 -5.8169e+000 -1.0351e+001  1.4821e+000 31249 101232,101284,101258
 2.0000e+000 101437 -5.8396e+000 -9.5803e+000  9.4263e-001 31249 101232,101310,101284
 2.0000e+000 101414 -4.8794e+000 -1.4639e-001  9.7780e-001 31249 101336,101388,101362
 2.0000e+000 101578 -5.1295e+000 -6.8448e+000  1.2133e+000 31249 101336,101310,101552
 2.0000e+000 101601 -5.1006e+000 -4.9362e+000  3.6457e-001 31249 101336,101552,101206
 2.0000e+000 101751 -9.6395e+000 -4.1144e+000 -3.4114e-001 30515 101774,101650,101624
 2.0000e+000 101728 -7.7297e+000 -4.6030e+000  2.0838e-001 30515 101846,101774,101624
 2.0000e+000 101800 -1.0604e+001  4.3671e-001  1.5935e-002 30515 101676,101650,101774
 2.0000e+000 101823 -1.1080e+001 -5.9602e+000  9.0028e-001 30515 101676,101774,101702
 2.0000e+000 101872 -1.1234e+001 -1.2291e+001 -9.3400e-001 30515 101702,101774,101846
 2.0000e+000 102557 -1.7968e+000 -4.3991e+000  5.0867e-001 29947 102652,102580,102266
 2.0000e+000 102534 -1.6015e+000 -4.2009e+000  5.8150e-001 29947 102580,102136,102370
 2.0000e+000 102511 -1.9939e+000 -4.8042e+000  3.2886e-001 29947 102724,102652,102266
 2.0000e+000 102488 -2.1088e+000 -5.3676e+000  3.5657e-001 29947 102724,102266,102240
 2.0000e+000 102465 -1.9496e+000 -5.0508e+000  7.8482e-001 29947 102796,102318,102292
 2.0000e+000 102442 -4.0875e+000 -4.6515e+000  4.6734e-002 29947 102162,102214,102188
 2.0000e+000 102419 -2.5800e+000 -4.5040e+000 -2.6508e-001 29947 102162,102240,102214
 2.0000e+000 102396 -1.4037e+000 -3.7236e+000  2.8225e-001 29947 102318,102370,102344
 2.0000e+000 102606 -1.5534e+000 -3.7263e+000  6.7429e-001 29947 102292,102266,102580
 2.0000e+000 102629 -1.9318e+000 -4.6396e+000  7.2062e-001 29947 102796,102292,102580
 2.0000e+000 102678 -1.6443e+000 -4.3658e+000  5.3335e-001 29947 102136,102580,102652
 2.0000e+000 102701 -1.8363e+000 -3.7062e+000  3.7473e-001 29947 102136,102652,102162
 2.0000e+000 102750 -2.1468e+000 -4.1807e+000  5.4589e-001 29947 102162,102652,102724
 2.0000e+000 102773 -2.2326e+000 -4.6314e+000  4.5960e-001 29947 102162,102724,102240
 2.0000e+000 102822 -1.8603e+000 -4.5938e+000  6.0044e-001 29947 102370,102318,102796
 2.0000e+000 102845 -1.9386e+000 -4.3756e+000  5.0405e-001 29947 102370,102796,102580
 2.0000e+000 103044 -1.0784e+001 -1.3105e+001  2.9013e-001 29450 102868,102920,102894
 2.0000e+000 103021 -9.5198e+000 -1.6302e+001  2.5991e-001 29450 102868,102972,102920
 2.0000e+000 102998 -1.1139e+001 -1.3326e+001 -1.5038e+000 29450 102920,102972,102946
 2.0000e+000 103292 -5.8309e+000 -1.1036e+001  1.4927e+000 29060 103315,103171,103119
 2.0000e+000 103269 -7.2783e+000 -1.1104e+001  1.8822e+000 29060 103315,103119,103067
 2.0000e+000 103246 -5.4197e+000 -1.0452e+001  1.1035e+000 29060 103119,103171,103145
 2.0000e+000 103223 -7.6799e+000 -4.3994e+000  2.0461e+000 29060 103067,103119,103093
 2.0000e+000 103341 -4.3886e+000 -1.1331e+001  7.1533e-001 29060 103197,103171,103315
 2.0000e+000 103364 -6.4017e+000 -1.1251e+001  5.7792e-001 29060 103197,103315,103067
 2.0000e+000 104002 -7.3940e+000 -1.2922e+001 -3.6707e+000 28599 104097,104025,103708
 2.0000e+000 103979 -4.0043e+000 -7.6285e+000 -7.4821e-001 28599 104169,104025,103656
 2.0000e+000 103956 -3.3551e+000 -1.6138e+001 -3.2094e+000 28599 104097,103708,103682
 2.0000e+000 103933 -2.1643e+000 -6.5534e+000 -2.6192e-001 28599 104169,103656,103630
 2.0000e+000 103910 -3.7767e+000 -1.5335e-001  1.7330e+000 28599 103760,103812,103786
 2.0000e+000 103887 -2.3701e+000 -5.0913e+000  3.6832e+000 28599 103630,103838,103812
 2.0000e+000 103864 -3.2884e+000 -1.0171e+001 -7.4473e-002 28599 103708,103760,103734
 2.0000e+000 104051 -7.4567e+000 -6.4229e+000 -1.4996e+000 28599 103760,103708,104025
 2.0000e+000 104074 -3.9664e+000 -6.5557e+000  9.3491e-001 28599 103760,104025,103812
 2.0000e+000 104123 -3.9273e+000 -7.1393e+000 -1.9077e+000 28599 103656,104025,104097
 2.0000e+000 104146 -9.4344e-001 -1.2352e+001 -1.4115e+000 28599 103656,104097,103682
 2.0000e+000 104195 -5.2268e+000 -6.0871e+000 -2.8681e-001 28599 103812,104025,104169
 2.0000e+000 104218 -4.3603e+000 -5.7899e+000 -1.6780e-001 28599 103812,104169,103630
 2.0000e+000 104596 -5.7701e+000 -1.1177e+001  4.9434e-001 28344 104619,104374,104322
 2.0000e+000 104573 -6.1111e+000 -1.2277e+001  1.8443e+000 28344 104619,104322,104478
 2.0000e+000 104550 -6.2102e+000 -9.0037e+000  6.1618e-001 28344 104322,104374,104348
 2.0000e+000 104527 -4.7457e+000 -4.8122e+000 -2.1457e+000 28344 104400,104452,104426
 2.0000e+000 104504 -5.9105e+000 -9.3514e+000 -3.8841e-001 28344 104374,104452,104400
 2.0000e+000 104645 -5.3833e+000 -9.4032e+000 -3.6782e-001 28344 104452,104374,104619
 2.0000e+000 104668 -5.9858e+000 -1.0498e+001  1.0711e+000 28344 104452,104619,104478
 2.0000e+000 104987 -1.9077e+000 -3.9789e+000  4.4921e-001 27947 104713,104843,104765
 2.0000e+000 104964 -2.0048e+000 -3.5065e+000 -3.8191e-002 27947 104713,104869,104843
 2.0000e+000 104941 -1.8004e+000 -4.8045e+000 -9.6070e-002 27947 104765,104843,104791
 2.0000e+000 104918 -1.1075e+000 -3.0411e+000 -1.0735e-001 27947 104791,104843,104817
 2.0000e+000 104895 -2.4836e+000 -6.3588e+000 -6.2716e-001 27947 104713,104765,104739
 2.0000e+000 105367 -9.5338e+000 -1.2663e+001  6.2243e-001 27443 105390,105197,105119
 2.0000e+000 105344 -1.4273e+001 -1.3657e+001  2.5127e+000 27443 105390,105119,105093
 2.0000e+000 105321 -1.1592e+001 -1.2190e+001  4.5404e-001 27443 105119,105197,105145
 2.0000e+000 105298 -6.2857e+000 -1.3505e+001 -1.8702e+000 27443 105197,105249,105223
 2.0000e+000 105275 -8.8294e+000 -1.1002e+001  7.7286e-001 27443 105145,105197,105171
 2.0000e+000 105416 -6.3772e+000 -1.2465e+001 -2.2697e+000 27443 105249,105197,105390
 2.0000e+000 105439 -1.1459e+001 -1.2902e+001 -7.3656e-001 27443 105249,105390,105093
 2.0000e+000 105994 -5.4301e+000 -7.0901e+000 -1.0186e+000 27096 106161,106017,105700
 2.0000e+000 105971 -4.3040e+000 -6.2043e+000 -5.2634e-002 27096 106305,106017,105648
 2.0000e+000 105948 -3.6290e+000 -5.1609e+000  4.4398e-002 27096 106089,105804,105778
 2.0000e+000 105925 -5.3730e+000 -7.6373e+000 -1.2897e+000 27096 106161,105700,105674
 2.0000e+000 105902 -4.0137e+000 -6.1674e+000 -2.8688e-001 27096 106233,105726,105700
 2.0000e+000 105879 -6.8201e+000 -5.5745e+000  9.1037e-001 27096 106305,105648,105622
 2.0000e+000 105856 -3.2402e+000 -6.9448e+000  1.3834e-001 27096 105726,105778,105752
 2.0000e+000 106043 -4.2817e+000 -6.0787e+000 -2.1986e-001 27096 106233,105700,106017
 2.0000e+000 106066 -3.7603e+000 -6.4259e+000  9.6467e-002 27096 106089,105778,106017
 2.0000e+000 106115 -3.5853e+000 -5.0721e+000  5.2337e-001 27096 105830,105804,106089
 2.0000e+000 106138 -3.8157e+000 -5.4374e+000  3.7006e-001 27096 106377,106089,106017
 2.0000e+000 106187 -5.2365e+000 -6.1850e+000 -2.0565e-001 27096 105648,106017,106161
 2.0000e+000 106210 -5.4694e+000 -7.6319e+000 -3.0896e-001 27096 105648,106161,105674
 2.0000e+000 106259 -3.7180e+000 -6.0988e+000 -4.4060e-001 27096 105778,105726,106233
 2.0000e+000 106282 -4.0434e+000 -6.0675e+000 -3.6234e-001 27096 105778,106233,106017
 2.0000e+000 106331 -3.9065e+000 -5.0003e+000 -1.0993e-002 27096 106377,106017,106305
 2.0000e+000 106354 -3.8476e+000 -1.6614e+000 -4.9443e-001 27096 105830,106305,105622
 2.0000e+000 106403 -3.1619e+000 -4.8143e+000  7.7476e-002 27096 105830,106089,106377
 2.0000e+000 106426 -3.2425e+000 -4.5919e+000 -2.8363e-001 27096 105830,106377,106305
 2.0000e+000 106625 -1.0057e+001 -1.1780e+001  1.1042e+000 26684 106475,106553,106527
 2.0000e+000 106602 -1.1688e+001 -1.4349e+001  2.9188e-001 26684 106449,106553,106475
 2.0000e+000 106579 -1.3651e+001 -1.2288e+001 -4.9020e-001 26684 106475,106527,106501
 2.0000e+000 107084 -6.0091e+000 -9.1912e+000  6.6282e-001 26244 107107,106914,106862
 2.0000e+000 107061 -5.3819e+000 -8.7033e+000  2.0079e-001 26244 107107,106862,106836
 2.0000e+000 107038 -5.6448e+000 -6.7662e+000 -2.5023e-001 26244 106810,106966,106836
 2.0000e+000 107015 -6.3871e+000 -1.4134e+001  1.3624e+000 26244 106862,106914,106888
 2.0000e+000 106992 -7.2244e+000 -8.4514e+000 -3.8125e-001 26244 106914,106966,106940
 2.0000e+000 107133 -5.2704e+000 -9.3765e+000 -5.0847e-002 26244 106966,106914,107107
 2.0000e+000 107156 -4.7165e+000 -8.4794e+000 -5.7391e-001 26244 106966,107107,106836
 2.0000e+000 107662 -9.0009e-001 -5.5026e+000  2.5008e-001 25904 107365,107495,107391
 2.0000e+000 107639 -1.6318e+000 -4.7248e+000  1.3634e-001 25904 107365,107521,107495
 2.0000e+000 107616 -2.1573e+000 -6.1273e+000  7.7574e-002 25904 107391,107469,107443
 2.0000e+000 107593 -1.3569e+000 -5.7213e+000 -1.1483e-001 25904 107391,107495,107469
 2.0000e+000 107570 -2.4779e+000 -6.7511e+000  1.9435e-001 25904 107391,107443,107417
 2.0000e+000 107547 -4.7815e-001 -4.0222e+000  1.3537e+000 25904 107339,107521,107365
 2.0000e+000 108247 -2.4694e+000 -5.9073e+000 -1.6991e-001 25450 108270,108002,107950
 2.0000e+000 108224 -2.0791e+000 -6.0037e+000  8.0257e-002 25450 108270,107950,108106
 2.0000e+000 108201 -1.8299e+000 -6.1041e+000 -1.4047e-003 25450 108342,108028,108002
 2.0000e+000 108178 -2.9063e+000 -6.6843e+000  5.1997e-003 25450 107950,108002,107976
 2.0000e+000 108155 -1.8751e+000 -5.5773e+000  2.4004e-001 25450 107924,108106,107950
 2.0000e+000 108132 -2.8721e+000 -6.4451e+000  3.5114e-001 25450 108054,108106,108080
 2.0000e+000 108296 -2.2171e+000 -5.8168e+000  1.7293e-002 25450 108342,108002,108270
 2.0000e+000 108319 -2.0347e+000 -5.8210e+000  8.0209e-003 25450 108054,108270,108106
 2.0000e+000 108368 -1.0162e+000 -5.9027e+000 -1.9042e-001 25450 108054,108028,108342
 2.0000e+000 108391 -1.6316e+000 -5.7420e+000 -2.4450e-001 25450 108054,108342,108270
 2.0000e+000 108818 -7.8745e+000 -6.5055e+000  1.2121e+000 24939 108521,108677,108651
 2.0000e+000 108795 -1.1592e+001 -9.2983e+000 -1.6676e+000 24939 108495,108677,108521
 2.0000e+000 108772 -6.7880e+000 -6.0480e+000  5.0281e-001 24939 108521,108651,108625
 2.0000e+000 108749 -1.0055e+001 -6.6881e+000  8.6879e-001 24939 108521,108625,108599
 2.0000e+000 108726 -1.5936e+000 -4.1725e+000 -2.2861e+000 24939 108547,108599,108573
 2.0000e+000 108703 -6.2235e+000 -4.3892e+000 -2.4481e+000 24939 108521,108599,108547
 2.0000e+000 109403 -2.6026e+000 -8.1345e+000  2.4714e-001 24741 109158,109210,109184
 2.0000e+000 109380 -5.6375e+000 -9.0210e+000  1.3305e-001 24741 109158,109262,109210
 2.0000e+000 109357 -5.0718e+000 -8.4260e+000  4.8863e-001 24741 109080,109262,109158
 2.0000e+000 109334 -6.3134e+000 -8.8347e+000  1.0563e+000 24741 109080,109158,109132
 2.0000e+000 109311 -1.6629e+000 -8.3263e+000 -6.1161e-001 24741 109210,109262,109236
 2.0000e+000 109288 -8.5897e+000 -7.3885e+000 -1.2463e-001 24741 109080,109132,109106
 2.0000e+000 109781 -1.3492e+000 -6.0450e+000  2.5084e-001 24337 109533,109611,109559
 2.0000e+000 109758 -1.6537e+000 -5.6198e+000  4.4623e-002 24337 109533,109637,109611
 2.0000e+000 109735 -1.4311e+000 -6.4890e+000 -3.0168e-001 24337 109559,109611,109585
 2.0000e+000 109712 -1.6523e+000 -5.6749e+000 -3.8359e-001 24337 109533,109663,109637
 2.0000e+000 109689 -1.1698e+000 -4.4007e+000  2.6853e-001 24337 109507,109663,109533
 2.0000e+000 110159 -7.1772e+000 -1.1061e+001  2.3624e-001 23833 110182,109963,109911
 2.0000e+000 110136 -1.0759e+001 -1.4822e+001  2.9114e+000 23833 110182,109911,109885
 2.0000e+000 110113 -5.1572e+000 -1.0028e+001 -6.5721e-002 23833 109885,110041,109989
 2.0000e+000 110090 -8.2325e+000 -9.4030e+000  2.0940e+000 23833 109911,109963,109937
 2.0000e+000 110067 -6.1130e+000 -9.0542e+000 -2.1538e+000 23833 109989,110041,110015
 2.0000e+000 110208 -8.3302e+000 -9.1432e+000 -1.1918e+000 23833 109989,109963,110182
 2.0000e+000 110231 -8.5725e+000 -1.0688e+001  8.1594e-001 23833 109989,110182,109885
 2.0000e+000 110332 -9.1371e-001 -6.6642e+000  3.1880e-001 23429 110254,110306,110280
 2.0000e+000 110580 -6.5597e+000 -7.1198e+000 -5.7007e+000 22825 110603,110407,110381
 2.0000e+000 110557 -2.8681e+000 -6.4361e+000 -5.4707e-001 22825 110603,110381,110485
 2.0000e+000 110534  2.7844e-002  6.9714e-002  7.8072e-002 22825 110433,110485,110459
 2.0000e+000 110511 -4.1385e+000  1.8733e+000 -3.4474e-001 22825 110355,110485,110381
 2.0000e+000 110629 -3.2980e+000 -1.1445e+000 -3.8702e+000 22825 110433,110407,110603
 2.0000e+000 110652 -1.5743e+000 -3.0005e+000  9.0059e-001 22825 110433,110603,110485
 2.0000e+000 110902 -8.4099e+000 -5.6641e+000  1.4026e-001 22428 110703,110755,110729
 2.0000e+000 110879 -6.2432e+000 -4.9849e+000 -4.3099e-001 22428 110703,110781,110755
 2.0000e+000 110856 -8.2864e+000 -5.9381e+000 -8.5684e-001 22428 110703,110807,110781
 2.0000e+000 110833 -1.4714e+001 -4.4841e+000 -4.4235e+000 22428 110677,110807,110703
 2.0000e+000 111284 -2.8724e+000 -5.3723e+000 -1.4934e+000 22138 111088,111140,111114
 2.0000e+000 111261 -2.7547e+000 -3.9469e+000 -2.3290e+000 22138 111062,111140,111088
 2.0000e+000 111238 -5.2082e+000 -8.2131e+000  3.3955e-001 22138 111036,111140,111062
 2.0000e+000 111215 -9.6380e+000 -7.2851e+000 -5.3963e-001 22138 111010,111140,111036
 2.0000e+000 111192 -7.8346e+000 -8.1725e+000  1.3824e+000 22138 111010,111166,111140
 2.0000e+000 111385 -1.2615e+001 -1.2113e+001  8.6663e-001 21826 111307,111359,111333
 2.0000e+000 111731 -1.3709e+001 -1.1232e+001  9.0652e-001 21264 111754,111538,111434
 2.0000e+000 111708 -1.2140e+001 -1.0617e+001  3.4889e-001 21264 111754,111434,111408
 2.0000e+000 111685 -1.3952e+001 -9.9858e+000  5.2750e-001 21264 111434,111538,111460
 2.0000e+000 111662 -1.6307e+001 -1.0999e+001  6.7879e-001 21264 111460,111538,111486
 2.0000e+000 111639 -1.0232e+001 -1.0624e+001  2.1462e+000 21264 111408,111590,111564
 2.0000e+000 111616 -1.7506e+001 -8.1968e+000  1.9846e+000 21264 111486,111538,111512
 2.0000e+000 111780 -1.4314e+001 -1.1090e+001  1.4953e+000 21264 111564,111538,111754
 2.0000e+000 111803 -1.3615e+001 -1.1524e+001  1.1855e+000 21264 111564,111754,111408
 2.0000e+000 111955 -6.2935e+000 -7.0230e+000  7.7619e-001 20860 111978,111906,111880
 2.0000e+000 111932 -6.8197e+000 -1.0320e+001 -2.7568e-001 20860 112110,111828,111906
 2.0000e+000 112004 -7.5248e+000 -8.9788e+000  2.2557e-001 20860 112110,111906,111978
 2.0000e+000 112136 -6.3843e+000 -9.1351e+000 -2.8336e-001 20860 111854,111828,112110
 2.0000e+000 112159 -6.8552e+000 -7.3676e+000  1.1448e-001 20860 111854,112110,111978
 2.0000e+000 112407 -8.0496e+000 -6.8629e+000 -1.3575e+000 20320 112182,112286,112208
 2.0000e+000 112384 -4.3067e+000 -8.2278e+000  1.3784e+000 20320 112182,112312,112286
 2.0000e+000 112361 -5.4926e+000 -6.8231e+000 -1.0850e+000 20320 112208,112286,112260
 2.0000e+000 112338 -1.1071e+001 -6.3320e+000 -2.5413e+000 20320 112208,112260,112234
 2.0000e+000 112655 -2.6168e-001 -5.3034e+000  3.1250e+000 19916 112508,112560,112534
 2.0000e+000 112632 -4.5242e+000 -8.5926e+000  1.4935e+000 19916 112430,112560,112508
 2.0000e+000 112609 -5.6782e+000 -8.7397e+000  1.5275e-001 19916 112430,112508,112456
 2.0000e+000 112586 -8.1463e+000 -5.9154e+000  5.7003e-001 19916 112456,112508,112482
 2.0000e+000 112807 -6.0914e+000 -6.1084e+000  8.2493e-002 19626 112680,112732,112706
 2.0000e+000 112784 -4.7592e+000 -6.4545e+000 -6.3489e-001 19626 112680,112758,112732
 2.0000e+000 113008 -2.8096e+000 -4.1370e+000  2.0711e+000 19165 112858,112936,112884
 2.0000e+000 112985 -1.3804e+001 -6.1133e+000 -3.5573e+000 19165 112832,112936,112858
 2.0000e+000 112962 -3.8027e-001 -3.4298e+000  4.6205e-001 19165 112884,112936,112910
 2.0000e+000 113209 -3.8117e+000 -6.4969e+000  2.3342e-001 18596 113033,113085,113059
 2.0000e+000 113186 -2.3193e+000 -5.8613e+000 -2.0744e-001 18596 113033,113111,113085
 2.0000e+000 113163 -2.8628e+000 -6.3876e+000  1.0254e-001 18596 113033,113137,113111
 2.0000e+000 113481 -2.9426e+000 -6.6548e+000  2.4364e-001 18348 113256,113308,113282
 2.0000e+000 113458 -2.1510e+000 -6.6935e+000  2.2830e-001 18348 113256,113386,113308
 2.0000e+000 113435 -1.6357e+000 -5.7252e+000  4.3787e-001 18348 113308,113386,113360
 2.0000e+000 113412 -1.7151e+000 -6.5233e+000  3.8381e-002 18348 113308,113360,113334
 2.0000e+000 113753 -1.9176e+000 -6.3684e+000  1.7265e-002 17830 113554,113606,113580
 2.0000e+000 113730 -1.2677e+000 -6.1886e+000 -1.0605e-002 17830 113528,113606,113554
 2.0000e+000 113707 -1.0221e+000 -5.5667e+000  2.6553e-001 17830 113528,113658,113606
 2.0000e+000 113684 -2.0754e+000 -6.4797e+000 -1.2207e-001 17830 113606,113658,113632
 2.0000e+000 113954 -7.0018e+000 -6.3249e+000  1.3937e+000 17326 113778,113830,113804
 2.0000e+000 113931 -1.2793e+000 -4.9659e+000 -6.5170e-001 17326 113778,113882,113830
 2.0000e+000 113908  2.2296e-001 -2.3463e+000 -2.5184e-002 17326 113830,113882,113856
 2.0000e+000 114106 -3.8638e-001 -6.4630e+000  2.1372e-001 16870 113979,114031,114005
 2.0000e+000 114083 -1.1441e+000 -6.0089e+000  4.2515e-001 16870 113979,114057,114031
 2.0000e+000 114461 -8.2633e+000 -6.3449e+000 -1.4992e+000 16266 114236,114288,114262
 2.0000e+000 114438 -7.5793e+000 -8.3169e+000 -3.1173e-001 16266 114236,114366,114288
 2.0000e+000 114415 -6.7173e+000 -8.4927e+000  5.9655e-001 16266 114288,114340,114314
 2.0000e+000 114392 -7.4354e+000 -8.9965e+000 -1.8539e-001 16266 114288,114366,114340
 2.0000e+000 114562 -1.3246e+001 -9.3435e+000  0.0000e+000 15830 114484,114536,114510
 2.0000e+000 114663 -6.2135e+000 -4.1913e+000  3.9152e+000 15151 114585,114637,114611
 2.0000e+000 114886 -2.6961e+000 -6.4194e+000  1.5505e+000 417 114762,114814,114788
 2.0000e+000 114863 -4.5845e+000 -9.1833e+000  5.4648e-001 417 114710,114814,114762
 2.0000e+000 114840 -7.0448e+000 -4.6763e+000 -2.4509e+000 417 114710,114762,114736
