time zIndex S11 S22 S12 block gridPoints
f i f f f i l
 1.0000e-001 66553 -1.2734e+002 -5.5191e+001  7.2335e+001 66108 66354,66458,66432
 1.0000e-001 66530 -1.3599e+002 -5.7863e+001  6.2945e+001 66108 66328,66458,66354
 1.0000e-001 66507 -9.9027e+001 -7.7006e+001  5.8430e+001 66108 66354,66432,66406
 1.0000e-001 66484 -1.1513e+001 -3.6411e+000  9.1455e+001 66108 66354,66406,66380
 1.0000e-001 66951 -1.1100e+002 -4.7384e+001  3.6434e+001 65910 66703,66833,66807
 1.0000e-001 66928 -8.4461e+001 -7.9831e+001  7.2610e+001 65910 66677,66833,66703
 1.0000e-001 66905 -3.6610e+001 -5.5524e+001  4.4854e+001 65910 66729,66781,66755
 1.0000e-001 66882 -1.0190e+002 -4.3382e+001  4.3452e+001 65910 66729,66807,66781
 1.0000e-001 66859 -1.0020e+002 -3.2332e+001  4.1912e+001 65910 66703,66807,66729
 1.0000e-001 67150 -1.5791e+002 -6.6893e+001  7.2071e+001 65712 67026,67078,67052
 1.0000e-001 67127 -2.9731e+002 -1.2403e+002  9.9896e+001 65712 66974,67078,67026
 1.0000e-001 67104 -3.7074e+002 -2.0173e+002  1.6953e+002 65712 66974,67026,67000
 1.0000e-001 67481 -1.4983e+002 -1.0122e+002  5.9058e+001 65422 67282,67360,67334
 1.0000e-001 67458 -1.0779e+002 -4.5263e+001  7.7755e+001 65422 67282,67386,67360
 1.0000e-001 67435 -7.1597e+001 -6.7965e+001  5.1577e+001 65422 67282,67334,67308
 1.0000e-001 67412 -1.8540e+002 -1.6599e+002  1.1201e+002 65422 67256,67386,67282
 1.0000e-001 68115 -9.1421e+001 -1.1679e+002  3.7134e+001 65018 67795,67925,67873
 1.0000e-001 68092 -6.1192e+001 -1.0304e+002  2.3130e+001 65018 67769,67925,67795
 1.0000e-001 68069 -7.5725e+001 -8.6034e+001  4.4920e+001 65018 67873,67925,67899
 1.0000e-001 68046 -1.4577e+002 -8.2132e+001  2.1501e+001 65018 67769,67951,67925
 1.0000e-001 68023 -1.0251e+002 -1.6575e+002  3.9027e+001 65018 67795,67873,67821
 1.0000e-001 68000 -1.0520e+002 -1.6325e+002  3.5719e+001 65018 67821,67873,67847
 1.0000e-001 67977 -1.7615e+002 -3.7167e+001  7.9541e+001 65018 67743,67951,67769
 1.0000e-001 68363 -1.2910e+001 -3.0002e+001  2.9676e+001 64820 68190,68242,68216
 1.0000e-001 68340 -3.5729e+001 -2.2278e+001  3.4836e+001 64820 68190,68268,68242
 1.0000e-001 68317 -1.5355e+001 -1.3132e+001  3.8966e+001 64820 68164,68268,68190
 1.0000e-001 68294 -7.6968e+001 -3.2780e+001  3.7020e+001 64820 68138,68268,68164
 1.0000e-001 68513 -8.0286e+001 -9.1185e+001  5.5181e+001 64366 68868,68536,68438
 1.0000e-001 68490 -8.6382e+001 -9.1063e+001  4.5359e+001 64366 68536,68412,68386
 1.0000e-001 68562 -1.3505e+002 -1.0716e+002  4.0119e+001 64366 68740,68536,68464
 1.0000e-001 68585 -9.1154e+001 -4.3714e+001  4.6437e+001 64366 68608,68536,68386
 1.0000e-001 68634 -1.2323e+002 -1.0902e+002  3.6252e+001 64366 68464,68536,68608
 1.0000e-001 68766 -7.6796e+001 -1.0272e+002  4.2097e+001 64366 68438,68536,68740
 1.0000e-001 68894 -9.9431e+001 -9.6470e+001  4.7048e+001 64366 68412,68536,68868
 1.0000e-001 69172 -4.1286e+001 -7.6253e+001  3.4706e+001 64168 69022,69074,69048
 1.0000e-001 69149 -5.2358e+001 -2.2254e+001  3.4843e+001 64168 68996,69074,69022
 1.0000e-001 69126 -7.2892e+001 -6.3345e+001  1.4139e+001 64168 68996,69100,69074
 1.0000e-001 69371 -1.2379e+002 -5.5259e+001  9.7617e+001 63970 69466,69394,69273
 1.0000e-001 69348 -1.3082e+002 -8.0483e+001  8.7840e+001 63970 69394,69247,69221
 1.0000e-001 69325 -2.0295e+002 -8.6101e+001  7.5359e+001 63970 69195,69299,69221
 1.0000e-001 69420 -1.2238e+002 -8.2625e+001  9.6101e+001 63970 69299,69273,69394
 1.0000e-001 69443 -1.2889e+002 -9.5403e+001  8.0904e+001 63970 69299,69394,69221
 1.0000e-001 69492 -1.3354e+002 -8.1758e+001  9.5005e+001 63970 69247,69394,69466
 1.0000e-001 69904 -1.9033e+000 -6.5971e+001  3.7828e+001 63680 69705,69783,69731
 1.0000e-001 69881  4.3784e+001 -3.3780e+001  2.2643e+001 63680 69679,69783,69705
 1.0000e-001 69858 -6.5833e+001 -1.3011e+002  6.3483e+001 63680 69679,69809,69783
 1.0000e-001 69835 -5.8940e+001 -6.9054e+001  3.2866e+001 63680 69731,69783,69757
 1.0000e-001 70054  1.1564e+001 -3.0601e+001  2.4204e+001 63476 70077,69953,69927
 1.0000e-001 70031  5.0078e+001 -6.6979e+000  3.4387e+001 63476 70077,69927,70005
 1.0000e-001 70103 -2.4178e+001 -1.5943e+001  1.4025e+001 63476 69979,69953,70077
 1.0000e-001 70126  8.5379e+000  3.7361e+000  2.2518e+001 63476 69979,70077,70005
 1.0000e-001 70325 -4.6078e+001 -1.0610e+001  5.2636e+001 63278 70149,70227,70175
 1.0000e-001 70302 -1.4426e+000 -3.4786e-001  4.3477e+001 63278 70149,70253,70227
 1.0000e-001 70279 -6.9021e+001  1.5592e+001  1.9561e+001 63278 70175,70227,70201
 1.0000e-001 70597 -1.2727e+002 -5.7886e+001  8.9057e+001 63080 70372,70476,70424
 1.0000e-001 70574 -1.5237e+002 -6.4298e+001  8.0542e+001 63080 70372,70502,70476
 1.0000e-001 70551 -1.1475e+002 -4.8214e+001  7.8961e+001 63080 70424,70476,70450
 1.0000e-001 70528 -1.3916e+002 -6.7869e+001  1.0535e+002 63080 70372,70424,70398
 1.0000e-001 70847 -5.7035e+001 -7.8776e+001  3.3932e+001 62740 70870,70648,70622
 1.0000e-001 70824 -7.4693e+001 -4.7286e+001  4.3743e+001 62740 70870,70622,70752
 1.0000e-001 70801 -6.7676e+001 -1.4302e+002  5.3189e+001 62740 70648,70726,70700
 1.0000e-001 70778 -3.6797e+001 -1.6599e+002  2.7535e+001 62740 70648,70700,70674
 1.0000e-001 70896 -7.3277e+001 -1.0701e+002  1.6664e+001 62740 70726,70648,70870
 1.0000e-001 70919 -7.4896e+001 -6.5137e+001  3.1493e+001 62740 70726,70870,70752
 1.0000e-001 71022 -2.3076e-001  2.3076e-001  4.6153e+001 62520 70944,70996,70970
 1.0000e-001 71223 -3.7221e+001 -1.7140e+001  2.1234e+001 62230 71073,71151,71099
 1.0000e-001 71200 -2.7206e+001 -1.0462e+001  2.5566e+001 62230 71047,71151,71073
 1.0000e-001 71177 -6.6137e+000 -1.4946e+001  2.2349e+001 62230 71099,71151,71125
 1.0000e-001 71861 -1.9073e+002 -1.9304e+002 -2.6529e+001 61712 71515,71697,71671
 1.0000e-001 71838 -2.2203e+002 -2.7773e+002  1.3740e+001 61712 71489,71697,71515
 1.0000e-001 71815 -1.7821e+002 -1.8802e+002  1.3745e+001 61712 71884,71541,71515
 1.0000e-001 71792 -1.7443e+002 -1.6094e+002  1.7331e+000 61712 71884,71515,71671
 1.0000e-001 71769 -1.3511e+002 -2.0867e+002 -1.9319e+000 61712 71541,71619,71593
 1.0000e-001 71746 -1.7380e+002 -2.7457e+002 -3.3266e+001 61712 71619,71671,71645
 1.0000e-001 71723 -1.0378e+002 -1.9877e+002  2.2031e+000 61712 71541,71593,71567
 1.0000e-001 71910 -1.6845e+002 -2.1056e+002  1.5472e+001 61712 71619,71541,71884
 1.0000e-001 71933 -1.7099e+002 -1.8988e+002  4.9517e+000 61712 71619,71884,71671
 1.0000e-001 72230 -4.0119e+001 -3.0371e+001  2.9027e+000 61208 72253,72060,72008
 1.0000e-001 72207 -5.2581e+001 -2.4192e+001 -7.4560e+000 61208 72253,72008,71982
 1.0000e-001 72184 -5.6422e+001 -1.5893e+001  6.3967e+000 61208 71982,72112,72086
 1.0000e-001 72161 -5.3922e+001 -2.3172e+001  1.8434e+001 61208 72008,72060,72034
 1.0000e-001 72138 -3.3169e+001 -2.1184e+001  1.8646e+001 61208 71956,72112,71982
 1.0000e-001 72279 -2.2436e+001 -2.6666e+001  2.0664e+000 61208 72086,72060,72253
 1.0000e-001 72302 -3.9163e+001 -2.1717e+001 -5.6376e+000 61208 72086,72253,71982
 1.0000e-001 72761 -1.3507e+002 -7.9808e+001  5.9878e+001 60804 72487,72617,72513
 1.0000e-001 72738 -1.1165e+002 -1.7853e+002  3.6977e+001 60804 72487,72643,72617
 1.0000e-001 72715 -3.9681e+001 -5.1887e+001  5.1679e+001 60804 72565,72617,72591
 1.0000e-001 72692 -8.6103e+001 -5.1999e+001  4.8121e+001 60804 72513,72617,72565
 1.0000e-001 72669 -9.4382e+001 -6.7953e+001  5.7406e+001 60804 72513,72565,72539
 1.0000e-001 72911 -2.3076e-001  2.3076e-001  4.6153e+001 60556 72784,72836,72810
 1.0000e-001 72888 -3.1958e+001 -2.1101e+002  4.9164e+001 60556 72784,72862,72836
 1.0000e-001 73468 -8.2198e+001 -5.6227e+001  1.8976e+001 60244 73491,73226,73200
 1.0000e-001 73445 -1.1848e+002 -1.0499e+002  4.3862e+001 60244 73563,73491,73200
 1.0000e-001 73422 -1.5475e+002 -1.0328e+002  5.0252e+001 60244 73563,73200,73174
 1.0000e-001 73399 -7.1596e+001 -1.1361e+002  4.1815e+001 60244 73226,73278,73252
 1.0000e-001 73376 -1.3668e+002 -9.6501e+001  5.2464e+001 60244 73122,73304,73278
 1.0000e-001 73353 -1.3405e+002 -1.6804e+002  6.7503e+001 60244 73096,73304,73122
 1.0000e-001 73330 -2.4977e+002 -1.3108e+002  1.2260e+002 60244 73122,73174,73148
 1.0000e-001 73517 -1.2820e+002 -8.9155e+001  5.5142e+001 60244 73278,73226,73491
 1.0000e-001 73540 -1.2918e+002 -9.1215e+001  5.4832e+001 60244 73278,73491,73122
 1.0000e-001 73589 -1.8059e+002 -9.8758e+001  4.6990e+001 60244 73122,73491,73563
 1.0000e-001 73612 -2.1573e+002 -9.7053e+001  5.5394e+001 60244 73122,73563,73174
 1.0000e-001 73762 -1.2990e+002 -3.0607e+002 -1.8652e+001 59875 73661,73713,73687
 1.0000e-001 73739 -8.7945e+001 -1.0574e+002  1.5020e+001 59875 73635,73713,73661
 1.0000e-001 74191 -4.3764e+000 -1.0471e+001  2.1753e+001 59478 74214,73894,73868
 1.0000e-001 74168 -1.8843e+001 -3.4023e+000  2.3510e+001 59478 74214,73868,74050
 1.0000e-001 74145 -2.6149e+000 -4.1050e+000  1.9148e+001 59478 73894,73946,73920
 1.0000e-001 74122 -1.2237e+001 -5.5566e+000  2.2149e+001 59478 73894,73998,73946
 1.0000e-001 74099 -5.0574e+001 -2.5511e+001  3.0311e+001 59478 73998,74050,74024
 1.0000e-001 74076 -1.6154e+001  9.0506e+000  1.7927e+001 59478 73946,73998,73972
 1.0000e-001 74240 -1.6932e+001 -9.6441e+000  1.7481e+001 59478 73998,73894,74214
 1.0000e-001 74263 -3.2798e+001 -5.2534e+000  1.6744e+001 59478 73998,74214,74050
 1.0000e-001 74720 -8.7050e+001 -1.2762e+002  3.4679e+001 58774 74472,74602,74498
 1.0000e-001 74697 -1.3082e+002 -1.0883e+002  5.2902e+001 58774 74446,74602,74472
 1.0000e-001 74674 -7.2025e+001 -7.5967e+001  3.5097e+001 58774 74498,74576,74524
 1.0000e-001 74651 -1.0131e+002 -1.0000e+002  2.1927e+001 58774 74498,74602,74576
 1.0000e-001 74628 -7.2779e+001 -9.6732e+001  4.2659e+001 58774 74524,74576,74550
 1.0000e-001 75226 -5.5614e+001 -3.3157e+001  2.5540e+001 58270 74955,75085,75033
 1.0000e-001 75203 -4.4849e+001 -4.9600e+001  2.9974e+001 58270 74929,75085,74955
 1.0000e-001 75180 -8.9555e+001 -4.8723e+001  5.2778e+001 58270 75033,75085,75059
 1.0000e-001 75157 -8.6267e+001 -4.7304e+001  2.1989e+001 58270 74955,75007,74981
 1.0000e-001 75134 -6.1881e+001 -3.4362e+001  1.5426e+001 58270 74955,75033,75007
 1.0000e-001 75111  3.7250e+000 -5.5927e+001  5.1447e+000 58270 74903,75085,74929
 1.0000e-001 75425 -2.4833e+001  8.8672e+000  2.9101e+000 57830 75448,75301,75249
 1.0000e-001 75402 -1.4384e+001 -1.8556e+001  1.1694e+001 57830 75448,75249,75353
 1.0000e-001 75379 -7.9634e+000  2.4824e+000 -7.7192e+000 57830 75520,75301,75275
 1.0000e-001 75474 -1.7752e+001  1.8163e+001  7.2912e+000 57830 75327,75301,75448
 1.0000e-001 75497  2.7672e+000  1.0808e+001  2.0224e+001 57830 75327,75448,75353
 1.0000e-001 75546 -2.3776e+001  7.9798e-001 -2.0183e+000 57830 75249,75301,75520
 1.0000e-001 76261 -5.4397e+001 -1.0850e+002  3.5588e+001 57426 76284,76097,76071
 1.0000e-001 76238 -1.2405e+001 -6.6700e+001  3.2959e+001 57426 75889,76097,75915
 1.0000e-001 76215 -7.4537e+001 -1.2038e+002  2.9595e+001 57426 76428,76284,76071
 1.0000e-001 76192 -8.5382e+001 -1.2096e+002  2.6857e+001 57426 76356,75941,75915
 1.0000e-001 76169 -8.2415e+001 -1.0081e+002  2.4052e+001 57426 76428,76071,76019
 1.0000e-001 76146 -8.6399e+001 -1.2452e+002  1.2986e+001 57426 76019,76071,76045
 1.0000e-001 76123 -5.1800e+001 -9.1183e+001  3.4424e+001 57426 75967,76019,75993
 1.0000e-001 76310 -5.3488e+001 -1.0077e+002  1.8313e+001 57426 75915,76097,76284
 1.0000e-001 76333 -7.8317e+001 -1.1429e+002  2.3685e+001 57426 76356,75915,76284
 1.0000e-001 76382 -6.9227e+001 -1.2788e+002  1.9548e+001 57426 75967,75941,76356
 1.0000e-001 76405 -6.5726e+001 -1.2513e+002  1.7374e+001 57426 75967,76356,76284
 1.0000e-001 76454 -5.5671e+001 -1.0496e+002  2.2595e+001 57426 75967,76284,76428
 1.0000e-001 76477 -7.5073e+001 -9.6252e+001  2.1579e+001 57426 75967,76428,76019
 1.0000e-001 76953 -9.5650e+001 -1.6695e+002  2.0993e+001 56908 76976,76711,76685
 1.0000e-001 76930 -1.0027e+002 -1.7790e+002  2.0996e+001 56908 77048,76976,76685
 1.0000e-001 76907 -1.0745e+002 -1.9022e+002  2.4038e+001 56908 77048,76685,76633
 1.0000e-001 76884 -1.1609e+002 -1.9890e+002  2.9810e+001 56908 76711,76789,76763
 1.0000e-001 76861 -8.2439e+001 -1.2688e+002  4.1781e+001 56908 76581,76789,76607
 1.0000e-001 76838 -1.1891e+002 -1.9858e+002  2.1888e+001 56908 76711,76763,76737
 1.0000e-001 76815 -1.0174e+002 -1.9880e+002  4.2565e+001 56908 76633,76685,76659
 1.0000e-001 77002 -1.0210e+002 -1.7047e+002  2.3130e+001 56908 76789,76711,76976
 1.0000e-001 77025 -9.9642e+001 -1.5283e+002  2.0083e+001 56908 76789,76976,76607
 1.0000e-001 77074 -1.1216e+002 -1.6687e+002  2.6276e+001 56908 76607,76976,77048
 1.0000e-001 77097 -1.1519e+002 -1.7357e+002  2.7202e+001 56908 76607,77048,76633
 1.0000e-001 77475 -1.1944e+002 -2.3319e+002  2.1497e+001 56546 77570,77498,77279
 1.0000e-001 77452 -1.3029e+002 -2.4663e+002  1.0478e+001 56546 77498,77227,77357
 1.0000e-001 77429 -1.2490e+002 -2.3304e+002  3.5755e+001 56546 77570,77279,77253
 1.0000e-001 77406 -6.7078e+001 -2.2469e+002  2.0943e+001 56546 77201,77357,77227
 1.0000e-001 77383 -1.1452e+002 -2.0928e+002  5.2824e+001 56546 77279,77331,77305
 1.0000e-001 77524 -1.2644e+002 -2.5477e+002  1.9807e+001 56546 77331,77279,77498
 1.0000e-001 77547 -1.0258e+002 -2.4008e+002  1.3603e+001 56546 77331,77498,77357
 1.0000e-001 77596 -1.4633e+002 -2.4361e+002  1.5578e+001 56546 77227,77498,77570
 1.0000e-001 77619 -1.4033e+002 -2.3271e+002  3.1720e+001 56546 77227,77570,77253
 1.0000e-001 77818 -1.1622e+002 -1.9162e+002  2.4128e+001 56042 77841,77694,77668
 1.0000e-001 77795 -1.1524e+002 -1.9054e+002  2.2485e+001 56042 77841,77668,77746
 1.0000e-001 77772 -9.5027e+001 -2.0360e+002  2.9016e+001 56042 77642,77746,77668
 1.0000e-001 77867 -1.1710e+002 -1.9301e+002  2.5018e+001 56042 77720,77694,77841
 1.0000e-001 77890 -1.1593e+002 -1.9171e+002  2.3346e+001 56042 77720,77841,77746
 1.0000e-001 78349 -1.6801e+001 -1.2127e+001  1.7296e+001 55538 78075,78127,78101
 1.0000e-001 78326 -2.6379e+001 -2.5311e+001  1.1218e+001 55538 78075,78205,78127
 1.0000e-001 78303 -5.2876e+001 -1.4211e+001  2.4181e+001 55538 78075,78231,78205
 1.0000e-001 78280 -1.6138e+001 -2.9847e+001  1.4311e+001 55538 78127,78179,78153
 1.0000e-001 78257 -1.7023e+001 -2.5279e+001  1.0086e+001 55538 78127,78205,78179
 1.0000e-001 78806 -6.5063e+001 -1.3611e+002  7.9883e+000 55034 78829,78636,78610
 1.0000e-001 78783 -8.5825e+001 -1.2663e+002  1.7181e+001 55034 78901,78829,78610
 1.0000e-001 78760 -5.1323e+001 -1.2947e+002  2.2927e+001 55034 78901,78610,78584
 1.0000e-001 78737 -8.9063e+001 -1.2012e+002  2.0670e+001 55034 78558,78688,78662
 1.0000e-001 78714 -9.4681e+001 -1.2907e+002  4.0975e+001 55034 78532,78688,78558
 1.0000e-001 78855 -9.4774e+001 -1.8784e+002 -1.2241e+001 55034 78662,78636,78829
 1.0000e-001 78878 -8.5894e+001 -1.2474e+002  2.0720e+001 55034 78662,78829,78558
 1.0000e-001 78927 -5.9403e+001 -1.0940e+002  3.9558e+001 55034 78558,78829,78901
 1.0000e-001 78950 -4.7215e+001 -1.1994e+002  4.8181e+001 55034 78558,78901,78584
 1.0000e-001 79407 -7.0759e+001 -5.0088e+001  2.3420e+001 54430 79430,79237,79159
 1.0000e-001 79384 -6.5552e+001 -5.9254e+001  1.1602e+001 54430 79430,79159,79133
 1.0000e-001 79361 -7.6869e+001 -6.2570e+001  1.8819e+001 54430 79237,79289,79263
 1.0000e-001 79338 -7.1369e+001 -5.7147e+001  3.4392e+001 54430 79185,79237,79211
 1.0000e-001 79315 -7.6945e+001 -6.2667e+001  2.7785e+001 54430 79159,79237,79185
 1.0000e-001 79456 -7.3928e+001 -6.2011e+001  2.0906e+001 54430 79289,79237,79430
 1.0000e-001 79479 -7.0564e+001 -7.7606e+001  1.1536e+001 54430 79289,79430,79133
 1.0000e-001 79936 -5.5201e+001 -5.5617e+001  2.9837e+001 53919 79662,79766,79688
 1.0000e-001 79913 -1.1202e+002 -7.4686e+001  5.0917e+001 53919 79662,79818,79766
 1.0000e-001 79890 -9.2864e+001 -2.1726e+001  4.9799e+001 53919 79766,79818,79792
 1.0000e-001 79867 -8.5129e+001 -5.0684e+001  3.6426e+001 53919 79714,79766,79740
 1.0000e-001 79844 -7.0382e+001 -5.8356e+001  2.6544e+001 53919 79688,79766,79714
 1.0000e-001 80037  5.3564e+000  1.1213e+001  3.8505e+000 53671 79959,80011,79985
 1.0000e-001 80405 -1.2689e+001  1.5342e+001 -5.5407e+000 53267 80108,80264,80238
 1.0000e-001 80382  1.1824e+000  3.0310e-001 -1.3119e+001 53267 80082,80264,80108
 1.0000e-001 80359  2.3847e+000  4.3294e+000  4.6666e+000 53267 80108,80238,80134
 1.0000e-001 80336 -5.1231e-001  1.4637e+000  3.5292e+000 53267 80134,80212,80186
 1.0000e-001 80313 -3.9389e+000  9.1768e-001  3.2474e+000 53267 80134,80238,80212
 1.0000e-001 80290 -9.2252e-002 -1.6800e+000  1.0670e+000 53267 80134,80186,80160
 1.0000e-001 80915 -2.4159e+001 -5.3439e+000 -7.0131e-002 52969 80644,80774,80748
 1.0000e-001 80892 -1.8589e+001 -1.4946e+001  6.5020e+000 52969 80618,80774,80644
 1.0000e-001 80869 -3.0068e+001 -3.4325e+000  2.2741e+000 52969 80644,80748,80670
 1.0000e-001 80846  1.3113e+000 -9.7859e+000  4.2188e+000 52969 80592,80774,80618
 1.0000e-001 80823 -2.4185e+001 -1.3138e+001  6.7502e+000 52969 80670,80722,80696
 1.0000e-001 80800 -2.9257e+001 -1.5233e+001  5.3678e+000 52969 80670,80748,80722
 1.0000e-001 81266 -1.2451e+002 -2.6249e+002  8.9233e+000 52565 81041,81145,81067
 1.0000e-001 81243 -1.3508e+002 -3.1613e+002  9.8585e+000 52565 81041,81171,81145
 1.0000e-001 81220 -8.6696e+001 -2.2266e+002  1.0280e+001 52565 81067,81119,81093
 1.0000e-001 81197 -9.4881e+001 -2.2162e+002  2.2529e+001 52565 81067,81145,81119
 1.0000e-001 81723 -1.2654e+002 -2.2775e+002  1.1359e+001 51904 81449,81527,81475
 1.0000e-001 81700 -1.2232e+002 -2.2205e+002  8.0848e+000 51904 81449,81579,81527
 1.0000e-001 81677 -9.5093e+001 -2.1764e+002  6.2180e+000 51904 81449,81605,81579
 1.0000e-001 81654 -1.1499e+002 -1.9625e+002  1.7229e+001 51904 81527,81579,81553
 1.0000e-001 81631 -1.3644e+002 -2.2836e+002  9.6117e+000 51904 81475,81527,81501
 1.0000e-001 82327 -8.0352e+001 -1.1897e+002  3.1636e+001 51321 82422,82350,82036
 1.0000e-001 82304 -6.4866e+001 -1.1378e+002  2.3379e+001 51321 82494,82350,81958
 1.0000e-001 82281 -8.0621e+001 -1.1527e+002  2.7218e+001 51321 82422,82036,82010
 1.0000e-001 82258 -4.1738e+001 -9.8493e+001  1.3040e+001 51321 82494,81958,81932
 1.0000e-001 82235 -6.2079e+001 -1.1691e+002  4.1310e+001 51321 82062,82114,82088
 1.0000e-001 82212 -9.4604e+001 -9.7702e+001  2.1503e+001 51321 81932,82140,82114
 1.0000e-001 82189 -6.8068e+001 -1.2470e+002  2.4299e+001 51321 81958,82010,81984
 1.0000e-001 82166 -8.4247e+001 -9.2227e+001  6.8343e+001 51321 81906,82140,81932
 1.0000e-001 82376 -6.7970e+001 -1.2743e+002  3.5035e+001 51321 82062,82036,82350
 1.0000e-001 82399 -6.9931e+001 -1.2441e+002  3.5354e+001 51321 82062,82350,82114
 1.0000e-001 82448 -7.3745e+001 -1.1828e+002  2.6999e+001 51321 81958,82350,82422
 1.0000e-001 82471 -7.3355e+001 -1.1445e+002  2.2571e+001 51321 81958,82422,82010
 1.0000e-001 82520 -5.9673e+001 -1.2143e+002  3.5746e+001 51321 82114,82350,82494
 1.0000e-001 82543 -5.7961e+001 -1.1780e+002  2.8207e+001 51321 82114,82494,81932
 1.0000e-001 83019 -3.8855e+001 -3.9078e+001  1.0538e+001 50817 82673,82751,82699
 1.0000e-001 82996 -5.2205e+001 -4.3011e+001  1.9504e+001 50817 83042,82673,82855
 1.0000e-001 82973 -5.9381e+001 -3.9398e+001  1.7070e+001 50817 83042,82855,82803
 1.0000e-001 82950 -4.4785e+001 -3.8934e+001  8.0498e+000 50817 82751,82803,82777
 1.0000e-001 82927 -5.2480e+001 -5.3964e+001  6.8450e+000 50817 82647,82855,82673
 1.0000e-001 82904 -6.2902e+001 -5.1576e+001  1.6104e+001 50817 82803,82855,82829
 1.0000e-001 82881 -3.6516e+001 -3.2680e+001  1.0914e+001 50817 82699,82751,82725
 1.0000e-001 83068 -4.1570e+001 -4.0251e+001  1.9256e+001 50817 82751,82673,83042
 1.0000e-001 83091 -5.2466e+001 -3.9046e+001  1.7601e+001 50817 82751,83042,82803
 1.0000e-001 83290 -9.7784e+001 -1.3889e+002  4.3024e+001 50356 83313,83166,83140
 1.0000e-001 83267 -9.9978e+001 -1.5566e+002  3.7360e+001 50356 83515,83313,83140
 1.0000e-001 83244 -9.6144e+001 -1.4648e+002  3.8078e+001 50356 83515,83140,83385
 1.0000e-001 83339 -9.4060e+001 -1.5325e+002  3.6255e+001 50356 83192,83166,83313
 1.0000e-001 83362 -1.0527e+002 -1.7109e+002  2.0964e+001 50356 83192,83313,83218
 1.0000e-001 83411 -5.7593e+001 -1.5519e+002  4.5148e+001 50356 83114,83218,83385
 1.0000e-001 83541 -1.0215e+002 -1.4608e+002  3.0854e+001 50356 83218,83313,83515
 1.0000e-001 83564 -1.0178e+002 -1.4416e+002  3.0275e+001 50356 83218,83515,83385
 1.0000e-001 83893 -2.5308e+001 -6.2303e+000  8.0592e+000 49552 83720,83798,83746
 1.0000e-001 83870 -3.2587e+001 -1.3811e+001  3.2230e+000 49552 83694,83798,83720
 1.0000e-001 83847 -3.2881e+001 -1.2155e+000  8.4896e+000 49552 83668,83798,83694
 1.0000e-001 83824 -1.7865e+001  5.1167e+000  3.0624e+000 49552 83746,83798,83772
 1.0000e-001 84141 -8.7519e+001 -1.4833e+002  2.5944e+001 49212 84164,84020,83942
 1.0000e-001 84118 -1.0032e+002 -1.7755e+002  3.3239e+001 49212 84164,83942,83916
 1.0000e-001 84095 -8.1126e+001 -1.4471e+002  2.7404e+001 49212 83942,84020,83968
 1.0000e-001 84072 -9.1779e+001 -1.6759e+002  2.4087e+001 49212 83968,84020,83994
 1.0000e-001 84190 -9.4534e+001 -1.6216e+002  4.1488e+001 49212 84046,84020,84164
 1.0000e-001 84213 -9.9434e+001 -1.7891e+002  4.7989e+001 49212 84046,84164,83916
 1.0000e-001 84800 -9.8293e+001 -1.8755e+002  2.1743e+001 48865 84503,84633,84555
 1.0000e-001 84777 -1.0579e+002 -2.2062e+002  1.3102e+001 48865 84503,84659,84633
 1.0000e-001 84754 -1.4242e+002 -2.9108e+002  2.3060e+001 48865 84555,84633,84581
 1.0000e-001 84731 -1.0144e+002 -2.6554e+002  1.1253e+001 48865 84581,84633,84607
 1.0000e-001 84708 -1.1066e+002 -2.0484e+002  3.3670e+001 48865 84503,84555,84529
 1.0000e-001 84685 -1.0129e+002 -2.0233e+002  3.8108e+001 48865 84477,84659,84503
 1.0000e-001 85355 -4.9690e+001 -5.6872e+001  1.1755e+001 48461 85378,85035,85009
 1.0000e-001 85332 -5.3496e+001 -6.6167e+001  1.3190e+001 48461 85378,85009,85165
 1.0000e-001 85309 -5.6397e+001 -5.5483e+001  1.4299e+001 48461 85450,85061,85035
 1.0000e-001 85286 -5.2424e+001 -6.3656e+001  1.0460e+001 48461 85009,85191,85165
 1.0000e-001 85263 -5.0033e+001 -4.4911e+001  1.8427e+001 48461 85087,85165,85113
 1.0000e-001 85240 -7.2699e+001 -5.7466e+001  2.3715e+001 48461 84983,85191,85009
 1.0000e-001 85217 -4.7308e+001 -5.3059e+001  1.1155e+001 48461 85113,85165,85139
 1.0000e-001 85404 -5.5356e+001 -6.0492e+001  1.6242e+001 48461 85450,85035,85378
 1.0000e-001 85427 -5.6126e+001 -6.0491e+001  1.8048e+001 48461 85087,85378,85165
 1.0000e-001 85476 -5.5159e+001 -4.9647e+001  1.3914e+001 48461 85087,85061,85450
 1.0000e-001 85499 -5.3012e+001 -5.2578e+001  1.6387e+001 48461 85087,85450,85378
 1.0000e-001 86084 -6.0937e+001 -8.1118e+001  2.4802e+001 48057 86323,86107,85787
 1.0000e-001 86061 -5.1971e+001 -8.5038e+001  2.3276e+001 48057 86107,85761,85943
 1.0000e-001 86038 -6.6856e+001 -8.9547e+001  2.2899e+001 48057 86251,86179,85891
 1.0000e-001 86015 -6.8799e+001 -8.5694e+001  1.6065e+001 48057 86251,85891,85839
 1.0000e-001 85992 -4.9310e+001 -8.8261e+001  1.8693e+001 48057 85891,85943,85917
 1.0000e-001 85969 -5.0340e+001 -1.1243e+002  2.3355e-002 48057 85839,85891,85865
 1.0000e-001 86133 -6.1205e+001 -9.1021e+001  3.1371e+001 48057 85813,85787,86107
 1.0000e-001 86156 -5.3428e+001 -8.2075e+001  2.7660e+001 48057 86179,85813,86107
 1.0000e-001 86205 -5.6196e+001 -9.2572e+001  2.3979e+001 48057 85943,85891,86179
 1.0000e-001 86228 -5.3398e+001 -8.8643e+001  2.2660e+001 48057 85943,86179,86107
 1.0000e-001 86277 -5.1749e+001 -8.5292e+001  2.3046e+001 48057 85813,86179,86251
 1.0000e-001 86300 -6.0801e+001 -8.5473e+001  1.7016e+001 48057 85813,86251,85839
 1.0000e-001 86349 -3.6153e+001 -8.0810e+001  2.1504e+001 48057 85761,86107,86323
 1.0000e-001 86855 -3.2301e+001 -1.3424e+002  3.5411e+001 47545 86878,86584,86558
 1.0000e-001 86832 -7.2203e+001 -1.5035e+002  2.7801e+001 47545 86950,86878,86558
 1.0000e-001 86809 -8.1325e+001 -1.6258e+002  2.2210e+001 47545 86950,86558,86532
 1.0000e-001 86786 -3.7485e+001 -1.1216e+002  1.4079e+001 47545 86584,86662,86610
 1.0000e-001 86763 -8.6473e+001 -1.8331e+002  1.3678e+001 47545 86532,86714,86688
 1.0000e-001 86740 -6.1988e+001 -1.5018e+002  1.7903e+000 47545 86610,86662,86636
 1.0000e-001 86904 -6.6715e+001 -1.2650e+002  8.5259e+000 47545 86662,86584,86878
 1.0000e-001 86927 -1.0040e+002 -1.4520e+002  1.6249e+001 47545 86662,86878,86688
 1.0000e-001 86976 -6.7422e+001 -1.6958e+002  1.6577e+001 47545 86688,86878,86950
 1.0000e-001 86999 -7.6692e+001 -1.7596e+002  1.0476e+001 47545 86688,86950,86532
 1.0000e-001 87328 -7.5040e+000 -2.0321e+001  4.1817e+000 47048 87155,87207,87181
 1.0000e-001 87305 -2.6419e+001 -2.1246e+001  1.0038e+001 47048 87129,87207,87155
 1.0000e-001 87282 -2.2554e+001 -1.8067e+001  8.5705e+000 47048 87103,87207,87129
 1.0000e-001 87259 -1.9113e+001 -8.6957e+000  6.4448e+000 47048 87103,87233,87207
 1.0000e-001 87576 -1.2654e+001  5.5061e+000  9.3855e-001 46701 87599,87429,87377
 1.0000e-001 87553 -9.0127e+000  9.8175e-001  3.4044e+000 46701 87599,87377,87481
 1.0000e-001 87530 -1.7470e+001 -1.2136e+000  9.6011e+000 46701 87351,87481,87377
 1.0000e-001 87507 -9.4942e+000 -2.2304e+000 -3.3527e+000 46701 87377,87429,87403
 1.0000e-001 87625 -1.0421e+001  1.2468e+001  1.3280e+000 46701 87455,87429,87599
 1.0000e-001 87648 -8.8568e+000  5.1227e+000  4.3655e+000 46701 87455,87599,87481
 1.0000e-001 87798  4.5685e-001  1.8636e-001  1.2528e+000 46239 87697,87749,87723
 1.0000e-001 87775  3.9030e-001 -5.3509e-001  1.3851e+000 46239 87671,87749,87697
 1.0000e-001 88308 -2.7600e+001 -3.4102e+001  6.8218e+000 45735 88089,88167,88141
 1.0000e-001 88285 -2.4065e+001 -3.1504e+001  8.8329e+000 45735 88011,88167,88089
 1.0000e-001 88262 -3.5670e+001 -3.4337e+001  1.2598e+001 45735 87985,88167,88011
 1.0000e-001 88239 -3.7971e+001 -4.1832e+001  1.4352e+001 45735 88011,88089,88063
 1.0000e-001 88216 -3.0109e+001 -3.5274e+001  5.4259e+000 45735 88089,88141,88115
 1.0000e-001 88193 -3.1449e+001 -5.0534e+001  2.7860e+001 45735 88011,88063,88037
 1.0000e-001 88686 -1.1582e+002 -2.3619e+002  2.2903e+001 45316 88438,88516,88490
 1.0000e-001 88663 -8.1870e+001 -1.7221e+002  7.7075e+000 45316 88438,88542,88516
 1.0000e-001 88640 -8.5573e+001 -2.0040e+002  1.3239e+001 45316 88438,88568,88542
 1.0000e-001 88617 -1.5632e+002 -2.6859e+002  8.6826e+000 45316 88438,88490,88464
 1.0000e-001 88594 -5.1331e+001 -1.7291e+002  2.7725e+001 45316 88412,88568,88438
 1.0000e-001 88934 -9.7790e+001 -1.4992e+002  4.4717e+001 44812 88957,88735,88709
 1.0000e-001 88911 -8.4999e+001 -1.3283e+002  3.5944e+001 44812 88957,88709,88839
 1.0000e-001 88888 -9.1080e+001 -1.3574e+002  2.9732e+001 44812 89029,88787,88761
 1.0000e-001 88865 -9.5012e+001 -1.0617e+002  4.6160e+001 44812 88787,88839,88813
 1.0000e-001 88983 -7.0268e+001 -1.3627e+002  3.9724e+001 44812 88761,88735,88957
 1.0000e-001 89006 -8.0419e+001 -1.3597e+002  2.9746e+001 44812 89029,88761,88957
 1.0000e-001 89055 -9.8691e+001 -1.3475e+002  3.0266e+001 44812 88839,88787,89029
 1.0000e-001 89078 -9.2934e+001 -1.3894e+002  3.2347e+001 44812 88839,89029,88957
 1.0000e-001 89228 -1.8930e+002 -4.4724e+002 -4.6038e+001 44408 89127,89179,89153
 1.0000e-001 89205 -2.4303e+002 -6.3608e+002  3.5182e+000 44408 89101,89179,89127
 1.0000e-001 89787 -5.5781e+001 -5.4352e+001  1.6532e+001 43854 89810,89545,89519
 1.0000e-001 89764 -5.7337e+001 -6.1508e+001  2.1024e+001 43854 89810,89519,89467
 1.0000e-001 89741 -4.7895e+001 -7.3505e+001  2.5994e+001 43854 89954,89882,89597
 1.0000e-001 89718 -5.0773e+001 -7.0909e+001  3.0892e+001 43854 89954,89597,89571
 1.0000e-001 89695 -4.8500e+001 -8.4575e+001  1.7868e+001 43854 89415,89623,89467
 1.0000e-001 89672 -5.5454e+001 -5.9439e+001  2.0232e+001 43854 89467,89519,89493
 1.0000e-001 89649 -5.3527e+001 -7.3324e+001  2.1218e+001 43854 89415,89467,89441
 1.0000e-001 89836 -6.0355e+001 -5.7721e+001  1.9984e+001 43854 89882,89545,89810
 1.0000e-001 89859 -4.6692e+001 -6.1981e+001  1.5031e+001 43854 89623,89810,89467
 1.0000e-001 89908 -5.6335e+001 -1.0514e+002  3.1200e+001 43854 89623,89597,89882
 1.0000e-001 89931 -5.7438e+001 -8.4491e+001  1.8684e+001 43854 89623,89882,89810
 1.0000e-001 89980 -6.0895e+001 -7.9209e+001  2.4391e+001 43854 89545,89882,89954
 1.0000e-001 90003 -6.7694e+001 -7.7306e+001  2.9837e+001 43854 89545,89954,89571
 1.0000e-001 90251 -6.3751e+001 -1.4540e+002  2.1375e+001 43492 90026,90078,90052
 1.0000e-001 90228 -5.9368e+001 -1.1163e+002  3.1269e+001 43492 90274,90026,90156
 1.0000e-001 90205 -5.7046e+001 -1.1407e+002  3.1404e+001 43492 90346,90274,90156
 1.0000e-001 90182 -5.6319e+001 -1.1470e+002  3.5013e+001 43492 90346,90156,90130
 1.0000e-001 90300 -5.5632e+001 -1.1490e+002  3.2793e+001 43492 90078,90026,90274
 1.0000e-001 90323 -5.9847e+001 -1.1985e+002  2.8797e+001 43492 90078,90274,90104
 1.0000e-001 90372 -6.2603e+001 -1.1586e+002  3.0843e+001 43492 90104,90274,90346
 1.0000e-001 90395 -6.1576e+001 -1.1622e+002  3.4519e+001 43492 90104,90346,90130
 1.0000e-001 90594  6.0832e-001 -3.2839e-002  1.2992e+000 43052 90418,90496,90444
 1.0000e-001 90571  1.5468e+000  1.0881e+000  8.7047e-001 43052 90418,90522,90496
 1.0000e-001 90548  2.1569e+000  7.1828e-001  1.6047e+000 43052 90444,90496,90470
 1.0000e-001 91074 -4.8089e+000 -5.2742e+000  2.3433e-001 42434 91241,90884,90858
 1.0000e-001 91051  5.1004e+000  7.5699e+000 -8.8417e+000 42434 90702,90910,90884
 1.0000e-001 91028 -4.8526e-002 -4.2966e+000 -3.1537e+000 42434 91097,90754,90702
 1.0000e-001 91005 -2.9101e+000 -5.0381e+000 -9.3040e-001 42434 91241,90858,91097
 1.0000e-001 90982 -2.3643e+000 -3.0826e+000 -1.7311e+000 42434 91169,90806,90780
 1.0000e-001 90959 -1.2360e+000 -1.6256e-001 -9.1832e-001 42434 90806,90858,90832
 1.0000e-001 90936 -1.1191e+001 -6.4945e+000 -4.9538e+000 42434 90702,90754,90728
 1.0000e-001 91123 -5.9124e+000 -6.1456e+000 -3.7392e+000 42434 90780,90754,91097
 1.0000e-001 91146 -1.9736e+000 -2.6667e+000 -2.1682e+000 42434 91169,90780,91097
 1.0000e-001 91195 -2.5228e+000 -3.2977e+000 -1.4641e+000 42434 90858,90806,91169
 1.0000e-001 91218 -2.4323e+000 -3.5093e+000 -1.8501e+000 42434 90858,91169,91097
 1.0000e-001 91267 -1.9082e+000 -5.5952e+000 -3.8955e-001 42434 90702,90884,91241
 1.0000e-001 91290  1.0261e-001 -5.4210e+000 -1.4366e+000 42434 90702,91241,91097
 1.0000e-001 91698 -2.8679e+001 -5.8933e+001  9.6572e+000 41773 91473,91577,91499
 1.0000e-001 91675 -3.2575e+001 -5.9407e+001  8.8560e+000 41773 91473,91603,91577
 1.0000e-001 91652 -4.6207e+001 -4.2986e+001  8.6841e+000 41773 91499,91551,91525
 1.0000e-001 91629 -4.6249e+001 -4.4845e+001  1.4595e+001 41773 91499,91577,91551
 1.0000e-001 92044 -7.7395e+001 -1.2643e+002  1.9168e+001 41383 91773,91877,91851
 1.0000e-001 92021 -5.4308e+001 -1.2656e+002  9.0786e+000 41383 91747,91877,91773
 1.0000e-001 91998 -7.0396e+001 -1.1861e+002  1.5668e+001 41383 91773,91851,91799
 1.0000e-001 91975 -2.5612e+001 -1.4867e+002  3.1606e+001 41383 91747,91903,91877
 1.0000e-001 91952  5.7459e+000 -1.4066e+002  2.6261e+001 41383 91721,91903,91747
 1.0000e-001 91929 -6.9949e+001 -1.1712e+002  1.7106e+001 41383 91799,91851,91825
 1.0000e-001 92601 -3.4242e+001 -4.0563e+001  5.4883e+000 40979 92229,92411,92307
 1.0000e-001 92578 -3.7899e+001 -3.6187e+001  2.7098e+000 40979 92229,92437,92411
 1.0000e-001 92555 -3.3683e+001 -3.5613e+001  6.8186e+000 40979 92229,92307,92281
 1.0000e-001 92532 -3.4684e+001 -2.7574e+001  3.7149e+000 40979 92333,92411,92385
 1.0000e-001 92509 -3.2270e+001 -3.2662e+001  9.1139e+000 40979 92307,92411,92333
 1.0000e-001 92486 -3.1425e+001 -3.0608e+001  7.3917e+000 40979 92229,92281,92255
 1.0000e-001 92463 -2.8369e+001 -2.1680e+001  7.5265e+000 40979 92333,92385,92359
 1.0000e-001 93235 -7.0093e+000 -5.6556e+000 -5.5825e+000 40525 92941,92993,92967
 1.0000e-001 93212 -9.9123e+000 -3.5662e+000  1.0852e-001 40525 93258,92941,92889
 1.0000e-001 93189 -1.3261e+001 -6.9238e+000  3.2532e+000 40525 93258,92889,93071
 1.0000e-001 93166 -2.6565e+000 -4.8550e+000 -2.6903e+000 40525 92889,92941,92915
 1.0000e-001 93143 -7.7967e-001 -1.3053e+001  2.2588e+000 40525 92863,93071,92889
 1.0000e-001 93120 -2.0991e+001 -1.4113e+001  2.4019e+000 40525 92993,93071,93019
 1.0000e-001 93097 -2.4923e+001 -1.1753e+001  2.1329e+000 40525 93019,93071,93045
 1.0000e-001 93284 -7.4103e+000  2.9338e+000 -4.5637e+000 40525 92993,92941,93258
 1.0000e-001 93307 -1.5388e+001 -4.7917e+000 -5.7151e-001 40525 92993,93258,93071
 1.0000e-001 93636 -4.3994e+001 -6.9348e+001  1.0963e+001 40235 93437,93541,93515
 1.0000e-001 93613 -3.3117e+001 -5.4674e+001  1.7891e+001 40235 93411,93541,93437
 1.0000e-001 93590 -2.9564e+001 -5.9886e+001  1.0647e+001 40235 93463,93515,93489
 1.0000e-001 93567 -3.6189e+001 -6.5173e+001  8.1148e+000 40235 93437,93515,93463
 1.0000e-001 94014 -1.0270e+002 -1.9278e+002  1.6229e+001 39873 93766,93870,93792
 1.0000e-001 93991 -1.1073e+002 -1.7614e+002  3.2172e+001 39873 93766,93896,93870
 1.0000e-001 93968 -8.4978e+001 -1.4199e+002  2.4583e+001 39873 93792,93870,93844
 1.0000e-001 93945 -7.8415e+001 -1.4876e+002  3.5791e+001 39873 93792,93844,93818
 1.0000e-001 93922 -9.1842e+001 -1.6215e+002  5.0243e+001 39873 93740,93896,93766
 1.0000e-001 94164  2.0622e-001 -9.7122e-001  1.3046e+000 39461 94037,94089,94063
 1.0000e-001 94141  4.6249e-001  1.6902e+000  6.1898e-001 39461 94037,94115,94089
 1.0000e-001 94363 -2.5554e+001 -9.2391e+001  1.9567e+001 39057 94386,94239,94213
 1.0000e-001 94340 -4.3243e+001 -1.0401e+002  2.4668e+001 39057 94386,94213,94187
 1.0000e-001 94317 -6.4904e+001 -1.2562e+002  2.1110e+001 39057 94187,94291,94265
 1.0000e-001 94412 -4.7692e+001 -1.0912e+002  2.2488e+001 39057 94458,94386,94265
 1.0000e-001 94435 -4.2829e+001 -1.0633e+002  1.2866e+001 39057 94265,94386,94187
 1.0000e-001 94484 -2.9549e+001 -6.5974e+001  1.5598e+001 39057 94239,94386,94458
 1.0000e-001 94896 -5.2981e+001 -7.4541e+001  9.3075e+000 38396 94919,94775,94723
 1.0000e-001 94873 -4.4449e+001 -7.8623e+001  8.8366e+000 38396 94919,94723,94697
 1.0000e-001 94850 -2.2348e+001 -6.1459e+001  8.1352e+000 38396 94723,94775,94749
 1.0000e-001 94827 -3.3354e+001 -7.6129e+001  1.2732e+001 38396 94671,94801,94697
 1.0000e-001 94945 -5.6369e+001 -7.7496e+001  1.0599e+001 38396 94801,94775,94919
 1.0000e-001 94968 -5.1036e+001 -8.3990e+001  1.1236e+001 38396 94801,94919,94697
 1.0000e-001 95265 -3.1985e+001 -3.7178e+001  5.3388e+000 37835 95017,95069,95043
 1.0000e-001 95242 -3.1897e+001 -4.4236e+001  4.7767e+000 37835 95288,95069,95017
 1.0000e-001 95219 -3.4355e+001 -4.4283e+001  3.4429e+000 37835 95288,95017,94991
 1.0000e-001 95196 -3.7017e+001 -4.9797e+001  2.6171e+000 37835 94991,95147,95121
 1.0000e-001 95173 -2.5102e+001 -4.2027e+001  4.5505e+000 37835 95069,95121,95095
 1.0000e-001 95314 -3.3662e+001 -4.5678e+001  3.4804e+000 37835 95121,95069,95288
 1.0000e-001 95337 -3.5456e+001 -4.4892e+001  2.2942e+000 37835 95121,95288,94991
 1.0000e-001 95558 -6.3929e+001 -1.4929e+002  2.4568e+001 37423 95408,95460,95434
 1.0000e-001 95535 -9.1590e+001 -2.1917e+002  2.5803e+001 37423 95382,95460,95408
 1.0000e-001 95512 -9.8934e+001 -2.3071e+002  3.0117e+001 37423 95382,95486,95460
 1.0000e-001 95891  3.6409e-001 -6.4436e-001  6.7715e-001 37225 95666,95718,95692
 1.0000e-001 95868  2.2061e-001  5.7792e-001  6.9837e-001 37225 95666,95796,95718
 1.0000e-001 95845  1.5143e+000  1.3094e-002  1.5655e-001 37225 95718,95770,95744
 1.0000e-001 95822 -3.6434e-002 -2.1967e-003  7.5241e-001 37225 95718,95796,95770
 1.0000e-001 95992 -6.2534e+001 -1.4605e+002  2.4328e+001 36735 95914,95966,95940
 1.0000e-001 96142 -7.6846e+001 -1.3571e+002  3.5367e+001 36331 96297,96067,96041
 1.0000e-001 96119 -4.0891e+001 -1.1291e+002  3.5630e+001 36331 96165,96041,96015
 1.0000e-001 96191 -8.2282e+001 -1.4110e+002  2.3029e+001 36331 96297,96041,96165
 1.0000e-001 96323 -7.2595e+001 -1.5163e+002  1.8452e+001 36331 96093,96067,96297
 1.0000e-001 96346 -9.4871e+001 -1.6498e+002  4.0323e+000 36331 96093,96297,96165
 1.0000e-001 96714 -7.8990e+001 -1.2648e+002  1.9866e+001 36041 96737,96495,96443
 1.0000e-001 96691 -9.0345e+001 -1.2590e+002  1.9027e+001 36041 96737,96443,96417
 1.0000e-001 96668 -5.8429e+001 -1.1555e+002  3.2351e+001 36041 96443,96495,96469
 1.0000e-001 96645 -8.4207e+001 -1.3275e+002  1.2065e+001 36041 96391,96521,96417
 1.0000e-001 96622 -5.8175e+001 -1.3729e+002  1.3657e-001 36041 96391,96547,96521
 1.0000e-001 96599 -7.9803e+001 -1.3870e+002 -3.6494e+000 36041 96391,96573,96547
 1.0000e-001 96763 -5.4001e+001 -1.2645e+002  1.8318e+001 36041 96521,96495,96737
 1.0000e-001 96786 -7.9441e+001 -1.3564e+002  1.5999e+001 36041 96521,96737,96417
 1.0000e-001 96936 -2.7413e+000 -1.6158e+001 -1.6532e+000 35637 97031,96959,96835
 1.0000e-001 96913 -1.6139e+001 -2.1981e+001  4.5159e+000 35637 97163,96959,96809
 1.0000e-001 96985 -1.6608e+001 -1.5740e+001  2.0873e+000 35637 96861,96835,96959
 1.0000e-001 97008 -1.8111e+001 -1.8829e+001  2.8394e+000 35637 96861,96959,96887
 1.0000e-001 97057 -2.0424e+001 -3.1393e+001  5.7871e+000 35637 96809,96959,97031
 1.0000e-001 97189 -2.2531e+001 -2.1094e+001  4.1019e+000 35637 96887,96959,97163
 1.0000e-001 97597 -1.6143e+001 -2.4836e+001  1.1912e+000 35190 97450,97502,97476
 1.0000e-001 97574 -1.6173e+001 -2.2120e+001 -1.3164e+000 35190 97372,97502,97450
 1.0000e-001 97551 -1.8465e+001 -2.2696e+001  2.1722e+000 35190 97372,97450,97398
 1.0000e-001 97528 -1.4057e+001 -2.0423e+001  1.3508e+000 35190 97398,97450,97424
 1.0000e-001 98054 -4.8324e+001 -9.0237e+001  2.4723e+001 34636 97806,97936,97858
 1.0000e-001 98031 -4.9106e+001 -1.3331e+002  1.5887e+001 34636 97780,97936,97806
 1.0000e-001 98008 -5.2765e+001 -8.3409e+001  1.2389e+001 34636 97806,97858,97832
 1.0000e-001 97985 -3.9696e+001 -1.0480e+002  3.2878e+001 34636 97884,97936,97910
 1.0000e-001 97962 -5.2843e+001 -9.7731e+001  2.7034e+001 34636 97858,97936,97884
 1.0000e-001 98530 -3.1378e+000 -2.7514e+000 -6.9604e-001 34068 98697,98184,98366
 1.0000e-001 98507 -5.3877e+000 -5.0969e+000 -2.0479e+000 34068 98158,98366,98184
 1.0000e-001 98484  7.6021e+000  8.7763e-002  4.7596e-001 34068 98553,98262,98236
 1.0000e-001 98461 -1.5642e+000 -3.6960e+000 -1.7521e-001 34068 98553,98236,98210
 1.0000e-001 98438 -1.8470e-001  4.4052e-001 -3.8338e+000 34068 98841,98625,98366
 1.0000e-001 98415  5.3421e+000  6.4209e+000 -7.6072e+000 34068 98769,98288,98262
 1.0000e-001 98392  4.4483e+000  8.4903e-001 -4.8223e+000 34068 98841,98366,98340
 1.0000e-001 98579  1.0451e+001  1.4611e+000 -4.4925e+000 34068 98769,98262,98553
 1.0000e-001 98602  2.6859e+000 -4.4313e+000 -3.1173e+000 34068 98625,98314,98553
 1.0000e-001 98651 -2.1829e+000 -1.3810e+000 -2.4774e-001 34068 98697,98366,98625
 1.0000e-001 98674  4.2632e+000 -1.1672e+000  3.2953e-001 34068 98210,98625,98553
 1.0000e-001 98723 -3.2271e+000 -9.2455e-001 -4.4469e-001 34068 98210,98184,98697
 1.0000e-001 98746 -3.3138e+000 -1.0518e+000 -4.8334e-001 34068 98210,98697,98625
 1.0000e-001 98795 -3.1318e+000  9.7836e-001 -5.2145e+000 34068 98314,98288,98769
 1.0000e-001 98818  2.6370e+000 -3.1324e+000 -2.4440e+000 34068 98314,98769,98553
 1.0000e-001 98867  6.4737e+000 -2.6025e+000 -3.7544e+000 34068 98314,98625,98841
 1.0000e-001 98890  1.1850e+001 -1.3991e+000 -5.1989e+000 34068 98314,98841,98340
 1.0000e-001 99268 -5.4439e+000 -8.0678e+000 -4.7679e-001 33450 99291,99098,99072
 1.0000e-001 99245 -4.8026e+000 -5.5250e+000 -7.8874e-001 33450 99291,99072,99020
 1.0000e-001 99222 -6.0165e-002 -5.5803e-001 -2.8916e+000 33450 99020,99072,99046
 1.0000e-001 99199 -5.6076e+000 -4.5458e+000 -3.2789e+000 33450 99020,99150,99124
 1.0000e-001 99176 -9.0459e+000 -1.1522e+001 -4.6454e+000 33450 98994,99150,99020
 1.0000e-001 99317 -5.9874e+000 -6.8372e+000 -2.3767e+000 33450 99124,99098,99291
 1.0000e-001 99340 -5.5332e+000 -3.9730e+000 -2.2545e+000 33450 99124,99291,99020
 1.0000e-001 99865 -2.2916e+001 -5.7526e+001  1.2197e+001 32944 100176,99960,99888
 1.0000e-001 99842 -3.2438e+001 -5.4963e+001  9.6083e+000 32944 100104,99888,99522
 1.0000e-001 99819 -2.0462e+001 -4.6561e+001  1.6475e+001 32944 100248,99960,99626
 1.0000e-001 99796 -3.0875e+001 -6.5489e+001  9.3561e+000 32944 100032,99652,99626
 1.0000e-001 99773 -3.2109e+001 -5.4084e+001  9.5752e+000 32944 100104,99522,99496
 1.0000e-001 99750 -2.2005e+001 -5.9896e+001  2.4343e+000 32944 99574,99626,99600
 1.0000e-001 99727 -1.2543e+001 -4.6045e+001  1.8818e+001 32944 100248,99626,99574
 1.0000e-001 99704 -3.1884e+001 -5.0644e+001  7.2509e+000 32944 99444,99496,99470
 1.0000e-001 99914 -2.8574e+001 -5.9056e+001  1.1387e+001 32944 100176,99888,100032
 1.0000e-001 99937 -2.5820e+001 -5.2355e+001  7.4080e+000 32944 99678,99888,99444
 1.0000e-001 99986 -2.6756e+001 -4.1879e+001  1.1104e+001 32944 99522,99888,99960
 1.0000e-001 100009 -2.5356e+001 -3.0197e+001  2.0434e+001 32944 99522,99960,99548
 1.0000e-001 100058 -2.6510e+001 -7.4145e+001  4.4096e+000 32944 99678,99652,100032
 1.0000e-001 100081 -3.1950e+001 -6.6174e+001  4.9486e+000 32944 99678,100032,99888
 1.0000e-001 100130 -3.2021e+001 -5.5328e+001  9.0001e+000 32944 99444,99888,100104
 1.0000e-001 100153 -3.1931e+001 -5.4940e+001  9.0601e+000 32944 99444,100104,99496
 1.0000e-001 100202 -2.7343e+001 -5.8873e+001  7.5314e+000 32944 99626,99960,100176
 1.0000e-001 100225 -2.8825e+001 -5.9030e+001  6.2906e+000 32944 99626,100176,100032
 1.0000e-001 100274 -3.2384e+001 -4.5113e+001  1.4337e+001 32944 99548,99960,100248
 1.0000e-001 100297 -2.5410e+001 -4.5366e+001  1.6598e+001 32944 99548,100248,99574
 1.0000e-001 100754 -5.0186e+001 -8.0219e+001  1.7952e+001 32369 100777,100584,100506
 1.0000e-001 100731 -3.5750e+001 -8.2928e+001  2.4086e+001 32369 100777,100506,100636
 1.0000e-001 100708 -3.8689e+001 -8.4630e+001  2.3417e+001 32369 100480,100636,100506
 1.0000e-001 100685 -6.4241e+001 -9.6148e+001  2.1841e+001 32369 100532,100584,100558
 1.0000e-001 100662 -5.3849e+001 -8.9336e+001  1.8399e+001 32369 100506,100584,100532
 1.0000e-001 100803 -3.8649e+001 -7.3167e+001  2.2827e+001 32369 100610,100584,100777
 1.0000e-001 100826 -2.7860e+001 -7.9285e+001  2.8300e+001 32369 100610,100777,100636
 1.0000e-001 101025 -3.3094e+001 -7.3399e+001  3.8959e+001 31857 100875,100927,100901
 1.0000e-001 101002 -6.5419e+001 -1.3084e+002  1.6707e+001 31857 100875,100953,100927
 1.0000e-001 100979 -6.4957e+001 -1.2612e+002  1.3395e+001 31857 100849,100953,100875
 1.0000e-001 101533 -1.4814e+001 -2.2186e+001  5.7149e+000 31253 101556,101314,101236
 1.0000e-001 101510 -1.3977e+001 -2.2239e+001  5.8416e+000 31253 101556,101236,101210
 1.0000e-001 101487 -2.1184e+001 -3.9013e+001  8.4898e+000 31253 101210,101392,101340
 1.0000e-001 101464 -1.7138e+001 -1.9011e+001  5.2576e+000 31253 101236,101288,101262
 1.0000e-001 101441 -1.7360e+001 -2.2781e+001  7.3265e+000 31253 101236,101314,101288
 1.0000e-001 101418 -1.5964e+001 -4.3313e+001  2.1706e+001 31253 101340,101392,101366
 1.0000e-001 101582 -1.4409e+001 -2.2098e+001  6.3003e+000 31253 101340,101314,101556
 1.0000e-001 101605 -1.3621e+001 -2.2265e+001  6.3785e+000 31253 101340,101556,101210
 1.0000e-001 101755  3.7846e+000  8.0624e+000  1.2365e+001 30519 101778,101654,101628
 1.0000e-001 101732  3.2609e+000  2.3050e+001  2.6397e+000 30519 101850,101778,101628
 1.0000e-001 101804  3.6807e+000 -1.6621e+001  9.1838e+000 30519 101680,101654,101778
 1.0000e-001 101827  8.4220e+000  5.1361e+000  5.1710e+000 30519 101680,101778,101706
 1.0000e-001 101876 -4.4027e+000  4.6472e+000  3.4336e+000 30519 101706,101778,101850
 1.0000e-001 102561 -4.5482e+001 -6.4440e+001  1.4488e+001 29951 102656,102584,102270
 1.0000e-001 102538 -5.5030e+001 -1.0372e+002  1.2284e+001 29951 102584,102140,102374
 1.0000e-001 102515 -4.9576e+001 -7.5520e+001  1.9247e+001 29951 102728,102656,102270
 1.0000e-001 102492 -4.7672e+001 -7.8194e+001  1.8112e+001 29951 102728,102270,102244
 1.0000e-001 102469 -4.7325e+001 -2.2744e+001  1.5497e+001 29951 102800,102322,102296
 1.0000e-001 102446 -5.1757e+001 -7.0256e+001  8.8078e+000 29951 102166,102218,102192
 1.0000e-001 102423 -4.3137e+001 -6.1504e+001  1.4378e+001 29951 102166,102244,102218
 1.0000e-001 102400 -4.5195e+001 -8.2333e+001  2.9750e+000 29951 102322,102374,102348
 1.0000e-001 102610 -5.6127e+001 -4.0906e+001  1.5568e+001 29951 102296,102270,102584
 1.0000e-001 102633 -5.7499e+001 -4.9358e+001  1.3094e+001 29951 102800,102296,102584
 1.0000e-001 102682 -4.8617e+001 -7.3506e+001  2.3783e+001 29951 102140,102584,102656
 1.0000e-001 102705 -4.8118e+001 -8.6862e+001  2.5143e+001 29951 102140,102656,102166
 1.0000e-001 102754 -4.6433e+001 -7.1849e+001  2.0752e+001 29951 102166,102656,102728
 1.0000e-001 102777 -4.6112e+001 -7.5267e+001  1.8979e+001 29951 102166,102728,102244
 1.0000e-001 102826 -4.0685e+001 -5.3468e+001  2.7746e+001 29951 102374,102322,102800
 1.0000e-001 102849 -4.1768e+001 -6.3975e+001  2.8949e+001 29951 102374,102800,102584
 1.0000e-001 103048 -5.5382e+000 -1.3945e+001  8.1079e+000 29454 102872,102924,102898
 1.0000e-001 103025 -1.1591e+001  1.0102e+001  7.0583e+000 29454 102872,102976,102924
 1.0000e-001 103002 -1.4316e+001 -1.2427e+000  7.2909e+000 29454 102924,102976,102950
 1.0000e-001 103296  1.0982e+000  3.9292e+000 -1.3710e+000 29064 103319,103175,103123
 1.0000e-001 103273  5.7614e+000  2.3510e+000 -4.3575e+000 29064 103319,103123,103071
 1.0000e-001 103250  1.5972e+000  1.9984e+000  3.8075e-001 29064 103123,103175,103149
 1.0000e-001 103227  1.1310e+001  5.1207e+000 -2.1536e+000 29064 103071,103123,103097
 1.0000e-001 103345 -1.0145e+000  1.9402e+000 -3.8328e-001 29064 103201,103175,103319
 1.0000e-001 103368  1.6900e+000 -4.5151e+000 -2.2996e+000 29064 103201,103319,103071
 1.0000e-001 104006 -2.6427e+001 -2.7712e+001  1.1326e+001 28603 104101,104029,103712
 1.0000e-001 103983 -2.0409e+001 -3.2528e+001  9.8679e+000 28603 104173,104029,103660
 1.0000e-001 103960 -3.0119e+001 -2.4138e+001  1.0722e+001 28603 104101,103712,103686
 1.0000e-001 103937 -8.2088e+000 -3.4025e+001  9.7546e+000 28603 104173,103660,103634
 1.0000e-001 103914 -4.2675e+001 -5.4922e+001  1.3703e+001 28603 103764,103816,103790
 1.0000e-001 103891 -1.8030e+001 -3.4688e+001  1.3547e+001 28603 103634,103842,103816
 1.0000e-001 103868 -2.8139e+001 -1.9827e+001  1.3570e+001 28603 103712,103764,103738
 1.0000e-001 104055 -2.9166e+001 -3.1842e+001  1.2677e+001 28603 103764,103712,104029
 1.0000e-001 104078 -3.2582e+001 -3.1785e+001  1.0411e+001 28603 103764,104029,103816
 1.0000e-001 104127 -2.8728e+001 -3.5808e+001  9.4735e+000 28603 103660,104029,104101
 1.0000e-001 104150 -3.0142e+001 -2.8894e+001  8.3245e+000 28603 103660,104101,103686
 1.0000e-001 104199 -2.9301e+001 -3.2612e+001  1.3482e+001 28603 103816,104029,104173
 1.0000e-001 104222 -2.0372e+001 -3.5617e+001  1.1839e+001 28603 103816,104173,103634
 1.0000e-001 104600 -7.9061e+000 -9.1592e+000  3.0697e+000 28348 104623,104378,104326
 1.0000e-001 104577 -8.4509e+000 -9.0042e+000  2.5695e+000 28348 104623,104326,104482
 1.0000e-001 104554 -5.5263e+000 -1.1123e+001  2.1604e+000 28348 104326,104378,104352
 1.0000e-001 104531 -1.3312e+001 -9.2399e+000  8.5575e-001 28348 104404,104456,104430
 1.0000e-001 104508 -1.3112e+001 -1.0003e+001  2.1475e+000 28348 104378,104456,104404
 1.0000e-001 104649 -8.2296e+000 -9.5458e+000  2.6621e+000 28348 104456,104378,104623
 1.0000e-001 104672 -8.9476e+000 -9.5208e+000  2.1478e+000 28348 104456,104623,104482
 1.0000e-001 104991 -5.7159e+001 -1.0110e+002  2.1506e+001 27951 104717,104847,104769
 1.0000e-001 104968 -4.1961e+001 -9.8082e+001  2.3519e+001 27951 104717,104873,104847
 1.0000e-001 104945 -3.7321e+001 -9.0473e+001  2.5659e+001 27951 104769,104847,104795
 1.0000e-001 104922 -2.2700e+001 -5.3062e+001  2.5097e+001 27951 104795,104847,104821
 1.0000e-001 104899 -5.5889e+001 -9.6577e+001  2.2992e+001 27951 104717,104769,104743
 1.0000e-001 105371  3.1994e+000 -2.4136e+000  1.8994e+000 27447 105394,105201,105123
 1.0000e-001 105348 -3.2290e+000  6.9777e-001  1.3350e+001 27447 105394,105123,105097
 1.0000e-001 105325 -1.2508e+001 -3.3947e+000  2.4989e+000 27447 105123,105201,105149
 1.0000e-001 105302  1.4077e+001 -2.0822e+000  1.0648e+001 27447 105201,105253,105227
 1.0000e-001 105279  7.1706e+000  2.2494e+001  1.8887e+001 27447 105149,105201,105175
 1.0000e-001 105420  6.6206e+000  5.9985e+000  1.2132e+000 27447 105253,105201,105394
 1.0000e-001 105443  2.7677e+000  1.4435e+001  1.2158e+001 27447 105253,105394,105097
 1.0000e-001 105998 -3.3386e+001 -3.1391e+001  1.8070e+001 27100 106165,106021,105704
 1.0000e-001 105975 -2.3810e+001 -3.3946e+001  1.4979e+001 27100 106309,106021,105652
 1.0000e-001 105952 -6.8807e+001 -4.5932e+001  3.1598e+001 27100 106093,105808,105782
 1.0000e-001 105929 -3.2521e+001 -2.9807e+001  1.7726e+001 27100 106165,105704,105678
 1.0000e-001 105906 -3.3175e+001 -2.3078e+001  1.7956e+001 27100 106237,105730,105704
 1.0000e-001 105883 -4.3357e+000 -3.4984e+001  1.0404e+001 27100 106309,105652,105626
 1.0000e-001 105860 -3.3337e+001 -5.6102e+000  1.3346e+001 27100 105730,105782,105756
 1.0000e-001 106047 -3.2611e+001 -2.5157e+001  1.6801e+001 27100 106237,105704,106021
 1.0000e-001 106070 -4.1869e+001 -3.3659e+001  1.9760e+001 27100 106093,105782,106021
 1.0000e-001 106119 -3.0971e+001 -3.0923e+001  2.3978e+001 27100 105834,105808,106093
 1.0000e-001 106142 -2.9599e+001 -4.1796e+001  1.8976e+001 27100 106381,106093,106021
 1.0000e-001 106191 -3.2127e+001 -3.4866e+001  1.4333e+001 27100 105652,106021,106165
 1.0000e-001 106214 -2.8703e+001 -2.8412e+001  1.3043e+001 27100 105652,106165,105678
 1.0000e-001 106263 -3.3492e+001 -2.5827e+001  1.7943e+001 27100 105782,105730,106237
 1.0000e-001 106286 -3.2759e+001 -2.7522e+001  1.6631e+001 27100 105782,106237,106021
 1.0000e-001 106335 -2.8802e+001 -3.9152e+001  1.8652e+001 27100 106381,106021,106309
 1.0000e-001 106358 -2.6073e+001 -5.1332e+001  1.7885e+001 27100 105834,106309,105626
 1.0000e-001 106407 -2.9085e+001 -3.8807e+001  1.7359e+001 27100 105834,106093,106381
 1.0000e-001 106430 -2.9166e+001 -3.8330e+001  1.6775e+001 27100 105834,106381,106309
 1.0000e-001 106629 -9.7136e+000  2.6921e+001  1.3927e+001 26688 106479,106557,106531
 1.0000e-001 106606 -6.0663e+000 -1.5178e+001  8.1125e+000 26688 106453,106557,106479
 1.0000e-001 106583  1.5377e+001  4.4046e+001  8.2484e-001 26688 106479,106531,106505
 1.0000e-001 107088 -9.5856e+000 -1.5792e+001  5.9049e+000 26248 107111,106918,106866
 1.0000e-001 107065 -1.1323e+001 -1.4104e+001  8.1919e+000 26248 107111,106866,106840
 1.0000e-001 107042 -1.1537e+001 -1.3913e+001  7.1758e+000 26248 106814,106970,106840
 1.0000e-001 107019 -3.0960e+000 -2.2011e+001  1.1984e+001 26248 106866,106918,106892
 1.0000e-001 106996 -2.1699e+001 -2.3626e+001  6.4663e+000 26248 106918,106970,106944
 1.0000e-001 107137 -1.3302e+001 -1.8382e+001  4.1481e+000 26248 106970,106918,107111
 1.0000e-001 107160 -1.2707e+001 -1.4804e+001  6.7776e+000 26248 106970,107111,106840
 1.0000e-001 107666 -4.2343e+001 -4.3794e+001  1.4626e+001 25908 107369,107499,107395
 1.0000e-001 107643 -5.8625e+001 -7.4377e+001  2.5166e+001 25908 107369,107525,107499
 1.0000e-001 107620 -5.2170e+001 -2.8482e+001  2.4666e+001 25908 107395,107473,107447
 1.0000e-001 107597 -2.3641e+001 -3.4937e+001  2.5524e+001 25908 107395,107499,107473
 1.0000e-001 107574 -6.4868e+001 -3.2456e+001  3.9546e+001 25908 107395,107447,107421
 1.0000e-001 107551 -1.6589e+001 -5.4883e+001  3.3702e+001 25908 107343,107525,107369
 1.0000e-001 108251 -4.1883e+001 -2.6749e+001  2.2101e+001 25454 108274,108006,107954
 1.0000e-001 108228 -3.5887e+001 -2.5384e+001  2.2888e+001 25454 108274,107954,108110
 1.0000e-001 108205 -3.2821e+001 -2.0471e+001  2.4569e+001 25454 108346,108032,108006
 1.0000e-001 108182 -3.9964e+001 -2.0628e+001  2.2097e+001 25454 107954,108006,107980
 1.0000e-001 108159 -4.4331e+000 -2.6823e+001  2.4811e+001 25454 107928,108110,107954
 1.0000e-001 108136 -5.5700e+001 -6.0471e+001  2.4376e+001 25454 108058,108110,108084
 1.0000e-001 108300 -3.7058e+001 -1.9205e+001  2.4275e+001 25454 108346,108006,108274
 1.0000e-001 108323 -4.1260e+001 -3.3185e+001  1.7683e+001 25454 108058,108274,108110
 1.0000e-001 108372 -1.8363e+001 -2.3528e+001  2.2739e+001 25454 108058,108032,108346
 1.0000e-001 108395 -2.8350e+001 -2.6850e+001  2.0365e+001 25454 108058,108346,108274
 1.0000e-001 108822 -1.3087e+001 -1.2535e+001  3.4123e+000 24943 108525,108681,108655
 1.0000e-001 108799 -1.2962e+001 -1.0620e+001  2.8641e+000 24943 108499,108681,108525
 1.0000e-001 108776 -2.0151e+001 -1.5509e+001  9.1067e+000 24943 108525,108655,108629
 1.0000e-001 108753 -1.8116e+001 -1.3685e+001  8.3260e+000 24943 108525,108629,108603
 1.0000e-001 108730 -1.3951e+001 -1.4687e+001  8.5584e+000 24943 108551,108603,108577
 1.0000e-001 108707 -1.5060e+001 -1.0401e+001  6.2314e+000 24943 108525,108603,108551
 1.0000e-001 109407 -3.8157e+000 -2.2567e+000  3.2237e+000 24745 109162,109214,109188
 1.0000e-001 109384 -6.6581e+000 -7.1876e+000  2.8801e-001 24745 109162,109266,109214
 1.0000e-001 109361 -4.7382e+000 -1.2639e+000  2.8686e-001 24745 109084,109266,109162
 1.0000e-001 109338  2.2097e+000 -7.0303e-001 -2.9220e+000 24745 109084,109162,109136
 1.0000e-001 109315 -6.1955e+000 -3.0676e+000 -8.5149e-001 24745 109214,109266,109240
 1.0000e-001 109292  5.3800e+000 -2.9075e+000 -1.2594e+000 24745 109084,109136,109110
 1.0000e-001 109785 -5.8317e+001 -6.2668e+001  2.6272e+001 24341 109537,109615,109563
 1.0000e-001 109762 -2.5312e+001 -5.9134e+001  2.5560e+001 24341 109537,109641,109615
 1.0000e-001 109739 -2.3040e+001 -4.1982e+001  3.6146e+001 24341 109563,109615,109589
 1.0000e-001 109716 -4.1230e+001 -6.7118e+001  1.7567e+001 24341 109537,109667,109641
 1.0000e-001 109693 -1.4049e+001 -5.4360e+001  2.2582e+001 24341 109511,109667,109537
 1.0000e-001 110163  1.0435e+000 -1.2334e+000  6.6377e-001 23837 110186,109967,109915
 1.0000e-001 110140  2.8986e+001  2.9991e-002  9.6319e+000 23837 110186,109915,109889
 1.0000e-001 110117  2.2639e+001  2.0714e+001  2.0686e+001 23837 109889,110045,109993
 1.0000e-001 110094 -3.6692e-001  3.7057e+001  1.7427e+001 23837 109915,109967,109941
 1.0000e-001 110071  1.2043e+000  1.1281e+000 -1.5950e+000 23837 109993,110045,110019
 1.0000e-001 110212  1.7209e+001  8.9990e+000  1.1680e+001 23837 109993,109967,110186
 1.0000e-001 110235  2.8892e+001  6.0813e+000  2.1920e+001 23837 109993,110186,109889
 1.0000e-001 110336 -4.4633e+001 -1.0408e+002  2.8422e+001 23433 110258,110310,110284
 1.0000e-001 110584 -1.4255e+001 -9.6445e+000  9.3495e+000 22829 110607,110411,110385
 1.0000e-001 110561 -1.3295e+001 -8.9554e+000  7.7093e+000 22829 110607,110385,110489
 1.0000e-001 110538 -2.2467e+001 -1.9326e+001  1.2133e+001 22829 110437,110489,110463
 1.0000e-001 110515 -1.7352e+000 -1.6967e+001  1.1020e+001 22829 110359,110489,110385
 1.0000e-001 110633 -1.4631e+001 -1.1475e+001  1.0185e+001 22829 110437,110411,110607
 1.0000e-001 110656 -1.4036e+001 -1.0422e+001  8.6567e+000 22829 110437,110607,110489
 1.0000e-001 110906 -3.3706e+001 -1.4415e+001  1.4175e+001 22432 110707,110759,110733
 1.0000e-001 110883 -3.7471e+001 -2.0203e+001  1.6085e+001 22432 110707,110785,110759
 1.0000e-001 110860 -2.9293e+001 -1.7313e+001  1.3266e+001 22432 110707,110811,110785
 1.0000e-001 110837 -3.0081e+001 -3.0597e+001  1.3793e+001 22432 110681,110811,110707
 1.0000e-001 111288  4.3970e+000  9.1146e+000  5.9402e+000 22142 111092,111144,111118
 1.0000e-001 111265 -3.0825e+000  4.1322e+000  8.1143e+000 22142 111066,111144,111092
 1.0000e-001 111242 -3.2587e+000  3.0457e+000  6.9644e+000 22142 111040,111144,111066
 1.0000e-001 111219 -4.2578e+000  8.5170e+000  7.6400e+000 22142 111014,111144,111040
 1.0000e-001 111196  5.4152e+000  1.5131e+001  3.7934e+000 22142 111014,111170,111144
 1.0000e-001 111389  4.5357e+000  8.4286e+000 -8.8459e+000 21830 111311,111363,111337
 1.0000e-001 111735 -2.1404e+001  5.6360e+001  2.6149e+001 21268 111758,111542,111438
 1.0000e-001 111712 -1.8716e+001  5.5575e+001  6.9300e+000 21268 111758,111438,111412
 1.0000e-001 111689  6.3851e-001  2.1110e+000  4.1902e+001 21268 111438,111542,111464
 1.0000e-001 111666  2.2996e+001  1.1694e+001  4.1109e+001 21268 111464,111542,111490
 1.0000e-001 111643 -4.1973e+001 -4.2395e+000  2.6895e+001 21268 111412,111594,111568
 1.0000e-001 111620  4.5776e+001  1.9926e+001  4.4579e+001 21268 111490,111542,111516
 1.0000e-001 111784 -1.8155e+001  3.9470e+001  1.8471e+001 21268 111568,111542,111758
 1.0000e-001 111807 -2.4076e+001  1.3815e+001  4.4527e+000 21268 111568,111758,111412
 1.0000e-001 111959  2.6263e+000  3.0660e+001  1.5115e+001 20864 111982,111910,111884
 1.0000e-001 111936  3.1680e+000  2.7558e+001  1.7902e+001 20864 112114,111832,111910
 1.0000e-001 112008  7.4901e-001  2.2148e+001  1.5707e+001 20864 112114,111910,111982
 1.0000e-001 112140  3.8102e+000  2.1217e+001  1.4389e+001 20864 111858,111832,112114
 1.0000e-001 112163  1.0969e+000  1.4841e+001  1.2340e+001 20864 111858,112114,111982
 1.0000e-001 112411  3.8234e+001  2.5790e+001  1.2236e+001 20324 112186,112290,112212
 1.0000e-001 112388  3.3698e+001  2.8547e+001  7.7400e+000 20324 112186,112316,112290
 1.0000e-001 112365  4.8620e+001  2.2919e+001  1.2436e+001 20324 112212,112290,112264
 1.0000e-001 112342  2.7944e+001  1.2019e+001  1.6513e+001 20324 112212,112264,112238
 1.0000e-001 112659 -9.7097e+000 -4.1443e+000  1.0587e+001 19920 112512,112564,112538
 1.0000e-001 112636 -6.5946e+000  2.0033e+000  1.2177e+001 19920 112434,112564,112512
 1.0000e-001 112613 -6.6150e+000  7.4012e+000  9.7543e+000 19920 112434,112512,112460
 1.0000e-001 112590 -1.2434e+001 -1.1041e+001  1.3530e+001 19920 112460,112512,112486
 1.0000e-001 112811 -2.5321e+001 -1.0817e+001  1.5067e+001 19630 112684,112736,112710
 1.0000e-001 112788 -2.3993e+001 -1.4533e+001  1.4161e+001 19630 112684,112762,112736
 1.0000e-001 113012 -1.4726e+001 -6.2966e+000  9.8217e+000 19169 112862,112940,112888
 1.0000e-001 112989 -1.4396e+001 -3.3915e+000  9.8189e+000 19169 112836,112940,112862
 1.0000e-001 112966 -1.3302e+001 -1.1810e+001  7.8369e+000 19169 112888,112940,112914
 1.0000e-001 113213 -4.4444e+001 -1.8986e+001  2.0059e+001 18600 113037,113089,113063
 1.0000e-001 113190 -5.1359e+001 -2.6270e+001  2.2894e+001 18600 113037,113115,113089
 1.0000e-001 113167 -4.3288e+001 -2.8633e+001  2.7030e+001 18600 113037,113141,113115
 1.0000e-001 113485 -3.0229e+001 -1.2883e+001  2.1776e+001 18352 113260,113312,113286
 1.0000e-001 113462 -4.3726e+001 -2.8226e+001  2.8216e+001 18352 113260,113390,113312
 1.0000e-001 113439 -4.1574e+001 -2.2019e+001  2.7898e+001 18352 113312,113390,113364
 1.0000e-001 113416 -4.5042e+001 -1.9170e+001  2.9480e+001 18352 113312,113364,113338
 1.0000e-001 113757 -5.2061e+001 -2.2182e+001  2.9167e+001 17834 113558,113610,113584
 1.0000e-001 113734 -4.2503e+001 -3.0732e+001  3.6026e+001 17834 113532,113610,113558
 1.0000e-001 113711 -3.9117e+001 -2.3379e+001  3.3280e+001 17834 113532,113662,113610
 1.0000e-001 113688 -1.3613e+001 -5.5706e+000  4.1280e+001 17834 113610,113662,113636
 1.0000e-001 113958  9.8715e+000  4.3325e+000  2.5628e+001 17330 113782,113834,113808
 1.0000e-001 113935  1.7125e+001  3.0243e+001  2.1210e+001 17330 113782,113886,113834
 1.0000e-001 113912 -1.8691e+000  1.6934e+000  1.1950e+001 17330 113834,113886,113860
 1.0000e-001 114110 -4.0241e+001 -1.7021e+001  3.8206e+001 16874 113983,114035,114009
 1.0000e-001 114087 -1.5064e+001 -3.4940e+001  3.1666e+001 16874 113983,114061,114035
 1.0000e-001 114465 -1.1462e+001 -4.9130e+000  2.2724e+000 16270 114240,114292,114266
 1.0000e-001 114442 -2.4753e+000 -5.2651e-001  5.8848e-001 16270 114240,114370,114292
 1.0000e-001 114419  1.2474e+001  5.3669e+000  1.1501e+001 16270 114292,114344,114318
 1.0000e-001 114396 -2.2729e+000 -3.7117e+000  9.2678e-001 16270 114292,114370,114344
 1.0000e-001 114566 -2.3076e-001  2.3076e-001  4.6153e+001 15834 114488,114540,114514
 1.0000e-001 114667 -1.0226e+001 -4.3103e+000  2.1654e+001 15155 114589,114641,114615
 1.0000e-001 114890 -2.0913e+001 -8.9246e+000  1.5780e+001 421 114766,114818,114792
 1.0000e-001 114867 -2.3626e+001 -1.5342e+001  1.5252e+001 421 114714,114818,114766
 1.0000e-001 114844 -2.0592e+001 -8.8047e+000  1.1634e+001 421 114714,114766,114740
 2.0000e-001 66553 -2.0217e+002 -8.8841e+001  1.0282e+002 66108 66354,66458,66432
 2.0000e-001 66530 -2.0227e+002 -8.6001e+001  7.7306e+001 66108 66328,66458,66354
 2.0000e-001 66507 -1.3214e+002 -8.2343e+001  7.0331e+001 66108 66354,66432,66406
 2.0000e-001 66484  2.8159e+000  3.3347e+000  1.1732e+002 66108 66354,66406,66380
 2.0000e-001 66951 -1.5604e+002 -6.6516e+001  4.9628e+001 65910 66703,66833,66807
 2.0000e-001 66928 -5.8056e+001 -8.2873e+001  9.1796e+001 65910 66677,66833,66703
 2.0000e-001 66905 -5.4594e+001 -8.1612e+001  6.9083e+001 65910 66729,66781,66755
 2.0000e-001 66882 -1.4432e+002 -6.1135e+001  6.8203e+001 65910 66729,66807,66781
 2.0000e-001 66859 -1.3474e+002 -2.9749e+001  6.2261e+001 65910 66703,66807,66729
 2.0000e-001 67150 -1.6763e+002 -7.0544e+001  9.2560e+001 65712 67026,67078,67052
 2.0000e-001 67127 -2.3177e+002 -6.8991e+001  9.4745e+001 65712 66974,67078,67026
 2.0000e-001 67104 -5.7394e+002 -2.9357e+002  2.2894e+002 65712 66974,67026,67000
 2.0000e-001 67481 -2.1772e+002 -1.0912e+002  8.1011e+001 65422 67282,67360,67334
 2.0000e-001 67458 -1.5358e+002 -6.4115e+001  1.0486e+002 65422 67282,67386,67360
 2.0000e-001 67435 -9.0362e+001 -5.4256e+001  6.8325e+001 65422 67282,67334,67308
 2.0000e-001 67412 -1.5335e+002 -1.2728e+002  9.2416e+001 65422 67256,67386,67282
 2.0000e-001 68115 -1.0524e+002 -1.3908e+002  4.3997e+001 65018 67795,67925,67873
 2.0000e-001 68092 -1.0809e+002 -1.4016e+002  3.9301e+001 65018 67769,67925,67795
 2.0000e-001 68069 -7.7887e+001 -9.4360e+001  5.6672e+001 65018 67873,67925,67899
 2.0000e-001 68046 -1.4862e+002 -1.6433e+002  5.0310e+001 65018 67769,67951,67925
 2.0000e-001 68023 -1.3899e+002 -1.8228e+002  5.9226e+001 65018 67795,67873,67821
 2.0000e-001 68000 -1.2756e+002 -1.6577e+002  4.6500e+001 65018 67821,67873,67847
 2.0000e-001 67977 -1.4480e+002 -1.3240e+002  8.1064e+001 65018 67743,67951,67769
 2.0000e-001 68363 -3.2534e+001 -7.5087e+001  6.3342e+001 64820 68190,68242,68216
 2.0000e-001 68340 -6.6534e+001 -4.9145e+001  6.8769e+001 64820 68190,68268,68242
 2.0000e-001 68317 -3.3277e+001 -3.3918e+001  7.7276e+001 64820 68164,68268,68190
 2.0000e-001 68294 -1.4503e+002 -6.1523e+001  6.4489e+001 64820 68138,68268,68164
 2.0000e-001 68513 -9.6334e+001 -1.0651e+002  9.3943e+001 64366 68868,68536,68438
 2.0000e-001 68490 -8.6693e+001 -9.6267e+001  6.4835e+001 64366 68536,68412,68386
 2.0000e-001 68562 -1.7287e+002 -1.4946e+002  8.3777e+001 64366 68740,68536,68464
 2.0000e-001 68585 -9.9842e+001 -6.7632e+001  6.9540e+001 64366 68608,68536,68386
 2.0000e-001 68634 -1.6208e+002 -1.9289e+002  4.9050e+001 64366 68464,68536,68608
 2.0000e-001 68766 -7.1190e+001 -9.4376e+001  6.1477e+001 64366 68438,68536,68740
 2.0000e-001 68894 -1.2679e+002 -1.1155e+002  8.0865e+001 64366 68412,68536,68868
 2.0000e-001 69172  2.3835e+001 -7.2173e+001  4.1280e+001 64168 69022,69074,69048
 2.0000e-001 69149 -3.8534e+001 -1.5989e+001  5.8508e+001 64168 68996,69074,69022
 2.0000e-001 69126 -6.3381e+001 -6.2765e+001  2.2479e+001 64168 68996,69100,69074
 2.0000e-001 69371 -1.3936e+002 -6.3941e+001  1.2101e+002 63970 69466,69394,69273
 2.0000e-001 69348 -1.3495e+002 -9.3501e+001  9.7195e+001 63970 69394,69247,69221
 2.0000e-001 69325 -2.5440e+002 -1.0762e+002  9.5312e+001 63970 69195,69299,69221
 2.0000e-001 69420 -1.4730e+002 -1.0043e+002  1.2383e+002 63970 69299,69273,69394
 2.0000e-001 69443 -1.4638e+002 -1.1568e+002  1.0123e+002 63970 69299,69394,69221
 2.0000e-001 69492 -1.6548e+002 -1.0659e+002  1.1000e+002 63970 69247,69394,69466
 2.0000e-001 69904 -1.9265e+001 -5.4290e+001  2.6151e+001 63680 69705,69783,69731
 2.0000e-001 69881  1.4335e+001 -4.0797e+001  2.2904e+001 63680 69679,69783,69705
 2.0000e-001 69858 -6.2528e+001 -1.1076e+002  5.2084e+001 63680 69679,69809,69783
 2.0000e-001 69835 -2.3412e+001 -3.8484e+001  3.1241e+001 63680 69731,69783,69757
 2.0000e-001 70054  3.6211e-001 -4.8084e+001  4.3822e+001 63476 70077,69953,69927
 2.0000e-001 70031  2.7692e+001 -1.8785e+001  5.7508e+001 63476 70077,69927,70005
 2.0000e-001 70103 -3.0297e+001 -2.8757e+001  3.1409e+001 63476 69979,69953,70077
 2.0000e-001 70126 -7.5714e+000 -2.9628e+000  4.2884e+001 63476 69979,70077,70005
 2.0000e-001 70325 -1.0385e+002 -2.7389e+001  9.1647e+001 63278 70149,70227,70175
 2.0000e-001 70302 -1.2869e+001 -4.6491e+000  7.6037e+001 63278 70149,70253,70227
 2.0000e-001 70279 -1.6660e+002 -8.1129e+001  4.4776e+001 63278 70175,70227,70201
 2.0000e-001 70597 -1.4125e+002 -4.8004e+001  8.8950e+001 63080 70372,70476,70424
 2.0000e-001 70574 -1.3241e+002 -5.5461e+001  9.1065e+001 63080 70372,70502,70476
 2.0000e-001 70551 -1.5269e+002 -6.4031e+001  9.5356e+001 63080 70424,70476,70450
 2.0000e-001 70528 -1.9645e+002 -8.2954e+001  1.2898e+002 63080 70372,70424,70398
 2.0000e-001 70847 -5.2321e+001 -1.3007e+002  3.8395e+001 62740 70870,70648,70622
 2.0000e-001 70824 -1.0205e+002 -9.3497e+001  6.3221e+001 62740 70870,70622,70752
 2.0000e-001 70801 -4.0221e+001 -1.8261e+002  5.4594e+001 62740 70648,70726,70700
 2.0000e-001 70778 -3.1078e+001 -1.8104e+002  4.8582e+001 62740 70648,70700,70674
 2.0000e-001 70896 -1.0046e+002 -1.6816e+002  1.9978e+001 62740 70726,70648,70870
 2.0000e-001 70919 -1.1783e+002 -1.1190e+002  5.3259e+001 62740 70726,70870,70752
 2.0000e-001 71022 -9.2311e-001  9.2311e-001  9.2303e+001 62520 70944,70996,70970
 2.0000e-001 71223 -7.8863e+001 -3.7764e+001  4.7987e+001 62230 71073,71151,71099
 2.0000e-001 71200 -7.4338e+001 -2.9345e+001  5.8085e+001 62230 71047,71151,71073
 2.0000e-001 71177 -4.7726e+001 -5.5693e+001  4.0703e+001 62230 71099,71151,71125
 2.0000e-001 71861 -1.6377e+002 -2.0344e+002  2.7482e+001 61712 71515,71697,71671
 2.0000e-001 71838 -1.3535e+002 -1.3564e+002  2.1027e+001 61712 71489,71697,71515
 2.0000e-001 71815 -2.4563e+002 -2.3460e+002  4.0018e+001 61712 71884,71541,71515
 2.0000e-001 71792 -2.0767e+002 -2.1448e+002  3.1375e+001 61712 71884,71515,71671
 2.0000e-001 71769 -1.2256e+002 -2.2580e+002  4.4491e+001 61712 71541,71619,71593
 2.0000e-001 71746 -1.6921e+002 -3.1433e+002 -3.9921e+000 61712 71619,71671,71645
 2.0000e-001 71723 -1.2666e+002 -2.6111e+002  1.0945e+002 61712 71541,71593,71567
 2.0000e-001 71910 -2.0939e+002 -2.5474e+002  5.1419e+001 61712 71619,71541,71884
 2.0000e-001 71933 -1.8208e+002 -2.4216e+002  4.6438e+001 61712 71619,71884,71671
 2.0000e-001 72230 -2.2018e+001 -2.3979e+001  6.2755e+000 61208 72253,72060,72008
 2.0000e-001 72207 -2.6903e+001 -1.9544e+001  1.7154e+000 61208 72253,72008,71982
 2.0000e-001 72184 -3.7903e+001 -1.9784e+001  5.3148e+000 61208 71982,72112,72086
 2.0000e-001 72161 -2.1341e+001 -5.8442e+000  2.8278e+001 61208 72008,72060,72034
 2.0000e-001 72138 -1.7251e+001 -1.9270e+001  1.6075e+001 61208 71956,72112,71982
 2.0000e-001 72279 -1.4365e+001 -2.0983e+001  5.2019e+000 61208 72086,72060,72253
 2.0000e-001 72302 -2.1651e+001 -1.7847e+001  1.7498e+000 61208 72086,72253,71982
 2.0000e-001 72761 -1.4308e+002 -9.6113e+001  6.6042e+001 60804 72487,72617,72513
 2.0000e-001 72738 -1.2561e+002 -1.8301e+002  4.8514e+001 60804 72487,72643,72617
 2.0000e-001 72715 -4.6912e+001 -5.7867e+001  5.7352e+001 60804 72565,72617,72591
 2.0000e-001 72692 -9.4718e+001 -6.5568e+001  5.0880e+001 60804 72513,72617,72565
 2.0000e-001 72669 -1.1697e+002 -1.0609e+002  7.9399e+001 60804 72513,72565,72539
 2.0000e-001 72911 -9.2311e-001  9.2311e-001  9.2303e+001 60556 72784,72836,72810
 2.0000e-001 72888  2.8369e+001 -1.4149e+002  6.8522e+001 60556 72784,72862,72836
 2.0000e-001 73468 -7.9032e+001 -9.0366e+001  4.3808e+001 60244 73491,73226,73200
 2.0000e-001 73445 -1.1826e+002 -1.2765e+002  7.8129e+001 60244 73563,73491,73200
 2.0000e-001 73422 -1.8755e+002 -1.1124e+002  8.7216e+001 60244 73563,73200,73174
 2.0000e-001 73399 -6.8469e+001 -2.1090e+002  6.3002e+001 60244 73226,73278,73252
 2.0000e-001 73376 -1.6725e+002 -1.2861e+002  6.6481e+001 60244 73122,73304,73278
 2.0000e-001 73353 -1.7224e+002 -2.1688e+002  7.9705e+001 60244 73096,73304,73122
 2.0000e-001 73330 -3.3884e+002 -1.6449e+002  1.7831e+002 60244 73122,73174,73148
 2.0000e-001 73517 -1.4875e+002 -1.3084e+002  7.5255e+001 60244 73278,73226,73491
 2.0000e-001 73540 -1.4207e+002 -1.1257e+002  7.3353e+001 60244 73278,73491,73122
 2.0000e-001 73589 -2.2704e+002 -1.3934e+002  7.3052e+001 60244 73122,73491,73563
 2.0000e-001 73612 -2.9278e+002 -1.2075e+002  8.5983e+001 60244 73122,73563,73174
 2.0000e-001 73762 -1.3707e+002 -3.2334e+002  2.2504e+001 59875 73661,73713,73687
 2.0000e-001 73739 -1.2310e+002 -8.3164e+001  5.0251e+001 59875 73635,73713,73661
 2.0000e-001 74191 -9.9174e+000 -2.3808e+001  4.7262e+001 59478 74214,73894,73868
 2.0000e-001 74168 -3.8905e+001 -1.0902e+001  5.0735e+001 59478 74214,73868,74050
 2.0000e-001 74145 -8.4371e+000 -2.0404e+001  2.3419e+001 59478 73894,73946,73920
 2.0000e-001 74122 -4.2889e+001 -2.7229e+001  3.4043e+001 59478 73894,73998,73946
 2.0000e-001 74099 -1.1125e+002 -4.8657e+001  7.8267e+001 59478 73998,74050,74024
 2.0000e-001 74076 -5.2854e+001 -9.8173e+000  2.5420e+001 59478 73946,73998,73972
 2.0000e-001 74240 -3.5099e+001 -2.1911e+001  3.8466e+001 59478 73998,73894,74214
 2.0000e-001 74263 -6.6616e+001 -1.4067e+001  3.7019e+001 59478 73998,74214,74050
 2.0000e-001 74720 -1.3110e+002 -2.1070e+002  4.8214e+001 58774 74472,74602,74498
 2.0000e-001 74697 -1.7757e+002 -1.6902e+002  8.0877e+001 58774 74446,74602,74472
 2.0000e-001 74674 -1.1379e+002 -1.4020e+002  5.3223e+001 58774 74498,74576,74524
 2.0000e-001 74651 -1.5543e+002 -1.8167e+002  2.8458e+001 58774 74498,74602,74576
 2.0000e-001 74628 -1.1065e+002 -1.5457e+002  6.2955e+001 58774 74524,74576,74550
 2.0000e-001 75226 -8.0446e+001 -4.9093e+001  3.0867e+001 58270 74955,75085,75033
 2.0000e-001 75203 -5.7211e+001 -6.6043e+001  4.0694e+001 58270 74929,75085,74955
 2.0000e-001 75180 -1.1452e+002 -6.9512e+001  5.6549e+001 58270 75033,75085,75059
 2.0000e-001 75157 -1.2393e+002 -6.2558e+001  2.9898e+001 58270 74955,75007,74981
 2.0000e-001 75134 -8.2047e+001 -4.8424e+001  2.1046e+001 58270 74955,75033,75007
 2.0000e-001 75111 -3.8634e+001 -7.9859e+001  1.9216e+001 58270 74903,75085,74929
 2.0000e-001 75425 -1.8767e+001 -2.9357e+000  5.6261e+000 57830 75448,75301,75249
 2.0000e-001 75402 -2.0884e+001 -1.6426e+001  1.0519e+001 57830 75448,75249,75353
 2.0000e-001 75379 -1.1853e+001 -8.0014e+000  1.3244e-001 57830 75520,75301,75275
 2.0000e-001 75474 -1.8785e+001  3.9949e+000  2.6074e+000 57830 75327,75301,75448
 2.0000e-001 75497 -1.6589e+001 -1.2984e+000  8.3176e+000 57830 75327,75448,75353
 2.0000e-001 75546 -1.4860e+001 -3.1389e+000  8.4345e-001 57830 75249,75301,75520
 2.0000e-001 76261 -5.8312e+001 -1.4544e+002  6.0692e+001 57426 76284,76097,76071
 2.0000e-001 76238 -5.2379e+001 -1.0009e+002  5.7843e+001 57426 75889,76097,75915
 2.0000e-001 76215 -9.5192e+001 -1.5608e+002  6.5306e+001 57426 76428,76284,76071
 2.0000e-001 76192 -7.8338e+001 -1.4391e+002  4.6882e+001 57426 76356,75941,75915
 2.0000e-001 76169 -1.0673e+002 -1.2115e+002  5.6487e+001 57426 76428,76071,76019
 2.0000e-001 76146 -1.2032e+002 -1.5799e+002  5.4126e+001 57426 76019,76071,76045
 2.0000e-001 76123 -7.1821e+001 -1.0741e+002  7.2445e+001 57426 75967,76019,75993
 2.0000e-001 76310 -5.8357e+001 -1.4039e+002  4.3807e+001 57426 75915,76097,76284
 2.0000e-001 76333 -7.6321e+001 -1.4719e+002  4.5852e+001 57426 76356,75915,76284
 2.0000e-001 76382 -7.4883e+001 -1.3907e+002  4.9620e+001 57426 75967,75941,76356
 2.0000e-001 76405 -7.3924e+001 -1.4254e+002  4.8106e+001 57426 75967,76356,76284
 2.0000e-001 76454 -6.5917e+001 -1.2736e+002  5.3666e+001 57426 75967,76284,76428
 2.0000e-001 76477 -9.6748e+001 -1.1096e+002  5.2453e+001 57426 75967,76428,76019
 2.0000e-001 76953 -1.2268e+002 -2.2482e+002  4.0743e+001 56908 76976,76711,76685
 2.0000e-001 76930 -1.2835e+002 -2.3333e+002  3.2148e+001 56908 77048,76976,76685
 2.0000e-001 76907 -1.4786e+002 -2.5170e+002  4.1029e+001 56908 77048,76685,76633
 2.0000e-001 76884 -1.8051e+002 -2.7657e+002  6.5534e+001 56908 76711,76789,76763
 2.0000e-001 76861 -1.2356e+002 -1.6235e+002  4.9156e+001 56908 76581,76789,76607
 2.0000e-001 76838 -1.3337e+002 -1.4203e+002  4.1430e+001 56908 76711,76763,76737
 2.0000e-001 76815 -1.3493e+002 -2.7483e+002  9.0767e+001 56908 76633,76685,76659
 2.0000e-001 77002 -1.2138e+002 -2.2450e+002  4.1302e+001 56908 76789,76711,76976
 2.0000e-001 77025 -1.2562e+002 -1.8571e+002  2.5081e+001 56908 76789,76976,76607
 2.0000e-001 77074 -1.5936e+002 -2.1812e+002  3.9399e+001 56908 76607,76976,77048
 2.0000e-001 77097 -1.6824e+002 -2.2451e+002  4.4843e+001 56908 76607,77048,76633
 2.0000e-001 77475 -1.2402e+002 -2.8413e+002  4.7469e+001 56546 77570,77498,77279
 2.0000e-001 77452 -1.3555e+002 -2.9198e+002  4.5731e+001 56546 77498,77227,77357
 2.0000e-001 77429 -1.3595e+002 -2.9104e+002  7.0101e+001 56546 77570,77279,77253
 2.0000e-001 77406 -1.0456e+002 -2.8545e+002  6.2368e+001 56546 77201,77357,77227
 2.0000e-001 77383 -1.5435e+002 -2.4092e+002  8.3226e+001 56546 77279,77331,77305
 2.0000e-001 77524 -1.3081e+002 -2.8646e+002  4.3470e+001 56546 77331,77279,77498
 2.0000e-001 77547 -1.2392e+002 -2.8997e+002  4.6789e+001 56546 77331,77498,77357
 2.0000e-001 77596 -1.5827e+002 -2.9972e+002  5.3797e+001 56546 77227,77498,77570
 2.0000e-001 77619 -1.6007e+002 -3.0767e+002  7.8077e+001 56546 77227,77570,77253
 2.0000e-001 77818 -1.5264e+002 -2.6002e+002  4.1635e+001 56042 77841,77694,77668
 2.0000e-001 77795 -1.5821e+002 -2.5873e+002  3.2733e+001 56042 77841,77668,77746
 2.0000e-001 77772 -1.3815e+002 -2.8968e+002  3.8352e+001 56042 77642,77746,77668
 2.0000e-001 77867 -1.5454e+002 -2.6734e+002  3.8403e+001 56042 77720,77694,77841
 2.0000e-001 77890 -1.6026e+002 -2.6538e+002  2.9462e+001 56042 77720,77841,77746
 2.0000e-001 78349 -2.0645e+001 -1.2914e+001  7.5331e+000 55538 78075,78127,78101
 2.0000e-001 78326 -2.3553e+001 -1.5838e+001  5.1439e+000 55538 78075,78205,78127
 2.0000e-001 78303 -2.9679e+001 -9.4550e+000  8.1858e+000 55538 78075,78231,78205
 2.0000e-001 78280 -2.7736e+001 -2.9546e+001  1.5291e+001 55538 78127,78179,78153
 2.0000e-001 78257 -1.9807e+001 -1.5410e+001  4.9597e+000 55538 78127,78205,78179
 2.0000e-001 78806 -9.3468e+001 -1.7276e+002  2.0118e+001 55034 78829,78636,78610
 2.0000e-001 78783 -1.2350e+002 -1.5787e+002  3.3116e+001 55034 78901,78829,78610
 2.0000e-001 78760 -8.1803e+001 -1.6074e+002  3.9990e+001 55034 78901,78610,78584
 2.0000e-001 78737 -1.2148e+002 -1.5635e+002  3.3753e+001 55034 78558,78688,78662
 2.0000e-001 78714 -1.2499e+002 -1.5512e+002  7.6960e+001 55034 78532,78688,78558
 2.0000e-001 78855 -1.3672e+002 -2.4823e+002 -9.1247e+000 55034 78662,78636,78829
 2.0000e-001 78878 -1.2179e+002 -1.5616e+002  3.3704e+001 55034 78662,78829,78558
 2.0000e-001 78927 -9.1896e+001 -1.3737e+002  6.0347e+001 55034 78558,78829,78901
 2.0000e-001 78950 -7.7506e+001 -1.4976e+002  7.0687e+001 55034 78558,78901,78584
 2.0000e-001 79407 -8.4532e+001 -7.4697e+001  4.5176e+001 54430 79430,79237,79159
 2.0000e-001 79384 -9.0280e+001 -8.9994e+001  3.0865e+001 54430 79430,79159,79133
 2.0000e-001 79361 -9.8877e+001 -7.0327e+001  2.1817e+001 54430 79237,79289,79263
 2.0000e-001 79338 -7.9948e+001 -6.5679e+001  6.0489e+001 54430 79185,79237,79211
 2.0000e-001 79315 -1.1959e+002 -8.5677e+001  5.2430e+001 54430 79159,79237,79185
 2.0000e-001 79456 -8.6053e+001 -9.2757e+001  3.5989e+001 54430 79289,79237,79430
 2.0000e-001 79479 -8.8749e+001 -1.1262e+002  2.4779e+001 54430 79289,79430,79133
 2.0000e-001 79936 -6.7955e+001 -6.5865e+001  5.7416e+001 53919 79662,79766,79688
 2.0000e-001 79913 -1.6154e+002 -1.0564e+002  9.2703e+001 53919 79662,79818,79766
 2.0000e-001 79890 -1.6652e+002 -7.3400e+001  6.9101e+001 53919 79766,79818,79792
 2.0000e-001 79867 -1.0832e+002 -8.5226e+001  5.5257e+001 53919 79714,79766,79740
 2.0000e-001 79844 -1.1454e+002 -8.3413e+001  5.8259e+001 53919 79688,79766,79714
 2.0000e-001 80037 -1.6138e+000 -7.0276e+000  2.3170e+001 53671 79959,80011,79985
 2.0000e-001 80405 -2.8496e+001  7.2411e+000  1.9689e+000 53267 80108,80264,80238
 2.0000e-001 80382 -5.2141e+000  1.5142e+000 -1.1194e+000 53267 80082,80264,80108
 2.0000e-001 80359  4.3931e+000  5.3050e+000  9.2916e+000 53267 80108,80238,80134
 2.0000e-001 80336 -2.3174e+000 -3.7816e+000  7.5880e+000 53267 80134,80212,80186
 2.0000e-001 80313 -6.3290e+000 -1.7820e+000  5.1633e+000 53267 80134,80238,80212
 2.0000e-001 80290 -9.2533e-001 -7.8774e+000  3.3324e+000 53267 80134,80186,80160
 2.0000e-001 80915 -1.6692e+001 -8.8351e+000 -7.6436e+000 52969 80644,80774,80748
 2.0000e-001 80892 -3.1654e+000 -1.5512e+000  1.5732e+000 52969 80618,80774,80644
 2.0000e-001 80869 -2.0763e+001 -5.3085e+000 -4.5308e+000 52969 80644,80748,80670
 2.0000e-001 80846  1.7042e+000 -1.7861e-001  1.1817e+000 52969 80592,80774,80618
 2.0000e-001 80823 -4.1827e+001 -2.1828e+001  4.7217e+000 52969 80670,80722,80696
 2.0000e-001 80800 -2.5282e+001 -1.4305e+001 -6.1156e+000 52969 80670,80748,80722
 2.0000e-001 81266 -1.0545e+002 -2.5983e+002  2.0268e+001 52565 81041,81145,81067
 2.0000e-001 81243 -1.3028e+002 -3.0660e+002  3.0208e+001 52565 81041,81171,81145
 2.0000e-001 81220 -6.7880e+001 -1.7582e+002  1.2264e+001 52565 81067,81119,81093
 2.0000e-001 81197 -1.0002e+002 -2.3656e+002  2.4982e+001 52565 81067,81145,81119
 2.0000e-001 81723 -1.4073e+002 -2.5293e+002  1.8196e+001 51904 81449,81527,81475
 2.0000e-001 81700 -1.3325e+002 -2.3083e+002  2.0021e+001 51904 81449,81579,81527
 2.0000e-001 81677 -1.3101e+002 -2.6727e+002  3.6427e+001 51904 81449,81605,81579
 2.0000e-001 81654 -1.2660e+002 -1.8249e+002  3.6256e+001 51904 81527,81579,81553
 2.0000e-001 81631 -1.5971e+002 -2.5760e+002  1.7518e+001 51904 81475,81527,81501
 2.0000e-001 82327 -9.9074e+001 -1.6179e+002  7.6430e+001 51321 82422,82350,82036
 2.0000e-001 82304 -9.5615e+001 -1.6384e+002  6.3583e+001 51321 82494,82350,81958
 2.0000e-001 82281 -9.5418e+001 -1.5258e+002  7.6041e+001 51321 82422,82036,82010
 2.0000e-001 82258 -8.5717e+001 -1.5352e+002  5.2639e+001 51321 82494,81958,81932
 2.0000e-001 82235 -9.2543e+001 -1.4566e+002  5.6216e+001 51321 82062,82114,82088
 2.0000e-001 82212 -1.6049e+002 -1.5087e+002  5.3635e+001 51321 81932,82140,82114
 2.0000e-001 82189 -1.1380e+002 -1.7034e+002  5.5391e+001 51321 81958,82010,81984
 2.0000e-001 82166 -1.4297e+002 -1.4130e+002  1.1588e+002 51321 81906,82140,81932
 2.0000e-001 82376 -9.7409e+001 -1.9100e+002  7.4744e+001 51321 82062,82036,82350
 2.0000e-001 82399 -8.9525e+001 -1.7050e+002  7.0245e+001 51321 82062,82350,82114
 2.0000e-001 82448 -9.7175e+001 -1.6648e+002  6.4286e+001 51321 81958,82350,82422
 2.0000e-001 82471 -9.3577e+001 -1.5764e+002  6.3790e+001 51321 81958,82422,82010
 2.0000e-001 82520 -9.6356e+001 -1.7431e+002  6.8736e+001 51321 82114,82350,82494
 2.0000e-001 82543 -9.6966e+001 -1.7128e+002  5.9945e+001 51321 82114,82494,81932
 2.0000e-001 83019 -8.0771e+001 -1.0608e+002  1.8818e+001 50817 82673,82751,82699
 2.0000e-001 82996 -9.9626e+001 -8.9044e+001  3.6033e+001 50817 83042,82673,82855
 2.0000e-001 82973 -1.0887e+002 -9.8291e+001  3.2154e+001 50817 83042,82855,82803
 2.0000e-001 82950 -1.2786e+002 -1.1381e+002  5.9561e+001 50817 82751,82803,82777
 2.0000e-001 82927 -1.0341e+002 -9.9553e+001  2.5483e+001 50817 82647,82855,82673
 2.0000e-001 82904 -1.4488e+002 -1.3446e+002  5.8957e+001 50817 82803,82855,82829
 2.0000e-001 82881 -7.3890e+001 -7.9613e+001  2.5077e+001 50817 82699,82751,82725
 2.0000e-001 83068 -8.3312e+001 -9.6433e+001  4.3498e+001 50817 82751,82673,83042
 2.0000e-001 83091 -9.5224e+001 -1.0717e+002  3.8989e+001 50817 82751,83042,82803
 2.0000e-001 83290 -1.4262e+002 -1.9149e+002  7.7415e+001 50356 83313,83166,83140
 2.0000e-001 83267 -1.5375e+002 -2.1475e+002  6.8955e+001 50356 83515,83313,83140
 2.0000e-001 83244 -1.5574e+002 -1.9912e+002  6.0879e+001 50356 83515,83140,83385
 2.0000e-001 83339 -1.3662e+002 -2.0898e+002  6.8164e+001 50356 83192,83166,83313
 2.0000e-001 83362 -1.4805e+002 -2.3041e+002  4.9360e+001 50356 83192,83313,83218
 2.0000e-001 83411 -6.3685e+001 -1.8957e+002  7.7199e+001 50356 83114,83218,83385
 2.0000e-001 83541 -1.4016e+002 -1.9488e+002  5.7853e+001 50356 83218,83313,83515
 2.0000e-001 83564 -1.4273e+002 -1.8724e+002  4.8973e+001 50356 83218,83515,83385
 2.0000e-001 83893 -1.9023e+001 -1.5072e+001  5.3047e+000 49552 83720,83798,83746
 2.0000e-001 83870 -1.9426e+001 -1.0065e+001  3.0829e+000 49552 83694,83798,83720
 2.0000e-001 83847 -3.1282e+000 -1.5346e+001  1.2142e+000 49552 83668,83798,83694
 2.0000e-001 83824 -3.3197e+001 -2.1109e+001  7.8670e+000 49552 83746,83798,83772
 2.0000e-001 84141 -1.4072e+002 -2.3200e+002  5.9713e+001 49212 84164,84020,83942
 2.0000e-001 84118 -1.4587e+002 -2.4349e+002  6.3885e+001 49212 84164,83942,83916
 2.0000e-001 84095 -8.7049e+001 -2.2135e+002  5.8746e+001 49212 83942,84020,83968
 2.0000e-001 84072 -1.3411e+002 -2.4383e+002  2.5843e+001 49212 83968,84020,83994
 2.0000e-001 84190 -1.4478e+002 -2.3781e+002  6.5788e+001 49212 84046,84020,84164
 2.0000e-001 84213 -1.4631e+002 -2.4427e+002  6.9550e+001 49212 84046,84164,83916
 2.0000e-001 84800 -1.1901e+002 -2.4543e+002  3.7329e+001 48865 84503,84633,84555
 2.0000e-001 84777 -1.3438e+002 -2.7297e+002  2.8588e+001 48865 84503,84659,84633
 2.0000e-001 84754 -1.7274e+002 -3.7106e+002  3.9990e+001 48865 84555,84633,84581
 2.0000e-001 84731 -9.2647e+001 -3.5884e+002  2.9817e+001 48865 84581,84633,84607
 2.0000e-001 84708 -1.5456e+002 -2.6956e+002  4.9080e+001 48865 84503,84555,84529
 2.0000e-001 84685 -1.5335e+002 -3.0730e+002  5.6769e+001 48865 84477,84659,84503
 2.0000e-001 85355 -9.4750e+001 -1.1687e+002  3.4548e+001 48461 85378,85035,85009
 2.0000e-001 85332 -1.0272e+002 -1.0400e+002  3.9323e+001 48461 85378,85009,85165
 2.0000e-001 85309 -1.1842e+002 -1.1468e+002  2.3489e+001 48461 85450,85061,85035
 2.0000e-001 85286 -1.1492e+002 -1.0397e+002  3.3281e+001 48461 85009,85191,85165
 2.0000e-001 85263 -7.6189e+001 -7.4345e+001  4.7504e+001 48461 85087,85165,85113
 2.0000e-001 85240 -8.8734e+001 -1.2233e+002  5.7661e+000 48461 84983,85191,85009
 2.0000e-001 85217 -8.0189e+001 -1.1835e+002  3.2252e+001 48461 85113,85165,85139
 2.0000e-001 85404 -1.1083e+002 -1.2144e+002  2.5996e+001 48461 85450,85035,85378
 2.0000e-001 85427 -9.9648e+001 -1.1017e+002  3.4077e+001 48461 85087,85378,85165
 2.0000e-001 85476 -1.0917e+002 -1.1057e+002  3.0217e+001 48461 85087,85061,85450
 2.0000e-001 85499 -9.8369e+001 -1.1291e+002  3.3878e+001 48461 85087,85450,85378
 2.0000e-001 86084 -9.2724e+001 -1.4297e+002  3.9073e+001 48057 86323,86107,85787
 2.0000e-001 86061 -8.1142e+001 -1.2351e+002  5.0916e+001 48057 86107,85761,85943
 2.0000e-001 86038 -9.0873e+001 -1.2308e+002  5.0908e+001 48057 86251,86179,85891
 2.0000e-001 86015 -8.9494e+001 -1.0176e+002  3.6320e+001 48057 86251,85891,85839
 2.0000e-001 85992 -8.3126e+001 -1.1747e+002  3.5558e+001 48057 85891,85943,85917
 2.0000e-001 85969 -6.1509e+001 -1.4262e+002  1.2623e+001 48057 85839,85891,85865
 2.0000e-001 86133 -8.7318e+001 -1.4373e+002  4.9529e+001 48057 85813,85787,86107
 2.0000e-001 86156 -8.2252e+001 -1.2849e+002  4.3535e+001 48057 86179,85813,86107
 2.0000e-001 86205 -8.2653e+001 -1.2162e+002  5.2655e+001 48057 85943,85891,86179
 2.0000e-001 86228 -7.8621e+001 -1.1754e+002  5.1032e+001 48057 85943,86179,86107
 2.0000e-001 86277 -6.8324e+001 -1.0136e+002  3.8258e+001 48057 85813,86179,86251
 2.0000e-001 86300 -8.0977e+001 -8.6143e+001  2.7317e+001 48057 85813,86251,85839
 2.0000e-001 86349 -5.3620e+001 -1.1896e+002  4.9196e+001 48057 85761,86107,86323
 2.0000e-001 86855 -3.5268e+001 -1.8683e+002  6.3854e+001 47545 86878,86584,86558
 2.0000e-001 86832 -1.0004e+002 -2.1317e+002  5.1206e+001 47545 86950,86878,86558
 2.0000e-001 86809 -1.1701e+002 -2.2704e+002  4.5087e+001 47545 86950,86558,86532
 2.0000e-001 86786 -3.0950e+001 -1.5883e+002  3.8376e+001 47545 86584,86662,86610
 2.0000e-001 86763 -9.3419e+001 -2.5423e+002  2.8427e+001 47545 86532,86714,86688
 2.0000e-001 86740 -8.1949e+001 -1.9825e+002  2.0041e+001 47545 86610,86662,86636
 2.0000e-001 86904 -8.5331e+001 -1.8828e+002  2.6411e+001 47545 86662,86584,86878
 2.0000e-001 86927 -1.1606e+002 -2.0348e+002  3.1318e+001 47545 86662,86878,86688
 2.0000e-001 86976 -8.5496e+001 -2.3358e+002  3.0345e+001 47545 86688,86878,86950
 2.0000e-001 86999 -1.0644e+002 -2.4463e+002  2.4744e+001 47545 86688,86950,86532
 2.0000e-001 87328 -1.8309e+001 -3.5385e+001  5.1610e+000 47048 87155,87207,87181
 2.0000e-001 87305 -1.2817e+001 -2.9369e+001  9.4264e+000 47048 87129,87207,87155
 2.0000e-001 87282 -2.5603e+001 -3.8580e+001  1.3541e+001 47048 87103,87207,87129
 2.0000e-001 87259 -2.4898e+001 -4.6459e+001  3.1331e+001 47048 87103,87233,87207
 2.0000e-001 87576  6.2744e+000 -9.5021e+000  2.5514e+000 46701 87599,87429,87377
 2.0000e-001 87553 -8.4193e-002 -4.0233e+000 -6.6048e-001 46701 87599,87377,87481
 2.0000e-001 87530 -3.0914e-001 -5.1470e+000 -4.8491e+000 46701 87351,87481,87377
 2.0000e-001 87507  3.6041e+000 -3.1468e+000  5.9984e+000 46701 87377,87429,87403
 2.0000e-001 87625  2.2867e+000 -1.6878e+001  1.0187e+000 46701 87455,87429,87599
 2.0000e-001 87648 -3.2265e+000 -8.9963e+000 -2.3167e+000 46701 87455,87599,87481
 2.0000e-001 87798 -4.3510e-001  1.0557e+000  2.0473e+000 46239 87697,87749,87723
 2.0000e-001 87775  8.4513e-001 -3.5922e+000  4.5063e+000 46239 87671,87749,87697
 2.0000e-001 88308 -6.6957e+001 -6.6587e+001  2.0633e+001 45735 88089,88167,88141
 2.0000e-001 88285 -5.9976e+001 -6.1220e+001  2.4598e+001 45735 88011,88167,88089
 2.0000e-001 88262 -6.9998e+001 -5.7748e+001  3.9401e+001 45735 87985,88167,88011
 2.0000e-001 88239 -9.3320e+001 -1.1750e+002  4.0094e+001 45735 88011,88089,88063
 2.0000e-001 88216 -6.7488e+001 -6.8043e+001  5.4850e+000 45735 88089,88141,88115
 2.0000e-001 88193 -9.8098e+001 -1.3244e+002  4.1377e+001 45735 88011,88063,88037
 2.0000e-001 88686 -1.4796e+002 -2.8718e+002  4.9851e+001 45316 88438,88516,88490
 2.0000e-001 88663 -1.0859e+002 -2.1783e+002  2.9295e+001 45316 88438,88542,88516
 2.0000e-001 88640 -1.0603e+002 -2.4954e+002  3.4189e+001 45316 88438,88568,88542
 2.0000e-001 88617 -2.0709e+002 -2.9232e+002  3.9348e+001 45316 88438,88490,88464
 2.0000e-001 88594 -4.6177e+001 -2.1126e+002  5.1315e+001 45316 88412,88568,88438
 2.0000e-001 88934 -1.5561e+002 -2.2046e+002  8.7123e+001 44812 88957,88735,88709
 2.0000e-001 88911 -1.1986e+002 -1.8102e+002  5.8621e+001 44812 88957,88709,88839
 2.0000e-001 88888 -1.2568e+002 -1.7702e+002  4.6881e+001 44812 89029,88787,88761
 2.0000e-001 88865 -1.2250e+002 -1.2888e+002  6.7174e+001 44812 88787,88839,88813
 2.0000e-001 88983 -8.5802e+001 -1.8415e+002  7.1057e+001 44812 88761,88735,88957
 2.0000e-001 89006 -1.1027e+002 -1.8029e+002  4.5741e+001 44812 89029,88761,88957
 2.0000e-001 89055 -1.3347e+002 -1.7965e+002  4.8497e+001 44812 88839,88787,89029
 2.0000e-001 89078 -1.2667e+002 -1.9079e+002  5.0815e+001 44812 88839,89029,88957
 2.0000e-001 89228 -2.5172e+002 -6.0083e+002 -4.4418e+001 44408 89127,89179,89153
 2.0000e-001 89205 -2.1073e+002 -5.5506e+002  6.8470e+000 44408 89101,89179,89127
 2.0000e-001 89787 -9.1802e+001 -1.0163e+002  5.1841e+001 43854 89810,89545,89519
 2.0000e-001 89764 -9.4033e+001 -1.1188e+002  5.8670e+001 43854 89810,89519,89467
 2.0000e-001 89741 -8.6507e+001 -1.3450e+002  5.9085e+001 43854 89954,89882,89597
 2.0000e-001 89718 -9.1792e+001 -1.3107e+002  6.7249e+001 43854 89954,89597,89571
 2.0000e-001 89695 -7.2084e+001 -1.2373e+002  4.8297e+001 43854 89415,89623,89467
 2.0000e-001 89672 -7.7015e+001 -9.5817e+001  5.2056e+001 43854 89467,89519,89493
 2.0000e-001 89649 -7.4569e+001 -9.4543e+001  5.1243e+001 43854 89415,89467,89441
 2.0000e-001 89836 -1.0233e+002 -1.0736e+002  5.5198e+001 43854 89882,89545,89810
 2.0000e-001 89859 -7.1563e+001 -1.1273e+002  4.6586e+001 43854 89623,89810,89467
 2.0000e-001 89908 -9.4929e+001 -1.7545e+002  6.9814e+001 43854 89623,89597,89882
 2.0000e-001 89931 -9.2754e+001 -1.5066e+002  5.4968e+001 43854 89623,89882,89810
 2.0000e-001 89980 -1.0980e+002 -1.4391e+002  6.4184e+001 43854 89545,89882,89954
 2.0000e-001 90003 -1.2429e+002 -1.4744e+002  7.4121e+001 43854 89545,89954,89571
 2.0000e-001 90251 -9.4430e+001 -2.4841e+002  3.6937e+001 43492 90026,90078,90052
 2.0000e-001 90228 -9.3925e+001 -1.5933e+002  6.1638e+001 43492 90274,90026,90156
 2.0000e-001 90205 -7.9486e+001 -1.6847e+002  6.3574e+001 43492 90346,90274,90156
 2.0000e-001 90182 -7.5029e+001 -1.7244e+002  8.6395e+001 43492 90346,90156,90130
 2.0000e-001 90300 -7.6675e+001 -1.7363e+002  6.8506e+001 43492 90078,90026,90274
 2.0000e-001 90323 -9.7791e+001 -1.9719e+002  5.0242e+001 43492 90078,90274,90104
 2.0000e-001 90372 -1.1392e+002 -1.8044e+002  6.1365e+001 43492 90104,90274,90346
 2.0000e-001 90395 -1.0761e+002 -1.8297e+002  8.4625e+001 43492 90104,90346,90130
 2.0000e-001 90594  2.8453e+000  6.4933e-001  1.2532e+000 43052 90418,90496,90444
 2.0000e-001 90571  1.7669e+000  8.6667e-001  1.3281e+000 43052 90418,90522,90496
 2.0000e-001 90548  3.0291e+000 -7.6955e-001  5.4403e-001 43052 90444,90496,90470
 2.0000e-001 91074 -3.1070e+001 -1.6506e+001  2.5669e+001 42434 91241,90884,90858
 2.0000e-001 91051 -1.3650e+001 -2.4682e+001  5.8457e-001 42434 90702,90910,90884
 2.0000e-001 91028  2.8437e+000 -2.2911e+000  3.9403e+000 42434 91097,90754,90702
 2.0000e-001 91005 -2.0801e+001  4.2150e+000  2.1810e+001 42434 91241,90858,91097
 2.0000e-001 90982 -1.4853e+001  5.8505e+000 -3.8191e+000 42434 91169,90806,90780
 2.0000e-001 90959 -1.7956e+001  8.6062e-001 -3.6987e+000 42434 90806,90858,90832
 2.0000e-001 90936  1.5272e+001  1.2860e-001  5.9980e+000 42434 90702,90754,90728
 2.0000e-001 91123  7.3134e+000 -2.9184e+000  7.5098e+000 42434 90780,90754,91097
 2.0000e-001 91146 -1.7082e+001 -2.3271e+000  8.8403e+000 42434 91169,90780,91097
 2.0000e-001 91195 -1.2170e+001  1.3876e+001 -1.2659e+000 42434 90858,90806,91169
 2.0000e-001 91218 -6.8842e+000  2.3921e+001  1.0823e+001 42434 90858,91169,91097
 2.0000e-001 91267 -1.1567e+001 -3.6686e+001  1.0193e+001 42434 90702,90884,91241
 2.0000e-001 91290 -3.3528e+000 -1.9575e+001  6.9017e+000 42434 90702,91241,91097
 2.0000e-001 91698 -4.6180e+001 -1.0057e+002  3.3591e+001 41773 91473,91577,91499
 2.0000e-001 91675 -5.4286e+001 -1.1107e+002  4.1426e+001 41773 91473,91603,91577
 2.0000e-001 91652 -8.5369e+001 -8.3671e+001  1.9026e+001 41773 91499,91551,91525
 2.0000e-001 91629 -7.5463e+001 -8.5248e+001  3.8356e+001 41773 91499,91577,91551
 2.0000e-001 92044 -1.0435e+002 -1.7087e+002  3.9599e+001 41383 91773,91877,91851
 2.0000e-001 92021 -8.1909e+001 -1.7523e+002  2.5261e+001 41383 91747,91877,91773
 2.0000e-001 91998 -1.0596e+002 -1.5930e+002  3.4016e+001 41383 91773,91851,91799
 2.0000e-001 91975 -3.6438e+001 -1.7791e+002  3.6923e+001 41383 91747,91903,91877
 2.0000e-001 91952 -2.0181e+001 -1.7002e+002  3.9399e+001 41383 91721,91903,91747
 2.0000e-001 91929 -6.2274e+001 -1.5323e+002  2.5082e+001 41383 91799,91851,91825
 2.0000e-001 92601 -9.0083e+001 -7.3294e+001  1.4158e+001 40979 92229,92411,92307
 2.0000e-001 92578 -1.1807e+002 -8.7519e+001  1.9728e+001 40979 92229,92437,92411
 2.0000e-001 92555 -1.0199e+002 -7.4021e+001  2.7055e+001 40979 92229,92307,92281
 2.0000e-001 92532 -8.1578e+001 -5.3929e+001  2.8452e+001 40979 92333,92411,92385
 2.0000e-001 92509 -9.7788e+001 -7.0500e+001  1.5553e+001 40979 92307,92411,92333
 2.0000e-001 92486 -1.1366e+002 -7.3897e+001  1.4406e+001 40979 92229,92281,92255
 2.0000e-001 92463 -3.3181e+001 -3.5614e+001  3.0693e+001 40979 92333,92385,92359
 2.0000e-001 93235 -4.1526e+001 -8.0540e+000  2.9329e+001 40525 92941,92993,92967
 2.0000e-001 93212 -4.9595e+001 -5.5308e+000  2.2422e+001 40525 93258,92941,92889
 2.0000e-001 93189 -5.0553e+001 -1.6768e+000  1.5902e+001 40525 93258,92889,93071
 2.0000e-001 93166 -5.1356e+001 -2.8636e+001  2.3946e+001 40525 92889,92941,92915
 2.0000e-001 93143 -5.4360e+001 -2.1281e+001  9.1625e+000 40525 92863,93071,92889
 2.0000e-001 93120 -4.6626e+001 -1.4578e+001  7.4756e+000 40525 92993,93071,93019
 2.0000e-001 93097 -5.7188e+001 -3.0511e+001  1.3393e+001 40525 93019,93071,93045
 2.0000e-001 93284 -5.4039e+001 -1.6201e+001  2.4824e+001 40525 92993,92941,93258
 2.0000e-001 93307 -5.0338e+001 -5.3190e+000  1.7977e+001 40525 92993,93258,93071
 2.0000e-001 93636 -1.0023e+002 -1.3678e+002  5.0463e+001 40235 93437,93541,93515
 2.0000e-001 93613 -7.1504e+001 -1.2226e+002  5.6464e+001 40235 93411,93541,93437
 2.0000e-001 93590 -3.0377e+001 -1.2028e+002  4.3354e+001 40235 93463,93515,93489
 2.0000e-001 93567 -6.5692e+001 -1.1711e+002  3.3365e+001 40235 93437,93515,93463
 2.0000e-001 94014 -1.4730e+002 -2.5855e+002  3.2949e+001 39873 93766,93870,93792
 2.0000e-001 93991 -1.5502e+002 -2.3804e+002  5.1641e+001 39873 93766,93896,93870
 2.0000e-001 93968 -1.1793e+002 -1.8592e+002  4.6327e+001 39873 93792,93870,93844
 2.0000e-001 93945 -1.2238e+002 -1.9661e+002  5.7688e+001 39873 93792,93844,93818
 2.0000e-001 93922 -1.0782e+002 -2.1548e+002  1.0383e+002 39873 93740,93896,93766
 2.0000e-001 94164  3.3998e+000  1.8990e+000  9.1512e-001 39461 94037,94089,94063
 2.0000e-001 94141  1.7850e+000  2.0638e+000  1.1142e+000 39461 94037,94115,94089
 2.0000e-001 94363 -4.6884e+001 -1.2764e+002  3.5007e+001 39057 94386,94239,94213
 2.0000e-001 94340 -5.2367e+001 -1.3687e+002  4.0519e+001 39057 94386,94213,94187
 2.0000e-001 94317 -9.8919e+001 -1.6614e+002  5.3104e+001 39057 94187,94291,94265
 2.0000e-001 94412 -6.5478e+001 -1.4257e+002  4.3372e+001 39057 94458,94386,94265
 2.0000e-001 94435 -5.1830e+001 -1.3643e+002  3.8025e+001 39057 94265,94386,94187
 2.0000e-001 94484 -4.4299e+001 -1.0363e+002  3.4588e+001 39057 94239,94386,94458
 2.0000e-001 94896 -1.2116e+002 -1.2329e+002  3.8176e+001 38396 94919,94775,94723
 2.0000e-001 94873 -1.1698e+002 -1.3922e+002  3.3645e+001 38396 94919,94723,94697
 2.0000e-001 94850 -7.2438e+001 -1.0273e+002  3.1424e+001 38396 94723,94775,94749
 2.0000e-001 94827 -5.6783e+001 -1.2993e+002  4.8330e+001 38396 94671,94801,94697
 2.0000e-001 94945 -1.1503e+002 -1.3721e+002  4.4415e+001 38396 94801,94775,94919
 2.0000e-001 94968 -1.1382e+002 -1.5590e+002  4.2443e+001 38396 94801,94919,94697
 2.0000e-001 95265 -8.3663e+001 -8.6949e+001  1.7490e+001 37835 95017,95069,95043
 2.0000e-001 95242 -8.4505e+001 -1.0472e+002  1.6694e+001 37835 95288,95069,95017
 2.0000e-001 95219 -8.1845e+001 -1.1109e+002  2.7849e+001 37835 95288,95017,94991
 2.0000e-001 95196 -8.5573e+001 -1.3644e+002  2.4289e+001 37835 94991,95147,95121
 2.0000e-001 95173 -6.2663e+001 -7.3365e+001  2.3218e+001 37835 95069,95121,95095
 2.0000e-001 95314 -8.0627e+001 -8.9000e+001  1.5237e+001 37835 95121,95069,95288
 2.0000e-001 95337 -7.9536e+001 -9.9964e+001  2.5365e+001 37835 95121,95288,94991
 2.0000e-001 95558 -8.6033e+001 -2.0292e+002  3.3625e+001 37423 95408,95460,95434
 2.0000e-001 95535 -1.1082e+002 -2.8676e+002  5.3520e+001 37423 95382,95460,95408
 2.0000e-001 95512 -1.3145e+002 -3.0611e+002  6.1577e+001 37423 95382,95486,95460
 2.0000e-001 95891  2.5291e+000 -2.5815e-001 -1.5350e-002 37225 95666,95718,95692
 2.0000e-001 95868  1.1467e+000  3.0250e-001  4.9370e-001 37225 95666,95796,95718
 2.0000e-001 95845  7.5088e-001 -5.0020e-002  8.0362e-002 37225 95718,95770,95744
 2.0000e-001 95822  1.2788e+000  7.3640e-001  7.2674e-001 37225 95718,95796,95770
 2.0000e-001 95992 -8.2815e+001 -1.9547e+002  3.2981e+001 36735 95914,95966,95940
 2.0000e-001 96142 -1.1193e+002 -1.6863e+002  7.4348e+001 36331 96297,96067,96041
 2.0000e-001 96119 -5.5918e+001 -1.4545e+002  6.6025e+001 36331 96165,96041,96015
 2.0000e-001 96191 -1.1454e+002 -1.7600e+002  5.1299e+001 36331 96297,96041,96165
 2.0000e-001 96323 -1.1487e+002 -1.9945e+002  6.0343e+001 36331 96093,96067,96297
 2.0000e-001 96346 -1.3296e+002 -2.1483e+002  3.4140e+001 36331 96093,96297,96165
 2.0000e-001 96714 -1.0994e+002 -1.7156e+002  4.5082e+001 36041 96737,96495,96443
 2.0000e-001 96691 -1.2842e+002 -1.6782e+002  4.4452e+001 36041 96737,96443,96417
 2.0000e-001 96668 -7.6478e+001 -1.5366e+002  6.3922e+001 36041 96443,96495,96469
 2.0000e-001 96645 -9.9723e+001 -1.6481e+002  2.9255e+001 36041 96391,96521,96417
 2.0000e-001 96622 -7.6155e+001 -1.8159e+002  1.8677e+001 36041 96391,96547,96521
 2.0000e-001 96599 -7.8241e+001 -1.7798e+002  1.5204e+001 36041 96391,96573,96547
 2.0000e-001 96763 -7.1691e+001 -1.6855e+002  4.1902e+001 36041 96521,96495,96737
 2.0000e-001 96786 -1.1186e+002 -1.8022e+002  3.9930e+001 36041 96521,96737,96417
 2.0000e-001 96936 -5.8282e+001 -3.5583e+001  3.5517e+001 35637 97031,96959,96835
 2.0000e-001 96913 -7.1399e+001 -5.7007e+001  2.7887e+001 35637 97163,96959,96809
 2.0000e-001 96985 -6.1199e+001 -3.1717e+001  3.9412e+001 35637 96861,96835,96959
 2.0000e-001 97008 -5.5838e+001 -2.6923e+001  2.7327e+001 35637 96861,96959,96887
 2.0000e-001 97057 -6.8292e+001 -4.3106e+001  3.9016e+001 35637 96809,96959,97031
 2.0000e-001 97189 -6.8313e+001 -3.4567e+001  3.4882e+001 35637 96887,96959,97163
 2.0000e-001 97597 -4.5304e+001 -5.4387e+001  2.1957e+001 35190 97450,97502,97476
 2.0000e-001 97574 -4.4835e+001 -5.3798e+001  2.2466e+001 35190 97372,97502,97450
 2.0000e-001 97551 -4.9193e+001 -6.1058e+001  2.4981e+001 35190 97372,97450,97398
 2.0000e-001 97528 -4.1900e+001 -5.9562e+001  2.6486e+001 35190 97398,97450,97424
 2.0000e-001 98054 -7.3658e+001 -1.4069e+002  5.6798e+001 34636 97806,97936,97858
 2.0000e-001 98031 -1.1735e+002 -1.2381e+002  5.0976e+001 34636 97780,97936,97806
 2.0000e-001 98008 -1.0894e+002 -1.4205e+002  3.8630e+001 34636 97806,97858,97832
 2.0000e-001 97985 -5.4286e+001 -1.3708e+002  6.0931e+001 34636 97884,97936,97910
 2.0000e-001 97962 -7.1543e+001 -1.3438e+002  5.7110e+001 34636 97858,97936,97884
 2.0000e-001 98530 -2.9995e+001 -4.9315e+000  7.7963e+000 34068 98697,98184,98366
 2.0000e-001 98507 -2.0973e+001 -1.5624e+001 -2.8582e+000 34068 98158,98366,98184
 2.0000e-001 98484 -3.8238e+001 -9.4899e+000  1.5777e+001 34068 98553,98262,98236
 2.0000e-001 98461 -3.8712e+001 -4.8616e+000  2.0866e+001 34068 98553,98236,98210
 2.0000e-001 98438 -3.4167e+001 -7.6131e+000  5.9009e+000 34068 98841,98625,98366
 2.0000e-001 98415 -3.6920e+001 -3.1228e+001  2.4985e+001 34068 98769,98288,98262
 2.0000e-001 98392 -4.1523e+001 -4.4469e-001  5.8394e+000 34068 98841,98366,98340
 2.0000e-001 98579 -4.4389e+001 -1.9647e+001  2.0031e+001 34068 98769,98262,98553
 2.0000e-001 98602 -3.8204e+001 -1.7784e+001  1.0076e+001 34068 98625,98314,98553
 2.0000e-001 98651 -3.4554e+001 -9.1852e+000  5.1458e+000 34068 98697,98366,98625
 2.0000e-001 98674 -3.2016e+001 -3.0621e+000  7.1195e+000 34068 98210,98625,98553
 2.0000e-001 98723 -2.8125e+001 -1.0747e+001  6.0827e+000 34068 98210,98184,98697
 2.0000e-001 98746 -2.8445e+001 -9.4750e+000  5.6692e+000 34068 98210,98697,98625
 2.0000e-001 98795 -2.4120e+001 -1.8957e+001  1.8340e+001 34068 98314,98288,98769
 2.0000e-001 98818 -3.3501e+001 -1.0165e+001  1.3722e+001 34068 98314,98769,98553
 2.0000e-001 98867 -4.0056e+001 -1.5549e+001  2.9820e+000 34068 98314,98625,98841
 2.0000e-001 98890 -4.6724e+001 -7.2947e+000  3.0795e+000 34068 98314,98841,98340
 2.0000e-001 99268 -6.7026e+001 -7.1336e+001  2.4351e+001 33450 99291,99098,99072
 2.0000e-001 99245 -6.6343e+001 -5.8279e+001  1.9632e+001 33450 99291,99072,99020
 2.0000e-001 99222 -7.7951e+001 -4.7980e+001  2.5157e+001 33450 99020,99072,99046
 2.0000e-001 99199 -6.4293e+001 -5.5200e+001  5.4114e+000 33450 99020,99150,99124
 2.0000e-001 99176 -6.8100e+001 -6.3354e+001  4.3356e+000 33450 98994,99150,99020
 2.0000e-001 99317 -6.2752e+001 -6.3820e+001  1.6434e+001 33450 99124,99098,99291
 2.0000e-001 99340 -6.6931e+001 -5.1672e+001  1.3950e+001 33450 99124,99291,99020
 2.0000e-001 99865 -6.5775e+001 -9.8223e+001  3.7574e+001 32944 100176,99960,99888
 2.0000e-001 99842 -8.0192e+001 -9.4757e+001  3.3525e+001 32944 100104,99888,99522
 2.0000e-001 99819 -5.2394e+001 -7.7836e+001  3.9914e+001 32944 100248,99960,99626
 2.0000e-001 99796 -8.0707e+001 -1.1454e+002  3.5843e+001 32944 100032,99652,99626
 2.0000e-001 99773 -7.4350e+001 -8.8610e+001  2.9693e+001 32944 100104,99522,99496
 2.0000e-001 99750 -5.1683e+001 -9.9766e+001  5.8669e+000 32944 99574,99626,99600
 2.0000e-001 99727 -3.4389e+001 -7.7921e+001  4.5179e+001 32944 100248,99626,99574
 2.0000e-001 99704 -6.6674e+001 -9.3668e+001  2.6705e+001 32944 99444,99496,99470
 2.0000e-001 99914 -7.6703e+001 -1.0284e+002  3.8251e+001 32944 100176,99888,100032
 2.0000e-001 99937 -6.6832e+001 -9.4907e+001  2.7798e+001 32944 99678,99888,99444
 2.0000e-001 99986 -7.1411e+001 -7.4121e+001  3.5704e+001 32944 99522,99888,99960
 2.0000e-001 100009 -7.2720e+001 -6.3613e+001  4.4608e+001 32944 99522,99960,99548
 2.0000e-001 100058 -6.8605e+001 -1.3758e+002  2.2876e+001 32944 99678,99652,100032
 2.0000e-001 100081 -7.6937e+001 -1.1755e+002  2.2634e+001 32944 99678,100032,99888
 2.0000e-001 100130 -7.0513e+001 -9.5652e+001  2.8445e+001 32944 99444,99888,100104
 2.0000e-001 100153 -6.7779e+001 -9.4455e+001  2.5708e+001 32944 99444,100104,99496
 2.0000e-001 100202 -7.3145e+001 -9.7488e+001  2.8377e+001 32944 99626,99960,100176
 2.0000e-001 100225 -7.5097e+001 -9.8162e+001  2.7989e+001 32944 99626,100176,100032
 2.0000e-001 100274 -7.8924e+001 -7.6166e+001  3.5938e+001 32944 99548,99960,100248
 2.0000e-001 100297 -6.2995e+001 -7.7895e+001  4.1077e+001 32944 99548,100248,99574
 2.0000e-001 100754 -7.8512e+001 -9.9339e+001  3.5069e+001 32369 100777,100584,100506
 2.0000e-001 100731 -4.2579e+001 -1.1679e+002  6.0165e+001 32369 100777,100506,100636
 2.0000e-001 100708 -6.2938e+001 -1.2818e+002  5.5715e+001 32369 100480,100636,100506
 2.0000e-001 100685 -1.1924e+002 -1.5031e+002  4.1241e+001 32369 100532,100584,100558
 2.0000e-001 100662 -8.7471e+001 -1.3100e+002  3.2273e+001 32369 100506,100584,100532
 2.0000e-001 100803 -5.2698e+001 -6.5612e+001  4.6312e+001 32369 100610,100584,100777
 2.0000e-001 100826 -2.4818e+001 -9.2519e+001  6.8137e+001 32369 100610,100777,100636
 2.0000e-001 101025 -5.9710e+001 -9.6542e+001  7.1666e+001 31857 100875,100927,100901
 2.0000e-001 101002 -1.1109e+002 -1.6926e+002  4.3074e+001 31857 100875,100953,100927
 2.0000e-001 100979 -1.1151e+002 -1.6171e+002  3.4725e+001 31857 100849,100953,100875
 2.0000e-001 101533 -5.4536e+001 -7.4062e+001  2.7303e+001 31253 101556,101314,101236
 2.0000e-001 101510 -6.2826e+001 -8.4577e+001  3.2749e+001 31253 101556,101236,101210
 2.0000e-001 101487 -6.8849e+001 -9.0798e+001  2.1443e+001 31253 101210,101392,101340
 2.0000e-001 101464 -4.6317e+001 -6.3167e+001  2.6115e+001 31253 101236,101288,101262
 2.0000e-001 101441 -5.2369e+001 -7.7409e+001  2.5360e+001 31253 101236,101314,101288
 2.0000e-001 101418 -6.3036e+001 -9.8067e+001  3.8377e+001 31253 101340,101392,101366
 2.0000e-001 101582 -5.5486e+001 -6.0352e+001  1.7268e+001 31253 101340,101314,101556
 2.0000e-001 101605 -6.5051e+001 -7.3100e+001  2.2897e+001 31253 101340,101556,101210
 2.0000e-001 101755  4.1361e+000  4.6817e+000  9.1020e+000 30519 101778,101654,101628
 2.0000e-001 101732  1.6010e+000  1.1874e+001  3.9325e+000 30519 101850,101778,101628
 2.0000e-001 101804  1.8324e+000 -8.9720e+000  6.8346e+000 30519 101680,101654,101778
 2.0000e-001 101827  5.1558e+000  2.6294e+000  4.3853e+000 30519 101680,101778,101706
 2.0000e-001 101876 -3.5536e+000  2.8968e-001  2.5770e+000 30519 101706,101778,101850
 2.0000e-001 102561 -8.6975e+001 -1.1945e+002  3.1510e+001 29951 102656,102584,102270
 2.0000e-001 102538 -9.8358e+001 -1.8162e+002  3.7079e+001 29951 102584,102140,102374
 2.0000e-001 102515 -9.9494e+001 -1.5110e+002  3.9299e+001 29951 102728,102656,102270
 2.0000e-001 102492 -9.3382e+001 -1.6428e+002  3.5453e+001 29951 102728,102270,102244
 2.0000e-001 102469 -8.5246e+001 -3.6131e+001  3.9334e+001 29951 102800,102322,102296
 2.0000e-001 102446 -1.1354e+002 -1.3862e+002  2.1517e+001 29951 102166,102218,102192
 2.0000e-001 102423 -8.0522e+001 -1.1789e+002  3.0936e+001 29951 102166,102244,102218
 2.0000e-001 102400 -4.5364e+001 -8.1762e+001  1.9234e+001 29951 102322,102374,102348
 2.0000e-001 102610 -1.0853e+002 -8.7196e+001  3.1135e+001 29951 102296,102270,102584
 2.0000e-001 102633 -1.0957e+002 -8.9100e+001  3.1582e+001 29951 102800,102296,102584
 2.0000e-001 102682 -9.0259e+001 -1.3969e+002  5.4088e+001 29951 102140,102584,102656
 2.0000e-001 102705 -9.1836e+001 -1.6589e+002  5.5430e+001 29951 102140,102656,102166
 2.0000e-001 102754 -8.9176e+001 -1.3387e+002  4.6091e+001 29951 102166,102656,102728
 2.0000e-001 102777 -8.8503e+001 -1.4895e+002  3.9228e+001 29951 102166,102728,102244
 2.0000e-001 102826 -6.6453e+001 -9.7315e+001  6.4016e+001 29951 102374,102322,102800
 2.0000e-001 102849 -7.1466e+001 -1.1668e+002  6.4095e+001 29951 102374,102800,102584
 2.0000e-001 103048  6.1892e-001 -4.1832e+000  4.0344e+000 29454 102872,102924,102898
 2.0000e-001 103025 -5.8490e+000  1.0936e+001  3.9148e+000 29454 102872,102976,102924
 2.0000e-001 103002 -1.0700e+001 -4.7815e+000  3.5363e+000 29454 102924,102976,102950
 2.0000e-001 103296 -4.6529e+001 -3.1437e+001  1.8183e+001 29064 103319,103175,103123
 2.0000e-001 103273 -4.1544e+001 -2.9757e+001  1.8242e+001 29064 103319,103123,103071
 2.0000e-001 103250 -3.2048e+001 -3.3715e+001  2.3796e+001 29064 103123,103175,103149
 2.0000e-001 103227 -4.5096e+001 -2.9665e+001  1.6907e+001 29064 103071,103123,103097
 2.0000e-001 103345 -5.3529e+001 -2.8704e+001  2.2008e+001 29064 103201,103175,103319
 2.0000e-001 103368 -4.3814e+001 -2.4243e+001  2.4281e+001 29064 103201,103319,103071
 2.0000e-001 104006 -7.6692e+001 -5.0051e+001  3.0112e+001 28603 104101,104029,103712
 2.0000e-001 103983 -6.9885e+001 -5.3683e+001  2.5537e+001 28603 104173,104029,103660
 2.0000e-001 103960 -9.0310e+001 -4.1004e+001  2.9020e+001 28603 104101,103712,103686
 2.0000e-001 103937 -5.3310e+001 -6.2621e+001  2.2815e+001 28603 104173,103660,103634
 2.0000e-001 103914 -9.6661e+001 -9.0759e+001  3.8719e+001 28603 103764,103816,103790
 2.0000e-001 103891 -5.9974e+001 -6.6726e+001  3.0995e+001 28603 103634,103842,103816
 2.0000e-001 103868 -5.8327e+001 -2.3490e+001  4.1854e+001 28603 103712,103764,103738
 2.0000e-001 104055 -8.0714e+001 -5.6493e+001  3.1966e+001 28603 103764,103712,104029
 2.0000e-001 104078 -7.9141e+001 -5.6017e+001  3.2200e+001 28603 103764,104029,103816
 2.0000e-001 104127 -9.0806e+001 -6.2050e+001  2.4777e+001 28603 103660,104029,104101
 2.0000e-001 104150 -1.0454e+002 -5.0387e+001  2.4963e+001 28603 103660,104101,103686
 2.0000e-001 104199 -8.2506e+001 -6.1842e+001  3.0813e+001 28603 103816,104029,104173
 2.0000e-001 104222 -6.7787e+001 -6.9928e+001  2.6721e+001 28603 103816,104173,103634
 2.0000e-001 104600 -3.3784e+001 -4.5787e+001  1.7794e+001 28348 104623,104378,104326
 2.0000e-001 104577 -3.6840e+001 -4.4897e+001  1.4935e+001 28348 104623,104326,104482
 2.0000e-001 104554 -3.5191e+001 -5.2798e+001  1.8544e+001 28348 104326,104378,104352
 2.0000e-001 104531 -4.5910e+001  8.3379e+000  3.2681e+000 28348 104404,104456,104430
 2.0000e-001 104508 -5.4670e+001 -2.8776e+001  2.0506e+001 28348 104378,104456,104404
 2.0000e-001 104649 -3.5627e+001 -4.8020e+001  1.5475e+001 28348 104456,104378,104623
 2.0000e-001 104672 -3.9670e+001 -4.7873e+001  1.2535e+001 28348 104456,104623,104482
 2.0000e-001 104991 -8.8401e+001 -1.4275e+002  4.6708e+001 27951 104717,104847,104769
 2.0000e-001 104968 -5.7745e+001 -1.3522e+002  4.9545e+001 27951 104717,104873,104847
 2.0000e-001 104945 -5.2316e+001 -1.2447e+002  5.3653e+001 27951 104769,104847,104795
 2.0000e-001 104922 -2.3086e+001 -5.3770e+001  5.5291e+001 27951 104795,104847,104821
 2.0000e-001 104899 -7.5863e+001 -1.1327e+002  4.5711e+001 27951 104717,104769,104743
 2.0000e-001 105371 -3.7689e+001 -5.8274e+000  1.9897e+001 27447 105394,105201,105123
 2.0000e-001 105348 -3.3022e+001 -4.6898e+000  1.8424e+001 27447 105394,105123,105097
 2.0000e-001 105325 -6.2757e+001 -1.2668e+001  2.3021e+001 27447 105123,105201,105149
 2.0000e-001 105302 -3.8855e+001  1.8281e+000  2.2548e+001 27447 105201,105253,105227
 2.0000e-001 105279 -5.4638e+001 -1.4868e+001  1.9395e+001 27447 105149,105201,105175
 2.0000e-001 105420 -4.0909e+001 -5.6633e+000  2.2900e+001 27447 105253,105201,105394
 2.0000e-001 105443 -3.5762e+001 -4.8684e+000  2.1782e+001 27447 105253,105394,105097
 2.0000e-001 105998 -7.9589e+001 -6.2465e+001  4.6422e+001 27100 106165,106021,105704
 2.0000e-001 105975 -6.5096e+001 -6.8558e+001  3.9222e+001 27100 106309,106021,105652
 2.0000e-001 105952 -1.5548e+002 -9.7919e+001  7.5424e+001 27100 106093,105808,105782
 2.0000e-001 105929 -8.0538e+001 -5.6827e+001  4.9532e+001 27100 106165,105704,105678
 2.0000e-001 105906 -7.4244e+001 -5.3553e+001  4.2258e+001 27100 106237,105730,105704
 2.0000e-001 105883 -4.8541e+001 -7.6194e+001  3.0445e+001 27100 106309,105652,105626
 2.0000e-001 105860 -6.8862e+001 -5.6072e+000  2.7271e+001 27100 105730,105782,105756
 2.0000e-001 106047 -7.9524e+001 -5.2497e+001  4.3163e+001 27100 106237,105704,106021
 2.0000e-001 106070 -9.4330e+001 -6.8129e+001  4.8780e+001 27100 106093,105782,106021
 2.0000e-001 106119 -6.6501e+001 -6.2318e+001  6.0545e+001 27100 105834,105808,106093
 2.0000e-001 106142 -7.0583e+001 -8.8518e+001  4.6140e+001 27100 106381,106093,106021
 2.0000e-001 106191 -8.2175e+001 -7.1557e+001  3.8586e+001 27100 105652,106021,106165
 2.0000e-001 106214 -8.0703e+001 -5.7459e+001  4.0116e+001 27100 105652,106165,105678
 2.0000e-001 106263 -6.8341e+001 -5.3270e+001  3.9169e+001 27100 105782,105730,106237
 2.0000e-001 106286 -7.4721e+001 -5.3236e+001  4.0244e+001 27100 105782,106237,106021
 2.0000e-001 106335 -7.2743e+001 -8.5450e+001  4.1099e+001 27100 106381,106021,106309
 2.0000e-001 106358 -6.3796e+001 -1.0204e+002  3.9006e+001 27100 105834,106309,105626
 2.0000e-001 106407 -6.2091e+001 -8.3383e+001  4.3980e+001 27100 105834,106093,106381
 2.0000e-001 106430 -6.3064e+001 -8.0751e+001  3.9525e+001 27100 105834,106381,106309
 2.0000e-001 106629 -6.8892e-001  3.4830e+000  1.1994e+000 26688 106479,106557,106531
 2.0000e-001 106606  6.4562e+000  9.4274e+000  3.8921e+000 26688 106453,106557,106479
 2.0000e-001 106583  6.5985e-001  4.2227e+000  8.0064e-001 26688 106479,106531,106505
 2.0000e-001 107088 -4.3270e+001 -4.1803e+001  1.7440e+001 26248 107111,106918,106866
 2.0000e-001 107065 -4.6962e+001 -3.6651e+001  2.2751e+001 26248 107111,106866,106840
 2.0000e-001 107042 -4.9486e+001 -3.5573e+001  1.8452e+001 26248 106814,106970,106840
 2.0000e-001 107019 -4.0996e+001 -5.2192e+001  2.1255e+001 26248 106866,106918,106892
 2.0000e-001 106996 -7.5316e+001 -6.7990e+001  1.9868e+001 26248 106918,106970,106944
 2.0000e-001 107137 -5.1942e+001 -4.9013e+001  1.1637e+001 26248 106970,106918,107111
 2.0000e-001 107160 -4.9566e+001 -3.8183e+001  1.7757e+001 26248 106970,107111,106840
 2.0000e-001 107666 -9.0192e+001 -8.2967e+001  3.5142e+001 25908 107369,107499,107395
 2.0000e-001 107643 -1.1418e+002 -1.3172e+002  5.1883e+001 25908 107369,107525,107499
 2.0000e-001 107620 -1.0755e+002 -5.2526e+001  5.4649e+001 25908 107395,107473,107447
 2.0000e-001 107597 -4.2463e+001 -6.0670e+001  5.4625e+001 25908 107395,107499,107473
 2.0000e-001 107574 -1.3470e+002 -5.8405e+001  8.7211e+001 25908 107395,107447,107421
 2.0000e-001 107551 -4.3891e+001 -9.7675e+001  7.1847e+001 25908 107343,107525,107369
 2.0000e-001 108251 -9.3092e+001 -4.7826e+001  4.8164e+001 25454 108274,108006,107954
 2.0000e-001 108228 -7.5073e+001 -4.2998e+001  4.9817e+001 25454 108274,107954,108110
 2.0000e-001 108205 -6.7122e+001 -4.4474e+001  5.5830e+001 25454 108346,108032,108006
 2.0000e-001 108182 -9.9685e+001 -4.4912e+001  5.4840e+001 25454 107954,108006,107980
 2.0000e-001 108159 -1.6185e+001 -3.0938e+001  5.8567e+001 25454 107928,108110,107954
 2.0000e-001 108136 -1.1485e+002 -1.0988e+002  5.5786e+001 25454 108058,108110,108084
 2.0000e-001 108300 -8.0919e+001 -3.6844e+001  5.5703e+001 25454 108346,108006,108274
 2.0000e-001 108323 -8.4546e+001 -5.8300e+001  4.1953e+001 25454 108058,108274,108110
 2.0000e-001 108372 -3.1202e+001 -4.4632e+001  4.9717e+001 25454 108058,108032,108346
 2.0000e-001 108395 -5.7200e+001 -4.5708e+001  4.5295e+001 25454 108058,108346,108274
 2.0000e-001 108822 -5.9370e+001 -3.8285e+001  1.4967e+001 24943 108525,108681,108655
 2.0000e-001 108799 -6.7118e+001 -6.1394e+001  1.5170e+001 24943 108499,108681,108525
 2.0000e-001 108776 -5.9093e+001 -3.8082e+001  2.0326e+001 24943 108525,108655,108629
 2.0000e-001 108753 -6.3740e+001 -3.3300e+001  1.8622e+001 24943 108525,108629,108603
 2.0000e-001 108730 -5.1585e+001 -2.9193e+001  2.2561e+001 24943 108551,108603,108577
 2.0000e-001 108707 -7.2087e+001 -3.8031e+001  2.5931e+001 24943 108525,108603,108551
 2.0000e-001 109407 -1.1406e+001 -1.0513e+001  1.0947e+001 24745 109162,109214,109188
 2.0000e-001 109384 -3.0323e+001 -2.2499e+001  5.7821e+000 24745 109162,109266,109214
 2.0000e-001 109361 -2.9020e+001 -1.6877e+001  5.2789e+000 24745 109084,109266,109162
 2.0000e-001 109338 -3.5989e+001 -3.7566e+000  8.7493e+000 24745 109084,109162,109136
 2.0000e-001 109315 -2.1807e+001 -2.4271e+001  5.0498e+000 24745 109214,109266,109240
 2.0000e-001 109292 -2.5729e+001 -1.2824e+001  1.4192e+001 24745 109084,109136,109110
 2.0000e-001 109785 -1.0746e+002 -1.0551e+002  5.9332e+001 24341 109537,109615,109563
 2.0000e-001 109762 -3.6775e+001 -8.5995e+001  5.2393e+001 24341 109537,109641,109615
 2.0000e-001 109739 -4.1880e+001 -6.9796e+001  7.3979e+001 24341 109563,109615,109589
 2.0000e-001 109716 -6.0105e+001 -9.8005e+001  4.0152e+001 24341 109537,109667,109641
 2.0000e-001 109693 -1.3574e+001 -7.3228e+001  5.0353e+001 24341 109511,109667,109537
 2.0000e-001 110163 -3.6398e+001 -2.9404e+001  3.3165e+001 23837 110186,109967,109915
 2.0000e-001 110140 -3.7966e+001 -3.4647e+001  3.8196e+001 23837 110186,109915,109889
 2.0000e-001 110117 -2.1356e+001 -1.0413e+001  3.0645e+001 23837 109889,110045,109993
 2.0000e-001 110094 -3.8733e+001 -1.5068e+001  4.1428e+001 23837 109915,109967,109941
 2.0000e-001 110071 -3.1117e+001  3.1095e+000  6.0377e+000 23837 109993,110045,110019
 2.0000e-001 110212 -3.5961e+001 -2.5343e+001  3.2520e+001 23837 109993,109967,110186
 2.0000e-001 110235 -3.4808e+001 -2.7931e+001  3.6762e+001 23837 109993,110186,109889
 2.0000e-001 110336 -6.3709e+001 -1.4799e+002  6.1765e+001 23433 110258,110310,110284
 2.0000e-001 110584 -7.2067e+001 -3.9725e+001  2.7573e+001 22829 110607,110411,110385
 2.0000e-001 110561 -7.5056e+001 -4.0872e+001  2.6817e+001 22829 110607,110385,110489
 2.0000e-001 110538 -8.4205e+001 -6.0708e+001  3.0010e+001 22829 110437,110489,110463
 2.0000e-001 110515 -4.7214e+001 -4.4640e+001  3.6014e+001 22829 110359,110489,110385
 2.0000e-001 110633 -7.3318e+001 -4.0747e+001  2.5678e+001 22829 110437,110411,110607
 2.0000e-001 110656 -7.4885e+001 -4.1016e+001  2.4993e+001 22829 110437,110607,110489
 2.0000e-001 110906 -9.7943e+001 -4.1804e+001  3.3495e+001 22432 110707,110759,110733
 2.0000e-001 110883 -9.7615e+001 -5.1314e+001  3.5351e+001 22432 110707,110785,110759
 2.0000e-001 110860 -8.3551e+001 -4.5208e+001  3.6021e+001 22432 110707,110811,110785
 2.0000e-001 110837 -9.7208e+001 -8.9040e+001  3.1845e+001 22432 110681,110811,110707
 2.0000e-001 111288 -1.8040e+001 -3.3594e+001  2.3137e+001 22142 111092,111144,111118
 2.0000e-001 111265 -3.6816e+001 -2.7623e+001  1.7233e+001 22142 111066,111144,111092
 2.0000e-001 111242 -2.9222e+001 -1.1325e+001  1.4384e+001 22142 111040,111144,111066
 2.0000e-001 111219 -3.3106e+001 -1.8984e+001  1.2202e+001 22142 111014,111144,111040
 2.0000e-001 111196 -1.5237e+001 -8.2412e+000  6.9432e+000 22142 111014,111170,111144
 2.0000e-001 111389  2.3151e+000 -6.6281e-001  6.7475e-001 21830 111311,111363,111337
 2.0000e-001 111735 -3.1057e+001  5.0344e+001  6.4656e+001 21268 111758,111542,111438
 2.0000e-001 111712 -2.3500e+001  4.9098e+001  2.5356e+001 21268 111758,111438,111412
 2.0000e-001 111689 -1.5109e+000 -1.3649e+000  7.9453e+001 21268 111438,111542,111464
 2.0000e-001 111666  6.6090e+001  2.7629e+001  8.0652e+001 21268 111464,111542,111490
 2.0000e-001 111643 -6.4967e+001 -4.9059e+001  2.3846e+001 21268 111412,111594,111568
 2.0000e-001 111620  1.3801e+002  6.0538e+001  9.4882e+001 21268 111490,111542,111516
 2.0000e-001 111784 -2.4966e+001  1.6487e+001  5.0115e+001 21268 111568,111542,111758
 2.0000e-001 111807 -3.6043e+001 -3.6263e+001  2.1672e+001 21268 111568,111758,111412
 2.0000e-001 111959 -6.2231e+001  2.9944e+001  1.9000e+001 20864 111982,111910,111884
 2.0000e-001 111936 -5.7878e+001 -4.4414e+000  1.3604e+001 20864 112114,111832,111910
 2.0000e-001 112008 -6.6071e+001  1.2879e+001  2.0121e+001 20864 112114,111910,111982
 2.0000e-001 112140 -5.2572e+001  1.1673e+001  1.4255e+001 20864 111858,111832,112114
 2.0000e-001 112163 -5.7881e+001  3.4332e+001  1.9473e+001 20864 111858,112114,111982
 2.0000e-001 112411  1.5470e+001  1.6026e+001  2.1260e+001 20324 112186,112290,112212
 2.0000e-001 112388  6.9114e+000  2.2013e+001  1.1924e+001 20324 112186,112316,112290
 2.0000e-001 112365  2.0767e+001  1.3549e+001  2.1063e+001 20324 112212,112290,112264
 2.0000e-001 112342 -1.7803e+001 -7.4988e+000  2.9194e+001 20324 112212,112264,112238
 2.0000e-001 112659 -4.1782e+001 -1.7795e+001  2.6951e+001 19920 112512,112564,112538
 2.0000e-001 112636 -4.0254e+001 -2.2173e+001  2.6959e+001 19920 112434,112564,112512
 2.0000e-001 112613 -3.8670e+001 -9.2652e+000  2.3123e+001 19920 112434,112512,112460
 2.0000e-001 112590 -3.9438e+001 -2.7607e+001  2.5428e+001 19920 112460,112512,112486
 2.0000e-001 112811 -6.3114e+001 -2.6857e+001  3.5293e+001 19630 112684,112736,112710
 2.0000e-001 112788 -5.6313e+001 -3.2599e+001  3.1463e+001 19630 112684,112762,112736
 2.0000e-001 113012 -5.5910e+001 -2.3824e+001  3.0002e+001 19169 112862,112940,112888
 2.0000e-001 112989 -6.4350e+001 -4.2376e+001  2.6716e+001 19169 112836,112940,112862
 2.0000e-001 112966 -5.8594e+001 -5.8769e+001  2.5859e+001 19169 112888,112940,112914
 2.0000e-001 113213 -1.0553e+002 -4.4891e+001  4.6787e+001 18600 113037,113089,113063
 2.0000e-001 113190 -1.1394e+002 -5.3183e+001  5.0128e+001 18600 113037,113115,113089
 2.0000e-001 113167 -1.0836e+002 -7.0395e+001  6.6618e+001 18600 113037,113141,113115
 2.0000e-001 113485 -6.4354e+001 -2.7206e+001  4.9229e+001 18352 113260,113312,113286
 2.0000e-001 113462 -9.3472e+001 -5.8985e+001  6.2649e+001 18352 113260,113390,113312
 2.0000e-001 113439 -8.8526e+001 -4.4008e+001  6.1471e+001 18352 113312,113390,113364
 2.0000e-001 113416 -9.4673e+001 -3.9946e+001  6.3736e+001 18352 113312,113364,113338
 2.0000e-001 113757 -1.0032e+002 -4.2372e+001  6.3469e+001 17834 113558,113610,113584
 2.0000e-001 113734 -8.2214e+001 -5.8310e+001  7.6529e+001 17834 113532,113610,113558
 2.0000e-001 113711 -7.3988e+001 -4.0581e+001  7.0188e+001 17834 113532,113662,113610
 2.0000e-001 113688 -2.2832e+001 -8.6644e+000  8.5076e+001 17834 113610,113662,113636
 2.0000e-001 113958 -1.8927e+001 -7.8999e+000  3.7024e+001 17330 113782,113834,113808
 2.0000e-001 113935 -1.5884e+001  1.1019e+001  3.4540e+001 17330 113782,113886,113834
 2.0000e-001 113912 -3.7351e+001 -1.1360e+001  2.0989e+001 17330 113834,113886,113860
 2.0000e-001 114110 -7.7973e+001 -3.2461e+001  7.8559e+001 16874 113983,114035,114009
 2.0000e-001 114087 -2.5784e+001 -5.9229e+001  6.4551e+001 16874 113983,114061,114035
 2.0000e-001 114465 -3.1573e+001 -1.3514e+001  1.1147e+001 16270 114240,114292,114266
 2.0000e-001 114442 -5.3795e+001 -1.8907e+001  1.2191e+001 16270 114240,114370,114292
 2.0000e-001 114419 -3.3575e+001 -1.4303e+001  2.3823e+001 16270 114292,114344,114318
 2.0000e-001 114396 -6.7365e+001 -3.3444e+001  5.8916e+000 16270 114292,114370,114344
 2.0000e-001 114566 -9.2311e-001  9.2311e-001  9.2303e+001 15834 114488,114540,114514
 2.0000e-001 114667 -4.2148e+001 -1.7853e+001  3.6969e+001 15155 114589,114641,114615
 2.0000e-001 114890 -8.0307e+001 -3.4221e+001  3.5725e+001 421 114766,114818,114792
 2.0000e-001 114867 -9.1190e+001 -5.9514e+001  3.3457e+001 421 114714,114818,114766
 2.0000e-001 114844 -8.0805e+001 -3.4575e+001  1.9470e+001 421 114714,114766,114740
 3.0000e-001 66553 -1.9859e+002 -8.7088e+001  1.0424e+002 66108 66354,66458,66432
 3.0000e-001 66530 -2.0018e+002 -8.5080e+001  7.9922e+001 66108 66328,66458,66354
 3.0000e-001 66507 -1.1724e+002 -7.5806e+001  6.6633e+001 66108 66354,66432,66406
 3.0000e-001 66484  3.4022e+001  1.6762e+001  1.1881e+002 66108 66354,66406,66380
 3.0000e-001 66951 -1.6404e+002 -6.9791e+001  5.8750e+001 65910 66703,66833,66807
 3.0000e-001 66928 -5.7217e+001 -7.3160e+001  9.1717e+001 65910 66677,66833,66703
 3.0000e-001 66905 -6.0943e+001 -9.2293e+001  7.7102e+001 65910 66729,66781,66755
 3.0000e-001 66882 -1.4985e+002 -6.3260e+001  7.8977e+001 65910 66729,66807,66781
 3.0000e-001 66859 -1.4001e+002 -2.9377e+001  7.2701e+001 65910 66703,66807,66729
 3.0000e-001 67150 -1.6613e+002 -6.9539e+001  1.0469e+002 65712 67026,67078,67052
 3.0000e-001 67127 -2.7507e+002 -9.0696e+001  1.1733e+002 65712 66974,67078,67026
 3.0000e-001 67104 -5.7904e+002 -2.8309e+002  2.2504e+002 65712 66974,67026,67000
 3.0000e-001 67481 -2.6786e+002 -1.2226e+002  1.0606e+002 65422 67282,67360,67334
 3.0000e-001 67458 -1.6702e+002 -6.8448e+001  1.4190e+002 65422 67282,67386,67360
 3.0000e-001 67435 -9.5391e+001 -5.1238e+001  9.2475e+001 65422 67282,67334,67308
 3.0000e-001 67412 -1.8120e+002 -1.1462e+002  1.4355e+002 65422 67256,67386,67282
 3.0000e-001 68115 -1.2486e+002 -1.5360e+002  6.5529e+001 65018 67795,67925,67873
 3.0000e-001 68092 -1.0800e+002 -1.4535e+002  2.9913e+001 65018 67769,67925,67795
 3.0000e-001 68069 -9.7587e+001 -6.0262e+001  8.1889e+001 65018 67873,67925,67899
 3.0000e-001 68046 -1.8741e+002 -1.7905e+002  4.6587e+001 65018 67769,67951,67925
 3.0000e-001 68023 -1.3373e+002 -1.7533e+002  6.8713e+001 65018 67795,67873,67821
 3.0000e-001 68000 -1.3146e+002 -1.6049e+002  5.4476e+001 65018 67821,67873,67847
 3.0000e-001 67977 -1.8973e+002 -1.4581e+002  8.1329e+001 65018 67743,67951,67769
 3.0000e-001 68363 -4.5984e+001 -1.0494e+002  9.9023e+001 64820 68190,68242,68216
 3.0000e-001 68340 -9.2427e+001 -7.0731e+001  1.0614e+002 64820 68190,68268,68242
 3.0000e-001 68317 -4.9045e+001 -5.0794e+001  1.1669e+002 64820 68164,68268,68190
 3.0000e-001 68294 -2.0572e+002 -8.6778e+001  9.4958e+001 64820 68138,68268,68164
 3.0000e-001 68513 -1.2125e+002 -1.0876e+002  1.0110e+002 64366 68868,68536,68438
 3.0000e-001 68490 -1.0134e+002 -7.9998e+001  6.2242e+001 64366 68536,68412,68386
 3.0000e-001 68562 -1.9130e+002 -1.3249e+002  8.5498e+001 64366 68740,68536,68464
 3.0000e-001 68585 -1.2429e+002 -7.1783e+001  7.1390e+001 64366 68608,68536,68386
 3.0000e-001 68634 -1.7126e+002 -1.6645e+002  5.5995e+001 64366 68464,68536,68608
 3.0000e-001 68766 -1.0304e+002 -1.0255e+002  7.6124e+001 64366 68438,68536,68740
 3.0000e-001 68894 -1.3348e+002 -8.9785e+001  9.5926e+001 64366 68412,68536,68868
 3.0000e-001 69172  2.3749e+001 -1.2334e+002  3.0214e+001 64168 69022,69074,69048
 3.0000e-001 69149 -4.1434e+001 -1.7454e+001  4.4820e+001 64168 68996,69074,69022
 3.0000e-001 69126 -6.9755e+001 -7.6386e+001  2.2416e+001 64168 68996,69100,69074
 3.0000e-001 69371 -1.3904e+002 -6.6438e+001  1.1967e+002 63970 69466,69394,69273
 3.0000e-001 69348 -1.2019e+002 -9.3006e+001  8.5345e+001 63970 69394,69247,69221
 3.0000e-001 69325 -2.6423e+002 -1.1189e+002  9.3301e+001 63970 69195,69299,69221
 3.0000e-001 69420 -1.6315e+002 -1.0719e+002  1.3003e+002 63970 69299,69273,69394
 3.0000e-001 69443 -1.4418e+002 -1.2085e+002  9.9892e+001 63970 69299,69394,69221
 3.0000e-001 69492 -1.6834e+002 -1.1352e+002  1.0720e+002 63970 69247,69394,69466
 3.0000e-001 69904 -8.7839e+000 -7.0328e+001  3.0566e+001 63680 69705,69783,69731
 3.0000e-001 69881  6.0970e+000 -6.2085e+001  2.7332e+001 63680 69679,69783,69705
 3.0000e-001 69858 -4.9559e+001 -1.2504e+002  5.1509e+001 63680 69679,69809,69783
 3.0000e-001 69835 -3.5463e+001 -5.4643e+001  3.3683e+001 63680 69731,69783,69757
 3.0000e-001 70054 -7.3523e+000 -3.4546e+001  3.2416e+001 63476 70077,69953,69927
 3.0000e-001 70031  2.7414e+001 -1.3239e+001  4.1465e+001 63476 70077,69927,70005
 3.0000e-001 70103 -3.9398e+001 -2.1589e+001  2.3352e+001 63476 69979,69953,70077
 3.0000e-001 70126 -9.8645e+000 -4.0833e+000  3.0902e+001 63476 69979,70077,70005
 3.0000e-001 70325 -1.6029e+002 -7.0653e+001  9.5612e+001 63278 70149,70227,70175
 3.0000e-001 70302 -6.5024e+001 -2.6112e+001  1.0751e+002 63278 70149,70253,70227
 3.0000e-001 70279 -2.1259e+002 -8.0850e+001  4.3798e+001 63278 70175,70227,70201
 3.0000e-001 70597 -1.1631e+002 -2.0485e+001  6.7135e+001 63080 70372,70476,70424
 3.0000e-001 70574 -8.4320e+001 -3.5245e+001  7.5883e+001 63080 70372,70502,70476
 3.0000e-001 70551 -1.4892e+002 -6.2662e+001  8.6758e+001 63080 70424,70476,70450
 3.0000e-001 70528 -2.0057e+002 -7.6122e+001  1.3715e+002 63080 70372,70424,70398
 3.0000e-001 70847 -1.4998e+001 -1.2569e+002  3.8535e+001 62740 70870,70648,70622
 3.0000e-001 70824 -8.6793e+001 -7.7325e+001  7.3763e+001 62740 70870,70622,70752
 3.0000e-001 70801 -2.3434e+001 -1.9239e+002  5.0812e+001 62740 70648,70726,70700
 3.0000e-001 70778 -2.7318e+001 -1.7504e+002  5.6106e+001 62740 70648,70700,70674
 3.0000e-001 70896 -8.4632e+001 -1.7724e+002  1.4449e+001 62740 70726,70648,70870
 3.0000e-001 70919 -1.1099e+002 -1.0119e+002  6.1459e+001 62740 70726,70870,70752
 3.0000e-001 71022 -2.0770e+000  2.0770e+000  1.3845e+002 62520 70944,70996,70970
 3.0000e-001 71223 -1.3073e+002 -6.7628e+001  9.1923e+001 62230 71073,71151,71099
 3.0000e-001 71200 -1.0607e+002 -5.5017e+001  9.6585e+001 62230 71047,71151,71073
 3.0000e-001 71177 -4.5766e+001 -1.2029e+002  7.0484e+001 62230 71099,71151,71125
 3.0000e-001 71861 -2.2102e+002 -2.3884e+002  9.7928e-001 61712 71515,71697,71671
 3.0000e-001 71838 -2.3515e+002 -2.7309e+002  8.3340e+000 61712 71489,71697,71515
 3.0000e-001 71815 -2.9545e+002 -2.4650e+002  5.6193e+001 61712 71884,71541,71515
 3.0000e-001 71792 -2.5205e+002 -2.1052e+002  4.0349e+001 61712 71884,71515,71671
 3.0000e-001 71769 -1.2412e+002 -2.5239e+002  3.9599e+001 61712 71541,71619,71593
 3.0000e-001 71746 -2.1000e+002 -4.0160e+002 -2.3098e+001 61712 71619,71671,71645
 3.0000e-001 71723 -1.4228e+002 -2.9910e+002  1.1547e+002 61712 71541,71593,71567
 3.0000e-001 71910 -2.5108e+002 -2.8112e+002  6.9910e+001 61712 71619,71541,71884
 3.0000e-001 71933 -2.2271e+002 -2.5669e+002  5.8858e+001 61712 71619,71884,71671
 3.0000e-001 72230 -2.0752e+001 -2.2448e+001  1.0771e+001 61208 72253,72060,72008
 3.0000e-001 72207 -2.3203e+001 -3.0484e+001  1.0551e+001 61208 72253,72008,71982
 3.0000e-001 72184 -1.9573e+001 -3.9543e+001  7.6311e+000 61208 71982,72112,72086
 3.0000e-001 72161 -2.0195e+001 -1.6374e+001  1.7960e+001 61208 72008,72060,72034
 3.0000e-001 72138 -1.3861e+001 -8.6727e+000  8.7092e+000 61208 71956,72112,71982
 3.0000e-001 72279 -1.9943e+001 -2.8579e+001  1.4186e+001 61208 72086,72060,72253
 3.0000e-001 72302 -2.0139e+001 -3.3143e+001  1.4207e+001 61208 72086,72253,71982
 3.0000e-001 72761 -1.1884e+002 -1.0024e+002  6.0128e+001 60804 72487,72617,72513
 3.0000e-001 72738 -1.2781e+002 -1.6728e+002  5.9574e+001 60804 72487,72643,72617
 3.0000e-001 72715 -4.9445e+001 -7.9781e+001  5.6802e+001 60804 72565,72617,72591
 3.0000e-001 72692 -8.9111e+001 -8.2852e+001  5.2292e+001 60804 72513,72617,72565
 3.0000e-001 72669 -1.1554e+002 -1.2785e+002  9.0072e+001 60804 72513,72565,72539
 3.0000e-001 72911 -2.0770e+000  2.0770e+000  1.3845e+002 60556 72784,72836,72810
 3.0000e-001 72888  9.8015e+001 -1.0662e+002  8.1565e+001 60556 72784,72862,72836
 3.0000e-001 73468 -6.8808e+001 -9.7292e+001  4.8717e+001 60244 73491,73226,73200
 3.0000e-001 73445 -1.1661e+002 -1.5060e+002  8.6070e+001 60244 73563,73491,73200
 3.0000e-001 73422 -1.8320e+002 -1.4478e+002  9.6713e+001 60244 73563,73200,73174
 3.0000e-001 73399 -7.8225e+001 -2.1186e+002  6.8829e+001 60244 73226,73278,73252
 3.0000e-001 73376 -1.5201e+002 -1.1844e+002  7.1100e+001 60244 73122,73304,73278
 3.0000e-001 73353 -1.7149e+002 -1.8897e+002  7.0450e+001 60244 73096,73304,73122
 3.0000e-001 73330 -3.4687e+002 -1.9428e+002  1.9466e+002 60244 73122,73174,73148
 3.0000e-001 73517 -1.5391e+002 -1.4420e+002  8.0971e+001 60244 73278,73226,73491
 3.0000e-001 73540 -1.3825e+002 -1.0363e+002  7.8546e+001 60244 73278,73491,73122
 3.0000e-001 73589 -2.2940e+002 -1.4369e+002  8.8643e+001 60244 73122,73491,73563
 3.0000e-001 73612 -2.9426e+002 -1.3780e+002  1.0302e+002 60244 73122,73563,73174
 3.0000e-001 73762 -1.7488e+002 -4.1548e+002  3.7129e+001 59875 73661,73713,73687
 3.0000e-001 73739 -1.2519e+002 -1.1913e+002  7.9429e+001 59875 73635,73713,73661
 3.0000e-001 74191 -2.3955e+001 -5.6277e+001  7.8724e+001 59478 74214,73894,73868
 3.0000e-001 74168 -6.6885e+001 -5.0439e+001  8.6125e+001 59478 74214,73868,74050
 3.0000e-001 74145 -1.4365e+001 -4.9212e+001  4.6429e+001 59478 73894,73946,73920
 3.0000e-001 74122 -7.0821e+001 -4.9069e+001  6.1884e+001 59478 73894,73998,73946
 3.0000e-001 74099 -2.0607e+002 -1.2671e+002  1.5201e+002 59478 73998,74050,74024
 3.0000e-001 74076 -9.0425e+001 -1.1975e+001  4.3768e+001 59478 73946,73998,73972
 3.0000e-001 74240 -6.3358e+001 -4.4421e+001  6.5083e+001 59478 73998,73894,74214
 3.0000e-001 74263 -1.0626e+002 -4.1154e+001  6.5520e+001 59478 73998,74214,74050
 3.0000e-001 74720 -1.4073e+002 -2.1083e+002  4.9341e+001 58774 74472,74602,74498
 3.0000e-001 74697 -1.8115e+002 -1.6701e+002  8.2232e+001 58774 74446,74602,74472
 3.0000e-001 74674 -1.3015e+002 -1.4084e+002  5.8608e+001 58774 74498,74576,74524
 3.0000e-001 74651 -1.6186e+002 -1.8224e+002  3.1526e+001 58774 74498,74602,74576
 3.0000e-001 74628 -1.3184e+002 -1.6872e+002  6.8525e+001 58774 74524,74576,74550
 3.0000e-001 75226 -7.7232e+001 -2.3800e+001  3.8862e+001 58270 74955,75085,75033
 3.0000e-001 75203 -5.1064e+001 -4.9708e+001  5.0098e+001 58270 74929,75085,74955
 3.0000e-001 75180 -1.1978e+002 -5.8049e+001  6.8028e+001 58270 75033,75085,75059
 3.0000e-001 75157 -1.3293e+002 -4.1656e+001  3.9922e+001 58270 74955,75007,74981
 3.0000e-001 75134 -9.6362e+001 -3.1212e+001  3.2850e+001 58270 74955,75033,75007
 3.0000e-001 75111  9.0436e+000 -6.4873e+001  1.2304e+001 58270 74903,75085,74929
 3.0000e-001 75425 -1.7691e+001 -1.1850e+001  5.9806e+000 57830 75448,75301,75249
 3.0000e-001 75402 -1.2454e+001 -2.1256e+001  9.0444e+000 57830 75448,75249,75353
 3.0000e-001 75379 -1.3828e+001 -9.6762e+000  1.8012e+000 57830 75520,75301,75275
 3.0000e-001 75474 -1.4480e+001 -9.1575e+000  8.7070e+000 57830 75327,75301,75448
 3.0000e-001 75497 -5.6255e+000 -1.1183e+001  1.3454e+001 57830 75327,75448,75353
 3.0000e-001 75546 -1.3498e+001 -1.0222e+001  1.7272e+000 57830 75249,75301,75520
 3.0000e-001 76261 -5.9132e+001 -1.3108e+002  6.3895e+001 57426 76284,76097,76071
 3.0000e-001 76238 -4.8480e+001 -8.7907e+001  6.2149e+001 57426 75889,76097,75915
 3.0000e-001 76215 -9.5246e+001 -1.4389e+002  6.4989e+001 57426 76428,76284,76071
 3.0000e-001 76192 -6.8677e+001 -1.3681e+002  4.9144e+001 57426 76356,75941,75915
 3.0000e-001 76169 -1.0695e+002 -1.2236e+002  5.6940e+001 57426 76428,76071,76019
 3.0000e-001 76146 -1.1099e+002 -1.4273e+002  4.9099e+001 57426 76019,76071,76045
 3.0000e-001 76123 -7.7740e+001 -1.1953e+002  7.4133e+001 57426 75967,76019,75993
 3.0000e-001 76310 -6.0518e+001 -1.2964e+002  4.7245e+001 57426 75915,76097,76284
 3.0000e-001 76333 -7.0874e+001 -1.3639e+002  5.0174e+001 57426 76356,75915,76284
 3.0000e-001 76382 -7.3112e+001 -1.3804e+002  4.8995e+001 57426 75967,75941,76356
 3.0000e-001 76405 -7.4196e+001 -1.3687e+002  5.0091e+001 57426 75967,76356,76284
 3.0000e-001 76454 -6.8949e+001 -1.2860e+002  5.6345e+001 57426 75967,76284,76428
 3.0000e-001 76477 -9.5226e+001 -1.2008e+002  5.3910e+001 57426 75967,76428,76019
 3.0000e-001 76953 -1.3424e+002 -2.5048e+002  5.2348e+001 56908 76976,76711,76685
 3.0000e-001 76930 -1.4301e+002 -2.6738e+002  4.5521e+001 56908 77048,76976,76685
 3.0000e-001 76907 -1.7022e+002 -2.9098e+002  5.7963e+001 56908 77048,76685,76633
 3.0000e-001 76884 -2.2366e+002 -3.3215e+002  9.6692e+001 56908 76711,76789,76763
 3.0000e-001 76861 -1.3802e+002 -1.8220e+002  7.3190e+001 56908 76581,76789,76607
 3.0000e-001 76838 -2.1630e+002 -2.7712e+002  5.3035e+001 56908 76711,76763,76737
 3.0000e-001 76815 -1.8699e+002 -3.0873e+002  7.6660e+001 56908 76633,76685,76659
 3.0000e-001 77002 -1.3352e+002 -2.5303e+002  5.9850e+001 56908 76789,76711,76976
 3.0000e-001 77025 -1.4134e+002 -2.1486e+002  4.0115e+001 56908 76789,76976,76607
 3.0000e-001 77074 -1.8632e+002 -2.4806e+002  5.4633e+001 56908 76607,76976,77048
 3.0000e-001 77097 -1.9879e+002 -2.5534e+002  6.2566e+001 56908 76607,77048,76633
 3.0000e-001 77475 -1.4165e+002 -3.1974e+002  6.8553e+001 56546 77570,77498,77279
 3.0000e-001 77452 -1.6337e+002 -3.5664e+002  5.6231e+001 56546 77498,77227,77357
 3.0000e-001 77429 -1.5783e+002 -3.2447e+002  1.0261e+002 56546 77570,77279,77253
 3.0000e-001 77406 -1.3796e+002 -3.5436e+002  7.9444e+001 56546 77201,77357,77227
 3.0000e-001 77383 -1.8438e+002 -2.8235e+002  9.4150e+001 56546 77279,77331,77305
 3.0000e-001 77524 -1.5880e+002 -3.2379e+002  5.8022e+001 56546 77331,77279,77498
 3.0000e-001 77547 -1.4139e+002 -3.3237e+002  6.6515e+001 56546 77331,77498,77357
 3.0000e-001 77596 -1.9953e+002 -3.4416e+002  6.6611e+001 56546 77227,77498,77570
 3.0000e-001 77619 -1.9468e+002 -3.3747e+002  1.0424e+002 56546 77227,77570,77253
 3.0000e-001 77818 -1.6988e+002 -2.7182e+002  7.0439e+001 56042 77841,77694,77668
 3.0000e-001 77795 -1.7621e+002 -2.6843e+002  5.5002e+001 56042 77841,77668,77746
 3.0000e-001 77772 -1.5217e+002 -3.0764e+002  6.1891e+001 56042 77642,77746,77668
 3.0000e-001 77867 -1.7395e+002 -2.8445e+002  6.7276e+001 56042 77720,77694,77841
 3.0000e-001 77890 -1.8020e+002 -2.7976e+002  5.1726e+001 56042 77720,77841,77746
 3.0000e-001 78349 -1.5344e+001 -3.0136e+001  8.1298e+000 55538 78075,78127,78101
 3.0000e-001 78326 -1.6120e+001 -2.4948e+001  4.4891e+000 55538 78075,78205,78127
 3.0000e-001 78303 -2.7925e+001 -1.4669e+001  1.0182e+001 55538 78075,78231,78205
 3.0000e-001 78280 -2.3032e+001 -5.2382e+001  3.5460e+001 55538 78127,78179,78153
 3.0000e-001 78257 -2.4897e+001 -2.1882e+001  7.3437e+000 55538 78127,78205,78179
 3.0000e-001 78806 -1.0678e+002 -1.5392e+002  2.9384e+001 55034 78829,78636,78610
 3.0000e-001 78783 -1.2064e+002 -1.3032e+002  3.5183e+001 55034 78901,78829,78610
 3.0000e-001 78760 -6.9206e+001 -1.1628e+002  3.2874e+001 55034 78901,78610,78584
 3.0000e-001 78737 -1.3041e+002 -1.5376e+002  4.6762e+001 55034 78558,78688,78662
 3.0000e-001 78714 -1.2342e+002 -1.2509e+002  9.8304e+001 55034 78532,78688,78558
 3.0000e-001 78855 -1.3122e+002 -2.1773e+002  5.6453e+000 55034 78662,78636,78829
 3.0000e-001 78878 -1.2589e+002 -1.4780e+002  4.8794e+001 55034 78662,78829,78558
 3.0000e-001 78927 -8.8082e+001 -1.2659e+002  7.0558e+001 55034 78558,78829,78901
 3.0000e-001 78950 -7.6187e+001 -1.3049e+002  7.4958e+001 55034 78558,78901,78584
 3.0000e-001 79407 -8.2929e+001 -6.6277e+001  6.4381e+001 54430 79430,79237,79159
 3.0000e-001 79384 -8.9564e+001 -9.0281e+001  4.1275e+001 54430 79430,79159,79133
 3.0000e-001 79361 -1.0534e+002 -9.7604e+001  3.6308e+001 54430 79237,79289,79263
 3.0000e-001 79338 -8.5403e+001 -7.3568e+001  5.9877e+001 54430 79185,79237,79211
 3.0000e-001 79315 -1.2980e+002 -8.4041e+001  7.4894e+001 54430 79159,79237,79185
 3.0000e-001 79456 -8.5596e+001 -9.4623e+001  5.0748e+001 54430 79289,79237,79430
 3.0000e-001 79479 -8.8441e+001 -1.2675e+002  3.2660e+001 54430 79289,79430,79133
 3.0000e-001 79936 -6.2261e+001 -5.5684e+001  6.9584e+001 53919 79662,79766,79688
 3.0000e-001 79913 -1.9186e+002 -1.1310e+002  1.1835e+002 53919 79662,79818,79766
 3.0000e-001 79890 -1.9744e+002 -7.3303e+001  8.9663e+001 53919 79766,79818,79792
 3.0000e-001 79867 -1.2261e+002 -8.2829e+001  7.5031e+001 53919 79714,79766,79740
 3.0000e-001 79844 -1.3637e+002 -8.6977e+001  7.4896e+001 53919 79688,79766,79714
 3.0000e-001 80037  5.5638e+000  5.7760e+000  3.5465e+001 53671 79959,80011,79985
 3.0000e-001 80405 -4.9220e+001  7.7264e+000  4.0056e+000 53267 80108,80264,80238
 3.0000e-001 80382 -1.1680e+001  2.5367e-001  2.0291e-001 53267 80082,80264,80108
 3.0000e-001 80359  8.0308e+000  7.8025e+000  1.4952e+001 53267 80108,80238,80134
 3.0000e-001 80336 -1.9044e+000 -4.9352e+000  1.1345e+001 53267 80134,80212,80186
 3.0000e-001 80313 -1.3407e+001 -4.9575e+000  8.7266e+000 53267 80134,80238,80212
 3.0000e-001 80290  5.4390e-001 -1.1723e+001  4.4476e+000 53267 80134,80186,80160
 3.0000e-001 80915 -1.4766e+001 -1.9765e+001 -2.8386e+000 52969 80644,80774,80748
 3.0000e-001 80892 -8.5247e+000 -2.0238e+001  2.3631e+000 52969 80618,80774,80644
 3.0000e-001 80869 -1.3278e+001 -1.7139e+000  9.2452e+000 52969 80644,80748,80670
 3.0000e-001 80846  3.1333e+000 -2.5542e+001 -8.2740e+000 52969 80592,80774,80618
 3.0000e-001 80823 -5.6571e+001 -2.3299e+001  2.5570e+001 52969 80670,80722,80696
 3.0000e-001 80800 -3.0578e+001 -1.1604e+001 -2.2752e+000 52969 80670,80748,80722
 3.0000e-001 81266 -1.0011e+002 -2.8391e+002  4.0992e+001 52565 81041,81145,81067
 3.0000e-001 81243 -1.1770e+002 -2.7954e+002  5.0982e+001 52565 81041,81171,81145
 3.0000e-001 81220 -1.4997e+002 -3.6511e+002  3.2208e+001 52565 81067,81119,81093
 3.0000e-001 81197 -1.2598e+002 -3.0223e+002  3.1588e+001 52565 81067,81145,81119
 3.0000e-001 81723 -1.4666e+002 -2.3263e+002  3.3530e+001 51904 81449,81527,81475
 3.0000e-001 81700 -1.4510e+002 -2.2822e+002  3.3768e+001 51904 81449,81579,81527
 3.0000e-001 81677 -1.5929e+002 -2.9331e+002  6.3528e+001 51904 81449,81605,81579
 3.0000e-001 81654 -1.3132e+002 -1.6791e+002  5.4076e+001 51904 81527,81579,81553
 3.0000e-001 81631 -1.7101e+002 -2.2554e+002  2.1632e+001 51904 81475,81527,81501
 3.0000e-001 82327 -1.2592e+002 -1.6971e+002  9.6160e+001 51321 82422,82350,82036
 3.0000e-001 82304 -1.0724e+002 -1.5258e+002  8.2502e+001 51321 82494,82350,81958
 3.0000e-001 82281 -1.2505e+002 -1.6300e+002  9.1043e+001 51321 82422,82036,82010
 3.0000e-001 82258 -8.9020e+001 -1.3050e+002  5.6495e+001 51321 82494,81958,81932
 3.0000e-001 82235 -1.0358e+002 -1.4594e+002  6.4850e+001 51321 82062,82114,82088
 3.0000e-001 82212 -2.0591e+002 -1.8847e+002  7.9829e+001 51321 81932,82140,82114
 3.0000e-001 82189 -1.2339e+002 -1.1976e+002  8.0140e+001 51321 81958,82010,81984
 3.0000e-001 82166 -1.5981e+002 -1.6879e+002  8.2791e+001 51321 81906,82140,81932
 3.0000e-001 82376 -1.1213e+002 -2.1096e+002  9.7905e+001 51321 82062,82036,82350
 3.0000e-001 82399 -9.4900e+001 -1.7822e+002  8.9245e+001 51321 82062,82350,82114
 3.0000e-001 82448 -1.1776e+002 -1.7055e+002  8.7265e+001 51321 81958,82350,82422
 3.0000e-001 82471 -1.1618e+002 -1.6381e+002  8.2115e+001 51321 81958,82422,82010
 3.0000e-001 82520 -1.1126e+002 -1.7793e+002  9.1863e+001 51321 82114,82350,82494
 3.0000e-001 82543 -1.1335e+002 -1.7113e+002  7.0580e+001 51321 82114,82494,81932
 3.0000e-001 83019 -1.0133e+002 -7.3992e+001  1.4720e+001 50817 82673,82751,82699
 3.0000e-001 82996 -1.2341e+002 -7.2629e+001  3.9927e+001 50817 83042,82673,82855
 3.0000e-001 82973 -1.2607e+002 -8.9296e+001  3.8135e+001 50817 83042,82855,82803
 3.0000e-001 82950 -1.5952e+002 -1.1404e+002  5.9802e+001 50817 82751,82803,82777
 3.0000e-001 82927 -1.3013e+002 -8.3988e+001  2.9760e+001 50817 82647,82855,82673
 3.0000e-001 82904 -1.6161e+002 -1.1247e+002  6.9520e+001 50817 82803,82855,82829
 3.0000e-001 82881 -1.0689e+002 -9.5640e+001  9.7396e+000 50817 82699,82751,82725
 3.0000e-001 83068 -1.1604e+002 -8.5603e+001  4.9904e+001 50817 82751,82673,83042
 3.0000e-001 83091 -1.1735e+002 -1.0113e+002  4.6292e+001 50817 82751,83042,82803
 3.0000e-001 83290 -1.6024e+002 -1.6873e+002  1.0366e+002 50356 83313,83166,83140
 3.0000e-001 83267 -1.7988e+002 -2.2541e+002  8.3941e+001 50356 83515,83313,83140
 3.0000e-001 83244 -1.9166e+002 -2.0719e+002  6.3802e+001 50356 83515,83140,83385
 3.0000e-001 83339 -1.6534e+002 -2.1452e+002  9.7061e+001 50356 83192,83166,83313
 3.0000e-001 83362 -1.5742e+002 -2.4097e+002  6.6328e+001 50356 83192,83313,83218
 3.0000e-001 83411 -6.7317e+001 -1.6981e+002  8.3161e+001 50356 83114,83218,83385
 3.0000e-001 83541 -1.4456e+002 -1.9840e+002  7.1234e+001 50356 83218,83313,83515
 3.0000e-001 83564 -1.5086e+002 -1.8435e+002  5.1779e+001 50356 83218,83515,83385
 3.0000e-001 83893 -1.0788e+001 -1.7016e+001  2.5268e+000 49552 83720,83798,83746
 3.0000e-001 83870 -1.2735e+001 -1.1543e+001 -1.6059e+000 49552 83694,83798,83720
 3.0000e-001 83847 -4.3839e-001 -1.1485e+001 -1.2721e+000 49552 83668,83798,83694
 3.0000e-001 83824 -4.0659e+001 -1.9347e+001  3.0610e+000 49552 83746,83798,83772
 3.0000e-001 84141 -1.6324e+002 -2.2078e+002  6.8459e+001 49212 84164,84020,83942
 3.0000e-001 84118 -1.7620e+002 -2.5022e+002  7.4288e+001 49212 84164,83942,83916
 3.0000e-001 84095 -9.7831e+001 -2.0828e+002  6.7138e+001 49212 83942,84020,83968
 3.0000e-001 84072 -1.1286e+002 -1.2618e+002  3.5241e+001 49212 83968,84020,83994
 3.0000e-001 84190 -1.6903e+002 -2.3399e+002  8.4339e+001 49212 84046,84020,84164
 3.0000e-001 84213 -1.7463e+002 -2.5096e+002  8.9432e+001 49212 84046,84164,83916
 3.0000e-001 84800 -1.1915e+002 -2.5229e+002  4.8745e+001 48865 84503,84633,84555
 3.0000e-001 84777 -1.5332e+002 -3.0061e+002  3.2157e+001 48865 84503,84659,84633
 3.0000e-001 84754 -1.8792e+002 -4.1532e+002  4.9014e+001 48865 84555,84633,84581
 3.0000e-001 84731 -9.4843e+001 -4.2172e+002  4.4929e+001 48865 84581,84633,84607
 3.0000e-001 84708 -2.0018e+002 -2.8293e+002  5.3254e+001 48865 84503,84555,84529
 3.0000e-001 84685 -1.4616e+002 -2.7434e+002  5.5411e+001 48865 84477,84659,84503
 3.0000e-001 85355 -6.7957e+001 -6.9212e+001  1.7763e+001 48461 85378,85035,85009
 3.0000e-001 85332 -1.0215e+002 -8.6715e+001  3.4305e+001 48461 85378,85009,85165
 3.0000e-001 85309 -1.0552e+002 -9.3555e+001  3.1910e+001 48461 85450,85061,85035
 3.0000e-001 85286 -1.2201e+002 -9.2988e+001  3.2774e+001 48461 85009,85191,85165
 3.0000e-001 85263 -9.3302e+001 -8.4630e+001  5.3896e+001 48461 85087,85165,85113
 3.0000e-001 85240 -7.1887e+001 -1.1439e+002 -5.7765e+000 48461 84983,85191,85009
 3.0000e-001 85217 -8.3470e+001 -1.2554e+002  2.3073e+001 48461 85113,85165,85139
 3.0000e-001 85404 -1.0230e+002 -8.6518e+001  2.8978e+001 48461 85450,85035,85378
 3.0000e-001 85427 -1.0678e+002 -8.5468e+001  3.6143e+001 48461 85087,85378,85165
 3.0000e-001 85476 -1.0181e+002 -1.0557e+002  3.8132e+001 48461 85087,85061,85450
 3.0000e-001 85499 -9.8791e+001 -1.0021e+002  3.4785e+001 48461 85087,85450,85378
 3.0000e-001 86084 -7.9847e+001 -1.3343e+002  4.4100e+001 48057 86323,86107,85787
 3.0000e-001 86061 -7.0342e+001 -1.1658e+002  5.5955e+001 48057 86107,85761,85943
 3.0000e-001 86038 -1.0139e+002 -1.1878e+002  4.8008e+001 48057 86251,86179,85891
 3.0000e-001 86015 -1.0359e+002 -1.0793e+002  3.4439e+001 48057 86251,85891,85839
 3.0000e-001 85992 -8.2059e+001 -1.1700e+002  4.8757e+001 48057 85891,85943,85917
 3.0000e-001 85969 -1.0304e+002 -1.4385e+002  2.9209e+001 48057 85839,85891,85865
 3.0000e-001 86133 -6.9908e+001 -1.0849e+002  4.4024e+001 48057 85813,85787,86107
 3.0000e-001 86156 -8.1094e+001 -1.1895e+002  4.8478e+001 48057 86179,85813,86107
 3.0000e-001 86205 -8.2388e+001 -1.1781e+002  5.1551e+001 48057 85943,85891,86179
 3.0000e-001 86228 -6.8579e+001 -1.1601e+002  4.8230e+001 48057 85943,86179,86107
 3.0000e-001 86277 -7.4292e+001 -1.0719e+002  4.5052e+001 48057 85813,86179,86251
 3.0000e-001 86300 -9.0221e+001 -1.0360e+002  3.3540e+001 48057 85813,86251,85839
 3.0000e-001 86349 -4.4311e+001 -1.1090e+002  5.3748e+001 48057 85761,86107,86323
 3.0000e-001 86855 -5.0025e+001 -1.8475e+002  6.2277e+001 47545 86878,86584,86558
 3.0000e-001 86832 -1.0396e+002 -2.0790e+002  6.3102e+001 47545 86950,86878,86558
 3.0000e-001 86809 -1.2378e+002 -2.1573e+002  5.9850e+001 47545 86950,86558,86532
 3.0000e-001 86786 -2.5899e+001 -1.5041e+002  5.1677e+001 47545 86584,86662,86610
 3.0000e-001 86763 -8.5763e+001 -2.1390e+002  2.9587e+001 47545 86532,86714,86688
 3.0000e-001 86740 -9.0419e+001 -1.3629e+002  3.9369e+001 47545 86610,86662,86636
 3.0000e-001 86904 -8.4244e+001 -1.8631e+002  3.6435e+001 47545 86662,86584,86878
 3.0000e-001 86927 -7.5598e+001 -1.9073e+002  4.5510e+001 47545 86662,86878,86688
 3.0000e-001 86976 -8.1719e+001 -2.1904e+002  3.8363e+001 47545 86688,86878,86950
 3.0000e-001 86999 -1.0974e+002 -2.3105e+002  3.7082e+001 47545 86688,86950,86532
 3.0000e-001 87328 -3.1769e+001 -3.1690e+001  1.0098e+001 47048 87155,87207,87181
 3.0000e-001 87305 -7.1589e+000 -2.9150e+001  4.4749e+000 47048 87129,87207,87155
 3.0000e-001 87282 -3.2838e+001 -3.5841e+001  5.6413e+000 47048 87103,87207,87129
 3.0000e-001 87259 -3.5168e+001 -5.2092e+001  2.7536e+001 47048 87103,87233,87207
 3.0000e-001 87576  1.2709e+000 -8.7655e+000  1.9335e+000 46701 87599,87429,87377
 3.0000e-001 87553 -2.8326e+000 -5.4848e+000 -7.2331e-002 46701 87599,87377,87481
 3.0000e-001 87530  2.9511e+000 -5.6153e+000 -9.7785e+000 46701 87351,87481,87377
 3.0000e-001 87507  6.1394e+000 -2.2421e+000 -4.4148e-001 46701 87377,87429,87403
 3.0000e-001 87625 -1.3689e+000 -1.3190e+001  8.3771e-001 46701 87455,87429,87599
 3.0000e-001 87648 -5.2036e+000 -8.5849e+000 -1.1743e+000 46701 87455,87599,87481
 3.0000e-001 87798  1.4084e+000  3.5099e-001  3.1806e+000 46239 87697,87749,87723
 3.0000e-001 87775  3.8333e+000 -3.6104e+000  6.6199e+000 46239 87671,87749,87697
 3.0000e-001 88308 -1.0576e+002 -8.8270e+001  3.7431e+001 45735 88089,88167,88141
 3.0000e-001 88285 -9.1289e+001 -7.1768e+001  4.4788e+001 45735 88011,88167,88089
 3.0000e-001 88262 -1.0308e+002 -7.2068e+001  5.3343e+001 45735 87985,88167,88011
 3.0000e-001 88239 -1.3370e+002 -1.7588e+002  6.7155e+001 45735 88011,88089,88063
 3.0000e-001 88216 -8.4758e+001 -8.0176e+001  2.9561e+001 45735 88089,88141,88115
 3.0000e-001 88193 -1.4683e+002 -1.6412e+002  4.1359e+001 45735 88011,88063,88037
 3.0000e-001 88686 -1.5148e+002 -2.4665e+002  7.1794e+001 45316 88438,88516,88490
 3.0000e-001 88663 -1.2023e+002 -2.0657e+002  4.6015e+001 45316 88438,88542,88516
 3.0000e-001 88640 -1.0787e+002 -2.5636e+002  5.2255e+001 45316 88438,88568,88542
 3.0000e-001 88617 -2.2673e+002 -2.3608e+002  6.2069e+001 45316 88438,88490,88464
 3.0000e-001 88594 -3.5809e+001 -1.9903e+002  8.1539e+001 45316 88412,88568,88438
 3.0000e-001 88934 -2.0689e+002 -2.5896e+002  1.2144e+002 44812 88957,88735,88709
 3.0000e-001 88911 -1.4362e+002 -1.8988e+002  7.1504e+001 44812 88957,88709,88839
 3.0000e-001 88888 -1.4925e+002 -1.9839e+002  5.2008e+001 44812 89029,88787,88761
 3.0000e-001 88865 -1.6516e+002 -1.7552e+002  7.1807e+001 44812 88787,88839,88813
 3.0000e-001 88983 -8.1230e+001 -1.9608e+002  9.7171e+001 44812 88761,88735,88957
 3.0000e-001 89006 -1.2756e+002 -1.9956e+002  5.1970e+001 44812 89029,88761,88957
 3.0000e-001 89055 -1.6398e+002 -1.9711e+002  5.3075e+001 44812 88839,88787,89029
 3.0000e-001 89078 -1.5267e+002 -2.0674e+002  5.7342e+001 44812 88839,89029,88957
 3.0000e-001 89228 -3.2077e+002 -7.7619e+002 -5.4208e+001 44408 89127,89179,89153
 3.0000e-001 89205 -2.9640e+002 -7.8013e+002  1.0540e+001 44408 89101,89179,89127
 3.0000e-001 89787 -1.1074e+002 -1.0147e+002  6.4356e+001 43854 89810,89545,89519
 3.0000e-001 89764 -1.2104e+002 -1.4048e+002  8.5946e+001 43854 89810,89519,89467
 3.0000e-001 89741 -1.3321e+002 -1.9238e+002  6.8910e+001 43854 89954,89882,89597
 3.0000e-001 89718 -1.3961e+002 -1.9278e+002  7.6456e+001 43854 89954,89597,89571
 3.0000e-001 89695 -8.7260e+001 -1.6464e+002  7.2811e+001 43854 89415,89623,89467
 3.0000e-001 89672 -8.8156e+001 -8.5479e+001  6.7930e+001 43854 89467,89519,89493
 3.0000e-001 89649 -8.8997e+001 -1.3153e+002  7.5401e+001 43854 89415,89467,89441
 3.0000e-001 89836 -1.4184e+002 -1.2136e+002  8.2416e+001 43854 89882,89545,89810
 3.0000e-001 89859 -8.2365e+001 -1.3774e+002  7.1160e+001 43854 89623,89810,89467
 3.0000e-001 89908 -1.3155e+002 -2.3937e+002  9.9075e+001 43854 89623,89597,89882
 3.0000e-001 89931 -1.1856e+002 -2.1229e+002  8.3863e+001 43854 89623,89882,89810
 3.0000e-001 89980 -1.5865e+002 -1.9878e+002  1.0226e+002 43854 89545,89882,89954
 3.0000e-001 90003 -1.8307e+002 -2.2670e+002  1.1465e+002 43854 89545,89954,89571
 3.0000e-001 90251 -1.2872e+002 -3.2610e+002  5.3198e+001 43492 90026,90078,90052
 3.0000e-001 90228 -1.3358e+002 -1.9191e+002  8.3838e+001 43492 90274,90026,90156
 3.0000e-001 90205 -1.1499e+002 -2.0346e+002  8.6494e+001 43492 90346,90274,90156
 3.0000e-001 90182 -1.0871e+002 -2.1039e+002  1.2201e+002 43492 90346,90156,90130
 3.0000e-001 90300 -9.8385e+001 -2.1019e+002  9.3148e+001 43492 90078,90026,90274
 3.0000e-001 90323 -1.4143e+002 -2.4838e+002  6.7475e+001 43492 90078,90274,90104
 3.0000e-001 90372 -1.6806e+002 -2.2338e+002  8.5243e+001 43492 90104,90274,90346
 3.0000e-001 90395 -1.5905e+002 -2.2847e+002  1.2145e+002 43492 90104,90346,90130
 3.0000e-001 90594  5.6413e+000 -3.3747e-001  1.8036e+000 43052 90418,90496,90444
 3.0000e-001 90571  3.4553e+000  9.6112e-001  1.6836e+000 43052 90418,90522,90496
 3.0000e-001 90548  9.1055e-001 -2.3810e+000  9.7228e-001 43052 90444,90496,90470
 3.0000e-001 91074 -7.0990e+001 -3.4138e+001  4.0161e+001 42434 91241,90884,90858
 3.0000e-001 91051 -1.6194e+001 -1.5712e+001 -1.7418e+000 42434 90702,90910,90884
 3.0000e-001 91028  2.2377e+000 -1.3461e+001  3.9604e-001 42434 91097,90754,90702
 3.0000e-001 91005 -4.6225e+001 -1.9398e+001  2.7140e+001 42434 91241,90858,91097
 3.0000e-001 90982 -2.8918e+001 -1.2659e+001  1.2824e+001 42434 91169,90806,90780
 3.0000e-001 90959 -3.5373e+001 -2.5314e+001  1.5587e+001 42434 90806,90858,90832
 3.0000e-001 90936  1.5077e+000 -1.1480e+001  8.7455e-001 42434 90702,90754,90728
 3.0000e-001 91123 -5.3554e+000 -2.2615e+001  1.0523e+001 42434 90780,90754,91097
 3.0000e-001 91146 -2.4625e+001 -1.2500e+001  1.5806e+001 42434 91169,90780,91097
 3.0000e-001 91195 -2.9468e+001 -1.0041e+001  1.7913e+001 42434 90858,90806,91169
 3.0000e-001 91218 -2.3996e+001 -5.5815e+000  2.1249e+001 42434 90858,91169,91097
 3.0000e-001 91267 -2.9466e+001 -5.2084e+001  2.4287e+001 42434 90702,90884,91241
 3.0000e-001 91290 -5.4253e+000 -4.0577e+001  1.2864e+001 42434 90702,91241,91097
 3.0000e-001 91698 -5.8537e+001 -1.4133e+002  4.2889e+001 41773 91473,91577,91499
 3.0000e-001 91675 -6.5808e+001 -1.5982e+002  5.9317e+001 41773 91473,91603,91577
 3.0000e-001 91652 -1.0150e+002 -1.0481e+002  2.1309e+001 41773 91499,91551,91525
 3.0000e-001 91629 -9.7162e+001 -1.1172e+002  5.2393e+001 41773 91499,91577,91551
 3.0000e-001 92044 -1.2249e+002 -1.8824e+002  6.3256e+001 41383 91773,91877,91851
 3.0000e-001 92021 -1.0415e+002 -2.1228e+002  2.8904e+001 41383 91747,91877,91773
 3.0000e-001 91998 -1.1829e+002 -1.6345e+002  5.1255e+001 41383 91773,91851,91799
 3.0000e-001 91975 -5.8398e+001 -2.2167e+002  4.6393e+001 41383 91747,91903,91877
 3.0000e-001 91952 -3.0770e+001 -2.2109e+002  3.3654e+001 41383 91721,91903,91747
 3.0000e-001 91929 -5.8139e+001 -1.5031e+002  4.4433e+001 41383 91799,91851,91825
 3.0000e-001 92601 -1.0684e+002 -1.0568e+002  2.3557e+001 40979 92229,92411,92307
 3.0000e-001 92578 -1.2422e+002 -1.1910e+002  2.9647e+001 40979 92229,92437,92411
 3.0000e-001 92555 -1.0946e+002 -8.3089e+001  3.4978e+001 40979 92229,92307,92281
 3.0000e-001 92532 -7.4736e+001 -6.2029e+001  3.7118e+001 40979 92333,92411,92385
 3.0000e-001 92509 -9.1606e+001 -9.1923e+001  2.9607e+001 40979 92307,92411,92333
 3.0000e-001 92486 -1.3318e+002 -1.2519e+002  2.5144e+001 40979 92229,92281,92255
 3.0000e-001 92463  1.7598e+000 -4.6413e+001  2.7734e+001 40979 92333,92385,92359
 3.0000e-001 93235 -5.9252e+001 -3.7413e+001  4.7826e+001 40525 92941,92993,92967
 3.0000e-001 93212 -1.0565e+002 -1.4127e+001  2.3659e+001 40525 93258,92941,92889
 3.0000e-001 93189 -8.9218e+001 -9.7156e+000  2.6708e+001 40525 93258,92889,93071
 3.0000e-001 93166 -1.1305e+002 -2.4281e+001  2.6895e+001 40525 92889,92941,92915
 3.0000e-001 93143 -1.1272e+002 -1.8178e+001  2.1926e+001 40525 92863,93071,92889
 3.0000e-001 93120 -6.9409e+001 -2.1539e+001  1.5323e+001 40525 92993,93071,93019
 3.0000e-001 93097 -6.1300e+001 -4.0962e+001  2.0374e+001 40525 93019,93071,93045
 3.0000e-001 93284 -1.0585e+002 -1.6353e+001  3.7888e+001 40525 92993,92941,93258
 3.0000e-001 93307 -8.1071e+001 -1.0736e+001  3.8023e+001 40525 92993,93258,93071
 3.0000e-001 93636 -1.4477e+002 -1.5258e+002  7.9644e+001 40235 93437,93541,93515
 3.0000e-001 93613 -9.7747e+001 -1.6803e+002  7.0367e+001 40235 93411,93541,93437
 3.0000e-001 93590 -6.2194e+001 -1.3402e+002  5.0681e+001 40235 93463,93515,93489
 3.0000e-001 93567 -8.3447e+001 -1.1737e+002  4.6054e+001 40235 93437,93515,93463
 3.0000e-001 94014 -1.7445e+002 -2.6840e+002  5.0696e+001 39873 93766,93870,93792
 3.0000e-001 93991 -1.6669e+002 -2.5544e+002  5.9319e+001 39873 93766,93896,93870
 3.0000e-001 93968 -1.4174e+002 -2.1840e+002  6.5023e+001 39873 93792,93870,93844
 3.0000e-001 93945 -1.3823e+002 -2.2312e+002  7.2780e+001 39873 93792,93844,93818
 3.0000e-001 93922 -1.1883e+002 -2.2982e+002  1.1226e+002 39873 93740,93896,93766
 3.0000e-001 94164  9.7706e+000  8.8874e+000 -3.2539e-001 39461 94037,94089,94063
 3.0000e-001 94141  2.8810e+000  2.1378e+000  2.4132e+000 39461 94037,94115,94089
 3.0000e-001 94363 -8.1751e+001 -1.3420e+002  5.3091e+001 39057 94386,94239,94213
 3.0000e-001 94340 -6.6245e+001 -1.2150e+002  4.6778e+001 39057 94386,94213,94187
 3.0000e-001 94317 -1.1721e+002 -1.5845e+002  6.6634e+001 39057 94187,94291,94265
 3.0000e-001 94412 -7.4868e+001 -1.3611e+002  5.7893e+001 39057 94458,94386,94265
 3.0000e-001 94435 -7.3210e+001 -1.3524e+002  5.3669e+001 39057 94265,94386,94187
 3.0000e-001 94484 -7.3907e+001 -1.3416e+002  5.7498e+001 39057 94239,94386,94458
 3.0000e-001 94896 -1.7254e+002 -1.1477e+002  6.3754e+001 38396 94919,94775,94723
 3.0000e-001 94873 -1.6933e+002 -1.4236e+002  5.5711e+001 38396 94919,94723,94697
 3.0000e-001 94850 -1.0730e+002 -8.7991e+001  4.5286e+001 38396 94723,94775,94749
 3.0000e-001 94827 -7.8632e+001 -1.4810e+002  5.4644e+001 38396 94671,94801,94697
 3.0000e-001 94945 -1.5954e+002 -1.3866e+002  7.4793e+001 38396 94801,94775,94919
 3.0000e-001 94968 -1.6022e+002 -1.7013e+002  7.0913e+001 38396 94801,94919,94697
 3.0000e-001 95265 -1.2896e+002 -1.3139e+002  3.1910e+001 37835 95017,95069,95043
 3.0000e-001 95242 -1.2768e+002 -1.2923e+002  3.1383e+001 37835 95288,95069,95017
 3.0000e-001 95219 -1.2019e+002 -1.3817e+002  4.9760e+001 37835 95288,95017,94991
 3.0000e-001 95196 -1.2882e+002 -1.5624e+002  5.1837e+001 37835 94991,95147,95121
 3.0000e-001 95173 -1.0124e+002 -7.7079e+001  4.6930e+001 37835 95069,95121,95095
 3.0000e-001 95314 -1.1937e+002 -1.0403e+002  3.1086e+001 37835 95121,95069,95288
 3.0000e-001 95337 -1.1513e+002 -1.2091e+002  4.7754e+001 37835 95121,95288,94991
 3.0000e-001 95558 -8.0985e+001 -1.9571e+002  3.9573e+001 37423 95408,95460,95434
 3.0000e-001 95535 -1.0648e+002 -3.0941e+002  8.6746e+001 37423 95382,95460,95408
 3.0000e-001 95512 -1.4747e+002 -3.4167e+002  1.0076e+002 37423 95382,95486,95460
 3.0000e-001 95891 -1.2399e+001 -3.8615e+001  2.2008e+001 37225 95666,95718,95692
 3.0000e-001 95868 -4.2663e+000 -9.6140e+000  1.7621e+001 37225 95666,95796,95718
 3.0000e-001 95845 -1.9800e+001 -3.8754e+001  1.4090e+001 37225 95718,95770,95744
 3.0000e-001 95822 -1.3936e+001 -3.1051e+001  2.0133e+001 37225 95718,95796,95770
 3.0000e-001 95992 -8.3926e+001 -2.0245e+002  4.0282e+001 36735 95914,95966,95940
 3.0000e-001 96142 -1.4648e+002 -1.8134e+002  9.2704e+001 36331 96297,96067,96041
 3.0000e-001 96119 -9.5465e+001 -1.3925e+002  9.9100e+001 36331 96165,96041,96015
 3.0000e-001 96191 -1.4702e+002 -1.8532e+002  7.9654e+001 36331 96297,96041,96165
 3.0000e-001 96323 -1.4952e+002 -1.9923e+002  8.6831e+001 36331 96093,96067,96297
 3.0000e-001 96346 -1.5694e+002 -2.0690e+002  7.2074e+001 36331 96093,96297,96165
 3.0000e-001 96714 -1.3378e+002 -2.1685e+002  8.1023e+001 36041 96737,96495,96443
 3.0000e-001 96691 -1.6345e+002 -1.9629e+002  8.4129e+001 36041 96737,96443,96417
 3.0000e-001 96668 -1.0959e+002 -2.0396e+002  9.3209e+001 36041 96443,96495,96469
 3.0000e-001 96645 -9.4931e+001 -1.5526e+002  5.0751e+001 36041 96391,96521,96417
 3.0000e-001 96622 -7.2468e+001 -1.7555e+002  4.1036e+001 36041 96391,96547,96521
 3.0000e-001 96599 -7.0868e+001 -1.7164e+002  3.8119e+001 36041 96391,96573,96547
 3.0000e-001 96763 -8.3872e+001 -1.9729e+002  7.1356e+001 36041 96521,96495,96737
 3.0000e-001 96786 -1.4300e+002 -1.9926e+002  7.7792e+001 36041 96521,96737,96417
 3.0000e-001 96936 -8.9692e+001 -4.4050e+001  6.2131e+001 35637 97031,96959,96835
 3.0000e-001 96913 -1.0249e+002 -6.7636e+001  5.1531e+001 35637 97163,96959,96809
 3.0000e-001 96985 -8.6862e+001 -4.2559e+001  6.2679e+001 35637 96861,96835,96959
 3.0000e-001 97008 -8.1448e+001 -3.5363e+001  5.4217e+001 35637 96861,96959,96887
 3.0000e-001 97057 -9.7902e+001 -4.9063e+001  6.4238e+001 35637 96809,96959,97031
 3.0000e-001 97189 -7.5238e+001 -3.5834e+001  6.3944e+001 35637 96887,96959,97163
 3.0000e-001 97597 -5.1790e+001 -5.3591e+001  3.8169e+001 35190 97450,97502,97476
 3.0000e-001 97574 -5.8324e+001 -7.3694e+001  4.2124e+001 35190 97372,97502,97450
 3.0000e-001 97551 -6.5326e+001 -8.2388e+001  4.7993e+001 35190 97372,97450,97398
 3.0000e-001 97528 -4.9311e+001 -7.6766e+001  4.8397e+001 35190 97398,97450,97424
 3.0000e-001 98054 -9.3682e+001 -1.5781e+002  7.4393e+001 34636 97806,97936,97858
 3.0000e-001 98031 -1.4778e+002 -1.1467e+002  7.0694e+001 34636 97780,97936,97806
 3.0000e-001 98008 -1.5048e+002 -1.6860e+002  5.7132e+001 34636 97806,97858,97832
 3.0000e-001 97985 -8.7218e+001 -1.5637e+002  8.4836e+001 34636 97884,97936,97910
 3.0000e-001 97962 -8.5719e+001 -1.3821e+002  7.3468e+001 34636 97858,97936,97884
 3.0000e-001 98530 -5.4806e+001  6.7578e+000  1.8944e+001 34068 98697,98184,98366
 3.0000e-001 98507 -2.2998e+001 -1.3867e+001 -4.8213e+000 34068 98158,98366,98184
 3.0000e-001 98484 -8.5998e+001 -1.5554e+001  3.7530e+001 34068 98553,98262,98236
 3.0000e-001 98461 -7.9605e+001 -8.0950e+000  4.3005e+001 34068 98553,98236,98210
 3.0000e-001 98438 -7.4918e+001 -1.3885e+001  1.5996e+001 34068 98841,98625,98366
 3.0000e-001 98415 -9.3046e+001 -8.8577e+001  6.2685e+001 34068 98769,98288,98262
 3.0000e-001 98392 -1.0201e+002  3.3974e+000  1.7603e+001 34068 98841,98366,98340
 3.0000e-001 98579 -1.0722e+002 -5.0630e+001  5.1732e+001 34068 98769,98262,98553
 3.0000e-001 98602 -8.4053e+001 -2.7321e+001  2.4396e+001 34068 98625,98314,98553
 3.0000e-001 98651 -7.2619e+001 -1.4025e+001  9.4610e+000 34068 98697,98366,98625
 3.0000e-001 98674 -7.6959e+001 -9.9368e+000  1.1573e+001 34068 98210,98625,98553
 3.0000e-001 98723 -4.9987e+001 -2.1021e+001  1.3308e+001 34068 98210,98184,98697
 3.0000e-001 98746 -5.0058e+001 -1.7357e+001  1.2673e+001 34068 98210,98697,98625
 3.0000e-001 98795 -6.6879e+001 -4.8963e+001  3.8050e+001 34068 98314,98288,98769
 3.0000e-001 98818 -8.8376e+001 -2.2324e+001  2.7118e+001 34068 98314,98769,98553
 3.0000e-001 98867 -1.0215e+002 -2.8188e+001  8.4259e+000 34068 98314,98625,98841
 3.0000e-001 98890 -1.2904e+002 -9.7166e+000  1.1287e+001 34068 98314,98841,98340
 3.0000e-001 99268 -1.1174e+002 -9.1682e+001  4.5177e+001 33450 99291,99098,99072
 3.0000e-001 99245 -1.1347e+002 -8.2697e+001  3.9252e+001 33450 99291,99072,99020
 3.0000e-001 99222 -1.6847e+002 -7.8261e+001  6.4524e+001 33450 99020,99072,99046
 3.0000e-001 99199 -1.0583e+002 -9.1302e+001  1.1071e+001 33450 99020,99150,99124
 3.0000e-001 99176 -1.0818e+002 -9.9690e+001  1.3853e+001 33450 98994,99150,99020
 3.0000e-001 99317 -1.0291e+002 -8.5559e+001  4.1373e+001 33450 99124,99098,99291
 3.0000e-001 99340 -1.1130e+002 -7.9372e+001  3.6983e+001 33450 99124,99291,99020
 3.0000e-001 99865 -1.0562e+002 -1.1105e+002  6.1261e+001 32944 100176,99960,99888
 3.0000e-001 99842 -1.3171e+002 -1.1255e+002  5.9580e+001 32944 100104,99888,99522
 3.0000e-001 99819 -8.1548e+001 -8.8083e+001  5.9107e+001 32944 100248,99960,99626
 3.0000e-001 99796 -1.2601e+002 -1.3645e+002  5.4116e+001 32944 100032,99652,99626
 3.0000e-001 99773 -1.1867e+002 -1.1015e+002  4.7408e+001 32944 100104,99522,99496
 3.0000e-001 99750 -6.8419e+001 -1.0257e+002  5.6920e+000 32944 99574,99626,99600
 3.0000e-001 99727 -5.2277e+001 -9.1549e+001  6.7490e+001 32944 100248,99626,99574
 3.0000e-001 99704 -9.4744e+001 -9.0950e+001  4.1834e+001 32944 99444,99496,99470
 3.0000e-001 99914 -1.2310e+002 -1.1651e+002  5.9577e+001 32944 100176,99888,100032
 3.0000e-001 99937 -1.1812e+002 -1.0318e+002  5.5043e+001 32944 99678,99888,99444
 3.0000e-001 99986 -1.2120e+002 -8.6145e+001  6.1683e+001 32944 99522,99888,99960
 3.0000e-001 100009 -1.1512e+002 -7.4058e+001  7.0012e+001 32944 99522,99960,99548
 3.0000e-001 100058 -1.1585e+002 -1.6785e+002  3.7239e+001 32944 99678,99652,100032
 3.0000e-001 100081 -1.3517e+002 -1.4044e+002  3.8843e+001 32944 99678,100032,99888
 3.0000e-001 100130 -1.0753e+002 -1.0779e+002  5.5201e+001 32944 99444,99888,100104
 3.0000e-001 100153 -1.0004e+002 -1.1189e+002  4.4792e+001 32944 99444,100104,99496
 3.0000e-001 100202 -1.1877e+002 -1.1417e+002  4.6427e+001 32944 99626,99960,100176
 3.0000e-001 100225 -1.2272e+002 -1.1479e+002  4.3376e+001 32944 99626,100176,100032
 3.0000e-001 100274 -1.2300e+002 -8.9643e+001  5.5149e+001 32944 99548,99960,100248
 3.0000e-001 100297 -9.6959e+001 -9.5540e+001  6.3486e+001 32944 99548,100248,99574
 3.0000e-001 100754 -8.2543e+001 -1.0590e+002  3.9065e+001 32369 100777,100584,100506
 3.0000e-001 100731 -6.1789e+001 -1.3035e+002  6.6897e+001 32369 100777,100506,100636
 3.0000e-001 100708 -1.0027e+002 -1.3346e+002  7.1378e+001 32369 100480,100636,100506
 3.0000e-001 100685 -1.5257e+002 -1.7071e+002  5.6758e+001 32369 100532,100584,100558
 3.0000e-001 100662 -9.5037e+001 -1.3633e+002  4.1001e+001 32369 100506,100584,100532
 3.0000e-001 100803 -7.1391e+001 -6.5037e+001  4.4128e+001 32369 100610,100584,100777
 3.0000e-001 100826 -5.3746e+001 -9.6231e+001  6.7942e+001 32369 100610,100777,100636
 3.0000e-001 101025 -7.8281e+001 -1.0833e+002  9.6250e+001 31857 100875,100927,100901
 3.0000e-001 101002 -1.6890e+002 -1.6747e+002  6.9442e+001 31857 100875,100953,100927
 3.0000e-001 100979 -1.6527e+002 -1.4761e+002  5.8359e+001 31857 100849,100953,100875
 3.0000e-001 101533 -8.1502e+001 -9.0940e+001  5.2287e+001 31253 101556,101314,101236
 3.0000e-001 101510 -1.0603e+002 -1.1494e+002  6.4126e+001 31253 101556,101236,101210
 3.0000e-001 101487 -1.0961e+002 -9.1569e+001  3.3743e+001 31253 101210,101392,101340
 3.0000e-001 101464 -6.1460e+001 -9.6926e+001  4.0316e+001 31253 101236,101288,101262
 3.0000e-001 101441 -6.0416e+001 -9.1360e+001  3.8359e+001 31253 101236,101314,101288
 3.0000e-001 101418 -9.9361e+001 -7.4356e+001  4.0364e+001 31253 101340,101392,101366
 3.0000e-001 101582 -8.5913e+001 -5.9595e+001  2.5133e+001 31253 101340,101314,101556
 3.0000e-001 101605 -1.1305e+002 -8.7953e+001  3.7675e+001 31253 101340,101556,101210
 3.0000e-001 101755  8.8461e+000  9.1372e+000  1.1956e+001 30519 101778,101654,101628
 3.0000e-001 101732  1.5431e+000  2.8097e+001 -2.2080e+000 30519 101850,101778,101628
 3.0000e-001 101804  4.7750e-001 -1.5968e+001  6.7372e+000 30519 101680,101654,101778
 3.0000e-001 101827 -9.4810e+000  6.9892e+000  6.0640e+000 30519 101680,101778,101706
 3.0000e-001 101876 -8.9714e+000  1.2098e+000  4.6378e+000 30519 101706,101778,101850
 3.0000e-001 102561 -1.2080e+002 -1.5750e+002  5.3266e+001 29951 102656,102584,102270
 3.0000e-001 102538 -1.5811e+002 -2.5818e+002  5.0429e+001 29951 102584,102140,102374
 3.0000e-001 102515 -1.4415e+002 -2.1689e+002  6.9577e+001 29951 102728,102656,102270
 3.0000e-001 102492 -1.2522e+002 -2.3885e+002  5.8761e+001 29951 102728,102270,102244
 3.0000e-001 102469 -1.2941e+002 -4.3383e+001  5.5667e+001 29951 102800,102322,102296
 3.0000e-001 102446 -1.6428e+002 -1.7510e+002  4.1746e+001 29951 102166,102218,102192
 3.0000e-001 102423 -9.9203e+001 -1.5617e+002  4.0510e+001 29951 102166,102244,102218
 3.0000e-001 102400 -9.7381e+001 -1.4309e+002  5.2421e+001 29951 102322,102374,102348
 3.0000e-001 102610 -1.6333e+002 -1.1395e+002  4.9191e+001 29951 102296,102270,102584
 3.0000e-001 102633 -1.6248e+002 -1.1846e+002  4.5835e+001 29951 102800,102296,102584
 3.0000e-001 102682 -1.5157e+002 -1.9566e+002  8.5609e+001 29951 102140,102584,102656
 3.0000e-001 102705 -1.3461e+002 -2.3158e+002  9.8289e+001 29951 102140,102656,102166
 3.0000e-001 102754 -1.1298e+002 -1.8556e+002  8.2648e+001 29951 102166,102656,102728
 3.0000e-001 102777 -1.0921e+002 -2.1519e+002  6.6488e+001 29951 102166,102728,102244
 3.0000e-001 102826 -1.0488e+002 -1.2917e+002  9.1071e+001 29951 102374,102322,102800
 3.0000e-001 102849 -1.1125e+002 -1.5733e+002  9.2023e+001 29951 102374,102800,102584
 3.0000e-001 103048  3.0137e+000 -5.6170e+000  6.1624e+000 29454 102872,102924,102898
 3.0000e-001 103025 -2.3906e+000  1.2675e+001  5.1172e+000 29454 102872,102976,102924
 3.0000e-001 103002 -2.7862e+000  8.4291e+000  5.7916e+000 29454 102924,102976,102950
 3.0000e-001 103296 -1.1941e+002 -6.0782e+001  5.7958e+001 29064 103319,103175,103123
 3.0000e-001 103273 -1.2625e+002 -6.2909e+001  5.8059e+001 29064 103319,103123,103071
 3.0000e-001 103250 -6.9575e+001 -4.3859e+001  5.6167e+001 29064 103123,103175,103149
 3.0000e-001 103227 -9.1533e+001 -4.5041e+001  7.1870e+001 29064 103071,103123,103097
 3.0000e-001 103345 -1.1008e+002 -6.5089e+001  5.2792e+001 29064 103201,103175,103319
 3.0000e-001 103368 -1.2333e+002 -7.0907e+001  4.9783e+001 29064 103201,103319,103071
 3.0000e-001 104006 -1.2921e+002 -8.3785e+001  5.8323e+001 28603 104101,104029,103712
 3.0000e-001 103983 -1.2830e+002 -7.4958e+001  4.5142e+001 28603 104173,104029,103660
 3.0000e-001 103960 -1.6167e+002 -6.6810e+001  5.6906e+001 28603 104101,103712,103686
 3.0000e-001 103937 -1.1319e+002 -9.1199e+001  3.9755e+001 28603 104173,103660,103634
 3.0000e-001 103914 -1.4282e+002 -1.2159e+002  6.0475e+001 28603 103764,103816,103790
 3.0000e-001 103891 -1.0711e+002 -9.6953e+001  6.8733e+001 28603 103634,103842,103816
 3.0000e-001 103868 -8.5956e+001 -2.8609e+001  6.9618e+001 28603 103712,103764,103738
 3.0000e-001 104055 -1.2383e+002 -8.4625e+001  5.2914e+001 28603 103764,103712,104029
 3.0000e-001 104078 -1.3206e+002 -9.0710e+001  5.7724e+001 28603 103764,104029,103816
 3.0000e-001 104127 -1.6925e+002 -9.2636e+001  4.6988e+001 28603 103660,104029,104101
 3.0000e-001 104150 -2.1182e+002 -8.0332e+001  5.2294e+001 28603 103660,104101,103686
 3.0000e-001 104199 -1.4048e+002 -9.1754e+001  5.0467e+001 28603 103816,104029,104173
 3.0000e-001 104222 -1.2410e+002 -1.0387e+002  4.4652e+001 28603 103816,104173,103634
 3.0000e-001 104600 -4.9314e+001 -7.2431e+001  2.1423e+001 28348 104623,104378,104326
 3.0000e-001 104577 -5.3859e+001 -7.6462e+001  2.4686e+001 28348 104623,104326,104482
 3.0000e-001 104554 -3.4332e+001 -5.8339e+001  1.5065e+001 28348 104326,104378,104352
 3.0000e-001 104531 -6.1968e+001  5.6355e+000  6.7730e+000 28348 104404,104456,104430
 3.0000e-001 104508 -7.2533e+001 -3.5315e+001  2.4092e+001 28348 104378,104456,104404
 3.0000e-001 104649 -4.9362e+001 -6.6928e+001  1.5427e+001 28348 104456,104378,104623
 3.0000e-001 104672 -5.5976e+001 -7.1614e+001  1.8992e+001 28348 104456,104623,104482
 3.0000e-001 104991 -1.2962e+002 -1.7432e+002  8.0576e+001 27951 104717,104847,104769
 3.0000e-001 104968 -6.3643e+001 -1.4910e+002  7.7739e+001 27951 104717,104873,104847
 3.0000e-001 104945 -6.0581e+001 -1.4843e+002  8.8477e+001 27951 104769,104847,104795
 3.0000e-001 104922 -1.9931e+001 -4.5723e+001  8.6988e+001 27951 104795,104847,104821
 3.0000e-001 104899 -1.0573e+002 -1.1659e+002  7.9989e+001 27951 104717,104769,104743
 3.0000e-001 105371 -9.1642e+001 -1.8938e+001  5.6914e+001 27447 105394,105201,105123
 3.0000e-001 105348 -7.3195e+001 -2.0557e+001  4.0097e+001 27447 105394,105123,105097
 3.0000e-001 105325 -1.6110e+002 -4.7065e+001  6.9148e+001 27447 105123,105201,105149
 3.0000e-001 105302 -1.1838e+002 -5.6427e+000  4.1593e+001 27447 105201,105253,105227
 3.0000e-001 105279 -1.0953e+002 -9.3901e+001  2.0963e+001 27447 105149,105201,105175
 3.0000e-001 105420 -1.0301e+002 -2.8492e+001  6.4366e+001 27447 105253,105201,105394
 3.0000e-001 105443 -8.6564e+001 -3.7212e+001  4.8973e+001 27447 105253,105394,105097
 3.0000e-001 105998 -1.1789e+002 -8.9310e+001  7.1945e+001 27100 106165,106021,105704
 3.0000e-001 105975 -9.0146e+001 -9.0127e+001  5.9839e+001 27100 106309,106021,105652
 3.0000e-001 105952 -2.2759e+002 -1.3487e+002  1.1638e+002 27100 106093,105808,105782
 3.0000e-001 105929 -1.2087e+002 -8.0782e+001  7.8153e+001 27100 106165,105704,105678
 3.0000e-001 105906 -1.0408e+002 -8.6427e+001  6.6733e+001 27100 106237,105730,105704
 3.0000e-001 105883 -6.5135e+001 -9.9394e+001  4.8525e+001 27100 106309,105652,105626
 3.0000e-001 105860 -9.6178e+001 -4.3055e+000  3.8609e+001 27100 105730,105782,105756
 3.0000e-001 106047 -1.1555e+002 -7.9602e+001  7.0995e+001 27100 106237,105704,106021
 3.0000e-001 106070 -1.3733e+002 -9.7474e+001  7.7438e+001 27100 106093,105782,106021
 3.0000e-001 106119 -9.6317e+001 -8.2707e+001  9.3696e+001 27100 105834,105808,106093
 3.0000e-001 106142 -1.0165e+002 -1.2360e+002  7.5025e+001 27100 106381,106093,106021
 3.0000e-001 106191 -1.2443e+002 -1.0178e+002  6.2274e+001 27100 105652,106021,106165
 3.0000e-001 106214 -1.2628e+002 -8.3932e+001  6.6769e+001 27100 105652,106165,105678
 3.0000e-001 106263 -9.2032e+001 -7.9736e+001  6.0862e+001 27100 105782,105730,106237
 3.0000e-001 106286 -1.0599e+002 -7.5728e+001  6.5807e+001 27100 105782,106237,106021
 3.0000e-001 106335 -1.0330e+002 -1.1243e+002  6.5806e+001 27100 106381,106021,106309
 3.0000e-001 106358 -8.8312e+001 -1.2532e+002  5.8466e+001 27100 105834,106309,105626
 3.0000e-001 106407 -8.6096e+001 -1.0805e+002  6.7584e+001 27100 105834,106093,106381
 3.0000e-001 106430 -8.7856e+001 -1.0274e+002  5.8786e+001 27100 105834,106381,106309
 3.0000e-001 106629  2.7551e+000 -3.1039e+001 -6.4631e-001 26688 106479,106557,106531
 3.0000e-001 106606  8.0187e+000  6.0431e+000  5.9759e+000 26688 106453,106557,106479
 3.0000e-001 106583 -1.3264e+001 -3.8599e+001  1.5263e+000 26688 106479,106531,106505
 3.0000e-001 107088 -5.8051e+001 -5.9284e+001  2.9662e+001 26248 107111,106918,106866
 3.0000e-001 107065 -6.5666e+001 -5.3578e+001  3.8816e+001 26248 107111,106866,106840
 3.0000e-001 107042 -7.2070e+001 -5.3249e+001  3.5191e+001 26248 106814,106970,106840
 3.0000e-001 107019 -5.7642e+001 -7.6167e+001  3.3514e+001 26248 106866,106918,106892
 3.0000e-001 106996 -1.1596e+002 -9.4024e+001  3.4905e+001 26248 106918,106970,106944
 3.0000e-001 107137 -7.3001e+001 -6.8991e+001  2.3846e+001 26248 106970,106918,107111
 3.0000e-001 107160 -7.1697e+001 -5.6592e+001  3.4388e+001 26248 106970,107111,106840
 3.0000e-001 107666 -1.4061e+002 -1.0346e+002  4.5947e+001 25908 107369,107499,107395
 3.0000e-001 107643 -1.9291e+002 -1.9867e+002  7.9781e+001 25908 107369,107525,107499
 3.0000e-001 107620 -1.3370e+002 -9.6655e+001  6.2048e+001 25908 107395,107473,107447
 3.0000e-001 107597 -1.0469e+002 -8.6786e+001  5.7129e+001 25908 107395,107499,107473
 3.0000e-001 107574 -1.8646e+002 -7.3739e+001  1.3941e+002 25908 107395,107447,107421
 3.0000e-001 107551 -9.8808e+001 -1.5582e+002  9.2619e+001 25908 107343,107525,107369
 3.0000e-001 108251 -1.2769e+002 -6.5022e+001  7.8294e+001 25454 108274,108006,107954
 3.0000e-001 108228 -9.5125e+001 -5.4452e+001  7.9350e+001 25454 108274,107954,108110
 3.0000e-001 108205 -8.1895e+001 -5.4842e+001  9.2325e+001 25454 108346,108032,108006
 3.0000e-001 108182 -1.3521e+002 -5.7398e+001  8.6936e+001 25454 107954,108006,107980
 3.0000e-001 108159  3.5206e-001 -3.1647e+001  9.4880e+001 25454 107928,108110,107954
 3.0000e-001 108136 -1.6277e+002 -1.6131e+002  8.6009e+001 25454 108058,108110,108084
 3.0000e-001 108300 -1.0549e+002 -4.3013e+001  9.1671e+001 25454 108346,108006,108274
 3.0000e-001 108323 -1.1452e+002 -8.7313e+001  6.4352e+001 25454 108058,108274,108110
 3.0000e-001 108372 -1.8178e+001 -5.8101e+001  8.2436e+001 25454 108058,108032,108346
 3.0000e-001 108395 -6.3903e+001 -6.2687e+001  7.3794e+001 25454 108058,108346,108274
 3.0000e-001 108822 -9.6549e+001 -5.5809e+001  3.1478e+001 24943 108525,108681,108655
 3.0000e-001 108799 -1.1779e+002 -8.9628e+001  2.1277e+001 24943 108499,108681,108525
 3.0000e-001 108776 -8.1511e+001 -4.9427e+001  2.9133e+001 24943 108525,108655,108629
 3.0000e-001 108753 -1.0127e+002 -5.2344e+001  3.0902e+001 24943 108525,108629,108603
 3.0000e-001 108730 -9.0370e+001 -5.4711e+001  4.3367e+001 24943 108551,108603,108577
 3.0000e-001 108707 -1.2336e+002 -6.8699e+001  4.8637e+001 24943 108525,108603,108551
 3.0000e-001 109407 -1.1199e+001 -2.2438e+001  1.7610e+001 24745 109162,109214,109188
 3.0000e-001 109384 -4.7263e+001 -3.8752e+001  1.2224e+001 24745 109162,109266,109214
 3.0000e-001 109361 -4.6278e+001 -2.3545e+001  8.3449e+000 24745 109084,109266,109162
 3.0000e-001 109338 -4.5520e+001 -7.2069e+000  8.2375e+000 24745 109084,109162,109136
 3.0000e-001 109315 -3.4698e+001 -5.0215e+001  1.3554e+001 24745 109214,109266,109240
 3.0000e-001 109292 -2.5352e+001 -9.7357e+000  1.8451e+001 24745 109084,109136,109110
 3.0000e-001 109785 -1.6341e+002 -1.1904e+002  8.7457e+001 24341 109537,109615,109563
 3.0000e-001 109762 -4.2434e+001 -9.8881e+001  8.2578e+001 24341 109537,109641,109615
 3.0000e-001 109739 -1.0424e+002 -1.0688e+002  7.5519e+001 24341 109563,109615,109589
 3.0000e-001 109716 -8.7914e+001 -1.2277e+002  5.8314e+001 24341 109537,109667,109641
 3.0000e-001 109693 -3.4603e+001 -1.0973e+002  6.2240e+001 24341 109511,109667,109537
 3.0000e-001 110163 -1.2076e+002 -6.8172e+001  8.4682e+001 23837 110186,109967,109915
 3.0000e-001 110140 -1.1491e+002 -6.3198e+001  8.1536e+001 23837 110186,109915,109889
 3.0000e-001 110117 -5.3146e+001 -2.9435e+001  6.3505e+001 23837 109889,110045,109993
 3.0000e-001 110094 -1.0902e+002 -1.0917e+002  5.5503e+001 23837 109915,109967,109941
 3.0000e-001 110071 -6.9777e+001  5.6846e+000  1.3831e+001 23837 109993,110045,110019
 3.0000e-001 110212 -1.1856e+002 -7.0265e+001  8.7031e+001 23837 109993,109967,110186
 3.0000e-001 110235 -1.1779e+002 -6.8375e+001  8.4816e+001 23837 109993,110186,109889
 3.0000e-001 110336 -9.7109e+001 -2.2419e+002  9.9891e+001 23433 110258,110310,110284
 3.0000e-001 110584 -1.3439e+002 -8.2035e+001  5.6766e+001 22829 110607,110411,110385
 3.0000e-001 110561 -1.3890e+002 -8.2416e+001  4.6968e+001 22829 110607,110385,110489
 3.0000e-001 110538 -1.4712e+002 -8.7917e+001  4.7168e+001 22829 110437,110489,110463
 3.0000e-001 110515 -9.0543e+001 -6.8124e+001  6.4573e+001 22829 110359,110489,110385
 3.0000e-001 110633 -1.3983e+002 -9.3362e+001  5.4917e+001 22829 110437,110411,110607
 3.0000e-001 110656 -1.4173e+002 -8.9424e+001  4.5819e+001 22829 110437,110607,110489
 3.0000e-001 110906 -1.8310e+002 -7.8120e+001  4.7821e+001 22432 110707,110759,110733
 3.0000e-001 110883 -1.6491e+002 -9.7447e+001  4.8213e+001 22432 110707,110785,110759
 3.0000e-001 110860 -1.2826e+002 -7.7426e+001  6.8138e+001 22432 110707,110811,110785
 3.0000e-001 110837 -1.5828e+002 -1.2758e+002  5.5538e+001 22432 110681,110811,110707
 3.0000e-001 111288 -2.4835e+001 -6.3369e+001  4.2119e+001 22142 111092,111144,111118
 3.0000e-001 111265 -5.7416e+001 -5.3778e+001  3.2144e+001 22142 111066,111144,111092
 3.0000e-001 111242 -4.9052e+001 -3.6814e+001  2.7478e+001 22142 111040,111144,111066
 3.0000e-001 111219 -6.1989e+001 -2.4062e+001  2.6438e+001 22142 111014,111144,111040
 3.0000e-001 111196 -3.3424e+001 -1.7549e+000  1.1367e+001 22142 111014,111170,111144
 3.0000e-001 111389  4.1217e-001 -9.4586e+000  1.7806e+001 21830 111311,111363,111337
 3.0000e-001 111735 -9.0987e+001  3.5577e+001  1.1377e+002 21268 111758,111542,111438
 3.0000e-001 111712 -7.6137e+001  3.6074e+001  6.4388e+001 21268 111758,111438,111412
 3.0000e-001 111689 -1.0737e+001 -1.9425e+001  1.2609e+002 21268 111438,111542,111464
 3.0000e-001 111666  5.4899e+001  9.0110e+000  1.3568e+002 21268 111464,111542,111490
 3.0000e-001 111643 -1.7874e+002 -1.1559e+002  8.8909e+001 21268 111412,111594,111568
 3.0000e-001 111620  1.3283e+002  6.0783e+001  1.5828e+002 21268 111490,111542,111516
 3.0000e-001 111784 -8.5825e+001 -4.7472e+000  9.8478e+001 21268 111568,111542,111758
 3.0000e-001 111807 -9.6719e+001 -7.0257e+001  6.3113e+001 21268 111568,111758,111412
 3.0000e-001 111959 -1.1442e+002  4.5817e+001  4.7937e+001 20864 111982,111910,111884
 3.0000e-001 111936 -1.1316e+002 -7.7424e+000  4.2662e+001 20864 112114,111832,111910
 3.0000e-001 112008 -1.2530e+002  8.1295e+000  4.8416e+001 20864 112114,111910,111982
 3.0000e-001 112140 -1.0622e+002  5.7184e+000  4.0172e+001 20864 111858,111832,112114
 3.0000e-001 112163 -1.1511e+002  2.7161e+001  4.4494e+001 20864 111858,112114,111982
 3.0000e-001 112411 -4.6046e+001  9.2238e+000  2.0204e+001 20324 112186,112290,112212
 3.0000e-001 112388  2.3451e+000  3.5409e+001  1.0043e+001 20324 112186,112316,112290
 3.0000e-001 112365 -7.4243e+000 -6.0609e+000  1.9844e+001 20324 112212,112290,112264
 3.0000e-001 112342 -1.6306e+002 -6.9678e+001  3.6723e+001 20324 112212,112264,112238
 3.0000e-001 112659 -5.9143e+001 -2.4832e+001  5.7674e+001 19920 112512,112564,112538
 3.0000e-001 112636 -6.9243e+001 -4.7811e+001  5.2247e+001 19920 112434,112564,112512
 3.0000e-001 112613 -7.1290e+001 -3.3416e+001  4.3122e+001 19920 112434,112512,112460
 3.0000e-001 112590 -7.3225e+001 -5.1128e+001  4.5752e+001 19920 112460,112512,112486
 3.0000e-001 112811 -8.9158e+001 -3.7728e+001  5.5856e+001 19630 112684,112736,112710
 3.0000e-001 112788 -7.0410e+001 -4.3489e+001  4.5954e+001 19630 112684,112762,112736
 3.0000e-001 113012 -8.9773e+001 -3.7853e+001  6.3357e+001 19169 112862,112940,112888
 3.0000e-001 112989 -1.1969e+002 -8.0772e+001  5.0273e+001 19169 112836,112940,112862
 3.0000e-001 112966 -1.0176e+002 -1.1615e+002  5.8607e+001 19169 112888,112940,112914
 3.0000e-001 113213 -1.6408e+002 -6.9403e+001  7.6827e+001 18600 113037,113089,113063
 3.0000e-001 113190 -1.7511e+002 -7.7720e+001  8.0723e+001 18600 113037,113115,113089
 3.0000e-001 113167 -1.6665e+002 -1.0419e+002  1.0640e+002 18600 113037,113141,113115
 3.0000e-001 113485 -7.8299e+001 -3.2563e+001  8.0066e+001 18352 113260,113312,113286
 3.0000e-001 113462 -1.2557e+002 -8.1475e+001  1.0086e+002 18352 113260,113390,113312
 3.0000e-001 113439 -1.1546e+002 -4.5326e+001  9.5135e+001 18352 113312,113390,113364
 3.0000e-001 113416 -1.0678e+002 -4.4355e+001  9.5286e+001 18352 113312,113364,113338
 3.0000e-001 113757 -9.3064e+001 -3.8455e+001  9.5948e+001 17834 113558,113610,113584
 3.0000e-001 113734 -1.4466e+002 -6.4509e+001  1.0560e+002 17834 113532,113610,113558
 3.0000e-001 113711 -1.5945e+002 -1.0407e+002  8.5615e+001 17834 113532,113662,113610
 3.0000e-001 113688 -8.0325e+001 -3.2352e+001  1.1567e+002 17834 113610,113662,113636
 3.0000e-001 113958 -3.8951e+001 -1.6068e+001  6.3591e+001 17330 113782,113834,113808
 3.0000e-001 113935 -2.5525e+001  7.9317e+000  5.7205e+001 17330 113782,113886,113834
 3.0000e-001 113912 -5.2346e+001 -1.4881e+001  3.8497e+001 17330 113834,113886,113860
 3.0000e-001 114110 -1.6390e+002 -6.8512e+001  1.0564e+002 16874 113983,114035,114009
 3.0000e-001 114087 -6.0340e+001 -1.4095e+002  8.0715e+001 16874 113983,114061,114035
 3.0000e-001 114465 -9.1260e+001 -3.9006e+001  2.6534e+001 16270 114240,114292,114266
 3.0000e-001 114442 -1.0988e+002 -3.6954e+001  2.3613e+001 16270 114240,114370,114292
 3.0000e-001 114419 -7.1952e+001 -3.0221e+001  6.3091e+001 16270 114292,114344,114318
 3.0000e-001 114396 -1.3186e+002 -6.9239e+001  1.4042e+001 16270 114292,114370,114344
 3.0000e-001 114566 -2.0770e+000  2.0770e+000  1.3845e+002 15834 114488,114540,114514
 3.0000e-001 114667 -7.2241e+001 -3.0142e+001  7.2685e+001 15155 114589,114641,114615
 3.0000e-001 114890 -1.1512e+002 -4.8843e+001  5.6514e+001 421 114766,114818,114792
 3.0000e-001 114867 -1.4013e+002 -9.9034e+001  4.8286e+001 421 114714,114818,114766
 3.0000e-001 114844 -1.4714e+002 -6.2966e+001  2.5405e+001 421 114714,114766,114740
 4.0000e-001 66553 -2.1756e+002 -9.6328e+001  1.0562e+002 66108 66354,66458,66432
 4.0000e-001 66530 -2.1027e+002 -8.9580e+001  7.3544e+001 66108 66328,66458,66354
 4.0000e-001 66507 -1.2087e+002 -7.5185e+001  6.1120e+001 66108 66354,66432,66406
 4.0000e-001 66484  4.8364e+001  2.2905e+001  1.1872e+002 66108 66354,66406,66380
 4.0000e-001 66951 -1.5804e+002 -6.7251e+001  5.7068e+001 65910 66703,66833,66807
 4.0000e-001 66928 -1.2544e+001 -5.5798e+001  8.7587e+001 65910 66677,66833,66703
 4.0000e-001 66905 -6.0652e+001 -9.8926e+001  7.7722e+001 65910 66729,66781,66755
 4.0000e-001 66882 -1.6936e+002 -7.1664e+001  7.7413e+001 65910 66729,66807,66781
 4.0000e-001 66859 -1.4887e+002 -3.2956e+001  6.7313e+001 65910 66703,66807,66729
 4.0000e-001 67150 -1.9497e+002 -8.1877e+001  1.0584e+002 65712 67026,67078,67052
 4.0000e-001 67127 -2.2368e+002 -8.2192e+001  1.0706e+002 65712 66974,67078,67026
 4.0000e-001 67104 -6.8930e+002 -3.8084e+002  2.8117e+002 65712 66974,67026,67000
 4.0000e-001 67481 -2.9650e+002 -1.0437e+002  1.2912e+002 65422 67282,67360,67334
 4.0000e-001 67458 -1.5754e+002 -6.2720e+001  1.7552e+002 65422 67282,67386,67360
 4.0000e-001 67435 -7.3481e+001 -5.2670e-002  9.9288e+001 65422 67282,67334,67308
 4.0000e-001 67412 -1.5324e+002 -1.5969e+002  1.5471e+002 65422 67256,67386,67282
 4.0000e-001 68115 -1.1155e+002 -1.5345e+002  7.3198e+001 65018 67795,67925,67873
 4.0000e-001 68092 -1.0235e+002 -1.4902e+002  2.8364e+001 65018 67769,67925,67795
 4.0000e-001 68069 -9.6031e+001 -5.2191e+001  8.5643e+001 65018 67873,67925,67899
 4.0000e-001 68046 -1.8902e+002 -1.6236e+002  3.7746e+001 65018 67769,67951,67925
 4.0000e-001 68023 -1.4465e+002 -1.7930e+002  8.9248e+001 65018 67795,67873,67821
 4.0000e-001 68000 -1.5954e+002 -1.6342e+002  6.7742e+001 65018 67821,67873,67847
 4.0000e-001 67977 -1.9887e+002 -1.4777e+002  5.6354e+001 65018 67743,67951,67769
 4.0000e-001 68363 -6.1702e+001 -1.3985e+002  1.3187e+002 64820 68190,68242,68216
 4.0000e-001 68340 -1.2802e+002 -1.0318e+002  1.4315e+002 64820 68190,68268,68242
 4.0000e-001 68317 -7.1239e+001 -7.7411e+001  1.5356e+002 64820 68164,68268,68190
 4.0000e-001 68294 -2.8226e+002 -1.1891e+002  1.1537e+002 64820 68138,68268,68164
 4.0000e-001 68513 -1.1829e+002 -1.0514e+002  1.0723e+002 64366 68868,68536,68438
 4.0000e-001 68490 -7.1096e+001 -7.8119e+001  5.8841e+001 64366 68536,68412,68386
 4.0000e-001 68562 -1.9508e+002 -1.4505e+002  1.0221e+002 64366 68740,68536,68464
 4.0000e-001 68585 -1.1179e+002 -8.8838e+001  7.5560e+001 64366 68608,68536,68386
 4.0000e-001 68634 -1.7378e+002 -2.0709e+002  5.1941e+001 64366 68464,68536,68608
 4.0000e-001 68766 -9.7009e+001 -9.3061e+001  8.1409e+001 64366 68438,68536,68740
 4.0000e-001 68894 -1.2969e+002 -9.7798e+001  1.0229e+002 64366 68412,68536,68868
 4.0000e-001 69172  5.6944e+001 -1.3520e+002  4.1930e+001 64168 69022,69074,69048
 4.0000e-001 69149 -4.5304e+001 -1.8719e+001  6.7534e+001 64168 68996,69074,69022
 4.0000e-001 69126 -7.5654e+001 -7.7958e+001  2.9286e+001 64168 68996,69100,69074
 4.0000e-001 69371 -1.3893e+002 -5.5890e+001  1.2086e+002 63970 69466,69394,69273
 4.0000e-001 69348 -1.0751e+002 -7.6842e+001  7.3884e+001 63970 69394,69247,69221
 4.0000e-001 69325 -2.7197e+002 -1.1527e+002  9.1339e+001 63970 69195,69299,69221
 4.0000e-001 69420 -1.7322e+002 -1.0116e+002  1.3589e+002 63970 69299,69273,69394
 4.0000e-001 69443 -1.4264e+002 -1.1783e+002  9.5118e+001 63970 69299,69394,69221
 4.0000e-001 69492 -1.6806e+002 -1.0249e+002  1.0843e+002 63970 69247,69394,69466
 4.0000e-001 69904 -1.7641e+001 -7.0365e+001  2.5460e+001 63680 69705,69783,69731
 4.0000e-001 69881  2.6896e+000 -6.4919e+001  2.5740e+001 63680 69679,69783,69705
 4.0000e-001 69858 -5.2863e+001 -1.2608e+002  4.9482e+001 63680 69679,69809,69783
 4.0000e-001 69835 -3.7485e+001 -4.1531e+001  3.3411e+001 63680 69731,69783,69757
 4.0000e-001 70054 -3.7247e+000 -7.5498e+001  4.4747e+001 63476 70077,69953,69927
 4.0000e-001 70031  2.2312e+001 -3.2808e+001  6.5490e+001 63476 70077,69927,70005
 4.0000e-001 70103 -3.9486e+001 -4.6255e+001  2.6720e+001 63476 69979,69953,70077
 4.0000e-001 70126 -1.8442e+001 -7.6062e+000  4.4140e+001 63476 69979,70077,70005
 4.0000e-001 70325 -2.1918e+002 -8.7719e+001  1.2830e+002 63278 70149,70227,70175
 4.0000e-001 70302 -6.7570e+001 -2.6184e+001  1.3483e+002 63278 70149,70253,70227
 4.0000e-001 70279 -2.6648e+002 -1.0605e+002  8.4182e+001 63278 70175,70227,70201
 4.0000e-001 70597 -1.1681e+002 -1.8017e+001  6.4123e+001 63080 70372,70476,70424
 4.0000e-001 70574 -6.8468e+001 -2.8389e+001  7.8501e+001 63080 70372,70502,70476
 4.0000e-001 70551 -1.5760e+002 -6.6285e+001  9.0332e+001 63080 70424,70476,70450
 4.0000e-001 70528 -2.1189e+002 -8.3100e+001  1.5282e+002 63080 70372,70424,70398
 4.0000e-001 70847 -2.2881e+001 -1.5590e+002  4.7065e+001 62740 70870,70648,70622
 4.0000e-001 70824 -9.5963e+001 -1.0056e+002  8.2636e+001 62740 70870,70622,70752
 4.0000e-001 70801 -1.8201e+001 -2.1809e+002  4.9599e+001 62740 70648,70726,70700
 4.0000e-001 70778 -1.1178e+001 -1.8801e+002  4.9431e+001 62740 70648,70700,70674
 4.0000e-001 70896 -9.3235e+001 -2.1360e+002  1.8981e+001 62740 70726,70648,70870
 4.0000e-001 70919 -1.1871e+002 -1.2881e+002  6.7250e+001 62740 70726,70870,70752
 4.0000e-001 71022 -3.6923e+000  3.6923e+000  1.8457e+002 62520 70944,70996,70970
 4.0000e-001 71223 -1.7739e+002 -9.6546e+001  1.2316e+002 62230 71073,71151,71099
 4.0000e-001 71200 -1.6726e+002 -8.6688e+001  1.3189e+002 62230 71047,71151,71073
 4.0000e-001 71177 -8.0350e+001 -1.4807e+002  1.0303e+002 62230 71099,71151,71125
 4.0000e-001 71861 -2.2124e+002 -2.5171e+002 -9.8256e+000 61712 71515,71697,71671
 4.0000e-001 71838 -1.8916e+002 -1.8157e+002  1.9339e+001 61712 71489,71697,71515
 4.0000e-001 71815 -3.2364e+002 -2.4856e+002  6.9287e+001 61712 71884,71541,71515
 4.0000e-001 71792 -2.6358e+002 -2.0530e+002  5.0382e+001 61712 71884,71515,71671
 4.0000e-001 71769 -1.1945e+002 -2.5822e+002  5.5975e+001 61712 71541,71619,71593
 4.0000e-001 71746 -1.8715e+002 -3.8912e+002 -2.3919e+001 61712 71619,71671,71645
 4.0000e-001 71723 -1.7047e+002 -3.2424e+002  1.4615e+002 61712 71541,71593,71567
 4.0000e-001 71910 -2.6406e+002 -2.9136e+002  8.8607e+001 61712 71619,71541,71884
 4.0000e-001 71933 -2.2365e+002 -2.6264e+002  7.6011e+001 61712 71619,71884,71671
 4.0000e-001 72230 -2.5759e+001 -4.2112e+001  1.3537e+001 61208 72253,72060,72008
 4.0000e-001 72207 -2.9896e+001 -3.7049e+001  9.2946e+000 61208 72253,72008,71982
 4.0000e-001 72184 -3.2182e+001 -4.3700e+001  3.0091e+000 61208 71982,72112,72086
 4.0000e-001 72161 -3.2267e+001 -4.8786e+001  8.4804e+000 61208 72008,72060,72034
 4.0000e-001 72138 -1.3316e+001 -1.7256e+001  1.1327e+001 61208 71956,72112,71982
 4.0000e-001 72279 -1.8795e+001 -3.8862e+001  1.2296e+001 61208 72086,72060,72253
 4.0000e-001 72302 -2.5391e+001 -3.5314e+001  9.0659e+000 61208 72086,72253,71982
 4.0000e-001 72761 -1.0686e+002 -8.8047e+001  6.0139e+001 60804 72487,72617,72513
 4.0000e-001 72738 -1.1879e+002 -1.6192e+002  6.0790e+001 60804 72487,72643,72617
 4.0000e-001 72715 -3.9579e+001 -7.6218e+001  6.7773e+001 60804 72565,72617,72591
 4.0000e-001 72692 -8.7991e+001 -8.2368e+001  6.1384e+001 60804 72513,72617,72565
 4.0000e-001 72669 -1.0536e+002 -1.0067e+002  1.0933e+002 60804 72513,72565,72539
 4.0000e-001 72911 -3.6923e+000  3.6923e+000  1.8457e+002 60556 72784,72836,72810
 4.0000e-001 72888  1.2476e+002 -1.1063e+002  1.1488e+002 60556 72784,72862,72836
 4.0000e-001 73468 -7.0826e+001 -1.0059e+002  4.7552e+001 60244 73491,73226,73200
 4.0000e-001 73445 -1.2390e+002 -1.6176e+002  8.7918e+001 60244 73563,73491,73200
 4.0000e-001 73422 -1.9543e+002 -1.5549e+002  9.9301e+001 60244 73563,73200,73174
 4.0000e-001 73399 -5.8449e+001 -1.8187e+002  6.1420e+001 60244 73226,73278,73252
 4.0000e-001 73376 -1.5698e+002 -1.1642e+002  8.1066e+001 60244 73122,73304,73278
 4.0000e-001 73353 -1.8804e+002 -2.2588e+002  7.9580e+001 60244 73096,73304,73122
 4.0000e-001 73330 -3.5874e+002 -1.6995e+002  2.1348e+002 60244 73122,73174,73148
 4.0000e-001 73517 -1.6145e+002 -1.5180e+002  8.5746e+001 60244 73278,73226,73491
 4.0000e-001 73540 -1.4642e+002 -1.1203e+002  8.2525e+001 60244 73278,73491,73122
 4.0000e-001 73589 -2.4542e+002 -1.5305e+002  9.1103e+001 60244 73122,73491,73563
 4.0000e-001 73612 -3.1527e+002 -1.4687e+002  1.0653e+002 60244 73122,73563,73174
 4.0000e-001 73762 -1.8589e+002 -4.4382e+002  6.3498e+001 59875 73661,73713,73687
 4.0000e-001 73739 -1.5395e+002 -1.6956e+002  9.6473e+001 59875 73635,73713,73661
 4.0000e-001 74191 -3.0185e+001 -7.1388e+001  1.0367e+002 59478 74214,73894,73868
 4.0000e-001 74168 -8.6238e+001 -5.7245e+001  1.1155e+002 59478 74214,73868,74050
 4.0000e-001 74145 -1.8522e+001 -4.0214e+001  5.3983e+001 59478 73894,73946,73920
 4.0000e-001 74122 -9.5050e+001 -6.9984e+001  7.8439e+001 59478 73894,73998,73946
 4.0000e-001 74099 -2.6805e+002 -1.5105e+002  1.9991e+002 59478 73998,74050,74024
 4.0000e-001 74076 -1.1447e+002  4.0598e-001  5.4598e+001 59478 73946,73998,73972
 4.0000e-001 74240 -8.0558e+001 -6.0416e+001  8.5442e+001 59478 73998,73894,74214
 4.0000e-001 74263 -1.3834e+002 -5.2239e+001  8.4082e+001 59478 73998,74214,74050
 4.0000e-001 74720 -1.5079e+002 -2.2160e+002  5.3427e+001 58774 74472,74602,74498
 4.0000e-001 74697 -1.8208e+002 -1.8199e+002  8.2133e+001 58774 74446,74602,74472
 4.0000e-001 74674 -1.4330e+002 -1.4214e+002  7.2778e+001 58774 74498,74576,74524
 4.0000e-001 74651 -1.7096e+002 -1.9409e+002  3.6132e+001 58774 74498,74602,74576
 4.0000e-001 74628 -1.5369e+002 -1.9180e+002  8.1985e+001 58774 74524,74576,74550
 4.0000e-001 75226 -1.0458e+002 -5.4712e+001  4.2707e+001 58270 74955,75085,75033
 4.0000e-001 75203 -6.6527e+001 -7.6621e+001  5.9178e+001 58270 74929,75085,74955
 4.0000e-001 75180 -1.3638e+002 -7.2224e+001  6.6749e+001 58270 75033,75085,75059
 4.0000e-001 75157 -1.6385e+002 -5.0724e+001  3.7323e+001 58270 74955,75007,74981
 4.0000e-001 75134 -1.0407e+002 -5.3133e+001  3.1589e+001 58270 74955,75033,75007
 4.0000e-001 75111 -2.4881e+001 -1.0192e+002  1.7552e+001 58270 74903,75085,74929
 4.0000e-001 75425 -1.3397e+001 -8.1587e+000  1.0075e+001 57830 75448,75301,75249
 4.0000e-001 75402 -1.2913e+001 -1.0790e+001  1.0995e+001 57830 75448,75249,75353
 4.0000e-001 75379 -1.6454e+001 -1.2067e+001  7.4902e+000 57830 75520,75301,75275
 4.0000e-001 75474 -1.2978e+001 -7.1065e+000  1.0123e+001 57830 75327,75301,75448
 4.0000e-001 75497 -1.1556e+001 -7.8935e+000  1.1349e+001 57830 75327,75448,75353
 4.0000e-001 75546 -1.0701e+001 -1.1590e+001  5.5089e+000 57830 75249,75301,75520
 4.0000e-001 76261 -6.2432e+001 -1.4276e+002  6.4585e+001 57426 76284,76097,76071
 4.0000e-001 76238 -4.5686e+001 -9.7424e+001  6.5829e+001 57426 75889,76097,75915
 4.0000e-001 76215 -1.0177e+002 -1.5152e+002  7.2643e+001 57426 76428,76284,76071
 4.0000e-001 76192 -6.7510e+001 -1.3737e+002  4.7906e+001 57426 76356,75941,75915
 4.0000e-001 76169 -1.1170e+002 -1.2222e+002  6.4741e+001 57426 76428,76071,76019
 4.0000e-001 76146 -1.1642e+002 -1.3948e+002  6.0736e+001 57426 76019,76071,76045
 4.0000e-001 76123 -8.1664e+001 -1.1369e+002  8.7854e+001 57426 75967,76019,75993
 4.0000e-001 76310 -6.3493e+001 -1.4145e+002  4.9806e+001 57426 75915,76097,76284
 4.0000e-001 76333 -7.2130e+001 -1.4339e+002  4.9930e+001 57426 76356,75915,76284
 4.0000e-001 76382 -7.8553e+001 -1.3045e+002  5.4090e+001 57426 75967,75941,76356
 4.0000e-001 76405 -8.0857e+001 -1.3361e+002  5.5205e+001 57426 75967,76356,76284
 4.0000e-001 76454 -7.6341e+001 -1.2773e+002  6.2749e+001 57426 75967,76284,76428
 4.0000e-001 76477 -1.0280e+002 -1.1405e+002  6.1311e+001 57426 75967,76428,76019
 4.0000e-001 76953 -1.4389e+002 -2.5157e+002  7.3939e+001 56908 76976,76711,76685
 4.0000e-001 76930 -1.4663e+002 -2.5574e+002  6.9703e+001 56908 77048,76976,76685
 4.0000e-001 76907 -2.0524e+002 -2.6769e+002  9.7951e+001 56908 77048,76685,76633
 4.0000e-001 76884 -2.5591e+002 -3.5141e+002  1.2872e+002 56908 76711,76789,76763
 4.0000e-001 76861 -1.6083e+002 -1.8884e+002  6.9532e+001 56908 76581,76789,76607
 4.0000e-001 76838 -2.3465e+002 -2.5256e+002  7.1514e+001 56908 76711,76763,76737
 4.0000e-001 76815 -3.0920e+002 -3.6063e+002  1.8884e+002 56908 76633,76685,76659
 4.0000e-001 77002 -1.4199e+002 -2.5395e+002  8.2403e+001 56908 76789,76711,76976
 4.0000e-001 77025 -1.5709e+002 -2.0472e+002  5.1675e+001 56908 76789,76976,76607
 4.0000e-001 77074 -2.3600e+002 -2.5197e+002  7.2032e+001 56908 76607,76976,77048
 4.0000e-001 77097 -2.6485e+002 -2.3718e+002  9.6608e+001 56908 76607,77048,76633
 4.0000e-001 77475 -1.2930e+002 -3.2311e+002  8.9204e+001 56546 77570,77498,77279
 4.0000e-001 77452 -1.5299e+002 -3.5933e+002  8.3356e+001 56546 77498,77227,77357
 4.0000e-001 77429 -1.5222e+002 -3.3333e+002  1.3243e+002 56546 77570,77279,77253
 4.0000e-001 77406 -1.5387e+002 -3.6675e+002  1.0423e+002 56546 77201,77357,77227
 4.0000e-001 77383 -1.7892e+002 -2.6264e+002  1.1726e+002 56546 77279,77331,77305
 4.0000e-001 77524 -1.4750e+002 -3.1151e+002  7.5518e+001 56546 77331,77279,77498
 4.0000e-001 77547 -1.4231e+002 -3.3558e+002  9.2974e+001 56546 77331,77498,77357
 4.0000e-001 77596 -1.9751e+002 -3.5315e+002  9.6595e+001 56546 77227,77498,77570
 4.0000e-001 77619 -1.9897e+002 -3.6047e+002  1.4364e+002 56546 77227,77570,77253
 4.0000e-001 77818 -1.8358e+002 -2.7247e+002  9.5190e+001 56042 77841,77694,77668
 4.0000e-001 77795 -1.8589e+002 -2.6379e+002  6.9530e+001 56042 77841,77668,77746
 4.0000e-001 77772 -1.8228e+002 -3.3923e+002  6.7333e+001 56042 77642,77746,77668
 4.0000e-001 77867 -1.9255e+002 -2.9346e+002  9.5909e+001 56042 77720,77694,77841
 4.0000e-001 77890 -1.9378e+002 -2.8222e+002  6.9959e+001 56042 77720,77841,77746
 4.0000e-001 78349 -2.0911e+001 -2.6034e+001  5.9438e+000 55538 78075,78127,78101
 4.0000e-001 78326 -1.8302e+001 -9.9980e+000  1.3823e+000 55538 78075,78205,78127
 4.0000e-001 78303 -3.8222e+001 -3.8163e+001  1.0057e+001 55538 78075,78231,78205
 4.0000e-001 78280 -1.7983e+001 -3.6790e+001  2.3684e+001 55538 78127,78179,78153
 4.0000e-001 78257 -1.8943e+001 -1.1467e+001  5.6236e-001 55538 78127,78205,78179
 4.0000e-001 78806 -1.0517e+002 -1.5621e+002  3.0460e+001 55034 78829,78636,78610
 4.0000e-001 78783 -1.2965e+002 -1.5248e+002  4.0826e+001 55034 78901,78829,78610
 4.0000e-001 78760 -8.3647e+001 -1.6159e+002  5.2630e+001 55034 78901,78610,78584
 4.0000e-001 78737 -1.2781e+002 -1.5285e+002  5.0456e+001 55034 78558,78688,78662
 4.0000e-001 78714 -1.2500e+002 -1.3329e+002  9.9801e+001 55034 78532,78688,78558
 4.0000e-001 78855 -1.3661e+002 -2.0631e+002  1.1068e+001 55034 78662,78636,78829
 4.0000e-001 78878 -1.3274e+002 -1.4339e+002  5.0576e+001 55034 78662,78829,78558
 4.0000e-001 78927 -9.2857e+001 -1.2155e+002  7.0438e+001 55034 78558,78829,78901
 4.0000e-001 78950 -7.5082e+001 -1.3893e+002  8.5017e+001 55034 78558,78901,78584
 4.0000e-001 79407 -8.6979e+001 -9.4586e+001  7.8039e+001 54430 79430,79237,79159
 4.0000e-001 79384 -1.0255e+002 -1.1781e+002  5.9112e+001 54430 79430,79159,79133
 4.0000e-001 79361 -9.7471e+001 -9.9323e+001  4.9259e+001 54430 79237,79289,79263
 4.0000e-001 79338 -1.2045e+002 -8.2755e+001  8.7109e+001 54430 79185,79237,79211
 4.0000e-001 79315 -1.5546e+002 -9.7152e+001  8.6538e+001 54430 79159,79237,79185
 4.0000e-001 79456 -8.7210e+001 -1.2121e+002  6.1670e+001 54430 79289,79237,79430
 4.0000e-001 79479 -9.5130e+001 -1.4826e+002  4.7007e+001 54430 79289,79430,79133
 4.0000e-001 79936 -7.3098e+001 -4.8234e+001  8.1585e+001 53919 79662,79766,79688
 4.0000e-001 79913 -2.2146e+002 -1.4887e+002  1.3972e+002 53919 79662,79818,79766
 4.0000e-001 79890 -2.1199e+002 -8.6373e+001  1.1984e+002 53919 79766,79818,79792
 4.0000e-001 79867 -1.3148e+002 -8.6266e+001  7.9049e+001 53919 79714,79766,79740
 4.0000e-001 79844 -1.5818e+002 -8.3877e+001  8.7321e+001 53919 79688,79766,79714
 4.0000e-001 80037 -4.6510e+000 -2.3830e+001  4.6899e+001 53671 79959,80011,79985
 4.0000e-001 80405 -6.4478e+001  1.1087e+001  5.3441e+000 53267 80108,80264,80238
 4.0000e-001 80382 -1.6153e+001 -2.6536e+000 -8.8132e-001 53267 80082,80264,80108
 4.0000e-001 80359  1.4032e+001  1.3256e+001  1.9754e+001 53267 80108,80238,80134
 4.0000e-001 80336 -2.1118e-001 -3.7640e+000  1.4404e+001 53267 80134,80212,80186
 4.0000e-001 80313 -1.6458e+001 -4.7380e+000  1.1259e+001 53267 80134,80238,80212
 4.0000e-001 80290  2.6449e+000 -1.7498e+001  3.8937e+000 53267 80134,80186,80160
 4.0000e-001 80915 -1.1503e+001 -1.7688e+001 -1.0064e+001 52969 80644,80774,80748
 4.0000e-001 80892 -6.0683e+000 -1.3542e+001 -6.5970e+000 52969 80618,80774,80644
 4.0000e-001 80869 -1.6353e+001  2.4821e+000  4.4218e+000 52969 80644,80748,80670
 4.0000e-001 80846 -1.0770e+001 -1.0594e+001 -1.3665e+000 52969 80592,80774,80618
 4.0000e-001 80823 -4.4386e+001 -2.8639e+001  1.7904e+001 52969 80670,80722,80696
 4.0000e-001 80800 -3.0336e+001 -2.2199e+001 -1.1664e+000 52969 80670,80748,80722
 4.0000e-001 81266 -6.9451e+001 -2.4040e+002  2.8755e+001 52565 81041,81145,81067
 4.0000e-001 81243 -1.4924e+002 -3.5814e+002  6.3430e+001 52565 81041,81171,81145
 4.0000e-001 81220 -2.0065e+002 -3.5456e+002  1.1568e+002 52565 81067,81119,81093
 4.0000e-001 81197 -7.5756e+001 -1.9355e+002  3.2718e+001 52565 81067,81145,81119
 4.0000e-001 81723 -1.3707e+002 -1.9107e+002  4.7400e+001 51904 81449,81527,81475
 4.0000e-001 81700 -1.4559e+002 -2.1122e+002  4.8542e+001 51904 81449,81579,81527
 4.0000e-001 81677 -1.4618e+002 -2.4965e+002  6.6588e+001 51904 81449,81605,81579
 4.0000e-001 81654 -1.0375e+002 -1.0906e+002  8.4140e+001 51904 81527,81579,81553
 4.0000e-001 81631 -1.7673e+002 -1.7648e+002  2.4927e+001 51904 81475,81527,81501
 4.0000e-001 82327 -1.4952e+002 -1.8029e+002  1.1741e+002 51321 82422,82350,82036
 4.0000e-001 82304 -1.3966e+002 -1.5475e+002  1.0861e+002 51321 82494,82350,81958
 4.0000e-001 82281 -1.4889e+002 -1.7569e+002  1.1382e+002 51321 82422,82036,82010
 4.0000e-001 82258 -1.2516e+002 -1.3840e+002  8.9514e+001 51321 82494,81958,81932
 4.0000e-001 82235 -1.3030e+002 -1.3560e+002  7.5848e+001 51321 82062,82114,82088
 4.0000e-001 82212 -2.9038e+002 -2.1149e+002  1.2086e+002 51321 81932,82140,82114
 4.0000e-001 82189 -1.5266e+002 -5.5257e+001  1.0534e+002 51321 81958,82010,81984
 4.0000e-001 82166 -1.8516e+002 -1.6640e+002  1.2719e+002 51321 81906,82140,81932
 4.0000e-001 82376 -1.3941e+002 -2.3203e+002  1.1748e+002 51321 82062,82036,82350
 4.0000e-001 82399 -1.2209e+002 -1.8276e+002  1.0692e+002 51321 82062,82350,82114
 4.0000e-001 82448 -1.4378e+002 -1.8086e+002  1.1143e+002 51321 81958,82350,82422
 4.0000e-001 82471 -1.4265e+002 -1.7623e+002  1.0782e+002 51321 81958,82422,82010
 4.0000e-001 82520 -1.4243e+002 -1.7330e+002  1.1599e+002 51321 82114,82350,82494
 4.0000e-001 82543 -1.4357e+002 -1.6843e+002  1.0041e+002 51321 82114,82494,81932
 4.0000e-001 83019 -1.1491e+002 -2.6700e+001  1.5045e+001 50817 82673,82751,82699
 4.0000e-001 82996 -1.4749e+002 -6.2389e+001  5.1039e+001 50817 83042,82673,82855
 4.0000e-001 82973 -1.4355e+002 -8.2721e+001  5.1543e+001 50817 83042,82855,82803
 4.0000e-001 82950 -2.0988e+002 -1.0888e+002  1.0268e+002 50817 82751,82803,82777
 4.0000e-001 82927 -1.4969e+002 -9.5393e+001  1.4318e+001 50817 82647,82855,82673
 4.0000e-001 82904 -1.9563e+002 -1.3773e+002  8.8910e+001 50817 82803,82855,82829
 4.0000e-001 82881 -1.2058e+002 -5.6939e+001  4.6744e+000 50817 82699,82751,82725
 4.0000e-001 83068 -1.4977e+002 -7.8357e+001  6.1548e+001 50817 82751,82673,83042
 4.0000e-001 83091 -1.4099e+002 -9.5332e+001  5.9474e+001 50817 82751,83042,82803
 4.0000e-001 83290 -1.7826e+002 -1.5897e+002  1.2414e+002 50356 83313,83166,83140
 4.0000e-001 83267 -2.0241e+002 -2.3450e+002  9.8414e+001 50356 83515,83313,83140
 4.0000e-001 83244 -2.2371e+002 -2.1703e+002  6.7234e+001 50356 83515,83140,83385
 4.0000e-001 83339 -1.9521e+002 -2.1985e+002  1.2392e+002 50356 83192,83166,83313
 4.0000e-001 83362 -1.6459e+002 -2.4217e+002  9.0135e+001 50356 83192,83313,83218
 4.0000e-001 83411 -1.0442e+002 -1.5417e+002  7.8801e+001 50356 83114,83218,83385
 4.0000e-001 83541 -1.4748e+002 -2.0407e+002  8.6406e+001 50356 83218,83313,83515
 4.0000e-001 83564 -1.5691e+002 -1.8518e+002  5.7634e+001 50356 83218,83515,83385
 4.0000e-001 83893 -1.8578e+001 -1.3792e+001  2.0506e+000 49552 83720,83798,83746
 4.0000e-001 83870 -9.3701e+000  4.5788e+000  5.1230e+000 49552 83694,83798,83720
 4.0000e-001 83847  6.0826e+000 -4.8993e+000  1.6647e+000 49552 83668,83798,83694
 4.0000e-001 83824 -4.6743e+001 -7.1371e+000 -1.5081e+000 49552 83746,83798,83772
 4.0000e-001 84141 -1.9198e+002 -2.2462e+002  8.8962e+001 49212 84164,84020,83942
 4.0000e-001 84118 -2.0238e+002 -2.4639e+002  1.0337e+002 49212 84164,83942,83916
 4.0000e-001 84095 -1.0893e+002 -2.2134e+002  7.9340e+001 49212 83942,84020,83968
 4.0000e-001 84072 -1.3399e+002 -1.2850e+002  3.5803e+001 49212 83968,84020,83994
 4.0000e-001 84190 -2.0596e+002 -2.3749e+002  1.0004e+002 49212 84046,84020,84164
 4.0000e-001 84213 -2.0709e+002 -2.4923e+002  1.1326e+002 49212 84046,84164,83916
 4.0000e-001 84800 -1.1831e+002 -2.5660e+002  6.5663e+001 48865 84503,84633,84555
 4.0000e-001 84777 -1.6343e+002 -2.9102e+002  4.9763e+001 48865 84503,84659,84633
 4.0000e-001 84754 -1.8933e+002 -4.3059e+002  5.8260e+001 48865 84555,84633,84581
 4.0000e-001 84731 -1.0400e+002 -4.6066e+002  6.3767e+001 48865 84581,84633,84607
 4.0000e-001 84708 -2.4464e+002 -2.9790e+002  6.6316e+001 48865 84503,84555,84529
 4.0000e-001 84685 -1.6322e+002 -2.8462e+002  6.2572e+001 48865 84477,84659,84503
 4.0000e-001 85355 -7.7838e+001 -6.2210e+001  2.8081e+001 48461 85378,85035,85009
 4.0000e-001 85332 -1.0976e+002 -7.8049e+001  4.3472e+001 48461 85378,85009,85165
 4.0000e-001 85309 -9.5733e+001 -9.8088e+001  5.1029e+001 48461 85450,85061,85035
 4.0000e-001 85286 -1.4757e+002 -9.3083e+001  4.4628e+001 48461 85009,85191,85165
 4.0000e-001 85263 -9.4049e+001 -5.5828e+001  5.5360e+001 48461 85087,85165,85113
 4.0000e-001 85240 -8.0883e+001 -1.2502e+002 -9.8188e+000 48461 84983,85191,85009
 4.0000e-001 85217 -7.1141e+001 -6.5522e+001  2.2796e+001 48461 85113,85165,85139
 4.0000e-001 85404 -9.9480e+001 -7.4599e+001  4.1448e+001 48461 85450,85035,85378
 4.0000e-001 85427 -1.1432e+002 -8.2226e+001  4.1259e+001 48461 85087,85378,85165
 4.0000e-001 85476 -1.0080e+002 -1.2759e+002  5.4373e+001 48461 85087,85061,85450
 4.0000e-001 85499 -1.0933e+002 -1.1358e+002  4.2373e+001 48461 85087,85450,85378
 4.0000e-001 86084 -7.9927e+001 -1.3456e+002  3.9835e+001 48057 86323,86107,85787
 4.0000e-001 86061 -6.7594e+001 -1.2717e+002  5.6747e+001 48057 86107,85761,85943
 4.0000e-001 86038 -1.0625e+002 -1.0637e+002  5.9204e+001 48057 86251,86179,85891
 4.0000e-001 86015 -1.0612e+002 -8.1197e+001  3.7923e+001 48057 86251,85891,85839
 4.0000e-001 85992 -9.3157e+001 -1.0295e+002  6.3377e+001 48057 85891,85943,85917
 4.0000e-001 85969 -1.1875e+002 -5.2349e+001  4.9809e+001 48057 85839,85891,85865
 4.0000e-001 86133 -7.2144e+001 -1.2184e+002  4.4949e+001 48057 85813,85787,86107
 4.0000e-001 86156 -8.6786e+001 -1.2458e+002  4.6537e+001 48057 86179,85813,86107
 4.0000e-001 86205 -8.3274e+001 -9.9110e+001  6.4916e+001 48057 85943,85891,86179
 4.0000e-001 86228 -5.6332e+001 -9.9388e+001  5.9236e+001 48057 85943,86179,86107
 4.0000e-001 86277 -6.9584e+001 -8.0304e+001  4.6294e+001 48057 85813,86179,86251
 4.0000e-001 86300 -9.0265e+001 -6.4917e+001  2.9423e+001 48057 85813,86251,85839
 4.0000e-001 86349 -4.5163e+001 -1.1148e+002  4.9913e+001 48057 85761,86107,86323
 4.0000e-001 86855 -5.2022e+001 -1.8325e+002  8.2178e+001 47545 86878,86584,86558
 4.0000e-001 86832 -1.1525e+002 -2.1005e+002  7.8533e+001 47545 86950,86878,86558
 4.0000e-001 86809 -1.3702e+002 -2.1052e+002  7.8585e+001 47545 86950,86558,86532
 4.0000e-001 86786 -5.7613e+001 -1.6604e+002  7.0034e+001 47545 86584,86662,86610
 4.0000e-001 86763 -1.0407e+002 -2.1324e+002  5.1014e+001 47545 86532,86714,86688
 4.0000e-001 86740 -9.6508e+001 -1.2232e+002  6.8117e+001 47545 86610,86662,86636
 4.0000e-001 86904 -8.9546e+001 -1.9663e+002  5.5802e+001 47545 86662,86584,86878
 4.0000e-001 86927 -7.7588e+001 -1.9290e+002  5.6580e+001 47545 86662,86878,86688
 4.0000e-001 86976 -8.6256e+001 -2.1004e+002  5.1364e+001 47545 86688,86878,86950
 4.0000e-001 86999 -1.2034e+002 -2.2215e+002  5.4933e+001 47545 86688,86950,86532
 4.0000e-001 87328 -5.7740e+001 -1.1884e+001  2.8964e+001 47048 87155,87207,87181
 4.0000e-001 87305 -3.0379e+001 -1.5074e+001  1.6806e+001 47048 87129,87207,87155
 4.0000e-001 87282 -5.6337e+001 -3.2111e+001  2.4189e+001 47048 87103,87207,87129
 4.0000e-001 87259 -6.6506e+001 -6.2590e+001  3.7880e+001 47048 87103,87233,87207
 4.0000e-001 87576 -2.9097e+000 -5.5535e+000  6.7299e+000 46701 87599,87429,87377
 4.0000e-001 87553 -4.2989e+000 -9.2410e+000  8.5954e+000 46701 87599,87377,87481
 4.0000e-001 87530  9.3201e+000 -6.2249e+000 -1.6786e+000 46701 87351,87481,87377
 4.0000e-001 87507  1.3217e+000  1.0821e+000  4.8619e+000 46701 87377,87429,87403
 4.0000e-001 87625 -4.2882e+000  4.3519e+000  3.8687e+000 46701 87455,87429,87599
 4.0000e-001 87648 -1.2547e+001 -4.9401e+000  7.9324e+000 46701 87455,87599,87481
 4.0000e-001 87798  6.9546e+000  3.0094e-001  5.2429e+000 46239 87697,87749,87723
 4.0000e-001 87775  8.4382e+000 -2.9401e+000  7.6957e+000 46239 87671,87749,87697
 4.0000e-001 88308 -1.7040e+002 -1.3788e+002  5.8737e+001 45735 88089,88167,88141
 4.0000e-001 88285 -1.3427e+002 -9.0330e+001  7.6056e+001 45735 88011,88167,88089
 4.0000e-001 88262 -1.7454e+002 -9.8498e+001  9.1177e+001 45735 87985,88167,88011
 4.0000e-001 88239 -2.1896e+002 -2.6143e+002  1.1800e+002 45735 88011,88089,88063
 4.0000e-001 88216 -1.2674e+002 -1.2036e+002  4.9864e+001 45735 88089,88141,88115
 4.0000e-001 88193 -1.6839e+002 -1.4913e+002  1.2906e+002 45735 88011,88063,88037
 4.0000e-001 88686 -1.5561e+002 -1.9622e+002  8.6875e+001 45316 88438,88516,88490
 4.0000e-001 88663 -1.2750e+002 -1.6075e+002  6.3770e+001 45316 88438,88542,88516
 4.0000e-001 88640 -1.0685e+002 -2.5601e+002  7.7059e+001 45316 88438,88568,88542
 4.0000e-001 88617 -2.6793e+002 -2.3653e+002  5.8718e+001 45316 88438,88490,88464
 4.0000e-001 88594 -3.7433e+001 -2.2166e+002  8.8994e+001 45316 88412,88568,88438
 4.0000e-001 88934 -2.5634e+002 -3.0665e+002  1.5031e+002 44812 88957,88735,88709
 4.0000e-001 88911 -1.7300e+002 -2.2216e+002  8.2730e+001 44812 88957,88709,88839
 4.0000e-001 88888 -1.7534e+002 -2.2365e+002  6.0300e+001 44812 89029,88787,88761
 4.0000e-001 88865 -1.7372e+002 -1.6455e+002  8.1727e+001 44812 88787,88839,88813
 4.0000e-001 88983 -9.5388e+001 -2.2554e+002  1.1759e+002 44812 88761,88735,88957
 4.0000e-001 89006 -1.5310e+002 -2.2744e+002  5.9366e+001 44812 89029,88761,88957
 4.0000e-001 89055 -1.8759e+002 -2.2596e+002  6.2176e+001 44812 88839,88787,89029
 4.0000e-001 89078 -1.7737e+002 -2.4027e+002  6.6059e+001 44812 88839,89029,88957
 4.0000e-001 89228 -2.9340e+002 -7.2668e+002 -5.0613e+001 44408 89127,89179,89153
 4.0000e-001 89205 -2.8828e+002 -7.7772e+002  1.9717e+001 44408 89101,89179,89127
 4.0000e-001 89787 -1.2705e+002 -1.1449e+002  7.5116e+001 43854 89810,89545,89519
 4.0000e-001 89764 -1.4112e+002 -1.6616e+002  1.0384e+002 43854 89810,89519,89467
 4.0000e-001 89741 -1.6912e+002 -2.2351e+002  8.3636e+001 43854 89954,89882,89597
 4.0000e-001 89718 -1.7442e+002 -2.2494e+002  8.9277e+001 43854 89954,89597,89571
 4.0000e-001 89695 -1.0340e+002 -1.9185e+002  8.3298e+001 43854 89415,89623,89467
 4.0000e-001 89672 -9.1960e+001 -1.0062e+002  8.0464e+001 43854 89467,89519,89493
 4.0000e-001 89649 -1.0302e+002 -1.4069e+002  8.5508e+001 43854 89415,89467,89441
 4.0000e-001 89836 -1.7565e+002 -1.4286e+002  9.7146e+001 43854 89882,89545,89810
 4.0000e-001 89859 -8.9819e+001 -1.6053e+002  8.7224e+001 43854 89623,89810,89467
 4.0000e-001 89908 -1.6709e+002 -2.9026e+002  1.2727e+002 43854 89623,89597,89882
 4.0000e-001 89931 -1.3508e+002 -2.4716e+002  1.0426e+002 43854 89623,89882,89810
 4.0000e-001 89980 -1.8961e+002 -2.2700e+002  1.1835e+002 43854 89545,89882,89954
 4.0000e-001 90003 -2.1164e+002 -2.5614e+002  1.2877e+002 43854 89545,89954,89571
 4.0000e-001 90251 -1.2585e+002 -2.9881e+002  6.1157e+001 43492 90026,90078,90052
 4.0000e-001 90228 -1.6266e+002 -2.0130e+002  9.7411e+001 43492 90274,90026,90156
 4.0000e-001 90205 -1.4253e+002 -2.1788e+002  9.9807e+001 43492 90346,90274,90156
 4.0000e-001 90182 -1.3709e+002 -2.3275e+002  1.4705e+002 43492 90346,90156,90130
 4.0000e-001 90300 -1.1808e+002 -2.2584e+002  1.1028e+002 43492 90078,90026,90274
 4.0000e-001 90323 -1.7216e+002 -2.6933e+002  8.3423e+001 43492 90078,90274,90104
 4.0000e-001 90372 -2.0969e+002 -2.4836e+002  1.0661e+002 43492 90104,90274,90346
 4.0000e-001 90395 -2.0148e+002 -2.6249e+002  1.5465e+002 43492 90104,90346,90130
 4.0000e-001 90594  7.8121e+000 -5.3218e+000  4.2244e+000 43052 90418,90496,90444
 4.0000e-001 90571  8.5195e+000  6.2481e-001  2.3665e+000 43052 90418,90522,90496
 4.0000e-001 90548  3.0945e-001 -7.4634e+000  3.3885e+000 43052 90444,90496,90470
 4.0000e-001 91074 -2.0583e+002 -1.3460e+002  1.4252e+002 42434 91241,90884,90858
 4.0000e-001 91051 -9.4970e+001 -1.1019e+002  2.6208e+001 42434 90702,90910,90884
 4.0000e-001 91028 -9.3721e+000 -2.2437e+001  3.6806e+001 42434 91097,90754,90702
 4.0000e-001 91005 -1.4977e+002 -7.9178e+001  1.1586e+002 42434 91241,90858,91097
 4.0000e-001 90982 -5.4570e+001 -7.9953e+001  4.4113e+001 42434 91169,90806,90780
 4.0000e-001 90959 -5.7799e+001 -5.4159e+001  2.1688e+001 42434 90806,90858,90832
 4.0000e-001 90936 -2.6570e+001 -3.8509e+001  3.0176e+001 42434 90702,90754,90728
 4.0000e-001 91123 -1.2954e+002 -1.1130e+002  1.1015e+002 42434 90780,90754,91097
 4.0000e-001 91146 -9.3965e+001 -1.2503e+002  1.0365e+002 42434 91169,90780,91097
 4.0000e-001 91195 -3.6669e+001 -4.7161e+001  3.2008e+001 42434 90858,90806,91169
 4.0000e-001 91218 -3.7330e+001 -7.5083e+000  8.4581e+001 42434 90858,91169,91097
 4.0000e-001 91267 -1.0604e+002 -1.9795e+002  9.5004e+001 42434 90702,90884,91241
 4.0000e-001 91290 -5.5379e+001 -1.5366e+002  7.2059e+001 42434 90702,91241,91097
 4.0000e-001 91698 -6.2719e+001 -1.6026e+002  5.3316e+001 41773 91473,91577,91499
 4.0000e-001 91675 -7.8300e+001 -1.8842e+002  7.7128e+001 41773 91473,91603,91577
 4.0000e-001 91652 -1.0462e+002 -1.2286e+002  2.4268e+001 41773 91499,91551,91525
 4.0000e-001 91629 -1.2092e+002 -1.3889e+002  5.8486e+001 41773 91499,91577,91551
 4.0000e-001 92044 -1.3579e+002 -1.8887e+002  8.2312e+001 41383 91773,91877,91851
 4.0000e-001 92021 -1.1337e+002 -2.1984e+002  3.9961e+001 41383 91747,91877,91773
 4.0000e-001 91998 -1.2003e+002 -1.6179e+002  6.9412e+001 41383 91773,91851,91799
 4.0000e-001 91975 -7.3807e+001 -2.2750e+002  5.5269e+001 41383 91747,91903,91877
 4.0000e-001 91952 -1.8111e+001 -2.0786e+002  5.4191e+001 41383 91721,91903,91747
 4.0000e-001 91929 -2.7241e+001 -1.3251e+002  6.8499e+001 41383 91799,91851,91825
 4.0000e-001 92601 -1.2972e+002 -1.5195e+002  4.2323e+001 40979 92229,92411,92307
 4.0000e-001 92578 -1.3413e+002 -1.6017e+002  4.6692e+001 40979 92229,92437,92411
 4.0000e-001 92555 -1.2596e+002 -1.2207e+002  4.9367e+001 40979 92229,92307,92281
 4.0000e-001 92532 -8.3887e+001 -1.0935e+002  4.5894e+001 40979 92333,92411,92385
 4.0000e-001 92509 -8.5202e+001 -1.2730e+002  5.3000e+001 40979 92307,92411,92333
 4.0000e-001 92486 -1.5612e+002 -1.5259e+002  2.7760e+001 40979 92229,92281,92255
 4.0000e-001 92463 -8.4273e+000 -9.8440e+001  3.2738e+001 40979 92333,92385,92359
 4.0000e-001 93235 -9.4129e+001 -5.9246e+001  7.8728e+001 40525 92941,92993,92967
 4.0000e-001 93212 -1.3907e+002 -2.6991e+001  4.7520e+001 40525 93258,92941,92889
 4.0000e-001 93189 -1.2043e+002 -1.7526e+001  4.4037e+001 40525 93258,92889,93071
 4.0000e-001 93166 -1.2693e+002 -6.0615e+001  4.4280e+001 40525 92889,92941,92915
 4.0000e-001 93143 -9.5677e+001 -3.0711e+001  4.1974e+001 40525 92863,93071,92889
 4.0000e-001 93120 -9.8376e+001 -3.6394e+001  3.5244e+001 40525 92993,93071,93019
 4.0000e-001 93097 -9.7607e+001 -7.2436e+001  4.6235e+001 40525 93019,93071,93045
 4.0000e-001 93284 -1.4423e+002 -4.1014e+001  6.7235e+001 40525 92993,92941,93258
 4.0000e-001 93307 -1.1042e+002 -2.2385e+001  5.9928e+001 40525 92993,93258,93071
 4.0000e-001 93636 -1.9054e+002 -1.7903e+002  9.9897e+001 40235 93437,93541,93515
 4.0000e-001 93613 -1.2767e+002 -2.0204e+002  8.7180e+001 40235 93411,93541,93437
 4.0000e-001 93590 -7.5843e+001 -1.5967e+002  6.6180e+001 40235 93463,93515,93489
 4.0000e-001 93567 -1.1061e+002 -1.3458e+002  5.7907e+001 40235 93437,93515,93463
 4.0000e-001 94014 -2.0569e+002 -2.8491e+002  6.9691e+001 39873 93766,93870,93792
 4.0000e-001 93991 -1.8900e+002 -2.7496e+002  7.3850e+001 39873 93766,93896,93870
 4.0000e-001 93968 -1.5591e+002 -2.3025e+002  9.1377e+001 39873 93792,93870,93844
 4.0000e-001 93945 -1.4988e+002 -2.1940e+002  7.9976e+001 39873 93792,93844,93818
 4.0000e-001 93922 -1.4084e+002 -2.4779e+002  1.2789e+002 39873 93740,93896,93766
 4.0000e-001 94164  1.0771e+001  4.3550e-001 -1.5617e-001 39461 94037,94089,94063
 4.0000e-001 94141  1.3721e+000  5.4956e-001  1.0373e+000 39461 94037,94115,94089
 4.0000e-001 94363 -9.9978e+001 -1.2887e+002  6.0882e+001 39057 94386,94239,94213
 4.0000e-001 94340 -7.3460e+001 -1.1699e+002  5.7173e+001 39057 94386,94213,94187
 4.0000e-001 94317 -1.3601e+002 -1.7791e+002  8.1048e+001 39057 94187,94291,94265
 4.0000e-001 94412 -7.3135e+001 -1.2943e+002  6.3211e+001 39057 94458,94386,94265
 4.0000e-001 94435 -8.0870e+001 -1.3270e+002  6.1244e+001 39057 94265,94386,94187
 4.0000e-001 94484 -8.4722e+001 -1.2407e+002  6.9156e+001 39057 94239,94386,94458
 4.0000e-001 94896 -2.1498e+002 -1.3776e+002  7.9000e+001 38396 94919,94775,94723
 4.0000e-001 94873 -2.1483e+002 -1.5430e+002  7.4102e+001 38396 94919,94723,94697
 4.0000e-001 94850 -1.4796e+002 -1.1054e+002  6.0371e+001 38396 94723,94775,94749
 4.0000e-001 94827 -9.8726e+001 -1.4023e+002  6.3907e+001 38396 94671,94801,94697
 4.0000e-001 94945 -2.0613e+002 -1.5220e+002  8.5837e+001 38396 94801,94775,94919
 4.0000e-001 94968 -2.0770e+002 -1.7056e+002  8.3314e+001 38396 94801,94919,94697
 4.0000e-001 95265 -1.6184e+002 -1.5499e+002  4.9069e+001 37835 95017,95069,95043
 4.0000e-001 95242 -1.6821e+002 -1.5507e+002  5.2396e+001 37835 95288,95069,95017
 4.0000e-001 95219 -1.5915e+002 -1.6628e+002  7.5997e+001 37835 95288,95017,94991
 4.0000e-001 95196 -1.8353e+002 -1.9792e+002  8.5737e+001 37835 94991,95147,95121
 4.0000e-001 95173 -1.3241e+002 -9.5140e+001  6.6509e+001 37835 95069,95121,95095
 4.0000e-001 95314 -1.5762e+002 -1.2253e+002  5.1732e+001 37835 95121,95069,95288
 4.0000e-001 95337 -1.5262e+002 -1.4386e+002  7.3175e+001 37835 95121,95288,94991
 4.0000e-001 95558 -7.4881e+001 -1.9021e+002  3.8043e+001 37423 95408,95460,95434
 4.0000e-001 95535 -9.9199e+001 -3.1986e+002  1.0742e+002 37423 95382,95460,95408
 4.0000e-001 95512 -1.5594e+002 -3.6111e+002  1.2565e+002 37423 95382,95486,95460
 4.0000e-001 95891 -5.9644e+001 -1.4572e+002  7.6776e+001 37225 95666,95718,95692
 4.0000e-001 95868 -1.0182e+002 -1.4116e+002  9.2191e+001 37225 95666,95796,95718
 4.0000e-001 95845 -4.9940e+001 -1.0389e+002  2.7484e+001 37225 95718,95770,95744
 4.0000e-001 95822 -6.8400e+001 -8.5018e+001  5.3870e+001 37225 95718,95796,95770
 4.0000e-001 95992 -8.2827e+001 -2.0831e+002  3.9977e+001 36735 95914,95966,95940
 4.0000e-001 96142 -1.8488e+002 -1.8245e+002  1.0591e+002 36331 96297,96067,96041
 4.0000e-001 96119 -1.3939e+002 -1.2752e+002  1.2858e+002 36331 96165,96041,96015
 4.0000e-001 96191 -1.8266e+002 -1.8107e+002  1.0742e+002 36331 96297,96041,96165
 4.0000e-001 96323 -1.8815e+002 -1.8085e+002  1.1176e+002 36331 96093,96067,96297
 4.0000e-001 96346 -1.8041e+002 -1.7699e+002  1.1371e+002 36331 96093,96297,96165
 4.0000e-001 96714 -1.5040e+002 -2.5435e+002  1.1359e+002 36041 96737,96495,96443
 4.0000e-001 96691 -1.9038e+002 -2.1537e+002  1.2046e+002 36041 96737,96443,96417
 4.0000e-001 96668 -1.3705e+002 -2.4977e+002  1.0910e+002 36041 96443,96495,96469
 4.0000e-001 96645 -8.2089e+001 -1.3259e+002  6.7603e+001 36041 96391,96521,96417
 4.0000e-001 96622 -6.4785e+001 -1.6131e+002  6.0554e+001 36041 96391,96547,96521
 4.0000e-001 96599 -1.9331e+001 -1.4474e+002  5.8175e+001 36041 96391,96573,96547
 4.0000e-001 96763 -9.1934e+001 -2.1702e+002  9.6960e+001 36041 96521,96495,96737
 4.0000e-001 96786 -1.6760e+002 -2.0657e+002  1.1250e+002 36041 96521,96737,96417
 4.0000e-001 96936 -1.1011e+002 -5.7844e+001  6.9211e+001 35637 97031,96959,96835
 4.0000e-001 96913 -1.2839e+002 -6.8330e+001  7.0143e+001 35637 97163,96959,96809
 4.0000e-001 96985 -1.1737e+002 -4.9065e+001  7.8013e+001 35637 96861,96835,96959
 4.0000e-001 97008 -1.3020e+002 -7.4346e+001  8.5604e+001 35637 96861,96959,96887
 4.0000e-001 97057 -1.2963e+002 -6.9030e+001  7.3733e+001 35637 96809,96959,97031
 4.0000e-001 97189 -1.0543e+002 -6.0663e+001  7.4988e+001 35637 96887,96959,97163
 4.0000e-001 97597 -6.1689e+001 -6.3450e+001  5.8148e+001 35190 97450,97502,97476
 4.0000e-001 97574 -7.1629e+001 -1.0555e+002  7.5947e+001 35190 97372,97502,97450
 4.0000e-001 97551 -7.1254e+001 -1.1284e+002  7.0848e+001 35190 97372,97450,97398
 4.0000e-001 97528 -6.1402e+001 -9.9125e+001  5.7557e+001 35190 97398,97450,97424
 4.0000e-001 98054 -1.2120e+002 -1.6518e+002  9.4265e+001 34636 97806,97936,97858
 4.0000e-001 98031 -1.7398e+002 -1.3064e+002  8.8836e+001 34636 97780,97936,97806
 4.0000e-001 98008 -1.7591e+002 -1.7193e+002  7.1319e+001 34636 97806,97858,97832
 4.0000e-001 97985 -1.1812e+002 -1.7518e+002  1.1600e+002 34636 97884,97936,97910
 4.0000e-001 97962 -1.0005e+002 -1.2529e+002  8.6102e+001 34636 97858,97936,97884
 4.0000e-001 98530 -7.3282e+001  1.4661e+001  3.1599e+001 34068 98697,98184,98366
 4.0000e-001 98507 -3.1712e+000 -4.6500e+000  1.3168e+000 34068 98158,98366,98184
 4.0000e-001 98484 -1.1363e+002 -4.6690e+001  6.9021e+001 34068 98553,98262,98236
 4.0000e-001 98461 -1.3746e+002 -3.7493e+001  8.5980e+001 34068 98553,98236,98210
 4.0000e-001 98438 -1.0835e+002 -4.7279e+001  3.7018e+001 34068 98841,98625,98366
 4.0000e-001 98415 -1.3037e+002 -1.6696e+002  9.5842e+001 34068 98769,98288,98262
 4.0000e-001 98392 -1.5355e+002 -3.2159e+001  4.2144e+001 34068 98841,98366,98340
 4.0000e-001 98579 -1.4252e+002 -1.0061e+002  8.2751e+001 34068 98769,98262,98553
 4.0000e-001 98602 -1.2016e+002 -3.6570e+001  4.3508e+001 34068 98625,98314,98553
 4.0000e-001 98651 -9.6157e+001 -3.0327e+001  2.3523e+001 34068 98697,98366,98625
 4.0000e-001 98674 -1.2059e+002 -3.7542e+001  2.8565e+001 34068 98210,98625,98553
 4.0000e-001 98723 -7.8302e+001 -4.2653e+001  2.9247e+001 34068 98210,98184,98697
 4.0000e-001 98746 -7.3742e+001 -4.4266e+001  3.2729e+001 34068 98210,98697,98625
 4.0000e-001 98795 -1.0322e+002 -9.9053e+001  4.8988e+001 34068 98314,98288,98769
 4.0000e-001 98818 -1.2951e+002 -5.5258e+001  3.4695e+001 34068 98314,98769,98553
 4.0000e-001 98867 -1.6234e+002 -4.8365e+001  2.8766e+001 34068 98314,98625,98841
 4.0000e-001 98890 -2.1102e+002 -3.5706e+001  3.7012e+001 34068 98314,98841,98340
 4.0000e-001 99268 -1.6706e+002 -1.3894e+002  9.1726e+001 33450 99291,99098,99072
 4.0000e-001 99245 -1.7895e+002 -1.1834e+002  6.8378e+001 33450 99291,99072,99020
 4.0000e-001 99222 -2.5638e+002 -1.3908e+002  1.0319e+002 33450 99020,99072,99046
 4.0000e-001 99199 -1.3977e+002 -1.1003e+002  5.8210e+001 33450 99020,99150,99124
 4.0000e-001 99176 -1.5099e+002 -9.9050e+001  1.6817e+001 33450 98994,99150,99020
 4.0000e-001 99317 -1.2597e+002 -1.2090e+002  8.8229e+001 33450 99124,99098,99291
 4.0000e-001 99340 -1.6492e+002 -1.1426e+002  6.8509e+001 33450 99124,99291,99020
 4.0000e-001 99865 -1.4026e+002 -1.2824e+002  7.5422e+001 32944 100176,99960,99888
 4.0000e-001 99842 -1.6342e+002 -1.2760e+002  7.4218e+001 32944 100104,99888,99522
 4.0000e-001 99819 -1.1599e+002 -1.1044e+002  7.2811e+001 32944 100248,99960,99626
 4.0000e-001 99796 -1.5729e+002 -1.5187e+002  6.6964e+001 32944 100032,99652,99626
 4.0000e-001 99773 -1.4924e+002 -1.2225e+002  6.2144e+001 32944 100104,99522,99496
 4.0000e-001 99750 -9.5705e+001 -1.4141e+002  8.9536e+000 32944 99574,99626,99600
 4.0000e-001 99727 -7.7366e+001 -1.2830e+002  8.2698e+001 32944 100248,99626,99574
 4.0000e-001 99704 -1.2779e+002 -1.2180e+002  5.8474e+001 32944 99444,99496,99470
 4.0000e-001 99914 -1.5573e+002 -1.3190e+002  7.2140e+001 32944 100176,99888,100032
 4.0000e-001 99937 -1.5052e+002 -1.1675e+002  6.6910e+001 32944 99678,99888,99444
 4.0000e-001 99986 -1.5556e+002 -1.1156e+002  7.6778e+001 32944 99522,99888,99960
 4.0000e-001 100009 -1.4829e+002 -9.3593e+001  8.9340e+001 32944 99522,99960,99548
 4.0000e-001 100058 -1.5015e+002 -1.8090e+002  5.1757e+001 32944 99678,99652,100032
 4.0000e-001 100081 -1.6754e+002 -1.5477e+002  5.2772e+001 32944 99678,100032,99888
 4.0000e-001 100130 -1.3804e+002 -1.2438e+002  6.7857e+001 32944 99444,99888,100104
 4.0000e-001 100153 -1.3024e+002 -1.2718e+002  5.7871e+001 32944 99444,100104,99496
 4.0000e-001 100202 -1.5279e+002 -1.3394e+002  6.2251e+001 32944 99626,99960,100176
 4.0000e-001 100225 -1.5686e+002 -1.3428e+002  5.8005e+001 32944 99626,100176,100032
 4.0000e-001 100274 -1.6392e+002 -1.2843e+002  7.8063e+001 32944 99548,99960,100248
 4.0000e-001 100297 -1.2933e+002 -1.4884e+002  8.8510e+001 32944 99548,100248,99574
 4.0000e-001 100754 -9.4643e+001 -1.0251e+002  3.8097e+001 32369 100777,100584,100506
 4.0000e-001 100731 -7.6664e+001 -1.3635e+002  7.4169e+001 32369 100777,100506,100636
 4.0000e-001 100708 -1.3874e+002 -1.3519e+002  8.5257e+001 32369 100480,100636,100506
 4.0000e-001 100685 -1.8123e+002 -1.5056e+002  4.5940e+001 32369 100532,100584,100558
 4.0000e-001 100662 -9.5145e+001 -1.1081e+002  3.5363e+001 32369 100506,100584,100532
 4.0000e-001 100803 -8.7972e+001 -4.8360e+001  4.1168e+001 32369 100610,100584,100777
 4.0000e-001 100826 -7.1359e+001 -8.9192e+001  7.1882e+001 32369 100610,100777,100636
 4.0000e-001 101025 -1.1439e+002 -1.2657e+002  1.1147e+002 31857 100875,100927,100901
 4.0000e-001 101002 -2.1502e+002 -1.5416e+002  9.4522e+001 31857 100875,100953,100927
 4.0000e-001 100979 -2.2037e+002 -1.5512e+002  8.2184e+001 31857 100849,100953,100875
 4.0000e-001 101533 -9.8160e+001 -1.0781e+002  7.8117e+001 31253 101556,101314,101236
 4.0000e-001 101510 -1.4235e+002 -1.3637e+002  9.0430e+001 31253 101556,101236,101210
 4.0000e-001 101487 -1.5416e+002 -1.1747e+002  4.2770e+001 31253 101210,101392,101340
 4.0000e-001 101464 -6.5890e+001 -1.0284e+002  5.6799e+001 31253 101236,101288,101262
 4.0000e-001 101441 -7.6279e+001 -1.3400e+002  6.0207e+001 31253 101236,101314,101288
 4.0000e-001 101418 -1.3729e+002 -8.0156e+001  4.6352e+001 31253 101340,101392,101366
 4.0000e-001 101582 -1.0990e+002 -7.1041e+001  3.4642e+001 31253 101340,101314,101556
 4.0000e-001 101605 -1.5663e+002 -1.0304e+002  4.8572e+001 31253 101340,101556,101210
 4.0000e-001 101755  1.8761e+001  2.9374e+001  4.0335e+001 30519 101778,101654,101628
 4.0000e-001 101732 -2.9960e+001  6.5676e+001  6.9163e+000 30519 101850,101778,101628
 4.0000e-001 101804 -2.4744e+001 -4.5993e+001  1.9329e+001 30519 101680,101654,101778
 4.0000e-001 101827 -3.6952e+001  2.2797e+001  1.2308e+001 30519 101680,101778,101706
 4.0000e-001 101876 -5.8281e+001  3.8814e-001  3.4529e+000 30519 101706,101778,101850
 4.0000e-001 102561 -1.2410e+002 -1.7415e+002  6.6341e+001 29951 102656,102584,102270
 4.0000e-001 102538 -2.0342e+002 -3.0548e+002  6.4799e+001 29951 102584,102140,102374
 4.0000e-001 102515 -1.5908e+002 -2.6861e+002  1.0704e+002 29951 102728,102656,102270
 4.0000e-001 102492 -1.5112e+002 -3.0171e+002  1.0106e+002 29951 102728,102270,102244
 4.0000e-001 102469 -1.7064e+002 -3.2629e+001  7.1629e+001 29951 102800,102322,102296
 4.0000e-001 102446 -2.0891e+002 -2.0577e+002  3.3762e+001 29951 102166,102218,102192
 4.0000e-001 102423 -1.5414e+002 -1.8671e+002  3.5591e+001 29951 102166,102244,102218
 4.0000e-001 102400 -1.1395e+002 -1.3389e+002  6.0081e+001 29951 102322,102374,102348
 4.0000e-001 102610 -2.0808e+002 -1.2159e+002  5.3224e+001 29951 102296,102270,102584
 4.0000e-001 102633 -2.1429e+002 -1.2851e+002  5.8012e+001 29951 102800,102296,102584
 4.0000e-001 102682 -2.0569e+002 -2.4464e+002  1.1526e+002 29951 102140,102584,102656
 4.0000e-001 102705 -1.6615e+002 -2.8166e+002  1.4064e+002 29951 102140,102656,102166
 4.0000e-001 102754 -1.4463e+002 -2.2740e+002  1.2278e+002 29951 102166,102656,102728
 4.0000e-001 102777 -1.4508e+002 -2.6120e+002  1.0952e+002 29951 102166,102728,102244
 4.0000e-001 102826 -1.3743e+002 -1.4178e+002  1.1695e+002 29951 102374,102322,102800
 4.0000e-001 102849 -1.4667e+002 -1.7741e+002  1.1733e+002 29951 102374,102800,102584
 4.0000e-001 103048 -3.2391e+000 -2.7080e+001  2.0034e+001 29454 102872,102924,102898
 4.0000e-001 103025 -2.0657e+001  1.0720e+001  1.9121e+001 29454 102872,102976,102924
 4.0000e-001 103002 -2.9950e+001 -2.7014e+001  2.0542e+001 29454 102924,102976,102950
 4.0000e-001 103296 -1.9090e+002 -1.0423e+002  1.0247e+002 29064 103319,103175,103123
 4.0000e-001 103273 -2.0209e+002 -1.1217e+002  9.8353e+001 29064 103319,103123,103071
 4.0000e-001 103250 -1.1004e+002 -6.9033e+001  9.3098e+001 29064 103123,103175,103149
 4.0000e-001 103227 -1.2703e+002 -8.3391e+001  1.2781e+002 29064 103071,103123,103097
 4.0000e-001 103345 -1.6946e+002 -1.1793e+002  9.0519e+001 29064 103201,103175,103319
 4.0000e-001 103368 -2.0012e+002 -1.4257e+002  7.9869e+001 29064 103201,103319,103071
 4.0000e-001 104006 -1.7090e+002 -9.1362e+001  8.5175e+001 28603 104101,104029,103712
 4.0000e-001 103983 -1.7383e+002 -8.4796e+001  6.5746e+001 28603 104173,104029,103660
 4.0000e-001 103960 -2.2071e+002 -6.4303e+001  8.2348e+001 28603 104101,103712,103686
 4.0000e-001 103937 -1.5750e+002 -1.1029e+002  5.7225e+001 28603 104173,103660,103634
 4.0000e-001 103914 -1.8350e+002 -1.4908e+002  8.5485e+001 28603 103764,103816,103790
 4.0000e-001 103891 -1.5268e+002 -1.2341e+002  9.7826e+001 28603 103634,103842,103816
 4.0000e-001 103868 -1.0742e+002 -9.6259e+000  1.0157e+002 28603 103712,103764,103738
 4.0000e-001 104055 -1.6386e+002 -9.7942e+001  7.6595e+001 28603 103764,103712,104029
 4.0000e-001 104078 -1.7251e+002 -1.0564e+002  8.4067e+001 28603 103764,104029,103816
 4.0000e-001 104127 -2.3111e+002 -1.0915e+002  6.7190e+001 28603 103660,104029,104101
 4.0000e-001 104150 -2.9492e+002 -8.7152e+001  7.3945e+001 28603 103660,104101,103686
 4.0000e-001 104199 -1.8757e+002 -1.1187e+002  7.2064e+001 28603 103816,104029,104173
 4.0000e-001 104222 -1.6702e+002 -1.2967e+002  6.3863e+001 28603 103816,104173,103634
 4.0000e-001 104600 -6.1802e+001 -1.1276e+002  3.0447e+001 28348 104623,104378,104326
 4.0000e-001 104577 -5.4660e+001 -1.1643e+002  3.9862e+001 28348 104623,104326,104482
 4.0000e-001 104554 -6.0980e+001 -9.7526e+001  2.9581e+001 28348 104326,104378,104352
 4.0000e-001 104531 -7.4183e+001  2.5677e+000  7.2051e+000 28348 104404,104456,104430
 4.0000e-001 104508 -8.9283e+001 -6.5214e+001  4.5107e+001 28348 104378,104456,104404
 4.0000e-001 104649 -5.6646e+001 -1.0450e+002  3.5143e+001 28348 104456,104378,104623
 4.0000e-001 104672 -4.7379e+001 -1.0628e+002  4.4882e+001 28348 104456,104623,104482
 4.0000e-001 104991 -1.6957e+002 -2.1365e+002  1.1078e+002 27951 104717,104847,104769
 4.0000e-001 104968 -7.4483e+001 -1.7478e+002  1.0433e+002 27951 104717,104873,104847
 4.0000e-001 104945 -7.4961e+001 -1.8211e+002  1.1957e+002 27951 104769,104847,104795
 4.0000e-001 104922 -1.7011e+001 -3.7825e+001  1.1855e+002 27951 104795,104847,104821
 4.0000e-001 104899 -1.3058e+002 -1.1915e+002  1.0976e+002 27951 104717,104769,104743
 4.0000e-001 105371 -1.4283e+002 -5.8425e+001  8.6132e+001 27447 105394,105201,105123
 4.0000e-001 105348 -1.3010e+002 -5.9256e+001  7.5665e+001 27447 105394,105123,105097
 4.0000e-001 105325 -2.4644e+002 -9.4235e+001  1.0126e+002 27447 105123,105201,105149
 4.0000e-001 105302 -1.6996e+002 -6.4392e+001  7.1966e+001 27447 105201,105253,105227
 4.0000e-001 105279 -1.5005e+002 -1.5981e+002  3.0074e+001 27447 105149,105201,105175
 4.0000e-001 105420 -1.5073e+002 -6.3972e+001  9.1479e+001 27447 105253,105201,105394
 4.0000e-001 105443 -1.3909e+002 -6.9181e+001  8.2014e+001 27447 105253,105394,105097
 4.0000e-001 105998 -1.3967e+002 -9.9737e+001  1.0555e+002 27100 106165,106021,105704
 4.0000e-001 105975 -9.3960e+001 -1.0152e+002  8.8498e+001 27100 106309,106021,105652
 4.0000e-001 105952 -2.6421e+002 -2.0027e+002  1.7140e+002 27100 106093,105808,105782
 4.0000e-001 105929 -1.4707e+002 -8.4514e+001  1.1845e+002 27100 106165,105704,105678
 4.0000e-001 105906 -1.0697e+002 -1.0188e+002  8.4674e+001 27100 106237,105730,105704
 4.0000e-001 105883 -8.3878e+001 -1.3184e+002  6.5239e+001 27100 106309,105652,105626
 4.0000e-001 105860 -8.8233e+001  1.9101e+001  3.8559e+001 27100 105730,105782,105756
 4.0000e-001 106047 -1.3646e+002 -7.4952e+001  1.0005e+002 27100 106237,105704,106021
 4.0000e-001 106070 -1.5634e+002 -1.0199e+002  1.2515e+002 27100 106093,105782,106021
 4.0000e-001 106119 -1.1520e+002 -1.5161e+002  9.5417e+001 27100 105834,105808,106093
 4.0000e-001 106142 -1.2264e+002 -1.9101e+002  1.0649e+002 27100 106381,106093,106021
 4.0000e-001 106191 -1.5471e+002 -1.2022e+002  9.1219e+001 27100 105652,106021,106165
 4.0000e-001 106214 -1.6345e+002 -9.2999e+001  1.0196e+002 27100 105652,106165,105678
 4.0000e-001 106263 -7.7789e+001 -7.2696e+001  7.1281e+001 27100 105782,105730,106237
 4.0000e-001 106286 -1.1379e+002 -5.4191e+001  8.9024e+001 27100 105782,106237,106021
 4.0000e-001 106335 -1.1505e+002 -1.5007e+002  9.3040e+001 27100 106381,106021,106309
 4.0000e-001 106358 -9.3833e+001 -1.3786e+002  6.8281e+001 27100 105834,106309,105626
 4.0000e-001 106407 -9.9772e+001 -1.4176e+002  8.0188e+001 27100 105834,106093,106381
 4.0000e-001 106430 -1.0231e+002 -1.3155e+002  6.4578e+001 27100 105834,106381,106309
 4.0000e-001 106629 -8.9017e+000 -9.3423e+001  1.3398e+001 26688 106479,106557,106531
 4.0000e-001 106606 -9.2197e+000 -4.0999e+001  2.0324e+001 26688 106453,106557,106479
 4.0000e-001 106583 -3.7004e+001 -1.0165e+002  6.5476e+000 26688 106479,106531,106505
 4.0000e-001 107088 -7.7704e+001 -7.3524e+001  4.3514e+001 26248 107111,106918,106866
 4.0000e-001 107065 -8.5336e+001 -6.6931e+001  5.2761e+001 26248 107111,106866,106840
 4.0000e-001 107042 -7.5019e+001 -6.4071e+001  5.1204e+001 26248 106814,106970,106840
 4.0000e-001 107019 -7.4863e+001 -9.6538e+001  5.0726e+001 26248 106866,106918,106892
 4.0000e-001 106996 -1.5455e+002 -1.2344e+002  5.3818e+001 26248 106918,106970,106944
 4.0000e-001 107137 -9.2921e+001 -8.4168e+001  3.6604e+001 26248 106970,106918,107111
 4.0000e-001 107160 -9.1125e+001 -7.0027e+001  4.7278e+001 26248 106970,107111,106840
 4.0000e-001 107666 -1.9112e+002 -1.3309e+002  5.9315e+001 25908 107369,107499,107395
 4.0000e-001 107643 -2.5498e+002 -2.6400e+002  1.0552e+002 25908 107369,107525,107499
 4.0000e-001 107620 -1.7696e+002 -1.2677e+002  8.3462e+001 25908 107395,107473,107447
 4.0000e-001 107597 -1.4041e+002 -1.0924e+002  7.5397e+001 25908 107395,107499,107473
 4.0000e-001 107574 -2.4815e+002 -8.9252e+001  1.8850e+002 25908 107395,107447,107421
 4.0000e-001 107551 -1.3268e+002 -2.0614e+002  1.2949e+002 25908 107343,107525,107369
 4.0000e-001 108251 -1.7493e+002 -7.2743e+001  1.0038e+002 25454 108274,108006,107954
 4.0000e-001 108228 -1.1415e+002 -3.8655e+001  8.6044e+001 25454 108274,107954,108110
 4.0000e-001 108205 -1.0791e+002 -6.9508e+001  1.2731e+002 25454 108346,108032,108006
 4.0000e-001 108182 -2.0019e+002 -6.8682e+001  1.2325e+002 25454 107954,108006,107980
 4.0000e-001 108159 -6.4302e+001 -9.3089e+001  7.2801e+001 25454 107928,108110,107954
 4.0000e-001 108136 -2.1521e+002 -2.3059e+002  1.1134e+002 25454 108058,108110,108084
 4.0000e-001 108300 -1.3893e+002 -5.2887e+001  1.2654e+002 25454 108346,108006,108274
 4.0000e-001 108323 -1.4558e+002 -1.0813e+002  7.9052e+001 25454 108058,108274,108110
 4.0000e-001 108372 -2.8474e+001 -7.0695e+001  1.1460e+002 25454 108058,108032,108346
 4.0000e-001 108395 -8.6055e+001 -7.3424e+001  1.0420e+002 25454 108058,108346,108274
 4.0000e-001 108822 -1.2156e+002 -6.2109e+001  5.5278e+001 24943 108525,108681,108655
 4.0000e-001 108799 -1.5338e+002 -8.5296e+001  2.9312e+001 24943 108499,108681,108525
 4.0000e-001 108776 -9.9933e+001 -5.3249e+001  4.5105e+001 24943 108525,108655,108629
 4.0000e-001 108753 -1.3402e+002 -6.1927e+001  4.9503e+001 24943 108525,108629,108603
 4.0000e-001 108730 -1.3592e+002 -7.7356e+001  7.0307e+001 24943 108551,108603,108577
 4.0000e-001 108707 -1.7030e+002 -9.3469e+001  7.6584e+001 24943 108525,108603,108551
 4.0000e-001 109407 -4.4559e-001 -2.2295e+001  2.5691e+001 24745 109162,109214,109188
 4.0000e-001 109384 -5.9054e+001 -3.8629e+001  2.3679e+001 24745 109162,109266,109214
 4.0000e-001 109361 -6.4425e+001 -2.3481e+001  1.3379e+001 24745 109084,109266,109162
 4.0000e-001 109338 -6.9739e+001 -1.4878e+001  1.5832e+001 24745 109084,109162,109136
 4.0000e-001 109315 -2.9502e+001 -4.6747e+001  2.2005e+001 24745 109214,109266,109240
 4.0000e-001 109292 -4.5143e+001 -1.6913e+001  2.8482e+001 24745 109084,109136,109110
 4.0000e-001 109785 -2.1706e+002 -1.5084e+002  1.1717e+002 24341 109537,109615,109563
 4.0000e-001 109762 -5.2607e+001 -1.2242e+002  1.1083e+002 24341 109537,109641,109615
 4.0000e-001 109739 -1.3936e+002 -1.3642e+002  1.0017e+002 24341 109563,109615,109589
 4.0000e-001 109716 -1.1331e+002 -1.5500e+002  7.7823e+001 24341 109537,109667,109641
 4.0000e-001 109693 -4.6145e+001 -1.4190e+002  8.1370e+001 24341 109511,109667,109537
 4.0000e-001 110163 -1.8760e+002 -1.1277e+002  1.2248e+002 23837 110186,109967,109915
 4.0000e-001 110140 -1.6880e+002 -1.0319e+002  1.1917e+002 23837 110186,109915,109889
 4.0000e-001 110117 -8.6193e+001 -4.9513e+001  9.8338e+001 23837 109889,110045,109993
 4.0000e-001 110094 -1.7119e+002 -1.6829e+002  8.3050e+001 23837 109915,109967,109941
 4.0000e-001 110071 -1.1346e+002 -3.6989e+000  2.2872e+001 23837 109993,110045,110019
 4.0000e-001 110212 -1.7891e+002 -1.1369e+002  1.3002e+002 23837 109993,109967,110186
 4.0000e-001 110235 -1.7419e+002 -1.1103e+002  1.2880e+002 23837 109993,110186,109889
 4.0000e-001 110336 -1.2567e+002 -2.8830e+002  1.3759e+002 23433 110258,110310,110284
 4.0000e-001 110584 -1.8545e+002 -1.0722e+002  8.5082e+001 22829 110607,110411,110385
 4.0000e-001 110561 -1.9780e+002 -1.1095e+002  7.4640e+001 22829 110607,110385,110489
 4.0000e-001 110538 -1.9805e+002 -1.0554e+002  6.6448e+001 22829 110437,110489,110463
 4.0000e-001 110515 -1.2920e+002 -7.1369e+001  1.0115e+002 22829 110359,110489,110385
 4.0000e-001 110633 -1.9356e+002 -1.1975e+002  7.8005e+001 22829 110437,110411,110607
 4.0000e-001 110656 -1.9961e+002 -1.1731e+002  6.8354e+001 22829 110437,110607,110489
 4.0000e-001 110906 -2.6064e+002 -1.1101e+002  6.6781e+001 22432 110707,110759,110733
 4.0000e-001 110883 -2.1347e+002 -1.2385e+002  6.0336e+001 22432 110707,110785,110759
 4.0000e-001 110860 -1.7573e+002 -9.7883e+001  1.0228e+002 22432 110707,110811,110785
 4.0000e-001 110837 -2.1807e+002 -1.5512e+002  8.3368e+001 22432 110681,110811,110707
 4.0000e-001 111288 -1.7636e+001 -6.0740e+001  6.0410e+001 22142 111092,111144,111118
 4.0000e-001 111265 -7.8987e+001 -6.1078e+001  5.2745e+001 22142 111066,111144,111092
 4.0000e-001 111242 -6.3134e+001 -2.5453e+001  4.9627e+001 22142 111040,111144,111066
 4.0000e-001 111219 -1.0841e+002 -1.7985e+001  3.9731e+001 22142 111014,111144,111040
 4.0000e-001 111196 -5.1952e+001  1.3071e+001  2.6532e+001 22142 111014,111170,111144
 4.0000e-001 111389 -4.7134e+000 -2.3437e+001  4.9199e+001 21830 111311,111363,111337
 4.0000e-001 111735 -1.5239e+002  1.9340e+001  1.4845e+002 21268 111758,111542,111438
 4.0000e-001 111712 -1.2601e+002  2.3894e+001  9.2966e+001 21268 111758,111438,111412
 4.0000e-001 111689 -3.3889e+001 -6.8853e+001  1.6971e+002 21268 111438,111542,111464
 4.0000e-001 111666  4.7251e+001 -3.2464e+001  2.0157e+002 21268 111464,111542,111490
 4.0000e-001 111643 -2.8680e+002 -1.6815e+002  1.4537e+002 21268 111412,111594,111568
 4.0000e-001 111620  1.6276e+002  7.9359e+001  2.4999e+002 21268 111490,111542,111516
 4.0000e-001 111784 -1.5130e+002 -2.1896e+001  1.3655e+002 21268 111568,111542,111758
 4.0000e-001 111807 -1.5787e+002 -9.3621e+001  9.7459e+001 21268 111568,111758,111412
 4.0000e-001 111959 -2.0004e+002 -2.9117e+001  4.2081e+001 20864 111982,111910,111884
 4.0000e-001 111936 -1.7230e+002 -6.7432e+000  6.7875e+001 20864 112114,111832,111910
 4.0000e-001 112008 -1.8217e+002 -3.1132e+001  5.8043e+001 20864 112114,111910,111982
 4.0000e-001 112140 -1.6974e+002 -3.5140e+001  5.2730e+001 20864 111858,111832,112114
 4.0000e-001 112163 -1.8116e+002 -6.4161e+001  4.3599e+001 20864 111858,112114,111982
 4.0000e-001 112411 -2.5545e+001  1.3555e+001  9.7793e+000 20324 112186,112290,112212
 4.0000e-001 112388 -6.2742e+000  2.7892e+001  1.3183e+000 20324 112186,112316,112290
 4.0000e-001 112365  7.2188e+001 -5.4141e+001  1.6241e+000 20324 112212,112290,112264
 4.0000e-001 112342 -3.1506e+002 -1.3501e+002 -1.4128e+001 20324 112212,112264,112238
 4.0000e-001 112659 -7.0997e+001 -2.9159e+001  9.0433e+001 19920 112512,112564,112538
 4.0000e-001 112636 -9.1340e+001 -6.0310e+001  8.1058e+001 19920 112434,112564,112512
 4.0000e-001 112613 -9.3336e+001 -5.5916e+001  7.6490e+001 19920 112434,112512,112460
 4.0000e-001 112590 -8.6586e+001 -6.0053e+001  7.5057e+001 19920 112460,112512,112486
 4.0000e-001 112811 -9.3691e+001 -3.9283e+001  7.4908e+001 19630 112684,112736,112710
 4.0000e-001 112788 -4.3236e+001 -3.9433e+001  4.9313e+001 19630 112684,112762,112736
 4.0000e-001 113012 -1.1637e+002 -4.8352e+001  9.8936e+001 19169 112862,112940,112888
 4.0000e-001 112989 -1.6725e+002 -1.1648e+002  7.6313e+001 19169 112836,112940,112862
 4.0000e-001 112966 -1.3001e+002 -1.5913e+002  9.0433e+001 19169 112888,112940,112914
 4.0000e-001 113213 -2.2466e+002 -9.4256e+001  1.1408e+002 18600 113037,113089,113063
 4.0000e-001 113190 -2.2783e+002 -8.5246e+001  1.1298e+002 18600 113037,113115,113089
 4.0000e-001 113167 -2.3614e+002 -1.3504e+002  1.5531e+002 18600 113037,113141,113115
 4.0000e-001 113485 -1.0870e+002 -4.4577e+001  1.1377e+002 18352 113260,113312,113286
 4.0000e-001 113462 -1.6502e+002 -1.0084e+002  1.3781e+002 18352 113260,113390,113312
 4.0000e-001 113439 -1.5305e+002 -5.7466e+001  1.3046e+002 18352 113312,113390,113364
 4.0000e-001 113416 -1.4217e+002 -5.8312e+001  1.2969e+002 18352 113312,113364,113338
 4.0000e-001 113757 -1.1781e+002 -4.7823e+001  1.3092e+002 17834 113558,113610,113584
 4.0000e-001 113734 -1.9210e+002 -8.0551e+001  1.4156e+002 17834 113532,113610,113558
 4.0000e-001 113711 -2.1329e+002 -1.3776e+002  1.1374e+002 17834 113532,113662,113610
 4.0000e-001 113688 -1.0738e+002 -4.2349e+001  1.5376e+002 17834 113610,113662,113636
 4.0000e-001 113958 -1.2160e+002 -5.1281e+001  7.3518e+001 17330 113782,113834,113808
 4.0000e-001 113935 -7.5429e+001 -5.6167e+001  5.8736e+001 17330 113782,113886,113834
 4.0000e-001 113912 -9.2079e+001 -4.0686e+001  3.7312e+001 17330 113834,113886,113860
 4.0000e-001 114110 -2.1791e+002 -9.0330e+001  1.4024e+002 16874 113983,114035,114009
 4.0000e-001 114087 -8.0609e+001 -1.8823e+002  1.0873e+002 16874 113983,114061,114035
 4.0000e-001 114465 -1.5744e+002 -6.7181e+001  4.3838e+001 16270 114240,114292,114266
 4.0000e-001 114442 -1.6626e+002 -5.2831e+001  3.4710e+001 16270 114240,114370,114292
 4.0000e-001 114419 -1.0900e+002 -4.6376e+001  4.7293e+001 16270 114292,114344,114318
 4.0000e-001 114396 -1.8817e+002 -8.5883e+001  2.5229e+001 16270 114292,114370,114344
 4.0000e-001 114566 -3.6923e+000  3.6923e+000  1.8457e+002 15834 114488,114540,114514
 4.0000e-001 114667 -1.1986e+002 -5.0376e+001  8.0031e+001 15155 114589,114641,114615
 4.0000e-001 114890 -1.4628e+002 -6.1658e+001  8.1575e+001 421 114766,114818,114792
 4.0000e-001 114867 -1.8439e+002 -1.3562e+002  6.8054e+001 421 114714,114818,114766
 4.0000e-001 114844 -2.0562e+002 -8.7924e+001  3.6162e+001 421 114714,114766,114740
 5.0000e-001 66553 -2.2945e+002 -1.0207e+002  1.2281e+002 66108 66354,66458,66432
 5.0000e-001 66530 -2.3266e+002 -9.8973e+001  8.2405e+001 66108 66328,66458,66354
 5.0000e-001 66507 -1.2867e+002 -8.8788e+001  7.6556e+001 66108 66354,66432,66406
 5.0000e-001 66484  5.9028e+001  2.8405e+001  1.4189e+002 66108 66354,66406,66380
 5.0000e-001 66951 -1.8040e+002 -7.6645e+001  6.6840e+001 65910 66703,66833,66807
 5.0000e-001 66928 -8.8549e+000 -5.6313e+001  9.6998e+001 65910 66677,66833,66703
 5.0000e-001 66905 -6.8645e+001 -1.1651e+002  9.1559e+001 65910 66729,66781,66755
 5.0000e-001 66882 -2.0192e+002 -8.5277e+001  9.0353e+001 65910 66729,66807,66781
 5.0000e-001 66859 -1.7472e+002 -3.9040e+001  7.7408e+001 65910 66703,66807,66729
 5.0000e-001 67150 -2.3188e+002 -9.7079e+001  1.2342e+002 65712 67026,67078,67052
 5.0000e-001 67127 -2.4701e+002 -5.1903e+001  1.0667e+002 65712 66974,67078,67026
 5.0000e-001 67104 -8.9140e+002 -4.7553e+002  3.6596e+002 65712 66974,67026,67000
 5.0000e-001 67481 -3.5317e+002 -1.3123e+002  1.4898e+002 65422 67282,67360,67334
 5.0000e-001 67458 -1.7390e+002 -6.7621e+001  2.1050e+002 65422 67282,67386,67360
 5.0000e-001 67435 -1.0639e+002 -8.9038e+000  1.0894e+002 65422 67282,67334,67308
 5.0000e-001 67412 -1.4742e+002 -1.4700e+002  1.7761e+002 65422 67256,67386,67282
 5.0000e-001 68115 -1.1690e+002 -1.5190e+002  8.2442e+001 65018 67795,67925,67873
 5.0000e-001 68092 -1.1755e+002 -1.5215e+002  3.5652e+001 65018 67769,67925,67795
 5.0000e-001 68069 -1.1236e+002 -8.3276e+001  8.8618e+001 65018 67873,67925,67899
 5.0000e-001 68046 -2.1083e+002 -1.6771e+002  4.5950e+001 65018 67769,67951,67925
 5.0000e-001 68023 -1.5204e+002 -2.0007e+002  9.7963e+001 65018 67795,67873,67821
 5.0000e-001 68000 -1.7165e+002 -1.8039e+002  7.0414e+001 65018 67821,67873,67847
 5.0000e-001 67977 -2.2222e+002 -1.0386e+002  1.1298e+002 65018 67743,67951,67769
 5.0000e-001 68363 -8.1019e+001 -1.8201e+002  1.6798e+002 64820 68190,68242,68216
 5.0000e-001 68340 -1.5274e+002 -1.1948e+002  1.7603e+002 64820 68190,68268,68242
 5.0000e-001 68317 -8.5030e+001 -8.7689e+001  1.9397e+002 64820 68164,68268,68190
 5.0000e-001 68294 -3.4300e+002 -1.4343e+002  1.5144e+002 64820 68138,68268,68164
 5.0000e-001 68513 -1.2673e+002 -9.1897e+001  1.2713e+002 64366 68868,68536,68438
 5.0000e-001 68490 -8.0073e+001 -8.5697e+001  6.9367e+001 64366 68536,68412,68386
 5.0000e-001 68562 -2.4110e+002 -1.5562e+002  1.1911e+002 64366 68740,68536,68464
 5.0000e-001 68585 -1.2734e+002 -1.0141e+002  8.8775e+001 64366 68608,68536,68386
 5.0000e-001 68634 -1.9068e+002 -2.1885e+002  6.2899e+001 64366 68464,68536,68608
 5.0000e-001 68766 -1.0985e+002 -9.7664e+001  9.8038e+001 64366 68438,68536,68740
 5.0000e-001 68894 -1.3420e+002 -1.0170e+002  1.2385e+002 64366 68412,68536,68868
 5.0000e-001 69172  5.1005e+001 -1.8088e+002  5.8817e+001 64168 69022,69074,69048
 5.0000e-001 69149 -5.8617e+001 -2.4066e+001  8.3017e+001 64168 68996,69074,69022
 5.0000e-001 69126 -1.0614e+002 -1.2182e+002  3.7286e+001 64168 68996,69100,69074
 5.0000e-001 69371 -1.6493e+002 -7.8773e+001  1.2840e+002 63970 69466,69394,69273
 5.0000e-001 69348 -1.1974e+002 -9.0799e+001  7.8911e+001 63970 69394,69247,69221
 5.0000e-001 69325 -3.1263e+002 -1.3212e+002  1.0963e+002 63970 69195,69299,69221
 5.0000e-001 69420 -2.1675e+002 -1.1876e+002  1.5163e+002 63970 69299,69273,69394
 5.0000e-001 69443 -1.6467e+002 -1.2763e+002  1.1084e+002 63970 69299,69394,69221
 5.0000e-001 69492 -1.9085e+002 -1.2049e+002  1.1738e+002 63970 69247,69394,69466
 5.0000e-001 69904 -6.4208e+000 -4.9003e+001  1.5721e+001 63680 69705,69783,69731
 5.0000e-001 69881  1.5835e+001 -5.0222e+001  2.1965e+001 63680 69679,69783,69705
 5.0000e-001 69858 -5.0334e+001 -1.1908e+002  4.9280e+001 63680 69679,69809,69783
 5.0000e-001 69835 -3.4690e+001 -1.4831e+001  2.4509e+001 63680 69731,69783,69757
 5.0000e-001 70054 -1.6683e+000 -8.1991e+001  5.6523e+001 63476 70077,69953,69927
 5.0000e-001 70031  2.7183e+001 -3.4859e+001  7.9345e+001 63476 70077,69927,70005
 5.0000e-001 70103 -4.1086e+001 -4.9746e+001  3.6523e+001 63476 69979,69953,70077
 5.0000e-001 70126 -1.7751e+001 -7.1320e+000  5.5684e+001 63476 69979,70077,70005
 5.0000e-001 70325 -2.5958e+002 -1.0807e+002  1.6013e+002 63278 70149,70227,70175
 5.0000e-001 70302 -1.1089e+002 -4.2927e+001  1.7304e+002 63278 70149,70253,70227
 5.0000e-001 70279 -3.3651e+002 -1.2361e+002  8.1435e+001 63278 70175,70227,70201
 5.0000e-001 70597 -1.3694e+002 -1.9701e+001  7.6385e+001 63080 70372,70476,70424
 5.0000e-001 70574 -6.5511e+001 -2.6567e+001  9.8659e+001 63080 70372,70502,70476
 5.0000e-001 70551 -1.9156e+002 -8.0126e+001  1.1279e+002 63080 70424,70476,70450
 5.0000e-001 70528 -2.4676e+002 -9.4400e+001  1.8155e+002 63080 70372,70424,70398
 5.0000e-001 70847 -5.7738e+000 -1.4772e+002  3.3508e+001 62740 70870,70648,70622
 5.0000e-001 70824 -8.4399e+001 -1.1654e+002  7.1155e+001 62740 70870,70622,70752
 5.0000e-001 70801 -1.7529e+001 -2.1555e+002  7.3459e+001 62740 70648,70726,70700
 5.0000e-001 70778 -1.1925e+001 -2.1547e+002  6.9693e+001 62740 70648,70700,70674
 5.0000e-001 70896 -8.3442e+001 -1.8605e+002  1.9713e+001 62740 70726,70648,70870
 5.0000e-001 70919 -1.1797e+002 -1.2901e+002  6.7849e+001 62740 70726,70870,70752
 5.0000e-001 71022 -5.7691e+000  5.7691e+000  2.3069e+002 62520 70944,70996,70970
 5.0000e-001 71223 -2.2195e+002 -1.0953e+002  1.5444e+002 62230 71073,71151,71099
 5.0000e-001 71200 -2.1640e+002 -9.7028e+001  1.6946e+002 62230 71047,71151,71073
 5.0000e-001 71177 -7.1281e+001 -1.7320e+002  1.3003e+002 62230 71099,71151,71125
 5.0000e-001 71861 -2.5523e+002 -2.7855e+002 -7.8037e-001 61712 71515,71697,71671
 5.0000e-001 71838 -2.8132e+002 -3.4407e+002  3.2450e+001 61712 71489,71697,71515
 5.0000e-001 71815 -3.9412e+002 -2.6636e+002  8.4850e+001 61712 71884,71541,71515
 5.0000e-001 71792 -3.0443e+002 -2.2476e+002  6.7651e+001 61712 71884,71515,71671
 5.0000e-001 71769 -1.1600e+002 -2.5661e+002  8.2316e+001 61712 71541,71619,71593
 5.0000e-001 71746 -1.8793e+002 -4.0879e+002 -1.6501e+001 61712 71619,71671,71645
 5.0000e-001 71723 -2.9701e+002 -3.8851e+002  2.0091e+002 61712 71541,71593,71567
 5.0000e-001 71910 -3.0986e+002 -3.0914e+002  1.1360e+002 61712 71619,71541,71884
 5.0000e-001 71933 -2.4511e+002 -2.8424e+002  1.0467e+002 61712 71619,71884,71671
 5.0000e-001 72230 -2.8030e+001 -1.5152e+001  7.6634e+000 61208 72253,72060,72008
 5.0000e-001 72207 -3.2204e+001 -2.0521e+001  5.5697e+000 61208 72253,72008,71982
 5.0000e-001 72184 -3.1777e+001 -2.6724e+001  6.1607e+000 61208 71982,72112,72086
 5.0000e-001 72161 -4.1967e+001 -2.3289e+001  4.1129e+000 61208 72008,72060,72034
 5.0000e-001 72138 -2.1855e+001 -9.5464e+000  1.0332e+001 61208 71956,72112,71982
 5.0000e-001 72279 -2.4082e+001 -1.9577e+001  1.0435e+001 61208 72086,72060,72253
 5.0000e-001 72302 -2.7177e+001 -2.2261e+001  9.0342e+000 61208 72086,72253,71982
 5.0000e-001 72761 -1.4598e+002 -1.1794e+002  7.3568e+001 60804 72487,72617,72513
 5.0000e-001 72738 -1.4666e+002 -1.6977e+002  6.9967e+001 60804 72487,72643,72617
 5.0000e-001 72715 -6.3846e+001 -8.5848e+001  6.6606e+001 60804 72565,72617,72591
 5.0000e-001 72692 -1.0186e+002 -9.1601e+001  6.1203e+001 60804 72513,72617,72565
 5.0000e-001 72669 -1.2472e+002 -1.2051e+002  1.1220e+002 60804 72513,72565,72539
 5.0000e-001 72911 -5.7691e+000  5.7691e+000  2.3069e+002 60556 72784,72836,72810
 5.0000e-001 72888  1.9497e+002 -2.7490e+001  1.3035e+002 60556 72784,72862,72836
 5.0000e-001 73468 -7.8562e+001 -1.2970e+002  6.3438e+001 60244 73491,73226,73200
 5.0000e-001 73445 -1.3441e+002 -1.8744e+002  1.0832e+002 60244 73563,73491,73200
 5.0000e-001 73422 -2.1571e+002 -1.7900e+002  1.2051e+002 60244 73563,73200,73174
 5.0000e-001 73399 -8.7955e+001 -2.2750e+002  7.6143e+001 60244 73226,73278,73252
 5.0000e-001 73376 -1.8193e+002 -1.4878e+002  8.3044e+001 60244 73122,73304,73278
 5.0000e-001 73353 -2.1003e+002 -2.5846e+002  8.4190e+001 60244 73096,73304,73122
 5.0000e-001 73330 -4.0347e+002 -2.1212e+002  2.3346e+002 60244 73122,73174,73148
 5.0000e-001 73517 -1.8408e+002 -1.8475e+002  9.6165e+001 60244 73278,73226,73491
 5.0000e-001 73540 -1.6142e+002 -1.2739e+002  9.3620e+001 60244 73278,73491,73122
 5.0000e-001 73589 -2.7171e+002 -1.8031e+002  1.0992e+002 60244 73122,73491,73563
 5.0000e-001 73612 -3.5118e+002 -1.7183e+002  1.2672e+002 60244 73122,73563,73174
 5.0000e-001 73762 -1.9414e+002 -4.6315e+002  9.9880e+001 59875 73661,73713,73687
 5.0000e-001 73739 -1.7014e+002 -1.0719e+002  1.3421e+002 59875 73635,73713,73661
 5.0000e-001 74191 -4.2199e+001 -9.9131e+001  1.3333e+002 59478 74214,73894,73868
 5.0000e-001 74168 -1.1014e+002 -8.0632e+001  1.4204e+002 59478 74214,73868,74050
 5.0000e-001 74145 -5.4460e+001 -8.1859e+001  6.7945e+001 59478 73894,73946,73920
 5.0000e-001 74122 -1.3457e+002 -1.0947e+002  9.2659e+001 59478 73894,73998,73946
 5.0000e-001 74099 -3.4883e+002 -2.0468e+002  2.6437e+002 59478 73998,74050,74024
 5.0000e-001 74076 -1.4896e+002 -3.3932e+001  7.0575e+001 59478 73946,73998,73972
 5.0000e-001 74240 -1.0307e+002 -8.6881e+001  1.1061e+002 59478 73998,73894,74214
 5.0000e-001 74263 -1.7340e+002 -7.6281e+001  1.0810e+002 59478 73998,74214,74050
 5.0000e-001 74720 -1.5491e+002 -2.0237e+002  6.7861e+001 58774 74472,74602,74498
 5.0000e-001 74697 -1.9703e+002 -1.9286e+002  7.8856e+001 58774 74446,74602,74472
 5.0000e-001 74674 -1.6247e+002 -1.5496e+002  7.6688e+001 58774 74498,74576,74524
 5.0000e-001 74651 -1.9290e+002 -2.0485e+002  4.2855e+001 58774 74498,74602,74576
 5.0000e-001 74628 -1.7095e+002 -2.1478e+002  9.3020e+001 58774 74524,74576,74550
 5.0000e-001 75226 -1.1230e+002 -4.4480e+001  5.0931e+001 58270 74955,75085,75033
 5.0000e-001 75203 -9.3106e+001 -7.4732e+001  5.9368e+001 58270 74929,75085,74955
 5.0000e-001 75180 -1.5128e+002 -5.7843e+001  8.2544e+001 58270 75033,75085,75059
 5.0000e-001 75157 -1.9816e+002 -6.4069e+001  5.0408e+001 58270 74955,75007,74981
 5.0000e-001 75134 -1.2152e+002 -4.6817e+001  3.7097e+001 58270 74955,75033,75007
 5.0000e-001 75111 -2.7768e+001 -8.3906e+001  2.6839e+001 58270 74903,75085,74929
 5.0000e-001 75425 -1.9908e+001 -1.2433e+001  9.3752e+000 57830 75448,75301,75249
 5.0000e-001 75402 -1.7704e+001 -2.1524e+001  1.2561e+001 57830 75448,75249,75353
 5.0000e-001 75379 -5.9192e+000 -1.6300e+001 -2.4798e-001 57830 75520,75301,75275
 5.0000e-001 75474 -1.8196e+001 -8.9866e+000  9.9413e+000 57830 75327,75301,75448
 5.0000e-001 75497 -1.2736e+001 -1.1590e+001  1.4270e+001 57830 75327,75448,75353
 5.0000e-001 75546 -1.0468e+001 -7.3121e+000  5.7598e-001 57830 75249,75301,75520
 5.0000e-001 76261 -7.3757e+001 -1.3662e+002  7.3673e+001 57426 76284,76097,76071
 5.0000e-001 76238 -6.0739e+001 -9.2535e+001  7.2932e+001 57426 75889,76097,75915
 5.0000e-001 76215 -1.0949e+002 -1.4495e+002  8.0313e+001 57426 76428,76284,76071
 5.0000e-001 76192 -8.2778e+001 -1.3319e+002  5.8304e+001 57426 76356,75941,75915
 5.0000e-001 76169 -1.1819e+002 -1.2184e+002  7.3477e+001 57426 76428,76071,76019
 5.0000e-001 76146 -1.1878e+002 -1.3706e+002  6.3557e+001 57426 76019,76071,76045
 5.0000e-001 76123 -9.2726e+001 -1.1567e+002  9.2321e+001 57426 75967,76019,75993
 5.0000e-001 76310 -7.4318e+001 -1.3430e+002  5.8118e+001 57426 75915,76097,76284
 5.0000e-001 76333 -8.5473e+001 -1.3870e+002  5.9456e+001 57426 76356,75915,76284
 5.0000e-001 76382 -8.9851e+001 -1.2628e+002  6.3823e+001 57426 75967,75941,76356
 5.0000e-001 76405 -9.1167e+001 -1.2973e+002  6.4129e+001 57426 75967,76356,76284
 5.0000e-001 76454 -8.7769e+001 -1.2668e+002  7.2237e+001 57426 75967,76284,76428
 5.0000e-001 76477 -1.1009e+002 -1.1619e+002  7.0684e+001 57426 75967,76428,76019
 5.0000e-001 76953 -1.5664e+002 -2.9316e+002  9.6164e+001 56908 76976,76711,76685
 5.0000e-001 76930 -1.6196e+002 -3.0226e+002  8.9577e+001 56908 77048,76976,76685
 5.0000e-001 76907 -2.4075e+002 -3.1909e+002  1.2731e+002 56908 77048,76685,76633
 5.0000e-001 76884 -3.2623e+002 -4.3291e+002  1.8306e+002 56908 76711,76789,76763
 5.0000e-001 76861 -1.9154e+002 -2.2029e+002  9.2341e+001 56908 76581,76789,76607
 5.0000e-001 76838 -2.9538e+002 -2.9000e+002  9.8198e+001 56908 76711,76763,76737
 5.0000e-001 76815 -4.1314e+002 -4.3758e+002  2.1502e+002 56908 76633,76685,76659
 5.0000e-001 77002 -1.4964e+002 -2.9617e+002  1.1238e+002 56908 76789,76711,76976
 5.0000e-001 77025 -1.7452e+002 -2.3809e+002  6.8363e+001 56908 76789,76976,76607
 5.0000e-001 77074 -2.8257e+002 -2.9582e+002  9.2864e+001 56908 76607,76976,77048
 5.0000e-001 77097 -3.2158e+002 -2.7659e+002  1.2549e+002 56908 76607,77048,76633
 5.0000e-001 77475 -1.4267e+002 -3.3322e+002  1.1874e+002 56546 77570,77498,77279
 5.0000e-001 77452 -1.6483e+002 -3.8937e+002  1.1425e+002 56546 77498,77227,77357
 5.0000e-001 77429 -1.6988e+002 -3.4559e+002  1.6883e+002 56546 77570,77279,77253
 5.0000e-001 77406 -1.9908e+002 -4.1321e+002  1.4384e+002 56546 77201,77357,77227
 5.0000e-001 77383 -1.9973e+002 -2.9241e+002  1.2032e+002 56546 77279,77331,77305
 5.0000e-001 77524 -1.6235e+002 -3.0823e+002  1.0186e+002 56546 77331,77279,77498
 5.0000e-001 77547 -1.4779e+002 -3.4662e+002  1.3127e+002 56546 77331,77498,77357
 5.0000e-001 77596 -2.2076e+002 -3.6777e+002  1.2915e+002 56546 77227,77498,77570
 5.0000e-001 77619 -2.2418e+002 -3.7909e+002  1.8361e+002 56546 77227,77570,77253
 5.0000e-001 77818 -2.1936e+002 -3.1924e+002  1.1454e+002 56042 77841,77694,77668
 5.0000e-001 77795 -2.1433e+002 -3.0571e+002  8.2827e+001 56042 77841,77668,77746
 5.0000e-001 77772 -1.9785e+002 -3.7030e+002  8.6336e+001 56042 77642,77746,77668
 5.0000e-001 77867 -2.3263e+002 -3.4491e+002  1.2123e+002 56042 77720,77694,77841
 5.0000e-001 77890 -2.2532e+002 -3.2779e+002  8.9070e+001 56042 77720,77841,77746
 5.0000e-001 78349 -2.8631e+001 -1.3121e+001  5.9389e+000 55538 78075,78127,78101
 5.0000e-001 78326 -3.7860e+001 -3.3775e+001  3.9552e+000 55538 78075,78205,78127
 5.0000e-001 78303 -5.8274e+001 -3.5095e+001  1.3270e+001 55538 78075,78231,78205
 5.0000e-001 78280 -4.6051e+001 -7.7041e+001  3.3227e+001 55538 78127,78179,78153
 5.0000e-001 78257 -4.2806e+001 -4.0389e+001  5.3314e-001 55538 78127,78205,78179
 5.0000e-001 78806 -1.1122e+002 -1.5716e+002  3.6449e+001 55034 78829,78636,78610
 5.0000e-001 78783 -1.2978e+002 -1.3803e+002  4.3934e+001 55034 78901,78829,78610
 5.0000e-001 78760 -7.8797e+001 -1.3007e+002  4.5749e+001 55034 78901,78610,78584
 5.0000e-001 78737 -1.3381e+002 -1.5467e+002  5.6155e+001 55034 78558,78688,78662
 5.0000e-001 78714 -1.2461e+002 -1.1664e+002  1.1314e+002 55034 78532,78688,78558
 5.0000e-001 78855 -1.3962e+002 -2.2032e+002  1.3048e+001 55034 78662,78636,78829
 5.0000e-001 78878 -1.3509e+002 -1.4846e+002  5.6705e+001 55034 78662,78829,78558
 5.0000e-001 78927 -9.5754e+001 -1.2607e+002  7.8709e+001 55034 78558,78829,78901
 5.0000e-001 78950 -8.2186e+001 -1.3371e+002  8.6133e+001 55034 78558,78901,78584
 5.0000e-001 79407 -8.7061e+001 -6.7666e+001  9.5420e+001 54430 79430,79237,79159
 5.0000e-001 79384 -1.1503e+002 -1.0409e+002  6.7152e+001 54430 79430,79159,79133
 5.0000e-001 79361 -1.0301e+002 -7.6874e+001  4.8667e+001 54430 79237,79289,79263
 5.0000e-001 79338 -1.3103e+002 -7.6615e+001  9.5182e+001 54430 79185,79237,79211
 5.0000e-001 79315 -1.7744e+002 -8.7293e+001  1.1129e+002 54430 79159,79237,79185
 5.0000e-001 79456 -8.6377e+001 -1.0937e+002  6.8509e+001 54430 79289,79237,79430
 5.0000e-001 79479 -1.0084e+002 -1.5029e+002  4.6709e+001 54430 79289,79430,79133
 5.0000e-001 79936 -8.5660e+001 -5.2574e+001  1.0547e+002 53919 79662,79766,79688
 5.0000e-001 79913 -2.6278e+002 -1.6477e+002  1.7436e+002 53919 79662,79818,79766
 5.0000e-001 79890 -2.5512e+002 -6.6955e+001  1.3306e+002 53919 79766,79818,79792
 5.0000e-001 79867 -1.7054e+002 -9.3584e+001  1.1173e+002 53919 79714,79766,79740
 5.0000e-001 79844 -1.8971e+002 -9.6983e+001  1.1348e+002 53919 79688,79766,79714
 5.0000e-001 80037 -2.9076e+001 -8.7723e+001  6.0822e+001 53671 79959,80011,79985
 5.0000e-001 80405 -7.5633e+001  1.4826e+001  6.0609e+000 53267 80108,80264,80238
 5.0000e-001 80382 -2.6856e+001 -6.5978e-001 -3.6632e-001 53267 80082,80264,80108
 5.0000e-001 80359  1.9389e+001  1.5288e+001  2.6308e+001 53267 80108,80238,80134
 5.0000e-001 80336  8.6108e-001 -7.5502e+000  1.9391e+001 53267 80134,80212,80186
 5.0000e-001 80313 -1.9782e+001 -8.4450e+000  1.4840e+001 53267 80134,80238,80212
 5.0000e-001 80290  4.2017e+000 -2.6816e+001  6.2028e+000 53267 80134,80186,80160
 5.0000e-001 80915 -2.3132e+001 -2.1300e+001 -8.7984e+000 52969 80644,80774,80748
 5.0000e-001 80892 -1.2161e+001 -2.5690e+001  1.4235e+000 52969 80618,80774,80644
 5.0000e-001 80869 -4.3414e+001 -1.5607e+001 -1.9329e+000 52969 80644,80748,80670
 5.0000e-001 80846 -1.1773e+000 -2.8165e+001 -5.4679e+000 52969 80592,80774,80618
 5.0000e-001 80823 -9.2339e+001 -5.9481e+001  3.2807e+001 52969 80670,80722,80696
 5.0000e-001 80800 -4.8617e+001 -4.0534e+001 -3.6227e-001 52969 80670,80748,80722
 5.0000e-001 81266 -5.2403e+001 -2.2692e+002  3.5947e+001 52565 81041,81145,81067
 5.0000e-001 81243 -1.3099e+002 -3.2336e+002  7.1193e+001 52565 81041,81171,81145
 5.0000e-001 81220 -2.2409e+002 -3.0836e+002  1.7057e+002 52565 81067,81119,81093
 5.0000e-001 81197 -7.2534e+001 -1.9787e+002  3.3338e+001 52565 81067,81145,81119
 5.0000e-001 81723 -1.3966e+002 -1.9819e+002  5.5933e+001 51904 81449,81527,81475
 5.0000e-001 81700 -1.3537e+002 -1.8176e+002  5.8823e+001 51904 81449,81579,81527
 5.0000e-001 81677 -1.7105e+002 -2.7349e+002  1.0170e+002 51904 81449,81605,81579
 5.0000e-001 81654 -8.2117e+001 -9.4081e+001  9.0925e+001 51904 81527,81579,81553
 5.0000e-001 81631 -2.0828e+002 -1.8204e+002  2.4008e+001 51904 81475,81527,81501
 5.0000e-001 82327 -1.7080e+002 -2.0363e+002  1.2744e+002 51321 82422,82350,82036
 5.0000e-001 82304 -1.6300e+002 -1.6130e+002  1.3153e+002 51321 82494,82350,81958
 5.0000e-001 82281 -1.7517e+002 -2.0740e+002  1.1938e+002 51321 82422,82036,82010
 5.0000e-001 82258 -1.5413e+002 -1.5000e+002  1.1717e+002 51321 82494,81958,81932
 5.0000e-001 82235 -1.6167e+002 -1.3425e+002  8.4604e+001 51321 82062,82114,82088
 5.0000e-001 82212 -3.6337e+002 -2.4645e+002  1.5785e+002 51321 81932,82140,82114
 5.0000e-001 82189 -1.8178e+002 -8.1112e+001  1.1776e+002 51321 81958,82010,81984
 5.0000e-001 82166 -1.9176e+002 -1.7494e+002  1.3178e+002 51321 81906,82140,81932
 5.0000e-001 82376 -1.6026e+002 -2.4036e+002  1.2886e+002 51321 82062,82036,82350
 5.0000e-001 82399 -1.5405e+002 -1.9503e+002  1.2187e+002 51321 82062,82350,82114
 5.0000e-001 82448 -1.6040e+002 -1.9691e+002  1.3250e+002 51321 81958,82350,82422
 5.0000e-001 82471 -1.6340e+002 -1.9996e+002  1.2456e+002 51321 81958,82422,82010
 5.0000e-001 82520 -1.6603e+002 -1.7574e+002  1.3596e+002 51321 82114,82350,82494
 5.0000e-001 82543 -1.6720e+002 -1.7233e+002  1.2415e+002 51321 82114,82494,81932
 5.0000e-001 83019 -1.6029e+002 -5.1740e+001  3.2158e+001 50817 82673,82751,82699
 5.0000e-001 82996 -1.9187e+002 -7.4050e+001  7.5996e+001 50817 83042,82673,82855
 5.0000e-001 82973 -1.8347e+002 -1.0754e+002  7.7677e+001 50817 83042,82855,82803
 5.0000e-001 82950 -2.5096e+002 -1.4205e+002  1.3053e+002 50817 82751,82803,82777
 5.0000e-001 82927 -1.9769e+002 -1.0860e+002  3.9542e+001 50817 82647,82855,82673
 5.0000e-001 82904 -2.4664e+002 -1.6926e+002  1.2469e+002 50817 82803,82855,82829
 5.0000e-001 82881 -1.8631e+002 -1.2375e+002  2.8708e+001 50817 82699,82751,82725
 5.0000e-001 83068 -1.9870e+002 -1.0016e+002  9.2882e+001 50817 82751,82673,83042
 5.0000e-001 83091 -1.8150e+002 -1.2769e+002  9.0238e+001 50817 82751,83042,82803
 5.0000e-001 83290 -2.0897e+002 -1.6156e+002  1.4067e+002 50356 83313,83166,83140
 5.0000e-001 83267 -2.4255e+002 -2.5791e+002  1.0797e+002 50356 83515,83313,83140
 5.0000e-001 83244 -2.7650e+002 -2.4432e+002  6.2957e+001 50356 83515,83140,83385
 5.0000e-001 83339 -2.3759e+002 -2.4005e+002  1.4600e+002 50356 83192,83166,83313
 5.0000e-001 83362 -1.8336e+002 -2.5534e+002  1.1203e+002 50356 83192,83313,83218
 5.0000e-001 83411 -1.0294e+002 -1.3886e+002  8.9781e+001 50356 83114,83218,83385
 5.0000e-001 83541 -1.6313e+002 -2.2636e+002  9.9243e+001 50356 83218,83313,83515
 5.0000e-001 83564 -1.7610e+002 -2.0190e+002  5.9173e+001 50356 83218,83515,83385
 5.0000e-001 83893 -5.1716e+001 -3.7072e+001  1.3751e+001 49552 83720,83798,83746
 5.0000e-001 83870 -4.8230e+001 -1.1732e+001  7.8324e+000 49552 83694,83798,83720
 5.0000e-001 83847 -1.5690e+001 -2.1269e+001  5.0668e+000 49552 83668,83798,83694
 5.0000e-001 83824 -8.5715e+001 -1.7462e+001  3.7705e+000 49552 83746,83798,83772
 5.0000e-001 84141 -2.2234e+002 -2.4504e+002  1.0633e+002 49212 84164,84020,83942
 5.0000e-001 84118 -2.3206e+002 -2.6479e+002  1.2091e+002 49212 84164,83942,83916
 5.0000e-001 84095 -1.4814e+002 -2.6278e+002  8.4715e+001 49212 83942,84020,83968
 5.0000e-001 84072 -1.6367e+002 -1.5992e+002  4.6116e+001 49212 83968,84020,83994
 5.0000e-001 84190 -2.3651e+002 -2.5724e+002  1.1649e+002 49212 84046,84020,84164
 5.0000e-001 84213 -2.3719e+002 -2.6762e+002  1.2990e+002 49212 84046,84164,83916
 5.0000e-001 84800 -1.1627e+002 -2.6631e+002  8.3407e+001 48865 84503,84633,84555
 5.0000e-001 84777 -1.9112e+002 -3.3459e+002  5.4753e+001 48865 84503,84659,84633
 5.0000e-001 84754 -2.0303e+002 -4.7522e+002  8.0507e+001 48865 84555,84633,84581
 5.0000e-001 84731 -1.1917e+002 -5.3451e+002  9.7464e+001 48865 84581,84633,84607
 5.0000e-001 84708 -2.9780e+002 -3.2938e+002  8.7285e+001 48865 84503,84555,84529
 5.0000e-001 84685 -1.8129e+002 -3.0222e+002  7.3358e+001 48865 84477,84659,84503
 5.0000e-001 85355 -1.0421e+002 -9.8585e+001  4.4823e+001 48461 85378,85035,85009
 5.0000e-001 85332 -1.3004e+002 -1.1305e+002  5.7123e+001 48461 85378,85009,85165
 5.0000e-001 85309 -1.1001e+002 -1.3236e+002  6.8821e+001 48461 85450,85061,85035
 5.0000e-001 85286 -1.8074e+002 -1.2644e+002  4.9423e+001 48461 85009,85191,85165
 5.0000e-001 85263 -1.1124e+002 -8.6194e+001  7.3317e+001 48461 85087,85165,85113
 5.0000e-001 85240 -9.1669e+001 -1.5396e+002 -7.7248e+000 48461 84983,85191,85009
 5.0000e-001 85217 -8.2928e+001 -9.6289e+001  3.4435e+001 48461 85113,85165,85139
 5.0000e-001 85404 -1.1669e+002 -1.0706e+002  5.8438e+001 48461 85450,85035,85378
 5.0000e-001 85427 -1.3633e+002 -1.1755e+002  5.5011e+001 48461 85087,85378,85165
 5.0000e-001 85476 -1.1866e+002 -1.6258e+002  6.9333e+001 48461 85087,85061,85450
 5.0000e-001 85499 -1.3127e+002 -1.4826e+002  5.6154e+001 48461 85087,85450,85378
 5.0000e-001 86084 -7.3091e+001 -1.4108e+002  5.0999e+001 48057 86323,86107,85787
 5.0000e-001 86061 -7.6260e+001 -1.7332e+002  7.2175e+001 48057 86107,85761,85943
 5.0000e-001 86038 -1.0860e+002 -1.1857e+002  6.9126e+001 48057 86251,86179,85891
 5.0000e-001 86015 -1.0887e+002 -9.0856e+001  4.4295e+001 48057 86251,85891,85839
 5.0000e-001 85992 -1.0789e+002 -1.1163e+002  8.1824e+001 48057 85891,85943,85917
 5.0000e-001 85969 -1.2437e+002 -7.6042e+001  5.5973e+001 48057 85839,85891,85865
 5.0000e-001 86133 -7.4035e+001 -1.4602e+002  5.3046e+001 48057 85813,85787,86107
 5.0000e-001 86156 -8.5058e+001 -1.4591e+002  5.3364e+001 48057 86179,85813,86107
 5.0000e-001 86205 -8.2455e+001 -9.9968e+001  7.7942e+001 48057 85943,85891,86179
 5.0000e-001 86228 -4.9524e+001 -1.0982e+002  7.2942e+001 48057 85943,86179,86107
 5.0000e-001 86277 -6.5111e+001 -8.9843e+001  5.5657e+001 48057 85813,86179,86251
 5.0000e-001 86300 -8.9721e+001 -7.3769e+001  3.5715e+001 48057 85813,86251,85839
 5.0000e-001 86349 -4.8232e+001 -1.3212e+002  5.3490e+001 48057 85761,86107,86323
 5.0000e-001 86855 -6.1181e+001 -1.9335e+002  9.1386e+001 47545 86878,86584,86558
 5.0000e-001 86832 -1.1706e+002 -2.1708e+002  8.7673e+001 47545 86950,86878,86558
 5.0000e-001 86809 -1.3839e+002 -2.2613e+002  8.3780e+001 47545 86950,86558,86532
 5.0000e-001 86786 -6.9473e+001 -1.6046e+002  9.1562e+001 47545 86584,86662,86610
 5.0000e-001 86763 -1.2167e+002 -2.3745e+002  5.7046e+001 47545 86532,86714,86688
 5.0000e-001 86740 -1.0545e+002 -8.4652e+001  9.4726e+001 47545 86610,86662,86636
 5.0000e-001 86904 -9.5388e+001 -2.0892e+002  6.7676e+001 47545 86662,86584,86878
 5.0000e-001 86927 -7.1993e+001 -2.0313e+002  7.1233e+001 47545 86662,86878,86688
 5.0000e-001 86976 -9.2850e+001 -2.3045e+002  6.1598e+001 47545 86688,86878,86950
 5.0000e-001 86999 -1.2284e+002 -2.4352e+002  5.9699e+001 47545 86688,86950,86532
 5.0000e-001 87328 -8.2934e+001 -5.6834e+001  3.8636e+001 47048 87155,87207,87181
 5.0000e-001 87305 -7.2418e+001 -5.4053e+001  3.7978e+001 47048 87129,87207,87155
 5.0000e-001 87282 -9.4123e+001 -6.6364e+001  4.2965e+001 47048 87103,87207,87129
 5.0000e-001 87259 -1.0793e+002 -1.0631e+002  6.0189e+001 47048 87103,87233,87207
 5.0000e-001 87576 -2.6014e+001 -3.9904e+001  3.1762e+001 46701 87599,87429,87377
 5.0000e-001 87553 -4.1970e+001 -2.0765e+001  2.0050e+001 46701 87599,87377,87481
 5.0000e-001 87530 -8.5077e+000 -1.4213e+001 -5.8045e+000 46701 87351,87481,87377
 5.0000e-001 87507  9.2257e+000 -8.6821e+000  1.1845e+001 46701 87377,87429,87403
 5.0000e-001 87625 -3.5885e+001 -7.1850e+001  3.0775e+001 46701 87455,87429,87599
 5.0000e-001 87648 -4.1895e+001 -3.9748e+001  1.6244e+001 46701 87455,87599,87481
 5.0000e-001 87798  2.5735e+001  2.2868e+000  2.4146e+001 46239 87697,87749,87723
 5.0000e-001 87775  1.6422e+001  4.4410e+000  1.4162e+001 46239 87671,87749,87697
 5.0000e-001 88308 -2.2509e+002 -1.9594e+002  7.1181e+001 45735 88089,88167,88141
 5.0000e-001 88285 -1.6972e+002 -1.2272e+002  9.7730e+001 45735 88011,88167,88089
 5.0000e-001 88262 -2.2214e+002 -1.3371e+002  1.1637e+002 45735 87985,88167,88011
 5.0000e-001 88239 -2.8547e+002 -3.7251e+002  1.5671e+002 45735 88011,88089,88063
 5.0000e-001 88216 -1.8873e+002 -1.8275e+002  5.2054e+001 45735 88089,88141,88115
 5.0000e-001 88193 -2.1640e+002 -2.3909e+002  1.8330e+002 45735 88011,88063,88037
 5.0000e-001 88686 -1.8629e+002 -1.9989e+002  1.0209e+002 45316 88438,88516,88490
 5.0000e-001 88663 -1.4809e+002 -1.2928e+002  8.5099e+001 45316 88438,88542,88516
 5.0000e-001 88640 -1.1815e+002 -2.8311e+002  1.0820e+002 45316 88438,88568,88542
 5.0000e-001 88617 -3.2298e+002 -2.7213e+002  6.2159e+001 45316 88438,88490,88464
 5.0000e-001 88594 -5.6657e+001 -2.5818e+002  1.1472e+002 45316 88412,88568,88438
 5.0000e-001 88934 -3.0827e+002 -3.4973e+002  1.7717e+002 44812 88957,88735,88709
 5.0000e-001 88911 -2.0390e+002 -2.5004e+002  9.1111e+001 44812 88957,88709,88839
 5.0000e-001 88888 -2.0450e+002 -2.3499e+002  6.5225e+001 44812 89029,88787,88761
 5.0000e-001 88865 -2.0181e+002 -1.9237e+002  8.6994e+001 44812 88787,88839,88813
 5.0000e-001 88983 -1.1327e+002 -2.4974e+002  1.3338e+002 44812 88761,88735,88957
 5.0000e-001 89006 -1.8006e+002 -2.4432e+002  6.2311e+001 44812 89029,88761,88957
 5.0000e-001 89055 -2.1247e+002 -2.4467e+002  6.9056e+001 44812 88839,88787,89029
 5.0000e-001 89078 -2.0391e+002 -2.6927e+002  7.2258e+001 44812 88839,89029,88957
 5.0000e-001 89228 -3.1002e+002 -7.8063e+002 -4.0420e+001 44408 89127,89179,89153
 5.0000e-001 89205 -2.8440e+002 -7.6790e+002  1.8602e+001 44408 89101,89179,89127
 5.0000e-001 89787 -1.5054e+002 -1.5320e+002  9.6189e+001 43854 89810,89545,89519
 5.0000e-001 89764 -1.6229e+002 -1.9284e+002  1.1571e+002 43854 89810,89519,89467
 5.0000e-001 89741 -1.8434e+002 -2.4469e+002  1.0058e+002 43854 89954,89882,89597
 5.0000e-001 89718 -1.8818e+002 -2.4612e+002  1.0443e+002 43854 89954,89597,89571
 5.0000e-001 89695 -1.0423e+002 -1.9193e+002  9.8140e+001 43854 89415,89623,89467
 5.0000e-001 89672 -8.5463e+001 -1.1750e+002  8.5227e+001 43854 89467,89519,89493
 5.0000e-001 89649 -1.0169e+002 -1.4834e+002  9.8682e+001 43854 89415,89467,89441
 5.0000e-001 89836 -1.9048e+002 -1.7472e+002  1.0977e+002 43854 89882,89545,89810
 5.0000e-001 89859 -1.0503e+002 -1.8747e+002  9.6586e+001 43854 89623,89810,89467
 5.0000e-001 89908 -1.8456e+002 -3.0966e+002  1.4055e+002 43854 89623,89597,89882
 5.0000e-001 89931 -1.5339e+002 -2.6619e+002  1.1701e+002 43854 89623,89882,89810
 5.0000e-001 89980 -1.9897e+002 -2.4661e+002  1.2747e+002 43854 89545,89882,89954
 5.0000e-001 90003 -2.1527e+002 -2.6928e+002  1.3497e+002 43854 89545,89954,89571
 5.0000e-001 90251 -5.4438e+001 -1.0895e+002  3.2723e+001 43492 90026,90078,90052
 5.0000e-001 90228 -1.9482e+002 -1.9745e+002  1.0323e+002 43492 90274,90026,90156
 5.0000e-001 90205 -1.7596e+002 -2.2503e+002  1.0379e+002 43492 90346,90274,90156
 5.0000e-001 90182 -1.7412e+002 -2.5469e+002  1.6378e+002 43492 90346,90156,90130
 5.0000e-001 90300 -1.4704e+002 -2.3357e+002  1.2217e+002 43492 90078,90026,90274
 5.0000e-001 90323 -2.0372e+002 -2.7451e+002  9.9346e+001 43492 90078,90274,90104
 5.0000e-001 90372 -2.5527e+002 -2.7095e+002  1.2843e+002 43492 90104,90274,90346
 5.0000e-001 90395 -2.5176e+002 -3.0311e+002  1.8924e+002 43492 90104,90346,90130
 5.0000e-001 90594 -1.3335e+001 -5.9922e+001  3.0944e+001 43052 90418,90496,90444
 5.0000e-001 90571  3.1497e+001  3.1537e-001  7.9081e+000 43052 90418,90522,90496
 5.0000e-001 90548 -4.3736e+001 -5.1722e+001  3.5071e+001 43052 90444,90496,90470
 5.0000e-001 91074 -2.8214e+002 -2.0010e+002  2.0056e+002 42434 91241,90884,90858
 5.0000e-001 91051 -1.2237e+002 -1.6507e+002  2.7120e+001 42434 90702,90910,90884
 5.0000e-001 91028 -2.5454e+001 -3.0308e+001  5.4972e+001 42434 91097,90754,90702
 5.0000e-001 91005 -2.1430e+002 -1.1105e+002  1.7030e+002 42434 91241,90858,91097
 5.0000e-001 90982 -8.6463e+001 -1.2673e+002  5.8402e+001 42434 91169,90806,90780
 5.0000e-001 90959 -7.3969e+001 -7.2833e+001  3.3972e+001 42434 90806,90858,90832
 5.0000e-001 90936 -4.0468e+001 -5.3697e+001  4.6758e+001 42434 90702,90754,90728
 5.0000e-001 91123 -2.0477e+002 -1.6138e+002  1.6738e+002 42434 90780,90754,91097
 5.0000e-001 91146 -1.4745e+002 -1.9528e+002  1.5286e+002 42434 91169,90780,91097
 5.0000e-001 91195 -5.8752e+001 -7.4711e+001  4.1918e+001 42434 90858,90806,91169
 5.0000e-001 91218 -5.8390e+001 -9.2082e+000  1.2479e+002 42434 90858,91169,91097
 5.0000e-001 91267 -1.5510e+002 -3.0062e+002  1.3165e+002 42434 90702,90884,91241
 5.0000e-001 91290 -9.6844e+001 -2.2819e+002  1.0601e+002 42434 90702,91241,91097
 5.0000e-001 91698 -7.0761e+001 -1.9869e+002  6.3560e+001 41773 91473,91577,91499
 5.0000e-001 91675 -8.6840e+001 -2.3586e+002  9.7287e+001 41773 91473,91603,91577
 5.0000e-001 91652 -1.3387e+002 -1.6999e+002  3.0517e+001 41773 91499,91551,91525
 5.0000e-001 91629 -1.4241e+002 -1.8242e+002  6.5673e+001 41773 91499,91577,91551
 5.0000e-001 92044 -1.5977e+002 -2.1488e+002  1.0282e+002 41383 91773,91877,91851
 5.0000e-001 92021 -1.3796e+002 -2.5388e+002  5.3373e+001 41383 91747,91877,91773
 5.0000e-001 91998 -1.4108e+002 -1.6641e+002  7.8910e+001 41383 91773,91851,91799
 5.0000e-001 91975 -1.0007e+002 -2.5394e+002  6.2514e+001 41383 91747,91903,91877
 5.0000e-001 91952 -4.9540e+001 -2.4048e+002  5.6320e+001 41383 91721,91903,91747
 5.0000e-001 91929 -3.5079e+001 -1.5579e+002  5.6391e+001 41383 91799,91851,91825
 5.0000e-001 92601 -1.4011e+002 -1.6249e+002  5.6919e+001 40979 92229,92411,92307
 5.0000e-001 92578 -1.5183e+002 -1.7491e+002  6.3044e+001 40979 92229,92437,92411
 5.0000e-001 92555 -1.3234e+002 -1.1973e+002  6.4226e+001 40979 92229,92307,92281
 5.0000e-001 92532 -8.7142e+001 -1.1644e+002  5.7082e+001 40979 92333,92411,92385
 5.0000e-001 92509 -7.8520e+001 -1.2522e+002  7.3145e+001 40979 92307,92411,92333
 5.0000e-001 92486 -1.7524e+002 -1.6629e+002  3.4366e+001 40979 92229,92281,92255
 5.0000e-001 92463 -4.1790e+000 -1.1453e+002  3.3442e+001 40979 92333,92385,92359
 5.0000e-001 93235 -1.2513e+002 -9.7293e+001  1.0656e+002 40525 92941,92993,92967
 5.0000e-001 93212 -1.8197e+002 -2.8965e+001  6.3329e+001 40525 93258,92941,92889
 5.0000e-001 93189 -1.5663e+002 -1.2911e+001  5.3451e+001 40525 93258,92889,93071
 5.0000e-001 93166 -1.5507e+002 -9.5476e+001  5.6291e+001 40525 92889,92941,92915
 5.0000e-001 93143 -1.0808e+002 -4.8299e+001  4.6468e+001 40525 92863,93071,92889
 5.0000e-001 93120 -1.3506e+002 -5.8858e+001  4.7525e+001 40525 92993,93071,93019
 5.0000e-001 93097 -1.3701e+002 -9.6912e+001  5.9524e+001 40525 93019,93071,93045
 5.0000e-001 93284 -1.9282e+002 -5.6685e+001  9.2945e+001 40525 92993,92941,93258
 5.0000e-001 93307 -1.4247e+002 -2.2284e+001  7.7446e+001 40525 92993,93258,93071
 5.0000e-001 93636 -2.3895e+002 -2.1880e+002  1.4818e+002 40235 93437,93541,93515
 5.0000e-001 93613 -1.7037e+002 -2.5652e+002  1.2996e+002 40235 93411,93541,93437
 5.0000e-001 93590 -9.2516e+001 -2.0714e+002  8.2205e+001 40235 93463,93515,93489
 5.0000e-001 93567 -1.4512e+002 -1.6170e+002  6.9511e+001 40235 93437,93515,93463
 5.0000e-001 94014 -2.4168e+002 -3.2684e+002  8.7310e+001 39873 93766,93870,93792
 5.0000e-001 93991 -2.2352e+002 -3.2137e+002  8.7705e+001 39873 93766,93896,93870
 5.0000e-001 93968 -1.8476e+002 -2.5777e+002  1.1218e+002 39873 93792,93870,93844
 5.0000e-001 93945 -1.6512e+002 -2.3481e+002  9.1005e+001 39873 93792,93844,93818
 5.0000e-001 93922 -1.6460e+002 -2.7803e+002  1.4968e+002 39873 93740,93896,93766
 5.0000e-001 94164  1.2078e+001 -6.4152e+000  1.2095e+001 39461 94037,94089,94063
 5.0000e-001 94141 -1.4290e+001  1.3321e+001  9.7719e+000 39461 94037,94115,94089
 5.0000e-001 94363 -1.2062e+002 -1.3633e+002  7.6737e+001 39057 94386,94239,94213
 5.0000e-001 94340 -8.6669e+001 -1.1972e+002  7.1003e+001 39057 94386,94213,94187
 5.0000e-001 94317 -1.5232e+002 -1.9398e+002  9.7265e+001 39057 94187,94291,94265
 5.0000e-001 94412 -7.2200e+001 -1.2701e+002  7.1991e+001 39057 94458,94386,94265
 5.0000e-001 94435 -9.4423e+001 -1.3653e+002  7.4151e+001 39057 94265,94386,94187
 5.0000e-001 94484 -1.0430e+002 -1.4428e+002  8.6990e+001 39057 94239,94386,94458
 5.0000e-001 94896 -2.4655e+002 -1.4953e+002  9.8211e+001 38396 94919,94775,94723
 5.0000e-001 94873 -2.5349e+002 -1.5849e+002  9.4808e+001 38396 94919,94723,94697
 5.0000e-001 94850 -1.7421e+002 -1.2121e+002  7.0282e+001 38396 94723,94775,94749
 5.0000e-001 94827 -1.1680e+002 -1.3347e+002  7.4508e+001 38396 94671,94801,94697
 5.0000e-001 94945 -2.3730e+002 -1.5773e+002  1.0229e+002 38396 94801,94775,94919
 5.0000e-001 94968 -2.4283e+002 -1.6604e+002  9.9747e+001 38396 94801,94919,94697
 5.0000e-001 95265 -2.0275e+002 -1.9244e+002  7.0132e+001 37835 95017,95069,95043
 5.0000e-001 95242 -2.0832e+002 -1.9413e+002  7.2933e+001 37835 95288,95069,95017
 5.0000e-001 95219 -1.9255e+002 -2.1488e+002  1.1733e+002 37835 95288,95017,94991
 5.0000e-001 95196 -2.1247e+002 -2.5879e+002  1.2117e+002 37835 94991,95147,95121
 5.0000e-001 95173 -1.5304e+002 -9.9155e+001  8.8729e+001 37835 95069,95121,95095
 5.0000e-001 95314 -1.8897e+002 -1.3348e+002  7.1071e+001 37835 95121,95069,95288
 5.0000e-001 95337 -1.8048e+002 -1.7294e+002  1.1146e+002 37835 95121,95288,94991
 5.0000e-001 95558 -7.2111e+001 -1.9388e+002  4.3019e+001 37423 95408,95460,95434
 5.0000e-001 95535 -1.0856e+002 -3.6227e+002  1.2755e+002 37423 95382,95460,95408
 5.0000e-001 95512 -1.7842e+002 -4.1373e+002  1.5017e+002 37423 95382,95486,95460
 5.0000e-001 95891 -9.1741e+001 -2.1928e+002  1.1608e+002 37225 95666,95718,95692
 5.0000e-001 95868 -1.5310e+002 -2.1454e+002  1.3817e+002 37225 95666,95796,95718
 5.0000e-001 95845 -8.1013e+001 -1.6461e+002  3.9819e+001 37225 95718,95770,95744
 5.0000e-001 95822 -1.0253e+002 -1.2988e+002  8.2984e+001 37225 95718,95796,95770
 5.0000e-001 95992 -9.1779e+001 -2.3843e+002  4.7942e+001 36735 95914,95966,95940
 5.0000e-001 96142 -2.2539e+002 -1.8441e+002  1.2966e+002 36331 96297,96067,96041
 5.0000e-001 96119 -1.8631e+002 -1.4172e+002  1.5029e+002 36331 96165,96041,96015
 5.0000e-001 96191 -2.2098e+002 -1.8103e+002  1.3456e+002 36331 96297,96041,96165
 5.0000e-001 96323 -2.3138e+002 -1.7806e+002  1.4209e+002 36331 96093,96067,96297
 5.0000e-001 96346 -2.1501e+002 -1.6923e+002  1.4817e+002 36331 96093,96297,96165
 5.0000e-001 96714 -1.7996e+002 -2.9882e+002  1.4119e+002 36041 96737,96495,96443
 5.0000e-001 96691 -2.2949e+002 -2.5154e+002  1.4863e+002 36041 96737,96443,96417
 5.0000e-001 96668 -1.6188e+002 -2.9692e+002  1.1884e+002 36041 96443,96495,96469
 5.0000e-001 96645 -8.0388e+001 -1.5042e+002  8.7339e+001 36041 96391,96521,96417
 5.0000e-001 96622 -6.6552e+001 -1.6943e+002  8.1969e+001 36041 96391,96547,96521
 5.0000e-001 96599 -3.2754e+001 -1.5599e+002  7.9334e+001 36041 96391,96573,96547
 5.0000e-001 96763 -1.0722e+002 -2.5418e+002  1.2131e+002 36041 96521,96495,96737
 5.0000e-001 96786 -2.0106e+002 -2.4199e+002  1.3903e+002 36041 96521,96737,96417
 5.0000e-001 96936 -1.3153e+002 -7.4968e+001  9.8132e+001 35637 97031,96959,96835
 5.0000e-001 96913 -1.7303e+002 -9.8102e+001  8.7803e+001 35637 97163,96959,96809
 5.0000e-001 96985 -1.5185e+002 -7.4451e+001  1.0310e+002 35637 96861,96835,96959
 5.0000e-001 97008 -1.6640e+002 -9.6164e+001  1.2093e+002 35637 96861,96959,96887
 5.0000e-001 97057 -1.6070e+002 -6.8130e+001  8.8886e+001 35637 96809,96959,97031
 5.0000e-001 97189 -1.2909e+002 -7.4175e+001  9.9841e+001 35637 96887,96959,97163
 5.0000e-001 97597 -7.0313e+001 -8.7619e+001  7.9632e+001 35190 97450,97502,97476
 5.0000e-001 97574 -7.5959e+001 -1.2814e+002  1.0728e+002 35190 97372,97502,97450
 5.0000e-001 97551 -6.3236e+001 -1.2917e+002  8.6987e+001 35190 97372,97450,97398
 5.0000e-001 97528 -6.8719e+001 -1.2433e+002  7.7610e+001 35190 97398,97450,97424
 5.0000e-001 98054 -1.4447e+002 -1.9007e+002  1.1205e+002 34636 97806,97936,97858
 5.0000e-001 98031 -2.1293e+002 -1.5885e+002  1.0204e+002 34636 97780,97936,97806
 5.0000e-001 98008 -2.1794e+002 -2.0343e+002  8.7239e+001 34636 97806,97858,97832
 5.0000e-001 97985 -1.4965e+002 -2.0860e+002  1.3873e+002 34636 97884,97936,97910
 5.0000e-001 97962 -1.1545e+002 -1.4044e+002  9.8651e+001 34636 97858,97936,97884
 5.0000e-001 98530 -1.0225e+002  3.6584e+001  4.8115e+001 34068 98697,98184,98366
 5.0000e-001 98507  8.4395e-001  4.7024e+000  2.2018e+000 34068 98158,98366,98184
 5.0000e-001 98484 -1.5513e+002 -8.8501e+001  7.8794e+001 34068 98553,98262,98236
 5.0000e-001 98461 -1.7688e+002 -7.6930e+001  9.6888e+001 34068 98553,98236,98210
 5.0000e-001 98438 -1.4574e+002 -4.9695e+001  5.6169e+001 34068 98841,98625,98366
 5.0000e-001 98415 -1.6677e+002 -2.1288e+002  1.1955e+002 34068 98769,98288,98262
 5.0000e-001 98392 -1.9678e+002 -2.2908e+001  5.9395e+001 34068 98841,98366,98340
 5.0000e-001 98579 -1.8705e+002 -1.3876e+002  1.0047e+002 34068 98769,98262,98553
 5.0000e-001 98602 -1.5174e+002 -5.4254e+001  6.4879e+001 34068 98625,98314,98553
 5.0000e-001 98651 -1.3395e+002 -3.7131e+001  3.9763e+001 34068 98697,98366,98625
 5.0000e-001 98674 -1.6156e+002 -7.8085e+001  4.4304e+001 34068 98210,98625,98553
 5.0000e-001 98723 -1.1620e+002 -5.6183e+001  4.8278e+001 34068 98210,98184,98697
 5.0000e-001 98746 -1.0716e+002 -6.2290e+001  5.5919e+001 34068 98210,98697,98625
 5.0000e-001 98795 -1.2497e+002 -1.3696e+002  6.8995e+001 34068 98314,98288,98769
 5.0000e-001 98818 -1.6059e+002 -8.6940e+001  4.9419e+001 34068 98314,98769,98553
 5.0000e-001 98867 -2.0107e+002 -6.6881e+001  4.3403e+001 34068 98314,98625,98841
 5.0000e-001 98890 -2.5368e+002 -3.9877e+001  4.9457e+001 34068 98314,98841,98340
 5.0000e-001 99268 -2.1148e+002 -1.5928e+002  1.2539e+002 33450 99291,99098,99072
 5.0000e-001 99245 -2.3718e+002 -1.3838e+002  8.4631e+001 33450 99291,99072,99020
 5.0000e-001 99222 -3.2705e+002 -1.7069e+002  1.2454e+002 33450 99020,99072,99046
 5.0000e-001 99199 -1.8666e+002 -1.4547e+002  7.1298e+001 33450 99020,99150,99124
 5.0000e-001 99176 -1.8859e+002 -1.1241e+002  2.8618e+001 33450 98994,99150,99020
 5.0000e-001 99317 -1.3404e+002 -1.3418e+002  1.3123e+002 33450 99124,99098,99291
 5.0000e-001 99340 -2.0743e+002 -1.4037e+002  9.4340e+001 33450 99124,99291,99020
 5.0000e-001 99865 -1.6494e+002 -1.4624e+002  9.5342e+001 32944 100176,99960,99888
 5.0000e-001 99842 -1.9382e+002 -1.4285e+002  9.5850e+001 32944 100104,99888,99522
 5.0000e-001 99819 -1.3945e+002 -1.2860e+002  9.6496e+001 32944 100248,99960,99626
 5.0000e-001 99796 -1.8789e+002 -1.7374e+002  7.7500e+001 32944 100032,99652,99626
 5.0000e-001 99773 -1.7512e+002 -1.3613e+002  8.0079e+001 32944 100104,99522,99496
 5.0000e-001 99750 -1.0939e+002 -1.2797e+002  1.2144e+001 32944 99574,99626,99600
 5.0000e-001 99727 -9.9911e+001 -1.3947e+002  1.0775e+002 32944 100248,99626,99574
 5.0000e-001 99704 -1.4465e+002 -1.2927e+002  7.5352e+001 32944 99444,99496,99470
 5.0000e-001 99914 -1.8269e+002 -1.4709e+002  8.6413e+001 32944 100176,99888,100032
 5.0000e-001 99937 -1.8421e+002 -1.3393e+002  8.8695e+001 32944 99678,99888,99444
 5.0000e-001 99986 -1.8652e+002 -1.2497e+002  9.7356e+001 32944 99522,99888,99960
 5.0000e-001 100009 -1.7795e+002 -1.0655e+002  1.0981e+002 32944 99522,99960,99548
 5.0000e-001 100058 -1.8151e+002 -1.9929e+002  6.4354e+001 32944 99678,99652,100032
 5.0000e-001 100081 -2.0216e+002 -1.7379e+002  6.6082e+001 32944 99678,100032,99888
 5.0000e-001 100130 -1.6043e+002 -1.3866e+002  8.7680e+001 32944 99444,99888,100104
 5.0000e-001 100153 -1.5013e+002 -1.4260e+002  7.4662e+001 32944 99444,100104,99496
 5.0000e-001 100202 -1.8216e+002 -1.6099e+002  8.0141e+001 32944 99626,99960,100176
 5.0000e-001 100225 -1.8844e+002 -1.6075e+002  7.0732e+001 32944 99626,100176,100032
 5.0000e-001 100274 -1.9223e+002 -1.3829e+002  9.5691e+001 32944 99548,99960,100248
 5.0000e-001 100297 -1.5690e+002 -1.5208e+002  1.0717e+002 32944 99548,100248,99574
 5.0000e-001 100754 -1.0788e+002 -1.1191e+002  4.4295e+001 32369 100777,100584,100506
 5.0000e-001 100731 -8.9913e+001 -1.5607e+002  9.0584e+001 32369 100777,100506,100636
 5.0000e-001 100708 -1.5841e+002 -1.6001e+002  9.8829e+001 32369 100480,100636,100506
 5.0000e-001 100685 -2.0525e+002 -1.5961e+002  4.3932e+001 32369 100532,100584,100558
 5.0000e-001 100662 -1.1481e+002 -1.2888e+002  4.5377e+001 32369 100506,100584,100532
 5.0000e-001 100803 -1.0369e+002 -4.1775e+001  4.6064e+001 32369 100610,100584,100777
 5.0000e-001 100826 -8.5835e+001 -9.3774e+001  8.5398e+001 32369 100610,100777,100636
 5.0000e-001 101025 -1.3695e+002 -1.4323e+002  1.2896e+002 31857 100875,100927,100901
 5.0000e-001 101002 -2.6011e+002 -1.5593e+002  1.1503e+002 31857 100875,100953,100927
 5.0000e-001 100979 -2.7169e+002 -1.5960e+002  8.9099e+001 31857 100849,100953,100875
 5.0000e-001 101533 -1.1499e+002 -1.3238e+002  1.0416e+002 31253 101556,101314,101236
 5.0000e-001 101510 -1.7251e+002 -1.6475e+002  1.1720e+002 31253 101556,101236,101210
 5.0000e-001 101487 -1.8731e+002 -1.4216e+002  5.6912e+001 31253 101210,101392,101340
 5.0000e-001 101464 -7.9112e+001 -1.2526e+002  7.0364e+001 31253 101236,101288,101262
 5.0000e-001 101441 -9.3732e+001 -1.8097e+002  8.3939e+001 31253 101236,101314,101288
 5.0000e-001 101418 -1.6564e+002 -9.0653e+001  5.8433e+001 31253 101340,101392,101366
 5.0000e-001 101582 -1.3122e+002 -9.1179e+001  4.9001e+001 31253 101340,101314,101556
 5.0000e-001 101605 -1.9142e+002 -1.2661e+002  6.4226e+001 31253 101340,101556,101210
 5.0000e-001 101755  2.5831e+001  4.0761e+001  6.0536e+001 30519 101778,101654,101628
 5.0000e-001 101732 -4.8196e+001  9.3627e+001  1.0005e+001 30519 101850,101778,101628
 5.0000e-001 101804 -4.0705e+001 -7.1195e+001  2.8987e+001 30519 101680,101654,101778
 5.0000e-001 101827 -6.0958e+001  3.0699e+001  1.8392e+001 30519 101680,101778,101706
 5.0000e-001 101876 -9.0285e+001 -3.6262e+000  5.3575e+000 30519 101706,101778,101850
 5.0000e-001 102561 -1.4245e+002 -1.9835e+002  8.3886e+001 29951 102656,102584,102270
 5.0000e-001 102538 -2.5199e+002 -3.5414e+002  8.1021e+001 29951 102584,102140,102374
 5.0000e-001 102515 -1.8923e+002 -3.2536e+002  1.3918e+002 29951 102728,102656,102270
 5.0000e-001 102492 -1.8280e+002 -3.7252e+002  1.3310e+002 29951 102728,102270,102244
 5.0000e-001 102469 -2.1108e+002 -3.6877e+001  9.1188e+001 29951 102800,102322,102296
 5.0000e-001 102446 -2.4314e+002 -2.2294e+002  4.5643e+001 29951 102166,102218,102192
 5.0000e-001 102423 -1.8907e+002 -2.0879e+002  4.3455e+001 29951 102166,102244,102218
 5.0000e-001 102400 -1.4235e+002 -1.5921e+002  7.8132e+001 29951 102322,102374,102348
 5.0000e-001 102610 -2.5606e+002 -1.4293e+002  6.3645e+001 29951 102296,102270,102584
 5.0000e-001 102633 -2.6513e+002 -1.4835e+002  7.2884e+001 29951 102800,102296,102584
 5.0000e-001 102682 -2.6124e+002 -2.9236e+002  1.4488e+002 29951 102140,102584,102656
 5.0000e-001 102705 -2.0308e+002 -3.2696e+002  1.8049e+002 29951 102140,102656,102166
 5.0000e-001 102754 -1.7635e+002 -2.6810e+002  1.6072e+002 29951 102166,102656,102728
 5.0000e-001 102777 -1.7837e+002 -3.1350e+002  1.4449e+002 29951 102166,102728,102244
 5.0000e-001 102826 -1.6813e+002 -1.6343e+002  1.4406e+002 29951 102374,102322,102800
 5.0000e-001 102849 -1.8121e+002 -2.0374e+002  1.4253e+002 29951 102374,102800,102584
 5.0000e-001 103048 -1.9470e+001 -7.1960e+001  3.8438e+001 29454 102872,102924,102898
 5.0000e-001 103025 -4.7302e+001 -5.1476e+001  4.2299e+001 29454 102872,102976,102924
 5.0000e-001 103002 -4.7817e+001 -1.0139e+002  5.4467e+001 29454 102924,102976,102950
 5.0000e-001 103296 -2.4167e+002 -1.6453e+002  1.2510e+002 29064 103319,103175,103123
 5.0000e-001 103273 -2.6123e+002 -1.6755e+002  1.2815e+002 29064 103319,103123,103071
 5.0000e-001 103250 -1.5464e+002 -1.1846e+002  1.0807e+002 29064 103123,103175,103149
 5.0000e-001 103227 -2.0935e+002 -1.2242e+002  1.4983e+002 29064 103071,103123,103097
 5.0000e-001 103345 -2.1953e+002 -1.7179e+002  1.1336e+002 29064 103201,103175,103319
 5.0000e-001 103368 -2.5051e+002 -1.7782e+002  1.0862e+002 29064 103201,103319,103071
 5.0000e-001 104006 -2.2069e+002 -1.2098e+002  8.9800e+001 28603 104101,104029,103712
 5.0000e-001 103983 -2.1578e+002 -8.6580e+001  8.0008e+001 28603 104173,104029,103660
 5.0000e-001 103960 -2.6937e+002 -9.9906e+001  8.8484e+001 28603 104101,103712,103686
 5.0000e-001 103937 -1.9565e+002 -1.2199e+002  6.8314e+001 28603 104173,103660,103634
 5.0000e-001 103914 -2.0253e+002 -1.5696e+002  1.0435e+002 28603 103764,103816,103790
 5.0000e-001 103891 -1.8306e+002 -1.3780e+002  1.2452e+002 28603 103634,103842,103816
 5.0000e-001 103868 -1.4717e+002 -7.1360e+001  1.0363e+002 28603 103712,103764,103738
 5.0000e-001 104055 -2.0228e+002 -9.2564e+001  8.1107e+001 28603 103764,103712,104029
 5.0000e-001 104078 -2.0398e+002 -1.1000e+002  1.1090e+002 28603 103764,104029,103816
 5.0000e-001 104127 -2.8698e+002 -1.1414e+002  7.3654e+001 28603 103660,104029,104101
 5.0000e-001 104150 -3.6125e+002 -1.1115e+002  8.6156e+001 28603 103660,104101,103686
 5.0000e-001 104199 -2.3296e+002 -1.2420e+002  8.8126e+001 28603 103816,104029,104173
 5.0000e-001 104222 -2.0625e+002 -1.4857e+002  7.7197e+001 28603 103816,104173,103634
 5.0000e-001 104600 -7.1960e+001 -1.5419e+002  3.8642e+001 28348 104623,104378,104326
 5.0000e-001 104577 -5.5139e+001 -1.6031e+002  5.7834e+001 28348 104623,104326,104482
 5.0000e-001 104554 -7.7149e+001 -1.2867e+002  3.9541e+001 28348 104326,104378,104352
 5.0000e-001 104531 -7.9618e+001 -7.8466e-001  9.1292e+000 28348 104404,104456,104430
 5.0000e-001 104508 -1.0092e+002 -9.2600e+001  6.1824e+001 28348 104378,104456,104404
 5.0000e-001 104649 -6.1035e+001 -1.3830e+002  5.0976e+001 28348 104456,104378,104623
 5.0000e-001 104672 -3.8965e+001 -1.4015e+002  7.0739e+001 28348 104456,104623,104482
 5.0000e-001 104991 -2.0609e+002 -2.4128e+002  1.4791e+002 27951 104717,104847,104769
 5.0000e-001 104968 -7.6402e+001 -1.7988e+002  1.3024e+002 27951 104717,104873,104847
 5.0000e-001 104945 -8.9675e+001 -2.1651e+002  1.5104e+002 27951 104769,104847,104795
 5.0000e-001 104922 -1.7160e+001 -3.6782e+001  1.4969e+002 27951 104795,104847,104821
 5.0000e-001 104899 -1.6688e+002 -1.5162e+002  1.4199e+002 27951 104717,104769,104743
 5.0000e-001 105371 -1.7527e+002 -8.6021e+001  1.0840e+002 27447 105394,105201,105123
 5.0000e-001 105348 -1.6501e+002 -8.7164e+001  9.9480e+001 27447 105394,105123,105097
 5.0000e-001 105325 -3.0221e+002 -1.2460e+002  1.2411e+002 27447 105123,105201,105149
 5.0000e-001 105302 -2.0510e+002 -1.1503e+002  9.6286e+001 27447 105201,105253,105227
 5.0000e-001 105279 -1.6716e+002 -2.0663e+002  3.3470e+001 27447 105149,105201,105175
 5.0000e-001 105420 -1.8150e+002 -9.0999e+001  1.1239e+002 27447 105253,105201,105394
 5.0000e-001 105443 -1.7236e+002 -9.5970e+001  1.0430e+002 27447 105253,105394,105097
 5.0000e-001 105998 -1.7603e+002 -1.4940e+002  1.3113e+002 27100 106165,106021,105704
 5.0000e-001 105975 -1.0426e+002 -9.2063e+001  1.1424e+002 27100 106309,106021,105652
 5.0000e-001 105952 -3.3374e+002 -2.4871e+002  2.1951e+002 27100 106093,105808,105782
 5.0000e-001 105929 -1.7779e+002 -1.5175e+002  1.3210e+002 27100 106165,105704,105678
 5.0000e-001 105906 -1.1966e+002 -1.3752e+002  1.0819e+002 27100 106237,105730,105704
 5.0000e-001 105883 -9.7146e+001 -1.4633e+002  7.5351e+001 27100 106309,105652,105626
 5.0000e-001 105860 -1.0612e+002  7.9274e-001  4.0292e+001 27100 105730,105782,105756
 5.0000e-001 106047 -1.6051e+002 -9.9409e+001  1.2921e+002 27100 106237,105704,106021
 5.0000e-001 106070 -1.9558e+002 -1.3491e+002  1.6102e+002 27100 106093,105782,106021
 5.0000e-001 106119 -1.4283e+002 -1.8887e+002  1.1855e+002 27100 105834,105808,106093
 5.0000e-001 106142 -1.5114e+002 -2.4296e+002  1.4007e+002 27100 106381,106093,106021
 5.0000e-001 106191 -1.7908e+002 -1.4317e+002  1.3747e+002 27100 105652,106021,106165
 5.0000e-001 106214 -1.8571e+002 -1.5415e+002  1.4023e+002 27100 105652,106165,105678
 5.0000e-001 106263 -7.9636e+001 -9.6733e+001  8.9986e+001 27100 105782,105730,106237
 5.0000e-001 106286 -1.2943e+002 -7.0245e+001  1.1432e+002 27100 105782,106237,106021
 5.0000e-001 106335 -1.3701e+002 -1.7459e+002  1.1882e+002 27100 106381,106021,106309
 5.0000e-001 106358 -1.0371e+002 -1.5178e+002  7.7712e+001 27100 105834,106309,105626
 5.0000e-001 106407 -1.1496e+002 -1.6171e+002  9.5893e+001 27100 105834,106093,106381
 5.0000e-001 106430 -1.1870e+002 -1.4573e+002  7.1014e+001 27100 105834,106381,106309
 5.0000e-001 106629 -2.5972e+001 -1.4101e+002  2.6875e+001 26688 106479,106557,106531
 5.0000e-001 106606 -1.7827e+001 -6.8145e+001  3.8334e+001 26688 106453,106557,106479
 5.0000e-001 106583 -6.1789e+001 -1.4866e+002  1.1213e+001 26688 106479,106531,106505
 5.0000e-001 107088 -9.4653e+001 -9.2963e+001  5.3256e+001 26248 107111,106918,106866
 5.0000e-001 107065 -1.0048e+002 -8.1249e+001  6.2161e+001 26248 107111,106866,106840
 5.0000e-001 107042 -8.9486e+001 -7.7290e+001  5.4117e+001 26248 106814,106970,106840
 5.0000e-001 107019 -9.1649e+001 -1.2822e+002  6.3523e+001 26248 106866,106918,106892
 5.0000e-001 106996 -1.8556e+002 -1.5796e+002  6.1723e+001 26248 106918,106970,106944
 5.0000e-001 107137 -1.0942e+002 -1.0812e+002  3.9929e+001 26248 106970,106918,107111
 5.0000e-001 107160 -1.0355e+002 -8.4064e+001  5.0266e+001 26248 106970,107111,106840
 5.0000e-001 107666 -2.3443e+002 -1.5022e+002  7.0471e+001 25908 107369,107499,107395
 5.0000e-001 107643 -3.1446e+002 -3.2424e+002  1.3230e+002 25908 107369,107525,107499
 5.0000e-001 107620 -2.1430e+002 -1.5528e+002  1.0619e+002 25908 107395,107473,107447
 5.0000e-001 107597 -1.7557e+002 -1.2179e+002  9.1737e+001 25908 107395,107499,107473
 5.0000e-001 107574 -3.1500e+002 -1.7567e+002  2.1762e+002 25908 107395,107447,107421
 5.0000e-001 107551 -1.6647e+002 -2.5280e+002  1.6429e+002 25908 107343,107525,107369
 5.0000e-001 108251 -2.0074e+002 -9.1253e+001  1.1868e+002 25454 108274,108006,107954
 5.0000e-001 108228 -1.6249e+002 -5.4172e+001  9.1204e+001 25454 108274,107954,108110
 5.0000e-001 108205 -1.4982e+002 -1.7118e+002  1.3485e+002 25454 108346,108032,108006
 5.0000e-001 108182 -2.4536e+002 -1.1166e+002  1.5129e+002 25454 107954,108006,107980
 5.0000e-001 108159 -9.0777e+001 -1.0629e+002  8.1099e+001 25454 107928,108110,107954
 5.0000e-001 108136 -2.6443e+002 -2.7780e+002  1.4472e+002 25454 108058,108110,108084
 5.0000e-001 108300 -1.9097e+002 -1.3005e+002  1.3813e+002 25454 108346,108006,108274
 5.0000e-001 108323 -1.7657e+002 -9.7731e+001  1.0216e+002 25454 108058,108274,108110
 5.0000e-001 108372 -9.6669e+001 -1.2312e+002  1.1474e+002 25454 108058,108032,108346
 5.0000e-001 108395 -1.4296e+002 -7.7672e+001  1.1734e+002 25454 108058,108346,108274
 5.0000e-001 108822 -1.3882e+002 -7.0563e+001  7.4165e+001 24943 108525,108681,108655
 5.0000e-001 108799 -1.8109e+002 -9.7775e+001  3.7594e+001 24943 108499,108681,108525
 5.0000e-001 108776 -1.0849e+002 -5.8523e+001  5.6247e+001 24943 108525,108655,108629
 5.0000e-001 108753 -1.5881e+002 -6.8939e+001  6.1648e+001 24943 108525,108629,108603
 5.0000e-001 108730 -1.7124e+002 -9.7948e+001  9.0014e+001 24943 108551,108603,108577
 5.0000e-001 108707 -2.0817e+002 -1.1549e+002  9.6850e+001 24943 108525,108603,108551
 5.0000e-001 109407  8.4477e+000 -2.9315e+001  2.7152e+001 24745 109162,109214,109188
 5.0000e-001 109384 -6.8069e+001 -4.4342e+001  2.8473e+001 24745 109162,109266,109214
 5.0000e-001 109361 -7.8420e+001 -2.7232e+001  1.2226e+001 24745 109084,109266,109162
 5.0000e-001 109338 -1.0395e+002 -1.8784e+001  2.3519e+001 24745 109084,109162,109136
 5.0000e-001 109315 -2.6472e+001 -5.7096e+001  2.6763e+001 24745 109214,109266,109240
 5.0000e-001 109292 -6.9387e+001 -2.6068e+001  4.1752e+001 24745 109084,109136,109110
 5.0000e-001 109785 -2.7248e+002 -1.8644e+002  1.4981e+002 24341 109537,109615,109563
 5.0000e-001 109762 -6.2067e+001 -1.4409e+002  1.3967e+002 24341 109537,109641,109615
 5.0000e-001 109739 -1.7463e+002 -1.7185e+002  1.2488e+002 24341 109563,109615,109589
 5.0000e-001 109716 -1.3759e+002 -1.8555e+002  9.7716e+001 24341 109537,109667,109641
 5.0000e-001 109693 -5.7133e+001 -1.7207e+002  1.0123e+002 24341 109511,109667,109537
 5.0000e-001 110163 -2.3865e+002 -1.4696e+002  1.5681e+002 23837 110186,109967,109915
 5.0000e-001 110140 -2.2560e+002 -1.4323e+002  1.5766e+002 23837 110186,109915,109889
 5.0000e-001 110117 -1.1739e+002 -6.6209e+001  1.2566e+002 23837 109889,110045,109993
 5.0000e-001 110094 -2.2276e+002 -2.1605e+002  1.1330e+002 23837 109915,109967,109941
 5.0000e-001 110071 -1.5194e+002 -5.6906e+000  2.5734e+001 23837 109993,110045,110019
 5.0000e-001 110212 -2.3184e+002 -1.4487e+002  1.6205e+002 23837 109993,109967,110186
 5.0000e-001 110235 -2.2757e+002 -1.4456e+002  1.6392e+002 23837 109993,110186,109889
 5.0000e-001 110336 -1.5514e+002 -3.5376e+002  1.7497e+002 23433 110258,110310,110284
 5.0000e-001 110584 -2.2672e+002 -1.3181e+002  1.0661e+002 22829 110607,110411,110385
 5.0000e-001 110561 -2.4395e+002 -1.3794e+002  9.7714e+001 22829 110607,110385,110489
 5.0000e-001 110538 -2.3922e+002 -1.2494e+002  8.4181e+001 22829 110437,110489,110463
 5.0000e-001 110515 -1.6154e+002 -8.0322e+001  1.3038e+002 22829 110359,110489,110385
 5.0000e-001 110633 -2.3561e+002 -1.4291e+002  9.6008e+001 22829 110437,110411,110607
 5.0000e-001 110656 -2.4433e+002 -1.4240e+002  8.7831e+001 22829 110437,110607,110489
 5.0000e-001 110906 -3.4148e+002 -1.4522e+002  8.5057e+001 22432 110707,110759,110733
 5.0000e-001 110883 -2.6434e+002 -1.5055e+002  7.1490e+001 22432 110707,110785,110759
 5.0000e-001 110860 -2.2605e+002 -1.1829e+002  1.3543e+002 22432 110707,110811,110785
 5.0000e-001 110837 -2.8143e+002 -1.9175e+002  1.1048e+002 22432 110681,110811,110707
 5.0000e-001 111288 -1.0314e+001 -6.0267e+001  7.1413e+001 22142 111092,111144,111118
 5.0000e-001 111265 -9.6007e+001 -6.8184e+001  6.5058e+001 22142 111066,111144,111092
 5.0000e-001 111242 -7.6440e+001 -2.1686e+001  6.5055e+001 22142 111040,111144,111066
 5.0000e-001 111219 -1.4424e+002 -1.8077e+001  4.8771e+001 22142 111014,111144,111040
 5.0000e-001 111196 -7.3193e+001  1.8596e+001  3.5262e+001 22142 111014,111170,111144
 5.0000e-001 111389 -9.6466e+000 -3.8463e+001  7.3931e+001 21830 111311,111363,111337
 5.0000e-001 111735 -1.9388e+002  1.1476e+001  1.8182e+002 21268 111758,111542,111438
 5.0000e-001 111712 -1.4773e+002  2.2564e+001  1.1373e+002 21268 111758,111438,111412
 5.0000e-001 111689 -5.0752e+001 -1.0266e+002  2.1122e+002 21268 111438,111542,111464
 5.0000e-001 111666  5.7205e+001 -5.3098e+001  2.5904e+002 21268 111464,111542,111490
 5.0000e-001 111643 -3.5075e+002 -2.0649e+002  1.8411e+002 21268 111412,111594,111568
 5.0000e-001 111620  2.1503e+002  1.0873e+002  3.2854e+002 21268 111490,111542,111516
 5.0000e-001 111784 -1.9911e+002 -3.3337e+001  1.7461e+002 21268 111568,111542,111758
 5.0000e-001 111807 -1.9909e+002 -1.1889e+002  1.2758e+002 21268 111568,111758,111412
 5.0000e-001 111959 -2.2642e+002 -1.8284e+001  7.0752e+001 20864 111982,111910,111884
 5.0000e-001 111936 -1.9892e+002 -6.0291e+000  1.0300e+002 20864 112114,111832,111910
 5.0000e-001 112008 -2.1454e+002 -4.3736e+001  8.7860e+001 20864 112114,111910,111982
 5.0000e-001 112140 -1.9456e+002 -5.0086e+001  7.9446e+001 20864 111858,111832,112114
 5.0000e-001 112163 -2.1261e+002 -9.5011e+001  6.5366e+001 20864 111858,112114,111982
 5.0000e-001 112411 -4.0662e+001  2.5116e+001  1.0883e+001 20324 112186,112290,112212
 5.0000e-001 112388 -1.3158e+001  4.0598e+001  4.3108e+000 20324 112186,112316,112290
 5.0000e-001 112365  1.0155e+002 -8.0509e+001 -1.3850e+000 20324 112212,112290,112264
 5.0000e-001 112342 -4.4389e+002 -1.9014e+002 -2.7460e+001 20324 112212,112264,112238
 5.0000e-001 112659 -7.6633e+001 -3.0680e+001  1.1802e+002 19920 112512,112564,112538
 5.0000e-001 112636 -1.1014e+002 -7.1927e+001  1.0357e+002 19920 112434,112564,112512
 5.0000e-001 112613 -1.1062e+002 -6.5496e+001  9.9906e+001 19920 112434,112512,112460
 5.0000e-001 112590 -1.0735e+002 -7.3741e+001  9.9996e+001 19920 112460,112512,112486
 5.0000e-001 112811 -1.1241e+002 -4.6795e+001  9.4261e+001 19630 112684,112736,112710
 5.0000e-001 112788 -3.2494e+001 -4.0604e+001  5.4398e+001 19630 112684,112762,112736
 5.0000e-001 113012 -1.3414e+002 -5.4904e+001  1.2890e+002 19169 112862,112940,112888
 5.0000e-001 112989 -2.0675e+002 -1.4687e+002  9.6172e+001 19169 112836,112940,112862
 5.0000e-001 112966 -1.4955e+002 -1.9343e+002  1.1770e+002 19169 112888,112940,112914
 5.0000e-001 113213 -2.8765e+002 -1.1984e+002  1.4834e+002 18600 113037,113089,113063
 5.0000e-001 113190 -2.9667e+002 -1.0616e+002  1.4746e+002 18600 113037,113115,113089
 5.0000e-001 113167 -3.1008e+002 -1.6867e+002  2.0043e+002 18600 113037,113141,113115
 5.0000e-001 113485 -1.0145e+002 -4.0098e+001  1.4742e+002 18352 113260,113312,113286
 5.0000e-001 113462 -2.2642e+002 -1.1631e+002  1.8118e+002 18352 113260,113390,113312
 5.0000e-001 113439 -2.3164e+002 -7.7600e+001  1.4976e+002 18352 113312,113390,113364
 5.0000e-001 113416 -1.7315e+002 -7.0641e+001  1.5133e+002 18352 113312,113364,113338
 5.0000e-001 113757 -1.9594e+002 -8.1058e+001  1.3703e+002 17834 113558,113610,113584
 5.0000e-001 113734 -2.5557e+002 -1.4151e+002  1.6853e+002 17834 113532,113610,113558
 5.0000e-001 113711 -2.6599e+002 -1.7412e+002  1.4113e+002 17834 113532,113662,113610
 5.0000e-001 113688 -1.3523e+002 -5.2237e+001  1.9176e+002 17834 113610,113662,113636
 5.0000e-001 113958 -1.6223e+002 -6.8056e+001  9.7447e+001 17330 113782,113834,113808
 5.0000e-001 113935 -9.3093e+001 -7.0128e+001  7.5144e+001 17330 113782,113886,113834
 5.0000e-001 113912 -1.1621e+002 -5.4610e+001  4.6857e+001 17330 113834,113886,113860
 5.0000e-001 114110 -2.7238e+002 -1.1197e+002  1.7465e+002 16874 113983,114035,114009
 5.0000e-001 114087 -1.0071e+002 -2.3507e+002  1.3702e+002 16874 113983,114061,114035
 5.0000e-001 114465 -2.1128e+002 -9.0044e+001  5.7233e+001 16270 114240,114292,114266
 5.0000e-001 114442 -1.9806e+002 -6.1532e+001  4.1977e+001 16270 114240,114370,114292
 5.0000e-001 114419 -1.1966e+002 -5.0545e+001  6.9419e+001 16270 114292,114344,114318
 5.0000e-001 114396 -2.1955e+002 -1.0286e+002  3.3358e+001 16270 114292,114370,114344
 5.0000e-001 114566 -5.7691e+000  5.7691e+000  2.3069e+002 15834 114488,114540,114514
 5.0000e-001 114667 -1.5442e+002 -6.4556e+001  1.0231e+002 15155 114589,114641,114615
 5.0000e-001 114890 -1.7221e+002 -7.2017e+001  1.0720e+002 421 114766,114818,114792
 5.0000e-001 114867 -2.2265e+002 -1.6853e+002  8.8746e+001 421 114714,114818,114766
 5.0000e-001 114844 -2.5722e+002 -1.0988e+002  4.8195e+001 421 114714,114766,114740
 6.0000e-001 66553 -2.6758e+002 -1.1870e+002  1.4097e+002 66108 66354,66458,66432
 6.0000e-001 66530 -2.6862e+002 -1.1409e+002  9.3642e+001 66108 66328,66458,66354
 6.0000e-001 66507 -1.3913e+002 -8.8025e+001  8.2646e+001 66108 66354,66432,66406
 6.0000e-001 66484  8.0136e+001  3.8181e+001  1.5769e+002 66108 66354,66406,66380
 6.0000e-001 66951 -2.0212e+002 -8.5912e+001  6.8898e+001 65910 66703,66833,66807
 6.0000e-001 66928 -2.6416e+001 -7.8860e+001  1.1262e+002 65910 66677,66833,66703
 6.0000e-001 66905 -8.1987e+001 -1.3304e+002  1.0402e+002 65910 66729,66781,66755
 6.0000e-001 66882 -2.3438e+002 -9.8841e+001  1.0201e+002 65910 66729,66807,66781
 6.0000e-001 66859 -1.9524e+002 -3.3412e+001  8.3470e+001 65910 66703,66807,66729
 6.0000e-001 67150 -2.4641e+002 -1.0314e+002  1.2780e+002 65712 67026,67078,67052
 6.0000e-001 67127 -2.6314e+002 -4.2589e+001  1.0521e+002 65712 66974,67078,67026
 6.0000e-001 67104 -9.5061e+002 -4.9545e+002  3.8296e+002 65712 66974,67026,67000
 6.0000e-001 67481 -4.1142e+002 -1.1841e+002  1.7281e+002 65422 67282,67360,67334
 6.0000e-001 67458 -2.0632e+002 -7.9382e+001  2.4069e+002 65422 67282,67386,67360
 6.0000e-001 67435 -1.0082e+002  3.8751e+001  1.1910e+002 65422 67282,67334,67308
 6.0000e-001 67412 -9.2125e+001 -8.4910e+001  1.5982e+002 65422 67256,67386,67282
 6.0000e-001 68115 -1.2802e+002 -1.5318e+002  8.0767e+001 65018 67795,67925,67873
 6.0000e-001 68092 -1.5283e+002 -1.6428e+002  5.3721e+001 65018 67769,67925,67795
 6.0000e-001 68069 -1.1575e+002 -8.2056e+001  8.9543e+001 65018 67873,67925,67899
 6.0000e-001 68046 -2.1017e+002 -2.1233e+002  7.4395e+001 65018 67769,67951,67925
 6.0000e-001 68023 -1.8943e+002 -2.1029e+002  1.0955e+002 65018 67795,67873,67821
 6.0000e-001 68000 -2.0542e+002 -1.8523e+002  7.7234e+001 65018 67821,67873,67847
 6.0000e-001 67977 -2.2627e+002 -1.6305e+002  1.2727e+002 65018 67743,67951,67769
 6.0000e-001 68363 -9.7773e+001 -2.1804e+002  2.0180e+002 64820 68190,68242,68216
 6.0000e-001 68340 -1.8549e+002 -1.4314e+002  2.1095e+002 64820 68190,68268,68242
 6.0000e-001 68317 -1.0283e+002 -1.0405e+002  2.3287e+002 64820 68164,68268,68190
 6.0000e-001 68294 -4.1243e+002 -1.7164e+002  1.8088e+002 64820 68138,68268,68164
 6.0000e-001 68513 -1.6214e+002 -1.1122e+002  1.3468e+002 64366 68868,68536,68438
 6.0000e-001 68490 -1.0432e+002 -1.0067e+002  7.5095e+001 64366 68536,68412,68386
 6.0000e-001 68562 -2.7010e+002 -1.8904e+002  1.4649e+002 64366 68740,68536,68464
 6.0000e-001 68585 -1.4466e+002 -1.3298e+002  9.2074e+001 64366 68608,68536,68386
 6.0000e-001 68634 -2.1957e+002 -2.8448e+002  6.7709e+001 64366 68464,68536,68608
 6.0000e-001 68766 -1.3605e+002 -9.4970e+001  1.0492e+002 64366 68438,68536,68740
 6.0000e-001 68894 -1.6132e+002 -1.1679e+002  1.3506e+002 64366 68412,68536,68868
 6.0000e-001 69172  6.9218e+001 -2.1309e+002  6.9861e+001 64168 69022,69074,69048
 6.0000e-001 69149 -8.5581e+001 -3.4954e+001  1.0590e+002 64168 68996,69074,69022
 6.0000e-001 69126 -1.4878e+002 -1.6732e+002  4.9457e+001 64168 68996,69100,69074
 6.0000e-001 69371 -1.9213e+002 -9.3256e+001  1.5233e+002 63970 69466,69394,69273
 6.0000e-001 69348 -1.2744e+002 -1.0643e+002  8.1981e+001 63970 69394,69247,69221
 6.0000e-001 69325 -3.6831e+002 -1.5567e+002  1.1841e+002 63970 69195,69299,69221
 6.0000e-001 69420 -2.6334e+002 -1.4710e+002  1.8398e+002 63970 69299,69273,69394
 6.0000e-001 69443 -1.9082e+002 -1.6159e+002  1.2555e+002 63970 69299,69394,69221
 6.0000e-001 69492 -2.2449e+002 -1.4600e+002  1.3864e+002 63970 69247,69394,69466
 6.0000e-001 69904 -1.9859e+001 -6.5205e+001  2.7532e+001 63680 69705,69783,69731
 6.0000e-001 69881  4.0298e+000 -5.3446e+001  2.3547e+001 63680 69679,69783,69705
 6.0000e-001 69858 -5.9118e+001 -1.3441e+002  5.3607e+001 63680 69679,69809,69783
 6.0000e-001 69835 -4.2843e+001 -4.7724e+001  3.1202e+001 63680 69731,69783,69757
 6.0000e-001 70054 -6.3483e+000 -1.1697e+002  6.8959e+001 63476 70077,69953,69927
 6.0000e-001 70031  3.1938e+001 -5.0661e+001  1.0103e+002 63476 70077,69927,70005
 6.0000e-001 70103 -6.0076e+001 -7.1761e+001  4.0845e+001 63476 69979,69953,70077
 6.0000e-001 70126 -2.9226e+001 -1.1819e+001  6.7779e+001 63476 69979,70077,70005
 6.0000e-001 70325 -3.3432e+002 -1.3401e+002  1.9563e+002 63278 70149,70227,70175
 6.0000e-001 70302 -1.3140e+002 -4.9673e+001  2.0759e+002 63278 70149,70253,70227
 6.0000e-001 70279 -4.0984e+002 -1.1850e+002  1.0447e+002 63278 70175,70227,70201
 6.0000e-001 70597 -1.5913e+002 -8.2127e+000  8.5435e+001 63080 70372,70476,70424
 6.0000e-001 70574 -7.7296e+001 -3.1257e+001  1.0981e+002 63080 70372,70502,70476
 6.0000e-001 70551 -2.3310e+002 -9.7204e+001  1.3176e+002 63080 70424,70476,70450
 6.0000e-001 70528 -3.0161e+002 -9.8531e+001  2.0112e+002 63080 70372,70424,70398
 6.0000e-001 70847  5.6891e-001 -1.4653e+002  4.1570e+001 62740 70870,70648,70622
 6.0000e-001 70824 -9.3676e+001 -9.9792e+001  8.6059e+001 62740 70870,70622,70752
 6.0000e-001 70801 -2.6757e+001 -2.4144e+002  8.7098e+001 62740 70648,70726,70700
 6.0000e-001 70778 -1.1740e+001 -2.5261e+002  7.5759e+001 62740 70648,70700,70674
 6.0000e-001 70896 -9.1361e+001 -1.9999e+002  1.9738e+001 62740 70726,70648,70870
 6.0000e-001 70919 -1.3087e+002 -1.2037e+002  7.7905e+001 62740 70726,70870,70752
 6.0000e-001 71022 -8.3069e+000  8.3069e+000  2.7678e+002 62520 70944,70996,70970
 6.0000e-001 71223 -2.7477e+002 -1.5615e+002  1.8252e+002 62230 71073,71151,71099
 6.0000e-001 71200 -2.6034e+002 -1.3722e+002  2.0137e+002 62230 71047,71151,71073
 6.0000e-001 71177 -1.3352e+002 -2.4201e+002  1.5032e+002 62230 71099,71151,71125
 6.0000e-001 71861 -2.3655e+002 -2.6509e+002  3.4925e+001 61712 71515,71697,71671
 6.0000e-001 71838 -2.4027e+002 -2.7282e+002  2.5319e+001 61712 71489,71697,71515
 6.0000e-001 71815 -4.4653e+002 -2.8410e+002  1.1435e+002 61712 71884,71541,71515
 6.0000e-001 71792 -3.3103e+002 -2.3323e+002  9.3882e+001 61712 71884,71515,71671
 6.0000e-001 71769 -1.3030e+002 -3.0066e+002  9.1409e+001 61712 71541,71619,71593
 6.0000e-001 71746 -1.7119e+002 -4.0071e+002  7.2373e+000 61712 71619,71671,71645
 6.0000e-001 71723 -3.7806e+002 -4.7859e+002  2.5452e+002 61712 71541,71593,71567
 6.0000e-001 71910 -3.3879e+002 -3.3683e+002  1.5264e+002 61712 71619,71541,71884
 6.0000e-001 71933 -2.5552e+002 -3.0698e+002  1.4260e+002 61712 71619,71884,71671
 6.0000e-001 72230 -4.5022e+001 -5.3678e+000  5.7646e+000 61208 72253,72060,72008
 6.0000e-001 72207 -5.6059e+001 -2.4546e+001  1.2844e+000 61208 72253,72008,71982
 6.0000e-001 72184 -4.7521e+001 -4.4251e+001  4.3752e-001 61208 71982,72112,72086
 6.0000e-001 72161 -6.0270e+001  3.3534e+000  2.2454e+001 61208 72008,72060,72034
 6.0000e-001 72138 -2.3124e+001 -2.5299e+001  1.2317e+001 61208 71956,72112,71982
 6.0000e-001 72279 -3.6339e+001 -2.0424e+001  1.4971e+001 61208 72086,72060,72253
 6.0000e-001 72302 -4.2946e+001 -3.0642e+001  1.2116e+001 61208 72086,72253,71982
 6.0000e-001 72761 -1.6697e+002 -1.3070e+002  7.8425e+001 60804 72487,72617,72513
 6.0000e-001 72738 -1.8227e+002 -2.1308e+002  8.0856e+001 60804 72487,72643,72617
 6.0000e-001 72715 -7.1952e+001 -8.8732e+001  8.5873e+001 60804 72565,72617,72591
 6.0000e-001 72692 -1.1905e+002 -1.1012e+002  7.4546e+001 60804 72513,72617,72565
 6.0000e-001 72669 -1.3572e+002 -1.1683e+002  1.3621e+002 60804 72513,72565,72539
 6.0000e-001 72911 -8.3069e+000  8.3069e+000  2.7678e+002 60556 72784,72836,72810
 6.0000e-001 72888  2.1184e+002 -4.4835e+001  1.6846e+002 60556 72784,72862,72836
 6.0000e-001 73468 -9.1254e+001 -1.4190e+002  7.7467e+001 60244 73491,73226,73200
 6.0000e-001 73445 -1.5477e+002 -2.0914e+002  1.2684e+002 60244 73563,73491,73200
 6.0000e-001 73422 -2.4796e+002 -2.0202e+002  1.4093e+002 60244 73563,73200,73174
 6.0000e-001 73399 -1.0554e+002 -2.4412e+002  8.9295e+001 60244 73226,73278,73252
 6.0000e-001 73376 -1.9761e+002 -1.5304e+002  9.2418e+001 60244 73122,73304,73278
 6.0000e-001 73353 -2.2928e+002 -2.4935e+002  8.8424e+001 60244 73096,73304,73122
 6.0000e-001 73330 -4.6721e+002 -2.3309e+002  2.6994e+002 60244 73122,73174,73148
 6.0000e-001 73517 -2.1397e+002 -2.0436e+002  1.1214e+002 60244 73278,73226,73491
 6.0000e-001 73540 -1.8472e+002 -1.2791e+002  1.0588e+002 60244 73278,73491,73122
 6.0000e-001 73589 -3.1491e+002 -1.9540e+002  1.2997e+002 60244 73122,73491,73563
 6.0000e-001 73612 -4.0694e+002 -1.8906e+002  1.4939e+002 60244 73122,73563,73174
 6.0000e-001 73762 -2.2778e+002 -5.3937e+002  1.4226e+002 59875 73661,73713,73687
 6.0000e-001 73739 -2.4762e+002 -1.9804e+002  1.5818e+002 59875 73635,73713,73661
 6.0000e-001 74191 -5.1287e+001 -1.2013e+002  1.6201e+002 59478 74214,73894,73868
 6.0000e-001 74168 -1.3348e+002 -1.0854e+002  1.7422e+002 59478 74214,73868,74050
 6.0000e-001 74145 -4.6864e+001 -7.7602e+001  8.3970e+001 59478 73894,73946,73920
 6.0000e-001 74122 -1.4594e+002 -1.1695e+002  1.1472e+002 59478 73894,73998,73946
 6.0000e-001 74099 -4.1413e+002 -2.4991e+002  3.0795e+002 59478 73998,74050,74024
 6.0000e-001 74076 -1.6807e+002 -1.9816e+001  8.2249e+001 59478 73946,73998,73972
 6.0000e-001 74240 -1.2637e+002 -9.8291e+001  1.3336e+002 59478 73998,73894,74214
 6.0000e-001 74263 -2.0834e+002 -9.2344e+001  1.3228e+002 59478 73998,74214,74050
 6.0000e-001 74720 -1.8285e+002 -2.2077e+002  6.8129e+001 58774 74472,74602,74498
 6.0000e-001 74697 -2.1980e+002 -2.1522e+002  7.5872e+001 58774 74446,74602,74472
 6.0000e-001 74674 -1.8599e+002 -1.6993e+002  8.1155e+001 58774 74498,74576,74524
 6.0000e-001 74651 -2.1871e+002 -2.2436e+002  4.4466e+001 58774 74498,74602,74576
 6.0000e-001 74628 -1.8870e+002 -2.2105e+002  1.0108e+002 58774 74524,74576,74550
 6.0000e-001 75226 -1.3201e+002 -4.5707e+001  6.1468e+001 58270 74955,75085,75033
 6.0000e-001 75203 -1.1998e+002 -8.5982e+001  6.7014e+001 58270 74929,75085,74955
 6.0000e-001 75180 -1.7092e+002 -6.4931e+001  9.0954e+001 58270 75033,75085,75059
 6.0000e-001 75157 -2.4219e+002 -6.2147e+001  6.1381e+001 58270 74955,75007,74981
 6.0000e-001 75134 -1.3754e+002 -4.6444e+001  4.5837e+001 58270 74955,75033,75007
 6.0000e-001 75111 -2.5886e+001 -1.0278e+002  1.7077e+001 58270 74903,75085,74929
 6.0000e-001 75425 -2.7990e+001 -3.6868e+000  4.1040e+000 57830 75448,75301,75249
 6.0000e-001 75402 -3.0261e+001 -2.4988e+001  1.2058e+001 57830 75448,75249,75353
 6.0000e-001 75379  2.6475e+000 -4.6034e+000 -1.3950e+001 57830 75520,75301,75275
 6.0000e-001 75474 -2.7311e+001  6.8134e+000  9.5150e-002 57830 75327,75301,75448
 6.0000e-001 75497 -2.2604e+001 -1.0453e+000  9.4848e+000 57830 75327,75448,75353
 6.0000e-001 75546 -1.6147e+001 -3.8763e-001 -8.0750e+000 57830 75249,75301,75520
 6.0000e-001 76261 -8.0680e+001 -1.3733e+002  8.8938e+001 57426 76284,76097,76071
 6.0000e-001 76238 -6.6983e+001 -9.9598e+001  8.3734e+001 57426 75889,76097,75915
 6.0000e-001 76215 -1.2656e+002 -1.4920e+002  9.5644e+001 57426 76428,76284,76071
 6.0000e-001 76192 -9.5461e+001 -1.3307e+002  6.4703e+001 57426 76356,75941,75915
 6.0000e-001 76169 -1.3406e+002 -1.3302e+002  8.9927e+001 57426 76428,76071,76019
 6.0000e-001 76146 -1.3654e+002 -1.4422e+002  8.6424e+001 57426 76019,76071,76045
 6.0000e-001 76123 -1.2110e+002 -1.3434e+002  1.0952e+002 57426 75967,76019,75993
 6.0000e-001 76310 -8.5481e+001 -1.4428e+002  6.7707e+001 57426 75915,76097,76284
 6.0000e-001 76333 -9.8962e+001 -1.4476e+002  6.6170e+001 57426 76356,75915,76284
 6.0000e-001 76382 -1.0581e+002 -1.1771e+002  7.5995e+001 57426 75967,75941,76356
 6.0000e-001 76405 -1.0750e+002 -1.2587e+002  7.5669e+001 57426 75967,76356,76284
 6.0000e-001 76454 -1.0882e+002 -1.3706e+002  8.9576e+001 57426 75967,76284,76428
 6.0000e-001 76477 -1.2677e+002 -1.3023e+002  8.7854e+001 57426 75967,76428,76019
 6.0000e-001 76953 -1.7500e+002 -3.3047e+002  1.2110e+002 56908 76976,76711,76685
 6.0000e-001 76930 -1.7569e+002 -3.2812e+002  1.1334e+002 56908 77048,76976,76685
 6.0000e-001 76907 -2.7998e+002 -3.3746e+002  1.6360e+002 56908 77048,76685,76633
 6.0000e-001 76884 -3.6518e+002 -4.8329e+002  2.1405e+002 56908 76711,76789,76763
 6.0000e-001 76861 -2.2555e+002 -2.5932e+002  8.5222e+001 56908 76581,76789,76607
 6.0000e-001 76838 -3.2927e+002 -3.0826e+002  1.0143e+002 56908 76711,76763,76737
 6.0000e-001 76815 -4.8695e+002 -4.9313e+002  2.9424e+002 56908 76633,76685,76659
 6.0000e-001 77002 -1.6675e+002 -3.3201e+002  1.3492e+002 56908 76789,76711,76976
 6.0000e-001 77025 -1.9637e+002 -2.5529e+002  7.9321e+001 56908 76789,76976,76607
 6.0000e-001 77074 -3.3463e+002 -3.3186e+002  1.1184e+002 56908 76607,76976,77048
 6.0000e-001 77097 -3.8725e+002 -2.9622e+002  1.5732e+002 56908 76607,77048,76633
 6.0000e-001 77475 -1.6164e+002 -3.6388e+002  1.4703e+002 56546 77570,77498,77279
 6.0000e-001 77452 -1.7488e+002 -4.3156e+002  1.4871e+002 56546 77498,77227,77357
 6.0000e-001 77429 -1.8824e+002 -3.7727e+002  1.9360e+002 56546 77570,77279,77253
 6.0000e-001 77406 -2.4514e+002 -4.6823e+002  1.7207e+002 56546 77201,77357,77227
 6.0000e-001 77383 -2.1972e+002 -3.2780e+002  1.3079e+002 56546 77279,77331,77305
 6.0000e-001 77524 -1.7778e+002 -3.1931e+002  1.2921e+002 56546 77331,77279,77498
 6.0000e-001 77547 -1.6071e+002 -3.7375e+002  1.7105e+002 56546 77331,77498,77357
 6.0000e-001 77596 -2.3159e+002 -3.9531e+002  1.6191e+002 56546 77227,77498,77570
 6.0000e-001 77619 -2.3885e+002 -4.1386e+002  2.1223e+002 56546 77227,77570,77253
 6.0000e-001 77818 -2.3839e+002 -3.3353e+002  1.2937e+002 56042 77841,77694,77668
 6.0000e-001 77795 -2.2098e+002 -3.1431e+002  9.4979e+001 56042 77841,77668,77746
 6.0000e-001 77772 -2.3834e+002 -4.2204e+002  8.4166e+001 56042 77642,77746,77668
 6.0000e-001 77867 -2.5634e+002 -3.6122e+002  1.4528e+002 56042 77720,77694,77841
 6.0000e-001 77890 -2.3499e+002 -3.3744e+002  1.1027e+002 56042 77720,77841,77746
 6.0000e-001 78349 -4.4906e+001 -1.3537e+001  1.2392e+001 55538 78075,78127,78101
 6.0000e-001 78326 -5.2441e+001 -2.4251e+001  7.5182e+000 55538 78075,78205,78127
 6.0000e-001 78303 -6.1762e+001 -2.6137e-001  1.1956e+001 55538 78075,78231,78205
 6.0000e-001 78280 -4.8151e+001 -8.6614e+001  4.6704e+001 55538 78127,78179,78153
 6.0000e-001 78257 -5.3219e+001 -3.7844e+001 -4.1786e-001 55538 78127,78205,78179
 6.0000e-001 78806 -1.3383e+002 -1.7924e+002  4.2855e+001 55034 78829,78636,78610
 6.0000e-001 78783 -1.5293e+002 -1.7043e+002  5.0587e+001 55034 78901,78829,78610
 6.0000e-001 78760 -1.0082e+002 -1.7144e+002  5.8604e+001 55034 78901,78610,78584
 6.0000e-001 78737 -1.4733e+002 -1.5738e+002  7.2187e+001 55034 78558,78688,78662
 6.0000e-001 78714 -1.4469e+002 -1.3212e+002  1.3154e+002 55034 78532,78688,78558
 6.0000e-001 78855 -1.5923e+002 -2.2729e+002  2.4887e+001 55034 78662,78636,78829
 6.0000e-001 78878 -1.6048e+002 -1.7062e+002  6.6869e+001 55034 78662,78829,78558
 6.0000e-001 78927 -1.1504e+002 -1.4640e+002  8.5327e+001 55034 78558,78829,78901
 6.0000e-001 78950 -9.8275e+001 -1.6010e+002  9.7660e+001 55034 78558,78901,78584
 6.0000e-001 79407 -1.0447e+002 -5.8133e+001  1.1124e+002 54430 79430,79237,79159
 6.0000e-001 79384 -1.3733e+002 -9.3037e+001  8.6550e+001 54430 79430,79159,79133
 6.0000e-001 79361 -1.1086e+002 -5.1370e+001  6.6541e+001 54430 79237,79289,79263
 6.0000e-001 79338 -1.4611e+002 -9.0192e+001  1.0104e+002 54430 79185,79237,79211
 6.0000e-001 79315 -2.1442e+002 -1.0020e+002  1.3573e+002 54430 79159,79237,79185
 6.0000e-001 79456 -1.0194e+002 -9.7190e+001  8.3498e+001 54430 79289,79237,79430
 6.0000e-001 79479 -1.1920e+002 -1.3363e+002  6.4604e+001 54430 79289,79430,79133
 6.0000e-001 79936 -1.0496e+002 -6.5279e+001  1.2811e+002 53919 79662,79766,79688
 6.0000e-001 79913 -3.0938e+002 -1.8703e+002  2.0677e+002 53919 79662,79818,79766
 6.0000e-001 79890 -3.1358e+002 -8.7623e+001  1.4698e+002 53919 79766,79818,79792
 6.0000e-001 79867 -1.9629e+002 -1.0827e+002  1.4088e+002 53919 79714,79766,79740
 6.0000e-001 79844 -2.4658e+002 -1.2550e+002  1.3861e+002 53919 79688,79766,79714
 6.0000e-001 80037 -1.9776e+001 -7.2942e+001  7.8129e+001 53671 79959,80011,79985
 6.0000e-001 80405 -8.5189e+001  8.8639e+000  4.8931e+000 53267 80108,80264,80238
 6.0000e-001 80382 -2.9011e+001 -2.1363e+000  9.4020e-001 53267 80082,80264,80108
 6.0000e-001 80359  1.6399e+001 -2.7933e+000  3.7479e+001 53267 80108,80238,80134
 6.0000e-001 80336 -2.8438e+000 -1.6937e+001  2.7946e+001 53267 80134,80212,80186
 6.0000e-001 80313 -3.6490e+001 -2.8778e+001  2.9243e+001 53267 80134,80238,80212
 6.0000e-001 80290  8.2037e+000 -3.3844e+001  7.0679e+000 53267 80134,80186,80160
 6.0000e-001 80915 -3.9633e+001 -4.5260e+001 -8.6723e-001 52969 80644,80774,80748
 6.0000e-001 80892 -2.1422e+001 -2.4007e+001  9.2191e+000 52969 80618,80774,80644
 6.0000e-001 80869 -5.5895e+001 -4.1776e+001  3.7650e+000 52969 80644,80748,80670
 6.0000e-001 80846  3.0239e+000 -2.6925e+001 -2.9673e+000 52969 80592,80774,80618
 6.0000e-001 80823 -9.7187e+001 -6.0831e+001  3.1410e+001 52969 80670,80722,80696
 6.0000e-001 80800 -5.0150e+001 -4.0809e+001  8.2705e+000 52969 80670,80748,80722
 6.0000e-001 81266 -3.8603e+001 -1.9954e+002  3.0026e+001 52565 81041,81145,81067
 6.0000e-001 81243 -1.3771e+002 -3.5145e+002  7.2769e+001 52565 81041,81171,81145
 6.0000e-001 81220 -2.9808e+002 -5.2451e+002  1.7600e+002 52565 81067,81119,81093
 6.0000e-001 81197 -3.9008e+001 -1.3310e+002  3.6822e+001 52565 81067,81145,81119
 6.0000e-001 81723 -1.5980e+002 -2.0331e+002  6.0452e+001 51904 81449,81527,81475
 6.0000e-001 81700 -1.4422e+002 -1.6818e+002  5.7291e+001 51904 81449,81579,81527
 6.0000e-001 81677 -1.9620e+002 -2.9382e+002  1.1674e+002 51904 81449,81605,81579
 6.0000e-001 81654 -8.9400e+001 -9.7810e+001  8.4212e+001 51904 81527,81579,81553
 6.0000e-001 81631 -2.1740e+002 -1.8713e+002  3.0649e+001 51904 81475,81527,81501
 6.0000e-001 82327 -1.9642e+002 -2.2310e+002  1.4905e+002 51321 82422,82350,82036
 6.0000e-001 82304 -1.9171e+002 -1.6897e+002  1.5295e+002 51321 82494,82350,81958
 6.0000e-001 82281 -2.0111e+002 -2.2548e+002  1.3782e+002 51321 82422,82036,82010
 6.0000e-001 82258 -1.7665e+002 -1.5394e+002  1.3593e+002 51321 82494,81958,81932
 6.0000e-001 82235 -1.9925e+002 -1.3822e+002  9.8786e+001 51321 82062,82114,82088
 6.0000e-001 82212 -4.4164e+002 -2.7972e+002  1.9117e+002 51321 81932,82140,82114
 6.0000e-001 82189 -2.0617e+002 -9.2028e+001  1.3162e+002 51321 81958,82010,81984
 6.0000e-001 82166 -2.3583e+002 -1.9425e+002  1.5871e+002 51321 81906,82140,81932
 6.0000e-001 82376 -1.8745e+002 -2.7163e+002  1.4947e+002 51321 82062,82036,82350
 6.0000e-001 82399 -1.9111e+002 -2.1161e+002  1.4341e+002 51321 82062,82350,82114
 6.0000e-001 82448 -1.8125e+002 -2.1552e+002  1.5191e+002 51321 81958,82350,82422
 6.0000e-001 82471 -1.8411e+002 -2.1705e+002  1.4083e+002 51321 81958,82422,82010
 6.0000e-001 82520 -1.9363e+002 -1.8517e+002  1.6061e+002 51321 82114,82350,82494
 6.0000e-001 82543 -1.9403e+002 -1.8093e+002  1.4679e+002 51321 82114,82494,81932
 6.0000e-001 83019 -2.0442e+002 -7.1808e+001  4.3789e+001 50817 82673,82751,82699
 6.0000e-001 82996 -2.4293e+002 -1.0288e+002  9.5903e+001 50817 83042,82673,82855
 6.0000e-001 82973 -2.3116e+002 -1.4463e+002  9.8653e+001 50817 83042,82855,82803
 6.0000e-001 82950 -3.1247e+002 -1.8898e+002  1.5296e+002 50817 82751,82803,82777
 6.0000e-001 82927 -2.4942e+002 -1.5102e+002  4.4914e+001 50817 82647,82855,82673
 6.0000e-001 82904 -3.0350e+002 -2.2013e+002  1.5017e+002 50817 82803,82855,82829
 6.0000e-001 82881 -2.3596e+002 -1.6071e+002  3.8992e+001 50817 82699,82751,82725
 6.0000e-001 83068 -2.5359e+002 -1.3519e+002  1.1664e+002 50817 82751,82673,83042
 6.0000e-001 83091 -2.3024e+002 -1.6924e+002  1.1395e+002 50817 82751,83042,82803
 6.0000e-001 83290 -2.3490e+002 -1.6271e+002  1.5970e+002 50356 83313,83166,83140
 6.0000e-001 83267 -2.7442e+002 -2.7454e+002  1.2213e+002 50356 83515,83313,83140
 6.0000e-001 83244 -3.1549e+002 -2.6328e+002  6.8652e+001 50356 83515,83140,83385
 6.0000e-001 83339 -2.6999e+002 -2.5357e+002  1.6763e+002 50356 83192,83166,83313
 6.0000e-001 83362 -2.0275e+002 -2.6719e+002  1.3185e+002 50356 83192,83313,83218
 6.0000e-001 83411 -1.2531e+002 -1.5707e+002  9.7399e+001 50356 83114,83218,83385
 6.0000e-001 83541 -1.8060e+002 -2.4153e+002  1.1502e+002 50356 83218,83313,83515
 6.0000e-001 83564 -1.9553e+002 -2.1431e+002  6.7930e+001 50356 83218,83515,83385
 6.0000e-001 83893 -7.3250e+001 -5.3799e+001  2.7768e+001 49552 83720,83798,83746
 6.0000e-001 83870 -6.6069e+001  9.4694e-002  1.4353e+001 49552 83694,83798,83720
 6.0000e-001 83847 -2.0871e+000 -1.6995e+001  1.0100e+001 49552 83668,83798,83694
 6.0000e-001 83824 -9.2997e+001 -1.6334e+001  9.3224e+000 49552 83746,83798,83772
 6.0000e-001 84141 -2.5645e+002 -2.6437e+002  1.2656e+002 49212 84164,84020,83942
 6.0000e-001 84118 -2.6231e+002 -2.7474e+002  1.4098e+002 49212 84164,83942,83916
 6.0000e-001 84095 -1.5325e+002 -2.7572e+002  1.0566e+002 49212 83942,84020,83968
 6.0000e-001 84072 -1.7638e+002 -1.5903e+002  5.6176e+001 49212 83968,84020,83994
 6.0000e-001 84190 -2.7043e+002 -2.7299e+002  1.3151e+002 49212 84046,84020,84164
 6.0000e-001 84213 -2.6892e+002 -2.7780e+002  1.4490e+002 49212 84046,84164,83916
 6.0000e-001 84800 -1.2449e+002 -2.9764e+002  9.1534e+001 48865 84503,84633,84555
 6.0000e-001 84777 -2.1258e+002 -3.7213e+002  5.8878e+001 48865 84503,84659,84633
 6.0000e-001 84754 -2.0989e+002 -5.0574e+002  8.6205e+001 48865 84555,84633,84581
 6.0000e-001 84731 -1.3086e+002 -6.2611e+002  1.2726e+002 48865 84581,84633,84607
 6.0000e-001 84708 -3.4091e+002 -3.7066e+002  9.3462e+001 48865 84503,84555,84529
 6.0000e-001 84685 -2.0040e+002 -3.3155e+002  8.1199e+001 48865 84477,84659,84503
 6.0000e-001 85355 -1.2363e+002 -1.1618e+002  6.1919e+001 48461 85378,85035,85009
 6.0000e-001 85332 -1.5179e+002 -1.2817e+002  7.5337e+001 48461 85378,85009,85165
 6.0000e-001 85309 -1.2281e+002 -1.5596e+002  9.0568e+001 48461 85450,85061,85035
 6.0000e-001 85286 -2.1073e+002 -1.4723e+002  7.0824e+001 48461 85009,85191,85165
 6.0000e-001 85263 -1.4169e+002 -1.3127e+002  9.6747e+001 48461 85087,85165,85113
 6.0000e-001 85240 -1.0663e+002 -2.0129e+002 -1.6460e+001 48461 84983,85191,85009
 6.0000e-001 85217 -1.2536e+002 -1.7716e+002  5.7441e+001 48461 85113,85165,85139
 6.0000e-001 85404 -1.3288e+002 -1.2337e+002  7.6887e+001 48461 85450,85035,85378
 6.0000e-001 85427 -1.6217e+002 -1.3693e+002  7.0913e+001 48461 85087,85378,85165
 6.0000e-001 85476 -1.3591e+002 -1.9434e+002  8.9515e+001 48461 85087,85061,85450
 6.0000e-001 85499 -1.5407e+002 -1.7641e+002  7.2126e+001 48461 85087,85450,85378
 6.0000e-001 86084 -9.5166e+001 -1.9166e+002  6.1111e+001 48057 86323,86107,85787
 6.0000e-001 86061 -9.7659e+001 -1.9351e+002  9.4079e+001 48057 86107,85761,85943
 6.0000e-001 86038 -1.2261e+002 -1.4635e+002  8.1784e+001 48057 86251,86179,85891
 6.0000e-001 86015 -1.2178e+002 -1.1617e+002  5.6114e+001 48057 86251,85891,85839
 6.0000e-001 85992 -1.0560e+002 -1.2764e+002  1.0924e+002 48057 85891,85943,85917
 6.0000e-001 85969 -1.4580e+002 -1.0302e+002  7.2615e+001 48057 85839,85891,85865
 6.0000e-001 86133 -8.7548e+001 -1.7510e+002  6.2992e+001 48057 85813,85787,86107
 6.0000e-001 86156 -1.0139e+002 -1.7717e+002  6.4195e+001 48057 86179,85813,86107
 6.0000e-001 86205 -1.0044e+002 -1.2175e+002  9.1174e+001 48057 85943,85891,86179
 6.0000e-001 86228 -7.1947e+001 -1.3605e+002  8.8214e+001 48057 85943,86179,86107
 6.0000e-001 86277 -7.9018e+001 -1.1512e+002  6.6039e+001 48057 85813,86179,86251
 6.0000e-001 86300 -1.0311e+002 -9.6502e+001  4.5605e+001 48057 85813,86251,85839
 6.0000e-001 86349 -5.4210e+001 -1.5663e+002  7.7731e+001 48057 85761,86107,86323
 6.0000e-001 86855 -7.0341e+001 -2.0531e+002  1.0381e+002 47545 86878,86584,86558
 6.0000e-001 86832 -1.3120e+002 -2.3095e+002  9.1928e+001 47545 86950,86878,86558
 6.0000e-001 86809 -1.5207e+002 -2.3265e+002  9.1188e+001 47545 86950,86558,86532
 6.0000e-001 86786 -8.8777e+001 -1.9602e+002  1.0200e+002 47545 86584,86662,86610
 6.0000e-001 86763 -1.4200e+002 -2.2117e+002  5.8164e+001 47545 86532,86714,86688
 6.0000e-001 86740 -1.1528e+002 -8.9897e+001  1.1141e+002 47545 86610,86662,86636
 6.0000e-001 86904 -1.0644e+002 -2.3690e+002  8.1866e+001 47545 86662,86584,86878
 6.0000e-001 86927 -8.1817e+001 -2.2107e+002  7.3210e+001 47545 86662,86878,86688
 6.0000e-001 86976 -1.0351e+002 -2.3334e+002  6.6366e+001 47545 86688,86878,86950
 6.0000e-001 86999 -1.3574e+002 -2.4507e+002  6.8781e+001 47545 86688,86950,86532
 6.0000e-001 87328 -9.9242e+001 -7.2228e+001  5.5207e+001 47048 87155,87207,87181
 6.0000e-001 87305 -9.2902e+001 -6.7407e+001  5.7821e+001 47048 87129,87207,87155
 6.0000e-001 87282 -1.1407e+002 -7.3997e+001  5.9253e+001 47048 87103,87207,87129
 6.0000e-001 87259 -1.3912e+002 -1.4395e+002  8.7432e+001 47048 87103,87233,87207
 6.0000e-001 87576 -3.9282e+001 -5.4803e+001  5.4748e+001 46701 87599,87429,87377
 6.0000e-001 87553 -6.8092e+001 -1.5572e+001  2.9970e+001 46701 87599,87377,87481
 6.0000e-001 87530  5.0509e+000  3.9913e+000 -4.9345e+000 46701 87351,87481,87377
 6.0000e-001 87507  2.4185e+001 -6.4705e+000  1.8430e+001 46701 87377,87429,87403
 6.0000e-001 87625 -5.7317e+001 -1.2540e+002  5.6043e+001 46701 87455,87429,87599
 6.0000e-001 87648 -6.0459e+001 -5.6012e+001  2.3773e+001 46701 87455,87599,87481
 6.0000e-001 87798  7.1355e+000  5.0029e+000 -2.4977e+000 46239 87697,87749,87723
 6.0000e-001 87775  1.8303e+001 -7.5462e+000  1.3555e+001 46239 87671,87749,87697
 6.0000e-001 88308 -2.8665e+002 -2.3971e+002  9.4379e+001 45735 88089,88167,88141
 6.0000e-001 88285 -2.1604e+002 -1.5339e+002  1.2973e+002 45735 88011,88167,88089
 6.0000e-001 88262 -2.7820e+002 -1.7714e+002  1.3169e+002 45735 87985,88167,88011
 6.0000e-001 88239 -3.4270e+002 -4.7204e+002  1.9903e+002 45735 88011,88089,88063
 6.0000e-001 88216 -2.3895e+002 -2.2122e+002  8.2050e+001 45735 88089,88141,88115
 6.0000e-001 88193 -2.5857e+002 -3.3994e+002  2.4999e+002 45735 88011,88063,88037
 6.0000e-001 88686 -2.1233e+002 -2.0965e+002  1.2357e+002 45316 88438,88516,88490
 6.0000e-001 88663 -1.6944e+002 -1.1317e+002  1.1512e+002 45316 88438,88542,88516
 6.0000e-001 88640 -1.2639e+002 -3.0157e+002  1.4325e+002 45316 88438,88568,88542
 6.0000e-001 88617 -3.6460e+002 -3.0983e+002  7.4357e+001 45316 88438,88490,88464
 6.0000e-001 88594 -8.8122e+001 -3.0358e+002  1.3452e+002 45316 88412,88568,88438
 6.0000e-001 88934 -3.6368e+002 -4.1079e+002  2.1397e+002 44812 88957,88735,88709
 6.0000e-001 88911 -2.3156e+002 -2.9009e+002  1.0453e+002 44812 88957,88709,88839
 6.0000e-001 88888 -2.3293e+002 -2.5055e+002  7.2526e+001 44812 89029,88787,88761
 6.0000e-001 88865 -2.2953e+002 -2.2134e+002  9.9805e+001 44812 88787,88839,88813
 6.0000e-001 88983 -1.2381e+002 -2.8569e+002  1.5485e+002 44812 88761,88735,88957
 6.0000e-001 89006 -2.0159e+002 -2.6828e+002  6.6818e+001 44812 89029,88761,88957
 6.0000e-001 89055 -2.3721e+002 -2.7077e+002  7.9566e+001 44812 88839,88787,89029
 6.0000e-001 89078 -2.2921e+002 -3.1219e+002  8.2619e+001 44812 88839,89029,88957
 6.0000e-001 89228 -3.2930e+002 -8.3319e+002 -7.7849e+000 44408 89127,89179,89153
 6.0000e-001 89205 -2.0118e+002 -5.4595e+002  1.6484e+001 44408 89101,89179,89127
 6.0000e-001 89787 -1.8083e+002 -1.7060e+002  1.0989e+002 43854 89810,89545,89519
 6.0000e-001 89764 -1.9124e+002 -2.0332e+002  1.2439e+002 43854 89810,89519,89467
 6.0000e-001 89741 -2.0370e+002 -2.5787e+002  1.1435e+002 43854 89954,89882,89597
 6.0000e-001 89718 -2.0963e+002 -2.5663e+002  1.2156e+002 43854 89954,89597,89571
 6.0000e-001 89695 -1.2273e+002 -2.2693e+002  1.0178e+002 43854 89415,89623,89467
 6.0000e-001 89672 -1.1865e+002 -1.3494e+002  9.6227e+001 43854 89467,89519,89493
 6.0000e-001 89649 -1.0296e+002 -1.7115e+002  9.4139e+001 43854 89415,89467,89441
 6.0000e-001 89836 -2.1818e+002 -1.8861e+002  1.1698e+002 43854 89882,89545,89810
 6.0000e-001 89859 -1.1936e+002 -1.9901e+002  9.8352e+001 43854 89623,89810,89467
 6.0000e-001 89908 -2.1040e+002 -3.3821e+002  1.5507e+002 43854 89623,89597,89882
 6.0000e-001 89931 -1.7922e+002 -2.8546e+002  1.2527e+002 43854 89623,89882,89810
 6.0000e-001 89980 -2.2787e+002 -2.6430e+002  1.3611e+002 43854 89545,89882,89954
 6.0000e-001 90003 -2.4800e+002 -2.8207e+002  1.4694e+002 43854 89545,89954,89571
 6.0000e-001 90251 -6.4987e+001 -8.8026e+001  3.3405e+001 43492 90026,90078,90052
 6.0000e-001 90228 -2.2337e+002 -2.0789e+002  1.0661e+002 43492 90274,90026,90156
 6.0000e-001 90205 -2.0412e+002 -2.3170e+002  1.0798e+002 43492 90346,90274,90156
 6.0000e-001 90182 -2.0545e+002 -2.7958e+002  1.8928e+002 43492 90346,90156,90130
 6.0000e-001 90300 -1.7190e+002 -2.4282e+002  1.2545e+002 43492 90078,90026,90274
 6.0000e-001 90323 -2.3801e+002 -2.7317e+002  1.1732e+002 43492 90078,90274,90104
 6.0000e-001 90372 -3.0699e+002 -2.9870e+002  1.5322e+002 43492 90104,90274,90346
 6.0000e-001 90395 -3.0785e+002 -3.5304e+002  2.3561e+002 43492 90104,90346,90130
 6.0000e-001 90594 -3.3940e+001 -1.1399e+002  5.6180e+001 43052 90418,90496,90444
 6.0000e-001 90571  8.4070e+000  1.3519e+001  1.2186e+001 43052 90418,90522,90496
 6.0000e-001 90548 -9.0345e+001 -9.6497e+001  6.4181e+001 43052 90444,90496,90470
 6.0000e-001 91074 -3.5650e+002 -2.4854e+002  2.5007e+002 42434 91241,90884,90858
 6.0000e-001 91051 -1.3796e+002 -1.7897e+002  2.1061e+001 42434 90702,90910,90884
 6.0000e-001 91028 -4.3411e+001 -3.9293e+001  7.2844e+001 42434 91097,90754,90702
 6.0000e-001 91005 -2.7542e+002 -1.4123e+002  2.1416e+002 42434 91241,90858,91097
 6.0000e-001 90982 -1.1373e+002 -1.7047e+002  6.9783e+001 42434 91169,90806,90780
 6.0000e-001 90959 -9.2682e+001 -1.1530e+002  4.0376e+001 42434 90806,90858,90832
 6.0000e-001 90936 -5.5976e+001 -6.9923e+001  6.3303e+001 42434 90702,90754,90728
 6.0000e-001 91123 -2.7927e+002 -2.0510e+002  2.1644e+002 42434 90780,90754,91097
 6.0000e-001 91146 -1.9692e+002 -2.5908e+002  1.9516e+002 42434 91169,90780,91097
 6.0000e-001 91195 -7.6874e+001 -1.0219e+002  4.7886e+001 42434 90858,90806,91169
 6.0000e-001 91218 -7.8113e+001 -1.3236e+001  1.5676e+002 42434 90858,91169,91097
 6.0000e-001 91267 -2.0276e+002 -3.7289e+002  1.6904e+002 42434 90702,90884,91241
 6.0000e-001 91290 -1.3379e+002 -2.8554e+002  1.3882e+002 42434 90702,91241,91097
 6.0000e-001 91698 -6.8514e+001 -2.2121e+002  7.0710e+001 41773 91473,91577,91499
 6.0000e-001 91675 -1.0130e+002 -2.5496e+002  9.5028e+001 41773 91473,91603,91577
 6.0000e-001 91652 -1.2434e+002 -1.6695e+002  3.0330e+001 41773 91499,91551,91525
 6.0000e-001 91629 -1.5496e+002 -1.9056e+002  7.6474e+001 41773 91499,91577,91551
 6.0000e-001 92044 -1.7890e+002 -2.2501e+002  1.2821e+002 41383 91773,91877,91851
 6.0000e-001 92021 -1.5994e+002 -2.7975e+002  6.4896e+001 41383 91747,91877,91773
 6.0000e-001 91998 -1.5038e+002 -1.6422e+002  9.7970e+001 41383 91773,91851,91799
 6.0000e-001 91975 -1.2068e+002 -2.7421e+002  7.0027e+001 41383 91747,91903,91877
 6.0000e-001 91952 -4.7532e+001 -2.4938e+002  6.8032e+001 41383 91721,91903,91747
 6.0000e-001 91929 -4.6126e+001 -1.6597e+002  6.5506e+001 41383 91799,91851,91825
 6.0000e-001 92601 -1.6808e+002 -1.9445e+002  5.7957e+001 40979 92229,92411,92307
 6.0000e-001 92578 -1.9337e+002 -2.1458e+002  6.7268e+001 40979 92229,92437,92411
 6.0000e-001 92555 -1.5598e+002 -1.4983e+002  6.1118e+001 40979 92229,92307,92281
 6.0000e-001 92532 -1.1949e+002 -1.4888e+002  6.8016e+001 40979 92333,92411,92385
 6.0000e-001 92509 -1.1326e+002 -1.5014e+002  7.7287e+001 40979 92307,92411,92333
 6.0000e-001 92486 -1.9744e+002 -2.0596e+002  3.6420e+001 40979 92229,92281,92255
 6.0000e-001 92463 -2.3348e+001 -1.2997e+002  5.7269e+001 40979 92333,92385,92359
 6.0000e-001 93235 -1.5290e+002 -1.1008e+002  1.3855e+002 40525 92941,92993,92967
 6.0000e-001 93212 -2.2819e+002 -3.8482e+001  7.5557e+001 40525 93258,92941,92889
 6.0000e-001 93189 -1.9155e+002 -1.6740e+001  6.3409e+001 40525 93258,92889,93071
 6.0000e-001 93166 -1.8030e+002 -1.0151e+002  6.1245e+001 40525 92889,92941,92915
 6.0000e-001 93143 -1.1176e+002 -5.9935e+001  5.7307e+001 40525 92863,93071,92889
 6.0000e-001 93120 -1.7170e+002 -9.3916e+001  6.3889e+001 40525 92993,93071,93019
 6.0000e-001 93097 -1.9074e+002 -1.3640e+002  7.9096e+001 40525 93019,93071,93045
 6.0000e-001 93284 -2.4287e+002 -7.4707e+001  1.1757e+002 40525 92993,92941,93258
 6.0000e-001 93307 -1.7153e+002 -2.8706e+001  9.7471e+001 40525 92993,93258,93071
 6.0000e-001 93636 -2.7753e+002 -2.5403e+002  1.9159e+002 40235 93437,93541,93515
 6.0000e-001 93613 -1.9570e+002 -3.2564e+002  1.6012e+002 40235 93411,93541,93437
 6.0000e-001 93590 -8.7618e+001 -2.3543e+002  8.5333e+001 40235 93463,93515,93489
 6.0000e-001 93567 -1.5606e+002 -1.7946e+002  6.7302e+001 40235 93437,93515,93463
 6.0000e-001 94014 -2.7362e+002 -3.6413e+002  1.1027e+002 39873 93766,93870,93792
 6.0000e-001 93991 -2.6102e+002 -3.6731e+002  1.0534e+002 39873 93766,93896,93870
 6.0000e-001 93968 -2.1793e+002 -2.9440e+002  1.3465e+002 39873 93792,93870,93844
 6.0000e-001 93945 -1.8742e+002 -2.5897e+002  1.0135e+002 39873 93792,93844,93818
 6.0000e-001 93922 -2.0016e+002 -3.2230e+002  1.7075e+002 39873 93740,93896,93766
 6.0000e-001 94164  1.5430e+001 -1.0901e+001  2.2225e+001 39461 94037,94089,94063
 6.0000e-001 94141 -2.9986e+001  2.1188e+001  1.8124e+001 39461 94037,94115,94089
 6.0000e-001 94363 -1.6383e+002 -1.5253e+002  7.6649e+001 39057 94386,94239,94213
 6.0000e-001 94340 -1.0110e+002 -1.2833e+002  7.1094e+001 39057 94386,94213,94187
 6.0000e-001 94317 -1.7629e+002 -2.0159e+002  1.1153e+002 39057 94187,94291,94265
 6.0000e-001 94412 -8.4121e+001 -1.3070e+002  7.3351e+001 39057 94458,94386,94265
 6.0000e-001 94435 -1.1006e+002 -1.4159e+002  8.6465e+001 39057 94265,94386,94187
 6.0000e-001 94484 -1.3460e+002 -1.7365e+002  9.6198e+001 39057 94239,94386,94458
 6.0000e-001 94896 -2.8776e+002 -1.7988e+002  1.1575e+002 38396 94919,94775,94723
 6.0000e-001 94873 -3.0684e+002 -1.8815e+002  1.1108e+002 38396 94919,94723,94697
 6.0000e-001 94850 -2.0699e+002 -1.4871e+002  8.5418e+001 38396 94723,94775,94749
 6.0000e-001 94827 -1.3779e+002 -1.5141e+002  9.3546e+001 38396 94671,94801,94697
 6.0000e-001 94945 -2.7113e+002 -1.8841e+002  1.2034e+002 38396 94801,94775,94919
 6.0000e-001 94968 -2.8463e+002 -1.9313e+002  1.1571e+002 38396 94801,94919,94697
 6.0000e-001 95265 -2.2299e+002 -2.3460e+002  1.0410e+002 37835 95017,95069,95043
 6.0000e-001 95242 -2.2633e+002 -2.2744e+002  1.0611e+002 37835 95288,95069,95017
 6.0000e-001 95219 -2.3137e+002 -2.4813e+002  1.3831e+002 37835 95288,95017,94991
 6.0000e-001 95196 -2.6567e+002 -2.7059e+002  1.3839e+002 37835 94991,95147,95121
 6.0000e-001 95173 -1.4514e+002 -1.0494e+002  1.3116e+002 37835 95069,95121,95095
 6.0000e-001 95314 -2.2158e+002 -1.8034e+002  9.2683e+001 37835 95121,95069,95288
 6.0000e-001 95337 -2.2808e+002 -2.1237e+002  1.2225e+002 37835 95121,95288,94991
 6.0000e-001 95558 -6.5773e+001 -1.9125e+002  4.9282e+001 37423 95408,95460,95434
 6.0000e-001 95535 -1.1789e+002 -4.0478e+002  1.4889e+002 37423 95382,95460,95408
 6.0000e-001 95512 -2.0128e+002 -4.6722e+002  1.7620e+002 37423 95382,95486,95460
 6.0000e-001 95891 -1.2139e+002 -2.8779e+002  1.5001e+002 37225 95666,95718,95692
 6.0000e-001 95868 -2.0428e+002 -2.8730e+002  1.7955e+002 37225 95666,95796,95718
 6.0000e-001 95845 -9.6398e+001 -2.1792e+002  5.1844e+001 37225 95718,95770,95744
 6.0000e-001 95822 -1.3684e+002 -1.7719e+002  1.0627e+002 37225 95718,95796,95770
 6.0000e-001 95992 -9.0899e+001 -2.4777e+002  5.5821e+001 36735 95914,95966,95940
 6.0000e-001 96142 -2.7147e+002 -1.9856e+002  1.4337e+002 36331 96297,96067,96041
 6.0000e-001 96119 -2.2872e+002 -1.4937e+002  1.7781e+002 36331 96165,96041,96015
 6.0000e-001 96191 -2.6593e+002 -1.9044e+002  1.6134e+002 36331 96297,96041,96165
 6.0000e-001 96323 -2.7573e+002 -1.7361e+002  1.6351e+002 36331 96093,96067,96297
 6.0000e-001 96346 -2.4976e+002 -1.5573e+002  1.8451e+002 36331 96093,96297,96165
 6.0000e-001 96714 -2.0174e+002 -3.2898e+002  1.6550e+002 36041 96737,96495,96443
 6.0000e-001 96691 -2.5987e+002 -2.7392e+002  1.7316e+002 36041 96737,96443,96417
 6.0000e-001 96668 -1.7372e+002 -3.2921e+002  1.2181e+002 36041 96443,96495,96469
 6.0000e-001 96645 -8.0392e+001 -1.5924e+002  1.0515e+002 36041 96391,96521,96417
 6.0000e-001 96622 -6.2499e+001 -1.6627e+002  9.8158e+001 36041 96391,96547,96521
 6.0000e-001 96599 -2.7674e+001 -1.5254e+002  9.5665e+001 36041 96391,96573,96547
 6.0000e-001 96763 -1.1615e+002 -2.7773e+002  1.4274e+002 36041 96521,96495,96737
 6.0000e-001 96786 -2.2636e+002 -2.6358e+002  1.6218e+002 36041 96521,96737,96417
 6.0000e-001 96936 -1.4272e+002 -9.3483e+001  1.1838e+002 35637 97031,96959,96835
 6.0000e-001 96913 -1.9837e+002 -1.2383e+002  1.0061e+002 35637 97163,96959,96809
 6.0000e-001 96985 -1.7642e+002 -9.9953e+001  1.2053e+002 35637 96861,96835,96959
 6.0000e-001 97008 -1.9119e+002 -1.1609e+002  1.4495e+002 35637 96861,96959,96887
 6.0000e-001 97057 -1.7262e+002 -6.6619e+001  9.4723e+001 35637 96809,96959,97031
 6.0000e-001 97189 -1.5934e+002 -9.3974e+001  1.1382e+002 35637 96887,96959,97163
 6.0000e-001 97597 -9.5276e+001 -1.0969e+002  9.6772e+001 35190 97450,97502,97476
 6.0000e-001 97574 -1.0716e+002 -1.7050e+002  1.3223e+002 35190 97372,97502,97450
 6.0000e-001 97551 -1.0068e+002 -1.7737e+002  1.1864e+002 35190 97372,97450,97398
 6.0000e-001 97528 -9.9761e+001 -1.6486e+002  1.0160e+002 35190 97398,97450,97424
 6.0000e-001 98054 -1.8155e+002 -2.3126e+002  1.3743e+002 34636 97806,97936,97858
 6.0000e-001 98031 -2.6062e+002 -1.9277e+002  1.2551e+002 34636 97780,97936,97806
 6.0000e-001 98008 -2.5995e+002 -2.3711e+002  9.6031e+001 34636 97806,97858,97832
 6.0000e-001 97985 -1.9172e+002 -2.4764e+002  1.7315e+002 34636 97884,97936,97910
 6.0000e-001 97962 -1.4203e+002 -1.5936e+002  1.2124e+002 34636 97858,97936,97884
 6.0000e-001 98530 -1.2521e+002  3.7789e+001  5.6057e+001 34068 98697,98184,98366
 6.0000e-001 98507  2.1668e+000 -2.6621e+000  1.0515e+000 34068 98158,98366,98184
 6.0000e-001 98484 -1.8251e+002 -1.1841e+002  8.4216e+001 34068 98553,98262,98236
 6.0000e-001 98461 -2.1411e+002 -1.0809e+002  1.0350e+002 34068 98553,98236,98210
 6.0000e-001 98438 -1.6998e+002 -6.9583e+001  7.2292e+001 34068 98841,98625,98366
 6.0000e-001 98415 -1.8078e+002 -2.3437e+002  1.2953e+002 34068 98769,98288,98262
 6.0000e-001 98392 -2.3400e+002 -3.9193e+001  7.6238e+001 34068 98841,98366,98340
 6.0000e-001 98579 -2.1024e+002 -1.5976e+002  1.0405e+002 34068 98769,98262,98553
 6.0000e-001 98602 -1.7515e+002 -6.4280e+001  7.5538e+001 34068 98625,98314,98553
 6.0000e-001 98651 -1.5432e+002 -5.0622e+001  5.3992e+001 34068 98697,98366,98625
 6.0000e-001 98674 -1.9239e+002 -1.0603e+002  6.1451e+001 34068 98210,98625,98553
 6.0000e-001 98723 -1.5137e+002 -7.1717e+001  6.2419e+001 34068 98210,98184,98697
 6.0000e-001 98746 -1.3803e+002 -8.4521e+001  7.4865e+001 34068 98210,98697,98625
 6.0000e-001 98795 -1.2302e+002 -1.5752e+002  8.0890e+001 34068 98314,98288,98769
 6.0000e-001 98818 -1.6722e+002 -1.0557e+002  5.6024e+001 34068 98314,98769,98553
 6.0000e-001 98867 -2.4129e+002 -8.5593e+001  5.6857e+001 34068 98314,98625,98841
 6.0000e-001 98890 -3.0848e+002 -5.6087e+001  6.4601e+001 34068 98314,98841,98340
 6.0000e-001 99268 -2.5636e+002 -2.0139e+002  1.6202e+002 33450 99291,99098,99072
 6.0000e-001 99245 -2.9611e+002 -1.7341e+002  9.9172e+001 33450 99291,99072,99020
 6.0000e-001 99222 -4.2759e+002 -2.1413e+002  1.5670e+002 33450 99020,99072,99046
 6.0000e-001 99199 -2.1446e+002 -1.7749e+002  9.3271e+001 33450 99020,99150,99124
 6.0000e-001 99176 -2.2535e+002 -1.5116e+002  2.8501e+001 33450 98994,99150,99020
 6.0000e-001 99317 -1.3758e+002 -1.6419e+002  1.7347e+002 33450 99124,99098,99291
 6.0000e-001 99340 -2.4991e+002 -1.7766e+002  1.1599e+002 33450 99124,99291,99020
 6.0000e-001 99865 -1.8894e+002 -1.7143e+002  1.1393e+002 32944 100176,99960,99888
 6.0000e-001 99842 -2.2392e+002 -1.5949e+002  1.1699e+002 32944 100104,99888,99522
 6.0000e-001 99819 -1.6373e+002 -1.5234e+002  1.2233e+002 32944 100248,99960,99626
 6.0000e-001 99796 -2.1574e+002 -2.0438e+002  8.4640e+001 32944 100032,99652,99626
 6.0000e-001 99773 -2.0215e+002 -1.4433e+002  1.0111e+002 32944 100104,99522,99496
 6.0000e-001 99750 -1.2752e+002 -1.2904e+002  1.2155e+001 32944 99574,99626,99600
 6.0000e-001 99727 -1.2272e+002 -1.5406e+002  1.3526e+002 32944 100248,99626,99574
 6.0000e-001 99704 -1.4977e+002 -1.2065e+002  1.0609e+002 32944 99444,99496,99470
 6.0000e-001 99914 -2.0884e+002 -1.6842e+002  9.7525e+001 32944 100176,99888,100032
 6.0000e-001 99937 -2.2015e+002 -1.6186e+002  1.0725e+002 32944 99678,99888,99444
 6.0000e-001 99986 -2.1884e+002 -1.4131e+002  1.1631e+002 32944 99522,99888,99960
 6.0000e-001 100009 -2.0847e+002 -1.1873e+002  1.3140e+002 32944 99522,99960,99548
 6.0000e-001 100058 -2.1302e+002 -2.2845e+002  7.2604e+001 32944 99678,99652,100032
 6.0000e-001 100081 -2.3776e+002 -2.0092e+002  7.4846e+001 32944 99678,100032,99888
 6.0000e-001 100130 -1.8674e+002 -1.5943e+002  1.0317e+002 32944 99444,99888,100104
 6.0000e-001 100153 -1.7572e+002 -1.5961e+002  9.0988e+001 32944 99444,100104,99496
 6.0000e-001 100202 -2.1188e+002 -1.9808e+002  9.6703e+001 32944 99626,99960,100176
 6.0000e-001 100225 -2.2079e+002 -1.9714e+002  8.0511e+001 32944 99626,100176,100032
 6.0000e-001 100274 -2.2309e+002 -1.5143e+002  1.1346e+002 32944 99548,99960,100248
 6.0000e-001 100297 -1.8654e+002 -1.5664e+002  1.2620e+002 32944 99548,100248,99574
 6.0000e-001 100754 -1.3007e+002 -1.2930e+002  4.9627e+001 32369 100777,100584,100506
 6.0000e-001 100731 -1.0653e+002 -1.7916e+002  1.0376e+002 32369 100777,100506,100636
 6.0000e-001 100708 -1.9581e+002 -1.7302e+002  1.2139e+002 32369 100480,100636,100506
 6.0000e-001 100685 -2.4438e+002 -1.8175e+002  4.9570e+001 32369 100532,100584,100558
 6.0000e-001 100662 -1.3471e+002 -1.4272e+002  4.9589e+001 32369 100506,100584,100532
 6.0000e-001 100803 -1.2229e+002 -4.8426e+001  5.2675e+001 32369 100610,100584,100777
 6.0000e-001 100826 -9.9713e+001 -1.0794e+002  9.8813e+001 32369 100610,100777,100636
 6.0000e-001 101025 -1.7079e+002 -1.6208e+002  1.5205e+002 31857 100875,100927,100901
 6.0000e-001 101002 -3.1240e+002 -1.7693e+002  1.3561e+002 31857 100875,100953,100927
 6.0000e-001 100979 -3.2669e+002 -1.8361e+002  1.0504e+002 31857 100849,100953,100875
 6.0000e-001 101533 -1.4070e+002 -1.6533e+002  1.3147e+002 31253 101556,101314,101236
 6.0000e-001 101510 -2.1122e+002 -1.9720e+002  1.4244e+002 31253 101556,101236,101210
 6.0000e-001 101487 -2.0748e+002 -1.6701e+002  5.5816e+001 31253 101210,101392,101340
 6.0000e-001 101464 -1.0002e+002 -1.5768e+002  9.4184e+001 31253 101236,101288,101262
 6.0000e-001 101441 -1.1778e+002 -2.2279e+002  1.0963e+002 31253 101236,101314,101288
 6.0000e-001 101418 -1.8748e+002 -1.4807e+002  8.3129e+001 31253 101340,101392,101366
 6.0000e-001 101582 -1.6209e+002 -1.2573e+002  6.6407e+001 31253 101340,101314,101556
 6.0000e-001 101605 -2.3491e+002 -1.5911e+002  8.0228e+001 31253 101340,101556,101210
 6.0000e-001 101755  3.5530e+001  5.6276e+001  7.6743e+001 30519 101778,101654,101628
 6.0000e-001 101732 -5.9202e+001  1.2189e+002  1.1605e+001 30519 101850,101778,101628
 6.0000e-001 101804 -4.9368e+001 -8.8856e+001  3.6605e+001 30519 101680,101654,101778
 6.0000e-001 101827 -7.2319e+001  4.2363e+001  2.1147e+001 30519 101680,101778,101706
 6.0000e-001 101876 -1.1257e+002 -1.2049e+000  4.1812e+000 30519 101706,101778,101850
 6.0000e-001 102561 -1.7559e+002 -2.3110e+002  1.0010e+002 29951 102656,102584,102270
 6.0000e-001 102538 -3.0461e+002 -4.1254e+002  9.4522e+001 29951 102584,102140,102374
 6.0000e-001 102515 -2.3210e+002 -3.8357e+002  1.6393e+002 29951 102728,102656,102270
 6.0000e-001 102492 -2.2175e+002 -4.4188e+002  1.5516e+002 29951 102728,102270,102244
 6.0000e-001 102469 -2.5130e+002 -5.2047e+001  1.1482e+002 29951 102800,102322,102296
 6.0000e-001 102446 -2.9496e+002 -2.6314e+002  5.2081e+001 29951 102166,102218,102192
 6.0000e-001 102423 -2.2601e+002 -2.4524e+002  4.9357e+001 29951 102166,102244,102218
 6.0000e-001 102400 -1.5353e+002 -1.7393e+002  9.8380e+001 29951 102322,102374,102348
 6.0000e-001 102610 -3.1094e+002 -1.7392e+002  7.4429e+001 29951 102296,102270,102584
 6.0000e-001 102633 -3.2165e+002 -1.7700e+002  8.6891e+001 29951 102800,102296,102584
 6.0000e-001 102682 -3.1732e+002 -3.4147e+002  1.7089e+002 29951 102140,102584,102656
 6.0000e-001 102705 -2.4651e+002 -3.7873e+002  2.1395e+002 29951 102140,102656,102166
 6.0000e-001 102754 -2.1217e+002 -3.1208e+002  1.9105e+002 29951 102166,102656,102728
 6.0000e-001 102777 -2.1387e+002 -3.6932e+002  1.6967e+002 29951 102166,102728,102244
 6.0000e-001 102826 -1.9030e+002 -1.9408e+002  1.7443e+002 29951 102374,102322,102800
 6.0000e-001 102849 -2.1148e+002 -2.3543e+002  1.6684e+002 29951 102374,102800,102584
 6.0000e-001 103048 -2.3580e+001 -9.1342e+001  5.1654e+001 29454 102872,102924,102898
 6.0000e-001 103025 -5.9335e+001 -7.5130e+001  5.7689e+001 29454 102872,102976,102924
 6.0000e-001 103002 -6.2643e+001 -1.3513e+002  7.0747e+001 29454 102924,102976,102950
 6.0000e-001 103296 -2.9166e+002 -2.0362e+002  1.5742e+002 29064 103319,103175,103123
 6.0000e-001 103273 -3.2909e+002 -2.0695e+002  1.6540e+002 29064 103319,103123,103071
 6.0000e-001 103250 -1.8436e+002 -1.3301e+002  1.2443e+002 29064 103123,103175,103149
 6.0000e-001 103227 -2.6415e+002 -1.4923e+002  1.9267e+002 29064 103071,103123,103097
 6.0000e-001 103345 -2.5284e+002 -2.1399e+002  1.3720e+002 29064 103201,103175,103319
 6.0000e-001 103368 -3.0679e+002 -2.1722e+002  1.3105e+002 29064 103201,103319,103071
 6.0000e-001 104006 -2.5123e+002 -1.4323e+002  1.0495e+002 28603 104101,104029,103712
 6.0000e-001 103983 -2.4107e+002 -1.0442e+002  9.2633e+001 28603 104173,104029,103660
 6.0000e-001 103960 -3.0879e+002 -1.1740e+002  1.0271e+002 28603 104101,103712,103686
 6.0000e-001 103937 -2.0990e+002 -1.4432e+002  8.0369e+001 28603 104173,103660,103634
 6.0000e-001 103914 -2.3739e+002 -1.8447e+002  1.2447e+002 28603 103764,103816,103790
 6.0000e-001 103891 -2.0091e+002 -1.5993e+002  1.4066e+002 28603 103634,103842,103816
 6.0000e-001 103868 -1.7478e+002 -8.2063e+001  1.2115e+002 28603 103712,103764,103738
 6.0000e-001 104055 -2.3269e+002 -1.1198e+002  9.7028e+001 28603 103764,103712,104029
 6.0000e-001 104078 -2.3528e+002 -1.3066e+002  1.2932e+002 28603 103764,104029,103816
 6.0000e-001 104127 -3.2859e+002 -1.3864e+002  8.5149e+001 28603 103660,104029,104101
 6.0000e-001 104150 -4.1526e+002 -1.3241e+002  9.8642e+001 28603 103660,104101,103686
 6.0000e-001 104199 -2.6655e+002 -1.4516e+002  1.0408e+002 28603 103816,104029,104173
 6.0000e-001 104222 -2.3050e+002 -1.7419e+002  9.1446e+001 28603 103816,104173,103634
 6.0000e-001 104600 -9.1620e+001 -1.9598e+002  4.4733e+001 28348 104623,104378,104326
 6.0000e-001 104577 -6.5123e+001 -2.0355e+002  7.2992e+001 28348 104623,104326,104482
 6.0000e-001 104554 -1.0368e+002 -1.5530e+002  4.7252e+001 28348 104326,104378,104352
 6.0000e-001 104531 -8.9738e+001  6.5228e+000  1.0196e+001 28348 104404,104456,104430
 6.0000e-001 104508 -1.1742e+002 -1.0978e+002  8.0743e+001 28348 104378,104456,104404
 6.0000e-001 104649 -7.5434e+001 -1.7336e+002  6.5173e+001 28348 104456,104378,104623
 6.0000e-001 104672 -4.0526e+001 -1.7439e+002  9.4188e+001 28348 104456,104623,104482
 6.0000e-001 104991 -2.4561e+002 -2.7310e+002  1.7977e+002 27951 104717,104847,104769
 6.0000e-001 104968 -8.2173e+001 -1.9422e+002  1.5592e+002 27951 104717,104873,104847
 6.0000e-001 104945 -1.0087e+002 -2.4562e+002  1.8252e+002 27951 104769,104847,104795
 6.0000e-001 104922 -1.2705e+001 -2.5298e+001  1.7827e+002 27951 104795,104847,104821
 6.0000e-001 104899 -2.0167e+002 -1.7366e+002  1.7218e+002 27951 104717,104769,104743
 6.0000e-001 105371 -1.9822e+002 -1.0008e+002  1.2447e+002 27447 105394,105201,105123
 6.0000e-001 105348 -1.9690e+002 -1.0229e+002  1.1995e+002 27447 105394,105123,105097
 6.0000e-001 105325 -3.4870e+002 -1.4481e+002  1.4213e+002 27447 105123,105201,105149
 6.0000e-001 105302 -2.2368e+002 -1.5386e+002  1.1513e+002 27447 105201,105253,105227
 6.0000e-001 105279 -1.8341e+002 -2.4616e+002  3.2258e+001 27447 105149,105201,105175
 6.0000e-001 105420 -1.9846e+002 -1.0403e+002  1.2372e+002 27447 105253,105201,105394
 6.0000e-001 105443 -1.9851e+002 -1.0853e+002  1.1932e+002 27447 105253,105394,105097
 6.0000e-001 105998 -2.0741e+002 -1.7750e+002  1.5810e+002 27100 106165,106021,105704
 6.0000e-001 105975 -1.2284e+002 -1.0951e+002  1.3691e+002 27100 106309,106021,105652
 6.0000e-001 105952 -3.9074e+002 -2.9180e+002  2.6452e+002 27100 106093,105808,105782
 6.0000e-001 105929 -2.0982e+002 -1.7962e+002  1.5977e+002 27100 106165,105704,105678
 6.0000e-001 105906 -1.3957e+002 -1.9330e+002  1.2128e+002 27100 106237,105730,105704
 6.0000e-001 105883 -1.1032e+002 -1.7137e+002  9.2648e+001 27100 106309,105652,105626
 6.0000e-001 105860 -1.1687e+002 -1.1101e+001  4.3786e+001 27100 105730,105782,105756
 6.0000e-001 106047 -1.9354e+002 -1.2971e+002  1.5497e+002 27100 106237,105704,106021
 6.0000e-001 106070 -2.3030e+002 -1.5399e+002  1.9692e+002 27100 106093,105782,106021
 6.0000e-001 106119 -1.6888e+002 -2.2533e+002  1.4176e+002 27100 105834,105808,106093
 6.0000e-001 106142 -1.8043e+002 -2.8719e+002  1.7144e+002 27100 106381,106093,106021
 6.0000e-001 106191 -2.1172e+002 -1.7078e+002  1.6505e+002 27100 105652,106021,106165
 6.0000e-001 106214 -2.2004e+002 -1.8275e+002  1.6880e+002 27100 105652,106165,105678
 6.0000e-001 106263 -8.9198e+001 -1.2284e+002  9.9242e+001 27100 105782,105730,106237
 6.0000e-001 106286 -1.5540e+002 -7.6508e+001  1.3815e+002 27100 105782,106237,106021
 6.0000e-001 106335 -1.6284e+002 -2.0376e+002  1.4511e+002 27100 106381,106021,106309
 6.0000e-001 106358 -1.2208e+002 -1.7304e+002  9.4828e+001 27100 105834,106309,105626
 6.0000e-001 106407 -1.3568e+002 -1.8837e+002  1.1723e+002 27100 105834,106093,106381
 6.0000e-001 106430 -1.4004e+002 -1.6917e+002  8.6690e+001 27100 105834,106381,106309
 6.0000e-001 106629 -3.0090e+001 -1.7424e+002  3.4919e+001 26688 106479,106557,106531
 6.0000e-001 106606 -1.5597e+001 -7.2822e+001  5.1080e+001 26688 106453,106557,106479
 6.0000e-001 106583 -7.6514e+001 -1.8679e+002  1.9530e+001 26688 106479,106531,106505
 6.0000e-001 107088 -1.0425e+002 -1.0906e+002  5.9152e+001 26248 107111,106918,106866
 6.0000e-001 107065 -1.1435e+002 -9.6167e+001  7.2069e+001 26248 107111,106866,106840
 6.0000e-001 107042 -1.1002e+002 -9.5100e+001  6.3265e+001 26248 106814,106970,106840
 6.0000e-001 107019 -9.9075e+001 -1.5171e+002  7.3232e+001 26248 106866,106918,106892
 6.0000e-001 106996 -2.0793e+002 -1.7812e+002  6.7371e+001 26248 106918,106970,106944
 6.0000e-001 107137 -1.2562e+002 -1.2736e+002  4.5224e+001 26248 106970,106918,107111
 6.0000e-001 107160 -1.2075e+002 -1.0059e+002  6.0221e+001 26248 106970,107111,106840
 6.0000e-001 107666 -2.8724e+002 -1.5872e+002  8.4453e+001 25908 107369,107499,107395
 6.0000e-001 107643 -3.7248e+002 -3.8116e+002  1.6331e+002 25908 107369,107525,107499
 6.0000e-001 107620 -2.4226e+002 -1.7231e+002  1.2829e+002 25908 107395,107473,107447
 6.0000e-001 107597 -2.0668e+002 -1.2055e+002  1.0627e+002 25908 107395,107499,107473
 6.0000e-001 107574 -3.7471e+002 -2.0110e+002  2.7004e+002 25908 107395,107447,107421
 6.0000e-001 107551 -1.8788e+002 -2.9504e+002  1.9111e+002 25908 107343,107525,107369
 6.0000e-001 108251 -2.4633e+002 -9.2603e+001  1.3764e+002 25454 108274,108006,107954
 6.0000e-001 108228 -1.9494e+002 -5.5162e+001  1.1516e+002 25454 108274,107954,108110
 6.0000e-001 108205 -1.7309e+002 -1.8686e+002  1.6022e+002 25454 108346,108032,108006
 6.0000e-001 108182 -2.8501e+002 -1.2678e+002  1.6160e+002 25454 107954,108006,107980
 6.0000e-001 108159 -9.4558e+001 -1.2516e+002  1.0221e+002 25454 107928,108110,107954
 6.0000e-001 108136 -3.1209e+002 -3.2886e+002  1.7738e+002 25454 108058,108110,108084
 6.0000e-001 108300 -2.2951e+002 -1.3318e+002  1.6404e+002 25454 108346,108006,108274
 6.0000e-001 108323 -2.0831e+002 -9.6136e+001  1.2544e+002 25454 108058,108274,108110
 6.0000e-001 108372 -9.3423e+001 -1.2829e+002  1.3331e+002 25454 108058,108032,108346
 6.0000e-001 108395 -1.6078e+002 -7.2815e+001  1.3449e+002 25454 108058,108346,108274
 6.0000e-001 108822 -1.6098e+002 -8.2732e+001  9.0789e+001 24943 108525,108681,108655
 6.0000e-001 108799 -2.0987e+002 -1.1651e+002  4.8600e+001 24943 108499,108681,108525
 6.0000e-001 108776 -1.1327e+002 -6.3991e+001  6.5605e+001 24943 108525,108655,108629
 6.0000e-001 108753 -1.8427e+002 -7.5941e+001  7.1898e+001 24943 108525,108629,108603
 6.0000e-001 108730 -2.0895e+002 -1.1543e+002  1.0518e+002 24943 108551,108603,108577
 6.0000e-001 108707 -2.4818e+002 -1.4005e+002  1.1568e+002 24943 108525,108603,108551
 6.0000e-001 109407  1.5757e+001 -3.6425e+001  2.9699e+001 24745 109162,109214,109188
 6.0000e-001 109384 -8.1802e+001 -4.9217e+001  3.5174e+001 24745 109162,109266,109214
 6.0000e-001 109361 -9.7084e+001 -3.1706e+001  1.3310e+001 24745 109084,109266,109162
 6.0000e-001 109338 -1.3065e+002 -1.8952e+001  2.7843e+001 24745 109084,109162,109136
 6.0000e-001 109315 -2.2637e+001 -6.1752e+001  3.1576e+001 24745 109214,109266,109240
 6.0000e-001 109292 -8.6459e+001 -2.9430e+001  5.1597e+001 24745 109084,109136,109110
 6.0000e-001 109785 -3.2614e+002 -1.9452e+002  1.8529e+002 24341 109537,109615,109563
 6.0000e-001 109762 -5.9135e+001 -1.3596e+002  1.7104e+002 24341 109537,109641,109615
 6.0000e-001 109739 -2.1109e+002 -1.8605e+002  1.4650e+002 24341 109563,109615,109589
 6.0000e-001 109716 -1.5740e+002 -1.9053e+002  1.1750e+002 24341 109537,109667,109641
 6.0000e-001 109693 -7.1647e+001 -1.8921e+002  1.1526e+002 24341 109511,109667,109537
 6.0000e-001 110163 -2.9186e+002 -1.7659e+002  1.9452e+002 23837 110186,109967,109915
 6.0000e-001 110140 -2.8557e+002 -1.7604e+002  1.9630e+002 23837 110186,109915,109889
 6.0000e-001 110117 -1.4080e+002 -7.8058e+001  1.5000e+002 23837 109889,110045,109993
 6.0000e-001 110094 -2.7410e+002 -2.7260e+002  1.3914e+002 23837 109915,109967,109941
 6.0000e-001 110071 -1.7666e+002 -1.8374e+000  3.5575e+001 23837 109993,110045,110019
 6.0000e-001 110212 -2.8823e+002 -1.7441e+002  1.9705e+002 23837 109993,109967,110186
 6.0000e-001 110235 -2.8573e+002 -1.7492e+002  1.9914e+002 23837 109993,110186,109889
 6.0000e-001 110336 -1.8920e+002 -4.3365e+002  1.9525e+002 23433 110258,110310,110284
 6.0000e-001 110584 -2.6178e+002 -1.5669e+002  1.2277e+002 22829 110607,110411,110385
 6.0000e-001 110561 -2.8627e+002 -1.6670e+002  1.1925e+002 22829 110607,110385,110489
 6.0000e-001 110538 -2.6972e+002 -1.4819e+002  9.7474e+001 22829 110437,110489,110463
 6.0000e-001 110515 -1.9402e+002 -9.2314e+001  1.5661e+002 22829 110359,110489,110385
 6.0000e-001 110633 -2.7048e+002 -1.6220e+002  1.0661e+002 22829 110437,110411,110607
 6.0000e-001 110656 -2.8334e+002 -1.6593e+002  1.0352e+002 22829 110437,110607,110489
 6.0000e-001 110906 -4.2186e+002 -1.7892e+002  1.0938e+002 22432 110707,110759,110733
 6.0000e-001 110883 -3.2926e+002 -1.8646e+002  9.3650e+001 22432 110707,110785,110759
 6.0000e-001 110860 -2.7319e+002 -1.4288e+002  1.6917e+002 22432 110707,110811,110785
 6.0000e-001 110837 -3.4383e+002 -2.3069e+002  1.3667e+002 22432 110681,110811,110707
 6.0000e-001 111288 -6.9521e+000 -6.0568e+001  7.9483e+001 22142 111092,111144,111118
 6.0000e-001 111265 -1.1479e+002 -7.6326e+001  7.4818e+001 22142 111066,111144,111092
 6.0000e-001 111242 -9.6013e+001 -2.9980e+001  7.7252e+001 22142 111040,111144,111066
 6.0000e-001 111219 -1.8491e+002 -1.6255e+001  5.6850e+001 22142 111014,111144,111040
 6.0000e-001 111196 -9.4152e+001  2.6353e+001  4.5305e+001 22142 111014,111170,111144
 6.0000e-001 111389 -1.1092e+001 -4.6825e+001  9.4960e+001 21830 111311,111363,111337
 6.0000e-001 111735 -2.3040e+002  1.5691e+001  2.1624e+002 21268 111758,111542,111438
 6.0000e-001 111712 -1.7027e+002  3.0295e+001  1.3227e+002 21268 111758,111438,111412
 6.0000e-001 111689 -6.1712e+001 -1.2141e+002  2.5313e+002 21268 111438,111542,111464
 6.0000e-001 111666  7.0697e+001 -5.9722e+001  3.1071e+002 21268 111464,111542,111490
 6.0000e-001 111643 -4.0962e+002 -2.4337e+002  2.1536e+002 21268 111412,111594,111568
 6.0000e-001 111620  2.6191e+002  1.3609e+002  3.9433e+002 21268 111490,111542,111516
 6.0000e-001 111784 -2.3825e+002 -3.8321e+001  2.0906e+002 21268 111568,111542,111758
 6.0000e-001 111807 -2.3647e+002 -1.4383e+002  1.5131e+002 21268 111568,111758,111412
 6.0000e-001 111959 -2.7214e+002 -2.3050e+001  8.5857e+001 20864 111982,111910,111884
 6.0000e-001 111936 -2.3375e+002 -9.9565e+000  1.2566e+002 20864 112114,111832,111910
 6.0000e-001 112008 -2.5620e+002 -5.3665e+001  1.0798e+002 20864 112114,111910,111982
 6.0000e-001 112140 -2.2659e+002 -6.2259e+001  9.5578e+001 20864 111858,111832,112114
 6.0000e-001 112163 -2.5134e+002 -1.1377e+002  7.8882e+001 20864 111858,112114,111982
 6.0000e-001 112411 -4.8306e+001  3.1286e+001  1.2129e+001 20324 112186,112290,112212
 6.0000e-001 112388 -1.6255e+001  4.8188e+001  5.7615e+000 20324 112186,112316,112290
 6.0000e-001 112365  1.2500e+002 -9.8205e+001 -1.5724e+000 20324 112212,112290,112264
 6.0000e-001 112342 -5.3405e+002 -2.2871e+002 -3.5276e+001 20324 112212,112264,112238
 6.0000e-001 112659 -8.1990e+001 -3.2008e+001  1.4196e+002 19920 112512,112564,112538
 6.0000e-001 112636 -1.3129e+002 -8.2566e+001  1.2163e+002 19920 112434,112564,112512
 6.0000e-001 112613 -1.3446e+002 -8.1612e+001  1.1704e+002 19920 112434,112512,112460
 6.0000e-001 112590 -1.3736e+002 -9.2546e+001  1.1923e+002 19920 112460,112512,112486
 6.0000e-001 112811 -1.0595e+002 -4.3264e+001  1.1738e+002 19630 112684,112736,112710
 6.0000e-001 112788 -1.5481e+001 -4.6315e+001  7.2237e+001 19630 112684,112762,112736
 6.0000e-001 113012 -1.4811e+002 -5.9739e+001  1.5488e+002 19169 112862,112940,112888
 6.0000e-001 112989 -2.4567e+002 -1.7575e+002  1.1022e+002 19169 112836,112940,112862
 6.0000e-001 112966 -1.6234e+002 -2.1801e+002  1.4037e+002 19169 112888,112940,112914
 6.0000e-001 113213 -3.2849e+002 -1.3537e+002  1.8566e+002 18600 113037,113089,113063
 6.0000e-001 113190 -3.0011e+002 -1.4564e+002  1.8218e+002 18600 113037,113115,113089
 6.0000e-001 113167 -3.4140e+002 -2.0191e+002  2.2222e+002 18600 113037,113141,113115
 6.0000e-001 113485 -1.4791e+002 -5.9976e+001  1.4813e+002 18352 113260,113312,113286
 6.0000e-001 113462 -2.9167e+002 -1.8337e+002  2.0145e+002 18352 113260,113390,113312
 6.0000e-001 113439 -2.7490e+002 -8.1280e+001  1.6526e+002 18352 113312,113390,113364
 6.0000e-001 113416 -1.7054e+002 -6.8671e+001  1.6840e+002 18352 113312,113364,113338
 6.0000e-001 113757 -2.2065e+002 -9.0289e+001  1.6574e+002 17834 113558,113610,113584
 6.0000e-001 113734 -3.0175e+002 -1.6092e+002  2.0093e+002 17834 113532,113610,113558
 6.0000e-001 113711 -3.1868e+002 -2.1142e+002  1.6741e+002 17834 113532,113662,113610
 6.0000e-001 113688 -1.6409e+002 -6.2175e+001  2.2875e+002 17834 113610,113662,113636
 6.0000e-001 113958 -2.0251e+002 -8.4592e+001  1.1897e+002 17330 113782,113834,113808
 6.0000e-001 113935 -1.0921e+002 -7.8864e+001  8.8438e+001 17330 113782,113886,113834
 6.0000e-001 113912 -1.3720e+002 -6.5162e+001  5.5412e+001 17330 113834,113886,113860
 6.0000e-001 114110 -3.2461e+002 -1.3232e+002  2.0837e+002 16874 113983,114035,114009
 6.0000e-001 114087 -1.2181e+002 -2.8390e+002  1.6658e+002 16874 113983,114061,114035
 6.0000e-001 114465 -2.5472e+002 -1.0843e+002  6.9160e+001 16270 114240,114292,114266
 6.0000e-001 114442 -2.3669e+002 -7.4135e+001  5.0970e+001 16270 114240,114370,114292
 6.0000e-001 114419 -1.3965e+002 -5.8799e+001  8.2650e+001 16270 114292,114344,114318
 6.0000e-001 114396 -2.6112e+002 -1.2183e+002  4.1243e+001 16270 114292,114370,114344
 6.0000e-001 114566 -8.3069e+000  8.3069e+000  2.7678e+002 15834 114488,114540,114514
 6.0000e-001 114667 -1.9016e+002 -7.9046e+001  1.2555e+002 15155 114589,114641,114615
 6.0000e-001 114890 -1.9626e+002 -8.1083e+001  1.3932e+002 421 114766,114818,114792
 6.0000e-001 114867 -2.6119e+002 -2.0437e+002  1.1511e+002 421 114714,114818,114766
 6.0000e-001 114844 -3.1143e+002 -1.3284e+002  6.4129e+001 421 114714,114766,114740
 7.0000e-001 66553 -2.8791e+002 -1.2751e+002  1.6062e+002 66108 66354,66458,66432
 7.0000e-001 66530 -2.9864e+002 -1.2655e+002  1.0652e+002 66108 66328,66458,66354
 7.0000e-001 66507 -1.5194e+002 -1.0175e+002  9.9207e+001 66108 66354,66432,66406
 7.0000e-001 66484  8.7912e+001  4.2816e+001  1.8254e+002 66108 66354,66406,66380
 7.0000e-001 66951 -2.1375e+002 -9.0356e+001  9.0557e+001 65910 66703,66833,66807
 7.0000e-001 66928 -2.7106e+001 -7.1210e+001  1.2690e+002 65910 66677,66833,66703
 7.0000e-001 66905 -9.6015e+001 -1.5426e+002  1.2251e+002 65910 66729,66781,66755
 7.0000e-001 66882 -2.6650e+002 -1.1193e+002  1.2129e+002 65910 66729,66807,66781
 7.0000e-001 66859 -2.2059e+002 -4.7045e+001  1.0065e+002 65910 66703,66807,66729
 7.0000e-001 67150 -2.7401e+002 -1.1467e+002  1.3537e+002 65712 67026,67078,67052
 7.0000e-001 67127 -3.0030e+002 -4.7793e+001  1.1069e+002 65712 66974,67078,67026
 7.0000e-001 67104 -1.0901e+003 -5.5894e+002  4.1704e+002 65712 66974,67026,67000
 7.0000e-001 67481 -4.6566e+002 -1.2118e+002  1.9365e+002 65422 67282,67360,67334
 7.0000e-001 67458 -2.2778e+002 -8.6018e+001  2.7248e+002 65422 67282,67386,67360
 7.0000e-001 67435 -9.5778e+001  6.2200e+001  1.3380e+002 65422 67282,67334,67308
 7.0000e-001 67412 -1.1039e+002 -1.1132e+002  1.8721e+002 65422 67256,67386,67282
 7.0000e-001 68115 -1.4837e+002 -1.5350e+002  8.4960e+001 65018 67795,67925,67873
 7.0000e-001 68092 -1.6937e+002 -1.6293e+002  5.9193e+001 65018 67769,67925,67795
 7.0000e-001 68069 -1.2153e+002 -7.9866e+001  9.9084e+001 65018 67873,67925,67899
 7.0000e-001 68046 -2.2888e+002 -2.1464e+002  8.1354e+001 65018 67769,67951,67925
 7.0000e-001 68023 -1.9937e+002 -2.1332e+002  1.0808e+002 65018 67795,67873,67821
 7.0000e-001 68000 -2.0411e+002 -1.9539e+002  8.7253e+001 65018 67821,67873,67847
 7.0000e-001 67977 -3.5586e+002 -1.6272e+002  1.6914e+002 65018 67743,67951,67769
 7.0000e-001 68363 -1.0923e+002 -2.4196e+002  2.3302e+002 64820 68190,68242,68216
 7.0000e-001 68340 -2.2484e+002 -1.6835e+002  2.4794e+002 64820 68190,68268,68242
 7.0000e-001 68317 -1.2139e+002 -1.1981e+002  2.7147e+002 64820 68164,68268,68190
 7.0000e-001 68294 -4.8730e+002 -2.0189e+002  2.1051e+002 64820 68138,68268,68164
 7.0000e-001 68513 -1.8120e+002 -1.1250e+002  1.4857e+002 64366 68868,68536,68438
 7.0000e-001 68490 -1.1424e+002 -8.9244e+001  8.2399e+001 64366 68536,68412,68386
 7.0000e-001 68562 -3.0208e+002 -1.7812e+002  1.5276e+002 64366 68740,68536,68464
 7.0000e-001 68585 -1.6544e+002 -1.1226e+002  1.0338e+002 64366 68608,68536,68386
 7.0000e-001 68634 -2.3943e+002 -2.6286e+002  7.9768e+001 64366 68464,68536,68608
 7.0000e-001 68766 -1.6403e+002 -1.0818e+002  1.2564e+002 64366 68438,68536,68740
 7.0000e-001 68894 -1.7033e+002 -1.0285e+002  1.5334e+002 64366 68412,68536,68868
 7.0000e-001 69172  4.2761e+001 -2.5849e+002  8.1532e+001 64168 69022,69074,69048
 7.0000e-001 69149 -1.4106e+002 -5.8092e+001  1.2387e+002 64168 68996,69074,69022
 7.0000e-001 69126 -2.2151e+002 -2.3078e+002  6.4352e+001 64168 68996,69100,69074
 7.0000e-001 69371 -2.2860e+002 -9.5525e+001  1.7677e+002 63970 69466,69394,69273
 7.0000e-001 69348 -1.4258e+002 -9.8796e+001  8.5824e+001 63970 69394,69247,69221
 7.0000e-001 69325 -4.3112e+002 -1.8186e+002  1.3638e+002 63970 69195,69299,69221
 7.0000e-001 69420 -3.1614e+002 -1.5568e+002  2.1542e+002 63970 69299,69273,69394
 7.0000e-001 69443 -2.2422e+002 -1.7655e+002  1.3942e+002 63970 69299,69394,69221
 7.0000e-001 69492 -2.5840e+002 -1.4460e+002  1.6424e+002 63970 69247,69394,69466
 7.0000e-001 69904 -2.8665e+001 -7.2610e+001  2.9576e+001 63680 69705,69783,69731
 7.0000e-001 69881 -5.9452e+000 -5.5837e+001  2.1114e+001 63680 69679,69783,69705
 7.0000e-001 69858 -5.5269e+001 -1.4032e+002  5.0187e+001 63680 69679,69809,69783
 7.0000e-001 69835 -4.2089e+001 -5.1407e+001  3.5252e+001 63680 69731,69783,69757
 7.0000e-001 70054 -1.0508e+001 -1.3120e+002  8.3524e+001 63476 70077,69953,69927
 7.0000e-001 70031  3.8493e+001 -5.6310e+001  1.1926e+002 63476 70077,69927,70005
 7.0000e-001 70103 -7.4728e+001 -8.1020e+001  5.1700e+001 63476 69979,69953,70077
 7.0000e-001 70126 -3.4761e+001 -1.3868e+001  8.1711e+001 63476 69979,70077,70005
 7.0000e-001 70325 -3.9155e+002 -1.5647e+002  2.2722e+002 63278 70149,70227,70175
 7.0000e-001 70302 -1.7575e+002 -6.6372e+001  2.4074e+002 63278 70149,70253,70227
 7.0000e-001 70279 -5.0124e+002 -1.8060e+002  1.1126e+002 63278 70175,70227,70201
 7.0000e-001 70597 -1.7281e+002 -5.8269e+000  8.6565e+001 63080 70372,70476,70424
 7.0000e-001 70574 -8.5599e+001 -3.4732e+001  1.1224e+002 63080 70372,70502,70476
 7.0000e-001 70551 -2.5494e+002 -1.0633e+002  1.3727e+002 63080 70424,70476,70450
 7.0000e-001 70528 -3.4214e+002 -1.1180e+002  2.2148e+002 63080 70372,70424,70398
 7.0000e-001 70847 -5.5865e-001 -1.4775e+002  4.1383e+001 62740 70870,70648,70622
 7.0000e-001 70824 -1.0100e+002 -1.0591e+002  8.7996e+001 62740 70870,70622,70752
 7.0000e-001 70801 -1.7542e+001 -2.5061e+002  1.1023e+002 62740 70648,70726,70700
 7.0000e-001 70778 -1.4476e+001 -3.0969e+002  1.0057e+002 62740 70648,70700,70674
 7.0000e-001 70896 -9.8813e+001 -1.9782e+002  2.2691e+001 62740 70726,70648,70870
 7.0000e-001 70919 -1.4330e+002 -1.2266e+002  8.3017e+001 62740 70726,70870,70752
 7.0000e-001 71022 -1.1305e+001  1.1305e+001  3.2283e+002 62520 70944,70996,70970
 7.0000e-001 71223 -3.1694e+002 -1.6280e+002  2.1931e+002 62230 71073,71151,71099
 7.0000e-001 71200 -3.0944e+002 -1.5261e+002  2.2942e+002 62230 71047,71151,71073
 7.0000e-001 71177 -1.5929e+002 -2.7280e+002  1.7860e+002 62230 71099,71151,71125
 7.0000e-001 71861 -2.7572e+002 -3.0505e+002  1.6564e+001 61712 71515,71697,71671
 7.0000e-001 71838 -2.6767e+002 -2.8623e+002  2.2010e+001 61712 71489,71697,71515
 7.0000e-001 71815 -5.0896e+002 -3.1314e+002  1.2817e+002 61712 71884,71541,71515
 7.0000e-001 71792 -3.7849e+002 -2.4712e+002  1.0105e+002 61712 71884,71515,71671
 7.0000e-001 71769 -1.4565e+002 -3.4104e+002  1.0020e+002 61712 71541,71619,71593
 7.0000e-001 71746 -1.9575e+002 -4.7396e+002 -5.2234e+000 61712 71619,71671,71645
 7.0000e-001 71723 -3.6348e+002 -5.0368e+002  2.5926e+002 61712 71541,71593,71567
 7.0000e-001 71910 -3.8579e+002 -3.7986e+002  1.7290e+002 61712 71619,71541,71884
 7.0000e-001 71933 -2.9378e+002 -3.3930e+002  1.5782e+002 61712 71619,71884,71671
 7.0000e-001 72230 -8.7240e+001 -8.5523e+000  6.3628e+000 61208 72253,72060,72008
 7.0000e-001 72207 -1.0405e+002 -2.3800e+001 -3.5329e+000 61208 72253,72008,71982
 7.0000e-001 72184 -8.1888e+001 -2.1410e+001  1.2810e+001 61208 71982,72112,72086
 7.0000e-001 72161 -1.2789e+002 -4.7078e+000  2.7767e+001 61208 72008,72060,72034
 7.0000e-001 72138 -4.9847e+001 -1.9847e+001  3.0264e+001 61208 71956,72112,71982
 7.0000e-001 72279 -6.9766e+001 -2.0355e+001  1.4550e+001 61208 72086,72060,72253
 7.0000e-001 72302 -8.4770e+001 -2.7881e+001  7.4932e+000 61208 72086,72253,71982
 7.0000e-001 72761 -1.8642e+002 -1.1405e+002  9.7292e+001 60804 72487,72617,72513
 7.0000e-001 72738 -2.0374e+002 -2.0987e+002  1.0018e+002 60804 72487,72643,72617
 7.0000e-001 72715 -6.8875e+001 -9.4670e+001  8.0547e+001 60804 72565,72617,72591
 7.0000e-001 72692 -1.3294e+002 -7.9411e+001  7.8728e+001 60804 72513,72617,72565
 7.0000e-001 72669 -1.6737e+002 -1.2925e+002  1.3614e+002 60804 72513,72565,72539
 7.0000e-001 72911 -1.1305e+001  1.1305e+001  3.2283e+002 60556 72784,72836,72810
 7.0000e-001 72888  2.5919e+002 -1.4673e+001  1.9368e+002 60556 72784,72862,72836
 7.0000e-001 73468 -1.1875e+002 -1.3563e+002  8.1402e+001 60244 73491,73226,73200
 7.0000e-001 73445 -1.9233e+002 -2.2025e+002  1.3482e+002 60244 73563,73491,73200
 7.0000e-001 73422 -2.9391e+002 -2.1271e+002  1.4988e+002 60244 73563,73200,73174
 7.0000e-001 73399 -1.3123e+002 -2.5245e+002  1.0978e+002 60244 73226,73278,73252
 7.0000e-001 73376 -2.4008e+002 -1.7030e+002  1.0716e+002 60244 73122,73304,73278
 7.0000e-001 73353 -2.5894e+002 -2.7995e+002  1.1647e+002 60244 73096,73304,73122
 7.0000e-001 73330 -5.3464e+002 -2.4285e+002  2.9358e+002 60244 73122,73174,73148
 7.0000e-001 73517 -2.4615e+002 -2.0466e+002  1.3222e+002 60244 73278,73226,73491
 7.0000e-001 73540 -2.2323e+002 -1.4092e+002  1.2254e+002 60244 73278,73491,73122
 7.0000e-001 73589 -3.6706e+002 -2.0428e+002  1.3788e+002 60244 73122,73491,73563
 7.0000e-001 73612 -4.6778e+002 -1.9783e+002  1.5877e+002 60244 73122,73563,73174
 7.0000e-001 73762 -2.3905e+002 -5.7031e+002  1.6150e+002 59875 73661,73713,73687
 7.0000e-001 73739 -2.5779e+002 -1.8349e+002  1.7713e+002 59875 73635,73713,73661
 7.0000e-001 74191 -6.1907e+001 -1.4226e+002  1.9788e+002 59478 74214,73894,73868
 7.0000e-001 74168 -1.5983e+002 -1.3653e+002  2.1360e+002 59478 74214,73868,74050
 7.0000e-001 74145 -6.2354e+001 -8.7013e+001  1.0836e+002 59478 73894,73946,73920
 7.0000e-001 74122 -1.5748e+002 -1.2790e+002  1.3796e+002 59478 73894,73998,73946
 7.0000e-001 74099 -4.8303e+002 -2.8650e+002  3.6017e+002 59478 73998,74050,74024
 7.0000e-001 74076 -1.9654e+002 -2.2628e+001  9.0303e+001 59478 73946,73998,73972
 7.0000e-001 74240 -1.5249e+002 -1.1102e+002  1.6245e+002 59478 73998,73894,74214
 7.0000e-001 74263 -2.4778e+002 -1.0911e+002  1.6253e+002 59478 73998,74214,74050
 7.0000e-001 74720 -2.0291e+002 -2.3150e+002  7.7040e+001 58774 74472,74602,74498
 7.0000e-001 74697 -2.3983e+002 -2.2068e+002  8.7784e+001 58774 74446,74602,74472
 7.0000e-001 74674 -2.0656e+002 -1.7549e+002  8.9271e+001 58774 74498,74576,74524
 7.0000e-001 74651 -2.3574e+002 -2.2757e+002  5.3997e+001 58774 74498,74602,74576
 7.0000e-001 74628 -2.2177e+002 -2.7213e+002  1.1485e+002 58774 74524,74576,74550
 7.0000e-001 75226 -1.4178e+002 -6.1907e+001  7.2353e+001 58270 74955,75085,75033
 7.0000e-001 75203 -1.2778e+002 -9.5231e+001  7.9020e+001 58270 74929,75085,74955
 7.0000e-001 75180 -1.8612e+002 -8.2193e+001  1.0589e+002 58270 75033,75085,75059
 7.0000e-001 75157 -2.7361e+002 -7.3531e+001  7.7341e+001 58270 74955,75007,74981
 7.0000e-001 75134 -1.3722e+002 -5.8806e+001  5.9372e+001 58270 74955,75033,75007
 7.0000e-001 75111 -4.5370e+001 -1.0726e+002  3.9347e+001 58270 74903,75085,74929
 7.0000e-001 75425 -3.9497e+001  8.5943e-001  9.7415e+000 57830 75448,75301,75249
 7.0000e-001 75402 -4.2430e+001 -1.6101e+001  1.6190e+001 57830 75448,75249,75353
 7.0000e-001 75379 -1.4644e+001 -7.8494e+000 -9.3193e+000 57830 75520,75301,75275
 7.0000e-001 75474 -3.9474e+001  9.5421e+000  5.6673e+000 57830 75327,75301,75448
 7.0000e-001 75497 -3.6924e+001  3.0628e+000  1.3067e+001 57830 75327,75448,75353
 7.0000e-001 75546 -2.6813e+001 -2.4176e+000 -5.8111e+000 57830 75249,75301,75520
 7.0000e-001 76261 -1.0068e+002 -1.6054e+002  9.5658e+001 57426 76284,76097,76071
 7.0000e-001 76238 -6.6572e+001 -1.1150e+002  8.3661e+001 57426 75889,76097,75915
 7.0000e-001 76215 -1.4563e+002 -1.5914e+002  1.1879e+002 57426 76428,76284,76071
 7.0000e-001 76192 -1.1801e+002 -1.3807e+002  7.8787e+001 57426 76356,75941,75915
 7.0000e-001 76169 -1.5196e+002 -1.4075e+002  1.1342e+002 57426 76428,76071,76019
 7.0000e-001 76146 -1.5751e+002 -1.5707e+002  1.1182e+002 57426 76019,76071,76045
 7.0000e-001 76123 -1.5011e+002 -1.4689e+002  1.4384e+002 57426 75967,76019,75993
 7.0000e-001 76310 -9.4483e+001 -1.4157e+002  7.1397e+001 57426 75915,76097,76284
 7.0000e-001 76333 -1.1872e+002 -1.5845e+002  7.8982e+001 57426 76356,75915,76284
 7.0000e-001 76382 -1.2537e+002 -1.0978e+002  9.7786e+001 57426 75967,75941,76356
 7.0000e-001 76405 -1.2553e+002 -1.2595e+002  9.4836e+001 57426 75967,76356,76284
 7.0000e-001 76454 -1.2922e+002 -1.4446e+002  1.1256e+002 57426 75967,76284,76428
 7.0000e-001 76477 -1.4621e+002 -1.3592e+002  1.1129e+002 57426 75967,76428,76019
 7.0000e-001 76953 -1.8837e+002 -3.4123e+002  1.4730e+002 56908 76976,76711,76685
 7.0000e-001 76930 -1.9397e+002 -3.5174e+002  1.4185e+002 56908 77048,76976,76685
 7.0000e-001 76907 -3.2141e+002 -3.7301e+002  2.0274e+002 56908 77048,76685,76633
 7.0000e-001 76884 -4.1094e+002 -5.0229e+002  2.5334e+002 56908 76711,76789,76763
 7.0000e-001 76861 -2.2856e+002 -2.4288e+002  1.0790e+002 56908 76581,76789,76607
 7.0000e-001 76838 -4.2525e+002 -4.3347e+002  1.2085e+002 56908 76711,76763,76737
 7.0000e-001 76815 -6.0257e+002 -5.7167e+002  3.5826e+002 56908 76633,76685,76659
 7.0000e-001 77002 -1.9021e+002 -3.4879e+002  1.6653e+002 56908 76789,76711,76976
 7.0000e-001 77025 -2.1914e+002 -2.4575e+002  1.0179e+002 56908 76789,76976,76607
 7.0000e-001 77074 -3.8983e+002 -3.4532e+002  1.4425e+002 56908 76607,76976,77048
 7.0000e-001 77097 -4.5420e+002 -3.0967e+002  1.9768e+002 56908 76607,77048,76633
 7.0000e-001 77475 -1.7505e+002 -3.7831e+002  1.6352e+002 56546 77570,77498,77279
 7.0000e-001 77452 -1.8757e+002 -4.5532e+002  1.6954e+002 56546 77498,77227,77357
 7.0000e-001 77429 -2.0861e+002 -3.9595e+002  2.1976e+002 56546 77570,77279,77253
 7.0000e-001 77406 -2.7026e+002 -4.9729e+002  1.9462e+002 56546 77201,77357,77227
 7.0000e-001 77383 -2.5903e+002 -3.5698e+002  1.3215e+002 56546 77279,77331,77305
 7.0000e-001 77524 -1.9083e+002 -3.2362e+002  1.4374e+002 56546 77331,77279,77498
 7.0000e-001 77547 -1.6640e+002 -3.8807e+002  1.9528e+002 56546 77331,77498,77357
 7.0000e-001 77596 -2.5772e+002 -4.1556e+002  1.8561e+002 56546 77227,77498,77570
 7.0000e-001 77619 -2.7034e+002 -4.4456e+002  2.4628e+002 56546 77227,77570,77253
 7.0000e-001 77818 -2.6522e+002 -3.4324e+002  1.6080e+002 56042 77841,77694,77668
 7.0000e-001 77795 -2.4672e+002 -3.2117e+002  1.1795e+002 56042 77841,77668,77746
 7.0000e-001 77772 -2.6414e+002 -4.4817e+002  1.0672e+002 56042 77642,77746,77668
 7.0000e-001 77867 -2.8678e+002 -3.7779e+002  1.7813e+002 56042 77720,77694,77841
 7.0000e-001 77890 -2.6372e+002 -3.5015e+002  1.3452e+002 56042 77720,77841,77746
 7.0000e-001 78349 -9.0974e+001 -3.7927e+001  4.6166e+001 55538 78075,78127,78101
 7.0000e-001 78326 -1.1696e+002 -6.9471e+001  2.6211e+001 55538 78075,78205,78127
 7.0000e-001 78303 -1.2658e+002 -3.5295e+001  3.0674e+001 55538 78075,78231,78205
 7.0000e-001 78280 -7.1480e+001 -1.0685e+002  6.0563e+001 55538 78127,78179,78153
 7.0000e-001 78257 -7.7128e+001 -6.8684e+001  2.2756e+001 55538 78127,78205,78179
 7.0000e-001 78806 -1.4624e+002 -2.0427e+002  5.4039e+001 55034 78829,78636,78610
 7.0000e-001 78783 -1.7491e+002 -1.8185e+002  6.5202e+001 55034 78901,78829,78610
 7.0000e-001 78760 -1.2884e+002 -1.7653e+002  6.8386e+001 55034 78901,78610,78584
 7.0000e-001 78737 -1.7285e+002 -1.9115e+002  6.9905e+001 55034 78558,78688,78662
 7.0000e-001 78714 -1.6765e+002 -1.5583e+002  1.3827e+002 55034 78532,78688,78558
 7.0000e-001 78855 -1.8813e+002 -2.8646e+002  2.3688e+001 55034 78662,78636,78829
 7.0000e-001 78878 -1.7603e+002 -1.8941e+002  6.9283e+001 55034 78662,78829,78558
 7.0000e-001 78927 -1.4385e+002 -1.6802e+002  9.6687e+001 55034 78558,78829,78901
 7.0000e-001 78950 -1.3110e+002 -1.7604e+002  1.0452e+002 55034 78558,78901,78584
 7.0000e-001 79407 -1.2629e+002 -5.0626e+001  1.2212e+002 54430 79430,79237,79159
 7.0000e-001 79384 -1.7838e+002 -8.7582e+001  1.0216e+002 54430 79430,79159,79133
 7.0000e-001 79361 -1.4278e+002 -2.9804e+001  5.4468e+001 54430 79237,79289,79263
 7.0000e-001 79338 -1.7497e+002 -6.9320e+001  1.0571e+002 54430 79185,79237,79211
 7.0000e-001 79315 -2.3626e+002 -7.5907e+001  1.4158e+002 54430 79159,79237,79185
 7.0000e-001 79456 -1.1926e+002 -9.1210e+001  8.6680e+001 54430 79289,79237,79430
 7.0000e-001 79479 -1.4714e+002 -1.2215e+002  7.1782e+001 54430 79289,79430,79133
 7.0000e-001 79936 -1.2711e+002 -5.3664e+001  1.4732e+002 53919 79662,79766,79688
 7.0000e-001 79913 -3.4795e+002 -2.1015e+002  2.3370e+002 53919 79662,79818,79766
 7.0000e-001 79890 -3.4925e+002 -1.0322e+002  1.7250e+002 53919 79766,79818,79792
 7.0000e-001 79867 -2.2755e+002 -1.2390e+002  1.6638e+002 53919 79714,79766,79740
 7.0000e-001 79844 -2.8717e+002 -1.3273e+002  1.7282e+002 53919 79688,79766,79714
 7.0000e-001 80037 -2.6456e+001 -9.4794e+001  1.0013e+002 53671 79959,80011,79985
 7.0000e-001 80405 -7.2609e+001 -1.8694e+001 -9.0785e+000 53267 80108,80264,80238
 7.0000e-001 80382 -2.7999e+001 -9.7338e-001 -9.8449e-001 53267 80082,80264,80108
 7.0000e-001 80359 -2.4048e+001 -1.0156e+002  6.9990e+001 53267 80108,80238,80134
 7.0000e-001 80336 -2.1643e+001 -5.0587e+001  5.5814e+001 53267 80134,80212,80186
 7.0000e-001 80313 -8.2724e+001 -1.0565e+002  8.8433e+001 53267 80134,80238,80212
 7.0000e-001 80290 -3.6530e+000 -7.3405e+001  2.4986e+001 53267 80134,80186,80160
 7.0000e-001 80915 -6.0905e+001 -1.0659e+002  3.7356e+001 52969 80644,80774,80748
 7.0000e-001 80892 -5.0307e+001 -2.8806e+001  2.5759e+001 52969 80618,80774,80644
 7.0000e-001 80869 -9.9762e+001 -1.5058e+002  1.4313e+001 52969 80644,80748,80670
 7.0000e-001 80846 -1.2542e+001 -3.2468e+001  8.7445e+000 52969 80592,80774,80618
 7.0000e-001 80823 -1.3115e+002 -1.2031e+002  4.2411e+001 52969 80670,80722,80696
 7.0000e-001 80800 -7.1902e+001 -9.5213e+001  2.3955e+001 52969 80670,80748,80722
 7.0000e-001 81266 -7.8942e+000 -1.5668e+002  2.9964e+001 52565 81041,81145,81067
 7.0000e-001 81243 -1.2817e+002 -3.4131e+002  8.1897e+001 52565 81041,81171,81145
 7.0000e-001 81220 -2.7235e+002 -7.0603e+002  8.7361e+001 52565 81067,81119,81093
 7.0000e-001 81197 -6.4972e+000 -7.4105e+001  3.8238e+001 52565 81067,81145,81119
 7.0000e-001 81723 -1.5770e+002 -1.7445e+002  7.1245e+001 51904 81449,81527,81475
 7.0000e-001 81700 -1.3575e+002 -1.2716e+002  6.5592e+001 51904 81449,81579,81527
 7.0000e-001 81677 -2.1445e+002 -2.7090e+002  1.3381e+002 51904 81449,81605,81579
 7.0000e-001 81654 -9.6749e+001 -5.8395e+001  9.0030e+001 51904 81527,81579,81553
 7.0000e-001 81631 -2.3375e+002 -1.5658e+002  3.3931e+001 51904 81475,81527,81501
 7.0000e-001 82327 -2.1767e+002 -2.4851e+002  1.7253e+002 51321 82422,82350,82036
 7.0000e-001 82304 -2.1655e+002 -1.7618e+002  1.8334e+002 51321 82494,82350,81958
 7.0000e-001 82281 -2.2542e+002 -2.5518e+002  1.5666e+002 51321 82422,82036,82010
 7.0000e-001 82258 -2.0734e+002 -1.6376e+002  1.6638e+002 51321 82494,81958,81932
 7.0000e-001 82235 -2.1401e+002 -1.0652e+002  1.0588e+002 51321 82062,82114,82088
 7.0000e-001 82212 -5.4267e+002 -3.2259e+002  2.3284e+002 51321 81932,82140,82114
 7.0000e-001 82189 -2.3253e+002 -9.4007e+001  1.5052e+002 51321 81958,82010,81984
 7.0000e-001 82166 -2.9131e+002 -2.1989e+002  1.7348e+002 51321 81906,82140,81932
 7.0000e-001 82376 -2.0932e+002 -3.0645e+002  1.7253e+002 51321 82062,82036,82350
 7.0000e-001 82399 -2.1436e+002 -2.2918e+002  1.6447e+002 51321 82062,82350,82114
 7.0000e-001 82448 -1.9704e+002 -2.3614e+002  1.8024e+002 51321 81958,82350,82422
 7.0000e-001 82471 -2.0213e+002 -2.4143e+002  1.6463e+002 51321 81958,82422,82010
 7.0000e-001 82520 -2.2074e+002 -1.9326e+002  1.8787e+002 51321 82114,82350,82494
 7.0000e-001 82543 -2.2217e+002 -1.8959e+002  1.7383e+002 51321 82114,82494,81932
 7.0000e-001 83019 -2.4067e+002 -7.9193e+001  5.1452e+001 50817 82673,82751,82699
 7.0000e-001 82996 -2.8012e+002 -1.2498e+002  1.1896e+002 50817 83042,82673,82855
 7.0000e-001 82973 -2.6232e+002 -1.6557e+002  1.2433e+002 50817 83042,82855,82803
 7.0000e-001 82950 -3.6487e+002 -2.1318e+002  1.7410e+002 50817 82751,82803,82777
 7.0000e-001 82927 -2.8836e+002 -1.8622e+002  5.5008e+001 50817 82647,82855,82673
 7.0000e-001 82904 -3.4080e+002 -2.4449e+002  1.8071e+002 50817 82803,82855,82829
 7.0000e-001 82881 -2.8176e+002 -1.8229e+002  5.3271e+001 50817 82699,82751,82725
 7.0000e-001 83068 -3.0065e+002 -1.5606e+002  1.3735e+002 50817 82751,82673,83042
 7.0000e-001 83091 -2.6861e+002 -1.8733e+002  1.3714e+002 50817 82751,83042,82803
 7.0000e-001 83290 -2.5948e+002 -1.6258e+002  1.8091e+002 50356 83313,83166,83140
 7.0000e-001 83267 -3.0783e+002 -2.8503e+002  1.3971e+002 50356 83515,83313,83140
 7.0000e-001 83244 -3.5894e+002 -2.7647e+002  7.3801e+001 50356 83515,83140,83385
 7.0000e-001 83339 -3.0064e+002 -2.6046e+002  1.9223e+002 50356 83192,83166,83313
 7.0000e-001 83362 -2.1871e+002 -2.6772e+002  1.5888e+002 50356 83192,83313,83218
 7.0000e-001 83411 -1.2591e+002 -1.4886e+002  1.1313e+002 50356 83114,83218,83385
 7.0000e-001 83541 -1.9333e+002 -2.4931e+002  1.3464e+002 50356 83218,83313,83515
 7.0000e-001 83564 -2.1092e+002 -2.1773e+002  7.7160e+001 50356 83218,83515,83385
 7.0000e-001 83893 -1.0676e+002 -8.0429e+001  4.1158e+001 49552 83720,83798,83746
 7.0000e-001 83870 -8.6926e+001  8.7930e+000  2.7447e+001 49552 83694,83798,83720
 7.0000e-001 83847 -4.7419e+000 -2.7174e+001  1.7021e+001 49552 83668,83798,83694
 7.0000e-001 83824 -1.2875e+002 -2.6177e+001  1.4290e+001 49552 83746,83798,83772
 7.0000e-001 84141 -2.9364e+002 -2.7799e+002  1.6352e+002 49212 84164,84020,83942
 7.0000e-001 84118 -2.9173e+002 -2.6873e+002  1.8139e+002 49212 84164,83942,83916
 7.0000e-001 84095 -1.7461e+002 -3.2053e+002  1.2147e+002 49212 83942,84020,83968
 7.0000e-001 84072 -1.8483e+002 -1.3703e+002  6.4863e+001 49212 83968,84020,83994
 7.0000e-001 84190 -3.1061e+002 -2.8062e+002  1.5729e+002 49212 84046,84020,84164
 7.0000e-001 84213 -3.0324e+002 -2.7333e+002  1.7426e+002 49212 84046,84164,83916
 7.0000e-001 84800 -1.2831e+002 -3.1213e+002  1.0341e+002 48865 84503,84633,84555
 7.0000e-001 84777 -2.2913e+002 -3.9860e+002  6.5702e+001 48865 84503,84659,84633
 7.0000e-001 84754 -2.1209e+002 -5.2279e+002  9.1215e+001 48865 84555,84633,84581
 7.0000e-001 84731 -1.2102e+002 -6.8924e+002  1.5156e+002 48865 84581,84633,84607
 7.0000e-001 84708 -3.6508e+002 -3.8233e+002  9.5073e+001 48865 84503,84555,84529
 7.0000e-001 84685 -2.3919e+002 -4.0320e+002  9.9321e+001 48865 84477,84659,84503
 7.0000e-001 85355 -1.2711e+002 -1.3958e+002  7.3807e+001 48461 85378,85035,85009
 7.0000e-001 85332 -1.6206e+002 -1.5150e+002  9.0395e+001 48461 85378,85009,85165
 7.0000e-001 85309 -1.3182e+002 -1.8129e+002  1.0444e+002 48461 85450,85061,85035
 7.0000e-001 85286 -2.2989e+002 -1.6919e+002  7.8936e+001 48461 85009,85191,85165
 7.0000e-001 85263 -1.5305e+002 -1.4273e+002  1.1462e+002 48461 85087,85165,85113
 7.0000e-001 85240 -1.0485e+002 -2.1627e+002 -7.0169e+000 48461 84983,85191,85009
 7.0000e-001 85217 -1.3926e+002 -1.9409e+002  7.6805e+001 48461 85113,85165,85139
 7.0000e-001 85404 -1.4221e+002 -1.4946e+002  9.0824e+001 48461 85450,85035,85378
 7.0000e-001 85427 -1.7972e+002 -1.6140e+002  8.6474e+001 48461 85087,85378,85165
 7.0000e-001 85476 -1.4536e+002 -2.1872e+002  1.0284e+002 48461 85087,85061,85450
 7.0000e-001 85499 -1.6383e+002 -2.0148e+002  8.5569e+001 48461 85087,85450,85378
 7.0000e-001 86084 -1.1961e+002 -2.1171e+002  7.0095e+001 48057 86323,86107,85787
 7.0000e-001 86061 -1.2280e+002 -2.2540e+002  1.0622e+002 48057 86107,85761,85943
 7.0000e-001 86038 -1.5287e+002 -1.6718e+002  9.2103e+001 48057 86251,86179,85891
 7.0000e-001 86015 -1.5149e+002 -1.3249e+002  6.2509e+001 48057 86251,85891,85839
 7.0000e-001 85992 -1.5572e+002 -1.6266e+002  1.2227e+002 48057 85891,85943,85917
 7.0000e-001 85969 -1.8293e+002 -1.0508e+002  8.4956e+001 48057 85839,85891,85865
 7.0000e-001 86133 -1.1459e+002 -2.0348e+002  7.3594e+001 48057 85813,85787,86107
 7.0000e-001 86156 -1.2842e+002 -1.9989e+002  7.2451e+001 48057 86179,85813,86107
 7.0000e-001 86205 -1.2581e+002 -1.4599e+002  1.0171e+002 48057 85943,85891,86179
 7.0000e-001 86228 -9.1124e+001 -1.5601e+002  9.6835e+001 48057 85943,86179,86107
 7.0000e-001 86277 -1.0310e+002 -1.3104e+002  7.3568e+001 48057 85813,86179,86251
 7.0000e-001 86300 -1.3031e+002 -1.0946e+002  4.9978e+001 48057 85813,86251,85839
 7.0000e-001 86349 -5.8728e+001 -1.7633e+002  8.4626e+001 48057 85761,86107,86323
 7.0000e-001 86855 -7.9547e+001 -2.2976e+002  1.2110e+002 47545 86878,86584,86558
 7.0000e-001 86832 -1.5118e+002 -2.6005e+002  1.0128e+002 47545 86950,86878,86558
 7.0000e-001 86809 -1.7341e+002 -2.5697e+002  1.0248e+002 47545 86950,86558,86532
 7.0000e-001 86786 -1.1374e+002 -2.2460e+002  1.2142e+002 47545 86584,86662,86610
 7.0000e-001 86763 -1.6789e+002 -2.4090e+002  6.7400e+001 47545 86532,86714,86688
 7.0000e-001 86740 -1.5061e+002 -1.1332e+002  1.2787e+002 47545 86610,86662,86636
 7.0000e-001 86904 -1.2225e+002 -2.7454e+002  9.6574e+001 47545 86662,86584,86878
 7.0000e-001 86927 -1.0001e+002 -2.5256e+002  7.8479e+001 47545 86662,86878,86688
 7.0000e-001 86976 -1.1880e+002 -2.5545e+002  7.3973e+001 47545 86688,86878,86950
 7.0000e-001 86999 -1.5513e+002 -2.6712e+002  7.9361e+001 47545 86688,86950,86532
 7.0000e-001 87328 -1.2257e+002 -1.0571e+002  6.6699e+001 47048 87155,87207,87181
 7.0000e-001 87305 -1.0478e+002 -7.8109e+001  8.7033e+001 47048 87129,87207,87155
 7.0000e-001 87282 -1.4779e+002 -8.3770e+001  8.4813e+001 47048 87103,87207,87129
 7.0000e-001 87259 -1.8835e+002 -1.9196e+002  1.2111e+002 47048 87103,87233,87207
 7.0000e-001 87576 -6.8254e+001 -9.6035e+001  9.0974e+001 46701 87599,87429,87377
 7.0000e-001 87553 -1.0997e+002 -4.0436e+001  5.4369e+001 46701 87599,87377,87481
 7.0000e-001 87530 -2.5556e+000 -1.3235e+001  2.4227e+000 46701 87351,87481,87377
 7.0000e-001 87507  2.3067e+001 -2.4851e+001  4.0221e+001 46701 87377,87429,87403
 7.0000e-001 87625 -9.4981e+001 -1.9752e+002  9.3010e+001 46701 87455,87429,87599
 7.0000e-001 87648 -1.0013e+002 -9.8747e+001  4.5743e+001 46701 87455,87599,87481
 7.0000e-001 87798 -8.8492e+000 -1.9129e+000  1.4501e+000 46239 87697,87749,87723
 7.0000e-001 87775  1.2363e+001 -3.1118e+001  3.5142e+001 46239 87671,87749,87697
 7.0000e-001 88308 -3.3215e+002 -2.7993e+002  1.0670e+002 45735 88089,88167,88141
 7.0000e-001 88285 -2.4549e+002 -1.7366e+002  1.5026e+002 45735 88011,88167,88089
 7.0000e-001 88262 -3.1379e+002 -1.9601e+002  1.5892e+002 45735 87985,88167,88011
 7.0000e-001 88239 -3.9251e+002 -5.7386e+002  2.3455e+002 45735 88011,88089,88063
 7.0000e-001 88216 -2.8820e+002 -2.6383e+002  8.9729e+001 45735 88089,88141,88115
 7.0000e-001 88193 -2.8377e+002 -4.3287e+002  3.1988e+002 45735 88011,88063,88037
 7.0000e-001 88686 -2.3263e+002 -2.1721e+002  1.4825e+002 45316 88438,88516,88490
 7.0000e-001 88663 -1.9040e+002 -1.0965e+002  1.4722e+002 45316 88438,88542,88516
 7.0000e-001 88640 -1.3424e+002 -3.1854e+002  1.7814e+002 45316 88438,88568,88542
 7.0000e-001 88617 -3.9509e+002 -3.2210e+002  9.5884e+001 45316 88438,88490,88464
 7.0000e-001 88594 -1.0902e+002 -3.3793e+002  1.5961e+002 45316 88412,88568,88438
 7.0000e-001 88934 -4.2097e+002 -4.6810e+002  2.5038e+002 44812 88957,88735,88709
 7.0000e-001 88911 -2.5822e+002 -3.1692e+002  1.1904e+002 44812 88957,88709,88839
 7.0000e-001 88888 -2.5966e+002 -2.6405e+002  7.6781e+001 44812 89029,88787,88761
 7.0000e-001 88865 -2.4490e+002 -2.2304e+002  1.0670e+002 44812 88787,88839,88813
 7.0000e-001 88983 -1.3727e+002 -3.1658e+002  1.7160e+002 44812 88761,88735,88957
 7.0000e-001 89006 -2.2405e+002 -2.8847e+002  6.8937e+001 44812 89029,88761,88957
 7.0000e-001 89055 -2.6006e+002 -2.9265e+002  8.6452e+001 44812 88839,88787,89029
 7.0000e-001 89078 -2.5323e+002 -3.4703e+002  8.9242e+001 44812 88839,89029,88957
 7.0000e-001 89228 -3.7101e+002 -9.4189e+002  1.7763e+001 44408 89127,89179,89153
 7.0000e-001 89205 -8.2773e+001 -2.5150e+002  8.5680e+000 44408 89101,89179,89127
 7.0000e-001 89787 -2.1867e+002 -1.9022e+002  1.2812e+002 43854 89810,89545,89519
 7.0000e-001 89764 -2.3384e+002 -2.3282e+002  1.4120e+002 43854 89810,89519,89467
 7.0000e-001 89741 -2.3989e+002 -3.0388e+002  1.3214e+002 43854 89954,89882,89597
 7.0000e-001 89718 -2.4599e+002 -3.0421e+002  1.3876e+002 43854 89954,89597,89571
 7.0000e-001 89695 -1.5128e+002 -2.6905e+002  1.1398e+002 43854 89415,89623,89467
 7.0000e-001 89672 -1.3872e+002 -1.2843e+002  1.0074e+002 43854 89467,89519,89493
 7.0000e-001 89649 -1.2294e+002 -2.1329e+002  1.0206e+002 43854 89415,89467,89441
 7.0000e-001 89836 -2.5493e+002 -2.0890e+002  1.3884e+002 43854 89882,89545,89810
 7.0000e-001 89859 -1.4209e+002 -2.2519e+002  1.1145e+002 43854 89623,89810,89467
 7.0000e-001 89908 -2.4682e+002 -3.9330e+002  1.8004e+002 43854 89623,89597,89882
 7.0000e-001 89931 -2.1805e+002 -3.3450e+002  1.4557e+002 43854 89623,89882,89810
 7.0000e-001 89980 -2.6426e+002 -3.0799e+002  1.6394e+002 43854 89545,89882,89954
 7.0000e-001 90003 -2.8744e+002 -3.3445e+002  1.7535e+002 43854 89545,89954,89571
 7.0000e-001 90251 -9.0617e+001 -1.7004e+002  4.1671e+001 43492 90026,90078,90052
 7.0000e-001 90228 -2.5196e+002 -2.2559e+002  1.1510e+002 43492 90274,90026,90156
 7.0000e-001 90205 -2.3446e+002 -2.5753e+002  1.1500e+002 43492 90346,90274,90156
 7.0000e-001 90182 -2.3822e+002 -3.1986e+002  2.1517e+002 43492 90346,90156,90130
 7.0000e-001 90300 -1.7933e+002 -2.6909e+002  1.3953e+002 43492 90078,90026,90274
 7.0000e-001 90323 -2.7049e+002 -3.0772e+002  1.3150e+002 43492 90078,90274,90104
 7.0000e-001 90372 -3.5875e+002 -3.4196e+002  1.7671e+002 43492 90104,90274,90346
 7.0000e-001 90395 -3.6326e+002 -4.1428e+002  2.7832e+002 43492 90104,90346,90130
 7.0000e-001 90594 -4.7547e+001 -1.5120e+002  8.3318e+001 43052 90418,90496,90444
 7.0000e-001 90571  4.4947e+000  1.7333e+001  2.4656e+001 43052 90418,90522,90496
 7.0000e-001 90548 -1.3296e+002 -1.2756e+002  9.3204e+001 43052 90444,90496,90470
 7.0000e-001 91074 -4.4480e+002 -3.0692e+002  3.0979e+002 42434 91241,90884,90858
 7.0000e-001 91051 -1.7461e+002 -2.2234e+002  1.1925e+001 42434 90702,90910,90884
 7.0000e-001 91028 -5.4771e+001 -4.5508e+001  8.9319e+001 42434 91097,90754,90702
 7.0000e-001 91005 -3.4663e+002 -1.6621e+002  2.6700e+002 42434 91241,90858,91097
 7.0000e-001 90982 -1.4291e+002 -2.0595e+002  8.7157e+001 42434 91169,90806,90780
 7.0000e-001 90959 -1.0038e+002 -1.4234e+002  5.8717e+001 42434 90806,90858,90832
 7.0000e-001 90936 -7.4003e+001 -8.7529e+001  7.6164e+001 42434 90702,90754,90728
 7.0000e-001 91123 -3.5399e+002 -2.4898e+002  2.6818e+002 42434 90780,90754,91097
 7.0000e-001 91146 -2.5069e+002 -3.1429e+002  2.4479e+002 42434 91169,90780,91097
 7.0000e-001 91195 -9.6330e+001 -1.2106e+002  5.9368e+001 42434 90858,90806,91169
 7.0000e-001 91218 -1.0030e+002 -6.5876e+000  1.9473e+002 42434 90858,91169,91097
 7.0000e-001 91267 -2.5359e+002 -4.7309e+002  2.0786e+002 42434 90702,90884,91241
 7.0000e-001 91290 -1.7192e+002 -3.5767e+002  1.7223e+002 42434 90702,91241,91097
 7.0000e-001 91698 -7.7479e+001 -2.4807e+002  8.6466e+001 41773 91473,91577,91499
 7.0000e-001 91675 -1.1601e+002 -2.7669e+002  1.0322e+002 41773 91473,91603,91577
 7.0000e-001 91652 -1.4042e+002 -1.8566e+002  3.3671e+001 41773 91499,91551,91525
 7.0000e-001 91629 -1.7444e+002 -2.1275e+002  9.2499e+001 41773 91499,91577,91551
 7.0000e-001 92044 -2.0995e+002 -2.6459e+002  1.5162e+002 41383 91773,91877,91851
 7.0000e-001 92021 -1.7926e+002 -3.2524e+002  8.0440e+001 41383 91747,91877,91773
 7.0000e-001 91998 -1.7197e+002 -1.8558e+002  1.1164e+002 41383 91773,91851,91799
 7.0000e-001 91975 -1.4907e+002 -3.1438e+002  7.8953e+001 41383 91747,91903,91877
 7.0000e-001 91952 -5.2322e+001 -2.7430e+002  8.5346e+001 41383 91721,91903,91747
 7.0000e-001 91929 -3.4822e+001 -1.8039e+002  7.7446e+001 41383 91799,91851,91825
 7.0000e-001 92601 -1.7555e+002 -2.0523e+002  6.4885e+001 40979 92229,92411,92307
 7.0000e-001 92578 -2.0653e+002 -2.3566e+002  7.9870e+001 40979 92229,92437,92411
 7.0000e-001 92555 -1.6052e+002 -1.6946e+002  6.1833e+001 40979 92229,92307,92281
 7.0000e-001 92532 -1.1805e+002 -1.4506e+002  8.0393e+001 40979 92333,92411,92385
 7.0000e-001 92509 -1.2658e+002 -1.6850e+002  8.0907e+001 40979 92307,92411,92333
 7.0000e-001 92486 -2.1694e+002 -2.5851e+002  3.3100e+001 40979 92229,92281,92255
 7.0000e-001 92463 -2.2450e+001 -1.3811e+002  5.9088e+001 40979 92333,92385,92359
 7.0000e-001 93235 -1.8635e+002 -1.3524e+002  1.6056e+002 40525 92941,92993,92967
 7.0000e-001 93212 -2.6317e+002 -4.5533e+001  8.9624e+001 40525 93258,92941,92889
 7.0000e-001 93189 -2.2016e+002 -2.0168e+001  7.5370e+001 40525 93258,92889,93071
 7.0000e-001 93166 -1.9977e+002 -1.2776e+002  7.1595e+001 40525 92889,92941,92915
 7.0000e-001 93143 -1.2045e+002 -7.0507e+001  6.9571e+001 40525 92863,93071,92889
 7.0000e-001 93120 -2.0355e+002 -1.1876e+002  8.1593e+001 40525 92993,93071,93019
 7.0000e-001 93097 -2.1869e+002 -1.4967e+002  9.2875e+001 40525 93019,93071,93045
 7.0000e-001 93284 -2.8092e+002 -8.7639e+001  1.3920e+002 40525 92993,92941,93258
 7.0000e-001 93307 -1.9694e+002 -3.3710e+001  1.1564e+002 40525 92993,93258,93071
 7.0000e-001 93636 -3.0837e+002 -2.8866e+002  2.1756e+002 40235 93437,93541,93515
 7.0000e-001 93613 -2.1762e+002 -3.6605e+002  1.8594e+002 40235 93411,93541,93437
 7.0000e-001 93590 -9.2854e+001 -2.6715e+002  9.2399e+001 40235 93463,93515,93489
 7.0000e-001 93567 -1.6633e+002 -2.0600e+002  7.1688e+001 40235 93437,93515,93463
 7.0000e-001 94014 -3.1095e+002 -4.1044e+002  1.2947e+002 39873 93766,93870,93792
 7.0000e-001 93991 -2.8933e+002 -4.1086e+002  1.2499e+002 39873 93766,93896,93870
 7.0000e-001 93968 -2.4753e+002 -3.2948e+002  1.5726e+002 39873 93792,93870,93844
 7.0000e-001 93945 -2.1308e+002 -2.8935e+002  1.1857e+002 39873 93792,93844,93818
 7.0000e-001 93922 -2.1673e+002 -3.5259e+002  2.0222e+002 39873 93740,93896,93766
 7.0000e-001 94164  1.9205e+001 -1.5878e+001  3.3227e+001 39461 94037,94089,94063
 7.0000e-001 94141 -4.5565e+001  3.3465e+001  2.5419e+001 39461 94037,94115,94089
 7.0000e-001 94363 -1.7499e+002 -1.6061e+002  9.3864e+001 39057 94386,94239,94213
 7.0000e-001 94340 -1.0614e+002 -1.2402e+002  8.0164e+001 39057 94386,94213,94187
 7.0000e-001 94317 -1.9811e+002 -2.1246e+002  1.2031e+002 39057 94187,94291,94265
 7.0000e-001 94412 -8.9785e+001 -1.4179e+002  9.0516e+001 39057 94458,94386,94265
 7.0000e-001 94435 -1.2305e+002 -1.5589e+002  9.4768e+001 39057 94265,94386,94187
 7.0000e-001 94484 -1.4397e+002 -1.8133e+002  1.1497e+002 39057 94239,94386,94458
 7.0000e-001 94896 -3.2822e+002 -2.1396e+002  1.3779e+002 38396 94919,94775,94723
 7.0000e-001 94873 -3.5095e+002 -2.1523e+002  1.3452e+002 38396 94919,94723,94697
 7.0000e-001 94850 -2.3716e+002 -1.8012e+002  9.8475e+001 38396 94723,94775,94749
 7.0000e-001 94827 -1.5478e+002 -1.6482e+002  1.0900e+002 38396 94671,94801,94697
 7.0000e-001 94945 -3.1299e+002 -2.1681e+002  1.3976e+002 38396 94801,94775,94919
 7.0000e-001 94968 -3.2817e+002 -2.1300e+002  1.3532e+002 38396 94801,94919,94697
 7.0000e-001 95265 -2.6625e+002 -2.7441e+002  1.1447e+002 37835 95017,95069,95043
 7.0000e-001 95242 -2.7130e+002 -2.5729e+002  1.1768e+002 37835 95288,95069,95017
 7.0000e-001 95219 -2.7764e+002 -2.8861e+002  1.6862e+002 37835 95288,95017,94991
 7.0000e-001 95196 -3.2711e+002 -3.3685e+002  1.6691e+002 37835 94991,95147,95121
 7.0000e-001 95173 -1.9268e+002 -1.3485e+002  1.1996e+002 37835 95069,95121,95095
 7.0000e-001 95314 -2.6252e+002 -1.8399e+002  9.7821e+001 37835 95121,95069,95288
 7.0000e-001 95337 -2.7134e+002 -2.3319e+002  1.4460e+002 37835 95121,95288,94991
 7.0000e-001 95558 -4.8900e+001 -1.6579e+002  5.6552e+001 37423 95408,95460,95434
 7.0000e-001 95535 -1.2407e+002 -4.3977e+002  1.7067e+002 37423 95382,95460,95408
 7.0000e-001 95512 -2.2179e+002 -5.1513e+002  2.0344e+002 37423 95382,95486,95460
 7.0000e-001 95891 -1.4202e+002 -3.3572e+002  1.8110e+002 37225 95666,95718,95692
 7.0000e-001 95868 -2.5737e+002 -3.5629e+002  2.2272e+002 37225 95666,95796,95718
 7.0000e-001 95845 -1.2655e+002 -2.5567e+002  7.2864e+001 37225 95718,95770,95744
 7.0000e-001 95822 -1.6783e+002 -2.1228e+002  1.2835e+002 37225 95718,95796,95770
 7.0000e-001 95992 -9.4059e+001 -2.6671e+002  6.8694e+001 36735 95914,95966,95940
 7.0000e-001 96142 -3.1512e+002 -2.0600e+002  1.6777e+002 36331 96297,96067,96041
 7.0000e-001 96119 -2.6988e+002 -1.5711e+002  2.0568e+002 36331 96165,96041,96015
 7.0000e-001 96191 -3.0794e+002 -1.9552e+002  1.9000e+002 36331 96297,96041,96165
 7.0000e-001 96323 -3.2130e+002 -1.7490e+002  1.9360e+002 36331 96093,96067,96297
 7.0000e-001 96346 -2.8798e+002 -1.5199e+002  2.1967e+002 36331 96093,96297,96165
 7.0000e-001 96714 -2.3034e+002 -3.7609e+002  1.9458e+002 36041 96737,96495,96443
 7.0000e-001 96691 -2.9922e+002 -3.0873e+002  2.0309e+002 36041 96737,96443,96417
 7.0000e-001 96668 -1.9236e+002 -3.7838e+002  1.3272e+002 36041 96443,96495,96469
 7.0000e-001 96645 -7.8650e+001 -1.7087e+002  1.2485e+002 36041 96391,96521,96417
 7.0000e-001 96622 -5.8815e+001 -1.6416e+002  1.1688e+002 36041 96391,96547,96521
 7.0000e-001 96599 -3.3209e+001 -1.5190e+002  1.1308e+002 36041 96391,96573,96547
 7.0000e-001 96763 -1.3077e+002 -3.1419e+002  1.6731e+002 36041 96521,96495,96737
 7.0000e-001 96786 -2.6053e+002 -2.9457e+002  1.9042e+002 36041 96521,96737,96417
 7.0000e-001 96936 -1.4829e+002 -1.0238e+002  1.3291e+002 35637 97031,96959,96835
 7.0000e-001 96913 -2.0853e+002 -1.2735e+002  1.1472e+002 35637 97163,96959,96809
 7.0000e-001 96985 -1.8769e+002 -1.1097e+002  1.3443e+002 35637 96861,96835,96959
 7.0000e-001 97008 -2.0681e+002 -1.3205e+002  1.6440e+002 35637 96861,96959,96887
 7.0000e-001 97057 -1.8210e+002 -7.1314e+001  1.0508e+002 35637 96809,96959,97031
 7.0000e-001 97189 -1.7367e+002 -1.0749e+002  1.2464e+002 35637 96887,96959,97163
 7.0000e-001 97597 -1.0569e+002 -1.3369e+002  1.1338e+002 35190 97450,97502,97476
 7.0000e-001 97574 -1.1720e+002 -1.9922e+002  1.5679e+002 35190 97372,97502,97450
 7.0000e-001 97551 -1.1654e+002 -2.2001e+002  1.4418e+002 35190 97372,97450,97398
 7.0000e-001 97528 -1.0990e+002 -1.9451e+002  1.1146e+002 35190 97398,97450,97424
 7.0000e-001 98054 -2.1002e+002 -2.6865e+002  1.6300e+002 34636 97806,97936,97858
 7.0000e-001 98031 -3.0183e+002 -2.0937e+002  1.5052e+002 34636 97780,97936,97806
 7.0000e-001 98008 -2.9770e+002 -2.7553e+002  1.1551e+002 34636 97806,97858,97832
 7.0000e-001 97985 -2.1938e+002 -2.8313e+002  2.0357e+002 34636 97884,97936,97910
 7.0000e-001 97962 -1.5998e+002 -1.7957e+002  1.4183e+002 34636 97858,97936,97884
 7.0000e-001 98530 -1.4837e+002  5.4719e+001  6.2922e+001 34068 98697,98184,98366
 7.0000e-001 98507 -1.2707e+000  2.1946e+000 -2.3573e+000 34068 98158,98366,98184
 7.0000e-001 98484 -2.1039e+002 -1.5203e+002  9.3262e+001 34068 98553,98262,98236
 7.0000e-001 98461 -2.4745e+002 -1.4675e+002  1.0888e+002 34068 98553,98236,98210
 7.0000e-001 98438 -1.9770e+002 -7.7306e+001  8.5130e+001 34068 98841,98625,98366
 7.0000e-001 98415 -2.0423e+002 -2.7627e+002  1.4650e+002 34068 98769,98288,98262
 7.0000e-001 98392 -2.7052e+002 -3.6259e+001  8.7306e+001 34068 98841,98366,98340
 7.0000e-001 98579 -2.4026e+002 -1.9465e+002  1.1528e+002 34068 98769,98262,98553
 7.0000e-001 98602 -1.9846e+002 -8.2041e+001  8.8391e+001 34068 98625,98314,98553
 7.0000e-001 98651 -1.8120e+002 -5.9282e+001  6.5022e+001 34068 98697,98366,98625
 7.0000e-001 98674 -2.2371e+002 -1.4316e+002  7.5083e+001 34068 98210,98625,98553
 7.0000e-001 98723 -1.8736e+002 -8.5510e+001  7.4846e+001 34068 98210,98184,98697
 7.0000e-001 98746 -1.6898e+002 -1.0484e+002  9.2988e+001 34068 98210,98697,98625
 7.0000e-001 98795 -1.3359e+002 -1.9202e+002  9.4104e+001 34068 98314,98288,98769
 7.0000e-001 98818 -1.8559e+002 -1.3468e+002  6.4112e+001 34068 98314,98769,98553
 7.0000e-001 98867 -2.7482e+002 -1.0674e+002  6.5211e+001 34068 98314,98625,98841
 7.0000e-001 98890 -3.4969e+002 -6.4605e+001  7.1216e+001 34068 98314,98841,98340
 7.0000e-001 99268 -2.9189e+002 -2.4515e+002  2.0925e+002 33450 99291,99098,99072
 7.0000e-001 99245 -3.4650e+002 -1.9443e+002  1.1609e+002 33450 99291,99072,99020
 7.0000e-001 99222 -4.9630e+002 -2.5671e+002  1.8096e+002 33450 99020,99072,99046
 7.0000e-001 99199 -2.4907e+002 -1.9593e+002  1.1146e+002 33450 99020,99150,99124
 7.0000e-001 99176 -2.6546e+002 -1.7191e+002  2.8710e+001 33450 98994,99150,99020
 7.0000e-001 99317 -1.2194e+002 -1.8663e+002  2.1826e+002 33450 99124,99098,99291
 7.0000e-001 99340 -2.8234e+002 -1.9448e+002  1.3470e+002 33450 99124,99291,99020
 7.0000e-001 99865 -2.2167e+002 -2.0409e+002  1.2925e+002 32944 100176,99960,99888
 7.0000e-001 99842 -2.5609e+002 -1.9697e+002  1.3262e+002 32944 100104,99888,99522
 7.0000e-001 99819 -1.9481e+002 -1.8365e+002  1.3931e+002 32944 100248,99960,99626
 7.0000e-001 99796 -2.4334e+002 -2.3959e+002  9.9509e+001 32944 100032,99652,99626
 7.0000e-001 99773 -2.2730e+002 -1.8765e+002  1.0886e+002 32944 100104,99522,99496
 7.0000e-001 99750 -1.4861e+002 -1.5611e+002  1.5763e+001 32944 99574,99626,99600
 7.0000e-001 99727 -1.4799e+002 -1.8960e+002  1.5405e+002 32944 100248,99626,99574
 7.0000e-001 99704 -1.7780e+002 -1.6432e+002  9.9973e+001 32944 99444,99496,99470
 7.0000e-001 99914 -2.4166e+002 -2.0068e+002  1.1162e+002 32944 100176,99888,100032
 7.0000e-001 99937 -2.5224e+002 -1.9068e+002  1.2541e+002 32944 99678,99888,99444
 7.0000e-001 99986 -2.5021e+002 -1.7267e+002  1.3074e+002 32944 99522,99888,99960
 7.0000e-001 100009 -2.4317e+002 -1.4748e+002  1.4820e+002 32944 99522,99960,99548
 7.0000e-001 100058 -2.4573e+002 -2.7036e+002  8.4627e+001 32944 99678,99652,100032
 7.0000e-001 100081 -2.7259e+002 -2.3702e+002  8.6213e+001 32944 99678,100032,99888
 7.0000e-001 100130 -2.0509e+002 -1.9057e+002  1.2091e+002 32944 99444,99888,100104
 7.0000e-001 100153 -1.8919e+002 -1.9724e+002  1.0134e+002 32944 99444,100104,99496
 7.0000e-001 100202 -2.4522e+002 -2.3273e+002  1.1185e+002 32944 99626,99960,100176
 7.0000e-001 100225 -2.5441e+002 -2.3189e+002  9.4622e+001 32944 99626,100176,100032
 7.0000e-001 100274 -2.6057e+002 -1.8748e+002  1.3219e+002 32944 99548,99960,100248
 7.0000e-001 100297 -2.1875e+002 -1.9716e+002  1.4689e+002 32944 99548,100248,99574
 7.0000e-001 100754 -1.4374e+002 -1.4595e+002  5.9148e+001 32369 100777,100584,100506
 7.0000e-001 100731 -1.1916e+002 -2.0359e+002  1.2221e+002 32369 100777,100506,100636
 7.0000e-001 100708 -2.2260e+002 -1.9501e+002  1.4270e+002 32369 100480,100636,100506
 7.0000e-001 100685 -2.8117e+002 -2.0507e+002  5.1412e+001 32369 100532,100584,100558
 7.0000e-001 100662 -1.5271e+002 -1.6717e+002  6.0909e+001 32369 100506,100584,100532
 7.0000e-001 100803 -1.3660e+002 -5.1990e+001  6.1413e+001 32369 100610,100584,100777
 7.0000e-001 100826 -1.1226e+002 -1.2027e+002  1.1520e+002 32369 100610,100777,100636
 7.0000e-001 101025 -1.9624e+002 -1.8380e+002  1.7818e+002 31857 100875,100927,100901
 7.0000e-001 101002 -3.6337e+002 -1.9885e+002  1.5905e+002 31857 100875,100953,100927
 7.0000e-001 100979 -3.7488e+002 -1.9664e+002  1.2480e+002 31857 100849,100953,100875
 7.0000e-001 101533 -1.6091e+002 -1.8630e+002  1.5158e+002 31253 101556,101314,101236
 7.0000e-001 101510 -2.3862e+002 -2.2301e+002  1.6459e+002 31253 101556,101236,101210
 7.0000e-001 101487 -2.3677e+002 -1.9682e+002  6.9131e+001 31253 101210,101392,101340
 7.0000e-001 101464 -1.0636e+002 -1.6642e+002  1.1914e+002 31253 101236,101288,101262
 7.0000e-001 101441 -1.3483e+002 -2.4847e+002  1.2771e+002 31253 101236,101314,101288
 7.0000e-001 101418 -2.1225e+002 -1.6492e+002  9.5624e+001 31253 101340,101392,101366
 7.0000e-001 101582 -1.8329e+002 -1.4104e+002  7.8819e+001 31253 101340,101314,101556
 7.0000e-001 101605 -2.6385e+002 -1.7986e+002  9.4885e+001 31253 101340,101556,101210
 7.0000e-001 101755  4.2334e+001  6.3795e+001  9.2638e+001 30519 101778,101654,101628
 7.0000e-001 101732 -7.5812e+001  1.3519e+002  1.6594e+001 30519 101850,101778,101628
 7.0000e-001 101804 -6.3200e+001 -1.0545e+002  4.4044e+001 30519 101680,101654,101778
 7.0000e-001 101827 -9.0275e+001  4.6851e+001  2.4850e+001 30519 101680,101778,101706
 7.0000e-001 101876 -1.3777e+002 -7.2783e+000  4.2374e+000 30519 101706,101778,101850
 7.0000e-001 102561 -1.9615e+002 -2.5597e+002  1.1583e+002 29951 102656,102584,102270
 7.0000e-001 102538 -3.5372e+002 -4.6345e+002  1.0891e+002 29951 102584,102140,102374
 7.0000e-001 102515 -2.6479e+002 -4.4169e+002  1.9380e+002 29951 102728,102656,102270
 7.0000e-001 102492 -2.5296e+002 -5.1367e+002  1.8336e+002 29951 102728,102270,102244
 7.0000e-001 102469 -2.8900e+002 -5.6706e+001  1.3620e+002 29951 102800,102322,102296
 7.0000e-001 102446 -3.3617e+002 -2.8748e+002  6.5157e+001 29951 102166,102218,102192
 7.0000e-001 102423 -2.5944e+002 -2.7659e+002  5.4609e+001 29951 102166,102244,102218
 7.0000e-001 102400 -1.6966e+002 -1.9772e+002  1.1308e+002 29951 102322,102374,102348
 7.0000e-001 102610 -3.6130e+002 -1.9846e+002  8.2458e+001 29951 102296,102270,102584
 7.0000e-001 102633 -3.7456e+002 -1.9772e+002  9.9959e+001 29951 102800,102296,102584
 7.0000e-001 102682 -3.7364e+002 -3.8993e+002  1.9951e+002 29951 102140,102584,102656
 7.0000e-001 102705 -2.8388e+002 -4.2874e+002  2.5341e+002 29951 102140,102656,102166
 7.0000e-001 102754 -2.4154e+002 -3.5371e+002  2.2719e+002 29951 102166,102656,102728
 7.0000e-001 102777 -2.4379e+002 -4.2359e+002  2.0125e+002 29951 102166,102728,102244
 7.0000e-001 102826 -2.1230e+002 -2.1666e+002  2.0372e+002 29951 102374,102322,102800
 7.0000e-001 102849 -2.4033e+002 -2.6102e+002  1.9138e+002 29951 102374,102800,102584
 7.0000e-001 103048 -3.0009e+001 -1.1791e+002  6.4508e+001 29454 102872,102924,102898
 7.0000e-001 103025 -7.3875e+001 -1.1389e+002  7.4012e+001 29454 102872,102976,102924
 7.0000e-001 103002 -7.3203e+001 -1.9791e+002  9.8036e+001 29454 102924,102976,102950
 7.0000e-001 103296 -3.4351e+002 -2.3603e+002  1.8636e+002 29064 103319,103175,103123
 7.0000e-001 103273 -3.9429e+002 -2.4149e+002  1.9615e+002 29064 103319,103123,103071
 7.0000e-001 103250 -2.1196e+002 -1.4986e+002  1.4618e+002 29064 103123,103175,103149
 7.0000e-001 103227 -3.1626e+002 -1.8132e+002  2.2868e+002 29064 103071,103123,103097
 7.0000e-001 103345 -2.8980e+002 -2.5165e+002  1.5858e+002 29064 103201,103175,103319
 7.0000e-001 103368 -3.6436e+002 -2.5913e+002  1.4890e+002 29064 103201,103319,103071
 7.0000e-001 104006 -2.9153e+002 -1.5830e+002  1.1551e+002 28603 104101,104029,103712
 7.0000e-001 103983 -2.7847e+002 -1.1556e+002  1.0201e+002 28603 104173,104029,103660
 7.0000e-001 103960 -3.5360e+002 -1.3039e+002  1.1264e+002 28603 104101,103712,103686
 7.0000e-001 103937 -2.4199e+002 -1.6255e+002  8.8021e+001 28603 104173,103660,103634
 7.0000e-001 103914 -2.7482e+002 -2.0264e+002  1.3955e+002 28603 103764,103816,103790
 7.0000e-001 103891 -2.3841e+002 -1.8275e+002  1.6071e+002 28603 103634,103842,103816
 7.0000e-001 103868 -2.0106e+002 -9.2910e+001  1.3868e+002 28603 103712,103764,103738
 7.0000e-001 104055 -2.7330e+002 -1.2509e+002  1.0844e+002 28603 103764,103712,104029
 7.0000e-001 104078 -2.7213e+002 -1.4367e+002  1.4431e+002 28603 103764,104029,103816
 7.0000e-001 104127 -3.7499e+002 -1.5349e+002  9.3639e+001 28603 103660,104029,104101
 7.0000e-001 104150 -4.6888e+002 -1.4673e+002  1.0775e+002 28603 103660,104101,103686
 7.0000e-001 104199 -3.0831e+002 -1.6319e+002  1.1546e+002 28603 103816,104029,104173
 7.0000e-001 104222 -2.6602e+002 -1.9742e+002  1.0103e+002 28603 103816,104173,103634
 7.0000e-001 104600 -1.0492e+002 -2.3472e+002  5.2396e+001 28348 104623,104378,104326
 7.0000e-001 104577 -7.1608e+001 -2.4256e+002  8.6477e+001 28348 104623,104326,104482
 7.0000e-001 104554 -1.1596e+002 -1.7692e+002  5.3327e+001 28348 104326,104378,104352
 7.0000e-001 104531 -1.0186e+002  1.6520e-001  9.0675e+000 28348 104404,104456,104430
 7.0000e-001 104508 -1.3448e+002 -1.3489e+002  9.5922e+001 28348 104378,104456,104404
 7.0000e-001 104649 -8.5464e+001 -2.0802e+002  7.8820e+001 28348 104456,104378,104623
 7.0000e-001 104672 -4.1494e+001 -2.0780e+002  1.1375e+002 28348 104456,104623,104482
 7.0000e-001 104991 -2.8823e+002 -3.1324e+002  2.0945e+002 27951 104717,104847,104769
 7.0000e-001 104968 -9.3115e+001 -2.2050e+002  1.8275e+002 27951 104717,104873,104847
 7.0000e-001 104945 -1.1355e+002 -2.7694e+002  2.1542e+002 27951 104769,104847,104795
 7.0000e-001 104922 -1.3815e+001 -2.6304e+001  2.0805e+002 27951 104795,104847,104821
 7.0000e-001 104899 -2.4237e+002 -2.0521e+002  2.0462e+002 27951 104717,104769,104743
 7.0000e-001 105371 -2.2639e+002 -1.1678e+002  1.4419e+002 27447 105394,105201,105123
 7.0000e-001 105348 -2.2871e+002 -1.1965e+002  1.4104e+002 27447 105394,105123,105097
 7.0000e-001 105325 -3.9854e+002 -1.6491e+002  1.6234e+002 27447 105123,105201,105149
 7.0000e-001 105302 -2.5313e+002 -1.7834e+002  1.3162e+002 27447 105201,105253,105227
 7.0000e-001 105279 -2.0666e+002 -2.8530e+002  3.5016e+001 27447 105149,105201,105175
 7.0000e-001 105420 -2.2409e+002 -1.2075e+002  1.4143e+002 27447 105253,105201,105394
 7.0000e-001 105443 -2.2800e+002 -1.2550e+002  1.3810e+002 27447 105253,105394,105097
 7.0000e-001 105998 -2.4262e+002 -1.9891e+002  1.7987e+002 27100 106165,106021,105704
 7.0000e-001 105975 -1.3924e+002 -1.2282e+002  1.5953e+002 27100 106309,106021,105652
 7.0000e-001 105952 -4.4737e+002 -3.3403e+002  3.0675e+002 27100 106093,105808,105782
 7.0000e-001 105929 -2.4414e+002 -2.0287e+002  1.8009e+002 27100 106165,105704,105678
 7.0000e-001 105906 -1.5742e+002 -2.0324e+002  1.4071e+002 27100 106237,105730,105704
 7.0000e-001 105883 -1.2783e+002 -1.9662e+002  1.0812e+002 27100 106309,105652,105626
 7.0000e-001 105860 -1.2976e+002 -2.2278e+000  4.8682e+001 27100 105730,105782,105756
 7.0000e-001 106047 -2.2157e+002 -1.3291e+002  1.7737e+002 27100 106237,105704,106021
 7.0000e-001 106070 -2.6212e+002 -1.6882e+002  2.2903e+002 27100 106093,105782,106021
 7.0000e-001 106119 -1.9090e+002 -2.6037e+002  1.6166e+002 27100 105834,105808,106093
 7.0000e-001 106142 -2.0588e+002 -3.3001e+002  1.9891e+002 27100 106381,106093,106021
 7.0000e-001 106191 -2.4531e+002 -1.8957e+002  1.8851e+002 27100 105652,106021,106165
 7.0000e-001 106214 -2.5265e+002 -2.0483e+002  1.9113e+002 27100 105652,106165,105678
 7.0000e-001 106263 -9.6976e+001 -1.2722e+002  1.1397e+002 27100 105782,105730,106237
 7.0000e-001 106286 -1.7531e+002 -7.6408e+001  1.5644e+002 27100 105782,106237,106021
 7.0000e-001 106335 -1.8496e+002 -2.3336e+002  1.6812e+002 27100 106381,106021,106309
 7.0000e-001 106358 -1.3757e+002 -1.9779e+002  1.0984e+002 27100 105834,106309,105626
 7.0000e-001 106407 -1.5355e+002 -2.1595e+002  1.3571e+002 27100 105834,106093,106381
 7.0000e-001 106430 -1.5832e+002 -1.9416e+002  1.0029e+002 27100 105834,106381,106309
 7.0000e-001 106629 -3.4437e+001 -2.0669e+002  4.4561e+001 26688 106479,106557,106531
 7.0000e-001 106606 -1.6068e+001 -8.5631e+001  6.3349e+001 26688 106453,106557,106479
 7.0000e-001 106583 -9.3446e+001 -2.2181e+002  2.1547e+001 26688 106479,106531,106505
 7.0000e-001 107088 -1.1107e+002 -1.1598e+002  6.6077e+001 26248 107111,106918,106866
 7.0000e-001 107065 -1.2349e+002 -1.0142e+002  8.1263e+001 26248 107111,106866,106840
 7.0000e-001 107042 -1.1051e+002 -9.8143e+001  7.3908e+001 26248 106814,106970,106840
 7.0000e-001 107019 -1.0147e+002 -1.5709e+002  8.3833e+001 26248 106866,106918,106892
 7.0000e-001 106996 -2.2972e+002 -1.9063e+002  7.3972e+001 26248 106918,106970,106944
 7.0000e-001 107137 -1.3642e+002 -1.3706e+002  5.0696e+001 26248 106970,106918,107111
 7.0000e-001 107160 -1.3155e+002 -1.0688e+002  6.8372e+001 26248 106970,107111,106840
 7.0000e-001 107666 -3.3389e+002 -1.7443e+002  9.7459e+001 25908 107369,107499,107395
 7.0000e-001 107643 -4.2848e+002 -4.4354e+002  1.9389e+002 25908 107369,107525,107499
 7.0000e-001 107620 -2.7544e+002 -1.9173e+002  1.4857e+002 25908 107395,107473,107447
 7.0000e-001 107597 -2.3727e+002 -1.2862e+002  1.2146e+002 25908 107395,107499,107473
 7.0000e-001 107574 -4.3471e+002 -2.3071e+002  3.1308e+002 25908 107395,107447,107421
 7.0000e-001 107551 -2.0180e+002 -3.4007e+002  2.1989e+002 25908 107343,107525,107369
 7.0000e-001 108251 -2.8504e+002 -1.0132e+002  1.5875e+002 25454 108274,108006,107954
 7.0000e-001 108228 -2.2609e+002 -5.8483e+001  1.3282e+002 25454 108274,107954,108110
 7.0000e-001 108205 -2.0123e+002 -2.1413e+002  1.8536e+002 25454 108346,108032,108006
 7.0000e-001 108182 -3.3325e+002 -1.4662e+002  1.8768e+002 25454 107954,108006,107980
 7.0000e-001 108159 -1.1484e+002 -1.4487e+002  1.1630e+002 25454 107928,108110,107954
 7.0000e-001 108136 -3.6155e+002 -3.7912e+002  2.0839e+002 25454 108058,108110,108084
 7.0000e-001 108300 -2.6664e+002 -1.5100e+002  1.8963e+002 25454 108346,108006,108274
 7.0000e-001 108323 -2.3985e+002 -1.0318e+002  1.4681e+002 25454 108058,108274,108110
 7.0000e-001 108372 -1.1162e+002 -1.4454e+002  1.5424e+002 25454 108058,108032,108346
 7.0000e-001 108395 -1.8820e+002 -7.8061e+001  1.5596e+002 25454 108058,108346,108274
 7.0000e-001 108822 -1.7814e+002 -9.5911e+001  1.0329e+002 24943 108525,108681,108655
 7.0000e-001 108799 -2.3150e+002 -1.2644e+002  5.3664e+001 24943 108499,108681,108525
 7.0000e-001 108776 -1.1323e+002 -7.0249e+001  7.7338e+001 24943 108525,108655,108629
 7.0000e-001 108753 -2.0422e+002 -7.7335e+001  8.1679e+001 24943 108525,108629,108603
 7.0000e-001 108730 -2.3990e+002 -1.2741e+002  1.2116e+002 24943 108551,108603,108577
 7.0000e-001 108707 -2.8639e+002 -1.6211e+002  1.3664e+002 24943 108525,108603,108551
 7.0000e-001 109407  2.5239e+001 -4.1193e+001  3.5603e+001 24745 109162,109214,109188
 7.0000e-001 109384 -9.3704e+001 -5.5536e+001  4.2609e+001 24745 109162,109266,109214
 7.0000e-001 109361 -1.1355e+002 -3.6843e+001  1.5056e+001 24745 109084,109266,109162
 7.0000e-001 109338 -1.5590e+002 -2.0403e+001  3.3021e+001 24745 109084,109162,109136
 7.0000e-001 109315 -2.2545e+001 -7.0959e+001  3.8813e+001 24745 109214,109266,109240
 7.0000e-001 109292 -1.0580e+002 -3.5780e+001  6.0570e+001 24745 109084,109136,109110
 7.0000e-001 109785 -3.7958e+002 -2.1421e+002  2.1711e+002 24341 109537,109615,109563
 7.0000e-001 109762 -6.3083e+001 -1.4396e+002  2.0115e+002 24341 109537,109641,109615
 7.0000e-001 109739 -2.4687e+002 -2.0777e+002  1.6967e+002 24341 109563,109615,109589
 7.0000e-001 109716 -1.7859e+002 -2.0940e+002  1.3733e+002 24341 109537,109667,109641
 7.0000e-001 109693 -8.1524e+001 -2.1265e+002  1.3306e+002 24341 109511,109667,109537
 7.0000e-001 110163 -3.4241e+002 -2.0105e+002  2.3160e+002 23837 110186,109967,109915
 7.0000e-001 110140 -3.4056e+002 -2.0195e+002  2.3327e+002 23837 110186,109915,109889
 7.0000e-001 110117 -1.6475e+002 -8.7922e+001  1.7554e+002 23837 109889,110045,109993
 7.0000e-001 110094 -3.2162e+002 -3.2212e+002  1.6408e+002 23837 109915,109967,109941
 7.0000e-001 110071 -2.1051e+002 -7.7381e+000  3.8897e+001 23837 109993,110045,110019
 7.0000e-001 110212 -3.4104e+002 -1.9941e+002  2.3234e+002 23837 109993,109967,110186
 7.0000e-001 110235 -3.3993e+002 -2.0012e+002  2.3395e+002 23837 109993,110186,109889
 7.0000e-001 110336 -2.1957e+002 -5.0160e+002  2.2900e+002 23433 110258,110310,110284
 7.0000e-001 110584 -3.0126e+002 -1.8871e+002  1.3937e+002 22829 110607,110411,110385
 7.0000e-001 110561 -3.3146e+002 -2.0190e+002  1.4180e+002 22829 110607,110385,110489
 7.0000e-001 110538 -3.0242e+002 -1.9165e+002  1.1457e+002 22829 110437,110489,110463
 7.0000e-001 110515 -2.3482e+002 -1.1617e+002  1.8157e+002 22829 110359,110489,110385
 7.0000e-001 110633 -3.0895e+002 -1.8797e+002  1.1864e+002 22829 110437,110411,110607
 7.0000e-001 110656 -3.2514e+002 -1.9574e+002  1.2116e+002 22829 110437,110607,110489
 7.0000e-001 110906 -4.9781e+002 -2.1014e+002  1.4256e+002 22432 110707,110759,110733
 7.0000e-001 110883 -3.4509e+002 -2.3615e+002  1.2053e+002 22432 110707,110785,110759
 7.0000e-001 110860 -3.2098e+002 -2.0858e+002  1.8165e+002 22432 110707,110811,110785
 7.0000e-001 110837 -3.9359e+002 -2.8729e+002  1.4679e+002 22432 110681,110811,110707
 7.0000e-001 111288 -7.7260e+000 -6.7298e+001  8.9890e+001 22142 111092,111144,111118
 7.0000e-001 111265 -1.3188e+002 -8.8312e+001  8.5976e+001 22142 111066,111144,111092
 7.0000e-001 111242 -1.1244e+002 -3.8491e+001  9.0872e+001 22142 111040,111144,111066
 7.0000e-001 111219 -2.2120e+002 -1.6791e+001  6.6118e+001 22142 111014,111144,111040
 7.0000e-001 111196 -1.1365e+002  3.4327e+001  5.1583e+001 22142 111014,111170,111144
 7.0000e-001 111389 -1.1200e+001 -5.3160e+001  1.1480e+002 21830 111311,111363,111337
 7.0000e-001 111735 -2.6759e+002  1.9475e+001  2.5139e+002 21268 111758,111542,111438
 7.0000e-001 111712 -1.9718e+002  3.6049e+001  1.5338e+002 21268 111758,111438,111412
 7.0000e-001 111689 -7.2292e+001 -1.3800e+002  2.9523e+002 21268 111438,111542,111464
 7.0000e-001 111666  8.3734e+001 -6.4303e+001  3.6193e+002 21268 111464,111542,111490
 7.0000e-001 111643 -4.7661e+002 -2.8307e+002  2.4991e+002 21268 111412,111594,111568
 7.0000e-001 111620  3.0646e+002  1.6356e+002  4.5874e+002 21268 111490,111542,111516
 7.0000e-001 111784 -2.7665e+002 -4.3640e+001  2.4311e+002 21268 111568,111542,111758
 7.0000e-001 111807 -2.7462e+002 -1.6759e+002  1.7578e+002 21268 111568,111758,111412
 7.0000e-001 111959 -3.1280e+002 -2.7111e+001  9.9782e+001 20864 111982,111910,111884
 7.0000e-001 111936 -2.6800e+002 -1.1544e+001  1.4622e+002 20864 112114,111832,111910
 7.0000e-001 112008 -2.9430e+002 -6.2639e+001  1.2558e+002 20864 112114,111910,111982
 7.0000e-001 112140 -2.5946e+002 -7.2774e+001  1.1108e+002 20864 111858,111832,112114
 7.0000e-001 112163 -2.8851e+002 -1.3307e+002  9.1590e+001 20864 111858,112114,111982
 7.0000e-001 112411 -5.5095e+001  3.5367e+001  1.3465e+001 20324 112186,112290,112212
 7.0000e-001 112388 -1.7437e+001  5.4768e+001  6.5017e+000 20324 112186,112316,112290
 7.0000e-001 112365  1.4873e+002 -1.1540e+002 -5.4812e-001 20324 112212,112290,112264
 7.0000e-001 112342 -6.2035e+002 -2.6561e+002 -4.2326e+001 20324 112212,112264,112238
 7.0000e-001 112659 -8.3340e+001 -3.1311e+001  1.6836e+002 19920 112512,112564,112538
 7.0000e-001 112636 -1.5204e+002 -9.8489e+001  1.4029e+002 19920 112434,112564,112512
 7.0000e-001 112613 -1.5488e+002 -9.7148e+001  1.3588e+002 19920 112434,112512,112460
 7.0000e-001 112590 -1.6328e+002 -1.0877e+002  1.3969e+002 19920 112460,112512,112486
 7.0000e-001 112811 -1.2850e+002 -5.3519e+001  1.0006e+002 19630 112684,112736,112710
 7.0000e-001 112788 -3.5672e+001 -1.0898e+002  5.1395e+001 19630 112684,112762,112736
 7.0000e-001 113012 -1.6090e+002 -6.3580e+001  1.8569e+002 19169 112862,112940,112888
 7.0000e-001 112989 -2.8730e+002 -2.1652e+002  1.2786e+002 19169 112836,112940,112862
 7.0000e-001 112966 -1.7381e+002 -2.4426e+002  1.6769e+002 19169 112888,112940,112914
 7.0000e-001 113213 -3.9585e+002 -1.6338e+002  1.9991e+002 18600 113037,113089,113063
 7.0000e-001 113190 -3.5272e+002 -1.7426e+002  1.9377e+002 18600 113037,113115,113089
 7.0000e-001 113167 -4.1712e+002 -2.6646e+002  2.6110e+002 18600 113037,113141,113115
 7.0000e-001 113485 -1.7258e+002 -6.9356e+001  1.7193e+002 18352 113260,113312,113286
 7.0000e-001 113462 -3.4154e+002 -2.1325e+002  2.3420e+002 18352 113260,113390,113312
 7.0000e-001 113439 -3.2193e+002 -9.0288e+001  1.8865e+002 18352 113312,113390,113364
 7.0000e-001 113416 -1.8468e+002 -7.3314e+001  1.9335e+002 18352 113312,113364,113338
 7.0000e-001 113757 -2.5653e+002 -1.0434e+002  1.8944e+002 17834 113558,113610,113584
 7.0000e-001 113734 -3.5481e+002 -1.9179e+002  2.3352e+002 17834 113532,113610,113558
 7.0000e-001 113711 -3.7263e+002 -2.4726e+002  1.9414e+002 17834 113532,113662,113610
 7.0000e-001 113688 -1.9164e+002 -7.1073e+001  2.6630e+002 17834 113610,113662,113636
 7.0000e-001 113958 -2.3897e+002 -9.9393e+001  1.3931e+002 17330 113782,113834,113808
 7.0000e-001 113935 -1.2523e+002 -9.2455e+001  1.0243e+002 17330 113782,113886,113834
 7.0000e-001 113912 -1.5718e+002 -7.6306e+001  6.3988e+001 17330 113834,113886,113860
 7.0000e-001 114110 -3.7728e+002 -1.5247e+002  2.4229e+002 16874 113983,114035,114009
 7.0000e-001 114087 -1.4203e+002 -3.3050e+002  1.9640e+002 16874 113983,114061,114035
 7.0000e-001 114465 -2.9605e+002 -1.2587e+002  8.0383e+001 16270 114240,114292,114266
 7.0000e-001 114442 -2.7330e+002 -8.6253e+001  5.9502e+001 16270 114240,114370,114292
 7.0000e-001 114419 -1.5904e+002 -6.6743e+001  9.5693e+001 16270 114292,114344,114318
 7.0000e-001 114396 -3.0033e+002 -1.3983e+002  4.8808e+001 16270 114292,114370,114344
 7.0000e-001 114566 -1.1305e+001  1.1305e+001  3.2283e+002 15834 114488,114540,114514
 7.0000e-001 114667 -2.2473e+002 -9.2914e+001  1.4771e+002 15155 114589,114641,114615
 7.0000e-001 114890 -2.2316e+002 -9.0593e+001  1.7967e+002 421 114766,114818,114792
 7.0000e-001 114867 -3.0601e+002 -2.4693e+002  1.4828e+002 421 114714,114818,114766
 7.0000e-001 114844 -3.7714e+002 -1.6052e+002  8.4511e+001 421 114714,114766,114740
 8.0000e-001 66553 -3.1214e+002 -1.3781e+002  1.7057e+002 66108 66354,66458,66432
 8.0000e-001 66530 -3.2014e+002 -1.3552e+002  1.1361e+002 66108 66328,66458,66354
 8.0000e-001 66507 -1.7146e+002 -1.2109e+002  1.0717e+002 66108 66354,66432,66406
 8.0000e-001 66484  8.8245e+001  4.3914e+001  1.9881e+002 66108 66354,66406,66380
 8.0000e-001 66951 -2.2118e+002 -9.3415e+001  9.5015e+001 65910 66703,66833,66807
 8.0000e-001 66928 -2.9576e+001 -7.8615e+001  1.3706e+002 65910 66677,66833,66703
 8.0000e-001 66905 -1.1065e+002 -1.8026e+002  1.4124e+002 65910 66729,66781,66755
 8.0000e-001 66882 -3.2437e+002 -1.3611e+002  1.3668e+002 65910 66729,66807,66781
 8.0000e-001 66859 -2.4875e+002 -4.2321e+001  1.0397e+002 65910 66703,66807,66729
 8.0000e-001 67150 -2.9546e+002 -1.2304e+002  1.5380e+002 65712 67026,67078,67052
 8.0000e-001 67127 -3.2240e+002 -4.7412e+001  1.2558e+002 65712 66974,67078,67026
 8.0000e-001 67104 -1.1472e+003 -5.7414e+002  4.3600e+002 65712 66974,67026,67000
 8.0000e-001 67481 -5.2866e+002 -1.3338e+002  2.1544e+002 65422 67282,67360,67334
 8.0000e-001 67458 -2.5803e+002 -9.5919e+001  3.0615e+002 65422 67282,67386,67360
 8.0000e-001 67435 -1.3583e+002  5.8652e+001  1.5495e+002 65422 67282,67334,67308
 8.0000e-001 67412 -4.4151e+001 -7.5883e+001  1.6460e+002 65422 67256,67386,67282
 8.0000e-001 68115 -1.6162e+002 -1.6045e+002  8.9043e+001 65018 67795,67925,67873
 8.0000e-001 68092 -2.0776e+002 -1.8126e+002  6.4196e+001 65018 67769,67925,67795
 8.0000e-001 68069 -1.3678e+002 -9.2212e+001  1.0181e+002 65018 67873,67925,67899
 8.0000e-001 68046 -2.5037e+002 -2.7222e+002  1.0153e+002 65018 67769,67951,67925
 8.0000e-001 68023 -2.3916e+002 -2.2125e+002  1.2563e+002 65018 67795,67873,67821
 8.0000e-001 68000 -2.4605e+002 -1.8898e+002  8.7912e+001 65018 67821,67873,67847
 8.0000e-001 67977 -3.7371e+002 -2.1357e+002  1.9003e+002 65018 67743,67951,67769
 8.0000e-001 68363 -1.2723e+002 -2.7964e+002  2.6790e+002 64820 68190,68242,68216
 8.0000e-001 68340 -2.6178e+002 -2.0215e+002  2.8536e+002 64820 68190,68268,68242
 8.0000e-001 68317 -1.4462e+002 -1.4752e+002  3.0879e+002 64820 68164,68268,68190
 8.0000e-001 68294 -5.5544e+002 -2.2998e+002  2.2654e+002 64820 68138,68268,68164
 8.0000e-001 68513 -2.1734e+002 -1.4906e+002  1.7036e+002 64366 68868,68536,68438
 8.0000e-001 68490 -1.2846e+002 -1.0226e+002  9.9742e+001 64366 68536,68412,68386
 8.0000e-001 68562 -3.4394e+002 -2.1164e+002  1.8293e+002 64366 68740,68536,68464
 8.0000e-001 68585 -1.8846e+002 -1.3214e+002  1.2419e+002 64366 68608,68536,68386
 8.0000e-001 68634 -2.7938e+002 -3.1816e+002  9.5630e+001 64366 68464,68536,68608
 8.0000e-001 68766 -1.8653e+002 -1.1720e+002  1.4348e+002 64366 68438,68536,68740
 8.0000e-001 68894 -1.9593e+002 -1.1818e+002  1.7966e+002 64366 68412,68536,68868
 8.0000e-001 69172  2.2360e+001 -2.8481e+002  7.5067e+001 64168 69022,69074,69048
 8.0000e-001 69149 -2.0163e+002 -8.3830e+001  1.2954e+002 64168 68996,69074,69022
 8.0000e-001 69126 -2.6507e+002 -2.1714e+002  7.0701e+001 64168 68996,69100,69074
 8.0000e-001 69371 -2.7395e+002 -1.1365e+002  2.0502e+002 63970 69466,69394,69273
 8.0000e-001 69348 -1.7053e+002 -1.1154e+002  9.3844e+001 63970 69394,69247,69221
 8.0000e-001 69325 -4.9727e+002 -2.0977e+002  1.4625e+002 63970 69195,69299,69221
 8.0000e-001 69420 -3.7277e+002 -1.8273e+002  2.4826e+002 63970 69299,69273,69394
 8.0000e-001 69443 -2.6776e+002 -2.1310e+002  1.5449e+002 63970 69299,69394,69221
 8.0000e-001 69492 -3.0340e+002 -1.6241e+002  1.9267e+002 63970 69247,69394,69466
 8.0000e-001 69904 -2.5649e+001 -4.9294e+001  3.4092e+001 63680 69705,69783,69731
 8.0000e-001 69881 -1.6128e-001 -2.8390e+001  2.2786e+001 63680 69679,69783,69705
 8.0000e-001 69858 -5.0590e+001 -1.0936e+002  5.1220e+001 63680 69679,69809,69783
 8.0000e-001 69835 -3.3181e+001 -2.7045e+001  4.0551e+001 63680 69731,69783,69757
 8.0000e-001 70054 -8.0567e+000 -1.4381e+002  9.2837e+001 63476 70077,69953,69927
 8.0000e-001 70031  4.2534e+001 -6.1045e+001  1.3241e+002 63476 70077,69927,70005
 8.0000e-001 70103 -7.6615e+001 -8.8353e+001  5.7699e+001 63476 69979,69953,70077
 8.0000e-001 70126 -3.5565e+001 -1.3966e+001  9.0935e+001 63476 69979,70077,70005
 8.0000e-001 70325 -4.7837e+002 -1.9550e+002  2.3856e+002 63278 70149,70227,70175
 8.0000e-001 70302 -2.0721e+002 -7.8310e+001  2.6072e+002 63278 70149,70253,70227
 8.0000e-001 70279 -5.8572e+002 -2.4695e+002  1.3604e+002 63278 70175,70227,70201
 8.0000e-001 70597 -1.9962e+002  2.5395e+000  9.8504e+001 63080 70372,70476,70424
 8.0000e-001 70574 -9.8563e+001 -3.9704e+001  1.2787e+002 63080 70372,70502,70476
 8.0000e-001 70551 -3.0179e+002 -1.2534e+002  1.6010e+002 63080 70424,70476,70450
 8.0000e-001 70528 -4.1693e+002 -1.2701e+002  2.5328e+002 63080 70372,70424,70398
 8.0000e-001 70847 -3.5660e-001 -1.5643e+002  4.3333e+001 62740 70870,70648,70622
 8.0000e-001 70824 -1.1311e+002 -1.2148e+002  9.4476e+001 62740 70870,70622,70752
 8.0000e-001 70801 -3.3721e+001 -2.4365e+002  1.0509e+002 62740 70648,70726,70700
 8.0000e-001 70778 -3.1749e+001 -2.7711e+002  9.9603e+001 62740 70648,70700,70674
 8.0000e-001 70896 -1.1118e+002 -2.0204e+002  2.9157e+001 62740 70726,70648,70870
 8.0000e-001 70919 -1.6477e+002 -1.3233e+002  9.4398e+001 62740 70726,70870,70752
 8.0000e-001 71022 -1.4764e+001  1.4764e+001  3.6886e+002 62520 70944,70996,70970
 8.0000e-001 71223 -3.7255e+002 -1.9809e+002  2.5831e+002 62230 71073,71151,71099
 8.0000e-001 71200 -3.6179e+002 -1.9072e+002  2.6277e+002 62230 71047,71151,71073
 8.0000e-001 71177 -2.1969e+002 -3.0900e+002  2.1875e+002 62230 71099,71151,71125
 8.0000e-001 71861 -2.4559e+002 -2.7754e+002  5.1575e+001 61712 71515,71697,71671
 8.0000e-001 71838 -2.3279e+002 -2.4791e+002  2.5313e+001 61712 71489,71697,71515
 8.0000e-001 71815 -5.6264e+002 -3.1997e+002  1.6175e+002 61712 71884,71541,71515
 8.0000e-001 71792 -4.0155e+002 -2.3961e+002  1.2930e+002 61712 71884,71515,71671
 8.0000e-001 71769 -1.4377e+002 -3.6236e+002  1.3587e+002 61712 71541,71619,71593
 8.0000e-001 71746 -1.8801e+002 -4.7964e+002  3.3614e+001 61712 71619,71671,71645
 8.0000e-001 71723 -4.7072e+002 -5.7929e+002  3.2380e+002 61712 71541,71593,71567
 8.0000e-001 71910 -4.1114e+002 -4.0122e+002  2.1923e+002 61712 71619,71541,71884
 8.0000e-001 71933 -2.9832e+002 -3.5211e+002  2.0140e+002 61712 71619,71884,71671
 8.0000e-001 72230 -1.2966e+002 -1.8889e+001  8.4487e+000 61208 72253,72060,72008
 8.0000e-001 72207 -1.4686e+002 -3.0464e+001 -2.6694e+000 61208 72253,72008,71982
 8.0000e-001 72184 -1.1771e+002 -3.3986e+001  4.0635e+000 61208 71982,72112,72086
 8.0000e-001 72161 -1.8050e+002 -2.0585e+001  2.7270e+001 61208 72008,72060,72034
 8.0000e-001 72138 -6.3338e+001 -3.5564e+001  3.4139e+001 61208 71956,72112,71982
 8.0000e-001 72279 -1.1044e+002 -2.8235e+001  1.5538e+001 61208 72086,72060,72253
 8.0000e-001 72302 -1.2714e+002 -3.3363e+001  7.4875e+000 61208 72086,72253,71982
 8.0000e-001 72761 -2.2945e+002 -1.3114e+002  1.1781e+002 60804 72487,72617,72513
 8.0000e-001 72738 -2.3989e+002 -2.3505e+002  1.1678e+002 60804 72487,72643,72617
 8.0000e-001 72715 -8.0131e+001 -1.0837e+002  1.1057e+002 60804 72565,72617,72591
 8.0000e-001 72692 -1.6425e+002 -9.7128e+001  1.0521e+002 60804 72513,72617,72565
 8.0000e-001 72669 -1.8970e+002 -1.2465e+002  1.6236e+002 60804 72513,72565,72539
 8.0000e-001 72911 -1.4764e+001  1.4764e+001  3.6886e+002 60556 72784,72836,72810
 8.0000e-001 72888  3.0050e+002  1.1884e+001  2.2185e+002 60556 72784,72862,72836
 8.0000e-001 73468 -1.4178e+002 -1.7515e+002  1.0493e+002 60244 73491,73226,73200
 8.0000e-001 73445 -2.2578e+002 -2.7046e+002  1.6541e+002 60244 73563,73491,73200
 8.0000e-001 73422 -3.4015e+002 -2.6916e+002  1.8349e+002 60244 73563,73200,73174
 8.0000e-001 73399 -1.5727e+002 -2.5513e+002  1.1222e+002 60244 73226,73278,73252
 8.0000e-001 73376 -2.6928e+002 -1.8020e+002  1.1507e+002 60244 73122,73304,73278
 8.0000e-001 73353 -2.8529e+002 -2.9900e+002  1.2919e+002 60244 73096,73304,73122
 8.0000e-001 73330 -6.0861e+002 -2.7225e+002  3.2685e+002 60244 73122,73174,73148
 8.0000e-001 73517 -3.0214e+002 -2.5529e+002  1.4868e+002 60244 73278,73226,73491
 8.0000e-001 73540 -2.5997e+002 -1.4290e+002  1.3547e+002 60244 73278,73491,73122
 8.0000e-001 73589 -4.3058e+002 -2.3738e+002  1.7331e+002 60244 73122,73491,73563
 8.0000e-001 73612 -5.4603e+002 -2.3926e+002  1.9806e+002 60244 73122,73563,73174
 8.0000e-001 73762 -2.5530e+002 -6.0280e+002  2.0794e+002 59875 73661,73713,73687
 8.0000e-001 73739 -3.1312e+002 -2.0822e+002  2.0688e+002 59875 73635,73713,73661
 8.0000e-001 74191 -7.4080e+001 -1.6773e+002  2.3262e+002 59478 74214,73894,73868
 8.0000e-001 74168 -1.8989e+002 -1.6340e+002  2.5105e+002 59478 74214,73868,74050
 8.0000e-001 74145 -7.0320e+001 -1.1068e+002  1.2663e+002 59478 73894,73946,73920
 8.0000e-001 74122 -1.7509e+002 -1.4717e+002  1.5734e+002 59478 73894,73998,73946
 8.0000e-001 74099 -5.6069e+002 -3.3061e+002  4.0927e+002 59478 73998,74050,74024
 8.0000e-001 74076 -2.2750e+002 -3.3833e+001  9.6371e+001 59478 73946,73998,73972
 8.0000e-001 74240 -1.8143e+002 -1.2937e+002  1.8938e+002 59478 73998,73894,74214
 8.0000e-001 74263 -2.9341e+002 -1.2889e+002  1.8937e+002 59478 73998,74214,74050
 8.0000e-001 74720 -2.3535e+002 -2.5805e+002  8.7619e+001 58774 74472,74602,74498
 8.0000e-001 74697 -2.6660e+002 -2.3898e+002  1.0234e+002 58774 74446,74602,74472
 8.0000e-001 74674 -2.4067e+002 -2.0710e+002  9.7194e+001 58774 74498,74576,74524
 8.0000e-001 74651 -2.6411e+002 -2.5212e+002  6.6687e+001 58774 74498,74602,74576
 8.0000e-001 74628 -2.4314e+002 -2.8244e+002  1.2973e+002 58774 74524,74576,74550
 8.0000e-001 75226 -1.7895e+002 -8.8706e+001  9.0708e+001 58270 74955,75085,75033
 8.0000e-001 75203 -1.5535e+002 -1.3110e+002  1.0209e+002 58270 74929,75085,74955
 8.0000e-001 75180 -2.3061e+002 -1.1105e+002  1.2966e+002 58270 75033,75085,75059
 8.0000e-001 75157 -3.2645e+002 -9.6042e+001  9.2933e+001 58270 74955,75007,74981
 8.0000e-001 75134 -1.5985e+002 -7.9058e+001  7.1708e+001 58270 74955,75033,75007
 8.0000e-001 75111 -7.8434e+001 -1.5087e+002  5.7111e+001 58270 74903,75085,74929
 8.0000e-001 75425 -4.5767e+001 -1.2911e+000  1.2519e+001 57830 75448,75301,75249
 8.0000e-001 75402 -5.9994e+001 -2.2371e+001  2.1091e+001 57830 75448,75249,75353
 8.0000e-001 75379 -8.2482e+000 -7.6727e+000 -1.1332e+001 57830 75520,75301,75275
 8.0000e-001 75474 -5.0434e+001  1.2682e+001 -3.6320e-001 57830 75327,75301,75448
 8.0000e-001 75497 -5.8706e+001  2.1045e+000  7.6366e+000 57830 75327,75448,75353
 8.0000e-001 75546 -3.3050e+001 -6.3132e+000 -3.4887e+000 57830 75249,75301,75520
 8.0000e-001 76261 -1.0704e+002 -1.5795e+002  1.0650e+002 57426 76284,76097,76071
 8.0000e-001 76238 -7.2445e+001 -1.1627e+002  9.2643e+001 57426 75889,76097,75915
 8.0000e-001 76215 -1.5332e+002 -1.5751e+002  1.2843e+002 57426 76428,76284,76071
 8.0000e-001 76192 -1.3166e+002 -1.3494e+002  8.5714e+001 57426 76356,75941,75915
 8.0000e-001 76169 -1.5733e+002 -1.4417e+002  1.2476e+002 57426 76428,76071,76019
 8.0000e-001 76146 -1.6006e+002 -1.5040e+002  1.2522e+002 57426 76019,76071,76045
 8.0000e-001 76123 -1.6484e+002 -1.5255e+002  1.5160e+002 57426 75967,76019,75993
 8.0000e-001 76310 -1.0353e+002 -1.4578e+002  8.0271e+001 57426 75915,76097,76284
 8.0000e-001 76333 -1.3058e+002 -1.5925e+002  8.5210e+001 57426 76356,75915,76284
 8.0000e-001 76382 -1.3663e+002 -1.0052e+002  1.0797e+002 57426 75967,75941,76356
 8.0000e-001 76405 -1.3580e+002 -1.2053e+002  1.0370e+002 57426 75967,76356,76284
 8.0000e-001 76454 -1.4235e+002 -1.4651e+002  1.2403e+002 57426 75967,76284,76428
 8.0000e-001 76477 -1.5381e+002 -1.4011e+002  1.2324e+002 57426 75967,76428,76019
 8.0000e-001 76953 -2.0390e+002 -3.7965e+002  1.6433e+002 56908 76976,76711,76685
 8.0000e-001 76930 -2.1101e+002 -3.9432e+002  1.5994e+002 56908 77048,76976,76685
 8.0000e-001 76907 -3.6138e+002 -4.1848e+002  2.3136e+002 56908 77048,76685,76633
 8.0000e-001 76884 -4.8517e+002 -5.9445e+002  2.9711e+002 56908 76711,76789,76763
 8.0000e-001 76861 -2.7932e+002 -2.6808e+002  1.2761e+002 56908 76581,76789,76607
 8.0000e-001 76838 -4.6229e+002 -4.2527e+002  1.4337e+002 56908 76711,76763,76737
 8.0000e-001 76815 -6.9456e+002 -6.4328e+002  3.9741e+002 56908 76633,76685,76659
 8.0000e-001 77002 -2.0916e+002 -3.9000e+002  1.8810e+002 56908 76789,76711,76976
 8.0000e-001 77025 -2.4138e+002 -2.7067e+002  1.1285e+002 56908 76789,76976,76607
 8.0000e-001 77074 -4.4244e+002 -3.8643e+002  1.6195e+002 56908 76607,76976,77048
 8.0000e-001 77097 -5.1910e+002 -3.4381e+002  2.2464e+002 56908 76607,77048,76633
 8.0000e-001 77475 -2.2093e+002 -4.1898e+002  1.9512e+002 56546 77570,77498,77279
 8.0000e-001 77452 -2.1164e+002 -4.9872e+002  2.1506e+002 56546 77498,77227,77357
 8.0000e-001 77429 -2.5078e+002 -4.3979e+002  2.3975e+002 56546 77570,77279,77253
 8.0000e-001 77406 -3.2363e+002 -5.5363e+002  2.4331e+002 56546 77201,77357,77227
 8.0000e-001 77383 -3.1221e+002 -4.0877e+002  1.4922e+002 56546 77279,77331,77305
 8.0000e-001 77524 -2.2329e+002 -3.4203e+002  1.8067e+002 56546 77331,77279,77498
 8.0000e-001 77547 -1.8326e+002 -4.1925e+002  2.4532e+002 56546 77331,77498,77357
 8.0000e-001 77596 -2.7860e+002 -4.4615e+002  2.2821e+002 56546 77227,77498,77570
 8.0000e-001 77619 -2.9988e+002 -4.9391e+002  2.7532e+002 56546 77227,77570,77253
 8.0000e-001 77818 -3.0263e+002 -3.8685e+002  1.8047e+002 56042 77841,77694,77668
 8.0000e-001 77795 -2.7419e+002 -3.5884e+002  1.2981e+002 56042 77841,77668,77746
 8.0000e-001 77772 -2.8088e+002 -4.7778e+002  1.2360e+002 56042 77642,77746,77668
 8.0000e-001 77867 -3.3028e+002 -4.2729e+002  2.0554e+002 56042 77720,77694,77841
 8.0000e-001 77890 -2.9556e+002 -3.9224e+002  1.5390e+002 56042 77720,77841,77746
 8.0000e-001 78349 -1.2551e+002 -6.5637e+001  7.2173e+001 55538 78075,78127,78101
 8.0000e-001 78326 -1.6105e+002 -9.6390e+001  3.7683e+001 55538 78075,78205,78127
 8.0000e-001 78303 -1.5775e+002 -5.5258e+001  3.6284e+001 55538 78075,78231,78205
 8.0000e-001 78280 -1.0202e+002 -1.4233e+002  8.2069e+001 55538 78127,78179,78153
 8.0000e-001 78257 -1.0514e+002 -9.3388e+001  3.4153e+001 55538 78127,78205,78179
 8.0000e-001 78806 -1.6142e+002 -1.9565e+002  7.0718e+001 55034 78829,78636,78610
 8.0000e-001 78783 -1.8399e+002 -1.5745e+002  7.8760e+001 55034 78901,78829,78610
 8.0000e-001 78760 -1.4992e+002 -1.3232e+002  6.7075e+001 55034 78901,78610,78584
 8.0000e-001 78737 -1.9629e+002 -1.9972e+002  8.3761e+001 55034 78558,78688,78662
 8.0000e-001 78714 -1.9559e+002 -1.7141e+002  1.5542e+002 55034 78532,78688,78558
 8.0000e-001 78855 -2.0027e+002 -2.7205e+002  4.2751e+001 55034 78662,78636,78829
 8.0000e-001 78878 -1.9352e+002 -1.9020e+002  8.5756e+001 55034 78662,78829,78558
 8.0000e-001 78927 -1.6930e+002 -1.7442e+002  1.0445e+002 55034 78558,78829,78901
 8.0000e-001 78950 -1.6698e+002 -1.6660e+002  9.9269e+001 55034 78558,78901,78584
 8.0000e-001 79407 -1.4384e+002 -5.5873e+001  1.3560e+002 54430 79430,79237,79159
 8.0000e-001 79384 -2.0120e+002 -9.4908e+001  1.1540e+002 54430 79430,79159,79133
 8.0000e-001 79361 -1.5945e+002 -3.1894e+001  6.3553e+001 54430 79237,79289,79263
 8.0000e-001 79338 -2.0011e+002 -1.0189e+002  1.2443e+002 54430 79185,79237,79211
 8.0000e-001 79315 -2.7843e+002 -1.1182e+002  1.6676e+002 54430 79159,79237,79185
 8.0000e-001 79456 -1.3563e+002 -9.8459e+001  9.7487e+001 54430 79289,79237,79430
 8.0000e-001 79479 -1.6641e+002 -1.3009e+002  8.2480e+001 54430 79289,79430,79133
 8.0000e-001 79936 -1.4269e+002 -6.2945e+001  1.7473e+002 53919 79662,79766,79688
 8.0000e-001 79913 -4.1577e+002 -2.5843e+002  2.8128e+002 53919 79662,79818,79766
 8.0000e-001 79890 -4.2310e+002 -1.1816e+002  1.9054e+002 53919 79766,79818,79792
 8.0000e-001 79867 -2.6613e+002 -1.4439e+002  1.8944e+002 53919 79714,79766,79740
 8.0000e-001 79844 -3.3459e+002 -1.5231e+002  1.9839e+002 53919 79688,79766,79714
 8.0000e-001 80037 -3.9746e+001 -1.3409e+002  1.1934e+002 53671 79959,80011,79985
 8.0000e-001 80405 -7.6911e+001 -1.8972e+001 -9.8701e+000 53267 80108,80264,80238
 8.0000e-001 80382 -3.3175e+001 -1.6762e+000 -1.8368e+000 53267 80082,80264,80108
 8.0000e-001 80359 -2.7025e+001 -1.1953e+002  8.6544e+001 53267 80108,80238,80134
 8.0000e-001 80336 -2.3952e+001 -5.5947e+001  6.8484e+001 53267 80134,80212,80186
 8.0000e-001 80313 -9.9315e+001 -1.2353e+002  1.0922e+002 53267 80134,80238,80212
 8.0000e-001 80290 -1.2642e+000 -8.7119e+001  3.0195e+001 53267 80134,80186,80160
 8.0000e-001 80915 -8.8059e+001 -1.3538e+002  6.0233e+001 52969 80644,80774,80748
 8.0000e-001 80892 -8.5525e+001 -4.0989e+001  3.6573e+001 52969 80618,80774,80644
 8.0000e-001 80869 -1.0502e+002 -1.8285e+002  3.2084e+001 52969 80644,80748,80670
 8.0000e-001 80846 -1.9375e+001 -4.4356e+001  1.0389e+001 52969 80592,80774,80618
 8.0000e-001 80823 -1.6219e+002 -1.3652e+002  5.1065e+001 52969 80670,80722,80696
 8.0000e-001 80800 -8.9513e+001 -1.0613e+002  2.5943e+001 52969 80670,80748,80722
 8.0000e-001 81266 -2.2860e+001 -2.1618e+002  3.7962e+001 52565 81041,81145,81067
 8.0000e-001 81243 -1.5185e+002 -4.1011e+002  9.3877e+001 52565 81041,81171,81145
 8.0000e-001 81220 -3.0286e+002 -7.7789e+002  1.0594e+002 52565 81067,81119,81093
 8.0000e-001 81197 -2.2620e+001 -1.2958e+002  4.5469e+001 52565 81067,81145,81119
 8.0000e-001 81723 -1.7463e+002 -1.8169e+002  7.4853e+001 51904 81449,81527,81475
 8.0000e-001 81700 -1.4783e+002 -1.2766e+002  6.6056e+001 51904 81449,81579,81527
 8.0000e-001 81677 -2.8925e+002 -3.0075e+002  1.4702e+002 51904 81449,81605,81579
 8.0000e-001 81654 -1.5293e+002 -6.4955e+001  8.2980e+001 51904 81527,81579,81553
 8.0000e-001 81631 -2.4993e+002 -1.4830e+002  2.2354e+001 51904 81475,81527,81501
 8.0000e-001 82327 -2.4731e+002 -2.8818e+002  1.8925e+002 51321 82422,82350,82036
 8.0000e-001 82304 -2.4912e+002 -2.0017e+002  2.1134e+002 51321 82494,82350,81958
 8.0000e-001 82281 -2.5934e+002 -3.0270e+002  1.6931e+002 51321 82422,82036,82010
 8.0000e-001 82258 -2.5540e+002 -1.9324e+002  1.9236e+002 51321 82494,81958,81932
 8.0000e-001 82235 -2.5728e+002 -1.2869e+002  1.0900e+002 51321 82062,82114,82088
 8.0000e-001 82212 -6.0690e+002 -3.6419e+002  2.5403e+002 51321 81932,82140,82114
 8.0000e-001 82189 -2.6926e+002 -1.0632e+002  1.6802e+002 51321 81958,82010,81984
 8.0000e-001 82166 -2.7849e+002 -2.3159e+002  1.6748e+002 51321 81906,82140,81932
 8.0000e-001 82376 -2.4183e+002 -3.3229e+002  1.8920e+002 51321 82062,82036,82350
 8.0000e-001 82399 -2.5142e+002 -2.6021e+002  1.8259e+002 51321 82062,82350,82114
 8.0000e-001 82448 -2.2269e+002 -2.6867e+002  2.0689e+002 51321 81958,82350,82422
 8.0000e-001 82471 -2.3117e+002 -2.8108e+002  1.8736e+002 51321 81958,82422,82010
 8.0000e-001 82520 -2.6033e+002 -2.2235e+002  2.0704e+002 51321 82114,82350,82494
 8.0000e-001 82543 -2.6425e+002 -2.1928e+002  1.9060e+002 51321 82114,82494,81932
 8.0000e-001 83019 -2.8911e+002 -1.3752e+002  6.6635e+001 50817 82673,82751,82699
 8.0000e-001 82996 -3.2715e+002 -1.6351e+002  1.3833e+002 50817 83042,82673,82855
 8.0000e-001 82973 -3.1176e+002 -2.0537e+002  1.4287e+002 50817 83042,82855,82803
 8.0000e-001 82950 -4.0899e+002 -2.5232e+002  1.9603e+002 50817 82751,82803,82777
 8.0000e-001 82927 -3.4333e+002 -2.2477e+002  7.7992e+001 50817 82647,82855,82673
 8.0000e-001 82904 -3.8576e+002 -2.6907e+002  1.9980e+002 50817 82803,82855,82829
 8.0000e-001 82881 -3.3277e+002 -2.3940e+002  7.3230e+001 50817 82699,82751,82725
 8.0000e-001 83068 -3.4377e+002 -1.9543e+002  1.5813e+002 50817 82751,82673,83042
 8.0000e-001 83091 -3.1501e+002 -2.2857e+002  1.5707e+002 50817 82751,83042,82803
 8.0000e-001 83290 -2.8878e+002 -1.7045e+002  1.9995e+002 50356 83313,83166,83140
 8.0000e-001 83267 -3.4152e+002 -3.0773e+002  1.5458e+002 50356 83515,83313,83140
 8.0000e-001 83244 -3.9875e+002 -2.9486e+002  7.7077e+001 50356 83515,83140,83385
 8.0000e-001 83339 -3.3633e+002 -2.7738e+002  2.1448e+002 50356 83192,83166,83313
 8.0000e-001 83362 -2.4039e+002 -2.8651e+002  1.7609e+002 50356 83192,83313,83218
 8.0000e-001 83411 -1.3800e+002 -1.4821e+002  1.1644e+002 50356 83114,83218,83385
 8.0000e-001 83541 -2.0780e+002 -2.6185e+002  1.4614e+002 50356 83218,83313,83515
 8.0000e-001 83564 -2.2733e+002 -2.2519e+002  7.8218e+001 50356 83218,83515,83385
 8.0000e-001 83893 -1.2963e+002 -9.7200e+001  4.7320e+001 49552 83720,83798,83746
 8.0000e-001 83870 -1.0898e+002 -2.7620e+000  3.1911e+001 49552 83694,83798,83720
 8.0000e-001 83847 -2.9302e+001 -3.9692e+001  2.1553e+001 49552 83668,83798,83694
 8.0000e-001 83824 -1.3993e+002 -4.6155e+001  2.1985e+001 49552 83746,83798,83772
 8.0000e-001 84141 -3.3080e+002 -2.9879e+002  1.7506e+002 49212 84164,84020,83942
 8.0000e-001 84118 -3.2988e+002 -2.9128e+002  1.9298e+002 49212 84164,83942,83916
 8.0000e-001 84095 -2.1095e+002 -3.6213e+002  1.2086e+002 49212 83942,84020,83968
 8.0000e-001 84072 -2.0990e+002 -1.2871e+002  5.9456e+001 49212 83968,84020,83994
 8.0000e-001 84190 -3.4791e+002 -3.0223e+002  1.6983e+002 49212 84046,84020,84164
 8.0000e-001 84213 -3.4117e+002 -2.9592e+002  1.8685e+002 49212 84046,84164,83916
 8.0000e-001 84800 -1.1639e+002 -3.0775e+002  1.2159e+002 48865 84503,84633,84555
 8.0000e-001 84777 -2.3797e+002 -4.3901e+002  7.1222e+001 48865 84503,84659,84633
 8.0000e-001 84754 -2.2750e+002 -5.9909e+002  9.4905e+001 48865 84555,84633,84581
 8.0000e-001 84731 -1.2615e+002 -7.6935e+002  1.6017e+002 48865 84581,84633,84607
 8.0000e-001 84708 -4.0389e+002 -3.8521e+002  1.0165e+002 48865 84503,84555,84529
 8.0000e-001 84685 -2.3112e+002 -3.9715e+002  1.1230e+002 48865 84477,84659,84503
 8.0000e-001 85355 -1.5901e+002 -1.7324e+002  8.4376e+001 48461 85378,85035,85009
 8.0000e-001 85332 -1.9368e+002 -1.8772e+002  1.0064e+002 48461 85378,85009,85165
 8.0000e-001 85309 -1.4926e+002 -2.2499e+002  1.2479e+002 48461 85450,85061,85035
 8.0000e-001 85286 -2.6700e+002 -2.0713e+002  8.8418e+001 48461 85009,85191,85165
 8.0000e-001 85263 -1.8113e+002 -1.8791e+002  1.3247e+002 48461 85087,85165,85113
 8.0000e-001 85240 -1.2907e+002 -2.6222e+002 -8.7958e+000 48461 84983,85191,85009
 8.0000e-001 85217 -1.5472e+002 -2.2112e+002  8.7750e+001 48461 85113,85165,85139
 8.0000e-001 85404 -1.6534e+002 -1.8004e+002  1.0530e+002 48461 85450,85035,85378
 8.0000e-001 85427 -2.1193e+002 -2.0050e+002  9.4784e+001 48461 85087,85378,85165
 8.0000e-001 85476 -1.7020e+002 -2.7701e+002  1.2072e+002 48461 85087,85061,85450
 8.0000e-001 85499 -1.9814e+002 -2.5314e+002  9.5951e+001 48461 85087,85450,85378
 8.0000e-001 86084 -1.2315e+002 -2.4162e+002  8.2717e+001 48057 86323,86107,85787
 8.0000e-001 86061 -1.4600e+002 -2.7691e+002  1.3236e+002 48057 86107,85761,85943
 8.0000e-001 86038 -1.6708e+002 -1.9156e+002  1.0349e+002 48057 86251,86179,85891
 8.0000e-001 86015 -1.6498e+002 -1.5252e+002  7.0299e+001 48057 86251,85891,85839
 8.0000e-001 85992 -1.7717e+002 -1.8756e+002  1.5268e+002 48057 85891,85943,85917
 8.0000e-001 85969 -1.9768e+002 -1.3171e+002  9.2327e+001 48057 85839,85891,85865
 8.0000e-001 86133 -1.1692e+002 -2.1543e+002  7.3420e+001 48057 85813,85787,86107
 8.0000e-001 86156 -1.4052e+002 -2.3139e+002  8.0422e+001 48057 86179,85813,86107
 8.0000e-001 86205 -1.3777e+002 -1.6411e+002  1.1483e+002 48057 85943,85891,86179
 8.0000e-001 86228 -9.8555e+001 -1.7831e+002  1.1016e+002 48057 85943,86179,86107
 8.0000e-001 86277 -1.1175e+002 -1.5114e+002  8.2512e+001 48057 85813,86179,86251
 8.0000e-001 86300 -1.4162e+002 -1.2666e+002  5.6030e+001 48057 85813,86251,85839
 8.0000e-001 86349 -7.0295e+001 -2.0395e+002  9.9494e+001 48057 85761,86107,86323
 8.0000e-001 86855 -9.4280e+001 -2.4750e+002  1.3185e+002 47545 86878,86584,86558
 8.0000e-001 86832 -1.7081e+002 -2.8029e+002  1.1518e+002 47545 86950,86878,86558
 8.0000e-001 86809 -1.9611e+002 -2.7734e+002  1.1611e+002 47545 86950,86558,86532
 8.0000e-001 86786 -1.2546e+002 -2.4151e+002  1.2837e+002 47545 86584,86662,86610
 8.0000e-001 86763 -1.8798e+002 -2.6010e+002  7.5983e+001 47545 86532,86714,86688
 8.0000e-001 86740 -1.5466e+002 -1.2320e+002  1.3688e+002 47545 86610,86662,86636
 8.0000e-001 86904 -1.3832e+002 -2.8949e+002  1.0513e+002 47545 86662,86584,86878
 8.0000e-001 86927 -1.1089e+002 -2.6872e+002  9.0861e+001 47545 86662,86878,86688
 8.0000e-001 86976 -1.3393e+002 -2.7663e+002  8.4393e+001 47545 86688,86878,86950
 8.0000e-001 86999 -1.7509e+002 -2.8991e+002  8.9972e+001 47545 86688,86950,86532
 8.0000e-001 87328 -1.4927e+002 -1.2403e+002  8.3036e+001 47048 87155,87207,87181
 8.0000e-001 87305 -1.2898e+002 -1.0005e+002  9.9066e+001 47048 87129,87207,87155
 8.0000e-001 87282 -1.7519e+002 -1.0681e+002  9.6930e+001 47048 87103,87207,87129
 8.0000e-001 87259 -2.2145e+002 -2.3347e+002  1.5112e+002 47048 87103,87233,87207
 8.0000e-001 87576 -8.2991e+001 -1.0838e+002  1.0474e+002 46701 87599,87429,87377
 8.0000e-001 87553 -1.2924e+002 -4.7166e+001  6.3491e+001 46701 87599,87377,87481
 8.0000e-001 87530 -1.1479e+001 -1.8242e+001  6.6790e+000 46701 87351,87481,87377
 8.0000e-001 87507  1.4559e+001 -3.6863e+001  5.0541e+001 46701 87377,87429,87403
 8.0000e-001 87625 -1.1302e+002 -2.2103e+002  1.0722e+002 46701 87455,87429,87599
 8.0000e-001 87648 -1.1879e+002 -1.1203e+002  5.4163e+001 46701 87455,87599,87481
 8.0000e-001 87798 -6.3712e+000 -8.2870e-001  2.0828e+000 46239 87697,87749,87723
 8.0000e-001 87775  1.9104e+001 -3.2449e+001  4.2955e+001 46239 87671,87749,87697
 8.0000e-001 88308 -3.8491e+002 -3.3336e+002  1.1905e+002 45735 88089,88167,88141
 8.0000e-001 88285 -2.8211e+002 -2.0479e+002  1.7048e+002 45735 88011,88167,88089
 8.0000e-001 88262 -3.5156e+002 -2.2995e+002  1.7473e+002 45735 87985,88167,88011
 8.0000e-001 88239 -4.4159e+002 -6.5390e+002  2.6434e+002 45735 88011,88089,88063
 8.0000e-001 88216 -3.5284e+002 -3.2178e+002  1.0757e+002 45735 88089,88141,88115
 8.0000e-001 88193 -3.1618e+002 -5.1518e+002  3.7908e+002 45735 88011,88063,88037
 8.0000e-001 88686 -2.5596e+002 -2.3276e+002  1.6651e+002 45316 88438,88516,88490
 8.0000e-001 88663 -2.1935e+002 -1.0501e+002  1.8519e+002 45316 88438,88542,88516
 8.0000e-001 88640 -1.4871e+002 -3.4724e+002  2.2128e+002 45316 88438,88568,88542
 8.0000e-001 88617 -4.4646e+002 -3.5942e+002  1.0396e+002 45316 88438,88490,88464
 8.0000e-001 88594 -1.4276e+002 -3.4276e+002  2.2356e+002 45316 88412,88568,88438
 8.0000e-001 88934 -4.8394e+002 -5.0915e+002  2.8412e+002 44812 88957,88735,88709
 8.0000e-001 88911 -2.9585e+002 -3.4522e+002  1.3041e+002 44812 88957,88709,88839
 8.0000e-001 88888 -2.9091e+002 -2.8813e+002  8.7388e+001 44812 89029,88787,88761
 8.0000e-001 88865 -2.7996e+002 -2.6264e+002  1.1752e+002 44812 88787,88839,88813
 8.0000e-001 88983 -1.5283e+002 -3.3671e+002  2.0047e+002 44812 88761,88735,88957
 8.0000e-001 89006 -2.5635e+002 -3.1375e+002  7.9443e+001 44812 89029,88761,88957
 8.0000e-001 89055 -2.8931e+002 -3.1825e+002  9.7653e+001 44812 88839,88787,89029
 8.0000e-001 89078 -2.8370e+002 -3.7414e+002  1.0031e+002 44812 88839,89029,88957
 8.0000e-001 89228 -2.8049e+002 -7.3144e+002  5.7895e+001 44408 89127,89179,89153
 8.0000e-001 89205 -1.6189e+001 -7.1840e+001  2.5457e+000 44408 89101,89179,89127
 8.0000e-001 89787 -2.4794e+002 -2.1173e+002  1.4288e+002 43854 89810,89545,89519
 8.0000e-001 89764 -2.6569e+002 -2.5980e+002  1.5594e+002 43854 89810,89519,89467
 8.0000e-001 89741 -2.7194e+002 -3.4480e+002  1.4042e+002 43854 89954,89882,89597
 8.0000e-001 89718 -2.7905e+002 -3.4653e+002  1.4746e+002 43854 89954,89597,89571
 8.0000e-001 89695 -1.5663e+002 -2.6469e+002  1.3084e+002 43854 89415,89623,89467
 8.0000e-001 89672 -1.4641e+002 -1.5154e+002  1.1069e+002 43854 89467,89519,89493
 8.0000e-001 89649 -1.3297e+002 -1.9838e+002  1.2134e+002 43854 89415,89467,89441
 8.0000e-001 89836 -2.8436e+002 -2.3091e+002  1.5550e+002 43854 89882,89545,89810
 8.0000e-001 89859 -1.6176e+002 -2.5105e+002  1.2351e+002 43854 89623,89810,89467
 8.0000e-001 89908 -2.7430e+002 -4.2695e+002  1.9289e+002 43854 89623,89597,89882
 8.0000e-001 89931 -2.4798e+002 -3.7493e+002  1.6213e+002 43854 89623,89882,89810
 8.0000e-001 89980 -3.0041e+002 -3.4702e+002  1.8643e+002 43854 89545,89882,89954
 8.0000e-001 90003 -3.2989e+002 -3.8550e+002  2.0016e+002 43854 89545,89954,89571
 8.0000e-001 90251 -7.9578e+001 -1.4426e+002  5.0238e+001 43492 90026,90078,90052
 8.0000e-001 90228 -2.8269e+002 -2.5682e+002  1.2990e+002 43492 90274,90026,90156
 8.0000e-001 90205 -2.5782e+002 -2.8132e+002  1.3306e+002 43492 90346,90274,90156
 8.0000e-001 90182 -2.5951e+002 -3.4491e+002  2.5192e+002 43492 90346,90156,90130
 8.0000e-001 90300 -1.9403e+002 -2.9594e+002  1.5372e+002 43492 90078,90026,90274
 8.0000e-001 90323 -3.0911e+002 -3.4611e+002  1.4195e+002 43492 90078,90274,90104
 8.0000e-001 90372 -4.0947e+002 -3.7504e+002  1.9330e+002 43492 90104,90274,90346
 8.0000e-001 90395 -4.1081e+002 -4.4809e+002  3.1427e+002 43492 90104,90346,90130
 8.0000e-001 90594 -6.6015e+001 -2.0331e+002  1.0345e+002 43052 90418,90496,90444
 8.0000e-001 90571 -8.1454e+000 -1.7920e+001  3.7631e+001 43052 90418,90522,90496
 8.0000e-001 90548 -1.7265e+002 -1.7280e+002  1.1491e+002 43052 90444,90496,90470
 8.0000e-001 91074 -5.1298e+002 -3.5218e+002  3.6008e+002 42434 91241,90884,90858
 8.0000e-001 91051 -1.9451e+002 -2.3941e+002 -1.4226e+000 42434 90702,90910,90884
 8.0000e-001 91028 -6.2101e+001 -7.2592e+001  1.1295e+002 42434 91097,90754,90702
 8.0000e-001 91005 -3.9857e+002 -1.9039e+002  3.1019e+002 42434 91241,90858,91097
 8.0000e-001 90982 -1.6062e+002 -2.2851e+002  1.0112e+002 42434 91169,90806,90780
 8.0000e-001 90959 -1.2827e+002 -1.7182e+002  5.7160e+001 42434 90806,90858,90832
 8.0000e-001 90936 -9.2242e+001 -1.0453e+002  1.0048e+002 42434 90702,90754,90728
 8.0000e-001 91123 -4.0348e+002 -2.9288e+002  3.0068e+002 42434 90780,90754,91097
 8.0000e-001 91146 -2.9071e+002 -3.5121e+002  2.8213e+002 42434 91169,90780,91097
 8.0000e-001 91195 -1.0599e+002 -1.3266e+002  6.6343e+001 42434 90858,90806,91169
 8.0000e-001 91218 -1.1538e+002  4.2242e-001  2.2001e+002 42434 90858,91169,91097
 8.0000e-001 91267 -2.8813e+002 -5.4860e+002  2.4523e+002 42434 90702,90884,91241
 8.0000e-001 91290 -1.9349e+002 -4.1582e+002  2.0393e+002 42434 90702,91241,91097
 8.0000e-001 91698 -7.3685e+001 -2.6313e+002  9.8774e+001 41773 91473,91577,91499
 8.0000e-001 91675 -1.3557e+002 -3.0884e+002  1.2580e+002 41773 91473,91603,91577
 8.0000e-001 91652 -1.5406e+002 -2.1084e+002  4.0224e+001 41773 91499,91551,91525
 8.0000e-001 91629 -1.9881e+002 -2.4105e+002  9.7401e+001 41773 91499,91577,91551
 8.0000e-001 92044 -2.3225e+002 -2.9304e+002  1.6846e+002 41383 91773,91877,91851
 8.0000e-001 92021 -1.9978e+002 -3.5832e+002  9.4153e+001 41383 91747,91877,91773
 8.0000e-001 91998 -1.9679e+002 -2.1069e+002  1.2578e+002 41383 91773,91851,91799
 8.0000e-001 91975 -1.5626e+002 -3.3677e+002  8.6959e+001 41383 91747,91903,91877
 8.0000e-001 91952 -6.3479e+001 -3.0222e+002  8.8841e+001 41383 91721,91903,91747
 8.0000e-001 91929 -3.5155e+001 -2.0637e+002  8.5404e+001 41383 91799,91851,91825
 8.0000e-001 92601 -2.0723e+002 -2.3073e+002  7.9870e+001 40979 92229,92411,92307
 8.0000e-001 92578 -2.4830e+002 -2.5565e+002  9.0305e+001 40979 92229,92437,92411
 8.0000e-001 92555 -1.7898e+002 -1.6376e+002  7.3919e+001 40979 92229,92307,92281
 8.0000e-001 92532 -1.4548e+002 -1.7068e+002  9.5965e+001 40979 92333,92411,92385
 8.0000e-001 92509 -1.5390e+002 -1.9325e+002  9.6253e+001 40979 92307,92411,92333
 8.0000e-001 92486 -2.5030e+002 -2.9376e+002  4.4823e+001 40979 92229,92281,92255
 8.0000e-001 92463 -3.3262e+001 -1.6513e+002  6.9381e+001 40979 92333,92385,92359
 8.0000e-001 93235 -2.2297e+002 -1.5628e+002  1.9097e+002 40525 92941,92993,92967
 8.0000e-001 93212 -3.0260e+002 -5.5787e+001  1.0440e+002 40525 93258,92941,92889
 8.0000e-001 93189 -2.5156e+002 -2.3476e+001  8.3307e+001 40525 93258,92889,93071
 8.0000e-001 93166 -2.2355e+002 -1.5478e+002  8.2961e+001 40525 92889,92941,92915
 8.0000e-001 93143 -1.2258e+002 -9.1841e+001  7.5521e+001 40525 92863,93071,92889
 8.0000e-001 93120 -2.3557e+002 -1.4872e+002  9.5533e+001 40525 92993,93071,93019
 8.0000e-001 93097 -2.6708e+002 -1.8739e+002  1.1083e+002 40525 93019,93071,93045
 8.0000e-001 93284 -3.2748e+002 -1.1265e+002  1.6563e+002 40525 92993,92941,93258
 8.0000e-001 93307 -2.2403e+002 -4.1521e+001  1.3315e+002 40525 92993,93258,93071
 8.0000e-001 93636 -3.4418e+002 -3.2494e+002  2.4230e+002 40235 93437,93541,93515
 8.0000e-001 93613 -2.4600e+002 -4.0514e+002  2.1189e+002 40235 93411,93541,93437
 8.0000e-001 93590 -1.0749e+002 -2.9828e+002  1.0343e+002 40235 93463,93515,93489
 8.0000e-001 93567 -1.8648e+002 -2.3788e+002  7.9318e+001 40235 93437,93515,93463
 8.0000e-001 94014 -3.4897e+002 -4.5910e+002  1.4607e+002 39873 93766,93870,93792
 8.0000e-001 93991 -3.3090e+002 -4.5628e+002  1.4478e+002 39873 93766,93896,93870
 8.0000e-001 93968 -2.8303e+002 -3.6459e+002  1.7481e+002 39873 93792,93870,93844
 8.0000e-001 93945 -2.4374e+002 -3.2124e+002  1.3317e+002 39873 93792,93844,93818
 8.0000e-001 93922 -2.5024e+002 -3.9502e+002  2.3477e+002 39873 93740,93896,93766
 8.0000e-001 94164  2.0751e+001 -2.8133e+001  4.3802e+001 39461 94037,94089,94063
 8.0000e-001 94141 -5.8999e+001  7.7121e+000  4.0602e+001 39461 94037,94115,94089
 8.0000e-001 94363 -1.8899e+002 -1.7780e+002  1.0316e+002 39057 94386,94239,94213
 8.0000e-001 94340 -1.2262e+002 -1.4055e+002  8.8401e+001 39057 94386,94213,94187
 8.0000e-001 94317 -2.2003e+002 -2.2737e+002  1.3077e+002 39057 94187,94291,94265
 8.0000e-001 94412 -9.9606e+001 -1.5173e+002  9.5617e+001 39057 94458,94386,94265
 8.0000e-001 94435 -1.3792e+002 -1.6772e+002  1.0349e+002 39057 94265,94386,94187
 8.0000e-001 94484 -1.6249e+002 -2.1103e+002  1.2351e+002 39057 94239,94386,94458
 8.0000e-001 94896 -3.6344e+002 -2.4590e+002  1.5891e+002 38396 94919,94775,94723
 8.0000e-001 94873 -3.9316e+002 -2.3395e+002  1.5809e+002 38396 94919,94723,94697
 8.0000e-001 94850 -2.6556e+002 -2.1013e+002  1.1797e+002 38396 94723,94775,94749
 8.0000e-001 94827 -1.6839e+002 -1.6155e+002  1.2436e+002 38396 94671,94801,94697
 8.0000e-001 94945 -3.5050e+002 -2.3831e+002  1.5568e+002 38396 94801,94775,94919
 8.0000e-001 94968 -3.6898e+002 -2.1851e+002  1.5148e+002 38396 94801,94919,94697
 8.0000e-001 95265 -3.0454e+002 -3.2150e+002  1.3421e+002 37835 95017,95069,95043
 8.0000e-001 95242 -3.1133e+002 -3.0027e+002  1.3821e+002 37835 95288,95069,95017
 8.0000e-001 95219 -3.1994e+002 -3.3506e+002  1.9592e+002 37835 95288,95017,94991
 8.0000e-001 95196 -3.6756e+002 -3.6895e+002  1.9046e+002 37835 94991,95147,95121
 8.0000e-001 95173 -2.1897e+002 -1.6332e+002  1.3842e+002 37835 95069,95121,95095
 8.0000e-001 95314 -3.0152e+002 -2.1771e+002  1.1471e+002 37835 95121,95069,95288
 8.0000e-001 95337 -3.1256e+002 -2.7249e+002  1.6782e+002 37835 95121,95288,94991
 8.0000e-001 95558 -3.7247e+001 -1.5294e+002  6.7576e+001 37423 95408,95460,95434
 8.0000e-001 95535 -1.4351e+002 -5.0241e+002  1.9320e+002 37423 95382,95460,95408
 8.0000e-001 95512 -2.5464e+002 -5.9178e+002  2.3181e+002 37423 95382,95486,95460
 8.0000e-001 95891 -1.6276e+002 -3.8307e+002  2.1381e+002 37225 95666,95718,95692
 8.0000e-001 95868 -2.9555e+002 -3.9389e+002  2.5996e+002 37225 95666,95796,95718
 8.0000e-001 95845 -1.3522e+002 -2.8835e+002  8.1559e+001 37225 95718,95770,95744
 8.0000e-001 95822 -1.9346e+002 -2.3639e+002  1.4913e+002 37225 95718,95796,95770
 8.0000e-001 95992 -8.7166e+001 -2.6370e+002  8.1490e+001 36735 95914,95966,95940
 8.0000e-001 96142 -3.5482e+002 -2.2292e+002  1.8995e+002 36331 96297,96067,96041
 8.0000e-001 96119 -3.1159e+002 -1.8185e+002  2.2425e+002 36331 96165,96041,96015
 8.0000e-001 96191 -3.4815e+002 -2.1276e+002  2.1105e+002 36331 96297,96041,96165
 8.0000e-001 96323 -3.6096e+002 -1.9297e+002  2.1447e+002 36331 96093,96067,96297
 8.0000e-001 96346 -3.2933e+002 -1.7088e+002  2.3930e+002 36331 96093,96297,96165
 8.0000e-001 96714 -2.5767e+002 -4.1536e+002  2.2126e+002 36041 96737,96495,96443
 8.0000e-001 96691 -3.3675e+002 -3.3899e+002  2.2950e+002 36041 96737,96443,96417
 8.0000e-001 96668 -2.0773e+002 -4.1956e+002  1.4123e+002 36041 96443,96495,96469
 8.0000e-001 96645 -9.3228e+001 -1.8683e+002  1.4012e+002 36041 96391,96521,96417
 8.0000e-001 96622 -6.4058e+001 -1.8689e+002  1.2904e+002 36041 96391,96547,96521
 8.0000e-001 96599 -4.0234e+001 -1.7833e+002  1.2833e+002 36041 96391,96573,96547
 8.0000e-001 96763 -1.4308e+002 -3.4608e+002  1.9084e+002 36041 96521,96495,96737
 8.0000e-001 96786 -2.9213e+002 -3.2413e+002  2.1536e+002 36041 96521,96737,96417
 8.0000e-001 96936 -1.6430e+002 -1.0795e+002  1.4758e+002 35637 97031,96959,96835
 8.0000e-001 96913 -2.3874e+002 -1.3725e+002  1.2561e+002 35637 97163,96959,96809
 8.0000e-001 96985 -2.1260e+002 -1.1644e+002  1.5067e+002 35637 96861,96835,96959
 8.0000e-001 97008 -2.4114e+002 -1.4920e+002  1.9143e+002 35637 96861,96959,96887
 8.0000e-001 97057 -2.0578e+002 -6.9005e+001  1.1189e+002 35637 96809,96959,97031
 8.0000e-001 97189 -1.9190e+002 -1.1505e+002  1.3781e+002 35637 96887,96959,97163
 8.0000e-001 97597 -1.2619e+002 -1.6360e+002  1.3638e+002 35190 97450,97502,97476
 8.0000e-001 97574 -1.4201e+002 -2.3706e+002  1.7982e+002 35190 97372,97502,97450
 8.0000e-001 97551 -1.3920e+002 -2.5612e+002  1.6563e+002 35190 97372,97450,97398
 8.0000e-001 97528 -1.1259e+002 -2.2535e+002  1.3529e+002 35190 97398,97450,97424
 8.0000e-001 98054 -2.3291e+002 -3.0852e+002  1.9406e+002 34636 97806,97936,97858
 8.0000e-001 98031 -3.3780e+002 -2.3351e+002  1.7959e+002 34636 97780,97936,97806
 8.0000e-001 98008 -3.3167e+002 -3.1113e+002  1.2944e+002 34636 97806,97858,97832
 8.0000e-001 97985 -2.5869e+002 -3.2207e+002  2.2599e+002 34636 97884,97936,97910
 8.0000e-001 97962 -1.7533e+002 -2.1633e+002  1.6580e+002 34636 97858,97936,97884
 8.0000e-001 98530 -1.6836e+002  7.1051e+001  6.5539e+001 34068 98697,98184,98366
 8.0000e-001 98507  2.4846e+000  7.0478e+000 -8.7536e+000 34068 98158,98366,98184
 8.0000e-001 98484 -2.3856e+002 -1.9472e+002  1.0993e+002 34068 98553,98262,98236
 8.0000e-001 98461 -2.7337e+002 -2.0229e+002  1.1280e+002 34068 98553,98236,98210
 8.0000e-001 98438 -2.2559e+002 -1.0503e+002  1.0019e+002 34068 98841,98625,98366
 8.0000e-001 98415 -2.3326e+002 -3.3364e+002  1.6744e+002 34068 98769,98288,98262
 8.0000e-001 98392 -3.1490e+002 -4.9865e+001  1.0055e+002 34068 98841,98366,98340
 8.0000e-001 98579 -2.7228e+002 -2.4576e+002  1.3205e+002 34068 98769,98262,98553
 8.0000e-001 98602 -2.2413e+002 -1.1952e+002  1.0444e+002 34068 98625,98314,98553
 8.0000e-001 98651 -2.0475e+002 -8.1768e+001  7.6542e+001 34068 98697,98366,98625
 8.0000e-001 98674 -2.5738e+002 -1.9957e+002  9.4131e+001 34068 98210,98625,98553
 8.0000e-001 98723 -2.2987e+002 -1.1552e+002  8.7597e+001 34068 98210,98184,98697
 8.0000e-001 98746 -2.0326e+002 -1.4620e+002  1.1566e+002 34068 98210,98697,98625
 8.0000e-001 98795 -1.5486e+002 -2.4320e+002  1.1065e+002 34068 98314,98288,98769
 8.0000e-001 98818 -2.1128e+002 -1.8169e+002  7.6759e+001 34068 98314,98769,98553
 8.0000e-001 98867 -3.1715e+002 -1.4985e+002  7.3873e+001 34068 98314,98625,98841
 8.0000e-001 98890 -4.0802e+002 -9.1792e+001  7.8556e+001 34068 98314,98841,98340
 8.0000e-001 99268 -3.2810e+002 -3.0182e+002  2.1760e+002 33450 99291,99098,99072
 8.0000e-001 99245 -3.6844e+002 -2.3723e+002  1.3198e+002 33450 99291,99072,99020
 8.0000e-001 99222 -5.4007e+002 -2.7692e+002  2.0455e+002 33450 99020,99072,99046
 8.0000e-001 99199 -2.7698e+002 -2.2318e+002  1.1554e+002 33450 99020,99150,99124
 8.0000e-001 99176 -2.8477e+002 -1.8580e+002  3.6489e+001 33450 98994,99150,99020
 8.0000e-001 99317 -1.8161e+002 -2.4069e+002  2.1055e+002 33450 99124,99098,99291
 8.0000e-001 99340 -3.1783e+002 -2.2556e+002  1.3637e+002 33450 99124,99291,99020
 8.0000e-001 99865 -2.4912e+002 -2.3278e+002  1.4673e+002 32944 100176,99960,99888
 8.0000e-001 99842 -2.8710e+002 -2.2757e+002  1.4925e+002 32944 100104,99888,99522
 8.0000e-001 99819 -2.2157e+002 -2.1032e+002  1.6213e+002 32944 100248,99960,99626
 8.0000e-001 99796 -2.6784e+002 -2.7170e+002  1.1135e+002 32944 100032,99652,99626
 8.0000e-001 99773 -2.5311e+002 -2.2499e+002  1.1930e+002 32944 100104,99522,99496
 8.0000e-001 99750 -1.5509e+002 -1.4687e+002  2.4151e+001 32944 99574,99626,99600
 8.0000e-001 99727 -1.7031e+002 -2.1442e+002  1.7886e+002 32944 100248,99626,99574
 8.0000e-001 99704 -1.9127e+002 -1.9649e+002  1.1862e+002 32944 99444,99496,99470
 8.0000e-001 99914 -2.6957e+002 -2.2715e+002  1.2467e+002 32944 100176,99888,100032
 8.0000e-001 99937 -2.8242e+002 -2.0887e+002  1.4364e+002 32944 99678,99888,99444
 8.0000e-001 99986 -2.7883e+002 -1.9599e+002  1.4725e+002 32944 99522,99888,99960
 8.0000e-001 100009 -2.7574e+002 -1.6805e+002  1.6722e+002 32944 99522,99960,99548
 8.0000e-001 100058 -2.7709e+002 -3.0445e+002  9.5960e+001 32944 99678,99652,100032
 8.0000e-001 100081 -3.0768e+002 -2.6789e+002  9.7634e+001 32944 99678,100032,99888
 8.0000e-001 100130 -2.2568e+002 -2.1513e+002  1.4051e+002 32944 99444,99888,100104
 8.0000e-001 100153 -2.0583e+002 -2.2807e+002  1.1498e+002 32944 99444,100104,99496
 8.0000e-001 100202 -2.7545e+002 -2.6839e+002  1.2880e+002 32944 99626,99960,100176
 8.0000e-001 100225 -2.8592e+002 -2.6735e+002  1.0764e+002 32944 99626,100176,100032
 8.0000e-001 100274 -2.9463e+002 -2.1211e+002  1.5208e+002 32944 99548,99960,100248
 8.0000e-001 100297 -2.4881e+002 -2.2037e+002  1.6866e+002 32944 99548,100248,99574
 8.0000e-001 100754 -1.5542e+002 -1.5925e+002  6.8401e+001 32369 100777,100584,100506
 8.0000e-001 100731 -1.3281e+002 -2.2156e+002  1.3644e+002 32369 100777,100506,100636
 8.0000e-001 100708 -2.5603e+002 -2.2102e+002  1.5379e+002 32369 100480,100636,100506
 8.0000e-001 100685 -3.1027e+002 -2.2820e+002  5.5789e+001 32369 100532,100584,100558
 8.0000e-001 100662 -1.6607e+002 -1.8765e+002  6.9363e+001 32369 100506,100584,100532
 8.0000e-001 100803 -1.5073e+002 -5.7753e+001  6.9071e+001 32369 100610,100584,100777
 8.0000e-001 100826 -1.2719e+002 -1.3077e+002  1.2710e+002 32369 100610,100777,100636
 8.0000e-001 101025 -2.2678e+002 -2.1631e+002  1.9670e+002 31857 100875,100927,100901
 8.0000e-001 101002 -4.1552e+002 -2.1727e+002  1.7978e+002 31857 100875,100953,100927
 8.0000e-001 100979 -4.4049e+002 -2.4704e+002  1.4400e+002 31857 100849,100953,100875
 8.0000e-001 101533 -1.8774e+002 -2.2734e+002  1.7210e+002 31253 101556,101314,101236
 8.0000e-001 101510 -2.7246e+002 -2.6692e+002  1.8587e+002 31253 101556,101236,101210
 8.0000e-001 101487 -2.6549e+002 -2.3247e+002  8.0545e+001 31253 101210,101392,101340
 8.0000e-001 101464 -1.3486e+002 -2.2412e+002  1.2779e+002 31253 101236,101288,101262
 8.0000e-001 101441 -1.5322e+002 -2.8958e+002  1.4381e+002 31253 101236,101314,101288
 8.0000e-001 101418 -2.4138e+002 -2.1553e+002  1.2189e+002 31253 101340,101392,101366
 8.0000e-001 101582 -2.1127e+002 -1.7948e+002  9.2535e+001 31253 101340,101314,101556
 8.0000e-001 101605 -2.9915e+002 -2.2125e+002  1.0960e+002 31253 101340,101556,101210
 8.0000e-001 101755  5.0452e+001  7.3701e+001  1.0948e+002 30519 101778,101654,101628
 8.0000e-001 101732 -8.6963e+001  1.5585e+002  1.8973e+001 30519 101850,101778,101628
 8.0000e-001 101804 -7.2184e+001 -1.2510e+002  5.3211e+001 30519 101680,101654,101778
 8.0000e-001 101827 -1.0570e+002  5.3704e+001  2.9636e+001 30519 101680,101778,101706
 8.0000e-001 101876 -1.5768e+002 -7.4769e+000  6.6924e+000 30519 101706,101778,101850
 8.0000e-001 102561 -2.1382e+002 -2.8337e+002  1.3194e+002 29951 102656,102584,102270
 8.0000e-001 102538 -4.0409e+002 -5.2231e+002  1.2139e+002 29951 102584,102140,102374
 8.0000e-001 102515 -2.9331e+002 -4.9934e+002  2.2320e+002 29951 102728,102656,102270
 8.0000e-001 102492 -2.8105e+002 -5.8419e+002  2.1163e+002 29951 102728,102270,102244
 8.0000e-001 102469 -3.2956e+002 -6.5611e+001  1.6034e+002 29951 102800,102322,102296
 8.0000e-001 102446 -3.7906e+002 -3.1999e+002  7.0274e+001 29951 102166,102218,102192
 8.0000e-001 102423 -2.9200e+002 -3.0885e+002  5.7629e+001 29951 102166,102244,102218
 8.0000e-001 102400 -1.8399e+002 -2.1924e+002  1.2699e+002 29951 102322,102374,102348
 8.0000e-001 102610 -4.1282e+002 -2.2225e+002  9.0282e+001 29951 102296,102270,102584
 8.0000e-001 102633 -4.3129e+002 -2.2091e+002  1.1467e+002 29951 102800,102296,102584
 8.0000e-001 102682 -4.2789e+002 -4.3890e+002  2.2565e+002 29951 102140,102584,102656
 8.0000e-001 102705 -3.1819e+002 -4.7445e+002  2.9042e+002 29951 102140,102656,102166
 8.0000e-001 102754 -2.6838e+002 -3.9613e+002  2.6238e+002 29951 102166,102656,102728
 8.0000e-001 102777 -2.7141e+002 -4.7730e+002  2.3263e+002 29951 102166,102728,102244
 8.0000e-001 102826 -2.3565e+002 -2.4140e+002  2.3493e+002 29951 102374,102322,102800
 8.0000e-001 102849 -2.7145e+002 -2.8739e+002  2.1671e+002 29951 102374,102800,102584
 8.0000e-001 103048 -4.0104e+001 -1.5336e+002  8.0329e+001 29454 102872,102924,102898
 8.0000e-001 103025 -9.1797e+001 -1.5680e+002  9.2481e+001 29454 102872,102976,102924
 8.0000e-001 103002 -8.9420e+001 -2.6612e+002  1.2655e+002 29454 102924,102976,102950
 8.0000e-001 103296 -3.7915e+002 -2.6296e+002  2.0452e+002 29064 103319,103175,103123
 8.0000e-001 103273 -4.5449e+002 -2.6730e+002  2.2219e+002 29064 103319,103123,103071
 8.0000e-001 103250 -2.3364e+002 -1.6856e+002  1.6077e+002 29064 103123,103175,103149
 8.0000e-001 103227 -3.5734e+002 -2.1154e+002  2.6225e+002 29064 103071,103123,103097
 8.0000e-001 103345 -3.0504e+002 -2.8078e+002  1.6677e+002 29064 103201,103175,103319
 8.0000e-001 103368 -4.0729e+002 -2.7916e+002  1.5669e+002 29064 103201,103319,103071
 8.0000e-001 104006 -3.2409e+002 -1.8060e+002  1.2970e+002 28603 104101,104029,103712
 8.0000e-001 103983 -3.0718e+002 -1.3110e+002  1.1580e+002 28603 104173,104029,103660
 8.0000e-001 103960 -3.9391e+002 -1.4920e+002  1.2596e+002 28603 104101,103712,103686
 8.0000e-001 103937 -2.6338e+002 -1.8091e+002  1.0194e+002 28603 104173,103660,103634
 8.0000e-001 103914 -3.0723e+002 -2.1868e+002  1.6081e+002 28603 103764,103816,103790
 8.0000e-001 103891 -2.5436e+002 -1.9661e+002  1.7722e+002 28603 103634,103842,103816
 8.0000e-001 103868 -2.2743e+002 -1.0482e+002  1.5503e+002 28603 103712,103764,103738
 8.0000e-001 104055 -3.0359e+002 -1.3953e+002  1.2278e+002 28603 103764,103712,104029
 8.0000e-001 104078 -3.0290e+002 -1.6052e+002  1.6417e+002 28603 103764,104029,103816
 8.0000e-001 104127 -4.1832e+002 -1.7458e+002  1.0448e+002 28603 103660,104029,104101
 8.0000e-001 104150 -5.2497e+002 -1.6748e+002  1.2000e+002 28603 103660,104101,103686
 8.0000e-001 104199 -3.4256e+002 -1.8027e+002  1.3139e+002 28603 103816,104029,104173
 8.0000e-001 104222 -2.9411e+002 -2.1754e+002  1.1628e+002 28603 103816,104173,103634
 8.0000e-001 104600 -1.3053e+002 -2.6010e+002  6.4734e+001 28348 104623,104378,104326
 8.0000e-001 104577 -1.0366e+002 -2.7209e+002  1.0230e+002 28348 104623,104326,104482
 8.0000e-001 104554 -1.3018e+002 -1.9191e+002  6.0688e+001 28348 104326,104378,104352
 8.0000e-001 104531 -1.3314e+002 -2.5337e+000  1.1467e+001 28348 104404,104456,104430
 8.0000e-001 104508 -1.6798e+002 -1.4165e+002  1.0268e+002 28348 104378,104456,104404
 8.0000e-001 104649 -1.1116e+002 -2.2730e+002  8.3380e+001 28348 104456,104378,104623
 8.0000e-001 104672 -7.6159e+001 -2.3199e+002  1.2211e+002 28348 104456,104623,104482
 8.0000e-001 104991 -3.2526e+002 -3.4808e+002  2.3922e+002 27951 104717,104847,104769
 8.0000e-001 104968 -1.0279e+002 -2.4361e+002  2.1045e+002 27951 104717,104873,104847
 8.0000e-001 104945 -1.2435e+002 -3.0459e+002  2.4804e+002 27951 104769,104847,104795
 8.0000e-001 104922 -1.1271e+001 -1.8939e+001  2.3663e+002 27951 104795,104847,104821
 8.0000e-001 104899 -2.7130e+002 -2.2291e+002  2.3186e+002 27951 104717,104769,104743
 8.0000e-001 105371 -2.5213e+002 -1.2562e+002  1.6185e+002 27447 105394,105201,105123
 8.0000e-001 105348 -2.6107e+002 -1.3119e+002  1.5862e+002 27447 105394,105123,105097
 8.0000e-001 105325 -4.4612e+002 -1.7436e+002  1.7884e+002 27447 105123,105201,105149
 8.0000e-001 105302 -2.7741e+002 -1.9440e+002  1.4249e+002 27447 105201,105253,105227
 8.0000e-001 105279 -2.2174e+002 -3.1281e+002  3.4519e+001 27447 105149,105201,105175
 8.0000e-001 105420 -2.4473e+002 -1.3222e+002  1.5459e+002 27447 105253,105201,105394
 8.0000e-001 105443 -2.5653e+002 -1.4024e+002  1.5064e+002 27447 105253,105394,105097
 8.0000e-001 105998 -2.7210e+002 -2.2070e+002  2.0710e+002 27100 106165,106021,105704
 8.0000e-001 105975 -1.5355e+002 -1.3619e+002  1.8168e+002 27100 106309,106021,105652
 8.0000e-001 105952 -5.0713e+002 -3.7487e+002  3.4917e+002 27100 106093,105808,105782
 8.0000e-001 105929 -2.7465e+002 -2.2322e+002  2.0873e+002 27100 106165,105704,105678
 8.0000e-001 105906 -1.7275e+002 -2.3605e+002  1.6121e+002 27100 106237,105730,105704
 8.0000e-001 105883 -1.4135e+002 -2.1970e+002  1.2463e+002 27100 106309,105652,105626
 8.0000e-001 105860 -1.4055e+002 -2.9704e+000  5.0970e+001 27100 105730,105782,105756
 8.0000e-001 106047 -2.4966e+002 -1.5109e+002  2.0441e+002 27100 106237,105704,106021
 8.0000e-001 106070 -2.9603e+002 -1.8746e+002  2.6119e+002 27100 106093,105782,106021
 8.0000e-001 106119 -2.1492e+002 -2.9399e+002  1.8220e+002 27100 105834,105808,106093
 8.0000e-001 106142 -2.3156e+002 -3.7273e+002  2.2806e+002 27100 106381,106093,106021
 8.0000e-001 106191 -2.7676e+002 -2.1287e+002  2.1479e+002 27100 105652,106021,106165
 8.0000e-001 106214 -2.8581e+002 -2.2629e+002  2.1877e+002 27100 105652,106165,105678
 8.0000e-001 106263 -1.0081e+002 -1.4528e+002  1.2945e+002 27100 105782,105730,106237
 8.0000e-001 106286 -1.9459e+002 -8.3645e+001  1.7961e+002 27100 105782,106237,106021
 8.0000e-001 106335 -2.0575e+002 -2.5936e+002  1.9277e+002 27100 106381,106021,106309
 8.0000e-001 106358 -1.5184e+002 -2.1311e+002  1.2438e+002 27100 105834,106309,105626
 8.0000e-001 106407 -1.7158e+002 -2.3992e+002  1.5355e+002 27100 105834,106093,106381
 8.0000e-001 106430 -1.7671e+002 -2.1534e+002  1.1289e+002 27100 105834,106381,106309
 8.0000e-001 106629 -4.1805e+001 -2.3426e+002  5.4912e+001 26688 106479,106557,106531
 8.0000e-001 106606 -1.3962e+001 -9.2960e+001  7.7868e+001 26688 106453,106557,106479
 8.0000e-001 106583 -1.0658e+002 -2.5161e+002  2.9763e+001 26688 106479,106531,106505
 8.0000e-001 107088 -1.2676e+002 -1.3650e+002  7.2722e+001 26248 107111,106918,106866
 8.0000e-001 107065 -1.4248e+002 -1.2202e+002  9.0361e+001 26248 107111,106866,106840
 8.0000e-001 107042 -1.4457e+002 -1.1689e+002  8.3071e+001 26248 106814,106970,106840
 8.0000e-001 107019 -1.2110e+002 -1.9607e+002  9.2352e+001 26248 106866,106918,106892
 8.0000e-001 106996 -2.5842e+002 -2.1263e+002  8.1530e+001 26248 106918,106970,106944
 8.0000e-001 107137 -1.5633e+002 -1.5866e+002  5.8307e+001 26248 106970,106918,107111
 8.0000e-001 107160 -1.5324e+002 -1.2862e+002  7.8894e+001 26248 106970,107111,106840
 8.0000e-001 107666 -3.7642e+002 -1.8428e+002  1.0842e+002 25908 107369,107499,107395
 8.0000e-001 107643 -4.8389e+002 -5.0130e+002  2.2406e+002 25908 107369,107525,107499
 8.0000e-001 107620 -3.0828e+002 -2.1009e+002  1.6721e+002 25908 107395,107473,107447
 8.0000e-001 107597 -2.6618e+002 -1.3208e+002  1.3324e+002 25908 107395,107499,107473
 8.0000e-001 107574 -4.9692e+002 -2.5854e+002  3.5608e+002 25908 107395,107447,107421
 8.0000e-001 107551 -2.1322e+002 -3.8048e+002  2.4683e+002 25908 107343,107525,107369
 8.0000e-001 108251 -3.1973e+002 -1.0837e+002  1.7723e+002 25454 108274,108006,107954
 8.0000e-001 108228 -2.5387e+002 -6.1973e+001  1.4971e+002 25454 108274,107954,108110
 8.0000e-001 108205 -2.2496e+002 -2.4212e+002  2.0796e+002 25454 108346,108032,108006
 8.0000e-001 108182 -3.7808e+002 -1.6183e+002  2.1224e+002 25454 107954,108006,107980
 8.0000e-001 108159 -1.3250e+002 -1.5981e+002  1.3146e+002 25454 107928,108110,107954
 8.0000e-001 108136 -4.1340e+002 -4.2547e+002  2.4191e+002 25454 108058,108110,108084
 8.0000e-001 108300 -3.0032e+002 -1.6828e+002  2.1264e+002 25454 108346,108006,108274
 8.0000e-001 108323 -2.6614e+002 -1.0589e+002  1.6783e+002 25454 108058,108274,108110
 8.0000e-001 108372 -1.2500e+002 -1.5979e+002  1.7214e+002 25454 108058,108032,108346
 8.0000e-001 108395 -2.1139e+002 -8.0531e+001  1.7451e+002 25454 108058,108346,108274
 8.0000e-001 108822 -2.1210e+002 -1.0700e+002  1.2118e+002 24943 108525,108681,108655
 8.0000e-001 108799 -2.7612e+002 -1.5197e+002  6.3928e+001 24943 108499,108681,108525
 8.0000e-001 108776 -1.2459e+002 -7.2908e+001  8.6660e+001 24943 108525,108655,108629
 8.0000e-001 108753 -2.3911e+002 -8.3484e+001  9.2390e+001 24943 108525,108629,108603
 8.0000e-001 108730 -2.8133e+002 -1.3440e+002  1.3781e+002 24943 108551,108603,108577
 8.0000e-001 108707 -3.3777e+002 -1.8118e+002  1.5921e+002 24943 108525,108603,108551
 8.0000e-001 109407  2.1650e+001 -4.7570e+001  4.3502e+001 24745 109162,109214,109188
 8.0000e-001 109384 -1.1610e+002 -6.3113e+001  5.1777e+001 24745 109162,109266,109214
 8.0000e-001 109361 -1.3740e+002 -4.3851e+001  2.1945e+001 24745 109084,109266,109162
 8.0000e-001 109338 -1.8276e+002 -2.5065e+001  4.0827e+001 24745 109084,109162,109136
 8.0000e-001 109315 -3.5042e+001 -9.1537e+001  5.1139e+001 24745 109214,109266,109240
 8.0000e-001 109292 -1.2672e+002 -4.1716e+001  7.2053e+001 24745 109084,109136,109110
 8.0000e-001 109785 -4.3255e+002 -2.3106e+002  2.4946e+002 24341 109537,109615,109563
 8.0000e-001 109762 -6.5049e+001 -1.4710e+002  2.3123e+002 24341 109537,109641,109615
 8.0000e-001 109739 -2.8459e+002 -2.2933e+002  1.9171e+002 24341 109563,109615,109589
 8.0000e-001 109716 -2.0082e+002 -2.2520e+002  1.5642e+002 24341 109537,109667,109641
 8.0000e-001 109693 -9.4668e+001 -2.3674e+002  1.4862e+002 24341 109511,109667,109537
 8.0000e-001 110163 -3.8122e+002 -2.1869e+002  2.6085e+002 23837 110186,109967,109915
 8.0000e-001 110140 -3.8114e+002 -2.1942e+002  2.6167e+002 23837 110186,109915,109889
 8.0000e-001 110117 -1.7819e+002 -8.6549e+001  1.9379e+002 23837 109889,110045,109993
 8.0000e-001 110094 -3.5617e+002 -3.5776e+002  1.8283e+002 23837 109915,109967,109941
 8.0000e-001 110071 -2.2879e+002 -1.7602e+000  4.3322e+001 23837 109993,110045,110019
 8.0000e-001 110212 -3.8097e+002 -2.1797e+002  2.6088e+002 23837 109993,109967,110186
 8.0000e-001 110235 -3.8067e+002 -2.1836e+002  2.6160e+002 23837 109993,110186,109889
 8.0000e-001 110336 -2.4923e+002 -5.6779e+002  2.6194e+002 23433 110258,110310,110284
 8.0000e-001 110584 -3.3640e+002 -2.1204e+002  1.5569e+002 22829 110607,110411,110385
 8.0000e-001 110561 -3.7513e+002 -2.2946e+002  1.6372e+002 22829 110607,110385,110489
 8.0000e-001 110538 -3.3100e+002 -2.1354e+002  1.2693e+002 22829 110437,110489,110463
 8.0000e-001 110515 -2.6763e+002 -1.2818e+002  2.0842e+002 22829 110359,110489,110385
 8.0000e-001 110633 -3.4397e+002 -2.0569e+002  1.2854e+002 22829 110437,110411,110607
 8.0000e-001 110656 -3.6499e+002 -2.1784e+002  1.3639e+002 22829 110437,110607,110489
 8.0000e-001 110906 -5.7465e+002 -2.4194e+002  1.6552e+002 22432 110707,110759,110733
 8.0000e-001 110883 -3.9227e+002 -2.6871e+002  1.3898e+002 22432 110707,110785,110759
 8.0000e-001 110860 -3.6807e+002 -2.3759e+002  2.0912e+002 22432 110707,110811,110785
 8.0000e-001 110837 -4.4986e+002 -3.2831e+002  1.6983e+002 22432 110681,110811,110707
 8.0000e-001 111288 -4.6980e+000 -7.7490e+001  1.0539e+002 22142 111092,111144,111118
 8.0000e-001 111265 -1.5714e+002 -1.0113e+002  9.8621e+001 22142 111066,111144,111092
 8.0000e-001 111242 -1.3692e+002 -4.8037e+001  1.0520e+002 22142 111040,111144,111066
 8.0000e-001 111219 -2.6057e+002 -2.0822e+001  7.6858e+001 22142 111014,111144,111040
 8.0000e-001 111196 -1.3961e+002  3.6648e+001  6.0543e+001 22142 111014,111170,111144
 8.0000e-001 111389 -1.0060e+001 -5.8497e+001  1.3203e+002 21830 111311,111363,111337
 8.0000e-001 111735 -3.0338e+002  2.8139e+001  2.8347e+002 21268 111758,111542,111438
 8.0000e-001 111712 -2.2611e+002  4.5378e+001  1.7330e+002 21268 111758,111438,111412
 8.0000e-001 111689 -8.3935e+001 -1.5594e+002  3.3702e+002 21268 111438,111542,111464
 8.0000e-001 111666  9.7740e+001 -6.8927e+001  4.1379e+002 21268 111464,111542,111490
 8.0000e-001 111643 -5.4361e+002 -3.1826e+002  2.8619e+002 21268 111412,111594,111568
 8.0000e-001 111620  3.5443e+002  1.9403e+002  5.2491e+002 21268 111490,111542,111516
 8.0000e-001 111784 -3.1241e+002 -4.3864e+001  2.7314e+002 21268 111568,111542,111758
 8.0000e-001 111807 -3.1146e+002 -1.8449e+002  1.9742e+002 21268 111568,111758,111412
 8.0000e-001 111959 -3.4189e+002 -3.7011e+001  1.1087e+002 20864 111982,111910,111884
 8.0000e-001 111936 -2.9454e+002 -8.9707e+000  1.6518e+002 20864 112114,111832,111910
 8.0000e-001 112008 -3.2021e+002 -7.2945e+001  1.3970e+002 20864 112114,111910,111982
 8.0000e-001 112140 -2.8694e+002 -8.3620e+001  1.2604e+002 20864 111858,111832,112114
 8.0000e-001 112163 -3.1714e+002 -1.6036e+002  1.0236e+002 20864 111858,112114,111982
 8.0000e-001 112411 -5.8510e+001  3.8439e+001  1.2441e+001 20324 112186,112290,112212
 8.0000e-001 112388 -1.4111e+001  5.8481e+001  7.7454e+000 20324 112186,112316,112290
 8.0000e-001 112365  1.8325e+002 -1.3557e+002 -7.3922e-001 20324 112212,112290,112264
 8.0000e-001 112342 -7.0446e+002 -3.0145e+002 -5.5454e+001 20324 112212,112264,112238
 8.0000e-001 112659 -9.4902e+001 -3.4947e+001  1.9189e+002 19920 112512,112564,112538
 8.0000e-001 112636 -1.7579e+002 -1.0537e+002  1.5953e+002 19920 112434,112564,112512
 8.0000e-001 112613 -1.8196e+002 -1.1268e+002  1.5495e+002 19920 112434,112512,112460
 8.0000e-001 112590 -1.9407e+002 -1.2762e+002  1.6022e+002 19920 112460,112512,112486
 8.0000e-001 112811 -1.3346e+002 -5.5233e+001  1.1241e+002 19630 112684,112736,112710
 8.0000e-001 112788 -2.6382e+001 -1.1891e+002  5.6763e+001 19630 112684,112762,112736
 8.0000e-001 113012 -1.7721e+002 -6.8986e+001  2.1123e+002 19169 112862,112940,112888
 8.0000e-001 112989 -3.2677e+002 -2.4502e+002  1.4221e+002 19169 112836,112940,112862
 8.0000e-001 112966 -1.8775e+002 -2.6801e+002  1.8972e+002 19169 112888,112940,112914
 8.0000e-001 113213 -4.5038e+002 -1.8487e+002  2.2754e+002 18600 113037,113089,113063
 8.0000e-001 113190 -3.8760e+002 -1.8844e+002  2.1629e+002 18600 113037,113115,113089
 8.0000e-001 113167 -4.8191e+002 -3.0691e+002  3.0033e+002 18600 113037,113141,113115
 8.0000e-001 113485 -2.0019e+002 -7.9663e+001  1.9831e+002 18352 113260,113312,113286
 8.0000e-001 113462 -3.9443e+002 -2.4315e+002  2.6918e+002 18352 113260,113390,113312
 8.0000e-001 113439 -3.7125e+002 -9.6324e+001  2.1301e+002 18352 113312,113390,113364
 8.0000e-001 113416 -1.9605e+002 -7.6555e+001  2.1866e+002 18352 113312,113364,113338
 8.0000e-001 113757 -2.9288e+002 -1.1841e+002  2.1323e+002 17834 113558,113610,113584
 8.0000e-001 113734 -4.0851e+002 -2.2245e+002  2.6612e+002 17834 113532,113610,113558
 8.0000e-001 113711 -4.2685e+002 -2.8235e+002  2.2069e+002 17834 113532,113662,113610
 8.0000e-001 113688 -2.1928e+002 -7.9584e+001  3.0356e+002 17834 113610,113662,113636
 8.0000e-001 113958 -2.8049e+002 -1.1614e+002  1.6157e+002 17330 113782,113834,113808
 8.0000e-001 113935 -1.4716e+002 -1.0313e+002  1.1830e+002 17330 113782,113886,113834
 8.0000e-001 113912 -1.8478e+002 -8.9210e+001  7.4182e+001 17330 113834,113886,113860
 8.0000e-001 114110 -4.2938e+002 -1.7203e+002  2.7591e+002 16874 113983,114035,114009
 8.0000e-001 114087 -1.6246e+002 -3.7728e+002  2.2687e+002 16874 113983,114061,114035
 8.0000e-001 114465 -3.3386e+002 -1.4180e+002  9.0792e+001 16270 114240,114292,114266
 8.0000e-001 114442 -3.0395e+002 -9.5984e+001  6.6954e+001 16270 114240,114370,114292
 8.0000e-001 114419 -1.7200e+002 -7.2051e+001  1.0369e+002 16270 114292,114344,114318
 8.0000e-001 114396 -3.3209e+002 -1.5339e+002  5.5965e+001 16270 114292,114370,114344
 8.0000e-001 114566 -1.4764e+001  1.4764e+001  3.6886e+002 15834 114488,114540,114514
 8.0000e-001 114667 -2.6224e+002 -1.0781e+002  1.7118e+002 15155 114589,114641,114615
 8.0000e-001 114890 -2.4619e+002 -9.8575e+001  2.1049e+002 421 114766,114818,114792
 8.0000e-001 114867 -3.4290e+002 -2.8071e+002  1.7360e+002 421 114714,114818,114766
 8.0000e-001 114844 -4.3027e+002 -1.8285e+002  9.9705e+001 421 114714,114766,114740
 9.0000e-001 66553 -3.3498e+002 -1.4762e+002  1.7849e+002 66108 66354,66458,66432
 9.0000e-001 66530 -3.3940e+002 -1.4359e+002  1.1846e+002 66108 66328,66458,66354
 9.0000e-001 66507 -1.8972e+002 -1.4411e+002  1.1315e+002 66108 66354,66432,66406
 9.0000e-001 66484  9.4769e+001  4.7761e+001  2.1527e+002 66108 66354,66406,66380
 9.0000e-001 66951 -2.3783e+002 -1.0059e+002  9.4113e+001 65910 66703,66833,66807
 9.0000e-001 66928 -3.3082e+001 -8.9998e+001  1.4408e+002 65910 66677,66833,66703
 9.0000e-001 66905 -1.2464e+002 -1.9850e+002  1.5873e+002 65910 66729,66781,66755
 9.0000e-001 66882 -3.6668e+002 -1.5356e+002  1.5167e+002 65910 66729,66807,66781
 9.0000e-001 66859 -2.6784e+002 -2.6611e+001  1.0847e+002 65910 66703,66807,66729
 9.0000e-001 67150 -3.5798e+002 -1.4879e+002  1.7387e+002 65712 67026,67078,67052
 9.0000e-001 67127 -3.9923e+002 -4.8369e+001  1.3649e+002 65712 66974,67078,67026
 9.0000e-001 67104 -1.3981e+003 -6.7795e+002  5.0253e+002 65712 66974,67026,67000
 9.0000e-001 67481 -5.9694e+002 -1.3531e+002  2.2840e+002 65422 67282,67360,67334
 9.0000e-001 67458 -2.8185e+002 -1.0326e+002  3.3452e+002 65422 67282,67386,67360
 9.0000e-001 67435 -1.4903e+002  7.7363e+001  1.6676e+002 65422 67282,67334,67308
 9.0000e-001 67412 -4.0429e+001 -9.5644e+001  1.7469e+002 65422 67256,67386,67282
 9.0000e-001 68115 -1.6770e+002 -1.5680e+002  8.7974e+001 65018 67795,67925,67873
 9.0000e-001 68092 -2.2123e+002 -1.8091e+002  6.6157e+001 65018 67769,67925,67795
 9.0000e-001 68069 -1.3885e+002 -9.2664e+001  1.0188e+002 65018 67873,67925,67899
 9.0000e-001 68046 -2.8415e+002 -2.4871e+002  9.4968e+001 65018 67769,67951,67925
 9.0000e-001 68023 -2.5629e+002 -2.1279e+002  1.3021e+002 65018 67795,67873,67821
 9.0000e-001 68000 -2.6848e+002 -1.8810e+002  9.8293e+001 65018 67821,67873,67847
 9.0000e-001 67977 -4.7120e+002 -1.8023e+002  2.0793e+002 65018 67743,67951,67769
 9.0000e-001 68363 -1.4810e+002 -3.2367e+002  3.0225e+002 64820 68190,68242,68216
 9.0000e-001 68340 -2.9512e+002 -2.2528e+002  3.1757e+002 64820 68190,68268,68242
 9.0000e-001 68317 -1.6399e+002 -1.6303e+002  3.4734e+002 64820 68164,68268,68190
 9.0000e-001 68294 -6.3146e+002 -2.6036e+002  2.5508e+002 64820 68138,68268,68164
 9.0000e-001 68513 -2.4928e+002 -1.4522e+002  1.8812e+002 64366 68868,68536,68438
 9.0000e-001 68490 -1.4699e+002 -1.0054e+002  1.0714e+002 64366 68536,68412,68386
 9.0000e-001 68562 -3.7916e+002 -2.1365e+002  2.0315e+002 64366 68740,68536,68464
 9.0000e-001 68585 -2.1774e+002 -1.4899e+002  1.3630e+002 64366 68608,68536,68386
 9.0000e-001 68634 -3.0562e+002 -3.2931e+002  1.0891e+002 64366 68464,68536,68608
 9.0000e-001 68766 -2.2330e+002 -1.2078e+002  1.6451e+002 64366 68438,68536,68740
 9.0000e-001 68894 -2.2514e+002 -1.1828e+002  1.9876e+002 64366 68412,68536,68868
 9.0000e-001 69172  1.7460e+001 -3.3533e+002  8.4166e+001 64168 69022,69074,69048
 9.0000e-001 69149 -2.5562e+002 -1.0609e+002  1.4960e+002 64168 68996,69074,69022
 9.0000e-001 69126 -3.4187e+002 -2.9188e+002  8.2986e+001 64168 68996,69100,69074
 9.0000e-001 69371 -3.2064e+002 -1.2250e+002  2.2498e+002 63970 69466,69394,69273
 9.0000e-001 69348 -1.8846e+002 -1.0577e+002  8.7835e+001 63970 69394,69247,69221
 9.0000e-001 69325 -5.6355e+002 -2.3772e+002  1.5564e+002 63970 69195,69299,69221
 9.0000e-001 69420 -4.4210e+002 -1.9760e+002  2.7766e+002 63970 69299,69273,69394
 9.0000e-001 69443 -3.0977e+002 -2.3532e+002  1.6222e+002 63970 69299,69394,69221
 9.0000e-001 69492 -3.4518e+002 -1.6349e+002  2.1475e+002 63970 69247,69394,69466
 9.0000e-001 69904 -4.0047e+001 -7.9329e+001  3.4785e+001 63680 69705,69783,69731
 9.0000e-001 69881  4.9907e+000 -6.0163e+001  2.9967e+001 63680 69679,69783,69705
 9.0000e-001 69858 -7.2811e+001 -1.4175e+002  6.2443e+001 63680 69679,69809,69783
 9.0000e-001 69835 -5.1589e+001 -5.3399e+001  4.1760e+001 63680 69731,69783,69757
 9.0000e-001 70054 -1.0236e+001 -1.5500e+002  1.0967e+002 63476 70077,69953,69927
 9.0000e-001 70031  5.4143e+001 -6.4184e+001  1.5244e+002 63476 70077,69927,70005
 9.0000e-001 70103 -9.1002e+001 -9.5391e+001  7.0943e+001 63476 69979,69953,70077
 9.0000e-001 70126 -3.8046e+001 -1.4540e+001  1.0685e+002 63476 69979,70077,70005
 9.0000e-001 70325 -5.2875e+002 -2.0693e+002  2.7944e+002 63278 70149,70227,70175
 9.0000e-001 70302 -2.2939e+002 -8.4805e+001  2.9536e+002 63278 70149,70253,70227
 9.0000e-001 70279 -7.0369e+002 -3.6846e+002  1.4147e+002 63278 70175,70227,70201
 9.0000e-001 70597 -2.3925e+002  1.3746e+000  1.0034e+002 63080 70372,70476,70424
 9.0000e-001 70574 -1.1971e+002 -4.8460e+001  1.3538e+002 63080 70372,70502,70476
 9.0000e-001 70551 -3.6060e+002 -1.4985e+002  1.7340e+002 63080 70424,70476,70450
 9.0000e-001 70528 -5.1374e+002 -1.5633e+002  2.7832e+002 63080 70372,70424,70398
 9.0000e-001 70847 -6.5868e+000 -1.7397e+002  5.3887e+001 62740 70870,70648,70622
 9.0000e-001 70824 -1.2397e+002 -1.4297e+002  1.0644e+002 62740 70870,70622,70752
 9.0000e-001 70801 -3.7063e+001 -2.6833e+002  1.3416e+002 62740 70648,70726,70700
 9.0000e-001 70778 -3.7724e+001 -3.2428e+002  1.2791e+002 62740 70648,70700,70674
 9.0000e-001 70896 -1.2230e+002 -2.1663e+002  4.2099e+001 62740 70726,70648,70870
 9.0000e-001 70919 -1.7981e+002 -1.5066e+002  1.0875e+002 62740 70726,70870,70752
 9.0000e-001 71022 -1.8683e+001  1.8683e+001  4.1485e+002 62520 70944,70996,70970
 9.0000e-001 71223 -4.3529e+002 -2.2625e+002  2.8323e+002 62230 71073,71151,71099
 9.0000e-001 71200 -4.1257e+002 -2.0670e+002  2.9778e+002 62230 71047,71151,71073
 9.0000e-001 71177 -2.3102e+002 -3.8020e+002  2.2865e+002 62230 71099,71151,71125
 9.0000e-001 71861 -2.5096e+002 -3.1484e+002  2.9100e+001 61712 71515,71697,71671
 9.0000e-001 71838 -2.5643e+002 -3.2701e+002  3.3516e+001 61712 71489,71697,71515
 9.0000e-001 71815 -6.4623e+002 -3.4895e+002  1.7494e+002 61712 71884,71541,71515
 9.0000e-001 71792 -4.5227e+002 -2.5314e+002  1.3689e+002 61712 71884,71515,71671
 9.0000e-001 71769 -1.6417e+002 -4.1086e+002  1.4469e+002 61712 71541,71619,71593
 9.0000e-001 71746 -1.9584e+002 -5.1056e+002  4.0571e+001 61712 71619,71671,71645
 9.0000e-001 71723 -5.1755e+002 -6.4500e+002  3.5433e+002 61712 71541,71593,71567
 9.0000e-001 71910 -4.6499e+002 -4.4601e+002  2.4649e+002 61712 71619,71541,71884
 9.0000e-001 71933 -3.3002e+002 -3.8766e+002  2.2575e+002 61712 71619,71884,71671
 9.0000e-001 72230 -1.5196e+002 -2.4215e+001  1.7778e+001 61208 72253,72060,72008
 9.0000e-001 72207 -1.6664e+002 -2.2521e+001  5.4311e+000 61208 72253,72008,71982
 9.0000e-001 72184 -1.2598e+002 -9.5783e+000  1.3858e+001 61208 71982,72112,72086
 9.0000e-001 72161 -2.0409e+002 -2.6721e+001  3.5604e+001 61208 72008,72060,72034
 9.0000e-001 72138 -7.7954e+001 -1.9225e+001  4.1641e+001 61208 71956,72112,71982
 9.0000e-001 72279 -1.3174e+002 -2.3776e+001  1.9497e+001 61208 72086,72060,72253
 9.0000e-001 72302 -1.5004e+002 -2.1178e+001  1.0174e+001 61208 72086,72253,71982
 9.0000e-001 72761 -2.8170e+002 -1.6623e+002  1.4377e+002 60804 72487,72617,72513
 9.0000e-001 72738 -2.9758e+002 -2.5745e+002  1.4686e+002 60804 72487,72643,72617
 9.0000e-001 72715 -1.0887e+002 -1.5390e+002  1.2468e+002 60804 72565,72617,72591
 9.0000e-001 72692 -2.0467e+002 -1.2204e+002  1.2367e+002 60804 72513,72617,72565
 9.0000e-001 72669 -2.4840e+002 -1.8732e+002  1.8593e+002 60804 72513,72565,72539
 9.0000e-001 72911 -1.8683e+001  1.8683e+001  4.1485e+002 60556 72784,72836,72810
 9.0000e-001 72888  3.3630e+002  3.3948e+001  2.5263e+002 60556 72784,72862,72836
 9.0000e-001 73468 -1.5953e+002 -1.9624e+002  1.2238e+002 60244 73491,73226,73200
 9.0000e-001 73445 -2.5575e+002 -3.0813e+002  1.8925e+002 60244 73563,73491,73200
 9.0000e-001 73422 -3.8597e+002 -3.0898e+002  2.0973e+002 60244 73563,73200,73174
 9.0000e-001 73399 -1.6633e+002 -2.4641e+002  1.2224e+002 60244 73226,73278,73252
 9.0000e-001 73376 -2.8649e+002 -1.8413e+002  1.3424e+002 60244 73122,73304,73278
 9.0000e-001 73353 -3.1314e+002 -3.0029e+002  1.4002e+002 60244 73096,73304,73122
 9.0000e-001 73330 -6.5979e+002 -2.6453e+002  3.1749e+002 60244 73122,73174,73148
 9.0000e-001 73517 -3.4303e+002 -2.8706e+002  1.7187e+002 60244 73278,73226,73491
 9.0000e-001 73540 -2.9320e+002 -1.5243e+002  1.5245e+002 60244 73278,73491,73122
 9.0000e-001 73589 -4.9237e+002 -2.6439e+002  1.9866e+002 60244 73122,73491,73563
 9.0000e-001 73612 -6.2523e+002 -2.6993e+002  2.2683e+002 60244 73122,73563,73174
 9.0000e-001 73762 -2.9524e+002 -6.9691e+002  2.3783e+002 59875 73661,73713,73687
 9.0000e-001 73739 -3.6076e+002 -2.5597e+002  2.3174e+002 59875 73635,73713,73661
 9.0000e-001 74191 -8.4404e+001 -1.9050e+002  2.6201e+002 59478 74214,73894,73868
 9.0000e-001 74168 -2.1372e+002 -1.8562e+002  2.8171e+002 59478 74214,73868,74050
 9.0000e-001 74145 -8.6343e+001 -1.2802e+002  1.4490e+002 59478 73894,73946,73920
 9.0000e-001 74122 -1.9524e+002 -1.6798e+002  1.7661e+002 59478 73894,73998,73946
 9.0000e-001 74099 -6.2970e+002 -3.7009e+002  4.5542e+002 59478 73998,74050,74024
 9.0000e-001 74076 -2.5429e+002 -4.3339e+001  1.0586e+002 59478 73946,73998,73972
 9.0000e-001 74240 -2.0414e+002 -1.4796e+002  2.1225e+002 59478 73998,73894,74214
 9.0000e-001 74263 -3.2901e+002 -1.4766e+002  2.1137e+002 59478 73998,74214,74050
 9.0000e-001 74720 -2.6328e+002 -2.6631e+002  1.0442e+002 58774 74472,74602,74498
 9.0000e-001 74697 -2.8534e+002 -2.3968e+002  1.2234e+002 58774 74446,74602,74472
 9.0000e-001 74674 -2.7172e+002 -2.0608e+002  1.1048e+002 58774 74498,74576,74524
 9.0000e-001 74651 -2.8140e+002 -2.3880e+002  8.6953e+001 58774 74498,74602,74576
 9.0000e-001 74628 -2.7271e+002 -2.9436e+002  1.5179e+002 58774 74524,74576,74550
 9.0000e-001 75226 -2.1515e+002 -1.0295e+002  1.1079e+002 58270 74955,75085,75033
 9.0000e-001 75203 -1.8293e+002 -1.6056e+002  1.2672e+002 58270 74929,75085,74955
 9.0000e-001 75180 -2.6632e+002 -1.2618e+002  1.4857e+002 58270 75033,75085,75059
 9.0000e-001 75157 -3.7513e+002 -1.0133e+002  9.9862e+001 58270 74955,75007,74981
 9.0000e-001 75134 -1.8894e+002 -8.9582e+001  7.8807e+001 58270 74955,75033,75007
 9.0000e-001 75111 -8.7191e+001 -1.9025e+002  6.6191e+001 58270 74903,75085,74929
 9.0000e-001 75425 -5.2456e+001 -5.1938e+000  2.0519e+001 57830 75448,75301,75249
 9.0000e-001 75402 -5.7755e+001 -2.4419e+000  1.9664e+001 57830 75448,75249,75353
 9.0000e-001 75379 -1.1213e+001 -1.3892e+001 -7.2640e+000 57830 75520,75301,75275
 9.0000e-001 75474 -5.5101e+001 -4.9633e+000  1.6896e+001 57830 75327,75301,75448
 9.0000e-001 75497 -6.1750e+001 -5.3382e+000  1.4940e+001 57830 75327,75448,75353
 9.0000e-001 75546 -2.8436e+001  8.8391e-001 -3.2408e+000 57830 75249,75301,75520
 9.0000e-001 76261 -1.1970e+002 -1.6015e+002  1.2331e+002 57426 76284,76097,76071
 9.0000e-001 76238 -7.6945e+001 -1.3008e+002  1.0022e+002 57426 75889,76097,75915
 9.0000e-001 76215 -1.7002e+002 -1.5830e+002  1.4845e+002 57426 76428,76284,76071
 9.0000e-001 76192 -1.4383e+002 -1.3625e+002  1.0175e+002 57426 76356,75941,75915
 9.0000e-001 76169 -1.7434e+002 -1.5485e+002  1.4555e+002 57426 76428,76071,76019
 9.0000e-001 76146 -1.8526e+002 -1.8817e+002  1.4189e+002 57426 76019,76071,76045
 9.0000e-001 76123 -1.8092e+002 -1.6870e+002  1.7262e+002 57426 75967,76019,75993
 9.0000e-001 76310 -1.1386e+002 -1.4248e+002  9.2496e+001 57426 75915,76097,76284
 9.0000e-001 76333 -1.4354e+002 -1.6293e+002  1.0169e+002 57426 76356,75915,76284
 9.0000e-001 76382 -1.5126e+002 -9.8499e+001  1.2608e+002 57426 75967,75941,76356
 9.0000e-001 76405 -1.5076e+002 -1.2015e+002  1.2188e+002 57426 75967,76356,76284
 9.0000e-001 76454 -1.6129e+002 -1.5700e+002  1.4642e+002 57426 75967,76284,76428
 9.0000e-001 76477 -1.6957e+002 -1.5656e+002  1.4493e+002 57426 75967,76428,76019
 9.0000e-001 76953 -2.3294e+002 -4.1668e+002  1.8101e+002 56908 76976,76711,76685
 9.0000e-001 76930 -2.3215e+002 -4.1169e+002  1.7428e+002 56908 77048,76976,76685
 9.0000e-001 76907 -4.0205e+002 -4.1380e+002  2.5570e+002 56908 77048,76685,76633
 9.0000e-001 76884 -5.3748e+002 -6.3110e+002  3.3379e+002 56908 76711,76789,76763
 9.0000e-001 76861 -3.2541e+002 -3.0981e+002  1.5053e+002 56908 76581,76789,76607
 9.0000e-001 76838 -5.1578e+002 -4.4507e+002  1.5153e+002 56908 76711,76763,76737
 9.0000e-001 76815 -8.1015e+002 -6.8165e+002  4.4498e+002 56908 76633,76685,76659
 9.0000e-001 77002 -2.1925e+002 -4.2081e+002  2.1011e+002 56908 76789,76711,76976
 9.0000e-001 77025 -2.6978e+002 -3.2142e+002  1.2194e+002 56908 76789,76976,76607
 9.0000e-001 77074 -4.9175e+002 -4.2787e+002  1.6549e+002 56908 76607,76976,77048
 9.0000e-001 77097 -5.7994e+002 -3.5976e+002  2.4103e+002 56908 76607,77048,76633
 9.0000e-001 77475 -2.2986e+002 -4.4870e+002  2.1900e+002 56546 77570,77498,77279
 9.0000e-001 77452 -2.1976e+002 -5.3887e+002  2.4085e+002 56546 77498,77227,77357
 9.0000e-001 77429 -2.6107e+002 -4.6956e+002  2.6488e+002 56546 77570,77279,77253
 9.0000e-001 77406 -3.5737e+002 -6.0208e+002  2.6070e+002 56546 77201,77357,77227
 9.0000e-001 77383 -3.5931e+002 -4.3486e+002  1.7044e+002 56546 77279,77331,77305
 9.0000e-001 77524 -2.3327e+002 -3.6013e+002  2.0115e+002 56546 77331,77279,77498
 9.0000e-001 77547 -1.9598e+002 -4.4751e+002  2.7454e+002 56546 77331,77498,77357
 9.0000e-001 77596 -2.8971e+002 -4.7633e+002  2.5287e+002 56546 77227,77498,77570
 9.0000e-001 77619 -3.1215e+002 -5.2493e+002  3.0154e+002 56546 77227,77570,77253
 9.0000e-001 77818 -3.2724e+002 -3.9077e+002  2.0900e+002 56042 77841,77694,77668
 9.0000e-001 77795 -2.9860e+002 -3.6065e+002  1.4998e+002 56042 77841,77668,77746
 9.0000e-001 77772 -3.2957e+002 -5.5283e+002  1.3231e+002 56042 77642,77746,77668
 9.0000e-001 77867 -3.5817e+002 -4.3786e+002  2.3473e+002 56042 77720,77694,77841
 9.0000e-001 77890 -3.2273e+002 -3.9974e+002  1.7458e+002 56042 77720,77841,77746
 9.0000e-001 78349 -1.5381e+002 -8.7534e+001  9.7954e+001 55538 78075,78127,78101
 9.0000e-001 78326 -1.9794e+002 -1.1476e+002  4.8457e+001 55538 78075,78205,78127
 9.0000e-001 78303 -1.7694e+002 -8.3569e+001  3.9257e+001 55538 78075,78231,78205
 9.0000e-001 78280 -1.2111e+002 -1.6160e+002  9.2888e+001 55538 78127,78179,78153
 9.0000e-001 78257 -1.2136e+002 -1.1092e+002  4.3722e+001 55538 78127,78205,78179
 9.0000e-001 78806 -1.8088e+002 -2.2502e+002  6.1235e+001 55034 78829,78636,78610
 9.0000e-001 78783 -2.0991e+002 -2.1992e+002  7.2669e+001 55034 78901,78829,78610
 9.0000e-001 78760 -1.6819e+002 -2.2548e+002  8.2812e+001 55034 78901,78610,78584
 9.0000e-001 78737 -2.1750e+002 -2.1132e+002  9.3817e+001 55034 78558,78688,78662
 9.0000e-001 78714 -2.1622e+002 -1.7476e+002  1.7906e+002 55034 78532,78688,78558
 9.0000e-001 78855 -2.1665e+002 -2.5890e+002  4.7185e+001 55034 78662,78636,78829
 9.0000e-001 78878 -2.2641e+002 -2.1696e+002  9.0622e+001 55034 78662,78829,78558
 9.0000e-001 78927 -1.7793e+002 -1.9360e+002  1.0043e+002 55034 78558,78829,78901
 9.0000e-001 78950 -1.6325e+002 -2.0759e+002  1.1318e+002 55034 78558,78901,78584
 9.0000e-001 79407 -1.6270e+002 -6.1608e+001  1.5142e+002 54430 79430,79237,79159
 9.0000e-001 79384 -2.1827e+002 -1.0228e+002  1.2908e+002 54430 79430,79159,79133
 9.0000e-001 79361 -1.8183e+002 -3.3993e+001  7.4938e+001 54430 79237,79289,79263
 9.0000e-001 79338 -2.1881e+002 -1.0605e+002  1.4111e+002 54430 79185,79237,79211
 9.0000e-001 79315 -3.0636e+002 -1.1901e+002  1.8372e+002 54430 79159,79237,79185
 9.0000e-001 79456 -1.5486e+002 -1.0633e+002  1.1345e+002 54430 79289,79237,79430
 9.0000e-001 79479 -1.8460e+002 -1.4096e+002  9.6804e+001 54430 79289,79430,79133
 9.0000e-001 79936 -1.6869e+002 -7.2979e+001  1.9845e+002 53919 79662,79766,79688
 9.0000e-001 79913 -4.9098e+002 -2.9482e+002  3.2334e+002 53919 79662,79818,79766
 9.0000e-001 79890 -5.0876e+002 -9.3216e+001  1.7927e+002 53919 79766,79818,79792
 9.0000e-001 79867 -3.2915e+002 -1.6637e+002  2.1770e+002 53919 79714,79766,79740
 9.0000e-001 79844 -3.9062e+002 -1.7517e+002  2.2428e+002 53919 79688,79766,79714
 9.0000e-001 80037 -4.3778e+001 -1.5435e+002  1.3512e+002 53671 79959,80011,79985
 9.0000e-001 80405 -7.8246e+001 -3.4689e+001 -1.3157e+001 53267 80108,80264,80238
 9.0000e-001 80382 -3.7987e+001 -2.7757e+000  7.4634e-001 53267 80082,80264,80108
 9.0000e-001 80359 -3.7377e+001 -1.5669e+002  1.0212e+002 53267 80108,80238,80134
 9.0000e-001 80336 -2.8066e+001 -6.8355e+001  7.9583e+001 53267 80134,80212,80186
 9.0000e-001 80313 -1.2284e+002 -1.5530e+002  1.3385e+002 53267 80134,80238,80212
 9.0000e-001 80290  1.3682e+000 -1.0383e+002  3.3820e+001 53267 80134,80186,80160
 9.0000e-001 80915 -1.0481e+002 -1.6171e+002  8.0368e+001 52969 80644,80774,80748
 9.0000e-001 80892 -1.0244e+002 -4.8435e+001  5.0772e+001 52969 80618,80774,80644
 9.0000e-001 80869 -1.2516e+002 -2.2560e+002  4.2371e+001 52969 80644,80748,80670
 9.0000e-001 80846 -1.9666e+001 -5.2231e+001  1.9003e+001 52969 80592,80774,80618
 9.0000e-001 80823 -2.1286e+002 -1.7439e+002  6.9382e+001 52969 80670,80722,80696
 9.0000e-001 80800 -1.1393e+002 -1.3375e+002  2.8576e+001 52969 80670,80748,80722
 9.0000e-001 81266  1.1266e+001 -1.5813e+002  3.0661e+001 52565 81041,81145,81067
 9.0000e-001 81243 -1.4974e+002 -4.2329e+002  1.0012e+002 52565 81041,81171,81145
 9.0000e-001 81220 -3.0128e+002 -7.9944e+002  1.1982e+002 52565 81067,81119,81093
 9.0000e-001 81197  3.0829e+001 -2.6133e+001  4.7403e+001 52565 81067,81145,81119
 9.0000e-001 81723 -1.7622e+002 -1.6197e+002  7.8756e+001 51904 81449,81527,81475
 9.0000e-001 81700 -1.4538e+002 -1.0541e+002  6.5955e+001 51904 81449,81579,81527
 9.0000e-001 81677 -3.0660e+002 -2.9731e+002  1.5634e+002 51904 81449,81605,81579
 9.0000e-001 81654 -1.5971e+002 -6.4154e+001  7.5390e+001 51904 81527,81579,81553
 9.0000e-001 81631 -2.5663e+002 -1.3511e+002  2.9415e+001 51904 81475,81527,81501
 9.0000e-001 82327 -2.7400e+002 -3.0421e+002  2.1242e+002 51321 82422,82350,82036
 9.0000e-001 82304 -2.8115e+002 -2.2320e+002  2.3357e+002 51321 82494,82350,81958
 9.0000e-001 82281 -2.8515e+002 -3.1629e+002  1.9093e+002 51321 82422,82036,82010
 9.0000e-001 82258 -2.9487e+002 -2.2134e+002  2.1823e+002 51321 82494,81958,81932
 9.0000e-001 82235 -2.9636e+002 -1.5105e+002  1.1965e+002 51321 82062,82114,82088
 9.0000e-001 82212 -7.0580e+002 -4.3210e+002  2.9448e+002 51321 81932,82140,82114
 9.0000e-001 82189 -2.9655e+002 -1.1812e+002  1.8276e+002 51321 81958,82010,81984
 9.0000e-001 82166 -3.0825e+002 -2.7186e+002  2.0175e+002 51321 81906,82140,81932
 9.0000e-001 82376 -2.7356e+002 -3.5083e+002  2.1061e+002 51321 82062,82036,82350
 9.0000e-001 82399 -2.8281e+002 -2.7688e+002  2.0324e+002 51321 82062,82350,82114
 9.0000e-001 82448 -2.4675e+002 -2.8549e+002  2.2640e+002 51321 81958,82350,82422
 9.0000e-001 82471 -2.5417e+002 -2.9551e+002  2.0532e+002 51321 81958,82422,82010
 9.0000e-001 82520 -2.9344e+002 -2.4271e+002  2.2522e+002 51321 82114,82350,82494
 9.0000e-001 82543 -2.9781e+002 -2.4085e+002  2.1160e+002 51321 82114,82494,81932
 9.0000e-001 83019 -3.2791e+002 -1.4592e+002  8.6641e+001 50817 82673,82751,82699
 9.0000e-001 82996 -3.7665e+002 -1.8797e+002  1.6324e+002 50817 83042,82673,82855
 9.0000e-001 82973 -3.6044e+002 -2.3397e+002  1.6818e+002 50817 83042,82855,82803
 9.0000e-001 82950 -4.6263e+002 -2.8558e+002  2.2102e+002 50817 82751,82803,82777
 9.0000e-001 82927 -3.9523e+002 -2.6359e+002  8.8978e+001 50817 82647,82855,82673
 9.0000e-001 82904 -4.4145e+002 -3.0979e+002  2.2756e+002 50817 82803,82855,82829
 9.0000e-001 82881 -3.9214e+002 -2.8919e+002  1.0029e+002 50817 82699,82751,82725
 9.0000e-001 83068 -3.9391e+002 -2.2267e+002  1.8512e+002 50817 82751,82673,83042
 9.0000e-001 83091 -3.6328e+002 -2.5933e+002  1.8396e+002 50817 82751,83042,82803
 9.0000e-001 83290 -3.2644e+002 -2.0739e+002  2.2023e+002 50356 83313,83166,83140
 9.0000e-001 83267 -3.8423e+002 -3.5342e+002  1.7236e+002 50356 83515,83313,83140
 9.0000e-001 83244 -4.4696e+002 -3.3902e+002  8.4898e+001 50356 83515,83140,83385
 9.0000e-001 83339 -3.7776e+002 -3.1920e+002  2.3679e+002 50356 83192,83166,83313
 9.0000e-001 83362 -2.7159e+002 -3.2730e+002  1.9742e+002 50356 83192,83313,83218
 9.0000e-001 83411 -1.5623e+002 -1.7153e+002  1.2855e+002 50356 83114,83218,83385
 9.0000e-001 83541 -2.3397e+002 -3.0089e+002  1.6263e+002 50356 83218,83313,83515
 9.0000e-001 83564 -2.5478e+002 -2.6048e+002  8.6005e+001 50356 83218,83515,83385
 9.0000e-001 83893 -1.5780e+002 -1.2552e+002  6.2065e+001 49552 83720,83798,83746
 9.0000e-001 83870 -1.2901e+002 -1.4094e+001  4.8436e+001 49552 83694,83798,83720
 9.0000e-001 83847 -4.4322e+001 -5.1984e+001  3.8560e+001 49552 83668,83798,83694
 9.0000e-001 83824 -1.7630e+002 -5.2133e+001  2.5009e+001 49552 83746,83798,83772
 9.0000e-001 84141 -3.6351e+002 -3.0006e+002  1.9016e+002 49212 84164,84020,83942
 9.0000e-001 84118 -3.6376e+002 -2.9354e+002  2.1213e+002 49212 84164,83942,83916
 9.0000e-001 84095 -2.3053e+002 -3.5843e+002  1.3841e+002 49212 83942,84020,83968
 9.0000e-001 84072 -2.1147e+002 -5.1309e+001  7.0961e+001 49212 83968,84020,83994
 9.0000e-001 84190 -3.8438e+002 -3.0530e+002  1.8532e+002 49212 84046,84020,84164
 9.0000e-001 84213 -3.7698e+002 -2.9907e+002  2.0618e+002 49212 84046,84164,83916
 9.0000e-001 84800 -1.2019e+002 -3.2377e+002  1.3623e+002 48865 84503,84633,84555
 9.0000e-001 84777 -2.5449e+002 -4.7097e+002  8.0251e+001 48865 84503,84659,84633
 9.0000e-001 84754 -2.1698e+002 -5.8769e+002  1.0451e+002 48865 84555,84633,84581
 9.0000e-001 84731 -1.2960e+002 -7.9044e+002  1.8593e+002 48865 84581,84633,84607
 9.0000e-001 84708 -4.3557e+002 -4.0554e+002  1.0922e+002 48865 84503,84555,84529
 9.0000e-001 84685 -2.4077e+002 -4.0731e+002  1.2671e+002 48865 84477,84659,84503
 9.0000e-001 85355 -1.8360e+002 -1.9731e+002  9.9462e+001 48461 85378,85035,85009
 9.0000e-001 85332 -2.1490e+002 -2.0915e+002  1.1407e+002 48461 85378,85009,85165
 9.0000e-001 85309 -1.6227e+002 -2.4799e+002  1.4229e+002 48461 85450,85061,85035
 9.0000e-001 85286 -2.9215e+002 -2.2767e+002  9.8054e+001 48461 85009,85191,85165
 9.0000e-001 85263 -2.0494e+002 -2.1398e+002  1.5320e+002 48461 85087,85165,85113
 9.0000e-001 85240 -1.5210e+002 -2.7758e+002  6.5625e+000 48461 84983,85191,85009
 9.0000e-001 85217 -1.7846e+002 -2.6132e+002  1.0324e+002 48461 85113,85165,85139
 9.0000e-001 85404 -1.8203e+002 -2.0077e+002  1.2150e+002 48461 85450,85035,85378
 9.0000e-001 85427 -2.3946e+002 -2.2386e+002  1.0795e+002 48461 85087,85378,85165
 9.0000e-001 85476 -1.8767e+002 -3.0121e+002  1.3449e+002 48461 85087,85061,85450
 9.0000e-001 85499 -2.2081e+002 -2.7710e+002  1.0795e+002 48461 85087,85450,85378
 9.0000e-001 86084 -1.3488e+002 -2.7225e+002  9.9810e+001 48057 86323,86107,85787
 9.0000e-001 86061 -1.7120e+002 -3.0773e+002  1.4730e+002 48057 86107,85761,85943
 9.0000e-001 86038 -1.9324e+002 -2.2145e+002  1.1240e+002 48057 86251,86179,85891
 9.0000e-001 86015 -1.9120e+002 -1.7804e+002  7.3989e+001 48057 86251,85891,85839
 9.0000e-001 85992 -2.0542e+002 -2.1529e+002  1.8648e+002 48057 85891,85943,85917
 9.0000e-001 85969 -2.3296e+002 -1.3658e+002  1.0351e+002 48057 85839,85891,85865
 9.0000e-001 86133 -1.3713e+002 -2.6517e+002  8.8738e+001 48057 85813,85787,86107
 9.0000e-001 86156 -1.6102e+002 -2.6427e+002  8.8741e+001 48057 86179,85813,86107
 9.0000e-001 86205 -1.6108e+002 -1.8640e+002  1.2585e+002 48057 85943,85891,86179
 9.0000e-001 86228 -1.2147e+002 -2.0585e+002  1.2235e+002 48057 85943,86179,86107
 9.0000e-001 86277 -1.2838e+002 -1.7602e+002  8.9519e+001 48057 85813,86179,86251
 9.0000e-001 86300 -1.6336e+002 -1.4962e+002  5.8609e+001 48057 85813,86251,85839
 9.0000e-001 86349 -8.3050e+001 -2.3635e+002  1.1562e+002 48057 85761,86107,86323
 9.0000e-001 86855 -1.0776e+002 -2.6753e+002  1.4642e+002 47545 86878,86584,86558
 9.0000e-001 86832 -1.9391e+002 -3.0478e+002  1.2788e+002 47545 86950,86878,86558
 9.0000e-001 86809 -2.2231e+002 -2.9551e+002  1.3115e+002 47545 86950,86558,86532
 9.0000e-001 86786 -1.3223e+002 -2.5349e+002  1.4807e+002 47545 86584,86662,86610
 9.0000e-001 86763 -2.0664e+002 -2.6082e+002  8.1798e+001 47545 86532,86714,86688
 9.0000e-001 86740 -1.7098e+002 -1.1777e+002  1.5509e+002 47545 86610,86662,86636
 9.0000e-001 86904 -1.5524e+002 -3.1671e+002  1.1820e+002 47545 86662,86584,86878
 9.0000e-001 86927 -1.2472e+002 -2.9170e+002  9.9325e+001 47545 86662,86878,86688
 9.0000e-001 86976 -1.4953e+002 -2.9212e+002  9.3679e+001 47545 86688,86878,86950
 9.0000e-001 86999 -1.9799e+002 -3.0579e+002  1.0320e+002 47545 86688,86950,86532
 9.0000e-001 87328 -1.7749e+002 -1.4895e+002  9.3480e+001 47048 87155,87207,87181
 9.0000e-001 87305 -1.5496e+002 -1.1688e+002  1.1596e+002 47048 87129,87207,87155
 9.0000e-001 87282 -2.0702e+002 -1.3530e+002  1.2046e+002 47048 87103,87207,87129
 9.0000e-001 87259 -2.6522e+002 -2.8826e+002  1.7629e+002 47048 87103,87233,87207
 9.0000e-001 87576 -1.0093e+002 -1.3040e+002  1.2497e+002 46701 87599,87429,87377
 9.0000e-001 87553 -1.5661e+002 -6.1523e+001  7.6956e+001 46701 87599,87377,87481
 9.0000e-001 87530 -2.9412e+001 -3.2353e+001  1.2928e+001 46701 87351,87481,87377
 9.0000e-001 87507  4.0443e+000 -5.5267e+001  6.7239e+001 46701 87377,87429,87403
 9.0000e-001 87625 -1.3769e+002 -2.5557e+002  1.2551e+002 46701 87455,87429,87599
 9.0000e-001 87648 -1.5154e+002 -1.3498e+002  6.5332e+001 46701 87455,87599,87481
 9.0000e-001 87798 -2.5579e+000  2.8067e-001  7.5005e-001 46239 87697,87749,87723
 9.0000e-001 87775  2.6330e+001 -3.5719e+001  4.9243e+001 46239 87671,87749,87697
 9.0000e-001 88308 -4.3448e+002 -3.7737e+002  1.3298e+002 45735 88089,88167,88141
 9.0000e-001 88285 -3.1748e+002 -2.2924e+002  1.9141e+002 45735 88011,88167,88089
 9.0000e-001 88262 -3.9820e+002 -2.5790e+002  1.9713e+002 45735 87985,88167,88011
 9.0000e-001 88239 -4.9468e+002 -7.5069e+002  2.9923e+002 45735 88011,88089,88063
 9.0000e-001 88216 -4.0044e+002 -3.6783e+002  1.0293e+002 45735 88089,88141,88115
 9.0000e-001 88193 -3.5385e+002 -6.6228e+002  4.7241e+002 45735 88011,88063,88037
 9.0000e-001 88686 -2.8287e+002 -2.5981e+002  1.8526e+002 45316 88438,88516,88490
 9.0000e-001 88663 -2.3768e+002 -8.2888e+001  2.1829e+002 45316 88438,88542,88516
 9.0000e-001 88640 -1.6022e+002 -3.6816e+002  2.6345e+002 45316 88438,88568,88542
 9.0000e-001 88617 -4.8050e+002 -3.8064e+002  1.2220e+002 45316 88438,88490,88464
 9.0000e-001 88594 -1.8067e+002 -3.6861e+002  2.6672e+002 45316 88412,88568,88438
 9.0000e-001 88934 -5.4608e+002 -5.6836e+002  3.1664e+002 44812 88957,88735,88709
 9.0000e-001 88911 -3.3151e+002 -3.9168e+002  1.3940e+002 44812 88957,88709,88839
 9.0000e-001 88888 -3.2614e+002 -3.0763e+002  9.3321e+001 44812 89029,88787,88761
 9.0000e-001 88865 -3.0794e+002 -2.7929e+002  1.2826e+002 44812 88787,88839,88813
 9.0000e-001 88983 -1.6937e+002 -3.7308e+002  2.2249e+002 44812 88761,88735,88957
 9.0000e-001 89006 -2.8514e+002 -3.4141e+002  8.3036e+001 44812 89029,88761,88957
 9.0000e-001 89055 -3.2083e+002 -3.4759e+002  1.0701e+002 44812 88839,88787,89029
 9.0000e-001 89078 -3.1600e+002 -4.1962e+002  1.0984e+002 44812 88839,89029,88957
 9.0000e-001 89228 -2.6634e+002 -7.0603e+002  8.7189e+001 44408 89127,89179,89153
 9.0000e-001 89205 -7.0656e+000 -4.6489e+001  1.2520e+000 44408 89101,89179,89127
 9.0000e-001 89787 -2.7762e+002 -2.2820e+002  1.5889e+002 43854 89810,89545,89519
 9.0000e-001 89764 -3.0193e+002 -2.9092e+002  1.7137e+002 43854 89810,89519,89467
 9.0000e-001 89741 -3.0778e+002 -3.7248e+002  1.6124e+002 43854 89954,89882,89597
 9.0000e-001 89718 -3.1442e+002 -3.7510e+002  1.6732e+002 43854 89954,89597,89571
 9.0000e-001 89695 -1.8050e+002 -2.9381e+002  1.5219e+002 43854 89415,89623,89467
 9.0000e-001 89672 -1.4575e+002 -1.5160e+002  1.1276e+002 43854 89467,89519,89493
 9.0000e-001 89649 -1.3863e+002 -2.2153e+002  1.3415e+002 43854 89415,89467,89441
 9.0000e-001 89836 -3.1910e+002 -2.5103e+002  1.7722e+002 43854 89882,89545,89810
 9.0000e-001 89859 -1.8560e+002 -2.7469e+002  1.4341e+002 43854 89623,89810,89467
 9.0000e-001 89908 -3.1016e+002 -4.5954e+002  2.1899e+002 43854 89623,89597,89882
 9.0000e-001 89931 -2.7901e+002 -4.0345e+002  1.8585e+002 43854 89623,89882,89810
 9.0000e-001 89980 -3.3419e+002 -3.7243e+002  2.0993e+002 43854 89545,89882,89954
 9.0000e-001 90003 -3.6323e+002 -4.1331e+002  2.2299e+002 43854 89545,89954,89571
 9.0000e-001 90251 -9.3033e+001 -1.5633e+002  6.5234e+001 43492 90026,90078,90052
 9.0000e-001 90228 -3.1707e+002 -2.7506e+002  1.3903e+002 43492 90274,90026,90156
 9.0000e-001 90205 -2.9347e+002 -3.1289e+002  1.4025e+002 43492 90346,90274,90156
 9.0000e-001 90182 -2.9951e+002 -3.9435e+002  2.7917e+002 43492 90346,90156,90130
 9.0000e-001 90300 -2.1860e+002 -3.2832e+002  1.7136e+002 43492 90078,90026,90274
 9.0000e-001 90323 -3.4497e+002 -3.7903e+002  1.6250e+002 43492 90078,90274,90104
 9.0000e-001 90372 -4.6598e+002 -4.2626e+002  2.2272e+002 43492 90104,90274,90346
 9.0000e-001 90395 -4.7424e+002 -5.2274e+002  3.6425e+002 43492 90104,90346,90130
 9.0000e-001 90594 -7.3664e+001 -2.3078e+002  1.2380e+002 43052 90418,90496,90444
 9.0000e-001 90571 -2.0110e+001 -3.3156e+001  5.2957e+001 43052 90418,90522,90496
 9.0000e-001 90548 -2.0150e+002 -1.9533e+002  1.3555e+002 43052 90444,90496,90470
 9.0000e-001 91074 -5.8606e+002 -4.0751e+002  4.0593e+002 42434 91241,90884,90858
 9.0000e-001 91051 -2.1599e+002 -2.8830e+002 -1.0236e+001 42434 90702,90910,90884
 9.0000e-001 91028 -7.7045e+001 -1.1268e+002  1.3304e+002 42434 91097,90754,90702
 9.0000e-001 91005 -4.5711e+002 -2.1816e+002  3.4988e+002 42434 91241,90858,91097
 9.0000e-001 90982 -1.8935e+002 -2.5749e+002  1.0683e+002 42434 91169,90806,90780
 9.0000e-001 90959 -1.3956e+002 -2.1291e+002  6.5868e+001 42434 90806,90858,90832
 9.0000e-001 90936 -1.1095e+002 -1.3556e+002  1.2192e+002 42434 90702,90754,90728
 9.0000e-001 91123 -4.4306e+002 -3.4193e+002  3.2693e+002 42434 90780,90754,91097
 9.0000e-001 91146 -3.4000e+002 -3.9351e+002  3.1205e+002 42434 91169,90780,91097
 9.0000e-001 91195 -1.2710e+002 -1.4954e+002  6.7362e+001 42434 90858,90806,91169
 9.0000e-001 91218 -1.3997e+002  4.1083e+000  2.4008e+002 42434 90858,91169,91097
 9.0000e-001 91267 -3.2779e+002 -6.4200e+002  2.7547e+002 42434 90702,90884,91241
 9.0000e-001 91290 -2.2247e+002 -4.8567e+002  2.2940e+002 42434 90702,91241,91097
 9.0000e-001 91698 -7.6754e+001 -2.8952e+002  1.0626e+002 41773 91473,91577,91499
 9.0000e-001 91675 -1.3895e+002 -3.5092e+002  1.5177e+002 41773 91473,91603,91577
 9.0000e-001 91652 -1.5609e+002 -2.2998e+002  4.1967e+001 41773 91499,91551,91525
 9.0000e-001 91629 -2.1737e+002 -2.6710e+002  1.0309e+002 41773 91499,91577,91551
 9.0000e-001 92044 -2.6358e+002 -3.2875e+002  1.8989e+002 41383 91773,91877,91851
 9.0000e-001 92021 -2.1722e+002 -3.9892e+002  1.0876e+002 41383 91747,91877,91773
 9.0000e-001 91998 -2.2208e+002 -2.3494e+002  1.4048e+002 41383 91773,91851,91799
 9.0000e-001 91975 -1.7839e+002 -3.5939e+002  8.4109e+001 41383 91747,91903,91877
 9.0000e-001 91952 -8.3932e+001 -3.1922e+002  9.1935e+001 41383 91721,91903,91747
 9.0000e-001 91929 -3.5970e+001 -2.2761e+002  9.7939e+001 41383 91799,91851,91825
 9.0000e-001 92601 -2.3024e+002 -2.5632e+002  8.4170e+001 40979 92229,92411,92307
 9.0000e-001 92578 -2.8330e+002 -2.8471e+002  9.5259e+001 40979 92229,92437,92411
 9.0000e-001 92555 -1.9425e+002 -1.9372e+002  6.9114e+001 40979 92229,92307,92281
 9.0000e-001 92532 -1.7780e+002 -2.1515e+002  1.0351e+002 40979 92333,92411,92385
 9.0000e-001 92509 -1.7460e+002 -2.0892e+002  1.0471e+002 40979 92307,92411,92333
 9.0000e-001 92486 -2.5291e+002 -2.9380e+002  4.1955e+001 40979 92229,92281,92255
 9.0000e-001 92463 -3.6198e+001 -1.8094e+002  9.5336e+001 40979 92333,92385,92359
 9.0000e-001 93235 -2.5262e+002 -1.7645e+002  2.1731e+002 40525 92941,92993,92967
 9.0000e-001 93212 -3.3494e+002 -5.7998e+001  1.1879e+002 40525 93258,92941,92889
 9.0000e-001 93189 -2.8424e+002 -1.8638e+001  8.4178e+001 40525 93258,92889,93071
 9.0000e-001 93166 -2.4304e+002 -1.8964e+002  9.6856e+001 40525 92889,92941,92915
 9.0000e-001 93143 -1.1961e+002 -8.7982e+001  8.0774e+001 40525 92863,93071,92889
 9.0000e-001 93120 -2.7734e+002 -1.4523e+002  1.1778e+002 40525 92993,93071,93019
 9.0000e-001 93097 -2.9379e+002 -1.8252e+002  1.3143e+002 40525 93019,93071,93045
 9.0000e-001 93284 -3.7047e+002 -1.3659e+002  1.8664e+002 40525 92993,92941,93258
 9.0000e-001 93307 -2.5626e+002 -4.3169e+001  1.3965e+002 40525 92993,93258,93071
 9.0000e-001 93636 -3.7677e+002 -3.4848e+002  2.7258e+002 40235 93437,93541,93515
 9.0000e-001 93613 -2.7637e+002 -4.3281e+002  2.4294e+002 40235 93411,93541,93437
 9.0000e-001 93590 -1.1511e+002 -3.3329e+002  1.1260e+002 40235 93463,93515,93489
 9.0000e-001 93567 -1.9948e+002 -2.5564e+002  8.6173e+001 40235 93437,93515,93463
 9.0000e-001 94014 -3.9649e+002 -5.0095e+002  1.6284e+002 39873 93766,93870,93792
 9.0000e-001 93991 -3.6749e+002 -5.0583e+002  1.5420e+002 39873 93766,93896,93870
 9.0000e-001 93968 -3.1730e+002 -3.8766e+002  1.9735e+002 39873 93792,93870,93844
 9.0000e-001 93945 -2.7092e+002 -3.3916e+002  1.5104e+002 39873 93792,93844,93818
 9.0000e-001 93922 -2.8079e+002 -4.4352e+002  2.5511e+002 39873 93740,93896,93766
 9.0000e-001 94164  1.9853e+001 -4.6894e+001  5.6447e+001 39461 94037,94089,94063
 9.0000e-001 94141 -7.5745e+001 -3.2131e+001  6.0364e+001 39461 94037,94115,94089
 9.0000e-001 94363 -2.0052e+002 -1.8504e+002  1.1870e+002 39057 94386,94239,94213
 9.0000e-001 94340 -1.3906e+002 -1.4716e+002  1.0229e+002 39057 94386,94213,94187
 9.0000e-001 94317 -2.4946e+002 -2.4571e+002  1.4376e+002 39057 94187,94291,94265
 9.0000e-001 94412 -1.0743e+002 -1.5749e+002  1.0640e+002 39057 94458,94386,94265
 9.0000e-001 94435 -1.5445e+002 -1.7718e+002  1.1244e+002 39057 94265,94386,94187
 9.0000e-001 94484 -1.7803e+002 -2.2178e+002  1.3753e+002 39057 94239,94386,94458
 9.0000e-001 94896 -4.0332e+002 -2.7021e+002  1.7489e+002 38396 94919,94775,94723
 9.0000e-001 94873 -4.3687e+002 -2.5390e+002  1.7443e+002 38396 94919,94723,94697
 9.0000e-001 94850 -2.9814e+002 -2.3260e+002  1.3058e+002 38396 94723,94775,94749
 9.0000e-001 94827 -1.9060e+002 -1.7222e+002  1.3666e+002 38396 94671,94801,94697
 9.0000e-001 94945 -3.9023e+002 -2.5964e+002  1.7018e+002 38396 94801,94775,94919
 9.0000e-001 94968 -4.1076e+002 -2.3427e+002  1.6552e+002 38396 94801,94919,94697
 9.0000e-001 95265 -3.3465e+002 -3.7566e+002  1.5457e+002 37835 95017,95069,95043
 9.0000e-001 95242 -3.4380e+002 -3.3785e+002  1.5993e+002 37835 95288,95069,95017
 9.0000e-001 95219 -3.6089e+002 -3.7915e+002  2.2554e+002 37835 95288,95017,94991
 9.0000e-001 95196 -4.2001e+002 -4.1666e+002  2.1616e+002 37835 94991,95147,95121
 9.0000e-001 95173 -2.5010e+002 -1.8667e+002  1.5257e+002 37835 95069,95121,95095
 9.0000e-001 95314 -3.3593e+002 -2.4333e+002  1.2791e+002 37835 95121,95069,95288
 9.0000e-001 95337 -3.5394e+002 -3.0616e+002  1.8844e+002 37835 95121,95288,94991
 9.0000e-001 95558 -5.7059e+001 -2.1601e+002  7.8982e+001 37423 95408,95460,95434
 9.0000e-001 95535 -1.5781e+002 -5.5436e+002  2.1997e+002 37423 95382,95460,95408
 9.0000e-001 95512 -2.7776e+002 -6.4595e+002  2.5981e+002 37423 95382,95486,95460
 9.0000e-001 95891 -1.8588e+002 -4.3729e+002  2.4295e+002 37225 95666,95718,95692
 9.0000e-001 95868 -3.2298e+002 -4.2004e+002  2.8738e+002 37225 95666,95796,95718
 9.0000e-001 95845 -1.6944e+002 -3.2527e+002  9.8832e+001 37225 95718,95770,95744
 9.0000e-001 95822 -2.1783e+002 -2.6747e+002  1.6702e+002 37225 95718,95796,95770
 9.0000e-001 95992 -1.0479e+002 -3.2110e+002  9.2743e+001 36735 95914,95966,95940
 9.0000e-001 96142 -3.9599e+002 -2.4285e+002  2.1176e+002 36331 96297,96067,96041
 9.0000e-001 96119 -3.5146e+002 -1.9998e+002  2.4919e+002 36331 96165,96041,96015
 9.0000e-001 96191 -3.8847e+002 -2.3086e+002  2.3595e+002 36331 96297,96041,96165
 9.0000e-001 96323 -4.0341e+002 -2.0806e+002  2.3987e+002 36331 96093,96067,96297
 9.0000e-001 96346 -3.6717e+002 -1.8232e+002  2.6843e+002 36331 96093,96297,96165
 9.0000e-001 96714 -2.8901e+002 -4.6322e+002  2.4988e+002 36041 96737,96495,96443
 9.0000e-001 96691 -3.8041e+002 -3.7396e+002  2.5813e+002 36041 96737,96443,96417
 9.0000e-001 96668 -2.2578e+002 -4.7015e+002  1.4981e+002 36041 96443,96495,96469
 9.0000e-001 96645 -9.8984e+001 -1.9911e+002  1.5546e+002 36041 96391,96521,96417
 9.0000e-001 96622 -6.4563e+001 -1.9943e+002  1.4278e+002 36041 96391,96547,96521
 9.0000e-001 96599 -4.5244e+001 -1.8780e+002  1.3756e+002 36041 96391,96573,96547
 9.0000e-001 96763 -1.5754e+002 -3.8330e+002  2.1497e+002 36041 96521,96495,96737
 9.0000e-001 96786 -3.2936e+002 -3.5627e+002  2.4220e+002 36041 96521,96737,96417
 9.0000e-001 96936 -2.0029e+002 -1.3194e+002  1.5232e+002 35637 97031,96959,96835
 9.0000e-001 96913 -2.2955e+002 -1.3471e+002  1.5312e+002 35637 97163,96959,96809
 9.0000e-001 96985 -2.3094e+002 -1.3404e+002  1.5649e+002 35637 96861,96835,96959
 9.0000e-001 97008 -2.6494e+002 -1.6854e+002  2.0802e+002 35637 96861,96959,96887
 9.0000e-001 97057 -1.9581e+002 -8.3203e+001  1.1718e+002 35637 96809,96959,97031
 9.0000e-001 97189 -2.0242e+002 -1.3037e+002  1.5799e+002 35637 96887,96959,97163
 9.0000e-001 97597 -1.4542e+002 -1.9738e+002  1.5724e+002 35190 97450,97502,97476
 9.0000e-001 97574 -1.6150e+002 -2.7110e+002  2.0280e+002 35190 97372,97502,97450
 9.0000e-001 97551 -1.5739e+002 -2.8681e+002  1.8900e+002 35190 97372,97450,97398
 9.0000e-001 97528 -1.2751e+002 -2.5544e+002  1.5892e+002 35190 97398,97450,97424
 9.0000e-001 98054 -2.5852e+002 -3.3501e+002  2.1959e+002 34636 97806,97936,97858
 9.0000e-001 98031 -3.7788e+002 -2.5284e+002  2.0127e+002 34636 97780,97936,97806
 9.0000e-001 98008 -3.6536e+002 -3.3576e+002  1.4345e+002 34636 97806,97858,97832
 9.0000e-001 97985 -2.8873e+002 -3.4705e+002  2.4825e+002 34636 97884,97936,97910
 9.0000e-001 97962 -1.8946e+002 -2.3181e+002  1.8322e+002 34636 97858,97936,97884
 9.0000e-001 98530 -1.9098e+002  8.9960e+001  7.3641e+001 34068 98697,98184,98366
 9.0000e-001 98507  4.6713e+000  1.8458e+001 -6.2561e+000 34068 98158,98366,98184
 9.0000e-001 98484 -2.6228e+002 -2.2129e+002  1.1721e+002 34068 98553,98262,98236
 9.0000e-001 98461 -2.9992e+002 -2.3975e+002  1.1113e+002 34068 98553,98236,98210
 9.0000e-001 98438 -2.5103e+002 -1.0651e+002  1.1528e+002 34068 98841,98625,98366
 9.0000e-001 98415 -2.5192e+002 -3.6782e+002  1.8313e+002 34068 98769,98288,98262
 9.0000e-001 98392 -3.4456e+002 -4.4592e+001  1.1323e+002 34068 98841,98366,98340
 9.0000e-001 98579 -2.9806e+002 -2.7377e+002  1.4104e+002 34068 98769,98262,98553
 9.0000e-001 98602 -2.4204e+002 -1.2624e+002  1.1730e+002 34068 98625,98314,98553
 9.0000e-001 98651 -2.2960e+002 -8.4541e+001  9.0658e+001 34068 98697,98366,98625
 9.0000e-001 98674 -2.8752e+002 -2.3477e+002  1.1003e+002 34068 98210,98625,98553
 9.0000e-001 98723 -2.6552e+002 -1.2220e+002  1.0220e+002 34068 98210,98184,98697
 9.0000e-001 98746 -2.3471e+002 -1.5902e+002  1.3644e+002 34068 98210,98697,98625
 9.0000e-001 98795 -1.5875e+002 -2.7067e+002  1.2346e+002 34068 98314,98288,98769
 9.0000e-001 98818 -2.2329e+002 -2.0418e+002  8.3643e+001 34068 98314,98769,98553
 9.0000e-001 98867 -3.4444e+002 -1.6131e+002  8.6087e+001 34068 98314,98625,98841
 9.0000e-001 98890 -4.3860e+002 -9.4883e+001  8.8223e+001 34068 98314,98841,98340
 9.0000e-001 99268 -3.7465e+002 -3.4981e+002  2.4646e+002 33450 99291,99098,99072
 9.0000e-001 99245 -4.2492e+002 -2.8390e+002  1.4436e+002 33450 99291,99072,99020
 9.0000e-001 99222 -6.2160e+002 -3.3670e+002  2.2639e+002 33450 99020,99072,99046
 9.0000e-001 99199 -3.1587e+002 -2.7073e+002  1.3545e+002 33450 99020,99150,99124
 9.0000e-001 99176 -3.2046e+002 -2.2013e+002  4.0566e+001 33450 98994,99150,99020
 9.0000e-001 99317 -1.9830e+002 -2.8109e+002  2.4583e+002 33450 99124,99098,99291
 9.0000e-001 99340 -3.6211e+002 -2.7500e+002  1.5564e+002 33450 99124,99291,99020
 9.0000e-001 99865 -2.8070e+002 -2.6504e+002  1.6505e+002 32944 100176,99960,99888
 9.0000e-001 99842 -3.1965e+002 -2.6012e+002  1.6797e+002 32944 100104,99888,99522
 9.0000e-001 99819 -2.5310e+002 -2.4277e+002  1.8623e+002 32944 100248,99960,99626
 9.0000e-001 99796 -2.9387e+002 -3.0539e+002  1.2424e+002 32944 100032,99652,99626
 9.0000e-001 99773 -2.7961e+002 -2.6136e+002  1.3226e+002 32944 100104,99522,99496
 9.0000e-001 99750 -2.0339e+002 -2.3620e+002  3.2005e+001 32944 99574,99626,99600
 9.0000e-001 99727 -1.9643e+002 -2.4767e+002  2.0514e+002 32944 100248,99626,99574
 9.0000e-001 99704 -2.1086e+002 -2.3247e+002  1.3162e+002 32944 99444,99496,99470
 9.0000e-001 99914 -2.9962e+002 -2.5635e+002  1.3814e+002 32944 100176,99888,100032
 9.0000e-001 99937 -3.1681e+002 -2.3575e+002  1.6387e+002 32944 99678,99888,99444
 9.0000e-001 99986 -3.1136e+002 -2.2590e+002  1.6497e+002 32944 99522,99888,99960
 9.0000e-001 100009 -3.1238e+002 -1.9529e+002  1.8724e+002 32944 99522,99960,99548
 9.0000e-001 100058 -3.1133e+002 -3.3782e+002  1.0941e+002 32944 99678,99652,100032
 9.0000e-001 100081 -3.4336e+002 -2.9966e+002  1.1078e+002 32944 99678,100032,99888
 9.0000e-001 100130 -2.4711e+002 -2.4323e+002  1.6036e+002 32944 99444,99888,100104
 9.0000e-001 100153 -2.2319e+002 -2.6103e+002  1.2956e+002 32944 99444,100104,99496
 9.0000e-001 100202 -3.0885e+002 -3.0811e+002  1.4823e+002 32944 99626,99960,100176
 9.0000e-001 100225 -3.2020e+002 -3.0679e+002  1.2291e+002 32944 99626,100176,100032
 9.0000e-001 100274 -3.3366e+002 -2.4543e+002  1.7500e+002 32944 99548,99960,100248
 9.0000e-001 100297 -2.8293e+002 -2.5486e+002  1.9377e+002 32944 99548,100248,99574
 9.0000e-001 100754 -1.6738e+002 -1.7027e+002  7.4413e+001 32369 100777,100584,100506
 9.0000e-001 100731 -1.4392e+002 -2.4022e+002  1.5170e+002 32369 100777,100506,100636
 9.0000e-001 100708 -2.7892e+002 -2.4255e+002  1.6789e+002 32369 100480,100636,100506
 9.0000e-001 100685 -3.3325e+002 -2.3411e+002  5.7361e+001 32369 100532,100584,100558
 9.0000e-001 100662 -1.7885e+002 -1.9492e+002  7.7620e+001 32369 100506,100584,100532
 9.0000e-001 100803 -1.6317e+002 -5.5573e+001  7.4124e+001 32369 100610,100584,100777
 9.0000e-001 100826 -1.3799e+002 -1.3719e+002  1.4011e+002 32369 100610,100777,100636
 9.0000e-001 101025 -2.5154e+002 -2.3226e+002  2.1489e+002 31857 100875,100927,100901
 9.0000e-001 101002 -4.6426e+002 -2.2205e+002  1.9874e+002 31857 100875,100953,100927
 9.0000e-001 100979 -4.8980e+002 -2.5159e+002  1.5966e+002 31857 100849,100953,100875
 9.0000e-001 101533 -2.0884e+002 -2.5401e+002  1.9384e+002 31253 101556,101314,101236
 9.0000e-001 101510 -2.9995e+002 -2.9419e+002  2.0691e+002 31253 101556,101236,101210
 9.0000e-001 101487 -2.8999e+002 -2.6511e+002  9.2215e+001 31253 101210,101392,101340
 9.0000e-001 101464 -1.5295e+002 -2.5117e+002  1.5240e+002 31253 101236,101288,101262
 9.0000e-001 101441 -1.7730e+002 -3.2845e+002  1.6684e+002 31253 101236,101314,101288
 9.0000e-001 101418 -2.6886e+002 -2.5994e+002  1.4027e+002 31253 101340,101392,101366
 9.0000e-001 101582 -2.3384e+002 -2.0651e+002  1.0861e+002 31253 101340,101314,101556
 9.0000e-001 101605 -3.2814e+002 -2.4838e+002  1.2524e+002 31253 101340,101556,101210
 9.0000e-001 101755  5.9942e+001  8.4122e+001  1.2304e+002 30519 101778,101654,101628
 9.0000e-001 101732 -8.8052e+001  1.7990e+002  1.6696e+001 30519 101850,101778,101628
 9.0000e-001 101804 -7.4077e+001 -1.4304e+002  6.1323e+001 30519 101680,101654,101778
 9.0000e-001 101827 -1.1469e+002  5.9879e+001  3.3456e+001 30519 101680,101778,101706
 9.0000e-001 101876 -1.6916e+002 -8.5502e+000  8.5197e+000 30519 101706,101778,101850
 9.0000e-001 102561 -2.2670e+002 -3.0634e+002  1.4623e+002 29951 102656,102584,102270
 9.0000e-001 102538 -4.5301e+002 -5.7266e+002  1.3403e+002 29951 102584,102140,102374
 9.0000e-001 102515 -3.1809e+002 -5.5643e+002  2.5467e+002 29951 102728,102656,102270
 9.0000e-001 102492 -3.0889e+002 -6.5558e+002  2.4365e+002 29951 102728,102270,102244
 9.0000e-001 102469 -3.6865e+002 -7.2998e+001  1.8469e+002 29951 102800,102322,102296
 9.0000e-001 102446 -4.1876e+002 -3.4009e+002  8.1878e+001 29951 102166,102218,102192
 9.0000e-001 102423 -3.2637e+002 -3.3546e+002  6.2855e+001 29951 102166,102244,102218
 9.0000e-001 102400 -1.9667e+002 -2.4179e+002  1.4283e+002 29951 102322,102374,102348
 9.0000e-001 102610 -4.6383e+002 -2.4660e+002  9.4286e+001 29951 102296,102270,102584
 9.0000e-001 102633 -4.8838e+002 -2.4160e+002  1.2796e+002 29951 102800,102296,102584
 9.0000e-001 102682 -4.8446e+002 -4.8780e+002  2.5219e+002 29951 102140,102584,102656
 9.0000e-001 102705 -3.5229e+002 -5.1892e+002  3.2923e+002 29951 102140,102656,102166
 9.0000e-001 102754 -2.9717e+002 -4.3732e+002  2.9963e+002 29951 102166,102656,102728
 9.0000e-001 102777 -3.0201e+002 -5.2905e+002  2.6756e+002 29951 102166,102728,102244
 9.0000e-001 102826 -2.5519e+002 -2.6347e+002  2.6587e+002 29951 102374,102322,102800
 9.0000e-001 102849 -3.0004e+002 -3.0981e+002  2.4036e+002 29951 102374,102800,102584
 9.0000e-001 103048 -4.7368e+001 -1.8370e+002  9.5871e+001 29454 102872,102924,102898
 9.0000e-001 103025 -1.0720e+002 -1.9882e+002  1.1151e+002 29454 102872,102976,102924
 9.0000e-001 103002 -9.7155e+001 -3.3600e+002  1.6279e+002 29454 102924,102976,102950
 9.0000e-001 103296 -4.2536e+002 -2.9959e+002  2.3082e+002 29064 103319,103175,103123
 9.0000e-001 103273 -5.2025e+002 -3.0456e+002  2.5318e+002 29064 103319,103123,103071
 9.0000e-001 103250 -2.6350e+002 -1.9119e+002  1.7907e+002 29064 103123,103175,103149
 9.0000e-001 103227 -4.0999e+002 -2.4353e+002  2.9881e+002 29064 103071,103123,103097
 9.0000e-001 103345 -3.3333e+002 -3.2169e+002  1.8439e+002 29064 103201,103175,103319
 9.0000e-001 103368 -4.6007e+002 -3.1784e+002  1.7194e+002 29064 103201,103319,103071
 9.0000e-001 104006 -3.5997e+002 -1.9988e+002  1.4405e+002 28603 104101,104029,103712
 9.0000e-001 103983 -3.4036e+002 -1.4038e+002  1.2805e+002 28603 104173,104029,103660
 9.0000e-001 103960 -4.3642e+002 -1.6629e+002  1.3966e+002 28603 104101,103712,103686
 9.0000e-001 103937 -2.9098e+002 -1.9684e+002  1.1298e+002 28603 104173,103660,103634
 9.0000e-001 103914 -3.3984e+002 -2.3446e+002  1.7905e+002 28603 103764,103816,103790
 9.0000e-001 103891 -2.8514e+002 -2.1556e+002  1.9428e+002 28603 103634,103842,103816
 9.0000e-001 103868 -2.5375e+002 -1.1449e+002  1.7076e+002 28603 103712,103764,103738
 9.0000e-001 104055 -3.3552e+002 -1.5080e+002  1.3579e+002 28603 103764,103712,104029
 9.0000e-001 104078 -3.3650e+002 -1.7459e+002  1.8281e+002 28603 103764,104029,103816
 9.0000e-001 104127 -4.6443e+002 -1.8940e+002  1.1589e+002 28603 103660,104029,104101
 9.0000e-001 104150 -5.8387e+002 -1.8464e+002  1.3336e+002 28603 103660,104101,103686
 9.0000e-001 104199 -3.8033e+002 -1.9583e+002  1.4569e+002 28603 103816,104029,104173
 9.0000e-001 104222 -3.2555e+002 -2.3809e+002  1.2919e+002 28603 103816,104173,103634
 9.0000e-001 104600 -1.4853e+002 -2.9803e+002  7.2723e+001 28348 104623,104378,104326
 9.0000e-001 104577 -1.1608e+002 -3.1377e+002  1.2197e+002 28348 104623,104326,104482
 9.0000e-001 104554 -1.4575e+002 -2.0786e+002  6.6086e+001 28348 104326,104378,104352
 9.0000e-001 104531 -1.4311e+002  1.2267e+001  1.1159e+001 28348 104404,104456,104430
 9.0000e-001 104508 -1.8584e+002 -1.4912e+002  1.1813e+002 28348 104378,104456,104404
 9.0000e-001 104649 -1.2395e+002 -2.5438e+002  9.4649e+001 28348 104456,104378,104623
 9.0000e-001 104672 -8.1839e+001 -2.6102e+002  1.4543e+002 28348 104456,104623,104482
 9.0000e-001 104991 -3.6368e+002 -3.8496e+002  2.6735e+002 27951 104717,104847,104769
 9.0000e-001 104968 -1.1366e+002 -2.6969e+002  2.3789e+002 27951 104717,104873,104847
 9.0000e-001 104945 -1.3592e+002 -3.3338e+002  2.7966e+002 27951 104769,104847,104795
 9.0000e-001 104922 -2.7875e+000  2.3343e+000  2.6477e+002 27951 104795,104847,104821
 9.0000e-001 104899 -3.0711e+002 -2.4769e+002  2.6359e+002 27951 104717,104769,104743
 9.0000e-001 105371 -2.7694e+002 -1.4273e+002  1.7940e+002 27447 105394,105201,105123
 9.0000e-001 105348 -2.9143e+002 -1.4736e+002  1.8082e+002 27447 105394,105123,105097
 9.0000e-001 105325 -4.9591e+002 -1.9128e+002  1.9445e+002 27447 105123,105201,105149
 9.0000e-001 105302 -3.0562e+002 -2.2621e+002  1.5739e+002 27447 105201,105253,105227
 9.0000e-001 105279 -2.4296e+002 -3.5550e+002  2.8626e+001 27447 105149,105201,105175
 9.0000e-001 105420 -2.6616e+002 -1.4682e+002  1.7028e+002 27447 105253,105201,105394
 9.0000e-001 105443 -2.8277e+002 -1.5179e+002  1.7051e+002 27447 105253,105394,105097
 9.0000e-001 105998 -3.0376e+002 -2.4492e+002  2.3310e+002 27100 106165,106021,105704
 9.0000e-001 105975 -1.6988e+002 -1.4831e+002  2.0444e+002 27100 106309,106021,105652
 9.0000e-001 105952 -5.6757e+002 -4.1609e+002  3.9123e+002 27100 106093,105808,105782
 9.0000e-001 105929 -3.0675e+002 -2.4796e+002  2.3496e+002 27100 106165,105704,105678
 9.0000e-001 105906 -1.8830e+002 -2.6557e+002  1.8133e+002 27100 106237,105730,105704
 9.0000e-001 105883 -1.5796e+002 -2.4422e+002  1.4041e+002 27100 106309,105652,105626
 9.0000e-001 105860 -1.5005e+002 -3.6865e+000  5.3408e+001 27100 105730,105782,105756
 9.0000e-001 106047 -2.7828e+002 -1.6705e+002  2.3015e+002 27100 106237,105704,106021
 9.0000e-001 106070 -3.3036e+002 -2.0624e+002  2.9306e+002 27100 106093,105782,106021
 9.0000e-001 106119 -2.3825e+002 -3.2809e+002  2.0398e+002 27100 105834,105808,106093
 9.0000e-001 106142 -2.5831e+002 -4.1599e+002  2.5728e+002 27100 106381,106093,106021
 9.0000e-001 106191 -3.0931e+002 -2.3535e+002  2.4225e+002 27100 105652,106021,106165
 9.0000e-001 106214 -3.2005e+002 -2.5140e+002  2.4695e+002 27100 105652,106165,105678
 9.0000e-001 106263 -1.0452e+002 -1.6191e+002  1.4436e+002 27100 105782,105730,106237
 9.0000e-001 106286 -2.1398e+002 -9.0289e+001  2.0120e+002 27100 105782,106237,106021
 9.0000e-001 106335 -2.2847e+002 -2.8784e+002  2.1675e+002 27100 106381,106021,106309
 9.0000e-001 106358 -1.6695e+002 -2.3555e+002  1.3931e+002 27100 105834,106309,105626
 9.0000e-001 106407 -1.8943e+002 -2.6641e+002  1.7245e+002 27100 105834,106093,106381
 9.0000e-001 106430 -1.9483e+002 -2.3920e+002  1.2625e+002 27100 105834,106381,106309
 9.0000e-001 106629 -4.8413e+001 -2.6841e+002  6.4872e+001 26688 106479,106557,106531
 9.0000e-001 106606 -1.1795e+001 -1.0171e+002  9.2130e+001 26688 106453,106557,106479
 9.0000e-001 106583 -1.2509e+002 -2.8864e+002  3.2025e+001 26688 106479,106531,106505
 9.0000e-001 107088 -1.3678e+002 -1.4815e+002  7.9764e+001 26248 107111,106918,106866
 9.0000e-001 107065 -1.5539e+002 -1.3230e+002  9.9805e+001 26248 107111,106866,106840
 9.0000e-001 107042 -1.6371e+002 -1.3117e+002  9.0361e+001 26248 106814,106970,106840
 9.0000e-001 107019 -1.2601e+002 -2.0484e+002  1.0371e+002 26248 106866,106918,106892
 9.0000e-001 106996 -2.7618e+002 -2.2596e+002  8.6663e+001 26248 106918,106970,106944
 9.0000e-001 107137 -1.7064e+002 -1.7305e+002  6.4153e+001 26248 106970,106918,107111
 9.0000e-001 107160 -1.6810e+002 -1.4005e+002  8.7600e+001 26248 106970,107111,106840
 9.0000e-001 107666 -4.1993e+002 -1.9822e+002  1.1999e+002 25908 107369,107499,107395
 9.0000e-001 107643 -5.3855e+002 -5.6412e+002  2.5603e+002 25908 107369,107525,107499
 9.0000e-001 107620 -3.4109e+002 -2.2978e+002  1.8472e+002 25908 107395,107473,107447
 9.0000e-001 107597 -2.9440e+002 -1.3916e+002  1.4463e+002 25908 107395,107499,107473
 9.0000e-001 107574 -5.6002e+002 -2.8576e+002  3.9849e+002 25908 107395,107447,107421
 9.0000e-001 107551 -2.1476e+002 -4.2393e+002  2.7226e+002 25908 107343,107525,107369
 9.0000e-001 108251 -3.5226e+002 -1.1750e+002  1.9255e+002 25454 108274,108006,107954
 9.0000e-001 108228 -2.7856e+002 -6.7972e+001  1.6431e+002 25454 108274,107954,108110
 9.0000e-001 108205 -2.4825e+002 -2.6340e+002  2.2832e+002 25454 108346,108032,108006
 9.0000e-001 108182 -4.2509e+002 -1.7901e+002  2.3696e+002 25454 107954,108006,107980
 9.0000e-001 108159 -1.5081e+002 -1.7500e+002  1.4505e+002 25454 107928,108110,107954
 9.0000e-001 108136 -4.6660e+002 -4.7277e+002  2.7412e+002 25454 108058,108110,108084
 9.0000e-001 108300 -3.3036e+002 -1.8274e+002  2.3275e+002 25454 108346,108006,108274
 9.0000e-001 108323 -2.9014e+002 -1.1244e+002  1.8636e+002 25454 108058,108274,108110
 9.0000e-001 108372 -1.4017e+002 -1.7392e+002  1.8951e+002 25454 108058,108032,108346
 9.0000e-001 108395 -2.3380e+002 -8.7113e+001  1.9149e+002 25454 108058,108346,108274
 9.0000e-001 108822 -2.3858e+002 -1.1594e+002  1.3734e+002 24943 108525,108681,108655
 9.0000e-001 108799 -3.0791e+002 -1.6671e+002  7.4907e+001 24943 108499,108681,108525
 9.0000e-001 108776 -1.2836e+002 -7.3723e+001  9.3371e+001 24943 108525,108655,108629
 9.0000e-001 108753 -2.6450e+002 -8.6193e+001  9.9656e+001 24943 108525,108629,108603
 9.0000e-001 108730 -3.1930e+002 -1.4433e+002  1.5270e+002 24943 108551,108603,108577
 9.0000e-001 108707 -3.8133e+002 -2.0013e+002  1.7871e+002 24943 108525,108603,108551
 9.0000e-001 109407  2.6186e+001 -5.2172e+001  4.7044e+001 24745 109162,109214,109188
 9.0000e-001 109384 -1.3245e+002 -6.5277e+001  5.8940e+001 24745 109162,109266,109214
 9.0000e-001 109361 -1.5784e+002 -4.7191e+001  2.4443e+001 24745 109084,109266,109162
 9.0000e-001 109338 -2.1317e+002 -2.7846e+001  4.7051e+001 24745 109084,109162,109136
 9.0000e-001 109315 -3.4425e+001 -9.9270e+001  5.8768e+001 24745 109214,109266,109240
 9.0000e-001 109292 -1.4938e+002 -4.6179e+001  8.3087e+001 24745 109084,109136,109110
 9.0000e-001 109785 -4.8600e+002 -2.4953e+002  2.8183e+002 24341 109537,109615,109563
 9.0000e-001 109762 -6.7694e+001 -1.5149e+002  2.6152e+002 24341 109537,109641,109615
 9.0000e-001 109739 -3.2129e+002 -2.5200e+002  2.1424e+002 24341 109563,109615,109589
 9.0000e-001 109716 -2.2238e+002 -2.4134e+002  1.7824e+002 24341 109537,109667,109641
 9.0000e-001 109693 -1.0781e+002 -2.6232e+002  1.6664e+002 24341 109511,109667,109537
 9.0000e-001 110163 -4.3026e+002 -2.4316e+002  2.9251e+002 23837 110186,109967,109915
 9.0000e-001 110140 -4.2698e+002 -2.4098e+002  2.9138e+002 23837 110186,109915,109889
 9.0000e-001 110117 -1.9872e+002 -1.0017e+002  2.1760e+002 23837 109889,110045,109993
 9.0000e-001 110094 -4.0279e+002 -4.0151e+002  2.0557e+002 23837 109915,109967,109941
 9.0000e-001 110071 -2.5712e+002 -7.6943e+000  4.4872e+001 23837 109993,110045,110019
 9.0000e-001 110212 -4.2889e+002 -2.4380e+002  2.9386e+002 23837 109993,109967,110186
 9.0000e-001 110235 -4.2829e+002 -2.4309e+002  2.9316e+002 23837 109993,110186,109889
 9.0000e-001 110336 -2.7089e+002 -6.1515e+002  2.9432e+002 23433 110258,110310,110284
 9.0000e-001 110584 -3.7338e+002 -2.3488e+002  1.7076e+002 22829 110607,110411,110385
 9.0000e-001 110561 -4.1977e+002 -2.5605e+002  1.8431e+002 22829 110607,110385,110489
 9.0000e-001 110538 -3.6213e+002 -2.3693e+002  1.3939e+002 22829 110437,110489,110463
 9.0000e-001 110515 -3.0360e+002 -1.3985e+002  2.3309e+002 22829 110359,110489,110385
 9.0000e-001 110633 -3.8051e+002 -2.2299e+002  1.3779e+002 22829 110437,110411,110607
 9.0000e-001 110656 -4.0588e+002 -2.3918e+002  1.5090e+002 22829 110437,110607,110489
 9.0000e-001 110906 -6.5233e+002 -2.7407e+002  1.8620e+002 22432 110707,110759,110733
 9.0000e-001 110883 -4.3905e+002 -2.9998e+002  1.5470e+002 22432 110707,110785,110759
 9.0000e-001 110860 -4.1754e+002 -2.6533e+002  2.3677e+002 22432 110707,110811,110785
 9.0000e-001 110837 -5.0823e+002 -3.5962e+002  1.9215e+002 22432 110681,110811,110707
 9.0000e-001 111288 -5.3905e+000 -7.9381e+001  1.1378e+002 22142 111092,111144,111118
 9.0000e-001 111265 -1.7772e+002 -1.1142e+002  1.0912e+002 22142 111066,111144,111092
 9.0000e-001 111242 -1.5795e+002 -5.7340e+001  1.1814e+002 22142 111040,111144,111066
 9.0000e-001 111219 -2.9986e+002 -2.0743e+001  8.5651e+001 22142 111014,111144,111040
 9.0000e-001 111196 -1.5555e+002  4.6937e+001  6.7474e+001 22142 111014,111170,111144
 9.0000e-001 111389 -9.1532e+000 -6.3893e+001  1.5240e+002 21830 111311,111363,111337
 9.0000e-001 111735 -3.4075e+002  4.0862e+001  3.1508e+002 21268 111758,111542,111438
 9.0000e-001 111712 -2.5197e+002  6.0505e+001  1.9078e+002 21268 111758,111438,111412
 9.0000e-001 111689 -9.5417e+001 -1.7209e+002  3.7945e+002 21268 111438,111542,111464
 9.0000e-001 111666  1.0873e+002 -7.2885e+001  4.6575e+002 21268 111464,111542,111490
 9.0000e-001 111643 -6.0747e+002 -3.4663e+002  3.1601e+002 21268 111412,111594,111568
 9.0000e-001 111620  3.9536e+002  2.2260e+002  5.8992e+002 21268 111490,111542,111516
 9.0000e-001 111784 -3.5161e+002 -3.9948e+001  3.0430e+002 21268 111568,111542,111758
 9.0000e-001 111807 -3.4978e+002 -1.9912e+002  2.1900e+002 21268 111568,111758,111412
 9.0000e-001 111959 -3.7682e+002 -4.1845e+001  1.2496e+002 20864 111982,111910,111884
 9.0000e-001 111936 -3.2478e+002 -1.0425e+001  1.8526e+002 20864 112114,111832,111910
 9.0000e-001 112008 -3.5304e+002 -8.1817e+001  1.5692e+002 20864 112114,111910,111982
 9.0000e-001 112140 -3.1625e+002 -9.3652e+001  1.4195e+002 20864 111858,111832,112114
 9.0000e-001 112163 -3.4971e+002 -1.7946e+002  1.1563e+002 20864 111858,112114,111982
 9.0000e-001 112411 -6.1398e+001  4.2410e+001  1.1044e+001 20324 112186,112290,112212
 9.0000e-001 112388 -1.0588e+001  6.2663e+001  9.2046e+000 20324 112186,112316,112290
 9.0000e-001 112365  2.1674e+002 -1.5410e+002 -7.3482e-001 20324 112212,112290,112264
 9.0000e-001 112342 -7.9150e+002 -3.3853e+002 -6.6932e+001 20324 112212,112264,112238
 9.0000e-001 112659 -1.0275e+002 -3.6734e+001  2.1665e+002 19920 112512,112564,112538
 9.0000e-001 112636 -1.9894e+002 -1.1813e+002  1.7828e+002 19920 112434,112564,112512
 9.0000e-001 112613 -2.0648e+002 -1.2751e+002  1.7285e+002 19920 112434,112512,112460
 9.0000e-001 112590 -2.2474e+002 -1.4584e+002  1.8023e+002 19920 112460,112512,112486
 9.0000e-001 112811 -1.4176e+002 -5.8338e+001  1.2469e+002 19630 112684,112736,112710
 9.0000e-001 112788 -1.5729e+001 -1.2906e+002  5.9953e+001 19630 112684,112762,112736
 9.0000e-001 113012 -1.9214e+002 -7.3532e+001  2.3756e+002 19169 112862,112940,112888
 9.0000e-001 112989 -3.6728e+002 -2.7293e+002  1.5588e+002 19169 112836,112940,112862
 9.0000e-001 112966 -2.0159e+002 -2.9129e+002  2.1350e+002 19169 112888,112940,112914
 9.0000e-001 113213 -5.0567e+002 -2.0638e+002  2.5589e+002 18600 113037,113089,113063
 9.0000e-001 113190 -4.1627e+002 -1.9662e+002  2.3706e+002 18600 113037,113115,113089
 9.0000e-001 113167 -5.4864e+002 -3.4465e+002  3.3879e+002 18600 113037,113141,113115
 9.0000e-001 113485 -2.2632e+002 -8.9247e+001  2.2272e+002 18352 113260,113312,113286
 9.0000e-001 113462 -4.4689e+002 -2.7327e+002  3.0260e+002 18352 113260,113390,113312
 9.0000e-001 113439 -4.2019e+002 -1.0273e+002  2.3539e+002 18352 113312,113390,113364
 9.0000e-001 113416 -2.0583e+002 -7.9006e+001  2.4270e+002 18352 113312,113364,113338
 9.0000e-001 113757 -3.2835e+002 -1.3202e+002  2.3566e+002 17834 113558,113610,113584
 9.0000e-001 113734 -4.6271e+002 -2.5386e+002  2.9804e+002 17834 113532,113610,113558
 9.0000e-001 113711 -4.8155e+002 -3.1841e+002  2.4667e+002 17834 113532,113662,113610
 9.0000e-001 113688 -2.4792e+002 -8.8125e+001  3.4042e+002 17834 113610,113662,113636
 9.0000e-001 113958 -3.2127e+002 -1.3244e+002  1.8316e+002 17330 113782,113834,113808
 9.0000e-001 113935 -1.6639e+002 -1.1448e+002  1.3310e+002 17330 113782,113886,113834
 9.0000e-001 113912 -2.0915e+002 -1.0209e+002  8.3452e+001 17330 113834,113886,113860
 9.0000e-001 114110 -4.8139e+002 -1.9122e+002  3.0916e+002 16874 113983,114035,114009
 9.0000e-001 114087 -1.8320e+002 -4.2446e+002  2.5782e+002 16874 113983,114061,114035
 9.0000e-001 114465 -3.7345e+002 -1.5844e+002  1.0151e+002 16270 114240,114292,114266
 9.0000e-001 114442 -3.3788e+002 -1.0720e+002  7.5005e+001 16270 114240,114370,114292
 9.0000e-001 114419 -1.8400e+002 -7.6817e+001  1.1463e+002 16270 114292,114344,114318
 9.0000e-001 114396 -3.6814e+002 -1.6946e+002  6.3251e+001 16270 114292,114370,114344
 9.0000e-001 114566 -1.8683e+001  1.8683e+001  4.1485e+002 15834 114488,114540,114514
 9.0000e-001 114667 -3.0027e+002 -1.2275e+002  1.9479e+002 15155 114589,114641,114615
 9.0000e-001 114890 -2.7050e+002 -1.0697e+002  2.3910e+002 421 114766,114818,114792
 9.0000e-001 114867 -3.8082e+002 -3.1441e+002  1.9675e+002 421 114714,114818,114766
 9.0000e-001 114844 -4.8495e+002 -2.0583e+002  1.1298e+002 421 114714,114766,114740
 1.0000e+000 66553 -3.7435e+002 -1.6430e+002  2.0212e+002 66108 66354,66458,66432
 1.0000e+000 66530 -3.8257e+002 -1.6148e+002  1.3391e+002 66108 66328,66458,66354
 1.0000e+000 66507 -2.0858e+002 -1.5087e+002  1.2832e+002 66108 66354,66432,66406
 1.0000e+000 66484  1.0161e+002  5.2374e+001  2.3927e+002 66108 66354,66406,66380
 1.0000e+000 66951 -2.5382e+002 -1.0681e+002  1.1357e+002 65910 66703,66833,66807
 1.0000e+000 66928 -3.7171e+001 -9.1701e+001  1.6359e+002 65910 66677,66833,66703
 1.0000e+000 66905 -1.3705e+002 -2.2443e+002  1.7568e+002 65910 66729,66781,66755
 1.0000e+000 66882 -4.1406e+002 -1.7308e+002  1.6734e+002 65910 66729,66807,66781
 1.0000e+000 66859 -3.0470e+002 -4.6952e+001  1.2100e+002 65910 66703,66807,66729
 1.0000e+000 67150 -3.6570e+002 -1.5219e+002  1.7235e+002 65712 67026,67078,67052
 1.0000e+000 67127 -4.1195e+002 -5.8388e+001  1.3768e+002 65712 66974,67078,67026
 1.0000e+000 67104 -1.5049e+003 -7.3772e+002  5.2437e+002 65712 66974,67026,67000
 1.0000e+000 67481 -6.3964e+002 -1.2893e+002  2.4605e+002 65422 67282,67360,67334
 1.0000e+000 67458 -2.9465e+002 -1.0563e+002  3.6286e+002 65422 67282,67386,67360
 1.0000e+000 67435 -1.4402e+002  8.8744e+001  1.9890e+002 65422 67282,67334,67308
 1.0000e+000 67412  5.8810e+000 -8.0638e+001  1.6927e+002 65422 67256,67386,67282
 1.0000e+000 68115 -1.7591e+002 -1.5953e+002  9.0892e+001 65018 67795,67925,67873
 1.0000e+000 68092 -2.4606e+002 -1.9056e+002  7.6179e+001 65018 67769,67925,67795
 1.0000e+000 68069 -1.3844e+002 -8.7499e+001  1.0828e+002 65018 67873,67925,67899
 1.0000e+000 68046 -3.0161e+002 -2.7352e+002  1.1118e+002 65018 67769,67951,67925
 1.0000e+000 68023 -2.7171e+002 -2.1924e+002  1.3628e+002 65018 67795,67873,67821
 1.0000e+000 68000 -2.7678e+002 -1.9377e+002  1.0576e+002 65018 67821,67873,67847
 1.0000e+000 67977 -5.6687e+002 -1.9327e+002  2.4992e+002 65018 67743,67951,67769
 1.0000e+000 68363 -1.5996e+002 -3.4601e+002  3.3667e+002 64820 68190,68242,68216
 1.0000e+000 68340 -3.3408e+002 -2.5713e+002  3.5811e+002 64820 68190,68268,68242
 1.0000e+000 68317 -1.8683e+002 -1.8832e+002  3.8517e+002 64820 68164,68268,68190
 1.0000e+000 68294 -6.9809e+002 -2.8746e+002  2.7226e+002 64820 68138,68268,68164
 1.0000e+000 68513 -2.7517e+002 -1.5594e+002  2.0534e+002 64366 68868,68536,68438
 1.0000e+000 68490 -1.5843e+002 -1.1020e+002  1.1607e+002 64366 68536,68412,68386
 1.0000e+000 68562 -4.2097e+002 -2.3168e+002  2.2374e+002 64366 68740,68536,68464
 1.0000e+000 68585 -2.4296e+002 -1.6988e+002  1.5083e+002 64366 68608,68536,68386
 1.0000e+000 68634 -3.3294e+002 -3.5497e+002  1.2301e+002 64366 68464,68536,68608
 1.0000e+000 68766 -2.4664e+002 -1.2776e+002  1.8052e+002 64366 68438,68536,68740
 1.0000e+000 68894 -2.5282e+002 -1.3249e+002  2.1525e+002 64366 68412,68536,68868
 1.0000e+000 69172  2.3700e+001 -2.9916e+002  8.1979e+001 64168 69022,69074,69048
 1.0000e+000 69149 -3.0562e+002 -1.2654e+002  1.6921e+002 64168 68996,69074,69022
 1.0000e+000 69126 -3.8404e+002 -2.9439e+002  9.9800e+001 64168 68996,69100,69074
 1.0000e+000 69371 -3.5836e+002 -1.3065e+002  2.4801e+002 63970 69466,69394,69273
 1.0000e+000 69348 -2.0534e+002 -1.1301e+002  9.2086e+001 63970 69394,69247,69221
 1.0000e+000 69325 -6.3084e+002 -2.6570e+002  1.7198e+002 63970 69195,69299,69221
 1.0000e+000 69420 -4.9997e+002 -2.1568e+002  3.0879e+002 63970 69299,69273,69394
 1.0000e+000 69443 -3.4502e+002 -2.5867e+002  1.7803e+002 63970 69299,69394,69221
 1.0000e+000 69492 -3.8624e+002 -1.7763e+002  2.3643e+002 63970 69247,69394,69466
 1.0000e+000 69904 -3.7989e+001 -7.1782e+001  3.8859e+001 63680 69705,69783,69731
 1.0000e+000 69881 -1.9991e-001 -5.0978e+001  3.0711e+001 63680 69679,69783,69705
 1.0000e+000 69858 -6.9157e+001 -1.2282e+002  5.9411e+001 63680 69679,69809,69783
 1.0000e+000 69835 -5.6379e+001 -4.4241e+001  4.5412e+001 63680 69731,69783,69757
 1.0000e+000 70054 -7.0893e+000 -1.9472e+002  1.2398e+002 63476 70077,69953,69927
 1.0000e+000 70031  5.0726e+001 -8.1861e+001  1.7793e+002 63476 70077,69927,70005
 1.0000e+000 70103 -9.2627e+001 -1.1937e+002  7.6142e+001 63476 69979,69953,70077
 1.0000e+000 70126 -4.6417e+001 -1.7609e+001  1.2149e+002 63476 69979,70077,70005
 1.0000e+000 70325 -6.1906e+002 -2.4925e+002  2.8873e+002 63278 70149,70227,70175
 1.0000e+000 70302 -2.7786e+002 -1.0372e+002  3.1482e+002 63278 70149,70253,70227
 1.0000e+000 70279 -7.8578e+002 -4.2733e+002  1.6729e+002 63278 70175,70227,70201
 1.0000e+000 70597 -2.6837e+002 -4.3562e-001  1.1155e+002 63080 70372,70476,70424
 1.0000e+000 70574 -1.3594e+002 -5.4723e+001  1.5090e+002 63080 70372,70502,70476
 1.0000e+000 70551 -4.0288e+002 -1.6686e+002  1.9248e+002 63080 70424,70476,70450
 1.0000e+000 70528 -5.8609e+002 -1.7855e+002  3.0654e+002 63080 70372,70424,70398
 1.0000e+000 70847 -1.7146e+001 -1.8735e+002  5.5521e+001 62740 70870,70648,70622
 1.0000e+000 70824 -1.3887e+002 -1.5363e+002  1.0912e+002 62740 70870,70622,70752
 1.0000e+000 70801 -5.6545e+001 -3.0433e+002  1.5760e+002 62740 70648,70726,70700
 1.0000e+000 70778 -4.8895e+001 -3.4180e+002  1.4882e+002 62740 70648,70700,70674
 1.0000e+000 70896 -1.3640e+002 -2.3268e+002  4.2253e+001 62740 70726,70648,70870
 1.0000e+000 70919 -1.9614e+002 -1.6246e+002  1.1068e+002 62740 70726,70870,70752
 1.0000e+000 71022 -2.3063e+001  2.3063e+001  4.6080e+002 62520 70944,70996,70970
 1.0000e+000 71223 -4.9790e+002 -2.5892e+002  3.2052e+002 62230 71073,71151,71099
 1.0000e+000 71200 -4.5810e+002 -2.3530e+002  3.3189e+002 62230 71047,71151,71073
 1.0000e+000 71177 -2.8543e+002 -4.2091e+002  2.6490e+002 62230 71099,71151,71125
 1.0000e+000 71861 -2.5099e+002 -3.2327e+002  3.9256e+001 61712 71515,71697,71671
 1.0000e+000 71838 -2.3706e+002 -2.9051e+002  3.7606e+001 61712 71489,71697,71515
 1.0000e+000 71815 -6.9220e+002 -3.5687e+002  1.9886e+002 61712 71884,71541,71515
 1.0000e+000 71792 -4.7814e+002 -2.5215e+002  1.5791e+002 61712 71884,71515,71671
 1.0000e+000 71769 -1.6628e+002 -4.3474e+002  1.5962e+002 61712 71541,71619,71593
 1.0000e+000 71746 -2.0000e+002 -5.4277e+002  6.1214e+001 61712 71619,71671,71645
 1.0000e+000 71723 -5.3474e+002 -6.6475e+002  3.4738e+002 61712 71541,71593,71567
 1.0000e+000 71910 -4.9283e+002 -4.6221e+002  2.8036e+002 61712 71619,71541,71884
 1.0000e+000 71933 -3.4456e+002 -3.9859e+002  2.5823e+002 61712 71619,71884,71671
 1.0000e+000 72230 -1.9727e+002 -6.1536e+001  2.6470e+001 61208 72253,72060,72008
 1.0000e+000 72207 -2.1318e+002 -5.6363e+001  1.2095e+001 61208 72253,72008,71982
 1.0000e+000 72184 -1.6062e+002 -3.8559e+001  2.1397e+001 61208 71982,72112,72086
 1.0000e+000 72161 -2.6512e+002 -4.0540e+001  7.5218e+001 61208 72008,72060,72034
 1.0000e+000 72138 -1.0677e+002 -3.2012e+001  5.1447e+001 61208 71956,72112,71982
 1.0000e+000 72279 -1.7410e+002 -5.9619e+001  2.7706e+001 61208 72086,72060,72253
 1.0000e+000 72302 -1.9492e+002 -5.4325e+001  1.6839e+001 61208 72086,72253,71982
 1.0000e+000 72761 -3.2303e+002 -1.7337e+002  1.5909e+002 60804 72487,72617,72513
 1.0000e+000 72738 -3.4121e+002 -2.6699e+002  1.6351e+002 60804 72487,72643,72617
 1.0000e+000 72715 -1.1949e+002 -1.7481e+002  1.5130e+002 60804 72565,72617,72591
 1.0000e+000 72692 -2.3460e+002 -1.3369e+002  1.5019e+002 60804 72513,72617,72565
 1.0000e+000 72669 -2.7390e+002 -1.8161e+002  2.1988e+002 60804 72513,72565,72539
 1.0000e+000 72911 -2.3063e+001  2.3063e+001  4.6080e+002 60556 72784,72836,72810
 1.0000e+000 72888  3.8385e+002  8.1215e+001  2.7842e+002 60556 72784,72862,72836
 1.0000e+000 73468 -1.7282e+002 -1.9274e+002  1.3597e+002 60244 73491,73226,73200
 1.0000e+000 73445 -2.8877e+002 -3.3902e+002  2.1068e+002 60244 73563,73491,73200
 1.0000e+000 73422 -4.2811e+002 -3.5201e+002  2.3505e+002 60244 73563,73200,73174
 1.0000e+000 73399 -1.8844e+002 -2.4233e+002  1.4048e+002 60244 73226,73278,73252
 1.0000e+000 73376 -3.1517e+002 -1.8095e+002  1.4395e+002 60244 73122,73304,73278
 1.0000e+000 73353 -3.4352e+002 -3.1199e+002  1.5244e+002 60244 73096,73304,73122
 1.0000e+000 73330 -7.0799e+002 -2.5345e+002  3.1428e+002 60244 73122,73174,73148
 1.0000e+000 73517 -3.8612e+002 -2.9851e+002  1.9684e+002 60244 73278,73226,73491
 1.0000e+000 73540 -3.2567e+002 -1.3436e+002  1.7026e+002 60244 73278,73491,73122
 1.0000e+000 73589 -5.5400e+002 -2.6700e+002  2.2826e+002 60244 73122,73491,73563
 1.0000e+000 73612 -6.9907e+002 -2.8786e+002  2.6101e+002 60244 73122,73563,73174
 1.0000e+000 73762 -2.9531e+002 -6.9568e+002  2.7100e+002 59875 73661,73713,73687
 1.0000e+000 73739 -3.9153e+002 -2.6094e+002  2.4887e+002 59875 73635,73713,73661
 1.0000e+000 74191 -9.5391e+001 -2.1171e+002  2.9788e+002 59478 74214,73894,73868
 1.0000e+000 74168 -2.4274e+002 -2.1151e+002  3.2075e+002 59478 74214,73868,74050
 1.0000e+000 74145 -1.0449e+002 -1.5046e+002  1.6748e+002 59478 73894,73946,73920
 1.0000e+000 74122 -2.1061e+002 -1.8075e+002  1.9632e+002 59478 73894,73998,73946
 1.0000e+000 74099 -7.1268e+002 -4.1739e+002  5.0758e+002 59478 73998,74050,74024
 1.0000e+000 74076 -2.8322e+002 -6.2052e+001  1.1379e+002 59478 73946,73998,73972
 1.0000e+000 74240 -2.3249e+002 -1.5988e+002  2.3923e+002 59478 73998,73894,74214
 1.0000e+000 74263 -3.7315e+002 -1.6310e+002  2.3877e+002 59478 73998,74214,74050
 1.0000e+000 74720 -2.9006e+002 -2.8214e+002  1.1220e+002 58774 74472,74602,74498
 1.0000e+000 74697 -3.1401e+002 -2.6233e+002  1.2604e+002 58774 74446,74602,74472
 1.0000e+000 74674 -3.0360e+002 -2.2500e+002  1.1813e+002 58774 74498,74576,74524
 1.0000e+000 74651 -3.0180e+002 -2.5032e+002  9.8180e+001 58774 74498,74602,74576
 1.0000e+000 74628 -3.0201e+002 -3.1922e+002  1.6665e+002 58774 74524,74576,74550
 1.0000e+000 75226 -2.5260e+002 -1.2000e+002  1.2997e+002 58270 74955,75085,75033
 1.0000e+000 75203 -2.1003e+002 -1.9854e+002  1.5153e+002 58270 74929,75085,74955
 1.0000e+000 75180 -3.0164e+002 -1.4369e+002  1.6537e+002 58270 75033,75085,75059
 1.0000e+000 75157 -4.2248e+002 -1.0948e+002  1.1044e+002 58270 74955,75007,74981
 1.0000e+000 75134 -2.0652e+002 -9.7824e+001  8.7068e+001 58270 74955,75033,75007
 1.0000e+000 75111 -8.9028e+001 -2.2635e+002  8.5143e+001 58270 74903,75085,74929
 1.0000e+000 75425 -7.5632e+001 -1.3274e+001  2.6573e+001 57830 75448,75301,75249
 1.0000e+000 75402 -8.5459e+001 -2.7978e+001  3.2651e+001 57830 75448,75249,75353
 1.0000e+000 75379 -4.2893e+001 -4.2361e+001  4.1431e+000 57830 75520,75301,75275
 1.0000e+000 75474 -7.8595e+001 -3.7956e+000  1.7581e+001 57830 75327,75301,75448
 1.0000e+000 75497 -8.4186e+001 -1.1029e+001  2.3275e+001 57830 75327,75448,75353
 1.0000e+000 75546 -4.6938e+001 -1.1035e-001  1.0698e+000 57830 75249,75301,75520
 1.0000e+000 76261 -1.3755e+002 -1.9349e+002  1.3473e+002 57426 76284,76097,76071
 1.0000e+000 76238 -9.4273e+001 -1.4970e+002  1.1139e+002 57426 75889,76097,75915
 1.0000e+000 76215 -1.8789e+002 -1.8389e+002  1.6865e+002 57426 76428,76284,76071
 1.0000e+000 76192 -1.6951e+002 -1.5640e+002  1.1335e+002 57426 76356,75941,75915
 1.0000e+000 76169 -1.8890e+002 -1.7564e+002  1.6715e+002 57426 76428,76071,76019
 1.0000e+000 76146 -1.9534e+002 -2.0221e+002  1.6073e+002 57426 76019,76071,76045
 1.0000e+000 76123 -2.1020e+002 -1.8832e+002  1.9470e+002 57426 75967,76019,75993
 1.0000e+000 76310 -1.2792e+002 -1.6775e+002  1.0220e+002 57426 75915,76097,76284
 1.0000e+000 76333 -1.6632e+002 -1.9140e+002  1.1221e+002 57426 76356,75915,76284
 1.0000e+000 76382 -1.7379e+002 -1.0590e+002  1.4478e+002 57426 75967,75941,76356
 1.0000e+000 76405 -1.7157e+002 -1.3525e+002  1.3819e+002 57426 75967,76356,76284
 1.0000e+000 76454 -1.8364e+002 -1.7646e+002  1.6631e+002 57426 75967,76284,76428
 1.0000e+000 76477 -1.8842e+002 -1.7197e+002  1.6630e+002 57426 75967,76428,76019
 1.0000e+000 76953 -2.4113e+002 -4.2151e+002  2.0791e+002 56908 76976,76711,76685
 1.0000e+000 76930 -2.4617e+002 -4.2937e+002  1.9895e+002 56908 77048,76976,76685
 1.0000e+000 76907 -4.3671e+002 -4.4542e+002  2.8914e+002 56908 77048,76685,76633
 1.0000e+000 76884 -5.8247e+002 -6.8955e+002  3.7667e+002 56908 76711,76789,76763
 1.0000e+000 76861 -3.4355e+002 -2.9951e+002  1.5534e+002 56908 76581,76789,76607
 1.0000e+000 76838 -5.5630e+002 -4.9943e+002  1.9655e+002 56908 76711,76763,76737
 1.0000e+000 76815 -9.0991e+002 -7.5606e+002  5.1256e+002 56908 76633,76685,76659
 1.0000e+000 77002 -2.3519e+002 -4.2962e+002  2.3999e+002 56908 76789,76711,76976
 1.0000e+000 77025 -2.8478e+002 -2.9743e+002  1.3925e+002 56908 76789,76976,76607
 1.0000e+000 77074 -5.3943e+002 -4.3135e+002  1.9474e+002 56908 76607,76976,77048
 1.0000e+000 77097 -6.3847e+002 -3.6592e+002  2.7601e+002 56908 76607,77048,76633
 1.0000e+000 77475 -2.6119e+002 -4.6288e+002  2.3989e+002 56546 77570,77498,77279
 1.0000e+000 77452 -2.3508e+002 -5.6004e+002  2.7391e+002 56546 77498,77227,77357
 1.0000e+000 77429 -2.9268e+002 -4.8801e+002  2.8190e+002 56546 77570,77279,77253
 1.0000e+000 77406 -3.9356e+002 -6.3424e+002  3.0386e+002 56546 77201,77357,77227
 1.0000e+000 77383 -3.9451e+002 -4.6808e+002  1.6961e+002 56546 77279,77331,77305
 1.0000e+000 77524 -2.5470e+002 -3.5384e+002  2.2500e+002 56546 77331,77279,77498
 1.0000e+000 77547 -2.0122e+002 -4.5396e+002  3.1286e+002 56546 77331,77498,77357
 1.0000e+000 77596 -3.0925e+002 -4.8557e+002  2.8484e+002 56546 77227,77498,77570
 1.0000e+000 77619 -3.3991e+002 -5.5218e+002  3.2867e+002 56546 77227,77570,77253
 1.0000e+000 77818 -3.4709e+002 -3.9890e+002  2.3458e+002 56042 77841,77694,77668
 1.0000e+000 77795 -3.0525e+002 -3.6279e+002  1.7106e+002 56042 77841,77668,77746
 1.0000e+000 77772 -3.4234e+002 -5.0693e+002  1.5283e+002 56042 77642,77746,77668
 1.0000e+000 77867 -3.8423e+002 -4.4912e+002  2.7015e+002 56042 77720,77694,77841
 1.0000e+000 77890 -3.3354e+002 -4.0360e+002  2.0527e+002 56042 77720,77841,77746
 1.0000e+000 78349 -1.9179e+002 -9.2946e+001  1.2045e+002 55538 78075,78127,78101
 1.0000e+000 78326 -2.4786e+002 -1.3407e+002  6.0543e+001 55538 78075,78205,78127
 1.0000e+000 78303 -2.0344e+002 -8.8644e+001  4.1229e+001 55538 78075,78231,78205
 1.0000e+000 78280 -1.4228e+002 -1.6999e+002  1.0058e+002 55538 78127,78179,78153
 1.0000e+000 78257 -1.4349e+002 -1.2514e+002  5.6463e+001 55538 78127,78205,78179
 1.0000e+000 78806 -2.0118e+002 -2.3375e+002  7.6516e+001 55034 78829,78636,78610
 1.0000e+000 78783 -2.2663e+002 -2.1282e+002  8.5743e+001 55034 78901,78829,78610
 1.0000e+000 78760 -1.7771e+002 -2.0430e+002  8.7751e+001 55034 78901,78610,78584
 1.0000e+000 78737 -2.4424e+002 -2.2911e+002  9.8432e+001 55034 78558,78688,78662
 1.0000e+000 78714 -2.5220e+002 -2.0786e+002  1.9346e+002 55034 78532,78688,78558
 1.0000e+000 78855 -2.3711e+002 -2.9667e+002  5.3431e+001 55034 78662,78636,78829
 1.0000e+000 78878 -2.3821e+002 -2.2482e+002  1.0066e+002 55034 78662,78829,78558
 1.0000e+000 78927 -1.9531e+002 -2.0065e+002  1.1989e+002 55034 78558,78829,78901
 1.0000e+000 78950 -1.8299e+002 -2.0720e+002  1.2698e+002 55034 78558,78901,78584
 1.0000e+000 79407 -1.7615e+002 -6.9944e+001  1.6773e+002 54430 79430,79237,79159
 1.0000e+000 79384 -2.3131e+002 -1.1391e+002  1.4210e+002 54430 79430,79159,79133
 1.0000e+000 79361 -2.0490e+002 -3.9898e+001  8.0207e+001 54430 79237,79289,79263
 1.0000e+000 79338 -2.2202e+002 -1.3107e+002  1.4041e+002 54430 79185,79237,79211
 1.0000e+000 79315 -3.3744e+002 -1.4267e+002  2.0628e+002 54430 79159,79237,79185
 1.0000e+000 79456 -1.6856e+002 -1.1851e+002  1.2865e+002 54430 79289,79237,79430
 1.0000e+000 79479 -1.9801e+002 -1.5793e+002  1.0949e+002 54430 79289,79430,79133
 1.0000e+000 79936 -1.8636e+002 -7.7956e+001  2.2593e+002 53919 79662,79766,79688
 1.0000e+000 79913 -5.5384e+002 -3.2934e+002  3.6785e+002 53919 79662,79818,79766
 1.0000e+000 79890 -5.8390e+002 -7.5610e+001  1.6985e+002 53919 79766,79818,79792
 1.0000e+000 79867 -3.7246e+002 -1.8894e+002  2.3703e+002 53919 79714,79766,79740
 1.0000e+000 79844 -4.3930e+002 -1.9059e+002  2.5030e+002 53919 79688,79766,79714
 1.0000e+000 80037 -4.8941e+001 -1.7570e+002  1.5603e+002 53671 79959,80011,79985
 1.0000e+000 80405 -7.0760e+001 -4.1051e+001 -1.8159e+001 53267 80108,80264,80238
 1.0000e+000 80382 -3.7822e+001 -7.2184e-001 -1.2244e+000 53267 80082,80264,80108
 1.0000e+000 80359 -4.9648e+001 -1.9623e+002  1.2380e+002 53267 80108,80238,80134
 1.0000e+000 80336 -3.3149e+001 -7.8991e+001  9.5557e+001 53267 80134,80212,80186
 1.0000e+000 80313 -1.5075e+002 -1.8833e+002  1.6585e+002 53267 80134,80238,80212
 1.0000e+000 80290  2.7030e+000 -1.2404e+002  4.1249e+001 53267 80134,80186,80160
 1.0000e+000 80915 -1.3060e+002 -2.0040e+002  9.9050e+001 52969 80644,80774,80748
 1.0000e+000 80892 -1.3542e+002 -5.7709e+001  5.3218e+001 52969 80618,80774,80644
 1.0000e+000 80869 -1.5894e+002 -2.8915e+002  4.6836e+001 52969 80644,80748,80670
 1.0000e+000 80846 -5.6650e+001 -6.8734e+001  1.6835e+001 52969 80592,80774,80618
 1.0000e+000 80823 -2.3847e+002 -2.1050e+002  7.7773e+001 52969 80670,80722,80696
 1.0000e+000 80800 -1.3060e+002 -1.6624e+002  3.9348e+001 52969 80670,80748,80722
 1.0000e+000 81266  3.2051e+001 -1.3012e+002  3.0613e+001 52565 81041,81145,81067
 1.0000e+000 81243 -1.3149e+002 -4.0386e+002  1.0151e+002 52565 81041,81171,81145
 1.0000e+000 81220 -3.4627e+002 -9.1887e+002  1.4344e+002 52565 81067,81119,81093
 1.0000e+000 81197  5.7338e+001  1.0770e+001  4.8943e+001 52565 81067,81145,81119
 1.0000e+000 81723 -1.8383e+002 -1.4494e+002  8.4331e+001 51904 81449,81527,81475
 1.0000e+000 81700 -1.4202e+002 -6.1544e+001  7.0274e+001 51904 81449,81579,81527
 1.0000e+000 81677 -3.3643e+002 -2.8365e+002  1.7541e+002 51904 81449,81605,81579
 1.0000e+000 81654 -1.6573e+002 -5.0383e+001  7.0065e+001 51904 81527,81579,81553
 1.0000e+000 81631 -2.6838e+002 -1.1436e+002  2.8740e+001 51904 81475,81527,81501
 1.0000e+000 82327 -2.9898e+002 -3.3185e+002  2.2846e+002 51321 82422,82350,82036
 1.0000e+000 82304 -3.1051e+002 -2.2135e+002  2.6055e+002 51321 82494,82350,81958
 1.0000e+000 82281 -3.1403e+002 -3.5359e+002  2.0597e+002 51321 82422,82036,82010
 1.0000e+000 82258 -3.2496e+002 -2.2206e+002  2.4933e+002 51321 82494,81958,81932
 1.0000e+000 82235 -3.1657e+002 -1.3274e+002  1.1767e+002 51321 82062,82114,82088
 1.0000e+000 82212 -7.8295e+002 -4.5895e+002  3.3745e+002 51321 81932,82140,82114
 1.0000e+000 82189 -3.3990e+002 -1.3735e+002  2.0118e+002 51321 81958,82010,81984
 1.0000e+000 82166 -3.2540e+002 -2.7864e+002  2.0958e+002 51321 81906,82140,81932
 1.0000e+000 82376 -2.9568e+002 -3.8643e+002  2.2778e+002 51321 82062,82036,82350
 1.0000e+000 82399 -3.0626e+002 -2.9175e+002  2.1741e+002 51321 82062,82350,82114
 1.0000e+000 82448 -2.7266e+002 -3.0597e+002  2.5479e+002 51321 81958,82350,82422
 1.0000e+000 82471 -2.8353e+002 -3.2498e+002  2.3286e+002 51321 81958,82422,82010
 1.0000e+000 82520 -3.2123e+002 -2.3678e+002  2.5180e+002 51321 82114,82350,82494
 1.0000e+000 82543 -3.2479e+002 -2.3576e+002  2.4173e+002 51321 82114,82494,81932
 1.0000e+000 83019 -3.7764e+002 -1.9579e+002  9.6554e+001 50817 82673,82751,82699
 1.0000e+000 82996 -4.2316e+002 -2.2866e+002  1.8168e+002 50817 83042,82673,82855
 1.0000e+000 82973 -4.0525e+002 -2.7457e+002  1.8742e+002 50817 83042,82855,82803
 1.0000e+000 82950 -5.0026e+002 -3.2074e+002  2.4144e+002 50817 82751,82803,82777
 1.0000e+000 82927 -4.4683e+002 -3.1534e+002  9.7884e+001 50817 82647,82855,82673
 1.0000e+000 82904 -4.9067e+002 -3.5748e+002  2.4857e+002 50817 82803,82855,82829
 1.0000e+000 82881 -4.4925e+002 -3.4631e+002  1.1700e+002 50817 82699,82751,82725
 1.0000e+000 83068 -4.4317e+002 -2.6314e+002  2.0300e+002 50817 82751,82673,83042
 1.0000e+000 83091 -4.1004e+002 -2.9923e+002  2.0258e+002 50817 82751,83042,82803
 1.0000e+000 83290 -3.5097e+002 -2.0748e+002  2.3756e+002 50356 83313,83166,83140
 1.0000e+000 83267 -4.1283e+002 -3.6823e+002  1.8586e+002 50356 83515,83313,83140
 1.0000e+000 83244 -4.8215e+002 -3.5528e+002  8.7623e+001 50356 83515,83140,83385
 1.0000e+000 83339 -4.1098e+002 -3.2984e+002  2.5865e+002 50356 83192,83166,83313
 1.0000e+000 83362 -2.8812e+002 -3.3529e+002  2.1825e+002 50356 83192,83313,83218
 1.0000e+000 83411 -1.7281e+002 -1.8937e+002  1.3301e+002 50356 83114,83218,83385
 1.0000e+000 83541 -2.4606e+002 -3.1227e+002  1.7742e+002 50356 83218,83313,83515
 1.0000e+000 83564 -2.6787e+002 -2.6839e+002  9.1644e+001 50356 83218,83515,83385
 1.0000e+000 83893 -1.8052e+002 -1.4055e+002  6.6629e+001 49552 83720,83798,83746
 1.0000e+000 83870 -1.4973e+002 -1.5719e+001  4.9285e+001 49552 83694,83798,83720
 1.0000e+000 83847 -5.5406e+001 -5.8746e+001  3.8286e+001 49552 83668,83798,83694
 1.0000e+000 83824 -1.8820e+002 -6.9071e+001  3.0697e+001 49552 83746,83798,83772
 1.0000e+000 84141 -4.0246e+002 -3.0371e+002  2.1391e+002 49212 84164,84020,83942
 1.0000e+000 84118 -3.9937e+002 -2.8945e+002  2.3373e+002 49212 84164,83942,83916
 1.0000e+000 84095 -2.4923e+002 -3.7280e+002  1.5426e+002 49212 83942,84020,83968
 1.0000e+000 84072 -2.2460e+002 -3.8461e+001  8.2768e+001 49212 83968,84020,83994
 1.0000e+000 84190 -4.2110e+002 -3.0572e+002  2.0496e+002 49212 84046,84020,84164
 1.0000e+000 84213 -4.1242e+002 -2.9495e+002  2.2396e+002 49212 84046,84164,83916
 1.0000e+000 84800 -1.1335e+002 -3.3001e+002  1.5363e+002 48865 84503,84633,84555
 1.0000e+000 84777 -2.6435e+002 -4.9787e+002  9.0354e+001 48865 84503,84659,84633
 1.0000e+000 84754 -2.1903e+002 -6.1727e+002  1.2297e+002 48865 84555,84633,84581
 1.0000e+000 84731 -1.4111e+002 -8.5929e+002  2.2417e+002 48865 84581,84633,84607
 1.0000e+000 84708 -4.7900e+002 -4.2741e+002  1.2267e+002 48865 84503,84555,84529
 1.0000e+000 84685 -2.6460e+002 -4.6597e+002  1.3532e+002 48865 84477,84659,84503
 1.0000e+000 85355 -2.2309e+002 -2.4211e+002  1.1414e+002 48461 85378,85035,85009
 1.0000e+000 85332 -2.4237e+002 -2.4816e+002  1.2311e+002 48461 85378,85009,85165
 1.0000e+000 85309 -1.7789e+002 -2.8807e+002  1.5825e+002 48461 85450,85061,85035
 1.0000e+000 85286 -3.1612e+002 -2.6683e+002  1.0888e+002 48461 85009,85191,85165
 1.0000e+000 85263 -2.2250e+002 -2.2941e+002  1.6966e+002 48461 85087,85165,85113
 1.0000e+000 85240 -1.7133e+002 -3.3812e+002 -3.5333e+000 48461 84983,85191,85009
 1.0000e+000 85217 -1.9355e+002 -2.6975e+002  1.2029e+002 48461 85113,85165,85139
 1.0000e+000 85404 -2.0333e+002 -2.3758e+002  1.3574e+002 48461 85450,85035,85378
 1.0000e+000 85427 -2.7228e+002 -2.6548e+002  1.1606e+002 48461 85087,85378,85165
 1.0000e+000 85476 -2.1004e+002 -3.4258e+002  1.4450e+002 48461 85087,85061,85450
 1.0000e+000 85499 -2.5118e+002 -3.1820e+002  1.1552e+002 48461 85087,85450,85378
 1.0000e+000 86084 -1.4769e+002 -3.0419e+002  1.1616e+002 48057 86323,86107,85787
 1.0000e+000 86061 -1.9939e+002 -3.6661e+002  1.7894e+002 48057 86107,85761,85943
 1.0000e+000 86038 -2.1845e+002 -2.4867e+002  1.2776e+002 48057 86251,86179,85891
 1.0000e+000 86015 -2.1676e+002 -2.0320e+002  8.4755e+001 48057 86251,85891,85839
 1.0000e+000 85992 -2.3636e+002 -2.3858e+002  2.0908e+002 48057 85891,85943,85917
 1.0000e+000 85969 -2.5836e+002 -1.6285e+002  1.1342e+002 48057 85839,85891,85865
 1.0000e+000 86133 -1.4897e+002 -2.8569e+002  9.6555e+001 48057 85813,85787,86107
 1.0000e+000 86156 -1.7913e+002 -2.9891e+002  1.0246e+002 48057 86179,85813,86107
 1.0000e+000 86205 -1.7995e+002 -2.0476e+002  1.4422e+002 48057 85943,85891,86179
 1.0000e+000 86228 -1.3140e+002 -2.3096e+002  1.4081e+002 48057 85943,86179,86107
 1.0000e+000 86277 -1.4430e+002 -2.0062e+002  1.0502e+002 48057 85813,86179,86251
 1.0000e+000 86300 -1.8412e+002 -1.7452e+002  6.9925e+001 48057 85813,86251,85839
 1.0000e+000 86349 -8.6974e+001 -2.6483e+002  1.3307e+002 48057 85761,86107,86323
 1.0000e+000 86855 -1.1579e+002 -2.7412e+002  1.5428e+002 47545 86878,86584,86558
 1.0000e+000 86832 -1.9980e+002 -3.1073e+002  1.3823e+002 47545 86950,86878,86558
 1.0000e+000 86809 -2.2972e+002 -3.0242e+002  1.4078e+002 47545 86950,86558,86532
 1.0000e+000 86786 -1.4864e+002 -2.6922e+002  1.5462e+002 47545 86584,86662,86610
 1.0000e+000 86763 -2.2707e+002 -2.6577e+002  8.7180e+001 47545 86532,86714,86688
 1.0000e+000 86740 -1.8454e+002 -1.3273e+002  1.6141e+002 47545 86610,86662,86636
 1.0000e+000 86904 -1.6015e+002 -3.2442e+002  1.2871e+002 47545 86662,86584,86878
 1.0000e+000 86927 -1.1669e+002 -2.9618e+002  1.1184e+002 47545 86662,86878,86688
 1.0000e+000 86976 -1.5341e+002 -3.0025e+002  1.0263e+002 47545 86688,86878,86950
 1.0000e+000 86999 -2.0391e+002 -3.1476e+002  1.1151e+002 47545 86688,86950,86532
 1.0000e+000 87328 -1.9640e+002 -1.6679e+002  1.0382e+002 47048 87155,87207,87181
 1.0000e+000 87305 -1.7854e+002 -1.2779e+002  1.3356e+002 47048 87129,87207,87155
 1.0000e+000 87282 -2.3072e+002 -1.4059e+002  1.3420e+002 47048 87103,87207,87129
 1.0000e+000 87259 -3.0055e+002 -3.2319e+002  2.0180e+002 47048 87103,87233,87207
 1.0000e+000 87576 -1.1817e+002 -1.5627e+002  1.4869e+002 46701 87599,87429,87377
 1.0000e+000 87553 -1.8379e+002 -7.4907e+001  9.0683e+001 46701 87599,87377,87481
 1.0000e+000 87530 -3.4827e+001 -4.0466e+001  1.9319e+001 46701 87351,87481,87377
 1.0000e+000 87507  6.6225e-001 -7.3803e+001  8.3914e+001 46701 87377,87429,87403
 1.0000e+000 87625 -1.6201e+002 -3.0664e+002  1.5030e+002 46701 87455,87429,87599
 1.0000e+000 87648 -1.7664e+002 -1.6281e+002  7.7433e+001 46701 87455,87599,87481
 1.0000e+000 87798 -9.9738e-001 -6.7213e-002  7.6060e-001 46239 87697,87749,87723
 1.0000e+000 87775  3.2444e+001 -4.1614e+001  5.9352e+001 46239 87671,87749,87697
 1.0000e+000 88308 -4.8500e+002 -4.2607e+002  1.3757e+002 45735 88089,88167,88141
 1.0000e+000 88285 -3.4456e+002 -2.6341e+002  2.1098e+002 45735 88011,88167,88089
 1.0000e+000 88262 -4.4481e+002 -2.9718e+002  2.2109e+002 45735 87985,88167,88011
 1.0000e+000 88239 -5.4908e+002 -8.3981e+002  3.3340e+002 45735 88011,88089,88063
 1.0000e+000 88216 -4.5727e+002 -4.1722e+002  1.2222e+002 45735 88089,88141,88115
 1.0000e+000 88193 -3.9261e+002 -7.6975e+002  5.4405e+002 45735 88011,88063,88037
 1.0000e+000 88686 -3.0955e+002 -2.7162e+002  2.0373e+002 45316 88438,88516,88490
 1.0000e+000 88663 -2.6744e+002 -7.1721e+001  2.5266e+002 45316 88438,88542,88516
 1.0000e+000 88640 -1.7169e+002 -3.8904e+002  3.0296e+002 45316 88438,88568,88542
 1.0000e+000 88617 -5.3175e+002 -4.3313e+002  1.2721e+002 45316 88438,88490,88464
 1.0000e+000 88594 -2.2115e+002 -4.2054e+002  2.8956e+002 45316 88412,88568,88438
 1.0000e+000 88934 -6.1536e+002 -6.3254e+002  3.5250e+002 44812 88957,88735,88709
 1.0000e+000 88911 -3.6879e+002 -4.2932e+002  1.5328e+002 44812 88957,88709,88839
 1.0000e+000 88888 -3.6094e+002 -3.2862e+002  9.7806e+001 44812 89029,88787,88761
 1.0000e+000 88865 -3.3247e+002 -2.9807e+002  1.3692e+002 44812 88787,88839,88813
 1.0000e+000 88983 -1.9635e+002 -4.1253e+002  2.3885e+002 44812 88761,88735,88957
 1.0000e+000 89006 -3.1861e+002 -3.7009e+002  8.5287e+001 44812 89029,88761,88957
 1.0000e+000 89055 -3.4886e+002 -3.7837e+002  1.1496e+002 44812 88839,88787,89029
 1.0000e+000 89078 -3.4733e+002 -4.6393e+002  1.1703e+002 44812 88839,89029,88957
 1.0000e+000 89228 -3.2674e+002 -8.6349e+002  1.0672e+002 44408 89127,89179,89153
 1.0000e+000 89205 -6.7799e+000 -6.2402e+001  7.5031e+000 44408 89101,89179,89127
 1.0000e+000 89787 -3.1088e+002 -2.4436e+002  1.7316e+002 43854 89810,89545,89519
 1.0000e+000 89764 -3.3548e+002 -3.0643e+002  1.8386e+002 43854 89810,89519,89467
 1.0000e+000 89741 -3.3877e+002 -3.9863e+002  1.7411e+002 43854 89954,89882,89597
 1.0000e+000 89718 -3.4513e+002 -4.0194e+002  1.7952e+002 43854 89954,89597,89571
 1.0000e+000 89695 -1.9796e+002 -3.1211e+002  1.6223e+002 43854 89415,89623,89467
 1.0000e+000 89672 -1.7031e+002 -1.7670e+002  1.2650e+002 43854 89467,89519,89493
 1.0000e+000 89649 -1.5433e+002 -2.3824e+002  1.4334e+002 43854 89415,89467,89441
 1.0000e+000 89836 -3.5156e+002 -2.6593e+002  1.8918e+002 43854 89882,89545,89810
 1.0000e+000 89859 -2.0544e+002 -2.9107e+002  1.5074e+002 43854 89623,89810,89467
 1.0000e+000 89908 -3.4358e+002 -4.9563e+002  2.3704e+002 43854 89623,89597,89882
 1.0000e+000 89931 -3.1049e+002 -4.3226e+002  1.9876e+002 43854 89623,89882,89810
 1.0000e+000 89980 -3.6452e+002 -3.9687e+002  2.2474e+002 43854 89545,89882,89954
 1.0000e+000 90003 -3.9342e+002 -4.3958e+002  2.3744e+002 43854 89545,89954,89571
 1.0000e+000 90251 -1.2146e+002 -1.9726e+002  7.4915e+001 43492 90026,90078,90052
 1.0000e+000 90228 -3.4188e+002 -2.8480e+002  1.3947e+002 43492 90274,90026,90156
 1.0000e+000 90205 -3.1417e+002 -3.2359e+002  1.4199e+002 43492 90346,90274,90156
 1.0000e+000 90182 -3.2155e+002 -4.1362e+002  3.0050e+002 43492 90346,90156,90130
 1.0000e+000 90300 -2.3419e+002 -3.4145e+002  1.7512e+002 43492 90078,90026,90274
 1.0000e+000 90323 -3.7453e+002 -3.9560e+002  1.6700e+002 43492 90078,90274,90104
 1.0000e+000 90372 -5.1119e+002 -4.5075e+002  2.3397e+002 43492 90104,90274,90346
 1.0000e+000 90395 -5.2170e+002 -5.5845e+002  3.9580e+002 43492 90104,90346,90130
 1.0000e+000 90594 -8.7369e+001 -2.7343e+002  1.4425e+002 43052 90418,90496,90444
 1.0000e+000 90571 -3.4053e+001 -6.1874e+001  6.7172e+001 43052 90418,90522,90496
 1.0000e+000 90548 -2.4259e+002 -2.2776e+002  1.5763e+002 43052 90444,90496,90470
 1.0000e+000 91074 -6.6047e+002 -4.6202e+002  4.5355e+002 42434 91241,90884,90858
 1.0000e+000 91051 -2.5052e+002 -3.3682e+002 -1.1196e+001 42434 90702,90910,90884
 1.0000e+000 91028 -9.7827e+001 -1.6072e+002  1.5883e+002 42434 91097,90754,90702
 1.0000e+000 91005 -5.1691e+002 -2.5123e+002  3.9109e+002 42434 91241,90858,91097
 1.0000e+000 90982 -2.2233e+002 -2.8379e+002  1.2159e+002 42434 91169,90806,90780
 1.0000e+000 90959 -1.6579e+002 -2.5522e+002  7.7921e+001 42434 90806,90858,90832
 1.0000e+000 90936 -1.4522e+002 -1.5461e+002  1.5133e+002 42434 90702,90754,90728
 1.0000e+000 91123 -4.9328e+002 -3.9821e+002  3.4999e+002 42434 90780,90754,91097
 1.0000e+000 91146 -3.9067e+002 -4.2944e+002  3.4364e+002 42434 91169,90780,91097
 1.0000e+000 91195 -1.5388e+002 -1.6822e+002  7.6652e+001 42434 90858,90806,91169
 1.0000e+000 91218 -1.7170e+002 -3.6984e-001  2.6202e+002 42434 90858,91169,91097
 1.0000e+000 91267 -3.6988e+002 -7.2885e+002  3.1072e+002 42434 90702,90884,91241
 1.0000e+000 91290 -2.5336e+002 -5.5443e+002  2.5964e+002 42434 90702,91241,91097
 1.0000e+000 91698 -7.8275e+001 -3.0606e+002  1.1690e+002 41773 91473,91577,91499
 1.0000e+000 91675 -1.4624e+002 -3.7038e+002  1.6421e+002 41773 91473,91603,91577
 1.0000e+000 91652 -1.7037e+002 -2.3690e+002  4.3022e+001 41773 91499,91551,91525
 1.0000e+000 91629 -2.3818e+002 -2.7721e+002  1.1327e+002 41773 91499,91577,91551
 1.0000e+000 92044 -2.9372e+002 -3.6297e+002  2.1046e+002 41383 91773,91877,91851
 1.0000e+000 92021 -2.3922e+002 -4.4003e+002  1.2300e+002 41383 91747,91877,91773
 1.0000e+000 91998 -2.3662e+002 -2.6019e+002  1.5638e+002 41383 91773,91851,91799
 1.0000e+000 91975 -1.8914e+002 -3.8806e+002  8.9760e+001 41383 91747,91903,91877
 1.0000e+000 91952 -9.2879e+001 -3.4346e+002  1.0199e+002 41383 91721,91903,91747
 1.0000e+000 91929 -5.3645e+001 -2.5453e+002  1.1549e+002 41383 91799,91851,91825
 1.0000e+000 92601 -2.4964e+002 -2.6646e+002  9.2706e+001 40979 92229,92411,92307
 1.0000e+000 92578 -3.1372e+002 -2.9348e+002  1.0141e+002 40979 92229,92437,92411
 1.0000e+000 92555 -2.0556e+002 -1.9273e+002  7.3429e+001 40979 92229,92307,92281
 1.0000e+000 92532 -1.9558e+002 -2.3301e+002  1.2247e+002 40979 92333,92411,92385
 1.0000e+000 92509 -1.9207e+002 -2.1263e+002  1.1586e+002 40979 92307,92411,92333
 1.0000e+000 92486 -2.7045e+002 -3.2883e+002  5.4902e+001 40979 92229,92281,92255
 1.0000e+000 92463 -3.3920e+001 -2.1375e+002  9.6012e+001 40979 92333,92385,92359
 1.0000e+000 93235 -2.9093e+002 -2.0498e+002  2.4510e+002 40525 92941,92993,92967
 1.0000e+000 93212 -3.7673e+002 -7.2043e+001  1.2802e+002 40525 93258,92941,92889
 1.0000e+000 93189 -3.1365e+002 -2.5916e+001  8.8917e+001 40525 93258,92889,93071
 1.0000e+000 93166 -2.7079e+002 -2.1731e+002  1.0423e+002 40525 92889,92941,92915
 1.0000e+000 93143 -1.4304e+002 -9.9537e+001  8.6342e+001 40525 92863,93071,92889
 1.0000e+000 93120 -3.0778e+002 -1.6505e+002  1.3958e+002 40525 92993,93071,93019
 1.0000e+000 93097 -3.3243e+002 -1.9502e+002  1.5155e+002 40525 93019,93071,93045
 1.0000e+000 93284 -4.1922e+002 -1.6264e+002  2.1072e+002 40525 92993,92941,93258
 1.0000e+000 93307 -2.7992e+002 -5.3468e+001  1.5655e+002 40525 92993,93258,93071
 1.0000e+000 93636 -4.1448e+002 -3.7972e+002  3.0396e+002 40235 93437,93541,93515
 1.0000e+000 93613 -3.1480e+002 -4.7852e+002  2.7144e+002 40235 93411,93541,93437
 1.0000e+000 93590 -1.2128e+002 -3.7633e+002  1.2209e+002 40235 93463,93515,93489
 1.0000e+000 93567 -2.1596e+002 -2.8234e+002  9.0862e+001 40235 93437,93515,93463
 1.0000e+000 94014 -4.3773e+002 -5.3863e+002  1.7982e+002 39873 93766,93870,93792
 1.0000e+000 93991 -4.0415e+002 -5.4087e+002  1.7253e+002 39873 93766,93896,93870
 1.0000e+000 93968 -3.5414e+002 -4.1509e+002  2.1613e+002 39873 93792,93870,93844
 1.0000e+000 93945 -2.9293e+002 -3.5796e+002  1.6421e+002 39873 93792,93844,93818
 1.0000e+000 93922 -3.1443e+002 -4.8408e+002  2.8455e+002 39873 93740,93896,93766
 1.0000e+000 94164  9.6218e+000 -8.7346e+001  7.2548e+001 39461 94037,94089,94063
 1.0000e+000 94141 -9.3124e+001 -1.0881e+002  8.7998e+001 39461 94037,94115,94089
 1.0000e+000 94363 -2.1621e+002 -1.9934e+002  1.3552e+002 39057 94386,94239,94213
 1.0000e+000 94340 -1.5689e+002 -1.5550e+002  1.1360e+002 39057 94386,94213,94187
 1.0000e+000 94317 -2.7267e+002 -2.6552e+002  1.5027e+002 39057 94187,94291,94265
 1.0000e+000 94412 -1.1888e+002 -1.7294e+002  1.1931e+002 39057 94458,94386,94265
 1.0000e+000 94435 -1.7606e+002 -1.9742e+002  1.1897e+002 39057 94265,94386,94187
 1.0000e+000 94484 -1.9662e+002 -2.3824e+002  1.5335e+002 39057 94239,94386,94458
 1.0000e+000 94896 -4.3750e+002 -2.9346e+002  1.9016e+002 38396 94919,94775,94723
 1.0000e+000 94873 -4.8101e+002 -2.7307e+002  1.8893e+002 38396 94919,94723,94697
 1.0000e+000 94850 -3.2813e+002 -2.5615e+002  1.3885e+002 38396 94723,94775,94749
 1.0000e+000 94827 -2.0904e+002 -1.7921e+002  1.5203e+002 38396 94671,94801,94697
 1.0000e+000 94945 -4.2009e+002 -2.8062e+002  1.8450e+002 38396 94801,94775,94919
 1.0000e+000 94968 -4.4668e+002 -2.4860e+002  1.7798e+002 38396 94801,94919,94697
 1.0000e+000 95265 -3.7967e+002 -4.2609e+002  1.8338e+002 37835 95017,95069,95043
 1.0000e+000 95242 -3.8262e+002 -3.7198e+002  1.8587e+002 37835 95288,95069,95017
 1.0000e+000 95219 -4.0888e+002 -4.1881e+002  2.5754e+002 37835 95288,95017,94991
 1.0000e+000 95196 -4.7044e+002 -4.6039e+002  2.3930e+002 37835 94991,95147,95121
 1.0000e+000 95173 -2.7897e+002 -2.0546e+002  1.7223e+002 37835 95069,95121,95095
 1.0000e+000 95314 -3.7740e+002 -2.6849e+002  1.4518e+002 37835 95121,95069,95288
 1.0000e+000 95337 -4.0276e+002 -3.3765e+002  2.1148e+002 37835 95121,95288,94991
 1.0000e+000 95558 -4.0389e+001 -1.9679e+002  8.7155e+001 37423 95408,95460,95434
 1.0000e+000 95535 -1.6707e+002 -5.9750e+002  2.4384e+002 37423 95382,95460,95408
 1.0000e+000 95512 -3.0190e+002 -7.0206e+002  2.8924e+002 37423 95382,95486,95460
 1.0000e+000 95891 -2.1400e+002 -5.0079e+002  2.7730e+002 37225 95666,95718,95692
 1.0000e+000 95868 -3.5542e+002 -4.6924e+002  3.2080e+002 37225 95666,95796,95718
 1.0000e+000 95845 -2.0751e+002 -3.8963e+002  1.1364e+002 37225 95718,95770,95744
 1.0000e+000 95822 -2.4447e+002 -3.1375e+002  1.9340e+002 37225 95718,95796,95770
 1.0000e+000 95992 -9.4045e+001 -3.1401e+002  1.0313e+002 36735 95914,95966,95940
 1.0000e+000 96142 -4.4867e+002 -2.7360e+002  2.3279e+002 36331 96297,96067,96041
 1.0000e+000 96119 -3.9507e+002 -2.2921e+002  2.7299e+002 36331 96165,96041,96015
 1.0000e+000 96191 -4.3867e+002 -2.5933e+002  2.5922e+002 36331 96297,96041,96165
 1.0000e+000 96323 -4.6067e+002 -2.3533e+002  2.6802e+002 36331 96093,96067,96297
 1.0000e+000 96346 -4.1504e+002 -2.0415e+002  2.9958e+002 36331 96093,96297,96165
 1.0000e+000 96714 -3.1683e+002 -5.0435e+002  2.7752e+002 36041 96737,96495,96443
 1.0000e+000 96691 -4.2039e+002 -4.0231e+002  2.8534e+002 36041 96737,96443,96417
 1.0000e+000 96668 -2.4205e+002 -5.1462e+002  1.6035e+002 36041 96443,96495,96469
 1.0000e+000 96645 -1.1010e+002 -2.0932e+002  1.7058e+002 36041 96391,96521,96417
 1.0000e+000 96622 -6.0912e+001 -2.0588e+002  1.5276e+002 36041 96391,96547,96521
 1.0000e+000 96599 -4.4920e+001 -1.9703e+002  1.4919e+002 36041 96391,96573,96547
 1.0000e+000 96763 -1.6888e+002 -4.1412e+002  2.3829e+002 36041 96521,96495,96737
 1.0000e+000 96786 -3.6311e+002 -3.8184e+002  2.6775e+002 36041 96521,96737,96417
 1.0000e+000 96936 -2.2031e+002 -1.4384e+002  1.6878e+002 35637 97031,96959,96835
 1.0000e+000 96913 -2.4388e+002 -1.4691e+002  1.7488e+002 35637 97163,96959,96809
 1.0000e+000 96985 -2.4995e+002 -1.4340e+002  1.7429e+002 35637 96861,96835,96959
 1.0000e+000 97008 -2.9014e+002 -1.8091e+002  2.3543e+002 35637 96861,96959,96887
 1.0000e+000 97057 -2.0244e+002 -8.6868e+001  1.2928e+002 35637 96809,96959,97031
 1.0000e+000 97189 -2.0986e+002 -1.3554e+002  1.8269e+002 35637 96887,96959,97163
 1.0000e+000 97597 -1.6555e+002 -2.2096e+002  1.7830e+002 35190 97450,97502,97476
 1.0000e+000 97574 -1.8219e+002 -3.0064e+002  2.3304e+002 35190 97372,97502,97450
 1.0000e+000 97551 -1.8250e+002 -3.3057e+002  2.1840e+002 35190 97372,97450,97398
 1.0000e+000 97528 -1.4082e+002 -2.8939e+002  1.7949e+002 35190 97398,97450,97424
 1.0000e+000 98054 -2.9004e+002 -3.7425e+002  2.4339e+002 34636 97806,97936,97858
 1.0000e+000 98031 -4.1708e+002 -2.7786e+002  2.2366e+002 34636 97780,97936,97806
 1.0000e+000 98008 -4.0101e+002 -3.7350e+002  1.5841e+002 34636 97806,97858,97832
 1.0000e+000 97985 -3.2260e+002 -3.8650e+002  2.7801e+002 34636 97884,97936,97910
 1.0000e+000 97962 -2.1032e+002 -2.5450e+002  2.0216e+002 34636 97858,97936,97884
 1.0000e+000 98530 -2.1640e+002  1.0140e+002  7.6645e+001 34068 98697,98184,98366
 1.0000e+000 98507  5.8784e+000  2.2207e+001 -8.1224e+000 34068 98158,98366,98184
 1.0000e+000 98484 -2.8561e+002 -2.5207e+002  1.2940e+002 34068 98553,98262,98236
 1.0000e+000 98461 -3.3246e+002 -2.8866e+002  1.1024e+002 34068 98553,98236,98210
 1.0000e+000 98438 -2.7641e+002 -1.1668e+002  1.3032e+002 34068 98841,98625,98366
 1.0000e+000 98415 -2.7230e+002 -4.0284e+002  1.9752e+002 34068 98769,98288,98262
 1.0000e+000 98392 -3.7779e+002 -4.3810e+001  1.2506e+002 34068 98841,98366,98340
 1.0000e+000 98579 -3.2175e+002 -3.0753e+002  1.5138e+002 34068 98769,98262,98553
 1.0000e+000 98602 -2.6293e+002 -1.4818e+002  1.3089e+002 34068 98625,98314,98553
 1.0000e+000 98651 -2.5412e+002 -9.6414e+001  1.0409e+002 34068 98697,98366,98625
 1.0000e+000 98674 -3.1783e+002 -2.7759e+002  1.2887e+002 34068 98210,98625,98553
 1.0000e+000 98723 -3.0989e+002 -1.3791e+002  1.1468e+002 34068 98210,98184,98697
 1.0000e+000 98746 -2.7353e+002 -1.8360e+002  1.5750e+002 34068 98210,98697,98625
 1.0000e+000 98795 -1.7161e+002 -3.0415e+002  1.3743e+002 34068 98314,98288,98769
 1.0000e+000 98818 -2.3972e+002 -2.3649e+002  9.4025e+001 34068 98314,98769,98553
 1.0000e+000 98867 -3.7383e+002 -1.8714e+002  9.6820e+001 34068 98314,98625,98841
 1.0000e+000 98890 -4.7436e+002 -1.0725e+002  9.5594e+001 34068 98314,98841,98340
 1.0000e+000 99268 -4.1124e+002 -4.0063e+002  2.7981e+002 33450 99291,99098,99072
 1.0000e+000 99245 -4.6498e+002 -3.1702e+002  1.6021e+002 33450 99291,99072,99020
 1.0000e+000 99222 -6.8611e+002 -3.7833e+002  2.5088e+002 33450 99020,99072,99046
 1.0000e+000 99199 -3.5552e+002 -2.9893e+002  1.5071e+002 33450 99020,99150,99124
 1.0000e+000 99176 -3.6867e+002 -2.6808e+002  4.5898e+001 33450 98994,99150,99020
 1.0000e+000 99317 -2.0994e+002 -3.1789e+002  2.7295e+002 33450 99124,99098,99291
 1.0000e+000 99340 -3.9521e+002 -3.0192e+002  1.6824e+002 33450 99124,99291,99020
 1.0000e+000 99865 -3.1072e+002 -2.9174e+002  1.8169e+002 32944 100176,99960,99888
 1.0000e+000 99842 -3.5140e+002 -2.8539e+002  1.8544e+002 32944 100104,99888,99522
 1.0000e+000 99819 -2.8483e+002 -2.7009e+002  2.0733e+002 32944 100248,99960,99626
 1.0000e+000 99796 -3.2128e+002 -3.3607e+002  1.3451e+002 32944 100032,99652,99626
 1.0000e+000 99773 -3.0469e+002 -2.8685e+002  1.4465e+002 32944 100104,99522,99496
 1.0000e+000 99750 -2.1236e+002 -2.2988e+002  3.7582e+001 32944 99574,99626,99600
 1.0000e+000 99727 -2.2333e+002 -2.7680e+002  2.2826e+002 32944 100248,99626,99574
 1.0000e+000 99704 -2.2530e+002 -2.6108e+002  1.4816e+002 32944 99444,99496,99470
 1.0000e+000 99914 -3.2962e+002 -2.8059e+002  1.4962e+002 32944 100176,99888,100032
 1.0000e+000 99937 -3.5012e+002 -2.5694e+002  1.8032e+002 32944 99678,99888,99444
 1.0000e+000 99986 -3.4381e+002 -2.5072e+002  1.8137e+002 32944 99522,99888,99960
 1.0000e+000 100009 -3.4564e+002 -2.1370e+002  2.0787e+002 32944 99522,99960,99548
 1.0000e+000 100058 -3.4451e+002 -3.7064e+002  1.1897e+002 32944 99678,99652,100032
 1.0000e+000 100081 -3.7904e+002 -3.2869e+002  1.1988e+002 32944 99678,100032,99888
 1.0000e+000 100130 -2.6747e+002 -2.6623e+002  1.7675e+002 32944 99444,99888,100104
 1.0000e+000 100153 -2.3962e+002 -2.8701e+002  1.4170e+002 32944 99444,100104,99496
 1.0000e+000 100202 -3.4196e+002 -3.4293e+002  1.6457e+002 32944 99626,99960,100176
 1.0000e+000 100225 -3.5446e+002 -3.4153e+002  1.3471e+002 32944 99626,100176,100032
 1.0000e+000 100274 -3.7150e+002 -2.7501e+002  1.9601e+002 32944 99548,99960,100248
 1.0000e+000 100297 -3.1636e+002 -2.8652e+002  2.1687e+002 32944 99548,100248,99574
 1.0000e+000 100754 -1.8330e+002 -1.8512e+002  8.6205e+001 32369 100777,100584,100506
 1.0000e+000 100731 -1.6082e+002 -2.6183e+002  1.7143e+002 32369 100777,100506,100636
 1.0000e+000 100708 -3.0130e+002 -2.6285e+002  1.8827e+002 32369 100480,100636,100506
 1.0000e+000 100685 -3.5861e+002 -2.5098e+002  5.2455e+001 32369 100532,100584,100558
 1.0000e+000 100662 -1.9651e+002 -2.2048e+002  8.7527e+001 32369 100506,100584,100532
 1.0000e+000 100803 -1.8093e+002 -5.8862e+001  8.4249e+001 32369 100610,100584,100777
 1.0000e+000 100826 -1.5548e+002 -1.4768e+002  1.5704e+002 32369 100610,100777,100636
 1.0000e+000 101025 -2.8469e+002 -2.4631e+002  2.3453e+002 31857 100875,100927,100901
 1.0000e+000 101002 -5.1397e+002 -2.3113e+002  2.1749e+002 31857 100875,100953,100927
 1.0000e+000 100979 -5.4526e+002 -2.7414e+002  1.7648e+002 31857 100849,100953,100875
 1.0000e+000 101533 -2.3487e+002 -2.8704e+002  2.1499e+002 31253 101556,101314,101236
 1.0000e+000 101510 -3.3365e+002 -3.3052e+002  2.2894e+002 31253 101556,101236,101210
 1.0000e+000 101487 -3.1844e+002 -2.9604e+002  1.0308e+002 31253 101210,101392,101340
 1.0000e+000 101464 -1.7122e+002 -2.7864e+002  1.7460e+002 31253 101236,101288,101262
 1.0000e+000 101441 -2.0177e+002 -3.6812e+002  1.8718e+002 31253 101236,101314,101288
 1.0000e+000 101418 -2.9983e+002 -3.0602e+002  1.6322e+002 31253 101340,101392,101366
 1.0000e+000 101582 -2.6089e+002 -2.3657e+002  1.2216e+002 31253 101340,101314,101556
 1.0000e+000 101605 -3.6325e+002 -2.8185e+002  1.3990e+002 31253 101340,101556,101210
 1.0000e+000 101755  6.8320e+001  9.2257e+001  1.3964e+002 30519 101778,101654,101628
 1.0000e+000 101732 -9.8984e+001  1.9499e+002  2.0109e+001 30519 101850,101778,101628
 1.0000e+000 101804 -8.2014e+001 -1.6006e+002  7.1062e+001 30519 101680,101654,101778
 1.0000e+000 101827 -1.3174e+002  6.6365e+001  3.8970e+001 30519 101680,101778,101706
 1.0000e+000 101876 -1.8517e+002 -5.7022e+000  1.3528e+001 30519 101706,101778,101850
 1.0000e+000 102561 -2.4006e+002 -3.3947e+002  1.5947e+002 29951 102656,102584,102270
 1.0000e+000 102538 -4.9990e+002 -6.2640e+002  1.4076e+002 29951 102584,102140,102374
 1.0000e+000 102515 -3.4050e+002 -6.1629e+002  2.8628e+002 29951 102728,102656,102270
 1.0000e+000 102492 -3.3679e+002 -7.2451e+002  2.7754e+002 29951 102728,102270,102244
 1.0000e+000 102469 -4.1106e+002 -1.0199e+002  1.9051e+002 29951 102800,102322,102296
 1.0000e+000 102446 -4.5990e+002 -3.6692e+002  9.3256e+001 29951 102166,102218,102192
 1.0000e+000 102423 -3.6221e+002 -3.6692e+002  6.9668e+001 29951 102166,102244,102218
 1.0000e+000 102400 -2.4699e+002 -2.7862e+002  1.6780e+002 29951 102322,102374,102348
 1.0000e+000 102610 -5.0061e+002 -2.6722e+002  1.0247e+002 29951 102296,102270,102584
 1.0000e+000 102633 -5.3046e+002 -2.7743e+002  1.3525e+002 29951 102800,102296,102584
 1.0000e+000 102682 -5.4271e+002 -5.4469e+002  2.7496e+002 29951 102140,102584,102656
 1.0000e+000 102705 -3.8768e+002 -5.7101e+002  3.6478e+002 29951 102140,102656,102166
 1.0000e+000 102754 -3.2813e+002 -4.8794e+002  3.3420e+002 29951 102166,102656,102728
 1.0000e+000 102777 -3.3505e+002 -5.8439e+002  3.0269e+002 29951 102166,102728,102244
 1.0000e+000 102826 -2.9990e+002 -2.9831e+002  2.7591e+002 29951 102374,102322,102800
 1.0000e+000 102849 -3.4352e+002 -3.4863e+002  2.5212e+002 29951 102374,102800,102584
 1.0000e+000 103048 -5.2235e+001 -2.0988e+002  1.1135e+002 29454 102872,102924,102898
 1.0000e+000 103025 -1.1980e+002 -2.3294e+002  1.2973e+002 29454 102872,102976,102924
 1.0000e+000 103002 -1.1074e+002 -4.0974e+002  1.9477e+002 29454 102924,102976,102950
 1.0000e+000 103296 -4.5943e+002 -3.3308e+002  2.5371e+002 29064 103319,103175,103123
 1.0000e+000 103273 -5.8163e+002 -3.3825e+002  2.8325e+002 29064 103319,103123,103071
 1.0000e+000 103250 -2.7793e+002 -1.9993e+002  1.8534e+002 29064 103123,103175,103149
 1.0000e+000 103227 -4.5683e+002 -2.7366e+002  3.3500e+002 29064 103071,103123,103097
 1.0000e+000 103345 -3.4359e+002 -3.5999e+002  1.9574e+002 29064 103201,103175,103319
 1.0000e+000 103368 -5.0272e+002 -3.5042e+002  1.8084e+002 29064 103201,103319,103071
 1.0000e+000 104006 -3.9426e+002 -2.1061e+002  1.5763e+002 28603 104101,104029,103712
 1.0000e+000 103983 -3.7438e+002 -1.4889e+002  1.3995e+002 28603 104173,104029,103660
 1.0000e+000 103960 -4.7897e+002 -1.7252e+002  1.5186e+002 28603 104101,103712,103686
 1.0000e+000 103937 -3.2190e+002 -2.1544e+002  1.2247e+002 28603 104173,103660,103634
 1.0000e+000 103914 -3.7189e+002 -2.4881e+002  1.9802e+002 28603 103764,103816,103790
 1.0000e+000 103891 -3.1445e+002 -2.3783e+002  2.1619e+002 28603 103634,103842,103816
 1.0000e+000 103868 -2.7951e+002 -1.2170e+002  1.8581e+002 28603 103712,103764,103738
 1.0000e+000 104055 -3.6743e+002 -1.5956e+002  1.4780e+002 28603 103764,103712,104029
 1.0000e+000 104078 -3.6705e+002 -1.8489e+002  2.0090e+002 28603 103764,104029,103816
 1.0000e+000 104127 -5.0922e+002 -2.0220e+002  1.2551e+002 28603 103660,104029,104101
 1.0000e+000 104150 -6.4087e+002 -1.9459e+002  1.4343e+002 28603 103660,104101,103686
 1.0000e+000 104199 -4.1722e+002 -2.1438e+002  1.5932e+002 28603 103816,104029,104173
 1.0000e+000 104222 -3.5678e+002 -2.6338e+002  1.4090e+002 28603 103816,104173,103634
 1.0000e+000 104600 -1.7396e+002 -3.4255e+002  8.0065e+001 28348 104623,104378,104326
 1.0000e+000 104577 -1.3687e+002 -3.6335e+002  1.4318e+002 28348 104623,104326,104482
 1.0000e+000 104554 -1.7100e+002 -2.3718e+002  7.1991e+001 28348 104326,104378,104352
 1.0000e+000 104531 -1.6398e+002  1.9202e+001  9.7715e+000 28348 104404,104456,104430
 1.0000e+000 104508 -2.1209e+002 -1.5722e+002  1.3188e+002 28348 104378,104456,104404
 1.0000e+000 104649 -1.4352e+002 -2.8542e+002  1.0360e+002 28348 104456,104378,104623
 1.0000e+000 104672 -9.5746e+001 -2.9532e+002  1.6869e+002 28348 104456,104623,104482
 1.0000e+000 104991 -3.9615e+002 -4.1776e+002  2.9426e+002 27951 104717,104847,104769
 1.0000e+000 104968 -1.2355e+002 -2.9391e+002  2.6474e+002 27951 104717,104873,104847
 1.0000e+000 104945 -1.4793e+002 -3.5922e+002  3.1009e+002 27951 104769,104847,104795
 1.0000e+000 104922 -2.6682e-001  1.0375e+001  2.9426e+002 27951 104795,104847,104821
 1.0000e+000 104899 -3.4060e+002 -2.7516e+002  2.9535e+002 27951 104717,104769,104743
 1.0000e+000 105371 -3.0187e+002 -1.5599e+002  1.9788e+002 27447 105394,105201,105123
 1.0000e+000 105348 -3.2769e+002 -1.6310e+002  2.0190e+002 27447 105394,105123,105097
 1.0000e+000 105325 -5.4635e+002 -2.0666e+002  2.1197e+002 27447 105123,105201,105149
 1.0000e+000 105302 -3.2236e+002 -2.6323e+002  1.7916e+002 27447 105201,105253,105227
 1.0000e+000 105279 -2.6163e+002 -3.9651e+002  2.4045e+001 27447 105149,105201,105175
 1.0000e+000 105420 -2.8293e+002 -1.6180e+002  1.8249e+002 27447 105253,105201,105394
 1.0000e+000 105443 -3.1182e+002 -1.6863e+002  1.8436e+002 27447 105253,105394,105097
 1.0000e+000 105998 -3.3862e+002 -2.6980e+002  2.6123e+002 27100 106165,106021,105704
 1.0000e+000 105975 -1.8588e+002 -1.5625e+002  2.3079e+002 27100 106309,106021,105652
 1.0000e+000 105952 -6.3022e+002 -4.5868e+002  4.3842e+002 27100 106093,105808,105782
 1.0000e+000 105929 -3.4161e+002 -2.7515e+002  2.6241e+002 27100 106165,105704,105678
 1.0000e+000 105906 -2.0225e+002 -2.9390e+002  2.0202e+002 27100 106237,105730,105704
 1.0000e+000 105883 -1.7656e+002 -2.6749e+002  1.5860e+002 27100 106309,105652,105626
 1.0000e+000 105860 -1.5550e+002 -2.5602e+000  5.5436e+001 27100 105730,105782,105756
 1.0000e+000 106047 -3.0829e+002 -1.7830e+002  2.5775e+002 27100 106237,105704,106021
 1.0000e+000 106070 -3.6673e+002 -2.2140e+002  3.2993e+002 27100 106093,105782,106021
 1.0000e+000 106119 -2.6405e+002 -3.6674e+002  2.2483e+002 27100 105834,105808,106093
 1.0000e+000 106142 -2.8756e+002 -4.6244e+002  2.9054e+002 27100 106381,106093,106021
 1.0000e+000 106191 -3.4439e+002 -2.5538e+002  2.7409e+002 27100 105652,106021,106165
 1.0000e+000 106214 -3.5715e+002 -2.7831e+002  2.7920e+002 27100 105652,106165,105678
 1.0000e+000 106263 -1.0406e+002 -1.7406e+002  1.5876e+002 27100 105782,105730,106237
 1.0000e+000 106286 -2.3274e+002 -8.9803e+001  2.2381e+002 27100 105782,106237,106021
 1.0000e+000 106335 -2.5164e+002 -3.1481e+002  2.4437e+002 27100 106381,106021,106309
 1.0000e+000 106358 -1.8196e+002 -2.5220e+002  1.5511e+002 27100 105834,106309,105626
 1.0000e+000 106407 -2.0900e+002 -2.9138e+002  1.9216e+002 27100 105834,106093,106381
 1.0000e+000 106430 -2.1460e+002 -2.6123e+002  1.3974e+002 27100 105834,106381,106309
 1.0000e+000 106629 -5.1695e+001 -3.0466e+002  7.3366e+001 26688 106479,106557,106531
 1.0000e+000 106606 -5.3928e+000 -1.0221e+002  1.0591e+002 26688 106453,106557,106479
 1.0000e+000 106583 -1.4392e+002 -3.3246e+002  4.1246e+001 26688 106479,106531,106505
 1.0000e+000 107088 -1.4605e+002 -1.6464e+002  8.6917e+001 26248 107111,106918,106866
 1.0000e+000 107065 -1.6966e+002 -1.4744e+002  1.1102e+002 26248 107111,106866,106840
 1.0000e+000 107042 -1.8473e+002 -1.4338e+002  1.0232e+002 26248 106814,106970,106840
 1.0000e+000 107019 -1.3753e+002 -2.3929e+002  1.1444e+002 26248 106866,106918,106892
 1.0000e+000 106996 -2.9854e+002 -2.4291e+002  9.1716e+001 26248 106918,106970,106944
 1.0000e+000 107137 -1.8698e+002 -1.9273e+002  7.0833e+001 26248 106970,106918,107111
 1.0000e+000 107160 -1.8614e+002 -1.5693e+002  9.9124e+001 26248 106970,107111,106840
 1.0000e+000 107666 -4.6585e+002 -2.1250e+002  1.3199e+002 25908 107369,107499,107395
 1.0000e+000 107643 -6.1975e+002 -5.9686e+002  2.7850e+002 25908 107369,107525,107499
 1.0000e+000 107620 -3.8828e+002 -2.5565e+002  2.1096e+002 25908 107395,107473,107447
 1.0000e+000 107597 -3.3939e+002 -1.5083e+002  1.6386e+002 25908 107395,107499,107473
 1.0000e+000 107574 -6.3135e+002 -3.1474e+002  4.4411e+002 25908 107395,107447,107421
 1.0000e+000 107551 -2.8942e+002 -4.5694e+002  2.8795e+002 25908 107343,107525,107369
 1.0000e+000 108251 -3.7611e+002 -1.1954e+002  2.0564e+002 25454 108274,108006,107954
 1.0000e+000 108228 -2.9881e+002 -6.6356e+001  1.7402e+002 25454 108274,107954,108110
 1.0000e+000 108205 -2.6626e+002 -2.7923e+002  2.4426e+002 25454 108346,108032,108006
 1.0000e+000 108182 -4.6599e+002 -1.9271e+002  2.6043e+002 25454 107954,108006,107980
 1.0000e+000 108159 -1.6619e+002 -1.8383e+002  1.5329e+002 25454 107928,108110,107954
 1.0000e+000 108136 -5.0632e+002 -4.9256e+002  2.9378e+002 25454 108058,108110,108084
 1.0000e+000 108300 -3.5479e+002 -1.9157e+002  2.4838e+002 25454 108346,108006,108274
 1.0000e+000 108323 -3.1163e+002 -1.1425e+002  1.9789e+002 25454 108058,108274,108110
 1.0000e+000 108372 -1.5150e+002 -1.8186e+002  2.0251e+002 25454 108058,108032,108346
 1.0000e+000 108395 -2.5138e+002 -8.6729e+001  2.0429e+002 25454 108058,108346,108274
 1.0000e+000 108822 -2.7187e+002 -1.3409e+002  1.5553e+002 24943 108525,108681,108655
 1.0000e+000 108799 -3.4932e+002 -1.8833e+002  8.3089e+001 24943 108499,108681,108525
 1.0000e+000 108776 -1.3157e+002 -8.1000e+001  1.0083e+002 24943 108525,108655,108629
 1.0000e+000 108753 -2.9375e+002 -9.6266e+001  1.0799e+002 24943 108525,108629,108603
 1.0000e+000 108730 -3.3860e+002 -1.4471e+002  1.6193e+002 24943 108551,108603,108577
 1.0000e+000 108707 -4.3918e+002 -2.3813e+002  2.0579e+002 24943 108525,108603,108551
 1.0000e+000 109407  4.3492e+001 -6.1198e+001  5.6482e+001 24745 109162,109214,109188
 1.0000e+000 109384 -1.5088e+002 -7.7756e+001  7.0133e+001 24745 109162,109266,109214
 1.0000e+000 109361 -1.8101e+002 -6.1383e+001  3.0453e+001 24745 109084,109266,109162
 1.0000e+000 109338 -2.5225e+002 -3.5885e+001  5.9108e+001 24745 109084,109162,109136
 1.0000e+000 109315 -3.3627e+001 -1.1933e+002  7.0927e+001 24745 109214,109266,109240
 1.0000e+000 109292 -1.7730e+002 -5.7874e+001  1.0186e+002 24745 109084,109136,109110
 1.0000e+000 109785 -5.4077e+002 -2.7356e+002  3.1071e+002 24341 109537,109615,109563
 1.0000e+000 109762 -7.3792e+001 -1.6446e+002  2.9030e+002 24341 109537,109641,109615
 1.0000e+000 109739 -3.5802e+002 -2.7652e+002  2.3744e+002 24341 109563,109615,109589
 1.0000e+000 109716 -2.4428e+002 -2.6552e+002  1.9708e+002 24341 109537,109667,109641
 1.0000e+000 109693 -1.2154e+002 -2.8844e+002  1.8537e+002 24341 109511,109667,109537
 1.0000e+000 110163 -4.7181e+002 -2.5945e+002  3.2548e+002 23837 110186,109967,109915
 1.0000e+000 110140 -4.7204e+002 -2.5974e+002  3.2571e+002 23837 110186,109915,109889
 1.0000e+000 110117 -2.0105e+002 -9.9948e+001  2.3810e+002 23837 109889,110045,109993
 1.0000e+000 110094 -4.4386e+002 -4.5314e+002  2.2495e+002 23837 109915,109967,109941
 1.0000e+000 110071 -2.6910e+002 -9.1537e+000  4.7781e+001 23837 109993,110045,110019
 1.0000e+000 110212 -4.7187e+002 -2.5927e+002  3.2539e+002 23837 109993,109967,110186
 1.0000e+000 110235 -4.7186e+002 -2.5939e+002  3.2557e+002 23837 109993,110186,109889
 1.0000e+000 110336 -3.0068e+002 -6.7966e+002  3.3050e+002 23433 110258,110310,110284
 1.0000e+000 110584 -4.1231e+002 -2.6442e+002  1.8317e+002 22829 110607,110411,110385
 1.0000e+000 110561 -4.7018e+002 -2.9132e+002  2.0690e+002 22829 110607,110385,110489
 1.0000e+000 110538 -3.9193e+002 -2.6707e+002  1.4990e+002 22829 110437,110489,110463
 1.0000e+000 110515 -3.4351e+002 -1.6305e+002  2.6028e+002 22829 110359,110489,110385
 1.0000e+000 110633 -4.1802e+002 -2.4215e+002  1.4140e+002 22829 110437,110411,110607
 1.0000e+000 110656 -4.5001e+002 -2.6512e+002  1.6417e+002 22829 110437,110607,110489
 1.0000e+000 110906 -7.3467e+002 -3.0818e+002  2.0480e+002 22432 110707,110759,110733
 1.0000e+000 110883 -4.8946e+002 -3.3190e+002  1.6798e+002 22432 110707,110785,110759
 1.0000e+000 110860 -4.7421e+002 -2.9394e+002  2.6492e+002 22432 110707,110811,110785
 1.0000e+000 110837 -5.7620e+002 -4.0940e+002  2.1555e+002 22432 110681,110811,110707
 1.0000e+000 111288 -7.6105e+000 -1.3892e+002  1.2577e+002 22142 111092,111144,111118
 1.0000e+000 111265 -2.0874e+002 -1.5990e+002  1.0884e+002 22142 111066,111144,111092
 1.0000e+000 111242 -1.9509e+002 -1.2247e+002  1.1503e+002 22142 111040,111144,111066
 1.0000e+000 111219 -3.3787e+002 -5.8146e+001  8.5647e+001 22142 111014,111144,111040
 1.0000e+000 111196 -1.9895e+002  2.0218e+000  7.5547e+001 22142 111014,111170,111144
 1.0000e+000 111389 -8.1597e+000 -6.9117e+001  1.7406e+002 21830 111311,111363,111337
 1.0000e+000 111735 -3.9060e+002  2.4824e+001  3.3768e+002 21268 111758,111542,111438
 1.0000e+000 111712 -2.7810e+002  5.3013e+001  2.0632e+002 21268 111758,111438,111412
 1.0000e+000 111689 -1.2676e+002 -2.3410e+002  4.2007e+002 21268 111438,111542,111464
 1.0000e+000 111666  1.1441e+002 -1.1248e+002  5.3654e+002 21268 111464,111542,111490
 1.0000e+000 111643 -6.8441e+002 -3.8234e+002  3.5917e+002 21268 111412,111594,111568
 1.0000e+000 111620  4.6340e+002  2.7242e+002  6.9581e+002 21268 111490,111542,111516
 1.0000e+000 111784 -4.1148e+002 -5.2370e+001  3.3622e+002 21268 111568,111542,111758
 1.0000e+000 111807 -3.9819e+002 -2.1682e+002  2.4733e+002 21268 111568,111758,111412
 1.0000e+000 111959 -4.0900e+002 -6.1284e+001  1.6453e+002 20864 111982,111910,111884
 1.0000e+000 111936 -3.5365e+002 -6.4664e+001  2.3429e+002 20864 112114,111832,111910
 1.0000e+000 112008 -3.9556e+002 -1.4816e+002  2.0103e+002 20864 112114,111910,111982
 1.0000e+000 112140 -3.3894e+002 -1.6428e+002  1.7872e+002 20864 111858,111832,112114
 1.0000e+000 112163 -3.8591e+002 -2.6355e+002  1.4732e+002 20864 111858,112114,111982
 1.0000e+000 112411 -3.2196e+001 -7.4916e+000  1.1803e+001 20324 112186,112290,112212
 1.0000e+000 112388  7.6123e-001 -3.0517e+000  2.1368e+001 20324 112186,112316,112290
 1.0000e+000 112365  2.1588e+002 -1.3477e+002  1.1704e+001 20324 112212,112290,112264
 1.0000e+000 112342 -6.3614e+002 -2.7213e+002 -5.7514e+001 20324 112212,112264,112238
 1.0000e+000 112659 -1.1458e+002 -4.0942e+001  2.2906e+002 19920 112512,112564,112538
 1.0000e+000 112636 -2.2353e+002 -1.4490e+002  1.8459e+002 19920 112434,112564,112512
 1.0000e+000 112613 -2.4375e+002 -1.6367e+002  1.6663e+002 19920 112434,112512,112460
 1.0000e+000 112590 -2.7727e+002 -1.7484e+002  1.7711e+002 19920 112460,112512,112486
 1.0000e+000 112811 -1.5175e+002 -6.2152e+001  1.3615e+002 19630 112684,112736,112710
 1.0000e+000 112788 -5.7119e+000 -1.3624e+002  6.2060e+001 19630 112684,112762,112736
 1.0000e+000 113012 -2.0796e+002 -7.8913e+001  2.5565e+002 19169 112862,112940,112888
 1.0000e+000 112989 -4.0890e+002 -3.1808e+002  1.6270e+002 19169 112836,112940,112862
 1.0000e+000 112966 -2.2133e+002 -3.1601e+002  2.3206e+002 19169 112888,112940,112914
 1.0000e+000 113213 -5.5601e+002 -2.2578e+002  2.8113e+002 18600 113037,113089,113063
 1.0000e+000 113190 -4.3329e+002 -1.9853e+002  2.5264e+002 18600 113037,113115,113089
 1.0000e+000 113167 -6.1372e+002 -3.8212e+002  3.7502e+002 18600 113037,113141,113115
 1.0000e+000 113485 -2.5517e+002 -9.9601e+001  2.4981e+002 18352 113260,113312,113286
 1.0000e+000 113462 -5.0610e+002 -3.0513e+002  3.3917e+002 18352 113260,113390,113312
 1.0000e+000 113439 -4.7646e+002 -1.1587e+002  2.6275e+002 18352 113312,113390,113364
 1.0000e+000 113416 -2.3901e+002 -9.0945e+001  2.7097e+002 18352 113312,113364,113338
 1.0000e+000 113757 -3.6805e+002 -1.4686e+002  2.6332e+002 17834 113558,113610,113584
 1.0000e+000 113734 -5.1702e+002 -2.7973e+002  3.3127e+002 17834 113532,113610,113558
 1.0000e+000 113711 -5.3712e+002 -3.5136e+002  2.7331e+002 17834 113532,113662,113610
 1.0000e+000 113688 -2.7520e+002 -9.5608e+001  3.7761e+002 17834 113610,113662,113636
 1.0000e+000 113958 -3.3503e+002 -1.3802e+002  1.8852e+002 17330 113782,113834,113808
 1.0000e+000 113935 -1.8377e+002 -1.1778e+002  1.3942e+002 17330 113782,113886,113834
 1.0000e+000 113912 -2.2653e+002 -1.0461e+002  8.9432e+001 17330 113834,113886,113860
 1.0000e+000 114110 -5.3376e+002 -2.1020e+002  3.4239e+002 16874 113983,114035,114009
 1.0000e+000 114087 -2.0354e+002 -4.7043e+002  2.8907e+002 16874 113983,114061,114035
 1.0000e+000 114465 -4.5820e+002 -1.9408e+002  1.2098e+002 16270 114240,114292,114266
 1.0000e+000 114442 -3.9187e+002 -1.1932e+002  8.3675e+001 16270 114240,114370,114292
 1.0000e+000 114419 -1.2450e+002 -5.1960e+001  9.4976e+001 16270 114292,114344,114318
 1.0000e+000 114396 -4.2200e+002 -1.8364e+002  7.2188e+001 16270 114292,114370,114344
 1.0000e+000 114566 -2.3063e+001  2.3063e+001  4.6080e+002 15834 114488,114540,114514
 1.0000e+000 114667 -3.3404e+002 -1.3591e+002  2.1509e+002 15155 114589,114641,114615
 1.0000e+000 114890 -2.9881e+002 -1.1697e+002  2.6583e+002 421 114766,114818,114792
 1.0000e+000 114867 -4.2221e+002 -3.4898e+002  2.1832e+002 421 114714,114818,114766
 1.0000e+000 114844 -5.4222e+002 -2.2993e+002  1.2482e+002 421 114714,114766,114740
 1.1000e+000 66553 -4.0627e+002 -1.7837e+002  2.2355e+002 66108 66354,66458,66432
 1.1000e+000 66530 -4.1730e+002 -1.7596e+002  1.4309e+002 66108 66328,66458,66354
 1.1000e+000 66507 -2.2806e+002 -1.6884e+002  1.4487e+002 66108 66354,66432,66406
 1.1000e+000 66484  1.0967e+002  5.7984e+001  2.6689e+002 66108 66354,66406,66380
 1.1000e+000 66951 -2.5513e+002 -1.0732e+002  1.1503e+002 65910 66703,66833,66807
 1.1000e+000 66928 -4.3554e+001 -1.0950e+002  1.8003e+002 65910 66677,66833,66703
 1.1000e+000 66905 -1.5315e+002 -2.5172e+002  1.9710e+002 65910 66729,66781,66755
 1.1000e+000 66882 -4.7957e+002 -2.0022e+002  1.8415e+002 65910 66729,66807,66781
 1.1000e+000 66859 -3.3089e+002 -3.4668e+001  1.2177e+002 65910 66703,66807,66729
 1.1000e+000 67150 -3.7925e+002 -1.5807e+002  1.7108e+002 65712 67026,67078,67052
 1.1000e+000 67127 -4.4114e+002 -5.2847e+001  1.3275e+002 65712 66974,67078,67026
 1.1000e+000 67104 -1.5907e+003 -7.5687e+002  5.2057e+002 65712 66974,67026,67000
 1.1000e+000 67481 -7.1423e+002 -1.4978e+002  2.6345e+002 65422 67282,67360,67334
 1.1000e+000 67458 -3.2768e+002 -1.1569e+002  3.9695e+002 65422 67282,67386,67360
 1.1000e+000 67435 -1.7817e+002  8.1850e+001  2.1788e+002 65422 67282,67334,67308
 1.1000e+000 67412  4.9460e+001 -5.6609e+001  1.6219e+002 65422 67256,67386,67282
 1.1000e+000 68115 -1.9049e+002 -1.6544e+002  1.0089e+002 65018 67795,67925,67873
 1.1000e+000 68092 -2.7724e+002 -2.0437e+002  8.0765e+001 65018 67769,67925,67795
 1.1000e+000 68069 -1.4879e+002 -8.3096e+001  1.2011e+002 65018 67873,67925,67899
 1.1000e+000 68046 -3.0399e+002 -2.8246e+002  1.1384e+002 65018 67769,67951,67925
 1.1000e+000 68023 -3.1962e+002 -2.4820e+002  1.6107e+002 65018 67795,67873,67821
 1.1000e+000 68000 -3.3201e+002 -2.1115e+002  1.1353e+002 65018 67821,67873,67847
 1.1000e+000 67977 -6.2583e+002 -1.6986e+002  2.8495e+002 65018 67743,67951,67769
 1.1000e+000 68363 -1.7181e+002 -3.6802e+002  3.7066e+002 64820 68190,68242,68216
 1.1000e+000 68340 -3.6466e+002 -2.6901e+002  3.9260e+002 64820 68190,68268,68242
 1.1000e+000 68317 -2.0173e+002 -1.9178e+002  4.2546e+002 64820 68164,68268,68190
 1.1000e+000 68294 -7.7222e+002 -3.1549e+002  3.1178e+002 64820 68138,68268,68164
 1.1000e+000 68513 -3.0812e+002 -1.8390e+002  2.2966e+002 64366 68868,68536,68438
 1.1000e+000 68490 -1.8182e+002 -1.2938e+002  1.3877e+002 64366 68536,68412,68386
 1.1000e+000 68562 -4.6170e+002 -2.6138e+002  2.4938e+002 64366 68740,68536,68464
 1.1000e+000 68585 -2.6684e+002 -1.7508e+002  1.7285e+002 64366 68608,68536,68386
 1.1000e+000 68634 -3.7633e+002 -4.0153e+002  1.3959e+002 64366 68464,68536,68608
 1.1000e+000 68766 -2.7607e+002 -1.5053e+002  2.0328e+002 64366 68438,68536,68740
 1.1000e+000 68894 -2.8035e+002 -1.5096e+002  2.4194e+002 64366 68412,68536,68868
 1.1000e+000 69172 -1.2283e+001 -4.4065e+002  1.1183e+002 64168 69022,69074,69048
 1.1000e+000 69149 -3.5323e+002 -1.4592e+002  1.8743e+002 64168 68996,69074,69022
 1.1000e+000 69126 -4.5956e+002 -3.7982e+002  1.1770e+002 64168 68996,69100,69074
 1.1000e+000 69371 -4.0123e+002 -1.5025e+002  2.8044e+002 63970 69466,69394,69273
 1.1000e+000 69348 -2.2251e+002 -1.3200e+002  1.0166e+002 63970 69394,69247,69221
 1.1000e+000 69325 -7.1348e+002 -3.0006e+002  1.9007e+002 63970 69195,69299,69221
 1.1000e+000 69420 -5.6637e+002 -2.4693e+002  3.5033e+002 63970 69299,69273,69394
 1.1000e+000 69443 -3.8442e+002 -2.9773e+002  2.0095e+002 63970 69299,69394,69221
 1.1000e+000 69492 -4.3278e+002 -2.0387e+002  2.6742e+002 63970 69247,69394,69466
 1.1000e+000 69904 -3.9918e+001 -8.6271e+001  4.4774e+001 63680 69705,69783,69731
 1.1000e+000 69881 -2.0917e-001 -6.3480e+001  3.5369e+001 63680 69679,69783,69705
 1.1000e+000 69858 -8.2963e+001 -1.4353e+002  6.8142e+001 63680 69679,69809,69783
 1.1000e+000 69835 -6.5958e+001 -5.8590e+001  5.0242e+001 63680 69731,69783,69757
 1.1000e+000 70054 -1.9942e+001 -2.1453e+002  1.3558e+002 63476 70077,69953,69927
 1.1000e+000 70031  4.5470e+001 -9.2232e+001  1.9368e+002 63476 70077,69927,70005
 1.1000e+000 70103 -1.1416e+002 -1.3357e+002  8.3665e+001 63476 69979,69953,70077
 1.1000e+000 70126 -6.1586e+001 -2.3675e+001  1.3249e+002 63476 69979,70077,70005
 1.1000e+000 70325 -6.5061e+002 -2.5180e+002  3.4085e+002 63278 70149,70227,70175
 1.1000e+000 70302 -2.8600e+002 -1.0214e+002  3.6243e+002 63278 70149,70253,70227
 1.1000e+000 70279 -7.9586e+002 -2.8859e+002  1.7841e+002 63278 70175,70227,70201
 1.1000e+000 70597 -3.1183e+002  2.0663e+000  1.2412e+002 63080 70372,70476,70424
 1.1000e+000 70574 -1.6258e+002 -6.5255e+001  1.6862e+002 63080 70372,70502,70476
 1.1000e+000 70551 -4.6906e+002 -1.9359e+002  2.1761e+002 63080 70424,70476,70450
 1.1000e+000 70528 -6.8391e+002 -2.0344e+002  3.5405e+002 63080 70372,70424,70398
 1.1000e+000 70847 -1.7553e+001 -1.9582e+002  7.2974e+001 62740 70870,70648,70622
 1.1000e+000 70824 -1.5756e+002 -1.4952e+002  1.3301e+002 62740 70870,70622,70752
 1.1000e+000 70801 -5.7634e+001 -3.1463e+002  1.6681e+002 62740 70648,70726,70700
 1.1000e+000 70778 -5.4904e+001 -3.7777e+002  1.5881e+002 62740 70648,70700,70674
 1.1000e+000 70896 -1.5324e+002 -2.5371e+002  5.3512e+001 62740 70726,70648,70870
 1.1000e+000 70919 -2.2108e+002 -1.6403e+002  1.3153e+002 62740 70726,70870,70752
 1.1000e+000 71022 -2.7901e+001  2.7901e+001  5.0670e+002 62520 70944,70996,70970
 1.1000e+000 71223 -5.3045e+002 -2.6386e+002  3.4962e+002 62230 71073,71151,71099
 1.1000e+000 71200 -5.0126e+002 -2.4133e+002  3.6444e+002 62230 71047,71151,71073
 1.1000e+000 71177 -2.7365e+002 -4.5095e+002  2.8709e+002 62230 71099,71151,71125
 1.1000e+000 71861 -2.4956e+002 -3.2073e+002  5.4816e+001 61712 71515,71697,71671
 1.1000e+000 71838 -2.4891e+002 -3.2352e+002  2.4250e+001 61712 71489,71697,71515
 1.1000e+000 71815 -7.4612e+002 -3.6863e+002  2.2109e+002 61712 71884,71541,71515
 1.1000e+000 71792 -5.0713e+002 -2.5059e+002  1.7531e+002 61712 71884,71515,71671
 1.1000e+000 71769 -1.8235e+002 -4.7068e+002  1.7751e+002 61712 71541,71619,71593
 1.1000e+000 71746 -2.0305e+002 -5.8563e+002  7.8866e+001 61712 71619,71671,71645
 1.1000e+000 71723 -5.6976e+002 -7.1320e+002  3.8413e+002 61712 71541,71593,71567
 1.1000e+000 71910 -5.2424e+002 -4.8724e+002  3.1509e+002 61712 71619,71541,71884
 1.1000e+000 71933 -3.6006e+002 -4.1529e+002  2.9008e+002 61712 71619,71884,71671
 1.1000e+000 72230 -2.2301e+002 -6.6425e+001  3.0483e+001 61208 72253,72060,72008
 1.1000e+000 72207 -2.3556e+002 -5.5807e+001  1.7292e+001 61208 72253,72008,71982
 1.1000e+000 72184 -1.8360e+002 -3.3029e+001  2.3851e+001 61208 71982,72112,72086
 1.1000e+000 72161 -3.0687e+002 -5.5255e+001  7.3403e+001 61208 72008,72060,72034
 1.1000e+000 72138 -1.1676e+002 -4.1508e+001  6.3153e+001 61208 71956,72112,71982
 1.1000e+000 72279 -2.0233e+002 -5.8883e+001  2.8217e+001 61208 72086,72060,72253
 1.1000e+000 72302 -2.2143e+002 -5.1387e+001  1.7917e+001 61208 72086,72253,71982
 1.1000e+000 72761 -3.6699e+002 -1.9351e+002  1.7117e+002 60804 72487,72617,72513
 1.1000e+000 72738 -3.9246e+002 -2.9000e+002  1.7955e+002 60804 72487,72643,72617
 1.1000e+000 72715 -1.3797e+002 -1.8819e+002  1.6520e+002 60804 72565,72617,72591
 1.1000e+000 72692 -2.6243e+002 -1.4741e+002  1.6186e+002 60804 72513,72617,72565
 1.1000e+000 72669 -3.0928e+002 -2.0565e+002  2.3818e+002 60804 72513,72565,72539
 1.1000e+000 72911 -2.7901e+001  2.7901e+001  5.0670e+002 60556 72784,72836,72810
 1.1000e+000 72888  4.3397e+002  1.0429e+002  3.0343e+002 60556 72784,72862,72836
 1.1000e+000 73468 -1.8929e+002 -2.2328e+002  1.5416e+002 60244 73491,73226,73200
 1.1000e+000 73445 -3.1483e+002 -3.7093e+002  2.3787e+002 60244 73563,73491,73200
 1.1000e+000 73422 -4.7779e+002 -3.7651e+002  2.6310e+002 60244 73563,73200,73174
 1.1000e+000 73399 -2.0496e+002 -2.5425e+002  1.4822e+002 60244 73226,73278,73252
 1.1000e+000 73376 -3.5337e+002 -2.1001e+002  1.5374e+002 60244 73122,73304,73278
 1.1000e+000 73353 -3.6854e+002 -3.4781e+002  1.7595e+002 60244 73096,73304,73122
 1.1000e+000 73330 -7.0686e+002 -2.0159e+002  2.1152e+002 60244 73122,73174,73148
 1.1000e+000 73517 -4.2890e+002 -3.3894e+002  2.1440e+002 60244 73278,73226,73491
 1.1000e+000 73540 -3.5952e+002 -1.5320e+002  1.8456e+002 60244 73278,73491,73122
 1.1000e+000 73589 -6.1886e+002 -3.0262e+002  2.4975e+002 60244 73122,73491,73563
 1.1000e+000 73612 -7.8864e+002 -3.1662e+002  2.8485e+002 60244 73122,73563,73174
 1.1000e+000 73762 -3.2735e+002 -7.6974e+002  3.0366e+002 59875 73661,73713,73687
 1.1000e+000 73739 -4.4428e+002 -2.9314e+002  2.6935e+002 59875 73635,73713,73661
 1.1000e+000 74191 -1.0455e+002 -2.3046e+002  3.2874e+002 59478 74214,73894,73868
 1.1000e+000 74168 -2.6645e+002 -2.2303e+002  3.5105e+002 59478 74214,73868,74050
 1.1000e+000 74145 -1.2071e+002 -1.6810e+002  1.8564e+002 59478 73894,73946,73920
 1.1000e+000 74122 -2.2948e+002 -2.0306e+002  2.1537e+002 59478 73894,73998,73946
 1.1000e+000 74099 -7.7817e+002 -4.3834e+002  5.5093e+002 59478 73998,74050,74024
 1.1000e+000 74076 -3.0764e+002 -7.5398e+001  1.2350e+002 59478 73946,73998,73972
 1.1000e+000 74240 -2.5407e+002 -1.7886e+002  2.6285e+002 59478 73998,73894,74214
 1.1000e+000 74263 -4.1065e+002 -1.7848e+002  2.5936e+002 59478 73998,74214,74050
 1.1000e+000 74720 -3.3491e+002 -3.1490e+002  1.3195e+002 58774 74472,74602,74498
 1.1000e+000 74697 -3.6065e+002 -2.9614e+002  1.4501e+002 58774 74446,74602,74472
 1.1000e+000 74674 -3.4245e+002 -2.5958e+002  1.3763e+002 58774 74498,74576,74524
 1.1000e+000 74651 -3.4885e+002 -2.8851e+002  1.1696e+002 58774 74498,74602,74576
 1.1000e+000 74628 -3.4869e+002 -3.7149e+002  1.8596e+002 58774 74524,74576,74550
 1.1000e+000 75226 -2.8069e+002 -1.2125e+002  1.5110e+002 58270 74955,75085,75033
 1.1000e+000 75203 -2.3347e+002 -2.1547e+002  1.7580e+002 58270 74929,75085,74955
 1.1000e+000 75180 -3.2298e+002 -1.5982e+002  1.7676e+002 58270 75033,75085,75059
 1.1000e+000 75157 -4.7824e+002 -1.2859e+002  1.2155e+002 58270 74955,75007,74981
 1.1000e+000 75134 -2.3464e+002 -9.8651e+001  9.0282e+001 58270 74955,75033,75007
 1.1000e+000 75111 -9.7608e+001 -2.5193e+002  9.6998e+001 58270 74903,75085,74929
 1.1000e+000 75425 -7.6673e+001 -1.6122e+001  2.9502e+001 57830 75448,75301,75249
 1.1000e+000 75402 -8.0427e+001 -1.8439e+001  3.0512e+001 57830 75448,75249,75353
 1.1000e+000 75379 -4.1719e+001 -3.9485e+001  5.3737e+000 57830 75520,75301,75275
 1.1000e+000 75474 -7.8118e+001 -1.4089e+001  2.6333e+001 57830 75327,75301,75448
 1.1000e+000 75497 -8.1331e+001 -1.5745e+001  2.6925e+001 57830 75327,75448,75353
 1.1000e+000 75546 -4.7382e+001 -5.5743e+000  3.2882e+000 57830 75249,75301,75520
 1.1000e+000 76261 -1.4941e+002 -2.0724e+002  1.5118e+002 57426 76284,76097,76071
 1.1000e+000 76238 -1.1307e+002 -1.6054e+002  1.3507e+002 57426 75889,76097,75915
 1.1000e+000 76215 -2.0415e+002 -2.0443e+002  1.7830e+002 57426 76428,76284,76071
 1.1000e+000 76192 -1.8137e+002 -1.7544e+002  1.2097e+002 57426 76356,75941,75915
 1.1000e+000 76169 -2.0418e+002 -1.8660e+002  1.7626e+002 57426 76428,76071,76019
 1.1000e+000 76146 -2.0912e+002 -2.1201e+002  1.6832e+002 57426 76019,76071,76045
 1.1000e+000 76123 -2.2786e+002 -1.9502e+002  2.1107e+002 57426 75967,76019,75993
 1.1000e+000 76310 -1.4660e+002 -1.9825e+002  1.2001e+002 57426 75915,76097,76284
 1.1000e+000 76333 -1.8125e+002 -2.0815e+002  1.2122e+002 57426 76356,75915,76284
 1.1000e+000 76382 -1.9130e+002 -1.2865e+002  1.5053e+002 57426 75967,75941,76356
 1.1000e+000 76405 -1.9068e+002 -1.5507e+002  1.4566e+002 57426 75967,76356,76284
 1.1000e+000 76454 -1.9918e+002 -1.8748e+002  1.7387e+002 57426 75967,76284,76428
 1.1000e+000 76477 -2.0606e+002 -1.7698e+002  1.7462e+002 57426 75967,76428,76019
 1.1000e+000 76953 -2.6664e+002 -4.8680e+002  2.2549e+002 56908 76976,76711,76685
 1.1000e+000 76930 -2.6984e+002 -4.9002e+002  2.1548e+002 56908 77048,76976,76685
 1.1000e+000 76907 -4.8454e+002 -5.0177e+002  3.1689e+002 56908 77048,76685,76633
 1.1000e+000 76884 -6.4817e+002 -7.6451e+002  4.1036e+002 56908 76711,76789,76763
 1.1000e+000 76861 -4.1095e+002 -3.5948e+002  1.6369e+002 56908 76581,76789,76607
 1.1000e+000 76838 -6.2157e+002 -5.5392e+002  1.9821e+002 56908 76711,76763,76737
 1.1000e+000 76815 -9.9589e+002 -8.3323e+002  5.5077e+002 56908 76633,76685,76659
 1.1000e+000 77002 -2.5934e+002 -4.9466e+002  2.5923e+002 56908 76789,76711,76976
 1.1000e+000 77025 -3.1433e+002 -3.4784e+002  1.4571e+002 56908 76789,76976,76607
 1.1000e+000 77074 -6.0054e+002 -4.9770e+002  2.0748e+002 56908 76607,76976,77048
 1.1000e+000 77097 -7.1343e+002 -4.1929e+002  2.9980e+002 56908 76607,77048,76633
 1.1000e+000 77475 -2.8685e+002 -5.0305e+002  2.6456e+002 56546 77570,77498,77279
 1.1000e+000 77452 -2.5390e+002 -6.1045e+002  3.0515e+002 56546 77498,77227,77357
 1.1000e+000 77429 -3.1969e+002 -5.3024e+002  3.0657e+002 56546 77570,77279,77253
 1.1000e+000 77406 -4.4297e+002 -6.9734e+002  3.3553e+002 56546 77201,77357,77227
 1.1000e+000 77383 -4.0512e+002 -5.0894e+002  1.7975e+002 56546 77279,77331,77305
 1.1000e+000 77524 -2.7715e+002 -3.7739e+002  2.4830e+002 56546 77331,77279,77498
 1.1000e+000 77547 -2.1871e+002 -4.8963e+002  3.4860e+002 56546 77331,77498,77357
 1.1000e+000 77596 -3.3266e+002 -5.2437e+002  3.1496e+002 56546 77227,77498,77570
 1.1000e+000 77619 -3.6756e+002 -5.9942e+002  3.5868e+002 56546 77227,77570,77253
 1.1000e+000 77818 -3.8355e+002 -4.2793e+002  2.5335e+002 56042 77841,77694,77668
 1.1000e+000 77795 -3.3892e+002 -3.8941e+002  1.8287e+002 56042 77841,77668,77746
 1.1000e+000 77772 -3.7241e+002 -5.6574e+002  1.6578e+002 56042 77642,77746,77668
 1.1000e+000 77867 -4.2439e+002 -4.8350e+002  2.9121e+002 56042 77720,77694,77841
 1.1000e+000 77890 -3.7009e+002 -4.3458e+002  2.1923e+002 56042 77720,77841,77746
 1.1000e+000 78349 -2.1633e+002 -1.0250e+002  1.2980e+002 55538 78075,78127,78101
 1.1000e+000 78326 -2.7661e+002 -1.4944e+002  6.5607e+001 55538 78075,78205,78127
 1.1000e+000 78303 -2.2107e+002 -1.0011e+002  4.1656e+001 55538 78075,78231,78205
 1.1000e+000 78280 -1.6469e+002 -2.0784e+002  1.2178e+002 55538 78127,78179,78153
 1.1000e+000 78257 -1.5982e+002 -1.4344e+002  5.9351e+001 55538 78127,78205,78179
 1.1000e+000 78806 -2.0974e+002 -2.3966e+002  8.4909e+001 55034 78829,78636,78610
 1.1000e+000 78783 -2.4192e+002 -2.1055e+002  9.6284e+001 55034 78901,78829,78610
 1.1000e+000 78760 -2.0516e+002 -1.9558e+002  9.1914e+001 55034 78901,78610,78584
 1.1000e+000 78737 -2.6245e+002 -2.2326e+002  1.0926e+002 55034 78558,78688,78662
 1.1000e+000 78714 -2.8172e+002 -2.1859e+002  2.2201e+002 55034 78532,78688,78558
 1.1000e+000 78855 -2.5634e+002 -3.0370e+002  6.0537e+001 55034 78662,78636,78829
 1.1000e+000 78878 -2.5931e+002 -2.3293e+002  1.0902e+002 55034 78662,78829,78558
 1.1000e+000 78927 -2.2207e+002 -2.1275e+002  1.2289e+002 55034 78558,78829,78901
 1.1000e+000 78950 -2.1562e+002 -2.1207e+002  1.2360e+002 55034 78558,78901,78584
 1.1000e+000 79407 -1.8429e+002 -6.7947e+001  1.8062e+002 54430 79430,79237,79159
 1.1000e+000 79384 -2.4597e+002 -1.2531e+002  1.4395e+002 54430 79430,79159,79133
 1.1000e+000 79361 -2.0599e+002 -4.2375e+001  8.7158e+001 54430 79237,79289,79263
 1.1000e+000 79338 -2.2477e+002 -1.3425e+002  1.5375e+002 54430 79185,79237,79211
 1.1000e+000 79315 -3.5401e+002 -1.4922e+002  2.2244e+002 54430 79159,79237,79185
 1.1000e+000 79456 -1.7649e+002 -1.3175e+002  1.3342e+002 54430 79289,79237,79430
 1.1000e+000 79479 -2.0929e+002 -1.8767e+002  1.0581e+002 54430 79289,79430,79133
 1.1000e+000 79936 -1.9767e+002 -6.9304e+001  2.3132e+002 53919 79662,79766,79688
 1.1000e+000 79913 -6.1966e+002 -3.5684e+002  3.9526e+002 53919 79662,79818,79766
 1.1000e+000 79890 -6.6707e+002 -9.7168e+001  1.7241e+002 53919 79766,79818,79792
 1.1000e+000 79867 -4.2019e+002 -1.9676e+002  2.7987e+002 53919 79714,79766,79740
 1.1000e+000 79844 -4.5043e+002 -2.0230e+002  2.8210e+002 53919 79688,79766,79714
 1.1000e+000 80037 -5.1348e+001 -1.8818e+002  1.8198e+002 53671 79959,80011,79985
 1.1000e+000 80405 -6.9269e+001 -4.3604e+001 -1.5651e+001 53267 80108,80264,80238
 1.1000e+000 80382 -4.0753e+001 -5.0225e+000  3.0183e-001 53267 80082,80264,80108
 1.1000e+000 80359 -4.9116e+001 -2.0984e+002  1.3998e+002 53267 80108,80238,80134
 1.1000e+000 80336 -3.6109e+001 -8.9547e+001  1.0752e+002 53267 80134,80212,80186
 1.1000e+000 80313 -1.6700e+002 -2.0570e+002  1.8184e+002 53267 80134,80238,80212
 1.1000e+000 80290  8.2283e+000 -1.3942e+002  4.5008e+001 53267 80134,80186,80160
 1.1000e+000 80915 -1.3773e+002 -2.1940e+002  1.1385e+002 52969 80644,80774,80748
 1.1000e+000 80892 -1.5780e+002 -6.5036e+001  4.8152e+001 52969 80618,80774,80644
 1.1000e+000 80869 -1.8746e+002 -3.2253e+002  5.6185e+001 52969 80644,80748,80670
 1.1000e+000 80846 -7.6086e+001 -6.7968e+001  2.0234e+001 52969 80592,80774,80618
 1.1000e+000 80823 -2.6253e+002 -2.2810e+002  9.7424e+001 52969 80670,80722,80696
 1.1000e+000 80800 -1.4133e+002 -1.7883e+002  5.8052e+001 52969 80670,80748,80722
 1.1000e+000 81266  3.7907e+001 -1.6209e+002  2.7368e+001 52565 81041,81145,81067
 1.1000e+000 81243 -1.5112e+002 -4.7286e+002  1.0984e+002 52565 81041,81171,81145
 1.1000e+000 81220 -3.6382e+002 -9.6737e+002  1.5726e+002 52565 81067,81119,81093
 1.1000e+000 81197  6.5466e+001 -1.7768e+000  4.6566e+001 52565 81067,81145,81119
 1.1000e+000 81723 -1.9691e+002 -1.3165e+002  9.1810e+001 51904 81449,81527,81475
 1.1000e+000 81700 -1.4937e+002 -5.0809e+001  6.9597e+001 51904 81449,81579,81527
 1.1000e+000 81677 -3.5779e+002 -2.8306e+002  1.8031e+002 51904 81449,81605,81579
 1.1000e+000 81654 -1.6039e+002 -4.7118e+001  6.9017e+001 51904 81527,81579,81553
 1.1000e+000 81631 -2.7641e+002 -1.0312e+002  3.8215e+001 51904 81475,81527,81501
 1.1000e+000 82327 -3.2692e+002 -3.5704e+002  2.4445e+002 51321 82422,82350,82036
 1.1000e+000 82304 -3.4226e+002 -2.3131e+002  2.8223e+002 51321 82494,82350,81958
 1.1000e+000 82281 -3.4441e+002 -3.8365e+002  2.1914e+002 51321 82422,82036,82010
 1.1000e+000 82258 -3.6221e+002 -2.3431e+002  2.7072e+002 51321 82494,81958,81932
 1.1000e+000 82235 -3.5377e+002 -1.5443e+002  1.2538e+002 51321 82062,82114,82088
 1.1000e+000 82212 -8.4357e+002 -4.9621e+002  3.6624e+002 51321 81932,82140,82114
 1.1000e+000 82189 -3.6240e+002 -1.3269e+002  2.1899e+002 51321 81958,82010,81984
 1.1000e+000 82166 -3.1033e+002 -2.9034e+002  1.9306e+002 51321 81906,82140,81932
 1.1000e+000 82376 -3.2494e+002 -4.1338e+002  2.4349e+002 51321 82062,82036,82350
 1.1000e+000 82399 -3.3908e+002 -3.1012e+002  2.3232e+002 51321 82062,82350,82114
 1.1000e+000 82448 -2.9790e+002 -3.2660e+002  2.7590e+002 51321 81958,82350,82422
 1.1000e+000 82471 -3.1058e+002 -3.4999e+002  2.5127e+002 51321 81958,82422,82010
 1.1000e+000 82520 -3.5490e+002 -2.4801e+002  2.7044e+002 51321 82114,82350,82494
 1.1000e+000 82543 -3.5937e+002 -2.4742e+002  2.5996e+002 51321 82114,82494,81932
 1.1000e+000 83019 -4.1158e+002 -1.8820e+002  1.1227e+002 50817 82673,82751,82699
 1.1000e+000 82996 -4.6601e+002 -2.3949e+002  1.9771e+002 50817 83042,82673,82855
 1.1000e+000 82973 -4.4314e+002 -2.9789e+002  2.0523e+002 50817 83042,82855,82803
 1.1000e+000 82950 -5.4646e+002 -3.5473e+002  2.5925e+002 50817 82751,82803,82777
 1.1000e+000 82927 -5.0089e+002 -3.3577e+002  1.0852e+002 50817 82647,82855,82673
 1.1000e+000 82904 -5.3355e+002 -3.8605e+002  2.6953e+002 50817 82803,82855,82829
 1.1000e+000 82881 -5.0719e+002 -3.9387e+002  1.3696e+002 50817 82699,82751,82725
 1.1000e+000 83068 -4.9168e+002 -2.8300e+002  2.2472e+002 50817 82751,82673,83042
 1.1000e+000 83091 -4.4938e+002 -3.2901e+002  2.2442e+002 50817 82751,83042,82803
 1.1000e+000 83290 -3.8764e+002 -2.2258e+002  2.5180e+002 50356 83313,83166,83140
 1.1000e+000 83267 -4.5151e+002 -3.9756e+002  1.9663e+002 50356 83515,83313,83140
 1.1000e+000 83244 -5.2515e+002 -3.8624e+002  9.1019e+001 50356 83515,83140,83385
 1.1000e+000 83339 -4.5506e+002 -3.5411e+002  2.7665e+002 50356 83192,83166,83313
 1.1000e+000 83362 -3.1873e+002 -3.5970e+002  2.3344e+002 50356 83192,83313,83218
 1.1000e+000 83411 -1.8671e+002 -2.0199e+002  1.4429e+002 50356 83114,83218,83385
 1.1000e+000 83541 -2.7314e+002 -3.3822e+002  1.8851e+002 50356 83218,83313,83515
 1.1000e+000 83564 -2.9584e+002 -2.9330e+002  9.6465e+001 50356 83218,83515,83385
 1.1000e+000 83893 -2.1160e+002 -1.6108e+002  7.4891e+001 49552 83720,83798,83746
 1.1000e+000 83870 -1.7297e+002 -2.1214e+001  5.9787e+001 49552 83694,83798,83720
 1.1000e+000 83847 -8.1553e+001 -6.2383e+001  4.9936e+001 49552 83668,83798,83694
 1.1000e+000 83824 -2.1312e+002 -7.4759e+001  3.1307e+001 49552 83746,83798,83772
 1.1000e+000 84141 -4.5332e+002 -3.6022e+002  2.3766e+002 49212 84164,84020,83942
 1.1000e+000 84118 -4.4487e+002 -3.3145e+002  2.6046e+002 49212 84164,83942,83916
 1.1000e+000 84095 -3.0670e+002 -4.4013e+002  1.7395e+002 49212 83942,84020,83968
 1.1000e+000 84072 -2.7473e+002 -5.6404e+001  9.1685e+001 49212 83968,84020,83994
 1.1000e+000 84190 -4.7456e+002 -3.5867e+002  2.2044e+002 49212 84046,84020,84164
 1.1000e+000 84213 -4.6157e+002 -3.3869e+002  2.4261e+002 49212 84046,84164,83916
 1.1000e+000 84800 -1.1359e+002 -3.3146e+002  1.6631e+002 48865 84503,84633,84555
 1.1000e+000 84777 -2.7723e+002 -5.2360e+002  9.6196e+001 48865 84503,84659,84633
 1.1000e+000 84754 -2.3543e+002 -6.6073e+002  1.3586e+002 48865 84555,84633,84581
 1.1000e+000 84731 -1.6530e+002 -9.3463e+002  2.5425e+002 48865 84581,84633,84607
 1.1000e+000 84708 -5.1135e+002 -4.3505e+002  1.2763e+002 48865 84503,84555,84529
 1.1000e+000 84685 -2.7197e+002 -4.6977e+002  1.5019e+002 48865 84477,84659,84503
 1.1000e+000 85355 -2.4181e+002 -2.5434e+002  1.2481e+002 48461 85378,85035,85009
 1.1000e+000 85332 -2.6150e+002 -2.6531e+002  1.3380e+002 48461 85378,85009,85165
 1.1000e+000 85309 -1.8752e+002 -3.0469e+002  1.7695e+002 48461 85450,85061,85035
 1.1000e+000 85286 -3.4084e+002 -2.8169e+002  1.1265e+002 48461 85009,85191,85165
 1.1000e+000 85263 -2.4844e+002 -2.6443e+002  1.8903e+002 48461 85087,85165,85113
 1.1000e+000 85240 -1.9100e+002 -3.5549e+002 -2.8057e+000 48461 84983,85191,85009
 1.1000e+000 85217 -2.1628e+002 -3.1385e+002  1.3299e+002 48461 85113,85165,85139
 1.1000e+000 85404 -2.1703e+002 -2.4835e+002  1.5145e+002 48461 85450,85035,85378
 1.1000e+000 85427 -2.9576e+002 -2.8210e+002  1.2781e+002 48461 85087,85378,85165
 1.1000e+000 85476 -2.2486e+002 -3.6523e+002  1.6007e+002 48461 85087,85061,85450
 1.1000e+000 85499 -2.7232e+002 -3.3853e+002  1.2724e+002 48461 85087,85450,85378
 1.1000e+000 86084 -1.4977e+002 -3.2053e+002  1.3227e+002 48057 86323,86107,85787
 1.1000e+000 86061 -2.1436e+002 -3.9744e+002  1.9755e+002 48057 86107,85761,85943
 1.1000e+000 86038 -2.3381e+002 -2.6812e+002  1.4053e+002 48057 86251,86179,85891
 1.1000e+000 86015 -2.3096e+002 -2.1709e+002  9.3155e+001 48057 86251,85891,85839
 1.1000e+000 85992 -2.4971e+002 -2.6080e+002  2.1875e+002 48057 85891,85943,85917
 1.1000e+000 85969 -2.7644e+002 -1.6562e+002  1.2472e+002 48057 85839,85891,85865
 1.1000e+000 86133 -1.5420e+002 -3.0188e+002  1.0500e+002 48057 85813,85787,86107
 1.1000e+000 86156 -1.9202e+002 -3.2039e+002  1.1318e+002 48057 86179,85813,86107
 1.1000e+000 86205 -1.9143e+002 -2.2721e+002  1.5721e+002 48057 85943,85891,86179
 1.1000e+000 86228 -1.3884e+002 -2.4943e+002  1.5244e+002 48057 85943,86179,86107
 1.1000e+000 86277 -1.5328e+002 -2.1430e+002  1.1418e+002 48057 85813,86179,86251
 1.1000e+000 86300 -1.9597e+002 -1.8425e+002  7.5605e+001 48057 85813,86251,85839
 1.1000e+000 86349 -9.2557e+001 -2.8559e+002  1.4695e+002 48057 85761,86107,86323
 1.1000e+000 86855 -1.3731e+002 -2.9871e+002  1.6434e+002 47545 86878,86584,86558
 1.1000e+000 86832 -2.2444e+002 -3.3691e+002  1.4818e+002 47545 86950,86878,86558
 1.1000e+000 86809 -2.5531e+002 -3.2851e+002  1.5051e+002 47545 86950,86558,86532
 1.1000e+000 86786 -1.6773e+002 -2.8717e+002  1.6516e+002 47545 86584,86662,86610
 1.1000e+000 86763 -2.5799e+002 -2.9590e+002  9.7035e+001 47545 86532,86714,86688
 1.1000e+000 86740 -2.0917e+002 -1.3875e+002  1.7065e+002 47545 86610,86662,86636
 1.1000e+000 86904 -1.8326e+002 -3.4850e+002  1.3687e+002 47545 86662,86584,86878
 1.1000e+000 86927 -1.4176e+002 -3.2177e+002  1.2081e+002 47545 86662,86878,86688
 1.1000e+000 86976 -1.7637e+002 -3.2680e+002  1.1175e+002 47545 86688,86878,86950
 1.1000e+000 86999 -2.2844e+002 -3.4168e+002  1.2059e+002 47545 86688,86950,86532
 1.1000e+000 87328 -2.3527e+002 -1.8544e+002  1.1618e+002 47048 87155,87207,87181
 1.1000e+000 87305 -2.0150e+002 -1.3969e+002  1.4711e+002 47048 87129,87207,87155
 1.1000e+000 87282 -2.6862e+002 -1.6221e+002  1.5180e+002 47048 87103,87207,87129
 1.1000e+000 87259 -3.5227e+002 -3.7726e+002  2.2886e+002 47048 87103,87233,87207
 1.1000e+000 87576 -1.3450e+002 -1.7123e+002  1.6762e+002 46701 87599,87429,87377
 1.1000e+000 87553 -2.0768e+002 -8.4039e+001  1.0360e+002 46701 87599,87377,87481
 1.1000e+000 87530 -4.3550e+001 -4.5958e+001  2.8860e+001 46701 87351,87481,87377
 1.1000e+000 87507 -9.1229e+000 -8.3703e+001  1.0028e+002 46701 87377,87429,87403
 1.1000e+000 87625 -1.8394e+002 -3.3203e+002  1.6785e+002 46701 87455,87429,87599
 1.1000e+000 87648 -2.0503e+002 -1.7917e+002  8.8600e+001 46701 87455,87599,87481
 1.1000e+000 87798  5.3133e+000  1.9864e+000 -1.5486e+000 46239 87697,87749,87723
 1.1000e+000 87775  4.3315e+001 -4.0624e+001  6.6018e+001 46239 87671,87749,87697
 1.1000e+000 88308 -5.3856e+002 -4.6999e+002  1.4969e+002 45735 88089,88167,88141
 1.1000e+000 88285 -3.7941e+002 -2.9094e+002  2.3438e+002 45735 88011,88167,88089
 1.1000e+000 88262 -4.8692e+002 -3.3187e+002  2.3698e+002 45735 87985,88167,88011
 1.1000e+000 88239 -5.9564e+002 -9.2882e+002  3.6822e+002 45735 88011,88089,88063
 1.1000e+000 88216 -5.2328e+002 -4.6508e+002  1.4364e+002 45735 88089,88141,88115
 1.1000e+000 88193 -4.2876e+002 -9.7101e+002  6.6717e+002 45735 88011,88063,88037
 1.1000e+000 88686 -3.3713e+002 -2.8896e+002  2.2508e+002 45316 88438,88516,88490
 1.1000e+000 88663 -2.9708e+002 -7.2628e+001  2.8415e+002 45316 88438,88542,88516
 1.1000e+000 88640 -1.8777e+002 -4.2063e+002  3.4081e+002 45316 88438,88568,88542
 1.1000e+000 88617 -5.6182e+002 -4.4259e+002  1.4929e+002 45316 88438,88490,88464
 1.1000e+000 88594 -2.4925e+002 -4.5444e+002  3.2774e+002 45316 88412,88568,88438
 1.1000e+000 88934 -6.7894e+002 -6.8295e+002  3.8682e+002 44812 88957,88735,88709
 1.1000e+000 88911 -3.9872e+002 -4.5598e+002  1.6203e+002 44812 88957,88709,88839
 1.1000e+000 88888 -3.8882e+002 -3.4513e+002  1.0003e+002 44812 89029,88787,88761
 1.1000e+000 88865 -3.6485e+002 -3.2556e+002  1.4536e+002 44812 88787,88839,88813
 1.1000e+000 88983 -2.0388e+002 -4.3536e+002  2.6078e+002 44812 88761,88735,88957
 1.1000e+000 89006 -3.4173e+002 -3.9116e+002  8.6639e+001 44812 89029,88761,88957
 1.1000e+000 89055 -3.7561e+002 -3.9985e+002  1.1933e+002 44812 88839,88787,89029
 1.1000e+000 89078 -3.7396e+002 -4.9468e+002  1.2213e+002 44812 88839,89029,88957
 1.1000e+000 89228 -3.3746e+002 -9.0302e+002  1.2875e+002 44408 89127,89179,89153
 1.1000e+000 89205 -3.9851e+000 -6.9755e+001  9.1321e+000 44408 89101,89179,89127
 1.1000e+000 89787 -3.4082e+002 -2.5502e+002  1.8858e+002 43854 89810,89545,89519
 1.1000e+000 89764 -3.6848e+002 -3.2326e+002  1.9766e+002 43854 89810,89519,89467
 1.1000e+000 89741 -3.6867e+002 -4.2958e+002  1.8778e+002 43854 89954,89882,89597
 1.1000e+000 89718 -3.7478e+002 -4.3430e+002  1.9236e+002 43854 89954,89597,89571
 1.1000e+000 89695 -2.0890e+002 -3.2862e+002  1.7551e+002 43854 89415,89623,89467
 1.1000e+000 89672 -1.7269e+002 -1.8381e+002  1.3364e+002 43854 89467,89519,89493
 1.1000e+000 89649 -1.6044e+002 -2.6333e+002  1.5427e+002 43854 89415,89467,89441
 1.1000e+000 89836 -3.8143e+002 -2.7662e+002  2.0562e+002 43854 89882,89545,89810
 1.1000e+000 89859 -2.1974e+002 -3.0604e+002  1.6055e+002 43854 89623,89810,89467
 1.1000e+000 89908 -3.7382e+002 -5.3397e+002  2.5787e+002 43854 89623,89597,89882
 1.1000e+000 89931 -3.3997e+002 -4.6534e+002  2.1561e+002 43854 89623,89882,89810
 1.1000e+000 89980 -3.9399e+002 -4.2463e+002  2.4636e+002 43854 89545,89882,89954
 1.1000e+000 90003 -4.2459e+002 -4.7413e+002  2.5928e+002 43854 89545,89954,89571
 1.1000e+000 90251 -1.3101e+002 -2.1842e+002  9.0043e+001 43492 90026,90078,90052
 1.1000e+000 90228 -3.7016e+002 -3.0017e+002  1.4934e+002 43492 90274,90026,90156
 1.1000e+000 90205 -3.4262e+002 -3.5161e+002  1.5051e+002 43492 90346,90274,90156
 1.1000e+000 90182 -3.5413e+002 -4.5869e+002  3.3279e+002 43492 90346,90156,90130
 1.1000e+000 90300 -2.5069e+002 -3.7031e+002  1.9403e+002 43492 90078,90026,90274
 1.1000e+000 90323 -4.0588e+002 -4.2677e+002  1.8777e+002 43492 90078,90274,90104
 1.1000e+000 90372 -5.6569e+002 -4.9925e+002  2.6451e+002 43492 90104,90274,90346
 1.1000e+000 90395 -5.8363e+002 -6.3050e+002  4.5097e+002 43492 90104,90346,90130
 1.1000e+000 90594 -9.5909e+001 -3.0377e+002  1.6637e+002 43052 90418,90496,90444
 1.1000e+000 90571 -4.8379e+001 -8.0507e+001  8.3965e+001 43052 90418,90522,90496
 1.1000e+000 90548 -2.7501e+002 -2.5954e+002  1.7648e+002 43052 90444,90496,90470
 1.1000e+000 91074 -7.3052e+002 -5.0871e+002  4.9864e+002 42434 91241,90884,90858
 1.1000e+000 91051 -2.9877e+002 -3.8264e+002 -1.8978e+001 42434 90702,90910,90884
 1.1000e+000 91028 -1.1144e+002 -2.0021e+002  1.8463e+002 42434 91097,90754,90702
 1.1000e+000 91005 -5.7253e+002 -2.7665e+002  4.2975e+002 42434 91241,90858,91097
 1.1000e+000 90982 -2.4242e+002 -3.0989e+002  1.3024e+002 42434 91169,90806,90780
 1.1000e+000 90959 -1.6869e+002 -2.8056e+002  8.5366e+001 42434 90806,90858,90832
 1.1000e+000 90936 -1.7070e+002 -1.7642e+002  1.7788e+002 42434 90702,90754,90728
 1.1000e+000 91123 -5.3879e+002 -4.4721e+002  3.7769e+002 42434 90780,90754,91097
 1.1000e+000 91146 -4.3682e+002 -4.6855e+002  3.7616e+002 42434 91169,90780,91097
 1.1000e+000 91195 -1.6514e+002 -1.8402e+002  7.7630e+001 42434 90858,90806,91169
 1.1000e+000 91218 -1.9055e+002  4.6798e+000  2.8057e+002 42434 90858,91169,91097
 1.1000e+000 91267 -4.0685e+002 -8.1009e+002  3.4608e+002 42434 90702,90884,91241
 1.1000e+000 91290 -2.7944e+002 -6.1746e+002  2.9001e+002 42434 90702,91241,91097
 1.1000e+000 91698 -8.8994e+001 -3.4571e+002  1.2896e+002 41773 91473,91577,91499
 1.1000e+000 91675 -1.7808e+002 -4.1475e+002  1.7343e+002 41773 91473,91603,91577
 1.1000e+000 91652 -1.7559e+002 -2.5636e+002  4.3524e+001 41773 91499,91551,91525
 1.1000e+000 91629 -2.5859e+002 -3.0404e+002  1.2754e+002 41773 91499,91577,91551
 1.1000e+000 92044 -3.2034e+002 -3.8909e+002  2.3261e+002 41383 91773,91877,91851
 1.1000e+000 92021 -2.6053e+002 -4.7231e+002  1.4057e+002 41383 91747,91877,91773
 1.1000e+000 91998 -2.6183e+002 -2.7971e+002  1.7387e+002 41383 91773,91851,91799
 1.1000e+000 91975 -2.1264e+002 -4.0280e+002  8.9683e+001 41383 91747,91903,91877
 1.1000e+000 91952 -1.1340e+002 -3.4832e+002  1.1158e+002 41383 91721,91903,91747
 1.1000e+000 91929 -6.2117e+001 -2.8558e+002  1.2100e+002 41383 91799,91851,91825
 1.1000e+000 92601 -2.6619e+002 -2.8102e+002  1.0040e+002 40979 92229,92411,92307
 1.1000e+000 92578 -3.4118e+002 -3.1558e+002  1.1238e+002 40979 92229,92437,92411
 1.1000e+000 92555 -2.2270e+002 -2.2030e+002  7.7800e+001 40979 92229,92307,92281
 1.1000e+000 92532 -2.0314e+002 -2.3297e+002  1.3554e+002 40979 92333,92411,92385
 1.1000e+000 92509 -2.1338e+002 -2.3426e+002  1.2054e+002 40979 92307,92411,92333
 1.1000e+000 92486 -2.8448e+002 -3.4306e+002  5.6948e+001 40979 92229,92281,92255
 1.1000e+000 92463 -2.7619e+001 -2.2863e+002  9.2639e+001 40979 92333,92385,92359
 1.1000e+000 93235 -3.3327e+002 -2.1853e+002  2.7212e+002 40525 92941,92993,92967
 1.1000e+000 93212 -4.1473e+002 -8.2994e+001  1.4167e+002 40525 93258,92941,92889
 1.1000e+000 93189 -3.4690e+002 -3.1110e+001  9.3764e+001 40525 93258,92889,93071
 1.1000e+000 93166 -2.9205e+002 -2.3954e+002  1.1551e+002 40525 92889,92941,92915
 1.1000e+000 93143 -1.6531e+002 -1.0299e+002  9.4431e+001 40525 92863,93071,92889
 1.1000e+000 93120 -3.4812e+002 -1.8259e+002  1.6072e+002 40525 92993,93071,93019
 1.1000e+000 93097 -3.8024e+002 -2.0702e+002  1.7140e+002 40525 93019,93071,93045
 1.1000e+000 93284 -4.6614e+002 -1.8940e+002  2.3383e+002 40525 92993,92941,93258
 1.1000e+000 93307 -3.1109e+002 -6.2898e+001  1.6926e+002 40525 92993,93258,93071
 1.1000e+000 93636 -4.5081e+002 -4.0345e+002  3.3416e+002 40235 93437,93541,93515
 1.1000e+000 93613 -3.4385e+002 -5.1802e+002  2.9887e+002 40235 93411,93541,93437
 1.1000e+000 93590 -1.2363e+002 -4.0536e+002  1.3330e+002 40235 93463,93515,93489
 1.1000e+000 93567 -2.2629e+002 -3.0085e+002  9.7482e+001 40235 93437,93515,93463
 1.1000e+000 94014 -4.8125e+002 -5.7395e+002  1.9962e+002 39873 93766,93870,93792
 1.1000e+000 93991 -4.4001e+002 -5.8454e+002  1.8559e+002 39873 93766,93896,93870
 1.1000e+000 93968 -3.9631e+002 -4.5136e+002  2.3662e+002 39873 93792,93870,93844
 1.1000e+000 93945 -3.2147e+002 -3.9060e+002  1.8605e+002 39873 93792,93844,93818
 1.1000e+000 93922 -3.3999e+002 -5.1774e+002  3.1081e+002 39873 93740,93896,93766
 1.1000e+000 94164  4.9876e+000 -1.1644e+002  8.7991e+001 39461 94037,94089,94063
 1.1000e+000 94141 -1.1086e+002 -1.5716e+002  1.1031e+002 39461 94037,94115,94089
 1.1000e+000 94363 -2.3510e+002 -2.1681e+002  1.4876e+002 39057 94386,94239,94213
 1.1000e+000 94340 -1.7439e+002 -1.7714e+002  1.3050e+002 39057 94386,94213,94187
 1.1000e+000 94317 -3.0164e+002 -2.9108e+002  1.6978e+002 39057 94187,94291,94265
 1.1000e+000 94412 -1.3349e+002 -1.9049e+002  1.3288e+002 39057 94458,94386,94265
 1.1000e+000 94435 -1.9162e+002 -2.1512e+002  1.3473e+002 39057 94265,94386,94187
 1.1000e+000 94484 -2.1384e+002 -2.5212e+002  1.6775e+002 39057 94239,94386,94458
 1.1000e+000 94896 -4.7885e+002 -3.2341e+002  2.0681e+002 38396 94919,94775,94723
 1.1000e+000 94873 -5.2302e+002 -2.9697e+002  2.0654e+002 38396 94919,94723,94697
 1.1000e+000 94850 -3.6610e+002 -2.8555e+002  1.5627e+002 38396 94723,94775,94749
 1.1000e+000 94827 -2.2863e+002 -1.8641e+002  1.7140e+002 38396 94671,94801,94697
 1.1000e+000 94945 -4.6395e+002 -3.0602e+002  1.9857e+002 38396 94801,94775,94919
 1.1000e+000 94968 -4.9032e+002 -2.6742e+002  1.9220e+002 38396 94801,94919,94697
 1.1000e+000 95265 -4.1586e+002 -4.6589e+002  2.0850e+002 37835 95017,95069,95043
 1.1000e+000 95242 -4.1299e+002 -3.9294e+002  2.0820e+002 37835 95288,95069,95017
 1.1000e+000 95219 -4.4599e+002 -4.4306e+002  2.8381e+002 37835 95288,95017,94991
 1.1000e+000 95196 -5.1470e+002 -4.8972e+002  2.6235e+002 37835 94991,95147,95121
 1.1000e+000 95173 -3.0306e+002 -2.1745e+002  1.8939e+002 37835 95069,95121,95095
 1.1000e+000 95314 -4.0931e+002 -2.8379e+002  1.6123e+002 37835 95121,95069,95288
 1.1000e+000 95337 -4.4007e+002 -3.5667e+002  2.3136e+002 37835 95121,95288,94991
 1.1000e+000 95558 -2.5733e+001 -1.8500e+002  9.4599e+001 37423 95408,95460,95434
 1.1000e+000 95535 -1.7609e+002 -6.4052e+002  2.6705e+002 37423 95382,95460,95408
 1.1000e+000 95512 -3.2511e+002 -7.5674e+002  3.1751e+002 37423 95382,95486,95460
 1.1000e+000 95891 -2.3061e+002 -5.3938e+002  3.0689e+002 37225 95666,95718,95692
 1.1000e+000 95868 -3.8676e+002 -4.9199e+002  3.5240e+002 37225 95666,95796,95718
 1.1000e+000 95845 -2.3287e+002 -4.1868e+002  1.2927e+002 37225 95718,95770,95744
 1.1000e+000 95822 -2.6891e+002 -3.3906e+002  2.0994e+002 37225 95718,95796,95770
 1.1000e+000 95992 -9.7290e+001 -3.4010e+002  1.1651e+002 36735 95914,95966,95940
 1.1000e+000 96142 -4.8896e+002 -2.8924e+002  2.5531e+002 36331 96297,96067,96041
 1.1000e+000 96119 -4.2674e+002 -2.3154e+002  2.9782e+002 36331 96165,96041,96015
 1.1000e+000 96191 -4.7851e+002 -2.7544e+002  2.7907e+002 36331 96297,96041,96165
 1.1000e+000 96323 -5.0284e+002 -2.5371e+002  2.9070e+002 36331 96093,96067,96297
 1.1000e+000 96346 -4.5662e+002 -2.2298e+002  3.1950e+002 36331 96093,96297,96165
 1.1000e+000 96714 -3.4263e+002 -5.4708e+002  3.0715e+002 36041 96737,96495,96443
 1.1000e+000 96691 -4.5771e+002 -4.3070e+002  3.1456e+002 36041 96737,96443,96417
 1.1000e+000 96668 -2.5460e+002 -5.6250e+002  1.6791e+002 36041 96443,96495,96469
 1.1000e+000 96645 -1.1932e+002 -2.1561e+002  1.8501e+002 36041 96391,96521,96417
 1.1000e+000 96622 -5.9694e+001 -2.1902e+002  1.6449e+002 36041 96391,96547,96521
 1.1000e+000 96599 -5.1696e+001 -2.1130e+002  1.5913e+002 36041 96391,96573,96547
 1.1000e+000 96763 -1.8050e+002 -4.4540e+002  2.6308e+002 36041 96521,96495,96737
 1.1000e+000 96786 -3.9546e+002 -4.0552e+002  2.9539e+002 36041 96521,96737,96417
 1.1000e+000 96936 -2.2520e+002 -1.5408e+002  1.7221e+002 35637 97031,96959,96835
 1.1000e+000 96913 -2.6385e+002 -1.5591e+002  1.8346e+002 35637 97163,96959,96809
 1.1000e+000 96985 -2.7107e+002 -1.4642e+002  1.8525e+002 35637 96861,96835,96959
 1.1000e+000 97008 -3.2751e+002 -2.0763e+002  2.5929e+002 35637 96861,96959,96887
 1.1000e+000 97057 -2.2040e+002 -9.8731e+001  1.3064e+002 35637 96809,96959,97031
 1.1000e+000 97189 -2.3551e+002 -1.5419e+002  1.8805e+002 35637 96887,96959,97163
 1.1000e+000 97597 -1.8237e+002 -2.4092e+002  1.9717e+002 35190 97450,97502,97476
 1.1000e+000 97574 -1.9930e+002 -3.2329e+002  2.5887e+002 35190 97372,97502,97450
 1.1000e+000 97551 -2.0619e+002 -3.6773e+002  2.4628e+002 35190 97372,97450,97398
 1.1000e+000 97528 -1.5036e+002 -3.1456e+002  1.9599e+002 35190 97398,97450,97424
 1.1000e+000 98054 -3.2483e+002 -4.1898e+002  2.7321e+002 34636 97806,97936,97858
 1.1000e+000 98031 -4.6065e+002 -2.9273e+002  2.5339e+002 34636 97780,97936,97806
 1.1000e+000 98008 -4.3782e+002 -4.1061e+002  1.6877e+002 34636 97806,97858,97832
 1.1000e+000 97985 -3.5359e+002 -4.2052e+002  3.0448e+002 34636 97884,97936,97910
 1.1000e+000 97962 -2.3092e+002 -2.8126e+002  2.2407e+002 34636 97858,97936,97884
 1.1000e+000 98530 -2.4451e+002  1.1718e+002  8.2554e+001 34068 98697,98184,98366
 1.1000e+000 98507  7.1605e+000  2.2625e+001 -1.2179e+001 34068 98158,98366,98184
 1.1000e+000 98484 -3.1618e+002 -2.9024e+002  1.4126e+002 34068 98553,98262,98236
 1.1000e+000 98461 -3.6160e+002 -3.4445e+002  1.0745e+002 34068 98553,98236,98210
 1.1000e+000 98438 -3.1164e+002 -1.3209e+002  1.4211e+002 34068 98841,98625,98366
 1.1000e+000 98415 -3.0118e+002 -4.5813e+002  2.1852e+002 34068 98769,98288,98262
 1.1000e+000 98392 -4.1961e+002 -4.8624e+001  1.3328e+002 34068 98841,98366,98340
 1.1000e+000 98579 -3.5720e+002 -3.5437e+002  1.6492e+002 34068 98769,98262,98553
 1.1000e+000 98602 -2.8847e+002 -1.7467e+002  1.4443e+002 34068 98625,98314,98553
 1.1000e+000 98651 -2.8903e+002 -1.1219e+002  1.1625e+002 34068 98697,98366,98625
 1.1000e+000 98674 -3.5519e+002 -3.3066e+002  1.4628e+002 34068 98210,98625,98553
 1.1000e+000 98723 -3.5366e+002 -1.5997e+002  1.2835e+002 34068 98210,98184,98697
 1.1000e+000 98746 -3.1255e+002 -2.1241e+002  1.7918e+002 34068 98210,98697,98625
 1.1000e+000 98795 -1.8536e+002 -3.5033e+002  1.5345e+002 34068 98314,98288,98769
 1.1000e+000 98818 -2.6180e+002 -2.7658e+002  1.0329e+002 34068 98314,98769,98553
 1.1000e+000 98867 -4.1155e+002 -2.1861e+002  1.0474e+002 34068 98314,98625,98841
 1.1000e+000 98890 -5.1697e+002 -1.2542e+002  9.9701e+001 34068 98314,98841,98340
 1.1000e+000 99268 -4.5625e+002 -4.4554e+002  3.1053e+002 33450 99291,99098,99072
 1.1000e+000 99245 -5.1480e+002 -3.4716e+002  1.7234e+002 33450 99291,99072,99020
 1.1000e+000 99222 -7.5724e+002 -4.1510e+002  2.7017e+002 33450 99020,99072,99046
 1.1000e+000 99199 -3.9252e+002 -3.2329e+002  1.6237e+002 33450 99020,99150,99124
 1.1000e+000 99176 -4.0184e+002 -2.8361e+002  4.7917e+001 33450 98994,99150,99020
 1.1000e+000 99317 -2.2748e+002 -3.4962e+002  3.0018e+002 33450 99124,99098,99291
 1.1000e+000 99340 -4.3662e+002 -3.2778e+002  1.7942e+002 33450 99124,99291,99020
 1.1000e+000 99865 -3.3621e+002 -3.2375e+002  1.9873e+002 32944 100176,99960,99888
 1.1000e+000 99842 -3.7820e+002 -3.1478e+002  2.0257e+002 32944 100104,99888,99522
 1.1000e+000 99819 -3.1489e+002 -3.0408e+002  2.3259e+002 32944 100248,99960,99626
 1.1000e+000 99796 -3.4648e+002 -3.7069e+002  1.4018e+002 32944 100032,99652,99626
 1.1000e+000 99773 -3.2619e+002 -3.1984e+002  1.5730e+002 32944 100104,99522,99496
 1.1000e+000 99750 -2.3947e+002 -2.6079e+002  3.5937e+001 32944 99574,99626,99600
 1.1000e+000 99727 -2.5349e+002 -3.0479e+002  2.5444e+002 32944 100248,99626,99574
 1.1000e+000 99704 -2.3765e+002 -2.9608e+002  1.6798e+002 32944 99444,99496,99470
 1.1000e+000 99914 -3.5374e+002 -3.0802e+002  1.5831e+002 32944 100176,99888,100032
 1.1000e+000 99937 -3.7976e+002 -2.7698e+002  1.9725e+002 32944 99678,99888,99444
 1.1000e+000 99986 -3.7094e+002 -2.7929e+002  1.9763e+002 32944 99522,99888,99960
 1.1000e+000 100009 -3.7748e+002 -2.4004e+002  2.2590e+002 32944 99522,99960,99548
 1.1000e+000 100058 -3.7601e+002 -3.9772e+002  1.2828e+002 32944 99678,99652,100032
 1.1000e+000 100081 -4.1145e+002 -3.5825e+002  1.2938e+002 32944 99678,100032,99888
 1.1000e+000 100130 -2.8502e+002 -2.9182e+002  1.9515e+002 32944 99444,99888,100104
 1.1000e+000 100153 -2.5354e+002 -3.1695e+002  1.5602e+002 32944 99444,100104,99496
 1.1000e+000 100202 -3.7158e+002 -3.8777e+002  1.8255e+002 32944 99626,99960,100176
 1.1000e+000 100225 -3.8587e+002 -3.8614e+002  1.4539e+002 32944 99626,100176,100032
 1.1000e+000 100274 -4.0389e+002 -3.0298e+002  2.1582e+002 32944 99548,99960,100248
 1.1000e+000 100297 -3.4889e+002 -3.0877e+002  2.3734e+002 32944 99548,100248,99574
 1.1000e+000 100754 -1.9882e+002 -2.0169e+002  9.0976e+001 32369 100777,100584,100506
 1.1000e+000 100731 -1.7732e+002 -2.8342e+002  1.8271e+002 32369 100777,100506,100636
 1.1000e+000 100708 -3.1488e+002 -2.9015e+002  1.9491e+002 32369 100480,100636,100506
 1.1000e+000 100685 -3.8639e+002 -2.6855e+002  5.8834e+001 32369 100532,100584,100558
 1.1000e+000 100662 -2.1166e+002 -2.3230e+002  9.3593e+001 32369 100506,100584,100532
 1.1000e+000 100803 -1.9771e+002 -6.6380e+001  8.7547e+001 32369 100610,100584,100777
 1.1000e+000 100826 -1.7222e+002 -1.6065e+002  1.6598e+002 32369 100610,100777,100636
 1.1000e+000 101025 -3.1306e+002 -2.6748e+002  2.5409e+002 31857 100875,100927,100901
 1.1000e+000 101002 -5.6941e+002 -2.5432e+002  2.3285e+002 31857 100875,100953,100927
 1.1000e+000 100979 -6.0304e+002 -3.0568e+002  1.9399e+002 31857 100849,100953,100875
 1.1000e+000 101533 -2.5768e+002 -3.1609e+002  2.3951e+002 31253 101556,101314,101236
 1.1000e+000 101510 -3.6613e+002 -3.6223e+002  2.5354e+002 31253 101556,101236,101210
 1.1000e+000 101487 -3.4892e+002 -3.3896e+002  1.1424e+002 31253 101210,101392,101340
 1.1000e+000 101464 -1.8633e+002 -3.0135e+002  1.9714e+002 31253 101236,101288,101262
 1.1000e+000 101441 -2.2138e+002 -4.0155e+002  2.1027e+002 31253 101236,101314,101288
 1.1000e+000 101418 -3.2823e+002 -3.5407e+002  1.8925e+002 31253 101340,101392,101366
 1.1000e+000 101582 -2.8560e+002 -2.6394e+002  1.3773e+002 31253 101340,101314,101556
 1.1000e+000 101605 -3.9793e+002 -3.1160e+002  1.5589e+002 31253 101340,101556,101210
 1.1000e+000 101755  8.1071e+001  1.0793e+002  1.5347e+002 30519 101778,101654,101628
 1.1000e+000 101732 -1.0420e+002  2.1500e+002  2.2213e+001 30519 101850,101778,101628
 1.1000e+000 101804 -8.6532e+001 -1.6308e+002  7.8064e+001 30519 101680,101654,101778
 1.1000e+000 101827 -1.4576e+002  7.8914e+001  4.2648e+001 30519 101680,101778,101706
 1.1000e+000 101876 -1.9756e+002 -2.6867e+000  1.5645e+001 30519 101706,101778,101850
 1.1000e+000 102561 -2.5166e+002 -3.6309e+002  1.7252e+002 29951 102656,102584,102270
 1.1000e+000 102538 -5.5034e+002 -6.7851e+002  1.4870e+002 29951 102584,102140,102374
 1.1000e+000 102515 -3.6415e+002 -6.7506e+002  3.1802e+002 29951 102728,102656,102270
 1.1000e+000 102492 -3.6422e+002 -7.9793e+002  3.1014e+002 29951 102728,102270,102244
 1.1000e+000 102469 -4.5101e+002 -1.1545e+002  2.0921e+002 29951 102800,102322,102296
 1.1000e+000 102446 -5.0293e+002 -3.9373e+002  9.7199e+001 29951 102166,102218,102192
 1.1000e+000 102423 -3.9727e+002 -3.9378e+002  7.2278e+001 29951 102166,102244,102218
 1.1000e+000 102400 -2.6970e+002 -3.0668e+002  1.8695e+002 29951 102322,102374,102348
 1.1000e+000 102610 -5.4849e+002 -2.8803e+002  1.0600e+002 29951 102296,102270,102584
 1.1000e+000 102633 -5.8479e+002 -3.0166e+002  1.4496e+002 29951 102800,102296,102584
 1.1000e+000 102682 -6.0308e+002 -5.9568e+002  2.9986e+002 29951 102140,102584,102656
 1.1000e+000 102705 -4.2245e+002 -6.1508e+002  4.0352e+002 29951 102140,102656,102166
 1.1000e+000 102754 -3.5708e+002 -5.3058e+002  3.7182e+002 29951 102166,102656,102728
 1.1000e+000 102777 -3.6595e+002 -6.3728e+002  3.3826e+002 29951 102166,102728,102244
 1.1000e+000 102826 -3.2440e+002 -3.2303e+002  3.0027e+002 29951 102374,102322,102800
 1.1000e+000 102849 -3.7523e+002 -3.7364e+002  2.7043e+002 29951 102374,102800,102584
 1.1000e+000 103048 -5.7070e+001 -2.3789e+002  1.2623e+002 29454 102872,102924,102898
 1.1000e+000 103025 -1.3368e+002 -2.8079e+002  1.5001e+002 29454 102872,102976,102924
 1.1000e+000 103002 -1.2392e+002 -5.0244e+002  2.3354e+002 29454 102924,102976,102950
 1.1000e+000 103296 -5.1041e+002 -3.7209e+002  2.8152e+002 29064 103319,103175,103123
 1.1000e+000 103273 -6.5631e+002 -3.7864e+002  3.1584e+002 29064 103319,103123,103071
 1.1000e+000 103250 -3.0856e+002 -2.2653e+002  2.0747e+002 29064 103123,103175,103149
 1.1000e+000 103227 -5.0851e+002 -3.1402e+002  3.7717e+002 29064 103071,103123,103097
 1.1000e+000 103345 -3.7248e+002 -4.0550e+002  2.1325e+002 29064 103201,103175,103319
 1.1000e+000 103368 -5.6143e+002 -3.9510e+002  1.9430e+002 29064 103201,103319,103071
 1.1000e+000 104006 -4.2928e+002 -2.2469e+002  1.6888e+002 28603 104101,104029,103712
 1.1000e+000 103983 -4.0662e+002 -1.5750e+002  1.5111e+002 28603 104173,104029,103660
 1.1000e+000 103960 -5.1973e+002 -1.8409e+002  1.6204e+002 28603 104101,103712,103686
 1.1000e+000 103937 -3.4899e+002 -2.3189e+002  1.3233e+002 28603 104173,103660,103634
 1.1000e+000 103914 -4.0249e+002 -2.6003e+002  2.1649e+002 28603 103764,103816,103790
 1.1000e+000 103891 -3.4105e+002 -2.5562e+002  2.3586e+002 28603 103634,103842,103816
 1.1000e+000 103868 -3.0530e+002 -1.2931e+002  2.0100e+002 28603 103712,103764,103738
 1.1000e+000 104055 -4.0093e+002 -1.6784e+002  1.5921e+002 28603 103764,103712,104029
 1.1000e+000 104078 -3.9749e+002 -1.9414e+002  2.1907e+002 28603 103764,104029,103816
 1.1000e+000 104127 -5.5235e+002 -2.1511e+002  1.3374e+002 28603 103660,104029,104101
 1.1000e+000 104150 -6.9412e+002 -2.0754e+002  1.5237e+002 28603 103660,104101,103686
 1.1000e+000 104199 -4.5374e+002 -2.3018e+002  1.7255e+002 28603 103816,104029,104173
 1.1000e+000 104222 -3.8693e+002 -2.8492e+002  1.5279e+002 28603 103816,104173,103634
 1.1000e+000 104600 -1.9638e+002 -3.7894e+002  8.8811e+001 28348 104623,104378,104326
 1.1000e+000 104577 -1.5574e+002 -3.9938e+002  1.5648e+002 28348 104623,104326,104482
 1.1000e+000 104554 -1.8307e+002 -2.5102e+002  7.4954e+001 28348 104326,104378,104352
 1.1000e+000 104531 -1.9602e+002  3.3132e+000  1.3650e+001 28348 104404,104456,104430
 1.1000e+000 104508 -2.4731e+002 -1.7754e+002  1.4429e+002 28348 104378,104456,104404
 1.1000e+000 104649 -1.6398e+002 -3.1832e+002  1.1580e+002 28348 104456,104378,104623
 1.1000e+000 104672 -1.1137e+002 -3.2691e+002  1.8550e+002 28348 104456,104623,104482
 1.1000e+000 104991 -4.3509e+002 -4.5282e+002  3.2211e+002 27951 104717,104847,104769
 1.1000e+000 104968 -1.3284e+002 -3.1688e+002  2.9159e+002 27951 104717,104873,104847
 1.1000e+000 104945 -1.5995e+002 -3.8560e+002  3.4213e+002 27951 104769,104847,104795
 1.1000e+000 104922  2.6888e+000  1.9807e+001  3.2400e+002 27951 104795,104847,104821
 1.1000e+000 104899 -3.8128e+002 -3.0642e+002  3.2781e+002 27951 104717,104769,104743
 1.1000e+000 105371 -3.3317e+002 -1.7576e+002  2.1506e+002 27447 105394,105201,105123
 1.1000e+000 105348 -3.6800e+002 -1.8255e+002  2.2407e+002 27447 105394,105123,105097
 1.1000e+000 105325 -5.9772e+002 -2.2693e+002  2.2726e+002 27447 105123,105201,105149
 1.1000e+000 105302 -3.5003e+002 -2.9957e+002  1.9859e+002 27447 105201,105253,105227
 1.1000e+000 105279 -2.8789e+002 -4.4077e+002  2.1055e+001 27447 105149,105201,105175
 1.1000e+000 105420 -3.0845e+002 -1.7997e+002  1.9608e+002 27447 105253,105201,105394
 1.1000e+000 105443 -3.4583e+002 -1.8430e+002  2.0215e+002 27447 105253,105394,105097
 1.1000e+000 105998 -3.7086e+002 -2.9250e+002  2.8817e+002 27100 106165,106021,105704
 1.1000e+000 105975 -2.0207e+002 -1.6625e+002  2.5477e+002 27100 106309,106021,105652
 1.1000e+000 105952 -6.9051e+002 -4.9740e+002  4.8011e+002 27100 106093,105808,105782
 1.1000e+000 105929 -3.7389e+002 -2.9892e+002  2.8909e+002 27100 106165,105704,105678
 1.1000e+000 105906 -2.1493e+002 -3.2279e+002  2.2314e+002 27100 106237,105730,105704
 1.1000e+000 105883 -1.9342e+002 -2.9108e+002  1.7549e+002 27100 106309,105652,105626
 1.1000e+000 105860 -1.5981e+002  1.5912e+000  5.4688e+001 27100 105730,105782,105756
 1.1000e+000 106047 -3.3704e+002 -1.9205e+002  2.8448e+002 27100 106237,105704,106021
 1.1000e+000 106070 -4.0144e+002 -2.3812e+002  3.6190e+002 27100 106093,105782,106021
 1.1000e+000 106119 -2.8770e+002 -4.0052e+002  2.4633e+002 27100 105834,105808,106093
 1.1000e+000 106142 -3.1470e+002 -5.0439e+002  3.2071e+002 27100 106381,106093,106021
 1.1000e+000 106191 -3.7694e+002 -2.7560e+002  3.0275e+002 27100 105652,106021,106165
 1.1000e+000 106214 -3.9078e+002 -3.0182e+002  3.0816e+002 27100 105652,106165,105678
 1.1000e+000 106263 -1.0220e+002 -1.8964e+002  1.7350e+002 27100 105782,105730,106237
 1.1000e+000 106286 -2.4993e+002 -9.4247e+001  2.4535e+002 27100 105782,106237,106021
 1.1000e+000 106335 -2.7397e+002 -3.4164e+002  2.6943e+002 27100 106381,106021,106309
 1.1000e+000 106358 -1.9680e+002 -2.7354e+002  1.7101e+002 27100 105834,106309,105626
 1.1000e+000 106407 -2.2740e+002 -3.1677e+002  2.1147e+002 27100 105834,106093,106381
 1.1000e+000 106430 -2.3301e+002 -2.8444e+002  1.5375e+002 27100 105834,106381,106309
 1.1000e+000 106629 -5.6025e+001 -3.4669e+002  8.4573e+001 26688 106479,106557,106531
 1.1000e+000 106606 -4.9051e+000 -1.1836e+002  1.1959e+002 26688 106453,106557,106479
 1.1000e+000 106583 -1.6200e+002 -3.7871e+002  4.4811e+001 26688 106479,106531,106505
 1.1000e+000 107088 -1.5701e+002 -1.7195e+002  9.2947e+001 26248 107111,106918,106866
 1.1000e+000 107065 -1.8322e+002 -1.5337e+002  1.1895e+002 26248 107111,106866,106840
 1.1000e+000 107042 -1.9135e+002 -1.4040e+002  1.1343e+002 26248 106814,106970,106840
 1.1000e+000 107019 -1.4426e+002 -2.4867e+002  1.2573e+002 26248 106866,106918,106892
 1.1000e+000 106996 -3.1675e+002 -2.5274e+002  9.6654e+001 26248 106918,106970,106944
 1.1000e+000 107137 -2.0145e+002 -2.0225e+002  7.5989e+001 26248 106970,106918,107111
 1.1000e+000 107160 -2.0133e+002 -1.6384e+002  1.0661e+002 26248 106970,107111,106840
 1.1000e+000 107666 -5.1066e+002 -2.2386e+002  1.4289e+002 25908 107369,107499,107395
 1.1000e+000 107643 -6.8328e+002 -6.4916e+002  3.0802e+002 25908 107369,107525,107499
 1.1000e+000 107620 -4.2344e+002 -2.7431e+002  2.3040e+002 25908 107395,107473,107447
 1.1000e+000 107597 -3.7160e+002 -1.5594e+002  1.7627e+002 25908 107395,107499,107473
 1.1000e+000 107574 -6.9568e+002 -3.4084e+002  4.8509e+002 25908 107395,107447,107421
 1.1000e+000 107551 -3.1278e+002 -4.9659e+002  3.0992e+002 25908 107343,107525,107369
 1.1000e+000 108251 -4.0737e+002 -1.2563e+002  2.2115e+002 25454 108274,108006,107954
 1.1000e+000 108228 -3.2374e+002 -6.8820e+001  1.8739e+002 25454 108274,107954,108110
 1.1000e+000 108205 -2.8959e+002 -3.0127e+002  2.6438e+002 25454 108346,108032,108006
 1.1000e+000 108182 -5.1156e+002 -2.0910e+002  2.8423e+002 25454 107954,108006,107980
 1.1000e+000 108159 -1.8495e+002 -1.9435e+002  1.6623e+002 25454 107928,108110,107954
 1.1000e+000 108136 -5.5246e+002 -5.2680e+002  3.2193e+002 25454 108058,108110,108084
 1.1000e+000 108300 -3.8529e+002 -2.0561e+002  2.6820e+002 25454 108346,108006,108274
 1.1000e+000 108323 -3.3599e+002 -1.1741e+002  2.1557e+002 25454 108058,108274,108110
 1.1000e+000 108372 -1.6795e+002 -1.9471e+002  2.1930e+002 25454 108058,108032,108346
 1.1000e+000 108395 -2.7454e+002 -8.9854e+001  2.2102e+002 25454 108058,108346,108274
 1.1000e+000 108822 -2.8798e+002 -1.2833e+002  1.7208e+002 24943 108525,108681,108655
 1.1000e+000 108799 -3.7451e+002 -1.9792e+002  9.3564e+001 24943 108499,108681,108525
 1.1000e+000 108776 -1.3310e+002 -7.0575e+001  1.1296e+002 24943 108525,108655,108629
 1.1000e+000 108753 -3.1764e+002 -9.7820e+001  1.2462e+002 24943 108525,108629,108603
 1.1000e+000 108730 -4.1022e+002 -1.5080e+002  1.5036e+002 24943 108551,108603,108577
 1.1000e+000 108707 -4.7765e+002 -2.8521e+002  2.2057e+002 24943 108525,108603,108551
 1.1000e+000 109407 -1.8893e+001 -7.7096e+001  3.8441e+001 24745 109162,109214,109188
 1.1000e+000 109384 -1.6508e+002 -6.1091e+001  6.5019e+001 24745 109162,109266,109214
 1.1000e+000 109361 -1.9805e+002 -6.4243e+001  2.8846e+001 24745 109084,109266,109162
 1.1000e+000 109338 -2.8359e+002 -4.3218e+001  6.2667e+001 24745 109084,109162,109136
 1.1000e+000 109315 -6.4180e+001 -1.2248e+002  7.4742e+001 24745 109214,109266,109240
 1.1000e+000 109292 -1.9923e+002 -6.2174e+001  1.1119e+002 24745 109084,109136,109110
 1.1000e+000 109785 -5.9370e+002 -2.9099e+002  3.4117e+002 24341 109537,109615,109563
 1.1000e+000 109762 -7.6977e+001 -1.6975e+002  3.2053e+002 24341 109537,109641,109615
 1.1000e+000 109739 -3.9535e+002 -2.9758e+002  2.5996e+002 24341 109563,109615,109589
 1.1000e+000 109716 -2.6626e+002 -2.8407e+002  2.1578e+002 24341 109537,109667,109641
 1.1000e+000 109693 -1.3509e+002 -3.1160e+002  2.0284e+002 24341 109511,109667,109537
 1.1000e+000 110163 -5.2615e+002 -2.8364e+002  3.5862e+002 23837 110186,109967,109915
 1.1000e+000 110140 -5.2316e+002 -2.8435e+002  3.6054e+002 23837 110186,109915,109889
 1.1000e+000 110117 -2.2368e+002 -1.0676e+002  2.6546e+002 23837 109889,110045,109993
 1.1000e+000 110094 -4.9099e+002 -4.9337e+002  2.4563e+002 23837 109915,109967,109941
 1.1000e+000 110071 -3.0008e+002 -8.7720e+000  5.0759e+001 23837 109993,110045,110019
 1.1000e+000 110212 -5.2412e+002 -2.8162e+002  3.5984e+002 23837 109993,109967,110186
 1.1000e+000 110235 -5.2260e+002 -2.8237e+002  3.6175e+002 23837 109993,110186,109889
 1.1000e+000 110336 -3.3249e+002 -7.4816e+002  3.6716e+002 23433 110258,110310,110284
 1.1000e+000 110584 -4.4639e+002 -2.8719e+002  1.9897e+002 22829 110607,110411,110385
 1.1000e+000 110561 -5.1740e+002 -3.2031e+002  2.3247e+002 22829 110607,110385,110489
 1.1000e+000 110538 -4.1814e+002 -2.8478e+002  1.6162e+002 22829 110437,110489,110463
 1.1000e+000 110515 -3.7922e+002 -1.6453e+002  2.9153e+002 22829 110359,110489,110385
 1.1000e+000 110633 -4.5110e+002 -2.5523e+002  1.4732e+002 22829 110437,110411,110607
 1.1000e+000 110656 -4.9050e+002 -2.8491e+002  1.7941e+002 22829 110437,110607,110489
 1.1000e+000 110906 -8.1490e+002 -3.4113e+002  2.2534e+002 22432 110707,110759,110733
 1.1000e+000 110883 -5.3779e+002 -3.6292e+002  1.8351e+002 22432 110707,110785,110759
 1.1000e+000 110860 -5.2572e+002 -3.2038e+002  2.9394e+002 22432 110707,110811,110785
 1.1000e+000 110837 -6.3901e+002 -4.5178e+002  2.3914e+002 22432 110681,110811,110707
 1.1000e+000 111288 -7.5179e+001 -1.7225e+002  1.5299e+002 22142 111092,111144,111118
 1.1000e+000 111265 -2.2337e+002 -1.7703e+002  1.3340e+002 22142 111066,111144,111092
 1.1000e+000 111242 -2.0205e+002 -1.3571e+002  1.2098e+002 22142 111040,111144,111066
 1.1000e+000 111219 -3.6789e+002 -4.7291e+001  8.7784e+001 22142 111014,111144,111040
 1.1000e+000 111196 -2.2187e+002  1.1259e+001  8.4506e+001 22142 111014,111170,111144
 1.1000e+000 111389 -9.0656e+000 -7.8905e+001  1.9663e+002 21830 111311,111363,111337
 1.1000e+000 111735 -4.3337e+002  2.3661e+001  3.6804e+002 21268 111758,111542,111438
 1.1000e+000 111712 -3.1022e+002  5.4233e+001  2.2720e+002 21268 111758,111438,111412
 1.1000e+000 111689 -1.4501e+002 -2.6379e+002  4.6231e+002 21268 111438,111542,111464
 1.1000e+000 111666  1.2222e+002 -1.2609e+002  5.9498e+002 21268 111464,111542,111490
 1.1000e+000 111643 -7.5975e+002 -4.1729e+002  3.9433e+002 21268 111412,111594,111568
 1.1000e+000 111620  5.0946e+002  3.0949e+002  7.7359e+002 21268 111490,111542,111516
 1.1000e+000 111784 -4.5690e+002 -5.8135e+001  3.6778e+002 21268 111568,111542,111758
 1.1000e+000 111807 -4.4125e+002 -2.3482e+002  2.7274e+002 21268 111568,111758,111412
 1.1000e+000 111959 -4.5926e+002 -5.8804e+001  1.6377e+002 20864 111982,111910,111884
 1.1000e+000 111936 -3.8208e+002 -7.5297e+001  2.5740e+002 20864 112114,111832,111910
 1.1000e+000 112008 -4.3461e+002 -1.7221e+002  2.1879e+002 20864 112114,111910,111982
 1.1000e+000 112140 -3.6256e+002 -1.9221e+002  1.9084e+002 20864 111858,111832,112114
 1.1000e+000 112163 -4.2063e+002 -3.0715e+002  1.5416e+002 20864 111858,112114,111982
 1.1000e+000 112411 -3.6101e+001 -8.1526e+000  1.3299e+001 20324 112186,112290,112212
 1.1000e+000 112388 -1.1404e+000 -3.0983e+000  2.3310e+001 20324 112186,112316,112290
 1.1000e+000 112365  2.2918e+002 -1.4221e+002  1.5311e+001 20324 112212,112290,112264
 1.1000e+000 112342 -7.3192e+002 -3.1327e+002 -5.2340e+001 20324 112212,112264,112238
 1.1000e+000 112659 -1.3586e+002 -4.8649e+001  2.4805e+002 19920 112512,112564,112538
 1.1000e+000 112636 -2.7857e+002 -1.6182e+002  1.9151e+002 19920 112434,112564,112512
 1.1000e+000 112613 -2.8593e+002 -1.8147e+002  1.9162e+002 19920 112434,112512,112460
 1.1000e+000 112590 -2.9870e+002 -1.8758e+002  1.9585e+002 19920 112460,112512,112486
 1.1000e+000 112811 -1.5732e+002 -6.4018e+001  1.4789e+002 19630 112684,112736,112710
 1.1000e+000 112788  7.0495e+000 -1.4434e+002  6.5308e+001 19630 112684,112762,112736
 1.1000e+000 113012 -2.2296e+002 -8.3400e+001  2.7876e+002 19169 112862,112940,112888
 1.1000e+000 112989 -4.5980e+002 -3.6082e+002  1.6847e+002 19169 112836,112940,112862
 1.1000e+000 112966 -2.3516e+002 -3.3715e+002  2.5300e+002 19169 112888,112940,112914
 1.1000e+000 113213 -6.1261e+002 -2.4747e+002  3.0826e+002 18600 113037,113089,113063
 1.1000e+000 113190 -4.5830e+002 -2.0490e+002  2.7101e+002 18600 113037,113115,113089
 1.1000e+000 113167 -6.8475e+002 -4.2344e+002  4.1462e+002 18600 113037,113141,113115
 1.1000e+000 113485 -2.8347e+002 -1.0956e+002  2.7594e+002 18352 113260,113312,113286
 1.1000e+000 113462 -5.6075e+002 -3.3404e+002  3.7365e+002 18352 113260,113390,113312
 1.1000e+000 113439 -5.2766e+002 -1.2218e+002  2.8575e+002 18352 113312,113390,113364
 1.1000e+000 113416 -2.5159e+002 -9.4134e+001  2.9570e+002 18352 113312,113364,113338
 1.1000e+000 113757 -4.0515e+002 -1.6074e+002  2.8637e+002 17834 113558,113610,113584
 1.1000e+000 113734 -5.7267e+002 -3.1075e+002  3.6354e+002 17834 113532,113610,113558
 1.1000e+000 113711 -5.9233e+002 -3.8580e+002  2.9897e+002 17834 113532,113662,113610
 1.1000e+000 113688 -3.0237e+002 -1.0266e+002  4.1432e+002 17834 113610,113662,113636
 1.1000e+000 113958 -3.6074e+002 -1.4807e+002  2.0419e+002 17330 113782,113834,113808
 1.1000e+000 113935 -2.0491e+002 -1.3786e+002  1.5500e+002 17330 113782,113886,113834
 1.1000e+000 113912 -2.5065e+002 -1.1706e+002  9.8411e+001 17330 113834,113886,113860
 1.1000e+000 114110 -5.8481e+002 -2.2830e+002  3.7521e+002 16874 113983,114035,114009
 1.1000e+000 114087 -2.2444e+002 -5.1710e+002  3.2123e+002 16874 113983,114061,114035
 1.1000e+000 114465 -5.5022e+002 -2.3307e+002  1.3201e+002 16270 114240,114292,114266
 1.1000e+000 114442 -3.7479e+002 -8.3158e+001  6.1553e+001 16270 114240,114370,114292
 1.1000e+000 114419 -1.8912e+002 -7.9180e+001  1.0990e+002 16270 114292,114344,114318
 1.1000e+000 114396 -3.9195e+002 -1.7923e+002  5.9865e+001 16270 114292,114370,114344
 1.1000e+000 114566 -2.7901e+001  2.7901e+001  5.0670e+002 15834 114488,114540,114514
 1.1000e+000 114667 -3.6448e+002 -1.4762e+002  2.3387e+002 15155 114589,114641,114615
 1.1000e+000 114890 -3.2010e+002 -1.2347e+002  2.9545e+002 421 114766,114818,114792
 1.1000e+000 114867 -4.5738e+002 -3.8146e+002  2.4236e+002 421 114714,114818,114766
 1.1000e+000 114844 -5.9560e+002 -2.5222e+002  1.3866e+002 421 114714,114766,114740
 1.2000e+000 66553 -4.5543e+002 -1.9829e+002  2.4379e+002 66108 66354,66458,66432
 1.2000e+000 66530 -4.6438e+002 -1.9528e+002  1.6101e+002 66108 66328,66458,66354
 1.2000e+000 66507 -2.5375e+002 -1.8293e+002  1.5553e+002 66108 66354,66432,66406
 1.2000e+000 66484  1.1878e+002  6.3885e+001  2.9017e+002 66108 66354,66406,66380
 1.2000e+000 66951 -2.9507e+002 -1.2341e+002  1.4071e+002 65910 66703,66833,66807
 1.2000e+000 66928 -4.6450e+001 -1.0535e+002  1.9896e+002 65910 66677,66833,66703
 1.2000e+000 66905 -1.4884e+002 -3.2018e+002  2.1159e+002 65910 66729,66781,66755
 1.2000e+000 66882 -5.3729e+002 -2.2349e+002  2.0761e+002 65910 66729,66807,66781
 1.2000e+000 66859 -3.8227e+002 -5.8286e+001  1.4340e+002 65910 66703,66807,66729
 1.2000e+000 67150 -3.9864e+002 -1.7092e+002  3.0382e+001 65712 67026,67078,67052
 1.2000e+000 67127 -5.0576e+002 -8.3694e+001  4.1905e+000 65712 66974,67078,67026
 1.2000e+000 67104 -1.3579e+003 -3.3875e+002 -7.2705e+001 65712 66974,67026,67000
 1.2000e+000 67481 -7.8021e+002 -1.7866e+002  2.8687e+002 65422 67282,67360,67334
 1.2000e+000 67458 -3.4695e+002 -1.1814e+002  4.4074e+002 65422 67282,67386,67360
 1.2000e+000 67435 -1.9989e+002  8.8474e+001  2.1828e+002 65422 67282,67334,67308
 1.2000e+000 67412 -1.5015e+001 -1.1858e+002  2.2983e+002 65422 67256,67386,67282
 1.2000e+000 68115 -1.9933e+002 -1.7983e+002  1.0298e+002 65018 67795,67925,67873
 1.2000e+000 68092 -2.4877e+002 -2.0334e+002  7.4156e+001 65018 67769,67925,67795
 1.2000e+000 68069 -1.6333e+002 -1.2783e+002  1.1886e+002 65018 67873,67925,67899
 1.2000e+000 68046 -3.4774e+002 -2.8993e+002  1.1159e+002 65018 67769,67951,67925
 1.2000e+000 68023 -2.9600e+002 -2.6307e+002  1.4730e+002 65018 67795,67873,67821
 1.2000e+000 68000 -3.1893e+002 -2.4698e+002  1.1936e+002 65018 67821,67873,67847
 1.2000e+000 67977 -5.8076e+002 -3.5252e+002  1.2333e+002 65018 67743,67951,67769
 1.2000e+000 68363 -1.9232e+002 -4.0889e+002  4.0656e+002 64820 68190,68242,68216
 1.2000e+000 68340 -3.9887e+002 -2.9165e+002  4.2610e+002 64820 68190,68268,68242
 1.2000e+000 68317 -2.2066e+002 -2.0604e+002  4.6481e+002 64820 68164,68268,68190
 1.2000e+000 68294 -8.3786e+002 -3.4074e+002  3.3898e+002 64820 68138,68268,68164
 1.2000e+000 68513 -3.4663e+002 -2.0148e+002  2.3955e+002 64366 68868,68536,68438
 1.2000e+000 68490 -2.2094e+002 -1.3770e+002  1.5083e+002 64366 68536,68412,68386
 1.2000e+000 68562 -5.1691e+002 -2.5677e+002  2.4683e+002 64366 68740,68536,68464
 1.2000e+000 68585 -3.1746e+002 -1.6938e+002  1.8843e+002 64366 68608,68536,68386
 1.2000e+000 68634 -4.0792e+002 -3.5654e+002  1.6096e+002 64366 68464,68536,68608
 1.2000e+000 68766 -3.2596e+002 -1.8005e+002  2.2264e+002 64366 68438,68536,68740
 1.2000e+000 68894 -3.0849e+002 -1.5319e+002  2.5635e+002 64366 68412,68536,68868
 1.2000e+000 69172  3.9214e+000 -3.9564e+002  8.1718e+001 64168 69022,69074,69048
 1.2000e+000 69149 -4.0379e+002 -1.6776e+002  1.8461e+002 64168 68996,69074,69022
 1.2000e+000 69126 -4.9474e+002 -3.6656e+002  1.1992e+002 64168 68996,69100,69074
 1.2000e+000 69371 -4.3513e+002 -1.5355e+002  3.0195e+002 63970 69466,69394,69273
 1.2000e+000 69348 -2.3129e+002 -1.2383e+002  1.0235e+002 63970 69394,69247,69221
 1.2000e+000 69325 -7.7495e+002 -3.2541e+002  2.0566e+002 63970 69195,69299,69221
 1.2000e+000 69420 -6.1985e+002 -2.5405e+002  3.7920e+002 63970 69299,69273,69394
 1.2000e+000 69443 -4.1350e+002 -3.1170e+002  2.1294e+002 63970 69299,69394,69221
 1.2000e+000 69492 -4.6178e+002 -1.9923e+002  2.9102e+002 63970 69247,69394,69466
 1.2000e+000 69904 -4.0804e+001 -8.3678e+001  5.1556e+001 63680 69705,69783,69731
 1.2000e+000 69881  3.1981e+000 -5.6441e+001  3.9287e+001 63680 69679,69783,69705
 1.2000e+000 69858 -9.3017e+001 -1.5150e+002  7.8022e+001 63680 69679,69809,69783
 1.2000e+000 69835 -8.9229e+001 -6.0384e+001  5.2758e+001 63680 69731,69783,69757
 1.2000e+000 70054 -1.5496e+001 -2.2470e+002  1.3589e+002 63476 70077,69953,69927
 1.2000e+000 70031  5.0436e+001 -9.5684e+001  1.9727e+002 63476 70077,69927,70005
 1.2000e+000 70103 -1.1288e+002 -1.3905e+002  8.1183e+001 63476 69979,69953,70077
 1.2000e+000 70126 -6.0156e+001 -2.3051e+001  1.3277e+002 63476 69979,70077,70005
 1.2000e+000 70325 -7.4080e+002 -3.1710e+002  3.3119e+002 63278 70149,70227,70175
 1.2000e+000 70302 -3.5855e+002 -1.3002e+002  3.8971e+002 63278 70149,70253,70227
 1.2000e+000 70279 -8.9980e+002 -4.4619e+002  1.9491e+002 63278 70175,70227,70201
 1.2000e+000 70597 -3.3869e+002  1.2106e+001  1.2720e+002 63080 70372,70476,70424
 1.2000e+000 70574 -1.6853e+002 -6.7286e+001  1.7827e+002 63080 70372,70502,70476
 1.2000e+000 70551 -5.2095e+002 -2.1457e+002  2.3499e+002 63080 70424,70476,70450
 1.2000e+000 70528 -7.6529e+002 -2.1818e+002  3.7804e+002 63080 70372,70424,70398
 1.2000e+000 70847 -2.7255e+001 -2.1770e+002  7.1114e+001 62740 70870,70648,70622
 1.2000e+000 70824 -1.7723e+002 -1.7684e+002  1.3482e+002 62740 70870,70622,70752
 1.2000e+000 70801 -6.7341e+001 -3.4794e+002  1.9421e+002 62740 70648,70726,70700
 1.2000e+000 70778 -6.7170e+001 -4.1954e+002  1.8741e+002 62740 70648,70700,70674
 1.2000e+000 70896 -1.7319e+002 -2.7172e+002  5.5039e+001 62740 70726,70648,70870
 1.2000e+000 70919 -2.4855e+002 -1.8644e+002  1.3706e+002 62740 70726,70870,70752
 1.2000e+000 71022 -3.3198e+001  3.3198e+001  5.5255e+002 62520 70944,70996,70970
 1.2000e+000 71223 -6.0979e+002 -2.8622e+002  3.9017e+002 62230 71073,71151,71099
 1.2000e+000 71200 -5.6114e+002 -2.6362e+002  3.9596e+002 62230 71047,71151,71073
 1.2000e+000 71177 -3.1267e+002 -4.9900e+002  3.1898e+002 62230 71099,71151,71125
 1.2000e+000 71861 -3.0584e+002 -3.8585e+002  2.9758e+000 61712 71515,71697,71671
 1.2000e+000 71838 -3.2480e+002 -4.2264e+002  6.0686e+001 61712 71489,71697,71515
 1.2000e+000 71815 -8.2719e+002 -4.0452e+002  2.3286e+002 61712 71884,71541,71515
 1.2000e+000 71792 -5.7190e+002 -2.5693e+002  1.7197e+002 61712 71884,71515,71671
 1.2000e+000 71769 -2.0509e+002 -5.2233e+002  2.0275e+002 61712 71541,71619,71593
 1.2000e+000 71746 -2.4384e+002 -6.7982e+002  6.2386e+001 61712 71619,71671,71645
 1.2000e+000 71723 -6.8368e+002 -8.0561e+002  4.2423e+002 61712 71541,71593,71567
 1.2000e+000 71910 -5.8672e+002 -5.5238e+002  3.3771e+002 61712 71619,71541,71884
 1.2000e+000 71933 -4.1602e+002 -4.5758e+002  2.9970e+002 61712 71619,71884,71671
 1.2000e+000 72230 -2.4635e+002 -7.7140e+001  3.8863e+001 61208 72253,72060,72008
 1.2000e+000 72207 -2.5177e+002 -6.1065e+001  3.0055e+001 61208 72253,72008,71982
 1.2000e+000 72184 -1.8622e+002 -3.3019e+001  3.0057e+001 61208 71982,72112,72086
 1.2000e+000 72161 -3.3482e+002 -6.4641e+001  8.3377e+001 61208 72008,72060,72034
 1.2000e+000 72138 -1.2347e+002 -3.9750e+001  6.7411e+001 61208 71956,72112,71982
 1.2000e+000 72279 -2.3326e+002 -6.5634e+001  3.3375e+001 61208 72086,72060,72253
 1.2000e+000 72302 -2.4558e+002 -5.5529e+001  2.6262e+001 61208 72086,72253,71982
 1.2000e+000 72761 -4.1194e+002 -2.2110e+002  1.9085e+002 60804 72487,72617,72513
 1.2000e+000 72738 -4.2445e+002 -2.8610e+002  1.9445e+002 60804 72487,72643,72617
 1.2000e+000 72715 -1.5551e+002 -2.1510e+002  1.8553e+002 60804 72565,72617,72591
 1.2000e+000 72692 -2.9773e+002 -1.7023e+002  1.8015e+002 60804 72513,72617,72565
 1.2000e+000 72669 -3.4567e+002 -2.2484e+002  2.6072e+002 60804 72513,72565,72539
 1.2000e+000 72911 -3.3198e+001  3.3198e+001  5.5255e+002 60556 72784,72836,72810
 1.2000e+000 72888  4.4949e+002  8.7851e+001  3.4382e+002 60556 72784,72862,72836
 1.2000e+000 73468 -1.8492e+002 -2.2993e+002  1.6431e+002 60244 73491,73226,73200
 1.2000e+000 73445 -3.3369e+002 -4.0393e+002  2.6270e+002 60244 73563,73491,73200
 1.2000e+000 73422 -5.2345e+002 -4.0882e+002  2.9114e+002 60244 73563,73200,73174
 1.2000e+000 73399 -2.1072e+002 -2.6863e+002  1.6312e+002 60244 73226,73278,73252
 1.2000e+000 73376 -3.7767e+002 -2.1892e+002  1.6707e+002 60244 73122,73304,73278
 1.2000e+000 73353 -4.0211e+002 -3.6382e+002  1.8419e+002 60244 73096,73304,73122
 1.2000e+000 73330 -6.8823e+002 -1.3360e+002  8.6503e+001 60244 73122,73174,73148
 1.2000e+000 73517 -4.6546e+002 -3.6497e+002  2.3728e+002 60244 73278,73226,73491
 1.2000e+000 73540 -3.8587e+002 -1.5332e+002  2.0198e+002 60244 73278,73491,73122
 1.2000e+000 73589 -6.8907e+002 -3.2400e+002  2.7430e+002 60244 73122,73491,73563
 1.2000e+000 73612 -8.8884e+002 -3.3993e+002  3.1440e+002 60244 73122,73563,73174
 1.2000e+000 73762 -3.4877e+002 -8.2325e+002  3.2863e+002 59875 73661,73713,73687
 1.2000e+000 73739 -4.7467e+002 -3.1844e+002  2.8542e+002 59875 73635,73713,73661
 1.2000e+000 74191 -1.2134e+002 -2.6338e+002  3.6608e+002 59478 74214,73894,73868
 1.2000e+000 74168 -2.9938e+002 -2.5290e+002  3.8896e+002 59478 74214,73868,74050
 1.2000e+000 74145 -1.6113e+002 -2.1562e+002  2.0511e+002 59478 73894,73946,73920
 1.2000e+000 74122 -2.6737e+002 -2.4497e+002  2.3275e+002 59478 73894,73998,73946
 1.2000e+000 74099 -8.7345e+002 -4.9729e+002  6.1178e+002 59478 73998,74050,74024
 1.2000e+000 74076 -3.5380e+002 -1.3119e+002  1.3484e+002 59478 73946,73998,73972
 1.2000e+000 74240 -2.8545e+002 -2.0875e+002  2.9179e+002 59478 73998,73894,74214
 1.2000e+000 74263 -4.5828e+002 -2.0739e+002  2.8623e+002 59478 73998,74214,74050
 1.2000e+000 74720 -3.6769e+002 -3.3196e+002  1.3515e+002 58774 74472,74602,74498
 1.2000e+000 74697 -3.8539e+002 -3.0706e+002  1.5076e+002 58774 74446,74602,74472
 1.2000e+000 74674 -3.7025e+002 -2.7654e+002  1.3931e+002 58774 74498,74576,74524
 1.2000e+000 74651 -3.7587e+002 -2.9965e+002  1.2304e+002 58774 74498,74602,74576
 1.2000e+000 74628 -3.9105e+002 -4.4027e+002  1.9496e+002 58774 74524,74576,74550
 1.2000e+000 75226 -3.1526e+002 -1.2055e+002  1.7145e+002 58270 74955,75085,75033
 1.2000e+000 75203 -2.5976e+002 -2.3920e+002  2.0135e+002 58270 74929,75085,74955
 1.2000e+000 75180 -3.5372e+002 -1.7281e+002  1.9048e+002 58270 75033,75085,75059
 1.2000e+000 75157 -5.2196e+002 -1.3814e+002  1.3139e+002 58270 74955,75007,74981
 1.2000e+000 75134 -2.5387e+002 -9.1261e+001  9.2932e+001 58270 74955,75033,75007
 1.2000e+000 75111 -1.0326e+002 -2.8510e+002  1.0730e+002 58270 74903,75085,74929
 1.2000e+000 75425 -9.4750e+001 -2.4597e+001  4.1060e+001 57830 75448,75301,75249
 1.2000e+000 75402 -9.0728e+001 -4.9965e+000  3.2843e+001 57830 75448,75249,75353
 1.2000e+000 75379 -8.0223e+001 -7.0494e+001  2.2346e+001 57830 75520,75301,75275
 1.2000e+000 75474 -9.5182e+001 -3.4839e+001  4.6304e+001 57830 75327,75301,75448
 1.2000e+000 75497 -9.7483e+001 -2.7605e+001  3.7144e+001 57830 75327,75448,75353
 1.2000e+000 75546 -5.8191e+001 -1.2237e+001  9.0756e+000 57830 75249,75301,75520
 1.2000e+000 76261 -1.7053e+002 -2.3800e+002  1.6200e+002 57426 76284,76097,76071
 1.2000e+000 76238 -1.2469e+002 -1.8703e+002  1.4786e+002 57426 75889,76097,75915
 1.2000e+000 76215 -2.3778e+002 -2.3819e+002  1.9045e+002 57426 76428,76284,76071
 1.2000e+000 76192 -2.0181e+002 -2.0514e+002  1.2833e+002 57426 76356,75941,75915
 1.2000e+000 76169 -2.4163e+002 -2.2149e+002  1.8615e+002 57426 76428,76071,76019
 1.2000e+000 76146 -2.4381e+002 -2.4968e+002  1.7242e+002 57426 76019,76071,76045
 1.2000e+000 76123 -2.4931e+002 -2.2914e+002  2.2299e+002 57426 75967,76019,75993
 1.2000e+000 76310 -1.7027e+002 -2.3546e+002  1.2832e+002 57426 75915,76097,76284
 1.2000e+000 76333 -2.0152e+002 -2.4340e+002  1.2867e+002 57426 76356,75915,76284
 1.2000e+000 76382 -2.1340e+002 -1.5024e+002  1.6262e+002 57426 75967,75941,76356
 1.2000e+000 76405 -2.1252e+002 -1.8118e+002  1.5696e+002 57426 75967,76356,76284
 1.2000e+000 76454 -2.2583e+002 -2.2412e+002  1.8523e+002 57426 75967,76284,76428
 1.2000e+000 76477 -2.3852e+002 -2.1568e+002  1.8432e+002 57426 75967,76428,76019
 1.2000e+000 76953 -2.7184e+002 -4.9963e+002  2.4414e+002 56908 76976,76711,76685
 1.2000e+000 76930 -2.8155e+002 -5.1731e+002  2.3205e+002 56908 77048,76976,76685
 1.2000e+000 76907 -5.0944e+002 -5.4505e+002  3.3892e+002 56908 77048,76685,76633
 1.2000e+000 76884 -7.1900e+002 -8.0288e+002  4.5216e+002 56908 76711,76789,76763
 1.2000e+000 76861 -4.1205e+002 -3.4935e+002  1.7010e+002 56908 76581,76789,76607
 1.2000e+000 76838 -6.9035e+002 -5.6554e+002  2.0740e+002 56908 76711,76763,76737
 1.2000e+000 76815 -1.0527e+003 -9.0472e+002  6.0474e+002 56908 76633,76685,76659
 1.2000e+000 77002 -2.7287e+002 -5.1160e+002  2.8016e+002 56908 76789,76711,76976
 1.2000e+000 77025 -3.2499e+002 -3.3511e+002  1.5755e+002 56908 76789,76976,76607
 1.2000e+000 77074 -6.3506e+002 -5.0832e+002  2.2983e+002 56908 76607,76976,77048
 1.2000e+000 77097 -7.5477e+002 -4.3735e+002  3.2447e+002 56908 76607,77048,76633
 1.2000e+000 77475 -3.0396e+002 -5.3251e+002  2.8328e+002 56546 77570,77498,77279
 1.2000e+000 77452 -2.6849e+002 -6.4028e+002  3.3328e+002 56546 77498,77227,77357
 1.2000e+000 77429 -3.4448e+002 -5.6543e+002  3.3421e+002 56546 77570,77279,77253
 1.2000e+000 77406 -4.6875e+002 -7.3047e+002  3.5866e+002 56546 77201,77357,77227
 1.2000e+000 77383 -4.4782e+002 -5.3162e+002  1.9727e+002 56546 77279,77331,77305
 1.2000e+000 77524 -2.9104e+002 -3.9258e+002  2.6582e+002 56546 77331,77279,77498
 1.2000e+000 77547 -2.3065e+002 -5.1539e+002  3.7751e+002 56546 77331,77498,77357
 1.2000e+000 77596 -3.5944e+002 -5.5730e+002  3.4555e+002 56546 77227,77498,77570
 1.2000e+000 77619 -4.0347e+002 -6.5010e+002  3.9885e+002 56546 77227,77570,77253
 1.2000e+000 77818 -4.1101e+002 -4.3552e+002  2.8548e+002 56042 77841,77694,77668
 1.2000e+000 77795 -3.7557e+002 -3.9815e+002  2.0262e+002 56042 77841,77668,77746
 1.2000e+000 77772 -3.9660e+002 -6.3504e+002  1.8967e+002 56042 77642,77746,77668
 1.2000e+000 77867 -4.5345e+002 -5.0142e+002  3.1731e+002 56042 77720,77694,77841
 1.2000e+000 77890 -4.0887e+002 -4.5290e+002  2.3282e+002 56042 77720,77841,77746
 1.2000e+000 78349 -2.3763e+002 -1.1015e+002  1.4214e+002 55538 78075,78127,78101
 1.2000e+000 78326 -3.0411e+002 -1.6545e+002  7.2208e+001 55538 78075,78205,78127
 1.2000e+000 78303 -2.2387e+002 -1.0944e+002  3.8039e+001 55538 78075,78231,78205
 1.2000e+000 78280 -1.9179e+002 -2.3427e+002  1.3412e+002 55538 78127,78179,78153
 1.2000e+000 78257 -1.7914e+002 -1.6128e+002  6.4762e+001 55538 78127,78205,78179
 1.2000e+000 78806 -2.3799e+002 -2.8470e+002  9.3830e+001 55034 78829,78636,78610
 1.2000e+000 78783 -2.7368e+002 -2.5985e+002  1.0639e+002 55034 78901,78829,78610
 1.2000e+000 78760 -2.2857e+002 -2.5257e+002  1.0892e+002 55034 78901,78610,78584
 1.2000e+000 78737 -2.9812e+002 -2.6165e+002  1.1337e+002 55034 78558,78688,78662
 1.2000e+000 78714 -3.2037e+002 -2.5302e+002  2.4456e+002 55034 78532,78688,78558
 1.2000e+000 78855 -2.8710e+002 -3.6184e+002  6.5353e+001 55034 78662,78636,78829
 1.2000e+000 78878 -2.8472e+002 -2.7174e+002  1.1612e+002 55034 78662,78829,78558
 1.2000e+000 78927 -2.4510e+002 -2.4768e+002  1.3799e+002 55034 78558,78829,78901
 1.2000e+000 78950 -2.3367e+002 -2.5405e+002  1.4501e+002 55034 78558,78901,78584
 1.2000e+000 79407 -1.9949e+002 -7.5155e+001  1.9504e+002 54430 79430,79237,79159
 1.2000e+000 79384 -2.5996e+002 -1.4797e+002  1.4262e+002 54430 79430,79159,79133
 1.2000e+000 79361 -2.2164e+002 -5.2704e+001  9.2206e+001 54430 79237,79289,79263
 1.2000e+000 79338 -2.6718e+002 -1.5472e+002  1.6967e+002 54430 79185,79237,79211
 1.2000e+000 79315 -3.8581e+002 -1.6399e+002  2.4076e+002 54430 79159,79237,79185
 1.2000e+000 79456 -1.9414e+002 -1.5796e+002  1.4126e+002 54430 79289,79237,79430
 1.2000e+000 79479 -2.2594e+002 -2.3684e+002  1.0146e+002 54430 79289,79430,79133
 1.2000e+000 79936 -2.1704e+002 -7.6008e+001  2.5116e+002 53919 79662,79766,79688
 1.2000e+000 79913 -6.8119e+002 -3.6927e+002  4.3006e+002 53919 79662,79818,79766
 1.2000e+000 79890 -7.6022e+002 -1.3306e+002  1.7443e+002 53919 79766,79818,79792
 1.2000e+000 79867 -4.6677e+002 -2.0997e+002  3.0872e+002 53919 79714,79766,79740
 1.2000e+000 79844 -4.8870e+002 -2.1929e+002  3.0618e+002 53919 79688,79766,79714
 1.2000e+000 80037 -6.8624e+001 -2.3558e+002  2.0893e+002 53671 79959,80011,79985
 1.2000e+000 80405 -6.6805e+001 -5.2699e+001 -1.7747e+001 53267 80108,80264,80238
 1.2000e+000 80382 -4.5053e+001 -3.7388e+000  1.6072e+000 53267 80082,80264,80108
 1.2000e+000 80359 -5.3704e+001 -2.3671e+002  1.5658e+002 53267 80108,80238,80134
 1.2000e+000 80336 -3.5758e+001 -9.2514e+001  1.1760e+002 53267 80134,80212,80186
 1.2000e+000 80313 -1.8916e+002 -2.2790e+002  2.0609e+002 53267 80134,80238,80212
 1.2000e+000 80290  1.4965e+001 -1.5671e+002  4.6553e+001 53267 80134,80186,80160
 1.2000e+000 80915 -1.5416e+002 -2.4959e+002  1.2415e+002 52969 80644,80774,80748
 1.2000e+000 80892 -1.7656e+002 -6.9576e+001  4.6073e+001 52969 80618,80774,80644
 1.2000e+000 80869 -2.1306e+002 -3.6331e+002  6.1767e+001 52969 80644,80748,80670
 1.2000e+000 80846 -1.1385e+002 -7.8870e+001  1.8994e+001 52969 80592,80774,80618
 1.2000e+000 80823 -3.1327e+002 -2.7424e+002  1.0779e+002 52969 80670,80722,80696
 1.2000e+000 80800 -1.6465e+002 -2.1422e+002  6.3720e+001 52969 80670,80748,80722
 1.2000e+000 81266  6.5211e+001 -1.3045e+002  3.1080e+001 52565 81041,81145,81067
 1.2000e+000 81243 -1.3341e+002 -4.5549e+002  1.1822e+002 52565 81041,81171,81145
 1.2000e+000 81220 -3.7802e+002 -1.0134e+003  1.7914e+002 52565 81067,81119,81093
 1.2000e+000 81197  9.5518e+001  3.9518e+001  5.0647e+001 52565 81067,81145,81119
 1.2000e+000 81723 -2.0368e+002 -1.2418e+002  9.4592e+001 51904 81449,81527,81475
 1.2000e+000 81700 -1.5420e+002 -4.2947e+001  7.0468e+001 51904 81449,81579,81527
 1.2000e+000 81677 -3.7974e+002 -3.0394e+002  1.9689e+002 51904 81449,81605,81579
 1.2000e+000 81654 -1.7591e+002 -4.9305e+001  6.5662e+001 51904 81527,81579,81553
 1.2000e+000 81631 -2.8304e+002 -1.0305e+002  4.6802e+001 51904 81475,81527,81501
 1.2000e+000 82327 -3.6266e+002 -3.9447e+002  2.7075e+002 51321 82422,82350,82036
 1.2000e+000 82304 -3.7686e+002 -2.7351e+002  3.0053e+002 51321 82494,82350,81958
 1.2000e+000 82281 -3.7716e+002 -4.1629e+002  2.4783e+002 51321 82422,82036,82010
 1.2000e+000 82258 -3.9504e+002 -2.7088e+002  2.7723e+002 51321 82494,81958,81932
 1.2000e+000 82235 -3.8513e+002 -1.8057e+002  1.4181e+002 51321 82062,82114,82088
 1.2000e+000 82212 -9.1907e+002 -5.5623e+002  3.7668e+002 51321 81932,82140,82114
 1.2000e+000 82189 -4.0089e+002 -1.4394e+002  2.3735e+002 51321 81958,82010,81984
 1.2000e+000 82166 -3.2446e+002 -3.2603e+002  1.9999e+002 51321 81906,82140,81932
 1.2000e+000 82376 -3.6329e+002 -4.5709e+002  2.6892e+002 51321 82062,82036,82350
 1.2000e+000 82399 -3.7522e+002 -3.5582e+002  2.5681e+002 51321 82062,82350,82114
 1.2000e+000 82448 -3.3610e+002 -3.6831e+002  2.9607e+002 51321 81958,82350,82422
 1.2000e+000 82471 -3.4637e+002 -3.8740e+002  2.7373e+002 51321 81958,82422,82010
 1.2000e+000 82520 -3.9446e+002 -3.0321e+002  2.8904e+002 51321 82114,82350,82494
 1.2000e+000 82543 -4.0005e+002 -3.0105e+002  2.6863e+002 51321 82114,82494,81932
 1.2000e+000 83019 -4.5315e+002 -2.0349e+002  1.2583e+002 50817 82673,82751,82699
 1.2000e+000 82996 -5.0864e+002 -2.6212e+002  2.1721e+002 50817 83042,82673,82855
 1.2000e+000 82973 -4.8007e+002 -3.2674e+002  2.2708e+002 50817 83042,82855,82803
 1.2000e+000 82950 -5.9857e+002 -3.9121e+002  2.7951e+002 50817 82751,82803,82777
 1.2000e+000 82927 -5.5266e+002 -3.6976e+002  1.2015e+002 50817 82647,82855,82673
 1.2000e+000 82904 -5.7579e+002 -4.1888e+002  2.9519e+002 50817 82803,82855,82829
 1.2000e+000 82881 -5.6042e+002 -4.2931e+002  1.5623e+002 50817 82699,82751,82725
 1.2000e+000 83068 -5.4212e+002 -3.1009e+002  2.4621e+002 50817 82751,82673,83042
 1.2000e+000 83091 -4.9049e+002 -3.6014e+002  2.4729e+002 50817 82751,83042,82803
 1.2000e+000 83290 -4.0590e+002 -1.9957e+002  2.8054e+002 50356 83313,83166,83140
 1.2000e+000 83267 -4.7913e+002 -3.9522e+002  2.1938e+002 50356 83515,83313,83140
 1.2000e+000 83244 -5.6006e+002 -3.8548e+002  1.0147e+002 50356 83515,83140,83385
 1.2000e+000 83339 -4.7816e+002 -3.4666e+002  3.0631e+002 50356 83192,83166,83313
 1.2000e+000 83362 -3.3097e+002 -3.5456e+002  2.5960e+002 50356 83192,83313,83218
 1.2000e+000 83411 -1.9830e+002 -1.9557e+002  1.5708e+002 50356 83114,83218,83385
 1.2000e+000 83541 -2.8161e+002 -3.3093e+002  2.1217e+002 50356 83218,83313,83515
 1.2000e+000 83564 -3.0545e+002 -2.8256e+002  1.0967e+002 50356 83218,83515,83385
 1.2000e+000 83893 -2.2883e+002 -1.7264e+002  8.7208e+001 49552 83720,83798,83746
 1.2000e+000 83870 -1.8618e+002 -2.5451e+001  7.2875e+001 49552 83694,83798,83720
 1.2000e+000 83847 -9.3253e+001 -6.9047e+001  6.3053e+001 49552 83668,83798,83694
 1.2000e+000 83824 -2.3603e+002 -7.1863e+001  3.5207e+001 49552 83746,83798,83772
 1.2000e+000 84141 -4.8656e+002 -3.6067e+002  2.5441e+002 49212 84164,84020,83942
 1.2000e+000 84118 -4.7202e+002 -3.1724e+002  2.7648e+002 49212 84164,83942,83916
 1.2000e+000 84095 -3.2555e+002 -4.4267e+002  1.8911e+002 49212 83942,84020,83968
 1.2000e+000 84072 -2.7989e+002 -3.0404e+000  1.0061e+002 49212 83968,84020,83994
 1.2000e+000 84190 -5.0672e+002 -3.5434e+002  2.2910e+002 49212 84046,84020,84164
 1.2000e+000 84213 -4.9019e+002 -3.2542e+002  2.5098e+002 49212 84046,84164,83916
 1.2000e+000 84800 -1.1653e+002 -3.3481e+002  1.7952e+002 48865 84503,84633,84555
 1.2000e+000 84777 -2.9351e+002 -5.3931e+002  1.0428e+002 48865 84503,84659,84633
 1.2000e+000 84754 -2.4602e+002 -6.9086e+002  1.4453e+002 48865 84555,84633,84581
 1.2000e+000 84731 -1.7631e+002 -9.8851e+002  2.7723e+002 48865 84581,84633,84607
 1.2000e+000 84708 -5.3847e+002 -4.4364e+002  1.3470e+002 48865 84503,84555,84529
 1.2000e+000 84685 -3.0201e+002 -5.0915e+002  1.6661e+002 48865 84477,84659,84503
 1.2000e+000 85355 -2.6747e+002 -2.8032e+002  1.3919e+002 48461 85378,85035,85009
 1.2000e+000 85332 -2.8515e+002 -2.8671e+002  1.4728e+002 48461 85378,85009,85165
 1.2000e+000 85309 -2.0545e+002 -3.3038e+002  1.9236e+002 48461 85450,85061,85035
 1.2000e+000 85286 -3.7307e+002 -3.0738e+002  1.2715e+002 48461 85009,85191,85165
 1.2000e+000 85263 -2.6840e+002 -2.7564e+002  2.0622e+002 48461 85087,85165,85113
 1.2000e+000 85240 -2.1017e+002 -3.8941e+002  1.1882e+000 48461 84983,85191,85009
 1.2000e+000 85217 -2.3610e+002 -3.3289e+002  1.4766e+002 48461 85113,85165,85139
 1.2000e+000 85404 -2.3738e+002 -2.7176e+002  1.6544e+002 48461 85450,85035,85378
 1.2000e+000 85427 -3.2391e+002 -3.0688e+002  1.3969e+002 48461 85087,85378,85165
 1.2000e+000 85476 -2.4574e+002 -3.9316e+002  1.7324e+002 48461 85087,85061,85450
 1.2000e+000 85499 -2.9680e+002 -3.6591e+002  1.3860e+002 48461 85087,85450,85378
 1.2000e+000 86084 -1.6433e+002 -3.5143e+002  1.4545e+002 48057 86323,86107,85787
 1.2000e+000 86061 -2.3188e+002 -4.2750e+002  2.1473e+002 48057 86107,85761,85943
 1.2000e+000 86038 -2.5776e+002 -2.9291e+002  1.5245e+002 48057 86251,86179,85891
 1.2000e+000 86015 -2.5556e+002 -2.3996e+002  9.9870e+001 48057 86251,85891,85839
 1.2000e+000 85992 -2.7378e+002 -2.7741e+002  2.3472e+002 48057 85891,85943,85917
 1.2000e+000 85969 -3.0682e+002 -1.9432e+002  1.3372e+002 48057 85839,85891,85865
 1.2000e+000 86133 -1.6903e+002 -3.3477e+002  1.1865e+002 48057 85813,85787,86107
 1.2000e+000 86156 -2.0779e+002 -3.4990e+002  1.2532e+002 48057 86179,85813,86107
 1.2000e+000 86205 -2.0981e+002 -2.4184e+002  1.7223e+002 48057 85943,85891,86179
 1.2000e+000 86228 -1.5244e+002 -2.7189e+002  1.6860e+002 48057 85943,86179,86107
 1.2000e+000 86277 -1.6663e+002 -2.3628e+002  1.2657e+002 48057 85813,86179,86251
 1.2000e+000 86300 -2.1506e+002 -2.0703e+002  8.3226e+001 48057 85813,86251,85839
 1.2000e+000 86349 -1.0267e+002 -3.1185e+002  1.6240e+002 48057 85761,86107,86323
 1.2000e+000 86855 -1.4398e+002 -3.1855e+002  1.8291e+002 47545 86878,86584,86558
 1.2000e+000 86832 -2.4302e+002 -3.6250e+002  1.6183e+002 47545 86950,86878,86558
 1.2000e+000 86809 -2.7717e+002 -3.4787e+002  1.6615e+002 47545 86950,86558,86532
 1.2000e+000 86786 -1.7455e+002 -3.0682e+002  1.8538e+002 47545 86584,86662,86610
 1.2000e+000 86763 -2.7611e+002 -2.9709e+002  1.0188e+002 47545 86532,86714,86688
 1.2000e+000 86740 -2.2879e+002 -1.5363e+002  1.8609e+002 47545 86610,86662,86636
 1.2000e+000 86904 -1.9564e+002 -3.7888e+002  1.5282e+002 47545 86662,86584,86878
 1.2000e+000 86927 -1.5244e+002 -3.4721e+002  1.2980e+002 47545 86662,86878,86688
 1.2000e+000 86976 -1.8711e+002 -3.4404e+002  1.2181e+002 47545 86688,86878,86950
 1.2000e+000 86999 -2.4672e+002 -3.5918e+002  1.3426e+002 47545 86688,86950,86532
 1.2000e+000 87328 -2.6500e+002 -1.8913e+002  1.3287e+002 47048 87155,87207,87181
 1.2000e+000 87305 -2.2295e+002 -1.3975e+002  1.6429e+002 47048 87129,87207,87155
 1.2000e+000 87282 -2.8840e+002 -1.7183e+002  1.7566e+002 47048 87103,87207,87129
 1.2000e+000 87259 -4.0078e+002 -4.5738e+002  2.8177e+002 47048 87103,87233,87207
 1.2000e+000 87576 -1.5125e+002 -1.8479e+002  1.8606e+002 46701 87599,87429,87377
 1.2000e+000 87553 -2.2882e+002 -9.3973e+001  1.1736e+002 46701 87599,87377,87481
 1.2000e+000 87530 -5.8220e+001 -5.6268e+001  3.9228e+001 46701 87351,87481,87377
 1.2000e+000 87507 -2.3234e+001 -9.8989e+001  1.1789e+002 46701 87377,87429,87403
 1.2000e+000 87625 -2.0436e+002 -3.5404e+002  1.8617e+002 46701 87455,87429,87599
 1.2000e+000 87648 -2.2802e+002 -1.9472e+002  1.0163e+002 46701 87455,87599,87481
 1.2000e+000 87798  1.5170e+001  1.1940e+000 -3.7551e+000 46239 87697,87749,87723
 1.2000e+000 87775  5.4649e+001 -4.3154e+001  6.9880e+001 46239 87671,87749,87697
 1.2000e+000 88308 -5.8793e+002 -5.0790e+002  1.5571e+002 45735 88089,88167,88141
 1.2000e+000 88285 -4.1440e+002 -3.2057e+002  2.5013e+002 45735 88011,88167,88089
 1.2000e+000 88262 -5.1681e+002 -3.5765e+002  2.5561e+002 45735 87985,88167,88011
 1.2000e+000 88239 -6.1336e+002 -1.0031e+003  3.8536e+002 45735 88011,88089,88063
 1.2000e+000 88216 -5.7393e+002 -5.0437e+002  1.4538e+002 45735 88089,88141,88115
 1.2000e+000 88193 -4.4196e+002 -1.2360e+003  8.0812e+002 45735 88011,88063,88037
 1.2000e+000 88686 -3.6067e+002 -3.0427e+002  2.4071e+002 45316 88438,88516,88490
 1.2000e+000 88663 -3.1350e+002 -4.2931e+001  3.1203e+002 45316 88438,88542,88516
 1.2000e+000 88640 -2.0213e+002 -4.4533e+002  3.8243e+002 45316 88438,88568,88542
 1.2000e+000 88617 -6.1524e+002 -4.8525e+002  1.5310e+002 45316 88438,88490,88464
 1.2000e+000 88594 -2.8518e+002 -4.7309e+002  3.7638e+002 45316 88412,88568,88438
 1.2000e+000 88934 -7.5414e+002 -7.5491e+002  4.3114e+002 44812 88957,88735,88709
 1.2000e+000 88911 -4.3448e+002 -4.9517e+002  1.7955e+002 44812 88957,88709,88839
 1.2000e+000 88888 -4.2461e+002 -3.7081e+002  1.0586e+002 44812 89029,88787,88761
 1.2000e+000 88865 -3.9412e+002 -3.4793e+002  1.5323e+002 44812 88787,88839,88813
 1.2000e+000 88983 -2.2000e+002 -4.7591e+002  2.8544e+002 44812 88761,88735,88957
 1.2000e+000 89006 -3.7032e+002 -4.2400e+002  9.1007e+001 44812 89029,88761,88957
 1.2000e+000 89055 -4.0941e+002 -4.3358e+002  1.2856e+002 44812 88839,88787,89029
 1.2000e+000 89078 -4.0776e+002 -5.4299e+002  1.3238e+002 44812 88839,89029,88957
 1.2000e+000 89228 -3.0304e+002 -8.3119e+002  1.5692e+002 44408 89127,89179,89153
 1.2000e+000 89205  1.0803e+000 -6.3243e+001  4.5904e+000 44408 89101,89179,89127
 1.2000e+000 89787 -3.8065e+002 -2.8112e+002  2.1237e+002 43854 89810,89545,89519
 1.2000e+000 89764 -4.1215e+002 -3.5829e+002  2.2261e+002 43854 89810,89519,89467
 1.2000e+000 89741 -4.1024e+002 -4.7971e+002  2.1200e+002 43854 89954,89882,89597
 1.2000e+000 89718 -4.1679e+002 -4.8546e+002  2.1660e+002 43854 89954,89597,89571
 1.2000e+000 89695 -2.3249e+002 -3.5681e+002  1.9702e+002 43854 89415,89623,89467
 1.2000e+000 89672 -1.7943e+002 -1.9965e+002  1.4874e+002 43854 89467,89519,89493
 1.2000e+000 89649 -1.7170e+002 -2.7803e+002  1.7038e+002 43854 89415,89467,89441
 1.2000e+000 89836 -4.2444e+002 -3.0446e+002  2.3202e+002 43854 89882,89545,89810
 1.2000e+000 89859 -2.4497e+002 -3.3948e+002  1.8170e+002 43854 89623,89810,89467
 1.2000e+000 89908 -4.1671e+002 -5.9507e+002  2.9104e+002 43854 89623,89597,89882
 1.2000e+000 89931 -3.8052e+002 -5.1923e+002  2.4353e+002 43854 89623,89882,89810
 1.2000e+000 89980 -4.3794e+002 -4.7213e+002  2.7916e+002 43854 89545,89882,89954
 1.2000e+000 90003 -4.7208e+002 -5.2892e+002  2.9341e+002 43854 89545,89954,89571
 1.2000e+000 90251 -1.3333e+002 -2.2142e+002  1.0089e+002 43492 90026,90078,90052
 1.2000e+000 90228 -4.0524e+002 -3.2774e+002  1.5818e+002 43492 90274,90026,90156
 1.2000e+000 90205 -3.7046e+002 -3.8140e+002  1.6144e+002 43492 90346,90274,90156
 1.2000e+000 90182 -3.8120e+002 -4.9340e+002  3.6710e+002 43492 90346,90156,90130
 1.2000e+000 90300 -2.6805e+002 -4.0291e+002  2.0800e+002 43492 90078,90026,90274
 1.2000e+000 90323 -4.4702e+002 -4.7435e+002  1.9445e+002 43492 90078,90274,90104
 1.2000e+000 90372 -6.2513e+002 -5.4282e+002  2.7960e+002 43492 90104,90274,90346
 1.2000e+000 90395 -6.4255e+002 -6.8072e+002  4.9052e+002 43492 90104,90346,90130
 1.2000e+000 90594 -9.8815e+001 -3.2363e+002  1.8544e+002 43052 90418,90496,90444
 1.2000e+000 90571 -6.3659e+001 -9.6060e+001  1.0035e+002 43052 90418,90522,90496
 1.2000e+000 90548 -3.0234e+002 -2.7376e+002  1.9442e+002 43052 90444,90496,90470
 1.2000e+000 91074 -7.9118e+002 -5.5661e+002  5.3919e+002 42434 91241,90884,90858
 1.2000e+000 91051 -3.3949e+002 -4.3306e+002 -3.2323e+001 42434 90702,90910,90884
 1.2000e+000 91028 -1.3157e+002 -2.4329e+002  2.0891e+002 42434 91097,90754,90702
 1.2000e+000 91005 -6.2546e+002 -2.9985e+002  4.6658e+002 42434 91241,90858,91097
 1.2000e+000 90982 -2.6926e+002 -3.3357e+002  1.3636e+002 42434 91169,90806,90780
 1.2000e+000 90959 -1.7565e+002 -3.1858e+002  9.5326e+001 42434 90806,90858,90832
 1.2000e+000 90936 -2.0787e+002 -1.9964e+002  2.0174e+002 42434 90702,90754,90728
 1.2000e+000 91123 -5.9250e+002 -4.9894e+002  3.9775e+002 42434 90780,90754,91097
 1.2000e+000 91146 -4.8713e+002 -5.0299e+002  4.0351e+002 42434 91169,90780,91097
 1.2000e+000 91195 -1.8397e+002 -1.9831e+002  7.7277e+001 42434 90858,90806,91169
 1.2000e+000 91218 -2.1614e+002  9.7509e+000  2.9559e+002 42434 90858,91169,91097
 1.2000e+000 91267 -4.4305e+002 -8.9670e+002  3.7685e+002 42434 90702,90884,91241
 1.2000e+000 91290 -3.1102e+002 -6.8157e+002  3.1801e+002 42434 90702,91241,91097
 1.2000e+000 91698 -9.9946e+001 -3.7322e+002  1.4066e+002 41773 91473,91577,91499
 1.2000e+000 91675 -1.9734e+002 -4.5547e+002  1.9839e+002 41773 91473,91603,91577
 1.2000e+000 91652 -1.8920e+002 -2.6823e+002  4.6487e+001 41773 91499,91551,91525
 1.2000e+000 91629 -2.7996e+002 -3.1940e+002  1.4105e+002 41773 91499,91577,91551
 1.2000e+000 92044 -3.4400e+002 -4.1606e+002  2.5339e+002 41383 91773,91877,91851
 1.2000e+000 92021 -2.7661e+002 -5.1513e+002  1.4765e+002 41383 91747,91877,91773
 1.2000e+000 91998 -2.7754e+002 -2.8987e+002  1.8440e+002 41383 91773,91851,91799
 1.2000e+000 91975 -2.1460e+002 -4.3885e+002  9.3832e+001 41383 91747,91903,91877
 1.2000e+000 91952 -1.1863e+002 -3.8110e+002  1.2027e+002 41383 91721,91903,91747
 1.2000e+000 91929 -6.2598e+001 -3.0292e+002  1.2396e+002 41383 91799,91851,91825
 1.2000e+000 92601 -2.8887e+002 -3.0294e+002  1.1129e+002 40979 92229,92411,92307
 1.2000e+000 92578 -3.6676e+002 -3.3899e+002  1.2374e+002 40979 92229,92437,92411
 1.2000e+000 92555 -2.4465e+002 -2.3432e+002  9.0503e+001 40979 92229,92307,92281
 1.2000e+000 92532 -2.2673e+002 -2.6133e+002  1.5560e+002 40979 92333,92411,92385
 1.2000e+000 92509 -2.3597e+002 -2.4964e+002  1.3398e+002 40979 92307,92411,92333
 1.2000e+000 92486 -3.1359e+002 -3.6807e+002  6.5586e+001 40979 92229,92281,92255
 1.2000e+000 92463 -4.2560e+001 -2.6036e+002  1.0829e+002 40979 92333,92385,92359
 1.2000e+000 93235 -3.6423e+002 -2.3771e+002  2.9408e+002 40525 92941,92993,92967
 1.2000e+000 93212 -4.5902e+002 -8.7875e+001  1.4665e+002 40525 93258,92941,92889
 1.2000e+000 93189 -3.8119e+002 -3.1455e+001  9.6723e+001 40525 93258,92889,93071
 1.2000e+000 93166 -3.1333e+002 -2.5053e+002  1.1518e+002 40525 92889,92941,92915
 1.2000e+000 93143 -1.8380e+002 -1.0008e+002  1.0117e+002 40525 92863,93071,92889
 1.2000e+000 93120 -3.7726e+002 -1.8852e+002  1.7085e+002 40525 92993,93071,93019
 1.2000e+000 93097 -4.1106e+002 -2.1636e+002  1.8282e+002 40525 93019,93071,93045
 1.2000e+000 93284 -5.1533e+002 -2.0154e+002  2.5038e+002 40525 92993,92941,93258
 1.2000e+000 93307 -3.4093e+002 -6.4811e+001  1.8171e+002 40525 92993,93258,93071
 1.2000e+000 93636 -4.9909e+002 -4.4743e+002  3.7170e+002 40235 93437,93541,93515
 1.2000e+000 93613 -3.8964e+002 -5.6369e+002  3.3904e+002 40235 93411,93541,93437
 1.2000e+000 93590 -1.3414e+002 -4.5112e+002  1.4343e+002 40235 93463,93515,93489
 1.2000e+000 93567 -2.5337e+002 -3.4309e+002  9.9263e+001 40235 93437,93515,93463
 1.2000e+000 94014 -5.2451e+002 -6.2767e+002  2.1934e+002 39873 93766,93870,93792
 1.2000e+000 93991 -4.8454e+002 -6.4702e+002  2.0001e+002 39873 93766,93896,93870
 1.2000e+000 93968 -4.2926e+002 -4.8661e+002  2.6068e+002 39873 93792,93870,93844
 1.2000e+000 93945 -3.6481e+002 -4.2888e+002  2.0707e+002 39873 93792,93844,93818
 1.2000e+000 93922 -3.7602e+002 -5.8036e+002  3.4298e+002 39873 93740,93896,93766
 1.2000e+000 94164  1.2340e+000 -1.4604e+002  1.0205e+002 39461 94037,94089,94063
 1.2000e+000 94141 -1.2529e+002 -2.1205e+002  1.3337e+002 39461 94037,94115,94089
 1.2000e+000 94363 -2.5544e+002 -2.3362e+002  1.6004e+002 39057 94386,94239,94213
 1.2000e+000 94340 -1.9795e+002 -1.9522e+002  1.4192e+002 39057 94386,94213,94187
 1.2000e+000 94317 -3.2420e+002 -3.1068e+002  1.7840e+002 39057 94187,94291,94265
 1.2000e+000 94412 -1.4724e+002 -2.0387e+002  1.3952e+002 39057 94458,94386,94265
 1.2000e+000 94435 -2.1342e+002 -2.3173e+002  1.4255e+002 39057 94265,94386,94187
 1.2000e+000 94484 -2.3722e+002 -2.7412e+002  1.7828e+002 39057 94239,94386,94458
 1.2000e+000 94896 -5.1750e+002 -3.5106e+002  2.2154e+002 38396 94919,94775,94723
 1.2000e+000 94873 -5.6383e+002 -3.1961e+002  2.2174e+002 38396 94919,94723,94697
 1.2000e+000 94850 -4.0077e+002 -3.1185e+002  1.7356e+002 38396 94723,94775,94749
 1.2000e+000 94827 -2.4892e+002 -1.9702e+002  1.8523e+002 38396 94671,94801,94697
 1.2000e+000 94945 -5.0364e+002 -3.3000e+002  2.1120e+002 38396 94801,94775,94919
 1.2000e+000 94968 -5.3090e+002 -2.8563e+002  2.0453e+002 38396 94801,94919,94697
 1.2000e+000 95265 -4.3813e+002 -4.8323e+002  2.2197e+002 37835 95017,95069,95043
 1.2000e+000 95242 -4.5780e+002 -4.3734e+002  2.3124e+002 37835 95288,95069,95017
 1.2000e+000 95219 -4.9902e+002 -4.9316e+002  3.1406e+002 37835 95288,95017,94991
 1.2000e+000 95196 -5.6631e+002 -5.4184e+002  2.8265e+002 37835 94991,95147,95121
 1.2000e+000 95173 -3.4145e+002 -2.4624e+002  2.0640e+002 37835 95069,95121,95095
 1.2000e+000 95314 -4.5570e+002 -3.1796e+002  1.7589e+002 37835 95121,95069,95288
 1.2000e+000 95337 -4.9306e+002 -3.9778e+002  2.5283e+002 37835 95121,95288,94991
 1.2000e+000 95558 -1.2393e+001 -1.7361e+002  1.0868e+002 37423 95408,95460,95434
 1.2000e+000 95535 -1.8165e+002 -6.7160e+002  2.9677e+002 37423 95382,95460,95408
 1.2000e+000 95512 -3.4378e+002 -7.9759e+002  3.5152e+002 37423 95382,95486,95460
 1.2000e+000 95891 -2.5089e+002 -5.8661e+002  3.3657e+002 37225 95666,95718,95692
 1.2000e+000 95868 -4.1603e+002 -5.2632e+002  3.8210e+002 37225 95666,95796,95718
 1.2000e+000 95845 -2.6158e+002 -4.6157e+002  1.4434e+002 37225 95718,95770,95744
 1.2000e+000 95822 -2.9109e+002 -3.7511e+002  2.2697e+002 37225 95718,95796,95770
 1.2000e+000 95992 -8.5294e+001 -3.3038e+002  1.3161e+002 36735 95914,95966,95940
 1.2000e+000 96142 -5.2878e+002 -3.0434e+002  2.7333e+002 36331 96297,96067,96041
 1.2000e+000 96119 -4.7025e+002 -2.6155e+002  3.1503e+002 36331 96165,96041,96015
 1.2000e+000 96191 -5.1650e+002 -2.8736e+002  3.0206e+002 36331 96297,96041,96165
 1.2000e+000 96323 -5.4592e+002 -2.6149e+002  3.1558e+002 36331 96093,96067,96297
 1.2000e+000 96346 -4.9089e+002 -2.2427e+002  3.5041e+002 36331 96093,96297,96165
 1.2000e+000 96714 -3.6943e+002 -5.8742e+002  3.3666e+002 36041 96737,96495,96443
 1.2000e+000 96691 -4.9710e+002 -4.5660e+002  3.4306e+002 36041 96737,96443,96417
 1.2000e+000 96668 -2.6805e+002 -6.0865e+002  1.7583e+002 36041 96443,96495,96469
 1.2000e+000 96645 -1.2597e+002 -2.1918e+002  1.9818e+002 36041 96391,96521,96417
 1.2000e+000 96622 -5.7117e+001 -2.3110e+002  1.7582e+002 36041 96391,96547,96521
 1.2000e+000 96599 -6.1418e+001 -2.2915e+002  1.7193e+002 36041 96391,96573,96547
 1.2000e+000 96763 -1.9098e+002 -4.7448e+002  2.8784e+002 36041 96521,96495,96737
 1.2000e+000 96786 -4.2891e+002 -4.2760e+002  3.2224e+002 36041 96521,96737,96417
 1.2000e+000 96936 -2.3823e+002 -1.6710e+002  1.8055e+002 35637 97031,96959,96835
 1.2000e+000 96913 -2.8880e+002 -1.7498e+002  2.0055e+002 35637 97163,96959,96809
 1.2000e+000 96985 -3.0041e+002 -1.5767e+002  1.9700e+002 35637 96861,96835,96959
 1.2000e+000 97008 -3.6660e+002 -2.2505e+002  2.8495e+002 35637 96861,96959,96887
 1.2000e+000 97057 -2.3781e+002 -1.1115e+002  1.3690e+002 35637 96809,96959,97031
 1.2000e+000 97189 -2.5888e+002 -1.6462e+002  2.0765e+002 35637 96887,96959,97163
 1.2000e+000 97597 -2.0355e+002 -2.6527e+002  2.1757e+002 35190 97450,97502,97476
 1.2000e+000 97574 -2.2421e+002 -3.5653e+002  2.8263e+002 35190 97372,97502,97450
 1.2000e+000 97551 -2.2599e+002 -3.9788e+002  2.6535e+002 35190 97372,97450,97398
 1.2000e+000 97528 -1.5970e+002 -3.4475e+002  2.2072e+002 35190 97398,97450,97424
 1.2000e+000 98054 -3.5644e+002 -4.5629e+002  2.9720e+002 34636 97806,97936,97858
 1.2000e+000 98031 -5.0735e+002 -3.1729e+002  2.7317e+002 34636 97780,97936,97806
 1.2000e+000 98008 -4.6463e+002 -4.3821e+002  1.7410e+002 34636 97806,97858,97832
 1.2000e+000 97985 -3.8659e+002 -4.5446e+002  3.2897e+002 34636 97884,97936,97910
 1.2000e+000 97962 -2.5196e+002 -3.0522e+002  2.4235e+002 34636 97858,97936,97884
 1.2000e+000 98530 -2.6721e+002  1.2530e+002  8.5428e+001 34068 98697,98184,98366
 1.2000e+000 98507  8.7038e+000  1.3928e+001 -1.8757e+001 34068 98158,98366,98184
 1.2000e+000 98484 -3.4377e+002 -3.1187e+002  1.5791e+002 34068 98553,98262,98236
 1.2000e+000 98461 -3.8867e+002 -3.9263e+002  1.0311e+002 34068 98553,98236,98210
 1.2000e+000 98438 -3.4109e+002 -1.5780e+002  1.5618e+002 34068 98841,98625,98366
 1.2000e+000 98415 -3.3037e+002 -5.0090e+002  2.4003e+002 34068 98769,98288,98262
 1.2000e+000 98392 -4.5752e+002 -6.9312e+001  1.4546e+002 34068 98841,98366,98340
 1.2000e+000 98579 -3.9016e+002 -3.9077e+002  1.8074e+002 34068 98769,98262,98553
 1.2000e+000 98602 -3.1368e+002 -1.9939e+002  1.5828e+002 34068 98625,98314,98553
 1.2000e+000 98651 -3.1397e+002 -1.3027e+002  1.2879e+002 34068 98697,98366,98625
 1.2000e+000 98674 -3.8922e+002 -3.7366e+002  1.6590e+002 34068 98210,98625,98553
 1.2000e+000 98723 -3.9473e+002 -1.8277e+002  1.4044e+002 34068 98210,98184,98697
 1.2000e+000 98746 -3.4870e+002 -2.4324e+002  2.0017e+002 34068 98210,98697,98625
 1.2000e+000 98795 -2.0434e+002 -3.8679e+002  1.7096e+002 34068 98314,98288,98769
 1.2000e+000 98818 -2.8605e+002 -3.0867e+002  1.1558e+002 34068 98314,98769,98553
 1.2000e+000 98867 -4.4951e+002 -2.4936e+002  1.1592e+002 34068 98314,98625,98841
 1.2000e+000 98890 -5.6385e+002 -1.5085e+002  1.0937e+002 34068 98314,98841,98340
 1.2000e+000 99268 -4.9668e+002 -4.7860e+002  3.4365e+002 33450 99291,99098,99072
 1.2000e+000 99245 -5.5853e+002 -3.6886e+002  1.9002e+002 33450 99291,99072,99020
 1.2000e+000 99222 -8.1883e+002 -4.4777e+002  2.9362e+002 33450 99020,99072,99046
 1.2000e+000 99199 -4.2082e+002 -3.3617e+002  1.8139e+002 33450 99020,99150,99124
 1.2000e+000 99176 -4.2423e+002 -2.7704e+002  4.2259e+001 33450 98994,99150,99020
 1.2000e+000 99317 -2.4604e+002 -3.7181e+002  3.2996e+002 33450 99124,99098,99291
 1.2000e+000 99340 -4.7387e+002 -3.4550e+002  1.9577e+002 33450 99124,99291,99020
 1.2000e+000 99865 -3.7150e+002 -3.5374e+002  2.1075e+002 32944 100176,99960,99888
 1.2000e+000 99842 -4.1041e+002 -3.4524e+002  2.1530e+002 32944 100104,99888,99522
 1.2000e+000 99819 -3.5074e+002 -3.3741e+002  2.5188e+002 32944 100248,99960,99626
 1.2000e+000 99796 -3.7436e+002 -3.9892e+002  1.4523e+002 32944 100032,99652,99626
 1.2000e+000 99773 -3.5303e+002 -3.5722e+002  1.6473e+002 32944 100104,99522,99496
 1.2000e+000 99750 -2.6726e+002 -3.0569e+002  3.9952e+001 32944 99574,99626,99600
 1.2000e+000 99727 -2.8145e+002 -3.4289e+002  2.7666e+002 32944 100248,99626,99574
 1.2000e+000 99704 -2.5253e+002 -3.2893e+002  1.8555e+002 32944 99444,99496,99470
 1.2000e+000 99914 -3.8465e+002 -3.3344e+002  1.6406e+002 32944 100176,99888,100032
 1.2000e+000 99937 -4.1607e+002 -2.9698e+002  2.1191e+002 32944 99678,99888,99444
 1.2000e+000 99986 -4.0451e+002 -3.1137e+002  2.0929e+002 32944 99522,99888,99960
 1.2000e+000 100009 -4.1908e+002 -2.7109e+002  2.3905e+002 32944 99522,99960,99548
 1.2000e+000 100058 -4.1429e+002 -4.1774e+002  1.3714e+002 32944 99678,99652,100032
 1.2000e+000 100081 -4.4825e+002 -3.8224e+002  1.3827e+002 32944 99678,100032,99888
 1.2000e+000 100130 -3.0755e+002 -3.1641e+002  2.1094e+002 32944 99444,99888,100104
 1.2000e+000 100153 -2.7193e+002 -3.4796e+002  1.6667e+002 32944 99444,100104,99496
 1.2000e+000 100202 -4.0808e+002 -4.2717e+002  1.9819e+002 32944 99626,99960,100176
 1.2000e+000 100225 -4.2297e+002 -4.2522e+002  1.5578e+002 32944 99626,100176,100032
 1.2000e+000 100274 -4.4909e+002 -3.4157e+002  2.3661e+002 32944 99548,99960,100248
 1.2000e+000 100297 -3.8686e+002 -3.5245e+002  2.6124e+002 32944 99548,100248,99574
 1.2000e+000 100754 -2.1902e+002 -2.1219e+002  9.2950e+001 32369 100777,100584,100506
 1.2000e+000 100731 -1.9042e+002 -3.0142e+002  1.9694e+002 32369 100777,100506,100636
 1.2000e+000 100708 -3.2930e+002 -3.0687e+002  2.0920e+002 32369 100480,100636,100506
 1.2000e+000 100685 -4.1150e+002 -2.7244e+002  5.1071e+001 32369 100532,100584,100558
 1.2000e+000 100662 -2.3451e+002 -2.4412e+002  9.7800e+001 32369 100506,100584,100532
 1.2000e+000 100803 -2.1285e+002 -6.0964e+001  9.0815e+001 32369 100610,100584,100777
 1.2000e+000 100826 -1.8111e+002 -1.6516e+002  1.7996e+002 32369 100610,100777,100636
 1.2000e+000 101025 -3.3841e+002 -2.7981e+002  2.7392e+002 31857 100875,100927,100901
 1.2000e+000 101002 -6.1331e+002 -2.6197e+002  2.5115e+002 31857 100875,100953,100927
 1.2000e+000 100979 -6.5321e+002 -3.2547e+002  2.0661e+002 31857 100849,100953,100875
 1.2000e+000 101533 -2.8714e+002 -3.5434e+002  2.6428e+002 31253 101556,101314,101236
 1.2000e+000 101510 -4.0533e+002 -3.9710e+002  2.7405e+002 31253 101556,101236,101210
 1.2000e+000 101487 -3.9311e+002 -3.7987e+002  1.3016e+002 31253 101210,101392,101340
 1.2000e+000 101464 -2.0000e+002 -3.3473e+002  2.2509e+002 31253 101236,101288,101262
 1.2000e+000 101441 -2.4323e+002 -4.4638e+002  2.3112e+002 31253 101236,101314,101288
 1.2000e+000 101418 -3.7321e+002 -4.0605e+002  2.1919e+002 31253 101340,101392,101366
 1.2000e+000 101582 -3.1889e+002 -3.0873e+002  1.5572e+002 31253 101340,101314,101556
 1.2000e+000 101605 -4.4054e+002 -3.5098e+002  1.7011e+002 31253 101340,101556,101210
 1.2000e+000 101755  9.0889e+001  1.1573e+002  1.6796e+002 30519 101778,101654,101628
 1.2000e+000 101732 -1.0792e+002  2.2715e+002  2.5291e+001 30519 101850,101778,101628
 1.2000e+000 101804 -8.8973e+001 -1.7868e+002  8.7369e+001 30519 101680,101654,101778
 1.2000e+000 101827 -1.4834e+002  8.2134e+001  4.5844e+001 30519 101680,101778,101706
 1.2000e+000 101876 -2.0767e+002 -5.8045e+000  1.6291e+001 30519 101706,101778,101850
 1.2000e+000 102561 -2.6683e+002 -3.8569e+002  1.8536e+002 29951 102656,102584,102270
 1.2000e+000 102538 -5.9807e+002 -7.2534e+002  1.5945e+002 29951 102584,102140,102374
 1.2000e+000 102515 -3.9043e+002 -7.3070e+002  3.5018e+002 29951 102728,102656,102270
 1.2000e+000 102492 -3.9358e+002 -8.6517e+002  3.4299e+002 29951 102728,102270,102244
 1.2000e+000 102469 -4.8923e+002 -1.2685e+002  2.2839e+002 29951 102800,102322,102296
 1.2000e+000 102446 -5.4524e+002 -4.1602e+002  1.0658e+002 29951 102166,102218,102192
 1.2000e+000 102423 -4.3348e+002 -4.2122e+002  7.6691e+001 29951 102166,102244,102218
 1.2000e+000 102400 -2.9329e+002 -3.3605e+002  2.1054e+002 29951 102322,102374,102348
 1.2000e+000 102610 -5.9487e+002 -3.0648e+002  1.1064e+002 29951 102296,102270,102584
 1.2000e+000 102633 -6.3760e+002 -3.2472e+002  1.5510e+002 29951 102800,102296,102584
 1.2000e+000 102682 -6.6236e+002 -6.4553e+002  3.2664e+002 29951 102140,102584,102656
 1.2000e+000 102705 -4.5889e+002 -6.6665e+002  4.4355e+002 29951 102140,102656,102166
 1.2000e+000 102754 -3.8768e+002 -5.7342e+002  4.0871e+002 29951 102166,102656,102728
 1.2000e+000 102777 -3.9806e+002 -6.8806e+002  3.7353e+002 29951 102166,102728,102244
 1.2000e+000 102826 -3.4730e+002 -3.4635e+002  3.2563e+002 29951 102374,102322,102800
 1.2000e+000 102849 -4.0527e+002 -3.9766e+002  2.8977e+002 29951 102374,102800,102584
 1.2000e+000 103048 -6.2943e+001 -2.7039e+002  1.4060e+002 29454 102872,102924,102898
 1.2000e+000 103025 -1.4470e+002 -3.1029e+002  1.6443e+002 29454 102872,102976,102924
 1.2000e+000 103002 -1.3079e+002 -5.7142e+002  2.6907e+002 29454 102924,102976,102950
 1.2000e+000 103296 -5.5692e+002 -4.0669e+002  3.0704e+002 29064 103319,103175,103123
 1.2000e+000 103273 -7.2214e+002 -4.1560e+002  3.4388e+002 29064 103319,103123,103071
 1.2000e+000 103250 -3.3358e+002 -2.4468e+002  2.2396e+002 29064 103123,103175,103149
 1.2000e+000 103227 -5.5999e+002 -3.5510e+002  4.1134e+002 29064 103071,103123,103097
 1.2000e+000 103345 -3.9953e+002 -4.4753e+002  2.2999e+002 29064 103201,103175,103319
 1.2000e+000 103368 -6.1465e+002 -4.4062e+002  2.0595e+002 29064 103201,103319,103071
 1.2000e+000 104006 -4.6446e+002 -2.4100e+002  1.8274e+002 28603 104101,104029,103712
 1.2000e+000 103983 -4.3784e+002 -1.6647e+002  1.6498e+002 28603 104173,104029,103660
 1.2000e+000 103960 -5.6083e+002 -1.9796e+002  1.7479e+002 28603 104101,103712,103686
 1.2000e+000 103937 -3.7361e+002 -2.4686e+002  1.4579e+002 28603 104173,103660,103634
 1.2000e+000 103914 -4.3594e+002 -2.7118e+002  2.3906e+002 28603 103764,103816,103790
 1.2000e+000 103891 -3.6777e+002 -2.7170e+002  2.5123e+002 28603 103634,103842,103816
 1.2000e+000 103868 -3.3442e+002 -1.3839e+002  2.1780e+002 28603 103712,103764,103738
 1.2000e+000 104055 -4.3449e+002 -1.7635e+002  1.7356e+002 28603 103764,103712,104029
 1.2000e+000 104078 -4.2881e+002 -2.0377e+002  2.4022e+002 28603 103764,104029,103816
 1.2000e+000 104127 -5.9624e+002 -2.2919e+002  1.4439e+002 28603 103660,104029,104101
 1.2000e+000 104150 -7.4909e+002 -2.2240e+002  1.6393e+002 28603 103660,104101,103686
 1.2000e+000 104199 -4.9029e+002 -2.4402e+002  1.8867e+002 28603 103816,104029,104173
 1.2000e+000 104222 -4.1667e+002 -3.0366e+002  1.6807e+002 28603 103816,104173,103634
 1.2000e+000 104600 -2.1449e+002 -4.1891e+002  9.7078e+001 28348 104623,104378,104326
 1.2000e+000 104577 -1.7264e+002 -4.3987e+002  1.6939e+002 28348 104623,104326,104482
 1.2000e+000 104554 -1.9803e+002 -2.7599e+002  8.0363e+001 28348 104326,104378,104352
 1.2000e+000 104531 -2.3175e+002  1.8982e+000  1.1339e+001 28348 104404,104456,104430
 1.2000e+000 104508 -2.8771e+002 -1.8662e+002  1.5582e+002 28348 104378,104456,104404
 1.2000e+000 104649 -1.8055e+002 -3.5418e+002  1.2502e+002 28348 104456,104378,104623
 1.2000e+000 104672 -1.2625e+002 -3.6264e+002  1.9947e+002 28348 104456,104623,104482
 1.2000e+000 104991 -4.7291e+002 -4.8610e+002  3.4989e+002 27951 104717,104847,104769
 1.2000e+000 104968 -1.4215e+002 -3.3935e+002  3.1969e+002 27951 104717,104873,104847
 1.2000e+000 104945 -1.6995e+002 -4.0848e+002  3.7507e+002 27951 104769,104847,104795
 1.2000e+000 104922  9.1040e+000  3.7214e+001  3.5290e+002 27951 104795,104847,104821
 1.2000e+000 104899 -4.1960e+002 -3.3173e+002  3.6049e+002 27951 104717,104769,104743
 1.2000e+000 105371 -3.6455e+002 -1.9449e+002  2.3004e+002 27447 105394,105201,105123
 1.2000e+000 105348 -4.0236e+002 -2.0039e+002  2.4131e+002 27447 105394,105123,105097
 1.2000e+000 105325 -6.3654e+002 -2.4102e+002  2.3795e+002 27447 105123,105201,105149
 1.2000e+000 105302 -3.8106e+002 -3.3632e+002  2.2067e+002 27447 105201,105253,105227
 1.2000e+000 105279 -3.5809e+002 -4.6993e+002  3.2666e+001 27447 105149,105201,105175
 1.2000e+000 105420 -3.3802e+002 -1.9750e+002  2.1045e+002 27447 105253,105201,105394
 1.2000e+000 105443 -3.7783e+002 -1.9979e+002  2.1849e+002 27447 105253,105394,105097
 1.2000e+000 105998 -4.0393e+002 -3.1400e+002  3.1663e+002 27100 106165,106021,105704
 1.2000e+000 105975 -2.1761e+002 -1.7315e+002  2.7922e+002 27100 106309,106021,105652
 1.2000e+000 105952 -7.5436e+002 -5.3638e+002  5.2479e+002 27100 106093,105808,105782
 1.2000e+000 105929 -4.0699e+002 -3.2153e+002  3.1730e+002 27100 106165,105704,105678
 1.2000e+000 105906 -2.2972e+002 -3.5220e+002  2.4511e+002 27100 106237,105730,105704
 1.2000e+000 105883 -2.0954e+002 -3.1243e+002  1.9258e+002 27100 106309,105652,105626
 1.2000e+000 105860 -1.6833e+002  1.4637e+000  5.5952e+001 27100 105730,105782,105756
 1.2000e+000 106047 -3.6697e+002 -2.0480e+002  3.1228e+002 27100 106237,105704,106021
 1.2000e+000 106070 -4.3845e+002 -2.5229e+002  3.9636e+002 27100 106093,105782,106021
 1.2000e+000 106119 -3.1334e+002 -4.3604e+002  2.6658e+002 27100 105834,105808,106093
 1.2000e+000 106142 -3.4394e+002 -5.4794e+002  3.5296e+002 27100 106381,106093,106021
 1.2000e+000 106191 -4.1036e+002 -2.9444e+002  3.3298e+002 27100 105652,106021,106165
 1.2000e+000 106214 -4.2538e+002 -3.2409e+002  3.3876e+002 27100 105652,106165,105678
 1.2000e+000 106263 -1.0387e+002 -2.0410e+002  1.8983e+002 27100 105782,105730,106237
 1.2000e+000 106286 -2.6961e+002 -9.6149e+001  2.6876e+002 27100 105782,106237,106021
 1.2000e+000 106335 -2.9680e+002 -3.6595e+002  2.9594e+002 27100 106381,106021,106309
 1.2000e+000 106358 -2.1127e+002 -2.8819e+002  1.8587e+002 27100 105834,106309,105626
 1.2000e+000 106407 -2.4671e+002 -3.3952e+002  2.3006e+002 27100 105834,106093,106381
 1.2000e+000 106430 -2.5234e+002 -3.0461e+002  1.6621e+002 27100 105834,106381,106309
 1.2000e+000 106629 -6.1174e+001 -3.8457e+002  9.5734e+001 26688 106479,106557,106531
 1.2000e+000 106606 -4.7002e+000 -1.3738e+002  1.3254e+002 26688 106453,106557,106479
 1.2000e+000 106583 -1.8054e+002 -4.2132e+002  4.9126e+001 26688 106479,106531,106505
 1.2000e+000 107088 -1.9378e+002 -1.7583e+002  9.9228e+001 26248 107111,106918,106866
 1.2000e+000 107065 -2.1293e+002 -1.5480e+002  1.1935e+002 26248 107111,106866,106840
 1.2000e+000 107042 -1.8260e+002 -1.4203e+002  1.1464e+002 26248 106814,106970,106840
 1.2000e+000 107019 -1.8116e+002 -2.9258e+002  1.4458e+002 26248 106866,106918,106892
 1.2000e+000 106996 -3.5070e+002 -2.5809e+002  9.9264e+001 26248 106918,106970,106944
 1.2000e+000 107137 -2.2821e+002 -2.0612e+002  7.8455e+001 26248 106970,106918,107111
 1.2000e+000 107160 -2.2361e+002 -1.6360e+002  1.0219e+002 26248 106970,107111,106840
 1.2000e+000 107666 -5.5490e+002 -2.3558e+002  1.5357e+002 25908 107369,107499,107395
 1.2000e+000 107643 -7.4819e+002 -6.9982e+002  3.3718e+002 25908 107369,107525,107499
 1.2000e+000 107620 -4.6000e+002 -2.9290e+002  2.4996e+002 25908 107395,107473,107447
 1.2000e+000 107597 -4.0418e+002 -1.6166e+002  1.8888e+002 25908 107395,107499,107473
 1.2000e+000 107574 -7.6062e+002 -3.6405e+002  5.2537e+002 25908 107395,107447,107421
 1.2000e+000 107551 -3.3726e+002 -5.3497e+002  3.3172e+002 25908 107343,107525,107369
 1.2000e+000 108251 -4.4008e+002 -1.3184e+002  2.3632e+002 25454 108274,108006,107954
 1.2000e+000 108228 -3.4849e+002 -7.0546e+001  2.0003e+002 25454 108274,107954,108110
 1.2000e+000 108205 -3.1284e+002 -3.2352e+002  2.8514e+002 25454 108346,108032,108006
 1.2000e+000 108182 -5.5952e+002 -2.2704e+002  3.0791e+002 25454 107954,108006,107980
 1.2000e+000 108159 -2.0532e+002 -2.0484e+002  1.7814e+002 25454 107928,108110,107954
 1.2000e+000 108136 -5.9963e+002 -5.6275e+002  3.4981e+002 25454 108058,108110,108084
 1.2000e+000 108300 -4.1645e+002 -2.1941e+002  2.8853e+002 25454 108346,108006,108274
 1.2000e+000 108323 -3.6091e+002 -1.2142e+002  2.3272e+002 25454 108058,108274,108110
 1.2000e+000 108372 -1.8271e+002 -2.0780e+002  2.3648e+002 25454 108058,108032,108346
 1.2000e+000 108395 -2.9723e+002 -9.3142e+001  2.3782e+002 25454 108058,108346,108274
 1.2000e+000 108822 -2.9970e+002 -1.5603e+002  1.6113e+002 24943 108525,108681,108655
 1.2000e+000 108799 -3.7900e+002 -2.2447e+002  8.8822e+001 24943 108499,108681,108525
 1.2000e+000 108776 -1.6851e+002 -1.0476e+002  1.3503e+002 24943 108525,108655,108629
 1.2000e+000 108753 -3.0310e+002 -8.8327e+001  1.2549e+002 24943 108525,108629,108603
 1.2000e+000 108730 -4.8619e+002 -1.6386e+002  1.7916e+002 24943 108551,108603,108577
 1.2000e+000 108707 -5.1427e+002 -3.0471e+002  2.5824e+002 24943 108525,108603,108551
 1.2000e+000 109407 -2.1837e+001 -8.3781e+001  4.2250e+001 24745 109162,109214,109188
 1.2000e+000 109384 -1.8271e+002 -6.5311e+001  7.0669e+001 24745 109162,109266,109214
 1.2000e+000 109361 -2.1834e+002 -7.9745e+001  3.5175e+001 24745 109084,109266,109162
 1.2000e+000 109338 -3.1785e+002 -4.8491e+001  7.3459e+001 24745 109084,109162,109136
 1.2000e+000 109315 -7.6253e+001 -1.4672e+002  8.7592e+001 24745 109214,109266,109240
 1.2000e+000 109292 -2.2877e+002 -6.8033e+001  1.2548e+002 24745 109084,109136,109110
 1.2000e+000 109785 -6.4726e+002 -3.0921e+002  3.7139e+002 24341 109537,109615,109563
 1.2000e+000 109762 -8.0593e+001 -1.7572e+002  3.5091e+002 24341 109537,109641,109615
 1.2000e+000 109739 -4.3315e+002 -3.1990e+002  2.8204e+002 24341 109563,109615,109589
 1.2000e+000 109716 -2.8739e+002 -3.0243e+002  2.3678e+002 24341 109537,109667,109641
 1.2000e+000 109693 -1.4919e+002 -3.3891e+002  2.2087e+002 24341 109511,109667,109537
 1.2000e+000 110163 -5.7125e+002 -3.0583e+002  3.8943e+002 23837 110186,109967,109915
 1.2000e+000 110140 -5.6677e+002 -3.0300e+002  3.8803e+002 23837 110186,109915,109889
 1.2000e+000 110117 -2.4470e+002 -1.1563e+002  2.8640e+002 23837 109889,110045,109993
 1.2000e+000 110094 -5.2860e+002 -5.4209e+002  2.6081e+002 23837 109915,109967,109941
 1.2000e+000 110071 -3.2324e+002 -5.0237e+000  5.4412e+001 23837 109993,110045,110019
 1.2000e+000 110212 -5.6933e+002 -3.0655e+002  3.9128e+002 23837 109993,109967,110186
 1.2000e+000 110235 -5.6847e+002 -3.0567e+002  3.9046e+002 23837 109993,110186,109889
 1.2000e+000 110336 -3.5741e+002 -8.0019e+002  4.0331e+002 23433 110258,110310,110284
 1.2000e+000 110584 -4.6981e+002 -2.8424e+002  2.3133e+002 22829 110607,110411,110385
 1.2000e+000 110561 -5.6702e+002 -3.2737e+002  2.5041e+002 22829 110607,110385,110489
 1.2000e+000 110538 -4.4664e+002 -3.2393e+002  1.6298e+002 22829 110437,110489,110463
 1.2000e+000 110515 -4.2424e+002 -2.2060e+002  3.0898e+002 22829 110359,110489,110385
 1.2000e+000 110633 -4.8754e+002 -2.7085e+002  1.6296e+002 22829 110437,110411,110607
 1.2000e+000 110656 -5.3993e+002 -3.0020e+002  1.8181e+002 22829 110437,110607,110489
 1.2000e+000 110906 -8.9987e+002 -3.7608e+002  2.4443e+002 22432 110707,110759,110733
 1.2000e+000 110883 -5.8861e+002 -3.9401e+002  1.9690e+002 22432 110707,110785,110759
 1.2000e+000 110860 -5.8349e+002 -3.4806e+002  3.2095e+002 22432 110707,110811,110785
 1.2000e+000 110837 -7.0781e+002 -4.9598e+002  2.6092e+002 22432 110681,110811,110707
 1.2000e+000 111288 -7.7119e+001 -1.7082e+002  1.5707e+002 22142 111092,111144,111118
 1.2000e+000 111265 -2.4251e+002 -1.9015e+002  1.4431e+002 22142 111066,111144,111092
 1.2000e+000 111242 -2.2065e+002 -1.5022e+002  1.2872e+002 22142 111040,111144,111066
 1.2000e+000 111219 -4.0598e+002 -5.0938e+001  9.0737e+001 22142 111014,111144,111040
 1.2000e+000 111196 -2.5180e+002  4.1201e+000  9.8188e+001 22142 111014,111170,111144
 1.2000e+000 111389 -6.2707e+000 -8.3369e+001  2.1485e+002 21830 111311,111363,111337
 1.2000e+000 111735 -4.7280e+002  3.2105e+001  4.0057e+002 21268 111758,111542,111438
 1.2000e+000 111712 -3.2126e+002  7.0931e+001  2.3807e+002 21268 111758,111438,111412
 1.2000e+000 111689 -1.5851e+002 -2.8060e+002  5.0579e+002 21268 111438,111542,111464
 1.2000e+000 111666  1.2715e+002 -1.3079e+002  6.4914e+002 21268 111464,111542,111490
 1.2000e+000 111643 -8.1159e+002 -4.4583e+002  4.1186e+002 21268 111412,111594,111568
 1.2000e+000 111620  5.4006e+002  3.3892e+002  8.4033e+002 21268 111490,111542,111516
 1.2000e+000 111784 -5.0481e+002 -5.8074e+001  4.0536e+002 21268 111568,111542,111758
 1.2000e+000 111807 -4.8107e+002 -2.6069e+002  2.9622e+002 21268 111568,111758,111412
 1.2000e+000 111959 -4.8958e+002 -6.0307e+001  1.7290e+002 20864 111982,111910,111884
 1.2000e+000 111936 -4.1402e+002 -8.0103e+001  2.7274e+002 20864 112114,111832,111910
 1.2000e+000 112008 -4.6341e+002 -1.8220e+002  2.3257e+002 20864 112114,111910,111982
 1.2000e+000 112140 -3.9572e+002 -2.0162e+002  2.0675e+002 20864 111858,111832,112114
 1.2000e+000 112163 -4.5180e+002 -3.2361e+002  1.6893e+002 20864 111858,112114,111982
 1.2000e+000 112411 -4.2103e+001 -9.3515e+000  1.5692e+001 20324 112186,112290,112212
 1.2000e+000 112388 -4.4080e+000 -3.1276e+000  2.5776e+001 20324 112186,112316,112290
 1.2000e+000 112365  2.4292e+002 -1.5479e+002  1.8913e+001 20324 112212,112290,112264
 1.2000e+000 112342 -7.9300e+002 -3.3940e+002 -5.4927e+001 20324 112212,112264,112238
 1.2000e+000 112659 -1.1527e+002 -3.8739e+001  2.6168e+002 19920 112512,112564,112538
 1.2000e+000 112636 -3.1096e+002 -1.4895e+002  1.8735e+002 19920 112434,112564,112512
 1.2000e+000 112613 -3.1616e+002 -1.9865e+002  2.0653e+002 19920 112434,112512,112460
 1.2000e+000 112590 -3.2809e+002 -2.0469e+002  2.1052e+002 19920 112460,112512,112486
 1.2000e+000 112811 -1.6071e+002 -6.4935e+001  1.5905e+002 19630 112684,112736,112710
 1.2000e+000 112788  2.2703e+001 -1.5255e+002  6.7727e+001 19630 112684,112762,112736
 1.2000e+000 113012 -2.8620e+002 -1.0915e+002  2.9377e+002 19169 112862,112940,112888
 1.2000e+000 112989 -4.9653e+002 -3.9049e+002  1.9913e+002 19169 112836,112940,112862
 1.2000e+000 112966 -2.8792e+002 -3.7533e+002  2.6046e+002 19169 112888,112940,112914
 1.2000e+000 113213 -6.6946e+002 -2.6900e+002  3.3556e+002 18600 113037,113089,113063
 1.2000e+000 113190 -4.8450e+002 -2.1003e+002  2.8960e+002 18600 113037,113115,113089
 1.2000e+000 113167 -7.5567e+002 -4.6200e+002  4.5372e+002 18600 113037,113141,113115
 1.2000e+000 113485 -3.1159e+002 -1.1930e+002  3.0134e+002 18352 113260,113312,113286
 1.2000e+000 113462 -6.1693e+002 -3.6377e+002  4.0786e+002 18352 113260,113390,113312
 1.2000e+000 113439 -5.8029e+002 -1.2893e+002  3.0791e+002 18352 113312,113390,113364
 1.2000e+000 113416 -2.6476e+002 -9.7421e+001  3.1997e+002 18352 113312,113364,113338
 1.2000e+000 113757 -4.4224e+002 -1.7450e+002  3.0892e+002 17834 113558,113610,113584
 1.2000e+000 113734 -6.2828e+002 -3.4143e+002  3.9525e+002 17834 113532,113610,113558
 1.2000e+000 113711 -6.4819e+002 -4.2175e+002  3.2418e+002 17834 113532,113662,113610
 1.2000e+000 113688 -3.2976e+002 -1.0935e+002  4.5113e+002 17834 113610,113662,113636
 1.2000e+000 113958 -3.9198e+002 -1.6035e+002  2.2063e+002 17330 113782,113834,113808
 1.2000e+000 113935 -2.2264e+002 -1.4687e+002  1.6732e+002 17330 113782,113886,113834
 1.2000e+000 113912 -2.7186e+002 -1.2667e+002  1.0656e+002 17330 113834,113886,113860
 1.2000e+000 114110 -6.3596e+002 -2.4607e+002  4.0803e+002 16874 113983,114035,114009
 1.2000e+000 114087 -2.4497e+002 -5.6249e+002  3.5378e+002 16874 113983,114061,114035
 1.2000e+000 114465 -6.0329e+002 -2.5534e+002  1.4281e+002 16270 114240,114292,114266
 1.2000e+000 114442 -3.9615e+002 -8.5857e+001  6.3995e+001 16270 114240,114370,114292
 1.2000e+000 114419 -2.0433e+002 -8.5290e+001  1.2118e+002 16270 114292,114344,114318
 1.2000e+000 114396 -4.0939e+002 -1.8820e+002  6.5083e+001 16270 114292,114370,114344
 1.2000e+000 114566 -3.3198e+001  3.3198e+001  5.5255e+002 15834 114488,114540,114514
 1.2000e+000 114667 -3.9653e+002 -1.5986e+002  2.5323e+002 15155 114589,114641,114615
 1.2000e+000 114890 -3.4649e+002 -1.3201e+002  3.2372e+002 421 114766,114818,114792
 1.2000e+000 114867 -4.9243e+002 -4.0810e+002  2.6792e+002 421 114714,114818,114766
 1.2000e+000 114844 -6.3573e+002 -2.6861e+002  1.5565e+002 421 114714,114766,114740
 1.3000e+000 66553 -4.3403e+002 -1.8901e+002  2.3748e+002 66108 66354,66458,66432
 1.3000e+000 66530 -4.4883e+002 -1.8873e+002  1.5862e+002 66108 66328,66458,66354
 1.3000e+000 66507 -2.5377e+002 -2.0222e+002  1.5839e+002 66108 66354,66432,66406
 1.3000e+000 66484  1.1451e+002  6.2406e+001  2.9410e+002 66108 66354,66406,66380
 1.3000e+000 66951 -3.2033e+002 -1.3419e+002  1.4194e+002 65910 66703,66833,66807
 1.3000e+000 66928 -4.3808e+001 -9.6217e+001  1.8982e+002 65910 66677,66833,66703
 1.3000e+000 66905 -1.5908e+002 -3.3917e+002  2.2381e+002 65910 66729,66781,66755
 1.3000e+000 66882 -5.8684e+002 -2.4417e+002  2.1575e+002 65910 66729,66807,66781
 1.3000e+000 66859 -4.1594e+002 -6.2035e+001  1.4498e+002 65910 66703,66807,66729
 1.3000e+000 67150 -3.9845e+002 -1.7088e+002  2.6118e+001 65712 67026,67078,67052
 1.3000e+000 67127 -4.5438e+002 -8.5912e+001 -2.1730e+000 65712 66974,67078,67026
 1.3000e+000 67104 -1.1926e+003 -3.0896e+002 -6.9884e+001 65712 66974,67026,67000
 1.3000e+000 67481 -8.3215e+002 -1.6263e+002  3.0522e+002 65422 67282,67360,67334
 1.3000e+000 67458 -3.7332e+002 -1.2542e+002  4.6856e+002 65422 67282,67386,67360
 1.3000e+000 67435 -2.0068e+002  1.1826e+002  2.4357e+002 65422 67282,67334,67308
 1.3000e+000 67412  1.4982e+001 -1.1581e+002  2.2697e+002 65422 67256,67386,67282
 1.3000e+000 68115 -2.0542e+002 -1.7597e+002  1.0034e+002 65018 67795,67925,67873
 1.3000e+000 68092 -2.5582e+002 -1.9947e+002  8.0256e+001 65018 67769,67925,67795
 1.3000e+000 68069 -1.6113e+002 -1.2438e+002  1.1938e+002 65018 67873,67925,67899
 1.3000e+000 68046 -3.3430e+002 -2.7380e+002  1.1240e+002 65018 67769,67951,67925
 1.3000e+000 68023 -2.9270e+002 -2.2761e+002  1.4096e+002 65018 67795,67873,67821
 1.3000e+000 68000 -3.1550e+002 -2.2648e+002  1.3002e+002 65018 67821,67873,67847
 1.3000e+000 67977 -5.6325e+002 -3.3396e+002  1.2438e+002 65018 67743,67951,67769
 1.3000e+000 68363 -2.0883e+002 -4.4087e+002  4.4047e+002 64820 68190,68242,68216
 1.3000e+000 68340 -4.4203e+002 -3.2479e+002  4.6359e+002 64820 68190,68268,68242
 1.3000e+000 68317 -2.4508e+002 -2.3079e+002  5.0234e+002 64820 68164,68268,68190
 1.3000e+000 68294 -9.0993e+002 -3.6981e+002  3.5493e+002 64820 68138,68268,68164
 1.3000e+000 68513 -3.9776e+002 -2.1079e+002  2.5473e+002 64366 68868,68536,68438
 1.3000e+000 68490 -2.4462e+002 -1.3624e+002  1.5775e+002 64366 68536,68412,68386
 1.3000e+000 68562 -5.6579e+002 -2.7029e+002  2.7589e+002 64366 68740,68536,68464
 1.3000e+000 68585 -3.5709e+002 -1.9664e+002  2.0246e+002 64366 68608,68536,68386
 1.3000e+000 68634 -4.5297e+002 -3.9550e+002  1.7358e+002 64366 68464,68536,68608
 1.3000e+000 68766 -3.6833e+002 -1.6821e+002  2.3686e+002 64366 68438,68536,68740
 1.3000e+000 68894 -3.5712e+002 -1.5944e+002  2.7267e+002 64366 68412,68536,68868
 1.3000e+000 69172  1.4022e+001 -4.2122e+002  9.0096e+001 64168 69022,69074,69048
 1.3000e+000 69149 -4.5071e+002 -1.8650e+002  2.0663e+002 64168 68996,69074,69022
 1.3000e+000 69126 -5.4179e+002 -3.8349e+002  1.2312e+002 64168 68996,69100,69074
 1.3000e+000 69371 -4.6485e+002 -1.7640e+002  3.2041e+002 63970 69466,69394,69273
 1.3000e+000 69348 -2.8574e+002 -1.4223e+002  1.3366e+002 63970 69394,69247,69221
 1.3000e+000 69325 -7.8516e+002 -3.2957e+002  2.0883e+002 63970 69195,69299,69221
 1.3000e+000 69420 -6.1233e+002 -2.6760e+002  3.8252e+002 63970 69299,69273,69394
 1.3000e+000 69443 -4.4638e+002 -3.3365e+002  2.2413e+002 63970 69299,69394,69221
 1.3000e+000 69492 -4.8182e+002 -2.0535e+002  3.1342e+002 63970 69247,69394,69466
 1.3000e+000 69904 -2.0137e+001 -1.0536e+002  5.4588e+001 63680 69705,69783,69731
 1.3000e+000 69881  1.6420e+001 -8.0394e+001  4.2141e+001 63680 69679,69783,69705
 1.3000e+000 69858 -1.1758e+002 -1.6073e+002  8.0881e+001 63680 69679,69809,69783
 1.3000e+000 69835 -6.9249e+001 -1.0040e+002  5.0177e+001 63680 69731,69783,69757
 1.3000e+000 70054 -1.5687e+001 -2.5063e+002  1.5582e+002 63476 70077,69953,69927
 1.3000e+000 70031  6.5482e+001 -1.0415e+002  2.2472e+002 63476 70077,69927,70005
 1.3000e+000 70103 -1.2994e+002 -1.5490e+002  9.3517e+001 63476 69979,69953,70077
 1.3000e+000 70126 -6.4357e+001 -2.4026e+001  1.5144e+002 63476 69979,70077,70005
 1.3000e+000 70325 -8.0912e+002 -3.3560e+002  3.5890e+002 63278 70149,70227,70175
 1.3000e+000 70302 -3.6357e+002 -1.2916e+002  4.1347e+002 63278 70149,70253,70227
 1.3000e+000 70279 -9.4962e+002 -4.1919e+002  2.2267e+002 63278 70175,70227,70201
 1.3000e+000 70597 -3.8474e+002  7.8755e+000  1.4936e+002 63080 70372,70476,70424
 1.3000e+000 70574 -2.2349e+002 -8.9760e+001  1.9666e+002 63080 70372,70502,70476
 1.3000e+000 70551 -5.7475e+002 -2.3577e+002  2.5861e+002 63080 70424,70476,70450
 1.3000e+000 70528 -8.4941e+002 -2.3836e+002  4.0919e+002 63080 70372,70424,70398
 1.3000e+000 70847 -3.5834e+001 -2.1755e+002  7.6194e+001 62740 70870,70648,70622
 1.3000e+000 70824 -1.6032e+002 -1.7735e+002  1.2838e+002 62740 70870,70622,70752
 1.3000e+000 70801 -5.3716e+001 -3.1240e+002  1.5788e+002 62740 70648,70726,70700
 1.3000e+000 70778 -6.1704e+001 -3.6043e+002  1.5773e+002 62740 70648,70700,70674
 1.3000e+000 70896 -1.5602e+002 -2.6789e+002  5.9314e+001 62740 70726,70648,70870
 1.3000e+000 70919 -2.1701e+002 -1.8935e+002  1.2736e+002 62740 70726,70870,70752
 1.3000e+000 71022 -3.8953e+001  3.8953e+001  5.9835e+002 62520 70944,70996,70970
 1.3000e+000 71223 -6.5701e+002 -3.2684e+002  4.2147e+002 62230 71073,71151,71099
 1.3000e+000 71200 -6.1479e+002 -3.0299e+002  4.3175e+002 62230 71047,71151,71073
 1.3000e+000 71177 -3.4753e+002 -5.5487e+002  3.4794e+002 62230 71099,71151,71125
 1.3000e+000 71861 -3.1466e+002 -4.0133e+002  6.0639e+000 61712 71515,71697,71671
 1.3000e+000 71838 -3.5922e+002 -4.9525e+002  6.5965e+001 61712 71489,71697,71515
 1.3000e+000 71815 -8.9308e+002 -4.1367e+002  2.6259e+002 61712 71884,71541,71515
 1.3000e+000 71792 -6.1300e+002 -2.4958e+002  1.9476e+002 61712 71884,71515,71671
 1.3000e+000 71769 -2.2980e+002 -5.6734e+002  2.2027e+002 61712 71541,71619,71593
 1.3000e+000 71746 -2.5234e+002 -7.1184e+002  8.6481e+001 61712 71619,71671,71645
 1.3000e+000 71723 -7.5082e+002 -8.8859e+002  5.1260e+002 61712 71541,71593,71567
 1.3000e+000 71910 -6.2966e+002 -5.7801e+002  3.8209e+002 61712 71619,71541,71884
 1.3000e+000 71933 -4.4410e+002 -4.7199e+002  3.3907e+002 61712 71619,71884,71671
 1.3000e+000 72230 -2.7454e+002 -1.1798e+002  5.0487e+001 61208 72253,72060,72008
 1.3000e+000 72207 -2.7387e+002 -8.0110e+001  4.0909e+001 61208 72253,72008,71982
 1.3000e+000 72184 -2.1545e+002 -4.0894e+001  3.5707e+001 61208 71982,72112,72086
 1.3000e+000 72161 -4.0556e+002 -1.1234e+002  1.0106e+002 61208 72008,72060,72034
 1.3000e+000 72138 -1.4841e+002 -4.0020e+001  7.5502e+001 61208 71956,72112,71982
 1.3000e+000 72279 -2.6176e+002 -9.1056e+001  3.5402e+001 61208 72086,72060,72253
 1.3000e+000 72302 -2.7427e+002 -6.8505e+001  2.7207e+001 61208 72086,72253,71982
 1.3000e+000 72761 -4.8533e+002 -2.7681e+002  1.9435e+002 60804 72487,72617,72513
 1.3000e+000 72738 -4.9685e+002 -2.9847e+002  1.9916e+002 60804 72487,72643,72617
 1.3000e+000 72715 -1.7884e+002 -3.2426e+002  2.1411e+002 60804 72565,72617,72591
 1.3000e+000 72692 -3.7670e+002 -2.4671e+002  2.0994e+002 60804 72513,72617,72565
 1.3000e+000 72669 -4.0865e+002 -2.7395e+002  2.7222e+002 60804 72513,72565,72539
 1.3000e+000 72911 -3.8953e+001  3.8953e+001  5.9835e+002 60556 72784,72836,72810
 1.3000e+000 72888  4.7835e+002  8.1122e+001  3.7896e+002 60556 72784,72862,72836
 1.3000e+000 73468 -1.9535e+002 -2.2476e+002  1.5712e+002 60244 73491,73226,73200
 1.3000e+000 73445 -3.1888e+002 -2.9090e+002  2.7271e+002 60244 73563,73491,73200
 1.3000e+000 73422 -5.8273e+002 -2.0562e+002  2.9305e+002 60244 73563,73200,73174
 1.3000e+000 73399 -1.9854e+002 -2.7854e+002  1.4744e+002 60244 73226,73278,73252
 1.3000e+000 73376 -4.4690e+002 -2.5391e+002  2.0066e+002 60244 73122,73304,73278
 1.3000e+000 73353 -4.6656e+002 -3.7256e+002  2.1462e+002 60244 73096,73304,73122
 1.3000e+000 73330 -7.9268e+002 -2.5006e+002 -1.4272e+002 60244 73122,73174,73148
 1.3000e+000 73517 -4.6129e+002 -3.5218e+002  2.2031e+002 60244 73278,73226,73491
 1.3000e+000 73540 -4.1432e+002 -2.3292e+002  2.0965e+002 60244 73278,73491,73122
 1.3000e+000 73589 -7.3099e+002 -3.6171e+002  2.2954e+002 60244 73122,73491,73563
 1.3000e+000 73612 -9.9416e+002 -2.7316e+002  2.6591e+002 60244 73122,73563,73174
 1.3000e+000 73762 -3.6931e+002 -8.6609e+002  3.6775e+002 59875 73661,73713,73687
 1.3000e+000 73739 -5.2693e+002 -3.4319e+002  3.0591e+002 59875 73635,73713,73661
 1.3000e+000 74191 -1.2876e+002 -2.7740e+002  3.9678e+002 59478 74214,73894,73868
 1.3000e+000 74168 -3.2136e+002 -2.5819e+002  4.1819e+002 59478 74214,73868,74050
 1.3000e+000 74145 -1.9624e+002 -2.6141e+002  2.2260e+002 59478 73894,73946,73920
 1.3000e+000 74122 -2.8537e+002 -2.7147e+002  2.4248e+002 59478 73894,73998,73946
 1.3000e+000 74099 -9.4010e+002 -5.2111e+002  6.5194e+002 59478 73998,74050,74024
 1.3000e+000 74076 -3.7901e+002 -1.9082e+002  1.4432e+002 59478 73946,73998,73972
 1.3000e+000 74240 -3.0505e+002 -2.2444e+002  3.1477e+002 59478 73998,73894,74214
 1.3000e+000 74263 -4.9432e+002 -2.1884e+002  3.0525e+002 59478 73998,74214,74050
 1.3000e+000 74720 -4.0285e+002 -3.3299e+002  1.5889e+002 58774 74472,74602,74498
 1.3000e+000 74697 -4.2138e+002 -3.1526e+002  1.7029e+002 58774 74446,74602,74472
 1.3000e+000 74674 -4.0640e+002 -2.7751e+002  1.6509e+002 58774 74498,74576,74524
 1.3000e+000 74651 -4.0209e+002 -2.9417e+002  1.5188e+002 58774 74498,74602,74576
 1.3000e+000 74628 -4.3381e+002 -4.4807e+002  2.1666e+002 58774 74524,74576,74550
 1.3000e+000 75226 -3.6042e+002 -1.3201e+002  1.9489e+002 58270 74955,75085,75033
 1.3000e+000 75203 -2.7721e+002 -2.9231e+002  2.4127e+002 58270 74929,75085,74955
 1.3000e+000 75180 -4.2905e+002 -2.0822e+002  2.3230e+002 58270 75033,75085,75059
 1.3000e+000 75157 -5.8451e+002 -1.2620e+002  1.4529e+002 58270 74955,75007,74981
 1.3000e+000 75134 -3.0052e+002 -1.0536e+002  1.1581e+002 58270 74955,75033,75007
 1.3000e+000 75111 -3.0126e+001 -3.4891e+002  1.0921e+002 58270 74903,75085,74929
 1.3000e+000 75425 -1.0346e+002 -4.4917e+001  5.4851e+001 57830 75448,75301,75249
 1.3000e+000 75402 -8.9419e+001 -5.7297e+000  3.7984e+001 57830 75448,75249,75353
 1.3000e+000 75379 -9.8517e+001 -1.3129e+002  4.3165e+001 57830 75520,75301,75275
 1.3000e+000 75474 -1.0224e+002 -6.6755e+001  6.9985e+001 57830 75327,75301,75448
 1.3000e+000 75497 -1.0044e+002 -5.0977e+001  5.2197e+001 57830 75327,75448,75353
 1.3000e+000 75546 -5.8358e+001 -2.4532e+001  1.8264e+001 57830 75249,75301,75520
 1.3000e+000 76261 -1.8313e+002 -3.1069e+002  1.6731e+002 57426 76284,76097,76071
 1.3000e+000 76238 -1.7834e+002 -2.4656e+002  2.0684e+002 57426 75889,76097,75915
 1.3000e+000 76215 -2.8074e+002 -3.3077e+002  1.8504e+002 57426 76428,76284,76071
 1.3000e+000 76192 -2.0413e+002 -2.6405e+002  1.0482e+002 57426 76356,75941,75915
 1.3000e+000 76169 -2.8461e+002 -2.7687e+002  1.7628e+002 57426 76428,76071,76019
 1.3000e+000 76146 -2.8586e+002 -3.1445e+002  1.5574e+002 57426 76019,76071,76045
 1.3000e+000 76123 -2.6356e+002 -2.5574e+002  2.3286e+002 57426 75967,76019,75993
 1.3000e+000 76310 -2.2317e+002 -4.0342e+002  1.5586e+002 57426 75915,76097,76284
 1.3000e+000 76333 -2.0915e+002 -3.2910e+002  1.0733e+002 57426 76356,75915,76284
 1.3000e+000 76382 -2.3442e+002 -1.7323e+002  1.6386e+002 57426 75967,75941,76356
 1.3000e+000 76405 -2.3561e+002 -2.2329e+002  1.5631e+002 57426 75967,76356,76284
 1.3000e+000 76454 -2.5770e+002 -2.8118e+002  1.7033e+002 57426 75967,76284,76428
 1.3000e+000 76477 -2.8485e+002 -2.5094e+002  1.7079e+002 57426 75967,76428,76019
 1.3000e+000 76953 -2.9733e+002 -5.6336e+002  2.7176e+002 56908 76976,76711,76685
 1.3000e+000 76930 -3.0463e+002 -5.7084e+002  2.4775e+002 56908 77048,76976,76685
 1.3000e+000 76907 -5.4295e+002 -5.9045e+002  3.5856e+002 56908 77048,76685,76633
 1.3000e+000 76884 -7.7519e+002 -8.5649e+002  5.0210e+002 56908 76711,76789,76763
 1.3000e+000 76861 -4.3778e+002 -3.7457e+002  2.1895e+002 56908 76581,76789,76607
 1.3000e+000 76838 -7.6272e+002 -6.2494e+002  2.0063e+002 56908 76711,76763,76737
 1.3000e+000 76815 -1.0985e+003 -9.5584e+002  6.2973e+002 56908 76633,76685,76659
 1.3000e+000 77002 -2.7387e+002 -5.6610e+002  3.1226e+002 56908 76789,76711,76976
 1.3000e+000 77025 -3.4422e+002 -3.9924e+002  1.7060e+002 56908 76789,76976,76607
 1.3000e+000 77074 -6.7351e+002 -5.7017e+002  2.4028e+002 56908 76607,76976,77048
 1.3000e+000 77097 -7.9970e+002 -4.8873e+002  3.3969e+002 56908 76607,77048,76633
 1.3000e+000 77475 -3.3508e+002 -5.7174e+002  3.1646e+002 56546 77570,77498,77279
 1.3000e+000 77452 -2.9128e+002 -6.8647e+002  3.7322e+002 56546 77498,77227,77357
 1.3000e+000 77429 -3.7549e+002 -6.0628e+002  3.6488e+002 56546 77570,77279,77253
 1.3000e+000 77406 -5.2829e+002 -7.9272e+002  4.0221e+002 56546 77201,77357,77227
 1.3000e+000 77383 -4.6217e+002 -5.7908e+002  2.1481e+002 56546 77279,77331,77305
 1.3000e+000 77524 -3.1734e+002 -4.1792e+002  2.9917e+002 56546 77331,77279,77498
 1.3000e+000 77547 -2.4960e+002 -5.4886e+002  4.2128e+002 56546 77331,77498,77357
 1.3000e+000 77596 -3.8460e+002 -5.9323e+002  3.8373e+002 56546 77227,77498,77570
 1.3000e+000 77619 -4.3252e+002 -6.9403e+002  4.3424e+002 56546 77227,77570,77253
 1.3000e+000 77818 -4.4319e+002 -4.7072e+002  3.0253e+002 56042 77841,77694,77668
 1.3000e+000 77795 -4.0438e+002 -4.3207e+002  2.1589e+002 56042 77841,77668,77746
 1.3000e+000 77772 -4.4198e+002 -7.0377e+002  1.9642e+002 56042 77642,77746,77668
 1.3000e+000 77867 -4.8820e+002 -5.3922e+002  3.3660e+002 56042 77720,77694,77841
 1.3000e+000 77890 -4.3962e+002 -4.8879e+002  2.4822e+002 56042 77720,77841,77746
 1.3000e+000 78349 -2.5966e+002 -1.1905e+002  1.5457e+002 55538 78075,78127,78101
 1.3000e+000 78326 -3.3269e+002 -1.8841e+002  8.0451e+001 55538 78075,78205,78127
 1.3000e+000 78303 -2.5713e+002 -1.1322e+002  4.8091e+001 55538 78075,78231,78205
 1.3000e+000 78280 -2.0853e+002 -2.4215e+002  1.4377e+002 55538 78127,78179,78153
 1.3000e+000 78257 -1.9872e+002 -1.7557e+002  7.8069e+001 55538 78127,78205,78179
 1.3000e+000 78806 -2.4555e+002 -3.3011e+002  9.6265e+001 55034 78829,78636,78610
 1.3000e+000 78783 -2.8257e+002 -3.0542e+002  1.0902e+002 55034 78901,78829,78610
 1.3000e+000 78760 -2.2447e+002 -2.9954e+002  1.1506e+002 55034 78901,78610,78584
 1.3000e+000 78737 -3.3425e+002 -3.2348e+002  1.0862e+002 55034 78558,78688,78662
 1.3000e+000 78714 -3.6857e+002 -3.1879e+002  2.8956e+002 55034 78532,78688,78558
 1.3000e+000 78855 -2.9565e+002 -4.1751e+002  6.4797e+001 55034 78662,78636,78829
 1.3000e+000 78878 -2.9304e+002 -3.1441e+002  1.2180e+002 55034 78662,78829,78558
 1.3000e+000 78927 -2.4466e+002 -2.8452e+002  1.4925e+002 55034 78558,78829,78901
 1.3000e+000 78950 -2.2874e+002 -2.9491e+002  1.6038e+002 55034 78558,78901,78584
 1.3000e+000 79407 -2.5120e+002 -8.0449e+001  2.2171e+002 54430 79430,79237,79159
 1.3000e+000 79384 -3.5368e+002 -2.5296e+002  7.4481e+001 54430 79430,79159,79133
 1.3000e+000 79361 -2.1263e+002 -1.1217e+002  9.2641e+001 54430 79237,79289,79263
 1.3000e+000 79338 -3.6617e+002 -1.3305e+002  2.2107e+002 54430 79185,79237,79211
 1.3000e+000 79315 -3.8535e+002 -1.2623e+002  2.5013e+002 54430 79159,79237,79185
 1.3000e+000 79456 -2.5044e+002 -2.8124e+002  1.0160e+002 54430 79289,79237,79430
 1.3000e+000 79479 -3.0800e+002 -4.9917e+002 -1.3600e+001 54430 79289,79430,79133
 1.3000e+000 79936 -1.7982e+002 -7.5952e+001  2.1051e+002 53919 79662,79766,79688
 1.3000e+000 79913 -7.1012e+002 -3.4716e+002  4.2136e+002 53919 79662,79818,79766
 1.3000e+000 79890 -9.9366e+002 -4.1193e+002  8.1984e+001 53919 79766,79818,79792
 1.3000e+000 79867 -5.4413e+002 -1.8324e+002  3.5044e+002 53919 79714,79766,79740
 1.3000e+000 79844 -4.1075e+002 -2.2273e+002  2.8519e+002 53919 79688,79766,79714
 1.3000e+000 80037 -7.9867e+001 -2.6098e+002  2.4687e+002 53671 79959,80011,79985
 1.3000e+000 80405 -6.3021e+001 -5.7001e+001 -1.7516e+001 53267 80108,80264,80238
 1.3000e+000 80382 -4.9289e+001 -4.0332e+000  2.5788e+000 53267 80082,80264,80108
 1.3000e+000 80359 -5.3892e+001 -2.5445e+002  1.7326e+002 53267 80108,80238,80134
 1.3000e+000 80336 -3.4917e+001 -1.0043e+002  1.2836e+002 53267 80134,80212,80186
 1.3000e+000 80313 -2.0951e+002 -2.4786e+002  2.2421e+002 53267 80134,80238,80212
 1.3000e+000 80290  2.2368e+001 -1.7310e+002  5.1182e+001 53267 80134,80186,80160
 1.3000e+000 80915 -1.6789e+002 -2.6884e+002  1.3047e+002 52969 80644,80774,80748
 1.3000e+000 80892 -1.9543e+002 -8.2294e+001  4.1368e+001 52969 80618,80774,80644
 1.3000e+000 80869 -2.5201e+002 -3.9293e+002  6.5844e+001 52969 80644,80748,80670
 1.3000e+000 80846 -1.5011e+002 -9.0439e+001  2.1575e+001 52969 80592,80774,80618
 1.3000e+000 80823 -3.1450e+002 -2.7460e+002  1.0816e+002 52969 80670,80722,80696
 1.3000e+000 80800 -1.7711e+002 -2.1819e+002  8.3840e+001 52969 80670,80748,80722
 1.3000e+000 81266  7.2993e+001 -1.4132e+002  3.4934e+001 52565 81041,81145,81067
 1.3000e+000 81243 -1.3639e+002 -4.8932e+002  1.2745e+002 52565 81041,81171,81145
 1.3000e+000 81220 -4.0668e+002 -1.0926e+003  2.0413e+002 52565 81067,81119,81093
 1.3000e+000 81197  1.1131e+002  4.6099e+001  5.7091e+001 52565 81067,81145,81119
 1.3000e+000 81723 -2.2370e+002 -1.3814e+002  1.0039e+002 51904 81449,81527,81475
 1.3000e+000 81700 -1.6801e+002 -5.4219e+001  7.0431e+001 51904 81449,81579,81527
 1.3000e+000 81677 -3.9855e+002 -3.3300e+002  2.0796e+002 51904 81449,81605,81579
 1.3000e+000 81654 -1.7782e+002 -5.0578e+001  6.9842e+001 51904 81527,81579,81553
 1.3000e+000 81631 -3.1364e+002 -1.0365e+002  3.4217e+001 51904 81475,81527,81501
 1.3000e+000 82327 -3.9987e+002 -4.1851e+002  2.8525e+002 51321 82422,82350,82036
 1.3000e+000 82304 -4.1077e+002 -3.2551e+002  2.9985e+002 51321 82494,82350,81958
 1.3000e+000 82281 -4.0796e+002 -4.2969e+002  2.7021e+002 51321 82422,82036,82010
 1.3000e+000 82258 -4.1034e+002 -3.1456e+002  2.7450e+002 51321 82494,81958,81932
 1.3000e+000 82235 -4.3360e+002 -2.3553e+002  1.5965e+002 51321 82062,82114,82088
 1.3000e+000 82212 -9.9242e+002 -6.1044e+002  3.8657e+002 51321 81932,82140,82114
 1.3000e+000 82189 -4.2832e+002 -1.6421e+002  2.5303e+002 51321 81958,82010,81984
 1.3000e+000 82166 -3.6916e+002 -3.6373e+002  2.4791e+002 51321 81906,82140,81932
 1.3000e+000 82376 -4.0127e+002 -4.7772e+002  2.8335e+002 51321 82062,82036,82350
 1.3000e+000 82399 -4.1864e+002 -3.9444e+002  2.7499e+002 51321 82062,82350,82114
 1.3000e+000 82448 -3.8164e+002 -4.0348e+002  2.9782e+002 51321 81958,82350,82422
 1.3000e+000 82471 -3.8710e+002 -4.1312e+002  2.8311e+002 51321 81958,82422,82010
 1.3000e+000 82520 -4.2263e+002 -3.5351e+002  2.9881e+002 51321 82114,82350,82494
 1.3000e+000 82543 -4.2569e+002 -3.5012e+002  2.7723e+002 51321 82114,82494,81932
 1.3000e+000 83019 -5.1120e+002 -2.1898e+002  1.3862e+002 50817 82673,82751,82699
 1.3000e+000 82996 -5.2083e+002 -2.4769e+002  2.0437e+002 50817 83042,82673,82855
 1.3000e+000 82973 -4.6232e+002 -3.4861e+002  2.2542e+002 50817 83042,82855,82803
 1.3000e+000 82950 -6.1986e+002 -4.3263e+002  2.9282e+002 50817 82751,82803,82777
 1.3000e+000 82927 -6.3148e+002 -3.6819e+002  1.1861e+002 50817 82647,82855,82673
 1.3000e+000 82904 -6.0435e+002 -4.6741e+002  3.3430e+002 50817 82803,82855,82829
 1.3000e+000 82881 -6.2959e+002 -4.7701e+002  1.6746e+002 50817 82699,82751,82725
 1.3000e+000 83068 -5.9463e+002 -3.2278e+002  2.4582e+002 50817 82751,82673,83042
 1.3000e+000 83091 -4.9356e+002 -3.9728e+002  2.5255e+002 50817 82751,83042,82803
 1.3000e+000 83290 -4.3968e+002 -2.0558e+002  2.9428e+002 50356 83313,83166,83140
 1.3000e+000 83267 -5.0898e+002 -4.2175e+002  2.2906e+002 50356 83515,83313,83140
 1.3000e+000 83244 -5.8809e+002 -4.0919e+002  1.1019e+002 50356 83515,83140,83385
 1.3000e+000 83339 -5.1901e+002 -3.6905e+002  3.2244e+002 50356 83192,83166,83313
 1.3000e+000 83362 -3.6263e+002 -3.8717e+002  2.6559e+002 50356 83192,83313,83218
 1.3000e+000 83411 -2.1979e+002 -2.0486e+002  1.6669e+002 50356 83114,83218,83385
 1.3000e+000 83541 -3.1080e+002 -3.5413e+002  2.1975e+002 50356 83218,83313,83515
 1.3000e+000 83564 -3.3389e+002 -3.0536e+002  1.1607e+002 50356 83218,83515,83385
 1.3000e+000 83893 -2.5448e+002 -1.7596e+002  8.1591e+001 49552 83720,83798,83746
 1.3000e+000 83870 -2.1450e+002 -3.1330e+001  6.4355e+001 49552 83694,83798,83720
 1.3000e+000 83847 -1.1590e+002 -7.0809e+001  5.6997e+001 49552 83668,83798,83694
 1.3000e+000 83824 -2.5142e+002 -7.5926e+001  2.9794e+001 49552 83746,83798,83772
 1.3000e+000 84141 -5.2681e+002 -3.9918e+002  2.7508e+002 49212 84164,84020,83942
 1.3000e+000 84118 -5.1379e+002 -3.5859e+002  2.9717e+002 49212 84164,83942,83916
 1.3000e+000 84095 -3.7197e+002 -5.0209e+002  1.9943e+002 49212 83942,84020,83968
 1.3000e+000 84072 -3.1044e+002 -3.1397e+001  1.1447e+002 49212 83968,84020,83994
 1.3000e+000 84190 -5.4701e+002 -3.9413e+002  2.5139e+002 49212 84046,84020,84164
 1.3000e+000 84213 -5.3144e+002 -3.6683e+002  2.7326e+002 49212 84046,84164,83916
 1.3000e+000 84800 -1.1729e+002 -3.4723e+002  1.9643e+002 48865 84503,84633,84555
 1.3000e+000 84777 -3.1026e+002 -5.7648e+002  1.1359e+002 48865 84503,84659,84633
 1.3000e+000 84754 -2.5110e+002 -7.2031e+002  1.5899e+002 48865 84555,84633,84581
 1.3000e+000 84731 -1.8419e+002 -1.0527e+003  3.1176e+002 48865 84581,84633,84607
 1.3000e+000 84708 -5.7327e+002 -4.6469e+002  1.4482e+002 48865 84503,84555,84529
 1.3000e+000 84685 -3.1093e+002 -5.2187e+002  1.7923e+002 48865 84477,84659,84503
 1.3000e+000 85355 -2.8782e+002 -3.0870e+002  1.5244e+002 48461 85378,85035,85009
 1.3000e+000 85332 -3.1028e+002 -3.0112e+002  1.6309e+002 48461 85378,85009,85165
 1.3000e+000 85309 -2.1413e+002 -3.6021e+002  2.0845e+002 48461 85450,85061,85035
 1.3000e+000 85286 -4.4748e+002 -3.4316e+002  1.4679e+002 48461 85009,85191,85165
 1.3000e+000 85263 -3.1488e+002 -2.9293e+002  2.2036e+002 48461 85087,85165,85113
 1.3000e+000 85240 -2.0564e+002 -4.1294e+002  6.2089e+000 48461 84983,85191,85009
 1.3000e+000 85217 -2.6401e+002 -3.5313e+002  1.4001e+002 48461 85113,85165,85139
 1.3000e+000 85404 -2.5290e+002 -2.9831e+002  1.7996e+002 48461 85450,85035,85378
 1.3000e+000 85427 -3.7458e+002 -3.3188e+002  1.5235e+002 48461 85087,85378,85165
 1.3000e+000 85476 -2.6236e+002 -4.2366e+002  1.8181e+002 48461 85087,85061,85450
 1.3000e+000 85499 -3.2303e+002 -3.9649e+002  1.4476e+002 48461 85087,85450,85378
 1.3000e+000 86084 -1.5898e+002 -3.6718e+002  1.4930e+002 48057 86323,86107,85787
 1.3000e+000 86061 -2.1495e+002 -4.2740e+002  2.0874e+002 48057 86107,85761,85943
 1.3000e+000 86038 -2.7995e+002 -3.0763e+002  1.5982e+002 48057 86251,86179,85891
 1.3000e+000 86015 -2.7719e+002 -2.4596e+002  9.8260e+001 48057 86251,85891,85839
 1.3000e+000 85992 -2.6212e+002 -2.8935e+002  2.2183e+002 48057 85891,85943,85917
 1.3000e+000 85969 -3.3533e+002 -2.0623e+002  1.3521e+002 48057 85839,85891,85865
 1.3000e+000 86133 -1.6353e+002 -3.5066e+002  1.2261e+002 48057 85813,85787,86107
 1.3000e+000 86156 -2.1992e+002 -3.6700e+002  1.2982e+002 48057 86179,85813,86107
 1.3000e+000 86205 -2.1773e+002 -2.6487e+002  1.8102e+002 48057 85943,85891,86179
 1.3000e+000 86228 -1.4420e+002 -2.8547e+002  1.7243e+002 48057 85943,86179,86107
 1.3000e+000 86277 -1.7341e+002 -2.4161e+002  1.2972e+002 48057 85813,86179,86251
 1.3000e+000 86300 -2.2987e+002 -2.0772e+002  7.8934e+001 48057 85813,86251,85839
 1.3000e+000 86349 -1.0169e+002 -3.3041e+002  1.6505e+002 48057 85761,86107,86323
 1.3000e+000 86855 -1.6616e+002 -3.4110e+002  1.9841e+002 47545 86878,86584,86558
 1.3000e+000 86832 -2.7240e+002 -3.8850e+002  1.7646e+002 47545 86950,86878,86558
 1.3000e+000 86809 -3.0994e+002 -3.7650e+002  1.7937e+002 47545 86950,86558,86532
 1.3000e+000 86786 -1.9850e+002 -3.2807e+002  1.9944e+002 47545 86584,86662,86610
 1.3000e+000 86763 -3.1140e+002 -3.3502e+002  1.1332e+002 47545 86532,86714,86688
 1.3000e+000 86740 -2.4786e+002 -1.7181e+002  2.0078e+002 47545 86610,86662,86636
 1.3000e+000 86904 -2.2173e+002 -4.0477e+002  1.6528e+002 47545 86662,86584,86878
 1.3000e+000 86927 -1.7224e+002 -3.7175e+002  1.4352e+002 47545 86662,86878,86688
 1.3000e+000 86976 -2.1247e+002 -3.7467e+002  1.3298e+002 47545 86688,86878,86950
 1.3000e+000 86999 -2.7644e+002 -3.9199e+002  1.4411e+002 47545 86688,86950,86532
 1.3000e+000 87328 -3.1283e+002 -2.1085e+002  1.4080e+002 47048 87155,87207,87181
 1.3000e+000 87305 -2.5418e+002 -1.6082e+002  1.6820e+002 47048 87129,87207,87155
 1.3000e+000 87282 -3.2348e+002 -1.8648e+002  1.7431e+002 47048 87103,87207,87129
 1.3000e+000 87259 -4.4052e+002 -4.8647e+002  3.0985e+002 47048 87103,87233,87207
 1.3000e+000 87576 -1.6487e+002 -1.9114e+002  1.9305e+002 46701 87599,87429,87377
 1.3000e+000 87553 -2.4452e+002 -9.5349e+001  1.1900e+002 46701 87599,87377,87481
 1.3000e+000 87530 -6.1890e+001 -5.4798e+001  3.9845e+001 46701 87351,87481,87377
 1.3000e+000 87507 -2.3833e+001 -9.6386e+001  1.1904e+002 46701 87377,87429,87403
 1.3000e+000 87625 -2.2026e+002 -3.7339e+002  1.9566e+002 46701 87455,87429,87599
 1.3000e+000 87648 -2.3948e+002 -2.0299e+002  1.0386e+002 46701 87455,87599,87481
 1.3000e+000 87798  2.3894e+001  2.1018e+000 -5.2841e+000 46239 87697,87749,87723
 1.3000e+000 87775  6.7835e+001 -4.1010e+001  7.7397e+001 46239 87671,87749,87697
 1.3000e+000 88308 -6.2475e+002 -5.5403e+002  1.5013e+002 45735 88089,88167,88141
 1.3000e+000 88285 -4.2827e+002 -3.5481e+002  2.5985e+002 45735 88011,88167,88089
 1.3000e+000 88262 -5.3207e+002 -3.9409e+002  2.6261e+002 45735 87985,88167,88011
 1.3000e+000 88239 -6.2372e+002 -1.0606e+003  3.9683e+002 45735 88011,88089,88063
 1.3000e+000 88216 -6.5695e+002 -5.6651e+002  1.6002e+002 45735 88089,88141,88115
 1.3000e+000 88193 -4.4144e+002 -1.4884e+003  9.3862e+002 45735 88011,88063,88037
 1.3000e+000 88686 -3.8891e+002 -3.1650e+002  2.6214e+002 45316 88438,88516,88490
 1.3000e+000 88663 -3.4498e+002 -4.1702e+001  3.4233e+002 45316 88438,88542,88516
 1.3000e+000 88640 -2.1219e+002 -4.6329e+002  4.1632e+002 45316 88438,88568,88542
 1.3000e+000 88617 -6.5876e+002 -5.0633e+002  1.6916e+002 45316 88438,88490,88464
 1.3000e+000 88594 -3.1603e+002 -5.1393e+002  3.9815e+002 45316 88412,88568,88438
 1.3000e+000 88934 -8.1251e+002 -8.0283e+002  4.5985e+002 44812 88957,88735,88709
 1.3000e+000 88911 -4.6173e+002 -5.2466e+002  1.8467e+002 44812 88957,88709,88839
 1.3000e+000 88888 -4.5263e+002 -3.7964e+002  1.0452e+002 44812 89029,88787,88761
 1.3000e+000 88865 -4.3169e+002 -3.7852e+002  1.6262e+002 44812 88787,88839,88813
 1.3000e+000 88983 -2.2778e+002 -4.9885e+002  3.0214e+002 44812 88761,88735,88957
 1.3000e+000 89006 -3.9015e+002 -4.4014e+002  8.8285e+001 44812 89029,88761,88957
 1.3000e+000 89055 -4.3602e+002 -4.5057e+002  1.3076e+002 44812 88839,88787,89029
 1.3000e+000 89078 -4.3398e+002 -5.7519e+002  1.3589e+002 44812 88839,89029,88957
 1.3000e+000 89228 -3.4898e+002 -9.6099e+002  1.7361e+002 44408 89127,89179,89153
 1.3000e+000 89205 -4.7679e+000 -1.0800e+002  1.1076e+001 44408 89101,89179,89127
 1.3000e+000 89787 -4.0333e+002 -2.8328e+002  2.2284e+002 43854 89810,89545,89519
 1.3000e+000 89764 -4.3988e+002 -3.7186e+002  2.3283e+002 43854 89810,89519,89467
 1.3000e+000 89741 -4.3853e+002 -5.0415e+002  2.1652e+002 43854 89954,89882,89597
 1.3000e+000 89718 -4.4630e+002 -5.1165e+002  2.2170e+002 43854 89954,89597,89571
 1.3000e+000 89695 -2.4156e+002 -3.6501e+002  2.1128e+002 43854 89415,89623,89467
 1.3000e+000 89672 -1.7287e+002 -1.9254e+002  1.4908e+002 43854 89467,89519,89493
 1.3000e+000 89649 -1.7411e+002 -2.9574e+002  1.8169e+002 43854 89415,89467,89441
 1.3000e+000 89836 -4.4929e+002 -3.0833e+002  2.4687e+002 43854 89882,89545,89810
 1.3000e+000 89859 -2.5815e+002 -3.4863e+002  1.9238e+002 43854 89623,89810,89467
 1.3000e+000 89908 -4.3849e+002 -6.0717e+002  3.0027e+002 43854 89623,89597,89882
 1.3000e+000 89931 -4.0480e+002 -5.4156e+002  2.5926e+002 43854 89623,89882,89810
 1.3000e+000 89980 -4.7244e+002 -4.9323e+002  3.0081e+002 43854 89545,89882,89954
 1.3000e+000 90003 -5.1448e+002 -5.6458e+002  3.1823e+002 43854 89545,89954,89571
 1.3000e+000 90251 -1.4718e+002 -2.0993e+002  1.2306e+002 43492 90026,90078,90052
 1.3000e+000 90228 -4.4348e+002 -3.4222e+002  1.6260e+002 43492 90274,90026,90156
 1.3000e+000 90205 -4.1701e+002 -4.0045e+002  1.6312e+002 43492 90346,90274,90156
 1.3000e+000 90182 -4.3231e+002 -5.2859e+002  3.8602e+002 43492 90346,90156,90130
 1.3000e+000 90300 -2.8573e+002 -4.2061e+002  2.1635e+002 43492 90078,90026,90274
 1.3000e+000 90323 -4.9045e+002 -4.9098e+002  2.1078e+002 43492 90078,90274,90104
 1.3000e+000 90372 -6.8736e+002 -5.7801e+002  3.0349e+002 43492 90104,90274,90346
 1.3000e+000 90395 -7.1367e+002 -7.3938e+002  5.3238e+002 43492 90104,90346,90130
 1.3000e+000 90594 -9.7283e+001 -3.3637e+002  2.0143e+002 43052 90418,90496,90444
 1.3000e+000 90571 -5.9338e+001 -7.6453e+001  1.0220e+002 43052 90418,90522,90496
 1.3000e+000 90548 -3.1976e+002 -2.8633e+002  2.0706e+002 43052 90444,90496,90470
 1.3000e+000 91074 -8.3397e+002 -5.9818e+002  5.7543e+002 42434 91241,90884,90858
 1.3000e+000 91051 -4.0020e+002 -5.0730e+002 -4.5729e+001 42434 90702,90910,90884
 1.3000e+000 91028 -1.4253e+002 -2.8064e+002  2.3112e+002 42434 91097,90754,90702
 1.3000e+000 91005 -6.6578e+002 -3.0976e+002  5.0060e+002 42434 91241,90858,91097
 1.3000e+000 90982 -2.8795e+002 -3.4588e+002  1.3973e+002 42434 91169,90806,90780
 1.3000e+000 90959 -1.8155e+002 -3.3668e+002  9.9707e+001 42434 90806,90858,90832
 1.3000e+000 90936 -2.3071e+002 -2.2063e+002  2.2331e+002 42434 90702,90754,90728
 1.3000e+000 91123 -6.2512e+002 -5.3955e+002  4.1347e+002 42434 90780,90754,91097
 1.3000e+000 91146 -5.2769e+002 -5.2358e+002  4.2630e+002 42434 91169,90780,91097
 1.3000e+000 91195 -1.9534e+002 -2.0188e+002  7.5523e+001 42434 90858,90806,91169
 1.3000e+000 91218 -2.3389e+002  2.5335e+001  3.0747e+002 42434 90858,91169,91097
 1.3000e+000 91267 -4.6588e+002 -9.8638e+002  4.0179e+002 42434 90702,90884,91241
 1.3000e+000 91290 -3.3418e+002 -7.4094e+002  3.4139e+002 42434 90702,91241,91097
 1.3000e+000 91698 -1.0274e+002 -4.0569e+002  1.4874e+002 41773 91473,91577,91499
 1.3000e+000 91675 -2.0658e+002 -4.9613e+002  2.1466e+002 41773 91473,91603,91577
 1.3000e+000 91652 -1.9123e+002 -2.9149e+002  4.6232e+001 41773 91499,91551,91525
 1.3000e+000 91629 -2.9937e+002 -3.4952e+002  1.4712e+002 41773 91499,91577,91551
 1.3000e+000 92044 -3.8058e+002 -4.4820e+002  2.7494e+002 41383 91773,91877,91851
 1.3000e+000 92021 -3.0172e+002 -5.5392e+002  1.6315e+002 41383 91747,91877,91773
 1.3000e+000 91998 -2.9926e+002 -3.1741e+002  2.0375e+002 41383 91773,91851,91799
 1.3000e+000 91975 -2.4430e+002 -4.6771e+002  9.7315e+001 41383 91747,91903,91877
 1.3000e+000 91952 -1.4506e+002 -3.9865e+002  1.3415e+002 41383 91721,91903,91747
 1.3000e+000 91929 -7.4447e+001 -3.2298e+002  1.4971e+002 41383 91799,91851,91825
 1.3000e+000 92601 -3.1479e+002 -3.1544e+002  1.1861e+002 40979 92229,92411,92307
 1.3000e+000 92578 -4.1816e+002 -3.5401e+002  1.2893e+002 40979 92229,92437,92411
 1.3000e+000 92555 -2.6359e+002 -2.4461e+002  9.2143e+001 40979 92229,92307,92281
 1.3000e+000 92532 -2.5275e+002 -2.8046e+002  1.6376e+002 40979 92333,92411,92385
 1.3000e+000 92509 -2.6103e+002 -2.6420e+002  1.4047e+002 40979 92307,92411,92333
 1.3000e+000 92486 -3.3944e+002 -4.0134e+002  6.9380e+001 40979 92229,92281,92255
 1.3000e+000 92463 -4.8707e+001 -2.8011e+002  1.1152e+002 40979 92333,92385,92359
 1.3000e+000 93235 -3.9124e+002 -2.5824e+002  3.2299e+002 40525 92941,92993,92967
 1.3000e+000 93212 -4.9512e+002 -9.1209e+001  1.5973e+002 40525 93258,92941,92889
 1.3000e+000 93189 -4.1150e+002 -2.9691e+001  1.0260e+002 40525 93258,92889,93071
 1.3000e+000 93166 -3.3475e+002 -2.8095e+002  1.2867e+002 40525 92889,92941,92915
 1.3000e+000 93143 -1.8324e+002 -1.0723e+002  1.0953e+002 40525 92863,93071,92889
 1.3000e+000 93120 -4.1414e+002 -2.0723e+002  1.8846e+002 40525 92993,93071,93019
 1.3000e+000 93097 -4.5026e+002 -2.1805e+002  1.9467e+002 40525 93019,93071,93045
 1.3000e+000 93284 -5.5971e+002 -2.1837e+002  2.7319e+002 40525 92993,92941,93258
 1.3000e+000 93307 -3.6897e+002 -6.6374e+001  1.9565e+002 40525 92993,93258,93071
 1.3000e+000 93636 -5.4100e+002 -4.7901e+002  4.0193e+002 40235 93437,93541,93515
 1.3000e+000 93613 -4.2809e+002 -6.0588e+002  3.6879e+002 40235 93411,93541,93437
 1.3000e+000 93590 -1.4091e+002 -4.9711e+002  1.5618e+002 40235 93463,93515,93489
 1.3000e+000 93567 -2.6314e+002 -3.6989e+002  1.0886e+002 40235 93437,93515,93463
 1.3000e+000 94014 -5.6762e+002 -6.5666e+002  2.3779e+002 39873 93766,93870,93792
 1.3000e+000 93991 -5.2022e+002 -6.8632e+002  2.1105e+002 39873 93766,93896,93870
 1.3000e+000 93968 -4.7144e+002 -5.2324e+002  2.8001e+002 39873 93792,93870,93844
 1.3000e+000 93945 -3.9825e+002 -4.5920e+002  2.2014e+002 39873 93792,93844,93818
 1.3000e+000 93922 -3.9681e+002 -6.0910e+002  3.7609e+002 39873 93740,93896,93766
 1.3000e+000 94164  1.7536e+000 -1.6893e+002  1.1399e+002 39461 94037,94089,94063
 1.3000e+000 94141 -1.3584e+002 -2.5533e+002  1.5295e+002 39461 94037,94115,94089
 1.3000e+000 94363 -2.6463e+002 -2.3980e+002  1.7778e+002 39057 94386,94239,94213
 1.3000e+000 94340 -2.1450e+002 -1.9705e+002  1.5372e+002 39057 94386,94213,94187
 1.3000e+000 94317 -3.4524e+002 -3.2165e+002  1.8580e+002 39057 94187,94291,94265
 1.3000e+000 94412 -1.5359e+002 -2.0769e+002  1.5038e+002 39057 94458,94386,94265
 1.3000e+000 94435 -2.3126e+002 -2.4098e+002  1.4920e+002 39057 94265,94386,94187
 1.3000e+000 94484 -2.5371e+002 -2.9031e+002  1.9321e+002 39057 94239,94386,94458
 1.3000e+000 94896 -5.6479e+002 -3.8454e+002  2.3923e+002 38396 94919,94775,94723
 1.3000e+000 94873 -6.1204e+002 -3.4954e+002  2.3962e+002 38396 94919,94723,94697
 1.3000e+000 94850 -4.4429e+002 -3.4609e+002  1.8502e+002 38396 94723,94775,94749
 1.3000e+000 94827 -2.7040e+002 -2.1335e+002  2.0368e+002 38396 94671,94801,94697
 1.3000e+000 94945 -5.5196e+002 -3.6097e+002  2.2732e+002 38396 94801,94775,94919
 1.3000e+000 94968 -5.7942e+002 -3.1271e+002  2.2035e+002 38396 94801,94919,94697
 1.3000e+000 95265 -4.8012e+002 -5.3462e+002  2.4726e+002 37835 95017,95069,95043
 1.3000e+000 95242 -4.9183e+002 -4.6374e+002  2.5264e+002 37835 95288,95069,95017
 1.3000e+000 95219 -5.3829e+002 -5.2315e+002  3.4194e+002 37835 95288,95017,94991
 1.3000e+000 95196 -6.1437e+002 -5.7401e+002  3.0924e+002 37835 94991,95147,95121
 1.3000e+000 95173 -3.7223e+002 -2.6037e+002  2.2385e+002 37835 95069,95121,95095
 1.3000e+000 95314 -4.8938e+002 -3.3583e+002  1.9145e+002 37835 95121,95069,95288
 1.3000e+000 95337 -5.3111e+002 -4.2072e+002  2.7455e+002 37835 95121,95288,94991
 1.3000e+000 95558 -6.7491e+000 -1.8460e+002  1.1977e+002 37423 95408,95460,95434
 1.3000e+000 95535 -1.9702e+002 -7.2648e+002  3.2165e+002 37423 95382,95460,95408
 1.3000e+000 95512 -3.7097e+002 -8.6160e+002  3.8042e+002 37423 95382,95486,95460
 1.3000e+000 95891 -2.6255e+002 -6.1698e+002  3.6085e+002 37225 95666,95718,95692
 1.3000e+000 95868 -4.4000e+002 -5.4854e+002  4.0745e+002 37225 95666,95796,95718
 1.3000e+000 95845 -2.6952e+002 -4.8439e+002  1.5476e+002 37225 95718,95770,95744
 1.3000e+000 95822 -3.0521e+002 -3.9103e+002  2.4257e+002 37225 95718,95796,95770
 1.3000e+000 95992 -8.0590e+001 -3.4206e+002  1.4361e+002 36735 95914,95966,95940
 1.3000e+000 96142 -5.7644e+002 -3.2162e+002  2.9148e+002 36331 96297,96067,96041
 1.3000e+000 96119 -5.0366e+002 -2.6076e+002  3.3543e+002 36331 96165,96041,96015
 1.3000e+000 96191 -5.6109e+002 -3.0479e+002  3.1590e+002 36331 96297,96041,96165
 1.3000e+000 96323 -6.0068e+002 -2.8349e+002  3.3932e+002 36331 96093,96067,96297
 1.3000e+000 96346 -5.3755e+002 -2.4431e+002  3.6997e+002 36331 96093,96297,96165
 1.3000e+000 96714 -4.0003e+002 -6.3060e+002  3.6407e+002 36041 96737,96495,96443
 1.3000e+000 96691 -5.4040e+002 -4.8804e+002  3.6845e+002 36041 96737,96443,96417
 1.3000e+000 96668 -2.7580e+002 -6.5546e+002  1.7933e+002 36041 96443,96495,96469
 1.3000e+000 96645 -1.3732e+002 -2.3681e+002  2.1411e+002 36041 96391,96521,96417
 1.3000e+000 96622 -5.1629e+001 -2.3891e+002  1.8624e+002 36041 96391,96547,96521
 1.3000e+000 96599 -6.7555e+001 -2.4024e+002  1.8116e+002 36041 96391,96573,96547
 1.3000e+000 96763 -2.0329e+002 -5.0901e+002  3.1180e+002 36041 96521,96495,96737
 1.3000e+000 96786 -4.6509e+002 -4.5815e+002  3.4625e+002 36041 96521,96737,96417
 1.3000e+000 96936 -2.5670e+002 -1.7767e+002  2.0106e+002 35637 97031,96959,96835
 1.3000e+000 96913 -3.1313e+002 -1.8118e+002  2.1530e+002 35637 97163,96959,96809
 1.3000e+000 96985 -3.2486e+002 -1.6844e+002  2.1760e+002 35637 96861,96835,96959
 1.3000e+000 97008 -4.0350e+002 -2.4743e+002  3.1888e+002 35637 96861,96959,96887
 1.3000e+000 97057 -2.4987e+002 -1.0006e+002  1.4075e+002 35637 96809,96959,97031
 1.3000e+000 97189 -2.8363e+002 -1.7909e+002  2.2035e+002 35637 96887,96959,97163
 1.3000e+000 97597 -2.2274e+002 -2.9073e+002  2.4164e+002 35190 97450,97502,97476
 1.3000e+000 97574 -2.4685e+002 -3.8947e+002  3.1051e+002 35190 97372,97502,97450
 1.3000e+000 97551 -2.5481e+002 -4.4654e+002  2.9434e+002 35190 97372,97450,97398
 1.3000e+000 97528 -1.7246e+002 -3.8218e+002  2.4025e+002 35190 97398,97450,97424
 1.3000e+000 98054 -3.8176e+002 -4.8510e+002  3.2074e+002 34636 97806,97936,97858
 1.3000e+000 98031 -5.4698e+002 -3.4164e+002  2.9119e+002 34636 97780,97936,97806
 1.3000e+000 98008 -4.9540e+002 -4.6769e+002  1.8963e+002 34636 97806,97858,97832
 1.3000e+000 97985 -4.1888e+002 -4.8441e+002  3.5634e+002 34636 97884,97936,97910
 1.3000e+000 97962 -2.6932e+002 -3.2305e+002  2.6222e+002 34636 97858,97936,97884
 1.3000e+000 98530 -2.9007e+002  1.5041e+002  8.7458e+001 34068 98697,98184,98366
 1.3000e+000 98507  1.0372e+001  3.3457e+001 -1.7557e+001 34068 98158,98366,98184
 1.3000e+000 98484 -3.6911e+002 -3.3520e+002  1.6385e+002 34068 98553,98262,98236
 1.3000e+000 98461 -4.0199e+002 -4.4222e+002  8.6485e+001 34068 98553,98236,98210
 1.3000e+000 98438 -3.6625e+002 -1.5147e+002  1.7092e+002 34068 98841,98625,98366
 1.3000e+000 98415 -3.5511e+002 -5.3787e+002  2.5666e+002 34068 98769,98288,98262
 1.3000e+000 98392 -4.9193e+002 -4.8692e+001  1.5540e+002 34068 98841,98366,98340
 1.3000e+000 98579 -4.2146e+002 -4.2262e+002  1.8997e+002 34068 98769,98262,98553
 1.3000e+000 98602 -3.3062e+002 -2.0957e+002  1.7097e+002 34068 98625,98314,98553
 1.3000e+000 98651 -3.3984e+002 -1.3152e+002  1.4102e+002 34068 98697,98366,98625
 1.3000e+000 98674 -4.2214e+002 -4.1957e+002  1.8232e+002 34068 98210,98625,98553
 1.3000e+000 98723 -4.3618e+002 -1.8869e+002  1.5205e+002 34068 98210,98184,98697
 1.3000e+000 98746 -3.8568e+002 -2.5686e+002  2.2113e+002 34068 98210,98697,98625
 1.3000e+000 98795 -2.1433e+002 -4.1747e+002  1.8512e+002 34068 98314,98288,98769
 1.3000e+000 98818 -3.0364e+002 -3.3535e+002  1.2314e+002 34068 98314,98769,98553
 1.3000e+000 98867 -4.7856e+002 -2.6534e+002  1.2568e+002 34068 98314,98625,98841
 1.3000e+000 98890 -5.9975e+002 -1.4871e+002  1.1398e+002 34068 98314,98841,98340
 1.3000e+000 99268 -5.4769e+002 -5.3011e+002  3.7406e+002 33450 99291,99098,99072
 1.3000e+000 99245 -6.1605e+002 -4.1022e+002  2.0027e+002 33450 99291,99072,99020
 1.3000e+000 99222 -8.9131e+002 -4.8862e+002  3.0802e+002 33450 99020,99072,99046
 1.3000e+000 99199 -4.7011e+002 -3.7784e+002  1.9215e+002 33450 99020,99150,99124
 1.3000e+000 99176 -4.8344e+002 -3.5065e+002  5.8859e+001 33450 98994,99150,99020
 1.3000e+000 99317 -2.6612e+002 -4.1096e+002  3.6053e+002 33450 99124,99098,99291
 1.3000e+000 99340 -5.2073e+002 -3.8459e+002  2.0807e+002 33450 99124,99291,99020
 1.3000e+000 99865 -4.0319e+002 -3.8198e+002  2.3130e+002 32944 100176,99960,99888
 1.3000e+000 99842 -4.4498e+002 -3.7051e+002  2.3655e+002 32944 100104,99888,99522
 1.3000e+000 99819 -3.8685e+002 -3.6376e+002  2.7966e+002 32944 100248,99960,99626
 1.3000e+000 99796 -4.0616e+002 -4.3361e+002  1.5691e+002 32944 100032,99652,99626
 1.3000e+000 99773 -3.7627e+002 -3.8094e+002  1.7821e+002 32944 100104,99522,99496
 1.3000e+000 99750 -2.8656e+002 -3.0621e+002  4.3195e+001 32944 99574,99626,99600
 1.3000e+000 99727 -3.1629e+002 -3.6437e+002  3.0583e+002 32944 100248,99626,99574
 1.3000e+000 99704 -2.6204e+002 -3.5920e+002  2.0051e+002 32944 99444,99496,99470
 1.3000e+000 99914 -4.1659e+002 -3.5902e+002  1.7768e+002 32944 100176,99888,100032
 1.3000e+000 99937 -4.5204e+002 -3.2376e+002  2.3258e+002 32944 99678,99888,99444
 1.3000e+000 99986 -4.3930e+002 -3.3290e+002  2.2865e+002 32944 99522,99888,99960
 1.3000e+000 100009 -4.5580e+002 -2.8536e+002  2.6290e+002 32944 99522,99960,99548
 1.3000e+000 100058 -4.4927e+002 -4.5497e+002  1.4764e+002 32944 99678,99652,100032
 1.3000e+000 100081 -4.8463e+002 -4.1426e+002  1.4771e+002 32944 99678,100032,99888
 1.3000e+000 100130 -3.2334e+002 -3.3909e+002  2.2942e+002 32944 99444,99888,100104
 1.3000e+000 100153 -2.8137e+002 -3.7451e+002  1.7891e+002 32944 99444,100104,99496
 1.3000e+000 100202 -4.4431e+002 -4.6615e+002  2.1808e+002 32944 99626,99960,100176
 1.3000e+000 100225 -4.6057e+002 -4.6446e+002  1.6949e+002 32944 99626,100176,100032
 1.3000e+000 100274 -4.8889e+002 -3.6339e+002  2.5941e+002 32944 99548,99960,100248
 1.3000e+000 100297 -4.2554e+002 -3.6971e+002  2.8522e+002 32944 99548,100248,99574
 1.3000e+000 100754 -2.2914e+002 -2.2467e+002  1.0292e+002 32369 100777,100584,100506
 1.3000e+000 100731 -2.0797e+002 -3.2044e+002  2.1332e+002 32369 100777,100506,100636
 1.3000e+000 100708 -3.7532e+002 -3.1783e+002  2.3229e+002 32369 100480,100636,100506
 1.3000e+000 100685 -4.3357e+002 -2.8823e+002  5.3858e+001 32369 100532,100584,100558
 1.3000e+000 100662 -2.4774e+002 -2.6213e+002  1.0905e+002 32369 100506,100584,100532
 1.3000e+000 100803 -2.2970e+002 -6.3616e+001  9.6288e+001 32369 100610,100584,100777
 1.3000e+000 100826 -2.0226e+002 -1.7336e+002  1.9087e+002 32369 100610,100777,100636
 1.3000e+000 101025 -3.6481e+002 -2.9831e+002  2.9124e+002 31857 100875,100927,100901
 1.3000e+000 101002 -6.6285e+002 -2.7337e+002  2.6687e+002 31857 100875,100953,100927
 1.3000e+000 100979 -7.0616e+002 -3.4720e+002  2.2352e+002 31857 100849,100953,100875
 1.3000e+000 101533 -3.1441e+002 -3.8805e+002  2.8611e+002 31253 101556,101314,101236
 1.3000e+000 101510 -4.3935e+002 -4.2841e+002  2.9261e+002 31253 101556,101236,101210
 1.3000e+000 101487 -4.1804e+002 -4.0464e+002  1.3913e+002 31253 101210,101392,101340
 1.3000e+000 101464 -2.2012e+002 -3.5676e+002  2.4747e+002 31253 101236,101288,101262
 1.3000e+000 101441 -2.7190e+002 -4.8903e+002  2.5411e+002 31253 101236,101314,101288
 1.3000e+000 101418 -4.0354e+002 -4.5211e+002  2.4315e+002 31253 101340,101392,101366
 1.3000e+000 101582 -3.4832e+002 -3.4774e+002  1.7274e+002 31253 101340,101314,101556
 1.3000e+000 101605 -4.7646e+002 -3.8615e+002  1.8418e+002 31253 101340,101556,101210
 1.3000e+000 101755  1.0092e+002  1.1947e+002  1.7821e+002 30519 101778,101654,101628
 1.3000e+000 101732 -1.1473e+002  2.3288e+002  2.4329e+001 30519 101850,101778,101628
 1.3000e+000 101804 -9.4424e+001 -1.8995e+002  9.1569e+001 30519 101680,101654,101778
 1.3000e+000 101827 -1.6655e+002  8.4269e+001  4.6829e+001 30519 101680,101778,101706
 1.3000e+000 101876 -2.1841e+002 -9.5516e+000  1.7858e+001 30519 101706,101778,101850
 1.3000e+000 102561 -2.8007e+002 -4.0973e+002  1.9711e+002 29951 102656,102584,102270
 1.3000e+000 102538 -6.4957e+002 -7.7579e+002  1.6530e+002 29951 102584,102140,102374
 1.3000e+000 102515 -4.1485e+002 -7.8834e+002  3.8177e+002 29951 102728,102656,102270
 1.3000e+000 102492 -4.2067e+002 -9.3483e+002  3.7498e+002 29951 102728,102270,102244
 1.3000e+000 102469 -5.2868e+002 -1.4647e+002  2.4773e+002 29951 102800,102322,102296
 1.3000e+000 102446 -5.8020e+002 -4.3475e+002  1.1280e+002 29951 102166,102218,102192
 1.3000e+000 102423 -4.6616e+002 -4.4653e+002  7.7883e+001 29951 102166,102244,102218
 1.3000e+000 102400 -3.1476e+002 -3.6778e+002  2.3313e+002 29951 102322,102374,102348
 1.3000e+000 102610 -6.4367e+002 -3.3011e+002  1.1240e+002 29951 102296,102270,102584
 1.3000e+000 102633 -6.9334e+002 -3.5224e+002  1.6320e+002 29951 102800,102296,102584
 1.3000e+000 102682 -7.2577e+002 -6.9731e+002  3.5022e+002 29951 102140,102584,102656
 1.3000e+000 102705 -4.9488e+002 -7.1511e+002  4.8238e+002 29951 102140,102656,102166
 1.3000e+000 102754 -4.1570e+002 -6.1761e+002  4.4537e+002 29951 102166,102656,102728
 1.3000e+000 102777 -4.2746e+002 -7.4067e+002  4.0818e+002 29951 102166,102728,102244
 1.3000e+000 102826 -3.6841e+002 -3.7393e+002  3.4931e+002 29951 102374,102322,102800
 1.3000e+000 102849 -4.3514e+002 -4.2301e+002  3.0523e+002 29951 102374,102800,102584
 1.3000e+000 103048 -6.4011e+001 -2.9470e+002  1.5306e+002 29454 102872,102924,102898
 1.3000e+000 103025 -1.5208e+002 -3.5509e+002  1.8218e+002 29454 102872,102976,102924
 1.3000e+000 103002 -1.3853e+002 -6.5508e+002  3.0552e+002 29454 102924,102976,102950
 1.3000e+000 103296 -6.0501e+002 -4.4071e+002  3.3405e+002 29064 103319,103175,103123
 1.3000e+000 103273 -7.9275e+002 -4.5145e+002  3.7457e+002 29064 103319,103123,103071
 1.3000e+000 103250 -3.6271e+002 -2.6062e+002  2.3969e+002 29064 103123,103175,103149
 1.3000e+000 103227 -6.1027e+002 -3.9495e+002  4.5077e+002 29064 103071,103123,103097
 1.3000e+000 103345 -4.2656e+002 -4.8890e+002  2.4771e+002 29064 103201,103175,103319
 1.3000e+000 103368 -6.6991e+002 -4.8285e+002  2.1878e+002 29064 103201,103319,103071
 1.3000e+000 104006 -4.9807e+002 -2.5298e+002  1.9435e+002 28603 104101,104029,103712
 1.3000e+000 103983 -4.6933e+002 -1.7448e+002  1.7477e+002 28603 104173,104029,103660
 1.3000e+000 103960 -6.0103e+002 -2.0648e+002  1.8482e+002 28603 104101,103712,103686
 1.3000e+000 103937 -3.9988e+002 -2.6207e+002  1.5484e+002 28603 104173,103660,103634
 1.3000e+000 103914 -4.6989e+002 -2.8145e+002  2.5697e+002 28603 103764,103816,103790
 1.3000e+000 103891 -3.9121e+002 -2.8643e+002  2.6753e+002 28603 103634,103842,103816
 1.3000e+000 103868 -3.6108e+002 -1.4791e+002  2.3251e+002 28603 103712,103764,103738
 1.3000e+000 104055 -4.6712e+002 -1.8525e+002  1.8500e+002 28603 103764,103712,104029
 1.3000e+000 104078 -4.5992e+002 -2.1281e+002  2.5631e+002 28603 103764,104029,103816
 1.3000e+000 104127 -6.3868e+002 -2.4199e+002  1.5222e+002 28603 103660,104029,104101
 1.3000e+000 104150 -8.0237e+002 -2.3365e+002  1.7186e+002 28603 103660,104101,103686
 1.3000e+000 104199 -5.2604e+002 -2.5826e+002  2.0047e+002 28603 103816,104029,104173
 1.3000e+000 104222 -4.4620e+002 -3.2330e+002  1.7901e+002 28603 103816,104173,103634
 1.3000e+000 104600 -2.3487e+002 -4.5988e+002  1.0588e+002 28348 104623,104378,104326
 1.3000e+000 104577 -1.8846e+002 -4.8305e+002  1.8967e+002 28348 104623,104326,104482
 1.3000e+000 104554 -2.1360e+002 -2.9756e+002  8.5216e+001 28348 104326,104378,104352
 1.3000e+000 104531 -2.5712e+002  5.0516e-001  8.8315e+000 28348 104404,104456,104430
 1.3000e+000 104508 -3.1763e+002 -1.9497e+002  1.6938e+002 28348 104378,104456,104404
 1.3000e+000 104649 -1.9627e+002 -3.8461e+002  1.3683e+002 28348 104456,104378,104623
 1.3000e+000 104672 -1.3606e+002 -3.9362e+002  2.2304e+002 28348 104456,104623,104482
 1.3000e+000 104991 -5.0778e+002 -5.1794e+002  3.7645e+002 27951 104717,104847,104769
 1.3000e+000 104968 -1.5154e+002 -3.6216e+002  3.4770e+002 27951 104717,104873,104847
 1.3000e+000 104945 -1.8028e+002 -4.3018e+002  4.0698e+002 27951 104769,104847,104795
 1.3000e+000 104922  1.6530e+001  5.7419e+001  3.8209e+002 27951 104795,104847,104821
 1.3000e+000 104899 -4.5734e+002 -3.5561e+002  3.9522e+002 27951 104717,104769,104743
 1.3000e+000 105371 -3.9448e+002 -2.1449e+002  2.4564e+002 27447 105394,105201,105123
 1.3000e+000 105348 -4.3730e+002 -2.1821e+002  2.6169e+002 27447 105394,105123,105097
 1.3000e+000 105325 -6.8231e+002 -2.5791e+002  2.4941e+002 27447 105123,105201,105149
 1.3000e+000 105302 -4.1125e+002 -3.6837e+002  2.3999e+002 27447 105201,105253,105227
 1.3000e+000 105279 -4.0115e+002 -5.0719e+002  3.4162e+001 27447 105149,105201,105175
 1.3000e+000 105420 -3.6536e+002 -2.1434e+002  2.2523e+002 27447 105253,105201,105394
 1.3000e+000 105443 -4.0890e+002 -2.1197e+002  2.3758e+002 27447 105253,105394,105097
 1.3000e+000 105998 -4.3740e+002 -3.3397e+002  3.4318e+002 27100 106165,106021,105704
 1.3000e+000 105975 -2.3254e+002 -1.7678e+002  3.0145e+002 27100 106309,106021,105652
 1.3000e+000 105952 -8.1493e+002 -5.7211e+002  5.6776e+002 27100 106093,105808,105782
 1.3000e+000 105929 -4.4037e+002 -3.4302e+002  3.4342e+002 27100 106165,105704,105678
 1.3000e+000 105906 -2.4248e+002 -3.8527e+002  2.6540e+002 27100 106237,105730,105704
 1.3000e+000 105883 -2.2487e+002 -3.3131e+002  2.0730e+002 27100 106309,105652,105626
 1.3000e+000 105860 -1.6927e+002  9.0534e+000  5.5328e+001 27100 105730,105782,105756
 1.3000e+000 106047 -3.9705e+002 -2.1803e+002  3.3939e+002 27100 106237,105704,106021
 1.3000e+000 106070 -4.7358e+002 -2.6392e+002  4.2972e+002 27100 106093,105782,106021
 1.3000e+000 106119 -3.3675e+002 -4.6969e+002  2.8592e+002 27100 105834,105808,106093
 1.3000e+000 106142 -3.7273e+002 -5.8917e+002  3.8436e+002 27100 106381,106093,106021
 1.3000e+000 106191 -4.4406e+002 -3.1100e+002  3.6175e+002 27100 105652,106021,106165
 1.3000e+000 106214 -4.6027e+002 -3.4499e+002  3.6784e+002 27100 105652,106165,105678
 1.3000e+000 106263 -1.0186e+002 -2.1917e+002  2.0378e+002 27100 105782,105730,106237
 1.3000e+000 106286 -2.8819e+002 -9.6200e+001  2.9100e+002 27100 105782,106237,106021
 1.3000e+000 106335 -3.1947e+002 -3.8813e+002  3.2043e+002 27100 106381,106021,106309
 1.3000e+000 106358 -2.2414e+002 -3.0163e+002  1.9857e+002 27100 105834,106309,105626
 1.3000e+000 106407 -2.6356e+002 -3.5991e+002  2.4764e+002 27100 105834,106093,106381
 1.3000e+000 106430 -2.6919e+002 -3.2236e+002  1.7686e+002 27100 105834,106381,106309
 1.3000e+000 106629 -6.0937e+001 -4.2730e+002  1.0720e+002 26688 106479,106557,106531
 1.3000e+000 106606 -3.9534e+000 -1.5807e+002  1.4407e+002 26688 106453,106557,106479
 1.3000e+000 106583 -2.0079e+002 -4.7194e+002  5.3274e+001 26688 106479,106531,106505
 1.3000e+000 107088 -2.1190e+002 -1.8737e+002  1.0675e+002 26248 107111,106918,106866
 1.3000e+000 107065 -2.3172e+002 -1.6389e+002  1.2736e+002 26248 107111,106866,106840
 1.3000e+000 107042 -1.9139e+002 -1.3787e+002  1.2488e+002 26248 106814,106970,106840
 1.3000e+000 107019 -2.0015e+002 -3.2955e+002  1.6047e+002 26248 106866,106918,106892
 1.3000e+000 106996 -3.7302e+002 -2.7124e+002  1.0286e+002 26248 106918,106970,106944
 1.3000e+000 107137 -2.4737e+002 -2.2080e+002  8.3276e+001 26248 106970,106918,107111
 1.3000e+000 107160 -2.4175e+002 -1.7344e+002  1.0764e+002 26248 106970,107111,106840
 1.3000e+000 107666 -6.0116e+002 -2.4606e+002  1.6363e+002 25908 107369,107499,107395
 1.3000e+000 107643 -8.1369e+002 -7.5086e+002  3.6688e+002 25908 107369,107525,107499
 1.3000e+000 107620 -4.9510e+002 -3.1104e+002  2.6907e+002 25908 107395,107473,107447
 1.3000e+000 107597 -4.3904e+002 -1.6637e+002  2.0035e+002 25908 107395,107499,107473
 1.3000e+000 107574 -8.2519e+002 -3.8808e+002  5.6456e+002 25908 107395,107447,107421
 1.3000e+000 107551 -3.5648e+002 -5.7339e+002  3.5119e+002 25908 107343,107525,107369
 1.3000e+000 108251 -4.7254e+002 -1.3608e+002  2.4984e+002 25454 108274,108006,107954
 1.3000e+000 108228 -3.7500e+002 -7.1930e+001  2.1215e+002 25454 108274,107954,108110
 1.3000e+000 108205 -3.3636e+002 -3.4718e+002  3.0360e+002 25454 108346,108032,108006
 1.3000e+000 108182 -6.0433e+002 -2.3791e+002  3.2861e+002 25454 107954,108006,107980
 1.3000e+000 108159 -2.2525e+002 -2.1210e+002  1.9079e+002 25454 107928,108110,107954
 1.3000e+000 108136 -6.4556e+002 -5.9279e+002  3.7644e+002 25454 108058,108110,108084
 1.3000e+000 108300 -4.4882e+002 -2.3310e+002  3.0658e+002 25454 108346,108006,108274
 1.3000e+000 108323 -3.8612e+002 -1.2119e+002  2.4917e+002 25454 108058,108274,108110
 1.3000e+000 108372 -1.9773e+002 -2.2007e+002  2.5076e+002 25454 108058,108032,108346
 1.3000e+000 108395 -3.2056e+002 -9.3335e+001  2.5199e+002 25454 108058,108346,108274
 1.3000e+000 108822 -3.2278e+002 -1.6526e+002  1.7447e+002 24943 108525,108681,108655
 1.3000e+000 108799 -4.0854e+002 -2.4645e+002  9.7788e+001 24943 108499,108681,108525
 1.3000e+000 108776 -1.7904e+002 -1.1005e+002  1.4433e+002 24943 108525,108655,108629
 1.3000e+000 108753 -3.2202e+002 -8.9252e+001  1.3158e+002 24943 108525,108629,108603
 1.3000e+000 108730 -5.3797e+002 -1.7905e+002  1.9585e+002 24943 108551,108603,108577
 1.3000e+000 108707 -5.6028e+002 -3.2801e+002  2.8113e+002 24943 108525,108603,108551
 1.3000e+000 109407 -2.3329e+001 -8.7705e+001  4.6192e+001 24745 109162,109214,109188
 1.3000e+000 109384 -1.9683e+002 -6.7557e+001  7.5584e+001 24745 109162,109266,109214
 1.3000e+000 109361 -2.3394e+002 -8.4470e+001  3.8540e+001 24745 109084,109266,109162
 1.3000e+000 109338 -3.4830e+002 -5.1711e+001  8.1582e+001 24745 109084,109162,109136
 1.3000e+000 109315 -8.1400e+001 -1.5787e+002  9.6058e+001 24745 109214,109266,109240
 1.3000e+000 109292 -2.5567e+002 -7.4466e+001  1.3686e+002 24745 109084,109136,109110
 1.3000e+000 109785 -7.0099e+002 -3.2388e+002  4.0061e+002 24341 109537,109615,109563
 1.3000e+000 109762 -8.2553e+001 -1.7787e+002  3.8077e+002 24341 109537,109641,109615
 1.3000e+000 109739 -4.7054e+002 -3.3785e+002  3.0418e+002 24341 109563,109615,109589
 1.3000e+000 109716 -3.0786e+002 -3.1834e+002  2.5546e+002 24341 109537,109667,109641
 1.3000e+000 109693 -1.6097e+002 -3.6016e+002  2.3834e+002 24341 109511,109667,109537
 1.3000e+000 110163 -6.2180e+002 -3.2829e+002  4.2238e+002 23837 110186,109967,109915
 1.3000e+000 110140 -6.1558e+002 -3.2395e+002  4.1998e+002 23837 110186,109915,109889
 1.3000e+000 110117 -2.6544e+002 -1.2310e+002  3.1061e+002 23837 109889,110045,109993
 1.3000e+000 110094 -5.7442e+002 -5.8775e+002  2.8215e+002 23837 109915,109967,109941
 1.3000e+000 110071 -3.4969e+002 -5.8837e+000  5.8228e+001 23837 109993,110045,110019
 1.3000e+000 110212 -6.1925e+002 -3.2971e+002  4.2496e+002 23837 109993,109967,110186
 1.3000e+000 110235 -6.1823e+002 -3.2827e+002  4.2341e+002 23837 109993,110186,109889
 1.3000e+000 110336 -3.8628e+002 -8.6046e+002  4.4048e+002 23433 110258,110310,110284
 1.3000e+000 110584 -5.0671e+002 -3.0560e+002  2.4909e+002 22829 110607,110411,110385
 1.3000e+000 110561 -6.1878e+002 -3.5536e+002  2.7403e+002 22829 110607,110385,110489
 1.3000e+000 110538 -4.7388e+002 -3.4900e+002  1.7239e+002 22829 110437,110489,110463
 1.3000e+000 110515 -4.6468e+002 -2.3914e+002  3.3755e+002 22829 110359,110489,110385
 1.3000e+000 110633 -5.2529e+002 -2.8731e+002  1.6996e+002 22829 110437,110411,110607
 1.3000e+000 110656 -5.8574e+002 -3.2207e+002  1.9449e+002 22829 110437,110607,110489
 1.3000e+000 110906 -9.8670e+002 -4.1159e+002  2.6474e+002 22432 110707,110759,110733
 1.3000e+000 110883 -6.3903e+002 -4.2546e+002  2.1132e+002 22432 110707,110785,110759
 1.3000e+000 110860 -6.4059e+002 -3.7471e+002  3.5101e+002 22432 110707,110811,110785
 1.3000e+000 110837 -7.7748e+002 -5.3473e+002  2.8400e+002 22432 110681,110811,110707
 1.3000e+000 111288 -7.9220e+001 -1.6995e+002  1.6173e+002 22142 111092,111144,111118
 1.3000e+000 111265 -2.6148e+002 -2.0430e+002  1.5613e+002 22142 111066,111144,111092
 1.3000e+000 111242 -2.3923e+002 -1.6542e+002  1.3840e+002 22142 111040,111144,111066
 1.3000e+000 111219 -4.4523e+002 -4.9727e+001  9.5619e+001 22142 111014,111144,111040
 1.3000e+000 111196 -2.7794e+002  8.7319e+000  1.0648e+002 22142 111014,111170,111144
 1.3000e+000 111389 -3.7228e+000 -8.7168e+001  2.3622e+002 21830 111311,111363,111337
 1.3000e+000 111735 -5.1287e+002  4.0076e+001  4.3446e+002 21268 111758,111542,111438
 1.3000e+000 111712 -3.4716e+002  8.1634e+001  2.5630e+002 21268 111758,111438,111412
 1.3000e+000 111689 -1.7036e+002 -2.9237e+002  5.4897e+002 21268 111438,111542,111464
 1.3000e+000 111666  1.3487e+002 -1.3005e+002  7.0112e+002 21268 111464,111542,111490
 1.3000e+000 111643 -8.8005e+002 -4.8274e+002  4.4506e+002 21268 111412,111594,111568
 1.3000e+000 111620  5.7253e+002  3.6944e+002  9.0321e+002 21268 111490,111542,111516
 1.3000e+000 111784 -5.4761e+002 -5.9124e+001  4.3947e+002 21268 111568,111542,111758
 1.3000e+000 111807 -5.2207e+002 -2.8266e+002  3.1983e+002 21268 111568,111758,111412
 1.3000e+000 111959 -5.2374e+002 -6.4009e+001  1.8459e+002 20864 111982,111910,111884
 1.3000e+000 111936 -4.4896e+002 -8.7378e+001  2.8653e+002 20864 112114,111832,111910
 1.3000e+000 112008 -4.9928e+002 -1.9283e+002  2.4520e+002 20864 112114,111910,111982
 1.3000e+000 112140 -4.3007e+002 -2.1283e+002  2.1902e+002 20864 111858,111832,112114
 1.3000e+000 112163 -4.8743e+002 -3.3895e+002  1.8017e+002 20864 111858,112114,111982
 1.3000e+000 112411 -4.6175e+001 -1.0493e+001  1.6729e+001 20324 112186,112290,112212
 1.3000e+000 112388 -4.3112e+000 -4.3686e+000  2.9367e+001 20324 112186,112316,112290
 1.3000e+000 112365  2.6428e+002 -1.6908e+002  2.2034e+001 20324 112212,112290,112264
 1.3000e+000 112342 -8.6316e+002 -3.6938e+002 -6.0081e+001 20324 112212,112264,112238
 1.3000e+000 112659 -1.1886e+002 -3.8522e+001  2.8233e+002 19920 112512,112564,112538
 1.3000e+000 112636 -3.3974e+002 -1.5661e+002  1.9849e+002 19920 112434,112564,112512
 1.3000e+000 112613 -3.4559e+002 -2.1714e+002  2.2299e+002 19920 112434,112512,112460
 1.3000e+000 112590 -3.5909e+002 -2.2251e+002  2.2727e+002 19920 112460,112512,112486
 1.3000e+000 112811 -1.6198e+002 -6.4967e+001  1.6909e+002 19630 112684,112736,112710
 1.3000e+000 112788  4.0180e+001 -1.5895e+002  6.9289e+001 19630 112684,112762,112736
 1.3000e+000 113012 -3.1216e+002 -1.1810e+002  3.1639e+002 19169 112862,112940,112888
 1.3000e+000 112989 -5.3860e+002 -4.2231e+002  2.1448e+002 19169 112836,112940,112862
 1.3000e+000 112966 -3.1055e+002 -3.9993e+002  2.7998e+002 19169 112888,112940,112914
 1.3000e+000 113213 -7.2995e+002 -2.9198e+002  3.6164e+002 18600 113037,113089,113063
 1.3000e+000 113190 -5.0848e+002 -2.1473e+002  3.0559e+002 18600 113037,113115,113089
 1.3000e+000 113167 -8.3509e+002 -5.0742e+002  4.9459e+002 18600 113037,113141,113115
 1.3000e+000 113485 -3.4007e+002 -1.2893e+002  3.2723e+002 18352 113260,113312,113286
 1.3000e+000 113462 -6.7357e+002 -3.9249e+002  4.4218e+002 18352 113260,113390,113312
 1.3000e+000 113439 -6.3362e+002 -1.3459e+002  3.2904e+002 18352 113312,113390,113364
 1.3000e+000 113416 -2.7421e+002 -9.8992e+001  3.4370e+002 18352 113312,113364,113338
 1.3000e+000 113757 -4.7926e+002 -1.8815e+002  3.3065e+002 17834 113558,113610,113584
 1.3000e+000 113734 -6.8712e+002 -3.7470e+002  4.2757e+002 17834 113532,113610,113558
 1.3000e+000 113711 -7.0514e+002 -4.5611e+002  3.4899e+002 17834 113532,113662,113610
 1.3000e+000 113688 -3.5688e+002 -1.1557e+002  4.8740e+002 17834 113610,113662,113636
 1.3000e+000 113958 -4.2687e+002 -1.7401e+002  2.3835e+002 17330 113782,113834,113808
 1.3000e+000 113935 -2.4135e+002 -1.5884e+002  1.8037e+002 17330 113782,113886,113834
 1.3000e+000 113912 -2.9384e+002 -1.3770e+002  1.1491e+002 17330 113834,113886,113860
 1.3000e+000 114110 -6.8587e+002 -2.6302e+002  4.4035e+002 16874 113983,114035,114009
 1.3000e+000 114087 -2.6631e+002 -6.0901e+002  3.8723e+002 16874 113983,114061,114035
 1.3000e+000 114465 -6.5277e+002 -2.7604e+002  1.5356e+002 16270 114240,114292,114266
 1.3000e+000 114442 -4.2366e+002 -9.1600e+001  6.8105e+001 16270 114240,114370,114292
 1.3000e+000 114419 -2.2107e+002 -9.2031e+001  1.3214e+002 16270 114292,114344,114318
 1.3000e+000 114396 -4.3583e+002 -2.0082e+002  7.0443e+001 16270 114292,114370,114344
 1.3000e+000 114566 -3.8953e+001  3.8953e+001  5.9835e+002 15834 114488,114540,114514
 1.3000e+000 114667 -4.3163e+002 -1.7314e+002  2.7431e+002 15155 114589,114641,114615
 1.3000e+000 114890 -3.7136e+002 -1.3942e+002  3.5394e+002 421 114766,114818,114792
 1.3000e+000 114867 -5.3124e+002 -4.4211e+002  2.9268e+002 421 114714,114818,114766
 1.3000e+000 114844 -6.9245e+002 -2.9219e+002  1.6966e+002 421 114714,114766,114740
 1.4000e+000 66553 -4.4282e+002 -1.9250e+002  2.5028e+002 66108 66354,66458,66432
 1.4000e+000 66530 -4.6605e+002 -1.9569e+002  1.6669e+002 66108 66328,66458,66354
 1.4000e+000 66507 -2.6700e+002 -2.2504e+002  1.7359e+002 66108 66354,66432,66406
 1.4000e+000 66484  1.1631e+002  6.5341e+001  3.1707e+002 66108 66354,66406,66380
 1.4000e+000 66951 -3.3138e+002 -1.3821e+002  1.5717e+002 65910 66703,66833,66807
 1.4000e+000 66928 -4.3881e+001 -8.8526e+001  1.9779e+002 65910 66677,66833,66703
 1.4000e+000 66905 -1.7475e+002 -3.6912e+002  2.4392e+002 65910 66729,66781,66755
 1.4000e+000 66882 -6.5129e+002 -2.7061e+002  2.3227e+002 65910 66729,66807,66781
 1.4000e+000 66859 -4.5604e+002 -7.5757e+001  1.5292e+002 65910 66703,66807,66729
 1.4000e+000 67150 -4.2035e+002 -1.8030e+002  2.2329e+001 65712 67026,67078,67052
 1.4000e+000 67127 -4.0421e+002 -9.4932e+001 -1.0090e+001 65712 66974,67078,67026
 1.4000e+000 67104 -1.0183e+003 -2.7514e+002 -7.7130e+001 65712 66974,67026,67000
 1.4000e+000 67481 -8.9400e+002 -1.7405e+002  3.1846e+002 65422 67282,67360,67334
 1.4000e+000 67458 -3.9327e+002 -1.2920e+002  4.9951e+002 65422 67282,67386,67360
 1.4000e+000 67435 -2.3085e+002  1.0901e+002  2.7021e+002 65422 67282,67334,67308
 1.4000e+000 67412  4.4141e+001 -1.1303e+002  2.3230e+002 65422 67256,67386,67282
 1.4000e+000 68115 -2.0050e+002 -1.6952e+002  1.0415e+002 65018 67795,67925,67873
 1.4000e+000 68092 -2.5635e+002 -1.9671e+002  7.4191e+001 65018 67769,67925,67795
 1.4000e+000 68069 -1.6349e+002 -1.3598e+002  1.1979e+002 65018 67873,67925,67899
 1.4000e+000 68046 -3.4010e+002 -2.8717e+002  1.1337e+002 65018 67769,67951,67925
 1.4000e+000 68023 -2.9669e+002 -2.1459e+002  1.4883e+002 65018 67795,67873,67821
 1.4000e+000 68000 -3.4094e+002 -2.1857e+002  1.3447e+002 65018 67821,67873,67847
 1.4000e+000 67977 -5.3753e+002 -3.4680e+002  1.1766e+002 65018 67743,67951,67769
 1.4000e+000 68363 -2.2692e+002 -4.7557e+002  4.7533e+002 64820 68190,68242,68216
 1.4000e+000 68340 -4.7997e+002 -3.4682e+002  4.9764e+002 64820 68190,68268,68242
 1.4000e+000 68317 -2.6407e+002 -2.4278e+002  5.4186e+002 64820 68164,68268,68190
 1.4000e+000 68294 -9.7707e+002 -3.9516e+002  3.8316e+002 64820 68138,68268,68164
 1.4000e+000 68513 -4.3410e+002 -2.3500e+002  2.6831e+002 64366 68868,68536,68438
 1.4000e+000 68490 -2.6999e+002 -1.5116e+002  1.7450e+002 64366 68536,68412,68386
 1.4000e+000 68562 -6.0031e+002 -2.8623e+002  2.9071e+002 64366 68740,68536,68464
 1.4000e+000 68585 -3.8619e+002 -1.9509e+002  2.1940e+002 64366 68608,68536,68386
 1.4000e+000 68634 -4.9207e+002 -4.1536e+002  1.8784e+002 64366 68464,68536,68608
 1.4000e+000 68766 -4.0896e+002 -1.9236e+002  2.5622e+002 64366 68438,68536,68740
 1.4000e+000 68894 -3.8730e+002 -1.7497e+002  2.8898e+002 64366 68412,68536,68868
 1.4000e+000 69172 -2.4050e+001 -4.9854e+002  9.4948e+001 64168 69022,69074,69048
 1.4000e+000 69149 -5.1448e+002 -2.1349e+002  2.1184e+002 64168 68996,69074,69022
 1.4000e+000 69126 -6.2828e+002 -4.6568e+002  1.3975e+002 64168 68996,69100,69074
 1.4000e+000 69371 -4.9263e+002 -1.6693e+002  3.3783e+002 63970 69466,69394,69273
 1.4000e+000 69348 -2.9851e+002 -1.4399e+002  1.3611e+002 63970 69394,69247,69221
 1.4000e+000 69325 -8.4153e+002 -3.5258e+002  2.2508e+002 63970 69195,69299,69221
 1.4000e+000 69420 -6.5837e+002 -2.7352e+002  4.0722e+002 63970 69299,69273,69394
 1.4000e+000 69443 -4.7389e+002 -3.4487e+002  2.3652e+002 63970 69299,69394,69221
 1.4000e+000 69492 -5.2056e+002 -2.1474e+002  3.2635e+002 63970 69247,69394,69466
 1.4000e+000 69904 -2.9396e+001 -1.3662e+002  6.7630e+001 63680 69705,69783,69731
 1.4000e+000 69881  1.9163e+001 -9.5192e+001  4.3281e+001 63680 69679,69783,69705
 1.4000e+000 69858 -1.3893e+002 -1.8563e+002  8.7623e+001 63680 69679,69809,69783
 1.4000e+000 69835 -8.6644e+001 -1.0763e+002  6.8643e+001 63680 69731,69783,69757
 1.4000e+000 70054 -2.5401e+001 -2.3471e+002  1.6530e+002 63476 70077,69953,69927
 1.4000e+000 70031  6.2949e+001 -9.7777e+001  2.2912e+002 63476 70077,69927,70005
 1.4000e+000 70103 -1.4012e+002 -1.4670e+002  1.0678e+002 63476 69979,69953,70077
 1.4000e+000 70126 -6.7630e+001 -2.4993e+001  1.6042e+002 63476 69979,70077,70005
 1.4000e+000 70325 -8.7066e+002 -3.6056e+002  3.8566e+002 63278 70149,70227,70175
 1.4000e+000 70302 -4.1007e+002 -1.4480e+002  4.4499e+002 63278 70149,70253,70227
 1.4000e+000 70279 -1.0533e+003 -4.9809e+002  2.1885e+002 63278 70175,70227,70201
 1.4000e+000 70597 -4.2331e+002  5.7783e+000  1.6142e+002 63080 70372,70476,70424
 1.4000e+000 70574 -2.5757e+002 -1.0352e+002  2.0993e+002 63080 70372,70502,70476
 1.4000e+000 70551 -6.2606e+002 -2.5619e+002  2.7677e+002 63080 70424,70476,70450
 1.4000e+000 70528 -9.2466e+002 -2.5766e+002  4.4480e+002 63080 70372,70424,70398
 1.4000e+000 70847 -3.9526e+001 -2.1107e+002  8.3652e+001 62740 70870,70648,70622
 1.4000e+000 70824 -1.6407e+002 -1.6781e+002  1.3495e+002 62740 70870,70622,70752
 1.4000e+000 70801 -6.0897e+001 -3.1184e+002  1.6803e+002 62740 70648,70726,70700
 1.4000e+000 70778 -7.3416e+001 -3.7001e+002  1.6971e+002 62740 70648,70700,70674
 1.4000e+000 70896 -1.5891e+002 -2.6382e+002  6.5048e+001 62740 70726,70648,70870
 1.4000e+000 70919 -2.1959e+002 -1.8160e+002  1.3256e+002 62740 70726,70870,70752
 1.4000e+000 71022 -4.5166e+001  4.5166e+001  6.4408e+002 62520 70944,70996,70970
 1.4000e+000 71223 -6.9525e+002 -3.3078e+002  4.5231e+002 62230 71073,71151,71099
 1.4000e+000 71200 -6.5781e+002 -3.0791e+002  4.6346e+002 62230 71047,71151,71073
 1.4000e+000 71177 -3.7130e+002 -5.6449e+002  3.7894e+002 62230 71099,71151,71125
 1.4000e+000 71861 -3.0448e+002 -4.0982e+002  5.5657e+000 61712 71515,71697,71671
 1.4000e+000 71838 -3.6862e+002 -5.4609e+002  7.1135e+001 61712 71489,71697,71515
 1.4000e+000 71815 -9.4610e+002 -4.2251e+002  2.8475e+002 61712 71884,71541,71515
 1.4000e+000 71792 -6.4406e+002 -2.4173e+002  2.0944e+002 61712 71884,71515,71671
 1.4000e+000 71769 -2.3370e+002 -5.9965e+002  2.4270e+002 61712 71541,71619,71593
 1.4000e+000 71746 -2.5210e+002 -7.3324e+002  1.0459e+002 61712 71619,71671,71645
 1.4000e+000 71723 -8.1674e+002 -9.3914e+002  5.2195e+002 61712 71541,71593,71567
 1.4000e+000 71910 -6.6283e+002 -6.0403e+002  4.1846e+002 61712 71619,71541,71884
 1.4000e+000 71933 -4.6461e+002 -4.8615e+002  3.6966e+002 61712 71619,71884,71671
 1.4000e+000 72230 -3.1300e+002 -1.5644e+002  6.3248e+001 61208 72253,72060,72008
 1.4000e+000 72207 -3.0584e+002 -9.1720e+001  5.1713e+001 61208 72253,72008,71982
 1.4000e+000 72184 -2.4242e+002 -3.8447e+001  3.7143e+001 61208 71982,72112,72086
 1.4000e+000 72161 -4.8918e+002 -1.5337e+002  1.2457e+002 61208 72008,72060,72034
 1.4000e+000 72138 -1.6710e+002 -4.4826e+001  8.3141e+001 61208 71956,72112,71982
 1.4000e+000 72279 -2.9894e+002 -1.1046e+002  3.6257e+001 61208 72086,72060,72253
 1.4000e+000 72302 -3.1304e+002 -7.2681e+001  2.5964e+001 61208 72086,72253,71982
 1.4000e+000 72761 -5.1895e+002 -2.6976e+002  2.0321e+002 60804 72487,72617,72513
 1.4000e+000 72738 -5.3988e+002 -3.0820e+002  2.1203e+002 60804 72487,72643,72617
 1.4000e+000 72715 -1.9720e+002 -3.3432e+002  2.3117e+002 60804 72565,72617,72591
 1.4000e+000 72692 -4.0213e+002 -2.4305e+002  2.2867e+002 60804 72513,72617,72565
 1.4000e+000 72669 -4.3707e+002 -2.8037e+002  2.8480e+002 60804 72513,72565,72539
 1.4000e+000 72911 -4.5166e+001  4.5166e+001  6.4408e+002 60556 72784,72836,72810
 1.4000e+000 72888  5.2219e+002  1.1903e+002  4.0719e+002 60556 72784,72862,72836
 1.4000e+000 73468 -2.2932e+002 -2.3013e+002  1.6620e+002 60244 73491,73226,73200
 1.4000e+000 73445 -3.5112e+002 -2.9601e+002  2.7809e+002 60244 73563,73491,73200
 1.4000e+000 73422 -6.1198e+002 -2.1178e+002  2.9658e+002 60244 73563,73200,73174
 1.4000e+000 73399 -2.2164e+002 -2.6204e+002  1.5412e+002 60244 73226,73278,73252
 1.4000e+000 73376 -4.7332e+002 -2.5999e+002  2.0821e+002 60244 73122,73304,73278
 1.4000e+000 73353 -4.9294e+002 -3.9291e+002  2.2657e+002 60244 73096,73304,73122
 1.4000e+000 73330 -8.0310e+002 -2.3266e+002 -1.3859e+002 60244 73122,73174,73148
 1.4000e+000 73517 -4.8825e+002 -3.5414e+002  2.3031e+002 60244 73278,73226,73491
 1.4000e+000 73540 -4.4407e+002 -2.4018e+002  2.1680e+002 60244 73278,73491,73122
 1.4000e+000 73589 -7.5839e+002 -3.6621e+002  2.3393e+002 60244 73122,73491,73563
 1.4000e+000 73612 -1.0186e+003 -2.7850e+002  2.6823e+002 60244 73122,73563,73174
 1.4000e+000 73762 -4.0444e+002 -9.4808e+002  3.9938e+002 59875 73661,73713,73687
 1.4000e+000 73739 -5.7614e+002 -3.9391e+002  3.2473e+002 59875 73635,73713,73661
 1.4000e+000 74191 -1.4153e+002 -3.0056e+002  4.3255e+002 59478 74214,73894,73868
 1.4000e+000 74168 -3.5052e+002 -2.6976e+002  4.5181e+002 59478 74214,73868,74050
 1.4000e+000 74145 -2.4000e+002 -3.2092e+002  2.4686e+002 59478 73894,73946,73920
 1.4000e+000 74122 -3.1074e+002 -3.0786e+002  2.5793e+002 59478 73894,73998,73946
 1.4000e+000 74099 -1.0209e+003 -5.5809e+002  6.9828e+002 59478 73998,74050,74024
 1.4000e+000 74076 -4.2075e+002 -2.6993e+002  1.5447e+002 59478 73946,73998,73972
 1.4000e+000 74240 -3.3164e+002 -2.5053e+002  3.4195e+002 59478 73998,73894,74214
 1.4000e+000 74263 -5.4010e+002 -2.3919e+002  3.2739e+002 59478 73998,74214,74050
 1.4000e+000 74720 -4.3769e+002 -3.4129e+002  1.6925e+002 58774 74472,74602,74498
 1.4000e+000 74697 -4.4415e+002 -3.1953e+002  1.8173e+002 58774 74446,74602,74472
 1.4000e+000 74674 -4.5037e+002 -2.9627e+002  1.7290e+002 58774 74498,74576,74524
 1.4000e+000 74651 -4.3063e+002 -3.0011e+002  1.6632e+002 58774 74498,74602,74576
 1.4000e+000 74628 -4.7185e+002 -4.5050e+002  2.2527e+002 58774 74524,74576,74550
 1.4000e+000 75226 -3.8877e+002 -1.5348e+002  2.1233e+002 58270 74955,75085,75033
 1.4000e+000 75203 -2.9967e+002 -3.2144e+002  2.6337e+002 58270 74929,75085,74955
 1.4000e+000 75180 -4.4235e+002 -2.1215e+002  2.4142e+002 58270 75033,75085,75059
 1.4000e+000 75157 -6.2240e+002 -1.4066e+002  1.5722e+002 58270 74955,75007,74981
 1.4000e+000 75134 -3.0471e+002 -1.1757e+002  1.2531e+002 58270 74955,75033,75007
 1.4000e+000 75111 -4.2138e+001 -3.7759e+002  1.3124e+002 58270 74903,75085,74929
 1.4000e+000 75425 -1.3099e+002 -6.6230e+001  7.0000e+001 57830 75448,75301,75249
 1.4000e+000 75402 -9.8887e+001  1.1326e+001  3.5842e+001 57830 75448,75249,75353
 1.4000e+000 75379 -1.4931e+002 -2.0799e+002  7.4469e+001 57830 75520,75301,75275
 1.4000e+000 75474 -1.2783e+002 -1.1035e+002  1.0357e+002 57830 75327,75301,75448
 1.4000e+000 75497 -1.1957e+002 -7.8262e+001  6.8259e+001 57830 75327,75448,75353
 1.4000e+000 75546 -7.7499e+001 -3.2549e+001  3.0838e+001 57830 75249,75301,75520
 1.4000e+000 76261 -1.9386e+002 -3.0894e+002  1.8700e+002 57426 76284,76097,76071
 1.4000e+000 76238 -1.9365e+002 -2.5462e+002  2.1874e+002 57426 75889,76097,75915
 1.4000e+000 76215 -2.9532e+002 -3.3432e+002  1.9969e+002 57426 76428,76284,76071
 1.4000e+000 76192 -2.1873e+002 -2.7199e+002  1.2124e+002 57426 76356,75941,75915
 1.4000e+000 76169 -3.0062e+002 -2.8821e+002  1.9078e+002 57426 76428,76071,76019
 1.4000e+000 76146 -3.0279e+002 -3.3438e+002  1.6698e+002 57426 76019,76071,76045
 1.4000e+000 76123 -2.8384e+002 -2.7502e+002  2.4855e+002 57426 75967,76019,75993
 1.4000e+000 76310 -2.3494e+002 -4.0421e+002  1.7077e+002 57426 75915,76097,76284
 1.4000e+000 76333 -2.2340e+002 -3.3366e+002  1.2382e+002 57426 76356,75915,76284
 1.4000e+000 76382 -2.4788e+002 -1.8502e+002  1.7694e+002 57426 75967,75941,76356
 1.4000e+000 76405 -2.4887e+002 -2.3257e+002  1.6991e+002 57426 75967,76356,76284
 1.4000e+000 76454 -2.7178e+002 -2.9300e+002  1.8653e+002 57426 75967,76284,76428
 1.4000e+000 76477 -2.9833e+002 -2.6782e+002  1.8594e+002 57426 75967,76428,76019
 1.4000e+000 76953 -3.2061e+002 -6.0304e+002  2.9548e+002 56908 76976,76711,76685
 1.4000e+000 76930 -3.3015e+002 -6.1252e+002  2.6268e+002 56908 77048,76976,76685
 1.4000e+000 76907 -5.8746e+002 -6.3787e+002  3.8177e+002 56908 77048,76685,76633
 1.4000e+000 76884 -8.3227e+002 -9.3515e+002  5.4359e+002 56908 76711,76789,76763
 1.4000e+000 76861 -4.8244e+002 -4.0051e+002  2.1933e+002 56908 76581,76789,76607
 1.4000e+000 76838 -8.1486e+002 -6.7730e+002  2.1162e+002 56908 76711,76763,76737
 1.4000e+000 76815 -1.1862e+003 -1.0183e+003  6.4755e+002 56908 76633,76685,76659
 1.4000e+000 77002 -2.9071e+002 -6.0337e+002  3.3734e+002 56908 76789,76711,76976
 1.4000e+000 77025 -3.6800e+002 -4.1272e+002  1.7710e+002 56908 76789,76976,76607
 1.4000e+000 77074 -7.2967e+002 -6.0555e+002  2.5601e+002 56908 76607,76976,77048
 1.4000e+000 77097 -8.6666e+002 -5.2116e+002  3.6201e+002 56908 76607,77048,76633
 1.4000e+000 77475 -3.5371e+002 -5.9539e+002  3.3750e+002 56546 77570,77498,77279
 1.4000e+000 77452 -3.0085e+002 -7.1126e+002  4.0528e+002 56546 77498,77227,77357
 1.4000e+000 77429 -3.9603e+002 -6.3393e+002  3.8529e+002 56546 77570,77279,77253
 1.4000e+000 77406 -5.6573e+002 -8.2658e+002  4.1953e+002 56546 77201,77357,77227
 1.4000e+000 77383 -4.7215e+002 -5.9553e+002  2.2893e+002 56546 77279,77331,77305
 1.4000e+000 77524 -3.2961e+002 -4.2280e+002  3.2034e+002 56546 77331,77279,77498
 1.4000e+000 77547 -2.5915e+002 -5.6510e+002  4.5527e+002 56546 77331,77498,77357
 1.4000e+000 77596 -3.9805e+002 -6.1353e+002  4.1494e+002 56546 77227,77498,77570
 1.4000e+000 77619 -4.5359e+002 -7.3033e+002  4.6461e+002 56546 77227,77570,77253
 1.4000e+000 77818 -4.5548e+002 -4.7498e+002  3.3075e+002 56042 77841,77694,77668
 1.4000e+000 77795 -4.2208e+002 -4.3698e+002  2.3309e+002 56042 77841,77668,77746
 1.4000e+000 77772 -4.6913e+002 -7.0587e+002  2.1051e+002 56042 77642,77746,77668
 1.4000e+000 77867 -5.0261e+002 -5.5251e+002  3.6114e+002 56042 77720,77694,77841
 1.4000e+000 77890 -4.5964e+002 -5.0198e+002  2.6156e+002 56042 77720,77841,77746
 1.4000e+000 78349 -2.9011e+002 -1.3623e+002  1.7079e+002 55538 78075,78127,78101
 1.4000e+000 78326 -3.6695e+002 -2.0981e+002  9.1391e+001 55538 78075,78205,78127
 1.4000e+000 78303 -2.8162e+002 -1.2523e+002  5.5009e+001 55538 78075,78231,78205
 1.4000e+000 78280 -2.3833e+002 -2.8196e+002  1.6586e+002 55538 78127,78179,78153
 1.4000e+000 78257 -2.2480e+002 -2.0223e+002  8.6301e+001 55538 78127,78205,78179
 1.4000e+000 78806 -2.6229e+002 -3.4998e+002  1.0418e+002 55034 78829,78636,78610
 1.4000e+000 78783 -2.9657e+002 -3.2601e+002  1.1566e+002 55034 78901,78829,78610
 1.4000e+000 78760 -2.3058e+002 -3.1852e+002  1.2227e+002 55034 78901,78610,78584
 1.4000e+000 78737 -3.5332e+002 -3.2598e+002  1.2362e+002 55034 78558,78688,78662
 1.4000e+000 78714 -3.9600e+002 -3.2888e+002  3.1840e+002 55034 78532,78688,78558
 1.4000e+000 78855 -3.0843e+002 -4.3235e+002  7.4841e+001 55034 78662,78636,78829
 1.4000e+000 78878 -3.1158e+002 -3.3630e+002  1.3505e+002 55034 78662,78829,78558
 1.4000e+000 78927 -2.5418e+002 -3.0277e+002  1.6147e+002 55034 78558,78829,78901
 1.4000e+000 78950 -2.3637e+002 -3.1398e+002  1.7380e+002 55034 78558,78901,78584
 1.4000e+000 79407 -2.6125e+002 -8.3840e+001  2.4120e+002 54430 79430,79237,79159
 1.4000e+000 79384 -3.8211e+002 -2.6921e+002  8.8959e+001 54430 79430,79159,79133
 1.4000e+000 79361 -2.1050e+002 -1.2437e+002  1.0473e+002 54430 79237,79289,79263
 1.4000e+000 79338 -3.7202e+002 -1.4905e+002  2.3096e+002 54430 79185,79237,79211
 1.4000e+000 79315 -4.2602e+002 -1.4706e+002  2.7784e+002 54430 79159,79237,79185
 1.4000e+000 79456 -2.5571e+002 -2.9819e+002  1.0952e+002 54430 79289,79237,79430
 1.4000e+000 79479 -3.2373e+002 -5.2686e+002 -9.0387e+000 54430 79289,79430,79133
 1.4000e+000 79936 -1.9684e+002 -8.2068e+001  2.3524e+002 53919 79662,79766,79688
 1.4000e+000 79913 -7.5230e+002 -3.7233e+002  4.5505e+002 53919 79662,79818,79766
 1.4000e+000 79890 -1.0572e+003 -4.4725e+002  8.5607e+001 53919 79766,79818,79792
 1.4000e+000 79867 -5.6842e+002 -2.0502e+002  3.7351e+002 53919 79714,79766,79740
 1.4000e+000 79844 -4.5683e+002 -2.4340e+002  3.1530e+002 53919 79688,79766,79714
 1.4000e+000 80037 -9.6519e+001 -2.9909e+002  2.8409e+002 53671 79959,80011,79985
 1.4000e+000 80405 -4.8438e+001 -6.5477e+001 -2.0025e+001 53267 80108,80264,80238
 1.4000e+000 80382 -3.9676e+001 -3.9608e+000  2.5418e+000 53267 80082,80264,80108
 1.4000e+000 80359 -6.6602e+001 -2.9611e+002  1.9889e+002 53267 80108,80238,80134
 1.4000e+000 80336 -4.1700e+001 -1.1601e+002  1.4688e+002 53267 80134,80212,80186
 1.4000e+000 80313 -2.4099e+002 -2.8345e+002  2.5799e+002 53267 80134,80238,80212
 1.4000e+000 80290  2.4771e+001 -2.0004e+002  6.0635e+001 53267 80134,80186,80160
 1.4000e+000 80915 -1.9645e+002 -3.1480e+002  1.4877e+002 52969 80644,80774,80748
 1.4000e+000 80892 -2.3728e+002 -1.0245e+002  3.3358e+001 52969 80618,80774,80644
 1.4000e+000 80869 -2.9867e+002 -4.6227e+002  7.3091e+001 52969 80644,80748,80670
 1.4000e+000 80846 -2.1543e+002 -1.1534e+002  1.6617e+001 52969 80592,80774,80618
 1.4000e+000 80823 -3.7184e+002 -3.2630e+002  1.1549e+002 52969 80670,80722,80696
 1.4000e+000 80800 -2.1103e+002 -2.5990e+002  9.4398e+001 52969 80670,80748,80722
 1.4000e+000 81266  6.9249e+001 -1.8317e+002  4.1010e+001 52565 81041,81145,81067
 1.4000e+000 81243 -1.4007e+002 -5.2980e+002  1.3414e+002 52565 81041,81171,81145
 1.4000e+000 81220 -4.2123e+002 -1.1393e+003  2.2137e+002 52565 81067,81119,81093
 1.4000e+000 81197  1.0938e+002  6.5102e+000  6.2625e+001 52565 81067,81145,81119
 1.4000e+000 81723 -2.2709e+002 -1.2150e+002  1.1089e+002 51904 81449,81527,81475
 1.4000e+000 81700 -1.6480e+002 -3.8039e+001  7.3755e+001 51904 81449,81579,81527
 1.4000e+000 81677 -4.0956e+002 -3.2188e+002  2.1471e+002 51904 81449,81605,81579
 1.4000e+000 81654 -1.7547e+002 -5.6637e+001  6.7601e+001 51904 81527,81579,81553
 1.4000e+000 81631 -3.0322e+002 -9.3578e+001  5.4042e+001 51904 81475,81527,81501
 1.4000e+000 82327 -4.2448e+002 -4.5164e+002  3.0324e+002 51321 82422,82350,82036
 1.4000e+000 82304 -4.3893e+002 -3.4327e+002  3.2037e+002 51321 82494,82350,81958
 1.4000e+000 82281 -4.3359e+002 -4.6443e+002  2.8559e+002 51321 82422,82036,82010
 1.4000e+000 82258 -4.3629e+002 -3.3178e+002  2.9518e+002 51321 82494,81958,81932
 1.4000e+000 82235 -4.6099e+002 -2.4874e+002  1.6821e+002 51321 82062,82114,82088
 1.4000e+000 82212 -1.0357e+003 -6.3806e+002  4.1214e+002 51321 81932,82140,82114
 1.4000e+000 82189 -4.5888e+002 -1.7532e+002  2.6330e+002 51321 81958,82010,81984
 1.4000e+000 82166 -3.8821e+002 -3.8673e+002  2.3909e+002 51321 81906,82140,81932
 1.4000e+000 82376 -4.2619e+002 -5.2226e+002  3.0127e+002 51321 82062,82036,82350
 1.4000e+000 82399 -4.4843e+002 -4.2252e+002  2.9117e+002 51321 82062,82350,82114
 1.4000e+000 82448 -4.0300e+002 -4.3382e+002  3.1793e+002 51321 81958,82350,82422
 1.4000e+000 82471 -4.0901e+002 -4.4478e+002  3.0067e+002 51321 81958,82422,82010
 1.4000e+000 82520 -4.5010e+002 -3.7093e+002  3.2056e+002 51321 82114,82350,82494
 1.4000e+000 82543 -4.5272e+002 -3.6765e+002  2.9922e+002 51321 82114,82494,81932
 1.4000e+000 83019 -5.5852e+002 -2.4637e+002  1.5324e+002 50817 82673,82751,82699
 1.4000e+000 82996 -5.6480e+002 -2.7974e+002  2.2364e+002 50817 83042,82673,82855
 1.4000e+000 82973 -5.0085e+002 -3.8311e+002  2.4740e+002 50817 83042,82855,82803
 1.4000e+000 82950 -6.6191e+002 -4.6809e+002  3.0792e+002 50817 82751,82803,82777
 1.4000e+000 82927 -6.8768e+002 -4.1024e+002  1.3265e+002 50817 82647,82855,82673
 1.4000e+000 82904 -6.4678e+002 -4.9302e+002  3.6296e+002 50817 82803,82855,82829
 1.4000e+000 82881 -6.9450e+002 -5.3307e+002  1.9153e+002 50817 82699,82751,82725
 1.4000e+000 83068 -6.4703e+002 -3.5619e+002  2.6470e+002 50817 82751,82673,83042
 1.4000e+000 83091 -5.3731e+002 -4.3127e+002  2.7362e+002 50817 82751,83042,82803
 1.4000e+000 83290 -4.7277e+002 -2.2126e+002  3.1302e+002 50356 83313,83166,83140
 1.4000e+000 83267 -5.4899e+002 -4.5636e+002  2.4268e+002 50356 83515,83313,83140
 1.4000e+000 83244 -6.3206e+002 -4.4738e+002  1.1772e+002 50356 83515,83140,83385
 1.4000e+000 83339 -5.5461e+002 -4.0066e+002  3.4064e+002 50356 83192,83166,83313
 1.4000e+000 83362 -3.9286e+002 -4.2268e+002  2.8057e+002 50356 83192,83313,83218
 1.4000e+000 83411 -2.4367e+002 -2.3899e+002  1.8153e+002 50356 83114,83218,83385
 1.4000e+000 83541 -3.4133e+002 -3.8882e+002  2.3610e+002 50356 83218,83313,83515
 1.4000e+000 83564 -3.6443e+002 -3.3894e+002  1.2753e+002 50356 83218,83515,83385
 1.4000e+000 83893 -2.8707e+002 -2.0207e+002  9.6129e+001 49552 83720,83798,83746
 1.4000e+000 83870 -2.3850e+002 -4.4089e+001  8.2624e+001 49552 83694,83798,83720
 1.4000e+000 83847 -1.4614e+002 -7.8209e+001  7.7552e+001 49552 83668,83798,83694
 1.4000e+000 83824 -2.8154e+002 -9.3188e+001  3.8874e+001 49552 83746,83798,83772
 1.4000e+000 84141 -5.6689e+002 -4.1097e+002  2.8682e+002 49212 84164,84020,83942
 1.4000e+000 84118 -5.5589e+002 -3.7165e+002  3.1506e+002 49212 84164,83942,83916
 1.4000e+000 84095 -3.9374e+002 -5.0908e+002  2.1344e+002 49212 83942,84020,83968
 1.4000e+000 84072 -3.4297e+002 -3.4465e+001  1.1440e+002 49212 83968,84020,83994
 1.4000e+000 84190 -5.9290e+002 -4.0878e+002  2.6356e+002 49212 84046,84020,84164
 1.4000e+000 84213 -5.7650e+002 -3.8137e+002  2.9130e+002 49212 84046,84164,83916
 1.4000e+000 84800 -1.1147e+002 -3.3795e+002  2.0799e+002 48865 84503,84633,84555
 1.4000e+000 84777 -3.1827e+002 -5.8534e+002  1.1910e+002 48865 84503,84659,84633
 1.4000e+000 84754 -2.5476e+002 -7.3998e+002  1.6930e+002 48865 84555,84633,84581
 1.4000e+000 84731 -1.9015e+002 -1.0968e+003  3.3820e+002 48865 84581,84633,84607
 1.4000e+000 84708 -5.9846e+002 -4.6592e+002  1.5231e+002 48865 84503,84555,84529
 1.4000e+000 84685 -3.2780e+002 -5.4552e+002  1.8831e+002 48865 84477,84659,84503
 1.4000e+000 85355 -3.1219e+002 -3.2642e+002  1.5710e+002 48461 85378,85035,85009
 1.4000e+000 85332 -3.3592e+002 -3.2591e+002  1.6814e+002 48461 85378,85009,85165
 1.4000e+000 85309 -2.2740e+002 -3.8466e+002  2.2406e+002 48461 85450,85061,85035
 1.4000e+000 85286 -4.7146e+002 -3.7208e+002  1.5874e+002 48461 85009,85191,85165
 1.4000e+000 85263 -3.3526e+002 -3.0332e+002  2.3453e+002 48461 85087,85165,85113
 1.4000e+000 85240 -2.2624e+002 -4.5302e+002  7.7490e+000 48461 84983,85191,85009
 1.4000e+000 85217 -2.8536e+002 -3.7065e+002  1.5293e+002 48461 85113,85165,85139
 1.4000e+000 85404 -2.7136e+002 -3.1445e+002  1.9138e+002 48461 85450,85035,85378
 1.4000e+000 85427 -4.0512e+002 -3.5598e+002  1.5860e+002 48461 85087,85378,85165
 1.4000e+000 85476 -2.8222e+002 -4.5709e+002  1.9368e+002 48461 85087,85061,85450
 1.4000e+000 85499 -3.5119e+002 -4.2646e+002  1.5126e+002 48461 85087,85450,85378
 1.4000e+000 86084 -1.7349e+002 -3.9964e+002  1.6277e+002 48057 86323,86107,85787
 1.4000e+000 86061 -2.4090e+002 -4.6460e+002  2.2994e+002 48057 86107,85761,85943
 1.4000e+000 86038 -3.0008e+002 -3.3336e+002  1.7138e+002 48057 86251,86179,85891
 1.4000e+000 86015 -2.9649e+002 -2.6838e+002  1.0668e+002 48057 86251,85891,85839
 1.4000e+000 85992 -2.8528e+002 -3.1246e+002  2.4599e+002 48057 85891,85943,85917
 1.4000e+000 85969 -3.5042e+002 -2.1714e+002  1.4180e+002 48057 85839,85891,85865
 1.4000e+000 86133 -1.7828e+002 -3.7922e+002  1.3116e+002 48057 85813,85787,86107
 1.4000e+000 86156 -2.3844e+002 -3.9769e+002  1.3919e+002 48057 86179,85813,86107
 1.4000e+000 86205 -2.3702e+002 -2.8532e+002  1.9381e+002 48057 85943,85891,86179
 1.4000e+000 86228 -1.6183e+002 -3.0920e+002  1.8596e+002 48057 85943,86179,86107
 1.4000e+000 86277 -1.8880e+002 -2.6354e+002  1.3900e+002 48057 85813,86179,86251
 1.4000e+000 86300 -2.4729e+002 -2.2746e+002  8.5610e+001 48057 85813,86251,85839
 1.4000e+000 86349 -1.1265e+002 -3.5701e+002  1.8152e+002 48057 85761,86107,86323
 1.4000e+000 86855 -1.7529e+002 -3.5552e+002  2.1471e+002 47545 86878,86584,86558
 1.4000e+000 86832 -2.9233e+002 -4.0840e+002  1.8868e+002 47545 86950,86878,86558
 1.4000e+000 86809 -3.3428e+002 -3.9503e+002  1.9151e+002 47545 86950,86558,86532
 1.4000e+000 86786 -2.1135e+002 -3.3934e+002  2.1982e+002 47545 86584,86662,86610
 1.4000e+000 86763 -3.2765e+002 -3.3929e+002  1.1226e+002 47545 86532,86714,86688
 1.4000e+000 86740 -2.7115e+002 -1.6462e+002  2.1777e+002 47545 86610,86662,86636
 1.4000e+000 86904 -2.3593e+002 -4.3093e+002  1.7983e+002 47545 86662,86584,86878
 1.4000e+000 86927 -1.7474e+002 -3.9115e+002  1.5387e+002 47545 86662,86878,86688
 1.4000e+000 86976 -2.2477e+002 -3.9388e+002  1.4053e+002 47545 86688,86878,86950
 1.4000e+000 86999 -2.9624e+002 -4.1300e+002  1.5252e+002 47545 86688,86950,86532
 1.4000e+000 87328 -3.6309e+002 -2.1480e+002  1.5999e+002 47048 87155,87207,87181
 1.4000e+000 87305 -2.7860e+002 -1.6545e+002  1.8033e+002 47048 87129,87207,87155
 1.4000e+000 87282 -3.5109e+002 -1.9687e+002  1.8979e+002 47048 87103,87207,87129
 1.4000e+000 87259 -5.0168e+002 -5.7551e+002  3.5693e+002 47048 87103,87233,87207
 1.4000e+000 87576 -1.8270e+002 -2.0878e+002  2.1440e+002 46701 87599,87429,87377
 1.4000e+000 87553 -2.7170e+002 -1.0868e+002  1.3412e+002 46701 87599,87377,87481
 1.4000e+000 87530 -8.5014e+001 -6.8532e+001  5.4171e+001 46701 87351,87481,87377
 1.4000e+000 87507 -4.3758e+001 -1.1949e+002  1.4212e+002 46701 87377,87429,87403
 1.4000e+000 87625 -2.4501e+002 -3.9692e+002  2.1322e+002 46701 87455,87429,87599
 1.4000e+000 87648 -2.7720e+002 -2.2230e+002  1.1608e+002 46701 87455,87599,87481
 1.4000e+000 87798  2.7818e+001  1.2042e+000 -6.6483e+000 46239 87697,87749,87723
 1.4000e+000 87775  7.6682e+001 -4.7095e+001  8.9958e+001 46239 87671,87749,87697
 1.4000e+000 88308 -6.7644e+002 -6.0085e+002  1.5284e+002 45735 88089,88167,88141
 1.4000e+000 88285 -4.5787e+002 -3.7840e+002  2.7531e+002 45735 88011,88167,88089
 1.4000e+000 88262 -5.6080e+002 -4.1797e+002  2.7688e+002 45735 87985,88167,88011
 1.4000e+000 88239 -6.2419e+002 -1.1226e+003  4.1021e+002 45735 88011,88089,88063
 1.4000e+000 88216 -7.2662e+002 -6.1708e+002  1.8200e+002 45735 88089,88141,88115
 1.4000e+000 88193 -4.4691e+002 -1.8469e+003  1.1051e+003 45735 88011,88063,88037
 1.4000e+000 88686 -4.1472e+002 -3.3234e+002  2.7956e+002 45316 88438,88516,88490
 1.4000e+000 88663 -3.6835e+002 -2.0916e+001  3.7245e+002 45316 88438,88542,88516
 1.4000e+000 88640 -2.2143e+002 -4.7610e+002  4.5461e+002 45316 88438,88568,88542
 1.4000e+000 88617 -6.9716e+002 -5.2035e+002  1.8364e+002 45316 88438,88490,88464
 1.4000e+000 88594 -3.5125e+002 -5.3683e+002  4.3326e+002 45316 88412,88568,88438
 1.4000e+000 88934 -8.6561e+002 -8.6071e+002  4.8991e+002 44812 88957,88735,88709
 1.4000e+000 88911 -4.8874e+002 -5.7460e+002  1.9312e+002 44812 88957,88709,88839
 1.4000e+000 88888 -4.8552e+002 -3.8279e+002  1.0681e+002 44812 89029,88787,88761
 1.4000e+000 88865 -4.6174e+002 -3.9527e+002  1.7224e+002 44812 88787,88839,88813
 1.4000e+000 88983 -2.3943e+002 -5.3538e+002  3.1962e+002 44812 88761,88735,88957
 1.4000e+000 89006 -4.0813e+002 -4.5745e+002  8.7584e+001 44812 89029,88761,88957
 1.4000e+000 89055 -4.6556e+002 -4.6966e+002  1.3977e+002 44812 88839,88787,89029
 1.4000e+000 89078 -4.6334e+002 -6.2376e+002  1.4697e+002 44812 88839,89029,88957
 1.4000e+000 89228 -3.3949e+002 -9.4672e+002  2.0525e+002 44408 89127,89179,89153
 1.4000e+000 89205  7.4187e+000 -8.9446e+001  5.5176e+000 44408 89101,89179,89127
 1.4000e+000 89787 -4.4011e+002 -3.0319e+002  2.3858e+002 43854 89810,89545,89519
 1.4000e+000 89764 -4.7921e+002 -3.9626e+002  2.4441e+002 43854 89810,89519,89467
 1.4000e+000 89741 -4.7265e+002 -5.3256e+002  2.3189e+002 43854 89954,89882,89597
 1.4000e+000 89718 -4.7954e+002 -5.4141e+002  2.3573e+002 43854 89954,89597,89571
 1.4000e+000 89695 -2.6252e+002 -3.7447e+002  2.2483e+002 43854 89415,89623,89467
 1.4000e+000 89672 -1.7282e+002 -2.0378e+002  1.5244e+002 43854 89467,89519,89493
 1.4000e+000 89649 -1.8024e+002 -2.8653e+002  1.8887e+002 43854 89415,89467,89441
 1.4000e+000 89836 -4.8272e+002 -3.2669e+002  2.6320e+002 43854 89882,89545,89810
 1.4000e+000 89859 -2.8469e+002 -3.6986e+002  2.0391e+002 43854 89623,89810,89467
 1.4000e+000 89908 -4.7306e+002 -6.3687e+002  3.1823e+002 43854 89623,89597,89882
 1.4000e+000 89931 -4.4078e+002 -5.6980e+002  2.7548e+002 43854 89623,89882,89810
 1.4000e+000 89980 -5.0382e+002 -5.1831e+002  3.1955e+002 43854 89545,89882,89954
 1.4000e+000 90003 -5.4478e+002 -5.9272e+002  3.3608e+002 43854 89545,89954,89571
 1.4000e+000 90251 -1.5650e+002 -2.4297e+002  1.3555e+002 43492 90026,90078,90052
 1.4000e+000 90228 -4.7237e+002 -3.4402e+002  1.6511e+002 43492 90274,90026,90156
 1.4000e+000 90205 -4.4615e+002 -4.2036e+002  1.6369e+002 43492 90346,90274,90156
 1.4000e+000 90182 -4.6390e+002 -5.6111e+002  4.0863e+002 43492 90346,90156,90130
 1.4000e+000 90300 -2.9263e+002 -4.3979e+002  2.3153e+002 43492 90078,90026,90274
 1.4000e+000 90323 -5.2129e+002 -5.2625e+002  2.1756e+002 43492 90078,90274,90104
 1.4000e+000 90372 -7.4137e+002 -6.1457e+002  3.2033e+002 43492 90104,90274,90346
 1.4000e+000 90395 -7.7353e+002 -7.9463e+002  5.7238e+002 43492 90104,90346,90130
 1.4000e+000 90594 -1.0272e+002 -3.6185e+002  2.2402e+002 43052 90418,90496,90444
 1.4000e+000 90571 -8.2230e+001 -1.0463e+002  1.2429e+002 43052 90418,90522,90496
 1.4000e+000 90548 -3.5209e+002 -3.1776e+002  2.2348e+002 43052 90444,90496,90470
 1.4000e+000 91074 -8.8726e+002 -6.3986e+002  6.1230e+002 42434 91241,90884,90858
 1.4000e+000 91051 -4.6559e+002 -5.5876e+002 -6.1085e+001 42434 90702,90910,90884
 1.4000e+000 91028 -1.6545e+002 -3.3441e+002  2.6300e+002 42434 91097,90754,90702
 1.4000e+000 91005 -7.1314e+002 -3.3335e+002  5.3361e+002 42434 91241,90858,91097
 1.4000e+000 90982 -3.0903e+002 -3.6966e+002  1.4396e+002 42434 91169,90806,90780
 1.4000e+000 90959 -1.8412e+002 -3.8160e+002  1.0730e+002 42434 90806,90858,90832
 1.4000e+000 90936 -2.7306e+002 -2.3986e+002  2.5505e+002 42434 90702,90754,90728
 1.4000e+000 91123 -6.7042e+002 -5.9396e+002  4.2931e+002 42434 90780,90754,91097
 1.4000e+000 91146 -5.7537e+002 -5.5614e+002  4.4978e+002 42434 91169,90780,91097
 1.4000e+000 91195 -2.0787e+002 -2.1854e+002  7.1945e+001 42434 90858,90806,91169
 1.4000e+000 91218 -2.5612e+002  2.7776e+001  3.1658e+002 42434 90858,91169,91097
 1.4000e+000 91267 -4.9803e+002 -1.0623e+003  4.3584e+002 42434 90702,90884,91241
 1.4000e+000 91290 -3.6266e+002 -7.9965e+002  3.7236e+002 42434 90702,91241,91097
 1.4000e+000 91698 -1.0305e+002 -4.0526e+002  1.5385e+002 41773 91473,91577,91499
 1.4000e+000 91675 -2.0761e+002 -5.0358e+002  2.3060e+002 41773 91473,91603,91577
 1.4000e+000 91652 -1.9096e+002 -2.9181e+002  4.7866e+001 41773 91499,91551,91525
 1.4000e+000 91629 -3.1730e+002 -3.5615e+002  1.4719e+002 41773 91499,91577,91551
 1.4000e+000 92044 -4.0293e+002 -4.7274e+002  2.9607e+002 41383 91773,91877,91851
 1.4000e+000 92021 -3.1840e+002 -5.8813e+002  1.7789e+002 41383 91747,91877,91773
 1.4000e+000 91998 -3.2566e+002 -3.2987e+002  2.1554e+002 41383 91773,91851,91799
 1.4000e+000 91975 -2.4362e+002 -4.7993e+002  9.4640e+001 41383 91747,91903,91877
 1.4000e+000 91952 -1.7199e+002 -4.0851e+002  1.4283e+002 41383 91721,91903,91747
 1.4000e+000 91929 -7.6822e+001 -3.4909e+002  1.4748e+002 41383 91799,91851,91825
 1.4000e+000 92601 -3.4138e+002 -3.5015e+002  1.2940e+002 40979 92229,92411,92307
 1.4000e+000 92578 -4.5729e+002 -3.8719e+002  1.3661e+002 40979 92229,92437,92411
 1.4000e+000 92555 -2.8250e+002 -2.6638e+002  9.9833e+001 40979 92229,92307,92281
 1.4000e+000 92532 -2.8905e+002 -3.3715e+002  1.8819e+002 40979 92333,92411,92385
 1.4000e+000 92509 -2.9143e+002 -2.9026e+002  1.5440e+002 40979 92307,92411,92333
 1.4000e+000 92486 -3.6505e+002 -4.4435e+002  7.8805e+001 40979 92229,92281,92255
 1.4000e+000 92463 -5.2335e+001 -3.2450e+002  1.3917e+002 40979 92333,92385,92359
 1.4000e+000 93235 -4.3513e+002 -2.7528e+002  3.4888e+002 40525 92941,92993,92967
 1.4000e+000 93212 -5.4107e+002 -9.9449e+001  1.6986e+002 40525 93258,92941,92889
 1.4000e+000 93189 -4.4920e+002 -3.3150e+001  1.0785e+002 40525 93258,92889,93071
 1.4000e+000 93166 -3.5970e+002 -3.0408e+002  1.3650e+002 40525 92889,92941,92915
 1.4000e+000 93143 -1.9357e+002 -1.1175e+002  1.1946e+002 40525 92863,93071,92889
 1.4000e+000 93120 -4.5221e+002 -2.2547e+002  2.0268e+002 40525 92993,93071,93019
 1.4000e+000 93097 -4.9409e+002 -2.2915e+002  2.0663e+002 40525 93019,93071,93045
 1.4000e+000 93284 -6.1318e+002 -2.3740e+002  2.9477e+002 40525 92993,92941,93258
 1.4000e+000 93307 -4.0341e+002 -7.2103e+001  2.1038e+002 40525 92993,93258,93071
 1.4000e+000 93636 -5.7691e+002 -5.0036e+002  4.2833e+002 40235 93437,93541,93515
 1.4000e+000 93613 -4.6155e+002 -6.3351e+002  3.9653e+002 40235 93411,93541,93437
 1.4000e+000 93590 -1.4625e+002 -5.2636e+002  1.6209e+002 40235 93463,93515,93489
 1.4000e+000 93567 -2.7580e+002 -3.9216e+002  1.0921e+002 40235 93437,93515,93463
 1.4000e+000 94014 -6.0440e+002 -6.9128e+002  2.5399e+002 39873 93766,93870,93792
 1.4000e+000 93991 -5.5868e+002 -7.2768e+002  2.2375e+002 39873 93766,93896,93870
 1.4000e+000 93968 -5.0487e+002 -5.4674e+002  2.9737e+002 39873 93792,93870,93844
 1.4000e+000 93945 -4.2275e+002 -4.7567e+002  2.2980e+002 39873 93792,93844,93818
 1.4000e+000 93922 -4.3176e+002 -6.6281e+002  4.0796e+002 39873 93740,93896,93766
 1.4000e+000 94164 -3.9107e+000 -2.0267e+002  1.3279e+002 39461 94037,94089,94063
 1.4000e+000 94141 -1.5843e+002 -3.2927e+002  1.8738e+002 39461 94037,94115,94089
 1.4000e+000 94363 -2.8396e+002 -2.5229e+002  1.8733e+002 39057 94386,94239,94213
 1.4000e+000 94340 -2.3358e+002 -2.0853e+002  1.6211e+002 39057 94386,94213,94187
 1.4000e+000 94317 -3.7100e+002 -3.4429e+002  1.9914e+002 39057 94187,94291,94265
 1.4000e+000 94412 -1.7256e+002 -2.1910e+002  1.5989e+002 39057 94458,94386,94265
 1.4000e+000 94435 -2.5063e+002 -2.5255e+002  1.5868e+002 39057 94265,94386,94187
 1.4000e+000 94484 -2.7417e+002 -3.0606e+002  2.0310e+002 39057 94239,94386,94458
 1.4000e+000 94896 -6.0474e+002 -4.0308e+002  2.5449e+002 38396 94919,94775,94723
 1.4000e+000 94873 -6.5243e+002 -3.6361e+002  2.5533e+002 38396 94919,94723,94697
 1.4000e+000 94850 -4.7901e+002 -3.6375e+002  1.9898e+002 38396 94723,94775,94749
 1.4000e+000 94827 -2.9007e+002 -2.1823e+002  2.1612e+002 38396 94671,94801,94697
 1.4000e+000 94945 -5.9360e+002 -3.7664e+002  2.4069e+002 38396 94801,94775,94919
 1.4000e+000 94968 -6.2081e+002 -3.2359e+002  2.3361e+002 38396 94801,94919,94697
 1.4000e+000 95265 -5.0966e+002 -5.6970e+002  2.7032e+002 37835 95017,95069,95043
 1.4000e+000 95242 -5.2681e+002 -4.8793e+002  2.7746e+002 37835 95288,95069,95017
 1.4000e+000 95219 -5.8442e+002 -5.5102e+002  3.6818e+002 37835 95288,95017,94991
 1.4000e+000 95196 -6.6464e+002 -5.9133e+002  3.2818e+002 37835 94991,95147,95121
 1.4000e+000 95173 -4.0930e+002 -2.7648e+002  2.4237e+002 37835 95069,95121,95095
 1.4000e+000 95314 -5.2844e+002 -3.5753e+002  2.0702e+002 37835 95121,95069,95288
 1.4000e+000 95337 -5.7871e+002 -4.4502e+002  2.9169e+002 37835 95121,95288,94991
 1.4000e+000 95558 -1.3343e+001 -2.2334e+002  1.3515e+002 37423 95408,95460,95434
 1.4000e+000 95535 -2.1398e+002 -7.8323e+002  3.5181e+002 37423 95382,95460,95408
 1.4000e+000 95512 -3.9852e+002 -9.2411e+002  4.1318e+002 37423 95382,95486,95460
 1.4000e+000 95891 -2.7336e+002 -6.4474e+002  3.8689e+002 37225 95666,95718,95692
 1.4000e+000 95868 -4.6843e+002 -5.6795e+002  4.3590e+002 37225 95666,95796,95718
 1.4000e+000 95845 -2.8953e+002 -5.0598e+002  1.6966e+002 37225 95718,95770,95744
 1.4000e+000 95822 -3.2390e+002 -4.1166e+002  2.5535e+002 37225 95718,95796,95770
 1.4000e+000 95992 -8.4520e+001 -3.7379e+002  1.5871e+002 36735 95914,95966,95940
 1.4000e+000 96142 -6.2140e+002 -3.3307e+002  3.1282e+002 36331 96297,96067,96041
 1.4000e+000 96119 -5.3753e+002 -2.7016e+002  3.5688e+002 36331 96165,96041,96015
 1.4000e+000 96191 -6.0373e+002 -3.1556e+002  3.3578e+002 36331 96297,96041,96165
 1.4000e+000 96323 -6.5108e+002 -2.9584e+002  3.6575e+002 36331 96093,96067,96297
 1.4000e+000 96346 -5.8077e+002 -2.5382e+002  3.9535e+002 36331 96093,96297,96165
 1.4000e+000 96714 -4.2705e+002 -6.7025e+002  3.9299e+002 36041 96737,96495,96443
 1.4000e+000 96691 -5.8067e+002 -5.1273e+002  3.9540e+002 36041 96737,96443,96417
 1.4000e+000 96668 -2.8553e+002 -7.0315e+002  1.8185e+002 36041 96443,96495,96469
 1.4000e+000 96645 -1.4110e+002 -2.3886e+002  2.2516e+002 36041 96391,96521,96417
 1.4000e+000 96622 -4.7682e+001 -2.5243e+002  1.9678e+002 36041 96391,96547,96521
 1.4000e+000 96599 -7.6872e+001 -2.5579e+002  1.8811e+002 36041 96391,96573,96547
 1.4000e+000 96763 -2.1289e+002 -5.3749e+002  3.3608e+002 36041 96521,96495,96737
 1.4000e+000 96786 -4.9902e+002 -4.7937e+002  3.7163e+002 36041 96521,96737,96417
 1.4000e+000 96936 -2.6935e+002 -1.9237e+002  2.0057e+002 35637 97031,96959,96835
 1.4000e+000 96913 -3.2905e+002 -1.9397e+002  2.3080e+002 35637 97163,96959,96809
 1.4000e+000 96985 -3.5104e+002 -1.7262e+002  2.2534e+002 35637 96861,96835,96959
 1.4000e+000 97008 -4.4527e+002 -2.6852e+002  3.4115e+002 35637 96861,96959,96887
 1.4000e+000 97057 -2.6184e+002 -1.1917e+002  1.4290e+002 35637 96809,96959,97031
 1.4000e+000 97189 -3.0898e+002 -1.9319e+002  2.3416e+002 35637 96887,96959,97163
 1.4000e+000 97597 -2.4597e+002 -3.1649e+002  2.5917e+002 35190 97450,97502,97476
 1.4000e+000 97574 -2.7205e+002 -4.2162e+002  3.3686e+002 35190 97372,97502,97450
 1.4000e+000 97551 -2.7805e+002 -4.8043e+002  3.1815e+002 35190 97372,97450,97398
 1.4000e+000 97528 -1.8197e+002 -4.0760e+002  2.5732e+002 35190 97398,97450,97424
 1.4000e+000 98054 -4.1578e+002 -5.2626e+002  3.4846e+002 34636 97806,97936,97858
 1.4000e+000 98031 -5.9877e+002 -3.6317e+002  3.1366e+002 34636 97780,97936,97806
 1.4000e+000 98008 -5.3466e+002 -5.0607e+002  2.0193e+002 34636 97806,97858,97832
 1.4000e+000 97985 -4.5378e+002 -5.1475e+002  3.8122e+002 34636 97884,97936,97910
 1.4000e+000 97962 -2.9097e+002 -3.4732e+002  2.8393e+002 34636 97858,97936,97884
 1.4000e+000 98530 -3.1155e+002  1.7862e+002  8.6940e+001 34068 98697,98184,98366
 1.4000e+000 98507  1.6955e+001  4.4006e+001 -2.5067e+001 34068 98158,98366,98184
 1.4000e+000 98484 -3.9523e+002 -3.5965e+002  1.7571e+002 34068 98553,98262,98236
 1.4000e+000 98461 -4.0575e+002 -5.1732e+002  5.5672e+001 34068 98553,98236,98210
 1.4000e+000 98438 -3.9551e+002 -1.6503e+002  1.8823e+002 34068 98841,98625,98366
 1.4000e+000 98415 -3.8572e+002 -5.9320e+002  2.7881e+002 34068 98769,98288,98262
 1.4000e+000 98392 -5.3355e+002 -4.8576e+001  1.6777e+002 34068 98841,98366,98340
 1.4000e+000 98579 -4.5806e+002 -4.7034e+002  2.0372e+002 34068 98769,98262,98553
 1.4000e+000 98602 -3.4779e+002 -2.3312e+002  1.8648e+002 34068 98625,98314,98553
 1.4000e+000 98651 -3.6630e+002 -1.4409e+002  1.5598e+002 34068 98697,98366,98625
 1.4000e+000 98674 -4.6073e+002 -4.8868e+002  2.0628e+002 34068 98210,98625,98553
 1.4000e+000 98723 -4.8629e+002 -2.0920e+002  1.6597e+002 34068 98210,98184,98697
 1.4000e+000 98746 -4.2876e+002 -2.8890e+002  2.4956e+002 34068 98210,98697,98625
 1.4000e+000 98795 -2.2910e+002 -4.6450e+002  2.0292e+002 34068 98314,98288,98769
 1.4000e+000 98818 -3.2614e+002 -3.7696e+002  1.3336e+002 34068 98314,98769,98553
 1.4000e+000 98867 -5.1631e+002 -2.9858e+002  1.3767e+002 34068 98314,98625,98841
 1.4000e+000 98890 -6.4840e+002 -1.6520e+002  1.2102e+002 34068 98314,98841,98340
 1.4000e+000 99268 -6.0058e+002 -5.8663e+002  4.1037e+002 33450 99291,99098,99072
 1.4000e+000 99245 -6.7339e+002 -4.5072e+002  2.1371e+002 33450 99291,99072,99020
 1.4000e+000 99222 -9.6599e+002 -5.2936e+002  3.2594e+002 33450 99020,99072,99046
 1.4000e+000 99199 -5.1274e+002 -4.1128e+002  2.0586e+002 33450 99020,99150,99124
 1.4000e+000 99176 -5.3609e+002 -4.1106e+002  6.1662e+001 33450 98994,99150,99020
 1.4000e+000 99317 -2.8649e+002 -4.5213e+002  3.9314e+002 33450 99124,99098,99291
 1.4000e+000 99340 -5.6815e+002 -4.2013e+002  2.2059e+002 33450 99124,99291,99020
 1.4000e+000 99865 -4.3302e+002 -4.0623e+002  2.5044e+002 32944 100176,99960,99888
 1.4000e+000 99842 -4.7410e+002 -3.9275e+002  2.5560e+002 32944 100104,99888,99522
 1.4000e+000 99819 -4.1873e+002 -3.8746e+002  3.0894e+002 32944 100248,99960,99626
 1.4000e+000 99796 -4.3086e+002 -4.6082e+002  1.6605e+002 32944 100032,99652,99626
 1.4000e+000 99773 -3.9705e+002 -4.0790e+002  1.9081e+002 32944 100104,99522,99496
 1.4000e+000 99750 -3.0791e+002 -3.1662e+002  5.6627e+001 32944 99574,99626,99600
 1.4000e+000 99727 -3.4653e+002 -3.7961e+002  3.3672e+002 32944 100248,99626,99574
 1.4000e+000 99704 -2.7210e+002 -3.8867e+002  2.1915e+002 32944 99444,99496,99470
 1.4000e+000 99914 -4.4349e+002 -3.7878e+002  1.8837e+002 32944 100176,99888,100032
 1.4000e+000 99937 -4.8371e+002 -3.3699e+002  2.5200e+002 32944 99678,99888,99444
 1.4000e+000 99986 -4.6847e+002 -3.5181e+002  2.4603e+002 32944 99522,99888,99960
 1.4000e+000 100009 -4.9552e+002 -3.0721e+002  2.7913e+002 32944 99522,99960,99548
 1.4000e+000 100058 -4.8314e+002 -4.7810e+002  1.5846e+002 32944 99678,99652,100032
 1.4000e+000 100081 -5.1827e+002 -4.3689e+002  1.5797e+002 32944 99678,100032,99888
 1.4000e+000 100130 -3.3844e+002 -3.5603e+002  2.4986e+002 32944 99444,99888,100104
 1.4000e+000 100153 -2.9095e+002 -3.9777e+002  1.9361e+002 32944 99444,100104,99496
 1.4000e+000 100202 -4.7782e+002 -5.0329e+002  2.3943e+002 32944 99626,99960,100176
 1.4000e+000 100225 -4.9526e+002 -5.0170e+002  1.8353e+002 32944 99626,100176,100032
 1.4000e+000 100274 -5.2636e+002 -3.7899e+002  2.8048e+002 32944 99548,99960,100248
 1.4000e+000 100297 -4.6153e+002 -3.7738e+002  3.0755e+002 32944 99548,100248,99574
 1.4000e+000 100754 -2.5034e+002 -2.4461e+002  1.1036e+002 32369 100777,100584,100506
 1.4000e+000 100731 -2.2437e+002 -3.4521e+002  2.3017e+002 32369 100777,100506,100636
 1.4000e+000 100708 -3.9861e+002 -3.4535e+002  2.4708e+002 32369 100480,100636,100506
 1.4000e+000 100685 -4.6840e+002 -3.1276e+002  5.8539e+001 32369 100532,100584,100558
 1.4000e+000 100662 -2.7242e+002 -2.8556e+002  1.1874e+002 32369 100506,100584,100532
 1.4000e+000 100803 -2.4696e+002 -7.1838e+001  1.0436e+002 32369 100610,100584,100777
 1.4000e+000 100826 -2.1525e+002 -1.8823e+002  2.0725e+002 32369 100610,100777,100636
 1.4000e+000 101025 -3.9656e+002 -3.1893e+002  3.0724e+002 31857 100875,100927,100901
 1.4000e+000 101002 -7.1612e+002 -2.8472e+002  2.8200e+002 31857 100875,100953,100927
 1.4000e+000 100979 -7.6270e+002 -3.6989e+002  2.4231e+002 31857 100849,100953,100875
 1.4000e+000 101533 -3.4037e+002 -4.1439e+002  3.1161e+002 31253 101556,101314,101236
 1.4000e+000 101510 -4.7444e+002 -4.5453e+002  3.1582e+002 31253 101556,101236,101210
 1.4000e+000 101487 -4.4585e+002 -4.2471e+002  1.5065e+002 31253 101210,101392,101340
 1.4000e+000 101464 -2.3717e+002 -3.7636e+002  2.7448e+002 31253 101236,101288,101262
 1.4000e+000 101441 -2.9740e+002 -5.2684e+002  2.7969e+002 31253 101236,101314,101288
 1.4000e+000 101418 -4.3741e+002 -4.9459e+002  2.7120e+002 31253 101340,101392,101366
 1.4000e+000 101582 -3.7645e+002 -3.7699e+002  1.9051e+002 31253 101340,101314,101556
 1.4000e+000 101605 -5.1379e+002 -4.1415e+002  1.9999e+002 31253 101340,101556,101210
 1.4000e+000 101755  1.1474e+002  1.3193e+002  1.9031e+002 30519 101778,101654,101628
 1.4000e+000 101732 -1.1338e+002  2.4779e+002  2.5407e+001 30519 101850,101778,101628
 1.4000e+000 101804 -9.1334e+001 -1.9994e+002  9.9233e+001 30519 101680,101654,101778
 1.4000e+000 101827 -1.6293e+002  9.2317e+001  4.7657e+001 30519 101680,101778,101706
 1.4000e+000 101876 -2.2144e+002 -5.5503e+000  1.6824e+001 30519 101706,101778,101850
 1.4000e+000 102561 -2.9423e+002 -4.3317e+002  2.0778e+002 29951 102656,102584,102270
 1.4000e+000 102538 -6.9884e+002 -8.2287e+002  1.7291e+002 29951 102584,102140,102374
 1.4000e+000 102515 -4.4022e+002 -8.4519e+002  4.1134e+002 29951 102728,102656,102270
 1.4000e+000 102492 -4.5087e+002 -1.0055e+003  4.0598e+002 29951 102728,102270,102244
 1.4000e+000 102469 -5.6790e+002 -1.6233e+002  2.6684e+002 29951 102800,102322,102296
 1.4000e+000 102446 -6.2871e+002 -4.6384e+002  1.1687e+002 29951 102166,102218,102192
 1.4000e+000 102423 -5.0438e+002 -4.7488e+002  8.1006e+001 29951 102166,102244,102218
 1.4000e+000 102400 -3.3787e+002 -3.9992e+002  2.5623e+002 29951 102322,102374,102348
 1.4000e+000 102610 -6.9213e+002 -3.5395e+002  1.1322e+002 29951 102296,102270,102584
 1.4000e+000 102633 -7.4879e+002 -3.7757e+002  1.7141e+002 29951 102800,102296,102584
 1.4000e+000 102682 -7.8649e+002 -7.4754e+002  3.7320e+002 29951 102140,102584,102656
 1.4000e+000 102705 -5.3158e+002 -7.5991e+002  5.1865e+002 29951 102140,102656,102166
 1.4000e+000 102754 -4.4837e+002 -6.5963e+002  4.8036e+002 29951 102166,102656,102728
 1.4000e+000 102777 -4.6216e+002 -7.9134e+002  4.4189e+002 29951 102166,102728,102244
 1.4000e+000 102826 -3.9002e+002 -3.9926e+002  3.7343e+002 29951 102374,102322,102800
 1.4000e+000 102849 -4.6511e+002 -4.4707e+002  3.2156e+002 29951 102374,102800,102584
 1.4000e+000 103048 -7.0821e+001 -3.2958e+002  1.7160e+002 29454 102872,102924,102898
 1.4000e+000 103025 -1.6563e+002 -4.0884e+002  2.0600e+002 29454 102872,102976,102924
 1.4000e+000 103002 -1.5445e+002 -7.4575e+002  3.4631e+002 29454 102924,102976,102950
 1.4000e+000 103296 -6.5055e+002 -4.7627e+002  3.5743e+002 29064 103319,103175,103123
 1.4000e+000 103273 -8.6700e+002 -4.8816e+002  4.0372e+002 29064 103319,103123,103071
 1.4000e+000 103250 -3.9076e+002 -2.8219e+002  2.5504e+002 29064 103123,103175,103149
 1.4000e+000 103227 -6.6156e+002 -4.3636e+002  4.8990e+002 29064 103071,103123,103097
 1.4000e+000 103345 -4.4698e+002 -5.3175e+002  2.6007e+002 29064 103201,103175,103319
 1.4000e+000 103368 -7.2360e+002 -5.2250e+002  2.2640e+002 29064 103201,103319,103071
 1.4000e+000 104006 -5.3104e+002 -2.6544e+002  2.0523e+002 28603 104101,104029,103712
 1.4000e+000 103983 -4.9807e+002 -1.7989e+002  1.8542e+002 28603 104173,104029,103660
 1.4000e+000 103960 -6.3922e+002 -2.1684e+002  1.9440e+002 28603 104101,103712,103686
 1.4000e+000 103937 -4.2166e+002 -2.7228e+002  1.6586e+002 28603 104173,103660,103634
 1.4000e+000 103914 -5.0190e+002 -2.8965e+002  2.7498e+002 28603 103764,103816,103790
 1.4000e+000 103891 -4.1529e+002 -2.9570e+002  2.8346e+002 28603 103634,103842,103816
 1.4000e+000 103868 -3.8813e+002 -1.5538e+002  2.4663e+002 28603 103712,103764,103738
 1.4000e+000 104055 -4.9877e+002 -1.9035e+002  1.9638e+002 28603 103764,103712,104029
 1.4000e+000 104078 -4.9057e+002 -2.1858e+002  2.7340e+002 28603 103764,104029,103816
 1.4000e+000 104127 -6.7915e+002 -2.5240e+002  1.5991e+002 28603 103660,104029,104101
 1.4000e+000 104150 -8.5293e+002 -2.4484e+002  1.8003e+002 28603 103660,104101,103686
 1.4000e+000 104199 -5.6037e+002 -2.6688e+002  2.1329e+002 28603 103816,104029,104173
 1.4000e+000 104222 -4.7385e+002 -3.3621e+002  1.9154e+002 28603 103816,104173,103634
 1.4000e+000 104600 -2.5931e+002 -5.0266e+002  1.1456e+002 28348 104623,104378,104326
 1.4000e+000 104577 -2.1100e+002 -5.2996e+002  2.1229e+002 28348 104623,104326,104482
 1.4000e+000 104554 -2.2807e+002 -3.1827e+002  8.7975e+001 28348 104326,104378,104352
 1.4000e+000 104531 -2.8084e+002  9.6137e+000  6.9001e+000 28348 104404,104456,104430
 1.4000e+000 104508 -3.5192e+002 -2.0432e+002  1.7848e+002 28348 104378,104456,104404
 1.4000e+000 104649 -2.1552e+002 -4.1391e+002  1.4527e+002 28348 104456,104378,104623
 1.4000e+000 104672 -1.5297e+002 -4.2547e+002  2.4578e+002 28348 104456,104623,104482
 1.4000e+000 104991 -5.4330e+002 -5.4954e+002  4.0398e+002 27951 104717,104847,104769
 1.4000e+000 104968 -1.6042e+002 -3.8367e+002  3.7607e+002 27951 104717,104873,104847
 1.4000e+000 104945 -1.9035e+002 -4.5158e+002  4.4001e+002 27951 104769,104847,104795
 1.4000e+000 104922  2.0351e+001  6.9254e+001  4.1110e+002 27951 104795,104847,104821
 1.4000e+000 104899 -4.9692e+002 -3.7986e+002  4.3176e+002 27951 104717,104769,104743
 1.4000e+000 105371 -4.2446e+002 -2.3549e+002  2.5988e+002 27447 105394,105201,105123
 1.4000e+000 105348 -4.7697e+002 -2.3611e+002  2.8362e+002 27447 105394,105123,105097
 1.4000e+000 105325 -7.2917e+002 -2.7499e+002  2.5861e+002 27447 105123,105201,105149
 1.4000e+000 105302 -4.3832e+002 -4.0157e+002  2.5824e+002 27447 105201,105253,105227
 1.4000e+000 105279 -4.4818e+002 -5.4620e+002  3.3425e+001 27447 105149,105201,105175
 1.4000e+000 105420 -3.9005e+002 -2.3078e+002  2.3705e+002 27447 105253,105201,105394
 1.4000e+000 105443 -4.4145e+002 -2.2143e+002  2.5619e+002 27447 105253,105394,105097
 1.4000e+000 105998 -4.7334e+002 -3.5300e+002  3.6998e+002 27100 106165,106021,105704
 1.4000e+000 105975 -2.4961e+002 -1.8387e+002  3.2474e+002 27100 106309,106021,105652
 1.4000e+000 105952 -8.7603e+002 -6.0666e+002  6.1039e+002 27100 106093,105808,105782
 1.4000e+000 105929 -4.7527e+002 -3.6355e+002  3.6902e+002 27100 106165,105704,105678
 1.4000e+000 105906 -2.5677e+002 -4.1907e+002  2.8621e+002 27100 106237,105730,105704
 1.4000e+000 105883 -2.4075e+002 -3.5169e+002  2.2432e+002 27100 106309,105652,105626
 1.4000e+000 105860 -1.6984e+002  1.7824e+001  5.4810e+001 27100 105730,105782,105756
 1.4000e+000 106047 -4.2974e+002 -2.3121e+002  3.6704e+002 27100 106237,105704,106021
 1.4000e+000 106070 -5.1011e+002 -2.7489e+002  4.6312e+002 27100 106093,105782,106021
 1.4000e+000 106119 -3.6186e+002 -5.0300e+002  3.0634e+002 27100 105834,105808,106093
 1.4000e+000 106142 -4.0291e+002 -6.2917e+002  4.1630e+002 27100 106381,106093,106021
 1.4000e+000 106191 -4.7850e+002 -3.2794e+002  3.8937e+002 27100 105652,106021,106165
 1.4000e+000 106214 -4.9324e+002 -3.6390e+002  3.9451e+002 27100 105652,106165,105678
 1.4000e+000 106263 -1.0048e+002 -2.3475e+002  2.1788e+002 27100 105782,105730,106237
 1.4000e+000 106286 -3.0860e+002 -9.6171e+001  3.1343e+002 27100 105782,106237,106021
 1.4000e+000 106335 -3.4366e+002 -4.1085e+002  3.4627e+002 27100 106381,106021,106309
 1.4000e+000 106358 -2.3954e+002 -3.1687e+002  2.1384e+002 27100 105834,106309,105626
 1.4000e+000 106407 -2.8317e+002 -3.8144e+002  2.6688e+002 27100 105834,106093,106381
 1.4000e+000 106430 -2.8861e+002 -3.4179e+002  1.9004e+002 27100 105834,106381,106309
 1.4000e+000 106629 -6.5341e+001 -4.6519e+002  1.2036e+002 26688 106479,106557,106531
 1.4000e+000 106606  1.4475e-001 -1.6875e+002  1.6023e+002 26688 106453,106557,106479
 1.4000e+000 106583 -2.1866e+002 -5.1538e+002  6.0337e+001 26688 106479,106531,106505
 1.4000e+000 107088 -2.2788e+002 -1.9190e+002  1.1254e+002 26248 107111,106918,106866
 1.4000e+000 107065 -2.4813e+002 -1.6552e+002  1.3348e+002 26248 107111,106866,106840
 1.4000e+000 107042 -2.0054e+002 -1.4486e+002  1.2861e+002 26248 106814,106970,106840
 1.4000e+000 107019 -2.1436e+002 -3.4985e+002  1.7480e+002 26248 106866,106918,106892
 1.4000e+000 106996 -3.9886e+002 -2.8376e+002  1.0718e+002 26248 106918,106970,106944
 1.4000e+000 107137 -2.6389e+002 -2.2869e+002  8.6090e+001 26248 106970,106918,107111
 1.4000e+000 107160 -2.5694e+002 -1.7578e+002  1.1089e+002 26248 106970,107111,106840
 1.4000e+000 107666 -6.4367e+002 -2.5478e+002  1.7277e+002 25908 107369,107499,107395
 1.4000e+000 107643 -8.7875e+002 -7.9993e+002  3.9639e+002 25908 107369,107525,107499
 1.4000e+000 107620 -5.3037e+002 -3.2817e+002  2.8719e+002 25908 107395,107473,107447
 1.4000e+000 107597 -4.7031e+002 -1.6953e+002  2.1039e+002 25908 107395,107499,107473
 1.4000e+000 107574 -8.8991e+002 -4.0815e+002  6.0265e+002 25908 107395,107447,107421
 1.4000e+000 107551 -3.7766e+002 -6.1262e+002  3.6854e+002 25908 107343,107525,107369
 1.4000e+000 108251 -5.0786e+002 -1.4007e+002  2.6455e+002 25454 108274,108006,107954
 1.4000e+000 108228 -4.0233e+002 -7.2307e+001  2.2550e+002 25454 108274,107954,108110
 1.4000e+000 108205 -3.6078e+002 -3.6747e+002  3.2432e+002 25454 108346,108032,108006
 1.4000e+000 108182 -6.5029e+002 -2.4616e+002  3.4957e+002 25454 107954,108006,107980
 1.4000e+000 108159 -2.4623e+002 -2.2594e+002  2.0246e+002 25454 107928,108110,107954
 1.4000e+000 108136 -6.9089e+002 -6.2798e+002  4.0308e+002 25454 108058,108110,108084
 1.4000e+000 108300 -4.8247e+002 -2.4395e+002  3.2665e+002 25454 108346,108006,108274
 1.4000e+000 108323 -4.1359e+002 -1.2273e+002  2.6609e+002 25454 108058,108274,108110
 1.4000e+000 108372 -2.1113e+002 -2.3087e+002  2.6744e+002 25454 108058,108032,108346
 1.4000e+000 108395 -3.4381e+002 -9.3812e+001  2.6779e+002 25454 108058,108346,108274
 1.4000e+000 108822 -3.4707e+002 -1.7455e+002  1.8523e+002 24943 108525,108681,108655
 1.4000e+000 108799 -4.3575e+002 -2.5863e+002  1.0354e+002 24943 108499,108681,108525
 1.4000e+000 108776 -1.8931e+002 -1.1444e+002  1.5380e+002 24943 108525,108655,108629
 1.4000e+000 108753 -3.4161e+002 -9.0102e+001  1.3790e+002 24943 108525,108629,108603
 1.4000e+000 108730 -5.9575e+002 -1.9395e+002  2.1463e+002 24943 108551,108603,108577
 1.4000e+000 108707 -6.1062e+002 -3.5151e+002  3.0681e+002 24943 108525,108603,108551
 1.4000e+000 109407 -2.5986e+001 -9.3538e+001  4.8866e+001 24745 109162,109214,109188
 1.4000e+000 109384 -2.1475e+002 -7.0731e+001  7.9854e+001 24745 109162,109266,109214
 1.4000e+000 109361 -2.5302e+002 -9.3608e+001  4.3131e+001 24745 109084,109266,109162
 1.4000e+000 109338 -3.8008e+002 -5.5256e+001  8.9745e+001 24745 109084,109162,109136
 1.4000e+000 109315 -9.1617e+001 -1.7179e+002  1.0490e+002 24745 109214,109266,109240
 1.4000e+000 109292 -2.8121e+002 -8.3484e+001  1.5010e+002 24745 109084,109136,109110
 1.4000e+000 109785 -7.5295e+002 -3.3645e+002  4.3016e+002 24341 109537,109615,109563
 1.4000e+000 109762 -8.4009e+001 -1.7813e+002  4.1136e+002 24341 109537,109641,109615
 1.4000e+000 109739 -5.0878e+002 -3.5585e+002  3.2565e+002 24341 109563,109615,109589
 1.4000e+000 109716 -3.2982e+002 -3.3411e+002  2.7331e+002 24341 109537,109667,109641
 1.4000e+000 109693 -1.7381e+002 -3.8046e+002  2.5545e+002 24341 109511,109667,109537
 1.4000e+000 110163 -6.7344e+002 -3.5394e+002  4.5467e+002 23837 110186,109967,109915
 1.4000e+000 110140 -6.6352e+002 -3.4609e+002  4.4980e+002 23837 110186,109915,109889
 1.4000e+000 110117 -2.8891e+002 -1.3128e+002  3.3383e+002 23837 109889,110045,109993
 1.4000e+000 110094 -6.1883e+002 -6.3247e+002  3.0200e+002 23837 109915,109967,109941
 1.4000e+000 110071 -3.7851e+002 -7.1472e+000  6.1662e+001 23837 109993,110045,110019
 1.4000e+000 110212 -6.6967e+002 -3.5713e+002  4.5881e+002 23837 109993,109967,110186
 1.4000e+000 110235 -6.6841e+002 -3.5436e+002  4.5544e+002 23837 109993,110186,109889
 1.4000e+000 110336 -4.1950e+002 -9.2966e+002  4.7891e+002 23433 110258,110310,110284
 1.4000e+000 110584 -5.4080e+002 -3.2412e+002  2.6620e+002 22829 110607,110411,110385
 1.4000e+000 110561 -6.6738e+002 -3.8023e+002  2.9669e+002 22829 110607,110385,110489
 1.4000e+000 110538 -4.9729e+002 -3.7064e+002  1.8108e+002 22829 110437,110489,110463
 1.4000e+000 110515 -5.0495e+002 -2.5248e+002  3.6413e+002 22829 110359,110489,110385
 1.4000e+000 110633 -5.6012e+002 -3.0137e+002  1.7658e+002 22829 110437,110411,110607
 1.4000e+000 110656 -6.2840e+002 -3.4123e+002  2.0653e+002 22829 110437,110607,110489
 1.4000e+000 110906 -1.0758e+003 -4.4797e+002  2.8448e+002 22432 110707,110759,110733
 1.4000e+000 110883 -6.9076e+002 -4.5923e+002  2.2558e+002 22432 110707,110785,110759
 1.4000e+000 110860 -6.9895e+002 -4.0338e+002  3.8032e+002 22432 110707,110811,110785
 1.4000e+000 110837 -8.4811e+002 -5.8128e+002  3.0728e+002 22432 110681,110811,110707
 1.4000e+000 111288 -8.0371e+001 -1.6892e+002  1.6545e+002 22142 111092,111144,111118
 1.4000e+000 111265 -2.8162e+002 -2.1893e+002  1.6716e+002 22142 111066,111144,111092
 1.4000e+000 111242 -2.5857e+002 -1.7971e+002  1.4789e+002 22142 111040,111144,111066
 1.4000e+000 111219 -4.8348e+002 -4.8870e+001  1.0039e+002 22142 111014,111144,111040
 1.4000e+000 111196 -3.0936e+002  1.0654e+001  1.1465e+002 22142 111014,111170,111144
 1.4000e+000 111389  1.1175e+000 -8.5435e+001  2.5855e+002 21830 111311,111363,111337
 1.4000e+000 111735 -5.5329e+002  4.9327e+001  4.6837e+002 21268 111758,111542,111438
 1.4000e+000 111712 -3.7309e+002  9.3640e+001  2.7443e+002 21268 111758,111438,111412
 1.4000e+000 111689 -1.8217e+002 -3.0258e+002  5.9244e+002 21268 111438,111542,111464
 1.4000e+000 111666  1.4099e+002 -1.2832e+002  7.5294e+002 21268 111464,111542,111490
 1.4000e+000 111643 -9.5289e+002 -5.1861e+002  4.7413e+002 21268 111412,111594,111568
 1.4000e+000 111620  6.0122e+002  3.9925e+002  9.6510e+002 21268 111490,111542,111516
 1.4000e+000 111784 -5.9091e+002 -5.8889e+001  4.7373e+002 21268 111568,111542,111758
 1.4000e+000 111807 -5.6346e+002 -3.0365e+002  3.4353e+002 21268 111568,111758,111412
 1.4000e+000 111959 -5.5845e+002 -6.7855e+001  1.9537e+002 20864 111982,111910,111884
 1.4000e+000 111936 -4.8438e+002 -9.5149e+001  2.9956e+002 20864 112114,111832,111910
 1.4000e+000 112008 -5.3515e+002 -2.0320e+002  2.5740e+002 20864 112114,111910,111982
 1.4000e+000 112140 -4.6506e+002 -2.2357e+002  2.3114e+002 20864 111858,111832,112114
 1.4000e+000 112163 -5.2317e+002 -3.5292e+002  1.9156e+002 20864 111858,112114,111982
 1.4000e+000 112411 -5.1113e+001 -1.1276e+001  1.8973e+001 20324 112186,112290,112212
 1.4000e+000 112388 -7.4083e+000 -3.5142e+000  3.0751e+001 20324 112186,112316,112290
 1.4000e+000 112365  2.8444e+002 -1.8417e+002  2.6406e+001 20324 112212,112290,112264
 1.4000e+000 112342 -9.3559e+002 -4.0033e+002 -6.4424e+001 20324 112212,112264,112238
 1.4000e+000 112659 -1.1976e+002 -3.7080e+001  3.0236e+002 19920 112512,112564,112538
 1.4000e+000 112636 -3.6724e+002 -1.6117e+002  2.0854e+002 19920 112434,112564,112512
 1.4000e+000 112613 -3.7395e+002 -2.3462e+002  2.3940e+002 19920 112434,112512,112460
 1.4000e+000 112590 -3.8982e+002 -2.3967e+002  2.4421e+002 19920 112460,112512,112486
 1.4000e+000 112811 -1.6041e+002 -6.3828e+001  1.7767e+002 19630 112684,112736,112710
 1.4000e+000 112788  5.6753e+001 -1.6437e+002  7.1174e+001 19630 112684,112762,112736
 1.4000e+000 113012 -3.3896e+002 -1.2727e+002  3.3874e+002 19169 112862,112940,112888
 1.4000e+000 112989 -5.8053e+002 -4.5606e+002  2.3028e+002 19169 112836,112940,112862
 1.4000e+000 112966 -3.3229e+002 -4.2313e+002  2.9850e+002 19169 112888,112940,112914
 1.4000e+000 113213 -7.9240e+002 -3.1587e+002  3.8525e+002 18600 113037,113089,113063
 1.4000e+000 113190 -5.3748e+002 -2.2179e+002  3.2005e+002 18600 113037,113115,113089
 1.4000e+000 113167 -9.1342e+002 -5.5456e+002  5.3593e+002 18600 113037,113141,113115
 1.4000e+000 113485 -3.6850e+002 -1.3840e+002  3.5248e+002 18352 113260,113312,113286
 1.4000e+000 113462 -7.3187e+002 -4.2232e+002  4.7639e+002 18352 113260,113390,113312
 1.4000e+000 113439 -6.8816e+002 -1.3978e+002  3.4909e+002 18352 113312,113390,113364
 1.4000e+000 113416 -2.8185e+002 -9.9673e+001  3.6680e+002 18352 113312,113364,113338
 1.4000e+000 113757 -5.1612e+002 -2.0167e+002  3.5157e+002 17834 113558,113610,113584
 1.4000e+000 113734 -7.4569e+002 -4.0837e+002  4.5958e+002 17834 113532,113610,113558
 1.4000e+000 113711 -7.6136e+002 -4.9003e+002  3.7373e+002 17834 113532,113662,113610
 1.4000e+000 113688 -3.8416e+002 -1.2146e+002  5.2344e+002 17834 113610,113662,113636
 1.4000e+000 113958 -4.6203e+002 -1.8766e+002  2.5629e+002 17330 113782,113834,113808
 1.4000e+000 113935 -2.5905e+002 -1.6969e+002  1.9322e+002 17330 113782,113886,113834
 1.4000e+000 113912 -3.1571e+002 -1.4942e+002  1.2263e+002 17330 113834,113886,113860
 1.4000e+000 114110 -7.3579e+002 -2.7967e+002  4.7237e+002 16874 113983,114035,114009
 1.4000e+000 114087 -2.8793e+002 -6.5565e+002  4.2112e+002 16874 113983,114061,114035
 1.4000e+000 114465 -7.0366e+002 -2.9728e+002  1.6448e+002 16270 114240,114292,114266
 1.4000e+000 114442 -4.5065e+002 -9.6905e+001  7.1992e+001 16270 114240,114370,114292
 1.4000e+000 114419 -2.3914e+002 -9.9249e+001  1.4424e+002 16270 114292,114344,114318
 1.4000e+000 114396 -4.6144e+002 -2.1341e+002  7.5813e+001 16270 114292,114370,114344
 1.4000e+000 114566 -4.5166e+001  4.5166e+001  6.4408e+002 15834 114488,114540,114514
 1.4000e+000 114667 -4.6648e+002 -1.8622e+002  2.9477e+002 15155 114589,114641,114615
 1.4000e+000 114890 -3.9493e+002 -1.4596e+002  3.8431e+002 421 114766,114818,114792
 1.4000e+000 114867 -5.6812e+002 -4.7394e+002  3.1774e+002 421 114714,114818,114766
 1.4000e+000 114844 -7.4801e+002 -3.1515e+002  1.8460e+002 421 114714,114766,114740
 1.5000e+000 66553 -4.8104e+002 -2.0859e+002  2.6851e+002 66108 66354,66458,66432
 1.5000e+000 66530 -5.0231e+002 -2.1068e+002  1.7679e+002 66108 66328,66458,66354
 1.5000e+000 66507 -2.7883e+002 -2.1903e+002  1.8098e+002 66108 66354,66432,66406
 1.5000e+000 66484  1.2496e+002  7.0381e+001  3.3039e+002 66108 66354,66406,66380
 1.5000e+000 66951 -3.3517e+002 -1.3961e+002  1.6173e+002 65910 66703,66833,66807
 1.5000e+000 66928 -5.0110e+001 -1.0330e+002  2.1477e+002 65910 66677,66833,66703
 1.5000e+000 66905 -1.9142e+002 -3.9495e+002  2.6888e+002 65910 66729,66781,66755
 1.5000e+000 66882 -7.1788e+002 -2.9763e+002  2.5170e+002 65910 66729,66807,66781
 1.5000e+000 66859 -4.8356e+002 -6.4200e+001  1.5662e+002 65910 66703,66807,66729
 1.5000e+000 67150 -4.2839e+002 -1.8374e+002  2.2683e+001 65712 67026,67078,67052
 1.5000e+000 67127 -3.2364e+002 -1.0595e+002 -1.1569e+001 65712 66974,67078,67026
 1.5000e+000 67104 -8.0762e+002 -2.4617e+002 -7.1655e+001 65712 66974,67026,67000
 1.5000e+000 67481 -9.5738e+002 -1.9007e+002  3.4100e+002 65422 67282,67360,67334
 1.5000e+000 67458 -4.2552e+002 -1.3689e+002  5.3656e+002 65422 67282,67386,67360
 1.5000e+000 67435 -2.3924e+002  1.2424e+002  2.7958e+002 65422 67282,67334,67308
 1.5000e+000 67412  6.1396e+001 -1.0302e+002  2.4588e+002 65422 67256,67386,67282
 1.5000e+000 68115 -1.9920e+002 -1.7017e+002  1.0343e+002 65018 67795,67925,67873
 1.5000e+000 68092 -2.5801e+002 -1.9891e+002  7.4259e+001 65018 67769,67925,67795
 1.5000e+000 68069 -1.5963e+002 -1.2233e+002  1.2055e+002 65018 67873,67925,67899
 1.5000e+000 68046 -3.4067e+002 -2.9951e+002  1.1803e+002 65018 67769,67951,67925
 1.5000e+000 68023 -3.0946e+002 -2.3495e+002  1.5382e+002 65018 67795,67873,67821
 1.5000e+000 68000 -3.6164e+002 -2.4821e+002  1.4683e+002 65018 67821,67873,67847
 1.5000e+000 67977 -5.3084e+002 -3.6398e+002  1.1631e+002 65018 67743,67951,67769
 1.5000e+000 68363 -2.4280e+002 -5.0421e+002  5.1071e+002 64820 68190,68242,68216
 1.5000e+000 68340 -5.1794e+002 -3.7271e+002  5.3430e+002 64820 68190,68268,68242
 1.5000e+000 68317 -2.8680e+002 -2.6127e+002  5.8012e+002 64820 68164,68268,68190
 1.5000e+000 68294 -1.0502e+003 -4.2377e+002  4.0427e+002 64820 68138,68268,68164
 1.5000e+000 68513 -4.7333e+002 -2.4438e+002  2.8664e+002 64366 68868,68536,68438
 1.5000e+000 68490 -2.9986e+002 -1.5395e+002  1.8540e+002 64366 68536,68412,68386
 1.5000e+000 68562 -6.3698e+002 -2.8981e+002  3.0745e+002 64366 68740,68536,68464
 1.5000e+000 68585 -4.2413e+002 -2.1436e+002  2.3377e+002 64366 68608,68536,68386
 1.5000e+000 68634 -5.2241e+002 -4.1962e+002  2.0488e+002 64366 68464,68536,68608
 1.5000e+000 68766 -4.5078e+002 -2.0331e+002  2.7722e+002 64366 68438,68536,68740
 1.5000e+000 68894 -4.2009e+002 -1.7505e+002  3.1016e+002 64366 68412,68536,68868
 1.5000e+000 69172 -2.4200e+001 -5.2272e+002  1.0301e+002 64168 69022,69074,69048
 1.5000e+000 69149 -5.6501e+002 -2.3377e+002  2.3129e+002 64168 68996,69074,69022
 1.5000e+000 69126 -6.7673e+002 -4.8102e+002  1.5163e+002 64168 68996,69100,69074
 1.5000e+000 69371 -5.2705e+002 -1.8703e+002  3.5559e+002 63970 69466,69394,69273
 1.5000e+000 69348 -2.9993e+002 -1.5416e+002  1.2977e+002 63970 69394,69247,69221
 1.5000e+000 69325 -9.0055e+002 -3.7741e+002  2.3127e+002 63970 69195,69299,69221
 1.5000e+000 69420 -7.2358e+002 -2.9912e+002  4.3659e+002 63970 69299,69273,69394
 1.5000e+000 69443 -5.0194e+002 -3.7510e+002  2.4739e+002 63970 69299,69394,69221
 1.5000e+000 69492 -5.5245e+002 -2.3100e+002  3.4524e+002 63970 69247,69394,69466
 1.5000e+000 69904 -1.9183e+001 -1.3756e+002  7.9642e+001 63680 69705,69783,69731
 1.5000e+000 69881  2.4770e+001 -9.7548e+001  5.4889e+001 63680 69679,69783,69705
 1.5000e+000 69858 -1.5024e+002 -1.9841e+002  1.0388e+002 63680 69679,69809,69783
 1.5000e+000 69835 -7.9298e+001 -1.0652e+002  8.0311e+001 63680 69731,69783,69757
 1.5000e+000 70054 -2.1270e+001 -2.7172e+002  1.8037e+002 63476 70077,69953,69927
 1.5000e+000 70031  6.1340e+001 -1.1311e+002  2.5470e+002 63476 70077,69927,70005
 1.5000e+000 70103 -1.4081e+002 -1.6893e+002  1.1299e+002 63476 69979,69953,70077
 1.5000e+000 70126 -7.4382e+001 -2.7098e+001  1.7550e+002 63476 69979,70077,70005
 1.5000e+000 70325 -9.3054e+002 -3.7887e+002  4.1378e+002 63278 70149,70227,70175
 1.5000e+000 70302 -4.3290e+002 -1.5057e+002  4.7257e+002 63278 70149,70253,70227
 1.5000e+000 70279 -1.1409e+003 -5.6687e+002  2.3256e+002 63278 70175,70227,70201
 1.5000e+000 70597 -4.5261e+002  5.0919e+000  1.5789e+002 63080 70372,70476,70424
 1.5000e+000 70574 -2.5852e+002 -1.0348e+002  2.1663e+002 63080 70372,70502,70476
 1.5000e+000 70551 -6.7685e+002 -2.7699e+002  2.8747e+002 63080 70424,70476,70450
 1.5000e+000 70528 -1.0237e+003 -2.8930e+002  4.6603e+002 63080 70372,70424,70398
 1.5000e+000 70847 -4.8326e+001 -2.3266e+002  9.3021e+001 62740 70870,70648,70622
 1.5000e+000 70824 -1.8454e+002 -1.8807e+002  1.4786e+002 62740 70870,70622,70752
 1.5000e+000 70801 -7.2339e+001 -3.3592e+002  1.8498e+002 62740 70648,70726,70700
 1.5000e+000 70778 -8.0991e+001 -3.9226e+002  1.8497e+002 62740 70648,70700,70674
 1.5000e+000 70896 -1.7863e+002 -2.8750e+002  7.4043e+001 62740 70726,70648,70870
 1.5000e+000 70919 -2.4643e+002 -2.0102e+002  1.4637e+002 62740 70726,70870,70752
 1.5000e+000 71022 -5.1836e+001  5.1836e+001  6.8975e+002 62520 70944,70996,70970
 1.5000e+000 71223 -7.5524e+002 -3.5093e+002  4.8482e+002 62230 71073,71151,71099
 1.5000e+000 71200 -6.9837e+002 -3.2081e+002  4.9608e+002 62230 71047,71151,71073
 1.5000e+000 71177 -4.0629e+002 -5.9435e+002  4.1167e+002 62230 71099,71151,71125
 1.5000e+000 71861 -3.3051e+002 -4.3643e+002  5.9516e+000 61712 71515,71697,71671
 1.5000e+000 71838 -4.0846e+002 -5.9761e+002  9.5098e+001 61712 71489,71697,71515
 1.5000e+000 71815 -1.0117e+003 -4.5258e+002  2.9903e+002 61712 71884,71541,71515
 1.5000e+000 71792 -6.8625e+002 -2.5578e+002  2.1670e+002 61712 71884,71515,71671
 1.5000e+000 71769 -2.4599e+002 -6.3910e+002  2.6989e+002 61712 71541,71619,71593
 1.5000e+000 71746 -2.7130e+002 -8.1424e+002  1.1231e+002 61712 71619,71671,71645
 1.5000e+000 71723 -8.8887e+002 -9.9765e+002  5.3909e+002 61712 71541,71593,71567
 1.5000e+000 71910 -7.0748e+002 -6.4955e+002  4.4698e+002 61712 71619,71541,71884
 1.5000e+000 71933 -4.9511e+002 -5.2036e+002  3.9282e+002 61712 71619,71884,71671
 1.5000e+000 72230 -3.3442e+002 -1.7185e+002  6.6590e+001 61208 72253,72060,72008
 1.5000e+000 72207 -3.1760e+002 -1.0467e+002  6.2611e+001 61208 72253,72008,71982
 1.5000e+000 72184 -2.6296e+002 -4.6392e+001  4.6645e+001 61208 71982,72112,72086
 1.5000e+000 72161 -5.6627e+002 -1.7177e+002  1.3976e+002 61208 72008,72060,72034
 1.5000e+000 72138 -1.8406e+002 -4.6010e+001  9.4877e+001 61208 71956,72112,71982
 1.5000e+000 72279 -3.3261e+002 -1.2382e+002  3.6184e+001 61208 72086,72060,72253
 1.5000e+000 72302 -3.3558e+002 -8.5751e+001  3.1608e+001 61208 72086,72253,71982
 1.5000e+000 72761 -5.4767e+002 -2.8937e+002  2.0724e+002 60804 72487,72617,72513
 1.5000e+000 72738 -5.7712e+002 -3.2383e+002  2.2026e+002 60804 72487,72643,72617
 1.5000e+000 72715 -2.1169e+002 -3.6371e+002  2.5232e+002 60804 72565,72617,72591
 1.5000e+000 72692 -4.5245e+002 -2.7635e+002  2.4198e+002 60804 72513,72617,72565
 1.5000e+000 72669 -4.5474e+002 -2.5399e+002  2.7341e+002 60804 72513,72565,72539
 1.5000e+000 72911 -5.1836e+001  5.1836e+001  6.8975e+002 60556 72784,72836,72810
 1.5000e+000 72888  5.3862e+002  1.1720e+002  4.4762e+002 60556 72784,72862,72836
 1.5000e+000 73468 -2.6548e+002 -2.6242e+002  1.8861e+002 60244 73491,73226,73200
 1.5000e+000 73445 -3.7638e+002 -3.0491e+002  2.9428e+002 60244 73563,73491,73200
 1.5000e+000 73422 -6.4382e+002 -2.1209e+002  3.0877e+002 60244 73563,73200,73174
 1.5000e+000 73399 -2.4213e+002 -3.0264e+002  1.6614e+002 60244 73226,73278,73252
 1.5000e+000 73376 -4.9846e+002 -2.8712e+002  2.0976e+002 60244 73122,73304,73278
 1.5000e+000 73353 -5.1125e+002 -4.2746e+002  2.3724e+002 60244 73096,73304,73122
 1.5000e+000 73330 -8.0918e+002 -2.0486e+002 -1.4229e+002 60244 73122,73174,73148
 1.5000e+000 73517 -5.1612e+002 -3.7914e+002  2.3973e+002 60244 73278,73226,73491
 1.5000e+000 73540 -4.7049e+002 -2.6017e+002  2.2209e+002 60244 73278,73491,73122
 1.5000e+000 73589 -7.8810e+002 -3.9046e+002  2.4175e+002 60244 73122,73491,73563
 1.5000e+000 73612 -1.0540e+003 -2.9216e+002  2.7242e+002 60244 73122,73563,73174
 1.5000e+000 73762 -4.1322e+002 -9.7082e+002  4.2666e+002 59875 73661,73713,73687
 1.5000e+000 73739 -6.0805e+002 -4.0416e+002  3.3437e+002 59875 73635,73713,73661
 1.5000e+000 74191 -1.5384e+002 -3.2162e+002  4.6890e+002 59478 74214,73894,73868
 1.5000e+000 74168 -3.8036e+002 -2.9291e+002  4.8954e+002 59478 74214,73868,74050
 1.5000e+000 74145 -2.8632e+002 -3.6356e+002  2.6203e+002 59478 73894,73946,73920
 1.5000e+000 74122 -3.3932e+002 -3.3803e+002  2.6665e+002 59478 73894,73998,73946
 1.5000e+000 74099 -1.0949e+003 -5.8698e+002  7.4016e+002 59478 73998,74050,74024
 1.5000e+000 74076 -4.5009e+002 -3.1952e+002  1.6552e+002 59478 73946,73998,73972
 1.5000e+000 74240 -3.6026e+002 -2.6497e+002  3.6784e+002 59478 73998,73894,74214
 1.5000e+000 74263 -5.8483e+002 -2.5613e+002  3.5191e+002 59478 73998,74214,74050
 1.5000e+000 74720 -4.7182e+002 -3.5612e+002  1.8736e+002 58774 74472,74602,74498
 1.5000e+000 74697 -4.7102e+002 -3.3292e+002  1.9983e+002 58774 74446,74602,74472
 1.5000e+000 74674 -4.7362e+002 -3.0923e+002  1.9230e+002 58774 74498,74576,74524
 1.5000e+000 74651 -4.5859e+002 -3.1116e+002  1.8814e+002 58774 74498,74602,74576
 1.5000e+000 74628 -5.0725e+002 -4.9379e+002  2.4555e+002 58774 74524,74576,74550
 1.5000e+000 75226 -4.2171e+002 -1.5151e+002  2.2438e+002 58270 74955,75085,75033
 1.5000e+000 75203 -3.0345e+002 -3.4091e+002  2.9373e+002 58270 74929,75085,74955
 1.5000e+000 75180 -4.6056e+002 -2.1167e+002  2.4155e+002 58270 75033,75085,75059
 1.5000e+000 75157 -6.0682e+002 -1.6752e+002  1.5576e+002 58270 74955,75007,74981
 1.5000e+000 75134 -3.2089e+002 -1.1099e+002  1.1686e+002 58270 74955,75033,75007
 1.5000e+000 75111 -5.1585e+001 -4.2309e+002  1.4227e+002 58270 74903,75085,74929
 1.5000e+000 75425 -1.5996e+002 -7.8884e+001  8.5501e+001 57830 75448,75301,75249
 1.5000e+000 75402 -1.2265e+002  8.1593e+000  4.6656e+001 57830 75448,75249,75353
 1.5000e+000 75379 -1.4783e+002 -2.4039e+002  7.4743e+001 57830 75520,75301,75275
 1.5000e+000 75474 -1.5663e+002 -1.2864e+002  1.2437e+002 57830 75327,75301,75448
 1.5000e+000 75497 -1.4608e+002 -9.2634e+001  8.4441e+001 57830 75327,75448,75353
 1.5000e+000 75546 -8.6999e+001 -4.4702e+001  2.9953e+001 57830 75249,75301,75520
 1.5000e+000 76261 -2.1807e+002 -3.5071e+002  2.1245e+002 57426 76284,76097,76071
 1.5000e+000 76238 -1.9881e+002 -2.8497e+002  2.3913e+002 57426 75889,76097,75915
 1.5000e+000 76215 -3.2953e+002 -3.8308e+002  2.2072e+002 57426 76428,76284,76071
 1.5000e+000 76192 -2.4650e+002 -3.2486e+002  1.3627e+002 57426 76356,75941,75915
 1.5000e+000 76169 -3.3527e+002 -3.3248e+002  2.1067e+002 57426 76428,76071,76019
 1.5000e+000 76146 -3.4556e+002 -3.9406e+002  1.9076e+002 57426 76019,76071,76045
 1.5000e+000 76123 -3.2492e+002 -3.2120e+002  2.7800e+002 57426 75967,76019,75993
 1.5000e+000 76310 -2.5832e+002 -4.4463e+002  1.8675e+002 57426 75915,76097,76284
 1.5000e+000 76333 -2.5582e+002 -3.7909e+002  1.4098e+002 57426 76356,75915,76284
 1.5000e+000 76382 -2.8331e+002 -2.4876e+002  1.8519e+002 57426 75967,75941,76356
 1.5000e+000 76405 -2.8688e+002 -2.8889e+002  1.8137e+002 57426 75967,76356,76284
 1.5000e+000 76454 -3.0385e+002 -3.3785e+002  2.0625e+002 57426 75967,76284,76428
 1.5000e+000 76477 -3.3304e+002 -3.1020e+002  2.0534e+002 57426 75967,76428,76019
 1.5000e+000 76953 -3.2862e+002 -6.3393e+002  3.1249e+002 56908 76976,76711,76685
 1.5000e+000 76930 -3.4156e+002 -6.5221e+002  2.8057e+002 56908 77048,76976,76685
 1.5000e+000 76907 -6.2060e+002 -6.7883e+002  4.0920e+002 56908 77048,76685,76633
 1.5000e+000 76884 -8.8624e+002 -9.9659e+002  5.8919e+002 56908 76711,76789,76763
 1.5000e+000 76861 -5.1264e+002 -4.2768e+002  2.4156e+002 56908 76581,76789,76607
 1.5000e+000 76838 -8.6900e+002 -7.3443e+002  2.3803e+002 56908 76711,76763,76737
 1.5000e+000 76815 -1.2742e+003 -1.0911e+003  6.9561e+002 56908 76633,76685,76659
 1.5000e+000 77002 -2.9731e+002 -6.3677e+002  3.6593e+002 56908 76789,76711,76976
 1.5000e+000 77025 -3.8275e+002 -4.4440e+002  1.9256e+002 56908 76789,76976,76607
 1.5000e+000 77074 -7.7598e+002 -6.4362e+002  2.7239e+002 56908 76607,76976,77048
 1.5000e+000 77097 -9.2573e+002 -5.5173e+002  3.8684e+002 56908 76607,77048,76633
 1.5000e+000 77475 -3.8620e+002 -6.2479e+002  3.6097e+002 56546 77570,77498,77279
 1.5000e+000 77452 -3.2433e+002 -7.4771e+002  4.3712e+002 56546 77498,77227,77357
 1.5000e+000 77429 -4.3009e+002 -6.6602e+002  4.0854e+002 56546 77570,77279,77253
 1.5000e+000 77406 -6.0656e+002 -8.7210e+002  4.6323e+002 56546 77201,77357,77227
 1.5000e+000 77383 -5.1387e+002 -6.4238e+002  2.3669e+002 56546 77279,77331,77305
 1.5000e+000 77524 -3.5600e+002 -4.3899e+002  3.4485e+002 56546 77331,77279,77498
 1.5000e+000 77547 -2.7231e+002 -5.8783e+002  4.9156e+002 56546 77331,77498,77357
 1.5000e+000 77596 -4.2757e+002 -6.4034e+002  4.4557e+002 56546 77227,77498,77570
 1.5000e+000 77619 -4.8860e+002 -7.6826e+002  4.9503e+002 56546 77227,77570,77253
 1.5000e+000 77818 -4.8475e+002 -5.0285e+002  3.5030e+002 56042 77841,77694,77668
 1.5000e+000 77795 -4.5037e+002 -4.6599e+002  2.5367e+002 56042 77841,77668,77746
 1.5000e+000 77772 -5.0457e+002 -7.3690e+002  2.2900e+002 56042 77642,77746,77668
 1.5000e+000 77867 -5.3180e+002 -5.7916e+002  3.8087e+002 56042 77720,77694,77841
 1.5000e+000 77890 -4.8789e+002 -5.2989e+002  2.8233e+002 56042 77720,77841,77746
 1.5000e+000 78349 -3.2312e+002 -1.1991e+002  1.7587e+002 55538 78075,78127,78101
 1.5000e+000 78326 -4.0944e+002 -2.2641e+002  9.9375e+001 55538 78075,78205,78127
 1.5000e+000 78303 -3.0342e+002 -1.1315e+002  5.4148e+001 55538 78075,78231,78205
 1.5000e+000 78280 -2.9621e+002 -3.1477e+002  1.9848e+002 55538 78127,78179,78153
 1.5000e+000 78257 -2.6551e+002 -2.1295e+002  9.8373e+001 55538 78127,78205,78179
 1.5000e+000 78806 -2.8062e+002 -3.7379e+002  1.1339e+002 55034 78829,78636,78610
 1.5000e+000 78783 -3.1667e+002 -3.4996e+002  1.2527e+002 55034 78901,78829,78610
 1.5000e+000 78760 -2.4574e+002 -3.4263e+002  1.3320e+002 55034 78901,78610,78584
 1.5000e+000 78737 -3.9052e+002 -3.3949e+002  1.3319e+002 55034 78558,78688,78662
 1.5000e+000 78714 -4.5476e+002 -3.7791e+002  3.4681e+002 55034 78532,78688,78558
 1.5000e+000 78855 -3.2834e+002 -4.5628e+002  8.4029e+001 55034 78662,78636,78829
 1.5000e+000 78878 -3.3485e+002 -3.5981e+002  1.4808e+002 55034 78662,78829,78558
 1.5000e+000 78927 -2.7102e+002 -3.2336e+002  1.7455e+002 55034 78558,78829,78901
 1.5000e+000 78950 -2.5175e+002 -3.3583e+002  1.8838e+002 55034 78558,78901,78584
 1.5000e+000 79407 -2.7916e+002 -9.8342e+001  2.5317e+002 54430 79430,79237,79159
 1.5000e+000 79384 -3.9994e+002 -2.9566e+002  9.2074e+001 54430 79430,79159,79133
 1.5000e+000 79361 -2.3355e+002 -1.9520e+002  1.1697e+002 54430 79237,79289,79263
 1.5000e+000 79338 -3.7620e+002 -1.9811e+002  2.3072e+002 54430 79185,79237,79211
 1.5000e+000 79315 -4.5192e+002 -1.9208e+002  2.9931e+002 54430 79159,79237,79185
 1.5000e+000 79456 -2.7174e+002 -3.2558e+002  1.1772e+002 54430 79289,79237,79430
 1.5000e+000 79479 -3.3989e+002 -5.7065e+002 -7.0411e+000 54430 79289,79430,79133
 1.5000e+000 79936 -2.0886e+002 -9.0402e+001  2.4592e+002 53919 79662,79766,79688
 1.5000e+000 79913 -7.9170e+002 -3.9610e+002  4.7260e+002 53919 79662,79818,79766
 1.5000e+000 79890 -1.1079e+003 -4.7917e+002  7.3694e+001 53919 79766,79818,79792
 1.5000e+000 79867 -5.9519e+002 -2.5292e+002  3.6439e+002 53919 79714,79766,79740
 1.5000e+000 79844 -4.7519e+002 -2.5835e+002  3.3299e+002 53919 79688,79766,79714
 1.5000e+000 80037 -1.1153e+002 -3.3622e+002  3.1693e+002 53671 79959,80011,79985
 1.5000e+000 80405 -4.3282e+001 -4.1306e+001 -1.8968e+001 53267 80108,80264,80238
 1.5000e+000 80382 -3.3495e+001 -3.5192e+000 -5.0953e+000 53267 80082,80264,80108
 1.5000e+000 80359 -4.0025e+001 -2.6196e+002  2.0434e+002 53267 80108,80238,80134
 1.5000e+000 80336 -2.8552e+001 -1.0535e+002  1.4826e+002 53267 80134,80212,80186
 1.5000e+000 80313 -2.3447e+002 -2.6601e+002  2.5139e+002 53267 80134,80238,80212
 1.5000e+000 80290  4.3014e+001 -2.0471e+002  5.6834e+001 53267 80134,80186,80160
 1.5000e+000 80915 -2.2107e+002 -3.2861e+002  1.2749e+002 52969 80644,80774,80748
 1.5000e+000 80892 -2.4587e+002 -1.0752e+002  2.0045e+001 52969 80618,80774,80644
 1.5000e+000 80869 -3.3883e+002 -4.7183e+002  5.7144e+001 52969 80644,80748,80670
 1.5000e+000 80846 -2.3592e+002 -1.0799e+002  1.7341e+001 52969 80592,80774,80618
 1.5000e+000 80823 -5.0279e+002 -4.0210e+002  1.2195e+002 52969 80670,80722,80696
 1.5000e+000 80800 -2.6267e+002 -3.0627e+002  7.8356e+001 52969 80670,80748,80722
 1.5000e+000 81266  9.2906e+001 -1.6113e+002  4.5562e+001 52565 81041,81145,81067
 1.5000e+000 81243 -1.3449e+002 -5.4429e+002  1.4765e+002 52565 81041,81171,81145
 1.5000e+000 81220 -4.4680e+002 -1.2187e+003  2.5088e+002 52565 81067,81119,81093
 1.5000e+000 81197  1.4360e+002  5.4411e+001  7.0885e+001 52565 81067,81145,81119
 1.5000e+000 81723 -2.4862e+002 -1.3183e+002  1.1547e+002 51904 81449,81527,81475
 1.5000e+000 81700 -1.8075e+002 -3.6220e+001  7.7404e+001 51904 81449,81579,81527
 1.5000e+000 81677 -4.4890e+002 -3.4082e+002  2.2967e+002 51904 81449,81605,81579
 1.5000e+000 81654 -1.8694e+002 -5.3993e+001  7.2246e+001 51904 81527,81579,81553
 1.5000e+000 81631 -3.3430e+002 -9.6462e+001  4.5695e+001 51904 81475,81527,81501
 1.5000e+000 82327 -4.5606e+002 -4.7278e+002  3.2702e+002 51321 82422,82350,82036
 1.5000e+000 82304 -4.7259e+002 -3.5852e+002  3.4024e+002 51321 82494,82350,81958
 1.5000e+000 82281 -4.6373e+002 -4.8447e+002  3.1295e+002 51321 82422,82036,82010
 1.5000e+000 82258 -4.5723e+002 -3.4219e+002  3.1508e+002 51321 82494,81958,81932
 1.5000e+000 82235 -4.9139e+002 -2.6386e+002  1.8896e+002 51321 82062,82114,82088
 1.5000e+000 82212 -1.1032e+003 -6.7349e+002  4.4868e+002 51321 81932,82140,82114
 1.5000e+000 82189 -4.9492e+002 -1.7166e+002  2.8535e+002 51321 81958,82010,81984
 1.5000e+000 82166 -3.9035e+002 -3.9934e+002  2.5396e+002 51321 81906,82140,81932
 1.5000e+000 82376 -4.5678e+002 -5.5683e+002  3.2569e+002 51321 82062,82036,82350
 1.5000e+000 82399 -4.8230e+002 -4.4440e+002  3.1376e+002 51321 82062,82350,82114
 1.5000e+000 82448 -4.3949e+002 -4.5759e+002  3.4026e+002 51321 81958,82350,82422
 1.5000e+000 82471 -4.4468e+002 -4.6777e+002  3.2651e+002 51321 81958,82422,82010
 1.5000e+000 82520 -4.7940e+002 -3.8334e+002  3.4765e+002 51321 82114,82350,82494
 1.5000e+000 82543 -4.8004e+002 -3.7958e+002  3.2666e+002 51321 82114,82494,81932
 1.5000e+000 83019 -4.8378e+002 -3.9918e+002  2.3928e+002 50817 82673,82751,82699
 1.5000e+000 82996 -5.0765e+002 -3.6676e+002  2.0189e+002 50817 83042,82673,82855
 1.5000e+000 82973 -5.0847e+002 -4.4071e+002  2.0068e+002 50817 83042,82855,82803
 1.5000e+000 82950 -6.8611e+002 -5.6212e+002  2.5111e+002 50817 82751,82803,82777
 1.5000e+000 82927 -6.3787e+002 -4.6347e+002  1.4915e+002 50817 82647,82855,82673
 1.5000e+000 82904 -7.0108e+002 -5.4020e+002  3.6450e+002 50817 82803,82855,82829
 1.5000e+000 82881 -7.2018e+002 -8.2496e+002  3.4438e+002 50817 82699,82751,82725
 1.5000e+000 83068 -4.9466e+002 -4.1965e+002  2.4562e+002 50817 82751,82673,83042
 1.5000e+000 83091 -4.8448e+002 -4.8701e+002  2.3607e+002 50817 82751,83042,82803
 1.5000e+000 83290 -5.0931e+002 -2.3656e+002  3.2142e+002 50356 83313,83166,83140
 1.5000e+000 83267 -5.8207e+002 -4.6214e+002  2.5479e+002 50356 83515,83313,83140
 1.5000e+000 83244 -6.6693e+002 -4.5963e+002  1.2774e+002 50356 83515,83140,83385
 1.5000e+000 83339 -5.9741e+002 -4.0601e+002  3.5481e+002 50356 83192,83166,83313
 1.5000e+000 83362 -4.2465e+002 -4.1485e+002  3.0433e+002 50356 83192,83313,83218
 1.5000e+000 83411 -2.6213e+002 -2.5160e+002  2.0298e+002 50356 83114,83218,83385
 1.5000e+000 83541 -3.7236e+002 -3.9887e+002  2.5289e+002 50356 83218,83313,83515
 1.5000e+000 83564 -3.9470e+002 -3.5056e+002  1.4301e+002 50356 83218,83515,83385
 1.5000e+000 83893 -3.4705e+002 -2.6192e+002  8.4768e+001 49552 83720,83798,83746
 1.5000e+000 83870 -2.6542e+002 -6.4465e+001  9.4151e+001 49552 83694,83798,83720
 1.5000e+000 83847 -1.7850e+002 -1.0432e+002  8.8647e+001 49552 83668,83798,83694
 1.5000e+000 83824 -4.8086e+002 -1.4203e+002  8.3466e+000 49552 83746,83798,83772
 1.5000e+000 84141 -6.1168e+002 -4.4819e+002  3.2363e+002 49212 84164,84020,83942
 1.5000e+000 84118 -5.8955e+002 -3.8441e+002  3.4628e+002 49212 84164,83942,83916
 1.5000e+000 84095 -4.1382e+002 -5.5999e+002  2.4177e+002 49212 83942,84020,83968
 1.5000e+000 84072 -3.6490e+002 -2.7656e+001  1.1882e+002 49212 83968,84020,83994
 1.5000e+000 84190 -6.3171e+002 -4.3691e+002  2.8693e+002 49212 84046,84020,84164
 1.5000e+000 84213 -6.1024e+002 -3.9516e+002  3.1006e+002 49212 84046,84164,83916
 1.5000e+000 84800 -1.3749e+002 -3.9061e+002  2.2116e+002 48865 84503,84633,84555
 1.5000e+000 84777 -3.5195e+002 -6.6380e+002  1.2696e+002 48865 84503,84659,84633
 1.5000e+000 84754 -2.9019e+002 -8.0950e+002  1.9086e+002 48865 84555,84633,84581
 1.5000e+000 84731 -2.1450e+002 -1.1878e+003  3.7527e+002 48865 84581,84633,84607
 1.5000e+000 84708 -6.2677e+002 -5.1354e+002  1.5456e+002 48865 84503,84555,84529
 1.5000e+000 84685 -3.5109e+002 -5.8161e+002  2.1118e+002 48865 84477,84659,84503
 1.5000e+000 85355 -2.5519e+002 -2.6618e+002  7.9838e+001 48461 85378,85035,85009
 1.5000e+000 85332 -3.9933e+002 -3.6858e+002  1.4368e+002 48461 85378,85009,85165
 1.5000e+000 85309 -3.4436e+002 -3.9971e+002  1.9478e+002 48461 85450,85061,85035
 1.5000e+000 85286 -4.8077e+002 -3.9256e+002  1.3132e+002 48461 85009,85191,85165
 1.5000e+000 85263 -3.6427e+002 -3.4581e+002  2.5537e+002 48461 85087,85165,85113
 1.5000e+000 85240 -1.7533e+002 -4.8097e+002 -3.8934e+001 48461 84983,85191,85009
 1.5000e+000 85217 -3.1493e+002 -4.3622e+002  1.6854e+002 48461 85113,85165,85139
 1.5000e+000 85404 -3.5942e+002 -3.1971e+002  1.5598e+002 48461 85450,85035,85378
 1.5000e+000 85427 -4.3268e+002 -3.5969e+002  1.5433e+002 48461 85087,85378,85165
 1.5000e+000 85476 -3.6935e+002 -5.0375e+002  2.0545e+002 48461 85087,85061,85450
 1.5000e+000 85499 -4.0142e+002 -4.5872e+002  1.5824e+002 48461 85087,85450,85378
 1.5000e+000 86084 -1.9760e+002 -4.3779e+002  1.8856e+002 48057 86323,86107,85787
 1.5000e+000 86061 -2.6015e+002 -5.0388e+002  2.5420e+002 48057 86107,85761,85943
 1.5000e+000 86038 -3.3227e+002 -3.7106e+002  1.9704e+002 48057 86251,86179,85891
 1.5000e+000 86015 -3.2905e+002 -3.0632e+002  1.2839e+002 48057 86251,85891,85839
 1.5000e+000 85992 -3.1200e+002 -3.4280e+002  2.6924e+002 48057 85891,85943,85917
 1.5000e+000 85969 -3.9278e+002 -2.5283e+002  1.6841e+002 48057 85839,85891,85865
 1.5000e+000 86133 -2.0437e+002 -4.2851e+002  1.6188e+002 48057 85813,85787,86107
 1.5000e+000 86156 -2.6303e+002 -4.3890e+002  1.6612e+002 48057 86179,85813,86107
 1.5000e+000 86205 -2.6276e+002 -3.1652e+002  2.2215e+002 48057 85943,85891,86179
 1.5000e+000 86228 -1.8074e+002 -3.4542e+002  2.1483e+002 48057 85943,86179,86107
 1.5000e+000 86277 -2.1263e+002 -3.0050e+002  1.6645e+002 48057 85813,86179,86251
 1.5000e+000 86300 -2.7525e+002 -2.6673e+002  1.0913e+002 48057 85813,86251,85839
 1.5000e+000 86349 -1.3062e+002 -3.9675e+002  2.0588e+002 48057 85761,86107,86323
 1.5000e+000 86855 -1.9315e+002 -3.7107e+002  2.2001e+002 47545 86878,86584,86558
 1.5000e+000 86832 -3.0166e+002 -4.2053e+002  1.9519e+002 47545 86950,86878,86558
 1.5000e+000 86809 -3.4055e+002 -4.0616e+002  1.9822e+002 47545 86950,86558,86532
 1.5000e+000 86786 -2.2635e+002 -3.5827e+002  2.2460e+002 47545 86584,86662,86610
 1.5000e+000 86763 -3.3659e+002 -3.5028e+002  1.2296e+002 47545 86532,86714,86688
 1.5000e+000 86740 -2.8232e+002 -1.7083e+002  2.2373e+002 47545 86610,86662,86636
 1.5000e+000 86904 -2.4882e+002 -4.4244e+002  1.8831e+002 47545 86662,86584,86878
 1.5000e+000 86927 -1.9248e+002 -4.0520e+002  1.6290e+002 47545 86662,86878,86688
 1.5000e+000 86976 -2.3795e+002 -4.0464e+002  1.5096e+002 47545 86688,86878,86950
 1.5000e+000 86999 -3.0504e+002 -4.2179e+002  1.6286e+002 47545 86688,86950,86532
 1.5000e+000 87328 -8.5793e+002 -2.3739e+002  2.5868e+002 47048 87155,87207,87181
 1.5000e+000 87305 -3.5107e+002 -2.4734e+002  1.6049e+002 47048 87129,87207,87155
 1.5000e+000 87282 -6.0785e+002 -3.2321e+002  1.6432e+002 47048 87103,87207,87129
 1.5000e+000 87259 -9.0099e+002 -1.0656e+003  6.3801e+002 47048 87103,87233,87207
 1.5000e+000 87576 -1.9356e+002 -2.3445e+002  2.3107e+002 46701 87599,87429,87377
 1.5000e+000 87553 -2.7396e+002 -1.6971e+002  1.7188e+002 46701 87599,87377,87481
 1.5000e+000 87530 -1.3423e+002 -1.5267e+002  9.4136e+001 46701 87351,87481,87377
 1.5000e+000 87507 -1.3388e+002 -2.0073e+002  2.0039e+002 46701 87377,87429,87403
 1.5000e+000 87625 -2.4855e+002 -3.4120e+002  2.1163e+002 46701 87455,87429,87599
 1.5000e+000 87648 -3.2127e+002 -2.4501e+002  1.4919e+002 46701 87455,87599,87481
 1.5000e+000 87798  4.7989e+001  1.7775e+000 -1.1333e+001 46239 87697,87749,87723
 1.5000e+000 87775  9.9680e+001 -3.5054e+001  8.8071e+001 46239 87671,87749,87697
 1.5000e+000 88308 -6.2162e+002 -6.1439e+002  1.1735e+002 45735 88089,88167,88141
 1.5000e+000 88285 -4.2540e+002 -3.0964e+002  2.0667e+002 45735 88011,88167,88089
 1.5000e+000 88262 -2.0193e+002 -2.9172e+002  1.0439e+002 45735 87985,88167,88011
 1.5000e+000 88239 -2.6035e+002 -1.1101e+003  2.9157e+002 45735 88011,88089,88063
 1.5000e+000 88216 -7.6533e+002 -6.5843e+002  1.8095e+002 45735 88089,88141,88115
 1.5000e+000 88193 -5.7701e+002 -1.6374e+003  7.9566e+001 45735 88011,88063,88037
 1.5000e+000 88686 -4.5965e+002 -3.4766e+002  2.9863e+002 45316 88438,88516,88490
 1.5000e+000 88663 -4.0968e+002 -2.8119e+001  3.8838e+002 45316 88438,88542,88516
 1.5000e+000 88640 -2.4316e+002 -5.2555e+002  4.8123e+002 45316 88438,88568,88542
 1.5000e+000 88617 -7.2469e+002 -5.6183e+002  2.0166e+002 45316 88438,88490,88464
 1.5000e+000 88594 -3.7056e+002 -5.6592e+002  4.7179e+002 45316 88412,88568,88438
 1.5000e+000 88934 -9.4134e+002 -9.3309e+002  5.3114e+002 44812 88957,88735,88709
 1.5000e+000 88911 -5.2239e+002 -6.0469e+002  2.0990e+002 44812 88957,88709,88839
 1.5000e+000 88888 -5.2243e+002 -4.1632e+002  1.0731e+002 44812 89029,88787,88761
 1.5000e+000 88865 -5.0111e+002 -4.1887e+002  1.7693e+002 44812 88787,88839,88813
 1.5000e+000 88983 -2.5131e+002 -5.7482e+002  3.4104e+002 44812 88761,88735,88957
 1.5000e+000 89006 -4.3341e+002 -4.9464e+002  8.8610e+001 44812 89029,88761,88957
 1.5000e+000 89055 -5.0720e+002 -5.0590e+002  1.4218e+002 44812 88839,88787,89029
 1.5000e+000 89078 -5.0102e+002 -6.6994e+002  1.5262e+002 44812 88839,89029,88957
 1.5000e+000 89228 -3.1973e+002 -9.2779e+002  2.1514e+002 44408 89127,89179,89153
 1.5000e+000 89205  2.0876e+001 -9.7702e+001  9.9904e+000 44408 89101,89179,89127
 1.5000e+000 89787 -4.7598e+002 -3.3079e+002  2.5670e+002 43854 89810,89545,89519
 1.5000e+000 89764 -5.2024e+002 -4.3597e+002  2.6412e+002 43854 89810,89519,89467
 1.5000e+000 89741 -5.0841e+002 -5.7973e+002  2.5554e+002 43854 89954,89882,89597
 1.5000e+000 89718 -5.1700e+002 -5.8775e+002  2.6118e+002 43854 89954,89597,89571
 1.5000e+000 89695 -2.8845e+002 -4.1105e+002  2.4167e+002 43854 89415,89623,89467
 1.5000e+000 89672 -1.9621e+002 -2.4512e+002  1.7110e+002 43854 89467,89519,89493
 1.5000e+000 89649 -1.9895e+002 -3.1211e+002  2.0268e+002 43854 89415,89467,89441
 1.5000e+000 89836 -5.2365e+002 -3.5685e+002  2.8536e+002 43854 89882,89545,89810
 1.5000e+000 89859 -3.0794e+002 -4.0610e+002  2.2266e+002 43854 89623,89810,89467
 1.5000e+000 89908 -5.1295e+002 -6.9857e+002  3.4974e+002 43854 89623,89597,89882
 1.5000e+000 89931 -4.7815e+002 -6.2293e+002  3.0051e+002 43854 89623,89882,89810
 1.5000e+000 89980 -5.4778e+002 -5.6536e+002  3.4823e+002 43854 89545,89882,89954
 1.5000e+000 90003 -5.9457e+002 -6.4370e+002  3.6780e+002 43854 89545,89954,89571
 1.5000e+000 90251 -1.6757e+002 -2.6382e+002  1.5678e+002 43492 90026,90078,90052
 1.5000e+000 90228 -4.9909e+002 -3.6357e+002  1.7170e+002 43492 90274,90026,90156
 1.5000e+000 90205 -4.7296e+002 -4.4500e+002  1.7003e+002 43492 90346,90274,90156
 1.5000e+000 90182 -4.9333e+002 -5.9843e+002  4.4032e+002 43492 90346,90156,90130
 1.5000e+000 90300 -3.0138e+002 -4.6534e+002  2.4452e+002 43492 90078,90026,90274
 1.5000e+000 90323 -5.5450e+002 -5.5708e+002  2.3184e+002 43492 90078,90274,90104
 1.5000e+000 90372 -7.9738e+002 -6.5736e+002  3.4377e+002 43492 90104,90274,90346
 1.5000e+000 90395 -8.3621e+002 -8.5708e+002  6.2259e+002 43492 90104,90346,90130
 1.5000e+000 90594 -8.5969e+001 -3.4562e+002  2.3434e+002 43052 90418,90496,90444
 1.5000e+000 90571 -1.8233e+002 -2.1806e+002  1.8633e+002 43052 90418,90522,90496
 1.5000e+000 90548 -3.5671e+002 -3.2083e+002  2.2302e+002 43052 90444,90496,90470
 1.5000e+000 91074 -5.6764e+002 -5.3881e+002  4.0906e+002 42434 91241,90884,90858
 1.5000e+000 91051 -1.0217e+003 -7.6191e+002 -2.3819e+001 42434 90702,90910,90884
 1.5000e+000 91028 -2.5359e+002 -3.1234e+002  2.5294e+002 42434 91097,90754,90702
 1.5000e+000 91005 -5.2138e+002 -3.1767e+002  3.7995e+002 42434 91241,90858,91097
 1.5000e+000 90982 -2.2059e+002 -3.4142e+002  1.4092e+002 42434 91169,90806,90780
 1.5000e+000 90959 -6.0412e+001 -2.5901e+002  9.7269e+001 42434 90806,90858,90832
 1.5000e+000 90936 -2.8597e+002 -2.3082e+002  2.5694e+002 42434 90702,90754,90728
 1.5000e+000 91123 -6.2839e+002 -4.9204e+002  3.5124e+002 42434 90780,90754,91097
 1.5000e+000 91146 -4.7581e+002 -4.9084e+002  3.6738e+002 42434 91169,90780,91097
 1.5000e+000 91195 -1.2527e+002 -2.4792e+002  5.0833e+001 42434 90858,90806,91169
 1.5000e+000 91218 -2.0483e+002 -6.9686e+001  2.2452e+002 42434 90858,91169,91097
 1.5000e+000 91267 -4.1195e+002 -8.1701e+002  3.0858e+002 42434 90702,90884,91241
 1.5000e+000 91290 -3.8902e+002 -6.2336e+002  2.8363e+002 42434 90702,91241,91097
 1.5000e+000 91698 -1.2751e+002 -4.6101e+002  1.7729e+002 41773 91473,91577,91499
 1.5000e+000 91675 -2.4309e+002 -5.6064e+002  2.5205e+002 41773 91473,91603,91577
 1.5000e+000 91652 -2.3474e+002 -3.5351e+002  6.1610e+001 41773 91499,91551,91525
 1.5000e+000 91629 -3.5238e+002 -4.1282e+002  1.6743e+002 41773 91499,91577,91551
 1.5000e+000 92044 -4.3734e+002 -5.0371e+002  3.1778e+002 41383 91773,91877,91851
 1.5000e+000 92021 -3.4037e+002 -6.3423e+002  1.8700e+002 41383 91747,91877,91773
 1.5000e+000 91998 -3.5013e+002 -3.5127e+002  2.3108e+002 41383 91773,91851,91799
 1.5000e+000 91975 -2.5981e+002 -5.1783e+002  9.6080e+001 41383 91747,91903,91877
 1.5000e+000 91952 -1.7317e+002 -4.2687e+002  1.5807e+002 41383 91721,91903,91747
 1.5000e+000 91929 -9.2083e+001 -3.7434e+002  1.6077e+002 41383 91799,91851,91825
 1.5000e+000 92601 -3.7608e+002 -3.6664e+002  1.2945e+002 40979 92229,92411,92307
 1.5000e+000 92578 -4.7511e+002 -3.8384e+002  1.2523e+002 40979 92229,92437,92411
 1.5000e+000 92555 -3.3964e+002 -3.1636e+002  1.1096e+002 40979 92229,92307,92281
 1.5000e+000 92532 -2.9865e+002 -3.4904e+002  1.9341e+002 40979 92333,92411,92385
 1.5000e+000 92509 -3.0931e+002 -3.1418e+002  1.5220e+002 40979 92307,92411,92333
 1.5000e+000 92486 -3.4640e+002 -2.9983e+002  9.2738e+001 40979 92229,92281,92255
 1.5000e+000 92463 -5.2240e+001 -3.4258e+002  1.3885e+002 40979 92333,92385,92359
 1.5000e+000 93235 -4.5525e+002 -2.6911e+002  3.3545e+002 40525 92941,92993,92967
 1.5000e+000 93212 -6.2314e+002 -1.0704e+002  1.0387e+002 40525 93258,92941,92889
 1.5000e+000 93189 -4.9439e+002 -3.7374e+001  6.3050e+001 40525 93258,92889,93071
 1.5000e+000 93166 -5.4577e+002 -2.2606e+002  9.5583e+001 40525 92889,92941,92915
 1.5000e+000 93143 -5.4052e+002 -4.7065e+001  5.3357e+001 40525 92863,93071,92889
 1.5000e+000 93120 -4.6465e+002 -2.3218e+002  1.5566e+002 40525 92993,93071,93019
 1.5000e+000 93097 -4.7074e+002 -1.5701e+002  1.2745e+002 40525 93019,93071,93045
 1.5000e+000 93284 -6.9579e+002 -2.2194e+002  2.5761e+002 40525 92993,92941,93258
 1.5000e+000 93307 -4.3771e+002 -6.4983e+001  1.8996e+002 40525 92993,93258,93071
 1.5000e+000 93636 -6.1423e+002 -5.2238e+002  4.5995e+002 40235 93437,93541,93515
 1.5000e+000 93613 -5.0535e+002 -6.6938e+002  4.2622e+002 40235 93411,93541,93437
 1.5000e+000 93590 -1.5405e+002 -5.6447e+002  1.7641e+002 40235 93463,93515,93489
 1.5000e+000 93567 -2.8862e+002 -4.1526e+002  1.1883e+002 40235 93437,93515,93463
 1.5000e+000 94014 -6.5275e+002 -7.3690e+002  2.7067e+002 39873 93766,93870,93792
 1.5000e+000 93991 -5.9595e+002 -7.7856e+002  2.3621e+002 39873 93766,93896,93870
 1.5000e+000 93968 -5.4407e+002 -5.7345e+002  3.1769e+002 39873 93792,93870,93844
 1.5000e+000 93945 -4.6278e+002 -5.0732e+002  2.5646e+002 39873 93792,93844,93818
 1.5000e+000 93922 -4.6295e+002 -7.1635e+002  4.3752e+002 39873 93740,93896,93766
 1.5000e+000 94164  1.3502e+001 -1.9819e+002  1.3466e+002 39461 94037,94089,94063
 1.5000e+000 94141 -1.6032e+002 -3.2357e+002  1.8955e+002 39461 94037,94115,94089
 1.5000e+000 94363 -3.0032e+002 -2.6803e+002  2.0063e+002 39057 94386,94239,94213
 1.5000e+000 94340 -2.6294e+002 -2.3842e+002  1.8432e+002 39057 94386,94213,94187
 1.5000e+000 94317 -3.9941e+002 -3.7091e+002  2.1613e+002 39057 94187,94291,94265
 1.5000e+000 94412 -1.8364e+002 -2.3192e+002  1.6607e+002 39057 94458,94386,94265
 1.5000e+000 94435 -2.7017e+002 -2.6776e+002  1.7136e+002 39057 94265,94386,94187
 1.5000e+000 94484 -2.9567e+002 -3.2173e+002  2.1324e+002 39057 94239,94386,94458
 1.5000e+000 94896 -6.4125e+002 -4.4125e+002  2.6854e+002 38396 94919,94775,94723
 1.5000e+000 94873 -6.9083e+002 -3.9144e+002  2.7080e+002 38396 94919,94723,94697
 1.5000e+000 94850 -5.1736e+002 -4.0322e+002  2.1519e+002 38396 94723,94775,94749
 1.5000e+000 94827 -3.0788e+002 -2.2727e+002  2.3037e+002 38396 94671,94801,94697
 1.5000e+000 94945 -6.3351e+002 -4.0762e+002  2.5019e+002 38396 94801,94775,94919
 1.5000e+000 94968 -6.6091e+002 -3.4331e+002  2.4313e+002 38396 94801,94919,94697
 1.5000e+000 95265 -5.6463e+002 -6.0321e+002  2.8843e+002 37835 95017,95069,95043
 1.5000e+000 95242 -5.7243e+002 -5.2825e+002  2.9113e+002 37835 95288,95069,95017
 1.5000e+000 95219 -6.2713e+002 -5.9292e+002  3.9256e+002 37835 95288,95017,94991
 1.5000e+000 95196 -7.1242e+002 -6.4667e+002  3.5568e+002 37835 94991,95147,95121
 1.5000e+000 95173 -4.3838e+002 -2.9802e+002  2.5822e+002 37835 95069,95121,95095
 1.5000e+000 95314 -5.6790e+002 -3.8533e+002  2.2027e+002 37835 95121,95069,95288
 1.5000e+000 95337 -6.1662e+002 -4.7851e+002  3.1498e+002 37835 95121,95288,94991
 1.5000e+000 95558  1.5245e+001 -1.8453e+002  1.4451e+002 37423 95408,95460,95434
 1.5000e+000 95535 -2.1712e+002 -8.1085e+002  3.7570e+002 37423 95382,95460,95408
 1.5000e+000 95512 -4.1543e+002 -9.6389e+002  4.4244e+002 37423 95382,95486,95460
 1.5000e+000 95891 -1.6851e+002 -4.8355e+002  3.0372e+002 37225 95666,95718,95692
 1.5000e+000 95868 -4.4407e+002 -4.9630e+002  3.8105e+002 37225 95666,95796,95718
 1.5000e+000 95845 -2.0310e+002 -3.7072e+002  1.2301e+002 37225 95718,95770,95744
 1.5000e+000 95822 -2.6921e+002 -2.9731e+002  1.9346e+002 37225 95718,95796,95770
 1.5000e+000 95992 -6.9367e+001 -3.6185e+002  1.7316e+002 36735 95914,95966,95940
 1.5000e+000 96142 -6.6811e+002 -3.5315e+002  3.3428e+002 36331 96297,96067,96041
 1.5000e+000 96119 -5.8646e+002 -3.0349e+002  3.7609e+002 36331 96165,96041,96015
 1.5000e+000 96191 -6.4966e+002 -3.3400e+002  3.5926e+002 36331 96297,96041,96165
 1.5000e+000 96323 -6.9990e+002 -3.1193e+002  3.9014e+002 36331 96093,96067,96297
 1.5000e+000 96346 -6.2555e+002 -2.6664e+002  4.2239e+002 36331 96093,96297,96165
 1.5000e+000 96714 -4.5494e+002 -7.1436e+002  4.2095e+002 36041 96737,96495,96443
 1.5000e+000 96691 -6.2127e+002 -5.4244e+002  4.2084e+002 36041 96737,96443,96417
 1.5000e+000 96668 -2.9083e+002 -7.5519e+002  1.8133e+002 36041 96443,96495,96469
 1.5000e+000 96645 -1.4865e+002 -2.5075e+002  2.3891e+002 36041 96391,96521,96417
 1.5000e+000 96622 -3.9496e+001 -2.5892e+002  2.0623e+002 36041 96391,96547,96521
 1.5000e+000 96599 -8.2087e+001 -2.6782e+002  1.9782e+002 36041 96391,96573,96547
 1.5000e+000 96763 -2.2412e+002 -5.7104e+002  3.5969e+002 36041 96521,96495,96737
 1.5000e+000 96786 -5.3361e+002 -5.0573e+002  3.9566e+002 36041 96521,96737,96417
 1.5000e+000 96936 -2.8514e+002 -1.9494e+002  2.0033e+002 35637 97031,96959,96835
 1.5000e+000 96913 -3.7362e+002 -2.0981e+002  2.3436e+002 35637 97163,96959,96809
 1.5000e+000 96985 -3.8756e+002 -1.6918e+002  2.3044e+002 35637 96861,96835,96959
 1.5000e+000 97008 -5.0290e+002 -2.8450e+002  3.6689e+002 35637 96861,96959,96887
 1.5000e+000 97057 -2.9855e+002 -1.2678e+002  1.4024e+002 35637 96809,96959,97031
 1.5000e+000 97189 -3.2595e+002 -1.9201e+002  2.4641e+002 35637 96887,96959,97163
 1.5000e+000 97597 -2.6838e+002 -3.3486e+002  2.8361e+002 35190 97450,97502,97476
 1.5000e+000 97574 -2.9278e+002 -4.3170e+002  3.5915e+002 35190 97372,97502,97450
 1.5000e+000 97551 -3.0254e+002 -5.0513e+002  3.3933e+002 35190 97372,97450,97398
 1.5000e+000 97528 -2.0580e+002 -4.3754e+002  2.8660e+002 35190 97398,97450,97424
 1.5000e+000 98054 -4.5131e+002 -5.6513e+002  3.7554e+002 34636 97806,97936,97858
 1.5000e+000 98031 -6.4383e+002 -3.7611e+002  3.3840e+002 34636 97780,97936,97806
 1.5000e+000 98008 -5.6661e+002 -5.3634e+002  2.0872e+002 34636 97806,97858,97832
 1.5000e+000 97985 -4.8943e+002 -5.5048e+002  4.0923e+002 34636 97884,97936,97910
 1.5000e+000 97962 -3.1291e+002 -3.7043e+002  3.0353e+002 34636 97858,97936,97884
 1.5000e+000 98530 -2.7415e+002  1.6321e+002  7.0496e+001 34068 98697,98184,98366
 1.5000e+000 98507  1.0397e+001  4.0661e+001 -2.0005e+001 34068 98158,98366,98184
 1.5000e+000 98484 -4.4998e+002 -4.2462e+002  1.6700e+002 34068 98553,98262,98236
 1.5000e+000 98461 -7.4377e+002 -5.9031e+002  1.0091e+002 34068 98553,98236,98210
 1.5000e+000 98438 -4.0938e+002 -1.6308e+002  1.8043e+002 34068 98841,98625,98366
 1.5000e+000 98415 -4.6837e+002 -7.0189e+002  3.2829e+002 34068 98769,98288,98262
 1.5000e+000 98392 -5.8443e+002 -3.7135e+001  1.5647e+002 34068 98841,98366,98340
 1.5000e+000 98579 -5.4483e+002 -5.3125e+002  2.3241e+002 34068 98769,98262,98553
 1.5000e+000 98602 -4.0702e+002 -2.2581e+002  1.8999e+002 34068 98625,98314,98553
 1.5000e+000 98651 -3.5880e+002 -1.5907e+002  1.1170e+002 34068 98697,98366,98625
 1.5000e+000 98674 -4.9426e+002 -4.6811e+002  1.4591e+002 34068 98210,98625,98553
 1.5000e+000 98723 -4.1003e+002 -2.2710e+002  1.3740e+002 34068 98210,98184,98697
 1.5000e+000 98746 -3.6496e+002 -2.8279e+002  2.0662e+002 34068 98210,98697,98625
 1.5000e+000 98795 -2.7847e+002 -5.2879e+002  2.1437e+002 34068 98314,98288,98769
 1.5000e+000 98818 -3.9294e+002 -4.1403e+002  1.2472e+002 34068 98314,98769,98553
 1.5000e+000 98867 -5.7517e+002 -2.9245e+002  1.1928e+002 34068 98314,98625,98841
 1.5000e+000 98890 -7.5152e+002 -1.5389e+002  1.0187e+002 34068 98314,98841,98340
 1.5000e+000 99268 -6.5347e+002 -6.4131e+002  4.5750e+002 33450 99291,99098,99072
 1.5000e+000 99245 -7.2389e+002 -4.7935e+002  2.3669e+002 33450 99291,99072,99020
 1.5000e+000 99222 -1.0390e+003 -6.0215e+002  3.5620e+002 33450 99020,99072,99046
 1.5000e+000 99199 -5.3861e+002 -4.0834e+002  2.3791e+002 33450 99020,99150,99124
 1.5000e+000 99176 -5.4475e+002 -3.7232e+002  6.2728e+001 33450 98994,99150,99020
 1.5000e+000 99317 -3.1064e+002 -4.8768e+002  4.2718e+002 33450 99124,99098,99291
 1.5000e+000 99340 -6.1310e+002 -4.3810e+002  2.3461e+002 33450 99124,99291,99020
 1.5000e+000 99865 -4.6223e+002 -4.3756e+002  2.6384e+002 32944 100176,99960,99888
 1.5000e+000 99842 -5.0433e+002 -4.1954e+002  2.6710e+002 32944 100104,99888,99522
 1.5000e+000 99819 -4.5658e+002 -4.1905e+002  3.3355e+002 32944 100248,99960,99626
 1.5000e+000 99796 -4.5745e+002 -4.9381e+002  1.6855e+002 32944 100032,99652,99626
 1.5000e+000 99773 -4.1870e+002 -4.3626e+002  1.9660e+002 32944 100104,99522,99496
 1.5000e+000 99750 -3.3233e+002 -3.3940e+002  5.3304e+001 32944 99574,99626,99600
 1.5000e+000 99727 -3.8222e+002 -4.0911e+002  3.6279e+002 32944 100248,99626,99574
 1.5000e+000 99704 -2.7955e+002 -4.2078e+002  2.3543e+002 32944 99444,99496,99470
 1.5000e+000 99914 -4.6898e+002 -4.0530e+002  1.9299e+002 32944 100176,99888,100032
 1.5000e+000 99937 -5.1328e+002 -3.5979e+002  2.6290e+002 32944 99678,99888,99444
 1.5000e+000 99986 -4.9795e+002 -3.7859e+002  2.5800e+002 32944 99522,99888,99960
 1.5000e+000 100009 -5.3116e+002 -3.2499e+002  2.9699e+002 32944 99522,99960,99548
 1.5000e+000 100058 -5.1567e+002 -5.0279e+002  1.6433e+002 32944 99678,99652,100032
 1.5000e+000 100081 -5.4783e+002 -4.6403e+002  1.6334e+002 32944 99678,100032,99888
 1.5000e+000 100130 -3.5476e+002 -3.7949e+002  2.6104e+002 32944 99444,99888,100104
 1.5000e+000 100153 -3.0208e+002 -4.2576e+002  2.0002e+002 32944 99444,100104,99496
 1.5000e+000 100202 -5.1051e+002 -5.4768e+002  2.5572e+002 32944 99626,99960,100176
 1.5000e+000 100225 -5.2892e+002 -5.4620e+002  1.9220e+002 32944 99626,100176,100032
 1.5000e+000 100274 -5.6784e+002 -4.0929e+002  3.0219e+002 32944 99548,99960,100248
 1.5000e+000 100297 -5.0103e+002 -4.0583e+002  3.3064e+002 32944 99548,100248,99574
 1.5000e+000 100754 -2.6705e+002 -2.5383e+002  1.1313e+002 32369 100777,100584,100506
 1.5000e+000 100731 -2.4007e+002 -3.6207e+002  2.4413e+002 32369 100777,100506,100636
 1.5000e+000 100708 -4.2065e+002 -3.6391e+002  2.5960e+002 32369 100480,100636,100506
 1.5000e+000 100685 -4.9366e+002 -3.1723e+002  5.3235e+001 32369 100532,100584,100558
 1.5000e+000 100662 -2.9238e+002 -2.9538e+002  1.2439e+002 32369 100506,100584,100532
 1.5000e+000 100803 -2.6326e+002 -6.6189e+001  1.0584e+002 32369 100610,100584,100777
 1.5000e+000 100826 -2.2957e+002 -1.9127e+002  2.1846e+002 32369 100610,100777,100636
 1.5000e+000 101025 -4.2922e+002 -3.4683e+002  3.2521e+002 31857 100875,100927,100901
 1.5000e+000 101002 -7.7181e+002 -3.0790e+002  2.9722e+002 31857 100875,100953,100927
 1.5000e+000 100979 -8.2109e+002 -4.0219e+002  2.6013e+002 31857 100849,100953,100875
 1.5000e+000 101533 -3.6861e+002 -4.4998e+002  3.3653e+002 31253 101556,101314,101236
 1.5000e+000 101510 -5.1170e+002 -4.8328e+002  3.3340e+002 31253 101556,101236,101210
 1.5000e+000 101487 -4.8572e+002 -4.6929e+002  1.6285e+002 31253 101210,101392,101340
 1.5000e+000 101464 -2.5916e+002 -4.0062e+002  2.9784e+002 31253 101236,101288,101262
 1.5000e+000 101441 -3.2946e+002 -5.7788e+002  3.0683e+002 31253 101236,101314,101288
 1.5000e+000 101418 -4.8276e+002 -5.6269e+002  3.0373e+002 31253 101340,101392,101366
 1.5000e+000 101582 -4.0930e+002 -4.2478e+002  2.1060e+002 31253 101340,101314,101556
 1.5000e+000 101605 -5.5491e+002 -4.5205e+002  2.1324e+002 31253 101340,101556,101210
 1.5000e+000 101755  1.3355e+002  8.6291e+001  1.2810e+002 30519 101778,101654,101628
 1.5000e+000 101732 -1.3062e+002  1.4619e+002 -9.2978e+000 30519 101850,101778,101628
 1.5000e+000 101804 -9.5786e+001 -1.4249e+002  2.8126e+001 30519 101680,101654,101778
 1.5000e+000 101827 -2.4058e+002  7.2504e+001 -2.1711e+000 30519 101680,101778,101706
 1.5000e+000 101876 -2.0190e+002 -2.0407e+001 -8.6316e+000 30519 101706,101778,101850
 1.5000e+000 102561 -3.1758e+002 -4.5469e+002  2.1897e+002 29951 102656,102584,102270
 1.5000e+000 102538 -7.5099e+002 -8.7129e+002  1.7652e+002 29951 102584,102140,102374
 1.5000e+000 102515 -4.7267e+002 -8.9464e+002  4.3759e+002 29951 102728,102656,102270
 1.5000e+000 102492 -4.8028e+002 -1.0633e+003  4.2978e+002 29951 102728,102270,102244
 1.5000e+000 102469 -6.0513e+002 -1.7933e+002  2.8483e+002 29951 102800,102322,102296
 1.5000e+000 102446 -6.7887e+002 -4.8752e+002  1.2787e+002 29951 102166,102218,102192
 1.5000e+000 102423 -5.3536e+002 -5.0685e+002  8.2104e+001 29951 102166,102244,102218
 1.5000e+000 102400 -3.5914e+002 -4.3108e+002  2.7826e+002 29951 102322,102374,102348
 1.5000e+000 102610 -7.4124e+002 -3.7263e+002  1.1759e+002 29951 102296,102270,102584
 1.5000e+000 102633 -8.0227e+002 -4.0231e+002  1.7808e+002 29951 102800,102296,102584
 1.5000e+000 102682 -8.4821e+002 -7.9129e+002  3.9455e+002 29951 102140,102584,102656
 1.5000e+000 102705 -5.6956e+002 -8.0747e+002  5.5352e+002 29951 102140,102656,102166
 1.5000e+000 102754 -4.7476e+002 -6.9827e+002  5.1133e+002 29951 102166,102656,102728
 1.5000e+000 102777 -4.8810e+002 -8.3829e+002  4.6860e+002 29951 102166,102728,102244
 1.5000e+000 102826 -4.0930e+002 -4.2393e+002  3.9550e+002 29951 102374,102322,102800
 1.5000e+000 102849 -4.9296e+002 -4.6942e+002  3.3532e+002 29951 102374,102800,102584
 1.5000e+000 103048  1.9004e+001 -2.1585e+002  1.0312e+002 29454 102872,102924,102898
 1.5000e+000 103025 -8.1656e+001 -4.1363e+002  1.6810e+002 29454 102872,102976,102924
 1.5000e+000 103002 -2.3379e+002 -6.5633e+002  8.9359e+001 29454 102924,102976,102950
 1.5000e+000 103296 -7.0490e+002 -5.0905e+002  3.7521e+002 29064 103319,103175,103123
 1.5000e+000 103273 -9.4336e+002 -5.1892e+002  4.2652e+002 29064 103319,103123,103071
 1.5000e+000 103250 -4.3144e+002 -3.2017e+002  2.8047e+002 29064 103123,103175,103149
 1.5000e+000 103227 -7.1671e+002 -4.5862e+002  5.2344e+002 29064 103071,103123,103097
 1.5000e+000 103345 -4.8475e+002 -5.6801e+002  2.7267e+002 29064 103201,103175,103319
 1.5000e+000 103368 -7.8137e+002 -5.4917e+002  2.3638e+002 29064 103201,103319,103071
 1.5000e+000 104006 -5.6046e+002 -2.7510e+002  2.1443e+002 28603 104101,104029,103712
 1.5000e+000 103983 -5.2495e+002 -2.0233e+002  1.9004e+002 28603 104173,104029,103660
 1.5000e+000 103960 -6.7346e+002 -2.2125e+002  2.0074e+002 28603 104101,103712,103686
 1.5000e+000 103937 -4.4083e+002 -2.9788e+002  1.7157e+002 28603 104173,103660,103634
 1.5000e+000 103914 -5.4670e+002 -2.9599e+002  2.8721e+002 28603 103764,103816,103790
 1.5000e+000 103891 -4.3902e+002 -3.1835e+002  2.9989e+002 28603 103634,103842,103816
 1.5000e+000 103868 -4.1967e+002 -1.6447e+002  2.6363e+002 28603 103712,103764,103738
 1.5000e+000 104055 -5.3784e+002 -2.1682e+002  2.0928e+002 28603 103764,103712,104029
 1.5000e+000 104078 -5.2440e+002 -2.3833e+002  2.7887e+002 28603 103764,104029,103816
 1.5000e+000 104127 -7.1052e+002 -2.7759e+002  1.6578e+002 28603 103660,104029,104101
 1.5000e+000 104150 -8.8509e+002 -2.5834e+002  1.8152e+002 28603 103660,104101,103686
 1.5000e+000 104199 -5.9339e+002 -2.9072e+002  2.2001e+002 28603 103816,104029,104173
 1.5000e+000 104222 -5.0013e+002 -3.6344e+002  1.9845e+002 28603 103816,104173,103634
 1.5000e+000 104600 -2.8435e+002 -5.4507e+002  1.2820e+002 28348 104623,104378,104326
 1.5000e+000 104577 -2.3161e+002 -5.7007e+002  2.3061e+002 28348 104623,104326,104482
 1.5000e+000 104554 -2.4840e+002 -3.5394e+002  9.8342e+001 28348 104326,104378,104352
 1.5000e+000 104531 -3.0733e+002 -1.3078e-001  5.6132e+000 28348 104404,104456,104430
 1.5000e+000 104508 -3.8662e+002 -2.2557e+002  1.9706e+002 28348 104378,104456,104404
 1.5000e+000 104649 -2.3886e+002 -4.5304e+002  1.6414e+002 28348 104456,104378,104623
 1.5000e+000 104672 -1.7013e+002 -4.6124e+002  2.6933e+002 28348 104456,104623,104482
 1.5000e+000 104991 -5.7596e+002 -5.7397e+002  4.2666e+002 27951 104717,104847,104769
 1.5000e+000 104968 -1.6542e+002 -3.9846e+002  4.0116e+002 27951 104717,104873,104847
 1.5000e+000 104945 -1.9932e+002 -4.6475e+002  4.6892e+002 27951 104769,104847,104795
 1.5000e+000 104922  3.0366e+001  9.7154e+001  4.4177e+002 27951 104795,104847,104821
 1.5000e+000 104899 -5.3449e+002 -4.0320e+002  4.6052e+002 27951 104717,104769,104743
 1.5000e+000 105371 -5.5439e+002 -2.8829e+002  2.9325e+002 27447 105394,105201,105123
 1.5000e+000 105348 -7.0166e+002 -2.7842e+002  3.6791e+002 27447 105394,105123,105097
 1.5000e+000 105325 -9.1955e+002 -3.1595e+002  2.7742e+002 27447 105123,105201,105149
 1.5000e+000 105302 -4.9764e+002 -4.2442e+002  2.7454e+002 27447 105201,105253,105227
 1.5000e+000 105279 -5.1711e+002 -5.6604e+002  5.3850e+001 27447 105149,105201,105175
 1.5000e+000 105420 -4.6310e+002 -2.6516e+002  2.3670e+002 27447 105253,105201,105394
 1.5000e+000 105443 -5.9934e+002 -2.1963e+002  2.9787e+002 27447 105253,105394,105097
 1.5000e+000 105998 -5.2413e+002 -3.7914e+002  3.8128e+002 27100 106165,106021,105704
 1.5000e+000 105975 -2.7747e+002 -2.0347e+002  3.3926e+002 27100 106309,106021,105652
 1.5000e+000 105952 -9.1474e+002 -6.3117e+002  6.4901e+002 27100 106093,105808,105782
 1.5000e+000 105929 -5.2314e+002 -3.9311e+002  3.7718e+002 27100 106165,105704,105678
 1.5000e+000 105906 -2.8092e+002 -5.0317e+002  2.8365e+002 27100 106237,105730,105704
 1.5000e+000 105883 -2.5381e+002 -3.7033e+002  2.3914e+002 27100 106309,105652,105626
 1.5000e+000 105860 -1.7063e+002 -1.4163e+001  5.4542e+001 27100 105730,105782,105756
 1.5000e+000 106047 -4.7797e+002 -2.6548e+002  3.8583e+002 27100 106237,105704,106021
 1.5000e+000 106070 -5.4205e+002 -2.7723e+002  4.9799e+002 27100 106093,105782,106021
 1.5000e+000 106119 -3.8710e+002 -5.3148e+002  3.2880e+002 27100 105834,105808,106093
 1.5000e+000 106142 -4.3971e+002 -6.5882e+002  4.4630e+002 27100 106381,106093,106021
 1.5000e+000 106191 -5.2457e+002 -3.5074e+002  4.0200e+002 27100 105652,106021,106165
 1.5000e+000 106214 -5.3424e+002 -3.8984e+002  4.0408e+002 27100 105652,106165,105678
 1.5000e+000 106263 -1.0706e+002 -2.6437e+002  2.0777e+002 27100 105782,105730,106237
 1.5000e+000 106286 -3.4558e+002 -8.7777e+001  3.2797e+002 27100 105782,106237,106021
 1.5000e+000 106335 -3.7991e+002 -4.3236e+002  3.6785e+002 27100 106381,106021,106309
 1.5000e+000 106358 -2.6471e+002 -3.3500e+002  2.2967e+002 27100 105834,106309,105626
 1.5000e+000 106407 -3.0618e+002 -4.0014e+002  2.9074e+002 27100 105834,106093,106381
 1.5000e+000 106430 -3.1199e+002 -3.5784e+002  2.0652e+002 27100 105834,106381,106309
 1.5000e+000 106629 -4.2834e+001 -4.6001e+002  1.3790e+002 26688 106479,106557,106531
 1.5000e+000 106606 -1.6486e+001 -2.4949e+002  1.5677e+002 26688 106453,106557,106479
 1.5000e+000 106583 -2.0861e+002 -5.1406e+002  5.9690e+001 26688 106479,106531,106505
 1.5000e+000 107088 -2.5014e+002 -2.0625e+002  1.1893e+002 26248 107111,106918,106866
 1.5000e+000 107065 -2.7003e+002 -1.7895e+002  1.3919e+002 26248 107111,106866,106840
 1.5000e+000 107042 -2.1668e+002 -1.5128e+002  1.3594e+002 26248 106814,106970,106840
 1.5000e+000 107019 -2.3682e+002 -3.8232e+002  1.8894e+002 26248 106866,106918,106892
 1.5000e+000 106996 -4.1641e+002 -2.9393e+002  1.0980e+002 26248 106918,106970,106944
 1.5000e+000 107137 -2.8529e+002 -2.4408e+002  9.1580e+001 26248 106970,106918,107111
 1.5000e+000 107160 -2.7793e+002 -1.8957e+002  1.1564e+002 26248 106970,107111,106840
 1.5000e+000 107666 -6.8785e+002 -2.8413e+002  1.9789e+002 25908 107369,107499,107395
 1.5000e+000 107643 -9.3493e+002 -8.2976e+002  4.2768e+002 25908 107369,107525,107499
 1.5000e+000 107620 -5.7262e+002 -3.6318e+002  2.9593e+002 25908 107395,107473,107447
 1.5000e+000 107597 -4.9089e+002 -1.9627e+002  2.1438e+002 25908 107395,107499,107473
 1.5000e+000 107574 -9.6920e+002 -4.3236e+002  6.4160e+002 25908 107395,107447,107421
 1.5000e+000 107551 -3.8140e+002 -6.3936e+002  3.7170e+002 25908 107343,107525,107369
 1.5000e+000 108251 -5.3979e+002 -1.5348e+002  2.9690e+002 25454 108274,108006,107954
 1.5000e+000 108228 -4.3342e+002 -6.7433e+001  2.3118e+002 25454 108274,107954,108110
 1.5000e+000 108205 -3.9568e+002 -3.9777e+002  3.5723e+002 25454 108346,108032,108006
 1.5000e+000 108182 -6.9433e+002 -2.8731e+002  3.8411e+002 25454 107954,108006,107980
 1.5000e+000 108159 -2.5701e+002 -2.3296e+002  2.0847e+002 25454 107928,108110,107954
 1.5000e+000 108136 -7.5575e+002 -6.3409e+002  4.0873e+002 25454 108058,108110,108084
 1.5000e+000 108300 -5.2122e+002 -2.6895e+002  3.5817e+002 25454 108346,108006,108274
 1.5000e+000 108323 -4.6334e+002 -1.5982e+002  2.7007e+002 25454 108058,108274,108110
 1.5000e+000 108372 -2.4469e+002 -2.5555e+002  2.9860e+002 25454 108058,108032,108346
 1.5000e+000 108395 -3.7978e+002 -1.1122e+002  2.9809e+002 25454 108058,108346,108274
 1.5000e+000 108822 -3.7198e+002 -1.9054e+002  1.9376e+002 24943 108525,108681,108655
 1.5000e+000 108799 -4.6664e+002 -2.8222e+002  1.0494e+002 24943 108499,108681,108525
 1.5000e+000 108776 -2.1463e+002 -1.3459e+002  1.4829e+002 24943 108525,108655,108629
 1.5000e+000 108753 -3.5069e+002 -1.3835e+002  1.4530e+002 24943 108525,108629,108603
 1.5000e+000 108730 -6.4085e+002 -2.0914e+002  2.3303e+002 24943 108551,108603,108577
 1.5000e+000 108707 -6.4536e+002 -3.8465e+002  3.3827e+002 24943 108525,108603,108551
 1.5000e+000 109407 -2.8468e+001 -1.0581e+002  5.5756e+001 24745 109162,109214,109188
 1.5000e+000 109384 -2.2931e+002 -8.5178e+001  8.4822e+001 24745 109162,109266,109214
 1.5000e+000 109361 -2.7326e+002 -1.1141e+002  4.1407e+001 24745 109084,109266,109162
 1.5000e+000 109338 -4.2586e+002 -6.1337e+001  9.5610e+001 24745 109084,109162,109136
 1.5000e+000 109315 -1.0349e+002 -1.8601e+002  1.1133e+002 24745 109214,109266,109240
 1.5000e+000 109292 -3.1251e+002 -8.6650e+001  1.6531e+002 24745 109084,109136,109110
 1.5000e+000 109785 -8.0750e+002 -3.6987e+002  4.6131e+002 24341 109537,109615,109563
 1.5000e+000 109762 -9.1830e+001 -1.9411e+002  4.4068e+002 24341 109537,109641,109615
 1.5000e+000 109739 -5.4556e+002 -3.9261e+002  3.5042e+002 24341 109563,109615,109589
 1.5000e+000 109716 -3.5047e+002 -3.6141e+002  2.9384e+002 24341 109537,109667,109641
 1.5000e+000 109693 -1.9337e+002 -4.0940e+002  2.7668e+002 24341 109511,109667,109537
 1.5000e+000 110163 -7.5463e+002 -3.8874e+002  4.6623e+002 23837 110186,109967,109915
 1.5000e+000 110140 -7.2252e+002 -3.8577e+002  4.7592e+002 23837 110186,109915,109889
 1.5000e+000 110117 -3.0620e+002 -1.3787e+002  3.5904e+002 23837 109889,110045,109993
 1.5000e+000 110094 -6.9123e+002 -6.4323e+002  3.1651e+002 23837 109915,109967,109941
 1.5000e+000 110071 -3.9957e+002 -8.8872e+000  5.9039e+001 23837 109993,110045,110019
 1.5000e+000 110212 -7.3563e+002 -3.7615e+002  4.7963e+002 23837 109993,109967,110186
 1.5000e+000 110235 -7.2340e+002 -3.7869e+002  4.9063e+002 23837 109993,110186,109889
 1.5000e+000 110336 -4.4663e+002 -9.8234e+002  5.1958e+002 23433 110258,110310,110284
 1.5000e+000 110584 -5.9562e+002 -3.7433e+002  2.5258e+002 22829 110607,110411,110385
 1.5000e+000 110561 -7.2095e+002 -4.3088e+002  3.1279e+002 22829 110607,110385,110489
 1.5000e+000 110538 -5.2090e+002 -4.0035e+002  1.9168e+002 22829 110437,110489,110463
 1.5000e+000 110515 -5.4840e+002 -2.7433e+002  3.8570e+002 22829 110359,110489,110385
 1.5000e+000 110633 -6.0069e+002 -3.1881e+002  1.6165e+002 22829 110437,110411,110607
 1.5000e+000 110656 -6.6978e+002 -3.6902e+002  2.1958e+002 22829 110437,110607,110489
 1.5000e+000 110906 -1.1547e+003 -4.7943e+002  3.0835e+002 22432 110707,110759,110733
 1.5000e+000 110883 -7.5469e+002 -5.0226e+002  2.5130e+002 22432 110707,110785,110759
 1.5000e+000 110860 -7.5278e+002 -4.3942e+002  4.0802e+002 22432 110707,110811,110785
 1.5000e+000 110837 -9.1344e+002 -6.2923e+002  3.2858e+002 22432 110681,110811,110707
 1.5000e+000 111288 -9.1304e+001 -1.8864e+002  1.9014e+002 22142 111092,111144,111118
 1.5000e+000 111265 -3.1139e+002 -2.3913e+002  1.8868e+002 22142 111066,111144,111092
 1.5000e+000 111242 -2.8429e+002 -1.9852e+002  1.6000e+002 22142 111040,111144,111066
 1.5000e+000 111219 -5.3320e+002 -4.8183e+001  1.0635e+002 22142 111014,111144,111040
 1.5000e+000 111196 -3.4332e+002  1.4393e+001  1.2702e+002 22142 111014,111170,111144
 1.5000e+000 111389  2.1013e+001 -7.5536e+001  2.4861e+002 21830 111311,111363,111337
 1.5000e+000 111735 -6.4069e+002  4.3539e+001  5.1832e+002 21268 111758,111542,111438
 1.5000e+000 111712 -4.8766e+002  7.7403e+001  3.3217e+002 21268 111758,111438,111412
 1.5000e+000 111689 -1.9785e+002 -3.1568e+002  6.4472e+002 21268 111438,111542,111464
 1.5000e+000 111666  9.7677e+001 -1.4914e+002  8.1343e+002 21268 111464,111542,111490
 1.5000e+000 111643 -1.1893e+003 -6.0829e+002  5.7971e+002 21268 111412,111594,111568
 1.5000e+000 111620  5.3875e+002  3.9122e+002  1.0271e+003 21268 111490,111542,111516
 1.5000e+000 111784 -6.6675e+002 -6.9358e+001  5.1334e+002 21268 111568,111542,111758
 1.5000e+000 111807 -6.5314e+002 -3.0941e+002  3.8722e+002 21268 111568,111758,111412
 1.5000e+000 111959 -6.1867e+002 -7.3367e+001  2.1482e+002 20864 111982,111910,111884
 1.5000e+000 111936 -5.6452e+002 -9.7399e+001  3.1613e+002 20864 112114,111832,111910
 1.5000e+000 112008 -6.0400e+002 -2.1492e+002  2.7150e+002 20864 112114,111910,111982
 1.5000e+000 112140 -5.5017e+002 -2.3257e+002  2.5190e+002 20864 111858,111832,112114
 1.5000e+000 112163 -5.9989e+002 -3.7559e+002  2.1096e+002 20864 111858,112114,111982
 1.5000e+000 112411 -5.7067e+001 -1.2422e+001  2.0510e+001 20324 112186,112290,112212
 1.5000e+000 112388 -9.0451e+000 -4.2226e+000  3.4462e+001 20324 112186,112316,112290
 1.5000e+000 112365  3.0892e+002 -2.0203e+002  3.0981e+001 20324 112212,112290,112264
 1.5000e+000 112342 -1.0188e+003 -4.3586e+002 -7.0759e+001 20324 112212,112264,112238
 1.5000e+000 112659 -1.3201e+002 -4.0606e+001  3.2008e+002 19920 112512,112564,112538
 1.5000e+000 112636 -3.9012e+002 -1.6177e+002  2.2237e+002 19920 112434,112564,112512
 1.5000e+000 112613 -4.0012e+002 -2.4429e+002  2.5402e+002 19920 112434,112512,112460
 1.5000e+000 112590 -4.2240e+002 -2.5946e+002  2.6192e+002 19920 112460,112512,112486
 1.5000e+000 112811 -1.2116e+002 -4.7939e+001  1.5991e+002 19630 112684,112736,112710
 1.5000e+000 112788  5.7224e+001 -1.9955e+002  6.9582e+001 19630 112684,112762,112736
 1.5000e+000 113012 -3.5028e+002 -1.2994e+002  3.5847e+002 19169 112862,112940,112888
 1.5000e+000 112989 -5.8386e+002 -4.6390e+002  2.5515e+002 19169 112836,112940,112862
 1.5000e+000 112966 -3.4040e+002 -4.3529e+002  3.1605e+002 19169 112888,112940,112914
 1.5000e+000 113213 -8.8511e+002 -3.5490e+002  3.9087e+002 18600 113037,113089,113063
 1.5000e+000 113190 -5.8079e+002 -2.4198e+002  3.1315e+002 18600 113037,113115,113089
 1.5000e+000 113167 -1.0323e+003 -6.5249e+002  5.8784e+002 18600 113037,113141,113115
 1.5000e+000 113485 -3.9648e+002 -1.4751e+002  3.7735e+002 18352 113260,113312,113286
 1.5000e+000 113462 -7.8971e+002 -4.5034e+002  5.0959e+002 18352 113260,113390,113312
 1.5000e+000 113439 -7.4309e+002 -1.4762e+002  3.6943e+002 18352 113312,113390,113364
 1.5000e+000 113416 -2.9856e+002 -1.0407e+002  3.8991e+002 18352 113312,113364,113338
 1.5000e+000 113757 -5.5335e+002 -2.1514e+002  3.7298e+002 17834 113558,113610,113584
 1.5000e+000 113734 -8.0366e+002 -4.3977e+002  4.9074e+002 17834 113532,113610,113558
 1.5000e+000 113711 -8.1866e+002 -5.2576e+002  3.9802e+002 17834 113532,113662,113610
 1.5000e+000 113688 -4.1294e+002 -1.2760e+002  5.5937e+002 17834 113610,113662,113636
 1.5000e+000 113958 -5.0595e+002 -2.0468e+002  2.7752e+002 17330 113782,113834,113808
 1.5000e+000 113935 -2.8986e+002 -1.7644e+002  2.0995e+002 17330 113782,113886,113834
 1.5000e+000 113912 -3.5151e+002 -1.6197e+002  1.3526e+002 17330 113834,113886,113860
 1.5000e+000 114110 -7.8550e+002 -2.9587e+002  5.0443e+002 16874 113983,114035,114009
 1.5000e+000 114087 -3.0919e+002 -7.0083e+002  4.5548e+002 16874 113983,114061,114035
 1.5000e+000 114465 -7.9587e+002 -3.3582e+002  1.8207e+002 16270 114240,114292,114266
 1.5000e+000 114442 -5.0954e+002 -1.1189e+002  7.8954e+001 16270 114240,114370,114292
 1.5000e+000 114419 -2.6268e+002 -1.0879e+002  1.5586e+002 16270 114292,114344,114318
 1.5000e+000 114396 -5.1980e+002 -2.3876e+002  8.4125e+001 16270 114292,114370,114344
 1.5000e+000 114566 -5.1836e+001  5.1836e+001  6.8975e+002 15834 114488,114540,114514
 1.5000e+000 114667 -5.0391e+002 -2.0015e+002  3.1639e+002 15155 114589,114641,114615
 1.5000e+000 114890 -4.2904e+002 -1.5653e+002  4.1611e+002 421 114766,114818,114792
 1.5000e+000 114867 -6.2277e+002 -5.2281e+002  3.4103e+002 421 114714,114818,114766
 1.5000e+000 114844 -8.3385e+002 -3.5141e+002  1.9320e+002 421 114714,114766,114740
 1.6000e+000 66553 -5.0967e+002 -2.1991e+002  2.7451e+002 66108 66354,66458,66432
 1.6000e+000 66530 -5.2469e+002 -2.1976e+002  1.8566e+002 66108 66328,66458,66354
 1.6000e+000 66507 -2.9372e+002 -2.2402e+002  1.8130e+002 66108 66354,66432,66406
 1.6000e+000 66484  1.2635e+002  7.1572e+001  3.3622e+002 66108 66354,66406,66380
 1.6000e+000 66951 -3.3701e+002 -1.3945e+002  1.7935e+002 65910 66703,66833,66807
 1.6000e+000 66928 -4.9907e+001 -9.4512e+001  2.2534e+002 65910 66677,66833,66703
 1.6000e+000 66905 -2.0625e+002 -4.2823e+002  2.9363e+002 65910 66729,66781,66755
 1.6000e+000 66882 -7.8822e+002 -3.2602e+002  2.7235e+002 65910 66729,66807,66781
 1.6000e+000 66859 -5.2109e+002 -7.3594e+001  1.6564e+002 65910 66703,66807,66729
 1.6000e+000 67150 -4.5745e+002 -1.9622e+002  1.9378e+001 65712 67026,67078,67052
 1.6000e+000 67127 -2.7056e+002 -1.1761e+002 -1.9129e+001 65712 66974,67078,67026
 1.6000e+000 67104 -6.3337e+002 -2.2599e+002 -6.3686e+001 65712 66974,67026,67000
 1.6000e+000 67481 -1.0270e+003 -2.0478e+002  3.5234e+002 65422 67282,67360,67334
 1.6000e+000 67458 -4.6086e+002 -1.4739e+002  5.6301e+002 65422 67282,67386,67360
 1.6000e+000 67435 -2.6663e+002  1.1081e+002  3.1215e+002 65422 67282,67334,67308
 1.6000e+000 67412  5.5554e+001 -1.2813e+002  2.5697e+002 65422 67256,67386,67282
 1.6000e+000 68115 -2.0589e+002 -1.8203e+002  1.0889e+002 65018 67795,67925,67873
 1.6000e+000 68092 -2.7491e+002 -2.1558e+002  7.8676e+001 65018 67769,67925,67795
 1.6000e+000 68069 -1.7933e+002 -1.5468e+002  1.2028e+002 65018 67873,67925,67899
 1.6000e+000 68046 -3.5583e+002 -3.0488e+002  1.1769e+002 65018 67769,67951,67925
 1.6000e+000 68023 -3.1938e+002 -2.4949e+002  1.6035e+002 65018 67795,67873,67821
 1.6000e+000 68000 -3.7751e+002 -2.5162e+002  1.3676e+002 65018 67821,67873,67847
 1.6000e+000 67977 -5.4911e+002 -3.8366e+002  1.0510e+002 65018 67743,67951,67769
 1.6000e+000 68363 -2.5575e+002 -5.2589e+002  5.4532e+002 64820 68190,68242,68216
 1.6000e+000 68340 -5.6069e+002 -4.0431e+002  5.7398e+002 64820 68190,68268,68242
 1.6000e+000 68317 -3.1267e+002 -2.8602e+002  6.1753e+002 64820 68164,68268,68190
 1.6000e+000 68294 -1.1246e+003 -4.5372e+002  4.1835e+002 64820 68138,68268,68164
 1.6000e+000 68513 -5.1631e+002 -2.6560e+002  2.9805e+002 64366 68868,68536,68438
 1.6000e+000 68490 -3.2024e+002 -1.6432e+002  2.0119e+002 64366 68536,68412,68386
 1.6000e+000 68562 -6.9332e+002 -3.0236e+002  3.2588e+002 64366 68740,68536,68464
 1.6000e+000 68585 -4.6346e+002 -2.1425e+002  2.5521e+002 64366 68608,68536,68386
 1.6000e+000 68634 -5.6569e+002 -4.2852e+002  2.2553e+002 64366 68464,68536,68608
 1.6000e+000 68766 -4.9353e+002 -2.1092e+002  2.9459e+002 64366 68438,68536,68740
 1.6000e+000 68894 -4.6112e+002 -1.9291e+002  3.2244e+002 64366 68412,68536,68868
 1.6000e+000 69172 -5.7003e+001 -5.5542e+002  1.0806e+002 64168 69022,69074,69048
 1.6000e+000 69149 -6.5028e+002 -2.6895e+002  2.4893e+002 64168 68996,69074,69022
 1.6000e+000 69126 -7.6358e+002 -5.2054e+002  1.6610e+002 64168 68996,69100,69074
 1.6000e+000 69371 -5.1182e+002 -1.8112e+002  3.5629e+002 63970 69466,69394,69273
 1.6000e+000 69348 -2.5206e+002 -1.3714e+002  1.1058e+002 63970 69394,69247,69221
 1.6000e+000 69325 -9.2019e+002 -3.8556e+002  2.3475e+002 63970 69195,69299,69221
 1.6000e+000 69420 -7.4223e+002 -2.9527e+002  4.4983e+002 63970 69299,69273,69394
 1.6000e+000 69443 -4.7978e+002 -3.7026e+002  2.4666e+002 63970 69299,69394,69221
 1.6000e+000 69492 -5.3425e+002 -2.2024e+002  3.4721e+002 63970 69247,69394,69466
 1.6000e+000 69904 -2.6450e+001 -1.8372e+002  9.9341e+001 63680 69705,69783,69731
 1.6000e+000 69881  2.7971e+001 -1.3139e+002  6.5704e+001 63680 69679,69783,69705
 1.6000e+000 69858 -1.9064e+002 -2.6135e+002  1.2788e+002 63680 69679,69809,69783
 1.6000e+000 69835 -1.0389e+002 -1.3223e+002  1.0255e+002 63680 69731,69783,69757
 1.6000e+000 70054 -2.6513e+001 -3.0348e+002  1.9680e+002 63476 70077,69953,69927
 1.6000e+000 70031  6.1268e+001 -1.2648e+002  2.7942e+002 63476 70077,69927,70005
 1.6000e+000 70103 -1.5652e+002 -1.8938e+002  1.2170e+002 63476 69979,69953,70077
 1.6000e+000 70126 -8.6251e+001 -3.1288e+001  1.9121e+002 63476 69979,70077,70005
 1.6000e+000 70325 -1.0133e+003 -4.0598e+002  4.3465e+002 63278 70149,70227,70175
 1.6000e+000 70302 -4.8607e+002 -1.7075e+002  4.8963e+002 63278 70149,70253,70227
 1.6000e+000 70279 -1.2080e+003 -5.5225e+002  2.5131e+002 63278 70175,70227,70201
 1.6000e+000 70597 -4.6488e+002  2.5559e+000  1.6500e+002 63080 70372,70476,70424
 1.6000e+000 70574 -2.7579e+002 -1.1051e+002  2.2188e+002 63080 70372,70502,70476
 1.6000e+000 70551 -6.8894e+002 -2.8160e+002  2.9354e+002 63080 70424,70476,70450
 1.6000e+000 70528 -1.0415e+003 -2.9343e+002  4.7016e+002 63080 70372,70424,70398
 1.6000e+000 70847 -5.3253e+001 -2.3724e+002  9.8660e+001 62740 70870,70648,70622
 1.6000e+000 70824 -1.9359e+002 -1.8354e+002  1.5344e+002 62740 70870,70622,70752
 1.6000e+000 70801 -8.1531e+001 -3.4417e+002  1.8213e+002 62740 70648,70726,70700
 1.6000e+000 70778 -1.0183e+002 -4.0719e+002  1.8827e+002 62740 70648,70700,70674
 1.6000e+000 70896 -1.8561e+002 -3.0031e+002  7.4813e+001 62740 70726,70648,70870
 1.6000e+000 70919 -2.5429e+002 -2.0179e+002  1.4853e+002 62740 70726,70870,70752
 1.6000e+000 71022 -5.8962e+001  5.8962e+001  7.3536e+002 62520 70944,70996,70970
 1.6000e+000 71223 -8.4326e+002 -3.7386e+002  5.2174e+002 62230 71073,71151,71099
 1.6000e+000 71200 -7.6041e+002 -3.4782e+002  5.1733e+002 62230 71047,71151,71073
 1.6000e+000 71177 -4.5926e+002 -6.5414e+002  4.3984e+002 62230 71099,71151,71125
 1.6000e+000 71861 -3.4353e+002 -4.6689e+002 -5.0524e+000 61712 71515,71697,71671
 1.6000e+000 71838 -4.0416e+002 -5.8219e+002  9.6186e+001 61712 71489,71697,71515
 1.6000e+000 71815 -1.0872e+003 -4.6048e+002  3.1407e+002 61712 71884,71541,71515
 1.6000e+000 71792 -7.3180e+002 -2.5406e+002  2.2967e+002 61712 71884,71515,71671
 1.6000e+000 71769 -2.6497e+002 -6.6432e+002  2.8633e+002 61712 71541,71619,71593
 1.6000e+000 71746 -2.8487e+002 -8.4647e+002  1.3284e+002 61712 71619,71671,71645
 1.6000e+000 71723 -9.9583e+002 -1.0719e+003  6.0862e+002 61712 71541,71593,71567
 1.6000e+000 71910 -7.5811e+002 -6.6790e+002  4.7908e+002 61712 71619,71541,71884
 1.6000e+000 71933 -5.2644e+002 -5.3392e+002  4.2462e+002 61712 71619,71884,71671
 1.6000e+000 72230 -3.9025e+002 -2.1083e+002  7.3132e+001 61208 72253,72060,72008
 1.6000e+000 72207 -3.7344e+002 -1.3865e+002  6.7405e+001 61208 72253,72008,71982
 1.6000e+000 72184 -3.3339e+002 -7.4061e+001  5.8550e+001 61208 71982,72112,72086
 1.6000e+000 72161 -6.7229e+002 -2.0860e+002  1.6123e+002 61208 72008,72060,72034
 1.6000e+000 72138 -2.3418e+002 -6.2863e+001  1.1884e+002 61208 71956,72112,71982
 1.6000e+000 72279 -3.8614e+002 -1.6051e+002  4.1181e+001 61208 72086,72060,72253
 1.6000e+000 72302 -3.9072e+002 -1.1903e+002  3.5232e+001 61208 72086,72253,71982
 1.6000e+000 72761 -5.5846e+002 -2.8321e+002  2.0306e+002 60804 72487,72617,72513
 1.6000e+000 72738 -5.5932e+002 -3.1717e+002  2.0274e+002 60804 72487,72643,72617
 1.6000e+000 72715 -2.2104e+002 -3.9190e+002  2.5516e+002 60804 72565,72617,72591
 1.6000e+000 72692 -4.5805e+002 -2.7558e+002  2.5062e+002 60804 72513,72617,72565
 1.6000e+000 72669 -4.5918e+002 -2.4686e+002  2.8394e+002 60804 72513,72565,72539
 1.6000e+000 72911 -5.8962e+001  5.8962e+001  7.3536e+002 60556 72784,72836,72810
 1.6000e+000 72888  5.8495e+002  1.8407e+002  4.7386e+002 60556 72784,72862,72836
 1.6000e+000 73468 -2.8797e+002 -2.9153e+002  1.9902e+002 60244 73491,73226,73200
 1.6000e+000 73445 -3.8354e+002 -3.1485e+002  2.9248e+002 60244 73563,73491,73200
 1.6000e+000 73422 -6.4066e+002 -2.2002e+002  3.0197e+002 60244 73563,73200,73174
 1.6000e+000 73399 -2.4705e+002 -3.0592e+002  1.6925e+002 60244 73226,73278,73252
 1.6000e+000 73376 -4.8662e+002 -3.0593e+002  2.1441e+002 60244 73122,73304,73278
 1.6000e+000 73353 -5.2122e+002 -4.9732e+002  2.3801e+002 60244 73096,73304,73122
 1.6000e+000 73330 -7.6637e+002 -1.9941e+002 -1.4985e+002 60244 73122,73174,73148
 1.6000e+000 73517 -5.1162e+002 -3.9443e+002  2.4191e+002 60244 73278,73226,73491
 1.6000e+000 73540 -4.7276e+002 -2.9091e+002  2.2132e+002 60244 73278,73491,73122
 1.6000e+000 73589 -7.7229e+002 -4.1068e+002  2.3537e+002 60244 73122,73491,73563
 1.6000e+000 73612 -1.0258e+003 -3.0792e+002  2.6028e+002 60244 73122,73563,73174
 1.6000e+000 73762 -4.4698e+002 -1.0417e+003  4.6861e+002 59875 73661,73713,73687
 1.6000e+000 73739 -6.6289e+002 -4.5267e+002  3.5946e+002 59875 73635,73713,73661
 1.6000e+000 74191 -1.7388e+002 -3.5901e+002  5.0703e+002 59478 74214,73894,73868
 1.6000e+000 74168 -4.2052e+002 -3.4638e+002  5.3307e+002 59478 74214,73868,74050
 1.6000e+000 74145 -3.4593e+002 -4.3799e+002  2.7401e+002 59478 73894,73946,73920
 1.6000e+000 74122 -3.7063e+002 -3.7895e+002  2.6572e+002 59478 73894,73998,73946
 1.6000e+000 74099 -1.1635e+003 -6.1895e+002  7.7110e+002 59478 73998,74050,74024
 1.6000e+000 74076 -4.9000e+002 -4.2046e+002  1.7170e+002 59478 73946,73998,73972
 1.6000e+000 74240 -4.0018e+002 -2.8533e+002  3.9266e+002 59478 73998,73894,74214
 1.6000e+000 74263 -6.3897e+002 -2.8729e+002  3.7931e+002 59478 73998,74214,74050
 1.6000e+000 74720 -5.0596e+002 -3.5748e+002  1.9240e+002 58774 74472,74602,74498
 1.6000e+000 74697 -4.8804e+002 -3.4399e+002  1.9838e+002 58774 74446,74602,74472
 1.6000e+000 74674 -5.1977e+002 -3.3427e+002  2.0498e+002 58774 74498,74576,74524
 1.6000e+000 74651 -4.9117e+002 -3.3536e+002  1.9921e+002 58774 74498,74602,74576
 1.6000e+000 74628 -5.5337e+002 -5.1240e+002  2.5715e+002 58774 74524,74576,74550
 1.6000e+000 75226 -4.3928e+002 -1.7121e+002  2.3600e+002 58270 74955,75085,75033
 1.6000e+000 75203 -3.0948e+002 -3.7286e+002  3.1310e+002 58270 74929,75085,74955
 1.6000e+000 75180 -4.2559e+002 -2.0893e+002  2.1856e+002 58270 75033,75085,75059
 1.6000e+000 75157 -5.9667e+002 -1.9980e+002  1.5255e+002 58270 74955,75007,74981
 1.6000e+000 75134 -3.0145e+002 -1.1636e+002  1.0399e+002 58270 74955,75033,75007
 1.6000e+000 75111 -5.2296e+001 -4.5950e+002  1.5735e+002 58270 74903,75085,74929
 1.6000e+000 75425 -2.2193e+002 -9.5002e+001  1.0393e+002 57830 75448,75301,75249
 1.6000e+000 75402 -1.6396e+002  1.4248e+001  5.4673e+001 57830 75448,75249,75353
 1.6000e+000 75379 -2.0503e+002 -3.3222e+002  9.2894e+001 57830 75520,75301,75275
 1.6000e+000 75474 -2.1442e+002 -1.6001e+002  1.6196e+002 57830 75327,75301,75448
 1.6000e+000 75497 -1.8919e+002 -1.1199e+002  1.1301e+002 57830 75327,75448,75353
 1.6000e+000 75546 -1.2719e+002 -6.1474e+001  3.0617e+001 57830 75249,75301,75520
 1.6000e+000 76261 -2.3373e+002 -3.5061e+002  2.2675e+002 57426 76284,76097,76071
 1.6000e+000 76238 -2.1927e+002 -2.7587e+002  2.4416e+002 57426 75889,76097,75915
 1.6000e+000 76215 -3.4213e+002 -3.8448e+002  2.3138e+002 57426 76428,76284,76071
 1.6000e+000 76192 -2.6165e+002 -3.3673e+002  1.5234e+002 57426 76356,75941,75915
 1.6000e+000 76169 -3.4897e+002 -3.3655e+002  2.2048e+002 57426 76428,76071,76019
 1.6000e+000 76146 -3.6158e+002 -3.8650e+002  2.1115e+002 57426 76019,76071,76045
 1.6000e+000 76123 -3.2603e+002 -3.2247e+002  2.9142e+002 57426 75967,76019,75993
 1.6000e+000 76310 -2.6720e+002 -4.3034e+002  1.9565e+002 57426 75915,76097,76284
 1.6000e+000 76333 -2.7248e+002 -3.7936e+002  1.5776e+002 57426 76356,75915,76284
 1.6000e+000 76382 -2.9832e+002 -2.7631e+002  1.9062e+002 57426 75967,75941,76356
 1.6000e+000 76405 -3.0289e+002 -3.0673e+002  1.8923e+002 57426 75967,76356,76284
 1.6000e+000 76454 -3.1443e+002 -3.4260e+002  2.1714e+002 57426 75967,76284,76428
 1.6000e+000 76477 -3.4466e+002 -3.1690e+002  2.1524e+002 57426 75967,76428,76019
 1.6000e+000 76953 -3.4165e+002 -6.7907e+002  3.4194e+002 56908 76976,76711,76685
 1.6000e+000 76930 -3.5640e+002 -6.9741e+002  2.9797e+002 56908 77048,76976,76685
 1.6000e+000 76907 -6.5328e+002 -7.3281e+002  4.3405e+002 56908 77048,76685,76633
 1.6000e+000 76884 -9.6994e+002 -1.0827e+003  6.4198e+002 56908 76711,76789,76763
 1.6000e+000 76861 -5.4300e+002 -4.4547e+002  2.3621e+002 56908 76581,76789,76607
 1.6000e+000 76838 -9.6014e+002 -7.9839e+002  2.2139e+002 56908 76711,76763,76737
 1.6000e+000 76815 -1.3484e+003 -1.1673e+003  7.3284e+002 56908 76633,76685,76659
 1.6000e+000 77002 -3.0650e+002 -6.7866e+002  3.9013e+002 56908 76789,76711,76976
 1.6000e+000 77025 -3.9423e+002 -4.4628e+002  1.9667e+002 56908 76789,76976,76607
 1.6000e+000 77074 -8.2080e+002 -6.7854e+002  2.9165e+002 56908 76607,76976,77048
 1.6000e+000 77097 -9.8073e+002 -5.8658e+002  4.1128e+002 56908 76607,77048,76633
 1.6000e+000 77475 -4.0797e+002 -6.4393e+002  3.8527e+002 56546 77570,77498,77279
 1.6000e+000 77452 -3.3687e+002 -7.7653e+002  4.7194e+002 56546 77498,77227,77357
 1.6000e+000 77429 -4.5435e+002 -6.8919e+002  4.3360e+002 56546 77570,77279,77253
 1.6000e+000 77406 -6.5148e+002 -9.1285e+002  4.8550e+002 56546 77201,77357,77227
 1.6000e+000 77383 -5.4276e+002 -6.7144e+002  2.4176e+002 56546 77279,77331,77305
 1.6000e+000 77524 -3.7232e+002 -4.3595e+002  3.6789e+002 56546 77331,77279,77498
 1.6000e+000 77547 -2.8187e+002 -5.9889e+002  5.3130e+002 56546 77331,77498,77357
 1.6000e+000 77596 -4.4691e+002 -6.5719e+002  4.7907e+002 56546 77227,77498,77570
 1.6000e+000 77619 -5.1487e+002 -7.9971e+002  5.2929e+002 56546 77227,77570,77253
 1.6000e+000 77818 -5.2285e+002 -5.2915e+002  3.8833e+002 56042 77841,77694,77668
 1.6000e+000 77795 -4.9263e+002 -4.9120e+002  2.7453e+002 56042 77841,77668,77746
 1.6000e+000 77772 -5.3845e+002 -8.0609e+002  2.5354e+002 56042 77642,77746,77668
 1.6000e+000 77867 -5.7455e+002 -6.1952e+002  4.1655e+002 56042 77720,77694,77841
 1.6000e+000 77890 -5.3447e+002 -5.6767e+002  3.0049e+002 56042 77720,77841,77746
 1.6000e+000 78349 -3.7187e+002 -1.1272e+002  1.7816e+002 55538 78075,78127,78101
 1.6000e+000 78326 -4.6318e+002 -2.3214e+002  1.0101e+002 55538 78075,78205,78127
 1.6000e+000 78303 -3.2734e+002 -1.0820e+002  4.3998e+001 55538 78075,78231,78205
 1.6000e+000 78280 -3.6639e+002 -3.5635e+002  2.2328e+002 55538 78127,78179,78153
 1.6000e+000 78257 -3.1196e+002 -2.2389e+002  9.7226e+001 55538 78127,78205,78179
 1.6000e+000 78806 -3.0241e+002 -4.0194e+002  1.1871e+002 55034 78829,78636,78610
 1.6000e+000 78783 -3.4758e+002 -3.8973e+002  1.3418e+002 55034 78901,78829,78610
 1.6000e+000 78760 -2.8081e+002 -3.9756e+002  1.5309e+002 55034 78901,78610,78584
 1.6000e+000 78737 -4.2268e+002 -3.4357e+002  1.3400e+002 55034 78558,78688,78662
 1.6000e+000 78714 -4.8410e+002 -3.6029e+002  3.5732e+002 55034 78532,78688,78558
 1.6000e+000 78855 -3.5712e+002 -4.8492e+002  8.8601e+001 55034 78662,78636,78829
 1.6000e+000 78878 -3.6020e+002 -3.8069e+002  1.4993e+002 55034 78662,78829,78558
 1.6000e+000 78927 -2.9840e+002 -3.4360e+002  1.7916e+002 55034 78558,78829,78901
 1.6000e+000 78950 -2.7561e+002 -3.6483e+002  2.0114e+002 55034 78558,78901,78584
 1.6000e+000 79407 -2.6915e+002 -1.0177e+002  2.5240e+002 54430 79430,79237,79159
 1.6000e+000 79384 -3.7185e+002 -3.0236e+002  8.7532e+001 54430 79430,79159,79133
 1.6000e+000 79361 -2.3023e+002 -2.0024e+002  1.1736e+002 54430 79237,79289,79263
 1.6000e+000 79338 -3.3624e+002 -1.8358e+002  2.2147e+002 54430 79185,79237,79211
 1.6000e+000 79315 -4.5448e+002 -1.8848e+002  2.9678e+002 54430 79159,79237,79185
 1.6000e+000 79456 -2.6263e+002 -3.3208e+002  1.2467e+002 54430 79289,79237,79430
 1.6000e+000 79479 -3.2019e+002 -5.8611e+002 -1.9833e+000 54430 79289,79430,79133
 1.6000e+000 79936 -2.2343e+002 -8.6379e+001  2.4399e+002 53919 79662,79766,79688
 1.6000e+000 79913 -7.9809e+002 -3.8331e+002  4.6253e+002 53919 79662,79818,79766
 1.6000e+000 79890 -1.0921e+003 -4.3672e+002  5.6310e+001 53919 79766,79818,79792
 1.6000e+000 79867 -5.8273e+002 -2.8102e+002  3.5293e+002 53919 79714,79766,79740
 1.6000e+000 79844 -5.0138e+002 -2.6811e+002  3.4581e+002 53919 79688,79766,79714
 1.6000e+000 80037 -1.3083e+002 -3.7465e+002  3.5987e+002 53671 79959,80011,79985
 1.6000e+000 80405 -4.3919e+001 -7.4720e+001 -1.5458e+001 53267 80108,80264,80238
 1.6000e+000 80382 -4.8093e+001 -7.9237e+000  6.7598e+000 53267 80082,80264,80108
 1.6000e+000 80359 -4.3419e+001 -2.9680e+002  2.1602e+002 53267 80108,80238,80134
 1.6000e+000 80336 -2.3221e+001 -1.1345e+002  1.5331e+002 53267 80134,80212,80186
 1.6000e+000 80313 -2.5176e+002 -2.9168e+002  2.7112e+002 53267 80134,80238,80212
 1.6000e+000 80290  5.7097e+001 -2.2046e+002  5.6147e+001 53267 80134,80186,80160
 1.6000e+000 80915 -2.6405e+002 -3.8609e+002  1.0781e+002 52969 80644,80774,80748
 1.6000e+000 80892 -2.7380e+002 -1.0589e+002 -9.8069e+000 52969 80618,80774,80644
 1.6000e+000 80869 -4.0166e+002 -5.3599e+002  3.6083e+001 52969 80644,80748,80670
 1.6000e+000 80846 -3.1579e+002 -1.1256e+002 -5.3438e+000 52969 80592,80774,80618
 1.6000e+000 80823 -6.5214e+002 -5.0400e+002  1.4023e+002 52969 80670,80722,80696
 1.6000e+000 80800 -3.2275e+002 -3.7750e+002  6.2165e+001 52969 80670,80748,80722
 1.6000e+000 81266  1.1272e+002 -1.5165e+002  5.4449e+001 52565 81041,81145,81067
 1.6000e+000 81243 -1.1801e+002 -5.3687e+002  1.5867e+002 52565 81041,81171,81145
 1.6000e+000 81220 -4.7977e+002 -1.3009e+003  2.8315e+002 52565 81067,81119,81093
 1.6000e+000 81197  1.6435e+002  6.7179e+001  7.8871e+001 52565 81067,81145,81119
 1.6000e+000 81723 -2.5770e+002 -1.2503e+002  1.2228e+002 51904 81449,81527,81475
 1.6000e+000 81700 -1.9258e+002 -3.5227e+001  8.5611e+001 51904 81449,81579,81527
 1.6000e+000 81677 -4.7776e+002 -3.5178e+002  2.4506e+002 51904 81449,81605,81579
 1.6000e+000 81654 -2.1143e+002 -7.3552e+001  7.3681e+001 51904 81527,81579,81553
 1.6000e+000 81631 -3.5003e+002 -1.0475e+002  6.3943e+001 51904 81475,81527,81501
 1.6000e+000 82327 -4.8814e+002 -4.9660e+002  3.4763e+002 51321 82422,82350,82036
 1.6000e+000 82304 -4.9968e+002 -3.7572e+002  3.5635e+002 51321 82494,82350,81958
 1.6000e+000 82281 -4.9532e+002 -5.0655e+002  3.3081e+002 51321 82422,82036,82010
 1.6000e+000 82258 -4.7306e+002 -3.5288e+002  3.2546e+002 51321 82494,81958,81932
 1.6000e+000 82235 -5.2328e+002 -2.9706e+002  2.0426e+002 51321 82062,82114,82088
 1.6000e+000 82212 -1.1779e+003 -7.2500e+002  4.7881e+002 51321 81932,82140,82114
 1.6000e+000 82189 -5.2315e+002 -1.7059e+002  2.9570e+002 51321 81958,82010,81984
 1.6000e+000 82166 -4.0417e+002 -4.2938e+002  2.6581e+002 51321 81906,82140,81932
 1.6000e+000 82376 -4.8476e+002 -5.9479e+002  3.4839e+002 51321 82062,82036,82350
 1.6000e+000 82399 -5.1041e+002 -4.7046e+002  3.3392e+002 51321 82062,82350,82114
 1.6000e+000 82448 -4.6715e+002 -4.8151e+002  3.5794e+002 51321 81958,82350,82422
 1.6000e+000 82471 -4.7147e+002 -4.8988e+002  3.4148e+002 51321 81958,82422,82010
 1.6000e+000 82520 -5.0578e+002 -4.0486e+002  3.6975e+002 51321 82114,82350,82494
 1.6000e+000 82543 -5.0516e+002 -3.9999e+002  3.4418e+002 51321 82114,82494,81932
 1.6000e+000 83019 -4.7144e+002 -5.5658e+002  3.2598e+002 50817 82673,82751,82699
 1.6000e+000 82996 -4.9613e+002 -4.9094e+002  2.2058e+002 50817 83042,82673,82855
 1.6000e+000 82973 -5.6153e+002 -4.6668e+002  1.9370e+002 50817 83042,82855,82803
 1.6000e+000 82950 -7.0207e+002 -5.2266e+002  2.6183e+002 50817 82751,82803,82777
 1.6000e+000 82927 -6.4860e+002 -5.7885e+002  1.8364e+002 50817 82647,82855,82673
 1.6000e+000 82904 -7.2694e+002 -5.7682e+002  3.2422e+002 50817 82803,82855,82829
 1.6000e+000 82881 -8.1293e+002 -1.1493e+003  5.0040e+002 50817 82699,82751,82725
 1.6000e+000 83068 -3.9960e+002 -4.7085e+002  2.2485e+002 50817 82751,82673,83042
 1.6000e+000 83091 -4.9793e+002 -4.6691e+002  2.0404e+002 50817 82751,83042,82803
 1.6000e+000 83290 -5.4828e+002 -2.5676e+002  3.3990e+002 50356 83313,83166,83140
 1.6000e+000 83267 -6.2761e+002 -4.9460e+002  2.6996e+002 50356 83515,83313,83140
 1.6000e+000 83244 -7.1741e+002 -4.9860e+002  1.3653e+002 50356 83515,83140,83385
 1.6000e+000 83339 -6.3933e+002 -4.3594e+002  3.7397e+002 50356 83192,83166,83313
 1.6000e+000 83362 -4.6024e+002 -4.4317e+002  3.2462e+002 50356 83192,83313,83218
 1.6000e+000 83411 -2.8318e+002 -2.8373e+002  2.2511e+002 50356 83114,83218,83385
 1.6000e+000 83541 -4.0834e+002 -4.3288e+002  2.7234e+002 50356 83218,83313,83515
 1.6000e+000 83564 -4.3091e+002 -3.8480e+002  1.5750e+002 50356 83218,83515,83385
 1.6000e+000 83893 -3.8882e+002 -2.9526e+002  8.3932e+001 49552 83720,83798,83746
 1.6000e+000 83870 -2.8547e+002 -7.2446e+001  1.1025e+002 49552 83694,83798,83720
 1.6000e+000 83847 -1.9850e+002 -1.2885e+002  1.0070e+002 49552 83668,83798,83694
 1.6000e+000 83824 -5.9583e+002 -1.5741e+002 -1.1996e+001 49552 83746,83798,83772
 1.6000e+000 84141 -6.5560e+002 -4.6283e+002  3.4578e+002 49212 84164,84020,83942
 1.6000e+000 84118 -6.3297e+002 -3.9760e+002  3.6780e+002 49212 84164,83942,83916
 1.6000e+000 84095 -4.1997e+002 -5.7289e+002  2.6268e+002 49212 83942,84020,83968
 1.6000e+000 84072 -3.8297e+002 -2.7715e+001  1.2131e+002 49212 83968,84020,83994
 1.6000e+000 84190 -6.7488e+002 -4.5131e+002  3.0839e+002 49212 84046,84020,84164
 1.6000e+000 84213 -6.5329e+002 -4.0859e+002  3.3103e+002 49212 84046,84164,83916
 1.6000e+000 84800 -1.5145e+002 -4.2395e+002  2.3700e+002 48865 84503,84633,84555
 1.6000e+000 84777 -3.7667e+002 -7.0738e+002  1.3874e+002 48865 84503,84659,84633
 1.6000e+000 84754 -3.0650e+002 -8.5265e+002  2.0702e+002 48865 84555,84633,84581
 1.6000e+000 84731 -2.3840e+002 -1.2679e+003  4.1540e+002 48865 84581,84633,84607
 1.6000e+000 84708 -6.5677e+002 -5.5266e+002  1.6593e+002 48865 84503,84555,84529
 1.6000e+000 84685 -3.9399e+002 -6.5355e+002  2.3391e+002 48865 84477,84659,84503
 1.6000e+000 85355 -2.6958e+002 -2.5148e+002  6.1085e+001 48461 85378,85035,85009
 1.6000e+000 85332 -4.1799e+002 -3.7403e+002  1.2625e+002 48461 85378,85009,85165
 1.6000e+000 85309 -3.5869e+002 -3.8857e+002  1.8901e+002 48461 85450,85061,85035
 1.6000e+000 85286 -4.8829e+002 -3.9982e+002  1.2334e+002 48461 85009,85191,85165
 1.6000e+000 85263 -3.7246e+002 -3.2940e+002  2.5905e+002 48461 85087,85165,85113
 1.6000e+000 85240 -2.0805e+002 -5.0807e+002 -5.2751e+001 48461 84983,85191,85009
 1.6000e+000 85217 -3.2367e+002 -4.2649e+002  1.7216e+002 48461 85113,85165,85139
 1.6000e+000 85404 -3.7600e+002 -3.0604e+002  1.4812e+002 48461 85450,85035,85378
 1.6000e+000 85427 -4.5250e+002 -3.5469e+002  1.4349e+002 48461 85087,85378,85165
 1.6000e+000 85476 -3.8715e+002 -4.9548e+002  1.9772e+002 48461 85087,85061,85450
 1.6000e+000 85499 -4.2267e+002 -4.4995e+002  1.4804e+002 48461 85087,85450,85378
 1.6000e+000 86084 -2.0450e+002 -4.5474e+002  1.9259e+002 48057 86323,86107,85787
 1.6000e+000 86061 -2.8241e+002 -5.3428e+002  2.6545e+002 48057 86107,85761,85943
 1.6000e+000 86038 -3.5233e+002 -3.8101e+002  1.9988e+002 48057 86251,86179,85891
 1.6000e+000 86015 -3.4712e+002 -3.1224e+002  1.2793e+002 48057 86251,85891,85839
 1.6000e+000 85992 -3.3519e+002 -3.4875e+002  2.7708e+002 48057 85891,85943,85917
 1.6000e+000 85969 -4.1198e+002 -2.3973e+002  1.6901e+002 48057 85839,85891,85865
 1.6000e+000 86133 -2.1421e+002 -4.4761e+002  1.5913e+002 48057 85813,85787,86107
 1.6000e+000 86156 -2.8262e+002 -4.6009e+002  1.6389e+002 48057 86179,85813,86107
 1.6000e+000 86205 -2.8090e+002 -3.2085e+002  2.2652e+002 48057 85943,85891,86179
 1.6000e+000 86228 -1.9050e+002 -3.5297e+002  2.1932e+002 48057 85943,86179,86107
 1.6000e+000 86277 -2.2864e+002 -3.0620e+002  1.6615e+002 48057 85813,86179,86251
 1.6000e+000 86300 -2.9212e+002 -2.6925e+002  1.0610e+002 48057 85813,86251,85839
 1.6000e+000 86349 -1.3794e+002 -4.1302e+002  2.1034e+002 48057 85761,86107,86323
 1.6000e+000 86855 -2.0509e+002 -3.8764e+002  2.3728e+002 47545 86878,86584,86558
 1.6000e+000 86832 -3.2026e+002 -4.4030e+002  2.1304e+002 47545 86950,86878,86558
 1.6000e+000 86809 -3.6307e+002 -4.2286e+002  2.1652e+002 47545 86950,86558,86532
 1.6000e+000 86786 -2.3432e+002 -3.8664e+002  2.3864e+002 47545 86584,86662,86610
 1.6000e+000 86763 -3.3997e+002 -3.4985e+002  1.2856e+002 47545 86532,86714,86688
 1.6000e+000 86740 -3.0482e+002 -1.7792e+002  2.3306e+002 47545 86610,86662,86636
 1.6000e+000 86904 -2.6193e+002 -4.6416e+002  2.0567e+002 47545 86662,86584,86878
 1.6000e+000 86927 -1.9398e+002 -4.2243e+002  1.7974e+002 47545 86662,86878,86688
 1.6000e+000 86976 -2.4909e+002 -4.2143e+002  1.6488e+002 47545 86688,86878,86950
 1.6000e+000 86999 -3.2352e+002 -4.3964e+002  1.7839e+002 47545 86688,86950,86532
 1.6000e+000 87328 -8.8249e+002 -2.4496e+002  2.6889e+002 47048 87155,87207,87181
 1.6000e+000 87305 -3.5053e+002 -2.6173e+002  1.7136e+002 47048 87129,87207,87155
 1.6000e+000 87282 -6.4529e+002 -3.4690e+002  1.7168e+002 47048 87103,87207,87129
 1.6000e+000 87259 -9.8661e+002 -1.1569e+003  6.1897e+002 47048 87103,87233,87207
 1.6000e+000 87576 -2.1019e+002 -2.7503e+002  2.6894e+002 46701 87599,87429,87377
 1.6000e+000 87553 -3.0543e+002 -2.0494e+002  2.0005e+002 46701 87599,87377,87481
 1.6000e+000 87530 -1.6555e+002 -1.9166e+002  1.2101e+002 46701 87351,87481,87377
 1.6000e+000 87507 -1.7747e+002 -2.7073e+002  2.5153e+002 46701 87377,87429,87403
 1.6000e+000 87625 -2.7508e+002 -3.8793e+002  2.4120e+002 46701 87455,87429,87599
 1.6000e+000 87648 -3.7218e+002 -2.8873e+002  1.7098e+002 46701 87455,87599,87481
 1.6000e+000 87798  6.7122e+001  2.7848e+000 -1.4322e+001 46239 87697,87749,87723
 1.6000e+000 87775  1.1941e+002 -3.1052e+001  8.9594e+001 46239 87671,87749,87697
 1.6000e+000 88308 -6.2827e+002 -5.9551e+002  1.1556e+002 45735 88089,88167,88141
 1.6000e+000 88285 -4.2826e+002 -3.0105e+002  2.1131e+002 45735 88011,88167,88089
 1.6000e+000 88262 -2.1525e+002 -2.8090e+002  1.2135e+002 45735 87985,88167,88011
 1.6000e+000 88239 -2.9375e+002 -1.0937e+003  3.0551e+002 45735 88011,88089,88063
 1.6000e+000 88216 -7.6541e+002 -6.3787e+002  1.7187e+002 45735 88089,88141,88115
 1.6000e+000 88193 -6.0493e+002 -1.6111e+003  9.4014e+001 45735 88011,88063,88037
 1.6000e+000 88686 -4.9141e+002 -3.6857e+002  3.2071e+002 45316 88438,88516,88490
 1.6000e+000 88663 -4.3295e+002 -2.2161e+001  4.0979e+002 45316 88438,88542,88516
 1.6000e+000 88640 -2.5958e+002 -5.5775e+002  5.1475e+002 45316 88438,88568,88542
 1.6000e+000 88617 -7.7511e+002 -6.1994e+002  2.1281e+002 45316 88438,88490,88464
 1.6000e+000 88594 -4.0049e+002 -6.0766e+002  5.0058e+002 45316 88412,88568,88438
 1.6000e+000 88934 -1.0067e+003 -1.0013e+003  5.6676e+002 44812 88957,88735,88709
 1.6000e+000 88911 -5.5489e+002 -6.6258e+002  2.1865e+002 44812 88957,88709,88839
 1.6000e+000 88888 -5.5718e+002 -4.2735e+002  1.1002e+002 44812 89029,88787,88761
 1.6000e+000 88865 -5.2757e+002 -4.3308e+002  1.8829e+002 44812 88787,88839,88813
 1.6000e+000 88983 -2.6459e+002 -6.1676e+002  3.6271e+002 44812 88761,88735,88957
 1.6000e+000 89006 -4.5639e+002 -5.1968e+002  8.8553e+001 44812 89029,88761,88957
 1.6000e+000 89055 -5.3615e+002 -5.3291e+002  1.5195e+002 44812 88839,88787,89029
 1.6000e+000 89078 -5.3163e+002 -7.2524e+002  1.6407e+002 44812 88839,89029,88957
 1.6000e+000 89228 -3.4781e+002 -1.0220e+003  2.3037e+002 44408 89127,89179,89153
 1.6000e+000 89205  1.6925e+001 -1.4927e+002  1.7187e+001 44408 89101,89179,89127
 1.6000e+000 89787 -5.1336e+002 -3.6821e+002  2.8437e+002 43854 89810,89545,89519
 1.6000e+000 89764 -5.4924e+002 -4.5336e+002  2.9258e+002 43854 89810,89519,89467
 1.6000e+000 89741 -5.4531e+002 -6.1649e+002  2.6527e+002 43854 89954,89882,89597
 1.6000e+000 89718 -5.5784e+002 -6.2255e+002  2.7502e+002 43854 89954,89597,89571
 1.6000e+000 89695 -3.0946e+002 -4.3700e+002  2.5892e+002 43854 89415,89623,89467
 1.6000e+000 89672 -2.5515e+002 -2.6732e+002  2.0511e+002 43854 89467,89519,89493
 1.6000e+000 89649 -2.1955e+002 -3.4169e+002  2.2000e+002 43854 89415,89467,89441
 1.6000e+000 89836 -5.6157e+002 -3.9149e+002  3.0002e+002 43854 89882,89545,89810
 1.6000e+000 89859 -3.3031e+002 -4.3617e+002  2.3928e+002 43854 89623,89810,89467
 1.6000e+000 89908 -5.4556e+002 -7.2169e+002  3.6143e+002 43854 89623,89597,89882
 1.6000e+000 89931 -5.0892e+002 -6.5840e+002  3.2095e+002 43854 89623,89882,89810
 1.6000e+000 89980 -6.0209e+002 -6.0387e+002  3.6758e+002 43854 89545,89882,89954
 1.6000e+000 90003 -6.6155e+002 -6.8991e+002  3.9356e+002 43854 89545,89954,89571
 1.6000e+000 90251 -1.9287e+002 -3.2689e+002  1.7528e+002 43492 90026,90078,90052
 1.6000e+000 90228 -5.2446e+002 -3.7964e+002  1.7572e+002 43492 90274,90026,90156
 1.6000e+000 90205 -4.9430e+002 -4.7154e+002  1.7438e+002 43492 90346,90274,90156
 1.6000e+000 90182 -5.1563e+002 -6.3469e+002  4.6989e+002 43492 90346,90156,90130
 1.6000e+000 90300 -3.1087e+002 -4.9311e+002  2.5818e+002 43492 90078,90026,90274
 1.6000e+000 90323 -5.8408e+002 -5.9718e+002  2.3945e+002 43492 90078,90274,90104
 1.6000e+000 90372 -8.4935e+002 -7.0071e+002  3.6064e+002 43492 90104,90274,90346
 1.6000e+000 90395 -8.9241e+002 -9.1602e+002  6.6620e+002 43492 90104,90346,90130
 1.6000e+000 90594 -7.8546e+001 -3.5328e+002  2.4539e+002 43052 90418,90496,90444
 1.6000e+000 90571 -2.6162e+002 -3.5933e+002  2.5102e+002 43052 90418,90522,90496
 1.6000e+000 90548 -3.7567e+002 -3.1918e+002  2.3200e+002 43052 90444,90496,90470
 1.6000e+000 91074 -5.6532e+002 -5.0627e+002  3.6617e+002 42434 91241,90884,90858
 1.6000e+000 91051 -9.6832e+002 -6.9204e+002 -1.4697e+000 42434 90702,90910,90884
 1.6000e+000 91028 -2.6218e+002 -3.3239e+002  2.4932e+002 42434 91097,90754,90702
 1.6000e+000 91005 -5.0477e+002 -3.4180e+002  3.3456e+002 42434 91241,90858,91097
 1.6000e+000 90982 -2.1008e+002 -3.2989e+002  1.5947e+002 42434 91169,90806,90780
 1.6000e+000 90959 -8.5039e+001 -2.3040e+002  8.8056e+001 42434 90806,90858,90832
 1.6000e+000 90936 -2.9150e+002 -2.3250e+002  2.5532e+002 42434 90702,90754,90728
 1.6000e+000 91123 -5.9033e+002 -4.8413e+002  3.1639e+002 42434 90780,90754,91097
 1.6000e+000 91146 -4.4468e+002 -4.5612e+002  3.4101e+002 42434 91169,90780,91097
 1.6000e+000 91195 -1.2098e+002 -2.6488e+002  6.8251e+001 42434 90858,90806,91169
 1.6000e+000 91218 -2.0791e+002 -1.2518e+002  2.0369e+002 42434 90858,91169,91097
 1.6000e+000 91267 -4.1060e+002 -7.1945e+002  2.9355e+002 42434 90702,90884,91241
 1.6000e+000 91290 -3.6947e+002 -5.7890e+002  2.6663e+002 42434 90702,91241,91097
 1.6000e+000 91698 -1.4726e+002 -4.8649e+002  1.9363e+002 41773 91473,91577,91499
 1.6000e+000 91675 -2.6344e+002 -5.8419e+002  2.6763e+002 41773 91473,91603,91577
 1.6000e+000 91652 -2.5898e+002 -3.5937e+002  6.7728e+001 41773 91499,91551,91525
 1.6000e+000 91629 -3.7619e+002 -4.1660e+002  1.8713e+002 41773 91499,91577,91551
 1.6000e+000 92044 -4.6554e+002 -5.2787e+002  3.3927e+002 41383 91773,91877,91851
 1.6000e+000 92021 -3.5765e+002 -6.7451e+002  1.9592e+002 41383 91747,91877,91773
 1.6000e+000 91998 -3.6608e+002 -3.6389e+002  2.4536e+002 41383 91773,91851,91799
 1.6000e+000 91975 -2.6617e+002 -5.4298e+002  9.1914e+001 41383 91747,91903,91877
 1.6000e+000 91952 -1.9370e+002 -4.4078e+002  1.6865e+002 41383 91721,91903,91747
 1.6000e+000 91929 -9.0000e+001 -3.9494e+002  1.6785e+002 41383 91799,91851,91825
 1.6000e+000 92601 -4.1529e+002 -3.7648e+002  1.3960e+002 40979 92229,92411,92307
 1.6000e+000 92578 -5.1354e+002 -3.8460e+002  1.2841e+002 40979 92229,92437,92411
 1.6000e+000 92555 -3.8962e+002 -2.9641e+002  1.3832e+002 40979 92229,92307,92281
 1.6000e+000 92532 -3.1877e+002 -3.4980e+002  2.0525e+002 40979 92333,92411,92385
 1.6000e+000 92509 -3.3056e+002 -3.2101e+002  1.6439e+002 40979 92307,92411,92333
 1.6000e+000 92486 -4.1006e+002 -2.9629e+002  1.0877e+002 40979 92229,92281,92255
 1.6000e+000 92463 -4.2047e+001 -3.4953e+002  1.4090e+002 40979 92333,92385,92359
 1.6000e+000 93235 -4.5288e+002 -2.6739e+002  3.5431e+002 40525 92941,92993,92967
 1.6000e+000 93212 -6.8285e+002 -1.0447e+002  9.1421e+001 40525 93258,92941,92889
 1.6000e+000 93189 -5.3433e+002 -3.3357e+001  6.6978e+001 40525 93258,92889,93071
 1.6000e+000 93166 -5.5837e+002 -1.8383e+002  6.5095e+001 40525 92889,92941,92915
 1.6000e+000 93143 -5.7643e+002 -5.1599e+001  5.5816e+001 40525 92863,93071,92889
 1.6000e+000 93120 -4.7564e+002 -2.2683e+002  1.4840e+002 40525 92993,93071,93019
 1.6000e+000 93097 -4.7733e+002 -1.8441e+002  1.3210e+002 40525 93019,93071,93045
 1.6000e+000 93284 -7.5009e+002 -2.0159e+002  2.5999e+002 40525 92993,92941,93258
 1.6000e+000 93307 -4.6931e+002 -5.4432e+001  2.0625e+002 40525 92993,93258,93071
 1.6000e+000 93636 -6.5971e+002 -5.5145e+002  4.9369e+002 40235 93437,93541,93515
 1.6000e+000 93613 -5.5505e+002 -7.0449e+002  4.6088e+002 40235 93411,93541,93437
 1.6000e+000 93590 -1.5929e+002 -6.2042e+002  1.8653e+002 40235 93463,93515,93489
 1.6000e+000 93567 -3.0768e+002 -4.4693e+002  1.2041e+002 40235 93437,93515,93463
 1.6000e+000 94014 -6.9896e+002 -7.8099e+002  2.8869e+002 39873 93766,93870,93792
 1.6000e+000 93991 -6.3497e+002 -8.3643e+002  2.4536e+002 39873 93766,93896,93870
 1.6000e+000 93968 -5.8706e+002 -6.0623e+002  3.3666e+002 39873 93792,93870,93844
 1.6000e+000 93945 -4.8579e+002 -5.3303e+002  2.7534e+002 39873 93792,93844,93818
 1.6000e+000 93922 -4.9124e+002 -7.7465e+002  4.7078e+002 39873 93740,93896,93766
 1.6000e+000 94164  2.8019e+001 -2.0205e+002  1.3847e+002 39461 94037,94089,94063
 1.6000e+000 94141 -1.6633e+002 -3.5992e+002  2.0685e+002 39461 94037,94115,94089
 1.6000e+000 94363 -3.1665e+002 -2.8998e+002  2.1382e+002 39057 94386,94239,94213
 1.6000e+000 94340 -2.9328e+002 -2.7319e+002  2.0512e+002 39057 94386,94213,94187
 1.6000e+000 94317 -4.2453e+002 -4.0156e+002  2.3122e+002 39057 94187,94291,94265
 1.6000e+000 94412 -1.9883e+002 -2.5242e+002  1.7325e+002 39057 94458,94386,94265
 1.6000e+000 94435 -2.9151e+002 -2.8977e+002  1.8342e+002 39057 94265,94386,94187
 1.6000e+000 94484 -3.1751e+002 -3.4303e+002  2.2275e+002 39057 94239,94386,94458
 1.6000e+000 94896 -6.7358e+002 -4.7191e+002  2.8007e+002 38396 94919,94775,94723
 1.6000e+000 94873 -7.2641e+002 -4.2171e+002  2.8138e+002 38396 94919,94723,94697
 1.6000e+000 94850 -5.5179e+002 -4.3457e+002  2.3027e+002 38396 94723,94775,94749
 1.6000e+000 94827 -3.2458e+002 -2.4299e+002  2.5192e+002 38396 94671,94801,94697
 1.6000e+000 94945 -6.6393e+002 -4.3842e+002  2.6176e+002 38396 94801,94775,94919
 1.6000e+000 94968 -6.9331e+002 -3.7305e+002  2.5356e+002 38396 94801,94919,94697
 1.6000e+000 95265 -6.3003e+002 -6.5527e+002  3.0232e+002 37835 95017,95069,95043
 1.6000e+000 95242 -6.2356e+002 -5.6899e+002  2.9839e+002 37835 95288,95069,95017
 1.6000e+000 95219 -6.7103e+002 -6.2973e+002  4.0264e+002 37835 95288,95017,94991
 1.6000e+000 95196 -7.4215e+002 -6.7749e+002  3.6634e+002 37835 94991,95147,95121
 1.6000e+000 95173 -4.7081e+002 -3.1592e+002  2.8108e+002 37835 95069,95121,95095
 1.6000e+000 95314 -6.1297e+002 -4.2436e+002  2.3266e+002 37835 95121,95069,95288
 1.6000e+000 95337 -6.5668e+002 -5.1593e+002  3.3013e+002 37835 95121,95288,94991
 1.6000e+000 95558  2.7087e+001 -1.8557e+002  1.5657e+002 37423 95408,95460,95434
 1.6000e+000 95535 -2.2532e+002 -8.4957e+002  4.0334e+002 37423 95382,95460,95408
 1.6000e+000 95512 -4.3601e+002 -1.0110e+003  4.7384e+002 37423 95382,95486,95460
 1.6000e+000 95891 -1.2554e+002 -4.3696e+002  2.7643e+002 37225 95666,95718,95692
 1.6000e+000 95868 -4.4610e+002 -4.9836e+002  3.6865e+002 37225 95666,95796,95718
 1.6000e+000 95845 -2.1874e+002 -3.3695e+002  1.1484e+002 37225 95718,95770,95744
 1.6000e+000 95822 -2.4529e+002 -2.7778e+002  1.6280e+002 37225 95718,95796,95770
 1.6000e+000 95992 -6.5099e+001 -3.7703e+002  1.8847e+002 36735 95914,95966,95940
 1.6000e+000 96142 -7.1452e+002 -3.6919e+002  3.5298e+002 36331 96297,96067,96041
 1.6000e+000 96119 -6.1891e+002 -3.1992e+002  3.9545e+002 36331 96165,96041,96015
 1.6000e+000 96191 -6.9272e+002 -3.4851e+002  3.7743e+002 36331 96297,96041,96165
 1.6000e+000 96323 -7.5386e+002 -3.2708e+002  4.1667e+002 36331 96093,96067,96297
 1.6000e+000 96346 -6.6855e+002 -2.7681e+002  4.4916e+002 36331 96093,96297,96165
 1.6000e+000 96714 -4.8134e+002 -7.5423e+002  4.4788e+002 36041 96737,96495,96443
 1.6000e+000 96691 -6.5957e+002 -5.7006e+002  4.4460e+002 36041 96737,96443,96417
 1.6000e+000 96668 -2.9137e+002 -8.0197e+002  1.8178e+002 36041 96443,96495,96469
 1.6000e+000 96645 -1.5866e+002 -2.6553e+002  2.5306e+002 36041 96391,96521,96417
 1.6000e+000 96622 -3.1364e+001 -2.6800e+002  2.1554e+002 36041 96391,96547,96521
 1.6000e+000 96599 -8.3159e+001 -2.7876e+002  2.0452e+002 36041 96391,96573,96547
 1.6000e+000 96763 -2.3406e+002 -6.0233e+002  3.8327e+002 36041 96521,96495,96737
 1.6000e+000 96786 -5.6578e+002 -5.3154e+002  4.1833e+002 36041 96521,96737,96417
 1.6000e+000 96936 -3.1303e+002 -2.0045e+002  2.1801e+002 35637 97031,96959,96835
 1.6000e+000 96913 -4.4930e+002 -2.4311e+002  2.3673e+002 35637 97163,96959,96809
 1.6000e+000 96985 -4.4137e+002 -1.7529e+002  2.4969e+002 35637 96861,96835,96959
 1.6000e+000 97008 -5.6550e+002 -3.0001e+002  3.8989e+002 35637 96861,96959,96887
 1.6000e+000 97057 -3.7008e+002 -1.4161e+002  1.5345e+002 35637 96809,96959,97031
 1.6000e+000 97189 -3.7724e+002 -2.0371e+002  2.5809e+002 35637 96887,96959,97163
 1.6000e+000 97597 -2.8977e+002 -3.4865e+002  2.9912e+002 35190 97450,97502,97476
 1.6000e+000 97574 -3.1080e+002 -4.3439e+002  3.7565e+002 35190 97372,97502,97450
 1.6000e+000 97551 -3.2100e+002 -5.1920e+002  3.5254e+002 35190 97372,97450,97398
 1.6000e+000 97528 -2.2327e+002 -4.5464e+002  3.0441e+002 35190 97398,97450,97424
 1.6000e+000 98054 -4.8871e+002 -6.0841e+002  4.0233e+002 34636 97806,97936,97858
 1.6000e+000 98031 -6.8958e+002 -3.9567e+002  3.6268e+002 34636 97780,97936,97806
 1.6000e+000 98008 -5.9375e+002 -5.6865e+002  2.1522e+002 34636 97806,97858,97832
 1.6000e+000 97985 -5.2096e+002 -5.8056e+002  4.3567e+002 34636 97884,97936,97910
 1.6000e+000 97962 -3.3337e+002 -3.8972e+002  3.2231e+002 34636 97858,97936,97884
 1.6000e+000 98530 -3.3338e+002  1.4047e+002  8.1804e+001 34068 98697,98184,98366
 1.6000e+000 98507  6.9117e+000  1.5374e+001 -1.1525e+001 34068 98158,98366,98184
 1.6000e+000 98484 -5.2550e+002 -4.3728e+002  1.9399e+002 34068 98553,98262,98236
 1.6000e+000 98461 -8.4448e+002 -5.8130e+002  1.4598e+002 34068 98553,98236,98210
 1.6000e+000 98438 -4.7644e+002 -1.8461e+002  1.9298e+002 34068 98841,98625,98366
 1.6000e+000 98415 -5.4879e+002 -7.4664e+002  3.7142e+002 34068 98769,98288,98262
 1.6000e+000 98392 -6.6481e+002 -5.6930e+001  1.6763e+002 34068 98841,98366,98340
 1.6000e+000 98579 -6.2906e+002 -5.5364e+002  2.6339e+002 34068 98769,98262,98553
 1.6000e+000 98602 -4.8673e+002 -2.3902e+002  2.0229e+002 34068 98625,98314,98553
 1.6000e+000 98651 -4.2050e+002 -1.7772e+002  1.2056e+002 34068 98697,98366,98625
 1.6000e+000 98674 -5.6348e+002 -4.6343e+002  1.5394e+002 34068 98210,98625,98553
 1.6000e+000 98723 -4.6349e+002 -2.4404e+002  1.4767e+002 34068 98210,98184,98697
 1.6000e+000 98746 -4.2096e+002 -2.9631e+002  2.1491e+002 34068 98210,98697,98625
 1.6000e+000 98795 -3.3957e+002 -5.5379e+002  2.4106e+002 34068 98314,98288,98769
 1.6000e+000 98818 -4.6416e+002 -4.2600e+002  1.4005e+002 34068 98314,98769,98553
 1.6000e+000 98867 -6.6033e+002 -3.0951e+002  1.2744e+002 34068 98314,98625,98841
 1.6000e+000 98890 -8.5374e+002 -1.7170e+002  1.0976e+002 34068 98314,98841,98340
 1.6000e+000 99268 -7.1397e+002 -6.6756e+002  4.8208e+002 33450 99291,99098,99072
 1.6000e+000 99245 -7.8566e+002 -5.0066e+002  2.4658e+002 33450 99291,99072,99020
 1.6000e+000 99222 -1.1188e+003 -6.2788e+002  3.7069e+002 33450 99020,99072,99046
 1.6000e+000 99199 -5.9509e+002 -4.2966e+002  2.4790e+002 33450 99020,99150,99124
 1.6000e+000 99176 -5.9324e+002 -3.8327e+002  6.6907e+001 33450 98994,99150,99020
 1.6000e+000 99317 -3.5150e+002 -5.0620e+002  4.5232e+002 33450 99124,99098,99291
 1.6000e+000 99340 -6.6884e+002 -4.5790e+002  2.4581e+002 33450 99124,99291,99020
 1.6000e+000 99865 -4.9373e+002 -4.6725e+002  2.8014e+002 32944 100176,99960,99888
 1.6000e+000 99842 -5.3266e+002 -4.4732e+002  2.8156e+002 32944 100104,99888,99522
 1.6000e+000 99819 -4.9316e+002 -4.4900e+002  3.6012e+002 32944 100248,99960,99626
 1.6000e+000 99796 -4.8785e+002 -5.2504e+002  1.7387e+002 32944 100032,99652,99626
 1.6000e+000 99773 -4.3953e+002 -4.7056e+002  2.0523e+002 32944 100104,99522,99496
 1.6000e+000 99750 -3.5694e+002 -3.5916e+002  5.9572e+001 32944 99574,99626,99600
 1.6000e+000 99727 -4.1690e+002 -4.3424e+002  3.9074e+002 32944 100248,99626,99574
 1.6000e+000 99704 -2.8813e+002 -4.5210e+002  2.5332e+002 32944 99444,99496,99470
 1.6000e+000 99914 -4.9690e+002 -4.3042e+002  2.0077e+002 32944 100176,99888,100032
 1.6000e+000 99937 -5.4122e+002 -3.7279e+002  2.7668e+002 32944 99678,99888,99444
 1.6000e+000 99986 -5.2553e+002 -4.0472e+002  2.7234e+002 32944 99522,99888,99960
 1.6000e+000 100009 -5.7127e+002 -3.5137e+002  3.1205e+002 32944 99522,99960,99548
 1.6000e+000 100058 -5.5059e+002 -5.2447e+002  1.7349e+002 32944 99678,99652,100032
 1.6000e+000 100081 -5.7924e+002 -4.8910e+002  1.7218e+002 32944 99678,100032,99888
 1.6000e+000 100130 -3.7053e+002 -4.0113e+002  2.7810e+002 32944 99444,99888,100104
 1.6000e+000 100153 -3.1254e+002 -4.5444e+002  2.1169e+002 32944 99444,100104,99496
 1.6000e+000 100202 -5.4556e+002 -5.9015e+002  2.7483e+002 32944 99626,99960,100176
 1.6000e+000 100225 -5.6490e+002 -5.8882e+002  2.0390e+002 32944 99626,100176,100032
 1.6000e+000 100274 -6.0868e+002 -4.3519e+002  3.2367e+002 32944 99548,99960,100248
 1.6000e+000 100297 -5.4013e+002 -4.2729e+002  3.5332e+002 32944 99548,100248,99574
 1.6000e+000 100754 -2.8489e+002 -2.6969e+002  1.1538e+002 32369 100777,100584,100506
 1.6000e+000 100731 -2.5675e+002 -3.8642e+002  2.5928e+002 32369 100777,100506,100636
 1.6000e+000 100708 -4.5173e+002 -3.7811e+002  2.8028e+002 32369 100480,100636,100506
 1.6000e+000 100685 -5.1446e+002 -3.2298e+002  4.9349e+001 32369 100532,100584,100558
 1.6000e+000 100662 -3.1466e+002 -3.0873e+002  1.3147e+002 32369 100506,100584,100532
 1.6000e+000 100803 -2.8048e+002 -6.5178e+001  1.0655e+002 32369 100610,100584,100777
 1.6000e+000 100826 -2.4448e+002 -1.9993e+002  2.3041e+002 32369 100610,100777,100636
 1.6000e+000 101025 -4.5675e+002 -3.5636e+002  3.4261e+002 31857 100875,100927,100901
 1.6000e+000 101002 -8.2139e+002 -3.1316e+002  3.1157e+002 31857 100875,100953,100927
 1.6000e+000 100979 -8.7672e+002 -4.2180e+002  2.7257e+002 31857 100849,100953,100875
 1.6000e+000 101533 -4.0118e+002 -4.8235e+002  3.6515e+002 31253 101556,101314,101236
 1.6000e+000 101510 -5.5569e+002 -5.0958e+002  3.5448e+002 31253 101556,101236,101210
 1.6000e+000 101487 -5.2271e+002 -4.9470e+002  1.7190e+002 31253 101210,101392,101340
 1.6000e+000 101464 -2.8261e+002 -4.2736e+002  3.1622e+002 31253 101236,101288,101262
 1.6000e+000 101441 -3.5643e+002 -6.1868e+002  3.3330e+002 31253 101236,101314,101288
 1.6000e+000 101418 -5.2455e+002 -6.1011e+002  3.3520e+002 31253 101340,101392,101366
 1.6000e+000 101582 -4.4712e+002 -4.6904e+002  2.3211e+002 31253 101340,101314,101556
 1.6000e+000 101605 -6.0358e+002 -4.8713e+002  2.2773e+002 31253 101340,101556,101210
 1.6000e+000 101755  1.5147e+002  7.1084e+001  1.1192e+002 30519 101778,101654,101628
 1.6000e+000 101732 -1.1301e+002  1.0197e+002 -6.0896e+000 30519 101850,101778,101628
 1.6000e+000 101804 -7.1141e+001 -1.2218e+002  1.3409e+001 30519 101680,101654,101778
 1.6000e+000 101827 -2.0484e+002  5.9717e+001 -1.5270e+001 30519 101680,101778,101706
 1.6000e+000 101876 -1.6645e+002 -2.8104e+001 -1.8911e+001 30519 101706,101778,101850
 1.6000e+000 102561 -3.3679e+002 -4.7366e+002  2.3108e+002 29951 102656,102584,102270
 1.6000e+000 102538 -8.0287e+002 -9.1279e+002  1.8242e+002 29951 102584,102140,102374
 1.6000e+000 102515 -5.0111e+002 -9.4221e+002  4.6845e+002 29951 102728,102656,102270
 1.6000e+000 102492 -5.0967e+002 -1.1191e+003  4.6037e+002 29951 102728,102270,102244
 1.6000e+000 102469 -6.4440e+002 -1.9910e+002  3.0608e+002 29951 102800,102322,102296
 1.6000e+000 102446 -7.1542e+002 -5.0619e+002  1.3350e+002 29951 102166,102218,102192
 1.6000e+000 102423 -5.6861e+002 -5.2919e+002  8.5074e+001 29951 102166,102244,102218
 1.6000e+000 102400 -3.8339e+002 -4.6390e+002  3.0558e+002 29951 102322,102374,102348
 1.6000e+000 102610 -7.9069e+002 -3.9215e+002  1.2065e+002 29951 102296,102270,102584
 1.6000e+000 102633 -8.5860e+002 -4.2700e+002  1.8660e+002 29951 102800,102296,102584
 1.6000e+000 102682 -9.1266e+002 -8.3515e+002  4.1734e+002 29951 102140,102584,102656
 1.6000e+000 102705 -6.0796e+002 -8.5267e+002  5.9130e+002 29951 102140,102656,102166
 1.6000e+000 102754 -5.0407e+002 -7.3633e+002  5.4599e+002 29951 102166,102656,102728
 1.6000e+000 102777 -5.1801e+002 -8.8227e+002  5.0133e+002 29951 102166,102728,102244
 1.6000e+000 102826 -4.2919e+002 -4.4805e+002  4.1958e+002 29951 102374,102322,102800
 1.6000e+000 102849 -5.2234e+002 -4.8923e+002  3.4954e+002 29951 102374,102800,102584
 1.6000e+000 103048  5.2885e+001 -1.9850e+002  8.5131e+001 29454 102872,102924,102898
 1.6000e+000 103025 -6.6962e+001 -4.3163e+002  1.6359e+002 29454 102872,102976,102924
 1.6000e+000 103002 -2.0693e+002 -6.5896e+002  9.0842e+001 29454 102924,102976,102950
 1.6000e+000 103296 -7.7115e+002 -5.4527e+002  4.0112e+002 29064 103319,103175,103123
 1.6000e+000 103273 -1.0324e+003 -5.5543e+002  4.5607e+002 29064 103319,103123,103071
 1.6000e+000 103250 -4.7048e+002 -3.4681e+002  3.0497e+002 29064 103123,103175,103149
 1.6000e+000 103227 -7.8209e+002 -4.8202e+002  5.6449e+002 29064 103071,103123,103097
 1.6000e+000 103345 -5.3160e+002 -6.1068e+002  2.9164e+002 29064 103201,103175,103319
 1.6000e+000 103368 -8.5263e+002 -5.8866e+002  2.5055e+002 29064 103201,103319,103071
 1.6000e+000 104006 -5.8979e+002 -2.8612e+002  2.2249e+002 28603 104101,104029,103712
 1.6000e+000 103983 -5.4904e+002 -2.1519e+002  1.9895e+002 28603 104173,104029,103660
 1.6000e+000 103960 -7.0429e+002 -2.3070e+002  2.0721e+002 28603 104101,103712,103686
 1.6000e+000 103937 -4.5705e+002 -3.1528e+002  1.8125e+002 28603 104173,103660,103634
 1.6000e+000 103914 -5.8654e+002 -3.1210e+002  3.0732e+002 28603 103764,103816,103790
 1.6000e+000 103891 -4.5518e+002 -3.3325e+002  3.1283e+002 28603 103634,103842,103816
 1.6000e+000 103868 -4.5161e+002 -1.6997e+002  2.7796e+002 28603 103712,103764,103738
 1.6000e+000 104055 -5.7330e+002 -2.2969e+002  2.2145e+002 28603 103764,103712,104029
 1.6000e+000 104078 -5.5120e+002 -2.4695e+002  2.9260e+002 28603 103764,104029,103816
 1.6000e+000 104127 -7.4067e+002 -2.9321e+002  1.7213e+002 28603 103660,104029,104101
 1.6000e+000 104150 -9.1624e+002 -2.7063e+002  1.8589e+002 28603 103660,104101,103686
 1.6000e+000 104199 -6.2380e+002 -3.0625e+002  2.3115e+002 28603 103816,104029,104173
 1.6000e+000 104222 -5.2319e+002 -3.8329e+002  2.0953e+002 28603 103816,104173,103634
 1.6000e+000 104600 -3.0916e+002 -5.8944e+002  1.3771e+002 28348 104623,104378,104326
 1.6000e+000 104577 -2.5259e+002 -6.1314e+002  2.4725e+002 28348 104623,104326,104482
 1.6000e+000 104554 -2.6598e+002 -3.7955e+002  1.0255e+002 28348 104326,104378,104352
 1.6000e+000 104531 -3.3591e+002  8.9742e-001  2.2845e+000 28348 104404,104456,104430
 1.6000e+000 104508 -4.2684e+002 -2.4000e+002  2.1014e+002 28348 104378,104456,104404
 1.6000e+000 104649 -2.6134e+002 -4.9165e+002  1.7779e+002 28348 104456,104378,104623
 1.6000e+000 104672 -1.8729e+002 -4.9732e+002  2.9019e+002 28348 104456,104623,104482
 1.6000e+000 104991 -6.0759e+002 -6.0011e+002  4.4952e+002 27951 104717,104847,104769
 1.6000e+000 104968 -1.7182e+002 -4.1622e+002  4.2727e+002 27951 104717,104873,104847
 1.6000e+000 104945 -2.0666e+002 -4.7682e+002  4.9940e+002 27951 104769,104847,104795
 1.6000e+000 104922  3.4037e+001  1.0925e+002  4.7082e+002 27951 104795,104847,104821
 1.6000e+000 104899 -5.7598e+002 -4.2323e+002  4.9879e+002 27951 104717,104769,104743
 1.6000e+000 105371 -6.5491e+002 -3.3334e+002  3.2754e+002 27447 105394,105201,105123
 1.6000e+000 105348 -8.3235e+002 -3.1388e+002  4.2234e+002 27447 105394,105123,105097
 1.6000e+000 105325 -1.0609e+003 -3.6232e+002  3.0667e+002 27447 105123,105201,105149
 1.6000e+000 105302 -5.7882e+002 -4.4017e+002  2.9842e+002 27447 105201,105253,105227
 1.6000e+000 105279 -5.8388e+002 -5.9867e+002  8.4857e+001 27447 105149,105201,105175
 1.6000e+000 105420 -5.4787e+002 -2.9905e+002  2.6350e+002 27447 105253,105201,105394
 1.6000e+000 105443 -7.0802e+002 -2.3261e+002  3.4175e+002 27447 105253,105394,105097
 1.6000e+000 105998 -5.5874e+002 -3.9302e+002  4.0723e+002 27100 106165,106021,105704
 1.6000e+000 105975 -2.9155e+002 -2.0677e+002  3.5880e+002 27100 106309,106021,105652
 1.6000e+000 105952 -9.7390e+002 -6.6208e+002  6.8774e+002 27100 106093,105808,105782
 1.6000e+000 105929 -5.5542e+002 -4.0843e+002  4.0111e+002 27100 106165,105704,105678
 1.6000e+000 105906 -2.9126e+002 -5.3838e+002  3.0688e+002 27100 106237,105730,105704
 1.6000e+000 105883 -2.6616e+002 -3.8752e+002  2.5236e+002 27100 106309,105652,105626
 1.6000e+000 105860 -1.6866e+002 -1.1672e+001  5.1597e+001 27100 105730,105782,105756
 1.6000e+000 106047 -5.0993e+002 -2.7946e+002  4.1524e+002 27100 106237,105704,106021
 1.6000e+000 106070 -5.7641e+002 -2.8730e+002  5.2759e+002 27100 106093,105782,106021
 1.6000e+000 106119 -4.0926e+002 -5.6114e+002  3.4698e+002 27100 105834,105808,106093
 1.6000e+000 106142 -4.6761e+002 -6.9581e+002  4.7541e+002 27100 106381,106093,106021
 1.6000e+000 106191 -5.5539e+002 -3.6474e+002  4.2676e+002 27100 105652,106021,106165
 1.6000e+000 106214 -5.5990e+002 -4.0236e+002  4.2628e+002 27100 105652,106165,105678
 1.6000e+000 106263 -9.8958e+001 -2.8251e+002  2.2294e+002 27100 105782,105730,106237
 1.6000e+000 106286 -3.6270e+002 -9.0037e+001  3.5084e+002 27100 105782,106237,106021
 1.6000e+000 106335 -4.0162e+002 -4.5194e+002  3.9012e+002 27100 106381,106021,106309
 1.6000e+000 106358 -2.7665e+002 -3.4773e+002  2.4123e+002 27100 105834,106309,105626
 1.6000e+000 106407 -3.2218e+002 -4.1836e+002  3.0681e+002 27100 105834,106093,106381
 1.6000e+000 106430 -3.2773e+002 -3.7412e+002  2.1605e+002 27100 105834,106381,106309
 1.6000e+000 106629 -5.2155e+001 -4.8536e+002  1.6066e+002 26688 106479,106557,106531
 1.6000e+000 106606 -2.2049e+001 -2.8168e+002  1.7931e+002 26688 106453,106557,106479
 1.6000e+000 106583 -2.2511e+002 -5.4161e+002  6.7274e+001 26688 106479,106531,106505
 1.6000e+000 107088 -2.7154e+002 -2.1301e+002  1.2328e+002 26248 107111,106918,106866
 1.6000e+000 107065 -2.8992e+002 -1.8387e+002  1.4218e+002 26248 107111,106866,106840
 1.6000e+000 107042 -2.2258e+002 -1.5101e+002  1.4035e+002 26248 106814,106970,106840
 1.6000e+000 107019 -2.5713e+002 -4.1517e+002  2.0548e+002 26248 106866,106918,106892
 1.6000e+000 106996 -4.4327e+002 -3.0214e+002  1.1105e+002 26248 106918,106970,106944
 1.6000e+000 107137 -3.0433e+002 -2.5254e+002  9.3892e+001 26248 106970,106918,107111
 1.6000e+000 107160 -2.9534e+002 -1.9469e+002  1.1635e+002 26248 106970,107111,106840
 1.6000e+000 107666 -7.3094e+002 -2.9273e+002  2.1271e+002 25908 107369,107499,107395
 1.6000e+000 107643 -9.9447e+002 -8.6774e+002  4.6043e+002 25908 107369,107525,107499
 1.6000e+000 107620 -6.0420e+002 -3.8176e+002  3.0843e+002 25908 107395,107473,107447
 1.6000e+000 107597 -5.1530e+002 -2.0139e+002  2.1862e+002 25908 107395,107499,107473
 1.6000e+000 107574 -1.0376e+003 -4.5178e+002  6.7816e+002 25908 107395,107447,107421
 1.6000e+000 107551 -3.8166e+002 -6.7337e+002  3.7672e+002 25908 107343,107525,107369
 1.6000e+000 108251 -5.7738e+002 -1.6142e+002  3.1266e+002 25454 108274,108006,107954
 1.6000e+000 108228 -4.6365e+002 -7.0225e+001  2.4226e+002 25454 108274,107954,108110
 1.6000e+000 108205 -4.2382e+002 -4.1930e+002  3.7865e+002 25454 108346,108032,108006
 1.6000e+000 108182 -7.3512e+002 -3.0008e+002  4.0036e+002 25454 107954,108006,107980
 1.6000e+000 108159 -2.7053e+002 -2.3927e+002  2.2229e+002 25454 107928,108110,107954
 1.6000e+000 108136 -8.0329e+002 -6.4829e+002  4.2629e+002 25454 108058,108110,108084
 1.6000e+000 108300 -5.5794e+002 -2.8226e+002  3.7840e+002 25454 108346,108006,108274
 1.6000e+000 108323 -4.9738e+002 -1.7106e+002  2.8276e+002 25454 108058,108274,108110
 1.6000e+000 108372 -2.6153e+002 -2.6990e+002  3.1657e+002 25454 108058,108032,108346
 1.6000e+000 108395 -4.0633e+002 -1.1722e+002  3.1432e+002 25454 108058,108346,108274
 1.6000e+000 108822 -3.9845e+002 -2.0109e+002  2.0697e+002 24943 108525,108681,108655
 1.6000e+000 108799 -4.9548e+002 -2.9890e+002  1.1507e+002 24943 108499,108681,108525
 1.6000e+000 108776 -2.2793e+002 -1.4208e+002  1.5629e+002 24943 108525,108655,108629
 1.6000e+000 108753 -3.6951e+002 -1.4368e+002  1.5104e+002 24943 108525,108629,108603
 1.6000e+000 108730 -6.9555e+002 -2.2218e+002  2.4912e+002 24943 108551,108603,108577
 1.6000e+000 108707 -6.9505e+002 -4.0860e+002  3.6297e+002 24943 108525,108603,108551
 1.6000e+000 109407 -3.3692e+001 -1.1101e+002  6.0814e+001 24745 109162,109214,109188
 1.6000e+000 109384 -2.4476e+002 -9.4538e+001  8.6305e+001 24745 109162,109266,109214
 1.6000e+000 109361 -2.8968e+002 -1.2699e+002  4.3255e+001 24745 109084,109266,109162
 1.6000e+000 109338 -4.6777e+002 -6.5400e+001  1.0442e+002 24745 109084,109162,109136
 1.6000e+000 109315 -1.1564e+002 -2.0011e+002  1.1635e+002 24745 109214,109266,109240
 1.6000e+000 109292 -3.4557e+002 -9.8213e+001  1.8154e+002 24745 109084,109136,109110
 1.6000e+000 109785 -8.6247e+002 -3.8484e+002  4.9141e+002 24341 109537,109615,109563
 1.6000e+000 109762 -9.2183e+001 -1.9202e+002  4.7031e+002 24341 109537,109641,109615
 1.6000e+000 109739 -5.8411e+002 -4.1329e+002  3.7215e+002 24341 109563,109615,109589
 1.6000e+000 109716 -3.6818e+002 -3.7436e+002  3.1072e+002 24341 109537,109667,109641
 1.6000e+000 109693 -2.0857e+002 -4.2590e+002  2.9339e+002 24341 109511,109667,109537
 1.6000e+000 110163 -8.4870e+002 -4.2769e+002  4.9106e+002 23837 110186,109967,109915
 1.6000e+000 110140 -7.9340e+002 -4.2655e+002  5.1281e+002 23837 110186,109915,109889
 1.6000e+000 110117 -3.3159e+002 -1.4224e+002  3.9308e+002 23837 109889,110045,109993
 1.6000e+000 110094 -7.7141e+002 -6.6672e+002  3.3499e+002 23837 109915,109967,109941
 1.6000e+000 110071 -4.3092e+002 -4.9173e+000  5.9550e+001 23837 109993,110045,110019
 1.6000e+000 110212 -8.1457e+002 -4.0123e+002  5.1424e+002 23837 109993,109967,110186
 1.6000e+000 110235 -7.9222e+002 -4.0764e+002  5.3745e+002 23837 109993,110186,109889
 1.6000e+000 110336 -4.8123e+002 -1.0539e+003  5.5754e+002 23433 110258,110310,110284
 1.6000e+000 110584 -6.2412e+002 -3.9679e+002  2.6361e+002 22829 110607,110411,110385
 1.6000e+000 110561 -7.6282e+002 -4.5884e+002  3.3449e+002 22829 110607,110385,110489
 1.6000e+000 110538 -5.3502e+002 -4.2423e+002  2.0096e+002 22829 110437,110489,110463
 1.6000e+000 110515 -5.8741e+002 -2.8531e+002  4.0931e+002 22829 110359,110489,110385
 1.6000e+000 110633 -6.2696e+002 -3.3134e+002  1.6292e+002 22829 110437,110411,110607
 1.6000e+000 110656 -7.0357e+002 -3.8761e+002  2.3111e+002 22829 110437,110607,110489
 1.6000e+000 110906 -1.2478e+003 -5.1696e+002  3.3051e+002 22432 110707,110759,110733
 1.6000e+000 110883 -8.0671e+002 -5.3657e+002  2.6784e+002 22432 110707,110785,110759
 1.6000e+000 110860 -8.1366e+002 -4.6836e+002  4.4011e+002 22432 110707,110811,110785
 1.6000e+000 110837 -9.9059e+002 -6.8216e+002  3.5266e+002 22432 110681,110811,110707
 1.6000e+000 111288 -9.3656e+001 -1.8808e+002  1.9409e+002 22142 111092,111144,111118
 1.6000e+000 111265 -3.3346e+002 -2.5766e+002  2.0232e+002 22142 111066,111144,111092
 1.6000e+000 111242 -3.0362e+002 -2.1582e+002  1.6799e+002 22142 111040,111144,111066
 1.6000e+000 111219 -5.7752e+002 -4.7968e+001  1.0745e+002 22142 111014,111144,111040
 1.6000e+000 111196 -3.8227e+002  1.2919e+001  1.3603e+002 22142 111014,111170,111144
 1.6000e+000 111389  2.6070e+001 -8.0388e+001  2.6639e+002 21830 111311,111363,111337
 1.6000e+000 111735 -7.2819e+002  3.1453e+001  5.6585e+002 21268 111758,111542,111438
 1.6000e+000 111712 -5.8497e+002  6.1259e+001  3.8091e+002 21268 111758,111438,111412
 1.6000e+000 111689 -2.1771e+002 -3.3721e+002  6.9610e+002 21268 111438,111542,111464
 1.6000e+000 111666  5.6295e+001 -1.7426e+002  8.7706e+002 21268 111464,111542,111490
 1.6000e+000 111643 -1.3988e+003 -6.9284e+002  6.7470e+002 21268 111412,111594,111568
 1.6000e+000 111620  4.8762e+002  3.9189e+002  1.0967e+003 21268 111490,111542,111516
 1.6000e+000 111784 -7.4990e+002 -8.4559e+001  5.5670e+002 21268 111568,111542,111758
 1.6000e+000 111807 -7.4207e+002 -3.2540e+002  4.3083e+002 21268 111568,111758,111412
 1.6000e+000 111959 -6.9045e+002 -8.0723e+001  2.3645e+002 20864 111982,111910,111884
 1.6000e+000 111936 -6.4092e+002 -9.9897e+001  3.4415e+002 20864 112114,111832,111910
 1.6000e+000 112008 -6.7791e+002 -2.3168e+002  2.9493e+002 20864 112114,111910,111982
 1.6000e+000 112140 -6.2743e+002 -2.4944e+002  2.7709e+002 20864 111858,111832,112114
 1.6000e+000 112163 -6.7716e+002 -4.1116e+002  2.3240e+002 20864 111858,112114,111982
 1.6000e+000 112411 -6.3562e+001 -1.3426e+001  2.2982e+001 20324 112186,112290,112212
 1.6000e+000 112388 -1.2405e+001 -3.5450e+000  3.6727e+001 20324 112186,112316,112290
 1.6000e+000 112365  3.2701e+002 -2.1783e+002  3.6063e+001 20324 112212,112290,112264
 1.6000e+000 112342 -1.0909e+003 -4.6665e+002 -7.5050e+001 20324 112212,112264,112238
 1.6000e+000 112659 -1.3937e+002 -4.1753e+001  3.3954e+002 19920 112512,112564,112538
 1.6000e+000 112636 -4.2291e+002 -1.6630e+002  2.3217e+002 19920 112434,112564,112512
 1.6000e+000 112613 -4.3331e+002 -2.6205e+002  2.7141e+002 19920 112434,112512,112460
 1.6000e+000 112590 -4.5466e+002 -2.7723e+002  2.7906e+002 19920 112460,112512,112486
 1.6000e+000 112811 -1.0166e+002 -3.9258e+001  1.6628e+002 19630 112684,112736,112710
 1.6000e+000 112788  8.2496e+001 -2.1406e+002  7.3139e+001 19630 112684,112762,112736
 1.6000e+000 113012 -3.7437e+002 -1.3789e+002  3.7880e+002 19169 112862,112940,112888
 1.6000e+000 112989 -6.2338e+002 -4.8945e+002  2.6807e+002 19169 112836,112940,112862
 1.6000e+000 112966 -3.5546e+002 -4.5142e+002  3.3099e+002 19169 112888,112940,112914
 1.6000e+000 113213 -9.5125e+002 -3.7961e+002  4.1815e+002 18600 113037,113089,113063
 1.6000e+000 113190 -6.0023e+002 -2.4385e+002  3.2799e+002 18600 113037,113115,113089
 1.6000e+000 113167 -1.1196e+003 -7.0055e+002  6.3167e+002 18600 113037,113141,113115
 1.6000e+000 113485 -4.2598e+002 -1.5696e+002  4.0305e+002 18352 113260,113312,113286
 1.6000e+000 113462 -8.4859e+002 -4.7857e+002  5.4354e+002 18352 113260,113390,113312
 1.6000e+000 113439 -7.9830e+002 -1.5030e+002  3.8687e+002 18352 113312,113390,113364
 1.6000e+000 113416 -2.9685e+002 -1.0058e+002  4.1170e+002 18352 113312,113364,113338
 1.6000e+000 113757 -5.8915e+002 -2.2815e+002  3.9190e+002 17834 113558,113610,113584
 1.6000e+000 113734 -8.6480e+002 -4.7545e+002  5.2209e+002 17834 113532,113610,113558
 1.6000e+000 113711 -8.7682e+002 -5.6128e+002  4.2139e+002 17834 113532,113662,113610
 1.6000e+000 113688 -4.4057e+002 -1.3289e+002  5.9483e+002 17834 113610,113662,113636
 1.6000e+000 113958 -5.4219e+002 -2.1854e+002  2.9567e+002 17330 113782,113834,113808
 1.6000e+000 113935 -3.1226e+002 -1.8906e+002  2.2437e+002 17330 113782,113886,113834
 1.6000e+000 113912 -3.7801e+002 -1.7510e+002  1.4430e+002 17330 113834,113886,113860
 1.6000e+000 114110 -8.3357e+002 -3.1109e+002  5.3601e+002 16874 113983,114035,114009
 1.6000e+000 114087 -3.3142e+002 -7.4721e+002  4.9088e+002 16874 113983,114061,114035
 1.6000e+000 114465 -8.9828e+002 -3.7846e+002  2.0196e+002 16270 114240,114292,114266
 1.6000e+000 114442 -5.6843e+002 -1.2480e+002  8.5578e+001 16270 114240,114370,114292
 1.6000e+000 114419 -2.8454e+002 -1.1761e+002  1.6674e+002 16270 114292,114344,114318
 1.6000e+000 114396 -5.7651e+002 -2.6296e+002  9.3165e+001 16270 114292,114370,114344
 1.6000e+000 114566 -5.8962e+001  5.8962e+001  7.3536e+002 15834 114488,114540,114514
 1.6000e+000 114667 -5.4038e+002 -2.1351e+002  3.3798e+002 15155 114589,114641,114615
 1.6000e+000 114890 -4.4499e+002 -1.5850e+002  4.5125e+002 421 114766,114818,114792
 1.6000e+000 114867 -6.5434e+002 -5.5434e+002  3.6971e+002 421 114714,114818,114766
 1.6000e+000 114844 -8.9091e+002 -3.7473e+002  2.1029e+002 421 114714,114766,114740
 1.7000e+000 66553 -5.3630e+002 -2.3100e+002  2.8671e+002 66108 66354,66458,66432
 1.7000e+000 66530 -5.4995e+002 -2.3016e+002  1.9274e+002 66108 66328,66458,66354
 1.7000e+000 66507 -3.0686e+002 -2.3042e+002  1.8820e+002 66108 66354,66432,66406
 1.7000e+000 66484  1.3109e+002  7.5027e+001  3.4970e+002 66108 66354,66406,66380
 1.7000e+000 66951 -3.2470e+002 -1.3368e+002  1.8788e+002 65910 66703,66833,66807
 1.7000e+000 66928 -5.3169e+001 -9.7824e+001  2.3807e+002 65910 66677,66833,66703
 1.7000e+000 66905 -2.2652e+002 -4.5927e+002  3.1217e+002 65910 66729,66781,66755
 1.7000e+000 66882 -8.4804e+002 -3.5014e+002  2.8891e+002 65910 66729,66807,66781
 1.7000e+000 66859 -5.4258e+002 -6.9169e+001  1.6793e+002 65910 66703,66807,66729
 1.7000e+000 67150 -4.7569e+002 -2.0404e+002  1.7878e+001 65712 67026,67078,67052
 1.7000e+000 67127 -2.1873e+002 -1.2438e+002 -2.4166e+001 65712 66974,67078,67026
 1.7000e+000 67104 -4.9308e+002 -2.0410e+002 -6.3860e+001 65712 66974,67026,67000
 1.7000e+000 67481 -1.0700e+003 -1.9225e+002  3.7359e+002 65422 67282,67360,67334
 1.7000e+000 67458 -4.8448e+002 -1.5186e+002  5.9351e+002 65422 67282,67386,67360
 1.7000e+000 67435 -2.8560e+002  1.4631e+002  3.1526e+002 65422 67282,67334,67308
 1.7000e+000 67412  9.2734e+001 -1.0363e+002  2.5928e+002 65422 67256,67386,67282
 1.7000e+000 68115 -2.1630e+002 -1.9645e+002  1.2133e+002 65018 67795,67925,67873
 1.7000e+000 68092 -2.8055e+002 -2.3034e+002  7.8041e+001 65018 67769,67925,67795
 1.7000e+000 68069 -1.7900e+002 -1.4752e+002  1.3758e+002 65018 67873,67925,67899
 1.7000e+000 68046 -3.7535e+002 -3.3892e+002  1.2576e+002 65018 67769,67951,67925
 1.7000e+000 68023 -3.2881e+002 -2.3063e+002  1.7239e+002 65018 67795,67873,67821
 1.7000e+000 68000 -3.8411e+002 -2.2239e+002  1.3662e+002 65018 67821,67873,67847
 1.7000e+000 67977 -5.7299e+002 -4.0360e+002  1.2523e+002 65018 67743,67951,67769
 1.7000e+000 68363 -2.7182e+002 -5.5406e+002  5.8050e+002 64820 68190,68242,68216
 1.7000e+000 68340 -5.9515e+002 -4.1865e+002  6.0680e+002 64820 68190,68268,68242
 1.7000e+000 68317 -3.3079e+002 -2.9071e+002  6.5723e+002 64820 68164,68268,68190
 1.7000e+000 68294 -1.2010e+003 -4.8152e+002  4.5227e+002 64820 68138,68268,68164
 1.7000e+000 68513 -5.2905e+002 -2.5406e+002  3.1112e+002 64366 68868,68536,68438
 1.7000e+000 68490 -3.3072e+002 -1.6162e+002  2.1234e+002 64366 68536,68412,68386
 1.7000e+000 68562 -7.1269e+002 -2.9946e+002  3.4001e+002 64366 68740,68536,68464
 1.7000e+000 68585 -4.7899e+002 -2.1489e+002  2.6786e+002 64366 68608,68536,68386
 1.7000e+000 68634 -5.8074e+002 -4.2884e+002  2.3868e+002 64366 68464,68536,68608
 1.7000e+000 68766 -5.0463e+002 -2.0039e+002  3.0512e+002 64366 68438,68536,68740
 1.7000e+000 68894 -4.8458e+002 -1.9498e+002  3.3078e+002 64366 68412,68536,68868
 1.7000e+000 69172 -8.5935e+001 -5.9101e+002  1.3178e+002 64168 69022,69074,69048
 1.7000e+000 69149 -7.2303e+002 -2.9749e+002  2.7980e+002 64168 68996,69074,69022
 1.7000e+000 69126 -8.5810e+002 -6.0164e+002  1.9593e+002 64168 68996,69100,69074
 1.7000e+000 69371 -5.0884e+002 -1.8215e+002  3.6883e+002 63970 69466,69394,69273
 1.7000e+000 69348 -2.3104e+002 -1.3670e+002  1.1126e+002 63970 69394,69247,69221
 1.7000e+000 69325 -9.4717e+002 -3.9637e+002  2.4436e+002 63970 69195,69299,69221
 1.7000e+000 69420 -7.5711e+002 -3.0006e+002  4.6854e+002 63970 69299,69273,69394
 1.7000e+000 69443 -4.7309e+002 -3.7735e+002  2.5677e+002 63970 69299,69394,69221
 1.7000e+000 69492 -5.3202e+002 -2.2282e+002  3.5948e+002 63970 69247,69394,69466
 1.7000e+000 69904 -3.2693e+001 -2.1073e+002  1.1151e+002 63680 69705,69783,69731
 1.7000e+000 69881  2.4538e+001 -1.4307e+002  6.3704e+001 63680 69679,69783,69705
 1.7000e+000 69858 -2.1146e+002 -2.8667e+002  1.3182e+002 63680 69679,69809,69783
 1.7000e+000 69835 -1.2228e+002 -1.5709e+002  1.1330e+002 63680 69731,69783,69757
 1.7000e+000 70054 -3.4110e+001 -3.4200e+002  2.2058e+002 63476 70077,69953,69927
 1.7000e+000 70031  5.9737e+001 -1.4240e+002  3.1317e+002 63476 70077,69927,70005
 1.7000e+000 70103 -1.7648e+002 -2.1447e+002  1.3602e+002 63476 69979,69953,70077
 1.7000e+000 70126 -1.0172e+002 -3.6481e+001  2.1395e+002 63476 69979,70077,70005
 1.7000e+000 70325 -1.0735e+003 -4.2261e+002  4.7496e+002 63278 70149,70227,70175
 1.7000e+000 70302 -5.2471e+002 -1.8083e+002  5.2940e+002 63278 70149,70253,70227
 1.7000e+000 70279 -1.3154e+003 -6.4638e+002  2.6289e+002 63278 70175,70227,70201
 1.7000e+000 70597 -4.9076e+002  4.1757e+000  1.7153e+002 63080 70372,70476,70424
 1.7000e+000 70574 -2.8729e+002 -1.1460e+002  2.3361e+002 63080 70372,70502,70476
 1.7000e+000 70551 -7.3091e+002 -2.9804e+002  3.0942e+002 63080 70424,70476,70450
 1.7000e+000 70528 -1.0962e+003 -3.0417e+002  4.9674e+002 63080 70372,70424,70398
 1.7000e+000 70847 -7.8485e+001 -2.5869e+002  1.0826e+002 62740 70870,70648,70622
 1.7000e+000 70824 -2.1088e+002 -1.8896e+002  1.5802e+002 62740 70870,70622,70752
 1.7000e+000 70801 -8.6127e+001 -3.7695e+002  1.8713e+002 62740 70648,70726,70700
 1.7000e+000 70778 -1.1027e+002 -4.1903e+002  1.9701e+002 62740 70648,70700,70674
 1.7000e+000 70896 -2.0005e+002 -3.3546e+002  7.5519e+001 62740 70726,70648,70870
 1.7000e+000 70919 -2.6056e+002 -2.1905e+002  1.4534e+002 62740 70726,70870,70752
 1.7000e+000 71022 -6.6544e+001  6.6544e+001  7.8088e+002 62520 70944,70996,70970
 1.7000e+000 71223 -9.2239e+002 -3.8721e+002  5.5883e+002 62230 71073,71151,71099
 1.7000e+000 71200 -8.0632e+002 -3.5772e+002  5.4521e+002 62230 71047,71151,71073
 1.7000e+000 71177 -5.0171e+002 -7.1592e+002  4.6463e+002 62230 71099,71151,71125
 1.7000e+000 71861 -3.3755e+002 -4.7036e+002 -5.4654e+000 61712 71515,71697,71671
 1.7000e+000 71838 -3.7726e+002 -5.2996e+002  1.0677e+002 61712 71489,71697,71515
 1.7000e+000 71815 -1.1445e+003 -4.7454e+002  3.3938e+002 61712 71884,71541,71515
 1.7000e+000 71792 -7.6481e+002 -2.4107e+002  2.4074e+002 61712 71884,71515,71671
 1.7000e+000 71769 -2.8499e+002 -7.3140e+002  3.0318e+002 61712 71541,71619,71593
 1.7000e+000 71746 -2.8952e+002 -9.0029e+002  1.5089e+002 61712 71619,71671,71645
 1.7000e+000 71723 -9.6282e+002 -1.1107e+003  6.1554e+002 61712 71541,71593,71567
 1.7000e+000 71910 -7.9251e+002 -7.1000e+002  5.2326e+002 61712 71619,71541,71884
 1.7000e+000 71933 -5.4832e+002 -5.5488e+002  4.5645e+002 61712 71619,71884,71671
 1.7000e+000 72230 -4.2479e+002 -2.3391e+002  7.9088e+001 61208 72253,72060,72008
 1.7000e+000 72207 -4.0852e+002 -1.4993e+002  6.9148e+001 61208 72253,72008,71982
 1.7000e+000 72184 -4.0045e+002 -8.0215e+001  6.5965e+001 61208 71982,72112,72086
 1.7000e+000 72161 -7.5697e+002 -2.3703e+002  1.7550e+002 61208 72008,72060,72034
 1.7000e+000 72138 -2.7661e+002 -7.3354e+001  1.4287e+002 61208 71956,72112,71982
 1.7000e+000 72279 -4.1492e+002 -1.7589e+002  4.2749e+001 61208 72086,72060,72253
 1.7000e+000 72302 -4.2443e+002 -1.2722e+002  3.3324e+001 61208 72086,72253,71982
 1.7000e+000 72761 -6.0722e+002 -3.0880e+002  2.0232e+002 60804 72487,72617,72513
 1.7000e+000 72738 -5.7024e+002 -3.3724e+002  1.8477e+002 60804 72487,72643,72617
 1.7000e+000 72715 -2.3266e+002 -4.4683e+002  2.6049e+002 60804 72565,72617,72591
 1.7000e+000 72692 -4.9777e+002 -3.0281e+002  2.5845e+002 60804 72513,72617,72565
 1.7000e+000 72669 -4.9987e+002 -2.8051e+002  2.8673e+002 60804 72513,72565,72539
 1.7000e+000 72911 -6.6544e+001  6.6544e+001  7.8088e+002 60556 72784,72836,72810
 1.7000e+000 72888  5.9886e+002  1.8054e+002  5.1546e+002 60556 72784,72862,72836
 1.7000e+000 73468 -2.8645e+002 -2.9437e+002  2.0130e+002 60244 73491,73226,73200
 1.7000e+000 73445 -3.7499e+002 -2.9321e+002  2.9477e+002 60244 73563,73491,73200
 1.7000e+000 73422 -6.4306e+002 -1.8372e+002  3.0064e+002 60244 73563,73200,73174
 1.7000e+000 73399 -2.4213e+002 -3.3039e+002  1.7110e+002 60244 73226,73278,73252
 1.7000e+000 73376 -5.0388e+002 -3.2833e+002  2.0877e+002 60244 73122,73304,73278
 1.7000e+000 73353 -5.2959e+002 -5.4228e+002  2.4772e+002 60244 73096,73304,73122
 1.7000e+000 73330 -7.6840e+002 -1.5653e+002 -1.4624e+002 60244 73122,73174,73148
 1.7000e+000 73517 -5.0455e+002 -3.9336e+002  2.3759e+002 60244 73278,73226,73491
 1.7000e+000 73540 -4.6997e+002 -3.0231e+002  2.2025e+002 60244 73278,73491,73122
 1.7000e+000 73589 -7.6974e+002 -4.1626e+002  2.2678e+002 60244 73122,73491,73563
 1.7000e+000 73612 -1.0319e+003 -2.9515e+002  2.4867e+002 60244 73122,73563,73174
 1.7000e+000 73762 -4.5987e+002 -1.0721e+003  4.9860e+002 59875 73661,73713,73687
 1.7000e+000 73739 -7.0012e+002 -4.7387e+002  3.6958e+002 59875 73635,73713,73661
 1.7000e+000 74191 -1.8578e+002 -3.7812e+002  5.4284e+002 59478 74214,73894,73868
 1.7000e+000 74168 -4.5457e+002 -3.6396e+002  5.6949e+002 59478 74214,73868,74050
 1.7000e+000 74145 -3.7605e+002 -4.8674e+002  2.9145e+002 59478 73894,73946,73920
 1.7000e+000 74122 -3.9010e+002 -4.0245e+002  2.7501e+002 59478 73894,73998,73946
 1.7000e+000 74099 -1.2236e+003 -6.3142e+002  7.8843e+002 59478 73998,74050,74024
 1.7000e+000 74076 -5.2176e+002 -4.8803e+002  1.8049e+002 59478 73946,73998,73972
 1.7000e+000 74240 -4.3202e+002 -2.9889e+002  4.1497e+002 59478 73998,73894,74214
 1.7000e+000 74263 -6.9266e+002 -3.0173e+002  3.9860e+002 59478 73998,74214,74050
 1.7000e+000 74720 -5.3040e+002 -3.7339e+002  1.9594e+002 58774 74472,74602,74498
 1.7000e+000 74697 -5.0723e+002 -3.5962e+002  2.0174e+002 58774 74446,74602,74472
 1.7000e+000 74674 -5.4119e+002 -3.3810e+002  2.1626e+002 58774 74498,74576,74524
 1.7000e+000 74651 -5.0569e+002 -3.4087e+002  2.0834e+002 58774 74498,74602,74576
 1.7000e+000 74628 -5.8373e+002 -5.1782e+002  2.5766e+002 58774 74524,74576,74550
 1.7000e+000 75226 -4.7809e+002 -1.8714e+002  2.4917e+002 58270 74955,75085,75033
 1.7000e+000 75203 -3.4183e+002 -4.0637e+002  3.3063e+002 58270 74929,75085,74955
 1.7000e+000 75180 -4.3658e+002 -2.1494e+002  2.1333e+002 58270 75033,75085,75059
 1.7000e+000 75157 -6.3058e+002 -2.4258e+002  1.5221e+002 58270 74955,75007,74981
 1.7000e+000 75134 -3.2092e+002 -1.2461e+002  9.0415e+001 58270 74955,75033,75007
 1.7000e+000 75111 -5.2841e+001 -5.0060e+002  1.5708e+002 58270 74903,75085,74929
 1.7000e+000 75425 -2.6373e+002 -1.1868e+002  1.2166e+002 57830 75448,75301,75249
 1.7000e+000 75402 -1.8989e+002  4.5549e+000  6.5682e+001 57830 75448,75249,75353
 1.7000e+000 75379 -2.3945e+002 -4.1589e+002  1.1668e+002 57830 75520,75301,75275
 1.7000e+000 75474 -2.5301e+002 -1.9373e+002  1.9430e+002 57830 75327,75301,75448
 1.7000e+000 75497 -2.1555e+002 -1.3749e+002  1.3991e+002 57830 75327,75448,75353
 1.7000e+000 75546 -1.4750e+002 -6.6153e+001  3.6249e+001 57830 75249,75301,75520
 1.7000e+000 76261 -2.4301e+002 -3.6774e+002  2.2922e+002 57426 76284,76097,76071
 1.7000e+000 76238 -2.2473e+002 -2.9035e+002  2.5420e+002 57426 75889,76097,75915
 1.7000e+000 76215 -3.5963e+002 -4.0405e+002  2.3407e+002 57426 76428,76284,76071
 1.7000e+000 76192 -2.6950e+002 -3.5054e+002  1.5178e+002 57426 76356,75941,75915
 1.7000e+000 76169 -3.6853e+002 -3.5295e+002  2.2115e+002 57426 76428,76071,76019
 1.7000e+000 76146 -3.7968e+002 -4.0611e+002  2.0828e+002 57426 76019,76071,76045
 1.7000e+000 76123 -3.3795e+002 -3.3640e+002  2.9493e+002 57426 75967,76019,75993
 1.7000e+000 76310 -2.8177e+002 -4.6021e+002  2.0067e+002 57426 75915,76097,76284
 1.7000e+000 76333 -2.7965e+002 -4.0005e+002  1.5716e+002 57426 76356,75915,76284
 1.7000e+000 76382 -3.0720e+002 -2.7979e+002  1.9574e+002 57426 75967,75941,76356
 1.7000e+000 76405 -3.1117e+002 -3.1600e+002  1.9321e+002 57426 75967,76356,76284
 1.7000e+000 76454 -3.2685e+002 -3.6016e+002  2.1844e+002 57426 75967,76284,76428
 1.7000e+000 76477 -3.6188e+002 -3.3337e+002  2.1547e+002 57426 75967,76428,76019
 1.7000e+000 76953 -3.5336e+002 -6.9764e+002  3.6328e+002 56908 76976,76711,76685
 1.7000e+000 76930 -3.6679e+002 -7.1173e+002  3.1377e+002 56908 77048,76976,76685
 1.7000e+000 76907 -6.7432e+002 -7.4213e+002  4.5382e+002 56908 77048,76685,76633
 1.7000e+000 76884 -1.0034e+003 -1.1028e+003  6.7655e+002 56908 76711,76789,76763
 1.7000e+000 76861 -5.5615e+002 -4.6423e+002  2.4625e+002 56908 76581,76789,76607
 1.7000e+000 76838 -9.9408e+002 -8.2570e+002  2.6266e+002 56908 76711,76763,76737
 1.7000e+000 76815 -1.3901e+003 -1.1975e+003  7.8304e+002 56908 76633,76685,76659
 1.7000e+000 77002 -3.0785e+002 -6.9337e+002  4.1448e+002 56908 76789,76711,76976
 1.7000e+000 77025 -4.0412e+002 -4.6274e+002  2.0874e+002 56908 76789,76976,76607
 1.7000e+000 77074 -8.4748e+002 -6.9755e+002  3.0354e+002 56908 76607,76976,77048
 1.7000e+000 77097 -1.0142e+003 -5.9760e+002  4.2746e+002 56908 76607,77048,76633
 1.7000e+000 77475 -4.3269e+002 -6.6989e+002  4.0513e+002 56546 77570,77498,77279
 1.7000e+000 77452 -3.5212e+002 -8.0645e+002  5.0324e+002 56546 77498,77227,77357
 1.7000e+000 77429 -4.8122e+002 -7.1919e+002  4.5337e+002 56546 77570,77279,77253
 1.7000e+000 77406 -6.9014e+002 -9.5337e+002  5.2249e+002 56546 77201,77357,77227
 1.7000e+000 77383 -5.7282e+002 -6.8686e+002  2.5928e+002 56546 77279,77331,77305
 1.7000e+000 77524 -3.9027e+002 -4.4296e+002  3.8789e+002 56546 77331,77279,77498
 1.7000e+000 77547 -2.9277e+002 -6.1613e+002  5.6585e+002 56546 77331,77498,77357
 1.7000e+000 77596 -4.6774e+002 -6.7961e+002  5.0902e+002 56546 77227,77498,77570
 1.7000e+000 77619 -5.4324e+002 -8.3795e+002  5.5918e+002 56546 77227,77570,77253
 1.7000e+000 77818 -5.4138e+002 -5.4027e+002  4.0089e+002 56042 77841,77694,77668
 1.7000e+000 77795 -5.1516e+002 -5.0616e+002  2.9208e+002 56042 77841,77668,77746
 1.7000e+000 77772 -5.8003e+002 -8.5795e+002  2.6363e+002 56042 77642,77746,77668
 1.7000e+000 77867 -5.8965e+002 -6.2665e+002  4.2552e+002 56042 77720,77694,77841
 1.7000e+000 77890 -5.5460e+002 -5.7965e+002  3.1460e+002 56042 77720,77841,77746
 1.7000e+000 78349 -4.0965e+002 -1.2659e+002  1.7858e+002 55538 78075,78127,78101
 1.7000e+000 78326 -5.0139e+002 -2.5100e+002  1.0376e+002 55538 78075,78205,78127
 1.7000e+000 78303 -3.3628e+002 -1.1166e+002  3.5036e+001 55538 78075,78231,78205
 1.7000e+000 78280 -4.1675e+002 -4.1142e+002  2.4893e+002 55538 78127,78179,78153
 1.7000e+000 78257 -3.4554e+002 -2.4989e+002  9.6171e+001 55538 78127,78205,78179
 1.7000e+000 78806 -3.1468e+002 -4.1848e+002  1.2241e+002 55034 78829,78636,78610
 1.7000e+000 78783 -3.6237e+002 -4.0202e+002  1.3826e+002 55034 78901,78829,78610
 1.7000e+000 78760 -3.0398e+002 -4.0606e+002  1.5295e+002 55034 78901,78610,78584
 1.7000e+000 78737 -4.4140e+002 -3.5729e+002  1.3656e+002 55034 78558,78688,78662
 1.7000e+000 78714 -5.2268e+002 -4.0375e+002  3.7910e+002 55034 78532,78688,78558
 1.7000e+000 78855 -3.7341e+002 -4.9934e+002  9.2527e+001 55034 78662,78636,78829
 1.7000e+000 78878 -3.7833e+002 -3.9935e+002  1.5270e+002 55034 78662,78829,78558
 1.7000e+000 78927 -3.2094e+002 -3.6539e+002  1.7795e+002 55034 78558,78829,78901
 1.7000e+000 78950 -3.0191e+002 -3.8207e+002  1.9572e+002 55034 78558,78901,78584
 1.7000e+000 79407 -2.6809e+002 -1.1958e+002  2.5050e+002 54430 79430,79237,79159
 1.7000e+000 79384 -3.7972e+002 -3.1804e+002  9.2237e+001 54430 79430,79159,79133
 1.7000e+000 79361 -2.2918e+002 -2.2768e+002  1.1469e+002 54430 79237,79289,79263
 1.7000e+000 79338 -3.2939e+002 -2.0433e+002  2.0806e+002 54430 79185,79237,79211
 1.7000e+000 79315 -4.6842e+002 -2.0947e+002  2.9703e+002 54430 79159,79237,79185
 1.7000e+000 79456 -2.5805e+002 -3.4627e+002  1.2177e+002 54430 79289,79237,79430
 1.7000e+000 79479 -3.2024e+002 -5.9181e+002  7.0848e-001 54430 79289,79430,79133
 1.7000e+000 79936 -2.2307e+002 -8.9132e+001  2.5682e+002 53919 79662,79766,79688
 1.7000e+000 79913 -8.1773e+002 -3.8231e+002  4.8043e+002 53919 79662,79818,79766
 1.7000e+000 79890 -1.1227e+003 -4.6102e+002  6.6094e+001 53919 79766,79818,79792
 1.7000e+000 79867 -5.7445e+002 -3.1096e+002  3.5139e+002 53919 79714,79766,79740
 1.7000e+000 79844 -5.2954e+002 -2.8382e+002  3.6287e+002 53919 79688,79766,79714
 1.7000e+000 80037 -1.3597e+002 -3.8700e+002  3.9285e+002 53671 79959,80011,79985
 1.7000e+000 80405 -3.9953e+001 -8.6999e+001 -1.3641e+001 53267 80108,80264,80238
 1.7000e+000 80382 -3.3097e+001 -6.6531e+000  1.3293e+001 53267 80082,80264,80108
 1.7000e+000 80359 -3.8012e+001 -3.1154e+002  2.2869e+002 53267 80108,80238,80134
 1.7000e+000 80336 -1.4806e+001 -1.1510e+002  1.5975e+002 53267 80134,80212,80186
 1.7000e+000 80313 -2.6415e+002 -3.0482e+002  2.8602e+002 53267 80134,80238,80212
 1.7000e+000 80290  7.6121e+001 -2.2689e+002  5.6510e+001 53267 80134,80186,80160
 1.7000e+000 80915 -2.7711e+002 -4.2160e+002  1.1313e+002 52969 80644,80774,80748
 1.7000e+000 80892 -2.9623e+002 -1.1323e+002 -2.9626e+001 52969 80618,80774,80644
 1.7000e+000 80869 -4.5585e+002 -5.9859e+002  3.0094e+001 52969 80644,80748,80670
 1.7000e+000 80846 -3.7348e+002 -1.1566e+002 -1.4470e+001 52969 80592,80774,80618
 1.7000e+000 80823 -7.4894e+002 -5.7957e+002  1.4170e+002 52969 80670,80722,80696
 1.7000e+000 80800 -3.6478e+002 -4.3026e+002  6.5091e+001 52969 80670,80748,80722
 1.7000e+000 81266  1.1144e+002 -1.6904e+002  6.3114e+001 52565 81041,81145,81067
 1.7000e+000 81243 -9.0821e+001 -5.2081e+002  1.5609e+002 52565 81041,81171,81145
 1.7000e+000 81220 -4.7619e+002 -1.3102e+003  3.0052e+002 52565 81067,81119,81093
 1.7000e+000 81197  1.6920e+002  4.0714e+001  8.8730e+001 52565 81067,81145,81119
 1.7000e+000 81723 -2.4920e+002 -1.1632e+002  1.1142e+002 51904 81449,81527,81475
 1.7000e+000 81700 -2.0021e+002 -4.4933e+001  8.5454e+001 51904 81449,81579,81527
 1.7000e+000 81677 -4.9160e+002 -3.3124e+002  2.2628e+002 51904 81449,81605,81579
 1.7000e+000 81654 -2.3036e+002 -3.7655e+001  8.1702e+001 51904 81527,81579,81553
 1.7000e+000 81631 -3.3071e+002 -9.0015e+001  4.9305e+001 51904 81475,81527,81501
 1.7000e+000 82327 -5.1451e+002 -5.0767e+002  3.6222e+002 51321 82422,82350,82036
 1.7000e+000 82304 -5.3266e+002 -3.9088e+002  3.6640e+002 51321 82494,82350,81958
 1.7000e+000 82281 -5.1933e+002 -5.1259e+002  3.4496e+002 51321 82422,82036,82010
 1.7000e+000 82258 -5.0510e+002 -3.6883e+002  3.3764e+002 51321 82494,81958,81932
 1.7000e+000 82235 -5.5981e+002 -3.2301e+002  2.1883e+002 51321 82062,82114,82088
 1.7000e+000 82212 -1.2254e+003 -7.5099e+002  4.9598e+002 51321 81932,82140,82114
 1.7000e+000 82189 -5.4507e+002 -1.7403e+002  3.0087e+002 51321 81958,82010,81984
 1.7000e+000 82166 -4.1780e+002 -4.4563e+002  2.7283e+002 51321 81906,82140,81932
 1.7000e+000 82376 -5.1654e+002 -6.1895e+002  3.6120e+002 51321 82062,82036,82350
 1.7000e+000 82399 -5.4613e+002 -4.8376e+002  3.4504e+002 51321 82062,82350,82114
 1.7000e+000 82448 -4.9164e+002 -4.9622e+002  3.6609e+002 51321 81958,82350,82422
 1.7000e+000 82471 -4.9369e+002 -4.9985e+002  3.4914e+002 51321 81958,82422,82010
 1.7000e+000 82520 -5.3771e+002 -4.1757e+002  3.8042e+002 51321 82114,82350,82494
 1.7000e+000 82543 -5.3660e+002 -4.1314e+002  3.5667e+002 51321 82114,82494,81932
 1.7000e+000 83019 -4.8748e+002 -6.7431e+002  3.8294e+002 50817 82673,82751,82699
 1.7000e+000 82996 -4.9507e+002 -5.7625e+002  2.3089e+002 50817 83042,82673,82855
 1.7000e+000 82973 -5.8863e+002 -4.9497e+002  1.9393e+002 50817 83042,82855,82803
 1.7000e+000 82950 -7.3062e+002 -5.1260e+002  2.7820e+002 50817 82751,82803,82777
 1.7000e+000 82927 -6.8580e+002 -6.6269e+002  2.0867e+002 50817 82647,82855,82673
 1.7000e+000 82904 -7.4706e+002 -6.1341e+002  3.1489e+002 50817 82803,82855,82829
 1.7000e+000 82881 -8.8692e+002 -1.3707e+003  5.9684e+002 50817 82699,82751,82725
 1.7000e+000 83068 -3.6431e+002 -5.1303e+002  2.0937e+002 50817 82751,82673,83042
 1.7000e+000 83091 -5.1227e+002 -4.6646e+002  1.8659e+002 50817 82751,83042,82803
 1.7000e+000 83290 -5.6946e+002 -2.6051e+002  3.5512e+002 50356 83313,83166,83140
 1.7000e+000 83267 -6.4765e+002 -5.2023e+002  2.8111e+002 50356 83515,83313,83140
 1.7000e+000 83244 -7.3573e+002 -5.1976e+002  1.4446e+002 50356 83515,83140,83385
 1.7000e+000 83339 -6.6424e+002 -4.5628e+002  3.8958e+002 50356 83192,83166,83313
 1.7000e+000 83362 -4.7961e+002 -4.7786e+002  3.2891e+002 50356 83192,83313,83218
 1.7000e+000 83411 -2.8507e+002 -2.7741e+002  2.3480e+002 50356 83114,83218,83385
 1.7000e+000 83541 -4.2382e+002 -4.5135e+002  2.7931e+002 50356 83218,83313,83515
 1.7000e+000 83564 -4.4584e+002 -4.0277e+002  1.6117e+002 50356 83218,83515,83385
 1.7000e+000 83893 -4.4505e+002 -3.4708e+002  1.0547e+002 49552 83720,83798,83746
 1.7000e+000 83870 -3.2215e+002 -7.5557e+001  1.3283e+002 49552 83694,83798,83720
 1.7000e+000 83847 -2.4064e+002 -1.3422e+002  1.2300e+002 49552 83668,83798,83694
 1.7000e+000 83824 -6.7405e+002 -1.9764e+002 -1.4746e+000 49552 83746,83798,83772
 1.7000e+000 84141 -6.9831e+002 -5.0287e+002  3.6123e+002 49212 84164,84020,83942
 1.7000e+000 84118 -6.6818e+002 -4.1920e+002  3.8330e+002 49212 84164,83942,83916
 1.7000e+000 84095 -4.5933e+002 -6.3062e+002  2.6954e+002 49212 83942,84020,83968
 1.7000e+000 84072 -4.1106e+002 -4.5806e+001  1.2316e+002 49212 83968,84020,83994
 1.7000e+000 84190 -7.1709e+002 -4.8633e+002  3.1338e+002 49212 84046,84020,84164
 1.7000e+000 84213 -6.9074e+002 -4.3225e+002  3.3666e+002 49212 84046,84164,83916
 1.7000e+000 84800 -1.6786e+002 -4.2056e+002  2.4429e+002 48865 84503,84633,84555
 1.7000e+000 84777 -3.6941e+002 -6.8848e+002  1.5489e+002 48865 84503,84659,84633
 1.7000e+000 84754 -3.1191e+002 -8.1932e+002  2.1882e+002 48865 84555,84633,84581
 1.7000e+000 84731 -2.5148e+002 -1.2653e+003  4.4795e+002 48865 84581,84633,84607
 1.7000e+000 84708 -6.5079e+002 -5.4328e+002  1.7139e+002 48865 84503,84555,84529
 1.7000e+000 84685 -3.8714e+002 -6.4058e+002  2.4033e+002 48865 84477,84659,84503
 1.7000e+000 85355 -2.9493e+002 -2.4728e+002  6.1742e+001 48461 85378,85035,85009
 1.7000e+000 85332 -4.4497e+002 -3.9402e+002  1.2745e+002 48461 85378,85009,85165
 1.7000e+000 85309 -3.5838e+002 -3.9936e+002  2.1847e+002 48461 85450,85061,85035
 1.7000e+000 85286 -5.2099e+002 -4.2451e+002  1.2848e+002 48461 85009,85191,85165
 1.7000e+000 85263 -4.0598e+002 -3.5673e+002  2.7642e+002 48461 85087,85165,85113
 1.7000e+000 85240 -2.3834e+002 -5.5139e+002 -6.4362e+001 48461 84983,85191,85009
 1.7000e+000 85217 -3.4100e+002 -4.4581e+002  1.7610e+002 48461 85113,85165,85139
 1.7000e+000 85404 -3.8751e+002 -2.9742e+002  1.6703e+002 48461 85450,85035,85378
 1.7000e+000 85427 -4.8660e+002 -3.6805e+002  1.4975e+002 48461 85087,85378,85165
 1.7000e+000 85476 -4.0242e+002 -5.2815e+002  2.1906e+002 48461 85087,85061,85450
 1.7000e+000 85499 -4.5655e+002 -4.7441e+002  1.5608e+002 48461 85087,85450,85378
 1.7000e+000 86084 -1.9278e+002 -4.5467e+002  1.9627e+002 48057 86323,86107,85787
 1.7000e+000 86061 -2.7512e+002 -5.3538e+002  2.6493e+002 48057 86107,85761,85943
 1.7000e+000 86038 -3.6220e+002 -3.8668e+002  1.9618e+002 48057 86251,86179,85891
 1.7000e+000 86015 -3.5808e+002 -3.2001e+002  1.2110e+002 48057 86251,85891,85839
 1.7000e+000 85992 -3.3209e+002 -3.5387e+002  2.8040e+002 48057 85891,85943,85917
 1.7000e+000 85969 -4.3223e+002 -2.5704e+002  1.6586e+002 48057 85839,85891,85865
 1.7000e+000 86133 -2.0264e+002 -4.4216e+002  1.5540e+002 48057 85813,85787,86107
 1.7000e+000 86156 -2.8367e+002 -4.6343e+002  1.6380e+002 48057 86179,85813,86107
 1.7000e+000 86205 -2.8220e+002 -3.2785e+002  2.2459e+002 48057 85943,85891,86179
 1.7000e+000 86228 -1.8407e+002 -3.5906e+002  2.1629e+002 48057 85943,86179,86107
 1.7000e+000 86277 -2.3071e+002 -3.1246e+002  1.6562e+002 48057 85813,86179,86251
 1.7000e+000 86300 -2.9831e+002 -2.7950e+002  1.0221e+002 48057 85813,86251,85839
 1.7000e+000 86349 -1.3451e+002 -4.1834e+002  2.1170e+002 48057 85761,86107,86323
 1.7000e+000 86855 -2.2013e+002 -4.0581e+002  2.5267e+002 47545 86878,86584,86558
 1.7000e+000 86832 -3.4066e+002 -4.6154e+002  2.2673e+002 47545 86950,86878,86558
 1.7000e+000 86809 -3.8610e+002 -4.3872e+002  2.3133e+002 47545 86950,86558,86532
 1.7000e+000 86786 -2.3308e+002 -3.9126e+002  2.6326e+002 47545 86584,86662,86610
 1.7000e+000 86763 -3.5782e+002 -3.4649e+002  1.3117e+002 47545 86532,86714,86688
 1.7000e+000 86740 -3.2170e+002 -1.7936e+002  2.4912e+002 47545 86610,86662,86636
 1.7000e+000 86904 -2.7785e+002 -4.8948e+002  2.2213e+002 47545 86662,86584,86878
 1.7000e+000 86927 -2.0229e+002 -4.4309e+002  1.9236e+002 47545 86662,86878,86688
 1.7000e+000 86976 -2.6286e+002 -4.3631e+002  1.7617e+002 47545 86688,86878,86950
 1.7000e+000 86999 -3.4347e+002 -4.5421e+002  1.9221e+002 47545 86688,86950,86532
 1.7000e+000 87328 -8.9710e+002 -2.5912e+002  2.9243e+002 47048 87155,87207,87181
 1.7000e+000 87305 -3.4748e+002 -2.7436e+002  2.0134e+002 47048 87129,87207,87155
 1.7000e+000 87282 -6.9632e+002 -3.5023e+002  1.7857e+002 47048 87103,87207,87129
 1.7000e+000 87259 -1.0749e+003 -1.2239e+003  6.1824e+002 47048 87103,87233,87207
 1.7000e+000 87576 -2.3701e+002 -3.1792e+002  3.1125e+002 46701 87599,87429,87377
 1.7000e+000 87553 -3.4674e+002 -2.4626e+002  2.3509e+002 46701 87599,87377,87481
 1.7000e+000 87530 -1.9253e+002 -2.3291e+002  1.5108e+002 46701 87351,87481,87377
 1.7000e+000 87507 -2.2754e+002 -3.3294e+002  3.0537e+002 46701 87377,87429,87403
 1.7000e+000 87625 -3.1080e+002 -4.2564e+002  2.7114e+002 46701 87455,87429,87599
 1.7000e+000 87648 -4.4036e+002 -3.3348e+002  1.9763e+002 46701 87455,87599,87481
 1.7000e+000 87798  9.0637e+001  1.3903e+001 -1.6974e+001 46239 87697,87749,87723
 1.7000e+000 87775  1.4512e+002 -1.4118e+001  9.2521e+001 46239 87671,87749,87697
 1.7000e+000 88308 -6.7504e+002 -6.5103e+002  1.2742e+002 45735 88089,88167,88141
 1.7000e+000 88285 -4.5613e+002 -3.2723e+002  2.3250e+002 45735 88011,88167,88089
 1.7000e+000 88262 -2.1121e+002 -3.1032e+002  1.2223e+002 45735 87985,88167,88011
 1.7000e+000 88239 -3.0859e+002 -1.1784e+003  3.3965e+002 45735 88011,88089,88063
 1.7000e+000 88216 -8.2057e+002 -6.9399e+002  1.9001e+002 45735 88089,88141,88115
 1.7000e+000 88193 -6.4606e+002 -1.7544e+003  1.0428e+002 45735 88011,88063,88037
 1.7000e+000 88686 -5.2455e+002 -3.6145e+002  3.3941e+002 45316 88438,88516,88490
 1.7000e+000 88663 -4.6631e+002  6.3704e+000  4.3710e+002 45316 88438,88542,88516
 1.7000e+000 88640 -2.7147e+002 -5.7487e+002  5.5330e+002 45316 88438,88568,88542
 1.7000e+000 88617 -7.8608e+002 -6.0098e+002  2.3849e+002 45316 88438,88490,88464
 1.7000e+000 88594 -4.5090e+002 -6.3812e+002  5.3477e+002 45316 88412,88568,88438
 1.7000e+000 88934 -1.0633e+003 -1.0530e+003  5.9853e+002 44812 88957,88735,88709
 1.7000e+000 88911 -5.8065e+002 -7.0599e+002  2.2727e+002 44812 88957,88709,88839
 1.7000e+000 88888 -5.8821e+002 -4.2985e+002  1.1095e+002 44812 89029,88787,88761
 1.7000e+000 88865 -5.6719e+002 -4.6229e+002  1.9944e+002 44812 88787,88839,88813
 1.7000e+000 88983 -2.7090e+002 -6.4520e+002  3.8421e+002 44812 88761,88735,88957
 1.7000e+000 89006 -4.7133e+002 -5.3468e+002  8.8265e+001 44812 89029,88761,88957
 1.7000e+000 89055 -5.6647e+002 -5.4848e+002  1.5947e+002 44812 88839,88787,89029
 1.7000e+000 89078 -5.6077e+002 -7.6774e+002  1.7535e+002 44812 88839,89029,88957
 1.7000e+000 89228 -3.1894e+002 -9.5462e+002  2.6883e+002 44408 89127,89179,89153
 1.7000e+000 89205  2.7430e+001 -1.3409e+002  1.3781e+001 44408 89101,89179,89127
 1.7000e+000 89787 -5.4375e+002 -3.5209e+002  2.9413e+002 43854 89810,89545,89519
 1.7000e+000 89764 -5.8955e+002 -4.5939e+002  2.9737e+002 43854 89810,89519,89467
 1.7000e+000 89741 -5.7159e+002 -6.3666e+002  2.7769e+002 43854 89954,89882,89597
 1.7000e+000 89718 -5.8276e+002 -6.4688e+002  2.8484e+002 43854 89954,89597,89571
 1.7000e+000 89695 -3.2484e+002 -4.2863e+002  2.6827e+002 43854 89415,89623,89467
 1.7000e+000 89672 -2.3272e+002 -2.5182e+002  1.9746e+002 43854 89467,89519,89493
 1.7000e+000 89649 -2.1928e+002 -3.2260e+002  2.2288e+002 43854 89415,89467,89441
 1.7000e+000 89836 -5.8535e+002 -3.7398e+002  3.2028e+002 43854 89882,89545,89810
 1.7000e+000 89859 -3.4683e+002 -4.3196e+002  2.4841e+002 43854 89623,89810,89467
 1.7000e+000 89908 -5.6945e+002 -7.3671e+002  3.7912e+002 43854 89623,89597,89882
 1.7000e+000 89931 -5.4411e+002 -6.7686e+002  3.3827e+002 43854 89623,89882,89810
 1.7000e+000 89980 -6.2613e+002 -6.1405e+002  3.9781e+002 43854 89545,89882,89954
 1.7000e+000 90003 -6.8784e+002 -7.1569e+002  4.2387e+002 43854 89545,89954,89571
 1.7000e+000 90251 -2.0251e+002 -3.1690e+002  1.9353e+002 43492 90026,90078,90052
 1.7000e+000 90228 -5.5305e+002 -3.8964e+002  1.7380e+002 43492 90274,90026,90156
 1.7000e+000 90205 -5.2546e+002 -4.8705e+002  1.7161e+002 43492 90346,90274,90156
 1.7000e+000 90182 -5.5109e+002 -6.6405e+002  4.9312e+002 43492 90346,90156,90130
 1.7000e+000 90300 -3.2263e+002 -5.0878e+002  2.6327e+002 43492 90078,90026,90274
 1.7000e+000 90323 -6.1947e+002 -6.1398e+002  2.4863e+002 43492 90078,90274,90104
 1.7000e+000 90372 -9.0870e+002 -7.3437e+002  3.7866e+002 43492 90104,90274,90346
 1.7000e+000 90395 -9.6211e+002 -9.7294e+002  7.1196e+002 43492 90104,90346,90130
 1.7000e+000 90594 -7.8525e+001 -3.7439e+002  2.6297e+002 43052 90418,90496,90444
 1.7000e+000 90571 -3.4993e+002 -5.0448e+002  3.2032e+002 43052 90418,90522,90496
 1.7000e+000 90548 -4.0445e+002 -3.4027e+002  2.4389e+002 43052 90444,90496,90470
 1.7000e+000 91074 -5.7436e+002 -5.3026e+002  3.6040e+002 42434 91241,90884,90858
 1.7000e+000 91051 -9.6389e+002 -7.0150e+002 -6.6318e+000 42434 90702,90910,90884
 1.7000e+000 91028 -2.8455e+002 -3.8505e+002  2.6501e+002 42434 91097,90754,90702
 1.7000e+000 91005 -5.1198e+002 -3.7877e+002  3.2840e+002 42434 91241,90858,91097
 1.7000e+000 90982 -2.1870e+002 -3.4694e+002  1.7079e+002 42434 91169,90806,90780
 1.7000e+000 90959 -8.4732e+001 -2.4339e+002  1.0068e+002 42434 90806,90858,90832
 1.7000e+000 90936 -3.1809e+002 -2.3802e+002  2.7479e+002 42434 90702,90754,90728
 1.7000e+000 91123 -5.7875e+002 -5.1713e+002  3.0690e+002 42434 90780,90754,91097
 1.7000e+000 91146 -4.5067e+002 -4.6606e+002  3.3676e+002 42434 91169,90780,91097
 1.7000e+000 91195 -1.2971e+002 -2.9396e+002  7.6931e+001 42434 90858,90806,91169
 1.7000e+000 91218 -2.2229e+002 -1.6783e+002  1.9840e+002 42434 90858,91169,91097
 1.7000e+000 91267 -4.2126e+002 -7.2974e+002  2.9601e+002 42434 90702,90884,91241
 1.7000e+000 91290 -3.7730e+002 -6.0101e+002  2.6875e+002 42434 90702,91241,91097
 1.7000e+000 91698 -1.4171e+002 -4.8515e+002  1.9634e+002 41773 91473,91577,91499
 1.7000e+000 91675 -2.6137e+002 -5.9082e+002  2.8172e+002 41773 91473,91603,91577
 1.7000e+000 91652 -2.5190e+002 -3.5321e+002  6.4196e+001 41773 91499,91551,91525
 1.7000e+000 91629 -3.7713e+002 -4.1174e+002  1.8801e+002 41773 91499,91577,91551
 1.7000e+000 92044 -4.9392e+002 -5.5324e+002  3.5897e+002 41383 91773,91877,91851
 1.7000e+000 92021 -3.7429e+002 -7.1371e+002  2.0597e+002 41383 91747,91877,91773
 1.7000e+000 91998 -3.7662e+002 -3.8665e+002  2.6431e+002 41383 91773,91851,91799
 1.7000e+000 91975 -2.6409e+002 -5.6613e+002  8.9876e+001 41383 91747,91903,91877
 1.7000e+000 91952 -2.2049e+002 -4.6791e+002  1.7050e+002 41383 91721,91903,91747
 1.7000e+000 91929 -1.1115e+002 -4.2213e+002  1.8940e+002 41383 91799,91851,91825
 1.7000e+000 92601 -4.4901e+002 -3.9832e+002  1.4873e+002 40979 92229,92411,92307
 1.7000e+000 92578 -5.5712e+002 -4.0563e+002  1.3460e+002 40979 92229,92437,92411
 1.7000e+000 92555 -4.0572e+002 -2.7952e+002  1.4202e+002 40979 92229,92307,92281
 1.7000e+000 92532 -3.5216e+002 -3.9145e+002  2.2714e+002 40979 92333,92411,92385
 1.7000e+000 92509 -3.5491e+002 -3.3097e+002  1.7842e+002 40979 92307,92411,92333
 1.7000e+000 92486 -4.4469e+002 -3.2510e+002  1.1036e+002 40979 92229,92281,92255
 1.7000e+000 92463 -8.0575e+001 -3.6625e+002  1.8662e+002 40979 92333,92385,92359
 1.7000e+000 93235 -4.8316e+002 -3.0318e+002  3.8433e+002 40525 92941,92993,92967
 1.7000e+000 93212 -7.3807e+002 -1.1163e+002  9.2741e+001 40525 93258,92941,92889
 1.7000e+000 93189 -5.7321e+002 -3.4031e+001  6.8466e+001 40525 93258,92889,93071
 1.7000e+000 93166 -5.9556e+002 -2.0768e+002  6.4823e+001 40525 92889,92941,92915
 1.7000e+000 93143 -6.1712e+002 -5.5652e+001  5.6092e+001 40525 92863,93071,92889
 1.7000e+000 93120 -4.9864e+002 -2.2717e+002  1.5650e+002 40525 92993,93071,93019
 1.7000e+000 93097 -5.0211e+002 -1.7863e+002  1.3759e+002 40525 93019,93071,93045
 1.7000e+000 93284 -8.1298e+002 -2.1428e+002  2.7991e+002 40525 92993,92941,93258
 1.7000e+000 93307 -5.0215e+002 -5.4690e+001  2.2332e+002 40525 92993,93258,93071
 1.7000e+000 93636 -7.0067e+002 -5.6228e+002  5.2223e+002 40235 93437,93541,93515
 1.7000e+000 93613 -5.9128e+002 -7.3649e+002  4.8807e+002 40235 93411,93541,93437
 1.7000e+000 93590 -1.5911e+002 -6.4318e+002  1.9905e+002 40235 93463,93515,93489
 1.7000e+000 93567 -3.2064e+002 -4.6508e+002  1.2250e+002 40235 93437,93515,93463
 1.7000e+000 94014 -7.4543e+002 -8.1784e+002  3.0918e+002 39873 93766,93870,93792
 1.7000e+000 93991 -6.7586e+002 -8.8441e+002  2.5917e+002 39873 93766,93896,93870
 1.7000e+000 93968 -6.3129e+002 -6.4260e+002  3.5833e+002 39873 93792,93870,93844
 1.7000e+000 93945 -5.3779e+002 -5.6798e+002  2.8672e+002 39873 93792,93844,93818
 1.7000e+000 93922 -5.2212e+002 -8.1853e+002  5.0519e+002 39873 93740,93896,93766
 1.7000e+000 94164  2.9517e+001 -2.2774e+002  1.5410e+002 39461 94037,94089,94063
 1.7000e+000 94141 -1.9390e+002 -4.5915e+002  2.5368e+002 39461 94037,94115,94089
 1.7000e+000 94363 -3.3264e+002 -2.9048e+002  2.2554e+002 39057 94386,94239,94213
 1.7000e+000 94340 -3.0564e+002 -2.6703e+002  2.1148e+002 39057 94386,94213,94187
 1.7000e+000 94317 -4.4173e+002 -4.1487e+002  2.3892e+002 39057 94187,94291,94265
 1.7000e+000 94412 -2.0853e+002 -2.5451e+002  1.8410e+002 39057 94458,94386,94265
 1.7000e+000 94435 -3.0785e+002 -2.9560e+002  1.8865e+002 39057 94265,94386,94187
 1.7000e+000 94484 -3.3323e+002 -3.4478e+002  2.3542e+002 39057 94239,94386,94458
 1.7000e+000 94896 -7.1541e+002 -4.9252e+002  2.9765e+002 38396 94919,94775,94723
 1.7000e+000 94873 -7.7430e+002 -4.3172e+002  2.9922e+002 38396 94919,94723,94697
 1.7000e+000 94850 -5.9223e+002 -4.5761e+002  2.4175e+002 38396 94723,94775,94749
 1.7000e+000 94827 -3.4716e+002 -2.3965e+002  2.6203e+002 38396 94671,94801,94697
 1.7000e+000 94945 -7.0646e+002 -4.5234e+002  2.7499e+002 38396 94801,94775,94919
 1.7000e+000 94968 -7.3864e+002 -3.7462e+002  2.6544e+002 38396 94801,94919,94697
 1.7000e+000 95265 -6.5922e+002 -7.1240e+002  3.2869e+002 37835 95017,95069,95043
 1.7000e+000 95242 -6.5592e+002 -5.8163e+002  3.2427e+002 37835 95288,95069,95017
 1.7000e+000 95219 -7.1608e+002 -6.4711e+002  4.3345e+002 37835 95288,95017,94991
 1.7000e+000 95196 -7.7828e+002 -6.7851e+002  3.8231e+002 37835 94991,95147,95121
 1.7000e+000 95173 -4.9614e+002 -3.2650e+002  2.9236e+002 37835 95069,95121,95095
 1.7000e+000 95314 -6.4795e+002 -4.3035e+002  2.4716e+002 37835 95121,95069,95288
 1.7000e+000 95337 -7.0152e+002 -5.2652e+002  3.4956e+002 37835 95121,95288,94991
 1.7000e+000 95558  4.7612e+001 -1.6757e+002  1.6844e+002 37423 95408,95460,95434
 1.7000e+000 95535 -2.3615e+002 -8.9495e+002  4.3282e+002 37423 95382,95460,95408
 1.7000e+000 95512 -4.6228e+002 -1.0687e+003  5.0885e+002 37423 95382,95486,95460
 1.7000e+000 95891 -1.2113e+002 -4.5406e+002  2.8592e+002 37225 95666,95718,95692
 1.7000e+000 95868 -4.5108e+002 -5.0382e+002  3.7619e+002 37225 95666,95796,95718
 1.7000e+000 95845 -2.3479e+002 -3.6826e+002  1.1365e+002 37225 95718,95770,95744
 1.7000e+000 95822 -2.4827e+002 -2.9931e+002  1.6463e+002 37225 95718,95796,95770
 1.7000e+000 95992 -5.2628e+001 -3.7385e+002  2.0386e+002 36735 95914,95966,95940
 1.7000e+000 96142 -7.6072e+002 -3.8445e+002  3.7553e+002 36331 96297,96067,96041
 1.7000e+000 96119 -6.4969e+002 -3.2976e+002  4.1296e+002 36331 96165,96041,96015
 1.7000e+000 96191 -7.3414e+002 -3.6582e+002  3.9126e+002 36331 96297,96041,96165
 1.7000e+000 96323 -8.1126e+002 -3.5374e+002  4.4566e+002 36331 96093,96067,96297
 1.7000e+000 96346 -7.1564e+002 -3.0335e+002  4.6921e+002 36331 96093,96297,96165
 1.7000e+000 96714 -5.1116e+002 -7.9879e+002  4.7749e+002 36041 96737,96495,96443
 1.7000e+000 96691 -7.0344e+002 -5.9901e+002  4.7070e+002 36041 96737,96443,96417
 1.7000e+000 96668 -2.9250e+002 -8.5505e+002  1.8118e+002 36041 96443,96495,96469
 1.7000e+000 96645 -1.6540e+002 -2.7538e+002  2.6591e+002 36041 96391,96521,96417
 1.7000e+000 96622 -2.2143e+001 -2.7673e+002  2.2498e+002 36041 96391,96547,96521
 1.7000e+000 96599 -9.2188e+001 -2.9385e+002  2.1253e+002 36041 96391,96573,96547
 1.7000e+000 96763 -2.4515e+002 -6.3579e+002  4.0839e+002 36041 96521,96495,96737
 1.7000e+000 96786 -6.0286e+002 -5.5732e+002  4.4301e+002 36041 96521,96737,96417
 1.7000e+000 96936 -3.2472e+002 -2.0216e+002  2.3798e+002 35637 97031,96959,96835
 1.7000e+000 96913 -4.9402e+002 -2.5763e+002  2.4614e+002 35637 97163,96959,96809
 1.7000e+000 96985 -4.7752e+002 -1.8181e+002  2.6764e+002 35637 96861,96835,96959
 1.7000e+000 97008 -6.1878e+002 -3.1456e+002  4.2650e+002 35637 96861,96959,96887
 1.7000e+000 97057 -3.9782e+002 -1.2820e+002  1.5387e+002 35637 96809,96959,97031
 1.7000e+000 97189 -4.0792e+002 -2.0881e+002  2.7226e+002 35637 96887,96959,97163
 1.7000e+000 97597 -3.1432e+002 -3.7063e+002  3.2091e+002 35190 97450,97502,97476
 1.7000e+000 97574 -3.4652e+002 -4.8121e+002  4.0489e+002 35190 97372,97502,97450
 1.7000e+000 97551 -3.4924e+002 -5.5114e+002  3.8039e+002 35190 97372,97450,97398
 1.7000e+000 97528 -2.3686e+002 -4.7861e+002  3.2645e+002 35190 97398,97450,97424
 1.7000e+000 98054 -5.2014e+002 -6.4428e+002  4.2777e+002 34636 97806,97936,97858
 1.7000e+000 98031 -7.3554e+002 -4.1858e+002  3.8170e+002 34636 97780,97936,97806
 1.7000e+000 98008 -6.1750e+002 -5.9553e+002  2.1955e+002 34636 97806,97858,97832
 1.7000e+000 97985 -5.5173e+002 -6.1060e+002  4.6429e+002 34636 97884,97936,97910
 1.7000e+000 97962 -3.5034e+002 -4.0616e+002  3.4100e+002 34636 97858,97936,97884
 1.7000e+000 98530 -3.6948e+002  1.3321e+002  8.4719e+001 34068 98697,98184,98366
 1.7000e+000 98507  3.3090e+000  7.0674e+000 -5.1971e+000 34068 98158,98366,98184
 1.7000e+000 98484 -5.7758e+002 -4.6237e+002  2.0791e+002 34068 98553,98262,98236
 1.7000e+000 98461 -9.1715e+002 -6.0769e+002  1.6079e+002 34068 98553,98236,98210
 1.7000e+000 98438 -5.1814e+002 -1.9164e+002  2.0853e+002 34068 98841,98625,98366
 1.7000e+000 98415 -6.0238e+002 -7.8381e+002  4.0355e+002 34068 98769,98288,98262
 1.7000e+000 98392 -7.1913e+002 -5.5429e+001  1.7827e+002 34068 98841,98366,98340
 1.7000e+000 98579 -6.8895e+002 -5.8047e+002  2.8301e+002 34068 98769,98262,98553
 1.7000e+000 98602 -5.3604e+002 -2.5212e+002  2.1599e+002 34068 98625,98314,98553
 1.7000e+000 98651 -4.5711e+002 -1.9068e+002  1.2979e+002 34068 98697,98366,98625
 1.7000e+000 98674 -6.1230e+002 -4.8302e+002  1.6465e+002 34068 98210,98625,98553
 1.7000e+000 98723 -5.0744e+002 -2.5759e+002  1.5615e+002 34068 98210,98184,98697
 1.7000e+000 98746 -4.6479e+002 -3.1128e+002  2.2747e+002 34068 98210,98697,98625
 1.7000e+000 98795 -3.7195e+002 -5.8055e+002  2.6670e+002 34068 98314,98288,98769
 1.7000e+000 98818 -5.0596e+002 -4.4630e+002  1.5443e+002 34068 98314,98769,98553
 1.7000e+000 98867 -7.1460e+002 -3.2690e+002  1.3746e+002 34068 98314,98625,98841
 1.7000e+000 98890 -9.2175e+002 -1.7991e+002  1.1528e+002 34068 98314,98841,98340
 1.7000e+000 99268 -7.7995e+002 -7.1866e+002  5.1926e+002 33450 99291,99098,99072
 1.7000e+000 99245 -8.5493e+002 -5.3727e+002  2.5629e+002 33450 99291,99072,99020
 1.7000e+000 99222 -1.2133e+003 -6.6597e+002  3.8663e+002 33450 99020,99072,99046
 1.7000e+000 99199 -6.5070e+002 -4.6093e+002  2.5812e+002 33450 99020,99150,99124
 1.7000e+000 99176 -6.5411e+002 -4.3787e+002  7.2528e+001 33450 98994,99150,99020
 1.7000e+000 99317 -3.7963e+002 -5.4066e+002  4.8720e+002 33450 99124,99098,99291
 1.7000e+000 99340 -7.2639e+002 -4.8982e+002  2.5571e+002 33450 99124,99291,99020
 1.7000e+000 99865 -5.2138e+002 -4.9679e+002  2.9233e+002 32944 100176,99960,99888
 1.7000e+000 99842 -5.6099e+002 -4.7371e+002  2.9506e+002 32944 100104,99888,99522
 1.7000e+000 99819 -5.2968e+002 -4.8184e+002  3.8326e+002 32944 100248,99960,99626
 1.7000e+000 99796 -5.0422e+002 -5.5549e+002  1.7551e+002 32944 100032,99652,99626
 1.7000e+000 99773 -4.5948e+002 -5.0083e+002  2.1350e+002 32944 100104,99522,99496
 1.7000e+000 99750 -3.8167e+002 -3.9282e+002  6.3364e+001 32944 99574,99626,99600
 1.7000e+000 99727 -4.5092e+002 -4.6628e+002  4.1550e+002 32944 100248,99626,99574
 1.7000e+000 99704 -2.9907e+002 -4.9020e+002  2.7052e+002 32944 99444,99496,99470
 1.7000e+000 99914 -5.1873e+002 -4.5461e+002  2.0321e+002 32944 100176,99888,100032
 1.7000e+000 99937 -5.7557e+002 -3.9512e+002  2.9120e+002 32944 99678,99888,99444
 1.7000e+000 99986 -5.5586e+002 -4.3415e+002  2.8434e+002 32944 99522,99888,99960
 1.7000e+000 100009 -6.0556e+002 -3.7317e+002  3.2815e+002 32944 99522,99960,99548
 1.7000e+000 100058 -5.8281e+002 -5.4609e+002  1.7820e+002 32944 99678,99652,100032
 1.7000e+000 100081 -6.1144e+002 -5.1350e+002  1.7706e+002 32944 99678,100032,99888
 1.7000e+000 100130 -3.8574e+002 -4.2311e+002  2.9275e+002 32944 99444,99888,100104
 1.7000e+000 100153 -3.2233e+002 -4.8219e+002  2.2183e+002 32944 99444,100104,99496
 1.7000e+000 100202 -5.7648e+002 -6.3386e+002  2.9167e+002 32944 99626,99960,100176
 1.7000e+000 100225 -5.9626e+002 -6.3290e+002  2.1234e+002 32944 99626,100176,100032
 1.7000e+000 100274 -6.4880e+002 -4.6833e+002  3.4475e+002 32944 99548,99960,100248
 1.7000e+000 100297 -5.7796e+002 -4.5983e+002  3.7600e+002 32944 99548,100248,99574
 1.7000e+000 100754 -2.9499e+002 -2.7878e+002  1.1779e+002 32369 100777,100584,100506
 1.7000e+000 100731 -2.6498e+002 -3.9931e+002  2.7022e+002 32369 100777,100506,100636
 1.7000e+000 100708 -4.4898e+002 -4.0295e+002  2.8261e+002 32369 100480,100636,100506
 1.7000e+000 100685 -5.3212e+002 -3.2786e+002  4.3542e+001 32369 100532,100584,100558
 1.7000e+000 100662 -3.2906e+002 -3.1931e+002  1.3723e+002 32369 100506,100584,100532
 1.7000e+000 100803 -2.8839e+002 -6.4113e+001  1.0840e+002 32369 100610,100584,100777
 1.7000e+000 100826 -2.5034e+002 -2.0392e+002  2.3984e+002 32369 100610,100777,100636
 1.7000e+000 101025 -4.8188e+002 -3.7638e+002  3.5712e+002 31857 100875,100927,100901
 1.7000e+000 101002 -8.7205e+002 -3.2652e+002  3.2309e+002 31857 100875,100953,100927
 1.7000e+000 100979 -9.3006e+002 -4.4656e+002  2.9159e+002 31857 100849,100953,100875
 1.7000e+000 101533 -4.3214e+002 -5.1585e+002  3.9332e+002 31253 101556,101314,101236
 1.7000e+000 101510 -5.9551e+002 -5.4076e+002  3.7798e+002 31253 101556,101236,101210
 1.7000e+000 101487 -5.4916e+002 -5.3448e+002  1.7946e+002 31253 101210,101392,101340
 1.7000e+000 101464 -3.0645e+002 -4.5036e+002  3.4009e+002 31253 101236,101288,101262
 1.7000e+000 101441 -3.8585e+002 -6.5712e+002  3.6196e+002 31253 101236,101314,101288
 1.7000e+000 101418 -5.6299e+002 -6.8606e+002  3.6796e+002 31253 101340,101392,101366
 1.7000e+000 101582 -4.8056e+002 -5.0964e+002  2.5357e+002 31253 101340,101314,101556
 1.7000e+000 101605 -6.4581e+002 -5.2365e+002  2.4482e+002 31253 101340,101556,101210
 1.7000e+000 101755  1.6831e+002  6.7651e+001  1.1407e+002 30519 101778,101654,101628
 1.7000e+000 101732 -1.1291e+002  8.6009e+001 -3.1417e+000 30519 101850,101778,101628
 1.7000e+000 101804 -6.4660e+001 -1.1574e+002  9.1472e+000 30519 101680,101654,101778
 1.7000e+000 101827 -2.1298e+002  5.9122e+001 -1.9358e+001 30519 101680,101778,101706
 1.7000e+000 101876 -1.5865e+002 -2.7727e+001 -1.7342e+001 30519 101706,101778,101850
 1.7000e+000 102561 -3.3924e+002 -4.9494e+002  2.4046e+002 29951 102656,102584,102270
 1.7000e+000 102538 -8.5121e+002 -9.5965e+002  1.8612e+002 29951 102584,102140,102374
 1.7000e+000 102515 -5.1454e+002 -9.9905e+002  5.0164e+002 29951 102728,102656,102270
 1.7000e+000 102492 -5.3052e+002 -1.1890e+003  4.9625e+002 29951 102728,102270,102244
 1.7000e+000 102469 -6.8258e+002 -2.2231e+002  3.2825e+002 29951 102800,102322,102296
 1.7000e+000 102446 -7.5211e+002 -5.2755e+002  1.3715e+002 29951 102166,102218,102192
 1.7000e+000 102423 -6.0296e+002 -5.5625e+002  8.4963e+001 29951 102166,102244,102218
 1.7000e+000 102400 -4.0551e+002 -5.0300e+002  3.3476e+002 29951 102322,102374,102348
 1.7000e+000 102610 -8.3708e+002 -4.1602e+002  1.1686e+002 29951 102296,102270,102584
 1.7000e+000 102633 -9.1634e+002 -4.5484e+002  1.9396e+002 29951 102800,102296,102584
 1.7000e+000 102682 -9.7537e+002 -8.8796e+002  4.3870e+002 29951 102140,102584,102656
 1.7000e+000 102705 -6.3834e+002 -8.9611e+002  6.3005e+002 29951 102140,102656,102166
 1.7000e+000 102754 -5.2933e+002 -7.7984e+002  5.8412e+002 29951 102166,102656,102728
 1.7000e+000 102777 -5.4591e+002 -9.3211e+002  5.3965e+002 29951 102166,102728,102244
 1.7000e+000 102826 -4.4496e+002 -4.7538e+002  4.4432e+002 29951 102374,102322,102800
 1.7000e+000 102849 -5.4899e+002 -5.1096e+002  3.6275e+002 29951 102374,102800,102584
 1.7000e+000 103048  7.0483e+001 -2.0659e+002  8.5013e+001 29454 102872,102924,102898
 1.7000e+000 103025 -6.5233e+001 -4.6746e+002  1.7468e+002 29454 102872,102976,102924
 1.7000e+000 103002 -2.0906e+002 -7.0127e+002  9.7674e+001 29454 102924,102976,102950
 1.7000e+000 103296 -8.3410e+002 -5.7935e+002  4.2907e+002 29064 103319,103175,103123
 1.7000e+000 103273 -1.1316e+003 -5.9261e+002  4.8897e+002 29064 103319,103123,103071
 1.7000e+000 103250 -5.0808e+002 -3.6484e+002  3.2512e+002 29064 103123,103175,103149
 1.7000e+000 103227 -8.4965e+002 -5.2217e+002  6.1200e+002 29064 103071,103123,103097
 1.7000e+000 103345 -5.6129e+002 -6.5770e+002  3.0618e+002 29064 103201,103175,103319
 1.7000e+000 103368 -9.2525e+002 -6.3712e+002  2.5602e+002 29064 103201,103319,103071
 1.7000e+000 104006 -6.2099e+002 -2.9786e+002  2.3082e+002 28603 104101,104029,103712
 1.7000e+000 103983 -5.7967e+002 -2.2643e+002  2.0684e+002 28603 104173,104029,103660
 1.7000e+000 103960 -7.4020e+002 -2.3975e+002  2.1361e+002 28603 104101,103712,103686
 1.7000e+000 103937 -4.8508e+002 -3.3437e+002  1.8857e+002 28603 104173,103660,103634
 1.7000e+000 103914 -6.1604e+002 -3.1839e+002  3.2011e+002 28603 103764,103816,103790
 1.7000e+000 103891 -4.8659e+002 -3.5411e+002  3.3082e+002 28603 103634,103842,103816
 1.7000e+000 103868 -4.7541e+002 -1.7389e+002  2.8862e+002 28603 103712,103764,103738
 1.7000e+000 104055 -6.0299e+002 -2.3990e+002  2.2872e+002 28603 103764,103712,104029
 1.7000e+000 104078 -5.8040e+002 -2.5732e+002  3.0497e+002 28603 103764,104029,103816
 1.7000e+000 104127 -7.7762e+002 -3.0742e+002  1.7724e+002 28603 103660,104029,104101
 1.7000e+000 104150 -9.6056e+002 -2.8266e+002  1.8994e+002 28603 103660,104101,103686
 1.7000e+000 104199 -6.5699e+002 -3.2457e+002  2.4063e+002 28603 103816,104029,104173
 1.7000e+000 104222 -5.5188e+002 -4.0703e+002  2.1871e+002 28603 103816,104173,103634
 1.7000e+000 104600 -3.4121e+002 -6.3615e+002  1.4652e+002 28348 104623,104378,104326
 1.7000e+000 104577 -2.7881e+002 -6.5997e+002  2.6945e+002 28348 104623,104326,104482
 1.7000e+000 104554 -2.9024e+002 -4.0116e+002  1.0515e+002 28348 104326,104378,104352
 1.7000e+000 104531 -3.6160e+002 -1.8584e+000 -3.7098e+000 28348 104404,104456,104430
 1.7000e+000 104508 -4.6227e+002 -2.5353e+002  2.2433e+002 28348 104378,104456,104404
 1.7000e+000 104649 -2.8842e+002 -5.2649e+002  1.9184e+002 28348 104456,104378,104623
 1.7000e+000 104672 -2.0659e+002 -5.3033e+002  3.1781e+002 28348 104456,104623,104482
 1.7000e+000 104991 -6.4081e+002 -6.2756e+002  4.7393e+002 27951 104717,104847,104769
 1.7000e+000 104968 -1.7880e+002 -4.3453e+002  4.5476e+002 27951 104717,104873,104847
 1.7000e+000 104945 -2.1470e+002 -4.9087e+002  5.3114e+002 27951 104769,104847,104795
 1.7000e+000 104922  4.0025e+001  1.2708e+002  4.9980e+002 27951 104795,104847,104821
 1.7000e+000 104899 -6.1781e+002 -4.4801e+002  5.3419e+002 27951 104717,104769,104743
 1.7000e+000 105371 -7.1507e+002 -3.6511e+002  3.4832e+002 27447 105394,105201,105123
 1.7000e+000 105348 -9.1840e+002 -3.3599e+002  4.5947e+002 27447 105394,105123,105097
 1.7000e+000 105325 -1.1479e+003 -3.8729e+002  3.1802e+002 27447 105123,105201,105149
 1.7000e+000 105302 -6.2646e+002 -4.6470e+002  3.1672e+002 27447 105201,105253,105227
 1.7000e+000 105279 -6.4669e+002 -6.2791e+002  9.5551e+001 27447 105149,105201,105175
 1.7000e+000 105420 -5.9515e+002 -3.2130e+002  2.7880e+002 27447 105253,105201,105394
 1.7000e+000 105443 -7.7535e+002 -2.3551e+002  3.7071e+002 27447 105253,105394,105097
 1.7000e+000 105998 -5.9671e+002 -4.1162e+002  4.2979e+002 27100 106165,106021,105704
 1.7000e+000 105975 -3.0968e+002 -2.1726e+002  3.7882e+002 27100 106309,106021,105652
 1.7000e+000 105952 -1.0348e+003 -6.9283e+002  7.2432e+002 27100 106093,105808,105782
 1.7000e+000 105929 -5.9267e+002 -4.2746e+002  4.2322e+002 27100 106165,105704,105678
 1.7000e+000 105906 -3.0555e+002 -5.6782e+002  3.2879e+002 27100 106237,105730,105704
 1.7000e+000 105883 -2.8478e+002 -4.0850e+002  2.6859e+002 27100 106309,105652,105626
 1.7000e+000 105860 -1.7064e+002 -1.1938e+001  5.0816e+001 27100 105730,105782,105756
 1.7000e+000 106047 -5.4334e+002 -2.9222e+002  4.4100e+002 27100 106237,105704,106021
 1.7000e+000 106070 -6.1312e+002 -3.0075e+002  5.5567e+002 27100 106093,105782,106021
 1.7000e+000 106119 -4.3389e+002 -5.9033e+002  3.6684e+002 27100 105834,105808,106093
 1.7000e+000 106142 -4.9746e+002 -7.3225e+002  5.0427e+002 27100 106381,106093,106021
 1.7000e+000 106191 -5.9242e+002 -3.8316e+002  4.4891e+002 27100 105652,106021,106165
 1.7000e+000 106214 -5.9547e+002 -4.2037e+002  4.4790e+002 27100 105652,106165,105678
 1.7000e+000 106263 -9.6873e+001 -3.0011e+002  2.3777e+002 27100 105782,105730,106237
 1.7000e+000 106286 -3.8258e+002 -9.5081e+001  3.7072e+002 27100 105782,106237,106021
 1.7000e+000 106335 -4.2576e+002 -4.7354e+002  4.1285e+002 27100 106381,106021,106309
 1.7000e+000 106358 -2.9247e+002 -3.6039e+002  2.5429e+002 27100 105834,106309,105626
 1.7000e+000 106407 -3.4132e+002 -4.3917e+002  3.2422e+002 27100 105834,106093,106381
 1.7000e+000 106430 -3.4637e+002 -3.9357e+002  2.2776e+002 27100 105834,106381,106309
 1.7000e+000 106629 -5.5505e+001 -5.1583e+002  1.7847e+002 26688 106479,106557,106531
 1.7000e+000 106606 -1.9905e+001 -2.9992e+002  1.9829e+002 26688 106453,106557,106479
 1.7000e+000 106583 -2.4161e+002 -5.7787e+002  7.2819e+001 26688 106479,106531,106505
 1.7000e+000 107088 -2.8416e+002 -2.2006e+002  1.2717e+002 26248 107111,106918,106866
 1.7000e+000 107065 -3.0381e+002 -1.8882e+002  1.4677e+002 26248 107111,106866,106840
 1.7000e+000 107042 -2.3702e+002 -1.5198e+002  1.4442e+002 26248 106814,106970,106840
 1.7000e+000 107019 -2.6770e+002 -4.3604e+002  2.1920e+002 26248 106866,106918,106892
 1.7000e+000 106996 -4.5101e+002 -3.0785e+002  1.1115e+002 26248 106918,106970,106944
 1.7000e+000 107137 -3.1826e+002 -2.6223e+002  9.6181e+001 26248 106970,106918,107111
 1.7000e+000 107160 -3.0900e+002 -2.0055e+002  1.1955e+002 26248 106970,107111,106840
 1.7000e+000 107666 -7.7757e+002 -3.0703e+002  2.2444e+002 25908 107369,107499,107395
 1.7000e+000 107643 -1.0599e+003 -9.1242e+002  4.9041e+002 25908 107369,107525,107499
 1.7000e+000 107620 -6.4211e+002 -4.0268e+002  3.2374e+002 25908 107395,107473,107447
 1.7000e+000 107597 -5.4215e+002 -2.0960e+002  2.2624e+002 25908 107395,107499,107473
 1.7000e+000 107574 -1.1076e+003 -4.7139e+002  7.1364e+002 25908 107395,107447,107421
 1.7000e+000 107551 -3.9447e+002 -7.1169e+002  3.9006e+002 25908 107343,107525,107369
 1.7000e+000 108251 -6.0718e+002 -1.7120e+002  3.2554e+002 25454 108274,108006,107954
 1.7000e+000 108228 -4.8912e+002 -7.9046e+001  2.5467e+002 25454 108274,107954,108110
 1.7000e+000 108205 -4.4823e+002 -4.3303e+002  3.9601e+002 25454 108346,108032,108006
 1.7000e+000 108182 -7.7756e+002 -3.1164e+002  4.2088e+002 25454 107954,108006,107980
 1.7000e+000 108159 -2.8473e+002 -2.5359e+002  2.3676e+002 25454 107928,108110,107954
 1.7000e+000 108136 -8.5037e+002 -6.7527e+002  4.4715e+002 25454 108058,108110,108084
 1.7000e+000 108300 -5.8697e+002 -2.9219e+002  3.9408e+002 25454 108346,108006,108274
 1.7000e+000 108323 -5.2466e+002 -1.8247e+002  2.9539e+002 25454 108058,108274,108110
 1.7000e+000 108372 -2.7848e+002 -2.8177e+002  3.3248e+002 25454 108058,108032,108346
 1.7000e+000 108395 -4.2911e+002 -1.2593e+002  3.2787e+002 25454 108058,108346,108274
 1.7000e+000 108822 -4.2488e+002 -2.0848e+002  2.1891e+002 24943 108525,108681,108655
 1.7000e+000 108799 -5.3426e+002 -3.3339e+002  1.2122e+002 24943 108499,108681,108525
 1.7000e+000 108776 -2.3509e+002 -1.4500e+002  1.5905e+002 24943 108525,108655,108629
 1.7000e+000 108753 -3.8942e+002 -1.4579e+002  1.5196e+002 24943 108525,108629,108603
 1.7000e+000 108730 -7.4792e+002 -2.3595e+002  2.6388e+002 24943 108551,108603,108577
 1.7000e+000 108707 -7.4193e+002 -4.2475e+002  3.8097e+002 24943 108525,108603,108551
 1.7000e+000 109407 -3.7170e+001 -1.2034e+002  6.6372e+001 24745 109162,109214,109188
 1.7000e+000 109384 -2.6132e+002 -1.0504e+002  9.0505e+001 24745 109162,109266,109214
 1.7000e+000 109361 -3.0989e+002 -1.4317e+002  4.4231e+001 24745 109084,109266,109162
 1.7000e+000 109338 -5.1213e+002 -6.7543e+001  1.1151e+002 24745 109084,109162,109136
 1.7000e+000 109315 -1.2366e+002 -2.1437e+002  1.2325e+002 24745 109214,109266,109240
 1.7000e+000 109292 -3.7719e+002 -1.0287e+002  1.9779e+002 24745 109084,109136,109110
 1.7000e+000 109785 -9.1646e+002 -4.0149e+002  5.1989e+002 24341 109537,109615,109563
 1.7000e+000 109762 -9.5018e+001 -1.9517e+002  5.0055e+002 24341 109537,109641,109615
 1.7000e+000 109739 -6.2204e+002 -4.3393e+002  3.9447e+002 24341 109563,109615,109589
 1.7000e+000 109716 -3.8713e+002 -3.9164e+002  3.3014e+002 24341 109537,109667,109641
 1.7000e+000 109693 -2.2276e+002 -4.4730e+002  3.1259e+002 24341 109511,109667,109537
 1.7000e+000 110163 -9.2929e+002 -4.6115e+002  5.2603e+002 23837 110186,109967,109915
 1.7000e+000 110140 -8.6317e+002 -4.5879e+002  5.5113e+002 23837 110186,109915,109889
 1.7000e+000 110117 -3.5772e+002 -1.5000e+002  4.2374e+002 23837 109889,110045,109993
 1.7000e+000 110094 -8.3714e+002 -7.0863e+002  3.5425e+002 23837 109915,109967,109941
 1.7000e+000 110071 -4.6439e+002 -9.6939e+000  6.1803e+001 23837 109993,110045,110019
 1.7000e+000 110212 -8.8860e+002 -4.3003e+002  5.5386e+002 23837 109993,109967,110186
 1.7000e+000 110235 -8.6239e+002 -4.3722e+002  5.8076e+002 23837 109993,110186,109889
 1.7000e+000 110336 -5.1022e+002 -1.1096e+003  5.9809e+002 23433 110258,110310,110284
 1.7000e+000 110584 -6.5720e+002 -4.1673e+002  2.7443e+002 22829 110607,110411,110385
 1.7000e+000 110561 -8.1092e+002 -4.8489e+002  3.5454e+002 22829 110607,110385,110489
 1.7000e+000 110538 -5.5229e+002 -4.4638e+002  2.0703e+002 22829 110437,110489,110463
 1.7000e+000 110515 -6.2560e+002 -2.9989e+002  4.3385e+002 22829 110359,110489,110385
 1.7000e+000 110633 -6.5882e+002 -3.4310e+002  1.6295e+002 22829 110437,110411,110607
 1.7000e+000 110656 -7.4363e+002 -4.0512e+002  2.4007e+002 22829 110437,110607,110489
 1.7000e+000 110906 -1.3347e+003 -5.5230e+002  3.4744e+002 22432 110707,110759,110733
 1.7000e+000 110883 -8.5692e+002 -5.6638e+002  2.7911e+002 22432 110707,110785,110759
 1.7000e+000 110860 -8.7359e+002 -4.9251e+002  4.6836e+002 22432 110707,110811,110785
 1.7000e+000 110837 -1.0588e+003 -7.1734e+002  3.7629e+002 22432 110681,110811,110707
 1.7000e+000 111288 -9.1475e+001 -1.7935e+002  1.9345e+002 22142 111092,111144,111118
 1.7000e+000 111265 -3.5446e+002 -2.6690e+002  2.0993e+002 22142 111066,111144,111092
 1.7000e+000 111242 -3.2794e+002 -2.3237e+002  1.7705e+002 22142 111040,111144,111066
 1.7000e+000 111219 -6.1928e+002 -4.5932e+001  1.1177e+002 22142 111014,111144,111040
 1.7000e+000 111196 -4.1426e+002  1.7134e+001  1.4475e+002 22142 111014,111170,111144
 1.7000e+000 111389  3.2436e+001 -8.0795e+001  2.8666e+002 21830 111311,111363,111337
 1.7000e+000 111735 -7.9455e+002  3.0729e+001  6.0523e+002 21268 111758,111542,111438
 1.7000e+000 111712 -6.4195e+002  6.2792e+001  4.1110e+002 21268 111758,111438,111412
 1.7000e+000 111689 -2.3644e+002 -3.5610e+002  7.4436e+002 21268 111438,111542,111464
 1.7000e+000 111666  3.2305e+001 -1.8936e+002  9.3716e+002 21268 111464,111542,111490
 1.7000e+000 111643 -1.5366e+003 -7.4712e+002  7.2984e+002 21268 111412,111594,111568
 1.7000e+000 111620  4.6840e+002  4.0743e+002  1.1652e+003 21268 111490,111542,111516
 1.7000e+000 111784 -8.1880e+002 -8.9948e+001  5.9713e+002 21268 111568,111542,111758
 1.7000e+000 111807 -8.0941e+002 -3.4278e+002  4.6507e+002 21268 111568,111758,111412
 1.7000e+000 111959 -7.4844e+002 -8.5933e+001  2.5426e+002 20864 111982,111910,111884
 1.7000e+000 111936 -6.9774e+002 -1.0364e+002  3.6939e+002 20864 112114,111832,111910
 1.7000e+000 112008 -7.3581e+002 -2.4629e+002  3.1661e+002 20864 112114,111910,111982
 1.7000e+000 112140 -6.8334e+002 -2.6502e+002  2.9846e+002 20864 111858,111832,112114
 1.7000e+000 112163 -7.3570e+002 -4.4061e+002  2.5068e+002 20864 111858,112114,111982
 1.7000e+000 112411 -6.8879e+001 -1.4734e+001  2.5302e+001 20324 112186,112290,112212
 1.7000e+000 112388 -1.4894e+001 -3.4151e+000  3.9010e+001 20324 112186,112316,112290
 1.7000e+000 112365  3.4574e+002 -2.3281e+002  4.1422e+001 20324 112212,112290,112264
 1.7000e+000 112342 -1.1597e+003 -4.9603e+002 -7.9155e+001 20324 112212,112264,112238
 1.7000e+000 112659 -1.4376e+002 -4.1715e+001  3.5716e+002 19920 112512,112564,112538
 1.7000e+000 112636 -4.4913e+002 -1.7136e+002  2.4122e+002 19920 112434,112564,112512
 1.7000e+000 112613 -4.6262e+002 -2.8007e+002  2.8403e+002 19920 112434,112512,112460
 1.7000e+000 112590 -4.8917e+002 -2.9607e+002  2.9309e+002 19920 112460,112512,112486
 1.7000e+000 112811 -9.9231e+001 -3.7806e+001  1.7405e+002 19630 112684,112736,112710
 1.7000e+000 112788  9.7729e+001 -2.2343e+002  7.5234e+001 19630 112684,112762,112736
 1.7000e+000 113012 -3.9855e+002 -1.4592e+002  3.9765e+002 19169 112862,112940,112888
 1.7000e+000 112989 -6.6284e+002 -5.1714e+002  2.7979e+002 19169 112836,112940,112862
 1.7000e+000 112966 -3.7435e+002 -4.6965e+002  3.4652e+002 19169 112888,112940,112914
 1.7000e+000 113213 -1.0109e+003 -4.0191e+002  4.4118e+002 18600 113037,113089,113063
 1.7000e+000 113190 -6.1633e+002 -2.4216e+002  3.3884e+002 18600 113037,113115,113089
 1.7000e+000 113167 -1.2010e+003 -7.4421e+002  6.7169e+002 18600 113037,113141,113115
 1.7000e+000 113485 -4.5521e+002 -1.6611e+002  4.2845e+002 18352 113260,113312,113286
 1.7000e+000 113462 -9.0781e+002 -5.0598e+002  5.7694e+002 18352 113260,113390,113312
 1.7000e+000 113439 -8.5428e+002 -1.5561e+002  4.0504e+002 18352 113312,113390,113364
 1.7000e+000 113416 -3.0463e+002 -1.0094e+002  4.3388e+002 18352 113312,113364,113338
 1.7000e+000 113757 -6.2658e+002 -2.4163e+002  4.1165e+002 17834 113558,113610,113584
 1.7000e+000 113734 -9.2494e+002 -5.0956e+002  5.5340e+002 17834 113532,113610,113558
 1.7000e+000 113711 -9.3413e+002 -5.9588e+002  4.4495e+002 17834 113532,113662,113610
 1.7000e+000 113688 -4.6719e+002 -1.3730e+002  6.3047e+002 17834 113610,113662,113636
 1.7000e+000 113958 -5.7878e+002 -2.3254e+002  3.1295e+002 17330 113782,113834,113808
 1.7000e+000 113935 -3.3053e+002 -1.9474e+002  2.3585e+002 17330 113782,113886,113834
 1.7000e+000 113912 -4.0002e+002 -1.8527e+002  1.5243e+002 17330 113834,113886,113860
 1.7000e+000 114110 -8.8156e+002 -3.2594e+002  5.6753e+002 16874 113983,114035,114009
 1.7000e+000 114087 -3.5352e+002 -7.9253e+002  5.2671e+002 16874 113983,114061,114035
 1.7000e+000 114465 -9.8441e+002 -4.1426e+002  2.1804e+002 16270 114240,114292,114266
 1.7000e+000 114442 -6.1256e+002 -1.3366e+002  8.9928e+001 16270 114240,114370,114292
 1.7000e+000 114419 -3.0376e+002 -1.2525e+002  1.7766e+002 16270 114292,114344,114318
 1.7000e+000 114396 -6.1703e+002 -2.8082e+002  1.0055e+002 16270 114292,114370,114344
 1.7000e+000 114566 -6.6544e+001  6.6544e+001  7.8088e+002 15834 114488,114540,114514
 1.7000e+000 114667 -5.7563e+002 -2.2641e+002  3.5775e+002 15155 114589,114641,114615
 1.7000e+000 114890 -4.6653e+002 -1.6355e+002  4.7934e+002 421 114766,114818,114792
 1.7000e+000 114867 -6.8946e+002 -5.8562e+002  3.9240e+002 421 114714,114818,114766
 1.7000e+000 114844 -9.4632e+002 -3.9763e+002  2.2231e+002 421 114714,114766,114740
 1.8000e+000 66553 -5.4254e+002 -2.3338e+002  2.8979e+002 66108 66354,66458,66432
 1.8000e+000 66530 -5.5662e+002 -2.3282e+002  1.9586e+002 66108 66328,66458,66354
 1.8000e+000 66507 -3.1427e+002 -2.4421e+002  1.9203e+002 66108 66354,66432,66406
 1.8000e+000 66484  1.3496e+002  7.7691e+001  3.5890e+002 66108 66354,66406,66380
 1.8000e+000 66951 -3.1446e+002 -1.2873e+002  1.9711e+002 65910 66703,66833,66807
 1.8000e+000 66928 -5.3080e+001 -9.0802e+001  2.4232e+002 65910 66677,66833,66703
 1.8000e+000 66905 -2.4120e+002 -4.8619e+002  3.3324e+002 65910 66729,66781,66755
 1.8000e+000 66882 -9.0703e+002 -3.7374e+002  3.0627e+002 65910 66729,66807,66781
 1.8000e+000 66859 -5.6414e+002 -6.4471e+001  1.7139e+002 65910 66703,66807,66729
 1.8000e+000 67150 -4.6173e+002 -1.9807e+002  1.7518e+001 65712 67026,67078,67052
 1.8000e+000 67127 -1.5026e+002 -1.3210e+002 -2.1564e+001 65712 66974,67078,67026
 1.8000e+000 67104 -2.7665e+002 -1.6681e+002 -4.7007e+001 65712 66974,67026,67000
 1.8000e+000 67481 -1.1327e+003 -1.9631e+002  3.8876e+002 65422 67282,67360,67334
 1.8000e+000 67458 -5.1530e+002 -1.5917e+002  6.2366e+002 65422 67282,67386,67360
 1.8000e+000 67435 -3.0823e+002  1.5299e+002  3.3841e+002 65422 67282,67334,67308
 1.8000e+000 67412  1.1112e+002 -9.8509e+001  2.6694e+002 65422 67256,67386,67282
 1.8000e+000 68115 -2.0116e+002 -1.6897e+002  1.2125e+002 65018 67795,67925,67873
 1.8000e+000 68092 -2.7011e+002 -2.0374e+002  8.8166e+001 65018 67769,67925,67795
 1.8000e+000 68069 -1.7554e+002 -1.2692e+002  1.3253e+002 65018 67873,67925,67899
 1.8000e+000 68046 -3.5441e+002 -3.0959e+002  1.3507e+002 65018 67769,67951,67925
 1.8000e+000 68023 -3.3277e+002 -2.3249e+002  1.8012e+002 65018 67795,67873,67821
 1.8000e+000 68000 -3.8618e+002 -2.2315e+002  1.4307e+002 65018 67821,67873,67847
 1.8000e+000 67977 -5.4503e+002 -3.7138e+002  1.3502e+002 65018 67743,67951,67769
 1.8000e+000 68363 -2.8540e+002 -5.7648e+002  6.1482e+002 64820 68190,68242,68216
 1.8000e+000 68340 -6.3784e+002 -4.4081e+002  6.4326e+002 64820 68190,68268,68242
 1.8000e+000 68317 -3.5088e+002 -3.0173e+002  6.9687e+002 64820 68164,68268,68190
 1.8000e+000 68294 -1.2663e+003 -5.0537e+002  4.7864e+002 64820 68138,68268,68164
 1.8000e+000 68513 -5.5719e+002 -2.5667e+002  3.2649e+002 64366 68868,68536,68438
 1.8000e+000 68490 -3.4674e+002 -1.5657e+002  2.2540e+002 64366 68536,68412,68386
 1.8000e+000 68562 -7.4182e+002 -2.9627e+002  3.5897e+002 64366 68740,68536,68464
 1.8000e+000 68585 -5.0478e+002 -2.2471e+002  2.8480e+002 64366 68608,68536,68386
 1.8000e+000 68634 -6.0036e+002 -4.2637e+002  2.5775e+002 64366 68464,68536,68608
 1.8000e+000 68766 -5.2987e+002 -1.9230e+002  3.2161e+002 64366 68438,68536,68740
 1.8000e+000 68894 -5.0712e+002 -1.8974e+002  3.4863e+002 64366 68412,68536,68868
 1.8000e+000 69172 -1.3075e+002 -6.5452e+002  1.2514e+002 64168 69022,69074,69048
 1.8000e+000 69149 -8.0703e+002 -3.3355e+002  2.7920e+002 64168 68996,69074,69022
 1.8000e+000 69126 -9.3490e+002 -6.2186e+002  2.0419e+002 64168 68996,69100,69074
 1.8000e+000 69371 -5.2148e+002 -1.8891e+002  3.8043e+002 63970 69466,69394,69273
 1.8000e+000 69348 -2.1681e+002 -1.3934e+002  1.0434e+002 63970 69394,69247,69221
 1.8000e+000 69325 -9.8225e+002 -4.1101e+002  2.4925e+002 63970 69195,69299,69221
 1.8000e+000 69420 -7.9676e+002 -3.1253e+002  4.8958e+002 63970 69299,69273,69394
 1.8000e+000 69443 -4.8052e+002 -3.9290e+002  2.6407e+002 63970 69299,69394,69221
 1.8000e+000 69492 -5.4481e+002 -2.3012e+002  3.7108e+002 63970 69247,69394,69466
 1.8000e+000 69904 -2.6767e+001 -2.3661e+002  1.3262e+002 63680 69705,69783,69731
 1.8000e+000 69881  3.0422e+001 -1.6489e+002  8.0412e+001 63680 69679,69783,69705
 1.8000e+000 69858 -2.4528e+002 -3.3054e+002  1.5917e+002 63680 69679,69809,69783
 1.8000e+000 69835 -1.3359e+002 -1.5579e+002  1.3834e+002 63680 69731,69783,69757
 1.8000e+000 70054 -3.5642e+001 -3.5682e+002  2.2352e+002 63476 70077,69953,69927
 1.8000e+000 70031  6.1669e+001 -1.4846e+002  3.2001e+002 63476 70077,69927,70005
 1.8000e+000 70103 -1.8370e+002 -2.2380e+002  1.3525e+002 63476 69979,69953,70077
 1.8000e+000 70126 -1.0624e+002 -3.8249e+001  2.1648e+002 63476 69979,70077,70005
 1.8000e+000 70325 -1.1700e+003 -4.7481e+002  4.8251e+002 63278 70149,70227,70175
 1.8000e+000 70302 -5.8403e+002 -2.0132e+002  5.5764e+002 63278 70149,70253,70227
 1.8000e+000 70279 -1.3548e+003 -5.9607e+002  2.9480e+002 63278 70175,70227,70201
 1.8000e+000 70597 -5.1938e+002  2.3069e+000  1.8082e+002 63080 70372,70476,70424
 1.8000e+000 70574 -3.2110e+002 -1.2857e+002  2.4060e+002 63080 70372,70502,70476
 1.8000e+000 70551 -7.6507e+002 -3.1159e+002  3.2002e+002 63080 70424,70476,70450
 1.8000e+000 70528 -1.1544e+003 -3.1875e+002  5.1590e+002 63080 70372,70424,70398
 1.8000e+000 70847 -8.6551e+001 -2.5733e+002  1.1227e+002 62740 70870,70648,70622
 1.8000e+000 70824 -2.1385e+002 -1.8479e+002  1.5864e+002 62740 70870,70622,70752
 1.8000e+000 70801 -8.8168e+001 -3.7544e+002  1.8944e+002 62740 70648,70726,70700
 1.8000e+000 70778 -1.1411e+002 -4.1991e+002  2.0015e+002 62740 70648,70700,70674
 1.8000e+000 70896 -2.0187e+002 -3.3604e+002  7.7921e+001 62740 70726,70648,70870
 1.8000e+000 70919 -2.5921e+002 -2.1737e+002  1.4422e+002 62740 70726,70870,70752
 1.8000e+000 71022 -7.4582e+001  7.4582e+001  8.2634e+002 62520 70944,70996,70970
 1.8000e+000 71223 -9.9127e+002 -4.0596e+002  6.0376e+002 62230 71073,71151,71099
 1.8000e+000 71200 -8.6018e+002 -3.9108e+002  5.6859e+002 62230 71047,71151,71073
 1.8000e+000 71177 -5.8820e+002 -7.5334e+002  5.0693e+002 62230 71099,71151,71125
 1.8000e+000 71861 -3.5610e+002 -5.1845e+002 -1.7462e+000 61712 71515,71697,71671
 1.8000e+000 71838 -4.2723e+002 -6.4066e+002  1.3100e+002 61712 71489,71697,71515
 1.8000e+000 71815 -1.2148e+003 -5.0998e+002  3.4826e+002 61712 71884,71541,71515
 1.8000e+000 71792 -8.1008e+002 -2.7367e+002  2.5155e+002 61712 71884,71515,71671
 1.8000e+000 71769 -3.0040e+002 -7.6262e+002  3.2532e+002 61712 71541,71619,71593
 1.8000e+000 71746 -3.0748e+002 -9.7557e+002  1.6576e+002 61712 71619,71671,71645
 1.8000e+000 71723 -1.0275e+003 -1.1532e+003  6.1556e+002 61712 71541,71593,71567
 1.8000e+000 71910 -8.4442e+002 -7.4574e+002  5.4728e+002 61712 71619,71541,71884
 1.8000e+000 71933 -5.8331e+002 -5.9085e+002  4.8331e+002 61712 71619,71884,71671
 1.8000e+000 72230 -4.7639e+002 -2.7907e+002  8.7502e+001 61208 72253,72060,72008
 1.8000e+000 72207 -4.5661e+002 -1.8124e+002  7.6236e+001 61208 72253,72008,71982
 1.8000e+000 72184 -4.6193e+002 -9.2105e+001  8.0904e+001 61208 71982,72112,72086
 1.8000e+000 72161 -8.7342e+002 -2.8123e+002  2.0005e+002 61208 72008,72060,72034
 1.8000e+000 72138 -3.3001e+002 -8.5774e+001  1.6435e+002 61208 71956,72112,71982
 1.8000e+000 72279 -4.6551e+002 -2.1129e+002  4.4473e+001 61208 72086,72060,72253
 1.8000e+000 72302 -4.7577e+002 -1.5502e+002  3.3691e+001 61208 72086,72253,71982
 1.8000e+000 72761 -6.3534e+002 -3.2109e+002  1.9865e+002 60804 72487,72617,72513
 1.8000e+000 72738 -5.9128e+002 -3.7224e+002  1.7802e+002 60804 72487,72643,72617
 1.8000e+000 72715 -2.4060e+002 -4.6358e+002  2.8391e+002 60804 72565,72617,72591
 1.8000e+000 72692 -5.3567e+002 -3.2904e+002  2.7263e+002 60804 72513,72617,72565
 1.8000e+000 72669 -5.1799e+002 -2.6896e+002  2.8943e+002 60804 72513,72565,72539
 1.8000e+000 72911 -7.4582e+001  7.4582e+001  8.2634e+002 60556 72784,72836,72810
 1.8000e+000 72888  6.1566e+002  1.8969e+002  5.5547e+002 60556 72784,72862,72836
 1.8000e+000 73468 -3.0886e+002 -3.0807e+002  2.0697e+002 60244 73491,73226,73200
 1.8000e+000 73445 -3.9750e+002 -3.1459e+002  2.9613e+002 60244 73563,73491,73200
 1.8000e+000 73422 -6.5899e+002 -2.1200e+002  3.0091e+002 60244 73563,73200,73174
 1.8000e+000 73399 -2.4992e+002 -3.2724e+002  1.7403e+002 60244 73226,73278,73252
 1.8000e+000 73376 -5.1777e+002 -3.4073e+002  2.0910e+002 60244 73122,73304,73278
 1.8000e+000 73353 -5.2728e+002 -5.4154e+002  2.6050e+002 60244 73096,73304,73122
 1.8000e+000 73330 -7.8637e+002 -2.2397e+002 -1.4995e+002 60244 73122,73174,73148
 1.8000e+000 73517 -5.2276e+002 -4.0509e+002  2.4462e+002 60244 73278,73226,73491
 1.8000e+000 73540 -4.8751e+002 -3.1084e+002  2.2259e+002 60244 73278,73491,73122
 1.8000e+000 73589 -7.8585e+002 -4.2664e+002  2.3112e+002 60244 73122,73491,73563
 1.8000e+000 73612 -1.0425e+003 -3.1373e+002  2.5150e+002 60244 73122,73563,73174
 1.8000e+000 73762 -4.7071e+002 -1.1037e+003  5.2219e+002 59875 73661,73713,73687
 1.8000e+000 73739 -7.2664e+002 -5.0876e+002  3.7673e+002 59875 73635,73713,73661
 1.8000e+000 74191 -2.0177e+002 -4.0481e+002  5.8047e+002 59478 74214,73894,73868
 1.8000e+000 74168 -4.9120e+002 -3.9450e+002  6.0886e+002 59478 74214,73868,74050
 1.8000e+000 74145 -4.3685e+002 -5.4551e+002  3.0911e+002 59478 73894,73946,73920
 1.8000e+000 74122 -4.1524e+002 -4.3697e+002  2.8045e+002 59478 73894,73998,73946
 1.8000e+000 74099 -1.2998e+003 -6.5776e+002  8.2208e+002 59478 73998,74050,74024
 1.8000e+000 74076 -5.5517e+002 -5.7016e+002  1.9077e+002 59478 73946,73998,73972
 1.8000e+000 74240 -4.6689e+002 -3.1714e+002  4.3887e+002 59478 73998,73894,74214
 1.8000e+000 74263 -7.4618e+002 -3.2394e+002  4.2100e+002 59478 73998,74214,74050
 1.8000e+000 74720 -5.4983e+002 -3.7169e+002  2.0671e+002 58774 74472,74602,74498
 1.8000e+000 74697 -5.1969e+002 -3.6114e+002  2.1049e+002 58774 74446,74602,74472
 1.8000e+000 74674 -5.6505e+002 -3.4012e+002  2.3305e+002 58774 74498,74576,74524
 1.8000e+000 74651 -5.2514e+002 -3.4794e+002  2.2125e+002 58774 74498,74602,74576
 1.8000e+000 74628 -6.1083e+002 -5.0444e+002  2.6192e+002 58774 74524,74576,74550
 1.8000e+000 75226 -5.0904e+002 -1.8513e+002  2.6015e+002 58270 74955,75085,75033
 1.8000e+000 75203 -3.5578e+002 -4.3328e+002  3.5424e+002 58270 74929,75085,74955
 1.8000e+000 75180 -4.5246e+002 -2.1460e+002  2.1405e+002 58270 75033,75085,75059
 1.8000e+000 75157 -6.4900e+002 -2.2745e+002  1.4721e+002 58270 74955,75007,74981
 1.8000e+000 75134 -3.3427e+002 -1.1803e+002  8.8770e+001 58270 74955,75033,75007
 1.8000e+000 75111 -5.6047e+001 -5.2708e+002  1.8050e+002 58270 74903,75085,74929
 1.8000e+000 75425 -3.1070e+002 -1.3305e+002  1.4104e+002 57830 75448,75301,75249
 1.8000e+000 75402 -2.2447e+002  1.1695e+001  7.4534e+001 57830 75448,75249,75353
 1.8000e+000 75379 -2.9234e+002 -4.7689e+002  1.3820e+002 57830 75520,75301,75275
 1.8000e+000 75474 -2.9964e+002 -2.2105e+002  2.2662e+002 57830 75327,75301,75448
 1.8000e+000 75497 -2.5612e+002 -1.5538e+002  1.6185e+002 57830 75327,75448,75353
 1.8000e+000 75546 -1.7450e+002 -7.9340e+001  4.1249e+001 57830 75249,75301,75520
 1.8000e+000 76261 -2.6552e+002 -3.9829e+002  2.4237e+002 57426 76284,76097,76071
 1.8000e+000 76238 -2.4211e+002 -3.1527e+002  2.7308e+002 57426 75889,76097,75915
 1.8000e+000 76215 -3.8506e+002 -4.3691e+002  2.4544e+002 57426 76428,76284,76071
 1.8000e+000 76192 -2.8367e+002 -3.8336e+002  1.6210e+002 57426 76356,75941,75915
 1.8000e+000 76169 -3.9444e+002 -3.7570e+002  2.3041e+002 57426 76428,76071,76019
 1.8000e+000 76146 -4.0984e+002 -4.3635e+002  2.1990e+002 57426 76019,76071,76045
 1.8000e+000 76123 -3.7782e+002 -3.6085e+002  3.1291e+002 57426 75967,76019,75993
 1.8000e+000 76310 -3.0602e+002 -4.9530e+002  2.1638e+002 57426 75915,76097,76284
 1.8000e+000 76333 -2.9829e+002 -4.2948e+002  1.6928e+002 57426 76356,75915,76284
 1.8000e+000 76382 -3.2960e+002 -3.1799e+002  2.0310e+002 57426 75967,75941,76356
 1.8000e+000 76405 -3.3599e+002 -3.4994e+002  2.0286e+002 57426 75967,76356,76284
 1.8000e+000 76454 -3.4774e+002 -3.8396e+002  2.2692e+002 57426 75967,76284,76428
 1.8000e+000 76477 -3.8783e+002 -3.5143e+002  2.2357e+002 57426 75967,76428,76019
 1.8000e+000 76953 -3.6331e+002 -7.2548e+002  3.7203e+002 56908 76976,76711,76685
 1.8000e+000 76930 -3.8206e+002 -7.5221e+002  3.2243e+002 56908 77048,76976,76685
 1.8000e+000 76907 -7.0505e+002 -7.8557e+002  4.6941e+002 56908 77048,76685,76633
 1.8000e+000 76884 -1.0473e+003 -1.1411e+003  7.1507e+002 56908 76711,76789,76763
 1.8000e+000 76861 -5.8855e+002 -4.7017e+002  2.9030e+002 56908 76581,76789,76607
 1.8000e+000 76838 -1.0374e+003 -8.5162e+002  2.7443e+002 56908 76711,76763,76737
 1.8000e+000 76815 -1.4793e+003 -1.2757e+003  8.2122e+002 56908 76633,76685,76659
 1.8000e+000 77002 -3.1111e+002 -7.2282e+002  4.3959e+002 56908 76789,76711,76976
 1.8000e+000 77025 -4.1919e+002 -5.0289e+002  2.2149e+002 56908 76789,76976,76607
 1.8000e+000 77074 -8.8790e+002 -7.3426e+002  3.1211e+002 56908 76607,76976,77048
 1.8000e+000 77097 -1.0639e+003 -6.3072e+002  4.4186e+002 56908 76607,77048,76633
 1.8000e+000 77475 -4.5746e+002 -6.9027e+002  4.1726e+002 56546 77570,77498,77279
 1.8000e+000 77452 -3.6612e+002 -8.1975e+002  5.3434e+002 56546 77498,77227,77357
 1.8000e+000 77429 -5.1445e+002 -7.4889e+002  4.7241e+002 56546 77570,77279,77253
 1.8000e+000 77406 -7.1827e+002 -9.7218e+002  5.5021e+002 56546 77201,77357,77227
 1.8000e+000 77383 -5.8189e+002 -7.0596e+002  2.5955e+002 56546 77279,77331,77305
 1.8000e+000 77524 -4.0454e+002 -4.3915e+002  4.0187e+002 56546 77331,77279,77498
 1.8000e+000 77547 -2.9970e+002 -6.2557e+002  5.9781e+002 56546 77331,77498,77357
 1.8000e+000 77596 -4.9536e+002 -6.9816e+002  5.4241e+002 56546 77227,77498,77570
 1.8000e+000 77619 -5.8712e+002 -8.8948e+002  6.0017e+002 56546 77227,77570,77253
 1.8000e+000 77818 -5.6576e+002 -5.5584e+002  4.3800e+002 56042 77841,77694,77668
 1.8000e+000 77795 -5.4614e+002 -5.2162e+002  3.0777e+002 56042 77841,77668,77746
 1.8000e+000 77772 -6.0594e+002 -8.8285e+002  2.8225e+002 56042 77642,77746,77668
 1.8000e+000 77867 -6.1892e+002 -6.5994e+002  4.5847e+002 56042 77720,77694,77841
 1.8000e+000 77890 -5.9049e+002 -6.1130e+002  3.2563e+002 56042 77720,77841,77746
 1.8000e+000 78349 -4.4871e+002 -1.2884e+002  1.9492e+002 55538 78075,78127,78101
 1.8000e+000 78326 -5.4983e+002 -2.6499e+002  1.1047e+002 55538 78075,78205,78127
 1.8000e+000 78303 -3.5971e+002 -1.1818e+002  3.2320e+001 55538 78075,78231,78205
 1.8000e+000 78280 -4.4219e+002 -4.1767e+002  2.6196e+002 55538 78127,78179,78153
 1.8000e+000 78257 -3.7731e+002 -2.5737e+002  1.0596e+002 55538 78127,78205,78179
 1.8000e+000 78806 -3.1286e+002 -4.1636e+002  1.2157e+002 55034 78829,78636,78610
 1.8000e+000 78783 -3.6402e+002 -4.1226e+002  1.3923e+002 55034 78901,78829,78610
 1.8000e+000 78760 -3.0985e+002 -4.2645e+002  1.6112e+002 55034 78901,78610,78584
 1.8000e+000 78737 -4.6291e+002 -3.7040e+002  1.3614e+002 55034 78558,78688,78662
 1.8000e+000 78714 -5.5665e+002 -4.2906e+002  3.9567e+002 55034 78532,78688,78558
 1.8000e+000 78855 -3.7177e+002 -4.7066e+002  9.9063e+001 55034 78662,78636,78829
 1.8000e+000 78878 -3.8718e+002 -3.9750e+002  1.5822e+002 55034 78662,78829,78558
 1.8000e+000 78927 -3.2087e+002 -3.6316e+002  1.7500e+002 55034 78558,78829,78901
 1.8000e+000 78950 -2.9984e+002 -3.8532e+002  1.9802e+002 55034 78558,78901,78584
 1.8000e+000 79407 -2.6794e+002 -1.1548e+002  2.5876e+002 54430 79430,79237,79159
 1.8000e+000 79384 -3.9533e+002 -3.2355e+002  9.8109e+001 54430 79430,79159,79133
 1.8000e+000 79361 -2.2217e+002 -2.3851e+002  1.1674e+002 54430 79237,79289,79263
 1.8000e+000 79338 -3.3174e+002 -2.0480e+002  2.0755e+002 54430 79185,79237,79211
 1.8000e+000 79315 -4.9112e+002 -2.1046e+002  3.0856e+002 54430 79159,79237,79185
 1.8000e+000 79456 -2.5280e+002 -3.5231e+002  1.2139e+002 54430 79289,79237,79430
 1.8000e+000 79479 -3.2379e+002 -6.0434e+002 -8.7498e-001 54430 79289,79430,79133
 1.8000e+000 79936 -2.3227e+002 -8.6938e+001  2.6455e+002 53919 79662,79766,79688
 1.8000e+000 79913 -8.5034e+002 -4.0479e+002  4.9678e+002 53919 79662,79818,79766
 1.8000e+000 79890 -1.1608e+003 -4.8333e+002  6.6916e+001 53919 79766,79818,79792
 1.8000e+000 79867 -5.9659e+002 -3.3384e+002  3.5851e+002 53919 79714,79766,79740
 1.8000e+000 79844 -5.4743e+002 -2.9160e+002  3.8049e+002 53919 79688,79766,79714
 1.8000e+000 80037 -1.5587e+002 -4.3369e+002  4.2681e+002 53671 79959,80011,79985
 1.8000e+000 80405 -3.6749e+001 -1.1238e+002 -3.4942e+000 53267 80108,80264,80238
 1.8000e+000 80382 -1.9396e+001 -3.9479e+001  2.1364e+001 53267 80082,80264,80108
 1.8000e+000 80359 -3.6184e+001 -3.3434e+002  2.4385e+002 53267 80108,80238,80134
 1.8000e+000 80336 -8.6824e+000 -1.1898e+002  1.6647e+002 53267 80134,80212,80186
 1.8000e+000 80313 -2.8258e+002 -3.2406e+002  3.0501e+002 53267 80134,80238,80212
 1.8000e+000 80290  8.9392e+001 -2.5175e+002  5.6788e+001 53267 80134,80186,80160
 1.8000e+000 80915 -3.1574e+002 -4.7526e+002  1.2274e+002 52969 80644,80774,80748
 1.8000e+000 80892 -3.3765e+002 -1.5082e+002 -3.4814e+001 52969 80618,80774,80644
 1.8000e+000 80869 -5.0214e+002 -6.6215e+002  3.5470e+001 52969 80644,80748,80670
 1.8000e+000 80846 -4.4916e+002 -1.5392e+002 -1.3931e+001 52969 80592,80774,80618
 1.8000e+000 80823 -8.0622e+002 -6.3553e+002  1.5913e+002 52969 80670,80722,80696
 1.8000e+000 80800 -4.0674e+002 -4.8356e+002  7.1451e+001 52969 80670,80748,80722
 1.8000e+000 81266  1.1770e+002 -1.8336e+002  6.6138e+001 52565 81041,81145,81067
 1.8000e+000 81243 -8.9009e+001 -5.5975e+002  1.6321e+002 52565 81041,81171,81145
 1.8000e+000 81220 -4.8958e+002 -1.3564e+003  3.2666e+002 52565 81067,81119,81093
 1.8000e+000 81197  1.9076e+002  5.1244e+001  9.7208e+001 52565 81067,81145,81119
 1.8000e+000 81723 -2.5761e+002 -1.2971e+002  1.2685e+002 51904 81449,81527,81475
 1.8000e+000 81700 -1.9607e+002 -4.2588e+001  9.3839e+001 51904 81449,81579,81527
 1.8000e+000 81677 -5.0937e+002 -3.1408e+002  2.2411e+002 51904 81449,81605,81579
 1.8000e+000 81654 -2.2490e+002 -5.9668e+001  8.4854e+001 51904 81527,81579,81553
 1.8000e+000 81631 -3.4759e+002 -1.2241e+002  8.0671e+001 51904 81475,81527,81501
 1.8000e+000 82327 -5.3598e+002 -5.2426e+002  3.7115e+002 51321 82422,82350,82036
 1.8000e+000 82304 -5.6495e+002 -3.9821e+002  3.7864e+002 51321 82494,82350,81958
 1.8000e+000 82281 -5.4112e+002 -5.3133e+002  3.5654e+002 51321 82422,82036,82010
 1.8000e+000 82258 -5.3460e+002 -3.7929e+002  3.6100e+002 51321 82494,81958,81932
 1.8000e+000 82235 -5.8319e+002 -3.2012e+002  2.2887e+002 51321 82062,82114,82088
 1.8000e+000 82212 -1.2801e+003 -7.7312e+002  5.3092e+002 51321 81932,82140,82114
 1.8000e+000 82189 -5.7103e+002 -1.7806e+002  3.1284e+002 51321 81958,82010,81984
 1.8000e+000 82166 -3.9996e+002 -4.4600e+002  2.7020e+002 51321 81906,82140,81932
 1.8000e+000 82376 -5.4105e+002 -6.4412e+002  3.6928e+002 51321 82062,82036,82350
 1.8000e+000 82399 -5.7798e+002 -4.9393e+002  3.5160e+002 51321 82062,82350,82114
 1.8000e+000 82448 -5.1762e+002 -5.1228e+002  3.7815e+002 51321 81958,82350,82422
 1.8000e+000 82471 -5.2034e+002 -5.1809e+002  3.6384e+002 51321 81958,82422,82010
 1.8000e+000 82520 -5.6386e+002 -4.1178e+002  3.9486e+002 51321 82114,82350,82494
 1.8000e+000 82543 -5.6123e+002 -4.0843e+002  3.8057e+002 51321 82114,82494,81932
 1.8000e+000 83019 -5.0287e+002 -7.7929e+002  4.2609e+002 50817 82673,82751,82699
 1.8000e+000 82996 -5.1301e+002 -6.6672e+002  2.3976e+002 50817 83042,82673,82855
 1.8000e+000 82973 -6.3658e+002 -5.3250e+002  1.9195e+002 50817 83042,82855,82803
 1.8000e+000 82950 -7.7739e+002 -5.1603e+002  2.9338e+002 50817 82751,82803,82777
 1.8000e+000 82927 -7.3541e+002 -7.5464e+002  2.2743e+002 50817 82647,82855,82673
 1.8000e+000 82904 -7.9679e+002 -6.8041e+002  3.0412e+002 50817 82803,82855,82829
 1.8000e+000 82881 -9.6286e+002 -1.5904e+003  6.7791e+002 50817 82699,82751,82725
 1.8000e+000 83068 -3.4419e+002 -5.6325e+002  1.9599e+002 50817 82751,82673,83042
 1.8000e+000 83091 -5.4389e+002 -4.7890e+002  1.7018e+002 50817 82751,83042,82803
 1.8000e+000 83290 -6.0604e+002 -2.6225e+002  3.6259e+002 50356 83313,83166,83140
 1.8000e+000 83267 -6.8166e+002 -5.3557e+002  2.8667e+002 50356 83515,83313,83140
 1.8000e+000 83244 -7.7380e+002 -5.5083e+002  1.5078e+002 50356 83515,83140,83385
 1.8000e+000 83339 -7.1485e+002 -4.7175e+002  4.0431e+002 50356 83192,83166,83313
 1.8000e+000 83362 -5.1058e+002 -4.8238e+002  3.4932e+002 50356 83192,83313,83218
 1.8000e+000 83411 -3.1884e+002 -3.3944e+002  2.5680e+002 50356 83114,83218,83385
 1.8000e+000 83541 -4.5992e+002 -4.8066e+002  2.9703e+002 50356 83218,83313,83515
 1.8000e+000 83564 -4.8105e+002 -4.3594e+002  1.8088e+002 50356 83218,83515,83385
 1.8000e+000 83893 -4.8214e+002 -3.6525e+002  1.0660e+002 49552 83720,83798,83746
 1.8000e+000 83870 -3.5619e+002 -8.7545e+001  1.3481e+002 49552 83694,83798,83720
 1.8000e+000 83847 -2.6811e+002 -1.5177e+002  1.2474e+002 49552 83668,83798,83694
 1.8000e+000 83824 -7.3057e+002 -1.9680e+002 -1.5522e+001 49552 83746,83798,83772
 1.8000e+000 84141 -7.2844e+002 -4.9605e+002  3.7855e+002 49212 84164,84020,83942
 1.8000e+000 84118 -6.9878e+002 -4.1201e+002  4.0196e+002 49212 84164,83942,83916
 1.8000e+000 84095 -4.6535e+002 -6.1393e+002  2.9220e+002 49212 83942,84020,83968
 1.8000e+000 84072 -4.2306e+002 -2.1716e+001  1.3322e+002 49212 83968,84020,83994
 1.8000e+000 84190 -7.4824e+002 -4.8050e+002  3.3065e+002 49212 84046,84020,84164
 1.8000e+000 84213 -7.2163e+002 -4.2568e+002  3.5532e+002 49212 84046,84164,83916
 1.8000e+000 84800 -1.7649e+002 -4.4319e+002  2.5703e+002 48865 84503,84633,84555
 1.8000e+000 84777 -3.9185e+002 -7.2830e+002  1.6185e+002 48865 84503,84659,84633
 1.8000e+000 84754 -3.1763e+002 -8.4055e+002  2.2995e+002 48865 84555,84633,84581
 1.8000e+000 84731 -2.6555e+002 -1.3203e+003  4.8227e+002 48865 84581,84633,84607
 1.8000e+000 84708 -6.7142e+002 -5.6932e+002  1.7893e+002 48865 84503,84555,84529
 1.8000e+000 84685 -4.1256e+002 -6.7262e+002  2.5742e+002 48865 84477,84659,84503
 1.8000e+000 85355 -3.3120e+002 -2.6678e+002  6.0510e+001 48461 85378,85035,85009
 1.8000e+000 85332 -4.8282e+002 -4.3280e+002  1.2672e+002 48461 85378,85009,85165
 1.8000e+000 85309 -3.8494e+002 -4.2753e+002  2.3459e+002 48461 85450,85061,85035
 1.8000e+000 85286 -5.4776e+002 -4.5873e+002  1.2728e+002 48461 85009,85191,85165
 1.8000e+000 85263 -4.3652e+002 -3.9427e+002  2.9413e+002 48461 85087,85165,85113
 1.8000e+000 85240 -2.5625e+002 -5.9496e+002 -7.4073e+001 48461 84983,85191,85009
 1.8000e+000 85217 -3.6945e+002 -4.9981e+002  1.8694e+002 48461 85113,85165,85139
 1.8000e+000 85404 -4.1892e+002 -3.1500e+002  1.7689e+002 48461 85450,85035,85378
 1.8000e+000 85427 -5.2221e+002 -3.9957e+002  1.5299e+002 48461 85087,85378,85165
 1.8000e+000 85476 -4.3619e+002 -5.6985e+002  2.3286e+002 48461 85087,85061,85450
 1.8000e+000 85499 -4.9844e+002 -5.1140e+002  1.6222e+002 48461 85087,85450,85378
 1.8000e+000 86084 -2.0173e+002 -4.6890e+002  2.0710e+002 48057 86323,86107,85787
 1.8000e+000 86061 -2.9349e+002 -5.6768e+002  2.8591e+002 48057 86107,85761,85943
 1.8000e+000 86038 -3.8046e+002 -3.9931e+002  2.1029e+002 48057 86251,86179,85891
 1.8000e+000 86015 -3.7369e+002 -3.2665e+002  1.3168e+002 48057 86251,85891,85839
 1.8000e+000 85992 -3.4358e+002 -3.7185e+002  2.8481e+002 48057 85891,85943,85917
 1.8000e+000 85969 -4.5457e+002 -2.6631e+002  1.7885e+002 48057 85839,85891,85865
 1.8000e+000 86133 -2.0693e+002 -4.3680e+002  1.5546e+002 48057 85813,85787,86107
 1.8000e+000 86156 -3.0204e+002 -4.8037e+002  1.7374e+002 48057 86179,85813,86107
 1.8000e+000 86205 -2.9640e+002 -3.4828e+002  2.3845e+002 48057 85943,85891,86179
 1.8000e+000 86228 -1.8993e+002 -3.7117e+002  2.2736e+002 48057 85943,86179,86107
 1.8000e+000 86277 -2.4518e+002 -3.1921e+002  1.7480e+002 48057 85813,86179,86251
 1.8000e+000 86300 -3.1316e+002 -2.8103e+002  1.0869e+002 48057 85813,86251,85839
 1.8000e+000 86349 -1.4301e+002 -4.3172e+002  2.2297e+002 48057 85761,86107,86323
 1.8000e+000 86855 -2.3894e+002 -4.1512e+002  2.5607e+002 47545 86878,86584,86558
 1.8000e+000 86832 -3.5481e+002 -4.6879e+002  2.3249e+002 47545 86950,86878,86558
 1.8000e+000 86809 -3.9926e+002 -4.4384e+002  2.3746e+002 47545 86950,86558,86532
 1.8000e+000 86786 -2.5296e+002 -3.9096e+002  2.7179e+002 47545 86584,86662,86610
 1.8000e+000 86763 -3.6195e+002 -3.4335e+002  1.3469e+002 47545 86532,86714,86688
 1.8000e+000 86740 -3.3938e+002 -1.8307e+002  2.5633e+002 47545 86610,86662,86636
 1.8000e+000 86904 -2.9266e+002 -4.9613e+002  2.2848e+002 47545 86662,86584,86878
 1.8000e+000 86927 -2.1549e+002 -4.5010e+002  1.9994e+002 47545 86662,86878,86688
 1.8000e+000 86976 -2.7721e+002 -4.4125e+002  1.8326e+002 47545 86688,86878,86950
 1.8000e+000 86999 -3.5713e+002 -4.5789e+002  1.9991e+002 47545 86688,86950,86532
 1.8000e+000 87328 -9.4672e+002 -2.8468e+002  2.9601e+002 47048 87155,87207,87181
 1.8000e+000 87305 -3.6230e+002 -2.8887e+002  2.1229e+002 47048 87129,87207,87155
 1.8000e+000 87282 -7.2388e+002 -3.6095e+002  1.8096e+002 47048 87103,87207,87129
 1.8000e+000 87259 -1.1438e+003 -1.3155e+003  6.3888e+002 47048 87103,87233,87207
 1.8000e+000 87576 -2.5102e+002 -3.3519e+002  3.3035e+002 46701 87599,87429,87377
 1.8000e+000 87553 -3.6847e+002 -2.5688e+002  2.4467e+002 46701 87599,87377,87481
 1.8000e+000 87530 -2.0831e+002 -2.4781e+002  1.5320e+002 46701 87351,87481,87377
 1.8000e+000 87507 -2.4083e+002 -3.4992e+002  3.2439e+002 46701 87377,87429,87403
 1.8000e+000 87625 -3.3052e+002 -4.5933e+002  2.8964e+002 46701 87455,87429,87599
 1.8000e+000 87648 -4.6479e+002 -3.5512e+002  2.0512e+002 46701 87455,87599,87481
 1.8000e+000 87798  1.0761e+002  3.0944e+000 -2.0014e+001 46239 87697,87749,87723
 1.8000e+000 87775  1.6422e+002 -1.7698e+001  9.4619e+001 46239 87671,87749,87697
 1.8000e+000 88308 -7.1919e+002 -6.9322e+002  1.3288e+002 45735 88089,88167,88141
 1.8000e+000 88285 -4.8550e+002 -3.4021e+002  2.4374e+002 45735 88011,88167,88089
 1.8000e+000 88262 -2.1702e+002 -3.1904e+002  1.2976e+002 45735 87985,88167,88011
 1.8000e+000 88239 -3.1860e+002 -1.2395e+003  3.6158e+002 45735 88011,88089,88063
 1.8000e+000 88216 -8.8285e+002 -7.4027e+002  2.0298e+002 45735 88089,88141,88115
 1.8000e+000 88193 -6.6087e+002 -1.8329e+003  1.1392e+002 45735 88011,88063,88037
 1.8000e+000 88686 -5.5853e+002 -3.8054e+002  3.6090e+002 45316 88438,88516,88490
 1.8000e+000 88663 -4.9296e+002  2.0547e+001  4.6199e+002 45316 88438,88542,88516
 1.8000e+000 88640 -2.8354e+002 -5.9415e+002  5.8875e+002 45316 88438,88568,88542
 1.8000e+000 88617 -8.0300e+002 -6.3153e+002  2.6195e+002 45316 88438,88490,88464
 1.8000e+000 88594 -4.8362e+002 -6.5716e+002  5.7167e+002 45316 88412,88568,88438
 1.8000e+000 88934 -1.1080e+003 -1.0855e+003  6.2318e+002 44812 88957,88735,88709
 1.8000e+000 88911 -5.9426e+002 -7.1578e+002  2.3358e+002 44812 88957,88709,88839
 1.8000e+000 88888 -6.0403e+002 -4.3035e+002  1.0651e+002 44812 89029,88787,88761
 1.8000e+000 88865 -5.8683e+002 -4.7193e+002  1.9771e+002 44812 88787,88839,88813
 1.8000e+000 88983 -2.6979e+002 -6.5557e+002  3.9623e+002 44812 88761,88735,88957
 1.8000e+000 89006 -4.7775e+002 -5.4064e+002  8.4152e+001 44812 89029,88761,88957
 1.8000e+000 89055 -5.8395e+002 -5.5403e+002  1.5814e+002 44812 88839,88787,89029
 1.8000e+000 89078 -5.7666e+002 -7.8559e+002  1.7694e+002 44812 88839,89029,88957
 1.8000e+000 89228 -3.0340e+002 -9.4560e+002  2.8344e+002 44408 89127,89179,89153
 1.8000e+000 89205  4.4417e+001 -1.3779e+002  1.8561e+001 44408 89101,89179,89127
 1.8000e+000 89787 -5.7982e+002 -3.6851e+002  2.9870e+002 43854 89810,89545,89519
 1.8000e+000 89764 -6.2902e+002 -4.8308e+002  2.9628e+002 43854 89810,89519,89467
 1.8000e+000 89741 -6.0041e+002 -6.5703e+002  2.8278e+002 43854 89954,89882,89597
 1.8000e+000 89718 -6.1357e+002 -6.6649e+002  2.9184e+002 43854 89954,89597,89571
 1.8000e+000 89695 -3.4087e+002 -4.2502e+002  2.7715e+002 43854 89415,89623,89467
 1.8000e+000 89672 -2.2056e+002 -2.5841e+002  1.8670e+002 43854 89467,89519,89493
 1.8000e+000 89649 -2.2146e+002 -3.2724e+002  2.2661e+002 43854 89415,89467,89441
 1.8000e+000 89836 -6.1618e+002 -3.8819e+002  3.2720e+002 43854 89882,89545,89810
 1.8000e+000 89859 -3.7597e+002 -4.5003e+002  2.5115e+002 43854 89623,89810,89467
 1.8000e+000 89908 -5.9722e+002 -7.4844e+002  3.8143e+002 43854 89623,89597,89882
 1.8000e+000 89931 -5.8037e+002 -6.9659e+002  3.4448e+002 43854 89623,89882,89810
 1.8000e+000 89980 -6.6387e+002 -6.3439e+002  4.0838e+002 43854 89545,89882,89954
 1.8000e+000 90003 -7.3224e+002 -7.4062e+002  4.3771e+002 43854 89545,89954,89571
 1.8000e+000 90251 -2.1334e+002 -3.2576e+002  2.1774e+002 43492 90026,90078,90052
 1.8000e+000 90228 -5.8006e+002 -3.7883e+002  1.7030e+002 43492 90274,90026,90156
 1.8000e+000 90205 -5.5798e+002 -4.8842e+002  1.6561e+002 43492 90346,90274,90156
 1.8000e+000 90182 -5.8754e+002 -6.7959e+002  5.1346e+002 43492 90346,90156,90130
 1.8000e+000 90300 -3.1923e+002 -5.0798e+002  2.7089e+002 43492 90078,90026,90274
 1.8000e+000 90323 -6.5254e+002 -6.2616e+002  2.5324e+002 43492 90078,90274,90104
 1.8000e+000 90372 -9.6886e+002 -7.5360e+002  3.9354e+002 43492 90104,90274,90346
 1.8000e+000 90395 -1.0329e+003 -1.0165e+003  7.5505e+002 43492 90104,90346,90130
 1.8000e+000 90594 -7.4875e+001 -3.9199e+002  2.7707e+002 43052 90418,90496,90444
 1.8000e+000 90571 -3.8658e+002 -5.5261e+002  3.4689e+002 43052 90418,90522,90496
 1.8000e+000 90548 -4.2391e+002 -3.5190e+002  2.5402e+002 43052 90444,90496,90470
 1.8000e+000 91074 -5.9197e+002 -5.3478e+002  3.4742e+002 42434 91241,90884,90858
 1.8000e+000 91051 -9.6398e+002 -6.8910e+002  7.6044e+000 42434 90702,90910,90884
 1.8000e+000 91028 -3.0283e+002 -4.2224e+002  2.7529e+002 42434 91097,90754,90702
 1.8000e+000 91005 -5.1915e+002 -4.1266e+002  3.1376e+002 42434 91241,90858,91097
 1.8000e+000 90982 -2.2711e+002 -3.5126e+002  1.9119e+002 42434 91169,90806,90780
 1.8000e+000 90959 -1.0455e+002 -2.6744e+002  1.1349e+002 42434 90806,90858,90832
 1.8000e+000 90936 -3.4069e+002 -2.5245e+002  2.8521e+002 42434 90702,90754,90728
 1.8000e+000 91123 -5.6485e+002 -5.3657e+002  2.9382e+002 42434 90780,90754,91097
 1.8000e+000 91146 -4.4718e+002 -4.5885e+002  3.3027e+002 42434 91169,90780,91097
 1.8000e+000 91195 -1.4077e+002 -3.1631e+002  9.5745e+001 42434 90858,90806,91169
 1.8000e+000 91218 -2.3805e+002 -2.1547e+002  1.9453e+002 42434 90858,91169,91097
 1.8000e+000 91267 -4.3483e+002 -7.0310e+002  2.9654e+002 42434 90702,90884,91241
 1.8000e+000 91290 -3.7811e+002 -6.0125e+002  2.6817e+002 42434 90702,91241,91097
 1.8000e+000 91698 -1.5429e+002 -5.0981e+002  2.0492e+002 41773 91473,91577,91499
 1.8000e+000 91675 -2.8074e+002 -6.2519e+002  3.0265e+002 41773 91473,91603,91577
 1.8000e+000 91652 -2.6307e+002 -3.8033e+002  6.8090e+001 41773 91499,91551,91525
 1.8000e+000 91629 -4.0229e+002 -4.4285e+002  1.9150e+002 41773 91499,91577,91551
 1.8000e+000 92044 -5.2331e+002 -5.7914e+002  3.8405e+002 41383 91773,91877,91851
 1.8000e+000 92021 -3.9171e+002 -7.5063e+002  2.2445e+002 41383 91747,91877,91773
 1.8000e+000 91998 -3.9560e+002 -3.9651e+002  2.7834e+002 41383 91773,91851,91799
 1.8000e+000 91975 -2.8406e+002 -5.7647e+002  7.6832e+001 41383 91747,91903,91877
 1.8000e+000 91952 -2.5378e+002 -4.6312e+002  1.7462e+002 41383 91721,91903,91747
 1.8000e+000 91929 -1.1295e+002 -4.3683e+002  1.9975e+002 41383 91799,91851,91825
 1.8000e+000 92601 -4.7455e+002 -4.1196e+002  1.5474e+002 40979 92229,92411,92307
 1.8000e+000 92578 -5.8168e+002 -4.1724e+002  1.3873e+002 40979 92229,92437,92411
 1.8000e+000 92555 -4.2976e+002 -3.0292e+002  1.4409e+002 40979 92229,92307,92281
 1.8000e+000 92532 -3.7176e+002 -3.9893e+002  2.4612e+002 40979 92333,92411,92385
 1.8000e+000 92509 -3.8369e+002 -3.4521e+002  1.8406e+002 40979 92307,92411,92333
 1.8000e+000 92486 -4.5741e+002 -3.3789e+002  1.2283e+002 40979 92229,92281,92255
 1.8000e+000 92463 -6.1487e+001 -4.0857e+002  1.6924e+002 40979 92333,92385,92359
 1.8000e+000 93235 -5.2313e+002 -3.1149e+002  4.1079e+002 40525 92941,92993,92967
 1.8000e+000 93212 -7.8589e+002 -1.2721e+002  9.3779e+001 40525 93258,92941,92889
 1.8000e+000 93189 -6.0996e+002 -4.3767e+001  6.5287e+001 40525 93258,92889,93071
 1.8000e+000 93166 -6.2452e+002 -2.1775e+002  6.2106e+001 40525 92889,92941,92915
 1.8000e+000 93143 -6.4088e+002 -6.4550e+001  5.5215e+001 40525 92863,93071,92889
 1.8000e+000 93120 -5.3918e+002 -2.5583e+002  1.6837e+002 40525 92993,93071,93019
 1.8000e+000 93097 -5.4933e+002 -1.9437e+002  1.4409e+002 40525 93019,93071,93045
 1.8000e+000 93284 -8.7159e+002 -2.3954e+002  2.9571e+002 40525 92993,92941,93258
 1.8000e+000 93307 -5.3625e+002 -6.4941e+001  2.3270e+002 40525 92993,93258,93071
 1.8000e+000 93636 -7.3804e+002 -5.7309e+002  5.4643e+002 40235 93437,93541,93515
 1.8000e+000 93613 -6.3885e+002 -7.5661e+002  5.1261e+002 40235 93411,93541,93437
 1.8000e+000 93590 -1.5648e+002 -6.7416e+002  2.1165e+002 40235 93463,93515,93489
 1.8000e+000 93567 -3.2805e+002 -4.8285e+002  1.2550e+002 40235 93437,93515,93463
 1.8000e+000 94014 -7.8506e+002 -8.4216e+002  3.2271e+002 39873 93766,93870,93792
 1.8000e+000 93991 -7.0193e+002 -9.1892e+002  2.6584e+002 39873 93766,93896,93870
 1.8000e+000 93968 -6.6380e+002 -6.4805e+002  3.7425e+002 39873 93792,93870,93844
 1.8000e+000 93945 -5.5930e+002 -5.7125e+002  3.0496e+002 39873 93792,93844,93818
 1.8000e+000 93922 -5.4126e+002 -8.5535e+002  5.3154e+002 39873 93740,93896,93766
 1.8000e+000 94164  4.4270e+001 -2.3216e+002  1.6176e+002 39461 94037,94089,94063
 1.8000e+000 94141 -2.0704e+002 -5.0839e+002  2.8170e+002 39461 94037,94115,94089
 1.8000e+000 94363 -3.3757e+002 -2.9414e+002  2.3896e+002 39057 94386,94239,94213
 1.8000e+000 94340 -3.2009e+002 -2.7370e+002  2.2457e+002 39057 94386,94213,94187
 1.8000e+000 94317 -4.5671e+002 -4.1757e+002  2.4639e+002 39057 94187,94291,94265
 1.8000e+000 94412 -2.1258e+002 -2.5673e+002  1.9208e+002 39057 94458,94386,94265
 1.8000e+000 94435 -3.1882e+002 -3.0061e+002  1.9648e+002 39057 94265,94386,94187
 1.8000e+000 94484 -3.4426e+002 -3.5423e+002  2.4588e+002 39057 94239,94386,94458
 1.8000e+000 94896 -7.5015e+002 -5.1463e+002  3.1054e+002 38396 94919,94775,94723
 1.8000e+000 94873 -8.1422e+002 -4.4058e+002  3.1286e+002 38396 94919,94723,94697
 1.8000e+000 94850 -6.2903e+002 -4.8124e+002  2.5677e+002 38396 94723,94775,94749
 1.8000e+000 94827 -3.6558e+002 -2.2784e+002  2.7337e+002 38396 94671,94801,94697
 1.8000e+000 94945 -7.4344e+002 -4.6575e+002  2.8201e+002 38396 94801,94775,94919
 1.8000e+000 94968 -7.7764e+002 -3.7327e+002  2.7135e+002 38396 94801,94919,94697
 1.8000e+000 95265 -6.9865e+002 -7.2158e+002  3.5329e+002 37835 95017,95069,95043
 1.8000e+000 95242 -6.9449e+002 -6.0241e+002  3.4807e+002 37835 95288,95069,95017
 1.8000e+000 95219 -7.6610e+002 -6.7196e+002  4.6186e+002 37835 95288,95017,94991
 1.8000e+000 95196 -8.3522e+002 -7.1798e+002  4.0401e+002 37835 94991,95147,95121
 1.8000e+000 95173 -5.3308e+002 -3.4553e+002  3.0355e+002 37835 95069,95121,95095
 1.8000e+000 95314 -6.8843e+002 -4.4541e+002  2.6061e+002 37835 95121,95069,95288
 1.8000e+000 95337 -7.5092e+002 -5.4560e+002  3.6764e+002 37835 95121,95288,94991
 1.8000e+000 95558  4.3390e+001 -2.0603e+002  1.8567e+002 37423 95408,95460,95434
 1.8000e+000 95535 -2.4691e+002 -9.3601e+002  4.6453e+002 37423 95382,95460,95408
 1.8000e+000 95512 -4.8227e+002 -1.1130e+003  5.4198e+002 37423 95382,95486,95460
 1.8000e+000 95891 -1.0352e+002 -4.4504e+002  2.9216e+002 37225 95666,95718,95692
 1.8000e+000 95868 -4.5828e+002 -5.1300e+002  3.8847e+002 37225 95666,95796,95718
 1.8000e+000 95845 -2.2897e+002 -3.6216e+002  1.2649e+002 37225 95718,95770,95744
 1.8000e+000 95822 -2.4274e+002 -3.0163e+002  1.6992e+002 37225 95718,95796,95770
 1.8000e+000 95992 -5.1498e+001 -4.0278e+002  2.1698e+002 36735 95914,95966,95940
 1.8000e+000 96142 -8.1081e+002 -3.9541e+002  3.9348e+002 36331 96297,96067,96041
 1.8000e+000 96119 -6.8981e+002 -3.4655e+002  4.3022e+002 36331 96165,96041,96015
 1.8000e+000 96191 -7.8175e+002 -3.7575e+002  4.0881e+002 36331 96297,96041,96165
 1.8000e+000 96323 -8.6750e+002 -3.6329e+002  4.6932e+002 36331 96093,96067,96297
 1.8000e+000 96346 -7.6358e+002 -3.0912e+002  4.9321e+002 36331 96093,96297,96165
 1.8000e+000 96714 -5.3635e+002 -8.3791e+002  5.0818e+002 36041 96737,96495,96443
 1.8000e+000 96691 -7.4270e+002 -6.1980e+002  4.9769e+002 36041 96737,96443,96417
 1.8000e+000 96668 -2.9168e+002 -9.0731e+002  1.7723e+002 36041 96443,96495,96469
 1.8000e+000 96645 -1.6934e+002 -2.7354e+002  2.7603e+002 36041 96391,96521,96417
 1.8000e+000 96622 -9.7938e+000 -2.8197e+002  2.3290e+002 36041 96391,96547,96521
 1.8000e+000 96599 -1.0317e+002 -3.0436e+002  2.1447e+002 36041 96391,96573,96547
 1.8000e+000 96763 -2.5286e+002 -6.6186e+002  4.3345e+002 36041 96521,96495,96737
 1.8000e+000 96786 -6.3634e+002 -5.7260e+002  4.6830e+002 36041 96521,96737,96417
 1.8000e+000 96936 -3.5206e+002 -2.1399e+002  2.4801e+002 35637 97031,96959,96835
 1.8000e+000 96913 -5.1782e+002 -2.6137e+002  2.6617e+002 35637 97163,96959,96809
 1.8000e+000 96985 -5.1185e+002 -1.8868e+002  2.7959e+002 35637 96861,96835,96959
 1.8000e+000 97008 -6.7179e+002 -3.3120e+002  4.5820e+002 35637 96861,96959,96887
 1.8000e+000 97057 -4.0845e+002 -1.2693e+002  1.5425e+002 35637 96809,96959,97031
 1.8000e+000 97189 -4.3533e+002 -2.1587e+002  2.9108e+002 35637 96887,96959,97163
 1.8000e+000 97597 -3.3935e+002 -3.9504e+002  3.4171e+002 35190 97450,97502,97476
 1.8000e+000 97574 -3.7341e+002 -5.0827e+002  4.3396e+002 35190 97372,97502,97450
 1.8000e+000 97551 -3.8183e+002 -5.9208e+002  4.1145e+002 35190 97372,97450,97398
 1.8000e+000 97528 -2.5995e+002 -5.1160e+002  3.4706e+002 35190 97398,97450,97424
 1.8000e+000 98054 -5.5022e+002 -6.8027e+002  4.5279e+002 34636 97806,97936,97858
 1.8000e+000 98031 -7.7662e+002 -4.3495e+002  4.0155e+002 34636 97780,97936,97806
 1.8000e+000 98008 -6.3888e+002 -6.2345e+002  2.2508e+002 34636 97806,97858,97832
 1.8000e+000 97985 -5.8224e+002 -6.3689e+002  4.9194e+002 34636 97884,97936,97910
 1.8000e+000 97962 -3.6692e+002 -4.2125e+002  3.6064e+002 34636 97858,97936,97884
 1.8000e+000 98530 -4.0218e+002  1.2405e+002  8.8190e+001 34068 98697,98184,98366
 1.8000e+000 98507  2.5243e+000 -5.8359e+000  7.3682e-001 34068 98158,98366,98184
 1.8000e+000 98484 -6.2432e+002 -4.9699e+002  2.2385e+002 34068 98553,98262,98236
 1.8000e+000 98461 -9.8636e+002 -6.5299e+002  1.7134e+002 34068 98553,98236,98210
 1.8000e+000 98438 -5.6281e+002 -2.1256e+002  2.1570e+002 34068 98841,98625,98366
 1.8000e+000 98415 -6.6049e+002 -8.5084e+002  4.3889e+002 34068 98769,98288,98262
 1.8000e+000 98392 -7.7159e+002 -6.9810e+001  1.8017e+002 34068 98841,98366,98340
 1.8000e+000 98579 -7.4919e+002 -6.2896e+002  3.0549e+002 34068 98769,98262,98553
 1.8000e+000 98602 -5.8122e+002 -2.7815e+002  2.2621e+002 34068 98625,98314,98553
 1.8000e+000 98651 -4.9835e+002 -2.1582e+002  1.3428e+002 34068 98697,98366,98625
 1.8000e+000 98674 -6.5922e+002 -5.2273e+002  1.7116e+002 34068 98210,98625,98553
 1.8000e+000 98723 -5.4331e+002 -2.8565e+002  1.6435e+002 34068 98210,98184,98697
 1.8000e+000 98746 -5.0119e+002 -3.3818e+002  2.3844e+002 34068 98210,98697,98625
 1.8000e+000 98795 -4.0976e+002 -6.3062e+002  2.8689e+002 34068 98314,98288,98769
 1.8000e+000 98818 -5.5200e+002 -4.8668e+002  1.6272e+002 34068 98314,98769,98553
 1.8000e+000 98867 -7.6557e+002 -3.5789e+002  1.4076e+002 34068 98314,98625,98841
 1.8000e+000 98890 -9.8077e+002 -2.0322e+002  1.1336e+002 34068 98314,98841,98340
 1.8000e+000 99268 -8.4516e+002 -7.7136e+002  5.5673e+002 33450 99291,99098,99072
 1.8000e+000 99245 -9.2239e+002 -5.7693e+002  2.6818e+002 33450 99291,99072,99020
 1.8000e+000 99222 -1.2840e+003 -7.0673e+002  3.9714e+002 33450 99020,99072,99046
 1.8000e+000 99199 -7.0505e+002 -4.9300e+002  2.7250e+002 33450 99020,99150,99124
 1.8000e+000 99176 -7.1602e+002 -4.9828e+002  8.2557e+001 33450 98994,99150,99020
 1.8000e+000 99317 -4.1056e+002 -5.7807e+002  5.2223e+002 33450 99124,99098,99291
 1.8000e+000 99340 -7.8363e+002 -5.2503e+002  2.6742e+002 33450 99124,99291,99020
 1.8000e+000 99865 -5.5000e+002 -5.2124e+002  3.0581e+002 32944 100176,99960,99888
 1.8000e+000 99842 -5.8824e+002 -4.9497e+002  3.1123e+002 32944 100104,99888,99522
 1.8000e+000 99819 -5.6707e+002 -5.0943e+002  4.0751e+002 32944 100248,99960,99626
 1.8000e+000 99796 -5.2711e+002 -5.8319e+002  1.7545e+002 32944 100032,99652,99626
 1.8000e+000 99773 -4.7545e+002 -5.2590e+002  2.2262e+002 32944 100104,99522,99496
 1.8000e+000 99750 -4.0112e+002 -4.0141e+002  6.4421e+001 32944 99574,99626,99600
 1.8000e+000 99727 -4.8831e+002 -4.8817e+002  4.4052e+002 32944 100248,99626,99574
 1.8000e+000 99704 -3.0242e+002 -5.2069e+002  2.8742e+002 32944 99444,99496,99470
 1.8000e+000 99914 -5.4258e+002 -4.7392e+002  2.0560e+002 32944 100176,99888,100032
 1.8000e+000 99937 -6.1107e+002 -4.1199e+002  3.0831e+002 32944 99678,99888,99444
 1.8000e+000 99986 -5.8623e+002 -4.5757e+002  2.9721e+002 32944 99522,99888,99960
 1.8000e+000 100009 -6.4216e+002 -3.9313e+002  3.4260e+002 32944 99522,99960,99548
 1.8000e+000 100058 -6.1678e+002 -5.6328e+002  1.8172e+002 32944 99678,99652,100032
 1.8000e+000 100081 -6.4469e+002 -5.3396e+002  1.8076e+002 32944 99678,100032,99888
 1.8000e+000 100130 -3.9519e+002 -4.3914e+002  3.0963e+002 32944 99444,99888,100104
 1.8000e+000 100153 -3.2475e+002 -5.0517e+002  2.3277e+002 32944 99444,100104,99496
 1.8000e+000 100202 -6.1005e+002 -6.7469e+002  3.0879e+002 32944 99626,99960,100176
 1.8000e+000 100225 -6.3059e+002 -6.7441e+002  2.1975e+002 32944 99626,100176,100032
 1.8000e+000 100274 -6.8785e+002 -4.9160e+002  3.6347e+002 32944 99548,99960,100248
 1.8000e+000 100297 -6.1703e+002 -4.7773e+002  3.9528e+002 32944 99548,100248,99574
 1.8000e+000 100754 -3.0396e+002 -2.9355e+002  1.2207e+002 32369 100777,100584,100506
 1.8000e+000 100731 -2.8149e+002 -4.1912e+002  2.8136e+002 32369 100777,100506,100636
 1.8000e+000 100708 -4.7388e+002 -4.0568e+002  3.0203e+002 32369 100480,100636,100506
 1.8000e+000 100685 -5.5277e+002 -3.3476e+002  4.0016e+001 32369 100532,100584,100558
 1.8000e+000 100662 -3.4673e+002 -3.3431e+002  1.4902e+002 32369 100506,100584,100532
 1.8000e+000 100803 -3.0280e+002 -6.9778e+001  1.0774e+002 32369 100610,100584,100777
 1.8000e+000 100826 -2.6918e+002 -2.1380e+002  2.4518e+002 32369 100610,100777,100636
 1.8000e+000 101025 -5.1318e+002 -3.8934e+002  3.7265e+002 31857 100875,100927,100901
 1.8000e+000 101002 -9.2044e+002 -3.2926e+002  3.3714e+002 31857 100875,100953,100927
 1.8000e+000 100979 -9.8684e+002 -4.6990e+002  3.0530e+002 31857 100849,100953,100875
 1.8000e+000 101533 -4.5244e+002 -5.4648e+002  4.2261e+002 31253 101556,101314,101236
 1.8000e+000 101510 -6.3027e+002 -5.7161e+002  4.0311e+002 31253 101556,101236,101210
 1.8000e+000 101487 -5.7554e+002 -5.5989e+002  1.8777e+002 31253 101210,101392,101340
 1.8000e+000 101464 -3.4332e+002 -4.7660e+002  3.6236e+002 31253 101236,101288,101262
 1.8000e+000 101441 -4.2119e+002 -6.8975e+002  4.0018e+002 31253 101236,101314,101288
 1.8000e+000 101418 -6.0060e+002 -7.4590e+002  4.0408e+002 31253 101340,101392,101366
 1.8000e+000 101582 -5.0392e+002 -5.4513e+002  2.7053e+002 31253 101340,101314,101556
 1.8000e+000 101605 -6.8410e+002 -5.5782e+002  2.5802e+002 31253 101340,101556,101210
 1.8000e+000 101755  1.8738e+002  6.5450e+001  1.1552e+002 30519 101778,101654,101628
 1.8000e+000 101732 -1.0855e+002  7.6435e+001 -5.5634e+000 30519 101850,101778,101628
 1.8000e+000 101804 -5.4808e+001 -1.1866e+002  4.5134e+000 30519 101680,101654,101778
 1.8000e+000 101827 -2.1440e+002  5.7504e+001 -2.6562e+001 30519 101680,101778,101706
 1.8000e+000 101876 -1.5000e+002 -2.8693e+001 -2.0286e+001 30519 101706,101778,101850
 1.8000e+000 102561 -3.4193e+002 -5.0783e+002  2.4931e+002 29951 102656,102584,102270
 1.8000e+000 102538 -9.0363e+002 -9.9910e+002  1.8500e+002 29951 102584,102140,102374
 1.8000e+000 102515 -5.2795e+002 -1.0481e+003  5.3656e+002 29951 102728,102656,102270
 1.8000e+000 102492 -5.5030e+002 -1.2495e+003  5.3337e+002 29951 102728,102270,102244
 1.8000e+000 102469 -7.2219e+002 -2.4795e+002  3.5104e+002 29951 102800,102322,102296
 1.8000e+000 102446 -7.8852e+002 -5.3699e+002  1.4163e+002 29951 102166,102218,102192
 1.8000e+000 102423 -6.3525e+002 -5.7368e+002  8.3759e+001 29951 102166,102244,102218
 1.8000e+000 102400 -4.2803e+002 -5.3892e+002  3.6508e+002 29951 102322,102374,102348
 1.8000e+000 102610 -8.8468e+002 -4.3099e+002  1.1212e+002 29951 102296,102270,102584
 1.8000e+000 102633 -9.7687e+002 -4.7961e+002  1.9945e+002 29951 102800,102296,102584
 1.8000e+000 102682 -1.0450e+003 -9.3436e+002  4.5893e+002 29951 102140,102584,102656
 1.8000e+000 102705 -6.7017e+002 -9.3370e+002  6.7061e+002 29951 102140,102656,102166
 1.8000e+000 102754 -5.5293e+002 -8.1725e+002  6.2356e+002 29951 102166,102656,102728
 1.8000e+000 102777 -5.7173e+002 -9.7487e+002  5.7913e+002 29951 102166,102728,102244
 1.8000e+000 102826 -4.5938e+002 -4.9931e+002  4.6702e+002 29951 102374,102322,102800
 1.8000e+000 102849 -5.7589e+002 -5.2546e+002  3.7126e+002 29951 102374,102800,102584
 1.8000e+000 103048  8.6798e+001 -2.1770e+002  8.8195e+001 29454 102872,102924,102898
 1.8000e+000 103025 -7.0259e+001 -5.2009e+002  1.9406e+002 29454 102872,102976,102924
 1.8000e+000 103002 -2.2429e+002 -7.7529e+002  1.1141e+002 29454 102924,102976,102950
 1.8000e+000 103296 -8.8993e+002 -6.1454e+002  4.5527e+002 29064 103319,103175,103123
 1.8000e+000 103273 -1.2255e+003 -6.2924e+002  5.2137e+002 29064 103319,103123,103071
 1.8000e+000 103250 -5.4034e+002 -3.8915e+002  3.4782e+002 29064 103123,103175,103149
 1.8000e+000 103227 -9.1422e+002 -5.6939e+002  6.5848e+002 29064 103071,103123,103097
 1.8000e+000 103345 -5.8510e+002 -7.0398e+002  3.2012e+002 29064 103201,103175,103319
 1.8000e+000 103368 -9.8971e+002 -6.7896e+002  2.6204e+002 29064 103201,103319,103071
 1.8000e+000 104006 -6.4953e+002 -3.0510e+002  2.3788e+002 28603 104101,104029,103712
 1.8000e+000 103983 -6.0442e+002 -2.3001e+002  2.1514e+002 28603 104173,104029,103660
 1.8000e+000 103960 -7.7057e+002 -2.4644e+002  2.1924e+002 28603 104101,103712,103686
 1.8000e+000 103937 -5.0438e+002 -3.4227e+002  1.9790e+002 28603 104173,103660,103634
 1.8000e+000 103914 -6.4395e+002 -3.1472e+002  3.3468e+002 28603 103764,103816,103790
 1.8000e+000 103891 -5.0503e+002 -3.5843e+002  3.4628e+002 28603 103634,103842,103816
 1.8000e+000 103868 -4.9964e+002 -1.8133e+002  3.0065e+002 28603 103712,103764,103738
 1.8000e+000 104055 -6.3246e+002 -2.4214e+002  2.3714e+002 28603 103764,103712,104029
 1.8000e+000 104078 -6.0631e+002 -2.5815e+002  3.1834e+002 28603 103764,104029,103816
 1.8000e+000 104127 -8.0886e+002 -3.1416e+002  1.8218e+002 28603 103660,104029,104101
 1.8000e+000 104150 -9.9619e+002 -2.8991e+002  1.9407e+002 28603 103660,104101,103686
 1.8000e+000 104199 -6.8625e+002 -3.3086e+002  2.5060e+002 28603 103816,104029,104173
 1.8000e+000 104222 -5.7560e+002 -4.1707e+002  2.2922e+002 28603 103816,104173,103634
 1.8000e+000 104600 -3.6831e+002 -6.8651e+002  1.5671e+002 28348 104623,104378,104326
 1.8000e+000 104577 -3.0437e+002 -7.1262e+002  2.9560e+002 28348 104623,104326,104482
 1.8000e+000 104554 -3.0431e+002 -4.2873e+002  1.0768e+002 28348 104326,104378,104352
 1.8000e+000 104531 -3.8477e+002  8.1770e+000 -5.1985e+000 28348 104404,104456,104430
 1.8000e+000 104508 -4.9892e+002 -2.5956e+002  2.3498e+002 28348 104378,104456,104404
 1.8000e+000 104649 -3.1005e+002 -5.6208e+002  2.0249e+002 28348 104456,104378,104623
 1.8000e+000 104672 -2.2602e+002 -5.6643e+002  3.4469e+002 28348 104456,104623,104482
 1.8000e+000 104991 -6.7172e+002 -6.5326e+002  4.9789e+002 27951 104717,104847,104769
 1.8000e+000 104968 -1.8563e+002 -4.5227e+002  4.8273e+002 27951 104717,104873,104847
 1.8000e+000 104945 -2.2189e+002 -5.0331e+002  5.6246e+002 27951 104769,104847,104795
 1.8000e+000 104922  4.9956e+001  1.5376e+002  5.2780e+002 27951 104795,104847,104821
 1.8000e+000 104899 -6.6176e+002 -4.7253e+002  5.7378e+002 27951 104717,104769,104743
 1.8000e+000 105371 -7.7562e+002 -3.9793e+002  3.6679e+002 27447 105394,105201,105123
 1.8000e+000 105348 -1.0077e+003 -3.6162e+002  4.9098e+002 27447 105394,105123,105097
 1.8000e+000 105325 -1.2292e+003 -4.1110e+002  3.2553e+002 27447 105123,105201,105149
 1.8000e+000 105302 -6.7022e+002 -4.9930e+002  3.3670e+002 27447 105201,105253,105227
 1.8000e+000 105279 -7.1370e+002 -6.5114e+002  1.0824e+002 27447 105149,105201,105175
 1.8000e+000 105420 -6.4012e+002 -3.4905e+002  2.8994e+002 27447 105253,105201,105394
 1.8000e+000 105443 -8.4405e+002 -2.4776e+002  3.9189e+002 27447 105253,105394,105097
 1.8000e+000 105998 -6.3194e+002 -4.2602e+002  4.5719e+002 27100 106165,106021,105704
 1.8000e+000 105975 -3.2218e+002 -2.1230e+002  4.0228e+002 27100 106309,106021,105652
 1.8000e+000 105952 -1.0932e+003 -7.2007e+002  7.6731e+002 27100 106093,105808,105782
 1.8000e+000 105929 -6.2572e+002 -4.4582e+002  4.4838e+002 27100 106165,105704,105678
 1.8000e+000 105906 -3.1332e+002 -5.9731e+002  3.5268e+002 27100 106237,105730,105704
 1.8000e+000 105883 -2.9561e+002 -4.2136e+002  2.8431e+002 27100 106309,105652,105626
 1.8000e+000 105860 -1.6592e+002 -8.8316e+000  4.8947e+001 27100 105730,105782,105756
 1.8000e+000 106047 -5.7370e+002 -2.9819e+002  4.7067e+002 27100 106237,105704,106021
 1.8000e+000 106070 -6.4812e+002 -3.0443e+002  5.8994e+002 27100 106093,105782,106021
 1.8000e+000 106119 -4.5673e+002 -6.2173e+002  3.8533e+002 27100 105834,105808,106093
 1.8000e+000 106142 -5.2706e+002 -7.6844e+002  5.3823e+002 27100 106381,106093,106021
 1.8000e+000 106191 -6.2488e+002 -3.9170e+002  4.7945e+002 27100 105652,106021,106165
 1.8000e+000 106214 -6.2571e+002 -4.3554e+002  4.7710e+002 27100 105652,106165,105678
 1.8000e+000 106263 -8.5968e+001 -3.1122e+002  2.5365e+002 27100 105782,105730,106237
 1.8000e+000 106286 -3.9792e+002 -8.8310e+001  3.9402e+002 27100 105782,106237,106021
 1.8000e+000 106335 -4.4699e+002 -4.8846e+002  4.3923e+002 27100 106381,106021,106309
 1.8000e+000 106358 -3.0260e+002 -3.6804e+002  2.6793e+002 27100 105834,106309,105626
 1.8000e+000 106407 -3.5751e+002 -4.5336e+002  3.4213e+002 27100 105834,106093,106381
 1.8000e+000 106430 -3.6195e+002 -4.0589e+002  2.3849e+002 27100 105834,106381,106309
 1.8000e+000 106629 -6.2040e+001 -5.4795e+002  1.9785e+002 26688 106479,106557,106531
 1.8000e+000 106606 -1.9813e+001 -3.2235e+002  2.1918e+002 26688 106453,106557,106479
 1.8000e+000 106583 -2.5989e+002 -6.1598e+002  8.1355e+001 26688 106479,106531,106505
 1.8000e+000 107088 -3.0168e+002 -2.3390e+002  1.3084e+002 26248 107111,106918,106866
 1.8000e+000 107065 -3.1886e+002 -2.0318e+002  1.4791e+002 26248 107111,106866,106840
 1.8000e+000 107042 -2.6235e+002 -1.5808e+002  1.4374e+002 26248 106814,106970,106840
 1.8000e+000 107019 -2.8675e+002 -4.7331e+002  2.3357e+002 26248 106866,106918,106892
 1.8000e+000 106996 -4.6295e+002 -3.1459e+002  1.1112e+002 26248 106918,106970,106944
 1.8000e+000 107137 -3.3144e+002 -2.7518e+002  1.0008e+002 26248 106970,106918,107111
 1.8000e+000 107160 -3.2147e+002 -2.1465e+002  1.2042e+002 26248 106970,107111,106840
 1.8000e+000 107666 -8.2027e+002 -3.1662e+002  2.3560e+002 25908 107369,107499,107395
 1.8000e+000 107643 -1.1238e+003 -9.5362e+002  5.2114e+002 25908 107369,107525,107499
 1.8000e+000 107620 -6.7656e+002 -4.2148e+002  3.3760e+002 25908 107395,107473,107447
 1.8000e+000 107597 -5.7034e+002 -2.1616e+002  2.3200e+002 25908 107395,107499,107473
 1.8000e+000 107574 -1.1755e+003 -4.8763e+002  7.4748e+002 25908 107395,107447,107421
 1.8000e+000 107551 -4.0104e+002 -7.4930e+002  3.9907e+002 25908 107343,107525,107369
 1.8000e+000 108251 -6.3627e+002 -1.8112e+002  3.3816e+002 25454 108274,108006,107954
 1.8000e+000 108228 -5.1398e+002 -8.7344e+001  2.6563e+002 25454 108274,107954,108110
 1.8000e+000 108205 -4.7264e+002 -4.4610e+002  4.1304e+002 25454 108346,108032,108006
 1.8000e+000 108182 -8.1845e+002 -3.2332e+002  4.4025e+002 25454 107954,108006,107980
 1.8000e+000 108159 -2.9757e+002 -2.6376e+002  2.5108e+002 25454 107928,108110,107954
 1.8000e+000 108136 -8.9375e+002 -6.9257e+002  4.6347e+002 25454 108058,108110,108084
 1.8000e+000 108300 -6.1560e+002 -3.0194e+002  4.0924e+002 25454 108346,108006,108274
 1.8000e+000 108323 -5.5244e+002 -1.9575e+002  3.0615e+002 25454 108058,108274,108110
 1.8000e+000 108372 -2.9562e+002 -2.9364e+002  3.4830e+002 25454 108058,108032,108346
 1.8000e+000 108395 -4.5172e+002 -1.3530e+002  3.4109e+002 25454 108058,108346,108274
 1.8000e+000 108822 -4.5939e+002 -2.2048e+002  2.2934e+002 24943 108525,108681,108655
 1.8000e+000 108799 -5.7438e+002 -3.6197e+002  1.2947e+002 24943 108499,108681,108525
 1.8000e+000 108776 -2.4529e+002 -1.5063e+002  1.6207e+002 24943 108525,108655,108629
 1.8000e+000 108753 -4.0999e+002 -1.4760e+002  1.5130e+002 24943 108525,108629,108603
 1.8000e+000 108730 -8.0880e+002 -2.5021e+002  2.7988e+002 24943 108551,108603,108577
 1.8000e+000 108707 -7.9500e+002 -4.4111e+002  4.0075e+002 24943 108525,108603,108551
 1.8000e+000 109407 -4.0365e+001 -1.2774e+002  7.1100e+001 24745 109162,109214,109188
 1.8000e+000 109384 -2.7781e+002 -1.1242e+002  9.4211e+001 24745 109162,109266,109214
 1.8000e+000 109361 -3.3077e+002 -1.5823e+002  4.4469e+001 24745 109084,109266,109162
 1.8000e+000 109338 -5.6413e+002 -7.0905e+001  1.1977e+002 24745 109084,109162,109136
 1.8000e+000 109315 -1.2758e+002 -2.2852e+002  1.3106e+002 24745 109214,109266,109240
 1.8000e+000 109292 -4.1756e+002 -1.0837e+002  2.1486e+002 24745 109084,109136,109110
 1.8000e+000 109785 -9.6879e+002 -4.1526e+002  5.4847e+002 24341 109537,109615,109563
 1.8000e+000 109762 -9.6705e+001 -1.9513e+002  5.3106e+002 24341 109537,109641,109615
 1.8000e+000 109739 -6.6093e+002 -4.5415e+002  4.1563e+002 24341 109563,109615,109589
 1.8000e+000 109716 -4.0558e+002 -4.0599e+002  3.5061e+002 24341 109537,109667,109641
 1.8000e+000 109693 -2.4073e+002 -4.7184e+002  3.3041e+002 24341 109511,109667,109537
 1.8000e+000 110163 -1.0014e+003 -4.9026e+002  5.5786e+002 23837 110186,109967,109915
 1.8000e+000 110140 -9.2215e+002 -4.8503e+002  5.8551e+002 23837 110186,109915,109889
 1.8000e+000 110117 -3.8210e+002 -1.5296e+002  4.5333e+002 23837 109889,110045,109993
 1.8000e+000 110094 -8.9757e+002 -7.5414e+002  3.7178e+002 23837 109915,109967,109941
 1.8000e+000 110071 -4.9305e+002 -6.0727e+000  6.5567e+001 23837 109993,110045,110019
 1.8000e+000 110212 -9.5323e+002 -4.5483e+002  5.9136e+002 23837 109993,109967,110186
 1.8000e+000 110235 -9.2287e+002 -4.6225e+002  6.2139e+002 23837 109993,110186,109889
 1.8000e+000 110336 -5.3481e+002 -1.1547e+003  6.3785e+002 23433 110258,110310,110284
 1.8000e+000 110584 -6.8888e+002 -4.3668e+002  2.8281e+002 22829 110607,110411,110385
 1.8000e+000 110561 -8.5995e+002 -5.1181e+002  3.7523e+002 22829 110607,110385,110489
 1.8000e+000 110538 -5.6498e+002 -4.6642e+002  2.1159e+002 22829 110437,110489,110463
 1.8000e+000 110515 -6.6697e+002 -3.1625e+002  4.5811e+002 22829 110359,110489,110385
 1.8000e+000 110633 -6.8829e+002 -3.5197e+002  1.5892e+002 22829 110437,110411,110607
 1.8000e+000 110656 -7.8260e+002 -4.2095e+002  2.4787e+002 22829 110437,110607,110489
 1.8000e+000 110906 -1.4271e+003 -5.8993e+002  3.6370e+002 22432 110707,110759,110733
 1.8000e+000 110883 -9.0652e+002 -5.9545e+002  2.8821e+002 22432 110707,110785,110759
 1.8000e+000 110860 -9.3975e+002 -5.1635e+002  4.9820e+002 22432 110707,110811,110785
 1.8000e+000 110837 -1.1407e+003 -7.7305e+002  3.9983e+002 22432 110681,110811,110707
 1.8000e+000 111288 -8.8256e+001 -1.6878e+002  1.8947e+002 22142 111092,111144,111118
 1.8000e+000 111265 -3.7789e+002 -2.7885e+002  2.1690e+002 22142 111066,111144,111092
 1.8000e+000 111242 -3.5423e+002 -2.5080e+002  1.8507e+002 22142 111040,111144,111066
 1.8000e+000 111219 -6.6614e+002 -4.5573e+001  1.1385e+002 22142 111014,111144,111040
 1.8000e+000 111196 -4.5645e+002  1.5752e+001  1.5509e+002 22142 111014,111170,111144
 1.8000e+000 111389  3.9839e+001 -7.9844e+001  3.0667e+002 21830 111311,111363,111337
 1.8000e+000 111735 -8.5671e+002  3.5170e+001  6.4320e+002 21268 111758,111542,111438
 1.8000e+000 111712 -6.8986e+002  7.0902e+001  4.3550e+002 21268 111758,111438,111412
 1.8000e+000 111689 -2.5405e+002 -3.7097e+002  7.9220e+002 21268 111438,111542,111464
 1.8000e+000 111666  1.1039e+001 -1.9983e+002  9.9533e+002 21268 111464,111542,111490
 1.8000e+000 111643 -1.6693e+003 -8.0191e+002  7.7640e+002 21268 111412,111594,111568
 1.8000e+000 111620  4.5206e+002  4.2456e+002  1.2306e+003 21268 111490,111542,111516
 1.8000e+000 111784 -8.8485e+002 -9.2257e+001  6.3675e+002 21268 111568,111542,111758
 1.8000e+000 111807 -8.7284e+002 -3.6255e+002  4.9552e+002 21268 111568,111758,111412
 1.8000e+000 111959 -7.9768e+002 -8.9750e+001  2.6839e+002 20864 111982,111910,111884
 1.8000e+000 111936 -7.4857e+002 -1.0434e+002  3.9082e+002 20864 112114,111832,111910
 1.8000e+000 112008 -7.8478e+002 -2.5833e+002  3.3459e+002 20864 112114,111910,111982
 1.8000e+000 112140 -7.3456e+002 -2.7704e+002  3.1775e+002 20864 111858,111832,112114
 1.8000e+000 112163 -7.8710e+002 -4.6754e+002  2.6720e+002 20864 111858,112114,111982
 1.8000e+000 112411 -7.5092e+001 -1.5703e+001  2.7205e+001 20324 112186,112290,112212
 1.8000e+000 112388 -1.8013e+001 -3.7735e+000  4.2275e+001 20324 112186,112316,112290
 1.8000e+000 112365  3.6282e+002 -2.4749e+002  4.6433e+001 20324 112212,112290,112264
 1.8000e+000 112342 -1.2276e+003 -5.2502e+002 -8.3251e+001 20324 112212,112264,112238
 1.8000e+000 112659 -1.4534e+002 -4.0487e+001  3.7383e+002 19920 112512,112564,112538
 1.8000e+000 112636 -4.7936e+002 -1.7295e+002  2.4689e+002 19920 112434,112564,112512
 1.8000e+000 112613 -4.9575e+002 -2.9938e+002  2.9656e+002 19920 112434,112512,112460
 1.8000e+000 112590 -5.2670e+002 -3.1660e+002  3.0687e+002 19920 112460,112512,112486
 1.8000e+000 112811 -8.8402e+001 -3.2810e+001  1.8049e+002 19630 112684,112736,112710
 1.8000e+000 112788  1.2161e+002 -2.3263e+002  7.5857e+001 19630 112684,112762,112736
 1.8000e+000 113012 -4.2355e+002 -1.5438e+002  4.1510e+002 19169 112862,112940,112888
 1.8000e+000 112989 -7.0318e+002 -5.4421e+002  2.8993e+002 19169 112836,112940,112862
 1.8000e+000 112966 -3.9158e+002 -4.8541e+002  3.5953e+002 19169 112888,112940,112914
 1.8000e+000 113213 -1.0721e+003 -4.2450e+002  4.6528e+002 18600 113037,113089,113063
 1.8000e+000 113190 -6.2828e+002 -2.3775e+002  3.4929e+002 18600 113037,113115,113089
 1.8000e+000 113167 -1.2881e+003 -7.8901e+002  7.1266e+002 18600 113037,113141,113115
 1.8000e+000 113485 -4.8507e+002 -1.7527e+002  4.5420e+002 18352 113260,113312,113286
 1.8000e+000 113462 -9.6877e+002 -5.3370e+002  6.1080e+002 18352 113260,113390,113312
 1.8000e+000 113439 -9.1181e+002 -1.5956e+002  4.2178e+002 18352 113312,113390,113364
 1.8000e+000 113416 -3.0637e+002 -9.8636e+001  4.5558e+002 18352 113312,113364,113338
 1.8000e+000 113757 -6.6323e+002 -2.5477e+002  4.3049e+002 17834 113558,113610,113584
 1.8000e+000 113734 -9.8670e+002 -5.4498e+002  5.8465e+002 17834 113532,113610,113558
 1.8000e+000 113711 -9.9263e+002 -6.3139e+002  4.6808e+002 17834 113532,113662,113610
 1.8000e+000 113688 -4.9445e+002 -1.4158e+002  6.6602e+002 17834 113610,113662,113636
 1.8000e+000 113958 -6.1646e+002 -2.4689e+002  3.3027e+002 17330 113782,113834,113808
 1.8000e+000 113935 -3.5086e+002 -2.0167e+002  2.4780e+002 17330 113782,113886,113834
 1.8000e+000 113912 -4.2400e+002 -1.9609e+002  1.6083e+002 17330 113834,113886,113860
 1.8000e+000 114110 -9.2957e+002 -3.4046e+002  5.9897e+002 16874 113983,114035,114009
 1.8000e+000 114087 -3.7556e+002 -8.3698e+002  5.6294e+002 16874 113983,114061,114035
 1.8000e+000 114465 -1.0668e+003 -4.4851e+002  2.3247e+002 16270 114240,114292,114266
 1.8000e+000 114442 -6.4937e+002 -1.4017e+002  9.2567e+001 16270 114240,114370,114292
 1.8000e+000 114419 -3.2164e+002 -1.3227e+002  1.8876e+002 16270 114292,114344,114318
 1.8000e+000 114396 -6.4856e+002 -2.9518e+002  1.0711e+002 16270 114292,114370,114344
 1.8000e+000 114566 -7.4582e+001  7.4582e+001  8.2634e+002 15834 114488,114540,114514
 1.8000e+000 114667 -6.1291e+002 -2.3988e+002  3.7895e+002 15155 114589,114641,114615
 1.8000e+000 114890 -4.8473e+002 -1.6677e+002  5.0828e+002 421 114766,114818,114792
 1.8000e+000 114867 -7.2226e+002 -6.1647e+002  4.1520e+002 421 114714,114818,114766
 1.8000e+000 114844 -1.0045e+003 -4.2167e+002  2.3437e+002 421 114714,114766,114740
 1.9000e+000 66553 -5.5692e+002 -2.3918e+002  2.9888e+002 66108 66354,66458,66432
 1.9000e+000 66530 -5.7334e+002 -2.3962e+002  2.0169e+002 66108 66328,66458,66354
 1.9000e+000 66507 -3.1895e+002 -2.4104e+002  1.9728e+002 66108 66354,66432,66406
 1.9000e+000 66484  1.3637e+002  7.9074e+001  3.6586e+002 66108 66354,66406,66380
 1.9000e+000 66951 -3.2362e+002 -1.3206e+002  2.0657e+002 65910 66703,66833,66807
 1.9000e+000 66928 -5.4096e+001 -8.8281e+001  2.4902e+002 65910 66677,66833,66703
 1.9000e+000 66905 -2.4440e+002 -5.4994e+002  3.5462e+002 65910 66729,66781,66755
 1.9000e+000 66882 -9.8260e+002 -4.0348e+002  3.3144e+002 65910 66729,66807,66781
 1.9000e+000 66859 -5.9715e+002 -5.2949e+001  1.7974e+002 65910 66703,66807,66729
 1.9000e+000 67150 -4.8195e+002 -2.0655e+002 -3.9110e+001 65712 67026,67078,67052
 1.9000e+000 67127 -1.0144e+002 -2.6243e+002 -3.5716e+001 65712 66974,67078,67026
 1.9000e+000 67104 -1.4372e+001 -2.2375e+002 -4.9965e+001 65712 66974,67026,67000
 1.9000e+000 67481 -1.2016e+003 -2.1880e+002  3.9752e+002 65422 67282,67360,67334
 1.9000e+000 67458 -5.3739e+002 -1.6231e+002  6.5441e+002 65422 67282,67386,67360
 1.9000e+000 67435 -3.4491e+002  1.3614e+002  3.5897e+002 65422 67282,67334,67308
 1.9000e+000 67412  1.3740e+002 -4.0362e+001  2.7945e+002 65422 67256,67386,67282
 1.9000e+000 68115 -2.0173e+002 -2.0517e+002  1.2246e+002 65018 67795,67925,67873
 1.9000e+000 68092 -2.7144e+002 -2.4163e+002  8.2214e+001 65018 67769,67925,67795
 1.9000e+000 68069 -1.8221e+002 -1.7442e+002  1.3104e+002 65018 67873,67925,67899
 1.9000e+000 68046 -3.7581e+002 -3.5303e+002  1.3145e+002 65018 67769,67951,67925
 1.9000e+000 68023 -3.3165e+002 -2.6032e+002  1.8038e+002 65018 67795,67873,67821
 1.9000e+000 68000 -3.9544e+002 -2.3973e+002  1.2392e+002 65018 67821,67873,67847
 1.9000e+000 67977 -5.2592e+002 -4.6335e+002  8.4813e+001 65018 67743,67951,67769
 1.9000e+000 68363 -2.9972e+002 -5.9929e+002  6.5026e+002 64820 68190,68242,68216
 1.9000e+000 68340 -6.7993e+002 -4.6993e+002  6.8176e+002 64820 68190,68268,68242
 1.9000e+000 68317 -3.7726e+002 -3.2412e+002  7.3436e+002 64820 68164,68268,68190
 1.9000e+000 68294 -1.3433e+003 -5.3599e+002  4.9318e+002 64820 68138,68268,68164
 1.9000e+000 68513 -6.0175e+002 -2.8249e+002  3.2949e+002 64366 68868,68536,68438
 1.9000e+000 68490 -3.7922e+002 -1.6688e+002  2.3555e+002 64366 68536,68412,68386
 1.9000e+000 68562 -7.8121e+002 -3.0615e+002  3.6422e+002 64366 68740,68536,68464
 1.9000e+000 68585 -5.4133e+002 -2.1657e+002  2.9456e+002 64366 68608,68536,68386
 1.9000e+000 68634 -6.4467e+002 -4.3516e+002  2.6562e+002 64366 68464,68536,68608
 1.9000e+000 68766 -5.7890e+002 -2.1223e+002  3.3231e+002 64366 68438,68536,68740
 1.9000e+000 68894 -5.4071e+002 -1.9955e+002  3.5646e+002 64366 68412,68536,68868
 1.9000e+000 69172 -1.7602e+002 -6.5256e+002  1.1568e+002 64168 69022,69074,69048
 1.9000e+000 69149 -9.2714e+002 -3.8359e+002  2.9455e+002 64168 68996,69074,69022
 1.9000e+000 69126 -1.0529e+003 -6.6794e+002  2.2127e+002 64168 68996,69100,69074
 1.9000e+000 69371 -5.0663e+002 -1.8433e+002  3.8250e+002 63970 69466,69394,69273
 1.9000e+000 69348 -1.7695e+002 -1.3008e+002  9.2827e+001 63970 69394,69247,69221
 1.9000e+000 69325 -9.9393e+002 -4.1558e+002  2.5448e+002 63970 69195,69299,69221
 1.9000e+000 69420 -8.1015e+002 -3.1025e+002  5.0135e+002 63970 69299,69273,69394
 1.9000e+000 69443 -4.6022e+002 -3.8862e+002  2.6694e+002 63970 69299,69394,69221
 1.9000e+000 69492 -5.2967e+002 -2.2540e+002  3.7334e+002 63970 69247,69394,69466
 1.9000e+000 69904 -3.7191e+001 -2.5970e+002  1.5227e+002 63680 69705,69783,69731
 1.9000e+000 69881  2.5810e+001 -1.7684e+002  9.0517e+001 63680 69679,69783,69705
 1.9000e+000 69858 -2.7654e+002 -3.6884e+002  1.7991e+002 63680 69679,69809,69783
 1.9000e+000 69835 -1.4786e+002 -1.6866e+002  1.5939e+002 63680 69731,69783,69757
 1.9000e+000 70054 -3.6303e+001 -3.8115e+002  2.4375e+002 63476 70077,69953,69927
 1.9000e+000 70031  6.0954e+001 -1.5737e+002  3.4695e+002 63476 70077,69927,70005
 1.9000e+000 70103 -1.8986e+002 -2.3907e+002  1.4913e+002 63476 69979,69953,70077
 1.9000e+000 70126 -1.1312e+002 -3.9813e+001  2.3604e+002 63476 69979,70077,70005
 1.9000e+000 70325 -1.2556e+003 -5.1175e+002  4.9360e+002 63278 70149,70227,70175
 1.9000e+000 70302 -6.5834e+002 -2.3034e+002  5.7317e+002 63278 70149,70253,70227
 1.9000e+000 70279 -1.4608e+003 -6.9106e+002  3.0700e+002 63278 70175,70227,70201
 1.9000e+000 70597 -5.0529e+002 -5.1713e+000  1.8669e+002 63080 70372,70476,70424
 1.9000e+000 70574 -3.2697e+002 -1.3116e+002  2.3961e+002 63080 70372,70502,70476
 1.9000e+000 70551 -7.3167e+002 -2.9789e+002  3.1413e+002 63080 70424,70476,70450
 1.9000e+000 70528 -1.1025e+003 -3.0826e+002  4.9080e+002 63080 70372,70424,70398
 1.9000e+000 70847 -8.9093e+001 -2.5276e+002  1.2405e+002 62740 70870,70648,70622
 1.9000e+000 70824 -2.1732e+002 -1.6727e+002  1.6875e+002 62740 70870,70622,70752
 1.9000e+000 70801 -9.3024e+001 -3.7376e+002  1.8220e+002 62740 70648,70726,70700
 1.9000e+000 70778 -1.2378e+002 -4.0662e+002  1.9619e+002 62740 70648,70700,70674
 1.9000e+000 70896 -2.0252e+002 -3.4366e+002  8.2943e+001 62740 70726,70648,70870
 1.9000e+000 70919 -2.5776e+002 -2.0869e+002  1.4919e+002 62740 70726,70870,70752
 1.9000e+000 71022 -8.3073e+001  8.3073e+001  8.7170e+002 62520 70944,70996,70970
 1.9000e+000 71223 -1.1124e+003 -4.3195e+002  6.5353e+002 62230 71073,71151,71099
 1.9000e+000 71200 -9.1790e+002 -4.2322e+002  5.8857e+002 62230 71047,71151,71073
 1.9000e+000 71177 -6.8153e+002 -8.3477e+002  5.4396e+002 62230 71099,71151,71125
 1.9000e+000 71861 -3.5513e+002 -5.1468e+002 -2.6571e+001 61712 71515,71697,71671
 1.9000e+000 71838 -4.5260e+002 -6.8611e+002  1.3881e+002 61712 71489,71697,71515
 1.9000e+000 71815 -1.2696e+003 -4.9466e+002  3.7317e+002 61712 71884,71541,71515
 1.9000e+000 71792 -8.4574e+002 -2.2572e+002  2.5673e+002 61712 71884,71515,71671
 1.9000e+000 71769 -3.1526e+002 -8.1404e+002  3.3858e+002 61712 71541,71619,71593
 1.9000e+000 71746 -3.2166e+002 -1.0244e+003  1.7883e+002 61712 71619,71671,71645
 1.9000e+000 71723 -1.0770e+003 -1.2251e+003  6.6596e+002 61712 71541,71593,71567
 1.9000e+000 71910 -8.8061e+002 -7.6827e+002  5.9210e+002 61712 71619,71541,71884
 1.9000e+000 71933 -6.1177e+002 -5.8619e+002  5.1011e+002 61712 71619,71884,71671
 1.9000e+000 72230 -5.3904e+002 -3.0426e+002  8.4100e+001 61208 72253,72060,72008
 1.9000e+000 72207 -5.1406e+002 -2.0381e+002  7.6605e+001 61208 72253,72008,71982
 1.9000e+000 72184 -5.5399e+002 -9.9607e+001  9.5704e+001 61208 71982,72112,72086
 1.9000e+000 72161 -1.0590e+003 -3.1501e+002  2.1841e+002 61208 72008,72060,72034
 1.9000e+000 72138 -4.0190e+002 -9.7030e+001  1.9411e+002 61208 71956,72112,71982
 1.9000e+000 72279 -5.3419e+002 -2.3503e+002  3.8719e+001 61208 72086,72060,72253
 1.9000e+000 72302 -5.3873e+002 -1.7767e+002  3.0842e+001 61208 72086,72253,71982
 1.9000e+000 72761 -5.9520e+002 -2.9332e+002  1.6661e+002 60804 72487,72617,72513
 1.9000e+000 72738 -5.1217e+002 -3.5841e+002  1.2921e+002 60804 72487,72643,72617
 1.9000e+000 72715 -2.1865e+002 -4.5073e+002  2.6350e+002 60804 72565,72617,72591
 1.9000e+000 72692 -5.0688e+002 -3.1160e+002  2.5218e+002 60804 72513,72617,72565
 1.9000e+000 72669 -4.7405e+002 -2.2419e+002  2.5911e+002 60804 72513,72565,72539
 1.9000e+000 72911 -8.3073e+001  8.3073e+001  8.7170e+002 60556 72784,72836,72810
 1.9000e+000 72888  6.5398e+002  2.4147e+002  5.8524e+002 60556 72784,72862,72836
 1.9000e+000 73468 -3.2955e+002 -3.2064e+002  2.1425e+002 60244 73491,73226,73200
 1.9000e+000 73445 -3.8946e+002 -2.8714e+002  2.8567e+002 60244 73563,73491,73200
 1.9000e+000 73422 -6.3773e+002 -1.7807e+002  2.8412e+002 60244 73563,73200,73174
 1.9000e+000 73399 -2.6402e+002 -3.3902e+002  1.7150e+002 60244 73226,73278,73252
 1.9000e+000 73376 -4.9714e+002 -3.4713e+002  1.9355e+002 60244 73122,73304,73278
 1.9000e+000 73353 -5.0563e+002 -5.6545e+002  2.5248e+002 60244 73096,73304,73122
 1.9000e+000 73330 -7.5383e+002 -2.3153e+002 -1.3726e+002 60244 73122,73174,73148
 1.9000e+000 73517 -5.0364e+002 -3.9720e+002  2.3073e+002 60244 73278,73226,73491
 1.9000e+000 73540 -4.7399e+002 -3.1642e+002  2.0762e+002 60244 73278,73491,73122
 1.9000e+000 73589 -7.4432e+002 -4.2093e+002  2.1413e+002 60244 73122,73491,73563
 1.9000e+000 73612 -9.8386e+002 -2.9712e+002  2.2717e+002 60244 73122,73563,73174
 1.9000e+000 73762 -5.1175e+002 -1.1962e+003  5.5899e+002 59875 73661,73713,73687
 1.9000e+000 73739 -7.8605e+002 -5.7067e+002  3.9350e+002 59875 73635,73713,73661
 1.9000e+000 74191 -2.1978e+002 -4.3201e+002  6.2222e+002 59478 74214,73894,73868
 1.9000e+000 74168 -5.3831e+002 -4.3539e+002  6.5614e+002 59478 74214,73868,74050
 1.9000e+000 74145 -5.0566e+002 -6.0829e+002  3.1834e+002 59478 73894,73946,73920
 1.9000e+000 74122 -4.4879e+002 -4.6960e+002  2.7626e+002 59478 73894,73998,73946
 1.9000e+000 74099 -1.3716e+003 -6.7510e+002  8.3747e+002 59478 73998,74050,74024
 1.9000e+000 74076 -5.8495e+002 -6.5649e+002  2.0516e+002 59478 73946,73998,73972
 1.9000e+000 74240 -5.1255e+002 -3.2619e+002  4.6091e+002 59478 73998,73894,74214
 1.9000e+000 74263 -8.1573e+002 -3.4314e+002  4.4407e+002 59478 73998,74214,74050
 1.9000e+000 74720 -5.8401e+002 -3.8855e+002  2.0819e+002 58774 74472,74602,74498
 1.9000e+000 74697 -5.3767e+002 -3.7723e+002  2.1166e+002 58774 74446,74602,74472
 1.9000e+000 74674 -6.1397e+002 -3.5920e+002  2.4547e+002 58774 74498,74576,74524
 1.9000e+000 74651 -5.5517e+002 -3.7170e+002  2.2798e+002 58774 74498,74602,74576
 1.9000e+000 74628 -6.6132e+002 -5.2130e+002  2.7197e+002 58774 74524,74576,74550
 1.9000e+000 75226 -4.9764e+002 -2.5163e+002  2.3998e+002 58270 74955,75085,75033
 1.9000e+000 75203 -3.3937e+002 -4.5092e+002  3.3766e+002 58270 74929,75085,74955
 1.9000e+000 75180 -3.8364e+002 -1.8518e+002  1.7122e+002 58270 75033,75085,75059
 1.9000e+000 75157 -5.2971e+002 -2.8247e+002  1.2268e+002 58270 74955,75007,74981
 1.9000e+000 75134 -2.7893e+002 -1.6931e+002  6.7872e+001 58270 74955,75033,75007
 1.9000e+000 75111 -7.0910e+001 -5.3426e+002  1.9035e+002 58270 74903,75085,74929
 1.9000e+000 75425 -3.9034e+002 -1.5922e+002  1.6879e+002 57830 75448,75301,75249
 1.9000e+000 75402 -2.8525e+002  6.9008e+000  9.1900e+001 57830 75448,75249,75353
 1.9000e+000 75379 -3.6030e+002 -6.1497e+002  1.6395e+002 57830 75520,75301,75275
 1.9000e+000 75474 -3.7665e+002 -2.6186e+002  2.7308e+002 57830 75327,75301,75448
 1.9000e+000 75497 -3.2008e+002 -1.8489e+002  1.9900e+002 57830 75327,75448,75353
 1.9000e+000 75546 -2.2305e+002 -1.2352e+002  4.1938e+001 57830 75249,75301,75520
 1.9000e+000 76261 -2.7688e+002 -4.0726e+002  2.5777e+002 57426 76284,76097,76071
 1.9000e+000 76238 -2.4690e+002 -3.1696e+002  2.7706e+002 57426 75889,76097,75915
 1.9000e+000 76215 -3.9440e+002 -4.5480e+002  2.5011e+002 57426 76428,76284,76071
 1.9000e+000 76192 -3.0114e+002 -4.1509e+002  1.7596e+002 57426 76356,75941,75915
 1.9000e+000 76169 -4.0610e+002 -3.9397e+002  2.3305e+002 57426 76428,76071,76019
 1.9000e+000 76146 -4.2049e+002 -4.4474e+002  2.2666e+002 57426 76019,76071,76045
 1.9000e+000 76123 -3.9025e+002 -3.8111e+002  3.1247e+002 57426 75967,76019,75993
 1.9000e+000 76310 -3.1135e+002 -4.9287e+002  2.2230e+002 57426 75915,76097,76284
 1.9000e+000 76333 -3.1691e+002 -4.4262e+002  1.8309e+002 57426 76356,75915,76284
 1.9000e+000 76382 -3.4325e+002 -3.7661e+002  2.0049e+002 57426 75967,75941,76356
 1.9000e+000 76405 -3.5075e+002 -3.9328e+002  2.0311e+002 57426 75967,76356,76284
 1.9000e+000 76454 -3.5231e+002 -4.0339e+002  2.3105e+002 57426 75967,76284,76428
 1.9000e+000 76477 -3.9641e+002 -3.7195e+002  2.2616e+002 57426 75967,76428,76019
 1.9000e+000 76953 -3.7565e+002 -7.4845e+002  4.0915e+002 56908 76976,76711,76685
 1.9000e+000 76930 -3.9412e+002 -7.7075e+002  3.4631e+002 56908 77048,76976,76685
 1.9000e+000 76907 -7.2677e+002 -8.0902e+002  4.9650e+002 56908 77048,76685,76633
 1.9000e+000 76884 -1.0992e+003 -1.1624e+003  7.5989e+002 56908 76711,76789,76763
 1.9000e+000 76861 -5.9755e+002 -4.6252e+002  2.9609e+002 56908 76581,76789,76607
 1.9000e+000 76838 -1.1095e+003 -8.9317e+002  2.7513e+002 56908 76711,76763,76737
 1.9000e+000 76815 -1.5344e+003 -1.2959e+003  8.1216e+002 56908 76633,76685,76659
 1.9000e+000 77002 -3.1678e+002 -7.4046e+002  4.6852e+002 56908 76789,76711,76976
 1.9000e+000 77025 -4.2657e+002 -4.8864e+002  2.3320e+002 56908 76789,76976,76607
 1.9000e+000 77074 -9.1695e+002 -7.4614e+002  3.3619e+002 56908 76607,76976,77048
 1.9000e+000 77097 -1.0985e+003 -6.4263e+002  4.6771e+002 56908 76607,77048,76633
 1.9000e+000 77475 -4.7772e+002 -7.2325e+002  4.4296e+002 56546 77570,77498,77279
 1.9000e+000 77452 -3.8164e+002 -8.6349e+002  5.6623e+002 56546 77498,77227,77357
 1.9000e+000 77429 -5.3532e+002 -7.8263e+002  4.9747e+002 56546 77570,77279,77253
 1.9000e+000 77406 -7.6712e+002 -1.0294e+003  5.7367e+002 56546 77201,77357,77227
 1.9000e+000 77383 -6.1487e+002 -7.2950e+002  2.8184e+002 56546 77279,77331,77305
 1.9000e+000 77524 -4.2244e+002 -4.5648e+002  4.2462e+002 56546 77331,77279,77498
 1.9000e+000 77547 -3.1509e+002 -6.5149e+002  6.3374e+002 56546 77331,77498,77357
 1.9000e+000 77596 -5.1434e+002 -7.2861e+002  5.7129e+002 56546 77227,77498,77570
 1.9000e+000 77619 -6.0879e+002 -9.2462e+002  6.2873e+002 56546 77227,77570,77253
 1.9000e+000 77818 -5.8941e+002 -5.6408e+002  4.5307e+002 56042 77841,77694,77668
 1.9000e+000 77795 -5.8335e+002 -5.3689e+002  3.2564e+002 56042 77841,77668,77746
 1.9000e+000 77772 -6.5810e+002 -9.6406e+002  2.9405e+002 56042 77642,77746,77668
 1.9000e+000 77867 -6.3593e+002 -6.6667e+002  4.6318e+002 56042 77720,77694,77841
 1.9000e+000 77890 -6.2353e+002 -6.2677e+002  3.3326e+002 56042 77720,77841,77746
 1.9000e+000 78349 -5.1490e+002 -1.1216e+002  1.9289e+002 55538 78075,78127,78101
 1.9000e+000 78326 -6.3120e+002 -2.9561e+002  1.1277e+002 55538 78075,78205,78127
 1.9000e+000 78303 -3.9666e+002 -9.2530e+001  1.5963e+001 55538 78075,78231,78205
 1.9000e+000 78280 -5.5349e+002 -5.1516e+002  3.2645e+002 55538 78127,78179,78153
 1.9000e+000 78257 -4.4920e+002 -2.9149e+002  1.0712e+002 55538 78127,78205,78179
 1.9000e+000 78806 -3.2283e+002 -4.3830e+002  1.2744e+002 55034 78829,78636,78610
 1.9000e+000 78783 -3.8051e+002 -4.3180e+002  1.4681e+002 55034 78901,78829,78610
 1.9000e+000 78760 -3.2650e+002 -4.4507e+002  1.6855e+002 55034 78901,78610,78584
 1.9000e+000 78737 -4.9436e+002 -3.9201e+002  1.4036e+002 55034 78558,78688,78662
 1.9000e+000 78714 -5.8439e+002 -4.2853e+002  4.0451e+002 55034 78532,78688,78558
 1.9000e+000 78855 -3.8946e+002 -4.9589e+002  1.0302e+002 55034 78662,78636,78829
 1.9000e+000 78878 -4.0801e+002 -4.1869e+002  1.6665e+002 55034 78662,78829,78558
 1.9000e+000 78927 -3.3794e+002 -3.8298e+002  1.8263e+002 55034 78558,78829,78901
 1.9000e+000 78950 -3.1728e+002 -4.0440e+002  2.0544e+002 55034 78558,78901,78584
 1.9000e+000 79407 -2.6760e+002 -1.6451e+002  2.4625e+002 54430 79430,79237,79159
 1.9000e+000 79384 -3.5584e+002 -3.6520e+002  8.7804e+001 54430 79430,79159,79133
 1.9000e+000 79361 -2.3009e+002 -3.2277e+002  1.3460e+002 54430 79237,79289,79263
 1.9000e+000 79338 -3.6585e+002 -2.3324e+002  2.2149e+002 54430 79185,79237,79211
 1.9000e+000 79315 -4.9686e+002 -2.4255e+002  2.8919e+002 54430 79159,79237,79185
 1.9000e+000 79456 -2.5728e+002 -3.9071e+002  1.2961e+002 54430 79289,79237,79430
 1.9000e+000 79479 -3.0542e+002 -6.4300e+002  1.0238e+001 54430 79289,79430,79133
 1.9000e+000 79936 -2.3596e+002 -1.5236e+002  2.5648e+002 53919 79662,79766,79688
 1.9000e+000 79913 -8.3249e+002 -3.9365e+002  4.6761e+002 53919 79662,79818,79766
 1.9000e+000 79890 -1.1416e+003 -5.1972e+002  3.5106e+001 53919 79766,79818,79792
 1.9000e+000 79867 -5.9202e+002 -3.5379e+002  3.2052e+002 53919 79714,79766,79740
 1.9000e+000 79844 -5.5288e+002 -3.2651e+002  3.3309e+002 53919 79688,79766,79714
 1.9000e+000 80037 -1.6822e+002 -4.5892e+002  4.6367e+002 53671 79959,80011,79985
 1.9000e+000 80405 -4.6409e+001 -1.6827e+002  3.1569e+001 53267 80108,80264,80238
 1.9000e+000 80382 -5.1992e+001 -7.1436e+001  6.0480e+001 53267 80082,80264,80108
 1.9000e+000 80359 -3.5748e+001 -3.6148e+002  2.5989e+002 53267 80108,80238,80134
 1.9000e+000 80336 -1.6773e+000 -1.2374e+002  1.7527e+002 53267 80134,80212,80186
 1.9000e+000 80313 -2.9603e+002 -3.4253e+002  3.2680e+002 53267 80134,80238,80212
 1.9000e+000 80290  1.0609e+002 -2.6861e+002  5.9795e+001 53267 80134,80186,80160
 1.9000e+000 80915 -3.7514e+002 -5.5211e+002  9.1858e+001 52969 80644,80774,80748
 1.9000e+000 80892 -3.6331e+002 -1.8746e+002 -5.2617e+001 52969 80618,80774,80644
 1.9000e+000 80869 -5.2765e+002 -7.4651e+002 -2.8704e-002 52969 80644,80748,80670
 1.9000e+000 80846 -5.4770e+002 -1.9638e+002 -2.4021e+001 52969 80592,80774,80618
 1.9000e+000 80823 -1.1849e+003 -8.8344e+002  1.7895e+002 52969 80670,80722,80696
 1.9000e+000 80800 -5.0167e+002 -6.4493e+002 -9.9211e+000 52969 80670,80748,80722
 1.9000e+000 81266  1.2953e+002 -1.8624e+002  7.7124e+001 52565 81041,81145,81067
 1.9000e+000 81243 -6.7289e+001 -5.5159e+002  1.7113e+002 52565 81041,81171,81145
 1.9000e+000 81220 -5.0697e+002 -1.4088e+003  3.5552e+002 52565 81067,81119,81093
 1.9000e+000 81197  2.0614e+002  4.7799e+001  1.0860e+002 52565 81067,81145,81119
 1.9000e+000 81723 -2.6743e+002 -1.2100e+002  1.1954e+002 51904 81449,81527,81475
 1.9000e+000 81700 -2.1092e+002 -4.4496e+001  8.8294e+001 51904 81449,81579,81527
 1.9000e+000 81677 -5.2825e+002 -3.2584e+002  2.2499e+002 51904 81449,81605,81579
 1.9000e+000 81654 -2.4918e+002 -4.6679e+001  8.0569e+001 51904 81527,81579,81553
 1.9000e+000 81631 -3.3172e+002 -1.0259e+002  7.0062e+001 51904 81475,81527,81501
 1.9000e+000 82327 -5.7045e+002 -5.4904e+002  3.8386e+002 51321 82422,82350,82036
 1.9000e+000 82304 -5.9424e+002 -4.3036e+002  3.8544e+002 51321 82494,82350,81958
 1.9000e+000 82281 -5.7395e+002 -5.5258e+002  3.6887e+002 51321 82422,82036,82010
 1.9000e+000 82258 -5.5159e+002 -4.0625e+002  3.6707e+002 51321 82494,81958,81932
 1.9000e+000 82235 -6.1800e+002 -3.5823e+002  2.4903e+002 51321 82062,82114,82088
 1.9000e+000 82212 -1.3348e+003 -8.0993e+002  5.4586e+002 51321 81932,82140,82114
 1.9000e+000 82189 -5.9633e+002 -1.8997e+002  3.2081e+002 51321 81958,82010,81984
 1.9000e+000 82166 -4.2178e+002 -4.7335e+002  2.6726e+002 51321 81906,82140,81932
 1.9000e+000 82376 -5.7271e+002 -6.6933e+002  3.8374e+002 51321 82062,82036,82350
 1.9000e+000 82399 -6.1378e+002 -5.2308e+002  3.6692e+002 51321 82062,82350,82114
 1.9000e+000 82448 -5.5038e+002 -5.3985e+002  3.8604e+002 51321 81958,82350,82422
 1.9000e+000 82471 -5.5151e+002 -5.4232e+002  3.7132e+002 51321 81958,82422,82010
 1.9000e+000 82520 -5.8977e+002 -4.4189e+002  4.0854e+002 51321 82114,82350,82494
 1.9000e+000 82543 -5.8527e+002 -4.3783e+002  3.9381e+002 51321 82114,82494,81932
 1.9000e+000 83019 -6.0646e+002 -1.0586e+003  4.0585e+000 50817 82673,82751,82699
 1.9000e+000 82996 -4.9227e+002 -6.8243e+002  1.5769e+002 50817 83042,82673,82855
 1.9000e+000 82973 -5.4129e+002 -5.2286e+002  1.3411e+002 50817 83042,82855,82803
 1.9000e+000 82950 -8.8559e+002 -5.0339e+002  2.1596e+002 50817 82751,82803,82777
 1.9000e+000 82927 -5.4653e+002 -6.4403e+002  2.0936e+002 50817 82647,82855,82673
 1.9000e+000 82904 -7.8291e+002 -5.9107e+002  3.4061e+002 50817 82803,82855,82829
 1.9000e+000 82881 -4.5965e+002 -8.2392e+002 -7.5038e+001 50817 82699,82751,82725
 1.9000e+000 83068 -4.3113e+002 -5.6271e+002  7.6691e+001 50817 82751,82673,83042
 1.9000e+000 83091 -5.3250e+002 -4.3843e+002  7.4133e+001 50817 82751,83042,82803
 1.9000e+000 83290 -6.2702e+002 -2.5265e+002  3.7150e+002 50356 83313,83166,83140
 1.9000e+000 83267 -6.8919e+002 -5.3684e+002  2.9637e+002 50356 83515,83313,83140
 1.9000e+000 83244 -7.7702e+002 -5.4465e+002  1.6006e+002 50356 83515,83140,83385
 1.9000e+000 83339 -7.4904e+002 -4.6689e+002  4.2098e+002 50356 83192,83166,83313
 1.9000e+000 83362 -5.2605e+002 -4.8428e+002  3.5756e+002 50356 83192,83313,83218
 1.9000e+000 83411 -3.1956e+002 -3.0923e+002  2.6188e+002 50356 83114,83218,83385
 1.9000e+000 83541 -4.6769e+002 -4.7437e+002  3.0073e+002 50356 83218,83313,83515
 1.9000e+000 83564 -4.8787e+002 -4.2901e+002  1.8342e+002 50356 83218,83515,83385
 1.9000e+000 83893 -5.3320e+002 -4.7769e+002  1.1295e+002 49552 83720,83798,83746
 1.9000e+000 83870 -3.4171e+002 -8.8655e+001  1.8013e+002 49552 83694,83798,83720
 1.9000e+000 83847 -2.3256e+002 -2.0699e+002  1.6328e+002 49552 83668,83798,83694
 1.9000e+000 83824 -1.1104e+003 -3.0704e+002 -7.0099e+001 49552 83746,83798,83772
 1.9000e+000 84141 -7.7543e+002 -5.2934e+002  3.9634e+002 49212 84164,84020,83942
 1.9000e+000 84118 -7.4017e+002 -4.3324e+002  4.1702e+002 49212 84164,83942,83916
 1.9000e+000 84095 -4.9817e+002 -6.6398e+002  3.0040e+002 49212 83942,84020,83968
 1.9000e+000 84072 -4.3518e+002 -8.9221e+000  1.3958e+002 49212 83968,84020,83994
 1.9000e+000 84190 -7.9225e+002 -5.0965e+002  3.4172e+002 49212 84046,84020,84164
 1.9000e+000 84213 -7.6303e+002 -4.4779e+002  3.6419e+002 49212 84046,84164,83916
 1.9000e+000 84800 -1.9010e+002 -4.6137e+002  2.6822e+002 48865 84503,84633,84555
 1.9000e+000 84777 -3.9939e+002 -7.5211e+002  1.7456e+002 48865 84503,84659,84633
 1.9000e+000 84754 -3.3368e+002 -8.6633e+002  2.4299e+002 48865 84555,84633,84581
 1.9000e+000 84731 -2.8995e+002 -1.3756e+003  5.1761e+002 48865 84581,84633,84607
 1.9000e+000 84708 -6.8762e+002 -5.8555e+002  1.8154e+002 48865 84503,84555,84529
 1.9000e+000 84685 -4.3867e+002 -7.3128e+002  2.7519e+002 48865 84477,84659,84503
 1.9000e+000 85355 -2.6814e+002 -2.3509e+002  2.0032e+001 48461 85378,85035,85009
 1.9000e+000 85332 -5.0614e+002 -4.3098e+002  1.2219e+002 48461 85378,85009,85165
 1.9000e+000 85309 -4.6503e+002 -4.3064e+002  1.9624e+002 48461 85450,85061,85035
 1.9000e+000 85286 -5.3631e+002 -4.3787e+002  1.1298e+002 48461 85009,85191,85165
 1.9000e+000 85263 -4.4121e+002 -3.9671e+002  3.0511e+002 48461 85087,85165,85113
 1.9000e+000 85240 -2.4668e+002 -5.5158e+002 -5.7116e+001 48461 84983,85191,85009
 1.9000e+000 85217 -3.7282e+002 -4.9262e+002  2.0446e+002 48461 85113,85165,85139
 1.9000e+000 85404 -4.6900e+002 -3.2651e+002  1.4138e+002 48461 85450,85035,85378
 1.9000e+000 85427 -5.2244e+002 -3.8598e+002  1.5160e+002 48461 85087,85378,85165
 1.9000e+000 85476 -4.8620e+002 -5.7720e+002  2.3200e+002 48461 85087,85061,85450
 1.9000e+000 85499 -5.0752e+002 -5.1555e+002  1.6737e+002 48461 85087,85450,85378
 1.9000e+000 86084 -2.1243e+002 -4.9080e+002  2.2097e+002 48057 86323,86107,85787
 1.9000e+000 86061 -2.8457e+002 -5.4699e+002  2.8174e+002 48057 86107,85761,85943
 1.9000e+000 86038 -3.9795e+002 -4.1113e+002  2.1951e+002 48057 86251,86179,85891
 1.9000e+000 86015 -3.9293e+002 -3.4610e+002  1.4159e+002 48057 86251,85891,85839
 1.9000e+000 85992 -3.5150e+002 -3.6398e+002  2.7657e+002 48057 85891,85943,85917
 1.9000e+000 85969 -4.7535e+002 -2.8718e+002  1.8847e+002 48057 85839,85891,85865
 1.9000e+000 86133 -2.2420e+002 -4.9148e+002  1.8615e+002 48057 85813,85787,86107
 1.9000e+000 86156 -3.1428e+002 -4.9778e+002  1.8650e+002 48057 86179,85813,86107
 1.9000e+000 86205 -3.1182e+002 -3.4544e+002  2.5075e+002 48057 85943,85891,86179
 1.9000e+000 86228 -2.0112e+002 -3.8219e+002  2.4333e+002 48057 85943,86179,86107
 1.9000e+000 86277 -2.6109e+002 -3.3714e+002  1.9088e+002 48057 85813,86179,86251
 1.9000e+000 86300 -3.3023e+002 -3.0694e+002  1.2430e+002 48057 85813,86251,85839
 1.9000e+000 86349 -1.4914e+002 -4.4971e+002  2.3864e+002 48057 85761,86107,86323
 1.9000e+000 86855 -2.5406e+002 -4.1952e+002  2.7096e+002 47545 86878,86584,86558
 1.9000e+000 86832 -3.7041e+002 -4.7570e+002  2.3820e+002 47545 86950,86878,86558
 1.9000e+000 86809 -4.1407e+002 -4.5067e+002  2.4277e+002 47545 86950,86558,86532
 1.9000e+000 86786 -2.6667e+002 -4.1631e+002  2.8645e+002 47545 86584,86662,86610
 1.9000e+000 86763 -3.6905e+002 -3.4220e+002  1.3598e+002 47545 86532,86714,86688
 1.9000e+000 86740 -3.6558e+002 -1.9467e+002  2.6518e+002 47545 86610,86662,86636
 1.9000e+000 86904 -3.1050e+002 -5.1585e+002  2.4589e+002 47545 86662,86584,86878
 1.9000e+000 86927 -2.2841e+002 -4.6340e+002  2.0776e+002 47545 86662,86878,86688
 1.9000e+000 86976 -2.9350e+002 -4.4875e+002  1.9024e+002 47545 86688,86878,86950
 1.9000e+000 86999 -3.7230e+002 -4.6474e+002  2.0640e+002 47545 86688,86950,86532
 1.9000e+000 87328 -5.8675e+002 -2.0631e+002  1.9251e+002 47048 87155,87207,87181
 1.9000e+000 87305 -2.8771e+002 -1.8663e+002  1.7377e+002 47048 87129,87207,87155
 1.9000e+000 87282 -6.2688e+002 -2.8953e+002  1.6425e+002 47048 87103,87207,87129
 1.9000e+000 87259 -9.7525e+002 -1.2354e+003 -4.3363e+001 47048 87103,87233,87207
 1.9000e+000 87576 -2.3168e+002 -3.2345e+002  3.1524e+002 46701 87599,87429,87377
 1.9000e+000 87553 -3.5671e+002 -2.9953e+002  2.6416e+002 46701 87599,87377,87481
 1.9000e+000 87530 -2.8553e+002 -3.0308e+002  2.1931e+002 46701 87351,87481,87377
 1.9000e+000 87507 -3.6220e+002 -4.2792e+002  3.7477e+002 46701 87377,87429,87403
 1.9000e+000 87625 -3.0090e+002 -3.0240e+002  2.1616e+002 46701 87455,87429,87599
 1.9000e+000 87648 -5.5528e+002 -3.3289e+002  1.9324e+002 46701 87455,87599,87481
 1.9000e+000 87798  1.2778e+002  4.0088e+000 -2.3015e+001 46239 87697,87749,87723
 1.9000e+000 87775  1.8753e+002 -1.0466e+001  9.9628e+001 46239 87671,87749,87697
 1.9000e+000 88308 -7.7214e+002 -7.0824e+002  1.3922e+002 45735 88089,88167,88141
 1.9000e+000 88285 -5.5942e+002 -3.0505e+002  2.1731e+002 45735 88011,88167,88089
 1.9000e+000 88262 -4.0710e+002 -2.7955e+002  1.7828e+002 45735 87985,88167,88011
 1.9000e+000 88239 -4.9418e+002 -1.2403e+003  3.8122e+002 45735 88011,88089,88063
 1.9000e+000 88216 -9.0762e+002 -7.4370e+002  2.0000e+002 45735 88089,88141,88115
 1.9000e+000 88193 -8.4495e+002 -1.8769e+003  1.3365e+002 45735 88011,88063,88037
 1.9000e+000 88686 -5.8864e+002 -3.8019e+002  3.7870e+002 45316 88438,88516,88490
 1.9000e+000 88663 -5.3328e+002  2.8283e+001  4.9309e+002 45316 88438,88542,88516
 1.9000e+000 88640 -2.9814e+002 -6.1581e+002  6.2777e+002 45316 88438,88568,88542
 1.9000e+000 88617 -8.3856e+002 -6.6074e+002  2.7363e+002 45316 88438,88490,88464
 1.9000e+000 88594 -5.2317e+002 -6.8381e+002  6.0928e+002 45316 88412,88568,88438
 1.9000e+000 88934 -1.1756e+003 -1.1508e+003  6.6399e+002 44812 88957,88735,88709
 1.9000e+000 88911 -6.1500e+002 -7.5320e+002  2.4317e+002 44812 88957,88709,88839
 1.9000e+000 88888 -6.3241e+002 -4.3001e+002  1.0014e+002 44812 89029,88787,88761
 1.9000e+000 88865 -6.2614e+002 -4.8433e+002  2.0808e+002 44812 88787,88839,88813
 1.9000e+000 88983 -2.6400e+002 -6.8457e+002  4.1757e+002 44812 88761,88735,88957
 1.9000e+000 89006 -4.8453e+002 -5.5405e+002  7.7302e+001 44812 89029,88761,88957
 1.9000e+000 89055 -6.1437e+002 -5.6758e+002  1.5917e+002 44812 88839,88787,89029
 1.9000e+000 89078 -6.0414e+002 -8.3024e+002  1.8371e+002 44812 88839,89029,88957
 1.9000e+000 89228 -2.8914e+002 -9.2649e+002  3.1048e+002 44408 89127,89179,89153
 1.9000e+000 89205  5.7848e+001 -1.3747e+002  2.1560e+001 44408 89101,89179,89127
 1.9000e+000 89787 -6.0739e+002 -3.7644e+002  3.1783e+002 43854 89810,89545,89519
 1.9000e+000 89764 -6.6218e+002 -5.0379e+002  3.0806e+002 43854 89810,89519,89467
 1.9000e+000 89741 -6.2502e+002 -6.9405e+002  2.9215e+002 43854 89954,89882,89597
 1.9000e+000 89718 -6.3873e+002 -7.0663e+002  3.0072e+002 43854 89954,89597,89571
 1.9000e+000 89695 -3.5897e+002 -4.4207e+002  2.8169e+002 43854 89415,89623,89467
 1.9000e+000 89672 -2.3858e+002 -2.8630e+002  2.0061e+002 43854 89467,89519,89493
 1.9000e+000 89649 -2.2838e+002 -3.3359e+002  2.2689e+002 43854 89415,89467,89441
 1.9000e+000 89836 -6.3624e+002 -3.9279e+002  3.5004e+002 43854 89882,89545,89810
 1.9000e+000 89859 -3.8380e+002 -4.6396e+002  2.6427e+002 43854 89623,89810,89467
 1.9000e+000 89908 -6.1293e+002 -7.6182e+002  3.9315e+002 43854 89623,89597,89882
 1.9000e+000 89931 -6.0817e+002 -7.2735e+002  3.6668e+002 43854 89623,89882,89810
 1.9000e+000 89980 -6.9566e+002 -6.6186e+002  4.4146e+002 43854 89545,89882,89954
 1.9000e+000 90003 -7.7314e+002 -7.8834e+002  4.7439e+002 43854 89545,89954,89571
 1.9000e+000 90251 -2.2978e+002 -3.3770e+002  2.4003e+002 43492 90026,90078,90052
 1.9000e+000 90228 -6.0221e+002 -3.8511e+002  1.6776e+002 43492 90274,90026,90156
 1.9000e+000 90205 -5.8390e+002 -5.0003e+002  1.6171e+002 43492 90346,90274,90156
 1.9000e+000 90182 -6.1695e+002 -7.0538e+002  5.3568e+002 43492 90346,90156,90130
 1.9000e+000 90300 -3.2326e+002 -5.1947e+002  2.7505e+002 43492 90078,90026,90274
 1.9000e+000 90323 -6.8178e+002 -6.3824e+002  2.6191e+002 43492 90078,90274,90104
 1.9000e+000 90372 -1.0221e+003 -7.8309e+002  4.1108e+002 43492 90104,90274,90346
 1.9000e+000 90395 -1.0971e+003 -1.0712e+003  8.0073e+002 43492 90104,90346,90130
 1.9000e+000 90594  7.9730e-001 -2.8441e+002  2.4901e+002 43052 90418,90496,90444
 1.9000e+000 90571 -4.9748e+002 -6.2949e+002  3.9922e+002 43052 90418,90522,90496
 1.9000e+000 90548 -3.6404e+002 -2.8179e+002  2.0866e+002 43052 90444,90496,90470
 1.9000e+000 91074 -4.2715e+002 -5.0803e+002  2.1143e+002 42434 91241,90884,90858
 1.9000e+000 91051 -6.5408e+002 -5.8020e+002 -4.1686e+001 42434 90702,90910,90884
 1.9000e+000 91028 -3.0657e+002 -4.1603e+002  2.2573e+002 42434 91097,90754,90702
 1.9000e+000 91005 -4.0491e+002 -4.2091e+002  1.9720e+002 42434 91241,90858,91097
 1.9000e+000 90982 -1.7698e+002 -3.0134e+002  2.0955e+002 42434 91169,90806,90780
 1.9000e+000 90959 -1.0595e+002 -1.7332e+002  7.3377e+001 42434 90806,90858,90832
 1.9000e+000 90936 -3.0554e+002 -2.0504e+002  2.5041e+002 42434 90702,90754,90728
 1.9000e+000 91123 -4.2981e+002 -4.6878e+002  2.2836e+002 42434 90780,90754,91097
 1.9000e+000 91146 -3.4688e+002 -3.7737e+002  2.6424e+002 42434 91169,90780,91097
 1.9000e+000 91195 -1.0286e+002 -3.1958e+002  1.1192e+002 42434 90858,90806,91169
 1.9000e+000 91218 -2.0669e+002 -3.0564e+002  1.4223e+002 42434 90858,91169,91097
 1.9000e+000 91267 -3.6088e+002 -6.1548e+002  1.7907e+002 42434 90702,90884,91241
 1.9000e+000 91290 -3.4947e+002 -5.4171e+002  1.6635e+002 42434 90702,91241,91097
 1.9000e+000 91698 -1.7285e+002 -5.2972e+002  2.1900e+002 41773 91473,91577,91499
 1.9000e+000 91675 -3.0216e+002 -6.3915e+002  3.0936e+002 41773 91473,91603,91577
 1.9000e+000 91652 -2.8204e+002 -4.0324e+002  8.1069e+001 41773 91499,91551,91525
 1.9000e+000 91629 -4.1538e+002 -4.6018e+002  2.0427e+002 41773 91499,91577,91551
 1.9000e+000 92044 -5.5856e+002 -6.0464e+002  4.0198e+002 41383 91773,91877,91851
 1.9000e+000 92021 -4.0688e+002 -7.9350e+002  2.2881e+002 41383 91747,91877,91773
 1.9000e+000 91998 -4.0462e+002 -4.3123e+002  3.0559e+002 41383 91773,91851,91799
 1.9000e+000 91975 -2.8461e+002 -6.0826e+002  7.2423e+001 41383 91747,91903,91877
 1.9000e+000 91952 -2.6971e+002 -4.7326e+002  1.9292e+002 41383 91721,91903,91747
 1.9000e+000 91929 -1.3301e+002 -4.7600e+002  2.3006e+002 41383 91799,91851,91825
 1.9000e+000 92601 -5.1819e+002 -4.3648e+002  1.5852e+002 40979 92229,92411,92307
 1.9000e+000 92578 -6.0050e+002 -4.2177e+002  1.3112e+002 40979 92229,92437,92411
 1.9000e+000 92555 -4.8215e+002 -2.9639e+002  1.6173e+002 40979 92229,92307,92281
 1.9000e+000 92532 -3.9485e+002 -4.2619e+002  2.6150e+002 40979 92333,92411,92385
 1.9000e+000 92509 -4.0460e+002 -3.6240e+002  1.9207e+002 40979 92307,92411,92333
 1.9000e+000 92486 -4.9500e+002 -2.7637e+002  1.2917e+002 40979 92229,92281,92255
 1.9000e+000 92463 -7.5902e+001 -4.2779e+002  1.9326e+002 40979 92333,92385,92359
 1.9000e+000 93235 -5.5497e+002 -3.3916e+002  4.3134e+002 40525 92941,92993,92967
 1.9000e+000 93212 -8.8651e+002 -1.2154e+002  6.9845e+001 40525 93258,92941,92889
 1.9000e+000 93189 -6.8737e+002 -3.3489e+001  5.5227e+001 40525 93258,92889,93071
 1.9000e+000 93166 -7.2502e+002 -1.9711e+002  3.7889e+001 40525 92889,92941,92915
 1.9000e+000 93143 -7.7758e+002 -3.6467e+001  3.7886e+001 40525 92863,93071,92889
 1.9000e+000 93120 -5.7659e+002 -2.2804e+002  1.5133e+002 40525 92993,93071,93019
 1.9000e+000 93097 -5.6356e+002 -1.6599e+002  1.2544e+002 40525 93019,93071,93045
 1.9000e+000 93284 -9.7461e+002 -2.2018e+002  2.9382e+002 40525 92993,92941,93258
 1.9000e+000 93307 -6.0609e+002 -4.7292e+001  2.4160e+002 40525 92993,93258,93071
 1.9000e+000 93636 -7.6613e+002 -5.7563e+002  5.8651e+002 40235 93437,93541,93515
 1.9000e+000 93613 -6.8541e+002 -7.7852e+002  5.5005e+002 40235 93411,93541,93437
 1.9000e+000 93590 -1.4875e+002 -7.0368e+002  2.1814e+002 40235 93463,93515,93489
 1.9000e+000 93567 -3.2982e+002 -5.0335e+002  1.2188e+002 40235 93437,93515,93463
 1.9000e+000 94014 -8.3853e+002 -8.7246e+002  3.3854e+002 39873 93766,93870,93792
 1.9000e+000 93991 -7.4269e+002 -9.6630e+002  2.7125e+002 39873 93766,93896,93870
 1.9000e+000 93968 -7.2266e+002 -6.9104e+002  3.8814e+002 39873 93792,93870,93844
 1.9000e+000 93945 -6.3511e+002 -6.3102e+002  3.3692e+002 39873 93792,93844,93818
 1.9000e+000 93922 -5.7458e+002 -9.1420e+002  5.6567e+002 39873 93740,93896,93766
 1.9000e+000 94164  8.9219e+001 -1.9752e+002  1.4370e+002 39461 94037,94089,94063
 1.9000e+000 94141 -1.8099e+002 -5.2790e+002  2.8961e+002 39461 94037,94115,94089
 1.9000e+000 94363 -3.4546e+002 -3.0182e+002  2.4654e+002 39057 94386,94239,94213
 1.9000e+000 94340 -3.4357e+002 -2.9476e+002  2.4005e+002 39057 94386,94213,94187
 1.9000e+000 94317 -4.8608e+002 -4.5788e+002  2.6699e+002 39057 94187,94291,94265
 1.9000e+000 94412 -2.3118e+002 -2.6854e+002  1.9866e+002 39057 94458,94386,94265
 1.9000e+000 94435 -3.3382e+002 -3.1003e+002  2.0548e+002 39057 94265,94386,94187
 1.9000e+000 94484 -3.5656e+002 -3.5415e+002  2.4897e+002 39057 94239,94386,94458
 1.9000e+000 94896 -7.8276e+002 -5.3425e+002  3.2799e+002 38396 94919,94775,94723
 1.9000e+000 94873 -8.5001e+002 -4.4960e+002  3.3076e+002 38396 94919,94723,94697
 1.9000e+000 94850 -6.5637e+002 -4.9828e+002  2.7903e+002 38396 94723,94775,94749
 1.9000e+000 94827 -3.8419e+002 -2.3065e+002  2.7925e+002 38396 94671,94801,94697
 1.9000e+000 94945 -7.7823e+002 -4.7899e+002  2.9478e+002 38396 94801,94775,94919
 1.9000e+000 94968 -8.1336e+002 -3.7496e+002  2.8318e+002 38396 94801,94919,94697
 1.9000e+000 95265 -7.4494e+002 -7.6919e+002  3.7542e+002 37835 95017,95069,95043
 1.9000e+000 95242 -7.3021e+002 -6.2769e+002  3.6434e+002 37835 95288,95069,95017
 1.9000e+000 95219 -8.0260e+002 -6.9695e+002  4.8475e+002 37835 95288,95017,94991
 1.9000e+000 95196 -8.6455e+002 -7.4075e+002  4.2383e+002 37835 94991,95147,95121
 1.9000e+000 95173 -5.5860e+002 -3.5989e+002  3.1964e+002 37835 95069,95121,95095
 1.9000e+000 95314 -7.1987e+002 -4.6380e+002  2.7489e+002 37835 95121,95069,95288
 1.9000e+000 95337 -7.8355e+002 -5.6608e+002  3.8837e+002 37835 95121,95288,94991
 1.9000e+000 95558  6.7446e+001 -1.6854e+002  2.0918e+002 37423 95408,95460,95434
 1.9000e+000 95535 -2.5934e+002 -9.6966e+002  4.9088e+002 37423 95382,95460,95408
 1.9000e+000 95512 -5.0023e+002 -1.1550e+003  5.7234e+002 37423 95382,95486,95460
 1.9000e+000 95891 -1.9326e+001 -3.4129e+002  2.4269e+002 37225 95666,95718,95692
 1.9000e+000 95868 -3.9346e+002 -4.4630e+002  3.4516e+002 37225 95666,95796,95718
 1.9000e+000 95845 -1.7048e+002 -2.9207e+002  8.8882e+001 37225 95718,95770,95744
 1.9000e+000 95822 -1.6734e+002 -2.2951e+002  1.2882e+002 37225 95718,95796,95770
 1.9000e+000 95992 -3.1415e+001 -3.9191e+002  2.2628e+002 36735 95914,95966,95940
 1.9000e+000 96142 -8.9112e+002 -4.0321e+002  4.0667e+002 36331 96297,96067,96041
 1.9000e+000 96119 -6.8054e+002 -3.5934e+002  4.2937e+002 36331 96165,96041,96015
 1.9000e+000 96191 -8.3720e+002 -3.8714e+002  3.9713e+002 36331 96297,96041,96165
 1.9000e+000 96323 -1.0024e+003 -4.0044e+002  5.2593e+002 36331 96093,96067,96297
 1.9000e+000 96346 -8.3307e+002 -3.3225e+002  5.2641e+002 36331 96093,96297,96165
 1.9000e+000 96714 -5.5452e+002 -8.6971e+002  5.3732e+002 36041 96737,96495,96443
 1.9000e+000 96691 -7.6977e+002 -6.3986e+002  5.2290e+002 36041 96737,96443,96417
 1.9000e+000 96668 -3.0404e+002 -9.5303e+002  1.9054e+002 36041 96443,96495,96469
 1.9000e+000 96645 -1.7993e+002 -2.8442e+002  2.9247e+002 36041 96391,96521,96417
 1.9000e+000 96622  3.6805e-001 -2.9028e+002  2.4500e+002 36041 96391,96547,96521
 1.9000e+000 96599 -1.0609e+002 -3.1931e+002  2.2759e+002 36041 96391,96573,96547
 1.9000e+000 96763 -2.5985e+002 -6.8597e+002  4.5936e+002 36041 96521,96495,96737
 1.9000e+000 96786 -6.5994e+002 -5.8942e+002  4.9269e+002 36041 96521,96737,96417
 1.9000e+000 96936 -3.7555e+002 -2.1792e+002  2.5602e+002 35637 97031,96959,96835
 1.9000e+000 96913 -5.7587e+002 -2.8262e+002  2.6881e+002 35637 97163,96959,96809
 1.9000e+000 96985 -5.5671e+002 -1.8620e+002  2.9113e+002 35637 96861,96835,96959
 1.9000e+000 97008 -7.3323e+002 -3.4485e+002  4.7825e+002 35637 96861,96959,96887
 1.9000e+000 97057 -4.6461e+002 -1.4375e+002  1.6149e+002 35637 96809,96959,97031
 1.9000e+000 97189 -4.7501e+002 -2.2373e+002  3.0031e+002 35637 96887,96959,97163
 1.9000e+000 97597 -3.6084e+002 -4.0713e+002  3.6297e+002 35190 97450,97502,97476
 1.9000e+000 97574 -4.0044e+002 -5.2933e+002  4.5868e+002 35190 97372,97502,97450
 1.9000e+000 97551 -4.0720e+002 -6.1547e+002  4.3466e+002 35190 97372,97450,97398
 1.9000e+000 97528 -2.7754e+002 -5.3001e+002  3.6363e+002 35190 97398,97450,97424
 1.9000e+000 98054 -5.8912e+002 -7.2988e+002  4.9072e+002 34636 97806,97936,97858
 1.9000e+000 98031 -8.2983e+002 -4.4907e+002  4.3316e+002 34636 97780,97936,97806
 1.9000e+000 98008 -6.5980e+002 -6.5735e+002  2.3131e+002 34636 97806,97858,97832
 1.9000e+000 97985 -6.1523e+002 -6.6873e+002  5.2080e+002 34636 97884,97936,97910
 1.9000e+000 97962 -3.8635e+002 -4.5014e+002  3.8816e+002 34636 97858,97936,97884
 1.9000e+000 98530 -4.8291e+002  1.0096e+002  1.0624e+002 34068 98697,98184,98366
 1.9000e+000 98507 -1.0165e+001 -3.5567e+001  1.6875e+001 34068 98158,98366,98184
 1.9000e+000 98484 -7.0567e+002 -5.1876e+002  2.5198e+002 34068 98553,98262,98236
 1.9000e+000 98461 -1.1230e+003 -6.6361e+002  2.1016e+002 34068 98553,98236,98210
 1.9000e+000 98438 -6.4968e+002 -2.3297e+002  2.2012e+002 34068 98841,98625,98366
 1.9000e+000 98415 -7.4661e+002 -9.0584e+002  4.8191e+002 34068 98769,98288,98262
 1.9000e+000 98392 -8.6388e+002 -8.6485e+001  1.7973e+002 34068 98841,98366,98340
 1.9000e+000 98579 -8.3703e+002 -6.6221e+002  3.3373e+002 34068 98769,98262,98553
 1.9000e+000 98602 -6.6935e+002 -2.9991e+002  2.3536e+002 34068 98625,98314,98553
 1.9000e+000 98651 -5.8761e+002 -2.3881e+002  1.4386e+002 34068 98697,98366,98625
 1.9000e+000 98674 -7.3890e+002 -5.3018e+002  1.8039e+002 34068 98210,98625,98553
 1.9000e+000 98723 -6.1090e+002 -3.0730e+002  1.7995e+002 34068 98210,98184,98697
 1.9000e+000 98746 -5.7292e+002 -3.5274e+002  2.4909e+002 34068 98210,98697,98625
 1.9000e+000 98795 -4.7352e+002 -6.6742e+002  3.1310e+002 34068 98314,98288,98769
 1.9000e+000 98818 -6.2463e+002 -5.1187e+002  1.7535e+002 34068 98314,98769,98553
 1.9000e+000 98867 -8.5781e+002 -3.8443e+002  1.4203e+002 34068 98314,98625,98841
 1.9000e+000 98890 -1.0792e+003 -2.2564e+002  1.0984e+002 34068 98314,98841,98340
 1.9000e+000 99268 -9.1023e+002 -8.0588e+002  5.9419e+002 33450 99291,99098,99072
 1.9000e+000 99245 -9.8646e+002 -5.9168e+002  2.7674e+002 33450 99291,99072,99020
 1.9000e+000 99222 -1.3667e+003 -7.2735e+002  4.0939e+002 33450 99020,99072,99046
 1.9000e+000 99199 -7.5765e+002 -4.9527e+002  2.8254e+002 33450 99020,99150,99124
 1.9000e+000 99176 -7.6818e+002 -5.1229e+002  8.3221e+001 33450 98994,99150,99020
 1.9000e+000 99317 -4.3890e+002 -5.9412e+002  5.5265e+002 33450 99124,99098,99291
 1.9000e+000 99340 -8.3815e+002 -5.3272e+002  2.7213e+002 33450 99124,99291,99020
 1.9000e+000 99865 -5.7143e+002 -5.4568e+002  3.2579e+002 32944 100176,99960,99888
 1.9000e+000 99842 -6.1379e+002 -5.1599e+002  3.2889e+002 32944 100104,99888,99522
 1.9000e+000 99819 -6.0305e+002 -5.3099e+002  4.4403e+002 32944 100248,99960,99626
 1.9000e+000 99796 -5.3867e+002 -6.1171e+002  1.8132e+002 32944 100032,99652,99626
 1.9000e+000 99773 -4.9046e+002 -5.5506e+002  2.3318e+002 32944 100104,99522,99496
 1.9000e+000 99750 -4.2015e+002 -3.8363e+002  6.8065e+001 32944 99574,99626,99600
 1.9000e+000 99727 -5.3240e+002 -4.8974e+002  4.7444e+002 32944 100248,99626,99574
 1.9000e+000 99704 -3.0582e+002 -5.5582e+002  3.1049e+002 32944 99444,99496,99470
 1.9000e+000 99914 -5.5840e+002 -4.9263e+002  2.1323e+002 32944 100176,99888,100032
 1.9000e+000 99937 -6.3782e+002 -4.2270e+002  3.2763e+002 32944 99678,99888,99444
 1.9000e+000 99986 -6.0918e+002 -4.7105e+002  3.1419e+002 32944 99522,99888,99960
 1.9000e+000 100009 -6.7456e+002 -4.0350e+002  3.6129e+002 32944 99522,99960,99548
 1.9000e+000 100058 -6.4399e+002 -5.8321e+002  1.9004e+002 32944 99678,99652,100032
 1.9000e+000 100081 -6.7217e+002 -5.5509e+002  1.8906e+002 32944 99678,100032,99888
 1.9000e+000 100130 -4.0400e+002 -4.5233e+002  3.3051e+002 32944 99444,99888,100104
 1.9000e+000 100153 -3.2626e+002 -5.2757e+002  2.4720e+002 32944 99444,100104,99496
 1.9000e+000 100202 -6.3697e+002 -7.1729e+002  3.3312e+002 32944 99626,99960,100176
 1.9000e+000 100225 -6.5823e+002 -7.1781e+002  2.3325e+002 32944 99626,100176,100032
 1.9000e+000 100274 -7.1823e+002 -4.9535e+002  3.8456e+002 32944 99548,99960,100248
 1.9000e+000 100297 -6.5505e+002 -4.6228e+002  4.1312e+002 32944 99548,100248,99574
 1.9000e+000 100754 -3.0712e+002 -3.2353e+002  1.2756e+002 32369 100777,100584,100506
 1.9000e+000 100731 -2.9866e+002 -4.6466e+002  3.0707e+002 32369 100777,100506,100636
 1.9000e+000 100708 -4.8288e+002 -4.5352e+002  3.2354e+002 32369 100480,100636,100506
 1.9000e+000 100685 -5.8820e+002 -3.3905e+002  4.2121e+001 32369 100532,100584,100558
 1.9000e+000 100662 -3.7441e+002 -3.5266e+002  1.7849e+002 32369 100506,100584,100532
 1.9000e+000 100803 -3.1653e+002 -7.3246e+001  1.0277e+002 32369 100610,100584,100777
 1.9000e+000 100826 -2.8992e+002 -2.3141e+002  2.5776e+002 32369 100610,100777,100636
 1.9000e+000 101025 -6.4948e+002 -3.4132e+002  3.7874e+002 31857 100875,100927,100901
 1.9000e+000 101002 -9.3497e+002 -3.7299e+002  3.2797e+002 31857 100875,100953,100927
 1.9000e+000 100979 -9.9154e+002 -5.0555e+002  3.2814e+002 31857 100849,100953,100875
 1.9000e+000 101533 -4.7991e+002 -5.7714e+002  4.4530e+002 31253 101556,101314,101236
 1.9000e+000 101510 -6.6310e+002 -5.9893e+002  4.2050e+002 31253 101556,101236,101210
 1.9000e+000 101487 -5.9724e+002 -5.9651e+002  1.9542e+002 31253 101210,101392,101340
 1.9000e+000 101464 -3.7088e+002 -4.9968e+002  3.8363e+002 31253 101236,101288,101262
 1.9000e+000 101441 -4.5434e+002 -7.2706e+002  4.2685e+002 31253 101236,101314,101288
 1.9000e+000 101418 -6.3261e+002 -8.1083e+002  4.3784e+002 31253 101340,101392,101366
 1.9000e+000 101582 -5.3279e+002 -5.8450e+002  2.8978e+002 31253 101340,101314,101556
 1.9000e+000 101605 -7.1813e+002 -5.9206e+002  2.7212e+002 31253 101340,101556,101210
 1.9000e+000 101755  2.1224e+002  4.3607e+001  9.3811e+001 30519 101778,101654,101628
 1.9000e+000 101732 -7.2015e+001  2.4930e+001  7.9482e-001 30519 101850,101778,101628
 1.9000e+000 101804 -1.0740e+001 -8.6658e+001 -1.2557e+001 30519 101680,101654,101778
 1.9000e+000 101827 -1.6456e+002  4.2602e+001 -3.5646e+001 30519 101680,101778,101706
 1.9000e+000 101876 -8.8825e+001 -2.8972e+001 -2.1685e+001 30519 101706,101778,101850
 1.9000e+000 102561 -3.3390e+002 -5.4526e+002  2.6980e+002 29951 102656,102584,102270
 1.9000e+000 102538 -9.8504e+002 -1.1073e+003  1.9604e+002 29951 102584,102140,102374
 1.9000e+000 102515 -5.1968e+002 -1.1028e+003  5.5088e+002 29951 102728,102656,102270
 1.9000e+000 102492 -5.4755e+002 -1.3256e+003  5.4722e+002 29951 102728,102270,102244
 1.9000e+000 102469 -8.2190e+002 -2.3199e+002  3.8452e+002 29951 102800,102322,102296
 1.9000e+000 102446 -8.5147e+002 -5.2595e+002  1.3486e+002 29951 102166,102218,102192
 1.9000e+000 102423 -6.5374e+002 -5.8490e+002  5.2034e+001 29951 102166,102244,102218
 1.9000e+000 102400 -4.7175e+002 -4.9911e+002  3.1854e+002 29951 102322,102374,102348
 1.9000e+000 102610 -9.7225e+002 -4.5820e+002  1.1360e+002 29951 102296,102270,102584
 1.9000e+000 102633 -1.0829e+003 -4.8410e+002  2.3512e+002 29951 102800,102296,102584
 1.9000e+000 102682 -1.0834e+003 -9.7728e+002  4.6129e+002 29951 102140,102584,102656
 1.9000e+000 102705 -6.7066e+002 -9.0306e+002  6.7970e+002 29951 102140,102656,102166
 1.9000e+000 102754 -5.5106e+002 -8.5030e+002  6.4900e+002 29951 102166,102656,102728
 1.9000e+000 102777 -5.7296e+002 -1.0212e+003  6.0019e+002 29951 102166,102728,102244
 1.9000e+000 102826 -5.6157e+002 -5.0729e+002  5.0661e+002 29951 102374,102322,102800
 1.9000e+000 102849 -6.7892e+002 -5.4523e+002  4.1530e+002 29951 102374,102800,102584
 1.9000e+000 103048  1.2695e+002 -2.0124e+002  7.0577e+001 29454 102872,102924,102898
 1.9000e+000 103025 -5.7557e+001 -5.6215e+002  1.9961e+002 29454 102872,102976,102924
 1.9000e+000 103002 -2.0498e+002 -8.0785e+002  1.1770e+002 29454 102924,102976,102950
 1.9000e+000 103296 -9.5313e+002 -6.4329e+002  4.7531e+002 29064 103319,103175,103123
 1.9000e+000 103273 -1.3228e+003 -6.5878e+002  5.4641e+002 29064 103319,103123,103071
 1.9000e+000 103250 -5.8040e+002 -4.1190e+002  3.6887e+002 29064 103123,103175,103149
 1.9000e+000 103227 -9.7779e+002 -6.0023e+002  7.0028e+002 29064 103071,103123,103097
 1.9000e+000 103345 -6.1974e+002 -7.4288e+002  3.3033e+002 29064 103201,103175,103319
 1.9000e+000 103368 -1.0593e+003 -7.1314e+002  2.6448e+002 29064 103201,103319,103071
 1.9000e+000 104006 -6.7430e+002 -3.1748e+002  2.4810e+002 28603 104101,104029,103712
 1.9000e+000 103983 -6.2779e+002 -2.4721e+002  2.2043e+002 28603 104173,104029,103660
 1.9000e+000 103960 -8.0119e+002 -2.5455e+002  2.2667e+002 28603 104101,103712,103686
 1.9000e+000 103937 -5.2166e+002 -3.6020e+002  2.0525e+002 28603 104173,103660,103634
 1.9000e+000 103914 -6.8522e+002 -3.1495e+002  3.4315e+002 28603 103764,103816,103790
 1.9000e+000 103891 -5.2562e+002 -3.7119e+002  3.5974e+002 28603 103634,103842,103816
 1.9000e+000 103868 -5.2447e+002 -1.8390e+002  3.0957e+002 28603 103712,103764,103738
 1.9000e+000 104055 -6.5720e+002 -2.6115e+002  2.4586e+002 28603 103764,103712,104029
 1.9000e+000 104078 -6.3914e+002 -2.7736e+002  3.2221e+002 28603 103764,104029,103816
 1.9000e+000 104127 -8.3919e+002 -3.3515e+002  1.8864e+002 28603 103660,104029,104101
 1.9000e+000 104150 -1.0328e+003 -3.0446e+002  1.9779e+002 28603 103660,104101,103686
 1.9000e+000 104199 -7.1458e+002 -3.4679e+002  2.5715e+002 28603 103816,104029,104173
 1.9000e+000 104222 -5.9911e+002 -4.3471e+002  2.3687e+002 28603 103816,104173,103634
 1.9000e+000 104600 -3.9701e+002 -7.2927e+002  1.6559e+002 28348 104623,104378,104326
 1.9000e+000 104577 -3.2920e+002 -7.5461e+002  3.1681e+002 28348 104623,104326,104482
 1.9000e+000 104554 -3.2655e+002 -4.5393e+002  1.1123e+002 28348 104326,104378,104352
 1.9000e+000 104531 -4.1360e+002  1.9717e-002 -1.2156e+001 28348 104404,104456,104430
 1.9000e+000 104508 -5.3510e+002 -2.6806e+002  2.4645e+002 28348 104378,104456,104404
 1.9000e+000 104649 -3.3455e+002 -5.9370e+002  2.1523e+002 28348 104456,104378,104623
 1.9000e+000 104672 -2.4519e+002 -5.9564e+002  3.6990e+002 28348 104456,104623,104482
 1.9000e+000 104991 -7.1158e+002 -6.8284e+002  5.2401e+002 27951 104717,104847,104769
 1.9000e+000 104968 -1.9078e+002 -4.6740e+002  5.0943e+002 27951 104717,104873,104847
 1.9000e+000 104945 -2.3393e+002 -5.2295e+002  5.9463e+002 27951 104769,104847,104795
 1.9000e+000 104922  5.5690e+001  1.7343e+002  5.5894e+002 27951 104795,104847,104821
 1.9000e+000 104899 -7.0586e+002 -4.9420e+002  6.0616e+002 27951 104717,104769,104743
 1.9000e+000 105371 -8.6670e+002 -4.3450e+002  3.9052e+002 27447 105394,105201,105123
 1.9000e+000 105348 -1.1338e+003 -3.8569e+002  5.3426e+002 27447 105394,105123,105097
 1.9000e+000 105325 -1.3520e+003 -4.4564e+002  3.4109e+002 27447 105123,105201,105149
 1.9000e+000 105302 -7.3944e+002 -5.0551e+002  3.5000e+002 27447 105201,105253,105227
 1.9000e+000 105279 -7.8467e+002 -6.7226e+002  1.3101e+002 27447 105149,105201,105175
 1.9000e+000 105420 -7.1378e+002 -3.7492e+002  3.0598e+002 27447 105253,105201,105394
 1.9000e+000 105443 -9.4475e+002 -2.4884e+002  4.2376e+002 27447 105253,105394,105097
 1.9000e+000 105998 -6.8586e+002 -4.4097e+002  4.6199e+002 27100 106165,106021,105704
 1.9000e+000 105975 -3.3241e+002 -2.3146e+002  4.0723e+002 27100 106309,106021,105652
 1.9000e+000 105952 -1.1223e+003 -7.4288e+002  7.9535e+002 27100 106093,105808,105782
 1.9000e+000 105929 -6.6986e+002 -4.6492e+002  4.4514e+002 27100 106165,105704,105678
 1.9000e+000 105906 -3.2415e+002 -6.5120e+002  3.6941e+002 27100 106237,105730,105704
 1.9000e+000 105883 -3.0038e+002 -4.3504e+002  2.9314e+002 27100 106309,105652,105626
 1.9000e+000 105860 -1.5194e+002 -8.4971e+000  4.1450e+001 27100 105730,105782,105756
 1.9000e+000 106047 -6.1598e+002 -3.2366e+002  4.9941e+002 27100 106237,105704,106021
 1.9000e+000 106070 -6.6892e+002 -3.1636e+002  6.1448e+002 27100 106093,105782,106021
 1.9000e+000 106119 -4.7113e+002 -6.4627e+002  3.9837e+002 27100 105834,105808,106093
 1.9000e+000 106142 -5.4954e+002 -7.9736e+002  5.6031e+002 27100 106381,106093,106021
 1.9000e+000 106191 -6.6153e+002 -4.1218e+002  4.7761e+002 27100 105652,106021,106165
 1.9000e+000 106214 -6.3898e+002 -4.4515e+002  4.6379e+002 27100 105652,106165,105678
 1.9000e+000 106263 -7.0053e+001 -3.4087e+002  2.5869e+002 27100 105782,105730,106237
 1.9000e+000 106286 -4.1773e+002 -9.7285e+001  4.1299e+002 27100 105782,106237,106021
 1.9000e+000 106335 -4.6554e+002 -5.0156e+002  4.5243e+002 27100 106381,106021,106309
 1.9000e+000 106358 -3.1088e+002 -3.5800e+002  2.6925e+002 27100 105834,106309,105626
 1.9000e+000 106407 -3.6498e+002 -4.6345e+002  3.5309e+002 27100 105834,106093,106381
 1.9000e+000 106430 -3.6994e+002 -4.1298e+002  2.4117e+002 27100 105834,106381,106309
 1.9000e+000 106629 -6.6996e+001 -5.6740e+002  2.1991e+002 26688 106479,106557,106531
 1.9000e+000 106606 -2.0052e+001 -3.4470e+002  2.4181e+002 26688 106453,106557,106479
 1.9000e+000 106583 -2.7232e+002 -6.3949e+002  8.7420e+001 26688 106479,106531,106505
 1.9000e+000 107088 -3.1306e+002 -2.4453e+002  1.3365e+002 26248 107111,106918,106866
 1.9000e+000 107065 -3.3196e+002 -2.1308e+002  1.5143e+002 26248 107111,106866,106840
 1.9000e+000 107042 -2.7673e+002 -1.6247e+002  1.4804e+002 26248 106814,106970,106840
 1.9000e+000 107019 -3.0322e+002 -5.1102e+002  2.4500e+002 26248 106866,106918,106892
 1.9000e+000 106996 -4.7234e+002 -3.1915e+002  1.0898e+002 26248 106918,106970,106944
 1.9000e+000 107137 -3.4441e+002 -2.8739e+002  1.0257e+002 26248 106970,106918,107111
 1.9000e+000 107160 -3.3523e+002 -2.2546e+002  1.2384e+002 26248 106970,107111,106840
 1.9000e+000 107666 -8.7440e+002 -3.3783e+002  2.4137e+002 25908 107369,107499,107395
 1.9000e+000 107643 -1.1957e+003 -1.0028e+003  5.4407e+002 25908 107369,107525,107499
 1.9000e+000 107620 -7.2394e+002 -4.4885e+002  3.5688e+002 25908 107395,107473,107447
 1.9000e+000 107597 -6.0758e+002 -2.2894e+002  2.4217e+002 25908 107395,107499,107473
 1.9000e+000 107574 -1.2511e+003 -5.0817e+002  7.8365e+002 25908 107395,107447,107421
 1.9000e+000 107551 -4.2864e+002 -7.8516e+002  4.2433e+002 25908 107343,107525,107369
 1.9000e+000 108251 -6.9999e+002 -1.8627e+002  3.6757e+002 25454 108274,108006,107954
 1.9000e+000 108228 -5.6032e+002 -7.6859e+001  2.8042e+002 25454 108274,107954,108110
 1.9000e+000 108205 -5.1719e+002 -4.9225e+002  4.5345e+002 25454 108346,108032,108006
 1.9000e+000 108182 -8.6139e+002 -3.3567e+002  4.5354e+002 25454 107954,108006,107980
 1.9000e+000 108159 -2.9879e+002 -2.7849e+002  2.6552e+002 25454 107928,108110,107954
 1.9000e+000 108136 -9.7793e+002 -7.2872e+002  5.0083e+002 25454 108058,108110,108084
 1.9000e+000 108300 -6.7785e+002 -3.2819e+002  4.4949e+002 25454 108346,108006,108274
 1.9000e+000 108323 -6.0500e+002 -2.0417e+002  3.3120e+002 25454 108058,108274,108110
 1.9000e+000 108372 -3.2415e+002 -3.1814e+002  3.8057e+002 25454 108058,108032,108346
 1.9000e+000 108395 -4.9703e+002 -1.3627e+002  3.7379e+002 25454 108058,108346,108274
 1.9000e+000 108822 -4.8465e+002 -2.2727e+002  2.3892e+002 24943 108525,108681,108655
 1.9000e+000 108799 -5.9952e+002 -3.6674e+002  1.3430e+002 24943 108499,108681,108525
 1.9000e+000 108776 -2.5128e+002 -1.5341e+002  1.6399e+002 24943 108525,108655,108629
 1.9000e+000 108753 -4.2169e+002 -1.4784e+002  1.5043e+002 24943 108525,108629,108603
 1.9000e+000 108730 -8.5896e+002 -2.6078e+002  2.9327e+002 24943 108551,108603,108577
 1.9000e+000 108707 -8.3673e+002 -4.5457e+002  4.1839e+002 24943 108525,108603,108551
 1.9000e+000 109407 -4.3991e+001 -1.3494e+002  7.7054e+001 24745 109162,109214,109188
 1.9000e+000 109384 -2.9203e+002 -1.2262e+002  9.7260e+001 24745 109162,109266,109214
 1.9000e+000 109361 -3.4769e+002 -1.7510e+002  4.5825e+001 24745 109084,109266,109162
 1.9000e+000 109338 -6.0817e+002 -7.5650e+001  1.2727e+002 24745 109084,109162,109136
 1.9000e+000 109315 -1.3559e+002 -2.4186e+002  1.3725e+002 24745 109214,109266,109240
 1.9000e+000 109292 -4.5081e+002 -1.1892e+002  2.3128e+002 24745 109084,109136,109110
 1.9000e+000 109785 -1.0226e+003 -4.3833e+002  5.7381e+002 24341 109537,109615,109563
 1.9000e+000 109762 -1.0463e+002 -2.0971e+002  5.6165e+002 24341 109537,109641,109615
 1.9000e+000 109739 -6.9964e+002 -4.7908e+002  4.3784e+002 24341 109563,109615,109589
 1.9000e+000 109716 -4.2910e+002 -4.3579e+002  3.6922e+002 24341 109537,109667,109641
 1.9000e+000 109693 -2.5378e+002 -4.9742e+002  3.5249e+002 24341 109511,109667,109537
 1.9000e+000 110163 -1.0859e+003 -5.2738e+002  5.8090e+002 23837 110186,109967,109915
 1.9000e+000 110140 -9.8904e+002 -5.2122e+002  6.1585e+002 23837 110186,109915,109889
 1.9000e+000 110117 -4.1251e+002 -1.6167e+002  4.8121e+002 23837 109889,110045,109993
 1.9000e+000 110094 -9.6842e+002 -7.7855e+002  3.8892e+002 23837 109915,109967,109941
 1.9000e+000 110071 -5.2391e+002 -3.5949e+000  6.3833e+001 23837 109993,110045,110019
 1.9000e+000 110212 -1.0267e+003 -4.8263e+002  6.2207e+002 23837 109993,109967,110186
 1.9000e+000 110235 -9.8980e+002 -4.9181e+002  6.5959e+002 23837 109993,110186,109889
 1.9000e+000 110336 -5.7255e+002 -1.2258e+003  6.8312e+002 23433 110258,110310,110284
 1.9000e+000 110584 -7.1993e+002 -4.5413e+002  2.9062e+002 22829 110607,110411,110385
 1.9000e+000 110561 -9.0761e+002 -5.3587e+002  3.9427e+002 22829 110607,110385,110489
 1.9000e+000 110538 -5.7644e+002 -4.8475e+002  2.1526e+002 22829 110437,110489,110463
 1.9000e+000 110515 -7.0377e+002 -3.2859e+002  4.8202e+002 22829 110359,110489,110385
 1.9000e+000 110633 -7.1745e+002 -3.5944e+002  1.5493e+002 22829 110437,110411,110607
 1.9000e+000 110656 -8.2071e+002 -4.3473e+002  2.5467e+002 22829 110437,110607,110489
 1.9000e+000 110906 -1.4888e+003 -6.1491e+002  3.7514e+002 22432 110707,110759,110733
 1.9000e+000 110883 -9.2558e+002 -6.1356e+002  2.9284e+002 22432 110707,110785,110759
 1.9000e+000 110860 -9.7938e+002 -5.3316e+002  5.1824e+002 22432 110707,110811,110785
 1.9000e+000 110837 -1.1918e+003 -7.9973e+002  4.1254e+002 22432 110681,110811,110707
 1.9000e+000 111288 -8.6762e+001 -1.6228e+002  1.8601e+002 22142 111092,111144,111118
 1.9000e+000 111265 -3.9771e+002 -2.8979e+002  2.2184e+002 22142 111066,111144,111092
 1.9000e+000 111242 -3.7662e+002 -2.6802e+002  1.9040e+002 22142 111040,111144,111066
 1.9000e+000 111219 -7.0944e+002 -4.6563e+001  1.1283e+002 22142 111014,111144,111040
 1.9000e+000 111196 -4.9168e+002  1.5054e+001  1.6133e+002 22142 111014,111170,111144
 1.9000e+000 111389  4.8648e+001 -7.8797e+001  3.2451e+002 21830 111311,111363,111337
 1.9000e+000 111735 -9.3494e+002  3.4812e+001  6.8657e+002 21268 111758,111542,111438
 1.9000e+000 111712 -7.7076e+002  6.8802e+001  4.7476e+002 21268 111758,111438,111412
 1.9000e+000 111689 -2.7316e+002 -3.8579e+002  8.4291e+002 21268 111438,111542,111464
 1.9000e+000 111666 -2.6690e+001 -2.1665e+002  1.0559e+003 21268 111464,111542,111490
 1.9000e+000 111643 -1.8545e+003 -8.7074e+002  8.4947e+002 21268 111412,111594,111568
 1.9000e+000 111620  4.0561e+002  4.2980e+002  1.2950e+003 21268 111490,111542,111516
 1.9000e+000 111784 -9.6106e+002 -9.7829e+001  6.7733e+002 21268 111568,111542,111758
 1.9000e+000 111807 -9.5281e+002 -3.7521e+002  5.3282e+002 21268 111568,111758,111412
 1.9000e+000 111959 -8.5713e+002 -9.4407e+001  2.8494e+002 20864 111982,111910,111884
 1.9000e+000 111936 -8.1518e+002 -1.0610e+002  4.1231e+002 20864 112114,111832,111910
 1.9000e+000 112008 -8.4646e+002 -2.7168e+002  3.5294e+002 20864 112114,111910,111982
 1.9000e+000 112140 -8.0291e+002 -2.8943e+002  3.3900e+002 20864 111858,111832,112114
 1.9000e+000 112163 -8.5301e+002 -4.9556e+002  2.8616e+002 20864 111858,112114,111982
 1.9000e+000 112411 -8.3593e+001 -1.7508e+001  2.9717e+001 20324 112186,112290,112212
 1.9000e+000 112388 -2.3748e+001 -4.5366e+000  4.5255e+001 20324 112186,112316,112290
 1.9000e+000 112365  3.7194e+002 -2.6054e+002  5.1410e+001 20324 112212,112290,112264
 1.9000e+000 112342 -1.2847e+003 -5.4944e+002 -8.5522e+001 20324 112212,112264,112238
 1.9000e+000 112659 -1.4482e+002 -3.8676e+001  3.8715e+002 19920 112512,112564,112538
 1.9000e+000 112636 -5.0464e+002 -1.7613e+002  2.5008e+002 19920 112434,112564,112512
 1.9000e+000 112613 -5.2337e+002 -3.1594e+002  3.0497e+002 19920 112434,112512,112460
 1.9000e+000 112590 -5.6003e+002 -3.3552e+002  3.1701e+002 19920 112460,112512,112486
 1.9000e+000 112811 -1.1300e+002 -4.2773e+001  1.9056e+002 19630 112684,112736,112710
 1.9000e+000 112788  1.3629e+002 -2.3794e+002  6.8810e+001 19630 112684,112762,112736
 1.9000e+000 113012 -4.4566e+002 -1.6188e+002  4.2977e+002 19169 112862,112940,112888
 1.9000e+000 112989 -7.3675e+002 -5.7005e+002  2.9962e+002 19169 112836,112940,112862
 1.9000e+000 112966 -4.0899e+002 -5.0091e+002  3.7142e+002 19169 112888,112940,112914
 1.9000e+000 113213 -1.1594e+003 -4.5751e+002  4.9279e+002 18600 113037,113089,113063
 1.9000e+000 113190 -6.8750e+002 -2.5757e+002  3.7001e+002 18600 113037,113115,113089
 1.9000e+000 113167 -1.3909e+003 -8.4418e+002  7.6212e+002 18600 113037,113141,113115
 1.9000e+000 113485 -5.1606e+002 -1.8462e+002  4.8044e+002 18352 113260,113312,113286
 1.9000e+000 113462 -1.0320e+003 -5.6189e+002  6.4522e+002 18352 113260,113390,113312
 1.9000e+000 113439 -9.7151e+002 -1.6833e+002  4.4238e+002 18352 113312,113390,113364
 1.9000e+000 113416 -3.2937e+002 -1.0494e+002  4.7956e+002 18352 113312,113364,113338
 1.9000e+000 113757 -7.0228e+002 -2.6832e+002  4.5279e+002 17834 113558,113610,113584
 1.9000e+000 113734 -1.0464e+003 -5.7450e+002  6.1563e+002 17834 113532,113610,113558
 1.9000e+000 113711 -1.0507e+003 -6.6501e+002  4.9129e+002 17834 113532,113662,113610
 1.9000e+000 113688 -5.2194e+002 -1.4562e+002  7.0115e+002 17834 113610,113662,113636
 1.9000e+000 113958 -6.4883e+002 -2.5919e+002  3.4472e+002 17330 113782,113834,113808
 1.9000e+000 113935 -3.6766e+002 -2.0488e+002  2.5714e+002 17330 113782,113886,113834
 1.9000e+000 113912 -4.4430e+002 -2.0430e+002  1.6741e+002 17330 113834,113886,113860
 1.9000e+000 114110 -9.7665e+002 -3.5431e+002  6.3008e+002 16874 113983,114035,114009
 1.9000e+000 114087 -3.9822e+002 -8.8182e+002  5.9993e+002 16874 113983,114061,114035
 1.9000e+000 114465 -1.1621e+003 -4.8803e+002  2.4915e+002 16270 114240,114292,114266
 1.9000e+000 114442 -6.9620e+002 -1.4936e+002  9.6185e+001 16270 114240,114370,114292
 1.9000e+000 114419 -3.3970e+002 -1.3942e+002  1.9839e+002 16270 114292,114344,114318
 1.9000e+000 114396 -6.9067e+002 -3.1331e+002  1.1449e+002 16270 114292,114370,114344
 1.9000e+000 114566 -8.3073e+001  8.3073e+001  8.7170e+002 15834 114488,114540,114514
 1.9000e+000 114667 -6.4480e+002 -2.5129e+002  3.9695e+002 15155 114589,114641,114615
 1.9000e+000 114890 -4.9879e+002 -1.6951e+002  5.2805e+002 421 114766,114818,114792
 1.9000e+000 114867 -7.4860e+002 -6.4219e+002  4.2970e+002 421 114714,114818,114766
 1.9000e+000 114844 -1.0529e+003 -4.4196e+002  2.4015e+002 421 114714,114766,114740
 2.0000e+000 66553 -5.5424e+002 -2.3833e+002  2.9334e+002 66108 66354,66458,66432
 2.0000e+000 66530 -5.6644e+002 -2.3692e+002  1.9769e+002 66108 66328,66458,66354
 2.0000e+000 66507 -3.1588e+002 -2.3429e+002  1.9128e+002 66108 66354,66432,66406
 2.0000e+000 66484  1.3337e+002  7.6788e+001  3.5687e+002 66108 66354,66406,66380
 2.0000e+000 66951 -2.9551e+002 -1.2019e+002  2.0395e+002 65910 66703,66833,66807
 2.0000e+000 66928 -5.3103e+001 -8.6277e+001  2.4719e+002 65910 66677,66833,66703
 2.0000e+000 66905 -2.1946e+002 -5.9961e+002  3.4296e+002 65910 66729,66781,66755
 2.0000e+000 66882 -1.0175e+003 -4.1885e+002  3.2774e+002 65910 66729,66807,66781
 2.0000e+000 66859 -6.0507e+002 -5.7861e+001  1.6716e+002 65910 66703,66807,66729
 2.0000e+000 67150 -4.2187e+002 -1.7898e+002 -1.1445e+002 65712 67026,67078,67052
 2.0000e+000 67127 -1.4994e+002 -3.8286e+002 -5.3819e+001 65712 66974,67078,67026
 2.0000e+000 67104 -2.1226e+001 -3.2426e+002 -7.4203e+001 65712 66974,67026,67000
 2.0000e+000 67481 -1.2341e+003 -1.8546e+002  3.9723e+002 65422 67282,67360,67334
 2.0000e+000 67458 -5.4198e+002 -1.6181e+002  6.6595e+002 65422 67282,67386,67360
 2.0000e+000 67435 -3.4549e+002  1.8313e+002  3.5823e+002 65422 67282,67334,67308
 2.0000e+000 67412  1.7202e+002 -2.9355e+001  2.7229e+002 65422 67256,67386,67282
 2.0000e+000 68115 -1.8297e+002 -1.8990e+002  1.1727e+002 65018 67795,67925,67873
 2.0000e+000 68092 -2.4940e+002 -2.2382e+002  8.4719e+001 65018 67769,67925,67795
 2.0000e+000 68069 -1.6664e+002 -1.5069e+002  1.2457e+002 65018 67873,67925,67899
 2.0000e+000 68046 -3.4898e+002 -3.1634e+002  1.2548e+002 65018 67769,67951,67925
 2.0000e+000 68023 -3.2446e+002 -2.6997e+002  1.7999e+002 65018 67795,67873,67821
 2.0000e+000 68000 -3.8614e+002 -2.5619e+002  1.3266e+002 65018 67821,67873,67847
 2.0000e+000 67977 -4.1889e+002 -4.9711e+002  3.9575e+000 65018 67743,67951,67769
 2.0000e+000 68363 -3.1624e+002 -6.2657e+002  6.8480e+002 64820 68190,68242,68216
 2.0000e+000 68340 -7.1944e+002 -4.9730e+002  7.1704e+002 64820 68190,68268,68242
 2.0000e+000 68317 -4.0197e+002 -3.4462e+002  7.7022e+002 64820 68164,68268,68190
 2.0000e+000 68294 -1.4124e+003 -5.6327e+002  5.0696e+002 64820 68138,68268,68164
 2.0000e+000 68513 -6.2128e+002 -2.8020e+002  3.3083e+002 64366 68868,68536,68438
 2.0000e+000 68490 -3.6892e+002 -1.5450e+002  2.3177e+002 64366 68536,68412,68386
 2.0000e+000 68562 -8.0483e+002 -2.9428e+002  3.7352e+002 64366 68740,68536,68464
 2.0000e+000 68585 -5.5930e+002 -2.2332e+002  3.0141e+002 64366 68608,68536,68386
 2.0000e+000 68634 -6.5254e+002 -4.2088e+002  2.7547e+002 64366 68464,68536,68608
 2.0000e+000 68766 -6.0130e+002 -1.9933e+002  3.4124e+002 64366 68438,68536,68740
 2.0000e+000 68894 -5.6023e+002 -1.9686e+002  3.5781e+002 64366 68412,68536,68868
 2.0000e+000 69172 -2.5222e+002 -6.8743e+002  9.5595e+001 64168 69022,69074,69048
 2.0000e+000 69149 -1.0220e+003 -4.2546e+002  2.8177e+002 64168 68996,69074,69022
 2.0000e+000 69126 -1.1555e+003 -7.2930e+002  2.2559e+002 64168 68996,69100,69074
 2.0000e+000 69371 -4.9443e+002 -1.8899e+002  3.7274e+002 63970 69466,69394,69273
 2.0000e+000 69348 -1.4574e+002 -1.1940e+002  7.4079e+001 63970 69394,69247,69221
 2.0000e+000 69325 -9.8545e+002 -4.1255e+002  2.4721e+002 63970 69195,69299,69221
 2.0000e+000 69420 -8.1729e+002 -3.0891e+002  4.9815e+002 63970 69299,69273,69394
 2.0000e+000 69443 -4.4264e+002 -3.8298e+002  2.5842e+002 63970 69299,69394,69221
 2.0000e+000 69492 -5.0939e+002 -2.1584e+002  3.6685e+002 63970 69247,69394,69466
 2.0000e+000 69904 -2.6940e+001 -2.8466e+002  1.6905e+002 63680 69705,69783,69731
 2.0000e+000 69881  3.1275e+001 -2.0500e+002  1.0874e+002 63680 69679,69783,69705
 2.0000e+000 69858 -2.9195e+002 -4.0126e+002  2.0147e+002 63680 69679,69809,69783
 2.0000e+000 69835 -1.6028e+002 -1.8658e+002  1.7425e+002 63680 69731,69783,69757
 2.0000e+000 70054 -3.7743e+001 -3.6725e+002  2.3864e+002 63476 70077,69953,69927
 2.0000e+000 70031  6.5311e+001 -1.5133e+002  3.3811e+002 63476 70077,69927,70005
 2.0000e+000 70103 -1.9211e+002 -2.3069e+002  1.4710e+002 63476 69979,69953,70077
 2.0000e+000 70126 -1.0975e+002 -3.8748e+001  2.3085e+002 63476 69979,70077,70005
 2.0000e+000 70325 -1.3334e+003 -5.6341e+002  4.8447e+002 63278 70149,70227,70175
 2.0000e+000 70302 -7.2860e+002 -2.5781e+002  5.8741e+002 63278 70149,70253,70227
 2.0000e+000 70279 -1.5547e+003 -8.2299e+002  3.1843e+002 63278 70175,70227,70201
 2.0000e+000 70597 -5.0556e+002 -5.4751e+000  1.8380e+002 63080 70372,70476,70424
 2.0000e+000 70574 -3.3457e+002 -1.3486e+002  2.3370e+002 63080 70372,70502,70476
 2.0000e+000 70551 -7.2859e+002 -2.9714e+002  3.0849e+002 63080 70424,70476,70450
 2.0000e+000 70528 -1.1043e+003 -3.1013e+002  4.8901e+002 63080 70372,70424,70398
 2.0000e+000 70847 -1.0000e+002 -2.6681e+002  1.2231e+002 62740 70870,70648,70622
 2.0000e+000 70824 -2.1934e+002 -1.9458e+002  1.6351e+002 62740 70870,70622,70752
 2.0000e+000 70801 -8.5605e+001 -3.6426e+002  1.8040e+002 62740 70648,70726,70700
 2.0000e+000 70778 -1.0784e+002 -3.9190e+002  1.9020e+002 62740 70648,70700,70674
 2.0000e+000 70896 -2.0626e+002 -3.4439e+002  8.7983e+001 62740 70726,70648,70870
 2.0000e+000 70919 -2.5983e+002 -2.2796e+002  1.4837e+002 62740 70726,70870,70752
 2.0000e+000 71022 -9.1533e+001  9.1533e+001  9.1459e+002 62520 70944,70996,70970
 2.0000e+000 71223 -1.1986e+003 -4.4863e+002  6.9927e+002 62230 71073,71151,71099
 2.0000e+000 71200 -9.5763e+002 -4.3880e+002  6.1871e+002 62230 71047,71151,71073
 2.0000e+000 71177 -7.1622e+002 -9.0857e+002  5.7430e+002 62230 71099,71151,71125
 2.0000e+000 71861 -3.4938e+002 -5.3086e+002 -4.4369e+001 61712 71515,71697,71671
 2.0000e+000 71838 -4.5547e+002 -7.1183e+002  1.4646e+002 61712 71489,71697,71515
 2.0000e+000 71815 -1.3172e+003 -4.7945e+002  3.9605e+002 61712 71884,71541,71515
 2.0000e+000 71792 -8.7322e+002 -1.9319e+002  2.7026e+002 61712 71884,71515,71671
 2.0000e+000 71769 -3.0910e+002 -8.3209e+002  3.5942e+002 61712 71541,71619,71593
 2.0000e+000 71746 -3.1146e+002 -1.0240e+003  1.9671e+002 61712 71619,71671,71645
 2.0000e+000 71723 -1.1016e+003 -1.2479e+003  6.6349e+002 61712 71541,71593,71567
 2.0000e+000 71910 -9.1137e+002 -7.7261e+002  6.3305e+002 61712 71619,71541,71884
 2.0000e+000 71933 -6.3174e+002 -5.7697e+002  5.4280e+002 61712 71619,71884,71671
 2.0000e+000 72230 -5.9887e+002 -3.6770e+002  9.7387e+001 61208 72253,72060,72008
 2.0000e+000 72207 -5.7167e+002 -2.5263e+002  8.7245e+001 61208 72253,72008,71982
 2.0000e+000 72184 -6.3663e+002 -1.3715e+002  1.1086e+002 61208 71982,72112,72086
 2.0000e+000 72161 -1.1816e+003 -3.8298e+002  2.4245e+002 61208 72008,72060,72034
 2.0000e+000 72138 -4.5622e+002 -1.2719e+002  2.2739e+002 61208 71956,72112,71982
 2.0000e+000 72279 -5.9095e+002 -2.8856e+002  4.5719e+001 61208 72086,72060,72253
 2.0000e+000 72302 -5.9809e+002 -2.2282e+002  3.5507e+001 61208 72086,72253,71982
 2.0000e+000 72761 -6.1016e+002 -3.0321e+002  1.6322e+002 60804 72487,72617,72513
 2.0000e+000 72738 -5.1483e+002 -3.7215e+002  1.2088e+002 60804 72487,72643,72617
 2.0000e+000 72715 -2.2729e+002 -4.7980e+002  2.6966e+002 60804 72565,72617,72591
 2.0000e+000 72692 -5.2887e+002 -3.2901e+002  2.5796e+002 60804 72513,72617,72565
 2.0000e+000 72669 -4.8629e+002 -2.2746e+002  2.5569e+002 60804 72513,72565,72539
 2.0000e+000 72911 -9.1533e+001  9.1533e+001  9.1459e+002 60556 72784,72836,72810
 2.0000e+000 72888  6.9690e+002  3.1748e+002  6.0920e+002 60556 72784,72862,72836
 2.0000e+000 73468 -3.3977e+002 -3.1824e+002  2.1664e+002 60244 73491,73226,73200
 2.0000e+000 73445 -3.8762e+002 -2.7489e+002  2.7856e+002 60244 73563,73491,73200
 2.0000e+000 73422 -6.2399e+002 -1.6776e+002  2.7489e+002 60244 73563,73200,73174
 2.0000e+000 73399 -2.5984e+002 -3.5203e+002  1.7567e+002 60244 73226,73278,73252
 2.0000e+000 73376 -4.8038e+002 -3.3711e+002  1.9205e+002 60244 73122,73304,73278
 2.0000e+000 73353 -4.8452e+002 -5.4027e+002  2.5124e+002 60244 73096,73304,73122
 2.0000e+000 73330 -7.3425e+002 -2.6065e+002 -1.3893e+002 60244 73122,73174,73148
 2.0000e+000 73517 -4.9243e+002 -3.8487e+002  2.2791e+002 60244 73278,73226,73491
 2.0000e+000 73540 -4.6699e+002 -3.1352e+002  2.0297e+002 60244 73278,73491,73122
 2.0000e+000 73589 -7.2112e+002 -4.1069e+002  2.0745e+002 60244 73122,73491,73563
 2.0000e+000 73612 -9.4757e+002 -2.8784e+002  2.1759e+002 60244 73122,73563,73174
 2.0000e+000 73762 -4.9492e+002 -1.1568e+003  5.8616e+002 59875 73661,73713,73687
 2.0000e+000 73739 -8.0621e+002 -5.6492e+002  3.9548e+002 59875 73635,73713,73661
 2.0000e+000 74191 -2.6251e+002 -5.2227e+002  6.5733e+002 59478 74214,73894,73868
 2.0000e+000 74168 -6.0331e+002 -5.1315e+002  6.8768e+002 59478 74214,73868,74050
 2.0000e+000 74145 -5.7427e+002 -6.9574e+002  3.2910e+002 59478 73894,73946,73920
 2.0000e+000 74122 -5.0268e+002 -5.7433e+002  2.8837e+002 59478 73894,73998,73946
 2.0000e+000 74099 -1.4560e+003 -7.0134e+002  8.5990e+002 59478 73998,74050,74024
 2.0000e+000 74076 -6.4709e+002 -7.7682e+002  2.1329e+002 59478 73946,73998,73972
 2.0000e+000 74240 -5.7310e+002 -4.1955e+002  4.8194e+002 59478 73998,73894,74214
 2.0000e+000 74263 -9.0243e+002 -4.3203e+002  4.5766e+002 59478 73998,74214,74050
 2.0000e+000 74720 -5.9393e+002 -3.7852e+002  2.1837e+002 58774 74472,74602,74498
 2.0000e+000 74697 -5.3558e+002 -3.7083e+002  2.1968e+002 58774 74446,74602,74472
 2.0000e+000 74674 -6.4091e+002 -3.5618e+002  2.6594e+002 58774 74498,74576,74524
 2.0000e+000 74651 -5.6657e+002 -3.7722e+002  2.4109e+002 58774 74498,74602,74576
 2.0000e+000 74628 -6.9467e+002 -5.0958e+002  2.7742e+002 58774 74524,74576,74550
 2.0000e+000 75226 -5.3050e+002 -2.6053e+002  2.4911e+002 58270 74955,75085,75033
 2.0000e+000 75203 -3.3698e+002 -4.9071e+002  3.6720e+002 58270 74929,75085,74955
 2.0000e+000 75180 -3.8177e+002 -1.8758e+002  1.5765e+002 58270 75033,75085,75059
 2.0000e+000 75157 -5.2876e+002 -2.6849e+002  1.1442e+002 58270 74955,75007,74981
 2.0000e+000 75134 -2.8113e+002 -1.6620e+002  6.3682e+001 58270 74955,75033,75007
 2.0000e+000 75111 -7.5008e+001 -5.8780e+002  2.0698e+002 58270 74903,75085,74929
 2.0000e+000 75425 -4.4365e+002 -2.0295e+002  1.9075e+002 57830 75448,75301,75249
 2.0000e+000 75402 -3.1504e+002 -6.0873e+000  9.8782e+001 57830 75448,75249,75353
 2.0000e+000 75379 -4.1223e+002 -6.6618e+002  1.7261e+002 57830 75520,75301,75275
 2.0000e+000 75474 -4.2773e+002 -3.2541e+002  3.1876e+002 57830 75327,75301,75448
 2.0000e+000 75497 -3.5594e+002 -2.3293e+002  2.3054e+002 57830 75327,75448,75353
 2.0000e+000 75546 -2.6683e+002 -2.0313e+002  5.1613e+001 57830 75249,75301,75520
 2.0000e+000 76261 -2.8451e+002 -4.0485e+002  2.6778e+002 57426 76284,76097,76071
 2.0000e+000 76238 -2.5823e+002 -3.2563e+002  2.8954e+002 57426 75889,76097,75915
 2.0000e+000 76215 -4.1350e+002 -4.6721e+002  2.4855e+002 57426 76428,76284,76071
 2.0000e+000 76192 -3.1575e+002 -4.2565e+002  1.7603e+002 57426 76356,75941,75915
 2.0000e+000 76169 -4.2882e+002 -4.0066e+002  2.2782e+002 57426 76428,76071,76019
 2.0000e+000 76146 -4.4586e+002 -4.4284e+002  2.2946e+002 57426 76019,76071,76045
 2.0000e+000 76123 -3.9321e+002 -3.8146e+002  3.1607e+002 57426 75967,76019,75993
 2.0000e+000 76310 -3.2895e+002 -5.1497e+002  2.3101e+002 57426 75915,76097,76284
 2.0000e+000 76333 -3.3002e+002 -4.5212e+002  1.8257e+002 57426 76356,75915,76284
 2.0000e+000 76382 -3.5452e+002 -3.8840e+002  1.9930e+002 57426 75967,75941,76356
 2.0000e+000 76405 -3.6126e+002 -4.0481e+002  2.0150e+002 57426 75967,76356,76284
 2.0000e+000 76454 -3.6213e+002 -4.1223e+002  2.2709e+002 57426 75967,76284,76428
 2.0000e+000 76477 -4.1480e+002 -3.7881e+002  2.2025e+002 57426 75967,76428,76019
 2.0000e+000 76953 -3.8640e+002 -7.6905e+002  4.3466e+002 56908 76976,76711,76685
 2.0000e+000 76930 -4.0274e+002 -7.8087e+002  3.5459e+002 56908 77048,76976,76685
 2.0000e+000 76907 -7.4294e+002 -8.2121e+002  5.0759e+002 56908 77048,76685,76633
 2.0000e+000 76884 -1.1540e+003 -1.2361e+003  8.0221e+002 56908 76711,76789,76763
 2.0000e+000 76861 -6.0885e+002 -4.6719e+002  2.7938e+002 56908 76581,76789,76607
 2.0000e+000 76838 -1.1520e+003 -9.2042e+002  2.9103e+002 56908 76711,76763,76737
 2.0000e+000 76815 -1.5857e+003 -1.3382e+003  8.6077e+002 56908 76633,76685,76659
 2.0000e+000 77002 -3.1158e+002 -7.5192e+002  4.8514e+002 56908 76789,76711,76976
 2.0000e+000 77025 -4.2808e+002 -4.7355e+002  2.3057e+002 56908 76789,76976,76607
 2.0000e+000 77074 -9.3756e+002 -7.5315e+002  3.4417e+002 56908 76607,76976,77048
 2.0000e+000 77097 -1.1238e+003 -6.4847e+002  4.7780e+002 56908 76607,77048,76633
 2.0000e+000 77475 -4.8115e+002 -6.9571e+002  4.4902e+002 56546 77570,77498,77279
 2.0000e+000 77452 -3.6798e+002 -8.3142e+002  5.9452e+002 56546 77498,77227,77357
 2.0000e+000 77429 -5.4233e+002 -7.6477e+002  5.0256e+002 56546 77570,77279,77253
 2.0000e+000 77406 -7.9453e+002 -1.0152e+003  6.0469e+002 56546 77201,77357,77227
 2.0000e+000 77383 -6.0743e+002 -7.1792e+002  2.5986e+002 56546 77279,77331,77305
 2.0000e+000 77524 -4.1255e+002 -3.9413e+002  4.3251e+002 56546 77331,77279,77498
 2.0000e+000 77547 -3.0016e+002 -6.0797e+002  6.6436e+002 56546 77331,77498,77357
 2.0000e+000 77596 -5.0754e+002 -6.9334e+002  5.9907e+002 56546 77227,77498,77570
 2.0000e+000 77619 -6.1750e+002 -9.2433e+002  6.5536e+002 56546 77227,77570,77253
 2.0000e+000 77818 -5.8904e+002 -5.4493e+002  4.7483e+002 56042 77841,77694,77668
 2.0000e+000 77795 -5.9277e+002 -5.2098e+002  3.3634e+002 56042 77841,77668,77746
 2.0000e+000 77772 -6.7125e+002 -9.7106e+002  3.0384e+002 56042 77642,77746,77668
 2.0000e+000 77867 -6.3521e+002 -6.5731e+002  4.7798e+002 56042 77720,77694,77841
 2.0000e+000 77890 -6.3386e+002 -6.2069e+002  3.3672e+002 56042 77720,77841,77746
 2.0000e+000 78349 -5.6722e+002 -1.2910e+002  2.2322e+002 55538 78075,78127,78101
 2.0000e+000 78326 -7.0097e+002 -3.3037e+002  1.2512e+002 55538 78075,78205,78127
 2.0000e+000 78303 -4.0436e+002 -9.9416e+001  3.9066e+000 55538 78075,78231,78205
 2.0000e+000 78280 -5.8388e+002 -5.3216e+002  3.4203e+002 55538 78127,78179,78153
 2.0000e+000 78257 -4.8436e+002 -3.1047e+002  1.2536e+002 55538 78127,78205,78179
 2.0000e+000 78806 -3.3166e+002 -4.6620e+002  1.2582e+002 55034 78829,78636,78610
 2.0000e+000 78783 -3.9943e+002 -4.7449e+002  1.4946e+002 55034 78901,78829,78610
 2.0000e+000 78760 -3.5248e+002 -5.0212e+002  1.8136e+002 55034 78901,78610,78584
 2.0000e+000 78737 -5.1773e+002 -4.0725e+002  1.4733e+002 55034 78558,78688,78662
 2.0000e+000 78714 -6.2110e+002 -4.5776e+002  4.2375e+002 55034 78532,78688,78558
 2.0000e+000 78855 -4.0550e+002 -4.9706e+002  1.0742e+002 55034 78662,78636,78829
 2.0000e+000 78878 -4.3551e+002 -4.4523e+002  1.7204e+002 55034 78662,78829,78558
 2.0000e+000 78927 -3.5493e+002 -4.0917e+002  1.7896e+002 55034 78558,78829,78901
 2.0000e+000 78950 -3.3182e+002 -4.3816e+002  2.0920e+002 55034 78558,78901,78584
 2.0000e+000 79407 -2.6435e+002 -1.6103e+002  2.4522e+002 54430 79430,79237,79159
 2.0000e+000 79384 -3.6271e+002 -3.6790e+002  8.5556e+001 54430 79430,79159,79133
 2.0000e+000 79361 -2.0946e+002 -3.0846e+002  1.3608e+002 54430 79237,79289,79263
 2.0000e+000 79338 -3.7164e+002 -2.1670e+002  2.2116e+002 54430 79185,79237,79211
 2.0000e+000 79315 -5.0184e+002 -2.2784e+002  2.8449e+002 54430 79159,79237,79185
 2.0000e+000 79456 -2.5046e+002 -3.9379e+002  1.2338e+002 54430 79289,79237,79430
 2.0000e+000 79479 -3.0428e+002 -6.4999e+002  3.5779e+000 54430 79289,79430,79133
 2.0000e+000 79936 -2.4680e+002 -1.6915e+002  2.5834e+002 53919 79662,79766,79688
 2.0000e+000 79913 -8.4292e+002 -4.2436e+002  4.6994e+002 53919 79662,79818,79766
 2.0000e+000 79890 -1.1338e+003 -5.1232e+002  3.7920e+001 53919 79766,79818,79792
 2.0000e+000 79867 -6.0498e+002 -3.5110e+002  3.2190e+002 53919 79714,79766,79740
 2.0000e+000 79844 -5.6423e+002 -3.3655e+002  3.2503e+002 53919 79688,79766,79714
 2.0000e+000 80037 -1.9308e+002 -5.0464e+002  5.0770e+002 53671 79959,80011,79985
 2.0000e+000 80405 -6.2950e+001 -2.2125e+002  5.0586e+001 53267 80108,80264,80238
 2.0000e+000 80382 -7.2248e+001 -1.0158e+002  8.4830e+001 53267 80082,80264,80108
 2.0000e+000 80359 -4.6737e+001 -4.0863e+002  2.8186e+002 53267 80108,80238,80134
 2.0000e+000 80336  5.8079e-001 -1.3372e+002  1.8674e+002 53267 80134,80212,80186
 2.0000e+000 80313 -3.2954e+002 -3.7678e+002  3.5884e+002 53267 80134,80238,80212
 2.0000e+000 80290  1.1989e+002 -2.9092e+002  6.4315e+001 53267 80134,80186,80160
 2.0000e+000 80915 -4.3060e+002 -6.2021e+002  9.1303e+001 52969 80644,80774,80748
 2.0000e+000 80892 -4.1000e+002 -2.3403e+002 -5.7207e+001 52969 80618,80774,80644
 2.0000e+000 80869 -5.8316e+002 -8.4841e+002 -1.7107e+001 52969 80644,80748,80670
 2.0000e+000 80846 -6.1560e+002 -2.4005e+002 -2.4312e+001 52969 80592,80774,80618
 2.0000e+000 80823 -1.2905e+003 -1.0138e+003  1.8527e+002 52969 80670,80722,80696
 2.0000e+000 80800 -5.4193e+002 -7.5040e+002 -9.3079e+000 52969 80670,80748,80722
 2.0000e+000 81266  1.4401e+002 -1.6546e+002  8.7476e+001 52565 81041,81145,81067
 2.0000e+000 81243 -4.5123e+000 -4.6463e+002  1.6133e+002 52565 81041,81171,81145
 2.0000e+000 81220 -4.9340e+002 -1.3962e+003  3.7156e+002 52565 81067,81119,81093
 2.0000e+000 81197  2.1982e+002  3.8542e+001  1.1816e+002 52565 81067,81145,81119
 2.0000e+000 81723 -2.4454e+002 -9.1296e+001  1.1842e+002 51904 81449,81527,81475
 2.0000e+000 81700 -2.0089e+002 -3.5334e+001  9.3515e+001 51904 81449,81579,81527
 2.0000e+000 81677 -5.2507e+002 -2.7519e+002  2.0339e+002 51904 81449,81605,81579
 2.0000e+000 81654 -2.5213e+002 -3.3551e+001  8.3830e+001 51904 81527,81579,81553
 2.0000e+000 81631 -3.0904e+002 -7.3208e+001  6.7774e+001 51904 81475,81527,81501
 2.0000e+000 82327 -6.0308e+002 -5.5814e+002  4.0014e+002 51321 82422,82350,82036
 2.0000e+000 82304 -6.3678e+002 -4.4831e+002  3.9003e+002 51321 82494,82350,81958
 2.0000e+000 82281 -6.0121e+002 -5.5015e+002  3.8710e+002 51321 82422,82036,82010
 2.0000e+000 82258 -5.8904e+002 -4.2206e+002  3.7136e+002 51321 82494,81958,81932
 2.0000e+000 82235 -6.5727e+002 -3.7304e+002  2.5716e+002 51321 82062,82114,82088
 2.0000e+000 82212 -1.3763e+003 -8.4319e+002  5.6088e+002 51321 81932,82140,82114
 2.0000e+000 82189 -6.1381e+002 -1.8975e+002  3.2818e+002 51321 81958,82010,81984
 2.0000e+000 82166 -4.4493e+002 -5.0016e+002  2.9208e+002 51321 81906,82140,81932
 2.0000e+000 82376 -6.1385e+002 -7.1333e+002  3.9705e+002 51321 82062,82036,82350
 2.0000e+000 82399 -6.5478e+002 -5.3986e+002  3.7480e+002 51321 82062,82350,82114
 2.0000e+000 82448 -5.8222e+002 -5.5913e+002  3.8815e+002 51321 81958,82350,82422
 2.0000e+000 82471 -5.7862e+002 -5.5084e+002  3.7525e+002 51321 81958,82422,82010
 2.0000e+000 82520 -6.3099e+002 -4.5905e+002  4.1603e+002 51321 82114,82350,82494
 2.0000e+000 82543 -6.2578e+002 -4.5473e+002  4.0110e+002 51321 82114,82494,81932
 2.0000e+000 83019 -6.3574e+002 -1.1669e+003 -1.0164e+001 50817 82673,82751,82699
 2.0000e+000 82996 -5.0339e+002 -7.3765e+002  1.5358e+002 50817 83042,82673,82855
 2.0000e+000 82973 -5.6482e+002 -5.4574e+002  1.2406e+002 50817 83042,82855,82803
 2.0000e+000 82950 -9.0856e+002 -4.8393e+002  2.4255e+002 50817 82751,82803,82777
 2.0000e+000 82927 -5.5576e+002 -6.7420e+002  2.2774e+002 50817 82647,82855,82673
 2.0000e+000 82904 -8.1535e+002 -6.3542e+002  3.3132e+002 50817 82803,82855,82829
 2.0000e+000 82881 -3.8817e+002 -6.3722e+002 -7.7438e+001 50817 82699,82751,82725
 2.0000e+000 83068 -4.2511e+002 -5.9281e+002  5.6976e+001 50817 82751,82673,83042
 2.0000e+000 83091 -5.5118e+002 -4.4508e+002  5.2962e+001 50817 82751,83042,82803
 2.0000e+000 83290 -6.4629e+002 -2.2726e+002  3.8022e+002 50356 83313,83166,83140
 2.0000e+000 83267 -7.0783e+002 -5.3155e+002  3.0149e+002 50356 83515,83313,83140
 2.0000e+000 83244 -7.9535e+002 -5.5166e+002  1.7189e+002 50356 83515,83140,83385
 2.0000e+000 83339 -7.7345e+002 -4.6217e+002  4.3049e+002 50356 83192,83166,83313
 2.0000e+000 83362 -5.4699e+002 -4.8272e+002  3.6548e+002 50356 83192,83313,83218
 2.0000e+000 83411 -3.4469e+002 -3.4373e+002  2.8642e+002 50356 83114,83218,83385
 2.0000e+000 83541 -4.9782e+002 -4.8280e+002  3.1538e+002 50356 83218,83313,83515
 2.0000e+000 83564 -5.1687e+002 -4.4274e+002  2.0481e+002 50356 83218,83515,83385
 2.0000e+000 83893 -5.9152e+002 -5.2880e+002  1.3506e+002 49552 83720,83798,83746
 2.0000e+000 83870 -3.8307e+002 -8.8814e+001  1.9613e+002 49552 83694,83798,83720
 2.0000e+000 83847 -2.3976e+002 -2.2103e+002  1.8146e+002 49552 83668,83798,83694
 2.0000e+000 83824 -1.1900e+003 -3.2803e+002 -7.2875e+001 49552 83746,83798,83772
 2.0000e+000 84141 -8.1204e+002 -5.2861e+002  4.1914e+002 49212 84164,84020,83942
 2.0000e+000 84118 -7.6587e+002 -4.0652e+002  4.3915e+002 49212 84164,83942,83916
 2.0000e+000 84095 -5.0149e+002 -6.8140e+002  3.1199e+002 49212 83942,84020,83968
 2.0000e+000 84072 -4.5016e+002 -3.8195e+001  1.4186e+002 49212 83968,84020,83994
 2.0000e+000 84190 -8.2725e+002 -5.0194e+002  3.5009e+002 49212 84046,84020,84164
 2.0000e+000 84213 -7.9119e+002 -4.2391e+002  3.7286e+002 49212 84046,84164,83916
 2.0000e+000 84800 -1.9045e+002 -4.3753e+002  2.6842e+002 48865 84503,84633,84555
 2.0000e+000 84777 -3.8374e+002 -7.1929e+002  1.8091e+002 48865 84503,84659,84633
 2.0000e+000 84754 -3.1905e+002 -8.0356e+002  2.4579e+002 48865 84555,84633,84581
 2.0000e+000 84731 -2.9632e+002 -1.3524e+003  5.4658e+002 48865 84581,84633,84607
 2.0000e+000 84708 -6.5508e+002 -5.5275e+002  1.8183e+002 48865 84503,84555,84529
 2.0000e+000 84685 -4.0751e+002 -6.6405e+002  2.7436e+002 48865 84477,84659,84503
 2.0000e+000 85355 -2.9999e+002 -2.5593e+002  3.5851e+001 48461 85378,85035,85009
 2.0000e+000 85332 -5.3541e+002 -4.4651e+002  1.3624e+002 48461 85378,85009,85165
 2.0000e+000 85309 -4.7744e+002 -4.5915e+002  2.2261e+002 48461 85450,85061,85035
 2.0000e+000 85286 -5.6786e+002 -4.4744e+002  1.1415e+002 48461 85009,85191,85165
 2.0000e+000 85263 -4.6801e+002 -4.1922e+002  3.2227e+002 48461 85087,85165,85113
 2.0000e+000 85240 -2.6323e+002 -5.6107e+002 -5.7153e+001 48461 84983,85191,85009
 2.0000e+000 85217 -4.0282e+002 -5.4136e+002  2.1792e+002 48461 85113,85165,85139
 2.0000e+000 85404 -4.8760e+002 -3.3997e+002  1.5825e+002 48461 85450,85035,85378
 2.0000e+000 85427 -5.5228e+002 -4.0944e+002  1.6045e+002 48461 85087,85378,85165
 2.0000e+000 85476 -5.0871e+002 -6.2533e+002  2.5642e+002 48461 85087,85061,85450
 2.0000e+000 85499 -5.4039e+002 -5.5678e+002  1.8039e+002 48461 85087,85450,85378
 2.0000e+000 86084 -2.0203e+002 -4.7859e+002  2.2478e+002 48057 86323,86107,85787
 2.0000e+000 86061 -2.7501e+002 -5.2619e+002  2.7743e+002 48057 86107,85761,85943
 2.0000e+000 86038 -4.0582e+002 -4.0246e+002  2.1502e+002 48057 86251,86179,85891
 2.0000e+000 86015 -4.0166e+002 -3.4016e+002  1.3494e+002 48057 86251,85891,85839
 2.0000e+000 85992 -3.4227e+002 -3.4887e+002  2.6605e+002 48057 85891,85943,85917
 2.0000e+000 85969 -4.8346e+002 -2.6815e+002  1.8157e+002 48057 85839,85891,85865
 2.0000e+000 86133 -2.1600e+002 -4.8340e+002  1.8698e+002 48057 85813,85787,86107
 2.0000e+000 86156 -3.1501e+002 -4.8763e+002  1.8566e+002 48057 86179,85813,86107
 2.0000e+000 86205 -3.1339e+002 -3.3557e+002  2.4807e+002 48057 85943,85891,86179
 2.0000e+000 86228 -1.9704e+002 -3.7372e+002  2.4068e+002 48057 85943,86179,86107
 2.0000e+000 86277 -2.6325e+002 -3.2989e+002  1.9000e+002 48057 85813,86179,86251
 2.0000e+000 86300 -3.3536e+002 -3.0385e+002  1.2091e+002 48057 85813,86251,85839
 2.0000e+000 86349 -1.4528e+002 -4.4134e+002  2.4083e+002 48057 85761,86107,86323
 2.0000e+000 86855 -2.6942e+002 -4.2934e+002  2.7407e+002 47545 86878,86584,86558
 2.0000e+000 86832 -3.8274e+002 -4.8433e+002  2.4336e+002 47545 86950,86878,86558
 2.0000e+000 86809 -4.2691e+002 -4.6125e+002  2.4676e+002 47545 86950,86558,86532
 2.0000e+000 86786 -2.8014e+002 -4.2629e+002  2.9112e+002 47545 86584,86662,86610
 2.0000e+000 86763 -3.7716e+002 -3.5560e+002  1.3910e+002 47545 86532,86714,86688
 2.0000e+000 86740 -3.6453e+002 -1.8669e+002  2.7396e+002 47545 86610,86662,86636
 2.0000e+000 86904 -3.2323e+002 -5.2498e+002  2.5146e+002 47545 86662,86584,86878
 2.0000e+000 86927 -2.3290e+002 -4.7120e+002  2.1620e+002 47545 86662,86878,86688
 2.0000e+000 86976 -3.0526e+002 -4.6076e+002  1.9543e+002 47545 86688,86878,86950
 2.0000e+000 86999 -3.8426e+002 -4.7731e+002  2.1017e+002 47545 86688,86950,86532
 2.0000e+000 87328 -6.1408e+002 -2.0598e+002  1.9478e+002 47048 87155,87207,87181
 2.0000e+000 87305 -3.1766e+002 -1.7687e+002  1.8407e+002 47048 87129,87207,87155
 2.0000e+000 87282 -6.5689e+002 -2.7678e+002  1.6934e+002 47048 87103,87207,87129
 2.0000e+000 87259 -9.9655e+002 -1.2426e+003 -7.1687e+001 47048 87103,87233,87207
 2.0000e+000 87576 -2.4779e+002 -3.4994e+002  3.4676e+002 46701 87599,87429,87377
 2.0000e+000 87553 -3.9014e+002 -3.1813e+002  2.8192e+002 46701 87599,87377,87481
 2.0000e+000 87530 -3.1314e+002 -3.2458e+002  2.3175e+002 46701 87351,87481,87377
 2.0000e+000 87507 -4.0175e+002 -4.6054e+002  4.1632e+002 46701 87377,87429,87403
 2.0000e+000 87625 -3.2652e+002 -3.4170e+002  2.3655e+002 46701 87455,87429,87599
 2.0000e+000 87648 -6.1020e+002 -3.6578e+002  2.0077e+002 46701 87455,87599,87481
 2.0000e+000 87798  1.4615e+002  2.5287e+000 -2.4765e+001 46239 87697,87749,87723
 2.0000e+000 87775  2.0826e+002 -7.4295e+000  1.0610e+002 46239 87671,87749,87697
 2.0000e+000 88308 -8.0700e+002 -7.7281e+002  1.5687e+002 45735 88089,88167,88141
 2.0000e+000 88285 -5.8205e+002 -3.3676e+002  2.3641e+002 45735 88011,88167,88089
 2.0000e+000 88262 -4.1523e+002 -3.1199e+002  1.9193e+002 45735 87985,88167,88011
 2.0000e+000 88239 -5.2735e+002 -1.3567e+003  4.2975e+002 45735 88011,88089,88063
 2.0000e+000 88216 -9.5811e+002 -8.1701e+002  2.0777e+002 45735 88089,88141,88115
 2.0000e+000 88193 -9.0468e+002 -2.0610e+003  1.4006e+002 45735 88011,88063,88037
 2.0000e+000 88686 -6.1892e+002 -3.6004e+002  3.9131e+002 45316 88438,88516,88490
 2.0000e+000 88663 -5.6348e+002  7.4379e+001  5.1529e+002 45316 88438,88542,88516
 2.0000e+000 88640 -3.0166e+002 -6.1381e+002  6.6148e+002 45316 88438,88568,88542
 2.0000e+000 88617 -8.4304e+002 -6.4370e+002  2.9203e+002 45316 88438,88490,88464
 2.0000e+000 88594 -5.6254e+002 -6.8870e+002  6.4117e+002 45316 88412,88568,88438
 2.0000e+000 88934 -1.2337e+003 -1.2036e+003  6.9752e+002 44812 88957,88735,88709
 2.0000e+000 88911 -6.3172e+002 -7.7686e+002  2.5117e+002 44812 88957,88709,88839
 2.0000e+000 88888 -6.5367e+002 -4.2483e+002  9.2525e+001 44812 89029,88787,88761
 2.0000e+000 88865 -6.4282e+002 -4.9375e+002  2.0097e+002 44812 88787,88839,88813
 2.0000e+000 88983 -2.6358e+002 -7.0671e+002  4.2979e+002 44812 88761,88735,88957
 2.0000e+000 89006 -4.9149e+002 -5.6068e+002  6.8906e+001 44812 89029,88761,88957
 2.0000e+000 89055 -6.3428e+002 -5.7494e+002  1.5822e+002 44812 88839,88787,89029
 2.0000e+000 89078 -6.2386e+002 -8.6311e+002  1.8655e+002 44812 88839,89029,88957
 2.0000e+000 89228 -2.4771e+002 -8.4558e+002  3.3114e+002 44408 89127,89179,89153
 2.0000e+000 89205  7.9967e+001 -1.1848e+002  2.4148e+001 44408 89101,89179,89127
 2.0000e+000 89787 -6.3625e+002 -3.7258e+002  3.3052e+002 43854 89810,89545,89519
 2.0000e+000 89764 -6.9208e+002 -5.0271e+002  3.1128e+002 43854 89810,89519,89467
 2.0000e+000 89741 -6.4387e+002 -6.9753e+002  3.0139e+002 43854 89954,89882,89597
 2.0000e+000 89718 -6.5833e+002 -7.1048e+002  3.1040e+002 43854 89954,89597,89571
 2.0000e+000 89695 -3.5877e+002 -4.2415e+002  2.8911e+002 43854 89415,89623,89467
 2.0000e+000 89672 -2.3554e+002 -2.9421e+002  2.0541e+002 43854 89467,89519,89493
 2.0000e+000 89649 -2.1498e+002 -3.2666e+002  2.3010e+002 43854 89415,89467,89441
 2.0000e+000 89836 -6.5644e+002 -3.8446e+002  3.6046e+002 43854 89882,89545,89810
 2.0000e+000 89859 -3.9257e+002 -4.5945e+002  2.6687e+002 43854 89623,89810,89467
 2.0000e+000 89908 -6.3170e+002 -7.6114e+002  4.0249e+002 43854 89623,89597,89882
 2.0000e+000 89931 -6.3339e+002 -7.3037e+002  3.7705e+002 43854 89623,89882,89810
 2.0000e+000 89980 -7.1964e+002 -6.6233e+002  4.5654e+002 43854 89545,89882,89954
 2.0000e+000 90003 -8.0111e+002 -7.9389e+002  4.9131e+002 43854 89545,89954,89571
 2.0000e+000 90251 -2.4604e+002 -3.2850e+002  2.4416e+002 43492 90026,90078,90052
 2.0000e+000 90228 -6.3563e+002 -3.8917e+002  1.6056e+002 43492 90274,90026,90156
 2.0000e+000 90205 -6.2094e+002 -5.0943e+002  1.5310e+002 43492 90346,90274,90156
 2.0000e+000 90182 -6.5725e+002 -7.3090e+002  5.5476e+002 43492 90346,90156,90130
 2.0000e+000 90300 -3.4323e+002 -5.2918e+002  2.7403e+002 43492 90078,90026,90274
 2.0000e+000 90323 -7.2214e+002 -6.4360e+002  2.6811e+002 43492 90078,90274,90104
 2.0000e+000 90372 -1.0866e+003 -8.1145e+002  4.2635e+002 43492 90104,90274,90346
 2.0000e+000 90395 -1.1739e+003 -1.1286e+003  8.4594e+002 43492 90104,90346,90130
 2.0000e+000 90594  3.6017e+000 -3.0416e+002  2.6579e+002 43052 90418,90496,90444
 2.0000e+000 90571 -5.7127e+002 -7.3925e+002  4.5656e+002 43052 90418,90522,90496
 2.0000e+000 90548 -3.7355e+002 -3.0196e+002  2.2077e+002 43052 90444,90496,90470
 2.0000e+000 91074 -4.2466e+002 -5.1364e+002  1.8804e+002 42434 91241,90884,90858
 2.0000e+000 91051 -6.1686e+002 -5.4073e+002 -2.7277e+001 42434 90702,90910,90884
 2.0000e+000 91028 -3.2385e+002 -4.5565e+002  2.2390e+002 42434 91097,90754,90702
 2.0000e+000 91005 -3.9704e+002 -4.6998e+002  1.7554e+002 42434 91241,90858,91097
 2.0000e+000 90982 -1.8771e+002 -3.5265e+002  2.0893e+002 42434 91169,90806,90780
 2.0000e+000 90959 -1.1148e+002 -2.2466e+002  8.6657e+001 42434 90806,90858,90832
 2.0000e+000 90936 -3.1186e+002 -2.1188e+002  2.5371e+002 42434 90702,90754,90728
 2.0000e+000 91123 -4.0531e+002 -4.8991e+002  2.2074e+002 42434 90780,90754,91097
 2.0000e+000 91146 -3.3913e+002 -4.1896e+002  2.4874e+002 42434 91169,90780,91097
 2.0000e+000 91195 -1.1955e+002 -3.7711e+002  1.1901e+002 42434 90858,90806,91169
 2.0000e+000 91218 -2.1685e+002 -3.7515e+002  1.3820e+002 42434 90858,91169,91097
 2.0000e+000 91267 -3.6758e+002 -5.7319e+002  1.7226e+002 42434 90702,90884,91241
 2.0000e+000 91290 -3.4587e+002 -5.3711e+002  1.6145e+002 42434 90702,91241,91097
 2.0000e+000 91698 -1.7476e+002 -5.3438e+002  2.2958e+002 41773 91473,91577,91499
 2.0000e+000 91675 -3.0994e+002 -6.4498e+002  3.2068e+002 41773 91473,91603,91577
 2.0000e+000 91652 -2.7827e+002 -3.9307e+002  8.3658e+001 41773 91499,91551,91525
 2.0000e+000 91629 -4.2305e+002 -4.5217e+002  2.1508e+002 41773 91499,91577,91551
 2.0000e+000 92044 -5.7790e+002 -6.2561e+002  4.1618e+002 41383 91773,91877,91851
 2.0000e+000 92021 -4.2320e+002 -8.2362e+002  2.3997e+002 41383 91747,91877,91773
 2.0000e+000 91998 -4.2222e+002 -4.4658e+002  3.1474e+002 41383 91773,91851,91799
 2.0000e+000 91975 -2.8530e+002 -6.1743e+002  6.3542e+001 41383 91747,91903,91877
 2.0000e+000 91952 -3.0495e+002 -4.7474e+002  1.9859e+002 41383 91721,91903,91747
 2.0000e+000 91929 -1.4063e+002 -4.9834e+002  2.3540e+002 41383 91799,91851,91825
 2.0000e+000 92601 -5.4308e+002 -4.5623e+002  1.6487e+002 40979 92229,92411,92307
 2.0000e+000 92578 -6.3007e+002 -4.4227e+002  1.3610e+002 40979 92229,92437,92411
 2.0000e+000 92555 -5.0709e+002 -3.2114e+002  1.6627e+002 40979 92229,92307,92281
 2.0000e+000 92532 -4.1906e+002 -4.4347e+002  2.8274e+002 40979 92333,92411,92385
 2.0000e+000 92509 -4.3528e+002 -3.8111e+002  1.9846e+002 40979 92307,92411,92333
 2.0000e+000 92486 -5.3131e+002 -3.1987e+002  1.2576e+002 40979 92229,92281,92255
 2.0000e+000 92463 -8.8072e+001 -4.6539e+002  1.9831e+002 40979 92333,92385,92359
 2.0000e+000 93235 -5.9392e+002 -3.5066e+002  4.5829e+002 40525 92941,92993,92967
 2.0000e+000 93212 -9.4025e+002 -1.2758e+002  6.5049e+001 40525 93258,92941,92889
 2.0000e+000 93189 -7.2610e+002 -3.2653e+001  4.8427e+001 40525 93258,92889,93071
 2.0000e+000 93166 -7.5326e+002 -1.9690e+002  2.7749e+001 40525 92889,92941,92915
 2.0000e+000 93143 -8.2219e+002 -4.5696e+001  2.7231e+001 40525 92863,93071,92889
 2.0000e+000 93120 -6.1127e+002 -2.4018e+002  1.5883e+002 40525 92993,93071,93019
 2.0000e+000 93097 -5.9445e+002 -1.7487e+002  1.3105e+002 40525 93019,93071,93045
 2.0000e+000 93284 -1.0402e+003 -2.3347e+002  3.0802e+002 40525 92993,92941,93258
 2.0000e+000 93307 -6.4095e+002 -4.5215e+001  2.5105e+002 40525 92993,93258,93071
 2.0000e+000 93636 -8.0015e+002 -5.7200e+002  6.2435e+002 40235 93437,93541,93515
 2.0000e+000 93613 -7.2069e+002 -7.9045e+002  5.8900e+002 40235 93411,93541,93437
 2.0000e+000 93590 -1.3724e+002 -7.3168e+002  2.2383e+002 40235 93463,93515,93489
 2.0000e+000 93567 -3.2843e+002 -5.1755e+002  1.1642e+002 40235 93437,93515,93463
 2.0000e+000 94014 -8.7170e+002 -8.8329e+002  3.5011e+002 39873 93766,93870,93792
 2.0000e+000 93991 -7.6091e+002 -9.8618e+002  2.7724e+002 39873 93766,93896,93870
 2.0000e+000 93968 -7.5845e+002 -6.9462e+002  3.9747e+002 39873 93792,93870,93844
 2.0000e+000 93945 -6.6107e+002 -6.3015e+002  3.4364e+002 39873 93792,93844,93818
 2.0000e+000 93922 -5.8857e+002 -9.3825e+002  5.8949e+002 39873 93740,93896,93766
 2.0000e+000 94164  5.1095e+001 -3.0923e+002  1.7268e+002 39461 94037,94089,94063
 2.0000e+000 94141 -1.8819e+002 -6.1787e+002  3.1077e+002 39461 94037,94115,94089
 2.0000e+000 94363 -3.6012e+002 -3.1557e+002  2.5903e+002 39057 94386,94239,94213
 2.0000e+000 94340 -3.7201e+002 -3.2122e+002  2.6067e+002 39057 94386,94213,94187
 2.0000e+000 94317 -5.0095e+002 -4.6099e+002  2.7692e+002 39057 94187,94291,94265
 2.0000e+000 94412 -2.3936e+002 -2.7759e+002  2.0339e+002 39057 94458,94386,94265
 2.0000e+000 94435 -3.5107e+002 -3.2048e+002  2.1793e+002 39057 94265,94386,94187
 2.0000e+000 94484 -3.7708e+002 -3.7320e+002  2.5828e+002 39057 94239,94386,94458
 2.0000e+000 94896 -8.2493e+002 -5.6329e+002  3.3994e+002 38396 94919,94775,94723
 2.0000e+000 94873 -8.9725e+002 -4.6584e+002  3.4304e+002 38396 94919,94723,94697
 2.0000e+000 94850 -7.0445e+002 -5.3032e+002  2.9249e+002 38396 94723,94775,94749
 2.0000e+000 94827 -4.1969e+002 -2.4803e+002  2.7090e+002 38396 94671,94801,94697
 2.0000e+000 94945 -8.2219e+002 -5.0002e+002  3.0095e+002 38396 94801,94775,94919
 2.0000e+000 94968 -8.5932e+002 -3.8191e+002  2.8794e+002 38396 94801,94919,94697
 2.0000e+000 95265 -7.6173e+002 -7.6329e+002  3.9677e+002 37835 95017,95069,95043
 2.0000e+000 95242 -7.5834e+002 -6.3719e+002  3.8973e+002 37835 95288,95069,95017
 2.0000e+000 95219 -8.4391e+002 -7.0898e+002  5.0888e+002 37835 95288,95017,94991
 2.0000e+000 95196 -8.9771e+002 -7.5258e+002  4.3477e+002 37835 94991,95147,95121
 2.0000e+000 95173 -5.7803e+002 -3.6777e+002  3.3584e+002 37835 95069,95121,95095
 2.0000e+000 95314 -7.5196e+002 -4.7517e+002  2.8977e+002 37835 95121,95069,95288
 2.0000e+000 95337 -8.2563e+002 -5.7784e+002  4.0249e+002 37835 95121,95288,94991
 2.0000e+000 95558  8.7554e+001 -1.4695e+002  2.2602e+002 37423 95408,95460,95434
 2.0000e+000 95535 -2.5893e+002 -9.7932e+002  5.1158e+002 37423 95382,95460,95408
 2.0000e+000 95512 -5.0337e+002 -1.1679e+003  5.9476e+002 37423 95382,95486,95460
 2.0000e+000 95891 -8.5198e+000 -3.5959e+002  2.4580e+002 37225 95666,95718,95692
 2.0000e+000 95868 -3.6468e+002 -4.3071e+002  3.3547e+002 37225 95666,95796,95718
 2.0000e+000 95845 -1.6912e+002 -3.1372e+002  1.0149e+002 37225 95718,95770,95744
 2.0000e+000 95822 -1.6091e+002 -2.6220e+002  1.3261e+002 37225 95718,95796,95770
 2.0000e+000 95992 -1.2494e+001 -3.8589e+002  2.3373e+002 36735 95914,95966,95940
 2.0000e+000 96142 -9.4091e+002 -4.0219e+002  4.1943e+002 36331 96297,96067,96041
 2.0000e+000 96119 -7.0414e+002 -3.6921e+002  4.3340e+002 36331 96165,96041,96015
 2.0000e+000 96191 -8.7879e+002 -3.8964e+002  3.9900e+002 36331 96297,96041,96165
 2.0000e+000 96323 -1.0713e+003 -4.1269e+002  5.5025e+002 36331 96093,96067,96297
 2.0000e+000 96346 -8.8268e+002 -3.4310e+002  5.4006e+002 36331 96093,96297,96165
 2.0000e+000 96714 -5.7118e+002 -8.9824e+002  5.6503e+002 36041 96737,96495,96443
 2.0000e+000 96691 -7.9849e+002 -6.5019e+002  5.4634e+002 36041 96737,96443,96417
 2.0000e+000 96668 -2.9728e+002 -9.9928e+002  1.8166e+002 36041 96443,96495,96469
 2.0000e+000 96645 -1.8255e+002 -2.7540e+002  2.9942e+002 36041 96391,96521,96417
 2.0000e+000 96622  1.8108e+001 -2.8896e+002  2.4953e+002 36041 96391,96547,96521
 2.0000e+000 96599 -1.1163e+002 -3.2604e+002  2.2921e+002 36041 96391,96573,96547
 2.0000e+000 96763 -2.6223e+002 -7.0189e+002  4.8126e+002 36041 96521,96495,96737
 2.0000e+000 96786 -6.8453e+002 -5.9322e+002  5.1442e+002 36041 96521,96737,96417
 2.0000e+000 96936 -3.9297e+002 -2.2971e+002  2.6544e+002 35637 97031,96959,96835
 2.0000e+000 96913 -6.1553e+002 -3.0968e+002  2.7513e+002 35637 97163,96959,96809
 2.0000e+000 96985 -5.9232e+002 -1.8767e+002  3.0539e+002 35637 96861,96835,96959
 2.0000e+000 97008 -7.9066e+002 -3.6390e+002  5.0785e+002 35637 96861,96959,96887
 2.0000e+000 97057 -4.8825e+002 -1.4797e+002  1.5865e+002 35637 96809,96959,97031
 2.0000e+000 97189 -5.0604e+002 -2.3476e+002  3.1186e+002 35637 96887,96959,97163
 2.0000e+000 97597 -3.8662e+002 -4.2518e+002  3.8329e+002 35190 97450,97502,97476
 2.0000e+000 97574 -4.2855e+002 -5.4980e+002  4.8860e+002 35190 97372,97502,97450
 2.0000e+000 97551 -4.3927e+002 -6.5094e+002  4.6457e+002 35190 97372,97450,97398
 2.0000e+000 97528 -2.8891e+002 -5.5436e+002  3.8435e+002 35190 97398,97450,97424
 2.0000e+000 98054 -6.1814e+002 -7.6436e+002  5.1943e+002 34636 97806,97936,97858
 2.0000e+000 98031 -8.7817e+002 -4.6017e+002  4.5325e+002 34636 97780,97936,97806
 2.0000e+000 98008 -6.9042e+002 -6.8586e+002  2.3372e+002 34636 97806,97858,97832
 2.0000e+000 97985 -6.4424e+002 -6.9885e+002  5.4006e+002 34636 97884,97936,97910
 2.0000e+000 97962 -4.0135e+002 -4.7800e+002  4.0748e+002 34636 97858,97936,97884
 2.0000e+000 98530 -5.2817e+002  7.9837e+001  1.0708e+002 34068 98697,98184,98366
 2.0000e+000 98507 -1.6386e+001 -5.2703e+001  2.6215e+001 34068 98158,98366,98184
 2.0000e+000 98484 -7.6572e+002 -5.5714e+002  2.6396e+002 34068 98553,98262,98236
 2.0000e+000 98461 -1.1930e+003 -7.1112e+002  2.1512e+002 34068 98553,98236,98210
 2.0000e+000 98438 -7.0253e+002 -2.5432e+002  2.2667e+002 34068 98841,98625,98366
 2.0000e+000 98415 -8.1787e+002 -9.7453e+002  5.1983e+002 34068 98769,98288,98262
 2.0000e+000 98392 -9.2249e+002 -1.0040e+002  1.7961e+002 34068 98841,98366,98340
 2.0000e+000 98579 -9.1290e+002 -7.1310e+002  3.5431e+002 34068 98769,98262,98553
 2.0000e+000 98602 -7.2425e+002 -3.3167e+002  2.4400e+002 34068 98625,98314,98553
 2.0000e+000 98651 -6.3800e+002 -2.6957e+002  1.4733e+002 34068 98697,98366,98625
 2.0000e+000 98674 -7.9464e+002 -5.7517e+002  1.8525e+002 34068 98210,98625,98553
 2.0000e+000 98723 -6.5976e+002 -3.3894e+002  1.8581e+002 34068 98210,98184,98697
 2.0000e+000 98746 -6.2277e+002 -3.8353e+002  2.5739e+002 34068 98210,98697,98625
 2.0000e+000 98795 -5.1668e+002 -7.1911e+002  3.3746e+002 34068 98314,98288,98769
 2.0000e+000 98818 -6.7879e+002 -5.5432e+002  1.8405e+002 34068 98314,98769,98553
 2.0000e+000 98867 -9.1381e+002 -4.1996e+002  1.4519e+002 34068 98314,98625,98841
 2.0000e+000 98890 -1.1402e+003 -2.5161e+002  1.0607e+002 34068 98314,98841,98340
 2.0000e+000 99268 -9.6949e+002 -8.5105e+002  6.2649e+002 33450 99291,99098,99072
 2.0000e+000 99245 -1.0465e+003 -6.2537e+002  2.8061e+002 33450 99291,99072,99020
 2.0000e+000 99222 -1.4353e+003 -7.6605e+002  4.1352e+002 33450 99020,99072,99046
 2.0000e+000 99199 -8.1066e+002 -5.2462e+002  2.8848e+002 33450 99020,99150,99124
 2.0000e+000 99176 -8.2345e+002 -5.6019e+002  8.9185e+001 33450 98994,99150,99020
 2.0000e+000 99317 -4.6063e+002 -6.2318e+002  5.8352e+002 33450 99124,99098,99291
 2.0000e+000 99340 -8.8665e+002 -5.6193e+002  2.7653e+002 33450 99124,99291,99020
 2.0000e+000 99865 -6.0301e+002 -5.7862e+002  3.3964e+002 32944 100176,99960,99888
 2.0000e+000 99842 -6.4473e+002 -5.4501e+002  3.4451e+002 32944 100104,99888,99522
 2.0000e+000 99819 -6.4936e+002 -5.6751e+002  4.7020e+002 32944 100248,99960,99626
 2.0000e+000 99796 -5.7044e+002 -6.4959e+002  1.7650e+002 32944 100032,99652,99626
 2.0000e+000 99773 -5.0735e+002 -5.8925e+002  2.4028e+002 32944 100104,99522,99496
 2.0000e+000 99750 -4.5174e+002 -4.1955e+002  6.7030e+001 32944 99574,99626,99600
 2.0000e+000 99727 -5.7872e+002 -5.2286e+002  5.0103e+002 32944 100248,99626,99574
 2.0000e+000 99704 -3.0517e+002 -5.9535e+002  3.3147e+002 32944 99444,99496,99470
 2.0000e+000 99914 -5.8523e+002 -5.1996e+002  2.1331e+002 32944 100176,99888,100032
 2.0000e+000 99937 -6.7575e+002 -4.4352e+002  3.4361e+002 32944 99678,99888,99444
 2.0000e+000 99986 -6.4262e+002 -5.0267e+002  3.2727e+002 32944 99522,99888,99960
 2.0000e+000 100009 -7.1376e+002 -4.2372e+002  3.8023e+002 32944 99522,99960,99548
 2.0000e+000 100058 -6.8273e+002 -6.0417e+002  1.9110e+002 32944 99678,99652,100032
 2.0000e+000 100081 -7.0858e+002 -5.8271e+002  1.9089e+002 32944 99678,100032,99888
 2.0000e+000 100130 -4.1287e+002 -4.7447e+002  3.4736e+002 32944 99444,99888,100104
 2.0000e+000 100153 -3.2641e+002 -5.5863e+002  2.5686e+002 32944 99444,100104,99496
 2.0000e+000 100202 -6.7558e+002 -7.7053e+002  3.5043e+002 32944 99626,99960,100176
 2.0000e+000 100225 -6.9780e+002 -7.7216e+002  2.3833e+002 32944 99626,100176,100032
 2.0000e+000 100274 -7.6488e+002 -5.3024e+002  4.0712e+002 32944 99548,99960,100248
 2.0000e+000 100297 -7.0173e+002 -4.9401e+002  4.3600e+002 32944 99548,100248,99574
 2.0000e+000 100754 -3.1020e+002 -3.2304e+002  1.2991e+002 32369 100777,100584,100506
 2.0000e+000 100731 -3.0872e+002 -4.7532e+002  3.2442e+002 32369 100777,100506,100636
 2.0000e+000 100708 -4.9702e+002 -4.6765e+002  3.3805e+002 32369 100480,100636,100506
 2.0000e+000 100685 -6.0450e+002 -3.2385e+002  2.9356e+001 32369 100532,100584,100558
 2.0000e+000 100662 -3.8410e+002 -3.4826e+002  1.8691e+002 32369 100506,100584,100532
 2.0000e+000 100803 -3.2471e+002 -5.3090e+001  9.9090e+001 32369 100610,100584,100777
 2.0000e+000 100826 -3.0077e+002 -2.2173e+002  2.6704e+002 32369 100610,100777,100636
 2.0000e+000 101025 -6.9756e+002 -3.3161e+002  3.8362e+002 31857 100875,100927,100901
 2.0000e+000 101002 -9.7238e+002 -3.7636e+002  3.2922e+002 31857 100875,100953,100927
 2.0000e+000 100979 -1.0336e+003 -5.2458e+002  3.4441e+002 31857 100849,100953,100875
 2.0000e+000 101533 -5.0446e+002 -6.0860e+002  4.7136e+002 31253 101556,101314,101236
 2.0000e+000 101510 -6.9420e+002 -6.2454e+002  4.3852e+002 31253 101556,101236,101210
 2.0000e+000 101487 -6.1453e+002 -6.2652e+002  2.0300e+002 31253 101210,101392,101340
 2.0000e+000 101464 -3.9601e+002 -5.1774e+002  4.0732e+002 31253 101236,101288,101262
 2.0000e+000 101441 -4.8697e+002 -7.6448e+002  4.5813e+002 31253 101236,101314,101288
 2.0000e+000 101418 -6.6680e+002 -8.8770e+002  4.8059e+002 31253 101340,101392,101366
 2.0000e+000 101582 -5.6015e+002 -6.2915e+002  3.1263e+002 31253 101340,101314,101556
 2.0000e+000 101605 -7.5156e+002 -6.2805e+002  2.8712e+002 31253 101340,101556,101210
 2.0000e+000 101755  2.3289e+002  3.3985e+001  9.1458e+001 30519 101778,101654,101628
 2.0000e+000 101732 -6.4516e+001  5.6120e+000 -1.5048e+000 30519 101850,101778,101628
 2.0000e+000 101804  4.5327e+000 -8.5037e+001 -2.0718e+001 30519 101680,101654,101778
 2.0000e+000 101827 -1.7182e+002  3.8871e+001 -4.3248e+001 30519 101680,101778,101706
 2.0000e+000 101876 -7.1239e+001 -2.2676e+001 -1.9150e+001 30519 101706,101778,101850
 2.0000e+000 102561 -3.3168e+002 -5.5821e+002  2.7987e+002 29951 102656,102584,102270
 2.0000e+000 102538 -1.0411e+003 -1.1574e+003  1.9346e+002 29951 102584,102140,102374
 2.0000e+000 102515 -5.2320e+002 -1.1455e+003  5.7622e+002 29951 102728,102656,102270
 2.0000e+000 102492 -5.5577e+002 -1.3811e+003  5.7300e+002 29951 102728,102270,102244
 2.0000e+000 102469 -8.6737e+002 -2.4247e+002  4.0605e+002 29951 102800,102322,102296
 2.0000e+000 102446 -8.8788e+002 -5.2540e+002  1.3545e+002 29951 102166,102218,102192
 2.0000e+000 102423 -6.7756e+002 -5.9635e+002  4.1956e+001 29951 102166,102244,102218
 2.0000e+000 102400 -4.8472e+002 -4.9926e+002  3.1805e+002 29951 102322,102374,102348
 2.0000e+000 102610 -1.0245e+003 -4.7352e+002  1.1072e+002 29951 102296,102270,102584
 2.0000e+000 102633 -1.1450e+003 -4.9795e+002  2.4540e+002 29951 102800,102296,102584
 2.0000e+000 102682 -1.1401e+003 -1.0150e+003  4.7443e+002 29951 102140,102584,102656
 2.0000e+000 102705 -6.8839e+002 -9.1590e+002  7.0879e+002 29951 102140,102656,102166
 2.0000e+000 102754 -5.6104e+002 -8.8024e+002  6.8100e+002 29951 102166,102656,102728
 2.0000e+000 102777 -5.8504e+002 -1.0580e+003  6.3032e+002 29951 102166,102728,102244
 2.0000e+000 102826 -5.9029e+002 -5.2250e+002  5.2841e+002 29951 102374,102322,102800
 2.0000e+000 102849 -7.1679e+002 -5.5615e+002  4.2859e+002 29951 102374,102800,102584
 2.0000e+000 103048  1.4035e+002 -2.2296e+002  7.5207e+001 29454 102872,102924,102898
 2.0000e+000 103025 -6.3109e+001 -6.3516e+002  2.2480e+002 29454 102872,102976,102924
 2.0000e+000 103002 -2.2017e+002 -9.0126e+002  1.3658e+002 29454 102924,102976,102950
 2.0000e+000 103296 -1.0142e+003 -6.8356e+002  4.9825e+002 29064 103319,103175,103123
 2.0000e+000 103273 -1.4275e+003 -6.9870e+002  5.7696e+002 29064 103319,103123,103071
 2.0000e+000 103250 -6.2052e+002 -4.4449e+002  3.9060e+002 29064 103123,103175,103149
 2.0000e+000 103227 -1.0452e+003 -6.4015e+002  7.4964e+002 29064 103071,103123,103097
 2.0000e+000 103345 -6.4716e+002 -7.9378e+002  3.4166e+002 29064 103201,103175,103319
 2.0000e+000 103368 -1.1277e+003 -7.5276e+002  2.6770e+002 29064 103201,103319,103071
 2.0000e+000 104006 -6.9405e+002 -3.2172e+002  2.5611e+002 28603 104101,104029,103712
 2.0000e+000 103983 -6.4552e+002 -2.6213e+002  2.2475e+002 28603 104173,104029,103660
 2.0000e+000 103960 -8.2535e+002 -2.5446e+002  2.3138e+002 28603 104101,103712,103686
 2.0000e+000 103937 -5.3325e+002 -3.7752e+002  2.1148e+002 28603 104173,103660,103634
 2.0000e+000 103914 -7.2174e+002 -3.1116e+002  3.5286e+002 28603 103764,103816,103790
 2.0000e+000 103891 -5.4025e+002 -3.8420e+002  3.7200e+002 28603 103634,103842,103816
 2.0000e+000 103868 -5.5282e+002 -1.8462e+002  3.1873e+002 28603 103712,103764,103738
 2.0000e+000 104055 -6.8355e+002 -2.7855e+002  2.5596e+002 28603 103764,103712,104029
 2.0000e+000 104078 -6.6390e+002 -2.9056e+002  3.2622e+002 28603 103764,104029,103816
 2.0000e+000 104127 -8.6109e+002 -3.5265e+002  1.9368e+002 28603 103660,104029,104101
 2.0000e+000 104150 -1.0564e+003 -3.1254e+002  1.9834e+002 28603 103660,104101,103686
 2.0000e+000 104199 -7.3753e+002 -3.6230e+002  2.6296e+002 28603 103816,104029,104173
 2.0000e+000 104222 -6.1657e+002 -4.5294e+002  2.4378e+002 28603 103816,104173,103634
 2.0000e+000 104600 -4.2661e+002 -7.7568e+002  1.7500e+002 28348 104623,104378,104326
 2.0000e+000 104577 -3.5762e+002 -8.0110e+002  3.4023e+002 28348 104623,104326,104482
 2.0000e+000 104554 -3.4263e+002 -4.7501e+002  1.1215e+002 28348 104326,104378,104352
 2.0000e+000 104531 -4.3490e+002  3.9625e+000 -1.6659e+001 28348 104404,104456,104430
 2.0000e+000 104508 -5.7221e+002 -2.8247e+002  2.5395e+002 28348 104378,104456,104404
 2.0000e+000 104649 -3.5966e+002 -6.2726e+002  2.2578e+002 28348 104456,104378,104623
 2.0000e+000 104672 -2.6833e+002 -6.2768e+002  3.9459e+002 28348 104456,104623,104482
 2.0000e+000 104991 -7.3463e+002 -7.0064e+002  5.4276e+002 27951 104717,104847,104769
 2.0000e+000 104968 -1.9450e+002 -4.7980e+002  5.3417e+002 27951 104717,104873,104847
 2.0000e+000 104945 -2.3775e+002 -5.2670e+002  6.2119e+002 27951 104769,104847,104795
 2.0000e+000 104922  6.9566e+001  2.0884e+002  5.8418e+002 27951 104795,104847,104821
 2.0000e+000 104899 -7.4982e+002 -5.1840e+002  6.4574e+002 27951 104717,104769,104743
 2.0000e+000 105371 -9.3803e+002 -4.7586e+002  4.0854e+002 27447 105394,105201,105123
 2.0000e+000 105348 -1.2429e+003 -4.1412e+002  5.7071e+002 27447 105394,105123,105097
 2.0000e+000 105325 -1.4458e+003 -4.7629e+002  3.4573e+002 27447 105123,105201,105149
 2.0000e+000 105302 -7.9028e+002 -5.4556e+002  3.7203e+002 27447 105201,105253,105227
 2.0000e+000 105279 -8.6133e+002 -6.9342e+002  1.4608e+002 27447 105149,105201,105175
 2.0000e+000 105420 -7.6654e+002 -4.0678e+002  3.1600e+002 27447 105253,105201,105394
 2.0000e+000 105443 -1.0268e+003 -2.5542e+002  4.4815e+002 27447 105253,105394,105097
 2.0000e+000 105998 -7.2958e+002 -4.5053e+002  4.7737e+002 27100 106165,106021,105704
 2.0000e+000 105975 -3.4332e+002 -2.4299e+002  4.1686e+002 27100 106309,106021,105652
 2.0000e+000 105952 -1.1680e+003 -7.6639e+002  8.2686e+002 27100 106093,105808,105782
 2.0000e+000 105929 -7.0643e+002 -4.7630e+002  4.5530e+002 27100 106165,105704,105678
 2.0000e+000 105906 -3.3150e+002 -7.0485e+002  3.9068e+002 27100 106237,105730,105704
 2.0000e+000 105883 -3.0522e+002 -4.4867e+002  3.0293e+002 27100 106309,105652,105626
 2.0000e+000 105860 -1.3367e+002 -9.6940e+000  3.8746e+001 27100 105730,105782,105756
 2.0000e+000 106047 -6.5514e+002 -3.4736e+002  5.3101e+002 27100 106237,105704,106021
 2.0000e+000 106070 -6.9638e+002 -3.2601e+002  6.3949e+002 27100 106093,105782,106021
 2.0000e+000 106119 -4.8773e+002 -6.6883e+002  4.1411e+002 27100 105834,105808,106093
 2.0000e+000 106142 -5.7409e+002 -8.2734e+002  5.8483e+002 27100 106381,106093,106021
 2.0000e+000 106191 -6.9279e+002 -4.2905e+002  4.8607e+002 27100 105652,106021,106165
 2.0000e+000 106214 -6.5218e+002 -4.5039e+002  4.6391e+002 27100 105652,106165,105678
 2.0000e+000 106263 -5.1596e+001 -3.6960e+002  2.6877e+002 27100 105782,105730,106237
 2.0000e+000 106286 -4.3533e+002 -1.0377e+002  4.3541e+002 27100 105782,106237,106021
 2.0000e+000 106335 -4.8503e+002 -5.1566e+002  4.6846e+002 27100 106381,106021,106309
 2.0000e+000 106358 -3.1938e+002 -3.5718e+002  2.7424e+002 27100 105834,106309,105626
 2.0000e+000 106407 -3.7481e+002 -4.7527e+002  3.6573e+002 27100 105834,106093,106381
 2.0000e+000 106430 -3.7981e+002 -4.2269e+002  2.4611e+002 27100 105834,106381,106309
 2.0000e+000 106629 -7.5388e+001 -6.0163e+002  2.4062e+002 26688 106479,106557,106531
 2.0000e+000 106606 -2.3033e+001 -3.7317e+002  2.6362e+002 26688 106453,106557,106479
 2.0000e+000 106583 -2.9409e+002 -6.8104e+002  9.4846e+001 26688 106479,106531,106505
 2.0000e+000 107088 -3.2659e+002 -2.5172e+002  1.3542e+002 26248 107111,106918,106866
 2.0000e+000 107065 -3.4452e+002 -2.1927e+002  1.5204e+002 26248 107111,106866,106840
 2.0000e+000 107042 -2.8254e+002 -1.6035e+002  1.5009e+002 26248 106814,106970,106840
 2.0000e+000 107019 -3.1723e+002 -5.4214e+002  2.6023e+002 26248 106866,106918,106892
 2.0000e+000 106996 -4.7794e+002 -3.2096e+002  1.0594e+002 26248 106918,106970,106944
 2.0000e+000 107137 -3.5599e+002 -2.9570e+002  1.0345e+002 26248 106970,106918,107111
 2.0000e+000 107160 -3.4598e+002 -2.3206e+002  1.2335e+002 26248 106970,107111,106840
 2.0000e+000 107666 -9.1759e+002 -3.4387e+002  2.5119e+002 25908 107369,107499,107395
 2.0000e+000 107643 -1.2510e+003 -1.0386e+003  5.7490e+002 25908 107369,107525,107499
 2.0000e+000 107620 -7.5482e+002 -4.6565e+002  3.6679e+002 25908 107395,107473,107447
 2.0000e+000 107597 -6.2812e+002 -2.3128e+002  2.4241e+002 25908 107395,107499,107473
 2.0000e+000 107574 -1.3198e+003 -5.2120e+002  8.1496e+002 25908 107395,107447,107421
 2.0000e+000 107551 -4.1643e+002 -8.2418e+002  4.2291e+002 25908 107343,107525,107369
 2.0000e+000 108251 -7.4826e+002 -1.9607e+002  3.8455e+002 25454 108274,108006,107954
 2.0000e+000 108228 -5.9416e+002 -7.7764e+001  2.9095e+002 25454 108274,107954,108110
 2.0000e+000 108205 -5.5058e+002 -5.1983e+002  4.8011e+002 25454 108346,108032,108006
 2.0000e+000 108182 -8.9558e+002 -3.4205e+002  4.6094e+002 25454 107954,108006,107980
 2.0000e+000 108159 -3.0744e+002 -2.9037e+002  2.7787e+002 25454 107928,108110,107954
 2.0000e+000 108136 -1.0325e+003 -7.5203e+002  5.2298e+002 25454 108058,108110,108084
 2.0000e+000 108300 -7.2238e+002 -3.4517e+002  4.7502e+002 25454 108346,108006,108274
 2.0000e+000 108323 -6.4354e+002 -2.1741e+002  3.4739e+002 25454 108058,108274,108110
 2.0000e+000 108372 -3.4368e+002 -3.3659e+002  4.0297e+002 25454 108058,108032,108346
 2.0000e+000 108395 -5.2898e+002 -1.4396e+002  3.9442e+002 25454 108058,108346,108274
 2.0000e+000 108822 -5.0720e+002 -2.3370e+002  2.4701e+002 24943 108525,108681,108655
 2.0000e+000 108799 -6.3296e+002 -4.0049e+002  1.3793e+002 24943 108499,108681,108525
 2.0000e+000 108776 -2.5458e+002 -1.5637e+002  1.6504e+002 24943 108525,108655,108629
 2.0000e+000 108753 -4.3216e+002 -1.4848e+002  1.4831e+002 24943 108525,108629,108603
 2.0000e+000 108730 -9.2094e+002 -2.7814e+002  3.0961e+002 24943 108551,108603,108577
 2.0000e+000 108707 -8.8326e+002 -4.7075e+002  4.3782e+002 24943 108525,108603,108551
 2.0000e+000 109407 -4.7436e+001 -1.4372e+002  8.3675e+001 24745 109162,109214,109188
 2.0000e+000 109384 -3.0888e+002 -1.3596e+002  1.0005e+002 24745 109162,109266,109214
 2.0000e+000 109361 -3.6666e+002 -1.9509e+002  4.7576e+001 24745 109084,109266,109162
 2.0000e+000 109338 -6.6255e+002 -8.0608e+001  1.3701e+002 24745 109084,109162,109136
 2.0000e+000 109315 -1.4166e+002 -2.5900e+002  1.4375e+002 24745 109214,109266,109240
 2.0000e+000 109292 -4.9387e+002 -1.2586e+002  2.5009e+002 24745 109084,109136,109110
 2.0000e+000 109785 -1.0733e+003 -4.4950e+002  6.0095e+002 24341 109537,109615,109563
 2.0000e+000 109762 -1.0386e+002 -2.0430e+002  5.8975e+002 24341 109537,109641,109615
 2.0000e+000 109739 -7.3640e+002 -4.9696e+002  4.5773e+002 24341 109563,109615,109589
 2.0000e+000 109716 -4.4267e+002 -4.4372e+002  3.8853e+002 24341 109537,109667,109641
 2.0000e+000 109693 -2.7182e+002 -5.1464e+002  3.6951e+002 24341 109511,109667,109537
 2.0000e+000 110163 -1.1615e+003 -5.6065e+002  6.0794e+002 23837 110186,109967,109915
 2.0000e+000 110140 -1.0517e+003 -5.5187e+002  6.4612e+002 23837 110186,109915,109889
 2.0000e+000 110117 -4.4364e+002 -1.7068e+002  5.0804e+002 23837 109889,110045,109993
 2.0000e+000 110094 -1.0314e+003 -8.1795e+002  4.0505e+002 23837 109915,109967,109941
 2.0000e+000 110071 -5.5401e+002 -1.5460e+000  6.7751e+001 23837 109993,110045,110019
 2.0000e+000 110212 -1.0948e+003 -5.1079e+002  6.5484e+002 23837 109993,109967,110186
 2.0000e+000 110235 -1.0539e+003 -5.2029e+002  6.9599e+002 23837 109993,110186,109889
 2.0000e+000 110336 -5.9233e+002 -1.2603e+003  7.1896e+002 23433 110258,110310,110284
 2.0000e+000 110584 -7.4644e+002 -4.7247e+002  2.9668e+002 22829 110607,110411,110385
 2.0000e+000 110561 -9.5411e+002 -5.6187e+002  4.1529e+002 22829 110607,110385,110489
 2.0000e+000 110538 -5.7881e+002 -5.0484e+002  2.1889e+002 22829 110437,110489,110463
 2.0000e+000 110515 -7.4658e+002 -3.4241e+002  5.0503e+002 22829 110359,110489,110385
 2.0000e+000 110633 -7.4077e+002 -3.6445e+002  1.4695e+002 22829 110437,110411,110607
 2.0000e+000 110656 -8.5489e+002 -4.4743e+002  2.6107e+002 22829 110437,110607,110489
 2.0000e+000 110906 -1.5714e+003 -6.4832e+002  3.9066e+002 22432 110707,110759,110733
 2.0000e+000 110883 -9.5595e+002 -6.3678e+002  2.9985e+002 22432 110707,110785,110759
 2.0000e+000 110860 -1.0303e+003 -5.5200e+002  5.4456e+002 22432 110707,110811,110785
 2.0000e+000 110837 -1.2553e+003 -8.3890e+002  4.3247e+002 22432 110681,110811,110707
 2.0000e+000 111288 -8.3090e+001 -1.5432e+002  1.8103e+002 22142 111092,111144,111118
 2.0000e+000 111265 -4.1900e+002 -3.0136e+002  2.2613e+002 22142 111066,111144,111092
 2.0000e+000 111242 -4.0106e+002 -2.8677e+002  1.9566e+002 22142 111040,111144,111066
 2.0000e+000 111219 -7.5573e+002 -5.0186e+001  1.1105e+002 22142 111014,111144,111040
 2.0000e+000 111196 -5.3197e+002  9.1896e+000  1.7068e+002 22142 111014,111170,111144
 2.0000e+000 111389  5.5489e+001 -7.9165e+001  3.4433e+002 21830 111311,111363,111337
 2.0000e+000 111735 -1.0035e+003  3.7515e+001  7.2474e+002 21268 111758,111542,111438
 2.0000e+000 111712 -8.2798e+002  7.4758e+001  5.0218e+002 21268 111758,111438,111412
 2.0000e+000 111689 -2.9211e+002 -4.0063e+002  8.9024e+002 21268 111438,111542,111464
 2.0000e+000 111666 -5.9395e+001 -2.3113e+002  1.1131e+003 21268 111464,111542,111490
 2.0000e+000 111643 -2.0089e+003 -9.3001e+002  9.0230e+002 21268 111412,111594,111568
 2.0000e+000 111620  3.6887e+002  4.3962e+002  1.3569e+003 21268 111490,111542,111516
 2.0000e+000 111784 -1.0330e+003 -1.0035e+002  7.1707e+002 21268 111568,111542,111758
 2.0000e+000 111807 -1.0228e+003 -3.9132e+002  5.6517e+002 21268 111568,111758,111412
 2.0000e+000 111959 -9.0940e+002 -9.7936e+001  2.9893e+002 20864 111982,111910,111884
 2.0000e+000 111936 -8.7168e+002 -1.0632e+002  4.3250e+002 20864 112114,111832,111910
 2.0000e+000 112008 -8.9924e+002 -2.8303e+002  3.7013e+002 20864 112114,111910,111982
 2.0000e+000 112140 -8.6052e+002 -3.0008e+002  3.5837e+002 20864 111858,111832,112114
 2.0000e+000 112163 -9.0921e+002 -5.2113e+002  3.0331e+002 20864 111858,112114,111982
 2.0000e+000 112411 -9.3468e+001 -1.9580e+001  3.2504e+001 20324 112186,112290,112212
 2.0000e+000 112388 -3.0571e+001 -5.6669e+000  4.8861e+001 20324 112186,112316,112290
 2.0000e+000 112365  3.7887e+002 -2.7389e+002  5.6666e+001 20324 112212,112290,112264
 2.0000e+000 112342 -1.3429e+003 -5.7433e+002 -8.7301e+001 20324 112212,112264,112238
 2.0000e+000 112659 -1.4040e+002 -3.5164e+001  4.0027e+002 19920 112512,112564,112538
 2.0000e+000 112636 -5.3155e+002 -1.7651e+002  2.5096e+002 19920 112434,112564,112512
 2.0000e+000 112613 -5.5268e+002 -3.3348e+002  3.1352e+002 19920 112434,112512,112460
 2.0000e+000 112590 -5.9561e+002 -3.5477e+002  3.2731e+002 19920 112460,112512,112486
 2.0000e+000 112811 -1.1697e+002 -4.3912e+001  1.9979e+002 19630 112684,112736,112710
 2.0000e+000 112788  1.6514e+002 -2.4664e+002  6.3906e+001 19630 112684,112762,112736
 2.0000e+000 113012 -4.6988e+002 -1.7015e+002  4.4487e+002 19169 112862,112940,112888
 2.0000e+000 112989 -7.7108e+002 -5.9981e+002  3.1093e+002 19169 112836,112940,112862
 2.0000e+000 112966 -4.2305e+002 -5.1232e+002  3.8116e+002 19169 112888,112940,112914
 2.0000e+000 113213 -1.2275e+003 -4.8174e+002  5.2205e+002 18600 113037,113089,113063
 2.0000e+000 113190 -7.1277e+002 -2.6098e+002  3.8851e+002 18600 113037,113115,113089
 2.0000e+000 113167 -1.4799e+003 -8.8753e+002  8.0727e+002 18600 113037,113141,113115
 2.0000e+000 113485 -5.4508e+002 -1.9318e+002  5.0493e+002 18352 113260,113312,113286
 2.0000e+000 113462 -1.0930e+003 -5.8867e+002  6.7760e+002 18352 113260,113390,113312
 2.0000e+000 113439 -1.0286e+003 -1.6940e+002  4.5537e+002 18352 113312,113390,113364
 2.0000e+000 113416 -3.2222e+002 -9.8940e+001  4.9848e+002 18352 113312,113364,113338
 2.0000e+000 113757 -7.3689e+002 -2.8083e+002  4.6827e+002 17834 113558,113610,113584
 2.0000e+000 113734 -1.1083e+003 -6.1201e+002  6.4531e+002 17834 113532,113610,113558
 2.0000e+000 113711 -1.1074e+003 -6.9887e+002  5.1244e+002 17834 113532,113662,113610
 2.0000e+000 113688 -5.4730e+002 -1.4873e+002  7.3460e+002 17834 113610,113662,113636
 2.0000e+000 113958 -6.8287e+002 -2.7208e+002  3.5963e+002 17330 113782,113834,113808
 2.0000e+000 113935 -3.8568e+002 -2.0808e+002  2.6680e+002 17330 113782,113886,113834
 2.0000e+000 113912 -4.6554e+002 -2.1315e+002  1.7488e+002 17330 113834,113886,113860
 2.0000e+000 114110 -1.0209e+003 -3.6697e+002  6.5959e+002 16874 113983,114035,114009
 2.0000e+000 114087 -4.1946e+002 -9.2289e+002  6.3540e+002 16874 113983,114061,114035
 2.0000e+000 114465 -1.2500e+003 -5.2443e+002  2.6403e+002 16270 114240,114292,114266
 2.0000e+000 114442 -7.3527e+002 -1.5621e+002  9.8549e+001 16270 114240,114370,114292
 2.0000e+000 114419 -3.5751e+002 -1.4637e+002  2.0899e+002 16270 114292,114344,114318
 2.0000e+000 114396 -7.2420e+002 -3.2834e+002  1.2104e+002 16270 114292,114370,114344
 2.0000e+000 114566 -9.1533e+001  9.1533e+001  9.1459e+002 15834 114488,114540,114514
 2.0000e+000 114667 -6.7812e+002 -2.6311e+002  4.1564e+002 15155 114589,114641,114615
 2.0000e+000 114890 -5.0840e+002 -1.6869e+002  5.5641e+002 421 114766,114818,114792
 2.0000e+000 114867 -7.7343e+002 -6.6977e+002  4.5132e+002 421 114714,114818,114766
 2.0000e+000 114844 -1.1081e+003 -4.6472e+002  2.5117e+002 421 114714,114766,114740
 2.1000e+000 66553 -4.7583e+002 -2.0494e+002  2.3879e+002 66108 66354,66458,66432
 2.1000e+000 66530 -4.7669e+002 -1.9993e+002  1.7266e+002 66108 66328,66458,66354
 2.1000e+000 66507 -2.7176e+002 -2.0063e+002  1.4940e+002 66108 66354,66432,66406
 2.1000e+000 66484  1.1736e+002  6.3349e+001  2.9085e+002 66108 66354,66406,66380
 2.1000e+000 66951 -3.8781e+002 -1.6191e+002  1.6714e+002 65910 66703,66833,66807
 2.1000e+000 66928 -4.3624e+001 -8.2433e+001  1.9728e+002 65910 66677,66833,66703
 2.1000e+000 66905 -2.0001e+002 -4.3026e+002  2.8182e+002 65910 66729,66781,66755
 2.1000e+000 66882 -7.8002e+002 -3.2335e+002  2.6300e+002 65910 66729,66807,66781
 2.1000e+000 66859 -5.3675e+002 -7.7576e+001  1.6393e+002 65910 66703,66807,66729
 2.1000e+000 67150 -5.6420e+002 -2.4209e+002  5.2973e+000 65712 67026,67078,67052
 2.1000e+000 67127 -4.1610e+002 -1.3536e+002 -4.1848e+001 65712 66974,67078,67026
 2.1000e+000 67104 -9.7927e+002 -2.8913e+002 -1.2196e+002 65712 66974,67026,67000
 2.1000e+000 67481 -1.1225e+003 -5.5489e+001  3.2177e+002 65422 67282,67360,67334
 2.1000e+000 67458 -4.2372e+002 -1.2785e+002  5.8261e+002 65422 67282,67386,67360
 2.1000e+000 67435 -2.7292e+002  2.8114e+002  3.0678e+002 65422 67282,67334,67308
 2.1000e+000 67412  2.6230e+002  7.1876e+001  1.9919e+002 65422 67256,67386,67282
 2.1000e+000 68115 -2.4648e+002 -1.0892e+002  9.1750e+001 65018 67795,67925,67873
 2.1000e+000 68092 -2.9510e+002 -1.2884e+002  9.8509e+001 65018 67769,67925,67795
 2.1000e+000 68069 -1.7810e+002 -9.7215e+001  1.1918e+002 65018 67873,67925,67899
 2.1000e+000 68046 -4.2109e+002 -2.3353e+002  1.4416e+002 65018 67769,67951,67925
 2.1000e+000 68023 -3.2318e+002 -1.8876e+002  1.2589e+002 65018 67795,67873,67821
 2.1000e+000 68000 -3.7168e+002 -1.8362e+002  9.7847e+001 65018 67821,67873,67847
 2.1000e+000 67977 -6.9361e+002 -3.6458e+002  1.0937e+002 65018 67743,67951,67769
 2.1000e+000 68363 -3.3367e+002 -6.8023e+002  6.5006e+002 64820 68190,68242,68216
 2.1000e+000 68340 -7.0172e+002 -5.0048e+002  6.6773e+002 64820 68190,68268,68242
 2.1000e+000 68317 -3.8532e+002 -3.4461e+002  7.3204e+002 64820 68164,68268,68190
 2.1000e+000 68294 -1.3390e+003 -5.3759e+002  4.7213e+002 64820 68138,68268,68164
 2.1000e+000 68513 -5.8330e+002 -2.7430e+002  2.8040e+002 64366 68868,68536,68438
 2.1000e+000 68490 -2.9518e+002 -1.1700e+002  1.8367e+002 64366 68536,68412,68386
 2.1000e+000 68562 -7.2745e+002 -2.6086e+002  3.4399e+002 64366 68740,68536,68464
 2.1000e+000 68585 -5.0341e+002 -2.0272e+002  2.6322e+002 64366 68608,68536,68386
 2.1000e+000 68634 -5.9603e+002 -3.9645e+002  2.3614e+002 64366 68464,68536,68608
 2.1000e+000 68766 -5.7072e+002 -1.7488e+002  3.1006e+002 64366 68438,68536,68740
 2.1000e+000 68894 -5.0716e+002 -1.7307e+002  3.1402e+002 64366 68412,68536,68868
 2.1000e+000 69172 -4.8869e+002 -6.4575e+002  4.1168e+001 64168 69022,69074,69048
 2.1000e+000 69149 -1.1927e+003 -5.0281e+002  2.3291e+002 64168 68996,69074,69022
 2.1000e+000 69126 -1.2765e+003 -6.9911e+002  2.3637e+002 64168 68996,69100,69074
 2.1000e+000 69371 -4.3956e+002 -1.6799e+002  3.0925e+002 63970 69466,69394,69273
 2.1000e+000 69348 -2.2355e+002 -1.2636e+002  1.0168e+002 63970 69394,69247,69221
 2.1000e+000 69325 -7.8679e+002 -3.3051e+002  2.0535e+002 63970 69195,69299,69221
 2.1000e+000 69420 -6.3175e+002 -2.6449e+002  3.8911e+002 63970 69299,69273,69394
 2.1000e+000 69443 -4.1419e+002 -3.2393e+002  2.1677e+002 63970 69299,69394,69221
 2.1000e+000 69492 -4.5878e+002 -2.0120e+002  3.0141e+002 63970 69247,69394,69466
 2.1000e+000 69904 -5.3955e+001 -3.6784e+002  1.9224e+002 63680 69705,69783,69731
 2.1000e+000 69881  5.8520e+001 -2.4959e+002  1.1508e+002 63680 69679,69783,69705
 2.1000e+000 69858 -3.6249e+002 -4.7079e+002  2.2824e+002 63680 69679,69809,69783
 2.1000e+000 69835 -2.2536e+002 -3.4242e+002  1.7687e+002 63680 69731,69783,69757
 2.1000e+000 70054 -4.3024e+001 -3.4049e+002  2.1296e+002 63476 70077,69953,69927
 2.1000e+000 70031  3.7150e+001 -1.4646e+002  3.0363e+002 63476 70077,69927,70005
 2.1000e+000 70103 -1.7433e+002 -2.1502e+002  1.3107e+002 63476 69979,69953,70077
 2.1000e+000 70126 -1.1164e+002 -4.1159e+001  2.0737e+002 63476 69979,70077,70005
 2.1000e+000 70325 -1.3212e+003 -6.0592e+002  3.9512e+002 63278 70149,70227,70175
 2.1000e+000 70302 -8.0403e+002 -3.0007e+002  5.3348e+002 63278 70149,70253,70227
 2.1000e+000 70279 -1.5314e+003 -9.8475e+002  3.0637e+002 63278 70175,70227,70201
 2.1000e+000 70597 -4.9655e+002 -4.3073e+001  2.0870e+002 63080 70372,70476,70424
 2.1000e+000 70574 -4.1865e+002 -1.7147e+002  2.2582e+002 63080 70372,70502,70476
 2.1000e+000 70551 -6.4768e+002 -2.6462e+002  2.8607e+002 63080 70424,70476,70450
 2.1000e+000 70528 -9.6933e+002 -2.8994e+002  4.4808e+002 63080 70372,70424,70398
 2.1000e+000 70847 -7.3766e+001 -2.5182e+002  1.2093e+002 62740 70870,70648,70622
 2.1000e+000 70824 -1.8119e+002 -1.8415e+002  1.6157e+002 62740 70870,70622,70752
 2.1000e+000 70801 -7.2361e+001 -3.2532e+002  1.3674e+002 62740 70648,70726,70700
 2.1000e+000 70778 -1.0465e+002 -3.4965e+002  1.5265e+002 62740 70648,70700,70674
 2.1000e+000 70896 -1.7158e+002 -3.2428e+002  8.8465e+001 62740 70726,70648,70870
 2.1000e+000 70919 -2.1758e+002 -2.1624e+002  1.4657e+002 62740 70726,70870,70752
 2.1000e+000 71022 -8.3021e+001  8.3021e+001  8.7143e+002 62520 70944,70996,70970
 2.1000e+000 71223 -1.2123e+003 -5.2304e+002  6.8508e+002 62230 71073,71151,71099
 2.1000e+000 71200 -9.2286e+002 -4.9424e+002  6.0332e+002 62230 71047,71151,71073
 2.1000e+000 71177 -7.5668e+002 -9.5947e+002  5.6177e+002 62230 71099,71151,71125
 2.1000e+000 71861 -1.4529e+002 -3.2595e+002 -5.5463e+001 61712 71515,71697,71671
 2.1000e+000 71838 -1.7990e+002 -3.6536e+002  8.0706e+001 61712 71489,71697,71515
 2.1000e+000 71815 -1.0213e+003 -2.8803e+002  4.2724e+002 61712 71884,71541,71515
 2.1000e+000 71792 -7.2771e+002 -2.9712e-001  2.7331e+002 61712 71884,71515,71671
 2.1000e+000 71769 -1.2843e+002 -7.1696e+002  2.7250e+002 61712 71541,71619,71593
 2.1000e+000 71746 -2.5733e+002 -4.5395e+002  2.0880e+002 61712 71619,71671,71645
 2.1000e+000 71723 -3.8225e+002 -7.9926e+002  1.9088e+002 61712 71541,71593,71567
 2.1000e+000 71910 -7.4020e+002 -5.9712e+002  6.0288e+002 61712 71619,71541,71884
 2.1000e+000 71933 -5.6907e+002 -3.8248e+002  4.7712e+002 61712 71619,71884,71671
 2.1000e+000 72230 -7.6381e+002 -5.6238e+002  1.3847e+002 61208 72253,72060,72008
 2.1000e+000 72207 -7.2299e+002 -3.4831e+002  1.1226e+002 61208 72253,72008,71982
 2.1000e+000 72184 -8.0558e+002 -1.7705e+002  1.2453e+002 61208 71982,72112,72086
 2.1000e+000 72161 -1.3801e+003 -5.6701e+002  3.1122e+002 61208 72008,72060,72034
 2.1000e+000 72138 -5.5342e+002 -1.3417e+002  2.7867e+002 61208 71956,72112,71982
 2.1000e+000 72279 -7.3605e+002 -4.1304e+002  4.6534e+001 61208 72086,72060,72253
 2.1000e+000 72302 -7.6289e+002 -2.9133e+002  2.2351e+001 61208 72086,72253,71982
 2.1000e+000 72761 -5.1624e+002 -3.1753e+002  1.2958e+002 60804 72487,72617,72513
 2.1000e+000 72738 -5.2289e+002 -4.4195e+002  1.2891e+002 60804 72487,72643,72617
 2.1000e+000 72715 -2.0835e+002 -5.7486e+002  2.2968e+002 60804 72565,72617,72591
 2.1000e+000 72692 -5.0049e+002 -3.8722e+002  2.4003e+002 60804 72513,72617,72565
 2.1000e+000 72669 -4.3573e+002 -2.9116e+002  1.7548e+002 60804 72513,72565,72539
 2.1000e+000 72911 -8.3021e+001  8.3021e+001  8.7143e+002 60556 72784,72836,72810
 2.1000e+000 72888  7.2536e+002  4.2298e+002  5.4848e+002 60556 72784,72862,72836
 2.1000e+000 73468 -3.5268e+002 -3.2067e+002  1.9702e+002 60244 73491,73226,73200
 2.1000e+000 73445 -3.6205e+002 -2.5526e+002  2.3183e+002 60244 73563,73491,73200
 2.1000e+000 73422 -5.6100e+002 -1.5364e+002  2.3155e+002 60244 73563,73200,73174
 2.1000e+000 73399 -2.5739e+002 -3.9845e+002  1.6879e+002 60244 73226,73278,73252
 2.1000e+000 73376 -4.2320e+002 -3.4141e+002  1.6087e+002 60244 73122,73304,73278
 2.1000e+000 73353 -4.2806e+002 -5.2757e+002  2.0671e+002 60244 73096,73304,73122
 2.1000e+000 73330 -6.6671e+002 -2.6575e+002 -1.2066e+002 60244 73122,73174,73148
 2.1000e+000 73517 -4.3518e+002 -3.5631e+002  2.0039e+002 60244 73278,73226,73491
 2.1000e+000 73540 -4.2932e+002 -3.2344e+002  1.7055e+002 60244 73278,73491,73122
 2.1000e+000 73589 -6.3081e+002 -3.9226e+002  1.6737e+002 60244 73122,73491,73563
 2.1000e+000 73612 -8.1593e+002 -2.7305e+002  1.7858e+002 60244 73122,73563,73174
 2.1000e+000 73762 -2.8022e+002 -6.4871e+002  5.4818e+002 59875 73661,73713,73687
 2.1000e+000 73739 -6.5016e+002 -3.2829e+002  3.5762e+002 59875 73635,73713,73661
 2.1000e+000 74191 -3.1273e+002 -6.6414e+002  6.1051e+002 59478 74214,73894,73868
 2.1000e+000 74168 -6.3668e+002 -6.2712e+002  6.3169e+002 59478 74214,73868,74050
 2.1000e+000 74145 -6.2801e+002 -7.7774e+002  3.1014e+002 59478 73894,73946,73920
 2.1000e+000 74122 -5.2888e+002 -7.1630e+002  2.7953e+002 59478 73894,73998,73946
 2.1000e+000 74099 -1.3975e+003 -7.0093e+002  8.0007e+002 59478 73998,74050,74024
 2.1000e+000 74076 -6.6768e+002 -9.0549e+002  2.0607e+002 59478 73946,73998,73972
 2.1000e+000 74240 -6.0292e+002 -5.8656e+002  4.5035e+002 59478 73998,73894,74214
 2.1000e+000 74263 -9.2571e+002 -5.8226e+002  4.1926e+002 59478 73998,74214,74050
 2.1000e+000 74720 -5.1619e+002 -2.9642e+002  1.8804e+002 58774 74472,74602,74498
 2.1000e+000 74697 -4.5854e+002 -3.2364e+002  1.7065e+002 58774 74446,74602,74472
 2.1000e+000 74674 -6.0401e+002 -2.9444e+002  2.6111e+002 58774 74498,74576,74524
 2.1000e+000 74651 -4.9003e+002 -3.3146e+002  2.1720e+002 58774 74498,74602,74576
 2.1000e+000 74628 -6.4221e+002 -3.3009e+002  2.2116e+002 58774 74524,74576,74550
 2.1000e+000 75226 -4.7853e+002 -3.7034e+002  2.2619e+002 58270 74955,75085,75033
 2.1000e+000 75203 -2.8602e+002 -4.9501e+002  3.3501e+002 58270 74929,75085,74955
 2.1000e+000 75180 -3.6709e+002 -2.0938e+002  1.7522e+002 58270 75033,75085,75059
 2.1000e+000 75157 -3.9815e+002 -3.6188e+002  1.2066e+002 58270 74955,75007,74981
 2.1000e+000 75134 -2.3158e+002 -2.7261e+002  7.9080e+001 58270 74955,75033,75007
 2.1000e+000 75111 -7.2978e+001 -5.7756e+002  2.0202e+002 58270 74903,75085,74929
 2.1000e+000 75425 -5.3222e+002 -3.0896e+002  2.4141e+002 57830 75448,75301,75249
 2.1000e+000 75402 -3.7751e+002 -8.9419e+001  1.3920e+002 57830 75448,75249,75353
 2.1000e+000 75379 -5.6054e+002 -7.2913e+002  1.7812e+002 57830 75520,75301,75275
 2.1000e+000 75474 -5.1009e+002 -4.4848e+002  3.9453e+002 57830 75327,75301,75448
 2.1000e+000 75497 -4.1736e+002 -3.4123e+002  2.9787e+002 57830 75327,75448,75353
 2.1000e+000 75546 -3.4595e+002 -4.1949e+002  7.3345e+001 57830 75249,75301,75520
 2.1000e+000 76261 -2.6377e+002 -3.8896e+002  2.4897e+002 57426 76284,76097,76071
 2.1000e+000 76238 -2.4286e+002 -2.9599e+002  2.6805e+002 57426 75889,76097,75915
 2.1000e+000 76215 -3.7426e+002 -4.3483e+002  2.4039e+002 57426 76428,76284,76071
 2.1000e+000 76192 -2.7566e+002 -3.9973e+002  1.5741e+002 57426 76356,75941,75915
 2.1000e+000 76169 -3.7503e+002 -3.8958e+002  2.3289e+002 57426 76428,76071,76019
 2.1000e+000 76146 -4.1154e+002 -4.8377e+002  2.3441e+002 57426 76019,76071,76045
 2.1000e+000 76123 -4.0304e+002 -3.9026e+002  3.2328e+002 57426 75967,76019,75993
 2.1000e+000 76310 -3.0027e+002 -4.8022e+002  2.1265e+002 57426 75915,76097,76284
 2.1000e+000 76333 -3.0323e+002 -4.2385e+002  1.6891e+002 57426 76356,75915,76284
 2.1000e+000 76382 -3.4120e+002 -3.6793e+002  1.7959e+002 57426 75967,75941,76356
 2.1000e+000 76405 -3.5499e+002 -3.7751e+002  1.8707e+002 57426 75967,76356,76284
 2.1000e+000 76454 -3.5787e+002 -3.9294e+002  2.2776e+002 57426 75967,76284,76428
 2.1000e+000 76477 -3.7746e+002 -3.6651e+002  2.2765e+002 57426 75967,76428,76019
 2.1000e+000 76953 -3.4313e+002 -6.6518e+002  3.7305e+002 56908 76976,76711,76685
 2.1000e+000 76930 -3.5187e+002 -6.7197e+002  3.3447e+002 56908 77048,76976,76685
 2.1000e+000 76907 -6.8543e+002 -7.0413e+002  4.8738e+002 56908 77048,76685,76633
 2.1000e+000 76884 -1.0102e+003 -9.8487e+002  6.4775e+002 56908 76711,76789,76763
 2.1000e+000 76861 -5.9144e+002 -3.6790e+002  2.4400e+002 56908 76581,76789,76607
 2.1000e+000 76838 -9.7251e+002 -7.0936e+002  3.9471e+002 56908 76711,76763,76737
 2.1000e+000 76815 -1.5578e+003 -1.2407e+003  8.4423e+002 56908 76633,76685,76659
 2.1000e+000 77002 -3.4119e+002 -6.7238e+002  4.0013e+002 56908 76789,76711,76976
 2.1000e+000 77025 -4.0681e+002 -3.6354e+002  2.0015e+002 56908 76789,76976,76607
 2.1000e+000 77074 -8.7572e+002 -6.5489e+002  3.2403e+002 56908 76607,76976,77048
 2.1000e+000 77097 -1.0580e+003 -5.4589e+002  4.5953e+002 56908 76607,77048,76633
 2.1000e+000 77475 -3.8474e+002 -4.6567e+002  3.5462e+002 56546 77570,77498,77279
 2.1000e+000 77452 -2.8666e+002 -6.7005e+002  4.8197e+002 56546 77498,77227,77357
 2.1000e+000 77429 -4.5698e+002 -5.2918e+002  4.3135e+002 56546 77570,77279,77253
 2.1000e+000 77406 -6.7208e+002 -8.3850e+002  5.2688e+002 56546 77201,77357,77227
 2.1000e+000 77383 -5.2951e+002 -4.8836e+002  1.6068e+002 56546 77279,77331,77305
 2.1000e+000 77524 -3.3333e+002 -1.7547e+002  3.2814e+002 56546 77331,77279,77498
 2.1000e+000 77547 -1.8398e+002 -3.9316e+002  5.7146e+002 56546 77331,77498,77357
 2.1000e+000 77596 -4.5512e+002 -4.8644e+002  4.8618e+002 56546 77227,77498,77570
 2.1000e+000 77619 -5.5520e+002 -6.8719e+002  5.6803e+002 56546 77227,77570,77253
 2.1000e+000 77818 -4.4576e+002 -4.3911e+002  3.9103e+002 56042 77841,77694,77668
 2.1000e+000 77795 -4.1397e+002 -4.1215e+002  3.1887e+002 56042 77841,77668,77746
 2.1000e+000 77772 -5.5028e+002 -5.5637e+002  2.5818e+002 56042 77642,77746,77668
 2.1000e+000 77867 -4.8286e+002 -4.9483e+002  4.1683e+002 56042 77720,77694,77841
 2.1000e+000 77890 -4.4367e+002 -4.5864e+002  3.4328e+002 56042 77720,77841,77746
 2.1000e+000 78349 -6.4648e+002 -1.5408e+002  2.4348e+002 55538 78075,78127,78101
 2.1000e+000 78326 -8.0866e+002 -4.1534e+002  1.3874e+002 55538 78075,78205,78127
 2.1000e+000 78303 -5.6285e+002 -6.5229e+001  3.0569e+001 55538 78075,78231,78205
 2.1000e+000 78280 -6.9391e+002 -6.9995e+002  4.1713e+002 55538 78127,78179,78153
 2.1000e+000 78257 -5.9242e+002 -4.1504e+002  1.2823e+002 55538 78127,78205,78179
 2.1000e+000 78806 -3.2106e+002 -3.7721e+002  1.2460e+002 55034 78829,78636,78610
 2.1000e+000 78783 -3.6462e+002 -3.9143e+002  1.4079e+002 55034 78901,78829,78610
 2.1000e+000 78760 -3.1877e+002 -4.1514e+002  1.6832e+002 55034 78901,78610,78584
 2.1000e+000 78737 -4.4490e+002 -3.0781e+002  1.5753e+002 55034 78558,78688,78662
 2.1000e+000 78714 -5.2816e+002 -3.6481e+002  3.6728e+002 55034 78532,78688,78558
 2.1000e+000 78855 -3.6570e+002 -3.8132e+002  1.1771e+002 55034 78662,78636,78829
 2.1000e+000 78878 -3.9671e+002 -3.6473e+002  1.6845e+002 55034 78662,78829,78558
 2.1000e+000 78927 -3.2263e+002 -3.3361e+002  1.7004e+002 55034 78558,78829,78901
 2.1000e+000 78950 -3.0120e+002 -3.5994e+002  1.9673e+002 55034 78558,78901,78584
 2.1000e+000 79407 -2.3692e+002 -2.2168e+002  2.5004e+002 54430 79430,79237,79159
 2.1000e+000 79384 -2.4781e+002 -4.0391e+002  8.6813e+001 54430 79430,79159,79133
 2.1000e+000 79361 -2.5432e+002 -3.7218e+002  1.4450e+002 54430 79237,79289,79263
 2.1000e+000 79338 -3.2361e+002 -2.6806e+002  2.0487e+002 54430 79185,79237,79211
 2.1000e+000 79315 -4.9723e+002 -2.8405e+002  2.8953e+002 54430 79159,79237,79185
 2.1000e+000 79456 -2.4610e+002 -4.2522e+002  1.6835e+002 54430 79289,79237,79430
 2.1000e+000 79479 -2.5030e+002 -6.8200e+002  4.4253e+001 54430 79289,79430,79133
 2.1000e+000 79936 -2.3736e+002 -2.5150e+002  2.6201e+002 53919 79662,79766,79688
 2.1000e+000 79913 -7.9622e+002 -3.9286e+002  4.4835e+002 53919 79662,79818,79766
 2.1000e+000 79890 -1.0533e+003 -4.5496e+002  5.2343e+001 53919 79766,79818,79792
 2.1000e+000 79867 -5.4331e+002 -4.2711e+002  2.8104e+002 53919 79714,79766,79740
 2.1000e+000 79844 -5.8457e+002 -4.1067e+002  3.0025e+002 53919 79688,79766,79714
 2.1000e+000 80037 -2.2221e+002 -5.4415e+002  5.0903e+002 53671 79959,80011,79985
 2.1000e+000 80405 -1.1317e+002 -3.6686e+002  1.2103e+002 53267 80108,80264,80238
 2.1000e+000 80382 -1.5376e+002 -2.1731e+002  1.6134e+002 53267 80082,80264,80108
 2.1000e+000 80359 -1.2716e+002 -5.3171e+002  3.0589e+002 53267 80108,80238,80134
 2.1000e+000 80336 -5.5166e+001 -2.6387e+002  2.2170e+002 53267 80134,80212,80186
 2.1000e+000 80313 -3.7756e+002 -5.0027e+002  3.8152e+002 53267 80134,80238,80212
 2.1000e+000 80290  8.9480e+000 -4.0269e+002  1.3964e+002 53267 80134,80186,80160
 2.1000e+000 80915 -5.5517e+002 -8.1561e+002  8.6373e+001 52969 80644,80774,80748
 2.1000e+000 80892 -4.8382e+002 -3.5316e+002 -2.9604e+001 52969 80618,80774,80644
 2.1000e+000 80869 -6.6463e+002 -1.0140e+003 -9.8891e+000 52969 80644,80748,80670
 2.1000e+000 80846 -7.4724e+002 -3.7749e+002  2.2926e+000 52969 80592,80774,80618
 2.1000e+000 80823 -1.5101e+003 -1.2131e+003  2.0051e+002 52969 80670,80722,80696
 2.1000e+000 80800 -6.7564e+002 -9.3331e+002 -5.2022e+001 52969 80670,80748,80722
 2.1000e+000 81266  1.3655e+002 -9.4857e+001  6.6877e+001 52565 81041,81145,81067
 2.1000e+000 81243  1.0242e+002 -2.3636e+002  8.9602e+001 52565 81041,81171,81145
 2.1000e+000 81220 -2.8171e+002 -9.4389e+002  2.6810e+002 52565 81067,81119,81093
 2.1000e+000 81197  2.0407e+002  2.6359e+001  9.5994e+001 52565 81067,81145,81119
 2.1000e+000 81723 -1.3554e+002 -2.1866e+001  6.0584e+001 51904 81449,81527,81475
 2.1000e+000 81700 -1.4231e+002 -1.1067e+001  7.1554e+001 51904 81449,81579,81527
 2.1000e+000 81677 -4.8703e+002 -1.1310e+002  9.5588e+001 51904 81449,81605,81579
 2.1000e+000 81654 -2.9919e+002  9.0746e+000  4.7203e+001 51904 81527,81579,81553
 2.1000e+000 81631 -1.3644e+002 -1.7324e+001  5.4390e+001 51904 81475,81527,81501
 2.1000e+000 82327 -5.5078e+002 -5.1715e+002  3.7312e+002 51321 82422,82350,82036
 2.1000e+000 82304 -5.9512e+002 -3.7168e+002  3.8683e+002 51321 82494,82350,81958
 2.1000e+000 82281 -5.5795e+002 -5.3039e+002  3.5984e+002 51321 82422,82036,82010
 2.1000e+000 82258 -5.7992e+002 -3.6179e+002  3.7595e+002 51321 82494,81958,81932
 2.1000e+000 82235 -5.9606e+002 -3.2196e+002  2.3415e+002 51321 82062,82114,82088
 2.1000e+000 82212 -1.3312e+003 -8.0865e+002  5.6651e+002 51321 81932,82140,82114
 2.1000e+000 82189 -5.9538e+002 -1.6415e+002  3.1433e+002 51321 81958,82010,81984
 2.1000e+000 82166 -2.8599e+002 -4.4409e+002  1.9320e+002 51321 81906,82140,81932
 2.1000e+000 82376 -5.6254e+002 -6.5290e+002  3.6974e+002 51321 82062,82036,82350
 2.1000e+000 82399 -5.9468e+002 -4.7709e+002  3.4433e+002 51321 82062,82350,82114
 2.1000e+000 82448 -5.3610e+002 -5.0125e+002  3.8693e+002 51321 81958,82350,82422
 2.1000e+000 82471 -5.4089e+002 -5.1298e+002  3.7401e+002 51321 81958,82422,82010
 2.1000e+000 82520 -5.9563e+002 -3.8029e+002  3.9483e+002 51321 82114,82350,82494
 2.1000e+000 82543 -5.9440e+002 -3.7866e+002  3.8584e+002 51321 82114,82494,81932
 2.1000e+000 83019 -6.2774e+002 -1.4611e+003 -3.6583e+001 50817 82673,82751,82699
 2.1000e+000 82996 -4.6535e+002 -9.0081e+002  1.6001e+002 50817 83042,82673,82855
 2.1000e+000 82973 -5.6479e+002 -6.3355e+002  1.1403e+002 50817 83042,82855,82803
 2.1000e+000 82950 -8.9263e+002 -5.3529e+002  2.1550e+002 50817 82751,82803,82777
 2.1000e+000 82927 -4.5456e+002 -7.6511e+002  2.8415e+002 50817 82647,82855,82673
 2.1000e+000 82904 -8.1725e+002 -7.0888e+002  3.2797e+002 50817 82803,82855,82829
 2.1000e+000 82881 -3.4639e+002 -7.9885e+002 -8.0542e+001 50817 82699,82751,82725
 2.1000e+000 83068 -3.3440e+002 -6.9493e+002  2.9618e+001 50817 82751,82673,83042
 2.1000e+000 83091 -5.3110e+002 -4.9625e+002  2.0276e+001 50817 82751,83042,82803
 2.1000e+000 83290 -5.7061e+002 -2.0708e+002  3.1623e+002 50356 83313,83166,83140
 2.1000e+000 83267 -5.9385e+002 -4.1879e+002  2.6528e+002 50356 83515,83313,83140
 2.1000e+000 83244 -6.7618e+002 -4.2505e+002  1.3286e+002 50356 83515,83140,83385
 2.1000e+000 83339 -7.2191e+002 -3.4979e+002  3.9237e+002 50356 83192,83166,83313
 2.1000e+000 83362 -4.5496e+002 -3.1679e+002  3.5876e+002 50356 83192,83313,83218
 2.1000e+000 83411 -2.7443e+002 -2.2027e+002  2.1162e+002 50356 83114,83218,83385
 2.1000e+000 83541 -3.7934e+002 -3.5556e+002  2.6806e+002 50356 83218,83313,83515
 2.1000e+000 83564 -3.9764e+002 -3.1267e+002  1.5380e+002 50356 83218,83515,83385
 2.1000e+000 83893 -6.3136e+002 -6.2193e+002  1.1702e+002 49552 83720,83798,83746
 2.1000e+000 83870 -4.1017e+002 -2.2009e+002  2.3596e+002 49552 83694,83798,83720
 2.1000e+000 83847 -2.9809e+002 -2.9381e+002  2.3324e+002 49552 83668,83798,83694
 2.1000e+000 83824 -1.3654e+003 -4.3494e+002 -1.0793e+002 49552 83746,83798,83772
 2.1000e+000 84141 -7.0993e+002 -4.5656e+002  3.4879e+002 49212 84164,84020,83942
 2.1000e+000 84118 -6.4962e+002 -2.9869e+002  3.7343e+002 49212 84164,83942,83916
 2.1000e+000 84095 -4.8905e+002 -6.2381e+002  2.4011e+002 49212 83942,84020,83968
 2.1000e+000 84072 -3.9589e+002 -4.1011e+001  1.3694e+002 49212 83968,84020,83994
 2.1000e+000 84190 -7.2862e+002 -4.2045e+002  2.5902e+002 49212 84046,84020,84164
 2.1000e+000 84213 -6.8195e+002 -3.2000e+002  2.8732e+002 49212 84046,84164,83916
 2.1000e+000 84800 -1.7912e+002 -2.5543e+002  1.9016e+002 48865 84503,84633,84555
 2.1000e+000 84777 -2.1153e+002 -3.5540e+002  1.6991e+002 48865 84503,84659,84633
 2.1000e+000 84754 -2.0437e+002 -3.5850e+002  1.6430e+002 48865 84555,84633,84581
 2.1000e+000 84731 -2.3854e+002 -8.5898e+002  4.2093e+002 48865 84581,84633,84607
 2.1000e+000 84708 -4.2274e+002 -3.1649e+002  1.4750e+002 48865 84503,84555,84529
 2.1000e+000 84685 -1.9335e+002 -2.9088e+002  1.8683e+002 48865 84477,84659,84503
 2.1000e+000 85355 -3.2978e+002 -3.1988e+002  4.0575e+001 48461 85378,85035,85009
 2.1000e+000 85332 -5.5420e+002 -5.2238e+002  1.3676e+002 48461 85378,85009,85165
 2.1000e+000 85309 -4.9053e+002 -5.1927e+002  2.3406e+002 48461 85450,85061,85035
 2.1000e+000 85286 -5.6680e+002 -5.1863e+002  1.2062e+002 48461 85009,85191,85165
 2.1000e+000 85263 -4.8090e+002 -4.8456e+002  3.3580e+002 48461 85087,85165,85113
 2.1000e+000 85240 -2.2927e+002 -6.5383e+002 -7.8489e+001 48461 84983,85191,85009
 2.1000e+000 85217 -4.1732e+002 -6.1205e+002  2.3102e+002 48461 85113,85165,85139
 2.1000e+000 85404 -5.0476e+002 -3.9922e+002  1.6917e+002 48461 85450,85035,85378
 2.1000e+000 85427 -5.7052e+002 -4.7693e+002  1.6597e+002 48461 85087,85378,85165
 2.1000e+000 85476 -5.2566e+002 -6.8428e+002  2.6267e+002 48461 85087,85061,85450
 2.1000e+000 85499 -5.6287e+002 -6.1647e+002  1.8573e+002 48461 85087,85450,85378
 2.1000e+000 86084 -1.9959e+002 -5.0303e+002  2.3183e+002 48057 86323,86107,85787
 2.1000e+000 86061 -3.0306e+002 -5.8719e+002  2.9694e+002 48057 86107,85761,85943
 2.1000e+000 86038 -3.9454e+002 -4.2787e+002  2.1835e+002 48057 86251,86179,85891
 2.1000e+000 86015 -3.8928e+002 -3.6531e+002  1.4223e+002 48057 86251,85891,85839
 2.1000e+000 85992 -3.5856e+002 -3.7281e+002  2.8931e+002 48057 85891,85943,85917
 2.1000e+000 85969 -4.9117e+002 -2.8779e+002  2.0001e+002 48057 85839,85891,85865
 2.1000e+000 86133 -2.2045e+002 -5.1772e+002  1.8584e+002 48057 85813,85787,86107
 2.1000e+000 86156 -3.1323e+002 -5.2131e+002  1.8446e+002 48057 86179,85813,86107
 2.1000e+000 86205 -3.1291e+002 -3.5147e+002  2.5029e+002 48057 85943,85891,86179
 2.1000e+000 86228 -2.0398e+002 -3.9757e+002  2.4615e+002 48057 85943,86179,86107
 2.1000e+000 86277 -2.6068e+002 -3.5611e+002  1.9093e+002 48057 85813,86179,86251
 2.1000e+000 86300 -3.2779e+002 -3.2745e+002  1.2569e+002 48057 85813,86251,85839
 2.1000e+000 86349 -1.5008e+002 -4.7190e+002  2.4512e+002 48057 85761,86107,86323
 2.1000e+000 86855 -2.1822e+002 -3.5170e+002  2.1128e+002 47545 86878,86584,86558
 2.1000e+000 86832 -2.9342e+002 -3.8585e+002  2.0142e+002 47545 86950,86878,86558
 2.1000e+000 86809 -3.2692e+002 -3.3094e+002  2.1550e+002 47545 86950,86558,86532
 2.1000e+000 86786 -1.8901e+002 -3.7242e+002  2.3890e+002 47545 86584,86662,86610
 2.1000e+000 86763 -3.3612e+002 -1.3808e+002  8.2115e+001 47545 86532,86714,86688
 2.1000e+000 86740 -2.8713e+002 -1.6497e+002  2.1630e+002 47545 86610,86662,86636
 2.1000e+000 86904 -2.3895e+002 -4.2421e+002  2.1694e+002 47545 86662,86584,86878
 2.1000e+000 86927 -1.4353e+002 -3.6758e+002  1.8016e+002 47545 86662,86878,86688
 2.1000e+000 86976 -2.1909e+002 -3.1540e+002  1.6276e+002 47545 86688,86878,86950
 2.1000e+000 86999 -2.9297e+002 -3.1759e+002  1.9227e+002 47545 86688,86950,86532
 2.1000e+000 87328 -6.3631e+002 -2.6231e+002  2.1797e+002 47048 87155,87207,87181
 2.1000e+000 87305 -3.9275e+002 -2.5189e+002  2.0121e+002 47048 87129,87207,87155
 2.1000e+000 87282 -7.5539e+002 -4.1075e+002  2.3836e+002 47048 87103,87207,87129
 2.1000e+000 87259 -1.1383e+003 -1.6069e+003 -1.2928e+002 47048 87103,87233,87207
 2.1000e+000 87576 -2.6219e+002 -5.0634e+002  3.1982e+002 46701 87599,87429,87377
 2.1000e+000 87553 -3.9464e+002 -5.1235e+002  2.9117e+002 46701 87599,87377,87481
 2.1000e+000 87530 -3.7218e+002 -5.0151e+002  2.9481e+002 46701 87351,87481,87377
 2.1000e+000 87507 -3.7589e+002 -4.8514e+002  3.7526e+002 46701 87377,87429,87403
 2.1000e+000 87625 -3.2560e+002 -4.0472e+002  1.8636e+002 46701 87455,87429,87599
 2.1000e+000 87648 -6.4998e+002 -5.0761e+002  2.0067e+002 46701 87455,87599,87481
 2.1000e+000 87798  4.2491e+001 -1.8223e+002  2.1904e+001 46239 87697,87749,87723
 2.1000e+000 87775 -4.8681e+000 -4.4618e+002  1.3285e+002 46239 87671,87749,87697
 2.1000e+000 88308 -8.0824e+002 -8.6977e+002  1.7958e+002 45735 88089,88167,88141
 2.1000e+000 88285 -5.7326e+002 -3.6052e+002  2.4516e+002 45735 88011,88167,88089
 2.1000e+000 88262 -3.4260e+002 -3.3341e+002  1.7577e+002 45735 87985,88167,88011
 2.1000e+000 88239 -4.7995e+002 -1.5278e+003  4.7242e+002 45735 88011,88089,88063
 2.1000e+000 88216 -9.9355e+002 -9.3775e+002  2.0531e+002 45735 88089,88141,88115
 2.1000e+000 88193 -8.8302e+002 -2.3068e+003  1.0892e+002 45735 88011,88063,88037
 2.1000e+000 88686 -6.0198e+002 -2.2263e+002  3.6967e+002 45316 88438,88516,88490
 2.1000e+000 88663 -5.6370e+002  1.9190e+002  5.1829e+002 45316 88438,88542,88516
 2.1000e+000 88640 -2.8688e+002 -5.5761e+002  6.6437e+002 45316 88438,88568,88542
 2.1000e+000 88617 -6.3764e+002 -4.7922e+002  3.1638e+002 45316 88438,88490,88464
 2.1000e+000 88594 -6.1582e+002 -6.1580e+002  6.6118e+002 45316 88412,88568,88438
 2.1000e+000 88934 -1.1083e+003 -1.0506e+003  6.3680e+002 44812 88957,88735,88709
 2.1000e+000 88911 -5.5978e+002 -6.7893e+002  2.2759e+002 44812 88957,88709,88839
 2.1000e+000 88888 -5.7482e+002 -3.3778e+002  8.7426e+001 44812 89029,88787,88761
 2.1000e+000 88865 -5.3737e+002 -4.1068e+002  1.6437e+002 44812 88787,88839,88813
 2.1000e+000 88983 -2.2836e+002 -6.0344e+002  3.9612e+002 44812 88761,88735,88957
 2.1000e+000 89006 -4.3220e+002 -4.6616e+002  6.4349e+001 44812 89029,88761,88957
 2.1000e+000 89055 -5.4948e+002 -4.8065e+002  1.5007e+002 44812 88839,88787,89029
 2.1000e+000 89078 -5.4468e+002 -7.4851e+002  1.7406e+002 44812 88839,89029,88957
 2.1000e+000 89228 -6.6392e+001 -3.5354e+002  3.3215e+002 44408 89127,89179,89153
 2.1000e+000 89205  9.2527e+001  9.3333e+000  2.0815e+000 44408 89101,89179,89127
 2.1000e+000 89787 -6.3127e+002 -3.4450e+002  3.2093e+002 43854 89810,89545,89519
 2.1000e+000 89764 -6.9473e+002 -4.9207e+002  2.8984e+002 43854 89810,89519,89467
 2.1000e+000 89741 -6.3805e+002 -6.7446e+002  2.9559e+002 43854 89954,89882,89597
 2.1000e+000 89718 -6.4525e+002 -6.9468e+002  2.9654e+002 43854 89954,89597,89571
 2.1000e+000 89695 -3.5802e+002 -4.0996e+002  2.7814e+002 43854 89415,89623,89467
 2.1000e+000 89672 -2.0948e+002 -2.8835e+002  1.8332e+002 43854 89467,89519,89493
 2.1000e+000 89649 -2.1026e+002 -3.1966e+002  2.1796e+002 43854 89415,89467,89441
 2.1000e+000 89836 -6.3950e+002 -3.5233e+002  3.5927e+002 43854 89882,89545,89810
 2.1000e+000 89859 -3.8675e+002 -4.3325e+002  2.5691e+002 43854 89623,89810,89467
 2.1000e+000 89908 -6.2217e+002 -7.2668e+002  3.9384e+002 43854 89623,89597,89882
 2.1000e+000 89931 -6.3069e+002 -6.9871e+002  3.6909e+002 43854 89623,89882,89810
 2.1000e+000 89980 -6.8631e+002 -6.2722e+002  4.5279e+002 43854 89545,89882,89954
 2.1000e+000 90003 -7.5051e+002 -7.6162e+002  4.7870e+002 43854 89545,89954,89571
 2.1000e+000 90251 -2.3377e+002 -2.7953e+002  2.4520e+002 43492 90026,90078,90052
 2.1000e+000 90228 -5.7987e+002 -3.2866e+002  1.4212e+002 43492 90274,90026,90156
 2.1000e+000 90205 -5.6391e+002 -4.3895e+002  1.3666e+002 43492 90346,90274,90156
 2.1000e+000 90182 -6.0366e+002 -6.4351e+002  5.1426e+002 43492 90346,90156,90130
 2.1000e+000 90300 -3.0435e+002 -4.5767e+002  2.4947e+002 43492 90078,90026,90274
 2.1000e+000 90323 -6.6228e+002 -5.6665e+002  2.4252e+002 43492 90078,90274,90104
 2.1000e+000 90372 -1.0057e+003 -7.2060e+002  3.9068e+002 43492 90104,90274,90346
 2.1000e+000 90395 -1.0895e+003 -1.0103e+003  7.8443e+002 43492 90104,90346,90130
 2.1000e+000 90594 -9.5932e+001 -5.3773e+002  2.3705e+002 43052 90418,90496,90444
 2.1000e+000 90571 -5.7252e+002 -8.6341e+002  3.7867e+002 43052 90418,90522,90496
 2.1000e+000 90548 -3.4879e+002 -4.9015e+002  2.2161e+002 43052 90444,90496,90470
 2.1000e+000 91074 -4.2599e+002 -6.3236e+002  1.7227e+002 42434 91241,90884,90858
 2.1000e+000 91051 -6.3106e+002 -6.5784e+002 -5.2472e+001 42434 90702,90910,90884
 2.1000e+000 91028 -3.8443e+002 -5.9421e+002  2.1534e+002 42434 91097,90754,90702
 2.1000e+000 91005 -4.1986e+002 -5.7315e+002  1.6581e+002 42434 91241,90858,91097
 2.1000e+000 90982 -2.5262e+002 -4.7849e+002  1.7233e+002 42434 91169,90806,90780
 2.1000e+000 90959 -1.6497e+002 -4.1458e+002  9.9074e+001 42434 90806,90858,90832
 2.1000e+000 90936 -3.2989e+002 -5.0795e+002  2.4128e+002 42434 90702,90754,90728
 2.1000e+000 91123 -4.0918e+002 -6.0180e+002  1.9498e+002 42434 90780,90754,91097
 2.1000e+000 91146 -3.8792e+002 -5.3893e+002  2.1507e+002 42434 91169,90780,91097
 2.1000e+000 91195 -1.9358e+002 -4.9328e+002  9.4260e+001 42434 90858,90806,91169
 2.1000e+000 91218 -2.7741e+002 -4.8368e+002  1.1783e+002 42434 90858,91169,91097
 2.1000e+000 91267 -3.9460e+002 -7.0157e+002  1.5076e+002 42434 90702,90884,91241
 2.1000e+000 91290 -3.9606e+002 -6.5144e+002  1.4459e+002 42434 90702,91241,91097
 2.1000e+000 91698 -1.6827e+002 -5.2545e+002  2.2401e+002 41773 91473,91577,91499
 2.1000e+000 91675 -2.9990e+002 -6.3728e+002  3.1955e+002 41773 91473,91603,91577
 2.1000e+000 91652 -2.6800e+002 -3.8595e+002  8.1918e+001 41773 91499,91551,91525
 2.1000e+000 91629 -4.0797e+002 -4.4293e+002  2.1069e+002 41773 91499,91577,91551
 2.1000e+000 92044 -4.8396e+002 -5.3979e+002  3.6723e+002 41383 91773,91877,91851
 2.1000e+000 92021 -3.3582e+002 -7.0035e+002  2.1886e+002 41383 91747,91877,91773
 2.1000e+000 91998 -3.4529e+002 -3.7701e+002  2.7512e+002 41383 91773,91851,91799
 2.1000e+000 91975 -1.9718e+002 -4.6578e+002  1.2349e+001 41383 91747,91903,91877
 2.1000e+000 91952 -2.4329e+002 -3.2635e+002  1.5353e+002 41383 91721,91903,91747
 2.1000e+000 91929 -1.4217e+002 -4.2908e+002  2.0760e+002 41383 91799,91851,91825
 2.1000e+000 92601 -5.4584e+002 -4.7997e+002  1.6383e+002 40979 92229,92411,92307
 2.1000e+000 92578 -6.5513e+002 -4.7537e+002  1.3750e+002 40979 92229,92437,92411
 2.1000e+000 92555 -4.9859e+002 -3.8317e+002  1.4785e+002 40979 92229,92307,92281
 2.1000e+000 92532 -4.3287e+002 -4.6991e+002  2.7845e+002 40979 92333,92411,92385
 2.1000e+000 92509 -4.4957e+002 -4.1011e+002  1.9476e+002 40979 92307,92411,92333
 2.1000e+000 92486 -5.1705e+002 -3.9411e+002  1.2448e+002 40979 92229,92281,92255
 2.1000e+000 92463 -7.3118e+001 -4.9681e+002  1.8425e+002 40979 92333,92385,92359
 2.1000e+000 93235 -6.1568e+002 -3.4528e+002  4.5945e+002 40525 92941,92993,92967
 2.1000e+000 93212 -9.1351e+002 -2.0074e+002  7.5068e+001 40525 93258,92941,92889
 2.1000e+000 93189 -7.0884e+002 -1.0662e+002  4.6886e+001 40525 93258,92889,93071
 2.1000e+000 93166 -7.8529e+002 -2.5588e+002  5.2211e+001 40525 92889,92941,92915
 2.1000e+000 93143 -8.1839e+002 -6.9816e+001  3.1790e+001 40525 92863,93071,92889
 2.1000e+000 93120 -6.4876e+002 -3.1823e+002  1.9682e+002 40525 92993,93071,93019
 2.1000e+000 93097 -6.5433e+002 -2.1053e+002  1.5096e+002 40525 93019,93071,93045
 2.1000e+000 93284 -1.0233e+003 -3.1685e+002  3.0951e+002 40525 92993,92941,93258
 2.1000e+000 93307 -6.3275e+002 -1.2045e+002  2.4298e+002 40525 92993,93258,93071
 2.1000e+000 93636 -7.4918e+002 -5.3394e+002  6.0887e+002 40235 93437,93541,93515
 2.1000e+000 93613 -7.0452e+002 -7.3025e+002  5.7396e+002 40235 93411,93541,93437
 2.1000e+000 93590 -1.0623e+002 -7.0672e+002  2.0397e+002 40235 93463,93515,93489
 2.1000e+000 93567 -2.8785e+002 -4.9147e+002  9.8999e+001 40235 93437,93515,93463
 2.1000e+000 94014 -7.9222e+002 -7.1889e+002  3.4146e+002 39873 93766,93870,93792
 2.1000e+000 93991 -6.4780e+002 -8.2163e+002  2.6178e+002 39873 93766,93896,93870
 2.1000e+000 93968 -7.2597e+002 -5.6402e+002  3.6523e+002 39873 93792,93870,93844
 2.1000e+000 93945 -5.6009e+002 -4.6543e+002  3.0022e+002 39873 93792,93844,93818
 2.1000e+000 93922 -5.0202e+002 -7.6720e+002  5.0508e+002 39873 93740,93896,93766
 2.1000e+000 94164 -6.9226e+001 -5.2789e+002  1.9271e+002 39461 94037,94089,94063
 2.1000e+000 94141 -1.5672e+002 -7.4490e+002  2.8936e+002 39461 94037,94115,94089
 2.1000e+000 94363 -3.3558e+002 -2.6113e+002  2.3891e+002 39057 94386,94239,94213
 2.1000e+000 94340 -3.0409e+002 -2.2887e+002  2.1667e+002 39057 94386,94213,94187
 2.1000e+000 94317 -4.3661e+002 -3.7022e+002  2.3078e+002 39057 94187,94291,94265
 2.1000e+000 94412 -1.9093e+002 -2.2428e+002  1.9184e+002 39057 94458,94386,94265
 2.1000e+000 94435 -3.0963e+002 -2.7501e+002  1.8906e+002 39057 94265,94386,94187
 2.1000e+000 94484 -3.3836e+002 -3.2403e+002  2.5047e+002 39057 94239,94386,94458
 2.1000e+000 94896 -7.5517e+002 -5.1861e+002  3.2728e+002 38396 94919,94775,94723
 2.1000e+000 94873 -8.3668e+002 -4.1271e+002  3.2941e+002 38396 94919,94723,94697
 2.1000e+000 94850 -6.3857e+002 -4.9273e+002  2.6589e+002 38396 94723,94775,94749
 2.1000e+000 94827 -3.7816e+002 -2.0139e+002  2.4799e+002 38396 94671,94801,94697
 2.1000e+000 94945 -7.4993e+002 -4.4985e+002  2.8484e+002 38396 94801,94775,94919
 2.1000e+000 94968 -7.9218e+002 -3.2123e+002  2.6939e+002 38396 94801,94919,94697
 2.1000e+000 95265 -7.6796e+002 -7.4427e+002  3.9696e+002 37835 95017,95069,95043
 2.1000e+000 95242 -7.5738e+002 -6.1397e+002  3.8683e+002 37835 95288,95069,95017
 2.1000e+000 95219 -8.4598e+002 -6.8579e+002  5.0388e+002 37835 95288,95017,94991
 2.1000e+000 95196 -8.9839e+002 -7.2637e+002  4.2718e+002 37835 94991,95147,95121
 2.1000e+000 95173 -5.7147e+002 -3.5989e+002  3.2436e+002 37835 95069,95121,95095
 2.1000e+000 95314 -7.5239e+002 -4.5438e+002  2.8477e+002 37835 95121,95069,95288
 2.1000e+000 95337 -8.2827e+002 -5.5602e+002  3.9563e+002 37835 95121,95288,94991
 2.1000e+000 95558  1.5383e+002  2.2510e+001  1.9061e+002 37423 95408,95460,95434
 2.1000e+000 95535 -1.8973e+002 -8.0965e+002  4.3709e+002 37423 95382,95460,95408
 2.1000e+000 95512 -4.0767e+002 -9.8699e+002  5.1572e+002 37423 95382,95486,95460
 2.1000e+000 95891 -3.4519e+001 -4.2902e+002  2.0206e+002 37225 95666,95718,95692
 2.1000e+000 95868 -3.2849e+002 -5.1415e+002  2.8137e+002 37225 95666,95796,95718
 2.1000e+000 95845 -3.1000e+002 -4.4681e+002  1.0461e+002 37225 95718,95770,95744
 2.1000e+000 95822 -1.7321e+002 -3.7936e+002  1.2893e+002 37225 95718,95796,95770
 2.1000e+000 95992  1.6360e+000 -3.3881e+002  2.0298e+002 36735 95914,95966,95940
 2.1000e+000 96142 -8.5822e+002 -3.3224e+002  3.9554e+002 36331 96297,96067,96041
 2.1000e+000 96119 -6.3322e+002 -3.3222e+002  3.8878e+002 36331 96165,96041,96015
 2.1000e+000 96191 -7.9739e+002 -3.2721e+002  3.6264e+002 36331 96297,96041,96165
 2.1000e+000 96323 -9.8602e+002 -3.6372e+002  5.1668e+002 36331 96093,96067,96297
 2.1000e+000 96346 -8.0968e+002 -3.0737e+002  4.9150e+002 36331 96093,96297,96165
 2.1000e+000 96714 -4.9179e+002 -7.7484e+002  5.2006e+002 36041 96737,96495,96443
 2.1000e+000 96691 -7.0008e+002 -5.4118e+002  5.0699e+002 36041 96737,96443,96417
 2.1000e+000 96668 -2.1100e+002 -8.8074e+002  1.0324e+002 36041 96443,96495,96469
 2.1000e+000 96645 -1.5600e+002 -1.8535e+002  2.6312e+002 36041 96391,96521,96417
 2.1000e+000 96622  3.2451e+001 -2.4079e+002  2.2035e+002 36041 96391,96547,96521
 2.1000e+000 96599 -9.3583e+001 -2.7635e+002  2.0117e+002 36041 96391,96573,96547
 2.1000e+000 96763 -2.1093e+002 -5.8799e+002  4.3918e+002 36041 96521,96495,96737
 2.1000e+000 96786 -5.9723e+002 -4.8217e+002  4.7602e+002 36041 96521,96737,96417
 2.1000e+000 96936 -4.2991e+002 -2.5747e+002  2.5656e+002 35637 97031,96959,96835
 2.1000e+000 96913 -5.7775e+002 -2.8679e+002  3.0568e+002 35637 97163,96959,96809
 2.1000e+000 96985 -5.8848e+002 -1.9660e+002  3.0346e+002 35637 96861,96835,96959
 2.1000e+000 97008 -7.9109e+002 -3.7938e+002  5.0845e+002 35637 96861,96959,96887
 2.1000e+000 97057 -4.6182e+002 -1.7986e+002  1.7219e+002 35637 96809,96959,97031
 2.1000e+000 97189 -4.9471e+002 -2.4635e+002  3.3031e+002 35637 96887,96959,97163
 2.1000e+000 97597 -3.8840e+002 -4.3449e+002  3.9031e+002 35190 97450,97502,97476
 2.1000e+000 97574 -4.2558e+002 -5.4285e+002  4.8580e+002 35190 97372,97502,97450
 2.1000e+000 97551 -4.4415e+002 -6.5447e+002  4.6685e+002 35190 97372,97450,97398
 2.1000e+000 97528 -2.9596e+002 -5.6147e+002  3.9080e+002 35190 97398,97450,97424
 2.1000e+000 98054 -5.3680e+002 -6.7229e+002  4.8775e+002 34636 97806,97936,97858
 2.1000e+000 98031 -8.1300e+002 -4.1356e+002  4.1407e+002 34636 97780,97936,97806
 2.1000e+000 98008 -6.5350e+002 -6.2064e+002  2.2560e+002 34636 97806,97858,97832
 2.1000e+000 97985 -5.6299e+002 -6.2922e+002  4.8082e+002 34636 97884,97936,97910
 2.1000e+000 97962 -3.2859e+002 -4.3468e+002  3.7027e+002 34636 97858,97936,97884
 2.1000e+000 98530 -6.0354e+002 -1.3755e+002  1.3713e+002 34068 98697,98184,98366
 2.1000e+000 98507 -5.7587e+001 -1.7260e+002  1.0054e+002 34068 98158,98366,98184
 2.1000e+000 98484 -7.8329e+002 -5.9675e+002  2.7879e+002 34068 98553,98262,98236
 2.1000e+000 98461 -1.2337e+003 -7.9012e+002  2.1032e+002 34068 98553,98236,98210
 2.1000e+000 98438 -7.3586e+002 -3.9114e+002  2.1173e+002 34068 98841,98625,98366
 2.1000e+000 98415 -8.2643e+002 -1.0446e+003  5.1940e+002 34068 98769,98288,98262
 2.1000e+000 98392 -9.2423e+002 -2.5643e+002  1.6968e+002 34068 98841,98366,98340
 2.1000e+000 98579 -9.2465e+002 -7.8938e+002  3.5311e+002 34068 98769,98262,98553
 2.1000e+000 98602 -7.5198e+002 -4.6558e+002  2.2880e+002 34068 98625,98314,98553
 2.1000e+000 98651 -6.9552e+002 -4.1058e+002  1.5790e+002 34068 98697,98366,98625
 2.1000e+000 98674 -8.0139e+002 -6.3540e+002  1.8723e+002 34068 98210,98625,98553
 2.1000e+000 98723 -6.9361e+002 -4.6497e+002  1.9316e+002 34068 98210,98184,98697
 2.1000e+000 98746 -6.6611e+002 -4.9433e+002  2.4292e+002 34068 98210,98697,98625
 2.1000e+000 98795 -5.2166e+002 -7.9167e+002  3.4193e+002 34068 98314,98288,98769
 2.1000e+000 98818 -6.8514e+002 -6.3015e+002  1.8803e+002 34068 98314,98769,98553
 2.1000e+000 98867 -9.1304e+002 -5.4041e+002  1.4233e+002 34068 98314,98625,98841
 2.1000e+000 98890 -1.1043e+003 -3.9142e+002  1.0669e+002 34068 98314,98841,98340
 2.1000e+000 99268 -9.7792e+002 -8.4316e+002  6.1520e+002 33450 99291,99098,99072
 2.1000e+000 99245 -1.0581e+003 -6.4404e+002  2.8113e+002 33450 99291,99072,99020
 2.1000e+000 99222 -1.4639e+003 -7.5962e+002  4.1673e+002 33450 99020,99072,99046
 2.1000e+000 99199 -8.3042e+002 -5.6979e+002  2.8509e+002 33450 99020,99150,99124
 2.1000e+000 99176 -8.6248e+002 -6.4971e+002  1.0094e+002 33450 98994,99150,99020
 2.1000e+000 99317 -4.8241e+002 -6.2786e+002  5.8835e+002 33450 99124,99098,99291
 2.1000e+000 99340 -8.9867e+002 -5.8898e+002  2.8879e+002 33450 99124,99291,99020
 2.1000e+000 99865 -5.4275e+002 -5.2025e+002  3.1731e+002 32944 100176,99960,99888
 2.1000e+000 99842 -5.9124e+002 -4.9416e+002  3.2645e+002 32944 100104,99888,99522
 2.1000e+000 99819 -5.8747e+002 -5.0931e+002  4.3837e+002 32944 100248,99960,99626
 2.1000e+000 99796 -5.0645e+002 -5.8971e+002  1.6414e+002 32944 100032,99652,99626
 2.1000e+000 99773 -4.6205e+002 -5.4336e+002  2.2680e+002 32944 100104,99522,99496
 2.1000e+000 99750 -3.9981e+002 -3.1982e+002  5.7391e+001 32944 99574,99626,99600
 2.1000e+000 99727 -5.3268e+002 -4.5105e+002  4.6225e+002 32944 100248,99626,99574
 2.1000e+000 99704 -2.7332e+002 -5.4324e+002  3.1145e+002 32944 99444,99496,99470
 2.1000e+000 99914 -5.2782e+002 -4.6597e+002  1.9838e+002 32944 100176,99888,100032
 2.1000e+000 99937 -6.3054e+002 -4.0161e+002  3.3277e+002 32944 99678,99888,99444
 2.1000e+000 99986 -5.8893e+002 -4.4427e+002  3.0596e+002 32944 99522,99888,99960
 2.1000e+000 100009 -6.4578e+002 -3.7499e+002  3.5205e+002 32944 99522,99960,99548
 2.1000e+000 100058 -6.2197e+002 -5.5012e+002  1.7602e+002 32944 99678,99652,100032
 2.1000e+000 100081 -6.5710e+002 -5.2851e+002  1.7733e+002 32944 99678,100032,99888
 2.1000e+000 100130 -3.7308e+002 -4.2294e+002  3.3306e+002 32944 99444,99888,100104
 2.1000e+000 100153 -2.9022e+002 -5.0644e+002  2.4563e+002 32944 99444,100104,99496
 2.1000e+000 100202 -6.1200e+002 -7.0075e+002  3.2546e+002 32944 99626,99960,100176
 2.1000e+000 100225 -6.3304e+002 -7.0261e+002  2.1991e+002 32944 99626,100176,100032
 2.1000e+000 100274 -6.8465e+002 -4.5829e+002  3.6834e+002 32944 99548,99960,100248
 2.1000e+000 100297 -6.3635e+002 -4.0857e+002  3.8987e+002 32944 99548,100248,99574
 2.1000e+000 100754 -2.1838e+002 -2.3992e+002  1.1185e+002 32369 100777,100584,100506
 2.1000e+000 100731 -2.5781e+002 -3.8537e+002  2.7889e+002 32369 100777,100506,100636
 2.1000e+000 100708 -4.1944e+002 -3.9027e+002  2.8519e+002 32369 100480,100636,100506
 2.1000e+000 100685 -5.7400e+002 -2.4205e+002  5.2477e+000 32369 100532,100584,100558
 2.1000e+000 100662 -3.2103e+002 -2.7458e+002  1.9080e+002 32369 100506,100584,100532
 2.1000e+000 100803 -2.6528e+002 -3.9947e-001  6.4377e+001 32369 100610,100584,100777
 2.1000e+000 100826 -2.7249e+002 -1.5257e+002  2.0790e+002 32369 100610,100777,100636
 2.1000e+000 101025 -5.8589e+002 -3.0590e+002  3.4933e+002 31857 100875,100927,100901
 2.1000e+000 101002 -9.1030e+002 -2.5191e+002  3.1417e+002 31857 100875,100953,100927
 2.1000e+000 100979 -9.8444e+002 -4.2409e+002  3.1039e+002 31857 100849,100953,100875
 2.1000e+000 101533 -4.9863e+002 -5.9097e+002  4.6282e+002 31253 101556,101314,101236
 2.1000e+000 101510 -6.8870e+002 -5.9713e+002  4.2130e+002 31253 101556,101236,101210
 2.1000e+000 101487 -6.0586e+002 -5.8447e+002  1.8920e+002 31253 101210,101392,101340
 2.1000e+000 101464 -3.8881e+002 -5.0420e+002  3.8832e+002 31253 101236,101288,101262
 2.1000e+000 101441 -4.8230e+002 -7.6186e+002  4.5020e+002 31253 101236,101314,101288
 2.1000e+000 101418 -6.6212e+002 -8.5447e+002  4.6519e+002 31253 101340,101392,101366
 2.1000e+000 101582 -5.5849e+002 -6.2629e+002  3.0790e+002 31253 101340,101314,101556
 2.1000e+000 101605 -7.4894e+002 -6.1204e+002  2.7387e+002 31253 101340,101556,101210
 2.1000e+000 101755  1.6266e+002 -1.0210e+002  7.7331e+001 30519 101778,101654,101628
 2.1000e+000 101732 -1.1340e+002 -1.5833e+002  2.7875e+001 30519 101850,101778,101628
 2.1000e+000 101804 -4.6536e+001 -1.2750e+002 -2.8841e+001 30519 101680,101654,101778
 2.1000e+000 101827 -2.3821e+002 -8.2699e+001 -2.4589e+001 30519 101680,101778,101706
 2.1000e+000 101876 -1.0171e+002 -1.4243e+002  1.0482e+001 30519 101706,101778,101850
 2.1000e+000 102561 -2.4433e+002 -4.6316e+002  2.3661e+002 29951 102656,102584,102270
 2.1000e+000 102538 -9.3844e+002 -1.0068e+003  1.5373e+002 29951 102584,102140,102374
 2.1000e+000 102515 -4.4071e+002 -1.0712e+003  5.4691e+002 29951 102728,102656,102270
 2.1000e+000 102492 -4.8535e+002 -1.3155e+003  5.4933e+002 29951 102728,102270,102244
 2.1000e+000 102469 -7.7480e+002 -2.3521e+002  3.6482e+002 29951 102800,102322,102296
 2.1000e+000 102446 -8.1170e+002 -4.7168e+002  1.2350e+002 29951 102166,102218,102192
 2.1000e+000 102423 -6.2559e+002 -5.3978e+002  3.5115e+001 29951 102166,102244,102218
 2.1000e+000 102400 -4.2637e+002 -4.7251e+002  2.9886e+002 29951 102322,102374,102348
 2.1000e+000 102610 -9.0658e+002 -3.6470e+002  7.8147e+001 29951 102296,102270,102584
 2.1000e+000 102633 -1.0399e+003 -4.4482e+002  2.0414e+002 29951 102800,102296,102584
 2.1000e+000 102682 -1.0740e+003 -9.3953e+002  4.4512e+002 29951 102140,102584,102656
 2.1000e+000 102705 -6.1787e+002 -8.4551e+002  6.8252e+002 29951 102140,102656,102166
 2.1000e+000 102754 -4.9922e+002 -8.0100e+002  6.5373e+002 29951 102166,102656,102728
 2.1000e+000 102777 -5.2722e+002 -9.7931e+002  6.0742e+002 29951 102166,102728,102244
 2.1000e+000 102826 -4.9851e+002 -4.7018e+002  4.6606e+002 29951 102374,102322,102800
 2.1000e+000 102849 -6.2508e+002 -4.8090e+002  3.6148e+002 29951 102374,102800,102584
 2.1000e+000 103048  1.0368e+002 -2.4991e+002  7.7326e+001 29454 102872,102924,102898
 2.1000e+000 103025 -7.3700e+001 -7.5079e+002  2.4991e+002 29454 102872,102976,102924
 2.1000e+000 103002 -2.5001e+002 -1.0380e+003  1.4404e+002 29454 102924,102976,102950
 2.1000e+000 103296 -1.0330e+003 -7.1810e+002  5.0478e+002 29064 103319,103175,103123
 2.1000e+000 103273 -1.4356e+003 -7.2863e+002  5.8305e+002 29064 103319,103123,103071
 2.1000e+000 103250 -6.4053e+002 -4.7105e+002  3.8832e+002 29064 103123,103175,103149
 2.1000e+000 103227 -1.0618e+003 -6.4659e+002  7.5324e+002 29064 103071,103123,103097
 2.1000e+000 103345 -6.8057e+002 -8.2052e+002  3.5577e+002 29064 103201,103175,103319
 2.1000e+000 103368 -1.1423e+003 -7.6965e+002  2.8661e+002 29064 103201,103319,103071
 2.1000e+000 104006 -6.4197e+002 -2.9234e+002  2.3965e+002 28603 104101,104029,103712
 2.1000e+000 103983 -5.8492e+002 -2.2970e+002  2.1184e+002 28603 104173,104029,103660
 2.1000e+000 103960 -7.6000e+002 -2.3295e+002  2.1744e+002 28603 104101,103712,103686
 2.1000e+000 103937 -4.6735e+002 -3.2398e+002  2.0497e+002 28603 104173,103660,103634
 2.1000e+000 103914 -6.7640e+002 -2.5616e+002  3.3569e+002 28603 103764,103816,103790
 2.1000e+000 103891 -4.7744e+002 -3.2232e+002  3.3055e+002 28603 103634,103842,103816
 2.1000e+000 103868 -5.2377e+002 -1.7783e+002  3.0624e+002 28603 103712,103764,103738
 2.1000e+000 104055 -6.4319e+002 -2.4725e+002  2.4788e+002 28603 103764,103712,104029
 2.1000e+000 104078 -6.1629e+002 -2.5318e+002  3.0747e+002 28603 103764,104029,103816
 2.1000e+000 104127 -7.9249e+002 -3.1701e+002  1.8338e+002 28603 103660,104029,104101
 2.1000e+000 104150 -9.6902e+002 -2.8318e+002  1.8803e+002 28603 103660,104101,103686
 2.1000e+000 104199 -6.8056e+002 -3.0693e+002  2.4793e+002 28603 103816,104029,104173
 2.1000e+000 104222 -5.6243e+002 -3.8566e+002  2.3228e+002 28603 103816,104173,103634
 2.1000e+000 104600 -4.2364e+002 -7.7286e+002  1.7532e+002 28348 104623,104378,104326
 2.1000e+000 104577 -3.5721e+002 -7.9908e+002  3.4481e+002 28348 104623,104326,104482
 2.1000e+000 104554 -3.4966e+002 -4.7807e+002  1.1535e+002 28348 104326,104378,104352
 2.1000e+000 104531 -4.2079e+002 -8.3743e-002 -1.4297e+001 28348 104404,104456,104430
 2.1000e+000 104508 -5.5732e+002 -2.8157e+002  2.5115e+002 28348 104378,104456,104404
 2.1000e+000 104649 -3.5544e+002 -6.2017e+002  2.2368e+002 28348 104456,104378,104623
 2.1000e+000 104672 -2.6714e+002 -6.2106e+002  3.9683e+002 28348 104456,104623,104482
 2.1000e+000 104991 -6.9329e+002 -6.6373e+002  5.1954e+002 27951 104717,104847,104769
 2.1000e+000 104968 -1.8461e+002 -4.5444e+002  5.0727e+002 27951 104717,104873,104847
 2.1000e+000 104945 -2.2596e+002 -5.0648e+002  5.8902e+002 27951 104769,104847,104795
 2.1000e+000 104922  6.8458e+001  2.0038e+002  5.5475e+002 27951 104795,104847,104821
 2.1000e+000 104899 -7.0402e+002 -4.9571e+002  6.1323e+002 27951 104717,104769,104743
 2.1000e+000 105371 -9.6388e+002 -5.4930e+002  4.0953e+002 27447 105394,105201,105123
 2.1000e+000 105348 -1.2886e+003 -4.6747e+002  6.0301e+002 27447 105394,105123,105097
 2.1000e+000 105325 -1.4749e+003 -5.4802e+002  3.4965e+002 27447 105123,105201,105149
 2.1000e+000 105302 -8.0185e+002 -6.3312e+002  4.1476e+002 27447 105201,105253,105227
 2.1000e+000 105279 -8.7533e+002 -7.2395e+002  1.6683e+002 27447 105149,105201,105175
 2.1000e+000 105420 -7.8929e+002 -4.5268e+002  3.1629e+002 27447 105253,105201,105394
 2.1000e+000 105443 -1.0589e+003 -2.6497e+002  4.7748e+002 27447 105253,105394,105097
 2.1000e+000 105998 -7.1724e+002 -4.2464e+002  4.5392e+002 27100 106165,106021,105704
 2.1000e+000 105975 -3.0872e+002 -2.1125e+002  3.9552e+002 27100 106309,106021,105652
 2.1000e+000 105952 -1.0604e+003 -7.1281e+002  7.9166e+002 27100 106093,105808,105782
 2.1000e+000 105929 -6.7970e+002 -4.6361e+002  4.1840e+002 27100 106165,105704,105678
 2.1000e+000 105906 -2.7855e+002 -7.2128e+002  3.8729e+002 27100 106237,105730,105704
 2.1000e+000 105883 -2.7304e+002 -4.0118e+002  2.8932e+002 27100 106309,105652,105626
 2.1000e+000 105860 -6.3293e+001 -8.1431e+000  2.0963e+001 27100 105730,105782,105756
 2.1000e+000 106047 -6.3194e+002 -3.4941e+002  5.3966e+002 27100 106237,105704,106021
 2.1000e+000 106070 -6.3812e+002 -3.0996e+002  6.2237e+002 27100 106093,105782,106021
 2.1000e+000 106119 -4.5021e+002 -6.2927e+002  3.9809e+002 27100 105834,105808,106093
 2.1000e+000 106142 -5.3436e+002 -7.7465e+002  5.6628e+002 27100 106381,106093,106021
 2.1000e+000 106191 -6.5693e+002 -3.9597e+002  4.6379e+002 27100 105652,106021,106165
 2.1000e+000 106214 -5.8878e+002 -4.2253e+002  4.2680e+002 27100 105652,106165,105678
 2.1000e+000 106263  2.7044e+001 -3.7305e+002  2.5365e+002 27100 105782,105730,106237
 2.1000e+000 106286 -3.8834e+002 -9.7796e+001  4.3325e+002 27100 105782,106237,106021
 2.1000e+000 106335 -4.4880e+002 -4.6684e+002  4.4961e+002 27100 106381,106021,106309
 2.1000e+000 106358 -2.8493e+002 -2.9473e+002  2.5588e+002 27100 105834,106309,105626
 2.1000e+000 106407 -3.3507e+002 -4.2478e+002  3.5103e+002 27100 105834,106093,106381
 2.1000e+000 106430 -3.4105e+002 -3.7112e+002  2.3101e+002 27100 105834,106381,106309
 2.1000e+000 106629 -8.9837e+001 -6.5484e+002  2.4840e+002 26688 106479,106557,106531
 2.1000e+000 106606 -7.6051e+001 -4.6533e+002  2.5607e+002 26688 106453,106557,106479
 2.1000e+000 106583 -3.1072e+002 -7.3022e+002  9.5290e+001 26688 106479,106531,106505
 2.1000e+000 107088 -3.2681e+002 -2.4731e+002  1.2672e+002 26248 107111,106918,106866
 2.1000e+000 107065 -3.4258e+002 -2.1428e+002  1.4186e+002 26248 107111,106866,106840
 2.1000e+000 107042 -2.6251e+002 -1.5011e+002  1.4334e+002 26248 106814,106970,106840
 2.1000e+000 107019 -3.1533e+002 -5.4798e+002  2.5895e+002 26248 106866,106918,106892
 2.1000e+000 106996 -4.7618e+002 -3.1657e+002  9.5846e+001 26248 106918,106970,106944
 2.1000e+000 107137 -3.5322e+002 -2.9158e+002  9.3776e+001 26248 106970,106918,107111
 2.1000e+000 107160 -3.4163e+002 -2.2683e+002  1.1183e+002 26248 106970,107111,106840
 2.1000e+000 107666 -8.6756e+002 -3.2404e+002  2.4666e+002 25908 107369,107499,107395
 2.1000e+000 107643 -1.1831e+003 -9.9091e+002  5.5336e+002 25908 107369,107525,107499
 2.1000e+000 107620 -7.0849e+002 -4.3967e+002  3.4696e+002 25908 107395,107473,107447
 2.1000e+000 107597 -5.8991e+002 -2.1878e+002  2.3133e+002 25908 107395,107499,107473
 2.1000e+000 107574 -1.2496e+003 -5.0351e+002  7.8181e+002 25908 107395,107447,107421
 2.1000e+000 107551 -3.8783e+002 -7.8702e+002  3.9979e+002 25908 107343,107525,107369
 2.1000e+000 108251 -6.5784e+002 -1.8598e+002  3.5102e+002 25454 108274,108006,107954
 2.1000e+000 108228 -5.2251e+002 -7.3770e+001  2.5744e+002 25454 108274,107954,108110
 2.1000e+000 108205 -4.9174e+002 -4.6511e+002  4.3172e+002 25454 108346,108032,108006
 2.1000e+000 108182 -8.0173e+002 -3.1680e+002  4.2820e+002 25454 107954,108006,107980
 2.1000e+000 108159 -2.8311e+002 -2.6737e+002  2.4083e+002 25454 107928,108110,107954
 2.1000e+000 108136 -9.2463e+002 -7.3719e+002  4.7014e+002 25454 108058,108110,108084
 2.1000e+000 108300 -6.3601e+002 -3.1779e+002  4.2812e+002 25454 108346,108006,108274
 2.1000e+000 108323 -5.7288e+002 -2.1467e+002  3.0694e+002 25454 108058,108274,108110
 2.1000e+000 108372 -3.1769e+002 -3.0783e+002  3.6591e+002 25454 108058,108032,108346
 2.1000e+000 108395 -4.7312e+002 -1.4408e+002  3.5984e+002 25454 108058,108346,108274
 2.1000e+000 108822 -4.9320e+002 -2.3414e+002  2.4405e+002 24943 108525,108681,108655
 2.1000e+000 108799 -6.1913e+002 -4.0121e+002  1.3296e+002 24943 108499,108681,108525
 2.1000e+000 108776 -2.4799e+002 -1.6049e+002  1.6332e+002 24943 108525,108655,108629
 2.1000e+000 108753 -4.0925e+002 -1.4619e+002  1.4355e+002 24943 108525,108629,108603
 2.1000e+000 108730 -9.2528e+002 -2.7415e+002  3.1022e+002 24943 108551,108603,108577
 2.1000e+000 108707 -8.7353e+002 -4.6700e+002  4.4150e+002 24943 108525,108603,108551
 2.1000e+000 109407 -4.8272e+001 -1.4497e+002  8.4232e+001 24745 109162,109214,109188
 2.1000e+000 109384 -3.0814e+002 -1.3948e+002  9.8575e+001 24745 109162,109266,109214
 2.1000e+000 109361 -3.6641e+002 -2.0765e+002  5.0113e+001 24745 109084,109266,109162
 2.1000e+000 109338 -6.7138e+002 -8.2131e+001  1.4092e+002 24745 109084,109162,109136
 2.1000e+000 109315 -1.4305e+002 -2.6932e+002  1.4600e+002 24745 109214,109266,109240
 2.1000e+000 109292 -5.0503e+002 -1.2709e+002  2.5293e+002 24745 109084,109136,109110
 2.1000e+000 109785 -1.0225e+003 -4.2664e+002  5.7793e+002 24341 109537,109615,109563
 2.1000e+000 109762 -9.4489e+001 -1.8688e+002  5.5988e+002 24341 109537,109641,109615
 2.1000e+000 109739 -6.9983e+002 -4.7377e+002  4.3606e+002 24341 109563,109615,109589
 2.1000e+000 109716 -4.1870e+002 -4.1167e+002  3.6986e+002 24341 109537,109667,109641
 2.1000e+000 109693 -2.5603e+002 -4.8367e+002  3.4867e+002 24341 109511,109667,109537
 2.1000e+000 110163 -1.1771e+003 -5.9686e+002  5.8686e+002 23837 110186,109967,109915
 2.1000e+000 110140 -1.0517e+003 -5.8871e+002  6.3383e+002 23837 110186,109915,109889
 2.1000e+000 110117 -4.7049e+002 -1.9051e+002  5.0600e+002 23837 109889,110045,109993
 2.1000e+000 110094 -1.0585e+003 -8.0531e+002  4.1051e+002 23837 109915,109967,109941
 2.1000e+000 110071 -5.7461e+002 -1.0520e+001  6.6027e+001 23837 109993,110045,110019
 2.1000e+000 110212 -1.1005e+003 -5.3706e+002  6.4043e+002 23837 109993,109967,110186
 2.1000e+000 110235 -1.0530e+003 -5.4875e+002  6.9015e+002 23837 109993,110186,109889
 2.1000e+000 110336 -5.5629e+002 -1.1958e+003  6.7272e+002 23433 110258,110310,110284
 2.1000e+000 110584 -7.0271e+002 -4.5871e+002  2.7683e+002 22829 110607,110411,110385
 2.1000e+000 110561 -9.1041e+002 -5.4758e+002  4.1129e+002 22829 110607,110385,110489
 2.1000e+000 110538 -5.1451e+002 -4.8641e+002  2.1370e+002 22829 110437,110489,110463
 2.1000e+000 110515 -7.3134e+002 -3.2549e+002  4.8922e+002 22829 110359,110489,110385
 2.1000e+000 110633 -6.8960e+002 -3.3363e+002  1.2695e+002 22829 110437,110411,110607
 2.1000e+000 110656 -8.0473e+002 -4.2107e+002  2.5596e+002 22829 110437,110607,110489
 2.1000e+000 110906 -1.5324e+003 -6.3145e+002  3.9160e+002 22432 110707,110759,110733
 2.1000e+000 110883 -8.8597e+002 -6.1223e+002  2.9481e+002 22432 110707,110785,110759
 2.1000e+000 110860 -9.8187e+002 -5.3626e+002  5.3742e+002 22432 110707,110811,110785
 2.1000e+000 110837 -1.2093e+003 -8.0354e+002  4.1919e+002 22432 110681,110811,110707
 2.1000e+000 111288 -8.7589e+001 -1.6797e+002  1.8336e+002 22142 111092,111144,111118
 2.1000e+000 111265 -4.2385e+002 -3.0743e+002  2.2304e+002 22142 111066,111144,111092
 2.1000e+000 111242 -4.0464e+002 -2.9343e+002  1.8850e+002 22142 111040,111144,111066
 2.1000e+000 111219 -7.6874e+002 -6.1532e+001  1.0080e+002 22142 111014,111144,111040
 2.1000e+000 111196 -5.5631e+002 -1.4806e+001  1.7652e+002 22142 111014,111170,111144
 2.1000e+000 111389  2.7746e+001 -9.3461e+001  3.5740e+002 21830 111311,111363,111337
 2.1000e+000 111735 -1.0115e+003 -5.2966e+000  7.0991e+002 21268 111758,111542,111438
 2.1000e+000 111712 -8.4438e+002  3.3938e+001  5.0896e+002 21268 111758,111438,111412
 2.1000e+000 111689 -2.9024e+002 -4.1602e+002  8.5755e+002 21268 111438,111542,111464
 2.1000e+000 111666 -1.1683e+002 -2.7557e+002  1.0806e+003 21268 111464,111542,111490
 2.1000e+000 111643 -2.0275e+003 -9.3533e+002  9.2675e+002 21268 111412,111594,111568
 2.1000e+000 111620  2.5951e+002  3.7499e+002  1.3145e+003 21268 111490,111542,111516
 2.1000e+000 111784 -1.0435e+003 -1.2456e+002  7.0808e+002 21268 111568,111542,111758
 2.1000e+000 111807 -1.0282e+003 -3.8215e+002  5.7125e+002 21268 111568,111758,111412
 2.1000e+000 111959 -9.2390e+002 -1.0048e+002  3.0489e+002 20864 111982,111910,111884
 2.1000e+000 111936 -8.8673e+002 -1.0616e+002  4.3646e+002 20864 112114,111832,111910
 2.1000e+000 112008 -9.1708e+002 -2.8626e+002  3.7256e+002 20864 112114,111910,111982
 2.1000e+000 112140 -8.7432e+002 -3.0453e+002  3.5931e+002 20864 111858,111832,112114
 2.1000e+000 112163 -9.2606e+002 -5.2976e+002  3.0271e+002 20864 111858,112114,111982
 2.1000e+000 112411 -1.1860e+002 -2.4517e+001  3.7649e+001 20324 112186,112290,112212
 2.1000e+000 112388 -5.6064e+001 -1.0858e+001  5.3883e+001 20324 112186,112316,112290
 2.1000e+000 112365  3.3497e+002 -2.7523e+002  5.8043e+001 20324 112212,112290,112264
 2.1000e+000 112342 -1.3352e+003 -5.7130e+002 -7.7787e+001 20324 112212,112264,112238
 2.1000e+000 112659 -1.2725e+002 -3.0715e+001  3.9068e+002 19920 112512,112564,112538
 2.1000e+000 112636 -5.3364e+002 -1.6325e+002  2.3653e+002 19920 112434,112564,112512
 2.1000e+000 112613 -5.5486e+002 -3.3133e+002  3.0564e+002 19920 112434,112512,112460
 2.1000e+000 112590 -6.0150e+002 -3.5872e+002  3.2132e+002 19920 112460,112512,112486
 2.1000e+000 112811 -8.9222e+001 -3.3229e+001  1.7927e+002 19630 112684,112736,112710
 2.1000e+000 112788  2.0874e+002 -2.1597e+002  3.5095e+001 19630 112684,112762,112736
 2.1000e+000 113012 -4.5617e+002 -1.6586e+002  4.3358e+002 19169 112862,112940,112888
 2.1000e+000 112989 -7.4566e+002 -5.7980e+002  3.0504e+002 19169 112836,112940,112862
 2.1000e+000 112966 -3.8656e+002 -4.7623e+002  3.5917e+002 19169 112888,112940,112914
 2.1000e+000 113213 -1.1048e+003 -4.3438e+002  4.9123e+002 18600 113037,113089,113063
 2.1000e+000 113190 -6.1341e+002 -2.2648e+002  3.6347e+002 18600 113037,113115,113089
 2.1000e+000 113167 -1.3304e+003 -8.0910e+002  7.4463e+002 18600 113037,113141,113115
 2.1000e+000 113485 -5.1630e+002 -1.8469e+002  4.8066e+002 18352 113260,113312,113286
 2.1000e+000 113462 -1.0320e+003 -5.6183e+002  6.4539e+002 18352 113260,113390,113312
 2.1000e+000 113439 -9.7099e+002 -1.6023e+002  4.3632e+002 18352 113312,113390,113364
 2.1000e+000 113416 -2.9738e+002 -9.1733e+001  4.7619e+002 18352 113312,113364,113338
 2.1000e+000 113757 -6.9984e+002 -2.6806e+002  4.4743e+002 17834 113558,113610,113584
 2.1000e+000 113734 -1.0517e+003 -5.8413e+002  6.1616e+002 17834 113532,113610,113558
 2.1000e+000 113711 -1.0524e+003 -6.6692e+002  4.9075e+002 17834 113532,113662,113610
 2.1000e+000 113688 -5.2182e+002 -1.4552e+002  7.0137e+002 17834 113610,113662,113636
 2.1000e+000 113958 -6.8247e+002 -2.7216e+002  3.5747e+002 17330 113782,113834,113808
 2.1000e+000 113935 -3.8960e+002 -2.0167e+002  2.6497e+002 17330 113782,113886,113834
 2.1000e+000 113912 -4.6916e+002 -2.1059e+002  1.7540e+002 17330 113834,113886,113860
 2.1000e+000 114110 -9.7684e+002 -3.5435e+002  6.3025e+002 16874 113983,114035,114009
 2.1000e+000 114087 -3.9726e+002 -8.7980e+002  5.9947e+002 16874 113983,114061,114035
 2.1000e+000 114465 -1.2539e+003 -5.2605e+002  2.6443e+002 16270 114240,114292,114266
 2.1000e+000 114442 -7.5630e+002 -1.6572e+002  1.0175e+002 16270 114240,114370,114292
 2.1000e+000 114419 -3.6858e+002 -1.5084e+002  2.1318e+002 16270 114292,114344,114318
 2.1000e+000 114396 -7.5090e+002 -3.4069e+002  1.2125e+002 16270 114292,114370,114344
 2.1000e+000 114566 -8.3021e+001  8.3021e+001  8.7143e+002 15834 114488,114540,114514
 2.1000e+000 114667 -6.7732e+002 -2.6284e+002  4.1514e+002 15155 114589,114641,114615
 2.1000e+000 114890 -4.5386e+002 -1.4468e+002  5.5992e+002 421 114766,114818,114792
 2.1000e+000 114867 -7.2315e+002 -6.4984e+002  4.5090e+002 421 114714,114818,114766
 2.1000e+000 114844 -1.0843e+003 -4.5441e+002  2.5256e+002 421 114714,114766,114740
 2.2000e+000 66553 -4.8514e+002 -2.0699e+002  2.1644e+002 66108 66354,66458,66432
 2.2000e+000 66530 -4.6544e+002 -1.9504e+002  1.7404e+002 66108 66328,66458,66354
 2.2000e+000 66507 -2.7465e+002 -1.9118e+002  1.2353e+002 66108 66354,66432,66406
 2.2000e+000 66484  1.1158e+002  5.8406e+001  2.6184e+002 66108 66354,66406,66380
 2.2000e+000 66951 -4.9303e+002 -2.0687e+002  1.6967e+002 65910 66703,66833,66807
 2.2000e+000 66928 -3.9951e+001 -7.4075e+001  1.8285e+002 65910 66677,66833,66703
 2.2000e+000 66905 -1.8539e+002 -4.0770e+002  2.6601e+002 65910 66729,66781,66755
 2.2000e+000 66882 -7.2318e+002 -2.9995e+002  2.5150e+002 65910 66729,66807,66781
 2.2000e+000 66859 -5.6102e+002 -1.1028e+002  1.8251e+002 65910 66703,66807,66729
 2.2000e+000 67150 -6.2156e+002 -2.6668e+002  3.1119e+000 65712 67026,67078,67052
 2.2000e+000 67127 -4.8142e+002 -1.4172e+002 -5.0319e+001 65712 66974,67078,67026
 2.2000e+000 67104 -1.1284e+003 -3.2181e+002 -1.3481e+002 65712 66974,67026,67000
 2.2000e+000 67481 -1.0979e+003 -8.5376e+001  2.9154e+002 65422 67282,67360,67334
 2.2000e+000 67458 -3.8797e+002 -1.1756e+002  5.5489e+002 65422 67282,67386,67360
 2.2000e+000 67435 -3.0278e+002  2.0371e+002  3.1484e+002 65422 67282,67334,67308
 2.2000e+000 67412  2.5441e+002  6.7291e+001  1.9148e+002 65422 67256,67386,67282
 2.2000e+000 68115 -2.5391e+002 -7.9270e+001  6.9511e+001 65018 67795,67925,67873
 2.2000e+000 68092 -3.1604e+002 -1.0246e+002  1.0777e+002 65018 67769,67925,67795
 2.2000e+000 68069 -2.1676e+002 -8.3076e+001  8.3384e+001 65018 67873,67925,67899
 2.2000e+000 68046 -4.6536e+002 -2.3047e+002  1.6331e+002 65018 67769,67951,67925
 2.2000e+000 68023 -3.2773e+002 -2.0869e+002  1.0076e+002 65018 67795,67873,67821
 2.2000e+000 68000 -3.8655e+002 -2.1165e+002  7.9559e+001 65018 67821,67873,67847
 2.2000e+000 67977 -7.4934e+002 -3.8579e+002  1.1198e+002 65018 67743,67951,67769
 2.2000e+000 68363 -3.2424e+002 -6.6845e+002  6.1502e+002 64820 68190,68242,68216
 2.2000e+000 68340 -6.7000e+002 -4.9714e+002  6.3403e+002 64820 68190,68268,68242
 2.2000e+000 68317 -3.7217e+002 -3.5253e+002  6.9051e+002 64820 68164,68268,68190
 2.2000e+000 68294 -1.2683e+003 -5.1419e+002  4.2697e+002 64820 68138,68268,68164
 2.2000e+000 68513 -6.2818e+002 -2.9733e+002  2.5475e+002 64366 68868,68536,68438
 2.2000e+000 68490 -3.3308e+002 -1.0645e+002  1.8267e+002 64366 68536,68412,68386
 2.2000e+000 68562 -7.1600e+002 -2.3429e+002  3.2855e+002 64366 68740,68536,68464
 2.2000e+000 68585 -5.3413e+002 -1.7888e+002  2.6009e+002 64366 68608,68536,68386
 2.2000e+000 68634 -6.1633e+002 -3.4959e+002  2.3540e+002 64366 68464,68536,68608
 2.2000e+000 68766 -6.2456e+002 -1.8041e+002  3.0628e+002 64366 68438,68536,68740
 2.2000e+000 68894 -5.2390e+002 -1.5956e+002  3.0071e+002 64366 68412,68536,68868
 2.2000e+000 69172 -5.1290e+002 -6.3210e+002  4.1642e+001 64168 69022,69074,69048
 2.2000e+000 69149 -1.1605e+003 -4.9001e+002  2.1960e+002 64168 68996,69074,69022
 2.2000e+000 69126 -1.2290e+003 -6.4963e+002  2.1694e+002 64168 68996,69100,69074
 2.2000e+000 69371 -4.3991e+002 -1.5787e+002  2.7965e+002 63970 69466,69394,69273
 2.2000e+000 69348 -2.5688e+002 -1.1981e+002  9.4566e+001 63970 69394,69247,69221
 2.2000e+000 69325 -7.3442e+002 -3.0946e+002  1.8321e+002 63970 69195,69299,69221
 2.2000e+000 69420 -5.9883e+002 -2.4680e+002  3.4702e+002 63970 69299,69273,69394
 2.2000e+000 69443 -4.2080e+002 -3.0316e+002  1.9117e+002 63970 69299,69394,69221
 2.2000e+000 69492 -4.5687e+002 -1.8696e+002  2.7271e+002 63970 69247,69394,69466
 2.2000e+000 69904 -6.8253e+001 -3.8663e+002  1.9047e+002 63680 69705,69783,69731
 2.2000e+000 69881  6.4512e+001 -2.5418e+002  1.0682e+002 63680 69679,69783,69705
 2.2000e+000 69858 -3.7130e+002 -4.6474e+002  2.1944e+002 63680 69679,69809,69783
 2.2000e+000 69835 -2.2815e+002 -3.6959e+002  1.7500e+002 63680 69731,69783,69757
 2.2000e+000 70054 -3.4017e+001 -3.2284e+002  2.0394e+002 63476 70077,69953,69927
 2.2000e+000 70031  4.6619e+001 -1.3726e+002  2.9078e+002 63476 70077,69927,70005
 2.2000e+000 70103 -1.6254e+002 -2.0258e+002  1.2547e+002 63476 69979,69953,70077
 2.2000e+000 70126 -9.9076e+001 -3.6334e+001  1.9853e+002 63476 69979,70077,70005
 2.2000e+000 70325 -1.2506e+003 -5.6105e+002  3.7237e+002 63278 70149,70227,70175
 2.2000e+000 70302 -7.7812e+002 -2.9764e+002  4.8162e+002 63278 70149,70253,70227
 2.2000e+000 70279 -1.4314e+003 -8.8136e+002  2.9404e+002 63278 70175,70227,70201
 2.2000e+000 70597 -4.8312e+002 -5.1631e+001  2.1004e+002 63080 70372,70476,70424
 2.2000e+000 70574 -4.3765e+002 -1.8032e+002  2.1574e+002 63080 70372,70502,70476
 2.2000e+000 70551 -6.1009e+002 -2.4984e+002  2.7125e+002 63080 70424,70476,70450
 2.2000e+000 70528 -9.1240e+002 -2.7752e+002  4.2291e+002 63080 70372,70424,70398
 2.2000e+000 70847 -5.3138e+001 -2.4690e+002  1.1035e+002 62740 70870,70648,70622
 2.2000e+000 70824 -1.7340e+002 -1.9543e+002  1.5843e+002 62740 70870,70622,70752
 2.2000e+000 70801 -6.0871e+001 -3.0159e+002  1.2911e+002 62740 70648,70726,70700
 2.2000e+000 70778 -8.5303e+001 -3.2961e+002  1.4035e+002 62740 70648,70700,70674
 2.2000e+000 70896 -1.6686e+002 -3.0639e+002  8.6980e+001 62740 70726,70648,70870
 2.2000e+000 70919 -2.2358e+002 -2.1517e+002  1.5184e+002 62740 70726,70870,70752
 2.2000e+000 71022 -7.4532e+001  7.4532e+001  8.2606e+002 62520 70944,70996,70970
 2.2000e+000 71223 -1.1216e+003 -4.8978e+002  6.7155e+002 62230 71073,71151,71099
 2.2000e+000 71200 -8.7321e+002 -4.8211e+002  5.8112e+002 62230 71047,71151,71073
 2.2000e+000 71177 -7.4917e+002 -9.1956e+002  5.4498e+002 62230 71099,71151,71125
 2.2000e+000 71861 -1.0011e+002 -3.3011e+002 -8.9682e+001 61712 71515,71697,71671
 2.2000e+000 71838 -1.6624e+002 -4.3755e+002  8.9771e+001 61712 71489,71697,71515
 2.2000e+000 71815 -9.2396e+002 -2.8534e+002  4.3731e+002 61712 71884,71541,71515
 2.2000e+000 71792 -6.7631e+002  2.1900e+001  2.6064e+002 61712 71884,71515,71671
 2.2000e+000 71769 -1.3537e+002 -7.6663e+002  2.7244e+002 61712 71541,71619,71593
 2.2000e+000 71746 -2.7973e+002 -5.0200e+002  2.0491e+002 61712 71619,71671,71645
 2.2000e+000 71723 -2.0443e+002 -7.0801e+002 -4.7801e+000 61712 71541,71593,71567
 2.2000e+000 71910 -6.7932e+002 -6.2025e+002  5.9812e+002 61712 71619,71541,71884
 2.2000e+000 71933 -5.4474e+002 -3.8278e+002  4.4753e+002 61712 71619,71884,71671
 2.2000e+000 72230 -7.5870e+002 -5.7294e+002  1.4058e+002 61208 72253,72060,72008
 2.2000e+000 72207 -7.1711e+002 -3.6109e+002  1.1654e+002 61208 72253,72008,71982
 2.2000e+000 72184 -7.8298e+002 -1.9535e+002  1.2200e+002 61208 71982,72112,72086
 2.2000e+000 72161 -1.3497e+003 -5.7408e+002  3.1293e+002 61208 72008,72060,72034
 2.2000e+000 72138 -5.3309e+002 -1.3618e+002  2.7075e+002 61208 71956,72112,71982
 2.2000e+000 72279 -7.3394e+002 -4.2439e+002  4.9620e+001 61208 72086,72060,72253
 2.2000e+000 72302 -7.5888e+002 -3.0409e+002  2.7173e+001 61208 72086,72253,71982
 2.2000e+000 72761 -4.8520e+002 -3.0754e+002  1.1981e+002 60804 72487,72617,72513
 2.2000e+000 72738 -5.2214e+002 -4.5238e+002  1.3232e+002 60804 72487,72643,72617
 2.2000e+000 72715 -1.9045e+002 -5.9186e+002  2.2445e+002 60804 72565,72617,72591
 2.2000e+000 72692 -4.9366e+002 -3.9506e+002  2.3911e+002 60804 72513,72617,72565
 2.2000e+000 72669 -4.2665e+002 -3.1083e+002  1.5303e+002 60804 72513,72565,72539
 2.2000e+000 72911 -7.4532e+001  7.4532e+001  8.2606e+002 60556 72784,72836,72810
 2.2000e+000 72888  7.0570e+002  4.2246e+002  5.0967e+002 60556 72784,72862,72836
 2.2000e+000 73468 -3.4942e+002 -3.0618e+002  1.9568e+002 60244 73491,73226,73200
 2.2000e+000 73445 -3.5127e+002 -2.2894e+002  2.2794e+002 60244 73563,73491,73200
 2.2000e+000 73422 -5.3929e+002 -1.2925e+002  2.2849e+002 60244 73563,73200,73174
 2.2000e+000 73399 -2.7323e+002 -4.0003e+002  1.6470e+002 60244 73226,73278,73252
 2.2000e+000 73376 -4.0083e+002 -3.0674e+002  1.5850e+002 60244 73122,73304,73278
 2.2000e+000 73353 -4.1763e+002 -4.8306e+002  1.8956e+002 60244 73096,73304,73122
 2.2000e+000 73330 -6.3665e+002 -2.4428e+002 -1.1744e+002 60244 73122,73174,73148
 2.2000e+000 73517 -4.2518e+002 -3.3659e+002  1.8851e+002 60244 73278,73226,73491
 2.2000e+000 73540 -4.1686e+002 -2.9942e+002  1.6346e+002 60244 73278,73491,73122
 2.2000e+000 73589 -6.0209e+002 -3.6579e+002  1.6501e+002 60244 73122,73491,73563
 2.2000e+000 73612 -7.7550e+002 -2.4821e+002  1.7637e+002 60244 73122,73563,73174
 2.2000e+000 73762 -2.8765e+002 -6.7817e+002  5.0695e+002 59875 73661,73713,73687
 2.2000e+000 73739 -6.1539e+002 -3.3581e+002  3.4170e+002 59875 73635,73713,73661
 2.2000e+000 74191 -3.0102e+002 -6.4813e+002  5.7187e+002 59478 74214,73894,73868
 2.2000e+000 74168 -6.0800e+002 -6.1477e+002  5.9439e+002 59478 74214,73868,74050
 2.2000e+000 74145 -5.9989e+002 -7.4346e+002  2.9396e+002 59478 73894,73946,73920
 2.2000e+000 74122 -4.9850e+002 -6.8611e+002  2.6370e+002 59478 73894,73998,73946
 2.2000e+000 74099 -1.3101e+003 -6.5185e+002  7.5579e+002 59478 73998,74050,74024
 2.2000e+000 74076 -6.3025e+002 -8.6372e+002  1.9419e+002 59478 73946,73998,73972
 2.2000e+000 74240 -5.7640e+002 -5.7206e+002  4.2346e+002 59478 73998,73894,74214
 2.2000e+000 74263 -8.8153e+002 -5.6796e+002  3.9653e+002 59478 73998,74214,74050
 2.2000e+000 74720 -5.2682e+002 -2.9591e+002  1.9269e+002 58774 74472,74602,74498
 2.2000e+000 74697 -4.7694e+002 -3.2456e+002  1.7431e+002 58774 74446,74602,74472
 2.2000e+000 74674 -6.0879e+002 -2.7076e+002  2.7462e+002 58774 74498,74576,74524
 2.2000e+000 74651 -4.9307e+002 -3.1542e+002  2.2358e+002 58774 74498,74602,74576
 2.2000e+000 74628 -6.3882e+002 -2.3759e+002  2.0526e+002 58774 74524,74576,74550
 2.2000e+000 75226 -4.6854e+002 -3.7430e+002  2.2461e+002 58270 74955,75085,75033
 2.2000e+000 75203 -2.9162e+002 -4.8094e+002  3.2375e+002 58270 74929,75085,74955
 2.2000e+000 75180 -3.7234e+002 -2.0726e+002  1.8575e+002 58270 75033,75085,75059
 2.2000e+000 75157 -3.9968e+002 -3.9927e+002  1.2659e+002 58270 74955,75007,74981
 2.2000e+000 75134 -2.3935e+002 -2.8339e+002  7.5685e+001 58270 74955,75033,75007
 2.2000e+000 75111 -7.7636e+001 -5.5320e+002  2.0009e+002 58270 74903,75085,74929
 2.2000e+000 75425 -5.1538e+002 -3.1094e+002  2.3837e+002 57830 75448,75301,75249
 2.2000e+000 75402 -3.7575e+002 -1.0279e+002  1.4214e+002 57830 75448,75249,75353
 2.2000e+000 75379 -5.3843e+002 -7.1210e+002  1.6611e+002 57830 75520,75301,75275
 2.2000e+000 75474 -4.9496e+002 -4.4253e+002  3.7726e+002 57830 75327,75301,75448
 2.2000e+000 75497 -4.1445e+002 -3.4234e+002  2.8537e+002 57830 75327,75448,75353
 2.2000e+000 75546 -3.3498e+002 -4.2964e+002  6.9467e+001 57830 75249,75301,75520
 2.2000e+000 76261 -2.5500e+002 -4.0774e+002  2.4311e+002 57426 76284,76097,76071
 2.2000e+000 76238 -2.3244e+002 -2.7357e+002  2.5582e+002 57426 75889,76097,75915
 2.2000e+000 76215 -3.6390e+002 -4.5380e+002  2.3396e+002 57426 76428,76284,76071
 2.2000e+000 76192 -2.6918e+002 -4.2783e+002  1.5932e+002 57426 76356,75941,75915
 2.2000e+000 76169 -3.7078e+002 -3.9627e+002  2.2086e+002 57426 76428,76071,76019
 2.2000e+000 76146 -4.0699e+002 -5.0975e+002  2.1181e+002 57426 76019,76071,76045
 2.2000e+000 76123 -3.9175e+002 -3.9605e+002  3.0743e+002 57426 75967,76019,75993
 2.2000e+000 76310 -2.7839e+002 -4.6830e+002  1.9883e+002 57426 75915,76097,76284
 2.2000e+000 76333 -2.9697e+002 -4.3551e+002  1.7028e+002 57426 76356,75915,76284
 2.2000e+000 76382 -3.2828e+002 -4.2149e+002  1.6741e+002 57426 75967,75941,76356
 2.2000e+000 76405 -3.4266e+002 -4.1765e+002  1.7709e+002 57426 75967,76356,76284
 2.2000e+000 76454 -3.3225e+002 -4.0316e+002  2.1687e+002 57426 75967,76284,76428
 2.2000e+000 76477 -3.6684e+002 -3.7185e+002  2.1437e+002 57426 75967,76428,76019
 2.2000e+000 76953 -3.3547e+002 -6.2482e+002  3.4299e+002 56908 76976,76711,76685
 2.2000e+000 76930 -3.3431e+002 -6.2038e+002  3.3793e+002 56908 77048,76976,76685
 2.2000e+000 76907 -6.4627e+002 -6.4105e+002  4.8226e+002 56908 77048,76685,76633
 2.2000e+000 76884 -9.1271e+002 -9.5203e+002  5.4148e+002 56908 76711,76789,76763
 2.2000e+000 76861 -5.3403e+002 -3.3642e+002  2.2264e+002 56908 76581,76789,76607
 2.2000e+000 76838 -8.3392e+002 -9.4829e+002  7.6068e+002 56908 76711,76763,76737
 2.2000e+000 76815 -1.5158e+003 -1.1726e+003  8.2568e+002 56908 76633,76685,76659
 2.2000e+000 77002 -3.9230e+002 -6.4933e+002  3.4477e+002 56908 76789,76711,76976
 2.2000e+000 77025 -4.1040e+002 -3.2609e+002  1.9764e+002 56908 76789,76976,76607
 2.2000e+000 77074 -8.2380e+002 -6.1710e+002  3.2532e+002 56908 76607,76976,77048
 2.2000e+000 77097 -9.9310e+002 -5.0689e+002  4.5498e+002 56908 76607,77048,76633
 2.2000e+000 77475 -3.7002e+002 -4.1955e+002  3.3677e+002 56546 77570,77498,77279
 2.2000e+000 77452 -2.7167e+002 -6.2598e+002  4.4948e+002 56546 77498,77227,77357
 2.2000e+000 77429 -4.2871e+002 -4.7522e+002  3.9751e+002 56546 77570,77279,77253
 2.2000e+000 77406 -6.2768e+002 -7.8223e+002  4.9047e+002 56546 77201,77357,77227
 2.2000e+000 77383 -4.7218e+002 -4.4881e+002  1.5033e+002 56546 77279,77331,77305
 2.2000e+000 77524 -3.2143e+002 -1.5301e+002  3.1485e+002 56546 77331,77279,77498
 2.2000e+000 77547 -1.6543e+002 -3.5431e+002  5.3937e+002 56546 77331,77498,77357
 2.2000e+000 77596 -4.2104e+002 -4.3505e+002  4.5042e+002 56546 77227,77498,77570
 2.2000e+000 77619 -5.0568e+002 -6.0914e+002  5.1433e+002 56546 77227,77570,77253
 2.2000e+000 77818 -4.3168e+002 -4.2628e+002  3.7924e+002 56042 77841,77694,77668
 2.2000e+000 77795 -3.9198e+002 -3.9431e+002  2.9843e+002 56042 77841,77668,77746
 2.2000e+000 77772 -5.2610e+002 -4.0865e+002  2.3588e+002 56042 77642,77746,77668
 2.2000e+000 77867 -4.7505e+002 -4.8856e+002  4.1131e+002 56042 77720,77694,77841
 2.2000e+000 77890 -4.2628e+002 -4.4579e+002  3.2886e+002 56042 77720,77841,77746
 2.2000e+000 78349 -6.3020e+002 -1.5925e+002  2.3812e+002 55538 78075,78127,78101
 2.2000e+000 78326 -7.8707e+002 -4.1040e+002  1.3563e+002 55538 78075,78205,78127
 2.2000e+000 78303 -5.9183e+002 -6.9910e+001  4.7158e+001 55538 78075,78231,78205
 2.2000e+000 78280 -6.7752e+002 -6.9481e+002  4.0671e+002 55538 78127,78179,78153
 2.2000e+000 78257 -5.7929e+002 -4.1529e+002  1.2292e+002 55538 78127,78205,78179
 2.2000e+000 78806 -3.3574e+002 -3.9815e+002  1.2668e+002 55034 78829,78636,78610
 2.2000e+000 78783 -3.8788e+002 -4.2069e+002  1.4666e+002 55034 78901,78829,78610
 2.2000e+000 78760 -3.4793e+002 -4.5831e+002  1.8283e+002 55034 78901,78610,78584
 2.2000e+000 78737 -4.4906e+002 -3.3482e+002  1.5323e+002 55034 78558,78688,78662
 2.2000e+000 78714 -5.1239e+002 -3.5891e+002  3.5523e+002 55034 78532,78688,78558
 2.2000e+000 78855 -3.8873e+002 -4.1414e+002  1.1564e+002 55034 78662,78636,78829
 2.2000e+000 78878 -4.0828e+002 -3.7758e+002  1.6236e+002 55034 78662,78829,78558
 2.2000e+000 78927 -3.4349e+002 -3.4756e+002  1.7041e+002 55034 78558,78829,78901
 2.2000e+000 78950 -3.1918e+002 -3.8136e+002  2.0334e+002 55034 78558,78901,78584
 2.2000e+000 79407 -2.1545e+002 -2.3136e+002  2.4697e+002 54430 79430,79237,79159
 2.2000e+000 79384 -2.1053e+002 -4.0641e+002  8.4307e+001 54430 79430,79159,79133
 2.2000e+000 79361 -2.4891e+002 -3.6528e+002  1.3651e+002 54430 79237,79289,79263
 2.2000e+000 79338 -2.8720e+002 -2.7505e+002  1.8444e+002 54430 79185,79237,79211
 2.2000e+000 79315 -4.8736e+002 -2.9206e+002  2.8721e+002 54430 79159,79237,79185
 2.2000e+000 79456 -2.2918e+002 -4.2687e+002  1.7337e+002 54430 79289,79237,79430
 2.2000e+000 79479 -2.2438e+002 -6.8042e+002  4.9092e+001 54430 79289,79430,79133
 2.2000e+000 79936 -2.2712e+002 -2.5527e+002  2.5269e+002 53919 79662,79766,79688
 2.2000e+000 79913 -7.7746e+002 -3.9766e+002  4.3720e+002 53919 79662,79818,79766
 2.2000e+000 79890 -1.0285e+003 -4.5412e+002  5.1096e+001 53919 79766,79818,79792
 2.2000e+000 79867 -5.2695e+002 -4.3383e+002  2.6529e+002 53919 79714,79766,79740
 2.2000e+000 79844 -5.6370e+002 -4.0941e+002  2.8960e+002 53919 79688,79766,79714
 2.2000e+000 80037 -2.1886e+002 -5.4048e+002  4.7424e+002 53671 79959,80011,79985
 2.2000e+000 80405 -1.1757e+002 -3.6381e+002  1.2052e+002 53267 80108,80264,80238
 2.2000e+000 80382 -1.6147e+002 -2.2820e+002  1.5768e+002 53267 80082,80264,80108
 2.2000e+000 80359 -1.3038e+002 -5.1664e+002  2.8694e+002 53267 80108,80238,80134
 2.2000e+000 80336 -6.4622e+001 -2.8000e+002  2.1410e+002 53267 80134,80212,80186
 2.2000e+000 80313 -3.6060e+002 -4.9538e+002  3.5425e+002 53267 80134,80238,80212
 2.2000e+000 80290 -1.7617e+000 -3.7126e+002  1.4071e+002 53267 80134,80186,80160
 2.2000e+000 80915 -5.4883e+002 -7.9836e+002  6.8812e+001 52969 80644,80774,80748
 2.2000e+000 80892 -4.6459e+002 -3.5686e+002 -2.0231e+001 52969 80618,80774,80644
 2.2000e+000 80869 -6.5886e+002 -9.7383e+002 -1.5764e+001 52969 80644,80748,80670
 2.2000e+000 80846 -7.1040e+002 -3.8193e+002  9.3685e+000 52969 80592,80774,80618
 2.2000e+000 80823 -1.4537e+003 -1.1650e+003  1.9575e+002 52969 80670,80722,80696
 2.2000e+000 80800 -6.5802e+002 -8.9569e+002 -4.3975e+001 52969 80670,80748,80722
 2.2000e+000 81266  1.2459e+002 -8.5257e+001  5.6916e+001 52565 81041,81145,81067
 2.2000e+000 81243  9.2498e+001 -2.1708e+002  7.7367e+001 52565 81041,81171,81145
 2.2000e+000 81220 -2.5388e+002 -8.6575e+002  2.3669e+002 52565 81067,81119,81093
 2.2000e+000 81197  1.8713e+002  2.6352e+001  8.4124e+001 52565 81067,81145,81119
 2.2000e+000 81723 -1.1610e+002 -3.2319e+000  4.9907e+001 51904 81449,81527,81475
 2.2000e+000 81700 -1.2930e+002 -8.1434e+000  6.2265e+001 51904 81449,81579,81527
 2.2000e+000 81677 -4.3250e+002 -9.9497e+001  8.5391e+001 51904 81449,81605,81579
 2.2000e+000 81654 -2.6162e+002  2.4961e+001  4.6320e+001 51904 81527,81579,81553
 2.2000e+000 81631 -1.1250e+002  1.0923e+001  3.4842e+001 51904 81475,81527,81501
 2.2000e+000 82327 -5.2114e+002 -4.8306e+002  3.4561e+002 51321 82422,82350,82036
 2.2000e+000 82304 -5.6676e+002 -3.5234e+002  3.6733e+002 51321 82494,82350,81958
 2.2000e+000 82281 -5.3007e+002 -5.0134e+002  3.3659e+002 51321 82422,82036,82010
 2.2000e+000 82258 -5.8131e+002 -3.5617e+002  3.6035e+002 51321 82494,81958,81932
 2.2000e+000 82235 -5.5776e+002 -2.6862e+002  1.7913e+002 51321 82062,82114,82088
 2.2000e+000 82212 -1.3155e+003 -8.2223e+002  5.4790e+002 51321 81932,82140,82114
 2.2000e+000 82189 -5.6799e+002 -1.5646e+002  3.0613e+002 51321 81958,82010,81984
 2.2000e+000 82166 -2.0186e+002 -4.3627e+002  1.5212e+002 51321 81906,82140,81932
 2.2000e+000 82376 -5.3601e+002 -5.9010e+002  3.4019e+002 51321 82062,82036,82350
 2.2000e+000 82399 -5.4988e+002 -4.4242e+002  3.1604e+002 51321 82062,82350,82114
 2.2000e+000 82448 -5.1397e+002 -4.6465e+002  3.6673e+002 51321 81958,82350,82422
 2.2000e+000 82471 -5.2105e+002 -4.8139e+002  3.5806e+002 51321 81958,82422,82010
 2.2000e+000 82520 -5.7447e+002 -3.6317e+002  3.5864e+002 51321 82114,82350,82494
 2.2000e+000 82543 -5.7705e+002 -3.6352e+002  3.5244e+002 51321 82114,82494,81932
 2.2000e+000 83019 -5.9442e+002 -1.4086e+003 -2.0888e+001 50817 82673,82751,82699
 2.2000e+000 82996 -4.4055e+002 -8.7060e+002  1.5501e+002 50817 83042,82673,82855
 2.2000e+000 82973 -5.3423e+002 -6.3136e+002  1.1204e+002 50817 83042,82855,82803
 2.2000e+000 82950 -8.4163e+002 -5.5969e+002  1.8999e+002 50817 82751,82803,82777
 2.2000e+000 82927 -4.3778e+002 -7.4507e+002  2.7211e+002 50817 82647,82855,82673
 2.2000e+000 82904 -7.7855e+002 -6.9678e+002  3.2239e+002 50817 82803,82855,82829
 2.2000e+000 82881 -3.8692e+002 -9.6395e+002 -7.6952e+001 50817 82699,82751,82725
 2.2000e+000 83068 -3.1722e+002 -6.8617e+002  3.9169e+001 50817 82751,82673,83042
 2.2000e+000 83091 -4.9940e+002 -5.0837e+002  2.9150e+001 50817 82751,83042,82803
 2.2000e+000 83290 -5.5797e+002 -2.1083e+002  2.9582e+002 50356 83313,83166,83140
 2.2000e+000 83267 -5.9096e+002 -4.0353e+002  2.4730e+002 50356 83515,83313,83140
 2.2000e+000 83244 -6.8343e+002 -4.1331e+002  9.9238e+001 50356 83515,83140,83385
 2.2000e+000 83339 -7.1016e+002 -3.3338e+002  3.7514e+002 50356 83192,83166,83313
 2.2000e+000 83362 -4.3403e+002 -2.7858e+002  3.5643e+002 50356 83192,83313,83218
 2.2000e+000 83411 -2.5803e+002 -2.0903e+002  1.7892e+002 50356 83114,83218,83385
 2.2000e+000 83541 -3.5139e+002 -3.3518e+002  2.5263e+002 50356 83218,83313,83515
 2.2000e+000 83564 -3.7096e+002 -2.8758e+002  1.2535e+002 50356 83218,83515,83385
 2.2000e+000 83893 -6.1107e+002 -6.1145e+002  1.0628e+002 49552 83720,83798,83746
 2.2000e+000 83870 -3.8964e+002 -2.2327e+002  2.3409e+002 49552 83694,83798,83720
 2.2000e+000 83847 -2.8018e+002 -2.8984e+002  2.3189e+002 49552 83668,83798,83694
 2.2000e+000 83824 -1.3281e+003 -4.2099e+002 -1.1330e+002 49552 83746,83798,83772
 2.2000e+000 84141 -6.7550e+002 -4.3951e+002  3.2578e+002 49212 84164,84020,83942
 2.2000e+000 84118 -6.1285e+002 -2.6692e+002  3.6457e+002 49212 84164,83942,83916
 2.2000e+000 84095 -5.1075e+002 -5.7715e+002  2.3953e+002 49212 83942,84020,83968
 2.2000e+000 84072 -4.3616e+002 -5.8338e+001  1.3488e+002 49212 83968,84020,83994
 2.2000e+000 84190 -7.0747e+002 -4.0475e+002  2.2685e+002 49212 84046,84020,84164
 2.2000e+000 84213 -6.5405e+002 -2.9279e+002  2.6925e+002 49212 84046,84164,83916
 2.2000e+000 84800 -1.5915e+002 -2.1669e+002  1.6695e+002 48865 84503,84633,84555
 2.2000e+000 84777 -2.0105e+002 -3.2111e+002  1.4291e+002 48865 84503,84659,84633
 2.2000e+000 84754 -1.8705e+002 -3.1744e+002  1.4556e+002 48865 84555,84633,84581
 2.2000e+000 84731 -2.0466e+002 -7.7756e+002  3.7467e+002 48865 84581,84633,84607
 2.2000e+000 84708 -4.1275e+002 -2.8120e+002  1.2683e+002 48865 84503,84555,84529
 2.2000e+000 84685 -1.7734e+002 -2.6887e+002  1.3779e+002 48865 84477,84659,84503
 2.2000e+000 85355 -3.2887e+002 -3.3360e+002  3.6922e+001 48461 85378,85035,85009
 2.2000e+000 85332 -5.3187e+002 -5.1613e+002  1.2412e+002 48461 85378,85009,85165
 2.2000e+000 85309 -4.7628e+002 -5.1349e+002  2.0944e+002 48461 85450,85061,85035
 2.2000e+000 85286 -5.2801e+002 -5.0651e+002  1.0943e+002 48461 85009,85191,85165
 2.2000e+000 85263 -4.5335e+002 -4.6399e+002  3.1412e+002 48461 85087,85165,85113
 2.2000e+000 85240 -2.3718e+002 -6.4398e+002 -8.0342e+001 48461 84983,85191,85009
 2.2000e+000 85217 -3.9661e+002 -5.9886e+002  2.1287e+002 48461 85113,85165,85139
 2.2000e+000 85404 -4.8850e+002 -4.0700e+002  1.5275e+002 48461 85450,85035,85378
 2.2000e+000 85427 -5.4770e+002 -4.7484e+002  1.5100e+002 48461 85087,85378,85165
 2.2000e+000 85476 -5.0620e+002 -6.5884e+002  2.3490e+002 48461 85087,85061,85450
 2.2000e+000 85499 -5.3884e+002 -5.9850e+002  1.6762e+002 48461 85087,85450,85378
 2.2000e+000 86084 -1.7265e+002 -4.7401e+002  2.2229e+002 48057 86323,86107,85787
 2.2000e+000 86061 -2.6240e+002 -5.4196e+002  2.6750e+002 48057 86107,85761,85943
 2.2000e+000 86038 -3.7659e+002 -4.0777e+002  2.0691e+002 48057 86251,86179,85891
 2.2000e+000 86015 -3.7311e+002 -3.4970e+002  1.3502e+002 48057 86251,85891,85839
 2.2000e+000 85992 -3.0885e+002 -3.4710e+002  2.5665e+002 48057 85891,85943,85917
 2.2000e+000 85969 -4.6427e+002 -2.8316e+002  1.8750e+002 48057 85839,85891,85865
 2.2000e+000 86133 -1.9822e+002 -5.0181e+002  1.7989e+002 48057 85813,85787,86107
 2.2000e+000 86156 -2.9664e+002 -4.9672e+002  1.7453e+002 48057 86179,85813,86107
 2.2000e+000 86205 -2.9336e+002 -3.3928e+002  2.3789e+002 48057 85943,85891,86179
 2.2000e+000 86228 -1.8139e+002 -3.8081e+002  2.3136e+002 48057 85943,86179,86107
 2.2000e+000 86277 -2.4863e+002 -3.4114e+002  1.8286e+002 48057 85813,86179,86251
 2.2000e+000 86300 -3.1377e+002 -3.1566e+002  1.2117e+002 48057 85813,86251,85839
 2.2000e+000 86349 -1.3990e+002 -4.5607e+002  2.2970e+002 48057 85761,86107,86323
 2.2000e+000 86855 -1.9881e+002 -3.3352e+002  1.9085e+002 47545 86878,86584,86558
 2.2000e+000 86832 -2.5735e+002 -3.5981e+002  1.8394e+002 47545 86950,86878,86558
 2.2000e+000 86809 -2.8392e+002 -3.0328e+002  1.9991e+002 47545 86950,86558,86532
 2.2000e+000 86786 -1.6599e+002 -3.5750e+002  2.1987e+002 47545 86584,86662,86610
 2.2000e+000 86763 -3.2774e+002 -1.1140e+002  7.7500e+001 47545 86532,86714,86688
 2.2000e+000 86740 -2.6899e+002 -1.5578e+002  1.9811e+002 47545 86610,86662,86636
 2.2000e+000 86904 -2.1080e+002 -3.9791e+002  2.0243e+002 47545 86662,86584,86878
 2.2000e+000 86927 -1.2549e+002 -3.4445e+002  1.6533e+002 47545 86662,86878,86688
 2.2000e+000 86976 -1.9320e+002 -2.8509e+002  1.5224e+002 47545 86688,86878,86950
 2.2000e+000 86999 -2.5675e+002 -2.8394e+002  1.8276e+002 47545 86688,86950,86532
 2.2000e+000 87328 -6.2858e+002 -2.6602e+002  2.1659e+002 47048 87155,87207,87181
 2.2000e+000 87305 -3.9450e+002 -2.6071e+002  1.9604e+002 47048 87129,87207,87155
 2.2000e+000 87282 -7.3976e+002 -4.2880e+002  2.4895e+002 47048 87103,87207,87129
 2.2000e+000 87259 -1.1337e+003 -1.6360e+003 -1.1815e+002 47048 87103,87233,87207
 2.2000e+000 87576 -2.4096e+002 -5.0630e+002  2.9896e+002 46701 87599,87429,87377
 2.2000e+000 87553 -3.6571e+002 -5.1855e+002  2.7866e+002 46701 87599,87377,87481
 2.2000e+000 87530 -3.4738e+002 -5.0522e+002  2.8822e+002 46701 87351,87481,87377
 2.2000e+000 87507 -3.5189e+002 -4.8888e+002  3.5430e+002 46701 87377,87429,87403
 2.2000e+000 87625 -3.0060e+002 -3.9273e+002  1.6944e+002 46701 87455,87429,87599
 2.2000e+000 87648 -6.1505e+002 -5.0401e+002  1.9288e+002 46701 87455,87599,87481
 2.2000e+000 87798  2.7088e+001 -1.7989e+002  2.8939e+001 46239 87697,87749,87723
 2.2000e+000 87775 -3.0952e+001 -4.6196e+002  1.2584e+002 46239 87671,87749,87697
 2.2000e+000 88308 -7.5670e+002 -8.2311e+002  1.7012e+002 45735 88089,88167,88141
 2.2000e+000 88285 -5.3873e+002 -3.4801e+002  2.3068e+002 45735 88011,88167,88089
 2.2000e+000 88262 -3.1609e+002 -3.2084e+002  1.6247e+002 45735 87985,88167,88011
 2.2000e+000 88239 -4.3011e+002 -1.4614e+003  4.3476e+002 45735 88011,88089,88063
 2.2000e+000 88216 -9.3714e+002 -8.9425e+002  1.8363e+002 45735 88089,88141,88115
 2.2000e+000 88193 -8.2123e+002 -2.1975e+003  9.5063e+001 45735 88011,88063,88037
 2.2000e+000 88686 -5.7505e+002 -2.2285e+002  3.5871e+002 45316 88438,88516,88490
 2.2000e+000 88663 -5.3836e+002  1.7583e+002  5.0638e+002 45316 88438,88542,88516
 2.2000e+000 88640 -2.8072e+002 -5.4506e+002  6.4164e+002 45316 88438,88568,88542
 2.2000e+000 88617 -6.2415e+002 -4.5318e+002  3.0629e+002 45316 88438,88490,88464
 2.2000e+000 88594 -5.9068e+002 -5.9776e+002  6.4200e+002 45316 88412,88568,88438
 2.2000e+000 88934 -1.0827e+003 -9.9772e+002  6.1173e+002 44812 88957,88735,88709
 2.2000e+000 88911 -5.4998e+002 -6.1483e+002  2.1972e+002 44812 88957,88709,88839
 2.2000e+000 88888 -5.4573e+002 -3.4178e+002  8.6623e+001 44812 89029,88787,88761
 2.2000e+000 88865 -5.0041e+002 -4.0530e+002  1.5381e+002 44812 88787,88839,88813
 2.2000e+000 88983 -2.4394e+002 -5.6785e+002  3.7142e+002 44812 88761,88735,88957
 2.2000e+000 89006 -4.3959e+002 -4.5281e+002  6.3716e+001 44812 89029,88761,88957
 2.2000e+000 89055 -5.1154e+002 -4.6810e+002  1.4065e+002 44812 88839,88787,89029
 2.2000e+000 89078 -5.1511e+002 -6.9326e+002  1.5525e+002 44812 88839,89029,88957
 2.2000e+000 89228 -7.8199e+001 -3.5389e+002  3.2091e+002 44408 89127,89179,89153
 2.2000e+000 89205  6.8410e+001  1.2787e+000  8.5740e-001 44408 89101,89179,89127
 2.2000e+000 89787 -5.9413e+002 -3.1951e+002  3.0346e+002 43854 89810,89545,89519
 2.2000e+000 89764 -6.5357e+002 -4.5672e+002  2.7091e+002 43854 89810,89519,89467
 2.2000e+000 89741 -6.1204e+002 -6.2243e+002  2.7432e+002 43854 89954,89882,89597
 2.2000e+000 89718 -6.1532e+002 -6.4425e+002  2.7138e+002 43854 89954,89597,89571
 2.2000e+000 89695 -3.2589e+002 -3.6216e+002  2.5910e+002 43854 89415,89623,89467
 2.2000e+000 89672 -2.0435e+002 -2.8471e+002  1.7679e+002 43854 89467,89519,89493
 2.2000e+000 89649 -1.8727e+002 -2.9273e+002  2.0291e+002 43854 89415,89467,89441
 2.2000e+000 89836 -6.0605e+002 -3.2869e+002  3.3567e+002 43854 89882,89545,89810
 2.2000e+000 89859 -3.5777e+002 -3.9863e+002  2.3938e+002 43854 89623,89810,89467
 2.2000e+000 89908 -5.9466e+002 -6.7290e+002  3.7076e+002 43854 89623,89597,89882
 2.2000e+000 89931 -5.8930e+002 -6.4161e+002  3.4693e+002 43854 89623,89882,89810
 2.2000e+000 89980 -6.4178e+002 -5.7598e+002  4.1776e+002 43854 89545,89882,89954
 2.2000e+000 90003 -6.9176e+002 -6.9930e+002  4.3667e+002 43854 89545,89954,89571
 2.2000e+000 90251 -2.7656e+002 -3.0100e+002  2.5421e+002 43492 90026,90078,90052
 2.2000e+000 90228 -5.5061e+002 -3.1904e+002  1.3827e+002 43492 90274,90026,90156
 2.2000e+000 90205 -5.2165e+002 -4.1798e+002  1.3801e+002 43492 90346,90274,90156
 2.2000e+000 90182 -5.5827e+002 -6.0562e+002  4.9364e+002 43492 90346,90156,90130
 2.2000e+000 90300 -3.1710e+002 -4.4065e+002  2.3603e+002 43492 90078,90026,90274
 2.2000e+000 90323 -6.2621e+002 -5.3580e+002  2.2985e+002 43492 90078,90274,90104
 2.2000e+000 90372 -9.4366e+002 -6.8270e+002  3.6774e+002 43492 90104,90274,90346
 2.2000e+000 90395 -1.0162e+003 -9.4366e+002  7.3783e+002 43492 90104,90346,90130
 2.2000e+000 90594 -1.0826e+002 -5.5059e+002  2.0959e+002 43052 90418,90496,90444
 2.2000e+000 90571 -5.3921e+002 -8.2643e+002  3.2930e+002 43052 90418,90522,90496
 2.2000e+000 90548 -3.1427e+002 -4.7386e+002  2.1020e+002 43052 90444,90496,90470
 2.2000e+000 91074 -4.1281e+002 -6.4616e+002  1.8454e+002 42434 91241,90884,90858
 2.2000e+000 91051 -6.3964e+002 -7.0111e+002 -6.1887e+001 42434 90702,90910,90884
 2.2000e+000 91028 -3.7778e+002 -5.9968e+002  2.1526e+002 42434 91097,90754,90702
 2.2000e+000 91005 -4.1581e+002 -5.5530e+002  1.7907e+002 42434 91241,90858,91097
 2.2000e+000 90982 -2.5300e+002 -4.7169e+002  1.5071e+002 42434 91169,90806,90780
 2.2000e+000 90959 -1.6730e+002 -4.4094e+002  8.5934e+001 42434 90806,90858,90832
 2.2000e+000 90936 -3.1679e+002 -5.4260e+002  2.3946e+002 42434 90702,90754,90728
 2.2000e+000 91123 -4.1111e+002 -6.0932e+002  1.8764e+002 42434 90780,90754,91097
 2.2000e+000 91146 -3.9625e+002 -5.3794e+002  2.0975e+002 42434 91169,90780,91097
 2.2000e+000 91195 -1.9284e+002 -4.7525e+002  7.3254e+001 42434 90858,90806,91169
 2.2000e+000 91218 -2.7448e+002 -4.4902e+002  1.1036e+002 42434 90858,91169,91097
 2.2000e+000 91267 -3.8265e+002 -7.4811e+002  1.5080e+002 42434 90702,90884,91241
 2.2000e+000 91290 -3.9678e+002 -6.7026e+002  1.4513e+002 42434 90702,91241,91097
 2.2000e+000 91698 -1.5470e+002 -4.9632e+002  2.0778e+002 41773 91473,91577,91499
 2.2000e+000 91675 -2.7116e+002 -5.9850e+002  2.9627e+002 41773 91473,91603,91577
 2.2000e+000 91652 -2.4986e+002 -3.6808e+002  7.6819e+001 41773 91499,91551,91525
 2.2000e+000 91629 -3.7765e+002 -4.2127e+002  1.9597e+002 41773 91499,91577,91551
 2.2000e+000 92044 -4.3708e+002 -5.0944e+002  3.5275e+002 41383 91773,91877,91851
 2.2000e+000 92021 -2.8641e+002 -6.5386e+002  2.1208e+002 41383 91747,91877,91773
 2.2000e+000 91998 -2.9908e+002 -3.4492e+002  2.6067e+002 41383 91773,91851,91799
 2.2000e+000 91975 -1.8308e+002 -4.2948e+002  7.9039e+000 41383 91747,91903,91877
 2.2000e+000 91952 -1.9647e+002 -2.9593e+002  1.3788e+002 41383 91721,91903,91747
 2.2000e+000 91929 -1.3169e+002 -4.0426e+002  1.9159e+002 41383 91799,91851,91825
 2.2000e+000 92601 -5.2530e+002 -4.6796e+002  1.5675e+002 40979 92229,92411,92307
 2.2000e+000 92578 -6.4735e+002 -4.6887e+002  1.3247e+002 40979 92229,92437,92411
 2.2000e+000 92555 -4.7534e+002 -3.6872e+002  1.3921e+002 40979 92229,92307,92281
 2.2000e+000 92532 -4.2931e+002 -4.7429e+002  2.5944e+002 40979 92333,92411,92385
 2.2000e+000 92509 -4.3596e+002 -4.0096e+002  1.8616e+002 40979 92307,92411,92333
 2.2000e+000 92486 -4.9968e+002 -3.9652e+002  1.1741e+002 40979 92229,92281,92255
 2.2000e+000 92463 -7.1230e+001 -4.8450e+002  1.7801e+002 40979 92333,92385,92359
 2.2000e+000 93235 -5.9395e+002 -3.3197e+002  4.4357e+002 40525 92941,92993,92967
 2.2000e+000 93212 -8.5829e+002 -2.0310e+002  8.1425e+001 40525 93258,92941,92889
 2.2000e+000 93189 -6.6359e+002 -1.1118e+002  4.7108e+001 40525 93258,92889,93071
 2.2000e+000 93166 -7.4526e+002 -2.6735e+002  6.3106e+001 40525 92889,92941,92915
 2.2000e+000 93143 -7.5586e+002 -7.4157e+001  3.6138e+001 40525 92863,93071,92889
 2.2000e+000 93120 -6.2033e+002 -3.2620e+002  2.0049e+002 40525 92993,93071,93019
 2.2000e+000 93097 -6.3500e+002 -2.2539e+002  1.5832e+002 40525 93019,93071,93045
 2.2000e+000 93284 -9.6636e+002 -3.2535e+002  3.0586e+002 40525 92993,92941,93258
 2.2000e+000 93307 -5.9063e+002 -1.2861e+002  2.3448e+002 40525 92993,93258,93071
 2.2000e+000 93636 -6.9988e+002 -5.0510e+002  5.7428e+002 40235 93437,93541,93515
 2.2000e+000 93613 -6.4874e+002 -6.9574e+002  5.3913e+002 40235 93411,93541,93437
 2.2000e+000 93590 -1.0204e+002 -6.6929e+002  1.9304e+002 40235 93463,93515,93489
 2.2000e+000 93567 -2.8144e+002 -4.5896e+002  9.2959e+001 40235 93437,93515,93463
 2.2000e+000 94014 -7.5246e+002 -6.7082e+002  3.3125e+002 39873 93766,93870,93792
 2.2000e+000 93991 -6.2103e+002 -7.7665e+002  2.4871e+002 39873 93766,93896,93870
 2.2000e+000 93968 -6.9579e+002 -5.2687e+002  3.5099e+002 39873 93792,93870,93844
 2.2000e+000 93945 -5.3037e+002 -4.2300e+002  2.7723e+002 39873 93792,93844,93818
 2.2000e+000 93922 -4.6778e+002 -7.1167e+002  4.8888e+002 39873 93740,93896,93766
 2.2000e+000 94164 -7.4664e+001 -5.0680e+002  1.7719e+002 39461 94037,94089,94063
 2.2000e+000 94141 -1.3553e+002 -7.2266e+002  2.7151e+002 39461 94037,94115,94089
 2.2000e+000 94363 -3.5876e+002 -2.5033e+002  2.1380e+002 39057 94386,94239,94213
 2.2000e+000 94340 -2.9017e+002 -2.0255e+002  1.8881e+002 39057 94386,94213,94187
 2.2000e+000 94317 -4.1723e+002 -3.2995e+002  2.0878e+002 39057 94187,94291,94265
 2.2000e+000 94412 -1.8372e+002 -2.0480e+002  1.7324e+002 39057 94458,94386,94265
 2.2000e+000 94435 -3.0567e+002 -2.5576e+002  1.7523e+002 39057 94265,94386,94187
 2.2000e+000 94484 -3.4505e+002 -3.1809e+002  2.3837e+002 39057 94239,94386,94458
 2.2000e+000 94896 -7.0104e+002 -4.9730e+002  3.1474e+002 38396 94919,94775,94723
 2.2000e+000 94873 -7.9562e+002 -3.8942e+002  3.1547e+002 38396 94919,94723,94697
 2.2000e+000 94850 -5.8121e+002 -4.7127e+002  2.4646e+002 38396 94723,94775,94749
 2.2000e+000 94827 -3.6046e+002 -1.9055e+002  2.2645e+002 38396 94671,94801,94697
 2.2000e+000 94945 -6.8918e+002 -4.2699e+002  2.7281e+002 38396 94801,94775,94919
 2.2000e+000 94968 -7.3982e+002 -2.9328e+002  2.5492e+002 38396 94801,94919,94697
 2.2000e+000 95265 -7.1056e+002 -6.8137e+002  3.6734e+002 37835 95017,95069,95043
 2.2000e+000 95242 -7.1719e+002 -5.7520e+002  3.6510e+002 37835 95288,95069,95017
 2.2000e+000 95219 -7.9369e+002 -6.4086e+002  4.7529e+002 37835 95288,95017,94991
 2.2000e+000 95196 -8.4183e+002 -6.8255e+002  4.0783e+002 37835 94991,95147,95121
 2.2000e+000 95173 -5.1548e+002 -3.4473e+002  3.0628e+002 37835 95069,95121,95095
 2.2000e+000 95314 -7.1033e+002 -4.2468e+002  2.7462e+002 37835 95121,95069,95288
 2.2000e+000 95337 -7.7687e+002 -5.1975e+002  3.7889e+002 37835 95121,95288,94991
 2.2000e+000 95558  1.5239e+002  4.2780e+001  1.6890e+002 37423 95408,95460,95434
 2.2000e+000 95535 -1.7162e+002 -7.5557e+002  4.0616e+002 37423 95382,95460,95408
 2.2000e+000 95512 -3.8223e+002 -9.2755e+002  4.8214e+002 37423 95382,95486,95460
 2.2000e+000 95891 -4.6643e+001 -4.3094e+002  1.8218e+002 37225 95666,95718,95692
 2.2000e+000 95868 -3.1583e+002 -5.1951e+002  2.5816e+002 37225 95666,95796,95718
 2.2000e+000 95845 -3.1674e+002 -4.5025e+002  9.7756e+001 37225 95718,95770,95744
 2.2000e+000 95822 -1.7264e+002 -3.8832e+002  1.1714e+002 37225 95718,95796,95770
 2.2000e+000 95992 -7.1563e+000 -3.2692e+002  1.8832e+002 36735 95914,95966,95940
 2.2000e+000 96142 -8.1495e+002 -3.1156e+002  3.8737e+002 36331 96297,96067,96041
 2.2000e+000 96119 -6.0522e+002 -3.1042e+002  3.7812e+002 36331 96165,96041,96015
 2.2000e+000 96191 -7.5900e+002 -3.0776e+002  3.5420e+002 36331 96297,96041,96165
 2.2000e+000 96323 -9.3148e+002 -3.4585e+002  4.9842e+002 36331 96093,96067,96297
 2.2000e+000 96346 -7.7061e+002 -2.9579e+002  4.7163e+002 36331 96093,96297,96165
 2.2000e+000 96714 -4.4897e+002 -7.0557e+002  4.7318e+002 36041 96737,96495,96443
 2.2000e+000 96691 -6.3761e+002 -5.0160e+002  4.6363e+002 36041 96737,96443,96417
 2.2000e+000 96668 -1.7992e+002 -8.0040e+002  6.9331e+001 36041 96443,96495,96469
 2.2000e+000 96645 -1.4614e+002 -1.8514e+002  2.4687e+002 36041 96391,96521,96417
 2.2000e+000 96622  2.2452e+001 -2.3277e+002  2.0648e+002 36041 96391,96547,96521
 2.2000e+000 96599 -8.5979e+001 -2.6257e+002  1.9007e+002 36041 96391,96573,96547
 2.2000e+000 96763 -1.9010e+002 -5.4034e+002  4.0250e+002 36041 96521,96495,96737
 2.2000e+000 96786 -5.4104e+002 -4.5376e+002  4.3587e+002 36041 96521,96737,96417
 2.2000e+000 96936 -4.1261e+002 -2.4984e+002  2.5124e+002 35637 97031,96959,96835
 2.2000e+000 96913 -5.5431e+002 -2.7989e+002  2.9499e+002 35637 97163,96959,96809
 2.2000e+000 96985 -5.6416e+002 -1.9661e+002  2.9418e+002 35637 96861,96835,96959
 2.2000e+000 97008 -7.5420e+002 -3.6636e+002  4.9045e+002 35637 96861,96959,96887
 2.2000e+000 97057 -4.4013e+002 -1.6885e+002  1.6594e+002 35637 96809,96959,97031
 2.2000e+000 97189 -4.7316e+002 -2.3886e+002  3.1927e+002 35637 96887,96959,97163
 2.2000e+000 97597 -3.6718e+002 -4.0963e+002  3.7557e+002 35190 97450,97502,97476
 2.2000e+000 97574 -3.9933e+002 -5.0413e+002  4.5631e+002 35190 97372,97502,97450
 2.2000e+000 97551 -4.1476e+002 -6.1280e+002  4.3500e+002 35190 97372,97450,97398
 2.2000e+000 97528 -3.0307e+002 -5.4237e+002  3.7692e+002 35190 97398,97450,97424
 2.2000e+000 98054 -5.0177e+002 -6.0370e+002  4.4147e+002 34636 97806,97936,97858
 2.2000e+000 98031 -7.6400e+002 -4.0475e+002  3.7292e+002 34636 97780,97936,97806
 2.2000e+000 98008 -6.3511e+002 -5.6203e+002  2.0108e+002 34636 97806,97858,97832
 2.2000e+000 97985 -5.2578e+002 -5.8280e+002  4.4725e+002 34636 97884,97936,97910
 2.2000e+000 97962 -3.1929e+002 -3.9503e+002  3.3684e+002 34636 97858,97936,97884
 2.2000e+000 98530 -5.7759e+002 -1.4026e+002  1.2456e+002 34068 98697,98184,98366
 2.2000e+000 98507 -6.2846e+001 -1.5436e+002  9.7986e+001 34068 98158,98366,98184
 2.2000e+000 98484 -7.4387e+002 -5.8580e+002  2.7160e+002 34068 98553,98262,98236
 2.2000e+000 98461 -1.1999e+003 -7.8473e+002  2.0180e+002 34068 98553,98236,98210
 2.2000e+000 98438 -6.9797e+002 -3.8879e+002  2.1170e+002 34068 98841,98625,98366
 2.2000e+000 98415 -7.7275e+002 -9.9783e+002  4.8881e+002 34068 98769,98288,98262
 2.2000e+000 98392 -8.8105e+002 -2.5797e+002  1.7251e+002 34068 98841,98366,98340
 2.2000e+000 98579 -8.6904e+002 -7.6523e+002  3.3558e+002 34068 98769,98262,98553
 2.2000e+000 98602 -7.1713e+002 -4.6287e+002  2.2480e+002 34068 98625,98314,98553
 2.2000e+000 98651 -6.5647e+002 -4.0276e+002  1.5762e+002 34068 98697,98366,98625
 2.2000e+000 98674 -7.6607e+002 -6.2032e+002  1.9091e+002 34068 98210,98625,98553
 2.2000e+000 98723 -6.8228e+002 -4.5584e+002  1.8368e+002 34068 98210,98184,98697
 2.2000e+000 98746 -6.5191e+002 -4.9208e+002  2.3889e+002 34068 98210,98697,98625
 2.2000e+000 98795 -4.8881e+002 -7.6476e+002  3.2904e+002 34068 98314,98288,98769
 2.2000e+000 98818 -6.4300e+002 -6.1507e+002  1.8712e+002 34068 98314,98769,98553
 2.2000e+000 98867 -8.7022e+002 -5.3261e+002  1.4465e+002 34068 98314,98625,98841
 2.2000e+000 98890 -1.0558e+003 -3.8800e+002  1.1176e+002 34068 98314,98841,98340
 2.2000e+000 99268 -9.2301e+002 -7.8067e+002  5.7228e+002 33450 99291,99098,99072
 2.2000e+000 99245 -9.9753e+002 -6.0836e+002  2.7521e+002 33450 99291,99072,99020
 2.2000e+000 99222 -1.4138e+003 -7.1549e+002  4.1458e+002 33450 99020,99072,99046
 2.2000e+000 99199 -7.9074e+002 -5.5108e+002  2.7486e+002 33450 99020,99150,99124
 2.2000e+000 99176 -8.1239e+002 -6.0183e+002  9.1185e+001 33450 98994,99150,99020
 2.2000e+000 99317 -4.7855e+002 -5.8986e+002  5.5336e+002 33450 99124,99098,99291
 2.2000e+000 99340 -8.5335e+002 -5.6149e+002  2.8582e+002 33450 99124,99291,99020
 2.2000e+000 99865 -5.0273e+002 -4.8447e+002  2.8246e+002 32944 100176,99960,99888
 2.2000e+000 99842 -5.5449e+002 -4.8189e+002  2.8956e+002 32944 100104,99888,99522
 2.2000e+000 99819 -5.3146e+002 -4.6890e+002  3.9027e+002 32944 100248,99960,99626
 2.2000e+000 99796 -4.5809e+002 -5.3878e+002  1.5617e+002 32944 100032,99652,99626
 2.2000e+000 99773 -4.3864e+002 -5.5637e+002  1.9198e+002 32944 100104,99522,99496
 2.2000e+000 99750 -3.6449e+002 -3.0867e+002  5.4191e+001 32944 99574,99626,99600
 2.2000e+000 99727 -4.6978e+002 -4.2813e+002  4.1671e+002 32944 100248,99626,99574
 2.2000e+000 99704 -2.5171e+002 -5.1193e+002  2.8784e+002 32944 99444,99496,99470
 2.2000e+000 99914 -4.8981e+002 -4.3658e+002  1.8302e+002 32944 100176,99888,100032
 2.2000e+000 99937 -5.8774e+002 -3.7536e+002  3.1137e+002 32944 99678,99888,99444
 2.2000e+000 99986 -5.4329e+002 -4.1247e+002  2.7219e+002 32944 99522,99888,99960
 2.2000e+000 100009 -5.9495e+002 -3.4823e+002  3.1635e+002 32944 99522,99960,99548
 2.2000e+000 100058 -5.7442e+002 -5.0738e+002  1.6572e+002 32944 99678,99652,100032
 2.2000e+000 100081 -6.1322e+002 -4.8899e+002  1.6875e+002 32944 99678,100032,99888
 2.2000e+000 100130 -3.5521e+002 -3.9711e+002  3.1125e+002 32944 99444,99888,100104
 2.2000e+000 100153 -2.7558e+002 -4.8968e+002  2.2222e+002 32944 99444,100104,99496
 2.2000e+000 100202 -5.5968e+002 -6.3549e+002  2.9006e+002 32944 99626,99960,100176
 2.2000e+000 100225 -5.7826e+002 -6.3552e+002  2.0199e+002 32944 99626,100176,100032
 2.2000e+000 100274 -6.3412e+002 -4.3240e+002  3.3405e+002 32944 99548,99960,100248
 2.2000e+000 100297 -5.7926e+002 -3.9927e+002  3.5865e+002 32944 99548,100248,99574
 2.2000e+000 100754 -2.0772e+002 -2.3469e+002  1.0714e+002 32369 100777,100584,100506
 2.2000e+000 100731 -2.1746e+002 -3.4456e+002  2.3348e+002 32369 100777,100506,100636
 2.2000e+000 100708 -3.3298e+002 -3.4190e+002  2.4381e+002 32369 100480,100636,100506
 2.2000e+000 100685 -5.3406e+002 -2.5093e+002 -3.4900e+000 32369 100532,100584,100558
 2.2000e+000 100662 -2.6119e+002 -2.5809e+002  1.4847e+002 32369 100506,100584,100532
 2.2000e+000 100803 -2.3116e+002 -5.1395e+001  8.2057e+001 32369 100610,100584,100777
 2.2000e+000 100826 -2.2360e+002 -1.7141e+002  1.9063e+002 32369 100610,100777,100636
 2.2000e+000 101025 -5.0670e+002 -3.4755e+002  3.5152e+002 31857 100875,100927,100901
 2.2000e+000 101002 -8.9895e+002 -2.2139e+002  3.2975e+002 31857 100875,100953,100927
 2.2000e+000 100979 -9.7598e+002 -3.8300e+002  2.8036e+002 31857 100849,100953,100875
 2.2000e+000 101533 -4.5854e+002 -5.5817e+002  4.3661e+002 31253 101556,101314,101236
 2.2000e+000 101510 -6.3236e+002 -5.5195e+002  3.8952e+002 31253 101556,101236,101210
 2.2000e+000 101487 -5.5754e+002 -5.5715e+002  1.8001e+002 31253 101210,101392,101340
 2.2000e+000 101464 -3.6014e+002 -4.8386e+002  3.5880e+002 31253 101236,101288,101262
 2.2000e+000 101441 -4.5134e+002 -7.4138e+002  4.2748e+002 31253 101236,101314,101288
 2.2000e+000 101418 -6.1500e+002 -8.3516e+002  4.4799e+002 31253 101340,101392,101366
 2.2000e+000 101582 -5.1966e+002 -6.0645e+002  3.0093e+002 31253 101340,101314,101556
 2.2000e+000 101605 -6.9141e+002 -5.7721e+002  2.6109e+002 31253 101340,101556,101210
 2.2000e+000 101755  1.3716e+002 -1.1745e+002  6.8359e+001 30519 101778,101654,101628
 2.2000e+000 101732 -1.2029e+002 -1.7555e+002  3.1494e+001 30519 101850,101778,101628
 2.2000e+000 101804 -6.0013e+001 -1.2404e+002 -2.9837e+001 30519 101680,101654,101778
 2.2000e+000 101827 -2.3782e+002 -9.7801e+001 -1.9369e+001 30519 101680,101778,101706
 2.2000e+000 101876 -1.0884e+002 -1.6100e+002  1.1530e+001 30519 101706,101778,101850
 2.2000e+000 102561 -2.0584e+002 -4.1211e+002  2.1129e+002 29951 102656,102584,102270
 2.2000e+000 102538 -8.6305e+002 -8.9422e+002  1.3205e+002 29951 102584,102140,102374
 2.2000e+000 102515 -3.9951e+002 -1.0136e+003  5.2882e+002 29951 102728,102656,102270
 2.2000e+000 102492 -4.5671e+002 -1.2514e+003  5.3919e+002 29951 102728,102270,102244
 2.2000e+000 102469 -6.9600e+002 -2.5103e+002  3.3669e+002 29951 102800,102322,102296
 2.2000e+000 102446 -7.2698e+002 -4.2787e+002  1.1790e+002 29951 102166,102218,102192
 2.2000e+000 102423 -6.0424e+002 -4.8862e+002  4.6168e+001 29951 102166,102244,102218
 2.2000e+000 102400 -3.8417e+002 -4.9426e+002  2.9904e+002 29951 102322,102374,102348
 2.2000e+000 102610 -8.2494e+002 -3.3108e+002  6.1357e+001 29951 102296,102270,102584
 2.2000e+000 102633 -9.5302e+002 -4.2571e+002  1.7490e+002 29951 102800,102296,102584
 2.2000e+000 102682 -1.0283e+003 -8.9095e+002  4.2651e+002 29951 102140,102584,102656
 2.2000e+000 102705 -5.8609e+002 -8.1098e+002  6.5944e+002 29951 102140,102656,102166
 2.2000e+000 102754 -4.8174e+002 -7.5477e+002  6.2988e+002 29951 102166,102656,102728
 2.2000e+000 102777 -5.1300e+002 -9.2152e+002  5.9319e+002 29951 102166,102728,102244
 2.2000e+000 102826 -4.1792e+002 -4.5100e+002  4.2166e+002 29951 102374,102322,102800
 2.2000e+000 102849 -5.4559e+002 -4.4402e+002  3.1270e+002 29951 102374,102800,102584
 2.2000e+000 103048  8.5418e+001 -2.4017e+002  7.3018e+001 29454 102872,102924,102898
 2.2000e+000 103025 -6.9325e+001 -7.3327e+002  2.3691e+002 29454 102872,102976,102924
 2.2000e+000 103002 -2.4501e+002 -1.0158e+003  1.3277e+002 29454 102924,102976,102950
 2.2000e+000 103296 -9.9420e+002 -6.9768e+002  4.8924e+002 29064 103319,103175,103123
 2.2000e+000 103273 -1.3736e+003 -7.0675e+002  5.6442e+002 29064 103319,103123,103071
 2.2000e+000 103250 -6.1367e+002 -4.5318e+002  3.7153e+002 29064 103123,103175,103149
 2.2000e+000 103227 -1.0230e+003 -6.1504e+002  7.2337e+002 29064 103071,103123,103097
 2.2000e+000 103345 -6.6132e+002 -7.9226e+002  3.4744e+002 29064 103201,103175,103319
 2.2000e+000 103368 -1.0985e+003 -7.4263e+002  2.8397e+002 29064 103201,103319,103071
 2.2000e+000 104006 -5.7542e+002 -2.7628e+002  2.2471e+002 28603 104101,104029,103712
 2.2000e+000 103983 -5.1150e+002 -2.1673e+002  1.9620e+002 28603 104173,104029,103660
 2.2000e+000 103960 -6.8014e+002 -2.2359e+002  2.0568e+002 28603 104101,103712,103686
 2.2000e+000 103937 -3.8945e+002 -2.8181e+002  1.9638e+002 28603 104173,103660,103634
 2.2000e+000 103914 -6.2819e+002 -3.0090e+002  3.1040e+002 28603 103764,103816,103790
 2.2000e+000 103891 -4.1004e+002 -2.6768e+002  2.9674e+002 28603 103634,103842,103816
 2.2000e+000 103868 -4.9338e+002 -1.6815e+002  2.8825e+002 28603 103712,103764,103738
 2.2000e+000 104055 -5.9092e+002 -2.3948e+002  2.4184e+002 28603 103764,103712,104029
 2.2000e+000 104078 -5.6120e+002 -2.3888e+002  2.8015e+002 28603 103764,104029,103816
 2.2000e+000 104127 -7.0825e+002 -2.9944e+002  1.7568e+002 28603 103660,104029,104101
 2.2000e+000 104150 -8.6282e+002 -2.6825e+002  1.8015e+002 28603 103660,104101,103686
 2.2000e+000 104199 -6.0939e+002 -2.6334e+002  2.2921e+002 28603 103816,104029,104173
 2.2000e+000 104222 -4.9754e+002 -3.2506e+002  2.1719e+002 28603 103816,104173,103634
 2.2000e+000 104600 -3.9903e+002 -7.3542e+002  1.6424e+002 28348 104623,104378,104326
 2.2000e+000 104577 -3.3557e+002 -7.6349e+002  3.3014e+002 28348 104623,104326,104482
 2.2000e+000 104554 -3.4049e+002 -4.5758e+002  1.1138e+002 28348 104326,104378,104352
 2.2000e+000 104531 -3.8694e+002 -3.9996e+000 -1.0705e+001 28348 104404,104456,104430
 2.2000e+000 104508 -5.1134e+002 -2.6932e+002  2.3858e+002 28348 104378,104456,104404
 2.2000e+000 104649 -3.3182e+002 -5.8545e+002  2.0913e+002 28348 104456,104378,104623
 2.2000e+000 104672 -2.4753e+002 -5.8881e+002  3.7870e+002 28348 104456,104623,104482
 2.2000e+000 104991 -6.5877e+002 -6.3615e+002  4.9150e+002 27951 104717,104847,104769
 2.2000e+000 104968 -1.7680e+002 -4.3674e+002  4.7634e+002 27951 104717,104873,104847
 2.2000e+000 104945 -2.1496e+002 -4.9018e+002  5.5447e+002 27951 104769,104847,104795
 2.2000e+000 104922  6.1182e+001  1.7569e+002  5.2190e+002 27951 104795,104847,104821
 2.2000e+000 104899 -6.6581e+002 -4.7536e+002  5.7996e+002 27951 104717,104769,104743
 2.2000e+000 105371 -9.2530e+002 -5.3394e+002  3.9665e+002 27447 105394,105201,105123
 2.2000e+000 105348 -1.2382e+003 -4.5788e+002  5.8785e+002 27447 105394,105123,105097
 2.2000e+000 105325 -1.4237e+003 -5.4204e+002  3.4798e+002 27447 105123,105201,105149
 2.2000e+000 105302 -7.6411e+002 -6.2299e+002  4.0834e+002 27447 105201,105253,105227
 2.2000e+000 105279 -8.1447e+002 -7.1301e+002  1.6021e+002 27447 105149,105201,105175
 2.2000e+000 105420 -7.5621e+002 -4.3838e+002  3.0492e+002 27447 105253,105201,105394
 2.2000e+000 105443 -1.0166e+003 -2.5920e+002  4.6519e+002 27447 105253,105394,105097
 2.2000e+000 105998 -6.4934e+002 -4.0466e+002  4.3289e+002 27100 106165,106021,105704
 2.2000e+000 105975 -2.8560e+002 -1.9981e+002  3.6328e+002 27100 106309,106021,105652
 2.2000e+000 105952 -1.0660e+003 -7.0977e+002  7.5938e+002 27100 106093,105808,105782
 2.2000e+000 105929 -6.1887e+002 -4.3567e+002  4.0416e+002 27100 106165,105704,105678
 2.2000e+000 105906 -2.9296e+002 -6.6035e+002  3.5815e+002 27100 106237,105730,105704
 2.2000e+000 105883 -2.5693e+002 -3.9729e+002  2.5285e+002 27100 106309,105652,105626
 2.2000e+000 105860 -1.1860e+002 -1.0941e+001  3.4402e+001 27100 105730,105782,105756
 2.2000e+000 106047 -5.8399e+002 -3.3013e+002  4.8909e+002 27100 106237,105704,106021
 2.2000e+000 106070 -6.1827e+002 -2.9769e+002  5.8149e+002 27100 106093,105782,106021
 2.2000e+000 106119 -4.2026e+002 -6.0885e+002  3.6922e+002 27100 105834,105808,106093
 2.2000e+000 106142 -5.0436e+002 -7.6465e+002  5.2724e+002 27100 106381,106093,106021
 2.2000e+000 106191 -6.0030e+002 -3.8256e+002  4.4010e+002 27100 105652,106021,106165
 2.2000e+000 106214 -5.4447e+002 -4.0249e+002  4.0986e+002 27100 105652,106165,105678
 2.2000e+000 106263 -4.0428e+001 -3.4567e+002  2.4809e+002 27100 105782,105730,106237
 2.2000e+000 106286 -3.8764e+002 -1.0007e+002  4.0351e+002 27100 105782,106237,106021
 2.2000e+000 106335 -4.2219e+002 -4.6581e+002  4.1218e+002 27100 106381,106021,106309
 2.2000e+000 106358 -2.5973e+002 -3.0706e+002  2.2399e+002 27100 105834,106309,105626
 2.2000e+000 106407 -3.0713e+002 -4.2316e+002  3.1770e+002 27100 105834,106093,106381
 2.2000e+000 106430 -3.1312e+002 -3.7073e+002  1.9967e+002 27100 105834,106381,106309
 2.2000e+000 106629 -9.1648e+001 -6.3822e+002  2.3539e+002 26688 106479,106557,106531
 2.2000e+000 106606 -9.1922e+001 -4.7731e+002  2.3817e+002 26688 106453,106557,106479
 2.2000e+000 106583 -2.9822e+002 -7.0483e+002  8.8232e+001 26688 106479,106531,106505
 2.2000e+000 107088 -3.0431e+002 -2.3604e+002  1.1530e+002 26248 107111,106918,106866
 2.2000e+000 107065 -3.1817e+002 -2.0435e+002  1.2932e+002 26248 107111,106866,106840
 2.2000e+000 107042 -2.3200e+002 -1.3619e+002  1.3312e+002 26248 106814,106970,106840
 2.2000e+000 107019 -2.9619e+002 -5.4013e+002  2.4171e+002 26248 106866,106918,106892
 2.2000e+000 106996 -4.4463e+002 -2.9959e+002  8.4370e+001 26248 106918,106970,106944
 2.2000e+000 107137 -3.2849e+002 -2.7814e+002  8.3209e+001 26248 106970,106918,107111
 2.2000e+000 107160 -3.1644e+002 -2.1591e+002  9.9859e+001 26248 106970,107111,106840
 2.2000e+000 107666 -8.1328e+002 -3.0267e+002  2.4501e+002 25908 107369,107499,107395
 2.2000e+000 107643 -1.1103e+003 -9.2823e+002  5.2833e+002 25908 107369,107525,107499
 2.2000e+000 107620 -6.6272e+002 -4.1371e+002  3.2792e+002 25908 107395,107473,107447
 2.2000e+000 107597 -5.5192e+002 -2.0714e+002  2.2143e+002 25908 107395,107499,107473
 2.2000e+000 107574 -1.1783e+003 -4.8577e+002  7.4799e+002 25908 107395,107447,107421
 2.2000e+000 107551 -3.6447e+002 -7.3892e+002  3.7170e+002 25908 107343,107525,107369
 2.2000e+000 108251 -5.6704e+002 -1.7597e+002  3.1658e+002 25454 108274,108006,107954
 2.2000e+000 108228 -4.5349e+002 -7.7103e+001  2.3250e+002 25454 108274,107954,108110
 2.2000e+000 108205 -4.3007e+002 -4.1185e+002  3.8232e+002 25454 108346,108032,108006
 2.2000e+000 108182 -7.0744e+002 -2.9282e+002  3.9458e+002 25454 107954,108006,107980
 2.2000e+000 108159 -2.4024e+002 -2.4421e+002  2.1778e+002 25454 107928,108110,107954
 2.2000e+000 108136 -8.2193e+002 -6.8987e+002  4.2468e+002 25454 108058,108110,108084
 2.2000e+000 108300 -5.4933e+002 -2.8935e+002  3.8012e+002 25454 108346,108006,108274
 2.2000e+000 108323 -4.9826e+002 -2.0271e+002  2.7421e+002 25454 108058,108274,108110
 2.2000e+000 108372 -2.8624e+002 -2.7862e+002  3.2701e+002 25454 108058,108032,108346
 2.2000e+000 108395 -4.1439e+002 -1.4123e+002  3.2318e+002 25454 108058,108346,108274
 2.2000e+000 108822 -4.4505e+002 -2.2492e+002  2.3213e+002 24943 108525,108681,108655
 2.2000e+000 108799 -5.6683e+002 -3.8046e+002  1.2225e+002 24943 108499,108681,108525
 2.2000e+000 108776 -2.2739e+002 -1.5986e+002  1.5704e+002 24943 108525,108655,108629
 2.2000e+000 108753 -3.6652e+002 -1.4063e+002  1.3671e+002 24943 108525,108629,108603
 2.2000e+000 108730 -8.7300e+002 -2.5882e+002  2.9776e+002 24943 108551,108603,108577
 2.2000e+000 108707 -8.1365e+002 -4.4608e+002  4.2583e+002 24943 108525,108603,108551
 2.2000e+000 109407 -4.6677e+001 -1.3686e+002  7.9570e+001 24745 109162,109214,109188
 2.2000e+000 109384 -2.9175e+002 -1.3426e+002  9.2542e+001 24745 109162,109266,109214
 2.2000e+000 109361 -3.4694e+002 -2.0470e+002  5.0682e+001 24745 109084,109266,109162
 2.2000e+000 109338 -6.3868e+002 -8.0105e+001  1.3887e+002 24745 109084,109162,109136
 2.2000e+000 109315 -1.3436e+002 -2.6162e+002  1.3805e+002 24745 109214,109266,109240
 2.2000e+000 109292 -4.8489e+002 -1.2042e+002  2.4134e+002 24745 109084,109136,109110
 2.2000e+000 109785 -9.7016e+002 -4.0563e+002  5.5327e+002 24341 109537,109615,109563
 2.2000e+000 109762 -8.5910e+001 -1.7142e+002  5.2849e+002 24341 109537,109641,109615
 2.2000e+000 109739 -6.6150e+002 -4.5097e+002  4.1416e+002 24341 109563,109615,109589
 2.2000e+000 109716 -3.9573e+002 -3.8181e+002  3.4988e+002 24341 109537,109667,109641
 2.2000e+000 109693 -2.4524e+002 -4.5663e+002  3.2575e+002 24341 109511,109667,109537
 2.2000e+000 110163 -1.1300e+003 -5.8555e+002  5.6085e+002 23837 110186,109967,109915
 2.2000e+000 110140 -1.0122e+003 -5.8195e+002  6.0976e+002 23837 110186,109915,109889
 2.2000e+000 110117 -4.5868e+002 -1.8954e+002  4.8519e+002 23837 109889,110045,109993
 2.2000e+000 110094 -1.0230e+003 -7.6774e+002  4.0208e+002 23837 109915,109967,109941
 2.2000e+000 110071 -5.5677e+002 -6.7911e+000  6.5757e+001 23837 109993,110045,110019
 2.2000e+000 110212 -1.0569e+003 -5.2545e+002  6.1101e+002 23837 109993,109967,110186
 2.2000e+000 110235 -1.0105e+003 -5.3841e+002  6.6189e+002 23837 109993,110186,109889
 2.2000e+000 110336 -5.1950e+002 -1.1275e+003  6.2650e+002 23433 110258,110310,110284
 2.2000e+000 110584 -6.3301e+002 -4.3139e+002  2.5595e+002 22829 110607,110411,110385
 2.2000e+000 110561 -8.2463e+002 -5.1382e+002  3.9173e+002 22829 110607,110385,110489
 2.2000e+000 110538 -4.5302e+002 -4.5840e+002  2.0880e+002 22829 110437,110489,110463
 2.2000e+000 110515 -6.7911e+002 -3.0401e+002  4.5535e+002 22829 110359,110489,110385
 2.2000e+000 110633 -6.1627e+002 -3.0275e+002  1.1714e+002 22829 110437,110411,110607
 2.2000e+000 110656 -7.2361e+002 -3.8808e+002  2.4716e+002 22829 110437,110607,110489
 2.2000e+000 110906 -1.4660e+003 -6.0478e+002  3.7822e+002 22432 110707,110759,110733
 2.2000e+000 110883 -7.9731e+002 -5.6636e+002  2.7231e+002 22432 110707,110785,110759
 2.2000e+000 110860 -9.2184e+002 -5.0372e+002  5.1392e+002 22432 110707,110811,110785
 2.2000e+000 110837 -1.1413e+003 -7.5848e+002  3.9946e+002 22432 110681,110811,110707
 2.2000e+000 111288 -9.1206e+001 -1.8023e+002  1.8581e+002 22142 111092,111144,111118
 2.2000e+000 111265 -4.0303e+002 -2.9509e+002  2.1261e+002 22142 111066,111144,111092
 2.2000e+000 111242 -3.8366e+002 -2.8186e+002  1.7611e+002 22142 111040,111144,111066
 2.2000e+000 111219 -7.3800e+002 -6.5831e+001  9.1729e+001 22142 111014,111144,111040
 2.2000e+000 111196 -5.3706e+002 -2.7203e+001  1.7199e+002 22142 111014,111170,111144
 2.2000e+000 111389  1.8440e+001 -9.6384e+001  3.4080e+002 21830 111311,111363,111337
 2.2000e+000 111735 -9.6799e+002 -2.4394e+001  6.7860e+002 21268 111758,111542,111438
 2.2000e+000 111712 -8.1341e+002  1.2642e+001  4.9470e+002 21268 111758,111438,111412
 2.2000e+000 111689 -2.7663e+002 -4.1065e+002  8.1297e+002 21268 111438,111542,111464
 2.2000e+000 111666 -1.1542e+002 -2.8101e+002  1.0293e+003 21268 111464,111542,111490
 2.2000e+000 111643 -1.9308e+003 -8.9662e+002  9.0251e+002 21268 111412,111594,111568
 2.2000e+000 111620  2.4428e+002  3.4500e+002  1.2562e+003 21268 111490,111542,111516
 2.2000e+000 111784 -9.9803e+002 -1.3244e+002  6.7768e+002 21268 111568,111542,111758
 2.2000e+000 111807 -9.8266e+002 -3.6668e+002  5.5267e+002 21268 111568,111758,111412
 2.2000e+000 111959 -8.9753e+002 -1.0012e+002  2.9940e+002 20864 111982,111910,111884
 2.2000e+000 111936 -8.5799e+002 -1.0561e+002  4.2430e+002 20864 112114,111832,111910
 2.2000e+000 112008 -8.9277e+002 -2.7922e+002  3.6181e+002 20864 112114,111910,111982
 2.2000e+000 112140 -8.4402e+002 -2.9876e+002  3.4601e+002 20864 111858,111832,112114
 2.2000e+000 112163 -8.9857e+002 -5.1504e+002  2.9024e+002 20864 111858,112114,111982
 2.2000e+000 112411 -1.1808e+002 -2.4623e+001  3.7465e+001 20324 112186,112290,112212
 2.2000e+000 112388 -5.8455e+001 -1.1478e+001  5.2155e+001 20324 112186,112316,112290
 2.2000e+000 112365  3.0744e+002 -2.6070e+002  5.3580e+001 20324 112212,112290,112264
 2.2000e+000 112342 -1.2643e+003 -5.4106e+002 -7.1019e+001 20324 112212,112264,112238
 2.2000e+000 112659 -1.0742e+002 -2.4928e+001  3.6779e+002 19920 112512,112564,112538
 2.2000e+000 112636 -5.0441e+002 -1.4839e+002  2.1849e+002 19920 112434,112564,112512
 2.2000e+000 112613 -5.2348e+002 -3.1243e+002  2.8730e+002 19920 112434,112512,112460
 2.2000e+000 112590 -5.7078e+002 -3.4237e+002  3.0359e+002 19920 112460,112512,112486
 2.2000e+000 112811 -9.4131e+001 -3.6038e+001  1.6618e+002 19630 112684,112736,112710
 2.2000e+000 112788  1.4621e+002 -2.0542e+002  4.7360e+001 19630 112684,112762,112736
 2.2000e+000 113012 -4.2240e+002 -1.5471e+002  4.0888e+002 19169 112862,112940,112888
 2.2000e+000 112989 -6.8829e+002 -5.4126e+002  2.9169e+002 19169 112836,112940,112862
 2.2000e+000 112966 -3.3795e+002 -4.2832e+002  3.2810e+002 19169 112888,112940,112914
 2.2000e+000 113213 -9.8698e+002 -3.9170e+002  4.4072e+002 18600 113037,113089,113063
 2.2000e+000 113190 -5.1507e+002 -2.0281e+002  3.1915e+002 18600 113037,113115,113089
 2.2000e+000 113167 -1.1843e+003 -7.5722e+002  6.8072e+002 18600 113037,113141,113115
 2.2000e+000 113485 -4.8519e+002 -1.7538e+002  4.5383e+002 18352 113260,113312,113286
 2.2000e+000 113462 -9.7100e+002 -5.3636e+002  6.1155e+002 18352 113260,113390,113312
 2.2000e+000 113439 -9.1250e+002 -1.5213e+002  4.1685e+002 18352 113312,113390,113364
 2.2000e+000 113416 -2.7928e+002 -8.7433e+001  4.5267e+002 18352 113312,113364,113338
 2.2000e+000 113757 -6.6121e+002 -2.5454e+002  4.2592e+002 17834 113558,113610,113584
 2.2000e+000 113734 -9.9212e+002 -5.5363e+002  5.8522e+002 17834 113532,113610,113558
 2.2000e+000 113711 -9.9436e+002 -6.3209e+002  4.6748e+002 17834 113532,113662,113610
 2.2000e+000 113688 -4.9478e+002 -1.4177e+002  6.6576e+002 17834 113610,113662,113636
 2.2000e+000 113958 -6.4796e+002 -2.5933e+002  3.4016e+002 17330 113782,113834,113808
 2.2000e+000 113935 -3.6888e+002 -1.8725e+002  2.5087e+002 17330 113782,113886,113834
 2.2000e+000 113912 -4.4514e+002 -1.9762e+002  1.6684e+002 17330 113834,113886,113860
 2.2000e+000 114110 -9.2896e+002 -3.4023e+002  5.9886e+002 16874 113983,114035,114009
 2.2000e+000 114087 -3.7533e+002 -8.3641e+002  5.6282e+002 16874 113983,114061,114035
 2.2000e+000 114465 -1.1968e+003 -5.0237e+002  2.5522e+002 16270 114240,114292,114266
 2.2000e+000 114442 -7.4228e+002 -1.6619e+002  1.0237e+002 16270 114240,114370,114292
 2.2000e+000 114419 -3.5526e+002 -1.4584e+002  2.0245e+002 16270 114292,114344,114318
 2.2000e+000 114396 -7.4382e+002 -3.3596e+002  1.1724e+002 16270 114292,114370,114344
 2.2000e+000 114566 -7.4532e+001  7.4532e+001  8.2606e+002 15834 114488,114540,114514
 2.2000e+000 114667 -6.4097e+002 -2.4991e+002  3.9487e+002 15155 114589,114641,114615
 2.2000e+000 114890 -3.8964e+002 -1.1977e+002  5.4517e+002 421 114766,114818,114792
 2.2000e+000 114867 -6.5017e+002 -6.0520e+002  4.3823e+002 421 114714,114818,114766
 2.2000e+000 114844 -1.0105e+003 -4.2296e+002  2.5013e+002 421 114714,114766,114740
 2.3000e+000 66553 -4.7263e+002 -2.0122e+002  2.0663e+002 66108 66354,66458,66432
 2.3000e+000 66530 -4.5083e+002 -1.8892e+002  1.7136e+002 66108 66328,66458,66354
 2.3000e+000 66507 -2.6579e+002 -1.8207e+002  1.1499e+002 66108 66354,66432,66406
 2.3000e+000 66484  1.0984e+002  5.6631e+001  2.4872e+002 66108 66354,66406,66380
 2.3000e+000 66951 -5.4451e+002 -2.2931e+002  1.6263e+002 65910 66703,66833,66807
 2.3000e+000 66928 -3.8394e+001 -7.5491e+001  1.7205e+002 65910 66677,66833,66703
 2.3000e+000 66905 -1.7146e+002 -3.8010e+002  2.4529e+002 65910 66729,66781,66755
 2.3000e+000 66882 -6.7193e+002 -2.7948e+002  2.3252e+002 65910 66729,66807,66781
 2.3000e+000 66859 -5.6334e+002 -1.3072e+002  1.8393e+002 65910 66703,66807,66729
 2.3000e+000 67150 -6.4409e+002 -2.7632e+002  9.4058e+000 65712 67026,67078,67052
 2.3000e+000 67127 -6.1329e+002 -1.2170e+002 -4.8705e+001 65712 66974,67078,67026
 2.3000e+000 67104 -1.5609e+003 -3.8419e+002 -1.5919e+002 65712 66974,67026,67000
 2.3000e+000 67481 -1.0219e+003 -5.8790e+001  2.9221e+002 65422 67282,67360,67334
 2.3000e+000 67458 -3.7689e+002 -1.1776e+002  5.2618e+002 65422 67282,67386,67360
 2.3000e+000 67435 -2.5196e+002  2.3999e+002  2.8333e+002 65422 67282,67334,67308
 2.3000e+000 67412  2.3306e+002  7.4062e+001  1.7875e+002 65422 67256,67386,67282
 2.3000e+000 68115 -2.6060e+002 -7.5799e+001  7.3084e+001 65018 67795,67925,67873
 2.3000e+000 68092 -3.2971e+002 -1.0257e+002  1.1062e+002 65018 67769,67925,67795
 2.3000e+000 68069 -2.1617e+002 -6.0777e+001  9.0346e+001 65018 67873,67925,67899
 2.3000e+000 68046 -4.8224e+002 -2.4608e+002  1.7254e+002 65018 67769,67951,67925
 2.3000e+000 68023 -3.2570e+002 -1.8936e+002  1.0057e+002 65018 67795,67873,67821
 2.3000e+000 68000 -3.8992e+002 -1.9478e+002  8.0586e+001 65018 67821,67873,67847
 2.3000e+000 67977 -8.4034e+002 -4.3857e+002  1.0913e+002 65018 67743,67951,67769
 2.3000e+000 68363 -3.0237e+002 -6.2724e+002  5.7913e+002 64820 68190,68242,68216
 2.3000e+000 68340 -6.2373e+002 -4.5994e+002  5.9790e+002 64820 68190,68268,68242
 2.3000e+000 68317 -3.4390e+002 -3.2379e+002  6.5344e+002 64820 68164,68268,68190
 2.3000e+000 68294 -1.1943e+003 -4.8372e+002  4.1816e+002 64820 68138,68268,68164
 2.3000e+000 68513 -6.2230e+002 -2.9191e+002  2.4100e+002 64366 68868,68536,68438
 2.3000e+000 68490 -3.3984e+002 -1.2159e+002  1.7399e+002 64366 68536,68412,68386
 2.3000e+000 68562 -7.0481e+002 -2.4340e+002  3.1619e+002 64366 68740,68536,68464
 2.3000e+000 68585 -5.2690e+002 -1.7877e+002  2.4636e+002 64366 68608,68536,68386
 2.3000e+000 68634 -6.1686e+002 -3.6478e+002  2.1896e+002 64366 68464,68536,68608
 2.3000e+000 68766 -6.2765e+002 -1.9540e+002  2.9580e+002 64366 68438,68536,68740
 2.3000e+000 68894 -5.2151e+002 -1.7415e+002  2.8592e+002 64366 68412,68536,68868
 2.3000e+000 69172 -5.0577e+002 -5.7972e+002  3.5677e+001 64168 69022,69074,69048
 2.3000e+000 69149 -1.1041e+003 -4.6685e+002  2.0513e+002 64168 68996,69074,69022
 2.3000e+000 69126 -1.1567e+003 -5.9031e+002  2.0741e+002 64168 68996,69100,69074
 2.3000e+000 69371 -4.1894e+002 -1.4139e+002  2.7156e+002 63970 69466,69394,69273
 2.3000e+000 69348 -2.5808e+002 -1.1772e+002  9.9245e+001 63970 69394,69247,69221
 2.3000e+000 69325 -6.9190e+002 -2.9173e+002  1.7476e+002 63970 69195,69299,69221
 2.3000e+000 69420 -5.5738e+002 -2.3350e+002  3.3087e+002 63970 69299,69273,69394
 2.3000e+000 69443 -4.0527e+002 -2.9089e+002  1.8399e+002 63970 69299,69394,69221
 2.3000e+000 69492 -4.4281e+002 -1.8187e+002  2.6171e+002 63970 69247,69394,69466
 2.3000e+000 69904 -7.2986e+001 -3.7115e+002  1.7662e+002 63680 69705,69783,69731
 2.3000e+000 69881  5.6883e+001 -2.5080e+002  1.0362e+002 63680 69679,69783,69705
 2.3000e+000 69858 -3.5197e+002 -4.2552e+002  2.0309e+002 63680 69679,69809,69783
 2.3000e+000 69835 -2.0229e+002 -3.5996e+002  1.6390e+002 63680 69731,69783,69757
 2.3000e+000 70054 -3.1782e+001 -3.0923e+002  1.9037e+002 63476 70077,69953,69927
 2.3000e+000 70031  4.0987e+001 -1.3282e+002  2.7345e+002 63476 70077,69927,70005
 2.3000e+000 70103 -1.5174e+002 -1.9384e+002  1.1593e+002 63476 69979,69953,70077
 2.3000e+000 70126 -9.4946e+001 -3.5324e+001  1.8581e+002 63476 69979,70077,70005
 2.3000e+000 70325 -1.2003e+003 -5.5928e+002  3.3938e+002 63278 70149,70227,70175
 2.3000e+000 70302 -7.3967e+002 -2.8324e+002  4.6856e+002 63278 70149,70253,70227
 2.3000e+000 70279 -1.3551e+003 -8.4827e+002  2.7917e+002 63278 70175,70227,70201
 2.3000e+000 70597 -4.5140e+002 -5.0820e+001  2.0012e+002 63080 70372,70476,70424
 2.3000e+000 70574 -4.1827e+002 -1.7294e+002  2.0181e+002 63080 70372,70502,70476
 2.3000e+000 70551 -5.6422e+002 -2.3172e+002  2.5308e+002 63080 70424,70476,70450
 2.3000e+000 70528 -8.4845e+002 -2.6073e+002  3.9229e+002 63080 70372,70424,70398
 2.3000e+000 70847 -4.5779e+001 -2.3648e+002  9.6227e+001 62740 70870,70648,70622
 2.3000e+000 70824 -1.6611e+002 -1.9943e+002  1.4597e+002 62740 70870,70622,70752
 2.3000e+000 70801 -6.6165e+001 -2.8773e+002  1.2811e+002 62740 70648,70726,70700
 2.3000e+000 70778 -8.6964e+001 -3.1893e+002  1.3696e+002 62740 70648,70700,70674
 2.3000e+000 70896 -1.6204e+002 -2.8342e+002  8.0799e+001 62740 70726,70648,70870
 2.3000e+000 70919 -2.2173e+002 -2.0971e+002  1.4566e+002 62740 70726,70870,70752
 2.3000e+000 71022 -6.6497e+001  6.6497e+001  7.8061e+002 62520 70944,70996,70970
 2.3000e+000 71223 -1.0640e+003 -5.0296e+002  6.2845e+002 62230 71073,71151,71099
 2.3000e+000 71200 -8.3010e+002 -4.8240e+002  5.5569e+002 62230 71047,71151,71073
 2.3000e+000 71177 -7.1956e+002 -9.0374e+002  5.0599e+002 62230 71099,71151,71125
 2.3000e+000 71861 -1.2808e+002 -2.9073e+002 -7.4886e+001 61712 71515,71697,71671
 2.3000e+000 71838 -1.5460e+002 -3.2232e+002  5.1822e+001 61712 71489,71697,71515
 2.3000e+000 71815 -9.1817e+002 -2.6919e+002  4.1727e+002 61712 71884,71541,71515
 2.3000e+000 71792 -6.6289e+002  2.5326e+001  2.5521e+002 61712 71884,71515,71671
 2.3000e+000 71769 -1.4875e+002 -7.2590e+002  2.4377e+002 61712 71541,71619,71593
 2.3000e+000 71746 -2.6361e+002 -4.7512e+002  1.9204e+002 61712 71619,71671,71645
 2.3000e+000 71723 -1.8030e+002 -6.5785e+002  6.7991e+000 61712 71541,71593,71567
 2.3000e+000 71910 -6.6360e+002 -5.8609e+002  5.7203e+002 61712 71619,71541,71884
 2.3000e+000 71933 -5.2113e+002 -3.6171e+002  4.3665e+002 61712 71619,71884,71671
 2.3000e+000 72230 -7.2399e+002 -5.3406e+002  1.3837e+002 61208 72253,72060,72008
 2.3000e+000 72207 -6.8027e+002 -3.3279e+002  1.2022e+002 61208 72253,72008,71982
 2.3000e+000 72184 -7.3683e+002 -1.7434e+002  1.2265e+002 61208 71982,72112,72086
 2.3000e+000 72161 -1.2622e+003 -5.3777e+002  2.9738e+002 61208 72008,72060,72034
 2.3000e+000 72138 -5.0251e+002 -1.2325e+002  2.6088e+002 61208 71956,72112,71982
 2.3000e+000 72279 -7.0766e+002 -3.9209e+002  5.1325e+001 61208 72086,72060,72253
 2.3000e+000 72302 -7.2578e+002 -2.7809e+002  3.3602e+001 61208 72086,72253,71982
 2.3000e+000 72761 -4.4848e+002 -2.7581e+002  1.2210e+002 60804 72487,72617,72513
 2.3000e+000 72738 -5.0408e+002 -4.2146e+002  1.4343e+002 60804 72487,72643,72617
 2.3000e+000 72715 -1.7207e+002 -5.5581e+002  2.1203e+002 60804 72565,72617,72591
 2.3000e+000 72692 -4.5400e+002 -3.5715e+002  2.3206e+002 60804 72513,72617,72565
 2.3000e+000 72669 -3.9943e+002 -3.0188e+002  1.4402e+002 60804 72513,72565,72539
 2.3000e+000 72911 -6.6497e+001  6.6497e+001  7.8061e+002 60556 72784,72836,72810
 2.3000e+000 72888  6.6198e+002  3.5748e+002  4.8305e+002 60556 72784,72862,72836
 2.3000e+000 73468 -3.3069e+002 -2.8453e+002  1.8534e+002 60244 73491,73226,73200
 2.3000e+000 73445 -3.3707e+002 -2.1710e+002  2.1972e+002 60244 73563,73491,73200
 2.3000e+000 73422 -5.2099e+002 -1.1993e+002  2.2175e+002 60244 73563,73200,73174
 2.3000e+000 73399 -2.6956e+002 -3.7055e+002  1.6296e+002 60244 73226,73278,73252
 2.3000e+000 73376 -3.8040e+002 -2.8801e+002  1.6176e+002 60244 73122,73304,73278
 2.3000e+000 73353 -4.0227e+002 -4.6663e+002  1.8819e+002 60244 73096,73304,73122
 2.3000e+000 73330 -6.5919e+002 -3.0448e+002 -9.9841e+001 60244 73122,73174,73148
 2.3000e+000 73517 -4.0631e+002 -3.1658e+002  1.8591e+002 60244 73278,73226,73491
 2.3000e+000 73540 -4.0197e+002 -2.8929e+002  1.6259e+002 60244 73278,73491,73122
 2.3000e+000 73589 -5.8341e+002 -3.4924e+002  1.5914e+002 60244 73122,73491,73563
 2.3000e+000 73612 -7.5291e+002 -2.3479e+002  1.7176e+002 60244 73122,73563,73174
 2.3000e+000 73762 -2.7264e+002 -6.3181e+002  4.9021e+002 59875 73661,73713,73687
 2.3000e+000 73739 -5.9090e+002 -3.0355e+002  3.3798e+002 59875 73635,73713,73661
 2.3000e+000 74191 -2.9381e+002 -6.4457e+002  5.3007e+002 59478 74214,73894,73868
 2.3000e+000 74168 -5.7893e+002 -5.9977e+002  5.4862e+002 59478 74214,73868,74050
 2.3000e+000 74145 -5.9238e+002 -7.3259e+002  2.7647e+002 59478 73894,73946,73920
 2.3000e+000 74122 -4.8324e+002 -6.8815e+002  2.4744e+002 59478 73894,73998,73946
 2.3000e+000 74099 -1.2431e+003 -6.3889e+002  7.2301e+002 59478 73998,74050,74024
 2.3000e+000 74076 -6.0505e+002 -8.5898e+002  1.8583e+002 59478 73946,73998,73972
 2.3000e+000 74240 -5.4801e+002 -5.8272e+002  3.9687e+002 59478 73998,73894,74214
 2.3000e+000 74263 -8.3553e+002 -5.7003e+002  3.6930e+002 59478 73998,74214,74050
 2.3000e+000 74720 -5.1693e+002 -2.9338e+002  1.9020e+002 58774 74472,74602,74498
 2.3000e+000 74697 -4.7903e+002 -3.4120e+002  1.6181e+002 58774 74446,74602,74472
 2.3000e+000 74674 -6.0968e+002 -2.7193e+002  2.7161e+002 58774 74498,74576,74524
 2.3000e+000 74651 -4.9220e+002 -3.2186e+002  2.1546e+002 58774 74498,74602,74576
 2.3000e+000 74628 -6.3518e+002 -2.2817e+002  2.0433e+002 58774 74524,74576,74550
 2.3000e+000 75226 -4.2549e+002 -3.4005e+002  2.1597e+002 58270 74955,75085,75033
 2.3000e+000 75203 -2.7319e+002 -4.4513e+002  3.0147e+002 58270 74929,75085,74955
 2.3000e+000 75180 -3.5879e+002 -2.0077e+002  1.9354e+002 58270 75033,75085,75059
 2.3000e+000 75157 -3.7445e+002 -3.7454e+002  1.2657e+002 58270 74955,75007,74981
 2.3000e+000 75134 -2.2350e+002 -2.5944e+002  7.6468e+001 58270 74955,75033,75007
 2.3000e+000 75111 -7.1368e+001 -5.0672e+002  1.9075e+002 58270 74903,75085,74929
 2.3000e+000 75425 -4.9804e+002 -2.9763e+002  2.3282e+002 57830 75448,75301,75249
 2.3000e+000 75402 -3.6672e+002 -9.3414e+001  1.3915e+002 57830 75448,75249,75353
 2.3000e+000 75379 -5.3547e+002 -6.8678e+002  1.5514e+002 57830 75520,75301,75275
 2.3000e+000 75474 -4.7825e+002 -4.2657e+002  3.6418e+002 57830 75327,75301,75448
 2.3000e+000 75497 -4.0498e+002 -3.2911e+002  2.7397e+002 57830 75327,75448,75353
 2.3000e+000 75546 -3.2747e+002 -4.3591e+002  6.3907e+001 57830 75249,75301,75520
 2.3000e+000 76261 -2.3952e+002 -3.7928e+002  2.3378e+002 57426 76284,76097,76071
 2.3000e+000 76238 -2.2108e+002 -2.6185e+002  2.4062e+002 57426 75889,76097,75915
 2.3000e+000 76215 -3.4318e+002 -4.2381e+002  2.2444e+002 57426 76428,76284,76071
 2.3000e+000 76192 -2.6036e+002 -3.9845e+002  1.4909e+002 57426 76356,75941,75915
 2.3000e+000 76169 -3.4661e+002 -3.7347e+002  2.1495e+002 57426 76428,76071,76019
 2.3000e+000 76146 -3.7710e+002 -4.7211e+002  2.0531e+002 57426 76019,76071,76045
 2.3000e+000 76123 -3.6502e+002 -3.7147e+002  2.9637e+002 57426 75967,76019,75993
 2.3000e+000 76310 -2.6307e+002 -4.3945e+002  1.8810e+002 57426 75915,76097,76284
 2.3000e+000 76333 -2.8640e+002 -4.0743e+002  1.5951e+002 57426 76356,75915,76284
 2.3000e+000 76382 -3.1631e+002 -3.8997e+002  1.5837e+002 57426 75967,75941,76356
 2.3000e+000 76405 -3.2972e+002 -3.8780e+002  1.6731e+002 57426 75967,76356,76284
 2.3000e+000 76454 -3.2064e+002 -3.7812e+002  2.1012e+002 57426 75967,76284,76428
 2.3000e+000 76477 -3.4644e+002 -3.4974e+002  2.0934e+002 57426 75967,76428,76019
 2.3000e+000 76953 -3.3247e+002 -6.0956e+002  3.2406e+002 56908 76976,76711,76685
 2.3000e+000 76930 -3.3213e+002 -6.0876e+002  3.2376e+002 56908 77048,76976,76685
 2.3000e+000 76907 -6.2603e+002 -6.2983e+002  4.6104e+002 56908 77048,76685,76633
 2.3000e+000 76884 -9.1303e+002 -9.2876e+002  5.2746e+002 56908 76711,76789,76763
 2.3000e+000 76861 -5.2405e+002 -3.5798e+002  2.0959e+002 56908 76581,76789,76607
 2.3000e+000 76838 -8.5200e+002 -8.5054e+002  6.1309e+002 56908 76711,76763,76737
 2.3000e+000 76815 -1.4431e+003 -1.1446e+003  8.0953e+002 56908 76633,76685,76659
 2.3000e+000 77002 -3.8943e+002 -6.3517e+002  3.2929e+002 56908 76789,76711,76976
 2.3000e+000 77025 -4.0675e+002 -3.3633e+002  1.9553e+002 56908 76789,76976,76607
 2.3000e+000 77074 -7.9350e+002 -6.0641e+002  3.1369e+002 56908 76607,76976,77048
 2.3000e+000 77097 -9.5171e+002 -5.0337e+002  4.3704e+002 56908 76607,77048,76633
 2.3000e+000 77475 -3.5958e+002 -4.1664e+002  3.3800e+002 56546 77570,77498,77279
 2.3000e+000 77452 -2.6905e+002 -6.0617e+002  4.3852e+002 56546 77498,77227,77357
 2.3000e+000 77429 -4.1296e+002 -4.6792e+002  3.9398e+002 56546 77570,77279,77253
 2.3000e+000 77406 -6.0586e+002 -7.5479e+002  4.7860e+002 56546 77201,77357,77227
 2.3000e+000 77383 -4.5172e+002 -4.5546e+002  1.5941e+002 56546 77279,77331,77305
 2.3000e+000 77524 -3.1563e+002 -1.7380e+002  3.1901e+002 56546 77331,77279,77498
 2.3000e+000 77547 -1.7056e+002 -3.6032e+002  5.2154e+002 56546 77331,77498,77357
 2.3000e+000 77596 -4.0617e+002 -4.3236e+002  4.4170e+002 56546 77227,77498,77570
 2.3000e+000 77619 -4.8251e+002 -5.9110e+002  5.0014e+002 56546 77227,77570,77253
 2.3000e+000 77818 -4.2374e+002 -4.1133e+002  3.7634e+002 56042 77841,77694,77668
 2.3000e+000 77795 -3.8660e+002 -3.7882e+002  2.9302e+002 56042 77841,77668,77746
 2.3000e+000 77772 -4.9518e+002 -4.2775e+002  2.4384e+002 56042 77642,77746,77668
 2.3000e+000 77867 -4.6705e+002 -4.7615e+002  4.0717e+002 56042 77720,77694,77841
 2.3000e+000 77890 -4.2097e+002 -4.3268e+002  3.2219e+002 56042 77720,77841,77746
 2.3000e+000 78349 -5.8994e+002 -1.4033e+002  2.2667e+002 55538 78075,78127,78101
 2.3000e+000 78326 -7.3919e+002 -3.8085e+002  1.3116e+002 55538 78075,78205,78127
 2.3000e+000 78303 -5.8351e+002 -7.0943e+001  5.9316e+001 55538 78075,78231,78205
 2.3000e+000 78280 -6.4829e+002 -6.5229e+002  3.8209e+002 55538 78127,78179,78153
 2.3000e+000 78257 -5.4858e+002 -3.8689e+002  1.1827e+002 55538 78127,78205,78179
 2.3000e+000 78806 -3.2226e+002 -3.4832e+002  1.2147e+002 55034 78829,78636,78610
 2.3000e+000 78783 -3.6699e+002 -3.6666e+002  1.3874e+002 55034 78901,78829,78610
 2.3000e+000 78760 -3.3573e+002 -3.9412e+002  1.6489e+002 55034 78901,78610,78584
 2.3000e+000 78737 -4.1698e+002 -2.9162e+002  1.6098e+002 55034 78558,78688,78662
 2.3000e+000 78714 -4.7811e+002 -3.2587e+002  3.4528e+002 55034 78532,78688,78558
 2.3000e+000 78855 -3.6829e+002 -3.3974e+002  1.1845e+002 55034 78662,78636,78829
 2.3000e+000 78878 -3.9852e+002 -3.3801e+002  1.6241e+002 55034 78662,78829,78558
 2.3000e+000 78927 -3.3326e+002 -3.1299e+002  1.5754e+002 55034 78558,78829,78901
 2.3000e+000 78950 -3.1484e+002 -3.3818e+002  1.8164e+002 55034 78558,78901,78584
 2.3000e+000 79407 -2.0366e+002 -2.2816e+002  2.3793e+002 54430 79430,79237,79159
 2.3000e+000 79384 -1.8669e+002 -3.8834e+002  8.4038e+001 54430 79430,79159,79133
 2.3000e+000 79361 -2.4709e+002 -3.4782e+002  1.3281e+002 54430 79237,79289,79263
 2.3000e+000 79338 -2.6330e+002 -2.6548e+002  1.8006e+002 54430 79185,79237,79211
 2.3000e+000 79315 -4.5889e+002 -2.8532e+002  2.7623e+002 54430 79159,79237,79185
 2.3000e+000 79456 -2.2076e+002 -4.0784e+002  1.7457e+002 54430 79289,79237,79430
 2.3000e+000 79479 -2.0881e+002 -6.4493e+002  5.6519e+001 54430 79289,79430,79133
 2.3000e+000 79936 -2.1620e+002 -2.3637e+002  2.3963e+002 53919 79662,79766,79688
 2.3000e+000 79913 -7.5351e+002 -3.8416e+002  4.2126e+002 53919 79662,79818,79766
 2.3000e+000 79890 -9.9940e+002 -4.4132e+002  4.7090e+001 53919 79766,79818,79792
 2.3000e+000 79867 -5.0816e+002 -4.2244e+002  2.5127e+002 53919 79714,79766,79740
 2.3000e+000 79844 -5.3882e+002 -3.8852e+002  2.8148e+002 53919 79688,79766,79714
 2.3000e+000 80037 -2.3177e+002 -5.6972e+002  4.4576e+002 53671 79959,80011,79985
 2.3000e+000 80405 -1.3583e+002 -3.8785e+002  1.2437e+002 53267 80108,80264,80238
 2.3000e+000 80382 -1.8998e+002 -2.5857e+002  1.5988e+002 53267 80082,80264,80108
 2.3000e+000 80359 -1.4494e+002 -5.2650e+002  2.7189e+002 53267 80108,80238,80134
 2.3000e+000 80336 -7.4426e+001 -2.9144e+002  2.0620e+002 53267 80134,80212,80186
 2.3000e+000 80313 -3.5420e+002 -5.0027e+002  3.4188e+002 53267 80134,80238,80212
 2.3000e+000 80290 -1.7063e+001 -3.5667e+002  1.4096e+002 53267 80134,80186,80160
 2.3000e+000 80915 -5.3572e+002 -7.6993e+002  5.7279e+001 52969 80644,80774,80748
 2.3000e+000 80892 -4.4399e+002 -3.4851e+002 -1.1471e+001 52969 80618,80774,80644
 2.3000e+000 80869 -6.3752e+002 -9.3185e+002 -2.1282e+001 52969 80644,80748,80670
 2.3000e+000 80846 -6.8368e+002 -3.7681e+002  1.6278e+001 52969 80592,80774,80618
 2.3000e+000 80823 -1.3698e+003 -1.1060e+003  1.7440e+002 52969 80670,80722,80696
 2.3000e+000 80800 -6.3226e+002 -8.5161e+002 -4.5025e+001 52969 80670,80748,80722
 2.3000e+000 81266  1.1190e+002 -7.7876e+001  4.9792e+001 52565 81041,81145,81067
 2.3000e+000 81243  7.9499e+001 -2.0307e+002  6.9089e+001 52565 81041,81171,81145
 2.3000e+000 81220 -2.8116e+002 -8.9615e+002  2.2727e+002 52565 81067,81119,81093
 2.3000e+000 81197  1.6944e+002  2.5694e+001  7.5049e+001 52565 81067,81145,81119
 2.3000e+000 81723 -1.0817e+002 -1.1263e+001  4.8017e+001 51904 81449,81527,81475
 2.3000e+000 81700 -1.1753e+002 -8.0414e+000  5.9686e+001 51904 81449,81579,81527
 2.3000e+000 81677 -4.1271e+002 -9.2174e+001  8.1045e+001 51904 81449,81605,81579
 2.3000e+000 81654 -2.5625e+002  1.3488e+001  4.1456e+001 51904 81527,81579,81553
 2.3000e+000 81631 -1.0462e+002  1.4220e+000  3.5006e+001 51904 81475,81527,81501
 2.3000e+000 82327 -5.0070e+002 -4.6904e+002  3.3247e+002 51321 82422,82350,82036
 2.3000e+000 82304 -5.4162e+002 -3.4533e+002  3.5592e+002 51321 82494,82350,81958
 2.3000e+000 82281 -5.1045e+002 -4.8868e+002  3.2258e+002 51321 82422,82036,82010
 2.3000e+000 82258 -5.6445e+002 -3.5080e+002  3.4384e+002 51321 82494,81958,81932
 2.3000e+000 82235 -5.4111e+002 -2.7320e+002  1.6844e+002 51321 82062,82114,82088
 2.3000e+000 82212 -1.2576e+003 -7.9575e+002  5.1563e+002 51321 81932,82140,82114
 2.3000e+000 82189 -5.4352e+002 -1.5657e+002  2.9847e+002 51321 81958,82010,81984
 2.3000e+000 82166 -1.7019e+002 -4.1385e+002  1.3009e+002 51321 81906,82140,81932
 2.3000e+000 82376 -5.1526e+002 -5.6105e+002  3.2665e+002 51321 82062,82036,82350
 2.3000e+000 82399 -5.2495e+002 -4.3002e+002  3.0520e+002 51321 82062,82350,82114
 2.3000e+000 82448 -4.9237e+002 -4.4979e+002  3.5460e+002 51321 81958,82350,82422
 2.3000e+000 82471 -5.0011e+002 -4.6779e+002  3.4509e+002 51321 81958,82422,82010
 2.3000e+000 82520 -5.5424e+002 -3.6307e+002  3.4217e+002 51321 82114,82350,82494
 2.3000e+000 82543 -5.5840e+002 -3.6345e+002  3.3139e+002 51321 82114,82494,81932
 2.3000e+000 83019 -5.4507e+002 -1.2939e+003 -8.7939e+000 50817 82673,82751,82699
 2.3000e+000 82996 -4.1838e+002 -8.0533e+002  1.4908e+002 50817 83042,82673,82855
 2.3000e+000 82973 -5.0505e+002 -6.0494e+002  1.0941e+002 50817 83042,82855,82803
 2.3000e+000 82950 -8.0235e+002 -5.6956e+002  1.7028e+002 50817 82751,82803,82777
 2.3000e+000 82927 -4.0893e+002 -6.9130e+002  2.5322e+002 50817 82647,82855,82673
 2.3000e+000 82904 -7.4770e+002 -6.6626e+002  3.2025e+002 50817 82803,82855,82829
 2.3000e+000 82881 -4.1461e+002 -1.0802e+003 -7.7789e+001 50817 82699,82751,82725
 2.3000e+000 83068 -3.0310e+002 -6.5110e+002  5.4177e+001 50817 82751,82673,83042
 2.3000e+000 83091 -4.6691e+002 -5.0295e+002  4.2387e+001 50817 82751,83042,82803
 2.3000e+000 83290 -5.3991e+002 -1.9173e+002  2.8395e+002 50356 83313,83166,83140
 2.3000e+000 83267 -5.6244e+002 -3.7266e+002  2.3912e+002 50356 83515,83313,83140
 2.3000e+000 83244 -6.5280e+002 -3.7161e+002  9.1163e+001 50356 83515,83140,83385
 2.3000e+000 83339 -6.9781e+002 -3.0136e+002  3.6936e+002 50356 83192,83166,83313
 2.3000e+000 83362 -4.1204e+002 -2.4444e+002  3.4843e+002 50356 83192,83313,83218
 2.3000e+000 83411 -2.2979e+002 -1.4760e+002  1.6056e+002 50356 83114,83218,83385
 2.3000e+000 83541 -3.2217e+002 -2.9590e+002  2.3630e+002 50356 83218,83313,83515
 2.3000e+000 83564 -3.4288e+002 -2.4525e+002  1.0827e+002 50356 83218,83515,83385
 2.3000e+000 83893 -5.8370e+002 -5.8209e+002  9.2368e+001 49552 83720,83798,83746
 2.3000e+000 83870 -3.7560e+002 -2.3218e+002  2.2049e+002 49552 83694,83798,83720
 2.3000e+000 83847 -2.5876e+002 -2.8042e+002  2.2307e+002 49552 83668,83798,83694
 2.3000e+000 83824 -1.2719e+003 -4.0081e+002 -1.1107e+002 49552 83746,83798,83772
 2.3000e+000 84141 -6.4977e+002 -4.3814e+002  2.9707e+002 49212 84164,84020,83942
 2.3000e+000 84118 -5.9347e+002 -2.7185e+002  3.5252e+002 49212 84164,83942,83916
 2.3000e+000 84095 -5.2786e+002 -5.4913e+002  2.2795e+002 49212 83942,84020,83968
 2.3000e+000 84072 -4.4037e+002 -4.2537e+001  1.4129e+002 49212 83968,84020,83994
 2.3000e+000 84190 -6.9853e+002 -4.1043e+002  2.0070e+002 49212 84046,84020,84164
 2.3000e+000 84213 -6.4306e+002 -2.9988e+002  2.5867e+002 49212 84046,84164,83916
 2.3000e+000 84800 -1.5245e+002 -2.2287e+002  1.6466e+002 48865 84503,84633,84555
 2.3000e+000 84777 -2.0821e+002 -3.4613e+002  1.3390e+002 48865 84503,84659,84633
 2.3000e+000 84754 -1.8254e+002 -3.2945e+002  1.4131e+002 48865 84555,84633,84581
 2.3000e+000 84731 -1.9444e+002 -8.0205e+002  3.7086e+002 48865 84581,84633,84607
 2.3000e+000 84708 -4.2629e+002 -2.9003e+002  1.2153e+002 48865 84503,84555,84529
 2.3000e+000 84685 -1.7800e+002 -3.0183e+002  1.0620e+002 48865 84477,84659,84503
 2.3000e+000 85355 -3.0427e+002 -3.1869e+002  3.3353e+001 48461 85378,85035,85009
 2.3000e+000 85332 -5.0109e+002 -4.8834e+002  1.1796e+002 48461 85378,85009,85165
 2.3000e+000 85309 -4.6013e+002 -4.8465e+002  1.8726e+002 48461 85450,85061,85035
 2.3000e+000 85286 -5.0009e+002 -4.8030e+002  1.0419e+002 48461 85009,85191,85165
 2.3000e+000 85263 -4.2923e+002 -4.3801e+002  2.9548e+002 48461 85087,85165,85113
 2.3000e+000 85240 -2.3073e+002 -6.1415e+002 -7.7933e+001 48461 84983,85191,85009
 2.3000e+000 85217 -3.7762e+002 -5.7671e+002  1.9767e+002 48461 85113,85165,85139
 2.3000e+000 85404 -4.6677e+002 -3.9354e+002  1.3953e+002 48461 85450,85035,85378
 2.3000e+000 85427 -5.1744e+002 -4.4841e+002  1.4424e+002 48461 85087,85378,85165
 2.3000e+000 85476 -4.8137e+002 -6.1011e+002  2.1377e+002 48461 85087,85061,85450
 2.3000e+000 85499 -5.0443e+002 -5.5732e+002  1.5732e+002 48461 85087,85450,85378
 2.3000e+000 86084 -1.6440e+002 -4.5152e+002  2.1579e+002 48057 86323,86107,85787
 2.3000e+000 86061 -2.4822e+002 -5.2098e+002  2.5483e+002 48057 86107,85761,85943
 2.3000e+000 86038 -3.5550e+002 -3.9357e+002  1.9918e+002 48057 86251,86179,85891
 2.3000e+000 86015 -3.5451e+002 -3.4380e+002  1.3321e+002 48057 86251,85891,85839
 2.3000e+000 85992 -2.9647e+002 -3.2923e+002  2.4968e+002 48057 85891,85943,85917
 2.3000e+000 85969 -4.4382e+002 -2.7395e+002  1.8580e+002 48057 85839,85891,85865
 2.3000e+000 86133 -1.9284e+002 -4.9078e+002  1.7999e+002 48057 85813,85787,86107
 2.3000e+000 86156 -2.7760e+002 -4.7730e+002  1.7134e+002 48057 86179,85813,86107
 2.3000e+000 86205 -2.7737e+002 -3.1964e+002  2.2981e+002 48057 85943,85891,86179
 2.3000e+000 86228 -1.7345e+002 -3.6783e+002  2.2576e+002 48057 85943,86179,86107
 2.3000e+000 86277 -2.3540e+002 -3.3532e+002  1.8115e+002 48057 85813,86179,86251
 2.3000e+000 86300 -2.9774e+002 -3.1629e+002  1.2410e+002 48057 85813,86251,85839
 2.3000e+000 86349 -1.4026e+002 -4.4164e+002  2.1948e+002 48057 85761,86107,86323
 2.3000e+000 86855 -1.8444e+002 -3.1061e+002  1.8096e+002 47545 86878,86584,86558
 2.3000e+000 86832 -2.3510e+002 -3.3506e+002  1.6559e+002 47545 86950,86878,86558
 2.3000e+000 86809 -2.5599e+002 -2.7851e+002  1.8282e+002 47545 86950,86558,86532
 2.3000e+000 86786 -1.5680e+002 -3.5791e+002  2.0753e+002 47545 86584,86662,86610
 2.3000e+000 86763 -3.2783e+002 -8.5438e+001  6.9222e+001 47545 86532,86714,86688
 2.3000e+000 86740 -2.5248e+002 -1.4214e+002  1.9209e+002 47545 86610,86662,86636
 2.3000e+000 86904 -1.9581e+002 -3.8420e+002  1.9589e+002 47545 86662,86584,86878
 2.3000e+000 86927 -1.1954e+002 -3.2786e+002  1.4829e+002 47545 86662,86878,86688
 2.3000e+000 86976 -1.7960e+002 -2.5805e+002  1.3989e+002 47545 86688,86878,86950
 2.3000e+000 86999 -2.3420e+002 -2.5465e+002  1.7069e+002 47545 86688,86950,86532
 2.3000e+000 87328 -6.1721e+002 -2.7409e+002  2.1495e+002 47048 87155,87207,87181
 2.3000e+000 87305 -3.8428e+002 -2.6541e+002  1.9474e+002 47048 87129,87207,87155
 2.3000e+000 87282 -7.1984e+002 -4.2841e+002  2.4605e+002 47048 87103,87207,87129
 2.3000e+000 87259 -1.1074e+003 -1.5801e+003 -1.0083e+002 47048 87103,87233,87207
 2.3000e+000 87576 -2.2565e+002 -5.0061e+002  2.8420e+002 46701 87599,87429,87377
 2.3000e+000 87553 -3.3690e+002 -5.1713e+002  2.7158e+002 46701 87599,87377,87481
 2.3000e+000 87530 -3.2281e+002 -5.0833e+002  2.7703e+002 46701 87351,87481,87377
 2.3000e+000 87507 -3.4402e+002 -4.7943e+002  3.4496e+002 46701 87377,87429,87403
 2.3000e+000 87625 -2.7922e+002 -3.8341e+002  1.6534e+002 46701 87455,87429,87599
 2.3000e+000 87648 -5.6741e+002 -4.9518e+002  1.9479e+002 46701 87455,87599,87481
 2.3000e+000 87798  9.9555e+000 -1.7258e+002  2.4636e+001 46239 87697,87749,87723
 2.3000e+000 87775 -6.0952e+001 -4.9119e+002  1.1791e+002 46239 87671,87749,87697
 2.3000e+000 88308 -7.0402e+002 -7.6062e+002  1.6317e+002 45735 88089,88167,88141
 2.3000e+000 88285 -5.0831e+002 -3.3069e+002  2.1698e+002 45735 88011,88167,88089
 2.3000e+000 88262 -3.0021e+002 -3.0091e+002  1.5707e+002 45735 87985,88167,88011
 2.3000e+000 88239 -4.0874e+002 -1.3726e+003  4.0000e+002 45735 88011,88089,88063
 2.3000e+000 88216 -8.6258e+002 -8.2367e+002  1.7488e+002 45735 88089,88141,88115
 2.3000e+000 88193 -7.8611e+002 -2.0640e+003  8.8575e+001 45735 88011,88063,88037
 2.3000e+000 88686 -5.5295e+002 -2.3557e+002  3.4405e+002 45316 88438,88516,88490
 2.3000e+000 88663 -5.0857e+002  1.5566e+002  4.8186e+002 45316 88438,88542,88516
 2.3000e+000 88640 -2.7638e+002 -5.4346e+002  6.1063e+002 45316 88438,88568,88542
 2.3000e+000 88617 -6.2968e+002 -4.8352e+002  2.8156e+002 45316 88438,88490,88464
 2.3000e+000 88594 -5.5924e+002 -5.8344e+002  6.1749e+002 45316 88412,88568,88438
 2.3000e+000 88934 -1.0309e+003 -9.4022e+002  5.8229e+002 44812 88957,88735,88709
 2.3000e+000 88911 -5.3119e+002 -5.6503e+002  2.1585e+002 44812 88957,88709,88839
 2.3000e+000 88888 -5.2068e+002 -3.3426e+002  9.0247e+001 44812 89029,88787,88761
 2.3000e+000 88865 -4.6741e+002 -3.8041e+002  1.4634e+002 44812 88787,88839,88813
 2.3000e+000 88983 -2.5058e+002 -5.3658e+002  3.5020e+002 44812 88761,88735,88957
 2.3000e+000 89006 -4.3392e+002 -4.3298e+002  6.8008e+001 44812 89029,88761,88957
 2.3000e+000 89055 -4.8467e+002 -4.4826e+002  1.3768e+002 44812 88839,88787,89029
 2.3000e+000 89078 -4.9106e+002 -6.4570e+002  1.4739e+002 44812 88839,89029,88957
 2.3000e+000 89228 -8.4692e+001 -3.4928e+002  3.0380e+002 44408 89127,89179,89153
 2.3000e+000 89205  5.4866e+001  8.0940e+000  1.5845e-001 44408 89101,89179,89127
 2.3000e+000 89787 -5.6150e+002 -3.0899e+002  2.9022e+002 43854 89810,89545,89519
 2.3000e+000 89764 -6.1327e+002 -4.2724e+002  2.5704e+002 43854 89810,89519,89467
 2.3000e+000 89741 -5.7120e+002 -5.8646e+002  2.6142e+002 43854 89954,89882,89597
 2.3000e+000 89718 -5.7543e+002 -6.0475e+002  2.6015e+002 43854 89954,89597,89571
 2.3000e+000 89695 -3.0433e+002 -3.4920e+002  2.3680e+002 43854 89415,89623,89467
 2.3000e+000 89672 -2.0405e+002 -2.5602e+002  1.6534e+002 43854 89467,89519,89493
 2.3000e+000 89649 -1.7657e+002 -2.7554e+002  1.8411e+002 43854 89415,89467,89441
 2.3000e+000 89836 -5.7006e+002 -3.1604e+002  3.1394e+002 43854 89882,89545,89810
 2.3000e+000 89859 -3.3073e+002 -3.7750e+002  2.2006e+002 43854 89623,89810,89467
 2.3000e+000 89908 -5.5940e+002 -6.4841e+002  3.5225e+002 43854 89623,89597,89882
 2.3000e+000 89931 -5.5234e+002 -6.1010e+002  3.2361e+002 43854 89623,89882,89810
 2.3000e+000 89980 -6.0122e+002 -5.4876e+002  3.8945e+002 43854 89545,89882,89954
 2.3000e+000 90003 -6.4859e+002 -6.5863e+002  4.0747e+002 43854 89545,89954,89571
 2.3000e+000 90251 -2.6197e+002 -2.7032e+002  2.2815e+002 43492 90026,90078,90052
 2.3000e+000 90228 -5.2230e+002 -3.0956e+002  1.3774e+002 43492 90274,90026,90156
 2.3000e+000 90205 -4.9103e+002 -3.9225e+002  1.3936e+002 43492 90346,90274,90156
 2.3000e+000 90182 -5.2338e+002 -5.6374e+002  4.6321e+002 43492 90346,90156,90130
 2.3000e+000 90300 -3.1340e+002 -4.1608e+002  2.2165e+002 43492 90078,90026,90274
 2.3000e+000 90323 -5.9197e+002 -5.0004e+002  2.1874e+002 43492 90078,90274,90104
 2.3000e+000 90372 -8.7817e+002 -6.3522e+002  3.4468e+002 43492 90104,90274,90346
 2.3000e+000 90395 -9.3849e+002 -8.6804e+002  6.8068e+002 43492 90104,90346,90130
 2.3000e+000 90594 -1.1868e+002 -5.4548e+002  1.9420e+002 43052 90418,90496,90444
 2.3000e+000 90571 -5.2311e+002 -8.3765e+002  3.2169e+002 43052 90418,90522,90496
 2.3000e+000 90548 -3.2022e+002 -4.3305e+002  2.0853e+002 43052 90444,90496,90470
 2.3000e+000 91074 -3.8468e+002 -5.9599e+002  1.9574e+002 42434 91241,90884,90858
 2.3000e+000 91051 -6.1765e+002 -6.6829e+002 -5.6142e+001 42434 90702,90910,90884
 2.3000e+000 91028 -3.4566e+002 -5.4640e+002  2.1379e+002 42434 91097,90754,90702
 2.3000e+000 91005 -3.8978e+002 -4.8864e+002  1.9038e+002 42434 91241,90858,91097
 2.3000e+000 90982 -2.3107e+002 -4.2612e+002  1.2703e+002 42434 91169,90806,90780
 2.3000e+000 90959 -1.4001e+002 -3.9819e+002  7.3455e+001 42434 90806,90858,90832
 2.3000e+000 90936 -2.8600e+002 -5.0086e+002  2.3600e+002 42434 90702,90754,90728
 2.3000e+000 91123 -3.8447e+002 -5.5801e+002  1.8723e+002 42434 90780,90754,91097
 2.3000e+000 91146 -3.7965e+002 -4.9802e+002  2.0530e+002 42434 91169,90780,91097
 2.3000e+000 91195 -1.7077e+002 -4.1518e+002  5.3341e+001 42434 90858,90806,91169
 2.3000e+000 91218 -2.4660e+002 -3.6845e+002  1.0695e+002 42434 90858,91169,91097
 2.3000e+000 91267 -3.5169e+002 -7.1578e+002  1.5481e+002 42434 90702,90884,91241
 2.3000e+000 91290 -3.6961e+002 -6.2336e+002  1.4917e+002 42434 90702,91241,91097
 2.3000e+000 91698 -1.3659e+002 -4.6477e+002  1.9825e+002 41773 91473,91577,91499
 2.3000e+000 91675 -2.5070e+002 -5.4906e+002  2.5903e+002 41773 91473,91603,91577
 2.3000e+000 91652 -2.5054e+002 -3.5688e+002  7.4448e+001 41773 91499,91551,91525
 2.3000e+000 91629 -3.4753e+002 -3.9852e+002  1.8712e+002 41773 91499,91577,91551
 2.3000e+000 92044 -4.1435e+002 -4.7922e+002  3.3312e+002 41383 91773,91877,91851
 2.3000e+000 92021 -2.6591e+002 -6.1184e+002  1.9691e+002 41383 91747,91877,91773
 2.3000e+000 91998 -2.8377e+002 -3.2610e+002  2.4934e+002 41383 91773,91851,91799
 2.3000e+000 91975 -1.7243e+002 -4.0270e+002  1.0675e+001 41383 91747,91903,91877
 2.3000e+000 91952 -1.7595e+002 -2.8887e+002  1.2234e+002 41383 91721,91903,91747
 2.3000e+000 91929 -1.3015e+002 -3.8357e+002  1.8116e+002 41383 91799,91851,91825
 2.3000e+000 92601 -4.9459e+002 -4.3244e+002  1.4504e+002 40979 92229,92411,92307
 2.3000e+000 92578 -6.1881e+002 -4.3910e+002  1.2530e+002 40979 92229,92437,92411
 2.3000e+000 92555 -4.4854e+002 -3.2489e+002  1.3258e+002 40979 92229,92307,92281
 2.3000e+000 92532 -3.9695e+002 -4.2524e+002  2.3251e+002 40979 92333,92411,92385
 2.3000e+000 92509 -4.0442e+002 -3.6925e+002  1.7317e+002 40979 92307,92411,92333
 2.3000e+000 92486 -4.7372e+002 -3.6285e+002  1.1633e+002 40979 92229,92281,92255
 2.3000e+000 92463 -6.7726e+001 -4.1284e+002  1.7421e+002 40979 92333,92385,92359
 2.3000e+000 93235 -5.5669e+002 -3.1549e+002  4.2017e+002 40525 92941,92993,92967
 2.3000e+000 93212 -8.0871e+002 -1.8195e+002  8.0541e+001 40525 93258,92941,92889
 2.3000e+000 93189 -6.2460e+002 -9.4277e+001  4.6907e+001 40525 93258,92889,93071
 2.3000e+000 93166 -6.9540e+002 -2.5178e+002  6.1870e+001 40525 92889,92941,92915
 2.3000e+000 93143 -7.1701e+002 -7.7982e+001  3.2496e+001 40525 92863,93071,92889
 2.3000e+000 93120 -5.8538e+002 -3.0844e+002  1.9075e+002 40525 92993,93071,93019
 2.3000e+000 93097 -6.0546e+002 -2.1351e+002  1.5188e+002 40525 93019,93071,93045
 2.3000e+000 93284 -9.0871e+002 -3.0056e+002  2.9244e+002 40525 92993,92941,93258
 2.3000e+000 93307 -5.5381e+002 -1.1309e+002  2.2351e+002 40525 92993,93258,93071
 2.3000e+000 93636 -6.5343e+002 -4.8880e+002  5.4016e+002 40235 93437,93541,93515
 2.3000e+000 93613 -5.9706e+002 -6.6486e+002  5.0587e+002 40235 93411,93541,93437
 2.3000e+000 93590 -9.9446e+001 -6.2612e+002  1.7943e+002 40235 93463,93515,93489
 2.3000e+000 93567 -2.7109e+002 -4.3256e+002  8.8650e+001 40235 93437,93515,93463
 2.3000e+000 94014 -7.1369e+002 -6.4168e+002  3.1867e+002 39873 93766,93870,93792
 2.3000e+000 93991 -5.9460e+002 -7.4326e+002  2.3810e+002 39873 93766,93896,93870
 2.3000e+000 93968 -6.5995e+002 -5.0003e+002  3.3740e+002 39873 93792,93870,93844
 2.3000e+000 93945 -4.8906e+002 -3.9097e+002  2.6024e+002 39873 93792,93844,93818
 2.3000e+000 93922 -4.4904e+002 -6.9147e+002  4.6660e+002 39873 93740,93896,93766
 2.3000e+000 94164 -5.5506e+001 -4.3381e+002  1.5599e+002 39461 94037,94089,94063
 2.3000e+000 94141 -1.4067e+002 -7.0045e+002  2.7018e+002 39461 94037,94115,94089
 2.3000e+000 94363 -3.4105e+002 -2.3628e+002  2.0345e+002 39057 94386,94239,94213
 2.3000e+000 94340 -2.6548e+002 -1.8066e+002  1.7334e+002 39057 94386,94213,94187
 2.3000e+000 94317 -3.9513e+002 -3.0262e+002  1.9307e+002 39057 94187,94291,94265
 2.3000e+000 94412 -1.7181e+002 -1.9389e+002  1.6725e+002 39057 94458,94386,94265
 2.3000e+000 94435 -2.8740e+002 -2.4343e+002  1.6457e+002 39057 94265,94386,94187
 2.3000e+000 94484 -3.2379e+002 -3.0094e+002  2.2920e+002 39057 94239,94386,94458
 2.3000e+000 94896 -6.5693e+002 -4.7086e+002  2.9919e+002 38396 94919,94775,94723
 2.3000e+000 94873 -7.4673e+002 -3.7082e+002  3.0068e+002 38396 94919,94723,94697
 2.3000e+000 94850 -5.3321e+002 -4.4289e+002  2.2745e+002 38396 94723,94775,94749
 2.3000e+000 94827 -3.3743e+002 -1.8775e+002  2.1094e+002 38396 94671,94801,94697
 2.3000e+000 94945 -6.4521e+002 -4.0474e+002  2.6050e+002 38396 94801,94775,94919
 2.3000e+000 94968 -6.9369e+002 -2.7993e+002  2.4446e+002 38396 94801,94919,94697
 2.3000e+000 95265 -6.7207e+002 -6.5749e+002  3.3172e+002 37835 95017,95069,95043
 2.3000e+000 95242 -6.7949e+002 -5.5046e+002  3.3048e+002 37835 95288,95069,95017
 2.3000e+000 95219 -7.4040e+002 -6.1156e+002  4.4067e+002 37835 95288,95017,94991
 2.3000e+000 95196 -7.8990e+002 -6.4149e+002  3.8624e+002 37835 94991,95147,95121
 2.3000e+000 95173 -4.8227e+002 -3.2643e+002  2.8125e+002 37835 95069,95121,95095
 2.3000e+000 95314 -6.6745e+002 -4.0028e+002  2.5282e+002 37835 95121,95069,95288
 2.3000e+000 95337 -7.2222e+002 -4.9296e+002  3.5672e+002 37835 95121,95288,94991
 2.3000e+000 95558  1.4632e+002  5.1981e+001  1.4830e+002 37423 95408,95460,95434
 2.3000e+000 95535 -1.6056e+002 -7.1881e+002  3.8104e+002 37423 95382,95460,95408
 2.3000e+000 95512 -3.6743e+002 -8.8769e+002  4.5535e+002 37423 95382,95486,95460
 2.3000e+000 95891 -5.0519e+001 -4.1024e+002  1.6542e+002 37225 95666,95718,95692
 2.3000e+000 95868 -3.0575e+002 -5.0786e+002  2.4123e+002 37225 95666,95796,95718
 2.3000e+000 95845 -2.8009e+002 -4.2569e+002  7.9310e+001 37225 95718,95770,95744
 2.3000e+000 95822 -1.6190e+002 -3.6459e+002  1.0165e+002 37225 95718,95796,95770
 2.3000e+000 95992 -1.8059e+001 -3.1981e+002  1.7575e+002 36735 95914,95966,95940
 2.3000e+000 96142 -7.6779e+002 -2.9892e+002  3.7611e+002 36331 96297,96067,96041
 2.3000e+000 96119 -5.9436e+002 -3.0291e+002  3.6568e+002 36331 96165,96041,96015
 2.3000e+000 96191 -7.2090e+002 -2.9476e+002  3.4847e+002 36331 96297,96041,96165
 2.3000e+000 96323 -8.6421e+002 -3.2749e+002  4.7071e+002 36331 96093,96067,96297
 2.3000e+000 96346 -7.2853e+002 -2.8441e+002  4.4834e+002 36331 96093,96297,96165
 2.3000e+000 96714 -4.2204e+002 -6.5937e+002  4.4145e+002 36041 96737,96495,96443
 2.3000e+000 96691 -5.9759e+002 -4.7285e+002  4.3526e+002 36041 96737,96443,96417
 2.3000e+000 96668 -1.7165e+002 -7.4115e+002  6.2009e+001 36041 96443,96495,96469
 2.3000e+000 96645 -1.3955e+002 -1.7723e+002  2.3352e+002 36041 96391,96521,96417
 2.3000e+000 96622  1.1690e+001 -2.2481e+002  1.9604e+002 36041 96391,96547,96521
 2.3000e+000 96599 -7.8948e+001 -2.4868e+002  1.8196e+002 36041 96391,96573,96547
 2.3000e+000 96763 -1.7928e+002 -5.0664e+002  3.7628e+002 36041 96521,96495,96737
 2.3000e+000 96786 -5.0624e+002 -4.3054e+002  4.0921e+002 36041 96521,96737,96417
 2.3000e+000 96936 -3.8826e+002 -2.3409e+002  2.3558e+002 35637 97031,96959,96835
 2.3000e+000 96913 -5.2756e+002 -2.6576e+002  2.7536e+002 35637 97163,96959,96809
 2.3000e+000 96985 -5.3293e+002 -1.8966e+002  2.7455e+002 35637 96861,96835,96959
 2.3000e+000 97008 -7.0429e+002 -3.4473e+002  4.5554e+002 35637 96861,96959,96887
 2.3000e+000 97057 -4.2616e+002 -1.6469e+002  1.5980e+002 35637 96809,96959,97031
 2.3000e+000 97189 -4.4612e+002 -2.2552e+002  2.9937e+002 35637 96887,96959,97163
 2.3000e+000 97597 -3.3714e+002 -3.9263e+002  3.4726e+002 35190 97450,97502,97476
 2.3000e+000 97574 -3.6098e+002 -4.6895e+002  4.2000e+002 35190 97372,97502,97450
 2.3000e+000 97551 -3.7780e+002 -5.7072e+002  4.0164e+002 35190 97372,97450,97398
 2.3000e+000 97528 -2.8679e+002 -5.1598e+002  3.6178e+002 35190 97398,97450,97424
 2.3000e+000 98054 -4.5863e+002 -5.5927e+002  4.1445e+002 34636 97806,97936,97858
 2.3000e+000 98031 -7.1107e+002 -3.7654e+002  3.5116e+002 34636 97780,97936,97806
 2.3000e+000 98008 -6.0422e+002 -5.2951e+002  2.0012e+002 34636 97806,97858,97832
 2.3000e+000 97985 -4.8741e+002 -5.5119e+002  4.1782e+002 34636 97884,97936,97910
 2.3000e+000 97962 -2.9282e+002 -3.7537e+002  3.1637e+002 34636 97858,97936,97884
 2.3000e+000 98530 -5.3740e+002 -8.8914e+001  1.0727e+002 34068 98697,98184,98366
 2.3000e+000 98507 -4.1206e+001 -1.1339e+002  7.4003e+001 34068 98158,98366,98184
 2.3000e+000 98484 -6.9490e+002 -5.7252e+002  2.6082e+002 34068 98553,98262,98236
 2.3000e+000 98461 -1.1661e+003 -7.6403e+002  1.9867e+002 34068 98553,98236,98210
 2.3000e+000 98438 -6.5427e+002 -3.5361e+002  2.1006e+002 34068 98841,98625,98366
 2.3000e+000 98415 -7.0911e+002 -9.3880e+002  4.5415e+002 34068 98769,98288,98262
 2.3000e+000 98392 -8.3588e+002 -2.2172e+002  1.7244e+002 34068 98841,98366,98340
 2.3000e+000 98579 -8.0161e+002 -7.2782e+002  3.1545e+002 34068 98769,98262,98553
 2.3000e+000 98602 -6.7299e+002 -4.3185e+002  2.2201e+002 34068 98625,98314,98553
 2.3000e+000 98651 -6.0974e+002 -3.6119e+002  1.5372e+002 34068 98697,98366,98625
 2.3000e+000 98674 -7.2663e+002 -5.9263e+002  1.9357e+002 34068 98210,98625,98553
 2.3000e+000 98723 -6.6268e+002 -4.1639e+002  1.7348e+002 34068 98210,98184,98697
 2.3000e+000 98746 -6.2750e+002 -4.6222e+002  2.3756e+002 34068 98210,98697,98625
 2.3000e+000 98795 -4.4887e+002 -7.2560e+002  3.1083e+002 34068 98314,98288,98769
 2.3000e+000 98818 -5.9241e+002 -5.8767e+002  1.8222e+002 34068 98314,98769,98553
 2.3000e+000 98867 -8.2411e+002 -4.9923e+002  1.4384e+002 34068 98314,98625,98841
 2.3000e+000 98890 -1.0073e+003 -3.5286e+002  1.1236e+002 34068 98314,98841,98340
 2.3000e+000 99268 -8.6244e+002 -7.4191e+002  5.3994e+002 33450 99291,99098,99072
 2.3000e+000 99245 -9.3222e+002 -5.8056e+002  2.6963e+002 33450 99291,99072,99020
 2.3000e+000 99222 -1.3533e+003 -6.9438e+002  4.1332e+002 33450 99020,99072,99046
 2.3000e+000 99199 -7.4038e+002 -5.2608e+002  2.6814e+002 33450 99020,99150,99124
 2.3000e+000 99176 -7.5366e+002 -5.5021e+002  7.7851e+001 33450 98994,99150,99020
 2.3000e+000 99317 -4.5530e+002 -5.6656e+002  5.2079e+002 33450 99124,99098,99291
 2.3000e+000 99340 -8.0012e+002 -5.3711e+002  2.7792e+002 33450 99124,99291,99020
 2.3000e+000 99865 -4.6390e+002 -4.5078e+002  2.6710e+002 32944 100176,99960,99888
 2.3000e+000 99842 -5.1889e+002 -4.5082e+002  2.7124e+002 32944 100104,99888,99522
 2.3000e+000 99819 -4.8598e+002 -4.3089e+002  3.6352e+002 32944 100248,99960,99626
 2.3000e+000 99796 -4.3100e+002 -5.0611e+002  1.5163e+002 32944 100032,99652,99626
 2.3000e+000 99773 -4.1353e+002 -5.2039e+002  1.7988e+002 32944 100104,99522,99496
 2.3000e+000 99750 -3.3493e+002 -2.6812e+002  4.8698e+001 32944 99574,99626,99600
 2.3000e+000 99727 -4.3005e+002 -3.8822e+002  3.8735e+002 32944 100248,99626,99574
 2.3000e+000 99704 -2.3912e+002 -4.6748e+002  2.6180e+002 32944 99444,99496,99470
 2.3000e+000 99914 -4.5847e+002 -4.0877e+002  1.7776e+002 32944 100176,99888,100032
 2.3000e+000 99937 -5.4269e+002 -3.4720e+002  2.9092e+002 32944 99678,99888,99444
 2.3000e+000 99986 -5.0389e+002 -3.7613e+002  2.5684e+002 32944 99522,99888,99960
 2.3000e+000 100009 -5.4773e+002 -3.1568e+002  2.9896e+002 32944 99522,99960,99548
 2.3000e+000 100058 -5.3173e+002 -4.8742e+002  1.5707e+002 32944 99678,99652,100032
 2.3000e+000 100081 -5.7330e+002 -4.6371e+002  1.5981e+002 32944 99678,100032,99888
 2.3000e+000 100130 -3.3567e+002 -3.7190e+002  2.9166e+002 32944 99444,99888,100104
 2.3000e+000 100153 -2.6294e+002 -4.5725e+002  2.0800e+002 32944 99444,100104,99496
 2.3000e+000 100202 -5.1792e+002 -5.8735e+002  2.6852e+002 32944 99626,99960,100176
 2.3000e+000 100225 -5.3646e+002 -5.8700e+002  1.8913e+002 32944 99626,100176,100032
 2.3000e+000 100274 -5.8145e+002 -3.9120e+002  3.0801e+002 32944 99548,99960,100248
 2.3000e+000 100297 -5.3191e+002 -3.5594e+002  3.2994e+002 32944 99548,100248,99574
 2.3000e+000 100754 -1.8635e+002 -2.1040e+002  1.0781e+002 32369 100777,100584,100506
 2.3000e+000 100731 -2.0332e+002 -3.1590e+002  2.2256e+002 32369 100777,100506,100636
 2.3000e+000 100708 -3.1645e+002 -3.2557e+002  2.2692e+002 32369 100480,100636,100506
 2.3000e+000 100685 -5.0292e+002 -2.4369e+002  2.8337e+000 32369 100532,100584,100558
 2.3000e+000 100662 -2.3229e+002 -2.4359e+002  1.4020e+002 32369 100506,100584,100532
 2.3000e+000 100803 -2.1666e+002 -4.0319e+001  8.1472e+001 32369 100610,100584,100777
 2.3000e+000 100826 -2.1515e+002 -1.5330e+002  1.7963e+002 32369 100610,100777,100636
 2.3000e+000 101025 -4.5693e+002 -3.4551e+002  3.3755e+002 31857 100875,100927,100901
 2.3000e+000 101002 -8.6012e+002 -2.0449e+002  3.2355e+002 31857 100875,100953,100927
 2.3000e+000 100979 -9.3807e+002 -3.6439e+002  2.7164e+002 31857 100849,100953,100875
 2.3000e+000 101533 -4.3016e+002 -5.2958e+002  4.1356e+002 31253 101556,101314,101236
 2.3000e+000 101510 -5.9663e+002 -5.2502e+002  3.7105e+002 31253 101556,101236,101210
 2.3000e+000 101487 -5.2588e+002 -5.1147e+002  1.7137e+002 31253 101210,101392,101340
 2.3000e+000 101464 -3.3143e+002 -4.5888e+002  3.3226e+002 31253 101236,101288,101262
 2.3000e+000 101441 -4.1659e+002 -7.0501e+002  4.0046e+002 31253 101236,101314,101288
 2.3000e+000 101418 -5.8088e+002 -7.8345e+002  4.1971e+002 31253 101340,101392,101366
 2.3000e+000 101582 -4.8911e+002 -5.7136e+002  2.8353e+002 31253 101340,101314,101556
 2.3000e+000 101605 -6.5348e+002 -5.4534e+002  2.4810e+002 31253 101340,101556,101210
 2.3000e+000 101755  1.2386e+002 -1.0423e+002  6.0086e+001 30519 101778,101654,101628
 2.3000e+000 101732 -1.1669e+002 -1.6210e+002  3.2108e+001 30519 101850,101778,101628
 2.3000e+000 101804 -6.0001e+001 -1.0802e+002 -2.8782e+001 30519 101680,101654,101778
 2.3000e+000 101827 -2.1186e+002 -8.6397e+001 -1.7915e+001 30519 101680,101778,101706
 2.3000e+000 101876 -1.0391e+002 -1.4711e+002  5.5753e+000 30519 101706,101778,101850
 2.3000e+000 102561 -2.0016e+002 -3.8391e+002  1.9956e+002 29951 102656,102584,102270
 2.3000e+000 102538 -8.0722e+002 -8.3071e+002  1.2518e+002 29951 102584,102140,102374
 2.3000e+000 102515 -3.8596e+002 -9.5487e+002  5.0237e+002 29951 102728,102656,102270
 2.3000e+000 102492 -4.3445e+002 -1.1755e+003  5.0987e+002 29951 102728,102270,102244
 2.3000e+000 102469 -6.4363e+002 -2.3496e+002  3.1043e+002 29951 102800,102322,102296
 2.3000e+000 102446 -6.6714e+002 -4.0963e+002  1.1303e+002 29951 102166,102218,102192
 2.3000e+000 102423 -5.6491e+002 -4.6085e+002  5.1702e+001 29951 102166,102244,102218
 2.3000e+000 102400 -3.5749e+002 -4.7125e+002  2.8461e+002 29951 102322,102374,102348
 2.3000e+000 102610 -7.6797e+002 -3.0587e+002  6.2588e+001 29951 102296,102270,102584
 2.3000e+000 102633 -8.8278e+002 -4.0060e+002  1.6024e+002 29951 102800,102296,102584
 2.3000e+000 102682 -9.7209e+002 -8.3908e+002  4.0891e+002 29951 102140,102584,102656
 2.3000e+000 102705 -5.5841e+002 -7.8484e+002  6.2973e+002 29951 102140,102656,102166
 2.3000e+000 102754 -4.5403e+002 -7.1286e+002  5.9617e+002 29951 102166,102656,102728
 2.3000e+000 102777 -4.8209e+002 -8.7110e+002  5.5979e+002 29951 102166,102728,102244
 2.3000e+000 102826 -3.8316e+002 -4.2525e+002  3.9159e+002 29951 102374,102322,102800
 2.3000e+000 102849 -5.0180e+002 -4.2012e+002  2.9093e+002 29951 102374,102800,102584
 2.3000e+000 103048  7.1320e+001 -2.2619e+002  6.6571e+001 29454 102872,102924,102898
 2.3000e+000 103025 -6.3194e+001 -6.8425e+002  2.1383e+002 29454 102872,102976,102924
 2.3000e+000 103002 -2.2632e+002 -9.4872e+002  1.2215e+002 29454 102924,102976,102950
 2.3000e+000 103296 -9.4115e+002 -6.6529e+002  4.6911e+002 29064 103319,103175,103123
 2.3000e+000 103273 -1.2889e+003 -6.7462e+002  5.3864e+002 29064 103319,103123,103071
 2.3000e+000 103250 -5.7826e+002 -4.2323e+002  3.4846e+002 29064 103123,103175,103149
 2.3000e+000 103227 -9.6832e+002 -5.7674e+002  6.8275e+002 29064 103071,103123,103097
 2.3000e+000 103345 -6.3273e+002 -7.5235e+002  3.3606e+002 29064 103201,103175,103319
 2.3000e+000 103368 -1.0395e+003 -7.1083e+002  2.7830e+002 29064 103201,103319,103071
 2.3000e+000 104006 -5.3215e+002 -2.6260e+002  2.1196e+002 28603 104101,104029,103712
 2.3000e+000 103983 -4.6680e+002 -2.0215e+002  1.8489e+002 28603 104173,104029,103660
 2.3000e+000 103960 -6.3160e+002 -2.1296e+002  1.9492e+002 28603 104101,103712,103686
 2.3000e+000 103937 -3.4495e+002 -2.5961e+002  1.8601e+002 28603 104173,103660,103634
 2.3000e+000 103914 -5.8568e+002 -2.9121e+002  2.9588e+002 28603 103764,103816,103790
 2.3000e+000 103891 -3.6819e+002 -2.4470e+002  2.7569e+002 28603 103634,103842,103816
 2.3000e+000 103868 -4.6195e+002 -1.6097e+002  2.7321e+002 28603 103712,103764,103738
 2.3000e+000 104055 -5.5037e+002 -2.2563e+002  2.3154e+002 28603 103764,103712,104029
 2.3000e+000 104078 -5.1921e+002 -2.2385e+002  2.6586e+002 28603 103764,104029,103816
 2.3000e+000 104127 -6.5859e+002 -2.8250e+002  1.6618e+002 28603 103660,104029,104101
 2.3000e+000 104150 -8.0540e+002 -2.5402e+002  1.7175e+002 28603 103660,104101,103686
 2.3000e+000 104199 -5.6401e+002 -2.4116e+002  2.1716e+002 28603 103816,104029,104173
 2.3000e+000 104222 -4.5504e+002 -2.9817e+002  2.0544e+002 28603 103816,104173,103634
 2.3000e+000 104600 -3.6946e+002 -6.8689e+002  1.5486e+002 28348 104623,104378,104326
 2.3000e+000 104577 -3.0978e+002 -7.1527e+002  3.0767e+002 28348 104623,104326,104482
 2.3000e+000 104554 -3.2446e+002 -4.3183e+002  1.0981e+002 28348 104326,104378,104352
 2.3000e+000 104531 -3.5721e+002  4.1408e-001 -5.4987e+000 28348 104404,104456,104430
 2.3000e+000 104508 -4.7265e+002 -2.5861e+002  2.2589e+002 28348 104378,104456,104404
 2.3000e+000 104649 -3.0682e+002 -5.4854e+002  1.9617e+002 28348 104456,104378,104623
 2.3000e+000 104672 -2.2774e+002 -5.5391e+002  3.5254e+002 28348 104456,104623,104482
 2.3000e+000 104991 -6.2494e+002 -6.0896e+002  4.6726e+002 27951 104717,104847,104769
 2.3000e+000 104968 -1.7114e+002 -4.2022e+002  4.4988e+002 27951 104717,104873,104847
 2.3000e+000 104945 -2.0510e+002 -4.7343e+002  5.2411e+002 27951 104769,104847,104795
 2.3000e+000 104922  5.2078e+001  1.5014e+002  4.9260e+002 27951 104795,104847,104821
 2.3000e+000 104899 -6.2121e+002 -4.5041e+002  5.4310e+002 27951 104717,104769,104743
 2.3000e+000 105371 -8.7452e+002 -5.0681e+002  3.8005e+002 27447 105394,105201,105123
 2.3000e+000 105348 -1.1681e+003 -4.4104e+002  5.6142e+002 27447 105394,105123,105097
 2.3000e+000 105325 -1.3541e+003 -5.2414e+002  3.4256e+002 27447 105123,105201,105149
 2.3000e+000 105302 -7.2037e+002 -5.9603e+002  3.8744e+002 27447 105201,105253,105227
 2.3000e+000 105279 -7.4265e+002 -6.9550e+002  1.4739e+002 27447 105149,105201,105175
 2.3000e+000 105420 -7.1369e+002 -4.1791e+002  2.9093e+002 27447 105253,105201,105394
 2.3000e+000 105443 -9.5998e+002 -2.5586e+002  4.4355e+002 27447 105253,105394,105097
 2.3000e+000 105998 -6.0538e+002 -3.8706e+002  4.1093e+002 27100 106165,106021,105704
 2.3000e+000 105975 -2.6255e+002 -1.8606e+002  3.4361e+002 27100 106309,106021,105652
 2.3000e+000 105952 -1.0011e+003 -6.7570e+002  7.2031e+002 27100 106093,105808,105782
 2.3000e+000 105929 -5.7632e+002 -4.1811e+002  3.8257e+002 27100 106165,105704,105678
 2.3000e+000 105906 -2.7365e+002 -6.2784e+002  3.3708e+002 27100 106237,105730,105704
 2.3000e+000 105883 -2.3695e+002 -3.7180e+002  2.3800e+002 27100 106309,105652,105626
 2.3000e+000 105860 -1.1434e+002 -9.7531e+000  3.4252e+001 27100 105730,105782,105756
 2.3000e+000 106047 -5.4373e+002 -3.1745e+002  4.6319e+002 27100 106237,105704,106021
 2.3000e+000 106070 -5.7841e+002 -2.8636e+002  5.5168e+002 27100 106093,105782,106021
 2.3000e+000 106119 -3.9416e+002 -5.7631e+002  3.4780e+002 27100 105834,105808,106093
 2.3000e+000 106142 -4.6987e+002 -7.2492e+002  4.9780e+002 27100 106381,106093,106021
 2.3000e+000 106191 -5.5853e+002 -3.6267e+002  4.1998e+002 27100 105652,106021,106165
 2.3000e+000 106214 -5.0634e+002 -3.8585e+002  3.9085e+002 27100 105652,106165,105678
 2.3000e+000 106263 -3.8516e+001 -3.2797e+002  2.3449e+002 27100 105782,105730,106237
 2.3000e+000 106286 -3.6177e+002 -9.7402e+001  3.8371e+002 27100 105782,106237,106021
 2.3000e+000 106335 -3.9226e+002 -4.3822e+002  3.9001e+002 27100 106381,106021,106309
 2.3000e+000 106358 -2.3998e+002 -2.8152e+002  2.0968e+002 27100 105834,106309,105626
 2.3000e+000 106407 -2.8520e+002 -3.9688e+002  2.9809e+002 27100 105834,106093,106381
 2.3000e+000 106430 -2.9175e+002 -3.4558e+002  1.8635e+002 27100 105834,106381,106309
 2.3000e+000 106629 -8.6022e+001 -6.0461e+002  2.1769e+002 26688 106479,106557,106531
 2.3000e+000 106606 -9.5155e+001 -4.6237e+002  2.1775e+002 26688 106453,106557,106479
 2.3000e+000 106583 -2.7717e+002 -6.6321e+002  8.1835e+001 26688 106479,106531,106505
 2.3000e+000 107088 -2.8202e+002 -2.2098e+002  1.0856e+002 26248 107111,106918,106866
 2.3000e+000 107065 -2.9534e+002 -1.9002e+002  1.2256e+002 26248 107111,106866,106840
 2.3000e+000 107042 -2.0815e+002 -1.2796e+002  1.2595e+002 26248 106814,106970,106840
 2.3000e+000 107019 -2.7774e+002 -5.1354e+002  2.2253e+002 26248 106866,106918,106892
 2.3000e+000 106996 -4.2523e+002 -2.8765e+002  8.0775e+001 26248 106918,106970,106944
 2.3000e+000 107137 -3.0606e+002 -2.6195e+002  7.6869e+001 26248 106970,106918,107111
 2.3000e+000 107160 -2.9394e+002 -2.0099e+002  9.3463e+001 26248 106970,107111,106840
 2.3000e+000 107666 -7.6369e+002 -2.8789e+002  2.3730e+002 25908 107369,107499,107395
 2.3000e+000 107643 -1.0435e+003 -8.8181e+002  5.0157e+002 25908 107369,107525,107499
 2.3000e+000 107620 -6.2028e+002 -3.9065e+002  3.1052e+002 25908 107395,107473,107447
 2.3000e+000 107597 -5.1807e+002 -1.9815e+002  2.1285e+002 25908 107395,107499,107473
 2.3000e+000 107574 -1.1057e+003 -4.6827e+002  7.1236e+002 25908 107395,107447,107421
 2.3000e+000 107551 -3.4807e+002 -6.9972e+002  3.5462e+002 25908 107343,107525,107369
 2.3000e+000 108251 -5.1208e+002 -1.6615e+002  2.9415e+002 25454 108274,108006,107954
 2.3000e+000 108228 -4.1212e+002 -7.5816e+001  2.1674e+002 25454 108274,107954,108110
 2.3000e+000 108205 -3.9073e+002 -3.8114e+002  3.5074e+002 25454 108346,108032,108006
 2.3000e+000 108182 -6.4590e+002 -2.7701e+002  3.6942e+002 25454 107954,108006,107980
 2.3000e+000 108159 -2.1466e+002 -2.2884e+002  2.0210e+002 25454 107928,108110,107954
 2.3000e+000 108136 -7.5504e+002 -6.4782e+002  3.9476e+002 25454 108058,108110,108084
 2.3000e+000 108300 -4.9722e+002 -2.7099e+002  3.4976e+002 25454 108346,108006,108274
 2.3000e+000 108323 -4.5206e+002 -1.8933e+002  2.5411e+002 25454 108058,108274,108110
 2.3000e+000 108372 -2.6359e+002 -2.5918e+002  3.0067e+002 25454 108058,108032,108346
 2.3000e+000 108395 -3.7727e+002 -1.3446e+002  2.9877e+002 25454 108058,108346,108274
 2.3000e+000 108822 -4.0263e+002 -2.1356e+002  2.1803e+002 24943 108525,108681,108655
 2.3000e+000 108799 -5.1214e+002 -3.4230e+002  1.1429e+002 24943 108499,108681,108525
 2.3000e+000 108776 -2.0926e+002 -1.5487e+002  1.5005e+002 24943 108525,108655,108629
 2.3000e+000 108753 -3.2947e+002 -1.3417e+002  1.3103e+002 24943 108525,108629,108603
 2.3000e+000 108730 -8.1182e+002 -2.3943e+002  2.8190e+002 24943 108551,108603,108577
 2.3000e+000 108707 -7.5182e+002 -4.2312e+002  4.0655e+002 24943 108525,108603,108551
 2.3000e+000 109407 -4.2106e+001 -1.2753e+002  7.3264e+001 24745 109162,109214,109188
 2.3000e+000 109384 -2.7332e+002 -1.2530e+002  8.6673e+001 24745 109162,109266,109214
 2.3000e+000 109361 -3.2340e+002 -1.9164e+002  5.0823e+001 24745 109084,109266,109162
 2.3000e+000 109338 -5.9292e+002 -7.6605e+001  1.3456e+002 24745 109084,109162,109136
 2.3000e+000 109315 -1.2554e+002 -2.4896e+002  1.2921e+002 24745 109214,109266,109240
 2.3000e+000 109292 -4.5061e+002 -1.1442e+002  2.2822e+002 24745 109084,109136,109110
 2.3000e+000 109785 -9.1673e+002 -3.8602e+002  5.2645e+002 24341 109537,109615,109563
 2.3000e+000 109762 -8.0698e+001 -1.6278e+002  4.9828e+002 24341 109537,109641,109615
 2.3000e+000 109739 -6.2304e+002 -4.2820e+002  3.9182e+002 24341 109563,109615,109589
 2.3000e+000 109716 -3.7343e+002 -3.5810e+002  3.3098e+002 24341 109537,109667,109641
 2.3000e+000 109693 -2.2928e+002 -4.3322e+002  3.0512e+002 24341 109511,109667,109537
 2.3000e+000 110163 -1.0672e+003 -5.6204e+002  5.3315e+002 23837 110186,109967,109915
 2.3000e+000 110140 -9.6157e+002 -5.6194e+002  5.8023e+002 23837 110186,109915,109889
 2.3000e+000 110117 -4.3088e+002 -1.8086e+002  4.5625e+002 23837 109889,110045,109993
 2.3000e+000 110094 -9.7303e+002 -7.3081e+002  3.8885e+002 23837 109915,109967,109941
 2.3000e+000 110071 -5.2967e+002 -1.5382e+001  6.4455e+001 23837 109993,110045,110019
 2.3000e+000 110212 -1.0008e+003 -5.0569e+002  5.7791e+002 23837 109993,109967,110186
 2.3000e+000 110235 -9.5788e+002 -5.1885e+002  6.2644e+002 23837 109993,110186,109889
 2.3000e+000 110336 -4.8729e+002 -1.0648e+003  5.8536e+002 23433 110258,110310,110284
 2.3000e+000 110584 -5.8418e+002 -4.0764e+002  2.4034e+002 22829 110607,110411,110385
 2.3000e+000 110561 -7.6124e+002 -4.8474e+002  3.7112e+002 22829 110607,110385,110489
 2.3000e+000 110538 -4.1627e+002 -4.3401e+002  2.0063e+002 22829 110437,110489,110463
 2.3000e+000 110515 -6.3522e+002 -2.8705e+002  4.2644e+002 22829 110359,110489,110385
 2.3000e+000 110633 -5.6722e+002 -2.8235e+002  1.1157e+002 22829 110437,110411,110607
 2.3000e+000 110656 -6.6698e+002 -3.6418e+002  2.3660e+002 22829 110437,110607,110489
 2.3000e+000 110906 -1.3787e+003 -5.6887e+002  3.6603e+002 22432 110707,110759,110733
 2.3000e+000 110883 -7.4283e+002 -5.3527e+002  2.6483e+002 22432 110707,110785,110759
 2.3000e+000 110860 -8.5733e+002 -4.8067e+002  4.8674e+002 22432 110707,110811,110785
 2.3000e+000 110837 -1.0630e+003 -7.1870e+002  3.8029e+002 22432 110681,110811,110707
 2.3000e+000 111288 -9.3994e+001 -1.9237e+002  1.8802e+002 22142 111092,111144,111118
 2.3000e+000 111265 -3.7760e+002 -2.8196e+002  2.0226e+002 22142 111066,111144,111092
 2.3000e+000 111242 -3.5710e+002 -2.6638e+002  1.6456e+002 22142 111040,111144,111066
 2.3000e+000 111219 -6.9380e+002 -6.5564e+001  8.6005e+001 22142 111014,111144,111040
 2.3000e+000 111196 -5.0749e+002 -3.3161e+001  1.6419e+002 22142 111014,111170,111144
 2.3000e+000 111389  1.2743e+001 -9.6032e+001  3.1986e+002 21830 111311,111363,111337
 2.3000e+000 111735 -9.1129e+002 -3.5097e+001  6.4282e+002 21268 111758,111542,111438
 2.3000e+000 111712 -7.7014e+002 -1.3936e+000  4.7351e+002 21268 111758,111438,111412
 2.3000e+000 111689 -2.5989e+002 -3.9814e+002  7.6569e+002 21268 111438,111542,111464
 2.3000e+000 111666 -9.7844e+001 -2.7408e+002  9.7279e+002 21268 111464,111542,111490
 2.3000e+000 111643 -1.8070e+003 -8.4873e+002  8.6527e+002 21268 111412,111594,111568
 2.3000e+000 111620  2.5478e+002  3.2538e+002  1.1932e+003 21268 111490,111542,111516
 2.3000e+000 111784 -9.3805e+002 -1.3502e+002  6.4111e+002 21268 111568,111542,111758
 2.3000e+000 111807 -9.2440e+002 -3.5037e+002  5.2610e+002 21268 111568,111758,111412
 2.3000e+000 111959 -8.5844e+002 -9.7962e+001  2.9011e+002 20864 111982,111910,111884
 2.3000e+000 111936 -8.1548e+002 -1.0491e+002  4.0786e+002 20864 112114,111832,111910
 2.3000e+000 112008 -8.5507e+002 -2.6947e+002  3.4766e+002 20864 112114,111910,111982
 2.3000e+000 112140 -7.9984e+002 -2.9016e+002  3.2901e+002 20864 111858,111832,112114
 2.3000e+000 112163 -8.5711e+002 -4.9413e+002  2.7479e+002 20864 111858,112114,111982
 2.3000e+000 112411 -1.1154e+002 -2.4380e+001  3.5227e+001 20324 112186,112290,112212
 2.3000e+000 112388 -5.5421e+001 -1.2978e+001  4.9906e+001 20324 112186,112316,112290
 2.3000e+000 112365  2.8697e+002 -2.4382e+002  4.7964e+001 20324 112212,112290,112264
 2.3000e+000 112342 -1.1857e+003 -5.0752e+002 -6.6033e+001 20324 112212,112264,112238
 2.3000e+000 112659 -9.0288e+001 -2.0058e+001  3.4558e+002 19920 112512,112564,112538
 2.3000e+000 112636 -4.7065e+002 -1.3683e+002  2.0360e+002 19920 112434,112564,112512
 2.3000e+000 112613 -4.8720e+002 -2.9154e+002  2.6946e+002 19920 112434,112512,112460
 2.3000e+000 112590 -5.3389e+002 -3.2201e+002  2.8574e+002 19920 112460,112512,112486
 2.3000e+000 112811 -8.7248e+001 -3.3651e+001  1.5493e+002 19630 112684,112736,112710
 2.3000e+000 112788  1.3689e+002 -1.9136e+002  4.3088e+001 19630 112684,112762,112736
 2.3000e+000 113012 -3.9225e+002 -1.4464e+002  3.8630e+002 19169 112862,112940,112888
 2.3000e+000 112989 -6.3533e+002 -5.1098e+002  2.8068e+002 19169 112836,112940,112862
 2.3000e+000 112966 -3.0681e+002 -3.9770e+002  3.0584e+002 19169 112888,112940,112914
 2.3000e+000 113213 -9.0138e+002 -3.5916e+002  4.1118e+002 18600 113037,113089,113063
 2.3000e+000 113190 -4.6490e+002 -1.9318e+002  2.9989e+002 18600 113037,113115,113089
 2.3000e+000 113167 -1.0742e+003 -7.0236e+002  6.2926e+002 18600 113037,113141,113115
 2.3000e+000 113485 -4.5241e+002 -1.6539e+002  4.2492e+002 18352 113260,113312,113286
 2.3000e+000 113462 -9.0953e+002 -5.1208e+002  5.7642e+002 18352 113260,113390,113312
 2.3000e+000 113439 -8.5318e+002 -1.4561e+002  3.9679e+002 18352 113312,113390,113364
 2.3000e+000 113416 -2.6429e+002 -8.4329e+001  4.2883e+002 18352 113312,113364,113338
 2.3000e+000 113757 -6.2274e+002 -2.4097e+002  4.0424e+002 17834 113558,113610,113584
 2.3000e+000 113734 -9.3196e+002 -5.2256e+002  5.5397e+002 17834 113532,113610,113558
 2.3000e+000 113711 -9.3622e+002 -5.9798e+002  4.4427e+002 17834 113532,113662,113610
 2.3000e+000 113688 -4.6816e+002 -1.3773e+002  6.3038e+002 17834 113610,113662,113636
 2.3000e+000 113958 -6.0737e+002 -2.4401e+002  3.2061e+002 17330 113782,113834,113808
 2.3000e+000 113935 -3.4557e+002 -1.7601e+002  2.3623e+002 17330 113782,113886,113834
 2.3000e+000 113912 -4.1783e+002 -1.8478e+002  1.5719e+002 17330 113834,113886,113860
 2.3000e+000 114110 -8.8171e+002 -3.2600e+002  5.6757e+002 16874 113983,114035,114009
 2.3000e+000 114087 -3.5285e+002 -7.9115e+002  5.2630e+002 16874 113983,114061,114035
 2.3000e+000 114465 -1.1235e+003 -4.7197e+002  2.4298e+002 16270 114240,114292,114266
 2.3000e+000 114442 -7.1684e+002 -1.6360e+002  1.0169e+002 16270 114240,114370,114292
 2.3000e+000 114419 -3.3652e+002 -1.3863e+002  1.8920e+002 16270 114292,114344,114318
 2.3000e+000 114396 -7.2505e+002 -3.2602e+002  1.1189e+002 16270 114292,114370,114344
 2.3000e+000 114566 -6.6497e+001  6.6497e+001  7.8061e+002 15834 114488,114540,114514
 2.3000e+000 114667 -6.0104e+002 -2.3562e+002  3.7210e+002 15155 114589,114641,114615
 2.3000e+000 114890 -3.5480e+002 -1.0849e+002  5.2369e+002 421 114766,114818,114792
 2.3000e+000 114867 -6.0364e+002 -5.7030e+002  4.2098e+002 421 114714,114818,114766
 2.3000e+000 114844 -9.4953e+002 -3.9739e+002  2.4326e+002 421 114714,114766,114740
 2.4000e+000 66553 -4.5493e+002 -1.9375e+002  1.9456e+002 66108 66354,66458,66432
 2.4000e+000 66530 -4.3009e+002 -1.8045e+002  1.6360e+002 66108 66328,66458,66354
 2.4000e+000 66507 -2.5619e+002 -1.7546e+002  1.0609e+002 66108 66354,66432,66406
 2.4000e+000 66484  1.0600e+002  5.3938e+001  2.3465e+002 66108 66354,66406,66380
 2.4000e+000 66951 -5.4562e+002 -2.3036e+002  1.5144e+002 65910 66703,66833,66807
 2.4000e+000 66928 -3.7025e+001 -7.6786e+001  1.6142e+002 65910 66677,66833,66703
 2.4000e+000 66905 -1.5317e+002 -3.5639e+002  2.2364e+002 65910 66729,66781,66755
 2.4000e+000 66882 -6.0630e+002 -2.5250e+002  2.1658e+002 65910 66729,66807,66781
 2.4000e+000 66859 -5.2996e+002 -1.2488e+002  1.7998e+002 65910 66703,66807,66729
 2.4000e+000 67150 -5.9217e+002 -2.5406e+002  1.1949e+001 65712 67026,67078,67052
 2.4000e+000 67127 -7.0537e+002 -1.1244e+002 -3.2693e+001 65712 66974,67078,67026
 2.4000e+000 67104 -1.8120e+003 -4.0265e+002 -1.6873e+002 65712 66974,67026,67000
 2.4000e+000 67481 -9.4113e+002 -7.6897e+001  2.8419e+002 65422 67282,67360,67334
 2.4000e+000 67458 -3.4792e+002 -1.1020e+002  4.9627e+002 65422 67282,67386,67360
 2.4000e+000 67435 -2.3701e+002  2.0676e+002  2.5816e+002 65422 67282,67334,67308
 2.4000e+000 67412  2.0725e+002  6.7673e+001  1.7619e+002 65422 67256,67386,67282
 2.4000e+000 68115 -2.5947e+002 -8.9545e+001  7.0765e+001 65018 67795,67925,67873
 2.4000e+000 68092 -3.1555e+002 -1.1151e+002  1.0435e+002 65018 67769,67925,67795
 2.4000e+000 68069 -2.1239e+002 -6.9607e+001  8.9081e+001 65018 67873,67925,67899
 2.4000e+000 68046 -4.6456e+002 -2.4535e+002  1.6203e+002 65018 67769,67951,67925
 2.4000e+000 68023 -3.2373e+002 -2.0218e+002  9.7786e+001 65018 67795,67873,67821
 2.4000e+000 68000 -3.8744e+002 -2.0257e+002  7.2921e+001 65018 67821,67873,67847
 2.4000e+000 67977 -8.1046e+002 -3.9096e+002  1.3678e+002 65018 67743,67951,67769
 2.4000e+000 68363 -2.8400e+002 -5.9338e+002  5.4386e+002 64820 68190,68242,68216
 2.4000e+000 68340 -5.8180e+002 -4.3205e+002  5.6258e+002 64820 68190,68268,68242
 2.4000e+000 68317 -3.2033e+002 -3.0518e+002  6.1514e+002 64820 68164,68268,68190
 2.4000e+000 68294 -1.1212e+003 -4.5508e+002  3.9844e+002 64820 68138,68268,68164
 2.4000e+000 68513 -6.0099e+002 -3.0072e+002  2.2635e+002 64366 68868,68536,68438
 2.4000e+000 68490 -3.1930e+002 -1.2067e+002  1.6242e+002 64366 68536,68412,68386
 2.4000e+000 68562 -6.7137e+002 -2.4227e+002  3.0011e+002 64366 68740,68536,68464
 2.4000e+000 68585 -5.0187e+002 -1.6932e+002  2.3337e+002 64366 68608,68536,68386
 2.4000e+000 68634 -5.9528e+002 -3.6176e+002  2.0460e+002 64366 68464,68536,68608
 2.4000e+000 68766 -6.0770e+002 -2.0423e+002  2.8424e+002 64366 68438,68536,68740
 2.4000e+000 68894 -4.9498e+002 -1.7218e+002  2.7332e+002 64366 68412,68536,68868
 2.4000e+000 69172 -4.9535e+002 -5.6715e+002  4.3950e+001 64168 69022,69074,69048
 2.4000e+000 69149 -1.0420e+003 -4.4074e+002  1.9784e+002 64168 68996,69074,69022
 2.4000e+000 69126 -1.1061e+003 -5.9092e+002  1.9967e+002 64168 68996,69100,69074
 2.4000e+000 69371 -4.1012e+002 -1.3788e+002  2.5584e+002 63970 69466,69394,69273
 2.4000e+000 69348 -2.7339e+002 -1.1355e+002  1.0334e+002 63970 69394,69247,69221
 2.4000e+000 69325 -6.4816e+002 -2.7348e+002  1.6564e+002 63970 69195,69299,69221
 2.4000e+000 69420 -5.2271e+002 -2.1894e+002  3.0457e+002 63970 69299,69273,69394
 2.4000e+000 69443 -3.9946e+002 -2.7293e+002  1.7322e+002 63970 69299,69394,69221
 2.4000e+000 69492 -4.2849e+002 -1.6894e+002  2.4824e+002 63970 69247,69394,69466
 2.4000e+000 69904 -6.5562e+001 -3.5536e+002  1.6551e+002 63680 69705,69783,69731
 2.4000e+000 69881  6.2967e+001 -2.3624e+002  9.3636e+001 63680 69679,69783,69705
 2.4000e+000 69858 -3.4767e+002 -4.3680e+002  2.0090e+002 63680 69679,69809,69783
 2.4000e+000 69835 -2.3120e+002 -3.4554e+002  1.4813e+002 63680 69731,69783,69757
 2.4000e+000 70054 -3.0456e+001 -2.9442e+002  1.7951e+002 63476 70077,69953,69927
 2.4000e+000 70031  3.8906e+001 -1.2723e+002  2.5855e+002 63476 70077,69927,70005
 2.4000e+000 70103 -1.4470e+002 -1.8447e+002  1.0894e+002 63476 69979,69953,70077
 2.4000e+000 70126 -9.0558e+001 -3.4029e+001  1.7540e+002 63476 69979,70077,70005
 2.4000e+000 70325 -1.1227e+003 -5.2068e+002  3.2833e+002 63278 70149,70227,70175
 2.4000e+000 70302 -6.9579e+002 -2.6802e+002  4.4502e+002 63278 70149,70253,70227
 2.4000e+000 70279 -1.2680e+003 -7.7627e+002  2.6506e+002 63278 70175,70227,70201
 2.4000e+000 70597 -4.3279e+002 -6.5031e+001  1.9644e+002 63080 70372,70476,70424
 2.4000e+000 70574 -4.1444e+002 -1.7178e+002  1.9417e+002 63080 70372,70502,70476
 2.4000e+000 70551 -5.2344e+002 -2.1547e+002  2.3739e+002 63080 70424,70476,70450
 2.4000e+000 70528 -7.8501e+002 -2.5386e+002  3.7173e+002 63080 70372,70424,70398
 2.4000e+000 70847 -3.5798e+001 -2.2966e+002  9.2081e+001 62740 70870,70648,70622
 2.4000e+000 70824 -1.5542e+002 -2.0557e+002  1.4285e+002 62740 70870,70622,70752
 2.4000e+000 70801 -5.1593e+001 -2.6702e+002  1.2911e+002 62740 70648,70726,70700
 2.4000e+000 70778 -6.5403e+001 -3.1753e+002  1.3175e+002 62740 70648,70700,70674
 2.4000e+000 70896 -1.5365e+002 -2.6552e+002  8.3901e+001 62740 70726,70648,70870
 2.4000e+000 70919 -2.1553e+002 -2.0760e+002  1.4825e+002 62740 70726,70870,70752
 2.4000e+000 71022 -5.8918e+001  5.8918e+001  7.3508e+002 62520 70944,70996,70970
 2.4000e+000 71223 -1.0021e+003 -4.7755e+002  5.8429e+002 62230 71073,71151,71099
 2.4000e+000 71200 -7.9163e+002 -4.5495e+002  5.2130e+002 62230 71047,71151,71073
 2.4000e+000 71177 -6.8211e+002 -8.2424e+002  4.7683e+002 62230 71099,71151,71125
 2.4000e+000 71861 -1.4148e+002 -2.3140e+002 -6.5882e+001 61712 71515,71697,71671
 2.4000e+000 71838 -1.9775e+002 -3.4309e+002  3.7116e+001 61712 71489,71697,71515
 2.4000e+000 71815 -8.9040e+002 -2.4207e+002  3.8823e+002 61712 71884,71541,71515
 2.4000e+000 71792 -6.2956e+002  4.1356e+001  2.3901e+002 61712 71884,71515,71671
 2.4000e+000 71769 -1.2919e+002 -6.4517e+002  2.3313e+002 61712 71541,71619,71593
 2.4000e+000 71746 -2.1514e+002 -3.7029e+002  1.6979e+002 61712 71619,71671,71645
 2.4000e+000 71723 -2.0062e+002 -6.1210e+002  6.0995e+001 61712 71541,71593,71567
 2.4000e+000 71910 -6.2683e+002 -5.4372e+002  5.3490e+002 61712 71619,71541,71884
 2.4000e+000 71933 -4.7794e+002 -3.3075e+002  4.1297e+002 61712 71619,71884,71671
 2.4000e+000 72230 -6.9598e+002 -5.0570e+002  1.3266e+002 61208 72253,72060,72008
 2.4000e+000 72207 -6.5915e+002 -3.1940e+002  1.1332e+002 61208 72253,72008,71982
 2.4000e+000 72184 -6.9367e+002 -1.8046e+002  1.0775e+002 61208 71982,72112,72086
 2.4000e+000 72161 -1.1750e+003 -5.0535e+002  2.8219e+002 61208 72008,72060,72034
 2.4000e+000 72138 -4.6274e+002 -1.2480e+002  2.4142e+002 61208 71956,72112,71982
 2.4000e+000 72279 -6.7663e+002 -3.7404e+002  5.3277e+001 61208 72086,72060,72253
 2.4000e+000 72302 -6.9778e+002 -2.6790e+002  3.4916e+001 61208 72086,72253,71982
 2.4000e+000 72761 -4.0830e+002 -2.7826e+002  1.1749e+002 60804 72487,72617,72513
 2.4000e+000 72738 -4.7097e+002 -3.8248e+002  1.4406e+002 60804 72487,72643,72617
 2.4000e+000 72715 -1.5331e+002 -5.6514e+002  1.8806e+002 60804 72565,72617,72591
 2.4000e+000 72692 -4.2750e+002 -3.5598e+002  2.1397e+002 60804 72513,72617,72565
 2.4000e+000 72669 -3.7852e+002 -3.0940e+002  1.2871e+002 60804 72513,72565,72539
 2.4000e+000 72911 -5.8918e+001  5.8918e+001  7.3508e+002 60556 72784,72836,72810
 2.4000e+000 72888  6.2979e+002  3.2268e+002  4.5061e+002 60556 72784,72862,72836
 2.4000e+000 73468 -3.2064e+002 -2.8284e+002  1.7696e+002 60244 73491,73226,73200
 2.4000e+000 73445 -3.2906e+002 -2.2309e+002  2.1156e+002 60244 73563,73491,73200
 2.4000e+000 73422 -5.1151e+002 -1.2848e+002  2.1552e+002 60244 73563,73200,73174
 2.4000e+000 73399 -2.6171e+002 -3.9197e+002  1.6273e+002 60244 73226,73278,73252
 2.4000e+000 73376 -3.7289e+002 -2.9381e+002  1.5472e+002 60244 73122,73304,73278
 2.4000e+000 73353 -3.8241e+002 -4.2212e+002  1.7814e+002 60244 73096,73304,73122
 2.4000e+000 73330 -6.1205e+002 -1.9422e+002 -9.4374e+001 60244 73122,73174,73148
 2.4000e+000 73517 -3.9576e+002 -3.1586e+002  1.8233e+002 60244 73278,73226,73491
 2.4000e+000 73540 -3.9315e+002 -2.9090e+002  1.5786e+002 60244 73278,73491,73122
 2.4000e+000 73589 -5.7504e+002 -3.4959e+002  1.5357e+002 60244 73122,73491,73563
 2.4000e+000 73612 -7.4343e+002 -2.3849e+002  1.6806e+002 60244 73122,73563,73174
 2.4000e+000 73762 -2.4717e+002 -5.6378e+002  4.7150e+002 59875 73661,73713,73687
 2.4000e+000 73739 -5.5473e+002 -2.6723e+002  3.3252e+002 59875 73635,73713,73661
 2.4000e+000 74191 -2.7800e+002 -6.1613e+002  4.9252e+002 59478 74214,73894,73868
 2.4000e+000 74168 -5.4272e+002 -5.7828e+002  5.1255e+002 59478 74214,73868,74050
 2.4000e+000 74145 -5.6303e+002 -6.9984e+002  2.5978e+002 59478 73894,73946,73920
 2.4000e+000 74122 -4.5676e+002 -6.5225e+002  2.3019e+002 59478 73894,73998,73946
 2.4000e+000 74099 -1.1673e+003 -6.1828e+002  6.8918e+002 59478 73998,74050,74024
 2.4000e+000 74076 -5.6901e+002 -8.0531e+002  1.7282e+002 59478 73946,73998,73972
 2.4000e+000 74240 -5.1459e+002 -5.5514e+002  3.7153e+002 59478 73998,73894,74214
 2.4000e+000 74263 -7.7996e+002 -5.4450e+002  3.4891e+002 59478 73998,74214,74050
 2.4000e+000 74720 -4.9615e+002 -2.9020e+002  1.7905e+002 58774 74472,74602,74498
 2.4000e+000 74697 -4.6048e+002 -3.2786e+002  1.5578e+002 58774 74446,74602,74472
 2.4000e+000 74674 -5.7833e+002 -2.6191e+002  2.5482e+002 58774 74498,74576,74524
 2.4000e+000 74651 -4.6333e+002 -3.0006e+002  2.0612e+002 58774 74498,74602,74576
 2.4000e+000 74628 -5.9948e+002 -2.1291e+002  1.9338e+002 58774 74524,74576,74550
 2.4000e+000 75226 -3.9563e+002 -3.3128e+002  2.0652e+002 58270 74955,75085,75033
 2.4000e+000 75203 -2.5662e+002 -4.2414e+002  2.8378e+002 58270 74929,75085,74955
 2.4000e+000 75180 -3.5159e+002 -2.1084e+002  1.9736e+002 58270 75033,75085,75059
 2.4000e+000 75157 -3.5624e+002 -3.8717e+002  1.2763e+002 58270 74955,75007,74981
 2.4000e+000 75134 -2.1805e+002 -2.5997e+002  7.3933e+001 58270 74955,75033,75007
 2.4000e+000 75111 -6.2771e+001 -4.8217e+002  1.7812e+002 58270 74903,75085,74929
 2.4000e+000 75425 -4.5916e+002 -2.6437e+002  2.1547e+002 57830 75448,75301,75249
 2.4000e+000 75402 -3.4226e+002 -7.5621e+001  1.2978e+002 57830 75448,75249,75353
 2.4000e+000 75379 -4.8570e+002 -6.3988e+002  1.4653e+002 57830 75520,75301,75275
 2.4000e+000 75474 -4.4063e+002 -3.8319e+002  3.3257e+002 57830 75327,75301,75448
 2.4000e+000 75497 -3.7763e+002 -2.9388e+002  2.4950e+002 57830 75327,75448,75353
 2.4000e+000 75546 -3.0599e+002 -3.8169e+002  6.0563e+001 57830 75249,75301,75520
 2.4000e+000 76261 -2.2472e+002 -3.6995e+002  2.2588e+002 57426 76284,76097,76071
 2.4000e+000 76238 -2.0481e+002 -2.4551e+002  2.2721e+002 57426 75889,76097,75915
 2.4000e+000 76215 -3.2649e+002 -4.1116e+002  2.1957e+002 57426 76428,76284,76071
 2.4000e+000 76192 -2.5120e+002 -3.8712e+002  1.4298e+002 57426 76356,75941,75915
 2.4000e+000 76169 -3.2928e+002 -3.6128e+002  2.1082e+002 57426 76428,76071,76019
 2.4000e+000 76146 -3.6487e+002 -4.6338e+002  2.0613e+002 57426 76019,76071,76045
 2.4000e+000 76123 -3.5606e+002 -3.6214e+002  2.8657e+002 57426 75967,76019,75993
 2.4000e+000 76310 -2.4327e+002 -4.1766e+002  1.7607e+002 57426 75915,76097,76284
 2.4000e+000 76333 -2.7589e+002 -3.9491e+002  1.5291e+002 57426 76356,75915,76284
 2.4000e+000 76382 -3.0388e+002 -3.8044e+002  1.5123e+002 57426 75967,75941,76356
 2.4000e+000 76405 -3.1659e+002 -3.7780e+002  1.5989e+002 57426 75967,76356,76284
 2.4000e+000 76454 -3.0559e+002 -3.6551e+002  2.0564e+002 57426 75967,76284,76428
 2.4000e+000 76477 -3.3000e+002 -3.3717e+002  2.0536e+002 57426 75967,76428,76019
 2.4000e+000 76953 -3.1533e+002 -5.6229e+002  3.0958e+002 56908 76976,76711,76685
 2.4000e+000 76930 -3.1985e+002 -5.7420e+002  3.1244e+002 56908 77048,76976,76685
 2.4000e+000 76907 -6.0408e+002 -6.1094e+002  4.4606e+002 56908 77048,76685,76633
 2.4000e+000 76884 -8.9321e+002 -8.6267e+002  5.0324e+002 56908 76711,76789,76763
 2.4000e+000 76861 -4.9275e+002 -2.9278e+002  2.0256e+002 56908 76581,76789,76607
 2.4000e+000 76838 -8.4871e+002 -6.7525e+002  4.0515e+002 56908 76711,76763,76737
 2.4000e+000 76815 -1.4251e+003 -1.1270e+003  7.8863e+002 56908 76633,76685,76659
 2.4000e+000 77002 -3.8732e+002 -5.9314e+002  3.1142e+002 56908 76789,76711,76976
 2.4000e+000 77025 -3.9245e+002 -2.7687e+002  1.8747e+002 56908 76789,76976,76607
 2.4000e+000 77074 -7.6776e+002 -5.5595e+002  3.1090e+002 56908 76607,76976,77048
 2.4000e+000 77097 -9.1936e+002 -4.6902e+002  4.2850e+002 56908 76607,77048,76633
 2.4000e+000 77475 -3.4104e+002 -4.0304e+002  3.2036e+002 56546 77570,77498,77279
 2.4000e+000 77452 -2.5410e+002 -5.7861e+002  4.1697e+002 56546 77498,77227,77357
 2.4000e+000 77429 -3.9239e+002 -4.5413e+002  3.7446e+002 56546 77570,77279,77253
 2.4000e+000 77406 -5.6743e+002 -7.1842e+002  4.6208e+002 56546 77201,77357,77227
 2.4000e+000 77383 -4.1758e+002 -4.3017e+002  1.5126e+002 56546 77279,77331,77305
 2.4000e+000 77524 -2.9899e+002 -1.6802e+002  3.0292e+002 56546 77331,77279,77498
 2.4000e+000 77547 -1.6617e+002 -3.5160e+002  4.9450e+002 56546 77331,77498,77357
 2.4000e+000 77596 -3.8419e+002 -4.1901e+002  4.2274e+002 56546 77227,77498,77570
 2.4000e+000 77619 -4.5865e+002 -5.7619e+002  4.7868e+002 56546 77227,77570,77253
 2.4000e+000 77818 -4.0168e+002 -3.9564e+002  3.5421e+002 56042 77841,77694,77668
 2.4000e+000 77795 -3.6020e+002 -3.5868e+002  2.6349e+002 56042 77841,77668,77746
 2.4000e+000 77772 -4.3917e+002 -4.1634e+002  2.2826e+002 56042 77642,77746,77668
 2.4000e+000 77867 -4.4931e+002 -4.6646e+002  3.8904e+002 56042 77720,77694,77841
 2.4000e+000 77890 -3.9769e+002 -4.1728e+002  2.9646e+002 56042 77720,77841,77746
 2.4000e+000 78349 -5.6524e+002 -1.5241e+002  2.2099e+002 55538 78075,78127,78101
 2.4000e+000 78326 -7.0548e+002 -3.7728e+002  1.3118e+002 55538 78075,78205,78127
 2.4000e+000 78303 -5.8347e+002 -8.3605e+001  7.3294e+001 55538 78075,78231,78205
 2.4000e+000 78280 -6.2242e+002 -6.3441e+002  3.6544e+002 55538 78127,78179,78153
 2.4000e+000 78257 -5.2565e+002 -3.8277e+002  1.1873e+002 55538 78127,78205,78179
 2.4000e+000 78806 -3.1931e+002 -3.5114e+002  1.2178e+002 55034 78829,78636,78610
 2.4000e+000 78783 -3.6137e+002 -3.6235e+002  1.3782e+002 55034 78901,78829,78610
 2.4000e+000 78760 -3.2561e+002 -3.8540e+002  1.6120e+002 55034 78901,78610,78584
 2.4000e+000 78737 -4.0759e+002 -2.9821e+002  1.5176e+002 55034 78558,78688,78662
 2.4000e+000 78714 -4.6106e+002 -3.3030e+002  3.1720e+002 55034 78532,78688,78558
 2.4000e+000 78855 -3.6432e+002 -3.6665e+002  1.1211e+002 55034 78662,78636,78829
 2.4000e+000 78878 -3.8305e+002 -3.3798e+002  1.5538e+002 55034 78662,78829,78558
 2.4000e+000 78927 -3.2656e+002 -3.1277e+002  1.6006e+002 55034 78558,78829,78901
 2.4000e+000 78950 -3.0812e+002 -3.3622e+002  1.8242e+002 55034 78558,78901,78584
 2.4000e+000 79407 -1.9400e+002 -2.1265e+002  2.2634e+002 54430 79430,79237,79159
 2.4000e+000 79384 -1.6957e+002 -3.5932e+002  8.1192e+001 54430 79430,79159,79133
 2.4000e+000 79361 -2.4072e+002 -2.9983e+002  1.2375e+002 54430 79237,79289,79263
 2.4000e+000 79338 -2.4160e+002 -2.6120e+002  1.5405e+002 54430 79185,79237,79211
 2.4000e+000 79315 -4.3719e+002 -2.7345e+002  2.6548e+002 54430 79159,79237,79185
 2.4000e+000 79456 -2.1307e+002 -3.7778e+002  1.7103e+002 54430 79289,79237,79430
 2.4000e+000 79479 -1.9674e+002 -5.9875e+002  5.9234e+001 54430 79289,79430,79133
 2.4000e+000 79936 -2.0324e+002 -2.1979e+002  2.3016e+002 53919 79662,79766,79688
 2.4000e+000 79913 -7.2248e+002 -3.5113e+002  4.0527e+002 53919 79662,79818,79766
 2.4000e+000 79890 -9.5458e+002 -4.0666e+002  5.8374e+001 53919 79766,79818,79792
 2.4000e+000 79867 -4.9055e+002 -4.1623e+002  2.3498e+002 53919 79714,79766,79740
 2.4000e+000 79844 -5.1705e+002 -3.6976e+002  2.7374e+002 53919 79688,79766,79714
 2.4000e+000 80037 -2.2057e+002 -5.4139e+002  4.1700e+002 53671 79959,80011,79985
 2.4000e+000 80405 -1.2463e+002 -3.5792e+002  1.1600e+002 53267 80108,80264,80238
 2.4000e+000 80382 -1.7535e+002 -2.6308e+002  1.4247e+002 53267 80082,80264,80108
 2.4000e+000 80359 -1.4043e+002 -4.9435e+002  2.5421e+002 53267 80108,80238,80134
 2.4000e+000 80336 -7.9316e+001 -2.9172e+002  1.9739e+002 53267 80134,80212,80186
 2.4000e+000 80313 -3.2870e+002 -4.7772e+002  3.1474e+002 53267 80134,80238,80212
 2.4000e+000 80290 -3.1258e+001 -3.4343e+002  1.4126e+002 53267 80134,80186,80160
 2.4000e+000 80915 -5.1783e+002 -7.4259e+002  5.3672e+001 52969 80644,80774,80748
 2.4000e+000 80892 -4.2740e+002 -3.5120e+002 -1.5878e+000 52969 80618,80774,80644
 2.4000e+000 80869 -6.1087e+002 -8.9636e+002 -2.1783e+001 52969 80644,80748,80670
 2.4000e+000 80846 -6.4672e+002 -3.8168e+002  2.1943e+001 52969 80592,80774,80618
 2.4000e+000 80823 -1.2952e+003 -1.0490e+003  1.6710e+002 52969 80670,80722,80696
 2.4000e+000 80800 -6.0024e+002 -8.0650e+002 -4.2751e+001 52969 80670,80748,80722
 2.4000e+000 81266  1.0325e+002 -6.4886e+001  4.3181e+001 52565 81041,81145,81067
 2.4000e+000 81243  7.3393e+001 -1.7586e+002  6.0018e+001 52565 81041,81171,81145
 2.4000e+000 81220 -2.4411e+002 -7.9511e+002  1.9627e+002 52565 81067,81119,81093
 2.4000e+000 81197  1.5310e+002  2.5191e+001  6.5283e+001 52565 81067,81145,81119
 2.4000e+000 81723 -9.4829e+001 -5.3307e+000  4.1302e+001 51904 81449,81527,81475
 2.4000e+000 81700 -1.0783e+002 -5.0592e+000  5.6214e+001 51904 81449,81579,81527
 2.4000e+000 81677 -3.7891e+002 -7.3786e+001  7.2080e+001 51904 81449,81605,81579
 2.4000e+000 81654 -2.3805e+002  1.8703e+001  4.0871e+001 51904 81527,81579,81553
 2.4000e+000 81631 -9.2772e+001  1.0844e+001  2.4301e+001 51904 81475,81527,81501
 2.4000e+000 82327 -4.7374e+002 -4.4264e+002  3.1475e+002 51321 82422,82350,82036
 2.4000e+000 82304 -5.1395e+002 -3.1775e+002  3.4392e+002 51321 82494,82350,81958
 2.4000e+000 82281 -4.8525e+002 -4.6531e+002  3.0276e+002 51321 82422,82036,82010
 2.4000e+000 82258 -5.4158e+002 -3.2853e+002  3.4182e+002 51321 82494,81958,81932
 2.4000e+000 82235 -4.9639e+002 -2.2754e+002  1.5646e+002 51321 82062,82114,82088
 2.4000e+000 82212 -1.2256e+003 -7.6031e+002  5.1064e+002 51321 81932,82140,82114
 2.4000e+000 82189 -5.1780e+002 -1.5895e+002  2.8637e+002 51321 81958,82010,81984
 2.4000e+000 82166 -1.8196e+002 -3.9285e+002  1.2113e+002 51321 81906,82140,81932
 2.4000e+000 82376 -4.8484e+002 -5.3495e+002  3.1003e+002 51321 82062,82036,82350
 2.4000e+000 82399 -4.8687e+002 -3.9878e+002  2.8676e+002 51321 82062,82350,82114
 2.4000e+000 82448 -4.6347e+002 -4.1998e+002  3.4118e+002 51321 81958,82350,82422
 2.4000e+000 82471 -4.7254e+002 -4.4066e+002  3.2964e+002 51321 81958,82422,82010
 2.4000e+000 82520 -5.2363e+002 -3.2595e+002  3.2813e+002 51321 82114,82350,82494
 2.4000e+000 82543 -5.2769e+002 -3.2731e+002  3.2575e+002 51321 82114,82494,81932
 2.4000e+000 83019 -5.0021e+002 -1.2144e+003  5.2013e+000 50817 82673,82751,82699
 2.4000e+000 82996 -3.9624e+002 -7.5346e+002  1.4550e+002 50817 83042,82673,82855
 2.4000e+000 82973 -4.8103e+002 -5.8668e+002  1.0726e+002 50817 83042,82855,82803
 2.4000e+000 82950 -7.6044e+002 -5.8678e+002  1.4651e+002 50817 82751,82803,82777
 2.4000e+000 82927 -3.7262e+002 -6.4781e+002  2.3799e+002 50817 82647,82855,82673
 2.4000e+000 82904 -7.1508e+002 -6.4235e+002  3.1313e+002 50817 82803,82855,82829
 2.4000e+000 82881 -4.4390e+002 -1.2367e+003 -8.1078e+001 50817 82699,82751,82725
 2.4000e+000 83068 -2.8159e+002 -6.2482e+002  7.0159e+001 50817 82751,82673,83042
 2.4000e+000 83091 -4.3559e+002 -5.0385e+002  5.5677e+001 50817 82751,83042,82803
 2.4000e+000 83290 -5.1488e+002 -1.9074e+002  2.7660e+002 50356 83313,83166,83140
 2.4000e+000 83267 -5.3688e+002 -3.6537e+002  2.3234e+002 50356 83515,83313,83140
 2.4000e+000 83244 -6.2345e+002 -3.5915e+002  9.1817e+001 50356 83515,83140,83385
 2.4000e+000 83339 -6.6320e+002 -2.9815e+002  3.5723e+002 50356 83192,83166,83313
 2.4000e+000 83362 -3.9304e+002 -2.4809e+002  3.3290e+002 50356 83192,83313,83218
 2.4000e+000 83411 -2.2855e+002 -1.4728e+002  1.5007e+002 50356 83114,83218,83385
 2.4000e+000 83541 -3.0751e+002 -2.8936e+002  2.2638e+002 50356 83218,83313,83515
 2.4000e+000 83564 -3.2870e+002 -2.3858e+002  1.0437e+002 50356 83218,83515,83385
 2.4000e+000 83893 -5.5175e+002 -5.5752e+002  8.2595e+001 49552 83720,83798,83746
 2.4000e+000 83870 -3.4975e+002 -2.3091e+002  2.1297e+002 49552 83694,83798,83720
 2.4000e+000 83847 -2.4007e+002 -2.7056e+002  2.1594e+002 49552 83668,83798,83694
 2.4000e+000 83824 -1.2210e+003 -3.8806e+002 -1.0469e+002 49552 83746,83798,83772
 2.4000e+000 84141 -6.1247e+002 -4.1217e+002  2.7005e+002 49212 84164,84020,83942
 2.4000e+000 84118 -5.6270e+002 -2.5464e+002  3.4104e+002 49212 84164,83942,83916
 2.4000e+000 84095 -5.2346e+002 -5.2937e+002  1.9889e+002 49212 83942,84020,83968
 2.4000e+000 84072 -4.2499e+002 -5.2027e+001  1.3653e+002 49212 83968,84020,83994
 2.4000e+000 84190 -6.7692e+002 -3.9158e+002  1.7776e+002 49212 84046,84020,84164
 2.4000e+000 84213 -6.1985e+002 -2.8424e+002  2.5012e+002 49212 84046,84164,83916
 2.4000e+000 84800 -1.4548e+002 -2.0997e+002  1.5008e+002 48865 84503,84633,84555
 2.4000e+000 84777 -2.0107e+002 -3.1946e+002  1.2072e+002 48865 84503,84659,84633
 2.4000e+000 84754 -1.6768e+002 -2.9422e+002  1.2734e+002 48865 84555,84633,84581
 2.4000e+000 84731 -1.7325e+002 -7.1642e+002  3.2648e+002 48865 84581,84633,84607
 2.4000e+000 84708 -4.1053e+002 -2.7794e+002  1.1434e+002 48865 84503,84555,84529
 2.4000e+000 84685 -1.7739e+002 -3.0634e+002  7.6915e+001 48865 84477,84659,84503
 2.4000e+000 85355 -2.8959e+002 -3.0896e+002  2.6133e+001 48461 85378,85035,85009
 2.4000e+000 85332 -4.7363e+002 -4.6362e+002  1.0544e+002 48461 85378,85009,85165
 2.4000e+000 85309 -4.4428e+002 -4.6284e+002  1.6247e+002 48461 85450,85061,85035
 2.4000e+000 85286 -4.6307e+002 -4.5159e+002  9.1532e+001 48461 85009,85191,85165
 2.4000e+000 85263 -3.9704e+002 -4.1136e+002  2.7021e+002 48461 85087,85165,85113
 2.4000e+000 85240 -2.1139e+002 -5.7890e+002 -8.1806e+001 48461 84983,85191,85009
 2.4000e+000 85217 -3.3783e+002 -5.1546e+002  1.7521e+002 48461 85113,85165,85139
 2.4000e+000 85404 -4.4643e+002 -3.8168e+002  1.2075e+002 48461 85450,85035,85378
 2.4000e+000 85427 -4.8298e+002 -4.2720e+002  1.2899e+002 48461 85087,85378,85165
 2.4000e+000 85476 -4.5871e+002 -5.7552e+002  1.9065e+002 48461 85087,85061,85450
 2.4000e+000 85499 -4.7441e+002 -5.2723e+002  1.4147e+002 48461 85087,85450,85378
 2.4000e+000 86084 -1.5973e+002 -4.3485e+002  2.0300e+002 48057 86323,86107,85787
 2.4000e+000 86061 -2.3739e+002 -4.9788e+002  2.3875e+002 48057 86107,85761,85943
 2.4000e+000 86038 -3.3974e+002 -3.7979e+002  1.8733e+002 48057 86251,86179,85891
 2.4000e+000 86015 -3.3956e+002 -3.3374e+002  1.2616e+002 48057 86251,85891,85839
 2.4000e+000 85992 -2.8231e+002 -3.1797e+002  2.3299e+002 48057 85891,85943,85917
 2.4000e+000 85969 -4.2974e+002 -2.7218e+002  1.7947e+002 48057 85839,85891,85865
 2.4000e+000 86133 -1.8673e+002 -4.7199e+002  1.6983e+002 48057 85813,85787,86107
 2.4000e+000 86156 -2.6622e+002 -4.5791e+002  1.6142e+002 48057 86179,85813,86107
 2.4000e+000 86205 -2.6622e+002 -3.0973e+002  2.1621e+002 48057 85943,85891,86179
 2.4000e+000 86228 -1.6850e+002 -3.5618e+002  2.1216e+002 48057 85943,86179,86107
 2.4000e+000 86277 -2.2747e+002 -3.2625e+002  1.7138e+002 48057 85813,86179,86251
 2.4000e+000 86300 -2.8623e+002 -3.0905e+002  1.1849e+002 48057 85813,86251,85839
 2.4000e+000 86349 -1.3636e+002 -4.2519e+002  2.0659e+002 48057 85761,86107,86323
 2.4000e+000 86855 -1.7014e+002 -2.9354e+002  1.7202e+002 47545 86878,86584,86558
 2.4000e+000 86832 -2.2646e+002 -3.2019e+002  1.5603e+002 47545 86950,86878,86558
 2.4000e+000 86809 -2.4858e+002 -2.7006e+002  1.7166e+002 47545 86950,86558,86532
 2.4000e+000 86786 -1.5312e+002 -3.4202e+002  1.9059e+002 47545 86584,86662,86610
 2.4000e+000 86763 -3.2532e+002 -9.9834e+001  6.7888e+001 47545 86532,86714,86688
 2.4000e+000 86740 -2.3517e+002 -1.5386e+002  1.7985e+002 47545 86610,86662,86636
 2.4000e+000 86904 -1.8628e+002 -3.6495e+002  1.8046e+002 47545 86662,86584,86878
 2.4000e+000 86927 -1.1571e+002 -3.1213e+002  1.3656e+002 47545 86662,86878,86688
 2.4000e+000 86976 -1.7153e+002 -2.5170e+002  1.2904e+002 47545 86688,86878,86950
 2.4000e+000 86999 -2.2573e+002 -2.5104e+002  1.5726e+002 47545 86688,86950,86532
 2.4000e+000 87328 -6.1165e+002 -2.6782e+002  2.1632e+002 47048 87155,87207,87181
 2.4000e+000 87305 -3.6988e+002 -2.6835e+002  1.8767e+002 47048 87129,87207,87155
 2.4000e+000 87282 -7.0122e+002 -4.3350e+002  2.4266e+002 47048 87103,87207,87129
 2.4000e+000 87259 -1.1026e+003 -1.5788e+003 -8.0318e+001 47048 87103,87233,87207
 2.4000e+000 87576 -2.0881e+002 -4.9422e+002  2.7532e+002 46701 87599,87429,87377
 2.4000e+000 87553 -3.1539e+002 -5.1072e+002  2.6463e+002 46701 87599,87377,87481
 2.4000e+000 87530 -3.0452e+002 -5.0475e+002  2.6778e+002 46701 87351,87481,87377
 2.4000e+000 87507 -3.2398e+002 -4.5796e+002  3.3694e+002 46701 87377,87429,87403
 2.4000e+000 87625 -2.6172e+002 -3.7886e+002  1.6247e+002 46701 87455,87429,87599
 2.4000e+000 87648 -5.3759e+002 -4.8771e+002  1.9292e+002 46701 87455,87599,87481
 2.4000e+000 87798  8.1463e-001 -1.4013e+002  2.3081e+001 46239 87697,87749,87723
 2.4000e+000 87775 -8.1180e+001 -4.9419e+002  1.1427e+002 46239 87671,87749,87697
 2.4000e+000 88308 -6.6070e+002 -7.1450e+002  1.5232e+002 45735 88089,88167,88141
 2.4000e+000 88285 -4.7527e+002 -3.1351e+002  2.0574e+002 45735 88011,88167,88089
 2.4000e+000 88262 -2.8111e+002 -2.8540e+002  1.4817e+002 45735 87985,88167,88011
 2.4000e+000 88239 -3.7177e+002 -1.2876e+003  3.6623e+002 45735 88011,88089,88063
 2.4000e+000 88216 -8.0550e+002 -7.7181e+002  1.6520e+002 45735 88089,88141,88115
 2.4000e+000 88193 -7.3841e+002 -1.9444e+003  8.0048e+001 45735 88011,88063,88037
 2.4000e+000 88686 -5.2246e+002 -2.2107e+002  3.2634e+002 45316 88438,88516,88490
 2.4000e+000 88663 -4.8195e+002  1.4693e+002  4.6108e+002 45316 88438,88542,88516
 2.4000e+000 88640 -2.5864e+002 -5.1183e+002  5.7685e+002 45316 88438,88568,88542
 2.4000e+000 88617 -5.9010e+002 -4.5084e+002  2.6849e+002 45316 88438,88490,88464
 2.4000e+000 88594 -5.2438e+002 -5.5178e+002  5.8361e+002 45316 88412,88568,88438
 2.4000e+000 88934 -9.6319e+002 -8.9079e+002  5.4498e+002 44812 88957,88735,88709
 2.4000e+000 88911 -5.0543e+002 -5.4223e+002  2.0524e+002 44812 88957,88709,88839
 2.4000e+000 88888 -4.9424e+002 -3.3361e+002  9.1657e+001 44812 89029,88787,88761
 2.4000e+000 88865 -4.4063e+002 -3.6095e+002  1.4281e+002 44812 88787,88839,88813
 2.4000e+000 88983 -2.4265e+002 -5.1659e+002  3.3126e+002 44812 88761,88735,88957
 2.4000e+000 89006 -4.1650e+002 -4.2275e+002  7.0496e+001 44812 89029,88761,88957
 2.4000e+000 89055 -4.6099e+002 -4.3720e+002  1.3360e+002 44812 88839,88787,89029
 2.4000e+000 89078 -4.6665e+002 -6.1531e+002  1.4119e+002 44812 88839,89029,88957
 2.4000e+000 89228 -8.9481e+001 -3.4168e+002  2.8696e+002 44408 89127,89179,89153
 2.4000e+000 89205  3.5275e+001 -2.0683e+000 -2.4494e-001 44408 89101,89179,89127
 2.4000e+000 89787 -5.2178e+002 -2.8925e+002  2.7359e+002 43854 89810,89545,89519
 2.4000e+000 89764 -5.7278e+002 -4.0496e+002  2.4395e+002 43854 89810,89519,89467
 2.4000e+000 89741 -5.3664e+002 -5.5745e+002  2.4435e+002 43854 89954,89882,89597
 2.4000e+000 89718 -5.4023e+002 -5.7615e+002  2.4230e+002 43854 89954,89597,89571
 2.4000e+000 89695 -2.8442e+002 -3.2982e+002  2.2491e+002 43854 89415,89623,89467
 2.4000e+000 89672 -2.1080e+002 -2.4842e+002  1.6014e+002 43854 89467,89519,89493
 2.4000e+000 89649 -1.5284e+002 -2.6057e+002  1.7044e+002 43854 89415,89467,89441
 2.4000e+000 89836 -5.3184e+002 -2.9757e+002  2.9923e+002 43854 89882,89545,89810
 2.4000e+000 89859 -3.0833e+002 -3.5597e+002  2.1010e+002 43854 89623,89810,89467
 2.4000e+000 89908 -5.2129e+002 -6.0949e+002  3.3053e+002 43854 89623,89597,89882
 2.4000e+000 89931 -5.1526e+002 -5.7743e+002  3.0693e+002 43854 89623,89882,89810
 2.4000e+000 89980 -5.6240e+002 -5.2077e+002  3.7056e+002 43854 89545,89882,89954
 2.4000e+000 90003 -6.0729e+002 -6.2921e+002  3.8711e+002 43854 89545,89954,89571
 2.4000e+000 90251 -2.4103e+002 -2.5201e+002  2.0918e+002 43492 90026,90078,90052
 2.4000e+000 90228 -4.9344e+002 -2.9969e+002  1.3744e+002 43492 90274,90026,90156
 2.4000e+000 90205 -4.6505e+002 -3.7764e+002  1.3815e+002 43492 90346,90274,90156
 2.4000e+000 90182 -4.9473e+002 -5.4063e+002  4.3524e+002 43492 90346,90156,90130
 2.4000e+000 90300 -3.0113e+002 -4.0003e+002  2.1389e+002 43492 90078,90026,90274
 2.4000e+000 90323 -5.5648e+002 -4.7544e+002  2.1361e+002 43492 90078,90274,90104
 2.4000e+000 90372 -8.1995e+002 -6.0458e+002  3.3096e+002 43492 90104,90274,90346
 2.4000e+000 90395 -8.7361e+002 -8.2237e+002  6.3839e+002 43492 90104,90346,90130
 2.4000e+000 90594 -1.2304e+002 -5.2864e+002  1.7756e+002 43052 90418,90496,90444
 2.4000e+000 90571 -5.0041e+002 -8.1446e+002  3.0225e+002 43052 90418,90522,90496
 2.4000e+000 90548 -3.1368e+002 -3.8213e+002  2.0634e+002 43052 90444,90496,90470
 2.4000e+000 91074 -3.7058e+002 -5.8517e+002  2.0243e+002 42434 91241,90884,90858
 2.4000e+000 91051 -6.1752e+002 -6.8505e+002 -5.3365e+001 42434 90702,90910,90884
 2.4000e+000 91028 -3.3517e+002 -5.3319e+002  2.1559e+002 42434 91097,90754,90702
 2.4000e+000 91005 -3.8085e+002 -4.5631e+002  1.9805e+002 42434 91241,90858,91097
 2.4000e+000 90982 -2.2285e+002 -3.8840e+002  1.1553e+002 42434 91169,90806,90780
 2.4000e+000 90959 -1.2842e+002 -3.7645e+002  6.3912e+001 42434 90806,90858,90832
 2.4000e+000 90936 -2.7978e+002 -5.0387e+002  2.3424e+002 42434 90702,90754,90728
 2.4000e+000 91123 -3.8161e+002 -5.4496e+002  1.7680e+002 42434 90780,90754,91097
 2.4000e+000 91146 -3.7743e+002 -4.6554e+002  2.0114e+002 42434 91169,90780,91097
 2.4000e+000 91195 -1.6081e+002 -3.7310e+002  3.9046e+001 42434 90858,90806,91169
 2.4000e+000 91218 -2.3773e+002 -3.2137e+002  9.8786e+001 42434 90858,91169,91097
 2.4000e+000 91267 -3.3735e+002 -7.2769e+002  1.5225e+002 42434 90702,90884,91241
 2.4000e+000 91290 -3.6259e+002 -6.1602e+002  1.4735e+002 42434 90702,91241,91097
 2.4000e+000 91698 -1.2620e+002 -4.2739e+002  1.7980e+002 41773 91473,91577,91499
 2.4000e+000 91675 -2.2230e+002 -5.0432e+002  2.3877e+002 41773 91473,91603,91577
 2.4000e+000 91652 -2.3393e+002 -3.3246e+002  6.6639e+001 41773 91499,91551,91525
 2.4000e+000 91629 -3.2770e+002 -3.7442e+002  1.6791e+002 41773 91499,91577,91551
 2.4000e+000 92044 -3.8573e+002 -4.5440e+002  3.1191e+002 41383 91773,91877,91851
 2.4000e+000 92021 -2.5333e+002 -5.7466e+002  1.8555e+002 41383 91747,91877,91773
 2.4000e+000 91998 -2.7344e+002 -3.0366e+002  2.2819e+002 41383 91773,91851,91799
 2.4000e+000 91975 -1.7564e+002 -3.8490e+002  1.6860e+001 41383 91747,91903,91877
 2.4000e+000 91952 -1.5772e+002 -2.7710e+002  1.1761e+002 41383 91721,91903,91747
 2.4000e+000 91929 -1.2243e+002 -3.5479e+002  1.6253e+002 41383 91799,91851,91825
 2.4000e+000 92601 -4.7401e+002 -4.2664e+002  1.3546e+002 40979 92229,92411,92307
 2.4000e+000 92578 -6.0171e+002 -4.3650e+002  1.1812e+002 40979 92229,92437,92411
 2.4000e+000 92555 -4.3686e+002 -3.3168e+002  1.2747e+002 40979 92229,92307,92281
 2.4000e+000 92532 -3.8653e+002 -4.2729e+002  2.1438e+002 40979 92333,92411,92385
 2.4000e+000 92509 -3.8843e+002 -3.6515e+002  1.6264e+002 40979 92307,92411,92333
 2.4000e+000 92486 -4.5661e+002 -3.5848e+002  1.1322e+002 40979 92229,92281,92255
 2.4000e+000 92463 -7.0158e+001 -4.0664e+002  1.6401e+002 40979 92333,92385,92359
 2.4000e+000 93235 -5.2111e+002 -3.1067e+002  3.9740e+002 40525 92941,92993,92967
 2.4000e+000 93212 -7.6215e+002 -1.6330e+002  7.9400e+001 40525 93258,92941,92889
 2.4000e+000 93189 -5.8839e+002 -7.9487e+001  4.5691e+001 40525 93258,92889,93071
 2.4000e+000 93166 -6.5627e+002 -2.4754e+002  6.3466e+001 40525 92889,92941,92915
 2.4000e+000 93143 -6.7282e+002 -5.7990e+001  3.4612e+001 40525 92863,93071,92889
 2.4000e+000 93120 -5.4515e+002 -2.7336e+002  1.7916e+002 40525 92993,93071,93019
 2.4000e+000 93097 -5.6505e+002 -1.9804e+002  1.4906e+002 40525 93019,93071,93045
 2.4000e+000 93284 -8.5495e+002 -2.7972e+002  2.7951e+002 40525 92993,92941,93258
 2.4000e+000 93307 -5.1967e+002 -1.0010e+002  2.1211e+002 40525 92993,93258,93071
 2.4000e+000 93636 -6.0861e+002 -4.6808e+002  5.0808e+002 40235 93437,93541,93515
 2.4000e+000 93613 -5.4199e+002 -6.3775e+002  4.7370e+002 40235 93411,93541,93437
 2.4000e+000 93590 -9.7215e+001 -5.9624e+002  1.6663e+002 40235 93463,93515,93489
 2.4000e+000 93567 -2.5507e+002 -4.0262e+002  8.6485e+001 40235 93437,93515,93463
 2.4000e+000 94014 -6.7051e+002 -6.0518e+002  3.0047e+002 39873 93766,93870,93792
 2.4000e+000 93991 -5.5208e+002 -6.8847e+002  2.3002e+002 39873 93766,93896,93870
 2.4000e+000 93968 -6.2002e+002 -4.6589e+002  3.1800e+002 39873 93792,93870,93844
 2.4000e+000 93945 -4.3944e+002 -3.5137e+002  2.3988e+002 39873 93792,93844,93818
 2.4000e+000 93922 -4.1704e+002 -6.3176e+002  4.3223e+002 39873 93740,93896,93766
 2.4000e+000 94164 -5.5041e+001 -4.0281e+002  1.3986e+002 39461 94037,94089,94063
 2.4000e+000 94141 -1.3400e+002 -6.6984e+002  2.5165e+002 39461 94037,94115,94089
 2.4000e+000 94363 -3.2747e+002 -2.2562e+002  1.8883e+002 39057 94386,94239,94213
 2.4000e+000 94340 -2.3711e+002 -1.6103e+002  1.5508e+002 39057 94386,94213,94187
 2.4000e+000 94317 -3.7360e+002 -2.8171e+002  1.8158e+002 39057 94187,94291,94265
 2.4000e+000 94412 -1.5986e+002 -1.8493e+002  1.6016e+002 39057 94458,94386,94265
 2.4000e+000 94435 -2.6610e+002 -2.3097e+002  1.5553e+002 39057 94265,94386,94187
 2.4000e+000 94484 -3.0240e+002 -2.8676e+002  2.1886e+002 39057 94239,94386,94458
 2.4000e+000 94896 -6.1737e+002 -4.4495e+002  2.8651e+002 38396 94919,94775,94723
 2.4000e+000 94873 -6.9917e+002 -3.5143e+002  2.8948e+002 38396 94919,94723,94697
 2.4000e+000 94850 -4.9530e+002 -4.1686e+002  2.1266e+002 38396 94723,94775,94749
 2.4000e+000 94827 -3.1201e+002 -1.8206e+002  1.9814e+002 38396 94671,94801,94697
 2.4000e+000 94945 -6.0815e+002 -3.8255e+002  2.5043e+002 38396 94801,94775,94919
 2.4000e+000 94968 -6.5221e+002 -2.6599e+002  2.3700e+002 38396 94801,94919,94697
 2.4000e+000 95265 -6.3307e+002 -6.2559e+002  3.1098e+002 37835 95017,95069,95043
 2.4000e+000 95242 -6.4405e+002 -5.2538e+002  3.1203e+002 37835 95288,95069,95017
 2.4000e+000 95219 -6.9600e+002 -5.8245e+002  4.1581e+002 37835 95288,95017,94991
 2.4000e+000 95196 -7.5015e+002 -6.1768e+002  3.7134e+002 37835 94991,95147,95121
 2.4000e+000 95173 -4.4954e+002 -3.1482e+002  2.6834e+002 37835 95069,95121,95095
 2.4000e+000 95314 -6.3155e+002 -3.8321e+002  2.4310e+002 37835 95121,95069,95288
 2.4000e+000 95337 -6.7916e+002 -4.7092e+002  3.4075e+002 37835 95121,95288,94991
 2.4000e+000 95558  1.2491e+002  2.9805e+001  1.3440e+002 37423 95408,95460,95434
 2.4000e+000 95535 -1.5361e+002 -6.8301e+002  3.5087e+002 37423 95382,95460,95408
 2.4000e+000 95512 -3.4649e+002 -8.4078e+002  4.2009e+002 37423 95382,95486,95460
 2.4000e+000 95891 -5.1819e+001 -3.8650e+002  1.4720e+002 37225 95666,95718,95692
 2.4000e+000 95868 -3.1452e+002 -5.2243e+002  2.3228e+002 37225 95666,95796,95718
 2.4000e+000 95845 -2.8887e+002 -4.1872e+002  6.8674e+001 37225 95718,95770,95744
 2.4000e+000 95822 -1.6310e+002 -3.5823e+002  8.9202e+001 37225 95718,95796,95770
 2.4000e+000 95992 -2.5498e+001 -3.0577e+002  1.6373e+002 36735 95914,95966,95940
 2.4000e+000 96142 -7.0978e+002 -2.8375e+002  3.5519e+002 36331 96297,96067,96041
 2.4000e+000 96119 -5.6154e+002 -2.8592e+002  3.4801e+002 36331 96165,96041,96015
 2.4000e+000 96191 -6.7041e+002 -2.7869e+002  3.3394e+002 36331 96297,96041,96165
 2.4000e+000 96323 -7.8969e+002 -3.0588e+002  4.3613e+002 36331 96093,96067,96297
 2.4000e+000 96346 -6.7463e+002 -2.6773e+002  4.1944e+002 36331 96093,96297,96165
 2.4000e+000 96714 -3.9459e+002 -6.1579e+002  4.1539e+002 36041 96737,96495,96443
 2.4000e+000 96691 -5.5830e+002 -4.4110e+002  4.1273e+002 36041 96737,96443,96417
 2.4000e+000 96668 -1.5918e+002 -6.8611e+002  5.5591e+001 36041 96443,96495,96469
 2.4000e+000 96645 -1.3171e+002 -1.5809e+002  2.2022e+002 36041 96391,96521,96417
 2.4000e+000 96622  3.5807e+000 -2.1208e+002  1.8623e+002 36041 96391,96547,96521
 2.4000e+000 96599 -7.2370e+001 -2.3128e+002  1.7428e+002 36041 96391,96573,96547
 2.4000e+000 96763 -1.6874e+002 -4.7125e+002  3.5339e+002 36041 96521,96495,96737
 2.4000e+000 96786 -4.7332e+002 -4.0018e+002  3.8775e+002 36041 96521,96737,96417
 2.4000e+000 96936 -3.6374e+002 -2.2023e+002  2.2448e+002 35637 97031,96959,96835
 2.4000e+000 96913 -5.0383e+002 -2.6354e+002  2.5474e+002 35637 97163,96959,96809
 2.4000e+000 96985 -5.0260e+002 -1.7387e+002  2.6555e+002 35637 96861,96835,96959
 2.4000e+000 97008 -6.6410e+002 -3.2914e+002  4.3476e+002 35637 96861,96959,96887
 2.4000e+000 97057 -4.0370e+002 -1.4918e+002  1.4846e+002 35637 96809,96959,97031
 2.4000e+000 97189 -4.2170e+002 -2.1465e+002  2.8052e+002 35637 96887,96959,97163
 2.4000e+000 97597 -3.1707e+002 -3.7397e+002  3.2958e+002 35190 97450,97502,97476
 2.4000e+000 97574 -3.3927e+002 -4.4640e+002  3.9310e+002 35190 97372,97502,97450
 2.4000e+000 97551 -3.4824e+002 -5.3039e+002  3.7216e+002 35190 97372,97450,97398
 2.4000e+000 97528 -2.8457e+002 -4.9168e+002  3.4402e+002 35190 97398,97450,97424
 2.4000e+000 98054 -4.2325e+002 -5.1793e+002  3.8537e+002 34636 97806,97936,97858
 2.4000e+000 98031 -6.6313e+002 -3.6278e+002  3.2654e+002 34636 97780,97936,97806
 2.4000e+000 98008 -5.7661e+002 -4.9648e+002  1.9081e+002 34636 97806,97858,97832
 2.4000e+000 97985 -4.5349e+002 -5.1824e+002  3.8581e+002 34636 97884,97936,97910
 2.4000e+000 97962 -2.7325e+002 -3.5638e+002  2.9397e+002 34636 97858,97936,97884
 2.4000e+000 98530 -4.9658e+002 -4.7879e+001  9.1946e+001 34068 98697,98184,98366
 2.4000e+000 98507 -3.1878e+001 -9.0377e+001  4.8431e+001 34068 98158,98366,98184
 2.4000e+000 98484 -6.4800e+002 -5.5785e+002  2.4940e+002 34068 98553,98262,98236
 2.4000e+000 98461 -1.1237e+003 -7.4577e+002  1.9171e+002 34068 98553,98236,98210
 2.4000e+000 98438 -6.0994e+002 -3.2522e+002  2.0895e+002 34068 98841,98625,98366
 2.4000e+000 98415 -6.5154e+002 -8.8740e+002  4.2259e+002 34068 98769,98288,98262
 2.4000e+000 98392 -7.9384e+002 -1.9143e+002  1.7303e+002 34068 98841,98366,98340
 2.4000e+000 98579 -7.4019e+002 -6.9437e+002  2.9653e+002 34068 98769,98262,98553
 2.4000e+000 98602 -6.2925e+002 -4.0431e+002  2.1777e+002 34068 98625,98314,98553
 2.4000e+000 98651 -5.6226e+002 -3.2739e+002  1.4960e+002 34068 98697,98366,98625
 2.4000e+000 98674 -6.8793e+002 -5.7048e+002  1.9401e+002 34068 98210,98625,98553
 2.4000e+000 98723 -6.3929e+002 -3.8476e+002  1.6401e+002 34068 98210,98184,98697
 2.4000e+000 98746 -5.9946e+002 -4.3860e+002  2.3539e+002 34068 98210,98697,98625
 2.4000e+000 98795 -4.1190e+002 -6.9076e+002  2.9258e+002 34068 98314,98288,98769
 2.4000e+000 98818 -5.4610e+002 -5.6296e+002  1.7556e+002 34068 98314,98769,98553
 2.4000e+000 98867 -7.8215e+002 -4.7093e+002  1.4234e+002 34068 98314,98625,98841
 2.4000e+000 98890 -9.6762e+002 -3.2264e+002  1.1276e+002 34068 98314,98841,98340
 2.4000e+000 99268 -8.0810e+002 -6.9144e+002  5.0738e+002 33450 99291,99098,99072
 2.4000e+000 99245 -8.7379e+002 -5.4236e+002  2.6274e+002 33450 99291,99072,99020
 2.4000e+000 99222 -1.2983e+003 -6.5935e+002  4.1011e+002 33450 99020,99072,99046
 2.4000e+000 99199 -6.9216e+002 -4.9075e+002  2.6026e+002 33450 99020,99150,99124
 2.4000e+000 99176 -7.0419e+002 -5.0393e+002  6.1789e+001 33450 98994,99150,99020
 2.4000e+000 99317 -4.3698e+002 -5.3151e+002  4.8927e+002 33450 99124,99098,99291
 2.4000e+000 99340 -7.5323e+002 -5.0287e+002  2.6985e+002 33450 99124,99291,99020
 2.4000e+000 99865 -4.3475e+002 -4.2659e+002  2.5097e+002 32944 100176,99960,99888
 2.4000e+000 99842 -4.8994e+002 -4.3143e+002  2.5503e+002 32944 100104,99888,99522
 2.4000e+000 99819 -4.4837e+002 -4.0556e+002  3.3586e+002 32944 100248,99960,99626
 2.4000e+000 99796 -4.1080e+002 -4.7825e+002  1.4701e+002 32944 100032,99652,99626
 2.4000e+000 99773 -3.9361e+002 -4.9888e+002  1.6870e+002 32944 100104,99522,99496
 2.4000e+000 99750 -3.1208e+002 -2.5871e+002  4.6082e+001 32944 99574,99626,99600
 2.4000e+000 99727 -3.9238e+002 -3.6993e+002  3.5932e+002 32944 100248,99626,99574
 2.4000e+000 99704 -2.2843e+002 -4.4373e+002  2.4747e+002 32944 99444,99496,99470
 2.4000e+000 99914 -4.3387e+002 -3.8969e+002  1.7201e+002 32944 100176,99888,100032
 2.4000e+000 99937 -5.1037e+002 -3.3513e+002  2.7655e+002 32944 99678,99888,99444
 2.4000e+000 99986 -4.7383e+002 -3.5556e+002  2.4208e+002 32944 99522,99888,99960
 2.4000e+000 100009 -5.1021e+002 -2.9852e+002  2.8218e+002 32944 99522,99960,99548
 2.4000e+000 100058 -4.9823e+002 -4.6453e+002  1.5123e+002 32944 99678,99652,100032
 2.4000e+000 100081 -5.3980e+002 -4.4167e+002  1.5451e+002 32944 99678,100032,99888
 2.4000e+000 100130 -3.2034e+002 -3.5615e+002  2.7556e+002 32944 99444,99888,100104
 2.4000e+000 100153 -2.5322e+002 -4.3651e+002  1.9604e+002 32944 99444,100104,99496
 2.4000e+000 100202 -4.8428e+002 -5.4778e+002  2.4886e+002 32944 99626,99960,100176
 2.4000e+000 100225 -5.0198e+002 -5.4694e+002  1.7853e+002 32944 99626,100176,100032
 2.4000e+000 100274 -5.4210e+002 -3.7158e+002  2.8701e+002 32944 99548,99960,100248
 2.4000e+000 100297 -4.9242e+002 -3.4286e+002  3.0880e+002 32944 99548,100248,99574
 2.4000e+000 100754 -1.7051e+002 -1.9750e+002  1.0220e+002 32369 100777,100584,100506
 2.4000e+000 100731 -1.9159e+002 -2.9618e+002  2.0507e+002 32369 100777,100506,100636
 2.4000e+000 100708 -3.0045e+002 -3.0350e+002  2.1111e+002 32369 100480,100636,100506
 2.4000e+000 100685 -4.7825e+002 -2.3275e+002  3.1567e+000 32369 100532,100584,100558
 2.4000e+000 100662 -2.1105e+002 -2.2883e+002  1.3057e+002 32369 100506,100584,100532
 2.4000e+000 100803 -2.0430e+002 -4.2372e+001  7.6146e+001 32369 100610,100584,100777
 2.4000e+000 100826 -2.0696e+002 -1.4670e+002  1.6383e+002 32369 100610,100777,100636
 2.4000e+000 101025 -4.1544e+002 -3.3168e+002  3.1907e+002 31857 100875,100927,100901
 2.4000e+000 101002 -8.0929e+002 -1.7750e+002  3.1393e+002 31857 100875,100953,100927
 2.4000e+000 100979 -8.8665e+002 -3.2918e+002  2.5239e+002 31857 100849,100953,100875
 2.4000e+000 101533 -3.9997e+002 -4.9924e+002  3.8558e+002 31253 101556,101314,101236
 2.4000e+000 101510 -5.6013e+002 -4.9582e+002  3.4701e+002 31253 101556,101236,101210
 2.4000e+000 101487 -5.0395e+002 -4.8885e+002  1.5973e+002 31253 101210,101392,101340
 2.4000e+000 101464 -3.0847e+002 -4.4658e+002  3.0328e+002 31253 101236,101288,101262
 2.4000e+000 101441 -3.8597e+002 -6.7770e+002  3.7080e+002 31253 101236,101314,101288
 2.4000e+000 101418 -5.4660e+002 -7.3055e+002  3.8844e+002 31253 101340,101392,101366
 2.4000e+000 101582 -4.5745e+002 -5.3542e+002  2.6062e+002 31253 101340,101314,101556
 2.4000e+000 101605 -6.1546e+002 -5.1184e+002  2.2900e+002 31253 101340,101556,101210
 2.4000e+000 101755  1.0976e+002 -9.6437e+001  5.1195e+001 30519 101778,101654,101628
 2.4000e+000 101732 -1.1879e+002 -1.5827e+002  3.3966e+001 30519 101850,101778,101628
 2.4000e+000 101804 -6.4690e+001 -9.3023e+001 -3.0813e+001 30519 101680,101654,101778
 2.4000e+000 101827 -1.9131e+002 -8.1055e+001 -1.8750e+001 30519 101680,101778,101706
 2.4000e+000 101876 -1.0464e+002 -1.4402e+002 -2.7743e+000 30519 101706,101778,101850
 2.4000e+000 102561 -1.9370e+002 -3.5828e+002  1.8953e+002 29951 102656,102584,102270
 2.4000e+000 102538 -7.5432e+002 -7.7838e+002  1.2172e+002 29951 102584,102140,102374
 2.4000e+000 102515 -3.7100e+002 -8.9686e+002  4.7402e+002 29951 102728,102656,102270
 2.4000e+000 102492 -4.1185e+002 -1.1027e+003  4.7900e+002 29951 102728,102270,102244
 2.4000e+000 102469 -5.9982e+002 -2.0676e+002  2.8511e+002 29951 102800,102322,102296
 2.4000e+000 102446 -6.2371e+002 -3.9552e+002  1.0958e+002 29951 102166,102218,102192
 2.4000e+000 102423 -5.2708e+002 -4.3604e+002  5.6829e+001 29951 102166,102244,102218
 2.4000e+000 102400 -3.3064e+002 -4.2695e+002  2.5781e+002 29951 102322,102374,102348
 2.4000e+000 102610 -7.1559e+002 -2.7665e+002  6.5180e+001 29951 102296,102270,102584
 2.4000e+000 102633 -8.1895e+002 -3.7016e+002  1.4969e+002 29951 102800,102296,102584
 2.4000e+000 102682 -9.1091e+002 -7.8645e+002  3.9065e+002 29951 102140,102584,102656
 2.4000e+000 102705 -5.2825e+002 -7.5031e+002  5.9702e+002 29951 102140,102656,102166
 2.4000e+000 102754 -4.2672e+002 -6.6940e+002  5.6158e+002 29951 102166,102656,102728
 2.4000e+000 102777 -4.5199e+002 -8.2046e+002  5.2541e+002 29951 102166,102728,102244
 2.4000e+000 102826 -3.6210e+002 -3.9401e+002  3.6554e+002 29951 102374,102322,102800
 2.4000e+000 102849 -4.6922e+002 -3.9578e+002  2.7637e+002 29951 102374,102800,102584
 2.4000e+000 103048  5.7680e+001 -2.1491e+002  5.9464e+001 29454 102872,102924,102898
 2.4000e+000 103025 -5.6840e+001 -6.4576e+002  1.9290e+002 29454 102872,102976,102924
 2.4000e+000 103002 -2.0890e+002 -8.9726e+002  1.1303e+002 29454 102924,102976,102950
 2.4000e+000 103296 -8.8650e+002 -6.3719e+002  4.4598e+002 29064 103319,103175,103123
 2.4000e+000 103273 -1.2076e+003 -6.4371e+002  5.1318e+002 29064 103319,103123,103071
 2.4000e+000 103250 -5.4123e+002 -4.0535e+002  3.3013e+002 29064 103123,103175,103149
 2.4000e+000 103227 -9.1285e+002 -5.3909e+002  6.4467e+002 29064 103071,103123,103097
 2.4000e+000 103345 -6.0288e+002 -7.1334e+002  3.2189e+002 29064 103201,103175,103319
 2.4000e+000 103368 -9.7848e+002 -6.6873e+002  2.7233e+002 29064 103201,103319,103071
 2.4000e+000 104006 -5.0318e+002 -2.5059e+002  2.0024e+002 28603 104101,104029,103712
 2.4000e+000 103983 -4.3660e+002 -1.8894e+002  1.7569e+002 28603 104173,104029,103660
 2.4000e+000 103960 -5.9749e+002 -2.0394e+002  1.8512e+002 28603 104101,103712,103686
 2.4000e+000 103937 -3.1533e+002 -2.4159e+002  1.7695e+002 28603 104173,103660,103634
 2.4000e+000 103914 -5.5306e+002 -2.7617e+002  2.8447e+002 28603 103764,103816,103790
 2.4000e+000 103891 -3.4192e+002 -2.2801e+002  2.5856e+002 28603 103634,103842,103816
 2.4000e+000 103868 -4.3908e+002 -1.6014e+002  2.6222e+002 28603 103712,103764,103738
 2.4000e+000 104055 -5.2372e+002 -2.1216e+002  2.2233e+002 28603 103764,103712,104029
 2.4000e+000 104078 -4.8888e+002 -2.0909e+002  2.5537e+002 28603 103764,104029,103816
 2.4000e+000 104127 -6.2356e+002 -2.6689e+002  1.5761e+002 28603 103660,104029,104101
 2.4000e+000 104150 -7.6307e+002 -2.4133e+002  1.6433e+002 28603 103660,104101,103686
 2.4000e+000 104199 -5.3288e+002 -2.2360e+002  2.0763e+002 28603 103816,104029,104173
 2.4000e+000 104222 -4.2612e+002 -2.7745e+002  1.9577e+002 28603 103816,104173,103634
 2.4000e+000 104600 -3.4207e+002 -6.4631e+002  1.4463e+002 28348 104623,104378,104326
 2.4000e+000 104577 -2.8448e+002 -6.7404e+002  2.8435e+002 28348 104623,104326,104482
 2.4000e+000 104554 -3.0893e+002 -4.1183e+002  1.0669e+002 28348 104326,104378,104352
 2.4000e+000 104531 -3.3629e+002 -4.1083e+000 -2.5082e+000 28348 104404,104456,104430
 2.4000e+000 104508 -4.4054e+002 -2.4984e+002  2.1446e+002 28348 104378,104456,104404
 2.4000e+000 104649 -2.8401e+002 -5.1988e+002  1.8418e+002 28348 104456,104378,104623
 2.4000e+000 104672 -2.0798e+002 -5.2622e+002  3.2730e+002 28348 104456,104623,104482
 2.4000e+000 104991 -5.8898e+002 -5.7852e+002  4.4399e+002 27951 104717,104847,104769
 2.4000e+000 104968 -1.6414e+002 -4.0035e+002  4.2403e+002 27951 104717,104873,104847
 2.4000e+000 104945 -1.9584e+002 -4.5599e+002  4.9371e+002 27951 104769,104847,104795
 2.4000e+000 104922  4.5096e+001  1.3084e+002  4.6445e+002 27951 104795,104847,104821
 2.4000e+000 104899 -5.7248e+002 -4.2106e+002  5.0418e+002 27951 104717,104769,104743
 2.4000e+000 105371 -8.2026e+002 -4.7604e+002  3.6184e+002 27447 105394,105201,105123
 2.4000e+000 105348 -1.0948e+003 -4.1896e+002  5.3372e+002 27447 105394,105123,105097
 2.4000e+000 105325 -1.2823e+003 -5.0173e+002  3.3417e+002 27447 105123,105201,105149
 2.4000e+000 105302 -6.7298e+002 -5.6946e+002  3.6993e+002 27447 105201,105253,105227
 2.4000e+000 105279 -6.7704e+002 -6.7410e+002  1.3279e+002 27447 105149,105201,105175
 2.4000e+000 105420 -6.6815e+002 -3.9279e+002  2.7591e+002 27447 105253,105201,105394
 2.4000e+000 105443 -9.0010e+002 -2.4589e+002  4.2117e+002 27447 105253,105394,105097
 2.4000e+000 105998 -5.6444e+002 -3.6965e+002  3.8931e+002 27100 106165,106021,105704
 2.4000e+000 105975 -2.4364e+002 -1.7500e+002  3.2436e+002 27100 106309,106021,105652
 2.4000e+000 105952 -9.3814e+002 -6.4309e+002  6.8038e+002 27100 106093,105808,105782
 2.4000e+000 105929 -5.3707e+002 -3.9992e+002  3.6169e+002 27100 106165,105704,105678
 2.4000e+000 105906 -2.5564e+002 -5.9478e+002  3.1712e+002 27100 106237,105730,105704
 2.4000e+000 105883 -2.2030e+002 -3.5009e+002  2.2294e+002 27100 106309,105652,105626
 2.4000e+000 105860 -1.1078e+002 -9.6748e+000  3.2825e+001 27100 105730,105782,105756
 2.4000e+000 106047 -5.0653e+002 -3.0530e+002  4.3784e+002 27100 106237,105704,106021
 2.4000e+000 106070 -5.4037e+002 -2.7693e+002  5.2102e+002 27100 106093,105782,106021
 2.4000e+000 106119 -3.6902e+002 -5.4413e+002  3.2854e+002 27100 105834,105808,106093
 2.4000e+000 106142 -4.3750e+002 -6.8600e+002  4.6789e+002 27100 106381,106093,106021
 2.4000e+000 106191 -5.2004e+002 -3.4436e+002  3.9936e+002 27100 105652,106021,106165
 2.4000e+000 106214 -4.7153e+002 -3.6908e+002  3.7142e+002 27100 105652,106165,105678
 2.4000e+000 106263 -3.6189e+001 -3.1169e+002  2.2129e+002 27100 105782,105730,106237
 2.4000e+000 106286 -3.3712e+002 -9.7016e+001  3.6369e+002 27100 105782,106237,106021
 2.4000e+000 106335 -3.6590e+002 -4.1524e+002  3.6733e+002 27100 106381,106021,106309
 2.4000e+000 106358 -2.2360e+002 -2.6667e+002  1.9733e+002 27100 105834,106309,105626
 2.4000e+000 106407 -2.6545e+002 -3.7512e+002  2.8043e+002 27100 105834,106093,106381
 2.4000e+000 106430 -2.7246e+002 -3.2536e+002  1.7527e+002 27100 105834,106381,106309
 2.4000e+000 106629 -8.4103e+001 -5.7223e+002  2.0180e+002 26688 106479,106557,106531
 2.4000e+000 106606 -9.9855e+001 -4.4959e+002  1.9989e+002 26688 106453,106557,106479
 2.4000e+000 106583 -2.5953e+002 -6.2237e+002  7.3419e+001 26688 106479,106531,106505
 2.4000e+000 107088 -2.6388e+002 -2.0977e+002  1.0131e+002 26248 107111,106918,106866
 2.4000e+000 107065 -2.7832e+002 -1.8073e+002  1.1624e+002 26248 107111,106866,106840
 2.4000e+000 107042 -1.9096e+002 -1.2014e+002  1.2206e+002 26248 106814,106970,106840
 2.4000e+000 107019 -2.5894e+002 -4.8359e+002  2.0540e+002 26248 106866,106918,106892
 2.4000e+000 106996 -4.1123e+002 -2.7597e+002  7.7018e+001 26248 106918,106970,106944
 2.4000e+000 107137 -2.8961e+002 -2.4846e+002  7.1731e+001 26248 106970,106918,107111
 2.4000e+000 107160 -2.7913e+002 -1.9116e+002  8.9450e+001 26248 106970,107111,106840
 2.4000e+000 107666 -7.1721e+002 -2.7441e+002  2.2669e+002 25908 107369,107499,107395
 2.4000e+000 107643 -9.7933e+002 -8.3842e+002  4.7273e+002 25908 107369,107525,107499
 2.4000e+000 107620 -5.8285e+002 -3.6888e+002  2.9561e+002 25908 107395,107473,107447
 2.4000e+000 107597 -4.8972e+002 -1.8946e+002  2.0603e+002 25908 107395,107499,107473
 2.4000e+000 107574 -1.0344e+003 -4.4834e+002  6.7635e+002 25908 107395,107447,107421
 2.4000e+000 107551 -3.4027e+002 -6.6190e+002  3.4336e+002 25908 107343,107525,107369
 2.4000e+000 108251 -4.7214e+002 -1.5802e+002  2.7523e+002 25454 108274,108006,107954
 2.4000e+000 108228 -3.8070e+002 -7.4585e+001  2.0460e+002 25454 108274,107954,108110
 2.4000e+000 108205 -3.6045e+002 -3.5703e+002  3.2595e+002 25454 108346,108032,108006
 2.4000e+000 108182 -6.0157e+002 -2.6442e+002  3.4897e+002 25454 107954,108006,107980
 2.4000e+000 108159 -2.0066e+002 -2.1744e+002  1.8909e+002 25454 107928,108110,107954
 2.4000e+000 108136 -7.0167e+002 -6.2372e+002  3.7310e+002 25454 108058,108110,108084
 2.4000e+000 108300 -4.5812e+002 -2.5569e+002  3.2594e+002 25454 108346,108006,108274
 2.4000e+000 108323 -4.1602e+002 -1.7703e+002  2.3932e+002 25454 108058,108274,108110
 2.4000e+000 108372 -2.4425e+002 -2.4347e+002  2.7963e+002 25454 108058,108032,108346
 2.4000e+000 108395 -3.4827e+002 -1.2820e+002  2.7904e+002 25454 108058,108346,108274
 2.4000e+000 108822 -3.7473e+002 -2.0614e+002  2.0758e+002 24943 108525,108681,108655
 2.4000e+000 108799 -4.7949e+002 -3.2299e+002  1.0723e+002 24943 108499,108681,108525
 2.4000e+000 108776 -1.9864e+002 -1.5145e+002  1.4535e+002 24943 108525,108655,108629
 2.4000e+000 108753 -3.0925e+002 -1.3130e+002  1.2810e+002 24943 108525,108629,108603
 2.4000e+000 108730 -7.5758e+002 -2.2602e+002  2.6770e+002 24943 108551,108603,108577
 2.4000e+000 108707 -7.0494e+002 -4.0679e+002  3.8813e+002 24943 108525,108603,108551
 2.4000e+000 109407 -3.8803e+001 -1.2031e+002  6.8512e+001 24745 109162,109214,109188
 2.4000e+000 109384 -2.5701e+002 -1.1938e+002  8.1900e+001 24745 109162,109266,109214
 2.4000e+000 109361 -3.0319e+002 -1.8227e+002  5.0495e+001 24745 109084,109266,109162
 2.4000e+000 109338 -5.5355e+002 -7.4268e+001  1.3053e+002 24745 109084,109162,109136
 2.4000e+000 109315 -1.1934e+002 -2.3986e+002  1.2173e+002 24745 109214,109266,109240
 2.4000e+000 109292 -4.2440e+002 -1.0925e+002  2.1433e+002 24745 109084,109136,109110
 2.4000e+000 109785 -8.6338e+002 -3.6902e+002  4.9806e+002 24341 109537,109615,109563
 2.4000e+000 109762 -7.7879e+001 -1.5942e+002  4.6837e+002 24341 109537,109641,109615
 2.4000e+000 109739 -5.8435e+002 -4.0576e+002  3.7039e+002 24341 109563,109615,109589
 2.4000e+000 109716 -3.5523e+002 -3.4139e+002  3.1084e+002 24341 109537,109667,109641
 2.4000e+000 109693 -2.1055e+002 -4.0668e+002  2.8759e+002 24341 109511,109667,109537
 2.4000e+000 110163 -1.0018e+003 -5.3732e+002  5.0389e+002 23837 110186,109967,109915
 2.4000e+000 110140 -9.0614e+002 -5.4029e+002  5.4968e+002 23837 110186,109915,109889
 2.4000e+000 110117 -4.0545e+002 -1.7337e+002  4.2933e+002 23837 109889,110045,109993
 2.4000e+000 110094 -9.1832e+002 -6.9132e+002  3.7284e+002 23837 109915,109967,109941
 2.4000e+000 110071 -4.9581e+002 -4.8771e+000  6.6015e+001 23837 109993,110045,110019
 2.4000e+000 110212 -9.4086e+002 -4.8388e+002  5.4423e+002 23837 109993,109967,110186
 2.4000e+000 110235 -9.0069e+002 -4.9732e+002  5.9100e+002 23837 109993,110186,109889
 2.4000e+000 110336 -4.6250e+002 -1.0186e+003  5.4492e+002 23433 110258,110310,110284
 2.4000e+000 110584 -5.4974e+002 -3.8802e+002  2.2945e+002 22829 110607,110411,110385
 2.4000e+000 110561 -7.1304e+002 -4.6008e+002  3.5293e+002 22829 110607,110385,110489
 2.4000e+000 110538 -3.9542e+002 -4.1475e+002  1.9445e+002 22829 110437,110489,110463
 2.4000e+000 110515 -5.9786e+002 -2.7275e+002  4.0368e+002 22829 110359,110489,110385
 2.4000e+000 110633 -5.3368e+002 -2.6865e+002  1.1015e+002 22829 110437,110411,110607
 2.4000e+000 110656 -6.2601e+002 -3.4630e+002  2.2807e+002 22829 110437,110607,110489
 2.4000e+000 110906 -1.2931e+003 -5.3379e+002  3.5295e+002 22432 110707,110759,110733
 2.4000e+000 110883 -6.9616e+002 -5.0911e+002  2.5843e+002 22432 110707,110785,110759
 2.4000e+000 110860 -7.9447e+002 -4.5984e+002  4.6017e+002 22432 110707,110811,110785
 2.4000e+000 110837 -9.9121e+002 -6.6988e+002  3.5587e+002 22432 110681,110811,110707
 2.4000e+000 111288 -9.7834e+001 -2.0521e+002  1.8732e+002 22142 111092,111144,111118
 2.4000e+000 111265 -3.5819e+002 -2.7496e+002  1.9206e+002 22142 111066,111144,111092
 2.4000e+000 111242 -3.3422e+002 -2.5073e+002  1.5385e+002 22142 111040,111144,111066
 2.4000e+000 111219 -6.5246e+002 -7.1405e+001  8.0502e+001 22142 111014,111144,111040
 2.4000e+000 111196 -4.7683e+002 -4.3592e+001  1.5648e+002 22142 111014,111170,111144
 2.4000e+000 111389  7.3980e+000 -9.4888e+001  2.9973e+002 21830 111311,111363,111337
 2.4000e+000 111735 -8.5303e+002 -4.2026e+001  6.0521e+002 21268 111758,111542,111438
 2.4000e+000 111712 -7.2222e+002 -1.0448e+001  4.4897e+002 21268 111758,111438,111412
 2.4000e+000 111689 -2.4400e+002 -3.8590e+002  7.1856e+002 21268 111438,111542,111464
 2.4000e+000 111666 -8.1789e+001 -2.6733e+002  9.1675e+002 21268 111464,111542,111490
 2.4000e+000 111643 -1.6838e+003 -7.9771e+002  8.1961e+002 21268 111412,111594,111568
 2.4000e+000 111620  2.6342e+002  3.0640e+002  1.1305e+003 21268 111490,111542,111516
 2.4000e+000 111784 -8.7781e+002 -1.3392e+002  6.0374e+002 21268 111568,111542,111758
 2.4000e+000 111807 -8.6463e+002 -3.3187e+002  4.9773e+002 21268 111568,111758,111412
 2.4000e+000 111959 -8.1630e+002 -9.4971e+001  2.7819e+002 20864 111982,111910,111884
 2.4000e+000 111936 -7.6987e+002 -1.0414e+002  3.8992e+002 20864 112114,111832,111910
 2.4000e+000 112008 -8.1317e+002 -2.5929e+002  3.3234e+002 20864 112114,111910,111982
 2.4000e+000 112140 -7.5303e+002 -2.8065e+002  3.1141e+002 20864 111858,111832,112114
 2.4000e+000 112163 -8.1200e+002 -4.7194e+002  2.5913e+002 20864 111858,112114,111982
 2.4000e+000 112411 -1.0225e+002 -2.3669e+001  3.2128e+001 20324 112186,112290,112212
 2.4000e+000 112388 -5.0181e+001 -1.4318e+001  4.6978e+001 20324 112186,112316,112290
 2.4000e+000 112365  2.7082e+002 -2.2658e+002  4.2148e+001 20324 112212,112290,112264
 2.4000e+000 112342 -1.1056e+003 -4.7326e+002 -6.2326e+001 20324 112212,112264,112238
 2.4000e+000 112659 -8.4306e+001 -1.9452e+001  3.2691e+002 19920 112512,112564,112538
 2.4000e+000 112636 -4.4415e+002 -1.3391e+002  1.9319e+002 19920 112434,112564,112512
 2.4000e+000 112613 -4.5721e+002 -2.7424e+002  2.5477e+002 19920 112434,112512,112460
 2.4000e+000 112590 -5.0009e+002 -3.0346e+002  2.6995e+002 19920 112460,112512,112486
 2.4000e+000 112811 -8.1268e+001 -3.1556e+001  1.4488e+002 19630 112684,112736,112710
 2.4000e+000 112788  1.2784e+002 -1.7924e+002  3.9661e+001 19630 112684,112762,112736
 2.4000e+000 113012 -3.6976e+002 -1.3730e+002  3.6710e+002 19169 112862,112940,112888
 2.4000e+000 112989 -5.9768e+002 -4.8745e+002  2.6882e+002 19169 112836,112940,112862
 2.4000e+000 112966 -2.8778e+002 -3.7781e+002  2.8905e+002 19169 112888,112940,112914
 2.4000e+000 113213 -8.3161e+002 -3.3266e+002  3.8515e+002 18600 113037,113089,113063
 2.4000e+000 113190 -4.3673e+002 -1.8871e+002  2.8511e+002 18600 113037,113115,113089
 2.4000e+000 113167 -9.8490e+002 -6.5246e+002  5.8354e+002 18600 113037,113141,113115
 2.4000e+000 113485 -4.2258e+002 -1.5598e+002  3.9930e+002 18352 113260,113312,113286
 2.4000e+000 113462 -8.4911e+002 -4.8347e+002  5.4238e+002 18352 113260,113390,113312
 2.4000e+000 113439 -7.9659e+002 -1.4060e+002  3.7832e+002 18352 113312,113390,113364
 2.4000e+000 113416 -2.5719e+002 -8.4269e+001  4.0620e+002 18352 113312,113364,113338
 2.4000e+000 113757 -5.8535e+002 -2.2750e+002  3.8413e+002 17834 113558,113610,113584
 2.4000e+000 113734 -8.7072e+002 -4.8847e+002  5.2250e+002 17834 113532,113610,113558
 2.4000e+000 113711 -8.7746e+002 -5.6248e+002  4.2076e+002 17834 113532,113662,113610
 2.4000e+000 113688 -4.4038e+002 -1.3285e+002  5.9464e+002 17834 113610,113662,113636
 2.4000e+000 113958 -5.7010e+002 -2.2986e+002  3.0247e+002 17330 113782,113834,113808
 2.4000e+000 113935 -3.2643e+002 -1.6771e+002  2.2355e+002 17330 113782,113886,113834
 2.4000e+000 113912 -3.9434e+002 -1.7311e+002  1.4900e+002 17330 113834,113886,113860
 2.4000e+000 114110 -8.3345e+002 -3.1108e+002  5.3581e+002 16874 113983,114035,114009
 2.4000e+000 114087 -3.3127e+002 -7.4692e+002  4.9061e+002 16874 113983,114061,114035
 2.4000e+000 114465 -1.0507e+003 -4.4175e+002  2.3040e+002 16270 114240,114292,114266
 2.4000e+000 114442 -6.8658e+002 -1.5873e+002  9.9794e+001 16270 114240,114370,114292
 2.4000e+000 114419 -3.1564e+002 -1.3050e+002  1.7482e+002 16270 114292,114344,114318
 2.4000e+000 114396 -6.9993e+002 -3.1318e+002  1.0618e+002 16270 114292,114370,114344
 2.4000e+000 114566 -5.8918e+001  5.8918e+001  7.3508e+002 15834 114488,114540,114514
 2.4000e+000 114667 -5.6449e+002 -2.2238e+002  3.5126e+002 15155 114589,114641,114615
 2.4000e+000 114890 -3.3273e+002 -1.0294e+002  4.9965e+002 421 114766,114818,114792
 2.4000e+000 114867 -5.6946e+002 -5.4112e+002  4.0178e+002 421 114714,114818,114766
 2.4000e+000 114844 -8.9648e+002 -3.7539e+002  2.3379e+002 421 114714,114766,114740
 2.5000e+000 66553 -4.3508e+002 -1.8542e+002  1.8995e+002 66108 66354,66458,66432
 2.5000e+000 66530 -4.1579e+002 -1.7452e+002  1.5972e+002 66108 66328,66458,66354
 2.5000e+000 66507 -2.4102e+002 -1.5826e+002  1.0341e+002 66108 66354,66432,66406
 2.5000e+000 66484  1.0214e+002  5.1533e+001  2.2401e+002 66108 66354,66406,66380
 2.5000e+000 66951 -5.4506e+002 -2.3021e+002  1.4964e+002 65910 66703,66833,66807
 2.5000e+000 66928 -3.4590e+001 -7.1140e+001  1.5480e+002 65910 66677,66833,66703
 2.5000e+000 66905 -1.3656e+002 -3.2847e+002  2.0191e+002 65910 66729,66781,66755
 2.5000e+000 66882 -5.4140e+002 -2.2585e+002  1.9913e+002 65910 66729,66807,66781
 2.5000e+000 66859 -5.0453e+002 -1.3819e+002  1.7873e+002 65910 66703,66807,66729
 2.5000e+000 67150 -5.5957e+002 -2.4008e+002  1.3952e+001 65712 67026,67078,67052
 2.5000e+000 67127 -7.6299e+002 -1.0371e+002 -2.2911e+001 65712 66974,67078,67026
 2.5000e+000 67104 -2.0063e+003 -4.3700e+002 -1.5928e+002 65712 66974,67026,67000
 2.5000e+000 67481 -8.6219e+002 -8.3399e+001  2.6975e+002 65422 67282,67360,67334
 2.5000e+000 67458 -3.2232e+002 -1.0485e+002  4.5920e+002 65422 67282,67386,67360
 2.5000e+000 67435 -2.1063e+002  1.7307e+002  2.5127e+002 65422 67282,67334,67308
 2.5000e+000 67412  1.6503e+002  4.0016e+001  1.7237e+002 65422 67256,67386,67282
 2.5000e+000 68115 -2.4845e+002 -7.2610e+001  6.3561e+001 65018 67795,67925,67873
 2.5000e+000 68092 -3.0016e+002 -9.3144e+001  1.0103e+002 65018 67769,67925,67795
 2.5000e+000 68069 -1.9849e+002 -6.8416e+001  8.1703e+001 65018 67873,67925,67899
 2.5000e+000 68046 -4.5234e+002 -2.3068e+002  1.6010e+002 65018 67769,67951,67925
 2.5000e+000 68023 -2.9836e+002 -1.8036e+002  8.3355e+001 65018 67795,67873,67821
 2.5000e+000 68000 -3.6350e+002 -2.0160e+002  8.1480e+001 65018 67821,67873,67847
 2.5000e+000 67977 -8.0719e+002 -3.8328e+002  1.3243e+002 65018 67743,67951,67769
 2.5000e+000 68363 -2.7291e+002 -5.7469e+002  5.1098e+002 64820 68190,68242,68216
 2.5000e+000 68340 -5.3808e+002 -4.0941e+002  5.2553e+002 64820 68190,68268,68242
 2.5000e+000 68317 -3.0053e+002 -2.9393e+002  5.7571e+002 64820 68164,68268,68190
 2.5000e+000 68294 -1.0510e+003 -4.2853e+002  3.7062e+002 64820 68138,68268,68164
 2.5000e+000 68513 -5.7739e+002 -3.0488e+002  2.0831e+002 64366 68868,68536,68438
 2.5000e+000 68490 -3.1229e+002 -1.1378e+002  1.5709e+002 64366 68536,68412,68386
 2.5000e+000 68562 -6.2771e+002 -2.2745e+002  2.7979e+002 64366 68740,68536,68464
 2.5000e+000 68585 -4.7783e+002 -1.5835e+002  2.2217e+002 64366 68608,68536,68386
 2.5000e+000 68634 -5.6159e+002 -3.3017e+002  1.9601e+002 64366 68464,68536,68608
 2.5000e+000 68766 -5.7963e+002 -1.9803e+002  2.6736e+002 64366 68438,68536,68740
 2.5000e+000 68894 -4.5645e+002 -1.5491e+002  2.6164e+002 64366 68412,68536,68868
 2.5000e+000 69172 -4.7765e+002 -5.2576e+002  4.0956e+001 64168 69022,69074,69048
 2.5000e+000 69149 -9.8355e+002 -4.1643e+002  1.8620e+002 64168 68996,69074,69022
 2.5000e+000 69126 -1.0317e+003 -5.2789e+002  1.8098e+002 64168 68996,69100,69074
 2.5000e+000 69371 -3.8753e+002 -1.2958e+002  2.4435e+002 63970 69466,69394,69273
 2.5000e+000 69348 -2.8257e+002 -1.2845e+002  1.1498e+002 63970 69394,69247,69221
 2.5000e+000 69325 -6.0879e+002 -2.5694e+002  1.5933e+002 63970 69195,69299,69221
 2.5000e+000 69420 -4.7454e+002 -2.1246e+002  2.8231e+002 63970 69299,69273,69394
 2.5000e+000 69443 -3.8393e+002 -2.6349e+002  1.6932e+002 63970 69299,69394,69221
 2.5000e+000 69492 -4.1704e+002 -1.7859e+002  2.3201e+002 63970 69247,69394,69466
 2.5000e+000 69904 -5.9779e+001 -3.1725e+002  1.5352e+002 63680 69705,69783,69731
 2.5000e+000 69881  7.1448e+001 -2.0505e+002  8.9188e+001 63680 69679,69783,69705
 2.5000e+000 69858 -3.1419e+002 -3.7925e+002  1.8647e+002 63680 69679,69809,69783
 2.5000e+000 69835 -2.0505e+002 -3.2090e+002  1.3551e+002 63680 69731,69783,69757
 2.5000e+000 70054 -2.9911e+001 -2.7508e+002  1.7110e+002 63476 70077,69953,69927
 2.5000e+000 70031  4.7845e+001 -1.1791e+002  2.4508e+002 63476 70077,69927,70005
 2.5000e+000 70103 -1.4582e+002 -1.7236e+002  1.0447e+002 63476 69979,69953,70077
 2.5000e+000 70126 -8.3735e+001 -3.1569e+001  1.6666e+002 63476 69979,70077,70005
 2.5000e+000 70325 -1.0584e+003 -4.9089e+002  3.0556e+002 63278 70149,70227,70175
 2.5000e+000 70302 -6.5644e+002 -2.5564e+002  4.1306e+002 63278 70149,70253,70227
 2.5000e+000 70279 -1.1987e+003 -7.4462e+002  2.4761e+002 63278 70175,70227,70201
 2.5000e+000 70597 -4.0773e+002 -6.0755e+001  1.9202e+002 63080 70372,70476,70424
 2.5000e+000 70574 -3.9541e+002 -1.6400e+002  1.8790e+002 63080 70372,70502,70476
 2.5000e+000 70551 -4.9139e+002 -2.0237e+002  2.2890e+002 63080 70424,70476,70450
 2.5000e+000 70528 -7.3084e+002 -2.3386e+002  3.4793e+002 63080 70372,70424,70398
 2.5000e+000 70847 -2.5411e+001 -2.1704e+002  8.3339e+001 62740 70870,70648,70622
 2.5000e+000 70824 -1.4764e+002 -1.7763e+002  1.3600e+002 62740 70870,70622,70752
 2.5000e+000 70801 -4.5311e+001 -2.6965e+002  1.1117e+002 62740 70648,70726,70700
 2.5000e+000 70778 -5.4775e+001 -2.8086e+002  1.1541e+002 62740 70648,70700,70674
 2.5000e+000 70896 -1.4445e+002 -2.6690e+002  6.6936e+001 62740 70726,70648,70870
 2.5000e+000 70919 -2.0359e+002 -1.8970e+002  1.3512e+002 62740 70726,70870,70752
 2.5000e+000 71022 -5.1794e+001  5.1794e+001  6.8948e+002 62520 70944,70996,70970
 2.5000e+000 71223 -9.2130e+002 -4.2782e+002  5.6418e+002 62230 71073,71151,71099
 2.5000e+000 71200 -7.3268e+002 -4.2096e+002  4.9039e+002 62230 71047,71151,71073
 2.5000e+000 71177 -6.4774e+002 -7.8973e+002  4.4679e+002 62230 71099,71151,71125
 2.5000e+000 71861 -1.5477e+002 -2.1679e+002 -6.0636e+001 61712 71515,71697,71671
 2.5000e+000 71838 -1.9033e+002 -2.8770e+002  2.0529e+001 61712 71489,71697,71515
 2.5000e+000 71815 -8.4535e+002 -2.2163e+002  3.5748e+002 61712 71884,71541,71515
 2.5000e+000 71792 -5.9192e+002  3.3195e+001  2.2882e+002 61712 71884,71515,71671
 2.5000e+000 71769 -1.5169e+002 -5.8120e+002  2.0652e+002 61712 71541,71619,71593
 2.5000e+000 71746 -2.0662e+002 -3.2488e+002  1.6542e+002 61712 71619,71671,71645
 2.5000e+000 71723 -2.1761e+002 -5.5730e+002  7.2007e+001 61712 71541,71593,71567
 2.5000e+000 71910 -5.8898e+002 -4.8817e+002  4.8993e+002 61712 71619,71541,71884
 2.5000e+000 71933 -4.4063e+002 -3.0062e+002  3.8757e+002 61712 71619,71884,71671
 2.5000e+000 72230 -6.7070e+002 -4.8805e+002  1.2620e+002 61208 72253,72060,72008
 2.5000e+000 72207 -6.3774e+002 -3.1413e+002  1.0767e+002 61208 72253,72008,71982
 2.5000e+000 72184 -6.6551e+002 -1.9011e+002  9.7865e+001 61208 71982,72112,72086
 2.5000e+000 72161 -1.1077e+003 -4.8634e+002  2.6807e+002 61208 72008,72060,72034
 2.5000e+000 72138 -4.3764e+002 -1.2928e+002  2.2742e+002 61208 71956,72112,71982
 2.5000e+000 72279 -6.5163e+002 -3.6477e+002  5.2775e+001 61208 72086,72060,72253
 2.5000e+000 72302 -6.7294e+002 -2.6532e+002  3.5272e+001 61208 72086,72253,71982
 2.5000e+000 72761 -3.7525e+002 -2.6450e+002  1.0579e+002 60804 72487,72617,72513
 2.5000e+000 72738 -4.5555e+002 -3.8707e+002  1.4035e+002 60804 72487,72643,72617
 2.5000e+000 72715 -1.4142e+002 -5.5384e+002  1.6462e+002 60804 72565,72617,72591
 2.5000e+000 72692 -3.9618e+002 -3.4053e+002  1.9680e+002 60804 72513,72617,72565
 2.5000e+000 72669 -3.5104e+002 -2.9864e+002  1.1276e+002 60804 72513,72565,72539
 2.5000e+000 72911 -5.1794e+001  5.1794e+001  6.8948e+002 60556 72784,72836,72810
 2.5000e+000 72888  5.9407e+002  2.9572e+002  4.1925e+002 60556 72784,72862,72836
 2.5000e+000 73468 -2.8994e+002 -2.5726e+002  1.5678e+002 60244 73491,73226,73200
 2.5000e+000 73445 -3.0681e+002 -2.1069e+002  1.9708e+002 60244 73563,73491,73200
 2.5000e+000 73422 -4.8618e+002 -1.1920e+002  2.0332e+002 60244 73563,73200,73174
 2.5000e+000 73399 -2.3967e+002 -3.7375e+002  1.5165e+002 60244 73226,73278,73252
 2.5000e+000 73376 -3.6063e+002 -2.8049e+002  1.4986e+002 60244 73122,73304,73278
 2.5000e+000 73353 -3.6804e+002 -3.9919e+002  1.7175e+002 60244 73096,73304,73122
 2.5000e+000 73330 -6.3305e+002 -2.6663e+002 -8.6660e+001 60244 73122,73174,73148
 2.5000e+000 73517 -3.7115e+002 -2.9545e+002  1.7159e+002 60244 73278,73226,73491
 2.5000e+000 73540 -3.7121e+002 -2.7923e+002  1.5144e+002 60244 73278,73491,73122
 2.5000e+000 73589 -5.5024e+002 -3.3121e+002  1.4212e+002 60244 73122,73491,73563
 2.5000e+000 73612 -7.1585e+002 -2.2405e+002  1.5871e+002 60244 73122,73563,73174
 2.5000e+000 73762 -2.2872e+002 -5.2678e+002  4.3502e+002 59875 73661,73713,73687
 2.5000e+000 73739 -5.1170e+002 -2.4405e+002  3.1254e+002 59875 73635,73713,73661
 2.5000e+000 74191 -2.6134e+002 -5.8145e+002  4.5995e+002 59478 74214,73894,73868
 2.5000e+000 74168 -5.0901e+002 -5.6243e+002  4.8500e+002 59478 74214,73868,74050
 2.5000e+000 74145 -5.0701e+002 -6.2589e+002  2.4236e+002 59478 73894,73946,73920
 2.5000e+000 74122 -4.1629e+002 -5.9227e+002  2.1830e+002 59478 73894,73998,73946
 2.5000e+000 74099 -1.0807e+003 -5.6813e+002  6.5181e+002 59478 73998,74050,74024
 2.5000e+000 74076 -5.2882e+002 -7.2880e+002  1.5693e+002 59478 73946,73998,73972
 2.5000e+000 74240 -4.8498e+002 -5.1212e+002  3.4817e+002 59478 73998,73894,74214
 2.5000e+000 74263 -7.2790e+002 -5.1079e+002  3.3371e+002 59478 73998,74214,74050
 2.5000e+000 74720 -4.6696e+002 -2.7458e+002  1.6726e+002 58774 74472,74602,74498
 2.5000e+000 74697 -4.3975e+002 -3.1117e+002  1.4460e+002 58774 74446,74602,74472
 2.5000e+000 74674 -5.5277e+002 -2.6063e+002  2.3740e+002 58774 74498,74576,74524
 2.5000e+000 74651 -4.4995e+002 -3.0386e+002  1.8574e+002 58774 74498,74602,74576
 2.5000e+000 74628 -5.7860e+002 -2.2067e+002  1.7627e+002 58774 74524,74576,74550
 2.5000e+000 75226 -3.6335e+002 -3.1978e+002  1.9216e+002 58270 74955,75085,75033
 2.5000e+000 75203 -2.5265e+002 -3.9129e+002  2.5293e+002 58270 74929,75085,74955
 2.5000e+000 75180 -3.4296e+002 -2.0515e+002  2.0001e+002 58270 75033,75085,75059
 2.5000e+000 75157 -3.4016e+002 -3.9652e+002  1.2833e+002 58270 74955,75007,74981
 2.5000e+000 75134 -2.1865e+002 -2.6098e+002  7.2726e+001 58270 74955,75033,75007
 2.5000e+000 75111 -6.5294e+001 -4.3600e+002  1.6104e+002 58270 74903,75085,74929
 2.5000e+000 75425 -4.3770e+002 -2.6751e+002  2.0939e+002 57830 75448,75301,75249
 2.5000e+000 75402 -3.3216e+002 -8.2385e+001  1.2604e+002 57830 75448,75249,75353
 2.5000e+000 75379 -4.6781e+002 -6.1344e+002  1.4040e+002 57830 75520,75301,75275
 2.5000e+000 75474 -4.2149e+002 -3.8268e+002  3.1645e+002 57830 75327,75301,75448
 2.5000e+000 75497 -3.6918e+002 -2.9693e+002  2.3433e+002 57830 75327,75448,75353
 2.5000e+000 75546 -2.7825e+002 -3.5613e+002  5.2805e+001 57830 75249,75301,75520
 2.5000e+000 76261 -2.1260e+002 -3.6142e+002  2.1225e+002 57426 76284,76097,76071
 2.5000e+000 76238 -1.8183e+002 -2.3822e+002  2.0964e+002 57426 75889,76097,75915
 2.5000e+000 76215 -3.1389e+002 -3.9609e+002  2.1328e+002 57426 76428,76284,76071
 2.5000e+000 76192 -2.3596e+002 -3.7173e+002  1.3571e+002 57426 76356,75941,75915
 2.5000e+000 76169 -3.1822e+002 -3.5185e+002  2.0460e+002 57426 76428,76071,76019
 2.5000e+000 76146 -3.5278e+002 -4.5955e+002  1.9493e+002 57426 76019,76071,76045
 2.5000e+000 76123 -3.4154e+002 -3.5713e+002  2.7956e+002 57426 75967,76019,75993
 2.5000e+000 76310 -2.2567e+002 -3.9467e+002  1.6117e+002 57426 75915,76097,76284
 2.5000e+000 76333 -2.5996e+002 -3.8206e+002  1.4555e+002 57426 76356,75915,76284
 2.5000e+000 76382 -2.8817e+002 -3.6137e+002  1.4632e+002 57426 75967,75941,76356
 2.5000e+000 76405 -3.0045e+002 -3.6102e+002  1.5449e+002 57426 75967,76356,76284
 2.5000e+000 76454 -2.9212e+002 -3.5637e+002  2.0062e+002 57426 75967,76284,76428
 2.5000e+000 76477 -3.1669e+002 -3.3192e+002  1.9981e+002 57426 75967,76428,76019
 2.5000e+000 76953 -3.0042e+002 -5.1376e+002  2.8931e+002 56908 76976,76711,76685
 2.5000e+000 76930 -3.0117e+002 -5.2119e+002  3.0239e+002 56908 77048,76976,76685
 2.5000e+000 76907 -5.6598e+002 -5.4876e+002  4.2757e+002 56908 77048,76685,76633
 2.5000e+000 76884 -8.3591e+002 -8.1648e+002  4.6344e+002 56908 76711,76789,76763
 2.5000e+000 76861 -4.5279e+002 -2.8370e+002  1.8381e+002 56908 76581,76789,76607
 2.5000e+000 76838 -7.6584e+002 -5.9432e+002  3.9798e+002 56908 76711,76763,76737
 2.5000e+000 76815 -1.3554e+003 -1.0523e+003  7.6876e+002 56908 76633,76685,76659
 2.5000e+000 77002 -3.7997e+002 -5.4701e+002  2.8875e+002 56908 76789,76711,76976
 2.5000e+000 77025 -3.7640e+002 -2.5672e+002  1.8545e+002 56908 76789,76976,76607
 2.5000e+000 77074 -7.1716e+002 -5.1274e+002  2.9872e+002 56908 76607,76976,77048
 2.5000e+000 77097 -8.5758e+002 -4.2600e+002  4.1012e+002 56908 76607,77048,76633
 2.5000e+000 77475 -3.1613e+002 -3.6075e+002  2.9647e+002 56546 77570,77498,77279
 2.5000e+000 77452 -2.3330e+002 -5.3045e+002  3.7862e+002 56546 77498,77227,77357
 2.5000e+000 77429 -3.5601e+002 -4.0326e+002  3.3690e+002 56546 77570,77279,77253
 2.5000e+000 77406 -5.1464e+002 -6.5572e+002  4.1373e+002 56546 77201,77357,77227
 2.5000e+000 77383 -3.8501e+002 -4.0354e+002  1.3571e+002 56546 77279,77331,77305
 2.5000e+000 77524 -2.7803e+002 -1.5342e+002  2.8246e+002 56546 77331,77279,77498
 2.5000e+000 77547 -1.4637e+002 -3.1658e+002  4.5300e+002 56546 77331,77498,77357
 2.5000e+000 77596 -3.4452e+002 -3.7166e+002  3.8129e+002 56546 77227,77498,77570
 2.5000e+000 77619 -4.0532e+002 -5.0228e+002  4.2246e+002 56546 77227,77570,77253
 2.5000e+000 77818 -3.7588e+002 -3.7245e+002  3.2810e+002 56042 77841,77694,77668
 2.5000e+000 77795 -3.3867e+002 -3.4071e+002  2.5543e+002 56042 77841,77668,77746
 2.5000e+000 77772 -4.3121e+002 -3.2552e+002  2.1339e+002 56042 77642,77746,77668
 2.5000e+000 77867 -4.1531e+002 -4.2884e+002  3.5896e+002 56042 77720,77694,77841
 2.5000e+000 77890 -3.6966e+002 -3.8725e+002  2.8483e+002 56042 77720,77841,77746
 2.5000e+000 78349 -5.3465e+002 -1.5106e+002  2.0939e+002 55538 78075,78127,78101
 2.5000e+000 78326 -6.6861e+002 -3.6757e+002  1.2537e+002 55538 78075,78205,78127
 2.5000e+000 78303 -5.8119e+002 -7.8512e+001  8.1584e+001 55538 78075,78231,78205
 2.5000e+000 78280 -5.8406e+002 -6.2008e+002  3.5546e+002 55538 78127,78179,78153
 2.5000e+000 78257 -4.9924e+002 -3.7454e+002  1.1238e+002 55538 78127,78205,78179
 2.5000e+000 78806 -3.1245e+002 -3.4778e+002  1.1706e+002 55034 78829,78636,78610
 2.5000e+000 78783 -3.5104e+002 -3.6897e+002  1.3246e+002 55034 78901,78829,78610
 2.5000e+000 78760 -3.0509e+002 -4.0219e+002  1.6473e+002 55034 78901,78610,78584
 2.5000e+000 78737 -3.7874e+002 -2.9049e+002  1.4954e+002 55034 78558,78688,78662
 2.5000e+000 78714 -4.2548e+002 -3.1940e+002  3.0158e+002 55034 78532,78688,78558
 2.5000e+000 78855 -3.5065e+002 -3.6519e+002  1.0771e+002 55034 78662,78636,78829
 2.5000e+000 78878 -3.6522e+002 -3.3032e+002  1.4947e+002 55034 78662,78829,78558
 2.5000e+000 78927 -3.0480e+002 -3.0108e+002  1.6061e+002 55034 78558,78829,78901
 2.5000e+000 78950 -2.7996e+002 -3.3363e+002  1.9107e+002 55034 78558,78901,78584
 2.5000e+000 79407 -1.8497e+002 -2.2031e+002  2.1699e+002 54430 79430,79237,79159
 2.5000e+000 79384 -1.5839e+002 -3.5564e+002  7.9917e+001 54430 79430,79159,79133
 2.5000e+000 79361 -2.1897e+002 -2.7390e+002  1.2667e+002 54430 79237,79289,79263
 2.5000e+000 79338 -2.1670e+002 -2.6843e+002  1.6223e+002 54430 79185,79237,79211
 2.5000e+000 79315 -4.2155e+002 -2.9311e+002  2.6021e+002 54430 79159,79237,79185
 2.5000e+000 79456 -2.0471e+002 -3.7358e+002  1.6687e+002 54430 79289,79237,79430
 2.5000e+000 79479 -1.8718e+002 -5.7968e+002  6.0846e+001 54430 79289,79430,79133
 2.5000e+000 79936 -1.9158e+002 -2.1789e+002  2.2058e+002 53919 79662,79766,79688
 2.5000e+000 79913 -6.9676e+002 -3.4939e+002  3.9257e+002 53919 79662,79818,79766
 2.5000e+000 79890 -9.0753e+002 -3.8871e+002  7.6871e+001 53919 79766,79818,79792
 2.5000e+000 79867 -4.6820e+002 -4.1398e+002  2.2627e+002 53919 79714,79766,79740
 2.5000e+000 79844 -4.8468e+002 -3.6223e+002  2.6737e+002 53919 79688,79766,79714
 2.5000e+000 80037 -2.0104e+002 -4.9794e+002  3.8230e+002 53671 79959,80011,79985
 2.5000e+000 80405 -1.2630e+002 -3.4405e+002  1.1163e+002 53267 80108,80264,80238
 2.5000e+000 80382 -1.7472e+002 -2.4676e+002  1.4034e+002 53267 80082,80264,80108
 2.5000e+000 80359 -1.4002e+002 -4.7228e+002  2.3805e+002 53267 80108,80238,80134
 2.5000e+000 80336 -7.7350e+001 -2.7466e+002  1.8645e+002 53267 80134,80212,80186
 2.5000e+000 80313 -3.0694e+002 -4.5215e+002  2.9916e+002 53267 80134,80238,80212
 2.5000e+000 80290 -4.3653e+001 -3.3181e+002  1.3950e+002 53267 80134,80186,80160
 2.5000e+000 80915 -5.0006e+002 -7.1355e+002  4.2108e+001 52969 80644,80774,80748
 2.5000e+000 80892 -4.0235e+002 -3.4498e+002  6.2393e+000 52969 80618,80774,80644
 2.5000e+000 80869 -5.9705e+002 -8.5132e+002 -2.4960e+001 52969 80644,80748,80670
 2.5000e+000 80846 -5.9361e+002 -3.7613e+002  2.4594e+001 52969 80592,80774,80618
 2.5000e+000 80823 -1.2208e+003 -9.9436e+002  1.6246e+002 52969 80670,80722,80696
 2.5000e+000 80800 -5.7952e+002 -7.6873e+002 -3.5832e+001 52969 80670,80748,80722
 2.5000e+000 81266  9.4173e+001 -5.4262e+001  3.7310e+001 52565 81041,81145,81067
 2.5000e+000 81243  6.8564e+001 -1.4814e+002  5.1118e+001 52565 81041,81171,81145
 2.5000e+000 81220 -2.0393e+002 -6.8883e+002  1.6489e+002 52565 81067,81119,81093
 2.5000e+000 81197  1.3591e+002  2.0891e+001  5.6013e+001 52565 81067,81145,81119
 2.5000e+000 81723 -8.6208e+001 -2.0843e+000  3.1517e+001 51904 81449,81527,81475
 2.5000e+000 81700 -1.0446e+002 -7.1877e+000  5.0738e+001 51904 81449,81579,81527
 2.5000e+000 81677 -3.4896e+002 -6.6440e+001  6.4656e+001 51904 81449,81605,81579
 2.5000e+000 81654 -2.2192e+002  1.9941e+001  3.9306e+001 51904 81527,81579,81553
 2.5000e+000 81631 -7.9144e+001  1.5933e+001  1.4770e+001 51904 81475,81527,81501
 2.5000e+000 82327 -4.4451e+002 -4.1567e+002  2.9732e+002 51321 82422,82350,82036
 2.5000e+000 82304 -4.8457e+002 -3.0228e+002  3.2539e+002 51321 82494,82350,81958
 2.5000e+000 82281 -4.5509e+002 -4.3598e+002  2.8592e+002 51321 82422,82036,82010
 2.5000e+000 82258 -5.1173e+002 -3.1444e+002  3.2777e+002 51321 82494,81958,81932
 2.5000e+000 82235 -4.7496e+002 -2.0679e+002  1.3925e+002 51321 82062,82114,82088
 2.5000e+000 82212 -1.1556e+003 -7.2700e+002  4.9201e+002 51321 81932,82140,82114
 2.5000e+000 82189 -4.8824e+002 -1.5579e+002  2.7007e+002 51321 81958,82010,81984
 2.5000e+000 82166 -1.7917e+002 -3.7937e+002  1.4046e+002 51321 81906,82140,81932
 2.5000e+000 82376 -4.5649e+002 -5.0120e+002  2.9188e+002 51321 82062,82036,82350
 2.5000e+000 82399 -4.6063e+002 -3.7318e+002  2.7109e+002 51321 82062,82350,82114
 2.5000e+000 82448 -4.3419e+002 -3.9538e+002  3.2089e+002 51321 81958,82350,82422
 2.5000e+000 82471 -4.4249e+002 -4.1389e+002  3.0990e+002 51321 81958,82422,82010
 2.5000e+000 82520 -4.9203e+002 -3.0517e+002  3.1019e+002 51321 82114,82350,82494
 2.5000e+000 82543 -4.9563e+002 -3.0688e+002  3.1155e+002 51321 82114,82494,81932
 2.5000e+000 83019 -4.6170e+002 -1.1204e+003  1.1629e+001 50817 82673,82751,82699
 2.5000e+000 82996 -3.8282e+002 -7.0086e+002  1.3950e+002 50817 83042,82673,82855
 2.5000e+000 82973 -4.6085e+002 -5.7137e+002  1.0490e+002 50817 83042,82855,82803
 2.5000e+000 82950 -7.2945e+002 -6.0669e+002  1.2759e+002 50817 82751,82803,82777
 2.5000e+000 82927 -3.6020e+002 -6.0599e+002  2.2258e+002 50817 82647,82855,82673
 2.5000e+000 82904 -6.8920e+002 -6.2545e+002  3.0793e+002 50817 82803,82855,82829
 2.5000e+000 82881 -4.7822e+002 -1.3667e+003 -8.6096e+001 50817 82699,82751,82725
 2.5000e+000 83068 -2.7559e+002 -6.0061e+002  8.4574e+001 50817 82751,82673,83042
 2.5000e+000 83091 -4.1232e+002 -5.0914e+002  6.8962e+001 50817 82751,83042,82803
 2.5000e+000 83290 -4.7953e+002 -1.8154e+002  2.6437e+002 50356 83313,83166,83140
 2.5000e+000 83267 -5.0884e+002 -3.4928e+002  2.1982e+002 50356 83515,83313,83140
 2.5000e+000 83244 -5.9634e+002 -3.4241e+002  8.0436e+001 50356 83515,83140,83385
 2.5000e+000 83339 -6.1663e+002 -2.8568e+002  3.3893e+002 50356 83192,83166,83313
 2.5000e+000 83362 -3.6219e+002 -2.3722e+002  3.1613e+002 50356 83192,83313,83218
 2.5000e+000 83411 -1.9714e+002 -1.2842e+002  1.4052e+002 50356 83114,83218,83385
 2.5000e+000 83541 -2.8036e+002 -2.7396e+002  2.1365e+002 50356 83218,83313,83515
 2.5000e+000 83564 -3.0244e+002 -2.2247e+002  9.2661e+001 50356 83218,83515,83385
 2.5000e+000 83893 -5.3102e+002 -5.4296e+002  7.6030e+001 49552 83720,83798,83746
 2.5000e+000 83870 -3.3846e+002 -2.4531e+002  2.0662e+002 49552 83694,83798,83720
 2.5000e+000 83847 -2.2541e+002 -2.7111e+002  2.1298e+002 49552 83668,83798,83694
 2.5000e+000 83824 -1.1714e+003 -3.7700e+002 -9.9759e+001 49552 83746,83798,83772
 2.5000e+000 84141 -5.7200e+002 -3.9219e+002  2.4969e+002 49212 84164,84020,83942
 2.5000e+000 84118 -5.2528e+002 -2.3872e+002  3.2910e+002 49212 84164,83942,83916
 2.5000e+000 84095 -4.9763e+002 -5.0157e+002  1.8351e+002 49212 83942,84020,83968
 2.5000e+000 84072 -3.9615e+002 -4.1268e+001  1.3095e+002 49212 83968,84020,83994
 2.5000e+000 84190 -6.4495e+002 -3.7515e+002  1.5902e+002 49212 84046,84020,84164
 2.5000e+000 84213 -5.8671e+002 -2.6930e+002  2.3919e+002 49212 84046,84164,83916
 2.5000e+000 84800 -1.3434e+002 -1.8869e+002  1.3217e+002 48865 84503,84633,84555
 2.5000e+000 84777 -1.8017e+002 -2.6602e+002  1.0944e+002 48865 84503,84659,84633
 2.5000e+000 84754 -1.4899e+002 -2.4836e+002  1.1270e+002 48865 84555,84633,84581
 2.5000e+000 84731 -1.5076e+002 -6.1579e+002  2.8010e+002 48865 84581,84633,84607
 2.5000e+000 84708 -3.7765e+002 -2.5728e+002  1.0893e+002 48865 84503,84555,84529
 2.5000e+000 84685 -1.5829e+002 -2.6479e+002  5.5679e+001 48865 84477,84659,84503
 2.5000e+000 85355 -2.7555e+002 -3.1290e+002  2.0401e+001 48461 85378,85035,85009
 2.5000e+000 85332 -4.5268e+002 -4.5061e+002  9.7040e+001 48461 85378,85009,85165
 2.5000e+000 85309 -4.3321e+002 -4.5573e+002  1.3994e+002 48461 85450,85061,85035
 2.5000e+000 85286 -4.3316e+002 -4.3596e+002  8.4999e+001 48461 85009,85191,85165
 2.5000e+000 85263 -3.7273e+002 -3.9040e+002  2.5435e+002 48461 85087,85165,85113
 2.5000e+000 85240 -2.0300e+002 -5.5643e+002 -7.9250e+001 48461 84983,85191,85009
 2.5000e+000 85217 -3.1290e+002 -4.8320e+002  1.6075e+002 48461 85113,85165,85139
 2.5000e+000 85404 -4.3145e+002 -3.8568e+002  1.0473e+002 48461 85450,85035,85378
 2.5000e+000 85427 -4.6333e+002 -4.1976e+002  1.1765e+002 48461 85087,85378,85165
 2.5000e+000 85476 -4.4128e+002 -5.5432e+002  1.6860e+002 48461 85087,85061,85450
 2.5000e+000 85499 -4.5020e+002 -5.1142e+002  1.2724e+002 48461 85087,85450,85378
 2.5000e+000 86084 -1.5611e+002 -4.2233e+002  1.9102e+002 48057 86323,86107,85787
 2.5000e+000 86061 -2.3787e+002 -4.9452e+002  2.3297e+002 48057 86107,85761,85943
 2.5000e+000 86038 -3.2653e+002 -3.6502e+002  1.7754e+002 48057 86251,86179,85891
 2.5000e+000 86015 -3.2703e+002 -3.1969e+002  1.1801e+002 48057 86251,85891,85839
 2.5000e+000 85992 -2.6571e+002 -2.9451e+002  2.2038e+002 48057 85891,85943,85917
 2.5000e+000 85969 -4.1449e+002 -2.5105e+002  1.7149e+002 48057 85839,85891,85865
 2.5000e+000 86133 -1.8343e+002 -4.5998e+002  1.5880e+002 48057 85813,85787,86107
 2.5000e+000 86156 -2.5555e+002 -4.4506e+002  1.5064e+002 48057 86179,85813,86107
 2.5000e+000 86205 -2.5690e+002 -2.8943e+002  2.0647e+002 48057 85943,85891,86179
 2.5000e+000 86228 -1.6338e+002 -3.4115e+002  2.0376e+002 48057 85943,86179,86107
 2.5000e+000 86277 -2.1691e+002 -3.1256e+002  1.6170e+002 48057 85813,86179,86251
 2.5000e+000 86300 -2.7490e+002 -2.9547e+002  1.1038e+002 48057 85813,86251,85839
 2.5000e+000 86349 -1.3033e+002 -4.1086e+002  1.9537e+002 48057 85761,86107,86323
 2.5000e+000 86855 -1.5189e+002 -2.7790e+002  1.5420e+002 47545 86878,86584,86558
 2.5000e+000 86832 -2.0391e+002 -3.0149e+002  1.4468e+002 47545 86950,86878,86558
 2.5000e+000 86809 -2.2454e+002 -2.4653e+002  1.6261e+002 47545 86950,86558,86532
 2.5000e+000 86786 -1.3804e+002 -3.1624e+002  1.7279e+002 47545 86584,86662,86610
 2.5000e+000 86763 -3.0063e+002 -6.7111e+001  6.0472e+001 47545 86532,86714,86688
 2.5000e+000 86740 -2.2085e+002 -1.4626e+002  1.6207e+002 47545 86610,86662,86636
 2.5000e+000 86904 -1.6297e+002 -3.3777e+002  1.6331e+002 47545 86662,86584,86878
 2.5000e+000 86927 -9.9919e+001 -2.8954e+002  1.2347e+002 47545 86662,86878,86688
 2.5000e+000 86976 -1.4915e+002 -2.2542e+002  1.1899e+002 47545 86688,86878,86950
 2.5000e+000 86999 -2.0286e+002 -2.2329e+002  1.5006e+002 47545 86688,86950,86532
 2.5000e+000 87328 -5.9978e+002 -2.6414e+002  2.1187e+002 47048 87155,87207,87181
 2.5000e+000 87305 -3.6182e+002 -2.6769e+002  1.7947e+002 47048 87129,87207,87155
 2.5000e+000 87282 -6.7779e+002 -4.3733e+002  2.4344e+002 47048 87103,87207,87129
 2.5000e+000 87259 -1.0799e+003 -1.5533e+003 -6.2514e+001 47048 87103,87233,87207
 2.5000e+000 87576 -1.8801e+002 -4.8081e+002  2.5674e+002 46701 87599,87429,87377
 2.5000e+000 87553 -2.8819e+002 -4.9918e+002  2.4974e+002 46701 87599,87377,87481
 2.5000e+000 87530 -2.8814e+002 -5.0061e+002  2.4786e+002 46701 87351,87481,87377
 2.5000e+000 87507 -2.9970e+002 -4.4450e+002  3.1833e+002 46701 87377,87429,87403
 2.5000e+000 87625 -2.3863e+002 -3.6305e+002  1.4995e+002 46701 87455,87429,87599
 2.5000e+000 87648 -5.0140e+002 -4.7215e+002  1.8347e+002 46701 87455,87599,87481
 2.5000e+000 87798 -1.0510e+001 -1.4074e+002  3.1344e+001 46239 87697,87749,87723
 2.5000e+000 87775 -1.0150e+002 -5.0397e+002  1.0741e+002 46239 87671,87749,87697
 2.5000e+000 88308 -6.1725e+002 -6.6642e+002  1.3717e+002 45735 88089,88167,88141
 2.5000e+000 88285 -4.4202e+002 -2.9151e+002  1.8937e+002 45735 88011,88167,88089
 2.5000e+000 88262 -2.6115e+002 -2.6253e+002  1.3707e+002 45735 87985,88167,88011
 2.5000e+000 88239 -3.3276e+002 -1.2052e+003  3.2830e+002 45735 88011,88089,88063
 2.5000e+000 88216 -7.5190e+002 -7.2149e+002  1.4504e+002 45735 88089,88141,88115
 2.5000e+000 88193 -6.7776e+002 -1.8054e+003  6.8742e+001 45735 88011,88063,88037
 2.5000e+000 88686 -4.9213e+002 -2.0354e+002  3.1011e+002 45316 88438,88516,88490
 2.5000e+000 88663 -4.5181e+002  1.4499e+002  4.3850e+002 45316 88438,88542,88516
 2.5000e+000 88640 -2.3901e+002 -4.7563e+002  5.4263e+002 45316 88438,88568,88542
 2.5000e+000 88617 -5.5359e+002 -4.1593e+002  2.5618e+002 45316 88438,88490,88464
 2.5000e+000 88594 -4.8843e+002 -5.1631e+002  5.4864e+002 45316 88412,88568,88438
 2.5000e+000 88934 -8.9187e+002 -8.2008e+002  5.0730e+002 44812 88957,88735,88709
 2.5000e+000 88911 -4.7083e+002 -4.9337e+002  1.9211e+002 44812 88957,88709,88839
 2.5000e+000 88888 -4.5669e+002 -3.1768e+002  8.9899e+001 44812 89029,88787,88761
 2.5000e+000 88865 -4.0891e+002 -3.5061e+002  1.2917e+002 44812 88787,88839,88813
 2.5000e+000 88983 -2.2381e+002 -4.7284e+002  3.1206e+002 44812 88761,88735,88957
 2.5000e+000 89006 -3.9071e+002 -3.9453e+002  7.0761e+001 44812 89029,88761,88957
 2.5000e+000 89055 -4.2703e+002 -4.0787e+002  1.2545e+002 44812 88839,88787,89029
 2.5000e+000 89078 -4.3204e+002 -5.6096e+002  1.3089e+002 44812 88839,89029,88957
 2.5000e+000 89228 -9.2597e+001 -3.3191e+002  2.6959e+002 44408 89127,89179,89153
 2.5000e+000 89205  2.4341e+001  4.0777e+000 -4.9223e-001 44408 89101,89179,89127
 2.5000e+000 89787 -5.0427e+002 -2.7942e+002  2.6093e+002 43854 89810,89545,89519
 2.5000e+000 89764 -5.4950e+002 -3.8060e+002  2.3123e+002 43854 89810,89519,89467
 2.5000e+000 89741 -5.1875e+002 -5.3058e+002  2.2889e+002 43854 89954,89882,89597
 2.5000e+000 89718 -5.2079e+002 -5.4906e+002  2.2536e+002 43854 89954,89597,89571
 2.5000e+000 89695 -2.7160e+002 -3.0876e+002  2.0762e+002 43854 89415,89623,89467
 2.5000e+000 89672 -2.1628e+002 -2.3370e+002  1.5227e+002 43854 89467,89519,89493
 2.5000e+000 89649 -1.6595e+002 -2.3999e+002  1.6301e+002 43854 89415,89467,89441
 2.5000e+000 89836 -5.1266e+002 -2.8632e+002  2.8008e+002 43854 89882,89545,89810
 2.5000e+000 89859 -2.9616e+002 -3.3775e+002  1.9326e+002 43854 89623,89810,89467
 2.5000e+000 89908 -5.0482e+002 -5.8699e+002  3.1249e+002 43854 89623,89597,89882
 2.5000e+000 89931 -4.9460e+002 -5.5041e+002  2.8670e+002 43854 89623,89882,89810
 2.5000e+000 89980 -5.3596e+002 -4.9622e+002  3.4522e+002 43854 89545,89882,89954
 2.5000e+000 90003 -5.7385e+002 -5.9642e+002  3.5828e+002 43854 89545,89954,89571
 2.5000e+000 90251 -2.2427e+002 -2.2775e+002  1.8521e+002 43492 90026,90078,90052
 2.5000e+000 90228 -4.6964e+002 -2.9939e+002  1.3569e+002 43492 90274,90026,90156
 2.5000e+000 90205 -4.4225e+002 -3.6553e+002  1.3702e+002 43492 90346,90274,90156
 2.5000e+000 90182 -4.6980e+002 -5.2004e+002  4.1287e+002 43492 90346,90156,90130
 2.5000e+000 90300 -2.9716e+002 -3.8819e+002  2.0199e+002 43492 90078,90026,90274
 2.5000e+000 90323 -5.2940e+002 -4.4919e+002  2.0905e+002 43492 90078,90274,90104
 2.5000e+000 90372 -7.7225e+002 -5.7886e+002  3.1810e+002 43492 90104,90274,90346
 2.5000e+000 90395 -8.2050e+002 -7.8267e+002  6.0299e+002 43492 90104,90346,90130
 2.5000e+000 90594 -1.3469e+002 -5.3320e+002  1.5881e+002 43052 90418,90496,90444
 2.5000e+000 90571 -4.8029e+002 -8.0525e+002  2.7726e+002 43052 90418,90522,90496
 2.5000e+000 90548 -3.0811e+002 -3.7510e+002  1.9580e+002 43052 90444,90496,90470
 2.5000e+000 91074 -3.4646e+002 -5.7083e+002  2.0735e+002 42434 91241,90884,90858
 2.5000e+000 91051 -6.1184e+002 -6.8632e+002 -5.4731e+001 42434 90702,90910,90884
 2.5000e+000 91028 -3.1589e+002 -5.0799e+002  2.1023e+002 42434 91097,90754,90702
 2.5000e+000 91005 -3.6307e+002 -4.2637e+002  2.0530e+002 42434 91241,90858,91097
 2.5000e+000 90982 -2.1222e+002 -3.7542e+002  9.9776e+001 42434 91169,90806,90780
 2.5000e+000 90959 -1.2542e+002 -3.7800e+002  5.0093e+001 42434 90806,90858,90832
 2.5000e+000 90936 -2.5642e+002 -5.0321e+002  2.2598e+002 42434 90702,90754,90728
 2.5000e+000 91123 -3.7057e+002 -5.2399e+002  1.7867e+002 42434 90780,90754,91097
 2.5000e+000 91146 -3.6897e+002 -4.5758e+002  1.9936e+002 42434 91169,90780,91097
 2.5000e+000 91195 -1.5061e+002 -3.4923e+002  2.6576e+001 42434 90858,90806,91169
 2.5000e+000 91218 -2.2219e+002 -2.8379e+002  9.8757e+001 42434 90858,91169,91097
 2.5000e+000 91267 -3.1737e+002 -7.2861e+002  1.4986e+002 42434 90702,90884,91241
 2.5000e+000 91290 -3.5047e+002 -6.0277e+002  1.4693e+002 42434 90702,91241,91097
 2.5000e+000 91698 -1.2103e+002 -4.2458e+002  1.7263e+002 41773 91473,91577,91499
 2.5000e+000 91675 -2.1778e+002 -4.9954e+002  2.2727e+002 41773 91473,91603,91577
 2.5000e+000 91652 -2.3357e+002 -3.2802e+002  6.2235e+001 41773 91499,91551,91525
 2.5000e+000 91629 -3.1254e+002 -3.6516e+002  1.6504e+002 41773 91499,91577,91551
 2.5000e+000 92044 -3.5529e+002 -4.2893e+002  2.9298e+002 41383 91773,91877,91851
 2.5000e+000 92021 -2.3169e+002 -5.3567e+002  1.7663e+002 41383 91747,91877,91773
 2.5000e+000 91998 -2.5251e+002 -2.8414e+002  2.1295e+002 41383 91773,91851,91799
 2.5000e+000 91975 -1.6350e+002 -3.5551e+002  1.7176e+001 41383 91747,91903,91877
 2.5000e+000 91952 -1.3759e+002 -2.5426e+002  1.1046e+002 41383 91721,91903,91747
 2.5000e+000 91929 -1.0991e+002 -3.2998e+002  1.5089e+002 41383 91799,91851,91825
 2.5000e+000 92601 -4.5072e+002 -3.9903e+002  1.2518e+002 40979 92229,92411,92307
 2.5000e+000 92578 -5.8214e+002 -4.1405e+002  1.1166e+002 40979 92229,92437,92411
 2.5000e+000 92555 -4.1056e+002 -2.9189e+002  1.1787e+002 40979 92229,92307,92281
 2.5000e+000 92532 -3.5970e+002 -3.8677e+002  1.9563e+002 40979 92333,92411,92385
 2.5000e+000 92509 -3.6472e+002 -3.4023e+002  1.5138e+002 40979 92307,92411,92333
 2.5000e+000 92486 -4.3625e+002 -3.4134e+002  1.0825e+002 40979 92229,92281,92255
 2.5000e+000 92463 -4.4458e+001 -3.6699e+002  1.4310e+002 40979 92333,92385,92359
 2.5000e+000 93235 -4.8875e+002 -2.9117e+002  3.7655e+002 40525 92941,92993,92967
 2.5000e+000 93212 -7.1340e+002 -1.5030e+002  7.8135e+001 40525 93258,92941,92889
 2.5000e+000 93189 -5.4903e+002 -6.9580e+001  4.3232e+001 40525 93258,92889,93071
 2.5000e+000 93166 -6.0907e+002 -2.2913e+002  6.0703e+001 40525 92889,92941,92915
 2.5000e+000 93143 -6.1360e+002 -4.6853e+001  3.6677e+001 40525 92863,93071,92889
 2.5000e+000 93120 -5.1542e+002 -2.6789e+002  1.7302e+002 40525 92993,93071,93019
 2.5000e+000 93097 -5.4333e+002 -1.9181e+002  1.4356e+002 40525 93019,93071,93045
 2.5000e+000 93284 -8.0078e+002 -2.6612e+002  2.6775e+002 40525 92993,92941,93258
 2.5000e+000 93307 -4.8253e+002 -9.2024e+001  2.0059e+002 40525 92993,93258,93071
 2.5000e+000 93636 -5.8152e+002 -4.5031e+002  4.8290e+002 40235 93437,93541,93515
 2.5000e+000 93613 -5.0724e+002 -6.2082e+002  4.4649e+002 40235 93411,93541,93437
 2.5000e+000 93590 -9.7546e+001 -5.5982e+002  1.5494e+002 40235 93463,93515,93489
 2.5000e+000 93567 -2.5027e+002 -3.7846e+002  8.0919e+001 40235 93437,93515,93463
 2.5000e+000 94014 -6.2197e+002 -5.7080e+002  2.8815e+002 39873 93766,93870,93792
 2.5000e+000 93991 -5.1429e+002 -6.4883e+002  2.2114e+002 39873 93766,93896,93870
 2.5000e+000 93968 -5.7551e+002 -4.4085e+002  3.0452e+002 39873 93792,93870,93844
 2.5000e+000 93945 -4.1201e+002 -3.3137e+002  2.2512e+002 39873 93792,93844,93818
 2.5000e+000 93922 -3.9130e+002 -5.9354e+002  3.9949e+002 39873 93740,93896,93766
 2.5000e+000 94164 -4.8233e+001 -3.5614e+002  1.2590e+002 39461 94037,94089,94063
 2.5000e+000 94141 -1.3121e+002 -6.6676e+002  2.5309e+002 39461 94037,94115,94089
 2.5000e+000 94363 -3.1255e+002 -2.1311e+002  1.7989e+002 39057 94386,94239,94213
 2.5000e+000 94340 -2.0858e+002 -1.3571e+002  1.3855e+002 39057 94386,94213,94187
 2.5000e+000 94317 -3.4495e+002 -2.5563e+002  1.6824e+002 39057 94187,94291,94265
 2.5000e+000 94412 -1.3431e+002 -1.6724e+002  1.5120e+002 39057 94458,94386,94265
 2.5000e+000 94435 -2.4417e+002 -2.1499e+002  1.4567e+002 39057 94265,94386,94187
 2.5000e+000 94484 -2.8385e+002 -2.8534e+002  2.1371e+002 39057 94239,94386,94458
 2.5000e+000 94896 -5.8571e+002 -4.1955e+002  2.7340e+002 38396 94919,94775,94723
 2.5000e+000 94873 -6.6597e+002 -3.3308e+002  2.7621e+002 38396 94919,94723,94697
 2.5000e+000 94850 -4.6392e+002 -3.9056e+002  1.9845e+002 38396 94723,94775,94749
 2.5000e+000 94827 -2.9677e+002 -1.7789e+002  1.8328e+002 38396 94671,94801,94697
 2.5000e+000 94945 -5.7475e+002 -3.6131e+002  2.4047e+002 38396 94801,94775,94919
 2.5000e+000 94968 -6.1858e+002 -2.5222e+002  2.2774e+002 38396 94801,94919,94697
 2.5000e+000 95265 -6.0384e+002 -5.7961e+002  2.8878e+002 37835 95017,95069,95043
 2.5000e+000 95242 -6.1357e+002 -5.0191e+002  2.9070e+002 37835 95288,95069,95017
 2.5000e+000 95219 -6.5873e+002 -5.5726e+002  3.9274e+002 37835 95288,95017,94991
 2.5000e+000 95196 -7.1246e+002 -5.8292e+002  3.5362e+002 37835 94991,95147,95121
 2.5000e+000 95173 -4.1720e+002 -2.9350e+002  2.5227e+002 37835 95069,95121,95095
 2.5000e+000 95314 -5.9975e+002 -3.6177e+002  2.2766e+002 37835 95121,95069,95288
 2.5000e+000 95337 -6.4204e+002 -4.4803e+002  3.2345e+002 37835 95121,95288,94991
 2.5000e+000 95558  9.7162e+001 -5.8319e+000  1.2394e+002 37423 95408,95460,95434
 2.5000e+000 95535 -1.4575e+002 -6.4342e+002  3.2667e+002 37423 95382,95460,95408
 2.5000e+000 95512 -3.2513e+002 -7.8846e+002  3.9009e+002 37423 95382,95486,95460
 2.5000e+000 95891 -5.7161e+001 -3.6748e+002  1.3570e+002 37225 95666,95718,95692
 2.5000e+000 95868 -2.9710e+002 -5.0646e+002  2.1677e+002 37225 95666,95796,95718
 2.5000e+000 95845 -2.6466e+002 -3.8641e+002  7.3408e+001 37225 95718,95770,95744
 2.5000e+000 95822 -1.5552e+002 -3.4444e+002  8.3436e+001 37225 95718,95796,95770
 2.5000e+000 95992 -3.4709e+001 -2.9643e+002  1.5352e+002 36735 95914,95966,95940
 2.5000e+000 96142 -6.6418e+002 -2.6832e+002  3.3899e+002 36331 96297,96067,96041
 2.5000e+000 96119 -5.3183e+002 -2.6401e+002  3.3529e+002 36331 96165,96041,96015
 2.5000e+000 96191 -6.3060e+002 -2.6316e+002  3.2168e+002 36331 96297,96041,96165
 2.5000e+000 96323 -7.3140e+002 -2.8625e+002  4.0911e+002 36331 96093,96067,96297
 2.5000e+000 96346 -6.3247e+002 -2.5259e+002  3.9571e+002 36331 96093,96297,96165
 2.5000e+000 96714 -3.7029e+002 -5.7394e+002  3.8605e+002 36041 96737,96495,96443
 2.5000e+000 96691 -5.2153e+002 -4.1565e+002  3.8581e+002 36041 96737,96443,96417
 2.5000e+000 96668 -1.5087e+002 -6.3166e+002  5.2008e+001 36041 96443,96495,96469
 2.5000e+000 96645 -1.2576e+002 -1.5335e+002  2.0826e+002 36041 96391,96521,96417
 2.5000e+000 96622 -6.2944e+000 -2.0537e+002  1.7710e+002 36041 96391,96547,96521
 2.5000e+000 96599 -6.6070e+001 -2.1947e+002  1.6710e+002 36041 96391,96573,96547
 2.5000e+000 96763 -1.5978e+002 -4.4152e+002  3.2933e+002 36041 96521,96495,96737
 2.5000e+000 96786 -4.4166e+002 -3.8006e+002  3.6249e+002 36041 96521,96737,96417
 2.5000e+000 96936 -3.4274e+002 -2.0993e+002  2.2076e+002 35637 97031,96959,96835
 2.5000e+000 96913 -4.8105e+002 -2.4828e+002  2.4523e+002 35637 97163,96959,96809
 2.5000e+000 96985 -4.7817e+002 -1.7458e+002  2.5629e+002 35637 96861,96835,96959
 2.5000e+000 97008 -6.2676e+002 -3.1741e+002  4.1642e+002 35637 96861,96959,96887
 2.5000e+000 97057 -3.8839e+002 -1.4031e+002  1.4595e+002 35637 96809,96959,97031
 2.5000e+000 97189 -4.0491e+002 -2.0997e+002  2.6746e+002 35637 96887,96959,97163
 2.5000e+000 97597 -2.9475e+002 -3.5382e+002  3.1098e+002 35190 97450,97502,97476
 2.5000e+000 97574 -3.1064e+002 -4.1104e+002  3.6633e+002 35190 97372,97502,97450
 2.5000e+000 97551 -3.2493e+002 -4.9932e+002  3.4879e+002 35190 97372,97450,97398
 2.5000e+000 97528 -2.7383e+002 -4.6757e+002  3.2532e+002 35190 97398,97450,97424
 2.5000e+000 98054 -3.8503e+002 -4.7599e+002  3.5736e+002 34636 97806,97936,97858
 2.5000e+000 98031 -6.1162e+002 -3.4439e+002  3.0290e+002 34636 97780,97936,97806
 2.5000e+000 98008 -5.4740e+002 -4.6449e+002  1.8346e+002 34636 97806,97858,97832
 2.5000e+000 97985 -4.2311e+002 -4.8991e+002  3.6450e+002 34636 97884,97936,97910
 2.5000e+000 97962 -2.5113e+002 -3.3147e+002  2.7467e+002 34636 97858,97936,97884
 2.5000e+000 98530 -4.6094e+002 -2.9529e+001  7.4512e+001 34068 98697,98184,98366
 2.5000e+000 98507 -1.3223e+001 -5.6262e+001  3.7229e+001 34068 98158,98366,98184
 2.5000e+000 98484 -6.0052e+002 -5.3202e+002  2.3589e+002 34068 98553,98262,98236
 2.5000e+000 98461 -1.0682e+003 -7.2221e+002  1.7759e+002 34068 98553,98236,98210
 2.5000e+000 98438 -5.6401e+002 -3.0581e+002  2.0218e+002 34068 98841,98625,98366
 2.5000e+000 98415 -5.9684e+002 -8.3482e+002  3.8960e+002 34068 98769,98288,98262
 2.5000e+000 98392 -7.4130e+002 -1.7610e+002  1.6952e+002 34068 98841,98366,98340
 2.5000e+000 98579 -6.8146e+002 -6.5870e+002  2.7550e+002 34068 98769,98262,98553
 2.5000e+000 98602 -5.8497e+002 -3.8549e+002  2.0813e+002 34068 98625,98314,98553
 2.5000e+000 98651 -5.1530e+002 -3.0327e+002  1.4192e+002 34068 98697,98366,98625
 2.5000e+000 98674 -6.4393e+002 -5.4532e+002  1.8949e+002 34068 98210,98625,98553
 2.5000e+000 98723 -6.1640e+002 -3.5942e+002  1.4972e+002 34068 98210,98184,98697
 2.5000e+000 98746 -5.7324e+002 -4.2026e+002  2.2546e+002 34068 98210,98697,98625
 2.5000e+000 98795 -3.7704e+002 -6.5439e+002  2.7244e+002 34068 98314,98288,98769
 2.5000e+000 98818 -5.0211e+002 -5.3614e+002  1.6645e+002 34068 98314,98769,98553
 2.5000e+000 98867 -7.2941e+002 -4.4687e+002  1.3840e+002 34068 98314,98625,98841
 2.5000e+000 98890 -9.0750e+002 -3.0284e+002  1.1182e+002 34068 98314,98841,98340
 2.5000e+000 99268 -7.5760e+002 -6.5443e+002  4.7764e+002 33450 99291,99098,99072
 2.5000e+000 99245 -8.2008e+002 -5.1536e+002  2.5463e+002 33450 99291,99072,99020
 2.5000e+000 99222 -1.2349e+003 -6.3060e+002  4.0106e+002 33450 99020,99072,99046
 2.5000e+000 99199 -6.5275e+002 -4.6764e+002  2.5181e+002 33450 99020,99150,99124
 2.5000e+000 99176 -6.7754e+002 -5.0193e+002  5.0782e+001 33450 98994,99150,99020
 2.5000e+000 99317 -4.1672e+002 -5.0741e+002  4.6028e+002 33450 99124,99098,99291
 2.5000e+000 99340 -7.0911e+002 -4.7918e+002  2.6075e+002 33450 99124,99291,99020
 2.5000e+000 99865 -4.0756e+002 -3.9073e+002  2.3399e+002 32944 100176,99960,99888
 2.5000e+000 99842 -4.6185e+002 -3.9874e+002  2.3931e+002 32944 100104,99888,99522
 2.5000e+000 99819 -4.1236e+002 -3.6928e+002  3.0909e+002 32944 100248,99960,99626
 2.5000e+000 99796 -3.8469e+002 -4.3887e+002  1.4207e+002 32944 100032,99652,99626
 2.5000e+000 99773 -3.7359e+002 -4.6171e+002  1.5807e+002 32944 100104,99522,99496
 2.5000e+000 99750 -2.8484e+002 -2.2533e+002  4.0700e+001 32944 99574,99626,99600
 2.5000e+000 99727 -3.5666e+002 -3.3817e+002  3.3203e+002 32944 100248,99626,99574
 2.5000e+000 99704 -2.1837e+002 -3.9824e+002  2.2478e+002 32944 99444,99496,99470
 2.5000e+000 99914 -4.0949e+002 -3.5807e+002  1.6428e+002 32944 100176,99888,100032
 2.5000e+000 99937 -4.8159e+002 -3.1323e+002  2.6205e+002 32944 99678,99888,99444
 2.5000e+000 99986 -4.4636e+002 -3.2380e+002  2.2660e+002 32944 99522,99888,99960
 2.5000e+000 100009 -4.7656e+002 -2.7361e+002  2.6250e+002 32944 99522,99960,99548
 2.5000e+000 100058 -4.6627e+002 -4.3357e+002  1.4332e+002 32944 99678,99652,100032
 2.5000e+000 100081 -5.0869e+002 -4.0838e+002  1.4664e+002 32944 99678,100032,99888
 2.5000e+000 100130 -3.0481e+002 -3.2850e+002  2.5856e+002 32944 99444,99888,100104
 2.5000e+000 100153 -2.4316e+002 -4.0290e+002  1.8352e+002 32944 99444,100104,99496
 2.5000e+000 100202 -4.5254e+002 -4.9818e+002  2.2994e+002 32944 99626,99960,100176
 2.5000e+000 100225 -4.6923e+002 -4.9692e+002  1.6772e+002 32944 99626,100176,100032
 2.5000e+000 100274 -5.0460e+002 -3.3863e+002  2.6469e+002 32944 99548,99960,100248
 2.5000e+000 100297 -4.5515e+002 -3.1409e+002  2.8611e+002 32944 99548,100248,99574
 2.5000e+000 100754 -1.5407e+002 -1.8141e+002  9.8759e+001 32369 100777,100584,100506
 2.5000e+000 100731 -1.7605e+002 -2.7327e+002  1.9172e+002 32369 100777,100506,100636
 2.5000e+000 100708 -2.8380e+002 -2.8098e+002  1.9807e+002 32369 100480,100636,100506
 2.5000e+000 100685 -4.5486e+002 -2.2447e+002  6.5789e+000 32369 100532,100584,100558
 2.5000e+000 100662 -1.9191e+002 -2.1634e+002  1.2385e+002 32369 100506,100584,100532
 2.5000e+000 100803 -1.8841e+002 -3.9327e+001  7.4155e+001 32369 100610,100584,100777
 2.5000e+000 100826 -1.9285e+002 -1.3580e+002  1.5318e+002 32369 100610,100777,100636
 2.5000e+000 101025 -3.8959e+002 -3.1483e+002  3.0254e+002 31857 100875,100927,100901
 2.5000e+000 101002 -7.5825e+002 -1.7000e+002  3.0078e+002 31857 100875,100953,100927
 2.5000e+000 100979 -8.3096e+002 -3.0872e+002  2.4017e+002 31857 100849,100953,100875
 2.5000e+000 101533 -3.7017e+002 -4.6387e+002  3.6211e+002 31253 101556,101314,101236
 2.5000e+000 101510 -5.2536e+002 -4.6469e+002  3.2937e+002 31253 101556,101236,101210
 2.5000e+000 101487 -4.7479e+002 -4.5059e+002  1.4818e+002 31253 101210,101392,101340
 2.5000e+000 101464 -2.8666e+002 -4.3065e+002  2.7773e+002 31253 101236,101288,101262
 2.5000e+000 101441 -3.5361e+002 -6.3995e+002  3.4480e+002 31253 101236,101314,101288
 2.5000e+000 101418 -5.0873e+002 -6.6671e+002  3.5595e+002 31253 101340,101392,101366
 2.5000e+000 101582 -4.2521e+002 -4.9063e+002  2.3963e+002 31253 101340,101314,101556
 2.5000e+000 101605 -5.7873e+002 -4.7347e+002  2.1367e+002 31253 101340,101556,101210
 2.5000e+000 101755  1.0254e+002 -7.4232e+001  4.2455e+001 30519 101778,101654,101628
 2.5000e+000 101732 -1.1607e+002 -1.3107e+002  2.5562e+001 30519 101850,101778,101628
 2.5000e+000 101804 -6.6282e+001 -7.6754e+001 -3.4358e+001 30519 101680,101654,101778
 2.5000e+000 101827 -1.7960e+002 -6.1286e+001 -2.3622e+001 30519 101680,101778,101706
 2.5000e+000 101876 -1.0627e+002 -1.2553e+002 -1.2861e+001 30519 101706,101778,101850
 2.5000e+000 102561 -1.8526e+002 -3.3917e+002  1.7870e+002 29951 102656,102584,102270
 2.5000e+000 102538 -7.0375e+002 -7.3586e+002  1.1885e+002 29951 102584,102140,102374
 2.5000e+000 102515 -3.5302e+002 -8.4426e+002  4.4141e+002 29951 102728,102656,102270
 2.5000e+000 102492 -3.8896e+002 -1.0388e+003  4.4492e+002 29951 102728,102270,102244
 2.5000e+000 102469 -5.6125e+002 -1.7760e+002  2.6067e+002 29951 102800,102322,102296
 2.5000e+000 102446 -5.8043e+002 -3.7555e+002  1.0427e+002 29951 102166,102218,102192
 2.5000e+000 102423 -4.9314e+002 -4.1259e+002  5.5472e+001 29951 102166,102244,102218
 2.5000e+000 102400 -3.0865e+002 -3.8532e+002  2.2727e+002 29951 102322,102374,102348
 2.5000e+000 102610 -6.6811e+002 -2.5631e+002  6.5547e+001 29951 102296,102270,102584
 2.5000e+000 102633 -7.6052e+002 -3.4144e+002  1.4098e+002 29951 102800,102296,102584
 2.5000e+000 102682 -8.4576e+002 -7.3769e+002  3.6876e+002 29951 102140,102584,102656
 2.5000e+000 102705 -4.9542e+002 -7.0849e+002  5.5822e+002 29951 102140,102656,102166
 2.5000e+000 102754 -4.0091e+002 -6.2860e+002  5.2405e+002 29951 102166,102656,102728
 2.5000e+000 102777 -4.2434e+002 -7.7360e+002  4.8859e+002 29951 102166,102728,102244
 2.5000e+000 102826 -3.4765e+002 -3.6517e+002  3.4110e+002 29951 102374,102322,102800
 2.5000e+000 102849 -4.4272e+002 -3.7548e+002  2.6461e+002 29951 102374,102800,102584
 2.5000e+000 103048  4.3017e+001 -2.0600e+002  5.5233e+001 29454 102872,102924,102898
 2.5000e+000 103025 -4.9983e+001 -6.0941e+002  1.7479e+002 29454 102872,102976,102924
 2.5000e+000 103002 -1.9238e+002 -8.4325e+002  1.0129e+002 29454 102924,102976,102950
 2.5000e+000 103296 -8.3490e+002 -5.9991e+002  4.2337e+002 29064 103319,103175,103123
 2.5000e+000 103273 -1.1272e+003 -6.0592e+002  4.8571e+002 29064 103319,103123,103071
 2.5000e+000 103250 -5.0811e+002 -3.7781e+002  3.1151e+002 29064 103123,103175,103149
 2.5000e+000 103227 -8.5947e+002 -5.0237e+002  6.0429e+002 29064 103071,103123,103097
 2.5000e+000 103345 -5.7469e+002 -6.6832e+002  3.0810e+002 29064 103201,103175,103319
 2.5000e+000 103368 -9.2039e+002 -6.2852e+002  2.6417e+002 29064 103201,103319,103071
 2.5000e+000 104006 -4.7394e+002 -2.3795e+002  1.9060e+002 28603 104101,104029,103712
 2.5000e+000 103983 -4.1154e+002 -1.7563e+002  1.6649e+002 28603 104173,104029,103660
 2.5000e+000 103960 -5.6433e+002 -1.9390e+002  1.7726e+002 28603 104101,103712,103686
 2.5000e+000 103937 -2.9711e+002 -2.2391e+002  1.6703e+002 28603 104173,103660,103634
 2.5000e+000 103914 -5.1829e+002 -2.6327e+002  2.6720e+002 28603 103764,103816,103790
 2.5000e+000 103891 -3.2148e+002 -2.1096e+002  2.4489e+002 28603 103634,103842,103816
 2.5000e+000 103868 -4.0916e+002 -1.4999e+002  2.4762e+002 28603 103712,103764,103738
 2.5000e+000 104055 -4.8972e+002 -1.9827e+002  2.1004e+002 28603 103764,103712,104029
 2.5000e+000 104078 -4.6140e+002 -1.9800e+002  2.4153e+002 28603 103764,104029,103816
 2.5000e+000 104127 -5.9023e+002 -2.4989e+002  1.5050e+002 28603 103660,104029,104101
 2.5000e+000 104150 -7.2492e+002 -2.2774e+002  1.5873e+002 28603 103660,104101,103686
 2.5000e+000 104199 -5.0198e+002 -2.0734e+002  1.9685e+002 28603 103816,104029,104173
 2.5000e+000 104222 -4.0199e+002 -2.5719e+002  1.8497e+002 28603 103816,104173,103634
 2.5000e+000 104600 -3.2105e+002 -6.1015e+002  1.3657e+002 28348 104623,104378,104326
 2.5000e+000 104577 -2.6437e+002 -6.3618e+002  2.6350e+002 28348 104623,104326,104482
 2.5000e+000 104554 -2.9655e+002 -3.9534e+002  1.0452e+002 28348 104326,104378,104352
 2.5000e+000 104531 -3.1470e+002 -4.8556e+000 -6.0982e-001 28348 104404,104456,104430
 2.5000e+000 104508 -4.1135e+002 -2.4405e+002  2.0738e+002 28348 104378,104456,104404
 2.5000e+000 104649 -2.6750e+002 -4.9575e+002  1.7603e+002 28348 104456,104378,104623
 2.5000e+000 104672 -1.9287e+002 -5.0186e+002  3.0615e+002 28348 104456,104623,104482
 2.5000e+000 104991 -5.5673e+002 -5.5113e+002  4.2146e+002 27951 104717,104847,104769
 2.5000e+000 104968 -1.5704e+002 -3.8098e+002  3.9772e+002 27951 104717,104873,104847
 2.5000e+000 104945 -1.8821e+002 -4.4282e+002  4.6356e+002 27951 104769,104847,104795
 2.5000e+000 104922  3.7544e+001  1.0999e+002  4.3573e+002 27951 104795,104847,104821
 2.5000e+000 104899 -5.3048e+002 -3.9833e+002  4.6739e+002 27951 104717,104769,104743
 2.5000e+000 105371 -7.7084e+002 -4.5030e+002  3.4410e+002 27447 105394,105201,105123
 2.5000e+000 105348 -1.0285e+003 -4.0052e+002  5.0798e+002 27447 105394,105123,105097
 2.5000e+000 105325 -1.2114e+003 -4.8160e+002  3.2463e+002 27447 105123,105201,105149
 2.5000e+000 105302 -6.2829e+002 -5.3919e+002  3.5072e+002 27447 105201,105253,105227
 2.5000e+000 105279 -6.1691e+002 -6.5250e+002  1.1936e+002 27447 105149,105201,105175
 2.5000e+000 105420 -6.2673e+002 -3.7147e+002  2.6115e+002 27447 105253,105201,105394
 2.5000e+000 105443 -8.4567e+002 -2.3738e+002  4.0029e+002 27447 105253,105394,105097
 2.5000e+000 105998 -5.2419e+002 -3.5240e+002  3.6607e+002 27100 106165,106021,105704
 2.5000e+000 105975 -2.2624e+002 -1.6738e+002  3.0541e+002 27100 106309,106021,105652
 2.5000e+000 105952 -8.7142e+002 -6.0816e+002  6.3902e+002 27100 106093,105808,105782
 2.5000e+000 105929 -4.9976e+002 -3.8053e+002  3.4045e+002 27100 106165,105704,105678
 2.5000e+000 105906 -2.3703e+002 -5.6229e+002  2.9549e+002 27100 106237,105730,105704
 2.5000e+000 105883 -2.0600e+002 -3.2944e+002  2.0981e+002 27100 106309,105652,105626
 2.5000e+000 105860 -1.0431e+002 -1.0560e+001  3.1581e+001 27100 105730,105782,105756
 2.5000e+000 106047 -4.6970e+002 -2.9284e+002  4.1115e+002 27100 106237,105704,106021
 2.5000e+000 106070 -5.0105e+002 -2.6689e+002  4.8988e+002 27100 106093,105782,106021
 2.5000e+000 106119 -3.4325e+002 -5.1070e+002  3.1032e+002 27100 105834,105808,106093
 2.5000e+000 106142 -4.0491e+002 -6.4478e+002  4.3790e+002 27100 106381,106093,106021
 2.5000e+000 106191 -4.8422e+002 -3.2739e+002  3.7671e+002 27100 105652,106021,106165
 2.5000e+000 106214 -4.4158e+002 -3.5256e+002  3.5123e+002 27100 105652,106165,105678
 2.5000e+000 106263 -3.2478e+001 -2.9523e+002  2.0610e+002 27100 105782,105730,106237
 2.5000e+000 106286 -3.1213e+002 -9.5811e+001  3.4205e+002 27100 105782,106237,106021
 2.5000e+000 106335 -3.3999e+002 -3.9237e+002  3.4487e+002 27100 106381,106021,106309
 2.5000e+000 106358 -2.0842e+002 -2.5171e+002  1.8636e+002 27100 105834,106309,105626
 2.5000e+000 106407 -2.4601e+002 -3.5372e+002  2.6422e+002 27100 105834,106093,106381
 2.5000e+000 106430 -2.5335e+002 -3.0588e+002  1.6616e+002 27100 105834,106381,106309
 2.5000e+000 106629 -7.9580e+001 -5.4495e+002  1.8609e+002 26688 106479,106557,106531
 2.5000e+000 106606 -1.0479e+002 -4.3973e+002  1.8103e+002 26688 106453,106557,106479
 2.5000e+000 106583 -2.4172e+002 -5.8838e+002  6.6967e+001 26688 106479,106531,106505
 2.5000e+000 107088 -2.4807e+002 -2.0476e+002  9.5959e+001 26248 107111,106918,106866
 2.5000e+000 107065 -2.6112e+002 -1.7661e+002  1.1025e+002 26248 107111,106866,106840
 2.5000e+000 107042 -1.8065e+002 -1.2321e+002  1.1318e+002 26248 106814,106970,106840
 2.5000e+000 107019 -2.4344e+002 -4.5170e+002  1.8670e+002 26248 106866,106918,106892
 2.5000e+000 106996 -3.9476e+002 -2.7598e+002  7.6340e+001 26248 106918,106970,106944
 2.5000e+000 107137 -2.7248e+002 -2.4184e+002  6.6863e+001 26248 106970,106918,107111
 2.5000e+000 107160 -2.6154e+002 -1.8620e+002  8.3773e+001 26248 106970,107111,106840
 2.5000e+000 107666 -6.7231e+002 -2.6236e+002  2.1404e+002 25908 107369,107499,107395
 2.5000e+000 107643 -9.1542e+002 -7.9502e+002  4.4175e+002 25908 107369,107525,107499
 2.5000e+000 107620 -5.4645e+002 -3.4843e+002  2.8008e+002 25908 107395,107473,107447
 2.5000e+000 107597 -4.6164e+002 -1.8155e+002  1.9812e+002 25908 107395,107499,107473
 2.5000e+000 107574 -9.6461e+002 -4.2953e+002  6.3897e+002 25908 107395,107447,107421
 2.5000e+000 107551 -3.3062e+002 -6.2337e+002  3.3234e+002 25908 107343,107525,107369
 2.5000e+000 108251 -4.3822e+002 -1.5023e+002  2.5843e+002 25454 108274,108006,107954
 2.5000e+000 108228 -3.5252e+002 -7.1653e+001  1.9306e+002 25454 108274,107954,108110
 2.5000e+000 108205 -3.3351e+002 -3.3637e+002  3.0484e+002 25454 108346,108032,108006
 2.5000e+000 108182 -5.5942e+002 -2.5074e+002  3.2813e+002 25454 107954,108006,107980
 2.5000e+000 108159 -1.8636e+002 -2.0506e+002  1.7695e+002 25454 107928,108110,107954
 2.5000e+000 108136 -6.5274e+002 -6.0107e+002  3.5311e+002 25454 108058,108110,108084
 2.5000e+000 108300 -4.2417e+002 -2.4215e+002  3.0576e+002 25454 108346,108006,108274
 2.5000e+000 108323 -3.8419e+002 -1.6594e+002  2.2626e+002 25454 108058,108274,108110
 2.5000e+000 108372 -2.2603e+002 -2.2962e+002  2.6157e+002 25454 108058,108032,108346
 2.5000e+000 108395 -3.2243e+002 -1.2207e+002  2.6216e+002 25454 108058,108346,108274
 2.5000e+000 108822 -3.4553e+002 -1.9794e+002  1.9686e+002 24943 108525,108681,108655
 2.5000e+000 108799 -4.4701e+002 -3.0901e+002  1.0162e+002 24943 108499,108681,108525
 2.5000e+000 108776 -1.8683e+002 -1.4781e+002  1.3902e+002 24943 108525,108655,108629
 2.5000e+000 108753 -2.9010e+002 -1.2733e+002  1.2298e+002 24943 108525,108629,108603
 2.5000e+000 108730 -6.9817e+002 -2.1162e+002  2.5020e+002 24943 108551,108603,108577
 2.5000e+000 108707 -6.5446e+002 -3.8669e+002  3.6439e+002 24943 108525,108603,108551
 2.5000e+000 109407 -3.5447e+001 -1.1307e+002  6.3345e+001 24745 109162,109214,109188
 2.5000e+000 109384 -2.3906e+002 -1.1161e+002  7.7432e+001 24745 109162,109266,109214
 2.5000e+000 109361 -2.8422e+002 -1.7343e+002  4.7498e+001 24745 109084,109266,109162
 2.5000e+000 109338 -5.1555e+002 -7.0113e+001  1.2335e+002 24745 109084,109162,109136
 2.5000e+000 109315 -1.1438e+002 -2.2494e+002  1.1333e+002 24745 109214,109266,109240
 2.5000e+000 109292 -3.9049e+002 -1.0136e+002  2.0290e+002 24745 109084,109136,109110
 2.5000e+000 109785 -8.0880e+002 -3.5210e+002  4.6864e+002 24341 109537,109615,109563
 2.5000e+000 109762 -7.6111e+001 -1.5812e+002  4.3880e+002 24341 109537,109641,109615
 2.5000e+000 109739 -5.4623e+002 -3.8416e+002  3.4809e+002 24341 109563,109615,109589
 2.5000e+000 109716 -3.3681e+002 -3.2601e+002  2.9239e+002 24341 109537,109667,109641
 2.5000e+000 109693 -1.9694e+002 -3.8915e+002  2.6863e+002 24341 109511,109667,109537
 2.5000e+000 110163 -9.4104e+002 -5.0949e+002  4.7497e+002 23837 110186,109967,109915
 2.5000e+000 110140 -8.5638e+002 -5.1671e+002  5.2061e+002 23837 110186,109915,109889
 2.5000e+000 110117 -3.8286e+002 -1.6510e+002  4.0365e+002 23837 109889,110045,109993
 2.5000e+000 110094 -8.6861e+002 -6.4953e+002  3.5776e+002 23837 109915,109967,109941
 2.5000e+000 110071 -4.7306e+002 -1.3153e+001  6.4560e+001 23837 109993,110045,110019
 2.5000e+000 110212 -8.8578e+002 -4.5797e+002  5.1055e+002 23837 109993,109967,110186
 2.5000e+000 110235 -8.4839e+002 -4.7217e+002  5.5643e+002 23837 109993,110186,109889
 2.5000e+000 110336 -4.3300e+002 -9.5847e+002  5.0713e+002 23433 110258,110310,110284
 2.5000e+000 110584 -5.1798e+002 -3.6696e+002  2.1945e+002 22829 110607,110411,110385
 2.5000e+000 110561 -6.6693e+002 -4.3371e+002  3.3235e+002 22829 110607,110385,110489
 2.5000e+000 110538 -3.8038e+002 -3.9454e+002  1.8674e+002 22829 110437,110489,110463
 2.5000e+000 110515 -5.5895e+002 -2.5905e+002  3.8002e+002 22829 110359,110489,110385
 2.5000e+000 110633 -5.0409e+002 -2.5707e+002  1.1020e+002 22829 110437,110411,110607
 2.5000e+000 110656 -5.8847e+002 -3.2930e+002  2.1792e+002 22829 110437,110607,110489
 2.5000e+000 110906 -1.2059e+003 -4.9826e+002  3.3704e+002 22432 110707,110759,110733
 2.5000e+000 110883 -6.5655e+002 -4.8361e+002  2.5065e+002 22432 110707,110785,110759
 2.5000e+000 110860 -7.3286e+002 -4.3721e+002  4.3204e+002 22432 110707,110811,110785
 2.5000e+000 110837 -9.1780e+002 -6.2019e+002  3.3242e+002 22432 110681,110811,110707
 2.5000e+000 111288 -9.5945e+001 -2.0881e+002  1.8431e+002 22142 111092,111144,111118
 2.5000e+000 111265 -3.3631e+002 -2.6092e+002  1.8052e+002 22142 111066,111144,111092
 2.5000e+000 111242 -3.1268e+002 -2.3507e+002  1.4445e+002 22142 111040,111144,111066
 2.5000e+000 111219 -6.1398e+002 -7.4598e+001  7.5699e+001 22142 111014,111144,111040
 2.5000e+000 111196 -4.4664e+002 -4.9461e+001  1.4811e+002 22142 111014,111170,111144
 2.5000e+000 111389  1.8437e+000 -9.3663e+001  2.8134e+002 21830 111311,111363,111337
 2.5000e+000 111735 -8.0017e+002 -4.9605e+001  5.6956e+002 21268 111758,111542,111438
 2.5000e+000 111712 -6.7983e+002 -2.0115e+001  4.2636e+002 21268 111758,111438,111412
 2.5000e+000 111689 -2.2847e+002 -3.7230e+002  6.7263e+002 21268 111438,111542,111464
 2.5000e+000 111666 -7.2568e+001 -2.6195e+002  8.6129e+002 21268 111464,111542,111490
 2.5000e+000 111643 -1.5708e+003 -7.5081e+002  7.7938e+002 21268 111412,111594,111568
 2.5000e+000 111620  2.5872e+002  2.8255e+002  1.0665e+003 21268 111490,111542,111516
 2.5000e+000 111784 -8.2299e+002 -1.3351e+002  5.6833e+002 21268 111568,111542,111758
 2.5000e+000 111807 -8.1043e+002 -3.1410e+002  4.7125e+002 21268 111568,111758,111412
 2.5000e+000 111959 -7.7804e+002 -9.1227e+001  2.6454e+002 20864 111982,111910,111884
 2.5000e+000 111936 -7.2869e+002 -1.0243e+002  3.7220e+002 20864 112114,111832,111910
 2.5000e+000 112008 -7.7352e+002 -2.4897e+002  3.1720e+002 20864 112114,111910,111982
 2.5000e+000 112140 -7.1161e+002 -2.7032e+002  2.9515e+002 20864 111858,111832,112114
 2.5000e+000 112163 -7.7055e+002 -4.5027e+002  2.4494e+002 20864 111858,112114,111982
 2.5000e+000 112411 -9.7826e+001 -2.2591e+001  3.1354e+001 20324 112186,112290,112212
 2.5000e+000 112388 -4.9710e+001 -1.4161e+001  4.4891e+001 20324 112186,112316,112290
 2.5000e+000 112365  2.4918e+002 -2.1178e+002  3.8408e+001 20324 112212,112290,112264
 2.5000e+000 112342 -1.0339e+003 -4.4263e+002 -5.6806e+001 20324 112212,112264,112238
 2.5000e+000 112659 -7.9271e+001 -1.9091e+001  3.0876e+002 19920 112512,112564,112538
 2.5000e+000 112636 -4.1559e+002 -1.3049e+002  1.8427e+002 19920 112434,112564,112512
 2.5000e+000 112613 -4.2657e+002 -2.5650e+002  2.3968e+002 19920 112434,112512,112460
 2.5000e+000 112590 -4.6786e+002 -2.8487e+002  2.5437e+002 19920 112460,112512,112486
 2.5000e+000 112811 -7.5339e+001 -2.9455e+001  1.3477e+002 19630 112684,112736,112710
 2.5000e+000 112788  1.1906e+002 -1.6722e+002  3.6122e+001 19630 112684,112762,112736
 2.5000e+000 113012 -3.4643e+002 -1.2948e+002  3.4790e+002 19169 112862,112940,112888
 2.5000e+000 112989 -5.6103e+002 -4.6237e+002  2.5572e+002 19169 112836,112940,112862
 2.5000e+000 112966 -2.7114e+002 -3.6016e+002  2.7399e+002 19169 112888,112940,112914
 2.5000e+000 113213 -7.6559e+002 -3.0750e+002  3.5935e+002 18600 113037,113089,113063
 2.5000e+000 113190 -4.1492e+002 -1.8597e+002  2.7121e+002 18600 113037,113115,113089
 2.5000e+000 113167 -8.9753e+002 -6.0301e+002  5.3980e+002 18600 113037,113141,113115
 2.5000e+000 113485 -3.9376e+002 -1.4675e+002  3.7393e+002 18352 113260,113312,113286
 2.5000e+000 113462 -7.8954e+002 -4.5458e+002  5.0835e+002 18352 113260,113390,113312
 2.5000e+000 113439 -7.4091e+002 -1.3612e+002  3.5965e+002 18352 113312,113390,113364
 2.5000e+000 113416 -2.5074e+002 -8.4290e+001  3.8384e+002 18352 113312,113364,113338
 2.5000e+000 113757 -5.4875e+002 -2.1421e+002  3.6419e+002 17834 113558,113610,113584
 2.5000e+000 113734 -8.1027e+002 -4.5386e+002  4.9078e+002 17834 113532,113610,113558
 2.5000e+000 113711 -8.2018e+002 -5.2849e+002  3.9691e+002 17834 113532,113662,113610
 2.5000e+000 113688 -4.1315e+002 -1.2773e+002  5.5913e+002 17834 113610,113662,113636
 2.5000e+000 113958 -5.3408e+002 -2.1605e+002  2.8514e+002 17330 113782,113834,113808
 2.5000e+000 113935 -3.0565e+002 -1.5815e+002  2.1075e+002 17330 113782,113886,113834
 2.5000e+000 113912 -3.7020e+002 -1.6258e+002  1.4039e+002 17330 113834,113886,113860
 2.5000e+000 114110 -7.8466e+002 -2.9552e+002  5.0435e+002 16874 113983,114035,114009
 2.5000e+000 114087 -3.0892e+002 -7.0011e+002  4.5544e+002 16874 113983,114061,114035
 2.5000e+000 114465 -9.7888e+002 -4.1193e+002  2.1754e+002 16270 114240,114292,114266
 2.5000e+000 114442 -6.6005e+002 -1.5488e+002  9.7696e+001 16270 114240,114370,114292
 2.5000e+000 114419 -3.0004e+002 -1.2443e+002  1.6331e+002 16270 114292,114344,114318
 2.5000e+000 114396 -6.8028e+002 -3.0376e+002  9.9495e+001 16270 114292,114370,114344
 2.5000e+000 114566 -5.1794e+001  5.1794e+001  6.8948e+002 15834 114488,114540,114514
 2.5000e+000 114667 -5.2942e+002 -2.0955e+002  3.3115e+002 15155 114589,114641,114615
 2.5000e+000 114890 -3.1547e+002 -9.9840e+001  4.7176e+002 421 114766,114818,114792
 2.5000e+000 114867 -5.3847e+002 -5.1185e+002  3.7966e+002 421 114714,114818,114766
 2.5000e+000 114844 -8.4190e+002 -3.5288e+002  2.2198e+002 421 114714,114766,114740
 2.6000e+000 66553 -4.0801e+002 -1.7316e+002  1.7316e+002 66108 66354,66458,66432
 2.6000e+000 66530 -3.8729e+002 -1.6262e+002  1.5375e+002 66108 66328,66458,66354
 2.6000e+000 66507 -2.2642e+002 -1.4904e+002  9.1655e+001 66108 66354,66432,66406
 2.6000e+000 66484  9.7452e+001  4.8274e+001  2.0502e+002 66108 66354,66406,66380
 2.6000e+000 66951 -5.1130e+002 -2.1605e+002  1.4295e+002 65910 66703,66833,66807
 2.6000e+000 66928 -5.8344e+001 -7.5734e+001  1.4776e+002 65910 66677,66833,66703
 2.6000e+000 66905 -1.2117e+002 -3.1397e+002  1.8671e+002 65910 66729,66781,66755
 2.6000e+000 66882 -4.9665e+002 -2.0736e+002  1.8812e+002 65910 66729,66807,66781
 2.6000e+000 66859 -4.6777e+002 -1.2939e+002  1.7121e+002 65910 66703,66807,66729
 2.6000e+000 67150 -5.1581e+002 -2.2132e+002  1.5451e+001 65712 67026,67078,67052
 2.6000e+000 67127 -8.2610e+002 -9.1801e+001 -1.1551e+001 65712 66974,67078,67026
 2.6000e+000 67104 -2.1662e+003 -4.4938e+002 -1.5133e+002 65712 66974,67026,67000
 2.6000e+000 67481 -7.9037e+002 -6.9384e+001  2.5556e+002 65422 67282,67360,67334
 2.6000e+000 67458 -2.9949e+002 -1.0000e+002  4.2391e+002 65422 67282,67386,67360
 2.6000e+000 67435 -1.8732e+002  1.7247e+002  2.3052e+002 65422 67282,67334,67308
 2.6000e+000 67412  1.3776e+002  5.4075e+001  1.6550e+002 65422 67256,67386,67282
 2.6000e+000 68115 -2.4363e+002 -6.9196e+001  5.7182e+001 65018 67795,67925,67873
 2.6000e+000 68092 -2.8393e+002 -8.5099e+001  1.0131e+002 65018 67769,67925,67795
 2.6000e+000 68069 -1.9492e+002 -6.0607e+001  7.4911e+001 65018 67873,67925,67899
 2.6000e+000 68046 -4.2786e+002 -2.0173e+002  1.5175e+002 65018 67769,67951,67925
 2.6000e+000 68023 -2.8815e+002 -1.9157e+002  7.3152e+001 65018 67795,67873,67821
 2.6000e+000 68000 -3.4605e+002 -2.0631e+002  6.7123e+001 65018 67821,67873,67847
 2.6000e+000 67977 -7.6443e+002 -3.3016e+002  1.4181e+002 65018 67743,67951,67769
 2.6000e+000 68363 -2.6645e+002 -5.6813e+002  4.7556e+002 64820 68190,68242,68216
 2.6000e+000 68340 -5.0132e+002 -3.8148e+002  4.8253e+002 64820 68190,68268,68242
 2.6000e+000 68317 -2.7478e+002 -2.6954e+002  5.3851e+002 64820 68164,68268,68190
 2.6000e+000 68294 -9.7209e+002 -3.9659e+002  3.5523e+002 64820 68138,68268,68164
 2.6000e+000 68513 -5.3731e+002 -2.7788e+002  1.9147e+002 64366 68868,68536,68438
 2.6000e+000 68490 -2.9364e+002 -1.1308e+002  1.4969e+002 64366 68536,68412,68386
 2.6000e+000 68562 -5.8640e+002 -2.1173e+002  2.6077e+002 64366 68740,68536,68464
 2.6000e+000 68585 -4.4575e+002 -1.4249e+002  2.0937e+002 64366 68608,68536,68386
 2.6000e+000 68634 -5.2422e+002 -3.0326e+002  1.8478e+002 64366 68464,68536,68608
 2.6000e+000 68766 -5.4567e+002 -1.8819e+002  2.5105e+002 64366 68438,68536,68740
 2.6000e+000 68894 -4.2812e+002 -1.5371e+002  2.3980e+002 64366 68412,68536,68868
 2.6000e+000 69172 -4.6378e+002 -4.7178e+002  4.0015e+001 64168 69022,69074,69048
 2.6000e+000 69149 -9.2164e+002 -3.9055e+002  1.7531e+002 64168 68996,69074,69022
 2.6000e+000 69126 -9.6676e+002 -4.9529e+002  1.7178e+002 64168 68996,69100,69074
 2.6000e+000 69371 -3.6547e+002 -1.1814e+002  2.2424e+002 63970 69466,69394,69273
 2.6000e+000 69348 -2.7642e+002 -1.1547e+002  1.0882e+002 63970 69394,69247,69221
 2.6000e+000 69325 -5.5901e+002 -2.3626e+002  1.4598e+002 63970 69195,69299,69221
 2.6000e+000 69420 -4.3587e+002 -1.9218e+002  2.5509e+002 63970 69299,69273,69394
 2.6000e+000 69443 -3.6364e+002 -2.4016e+002  1.5331e+002 63970 69299,69394,69221
 2.6000e+000 69492 -3.9027e+002 -1.5902e+002  2.1383e+002 63970 69247,69394,69466
 2.6000e+000 69904 -7.1548e+001 -3.3029e+002  1.3589e+002 63680 69705,69783,69731
 2.6000e+000 69881  5.6560e+001 -2.2310e+002  7.5477e+001 63680 69679,69783,69705
 2.6000e+000 69858 -3.0036e+002 -3.6584e+002  1.6081e+002 63680 69679,69809,69783
 2.6000e+000 69835 -1.9848e+002 -3.4662e+002  1.1678e+002 63680 69731,69783,69757
 2.6000e+000 70054 -2.1471e+001 -2.6621e+002  1.5830e+002 63476 70077,69953,69927
 2.6000e+000 70031  3.2649e+001 -1.1606e+002  2.3020e+002 63476 70077,69927,70005
 2.6000e+000 70103 -1.1926e+002 -1.6573e+002  9.5104e+001 63476 69979,69953,70077
 2.6000e+000 70126 -7.7980e+001 -2.9660e+001  1.5555e+002 63476 69979,70077,70005
 2.6000e+000 70325 -9.8135e+002 -4.6445e+002  2.8299e+002 63278 70149,70227,70175
 2.6000e+000 70302 -6.3443e+002 -2.4909e+002  3.9118e+002 63278 70149,70253,70227
 2.6000e+000 70279 -1.1463e+003 -7.9112e+002  2.2702e+002 63278 70175,70227,70201
 2.6000e+000 70597 -3.7586e+002 -6.3325e+001  1.7348e+002 63080 70372,70476,70424
 2.6000e+000 70574 -3.7116e+002 -1.5476e+002  1.6751e+002 63080 70372,70502,70476
 2.6000e+000 70551 -4.4528e+002 -1.8440e+002  2.0297e+002 63080 70424,70476,70450
 2.6000e+000 70528 -6.6372e+002 -2.2054e+002  3.1887e+002 63080 70372,70424,70398
 2.6000e+000 70847 -2.4090e+001 -1.9671e+002  8.1600e+001 62740 70870,70648,70622
 2.6000e+000 70824 -1.3609e+002 -1.5533e+002  1.3072e+002 62740 70870,70622,70752
 2.6000e+000 70801 -4.7268e+001 -2.4667e+002  9.7149e+001 62740 70648,70726,70700
 2.6000e+000 70778 -6.8148e+001 -2.6787e+002  1.0727e+002 62740 70648,70700,70674
 2.6000e+000 70896 -1.3300e+002 -2.4736e+002  6.3635e+001 62740 70726,70648,70870
 2.6000e+000 70919 -1.8534e+002 -1.7011e+002  1.2753e+002 62740 70726,70870,70752
 2.6000e+000 71022 -4.5127e+001  4.5127e+001  6.4381e+002 62520 70944,70996,70970
 2.6000e+000 71223 -8.6772e+002 -4.1725e+002  5.1888e+002 62230 71073,71151,71099
 2.6000e+000 71200 -6.8068e+002 -3.9998e+002  4.5580e+002 62230 71047,71151,71073
 2.6000e+000 71177 -6.0173e+002 -7.2893e+002  4.1627e+002 62230 71099,71151,71125
 2.6000e+000 71861 -1.5981e+002 -2.0425e+002 -5.6119e+001 61712 71515,71697,71671
 2.6000e+000 71838 -2.1376e+002 -3.2115e+002  2.9274e+001 61712 71489,71697,71515
 2.6000e+000 71815 -7.8893e+002 -2.1239e+002  3.2792e+002 61712 71884,71541,71515
 2.6000e+000 71792 -5.5221e+002  1.9865e+001  2.1334e+002 61712 71884,71515,71671
 2.6000e+000 71769 -1.5705e+002 -5.2790e+002  1.9067e+002 61712 71541,71619,71593
 2.6000e+000 71746 -1.8113e+002 -2.5876e+002  1.4693e+002 61712 71619,71671,71645
 2.6000e+000 71723 -2.4859e+002 -5.3260e+002  1.0382e+002 61712 71541,71593,71567
 2.6000e+000 71910 -5.4821e+002 -4.5175e+002  4.4534e+002 61712 71619,71541,71884
 2.6000e+000 71933 -4.0806e+002 -2.8262e+002  3.5549e+002 61712 71619,71884,71671
 2.6000e+000 72230 -6.3193e+002 -4.5912e+002  1.2260e+002 61208 72253,72060,72008
 2.6000e+000 72207 -5.9227e+002 -2.8732e+002  1.1117e+002 61208 72253,72008,71982
 2.6000e+000 72184 -6.1013e+002 -1.5815e+002  1.0009e+002 61208 71982,72112,72086
 2.6000e+000 72161 -1.0251e+003 -4.6643e+002  2.4505e+002 61208 72008,72060,72034
 2.6000e+000 72138 -4.0769e+002 -9.6464e+001  2.1323e+002 61208 71956,72112,71982
 2.6000e+000 72279 -6.2393e+002 -3.3611e+002  4.8799e+001 61208 72086,72060,72253
 2.6000e+000 72302 -6.3604e+002 -2.3870e+002  3.6774e+001 61208 72086,72253,71982
 2.6000e+000 72761 -3.4272e+002 -2.5415e+002  9.9536e+001 60804 72487,72617,72513
 2.6000e+000 72738 -4.3441e+002 -3.8672e+002  1.3941e+002 60804 72487,72643,72617
 2.6000e+000 72715 -1.2845e+002 -5.3126e+002  1.6406e+002 60804 72565,72617,72591
 2.6000e+000 72692 -3.8214e+002 -3.3936e+002  1.9189e+002 60804 72513,72617,72565
 2.6000e+000 72669 -3.3847e+002 -3.0348e+002  1.0148e+002 60804 72513,72565,72539
 2.6000e+000 72911 -4.5127e+001  4.5127e+001  6.4381e+002 60556 72784,72836,72810
 2.6000e+000 72888  5.5773e+002  2.6978e+002  3.8824e+002 60556 72784,72862,72836
 2.6000e+000 73468 -2.6285e+002 -2.4398e+002  1.5375e+002 60244 73491,73226,73200
 2.6000e+000 73445 -2.8489e+002 -2.0605e+002  1.9740e+002 60244 73563,73491,73200
 2.6000e+000 73422 -4.5999e+002 -1.2209e+002  2.0589e+002 60244 73563,73200,73174
 2.6000e+000 73399 -2.2424e+002 -3.2193e+002  1.3767e+002 60244 73226,73278,73252
 2.6000e+000 73376 -3.3387e+002 -2.5058e+002  1.4673e+002 60244 73122,73304,73278
 2.6000e+000 73353 -3.5857e+002 -3.6141e+002  1.5227e+002 60244 73096,73304,73122
 2.6000e+000 73330 -5.8801e+002 -2.1001e+002 -8.3742e+001 60244 73122,73174,73148
 2.6000e+000 73517 -3.5635e+002 -2.8661e+002  1.6555e+002 60244 73278,73226,73491
 2.6000e+000 73540 -3.4802e+002 -2.5133e+002  1.4756e+002 60244 73278,73491,73122
 2.6000e+000 73589 -5.2767e+002 -3.1277e+002  1.4836e+002 60244 73122,73491,73563
 2.6000e+000 73612 -6.9037e+002 -2.1518e+002  1.6697e+002 60244 73122,73563,73174
 2.6000e+000 73762 -2.0004e+002 -4.5902e+002  4.0734e+002 59875 73661,73713,73687
 2.6000e+000 73739 -4.6761e+002 -2.2550e+002  2.9740e+002 59875 73635,73713,73661
 2.6000e+000 74191 -2.5092e+002 -5.6167e+002  4.2685e+002 59478 74214,73894,73868
 2.6000e+000 74168 -4.8355e+002 -5.4290e+002  4.5170e+002 59478 74214,73868,74050
 2.6000e+000 74145 -4.7852e+002 -6.1041e+002  2.2104e+002 59478 73894,73946,73920
 2.6000e+000 74122 -3.9727e+002 -5.7203e+002  1.9749e+002 59478 73894,73998,73946
 2.6000e+000 74099 -1.0366e+003 -5.9035e+002  6.1872e+002 59478 73998,74050,74024
 2.6000e+000 74076 -5.0344e+002 -7.0380e+002  1.4113e+002 59478 73946,73998,73972
 2.6000e+000 74240 -4.6136e+002 -4.9613e+002  3.2454e+002 59478 73998,73894,74214
 2.6000e+000 74263 -6.8988e+002 -4.9370e+002  3.1224e+002 59478 73998,74214,74050
 2.6000e+000 74720 -4.2779e+002 -2.4806e+002  1.6041e+002 58774 74472,74602,74498
 2.6000e+000 74697 -4.1613e+002 -2.8923e+002  1.3606e+002 58774 74446,74602,74472
 2.6000e+000 74674 -5.0741e+002 -2.2979e+002  2.2103e+002 58774 74498,74576,74524
 2.6000e+000 74651 -4.2188e+002 -2.7534e+002  1.6997e+002 58774 74498,74602,74576
 2.6000e+000 74628 -5.2880e+002 -1.9991e+002  1.7356e+002 58774 74524,74576,74550
 2.6000e+000 75226 -3.4201e+002 -3.0745e+002  1.8206e+002 58270 74955,75085,75033
 2.6000e+000 75203 -2.4691e+002 -3.6703e+002  2.3377e+002 58270 74929,75085,74955
 2.6000e+000 75180 -3.4004e+002 -2.0502e+002  2.0183e+002 58270 75033,75085,75059
 2.6000e+000 75157 -3.3061e+002 -3.9350e+002  1.2534e+002 58270 74955,75007,74981
 2.6000e+000 75134 -2.1086e+002 -2.5353e+002  6.8371e+001 58270 74955,75033,75007
 2.6000e+000 75111 -5.2728e+001 -4.0558e+002  1.4511e+002 58270 74903,75085,74929
 2.6000e+000 75425 -4.1838e+002 -2.5374e+002  2.0222e+002 57830 75448,75301,75249
 2.6000e+000 75402 -3.1723e+002 -7.9179e+001  1.2447e+002 57830 75448,75249,75353
 2.6000e+000 75379 -4.3686e+002 -5.5720e+002  1.2243e+002 57830 75520,75301,75275
 2.6000e+000 75474 -4.0092e+002 -3.6323e+002  3.0411e+002 57830 75327,75301,75448
 2.6000e+000 75497 -3.4974e+002 -2.8141e+002  2.2776e+002 57830 75327,75448,75353
 2.6000e+000 75546 -2.7215e+002 -3.5479e+002  5.0170e+001 57830 75249,75301,75520
 2.6000e+000 76261 -1.9300e+002 -3.4284e+002  2.0270e+002 57426 76284,76097,76071
 2.6000e+000 76238 -1.7646e+002 -2.2057e+002  2.0520e+002 57426 75889,76097,75915
 2.6000e+000 76215 -2.9157e+002 -3.8068e+002  1.9931e+002 57426 76428,76284,76071
 2.6000e+000 76192 -2.1543e+002 -3.5579e+002  1.2408e+002 57426 76356,75941,75915
 2.6000e+000 76169 -2.9466e+002 -3.3535e+002  1.9152e+002 57426 76428,76071,76019
 2.6000e+000 76146 -3.2922e+002 -4.4860e+002  1.7824e+002 57426 76019,76071,76045
 2.6000e+000 76123 -3.2343e+002 -3.3997e+002  2.5859e+002 57426 75967,76019,75993
 2.6000e+000 76310 -2.1094e+002 -3.8602e+002  1.5503e+002 57426 75915,76097,76284
 2.6000e+000 76333 -2.4034e+002 -3.6467e+002  1.3434e+002 57426 76356,75915,76284
 2.6000e+000 76382 -2.6900e+002 -3.4803e+002  1.3366e+002 57426 75967,75941,76356
 2.6000e+000 76405 -2.8176e+002 -3.4615e+002  1.4251e+002 57426 75967,76356,76284
 2.6000e+000 76454 -2.7213e+002 -3.3919e+002  1.8677e+002 57426 75967,76284,76428
 2.6000e+000 76477 -2.9496e+002 -3.1366e+002  1.8675e+002 57426 75967,76428,76019
 2.6000e+000 76953 -2.8365e+002 -4.7840e+002  2.6886e+002 56908 76976,76711,76685
 2.6000e+000 76930 -2.8527e+002 -4.8876e+002  2.8351e+002 56908 77048,76976,76685
 2.6000e+000 76907 -5.3764e+002 -5.2076e+002  4.0325e+002 56908 77048,76685,76633
 2.6000e+000 76884 -7.8976e+002 -7.4441e+002  4.2667e+002 56908 76711,76789,76763
 2.6000e+000 76861 -4.0585e+002 -2.4003e+002  1.7160e+002 56908 76581,76789,76607
 2.6000e+000 76838 -7.3219e+002 -5.3716e+002  3.4362e+002 56908 76711,76763,76737
 2.6000e+000 76815 -1.2876e+003 -1.0047e+003  7.3439e+002 56908 76633,76685,76659
 2.6000e+000 77002 -3.6748e+002 -5.1248e+002  2.6551e+002 56908 76789,76711,76976
 2.6000e+000 77025 -3.5794e+002 -2.2432e+002  1.7109e+002 56908 76789,76976,76607
 2.6000e+000 77074 -6.8145e+002 -4.7619e+002  2.8298e+002 56908 76607,76976,77048
 2.6000e+000 77097 -8.1445e+002 -3.9798e+002  3.8882e+002 56908 76607,77048,76633
 2.6000e+000 77475 -2.9254e+002 -3.2995e+002  2.7456e+002 56546 77570,77498,77279
 2.6000e+000 77452 -2.1344e+002 -4.8603e+002  3.5145e+002 56546 77498,77227,77357
 2.6000e+000 77429 -3.2926e+002 -3.7074e+002  3.1145e+002 56546 77570,77279,77253
 2.6000e+000 77406 -4.7611e+002 -6.0360e+002  3.8538e+002 56546 77201,77357,77227
 2.6000e+000 77383 -3.5860e+002 -3.6530e+002  1.2686e+002 56546 77279,77331,77305
 2.6000e+000 77524 -2.5611e+002 -1.3525e+002  2.6280e+002 56546 77331,77279,77498
 2.6000e+000 77547 -1.3323e+002 -2.9034e+002  4.2053e+002 56546 77331,77498,77357
 2.6000e+000 77596 -3.1627e+002 -3.4006e+002  3.5548e+002 56546 77227,77498,77570
 2.6000e+000 77619 -3.7369e+002 -4.6505e+002  3.9258e+002 56546 77227,77570,77253
 2.6000e+000 77818 -3.4603e+002 -3.3899e+002  3.0688e+002 56042 77841,77694,77668
 2.6000e+000 77795 -3.1204e+002 -3.0891e+002  2.3986e+002 56042 77841,77668,77746
 2.6000e+000 77772 -3.9016e+002 -2.8796e+002  2.0491e+002 56042 77642,77746,77668
 2.6000e+000 77867 -3.8222e+002 -3.9134e+002  3.3545e+002 56042 77720,77694,77841
 2.6000e+000 77890 -3.4051e+002 -3.5222e+002  2.6711e+002 56042 77720,77841,77746
 2.6000e+000 78349 -4.9586e+002 -1.4445e+002  1.9772e+002 55538 78075,78127,78101
 2.6000e+000 78326 -6.1690e+002 -3.3905e+002  1.2165e+002 55538 78075,78205,78127
 2.6000e+000 78303 -5.6447e+002 -7.6891e+001  9.2955e+001 55538 78075,78231,78205
 2.6000e+000 78280 -5.6003e+002 -5.8304e+002  3.2754e+002 55538 78127,78179,78153
 2.6000e+000 78257 -4.6685e+002 -3.5178e+002  1.0641e+002 55538 78127,78205,78179
 2.6000e+000 78806 -2.9511e+002 -3.3292e+002  1.0970e+002 55034 78829,78636,78610
 2.6000e+000 78783 -3.3009e+002 -3.5232e+002  1.2375e+002 55034 78901,78829,78610
 2.6000e+000 78760 -2.7714e+002 -3.8174e+002  1.5409e+002 55034 78901,78610,78584
 2.6000e+000 78737 -3.5092e+002 -2.7836e+002  1.4984e+002 55034 78558,78688,78662
 2.6000e+000 78714 -3.8825e+002 -2.9588e+002  2.8825e+002 55034 78532,78688,78558
 2.6000e+000 78855 -3.2937e+002 -3.4797e+002  1.0155e+002 55034 78662,78636,78829
 2.6000e+000 78878 -3.4748e+002 -3.1817e+002  1.4654e+002 55034 78662,78829,78558
 2.6000e+000 78927 -2.8070e+002 -2.8664e+002  1.5691e+002 55034 78558,78829,78901
 2.6000e+000 78950 -2.5488e+002 -3.1850e+002  1.8659e+002 55034 78558,78901,78584
 2.6000e+000 79407 -1.7320e+002 -2.1156e+002  2.0422e+002 54430 79430,79237,79159
 2.6000e+000 79384 -1.4446e+002 -3.3826e+002  7.3525e+001 54430 79430,79159,79133
 2.6000e+000 79361 -2.2277e+002 -2.9801e+002  1.1693e+002 54430 79237,79289,79263
 2.6000e+000 79338 -1.8035e+002 -2.6259e+002  1.3946e+002 54430 79185,79237,79211
 2.6000e+000 79315 -3.9990e+002 -2.8805e+002  2.4817e+002 54430 79159,79237,79185
 2.6000e+000 79456 -1.9348e+002 -3.5604e+002  1.5830e+002 54430 79289,79237,79430
 2.6000e+000 79479 -1.7466e+002 -5.5081e+002  5.6967e+001 54430 79289,79430,79133
 2.6000e+000 79936 -1.8890e+002 -2.1682e+002  2.0623e+002 53919 79662,79766,79688
 2.6000e+000 79913 -6.5852e+002 -3.3227e+002  3.6620e+002 53919 79662,79818,79766
 2.6000e+000 79890 -8.6258e+002 -3.6919e+002  6.2371e+001 53919 79766,79818,79792
 2.6000e+000 79867 -4.4327e+002 -4.1002e+002  2.1437e+002 53919 79714,79766,79740
 2.6000e+000 79844 -4.7156e+002 -3.5991e+002  2.5680e+002 53919 79688,79766,79714
 2.6000e+000 80037 -2.1323e+002 -5.2567e+002  3.5302e+002 53671 79959,80011,79985
 2.6000e+000 80405 -1.2756e+002 -3.4549e+002  1.1521e+002 53267 80108,80264,80238
 2.6000e+000 80382 -1.9033e+002 -2.5404e+002  1.4186e+002 53267 80082,80264,80108
 2.6000e+000 80359 -1.4012e+002 -4.5479e+002  2.1987e+002 53267 80108,80238,80134
 2.6000e+000 80336 -7.4170e+001 -2.5878e+002  1.7117e+002 53267 80134,80212,80186
 2.6000e+000 80313 -2.9028e+002 -4.3192e+002  2.8169e+002 53267 80134,80238,80212
 2.6000e+000 80290 -6.0736e+001 -3.3775e+002  1.3471e+002 53267 80134,80186,80160
 2.6000e+000 80915 -4.8522e+002 -6.8155e+002  3.3328e+001 52969 80644,80774,80748
 2.6000e+000 80892 -3.7801e+002 -3.2144e+002  1.3037e+001 52969 80618,80774,80644
 2.6000e+000 80869 -5.6701e+002 -8.0243e+002 -2.6172e+001 52969 80644,80748,80670
 2.6000e+000 80846 -5.5188e+002 -3.5278e+002  2.8483e+001 52969 80592,80774,80618
 2.6000e+000 80823 -1.1419e+003 -9.3906e+002  1.4168e+002 52969 80670,80722,80696
 2.6000e+000 80800 -5.5235e+002 -7.2764e+002 -3.6926e+001 52969 80670,80748,80722
 2.6000e+000 81266  8.3808e+001 -4.7070e+001  3.0707e+001 52565 81041,81145,81067
 2.6000e+000 81243  5.8626e+001 -1.3421e+002  4.3550e+001 52565 81041,81171,81145
 2.6000e+000 81220 -1.8147e+002 -6.1354e+002  1.4269e+002 52565 81067,81119,81093
 2.6000e+000 81197  1.2109e+002  2.0948e+001  4.7616e+001 52565 81067,81145,81119
 2.6000e+000 81723 -7.0981e+001  6.1310e+000  2.6726e+001 51904 81449,81527,81475
 2.6000e+000 81700 -9.0876e+001 -1.7440e+000  4.7248e+001 51904 81449,81579,81527
 2.6000e+000 81677 -3.2439e+002 -5.1719e+001  5.8134e+001 51904 81449,81605,81579
 2.6000e+000 81654 -2.0767e+002  1.9135e+001  3.5348e+001 51904 81527,81579,81553
 2.6000e+000 81631 -6.1112e+001  2.2155e+001  1.3320e+001 51904 81475,81527,81501
 2.6000e+000 82327 -4.1742e+002 -3.9193e+002  2.7832e+002 51321 82422,82350,82036
 2.6000e+000 82304 -4.4814e+002 -2.8632e+002  3.0819e+002 51321 82494,82350,81958
 2.6000e+000 82281 -4.2940e+002 -4.1395e+002  2.6407e+002 51321 82422,82036,82010
 2.6000e+000 82258 -4.7425e+002 -2.9816e+002  3.1086e+002 51321 82494,81958,81932
 2.6000e+000 82235 -4.4235e+002 -1.9199e+002  1.3235e+002 51321 82062,82114,82088
 2.6000e+000 82212 -1.1021e+003 -6.9895e+002  4.7080e+002 51321 81932,82140,82114
 2.6000e+000 82189 -4.5006e+002 -1.4644e+002  2.5710e+002 51321 81958,82010,81984
 2.6000e+000 82166 -1.7208e+002 -3.6338e+002  1.4382e+002 51321 81906,82140,81932
 2.6000e+000 82376 -4.2398e+002 -4.6015e+002  2.7497e+002 51321 82062,82036,82350
 2.6000e+000 82399 -4.2711e+002 -3.5055e+002  2.5754e+002 51321 82062,82350,82114
 2.6000e+000 82448 -4.0342e+002 -3.6940e+002  3.0365e+002 51321 81958,82350,82422
 2.6000e+000 82471 -4.1261e+002 -3.8933e+002  2.8987e+002 51321 81958,82422,82010
 2.6000e+000 82520 -4.5532e+002 -2.8870e+002  2.9362e+002 51321 82114,82350,82494
 2.6000e+000 82543 -4.5874e+002 -2.9039e+002  2.9520e+002 51321 82114,82494,81932
 2.6000e+000 83019 -4.2871e+002 -1.0365e+003  1.9776e+001 50817 82673,82751,82699
 2.6000e+000 82996 -3.6461e+002 -6.4684e+002  1.3555e+002 50817 83042,82673,82855
 2.6000e+000 82973 -4.3418e+002 -5.4932e+002  1.0503e+002 50817 83042,82855,82803
 2.6000e+000 82950 -6.9015e+002 -6.1833e+002  1.0002e+002 50817 82751,82803,82777
 2.6000e+000 82927 -3.3446e+002 -5.6128e+002  2.0781e+002 50817 82647,82855,82673
 2.6000e+000 82904 -6.5513e+002 -5.9300e+002  3.0599e+002 50817 82803,82855,82829
 2.6000e+000 82881 -5.1819e+002 -1.5037e+003 -8.6482e+001 50817 82699,82751,82725
 2.6000e+000 83068 -2.6746e+002 -5.7112e+002  9.7481e+001 50817 82751,82673,83042
 2.6000e+000 83091 -3.8582e+002 -5.0466e+002  8.1752e+001 50817 82751,83042,82803
 2.6000e+000 83290 -4.5892e+002 -1.9499e+002  2.4163e+002 50356 83313,83166,83140
 2.6000e+000 83267 -4.8294e+002 -3.2761e+002  2.0568e+002 50356 83515,83313,83140
 2.6000e+000 83244 -5.6925e+002 -3.1721e+002  6.9027e+001 50356 83515,83140,83385
 2.6000e+000 83339 -5.9090e+002 -2.6771e+002  3.1848e+002 50356 83192,83166,83313
 2.6000e+000 83362 -3.4165e+002 -2.0561e+002  3.0705e+002 50356 83192,83313,83218
 2.6000e+000 83411 -1.7995e+002 -1.0444e+002  1.2360e+002 50356 83114,83218,83385
 2.6000e+000 83541 -2.5804e+002 -2.5113e+002  1.9704e+002 50356 83218,83313,83515
 2.6000e+000 83564 -2.8083e+002 -1.9903e+002  7.8148e+001 50356 83218,83515,83385
 2.6000e+000 83893 -5.0275e+002 -5.2299e+002  6.6788e+001 49552 83720,83798,83746
 2.6000e+000 83870 -3.1386e+002 -2.3900e+002  1.9713e+002 49552 83694,83798,83720
 2.6000e+000 83847 -2.2123e+002 -2.5723e+002  2.0261e+002 49552 83668,83798,83694
 2.6000e+000 83824 -1.1171e+003 -3.6053e+002 -9.8581e+001 49552 83746,83798,83772
 2.6000e+000 84141 -5.3103e+002 -3.5850e+002  2.2675e+002 49212 84164,84020,83942
 2.6000e+000 84118 -4.9009e+002 -2.2272e+002  3.0423e+002 49212 84164,83942,83916
 2.6000e+000 84095 -4.6642e+002 -4.5261e+002  1.6872e+002 49212 83942,84020,83968
 2.6000e+000 84072 -3.7951e+002 -4.6551e+001  1.2191e+002 49212 83968,84020,83994
 2.6000e+000 84190 -6.0265e+002 -3.4477e+002  1.4613e+002 49212 84046,84020,84164
 2.6000e+000 84213 -5.4899e+002 -2.5073e+002  2.2365e+002 49212 84046,84164,83916
 2.6000e+000 84800 -1.2174e+002 -1.7008e+002  1.2235e+002 48865 84503,84633,84555
 2.6000e+000 84777 -1.6612e+002 -2.4440e+002  1.0024e+002 48865 84503,84659,84633
 2.6000e+000 84754 -1.3606e+002 -2.2593e+002  1.0428e+002 48865 84555,84633,84581
 2.6000e+000 84731 -1.3285e+002 -5.5288e+002  2.4892e+002 48865 84581,84633,84607
 2.6000e+000 84708 -3.5054e+002 -2.3662e+002  1.0453e+002 48865 84503,84555,84529
 2.6000e+000 84685 -1.2448e+002 -1.9956e+002  3.8973e+001 48865 84477,84659,84503
 2.6000e+000 85355 -2.4596e+002 -2.8557e+002  6.7643e+000 48461 85378,85035,85009
 2.6000e+000 85332 -4.2163e+002 -4.1993e+002  8.3182e+001 48461 85378,85009,85165
 2.6000e+000 85309 -4.1342e+002 -4.2017e+002  1.1606e+002 48461 85450,85061,85035
 2.6000e+000 85286 -3.9726e+002 -4.0825e+002  7.9606e+001 48461 85009,85191,85165
 2.6000e+000 85263 -3.4520e+002 -3.5954e+002  2.3550e+002 48461 85087,85165,85113
 2.6000e+000 85240 -1.9412e+002 -5.3179e+002 -8.1945e+001 48461 84983,85191,85009
 2.6000e+000 85217 -2.9144e+002 -4.4617e+002  1.4882e+002 48461 85113,85165,85139
 2.6000e+000 85404 -4.0744e+002 -3.6139e+002  8.7152e+001 48461 85450,85035,85378
 2.6000e+000 85427 -4.3286e+002 -3.8734e+002  1.0525e+002 48461 85087,85378,85165
 2.6000e+000 85476 -4.1486e+002 -5.0482e+002  1.4573e+002 48461 85087,85061,85450
 2.6000e+000 85499 -4.1659e+002 -4.6744e+002  1.1199e+002 48461 85087,85450,85378
 2.6000e+000 86084 -1.4523e+002 -4.0616e+002  1.8249e+002 48057 86323,86107,85787
 2.6000e+000 86061 -2.1701e+002 -4.5468e+002  2.1355e+002 48057 86107,85761,85943
 2.6000e+000 86038 -3.0602e+002 -3.5524e+002  1.6609e+002 48057 86251,86179,85891
 2.6000e+000 86015 -3.0726e+002 -3.1355e+002  1.1107e+002 48057 86251,85891,85839
 2.6000e+000 85992 -2.5035e+002 -2.9526e+002  2.0634e+002 48057 85891,85943,85917
 2.6000e+000 85969 -3.9208e+002 -2.6129e+002  1.6257e+002 48057 85839,85891,85865
 2.6000e+000 86133 -1.7085e+002 -4.4126e+002  1.5299e+002 48057 85813,85787,86107
 2.6000e+000 86156 -2.3911e+002 -4.2267e+002  1.4362e+002 48057 86179,85813,86107
 2.6000e+000 86205 -2.4100e+002 -2.8977e+002  1.9221e+002 48057 85943,85891,86179
 2.6000e+000 86228 -1.5809e+002 -3.3421e+002  1.8889e+002 48057 85943,86179,86107
 2.6000e+000 86277 -2.0399e+002 -3.0711e+002  1.5200e+002 48057 85813,86179,86251
 2.6000e+000 86300 -2.5855e+002 -2.9180e+002  1.0458e+002 48057 85813,86251,85839
 2.6000e+000 86349 -1.2385e+002 -3.9407e+002  1.8745e+002 48057 85761,86107,86323
 2.6000e+000 86855 -1.3956e+002 -2.5998e+002  1.4579e+002 47545 86878,86584,86558
 2.6000e+000 86832 -1.8824e+002 -2.8216e+002  1.3488e+002 47545 86950,86878,86558
 2.6000e+000 86809 -2.0651e+002 -2.2868e+002  1.5302e+002 47545 86950,86558,86532
 2.6000e+000 86786 -1.2723e+002 -3.0309e+002  1.6276e+002 47545 86584,86662,86610
 2.6000e+000 86763 -2.9196e+002 -5.1685e+001  5.6647e+001 47545 86532,86714,86688
 2.6000e+000 86740 -1.9705e+002 -1.3100e+002  1.5816e+002 47545 86610,86662,86636
 2.6000e+000 86904 -1.4988e+002 -3.2007e+002  1.5524e+002 47545 86662,86584,86878
 2.6000e+000 86927 -9.2117e+001 -2.7242e+002  1.1409e+002 47545 86662,86878,86688
 2.6000e+000 86976 -1.3727e+002 -2.0687e+002  1.1168e+002 47545 86688,86878,86950
 2.6000e+000 86999 -1.8677e+002 -2.0437e+002  1.4226e+002 47545 86688,86950,86532
 2.6000e+000 87328 -5.9117e+002 -2.5666e+002  2.0236e+002 47048 87155,87207,87181
 2.6000e+000 87305 -3.3862e+002 -2.6379e+002  1.6326e+002 47048 87129,87207,87155
 2.6000e+000 87282 -6.4994e+002 -4.4698e+002  2.4078e+002 47048 87103,87207,87129
 2.6000e+000 87259 -1.0450e+003 -1.5174e+003 -4.7909e+001 47048 87103,87233,87207
 2.6000e+000 87576 -1.9385e+002 -4.7753e+002  2.3657e+002 46701 87599,87429,87377
 2.6000e+000 87553 -2.7548e+002 -4.9530e+002  2.3361e+002 46701 87599,87377,87481
 2.6000e+000 87530 -2.7693e+002 -4.9169e+002  2.4108e+002 46701 87351,87481,87377
 2.6000e+000 87507 -2.8448e+002 -4.4014e+002  2.8859e+002 46701 87377,87429,87403
 2.6000e+000 87625 -2.3626e+002 -3.7311e+002  1.4887e+002 46701 87455,87429,87599
 2.6000e+000 87648 -4.5328e+002 -4.6839e+002  1.8076e+002 46701 87455,87599,87481
 2.6000e+000 87798 -3.5313e+001 -1.6511e+002  3.0492e+001 46239 87697,87749,87723
 2.6000e+000 87775 -1.2069e+002 -5.1349e+002  1.0074e+002 46239 87671,87749,87697
 2.6000e+000 88308 -5.7698e+002 -6.1701e+002  1.2549e+002 45735 88089,88167,88141
 2.6000e+000 88285 -4.1207e+002 -2.7522e+002  1.7808e+002 45735 88011,88167,88089
 2.6000e+000 88262 -2.5623e+002 -2.5891e+002  1.1897e+002 45735 87985,88167,88011
 2.6000e+000 88239 -3.1309e+002 -1.1440e+003  3.0344e+002 45735 88011,88089,88063
 2.6000e+000 88216 -7.0336e+002 -6.6845e+002  1.3493e+002 45735 88089,88141,88115
 2.6000e+000 88193 -6.4046e+002 -1.6973e+003  6.2415e+001 45735 88011,88063,88037
 2.6000e+000 88686 -4.5694e+002 -1.8993e+002  2.8898e+002 45316 88438,88516,88490
 2.6000e+000 88663 -4.2235e+002  1.3048e+002  4.1371e+002 45316 88438,88542,88516
 2.6000e+000 88640 -2.2837e+002 -4.5930e+002  5.0988e+002 45316 88438,88568,88542
 2.6000e+000 88617 -5.1291e+002 -3.6395e+002  2.4323e+002 45316 88438,88490,88464
 2.6000e+000 88594 -4.5603e+002 -4.9317e+002  5.1890e+002 45316 88412,88568,88438
 2.6000e+000 88934 -8.2742e+002 -7.6335e+002  4.7229e+002 44812 88957,88735,88709
 2.6000e+000 88911 -4.4510e+002 -4.6582e+002  1.8215e+002 44812 88957,88709,88839
 2.6000e+000 88888 -4.2902e+002 -3.0752e+002  9.2059e+001 44812 89029,88787,88761
 2.6000e+000 88865 -3.8139e+002 -3.3415e+002  1.2519e+002 44812 88787,88839,88813
 2.6000e+000 88983 -2.1645e+002 -4.4522e+002  2.9534e+002 44812 88761,88735,88957
 2.6000e+000 89006 -3.7310e+002 -3.7609e+002  7.4056e+001 44812 89029,88761,88957
 2.6000e+000 89055 -4.0016e+002 -3.8879e+002  1.2326e+002 44812 88839,88787,89029
 2.6000e+000 89078 -4.0588e+002 -5.2444e+002  1.2666e+002 44812 88839,89029,88957
 2.6000e+000 89228 -9.4419e+001 -3.1954e+002  2.5325e+002 44408 89127,89179,89153
 2.6000e+000 89205  1.1121e+001  2.7464e+000 -3.3973e-001 44408 89101,89179,89127
 2.6000e+000 89787 -4.7466e+002 -2.6611e+002  2.4903e+002 43854 89810,89545,89519
 2.6000e+000 89764 -5.1899e+002 -3.6488e+002  2.2291e+002 43854 89810,89519,89467
 2.6000e+000 89741 -4.9162e+002 -5.1302e+002  2.1707e+002 43854 89954,89882,89597
 2.6000e+000 89718 -4.9303e+002 -5.3178e+002  2.1276e+002 43854 89954,89597,89571
 2.6000e+000 89695 -2.5716e+002 -2.9895e+002  2.0044e+002 43854 89415,89623,89467
 2.6000e+000 89672 -2.2160e+002 -2.2545e+002  1.4909e+002 43854 89467,89519,89493
 2.6000e+000 89649 -1.4743e+002 -2.2944e+002  1.5380e+002 43854 89415,89467,89441
 2.6000e+000 89836 -4.8328e+002 -2.7371e+002  2.6997e+002 43854 89882,89545,89810
 2.6000e+000 89859 -2.8030e+002 -3.2381e+002  1.8633e+002 43854 89623,89810,89467
 2.6000e+000 89908 -4.7553e+002 -5.6365e+002  2.9746e+002 43854 89623,89597,89882
 2.6000e+000 89931 -4.6753e+002 -5.3080e+002  2.7437e+002 43854 89623,89882,89810
 2.6000e+000 89980 -5.0534e+002 -4.7919e+002  3.3264e+002 43854 89545,89882,89954
 2.6000e+000 90003 -5.4129e+002 -5.7869e+002  3.4445e+002 43854 89545,89954,89571
 2.6000e+000 90251 -1.9894e+002 -2.0583e+002  1.6061e+002 43492 90026,90078,90052
 2.6000e+000 90228 -4.4127e+002 -2.8558e+002  1.3702e+002 43492 90274,90026,90156
 2.6000e+000 90205 -4.1252e+002 -3.4749e+002  1.3890e+002 43492 90346,90274,90156
 2.6000e+000 90182 -4.3671e+002 -4.8997e+002  3.9160e+002 43492 90346,90156,90130
 2.6000e+000 90300 -2.8600e+002 -3.6960e+002  1.9775e+002 43492 90078,90026,90274
 2.6000e+000 90323 -4.9481e+002 -4.2742e+002  2.0241e+002 43492 90078,90274,90104
 2.6000e+000 90372 -7.1652e+002 -5.4456e+002  3.0305e+002 43492 90104,90274,90346
 2.6000e+000 90395 -7.5717e+002 -7.2934e+002  5.6343e+002 43492 90104,90346,90130
 2.6000e+000 90594 -1.3454e+002 -5.0940e+002  1.4118e+002 43052 90418,90496,90444
 2.6000e+000 90571 -4.5891e+002 -7.6518e+002  2.5239e+002 43052 90418,90522,90496
 2.6000e+000 90548 -2.9048e+002 -3.5496e+002  1.8151e+002 43052 90444,90496,90470
 2.6000e+000 91074 -3.3693e+002 -5.6769e+002  2.2239e+002 42434 91241,90884,90858
 2.6000e+000 91051 -6.0931e+002 -6.8019e+002 -7.2051e+001 42434 90702,90910,90884
 2.6000e+000 91028 -2.9110e+002 -5.0759e+002  2.1156e+002 42434 91097,90754,90702
 2.6000e+000 91005 -3.4975e+002 -4.1106e+002  2.1881e+002 42434 91241,90858,91097
 2.6000e+000 90982 -1.9764e+002 -3.4420e+002  9.0420e+001 42434 91169,90806,90780
 2.6000e+000 90959 -1.0360e+002 -3.5020e+002  4.1818e+001 42434 90806,90858,90832
 2.6000e+000 90936 -2.7673e+002 -5.2757e+002  2.1212e+002 42434 90702,90754,90728
 2.6000e+000 91123 -3.9644e+002 -5.3918e+002  1.5758e+002 42434 90780,90754,91097
 2.6000e+000 91146 -3.5972e+002 -4.3130e+002  1.9516e+002 42434 91169,90780,91097
 2.6000e+000 91195 -1.3422e+002 -3.1512e+002  1.4022e+001 42434 90858,90806,91169
 2.6000e+000 91218 -2.0746e+002 -2.4727e+002  9.0516e+001 42434 90858,91169,91097
 2.6000e+000 91267 -2.9760e+002 -7.4121e+002  1.5846e+002 42434 90702,90884,91241
 2.6000e+000 91290 -3.2792e+002 -6.0446e+002  1.5435e+002 42434 90702,91241,91097
 2.6000e+000 91698 -1.0732e+002 -3.9097e+002  1.5870e+002 41773 91473,91577,91499
 2.6000e+000 91675 -1.8661e+002 -4.5880e+002  2.1158e+002 41773 91473,91603,91577
 2.6000e+000 91652 -2.1947e+002 -3.0133e+002  5.5394e+001 41773 91499,91551,91525
 2.6000e+000 91629 -2.8861e+002 -3.3575e+002  1.5263e+002 41773 91499,91577,91551
 2.6000e+000 92044 -3.2469e+002 -3.9362e+002  2.7000e+002 41383 91773,91877,91851
 2.6000e+000 92021 -2.1138e+002 -4.8640e+002  1.6430e+002 41383 91747,91877,91773
 2.6000e+000 91998 -2.3562e+002 -2.6263e+002  1.9829e+002 41383 91773,91851,91799
 2.6000e+000 91975 -1.5354e+002 -3.2344e+002  2.1599e+001 41383 91747,91903,91877
 2.6000e+000 91952 -1.1025e+002 -2.2942e+002  1.0338e+002 41383 91721,91903,91747
 2.6000e+000 91929 -9.8971e+001 -3.0581e+002  1.3721e+002 41383 91799,91851,91825
 2.6000e+000 92601 -4.2152e+002 -3.7962e+002  1.1819e+002 40979 92229,92411,92307
 2.6000e+000 92578 -5.5620e+002 -3.9478e+002  1.0488e+002 40979 92229,92437,92411
 2.6000e+000 92555 -3.8794e+002 -2.9007e+002  1.1227e+002 40979 92229,92307,92281
 2.6000e+000 92532 -3.3984e+002 -3.7693e+002  1.8060e+002 40979 92333,92411,92385
 2.6000e+000 92509 -3.4031e+002 -3.2550e+002  1.4238e+002 40979 92307,92411,92333
 2.6000e+000 92486 -4.1419e+002 -3.3516e+002  9.9372e+001 40979 92229,92281,92255
 2.6000e+000 92463 -4.6831e+001 -3.5967e+002  1.2959e+002 40979 92333,92385,92359
 2.6000e+000 93235 -4.5863e+002 -2.7536e+002  3.5775e+002 40525 92941,92993,92967
 2.6000e+000 93212 -6.6905e+002 -1.5145e+002  8.3302e+001 40525 93258,92941,92889
 2.6000e+000 93189 -5.1905e+002 -7.5849e+001  4.7396e+001 40525 93258,92889,93071
 2.6000e+000 93166 -5.7828e+002 -2.3227e+002  6.8522e+001 40525 92889,92941,92915
 2.6000e+000 93143 -5.8169e+002 -6.2504e+001  3.9672e+001 40525 92863,93071,92889
 2.6000e+000 93120 -4.8801e+002 -2.6540e+002  1.6455e+002 40525 92993,93071,93019
 2.6000e+000 93097 -5.1288e+002 -2.0301e+002  1.4102e+002 40525 93019,93071,93045
 2.6000e+000 93284 -7.4908e+002 -2.6443e+002  2.5718e+002 40525 92993,92941,93258
 2.6000e+000 93307 -4.5674e+002 -9.9755e+001  1.9141e+002 40525 92993,93258,93071
 2.6000e+000 93636 -5.3910e+002 -4.2842e+002  4.4948e+002 40235 93437,93541,93515
 2.6000e+000 93613 -4.6492e+002 -5.8667e+002  4.1299e+002 40235 93411,93541,93437
 2.6000e+000 93590 -9.6515e+001 -5.2320e+002  1.4454e+002 40235 93463,93515,93489
 2.6000e+000 93567 -2.3920e+002 -3.5094e+002  7.9068e+001 40235 93437,93515,93463
 2.6000e+000 94014 -5.8534e+002 -5.4228e+002  2.6833e+002 39873 93766,93870,93792
 2.6000e+000 93991 -4.8600e+002 -6.0986e+002  2.0793e+002 39873 93766,93896,93870
 2.6000e+000 93968 -5.4074e+002 -4.1363e+002  2.8421e+002 39873 93792,93870,93844
 2.6000e+000 93945 -3.7632e+002 -2.9983e+002  2.0004e+002 39873 93792,93844,93818
 2.6000e+000 93922 -3.6667e+002 -5.4105e+002  3.6706e+002 39873 93740,93896,93766
 2.6000e+000 94164 -3.9594e+001 -3.0811e+002  1.1105e+002 39461 94037,94089,94063
 2.6000e+000 94141 -1.2715e+002 -6.3253e+002  2.4090e+002 39461 94037,94115,94089
 2.6000e+000 94363 -3.0347e+002 -2.0503e+002  1.6743e+002 39057 94386,94239,94213
 2.6000e+000 94340 -1.9189e+002 -1.2617e+002  1.2742e+002 39057 94386,94213,94187
 2.6000e+000 94317 -3.2257e+002 -2.3431e+002  1.5723e+002 39057 94187,94291,94265
 2.6000e+000 94412 -1.2574e+002 -1.6082e+002  1.4328e+002 39057 94458,94386,94265
 2.6000e+000 94435 -2.2910e+002 -2.0561e+002  1.3870e+002 39057 94265,94386,94187
 2.6000e+000 94484 -2.6873e+002 -2.7145e+002  2.0347e+002 39057 94239,94386,94458
 2.6000e+000 94896 -5.4989e+002 -3.9436e+002  2.5582e+002 38396 94919,94775,94723
 2.6000e+000 94873 -6.2288e+002 -3.1579e+002  2.5936e+002 38396 94919,94723,94697
 2.6000e+000 94850 -4.3217e+002 -3.6533e+002  1.8198e+002 38396 94723,94775,94749
 2.6000e+000 94827 -2.7857e+002 -1.7295e+002  1.6979e+002 38396 94671,94801,94697
 2.6000e+000 94945 -5.4028e+002 -3.4077e+002  2.2598e+002 38396 94801,94775,94919
 2.6000e+000 94968 -5.8024e+002 -2.4132e+002  2.1527e+002 38396 94801,94919,94697
 2.6000e+000 95265 -5.6486e+002 -5.4495e+002  2.6612e+002 37835 95017,95069,95043
 2.6000e+000 95242 -5.7474e+002 -4.7254e+002  2.6882e+002 37835 95288,95069,95017
 2.6000e+000 95219 -6.1234e+002 -5.2464e+002  3.6530e+002 37835 95288,95017,94991
 2.6000e+000 95196 -6.6639e+002 -5.4958e+002  3.3317e+002 37835 94991,95147,95121
 2.6000e+000 95173 -3.9261e+002 -2.7775e+002  2.3469e+002 37835 95069,95121,95095
 2.6000e+000 95314 -5.6057e+002 -3.3957e+002  2.1314e+002 37835 95121,95069,95288
 2.6000e+000 95337 -5.9676e+002 -4.2168e+002  3.0350e+002 37835 95121,95288,94991
 2.6000e+000 95558  8.7316e+001 -4.0344e+000  1.0902e+002 37423 95408,95460,95434
 2.6000e+000 95535 -1.3751e+002 -6.0663e+002  2.9990e+002 37423 95382,95460,95408
 2.6000e+000 95512 -3.0728e+002 -7.4472e+002  3.6012e+002 37423 95382,95486,95460
 2.6000e+000 95891 -5.5758e+001 -3.3778e+002  1.2052e+002 37225 95666,95718,95692
 2.6000e+000 95868 -3.1516e+002 -5.2130e+002  2.1402e+002 37225 95666,95796,95718
 2.6000e+000 95845 -2.5591e+002 -3.3787e+002  7.0953e+001 37225 95718,95770,95744
 2.6000e+000 95822 -1.5150e+002 -3.0973e+002  7.1477e+001 37225 95718,95796,95770
 2.6000e+000 95992 -4.1198e+001 -2.8356e+002  1.4249e+002 36735 95914,95966,95940
 2.6000e+000 96142 -6.1556e+002 -2.5845e+002  3.2245e+002 36331 96297,96067,96041
 2.6000e+000 96119 -4.9837e+002 -2.5886e+002  3.1541e+002 36331 96165,96041,96015
 2.6000e+000 96191 -5.8491e+002 -2.5420e+002  3.0500e+002 36331 96297,96041,96165
 2.6000e+000 96323 -6.7660e+002 -2.7790e+002  3.8606e+002 36331 96093,96067,96297
 2.6000e+000 96346 -5.8710e+002 -2.4818e+002  3.7178e+002 36331 96093,96297,96165
 2.6000e+000 96714 -3.4361e+002 -5.3498e+002  3.5989e+002 36041 96737,96495,96443
 2.6000e+000 96691 -4.8260e+002 -3.8852e+002  3.6230e+002 36041 96737,96443,96417
 2.6000e+000 96668 -1.5091e+002 -5.8481e+002  5.4842e+001 36041 96443,96495,96469
 2.6000e+000 96645 -1.1825e+002 -1.4029e+002  1.9546e+002 36041 96391,96521,96417
 2.6000e+000 96622 -1.3410e+001 -1.9478e+002  1.6749e+002 36041 96391,96547,96521
 2.6000e+000 96599 -5.8593e+001 -2.0438e+002  1.5917e+002 36041 96391,96573,96547
 2.6000e+000 96763 -1.5063e+002 -4.1107e+002  3.0652e+002 36041 96521,96495,96737
 2.6000e+000 96786 -4.0946e+002 -3.5417e+002  3.4023e+002 36041 96521,96737,96417
 2.6000e+000 96936 -3.2227e+002 -1.9691e+002  2.0668e+002 35637 97031,96959,96835
 2.6000e+000 96913 -4.5209e+002 -2.3602e+002  2.3221e+002 35637 97163,96959,96809
 2.6000e+000 96985 -4.4934e+002 -1.6554e+002  2.4033e+002 35637 96861,96835,96959
 2.6000e+000 97008 -5.8574e+002 -2.9738e+002  3.9186e+002 35637 96861,96959,96887
 2.6000e+000 97057 -3.6496e+002 -1.3175e+002  1.3829e+002 35637 96809,96959,97031
 2.6000e+000 97189 -3.7469e+002 -1.9345e+002  2.5543e+002 35637 96887,96959,97163
 2.6000e+000 97597 -2.6575e+002 -3.1908e+002  2.8531e+002 35190 97450,97502,97476
 2.6000e+000 97574 -2.8504e+002 -3.8570e+002  3.3742e+002 35190 97372,97502,97450
 2.6000e+000 97551 -2.9193e+002 -4.5454e+002  3.1834e+002 35190 97372,97450,97398
 2.6000e+000 97528 -2.5132e+002 -4.2954e+002  3.0079e+002 35190 97398,97450,97424
 2.6000e+000 98054 -3.5370e+002 -4.3672e+002  3.3021e+002 34636 97806,97936,97858
 2.6000e+000 98031 -5.6871e+002 -3.2209e+002  2.7998e+002 34636 97780,97936,97806
 2.6000e+000 98008 -5.1747e+002 -4.3186e+002  1.7601e+002 34636 97806,97858,97832
 2.6000e+000 97985 -3.8961e+002 -4.5917e+002  3.3843e+002 34636 97884,97936,97910
 2.6000e+000 97962 -2.3359e+002 -3.1027e+002  2.5381e+002 34636 97858,97936,97884
 2.6000e+000 98530 -4.1536e+002  1.2503e+001  9.3421e+001 34068 98697,98184,98366
 2.6000e+000 98507 -3.3084e+001 -6.6638e+001  2.6802e+001 34068 98158,98366,98184
 2.6000e+000 98484 -5.5501e+002 -5.1537e+002  2.1862e+002 34068 98553,98262,98236
 2.6000e+000 98461 -1.0046e+003 -7.1090e+002  1.5596e+002 34068 98553,98236,98210
 2.6000e+000 98438 -5.2831e+002 -2.8475e+002  2.0127e+002 34068 98841,98625,98366
 2.6000e+000 98415 -5.4665e+002 -7.7972e+002  3.6083e+002 34068 98769,98288,98262
 2.6000e+000 98392 -7.0088e+002 -1.6043e+002  1.7282e+002 34068 98841,98366,98340
 2.6000e+000 98579 -6.2841e+002 -6.2262e+002  2.5809e+002 34068 98769,98262,98553
 2.6000e+000 98602 -5.3486e+002 -3.5150e+002  2.1007e+002 34068 98625,98314,98553
 2.6000e+000 98651 -4.8298e+002 -2.7611e+002  1.4599e+002 34068 98697,98366,98625
 2.6000e+000 98674 -6.0222e+002 -5.3137e+002  1.8953e+002 34068 98210,98625,98553
 2.6000e+000 98723 -5.5577e+002 -3.3561e+002  1.6268e+002 34068 98210,98184,98697
 2.6000e+000 98746 -5.1344e+002 -3.9168e+002  2.3266e+002 34068 98210,98697,98625
 2.6000e+000 98795 -3.4489e+002 -6.1674e+002  2.5844e+002 34068 98314,98288,98769
 2.6000e+000 98818 -4.6149e+002 -5.0926e+002  1.6310e+002 34068 98314,98769,98553
 2.6000e+000 98867 -6.9135e+002 -4.1631e+002  1.3978e+002 34068 98314,98625,98841
 2.6000e+000 98890 -8.6528e+002 -2.7912e+002  1.1756e+002 34068 98314,98841,98340
 2.6000e+000 99268 -7.0475e+002 -6.2105e+002  4.4764e+002 33450 99291,99098,99072
 2.6000e+000 99245 -7.6187e+002 -4.8546e+002  2.4484e+002 33450 99291,99072,99020
 2.6000e+000 99222 -1.1643e+003 -6.0590e+002  3.8987e+002 33450 99020,99072,99046
 2.6000e+000 99199 -6.0989e+002 -4.3553e+002  2.4081e+002 33450 99020,99150,99124
 2.6000e+000 99176 -6.1983e+002 -4.2591e+002  4.2522e+001 33450 98994,99150,99020
 2.6000e+000 99317 -3.9406e+002 -4.8432e+002  4.2569e+002 33450 99124,99098,99291
 2.6000e+000 99340 -6.6173e+002 -4.4954e+002  2.4567e+002 33450 99124,99291,99020
 2.6000e+000 99865 -3.8125e+002 -3.6567e+002  2.1707e+002 32944 100176,99960,99888
 2.6000e+000 99842 -4.3253e+002 -3.7339e+002  2.2245e+002 32944 100104,99888,99522
 2.6000e+000 99819 -3.8182e+002 -3.4693e+002  2.8233e+002 32944 100248,99960,99626
 2.6000e+000 99796 -3.6049e+002 -4.1032e+002  1.3525e+002 32944 100032,99652,99626
 2.6000e+000 99773 -3.5423e+002 -4.2863e+002  1.4895e+002 32944 100104,99522,99496
 2.6000e+000 99750 -2.6600e+002 -2.2079e+002  3.9758e+001 32944 99574,99626,99600
 2.6000e+000 99727 -3.2591e+002 -3.2591e+002  3.0471e+002 32944 100248,99626,99574
 2.6000e+000 99704 -2.1206e+002 -3.6366e+002  2.0625e+002 32944 99444,99496,99470
 2.6000e+000 99914 -3.8521e+002 -3.3661e+002  1.5527e+002 32944 100176,99888,100032
 2.6000e+000 99937 -4.4948e+002 -2.9488e+002  2.4194e+002 32944 99678,99888,99444
 2.6000e+000 99986 -4.1864e+002 -3.0660e+002  2.1166e+002 32944 99522,99888,99960
 2.6000e+000 100009 -4.4187e+002 -2.5752e+002  2.4663e+002 32944 99522,99960,99548
 2.6000e+000 100058 -4.3532e+002 -4.1070e+002  1.3456e+002 32944 99678,99652,100032
 2.6000e+000 100081 -4.7694e+002 -3.8451e+002  1.3786e+002 32944 99678,100032,99888
 2.6000e+000 100130 -2.9200e+002 -3.1106e+002  2.3902e+002 32944 99444,99888,100104
 2.6000e+000 100153 -2.3740e+002 -3.7679e+002  1.7111e+002 32944 99444,100104,99496
 2.6000e+000 100202 -4.2220e+002 -4.6126e+002  2.1166e+002 32944 99626,99960,100176
 2.6000e+000 100225 -4.3786e+002 -4.5967e+002  1.5640e+002 32944 99626,100176,100032
 2.6000e+000 100274 -4.7101e+002 -3.2560e+002  2.4706e+002 32944 99548,99960,100248
 2.6000e+000 100297 -4.2125e+002 -3.1050e+002  2.6829e+002 32944 99548,100248,99574
 2.6000e+000 100754 -1.4139e+002 -1.6569e+002  9.2004e+001 32369 100777,100584,100506
 2.6000e+000 100731 -1.6350e+002 -2.5259e+002  1.7772e+002 32369 100777,100506,100636
 2.6000e+000 100708 -2.6797e+002 -2.6307e+002  1.8275e+002 32369 100480,100636,100506
 2.6000e+000 100685 -4.2232e+002 -2.0189e+002  3.3683e+000 32369 100532,100584,100558
 2.6000e+000 100662 -1.7208e+002 -1.9425e+002  1.1254e+002 32369 100506,100584,100532
 2.6000e+000 100803 -1.7579e+002 -3.3169e+001  6.8851e+001 32369 100610,100584,100777
 2.6000e+000 100826 -1.8115e+002 -1.2396e+002  1.4153e+002 32369 100610,100777,100636
 2.6000e+000 101025 -3.6340e+002 -2.9775e+002  2.8356e+002 31857 100875,100927,100901
 2.6000e+000 101002 -7.0600e+002 -1.5741e+002  2.8587e+002 31857 100875,100953,100927
 2.6000e+000 100979 -7.7497e+002 -2.8423e+002  2.2341e+002 31857 100849,100953,100875
 2.6000e+000 101533 -3.4250e+002 -4.3228e+002  3.3990e+002 31253 101556,101314,101236
 2.6000e+000 101510 -4.9325e+002 -4.3726e+002  3.1265e+002 31253 101556,101236,101210
 2.6000e+000 101487 -4.4944e+002 -4.1946e+002  1.3741e+002 31253 101210,101392,101340
 2.6000e+000 101464 -2.6396e+002 -4.0398e+002  2.5612e+002 31253 101236,101288,101262
 2.6000e+000 101441 -3.2525e+002 -6.0215e+002  3.2110e+002 31253 101236,101314,101288
 2.6000e+000 101418 -4.7323e+002 -6.0380e+002  3.2221e+002 31253 101340,101392,101366
 2.6000e+000 101582 -3.9544e+002 -4.4998e+002  2.1960e+002 31253 101340,101314,101556
 2.6000e+000 101605 -5.4499e+002 -4.3904e+002  1.9897e+002 31253 101340,101556,101210
 2.6000e+000 101755  8.1616e+001 -8.1312e+001  4.0495e+001 30519 101778,101654,101628
 2.6000e+000 101732 -1.1975e+002 -1.4162e+002  3.4456e+001 30519 101850,101778,101628
 2.6000e+000 101804 -7.8081e+001 -6.5766e+001 -3.0010e+001 30519 101680,101654,101778
 2.6000e+000 101827 -1.7694e+002 -7.1390e+001 -1.4637e+001 30519 101680,101778,101706
 2.6000e+000 101876 -1.1405e+002 -1.4564e+002 -9.1291e+000 30519 101706,101778,101850
 2.6000e+000 102561 -1.7621e+002 -3.2022e+002  1.6913e+002 29951 102656,102584,102270
 2.6000e+000 102538 -6.5433e+002 -6.9236e+002  1.1619e+002 29951 102584,102140,102374
 2.6000e+000 102515 -3.3492e+002 -7.9368e+002  4.1035e+002 29951 102728,102656,102270
 2.6000e+000 102492 -3.6649e+002 -9.7864e+002  4.1251e+002 29951 102728,102270,102244
 2.6000e+000 102469 -5.2510e+002 -1.5808e+002  2.4180e+002 29951 102800,102322,102296
 2.6000e+000 102446 -5.3721e+002 -3.5276e+002  9.9755e+001 29951 102166,102218,102192
 2.6000e+000 102423 -4.5869e+002 -3.8616e+002  5.5090e+001 29951 102166,102244,102218
 2.6000e+000 102400 -2.8912e+002 -3.5095e+002  2.0428e+002 29951 102322,102374,102348
 2.6000e+000 102610 -6.2130e+002 -2.3340e+002  6.7141e+001 29951 102296,102270,102584
 2.6000e+000 102633 -7.0657e+002 -3.1679e+002  1.3505e+002 29951 102800,102296,102584
 2.6000e+000 102682 -7.8306e+002 -6.9002e+002  3.4785e+002 29951 102140,102584,102656
 2.6000e+000 102705 -4.6306e+002 -6.6411e+002  5.2105e+002 29951 102140,102656,102166
 2.6000e+000 102754 -3.7588e+002 -5.8795e+002  4.8889e+002 29951 102166,102656,102728
 2.6000e+000 102777 -3.9768e+002 -7.2793e+002  4.5390e+002 29951 102166,102728,102244
 2.6000e+000 102826 -3.3196e+002 -3.4014e+002  3.1948e+002 29951 102374,102322,102800
 2.6000e+000 102849 -4.1713e+002 -3.5498e+002  2.5281e+002 29951 102374,102800,102584
 2.6000e+000 103048  2.2916e+001 -2.0798e+002  5.6678e+001 29454 102872,102924,102898
 2.6000e+000 103025 -5.1888e+001 -5.9764e+002  1.6648e+002 29454 102872,102976,102924
 2.6000e+000 103002 -1.9702e+002 -8.3272e+002  9.1877e+001 29454 102924,102976,102950
 2.6000e+000 103296 -7.8530e+002 -5.7419e+002  3.9815e+002 29064 103319,103175,103123
 2.6000e+000 103273 -1.0543e+003 -5.7836e+002  4.5800e+002 29064 103319,103123,103071
 2.6000e+000 103250 -4.8128e+002 -3.6505e+002  2.9217e+002 29064 103123,103175,103149
 2.6000e+000 103227 -8.0509e+002 -4.6997e+002  5.6746e+002 29064 103071,103123,103097
 2.6000e+000 103345 -5.4636e+002 -6.3389e+002  2.9069e+002 29064 103201,103175,103319
 2.6000e+000 103368 -8.6494e+002 -5.9286e+002  2.5331e+002 29064 103201,103319,103071
 2.6000e+000 104006 -4.4686e+002 -2.2840e+002  1.8150e+002 28603 104101,104029,103712
 2.6000e+000 103983 -3.8865e+002 -1.6385e+002  1.5774e+002 28603 104173,104029,103660
 2.6000e+000 103960 -5.3424e+002 -1.8674e+002  1.6982e+002 28603 104101,103712,103686
 2.6000e+000 103937 -2.8095e+002 -2.0792e+002  1.5769e+002 28603 104173,103660,103634
 2.6000e+000 103914 -4.8214e+002 -2.5129e+002  2.4952e+002 28603 103764,103816,103790
 2.6000e+000 103891 -3.0369e+002 -1.9569e+002  2.3247e+002 28603 103634,103842,103816
 2.6000e+000 103868 -3.8081e+002 -1.4485e+002  2.3345e+002 28603 103712,103764,103738
 2.6000e+000 104055 -4.5730e+002 -1.8592e+002  1.9803e+002 28603 103764,103712,104029
 2.6000e+000 104078 -4.3561e+002 -1.8878e+002  2.2894e+002 28603 103764,104029,103816
 2.6000e+000 104127 -5.6054e+002 -2.3507e+002  1.4349e+002 28603 103660,104029,104101
 2.6000e+000 104150 -6.9236e+002 -2.1692e+002  1.5349e+002 28603 103660,104101,103686
 2.6000e+000 104199 -4.7326e+002 -1.9271e+002  1.8650e+002 28603 103816,104029,104173
 2.6000e+000 104222 -3.7982e+002 -2.3868e+002  1.7472e+002 28603 103816,104173,103634
 2.6000e+000 104600 -2.9424e+002 -5.6529e+002  1.2672e+002 28348 104623,104378,104326
 2.6000e+000 104577 -2.3949e+002 -5.9051e+002  2.4262e+002 28348 104623,104326,104482
 2.6000e+000 104554 -2.7652e+002 -3.6569e+002  9.9550e+001 28348 104326,104378,104352
 2.6000e+000 104531 -2.8819e+002 -1.3354e+000  1.8300e+000 28348 104404,104456,104430
 2.6000e+000 104508 -3.7447e+002 -2.2731e+002  1.9721e+002 28348 104378,104456,104404
 2.6000e+000 104649 -2.4446e+002 -4.6092e+002  1.6474e+002 28348 104456,104378,104623
 2.6000e+000 104672 -1.7258e+002 -4.6759e+002  2.8365e+002 28348 104456,104623,104482
 2.6000e+000 104991 -5.2385e+002 -5.2219e+002  3.9623e+002 27951 104717,104847,104769
 2.6000e+000 104968 -1.4890e+002 -3.6046e+002  3.6996e+002 27951 104717,104873,104847
 2.6000e+000 104945 -1.7838e+002 -4.2501e+002  4.3224e+002 27951 104769,104847,104795
 2.6000e+000 104922  3.0132e+001  8.8801e+001  4.0559e+002 27951 104795,104847,104821
 2.6000e+000 104899 -4.9009e+002 -3.7371e+002  4.3052e+002 27951 104717,104769,104743
 2.6000e+000 105371 -7.1781e+002 -4.2452e+002  3.2489e+002 27447 105394,105201,105123
 2.6000e+000 105348 -9.5455e+002 -3.8116e+002  4.7895e+002 27447 105394,105123,105097
 2.6000e+000 105325 -1.1320e+003 -4.5806e+002  3.1147e+002 27447 105123,105201,105149
 2.6000e+000 105302 -5.8504e+002 -5.1539e+002  3.3261e+002 27447 105201,105253,105227
 2.6000e+000 105279 -5.7456e+002 -6.2115e+002  1.1238e+002 27447 105149,105201,105175
 2.6000e+000 105420 -5.8440e+002 -3.5002e+002  2.4691e+002 27447 105253,105201,105394
 2.6000e+000 105443 -7.8655e+002 -2.2871e+002  3.7848e+002 27447 105253,105394,105097
 2.6000e+000 105998 -4.8393e+002 -3.3689e+002  3.4285e+002 27100 106165,106021,105704
 2.6000e+000 105975 -2.0979e+002 -1.6097e+002  2.8860e+002 27100 106309,106021,105652
 2.6000e+000 105952 -8.0216e+002 -5.7192e+002  5.9632e+002 27100 106093,105808,105782
 2.6000e+000 105929 -4.6367e+002 -3.6265e+002  3.2039e+002 27100 106165,105704,105678
 2.6000e+000 105906 -2.1744e+002 -5.2484e+002  2.7440e+002 27100 106237,105730,105704
 2.6000e+000 105883 -1.9538e+002 -3.0953e+002  1.9972e+002 27100 106309,105652,105626
 2.6000e+000 105860 -9.6322e+001 -9.5791e+000  3.0472e+001 27100 105730,105782,105756
 2.6000e+000 106047 -4.3188e+002 -2.7753e+002  3.8359e+002 27100 106237,105704,106021
 2.6000e+000 106070 -4.6227e+002 -2.5752e+002  4.5870e+002 27100 106093,105782,106021
 2.6000e+000 106119 -3.1962e+002 -4.7905e+002  2.9125e+002 27100 105834,105808,106093
 2.6000e+000 106142 -3.7319e+002 -6.0314e+002  4.0859e+002 27100 106381,106093,106021
 2.6000e+000 106191 -4.5064e+002 -3.1105e+002  3.5537e+002 27100 105652,106021,106165
 2.6000e+000 106214 -4.1703e+002 -3.3883e+002  3.3405e+002 27100 105652,106165,105678
 2.6000e+000 106263 -2.7687e+001 -2.7684e+002  1.9139e+002 27100 105782,105730,106237
 2.6000e+000 106286 -2.8578e+002 -9.4256e+001  3.1936e+002 27100 105782,106237,106021
 2.6000e+000 106335 -3.1394e+002 -3.6866e+002  3.2415e+002 27100 106381,106021,106309
 2.6000e+000 106358 -1.9465e+002 -2.3335e+002  1.7685e+002 27100 105834,106309,105626
 2.6000e+000 106407 -2.2910e+002 -3.3226e+002  2.4829e+002 27100 105834,106093,106381
 2.6000e+000 106430 -2.3650e+002 -2.8689e+002  1.5826e+002 27100 105834,106381,106309
 2.6000e+000 106629 -7.7345e+001 -5.1439e+002  1.7022e+002 26688 106479,106557,106531
 2.6000e+000 106606 -1.0699e+002 -4.2294e+002  1.6396e+002 26688 106453,106557,106479
 2.6000e+000 106583 -2.2612e+002 -5.5089e+002  5.8025e+001 26688 106479,106531,106505
 2.6000e+000 107088 -2.2883e+002 -1.9584e+002  9.1268e+001 26248 107111,106918,106866
 2.6000e+000 107065 -2.4166e+002 -1.6976e+002  1.0552e+002 26248 107111,106866,106840
 2.6000e+000 107042 -1.6776e+002 -1.2127e+002  1.0799e+002 26248 106814,106970,106840
 2.6000e+000 107019 -2.3197e+002 -4.1189e+002  1.6081e+002 26248 106866,106918,106892
 2.6000e+000 106996 -3.7700e+002 -2.7100e+002  7.7451e+001 26248 106918,106970,106944
 2.6000e+000 107137 -2.5326e+002 -2.3041e+002  6.4090e+001 26248 106970,106918,107111
 2.6000e+000 107160 -2.4326e+002 -1.7863e+002  8.0938e+001 26248 106970,107111,106840
 2.6000e+000 107666 -6.2811e+002 -2.4914e+002  2.0011e+002 25908 107369,107499,107395
 2.6000e+000 107643 -8.5385e+002 -7.5431e+002  4.1172e+002 25908 107369,107525,107499
 2.6000e+000 107620 -5.1155e+002 -3.2727e+002  2.6474e+002 25908 107395,107473,107447
 2.6000e+000 107597 -4.3419e+002 -1.7239e+002  1.8994e+002 25908 107395,107499,107473
 2.6000e+000 107574 -8.9622e+002 -4.0762e+002  6.0119e+002 25908 107395,107447,107421
 2.6000e+000 107551 -3.2172e+002 -5.8866e+002  3.2195e+002 25908 107343,107525,107369
 2.6000e+000 108251 -4.0539e+002 -1.4196e+002  2.4133e+002 25454 108274,108006,107954
 2.6000e+000 108228 -3.2491e+002 -6.8145e+001  1.8112e+002 25454 108274,107954,108110
 2.6000e+000 108205 -3.0750e+002 -3.1513e+002  2.8382e+002 25454 108346,108032,108006
 2.6000e+000 108182 -5.1659e+002 -2.3572e+002  3.0573e+002 25454 107954,108006,107980
 2.6000e+000 108159 -1.7212e+002 -1.9419e+002  1.6407e+002 25454 107928,108110,107954
 2.6000e+000 108136 -6.0690e+002 -5.8182e+002  3.3400e+002 25454 108058,108110,108084
 2.6000e+000 108300 -3.9116e+002 -2.2802e+002  2.8553e+002 25454 108346,108006,108274
 2.6000e+000 108323 -3.5306e+002 -1.5460e+002  2.1303e+002 25454 108058,108274,108110
 2.6000e+000 108372 -2.0862e+002 -2.1536e+002  2.4364e+002 25454 108058,108032,108346
 2.6000e+000 108395 -2.9743e+002 -1.1556e+002  2.4524e+002 25454 108058,108346,108274
 2.6000e+000 108822 -3.1542e+002 -1.8651e+002  1.8224e+002 24943 108525,108681,108655
 2.6000e+000 108799 -4.0483e+002 -2.7236e+002  9.3895e+001 24943 108499,108681,108525
 2.6000e+000 108776 -1.7217e+002 -1.4013e+002  1.2930e+002 24943 108525,108655,108629
 2.6000e+000 108753 -2.7041e+002 -1.2004e+002  1.1467e+002 24943 108525,108629,108603
 2.6000e+000 108730 -6.4033e+002 -1.9538e+002  2.3248e+002 24943 108551,108603,108577
 2.6000e+000 108707 -6.0318e+002 -3.6010e+002  3.3785e+002 24943 108525,108603,108551
 2.6000e+000 109407 -3.3515e+001 -1.0646e+002  5.8468e+001 24745 109162,109214,109188
 2.6000e+000 109384 -2.2561e+002 -1.0770e+002  7.1682e+001 24745 109162,109266,109214
 2.6000e+000 109361 -2.6467e+002 -1.5768e+002  4.4613e+001 24745 109084,109266,109162
 2.6000e+000 109338 -4.7722e+002 -6.5740e+001  1.1660e+002 24745 109084,109162,109136
 2.6000e+000 109315 -1.0695e+002 -2.0895e+002  1.0164e+002 24745 109214,109266,109240
 2.6000e+000 109292 -3.6158e+002 -9.8730e+001  1.8940e+002 24745 109084,109136,109110
 2.6000e+000 109785 -7.5562e+002 -3.3365e+002  4.3866e+002 24341 109537,109615,109563
 2.6000e+000 109762 -7.3042e+001 -1.5395e+002  4.0863e+002 24341 109537,109641,109615
 2.6000e+000 109739 -5.0838e+002 -3.6062e+002  3.2568e+002 24341 109563,109615,109589
 2.6000e+000 109716 -3.1652e+002 -3.0779e+002  2.7370e+002 24341 109537,109667,109641
 2.6000e+000 109693 -1.8182e+002 -3.6661e+002  2.5045e+002 24341 109511,109667,109537
 2.6000e+000 110163 -8.8000e+002 -4.8759e+002  4.4731e+002 23837 110186,109967,109915
 2.6000e+000 110140 -7.9952e+002 -4.9321e+002  4.8879e+002 23837 110186,109915,109889
 2.6000e+000 110117 -3.6387e+002 -1.6472e+002  3.8069e+002 23837 109889,110045,109993
 2.6000e+000 110094 -8.1575e+002 -6.1535e+002  3.4108e+002 23837 109915,109967,109941
 2.6000e+000 110071 -4.4780e+002 -1.1313e+001  6.3294e+001 23837 109993,110045,110019
 2.6000e+000 110212 -8.2814e+002 -4.4068e+002  4.8097e+002 23837 109993,109967,110186
 2.6000e+000 110235 -7.9289e+002 -4.5356e+002  5.2304e+002 23837 109993,110186,109889
 2.6000e+000 110336 -4.0221e+002 -8.9639e+002  4.6687e+002 23433 110258,110310,110284
 2.6000e+000 110584 -4.9199e+002 -3.4624e+002  2.0876e+002 22829 110607,110411,110385
 2.6000e+000 110561 -6.2719e+002 -4.0787e+002  3.1103e+002 22829 110607,110385,110489
 2.6000e+000 110538 -3.6859e+002 -3.7283e+002  1.7717e+002 22829 110437,110489,110463
 2.6000e+000 110515 -5.2239e+002 -2.4615e+002  3.5724e+002 22829 110359,110489,110385
 2.6000e+000 110633 -4.8039e+002 -2.4596e+002  1.0921e+002 22829 110437,110411,110607
 2.6000e+000 110656 -5.5702e+002 -3.1271e+002  2.0667e+002 22829 110437,110607,110489
 2.6000e+000 110906 -1.1118e+003 -4.6005e+002  3.1759e+002 22432 110707,110759,110733
 2.6000e+000 110883 -6.1854e+002 -4.5795e+002  2.4119e+002 22432 110707,110785,110759
 2.6000e+000 110860 -6.7524e+002 -4.1500e+002  4.0236e+002 22432 110707,110811,110785
 2.6000e+000 110837 -8.4450e+002 -5.7678e+002  3.1139e+002 22432 110681,110811,110707
 2.6000e+000 111288 -9.3022e+001 -2.0506e+002  1.7654e+002 22142 111092,111144,111118
 2.6000e+000 111265 -3.1279e+002 -2.4312e+002  1.6684e+002 22142 111066,111144,111092
 2.6000e+000 111242 -2.9128e+002 -2.1772e+002  1.3556e+002 22142 111040,111144,111066
 2.6000e+000 111219 -5.7145e+002 -7.3608e+001  7.2687e+001 22142 111014,111144,111040
 2.6000e+000 111196 -4.1419e+002 -5.1570e+001  1.4115e+002 22142 111014,111170,111144
 2.6000e+000 111389 -4.2511e+000 -9.5629e+001  2.6184e+002 21830 111311,111363,111337
 2.6000e+000 111735 -7.4446e+002 -5.3154e+001  5.3187e+002 21268 111758,111542,111438
 2.6000e+000 111712 -6.2380e+002 -2.1878e+001  3.9622e+002 21268 111758,111438,111412
 2.6000e+000 111689 -2.1336e+002 -3.5827e+002  6.2657e+002 21268 111438,111542,111464
 2.6000e+000 111666 -6.2976e+001 -2.5543e+002  8.0574e+002 21268 111464,111542,111490
 2.6000e+000 111643 -1.4478e+003 -6.9913e+002  7.2411e+002 21268 111412,111594,111568
 2.6000e+000 111620  2.5510e+002  2.6047e+002  1.0025e+003 21268 111490,111542,111516
 2.6000e+000 111784 -7.6940e+002 -1.2950e+002  5.3415e+002 21268 111568,111542,111758
 2.6000e+000 111807 -7.5320e+002 -2.9826e+002  4.4257e+002 21268 111568,111758,111412
 2.6000e+000 111959 -7.3612e+002 -8.7605e+001  2.5010e+002 20864 111982,111910,111884
 2.6000e+000 111936 -6.8645e+002 -1.0082e+002  3.5291e+002 20864 112114,111832,111910
 2.6000e+000 112008 -7.3128e+002 -2.3926e+002  3.0048e+002 20864 112114,111910,111982
 2.6000e+000 112140 -6.6977e+002 -2.6011e+002  2.7814e+002 20864 111858,111832,112114
 2.6000e+000 112163 -7.2743e+002 -4.2961e+002  2.3010e+002 20864 111858,112114,111982
 2.6000e+000 112411 -9.1158e+001 -2.1346e+001  2.9567e+001 20324 112186,112290,112212
 2.6000e+000 112388 -4.6043e+001 -1.3805e+001  4.2322e+001 20324 112186,112316,112290
 2.6000e+000 112365  2.3138e+002 -1.9634e+002  3.4355e+001 20324 112212,112290,112264
 2.6000e+000 112342 -9.6078e+002 -4.1137e+002 -5.2275e+001 20324 112212,112264,112238
 2.6000e+000 112659 -7.2444e+001 -1.7908e+001  2.9008e+002 19920 112512,112564,112538
 2.6000e+000 112636 -3.8423e+002 -1.2749e+002  1.7497e+002 19920 112434,112564,112512
 2.6000e+000 112613 -3.9430e+002 -2.3968e+002  2.2299e+002 19920 112434,112512,112460
 2.6000e+000 112590 -4.3570e+002 -2.6700e+002  2.3759e+002 19920 112460,112512,112486
 2.6000e+000 112811 -7.0186e+001 -2.7610e+001  1.2582e+002 19630 112684,112736,112710
 2.6000e+000 112788  1.1110e+002 -1.5626e+002  3.3146e+001 19630 112684,112762,112736
 2.6000e+000 113012 -3.2408e+002 -1.2207e+002  3.2761e+002 19169 112862,112940,112888
 2.6000e+000 112989 -5.2532e+002 -4.3597e+002  2.4135e+002 19169 112836,112940,112862
 2.6000e+000 112966 -2.5853e+002 -3.4534e+002  2.5948e+002 19169 112888,112940,112914
 2.6000e+000 113213 -7.0172e+002 -2.8282e+002  3.3546e+002 18600 113037,113089,113063
 2.6000e+000 113190 -3.9274e+002 -1.8078e+002  2.5830e+002 18600 113037,113115,113089
 2.6000e+000 113167 -8.1344e+002 -5.5114e+002  4.9658e+002 18600 113037,113141,113115
 2.6000e+000 113485 -3.6602e+002 -1.3762e+002  3.4993e+002 18352 113260,113312,113286
 2.6000e+000 113462 -7.3059e+002 -4.2416e+002  4.7499e+002 18352 113260,113390,113312
 2.6000e+000 113439 -6.8580e+002 -1.3028e+002  3.4102e+002 18352 113312,113390,113364
 2.6000e+000 113416 -2.4358e+002 -8.3848e+001  3.6144e+002 18352 113312,113364,113338
 2.6000e+000 113757 -5.1195e+002 -2.0072e+002  3.4411e+002 17834 113558,113610,113584
 2.6000e+000 113734 -7.5109e+002 -4.1995e+002  4.5941e+002 17834 113532,113610,113558
 2.6000e+000 113711 -7.6267e+002 -4.9229e+002  3.7294e+002 17834 113532,113662,113610
 2.6000e+000 113688 -3.8588e+002 -1.2228e+002  5.2298e+002 17834 113610,113662,113636
 2.6000e+000 113958 -4.9744e+002 -2.0199e+002  2.6652e+002 17330 113782,113834,113808
 2.6000e+000 113935 -2.8172e+002 -1.4729e+002  1.9583e+002 17330 113782,113886,113834
 2.6000e+000 113912 -3.4183e+002 -1.4963e+002  1.3035e+002 17330 113834,113886,113860
 2.6000e+000 114110 -7.3570e+002 -2.7966e+002  4.7218e+002 16874 113983,114035,114009
 2.6000e+000 114087 -2.8775e+002 -6.5532e+002  4.2084e+002 16874 113983,114061,114035
 2.6000e+000 114465 -9.0749e+002 -3.8225e+002  2.0428e+002 16270 114240,114292,114266
 2.6000e+000 114442 -6.2917e+002 -1.4878e+002  9.4304e+001 16270 114240,114370,114292
 2.6000e+000 114419 -2.8240e+002 -1.1748e+002  1.5100e+002 16270 114292,114344,114318
 2.6000e+000 114396 -6.5514e+002 -2.9197e+002  9.2204e+001 16270 114292,114370,114344
 2.6000e+000 114566 -4.5127e+001  4.5127e+001  6.4381e+002 15834 114488,114540,114514
 2.6000e+000 114667 -4.9263e+002 -1.9597e+002  3.0986e+002 15155 114589,114641,114615
 2.6000e+000 114890 -3.0385e+002 -9.9661e+001  4.3843e+002 421 114766,114818,114792
 2.6000e+000 114867 -5.1175e+002 -4.8319e+002  3.5277e+002 421 114714,114818,114766
 2.6000e+000 114844 -7.8862e+002 -3.3116e+002  2.0611e+002 421 114714,114766,114740
 2.7000e+000 66553 -3.8291e+002 -1.6252e+002  1.5559e+002 66108 66354,66458,66432
 2.7000e+000 66530 -3.5728e+002 -1.5035e+002  1.4144e+002 66108 66328,66458,66354
 2.7000e+000 66507 -2.1540e+002 -1.4089e+002  7.9878e+001 66108 66354,66432,66406
 2.7000e+000 66484  8.5554e+001  4.1961e+001  1.8480e+002 66108 66354,66406,66380
 2.7000e+000 66951 -4.9179e+002 -2.0830e+002  1.2900e+002 65910 66703,66833,66807
 2.7000e+000 66928 -4.9132e+001 -7.1871e+001  1.3379e+002 65910 66677,66833,66703
 2.7000e+000 66905 -1.4912e+002 -2.4646e+002  1.9150e+002 65910 66729,66781,66755
 2.7000e+000 66882 -4.7204e+002 -1.9738e+002  1.7826e+002 65910 66729,66807,66781
 2.7000e+000 66859 -4.4212e+002 -1.1302e+002  1.6043e+002 65910 66703,66807,66729
 2.7000e+000 67150 -4.9004e+002 -2.0449e+002  1.9183e+002 65712 67026,67078,67052
 2.7000e+000 67127 -6.1690e+002 -6.7821e+001  1.4376e+002 65712 66974,67078,67026
 2.7000e+000 67104 -1.9987e+003 -8.9255e+002  5.6605e+002 65712 66974,67026,67000
 2.7000e+000 67481 -7.4837e+002 -7.4682e+001  2.4645e+002 65422 67282,67360,67334
 2.7000e+000 67458 -2.9771e+002 -1.0251e+002  3.9873e+002 65422 67282,67386,67360
 2.7000e+000 67435 -1.8393e+002  1.5585e+002  2.1629e+002 65422 67282,67334,67308
 2.7000e+000 67412  1.9945e+002  7.9093e+001  1.0508e+002 65422 67256,67386,67282
 2.7000e+000 68115 -2.1570e+002 -5.6270e+001  4.9149e+001 65018 67795,67925,67873
 2.7000e+000 68092 -3.0346e+002 -9.1662e+001  9.2393e+001 65018 67769,67925,67795
 2.7000e+000 68069 -1.6164e+002 -6.1914e+001  6.8318e+001 65018 67873,67925,67899
 2.7000e+000 68046 -3.7205e+002 -2.5531e+002  1.6061e+002 65018 67769,67951,67925
 2.7000e+000 68023 -2.9475e+002 -1.6695e+002  8.3778e+001 65018 67795,67873,67821
 2.7000e+000 68000 -3.4945e+002 -1.7844e+002  7.5158e+001 65018 67821,67873,67847
 2.7000e+000 67977 -6.2260e+002 -1.8439e+002  2.9297e+002 65018 67743,67951,67769
 2.7000e+000 68363 -2.3899e+002 -5.1171e+002  4.3973e+002 64820 68190,68242,68216
 2.7000e+000 68340 -4.6723e+002 -3.6763e+002  4.5621e+002 64820 68190,68268,68242
 2.7000e+000 68317 -2.6089e+002 -2.6904e+002  4.9725e+002 64820 68164,68268,68190
 2.7000e+000 68294 -9.0754e+002 -3.7335e+002  3.1518e+002 64820 68138,68268,68164
 2.7000e+000 68513 -4.9527e+002 -2.4445e+002  2.0041e+002 64366 68868,68536,68438
 2.7000e+000 68490 -2.6500e+002 -1.1175e+002  1.4286e+002 64366 68536,68412,68386
 2.7000e+000 68562 -5.6576e+002 -2.2421e+002  2.7005e+002 64366 68740,68536,68464
 2.7000e+000 68585 -4.0325e+002 -1.6108e+002  1.9807e+002 64366 68608,68536,68386
 2.7000e+000 68634 -4.9525e+002 -3.4963e+002  1.6929e+002 64366 68464,68536,68608
 2.7000e+000 68766 -5.0056e+002 -1.7220e+002  2.4594e+002 64366 68438,68536,68740
 2.7000e+000 68894 -3.9095e+002 -1.4643e+002  2.4710e+002 64366 68412,68536,68868
 2.7000e+000 69172 -4.5284e+002 -4.5915e+002  3.0610e+001 64168 69022,69074,69048
 2.7000e+000 69149 -8.6292e+002 -3.6663e+002  1.5200e+002 64168 68996,69074,69022
 2.7000e+000 69126 -9.2196e+002 -5.0543e+002  1.5425e+002 64168 68996,69100,69074
 2.7000e+000 69371 -3.5240e+002 -1.0021e+002  2.1120e+002 63970 69466,69394,69273
 2.7000e+000 69348 -2.7991e+002 -1.0541e+002  1.0417e+002 63970 69394,69247,69221
 2.7000e+000 69325 -5.2082e+002 -2.2056e+002  1.3093e+002 63970 69195,69299,69221
 2.7000e+000 69420 -4.0508e+002 -1.7550e+002  2.3420e+002 63970 69299,69273,69394
 2.7000e+000 69443 -3.5444e+002 -2.2633e+002  1.3792e+002 63970 69299,69394,69221
 2.7000e+000 69492 -3.7962e+002 -1.4469e+002  1.9972e+002 63970 69247,69394,69466
 2.7000e+000 69904 -6.1584e+001 -3.0152e+002  1.2882e+002 63680 69705,69783,69731
 2.7000e+000 69881  5.0182e+001 -2.0526e+002  7.3808e+001 63680 69679,69783,69705
 2.7000e+000 69858 -2.8083e+002 -3.4155e+002  1.5415e+002 63680 69679,69809,69783
 2.7000e+000 69835 -1.9166e+002 -3.1041e+002  1.1165e+002 63680 69731,69783,69757
 2.7000e+000 70054 -2.0406e+001 -2.3331e+002  1.3500e+002 63476 70077,69953,69927
 2.7000e+000 70031  3.1711e+001 -1.0267e+002  1.9784e+002 63476 70077,69927,70005
 2.7000e+000 70103 -1.0933e+002 -1.4525e+002  7.9895e+001 63476 69979,69953,70077
 2.7000e+000 70126 -6.8998e+001 -2.6834e+001  1.3270e+002 63476 69979,70077,70005
 2.7000e+000 70325 -9.1637e+002 -4.3075e+002  2.5378e+002 63278 70149,70227,70175
 2.7000e+000 70302 -6.0007e+002 -2.3966e+002  3.4707e+002 63278 70149,70253,70227
 2.7000e+000 70279 -1.0438e+003 -6.7540e+002  2.0740e+002 63278 70175,70227,70201
 2.7000e+000 70597 -3.5185e+002 -6.8721e+001  1.6897e+002 63080 70372,70476,70424
 2.7000e+000 70574 -3.6660e+002 -1.5334e+002  1.5704e+002 63080 70372,70502,70476
 2.7000e+000 70551 -4.0245e+002 -1.6704e+002  1.8692e+002 63080 70424,70476,70450
 2.7000e+000 70528 -6.0838e+002 -2.0713e+002  2.8607e+002 63080 70372,70424,70398
 2.7000e+000 70847 -8.9495e+000 -1.8773e+002  7.1387e+001 62740 70870,70648,70622
 2.7000e+000 70824 -1.2159e+002 -1.6644e+002  1.2168e+002 62740 70870,70622,70752
 2.7000e+000 70801 -3.1547e+001 -2.1165e+002  8.8714e+001 62740 70648,70726,70700
 2.7000e+000 70778 -4.5130e+001 -2.4742e+002  9.2468e+001 62740 70648,70700,70674
 2.7000e+000 70896 -1.2104e+002 -2.2151e+002  6.4772e+001 62740 70726,70648,70870
 2.7000e+000 70919 -1.7828e+002 -1.6834e+002  1.2763e+002 62740 70726,70870,70752
 2.7000e+000 71022 -3.8916e+001  3.8916e+001  5.9807e+002 62520 70944,70996,70970
 2.7000e+000 71223 -7.9858e+002 -4.1025e+002  4.8938e+002 62230 71073,71151,71099
 2.7000e+000 71200 -6.3670e+002 -3.9435e+002  4.3443e+002 62230 71047,71151,71073
 2.7000e+000 71177 -5.8930e+002 -7.2472e+002  3.8101e+002 62230 71099,71151,71125
 2.7000e+000 71861 -9.4023e+001 -1.1685e+002  2.7169e+001 61712 71515,71697,71671
 2.7000e+000 71838 -8.7086e+001 -1.0165e+002  1.8097e+001 61712 71489,71697,71515
 2.7000e+000 71815 -7.2351e+002 -2.0453e+002  3.1242e+002 61712 71884,71541,71515
 2.7000e+000 71792 -4.9734e+002  7.6118e-002  2.1447e+002 61712 71884,71515,71671
 2.7000e+000 71769 -1.1108e+002 -4.7610e+002  1.7597e+002 61712 71541,71619,71593
 2.7000e+000 71746 -1.4230e+002 -1.6173e+002  1.6729e+002 61712 71619,71671,71645
 2.7000e+000 71723 -3.2617e+002 -5.6234e+002  1.6515e+002 61712 71541,71593,71567
 2.7000e+000 71910 -4.9542e+002 -4.1281e+002  4.1924e+002 61712 71619,71541,71884
 2.7000e+000 71933 -3.5823e+002 -2.6676e+002  3.4447e+002 61712 71619,71884,71671
 2.7000e+000 72230 -5.9651e+002 -4.1571e+002  1.0936e+002 61208 72253,72060,72008
 2.7000e+000 72207 -5.6450e+002 -2.7693e+002  1.0060e+002 61208 72253,72008,71982
 2.7000e+000 72184 -5.7095e+002 -1.8123e+002  8.2564e+001 61208 71982,72112,72086
 2.7000e+000 72161 -9.4005e+002 -4.2067e+002  2.2072e+002 61208 72008,72060,72034
 2.7000e+000 72138 -3.6486e+002 -1.1020e+002  1.9540e+002 61208 71956,72112,71982
 2.7000e+000 72279 -5.9084e+002 -3.1667e+002  5.0279e+001 61208 72086,72060,72253
 2.7000e+000 72302 -6.0026e+002 -2.3736e+002  4.0908e+001 61208 72086,72253,71982
 2.7000e+000 72761 -3.0717e+002 -2.3558e+002  9.0074e+001 60804 72487,72617,72513
 2.7000e+000 72738 -4.1369e+002 -3.4161e+002  1.3929e+002 60804 72487,72643,72617
 2.7000e+000 72715 -1.1643e+002 -4.9946e+002  1.5174e+002 60804 72565,72617,72591
 2.7000e+000 72692 -3.4864e+002 -3.1927e+002  1.7890e+002 60804 72513,72617,72565
 2.7000e+000 72669 -3.1245e+002 -2.8922e+002  1.0270e+002 60804 72513,72565,72539
 2.7000e+000 72911 -3.8916e+001  3.8916e+001  5.9807e+002 60556 72784,72836,72810
 2.7000e+000 72888  5.1017e+002  2.6166e+002  3.6159e+002 60556 72784,72862,72836
 2.7000e+000 73468 -2.4604e+002 -2.3749e+002  1.4979e+002 60244 73491,73226,73200
 2.7000e+000 73445 -2.7264e+002 -2.1340e+002  1.9367e+002 60244 73563,73491,73200
 2.7000e+000 73422 -4.3864e+002 -1.4049e+002  2.0410e+002 60244 73563,73200,73174
 2.7000e+000 73399 -2.1054e+002 -3.0989e+002  1.3158e+002 60244 73226,73278,73252
 2.7000e+000 73376 -3.0674e+002 -2.2673e+002  1.4522e+002 60244 73122,73304,73278
 2.7000e+000 73353 -3.4026e+002 -3.2343e+002  1.4021e+002 60244 73096,73304,73122
 2.7000e+000 73330 -5.7575e+002 -2.5038e+002 -8.5806e+001 60244 73122,73174,73148
 2.7000e+000 73517 -3.4583e+002 -2.8304e+002  1.6225e+002 60244 73278,73226,73491
 2.7000e+000 73540 -3.3178e+002 -2.3307e+002  1.4391e+002 60244 73278,73491,73122
 2.7000e+000 73589 -5.0908e+002 -3.0131e+002  1.5277e+002 60244 73122,73491,73563
 2.7000e+000 73612 -6.6450e+002 -2.1736e+002  1.7281e+002 60244 73122,73563,73174
 2.7000e+000 73762 -1.6330e+002 -3.6339e+002  3.9483e+002 59875 73661,73713,73687
 2.7000e+000 73739 -4.4560e+002 -1.9989e+002  2.8397e+002 59875 73635,73713,73661
 2.7000e+000 74191 -2.3791e+002 -5.3843e+002  3.8883e+002 59478 74214,73894,73868
 2.7000e+000 74168 -4.4538e+002 -5.2113e+002  4.1205e+002 59478 74214,73868,74050
 2.7000e+000 74145 -4.5633e+002 -5.5420e+002  2.0405e+002 59478 73894,73946,73920
 2.7000e+000 74122 -3.7446e+002 -5.4728e+002  1.8619e+002 59478 73894,73998,73946
 2.7000e+000 74099 -9.3989e+002 -5.2755e+002  5.8341e+002 59478 73998,74050,74024
 2.7000e+000 74076 -4.7292e+002 -6.4858e+002  1.2951e+002 59478 73946,73998,73972
 2.7000e+000 74240 -4.2555e+002 -4.7992e+002  3.0004e+002 59478 73998,73894,74214
 2.7000e+000 74263 -6.2914e+002 -4.7665e+002  2.9021e+002 59478 73998,74214,74050
 2.7000e+000 74720 -4.0848e+002 -2.2984e+002  1.5861e+002 58774 74472,74602,74498
 2.7000e+000 74697 -4.0898e+002 -2.7853e+002  1.3086e+002 58774 74446,74602,74472
 2.7000e+000 74674 -4.7589e+002 -2.1417e+002  1.9855e+002 58774 74498,74576,74524
 2.7000e+000 74651 -4.1314e+002 -2.4986e+002  1.5899e+002 58774 74498,74602,74576
 2.7000e+000 74628 -4.9268e+002 -1.9558e+002  1.6465e+002 58774 74524,74576,74550
 2.7000e+000 75226 -3.0853e+002 -2.8344e+002  1.7057e+002 58270 74955,75085,75033
 2.7000e+000 75203 -2.3367e+002 -3.3713e+002  2.1130e+002 58270 74929,75085,74955
 2.7000e+000 75180 -3.2206e+002 -1.9552e+002  1.9971e+002 58270 75033,75085,75059
 2.7000e+000 75157 -3.1296e+002 -3.8213e+002  1.2335e+002 58270 74955,75007,74981
 2.7000e+000 75134 -2.0405e+002 -2.4006e+002  6.6418e+001 58270 74955,75033,75007
 2.7000e+000 75111 -4.9378e+001 -3.6907e+002  1.3116e+002 58270 74903,75085,74929
 2.7000e+000 75425 -3.8852e+002 -2.3708e+002  1.8900e+002 57830 75448,75301,75249
 2.7000e+000 75402 -2.9518e+002 -6.6949e+001  1.1401e+002 57830 75448,75249,75353
 2.7000e+000 75379 -4.1629e+002 -5.3902e+002  1.1944e+002 57830 75520,75301,75275
 2.7000e+000 75474 -3.7215e+002 -3.4313e+002  2.8369e+002 57830 75327,75301,75448
 2.7000e+000 75497 -3.2762e+002 -2.6417e+002  2.0927e+002 57830 75327,75448,75353
 2.7000e+000 75546 -2.5426e+002 -3.2708e+002  4.6508e+001 57830 75249,75301,75520
 2.7000e+000 76261 -1.8310e+002 -3.1331e+002  1.8034e+002 57426 76284,76097,76071
 2.7000e+000 76238 -1.5641e+002 -2.0676e+002  1.8379e+002 57426 75889,76097,75915
 2.7000e+000 76215 -2.6695e+002 -3.4030e+002  1.8355e+002 57426 76428,76284,76071
 2.7000e+000 76192 -1.9815e+002 -3.1698e+002  1.1693e+002 57426 76356,75941,75915
 2.7000e+000 76169 -2.6988e+002 -3.0300e+002  1.7705e+002 57426 76428,76071,76019
 2.7000e+000 76146 -2.9824e+002 -3.9248e+002  1.6775e+002 57426 76019,76071,76045
 2.7000e+000 76123 -2.9032e+002 -3.0833e+002  2.4141e+002 57426 75967,76019,75993
 2.7000e+000 76310 -1.9565e+002 -3.4270e+002  1.4052e+002 57426 75915,76097,76284
 2.7000e+000 76333 -2.1963e+002 -3.2810e+002  1.2592e+002 57426 76356,75915,76284
 2.7000e+000 76382 -2.4548e+002 -3.0540e+002  1.2839e+002 57426 75967,75941,76356
 2.7000e+000 76405 -2.5638e+002 -3.0657e+002  1.3561e+002 57426 75967,76356,76284
 2.7000e+000 76454 -2.5028e+002 -3.0627e+002  1.7318e+002 57426 75967,76284,76428
 2.7000e+000 76477 -2.6961e+002 -2.8538e+002  1.7314e+002 57426 75967,76428,76019
 2.7000e+000 76953 -2.6337e+002 -4.5699e+002  2.4345e+002 56908 76976,76711,76685
 2.7000e+000 76930 -2.6534e+002 -4.6527e+002  2.5137e+002 56908 77048,76976,76685
 2.7000e+000 76907 -5.1084e+002 -4.9188e+002  3.6809e+002 56908 77048,76685,76633
 2.7000e+000 76884 -7.4122e+002 -7.2453e+002  4.1055e+002 56908 76711,76789,76763
 2.7000e+000 76861 -4.1445e+002 -2.4649e+002  1.6144e+002 56908 76581,76789,76607
 2.7000e+000 76838 -7.0334e+002 -5.4062e+002  2.9501e+002 56908 76711,76763,76737
 2.7000e+000 76815 -1.1731e+003 -9.2792e+002  6.7290e+002 56908 76633,76685,76659
 2.7000e+000 77002 -3.2249e+002 -4.8402e+002  2.5011e+002 56908 76789,76711,76976
 2.7000e+000 77025 -3.3111e+002 -2.3166e+002  1.4941e+002 56908 76789,76976,76607
 2.7000e+000 77074 -6.4813e+002 -4.5861e+002  2.4894e+002 56908 76607,76976,77048
 2.7000e+000 77097 -7.7764e+002 -3.7925e+002  3.5306e+002 56908 76607,77048,76633
 2.7000e+000 77475 -2.6913e+002 -3.1213e+002  2.6103e+002 56546 77570,77498,77279
 2.7000e+000 77452 -1.9891e+002 -4.5973e+002  3.3199e+002 56546 77498,77227,77357
 2.7000e+000 77429 -3.0758e+002 -3.5264e+002  3.0260e+002 56546 77570,77279,77253
 2.7000e+000 77406 -4.4471e+002 -5.7264e+002  3.7712e+002 56546 77201,77357,77227
 2.7000e+000 77383 -3.2473e+002 -3.3921e+002  1.1882e+002 56546 77279,77331,77305
 2.7000e+000 77524 -2.3817e+002 -1.2603e+002  2.4803e+002 56546 77331,77279,77498
 2.7000e+000 77547 -1.2863e+002 -2.7883e+002  3.9654e+002 56546 77331,77498,77357
 2.7000e+000 77596 -3.0071e+002 -3.2708e+002  3.3943e+002 56546 77227,77498,77570
 2.7000e+000 77619 -3.5607e+002 -4.4790e+002  3.8143e+002 56546 77227,77570,77253
 2.7000e+000 77818 -3.2240e+002 -3.3236e+002  2.8935e+002 56042 77841,77694,77668
 2.7000e+000 77795 -2.7565e+002 -2.9369e+002  2.1245e+002 56042 77841,77668,77746
 2.7000e+000 77772 -3.5352e+002 -3.1190e+002  1.7826e+002 56042 77642,77746,77668
 2.7000e+000 77867 -3.6675e+002 -3.9236e+002  3.2824e+002 56042 77720,77694,77841
 2.7000e+000 77890 -3.0977e+002 -3.4249e+002  2.4971e+002 56042 77720,77841,77746
 2.7000e+000 78349 -4.6040e+002 -1.3896e+002  1.8838e+002 55538 78075,78127,78101
 2.7000e+000 78326 -5.7545e+002 -3.2371e+002  1.1645e+002 55538 78075,78205,78127
 2.7000e+000 78303 -5.4417e+002 -7.0542e+001  9.6896e+001 55538 78075,78231,78205
 2.7000e+000 78280 -5.1556e+002 -5.5296e+002  3.0994e+002 55538 78127,78179,78153
 2.7000e+000 78257 -4.3685e+002 -3.3672e+002  1.0144e+002 55538 78127,78205,78179
 2.7000e+000 78806 -2.7355e+002 -3.0105e+002  9.6586e+001 55034 78829,78636,78610
 2.7000e+000 78783 -3.1177e+002 -3.1575e+002  1.1177e+002 55034 78901,78829,78610
 2.7000e+000 78760 -2.6863e+002 -3.4144e+002  1.3718e+002 55034 78901,78610,78584
 2.7000e+000 78737 -3.2968e+002 -2.5500e+002  1.3688e+002 55034 78558,78688,78662
 2.7000e+000 78714 -3.5590e+002 -2.5333e+002  2.6717e+002 55034 78532,78688,78558
 2.7000e+000 78855 -3.1344e+002 -3.1473e+002  8.8314e+001 55034 78662,78636,78829
 2.7000e+000 78878 -3.3188e+002 -2.8833e+002  1.3251e+002 55034 78662,78829,78558
 2.7000e+000 78927 -2.7085e+002 -2.6074e+002  1.3863e+002 55034 78558,78829,78901
 2.7000e+000 78950 -2.4919e+002 -2.8780e+002  1.6341e+002 55034 78558,78901,78584
 2.7000e+000 79407 -1.6346e+002 -1.9062e+002  1.9565e+002 54430 79430,79237,79159
 2.7000e+000 79384 -1.3572e+002 -3.1714e+002  6.3541e+001 54430 79430,79159,79133
 2.7000e+000 79361 -2.1355e+002 -2.6618e+002  1.0492e+002 54430 79237,79289,79263
 2.7000e+000 79338 -1.6494e+002 -2.5159e+002  1.3459e+002 54430 79185,79237,79211
 2.7000e+000 79315 -3.7495e+002 -2.7530e+002  2.4137e+002 54430 79159,79237,79185
 2.7000e+000 79456 -1.8433e+002 -3.3630e+002  1.4880e+002 54430 79289,79237,79430
 2.7000e+000 79479 -1.6622e+002 -5.3147e+002  4.6046e+001 54430 79289,79430,79133
 2.7000e+000 79936 -1.6793e+002 -1.8234e+002  1.9180e+002 53919 79662,79766,79688
 2.7000e+000 79913 -6.3108e+002 -2.9638e+002  3.5092e+002 53919 79662,79818,79766
 2.7000e+000 79890 -8.1749e+002 -3.2086e+002  7.3856e+001 53919 79766,79818,79792
 2.7000e+000 79867 -4.1688e+002 -3.8486e+002  2.0543e+002 53919 79714,79766,79740
 2.7000e+000 79844 -4.3193e+002 -3.2563e+002  2.5237e+002 53919 79688,79766,79714
 2.7000e+000 80037 -2.0667e+002 -5.1004e+002  3.2174e+002 53671 79959,80011,79985
 2.7000e+000 80405 -1.3139e+002 -3.3982e+002  1.0901e+002 53267 80108,80264,80238
 2.7000e+000 80382 -1.7856e+002 -2.5031e+002  1.3735e+002 53267 80082,80264,80108
 2.7000e+000 80359 -1.3968e+002 -4.3770e+002  2.0113e+002 53267 80108,80238,80134
 2.7000e+000 80336 -7.5619e+001 -2.5361e+002  1.5964e+002 53267 80134,80212,80186
 2.7000e+000 80313 -2.6909e+002 -4.1316e+002  2.6132e+002 53267 80134,80238,80212
 2.7000e+000 80290 -6.1108e+001 -3.0782e+002  1.2827e+002 53267 80134,80186,80160
 2.7000e+000 80915 -4.5691e+002 -6.3319e+002  3.0397e+001 52969 80644,80774,80748
 2.7000e+000 80892 -3.5685e+002 -3.1716e+002  2.0413e+001 52969 80618,80774,80644
 2.7000e+000 80869 -5.3039e+002 -7.4500e+002 -2.5238e+001 52969 80644,80748,80670
 2.7000e+000 80846 -5.1440e+002 -3.4604e+002  3.5085e+001 52969 80592,80774,80618
 2.7000e+000 80823 -1.0502e+003 -8.6731e+002  1.2585e+002 52969 80670,80722,80696
 2.7000e+000 80800 -5.1725e+002 -6.7347e+002 -3.6071e+001 52969 80670,80748,80722
 2.7000e+000 81266  7.3694e+001 -3.8966e+001  2.4900e+001 52565 81041,81145,81067
 2.7000e+000 81243  5.1491e+001 -1.1635e+002  3.5793e+001 52565 81041,81171,81145
 2.7000e+000 81220 -1.6101e+002 -5.4392e+002  1.2239e+002 52565 81067,81119,81093
 2.7000e+000 81197  1.0687e+002  2.0886e+001  4.0097e+001 52565 81067,81145,81119
 2.7000e+000 81723 -6.4729e+001  1.8720e+000  2.1426e+001 51904 81449,81527,81475
 2.7000e+000 81700 -8.3486e+001 -1.5534e+000  4.3061e+001 51904 81449,81579,81527
 2.7000e+000 81677 -2.9412e+002 -3.9492e+001  5.0094e+001 51904 81449,81605,81579
 2.7000e+000 81654 -1.9175e+002  2.0419e+001  3.3541e+001 51904 81527,81579,81553
 2.7000e+000 81631 -5.0965e+001  1.8382e+001  9.0676e+000 51904 81475,81527,81501
 2.7000e+000 82327 -3.8578e+002 -3.5370e+002  2.5821e+002 51321 82422,82350,82036
 2.7000e+000 82304 -4.1546e+002 -2.5980e+002  2.8401e+002 51321 82494,82350,81958
 2.7000e+000 82281 -3.9573e+002 -3.7117e+002  2.4565e+002 51321 82422,82036,82010
 2.7000e+000 82258 -4.3638e+002 -2.7149e+002  2.9169e+002 51321 82494,81958,81932
 2.7000e+000 82235 -4.0126e+002 -1.4847e+002  1.1749e+002 51321 82062,82114,82088
 2.7000e+000 82212 -1.0097e+003 -6.3430e+002  4.4097e+002 51321 81932,82140,82114
 2.7000e+000 82189 -4.1444e+002 -1.2970e+002  2.3877e+002 51321 81958,82010,81984
 2.7000e+000 82166 -1.6434e+002 -3.2551e+002  1.4252e+002 51321 81906,82140,81932
 2.7000e+000 82376 -3.9137e+002 -4.2864e+002  2.5477e+002 51321 82062,82036,82350
 2.7000e+000 82399 -3.9014e+002 -3.1581e+002  2.3653e+002 51321 82062,82350,82114
 2.7000e+000 82448 -3.7284e+002 -3.3541e+002  2.7849e+002 51321 81958,82350,82422
 2.7000e+000 82471 -3.8040e+002 -3.5116e+002  2.6631e+002 51321 81958,82422,82010
 2.7000e+000 82520 -4.1876e+002 -2.5556e+002  2.7268e+002 51321 82114,82350,82494
 2.7000e+000 82543 -4.2089e+002 -2.5753e+002  2.7860e+002 51321 82114,82494,81932
 2.7000e+000 83019 -3.8920e+002 -9.3316e+002  3.2793e+001 50817 82673,82751,82699
 2.7000e+000 82996 -3.5053e+002 -5.9158e+002  1.3171e+002 50817 83042,82673,82855
 2.7000e+000 82973 -4.1448e+002 -5.2630e+002  1.0387e+002 50817 83042,82855,82803
 2.7000e+000 82950 -6.5672e+002 -6.2312e+002  8.5733e+001 50817 82751,82803,82777
 2.7000e+000 82927 -3.1786e+002 -5.1812e+002  1.9192e+002 50817 82647,82855,82673
 2.7000e+000 82904 -6.2899e+002 -5.6676e+002  3.0103e+002 50817 82803,82855,82829
 2.7000e+000 82881 -5.4264e+002 -1.5988e+003 -8.1950e+001 50817 82699,82751,82725
 2.7000e+000 83068 -2.5856e+002 -5.4011e+002  1.1139e+002 50817 82751,82673,83042
 2.7000e+000 83091 -3.6283e+002 -5.0000e+002  9.4285e+001 50817 82751,83042,82803
 2.7000e+000 83290 -4.2389e+002 -1.8717e+002  2.2492e+002 50356 83313,83166,83140
 2.7000e+000 83267 -4.4624e+002 -3.0818e+002  1.9138e+002 50356 83515,83313,83140
 2.7000e+000 83244 -5.2567e+002 -2.9896e+002  6.9968e+001 50356 83515,83140,83385
 2.7000e+000 83339 -5.4225e+002 -2.5617e+002  2.9430e+002 50356 83192,83166,83313
 2.7000e+000 83362 -3.1789e+002 -1.9997e+002  2.8324e+002 50356 83192,83313,83218
 2.7000e+000 83411 -1.7762e+002 -1.1480e+002  1.1851e+002 50356 83114,83218,83385
 2.7000e+000 83541 -2.4485e+002 -2.4125e+002  1.8418e+002 50356 83218,83313,83515
 2.7000e+000 83564 -2.6688e+002 -1.9360e+002  7.8533e+001 50356 83218,83515,83385
 2.7000e+000 83893 -4.6161e+002 -4.8111e+002  5.6326e+001 49552 83720,83798,83746
 2.7000e+000 83870 -2.8265e+002 -2.2279e+002  1.8343e+002 49552 83694,83798,83720
 2.7000e+000 83847 -2.0312e+002 -2.2746e+002  1.9085e+002 49552 83668,83798,83694
 2.7000e+000 83824 -1.0431e+003 -3.3111e+002 -9.2754e+001 49552 83746,83798,83772
 2.7000e+000 84141 -4.9043e+002 -3.4793e+002  2.0229e+002 49212 84164,84020,83942
 2.7000e+000 84118 -4.5639e+002 -2.2906e+002  2.8266e+002 49212 84164,83942,83916
 2.7000e+000 84095 -4.4903e+002 -4.3124e+002  1.5178e+002 49212 83942,84020,83968
 2.7000e+000 84072 -3.5614e+002 -3.8230e+001  1.1618e+002 49212 83968,84020,83994
 2.7000e+000 84190 -5.6538e+002 -3.3963e+002  1.3091e+002 49212 84046,84020,84164
 2.7000e+000 84213 -5.1521e+002 -2.5607e+002  2.1051e+002 49212 84046,84164,83916
 2.7000e+000 84800 -1.0845e+002 -1.5261e+002  1.0988e+002 48865 84503,84633,84555
 2.7000e+000 84777 -1.4734e+002 -2.1737e+002  9.0407e+001 48865 84503,84659,84633
 2.7000e+000 84754 -1.2094e+002 -1.9885e+002  9.5410e+001 48865 84555,84633,84581
 2.7000e+000 84731 -1.1515e+002 -4.9039e+002  2.2068e+002 48865 84581,84633,84607
 2.7000e+000 84708 -3.2261e+002 -2.1695e+002  9.6883e+001 48865 84503,84555,84529
 2.7000e+000 84685 -9.8607e+001 -1.4376e+002  3.9315e+001 48865 84477,84659,84503
 2.7000e+000 85355 -2.2766e+002 -2.8529e+002  6.3885e+000 48461 85378,85035,85009
 2.7000e+000 85332 -3.9176e+002 -4.0170e+002  7.8113e+001 48461 85378,85009,85165
 2.7000e+000 85309 -3.9833e+002 -4.0424e+002  9.5308e+001 48461 85450,85061,85035
 2.7000e+000 85286 -3.6302e+002 -3.8565e+002  7.0133e+001 48461 85009,85191,85165
 2.7000e+000 85263 -3.1220e+002 -3.3694e+002  2.1840e+002 48461 85087,85165,85113
 2.7000e+000 85240 -1.6725e+002 -4.9376e+002 -7.7822e+001 48461 84983,85191,85009
 2.7000e+000 85217 -2.7366e+002 -4.3983e+002  1.4063e+002 48461 85113,85165,85139
 2.7000e+000 85404 -3.8649e+002 -3.5962e+002  7.3965e+001 48461 85450,85035,85378
 2.7000e+000 85427 -3.9899e+002 -3.7317e+002  9.7324e+001 48461 85087,85378,85165
 2.7000e+000 85476 -3.9135e+002 -4.7197e+002  1.2676e+002 48461 85087,85061,85450
 2.7000e+000 85499 -3.8340e+002 -4.4151e+002  1.0228e+002 48461 85087,85450,85378
 2.7000e+000 86084 -1.3586e+002 -3.7943e+002  1.6874e+002 48057 86323,86107,85787
 2.7000e+000 86061 -2.0767e+002 -4.4080e+002  2.0281e+002 48057 86107,85761,85943
 2.7000e+000 86038 -2.8740e+002 -3.2967e+002  1.5842e+002 48057 86251,86179,85891
 2.7000e+000 86015 -2.8776e+002 -2.8562e+002  1.0508e+002 48057 86251,85891,85839
 2.7000e+000 85992 -2.4732e+002 -2.7843e+002  2.0172e+002 48057 85891,85943,85917
 2.7000e+000 85969 -3.6071e+002 -2.2630e+002  1.5126e+002 48057 85839,85891,85865
 2.7000e+000 86133 -1.6194e+002 -4.1584e+002  1.4037e+002 48057 85813,85787,86107
 2.7000e+000 86156 -2.2622e+002 -3.9932e+002  1.3239e+002 48057 86179,85813,86107
 2.7000e+000 86205 -2.2611e+002 -2.6720e+002  1.8318e+002 48057 85943,85891,86179
 2.7000e+000 86228 -1.4454e+002 -3.0910e+002  1.7900e+002 48057 85943,86179,86107
 2.7000e+000 86277 -1.9000e+002 -2.8025e+002  1.4147e+002 48057 85813,86179,86251
 2.7000e+000 86300 -2.4201e+002 -2.6143e+002  9.6019e+001 48057 85813,86251,85839
 2.7000e+000 86349 -1.1584e+002 -3.7104e+002  1.7175e+002 48057 85761,86107,86323
 2.7000e+000 86855 -1.2868e+002 -2.4438e+002  1.3453e+002 47545 86878,86584,86558
 2.7000e+000 86832 -1.7449e+002 -2.6521e+002  1.2274e+002 47545 86950,86878,86558
 2.7000e+000 86809 -1.9063e+002 -2.2066e+002  1.3837e+002 47545 86950,86558,86532
 2.7000e+000 86786 -1.1722e+002 -2.8094e+002  1.4767e+002 47545 86584,86662,86610
 2.7000e+000 86763 -2.9472e+002 -8.0057e+001  6.0857e+001 47545 86532,86714,86688
 2.7000e+000 86740 -1.7303e+002 -1.1643e+002  1.4839e+002 47545 86610,86662,86636
 2.7000e+000 86904 -1.4076e+002 -2.9852e+002  1.3987e+002 47545 86662,86584,86878
 2.7000e+000 86927 -9.4181e+001 -2.5727e+002  1.0316e+002 47545 86662,86878,86688
 2.7000e+000 86976 -1.3055e+002 -2.0193e+002  1.0226e+002 47545 86688,86878,86950
 2.7000e+000 86999 -1.7336e+002 -2.0084e+002  1.2838e+002 47545 86688,86950,86532
 2.7000e+000 87328 -5.6714e+002 -2.4576e+002  1.9939e+002 47048 87155,87207,87181
 2.7000e+000 87305 -3.1630e+002 -2.5606e+002  1.5611e+002 47048 87129,87207,87155
 2.7000e+000 87282 -6.1870e+002 -4.3375e+002  2.3080e+002 47048 87103,87207,87129
 2.7000e+000 87259 -1.0054e+003 -1.4476e+003 -2.3897e+001 47048 87103,87233,87207
 2.7000e+000 87576 -1.8358e+002 -4.5425e+002  2.1978e+002 46701 87599,87429,87377
 2.7000e+000 87553 -2.5185e+002 -4.7684e+002  2.2339e+002 46701 87599,87377,87481
 2.7000e+000 87530 -2.5546e+002 -4.7449e+002  2.3046e+002 46701 87351,87481,87377
 2.7000e+000 87507 -2.7613e+002 -4.2941e+002  2.7339e+002 46701 87377,87429,87403
 2.7000e+000 87625 -2.1929e+002 -3.4645e+002  1.4150e+002 46701 87455,87429,87599
 2.7000e+000 87648 -4.1235e+002 -4.4360e+002  1.7816e+002 46701 87455,87599,87481
 2.7000e+000 87798 -3.4448e+001 -1.2138e+002  2.1808e+001 46239 87697,87749,87723
 2.7000e+000 87775 -1.2426e+002 -4.9013e+002  9.1687e+001 46239 87671,87749,87697
 2.7000e+000 88308 -5.3433e+002 -5.7188e+002  1.1478e+002 45735 88089,88167,88141
 2.7000e+000 88285 -3.8554e+002 -2.5928e+002  1.6146e+002 45735 88011,88167,88089
 2.7000e+000 88262 -2.4743e+002 -2.3948e+002  1.1480e+002 45735 87985,88167,88011
 2.7000e+000 88239 -2.9039e+002 -1.0557e+003  2.6778e+002 45735 88011,88089,88063
 2.7000e+000 88216 -6.4836e+002 -6.1983e+002  1.1915e+002 45735 88089,88141,88115
 2.7000e+000 88193 -6.0652e+002 -1.5805e+003  4.7844e+001 45735 88011,88063,88037
 2.7000e+000 88686 -4.2581e+002 -1.7793e+002  2.6810e+002 45316 88438,88516,88490
 2.7000e+000 88663 -3.9562e+002  1.1787e+002  3.8857e+002 45316 88438,88542,88516
 2.7000e+000 88640 -2.1188e+002 -4.3068e+002  4.7376e+002 45316 88438,88568,88542
 2.7000e+000 88617 -4.5919e+002 -3.3350e+002  2.3002e+002 45316 88438,88490,88464
 2.7000e+000 88594 -4.2105e+002 -4.6219e+002  4.8316e+002 45316 88412,88568,88438
 2.7000e+000 88934 -7.5585e+002 -7.0303e+002  4.3294e+002 44812 88957,88735,88709
 2.7000e+000 88911 -4.1416e+002 -4.3376e+002  1.7015e+002 44812 88957,88709,88839
 2.7000e+000 88888 -3.9690e+002 -2.9412e+002  9.1215e+001 44812 89029,88787,88761
 2.7000e+000 88865 -3.4906e+002 -3.0989e+002  1.1929e+002 44812 88787,88839,88813
 2.7000e+000 88983 -2.0631e+002 -4.1548e+002  2.7350e+002 44812 88761,88735,88957
 2.7000e+000 89006 -3.5070e+002 -3.5435e+002  7.4455e+001 44812 89029,88761,88957
 2.7000e+000 89055 -3.6933e+002 -3.6645e+002  1.1809e+002 44812 88839,88787,89029
 2.7000e+000 89078 -3.7564e+002 -4.8472e+002  1.1961e+002 44812 88839,89029,88957
 2.7000e+000 89228 -9.4710e+001 -3.0656e+002  2.3471e+002 44408 89127,89179,89153
 2.7000e+000 89205 -4.9226e-001 -8.5432e-001  1.6127e-002 44408 89101,89179,89127
 2.7000e+000 89787 -4.3417e+002 -2.5678e+002  2.2727e+002 43854 89810,89545,89519
 2.7000e+000 89764 -4.7254e+002 -3.4218e+002  2.0808e+002 43854 89810,89519,89467
 2.7000e+000 89741 -4.5904e+002 -4.7615e+002  1.9622e+002 43854 89954,89882,89597
 2.7000e+000 89718 -4.6093e+002 -4.9220e+002  1.9301e+002 43854 89954,89597,89571
 2.7000e+000 89695 -2.3954e+002 -2.8870e+002  1.8352e+002 43854 89415,89623,89467
 2.7000e+000 89672 -1.9722e+002 -2.0394e+002  1.3620e+002 43854 89467,89519,89493
 2.7000e+000 89649 -1.4336e+002 -2.2118e+002  1.4211e+002 43854 89415,89467,89441
 2.7000e+000 89836 -4.5100e+002 -2.6727e+002  2.4354e+002 43854 89882,89545,89810
 2.7000e+000 89859 -2.5882e+002 -3.0767e+002  1.7142e+002 43854 89623,89810,89467
 2.7000e+000 89908 -4.4398e+002 -5.2848e+002  2.7256e+002 43854 89623,89597,89882
 2.7000e+000 89931 -4.2621e+002 -4.9396e+002  2.5052e+002 43854 89623,89882,89810
 2.7000e+000 89980 -4.7193e+002 -4.4888e+002  2.9782e+002 43854 89545,89882,89954
 2.7000e+000 90003 -5.0471e+002 -5.3637e+002  3.0852e+002 43854 89545,89954,89571
 2.7000e+000 90251 -1.7343e+002 -1.6252e+002  1.3063e+002 43492 90026,90078,90052
 2.7000e+000 90228 -4.1435e+002 -2.5448e+002  1.3122e+002 43492 90274,90026,90156
 2.7000e+000 90205 -3.8681e+002 -3.1177e+002  1.3278e+002 43492 90346,90274,90156
 2.7000e+000 90182 -4.0708e+002 -4.4213e+002  3.5922e+002 43492 90346,90156,90130
 2.7000e+000 90300 -2.7337e+002 -3.3234e+002  1.8546e+002 43492 90078,90026,90274
 2.7000e+000 90323 -4.6117e+002 -3.8743e+002  1.8798e+002 43492 90078,90274,90104
 2.7000e+000 90372 -6.5967e+002 -4.9063e+002  2.7948e+002 43492 90104,90274,90346
 2.7000e+000 90395 -6.9250e+002 -6.5647e+002  5.1217e+002 43492 90104,90346,90130
 2.7000e+000 90594 -1.3246e+002 -4.7919e+002  1.2752e+002 43052 90418,90496,90444
 2.7000e+000 90571 -4.3306e+002 -7.4556e+002  2.4214e+002 43052 90418,90522,90496
 2.7000e+000 90548 -2.8949e+002 -3.3303e+002  1.6801e+002 43052 90444,90496,90470
 2.7000e+000 91074 -2.9466e+002 -5.2111e+002  2.1575e+002 42434 91241,90884,90858
 2.7000e+000 91051 -5.8310e+002 -6.4043e+002 -6.3319e+001 42434 90702,90910,90884
 2.7000e+000 91028 -2.6609e+002 -4.6481e+002  2.0297e+002 42434 91097,90754,90702
 2.7000e+000 91005 -3.1326e+002 -3.6374e+002  2.1570e+002 42434 91241,90858,91097
 2.7000e+000 90982 -1.7753e+002 -3.0600e+002  7.0334e+001 42434 91169,90806,90780
 2.7000e+000 90959 -9.3358e+001 -3.2572e+002  2.2325e+001 42434 90806,90858,90832
 2.7000e+000 90936 -2.6469e+002 -4.7951e+002  2.0101e+002 42434 90702,90754,90728
 2.7000e+000 91123 -3.8234e+002 -4.9856e+002  1.4470e+002 42434 90780,90754,91097
 2.7000e+000 91146 -3.3610e+002 -3.9564e+002  1.8222e+002 42434 91169,90780,91097
 2.7000e+000 91195 -1.1611e+002 -2.6981e+002 -2.2850e+000 42434 90858,90806,91169
 2.7000e+000 91218 -1.8322e+002 -1.9541e+002  8.1416e+001 42434 90858,91169,91097
 2.7000e+000 91267 -2.6508e+002 -6.9206e+002  1.5048e+002 42434 90702,90884,91241
 2.7000e+000 91290 -3.0133e+002 -5.5446e+002  1.4947e+002 42434 90702,91241,91097
 2.7000e+000 91698 -9.7718e+001 -3.7075e+002  1.4485e+002 41773 91473,91577,91499
 2.7000e+000 91675 -1.7349e+002 -4.3287e+002  1.9054e+002 41773 91473,91603,91577
 2.7000e+000 91652 -2.1063e+002 -2.9861e+002  4.9538e+001 41773 91499,91551,91525
 2.7000e+000 91629 -2.7667e+002 -3.3278e+002  1.3558e+002 41773 91499,91577,91551
 2.7000e+000 92044 -2.9599e+002 -3.6762e+002  2.4185e+002 41383 91773,91877,91851
 2.7000e+000 92021 -1.9923e+002 -4.4531e+002  1.4987e+002 41383 91747,91877,91773
 2.7000e+000 91998 -2.2013e+002 -2.5330e+002  1.8016e+002 41383 91773,91851,91799
 2.7000e+000 91975 -1.4871e+002 -3.0006e+002  2.4894e+001 41383 91747,91903,91877
 2.7000e+000 91952 -1.0276e+002 -2.2241e+002  9.0258e+001 41383 91721,91903,91747
 2.7000e+000 91929 -9.7428e+001 -2.8746e+002  1.2696e+002 41383 91799,91851,91825
 2.7000e+000 92601 -3.9388e+002 -3.5635e+002  1.0655e+002 40979 92229,92411,92307
 2.7000e+000 92578 -5.2462e+002 -3.7442e+002  9.6807e+001 40979 92229,92437,92411
 2.7000e+000 92555 -3.5695e+002 -2.5784e+002  1.0034e+002 40979 92229,92307,92281
 2.7000e+000 92532 -3.1565e+002 -3.5149e+002  1.6118e+002 40979 92333,92411,92385
 2.7000e+000 92509 -3.1310e+002 -3.0173e+002  1.3082e+002 40979 92307,92411,92333
 2.7000e+000 92486 -3.8088e+002 -3.1421e+002  9.7287e+001 40979 92229,92281,92255
 2.7000e+000 92463 -5.0851e+001 -3.2378e+002  1.2374e+002 40979 92333,92385,92359
 2.7000e+000 93235 -4.3189e+002 -2.7037e+002  3.3560e+002 40525 92941,92993,92967
 2.7000e+000 93212 -6.2477e+002 -1.3462e+002  7.9960e+001 40525 93258,92941,92889
 2.7000e+000 93189 -4.8152e+002 -6.1339e+001  4.4194e+001 40525 93258,92889,93071
 2.7000e+000 93166 -5.3605e+002 -2.2607e+002  6.5820e+001 40525 92889,92941,92915
 2.7000e+000 93143 -5.3994e+002 -5.8241e+001  3.5323e+001 40525 92863,93071,92889
 2.7000e+000 93120 -4.5229e+002 -2.4966e+002  1.5484e+002 40525 92993,93071,93019
 2.7000e+000 93097 -4.7790e+002 -1.8666e+002  1.3179e+002 40525 93019,93071,93045
 2.7000e+000 93284 -6.9950e+002 -2.4606e+002  2.4594e+002 40525 92993,92941,93258
 2.7000e+000 93307 -4.2022e+002 -8.6488e+001  1.8132e+002 40525 92993,93258,93071
 2.7000e+000 93636 -5.0771e+002 -4.1126e+002  4.1620e+002 40235 93437,93541,93515
 2.7000e+000 93613 -4.3953e+002 -5.5719e+002  3.7928e+002 40235 93411,93541,93437
 2.7000e+000 93590 -9.8562e+001 -4.8848e+002  1.3800e+002 40235 93463,93515,93489
 2.7000e+000 93567 -2.3549e+002 -3.2848e+002  7.8826e+001 40235 93437,93515,93463
 2.7000e+000 94014 -5.3385e+002 -4.9035e+002  2.5256e+002 39873 93766,93870,93792
 2.7000e+000 93991 -4.4078e+002 -5.5564e+002  1.9343e+002 39873 93766,93896,93870
 2.7000e+000 93968 -5.0216e+002 -3.9036e+002  2.6366e+002 39873 93792,93870,93844
 2.7000e+000 93945 -3.5743e+002 -2.8877e+002  1.8874e+002 39873 93792,93844,93818
 2.7000e+000 93922 -3.3329e+002 -4.9072e+002  3.3226e+002 39873 93740,93896,93766
 2.7000e+000 94164 -2.8728e+001 -2.5756e+002  9.5259e+001 39461 94037,94089,94063
 2.7000e+000 94141 -1.2829e+002 -5.9868e+002  2.2903e+002 39461 94037,94115,94089
 2.7000e+000 94363 -2.8710e+002 -1.8878e+002  1.5383e+002 39057 94386,94239,94213
 2.7000e+000 94340 -1.6636e+002 -1.0287e+002  1.1047e+002 39057 94386,94213,94187
 2.7000e+000 94317 -2.9575e+002 -2.0408e+002  1.4499e+002 39057 94187,94291,94265
 2.7000e+000 94412 -1.1079e+002 -1.4334e+002  1.3368e+002 39057 94458,94386,94265
 2.7000e+000 94435 -2.0740e+002 -1.8516e+002  1.2946e+002 39057 94265,94386,94187
 2.7000e+000 94484 -2.4815e+002 -2.5841e+002  1.9222e+002 39057 94239,94386,94458
 2.7000e+000 94896 -5.1776e+002 -3.6618e+002  2.4080e+002 38396 94919,94775,94723
 2.7000e+000 94873 -5.8459e+002 -2.9498e+002  2.4486e+002 38396 94919,94723,94697
 2.7000e+000 94850 -4.0628e+002 -3.3644e+002  1.7419e+002 38396 94723,94775,94749
 2.7000e+000 94827 -2.6188e+002 -1.6572e+002  1.5555e+002 38396 94671,94801,94697
 2.7000e+000 94945 -5.0895e+002 -3.1715e+002  2.1400e+002 38396 94801,94775,94919
 2.7000e+000 94968 -5.4571e+002 -2.2656e+002  2.0501e+002 38396 94801,94919,94697
 2.7000e+000 95265 -5.2049e+002 -5.0861e+002  2.3986e+002 37835 95017,95069,95043
 2.7000e+000 95242 -5.3785e+002 -4.5045e+002  2.4644e+002 37835 95288,95069,95017
 2.7000e+000 95219 -5.6655e+002 -4.9870e+002  3.3792e+002 37835 95288,95017,94991
 2.7000e+000 95196 -6.1889e+002 -5.2028e+002  3.1324e+002 37835 94991,95147,95121
 2.7000e+000 95173 -3.5988e+002 -2.6331e+002  2.2004e+002 37835 95069,95121,95095
 2.7000e+000 95314 -5.2222e+002 -3.2438e+002  1.9904e+002 37835 95121,95069,95288
 2.7000e+000 95337 -5.5134e+002 -4.0216e+002  2.8450e+002 37835 95121,95288,94991
 2.7000e+000 95558  9.1384e+001  3.4126e+001  9.9463e+001 37423 95408,95460,95434
 2.7000e+000 95535 -1.2439e+002 -5.5088e+002  2.7131e+002 37423 95382,95460,95408
 2.7000e+000 95512 -2.8089e+002 -6.8209e+002  3.2837e+002 37423 95382,95486,95460
 2.7000e+000 95891 -6.0979e+001 -3.2115e+002  1.1090e+002 37225 95666,95718,95692
 2.7000e+000 95868 -3.0740e+002 -5.0906e+002  2.0239e+002 37225 95666,95796,95718
 2.7000e+000 95845 -2.0434e+002 -3.0003e+002  6.7728e+001 37225 95718,95770,95744
 2.7000e+000 95822 -1.4568e+002 -2.8563e+002  6.6198e+001 37225 95718,95796,95770
 2.7000e+000 95992 -3.2018e+001 -2.4142e+002  1.2396e+002 36735 95914,95966,95940
 2.7000e+000 96142 -5.6563e+002 -2.4166e+002  2.9820e+002 36331 96297,96067,96041
 2.7000e+000 96119 -4.5252e+002 -2.4042e+002  2.9269e+002 36331 96165,96041,96015
 2.7000e+000 96191 -5.3582e+002 -2.3654e+002  2.8284e+002 36331 96297,96041,96165
 2.7000e+000 96323 -6.2439e+002 -2.5855e+002  3.6127e+002 36331 96093,96067,96297
 2.7000e+000 96346 -5.3616e+002 -2.2808e+002  3.4915e+002 36331 96093,96297,96165
 2.7000e+000 96714 -3.1664e+002 -4.9346e+002  3.3371e+002 36041 96737,96495,96443
 2.7000e+000 96691 -4.4568e+002 -3.5543e+002  3.3855e+002 36041 96737,96443,96417
 2.7000e+000 96668 -1.4886e+002 -5.3773e+002  5.2894e+001 36041 96443,96495,96469
 2.7000e+000 96645 -1.0590e+002 -1.1537e+002  1.7856e+002 36041 96391,96521,96417
 2.7000e+000 96622 -1.5355e+001 -1.7690e+002  1.5433e+002 36041 96391,96547,96521
 2.7000e+000 96599 -4.9552e+001 -1.8593e+002  1.5049e+002 36041 96391,96573,96547
 2.7000e+000 96763 -1.3858e+002 -3.7534e+002  2.8253e+002 36041 96521,96495,96737
 2.7000e+000 96786 -3.7841e+002 -3.2084e+002  3.1740e+002 36041 96521,96737,96417
 2.7000e+000 96936 -2.9898e+002 -1.8457e+002  1.9167e+002 35637 97031,96959,96835
 2.7000e+000 96913 -4.2389e+002 -2.2329e+002  2.1608e+002 35637 97163,96959,96809
 2.7000e+000 96985 -4.1829e+002 -1.5197e+002  2.2678e+002 35637 96861,96835,96959
 2.7000e+000 97008 -5.4449e+002 -2.8322e+002  3.6545e+002 35637 96861,96959,96887
 2.7000e+000 97057 -3.4867e+002 -1.3142e+002  1.3364e+002 35637 96809,96959,97031
 2.7000e+000 97189 -3.5013e+002 -1.8508e+002  2.3748e+002 35637 96887,96959,97163
 2.7000e+000 97597 -2.4528e+002 -3.0220e+002  2.6255e+002 35190 97450,97502,97476
 2.7000e+000 97574 -2.6156e+002 -3.6126e+002  3.0819e+002 35190 97372,97502,97450
 2.7000e+000 97551 -2.6435e+002 -4.1328e+002  2.9044e+002 35190 97372,97450,97398
 2.7000e+000 97528 -2.4169e+002 -3.9843e+002  2.7913e+002 35190 97398,97450,97424
 2.7000e+000 98054 -3.1571e+002 -3.9394e+002  3.0143e+002 34636 97806,97936,97858
 2.7000e+000 98031 -5.2444e+002 -3.0679e+002  2.5237e+002 34636 97780,97936,97806
 2.7000e+000 98008 -4.7789e+002 -3.9548e+002  1.6795e+002 34636 97806,97858,97832
 2.7000e+000 97985 -3.5052e+002 -4.1974e+002  3.0710e+002 34636 97884,97936,97910
 2.7000e+000 97962 -2.1106e+002 -2.8671e+002  2.3267e+002 34636 97858,97936,97884
 2.7000e+000 98530 -3.7761e+002  3.8235e+001  8.3234e+001 34068 98697,98184,98366
 2.7000e+000 98507 -4.2142e+000 -3.2248e+001  1.8107e+001 34068 98158,98366,98184
 2.7000e+000 98484 -5.1066e+002 -4.9952e+002  2.0380e+002 34068 98553,98262,98236
 2.7000e+000 98461 -9.2911e+002 -7.0075e+002  1.3364e+002 34068 98553,98236,98210
 2.7000e+000 98438 -4.8963e+002 -2.7520e+002  1.9188e+002 34068 98841,98625,98366
 2.7000e+000 98415 -5.0213e+002 -7.4937e+002  3.3327e+002 34068 98769,98288,98262
 2.7000e+000 98392 -6.5425e+002 -1.5551e+002  1.6664e+002 34068 98841,98366,98340
 2.7000e+000 98579 -5.7930e+002 -6.0301e+002  2.4014e+002 34068 98769,98262,98553
 2.7000e+000 98602 -4.8916e+002 -3.3891e+002  2.0160e+002 34068 98625,98314,98553
 2.7000e+000 98651 -4.4431e+002 -2.5972e+002  1.3812e+002 34068 98697,98366,98625
 2.7000e+000 98674 -5.6211e+002 -5.2792e+002  1.8386e+002 34068 98210,98625,98553
 2.7000e+000 98723 -5.2457e+002 -3.2174e+002  1.5423e+002 34068 98210,98184,98697
 2.7000e+000 98746 -4.7897e+002 -3.8187e+002  2.2692e+002 34068 98210,98697,98625
 2.7000e+000 98795 -3.1688e+002 -5.9736e+002  2.3840e+002 34068 98314,98288,98769
 2.7000e+000 98818 -4.2587e+002 -4.9647e+002  1.5187e+002 34068 98314,98769,98553
 2.7000e+000 98867 -6.4442e+002 -4.0161e+002  1.3365e+002 34068 98314,98625,98841
 2.7000e+000 98890 -8.0954e+002 -2.6922e+002  1.1432e+002 34068 98314,98841,98340
 2.7000e+000 99268 -6.5454e+002 -5.8045e+002  4.1931e+002 33450 99291,99098,99072
 2.7000e+000 99245 -7.0965e+002 -4.5673e+002  2.3606e+002 33450 99291,99072,99020
 2.7000e+000 99222 -1.0826e+003 -5.7104e+002  3.7294e+002 33450 99020,99072,99046
 2.7000e+000 99199 -5.6640e+002 -4.1128e+002  2.3207e+002 33450 99020,99150,99124
 2.7000e+000 99176 -5.8445e+002 -4.1045e+002  3.3033e+001 33450 98994,99150,99020
 2.7000e+000 99317 -3.7086e+002 -4.5614e+002  4.0002e+002 33450 99124,99098,99291
 2.7000e+000 99340 -6.1760e+002 -4.2479e+002  2.3766e+002 33450 99124,99291,99020
 2.7000e+000 99865 -3.5503e+002 -3.4558e+002  2.0120e+002 32944 100176,99960,99888
 2.7000e+000 99842 -4.0689e+002 -3.5713e+002  2.0539e+002 32944 100104,99888,99522
 2.7000e+000 99819 -3.5344e+002 -3.2686e+002  2.5716e+002 32944 100248,99960,99626
 2.7000e+000 99796 -3.4502e+002 -3.8627e+002  1.2734e+002 32944 100032,99652,99626
 2.7000e+000 99773 -3.3819e+002 -4.1268e+002  1.3779e+002 32944 100104,99522,99496
 2.7000e+000 99750 -2.4852e+002 -2.1137e+002  1.5233e+001 32944 99574,99626,99600
 2.7000e+000 99727 -3.0090e+002 -3.1101e+002  2.7771e+002 32944 100248,99626,99574
 2.7000e+000 99704 -2.0725e+002 -3.4547e+002  1.9399e+002 32944 99444,99496,99470
 2.7000e+000 99914 -3.6216e+002 -3.2086e+002  1.4747e+002 32944 100176,99888,100032
 2.7000e+000 99937 -4.2014e+002 -2.8166e+002  2.2640e+002 32944 99678,99888,99444
 2.7000e+000 99986 -3.9133e+002 -2.9044e+002  1.9695e+002 32944 99522,99888,99960
 2.7000e+000 100009 -4.0707e+002 -2.4142e+002  2.3156e+002 32944 99522,99960,99548
 2.7000e+000 100058 -4.0638e+002 -3.8390e+002  1.2825e+002 32944 99678,99652,100032
 2.7000e+000 100081 -4.4658e+002 -3.6347e+002  1.3273e+002 32944 99678,100032,99888
 2.7000e+000 100130 -2.8151e+002 -2.9748e+002  2.2371e+002 32944 99444,99888,100104
 2.7000e+000 100153 -2.3250e+002 -3.5938e+002  1.6053e+002 32944 99444,100104,99496
 2.7000e+000 100202 -3.9253e+002 -4.2903e+002  1.9343e+002 32944 99626,99960,100176
 2.7000e+000 100225 -4.0730e+002 -4.2735e+002  1.4517e+002 32944 99626,100176,100032
 2.7000e+000 100274 -4.3606e+002 -3.1010e+002  2.2778e+002 32944 99548,99960,100248
 2.7000e+000 100297 -3.8933e+002 -2.9962e+002  2.4738e+002 32944 99548,100248,99574
 2.7000e+000 100754 -1.3005e+002 -1.4699e+002  8.5710e+001 32369 100777,100584,100506
 2.7000e+000 100731 -1.5037e+002 -2.2358e+002  1.5925e+002 32369 100777,100506,100636
 2.7000e+000 100708 -2.5019e+002 -2.3351e+002  1.6481e+002 32369 100480,100636,100506
 2.7000e+000 100685 -3.9125e+002 -1.8615e+002  2.3859e+000 32369 100532,100584,100558
 2.7000e+000 100662 -1.5265e+002 -1.7469e+002  9.8889e+001 32369 100506,100584,100532
 2.7000e+000 100803 -1.6193e+002 -3.1619e+001  6.5622e+001 32369 100610,100584,100777
 2.7000e+000 100826 -1.6752e+002 -1.1141e+002  1.2780e+002 32369 100610,100777,100636
 2.7000e+000 101025 -3.2917e+002 -2.7931e+002  2.6366e+002 31857 100875,100927,100901
 2.7000e+000 101002 -6.5282e+002 -1.3574e+002  2.7065e+002 31857 100875,100953,100927
 2.7000e+000 100979 -7.1864e+002 -2.4994e+002  2.0181e+002 31857 100849,100953,100875
 2.7000e+000 101533 -3.1547e+002 -4.0543e+002  3.1661e+002 31253 101556,101314,101236
 2.7000e+000 101510 -4.5922e+002 -4.1493e+002  2.9541e+002 31253 101556,101236,101210
 2.7000e+000 101487 -4.2305e+002 -3.9944e+002  1.2836e+002 31253 101210,101392,101340
 2.7000e+000 101464 -2.4509e+002 -3.8502e+002  2.3255e+002 31253 101236,101288,101262
 2.7000e+000 101441 -2.9812e+002 -5.6690e+002  2.9681e+002 31253 101236,101314,101288
 2.7000e+000 101418 -4.3716e+002 -5.5225e+002  2.9135e+002 31253 101340,101392,101366
 2.7000e+000 101582 -3.6530e+002 -4.1352e+002  2.0047e+002 31253 101340,101314,101556
 2.7000e+000 101605 -5.0834e+002 -4.0945e+002  1.8560e+002 31253 101340,101556,101210
 2.7000e+000 101755  6.4550e+001 -8.2634e+001  3.8151e+001 30519 101778,101654,101628
 2.7000e+000 101732 -1.2183e+002 -1.3912e+002  3.4582e+001 30519 101850,101778,101628
 2.7000e+000 101804 -8.3971e+001 -6.7916e+001 -2.5131e+001 30519 101680,101654,101778
 2.7000e+000 101827 -1.7137e+002 -7.2858e+001 -1.0696e+001 30519 101680,101778,101706
 2.7000e+000 101876 -1.1671e+002 -1.4126e+002 -7.7111e+000 30519 101706,101778,101850
 2.7000e+000 102561 -1.6129e+002 -2.9706e+002  1.5836e+002 29951 102656,102584,102270
 2.7000e+000 102538 -6.0205e+002 -6.4511e+002  1.0916e+002 29951 102584,102140,102374
 2.7000e+000 102515 -3.1063e+002 -7.3889e+002  3.7988e+002 29951 102728,102656,102270
 2.7000e+000 102492 -3.3913e+002 -9.1371e+002  3.8145e+002 29951 102728,102270,102244
 2.7000e+000 102469 -4.8277e+002 -1.3989e+002  2.2077e+002 29951 102800,102322,102296
 2.7000e+000 102446 -5.0327e+002 -3.3052e+002  9.6362e+001 29951 102166,102218,102192
 2.7000e+000 102423 -4.2351e+002 -3.6028e+002  5.3718e+001 29951 102166,102244,102218
 2.7000e+000 102400 -2.6426e+002 -3.1871e+002  1.7925e+002 29951 102322,102374,102348
 2.7000e+000 102610 -5.6961e+002 -2.0939e+002  6.6632e+001 29951 102296,102270,102584
 2.7000e+000 102633 -6.4695e+002 -2.9091e+002  1.2593e+002 29951 102800,102296,102584
 2.7000e+000 102682 -7.1958e+002 -6.3943e+002  3.2515e+002 29951 102140,102584,102656
 2.7000e+000 102705 -4.2693e+002 -6.1463e+002  4.8354e+002 29951 102140,102656,102166
 2.7000e+000 102754 -3.4703e+002 -5.4410e+002  4.5388e+002 29951 102166,102656,102728
 2.7000e+000 102777 -3.6749e+002 -6.7780e+002  4.2026e+002 29951 102166,102728,102244
 2.7000e+000 102826 -3.0886e+002 -3.1363e+002  2.9454e+002 29951 102374,102322,102800
 2.7000e+000 102849 -3.8480e+002 -3.3123e+002  2.3657e+002 29951 102374,102800,102584
 2.7000e+000 103048  6.6643e+000 -2.0326e+002  5.9519e+001 29454 102872,102924,102898
 2.7000e+000 103025 -5.3346e+001 -5.7948e+002  1.6010e+002 29454 102872,102976,102924
 2.7000e+000 103002 -1.9555e+002 -8.0501e+002  8.6620e+001 29454 102924,102976,102950
 2.7000e+000 103296 -7.3183e+002 -5.4220e+002  3.7526e+002 29064 103319,103175,103123
 2.7000e+000 103273 -9.7758e+002 -5.4464e+002  4.3215e+002 29064 103319,103123,103071
 2.7000e+000 103250 -4.4584e+002 -3.4261e+002  2.7326e+002 29064 103123,103175,103149
 2.7000e+000 103227 -7.4885e+002 -4.3930e+002  5.3197e+002 29064 103071,103123,103097
 2.7000e+000 103345 -5.1404e+002 -5.9377e+002  2.7607e+002 29064 103201,103175,103319
 2.7000e+000 103368 -8.0530e+002 -5.5209e+002  2.4463e+002 29064 103201,103319,103071
 2.7000e+000 104006 -4.2139e+002 -2.1476e+002  1.7016e+002 28603 104101,104029,103712
 2.7000e+000 103983 -3.6716e+002 -1.5235e+002  1.5020e+002 28603 104173,104029,103660
 2.7000e+000 103960 -5.0169e+002 -1.7708e+002  1.6043e+002 28603 104101,103712,103686
 2.7000e+000 103937 -2.6756e+002 -1.9546e+002  1.4851e+002 28603 104173,103660,103634
 2.7000e+000 103914 -4.5041e+002 -2.3805e+002  2.3635e+002 28603 103764,103816,103790
 2.7000e+000 103891 -2.8426e+002 -1.8475e+002  2.2308e+002 28603 103634,103842,103816
 2.7000e+000 103868 -3.5338e+002 -1.3706e+002  2.2047e+002 28603 103712,103764,103738
 2.7000e+000 104055 -4.2947e+002 -1.7172e+002  1.8556e+002 28603 103764,103712,104029
 2.7000e+000 104078 -4.0765e+002 -1.7564e+002  2.1769e+002 28603 103764,104029,103816
 2.7000e+000 104127 -5.2667e+002 -2.1792e+002  1.3601e+002 28603 103660,104029,104101
 2.7000e+000 104150 -6.4842e+002 -2.0317e+002  1.4671e+002 28603 103660,104101,103686
 2.7000e+000 104199 -4.4521e+002 -1.8206e+002  1.7744e+002 28603 103816,104029,104173
 2.7000e+000 104222 -3.5825e+002 -2.2588e+002  1.6523e+002 28603 103816,104173,103634
 2.7000e+000 104600 -2.7042e+002 -5.2303e+002  1.1760e+002 28348 104623,104378,104326
 2.7000e+000 104577 -2.1785e+002 -5.4557e+002  2.1900e+002 28348 104623,104326,104482
 2.7000e+000 104554 -2.6108e+002 -3.5158e+002  9.6983e+001 28348 104326,104378,104352
 2.7000e+000 104531 -2.7027e+002 -2.7112e+000  5.1609e+000 28348 104404,104456,104430
 2.7000e+000 104508 -3.5140e+002 -2.2575e+002  1.8432e+002 28348 104378,104456,104404
 2.7000e+000 104649 -2.2594e+002 -4.3241e+002  1.5483e+002 28348 104456,104378,104623
 2.7000e+000 104672 -1.5700e+002 -4.3811e+002  2.5894e+002 28348 104456,104623,104482
 2.7000e+000 104991 -4.9236e+002 -4.9557e+002  3.7069e+002 27951 104717,104847,104769
 2.7000e+000 104968 -1.4216e+002 -3.4286e+002  3.4305e+002 27951 104717,104873,104847
 2.7000e+000 104945 -1.7051e+002 -4.0847e+002  4.0120e+002 27951 104769,104847,104795
 2.7000e+000 104922  2.3638e+001  7.1538e+001  3.7772e+002 27951 104795,104847,104821
 2.7000e+000 104899 -4.5202e+002 -3.4818e+002  3.9600e+002 27951 104717,104769,104743
 2.7000e+000 105371 -6.6482e+002 -4.0219e+002  3.0485e+002 27447 105394,105201,105123
 2.7000e+000 105348 -8.8110e+002 -3.6309e+002  4.5047e+002 27447 105394,105123,105097
 2.7000e+000 105325 -1.0560e+003 -4.3495e+002  2.9507e+002 27447 105123,105201,105149
 2.7000e+000 105302 -5.4180e+002 -4.9241e+002  3.1542e+002 27447 105201,105253,105227
 2.7000e+000 105279 -5.3528e+002 -5.9270e+002  1.0090e+002 27447 105149,105201,105175
 2.7000e+000 105420 -5.4267e+002 -3.3022e+002  2.3283e+002 27447 105253,105201,105394
 2.7000e+000 105443 -7.2756e+002 -2.1859e+002  3.5810e+002 27447 105253,105394,105097
 2.7000e+000 105998 -4.4576e+002 -3.1720e+002  3.1995e+002 27100 106165,106021,105704
 2.7000e+000 105975 -1.9475e+002 -1.5497e+002  2.7016e+002 27100 106309,106021,105652
 2.7000e+000 105952 -7.3747e+002 -5.3708e+002  5.5486e+002 27100 106093,105808,105782
 2.7000e+000 105929 -4.2895e+002 -3.3942e+002  3.0055e+002 27100 106165,105704,105678
 2.7000e+000 105906 -1.9993e+002 -4.8914e+002  2.5389e+002 27100 106237,105730,105704
 2.7000e+000 105883 -1.8338e+002 -2.9156e+002  1.8709e+002 27100 106309,105652,105626
 2.7000e+000 105860 -8.9753e+001 -8.8990e+000  2.8506e+001 27100 105730,105782,105756
 2.7000e+000 106047 -3.9749e+002 -2.6209e+002  3.5687e+002 27100 106237,105704,106021
 2.7000e+000 106070 -4.2464e+002 -2.4563e+002  4.2742e+002 27100 106093,105782,106021
 2.7000e+000 106119 -2.9458e+002 -4.4748e+002  2.7315e+002 27100 105834,105808,106093
 2.7000e+000 106142 -3.4276e+002 -5.6283e+002  3.7893e+002 27100 106381,106093,106021
 2.7000e+000 106191 -4.1779e+002 -2.9399e+002  3.3167e+002 27100 105652,106021,106165
 2.7000e+000 106214 -3.9039e+002 -3.1944e+002  3.1351e+002 27100 105652,106165,105678
 2.7000e+000 106263 -2.3993e+001 -2.5879e+002  1.7685e+002 27100 105782,105730,106237
 2.7000e+000 106286 -2.6209e+002 -9.1578e+001  2.9720e+002 27100 105782,106237,106021
 2.7000e+000 106335 -2.9017e+002 -3.4818e+002  3.0181e+002 27100 106381,106021,106309
 2.7000e+000 106358 -1.8121e+002 -2.2361e+002  1.6689e+002 27100 105834,106309,105626
 2.7000e+000 106407 -2.1136e+002 -3.1361e+002  2.3297e+002 27100 105834,106093,106381
 2.7000e+000 106430 -2.1880e+002 -2.7078e+002  1.5019e+002 27100 105834,106381,106309
 2.7000e+000 106629 -7.5228e+001 -4.9333e+002  1.5705e+002 26688 106479,106557,106531
 2.7000e+000 106606 -1.1407e+002 -4.1876e+002  1.4758e+002 26688 106453,106557,106479
 2.7000e+000 106583 -2.1296e+002 -5.2446e+002  5.2792e+001 26688 106479,106531,106505
 2.7000e+000 107088 -2.1539e+002 -1.8507e+002  8.5816e+001 26248 107111,106918,106866
 2.7000e+000 107065 -2.2715e+002 -1.5990e+002  9.9573e+001 26248 107111,106866,106840
 2.7000e+000 107042 -1.6102e+002 -1.2227e+002  9.8610e+001 26248 106814,106970,106840
 2.7000e+000 107019 -2.2961e+002 -3.8772e+002  1.3762e+002 26248 106866,106918,106892
 2.7000e+000 106996 -3.5899e+002 -2.6113e+002  7.4733e+001 26248 106918,106970,106944
 2.7000e+000 107137 -2.3875e+002 -2.1799e+002  5.9342e+001 26248 106970,106918,107111
 2.7000e+000 107160 -2.2855e+002 -1.6798e+002  7.5570e+001 26248 106970,107111,106840
 2.7000e+000 107666 -5.8388e+002 -2.3856e+002  1.8734e+002 25908 107369,107499,107395
 2.7000e+000 107643 -7.9057e+002 -7.1047e+002  3.8095e+002 25908 107369,107525,107499
 2.7000e+000 107620 -4.7729e+002 -3.0765e+002  2.4954e+002 25908 107395,107473,107447
 2.7000e+000 107597 -4.0689e+002 -1.6644e+002  1.8254e+002 25908 107395,107499,107473
 2.7000e+000 107574 -8.2860e+002 -3.8619e+002  5.6294e+002 25908 107395,107447,107421
 2.7000e+000 107551 -3.1040e+002 -5.5233e+002  3.0992e+002 25908 107343,107525,107369
 2.7000e+000 108251 -3.7178e+002 -1.3383e+002  2.2344e+002 25454 108274,108006,107954
 2.7000e+000 108228 -2.9729e+002 -6.5284e+001  1.6845e+002 25454 108274,107954,108110
 2.7000e+000 108205 -2.8152e+002 -2.9317e+002  2.6182e+002 25454 108346,108032,108006
 2.7000e+000 108182 -4.7530e+002 -2.2247e+002  2.8380e+002 25454 107954,108006,107980
 2.7000e+000 108159 -1.5743e+002 -1.8060e+002  1.5175e+002 25454 107928,108110,107954
 2.7000e+000 108136 -5.5962e+002 -5.5775e+002  3.1264e+002 25454 108058,108110,108084
 2.7000e+000 108300 -3.5781e+002 -2.1356e+002  2.6412e+002 25454 108346,108006,108274
 2.7000e+000 108323 -3.2207e+002 -1.4382e+002  1.9862e+002 25454 108058,108274,108110
 2.7000e+000 108372 -1.9168e+002 -2.0096e+002  2.2494e+002 25454 108058,108032,108346
 2.7000e+000 108395 -2.7249e+002 -1.0939e+002  2.2733e+002 25454 108058,108346,108274
 2.7000e+000 108822 -2.9122e+002 -1.7715e+002  1.7010e+002 24943 108525,108681,108655
 2.7000e+000 108799 -3.7812e+002 -2.5740e+002  8.5157e+001 24943 108499,108681,108525
 2.7000e+000 108776 -1.6059e+002 -1.3370e+002  1.2198e+002 24943 108525,108655,108629
 2.7000e+000 108753 -2.5391e+002 -1.1390e+002  1.0858e+002 24943 108525,108629,108603
 2.7000e+000 108730 -5.8299e+002 -1.7951e+002  2.1462e+002 24943 108551,108603,108577
 2.7000e+000 108707 -5.5727e+002 -3.3817e+002  3.1361e+002 24943 108525,108603,108551
 2.7000e+000 109407 -2.9604e+001 -9.9309e+001  5.4279e+001 24745 109162,109214,109188
 2.7000e+000 109384 -2.0814e+002 -1.0052e+002  6.7705e+001 24745 109162,109266,109214
 2.7000e+000 109361 -2.4582e+002 -1.4456e+002  4.0128e+001 24745 109084,109266,109162
 2.7000e+000 109338 -4.3967e+002 -6.3960e+001  1.0767e+002 24745 109084,109162,109136
 2.7000e+000 109315 -9.9801e+001 -1.9246e+002  9.3365e+001 24745 109214,109266,109240
 2.7000e+000 109292 -3.3011e+002 -9.1643e+001  1.7528e+002 24745 109084,109136,109110
 2.7000e+000 109785 -7.0215e+002 -3.1770e+002  4.0877e+002 24341 109537,109615,109563
 2.7000e+000 109762 -7.1461e+001 -1.5273e+002  3.7904e+002 24341 109537,109641,109615
 2.7000e+000 109739 -4.7057e+002 -3.4001e+002  3.0343e+002 24341 109563,109615,109589
 2.7000e+000 109716 -2.9696e+002 -2.9286e+002  2.5475e+002 24341 109537,109667,109641
 2.7000e+000 109693 -1.6634e+002 -3.4437e+002  2.3341e+002 24341 109511,109667,109537
 2.7000e+000 110163 -8.1684e+002 -4.5856e+002  4.1942e+002 23837 110186,109967,109915
 2.7000e+000 110140 -7.4728e+002 -4.6560e+002  4.5742e+002 23837 110186,109915,109889
 2.7000e+000 110117 -3.4210e+002 -1.5998e+002  3.5421e+002 23837 109889,110045,109993
 2.7000e+000 110094 -7.6006e+002 -5.7689e+002  3.2257e+002 23837 109915,109967,109941
 2.7000e+000 110071 -4.1887e+002 -8.4877e+000  6.2052e+001 23837 109993,110045,110019
 2.7000e+000 110212 -7.7150e+002 -4.1637e+002  4.4839e+002 23837 109993,109967,110186
 2.7000e+000 110235 -7.4009e+002 -4.2862e+002  4.8670e+002 23837 109993,110186,109889
 2.7000e+000 110336 -3.7497e+002 -8.3928e+002  4.3105e+002 23433 110258,110310,110284
 2.7000e+000 110584 -4.6552e+002 -3.2651e+002  1.9883e+002 22829 110607,110411,110385
 2.7000e+000 110561 -5.8791e+002 -3.8313e+002  2.9054e+002 22829 110607,110385,110489
 2.7000e+000 110538 -3.5550e+002 -3.4888e+002  1.6740e+002 22829 110437,110489,110463
 2.7000e+000 110515 -4.8419e+002 -2.3375e+002  3.3607e+002 22829 110359,110489,110385
 2.7000e+000 110633 -4.5616e+002 -2.3608e+002  1.0844e+002 22829 110437,110411,110607
 2.7000e+000 110656 -5.2556e+002 -2.9724e+002  1.9576e+002 22829 110437,110607,110489
 2.7000e+000 110906 -1.0255e+003 -4.2497e+002  2.9898e+002 22432 110707,110759,110733
 2.7000e+000 110883 -5.7850e+002 -4.3095e+002  2.3031e+002 22432 110707,110785,110759
 2.7000e+000 110860 -6.1848e+002 -3.9086e+002  3.7331e+002 22432 110707,110811,110785
 2.7000e+000 110837 -7.7719e+002 -5.3867e+002  2.8839e+002 22432 110681,110811,110707
 2.7000e+000 111288 -9.0423e+001 -2.0286e+002  1.7083e+002 22142 111092,111144,111118
 2.7000e+000 111265 -2.9172e+002 -2.2897e+002  1.5634e+002 22142 111066,111144,111092
 2.7000e+000 111242 -2.7119e+002 -2.0378e+002  1.2711e+002 22142 111040,111144,111066
 2.7000e+000 111219 -5.3206e+002 -7.0237e+001  6.9812e+001 22142 111014,111144,111040
 2.7000e+000 111196 -3.8137e+002 -4.7371e+001  1.3054e+002 22142 111014,111170,111144
 2.7000e+000 111389 -9.3399e+000 -9.3459e+001  2.4599e+002 21830 111311,111363,111337
 2.7000e+000 111735 -6.9122e+002 -5.4894e+001  4.9304e+002 21268 111758,111542,111438
 2.7000e+000 111712 -5.6958e+002 -2.1532e+001  3.6448e+002 21268 111758,111438,111412
 2.7000e+000 111689 -1.9953e+002 -3.4556e+002  5.8080e+002 21268 111438,111542,111464
 2.7000e+000 111666 -5.5877e+001 -2.5028e+002  7.5126e+002 21268 111464,111542,111490
 2.7000e+000 111643 -1.3265e+003 -6.4706e+002  6.7095e+002 21268 111412,111594,111568
 2.7000e+000 111620  2.4847e+002  2.3880e+002  9.3987e+002 21268 111490,111542,111516
 2.7000e+000 111784 -7.1856e+002 -1.2389e+002  4.9906e+002 21268 111568,111542,111758
 2.7000e+000 111807 -6.9855e+002 -2.8129e+002  4.1265e+002 21268 111568,111758,111412
 2.7000e+000 111959 -6.9304e+002 -8.2227e+001  2.3553e+002 20864 111982,111910,111884
 2.7000e+000 111936 -6.4283e+002 -9.8477e+001  3.3309e+002 20864 112114,111832,111910
 2.7000e+000 112008 -6.8804e+002 -2.2789e+002  2.8361e+002 20864 112114,111910,111982
 2.7000e+000 112140 -6.2629e+002 -2.4830e+002  2.6078e+002 20864 111858,111832,112114
 2.7000e+000 112163 -6.8289e+002 -4.0609e+002  2.1522e+002 20864 111858,112114,111982
 2.7000e+000 112411 -8.5881e+001 -1.9871e+001  2.7399e+001 20324 112186,112290,112212
 2.7000e+000 112388 -4.3983e+001 -1.4075e+001  4.0507e+001 20324 112186,112316,112290
 2.7000e+000 112365  2.1544e+002 -1.8292e+002  3.0344e+001 20324 112212,112290,112264
 2.7000e+000 112342 -8.9730e+002 -3.8422e+002 -4.8841e+001 20324 112212,112264,112238
 2.7000e+000 112659 -7.0424e+001 -1.8522e+001  2.7320e+002 19920 112512,112564,112538
 2.7000e+000 112636 -3.5719e+002 -1.2380e+002  1.6761e+002 19920 112434,112564,112512
 2.7000e+000 112613 -3.6713e+002 -2.2492e+002  2.0892e+002 19920 112434,112512,112460
 2.7000e+000 112590 -4.0578e+002 -2.4978e+002  2.2250e+002 19920 112460,112512,112486
 2.7000e+000 112811 -6.4046e+001 -2.5363e+001  1.1556e+002 19630 112684,112736,112710
 2.7000e+000 112788  1.0219e+002 -1.4401e+002  2.9844e+001 19630 112684,112762,112736
 2.7000e+000 113012 -3.0178e+002 -1.1439e+002  3.0891e+002 19169 112862,112940,112888
 2.7000e+000 112989 -4.9156e+002 -4.0923e+002  2.2746e+002 19169 112836,112940,112862
 2.7000e+000 112966 -2.4447e+002 -3.3086e+002  2.4579e+002 19169 112888,112940,112914
 2.7000e+000 113213 -6.3854e+002 -2.5849e+002  3.0914e+002 18600 113037,113089,113063
 2.7000e+000 113190 -3.6833e+002 -1.7477e+002  2.4228e+002 18600 113037,113115,113089
 2.7000e+000 113167 -7.3422e+002 -5.0276e+002  4.5289e+002 18600 113037,113141,113115
 2.7000e+000 113485 -3.3697e+002 -1.2798e+002  3.2355e+002 18352 113260,113312,113286
 2.7000e+000 113462 -6.7268e+002 -3.9563e+002  4.4026e+002 18352 113260,113390,113312
 2.7000e+000 113439 -6.3128e+002 -1.2565e+002  3.2083e+002 18352 113312,113390,113364
 2.7000e+000 113416 -2.3766e+002 -8.3890e+001  3.3802e+002 18352 113312,113364,113338
 2.7000e+000 113757 -4.7492e+002 -1.8710e+002  3.2303e+002 17834 113558,113610,113584
 2.7000e+000 113734 -6.9145e+002 -3.8597e+002  4.2721e+002 17834 113532,113610,113558
 2.7000e+000 113711 -7.0555e+002 -4.5825e+002  3.4841e+002 17834 113532,113662,113610
 2.7000e+000 113688 -3.5858e+002 -1.1636e+002  4.8701e+002 17834 113610,113662,113636
 2.7000e+000 113958 -4.6450e+002 -1.8924e+002  2.4991e+002 17330 113782,113834,113808
 2.7000e+000 113935 -2.6274e+002 -1.3837e+002  1.8344e+002 17330 113782,113886,113834
 2.7000e+000 113912 -3.1901e+002 -1.3941e+002  1.2235e+002 17330 113834,113886,113860
 2.7000e+000 114110 -6.8566e+002 -2.6295e+002  4.4024e+002 16874 113983,114035,114009
 2.7000e+000 114087 -2.6599e+002 -6.0832e+002  3.8697e+002 16874 113983,114061,114035
 2.7000e+000 114465 -8.3947e+002 -3.5394e+002  1.9124e+002 16270 114240,114292,114266
 2.7000e+000 114442 -5.9739e+002 -1.4188e+002  9.0298e+001 16270 114240,114370,114292
 2.7000e+000 114419 -2.6636e+002 -1.1111e+002  1.4004e+002 16270 114292,114344,114318
 2.7000e+000 114396 -6.2825e+002 -2.7982e+002  8.4852e+001 16270 114292,114370,114344
 2.7000e+000 114566 -3.8916e+001  3.8916e+001  5.9807e+002 15834 114488,114540,114514
 2.7000e+000 114667 -4.6067e+002 -1.8411e+002  2.9070e+002 15155 114589,114641,114615
 2.7000e+000 114890 -2.8889e+002 -9.7333e+001  4.0795e+002 421 114766,114818,114792
 2.7000e+000 114867 -4.8246e+002 -4.5387e+002  3.2834e+002 421 114714,114818,114766
 2.7000e+000 114844 -7.3538e+002 -3.0924e+002  1.9214e+002 421 114714,114766,114740
 2.8000e+000 66553 -3.6096e+002 -1.5391e+002  1.4756e+002 66108 66354,66458,66432
 2.8000e+000 66530 -3.3633e+002 -1.4185e+002  1.3069e+002 66108 66328,66458,66354
 2.8000e+000 66507 -1.9564e+002 -1.2191e+002  7.2722e+001 66108 66354,66432,66406
 2.8000e+000 66484  8.9107e+001  4.2707e+001  1.7060e+002 66108 66354,66406,66380
 2.8000e+000 66951 -4.5188e+002 -1.9200e+002  1.0780e+002 65910 66703,66833,66807
 2.8000e+000 66928 -9.4102e+001 -9.7283e+001  1.2534e+002 65910 66677,66833,66703
 2.8000e+000 66905 -1.3372e+002 -2.1852e+002  1.7081e+002 65910 66729,66781,66755
 2.8000e+000 66882 -4.2294e+002 -1.7741e+002  1.5840e+002 65910 66729,66807,66781
 2.8000e+000 66859 -3.9580e+002 -9.2181e+001  1.4145e+002 65910 66703,66807,66729
 2.8000e+000 67150 -4.3116e+002 -1.7967e+002  1.8486e+002 65712 67026,67078,67052
 2.8000e+000 67127 -5.2226e+002 -6.2561e+001  1.4264e+002 65712 66974,67078,67026
 2.8000e+000 67104 -1.7407e+003 -8.0222e+002  5.3335e+002 65712 66974,67026,67000
 2.8000e+000 67481 -6.7512e+002 -7.2386e+001  2.2115e+002 65422 67282,67360,67334
 2.8000e+000 67458 -2.6543e+002 -9.3681e+001  3.5681e+002 65422 67282,67386,67360
 2.8000e+000 67435 -1.7024e+002  1.3472e+002  1.9141e+002 65422 67282,67334,67308
 2.8000e+000 67412  1.7049e+002  3.9716e+001  9.1737e+001 65422 67256,67386,67282
 2.8000e+000 68115 -2.0684e+002 -5.6737e+001  4.6343e+001 65018 67795,67925,67873
 2.8000e+000 68092 -2.7510e+002 -8.4503e+001  8.8191e+001 65018 67769,67925,67795
 2.8000e+000 68069 -1.4536e+002 -5.4414e+001  6.8259e+001 65018 67873,67925,67899
 2.8000e+000 68046 -3.4245e+002 -2.5067e+002  1.5658e+002 65018 67769,67951,67925
 2.8000e+000 68023 -2.7142e+002 -1.7072e+002  7.3283e+001 65018 67795,67873,67821
 2.8000e+000 68000 -3.3314e+002 -1.8937e+002  7.0059e+001 65018 67821,67873,67847
 2.8000e+000 67977 -4.7642e+002 -2.0255e+002  2.4468e+002 65018 67743,67951,67769
 2.8000e+000 68363 -2.3594e+002 -5.1104e+002  4.0613e+002 64820 68190,68242,68216
 2.8000e+000 68340 -4.2999e+002 -3.4180e+002  4.1306e+002 64820 68190,68268,68242
 2.8000e+000 68317 -2.3671e+002 -2.4769e+002  4.5995e+002 64820 68164,68268,68190
 2.8000e+000 68294 -8.2393e+002 -3.3953e+002  2.9504e+002 64820 68138,68268,68164
 2.8000e+000 68513 -4.6170e+002 -2.3757e+002  1.8247e+002 64366 68868,68536,68438
 2.8000e+000 68490 -2.5211e+002 -1.1175e+002  1.3338e+002 64366 68536,68412,68386
 2.8000e+000 68562 -5.2437e+002 -2.1612e+002  2.4422e+002 64366 68740,68536,68464
 2.8000e+000 68585 -3.7338e+002 -1.3512e+002  1.8142e+002 64366 68608,68536,68386
 2.8000e+000 68634 -4.7013e+002 -3.3310e+002  1.5102e+002 64366 68464,68536,68608
 2.8000e+000 68766 -4.6975e+002 -1.7693e+002  2.2667e+002 64366 68438,68536,68740
 2.8000e+000 68894 -3.6301e+002 -1.4299e+002  2.2641e+002 64366 68412,68536,68868
 2.8000e+000 69172 -4.4155e+002 -4.2979e+002  3.3492e+001 64168 69022,69074,69048
 2.8000e+000 69149 -8.0218e+002 -3.4113e+002  1.4102e+002 64168 68996,69074,69022
 2.8000e+000 69126 -8.3758e+002 -4.2597e+002  1.4801e+002 64168 68996,69100,69074
 2.8000e+000 69371 -3.2973e+002 -9.9949e+001  1.8778e+002 63970 69466,69394,69273
 2.8000e+000 69348 -2.7600e+002 -1.0009e+002  1.0371e+002 63970 69394,69247,69221
 2.8000e+000 69325 -4.6439e+002 -1.9674e+002  1.2184e+002 63970 69195,69299,69221
 2.8000e+000 69420 -3.6442e+002 -1.5747e+002  2.0282e+002 63970 69299,69273,69394
 2.8000e+000 69443 -3.3190e+002 -1.9962e+002  1.2631e+002 63970 69299,69394,69221
 2.8000e+000 69492 -3.4763e+002 -1.2911e+002  1.8023e+002 63970 69247,69394,69466
 2.8000e+000 69904 -6.3784e+001 -2.9180e+002  1.1308e+002 63680 69705,69783,69731
 2.8000e+000 69881  4.5109e+001 -2.0683e+002  6.7562e+001 63680 69679,69783,69705
 2.8000e+000 69858 -2.7174e+002 -3.2228e+002  1.4078e+002 63680 69679,69809,69783
 2.8000e+000 69835 -1.8718e+002 -3.0137e+002  9.6859e+001 63680 69731,69783,69757
 2.8000e+000 70054 -1.7971e+001 -2.2148e+002  1.2648e+002 63476 70077,69953,69927
 2.8000e+000 70031  2.7572e+001 -9.8084e+001  1.8622e+002 63476 70077,69927,70005
 2.8000e+000 70103 -9.9686e+001 -1.3766e+002  7.4511e+001 63476 69979,69953,70077
 2.8000e+000 70126 -6.4871e+001 -2.5384e+001  1.2471e+002 63476 69979,70077,70005
 2.8000e+000 70325 -8.4758e+002 -3.9967e+002  2.3576e+002 63278 70149,70227,70175
 2.8000e+000 70302 -5.6015e+002 -2.2529e+002  3.2204e+002 63278 70149,70253,70227
 2.8000e+000 70279 -1.0005e+003 -6.8093e+002  1.7522e+002 63278 70175,70227,70201
 2.8000e+000 70597 -3.2616e+002 -6.7681e+001  1.5347e+002 63080 70372,70476,70424
 2.8000e+000 70574 -3.3816e+002 -1.4181e+002  1.4323e+002 63080 70372,70502,70476
 2.8000e+000 70551 -3.7109e+002 -1.5458e+002  1.6958e+002 63080 70424,70476,70450
 2.8000e+000 70528 -5.5244e+002 -1.9263e+002  2.6543e+002 63080 70372,70424,70398
 2.8000e+000 70847 -1.0422e+001 -1.7619e+002  6.7249e+001 62740 70870,70648,70622
 2.8000e+000 70824 -1.1705e+002 -1.4980e+002  1.1553e+002 62740 70870,70622,70752
 2.8000e+000 70801 -2.2833e+001 -2.0542e+002  8.4137e+001 62740 70648,70726,70700
 2.8000e+000 70778 -2.7807e+001 -2.3018e+002  8.3793e+001 62740 70648,70700,70674
 2.8000e+000 70896 -1.1629e+002 -2.1374e+002  5.7606e+001 62740 70726,70648,70870
 2.8000e+000 70919 -1.6852e+002 -1.5578e+002  1.1846e+002 62740 70726,70870,70752
 2.8000e+000 71022 -3.3163e+001  3.3163e+001  5.5227e+002 62520 70944,70996,70970
 2.8000e+000 71223 -7.3965e+002 -3.6448e+002  4.4624e+002 62230 71073,71151,71099
 2.8000e+000 71200 -5.7743e+002 -3.3937e+002  4.0077e+002 62230 71047,71151,71073
 2.8000e+000 71177 -5.3447e+002 -6.3862e+002  3.5015e+002 62230 71099,71151,71125
 2.8000e+000 71861 -6.9925e+001 -7.4462e+001  2.7675e+001 61712 71515,71697,71671
 2.8000e+000 71838 -6.3758e+001 -6.2107e+001  6.6094e+000 61712 71489,71697,71515
 2.8000e+000 71815 -6.6082e+002 -1.7541e+002  2.9229e+002 61712 71884,71541,71515
 2.8000e+000 71792 -4.5210e+002  2.0303e+001  1.9888e+002 61712 71884,71515,71671
 2.8000e+000 71769 -1.2070e+002 -4.4208e+002  1.5652e+002 61712 71541,71619,71593
 2.8000e+000 71746 -1.2759e+002 -9.9347e+001  1.6549e+002 61712 71619,71671,71645
 2.8000e+000 71723 -2.8258e+002 -5.1580e+002  1.6891e+002 61712 71541,71593,71567
 2.8000e+000 71910 -4.4772e+002 -3.7439e+002  3.8775e+002 61712 71619,71541,71884
 2.8000e+000 71933 -3.2177e+002 -2.3441e+002  3.1633e+002 61712 71619,71884,71671
 2.8000e+000 72230 -5.6182e+002 -3.8695e+002  1.0271e+002 61208 72253,72060,72008
 2.8000e+000 72207 -5.3003e+002 -2.5590e+002  9.6275e+001 61208 72253,72008,71982
 2.8000e+000 72184 -5.2693e+002 -1.7087e+002  7.1119e+001 61208 71982,72112,72086
 2.8000e+000 72161 -8.7036e+002 -3.8975e+002  2.0725e+002 61208 72008,72060,72034
 2.8000e+000 72138 -3.2528e+002 -9.9017e+001  1.7983e+002 61208 71956,72112,71982
 2.8000e+000 72279 -5.5921e+002 -2.9297e+002  4.7006e+001 61208 72086,72060,72253
 2.8000e+000 72302 -5.6603e+002 -2.1809e+002  3.9574e+001 61208 72086,72253,71982
 2.8000e+000 72761 -2.7128e+002 -2.2970e+002  8.1755e+001 60804 72487,72617,72513
 2.8000e+000 72738 -3.8945e+002 -3.4586e+002  1.3679e+002 60804 72487,72643,72617
 2.8000e+000 72715 -1.0239e+002 -4.9555e+002  1.3239e+002 60804 72565,72617,72591
 2.8000e+000 72692 -3.2461e+002 -3.1369e+002  1.6353e+002 60804 72513,72617,72565
 2.8000e+000 72669 -2.8997e+002 -2.9235e+002  7.6242e+001 60804 72513,72565,72539
 2.8000e+000 72911 -3.3163e+001  3.3163e+001  5.5227e+002 60556 72784,72836,72810
 2.8000e+000 72888  4.7004e+002  2.3744e+002  3.3263e+002 60556 72784,72862,72836
 2.8000e+000 73468 -2.1176e+002 -2.0340e+002  1.3229e+002 60244 73491,73226,73200
 2.8000e+000 73445 -2.4561e+002 -1.9143e+002  1.8101e+002 60244 73563,73491,73200
 2.8000e+000 73422 -4.1374e+002 -1.1815e+002  1.9332e+002 60244 73563,73200,73174
 2.8000e+000 73399 -2.0117e+002 -3.1861e+002  1.3613e+002 60244 73226,73278,73252
 2.8000e+000 73376 -2.9396e+002 -2.2266e+002  1.3623e+002 60244 73122,73304,73278
 2.8000e+000 73353 -3.0937e+002 -2.8124e+002  1.3683e+002 60244 73096,73304,73122
 2.8000e+000 73330 -5.9575e+002 -2.9564e+002 -7.6200e+001 60244 73122,73174,73148
 2.8000e+000 73517 -3.1467e+002 -2.5409e+002  1.5656e+002 60244 73278,73226,73491
 2.8000e+000 73540 -3.0601e+002 -2.1804e+002  1.4012e+002 60244 73278,73491,73122
 2.8000e+000 73589 -4.8581e+002 -2.7863e+002  1.4110e+002 60244 73122,73491,73563
 2.8000e+000 73612 -6.4326e+002 -1.9449e+002  1.6316e+002 60244 73122,73563,73174
 2.8000e+000 73762 -1.4456e+002 -3.2421e+002  3.6089e+002 59875 73661,73713,73687
 2.8000e+000 73739 -4.1909e+002 -1.9482e+002  2.5636e+002 59875 73635,73713,73661
 2.8000e+000 74191 -2.2552e+002 -5.1272e+002  3.5635e+002 59478 74214,73894,73868
 2.8000e+000 74168 -4.1687e+002 -5.0720e+002  3.8173e+002 59478 74214,73868,74050
 2.8000e+000 74145 -4.2790e+002 -5.4711e+002  1.9089e+002 59478 73894,73946,73920
 2.8000e+000 74122 -3.5050e+002 -5.1154e+002  1.6812e+002 59478 73894,73998,73946
 2.8000e+000 74099 -8.7663e+002 -5.1630e+002  5.4662e+002 59478 73998,74050,74024
 2.8000e+000 74076 -4.5328e+002 -6.3465e+002  1.1378e+002 59478 73946,73998,73972
 2.8000e+000 74240 -4.0008e+002 -4.5101e+002  2.7592e+002 59478 73998,73894,74214
 2.8000e+000 74263 -5.8467e+002 -4.5361e+002  2.7106e+002 59478 73998,74214,74050
 2.8000e+000 74720 -3.8000e+002 -2.2644e+002  1.4304e+002 58774 74472,74602,74498
 2.8000e+000 74697 -3.9044e+002 -2.6585e+002  1.2119e+002 58774 74446,74602,74472
 2.8000e+000 74674 -4.4573e+002 -2.0762e+002  1.7344e+002 58774 74498,74576,74524
 2.8000e+000 74651 -3.8551e+002 -2.3411e+002  1.4050e+002 58774 74498,74602,74576
 2.8000e+000 74628 -4.4989e+002 -1.8947e+002  1.5823e+002 58774 74524,74576,74550
 2.8000e+000 75226 -2.7375e+002 -2.7025e+002  1.5912e+002 58270 74955,75085,75033
 2.8000e+000 75203 -2.1777e+002 -3.0824e+002  1.8924e+002 58270 74929,75085,74955
 2.8000e+000 75180 -3.0075e+002 -1.8638e+002  1.9849e+002 58270 75033,75085,75059
 2.8000e+000 75157 -2.9102e+002 -3.8805e+002  1.1765e+002 58270 74955,75007,74981
 2.8000e+000 75134 -1.9029e+002 -2.3501e+002  5.7568e+001 58270 74955,75033,75007
 2.8000e+000 75111 -4.4732e+001 -3.2911e+002  1.2227e+002 58270 74903,75085,74929
 2.8000e+000 75425 -3.6550e+002 -2.2890e+002  1.7431e+002 57830 75448,75301,75249
 2.8000e+000 75402 -2.8493e+002 -7.2942e+001  1.0639e+002 57830 75448,75249,75353
 2.8000e+000 75379 -3.8982e+002 -5.0423e+002  1.0310e+002 57830 75520,75301,75275
 2.8000e+000 75474 -3.5114e+002 -3.2521e+002  2.5661e+002 57830 75327,75301,75448
 2.8000e+000 75497 -3.1564e+002 -2.5376e+002  1.8848e+002 57830 75327,75448,75353
 2.8000e+000 75546 -2.3379e+002 -3.0563e+002  3.3965e+001 57830 75249,75301,75520
 2.8000e+000 76261 -1.6614e+002 -3.0245e+002  1.7836e+002 57426 76284,76097,76071
 2.8000e+000 76238 -1.4944e+002 -1.9231e+002  1.7782e+002 57426 75889,76097,75915
 2.8000e+000 76215 -2.5272e+002 -3.3547e+002  1.7594e+002 57426 76428,76284,76071
 2.8000e+000 76192 -1.8999e+002 -3.1404e+002  1.1020e+002 57426 76356,75941,75915
 2.8000e+000 76169 -2.5646e+002 -2.8949e+002  1.6810e+002 57426 76428,76071,76019
 2.8000e+000 76146 -2.8418e+002 -3.7620e+002  1.5906e+002 57426 76019,76071,76045
 2.8000e+000 76123 -2.7195e+002 -2.8898e+002  2.2892e+002 57426 75967,76019,75993
 2.8000e+000 76310 -1.7945e+002 -3.3264e+002  1.3413e+002 57426 75915,76097,76284
 2.8000e+000 76333 -2.1103e+002 -3.1879e+002  1.1895e+002 57426 76356,75915,76284
 2.8000e+000 76382 -2.3427e+002 -3.1187e+002  1.1607e+002 57426 75967,75941,76356
 2.8000e+000 76405 -2.4500e+002 -3.0797e+002  1.2409e+002 57426 75967,76356,76284
 2.8000e+000 76454 -2.3213e+002 -2.9351e+002  1.6324e+002 57426 75967,76284,76428
 2.8000e+000 76477 -2.5605e+002 -2.6785e+002  1.6336e+002 57426 75967,76428,76019
 2.8000e+000 76953 -2.5061e+002 -4.2107e+002  2.3070e+002 56908 76976,76711,76685
 2.8000e+000 76930 -2.5264e+002 -4.2891e+002  2.3707e+002 56908 77048,76976,76685
 2.8000e+000 76907 -4.7750e+002 -4.6164e+002  3.4399e+002 56908 77048,76685,76633
 2.8000e+000 76884 -6.8123e+002 -6.4060e+002  3.6764e+002 56908 76711,76789,76763
 2.8000e+000 76861 -3.8107e+002 -2.1184e+002  1.3858e+002 56908 76581,76789,76607
 2.8000e+000 76838 -6.4328e+002 -4.6619e+002  2.6755e+002 56908 76711,76763,76737
 2.8000e+000 76815 -1.1097e+003 -8.6916e+002  6.1493e+002 56908 76633,76685,76659
 2.8000e+000 77002 -3.1488e+002 -4.4705e+002  2.2782e+002 56908 76789,76711,76976
 2.8000e+000 77025 -3.1283e+002 -1.8909e+002  1.3825e+002 56908 76789,76976,76607
 2.8000e+000 77074 -6.0315e+002 -4.1559e+002  2.3872e+002 56908 76607,76976,77048
 2.8000e+000 77097 -7.2054e+002 -3.4932e+002  3.3283e+002 56908 76607,77048,76633
 2.8000e+000 77475 -2.4727e+002 -2.7688e+002  2.3030e+002 56546 77570,77498,77279
 2.8000e+000 77452 -1.7721e+002 -4.1599e+002  2.9576e+002 56546 77498,77227,77357
 2.8000e+000 77429 -2.7866e+002 -3.1347e+002  2.6222e+002 56546 77570,77279,77253
 2.8000e+000 77406 -4.0207e+002 -5.1938e+002  3.3482e+002 56546 77201,77357,77227
 2.8000e+000 77383 -2.9239e+002 -2.9669e+002  1.0117e+002 56546 77279,77331,77305
 2.8000e+000 77524 -2.1665e+002 -1.0319e+002  2.2016e+002 56546 77331,77279,77498
 2.8000e+000 77547 -1.1133e+002 -2.4638e+002  3.5706e+002 56546 77331,77498,77357
 2.8000e+000 77596 -2.6600e+002 -2.8710e+002  3.0152e+002 56546 77227,77498,77570
 2.8000e+000 77619 -3.1566e+002 -3.9756e+002  3.3293e+002 56546 77227,77570,77253
 2.8000e+000 77818 -2.8788e+002 -2.9657e+002  2.6123e+002 56042 77841,77694,77668
 2.8000e+000 77795 -2.5052e+002 -2.6405e+002  1.9661e+002 56042 77841,77668,77746
 2.8000e+000 77772 -3.2122e+002 -2.3597e+002  1.6599e+002 56042 77642,77746,77668
 2.8000e+000 77867 -3.2422e+002 -3.4723e+002  2.9272e+002 56042 77720,77694,77841
 2.8000e+000 77890 -2.7870e+002 -3.0561e+002  2.2679e+002 56042 77720,77841,77746
 2.8000e+000 78349 -4.2576e+002 -1.3455e+002  1.7752e+002 55538 78075,78127,78101
 2.8000e+000 78326 -5.3138e+002 -3.0249e+002  1.1091e+002 55538 78075,78205,78127
 2.8000e+000 78303 -5.3501e+002 -7.8615e+001  1.0672e+002 55538 78075,78231,78205
 2.8000e+000 78280 -4.8565e+002 -5.2215e+002  2.8719e+002 55538 78127,78179,78153
 2.8000e+000 78257 -4.0482e+002 -3.1796e+002  9.4966e+001 55538 78127,78205,78179
 2.8000e+000 78806 -2.5787e+002 -2.8615e+002  9.6710e+001 55034 78829,78636,78610
 2.8000e+000 78783 -2.9129e+002 -3.0281e+002  1.1022e+002 55034 78901,78829,78610
 2.8000e+000 78760 -2.3742e+002 -3.2971e+002  1.3802e+002 55034 78901,78610,78584
 2.8000e+000 78737 -3.0397e+002 -2.4700e+002  1.3643e+002 55034 78558,78688,78662
 2.8000e+000 78714 -3.2663e+002 -2.4767e+002  2.5038e+002 55034 78532,78688,78558
 2.8000e+000 78855 -2.9149e+002 -3.0567e+002  8.7368e+001 55034 78662,78636,78829
 2.8000e+000 78878 -3.0726e+002 -2.7234e+002  1.3253e+002 55034 78662,78829,78558
 2.8000e+000 78927 -2.4241e+002 -2.4134e+002  1.4406e+002 55034 78558,78829,78901
 2.8000e+000 78950 -2.1693e+002 -2.7183e+002  1.7185e+002 55034 78558,78901,78584
 2.8000e+000 79407 -1.4271e+002 -1.8412e+002  1.8840e+002 54430 79430,79237,79159
 2.8000e+000 79384 -1.1134e+002 -3.0402e+002  6.0243e+001 54430 79430,79159,79133
 2.8000e+000 79361 -1.9602e+002 -2.5196e+002  1.0009e+002 54430 79237,79289,79263
 2.8000e+000 79338 -1.3034e+002 -2.3035e+002  1.0551e+002 54430 79185,79237,79211
 2.8000e+000 79315 -3.4451e+002 -2.4934e+002  2.2735e+002 54430 79159,79237,79185
 2.8000e+000 79456 -1.6424e+002 -3.2220e+002  1.4550e+002 54430 79289,79237,79430
 2.8000e+000 79479 -1.4420e+002 -5.0983e+002  4.5449e+001 54430 79289,79430,79133
 2.8000e+000 79936 -1.6809e+002 -1.9172e+002  1.7670e+002 53919 79662,79766,79688
 2.8000e+000 79913 -5.9709e+002 -3.0042e+002  3.2528e+002 53919 79662,79818,79766
 2.8000e+000 79890 -7.7830e+002 -3.3650e+002  6.6711e+001 53919 79766,79818,79792
 2.8000e+000 79867 -4.0819e+002 -4.0591e+002  1.8106e+002 53919 79714,79766,79740
 2.8000e+000 79844 -4.1086e+002 -3.2880e+002  2.3946e+002 53919 79688,79766,79714
 2.8000e+000 80037 -1.9792e+002 -4.8987e+002  2.8913e+002 53671 79959,80011,79985
 2.8000e+000 80405 -1.3188e+002 -3.3481e+002  1.0841e+002 53267 80108,80264,80238
 2.8000e+000 80382 -2.1380e+002 -2.7578e+002  1.2490e+002 53267 80082,80264,80108
 2.8000e+000 80359 -1.3817e+002 -4.1774e+002  1.8459e+002 53267 80108,80238,80134
 2.8000e+000 80336 -7.5166e+001 -2.5011e+002  1.4925e+002 53267 80134,80212,80186
 2.8000e+000 80313 -2.4903e+002 -3.9506e+002  2.4013e+002 53267 80134,80238,80212
 2.8000e+000 80290 -6.7939e+001 -2.9157e+002  1.2800e+002 53267 80134,80186,80160
 2.8000e+000 80915 -4.4213e+002 -6.0231e+002  2.3255e+001 52969 80644,80774,80748
 2.8000e+000 80892 -3.4136e+002 -3.1146e+002  2.4399e+001 52969 80618,80774,80644
 2.8000e+000 80869 -4.9974e+002 -7.0263e+002 -2.7768e+001 52969 80644,80748,80670
 2.8000e+000 80846 -4.8796e+002 -3.2795e+002  4.7748e+001 52969 80592,80774,80618
 2.8000e+000 80823 -9.7431e+002 -8.0413e+002  1.1597e+002 52969 80670,80722,80696
 2.8000e+000 80800 -4.8395e+002 -6.2422e+002 -3.7852e+001 52969 80670,80748,80722
 2.8000e+000 81266  6.6217e+001 -3.2348e+001  2.0769e+001 52565 81041,81145,81067
 2.8000e+000 81243  4.2751e+001 -1.0203e+002  3.1597e+001 52565 81041,81171,81145
 2.8000e+000 81220 -1.2328e+002 -4.4415e+002  9.6265e+001 52565 81067,81119,81093
 2.8000e+000 81197  9.2473e+001  1.8430e+001  3.3105e+001 52565 81067,81145,81119
 2.8000e+000 81723 -6.0371e+001  1.5344e-001  1.7520e+001 51904 81449,81527,81475
 2.8000e+000 81700 -7.8881e+001  1.2209e+000  4.1420e+001 51904 81449,81579,81527
 2.8000e+000 81677 -2.7302e+002 -3.0685e+001  4.7128e+001 51904 81449,81605,81579
 2.8000e+000 81654 -1.7636e+002  1.9072e+001  3.3020e+001 51904 81527,81579,81553
 2.8000e+000 81631 -4.5783e+001  1.0186e+001  1.1892e+001 51904 81475,81527,81501
 2.8000e+000 82327 -3.6287e+002 -3.4230e+002  2.4300e+002 51321 82422,82350,82036
 2.8000e+000 82304 -3.8763e+002 -2.5355e+002  2.6926e+002 51321 82494,82350,81958
 2.8000e+000 82281 -3.7366e+002 -3.5951e+002  2.2673e+002 51321 82422,82036,82010
 2.8000e+000 82258 -4.1013e+002 -2.6436e+002  2.7297e+002 51321 82494,81958,81932
 2.8000e+000 82235 -3.9457e+002 -1.8412e+002  1.1801e+002 51321 82062,82114,82088
 2.8000e+000 82212 -9.4387e+002 -5.9963e+002  4.0740e+002 51321 81932,82140,82114
 2.8000e+000 82189 -3.8250e+002 -1.3186e+002  2.2309e+002 51321 81958,82010,81984
 2.8000e+000 82166 -1.7607e+002 -3.1671e+002  1.3261e+002 51321 81906,82140,81932
 2.8000e+000 82376 -3.6795e+002 -4.0372e+002  2.3974e+002 51321 82062,82036,82350
 2.8000e+000 82399 -3.7147e+002 -3.0592e+002  2.2541e+002 51321 82062,82350,82114
 2.8000e+000 82448 -3.4463e+002 -3.2276e+002  2.6245e+002 51321 81958,82350,82422
 2.8000e+000 82471 -3.5243e+002 -3.3802e+002  2.4661e+002 51321 81958,82422,82010
 2.8000e+000 82520 -3.9351e+002 -2.5398e+002  2.5681e+002 51321 82114,82350,82494
 2.8000e+000 82543 -3.9632e+002 -2.5563e+002  2.5928e+002 51321 82114,82494,81932
 2.8000e+000 83019 -3.5029e+002 -8.5055e+002  4.5607e+001 50817 82673,82751,82699
 2.8000e+000 82996 -3.2947e+002 -5.4500e+002  1.2690e+002 50817 83042,82673,82855
 2.8000e+000 82973 -3.8731e+002 -5.0995e+002  1.0195e+002 50817 83042,82855,82803
 2.8000e+000 82950 -6.2382e+002 -6.3593e+002  6.9871e+001 50817 82751,82803,82777
 2.8000e+000 82927 -2.8961e+002 -4.8484e+002  1.7254e+002 50817 82647,82855,82673
 2.8000e+000 82904 -6.0496e+002 -5.6797e+002  2.9848e+002 50817 82803,82855,82829
 2.8000e+000 82881 -5.7149e+002 -1.7142e+003 -7.3216e+001 50817 82699,82751,82725
 2.8000e+000 83068 -2.4341e+002 -5.1630e+002  1.2302e+002 50817 82751,82673,83042
 2.8000e+000 83091 -3.3344e+002 -5.0103e+002  1.0501e+002 50817 82751,83042,82803
 2.8000e+000 83290 -3.8580e+002 -1.6545e+002  2.1022e+002 50356 83313,83166,83140
 2.8000e+000 83267 -4.0034e+002 -2.7118e+002  1.8114e+002 50356 83515,83313,83140
 2.8000e+000 83244 -4.7175e+002 -2.5174e+002  6.8869e+001 50356 83515,83140,83385
 2.8000e+000 83339 -4.9555e+002 -2.2191e+002  2.7669e+002 50356 83192,83166,83313
 2.8000e+000 83362 -2.8637e+002 -1.7380e+002  2.6151e+002 50356 83192,83313,83218
 2.8000e+000 83411 -1.4539e+002 -5.4330e+001  1.0684e+002 50356 83114,83218,83385
 2.8000e+000 83541 -2.1319e+002 -1.9939e+002  1.6612e+002 50356 83218,83313,83515
 2.8000e+000 83564 -2.3500e+002 -1.5258e+002  6.7331e+001 50356 83218,83515,83385
 2.8000e+000 83893 -4.3433e+002 -4.6439e+002  4.5479e+001 49552 83720,83798,83746
 2.8000e+000 83870 -2.6241e+002 -2.2653e+002  1.7105e+002 49552 83694,83798,83720
 2.8000e+000 83847 -1.9809e+002 -2.3425e+002  1.7547e+002 49552 83668,83798,83694
 2.8000e+000 83824 -9.9784e+002 -3.2008e+002 -9.3467e+001 49552 83746,83798,83772
 2.8000e+000 84141 -4.4599e+002 -3.1023e+002  1.8612e+002 49212 84164,84020,83942
 2.8000e+000 84118 -4.1696e+002 -2.0779e+002  2.6299e+002 49212 84164,83942,83916
 2.8000e+000 84095 -4.0030e+002 -3.9711e+002  1.3202e+002 49212 83942,84020,83968
 2.8000e+000 84072 -3.1036e+002 -3.8243e+001  1.0701e+002 49212 83968,84020,83994
 2.8000e+000 84190 -5.1797e+002 -3.0473e+002  1.2419e+002 49212 84046,84020,84164
 2.8000e+000 84213 -4.7236e+002 -2.3228e+002  1.9977e+002 49212 84046,84164,83916
 2.8000e+000 84800 -9.6438e+001 -1.2679e+002  9.6278e+001 48865 84503,84633,84555
 2.8000e+000 84777 -1.2494e+002 -1.6321e+002  8.3630e+001 48865 84503,84659,84633
 2.8000e+000 84754 -1.1489e+002 -1.8478e+002  8.3579e+001 48865 84555,84633,84581
 2.8000e+000 84731 -1.1507e+002 -4.1005e+002  1.7723e+002 48865 84581,84633,84607
 2.8000e+000 84708 -2.8263e+002 -1.8553e+002  8.9132e+001 48865 84503,84555,84529
 2.8000e+000 84685 -9.1350e+001 -1.2510e+002  3.1149e+001 48865 84477,84659,84503
 2.8000e+000 85355 -2.1895e+002 -2.8278e+002  5.2625e+000 48461 85378,85035,85009
 2.8000e+000 85332 -3.6933e+002 -3.7862e+002  7.1374e+001 48461 85378,85009,85165
 2.8000e+000 85309 -3.8527e+002 -3.8718e+002  7.5749e+001 48461 85450,85061,85035
 2.8000e+000 85286 -3.2977e+002 -3.6324e+002  7.1507e+001 48461 85009,85191,85165
 2.8000e+000 85263 -2.9637e+002 -3.3504e+002  1.9994e+002 48461 85087,85165,85113
 2.8000e+000 85240 -1.6264e+002 -4.7646e+002 -7.4281e+001 48461 84983,85191,85009
 2.8000e+000 85217 -2.5115e+002 -4.1432e+002  1.2233e+002 48461 85113,85165,85139
 2.8000e+000 85404 -3.6988e+002 -3.5309e+002  5.9853e+001 48461 85450,85035,85378
 2.8000e+000 85427 -3.7446e+002 -3.5692e+002  8.6114e+001 48461 85087,85378,85165
 2.8000e+000 85476 -3.7285e+002 -4.4203e+002  1.0744e+002 48461 85087,85061,85450
 2.8000e+000 85499 -3.5872e+002 -4.1699e+002  8.9605e+001 48461 85087,85450,85378
 2.8000e+000 86084 -1.3359e+002 -3.7995e+002  1.5590e+002 48057 86323,86107,85787
 2.8000e+000 86061 -1.9081e+002 -3.9825e+002  1.8821e+002 48057 86107,85761,85943
 2.8000e+000 86038 -2.6752e+002 -3.1887e+002  1.5009e+002 48057 86251,86179,85891
 2.8000e+000 86015 -2.6698e+002 -2.7340e+002  9.9238e+001 48057 86251,85891,85839
 2.8000e+000 85992 -2.2100e+002 -2.6880e+002  1.8256e+002 48057 85891,85943,85917
 2.8000e+000 85969 -3.3276e+002 -2.2300e+002  1.4114e+002 48057 85839,85891,85865
 2.8000e+000 86133 -1.5030e+002 -3.9717e+002  1.3195e+002 48057 85813,85787,86107
 2.8000e+000 86156 -2.1281e+002 -3.8104e+002  1.2454e+002 48057 86179,85813,86107
 2.8000e+000 86205 -2.1299e+002 -2.6402e+002  1.7198e+002 48057 85943,85891,86179
 2.8000e+000 86228 -1.4260e+002 -2.9914e+002  1.6772e+002 48057 85943,86179,86107
 2.8000e+000 86277 -1.7634e+002 -2.6888e+002  1.3057e+002 48057 85813,86179,86251
 2.8000e+000 86300 -2.2496e+002 -2.4706e+002  8.7759e+001 48057 85813,86251,85839
 2.8000e+000 86349 -1.0766e+002 -3.5222e+002  1.6914e+002 48057 85761,86107,86323
 2.8000e+000 86855 -1.1392e+002 -2.1809e+002  1.2033e+002 47545 86878,86584,86558
 2.8000e+000 86832 -1.5493e+002 -2.3642e+002  1.1141e+002 47545 86950,86878,86558
 2.8000e+000 86809 -1.6936e+002 -1.9100e+002  1.2786e+002 47545 86950,86558,86532
 2.8000e+000 86786 -9.9494e+001 -2.7011e+002  1.2564e+002 47545 86584,86662,86610
 2.8000e+000 86763 -2.6235e+002 -4.9722e+001  5.4931e+001 47545 86532,86714,86688
 2.8000e+000 86740 -1.5082e+002 -1.1150e+002  1.2874e+002 47545 86610,86662,86636
 2.8000e+000 86904 -1.2245e+002 -2.6725e+002  1.2716e+002 47545 86662,86584,86878
 2.8000e+000 86927 -7.8668e+001 -2.2767e+002  9.2306e+001 47545 86662,86878,86688
 2.8000e+000 86976 -1.1285e+002 -1.7102e+002  9.2705e+001 47545 86688,86878,86950
 2.8000e+000 86999 -1.5336e+002 -1.6924e+002  1.1948e+002 47545 86688,86950,86532
 2.8000e+000 87328 -5.4607e+002 -2.3905e+002  2.0164e+002 47048 87155,87207,87181
 2.8000e+000 87305 -3.0778e+002 -2.5641e+002  1.5317e+002 47048 87129,87207,87155
 2.8000e+000 87282 -5.9170e+002 -4.3461e+002  2.3283e+002 47048 87103,87207,87129
 2.8000e+000 87259 -9.6664e+002 -1.4007e+003 -6.5408e+000 47048 87103,87233,87207
 2.8000e+000 87576 -1.6765e+002 -4.3994e+002  2.0685e+002 46701 87599,87429,87377
 2.8000e+000 87553 -2.2447e+002 -4.6754e+002  2.1639e+002 46701 87599,87377,87481
 2.8000e+000 87530 -2.3978e+002 -4.6977e+002  2.2392e+002 46701 87351,87481,87377
 2.8000e+000 87507 -2.6023e+002 -4.1099e+002  2.6237e+002 46701 87377,87429,87403
 2.8000e+000 87625 -1.9769e+002 -3.2880e+002  1.3623e+002 46701 87455,87429,87599
 2.8000e+000 87648 -3.7109e+002 -4.2899e+002  1.7734e+002 46701 87455,87599,87481
 2.8000e+000 87798 -3.1937e+001 -1.1333e+002  2.9155e+001 46239 87697,87749,87723
 2.8000e+000 87775 -1.5253e+002 -5.3221e+002  7.8032e+001 46239 87671,87749,87697
 2.8000e+000 88308 -4.9473e+002 -5.3424e+002  1.0635e+002 45735 88089,88167,88141
 2.8000e+000 88285 -3.5494e+002 -2.4137e+002  1.5075e+002 45735 88011,88167,88089
 2.8000e+000 88262 -2.1869e+002 -2.1679e+002  1.1036e+002 45735 87985,88167,88011
 2.8000e+000 88239 -2.5376e+002 -9.9597e+002  2.4289e+002 45735 88011,88089,88063
 2.8000e+000 88216 -6.0109e+002 -5.7934e+002  1.1005e+002 45735 88089,88141,88115
 2.8000e+000 88193 -5.5570e+002 -1.4853e+003  3.5371e+001 45735 88011,88063,88037
 2.8000e+000 88686 -3.8914e+002 -1.4946e+002  2.4818e+002 45316 88438,88516,88490
 2.8000e+000 88663 -3.6940e+002  1.0914e+002  3.6623e+002 45316 88438,88542,88516
 2.8000e+000 88640 -1.9518e+002 -3.9935e+002  4.4079e+002 45316 88438,88568,88542
 2.8000e+000 88617 -4.4029e+002 -3.0804e+002  2.0554e+002 45316 88438,88490,88464
 2.8000e+000 88594 -3.8649e+002 -4.2835e+002  4.5058e+002 45316 88412,88568,88438
 2.8000e+000 88934 -6.8988e+002 -6.5435e+002  4.0340e+002 44812 88957,88735,88709
 2.8000e+000 88911 -3.8207e+002 -4.0332e+002  1.6689e+002 44812 88957,88709,88839
 2.8000e+000 88888 -3.6564e+002 -2.8410e+002  9.3514e+001 44812 89029,88787,88761
 2.8000e+000 88865 -3.1451e+002 -2.8486e+002  1.1491e+002 44812 88787,88839,88813
 2.8000e+000 88983 -1.9666e+002 -3.9373e+002  2.5532e+002 44812 88761,88735,88957
 2.8000e+000 89006 -3.2647e+002 -3.3736e+002  7.8090e+001 44812 89029,88761,88957
 2.8000e+000 89055 -3.3993e+002 -3.4860e+002  1.1687e+002 44812 88839,88787,89029
 2.8000e+000 89078 -3.4623e+002 -4.5268e+002  1.1731e+002 44812 88839,89029,88957
 2.8000e+000 89228 -9.4380e+001 -2.9235e+002  2.1749e+002 44408 89127,89179,89153
 2.8000e+000 89205 -9.3175e+000  2.3124e-001  2.4369e-001 44408 89101,89179,89127
 2.8000e+000 89787 -3.9945e+002 -2.3353e+002  2.0853e+002 43854 89810,89545,89519
 2.8000e+000 89764 -4.3742e+002 -3.1772e+002  1.9059e+002 43854 89810,89519,89467
 2.8000e+000 89741 -4.2696e+002 -4.4127e+002  1.7993e+002 43854 89954,89882,89597
 2.8000e+000 89718 -4.2809e+002 -4.5706e+002  1.7597e+002 43854 89954,89597,89571
 2.8000e+000 89695 -2.1258e+002 -2.6330e+002  1.7291e+002 43854 89415,89623,89467
 2.8000e+000 89672 -2.0144e+002 -1.9434e+002  1.2698e+002 43854 89467,89519,89493
 2.8000e+000 89649 -1.2937e+002 -2.0742e+002  1.3678e+002 43854 89415,89467,89441
 2.8000e+000 89836 -4.1737e+002 -2.4494e+002  2.2584e+002 43854 89882,89545,89810
 2.8000e+000 89859 -2.3583e+002 -2.8249e+002  1.5742e+002 43854 89623,89810,89467
 2.8000e+000 89908 -4.1142e+002 -4.9090e+002  2.5260e+002 43854 89623,89597,89882
 2.8000e+000 89931 -3.9264e+002 -4.5754e+002  2.3184e+002 43854 89623,89882,89810
 2.8000e+000 89980 -4.3551e+002 -4.1556e+002  2.7574e+002 43854 89545,89882,89954
 2.8000e+000 90003 -4.6460e+002 -4.9823e+002  2.8453e+002 43854 89545,89954,89571
 2.8000e+000 90251 -1.5585e+002 -1.4366e+002  1.0604e+002 43492 90026,90078,90052
 2.8000e+000 90228 -3.8907e+002 -2.3853e+002  1.2792e+002 43492 90274,90026,90156
 2.8000e+000 90205 -3.6289e+002 -2.9749e+002  1.2864e+002 43492 90346,90274,90156
 2.8000e+000 90182 -3.8181e+002 -4.1887e+002  3.3222e+002 43492 90346,90156,90130
 2.8000e+000 90300 -2.6785e+002 -3.1629e+002  1.7959e+002 43492 90078,90026,90274
 2.8000e+000 90323 -4.2818e+002 -3.6462e+002  1.8112e+002 43492 90078,90274,90104
 2.8000e+000 90372 -6.0776e+002 -4.6118e+002  2.6456e+002 43492 90104,90274,90346
 2.8000e+000 90395 -6.3718e+002 -6.1388e+002  4.7328e+002 43492 90104,90346,90130
 2.8000e+000 90594 -1.3218e+002 -4.5840e+002  1.0978e+002 43052 90418,90496,90444
 2.8000e+000 90571 -4.0495e+002 -7.1984e+002  2.2111e+002 43052 90418,90522,90496
 2.8000e+000 90548 -2.6368e+002 -3.0977e+002  1.5564e+002 43052 90444,90496,90470
 2.8000e+000 91074 -2.8870e+002 -5.1644e+002  2.1793e+002 42434 91241,90884,90858
 2.8000e+000 91051 -5.7187e+002 -6.3561e+002 -7.1528e+001 42434 90702,90910,90884
 2.8000e+000 91028 -2.5783e+002 -4.5900e+002  2.0164e+002 42434 91097,90754,90702
 2.8000e+000 91005 -3.0820e+002 -3.4848e+002  2.1897e+002 42434 91241,90858,91097
 2.8000e+000 90982 -1.7403e+002 -2.8603e+002  6.3126e+001 42434 91169,90806,90780
 2.8000e+000 90959 -9.6680e+001 -3.2712e+002  1.2165e+001 42434 90806,90858,90832
 2.8000e+000 90936 -2.5431e+002 -4.8521e+002  1.9810e+002 42434 90702,90754,90728
 2.8000e+000 91123 -3.7752e+002 -4.9123e+002  1.3839e+002 42434 90780,90754,91097
 2.8000e+000 91146 -3.3389e+002 -3.7962e+002  1.7925e+002 42434 91169,90780,91097
 2.8000e+000 91195 -1.1249e+002 -2.4658e+002 -1.0502e+001 42434 90858,90806,91169
 2.8000e+000 91218 -1.7865e+002 -1.7037e+002  7.7296e+001 42434 90858,91169,91097
 2.8000e+000 91267 -2.5735e+002 -6.9864e+002  1.4653e+002 42434 90702,90884,91241
 2.8000e+000 91290 -2.9540e+002 -5.5135e+002  1.4661e+002 42434 90702,91241,91097
 2.8000e+000 91698 -7.8922e+001 -3.3479e+002  1.3104e+002 41773 91473,91577,91499
 2.8000e+000 91675 -1.5198e+002 -3.9392e+002  1.7317e+002 41773 91473,91603,91577
 2.8000e+000 91652 -1.9141e+002 -2.6630e+002  4.0744e+001 41773 91499,91551,91525
 2.8000e+000 91629 -2.5077e+002 -2.9877e+002  1.2323e+002 41773 91499,91577,91551
 2.8000e+000 92044 -2.6530e+002 -3.3506e+002  2.2041e+002 41383 91773,91877,91851
 2.8000e+000 92021 -1.7665e+002 -4.0243e+002  1.3711e+002 41383 91747,91877,91773
 2.8000e+000 91998 -1.9655e+002 -2.3104e+002  1.6508e+002 41383 91773,91851,91799
 2.8000e+000 91975 -1.3602e+002 -2.7308e+002  2.6438e+001 41383 91747,91903,91877
 2.8000e+000 91952 -7.3794e+001 -2.0381e+002  7.8044e+001 41383 91721,91903,91747
 2.8000e+000 91929 -8.4921e+001 -2.6210e+002  1.1521e+002 41383 91799,91851,91825
 2.8000e+000 92601 -3.8223e+002 -3.5489e+002  9.7623e+001 40979 92229,92411,92307
 2.8000e+000 92578 -5.1285e+002 -3.7464e+002  8.9731e+001 40979 92229,92437,92411
 2.8000e+000 92555 -3.5457e+002 -2.6520e+002  9.7436e+001 40979 92229,92307,92281
 2.8000e+000 92532 -3.0282e+002 -3.4708e+002  1.4616e+002 40979 92333,92411,92385
 2.8000e+000 92509 -2.9754e+002 -2.9891e+002  1.2254e+002 40979 92307,92411,92333
 2.8000e+000 92486 -3.7492e+002 -3.1402e+002  9.5264e+001 40979 92229,92281,92255
 2.8000e+000 92463 -5.3408e+001 -3.1341e+002  1.1611e+002 40979 92333,92385,92359
 2.8000e+000 93235 -3.9918e+002 -2.4585e+002  3.1391e+002 40525 92941,92993,92967
 2.8000e+000 93212 -5.7385e+002 -1.2160e+002  7.9143e+001 40525 93258,92941,92889
 2.8000e+000 93189 -4.4394e+002 -5.2026e+001  4.0068e+001 40525 93258,92889,93071
 2.8000e+000 93166 -4.9437e+002 -2.1262e+002  6.6539e+001 40525 92889,92941,92915
 2.8000e+000 93143 -4.9599e+002 -4.4325e+001  3.3693e+001 40525 92863,93071,92889
 2.8000e+000 93120 -4.2330e+002 -2.3022e+002  1.4766e+002 40525 92993,93071,93019
 2.8000e+000 93097 -4.4950e+002 -1.7618e+002  1.2861e+002 40525 93019,93071,93045
 2.8000e+000 93284 -6.4464e+002 -2.3388e+002  2.3189e+002 40525 92993,92941,93258
 2.8000e+000 93307 -3.8705e+002 -7.9127e+001  1.6603e+002 40525 92993,93258,93071
 2.8000e+000 93636 -4.6878e+002 -3.8543e+002  3.8374e+002 40235 93437,93541,93515
 2.8000e+000 93613 -3.9440e+002 -5.1792e+002  3.4853e+002 40235 93411,93541,93437
 2.8000e+000 93590 -9.3954e+001 -4.4240e+002  1.2893e+002 40235 93463,93515,93489
 2.8000e+000 93567 -2.2742e+002 -3.0213e+002  7.4399e+001 40235 93437,93515,93463
 2.8000e+000 94014 -4.9397e+002 -4.5257e+002  2.3310e+002 39873 93766,93870,93792
 2.8000e+000 93991 -4.0141e+002 -5.0608e+002  1.8085e+002 39873 93766,93896,93870
 2.8000e+000 93968 -4.6672e+002 -3.5836e+002  2.4255e+002 39873 93792,93870,93844
 2.8000e+000 93945 -3.2825e+002 -2.6283e+002  1.7509e+002 39873 93792,93844,93818
 2.8000e+000 93922 -2.9908e+002 -4.3599e+002  3.0505e+002 39873 93740,93896,93766
 2.8000e+000 94164 -2.0468e+001 -2.1080e+002  8.4989e+001 39461 94037,94089,94063
 2.8000e+000 94141 -1.0867e+002 -5.5535e+002  2.1640e+002 39461 94037,94115,94089
 2.8000e+000 94363 -2.7019e+002 -1.7921e+002  1.4094e+002 39057 94386,94239,94213
 2.8000e+000 94340 -1.4463e+002 -8.6130e+001  9.2973e+001 39057 94386,94213,94187
 2.8000e+000 94317 -2.7411e+002 -1.9076e+002  1.3073e+002 39057 94187,94291,94265
 2.8000e+000 94412 -1.0280e+002 -1.3855e+002  1.2616e+002 39057 94458,94386,94265
 2.8000e+000 94435 -1.9084e+002 -1.7738e+002  1.1696e+002 39057 94265,94386,94187
 2.8000e+000 94484 -2.2796e+002 -2.4481e+002  1.7990e+002 39057 94239,94386,94458
 2.8000e+000 94896 -4.8050e+002 -3.3498e+002  2.2138e+002 38396 94919,94775,94723
 2.8000e+000 94873 -5.4400e+002 -2.7289e+002  2.2480e+002 38396 94919,94723,94697
 2.8000e+000 94850 -3.7625e+002 -3.0643e+002  1.5738e+002 38396 94723,94775,94749
 2.8000e+000 94827 -2.4577e+002 -1.5876e+002  1.3917e+002 38396 94671,94801,94697
 2.8000e+000 94945 -4.6987e+002 -2.9189e+002  1.9843e+002 38396 94801,94775,94919
 2.8000e+000 94968 -5.0539e+002 -2.1145e+002  1.9008e+002 38396 94801,94919,94697
 2.8000e+000 95265 -4.8823e+002 -4.7807e+002  2.2013e+002 37835 95017,95069,95043
 2.8000e+000 95242 -5.0048e+002 -4.2054e+002  2.2507e+002 37835 95288,95069,95017
 2.8000e+000 95219 -5.2367e+002 -4.6451e+002  3.0751e+002 37835 95288,95017,94991
 2.8000e+000 95196 -5.7190e+002 -4.8987e+002  2.8703e+002 37835 94991,95147,95121
 2.8000e+000 95173 -3.3632e+002 -2.4939e+002  2.0348e+002 37835 95069,95121,95095
 2.8000e+000 95314 -4.8599e+002 -3.0622e+002  1.8428e+002 37835 95121,95069,95288
 2.8000e+000 95337 -5.1031e+002 -3.7732e+002  2.6116e+002 37835 95121,95288,94991
 2.8000e+000 95558  7.1873e+001  1.4207e+001  9.0796e+001 37423 95408,95460,95434
 2.8000e+000 95535 -1.1716e+002 -5.0812e+002  2.4237e+002 37423 95382,95460,95408
 2.8000e+000 95512 -2.5621e+002 -6.2560e+002  2.9332e+002 37423 95382,95486,95460
 2.8000e+000 95891 -5.7022e+001 -2.9164e+002  9.2597e+001 37225 95666,95718,95692
 2.8000e+000 95868 -2.9816e+002 -5.0078e+002  1.8598e+002 37225 95666,95796,95718
 2.8000e+000 95845 -2.1048e+002 -2.9655e+002  5.1322e+001 37225 95718,95770,95744
 2.8000e+000 95822 -1.3934e+002 -2.7335e+002  5.3547e+001 37225 95718,95796,95770
 2.8000e+000 95992 -3.6878e+001 -2.3165e+002  1.0886e+002 36735 95914,95966,95940
 2.8000e+000 96142 -5.2824e+002 -2.3173e+002  2.7581e+002 36331 96297,96067,96041
 2.8000e+000 96119 -4.1379e+002 -2.2890e+002  2.7422e+002 36331 96165,96041,96015
 2.8000e+000 96191 -4.9969e+002 -2.2515e+002  2.6436e+002 36331 96297,96041,96165
 2.8000e+000 96323 -5.8346e+002 -2.4368e+002  3.3794e+002 36331 96093,96067,96297
 2.8000e+000 96346 -4.9715e+002 -2.1191e+002  3.2994e+002 36331 96093,96297,96165
 2.8000e+000 96714 -2.9801e+002 -4.5975e+002  3.0424e+002 36041 96737,96495,96443
 2.8000e+000 96691 -4.2195e+002 -3.2665e+002  3.1096e+002 36041 96737,96443,96417
 2.8000e+000 96668 -1.4718e+002 -4.9670e+002  4.6992e+001 36041 96443,96495,96469
 2.8000e+000 96645 -9.1003e+001 -8.9437e+001  1.5520e+002 36041 96391,96521,96417
 2.8000e+000 96622 -1.0956e+001 -1.5152e+002  1.3324e+002 36041 96391,96547,96521
 2.8000e+000 96599 -4.2137e+001 -1.5696e+002  1.2684e+002 36041 96391,96573,96547
 2.8000e+000 96763 -1.2716e+002 -3.4455e+002  2.5420e+002 36041 96521,96495,96737
 2.8000e+000 96786 -3.5729e+002 -2.9217e+002  2.9015e+002 36041 96521,96737,96417
 2.8000e+000 96936 -2.8154e+002 -1.7878e+002  1.7552e+002 35637 97031,96959,96835
 2.8000e+000 96913 -4.0106e+002 -2.1873e+002  1.9953e+002 35637 97163,96959,96809
 2.8000e+000 96985 -3.9397e+002 -1.4359e+002  2.1290e+002 35637 96861,96835,96959
 2.8000e+000 97008 -5.1247e+002 -2.7504e+002  3.4151e+002 35637 96861,96959,96887
 2.8000e+000 97057 -3.3329e+002 -1.3325e+002  1.2492e+002 35637 96809,96959,97031
 2.8000e+000 97189 -3.3090e+002 -1.8112e+002  2.2001e+002 35637 96887,96959,97163
 2.8000e+000 97597 -2.2425e+002 -2.8202e+002  2.4114e+002 35190 97450,97502,97476
 2.8000e+000 97574 -2.3531e+002 -3.2949e+002  2.8398e+002 35190 97372,97502,97450
 2.8000e+000 97551 -2.4057e+002 -3.8235e+002  2.6809e+002 35190 97372,97450,97398
 2.8000e+000 97528 -2.3141e+002 -3.7493e+002  2.6089e+002 35190 97398,97450,97424
 2.8000e+000 98054 -2.8464e+002 -3.5852e+002  2.7330e+002 34636 97806,97936,97858
 2.8000e+000 98031 -4.7367e+002 -2.7631e+002  2.3105e+002 34636 97780,97936,97806
 2.8000e+000 98008 -4.4302e+002 -3.6683e+002  1.6065e+002 34636 97806,97858,97832
 2.8000e+000 97985 -3.1747e+002 -3.8494e+002  2.8014e+002 34636 97884,97936,97910
 2.8000e+000 97962 -1.9216e+002 -2.6268e+002  2.1196e+002 34636 97858,97936,97884
 2.8000e+000 98530 -3.5191e+002  4.0504e+001  7.8742e+001 34068 98697,98184,98366
 2.8000e+000 98507 -1.7825e+001 -1.0940e+001  2.4657e+001 34068 98158,98366,98184
 2.8000e+000 98484 -4.7536e+002 -4.9323e+002  1.8731e+002 34068 98553,98262,98236
 2.8000e+000 98461 -8.8227e+002 -6.9283e+002  1.1719e+002 34068 98553,98236,98210
 2.8000e+000 98438 -4.5448e+002 -2.6119e+002  1.8842e+002 34068 98841,98625,98366
 2.8000e+000 98415 -4.6015e+002 -7.1103e+002  3.0447e+002 34068 98769,98288,98262
 2.8000e+000 98392 -6.1440e+002 -1.4211e+002  1.6496e+002 34068 98841,98366,98340
 2.8000e+000 98579 -5.3492e+002 -5.8155e+002  2.2010e+002 34068 98769,98262,98553
 2.8000e+000 98602 -4.5263e+002 -3.2872e+002  1.9510e+002 34068 98625,98314,98553
 2.8000e+000 98651 -4.1227e+002 -2.4984e+002  1.3519e+002 34068 98697,98366,98625
 2.8000e+000 98674 -5.2809e+002 -5.2068e+002  1.7915e+002 34068 98210,98625,98553
 2.8000e+000 98723 -5.0004e+002 -3.0989e+002  1.4870e+002 34068 98210,98184,98697
 2.8000e+000 98746 -4.5344e+002 -3.7232e+002  2.2097e+002 34068 98210,98697,98625
 2.8000e+000 98795 -2.8898e+002 -5.7452e+002  2.2248e+002 34068 98314,98288,98769
 2.8000e+000 98818 -3.9093e+002 -4.8356e+002  1.4429e+002 34068 98314,98769,98553
 2.8000e+000 98867 -6.0319e+002 -3.8824e+002  1.3191e+002 34068 98314,98625,98841
 2.8000e+000 98890 -7.6235e+002 -2.5574e+002  1.1401e+002 34068 98314,98841,98340
 2.8000e+000 99268 -6.0602e+002 -5.3934e+002  3.9040e+002 33450 99291,99098,99072
 2.8000e+000 99245 -6.5647e+002 -4.2275e+002  2.2632e+002 33450 99291,99072,99020
 2.8000e+000 99222 -1.0161e+003 -5.4684e+002  3.6130e+002 33450 99020,99072,99046
 2.8000e+000 99199 -5.1714e+002 -3.7328e+002  2.2416e+002 33450 99020,99150,99124
 2.8000e+000 99176 -5.2146e+002 -3.3306e+002  3.6539e+001 33450 98994,99150,99020
 2.8000e+000 99317 -3.5080e+002 -4.2610e+002  3.7004e+002 33450 99124,99098,99291
 2.8000e+000 99340 -5.7408e+002 -3.9266e+002  2.2559e+002 33450 99124,99291,99020
 2.8000e+000 99865 -3.2500e+002 -3.1671e+002  1.8711e+002 32944 100176,99960,99888
 2.8000e+000 99842 -3.7749e+002 -3.2798e+002  1.9036e+002 32944 100104,99888,99522
 2.8000e+000 99819 -3.2475e+002 -2.9864e+002  2.3346e+002 32944 100248,99960,99626
 2.8000e+000 99796 -3.2708e+002 -3.5621e+002  1.1999e+002 32944 100032,99652,99626
 2.8000e+000 99773 -3.1794e+002 -3.7708e+002  1.3036e+002 32944 100104,99522,99496
 2.8000e+000 99750 -2.4105e+002 -2.0533e+002  1.1738e+001 32944 99574,99626,99600
 2.8000e+000 99727 -2.7970e+002 -2.8474e+002  2.5087e+002 32944 100248,99626,99574
 2.8000e+000 99704 -1.9990e+002 -3.0710e+002  1.7740e+002 32944 99444,99496,99470
 2.8000e+000 99914 -3.3610e+002 -2.9655e+002  1.4047e+002 32944 100176,99888,100032
 2.8000e+000 99937 -3.8660e+002 -2.6029e+002  2.0902e+002 32944 99678,99888,99444
 2.8000e+000 99986 -3.6155e+002 -2.6500e+002  1.8406e+002 32944 99522,99888,99960
 2.8000e+000 100009 -3.6711e+002 -2.1419e+002  2.1891e+002 32944 99522,99960,99548
 2.8000e+000 100058 -3.7348e+002 -3.5457e+002  1.2083e+002 32944 99678,99652,100032
 2.8000e+000 100081 -4.1264e+002 -3.3670e+002  1.2584e+002 32944 99678,100032,99888
 2.8000e+000 100130 -2.6764e+002 -2.7531e+002  2.0672e+002 32944 99444,99888,100104
 2.8000e+000 100153 -2.2503e+002 -3.2958e+002  1.5051e+002 32944 99444,100104,99496
 2.8000e+000 100202 -3.6033e+002 -3.8957e+002  1.7612e+002 32944 99626,99960,100176
 2.8000e+000 100225 -3.7435e+002 -3.8805e+002  1.3391e+002 32944 99626,100176,100032
 2.8000e+000 100274 -3.9581e+002 -2.8345e+002  2.0825e+002 32944 99548,99960,100248
 2.8000e+000 100297 -3.5586e+002 -2.7425e+002  2.2483e+002 32944 99548,100248,99574
 2.8000e+000 100754 -1.1530e+002 -1.3245e+002  7.9918e+001 32369 100777,100584,100506
 2.8000e+000 100731 -1.3517e+002 -2.0243e+002  1.4548e+002 32369 100777,100506,100636
 2.8000e+000 100708 -2.2527e+002 -2.1022e+002  1.5176e+002 32369 100480,100636,100506
 2.8000e+000 100685 -3.6318e+002 -1.8278e+002  1.3972e+000 32369 100532,100584,100558
 2.8000e+000 100662 -1.3490e+002 -1.6817e+002  8.7599e+001 32369 100506,100584,100532
 2.8000e+000 100803 -1.4610e+002 -2.8390e+001  6.1536e+001 32369 100610,100584,100777
 2.8000e+000 100826 -1.5233e+002 -1.0096e+002  1.1683e+002 32369 100610,100777,100636
 2.8000e+000 101025 -2.9329e+002 -2.5657e+002  2.4153e+002 31857 100875,100927,100901
 2.8000e+000 101002 -5.9851e+002 -1.1603e+002  2.5128e+002 31857 100875,100953,100927
 2.8000e+000 100979 -6.6182e+002 -2.2373e+002  1.8451e+002 31857 100849,100953,100875
 2.8000e+000 101533 -2.8782e+002 -3.7254e+002  2.9576e+002 31253 101556,101314,101236
 2.8000e+000 101510 -4.2551e+002 -3.8871e+002  2.8162e+002 31253 101556,101236,101210
 2.8000e+000 101487 -3.9528e+002 -3.7058e+002  1.2075e+002 31253 101210,101392,101340
 2.8000e+000 101464 -2.2429e+002 -3.5976e+002  2.1023e+002 31253 101236,101288,101262
 2.8000e+000 101441 -2.6948e+002 -5.2661e+002  2.7461e+002 31253 101236,101314,101288
 2.8000e+000 101418 -4.0285e+002 -4.9442e+002  2.5911e+002 31253 101340,101392,101366
 2.8000e+000 101582 -3.3400e+002 -3.6869e+002  1.8206e+002 31253 101340,101314,101556
 2.8000e+000 101605 -4.7178e+002 -3.7416e+002  1.7392e+002 31253 101340,101556,101210
 2.8000e+000 101755  5.1816e+001 -8.0763e+001  3.0829e+001 30519 101778,101654,101628
 2.8000e+000 101732 -1.2346e+002 -1.4680e+002  4.0428e+001 30519 101850,101778,101628
 2.8000e+000 101804 -8.6123e+001 -5.0221e+001 -2.5787e+001 30519 101680,101654,101778
 2.8000e+000 101827 -1.5614e+002 -7.0263e+001 -9.7705e+000 30519 101680,101778,101706
 2.8000e+000 101876 -1.1193e+002 -1.3400e+002 -9.4483e+000 30519 101706,101778,101850
 2.8000e+000 102561 -1.4994e+002 -2.7762e+002  1.4635e+002 29951 102656,102584,102270
 2.8000e+000 102538 -5.4941e+002 -5.9888e+002  1.0278e+002 29951 102584,102140,102374
 2.8000e+000 102515 -2.9022e+002 -6.8748e+002  3.4665e+002 29951 102728,102656,102270
 2.8000e+000 102492 -3.1567e+002 -8.5354e+002  3.4758e+002 29951 102728,102270,102244
 2.8000e+000 102469 -4.4102e+002 -1.2486e+002  1.9996e+002 29951 102800,102322,102296
 2.8000e+000 102446 -4.6380e+002 -3.0997e+002  8.9654e+001 29951 102166,102218,102192
 2.8000e+000 102423 -3.9237e+002 -3.3913e+002  4.8972e+001 29951 102166,102244,102218
 2.8000e+000 102400 -2.4070e+002 -2.8818e+002  1.5961e+002 29951 102322,102374,102348
 2.8000e+000 102610 -5.1915e+002 -1.9012e+002  6.5082e+001 29951 102296,102270,102584
 2.8000e+000 102633 -5.8867e+002 -2.6838e+002  1.1640e+002 29951 102800,102296,102584
 2.8000e+000 102682 -6.5563e+002 -5.9106e+002  3.0131e+002 29951 102140,102584,102656
 2.8000e+000 102705 -3.9320e+002 -5.6670e+002  4.4350e+002 29951 102140,102656,102166
 2.8000e+000 102754 -3.2211e+002 -5.0206e+002  4.1662e+002 29951 102166,102656,102728
 2.8000e+000 102777 -3.4126e+002 -6.3057e+002  3.8405e+002 29951 102166,102728,102244
 2.8000e+000 102826 -2.8561e+002 -2.9032e+002  2.6993e+002 29951 102374,102322,102800
 2.8000e+000 102849 -3.5265e+002 -3.1043e+002  2.2015e+002 29951 102374,102800,102584
 2.8000e+000 103048 -6.2570e+000 -1.9996e+002  5.5619e+001 29454 102872,102924,102898
 2.8000e+000 103025 -5.1479e+001 -5.6183e+002  1.4708e+002 29454 102872,102976,102924
 2.8000e+000 103002 -1.8996e+002 -7.7454e+002  7.4108e+001 29454 102924,102976,102950
 2.8000e+000 103296 -6.8143e+002 -5.0874e+002  3.5106e+002 29064 103319,103175,103123
 2.8000e+000 103273 -9.0091e+002 -5.1175e+002  4.0227e+002 29064 103319,103123,103071
 2.8000e+000 103250 -4.1618e+002 -3.1988e+002  2.5331e+002 29064 103123,103175,103149
 2.8000e+000 103227 -6.9857e+002 -4.0741e+002  4.9001e+002 29064 103071,103123,103097
 2.8000e+000 103345 -4.8472e+002 -5.5482e+002  2.6031e+002 29064 103201,103175,103319
 2.8000e+000 103368 -7.4873e+002 -5.2028e+002  2.3255e+002 29064 103201,103319,103071
 2.8000e+000 104006 -3.9348e+002 -2.0749e+002  1.6040e+002 28603 104101,104029,103712
 2.8000e+000 103983 -3.4560e+002 -1.4415e+002  1.4178e+002 28603 104173,104029,103660
 2.8000e+000 103960 -4.6743e+002 -1.7404e+002  1.5257e+002 28603 104101,103712,103686
 2.8000e+000 103937 -2.5684e+002 -1.8112e+002  1.3994e+002 28603 104173,103660,103634
 2.8000e+000 103914 -4.1245e+002 -2.2924e+002  2.1439e+002 28603 103764,103816,103790
 2.8000e+000 103891 -2.7313e+002 -1.7174e+002  2.0960e+002 28603 103634,103842,103816
 2.8000e+000 103868 -3.2350e+002 -1.3255e+002  2.0363e+002 28603 103712,103764,103738
 2.8000e+000 104055 -3.9452e+002 -1.6145e+002  1.7139e+002 28603 103764,103712,104029
 2.8000e+000 104078 -3.8233e+002 -1.6943e+002  2.0232e+002 28603 103764,104029,103816
 2.8000e+000 104127 -4.9219e+002 -2.0424e+002  1.2967e+002 28603 103660,104029,104101
 2.8000e+000 104150 -6.0663e+002 -1.9494e+002  1.4174e+002 28603 103660,104101,103686
 2.8000e+000 104199 -4.1479e+002 -1.6951e+002  1.6620e+002 28603 103816,104029,104173
 2.8000e+000 104222 -3.3803e+002 -2.0761e+002  1.5491e+002 28603 103816,104173,103634
 2.8000e+000 104600 -2.4658e+002 -4.8112e+002  1.0957e+002 28348 104623,104378,104326
 2.8000e+000 104577 -1.9856e+002 -5.0280e+002  1.9992e+002 28348 104623,104326,104482
 2.8000e+000 104554 -2.4056e+002 -3.3173e+002  9.3109e+001 28348 104326,104378,104352
 2.8000e+000 104531 -2.4494e+002  1.2727e+000  7.4866e+000 28348 104404,104456,104430
 2.8000e+000 104508 -3.1895e+002 -2.1225e+002  1.7231e+002 28348 104378,104456,104404
 2.8000e+000 104649 -2.0630e+002 -4.0031e+002  1.4304e+002 28348 104456,104378,104623
 2.8000e+000 104672 -1.4342e+002 -4.0679e+002  2.3589e+002 28348 104456,104623,104482
 2.8000e+000 104991 -4.6018e+002 -4.6690e+002  3.4151e+002 27951 104717,104847,104769
 2.8000e+000 104968 -1.3296e+002 -3.2205e+002  3.1213e+002 27951 104717,104873,104847
 2.8000e+000 104945 -1.6174e+002 -3.9090e+002  3.6622e+002 27951 104769,104847,104795
 2.8000e+000 104922  2.0323e+001  5.9915e+001  3.4625e+002 27951 104795,104847,104821
 2.8000e+000 104899 -4.1741e+002 -3.2269e+002  3.6242e+002 27951 104717,104769,104743
 2.8000e+000 105371 -6.1693e+002 -3.8279e+002  2.8501e+002 27447 105394,105201,105123
 2.8000e+000 105348 -8.1295e+002 -3.4747e+002  4.2211e+002 27447 105394,105123,105097
 2.8000e+000 105325 -9.8078e+002 -4.1308e+002  2.7797e+002 27447 105123,105201,105149
 2.8000e+000 105302 -5.0256e+002 -4.6553e+002  2.9701e+002 27447 105201,105253,105227
 2.8000e+000 105279 -4.9742e+002 -5.6432e+002  9.0167e+001 27447 105149,105201,105175
 2.8000e+000 105420 -5.0604e+002 -3.1332e+002  2.1918e+002 27447 105253,105201,105394
 2.8000e+000 105443 -6.7359e+002 -2.1074e+002  3.3802e+002 27447 105253,105394,105097
 2.8000e+000 105998 -4.0886e+002 -3.0112e+002  2.9616e+002 27100 106165,106021,105704
 2.8000e+000 105975 -1.8158e+002 -1.5071e+002  2.5233e+002 27100 106309,106021,105652
 2.8000e+000 105952 -6.7611e+002 -5.0326e+002  5.1272e+002 27100 106093,105808,105782
 2.8000e+000 105929 -3.9559e+002 -3.2073e+002  2.7989e+002 27100 106165,105704,105678
 2.8000e+000 105906 -1.8360e+002 -4.5340e+002  2.3210e+002 27100 106237,105730,105704
 2.8000e+000 105883 -1.7280e+002 -2.7604e+002  1.7502e+002 27100 106309,105652,105626
 2.8000e+000 105860 -8.3532e+001 -9.7422e+000  2.5904e+001 27100 105730,105782,105756
 2.8000e+000 106047 -3.6410e+002 -2.4661e+002  3.2809e+002 27100 106237,105704,106021
 2.8000e+000 106070 -3.8979e+002 -2.3510e+002  3.9547e+002 27100 106093,105782,106021
 2.8000e+000 106119 -2.7193e+002 -4.1788e+002  2.5488e+002 27100 105834,105808,106093
 2.8000e+000 106142 -3.1456e+002 -5.2405e+002  3.4938e+002 27100 106381,106093,106021
 2.8000e+000 106191 -3.8665e+002 -2.7858e+002  3.0866e+002 27100 105652,106021,106165
 2.8000e+000 106214 -3.6656e+002 -3.0463e+002  2.9423e+002 27100 105652,106165,105678
 2.8000e+000 106263 -2.1784e+001 -2.4127e+002  1.6119e+002 27100 105782,105730,106237
 2.8000e+000 106286 -2.3966e+002 -8.9326e+001  2.7313e+002 27100 105782,106237,106021
 2.8000e+000 106335 -2.6810e+002 -3.2955e+002  2.7989e+002 27100 106381,106021,106309
 2.8000e+000 106358 -1.6969e+002 -2.1726e+002  1.5769e+002 27100 105834,106309,105626
 2.8000e+000 106407 -1.9631e+002 -2.9735e+002  2.1772e+002 27100 105834,106093,106381
 2.8000e+000 106430 -2.0352e+002 -2.5756e+002  1.4260e+002 27100 105834,106381,106309
 2.8000e+000 106629 -7.1180e+001 -4.6992e+002  1.4335e+002 26688 106479,106557,106531
 2.8000e+000 106606 -1.1905e+002 -4.1135e+002  1.3067e+002 26688 106453,106557,106479
 2.8000e+000 106583 -1.9528e+002 -4.9468e+002  4.6056e+001 26688 106479,106531,106505
 2.8000e+000 107088 -1.9657e+002 -1.7273e+002  8.2856e+001 26248 107111,106918,106866
 2.8000e+000 107065 -2.0719e+002 -1.4995e+002  9.5693e+001 26248 107111,106866,106840
 2.8000e+000 107042 -1.4331e+002 -1.1004e+002  9.6098e+001 26248 106814,106970,106840
 2.8000e+000 107019 -2.0982e+002 -3.4733e+002  1.2479e+002 26248 106866,106918,106892
 2.8000e+000 106996 -3.3505e+002 -2.4875e+002  7.5781e+001 26248 106918,106970,106944
 2.8000e+000 107137 -2.1824e+002 -2.0271e+002  5.8331e+001 26248 106970,106918,107111
 2.8000e+000 107160 -2.0867e+002 -1.5708e+002  7.3416e+001 26248 106970,107111,106840
 2.8000e+000 107666 -5.4024e+002 -2.2398e+002  1.7442e+002 25908 107369,107499,107395
 2.8000e+000 107643 -7.2850e+002 -6.6554e+002  3.5207e+002 25908 107369,107525,107499
 2.8000e+000 107620 -4.4058e+002 -2.8590e+002  2.3314e+002 25908 107395,107473,107447
 2.8000e+000 107597 -3.7739e+002 -1.5643e+002  1.7267e+002 25908 107395,107499,107473
 2.8000e+000 107574 -7.6178e+002 -3.6297e+002  5.2474e+002 25908 107395,107447,107421
 2.8000e+000 107551 -2.9412e+002 -5.1613e+002  2.9539e+002 25908 107343,107525,107369
 2.8000e+000 108251 -3.3789e+002 -1.2490e+002  2.0502e+002 25454 108274,108006,107954
 2.8000e+000 108228 -2.6866e+002 -6.1254e+001  1.5488e+002 25454 108274,107954,108110
 2.8000e+000 108205 -2.5493e+002 -2.7031e+002  2.3982e+002 25454 108346,108032,108006
 2.8000e+000 108182 -4.3262e+002 -2.0630e+002  2.6081e+002 25454 107954,108006,107980
 2.8000e+000 108159 -1.4374e+002 -1.6765e+002  1.3801e+002 25454 107928,108110,107954
 2.8000e+000 108136 -5.1021e+002 -5.3276e+002  2.9006e+002 25454 108058,108110,108084
 2.8000e+000 108300 -3.2396e+002 -1.9816e+002  2.4255e+002 25454 108346,108006,108274
 2.8000e+000 108323 -2.9046e+002 -1.3279e+002  1.8356e+002 25454 108058,108274,108110
 2.8000e+000 108372 -1.7382e+002 -1.8586e+002  2.0625e+002 25454 108058,108032,108346
 2.8000e+000 108395 -2.4683e+002 -1.0260e+002  2.0922e+002 25454 108058,108346,108274
 2.8000e+000 108822 -2.6433e+002 -1.6531e+002  1.5922e+002 24943 108525,108681,108655
 2.8000e+000 108799 -3.5138e+002 -2.4169e+002  7.4410e+001 24943 108499,108681,108525
 2.8000e+000 108776 -1.4782e+002 -1.2614e+002  1.1381e+002 24943 108525,108655,108629
 2.8000e+000 108753 -2.3619e+002 -1.0739e+002  1.0192e+002 24943 108525,108629,108603
 2.8000e+000 108730 -5.3150e+002 -1.6493e+002  1.9765e+002 24943 108551,108603,108577
 2.8000e+000 108707 -5.0974e+002 -3.1307e+002  2.8861e+002 24943 108525,108603,108551
 2.8000e+000 109407 -2.8526e+001 -9.2617e+001  5.0142e+001 24745 109162,109214,109188
 2.8000e+000 109384 -1.9313e+002 -9.4489e+001  6.3090e+001 24745 109162,109266,109214
 2.8000e+000 109361 -2.2790e+002 -1.3361e+002  3.7416e+001 24745 109084,109266,109162
 2.8000e+000 109338 -4.0421e+002 -5.8499e+001  1.0032e+002 24745 109084,109162,109136
 2.8000e+000 109315 -9.7447e+001 -1.7751e+002  8.5150e+001 24745 109214,109266,109240
 2.8000e+000 109292 -3.0292e+002 -8.4407e+001  1.6195e+002 24745 109084,109136,109110
 2.8000e+000 109785 -6.4901e+002 -2.9844e+002  3.7875e+002 24341 109537,109615,109563
 2.8000e+000 109762 -6.7070e+001 -1.4528e+002  3.4838e+002 24341 109537,109641,109615
 2.8000e+000 109739 -4.3342e+002 -3.1671e+002  2.8098e+002 24341 109563,109615,109589
 2.8000e+000 109716 -2.7437e+002 -2.7139e+002  2.3655e+002 24341 109537,109667,109641
 2.8000e+000 109693 -1.5360e+002 -3.1843e+002  2.1608e+002 24341 109511,109667,109537
 2.8000e+000 110163 -7.5614e+002 -4.3073e+002  3.8935e+002 23837 110186,109967,109915
 2.8000e+000 110140 -6.9293e+002 -4.3945e+002  4.2628e+002 23837 110186,109915,109889
 2.8000e+000 110117 -3.1763e+002 -1.4800e+002  3.2857e+002 23837 109889,110045,109993
 2.8000e+000 110094 -7.0720e+002 -5.4012e+002  3.0243e+002 23837 109915,109967,109941
 2.8000e+000 110071 -3.9207e+002 -9.1392e+000  5.9266e+001 23837 109993,110045,110019
 2.8000e+000 110212 -7.1439e+002 -3.9055e+002  4.1554e+002 23837 109993,109967,110186
 2.8000e+000 110235 -6.8486e+002 -4.0286e+002  4.5249e+002 23837 109993,110186,109889
 2.8000e+000 110336 -3.4003e+002 -7.6652e+002  3.8988e+002 23433 110258,110310,110284
 2.8000e+000 110584 -4.3150e+002 -3.0335e+002  1.8676e+002 22829 110607,110411,110385
 2.8000e+000 110561 -5.4064e+002 -3.5457e+002  2.6813e+002 22829 110607,110385,110489
 2.8000e+000 110538 -3.3651e+002 -3.2621e+002  1.5780e+002 22829 110437,110489,110463
 2.8000e+000 110515 -4.4456e+002 -2.1621e+002  3.1035e+002 22829 110359,110489,110385
 2.8000e+000 110633 -4.2402e+002 -2.2261e+002  1.0593e+002 22829 110437,110411,110607
 2.8000e+000 110656 -4.8598e+002 -2.7795e+002  1.8333e+002 22829 110437,110607,110489
 2.8000e+000 110906 -9.4278e+002 -3.9130e+002  2.8038e+002 22432 110707,110759,110733
 2.8000e+000 110883 -5.3940e+002 -4.0374e+002  2.1888e+002 22432 110707,110785,110759
 2.8000e+000 110860 -5.6590e+002 -3.6705e+002  3.4411e+002 22432 110707,110811,110785
 2.8000e+000 110837 -7.1254e+002 -4.9657e+002  2.6544e+002 22432 110681,110811,110707
 2.8000e+000 111288 -8.7053e+001 -1.9883e+002  1.6466e+002 22142 111092,111144,111118
 2.8000e+000 111265 -2.6953e+002 -2.1150e+002  1.4445e+002 22142 111066,111144,111092
 2.8000e+000 111242 -2.5103e+002 -1.8854e+002  1.1790e+002 22142 111040,111144,111066
 2.8000e+000 111219 -4.9324e+002 -6.6985e+001  6.5691e+001 22142 111014,111144,111040
 2.8000e+000 111196 -3.4777e+002 -4.3151e+001  1.1964e+002 22142 111014,111170,111144
 2.8000e+000 111389 -1.4311e+001 -9.2639e+001  2.2964e+002 21830 111311,111363,111337
 2.8000e+000 111735 -6.3997e+002 -5.6911e+001  4.5597e+002 21268 111758,111542,111438
 2.8000e+000 111712 -5.1867e+002 -2.1977e+001  3.3532e+002 21268 111758,111438,111412
 2.8000e+000 111689 -1.8526e+002 -3.2999e+002  5.3586e+002 21268 111438,111542,111464
 2.8000e+000 111666 -5.2907e+001 -2.4424e+002  6.9645e+002 21268 111464,111542,111490
 2.8000e+000 111643 -1.2148e+003 -5.9751e+002  6.2078e+002 21268 111412,111594,111568
 2.8000e+000 111620  2.3224e+002  2.1361e+002  8.7486e+002 21268 111490,111542,111516
 2.8000e+000 111784 -6.6922e+002 -1.1838e+002  4.6544e+002 21268 111568,111542,111758
 2.8000e+000 111807 -6.4589e+002 -2.6366e+002  3.8473e+002 21268 111568,111758,111412
 2.8000e+000 111959 -6.5151e+002 -7.8080e+001  2.2120e+002 20864 111982,111910,111884
 2.8000e+000 111936 -6.0253e+002 -9.5490e+001  3.1300e+002 20864 112114,111832,111910
 2.8000e+000 112008 -6.4660e+002 -2.1639e+002  2.6643e+002 20864 112114,111910,111982
 2.8000e+000 112140 -5.8678e+002 -2.3592e+002  2.4395e+002 20864 111858,111832,112114
 2.8000e+000 112163 -6.4108e+002 -3.8291e+002  2.0095e+002 20864 111858,112114,111982
 2.8000e+000 112411 -8.0286e+001 -1.8101e+001  2.6016e+001 20324 112186,112290,112212
 2.8000e+000 112388 -4.1823e+001 -1.2291e+001  3.7059e+001 20324 112186,112316,112290
 2.8000e+000 112365  1.9859e+002 -1.6971e+002  2.7025e+001 20324 112212,112290,112264
 2.8000e+000 112342 -8.3174e+002 -3.5618e+002 -4.5128e+001 20324 112212,112264,112238
 2.8000e+000 112659 -6.6797e+001 -1.8524e+001  2.5424e+002 19920 112512,112564,112538
 2.8000e+000 112636 -3.2816e+002 -1.1754e+002  1.5836e+002 19920 112434,112564,112512
 2.8000e+000 112613 -3.3774e+002 -2.0735e+002  1.9334e+002 19920 112434,112512,112460
 2.8000e+000 112590 -3.7536e+002 -2.3219e+002  2.0669e+002 19920 112460,112512,112486
 2.8000e+000 112811 -5.8903e+001 -2.3475e+001  1.0637e+002 19630 112684,112736,112710
 2.8000e+000 112788  9.3979e+001 -1.3142e+002  2.6987e+001 19630 112684,112762,112736
 2.8000e+000 113012 -2.7850e+002 -1.0639e+002  2.8796e+002 19169 112862,112940,112888
 2.8000e+000 112989 -4.5576e+002 -3.8093e+002  2.1181e+002 19169 112836,112940,112862
 2.8000e+000 112966 -2.2702e+002 -3.1021e+002  2.2909e+002 19169 112888,112940,112914
 2.8000e+000 113213 -5.7674e+002 -2.3441e+002  2.8396e+002 18600 113037,113089,113063
 2.8000e+000 113190 -3.4055e+002 -1.6797e+002  2.2647e+002 18600 113037,113115,113089
 2.8000e+000 113167 -6.5525e+002 -4.5625e+002  4.1177e+002 18600 113037,113141,113115
 2.8000e+000 113485 -3.0882e+002 -1.1838e+002  2.9858e+002 18352 113260,113312,113286
 2.8000e+000 113462 -6.1712e+002 -3.6712e+002  4.0695e+002 18352 113260,113390,113312
 2.8000e+000 113439 -5.7907e+002 -1.1951e+002  3.0022e+002 18352 113312,113390,113364
 2.8000e+000 113416 -2.2750e+002 -8.1935e+001  3.1469e+002 18352 113312,113364,113338
 2.8000e+000 113757 -4.3854e+002 -1.7364e+002  3.0165e+002 17834 113558,113610,113584
 2.8000e+000 113734 -6.3530e+002 -3.5411e+002  3.9572e+002 17834 113532,113610,113558
 2.8000e+000 113711 -6.4988e+002 -4.2252e+002  3.2336e+002 17834 113532,113662,113610
 2.8000e+000 113688 -3.3052e+002 -1.0977e+002  4.5053e+002 17834 113610,113662,113636
 2.8000e+000 113958 -4.3005e+002 -1.7581e+002  2.3262e+002 17330 113782,113834,113808
 2.8000e+000 113935 -2.4158e+002 -1.2771e+002  1.7010e+002 17330 113782,113886,113834
 2.8000e+000 113912 -2.9433e+002 -1.2843e+002  1.1334e+002 17330 113834,113886,113860
 2.8000e+000 114110 -6.3537e+002 -2.4587e+002  4.0763e+002 16874 113983,114035,114009
 2.8000e+000 114087 -2.4528e+002 -5.6317e+002  3.5370e+002 16874 113983,114061,114035
 2.8000e+000 114465 -7.7207e+002 -3.2583e+002  1.7837e+002 16270 114240,114292,114266
 2.8000e+000 114442 -5.6686e+002 -1.3523e+002  8.6430e+001 16270 114240,114370,114292
 2.8000e+000 114419 -2.5042e+002 -1.0475e+002  1.2872e+002 16270 114292,114344,114318
 2.8000e+000 114396 -6.0310e+002 -2.6831e+002  7.7431e+001 16270 114292,114370,114344
 2.8000e+000 114566 -3.3163e+001  3.3163e+001  5.5227e+002 15834 114488,114540,114514
 2.8000e+000 114667 -4.2640e+002 -1.7122e+002  2.7059e+002 15155 114589,114641,114615
 2.8000e+000 114890 -2.7058e+002 -9.3113e+001  3.7876e+002 421 114766,114818,114792
 2.8000e+000 114867 -4.4966e+002 -4.2250e+002  3.0524e+002 421 114714,114818,114766
 2.8000e+000 114844 -6.7933e+002 -2.8598e+002  1.7951e+002 421 114714,114766,114740
 2.9000e+000 66553 -3.2676e+002 -1.3870e+002  1.1752e+002 66108 66354,66458,66432
 2.9000e+000 66530 -2.9002e+002 -1.2270e+002  1.1258e+002 66108 66328,66458,66354
 2.9000e+000 66507 -1.8599e+002 -1.2166e+002  5.2942e+001 66108 66354,66432,66406
 2.9000e+000 66484  7.0657e+001  3.3404e+001  1.4165e+002 66108 66354,66406,66380
 2.9000e+000 66951 -4.1109e+002 -1.7512e+002  8.8328e+001 65910 66703,66833,66807
 2.9000e+000 66928 -9.1944e+001 -9.3131e+001  1.0547e+002 65910 66677,66833,66703
 2.9000e+000 66905 -1.1284e+002 -1.9312e+002  1.4642e+002 65910 66729,66781,66755
 2.9000e+000 66882 -3.8528e+002 -1.6245e+002  1.3277e+002 65910 66729,66807,66781
 2.9000e+000 66859 -3.6156e+002 -8.7466e+001  1.1802e+002 65910 66703,66807,66729
 2.9000e+000 67150 -3.9800e+002 -1.6650e+002  1.6626e+002 65712 67026,67078,67052
 2.9000e+000 67127 -4.7883e+002 -6.0741e+001  1.2828e+002 65712 66974,67078,67026
 2.9000e+000 67104 -1.5789e+003 -7.2515e+002  4.7111e+002 65712 66974,67026,67000
 2.9000e+000 67481 -6.0623e+002 -6.5263e+001  2.0361e+002 65422 67282,67360,67334
 2.9000e+000 67458 -2.5334e+002 -9.2713e+001  3.1713e+002 65422 67282,67386,67360
 2.9000e+000 67435 -1.5060e+002  1.1746e+002  1.8026e+002 65422 67282,67334,67308
 2.9000e+000 67412  1.4016e+002  3.6621e+001  7.5257e+001 65422 67256,67386,67282
 2.9000e+000 68115 -1.8855e+002 -4.8031e+001  4.4779e+001 65018 67795,67925,67873
 2.9000e+000 68092 -2.3850e+002 -6.8229e+001  7.9520e+001 65018 67769,67925,67795
 2.9000e+000 68069 -1.3487e+002 -4.8708e+001  6.3767e+001 65018 67873,67925,67899
 2.9000e+000 68046 -3.1182e+002 -2.1332e+002  1.3943e+002 65018 67769,67951,67925
 2.9000e+000 68023 -2.3736e+002 -1.2167e+002  6.5865e+001 65018 67795,67873,67821
 2.9000e+000 68000 -2.9900e+002 -1.3972e+002  6.2045e+001 65018 67821,67873,67847
 2.9000e+000 67977 -3.9606e+002 -1.6958e+002  2.1215e+002 65018 67743,67951,67769
 2.9000e+000 68363 -2.0970e+002 -4.5531e+002  3.7272e+002 64820 68190,68242,68216
 2.9000e+000 68340 -3.8531e+002 -3.1105e+002  3.8256e+002 64820 68190,68268,68242
 2.9000e+000 68317 -2.1594e+002 -2.2969e+002  4.2117e+002 64820 68164,68268,68190
 2.9000e+000 68294 -7.5562e+002 -3.1243e+002  2.7143e+002 64820 68138,68268,68164
 2.9000e+000 68513 -4.2465e+002 -2.1343e+002  1.6991e+002 64366 68868,68536,68438
 2.9000e+000 68490 -2.2364e+002 -1.0577e+002  1.1811e+002 64366 68536,68412,68386
 2.9000e+000 68562 -4.9236e+002 -2.0926e+002  2.3392e+002 64366 68740,68536,68464
 2.9000e+000 68585 -3.3934e+002 -1.4252e+002  1.6467e+002 64366 68608,68536,68386
 2.9000e+000 68634 -4.3163e+002 -3.3122e+002  1.3562e+002 64366 68464,68536,68608
 2.9000e+000 68766 -4.3198e+002 -1.5869e+002  2.1026e+002 64366 68438,68536,68740
 2.9000e+000 68894 -3.2953e+002 -1.3535e+002  2.1239e+002 64366 68412,68536,68868
 2.9000e+000 69172 -4.2566e+002 -4.1018e+002  3.3874e+001 64168 69022,69074,69048
 2.9000e+000 69149 -7.4674e+002 -3.1788e+002  1.2955e+002 64168 68996,69074,69022
 2.9000e+000 69126 -7.7964e+002 -3.9645e+002  1.3482e+002 64168 68996,69100,69074
 2.9000e+000 69371 -3.0596e+002 -8.7899e+001  1.7300e+002 63970 69466,69394,69273
 2.9000e+000 69348 -2.6965e+002 -9.5351e+001  9.8585e+001 63970 69394,69247,69221
 2.9000e+000 69325 -4.1075e+002 -1.7452e+002  1.0002e+002 63970 69195,69299,69221
 2.9000e+000 69420 -3.2144e+002 -1.4486e+002  1.7909e+002 63970 69299,69273,69394
 2.9000e+000 69443 -3.1181e+002 -1.9003e+002  1.0928e+002 63970 69299,69394,69221
 2.9000e+000 69492 -3.2510e+002 -1.1865e+002  1.6486e+002 63970 69247,69394,69466
 2.9000e+000 69904 -6.5140e+001 -2.7479e+002  9.7347e+001 63680 69705,69783,69731
 2.9000e+000 69881  5.3958e+001 -2.0859e+002  7.1236e+001 63680 69679,69783,69705
 2.9000e+000 69858 -2.5146e+002 -2.9166e+002  1.3448e+002 63680 69679,69809,69783
 2.9000e+000 69835 -1.7428e+002 -3.1843e+002  7.2951e+001 63680 69731,69783,69757
 2.9000e+000 70054 -1.9468e+001 -2.0340e+002  1.1580e+002 63476 70077,69953,69927
 2.9000e+000 70031  3.1545e+001 -8.9976e+001  1.7046e+002 63476 70077,69927,70005
 2.9000e+000 70103 -1.0079e+002 -1.2670e+002  6.7894e+001 63476 69979,69953,70077
 2.9000e+000 70126 -6.0707e+001 -2.4004e+001  1.1379e+002 63476 69979,70077,70005
 2.9000e+000 70325 -7.8171e+002 -3.7063e+002  2.1471e+002 63278 70149,70227,70175
 2.9000e+000 70302 -5.1819e+002 -2.0998e+002  2.9537e+002 63278 70149,70253,70227
 2.9000e+000 70279 -8.8147e+002 -5.3754e+002  1.6874e+002 63278 70175,70227,70201
 2.9000e+000 70597 -2.9713e+002 -7.6315e+001  1.3235e+002 63080 70372,70476,70424
 2.9000e+000 70574 -3.3133e+002 -1.4001e+002  1.1570e+002 63080 70372,70502,70476
 2.9000e+000 70551 -3.1907e+002 -1.3397e+002  1.3462e+002 63080 70424,70476,70450
 2.9000e+000 70528 -4.8480e+002 -1.8250e+002  2.2927e+002 63080 70372,70424,70398
 2.9000e+000 70847 -1.2866e+001 -1.7241e+002  6.4378e+001 62740 70870,70648,70622
 2.9000e+000 70824 -9.9714e+001 -1.5431e+002  1.0435e+002 62740 70870,70622,70752
 2.9000e+000 70801 -2.2492e+001 -1.8115e+002  6.6047e+001 62740 70648,70726,70700
 2.9000e+000 70778 -2.9079e+001 -1.8937e+002  6.8910e+001 62740 70648,70700,70674
 2.9000e+000 70896 -9.9818e+001 -2.0062e+002  5.8447e+001 62740 70726,70648,70870
 2.9000e+000 70919 -1.4264e+002 -1.5731e+002  1.0823e+002 62740 70726,70870,70752
 2.9000e+000 71022 -2.7869e+001  2.7869e+001  5.0642e+002 62520 70944,70996,70970
 2.9000e+000 71223 -6.7466e+002 -3.4620e+002  4.1247e+002 62230 71073,71151,71099
 2.9000e+000 71200 -5.4031e+002 -3.3216e+002  3.6479e+002 62230 71047,71151,71073
 2.9000e+000 71177 -5.0290e+002 -6.0157e+002  3.2091e+002 62230 71099,71151,71125
 2.9000e+000 71861 -7.4821e+001 -7.9294e+001  4.6278e+001 61712 71515,71697,71671
 2.9000e+000 71838 -7.1683e+001 -7.5188e+001  3.3029e+000 61712 71489,71697,71515
 2.9000e+000 71815 -6.2006e+002 -1.7482e+002  2.6839e+002 61712 71884,71541,71515
 2.9000e+000 71792 -4.2214e+002 -1.0901e+001  1.9318e+002 61712 71884,71515,71671
 2.9000e+000 71769 -1.1381e+002 -3.8381e+002  1.5199e+002 61712 71541,71619,71593
 2.9000e+000 71746 -1.1755e+002 -8.6840e+001  1.6005e+002 61712 71619,71671,71645
 2.9000e+000 71723 -3.7547e+002 -5.2955e+002  2.3725e+002 61712 71541,71593,71567
 2.9000e+000 71910 -4.2039e+002 -3.3994e+002  3.5270e+002 61712 71619,71541,71884
 2.9000e+000 71933 -2.9651e+002 -2.2600e+002  2.9771e+002 61712 71619,71884,71671
 2.9000e+000 72230 -5.4712e+002 -4.0066e+002  1.0793e+002 61208 72253,72060,72008
 2.9000e+000 72207 -5.1422e+002 -2.5573e+002  9.9276e+001 61208 72253,72008,71982
 2.9000e+000 72184 -5.0048e+002 -1.6351e+002  6.7788e+001 61208 71982,72112,72086
 2.9000e+000 72161 -8.2269e+002 -4.0315e+002  2.0356e+002 61208 72008,72060,72034
 2.9000e+000 72138 -3.1445e+002 -9.2140e+001  1.6685e+002 61208 71956,72112,71982
 2.9000e+000 72279 -5.4143e+002 -2.9571e+002  4.6685e+001 61208 72086,72060,72253
 2.9000e+000 72302 -5.5205e+002 -2.1316e+002  3.7294e+001 61208 72086,72253,71982
 2.9000e+000 72761 -2.3656e+002 -2.1596e+002  7.2408e+001 60804 72487,72617,72513
 2.9000e+000 72738 -3.3098e+002 -2.8699e+002  1.1809e+002 60804 72487,72643,72617
 2.9000e+000 72715 -8.3781e+001 -4.8750e+002  1.0268e+002 60804 72565,72617,72591
 2.9000e+000 72692 -2.9577e+002 -2.9279e+002  1.4115e+002 60804 72513,72617,72565
 2.9000e+000 72669 -2.6209e+002 -2.7212e+002  5.1469e+001 60804 72513,72565,72539
 2.9000e+000 72911 -2.7869e+001  2.7869e+001  5.0642e+002 60556 72784,72836,72810
 2.9000e+000 72888  4.3103e+002  2.1478e+002  3.0341e+002 60556 72784,72862,72836
 2.9000e+000 73468 -1.8947e+002 -1.8790e+002  1.1441e+002 60244 73491,73226,73200
 2.9000e+000 73445 -2.2440e+002 -1.7905e+002  1.6442e+002 60244 73563,73491,73200
 2.9000e+000 73422 -3.8406e+002 -1.0991e+002  1.7756e+002 60244 73563,73200,73174
 2.9000e+000 73399 -1.6941e+002 -2.6936e+002  1.0960e+002 60244 73226,73278,73252
 2.9000e+000 73376 -2.6283e+002 -1.8858e+002  1.3359e+002 60244 73122,73304,73278
 2.9000e+000 73353 -3.0815e+002 -2.7570e+002  1.1693e+002 60244 73096,73304,73122
 2.9000e+000 73330 -5.1845e+002 -1.6635e+002 -6.8537e+001 60244 73122,73174,73148
 2.9000e+000 73517 -2.9233e+002 -2.3882e+002  1.3844e+002 60244 73278,73226,73491
 2.9000e+000 73540 -2.8289e+002 -2.0423e+002  1.2639e+002 60244 73278,73491,73122
 2.9000e+000 73589 -4.5241e+002 -2.6094e+002  1.2765e+002 60244 73122,73491,73563
 2.9000e+000 73612 -6.0150e+002 -1.8146e+002  1.5003e+002 60244 73122,73563,73174
 2.9000e+000 73762 -1.3395e+002 -3.0318e+002  3.2809e+002 59875 73661,73713,73687
 2.9000e+000 73739 -3.8068e+002 -1.8551e+002  2.3775e+002 59875 73635,73713,73661
 2.9000e+000 74191 -2.1006e+002 -4.8106e+002  3.2083e+002 59478 74214,73894,73868
 2.9000e+000 74168 -3.8415e+002 -4.8036e+002  3.4605e+002 59478 74214,73868,74050
 2.9000e+000 74145 -3.8265e+002 -4.9203e+002  1.7595e+002 59478 73894,73946,73920
 2.9000e+000 74122 -3.1446e+002 -4.6665e+002  1.5679e+002 59478 73894,73998,73946
 2.9000e+000 74099 -8.0337e+002 -4.8086e+002  5.0565e+002 59478 73998,74050,74024
 2.9000e+000 74076 -4.0518e+002 -5.5564e+002  1.0499e+002 59478 73946,73998,73972
 2.9000e+000 74240 -3.6960e+002 -4.2169e+002  2.4933e+002 59478 73998,73894,74214
 2.9000e+000 74263 -5.3625e+002 -4.2617e+002  2.4717e+002 59478 73998,74214,74050
 2.9000e+000 74720 -3.4892e+002 -2.0253e+002  1.3679e+002 58774 74472,74602,74498
 2.9000e+000 74697 -3.6440e+002 -2.4913e+002  1.1106e+002 58774 74446,74602,74472
 2.9000e+000 74674 -4.0132e+002 -1.7769e+002  1.6354e+002 58774 74498,74576,74524
 2.9000e+000 74651 -3.5823e+002 -2.0768e+002  1.3111e+002 58774 74498,74602,74576
 2.9000e+000 74628 -4.0715e+002 -1.4542e+002  1.3906e+002 58774 74524,74576,74550
 2.9000e+000 75226 -2.4195e+002 -2.3799e+002  1.4587e+002 58270 74955,75085,75033
 2.9000e+000 75203 -2.0206e+002 -2.8191e+002  1.6772e+002 58270 74929,75085,74955
 2.9000e+000 75180 -2.8210e+002 -1.8434e+002  1.8974e+002 58270 75033,75085,75059
 2.9000e+000 75157 -2.6372e+002 -3.4909e+002  1.0785e+002 58270 74955,75007,74981
 2.9000e+000 75134 -1.7940e+002 -2.1065e+002  5.4249e+001 58270 74955,75033,75007
 2.9000e+000 75111 -4.5734e+001 -2.9353e+002  1.1302e+002 58270 74903,75085,74929
 2.9000e+000 75425 -3.3941e+002 -2.1533e+002  1.6552e+002 57830 75448,75301,75249
 2.9000e+000 75402 -2.6781e+002 -8.0482e+001  1.0730e+002 57830 75448,75249,75353
 2.9000e+000 75379 -3.8140e+002 -4.8409e+002  1.0642e+002 57830 75520,75301,75275
 2.9000e+000 75474 -3.2530e+002 -2.9910e+002  2.3778e+002 57830 75327,75301,75448
 2.9000e+000 75497 -2.9267e+002 -2.3675e+002  1.7972e+002 57830 75327,75448,75353
 2.9000e+000 75546 -2.1955e+002 -2.8266e+002  3.5568e+001 57830 75249,75301,75520
 2.9000e+000 76261 -1.5472e+002 -2.7607e+002  1.5813e+002 57426 76284,76097,76071
 2.9000e+000 76238 -1.2841e+002 -1.8080e+002  1.5455e+002 57426 75889,76097,75915
 2.9000e+000 76215 -2.3005e+002 -2.9985e+002  1.6201e+002 57426 76428,76284,76071
 2.9000e+000 76192 -1.7504e+002 -2.7990e+002  1.0165e+002 57426 76356,75941,75915
 2.9000e+000 76169 -2.3326e+002 -2.6092e+002  1.5551e+002 57426 76428,76071,76019
 2.9000e+000 76146 -2.5509e+002 -3.2862e+002  1.4844e+002 57426 76019,76071,76045
 2.9000e+000 76123 -2.3485e+002 -2.5682e+002  2.1009e+002 57426 75967,76019,75993
 2.9000e+000 76310 -1.6232e+002 -2.9200e+002  1.1816e+002 57426 75915,76097,76284
 2.9000e+000 76333 -1.9303e+002 -2.8654e+002  1.0924e+002 57426 76356,75915,76284
 2.9000e+000 76382 -2.1379e+002 -2.7441e+002  1.0911e+002 57426 75967,75941,76356
 2.9000e+000 76405 -2.2289e+002 -2.7315e+002  1.1566e+002 57426 75967,76356,76284
 2.9000e+000 76454 -2.1265e+002 -2.6421e+002  1.5130e+002 57426 75967,76284,76428
 2.9000e+000 76477 -2.3289e+002 -2.4251e+002  1.5154e+002 57426 75967,76428,76019
 2.9000e+000 76953 -2.2565e+002 -3.8768e+002  2.0459e+002 56908 76976,76711,76685
 2.9000e+000 76930 -2.2836e+002 -4.0023e+002  2.1767e+002 56908 77048,76976,76685
 2.9000e+000 76907 -4.4293e+002 -4.2503e+002  3.2006e+002 56908 77048,76685,76633
 2.9000e+000 76884 -6.3741e+002 -6.1572e+002  3.5148e+002 56908 76711,76789,76763
 2.9000e+000 76861 -3.6027e+002 -2.2939e+002  1.3259e+002 56908 76581,76789,76607
 2.9000e+000 76838 -5.7606e+002 -3.9031e+002  2.5489e+002 56908 76711,76763,76737
 2.9000e+000 76815 -1.0079e+003 -7.9763e+002  5.7468e+002 56908 76633,76685,76659
 2.9000e+000 77002 -2.8154e+002 -4.1470e+002  2.1525e+002 56908 76789,76711,76976
 2.9000e+000 77025 -2.8825e+002 -2.0436e+002  1.3322e+002 56908 76789,76976,76607
 2.9000e+000 77074 -5.6114e+002 -3.9513e+002  2.1654e+002 56908 76607,76976,77048
 2.9000e+000 77097 -6.7311e+002 -3.2684e+002  3.0784e+002 56908 76607,77048,76633
 2.9000e+000 77475 -2.2685e+002 -2.5355e+002  2.1422e+002 56546 77570,77498,77279
 2.9000e+000 77452 -1.6458e+002 -3.8142e+002  2.7066e+002 56546 77498,77227,77357
 2.9000e+000 77429 -2.5530e+002 -2.8632e+002  2.4411e+002 56546 77570,77279,77253
 2.9000e+000 77406 -3.6063e+002 -4.7277e+002  3.0820e+002 56546 77201,77357,77227
 2.9000e+000 77383 -2.6507e+002 -2.7594e+002  9.4786e+001 56546 77279,77331,77305
 2.9000e+000 77524 -2.0047e+002 -9.9484e+001  2.0533e+002 56546 77331,77279,77498
 2.9000e+000 77547 -1.0280e+002 -2.2894e+002  3.2678e+002 56546 77331,77498,77357
 2.9000e+000 77596 -2.4569e+002 -2.6444e+002  2.7719e+002 56546 77227,77498,77570
 2.9000e+000 77619 -2.8925e+002 -3.6199e+002  3.0655e+002 56546 77227,77570,77253
 2.9000e+000 77818 -2.6061e+002 -2.6800e+002  2.4329e+002 56042 77841,77694,77668
 2.9000e+000 77795 -2.2015e+002 -2.3159e+002  1.7107e+002 56042 77841,77668,77746
 2.9000e+000 77772 -2.7874e+002 -1.9732e+002  1.4611e+002 56042 77642,77746,77668
 2.9000e+000 77867 -3.0083e+002 -3.2498e+002  2.7786e+002 56042 77720,77694,77841
 2.9000e+000 77890 -2.5123e+002 -2.7832e+002  2.0415e+002 56042 77720,77841,77746
 2.9000e+000 78349 -4.0309e+002 -1.0991e+002  1.6965e+002 55538 78075,78127,78101
 2.9000e+000 78326 -5.0569e+002 -2.6913e+002  1.0376e+002 55538 78075,78205,78127
 2.9000e+000 78303 -5.2457e+002 -7.4498e+001  1.0759e+002 55538 78075,78231,78205
 2.9000e+000 78280 -4.3615e+002 -4.5536e+002  2.6440e+002 55538 78127,78179,78153
 2.9000e+000 78257 -3.8028e+002 -2.7489e+002  9.2233e+001 55538 78127,78205,78179
 2.9000e+000 78806 -2.3237e+002 -2.5418e+002  8.9673e+001 55034 78829,78636,78610
 2.9000e+000 78783 -2.6483e+002 -2.6599e+002  1.0273e+002 55034 78901,78829,78610
 2.9000e+000 78760 -2.2125e+002 -2.8804e+002  1.2494e+002 55034 78901,78610,78584
 2.9000e+000 78737 -2.7487e+002 -2.2403e+002  1.2584e+002 55034 78558,78688,78662
 2.9000e+000 78714 -2.9461e+002 -2.2420e+002  2.3032e+002 55034 78532,78688,78558
 2.9000e+000 78855 -2.6665e+002 -2.7218e+002  8.0777e+001 55034 78662,78636,78829
 2.9000e+000 78878 -2.8090e+002 -2.4270e+002  1.2189e+002 55034 78662,78829,78558
 2.9000e+000 78927 -2.2518e+002 -2.1666e+002  1.3013e+002 55034 78558,78829,78901
 2.9000e+000 78950 -2.0446e+002 -2.4153e+002  1.5246e+002 55034 78558,78901,78584
 2.9000e+000 79407 -1.2908e+002 -1.5840e+002  1.8367e+002 54430 79430,79237,79159
 2.9000e+000 79384 -1.0811e+002 -2.7383e+002  6.1597e+001 54430 79430,79159,79133
 2.9000e+000 79361 -1.8395e+002 -2.1523e+002  8.8996e+001 54430 79237,79289,79263
 2.9000e+000 79338 -1.0818e+002 -2.1954e+002  1.0109e+002 54430 79185,79237,79211
 2.9000e+000 79315 -3.2322e+002 -2.3813e+002  2.2694e+002 54430 79159,79237,79185
 2.9000e+000 79456 -1.4827e+002 -2.9209e+002  1.3863e+002 54430 79289,79237,79430
 2.9000e+000 79479 -1.3432e+002 -4.6962e+002  4.3182e+001 54430 79289,79430,79133
 2.9000e+000 79936 -1.5323e+002 -1.6123e+002  1.6745e+002 53919 79662,79766,79688
 2.9000e+000 79913 -5.6359e+002 -2.6407e+002  3.1041e+002 53919 79662,79818,79766
 2.9000e+000 79890 -7.1401e+002 -2.6448e+002  8.2088e+001 53919 79766,79818,79792
 2.9000e+000 79867 -3.7981e+002 -3.6102e+002  1.7999e+002 53919 79714,79766,79740
 2.9000e+000 79844 -3.9186e+002 -2.9732e+002  2.3062e+002 53919 79688,79766,79714
 2.9000e+000 80037 -1.7692e+002 -4.4037e+002  2.5667e+002 53671 79959,80011,79985
 2.9000e+000 80405 -1.1701e+002 -3.1701e+002  9.5310e+001 53267 80108,80264,80238
 2.9000e+000 80382 -1.6956e+002 -2.7056e+002  1.1016e+002 53267 80082,80264,80108
 2.9000e+000 80359 -1.4086e+002 -4.0734e+002  1.7092e+002 53267 80108,80238,80134
 2.9000e+000 80336 -7.7745e+001 -2.4344e+002  1.4119e+002 53267 80134,80212,80186
 2.9000e+000 80313 -2.3531e+002 -3.8058e+002  2.2768e+002 53267 80134,80238,80212
 2.9000e+000 80290 -6.5017e+001 -2.5943e+002  1.2222e+002 53267 80134,80186,80160
 2.9000e+000 80915 -4.3277e+002 -5.7948e+002  1.2452e+001 52969 80644,80774,80748
 2.9000e+000 80892 -3.3375e+002 -3.2064e+002  2.4193e+001 52969 80618,80774,80644
 2.9000e+000 80869 -4.7549e+002 -6.6588e+002 -3.2656e+001 52969 80644,80748,80670
 2.9000e+000 80846 -4.5684e+002 -3.4324e+002  3.7584e+001 52969 80592,80774,80618
 2.9000e+000 80823 -9.1367e+002 -7.6772e+002  1.0987e+002 52969 80670,80722,80696
 2.9000e+000 80800 -4.7227e+002 -6.0666e+002 -4.8333e+001 52969 80670,80748,80722
 2.9000e+000 81266  5.7934e+001 -2.8867e+001  1.6911e+001 52565 81041,81145,81067
 2.9000e+000 81243  3.0396e+001 -9.8056e+001  2.9103e+001 52565 81041,81171,81145
 2.9000e+000 81220 -1.0549e+002 -3.8363e+002  7.9237e+001 52565 81067,81119,81093
 2.9000e+000 81197  7.9461e+001  1.7871e+001  2.7458e+001 52565 81067,81145,81119
 2.9000e+000 81723 -5.2896e+001  5.4144e+000  1.3601e+001 51904 81449,81527,81475
 2.9000e+000 81700 -7.2293e+001 -1.1104e+000  3.5654e+001 51904 81449,81579,81527
 2.9000e+000 81677 -2.4643e+002 -3.6325e+001  4.4884e+001 51904 81449,81605,81579
 2.9000e+000 81654 -1.6048e+002  1.3771e+001  2.8378e+001 51904 81527,81579,81553
 2.9000e+000 81631 -3.5095e+001  1.5696e+001  8.7829e+000 51904 81475,81527,81501
 2.9000e+000 82327 -3.3789e+002 -3.2503e+002  2.2698e+002 51321 82422,82350,82036
 2.9000e+000 82304 -3.5757e+002 -2.4017e+002  2.4843e+002 51321 82494,82350,81958
 2.9000e+000 82281 -3.4737e+002 -3.3882e+002  2.1107e+002 51321 82422,82036,82010
 2.9000e+000 82258 -3.7433e+002 -2.4537e+002  2.4444e+002 51321 82494,81958,81932
 2.9000e+000 82235 -3.6131e+002 -1.5831e+002  1.0875e+002 51321 82062,82114,82088
 2.9000e+000 82212 -8.8418e+002 -5.5916e+002  3.6853e+002 51321 81932,82140,82114
 2.9000e+000 82189 -3.4411e+002 -1.1273e+002  2.1045e+002 51321 81958,82010,81984
 2.9000e+000 82166 -1.7768e+002 -2.9223e+002  1.3678e+002 51321 81906,82140,81932
 2.9000e+000 82376 -3.4163e+002 -3.8780e+002  2.2396e+002 51321 82062,82036,82350
 2.9000e+000 82399 -3.4504e+002 -2.9341e+002  2.1061e+002 51321 82062,82350,82114
 2.9000e+000 82448 -3.1907e+002 -3.0810e+002  2.4233e+002 51321 81958,82350,82422
 2.9000e+000 82471 -3.2572e+002 -3.2016e+002  2.2680e+002 51321 81958,82422,82010
 2.9000e+000 82520 -3.6521e+002 -2.4779e+002  2.3880e+002 51321 82114,82350,82494
 2.9000e+000 82543 -3.6814e+002 -2.4815e+002  2.3484e+002 51321 82114,82494,81932
 2.9000e+000 83019 -3.0886e+002 -7.6115e+002  5.0775e+001 50817 82673,82751,82699
 2.9000e+000 82996 -3.0916e+002 -4.9008e+002  1.2340e+002 50817 83042,82673,82855
 2.9000e+000 82973 -3.6090e+002 -4.8407e+002  1.0108e+002 50817 83042,82855,82803
 2.9000e+000 82950 -5.7998e+002 -6.3451e+002  5.2500e+001 50817 82751,82803,82777
 2.9000e+000 82927 -2.5743e+002 -4.3121e+002  1.6415e+002 50817 82647,82855,82673
 2.9000e+000 82904 -5.6464e+002 -5.1664e+002  2.9357e+002 50817 82803,82855,82829
 2.9000e+000 82881 -5.8799e+002 -1.8010e+003 -7.1554e+001 50817 82699,82751,82725
 2.9000e+000 83068 -2.2868e+002 -4.8314e+002  1.3534e+002 50817 82751,82673,83042
 2.9000e+000 83091 -3.0495e+002 -4.9202e+002  1.1630e+002 50817 82751,83042,82803
 2.9000e+000 83290 -3.5559e+002 -1.5088e+002  1.9463e+002 50356 83313,83166,83140
 2.9000e+000 83267 -3.7219e+002 -2.4766e+002  1.6710e+002 50356 83515,83313,83140
 2.9000e+000 83244 -4.4015e+002 -2.2976e+002  6.3080e+001 50356 83515,83140,83385
 2.9000e+000 83339 -4.5485e+002 -2.0349e+002  2.5523e+002 50356 83192,83166,83313
 2.9000e+000 83362 -2.6362e+002 -1.5737e+002  2.4254e+002 50356 83192,83313,83218
 2.9000e+000 83411 -1.3719e+002 -5.2819e+001  9.8666e+001 50356 83114,83218,83385
 2.9000e+000 83541 -1.9780e+002 -1.8269e+002  1.5425e+002 50356 83218,83313,83515
 2.9000e+000 83564 -2.1873e+002 -1.3767e+002  6.2806e+001 50356 83218,83515,83385
 2.9000e+000 83893 -4.0149e+002 -4.2266e+002  3.8578e+001 49552 83720,83798,83746
 2.9000e+000 83870 -2.4659e+002 -2.2834e+002  1.6059e+002 49552 83694,83798,83720
 2.9000e+000 83847 -1.8054e+002 -2.1137e+002  1.7243e+002 49552 83668,83798,83694
 2.9000e+000 83824 -9.2865e+002 -2.9385e+002 -8.3444e+001 49552 83746,83798,83772
 2.9000e+000 84141 -3.9318e+002 -2.7135e+002  1.6084e+002 49212 84164,84020,83942
 2.9000e+000 84118 -3.7405e+002 -1.9350e+002  2.3832e+002 49212 84164,83942,83916
 2.9000e+000 84095 -3.6673e+002 -3.3816e+002  1.1984e+002 49212 83942,84020,83968
 2.9000e+000 84072 -2.9257e+002 -3.0149e+001  9.5896e+001 49212 83968,84020,83994
 2.9000e+000 84190 -4.6616e+002 -2.7346e+002  1.1266e+002 49212 84046,84020,84164
 2.9000e+000 84213 -4.2682e+002 -2.1640e+002  1.8808e+002 49212 84046,84164,83916
 2.9000e+000 84800 -8.7260e+001 -1.1092e+002  8.4018e+001 48865 84503,84633,84555
 2.9000e+000 84777 -1.1384e+002 -1.4046e+002  7.2904e+001 48865 84503,84659,84633
 2.9000e+000 84754 -1.0336e+002 -1.6167e+002  7.1899e+001 48865 84555,84633,84581
 2.9000e+000 84731 -9.6762e+001 -3.4396e+002  1.4512e+002 48865 84581,84633,84607
 2.9000e+000 84708 -2.5686e+002 -1.6926e+002  8.3696e+001 48865 84503,84555,84529
 2.9000e+000 84685 -8.2635e+001 -1.0416e+002  2.2100e+001 48865 84477,84659,84503
 2.9000e+000 85355 -1.9446e+002 -2.7101e+002  1.0080e+000 48461 85378,85035,85009
 2.9000e+000 85332 -3.4254e+002 -3.5483e+002  6.6516e+001 48461 85378,85009,85165
 2.9000e+000 85309 -3.7629e+002 -3.6399e+002  5.4604e+001 48461 85450,85061,85035
 2.9000e+000 85286 -3.0102e+002 -3.3577e+002  6.1869e+001 48461 85009,85191,85165
 2.9000e+000 85263 -2.6949e+002 -3.1297e+002  1.8599e+002 48461 85087,85165,85113
 2.9000e+000 85240 -1.5786e+002 -4.3911e+002 -7.0033e+001 48461 84983,85191,85009
 2.9000e+000 85217 -2.3514e+002 -4.0289e+002  1.1501e+002 48461 85113,85165,85139
 2.9000e+000 85404 -3.5331e+002 -3.4405e+002  4.5772e+001 48461 85450,85035,85378
 2.9000e+000 85427 -3.4416e+002 -3.3513e+002  7.9618e+001 48461 85087,85378,85165
 2.9000e+000 85476 -3.5385e+002 -4.0347e+002  9.0386e+001 48461 85087,85061,85450
 2.9000e+000 85499 -3.2789e+002 -3.8508e+002  8.1400e+001 48461 85087,85450,85378
 2.9000e+000 86084 -1.1968e+002 -3.5485e+002  1.4310e+002 48057 86323,86107,85787
 2.9000e+000 86061 -1.7581e+002 -3.9535e+002  1.7852e+002 48057 86107,85761,85943
 2.9000e+000 86038 -2.4568e+002 -2.9942e+002  1.4085e+002 48057 86251,86179,85891
 2.9000e+000 86015 -2.4689e+002 -2.5894e+002  9.2540e+001 48057 86251,85891,85839
 2.9000e+000 85992 -2.1832e+002 -2.4885e+002  1.7148e+002 48057 85891,85943,85917
 2.9000e+000 85969 -3.0240e+002 -1.9872e+002  1.3013e+002 48057 85839,85891,85865
 2.9000e+000 86133 -1.3639e+002 -3.7369e+002  1.2137e+002 48057 85813,85787,86107
 2.9000e+000 86156 -1.9016e+002 -3.6335e+002  1.1681e+002 48057 86179,85813,86107
 2.9000e+000 86205 -1.9212e+002 -2.3661e+002  1.6404e+002 48057 85943,85891,86179
 2.9000e+000 86228 -1.2202e+002 -2.8011e+002  1.6139e+002 48057 85943,86179,86107
 2.9000e+000 86277 -1.5669e+002 -2.5441e+002  1.2547e+002 48057 85813,86179,86251
 2.9000e+000 86300 -2.0492e+002 -2.3710e+002  8.4457e+001 48057 85813,86251,85839
 2.9000e+000 86349 -1.0368e+002 -3.3642e+002  1.5203e+002 48057 85761,86107,86323
 2.9000e+000 86855 -1.0295e+002 -2.0617e+002  1.1123e+002 47545 86878,86584,86558
 2.9000e+000 86832 -1.4049e+002 -2.2278e+002  1.0318e+002 47545 86950,86878,86558
 2.9000e+000 86809 -1.5261e+002 -1.7847e+002  1.1982e+002 47545 86950,86558,86532
 2.9000e+000 86786 -9.3006e+001 -2.4367e+002  1.1979e+002 47545 86584,86662,86610
 2.9000e+000 86763 -2.4552e+002 -3.7592e+001  5.1652e+001 47545 86532,86714,86688
 2.9000e+000 86740 -1.5043e+002 -1.0190e+002  1.2052e+002 47545 86610,86662,86636
 2.9000e+000 86904 -1.1032e+002 -2.4988e+002  1.1713e+002 47545 86662,86584,86878
 2.9000e+000 86927 -7.5999e+001 -2.1451e+002  8.4135e+001 47545 86662,86878,86688
 2.9000e+000 86976 -1.0207e+002 -1.5840e+002  8.7049e+001 47545 86688,86878,86950
 2.9000e+000 86999 -1.3862e+002 -1.5613e+002  1.1339e+002 47545 86688,86950,86532
 2.9000e+000 87328 -5.1865e+002 -2.3837e+002  1.9489e+002 47048 87155,87207,87181
 2.9000e+000 87305 -2.9421e+002 -2.5537e+002  1.4602e+002 47048 87129,87207,87155
 2.9000e+000 87282 -5.6005e+002 -4.2587e+002  2.2312e+002 47048 87103,87207,87129
 2.9000e+000 87259 -9.3712e+002 -1.3719e+003  6.8228e+000 47048 87103,87233,87207
 2.9000e+000 87576 -1.5865e+002 -4.2936e+002  1.8683e+002 46701 87599,87429,87377
 2.9000e+000 87553 -2.0519e+002 -4.6178e+002  2.0156e+002 46701 87599,87377,87481
 2.9000e+000 87530 -2.3338e+002 -4.7061e+002  2.0678e+002 46701 87351,87481,87377
 2.9000e+000 87507 -2.4793e+002 -3.9387e+002  2.4282e+002 46701 87377,87429,87403
 2.9000e+000 87625 -1.8331e+002 -3.1376e+002  1.2308e+002 46701 87455,87429,87599
 2.9000e+000 87648 -3.3964e+002 -4.1758e+002  1.6825e+002 46701 87455,87599,87481
 2.9000e+000 87798 -4.1306e+001 -1.2075e+002  2.7848e+001 46239 87697,87749,87723
 2.9000e+000 87775 -1.5587e+002 -5.1383e+002  6.7597e+001 46239 87671,87749,87697
 2.9000e+000 88308 -4.4249e+002 -4.7959e+002  1.0146e+002 45735 88089,88167,88141
 2.9000e+000 88285 -3.2264e+002 -2.1989e+002  1.3770e+002 45735 88011,88167,88089
 2.9000e+000 88262 -2.0471e+002 -2.0119e+002  9.7572e+001 45735 87985,88167,88011
 2.9000e+000 88239 -2.3204e+002 -9.0895e+002  2.1652e+002 45735 88011,88089,88063
 2.9000e+000 88216 -5.3848e+002 -5.1986e+002  1.0778e+002 45735 88089,88141,88115
 2.9000e+000 88193 -5.1823e+002 -1.3607e+003  2.3920e+001 45735 88011,88063,88037
 2.9000e+000 88686 -3.6177e+002 -1.4654e+002  2.2669e+002 45316 88438,88516,88490
 2.9000e+000 88663 -3.3421e+002  1.1338e+002  3.3715e+002 45316 88438,88542,88516
 2.9000e+000 88640 -1.8126e+002 -3.7418e+002  4.0774e+002 45316 88438,88568,88542
 2.9000e+000 88617 -3.8982e+002 -2.9431e+002  1.9007e+002 45316 88438,88490,88464
 2.9000e+000 88594 -3.5544e+002 -4.0018e+002  4.1813e+002 45316 88412,88568,88438
 2.9000e+000 88934 -6.3682e+002 -5.9837e+002  3.7217e+002 44812 88957,88735,88709
 2.9000e+000 88911 -3.5602e+002 -3.6123e+002  1.5619e+002 44812 88957,88709,88839
 2.9000e+000 88888 -3.3526e+002 -2.7771e+002  9.0090e+001 44812 89029,88787,88761
 2.9000e+000 88865 -2.8886e+002 -2.7064e+002  1.0466e+002 44812 88787,88839,88813
 2.9000e+000 88983 -1.8372e+002 -3.5893e+002  2.3849e+002 44812 88761,88735,88957
 2.9000e+000 89006 -3.0781e+002 -3.1914e+002  7.7473e+001 44812 89029,88761,88957
 2.9000e+000 89055 -3.1311e+002 -3.2858e+002  1.0789e+002 44812 88839,88787,89029
 2.9000e+000 89078 -3.1941e+002 -4.0848e+002  1.0706e+002 44812 88839,89029,88957
 2.9000e+000 89228 -9.3034e+001 -2.7658e+002  2.0094e+002 44408 89127,89179,89153
 2.9000e+000 89205 -1.7541e+001 -5.4350e-002  8.8281e-001 44408 89101,89179,89127
 2.9000e+000 89787 -3.5704e+002 -2.1226e+002  1.8764e+002 43854 89810,89545,89519
 2.9000e+000 89764 -3.9271e+002 -2.9220e+002  1.7553e+002 43854 89810,89519,89467
 2.9000e+000 89741 -3.8556e+002 -4.0641e+002  1.6527e+002 43854 89954,89882,89597
 2.9000e+000 89718 -3.8794e+002 -4.1935e+002  1.6336e+002 43854 89954,89597,89571
 2.9000e+000 89695 -1.9348e+002 -2.5489e+002  1.5500e+002 43854 89415,89623,89467
 2.9000e+000 89672 -1.8146e+002 -1.8064e+002  1.1775e+002 43854 89467,89519,89493
 2.9000e+000 89649 -1.1650e+002 -2.0686e+002  1.2128e+002 43854 89415,89467,89441
 2.9000e+000 89836 -3.7992e+002 -2.2608e+002  2.0524e+002 43854 89882,89545,89810
 2.9000e+000 89859 -2.0816e+002 -2.6023e+002  1.4353e+002 43854 89623,89810,89467
 2.9000e+000 89908 -3.7346e+002 -4.6343e+002  2.3479e+002 43854 89623,89597,89882
 2.9000e+000 89931 -3.5195e+002 -4.2570e+002  2.1164e+002 43854 89623,89882,89810
 2.9000e+000 89980 -3.9756e+002 -3.8650e+002  2.5136e+002 43854 89545,89882,89954
 2.9000e+000 90003 -4.2682e+002 -4.6051e+002  2.6088e+002 43854 89545,89954,89571
 2.9000e+000 90251 -1.3780e+002 -1.1627e+002  8.4391e+001 43492 90026,90078,90052
 2.9000e+000 90228 -3.6124e+002 -2.3653e+002  1.2412e+002 43492 90274,90026,90156
 2.9000e+000 90205 -3.3441e+002 -2.7897e+002  1.2668e+002 43492 90346,90274,90156
 2.9000e+000 90182 -3.4952e+002 -3.8617e+002  3.0895e+002 43492 90346,90156,90130
 2.9000e+000 90300 -2.5631e+002 -2.9812e+002  1.6458e+002 43492 90078,90026,90274
 2.9000e+000 90323 -3.9848e+002 -3.3725e+002  1.7000e+002 43492 90078,90274,90104
 2.9000e+000 90372 -5.5585e+002 -4.2556e+002  2.4385e+002 43492 90104,90274,90346
 2.9000e+000 90395 -5.7813e+002 -5.5799e+002  4.3035e+002 43492 90104,90346,90130
 2.9000e+000 90594 -1.4127e+002 -4.5916e+002  9.5078e+001 43052 90418,90496,90444
 2.9000e+000 90571 -3.8738e+002 -7.1742e+002  2.0349e+002 43052 90418,90522,90496
 2.9000e+000 90548 -2.5677e+002 -3.0734e+002  1.4569e+002 43052 90444,90496,90470
 2.9000e+000 91074 -2.7374e+002 -4.8419e+002  2.1768e+002 42434 91241,90884,90858
 2.9000e+000 91051 -5.5858e+002 -5.9884e+002 -5.7774e+001 42434 90702,90910,90884
 2.9000e+000 91028 -2.4024e+002 -4.3481e+002  1.9802e+002 42434 91097,90754,90702
 2.9000e+000 91005 -2.8956e+002 -3.2391e+002  2.1915e+002 42434 91241,90858,91097
 2.9000e+000 90982 -1.6359e+002 -2.6507e+002  5.1879e+001 42434 91169,90806,90780
 2.9000e+000 90959 -9.1995e+001 -2.7498e+002 -3.0422e+000 42434 90806,90858,90832
 2.9000e+000 90936 -2.4827e+002 -4.7022e+002  1.9005e+002 42434 90702,90754,90728
 2.9000e+000 91123 -3.7031e+002 -4.6887e+002  1.3162e+002 42434 90780,90754,91097
 2.9000e+000 91146 -3.1943e+002 -3.6077e+002  1.7250e+002 42434 91169,90780,91097
 2.9000e+000 91195 -1.0390e+002 -2.2034e+002 -1.8459e+001 42434 90858,90806,91169
 2.9000e+000 91218 -1.6487e+002 -1.4065e+002  7.4293e+001 42434 90858,91169,91097
 2.9000e+000 91267 -2.4113e+002 -6.5737e+002  1.4764e+002 42434 90702,90884,91241
 2.9000e+000 91290 -2.7481e+002 -5.1715e+002  1.4832e+002 42434 90702,91241,91097
 2.9000e+000 91698 -6.9782e+001 -3.1525e+002  1.1810e+002 41773 91473,91577,91499
 2.9000e+000 91675 -1.4080e+002 -3.6730e+002  1.5124e+002 41773 91473,91603,91577
 2.9000e+000 91652 -1.8623e+002 -2.5987e+002  3.7249e+001 41773 91499,91551,91525
 2.9000e+000 91629 -2.3423e+002 -2.8784e+002  1.0967e+002 41773 91499,91577,91551
 2.9000e+000 92044 -2.3788e+002 -3.0583e+002  1.9873e+002 41383 91773,91877,91851
 2.9000e+000 92021 -1.5926e+002 -3.5927e+002  1.2826e+002 41383 91747,91877,91773
 2.9000e+000 91998 -1.8091e+002 -2.1526e+002  1.5104e+002 41383 91773,91851,91799
 2.9000e+000 91975 -1.2650e+002 -2.4256e+002  2.9139e+001 41383 91747,91903,91877
 2.9000e+000 91952 -6.1847e+001 -1.9239e+002  5.9876e+001 41383 91721,91903,91747
 2.9000e+000 91929 -6.9138e+001 -2.4332e+002  1.0172e+002 41383 91799,91851,91825
 2.9000e+000 92601 -3.5316e+002 -3.1905e+002  8.7994e+001 40979 92229,92411,92307
 2.9000e+000 92578 -4.7715e+002 -3.3351e+002  7.8222e+001 40979 92229,92437,92411
 2.9000e+000 92555 -3.2340e+002 -2.1287e+002  9.0869e+001 40979 92229,92307,92281
 2.9000e+000 92532 -2.8011e+002 -3.1519e+002  1.3219e+002 40979 92333,92411,92385
 2.9000e+000 92509 -2.7195e+002 -2.6416e+002  1.1228e+002 40979 92307,92411,92333
 2.9000e+000 92486 -3.4275e+002 -2.6287e+002  9.0563e+001 40979 92229,92281,92255
 2.9000e+000 92463 -4.4265e+001 -2.8580e+002  1.0063e+002 40979 92333,92385,92359
 2.9000e+000 93235 -3.6832e+002 -2.3604e+002  2.8988e+002 40525 92941,92993,92967
 2.9000e+000 93212 -5.2326e+002 -1.1110e+002  7.6498e+001 40525 93258,92941,92889
 2.9000e+000 93189 -4.0467e+002 -4.4802e+001  3.5652e+001 40525 93258,92889,93071
 2.9000e+000 93166 -4.5614e+002 -2.0766e+002  6.6933e+001 40525 92889,92941,92915
 2.9000e+000 93143 -4.5548e+002 -4.5375e+001  2.7836e+001 40525 92863,93071,92889
 2.9000e+000 93120 -3.8611e+002 -2.1487e+002  1.3456e+002 40525 92993,93071,93019
 2.9000e+000 93097 -4.1862e+002 -1.7012e+002  1.1985e+002 40525 93019,93071,93045
 2.9000e+000 93284 -5.8943e+002 -2.2256e+002  2.1754e+002 40525 92993,92941,93258
 2.9000e+000 93307 -3.5114e+002 -7.3173e+001  1.5172e+002 40525 92993,93258,93071
 2.9000e+000 93636 -4.3439e+002 -3.6150e+002  3.5245e+002 40235 93437,93541,93515
 2.9000e+000 93613 -3.5753e+002 -4.8711e+002  3.1677e+002 40235 93411,93541,93437
 2.9000e+000 93590 -9.4887e+001 -4.1256e+002  1.1834e+002 40235 93463,93515,93489
 2.9000e+000 93567 -2.1287e+002 -2.7543e+002  7.2984e+001 40235 93437,93515,93463
 2.9000e+000 94014 -4.5326e+002 -4.1709e+002  2.2292e+002 39873 93766,93870,93792
 2.9000e+000 93991 -3.6926e+002 -4.7360e+002  1.6882e+002 39873 93766,93896,93870
 2.9000e+000 93968 -4.3273e+002 -3.3736e+002  2.2993e+002 39873 93792,93870,93844
 2.9000e+000 93945 -3.0314e+002 -2.4449e+002  1.6256e+002 39873 93792,93844,93818
 2.9000e+000 93922 -2.7535e+002 -3.9500e+002  2.7153e+002 39873 93740,93896,93766
 2.9000e+000 94164 -1.4803e+001 -1.7300e+002  7.4238e+001 39461 94037,94089,94063
 2.9000e+000 94141 -1.0630e+002 -5.4204e+002  2.1164e+002 39461 94037,94115,94089
 2.9000e+000 94363 -2.5258e+002 -1.7105e+002  1.2760e+002 39057 94386,94239,94213
 2.9000e+000 94340 -1.2870e+002 -8.4391e+001  8.5173e+001 39057 94386,94213,94187
 2.9000e+000 94317 -2.5611e+002 -1.7971e+002  1.2598e+002 39057 94187,94291,94265
 2.9000e+000 94412 -9.8933e+001 -1.3565e+002  1.1926e+002 39057 94458,94386,94265
 2.9000e+000 94435 -1.7231e+002 -1.6784e+002  1.1217e+002 39057 94265,94386,94187
 2.9000e+000 94484 -2.0711e+002 -2.2538e+002  1.6601e+002 39057 94239,94386,94458
 2.9000e+000 94896 -4.4168e+002 -3.0846e+002  2.0397e+002 38396 94919,94775,94723
 2.9000e+000 94873 -4.9593e+002 -2.5206e+002  2.0837e+002 38396 94919,94723,94697
 2.9000e+000 94850 -3.3759e+002 -2.7751e+002  1.4593e+002 38396 94723,94775,94749
 2.9000e+000 94827 -2.2590e+002 -1.4948e+002  1.2534e+002 38396 94671,94801,94697
 2.9000e+000 94945 -4.3439e+002 -2.6855e+002  1.8285e+002 38396 94801,94775,94919
 2.9000e+000 94968 -4.6452e+002 -1.9607e+002  1.7668e+002 38396 94801,94919,94697
 2.9000e+000 95265 -4.4978e+002 -4.2921e+002  1.9084e+002 37835 95017,95069,95043
 2.9000e+000 95242 -4.6559e+002 -3.9485e+002  1.9792e+002 37835 95288,95069,95017
 2.9000e+000 95219 -4.7799e+002 -4.3669e+002  2.8189e+002 37835 95288,95017,94991
 2.9000e+000 95196 -5.2060e+002 -4.5958e+002  2.6721e+002 37835 94991,95147,95121
 2.9000e+000 95173 -3.0701e+002 -2.2665e+002  1.8233e+002 37835 95069,95121,95095
 2.9000e+000 95314 -4.4619e+002 -2.7932e+002  1.6506e+002 37835 95121,95069,95288
 2.9000e+000 95337 -4.6238e+002 -3.5029e+002  2.4306e+002 37835 95121,95288,94991
 2.9000e+000 95558  4.3296e+001 -2.8219e+001  8.3693e+001 37423 95408,95460,95434
 2.9000e+000 95535 -1.0266e+002 -4.4928e+002  2.1897e+002 37423 95382,95460,95408
 2.9000e+000 95512 -2.2394e+002 -5.4866e+002  2.6204e+002 37423 95382,95486,95460
 2.9000e+000 95891 -6.1108e+001 -2.7603e+002  8.3563e+001 37225 95666,95718,95692
 2.9000e+000 95868 -2.8875e+002 -4.8610e+002  1.7374e+002 37225 95666,95796,95718
 2.9000e+000 95845 -1.5821e+002 -2.3467e+002  6.2282e+001 37225 95718,95770,95744
 2.9000e+000 95822 -1.3034e+002 -2.5039e+002  4.2981e+001 37225 95718,95796,95770
 2.9000e+000 95992 -3.3044e+001 -2.0160e+002  9.5325e+001 36735 95914,95966,95940
 2.9000e+000 96142 -4.7704e+002 -2.1475e+002  2.5130e+002 36331 96297,96067,96041
 2.9000e+000 96119 -3.7546e+002 -2.1161e+002  2.5130e+002 36331 96165,96041,96015
 2.9000e+000 96191 -4.5124e+002 -2.0765e+002  2.4318e+002 36331 96297,96041,96165
 2.9000e+000 96323 -5.2617e+002 -2.2283e+002  3.0900e+002 36331 96093,96067,96297
 2.9000e+000 96346 -4.4667e+002 -1.9226e+002  3.0421e+002 36331 96093,96297,96165
 2.9000e+000 96714 -2.6957e+002 -4.1931e+002  2.8022e+002 36041 96737,96495,96443
 2.9000e+000 96691 -3.8312e+002 -2.9373e+002  2.8913e+002 36041 96737,96443,96417
 2.9000e+000 96668 -1.4338e+002 -4.5220e+002  4.8341e+001 36041 96443,96495,96469
 2.9000e+000 96645 -8.2255e+001 -6.5097e+001  1.4000e+002 36041 96391,96521,96417
 2.9000e+000 96622 -1.2000e+001 -1.3432e+002  1.2056e+002 36041 96391,96547,96521
 2.9000e+000 96599 -3.6140e+001 -1.3877e+002  1.1617e+002 36041 96391,96573,96547
 2.9000e+000 96763 -1.1533e+002 -3.0922e+002  2.3218e+002 36041 96521,96495,96737
 2.9000e+000 96786 -3.2525e+002 -2.5770e+002  2.6942e+002 36041 96521,96737,96417
 2.9000e+000 96936 -2.6961e+002 -1.6115e+002  1.7385e+002 35637 97031,96959,96835
 2.9000e+000 96913 -3.8266e+002 -2.0727e+002  1.8763e+002 35637 97163,96959,96809
 2.9000e+000 96985 -3.7055e+002 -1.4052e+002  2.0147e+002 35637 96861,96835,96959
 2.9000e+000 97008 -4.6918e+002 -2.4348e+002  3.1803e+002 35637 96861,96959,96887
 2.9000e+000 97057 -3.1377e+002 -1.0872e+002  1.2055e+002 35637 96809,96959,97031
 2.9000e+000 97189 -3.0246e+002 -1.5649e+002  2.1274e+002 35637 96887,96959,97163
 2.9000e+000 97597 -2.0117e+002 -2.5712e+002  2.1728e+002 35190 97450,97502,97476
 2.9000e+000 97574 -2.1267e+002 -3.0700e+002  2.5841e+002 35190 97372,97502,97450
 2.9000e+000 97551 -2.1292e+002 -3.4391e+002  2.4268e+002 35190 97372,97450,97398
 2.9000e+000 97528 -2.1221e+002 -3.4227e+002  2.4009e+002 35190 97398,97450,97424
 2.9000e+000 98054 -2.5651e+002 -3.2948e+002  2.4916e+002 34636 97806,97936,97858
 2.9000e+000 98031 -4.3072e+002 -2.6005e+002  2.1108e+002 34636 97780,97936,97806
 2.9000e+000 98008 -4.0994e+002 -3.4119e+002  1.5091e+002 34636 97806,97858,97832
 2.9000e+000 97985 -2.8639e+002 -3.5795e+002  2.5270e+002 34636 97884,97936,97910
 2.9000e+000 97962 -1.7726e+002 -2.5165e+002  1.9419e+002 34636 97858,97936,97884
 2.9000e+000 98530 -3.1105e+002  6.3716e+001  7.8584e+001 34068 98697,98184,98366
 2.9000e+000 98507 -1.1006e+001 -1.6807e+001  6.8583e+000 34068 98158,98366,98184
 2.9000e+000 98484 -4.2918e+002 -4.6855e+002  1.7622e+002 34068 98553,98262,98236
 2.9000e+000 98461 -8.1739e+002 -6.6975e+002  1.0219e+002 34068 98553,98236,98210
 2.9000e+000 98438 -4.1359e+002 -2.4550e+002  1.8291e+002 34068 98841,98625,98366
 2.9000e+000 98415 -4.1586e+002 -6.7095e+002  2.8091e+002 34068 98769,98288,98262
 2.9000e+000 98392 -5.6679e+002 -1.3192e+002  1.6282e+002 34068 98841,98366,98340
 2.9000e+000 98579 -4.8414e+002 -5.5178e+002  2.0636e+002 34068 98769,98262,98553
 2.9000e+000 98602 -4.0637e+002 -3.0676e+002  1.8970e+002 34068 98625,98314,98553
 2.9000e+000 98651 -3.7209e+002 -2.2888e+002  1.3154e+002 34068 98697,98366,98625
 2.9000e+000 98674 -4.8456e+002 -5.0339e+002  1.7396e+002 34068 98210,98625,98553
 2.9000e+000 98723 -4.5664e+002 -2.8981e+002  1.4627e+002 34068 98210,98184,98697
 2.9000e+000 98746 -4.0908e+002 -3.5265e+002  2.1698e+002 34068 98210,98697,98625
 2.9000e+000 98795 -2.6257e+002 -5.4554e+002  2.0547e+002 34068 98314,98288,98769
 2.9000e+000 98818 -3.5547e+002 -4.6146e+002  1.3623e+002 34068 98314,98769,98553
 2.9000e+000 98867 -5.5663e+002 -3.6481e+002  1.2927e+002 34068 98314,98625,98841
 2.9000e+000 98890 -7.0902e+002 -2.3870e+002  1.1465e+002 34068 98314,98841,98340
 2.9000e+000 99268 -5.5386e+002 -5.0494e+002  3.6247e+002 33450 99291,99098,99072
 2.9000e+000 99245 -5.9944e+002 -3.9289e+002  2.1538e+002 33450 99291,99072,99020
 2.9000e+000 99222 -9.3622e+002 -5.2182e+002  3.4447e+002 33450 99020,99072,99046
 2.9000e+000 99199 -4.7061e+002 -3.4054e+002  2.1422e+002 33450 99020,99150,99124
 2.9000e+000 99176 -4.6009e+002 -2.6121e+002  4.6221e+001 33450 98994,99150,99020
 2.9000e+000 99317 -3.2464e+002 -4.0079e+002  3.3942e+002 33450 99124,99098,99291
 2.9000e+000 99340 -5.2624e+002 -3.6332e+002  2.1117e+002 33450 99124,99291,99020
 2.9000e+000 99865 -2.9750e+002 -2.8631e+002  1.6930e+002 32944 100176,99960,99888
 2.9000e+000 99842 -3.4746e+002 -2.9740e+002  1.7253e+002 32944 100104,99888,99522
 2.9000e+000 99819 -2.9266e+002 -2.6804e+002  2.0841e+002 32944 100248,99960,99626
 2.9000e+000 99796 -3.0302e+002 -3.2161e+002  1.1118e+002 32944 100032,99652,99626
 2.9000e+000 99773 -2.9670e+002 -3.4070e+002  1.1982e+002 32944 100104,99522,99496
 2.9000e+000 99750 -2.1139e+002 -1.5909e+002 -1.1057e+000 32944 99574,99626,99600
 2.9000e+000 99727 -2.5175e+002 -2.5377e+002  2.2406e+002 32944 100248,99626,99574
 2.9000e+000 99704 -1.9478e+002 -2.7335e+002  1.5615e+002 32944 99444,99496,99470
 2.9000e+000 99914 -3.0946e+002 -2.6960e+002  1.2985e+002 32944 100176,99888,100032
 2.9000e+000 99937 -3.5544e+002 -2.4165e+002  1.9092e+002 32944 99678,99888,99444
 2.9000e+000 99986 -3.3233e+002 -2.3817e+002  1.6710e+002 32944 99522,99888,99960
 2.9000e+000 100009 -3.3486e+002 -1.9577e+002  1.9643e+002 32944 99522,99960,99548
 2.9000e+000 100058 -3.4124e+002 -3.2101e+002  1.1175e+002 32944 99678,99652,100032
 2.9000e+000 100081 -3.7775e+002 -3.0534e+002  1.1688e+002 32944 99678,100032,99888
 2.9000e+000 100130 -2.5260e+002 -2.5125e+002  1.8723e+002 32944 99444,99888,100104
 2.9000e+000 100153 -2.1610e+002 -2.9843e+002  1.3767e+002 32944 99444,100104,99496
 2.9000e+000 100202 -3.2890e+002 -3.4819e+002  1.5786e+002 32944 99626,99960,100176
 2.9000e+000 100225 -3.4150e+002 -3.4664e+002  1.2198e+002 32944 99626,100176,100032
 2.9000e+000 100274 -3.5806e+002 -2.5191e+002  1.8444e+002 32944 99548,99960,100248
 2.9000e+000 100297 -3.2187e+002 -2.4205e+002  1.9925e+002 32944 99548,100248,99574
 2.9000e+000 100754 -1.0456e+002 -1.2324e+002  7.3691e+001 32369 100777,100584,100506
 2.9000e+000 100731 -1.2491e+002 -1.9264e+002  1.3788e+002 32369 100777,100506,100636
 2.9000e+000 100708 -2.0813e+002 -2.0289e+002  1.4208e+002 32369 100480,100636,100506
 2.9000e+000 100685 -3.3909e+002 -1.6658e+002  5.1102e+000 32369 100532,100584,100558
 2.9000e+000 100662 -1.2745e+002 -1.5490e+002  8.6043e+001 32369 100506,100584,100532
 2.9000e+000 100803 -1.3600e+002 -2.0898e+001  5.5446e+001 32369 100610,100584,100777
 2.9000e+000 100826 -1.4268e+002 -9.2597e+001  1.0950e+002 32369 100610,100777,100636
 2.9000e+000 101025 -2.6275e+002 -2.3075e+002  2.2030e+002 31857 100875,100927,100901
 2.9000e+000 101002 -5.3844e+002 -9.0926e+001  2.3486e+002 31857 100875,100953,100927
 2.9000e+000 100979 -5.9949e+002 -1.9062e+002  1.6736e+002 31857 100849,100953,100875
 2.9000e+000 101533 -2.6240e+002 -3.3870e+002  2.7032e+002 31253 101556,101314,101236
 2.9000e+000 101510 -3.9213e+002 -3.5937e+002  2.6176e+002 31253 101556,101236,101210
 2.9000e+000 101487 -3.6549e+002 -3.3213e+002  1.0941e+002 31253 101210,101392,101340
 2.9000e+000 101464 -2.0498e+002 -3.3344e+002  1.8793e+002 31253 101236,101288,101262
 2.9000e+000 101441 -2.4239e+002 -4.8131e+002  2.4776e+002 31253 101236,101314,101288
 2.9000e+000 101418 -3.6630e+002 -4.2849e+002  2.2651e+002 31253 101340,101392,101366
 2.9000e+000 101582 -3.0512e+002 -3.2581e+002  1.6150e+002 31253 101340,101314,101556
 2.9000e+000 101605 -4.3545e+002 -3.3809e+002  1.5857e+002 31253 101340,101556,101210
 2.9000e+000 101755  4.4352e+001 -6.7408e+001  2.5307e+001 30519 101778,101654,101628
 2.9000e+000 101732 -1.1407e+002 -1.2322e+002  3.1287e+001 30519 101850,101778,101628
 2.9000e+000 101804 -8.8058e+001 -4.2292e+001 -2.7110e+001 30519 101680,101654,101778
 2.9000e+000 101827 -1.4727e+002 -6.4584e+001 -1.1916e+001 30519 101680,101778,101706
 2.9000e+000 101876 -1.1803e+002 -1.4339e+002 -1.8661e+001 30519 101706,101778,101850
 2.9000e+000 102561 -1.3892e+002 -2.5578e+002  1.3412e+002 29951 102656,102584,102270
 2.9000e+000 102538 -4.9812e+002 -5.5135e+002  9.7971e+001 29951 102584,102140,102374
 2.9000e+000 102515 -2.6907e+002 -6.3312e+002  3.1531e+002 29951 102728,102656,102270
 2.9000e+000 102492 -2.9073e+002 -7.8703e+002  3.1533e+002 29951 102728,102270,102244
 2.9000e+000 102469 -4.0121e+002 -1.0278e+002  1.7977e+002 29951 102800,102322,102296
 2.9000e+000 102446 -4.2366e+002 -2.9351e+002  7.7048e+001 29951 102166,102218,102192
 2.9000e+000 102423 -3.5980e+002 -3.1448e+002  4.4265e+001 29951 102166,102244,102218
 2.9000e+000 102400 -2.1903e+002 -2.5662e+002  1.3915e+002 29951 102322,102374,102348
 2.9000e+000 102610 -4.7120e+002 -1.6796e+002  6.2909e+001 29951 102296,102270,102584
 2.9000e+000 102633 -5.3334e+002 -2.4168e+002  1.0734e+002 29951 102800,102296,102584
 2.9000e+000 102682 -5.9323e+002 -5.4218e+002  2.7887e+002 29951 102140,102584,102656
 2.9000e+000 102705 -3.5939e+002 -5.2533e+002  4.0606e+002 29951 102140,102656,102166
 2.9000e+000 102754 -2.9533e+002 -4.6076e+002  3.8015e+002 29951 102166,102656,102728
 2.9000e+000 102777 -3.1278e+002 -5.8153e+002  3.4904e+002 29951 102166,102728,102244
 2.9000e+000 102826 -2.6415e+002 -2.6301e+002  2.4720e+002 29951 102374,102322,102800
 2.9000e+000 102849 -3.2229e+002 -2.8690e+002  2.0581e+002 29951 102374,102800,102584
 2.9000e+000 103048 -1.5620e+001 -1.8948e+002  5.3970e+001 29454 102872,102924,102898
 2.9000e+000 103025 -4.6867e+001 -5.3600e+002  1.3617e+002 29454 102872,102976,102924
 2.9000e+000 103002 -1.7493e+002 -7.4203e+002  7.4116e+001 29454 102924,102976,102950
 2.9000e+000 103296 -6.2721e+002 -4.7744e+002  3.2540e+002 29064 103319,103175,103123
 2.9000e+000 103273 -8.2394e+002 -4.7732e+002  3.7455e+002 29064 103319,103123,103071
 2.9000e+000 103250 -3.8490e+002 -3.0338e+002  2.3504e+002 29064 103123,103175,103149
 2.9000e+000 103227 -6.3930e+002 -3.7351e+002  4.5420e+002 29064 103071,103123,103097
 2.9000e+000 103345 -4.5341e+002 -5.1387e+002  2.4422e+002 29064 103201,103175,103319
 2.9000e+000 103368 -6.8723e+002 -4.7410e+002  2.2350e+002 29064 103201,103319,103071
 2.9000e+000 104006 -3.6301e+002 -1.8711e+002  1.5030e+002 28603 104101,104029,103712
 2.9000e+000 103983 -3.2151e+002 -1.3120e+002  1.3071e+002 28603 104173,104029,103660
 2.9000e+000 103960 -4.3436e+002 -1.5425e+002  1.4319e+002 28603 104101,103712,103686
 2.9000e+000 103937 -2.4155e+002 -1.6710e+002  1.2748e+002 28603 104173,103660,103634
 2.9000e+000 103914 -3.8061e+002 -2.2177e+002  1.9633e+002 28603 103764,103816,103790
 2.9000e+000 103891 -2.5425e+002 -1.6030e+002  1.9649e+002 28603 103634,103842,103816
 2.9000e+000 103868 -2.9712e+002 -1.1964e+002  1.8915e+002 28603 103712,103764,103738
 2.9000e+000 104055 -3.6355e+002 -1.4940e+002  1.5939e+002 28603 103764,103712,104029
 2.9000e+000 104078 -3.5322e+002 -1.5691e+002  1.8621e+002 28603 103764,104029,103816
 2.9000e+000 104127 -4.5723e+002 -1.8690e+002  1.2137e+002 28603 103660,104029,104101
 2.9000e+000 104150 -5.6550e+002 -1.7570e+002  1.3287e+002 28603 103660,104101,103686
 2.9000e+000 104199 -3.8365e+002 -1.5719e+002  1.5324e+002 28603 103816,104029,104173
 2.9000e+000 104222 -3.1381e+002 -1.9299e+002  1.4184e+002 28603 103816,104173,103634
 2.9000e+000 104600 -2.2456e+002 -4.4264e+002  1.0167e+002 28348 104623,104378,104326
 2.9000e+000 104577 -1.7925e+002 -4.6100e+002  1.7828e+002 28348 104623,104326,104482
 2.9000e+000 104554 -2.2637e+002 -3.1229e+002  9.0335e+001 28348 104326,104378,104352
 2.9000e+000 104531 -2.2280e+002 -2.8614e-001  8.0119e+000 28348 104404,104456,104430
 2.9000e+000 104508 -2.9036e+002 -2.0560e+002  1.6265e+002 28348 104378,104456,104404
 2.9000e+000 104649 -1.8944e+002 -3.7492e+002  1.3415e+002 28348 104456,104378,104623
 2.9000e+000 104672 -1.3007e+002 -3.7974e+002  2.1292e+002 28348 104456,104623,104482
 2.9000e+000 104991 -4.2404e+002 -4.3509e+002  3.1507e+002 27951 104717,104847,104769
 2.9000e+000 104968 -1.2423e+002 -3.0019e+002  2.8476e+002 27951 104717,104873,104847
 2.9000e+000 104945 -1.5100e+002 -3.6960e+002  3.3442e+002 27951 104769,104847,104795
 2.9000e+000 104922  1.4772e+001  4.3772e+001  3.1534e+002 27951 104795,104847,104821
 2.9000e+000 104899 -3.7890e+002 -2.9773e+002  3.2904e+002 27951 104717,104769,104743
 2.9000e+000 105371 -5.6934e+002 -3.5817e+002  2.6466e+002 27447 105394,105201,105123
 2.9000e+000 105348 -7.4645e+002 -3.2737e+002  3.9227e+002 27447 105394,105123,105097
 2.9000e+000 105325 -9.0502e+002 -3.8755e+002  2.6091e+002 27447 105123,105201,105149
 2.9000e+000 105302 -4.6609e+002 -4.4533e+002  2.7798e+002 27447 105201,105253,105227
 2.9000e+000 105279 -4.6022e+002 -5.2952e+002  8.2220e+001 27447 105149,105201,105175
 2.9000e+000 105420 -4.6864e+002 -2.9259e+002  2.0427e+002 27447 105253,105201,105394
 2.9000e+000 105443 -6.2035e+002 -2.0009e+002  3.1557e+002 27447 105253,105394,105097
 2.9000e+000 105998 -3.7090e+002 -2.8126e+002  2.7156e+002 27100 106165,106021,105704
 2.9000e+000 105975 -1.6426e+002 -1.4160e+002  2.3335e+002 27100 106309,106021,105652
 2.9000e+000 105952 -6.1166e+002 -4.6441e+002  4.7083e+002 27100 106093,105808,105782
 2.9000e+000 105929 -3.6019e+002 -2.9914e+002  2.5749e+002 27100 106165,105704,105678
 2.9000e+000 105906 -1.6545e+002 -4.1687e+002  2.1078e+002 27100 106237,105730,105704
 2.9000e+000 105883 -1.5891e+002 -2.5410e+002  1.6302e+002 27100 106309,105652,105626
 2.9000e+000 105860 -7.5409e+001 -9.7824e+000  2.4619e+001 27100 105730,105782,105756
 2.9000e+000 106047 -3.2899e+002 -2.2895e+002  3.0028e+002 27100 106237,105704,106021
 2.9000e+000 106070 -3.5247e+002 -2.2033e+002  3.6407e+002 27100 106093,105782,106021
 2.9000e+000 106119 -2.4726e+002 -3.8439e+002  2.3504e+002 27100 105834,105808,106093
 2.9000e+000 106142 -2.8407e+002 -4.8130e+002  3.2044e+002 27100 106381,106093,106021
 2.9000e+000 106191 -3.5278e+002 -2.5907e+002  2.8482e+002 27100 105652,106021,106165
 2.9000e+000 106214 -3.3801e+002 -2.8590e+002  2.7305e+002 27100 105652,106165,105678
 2.9000e+000 106263 -1.7977e+001 -2.2150e+002  1.4613e+002 27100 105782,105730,106237
 2.9000e+000 106286 -2.1579e+002 -8.3716e+001  2.5024e+002 27100 105782,106237,106021
 2.9000e+000 106335 -2.4249e+002 -3.0352e+002  2.5806e+002 27100 106381,106021,106309
 2.9000e+000 106358 -1.5431e+002 -1.9706e+002  1.4630e+002 27100 105834,106309,105626
 2.9000e+000 106407 -1.7795e+002 -2.7353e+002  2.0087e+002 27100 105834,106093,106381
 2.9000e+000 106430 -1.8502e+002 -2.3640e+002  1.3275e+002 27100 105834,106381,106309
 2.9000e+000 106629 -6.7025e+001 -4.3683e+002  1.2916e+002 26688 106479,106557,106531
 2.9000e+000 106606 -1.1817e+002 -3.9018e+002  1.1546e+002 26688 106453,106557,106479
 2.9000e+000 106583 -1.7984e+002 -4.5683e+002  3.9771e+001 26688 106479,106531,106505
 2.9000e+000 107088 -1.8170e+002 -1.6137e+002  7.7543e+001 26248 107111,106918,106866
 2.9000e+000 107065 -1.9084e+002 -1.3925e+002  8.9527e+001 26248 107111,106866,106840
 2.9000e+000 107042 -1.3503e+002 -9.6318e+001  8.8783e+001 26248 106814,106970,106840
 2.9000e+000 107019 -1.9956e+002 -3.2433e+002  1.0983e+002 26248 106866,106918,106892
 2.9000e+000 106996 -3.1326e+002 -2.3671e+002  7.1971e+001 26248 106918,106970,106944
 2.9000e+000 107137 -2.0183e+002 -1.8984e+002  5.3486e+001 26248 106970,106918,107111
 2.9000e+000 107160 -1.9179e+002 -1.4559e+002  6.7545e+001 26248 106970,107111,106840
 2.9000e+000 107666 -4.9582e+002 -2.1016e+002  1.6057e+002 25908 107369,107499,107395
 2.9000e+000 107643 -6.6785e+002 -6.1820e+002  3.2148e+002 25908 107369,107525,107499
 2.9000e+000 107620 -4.0536e+002 -2.6447e+002  2.1656e+002 25908 107395,107473,107447
 2.9000e+000 107597 -3.4818e+002 -1.4753e+002  1.6288e+002 25908 107395,107499,107473
 2.9000e+000 107574 -6.9515e+002 -3.3841e+002  4.8461e+002 25908 107395,107447,107421
 2.9000e+000 107551 -2.8083e+002 -4.7909e+002  2.7907e+002 25908 107343,107525,107369
 2.9000e+000 108251 -3.0500e+002 -1.1610e+002  1.8750e+002 25454 108274,108006,107954
 2.9000e+000 108228 -2.4210e+002 -5.7045e+001  1.4113e+002 25454 108274,107954,108110
 2.9000e+000 108205 -2.3032e+002 -2.4939e+002  2.1832e+002 25454 108346,108032,108006
 2.9000e+000 108182 -3.9080e+002 -1.9042e+002  2.3845e+002 25454 107954,108006,107980
 2.9000e+000 108159 -1.2890e+002 -1.5332e+002  1.2497e+002 25454 107928,108110,107954
 2.9000e+000 108136 -4.6500e+002 -5.0694e+002  2.6765e+002 25454 108058,108110,108084
 2.9000e+000 108300 -2.9220e+002 -1.8423e+002  2.2141e+002 25454 108346,108006,108274
 2.9000e+000 108323 -2.6126e+002 -1.2225e+002  1.6826e+002 25454 108058,108274,108110
 2.9000e+000 108372 -1.5874e+002 -1.7182e+002  1.8795e+002 25454 108058,108032,108346
 2.9000e+000 108395 -2.2355e+002 -9.5871e+001  1.9162e+002 25454 108058,108346,108274
 2.9000e+000 108822 -2.4148e+002 -1.5455e+002  1.4730e+002 24943 108525,108681,108655
 2.9000e+000 108799 -3.1584e+002 -2.0591e+002  6.9691e+001 24943 108499,108681,108525
 2.9000e+000 108776 -1.3789e+002 -1.1878e+002  1.0700e+002 24943 108525,108655,108629
 2.9000e+000 108753 -2.2404e+002 -1.0198e+002  9.6875e+001 24943 108525,108629,108603
 2.9000e+000 108730 -4.8166e+002 -1.5346e+002  1.8113e+002 24943 108551,108603,108577
 2.9000e+000 108707 -4.6966e+002 -2.9356e+002  2.6514e+002 24943 108525,108603,108551
 2.9000e+000 109407 -2.3540e+001 -8.5880e+001  4.4425e+001 24745 109162,109214,109188
 2.9000e+000 109384 -1.7676e+002 -8.6415e+001  5.8257e+001 24745 109162,109266,109214
 2.9000e+000 109361 -2.0870e+002 -1.2045e+002  3.4331e+001 24745 109084,109266,109162
 2.9000e+000 109338 -3.6434e+002 -5.2929e+001  9.1376e+001 24745 109084,109162,109136
 2.9000e+000 109315 -8.7903e+001 -1.6089e+002  7.6596e+001 24745 109214,109266,109240
 2.9000e+000 109292 -2.7360e+002 -7.9122e+001  1.4598e+002 24745 109084,109136,109110
 2.9000e+000 109785 -5.9616e+002 -2.7939e+002  3.4836e+002 24341 109537,109615,109563
 2.9000e+000 109762 -6.3497e+001 -1.3917e+002  3.1837e+002 24341 109537,109641,109615
 2.9000e+000 109739 -3.9568e+002 -2.9351e+002  2.5828e+002 24341 109563,109615,109589
 2.9000e+000 109716 -2.5360e+002 -2.5241e+002  2.1793e+002 24341 109537,109667,109641
 2.9000e+000 109693 -1.4256e+002 -2.9868e+002  1.9682e+002 24341 109511,109667,109537
 2.9000e+000 110163 -6.9252e+002 -4.0033e+002  3.5875e+002 23837 110186,109967,109915
 2.9000e+000 110140 -6.3414e+002 -4.0828e+002  3.9245e+002 23837 110186,109915,109889
 2.9000e+000 110117 -2.9452e+002 -1.4211e+002  3.0386e+002 23837 109889,110045,109993
 2.9000e+000 110094 -6.5141e+002 -4.9776e+002  2.8307e+002 23837 109915,109967,109941
 2.9000e+000 110071 -3.6589e+002 -1.5912e+001  5.7598e+001 23837 109993,110045,110019
 2.9000e+000 110212 -6.5416e+002 -3.6382e+002  3.8285e+002 23837 109993,109967,110186
 2.9000e+000 110235 -6.2683e+002 -3.7515e+002  4.1668e+002 23837 109993,110186,109889
 2.9000e+000 110336 -3.0744e+002 -6.9606e+002  3.5342e+002 23433 110258,110310,110284
 2.9000e+000 110584 -3.9973e+002 -2.8049e+002  1.7478e+002 22829 110607,110411,110385
 2.9000e+000 110561 -4.9600e+002 -3.2630e+002  2.4623e+002 22829 110607,110385,110489
 2.9000e+000 110538 -3.1699e+002 -2.9866e+002  1.4733e+002 22829 110437,110489,110463
 2.9000e+000 110515 -4.0493e+002 -2.0212e+002  2.8605e+002 22829 110359,110489,110385
 2.9000e+000 110633 -3.9384e+002 -2.0908e+002  1.0328e+002 22829 110437,110411,110607
 2.9000e+000 110656 -4.4855e+002 -2.5858e+002  1.7119e+002 22829 110437,110607,110489
 2.9000e+000 110906 -8.5650e+002 -3.5607e+002  2.6065e+002 22432 110707,110759,110733
 2.9000e+000 110883 -4.9553e+002 -3.7408e+002  2.0608e+002 22432 110707,110785,110759
 2.9000e+000 110860 -5.1134e+002 -3.4153e+002  3.1317e+002 22432 110707,110811,110785
 2.9000e+000 110837 -6.4134e+002 -4.5466e+002  2.4404e+002 22432 110681,110811,110707
 2.9000e+000 111288 -8.4812e+001 -1.9585e+002  1.5689e+002 22142 111092,111144,111118
 2.9000e+000 111265 -2.4979e+002 -1.9917e+002  1.3360e+002 22142 111066,111144,111092
 2.9000e+000 111242 -2.3044e+002 -1.7255e+002  1.0853e+002 22142 111040,111144,111066
 2.9000e+000 111219 -4.5394e+002 -6.8899e+001  6.0544e+001 22142 111014,111144,111040
 2.9000e+000 111196 -3.1640e+002 -4.7839e+001  1.1224e+002 22142 111014,111170,111144
 2.9000e+000 111389 -1.6605e+001 -8.8076e+001  2.1098e+002 21830 111311,111363,111337
 2.9000e+000 111735 -5.8589e+002 -5.5096e+001  4.1751e+002 21268 111758,111542,111438
 2.9000e+000 111712 -4.6838e+002 -2.0186e+001  3.0460e+002 21268 111758,111438,111412
 2.9000e+000 111689 -1.7007e+002 -3.1111e+002  4.9032e+002 21268 111438,111542,111464
 2.9000e+000 111666 -4.5976e+001 -2.3345e+002  6.3991e+002 21268 111464,111542,111490
 2.9000e+000 111643 -1.0992e+003 -5.4524e+002  5.6510e+002 21268 111412,111594,111568
 2.9000e+000 111620  2.2168e+002  1.9159e+002  8.0749e+002 21268 111490,111542,111516
 2.9000e+000 111784 -6.1523e+002 -1.1082e+002  4.2851e+002 21268 111568,111542,111758
 2.9000e+000 111807 -5.9084e+002 -2.4520e+002  3.5318e+002 21268 111568,111758,111412
 2.9000e+000 111959 -6.0378e+002 -7.2623e+001  2.0488e+002 20864 111982,111910,111884
 2.9000e+000 111936 -5.5766e+002 -9.1547e+001  2.9021e+002 20864 112114,111832,111910
 2.9000e+000 112008 -5.9969e+002 -2.0380e+002  2.4669e+002 20864 112114,111910,111982
 2.9000e+000 112140 -5.4304e+002 -2.2216e+002  2.2506e+002 20864 111858,111832,112114
 2.9000e+000 112163 -5.9428e+002 -3.5831e+002  1.8480e+002 20864 111858,112114,111982
 2.9000e+000 112411 -7.2348e+001 -1.6696e+001  2.3835e+001 20324 112186,112290,112212
 2.9000e+000 112388 -3.7260e+001 -1.1988e+001  3.4345e+001 20324 112186,112316,112290
 2.9000e+000 112365  1.8288e+002 -1.5433e+002  2.3522e+001 20324 112212,112290,112264
 2.9000e+000 112342 -7.5868e+002 -3.2492e+002 -4.1169e+001 20324 112212,112264,112238
 2.9000e+000 112659 -6.7734e+001 -2.0292e+001  2.3633e+002 19920 112512,112564,112538
 2.9000e+000 112636 -3.0292e+002 -1.1491e+002  1.5013e+002 19920 112434,112564,112512
 2.9000e+000 112613 -3.1096e+002 -1.9094e+002  1.7931e+002 19920 112434,112512,112460
 2.9000e+000 112590 -3.4477e+002 -2.1428e+002  1.9148e+002 19920 112460,112512,112486
 2.9000e+000 112811 -5.3308e+001 -2.1383e+001  9.6673e+001 19630 112684,112736,112710
 2.9000e+000 112788  8.5703e+001 -1.2003e+002  2.3909e+001 19630 112684,112762,112736
 2.9000e+000 113012 -2.5595e+002 -9.8503e+001  2.6763e+002 19169 112862,112940,112888
 2.9000e+000 112989 -4.2270e+002 -3.5194e+002  1.9556e+002 19169 112836,112940,112862
 2.9000e+000 112966 -2.1034e+002 -2.9048e+002  2.1311e+002 19169 112888,112940,112914
 2.9000e+000 113213 -5.1760e+002 -2.1125e+002  2.5882e+002 18600 113037,113089,113063
 2.9000e+000 113190 -3.1453e+002 -1.5990e+002  2.1016e+002 18600 113037,113115,113089
 2.9000e+000 113167 -5.8253e+002 -4.0989e+002  3.7057e+002 18600 113037,113141,113115
 2.9000e+000 113485 -2.8096e+002 -1.0873e+002  2.7319e+002 18352 113260,113312,113286
 2.9000e+000 113462 -5.6139e+002 -3.3810e+002  3.7300e+002 18352 113260,113390,113312
 2.9000e+000 113439 -5.2651e+002 -1.1283e+002  2.7874e+002 18352 113312,113390,113364
 2.9000e+000 113416 -2.1609e+002 -7.9319e+001  2.9075e+002 18352 113312,113364,113338
 2.9000e+000 113757 -4.0169e+002 -1.5989e+002  2.7956e+002 17834 113558,113610,113584
 2.9000e+000 113734 -5.7809e+002 -3.2197e+002  3.6372e+002 17834 113532,113610,113558
 2.9000e+000 113711 -5.9368e+002 -3.8784e+002  2.9839e+002 17834 113532,113662,113610
 2.9000e+000 113688 -3.0311e+002 -1.0298e+002  4.1429e+002 17834 113610,113662,113636
 2.9000e+000 113958 -3.9517e+002 -1.6210e+002  2.1526e+002 17330 113782,113834,113808
 2.9000e+000 113935 -2.2285e+002 -1.1920e+002  1.5785e+002 17330 113782,113886,113834
 2.9000e+000 113912 -2.7194e+002 -1.1838e+002  1.0506e+002 17330 113834,113886,113860
 2.9000e+000 114110 -5.8532e+002 -2.2852e+002  3.7521e+002 16874 113983,114035,114009
 2.9000e+000 114087 -2.2381e+002 -5.1581e+002  3.2072e+002 16874 113983,114061,114035
 2.9000e+000 114465 -7.0212e+002 -2.9665e+002  1.6402e+002 16270 114240,114292,114266
 2.9000e+000 114442 -5.3066e+002 -1.2684e+002  8.1045e+001 16270 114240,114370,114292
 2.9000e+000 114419 -2.3180e+002 -9.7253e+001  1.1622e+002 16270 114292,114344,114318
 2.9000e+000 114396 -5.7069e+002 -2.5361e+002  6.9286e+001 16270 114292,114370,114344
 2.9000e+000 114566 -2.7869e+001  2.7869e+001  5.0642e+002 15834 114488,114540,114514
 2.9000e+000 114667 -3.9299e+002 -1.5856e+002  2.5057e+002 15155 114589,114641,114615
 2.9000e+000 114890 -2.5198e+002 -8.8649e+001  3.4812e+002 421 114766,114818,114792
 2.9000e+000 114867 -4.1621e+002 -3.9019e+002  2.8075e+002 421 114714,114818,114766
 2.9000e+000 114844 -6.2334e+002 -2.6274e+002  1.6585e+002 421 114714,114766,114740
 3.0000e+000 66553 -2.9208e+002 -1.2440e+002  1.0601e+002 66108 66354,66458,66432
 3.0000e+000 66530 -2.6039e+002 -1.1044e+002  1.0007e+002 66108 66328,66458,66354
 3.0000e+000 66507 -1.7461e+002 -1.1925e+002  5.1663e+001 66108 66354,66432,66406
 3.0000e+000 66484  5.2628e+001  2.5229e+001  1.3106e+002 66108 66354,66406,66380
 3.0000e+000 66951 -3.6177e+002 -1.5432e+002  7.5376e+001 65910 66703,66833,66807
 3.0000e+000 66928 -1.0696e+002 -9.5214e+001  9.4261e+001 65910 66677,66833,66703
 3.0000e+000 66905 -9.9878e+001 -1.6842e+002  1.2798e+002 65910 66729,66781,66755
 3.0000e+000 66882 -3.3337e+002 -1.4083e+002  1.1688e+002 65910 66729,66807,66781
 3.0000e+000 66859 -3.1298e+002 -7.1473e+001  1.0379e+002 65910 66703,66807,66729
 3.0000e+000 67150 -3.4723e+002 -1.4576e+002  1.4584e+002 65712 67026,67078,67052
 3.0000e+000 67127 -4.3215e+002 -5.0998e+001  1.1260e+002 65712 66974,67078,67026
 3.0000e+000 67104 -1.3941e+003 -6.4542e+002  4.2764e+002 65712 66974,67026,67000
 3.0000e+000 67481 -5.2356e+002 -6.9091e+001  1.7896e+002 65422 67282,67360,67334
 3.0000e+000 67458 -2.3289e+002 -8.8290e+001  2.7015e+002 65422 67282,67386,67360
 3.0000e+000 67435 -1.3641e+002  8.8492e+001  1.5478e+002 65422 67282,67334,67308
 3.0000e+000 67412  9.3495e+001  3.6876e+001  6.8038e+001 65422 67256,67386,67282
 3.0000e+000 68115 -1.6488e+002 -4.7608e+001  4.3277e+001 65018 67795,67925,67873
 3.0000e+000 68092 -2.0828e+002 -6.5650e+001  7.2370e+001 65018 67769,67925,67795
 3.0000e+000 68069 -1.2128e+002 -5.6351e+001  5.7893e+001 65018 67873,67925,67899
 3.0000e+000 68046 -2.8266e+002 -2.0298e+002  1.2858e+002 65018 67769,67951,67925
 3.0000e+000 68023 -2.1705e+002 -1.2450e+002  6.5934e+001 65018 67795,67873,67821
 3.0000e+000 68000 -2.8064e+002 -1.4487e+002  6.4135e+001 65018 67821,67873,67847
 3.0000e+000 67977 -2.8912e+002 -1.9737e+002  1.4761e+002 65018 67743,67951,67769
 3.0000e+000 68363 -1.7583e+002 -3.8183e+002  3.3816e+002 64820 68190,68242,68216
 3.0000e+000 68340 -3.4004e+002 -2.7321e+002  3.5385e+002 64820 68190,68268,68242
 3.0000e+000 68317 -1.9270e+002 -2.0381e+002  3.8321e+002 64820 68164,68268,68190
 3.0000e+000 68294 -6.9110e+002 -2.8615e+002  2.5551e+002 64820 68138,68268,68164
 3.0000e+000 68513 -3.7326e+002 -1.8898e+002  1.4808e+002 64366 68868,68536,68438
 3.0000e+000 68490 -2.0534e+002 -1.0180e+002  1.0395e+002 64366 68536,68412,68386
 3.0000e+000 68562 -4.3450e+002 -1.9069e+002  2.0276e+002 64366 68740,68536,68464
 3.0000e+000 68585 -2.9872e+002 -1.2954e+002  1.4176e+002 64366 68608,68536,68386
 3.0000e+000 68634 -3.8062e+002 -2.9683e+002  1.1591e+002 64366 68464,68536,68608
 3.0000e+000 68766 -3.8281e+002 -1.4976e+002  1.8396e+002 64366 68438,68536,68740
 3.0000e+000 68894 -2.8473e+002 -1.2292e+002  1.8745e+002 64366 68412,68536,68868
 3.0000e+000 69172 -4.0063e+002 -3.7111e+002  2.5232e+001 64168 69022,69074,69048
 3.0000e+000 69149 -6.7098e+002 -2.8627e+002  1.0691e+002 64168 68996,69074,69022
 3.0000e+000 69126 -7.0317e+002 -3.6302e+002  1.1114e+002 64168 68996,69100,69074
 3.0000e+000 69371 -2.9000e+002 -9.4183e+001  1.6173e+002 63970 69466,69394,69273
 3.0000e+000 69348 -2.8375e+002 -1.1669e+002  1.1396e+002 63970 69394,69247,69221
 3.0000e+000 69325 -3.7322e+002 -1.5861e+002  9.4458e+001 63970 69195,69299,69221
 3.0000e+000 69420 -2.7941e+002 -1.4377e+002  1.5554e+002 63970 69299,69273,69394
 3.0000e+000 69443 -3.0024e+002 -1.8458e+002  1.0795e+002 63970 69299,69394,69221
 3.0000e+000 69492 -3.1203e+002 -1.2903e+002  1.5229e+002 63970 69247,69394,69466
 3.0000e+000 69904 -6.9381e+001 -2.4230e+002  8.5182e+001 63680 69705,69783,69731
 3.0000e+000 69881  4.7901e+001 -1.6840e+002  5.1998e+001 63680 69679,69783,69705
 3.0000e+000 69858 -2.1717e+002 -2.2884e+002  1.0480e+002 63680 69679,69809,69783
 3.0000e+000 69835 -1.6919e+002 -3.0190e+002  5.7162e+001 63680 69731,69783,69757
 3.0000e+000 70054 -1.5895e+001 -1.5786e+002  9.9894e+001 63476 70077,69953,69927
 3.0000e+000 70031  2.8960e+001 -6.9841e+001  1.4234e+002 63476 70077,69927,70005
 3.0000e+000 70103 -8.2634e+001 -9.8252e+001  6.2656e+001 63476 69979,69953,70077
 3.0000e+000 70126 -4.6913e+001 -1.8603e+001  9.8267e+001 63476 69979,70077,70005
 3.0000e+000 70325 -6.9353e+002 -3.4707e+002  1.8323e+002 63278 70149,70227,70175
 3.0000e+000 70302 -4.8592e+002 -1.9795e+002  2.7599e+002 63278 70149,70253,70227
 3.0000e+000 70279 -7.6606e+002 -5.2434e+002  1.7139e+002 63278 70175,70227,70201
 3.0000e+000 70597 -2.7032e+002 -5.8048e+001  1.2403e+002 63080 70372,70476,70424
 3.0000e+000 70574 -3.2356e+002 -1.3722e+002  9.9859e+001 63080 70372,70502,70476
 3.0000e+000 70551 -2.9032e+002 -1.2217e+002  1.2171e+002 63080 70424,70476,70450
 3.0000e+000 70528 -4.4275e+002 -1.5335e+002  2.0247e+002 63080 70372,70424,70398
 3.0000e+000 70847 -1.9397e+001 -1.6133e+002  6.0062e+001 62740 70870,70648,70622
 3.0000e+000 70824 -9.3782e+001 -1.3509e+002  9.4945e+001 62740 70870,70622,70752
 3.0000e+000 70801 -2.6869e+001 -1.6931e+002  4.5877e+001 62740 70648,70726,70700
 3.0000e+000 70778 -4.0529e+001 -1.9568e+002  5.0733e+001 62740 70648,70700,70674
 3.0000e+000 70896 -9.3115e+001 -1.9474e+002  4.8884e+001 62740 70726,70648,70870
 3.0000e+000 70919 -1.2682e+002 -1.4466e+002  9.3332e+001 62740 70726,70870,70752
 3.0000e+000 71022 -2.3033e+001  2.3033e+001  4.6052e+002 62520 70944,70996,70970
 3.0000e+000 71223 -6.0231e+002 -2.9432e+002  4.0204e+002 62230 71073,71151,71099
 3.0000e+000 71200 -5.0172e+002 -3.0511e+002  3.3620e+002 62230 71047,71151,71073
 3.0000e+000 71177 -4.2557e+002 -5.5317e+002  3.0620e+002 62230 71099,71151,71125
 3.0000e+000 71861 -7.7252e+001 -6.6221e+001  4.9235e+001 61712 71515,71697,71671
 3.0000e+000 71838 -6.2047e+001 -3.1745e+001  4.8198e-001 61712 71489,71697,71515
 3.0000e+000 71815 -5.5422e+002 -1.5237e+002  2.3507e+002 61712 71884,71541,71515
 3.0000e+000 71792 -3.7023e+002 -1.5205e+001  1.7411e+002 61712 71884,71515,71671
 3.0000e+000 71769 -1.3021e+002 -3.3223e+002  1.3177e+002 61712 71541,71619,71593
 3.0000e+000 71746 -9.7498e+001 -6.6630e+001  1.4662e+002 61712 71619,71671,71645
 3.0000e+000 71723 -4.2326e+002 -5.1731e+002  2.7503e+002 61712 71541,71593,71567
 3.0000e+000 71910 -3.7007e+002 -2.8997e+002  3.0780e+002 61712 71619,71541,71884
 3.0000e+000 71933 -2.5126e+002 -1.9707e+002  2.6524e+002 61712 71619,71884,71671
 3.0000e+000 72230 -4.8973e+002 -3.5371e+002  9.9999e+001 61208 72253,72060,72008
 3.0000e+000 72207 -4.6286e+002 -2.1804e+002  8.9253e+001 61208 72253,72008,71982
 3.0000e+000 72184 -4.2089e+002 -1.3416e+002  5.0946e+001 61208 71982,72112,72086
 3.0000e+000 72161 -6.8623e+002 -3.5052e+002  1.7633e+002 61208 72008,72060,72034
 3.0000e+000 72138 -2.5260e+002 -7.4426e+001  1.3969e+002 61208 71956,72112,71982
 3.0000e+000 72279 -4.7985e+002 -2.5478e+002  4.3521e+001 61208 72086,72060,72253
 3.0000e+000 72302 -4.9466e+002 -1.7722e+002  3.2701e+001 61208 72086,72253,71982
 3.0000e+000 72761 -2.3997e+002 -1.9099e+002  9.0385e+001 60804 72487,72617,72513
 3.0000e+000 72738 -3.0313e+002 -2.4239e+002  1.2094e+002 60804 72487,72643,72617
 3.0000e+000 72715 -7.7386e+001 -4.4775e+002  1.0108e+002 60804 72565,72617,72591
 3.0000e+000 72692 -2.7171e+002 -2.4841e+002  1.4590e+002 60804 72513,72617,72565
 3.0000e+000 72669 -2.8005e+002 -3.1047e+002  7.5287e+001 60804 72513,72565,72539
 3.0000e+000 72911 -2.3033e+001  2.3033e+001  4.6052e+002 60556 72784,72836,72810
 3.0000e+000 72888  3.9591e+002  1.9318e+002  2.7271e+002 60556 72784,72862,72836
 3.0000e+000 73468 -1.6010e+002 -1.6871e+002  1.0154e+002 60244 73491,73226,73200
 3.0000e+000 73445 -2.0725e+002 -1.7350e+002  1.6281e+002 60244 73563,73491,73200
 3.0000e+000 73422 -3.6452e+002 -1.0916e+002  1.7829e+002 60244 73563,73200,73174
 3.0000e+000 73399 -1.5678e+002 -2.5627e+002  9.7996e+001 60244 73226,73278,73252
 3.0000e+000 73376 -2.6393e+002 -1.7194e+002  1.3650e+002 60244 73122,73304,73278
 3.0000e+000 73353 -3.0819e+002 -2.1986e+002  1.1266e+002 60244 73096,73304,73122
 3.0000e+000 73330 -4.8025e+002 -1.0089e+002 -6.6384e+001 60244 73122,73174,73148
 3.0000e+000 73517 -2.8380e+002 -2.3008e+002  1.2960e+002 60244 73278,73226,73491
 3.0000e+000 73540 -2.6786e+002 -1.8844e+002  1.2687e+002 60244 73278,73491,73122
 3.0000e+000 73589 -4.3628e+002 -2.4668e+002  1.3070e+002 60244 73122,73491,73563
 3.0000e+000 73612 -5.8374e+002 -1.7330e+002  1.5531e+002 60244 73122,73563,73174
 3.0000e+000 73762 -1.1951e+002 -2.7423e+002  2.9213e+002 59875 73661,73713,73687
 3.0000e+000 73739 -3.4561e+002 -1.7636e+002  2.1197e+002 59875 73635,73713,73661
 3.0000e+000 74191 -1.8566e+002 -4.2484e+002  2.9156e+002 59478 74214,73894,73868
 3.0000e+000 74168 -3.4422e+002 -4.1612e+002  3.1363e+002 59478 74214,73868,74050
 3.0000e+000 74145 -3.4636e+002 -4.5388e+002  1.6039e+002 59478 73894,73946,73920
 3.0000e+000 74122 -2.8531e+002 -4.1829e+002  1.4073e+002 59478 73894,73998,73946
 3.0000e+000 74099 -7.2928e+002 -4.2707e+002  4.6805e+002 59478 73998,74050,74024
 3.0000e+000 74076 -3.6785e+002 -5.0947e+002  9.6519e+001 59478 73946,73998,73972
 3.0000e+000 74240 -3.3053e+002 -3.7545e+002  2.2868e+002 59478 73998,73894,74214
 3.0000e+000 74263 -4.8482e+002 -3.7429e+002  2.2559e+002 59478 73998,74214,74050
 3.0000e+000 74720 -3.0929e+002 -1.9597e+002  1.1741e+002 58774 74472,74602,74498
 3.0000e+000 74697 -3.3179e+002 -2.3533e+002  9.6358e+001 58774 74446,74602,74472
 3.0000e+000 74674 -3.5188e+002 -1.7379e+002  1.2806e+002 58774 74498,74576,74524
 3.0000e+000 74651 -3.2435e+002 -1.9331e+002  1.0647e+002 58774 74498,74602,74576
 3.0000e+000 74628 -3.5182e+002 -1.7544e+002  1.2883e+002 58774 74524,74576,74550
 3.0000e+000 75226 -2.6034e+002 -2.2615e+002  1.5054e+002 58270 74955,75085,75033
 3.0000e+000 75203 -2.4653e+002 -2.7817e+002  1.5882e+002 58270 74929,75085,74955
 3.0000e+000 75180 -3.0388e+002 -2.0093e+002  1.9271e+002 58270 75033,75085,75059
 3.0000e+000 75157 -3.8101e+002 -3.2905e+002  1.1944e+002 58270 74955,75007,74981
 3.0000e+000 75134 -2.0758e+002 -1.9978e+002  6.2563e+001 58270 74955,75033,75007
 3.0000e+000 75111 -3.9525e+001 -2.7713e+002  9.6718e+001 58270 74903,75085,74929
 3.0000e+000 75425 -2.6209e+002 -1.9684e+002  1.4509e+002 57830 75448,75301,75249
 3.0000e+000 75402 -2.0227e+002 -5.2376e+001  8.3276e+001 57830 75448,75249,75353
 3.0000e+000 75379 -3.3947e+002 -3.9847e+002  1.0593e+002 57830 75520,75301,75275
 3.0000e+000 75474 -2.5352e+002 -2.8216e+002  2.0890e+002 57830 75327,75301,75448
 3.0000e+000 75497 -2.3642e+002 -2.1937e+002  1.4459e+002 57830 75327,75448,75353
 3.0000e+000 75546 -1.7165e+002 -2.5847e+002  4.2072e+001 57830 75249,75301,75520
 3.0000e+000 76261 -1.2910e+002 -2.4956e+002  1.3130e+002 57426 76284,76097,76071
 3.0000e+000 76238 -1.2300e+002 -1.5779e+002  1.4206e+002 57426 75889,76097,75915
 3.0000e+000 76215 -2.0321e+002 -2.6646e+002  1.4335e+002 57426 76428,76284,76071
 3.0000e+000 76192 -1.4708e+002 -2.3242e+002  7.7422e+001 57426 76356,75941,75915
 3.0000e+000 76169 -2.0347e+002 -2.3346e+002  1.3956e+002 57426 76428,76071,76019
 3.0000e+000 76146 -2.2304e+002 -3.0160e+002  1.2814e+002 57426 76019,76071,76045
 3.0000e+000 76123 -2.2312e+002 -2.3702e+002  1.9365e+002 57426 75967,76019,75993
 3.0000e+000 76310 -1.4474e+002 -2.8342e+002  1.0217e+002 57426 75915,76097,76284
 3.0000e+000 76333 -1.6087e+002 -2.5963e+002  8.3493e+001 57426 76356,75915,76284
 3.0000e+000 76382 -1.8351e+002 -1.9708e+002  1.0332e+002 57426 75967,75941,76356
 3.0000e+000 76405 -1.9016e+002 -2.1401e+002  1.0516e+002 57426 75967,76356,76284
 3.0000e+000 76454 -1.9319e+002 -2.3498e+002  1.3504e+002 57426 75967,76284,76428
 3.0000e+000 76477 -2.0623e+002 -2.1570e+002  1.3643e+002 57426 75967,76428,76019
 3.0000e+000 76953 -2.0344e+002 -3.4276e+002  1.8746e+002 56908 76976,76711,76685
 3.0000e+000 76930 -2.0349e+002 -3.4741e+002  1.9645e+002 56908 77048,76976,76685
 3.0000e+000 76907 -3.9212e+002 -3.6951e+002  2.8723e+002 56908 77048,76685,76633
 3.0000e+000 76884 -5.7020e+002 -5.2308e+002  3.1194e+002 56908 76711,76789,76763
 3.0000e+000 76861 -3.1333e+002 -1.7655e+002  1.2987e+002 56908 76581,76789,76607
 3.0000e+000 76838 -4.9656e+002 -2.5959e+002  2.0915e+002 56908 76711,76763,76737
 3.0000e+000 76815 -9.2973e+002 -7.2401e+002  5.2497e+002 56908 76633,76685,76659
 3.0000e+000 77002 -2.5246e+002 -3.6441e+002  1.9066e+002 56908 76789,76711,76976
 3.0000e+000 77025 -2.5640e+002 -1.6806e+002  1.1888e+002 56908 76789,76976,76607
 3.0000e+000 77074 -4.9550e+002 -3.4432e+002  1.9632e+002 56908 76607,76976,77048
 3.0000e+000 77097 -5.9288e+002 -2.8411e+002  2.7741e+002 56908 76607,77048,76633
 3.0000e+000 77475 -1.9800e+002 -2.1138e+002  1.8901e+002 56546 77570,77498,77279
 3.0000e+000 77452 -1.4192e+002 -3.3750e+002  2.3679e+002 56546 77498,77227,77357
 3.0000e+000 77429 -2.2277e+002 -2.3982e+002  2.1581e+002 56546 77570,77279,77253
 3.0000e+000 77406 -3.2224e+002 -4.2311e+002  2.7601e+002 56546 77201,77357,77227
 3.0000e+000 77383 -2.4626e+002 -2.3764e+002  7.5050e+001 56546 77279,77331,77305
 3.0000e+000 77524 -1.7641e+002 -7.0366e+001  1.7972e+002 56546 77331,77279,77498
 3.0000e+000 77547 -8.4860e+001 -1.9174e+002  2.9104e+002 56546 77331,77498,77357
 3.0000e+000 77596 -2.1579e+002 -2.2227e+002  2.4275e+002 56546 77227,77498,77570
 3.0000e+000 77619 -2.5262e+002 -3.0552e+002  2.6900e+002 56546 77227,77570,77253
 3.0000e+000 77818 -2.2892e+002 -2.3831e+002  1.9888e+002 56042 77841,77694,77668
 3.0000e+000 77795 -1.9229e+002 -2.1194e+002  1.6075e+002 56042 77841,77668,77746
 3.0000e+000 77772 -2.4394e+002 -1.4355e+002  1.3958e+002 56042 77642,77746,77668
 3.0000e+000 77867 -2.5493e+002 -2.6785e+002  2.2856e+002 56042 77720,77694,77841
 3.0000e+000 77890 -2.1181e+002 -2.3543e+002  1.8954e+002 56042 77720,77841,77746
 3.0000e+000 78349 -3.5036e+002 -1.4380e+002  1.6923e+002 55538 78075,78127,78101
 3.0000e+000 78326 -4.4222e+002 -2.5977e+002  9.6628e+001 55538 78075,78205,78127
 3.0000e+000 78303 -4.4025e+002 -1.0967e+002  9.4092e+001 55538 78075,78231,78205
 3.0000e+000 78280 -3.2804e+002 -4.1092e+002  2.2377e+002 55538 78127,78179,78153
 3.0000e+000 78257 -3.0484e+002 -2.6472e+002  8.2964e+001 55538 78127,78205,78179
 3.0000e+000 78806 -2.0031e+002 -2.0690e+002  8.0037e+001 55034 78829,78636,78610
 3.0000e+000 78783 -2.2819e+002 -2.0947e+002  9.1199e+001 55034 78901,78829,78610
 3.0000e+000 78760 -1.9623e+002 -2.2140e+002  1.0404e+002 55034 78901,78610,78584
 3.0000e+000 78737 -2.3661e+002 -1.9786e+002  1.0780e+002 55034 78558,78688,78662
 3.0000e+000 78714 -2.5583e+002 -2.0699e+002  1.9715e+002 55034 78532,78688,78558
 3.0000e+000 78855 -2.3256e+002 -2.2730e+002  7.0645e+001 55034 78662,78636,78829
 3.0000e+000 78878 -2.4286e+002 -1.9906e+002  1.0589e+002 55034 78662,78829,78558
 3.0000e+000 78927 -2.0072e+002 -1.7953e+002  1.1176e+002 55034 78558,78829,78901
 3.0000e+000 78950 -1.8690e+002 -1.9506e+002  1.2549e+002 55034 78558,78901,78584
 3.0000e+000 79407 -1.2405e+002 -1.3081e+002  1.6180e+002 54430 79430,79237,79159
 3.0000e+000 79384 -9.1337e+001 -2.3185e+002  4.6533e+001 54430 79430,79159,79133
 3.0000e+000 79361 -1.8775e+002 -1.9765e+002  8.0072e+001 54430 79237,79289,79263
 3.0000e+000 79338 -1.4865e+002 -1.9257e+002  1.0879e+002 54430 79185,79237,79211
 3.0000e+000 79315 -2.9679e+002 -2.0389e+002  2.0166e+002 54430 79159,79237,79185
 3.0000e+000 79456 -1.4619e+002 -2.5029e+002  1.2649e+002 54430 79289,79237,79430
 3.0000e+000 79479 -1.2575e+002 -4.1324e+002  3.5499e+001 54430 79289,79430,79133
 3.0000e+000 79936 -1.4301e+002 -1.4214e+002  1.5869e+002 53919 79662,79766,79688
 3.0000e+000 79913 -5.2114e+002 -2.6623e+002  2.9649e+002 53919 79662,79818,79766
 3.0000e+000 79890 -6.6267e+002 -2.5167e+002  8.3863e+001 53919 79766,79818,79792
 3.0000e+000 79867 -3.4988e+002 -3.1995e+002  1.8612e+002 53919 79714,79766,79740
 3.0000e+000 79844 -3.6469e+002 -2.7519e+002  2.2450e+002 53919 79688,79766,79714
 3.0000e+000 80037 -1.7079e+002 -4.2000e+002  2.3520e+002 53671 79959,80011,79985
 3.0000e+000 80405 -9.9810e+001 -2.7131e+002  7.8714e+001 53267 80108,80264,80238
 3.0000e+000 80382 -1.6989e+002 -2.1534e+002  9.7211e+001 53267 80082,80264,80108
 3.0000e+000 80359 -1.2414e+002 -3.5764e+002  1.4874e+002 53267 80108,80238,80134
 3.0000e+000 80336 -4.1949e+001 -1.1944e+002  1.1734e+002 53267 80134,80212,80186
 3.0000e+000 80313 -1.9555e+002 -2.9169e+002  2.3896e+002 53267 80134,80238,80212
 3.0000e+000 80290 -3.1988e+001 -1.7824e+002  8.4818e+001 53267 80134,80186,80160
 3.0000e+000 80915 -3.4478e+002 -4.7343e+002  6.9538e+001 52969 80644,80774,80748
 3.0000e+000 80892 -3.2002e+002 -2.3958e+002  1.8398e+001 52969 80618,80774,80644
 3.0000e+000 80869 -4.2798e+002 -5.8779e+002  1.0281e+001 52969 80644,80748,80670
 3.0000e+000 80846 -4.0448e+002 -2.5674e+002  2.7203e+001 52969 80592,80774,80618
 3.0000e+000 80823 -5.6649e+002 -5.1928e+002  8.0145e+001 52969 80670,80722,80696
 3.0000e+000 80800 -3.5846e+002 -4.3454e+002  2.9694e+001 52969 80670,80748,80722
 3.0000e+000 81266  4.9165e+001 -1.2651e+001  1.5922e+001 52565 81041,81145,81067
 3.0000e+000 81243  4.3615e+001 -4.1974e+001  1.8248e+001 52565 81041,81171,81145
 3.0000e+000 81220 -8.3553e+001 -3.1505e+002  6.2273e+001 52565 81067,81119,81093
 3.0000e+000 81197  6.4582e+001  1.1156e+001  2.3065e+001 52565 81067,81145,81119
 3.0000e+000 81723 -4.1895e+001  1.8687e+000  6.2363e+000 51904 81449,81527,81475
 3.0000e+000 81700 -6.1881e+001 -2.3693e+000  3.0802e+001 51904 81449,81579,81527
 3.0000e+000 81677 -2.2888e+002 -3.1262e+001  3.8019e+001 51904 81449,81605,81579
 3.0000e+000 81654 -1.4893e+002  6.4293e+000  2.2617e+001 51904 81527,81579,81553
 3.0000e+000 81631 -2.8817e+001  1.2012e+001  1.6562e-001 51904 81475,81527,81501
 3.0000e+000 82327 -2.9722e+002 -2.9120e+002  2.0586e+002 51321 82422,82350,82036
 3.0000e+000 82304 -3.2028e+002 -2.0827e+002  2.3097e+002 51321 82494,82350,81958
 3.0000e+000 82281 -3.0728e+002 -3.0667e+002  1.9149e+002 51321 82422,82036,82010
 3.0000e+000 82258 -3.4635e+002 -2.1787e+002  2.2850e+002 51321 82494,81958,81932
 3.0000e+000 82235 -3.2172e+002 -1.2884e+002  9.5928e+001 51321 82062,82114,82088
 3.0000e+000 82212 -7.7920e+002 -4.9214e+002  3.3206e+002 51321 81932,82140,82114
 3.0000e+000 82189 -3.1509e+002 -1.1752e+002  1.9206e+002 51321 81958,82010,81984
 3.0000e+000 82166 -1.4175e+002 -2.5267e+002  9.7741e+001 51321 81906,82140,81932
 3.0000e+000 82376 -3.0452e+002 -3.4565e+002  2.0140e+002 51321 82062,82036,82350
 3.0000e+000 82399 -3.0711e+002 -2.5781e+002  1.8923e+002 51321 82062,82350,82114
 3.0000e+000 82448 -2.8097e+002 -2.7389e+002  2.2386e+002 51321 81958,82350,82422
 3.0000e+000 82471 -2.8838e+002 -2.8762e+002  2.0985e+002 51321 81958,82422,82010
 3.0000e+000 82520 -3.3051e+002 -2.1565e+002  2.1618e+002 51321 82114,82350,82494
 3.0000e+000 82543 -3.3457e+002 -2.1664e+002  2.1312e+002 51321 82114,82494,81932
 3.0000e+000 83019 -2.7600e+002 -4.0623e+002  2.2868e+002 50817 82673,82751,82699
 3.0000e+000 82996 -3.2022e+002 -3.3785e+002  1.5917e+002 50817 83042,82673,82855
 3.0000e+000 82973 -3.5526e+002 -3.9944e+002  1.4350e+002 50817 83042,82855,82803
 3.0000e+000 82950 -4.2682e+002 -5.2298e+002  1.3317e+002 50817 82751,82803,82777
 3.0000e+000 82927 -3.6980e+002 -3.7926e+002  1.3412e+002 50817 82647,82855,82673
 3.0000e+000 82904 -4.9068e+002 -4.7507e+002  2.5944e+002 50817 82803,82855,82829
 3.0000e+000 82881 -5.3573e+002 -8.5119e+002  3.5922e+002 50817 82699,82751,82725
 3.0000e+000 83068 -2.5549e+002 -3.8243e+002  2.0493e+002 50817 82751,82673,83042
 3.0000e+000 83091 -2.9674e+002 -4.4765e+002  1.8404e+002 50817 82751,83042,82803
 3.0000e+000 83290 -3.1590e+002 -1.3408e+002  1.7843e+002 50356 83313,83166,83140
 3.0000e+000 83267 -3.1565e+002 -2.3139e+002  1.5277e+002 50356 83515,83313,83140
 3.0000e+000 83244 -3.7394e+002 -2.0163e+002  5.8123e+001 50356 83515,83140,83385
 3.0000e+000 83339 -4.1960e+002 -1.8637e+002  2.4280e+002 50356 83192,83166,83313
 3.0000e+000 83362 -2.2559e+002 -1.5166e+002  2.1798e+002 50356 83192,83313,83218
 3.0000e+000 83411 -1.2092e+002 -4.4749e+001  7.0106e+001 50356 83114,83218,83385
 3.0000e+000 83541 -1.5587e+002 -1.5904e+002  1.3067e+002 50356 83218,83313,83515
 3.0000e+000 83564 -1.7594e+002 -1.1505e+002  4.6074e+001 50356 83218,83515,83385
 3.0000e+000 83893 -3.7721e+002 -2.8237e+002  6.6199e+001 49552 83720,83798,83746
 3.0000e+000 83870 -2.7084e+002 -8.9731e+001  1.1167e+002 49552 83694,83798,83720
 3.0000e+000 83847 -2.3567e+002 -1.0417e+002  1.0916e+002 49552 83668,83798,83694
 3.0000e+000 83824 -5.4415e+002 -1.5661e+002 -9.2548e+000 49552 83746,83798,83772
 3.0000e+000 84141 -3.5681e+002 -2.4361e+002  1.4228e+002 49212 84164,84020,83942
 3.0000e+000 84118 -3.3402e+002 -1.6550e+002  2.0832e+002 49212 84164,83942,83916
 3.0000e+000 84095 -3.1011e+002 -3.0809e+002  9.9261e+001 49212 83942,84020,83968
 3.0000e+000 84072 -2.4352e+002 -4.8851e+001  8.5495e+001 49212 83968,84020,83994
 3.0000e+000 84190 -4.1890e+002 -2.4024e+002  9.4469e+001 49212 84046,84020,84164
 3.0000e+000 84213 -3.8129e+002 -1.8508e+002  1.5873e+002 49212 84046,84164,83916
 3.0000e+000 84800 -8.3604e+001 -1.0606e+002  7.3817e+001 48865 84503,84633,84555
 3.0000e+000 84777 -9.7754e+001 -1.0995e+002  6.9913e+001 48865 84503,84659,84633
 3.0000e+000 84754 -8.5526e+001 -1.1948e+002  6.4209e+001 48865 84555,84633,84581
 3.0000e+000 84731 -7.9055e+001 -2.7656e+002  1.2539e+002 48865 84581,84633,84607
 3.0000e+000 84708 -2.3300e+002 -1.6180e+002  7.8756e+001 48865 84503,84555,84529
 3.0000e+000 84685 -8.5807e+001 -1.1518e+002  2.2311e+001 48865 84477,84659,84503
 3.0000e+000 85355 -2.1026e+002 -2.4139e+002  4.4892e+001 48461 85378,85035,85009
 3.0000e+000 85332 -2.9479e+002 -3.0518e+002  8.2756e+001 48461 85378,85009,85165
 3.0000e+000 85309 -2.4834e+002 -3.2752e+002  1.2127e+002 48461 85450,85061,85035
 3.0000e+000 85286 -3.0400e+002 -3.0481e+002  7.6605e+001 48461 85009,85191,85165
 3.0000e+000 85263 -2.4979e+002 -2.6409e+002  1.7832e+002 48461 85087,85165,85113
 3.0000e+000 85240 -1.4913e+002 -4.0636e+002 -6.2966e+001 48461 84983,85191,85009
 3.0000e+000 85217 -2.0488e+002 -3.2018e+002  1.0633e+002 48461 85113,85165,85139
 3.0000e+000 85404 -2.6336e+002 -2.7155e+002  9.5261e+001 48461 85450,85035,85378
 3.0000e+000 85427 -3.2154e+002 -3.0127e+002  8.9492e+001 48461 85087,85378,85165
 3.0000e+000 85476 -2.6974e+002 -3.9594e+002  1.2253e+002 48461 85087,85061,85450
 3.0000e+000 85499 -2.9810e+002 -3.6546e+002  9.0338e+001 48461 85087,85450,85378
 3.0000e+000 86084 -8.8598e+001 -3.0542e+002  1.3338e+002 48057 86323,86107,85787
 3.0000e+000 86061 -1.5656e+002 -3.5519e+002  1.5858e+002 48057 86107,85761,85943
 3.0000e+000 86038 -2.2206e+002 -2.6607e+002  1.2109e+002 48057 86251,86179,85891
 3.0000e+000 86015 -2.2334e+002 -2.2668e+002  7.5998e+001 48057 86251,85891,85839
 3.0000e+000 85992 -1.9957e+002 -2.3045e+002  1.6258e+002 48057 85891,85943,85917
 3.0000e+000 85969 -2.8030e+002 -1.8155e+002  1.1385e+002 48057 85839,85891,85865
 3.0000e+000 86133 -1.1450e+002 -3.3947e+002  1.0561e+002 48057 85813,85787,86107
 3.0000e+000 86156 -1.7092e+002 -3.2189e+002  9.8341e+001 48057 86179,85813,86107
 3.0000e+000 86205 -1.7103e+002 -2.1505e+002  1.4151e+002 48057 85943,85891,86179
 3.0000e+000 86228 -1.0548e+002 -2.4913e+002  1.3692e+002 48057 85943,86179,86107
 3.0000e+000 86277 -1.3945e+002 -2.2285e+002  1.0542e+002 48057 85813,86179,86251
 3.0000e+000 86300 -1.8471e+002 -2.0508e+002  6.7431e+001 48057 85813,86251,85839
 3.0000e+000 86349 -7.9719e+001 -3.0115e+002  1.3494e+002 48057 85761,86107,86323
 3.0000e+000 86855 -8.6788e+001 -1.7974e+002  9.6398e+001 47545 86878,86584,86558
 3.0000e+000 86832 -1.1936e+002 -1.9399e+002  8.9940e+001 47545 86950,86878,86558
 3.0000e+000 86809 -1.3005e+002 -1.5558e+002  1.0476e+002 47545 86950,86558,86532
 3.0000e+000 86786 -8.6058e+001 -2.1743e+002  1.0198e+002 47545 86584,86662,86610
 3.0000e+000 86763 -2.0592e+002 -3.2068e+001  4.6436e+001 47545 86532,86714,86688
 3.0000e+000 86740 -1.2673e+002 -1.0811e+002  1.0478e+002 47545 86610,86662,86636
 3.0000e+000 86904 -9.2713e+001 -2.1802e+002  1.0175e+002 47545 86662,86584,86878
 3.0000e+000 86927 -6.1017e+001 -1.8611e+002  7.3157e+001 47545 86662,86878,86688
 3.0000e+000 86976 -8.5559e+001 -1.3750e+002  7.5673e+001 47545 86688,86878,86950
 3.0000e+000 86999 -1.1762e+002 -1.3601e+002  9.8913e+001 47545 86688,86950,86532
 3.0000e+000 87328 -7.3680e+002 -2.9916e+002  2.6308e+002 47048 87155,87207,87181
 3.0000e+000 87305 -2.7103e+002 -2.7684e+002  1.8430e+002 47048 87129,87207,87155
 3.0000e+000 87282 -5.6811e+002 -3.7389e+002  1.9895e+002 47048 87103,87207,87129
 3.0000e+000 87259 -8.6040e+002 -1.1392e+003  5.9750e+002 47048 87103,87233,87207
 3.0000e+000 87576 -1.5666e+002 -4.1291e+002  1.9448e+002 46701 87599,87429,87377
 3.0000e+000 87553 -2.2448e+002 -3.9136e+002  1.7059e+002 46701 87599,87377,87481
 3.0000e+000 87530 -1.8063e+002 -3.7471e+002  1.6859e+002 46701 87351,87481,87377
 3.0000e+000 87507 -1.7832e+002 -3.7617e+002  2.1200e+002 46701 87377,87429,87403
 3.0000e+000 87625 -1.9930e+002 -4.1129e+002  1.5374e+002 46701 87455,87429,87599
 3.0000e+000 87648 -3.1694e+002 -4.0977e+002  1.4393e+002 46701 87455,87599,87481
 3.0000e+000 87798 -3.4162e+001 -1.6099e+002  2.7757e+001 46239 87697,87749,87723
 3.0000e+000 87775 -1.0728e+002 -3.8641e+002  3.9060e+001 46239 87671,87749,87697
 3.0000e+000 88308 -3.9177e+002 -5.0331e+002  1.0529e+002 45735 88089,88167,88141
 3.0000e+000 88285 -2.5587e+002 -2.6427e+002  1.5983e+002 45735 88011,88167,88089
 3.0000e+000 88262 -1.3383e+001 -2.4037e+002  4.8000e+001 45735 87985,88167,88011
 3.0000e+000 88239 -8.1880e+001 -9.8731e+002  2.1960e+002 45735 88011,88089,88063
 3.0000e+000 88216 -5.1824e+002 -5.6084e+002  9.2712e+001 45735 88089,88141,88115
 3.0000e+000 88193 -3.8321e+002 -1.4510e+003 -2.5778e+000 45735 88011,88063,88037
 3.0000e+000 88686 -3.2707e+002 -1.2823e+002  2.0897e+002 45316 88438,88516,88490
 3.0000e+000 88663 -3.0587e+002  9.9781e+001  3.1275e+002 45316 88438,88542,88516
 3.0000e+000 88640 -1.6211e+002 -3.3747e+002  3.7197e+002 45316 88438,88568,88542
 3.0000e+000 88617 -3.4234e+002 -2.7299e+002  1.7478e+002 45316 88438,88490,88464
 3.0000e+000 88594 -3.2134e+002 -3.6411e+002  3.8058e+002 45316 88412,88568,88438
 3.0000e+000 88934 -5.6715e+002 -5.3009e+002  3.3396e+002 44812 88957,88735,88709
 3.0000e+000 88911 -3.1561e+002 -3.0892e+002  1.4175e+002 44812 88957,88709,88839
 3.0000e+000 88888 -2.9230e+002 -2.5065e+002  8.1151e+001 44812 89029,88787,88761
 3.0000e+000 88865 -2.5405e+002 -2.4982e+002  9.5432e+001 44812 88787,88839,88813
 3.0000e+000 88983 -1.6523e+002 -3.1552e+002  2.1103e+002 44812 88761,88735,88957
 3.0000e+000 89006 -2.7604e+002 -2.8384e+002  7.0412e+001 44812 89029,88761,88957
 3.0000e+000 89055 -2.7019e+002 -2.9253e+002  9.5227e+001 44812 88839,88787,89029
 3.0000e+000 89078 -2.7816e+002 -3.5460e+002  9.2868e+001 44812 88839,89029,88957
 3.0000e+000 89228 -9.0697e+001 -2.6031e+002  1.8346e+002 44408 89127,89179,89153
 3.0000e+000 89205 -2.3684e+001 -3.2289e-002  1.5574e+000 44408 89101,89179,89127
 3.0000e+000 89787 -3.3313e+002 -1.8748e+002  1.7472e+002 43854 89810,89545,89519
 3.0000e+000 89764 -3.6471e+002 -2.5423e+002  1.5323e+002 43854 89810,89519,89467
 3.0000e+000 89741 -3.5354e+002 -3.5321e+002  1.4849e+002 43854 89954,89882,89597
 3.0000e+000 89718 -3.5378e+002 -3.6635e+002  1.4421e+002 43854 89954,89597,89571
 3.0000e+000 89695 -1.6679e+002 -2.0544e+002  1.3758e+002 43854 89415,89623,89467
 3.0000e+000 89672 -1.5199e+002 -1.5957e+002  9.9466e+001 43854 89467,89519,89493
 3.0000e+000 89649 -8.5141e+001 -1.6639e+002  1.0147e+002 43854 89415,89467,89441
 3.0000e+000 89836 -3.4458e+002 -1.9509e+002  1.8559e+002 43854 89882,89545,89810
 3.0000e+000 89859 -1.8866e+002 -2.2216e+002  1.2307e+002 43854 89623,89810,89467
 3.0000e+000 89908 -3.4092e+002 -3.9977e+002  2.0807e+002 43854 89623,89597,89882
 3.0000e+000 89931 -3.2363e+002 -3.6772e+002  1.8852e+002 43854 89623,89882,89810
 3.0000e+000 89980 -3.5514e+002 -3.3378e+002  2.2375e+002 43854 89545,89882,89954
 3.0000e+000 90003 -3.7588e+002 -3.9898e+002  2.2885e+002 43854 89545,89954,89571
 3.0000e+000 90251 -1.5224e+002 -1.2972e+002  9.8388e+001 43492 90026,90078,90052
 3.0000e+000 90228 -3.2986e+002 -2.1627e+002  1.1363e+002 43492 90274,90026,90156
 3.0000e+000 90205 -3.1079e+002 -2.4992e+002  1.1485e+002 43492 90346,90274,90156
 3.0000e+000 90182 -3.2558e+002 -3.4939e+002  2.7457e+002 43492 90346,90156,90130
 3.0000e+000 90300 -2.3331e+002 -2.6615e+002  1.4637e+002 43492 90078,90026,90274
 3.0000e+000 90323 -3.6401e+002 -2.9516e+002  1.5840e+002 43492 90078,90274,90104
 3.0000e+000 90372 -5.0324e+002 -3.8172e+002  2.2392e+002 43492 90104,90274,90346
 3.0000e+000 90395 -5.2422e+002 -5.0369e+002  3.8695e+002 43492 90104,90346,90130
 3.0000e+000 90594 -1.6824e+002 -4.8812e+002  1.0520e+002 43052 90418,90496,90444
 3.0000e+000 90571 -3.0963e+002 -6.0657e+002  1.5617e+002 43052 90418,90522,90496
 3.0000e+000 90548 -2.9013e+002 -3.3366e+002  1.5993e+002 43052 90444,90496,90470
 3.0000e+000 91074 -4.0671e+002 -5.4343e+002  3.0841e+002 42434 91241,90884,90858
 3.0000e+000 91051 -7.8875e+002 -7.1974e+002 -3.9705e+001 42434 90702,90910,90884
 3.0000e+000 91028 -2.1511e+002 -4.6939e+002  2.1795e+002 42434 91097,90754,90702
 3.0000e+000 91005 -3.7335e+002 -3.4697e+002  2.9065e+002 42434 91241,90858,91097
 3.0000e+000 90982 -1.9989e+002 -2.7913e+002  6.0976e+001 42434 91169,90806,90780
 3.0000e+000 90959 -1.3216e+002 -3.1766e+002  5.7931e+000 42434 90806,90858,90832
 3.0000e+000 90936 -2.5418e+002 -4.8077e+002  2.0756e+002 42434 90702,90754,90728
 3.0000e+000 91123 -4.0781e+002 -5.3082e+002  1.6330e+002 42434 90780,90754,91097
 3.0000e+000 91146 -3.6999e+002 -3.9399e+002  2.1461e+002 42434 91169,90780,91097
 3.0000e+000 91195 -1.3496e+002 -2.1343e+002 -8.7365e+000 42434 90858,90806,91169
 3.0000e+000 91218 -1.8975e+002 -1.0683e+002  1.1295e+002 42434 90858,91169,91097
 3.0000e+000 91267 -2.8610e+002 -7.7535e+002  2.0994e+002 42434 90702,90884,91241
 3.0000e+000 91290 -2.7344e+002 -6.0406e+002  1.9514e+002 42434 90702,91241,91097
 3.0000e+000 91698 -5.4340e+001 -2.8439e+002  1.0721e+002 41773 91473,91577,91499
 3.0000e+000 91675 -1.2338e+002 -3.3406e+002  1.3779e+002 41773 91473,91603,91577
 3.0000e+000 91652 -1.5917e+002 -2.2430e+002  3.5283e+001 41773 91499,91551,91525
 3.0000e+000 91629 -1.9769e+002 -2.4890e+002  1.0431e+002 41773 91499,91577,91551
 3.0000e+000 92044 -2.1096e+002 -2.7414e+002  1.7762e+002 41383 91773,91877,91851
 3.0000e+000 92021 -1.4195e+002 -3.2080e+002  1.1427e+002 41383 91747,91877,91773
 3.0000e+000 91998 -1.6702e+002 -1.9155e+002  1.3398e+002 41383 91773,91851,91799
 3.0000e+000 91975 -1.1400e+002 -2.1898e+002  2.9072e+001 41383 91747,91903,91877
 3.0000e+000 91952 -4.6564e+001 -1.7712e+002  4.9807e+001 41383 91721,91903,91747
 3.0000e+000 91929 -5.4722e+001 -2.2039e+002  8.2118e+001 41383 91799,91851,91825
 3.0000e+000 92601 -2.9543e+002 -2.7580e+002  8.9878e+001 40979 92229,92411,92307
 3.0000e+000 92578 -4.2885e+002 -2.8006e+002  7.2327e+001 40979 92229,92437,92411
 3.0000e+000 92555 -2.5551e+002 -2.3054e+002  6.6677e+001 40979 92229,92307,92281
 3.0000e+000 92532 -2.5246e+002 -2.9445e+002  1.3068e+002 40979 92333,92411,92385
 3.0000e+000 92509 -2.5619e+002 -2.5513e+002  9.9353e+001 40979 92307,92411,92333
 3.0000e+000 92486 -2.9009e+002 -2.8148e+002  4.5909e+001 40979 92229,92281,92255
 3.0000e+000 92463 -2.3975e+001 -2.8151e+002  8.5580e+001 40979 92333,92385,92359
 3.0000e+000 93235 -3.4489e+002 -2.1520e+002  2.6340e+002 40525 92941,92993,92967
 3.0000e+000 93212 -4.3511e+002 -1.1497e+002  7.9915e+001 40525 93258,92941,92889
 3.0000e+000 93189 -3.2823e+002 -5.1598e+001  3.4240e+001 40525 93258,92889,93071
 3.0000e+000 93166 -3.7129e+002 -2.1935e+002  7.2577e+001 40525 92889,92941,92915
 3.0000e+000 93143 -3.4300e+002 -4.7520e+001  3.3040e+001 40525 92863,93071,92889
 3.0000e+000 93120 -3.4567e+002 -2.2840e+002  1.5493e+002 40525 92993,93071,93019
 3.0000e+000 93097 -3.9863e+002 -1.7655e+002  1.3889e+002 40525 93019,93071,93045
 3.0000e+000 93284 -5.0133e+002 -2.2776e+002  2.0934e+002 40525 92993,92941,93258
 3.0000e+000 93307 -2.8091e+002 -8.0539e+001  1.4083e+002 40525 92993,93258,93071
 3.0000e+000 93636 -3.7776e+002 -3.2141e+002  3.2205e+002 40235 93437,93541,93515
 3.0000e+000 93613 -3.1772e+002 -4.3653e+002  2.8733e+002 40235 93411,93541,93437
 3.0000e+000 93590 -7.4081e+001 -3.7744e+002  1.0024e+002 40235 93463,93515,93489
 3.0000e+000 93567 -1.8706e+002 -2.4345e+002  5.8248e+001 40235 93437,93515,93463
 3.0000e+000 94014 -4.1154e+002 -3.7645e+002  2.0084e+002 39873 93766,93870,93792
 3.0000e+000 93991 -3.2683e+002 -4.1765e+002  1.5626e+002 39873 93766,93896,93870
 3.0000e+000 93968 -3.9078e+002 -2.9822e+002  2.0832e+002 39873 93792,93870,93844
 3.0000e+000 93945 -2.6765e+002 -2.1097e+002  1.4725e+002 39873 93792,93844,93818
 3.0000e+000 93922 -2.4335e+002 -3.3919e+002  2.4055e+002 39873 93740,93896,93766
 3.0000e+000 94164 -4.7616e+001 -2.1316e+002  8.7996e+001 39461 94037,94089,94063
 3.0000e+000 94141 -1.2672e+002 -5.8748e+002  2.2236e+002 39461 94037,94115,94089
 3.0000e+000 94363 -2.3072e+002 -1.4342e+002  1.1673e+002 39057 94386,94239,94213
 3.0000e+000 94340 -1.0495e+002 -4.6255e+001  6.6215e+001 39057 94386,94213,94187
 3.0000e+000 94317 -2.2643e+002 -1.5127e+002  1.0837e+002 39057 94187,94291,94265
 3.0000e+000 94412 -8.2139e+001 -1.0961e+002  1.0935e+002 39057 94458,94386,94265
 3.0000e+000 94435 -1.5413e+002 -1.4173e+002  9.6283e+001 39057 94265,94386,94187
 3.0000e+000 94484 -1.8592e+002 -2.0245e+002  1.5453e+002 39057 94239,94386,94458
 3.0000e+000 94896 -4.0457e+002 -2.7892e+002  1.9220e+002 38396 94919,94775,94723
 3.0000e+000 94873 -4.6278e+002 -2.2377e+002  1.9621e+002 38396 94919,94723,94697
 3.0000e+000 94850 -3.0031e+002 -2.4808e+002  1.2881e+002 38396 94723,94775,94749
 3.0000e+000 94827 -2.1475e+002 -1.3586e+002  1.0603e+002 38396 94671,94801,94697
 3.0000e+000 94945 -3.9433e+002 -2.4005e+002  1.7212e+002 38396 94801,94775,94919
 3.0000e+000 94968 -4.2722e+002 -1.6785e+002  1.6545e+002 38396 94801,94919,94697
 3.0000e+000 95265 -3.9756e+002 -3.9021e+002  1.8692e+002 37835 95017,95069,95043
 3.0000e+000 95242 -4.1621e+002 -3.6160e+002  1.9554e+002 37835 95288,95069,95017
 3.0000e+000 95219 -4.4057e+002 -4.0802e+002  2.7578e+002 37835 95288,95017,94991
 3.0000e+000 95196 -4.8075e+002 -4.2152e+002  2.4961e+002 37835 94991,95147,95121
 3.0000e+000 95173 -2.5688e+002 -2.0979e+002  1.6233e+002 37835 95069,95121,95095
 3.0000e+000 95314 -4.0491e+002 -2.4876e+002  1.5422e+002 37835 95121,95069,95288
 3.0000e+000 95337 -4.2970e+002 -3.2108e+002  2.2878e+002 37835 95121,95288,94991
 3.0000e+000 95558  5.8112e+001  2.5616e+001  6.9266e+001 37423 95408,95460,95434
 3.0000e+000 95535 -8.5075e+001 -3.9027e+002  1.9239e+002 37423 95382,95460,95408
 3.0000e+000 95512 -1.9846e+002 -4.8621e+002  2.3379e+002 37423 95382,95486,95460
 3.0000e+000 95891 -1.0529e+002 -3.3791e+002  1.0623e+002 37225 95666,95718,95692
 3.0000e+000 95868 -3.3510e+002 -5.6155e+002  1.9912e+002 37225 95666,95796,95718
 3.0000e+000 95845 -2.3151e+002 -3.1962e+002  5.8017e+001 37225 95718,95770,95744
 3.0000e+000 95822 -1.6486e+002 -2.9296e+002  6.3096e+001 37225 95718,95796,95770
 3.0000e+000 95992 -3.7412e+001 -1.9013e+002  8.6088e+001 36735 95914,95966,95940
 3.0000e+000 96142 -4.2970e+002 -1.9149e+002  2.3758e+002 36331 96297,96067,96041
 3.0000e+000 96119 -3.4427e+002 -1.9386e+002  2.3215e+002 36331 96165,96041,96015
 3.0000e+000 96191 -4.0739e+002 -1.8671e+002  2.2687e+002 36331 96297,96041,96165
 3.0000e+000 96323 -4.7228e+002 -2.0416e+002  2.8592e+002 36331 96093,96067,96297
 3.0000e+000 96346 -4.0554e+002 -1.8022e+002  2.7746e+002 36331 96093,96297,96165
 3.0000e+000 96714 -2.4470e+002 -3.7782e+002  2.5036e+002 36041 96737,96495,96443
 3.0000e+000 96691 -3.4601e+002 -2.6800e+002  2.5965e+002 36041 96737,96443,96417
 3.0000e+000 96668 -1.3456e+002 -4.0408e+002  4.3262e+001 36041 96443,96495,96469
 3.0000e+000 96645 -7.3895e+001 -6.2761e+001  1.2694e+002 36041 96391,96521,96417
 3.0000e+000 96622 -1.6414e+001 -1.2539e+002  1.1035e+002 36041 96391,96547,96521
 3.0000e+000 96599 -3.1018e+001 -1.2681e+002  1.0650e+002 36041 96391,96573,96547
 3.0000e+000 96763 -1.0538e+002 -2.8035e+002  2.0786e+002 36041 96521,96495,96737
 3.0000e+000 96786 -2.9329e+002 -2.3750e+002  2.4182e+002 36041 96521,96737,96417
 3.0000e+000 96936 -2.4994e+002 -1.5891e+002  1.5442e+002 35637 97031,96959,96835
 3.0000e+000 96913 -3.0374e+002 -1.6576e+002  1.8453e+002 35637 97163,96959,96809
 3.0000e+000 96985 -3.1323e+002 -1.2987e+002  1.8269e+002 35637 96861,96835,96959
 3.0000e+000 97008 -4.0517e+002 -2.3269e+002  2.8772e+002 35637 96861,96959,96887
 3.0000e+000 97057 -2.5153e+002 -1.1046e+002  1.1465e+002 35637 96809,96959,97031
 3.0000e+000 97189 -2.5252e+002 -1.5318e+002  1.9577e+002 35637 96887,96959,97163
 3.0000e+000 97597 -1.8609e+002 -2.4556e+002  2.0840e+002 35190 97450,97502,97476
 3.0000e+000 97574 -1.9493e+002 -2.8902e+002  2.4648e+002 35190 97372,97502,97450
 3.0000e+000 97551 -2.0259e+002 -3.3618e+002  2.3476e+002 35190 97372,97450,97398
 3.0000e+000 97528 -2.0148e+002 -3.3154e+002  2.2728e+002 35190 97398,97450,97424
 3.0000e+000 98054 -2.2654e+002 -2.9616e+002  2.2602e+002 34636 97806,97936,97858
 3.0000e+000 98031 -3.8983e+002 -2.3900e+002  1.9069e+002 34636 97780,97936,97806
 3.0000e+000 98008 -3.7405e+002 -3.0859e+002  1.3696e+002 34636 97806,97858,97832
 3.0000e+000 97985 -2.5868e+002 -3.2451e+002  2.2646e+002 34636 97884,97936,97910
 3.0000e+000 97962 -1.5504e+002 -2.2803e+002  1.7485e+002 34636 97858,97936,97884
 3.0000e+000 98530 -2.9424e+002  7.2428e+001  7.3662e+001 34068 98697,98184,98366
 3.0000e+000 98507 -4.9450e+000 -2.9497e+000  3.2547e+000 34068 98158,98366,98184
 3.0000e+000 98484 -3.7759e+002 -4.4240e+002  1.5425e+002 34068 98553,98262,98236
 3.0000e+000 98461 -7.5831e+002 -6.3976e+002  8.2047e+001 34068 98553,98236,98210
 3.0000e+000 98438 -3.7913e+002 -2.1097e+002  1.5776e+002 34068 98841,98625,98366
 3.0000e+000 98415 -3.5447e+002 -6.0620e+002  2.4182e+002 34068 98769,98288,98262
 3.0000e+000 98392 -4.9656e+002 -1.0658e+002  1.3762e+002 34068 98841,98366,98340
 3.0000e+000 98579 -4.1945e+002 -5.0897e+002  1.7620e+002 34068 98769,98262,98553
 3.0000e+000 98602 -3.5668e+002 -2.9007e+002  1.7207e+002 34068 98625,98314,98553
 3.0000e+000 98651 -3.5149e+002 -2.0248e+002  1.2131e+002 34068 98697,98366,98625
 3.0000e+000 98674 -4.3170e+002 -4.7374e+002  1.6285e+002 34068 98210,98625,98553
 3.0000e+000 98723 -4.2937e+002 -2.5999e+002  1.3562e+002 34068 98210,98184,98697
 3.0000e+000 98746 -3.8409e+002 -3.1902e+002  2.0084e+002 34068 98210,98697,98625
 3.0000e+000 98795 -2.1579e+002 -5.0136e+002  1.8310e+002 34068 98314,98288,98769
 3.0000e+000 98818 -2.9977e+002 -4.3053e+002  1.2257e+002 34068 98314,98769,98553
 3.0000e+000 98867 -4.7731e+002 -3.3452e+002  1.1420e+002 34068 98314,98625,98841
 3.0000e+000 98890 -5.8760e+002 -2.1370e+002  9.6799e+001 34068 98314,98841,98340
 3.0000e+000 99268 -4.8832e+002 -4.7749e+002  3.3584e+002 33450 99291,99098,99072
 3.0000e+000 99245 -5.3123e+002 -3.6977e+002  1.9945e+002 33450 99291,99072,99020
 3.0000e+000 99222 -8.6327e+002 -5.0186e+002  3.2837e+002 33450 99020,99072,99046
 3.0000e+000 99199 -4.2960e+002 -3.2565e+002  1.9769e+002 33450 99020,99150,99124
 3.0000e+000 99176 -4.3324e+002 -2.7750e+002  4.1679e+001 33450 98994,99150,99020
 3.0000e+000 99317 -2.7471e+002 -3.7927e+002  3.1221e+002 33450 99124,99098,99291
 3.0000e+000 99340 -4.6301e+002 -3.4090e+002  1.9392e+002 33450 99124,99291,99020
 3.0000e+000 99865 -2.6562e+002 -2.6143e+002  1.5344e+002 32944 100176,99960,99888
 3.0000e+000 99842 -3.1641e+002 -2.7537e+002  1.5862e+002 32944 100104,99888,99522
 3.0000e+000 99819 -2.6019e+002 -2.4515e+002  1.8503e+002 32944 100248,99960,99626
 3.0000e+000 99796 -2.7576e+002 -2.9669e+002  9.9445e+001 32944 100032,99652,99626
 3.0000e+000 99773 -2.7049e+002 -3.1788e+002  1.0903e+002 32944 100104,99522,99496
 3.0000e+000 99750 -1.9598e+002 -1.6656e+002  1.1198e+000 32944 99574,99626,99600
 3.0000e+000 99727 -2.2126e+002 -2.3592e+002  1.9946e+002 32944 100248,99626,99574
 3.0000e+000 99704 -1.7366e+002 -2.4840e+002  1.4439e+002 32944 99444,99496,99470
 3.0000e+000 99914 -2.8051e+002 -2.4754e+002  1.1815e+002 32944 100176,99888,100032
 3.0000e+000 99937 -3.2587e+002 -2.2092e+002  1.7732e+002 32944 99678,99888,99444
 3.0000e+000 99986 -3.0244e+002 -2.1836e+002  1.5307e+002 32944 99522,99888,99960
 3.0000e+000 100009 -2.9589e+002 -1.7374e+002  1.8295e+002 32944 99522,99960,99548
 3.0000e+000 100058 -3.0928e+002 -2.9794e+002  9.9301e+001 32944 99678,99652,100032
 3.0000e+000 100081 -3.4865e+002 -2.8294e+002  1.0546e+002 32944 99678,100032,99888
 3.0000e+000 100130 -2.2903e+002 -2.3117e+002  1.7374e+002 32944 99444,99888,100104
 3.0000e+000 100153 -1.9559e+002 -2.7588e+002  1.2683e+002 32944 99444,100104,99496
 3.0000e+000 100202 -2.9620e+002 -3.1704e+002  1.3966e+002 32944 99626,99960,100176
 3.0000e+000 100225 -3.0853e+002 -3.1556e+002  1.0724e+002 32944 99626,100176,100032
 3.0000e+000 100274 -3.2082e+002 -2.3406e+002  1.6622e+002 32944 99548,99960,100248
 3.0000e+000 100297 -2.8636e+002 -2.2879e+002  1.8002e+002 32944 99548,100248,99574
 3.0000e+000 100754 -8.4214e+001 -9.9746e+001  6.6835e+001 32369 100777,100584,100506
 3.0000e+000 100731 -1.0568e+002 -1.5990e+002  1.2003e+002 32369 100777,100506,100636
 3.0000e+000 100708 -1.8812e+002 -1.6800e+002  1.2603e+002 32369 100480,100636,100506
 3.0000e+000 100685 -3.0516e+002 -1.4866e+002  5.1408e-001 32369 100532,100584,100558
 3.0000e+000 100662 -1.0166e+002 -1.3432e+002  7.2754e+001 32369 100506,100584,100532
 3.0000e+000 100803 -1.1517e+002 -1.3035e+001  5.0086e+001 32369 100610,100584,100777
 3.0000e+000 100826 -1.2397e+002 -7.4316e+001  9.4674e+001 32369 100610,100777,100636
 3.0000e+000 101025 -2.4046e+002 -2.1576e+002  2.0113e+002 31857 100875,100927,100901
 3.0000e+000 101002 -4.9233e+002 -8.1164e+001  2.1830e+002 31857 100875,100953,100927
 3.0000e+000 100979 -5.4961e+002 -1.7326e+002  1.5608e+002 31857 100849,100953,100875
 3.0000e+000 101533 -2.3364e+002 -3.1288e+002  2.4023e+002 31253 101556,101314,101236
 3.0000e+000 101510 -3.4473e+002 -3.3489e+002  2.3636e+002 31253 101556,101236,101210
 3.0000e+000 101487 -3.1818e+002 -3.1582e+002  9.9999e+001 31253 101210,101392,101340
 3.0000e+000 101464 -1.9112e+002 -3.1870e+002  1.6751e+002 31253 101236,101288,101262
 3.0000e+000 101441 -2.1876e+002 -4.3961e+002  2.2094e+002 31253 101236,101314,101288
 3.0000e+000 101418 -3.1752e+002 -4.0474e+002  2.0795e+002 31253 101340,101392,101366
 3.0000e+000 101582 -2.6949e+002 -2.9510e+002  1.4592e+002 31253 101340,101314,101556
 3.0000e+000 101605 -3.8130e+002 -3.1111e+002  1.4690e+002 31253 101340,101556,101210
 3.0000e+000 101755  3.1094e+001 -5.8419e+001  3.7961e+001 30519 101778,101654,101628
 3.0000e+000 101732 -1.2908e+002 -1.0401e+002  3.5868e+001 30519 101850,101778,101628
 3.0000e+000 101804 -1.0833e+002 -5.1218e+001 -1.5525e+001 30519 101680,101654,101778
 3.0000e+000 101827 -1.6089e+002 -6.1275e+001 -3.7793e+000 30519 101680,101778,101706
 3.0000e+000 101876 -1.4695e+002 -1.5287e+002 -1.7529e+001 30519 101706,101778,101850
 3.0000e+000 102561 -1.1952e+002 -2.3084e+002  1.2144e+002 29951 102656,102584,102270
 3.0000e+000 102538 -4.4794e+002 -5.0329e+002  8.8437e+001 29951 102584,102140,102374
 3.0000e+000 102515 -2.4111e+002 -5.8044e+002  2.8413e+002 29951 102728,102656,102270
 3.0000e+000 102492 -2.6121e+002 -7.2749e+002  2.8397e+002 29951 102728,102270,102244
 3.0000e+000 102469 -3.6181e+002 -8.5547e+001  1.5890e+002 29951 102800,102322,102296
 3.0000e+000 102446 -3.8296e+002 -2.6910e+002  7.1129e+001 29951 102166,102218,102192
 3.0000e+000 102423 -3.2408e+002 -2.8765e+002  4.1067e+001 29951 102166,102244,102218
 3.0000e+000 102400 -1.9533e+002 -2.2178e+002  1.1321e+002 29951 102322,102374,102348
 3.0000e+000 102610 -4.2151e+002 -1.4417e+002  5.8437e+001 29951 102296,102270,102584
 3.0000e+000 102633 -4.7788e+002 -2.1525e+002  9.7042e+001 29951 102800,102296,102584
 3.0000e+000 102682 -5.3252e+002 -4.9214e+002  2.5378e+002 29951 102140,102584,102656
 3.0000e+000 102705 -3.2144e+002 -4.6944e+002  3.6781e+002 29951 102140,102656,102166
 3.0000e+000 102754 -2.6515e+002 -4.1580e+002  3.4587e+002 29951 102166,102656,102728
 3.0000e+000 102777 -2.8184e+002 -5.3195e+002  3.1596e+002 29951 102166,102728,102244
 3.0000e+000 102826 -2.4278e+002 -2.3561e+002  2.2153e+002 29951 102374,102322,102800
 3.0000e+000 102849 -2.9247e+002 -2.6090e+002  1.8756e+002 29951 102374,102800,102584
 3.0000e+000 103048 -2.9216e+001 -1.8894e+002  5.7507e+001 29454 102872,102924,102898
 3.0000e+000 103025 -5.0838e+001 -4.8772e+002  1.2413e+002 29454 102872,102976,102924
 3.0000e+000 103002 -1.7377e+002 -6.9364e+002  6.9040e+001 29454 102924,102976,102950
 3.0000e+000 103296 -5.6421e+002 -4.3183e+002  2.9592e+002 29064 103319,103175,103123
 3.0000e+000 103273 -7.4349e+002 -4.3300e+002  3.4081e+002 29064 103319,103123,103071
 3.0000e+000 103250 -3.4749e+002 -2.6770e+002  2.0780e+002 29064 103123,103175,103149
 3.0000e+000 103227 -5.7708e+002 -3.3692e+002  4.1204e+002 29064 103071,103123,103097
 3.0000e+000 103345 -4.0356e+002 -4.6565e+002  2.1975e+002 29064 103201,103175,103319
 3.0000e+000 103368 -6.2037e+002 -4.3289e+002  2.0074e+002 29064 103201,103319,103071
 3.0000e+000 104006 -3.2990e+002 -1.7952e+002  1.3863e+002 28603 104101,104029,103712
 3.0000e+000 103983 -2.9025e+002 -1.1714e+002  1.2219e+002 28603 104173,104029,103660
 3.0000e+000 103960 -3.9452e+002 -1.5195e+002  1.3351e+002 28603 104101,103712,103686
 3.0000e+000 103937 -2.1603e+002 -1.4598e+002  1.1999e+002 28603 104173,103660,103634
 3.0000e+000 103914 -3.3921e+002 -1.9994e+002  1.7907e+002 28603 103764,103816,103790
 3.0000e+000 103891 -2.2604e+002 -1.3696e+002  1.7891e+002 28603 103634,103842,103816
 3.0000e+000 103868 -2.6572e+002 -1.1278e+002  1.7139e+002 28603 103712,103764,103738
 3.0000e+000 104055 -3.2443e+002 -1.3233e+002  1.4538e+002 28603 103764,103712,104029
 3.0000e+000 104078 -3.2115e+002 -1.4384e+002  1.7355e+002 28603 103764,104029,103816
 3.0000e+000 104127 -4.1821e+002 -1.6936e+002  1.1318e+002 28603 103660,104029,104101
 3.0000e+000 104150 -5.2060e+002 -1.6652e+002  1.2672e+002 28603 103660,104101,103686
 3.0000e+000 104199 -3.4758e+002 -1.3677e+002  1.4291e+002 28603 103816,104029,104173
 3.0000e+000 104222 -2.8447e+002 -1.6727e+002  1.3274e+002 28603 103816,104173,103634
 3.0000e+000 104600 -2.0224e+002 -4.0325e+002  9.1361e+001 28348 104623,104378,104326
 3.0000e+000 104577 -1.6032e+002 -4.2146e+002  1.6125e+002 28348 104623,104326,104482
 3.0000e+000 104554 -2.0549e+002 -2.8599e+002  8.2479e+001 28348 104326,104378,104352
 3.0000e+000 104531 -2.0203e+002 -6.4571e+000  1.0771e+001 28348 104404,104456,104430
 3.0000e+000 104508 -2.6378e+002 -2.0111e+002  1.4468e+002 28348 104378,104456,104404
 3.0000e+000 104649 -1.6968e+002 -3.4140e+002  1.2073e+002 28348 104456,104378,104623
 3.0000e+000 104672 -1.1491e+002 -3.4720e+002  1.9265e+002 28348 104456,104623,104482
 3.0000e+000 104991 -3.8874e+002 -4.0251e+002  2.8737e+002 27951 104717,104847,104769
 3.0000e+000 104968 -1.1537e+002 -2.7811e+002  2.5755e+002 27951 104717,104873,104847
 3.0000e+000 104945 -1.3910e+002 -3.4337e+002  3.0354e+002 27951 104769,104847,104795
 3.0000e+000 104922  5.6084e+000  2.0273e+001  2.8600e+002 27951 104795,104847,104821
 3.0000e+000 104899 -3.4239e+002 -2.7337e+002  2.9492e+002 27951 104717,104769,104743
 3.0000e+000 105371 -5.1197e+002 -3.2228e+002  2.3874e+002 27447 105394,105201,105123
 3.0000e+000 105348 -6.7529e+002 -2.9885e+002  3.5489e+002 27447 105394,105123,105097
 3.0000e+000 105325 -8.1479e+002 -3.5372e+002  2.3967e+002 27447 105123,105201,105149
 3.0000e+000 105302 -4.1382e+002 -4.1645e+002  2.5204e+002 27447 105201,105253,105227
 3.0000e+000 105279 -4.1522e+002 -4.9200e+002  6.7902e+001 27447 105149,105201,105175
 3.0000e+000 105420 -4.1746e+002 -2.6450e+002  1.8031e+002 27447 105253,105201,105394
 3.0000e+000 105443 -5.5931e+002 -1.8578e+002  2.8166e+002 27447 105253,105394,105097
 3.0000e+000 105998 -3.3208e+002 -2.5807e+002  2.4857e+002 27100 106165,106021,105704
 3.0000e+000 105975 -1.4680e+002 -1.2944e+002  2.1360e+002 27100 106309,106021,105652
 3.0000e+000 105952 -5.5076e+002 -4.2419e+002  4.2850e+002 27100 106093,105808,105782
 3.0000e+000 105929 -3.2365e+002 -2.7368e+002  2.3675e+002 27100 106165,105704,105678
 3.0000e+000 105906 -1.4804e+002 -3.7978e+002  1.9164e+002 27100 106237,105730,105704
 3.0000e+000 105883 -1.4505e+002 -2.3015e+002  1.4990e+002 27100 106309,105652,105626
 3.0000e+000 105860 -6.8673e+001 -7.7809e+000  2.3690e+001 27100 105730,105782,105756
 3.0000e+000 106047 -2.9449e+002 -2.1111e+002  2.7389e+002 27100 106237,105704,106021
 3.0000e+000 106070 -3.1698e+002 -2.0442e+002  3.3174e+002 27100 106093,105782,106021
 3.0000e+000 106119 -2.2364e+002 -3.4939e+002  2.1419e+002 27100 105834,105808,106093
 3.0000e+000 106142 -2.5453e+002 -4.3773e+002  2.9109e+002 27100 106381,106093,106021
 3.0000e+000 106191 -3.1757e+002 -2.3762e+002  2.6144e+002 27100 105652,106021,106165
 3.0000e+000 106214 -3.0701e+002 -2.6314e+002  2.5201e+002 27100 105652,106165,105678
 3.0000e+000 106263 -1.5242e+001 -2.0226e+002  1.3340e+002 27100 105782,105730,106237
 3.0000e+000 106286 -1.9275e+002 -7.8841e+001  2.2887e+002 27100 105782,106237,106021
 3.0000e+000 106335 -2.1714e+002 -2.7539e+002  2.3558e+002 27100 106381,106021,106309
 3.0000e+000 106358 -1.3882e+002 -1.7415e+002  1.3355e+002 27100 105834,106309,105626
 3.0000e+000 106407 -1.6010e+002 -2.4766e+002  1.8265e+002 27100 105834,106093,106381
 3.0000e+000 106430 -1.6695e+002 -2.1322e+002  1.2127e+002 27100 105834,106381,106309
 3.0000e+000 106629 -5.9756e+001 -4.0101e+002  1.1191e+002 26688 106479,106557,106531
 3.0000e+000 106606 -1.1207e+002 -3.5946e+002  9.8290e+001 26688 106453,106557,106479
 3.0000e+000 106583 -1.6114e+002 -4.1776e+002  3.3921e+001 26688 106479,106531,106505
 3.0000e+000 107088 -1.6123e+002 -1.5236e+002  7.0290e+001 26248 107111,106918,106866
 3.0000e+000 107065 -1.7255e+002 -1.3322e+002  8.3692e+001 26248 107111,106866,106840
 3.0000e+000 107042 -1.3617e+002 -1.0697e+002  8.0323e+001 26248 106814,106970,106840
 3.0000e+000 107019 -1.7502e+002 -2.8749e+002  9.6964e+001 26248 106866,106918,106892
 3.0000e+000 106996 -2.8785e+002 -2.2178e+002  6.7446e+001 26248 106918,106970,106944
 3.0000e+000 107137 -1.8393e+002 -1.7806e+002  4.9969e+001 26248 106970,106918,107111
 3.0000e+000 107160 -1.7672e+002 -1.3952e+002  6.5714e+001 26248 106970,107111,106840
 3.0000e+000 107666 -4.5043e+002 -1.9201e+002  1.4680e+002 25908 107369,107499,107395
 3.0000e+000 107643 -6.0391e+002 -5.6548e+002  2.9118e+002 25908 107369,107525,107499
 3.0000e+000 107620 -3.6795e+002 -2.4271e+002  1.9905e+002 25908 107395,107473,107447
 3.0000e+000 107597 -3.1796e+002 -1.3527e+002  1.5048e+002 25908 107395,107499,107473
 3.0000e+000 107574 -6.2794e+002 -3.1286e+002  4.4387e+002 25908 107395,107447,107421
 3.0000e+000 107551 -2.5966e+002 -4.3759e+002  2.5904e+002 25908 107343,107525,107369
 3.0000e+000 108251 -2.7353e+002 -1.0672e+002  1.7023e+002 25454 108274,108006,107954
 3.0000e+000 108228 -2.1594e+002 -5.2277e+001  1.2801e+002 25454 108274,107954,108110
 3.0000e+000 108205 -2.0631e+002 -2.2774e+002  1.9780e+002 25454 108346,108032,108006
 3.0000e+000 108182 -3.4975e+002 -1.7430e+002  2.1563e+002 25454 107954,108006,107980
 3.0000e+000 108159 -1.1509e+002 -1.3997e+002  1.1224e+002 25454 107928,108110,107954
 3.0000e+000 108136 -4.1885e+002 -4.7881e+002  2.4579e+002 25454 108058,108110,108084
 3.0000e+000 108300 -2.6131e+002 -1.6942e+002  2.0112e+002 25454 108346,108006,108274
 3.0000e+000 108323 -2.3227e+002 -1.1093e+002  1.5404e+002 25454 108058,108274,108110
 3.0000e+000 108372 -1.4369e+002 -1.5718e+002  1.7058e+002 25454 108058,108032,108346
 3.0000e+000 108395 -2.0072e+002 -8.8555e+001  1.7474e+002 25454 108058,108346,108274
 3.0000e+000 108822 -2.2288e+002 -1.4537e+002  1.3258e+002 24943 108525,108681,108655
 3.0000e+000 108799 -2.9168e+002 -1.9882e+002  6.6140e+001 24943 108499,108681,108525
 3.0000e+000 108776 -1.2601e+002 -1.1072e+002  9.7033e+001 24943 108525,108655,108629
 3.0000e+000 108753 -2.0854e+002 -9.4905e+001  8.8145e+001 24943 108525,108629,108603
 3.0000e+000 108730 -4.3141e+002 -1.3916e+002  1.6399e+002 24943 108551,108603,108577
 3.0000e+000 108707 -4.2723e+002 -2.6779e+002  2.3949e+002 24943 108525,108603,108551
 3.0000e+000 109407 -2.0971e+001 -7.7005e+001  3.9898e+001 24745 109162,109214,109188
 3.0000e+000 109384 -1.6187e+002 -7.9759e+001  5.2264e+001 24745 109162,109266,109214
 3.0000e+000 109361 -1.8905e+002 -1.0595e+002  3.1149e+001 24745 109084,109266,109162
 3.0000e+000 109338 -3.2509e+002 -5.0048e+001  8.2445e+001 24745 109084,109162,109136
 3.0000e+000 109315 -8.0662e+001 -1.4623e+002  6.7406e+001 24745 109214,109266,109240
 3.0000e+000 109292 -2.4128e+002 -7.0471e+001  1.3177e+002 24745 109084,109136,109110
 3.0000e+000 109785 -5.4198e+002 -2.5602e+002  3.1723e+002 24341 109537,109615,109563
 3.0000e+000 109762 -5.8630e+001 -1.2971e+002  2.8854e+002 24341 109537,109641,109615
 3.0000e+000 109739 -3.5871e+002 -2.6720e+002  2.3468e+002 24341 109563,109615,109589
 3.0000e+000 109716 -2.3082e+002 -2.3078e+002  1.9746e+002 24341 109537,109667,109641
 3.0000e+000 109693 -1.2687e+002 -2.7047e+002  1.7839e+002 24341 109511,109667,109537
 3.0000e+000 110163 -6.2418e+002 -3.6553e+002  3.2733e+002 23837 110186,109967,109915
 3.0000e+000 110140 -5.7386e+002 -3.7256e+002  3.5620e+002 23837 110186,109915,109889
 3.0000e+000 110117 -2.6353e+002 -1.2967e+002  2.7331e+002 23837 109889,110045,109993
 3.0000e+000 110094 -5.8999e+002 -4.5974e+002  2.5891e+002 23837 109915,109967,109941
 3.0000e+000 110071 -3.3239e+002 -2.0818e+001  5.3110e+001 23837 109993,110045,110019
 3.0000e+000 110212 -5.9123e+002 -3.3444e+002  3.4799e+002 23837 109993,109967,110186
 3.0000e+000 110235 -5.6749e+002 -3.4432e+002  3.7708e+002 23837 109993,110186,109889
 3.0000e+000 110336 -2.8241e+002 -6.4281e+002  3.1704e+002 23433 110258,110310,110284
 3.0000e+000 110584 -3.6477e+002 -2.5793e+002  1.6070e+002 22829 110607,110411,110385
 3.0000e+000 110561 -4.4790e+002 -2.9809e+002  2.2275e+002 22829 110607,110385,110489
 3.0000e+000 110538 -2.9489e+002 -2.7862e+002  1.3730e+002 22829 110437,110489,110463
 3.0000e+000 110515 -3.6503e+002 -1.8487e+002  2.5901e+002 22829 110359,110489,110385
 3.0000e+000 110633 -3.6009e+002 -1.9547e+002  9.8774e+001 22829 110437,110411,110607
 3.0000e+000 110656 -4.0742e+002 -2.3908e+002  1.5767e+002 22829 110437,110607,110489
 3.0000e+000 110906 -7.7160e+002 -3.2139e+002  2.3973e+002 22432 110707,110759,110733
 3.0000e+000 110883 -4.5286e+002 -3.4357e+002  1.9192e+002 22432 110707,110785,110759
 3.0000e+000 110860 -4.5848e+002 -3.1325e+002  2.8522e+002 22432 110707,110811,110785
 3.0000e+000 110837 -5.7970e+002 -4.1000e+002  2.2026e+002 22432 110681,110811,110707
 3.0000e+000 111288 -7.7630e+001 -1.8410e+002  1.4593e+002 22142 111092,111144,111118
 3.0000e+000 111265 -2.2589e+002 -1.7995e+002  1.2068e+002 22142 111066,111144,111092
 3.0000e+000 111242 -2.0923e+002 -1.5683e+002  9.8874e+001 22142 111040,111144,111066
 3.0000e+000 111219 -4.1074e+002 -6.2385e+001  5.6842e+001 22142 111014,111144,111040
 3.0000e+000 111196 -2.8119e+002 -3.9650e+001  9.9446e+001 22142 111014,111170,111144
 3.0000e+000 111389 -1.7028e+001 -8.0965e+001  1.9064e+002 21830 111311,111363,111337
 3.0000e+000 111735 -5.2541e+002 -4.9386e+001  3.7739e+002 21268 111758,111542,111438
 3.0000e+000 111712 -4.1167e+002 -1.4698e+001  2.7193e+002 21268 111758,111438,111412
 3.0000e+000 111689 -1.5351e+002 -2.8789e+002  4.4381e+002 21268 111438,111542,111464
 3.0000e+000 111666 -3.2665e+001 -2.1604e+002  5.8084e+002 21268 111464,111542,111490
 3.0000e+000 111643 -9.7241e+002 -4.8701e+002  5.0609e+002 21268 111412,111594,111568
 3.0000e+000 111620  2.2076e+002  1.7439e+002  7.3690e+002 21268 111490,111542,111516
 3.0000e+000 111784 -5.5475e+002 -9.9723e+001  3.8977e+002 21268 111568,111542,111758
 3.0000e+000 111807 -5.2942e+002 -2.2380e+002  3.1964e+002 21268 111568,111758,111412
 3.0000e+000 111959 -5.5185e+002 -6.7430e+001  1.8627e+002 20864 111982,111910,111884
 3.0000e+000 111936 -5.0809e+002 -8.7307e+001  2.6441e+002 20864 112114,111832,111910
 3.0000e+000 112008 -5.4818e+002 -1.8949e+002  2.2446e+002 20864 112114,111910,111982
 3.0000e+000 112140 -4.9449e+002 -2.0666e+002  2.0360e+002 20864 111858,111832,112114
 3.0000e+000 112163 -5.4257e+002 -3.3015e+002  1.6654e+002 20864 111858,112114,111982
 3.0000e+000 112411 -6.3164e+001 -1.4113e+001  2.0304e+001 20324 112186,112290,112212
 3.0000e+000 112388 -3.1145e+001 -1.0858e+001  3.0916e+001 20324 112186,112316,112290
 3.0000e+000 112365  1.7066e+002 -1.3949e+002  1.8862e+001 20324 112212,112290,112264
 3.0000e+000 112342 -6.8854e+002 -2.9489e+002 -3.9307e+001 20324 112212,112264,112238
 3.0000e+000 112659 -6.1889e+001 -1.9229e+001  2.1583e+002 19920 112512,112564,112538
 3.0000e+000 112636 -2.7399e+002 -1.0646e+002  1.3839e+002 19920 112434,112564,112512
 3.0000e+000 112613 -2.8231e+002 -1.7488e+002  1.6268e+002 19920 112434,112512,112460
 3.0000e+000 112590 -3.1376e+002 -1.9596e+002  1.7395e+002 19920 112460,112512,112486
 3.0000e+000 112811 -4.8015e+001 -1.9386e+001  8.7186e+001 19630 112684,112736,112710
 3.0000e+000 112788  7.6627e+001 -1.0887e+002  2.1397e+001 19630 112684,112762,112736
 3.0000e+000 113012 -2.3231e+002 -9.0223e+001  2.4466e+002 19169 112862,112940,112888
 3.0000e+000 112989 -3.8680e+002 -3.2230e+002  1.7767e+002 19169 112836,112940,112862
 3.0000e+000 112966 -1.9234e+002 -2.6823e+002  1.9468e+002 19169 112888,112940,112914
 3.0000e+000 113213 -4.6078e+002 -1.8887e+002  2.3374e+002 18600 113037,113089,113063
 3.0000e+000 113190 -2.8718e+002 -1.5132e+002  1.9307e+002 18600 113037,113115,113089
 3.0000e+000 113167 -5.1299e+002 -3.6560e+002  3.3030e+002 18600 113037,113141,113115
 3.0000e+000 113485 -2.5407e+002 -9.9275e+001  2.4794e+002 18352 113260,113312,113286
 3.0000e+000 113462 -5.0805e+002 -3.0990e+002  3.3948e+002 18352 113260,113390,113312
 3.0000e+000 113439 -4.7620e+002 -1.0571e+002  2.5647e+002 18352 113312,113390,113364
 3.0000e+000 113416 -2.0253e+002 -7.5632e+001  2.6650e+002 18352 113312,113364,113338
 3.0000e+000 113757 -3.6546e+002 -1.4629e+002  2.5692e+002 17834 113558,113610,113584
 3.0000e+000 113734 -5.2306e+002 -2.9117e+002  3.3181e+002 17834 113532,113610,113558
 3.0000e+000 113711 -5.3869e+002 -3.5274e+002  2.7302e+002 17834 113532,113662,113610
 3.0000e+000 113688 -2.7609e+002 -9.5982e+001  3.7769e+002 17834 113610,113662,113636
 3.0000e+000 113958 -3.5884e+002 -1.4777e+002  1.9622e+002 17330 113782,113834,113808
 3.0000e+000 113935 -2.0043e+002 -1.0814e+002  1.4309e+002 17330 113782,113886,113834
 3.0000e+000 113912 -2.4512e+002 -1.0656e+002  9.5290e+001 17330 113834,113886,113860
 3.0000e+000 114110 -5.3484e+002 -2.1066e+002  3.4244e+002 16874 113983,114035,114009
 3.0000e+000 114087 -2.0276e+002 -4.6886e+002  2.8835e+002 16874 113983,114061,114035
 3.0000e+000 114465 -6.2370e+002 -2.6383e+002  1.4831e+002 16270 114240,114292,114266
 3.0000e+000 114442 -4.8874e+002 -1.1649e+002  7.5017e+001 16270 114240,114370,114292
 3.0000e+000 114419 -2.1144e+002 -8.8984e+001  1.0304e+002 16270 114292,114344,114318
 3.0000e+000 114396 -5.3296e+002 -2.3669e+002  6.0287e+001 16270 114292,114370,114344
 3.0000e+000 114566 -2.3033e+001  2.3033e+001  4.6052e+002 15834 114488,114540,114514
 3.0000e+000 114667 -3.5757e+002 -1.4502e+002  2.2905e+002 15155 114589,114641,114615
 3.0000e+000 114890 -2.3127e+002 -8.3035e+001  3.1699e+002 421 114766,114818,114792
 3.0000e+000 114867 -3.8077e+002 -3.5703e+002  2.5573e+002 421 114714,114818,114766
 3.0000e+000 114844 -5.6606e+002 -2.3892e+002  1.5148e+002 421 114714,114766,114740
 3.1000e+000 66553 -2.3334e+002 -9.8280e+001  7.8824e+001 66108 66354,66458,66432
 3.1000e+000 66530 -2.0633e+002 -8.7771e+001  8.4404e+001 66108 66328,66458,66354
 3.1000e+000 66507 -1.5077e+002 -1.1870e+002  3.9648e+001 66108 66354,66432,66406
 3.1000e+000 66484  4.0744e+001  1.9307e+001  1.0870e+002 66108 66354,66406,66380
 3.1000e+000 66951 -3.2045e+002 -1.3696e+002  5.9115e+001 65910 66703,66833,66807
 3.1000e+000 66928 -1.3933e+002 -9.8324e+001  7.4844e+001 65910 66677,66833,66703
 3.1000e+000 66905 -8.5503e+001 -1.4266e+002  1.1001e+002 65910 66729,66781,66755
 3.1000e+000 66882 -2.8642e+002 -1.2129e+002  9.9880e+001 65910 66729,66807,66781
 3.1000e+000 66859 -2.6890e+002 -5.4156e+001  8.7988e+001 65910 66703,66807,66729
 3.1000e+000 67150 -3.1008e+002 -1.3099e+002  1.1856e+002 65712 67026,67078,67052
 3.1000e+000 67127 -3.9878e+002 -4.8700e+001  9.0703e+001 65712 66974,67078,67026
 3.1000e+000 67104 -1.2659e+003 -5.9286e+002  3.8187e+002 65712 66974,67026,67000
 3.1000e+000 67481 -4.5391e+002 -6.1611e+001  1.6289e+002 65422 67282,67360,67334
 3.1000e+000 67458 -2.0383e+002 -7.8259e+001  2.3991e+002 65422 67282,67386,67360
 3.1000e+000 67435 -1.2308e+002  8.4293e+001  1.2892e+002 65422 67282,67334,67308
 3.1000e+000 67412  7.3803e+001  3.2626e+001  6.6390e+001 65422 67256,67386,67282
 3.1000e+000 68115 -1.5960e+002 -4.1870e+001  3.3752e+001 65018 67795,67925,67873
 3.1000e+000 68092 -1.8470e+002 -5.2698e+001  6.9431e+001 65018 67769,67925,67795
 3.1000e+000 68069 -9.7172e+001 -3.1322e+001  5.5719e+001 65018 67873,67925,67899
 3.1000e+000 68046 -2.5269e+002 -1.8736e+002  1.2364e+002 65018 67769,67951,67925
 3.1000e+000 68023 -1.8420e+002 -1.0322e+002  4.2636e+001 65018 67795,67873,67821
 3.1000e+000 68000 -2.3606e+002 -1.1180e+002  3.3087e+001 65018 67821,67873,67847
 3.1000e+000 67977 -2.2585e+002 -1.7253e+002  1.4217e+002 65018 67743,67951,67769
 3.1000e+000 68363 -1.7207e+002 -3.7817e+002  3.0453e+002 64820 68190,68242,68216
 3.1000e+000 68340 -3.1162e+002 -2.6264e+002  3.1515e+002 64820 68190,68268,68242
 3.1000e+000 68317 -1.7717e+002 -1.9934e+002  3.4332e+002 64820 68164,68268,68190
 3.1000e+000 68294 -6.1129e+002 -2.5496e+002  2.1590e+002 64820 68138,68268,68164
 3.1000e+000 68513 -3.4698e+002 -1.6800e+002  1.1634e+002 64366 68868,68536,68438
 3.1000e+000 68490 -1.9134e+002 -8.1669e+001  8.6923e+001 64366 68536,68412,68386
 3.1000e+000 68562 -3.8723e+002 -1.5800e+002  1.7234e+002 64366 68740,68536,68464
 3.1000e+000 68585 -2.7144e+002 -9.8286e+001  1.1945e+002 64366 68608,68536,68386
 3.1000e+000 68634 -3.4678e+002 -2.5195e+002  9.5596e+001 64366 68464,68536,68608
 3.1000e+000 68766 -3.5795e+002 -1.2631e+002  1.5683e+002 64366 68438,68536,68740
 3.1000e+000 68894 -2.5345e+002 -9.8335e+001  1.5761e+002 64366 68412,68536,68868
 3.1000e+000 69172 -3.8376e+002 -3.3193e+002  9.0537e+000 64168 69022,69074,69048
 3.1000e+000 69149 -5.8608e+002 -2.5092e+002  7.0766e+001 64168 68996,69074,69022
 3.1000e+000 69126 -5.7701e+002 -2.3673e+002  9.1857e+001 64168 68996,69100,69074
 3.1000e+000 69371 -2.6222e+002 -9.5082e+001  1.4009e+002 63970 69466,69394,69273
 3.1000e+000 69348 -2.7091e+002 -1.1440e+002  1.1027e+002 63970 69394,69247,69221
 3.1000e+000 69325 -3.1743e+002 -1.3514e+002  7.8354e+001 63970 69195,69299,69221
 3.1000e+000 69420 -2.3673e+002 -1.3116e+002  1.2686e+002 63970 69299,69273,69394
 3.1000e+000 69443 -2.7219e+002 -1.6710e+002  9.3869e+001 63970 69299,69394,69221
 3.1000e+000 69492 -2.7508e+002 -1.1667e+002  1.3477e+002 63970 69247,69394,69466
 3.1000e+000 69904 -2.6249e+001 -2.1999e+002  9.5045e+001 63680 69705,69783,69731
 3.1000e+000 69881  5.3020e+001 -1.3915e+002  4.6701e+001 63680 69679,69783,69705
 3.1000e+000 69858 -2.2029e+002 -2.3695e+002  1.1165e+002 63680 69679,69809,69783
 3.1000e+000 69835 -1.7481e+002 -2.8780e+002  5.9862e+001 63680 69731,69783,69757
 3.1000e+000 70054 -7.5673e+000 -1.3712e+002  6.9735e+001 63476 70077,69953,69927
 3.1000e+000 70031  5.8562e+000 -6.3727e+001  1.0686e+002 63476 70077,69927,70005
 3.1000e+000 70103 -4.7935e+001 -8.4577e+001  3.8894e+001 63476 69979,69953,70077
 3.1000e+000 70126 -3.9307e+001 -1.6080e+001  7.0073e+001 63476 69979,70077,70005
 3.1000e+000 70325 -6.2609e+002 -3.2692e+002  1.3270e+002 63278 70149,70227,70175
 3.1000e+000 70302 -4.6356e+002 -1.9208e+002  2.3024e+002 63278 70149,70253,70227
 3.1000e+000 70279 -6.4740e+002 -4.2515e+002  1.4592e+002 63278 70175,70227,70201
 3.1000e+000 70597 -2.5889e+002 -8.2909e+001  1.1450e+002 63080 70372,70476,70424
 3.1000e+000 70574 -3.3852e+002 -1.4410e+002  8.3667e+001 63080 70372,70502,70476
 3.1000e+000 70551 -2.4821e+002 -1.0505e+002  9.4369e+001 63080 70424,70476,70450
 3.1000e+000 70528 -3.8624e+002 -1.5235e+002  1.6614e+002 63080 70372,70424,70398
 3.1000e+000 70847 -1.3083e+001 -1.3535e+002  5.4844e+001 62740 70870,70648,70622
 3.1000e+000 70824 -7.2017e+001 -1.1781e+002  8.2953e+001 62740 70870,70622,70752
 3.1000e+000 70801 -1.9284e+001 -1.3655e+002  4.2804e+001 62740 70648,70726,70700
 3.1000e+000 70778 -2.3780e+001 -1.3210e+002  4.6260e+001 62740 70648,70700,70674
 3.1000e+000 70896 -7.2045e+001 -1.5929e+002  4.7900e+001 62740 70726,70648,70870
 3.1000e+000 70919 -9.9179e+001 -1.2341e+002  8.3193e+001 62740 70726,70870,70752
 3.1000e+000 71022 -1.8657e+001  1.8657e+001  4.1457e+002 62520 70944,70996,70970
 3.1000e+000 71223 -5.6020e+002 -3.0115e+002  3.4951e+002 62230 71073,71151,71099
 3.1000e+000 71200 -4.5800e+002 -2.9041e+002  3.0935e+002 62230 71047,71151,71073
 3.1000e+000 71177 -3.8104e+002 -5.0571e+002  2.7150e+002 62230 71099,71151,71125
 3.1000e+000 71861 -7.2993e+001 -3.9715e+001  4.4255e+001 61712 71515,71697,71671
 3.1000e+000 71838 -7.5192e+001 -4.3553e+001  1.3749e+001 61712 71489,71697,71515
 3.1000e+000 71815 -4.9750e+002 -1.3329e+002  2.1375e+002 61712 71884,71541,71515
 3.1000e+000 71792 -3.3438e+002 -1.0544e+000  1.5436e+002 61712 71884,71515,71671
 3.1000e+000 71769 -1.2880e+002 -3.0128e+002  1.2165e+002 61712 71541,71619,71593
 3.1000e+000 71746 -8.5305e+001 -4.6238e+001  1.2423e+002 61712 71619,71671,71645
 3.1000e+000 71723 -4.0466e+002 -4.6670e+002  2.3220e+002 61712 71541,71593,71567
 3.1000e+000 71910 -3.3111e+002 -2.6468e+002  2.7633e+002 61712 71619,71541,71884
 3.1000e+000 71933 -2.2704e+002 -1.7381e+002  2.3388e+002 61712 71619,71884,71671
 3.1000e+000 72230 -4.6568e+002 -3.6456e+002  1.0391e+002 61208 72253,72060,72008
 3.1000e+000 72207 -4.2058e+002 -2.1181e+002  1.0440e+002 61208 72253,72008,71982
 3.1000e+000 72184 -3.6810e+002 -1.2769e+002  4.0932e+001 61208 71982,72112,72086
 3.1000e+000 72161 -6.4458e+002 -3.6210e+002  1.7391e+002 61208 72008,72060,72034
 3.1000e+000 72138 -2.1192e+002 -6.0907e+001  1.2117e+002 61208 71956,72112,71982
 3.1000e+000 72279 -4.7518e+002 -2.5277e+002  3.8691e+001 61208 72086,72060,72253
 3.1000e+000 72302 -4.7338e+002 -1.6656e+002  3.6154e+001 61208 72086,72253,71982
 3.1000e+000 72761 -2.3093e+002 -1.9946e+002  7.3700e+001 60804 72487,72617,72513
 3.1000e+000 72738 -2.9816e+002 -2.4008e+002  1.0776e+002 60804 72487,72643,72617
 3.1000e+000 72715 -8.0015e+001 -4.5728e+002  9.5895e+001 60804 72565,72617,72591
 3.1000e+000 72692 -2.6463e+002 -2.6787e+002  1.4022e+002 60804 72513,72617,72565
 3.1000e+000 72669 -2.5096e+002 -2.8462e+002  5.4080e+001 60804 72513,72565,72539
 3.1000e+000 72911 -1.8657e+001  1.8657e+001  4.1457e+002 60556 72784,72836,72810
 3.1000e+000 72888  3.5736e+002  1.7311e+002  2.4372e+002 60556 72784,72862,72836
 3.1000e+000 73468 -1.4150e+002 -1.3301e+002  9.1841e+001 60244 73491,73226,73200
 3.1000e+000 73445 -1.8743e+002 -1.4990e+002  1.4660e+002 60244 73563,73491,73200
 3.1000e+000 73422 -3.2984e+002 -9.6473e+001  1.6246e+002 60244 73563,73200,73174
 3.1000e+000 73399 -1.4935e+002 -2.0179e+002  9.6168e+001 60244 73226,73278,73252
 3.1000e+000 73376 -2.4350e+002 -1.5637e+002  1.1646e+002 60244 73122,73304,73278
 3.1000e+000 73353 -2.6904e+002 -2.0117e+002  1.0616e+002 60244 73096,73304,73122
 3.1000e+000 73330 -4.4994e+002 -1.1588e+002 -6.9726e+001 60244 73122,73174,73148
 3.1000e+000 73517 -2.5314e+002 -1.9129e+002  1.2421e+002 60244 73278,73226,73491
 3.1000e+000 73540 -2.4026e+002 -1.5320e+002  1.1801e+002 60244 73278,73491,73122
 3.1000e+000 73589 -3.9812e+002 -2.0759e+002  1.2188e+002 60244 73122,73491,73563
 3.1000e+000 73612 -5.3197e+002 -1.4695e+002  1.4598e+002 60244 73122,73563,73174
 3.1000e+000 73762 -1.0368e+002 -2.4071e+002  2.5769e+002 59875 73661,73713,73687
 3.1000e+000 73739 -2.9928e+002 -1.5043e+002  1.9131e+002 59875 73635,73713,73661
 3.1000e+000 74191 -1.9256e+002 -4.4360e+002  2.5902e+002 59478 74214,73894,73868
 3.1000e+000 74168 -3.2752e+002 -4.1594e+002  2.7380e+002 59478 74214,73868,74050
 3.1000e+000 74145 -3.6231e+002 -4.7144e+002  1.5305e+002 59478 73894,73946,73920
 3.1000e+000 74122 -2.8711e+002 -4.5474e+002  1.3301e+002 59478 73894,73998,73946
 3.1000e+000 74099 -6.7363e+002 -4.4116e+002  4.3353e+002 59478 73998,74050,74024
 3.1000e+000 74076 -3.6640e+002 -5.4126e+002  9.0877e+001 59478 73946,73998,73972
 3.1000e+000 74240 -3.1305e+002 -4.1533e+002  2.0817e+002 59478 73998,73894,74214
 3.1000e+000 74263 -4.5025e+002 -4.0173e+002  2.0110e+002 59478 73998,74214,74050
 3.1000e+000 74720 -2.5899e+002 -1.4361e+002  1.2049e+002 58774 74472,74602,74498
 3.1000e+000 74697 -2.8364e+002 -1.9190e+002  9.4092e+001 58774 74446,74602,74472
 3.1000e+000 74674 -2.9846e+002 -1.2332e+002  1.3578e+002 58774 74498,74576,74524
 3.1000e+000 74651 -2.7514e+002 -1.4856e+002  1.1019e+002 58774 74498,74602,74576
 3.1000e+000 74628 -3.0735e+002 -4.7034e+001  8.7220e+001 58774 74524,74576,74550
 3.1000e+000 75226 -2.2814e+002 -2.0263e+002  1.3493e+002 58270 74955,75085,75033
 3.1000e+000 75203 -2.2928e+002 -2.5817e+002  1.3609e+002 58270 74929,75085,74955
 3.1000e+000 75180 -2.9142e+002 -1.8729e+002  1.9147e+002 58270 75033,75085,75059
 3.1000e+000 75157 -3.5303e+002 -3.1561e+002  1.0708e+002 58270 74955,75007,74981
 3.1000e+000 75134 -2.0088e+002 -1.8714e+002  5.2268e+001 58270 74955,75033,75007
 3.1000e+000 75111 -3.2492e+001 -2.4820e+002  8.5715e+001 58270 74903,75085,74929
 3.1000e+000 75425 -2.3431e+002 -2.0002e+002  1.3512e+002 57830 75448,75301,75249
 3.1000e+000 75402 -1.8192e+002 -7.6104e+001  8.2558e+001 57830 75448,75249,75353
 3.1000e+000 75379 -3.0793e+002 -3.6901e+002  1.0025e+002 57830 75520,75301,75275
 3.1000e+000 75474 -2.2579e+002 -2.7316e+002  1.9032e+002 57830 75327,75301,75448
 3.1000e+000 75497 -2.1007e+002 -2.1895e+002  1.3580e+002 57830 75327,75448,75353
 3.1000e+000 75546 -1.6955e+002 -2.7506e+002  5.0133e+001 57830 75249,75301,75520
 3.1000e+000 76261 -1.1881e+002 -2.2170e+002  1.2566e+002 57426 76284,76097,76071
 3.1000e+000 76238 -1.0647e+002 -1.4373e+002  1.2780e+002 57426 75889,76097,75915
 3.1000e+000 76215 -1.7836e+002 -2.3538e+002  1.3555e+002 57426 76428,76284,76071
 3.1000e+000 76192 -1.3429e+002 -2.1139e+002  7.9729e+001 57426 76356,75941,75915
 3.1000e+000 76169 -1.7729e+002 -2.0730e+002  1.3325e+002 57426 76428,76071,76019
 3.1000e+000 76146 -1.9923e+002 -2.8221e+002  1.2085e+002 57426 76019,76071,76045
 3.1000e+000 76123 -2.0921e+002 -2.1637e+002  1.8211e+002 57426 75967,76019,75993
 3.1000e+000 76310 -1.2741e+002 -2.3833e+002  9.6714e+001 57426 75915,76097,76284
 3.1000e+000 76333 -1.4860e+002 -2.2711e+002  8.5963e+001 57426 76356,75915,76284
 3.1000e+000 76382 -1.6819e+002 -1.9268e+002  9.5430e+001 57426 75967,75941,76356
 3.1000e+000 76405 -1.7526e+002 -2.0011e+002  9.9230e+001 57426 75967,76356,76284
 3.1000e+000 76454 -1.7231e+002 -2.0789e+002  1.2894e+002 57426 75967,76284,76428
 3.1000e+000 76477 -1.8126e+002 -1.9103e+002  1.3077e+002 57426 75967,76428,76019
 3.1000e+000 76953 -1.8479e+002 -3.0045e+002  1.7554e+002 56908 76976,76711,76685
 3.1000e+000 76930 -1.7970e+002 -2.9388e+002  1.8594e+002 56908 77048,76976,76685
 3.1000e+000 76907 -3.5432e+002 -3.0709e+002  2.7083e+002 56908 77048,76685,76633
 3.1000e+000 76884 -5.2290e+002 -4.7431e+002  2.8268e+002 56908 76711,76789,76763
 3.1000e+000 76861 -2.7469e+002 -1.4994e+002  1.0801e+002 56908 76581,76789,76607
 3.1000e+000 76838 -4.6502e+002 -2.6011e+002  1.9645e+002 56908 76711,76763,76737
 3.1000e+000 76815 -8.7228e+002 -6.5688e+002  5.1170e+002 56908 76633,76685,76659
 3.1000e+000 77002 -2.3416e+002 -3.1956e+002  1.7124e+002 56908 76789,76711,76976
 3.1000e+000 77025 -2.3299e+002 -1.3336e+002  1.0966e+002 56908 76789,76976,76607
 3.1000e+000 77074 -4.4902e+002 -2.9973e+002  1.8301e+002 56908 76607,76976,77048
 3.1000e+000 77097 -5.3894e+002 -2.3812e+002  2.6019e+002 56908 76607,77048,76633
 3.1000e+000 77475 -1.8114e+002 -1.7797e+002  1.6776e+002 56546 77570,77498,77279
 3.1000e+000 77452 -1.2572e+002 -2.8916e+002  2.1135e+002 56546 77498,77227,77357
 3.1000e+000 77429 -2.0066e+002 -2.0345e+002  1.8686e+002 56546 77570,77279,77253
 3.1000e+000 77406 -2.8601e+002 -3.6518e+002  2.4400e+002 56546 77201,77357,77227
 3.1000e+000 77383 -2.1203e+002 -1.9784e+002  6.8888e+001 56546 77279,77331,77305
 3.1000e+000 77524 -1.5854e+002 -5.2258e+001  1.6240e+002 56546 77331,77279,77498
 3.1000e+000 77547 -7.0497e+001 -1.6016e+002  2.6035e+002 56546 77331,77498,77357
 3.1000e+000 77596 -1.8847e+002 -1.8474e+002  2.1653e+002 56546 77227,77498,77570
 3.1000e+000 77619 -2.2173e+002 -2.6102e+002  2.3442e+002 56546 77227,77570,77253
 3.1000e+000 77818 -2.0186e+002 -2.1698e+002  1.7950e+002 56042 77841,77694,77668
 3.1000e+000 77795 -1.7409e+002 -1.9627e+002  1.4933e+002 56042 77841,77668,77746
 3.1000e+000 77772 -2.2487e+002 -9.4842e+001  1.2943e+002 56042 77642,77746,77668
 3.1000e+000 77867 -2.2186e+002 -2.4049e+002  2.0221e+002 56042 77720,77694,77841
 3.1000e+000 77890 -1.8919e+002 -2.1515e+002  1.7137e+002 56042 77720,77841,77746
 3.1000e+000 78349 -3.1488e+002 -1.4670e+002  1.5981e+002 55538 78075,78127,78101
 3.1000e+000 78326 -3.9826e+002 -2.4715e+002  9.1606e+001 55538 78075,78205,78127
 3.1000e+000 78303 -4.1764e+002 -1.2292e+002  9.8701e+001 55538 78075,78231,78205
 3.1000e+000 78280 -2.8333e+002 -3.7034e+002  2.0393e+002 55538 78127,78179,78153
 3.1000e+000 78257 -2.6314e+002 -2.4328e+002  8.2727e+001 55538 78127,78205,78179
 3.1000e+000 78806 -1.9138e+002 -2.1639e+002  7.1963e+001 55034 78829,78636,78610
 3.1000e+000 78783 -2.1758e+002 -2.3413e+002  8.2957e+001 55034 78901,78829,78610
 3.1000e+000 78760 -1.7890e+002 -2.6031e+002  1.0611e+002 55034 78901,78610,78584
 3.1000e+000 78737 -2.1629e+002 -1.9212e+002  1.0500e+002 55034 78558,78688,78662
 3.1000e+000 78714 -2.2025e+002 -1.7065e+002  1.8639e+002 55034 78532,78688,78558
 3.1000e+000 78855 -2.1687e+002 -2.2463e+002  6.7136e+001 55034 78662,78636,78829
 3.1000e+000 78878 -2.2885e+002 -2.0601e+002  9.9744e+001 55034 78662,78829,78558
 3.1000e+000 78927 -1.7991e+002 -1.8341e+002  1.0647e+002 55034 78558,78829,78901
 3.1000e+000 78950 -1.5915e+002 -2.0976e+002  1.2900e+002 55034 78558,78901,78584
 3.1000e+000 79407 -1.1569e+002 -1.1962e+002  1.5232e+002 54430 79430,79237,79159
 3.1000e+000 79384 -7.7784e+001 -2.0902e+002  4.6635e+001 54430 79430,79159,79133
 3.1000e+000 79361 -1.5695e+002 -1.4593e+002  9.0387e+001 54430 79237,79289,79263
 3.1000e+000 79338 -1.3473e+002 -1.7234e+002  1.0539e+002 54430 79185,79237,79211
 3.1000e+000 79315 -2.6061e+002 -1.8116e+002  1.8594e+002 54430 79159,79237,79185
 3.1000e+000 79456 -1.3813e+002 -2.2646e+002  1.2424e+002 54430 79289,79237,79430
 3.1000e+000 79479 -1.1472e+002 -3.7432e+002  4.0612e+001 54430 79289,79430,79133
 3.1000e+000 79936 -1.2895e+002 -1.1663e+002  1.4567e+002 53919 79662,79766,79688
 3.1000e+000 79913 -4.8538e+002 -2.2608e+002  2.7495e+002 53919 79662,79818,79766
 3.1000e+000 79890 -6.2999e+002 -2.4724e+002  7.8268e+001 53919 79766,79818,79792
 3.1000e+000 79867 -3.3807e+002 -2.8903e+002  1.6431e+002 53919 79714,79766,79740
 3.1000e+000 79844 -3.1638e+002 -2.3168e+002  2.0460e+002 53919 79688,79766,79714
 3.1000e+000 80037 -1.7946e+002 -4.2712e+002  2.3151e+002 53671 79959,80011,79985
 3.1000e+000 80405 -1.0011e+002 -2.4632e+002  7.4036e+001 53267 80108,80264,80238
 3.1000e+000 80382 -1.5787e+002 -2.3385e+002  7.7512e+001 53267 80082,80264,80108
 3.1000e+000 80359 -1.1740e+002 -3.2621e+002  1.3836e+002 53267 80108,80238,80134
 3.1000e+000 80336 -5.2292e+001 -1.2540e+002  1.1291e+002 53267 80134,80212,80186
 3.1000e+000 80313 -1.8383e+002 -2.7459e+002  2.1581e+002 53267 80134,80238,80212
 3.1000e+000 80290 -3.1779e+001 -1.5687e+002  7.7743e+001 53267 80134,80186,80160
 3.1000e+000 80915 -3.2773e+002 -4.5498e+002  6.8940e+001 52969 80644,80774,80748
 3.1000e+000 80892 -3.0564e+002 -2.6220e+002  2.9847e+001 52969 80618,80774,80644
 3.1000e+000 80869 -3.9197e+002 -5.5593e+002  1.5177e+001 52969 80644,80748,80670
 3.1000e+000 80846 -3.8931e+002 -2.8522e+002  3.3616e+001 52969 80592,80774,80618
 3.1000e+000 80823 -4.9847e+002 -4.6496e+002  7.3138e+001 52969 80670,80722,80696
 3.1000e+000 80800 -3.1648e+002 -3.8942e+002  3.6384e+001 52969 80670,80748,80722
 3.1000e+000 81266  3.9328e+001 -1.4933e+001  1.0163e+001 52565 81041,81145,81067
 3.1000e+000 81243  2.5713e+001 -5.6818e+001  1.5778e+001 52565 81041,81171,81145
 3.1000e+000 81220 -7.8172e+001 -2.7848e+002  5.2882e+001 52565 81067,81119,81093
 3.1000e+000 81197  5.5347e+001  1.4748e+001  1.7969e+001 52565 81067,81145,81119
 3.1000e+000 81723 -4.1671e+001  1.2081e-001  2.6638e+000 51904 81449,81527,81475
 3.1000e+000 81700 -6.3272e+001 -9.7809e+000  2.7223e+001 51904 81449,81579,81527
 3.1000e+000 81677 -2.0074e+002 -1.8587e+001  2.6555e+001 51904 81449,81605,81579
 3.1000e+000 81654 -1.3444e+002  1.4022e+001  2.5831e+001 51904 81527,81579,81553
 3.1000e+000 81631 -2.0541e+001  8.7119e+000  3.8008e-001 51904 81475,81527,81501
 3.1000e+000 82327 -2.6720e+002 -2.6382e+002  1.8505e+002 51321 82422,82350,82036
 3.1000e+000 82304 -2.8568e+002 -1.7316e+002  2.1924e+002 51321 82494,82350,81958
 3.1000e+000 82281 -2.8151e+002 -2.8590e+002  1.6590e+002 51321 82422,82036,82010
 3.1000e+000 82258 -3.1454e+002 -1.8645e+002  2.2249e+002 51321 82494,81958,81932
 3.1000e+000 82235 -2.9195e+002 -1.1847e+002  8.9409e+001 51321 82062,82114,82088
 3.1000e+000 82212 -7.3013e+002 -4.5941e+002  3.2745e+002 51321 81932,82140,82114
 3.1000e+000 82189 -2.8414e+002 -1.0793e+002  1.7614e+002 51321 81958,82010,81984
 3.1000e+000 82166 -1.4926e+002 -2.3960e+002  1.1733e+002 51321 81906,82140,81932
 3.1000e+000 82376 -2.6905e+002 -3.0474e+002  1.8291e+002 51321 82062,82036,82350
 3.1000e+000 82399 -2.7308e+002 -2.2310e+002  1.7249e+002 51321 82062,82350,82114
 3.1000e+000 82448 -2.4578e+002 -2.3979e+002  2.1146e+002 51321 81958,82350,82422
 3.1000e+000 82471 -2.5647e+002 -2.5940e+002  1.9283e+002 51321 81958,82422,82010
 3.1000e+000 82520 -2.9457e+002 -1.7513e+002  2.0321e+002 51321 82114,82350,82494
 3.1000e+000 82543 -2.9834e+002 -1.7711e+002  2.0493e+002 51321 82114,82494,81932
 3.1000e+000 83019 -2.4829e+002 -3.0961e+002  1.8592e+002 50817 82673,82751,82699
 3.1000e+000 82996 -3.1131e+002 -2.7022e+002  1.4265e+002 50817 83042,82673,82855
 3.1000e+000 82973 -3.3307e+002 -3.5825e+002  1.3187e+002 50817 83042,82855,82803
 3.1000e+000 82950 -4.1087e+002 -5.0001e+002  1.2144e+002 50817 82751,82803,82777
 3.1000e+000 82927 -3.3597e+002 -3.1548e+002  1.0513e+002 50817 82647,82855,82673
 3.1000e+000 82904 -4.6701e+002 -4.2943e+002  2.4751e+002 50817 82803,82855,82829
 3.1000e+000 82881 -4.5806e+002 -6.7392e+002  2.8552e+002 50817 82699,82751,82725
 3.1000e+000 83068 -2.6235e+002 -3.3452e+002  2.0082e+002 50817 82751,82673,83042
 3.1000e+000 83091 -2.8072e+002 -4.2065e+002  1.8116e+002 50817 82751,83042,82803
 3.1000e+000 83290 -2.9280e+002 -1.4191e+002  1.6040e+002 50356 83313,83166,83140
 3.1000e+000 83267 -2.8815e+002 -2.2028e+002  1.3979e+002 50356 83515,83313,83140
 3.1000e+000 83244 -3.4044e+002 -1.9180e+002  5.6539e+001 50356 83515,83140,83385
 3.1000e+000 83339 -3.8750e+002 -1.8118e+002  2.2178e+002 50356 83192,83166,83313
 3.1000e+000 83362 -2.0960e+002 -1.4473e+002  2.0209e+002 50356 83192,83313,83218
 3.1000e+000 83411 -1.0788e+002 -3.9991e+001  6.9591e+001 50356 83114,83218,83385
 3.1000e+000 83541 -1.4646e+002 -1.5524e+002  1.1929e+002 50356 83218,83313,83515
 3.1000e+000 83564 -1.6503e+002 -1.1468e+002  4.4662e+001 50356 83218,83515,83385
 3.1000e+000 83893 -3.3705e+002 -2.4976e+002  5.8944e+001 49552 83720,83798,83746
 3.1000e+000 83870 -2.4380e+002 -8.7662e+001  1.0156e+002 49552 83694,83798,83720
 3.1000e+000 83847 -2.1939e+002 -9.6287e+001  1.0014e+002 49552 83668,83798,83694
 3.1000e+000 83824 -4.8117e+002 -1.3058e+002 -9.8194e+000 49552 83746,83798,83772
 3.1000e+000 84141 -3.2547e+002 -2.1937e+002  1.3668e+002 49212 84164,84020,83942
 3.1000e+000 84118 -3.0642e+002 -1.5283e+002  2.0134e+002 49212 84164,83942,83916
 3.1000e+000 84095 -2.6176e+002 -2.7737e+002  9.4743e+001 49212 83942,84020,83968
 3.1000e+000 84072 -2.0583e+002 -3.0694e+001  7.6102e+001 49212 83968,84020,83994
 3.1000e+000 84190 -3.8655e+002 -2.1874e+002  9.5471e+001 49212 84046,84020,84164
 3.1000e+000 84213 -3.5175e+002 -1.7110e+002  1.5800e+002 49212 84046,84164,83916
 3.1000e+000 84800 -6.8032e+001 -8.0710e+001  6.8505e+001 48865 84503,84633,84555
 3.1000e+000 84777 -9.0256e+001 -1.0315e+002  5.9599e+001 48865 84503,84659,84633
 3.1000e+000 84754 -8.9277e+001 -1.3817e+002  6.1130e+001 48865 84555,84633,84581
 3.1000e+000 84731 -8.0922e+001 -2.5273e+002  1.0413e+002 48865 84581,84633,84607
 3.1000e+000 84708 -2.0228e+002 -1.2990e+002  7.2496e+001 48865 84503,84555,84529
 3.1000e+000 84685 -5.4754e+001 -5.0815e+001  1.0758e+001 48865 84477,84659,84503
 3.1000e+000 85355 -1.8115e+002 -2.3845e+002  4.1938e+001 48461 85378,85035,85009
 3.1000e+000 85332 -2.7235e+002 -2.9478e+002  8.3131e+001 48461 85378,85009,85165
 3.1000e+000 85309 -2.4376e+002 -3.2206e+002  1.0653e+002 48461 85450,85061,85035
 3.1000e+000 85286 -2.8195e+002 -2.9248e+002  7.3901e+001 48461 85009,85191,85165
 3.1000e+000 85263 -2.2596e+002 -2.5885e+002  1.6876e+002 48461 85087,85165,85113
 3.1000e+000 85240 -1.3848e+002 -3.8170e+002 -5.1578e+001 48461 84983,85191,85009
 3.1000e+000 85217 -1.9795e+002 -3.1416e+002  1.1509e+002 48461 85113,85165,85139
 3.1000e+000 85404 -2.5052e+002 -2.7460e+002  8.4755e+001 48461 85450,85035,85378
 3.1000e+000 85427 -2.9228e+002 -2.9312e+002  8.7365e+001 48461 85087,85378,85165
 3.1000e+000 85476 -2.5512e+002 -3.8329e+002  1.1509e+002 48461 85087,85061,85450
 3.1000e+000 85499 -2.7136e+002 -3.5564e+002  8.8523e+001 48461 85087,85450,85378
 3.1000e+000 86084 -8.5819e+001 -2.9144e+002  1.2509e+002 48057 86323,86107,85787
 3.1000e+000 86061 -1.3885e+002 -3.2756e+002  1.4744e+002 48057 86107,85761,85943
 3.1000e+000 86038 -1.9414e+002 -2.5421e+002  1.1681e+002 48057 86251,86179,85891
 3.1000e+000 86015 -1.9568e+002 -2.1917e+002  7.6856e+001 48057 86251,85891,85839
 3.1000e+000 85992 -1.5552e+002 -2.0961e+002  1.4996e+002 48057 85891,85943,85917
 3.1000e+000 85969 -2.5491e+002 -1.8624e+002  1.1534e+002 48057 85839,85891,85865
 3.1000e+000 86133 -1.0726e+002 -3.2385e+002  1.0656e+002 48057 85813,85787,86107
 3.1000e+000 86156 -1.4832e+002 -3.0232e+002  9.7805e+001 48057 86179,85813,86107
 3.1000e+000 86205 -1.5054e+002 -2.0510e+002  1.3536e+002 48057 85943,85891,86179
 3.1000e+000 86228 -9.7186e+001 -2.3881e+002  1.3263e+002 48057 85943,86179,86107
 3.1000e+000 86277 -1.2020e+002 -2.1607e+002  1.0330e+002 48057 85813,86179,86251
 3.1000e+000 86300 -1.6088e+002 -2.0044e+002  6.9651e+001 48057 85813,86251,85839
 3.1000e+000 86349 -7.5399e+001 -2.8388e+002  1.2840e+002 48057 85761,86107,86323
 3.1000e+000 86855 -7.4967e+001 -1.6129e+002  8.1936e+001 47545 86878,86584,86558
 3.1000e+000 86832 -1.0031e+002 -1.7227e+002  7.7111e+001 47545 86950,86878,86558
 3.1000e+000 86809 -1.0876e+002 -1.4128e+002  8.9438e+001 47545 86950,86558,86532
 3.1000e+000 86786 -6.2935e+001 -1.8584e+002  9.0248e+001 47545 86584,86662,86610
 3.1000e+000 86763 -1.7041e+002 -3.3188e+001  3.9980e+001 47545 86532,86714,86688
 3.1000e+000 86740 -9.7160e+001 -7.2095e+001  9.6457e+001 47545 86610,86662,86636
 3.1000e+000 86904 -7.8694e+001 -1.9305e+002  8.7151e+001 47545 86662,86584,86878
 3.1000e+000 86927 -5.0774e+001 -1.6577e+002  6.3807e+001 47545 86662,86878,86688
 3.1000e+000 86976 -7.3107e+001 -1.2617e+002  6.5741e+001 47545 86688,86878,86950
 3.1000e+000 86999 -9.8812e+001 -1.2524e+002  8.4816e+001 47545 86688,86950,86532
 3.1000e+000 87328 -7.0784e+002 -2.4937e+002  2.4647e+002 47048 87155,87207,87181
 3.1000e+000 87305 -2.7838e+002 -2.4902e+002  1.5270e+002 47048 87129,87207,87155
 3.1000e+000 87282 -5.3049e+002 -3.4320e+002  1.7487e+002 47048 87103,87207,87129
 3.1000e+000 87259 -7.8634e+002 -1.0310e+003  5.4014e+002 47048 87103,87233,87207
 3.1000e+000 87576 -1.4129e+002 -3.6171e+002  1.8106e+002 46701 87599,87429,87377
 3.1000e+000 87553 -2.1218e+002 -3.3113e+002  1.5227e+002 46701 87599,87377,87481
 3.1000e+000 87530 -1.6988e+002 -3.1671e+002  1.4614e+002 46701 87351,87481,87377
 3.1000e+000 87507 -1.5640e+002 -3.3220e+002  1.9429e+002 46701 87377,87429,87403
 3.1000e+000 87625 -1.8674e+002 -3.7864e+002  1.4444e+002 46701 87455,87429,87599
 3.1000e+000 87648 -2.9672e+002 -3.5907e+002  1.2697e+002 46701 87455,87599,87481
 3.1000e+000 87798 -3.6304e+001 -1.0077e+002  1.6186e+001 46239 87697,87749,87723
 3.1000e+000 87775 -8.7000e+001 -3.0674e+002  4.3680e+001 46239 87671,87749,87697
 3.1000e+000 88308 -3.5457e+002 -4.6887e+002  9.7427e+001 45735 88089,88167,88141
 3.1000e+000 88285 -2.3381e+002 -2.4529e+002  1.4328e+002 45735 88011,88167,88089
 3.1000e+000 88262 -1.6972e+001 -2.1889e+002  5.0439e+001 45735 87985,88167,88011
 3.1000e+000 88239 -7.7566e+001 -9.1469e+002  1.9626e+002 45735 88011,88089,88063
 3.1000e+000 88216 -4.6034e+002 -5.1663e+002  8.9521e+001 45735 88089,88141,88115
 3.1000e+000 88193 -3.6475e+002 -1.3450e+003 -1.4936e+001 45735 88011,88063,88037
 3.1000e+000 88686 -2.9477e+002 -1.2413e+002  1.8895e+002 45316 88438,88516,88490
 3.1000e+000 88663 -2.7929e+002  7.7793e+001  2.8824e+002 45316 88438,88542,88516
 3.1000e+000 88640 -1.4994e+002 -3.1547e+002  3.3887e+002 45316 88438,88568,88542
 3.1000e+000 88617 -2.8277e+002 -2.2861e+002  1.6807e+002 45316 88438,88490,88464
 3.1000e+000 88594 -2.9126e+002 -3.3697e+002  3.4901e+002 45316 88412,88568,88438
 3.1000e+000 88934 -4.9635e+002 -4.7186e+002  2.9600e+002 44812 88957,88735,88709
 3.1000e+000 88911 -2.7951e+002 -2.7103e+002  1.3117e+002 44812 88957,88709,88839
 3.1000e+000 88888 -2.5997e+002 -2.3465e+002  7.5845e+001 44812 89029,88787,88761
 3.1000e+000 88865 -2.2562e+002 -2.2629e+002  8.2163e+001 44812 88787,88839,88813
 3.1000e+000 88983 -1.4831e+002 -2.8444e+002  1.8789e+002 44812 88761,88735,88957
 3.1000e+000 89006 -2.4617e+002 -2.6001e+002  6.7450e+001 44812 89029,88761,88957
 3.1000e+000 89055 -2.4389e+002 -2.6674e+002  8.6303e+001 44812 88839,88787,89029
 3.1000e+000 89078 -2.4923e+002 -3.1473e+002  8.4576e+001 44812 88839,89029,88957
 3.1000e+000 89228 -8.5895e+001 -2.3915e+002  1.6652e+002 44408 89127,89179,89153
 3.1000e+000 89205 -2.8696e+001 -7.1550e-002  2.0018e+000 44408 89101,89179,89127
 3.1000e+000 89787 -2.9016e+002 -1.7158e+002  1.5677e+002 43854 89810,89545,89519
 3.1000e+000 89764 -3.2064e+002 -2.3837e+002  1.4425e+002 43854 89810,89519,89467
 3.1000e+000 89741 -3.1570e+002 -3.3178e+002  1.3573e+002 43854 89954,89882,89597
 3.1000e+000 89718 -3.1628e+002 -3.4400e+002  1.3199e+002 43854 89954,89597,89571
 3.1000e+000 89695 -1.5113e+002 -2.0203e+002  1.2991e+002 43854 89415,89623,89467
 3.1000e+000 89672 -1.4816e+002 -1.5736e+002  9.8872e+001 43854 89467,89519,89493
 3.1000e+000 89649 -8.0253e+001 -1.5572e+002  9.8237e+001 43854 89415,89467,89441
 3.1000e+000 89836 -3.0687e+002 -1.8274e+002  1.7194e+002 43854 89882,89545,89810
 3.1000e+000 89859 -1.6753e+002 -2.0943e+002  1.1789e+002 43854 89623,89810,89467
 3.1000e+000 89908 -3.0271e+002 -3.7591e+002  1.9227e+002 43854 89623,89597,89882
 3.1000e+000 89931 -2.8552e+002 -3.4591e+002  1.7438e+002 43854 89623,89882,89810
 3.1000e+000 89980 -3.1805e+002 -3.1471e+002  2.0769e+002 43854 89545,89882,89954
 3.1000e+000 90003 -3.3862e+002 -3.7698e+002  2.1282e+002 43854 89545,89954,89571
 3.1000e+000 90251 -1.3539e+002 -1.0936e+002  7.7167e+001 43492 90026,90078,90052
 3.1000e+000 90228 -2.9293e+002 -1.9588e+002  1.0586e+002 43492 90274,90026,90156
 3.1000e+000 90205 -2.7306e+002 -2.2146e+002  1.0808e+002 43492 90346,90274,90156
 3.1000e+000 90182 -2.8486e+002 -3.0958e+002  2.4848e+002 43492 90346,90156,90130
 3.1000e+000 90300 -2.1620e+002 -2.3741e+002  1.3202e+002 43492 90078,90026,90274
 3.1000e+000 90323 -3.2297e+002 -2.5751e+002  1.4604e+002 43492 90078,90274,90104
 3.1000e+000 90372 -4.4303e+002 -3.3840e+002  2.0293e+002 43492 90104,90274,90346
 3.1000e+000 90395 -4.5912e+002 -4.4494e+002  3.4595e+002 43492 90104,90346,90130
 3.1000e+000 90594 -1.5610e+002 -4.4005e+002  9.6041e+001 43052 90418,90496,90444
 3.1000e+000 90571 -2.9257e+002 -5.7823e+002  1.5353e+002 43052 90418,90522,90496
 3.1000e+000 90548 -2.7391e+002 -3.1813e+002  1.4131e+002 43052 90444,90496,90470
 3.1000e+000 91074 -3.8532e+002 -5.1606e+002  3.0585e+002 42434 91241,90884,90858
 3.1000e+000 91051 -7.7885e+002 -6.8505e+002 -3.9079e+001 42434 90702,90910,90884
 3.1000e+000 91028 -1.8957e+002 -4.2954e+002  2.0986e+002 42434 91097,90754,90702
 3.1000e+000 91005 -3.5117e+002 -3.2338e+002  2.8887e+002 42434 91241,90858,91097
 3.1000e+000 90982 -1.7477e+002 -2.6190e+002  5.5509e+001 42434 91169,90806,90780
 3.1000e+000 90959 -1.2031e+002 -2.7732e+002 -1.1950e+001 42434 90806,90858,90832
 3.1000e+000 90936 -2.4383e+002 -4.2394e+002  1.9972e+002 42434 90702,90754,90728
 3.1000e+000 91123 -4.0435e+002 -5.0417e+002  1.6931e+002 42434 90780,90754,91097
 3.1000e+000 91146 -3.4766e+002 -3.8304e+002  2.1662e+002 42434 91169,90780,91097
 3.1000e+000 91195 -1.0889e+002 -1.9140e+002 -1.4952e+001 42434 90858,90806,91169
 3.1000e+000 91218 -1.6201e+002 -8.0541e+001  1.1372e+002 42434 90858,91169,91097
 3.1000e+000 91267 -2.6613e+002 -7.4204e+002  2.0693e+002 42434 90702,90884,91241
 3.1000e+000 91290 -2.5234e+002 -5.7431e+002  1.9291e+002 42434 90702,91241,91097
 3.1000e+000 91698 -4.1906e+001 -2.5093e+002  9.7773e+001 41773 91473,91577,91499
 3.1000e+000 91675 -1.0009e+002 -2.8999e+002  1.1960e+002 41773 91473,91603,91577
 3.1000e+000 91652 -1.4050e+002 -2.1056e+002  3.0417e+001 41773 91499,91551,91525
 3.1000e+000 91629 -1.8393e+002 -2.3726e+002  8.9282e+001 41773 91499,91577,91551
 3.1000e+000 92044 -1.7922e+002 -2.4328e+002  1.5476e+002 41383 91773,91877,91851
 3.1000e+000 92021 -1.1865e+002 -2.7953e+002  1.0180e+002 41383 91747,91877,91773
 3.1000e+000 91998 -1.3294e+002 -1.7239e+002  1.1870e+002 41383 91773,91851,91799
 3.1000e+000 91975 -1.0383e+002 -1.9320e+002  2.8564e+001 41383 91747,91903,91877
 3.1000e+000 91952 -2.4914e+001 -1.4786e+002  4.8854e+001 41383 91721,91903,91747
 3.1000e+000 91929 -4.8614e+001 -1.9467e+002  7.8192e+001 41383 91799,91851,91825
 3.1000e+000 92601 -2.6316e+002 -2.5635e+002  7.6135e+001 40979 92229,92411,92307
 3.1000e+000 92578 -3.8162e+002 -2.6730e+002  6.6027e+001 40979 92229,92437,92411
 3.1000e+000 92555 -2.3504e+002 -2.4171e+002  5.4587e+001 40979 92229,92307,92281
 3.1000e+000 92532 -2.2668e+002 -2.8368e+002  1.1003e+002 40979 92333,92411,92385
 3.1000e+000 92509 -2.1940e+002 -2.2961e+002  8.8066e+001 40979 92307,92411,92333
 3.1000e+000 92486 -2.4271e+002 -2.6227e+002  5.5116e+001 40979 92229,92281,92255
 3.1000e+000 92463 -2.6269e+001 -2.5136e+002  8.7924e+001 40979 92333,92385,92359
 3.1000e+000 93235 -3.1477e+002 -1.9857e+002  2.4291e+002 40525 92941,92993,92967
 3.1000e+000 93212 -3.8692e+002 -1.0741e+002  7.6748e+001 40525 93258,92941,92889
 3.1000e+000 93189 -2.9607e+002 -4.5913e+001  2.1595e+001 40525 93258,92889,93071
 3.1000e+000 93166 -3.4186e+002 -2.2351e+002  7.5557e+001 40525 92889,92941,92915
 3.1000e+000 93143 -3.1763e+002 -5.4641e+001  1.6234e+001 40525 92863,93071,92889
 3.1000e+000 93120 -3.2035e+002 -2.1728e+002  1.3641e+002 40525 92993,93071,93019
 3.1000e+000 93097 -3.6567e+002 -1.6728e+002  1.2112e+002 40525 93019,93071,93045
 3.1000e+000 93284 -4.5413e+002 -2.2922e+002  1.9349e+002 40525 92993,92941,93258
 3.1000e+000 93307 -2.5469e+002 -7.8791e+001  1.1761e+002 40525 92993,93258,93071
 3.1000e+000 93636 -3.3821e+002 -2.9660e+002  2.9252e+002 40235 93437,93541,93515
 3.1000e+000 93613 -2.8211e+002 -3.9724e+002  2.5998e+002 40235 93411,93541,93437
 3.1000e+000 93590 -7.1717e+001 -3.4027e+002  9.2816e+001 40235 93463,93515,93489
 3.1000e+000 93567 -1.7598e+002 -2.2162e+002  5.6639e+001 40235 93437,93515,93463
 3.1000e+000 94014 -3.6688e+002 -3.2408e+002  1.8224e+002 39873 93766,93870,93792
 3.1000e+000 93991 -2.8740e+002 -3.6323e+002  1.3896e+002 39873 93766,93896,93870
 3.1000e+000 93968 -3.5269e+002 -2.5872e+002  1.8724e+002 39873 93792,93870,93844
 3.1000e+000 93945 -2.3973e+002 -1.8047e+002  1.3506e+002 39873 93792,93844,93818
 3.1000e+000 93922 -2.1312e+002 -2.8699e+002  2.0847e+002 39873 93740,93896,93766
 3.1000e+000 94164 -4.0088e+001 -1.7404e+002  8.1891e+001 39461 94037,94089,94063
 3.1000e+000 94141 -1.2312e+002 -5.5228e+002  2.1426e+002 39461 94037,94115,94089
 3.1000e+000 94363 -2.0826e+002 -1.3314e+002  1.0125e+002 39057 94386,94239,94213
 3.1000e+000 94340 -8.7578e+001 -4.9141e+001  6.0935e+001 39057 94386,94213,94187
 3.1000e+000 94317 -2.0213e+002 -1.3541e+002  1.0268e+002 39057 94187,94291,94265
 3.1000e+000 94412 -6.8653e+001 -1.0184e+002  9.7182e+001 39057 94458,94386,94265
 3.1000e+000 94435 -1.2944e+002 -1.2838e+002  9.0829e+001 39057 94265,94386,94187
 3.1000e+000 94484 -1.6131e+002 -1.8161e+002  1.3785e+002 39057 94239,94386,94458
 3.1000e+000 94896 -3.5510e+002 -2.5380e+002  1.7310e+002 38396 94919,94775,94723
 3.1000e+000 94873 -4.0891e+002 -2.0452e+002  1.7716e+002 38396 94919,94723,94697
 3.1000e+000 94850 -2.6604e+002 -2.2729e+002  1.1395e+002 38396 94723,94775,94749
 3.1000e+000 94827 -1.8894e+002 -1.2669e+002  9.2935e+001 38396 94671,94801,94697
 3.1000e+000 94945 -3.4509e+002 -2.1843e+002  1.5520e+002 38396 94801,94775,94919
 3.1000e+000 94968 -3.7578e+002 -1.5333e+002  1.4952e+002 38396 94801,94919,94697
 3.1000e+000 95265 -3.6430e+002 -3.6511e+002  1.7265e+002 37835 95017,95069,95043
 3.1000e+000 95242 -3.6842e+002 -3.3165e+002  1.7518e+002 37835 95288,95069,95017
 3.1000e+000 95219 -3.8519e+002 -3.7230e+002  2.4618e+002 37835 95288,95017,94991
 3.1000e+000 95196 -4.3556e+002 -4.0368e+002  2.3298e+002 37835 94991,95147,95121
 3.1000e+000 95173 -2.2656e+002 -1.9263e+002  1.5142e+002 37835 95069,95121,95095
 3.1000e+000 95314 -3.5685e+002 -2.3157e+002  1.4215e+002 37835 95121,95069,95288
 3.1000e+000 95337 -3.7525e+002 -2.9596e+002  2.0797e+002 37835 95121,95288,94991
 3.1000e+000 95558  3.3273e+001 -1.1449e+001  6.2972e+001 37423 95408,95460,95434
 3.1000e+000 95535 -8.1453e+001 -3.5589e+002  1.6845e+002 37423 95382,95460,95408
 3.1000e+000 95512 -1.7809e+002 -4.3706e+002  2.0343e+002 37423 95382,95486,95460
 3.1000e+000 95891 -9.7684e+001 -3.0146e+002  9.6410e+001 37225 95666,95718,95692
 3.1000e+000 95868 -3.2760e+002 -5.2628e+002  1.8987e+002 37225 95666,95796,95718
 3.1000e+000 95845 -1.8625e+002 -2.6674e+002  5.0380e+001 37225 95718,95770,95744
 3.1000e+000 95822 -1.5888e+002 -2.5488e+002  5.2496e+001 37225 95718,95796,95770
 3.1000e+000 95992 -3.1884e+001 -1.6077e+002  7.0958e+001 36735 95914,95966,95940
 3.1000e+000 96142 -3.9454e+002 -1.7104e+002  2.1391e+002 36331 96297,96067,96041
 3.1000e+000 96119 -3.0486e+002 -1.7276e+002  2.0848e+002 36331 96165,96041,96015
 3.1000e+000 96191 -3.7173e+002 -1.6597e+002  2.0298e+002 36331 96297,96041,96165
 3.1000e+000 96323 -4.3770e+002 -1.8446e+002  2.6356e+002 36331 96093,96067,96297
 3.1000e+000 96346 -3.6937e+002 -1.5979e+002  2.5481e+002 36331 96093,96297,96165
 3.1000e+000 96714 -2.2815e+002 -3.5516e+002  2.2757e+002 36041 96737,96495,96443
 3.1000e+000 96691 -3.2529e+002 -2.4535e+002  2.3909e+002 36041 96737,96443,96417
 3.1000e+000 96668 -1.3546e+002 -3.7694e+002  4.4654e+001 36041 96443,96495,96469
 3.1000e+000 96645 -6.2397e+001 -3.6281e+001  1.0725e+002 36041 96391,96521,96417
 3.1000e+000 96622 -1.0236e+001 -9.8152e+001  9.1513e+001 36041 96391,96547,96521
 3.1000e+000 96599 -2.2336e+001 -9.8275e+001  8.7391e+001 36041 96391,96573,96547
 3.1000e+000 96763 -9.7498e+001 -2.5639e+002  1.8446e+002 36041 96521,96495,96737
 3.1000e+000 96786 -2.7641e+002 -2.1069e+002  2.2146e+002 36041 96521,96737,96417
 3.1000e+000 96936 -2.2238e+002 -1.4819e+002  1.3312e+002 35637 97031,96959,96835
 3.1000e+000 96913 -2.5234e+002 -1.4530e+002  1.6776e+002 35637 97163,96959,96809
 3.1000e+000 96985 -2.7068e+002 -1.2192e+002  1.5823e+002 35637 96861,96835,96959
 3.1000e+000 97008 -3.5056e+002 -2.1093e+002  2.5387e+002 35637 96861,96959,96887
 3.1000e+000 97057 -2.0532e+002 -9.9532e+001  9.8198e+001 35637 96809,96959,97031
 3.1000e+000 97189 -2.1366e+002 -1.3890e+002  1.7533e+002 35637 96887,96959,97163
 3.1000e+000 97597 -1.6699e+002 -2.2743e+002  1.8950e+002 35190 97450,97502,97476
 3.1000e+000 97574 -1.7605e+002 -2.7006e+002  2.2220e+002 35190 97372,97502,97450
 3.1000e+000 97551 -1.7830e+002 -3.0361e+002  2.0939e+002 35190 97372,97450,97398
 3.1000e+000 97528 -1.8103e+002 -3.0263e+002  2.0580e+002 35190 97398,97450,97424
 3.1000e+000 98054 -1.9528e+002 -2.5767e+002  2.0097e+002 34636 97806,97936,97858
 3.1000e+000 98031 -3.4598e+002 -2.1319e+002  1.6869e+002 34636 97780,97936,97806
 3.1000e+000 98008 -3.3674e+002 -2.7258e+002  1.2437e+002 34636 97806,97858,97832
 3.1000e+000 97985 -2.2429e+002 -2.9002e+002  1.9713e+002 34636 97884,97936,97910
 3.1000e+000 97962 -1.3542e+002 -2.0850e+002  1.5430e+002 34636 97858,97936,97884
 3.1000e+000 98530 -2.5749e+002  9.1589e+001  6.8166e+001 34068 98697,98184,98366
 3.1000e+000 98507 -6.4891e+000  3.0188e+001  7.1332e+000 34068 98158,98366,98184
 3.1000e+000 98484 -3.2953e+002 -4.1662e+002  1.3293e+002 34068 98553,98262,98236
 3.1000e+000 98461 -6.8397e+002 -6.1469e+002  5.4960e+001 34068 98553,98236,98210
 3.1000e+000 98438 -3.3596e+002 -1.8266e+002  1.4495e+002 34068 98841,98625,98366
 3.1000e+000 98415 -3.0512e+002 -5.6011e+002  2.1142e+002 34068 98769,98288,98262
 3.1000e+000 98392 -4.4285e+002 -8.0794e+001  1.2596e+002 34068 98841,98366,98340
 3.1000e+000 98579 -3.6648e+002 -4.7517e+002  1.5282e+002 34068 98769,98262,98553
 3.1000e+000 98602 -3.0569e+002 -2.6605e+002  1.5859e+002 34068 98625,98314,98553
 3.1000e+000 98651 -3.1342e+002 -1.7840e+002  1.1258e+002 34068 98697,98366,98625
 3.1000e+000 98674 -3.8429e+002 -4.5621e+002  1.5095e+002 34068 98210,98625,98553
 3.1000e+000 98723 -3.8838e+002 -2.3523e+002  1.2711e+002 34068 98210,98184,98697
 3.1000e+000 98746 -3.4321e+002 -2.9350e+002  1.8984e+002 34068 98210,98697,98625
 3.1000e+000 98795 -1.7846e+002 -4.6746e+002  1.6159e+002 34068 98314,98288,98769
 3.1000e+000 98818 -2.5577e+002 -4.0440e+002  1.0774e+002 34068 98314,98769,98553
 3.1000e+000 98867 -4.2096e+002 -3.0728e+002  1.0407e+002 34068 98314,98625,98841
 3.1000e+000 98890 -5.1891e+002 -1.8786e+002  8.7046e+001 34068 98314,98841,98340
 3.1000e+000 99268 -4.2828e+002 -4.3547e+002  3.0272e+002 33450 99291,99098,99072
 3.1000e+000 99245 -4.6710e+002 -3.3722e+002  1.8336e+002 33450 99291,99072,99020
 3.1000e+000 99222 -7.6823e+002 -4.7857e+002  3.0292e+002 33450 99020,99072,99046
 3.1000e+000 99199 -3.7020e+002 -2.9046e+002  1.8538e+002 33450 99020,99150,99124
 3.1000e+000 99176 -3.7019e+002 -2.2632e+002  3.0718e+001 33450 98994,99150,99020
 3.1000e+000 99317 -2.4015e+002 -3.4776e+002  2.7978e+002 33450 99124,99098,99291
 3.1000e+000 99340 -4.0714e+002 -3.1057e+002  1.7698e+002 33450 99124,99291,99020
 3.1000e+000 99865 -2.3899e+002 -2.3890e+002  1.3594e+002 32944 100176,99960,99888
 3.1000e+000 99842 -2.8389e+002 -2.5647e+002  1.3921e+002 32944 100104,99888,99522
 3.1000e+000 99819 -2.3127e+002 -2.2296e+002  1.6185e+002 32944 100248,99960,99626
 3.1000e+000 99796 -2.4339e+002 -2.6821e+002  9.3728e+001 32944 100032,99652,99626
 3.1000e+000 99773 -2.4476e+002 -2.9996e+002  9.4033e+001 32944 100104,99522,99496
 3.1000e+000 99750 -1.8392e+002 -1.8026e+002  3.2843e+000 32944 99574,99626,99600
 3.1000e+000 99727 -1.9291e+002 -2.2094e+002  1.7530e+002 32944 100248,99626,99574
 3.1000e+000 99704 -1.5747e+002 -2.2967e+002  1.2827e+002 32944 99444,99496,99470
 3.1000e+000 99914 -2.5216e+002 -2.2802e+002  1.0821e+002 32944 100176,99888,100032
 3.1000e+000 99937 -2.8856e+002 -2.0030e+002  1.5797e+002 32944 99678,99888,99444
 3.1000e+000 99986 -2.6904e+002 -2.0176e+002  1.3567e+002 32944 99522,99888,99960
 3.1000e+000 100009 -2.6401e+002 -1.6197e+002  1.6295e+002 32944 99522,99960,99548
 3.1000e+000 100058 -2.7548e+002 -2.7417e+002  9.1572e+001 32944 99678,99652,100032
 3.1000e+000 100081 -3.1131e+002 -2.5879e+002  9.7175e+001 32944 99678,100032,99888
 3.1000e+000 100130 -2.0744e+002 -2.1394e+002  1.5624e+002 32944 99444,99888,100104
 3.1000e+000 100153 -1.7792e+002 -2.5635e+002  1.1288e+002 32944 99444,100104,99496
 3.1000e+000 100202 -2.6389e+002 -2.8263e+002  1.2400e+002 32944 99626,99960,100176
 3.1000e+000 100225 -2.7412e+002 -2.8120e+002  9.8410e+001 32944 99626,100176,100032
 3.1000e+000 100274 -2.8807e+002 -2.1927e+002  1.4961e+002 32944 99548,99960,100248
 3.1000e+000 100297 -2.5403e+002 -2.2074e+002  1.6273e+002 32944 99548,100248,99574
 3.1000e+000 100754 -6.4305e+001 -8.6483e+001  5.5226e+001 32369 100777,100584,100506
 3.1000e+000 100731 -8.4086e+001 -1.3576e+002  9.7208e+001 32369 100777,100506,100636
 3.1000e+000 100708 -1.4290e+002 -1.3859e+002  1.0395e+002 32369 100480,100636,100506
 3.1000e+000 100685 -2.6956e+002 -1.4375e+002  3.1885e+000 32369 100532,100584,100558
 3.1000e+000 100662 -8.4710e+001 -1.2665e+002  6.2235e+001 32369 100506,100584,100532
 3.1000e+000 100803 -9.1850e+001 -1.6882e+001  4.1172e+001 32369 100610,100584,100777
 3.1000e+000 100826 -1.0089e+002 -6.6647e+001  7.6226e+001 32369 100610,100777,100636
 3.1000e+000 101025 -2.0819e+002 -1.9481e+002  1.8120e+002 31857 100875,100927,100901
 3.1000e+000 101002 -4.4042e+002 -5.9664e+001  2.0155e+002 31857 100875,100953,100927
 3.1000e+000 100979 -4.9055e+002 -1.3171e+002  1.3696e+002 31857 100849,100953,100875
 3.1000e+000 101533 -2.0479e+002 -2.8395e+002  2.1531e+002 31253 101556,101314,101236
 3.1000e+000 101510 -3.0556e+002 -3.0434e+002  2.1255e+002 31253 101556,101236,101210
 3.1000e+000 101487 -2.8600e+002 -2.8088e+002  9.2254e+001 31253 101210,101392,101340
 3.1000e+000 101464 -1.6383e+002 -2.8349e+002  1.5013e+002 31253 101236,101288,101262
 3.1000e+000 101441 -1.8989e+002 -3.9602e+002  1.9640e+002 31253 101236,101314,101288
 3.1000e+000 101418 -2.8332e+002 -3.5690e+002  1.8543e+002 31253 101340,101392,101366
 3.1000e+000 101582 -2.3804e+002 -2.6623e+002  1.3016e+002 31253 101340,101314,101556
 3.1000e+000 101605 -3.3930e+002 -2.8128e+002  1.3186e+002 31253 101340,101556,101210
 3.1000e+000 101755  1.8358e+001 -6.1053e+001  3.7620e+001 30519 101778,101654,101628
 3.1000e+000 101732 -1.3410e+002 -1.1192e+002  4.2855e+001 30519 101850,101778,101628
 3.1000e+000 101804 -1.1121e+002 -4.8228e+001 -1.0046e+001 30519 101680,101654,101778
 3.1000e+000 101827 -1.5338e+002 -6.0761e+001  6.5760e-001 30519 101680,101778,101706
 3.1000e+000 101876 -1.4391e+002 -1.3886e+002 -1.2408e+001 30519 101706,101778,101850
 3.1000e+000 102561 -1.1051e+002 -2.1791e+002  1.1830e+002 29951 102656,102584,102270
 3.1000e+000 102538 -4.0694e+002 -4.6921e+002  8.0946e+001 29951 102584,102140,102374
 3.1000e+000 102515 -2.1211e+002 -5.1086e+002  2.6344e+002 29951 102728,102656,102270
 3.1000e+000 102492 -2.2544e+002 -6.2417e+002  2.6246e+002 29951 102728,102270,102244
 3.1000e+000 102469 -3.2456e+002 -8.4667e+001  1.4481e+002 29951 102800,102322,102296
 3.1000e+000 102446 -3.2902e+002 -2.3989e+002  6.3188e+001 29951 102166,102218,102192
 3.1000e+000 102423 -2.7884e+002 -2.5289e+002  3.9457e+001 29951 102166,102244,102218
 3.1000e+000 102400 -1.7849e+002 -2.0714e+002  1.0127e+002 29951 102322,102374,102348
 3.1000e+000 102610 -3.8049e+002 -1.4581e+002  6.1059e+001 29951 102296,102270,102584
 3.1000e+000 102633 -4.2524e+002 -2.0164e+002  9.2074e+001 29951 102800,102296,102584
 3.1000e+000 102682 -4.7652e+002 -4.4417e+002  2.2951e+002 29951 102140,102584,102656
 3.1000e+000 102705 -2.8616e+002 -4.3591e+002  3.3341e+002 29951 102140,102656,102166
 3.1000e+000 102754 -2.2717e+002 -3.8272e+002  3.1123e+002 29951 102166,102656,102728
 3.1000e+000 102777 -2.3975e+002 -4.7411e+002  2.8713e+002 29951 102166,102728,102244
 3.1000e+000 102826 -2.2183e+002 -2.2018e+002  2.0125e+002 29951 102374,102322,102800
 3.1000e+000 102849 -2.6417e+002 -2.4454e+002  1.7306e+002 29951 102374,102800,102584
 3.1000e+000 103048 -4.1122e+001 -1.8896e+002  5.9849e+001 29454 102872,102924,102898
 3.1000e+000 103025 -5.1077e+001 -4.7087e+002  1.1780e+002 29454 102872,102976,102924
 3.1000e+000 103002 -1.6811e+002 -6.5905e+002  6.3359e+001 29454 102924,102976,102950
 3.1000e+000 103296 -4.9984e+002 -3.9978e+002  2.6254e+002 29064 103319,103175,103123
 3.1000e+000 103273 -6.5865e+002 -3.9846e+002  3.0509e+002 29064 103319,103123,103071
 3.1000e+000 103250 -3.0867e+002 -2.5738e+002  1.8730e+002 29064 103123,103175,103149
 3.1000e+000 103227 -5.1704e+002 -3.0206e+002  3.6560e+002 29064 103071,103123,103097
 3.1000e+000 103345 -3.5987e+002 -4.2532e+002  1.9542e+002 29064 103201,103175,103319
 3.1000e+000 103368 -5.4912e+002 -3.8860e+002  1.8222e+002 29064 103201,103319,103071
 3.1000e+000 104006 -2.9808e+002 -1.5920e+002  1.2481e+002 28603 104101,104029,103712
 3.1000e+000 103983 -2.6403e+002 -1.0366e+002  1.0933e+002 28603 104173,104029,103660
 3.1000e+000 103960 -3.5634e+002 -1.3440e+002  1.2070e+002 28603 104101,103712,103686
 3.1000e+000 103937 -1.9967e+002 -1.2954e+002  1.0656e+002 28603 104173,103660,103634
 3.1000e+000 103914 -3.0652e+002 -1.8325e+002  1.6136e+002 28603 103764,103816,103790
 3.1000e+000 103891 -1.9174e+002 -1.1636e+002  1.5656e+002 28603 103634,103842,103816
 3.1000e+000 103868 -2.3910e+002 -1.0289e+002  1.5598e+002 28603 103712,103764,103738
 3.1000e+000 104055 -2.9459e+002 -1.1936e+002  1.3174e+002 28603 103764,103712,104029
 3.1000e+000 104078 -2.8839e+002 -1.2830e+002  1.5590e+002 28603 103764,104029,103816
 3.1000e+000 104127 -3.7757e+002 -1.5001e+002  1.0251e+002 28603 103660,104029,104101
 3.1000e+000 104150 -4.6925e+002 -1.4739e+002  1.1518e+002 28603 103660,104101,103686
 3.1000e+000 104199 -3.1349e+002 -1.2181e+002  1.2758e+002 28603 103816,104029,104173
 3.1000e+000 104222 -2.5865e+002 -1.4875e+002  1.1803e+002 28603 103816,104173,103634
 3.1000e+000 104600 -1.7592e+002 -3.6155e+002  8.0667e+001 28348 104623,104378,104326
 3.1000e+000 104577 -1.3870e+002 -3.7976e+002  1.4373e+002 28348 104623,104326,104482
 3.1000e+000 104554 -1.8203e+002 -2.5999e+002  7.4755e+001 28348 104326,104378,104352
 3.1000e+000 104531 -1.7298e+002 -3.9610e+000  1.0783e+001 28348 104404,104456,104430
 3.1000e+000 104508 -2.2917e+002 -1.8669e+002  1.2701e+002 28348 104378,104456,104404
 3.1000e+000 104649 -1.4618e+002 -3.0519e+002  1.0571e+002 28348 104456,104378,104623
 3.1000e+000 104672 -9.7746e+001 -3.1231e+002  1.7069e+002 28348 104456,104623,104482
 3.1000e+000 104991 -3.5355e+002 -3.6787e+002  2.5589e+002 27951 104717,104847,104769
 3.1000e+000 104968 -1.0463e+002 -2.5332e+002  2.2685e+002 27951 104717,104873,104847
 3.1000e+000 104945 -1.2711e+002 -3.1590e+002  2.6868e+002 27951 104769,104847,104795
 3.1000e+000 104922  3.4654e+000  1.2602e+001  2.5444e+002 27951 104795,104847,104821
 3.1000e+000 104899 -3.0814e+002 -2.4360e+002  2.6253e+002 27951 104717,104769,104743
 3.1000e+000 105371 -4.5088e+002 -2.8578e+002  2.1390e+002 27447 105394,105201,105123
 3.1000e+000 105348 -5.9722e+002 -2.6742e+002  3.1851e+002 27447 105394,105123,105097
 3.1000e+000 105325 -7.2931e+002 -3.1641e+002  2.1710e+002 27447 105123,105201,105149
 3.1000e+000 105302 -3.6055e+002 -3.7983e+002  2.2768e+002 27447 105201,105253,105227
 3.1000e+000 105279 -3.7018e+002 -4.4968e+002  5.2969e+001 27447 105149,105201,105175
 3.1000e+000 105420 -3.6529e+002 -2.3418e+002  1.5994e+002 27447 105253,105201,105394
 3.1000e+000 105443 -4.9349e+002 -1.6681e+002  2.5148e+002 27447 105253,105394,105097
 3.1000e+000 105998 -2.9041e+002 -2.3381e+002  2.2016e+002 27100 106165,106021,105704
 3.1000e+000 105975 -1.2518e+002 -1.1170e+002  1.8828e+002 27100 106309,106021,105652
 3.1000e+000 105952 -4.8567e+002 -3.8044e+002  3.8195e+002 27100 106093,105808,105782
 3.1000e+000 105929 -2.8328e+002 -2.4900e+002  2.0931e+002 27100 106165,105704,105678
 3.1000e+000 105906 -1.2904e+002 -3.4003e+002  1.6936e+002 27100 106237,105730,105704
 3.1000e+000 105883 -1.2740e+002 -2.0183e+002  1.3076e+002 27100 106309,105652,105626
 3.1000e+000 105860 -6.2213e+001 -7.7591e+000  2.1665e+001 27100 105730,105782,105756
 3.1000e+000 106047 -2.5612e+002 -1.9187e+002  2.4326e+002 27100 106237,105704,106021
 3.1000e+000 106070 -2.7723e+002 -1.8610e+002  2.9528e+002 27100 106093,105782,106021
 3.1000e+000 106119 -1.9482e+002 -3.1093e+002  1.8956e+002 27100 105834,105808,106093
 3.1000e+000 106142 -2.2149e+002 -3.9142e+002  2.5793e+002 27100 106381,106093,106021
 3.1000e+000 106191 -2.7791e+002 -2.1271e+002  2.3423e+002 27100 105652,106021,106165
 3.1000e+000 106214 -2.7042e+002 -2.4000e+002  2.2618e+002 27100 105652,106165,105678
 3.1000e+000 106263 -1.3229e+001 -1.8174e+002  1.1865e+002 27100 105782,105730,106237
 3.1000e+000 106286 -1.6773e+002 -7.3432e+001  2.0425e+002 27100 105782,106237,106021
 3.1000e+000 106335 -1.8845e+002 -2.4359e+002  2.0775e+002 27100 106381,106021,106309
 3.1000e+000 106358 -1.1807e+002 -1.4707e+002  1.1461e+002 27100 105834,106309,105626
 3.1000e+000 106407 -1.3606e+002 -2.1757e+002  1.5983e+002 27100 105834,106093,106381
 3.1000e+000 106430 -1.4280e+002 -1.8539e+002  1.0393e+002 27100 105834,106381,106309
 3.1000e+000 106629 -5.5983e+001 -3.6744e+002  9.7335e+001 26688 106479,106557,106531
 3.1000e+000 106606 -1.0872e+002 -3.3523e+002  8.3583e+001 26688 106453,106557,106479
 3.1000e+000 106583 -1.4602e+002 -3.8012e+002  2.6811e+001 26688 106479,106531,106505
 3.1000e+000 107088 -1.3849e+002 -1.3366e+002  6.0643e+001 26248 107111,106918,106866
 3.1000e+000 107065 -1.4732e+002 -1.1614e+002  7.2014e+001 26248 107111,106866,106840
 3.1000e+000 107042 -1.1230e+002 -8.7570e+001  6.9160e+001 26248 106814,106970,106840
 3.1000e+000 107019 -1.5455e+002 -2.5758e+002  8.0968e+001 26248 106866,106918,106892
 3.1000e+000 106996 -2.4956e+002 -1.9654e+002  5.7889e+001 26248 106918,106970,106944
 3.1000e+000 107137 -1.5757e+002 -1.5661e+002  4.1577e+001 26248 106970,106918,107111
 3.1000e+000 107160 -1.5004e+002 -1.2130e+002  5.4892e+001 26248 106970,107111,106840
 3.1000e+000 107666 -3.9850e+002 -1.6980e+002  1.3839e+002 25908 107369,107499,107395
 3.1000e+000 107643 -5.3524e+002 -5.0316e+002  2.6546e+002 25908 107369,107525,107499
 3.1000e+000 107620 -3.2502e+002 -2.1641e+002  1.7739e+002 25908 107395,107473,107447
 3.1000e+000 107597 -2.7755e+002 -1.1984e+002  1.3437e+002 25908 107395,107499,107473
 3.1000e+000 107574 -5.6264e+002 -2.8739e+002  4.0337e+002 25908 107395,107447,107421
 3.1000e+000 107551 -2.2928e+002 -3.9153e+002  2.2886e+002 25908 107343,107525,107369
 3.1000e+000 108251 -2.3958e+002 -9.5580e+001  1.5467e+002 25454 108274,108006,107954
 3.1000e+000 108228 -1.9420e+002 -5.2620e+001  1.2162e+002 25454 108274,107954,108110
 3.1000e+000 108205 -1.8282e+002 -2.0248e+002  1.7620e+002 25454 108346,108032,108006
 3.1000e+000 108182 -3.1362e+002 -1.6243e+002  1.9881e+002 25454 107954,108006,107980
 3.1000e+000 108159 -9.4121e+001 -1.3200e+002  1.0789e+002 25454 107928,108110,107954
 3.1000e+000 108136 -3.7515e+002 -3.9445e+002  2.2290e+002 25454 108058,108110,108084
 3.1000e+000 108300 -2.3110e+002 -1.5093e+002  1.7940e+002 25454 108346,108006,108274
 3.1000e+000 108323 -2.0533e+002 -9.5325e+001  1.4258e+002 25454 108058,108274,108110
 3.1000e+000 108372 -1.2865e+002 -1.3925e+002  1.5212e+002 25454 108058,108032,108346
 3.1000e+000 108395 -1.7820e+002 -7.8023e+001  1.5631e+002 25454 108058,108346,108274
 3.1000e+000 108822 -1.8791e+002 -1.2814e+002  1.1659e+002 24943 108525,108681,108655
 3.1000e+000 108799 -2.5148e+002 -1.7525e+002  5.5696e+001 24943 108499,108681,108525
 3.1000e+000 108776 -1.0722e+002 -9.8864e+001  8.6076e+001 24943 108525,108655,108629
 3.1000e+000 108753 -1.7901e+002 -8.4897e+001  7.8752e+001 24943 108525,108629,108603
 3.1000e+000 108730 -3.8075e+002 -1.2190e+002  1.4731e+002 24943 108551,108603,108577
 3.1000e+000 108707 -3.7371e+002 -2.3835e+002  2.1528e+002 24943 108525,108603,108551
 3.1000e+000 109407 -1.8092e+001 -6.8560e+001  3.4944e+001 24745 109162,109214,109188
 3.1000e+000 109384 -1.4712e+002 -7.1494e+001  4.6847e+001 24745 109162,109266,109214
 3.1000e+000 109361 -1.6946e+002 -9.0695e+001  2.8868e+001 24745 109084,109266,109162
 3.1000e+000 109338 -2.8196e+002 -4.4340e+001  7.2296e+001 24745 109084,109162,109136
 3.1000e+000 109315 -7.4938e+001 -1.3317e+002  6.0251e+001 24745 109214,109266,109240
 3.1000e+000 109292 -2.0908e+002 -6.3144e+001  1.1472e+002 24745 109084,109136,109110
 3.1000e+000 109785 -4.8877e+002 -2.3249e+002  2.8951e+002 24341 109537,109615,109563
 3.1000e+000 109762 -5.0182e+001 -1.1180e+002  2.5836e+002 24341 109537,109641,109615
 3.1000e+000 109739 -3.2141e+002 -2.4267e+002  2.1234e+002 24341 109563,109615,109589
 3.1000e+000 109716 -2.0666e+002 -2.0181e+002  1.7706e+002 24341 109537,109667,109641
 3.1000e+000 109693 -1.1607e+002 -2.3850e+002  1.5868e+002 24341 109511,109667,109537
 3.1000e+000 110163 -5.4789e+002 -3.2264e+002  2.9190e+002 23837 110186,109967,109915
 3.1000e+000 110140 -5.0591e+002 -3.3125e+002  3.1887e+002 23837 110186,109915,109889
 3.1000e+000 110117 -2.3353e+002 -1.2074e+002  2.4592e+002 23837 109889,110045,109993
 3.1000e+000 110094 -5.2120e+002 -4.0989e+002  2.3295e+002 23837 109915,109967,109941
 3.1000e+000 110071 -2.9479e+002 -1.6406e+001  4.8799e+001 23837 109993,110045,110019
 3.1000e+000 110212 -5.1972e+002 -2.9443e+002  3.0904e+002 23837 109993,109967,110186
 3.1000e+000 110235 -4.9884e+002 -3.0408e+002  3.3587e+002 23837 109993,110186,109889
 3.1000e+000 110336 -2.5126e+002 -5.7535e+002  2.7899e+002 23433 110258,110310,110284
 3.1000e+000 110584 -3.2733e+002 -2.3242e+002  1.4670e+002 22829 110607,110411,110385
 3.1000e+000 110561 -4.0038e+002 -2.6821e+002  2.0144e+002 22829 110607,110385,110489
 3.1000e+000 110538 -2.6737e+002 -2.4896e+002  1.2544e+002 22829 110437,110489,110463
 3.1000e+000 110515 -3.2528e+002 -1.6614e+002  2.3430e+002 22829 110359,110489,110385
 3.1000e+000 110633 -3.2357e+002 -1.7694e+002  9.2153e+001 22829 110437,110411,110607
 3.1000e+000 110656 -3.6521e+002 -2.1592e+002  1.4405e+002 22829 110437,110607,110489
 3.1000e+000 110906 -6.8688e+002 -2.8669e+002  2.1804e+002 22432 110707,110759,110733
 3.1000e+000 110883 -4.0026e+002 -3.0947e+002  1.7472e+002 22432 110707,110785,110759
 3.1000e+000 110860 -4.0079e+002 -2.8322e+002  2.5357e+002 22432 110707,110811,110785
 3.1000e+000 110837 -5.0457e+002 -3.5769e+002  1.9750e+002 22432 110681,110811,110707
 3.1000e+000 111288 -7.2280e+001 -1.7148e+002  1.3588e+002 22142 111092,111144,111118
 3.1000e+000 111265 -2.0063e+002 -1.6030e+002  1.0940e+002 22142 111066,111144,111092
 3.1000e+000 111242 -1.8652e+002 -1.4134e+002  8.9728e+001 22142 111040,111144,111066
 3.1000e+000 111219 -3.6939e+002 -5.4984e+001  5.2578e+001 22142 111014,111144,111040
 3.1000e+000 111196 -2.4360e+002 -3.0320e+001  8.8802e+001 22142 111014,111170,111144
 3.1000e+000 111389 -1.8944e+001 -7.8011e+001  1.7056e+002 21830 111311,111363,111337
 3.1000e+000 111735 -4.6544e+002 -4.2843e+001  3.3650e+002 21268 111758,111542,111438
 3.1000e+000 111712 -3.5824e+002 -9.5130e+000  2.3926e+002 21268 111758,111438,111412
 3.1000e+000 111689 -1.3754e+002 -2.6454e+002  3.9722e+002 21268 111438,111542,111464
 3.1000e+000 111666 -1.9157e+001 -1.9771e+002  5.2188e+002 21268 111464,111542,111490
 3.1000e+000 111643 -8.5223e+002 -4.2938e+002  4.4374e+002 21268 111412,111594,111568
 3.1000e+000 111620  2.2089e+002  1.5925e+002  6.6652e+002 21268 111490,111542,111516
 3.1000e+000 111784 -4.9357e+002 -8.8294e+001  3.4912e+002 21268 111568,111542,111758
 3.1000e+000 111807 -4.6872e+002 -2.0170e+002  2.8459e+002 21268 111568,111758,111412
 3.1000e+000 111959 -4.9294e+002 -6.0173e+001  1.6689e+002 20864 111982,111910,111884
 3.1000e+000 111936 -4.5396e+002 -8.1532e+001  2.3679e+002 20864 112114,111832,111910
 3.1000e+000 112008 -4.9080e+002 -1.7332e+002  2.0069e+002 20864 112114,111910,111982
 3.1000e+000 112140 -4.4183e+002 -1.8885e+002  1.8138e+002 20864 111858,111832,112114
 3.1000e+000 112163 -4.8558e+002 -2.9948e+002  1.4784e+002 20864 111858,112114,111982
 3.1000e+000 112411 -5.0673e+001 -1.1804e+001  1.7018e+001 20324 112186,112290,112212
 3.1000e+000 112388 -2.1820e+001 -7.5668e+000  2.4737e+001 20324 112186,112316,112290
 3.1000e+000 112365  1.6541e+002 -1.2540e+002  1.5242e+001 20324 112212,112290,112264
 3.1000e+000 112342 -6.2363e+002 -2.6708e+002 -3.8113e+001 20324 112212,112264,112238
 3.1000e+000 112659 -4.9539e+001 -1.5224e+001  1.9569e+002 19920 112512,112564,112538
 3.1000e+000 112636 -2.4255e+002 -9.5558e+001  1.2553e+002 19920 112434,112564,112512
 3.1000e+000 112613 -2.5033e+002 -1.5738e+002  1.4674e+002 19920 112434,112512,112460
 3.1000e+000 112590 -2.8044e+002 -1.7572e+002  1.5733e+002 19920 112460,112512,112486
 3.1000e+000 112811 -4.2641e+001 -1.7312e+001  7.8254e+001 19630 112684,112736,112710
 3.1000e+000 112788  6.9801e+001 -9.7525e+001  1.8507e+001 19630 112684,112762,112736
 3.1000e+000 113012 -2.0671e+002 -8.0893e+001  2.2228e+002 19169 112862,112940,112888
 3.1000e+000 112989 -3.4329e+002 -2.9023e+002  1.6344e+002 19169 112836,112940,112862
 3.1000e+000 112966 -1.7102e+002 -2.4352e+002  1.7632e+002 19169 112888,112940,112914
 3.1000e+000 113213 -4.1360e+002 -1.7026e+002  2.1095e+002 18600 113037,113089,113063
 3.1000e+000 113190 -2.5340e+002 -1.3449e+002  1.7283e+002 18600 113037,113115,113089
 3.1000e+000 113167 -4.6030e+002 -3.3298e+002  2.9956e+002 18600 113037,113141,113115
 3.1000e+000 113485 -2.2738e+002 -8.9660e+001  2.2337e+002 18352 113260,113312,113286
 3.1000e+000 113462 -4.5355e+002 -2.7926e+002  3.0566e+002 18352 113260,113390,113312
 3.1000e+000 113439 -4.2507e+002 -9.4281e+001  2.3155e+002 18352 113312,113390,113364
 3.1000e+000 113416 -1.7622e+002 -6.6446e+001  2.4018e+002 18352 113312,113364,113338
 3.1000e+000 113757 -3.2693e+002 -1.3173e+002  2.3155e+002 17834 113558,113610,113584
 3.1000e+000 113734 -4.6924e+002 -2.6312e+002  2.9925e+002 17834 113532,113610,113558
 3.1000e+000 113711 -4.8382e+002 -3.1834e+002  2.4649e+002 17834 113532,113662,113610
 3.1000e+000 113688 -2.4820e+002 -8.8246e+001  3.4042e+002 17834 113610,113662,113636
 3.1000e+000 113958 -3.2285e+002 -1.3345e+002  1.7755e+002 17330 113782,113834,113808
 3.1000e+000 113935 -1.7609e+002 -9.6361e+001  1.2798e+002 17330 113782,113886,113834
 3.1000e+000 113912 -2.1692e+002 -9.5311e+001  8.4921e+001 17330 113834,113886,113860
 3.1000e+000 114110 -4.8182e+002 -1.9141e+002  3.0914e+002 16874 113983,114035,114009
 3.1000e+000 114087 -1.8263e+002 -4.2326e+002  2.5735e+002 16874 113983,114061,114035
 3.1000e+000 114465 -5.4799e+002 -2.3212e+002  1.3191e+002 16270 114240,114292,114266
 3.1000e+000 114442 -4.4084e+002 -1.0364e+002  6.7077e+001 16270 114240,114370,114292
 3.1000e+000 114419 -1.9087e+002 -8.0535e+001  9.0876e+001 16270 114292,114344,114318
 3.1000e+000 114396 -4.8649e+002 -2.1647e+002  5.0875e+001 16270 114292,114370,114344
 3.1000e+000 114566 -1.8657e+001  1.8657e+001  4.1457e+002 15834 114488,114540,114514
 3.1000e+000 114667 -3.2043e+002 -1.3063e+002  2.0673e+002 15155 114589,114641,114615
 3.1000e+000 114890 -2.0539e+002 -7.4876e+001  2.8605e+002 421 114766,114818,114792
 3.1000e+000 114867 -3.4050e+002 -3.2177e+002  2.3061e+002 421 114714,114818,114766
 3.1000e+000 114844 -5.0631e+002 -2.1398e+002  1.3706e+002 421 114714,114766,114740
 3.2000e+000 66553 -2.0786e+002 -8.6635e+001  7.2281e+001 66108 66354,66458,66432
 3.2000e+000 66530 -1.8396e+002 -7.8263e+001  8.3725e+001 66108 66328,66458,66354
 3.2000e+000 66507 -1.3965e+002 -1.1472e+002  3.9521e+001 66108 66354,66432,66406
 3.2000e+000 66484  3.3020e+001  1.5796e+001  1.0263e+002 66108 66354,66406,66380
 3.2000e+000 66951 -2.8001e+002 -1.1949e+002  6.6273e+001 65910 66703,66833,66807
 3.2000e+000 66928 -1.6843e+002 -9.3254e+001  7.3332e+001 65910 66677,66833,66703
 3.2000e+000 66905 -8.0881e+001 -1.2687e+002  9.9348e+001 65910 66729,66781,66755
 3.2000e+000 66882 -2.5812e+002 -1.0946e+002  9.0012e+001 65910 66729,66807,66781
 3.2000e+000 66859 -2.4879e+002 -7.0689e+001  8.3401e+001 65910 66703,66807,66729
 3.2000e+000 67150 -2.5933e+002 -1.0999e+002  9.6559e+001 65712 67026,67078,67052
 3.2000e+000 67127 -3.4288e+002 -3.2618e+001  7.0683e+001 65712 66974,67078,67026
 3.2000e+000 67104 -1.0432e+003 -4.9197e+002  3.2858e+002 65712 66974,67026,67000
 3.2000e+000 67481 -3.9575e+002 -6.6977e+001  1.3485e+002 65422 67282,67360,67334
 3.2000e+000 67458 -1.8973e+002 -7.5138e+001  1.9727e+002 65422 67282,67386,67360
 3.2000e+000 67435 -1.2125e+002  6.4247e+001  9.5208e+001 65422 67282,67334,67308
 3.2000e+000 67412  5.5095e+001  3.0710e+001  4.3205e+001 65422 67256,67386,67282
 3.2000e+000 68115 -1.3766e+002 -5.0833e+001  3.1503e+001 65018 67795,67925,67873
 3.2000e+000 68092 -1.5872e+002 -6.0065e+001  5.8389e+001 65018 67769,67925,67795
 3.2000e+000 68069 -8.7037e+001 -4.7935e+001  4.8824e+001 65018 67873,67925,67899
 3.2000e+000 68046 -2.2671e+002 -1.7891e+002  1.0630e+002 65018 67769,67951,67925
 3.2000e+000 68023 -1.5396e+002 -9.4115e+001  3.7158e+001 65018 67795,67873,67821
 3.2000e+000 68000 -2.0788e+002 -1.2006e+002  4.4835e+001 65018 67821,67873,67847
 3.2000e+000 67977 -1.5500e+002 -1.6222e+002  1.1318e+002 65018 67743,67951,67769
 3.2000e+000 68363 -1.4791e+002 -3.2733e+002  2.6769e+002 64820 68190,68242,68216
 3.2000e+000 68340 -2.7637e+002 -2.2795e+002  2.8000e+002 64820 68190,68268,68242
 3.2000e+000 68317 -1.5353e+002 -1.7042e+002  3.0577e+002 64820 68164,68268,68190
 3.2000e+000 68294 -5.4742e+002 -2.2854e+002  2.0186e+002 64820 68138,68268,68164
 3.2000e+000 68513 -3.0819e+002 -1.4858e+002  1.1300e+002 64366 68868,68536,68438
 3.2000e+000 68490 -1.7747e+002 -7.6062e+001  8.8870e+001 64366 68536,68412,68386
 3.2000e+000 68562 -3.4711e+002 -1.4113e+002  1.6176e+002 64366 68740,68536,68464
 3.2000e+000 68585 -2.4375e+002 -9.1802e+001  1.1591e+002 64366 68608,68536,68386
 3.2000e+000 68634 -3.0564e+002 -2.1862e+002  9.6610e+001 64366 68464,68536,68608
 3.2000e+000 68766 -3.1721e+002 -1.1219e+002  1.4791e+002 64366 68438,68536,68740
 3.2000e+000 68894 -2.2214e+002 -8.6844e+001  1.5085e+002 64366 68412,68536,68868
 3.2000e+000 69172 -3.5960e+002 -2.7654e+002  8.2669e+000 64168 69022,69074,69048
 3.2000e+000 69149 -5.3670e+002 -2.2988e+002  6.4841e+001 64168 68996,69074,69022
 3.2000e+000 69126 -5.3864e+002 -2.4212e+002  8.7437e+001 64168 68996,69100,69074
 3.2000e+000 69371 -2.4122e+002 -9.4040e+001  1.2963e+002 63970 69466,69394,69273
 3.2000e+000 69348 -2.6603e+002 -1.1724e+002  1.1725e+002 63970 69394,69247,69221
 3.2000e+000 69325 -2.7999e+002 -1.1915e+002  7.6189e+001 63970 69195,69299,69221
 3.2000e+000 69420 -2.0111e+002 -1.2055e+002  1.0940e+002 63970 69299,69273,69394
 3.2000e+000 69443 -2.5246e+002 -1.5205e+002  9.1779e+001 63970 69299,69394,69221
 3.2000e+000 69492 -2.5231e+002 -1.1165e+002  1.2490e+002 63970 69247,69394,69466
 3.2000e+000 69904 -2.2873e+001 -2.0640e+002  7.7294e+001 63680 69705,69783,69731
 3.2000e+000 69881  4.7302e+001 -1.5062e+002  4.7957e+001 63680 69679,69783,69705
 3.2000e+000 69858 -1.8634e+002 -2.0148e+002  9.5543e+001 63680 69679,69809,69783
 3.2000e+000 69835 -1.4600e+002 -2.5811e+002  4.9895e+001 63680 69731,69783,69757
 3.2000e+000 70054 -8.6730e+000 -1.0472e+002  6.6702e+001 63476 70077,69953,69927
 3.2000e+000 70031  1.6469e+001 -4.7315e+001  9.4952e+001 63476 70077,69927,70005
 3.2000e+000 70103 -4.9823e+001 -6.4808e+001  4.2497e+001 63476 69979,69953,70077
 3.2000e+000 70126 -3.0222e+001 -1.2269e+001  6.6176e+001 63476 69979,70077,70005
 3.2000e+000 70325 -5.4867e+002 -2.9796e+002  1.1444e+002 63278 70149,70227,70175
 3.2000e+000 70302 -4.1509e+002 -1.7245e+002  2.1460e+002 63278 70149,70253,70227
 3.2000e+000 70279 -6.0815e+002 -4.9495e+002  1.2265e+002 63278 70175,70227,70201
 3.2000e+000 70597 -2.3255e+002 -8.2881e+001  1.0823e+002 63080 70372,70476,70424
 3.2000e+000 70574 -3.1996e+002 -1.3635e+002  7.5736e+001 63080 70372,70502,70476
 3.2000e+000 70551 -2.1123e+002 -8.9540e+001  8.2192e+001 63080 70424,70476,70450
 3.2000e+000 70528 -3.2595e+002 -1.3584e+002  1.5168e+002 63080 70372,70424,70398
 3.2000e+000 70847 -2.4379e+001 -1.2541e+002  4.9203e+001 62740 70870,70648,70622
 3.2000e+000 70824 -6.4507e+001 -1.0141e+002  6.8921e+001 62740 70870,70622,70752
 3.2000e+000 70801 -1.6381e+001 -1.4387e+002  4.5447e+001 62740 70648,70726,70700
 3.2000e+000 70778 -1.5133e+001 -1.4806e+002  4.3584e+001 62740 70648,70700,70674
 3.2000e+000 70896 -6.3726e+001 -1.5171e+002  3.7518e+001 62740 70726,70648,70870
 3.2000e+000 70919 -7.9083e+001 -1.1285e+002  6.3440e+001 62740 70726,70870,70752
 3.2000e+000 71022 -1.4741e+001  1.4741e+001  3.6858e+002 62520 70944,70996,70970
 3.2000e+000 71223 -4.9393e+002 -2.7799e+002  3.0030e+002 62230 71073,71151,71099
 3.2000e+000 71200 -4.2123e+002 -2.6890e+002  2.7216e+002 62230 71047,71151,71073
 3.2000e+000 71177 -3.3152e+002 -4.3655e+002  2.3862e+002 62230 71099,71151,71125
 3.2000e+000 71861 -4.0674e+001  1.3160e+000  4.6389e+001 61712 71515,71697,71671
 3.2000e+000 71838 -4.3650e+001 -2.7789e+000  9.2186e+000 61712 71489,71697,71515
 3.2000e+000 71815 -4.3819e+002 -1.1675e+002  1.9709e+002 61712 71884,71541,71515
 3.2000e+000 71792 -2.9314e+002  1.6824e+001  1.3641e+002 61712 71884,71515,71671
 3.2000e+000 71769 -9.6801e+001 -2.7511e+002  1.1300e+002 61712 71541,71619,71593
 3.2000e+000 71746 -7.9298e+001 -4.0177e+001  1.1769e+002 61712 71619,71671,71645
 3.2000e+000 71723 -4.0257e+002 -4.7999e+002  2.8123e+002 61712 71541,71593,71567
 3.2000e+000 71910 -2.8608e+002 -2.4833e+002  2.5160e+002 61712 71619,71541,71884
 3.2000e+000 71933 -1.9604e+002 -1.5466e+002  2.0680e+002 61712 71619,71884,71671
 3.2000e+000 72230 -4.3782e+002 -3.4745e+002  8.8916e+001 61208 72253,72060,72008
 3.2000e+000 72207 -3.8506e+002 -1.8858e+002  9.4577e+001 61208 72253,72008,71982
 3.2000e+000 72184 -3.2626e+002 -1.0323e+002  2.0333e+001 61208 71982,72112,72086
 3.2000e+000 72161 -5.9713e+002 -3.4763e+002  1.5003e+002 61208 72008,72060,72034
 3.2000e+000 72138 -1.6860e+002 -5.2847e+001  1.0138e+002 61208 71956,72112,71982
 3.2000e+000 72279 -4.5609e+002 -2.3004e+002  2.0473e+001 61208 72086,72060,72253
 3.2000e+000 72302 -4.4705e+002 -1.4101e+002  2.1723e+001 61208 72086,72253,71982
 3.2000e+000 72761 -1.7817e+002 -1.4653e+002  6.3860e+001 60804 72487,72617,72513
 3.2000e+000 72738 -2.5961e+002 -2.2849e+002  1.0254e+002 60804 72487,72643,72617
 3.2000e+000 72715 -6.4582e+001 -3.7805e+002  8.6988e+001 60804 72565,72617,72591
 3.2000e+000 72692 -2.1657e+002 -2.1425e+002  1.2675e+002 60804 72513,72617,72565
 3.2000e+000 72669 -1.9444e+002 -2.0954e+002  3.9104e+001 60804 72513,72565,72539
 3.2000e+000 72911 -1.4741e+001  1.4741e+001  3.6858e+002 60556 72784,72836,72810
 3.2000e+000 72888  3.1432e+002  1.4949e+002  2.1698e+002 60556 72784,72862,72836
 3.2000e+000 73468 -1.3126e+002 -1.5137e+002  7.8808e+001 60244 73491,73226,73200
 3.2000e+000 73445 -1.8304e+002 -1.8922e+002  1.3140e+002 60244 73563,73491,73200
 3.2000e+000 73422 -3.0970e+002 -1.4928e+002  1.4744e+002 60244 73563,73200,73174
 3.2000e+000 73399 -1.3950e+002 -2.2716e+002  9.2596e+001 60244 73226,73278,73252
 3.2000e+000 73376 -2.3484e+002 -1.8239e+002  1.0899e+002 60244 73122,73304,73278
 3.2000e+000 73353 -2.4093e+002 -1.9878e+002  1.0756e+002 60244 73096,73304,73122
 3.2000e+000 73330 -3.9621e+002 -9.3299e+001 -6.2654e+001 60244 73122,73174,73148
 3.2000e+000 73517 -2.4009e+002 -2.1185e+002  1.1946e+002 60244 73278,73226,73491
 3.2000e+000 73540 -2.2836e+002 -1.7552e+002  1.1245e+002 60244 73278,73491,73122
 3.2000e+000 73589 -3.7687e+002 -2.2641e+002  1.1603e+002 60244 73122,73491,73563
 3.2000e+000 73612 -4.9690e+002 -1.8170e+002  1.3940e+002 60244 73122,73563,73174
 3.2000e+000 73762 -9.7063e+001 -2.2538e+002  2.3089e+002 59875 73661,73713,73687
 3.2000e+000 73739 -2.7183e+002 -1.4992e+002  1.7382e+002 59875 73635,73713,73661
 3.2000e+000 74191 -1.9076e+002 -4.4382e+002  2.2035e+002 59478 74214,73894,73868
 3.2000e+000 74168 -3.0602e+002 -4.0358e+002  2.2985e+002 59478 74214,73868,74050
 3.2000e+000 74145 -3.2529e+002 -4.5055e+002  1.3823e+002 59478 73894,73946,73920
 3.2000e+000 74122 -2.6537e+002 -4.5500e+002  1.2496e+002 59478 73894,73998,73946
 3.2000e+000 74099 -6.1571e+002 -4.4808e+002  3.8439e+002 59478 73998,74050,74024
 3.2000e+000 74076 -3.3169e+002 -5.0592e+002  8.5988e+001 59478 73946,73998,73972
 3.2000e+000 74240 -2.9115e+002 -4.3069e+002  1.7886e+002 59478 73998,73894,74214
 3.2000e+000 74263 -4.1302e+002 -4.0855e+002  1.6932e+002 59478 73998,74214,74050
 3.2000e+000 74720 -2.4202e+002 -1.3456e+002  1.0317e+002 58774 74472,74602,74498
 3.2000e+000 74697 -2.7863e+002 -1.8193e+002  7.8466e+001 58774 74446,74602,74472
 3.2000e+000 74674 -2.7667e+002 -1.0984e+002  1.1600e+002 58774 74498,74576,74524
 3.2000e+000 74651 -2.6606e+002 -1.4134e+002  8.7898e+001 58774 74498,74602,74576
 3.2000e+000 74628 -2.8348e+002 -7.0550e+001  8.8796e+001 58774 74524,74576,74550
 3.2000e+000 75226 -1.8779e+002 -1.6786e+002  1.1980e+002 58270 74955,75085,75033
 3.2000e+000 75203 -2.0788e+002 -2.2740e+002  1.1200e+002 58270 74929,75085,74955
 3.2000e+000 75180 -2.6644e+002 -1.7792e+002  1.8328e+002 58270 75033,75085,75059
 3.2000e+000 75157 -3.0937e+002 -2.6566e+002  8.9249e+001 58270 74955,75007,74981
 3.2000e+000 75134 -1.8641e+002 -1.6360e+002  4.5540e+001 58270 74955,75033,75007
 3.2000e+000 75111 -3.2496e+001 -2.0542e+002  7.9829e+001 58270 74903,75085,74929
 3.2000e+000 75425 -1.9698e+002 -1.7115e+002  1.1890e+002 57830 75448,75301,75249
 3.2000e+000 75402 -1.5060e+002 -4.2454e+001  6.4931e+001 57830 75448,75249,75353
 3.2000e+000 75379 -2.8705e+002 -3.4050e+002  9.8168e+001 57830 75520,75301,75275
 3.2000e+000 75474 -1.9095e+002 -2.4531e+002  1.6989e+002 57830 75327,75301,75448
 3.2000e+000 75497 -1.8311e+002 -1.9065e+002  1.1258e+002 57830 75327,75448,75353
 3.2000e+000 75546 -1.4019e+002 -2.3417e+002  4.3806e+001 57830 75249,75301,75520
 3.2000e+000 76261 -1.0963e+002 -2.0933e+002  1.0871e+002 57426 76284,76097,76071
 3.2000e+000 76238 -9.2053e+001 -1.4162e+002  1.0920e+002 57426 75889,76097,75915
 3.2000e+000 76215 -1.6417e+002 -2.1336e+002  1.2862e+002 57426 76428,76284,76071
 3.2000e+000 76192 -1.2180e+002 -1.8512e+002  7.1438e+001 57426 76356,75941,75915
 3.2000e+000 76169 -1.6264e+002 -1.8560e+002  1.2670e+002 57426 76428,76071,76019
 3.2000e+000 76146 -1.8115e+002 -2.5020e+002  1.1503e+002 57426 76019,76071,76045
 3.2000e+000 76123 -1.8214e+002 -1.8623e+002  1.6385e+002 57426 75967,76019,75993
 3.2000e+000 76310 -1.1370e+002 -2.1526e+002  8.4047e+001 57426 75915,76097,76284
 3.2000e+000 76333 -1.3347e+002 -2.0830e+002  7.6527e+001 57426 76356,75915,76284
 3.2000e+000 76382 -1.5255e+002 -1.5545e+002  9.3896e+001 57426 75967,75941,76356
 3.2000e+000 76405 -1.5817e+002 -1.6982e+002  9.5406e+001 57426 75967,76356,76284
 3.2000e+000 76454 -1.5911e+002 -1.8591e+002  1.2228e+002 57426 75967,76284,76428
 3.2000e+000 76477 -1.6717e+002 -1.6908e+002  1.2433e+002 57426 75967,76428,76019
 3.2000e+000 76953 -1.6613e+002 -2.7856e+002  1.6513e+002 56908 76976,76711,76685
 3.2000e+000 76930 -1.6524e+002 -2.7672e+002  1.6533e+002 56908 77048,76976,76685
 3.2000e+000 76907 -3.2002e+002 -2.9752e+002  2.4032e+002 56908 77048,76685,76633
 3.2000e+000 76884 -4.6867e+002 -4.0541e+002  2.6663e+002 56908 76711,76789,76763
 3.2000e+000 76861 -2.3849e+002 -1.2476e+002  1.0852e+002 56908 76581,76789,76607
 3.2000e+000 76838 -4.3575e+002 -2.3610e+002  1.6477e+002 56908 76711,76763,76737
 3.2000e+000 76815 -7.8380e+002 -6.1168e+002  4.5469e+002 56908 76633,76685,76659
 3.2000e+000 77002 -1.9836e+002 -2.9157e+002  1.6379e+002 56908 76789,76711,76976
 3.2000e+000 77025 -2.0560e+002 -1.2137e+002  9.9836e+001 56908 76789,76976,76607
 3.2000e+000 77074 -4.0417e+002 -2.7348e+002  1.6682e+002 56908 76607,76976,77048
 3.2000e+000 77097 -4.8297e+002 -2.2595e+002  2.3358e+002 56908 76607,77048,76633
 3.2000e+000 77475 -1.5318e+002 -1.4871e+002  1.4856e+002 56546 77570,77498,77279
 3.2000e+000 77452 -1.0676e+002 -2.6120e+002  1.8398e+002 56546 77498,77227,77357
 3.2000e+000 77429 -1.7193e+002 -1.7106e+002  1.6942e+002 56546 77570,77279,77253
 3.2000e+000 77406 -2.4697e+002 -3.3143e+002  2.2457e+002 56546 77201,77357,77227
 3.2000e+000 77383 -1.8359e+002 -1.6650e+002  5.1368e+001 56546 77279,77331,77305
 3.2000e+000 77524 -1.3752e+002 -3.1079e+001  1.4044e+002 56546 77331,77279,77498
 3.2000e+000 77547 -5.9781e+001 -1.3612e+002  2.3185e+002 56546 77331,77498,77357
 3.2000e+000 77596 -1.6661e+002 -1.5835e+002  1.8972e+002 56546 77227,77498,77570
 3.2000e+000 77619 -1.9428e+002 -2.2239e+002  2.0982e+002 56546 77227,77570,77253
 3.2000e+000 77818 -1.7647e+002 -1.9743e+002  1.5512e+002 56042 77841,77694,77668
 3.2000e+000 77795 -1.3767e+002 -1.7341e+002  1.3059e+002 56042 77841,77668,77746
 3.2000e+000 77772 -1.9434e+002 -1.0881e+002  1.0850e+002 56042 77642,77746,77668
 3.2000e+000 77867 -1.9763e+002 -2.1618e+002  1.8576e+002 56042 77720,77694,77841
 3.2000e+000 77890 -1.5290e+002 -1.8755e+002  1.6050e+002 56042 77720,77841,77746
 3.2000e+000 78349 -2.9214e+002 -1.4086e+002  1.4654e+002 55538 78075,78127,78101
 3.2000e+000 78326 -3.6495e+002 -2.2513e+002  8.5492e+001 55538 78075,78205,78127
 3.2000e+000 78303 -3.9724e+002 -1.2412e+002  9.8603e+001 55538 78075,78231,78205
 3.2000e+000 78280 -2.4633e+002 -3.3538e+002  1.8536e+002 55538 78127,78179,78153
 3.2000e+000 78257 -2.4546e+002 -2.2502e+002  7.5491e+001 55538 78127,78205,78179
 3.2000e+000 78806 -1.7410e+002 -1.8872e+002  6.8445e+001 55034 78829,78636,78610
 3.2000e+000 78783 -1.9994e+002 -1.9608e+002  7.9115e+001 55034 78901,78829,78610
 3.2000e+000 78760 -1.6743e+002 -2.1333e+002  9.5107e+001 55034 78901,78610,78584
 3.2000e+000 78737 -1.9293e+002 -1.7615e+002  9.5258e+001 55034 78558,78688,78662
 3.2000e+000 78714 -2.0345e+002 -1.7590e+002  1.6504e+002 55034 78532,78688,78558
 3.2000e+000 78855 -2.0269e+002 -2.1003e+002  5.9127e+001 55034 78662,78636,78829
 3.2000e+000 78878 -2.0869e+002 -1.7872e+002  9.0619e+001 55034 78662,78829,78558
 3.2000e+000 78927 -1.7006e+002 -1.5988e+002  9.9390e+001 55034 78558,78829,78901
 3.2000e+000 78950 -1.5418e+002 -1.7898e+002  1.1566e+002 55034 78558,78901,78584
 3.2000e+000 79407 -1.0288e+002 -1.1103e+002  1.3228e+002 54430 79430,79237,79159
 3.2000e+000 79384 -6.8088e+001 -1.8545e+002  4.3058e+001 54430 79430,79159,79133
 3.2000e+000 79361 -1.5393e+002 -1.5609e+002  7.5060e+001 54430 79237,79289,79263
 3.2000e+000 79338 -1.1280e+002 -1.6033e+002  9.5790e+001 54430 79185,79237,79211
 3.2000e+000 79315 -2.2851e+002 -1.7150e+002  1.6365e+002 54430 79159,79237,79185
 3.2000e+000 79456 -1.2287e+002 -2.0084e+002  1.1012e+002 54430 79289,79237,79430
 3.2000e+000 79479 -1.0124e+002 -3.2479e+002  3.9524e+001 54430 79289,79430,79133
 3.2000e+000 79936 -1.1811e+002 -9.7376e+001  1.3490e+002 53919 79662,79766,79688
 3.2000e+000 79913 -4.3403e+002 -1.8659e+002  2.4867e+002 53919 79662,79818,79766
 3.2000e+000 79890 -5.6275e+002 -1.9292e+002  6.5958e+001 53919 79766,79818,79792
 3.2000e+000 79867 -2.9835e+002 -2.5593e+002  1.4912e+002 53919 79714,79766,79740
 3.2000e+000 79844 -2.9023e+002 -2.0297e+002  1.8897e+002 53919 79688,79766,79714
 3.2000e+000 80037 -1.7257e+002 -4.1017e+002  2.0311e+002 53671 79959,80011,79985
 3.2000e+000 80405 -1.0510e+002 -2.4318e+002  7.7451e+001 53267 80108,80264,80238
 3.2000e+000 80382 -1.5404e+002 -1.9772e+002  9.4845e+001 53267 80082,80264,80108
 3.2000e+000 80359 -1.1205e+002 -3.0164e+002  1.2477e+002 53267 80108,80238,80134
 3.2000e+000 80336 -5.1415e+001 -1.1648e+002  1.0312e+002 53267 80134,80212,80186
 3.2000e+000 80313 -1.6906e+002 -2.5445e+002  1.9711e+002 53267 80134,80238,80212
 3.2000e+000 80290 -3.3519e+001 -1.4194e+002  7.1923e+001 53267 80134,80186,80160
 3.2000e+000 80915 -2.9371e+002 -4.0532e+002  6.5534e+001 52969 80644,80774,80748
 3.2000e+000 80892 -2.8398e+002 -2.6375e+002  3.1573e+001 52969 80618,80774,80644
 3.2000e+000 80869 -3.6505e+002 -5.1499e+002  6.8287e+000 52969 80644,80748,80670
 3.2000e+000 80846 -3.5641e+002 -2.9377e+002  2.5736e+001 52969 80592,80774,80618
 3.2000e+000 80823 -4.3557e+002 -4.1634e+002  5.6897e+001 52969 80670,80722,80696
 3.2000e+000 80800 -2.9931e+002 -3.5973e+002  2.2652e+001 52969 80670,80748,80722
 3.2000e+000 81266  2.4190e+001 -1.7148e+001  4.0540e+000 52565 81041,81145,81067
 3.2000e+000 81243  1.9065e+001 -5.2045e+001  5.6488e+000 52565 81041,81171,81145
 3.2000e+000 81220 -6.7656e+001 -2.3696e+002  4.0969e+001 52565 81067,81119,81093
 3.2000e+000 81197  4.4379e+001  1.1887e+001  1.3288e+001 52565 81067,81145,81119
 3.2000e+000 81723 -3.1499e+001  3.4371e+000  1.8471e+000 51904 81449,81527,81475
 3.2000e+000 81700 -4.8639e+001 -2.0955e+000  2.3088e+001 51904 81449,81579,81527
 3.2000e+000 81677 -1.7541e+002 -9.4411e+000  2.2766e+001 51904 81449,81605,81579
 3.2000e+000 81654 -1.1722e+002  2.6531e+000  1.6956e+001 51904 81527,81579,81553
 3.2000e+000 81631 -1.1817e+001  7.1934e+000  3.4264e+000 51904 81475,81527,81501
 3.2000e+000 82327 -2.3676e+002 -2.3872e+002  1.6652e+002 51321 82422,82350,82036
 3.2000e+000 82304 -2.5644e+002 -1.6195e+002  1.9647e+002 51321 82494,82350,81958
 3.2000e+000 82281 -2.4866e+002 -2.5682e+002  1.5104e+002 51321 82422,82036,82010
 3.2000e+000 82258 -2.8403e+002 -1.7486e+002  1.9999e+002 51321 82494,81958,81932
 3.2000e+000 82235 -2.6480e+002 -1.0588e+002  7.9967e+001 51321 82062,82114,82088
 3.2000e+000 82212 -6.5309e+002 -4.1605e+002  2.9214e+002 51321 81932,82140,82114
 3.2000e+000 82189 -2.5833e+002 -1.0002e+002  1.5714e+002 51321 81958,82010,81984
 3.2000e+000 82166 -1.3291e+002 -2.1740e+002  1.0341e+002 51321 81906,82140,81932
 3.2000e+000 82376 -2.4161e+002 -2.7411e+002  1.6328e+002 51321 82062,82036,82350
 3.2000e+000 82399 -2.4741e+002 -2.0325e+002  1.5516e+002 51321 82062,82350,82114
 3.2000e+000 82448 -2.1948e+002 -2.1932e+002  1.8840e+002 51321 81958,82350,82422
 3.2000e+000 82471 -2.2849e+002 -2.3545e+002  1.7333e+002 51321 81958,82422,82010
 3.2000e+000 82520 -2.6488e+002 -1.6320e+002  1.8120e+002 51321 82114,82350,82494
 3.2000e+000 82543 -2.6844e+002 -1.6517e+002  1.8312e+002 51321 82114,82494,81932
 3.2000e+000 83019 -2.1065e+002 -2.6495e+002  1.5681e+002 50817 82673,82751,82699
 3.2000e+000 82996 -2.7389e+002 -2.2644e+002  1.2166e+002 50817 83042,82673,82855
 3.2000e+000 82973 -2.9257e+002 -3.1649e+002  1.1201e+002 50817 83042,82855,82803
 3.2000e+000 82950 -3.7338e+002 -4.5661e+002  1.0787e+002 50817 82751,82803,82777
 3.2000e+000 82927 -2.8911e+002 -2.6029e+002  9.2507e+001 50817 82647,82855,82673
 3.2000e+000 82904 -4.2256e+002 -3.8439e+002  2.2518e+002 50817 82803,82855,82829
 3.2000e+000 82881 -3.9022e+002 -5.8250e+002  2.3850e+002 50817 82699,82751,82725
 3.2000e+000 83068 -2.2912e+002 -2.9277e+002  1.8025e+002 50817 82751,82673,83042
 3.2000e+000 83091 -2.4281e+002 -3.7994e+002  1.6132e+002 50817 82751,83042,82803
 3.2000e+000 83290 -2.5561e+002 -1.2891e+002  1.4578e+002 50356 83313,83166,83140
 3.2000e+000 83267 -2.5057e+002 -1.9392e+002  1.2844e+002 50356 83515,83313,83140
 3.2000e+000 83244 -2.9698e+002 -1.6199e+002  5.3125e+001 50356 83515,83140,83385
 3.2000e+000 83339 -3.3759e+002 -1.5827e+002  2.0059e+002 50356 83192,83166,83313
 3.2000e+000 83362 -1.8120e+002 -1.2765e+002  1.8110e+002 50356 83192,83313,83218
 3.2000e+000 83411 -8.8939e+001 -2.8324e+001  5.9462e+001 50356 83114,83218,83385
 3.2000e+000 83541 -1.2207e+002 -1.2949e+002  1.0561e+002 50356 83218,83313,83515
 3.2000e+000 83564 -1.3964e+002 -9.0730e+001  3.7408e+001 50356 83218,83515,83385
 3.2000e+000 83893 -3.1485e+002 -2.2534e+002  4.3844e+001 49552 83720,83798,83746
 3.2000e+000 83870 -2.3189e+002 -8.6144e+001  8.3682e+001 49552 83694,83798,83720
 3.2000e+000 83847 -2.0776e+002 -8.8390e+001  8.4377e+001 49552 83668,83798,83694
 3.2000e+000 83824 -4.3004e+002 -1.2269e+002 -1.3838e+001 49552 83746,83798,83772
 3.2000e+000 84141 -2.8886e+002 -1.9255e+002  1.2086e+002 49212 84164,84020,83942
 3.2000e+000 84118 -2.6978e+002 -1.3191e+002  1.7361e+002 49212 84164,83942,83916
 3.2000e+000 84095 -2.2418e+002 -2.5143e+002  7.7180e+001 49212 83942,84020,83968
 3.2000e+000 84072 -1.7164e+002 -2.6833e+001  6.3092e+001 49212 83968,84020,83994
 3.2000e+000 84190 -3.3862e+002 -1.8914e+002  8.3715e+001 49212 84046,84020,84164
 3.2000e+000 84213 -3.0810e+002 -1.4682e+002  1.3468e+002 49212 84046,84164,83916
 3.2000e+000 84800 -5.6056e+001 -6.1549e+001  5.5606e+001 48865 84503,84633,84555
 3.2000e+000 84777 -6.6361e+001 -6.3222e+001  5.3096e+001 48865 84503,84659,84633
 3.2000e+000 84754 -6.6368e+001 -9.0094e+001  5.0821e+001 48865 84555,84633,84581
 3.2000e+000 84731 -5.7964e+001 -2.1069e+002  9.4876e+001 48865 84581,84633,84607
 3.2000e+000 84708 -1.7731e+002 -1.1222e+002  6.5959e+001 48865 84503,84555,84529
 3.2000e+000 84685 -3.2468e+001 -1.2570e+001  4.0049e+000 48865 84477,84659,84503
 3.2000e+000 85355 -1.5666e+002 -2.2250e+002  3.7000e+001 48461 85378,85035,85009
 3.2000e+000 85332 -2.4465e+002 -2.6510e+002  7.7151e+001 48461 85378,85009,85165
 3.2000e+000 85309 -2.2985e+002 -3.0066e+002  8.7458e+001 48461 85450,85061,85035
 3.2000e+000 85286 -2.3970e+002 -2.5151e+002  5.9524e+001 48461 85009,85191,85165
 3.2000e+000 85263 -1.9588e+002 -2.4273e+002  1.4928e+002 48461 85087,85165,85113
 3.2000e+000 85240 -1.2203e+002 -3.2881e+002 -4.8010e+001 48461 84983,85191,85009
 3.2000e+000 85217 -1.7095e+002 -2.9617e+002  9.9109e+001 48461 85113,85165,85139
 3.2000e+000 85404 -2.3022e+002 -2.5893e+002  6.8607e+001 48461 85450,85035,85378
 3.2000e+000 85427 -2.5420e+002 -2.6867e+002  7.6217e+001 48461 85087,85378,85165
 3.2000e+000 85476 -2.3334e+002 -3.5747e+002  1.0186e+002 48461 85087,85061,85450
 3.2000e+000 85499 -2.4040e+002 -3.3149e+002  7.9206e+001 48461 85087,85450,85378
 3.2000e+000 86084 -8.1437e+001 -2.7355e+002  1.1095e+002 48057 86323,86107,85787
 3.2000e+000 86061 -1.3524e+002 -3.0637e+002  1.3444e+002 48057 86107,85761,85943
 3.2000e+000 86038 -1.7846e+002 -2.3258e+002  1.0574e+002 48057 86251,86179,85891
 3.2000e+000 86015 -1.7880e+002 -1.9433e+002  6.6818e+001 48057 86251,85891,85839
 3.2000e+000 85992 -1.4930e+002 -1.9117e+002  1.4607e+002 48057 85891,85943,85917
 3.2000e+000 85969 -2.3010e+002 -1.5337e+002  1.0204e+002 48057 85839,85891,85865
 3.2000e+000 86133 -1.0428e+002 -3.1239e+002  9.5575e+001 48057 85813,85787,86107
 3.2000e+000 86156 -1.3902e+002 -2.8216e+002  8.3425e+001 48057 86179,85813,86107
 3.2000e+000 86205 -1.4111e+002 -1.8371e+002  1.2301e+002 48057 85943,85891,86179
 3.2000e+000 86228 -9.3617e+001 -2.1661e+002  1.2088e+002 48057 85943,86179,86107
 3.2000e+000 86277 -1.0872e+002 -1.9172e+002  8.8482e+001 48057 85813,86179,86251
 3.2000e+000 86300 -1.4704e+002 -1.7182e+002  5.6342e+001 48057 85813,86251,85839
 3.2000e+000 86349 -6.9324e+001 -2.6316e+002  1.1575e+002 48057 85761,86107,86323
 3.2000e+000 86855 -5.8021e+001 -1.4310e+002  7.5573e+001 47545 86878,86584,86558
 3.2000e+000 86832 -8.2461e+001 -1.5366e+002  6.5369e+001 47545 86950,86878,86558
 3.2000e+000 86809 -8.8873e+001 -1.2581e+002  7.6773e+001 47545 86950,86558,86532
 3.2000e+000 86786 -5.6709e+001 -1.8223e+002  7.8547e+001 47545 86584,86662,86610
 3.2000e+000 86763 -1.5393e+002 -2.8291e+001  3.4684e+001 47545 86532,86714,86688
 3.2000e+000 86740 -8.9128e+001 -7.9872e+001  8.4625e+001 47545 86610,86662,86636
 3.2000e+000 86904 -6.3977e+001 -1.7980e+002  7.9908e+001 47545 86662,86584,86878
 3.2000e+000 86927 -4.1902e+001 -1.5174e+002  5.3059e+001 47545 86662,86878,86688
 3.2000e+000 86976 -5.9519e+001 -1.1190e+002  5.6481e+001 47545 86688,86878,86950
 3.2000e+000 86999 -8.0840e+001 -1.1074e+002  7.3729e+001 47545 86688,86950,86532
 3.2000e+000 87328 -6.4945e+002 -2.1701e+002  2.2278e+002 47048 87155,87207,87181
 3.2000e+000 87305 -2.5301e+002 -2.1203e+002  1.3599e+002 47048 87129,87207,87155
 3.2000e+000 87282 -4.8707e+002 -3.0195e+002  1.5894e+002 47048 87103,87207,87129
 3.2000e+000 87259 -7.0218e+002 -8.8726e+002  4.7283e+002 47048 87103,87233,87207
 3.2000e+000 87576 -1.1980e+002 -3.2822e+002  1.6630e+002 46701 87599,87429,87377
 3.2000e+000 87553 -1.9076e+002 -2.9966e+002  1.3976e+002 46701 87599,87377,87481
 3.2000e+000 87530 -1.5486e+002 -2.8544e+002  1.3915e+002 46701 87351,87481,87377
 3.2000e+000 87507 -1.4815e+002 -2.9677e+002  1.8883e+002 46701 87377,87429,87403
 3.2000e+000 87625 -1.6531e+002 -3.3757e+002  1.2835e+002 46701 87455,87429,87599
 3.2000e+000 87648 -2.7925e+002 -3.2363e+002  1.1454e+002 46701 87455,87599,87481
 3.2000e+000 87798 -2.1328e+001 -2.1488e+001  8.1590e+000 46239 87697,87749,87723
 3.2000e+000 87775 -8.5387e+001 -2.8031e+002  3.9509e+001 46239 87671,87749,87697
 3.2000e+000 88308 -3.1035e+002 -4.1917e+002  8.5995e+001 45735 88089,88167,88141
 3.2000e+000 88285 -2.0368e+002 -2.2348e+002  1.2693e+002 45735 88011,88167,88089
 3.2000e+000 88262 -8.1841e+000 -1.9395e+002  5.0727e+001 45735 87985,88167,88011
 3.2000e+000 88239 -5.7126e+001 -8.4225e+002  1.7088e+002 45735 88011,88089,88063
 3.2000e+000 88216 -3.9942e+002 -4.6214e+002  6.6224e+001 45735 88089,88141,88115
 3.2000e+000 88193 -3.2798e+002 -1.2391e+003 -2.3225e+001 45735 88011,88063,88037
 3.2000e+000 88686 -2.6869e+002 -1.0733e+002  1.6685e+002 45316 88438,88516,88490
 3.2000e+000 88663 -2.5542e+002  7.8212e+001  2.6235e+002 45316 88438,88542,88516
 3.2000e+000 88640 -1.3264e+002 -2.8128e+002  3.0505e+002 45316 88438,88568,88542
 3.2000e+000 88617 -2.4702e+002 -2.3119e+002  1.4253e+002 45316 88438,88490,88464
 3.2000e+000 88594 -2.5940e+002 -3.0236e+002  3.1378e+002 45316 88412,88568,88438
 3.2000e+000 88934 -4.3673e+002 -4.2033e+002  2.6176e+002 44812 88957,88735,88709
 3.2000e+000 88911 -2.4898e+002 -2.4796e+002  1.1594e+002 44812 88957,88709,88839
 3.2000e+000 88888 -2.2876e+002 -2.1547e+002  7.0441e+001 44812 89029,88787,88761
 3.2000e+000 88865 -1.9248e+002 -1.9534e+002  7.6205e+001 44812 88787,88839,88813
 3.2000e+000 88983 -1.3195e+002 -2.5621e+002  1.6910e+002 44812 88761,88735,88957
 3.2000e+000 89006 -2.2044e+002 -2.3680e+002  6.3014e+001 44812 89029,88761,88957
 3.2000e+000 89055 -2.1278e+002 -2.4312e+002  7.9053e+001 44812 88839,88787,89029
 3.2000e+000 89078 -2.1900e+002 -2.8245e+002  7.6629e+001 44812 88839,89029,88957
 3.2000e+000 89228 -8.2348e+001 -2.2224e+002  1.4943e+002 44408 89127,89179,89153
 3.2000e+000 89205 -3.2218e+001 -3.4360e-001  2.5347e+000 44408 89101,89179,89127
 3.2000e+000 89787 -2.5559e+002 -1.5008e+002  1.3715e+002 43854 89810,89545,89519
 3.2000e+000 89764 -2.8412e+002 -2.1356e+002  1.2863e+002 43854 89810,89519,89467
 3.2000e+000 89741 -2.8655e+002 -2.9733e+002  1.1876e+002 43854 89954,89882,89597
 3.2000e+000 89718 -2.8669e+002 -3.0868e+002  1.1475e+002 43854 89954,89597,89571
 3.2000e+000 89695 -1.3608e+002 -1.8696e+002  1.1317e+002 43854 89415,89623,89467
 3.2000e+000 89672 -1.3176e+002 -1.3613e+002  8.6534e+001 43854 89467,89519,89493
 3.2000e+000 89649 -8.2128e+001 -1.5550e+002  8.8712e+001 43854 89415,89467,89441
 3.2000e+000 89836 -2.7674e+002 -1.6333e+002  1.5225e+002 43854 89882,89545,89810
 3.2000e+000 89859 -1.4600e+002 -1.8649e+002  1.0482e+002 43854 89623,89810,89467
 3.2000e+000 89908 -2.7365e+002 -3.4101e+002  1.7291e+002 43854 89623,89597,89882
 3.2000e+000 89931 -2.5188e+002 -3.1052e+002  1.5565e+002 43854 89623,89882,89810
 3.2000e+000 89980 -2.8588e+002 -2.8195e+002  1.8353e+002 43854 89545,89882,89954
 3.2000e+000 90003 -3.0324e+002 -3.3806e+002  1.8720e+002 43854 89545,89954,89571
 3.2000e+000 90251 -1.1195e+002 -9.8449e+001  6.9744e+001 43492 90026,90078,90052
 3.2000e+000 90228 -2.6348e+002 -1.7212e+002  9.8610e+001 43492 90274,90026,90156
 3.2000e+000 90205 -2.4378e+002 -2.0441e+002  9.9738e+001 43492 90346,90274,90156
 3.2000e+000 90182 -2.5321e+002 -2.8289e+002  2.2461e+002 43492 90346,90156,90130
 3.2000e+000 90300 -1.9027e+002 -2.1857e+002  1.2661e+002 43492 90078,90026,90274
 3.2000e+000 90323 -2.8741e+002 -2.4700e+002  1.2997e+002 43492 90078,90274,90104
 3.2000e+000 90372 -3.9596e+002 -3.0892e+002  1.8248e+002 43492 90104,90274,90346
 3.2000e+000 90395 -4.0826e+002 -4.0259e+002  3.0949e+002 43492 90104,90346,90130
 3.2000e+000 90594 -1.3986e+002 -3.8858e+002  7.9132e+001 43052 90418,90496,90444
 3.2000e+000 90571 -2.7465e+002 -5.5287e+002  1.4512e+002 43052 90418,90522,90496
 3.2000e+000 90548 -2.3334e+002 -2.6648e+002  1.2748e+002 43052 90444,90496,90470
 3.2000e+000 91074 -3.4849e+002 -5.0025e+002  2.9066e+002 42434 91241,90884,90858
 3.2000e+000 91051 -7.3052e+002 -6.6612e+002 -3.7456e+001 42434 90702,90910,90884
 3.2000e+000 91028 -1.7651e+002 -4.1100e+002  1.9646e+002 42434 91097,90754,90702
 3.2000e+000 91005 -3.2286e+002 -3.0726e+002  2.7852e+002 42434 91241,90858,91097
 3.2000e+000 90982 -1.6544e+002 -2.5115e+002  4.2215e+001 42434 91169,90806,90780
 3.2000e+000 90959 -1.1290e+002 -2.5390e+002 -2.1972e+001 42434 90806,90858,90832
 3.2000e+000 90936 -2.2778e+002 -4.0924e+002  1.8662e+002 42434 90702,90754,90728
 3.2000e+000 91123 -3.9005e+002 -4.8475e+002  1.5827e+002 42434 90780,90754,91097
 3.2000e+000 91146 -3.3003e+002 -3.7235e+002  2.0321e+002 42434 91169,90780,91097
 3.2000e+000 91195 -1.0241e+002 -1.7809e+002 -2.3803e+001 42434 90858,90806,91169
 3.2000e+000 91218 -1.4931e+002 -6.8056e+001  1.0632e+002 42434 90858,91169,91097
 3.2000e+000 91267 -2.4391e+002 -7.2174e+002  1.9057e+002 42434 90702,90884,91241
 3.2000e+000 91290 -2.3848e+002 -5.5328e+002  1.8075e+002 42434 90702,91241,91097
 3.2000e+000 91698 -3.6020e+001 -2.3705e+002  8.8615e+001 41773 91473,91577,91499
 3.2000e+000 91675 -9.5021e+001 -2.7376e+002  1.0696e+002 41773 91473,91603,91577
 3.2000e+000 91652 -1.3461e+002 -2.0253e+002  2.7856e+001 41773 91499,91551,91525
 3.2000e+000 91629 -1.6203e+002 -2.2281e+002  8.2602e+001 41773 91499,91577,91551
 3.2000e+000 92044 -1.5219e+002 -2.1511e+002  1.3115e+002 41383 91773,91877,91851
 3.2000e+000 92021 -1.0089e+002 -2.3967e+002  9.0863e+001 41383 91747,91877,91773
 3.2000e+000 91998 -1.1658e+002 -1.5462e+002  1.0054e+002 41383 91773,91851,91799
 3.2000e+000 91975 -8.8898e+001 -1.6455e+002  2.8077e+001 41383 91747,91903,91877
 3.2000e+000 91952 -4.4955e+000 -1.2534e+002  3.9048e+001 41383 91721,91903,91747
 3.2000e+000 91929 -4.2734e+001 -1.7193e+002  6.5845e+001 41383 91799,91851,91825
 3.2000e+000 92601 -2.3199e+002 -2.3094e+002  6.4279e+001 40979 92229,92411,92307
 3.2000e+000 92578 -3.4289e+002 -2.4172e+002  5.5740e+001 40979 92229,92437,92411
 3.2000e+000 92555 -2.0193e+002 -2.1024e+002  4.2385e+001 40979 92229,92307,92281
 3.2000e+000 92532 -1.9761e+002 -2.5114e+002  9.2526e+001 40979 92333,92411,92385
 3.2000e+000 92509 -1.9477e+002 -2.1148e+002  7.3081e+001 40979 92307,92411,92333
 3.2000e+000 92486 -2.0937e+002 -2.4726e+002  5.1159e+001 40979 92229,92281,92255
 3.2000e+000 92463 -2.4700e+001 -2.2532e+002  7.1139e+001 40979 92333,92385,92359
 3.2000e+000 93235 -2.7593e+002 -1.8079e+002  2.1046e+002 40525 92941,92993,92967
 3.2000e+000 93212 -3.3835e+002 -9.2656e+001  6.6469e+001 40525 93258,92941,92889
 3.2000e+000 93189 -2.5900e+002 -3.7719e+001  1.7201e+001 40525 93258,92889,93071
 3.2000e+000 93166 -2.9530e+002 -2.0535e+002  6.4542e+001 40525 92889,92941,92915
 3.2000e+000 93143 -2.7702e+002 -3.2822e+001  1.5954e+001 40525 92863,93071,92889
 3.2000e+000 93120 -2.9031e+002 -2.0170e+002  1.2487e+002 40525 92993,93071,93019
 3.2000e+000 93097 -3.2143e+002 -1.3789e+002  1.0433e+002 40525 93019,93071,93045
 3.2000e+000 93284 -3.9660e+002 -2.0148e+002  1.6862e+002 40525 92993,92941,93258
 3.2000e+000 93307 -2.2211e+002 -6.8018e+001  1.0116e+002 40525 92993,93258,93071
 3.2000e+000 93636 -3.0497e+002 -2.8325e+002  2.6570e+002 40235 93437,93541,93515
 3.2000e+000 93613 -2.5604e+002 -3.6872e+002  2.3627e+002 40235 93411,93541,93437
 3.2000e+000 93590 -6.3292e+001 -3.1282e+002  8.4143e+001 40235 93463,93515,93489
 3.2000e+000 93567 -1.5764e+002 -2.0808e+002  5.3471e+001 40235 93437,93515,93463
 3.2000e+000 94014 -3.2873e+002 -2.8540e+002  1.6083e+002 39873 93766,93870,93792
 3.2000e+000 93991 -2.4835e+002 -3.1218e+002  1.2543e+002 39873 93766,93896,93870
 3.2000e+000 93968 -3.1647e+002 -2.2389e+002  1.6529e+002 39873 93792,93870,93844
 3.2000e+000 93945 -2.1034e+002 -1.5112e+002  1.1832e+002 39873 93792,93844,93818
 3.2000e+000 93922 -1.8193e+002 -2.3571e+002  1.8151e+002 39873 93740,93896,93766
 3.2000e+000 94164 -4.2342e+001 -1.6233e+002  7.2462e+001 39461 94037,94089,94063
 3.2000e+000 94141 -1.0318e+002 -5.0139e+002  1.8673e+002 39461 94037,94115,94089
 3.2000e+000 94363 -1.9264e+002 -1.2298e+002  8.6592e+001 39057 94386,94239,94213
 3.2000e+000 94340 -7.3808e+001 -4.1882e+001  4.8499e+001 39057 94386,94213,94187
 3.2000e+000 94317 -1.7592e+002 -1.1848e+002  8.9380e+001 39057 94187,94291,94265
 3.2000e+000 94412 -6.0103e+001 -9.3491e+001  8.4890e+001 39057 94458,94386,94265
 3.2000e+000 94435 -1.1380e+002 -1.1679e+002  8.0030e+001 39057 94265,94386,94187
 3.2000e+000 94484 -1.4482e+002 -1.6822e+002  1.2235e+002 39057 94239,94386,94458
 3.2000e+000 94896 -3.0905e+002 -2.2879e+002  1.5421e+002 38396 94919,94775,94723
 3.2000e+000 94873 -3.6016e+002 -1.8737e+002  1.5735e+002 38396 94919,94723,94697
 3.2000e+000 94850 -2.2720e+002 -2.0435e+002  9.4072e+001 38396 94723,94775,94749
 3.2000e+000 94827 -1.5564e+002 -1.0707e+002  9.6152e+001 38396 94671,94801,94697
 3.2000e+000 94945 -2.9707e+002 -1.9925e+002  1.3968e+002 38396 94801,94775,94919
 3.2000e+000 94968 -3.2677e+002 -1.4298e+002  1.3424e+002 38396 94801,94919,94697
 3.2000e+000 95265 -3.2394e+002 -3.2747e+002  1.4736e+002 37835 95017,95069,95043
 3.2000e+000 95242 -3.3150e+002 -3.0701e+002  1.5154e+002 37835 95288,95069,95017
 3.2000e+000 95219 -3.4190e+002 -3.4317e+002  2.1570e+002 37835 95288,95017,94991
 3.2000e+000 95196 -3.8415e+002 -3.7519e+002  2.0534e+002 37835 94991,95147,95121
 3.2000e+000 95173 -2.0086e+002 -1.7876e+002  1.3466e+002 37835 95069,95121,95095
 3.2000e+000 95314 -3.1932e+002 -2.1668e+002  1.2523e+002 37835 95121,95069,95288
 3.2000e+000 95337 -3.3239e+002 -2.7506e+002  1.8454e+002 37835 95121,95288,94991
 3.2000e+000 95558  2.3995e+001 -1.4340e+001  5.5984e+001 37423 95408,95460,95434
 3.2000e+000 95535 -7.4319e+001 -3.1529e+002  1.4565e+002 37423 95382,95460,95408
 3.2000e+000 95512 -1.5751e+002 -3.8611e+002  1.7606e+002 37423 95382,95486,95460
 3.2000e+000 95891 -8.9078e+001 -2.6573e+002  8.4906e+001 37225 95666,95718,95692
 3.2000e+000 95868 -3.0745e+002 -5.0547e+002  1.7637e+002 37225 95666,95796,95718
 3.2000e+000 95845 -1.5251e+002 -2.3258e+002  4.7570e+001 37225 95718,95770,95744
 3.2000e+000 95822 -1.4271e+002 -2.3099e+002  4.5275e+001 37225 95718,95796,95770
 3.2000e+000 95992 -3.1326e+001 -1.4246e+002  6.0158e+001 36735 95914,95966,95940
 3.2000e+000 96142 -3.4786e+002 -1.4989e+002  1.9462e+002 36331 96297,96067,96041
 3.2000e+000 96119 -2.7215e+002 -1.6015e+002  1.8327e+002 36331 96165,96041,96015
 3.2000e+000 96191 -3.2733e+002 -1.4643e+002  1.8148e+002 36331 96297,96041,96165
 3.2000e+000 96323 -3.8706e+002 -1.6684e+002  2.3823e+002 36331 96093,96067,96297
 3.2000e+000 96346 -3.2702e+002 -1.4656e+002  2.2652e+002 36331 96093,96297,96165
 3.2000e+000 96714 -1.9820e+002 -3.1353e+002  2.0242e+002 36041 96737,96495,96443
 3.2000e+000 96691 -2.8302e+002 -2.1466e+002  2.1476e+002 36041 96737,96443,96417
 3.2000e+000 96668 -1.2067e+002 -3.3120e+002  4.1460e+001 36041 96443,96495,96469
 3.2000e+000 96645 -5.3819e+001 -2.1823e+001  9.4600e+001 36041 96391,96521,96417
 3.2000e+000 96622 -1.1787e+001 -8.5793e+001  8.1666e+001 36041 96391,96547,96521
 3.2000e+000 96599 -1.8124e+001 -8.4782e+001  7.8521e+001 36041 96391,96573,96547
 3.2000e+000 96763 -8.5916e+001 -2.2338e+002  1.6315e+002 36041 96521,96495,96737
 3.2000e+000 96786 -2.4141e+002 -1.8069e+002  1.9900e+002 36041 96521,96737,96417
 3.2000e+000 96936 -2.0044e+002 -1.3496e+002  1.1493e+002 35637 97031,96959,96835
 3.2000e+000 96913 -2.1784e+002 -1.2301e+002  1.5372e+002 35637 97163,96959,96809
 3.2000e+000 96985 -2.3963e+002 -1.0824e+002  1.3968e+002 35637 96861,96835,96959
 3.2000e+000 97008 -3.1255e+002 -1.9447e+002  2.2595e+002 35637 96861,96959,96887
 3.2000e+000 97057 -1.8301e+002 -9.8511e+001  9.0235e+001 35637 96809,96959,97031
 3.2000e+000 97189 -1.8866e+002 -1.2856e+002  1.5670e+002 35637 96887,96959,97163
 3.2000e+000 97597 -1.4326e+002 -2.0606e+002  1.6656e+002 35190 97450,97502,97476
 3.2000e+000 97574 -1.5071e+002 -2.4160e+002  1.9208e+002 35190 97372,97502,97450
 3.2000e+000 97551 -1.5407e+002 -2.6924e+002  1.8306e+002 35190 97372,97450,97398
 3.2000e+000 97528 -1.6443e+002 -2.7364e+002  1.8350e+002 35190 97398,97450,97424
 3.2000e+000 98054 -1.6686e+002 -2.3014e+002  1.7794e+002 34636 97806,97936,97858
 3.2000e+000 98031 -3.0385e+002 -1.9270e+002  1.4942e+002 34636 97780,97936,97806
 3.2000e+000 98008 -2.9970e+002 -2.4524e+002  1.1071e+002 34636 97806,97858,97832
 3.2000e+000 97985 -1.9079e+002 -2.5894e+002  1.7238e+002 34636 97884,97936,97910
 3.2000e+000 97962 -1.1532e+002 -1.8945e+002  1.3623e+002 34636 97858,97936,97884
 3.2000e+000 98530 -2.4870e+002  1.1369e+002  6.0377e+001 34068 98697,98184,98366
 3.2000e+000 98507 -1.7599e+001  5.6778e+001  1.7445e+000 34068 98158,98366,98184
 3.2000e+000 98484 -2.9211e+002 -3.8496e+002  1.2523e+002 34068 98553,98262,98236
 3.2000e+000 98461 -5.3947e+002 -5.5718e+002  4.3340e+001 34068 98553,98236,98210
 3.2000e+000 98438 -3.1073e+002 -1.6676e+002  1.3649e+002 34068 98841,98625,98366
 3.2000e+000 98415 -2.6214e+002 -5.0517e+002  1.8269e+002 34068 98769,98288,98262
 3.2000e+000 98392 -4.0393e+002 -6.9168e+001  1.1863e+002 34068 98841,98366,98340
 3.2000e+000 98579 -3.1730e+002 -4.3644e+002  1.3310e+002 34068 98769,98262,98553
 3.2000e+000 98602 -2.6863e+002 -2.5121e+002  1.4666e+002 34068 98625,98314,98553
 3.2000e+000 98651 -2.9308e+002 -1.5623e+002  1.1471e+002 34068 98697,98366,98625
 3.2000e+000 98674 -3.5233e+002 -4.4277e+002  1.5813e+002 34068 98210,98625,98553
 3.2000e+000 98723 -3.9373e+002 -2.1187e+002  1.2427e+002 34068 98210,98184,98697
 3.2000e+000 98746 -3.4395e+002 -2.7886e+002  1.9174e+002 34068 98210,98697,98625
 3.2000e+000 98795 -1.5200e+002 -4.2918e+002  1.4424e+002 34068 98314,98288,98769
 3.2000e+000 98818 -2.1934e+002 -3.7672e+002  9.8957e+001 34068 98314,98769,98553
 3.2000e+000 98867 -3.7957e+002 -2.9037e+002  9.9098e+001 34068 98314,98625,98841
 3.2000e+000 98890 -4.6213e+002 -1.7438e+002  8.2291e+001 34068 98314,98841,98340
 3.2000e+000 99268 -3.7617e+002 -4.0018e+002  2.7471e+002 33450 99291,99098,99072
 3.2000e+000 99245 -4.0960e+002 -3.0598e+002  1.6955e+002 33450 99291,99072,99020
 3.2000e+000 99222 -6.8438e+002 -4.4531e+002  2.8033e+002 33450 99020,99072,99046
 3.2000e+000 99199 -3.1564e+002 -2.5320e+002  1.7266e+002 33450 99020,99150,99124
 3.2000e+000 99176 -3.0915e+002 -1.7058e+002  2.7636e+001 33450 98994,99150,99020
 3.2000e+000 99317 -2.1124e+002 -3.1988e+002  2.4880e+002 33450 99124,99098,99291
 3.2000e+000 99340 -3.5813e+002 -2.7884e+002  1.5952e+002 33450 99124,99291,99020
 3.2000e+000 99865 -2.0741e+002 -2.1402e+002  1.1993e+002 32944 100176,99960,99888
 3.2000e+000 99842 -2.5136e+002 -2.3174e+002  1.2136e+002 32944 100104,99888,99522
 3.2000e+000 99819 -2.0207e+002 -1.9819e+002  1.4229e+002 32944 100248,99960,99626
 3.2000e+000 99796 -2.1770e+002 -2.3952e+002  8.2339e+001 32944 100032,99652,99626
 3.2000e+000 99773 -2.1850e+002 -2.7393e+002  8.0935e+001 32944 100104,99522,99496
 3.2000e+000 99750 -1.7119e+002 -1.7437e+002  2.8641e+000 32944 99574,99626,99600
 3.2000e+000 99727 -1.6978e+002 -1.9560e+002  1.5344e+002 32944 100248,99626,99574
 3.2000e+000 99704 -1.4144e+002 -2.0935e+002  1.1427e+002 32944 99444,99496,99470
 3.2000e+000 99914 -2.2076e+002 -2.0527e+002  9.6542e+001 32944 100176,99888,100032
 3.2000e+000 99937 -2.5247e+002 -1.7986e+002  1.4039e+002 32944 99678,99888,99444
 3.2000e+000 99986 -2.3522e+002 -1.7852e+002  1.1986e+002 32944 99522,99888,99960
 3.2000e+000 100009 -2.2751e+002 -1.3978e+002  1.4640e+002 32944 99522,99960,99548
 3.2000e+000 100058 -2.4101e+002 -2.4104e+002  8.2200e+001 32944 99678,99652,100032
 3.2000e+000 100081 -2.7319e+002 -2.3107e+002  8.8137e+001 32944 99678,100032,99888
 3.2000e+000 100130 -1.8527e+002 -1.9223e+002  1.3892e+002 32944 99444,99888,100104
 3.2000e+000 100153 -1.5973e+002 -2.3124e+002  9.9685e+001 32944 99444,100104,99496
 3.2000e+000 100202 -2.2984e+002 -2.5099e+002  1.0803e+002 32944 99626,99960,100176
 3.2000e+000 100225 -2.3908e+002 -2.4963e+002  8.6238e+001 32944 99626,100176,100032
 3.2000e+000 100274 -2.5037e+002 -1.9380e+002  1.3143e+002 32944 99548,99960,100248
 3.2000e+000 100297 -2.2179e+002 -1.9423e+002  1.4227e+002 32944 99548,100248,99574
 3.2000e+000 100754 -5.1590e+001 -7.1149e+001  4.9286e+001 32369 100777,100584,100506
 3.2000e+000 100731 -7.4160e+001 -1.1444e+002  8.3855e+001 32369 100777,100506,100636
 3.2000e+000 100708 -1.2251e+002 -1.2743e+002  8.2816e+001 32369 100480,100636,100506
 3.2000e+000 100685 -2.3722e+002 -1.2730e+002  5.3424e+000 32369 100532,100584,100558
 3.2000e+000 100662 -6.3570e+001 -1.0332e+002  5.0270e+001 32369 100506,100584,100532
 3.2000e+000 100803 -8.0652e+001 -1.1964e+001  3.5275e+001 32369 100610,100584,100777
 3.2000e+000 100826 -9.2457e+001 -5.4455e+001  6.3904e+001 32369 100610,100777,100636
 3.2000e+000 101025 -1.8056e+002 -1.7763e+002  1.5948e+002 31857 100875,100927,100901
 3.2000e+000 101002 -3.9222e+002 -4.6127e+001  1.8209e+002 31857 100875,100953,100927
 3.2000e+000 100979 -4.4208e+002 -1.1754e+002  1.2014e+002 31857 100849,100953,100875
 3.2000e+000 101533 -1.7771e+002 -2.5340e+002  1.9076e+002 31253 101556,101314,101236
 3.2000e+000 101510 -2.6727e+002 -2.6947e+002  1.8725e+002 31253 101556,101236,101210
 3.2000e+000 101487 -2.5490e+002 -2.5569e+002  8.3029e+001 31253 101210,101392,101340
 3.2000e+000 101464 -1.4079e+002 -2.4815e+002  1.3293e+002 31253 101236,101288,101262
 3.2000e+000 101441 -1.6467e+002 -3.5157e+002  1.7347e+002 31253 101236,101314,101288
 3.2000e+000 101418 -2.5456e+002 -3.2935e+002  1.6318e+002 31253 101340,101392,101366
 3.2000e+000 101582 -2.0870e+002 -2.3959e+002  1.1643e+002 31253 101340,101314,101556
 3.2000e+000 101605 -2.9818e+002 -2.5024e+002  1.1702e+002 31253 101340,101556,101210
 3.2000e+000 101755  1.3031e+001 -5.0376e+001  3.5407e+001 30519 101778,101654,101628
 3.2000e+000 101732 -1.1543e+002 -9.4667e+001  4.1673e+001 30519 101850,101778,101628
 3.2000e+000 101804 -1.0189e+002 -3.8700e+001 -5.2628e+000 30519 101680,101654,101778
 3.2000e+000 101827 -1.2451e+002 -5.6990e+001  2.9464e+000 30519 101680,101778,101706
 3.2000e+000 101876 -1.3540e+002 -1.4199e+002 -1.6363e+001 30519 101706,101778,101850
 3.2000e+000 102561 -1.0140e+002 -1.9717e+002  1.0533e+002 29951 102656,102584,102270
 3.2000e+000 102538 -3.5785e+002 -4.2107e+002  7.4397e+001 29951 102584,102140,102374
 3.2000e+000 102515 -1.9227e+002 -4.5714e+002  2.3132e+002 29951 102728,102656,102270
 3.2000e+000 102492 -2.0159e+002 -5.5820e+002  2.2920e+002 29951 102728,102270,102244
 3.2000e+000 102469 -2.8605e+002 -6.8734e+001  1.2515e+002 29951 102800,102322,102296
 3.2000e+000 102446 -2.8690e+002 -2.0598e+002  5.8417e+001 29951 102166,102218,102192
 3.2000e+000 102423 -2.4365e+002 -2.2164e+002  3.3817e+001 29951 102166,102244,102218
 3.2000e+000 102400 -1.6192e+002 -1.8684e+002  8.4425e+001 29951 102322,102374,102348
 3.2000e+000 102610 -3.3441e+002 -1.2719e+002  5.7579e+001 29951 102296,102270,102584
 3.2000e+000 102633 -3.7221e+002 -1.7833e+002  8.2071e+001 29951 102800,102296,102584
 3.2000e+000 102682 -4.1739e+002 -3.9619e+002  2.0551e+002 29951 102140,102584,102656
 3.2000e+000 102705 -2.5385e+002 -3.9394e+002  2.9514e+002 29951 102140,102656,102166
 3.2000e+000 102754 -2.0140e+002 -3.4215e+002  2.7422e+002 29951 102166,102656,102728
 3.2000e+000 102777 -2.1205e+002 -4.2542e+002  2.5138e+002 29951 102166,102728,102244
 3.2000e+000 102826 -2.0021e+002 -1.9575e+002  1.7770e+002 29951 102374,102322,102800
 3.2000e+000 102849 -2.3459e+002 -2.2188e+002  1.5635e+002 29951 102374,102800,102584
 3.2000e+000 103048 -4.9199e+001 -1.8455e+002  6.0272e+001 29454 102872,102924,102898
 3.2000e+000 103025 -4.7382e+001 -4.3533e+002  1.0696e+002 29454 102872,102976,102924
 3.2000e+000 103002 -7.9917e+001 -6.2613e+002  1.3733e+002 29454 102924,102976,102950
 3.2000e+000 103296 -4.4177e+002 -3.5438e+002  2.3445e+002 29064 103319,103175,103123
 3.2000e+000 103273 -5.7832e+002 -3.5343e+002  2.7148e+002 29064 103319,103123,103071
 3.2000e+000 103250 -2.7466e+002 -2.2130e+002  1.6112e+002 29064 103123,103175,103149
 3.2000e+000 103227 -4.5548e+002 -2.5896e+002  3.2391e+002 29064 103071,103123,103097
 3.2000e+000 103345 -3.2035e+002 -3.7594e+002  1.7565e+002 29064 103201,103175,103319
 3.2000e+000 103368 -4.8483e+002 -3.4508e+002  1.6475e+002 29064 103201,103319,103071
 3.2000e+000 104006 -2.6038e+002 -1.4447e+002  1.1238e+002 28603 104101,104029,103712
 3.2000e+000 103983 -2.2888e+002 -9.1502e+001  9.7511e+001 28603 104173,104029,103660
 3.2000e+000 103960 -3.1302e+002 -1.2251e+002  1.0924e+002 28603 104101,103712,103686
 3.2000e+000 103937 -1.6933e+002 -1.1172e+002  9.5668e+001 28603 104173,103660,103634
 3.2000e+000 103914 -2.6897e+002 -1.6747e+002  1.4253e+002 28603 103764,103816,103790
 3.2000e+000 103891 -1.6468e+002 -9.8702e+001  1.3877e+002 28603 103634,103842,103816
 3.2000e+000 103868 -2.0909e+002 -9.2582e+001  1.3911e+002 28603 103712,103764,103738
 3.2000e+000 104055 -2.5648e+002 -1.0694e+002  1.1866e+002 28603 103764,103712,104029
 3.2000e+000 104078 -2.5395e+002 -1.1580e+002  1.3873e+002 28603 103764,104029,103816
 3.2000e+000 104127 -3.3273e+002 -1.3410e+002  9.2840e+001 28603 103660,104029,104101
 3.2000e+000 104150 -4.1604e+002 -1.3317e+002  1.0520e+002 28603 103660,104101,103686
 3.2000e+000 104199 -2.7431e+002 -1.0451e+002  1.1427e+002 28603 103816,104029,104173
 3.2000e+000 104222 -2.2499e+002 -1.2716e+002  1.0584e+002 28603 103816,104173,103634
 3.2000e+000 104600 -1.5251e+002 -3.2127e+002  7.1484e+001 28348 104623,104378,104326
 3.2000e+000 104577 -1.1869e+002 -3.3768e+002  1.2630e+002 28348 104623,104326,104482
 3.2000e+000 104554 -1.6303e+002 -2.3907e+002  6.9087e+001 28348 104326,104378,104352
 3.2000e+000 104531 -1.4983e+002 -7.3555e+000  1.1199e+001 28348 104404,104456,104430
 3.2000e+000 104508 -1.9871e+002 -1.7270e+002  1.1307e+002 28348 104378,104456,104404
 3.2000e+000 104649 -1.2612e+002 -2.7244e+002  9.4336e+001 28348 104456,104378,104623
 3.2000e+000 104672 -8.2107e+001 -2.7899e+002  1.5084e+002 28348 104456,104623,104482
 3.2000e+000 104991 -3.1411e+002 -3.2994e+002  2.2709e+002 27951 104717,104847,104769
 3.2000e+000 104968 -9.3860e+001 -2.2702e+002  1.9925e+002 27951 104717,104873,104847
 3.2000e+000 104945 -1.1419e+002 -2.8686e+002  2.3592e+002 27951 104769,104847,104795
 3.2000e+000 104922  3.0441e+000  9.5685e+000  2.2333e+002 27951 104795,104847,104821
 3.2000e+000 104899 -2.7074e+002 -2.1800e+002  2.2929e+002 27951 104717,104769,104743
 3.2000e+000 105371 -4.0042e+002 -2.5286e+002  1.9101e+002 27447 105394,105201,105123
 3.2000e+000 105348 -5.2260e+002 -2.4011e+002  2.7870e+002 27447 105394,105123,105097
 3.2000e+000 105325 -6.4903e+002 -2.8469e+002  1.9743e+002 27447 105123,105201,105149
 3.2000e+000 105302 -3.2329e+002 -3.4596e+002  2.0522e+002 27447 105201,105253,105227
 3.2000e+000 105279 -3.3135e+002 -4.0833e+002  4.5147e+001 27447 105149,105201,105175
 3.2000e+000 105420 -3.2792e+002 -2.1007e+002  1.4424e+002 27447 105253,105201,105394
 3.2000e+000 105443 -4.3624e+002 -1.5709e+002  2.2122e+002 27447 105253,105394,105097
 3.2000e+000 105998 -2.5443e+002 -2.1134e+002  1.9559e+002 27100 106165,106021,105704
 3.2000e+000 105975 -1.1037e+002 -1.0283e+002  1.6806e+002 27100 106309,106021,105652
 3.2000e+000 105952 -4.2746e+002 -3.4207e+002  3.3967e+002 27100 106093,105808,105782
 3.2000e+000 105929 -2.4925e+002 -2.2425e+002  1.8690e+002 27100 106165,105704,105678
 3.2000e+000 105906 -1.1374e+002 -3.0276e+002  1.4859e+002 27100 106237,105730,105704
 3.2000e+000 105883 -1.1258e+002 -1.8225e+002  1.1650e+002 27100 106309,105652,105626
 3.2000e+000 105860 -5.6512e+001 -7.7287e+000  1.9600e+001 27100 105730,105782,105756
 3.2000e+000 106047 -2.2437e+002 -1.7293e+002  2.1484e+002 27100 106237,105704,106021
 3.2000e+000 106070 -2.4321e+002 -1.6920e+002  2.6259e+002 27100 106093,105782,106021
 3.2000e+000 106119 -1.7110e+002 -2.7815e+002  1.6964e+002 27100 105834,105808,106093
 3.2000e+000 106142 -1.9399e+002 -3.4982e+002  2.2833e+002 27100 106381,106093,106021
 3.2000e+000 106191 -2.4510e+002 -1.9249e+002  2.0881e+002 27100 105652,106021,106165
 3.2000e+000 106214 -2.4099e+002 -2.1769e+002  2.0287e+002 27100 105652,106165,105678
 3.2000e+000 106263 -1.2390e+001 -1.6214e+002  1.0424e+002 27100 105782,105730,106237
 3.2000e+000 106286 -1.4720e+002 -6.7386e+001  1.8084e+002 27100 105782,106237,106021
 3.2000e+000 106335 -1.6602e+002 -2.2047e+002  1.8456e+002 27100 106381,106021,106309
 3.2000e+000 106358 -1.0445e+002 -1.3646e+002  1.0316e+002 27100 105834,106309,105626
 3.2000e+000 106407 -1.1950e+002 -1.9696e+002  1.4297e+002 27100 105834,106093,106381
 3.2000e+000 106430 -1.2582e+002 -1.6806e+002  9.3891e+001 27100 105834,106381,106309
 3.2000e+000 106629 -4.9539e+001 -3.2661e+002  8.3855e+001 26688 106479,106557,106531
 3.2000e+000 106606 -1.0275e+002 -3.0606e+002  6.9575e+001 26688 106453,106557,106479
 3.2000e+000 106583 -1.2723e+002 -3.3606e+002  2.3112e+001 26688 106479,106531,106505
 3.2000e+000 107088 -1.2078e+002 -1.2060e+002  5.0825e+001 26248 107111,106918,106866
 3.2000e+000 107065 -1.3048e+002 -1.0660e+002  6.2389e+001 26248 107111,106866,106840
 3.2000e+000 107042 -1.0105e+002 -8.0615e+001  6.2527e+001 26248 106814,106970,106840
 3.2000e+000 107019 -1.3374e+002 -2.2258e+002  6.7023e+001 26248 106866,106918,106892
 3.2000e+000 106996 -2.2122e+002 -1.7193e+002  4.9138e+001 26248 106918,106970,106944
 3.2000e+000 107137 -1.4021e+002 -1.3983e+002  3.6030e+001 26248 106970,106918,107111
 3.2000e+000 107160 -1.3527e+002 -1.1139e+002  4.9565e+001 26248 106970,107111,106840
 3.2000e+000 107666 -3.5414e+002 -1.5117e+002  1.2688e+002 25908 107369,107499,107395
 3.2000e+000 107643 -4.7170e+002 -4.4799e+002  2.3796e+002 25908 107369,107525,107499
 3.2000e+000 107620 -2.8499e+002 -1.9038e+002  1.5557e+002 25908 107395,107473,107447
 3.2000e+000 107597 -2.4422e+002 -1.0663e+002  1.1882e+002 25908 107395,107499,107473
 3.2000e+000 107574 -4.9649e+002 -2.5875e+002  3.5938e+002 25908 107395,107447,107421
 3.2000e+000 107551 -2.0096e+002 -3.4907e+002  2.0256e+002 25908 107343,107525,107369
 3.2000e+000 108251 -2.1135e+002 -8.5397e+001  1.3753e+002 25454 108274,108006,107954
 3.2000e+000 108228 -1.6994e+002 -4.4592e+001  1.0591e+002 25454 108274,107954,108110
 3.2000e+000 108205 -1.6086e+002 -1.8301e+002  1.5653e+002 25454 108346,108032,108006
 3.2000e+000 108182 -2.7259e+002 -1.4275e+002  1.7394e+002 25454 107954,108006,107980
 3.2000e+000 108159 -8.1166e+001 -1.1517e+002  9.2922e+001 25454 107928,108110,107954
 3.2000e+000 108136 -3.3153e+002 -3.6438e+002  1.9818e+002 25454 108058,108110,108084
 3.2000e+000 108300 -2.0357e+002 -1.3693e+002  1.5987e+002 25454 108346,108006,108274
 3.2000e+000 108323 -1.8013e+002 -8.5236e+001  1.2604e+002 25454 108058,108274,108110
 3.2000e+000 108372 -1.1415e+002 -1.2537e+002  1.3504e+002 25454 108058,108032,108346
 3.2000e+000 108395 -1.5727e+002 -6.9926e+001  1.3961e+002 25454 108058,108346,108274
 3.2000e+000 108822 -1.6378e+002 -1.1745e+002  9.8936e+001 24943 108525,108681,108655
 3.2000e+000 108799 -2.1848e+002 -1.5871e+002  4.8364e+001 24943 108499,108681,108525
 3.2000e+000 108776 -9.3262e+001 -9.0939e+001  7.5081e+001 24943 108525,108655,108629
 3.2000e+000 108753 -1.5620e+002 -7.4925e+001  6.7429e+001 24943 108525,108629,108603
 3.2000e+000 108730 -3.3156e+002 -1.0559e+002  1.2909e+002 24943 108551,108603,108577
 3.2000e+000 108707 -3.2607e+002 -2.0827e+002  1.8831e+002 24943 108525,108603,108551
 3.2000e+000 109407 -1.6741e+001 -5.9538e+001  2.9047e+001 24745 109162,109214,109188
 3.2000e+000 109384 -1.2962e+002 -6.2984e+001  3.9567e+001 24745 109162,109266,109214
 3.2000e+000 109361 -1.4793e+002 -7.5944e+001  2.3979e+001 24745 109084,109266,109162
 3.2000e+000 109338 -2.4035e+002 -3.5649e+001  6.0365e+001 24745 109084,109162,109136
 3.2000e+000 109315 -6.4835e+001 -1.1144e+002  4.8661e+001 24745 109214,109266,109240
 3.2000e+000 109292 -1.7541e+002 -5.0958e+001  9.7580e+001 24745 109084,109136,109110
 3.2000e+000 109785 -4.3533e+002 -2.0713e+002  2.5969e+002 24341 109537,109615,109563
 3.2000e+000 109762 -4.3117e+001 -9.6656e+001  2.2890e+002 24341 109537,109641,109615
 3.2000e+000 109739 -2.8545e+002 -2.1657e+002  1.8842e+002 24341 109563,109615,109589
 3.2000e+000 109716 -1.8478e+002 -1.7627e+002  1.5751e+002 24341 109537,109667,109641
 3.2000e+000 109693 -1.0593e+002 -2.1149e+002  1.3926e+002 24341 109511,109667,109537
 3.2000e+000 110163 -4.8186e+002 -2.8792e+002  2.5887e+002 23837 110186,109967,109915
 3.2000e+000 110140 -4.4774e+002 -2.9690e+002  2.8295e+002 23837 110186,109915,109889
 3.2000e+000 110117 -2.0756e+002 -1.0597e+002  2.1632e+002 23837 109889,110045,109993
 3.2000e+000 110094 -4.6305e+002 -3.6259e+002  2.1221e+002 23837 109915,109967,109941
 3.2000e+000 110071 -2.5994e+002 -9.4189e+000  4.5969e+001 23837 109993,110045,110019
 3.2000e+000 110212 -4.5849e+002 -2.6328e+002  2.7274e+002 23837 109993,109967,110186
 3.2000e+000 110235 -4.4071e+002 -2.7213e+002  2.9646e+002 23837 109993,110186,109889
 3.2000e+000 110336 -2.2038e+002 -5.0747e+002  2.4186e+002 23433 110258,110310,110284
 3.2000e+000 110584 -2.9066e+002 -2.0567e+002  1.3125e+002 22829 110607,110411,110385
 3.2000e+000 110561 -3.5288e+002 -2.3660e+002  1.7790e+002 22829 110607,110385,110489
 3.2000e+000 110538 -2.3909e+002 -2.1848e+002  1.1192e+002 22829 110437,110489,110463
 3.2000e+000 110515 -2.8601e+002 -1.4818e+002  2.0706e+002 22829 110359,110489,110385
 3.2000e+000 110633 -2.8789e+002 -1.5809e+002  8.4689e+001 22829 110437,110411,110607
 3.2000e+000 110656 -3.2337e+002 -1.9183e+002  1.2885e+002 22829 110437,110607,110489
 3.2000e+000 110906 -6.0064e+002 -2.5132e+002  1.9409e+002 22432 110707,110759,110733
 3.2000e+000 110883 -3.5452e+002 -2.7715e+002  1.5735e+002 22432 110707,110785,110759
 3.2000e+000 110860 -3.5077e+002 -2.5456e+002  2.2303e+002 22432 110707,110811,110785
 3.2000e+000 110837 -4.4506e+002 -3.2428e+002  1.7300e+002 22432 110681,110811,110707
 3.2000e+000 111288 -6.1200e+001 -1.4715e+002  1.2303e+002 22142 111092,111144,111118
 3.2000e+000 111265 -1.7102e+002 -1.3361e+002  9.8176e+001 22142 111066,111144,111092
 3.2000e+000 111242 -1.6255e+002 -1.2600e+002  8.0953e+001 22142 111040,111144,111066
 3.2000e+000 111219 -3.2640e+002 -3.9799e+001  4.9629e+001 22142 111014,111144,111040
 3.2000e+000 111196 -2.0174e+002 -1.0861e+001  7.7859e+001 22142 111014,111170,111144
 3.2000e+000 111389 -1.8302e+001 -7.0284e+001  1.4936e+002 21830 111311,111363,111337
 3.2000e+000 111735 -4.1199e+002 -3.7327e+001  2.9783e+002 21268 111758,111542,111438
 3.2000e+000 111712 -3.1276e+002 -5.7957e+000  2.0987e+002 21268 111758,111438,111412
 3.2000e+000 111689 -1.2214e+002 -2.4055e+002  3.5219e+002 21268 111438,111542,111464
 3.2000e+000 111666 -1.4083e+001 -1.8179e+002  4.6428e+002 21268 111464,111542,111490
 3.2000e+000 111643 -7.4563e+002 -3.7743e+002  3.9236e+002 21268 111412,111594,111568
 3.2000e+000 111620  2.0461e+002  1.3851e+002  5.9560e+002 21268 111490,111542,111516
 3.2000e+000 111784 -4.3852e+002 -7.7480e+001  3.1049e+002 21268 111568,111542,111758
 3.2000e+000 111807 -4.1460e+002 -1.7904e+002  2.5223e+002 21268 111568,111758,111412
 3.2000e+000 111959 -4.4179e+002 -5.4175e+001  1.4822e+002 20864 111982,111910,111884
 3.2000e+000 111936 -4.0845e+002 -7.4217e+001  2.1065e+002 20864 112114,111832,111910
 3.2000e+000 112008 -4.4100e+002 -1.5775e+002  1.7768e+002 20864 112114,111910,111982
 3.2000e+000 112140 -3.9825e+002 -1.7154e+002  1.6058e+002 20864 111858,111832,112114
 3.2000e+000 112163 -4.3711e+002 -2.7224e+002  1.3000e+002 20864 111858,112114,111982
 3.2000e+000 112411 -4.7252e+001 -9.9672e+000  1.5096e+001 20324 112186,112290,112212
 3.2000e+000 112388 -1.9654e+001 -7.1059e+000  2.3726e+001 20324 112186,112316,112290
 3.2000e+000 112365  1.4830e+002 -1.1359e+002  1.2274e+001 20324 112212,112290,112264
 3.2000e+000 112342 -5.6538e+002 -2.4215e+002 -3.4945e+001 20324 112212,112264,112238
 3.2000e+000 112659 -3.8084e+001 -1.1513e+001  1.7487e+002 19920 112512,112564,112538
 3.2000e+000 112636 -2.1061e+002 -8.0944e+001  1.1271e+002 19920 112434,112564,112512
 3.2000e+000 112613 -2.1926e+002 -1.3970e+002  1.3083e+002 19920 112434,112512,112460
 3.2000e+000 112590 -2.4820e+002 -1.5608e+002  1.4087e+002 19920 112460,112512,112486
 3.2000e+000 112811 -3.7992e+001 -1.5514e+001  6.9791e+001 19630 112684,112736,112710
 3.2000e+000 112788  6.2447e+001 -8.6068e+001  1.6108e+001 19630 112684,112762,112736
 3.2000e+000 113012 -1.8110e+002 -7.1483e+001  1.9852e+002 19169 112862,112940,112888
 3.2000e+000 112989 -3.0246e+002 -2.5681e+002  1.4618e+002 19169 112836,112940,112862
 3.2000e+000 112966 -1.5040e+002 -2.1780e+002  1.5730e+002 19169 112888,112940,112914
 3.2000e+000 113213 -3.5952e+002 -1.4857e+002  1.8738e+002 18600 113037,113089,113063
 3.2000e+000 113190 -2.2511e+002 -1.2461e+002  1.5634e+002 18600 113037,113115,113089
 3.2000e+000 113167 -3.9242e+002 -2.9011e+002  2.6258e+002 18600 113037,113141,113115
 3.2000e+000 113485 -2.0192e+002 -8.0324e+001  1.9958e+002 18352 113260,113312,113286
 3.2000e+000 113462 -3.9817e+002 -2.4625e+002  2.7151e+002 18352 113260,113390,113312
 3.2000e+000 113439 -3.7337e+002 -8.2328e+001  2.0657e+002 18352 113312,113390,113364
 3.2000e+000 113416 -1.5062e+002 -5.7357e+001  2.1365e+002 18352 113312,113364,113338
 3.2000e+000 113757 -2.8979e+002 -1.1759e+002  2.0592e+002 17834 113558,113610,113584
 3.2000e+000 113734 -4.1538e+002 -2.3522e+002  2.6655e+002 17834 113532,113610,113558
 3.2000e+000 113711 -4.2854e+002 -2.8333e+002  2.2030e+002 17834 113532,113662,113610
 3.2000e+000 113688 -2.2113e+002 -8.0414e+001  3.0319e+002 17834 113610,113662,113636
 3.2000e+000 113958 -2.8692e+002 -1.1906e+002  1.5850e+002 17330 113782,113834,113808
 3.2000e+000 113935 -1.5070e+002 -8.5879e+001  1.1233e+002 17330 113782,113886,113834
 3.2000e+000 113912 -1.8675e+002 -8.3415e+001  7.4174e+001 17330 113834,113886,113860
 3.2000e+000 114110 -4.3027e+002 -1.7244e+002  2.7567e+002 16874 113983,114035,114009
 3.2000e+000 114087 -1.6229e+002 -3.7706e+002  2.2625e+002 16874 113983,114061,114035
 3.2000e+000 114465 -4.7794e+002 -2.0270e+002  1.1674e+002 16270 114240,114292,114266
 3.2000e+000 114442 -3.9956e+002 -9.2990e+001  6.0187e+001 16270 114240,114370,114292
 3.2000e+000 114419 -1.7482e+002 -7.3915e+001  8.1373e+001 16270 114292,114344,114318
 3.2000e+000 114396 -4.4783e+002 -2.0009e+002  4.2021e+001 16270 114292,114370,114344
 3.2000e+000 114566 -1.4741e+001  1.4741e+001  3.6858e+002 15834 114488,114540,114514
 3.2000e+000 114667 -2.8467e+002 -1.1669e+002  1.8441e+002 15155 114589,114641,114615
 3.2000e+000 114890 -1.8295e+002 -6.8108e+001  2.5230e+002 421 114766,114818,114792
 3.2000e+000 114867 -3.0230e+002 -2.8553e+002  2.0324e+002 421 114714,114818,114766
 3.2000e+000 114844 -4.4726e+002 -1.8933e+002  1.2124e+002 421 114714,114766,114740
 3.3000e+000 66553 -1.6479e+002 -6.8627e+001  4.5225e+001 66108 66354,66458,66432
 3.3000e+000 66530 -1.3909e+002 -5.9642e+001  5.6930e+001 66108 66328,66458,66354
 3.3000e+000 66507 -1.2412e+002 -1.1733e+002  2.4533e+001 66108 66354,66432,66406
 3.3000e+000 66484  2.0537e+001  9.8044e+000  7.9974e+001 66108 66354,66406,66380
 3.3000e+000 66951 -2.5013e+002 -1.0708e+002  4.3380e+001 65910 66703,66833,66807
 3.3000e+000 66928 -1.5550e+002 -7.8505e+001  4.3285e+001 65910 66677,66833,66703
 3.3000e+000 66905 -5.8572e+001 -1.0644e+002  7.6131e+001 65910 66729,66781,66755
 3.3000e+000 66882 -2.2899e+002 -9.7584e+001  6.4980e+001 65910 66729,66807,66781
 3.3000e+000 66859 -2.2098e+002 -6.2425e+001  5.9188e+001 65910 66703,66807,66729
 3.3000e+000 67150 -2.2193e+002 -9.4380e+001  8.2459e+001 65712 67026,67078,67052
 3.3000e+000 67127 -3.1376e+002 -3.7171e+001  6.4660e+001 65712 66974,67078,67026
 3.3000e+000 67104 -8.9223e+002 -4.0405e+002  2.5346e+002 65712 66974,67026,67000
 3.3000e+000 67481 -3.3315e+002 -6.5991e+001  1.1066e+002 65422 67282,67360,67334
 3.3000e+000 67458 -1.6730e+002 -6.7596e+001  1.6032e+002 65422 67282,67386,67360
 3.3000e+000 67435 -1.1751e+002  4.9961e+001  6.5974e+001 65422 67282,67334,67308
 3.3000e+000 67412  2.9849e+001  4.5104e+000  3.2167e+001 65422 67256,67386,67282
 3.3000e+000 68115 -1.1658e+002 -4.4262e+001  2.7024e+001 65018 67795,67925,67873
 3.3000e+000 68092 -1.4175e+002 -5.5466e+001  4.8389e+001 65018 67769,67925,67795
 3.3000e+000 68069 -8.0057e+001 -3.6525e+001  3.9838e+001 65018 67873,67925,67899
 3.3000e+000 68046 -1.9514e+002 -1.4760e+002  8.5236e+001 65018 67769,67951,67925
 3.3000e+000 68023 -1.4092e+002 -8.3787e+001  3.7321e+001 65018 67795,67873,67821
 3.3000e+000 68000 -2.0079e+002 -9.2162e+001  2.5290e+001 65018 67821,67873,67847
 3.3000e+000 67977 -1.2098e+002 -1.2895e+002  9.3244e+001 65018 67743,67951,67769
 3.3000e+000 68363 -1.2142e+002 -2.7022e+002  2.3124e+002 64820 68190,68242,68216
 3.3000e+000 68340 -2.4660e+002 -2.0615e+002  2.4988e+002 64820 68190,68268,68242
 3.3000e+000 68317 -1.3670e+002 -1.5627e+002  2.6601e+002 64820 68164,68268,68190
 3.3000e+000 68294 -4.8514e+002 -2.0366e+002  1.7180e+002 64820 68138,68268,68164
 3.3000e+000 68513 -2.8232e+002 -1.4178e+002  9.2957e+001 64366 68868,68536,68438
 3.3000e+000 68490 -1.6928e+002 -7.4779e+001  8.2041e+001 64366 68536,68412,68386
 3.3000e+000 68562 -3.0726e+002 -1.2665e+002  1.3879e+002 64366 68740,68536,68464
 3.3000e+000 68585 -2.2078e+002 -7.5659e+001  1.0290e+002 64366 68608,68536,68386
 3.3000e+000 68634 -2.7663e+002 -1.9011e+002  8.5486e+001 64366 68464,68536,68608
 3.3000e+000 68766 -2.9235e+002 -1.0724e+002  1.2908e+002 64366 68438,68536,68740
 3.3000e+000 68894 -1.9644e+002 -8.0350e+001  1.3051e+002 64366 68412,68536,68868
 3.3000e+000 69172 -3.3573e+002 -2.3430e+002  7.5722e+000 64168 69022,69074,69048
 3.3000e+000 69149 -4.9735e+002 -2.1310e+002  6.1203e+001 64168 68996,69074,69022
 3.3000e+000 69126 -4.9168e+002 -2.0513e+002  7.6727e+001 64168 68996,69100,69074
 3.3000e+000 69371 -2.0293e+002 -6.5341e+001  1.1378e+002 63970 69466,69394,69273
 3.3000e+000 69348 -2.3869e+002 -1.0358e+002  1.0659e+002 63970 69394,69247,69221
 3.3000e+000 69325 -2.3323e+002 -9.9475e+001  5.8864e+001 63970 69195,69299,69221
 3.3000e+000 69420 -1.5638e+002 -9.9626e+001  8.9837e+001 63970 69299,69273,69394
 3.3000e+000 69443 -2.1717e+002 -1.3316e+002  7.4480e+001 63970 69299,69394,69221
 3.3000e+000 69492 -2.1971e+002 -9.5576e+001  1.0710e+002 63970 69247,69394,69466
 3.3000e+000 69904 -3.1525e+001 -2.0323e+002  6.8634e+001 63680 69705,69783,69731
 3.3000e+000 69881  3.5224e+001 -1.3388e+002  2.7377e+001 63680 69679,69783,69705
 3.3000e+000 69858 -1.9481e+002 -1.9374e+002  7.7163e+001 63680 69679,69809,69783
 3.3000e+000 69835 -1.5597e+002 -2.7497e+002  3.4856e+001 63680 69731,69783,69757
 3.3000e+000 70054 -1.2889e+001 -1.2490e+002  5.7673e+001 63476 70077,69953,69927
 3.3000e+000 70031 -4.0365e+000 -6.0238e+001  9.0718e+001 63476 70077,69927,70005
 3.3000e+000 70103 -4.6696e+001 -7.8034e+001  3.0485e+001 63476 69979,69953,70077
 3.3000e+000 70126 -4.1718e+001 -1.7351e+001  5.8231e+001 63476 69979,70077,70005
 3.3000e+000 70325 -4.8802e+002 -2.6322e+002  9.6779e+001 63278 70149,70227,70175
 3.3000e+000 70302 -3.7705e+002 -1.5822e+002  1.8203e+002 63278 70149,70253,70227
 3.3000e+000 70279 -5.1075e+002 -3.9239e+002  1.1883e+002 63278 70175,70227,70201
 3.3000e+000 70597 -2.0440e+002 -8.2320e+001  9.0430e+001 63080 70372,70476,70424
 3.3000e+000 70574 -3.0464e+002 -1.3022e+002  5.4630e+001 63080 70372,70502,70476
 3.3000e+000 70551 -1.7090e+002 -7.2807e+001  5.6793e+001 63080 70424,70476,70450
 3.3000e+000 70528 -2.6326e+002 -1.1540e+002  1.1534e+002 63080 70372,70424,70398
 3.3000e+000 70847 -2.1291e+001 -1.0996e+002  4.0550e+001 62740 70870,70648,70622
 3.3000e+000 70824 -5.0930e+001 -9.6616e+001  5.5251e+001 62740 70870,70622,70752
 3.3000e+000 70801 -1.4246e+001 -1.1070e+002  3.1445e+001 62740 70648,70726,70700
 3.3000e+000 70778 -2.1618e+001 -1.1460e+002  3.5605e+001 62740 70648,70700,70674
 3.3000e+000 70896 -5.0948e+001 -1.2585e+002  3.4476e+001 62740 70726,70648,70870
 3.3000e+000 70919 -6.3175e+001 -1.0232e+002  5.3259e+001 62740 70726,70870,70752
 3.3000e+000 71022 -1.1285e+001  1.1285e+001  3.2255e+002 62520 70944,70996,70970
 3.3000e+000 71223 -4.3080e+002 -2.2824e+002  2.7071e+002 62230 71073,71151,71099
 3.3000e+000 71200 -3.5473e+002 -2.1683e+002  2.4346e+002 62230 71047,71151,71073
 3.3000e+000 71177 -2.9719e+002 -3.7229e+002  2.1374e+002 62230 71099,71151,71125
 3.3000e+000 71861 -4.5083e+001  1.8518e-002  3.5316e+001 61712 71515,71697,71671
 3.3000e+000 71838 -4.2107e+001  1.0969e+001  3.9302e+000 61712 71489,71697,71515
 3.3000e+000 71815 -3.9385e+002 -1.0684e+002  1.7697e+002 61712 71884,71541,71515
 3.3000e+000 71792 -2.6090e+002  1.8408e+001  1.2037e+002 61712 71884,71515,71671
 3.3000e+000 71769 -9.3399e+001 -2.5010e+002  1.0689e+002 61712 71541,71619,71593
 3.3000e+000 71746 -7.4416e+001 -4.3183e+001  1.0936e+002 61712 71619,71671,71645
 3.3000e+000 71723 -3.8971e+002 -4.5213e+002  2.7323e+002 61712 71541,71593,71567
 3.3000e+000 71910 -2.5308e+002 -2.2903e+002  2.2511e+002 61712 71619,71541,71884
 3.3000e+000 71933 -1.7062e+002 -1.4104e+002  1.8325e+002 61712 71619,71884,71671
 3.3000e+000 72230 -4.0393e+002 -3.4805e+002  9.1772e+001 61208 72253,72060,72008
 3.3000e+000 72207 -3.4770e+002 -1.9259e+002  1.0121e+002 61208 72253,72008,71982
 3.3000e+000 72184 -3.1156e+002 -9.2966e+001  4.6975e+001 61208 71982,72112,72086
 3.3000e+000 72161 -5.1209e+002 -3.2961e+002  1.5437e+002 61208 72008,72060,72034
 3.3000e+000 72138 -2.0060e+002 -6.5772e+001  1.0488e+002 61208 71956,72112,71982
 3.3000e+000 72279 -4.2855e+002 -2.3236e+002  2.4137e+001 61208 72086,72060,72253
 3.3000e+000 72302 -4.1411e+002 -1.4573e+002  2.8235e+001 61208 72086,72253,71982
 3.3000e+000 72761 -1.6425e+002 -1.5714e+002  5.1601e+001 60804 72487,72617,72513
 3.3000e+000 72738 -2.2642e+002 -1.9750e+002  8.3347e+001 60804 72487,72643,72617
 3.3000e+000 72715 -5.2950e+001 -3.7848e+002  6.8925e+001 60804 72565,72617,72591
 3.3000e+000 72692 -2.0454e+002 -2.2117e+002  1.0837e+002 60804 72513,72617,72565
 3.3000e+000 72669 -1.9781e+002 -2.5553e+002  9.6503e+000 60804 72513,72565,72539
 3.3000e+000 72911 -1.1285e+001  1.1285e+001  3.2255e+002 60556 72784,72836,72810
 3.3000e+000 72888  2.7609e+002  1.3085e+002  1.8838e+002 60556 72784,72862,72836
 3.3000e+000 73468 -9.8704e+001 -9.7503e+001  6.0920e+001 60244 73491,73226,73200
 3.3000e+000 73445 -1.5348e+002 -1.3872e+002  1.1718e+002 60244 73563,73491,73200
 3.3000e+000 73422 -2.7715e+002 -1.0036e+002  1.3387e+002 60244 73563,73200,73174
 3.3000e+000 73399 -1.1349e+002 -1.5990e+002  7.4369e+001 60244 73226,73278,73252
 3.3000e+000 73376 -2.1641e+002 -1.3906e+002  9.5227e+001 60244 73122,73304,73278
 3.3000e+000 73353 -2.2982e+002 -1.6511e+002  9.0247e+001 60244 73096,73304,73122
 3.3000e+000 73330 -3.8644e+002 -7.7247e+001 -4.4312e+001 60244 73122,73174,73148
 3.3000e+000 73517 -2.1135e+002 -1.6063e+002  1.0301e+002 60244 73278,73226,73491
 3.3000e+000 73540 -1.9861e+002 -1.2673e+002  1.0070e+002 60244 73278,73491,73122
 3.3000e+000 73589 -3.4254e+002 -1.7445e+002  1.0324e+002 60244 73122,73491,73563
 3.3000e+000 73612 -4.5955e+002 -1.3148e+002  1.2707e+002 60244 73122,73563,73174
 3.3000e+000 73762 -8.2341e+001 -1.9266e+002  1.9959e+002 59875 73661,73713,73687
 3.3000e+000 73739 -2.3767e+002 -1.3078e+002  1.5061e+002 59875 73635,73713,73661
 3.3000e+000 74191 -1.6377e+002 -3.8049e+002  1.9226e+002 59478 74214,73894,73868
 3.3000e+000 74168 -2.6424e+002 -3.5647e+002  2.0391e+002 59478 74214,73868,74050
 3.3000e+000 74145 -2.5690e+002 -3.4775e+002  1.1733e+002 59478 73894,73946,73920
 3.3000e+000 74122 -2.2531e+002 -3.7630e+002  1.1439e+002 59478 73894,73998,73946
 3.3000e+000 74099 -5.3702e+002 -4.0765e+002  3.3741e+002 59478 73998,74050,74024
 3.3000e+000 74076 -2.9311e+002 -3.9834e+002  6.9671e+001 59478 73946,73998,73972
 3.3000e+000 74240 -2.5301e+002 -3.6122e+002  1.5653e+002 59478 73998,73894,74214
 3.3000e+000 74263 -3.5603e+002 -3.4836e+002  1.5184e+002 59478 73998,74214,74050
 3.3000e+000 74720 -2.1661e+002 -1.2236e+002  9.5138e+001 58774 74472,74602,74498
 3.3000e+000 74697 -2.5380e+002 -1.6750e+002  7.1697e+001 58774 74446,74602,74472
 3.3000e+000 74674 -2.5578e+002 -1.0819e+002  9.8801e+001 58774 74498,74576,74524
 3.3000e+000 74651 -2.4073e+002 -1.2695e+002  7.9645e+001 58774 74498,74602,74576
 3.3000e+000 74628 -2.5651e+002 -4.9545e+001  7.1030e+001 58774 74524,74576,74550
 3.3000e+000 75226 -1.6624e+002 -1.6322e+002  1.0528e+002 58270 74955,75085,75033
 3.3000e+000 75203 -1.8018e+002 -1.9462e+002  9.9570e+001 58270 74929,75085,74955
 3.3000e+000 75180 -2.4644e+002 -1.6596e+002  1.7298e+002 58270 75033,75085,75059
 3.3000e+000 75157 -2.7554e+002 -2.6762e+002  8.8870e+001 58270 74955,75007,74981
 3.3000e+000 75134 -1.7835e+002 -1.6497e+002  4.7236e+001 58270 74955,75033,75007
 3.3000e+000 75111 -2.2675e+001 -1.8003e+002  6.5090e+001 58270 74903,75085,74929
 3.3000e+000 75425 -1.9783e+002 -1.8634e+002  1.1187e+002 57830 75448,75301,75249
 3.3000e+000 75402 -1.4675e+002 -9.0304e+001  7.1619e+001 57830 75448,75249,75353
 3.3000e+000 75379 -2.6756e+002 -3.1279e+002  9.0874e+001 57830 75520,75301,75275
 3.3000e+000 75474 -1.8568e+002 -2.4592e+002  1.6215e+002 57830 75327,75301,75448
 3.3000e+000 75497 -1.6216e+002 -2.0083e+002  1.2203e+002 57830 75327,75448,75353
 3.3000e+000 75546 -1.3893e+002 -2.1867e+002  4.2794e+001 57830 75249,75301,75520
 3.3000e+000 76261 -1.0038e+002 -1.8370e+002  9.6061e+001 57426 76284,76097,76071
 3.3000e+000 76238 -8.1252e+001 -1.1515e+002  9.3923e+001 57426 75889,76097,75915
 3.3000e+000 76215 -1.3887e+002 -1.8482e+002  1.1262e+002 57426 76428,76284,76071
 3.3000e+000 76192 -1.0871e+002 -1.6716e+002  6.6444e+001 57426 76356,75941,75915
 3.3000e+000 76169 -1.3527e+002 -1.6345e+002  1.1265e+002 57426 76428,76071,76019
 3.3000e+000 76146 -1.5078e+002 -2.1841e+002  1.0191e+002 57426 76019,76071,76045
 3.3000e+000 76123 -1.5880e+002 -1.6670e+002  1.4887e+002 57426 75967,76019,75993
 3.3000e+000 76310 -9.8562e+001 -1.7555e+002  7.3046e+001 57426 75915,76097,76284
 3.3000e+000 76333 -1.2127e+002 -1.7884e+002  7.1950e+001 57426 76356,75915,76284
 3.3000e+000 76382 -1.3779e+002 -1.5403e+002  7.8535e+001 57426 75967,75941,76356
 3.3000e+000 76405 -1.4398e+002 -1.5878e+002  8.2250e+001 57426 75967,76356,76284
 3.3000e+000 76454 -1.3944e+002 -1.6239e+002  1.0851e+002 57426 75967,76284,76428
 3.3000e+000 76477 -1.4169e+002 -1.4859e+002  1.1110e+002 57426 75967,76428,76019
 3.3000e+000 76953 -1.4479e+002 -2.3298e+002  1.3912e+002 56908 76976,76711,76685
 3.3000e+000 76930 -1.4199e+002 -2.3184e+002  1.4885e+002 56908 77048,76976,76685
 3.3000e+000 76907 -2.8212e+002 -2.4548e+002  2.1772e+002 56908 77048,76685,76633
 3.3000e+000 76884 -4.1426e+002 -3.6400e+002  2.2891e+002 56908 76711,76789,76763
 3.3000e+000 76861 -2.2227e+002 -1.1474e+002  9.6243e+001 56908 76581,76789,76607
 3.3000e+000 76838 -3.8164e+002 -2.0880e+002  1.4376e+002 56908 76711,76763,76737
 3.3000e+000 76815 -7.2211e+002 -5.5823e+002  4.4320e+002 56908 76633,76685,76659
 3.3000e+000 77002 -1.8334e+002 -2.4928e+002  1.3965e+002 56908 76789,76711,76976
 3.3000e+000 77025 -1.8483e+002 -1.0562e+002  9.1517e+001 56908 76789,76976,76607
 3.3000e+000 77074 -3.5756e+002 -2.3533e+002  1.4847e+002 56908 76607,76976,77048
 3.3000e+000 77097 -4.2864e+002 -1.8804e+002  2.1081e+002 56908 76607,77048,76633
 3.3000e+000 77475 -1.4098e+002 -1.2185e+002  1.3085e+002 56546 77570,77498,77279
 3.3000e+000 77452 -9.5245e+001 -2.1974e+002  1.6209e+002 56546 77498,77227,77357
 3.3000e+000 77429 -1.5467e+002 -1.4085e+002  1.4416e+002 56546 77570,77279,77253
 3.3000e+000 77406 -2.1796e+002 -2.8130e+002  1.9610e+002 56546 77201,77357,77227
 3.3000e+000 77383 -1.3887e+002 -1.4694e+002  3.6566e+001 56546 77279,77331,77305
 3.3000e+000 77524 -1.2412e+002 -2.0361e+001  1.2662e+002 56546 77331,77279,77498
 3.3000e+000 77547 -4.8651e+001 -1.1061e+002  2.0477e+002 56546 77331,77498,77357
 3.3000e+000 77596 -1.4442e+002 -1.2727e+002  1.6673e+002 56546 77227,77498,77570
 3.3000e+000 77619 -1.6859e+002 -1.8369e+002  1.7873e+002 56546 77227,77570,77253
 3.3000e+000 77818 -1.4670e+002 -1.6528e+002  1.3214e+002 56042 77841,77694,77668
 3.3000e+000 77795 -1.1859e+002 -1.4877e+002  1.1786e+002 56042 77841,77668,77746
 3.3000e+000 77772 -1.5948e+002 -6.0428e+001  1.0333e+002 56042 77642,77746,77668
 3.3000e+000 77867 -1.6050e+002 -1.7615e+002  1.5415e+002 56042 77720,77694,77841
 3.3000e+000 77890 -1.2838e+002 -1.5677e+002  1.3940e+002 56042 77720,77841,77746
 3.3000e+000 78349 -2.6195e+002 -1.3985e+002  1.3119e+002 55538 78075,78127,78101
 3.3000e+000 78326 -3.2473e+002 -2.1424e+002  8.0140e+001 55538 78075,78205,78127
 3.3000e+000 78303 -3.5963e+002 -1.0491e+002  9.4885e+001 55538 78075,78231,78205
 3.3000e+000 78280 -2.1983e+002 -3.0663e+002  1.6730e+002 55538 78127,78179,78153
 3.3000e+000 78257 -2.1841e+002 -2.1050e+002  7.2960e+001 55538 78127,78205,78179
 3.3000e+000 78806 -1.5253e+002 -1.6270e+002  5.6749e+001 55034 78829,78636,78610
 3.3000e+000 78783 -1.7605e+002 -1.8280e+002  6.6807e+001 55034 78901,78829,78610
 3.3000e+000 78760 -1.4691e+002 -2.0930e+002  8.7945e+001 55034 78901,78610,78584
 3.3000e+000 78737 -1.6584e+002 -1.4869e+002  8.9560e+001 55034 78558,78688,78662
 3.3000e+000 78714 -1.7291e+002 -1.4748e+002  1.4298e+002 55034 78532,78688,78558
 3.3000e+000 78855 -1.7444e+002 -1.5840e+002  5.6508e+001 55034 78662,78636,78829
 3.3000e+000 78878 -1.8811e+002 -1.5533e+002  8.2689e+001 55034 78662,78829,78558
 3.3000e+000 78927 -1.4516e+002 -1.3691e+002  8.3827e+001 55034 78558,78829,78901
 3.3000e+000 78950 -1.2714e+002 -1.6105e+002  1.0368e+002 55034 78558,78901,78584
 3.3000e+000 79407 -8.6484e+001 -8.7565e+001  1.2136e+002 54430 79430,79237,79159
 3.3000e+000 79384 -5.9679e+001 -1.6262e+002  3.3741e+001 54430 79430,79159,79133
 3.3000e+000 79361 -1.3039e+002 -1.2930e+002  6.4415e+001 54430 79237,79289,79263
 3.3000e+000 79338 -8.3016e+001 -1.4413e+002  6.5806e+001 54430 79185,79237,79211
 3.3000e+000 79315 -2.0580e+002 -1.4916e+002  1.5250e+002 54430 79159,79237,79185
 3.3000e+000 79456 -1.0473e+002 -1.7809e+002  9.5842e+001 54430 79289,79237,79430
 3.3000e+000 79479 -8.7693e+001 -2.9987e+002  2.6557e+001 54430 79289,79430,79133
 3.3000e+000 79936 -1.0334e+002 -7.8587e+001  1.0957e+002 53919 79662,79766,79688
 3.3000e+000 79913 -3.9397e+002 -1.8177e+002  2.1632e+002 53919 79662,79818,79766
 3.3000e+000 79890 -4.9351e+002 -1.6872e+002  6.7152e+001 53919 79766,79818,79792
 3.3000e+000 79867 -2.7560e+002 -2.4323e+002  1.3379e+002 53919 79714,79766,79740
 3.3000e+000 79844 -2.5679e+002 -1.8618e+002  1.7469e+002 53919 79688,79766,79714
 3.3000e+000 80037 -1.4465e+002 -3.4922e+002  1.5984e+002 53671 79959,80011,79985
 3.3000e+000 80405 -1.0318e+002 -2.4088e+002  7.8092e+001 53267 80108,80264,80238
 3.3000e+000 80382 -1.5592e+002 -2.2376e+002  8.4695e+001 53267 80082,80264,80108
 3.3000e+000 80359 -1.0615e+002 -2.7860e+002  1.0828e+002 53267 80108,80238,80134
 3.3000e+000 80336 -4.3490e+001 -9.5052e+001  8.7553e+001 53267 80134,80212,80186
 3.3000e+000 80313 -1.4775e+002 -2.2928e+002  1.7975e+002 53267 80134,80238,80212
 3.3000e+000 80290 -5.0461e+001 -1.6567e+002  6.5262e+001 53267 80134,80186,80160
 3.3000e+000 80915 -2.6922e+002 -3.6519e+002  5.0854e+001 52969 80644,80774,80748
 3.3000e+000 80892 -2.4951e+002 -2.2901e+002  2.8903e+001 52969 80618,80774,80644
 3.3000e+000 80869 -3.2695e+002 -4.5971e+002 -6.8902e-001 52969 80644,80748,80670
 3.3000e+000 80846 -3.1795e+002 -2.5226e+002  2.8541e+001 52969 80592,80774,80618
 3.3000e+000 80823 -3.9642e+002 -3.8231e+002  4.2970e+001 52969 80670,80722,80696
 3.3000e+000 80800 -2.7630e+002 -3.3210e+002  9.5462e+000 52969 80670,80748,80722
 3.3000e+000 81266  2.5086e+001  6.0644e+000  7.6258e+000 52565 81041,81145,81067
 3.3000e+000 81243  4.6756e+001  3.2846e+001 -2.0157e+000 52565 81041,81171,81145
 3.3000e+000 81220 -1.0938e+001 -4.3865e+001  3.6584e+001 52565 81067,81119,81093
 3.3000e+000 81197  2.9184e+001 -3.6397e+000  8.2915e+000 52565 81067,81145,81119
 3.3000e+000 81723 -2.8453e+001 -1.1747e+000 -7.3310e+000 51904 81449,81527,81475
 3.3000e+000 81700 -4.2214e+001  3.0943e-001  1.3677e+001 51904 81449,81579,81527
 3.3000e+000 81677 -1.2464e+002  5.0746e+000  9.5525e+000 51904 81449,81605,81579
 3.3000e+000 81654 -9.9058e+001 -7.7675e-001  7.5703e+000 51904 81527,81579,81553
 3.3000e+000 81631 -3.6152e-001  3.4699e-001 -1.7409e+000 51904 81475,81527,81501
 3.3000e+000 82327 -2.0477e+002 -2.0903e+002  1.4672e+002 51321 82422,82350,82036
 3.3000e+000 82304 -2.2323e+002 -1.2878e+002  1.7645e+002 51321 82494,82350,81958
 3.3000e+000 82281 -2.1664e+002 -2.2702e+002  1.3196e+002 51321 82422,82036,82010
 3.3000e+000 82258 -2.4741e+002 -1.4088e+002  1.8114e+002 51321 82494,81958,81932
 3.3000e+000 82235 -2.2263e+002 -7.5314e+001  6.4522e+001 51321 82062,82114,82088
 3.3000e+000 82212 -5.7452e+002 -3.6158e+002  2.6700e+002 51321 81932,82140,82114
 3.3000e+000 82189 -2.2656e+002 -8.0826e+001  1.3957e+002 51321 81958,82010,81984
 3.3000e+000 82166 -9.6868e+001 -1.7686e+002  9.9814e+001 51321 81906,82140,81932
 3.3000e+000 82376 -2.0713e+002 -2.5406e+002  1.4382e+002 51321 82062,82036,82350
 3.3000e+000 82399 -2.0796e+002 -1.7246e+002  1.3338e+002 51321 82062,82350,82114
 3.3000e+000 82448 -1.8809e+002 -1.9011e+002  1.6877e+002 51321 81958,82350,82422
 3.3000e+000 82471 -1.9717e+002 -2.0617e+002  1.5441e+002 51321 81958,82422,82010
 3.3000e+000 82520 -2.3010e+002 -1.2811e+002  1.6316e+002 51321 82114,82350,82494
 3.3000e+000 82543 -2.3296e+002 -1.3011e+002  1.6616e+002 51321 82114,82494,81932
 3.3000e+000 83019 -1.9669e+002 -2.1465e+002  1.1897e+002 50817 82673,82751,82699
 3.3000e+000 82996 -2.5806e+002 -1.8866e+002  1.1008e+002 50817 83042,82673,82855
 3.3000e+000 82973 -2.6575e+002 -2.8001e+002  1.0468e+002 50817 83042,82855,82803
 3.3000e+000 82950 -3.4879e+002 -4.1051e+002  1.0652e+002 50817 82751,82803,82777
 3.3000e+000 82927 -2.5715e+002 -2.2264e+002  7.4863e+001 50817 82647,82855,82673
 3.3000e+000 82904 -3.8310e+002 -3.2831e+002  2.1258e+002 50817 82803,82855,82829
 3.3000e+000 82881 -3.3594e+002 -4.7041e+002  1.7641e+002 50817 82699,82751,82725
 3.3000e+000 83068 -2.2987e+002 -2.5665e+002  1.6613e+002 50817 82751,82673,83042
 3.3000e+000 83091 -2.2755e+002 -3.4196e+002  1.5074e+002 50817 82751,83042,82803
 3.3000e+000 83290 -2.2335e+002 -1.0764e+002  1.3267e+002 50356 83313,83166,83140
 3.3000e+000 83267 -2.1920e+002 -1.7945e+002  1.1284e+002 50356 83515,83313,83140
 3.3000e+000 83244 -2.6166e+002 -1.4988e+002  4.5869e+001 50356 83515,83140,83385
 3.3000e+000 83339 -2.9952e+002 -1.4770e+002  1.8188e+002 50356 83192,83166,83313
 3.3000e+000 83362 -1.5640e+002 -1.2566e+002  1.5741e+002 50356 83192,83313,83218
 3.3000e+000 83411 -7.0449e+001 -3.2126e+001  5.2746e+001 50356 83114,83218,83385
 3.3000e+000 83541 -1.0410e+002 -1.2118e+002  9.1848e+001 50356 83218,83313,83515
 3.3000e+000 83564 -1.2072e+002 -8.5678e+001  3.1069e+001 50356 83218,83515,83385
 3.3000e+000 83893 -2.8651e+002 -2.0229e+002  3.7467e+001 49552 83720,83798,83746
 3.3000e+000 83870 -2.0622e+002 -7.6992e+001  7.9884e+001 49552 83694,83798,83720
 3.3000e+000 83847 -1.8791e+002 -6.7777e+001  8.4352e+001 49552 83668,83798,83694
 3.3000e+000 83824 -3.9433e+002 -1.0689e+002 -1.5284e+001 49552 83746,83798,83772
 3.3000e+000 84141 -2.4517e+002 -1.5683e+002  1.0029e+002 49212 84164,84020,83942
 3.3000e+000 84118 -2.2950e+002 -1.0613e+002  1.5312e+002 49212 84164,83942,83916
 3.3000e+000 84095 -1.8672e+002 -1.9827e+002  6.7384e+001 49212 83942,84020,83968
 3.3000e+000 84072 -1.4768e+002 -2.0283e+001  5.4831e+001 49212 83968,84020,83994
 3.3000e+000 84190 -2.9525e+002 -1.5626e+002  6.8550e+001 49212 84046,84020,84164
 3.3000e+000 84213 -2.6679e+002 -1.2030e+002  1.1926e+002 49212 84046,84164,83916
 3.3000e+000 84800 -4.8694e+001 -5.2125e+001  4.8366e+001 48865 84503,84633,84555
 3.3000e+000 84777 -5.1326e+001 -4.4345e+001  4.9331e+001 48865 84503,84659,84633
 3.3000e+000 84754 -5.8320e+001 -7.5201e+001  4.8217e+001 48865 84555,84633,84581
 3.3000e+000 84731 -5.7990e+001 -1.5990e+002  7.8083e+001 48865 84581,84633,84607
 3.3000e+000 84708 -1.3225e+002 -8.8563e+001  5.7242e+001 48865 84503,84555,84529
 3.3000e+000 84685 -3.5174e+001 -3.1530e+001  3.2591e+000 48865 84477,84659,84503
 3.3000e+000 85355 -1.2826e+002 -1.9261e+002  3.8781e+001 48461 85378,85035,85009
 3.3000e+000 85332 -2.0955e+002 -2.3742e+002  7.6018e+001 48461 85378,85009,85165
 3.3000e+000 85309 -2.0390e+002 -2.6401e+002  8.3688e+001 48461 85450,85061,85035
 3.3000e+000 85286 -2.0938e+002 -2.1790e+002  4.7286e+001 48461 85009,85191,85165
 3.3000e+000 85263 -1.7407e+002 -2.3435e+002  1.3084e+002 48461 85087,85165,85113
 3.3000e+000 85240 -1.0058e+002 -2.8231e+002 -4.7004e+001 48461 84983,85191,85009
 3.3000e+000 85217 -1.6289e+002 -3.0406e+002  8.9316e+001 48461 85113,85165,85139
 3.3000e+000 85404 -2.0086e+002 -2.2854e+002  6.7905e+001 48461 85450,85035,85378
 3.3000e+000 85427 -2.1102e+002 -2.3658e+002  7.6815e+001 48461 85087,85378,85165
 3.3000e+000 85476 -2.0313e+002 -3.1421e+002  9.9675e+001 48461 85087,85061,85450
 3.3000e+000 85499 -2.0484e+002 -2.9112e+002  8.0896e+001 48461 85087,85450,85378
 3.3000e+000 86084 -7.4963e+001 -2.3042e+002  9.9405e+001 48057 86323,86107,85787
 3.3000e+000 86061 -1.1738e+002 -2.7524e+002  1.1855e+002 48057 86107,85761,85943
 3.3000e+000 86038 -1.5607e+002 -2.0569e+002  9.4544e+001 48057 86251,86179,85891
 3.3000e+000 86015 -1.5780e+002 -1.7710e+002  6.2895e+001 48057 86251,85891,85839
 3.3000e+000 85992 -1.3948e+002 -1.7698e+002  1.2523e+002 48057 85891,85943,85917
 3.3000e+000 85969 -2.1270e+002 -1.5135e+002  9.9183e+001 48057 85839,85891,85865
 3.3000e+000 86133 -9.5325e+001 -2.6716e+002  8.7863e+001 48057 85813,85787,86107
 3.3000e+000 86156 -1.1987e+002 -2.4389e+002  7.8715e+001 48057 86179,85813,86107
 3.3000e+000 86205 -1.2166e+002 -1.6643e+002  1.0932e+002 48057 85943,85891,86179
 3.3000e+000 86228 -7.9806e+001 -1.9370e+002  1.0677e+002 48057 85943,86179,86107
 3.3000e+000 86277 -9.7158e+001 -1.7487e+002  8.3353e+001 48057 85813,86179,86251
 3.3000e+000 86300 -1.3009e+002 -1.6183e+002  5.6871e+001 48057 85813,86251,85839
 3.3000e+000 86349 -5.9370e+001 -2.2943e+002  9.8271e+001 48057 85761,86107,86323
 3.3000e+000 86855 -4.7481e+001 -1.2465e+002  6.1591e+001 47545 86878,86584,86558
 3.3000e+000 86832 -6.8357e+001 -1.3346e+002  5.1858e+001 47545 86950,86878,86558
 3.3000e+000 86809 -7.3074e+001 -1.0779e+002  6.2698e+001 47545 86950,86558,86532
 3.3000e+000 86786 -5.2808e+001 -1.4660e+002  7.1373e+001 47545 86584,86662,86610
 3.3000e+000 86763 -1.1628e+002 -1.5184e+001  2.5578e+001 47545 86532,86714,86688
 3.3000e+000 86740 -8.9446e+001 -7.8626e+001  7.2261e+001 47545 86610,86662,86636
 3.3000e+000 86904 -5.2222e+001 -1.5746e+002  6.5676e+001 47545 86662,86584,86878
 3.3000e+000 86927 -3.5168e+001 -1.3205e+002  4.0655e+001 47545 86662,86878,86688
 3.3000e+000 86976 -4.8563e+001 -9.4471e+001  4.4977e+001 47545 86688,86878,86950
 3.3000e+000 86999 -6.6437e+001 -9.3081e+001  6.0979e+001 47545 86688,86950,86532
 3.3000e+000 87328 -5.7254e+002 -1.8696e+002  1.9217e+002 47048 87155,87207,87181
 3.3000e+000 87305 -2.2098e+002 -1.7530e+002  1.1765e+002 47048 87129,87207,87155
 3.3000e+000 87282 -4.3602e+002 -2.6105e+002  1.4139e+002 47048 87103,87207,87129
 3.3000e+000 87259 -6.1022e+002 -7.3383e+002  3.8655e+002 47048 87103,87233,87207
 3.3000e+000 87576 -9.6237e+001 -2.8003e+002  1.4352e+002 46701 87599,87429,87377
 3.3000e+000 87553 -1.6130e+002 -2.6003e+002  1.2382e+002 46701 87599,87377,87481
 3.3000e+000 87530 -1.3312e+002 -2.4950e+002  1.2176e+002 46701 87351,87481,87377
 3.3000e+000 87507 -1.4166e+002 -2.7169e+002  1.7466e+002 46701 87377,87429,87403
 3.3000e+000 87625 -1.3828e+002 -2.7293e+002  1.0515e+002 46701 87455,87429,87599
 3.3000e+000 87648 -2.5197e+002 -2.7436e+002  1.0012e+002 46701 87455,87599,87481
 3.3000e+000 87798 -3.1566e+001 -3.4480e+001  1.1921e+001 46239 87697,87749,87723
 3.3000e+000 87775 -9.5461e+001 -2.8360e+002  3.6875e+001 46239 87671,87749,87697
 3.3000e+000 88308 -2.9323e+002 -3.9710e+002  9.0807e+001 45735 88089,88167,88141
 3.3000e+000 88285 -2.0077e+002 -2.1602e+002  1.2381e+002 45735 88011,88167,88089
 3.3000e+000 88262 -4.7124e+001 -1.9588e+002  5.7389e+001 45735 87985,88167,88011
 3.3000e+000 88239 -9.6994e+001 -8.0720e+002  1.7124e+002 45735 88011,88089,88063
 3.3000e+000 88216 -3.6379e+002 -4.3554e+002  5.0799e+001 45735 88089,88141,88115
 3.3000e+000 88193 -3.7076e+002 -1.1959e+003 -2.7700e+001 45735 88011,88063,88037
 3.3000e+000 88686 -2.3089e+002 -9.1534e+001  1.4797e+002 45316 88438,88516,88490
 3.3000e+000 88663 -2.2774e+002  5.3235e+001  2.3607e+002 45316 88438,88542,88516
 3.3000e+000 88640 -1.1992e+002 -2.5745e+002  2.7061e+002 45316 88438,88568,88542
 3.3000e+000 88617 -2.1224e+002 -1.8864e+002  1.2884e+002 45316 88438,88490,88464
 3.3000e+000 88594 -2.2397e+002 -2.6813e+002  2.8346e+002 45316 88412,88568,88438
 3.3000e+000 88934 -3.7158e+002 -3.5322e+002  2.2777e+002 44812 88957,88735,88709
 3.3000e+000 88911 -2.0839e+002 -1.9006e+002  1.0426e+002 44812 88957,88709,88839
 3.3000e+000 88888 -1.8987e+002 -1.8195e+002  6.0074e+001 44812 89029,88787,88761
 3.3000e+000 88865 -1.6203e+002 -1.6704e+002  6.1807e+001 44812 88787,88839,88813
 3.3000e+000 88983 -1.1020e+002 -2.0952e+002  1.4316e+002 44812 88761,88735,88957
 3.3000e+000 89006 -1.8647e+002 -1.9619e+002  5.4859e+001 44812 89029,88761,88957
 3.3000e+000 89055 -1.7756e+002 -2.0088e+002  6.5634e+001 44812 88839,88787,89029
 3.3000e+000 89078 -1.8287e+002 -2.2648e+002  6.3366e+001 44812 88839,89029,88957
 3.3000e+000 89228 -7.2245e+001 -1.9275e+002  1.2808e+002 44408 89127,89179,89153
 3.3000e+000 89205 -3.9950e+001 -1.8944e+001  2.6195e+000 44408 89101,89179,89127
 3.3000e+000 89787 -2.1981e+002 -1.3532e+002  1.2090e+002 43854 89810,89545,89519
 3.3000e+000 89764 -2.4496e+002 -1.9359e+002  1.1877e+002 43854 89810,89519,89467
 3.3000e+000 89741 -2.5126e+002 -2.7072e+002  1.0998e+002 43854 89954,89882,89597
 3.3000e+000 89718 -2.5031e+002 -2.8092e+002  1.0510e+002 43854 89954,89597,89571
 3.3000e+000 89695 -1.1865e+002 -1.6360e+002  1.0255e+002 43854 89415,89623,89467
 3.3000e+000 89672 -1.1743e+002 -1.0893e+002  7.8085e+001 43854 89467,89519,89493
 3.3000e+000 89649 -7.7090e+001 -1.3123e+002  8.3588e+001 43854 89415,89467,89441
 3.3000e+000 89836 -2.4326e+002 -1.5004e+002  1.3678e+002 43854 89882,89545,89810
 3.3000e+000 89859 -1.2800e+002 -1.7131e+002  9.6780e+001 43854 89623,89810,89467
 3.3000e+000 89908 -2.4233e+002 -3.2258e+002  1.6115e+002 43854 89623,89597,89882
 3.3000e+000 89931 -2.1864e+002 -2.8497e+002  1.3960e+002 43854 89623,89882,89810
 3.3000e+000 89980 -2.4546e+002 -2.5677e+002  1.6330e+002 43854 89545,89882,89954
 3.3000e+000 90003 -2.5704e+002 -3.0311e+002  1.6436e+002 43854 89545,89954,89571
 3.3000e+000 90251 -7.9870e+001 -6.1143e+001  4.2036e+001 43492 90026,90078,90052
 3.3000e+000 90228 -2.2912e+002 -1.4937e+002  8.6502e+001 43492 90274,90026,90156
 3.3000e+000 90205 -2.1201e+002 -1.7723e+002  8.7275e+001 43492 90346,90274,90156
 3.3000e+000 90182 -2.1932e+002 -2.4463e+002  1.9244e+002 43492 90346,90156,90130
 3.3000e+000 90300 -1.6644e+002 -1.8952e+002  1.0994e+002 43492 90078,90026,90274
 3.3000e+000 90323 -2.4895e+002 -2.1456e+002  1.1234e+002 43492 90078,90274,90104
 3.3000e+000 90372 -3.4043e+002 -2.6643e+002  1.5720e+002 43492 90104,90274,90346
 3.3000e+000 90395 -3.4945e+002 -3.4589e+002  2.6393e+002 43492 90104,90346,90130
 3.3000e+000 90594 -1.3291e+002 -3.6241e+002  5.7641e+001 43052 90418,90496,90444
 3.3000e+000 90571 -2.7231e+002 -5.5719e+002  1.3365e+002 43052 90418,90522,90496
 3.3000e+000 90548 -2.0183e+002 -2.4765e+002  1.0539e+002 43052 90444,90496,90470
 3.3000e+000 91074 -3.0193e+002 -4.8532e+002  2.7174e+002 42434 91241,90884,90858
 3.3000e+000 91051 -6.6143e+002 -6.4005e+002 -5.7657e+001 42434 90702,90910,90884
 3.3000e+000 91028 -1.5527e+002 -3.8673e+002  1.7964e+002 42434 91097,90754,90702
 3.3000e+000 91005 -2.8778e+002 -2.8230e+002  2.6603e+002 42434 91241,90858,91097
 3.3000e+000 90982 -1.4603e+002 -2.3146e+002  2.2872e+001 42434 91169,90806,90780
 3.3000e+000 90959 -1.0880e+002 -2.3437e+002 -4.7189e+001 42434 90806,90858,90832
 3.3000e+000 90936 -2.0917e+002 -3.9313e+002  1.6810e+002 42434 90702,90754,90728
 3.3000e+000 91123 -3.6271e+002 -4.5854e+002  1.4653e+002 42434 90780,90754,91097
 3.3000e+000 91146 -3.0665e+002 -3.5670e+002  1.8800e+002 42434 91169,90780,91097
 3.3000e+000 91195 -8.4158e+001 -1.5393e+002 -4.0657e+001 42434 90858,90806,91169
 3.3000e+000 91218 -1.2588e+002 -4.2374e+001  9.4445e+001 42434 90858,91169,91097
 3.3000e+000 91267 -2.1334e+002 -7.1255e+002  1.6590e+002 42434 90702,90884,91241
 3.3000e+000 91290 -2.2003e+002 -5.3421e+002  1.6174e+002 42434 90702,91241,91097
 3.3000e+000 91698 -4.5120e+001 -2.0887e+002  8.0819e+001 41773 91473,91577,91499
 3.3000e+000 91675 -8.8785e+001 -2.4166e+002  1.0070e+002 41773 91473,91603,91577
 3.3000e+000 91652 -1.0179e+002 -1.6903e+002  3.6352e+001 41773 91499,91551,91525
 3.3000e+000 91629 -1.4472e+002 -1.9480e+002  7.7912e+001 41773 91499,91577,91551
 3.3000e+000 92044 -1.2149e+002 -1.7650e+002  1.1264e+002 41383 91773,91877,91851
 3.3000e+000 92021 -7.7971e+001 -1.9905e+002  7.5593e+001 41383 91747,91877,91773
 3.3000e+000 91998 -8.6368e+001 -1.1835e+002  8.3745e+001 41383 91773,91851,91799
 3.3000e+000 91975 -7.9217e+001 -1.3764e+002  2.2540e+001 41383 91747,91903,91877
 3.3000e+000 91952 -8.0219e+000 -1.0922e+002  2.6219e+001 41383 91721,91903,91747
 3.3000e+000 91929 -3.1194e+001 -1.4055e+002  4.8651e+001 41383 91799,91851,91825
 3.3000e+000 92601 -2.0758e+002 -2.1656e+002  6.4176e+001 40979 92229,92411,92307
 3.3000e+000 92578 -2.7903e+002 -2.2503e+002  6.0142e+001 40979 92229,92437,92411
 3.3000e+000 92555 -1.7934e+002 -2.1385e+002  3.7932e+001 40979 92229,92307,92281
 3.3000e+000 92532 -1.7895e+002 -2.1937e+002  7.8777e+001 40979 92333,92411,92385
 3.3000e+000 92509 -1.7435e+002 -1.9706e+002  7.2824e+001 40979 92307,92411,92333
 3.3000e+000 92486 -1.7885e+002 -2.1729e+002  4.0653e+001 40979 92229,92281,92255
 3.3000e+000 92463 -2.8530e+001 -1.9213e+002  6.3878e+001 40979 92333,92385,92359
 3.3000e+000 93235 -2.5810e+002 -1.6287e+002  1.9969e+002 40525 92941,92993,92967
 3.3000e+000 93212 -3.1411e+002 -9.4085e+001  7.3455e+001 40525 93258,92941,92889
 3.3000e+000 93189 -2.4830e+002 -4.3772e+001  2.5079e+001 40525 93258,92889,93071
 3.3000e+000 93166 -3.2325e+002 -1.9709e+002  8.5535e+001 40525 92889,92941,92915
 3.3000e+000 93143 -3.0483e+002 -4.6164e+001  1.6952e+001 40525 92863,93071,92889
 3.3000e+000 93120 -2.7036e+002 -1.9469e+002  1.1038e+002 40525 92993,93071,93019
 3.3000e+000 93097 -2.9333e+002 -1.5044e+002  9.6763e+001 40525 93019,93071,93045
 3.3000e+000 93284 -3.6610e+002 -1.9750e+002  1.6163e+002 40525 92993,92941,93258
 3.3000e+000 93307 -2.1579e+002 -7.3839e+001  9.7439e+001 40525 92993,93258,93071
 3.3000e+000 93636 -2.6363e+002 -2.4742e+002  2.2111e+002 40235 93437,93541,93515
 3.3000e+000 93613 -2.1269e+002 -3.1185e+002  1.9764e+002 40235 93411,93541,93437
 3.3000e+000 93590 -6.3828e+001 -2.5513e+002  6.8847e+001 40235 93463,93515,93489
 3.3000e+000 93567 -1.4177e+002 -1.7828e+002  4.4875e+001 40235 93437,93515,93463
 3.3000e+000 94014 -2.8321e+002 -2.3534e+002  1.4340e+002 39873 93766,93870,93792
 3.3000e+000 93991 -2.0848e+002 -2.6492e+002  1.0609e+002 39873 93766,93896,93870
 3.3000e+000 93968 -2.8258e+002 -1.9964e+002  1.4316e+002 39873 93792,93870,93844
 3.3000e+000 93945 -1.8979e+002 -1.3872e+002  1.0670e+002 39873 93792,93844,93818
 3.3000e+000 93922 -1.5130e+002 -1.9707e+002  1.5222e+002 39873 93740,93896,93766
 3.3000e+000 94164 -4.7627e+001 -1.6064e+002  6.1119e+001 39461 94037,94089,94063
 3.3000e+000 94141 -8.9479e+001 -4.8490e+002  1.6598e+002 39461 94037,94115,94089
 3.3000e+000 94363 -1.7592e+002 -1.0588e+002  7.0562e+001 39057 94386,94239,94213
 3.3000e+000 94340 -5.1214e+001 -2.3294e+001  3.2856e+001 39057 94386,94213,94187
 3.3000e+000 94317 -1.4699e+002 -8.4799e+001  7.4217e+001 39057 94187,94291,94265
 3.3000e+000 94412 -4.7240e+001 -7.9235e+001  7.4062e+001 39057 94458,94386,94265
 3.3000e+000 94435 -9.2117e+001 -9.8659e+001  6.9451e+001 39057 94265,94386,94187
 3.3000e+000 94484 -1.2311e+002 -1.4665e+002  1.0788e+002 39057 94239,94386,94458
 3.3000e+000 94896 -2.6612e+002 -1.8449e+002  1.3200e+002 38396 94919,94775,94723
 3.3000e+000 94873 -3.0913e+002 -1.5228e+002  1.3451e+002 38396 94919,94723,94697
 3.3000e+000 94850 -1.9527e+002 -1.6165e+002  8.4938e+001 38396 94723,94775,94749
 3.3000e+000 94827 -1.3455e+002 -9.1211e+001  7.5130e+001 38396 94671,94801,94697
 3.3000e+000 94945 -2.5489e+002 -1.6125e+002  1.2082e+002 38396 94801,94775,94919
 3.3000e+000 94968 -2.8019e+002 -1.1660e+002  1.1641e+002 38396 94801,94919,94697
 3.3000e+000 95265 -2.6429e+002 -2.7276e+002  1.2053e+002 37835 95017,95069,95043
 3.3000e+000 95242 -2.7755e+002 -2.5323e+002  1.2758e+002 37835 95288,95069,95017
 3.3000e+000 95219 -2.8552e+002 -2.8227e+002  1.7715e+002 37835 95288,95017,94991
 3.3000e+000 95196 -3.3681e+002 -3.0407e+002  1.7880e+002 37835 94991,95147,95121
 3.3000e+000 95173 -1.7393e+002 -1.5389e+002  1.1325e+002 37835 95069,95121,95095
 3.3000e+000 95314 -2.6874e+002 -1.8267e+002  1.0708e+002 37835 95121,95069,95288
 3.3000e+000 95337 -2.7890e+002 -2.2904e+002  1.5285e+002 37835 95121,95288,94991
 3.3000e+000 95558  3.4027e+001  2.5029e+001  4.6955e+001 37423 95408,95460,95434
 3.3000e+000 95535 -6.2484e+001 -2.6377e+002  1.1889e+002 37423 95382,95460,95408
 3.3000e+000 95512 -1.3343e+002 -3.2808e+002  1.4624e+002 37423 95382,95486,95460
 3.3000e+000 95891 -8.5762e+001 -2.3445e+002  9.7385e+001 37225 95666,95718,95692
 3.3000e+000 95868 -2.7013e+002 -4.4829e+002  1.7571e+002 37225 95666,95796,95718
 3.3000e+000 95845 -1.0262e+002 -1.9632e+002  3.5627e+001 37225 95718,95770,95744
 3.3000e+000 95822 -1.1565e+002 -1.9229e+002  4.1819e+001 37225 95718,95796,95770
 3.3000e+000 95992 -2.8420e+001 -1.2015e+002  5.0316e+001 36735 95914,95966,95940
 3.3000e+000 96142 -2.9923e+002 -1.3784e+002  1.6321e+002 36331 96297,96067,96041
 3.3000e+000 96119 -2.2744e+002 -1.3568e+002  1.6218e+002 36331 96165,96041,96015
 3.3000e+000 96191 -2.8189e+002 -1.3276e+002  1.5749e+002 36331 96297,96041,96165
 3.3000e+000 96323 -3.3076e+002 -1.4465e+002  2.0258e+002 36331 96093,96067,96297
 3.3000e+000 96346 -2.7723e+002 -1.2392e+002  1.9875e+002 36331 96093,96297,96165
 3.3000e+000 96714 -1.6697e+002 -2.6505e+002  1.7548e+002 36041 96737,96495,96443
 3.3000e+000 96691 -2.3972e+002 -1.7881e+002  1.8780e+002 36041 96737,96443,96417
 3.3000e+000 96668 -1.0765e+002 -2.8130e+002  3.4441e+001 36041 96443,96495,96469
 3.3000e+000 96645 -4.5075e+001 -6.4487e+000  8.0983e+001 36041 96391,96521,96417
 3.3000e+000 96622 -1.1320e+001 -7.1336e+001  7.0288e+001 36041 96391,96547,96521
 3.3000e+000 96599 -1.4339e+001 -6.9816e+001  6.7829e+001 36041 96391,96573,96547
 3.3000e+000 96763 -7.1660e+001 -1.8524e+002  1.4085e+002 36041 96521,96495,96737
 3.3000e+000 96786 -2.0458e+002 -1.4743e+002  1.7406e+002 36041 96521,96737,96417
 3.3000e+000 96936 -1.9972e+002 -1.2846e+002  1.1190e+002 35637 97031,96959,96835
 3.3000e+000 96913 -1.8687e+002 -1.0923e+002  1.4368e+002 35637 97163,96959,96809
 3.3000e+000 96985 -2.0937e+002 -1.0481e+002  1.3045e+002 35637 96861,96835,96959
 3.3000e+000 97008 -2.6167e+002 -1.7029e+002  1.9320e+002 35637 96861,96959,96887
 3.3000e+000 97057 -1.6160e+002 -9.3022e+001  9.2802e+001 35637 96809,96959,97031
 3.3000e+000 97189 -1.6451e+002 -1.1854e+002  1.4444e+002 35637 96887,96959,97163
 3.3000e+000 97597 -1.1868e+002 -1.7461e+002  1.3947e+002 35190 97450,97502,97476
 3.3000e+000 97574 -1.2493e+002 -2.0895e+002  1.6542e+002 35190 97372,97502,97450
 3.3000e+000 97551 -1.2866e+002 -2.3422e+002  1.5768e+002 35190 97372,97450,97398
 3.3000e+000 97528 -1.2756e+002 -2.3089e+002  1.5303e+002 35190 97398,97450,97424
 3.3000e+000 98054 -1.3691e+002 -1.8726e+002  1.5021e+002 34636 97806,97936,97858
 3.3000e+000 98031 -2.6037e+002 -1.6543e+002  1.2379e+002 34636 97780,97936,97806
 3.3000e+000 98008 -2.6194e+002 -2.0528e+002  9.5875e+001 34636 97806,97858,97832
 3.3000e+000 97985 -1.5936e+002 -2.1845e+002  1.4484e+002 34636 97884,97936,97910
 3.3000e+000 97962 -9.5481e+001 -1.5897e+002  1.1412e+002 34636 97858,97936,97884
 3.3000e+000 98530 -2.8185e+002  7.0766e+001  9.1604e+001 34068 98697,98184,98366
 3.3000e+000 98507 -4.1217e+000 -6.1749e+000  1.6009e+000 34068 98158,98366,98184
 3.3000e+000 98484 -2.7219e+002 -3.0668e+002  1.3414e+002 34068 98553,98262,98236
 3.3000e+000 98461 -3.7534e+002 -4.0555e+002  7.5356e+001 34068 98553,98236,98210
 3.3000e+000 98438 -3.2303e+002 -1.7114e+002  1.1441e+002 34068 98841,98625,98366
 3.3000e+000 98415 -2.3552e+002 -4.1170e+002  1.6023e+002 34068 98769,98288,98262
 3.3000e+000 98392 -3.7755e+002 -1.0417e+002  1.0343e+002 34068 98841,98366,98340
 3.3000e+000 98579 -2.8243e+002 -3.5434e+002  1.2157e+002 34068 98769,98262,98553
 3.3000e+000 98602 -2.6275e+002 -2.2741e+002  1.2534e+002 34068 98625,98314,98553
 3.3000e+000 98651 -3.1970e+002 -1.4723e+002  1.2579e+002 34068 98697,98366,98625
 3.3000e+000 98674 -3.2620e+002 -3.6358e+002  1.6292e+002 34068 98210,98625,98553
 3.3000e+000 98723 -3.8945e+002 -1.9216e+002  1.3596e+002 34068 98210,98184,98697
 3.3000e+000 98746 -3.4832e+002 -2.4530e+002  1.8506e+002 34068 98210,98697,98625
 3.3000e+000 98795 -1.4665e+002 -3.4897e+002  1.2879e+002 34068 98314,98288,98769
 3.3000e+000 98818 -2.0327e+002 -3.0467e+002  9.3554e+001 34068 98314,98769,98553
 3.3000e+000 98867 -3.5751e+002 -2.5928e+002  8.9858e+001 34068 98314,98625,98841
 3.3000e+000 98890 -4.0299e+002 -1.7865e+002  7.8802e+001 34068 98314,98841,98340
 3.3000e+000 99268 -3.3486e+002 -3.2362e+002  2.2504e+002 33450 99291,99098,99072
 3.3000e+000 99245 -3.7090e+002 -2.6228e+002  1.4071e+002 33450 99291,99072,99020
 3.3000e+000 99222 -5.8611e+002 -3.4144e+002  2.2898e+002 33450 99020,99072,99046
 3.3000e+000 99199 -2.8729e+002 -2.3988e+002  1.3916e+002 33450 99020,99150,99124
 3.3000e+000 99176 -2.9280e+002 -1.9011e+002  3.0330e+001 33450 98994,99150,99020
 3.3000e+000 99317 -1.9360e+002 -2.6401e+002  2.1795e+002 33450 99124,99098,99291
 3.3000e+000 99340 -3.2266e+002 -2.4979e+002  1.4425e+002 33450 99124,99291,99020
 3.3000e+000 99865 -1.7836e+002 -1.8188e+002  9.9649e+001 32944 100176,99960,99888
 3.3000e+000 99842 -2.1919e+002 -2.0108e+002  1.0026e+002 32944 100104,99888,99522
 3.3000e+000 99819 -1.7082e+002 -1.6799e+002  1.1777e+002 32944 100248,99960,99626
 3.3000e+000 99796 -1.8123e+002 -2.0041e+002  7.1343e+001 32944 100032,99652,99626
 3.3000e+000 99773 -1.9429e+002 -2.4305e+002  6.6139e+001 32944 100104,99522,99496
 3.3000e+000 99750 -1.3610e+002 -1.4316e+002  4.2893e+000 32944 99574,99626,99600
 3.3000e+000 99727 -1.3721e+002 -1.7337e+002  1.2847e+002 32944 100248,99626,99574
 3.3000e+000 99704 -1.2749e+002 -1.7443e+002  9.7975e+001 32944 99444,99496,99470
 3.3000e+000 99914 -1.8853e+002 -1.7502e+002  8.2025e+001 32944 100176,99888,100032
 3.3000e+000 99937 -2.1885e+002 -1.5362e+002  1.2020e+002 32944 99678,99888,99444
 3.3000e+000 99986 -2.0333e+002 -1.5365e+002  1.0053e+002 32944 99522,99888,99960
 3.3000e+000 100009 -1.9424e+002 -1.1790e+002  1.2505e+002 32944 99522,99960,99548
 3.3000e+000 100058 -2.0665e+002 -2.0069e+002  7.1974e+001 32944 99678,99652,100032
 3.3000e+000 100081 -2.3590e+002 -1.9455e+002  7.8034e+001 32944 99678,100032,99888
 3.3000e+000 100130 -1.6676e+002 -1.6482e+002  1.1934e+002 32944 99444,99888,100104
 3.3000e+000 100153 -1.4606e+002 -2.0036e+002  8.5476e+001 32944 99444,100104,99496
 3.3000e+000 100202 -1.9540e+002 -2.0985e+002  9.0680e+001 32944 99626,99960,100176
 3.3000e+000 100225 -2.0253e+002 -2.0862e+002  7.4249e+001 32944 99626,100176,100032
 3.3000e+000 100274 -2.1753e+002 -1.7230e+002  1.1347e+002 32944 99548,99960,100248
 3.3000e+000 100297 -1.8767e+002 -1.8038e+002  1.2420e+002 32944 99548,100248,99574
 3.3000e+000 100754 -4.0530e+001 -5.6937e+001  3.9889e+001 32369 100777,100584,100506
 3.3000e+000 100731 -5.7195e+001 -8.9445e+001  6.5436e+001 32369 100777,100506,100636
 3.3000e+000 100708 -8.4229e+001 -9.4212e+001  6.6887e+001 32369 100480,100636,100506
 3.3000e+000 100685 -2.0357e+002 -1.0842e+002 -4.3150e+000 32369 100532,100584,100558
 3.3000e+000 100662 -4.7119e+001 -8.7368e+001  3.5592e+001 32369 100506,100584,100532
 3.3000e+000 100803 -6.2471e+001 -1.2753e+001  2.9795e+001 32369 100610,100584,100777
 3.3000e+000 100826 -7.1212e+001 -4.4719e+001  5.0899e+001 32369 100610,100777,100636
 3.3000e+000 101025 -1.5445e+002 -1.5120e+002  1.4035e+002 31857 100875,100927,100901
 3.3000e+000 101002 -3.4028e+002 -2.9330e+001  1.6350e+002 31857 100875,100953,100927
 3.3000e+000 100979 -3.8246e+002 -7.8877e+001  9.9607e+001 31857 100849,100953,100875
 3.3000e+000 101533 -1.4972e+002 -2.1607e+002  1.6336e+002 31253 101556,101314,101236
 3.3000e+000 101510 -2.2547e+002 -2.3208e+002  1.6232e+002 31253 101556,101236,101210
 3.3000e+000 101487 -2.1750e+002 -2.1937e+002  7.4487e+001 31253 101210,101392,101340
 3.3000e+000 101464 -1.1886e+002 -2.1350e+002  1.1498e+002 31253 101236,101288,101262
 3.3000e+000 101441 -1.3808e+002 -2.9881e+002  1.4780e+002 31253 101236,101314,101288
 3.3000e+000 101418 -2.1494e+002 -2.7411e+002  1.3751e+002 31253 101340,101392,101366
 3.3000e+000 101582 -1.7574e+002 -2.0047e+002  9.9858e+001 31253 101340,101314,101556
 3.3000e+000 101605 -2.5157e+002 -2.1259e+002  1.0229e+002 31253 101340,101556,101210
 3.3000e+000 101755  5.7098e+000 -3.4150e+001  6.3385e+001 30519 101778,101654,101628
 3.3000e+000 101732 -6.6637e+001 -6.1910e+001  6.9530e+001 30519 101850,101778,101628
 3.3000e+000 101804 -7.0259e+001 -3.8598e+001  3.7075e+001 30519 101680,101654,101778
 3.3000e+000 101827 -3.4570e+001 -5.9721e+001  3.3243e+001 30519 101680,101778,101706
 3.3000e+000 101876 -1.0844e+002 -1.5512e+002 -9.1765e-001 30519 101706,101778,101850
 3.3000e+000 102561 -8.4761e+001 -1.6828e+002  9.3554e+001 29951 102656,102584,102270
 3.3000e+000 102538 -3.1125e+002 -3.6614e+002  6.4831e+001 29951 102584,102140,102374
 3.3000e+000 102515 -1.6590e+002 -3.9948e+002  2.0461e+002 29951 102728,102656,102270
 3.3000e+000 102492 -1.7347e+002 -4.8962e+002  2.0241e+002 29951 102728,102270,102244
 3.3000e+000 102469 -2.4674e+002 -5.3510e+001  1.0655e+002 29951 102800,102322,102296
 3.3000e+000 102446 -2.4344e+002 -1.7603e+002  5.2899e+001 29951 102166,102218,102192
 3.3000e+000 102423 -2.1033e+002 -1.9100e+002  3.1155e+001 29951 102166,102244,102218
 3.3000e+000 102400 -1.3764e+002 -1.5326e+002  6.5070e+001 29951 102322,102374,102348
 3.3000e+000 102610 -2.8800e+002 -1.0477e+002  5.2685e+001 29951 102296,102270,102584
 3.3000e+000 102633 -3.1951e+002 -1.5137e+002  7.1315e+001 29951 102800,102296,102584
 3.3000e+000 102682 -3.6425e+002 -3.4464e+002  1.8238e+002 29951 102140,102584,102656
 3.3000e+000 102705 -2.1982e+002 -3.4251e+002  2.6143e+002 29951 102140,102656,102166
 3.3000e+000 102754 -1.7285e+002 -2.9675e+002  2.4286e+002 29951 102166,102656,102728
 3.3000e+000 102777 -1.8227e+002 -3.7169e+002  2.2214e+002 29951 102166,102728,102244
 3.3000e+000 102826 -1.7531e+002 -1.6727e+002  1.5321e+002 29951 102374,102322,102800
 3.3000e+000 102849 -2.0327e+002 -1.9223e+002  1.3676e+002 29951 102374,102800,102584
 3.3000e+000 103048 -6.8662e+001 -2.0155e+002  8.1193e+001 29454 102872,102924,102898
 3.3000e+000 103025 -1.0322e+002 -4.1874e+002  1.2673e+002 29454 102872,102976,102924
 3.3000e+000 103002 -5.8479e+001 -4.9065e+002  1.8941e+002 29454 102924,102976,102950
 3.3000e+000 103296 -3.8823e+002 -3.2694e+002  2.1270e+002 29064 103319,103175,103123
 3.3000e+000 103273 -5.0277e+002 -3.2589e+002  2.4500e+002 29064 103319,103123,103071
 3.3000e+000 103250 -2.3523e+002 -2.0134e+002  1.4280e+002 29064 103123,103175,103149
 3.3000e+000 103227 -4.0221e+002 -2.4053e+002  2.8778e+002 29064 103071,103123,103097
 3.3000e+000 103345 -2.8662e+002 -3.4347e+002  1.6260e+002 29064 103201,103175,103319
 3.3000e+000 103368 -4.2504e+002 -3.1607e+002  1.5502e+002 29064 103201,103319,103071
 3.3000e+000 104006 -2.2830e+002 -1.3021e+002  9.9516e+001 28603 104101,104029,103712
 3.3000e+000 103983 -2.0076e+002 -7.9972e+001  8.7006e+001 28603 104173,104029,103660
 3.3000e+000 103960 -2.7363e+002 -1.1236e+002  9.7475e+001 28603 104101,103712,103686
 3.3000e+000 103937 -1.4901e+002 -9.5617e+001  8.5672e+001 28603 104173,103660,103634
 3.3000e+000 103914 -2.3445e+002 -1.5037e+002  1.2373e+002 28603 103764,103816,103790
 3.3000e+000 103891 -1.4061e+002 -8.1252e+001  1.2563e+002 28603 103634,103842,103816
 3.3000e+000 103868 -1.8229e+002 -8.3198e+001  1.2071e+002 28603 103712,103764,103738
 3.3000e+000 104055 -2.2192e+002 -9.2844e+001  1.0384e+002 28603 103764,103712,104029
 3.3000e+000 104078 -2.2370e+002 -1.0288e+002  1.2218e+002 28603 103764,104029,103816
 3.3000e+000 104127 -2.9170e+002 -1.1724e+002  8.3296e+001 28603 103660,104029,104101
 3.3000e+000 104150 -3.6495e+002 -1.1953e+002  9.5300e+001 28603 103660,104101,103686
 3.3000e+000 104199 -2.3995e+002 -8.9322e+001  1.0156e+002 28603 103816,104029,104173
 3.3000e+000 104222 -1.9790e+002 -1.0784e+002  9.4353e+001 28603 103816,104173,103634
 3.3000e+000 104600 -1.3315e+002 -2.8624e+002  6.0238e+001 28348 104623,104378,104326
 3.3000e+000 104577 -1.0450e+002 -3.0364e+002  1.1081e+002 28348 104623,104326,104482
 3.3000e+000 104554 -1.3807e+002 -2.0833e+002  5.6795e+001 28348 104326,104378,104352
 3.3000e+000 104531 -1.2536e+002 -3.0532e+000  8.8073e+000 28348 104404,104456,104430
 3.3000e+000 104508 -1.6840e+002 -1.5289e+002  9.5814e+001 28348 104378,104456,104404
 3.3000e+000 104649 -1.0894e+002 -2.4014e+002  7.7815e+001 28348 104456,104378,104623
 3.3000e+000 104672 -7.2006e+001 -2.4887e+002  1.3005e+002 28348 104456,104623,104482
 3.3000e+000 104991 -2.7651e+002 -2.9151e+002  1.9959e+002 27951 104717,104847,104769
 3.3000e+000 104968 -8.2864e+001 -1.9968e+002  1.7335e+002 27951 104717,104873,104847
 3.3000e+000 104945 -1.0045e+002 -2.5465e+002  2.0588e+002 27951 104769,104847,104795
 3.3000e+000 104922 -7.9747e-001 -3.7063e-001  1.9443e+002 27951 104795,104847,104821
 3.3000e+000 104899 -2.3227e+002 -1.8462e+002  1.9692e+002 27951 104717,104769,104743
 3.3000e+000 105371 -3.0569e+002 -2.3061e+002  1.6830e+002 27447 105394,105201,105123
 3.3000e+000 105348 -3.6521e+002 -2.1951e+002  2.2134e+002 27447 105394,105123,105097
 3.3000e+000 105325 -5.1291e+002 -2.5098e+002  1.7207e+002 27447 105123,105201,105149
 3.3000e+000 105302 -2.8166e+002 -3.3295e+002  1.8843e+002 27447 105201,105253,105227
 3.3000e+000 105279 -2.7713e+002 -3.8457e+002  2.4583e+001 27447 105149,105201,105175
 3.3000e+000 105420 -2.7156e+002 -1.9986e+002  1.4809e+002 27447 105253,105201,105394
 3.3000e+000 105443 -3.2195e+002 -1.6471e+002  1.9607e+002 27447 105253,105394,105097
 3.3000e+000 105998 -2.1886e+002 -1.8678e+002  1.7008e+002 27100 106165,106021,105704
 3.3000e+000 105975 -9.2924e+001 -9.2750e+001  1.4560e+002 27100 106309,106021,105652
 3.3000e+000 105952 -3.7280e+002 -3.0333e+002  2.9768e+002 27100 106093,105808,105782
 3.3000e+000 105929 -2.1465e+002 -1.9743e+002  1.6277e+002 27100 106165,105704,105678
 3.3000e+000 105906 -9.7661e+001 -2.6499e+002  1.2903e+002 27100 106237,105730,105704
 3.3000e+000 105883 -9.7748e+001 -1.6110e+002  1.0097e+002 27100 106309,105652,105626
 3.3000e+000 105860 -4.9944e+001 -7.0011e+000  1.6932e+001 27100 105730,105782,105756
 3.3000e+000 106047 -1.9248e+002 -1.5365e+002  1.8699e+002 27100 106237,105704,106021
 3.3000e+000 106070 -2.0923e+002 -1.5165e+002  2.2897e+002 27100 106093,105782,106021
 3.3000e+000 106119 -1.4569e+002 -2.4408e+002  1.4831e+002 27100 105834,105808,106093
 3.3000e+000 106142 -1.6512e+002 -3.0863e+002  1.9825e+002 27100 106381,106093,106021
 3.3000e+000 106191 -2.1103e+002 -1.7126e+002  1.8109e+002 27100 105652,106021,106165
 3.3000e+000 106214 -2.0770e+002 -1.9216e+002  1.7601e+002 27100 105652,106165,105678
 3.3000e+000 106263 -1.0230e+001 -1.4301e+002  9.0784e+001 27100 105782,105730,106237
 3.3000e+000 106286 -1.2599e+002 -6.1887e+001  1.5770e+002 27100 105782,106237,106021
 3.3000e+000 106335 -1.4130e+002 -1.9492e+002  1.5989e+002 27100 106381,106021,106309
 3.3000e+000 106358 -8.7728e+001 -1.1729e+002  8.8069e+001 27100 105834,106309,105626
 3.3000e+000 106407 -9.9791e+001 -1.7366e+002  1.2360e+002 27100 105834,106093,106381
 3.3000e+000 106430 -1.0569e+002 -1.4764e+002  8.0334e+001 27100 105834,106381,106309
 3.3000e+000 106629 -7.6971e+001 -3.3150e+002  7.9814e+001 26688 106479,106557,106531
 3.3000e+000 106606 -9.3325e+001 -2.5859e+002  8.3206e+001 26688 106453,106557,106479
 3.3000e+000 106583 -1.3584e+002 -3.3309e+002  2.4651e+001 26688 106479,106531,106505
 3.3000e+000 107088 -1.0039e+002 -1.0066e+002  4.4447e+001 26248 107111,106918,106866
 3.3000e+000 107065 -1.0924e+002 -8.9346e+001  5.4895e+001 26248 107111,106866,106840
 3.3000e+000 107042 -8.0345e+001 -6.4366e+001  5.7267e+001 26248 106814,106970,106840
 3.3000e+000 107019 -1.1501e+002 -1.8477e+002  5.3856e+001 26248 106866,106918,106892
 3.3000e+000 106996 -1.8966e+002 -1.4469e+002  4.4163e+001 26248 106918,106970,106944
 3.3000e+000 107137 -1.1792e+002 -1.1663e+002  3.2543e+001 26248 106970,106918,107111
 3.3000e+000 107160 -1.1423e+002 -9.3482e+001  4.4748e+001 26248 106970,107111,106840
 3.3000e+000 107666 -3.0747e+002 -1.3180e+002  1.1325e+002 25908 107369,107499,107395
 3.3000e+000 107643 -4.0783e+002 -3.9142e+002  2.0857e+002 25908 107369,107525,107499
 3.3000e+000 107620 -2.4590e+002 -1.6575e+002  1.3514e+002 25908 107395,107473,107447
 3.3000e+000 107597 -2.1117e+002 -9.3088e+001  1.0373e+002 25908 107395,107499,107473
 3.3000e+000 107574 -4.3140e+002 -2.2960e+002  3.1657e+002 25908 107395,107447,107421
 3.3000e+000 107551 -1.7527e+002 -3.0532e+002  1.7804e+002 25908 107343,107525,107369
 3.3000e+000 108251 -1.7973e+002 -7.4547e+001  1.1976e+002 25454 108274,108006,107954
 3.3000e+000 108228 -1.4469e+002 -3.8895e+001  9.2039e+001 25454 108274,107954,108110
 3.3000e+000 108205 -1.3745e+002 -1.5875e+002  1.3538e+002 25454 108346,108032,108006
 3.3000e+000 108182 -2.3048e+002 -1.2393e+002  1.4977e+002 25454 107954,108006,107980
 3.3000e+000 108159 -6.5941e+001 -9.9374e+001  8.0613e+001 25454 107928,108110,107954
 3.3000e+000 108136 -2.8563e+002 -3.1989e+002  1.7284e+002 25454 108058,108110,108084
 3.3000e+000 108300 -1.7328e+002 -1.1972e+002  1.3856e+002 25454 108346,108006,108274
 3.3000e+000 108323 -1.5304e+002 -7.3897e+001  1.0990e+002 25454 108058,108274,108110
 3.3000e+000 108372 -9.9271e+001 -1.0898e+002  1.1721e+002 25454 108058,108032,108346
 3.3000e+000 108395 -1.3484e+002 -6.1396e+001  1.2172e+002 25454 108058,108346,108274
 3.3000e+000 108822 -1.3943e+002 -1.0194e+002  8.5221e+001 24943 108525,108681,108655
 3.3000e+000 108799 -1.8895e+002 -1.3009e+002  3.6246e+001 24943 108499,108681,108525
 3.3000e+000 108776 -8.0165e+001 -7.9300e+001  6.5182e+001 24943 108525,108655,108629
 3.3000e+000 108753 -1.3434e+002 -6.5958e+001  5.9177e+001 24943 108525,108629,108603
 3.3000e+000 108730 -2.9112e+002 -9.1140e+001  1.1424e+002 24943 108551,108603,108577
 3.3000e+000 108707 -2.8086e+002 -1.7948e+002  1.6518e+002 24943 108525,108603,108551
 3.3000e+000 109407 -1.3577e+001 -5.0552e+001  2.5329e+001 24745 109162,109214,109188
 3.3000e+000 109384 -1.1569e+002 -5.3537e+001  3.5552e+001 24745 109162,109266,109214
 3.3000e+000 109361 -1.3067e+002 -6.3008e+001  2.2608e+001 24745 109084,109266,109162
 3.3000e+000 109338 -2.0410e+002 -3.1333e+001  5.2185e+001 24745 109084,109162,109136
 3.3000e+000 109315 -5.8796e+001 -9.6768e+001  4.3118e+001 24745 109214,109266,109240
 3.3000e+000 109292 -1.4846e+002 -4.7657e+001  8.3885e+001 24745 109084,109136,109110
 3.3000e+000 109785 -3.8101e+002 -1.8189e+002  2.2917e+002 24341 109537,109615,109563
 3.3000e+000 109762 -3.6670e+001 -8.2729e+001  1.9965e+002 24341 109537,109641,109615
 3.3000e+000 109739 -2.4863e+002 -1.8974e+002  1.6517e+002 24341 109563,109615,109589
 3.3000e+000 109716 -1.6108e+002 -1.5153e+002  1.3714e+002 24341 109537,109667,109641
 3.3000e+000 109693 -8.9794e+001 -1.8180e+002  1.2069e+002 24341 109511,109667,109537
 3.3000e+000 110163 -4.1156e+002 -2.4367e+002  2.3811e+002 23837 110186,109967,109915
 3.3000e+000 110140 -3.9289e+002 -2.5512e+002  2.5831e+002 23837 110186,109915,109889
 3.3000e+000 110117 -1.7692e+002 -9.6164e+001  1.9525e+002 23837 109889,110045,109993
 3.3000e+000 110094 -3.9901e+002 -3.4068e+002  1.8879e+002 23837 109915,109967,109941
 3.3000e+000 110071 -2.2824e+002 -1.2655e+001  4.2135e+001 23837 109993,110045,110019
 3.3000e+000 110212 -3.9697e+002 -2.2416e+002  2.4562e+002 23837 109993,109967,110186
 3.3000e+000 110235 -3.8478e+002 -2.3238e+002  2.6474e+002 23837 109993,110186,109889
 3.3000e+000 110336 -1.9421e+002 -4.4903e+002  2.0758e+002 23433 110258,110310,110284
 3.3000e+000 110584 -2.5673e+002 -1.8216e+002  1.1592e+002 22829 110607,110411,110385
 3.3000e+000 110561 -3.0904e+002 -2.0855e+002  1.5579e+002 22829 110607,110385,110489
 3.3000e+000 110538 -2.1317e+002 -1.9588e+002  1.0006e+002 22829 110437,110489,110463
 3.3000e+000 110515 -2.4981e+002 -1.3198e+002  1.8154e+002 22829 110359,110489,110385
 3.3000e+000 110633 -2.5442e+002 -1.4116e+002  7.6638e+001 22829 110437,110411,110607
 3.3000e+000 110656 -2.8430e+002 -1.7020e+002  1.1432e+002 22829 110437,110607,110489
 3.3000e+000 110906 -5.2255e+002 -2.1915e+002  1.7196e+002 22432 110707,110759,110733
 3.3000e+000 110883 -3.0656e+002 -2.4303e+002  1.3921e+002 22432 110707,110785,110759
 3.3000e+000 110860 -3.0059e+002 -2.2313e+002  1.9597e+002 22432 110707,110811,110785
 3.3000e+000 110837 -3.8531e+002 -2.7831e+002  1.5062e+002 22432 110681,110811,110707
 3.3000e+000 111288 -5.1678e+001 -1.2442e+002  1.1183e+002 22142 111092,111144,111118
 3.3000e+000 111265 -1.4541e+002 -1.0961e+002  8.8812e+001 22142 111066,111144,111092
 3.3000e+000 111242 -1.4050e+002 -1.0764e+002  7.5239e+001 22142 111040,111144,111066
 3.3000e+000 111219 -2.8071e+002 -2.4019e+001  5.0507e+001 22142 111014,111144,111040
 3.3000e+000 111196 -1.7189e+002  3.8363e+000  7.0562e+001 22142 111014,111170,111144
 3.3000e+000 111389 -3.0348e+001 -8.1758e+001  1.5871e+002 21830 111311,111363,111337
 3.3000e+000 111735 -3.3922e+002 -2.8718e+001  2.5207e+002 21268 111758,111542,111438
 3.3000e+000 111712 -2.3323e+002  6.0578e+000  1.6553e+002 21268 111758,111438,111412
 3.3000e+000 111689 -1.0716e+002 -2.1705e+002  3.0343e+002 21268 111438,111542,111464
 3.3000e+000 111666  1.0727e+001 -1.5706e+002  4.0372e+002 21268 111464,111542,111490
 3.3000e+000 111643 -5.7899e+002 -3.0535e+002  3.1156e+002 21268 111412,111594,111568
 3.3000e+000 111620  2.2852e+002  1.3680e+002  5.2605e+002 21268 111490,111542,111516
 3.3000e+000 111784 -3.6935e+002 -6.4714e+001  2.6897e+002 21268 111568,111542,111758
 3.3000e+000 111807 -3.4065e+002 -1.6249e+002  2.1215e+002 21268 111568,111758,111412
 3.3000e+000 111959 -3.8251e+002 -4.6812e+001  1.2756e+002 20864 111982,111910,111884
 3.3000e+000 111936 -3.4129e+002 -7.1934e+001  1.8538e+002 20864 112114,111832,111910
 3.3000e+000 112008 -3.7910e+002 -1.4280e+002  1.5679e+002 20864 112114,111910,111982
 3.3000e+000 112140 -3.2842e+002 -1.5724e+002  1.3610e+002 20864 111858,111832,112114
 3.3000e+000 112163 -3.7011e+002 -2.4105e+002  1.0899e+002 20864 111858,112114,111982
 3.3000e+000 112411 -3.7026e+001 -8.2720e+000  1.2525e+001 20324 112186,112290,112212
 3.3000e+000 112388 -1.2041e+001 -4.5725e+000  1.8855e+001 20324 112186,112316,112290
 3.3000e+000 112365  1.4402e+002 -1.0215e+002  9.7725e+000 20324 112212,112290,112264
 3.3000e+000 112342 -5.1290e+002 -2.1967e+002 -3.3755e+001 20324 112212,112264,112238
 3.3000e+000 112659 -2.8726e+001 -8.4359e+000  1.5672e+002 19920 112512,112564,112538
 3.3000e+000 112636 -1.8096e+002 -6.7423e+001  1.0234e+002 19920 112434,112564,112512
 3.3000e+000 112613 -1.8970e+002 -1.2252e+002  1.1822e+002 19920 112434,112512,112460
 3.3000e+000 112590 -2.1526e+002 -1.3606e+002  1.2700e+002 19920 112460,112512,112486
 3.3000e+000 112811 -3.3037e+001 -1.3574e+001  6.0694e+001 19630 112684,112736,112710
 3.3000e+000 112788  5.3912e+001 -7.5700e+001  1.3837e+001 19630 112684,112762,112736
 3.3000e+000 113012 -1.5684e+002 -6.2358e+001  1.7683e+002 19169 112862,112940,112888
 3.3000e+000 112989 -2.6367e+002 -2.2190e+002  1.3048e+002 19169 112836,112940,112862
 3.3000e+000 112966 -1.3008e+002 -1.9319e+002  1.3980e+002 19169 112888,112940,112914
 3.3000e+000 113213 -3.0533e+002 -1.2670e+002  1.6296e+002 18600 113037,113089,113063
 3.3000e+000 113190 -1.9221e+002 -1.0979e+002  1.3720e+002 18600 113037,113115,113089
 3.3000e+000 113167 -3.2926e+002 -2.4622e+002  2.2418e+002 18600 113037,113141,113115
 3.3000e+000 113485 -1.7499e+002 -7.0281e+001  1.7404e+002 18352 113260,113312,113286
 3.3000e+000 113462 -3.4556e+002 -2.1624e+002  2.3720e+002 18352 113260,113390,113312
 3.3000e+000 113439 -3.2397e+002 -7.2227e+001  1.8116e+002 18352 113312,113390,113364
 3.3000e+000 113416 -1.2902e+002 -4.9767e+001  1.8705e+002 18352 113312,113364,113338
 3.3000e+000 113757 -2.5284e+002 -1.0330e+002  1.8038e+002 17834 113558,113610,113584
 3.3000e+000 113734 -3.6210e+002 -2.0723e+002  2.3396e+002 17834 113532,113610,113558
 3.3000e+000 113711 -3.7372e+002 -2.4847e+002  1.9389e+002 17834 113532,113662,113610
 3.3000e+000 113688 -1.9315e+002 -7.1732e+001  2.6617e+002 17834 113610,113662,113636
 3.3000e+000 113958 -2.5311e+002 -1.0538e+002  1.4124e+002 17330 113782,113834,113808
 3.3000e+000 113935 -1.2746e+002 -7.7885e+001  9.8696e+001 17330 113782,113886,113834
 3.3000e+000 113912 -1.5998e+002 -7.3906e+001  6.3982e+001 17330 113834,113886,113860
 3.3000e+000 114110 -3.7782e+002 -1.5271e+002  2.4229e+002 16874 113983,114035,114009
 3.3000e+000 114087 -1.4145e+002 -3.2926e+002  1.9589e+002 16874 113983,114061,114035
 3.3000e+000 114465 -3.9610e+002 -1.6825e+002  9.8488e+001 16270 114240,114292,114266
 3.3000e+000 114442 -3.4473e+002 -7.8363e+001  5.1033e+001 16270 114240,114370,114292
 3.3000e+000 114419 -1.5666e+002 -6.6349e+001  7.2287e+001 16270 114292,114344,114318
 3.3000e+000 114396 -3.9346e+002 -1.7750e+002  3.1942e+001 16270 114292,114370,114344
 3.3000e+000 114566 -1.1285e+001  1.1285e+001  3.2255e+002 15834 114488,114540,114514
 3.3000e+000 114667 -2.5111e+002 -1.0345e+002  1.6347e+002 15155 114589,114641,114615
 3.3000e+000 114890 -1.5976e+002 -6.0425e+001  2.2190e+002 421 114766,114818,114792
 3.3000e+000 114867 -2.6548e+002 -2.5216e+002  1.7825e+002 421 114714,114818,114766
 3.3000e+000 114844 -3.9398e+002 -1.6702e+002  1.0648e+002 421 114714,114766,114740
 3.4000e+000 66553 -1.2989e+002 -5.3093e+001  4.2524e+001 66108 66354,66458,66432
 3.4000e+000 66530 -1.1662e+002 -5.0023e+001  5.8459e+001 66108 66328,66458,66354
 3.4000e+000 66507 -1.0182e+002 -9.3707e+001  2.7956e+001 66108 66354,66432,66406
 3.4000e+000 66484  7.1394e+000  3.8279e+000  6.9957e+001 66108 66354,66406,66380
 3.4000e+000 66951 -2.2061e+002 -9.4409e+001  4.5203e+001 65910 66703,66833,66807
 3.4000e+000 66928 -1.5417e+002 -7.5141e+001  4.5537e+001 65910 66677,66833,66703
 3.4000e+000 66905 -5.1230e+001 -8.2911e+001  6.3560e+001 65910 66729,66781,66755
 3.4000e+000 66882 -1.6847e+002 -7.1789e+001  5.7487e+001 65910 66729,66807,66781
 3.4000e+000 66859 -1.8046e+002 -5.8977e+001  6.0136e+001 65910 66703,66807,66729
 3.4000e+000 67150 -1.8622e+002 -7.9151e+001  8.0195e+001 65712 67026,67078,67052
 3.4000e+000 67127 -3.1806e+002 -5.7322e+001  7.7497e+001 65712 66974,67078,67026
 3.4000e+000 67104 -6.9868e+002 -3.1025e+002  2.0979e+002 65712 66974,67026,67000
 3.4000e+000 67481 -2.7110e+002 -5.1803e+001  9.4203e+001 65422 67282,67360,67334
 3.4000e+000 67458 -1.5150e+002 -6.2271e+001  1.2827e+002 65422 67282,67386,67360
 3.4000e+000 67435 -9.1629e+001  4.2657e+001  5.9093e+001 65422 67282,67334,67308
 3.4000e+000 67412 -1.4068e+001 -2.7030e-001  3.9654e+001 65422 67256,67386,67282
 3.4000e+000 68115 -1.1062e+002 -2.0145e+001  2.4833e+001 65018 67795,67925,67873
 3.4000e+000 68092 -1.2195e+002 -2.6117e+001  5.4427e+001 65018 67769,67925,67795
 3.4000e+000 68069 -6.4890e+001 -3.2472e+001  3.8639e+001 65018 67873,67925,67899
 3.4000e+000 68046 -1.6339e+002 -9.8042e+001  8.2849e+001 65018 67769,67951,67925
 3.4000e+000 68023 -1.2907e+002 -7.9907e+001  3.0084e+001 65018 67795,67873,67821
 3.4000e+000 68000 -1.6648e+002 -8.3416e+001  2.1021e+001 65018 67821,67873,67847
 3.4000e+000 67977 -1.2203e+002 -9.1947e+001  8.9157e+001 65018 67743,67951,67769
 3.4000e+000 68363 -1.2223e+002 -2.7714e+002  1.9140e+002 64820 68190,68242,68216
 3.4000e+000 68340 -2.2992e+002 -1.8782e+002  2.0293e+002 64820 68190,68268,68242
 3.4000e+000 68317 -1.1711e+002 -1.3542e+002  2.2744e+002 64820 68164,68268,68190
 3.4000e+000 68294 -4.1967e+002 -1.7683e+002  1.4792e+002 64820 68138,68268,68164
 3.4000e+000 68513 -2.4501e+002 -1.2001e+002  7.3091e+001 64366 68868,68536,68438
 3.4000e+000 68490 -1.5874e+002 -6.3718e+001  6.5229e+001 64366 68536,68412,68386
 3.4000e+000 68562 -2.4815e+002 -1.0068e+002  1.1070e+002 64366 68740,68536,68464
 3.4000e+000 68585 -1.9321e+002 -5.7791e+001  7.9191e+001 64366 68608,68536,68386
 3.4000e+000 68634 -2.3181e+002 -1.4726e+002  7.2164e+001 64366 68464,68536,68608
 3.4000e+000 68766 -2.6081e+002 -1.0107e+002  1.0984e+002 64366 68438,68536,68740
 3.4000e+000 68894 -1.8009e+002 -6.8803e+001  1.0127e+002 64366 68412,68536,68868
 3.4000e+000 69172 -3.0811e+002 -2.1834e+002 -2.4157e+000 64168 69022,69074,69048
 3.4000e+000 69149 -4.4230e+002 -1.8982e+002  4.1907e+001 64168 68996,69074,69022
 3.4000e+000 69126 -4.3948e+002 -1.9287e+002  6.8870e+001 64168 68996,69100,69074
 3.4000e+000 69371 -1.7663e+002 -7.3644e+001  1.0592e+002 63970 69466,69394,69273
 3.4000e+000 69348 -2.2542e+002 -9.2170e+001  1.1334e+002 63970 69394,69247,69221
 3.4000e+000 69325 -1.7919e+002 -7.6395e+001  5.4543e+001 63970 69195,69299,69221
 3.4000e+000 69420 -1.0027e+002 -8.0096e+001  6.7869e+001 63970 69299,69273,69394
 3.4000e+000 69443 -1.9140e+002 -1.1310e+002  7.1083e+001 63970 69299,69394,69221
 3.4000e+000 69492 -1.8607e+002 -7.4857e+001  1.0014e+002 63970 69247,69394,69466
 3.4000e+000 69904 -3.8531e+001 -2.1546e+002  6.5307e+001 63680 69705,69783,69731
 3.4000e+000 69881  2.8160e-002 -1.6166e+002  3.0084e+001 63680 69679,69783,69705
 3.4000e+000 69858 -1.8747e+002 -1.8984e+002  6.5455e+001 63680 69679,69809,69783
 3.4000e+000 69835 -1.7300e+002 -2.8739e+002  3.0566e+001 63680 69731,69783,69757
 3.4000e+000 70054 -5.4159e+001 -9.7748e+001  4.1487e+001 63476 70077,69953,69927
 3.4000e+000 70031 -2.4009e+001 -5.4220e+001  6.2386e+001 63476 70077,69927,70005
 3.4000e+000 70103 -9.2724e+001 -6.7957e+001  2.3098e+001 63476 69979,69953,70077
 3.4000e+000 70126 -6.8201e+001 -2.8973e+001  4.0571e+001 63476 69979,70077,70005
 3.4000e+000 70325 -4.0782e+002 -2.2977e+002  7.3566e+001 63278 70149,70227,70175
 3.4000e+000 70302 -3.0768e+002 -1.2979e+002  1.5838e+002 63278 70149,70253,70227
 3.4000e+000 70279 -4.2930e+002 -3.5030e+002  9.3462e+001 63278 70175,70227,70201
 3.4000e+000 70597 -1.5803e+002 -7.2886e+001  6.5061e+001 63080 70372,70476,70424
 3.4000e+000 70574 -2.3906e+002 -1.0237e+002  3.7151e+001 63080 70372,70502,70476
 3.4000e+000 70551 -1.2456e+002 -5.3257e+001  3.5242e+001 63080 70424,70476,70450
 3.4000e+000 70528 -2.2700e+002 -1.0577e+002  7.5929e+001 63080 70372,70424,70398
 3.4000e+000 70847 -3.8434e+001 -1.1999e+002  5.5049e+001 62740 70870,70648,70622
 3.4000e+000 70824 -5.4397e+001 -9.7882e+001  6.3503e+001 62740 70870,70622,70752
 3.4000e+000 70801 -3.7140e+001 -1.0586e+002  1.4747e+001 62740 70648,70726,70700
 3.4000e+000 70778 -2.3561e+001 -9.1081e+001  7.3013e+000 62740 70648,70700,70674
 3.4000e+000 70896 -5.3454e+001 -1.4055e+002  4.3143e+001 62740 70726,70648,70870
 3.4000e+000 70919 -5.6432e+001 -1.1017e+002  5.5434e+001 62740 70726,70870,70752
 3.4000e+000 71022 -8.2892e+000  8.2892e+000  2.7649e+002 62520 70944,70996,70970
 3.4000e+000 71223 -3.8210e+002 -2.3672e+002  2.3458e+002 62230 71073,71151,71099
 3.4000e+000 71200 -2.8882e+002 -2.1096e+002  2.1808e+002 62230 71047,71151,71073
 3.4000e+000 71177 -2.2245e+002 -3.9563e+002  1.7033e+002 62230 71099,71151,71125
 3.4000e+000 71861 -5.9214e+001 -1.2659e+001  3.5022e+001 61712 71515,71697,71671
 3.4000e+000 71838 -6.8680e+001 -2.9624e+001  5.6359e+000 61712 71489,71697,71515
 3.4000e+000 71815 -3.5096e+002 -9.4695e+001  1.4437e+002 61712 71884,71541,71515
 3.4000e+000 71792 -2.3089e+002 -7.9455e-001  1.0297e+002 61712 71884,71515,71671
 3.4000e+000 71769 -9.9963e+001 -2.1120e+002  7.4728e+001 61712 71541,71619,71593
 3.4000e+000 71746 -5.5999e+001 -2.0035e+001  8.6479e+001 61712 71619,71671,71645
 3.4000e+000 71723 -3.4998e+002 -3.8570e+002  2.1614e+002 61712 71541,71593,71567
 3.4000e+000 71910 -2.2766e+002 -1.8693e+002  1.8467e+002 61712 71619,71541,71884
 3.4000e+000 71933 -1.4902e+002 -1.2328e+002  1.5584e+002 61712 71619,71884,71671
 3.4000e+000 72230 -3.5246e+002 -2.9277e+002  7.9943e+001 61208 72253,72060,72008
 3.4000e+000 72207 -3.1742e+002 -1.8273e+002  8.3045e+001 61208 72253,72008,71982
 3.4000e+000 72184 -2.5074e+002 -1.0478e+002  4.1431e+001 61208 71982,72112,72086
 3.4000e+000 72161 -4.1944e+002 -2.8196e+002  1.1917e+002 61208 72008,72060,72034
 3.4000e+000 72138 -1.4079e+002 -5.6430e+001  9.7108e+001 61208 71956,72112,71982
 3.4000e+000 72279 -3.6393e+002 -2.1088e+002  3.2911e+001 61208 72086,72060,72253
 3.4000e+000 72302 -3.5950e+002 -1.4891e+002  3.3019e+001 61208 72086,72253,71982
 3.4000e+000 72761 -1.2518e+002 -1.3937e+002  3.1913e+001 60804 72487,72617,72513
 3.4000e+000 72738 -2.1677e+002 -2.0912e+002  7.7836e+001 60804 72487,72643,72617
 3.4000e+000 72715 -5.2548e+001 -4.0965e+002  3.4705e+001 60804 72565,72617,72591
 3.4000e+000 72692 -1.7759e+002 -2.0953e+002  9.0735e+001 60804 72513,72617,72565
 3.4000e+000 72669 -1.8390e+002 -2.6978e+002  8.7671e-001 60804 72513,72565,72539
 3.4000e+000 72911 -8.2892e+000  8.2892e+000  2.7649e+002 60556 72784,72836,72810
 3.4000e+000 72888  2.3784e+002  1.0991e+002  1.5997e+002 60556 72784,72862,72836
 3.4000e+000 73468 -7.3754e+001 -1.1223e+002  5.2901e+001 60244 73491,73226,73200
 3.4000e+000 73445 -1.2105e+002 -1.4546e+002  1.0365e+002 60244 73563,73491,73200
 3.4000e+000 73422 -2.3145e+002 -1.0937e+002  1.1865e+002 60244 73563,73200,73174
 3.4000e+000 73399 -7.6169e+001 -1.7256e+002  6.0758e+001 60244 73226,73278,73252
 3.4000e+000 73376 -1.6901e+002 -1.1890e+002  1.0319e+002 60244 73122,73304,73278
 3.4000e+000 73353 -1.9425e+002 -1.3697e+002  8.8315e+001 60244 73096,73304,73122
 3.4000e+000 73330 -3.4577e+002 -1.4102e+002 -5.4360e+001 60244 73122,73174,73148
 3.4000e+000 73517 -1.7342e+002 -1.6805e+002  8.9133e+001 60244 73278,73226,73491
 3.4000e+000 73540 -1.6231e+002 -1.4004e+002  8.8621e+001 60244 73278,73491,73122
 3.4000e+000 73589 -2.8841e+002 -1.8068e+002  9.0183e+001 60244 73122,73491,73563
 3.4000e+000 73612 -3.9201e+002 -1.3980e+002  1.1154e+002 60244 73122,73563,73174
 3.4000e+000 73762 -6.9753e+001 -1.6501e+002  1.6702e+002 59875 73661,73713,73687
 3.4000e+000 73739 -1.9869e+002 -1.1476e+002  1.2803e+002 59875 73635,73713,73661
 3.4000e+000 74191 -1.5201e+002 -3.5410e+002  1.6008e+002 59478 74214,73894,73868
 3.4000e+000 74168 -2.3249e+002 -3.3884e+002  1.7083e+002 59478 74214,73868,74050
 3.4000e+000 74145 -2.5079e+002 -3.2286e+002  1.0796e+002 59478 73894,73946,73920
 3.4000e+000 74122 -1.9875e+002 -3.4578e+002  9.8558e+001 59478 73894,73998,73946
 3.4000e+000 74099 -4.5773e+002 -3.6677e+002  2.9430e+002 59478 73998,74050,74024
 3.4000e+000 74076 -2.6321e+002 -3.7186e+002  5.7770e+001 59478 73946,73998,73972
 3.4000e+000 74240 -2.2398e+002 -3.3582e+002  1.3209e+002 59478 73998,73894,74214
 3.4000e+000 74263 -3.0527e+002 -3.2769e+002  1.2988e+002 59478 73998,74214,74050
 3.4000e+000 74720 -1.7889e+002 -1.2106e+002  8.0409e+001 58774 74472,74602,74498
 3.4000e+000 74697 -2.0197e+002 -1.4788e+002  6.6510e+001 58774 74446,74602,74472
 3.4000e+000 74674 -2.0703e+002 -9.5259e+001  8.9758e+001 58774 74498,74576,74524
 3.4000e+000 74651 -1.8151e+002 -1.0391e+002  7.6137e+001 58774 74498,74602,74576
 3.4000e+000 74628 -2.0617e+002 -1.9414e+001  5.6903e+001 58774 74524,74576,74550
 3.4000e+000 75226 -1.3903e+002 -1.3895e+002  9.7439e+001 58270 74955,75085,75033
 3.4000e+000 75203 -1.3612e+002 -1.8071e+002  9.9732e+001 58270 74929,75085,74955
 3.4000e+000 75180 -2.1398e+002 -1.3613e+002  1.6264e+002 58270 75033,75085,75059
 3.4000e+000 75157 -2.2230e+002 -2.4350e+002  7.5241e+001 58270 74955,75007,74981
 3.4000e+000 75134 -1.4918e+002 -1.3910e+002  3.5274e+001 58270 74955,75033,75007
 3.4000e+000 75111 -3.2195e+001 -1.6964e+002  7.8208e+001 58270 74903,75085,74929
 3.4000e+000 75425 -1.7536e+002 -1.9534e+002  8.9044e+001 57830 75448,75301,75249
 3.4000e+000 75402 -1.1825e+002 -1.3270e+002  6.2368e+001 57830 75448,75249,75353
 3.4000e+000 75379 -2.4647e+002 -2.9771e+002  7.8002e+001 57830 75520,75301,75275
 3.4000e+000 75474 -1.5669e+002 -2.4050e+002  1.3929e+002 57830 75327,75301,75448
 3.4000e+000 75497 -1.1580e+002 -2.0507e+002  1.1648e+002 57830 75327,75448,75353
 3.4000e+000 75546 -1.2126e+002 -2.0511e+002  3.0714e+001 57830 75249,75301,75520
 3.4000e+000 76261 -8.6833e+001 -1.6261e+002  8.1215e+001 57426 76284,76097,76071
 3.4000e+000 76238 -9.0809e+001 -9.6942e+001  8.8322e+001 57426 75889,76097,75915
 3.4000e+000 76215 -1.1935e+002 -1.6248e+002  9.6879e+001 57426 76428,76284,76071
 3.4000e+000 76192 -9.0209e+001 -1.4157e+002  5.2198e+001 57426 76356,75941,75915
 3.4000e+000 76169 -1.1240e+002 -1.4747e+002  9.9467e+001 57426 76428,76071,76019
 3.4000e+000 76146 -1.2838e+002 -2.0382e+002  8.8174e+001 57426 76019,76071,76045
 3.4000e+000 76123 -1.4562e+002 -1.5204e+002  1.2821e+002 57426 75967,76019,75993
 3.4000e+000 76310 -9.0469e+001 -1.6801e+002  6.5554e+001 57426 75915,76097,76284
 3.4000e+000 76333 -1.0291e+002 -1.5857e+002  5.7751e+001 57426 76356,75915,76284
 3.4000e+000 76382 -1.2111e+002 -1.2141e+002  6.9346e+001 57426 75967,75941,76356
 3.4000e+000 76405 -1.2734e+002 -1.3039e+002  7.2306e+001 57426 75967,76356,76284
 3.4000e+000 76454 -1.2771e+002 -1.4454e+002  9.5365e+001 57426 75967,76284,76428
 3.4000e+000 76477 -1.2221e+002 -1.3327e+002  9.8852e+001 57426 75967,76428,76019
 3.4000e+000 76953 -1.2656e+002 -2.1221e+002  1.2181e+002 56908 76976,76711,76685
 3.4000e+000 76930 -1.2137e+002 -2.0333e+002  1.2742e+002 56908 77048,76976,76685
 3.4000e+000 76907 -2.3593e+002 -2.1733e+002  1.8406e+002 56908 77048,76685,76633
 3.4000e+000 76884 -3.6545e+002 -2.8209e+002  1.8310e+002 56908 76711,76789,76763
 3.4000e+000 76861 -1.9115e+002 -6.8824e+001  9.1776e+001 56908 76581,76789,76607
 3.4000e+000 76838 -3.1189e+002 -9.6891e+001  1.2601e+002 56908 76711,76763,76737
 3.4000e+000 76815 -6.3587e+002 -5.1125e+002  4.0177e+002 56908 76633,76685,76659
 3.4000e+000 77002 -1.6781e+002 -2.2403e+002  1.0799e+002 56908 76789,76711,76976
 3.4000e+000 77025 -1.5754e+002 -7.5655e+001  7.1420e+001 56908 76789,76976,76607
 3.4000e+000 77074 -2.9764e+002 -2.0467e+002  1.2860e+002 56908 76607,76976,77048
 3.4000e+000 77097 -3.5506e+002 -1.6813e+002  1.7953e+002 56908 76607,77048,76633
 3.4000e+000 77475 -1.1540e+002 -8.9751e+001  1.0093e+002 56546 77570,77498,77279
 3.4000e+000 77452 -7.2461e+001 -1.7666e+002  1.3276e+002 56546 77498,77227,77357
 3.4000e+000 77429 -1.2990e+002 -1.1006e+002  1.1533e+002 56546 77570,77279,77253
 3.4000e+000 77406 -1.8113e+002 -2.3179e+002  1.6343e+002 56546 77201,77357,77227
 3.4000e+000 77383 -1.1716e+002 -9.6503e+001  2.1411e+001 56546 77279,77331,77305
 3.4000e+000 77524 -9.9189e+001  9.8270e+000  9.7070e+001 56546 77331,77279,77498
 3.4000e+000 77547 -3.4406e+001 -7.9740e+001  1.7104e+002 56546 77331,77498,77357
 3.4000e+000 77596 -1.1934e+002 -9.6180e+001  1.3879e+002 56546 77227,77498,77570
 3.4000e+000 77619 -1.4471e+002 -1.5589e+002  1.5170e+002 56546 77227,77570,77253
 3.4000e+000 77818 -1.2328e+002 -1.3233e+002  1.0818e+002 56042 77841,77694,77668
 3.4000e+000 77795 -1.0535e+002 -1.2005e+002  9.4577e+001 56042 77841,77668,77746
 3.4000e+000 77772 -1.3550e+002 -4.8593e+001  8.4784e+001 56042 77642,77746,77668
 3.4000e+000 77867 -1.3358e+002 -1.4307e+002  1.2273e+002 56042 77720,77694,77841
 3.4000e+000 77890 -1.1285e+002 -1.2849e+002  1.0877e+002 56042 77720,77841,77746
 3.4000e+000 78349 -2.3060e+002 -1.3107e+002  1.1541e+002 55538 78075,78127,78101
 3.4000e+000 78326 -2.8130e+002 -1.7704e+002  6.7038e+001 55538 78075,78205,78127
 3.4000e+000 78303 -3.3879e+002 -1.1188e+002  9.2282e+001 55538 78075,78231,78205
 3.4000e+000 78280 -1.7928e+002 -2.6152e+002  1.5792e+002 55538 78127,78179,78153
 3.4000e+000 78257 -1.9485e+002 -1.6963e+002  6.3331e+001 55538 78127,78205,78179
 3.4000e+000 78806 -1.2377e+002 -1.3295e+002  4.8498e+001 55034 78829,78636,78610
 3.4000e+000 78783 -1.4367e+002 -1.5532e+002  5.7108e+001 55034 78901,78829,78610
 3.4000e+000 78760 -1.2064e+002 -1.8416e+002  7.8452e+001 55034 78901,78610,78584
 3.4000e+000 78737 -1.2745e+002 -1.1113e+002  7.5172e+001 55034 78558,78688,78662
 3.4000e+000 78714 -1.3424e+002 -1.1578e+002  1.1178e+002 55034 78532,78688,78558
 3.4000e+000 78855 -1.4092e+002 -1.2827e+002  4.8891e+001 55034 78662,78636,78829
 3.4000e+000 78878 -1.4964e+002 -1.2449e+002  6.7460e+001 55034 78662,78829,78558
 3.4000e+000 78927 -1.1638e+002 -1.0978e+002  6.9905e+001 55034 78558,78829,78901
 3.4000e+000 78950 -9.9557e+001 -1.3393e+002  8.9209e+001 55034 78558,78901,78584
 3.4000e+000 79407 -6.7277e+001 -8.1131e+001  9.8451e+001 54430 79430,79237,79159
 3.4000e+000 79384 -5.7972e+001 -1.3268e+002  4.1298e+001 54430 79430,79159,79133
 3.4000e+000 79361 -9.1926e+001 -1.0301e+002  5.8008e+001 54430 79237,79289,79263
 3.4000e+000 79338 -7.2264e+001 -1.4082e+002  5.4150e+001 54430 79185,79237,79211
 3.4000e+000 79315 -1.7399e+002 -1.4393e+002  1.2872e+002 54430 79159,79237,79185
 3.4000e+000 79456 -7.7795e+001 -1.4275e+002  7.7740e+001 54430 79289,79237,79430
 3.4000e+000 79479 -7.1058e+001 -2.2207e+002  3.2663e+001 54430 79289,79430,79133
 3.4000e+000 79936 -8.9275e+001 -7.7600e+001  1.0235e+002 53919 79662,79766,79688
 3.4000e+000 79913 -3.4441e+002 -1.6286e+002  1.9560e+002 53919 79662,79818,79766
 3.4000e+000 79890 -4.3181e+002 -1.4872e+002  6.3220e+001 53919 79766,79818,79792
 3.4000e+000 79867 -2.4813e+002 -2.2045e+002  1.1008e+002 53919 79714,79766,79740
 3.4000e+000 79844 -2.2293e+002 -1.6384e+002  1.4943e+002 53919 79688,79766,79714
 3.4000e+000 80037 -1.3280e+002 -3.1923e+002  1.3396e+002 53671 79959,80011,79985
 3.4000e+000 80405 -9.2692e+001 -2.2866e+002  7.1760e+001 53267 80108,80264,80238
 3.4000e+000 80382 -1.5949e+002 -2.3158e+002  7.0460e+001 53267 80082,80264,80108
 3.4000e+000 80359 -1.0274e+002 -2.6137e+002  9.5576e+001 53267 80108,80238,80134
 3.4000e+000 80336 -4.6266e+001 -9.8996e+001  8.2338e+001 53267 80134,80212,80186
 3.4000e+000 80313 -1.3148e+002 -2.1492e+002  1.6134e+002 53267 80134,80238,80212
 3.4000e+000 80290 -3.4025e+001 -1.1251e+002  6.0849e+001 53267 80134,80186,80160
 3.4000e+000 80915 -2.5531e+002 -3.5903e+002  4.5145e+001 52969 80644,80774,80748
 3.4000e+000 80892 -2.3873e+002 -2.4764e+002  2.8424e+001 52969 80618,80774,80644
 3.4000e+000 80869 -3.0121e+002 -4.3566e+002  2.7754e+000 52969 80644,80748,80670
 3.4000e+000 80846 -3.0057e+002 -2.6571e+002  3.1335e+001 52969 80592,80774,80618
 3.4000e+000 80823 -3.4185e+002 -3.2619e+002  3.8928e+001 52969 80670,80722,80696
 3.4000e+000 80800 -2.4955e+002 -2.8734e+002  8.7396e+000 52969 80670,80748,80722
 3.4000e+000 81266  1.7220e+001 -1.0337e+000  1.0314e+000 52565 81041,81145,81067
 3.4000e+000 81243  2.2376e+001 -3.9724e+000 -1.7109e+000 52565 81041,81171,81145
 3.4000e+000 81220  2.8877e+001  1.9805e+001  5.4731e+000 52565 81067,81119,81093
 3.4000e+000 81197  2.5201e+001  5.1418e+000  4.3177e+000 52565 81067,81145,81119
 3.4000e+000 81723 -2.2733e+001 -1.4567e+000 -3.7980e+000 51904 81449,81527,81475
 3.4000e+000 81700 -3.0969e+001  1.5173e+000  1.0188e+001 51904 81449,81579,81527
 3.4000e+000 81677 -1.1520e+002 -2.6520e+000  1.0444e+001 51904 81449,81605,81579
 3.4000e+000 81654 -8.4892e+001  3.6411e+000  5.5416e+000 51904 81527,81579,81553
 3.4000e+000 81631 -2.5971e+000 -1.2260e+000  6.7728e-001 51904 81475,81527,81501
 3.4000e+000 82327 -1.7407e+002 -1.8762e+002  1.2702e+002 51321 82422,82350,82036
 3.4000e+000 82304 -1.8967e+002 -1.1920e+002  1.5374e+002 51321 82494,82350,81958
 3.4000e+000 82281 -1.8464e+002 -2.0358e+002  1.1448e+002 51321 82422,82036,82010
 3.4000e+000 82258 -2.1253e+002 -1.2975e+002  1.5633e+002 51321 82494,81958,81932
 3.4000e+000 82235 -1.9523e+002 -8.4324e+001  5.9733e+001 51321 82062,82114,82088
 3.4000e+000 82212 -5.0157e+002 -3.2322e+002  2.3002e+002 51321 81932,82140,82114
 3.4000e+000 82189 -1.8932e+002 -7.4762e+001  1.2464e+002 51321 81958,82010,81984
 3.4000e+000 82166 -9.1851e+001 -1.6381e+002  7.8564e+001 51321 81906,82140,81932
 3.4000e+000 82376 -1.7688e+002 -2.2151e+002  1.2430e+002 51321 82062,82036,82350
 3.4000e+000 82399 -1.7883e+002 -1.5621e+002  1.1661e+002 51321 82062,82350,82114
 3.4000e+000 82448 -1.5999e+002 -1.7131e+002  1.4681e+002 51321 81958,82350,82422
 3.4000e+000 82471 -1.6819e+002 -1.8563e+002  1.3460e+002 51321 81958,82422,82010
 3.4000e+000 82520 -1.9715e+002 -1.2047e+002  1.4110e+002 51321 82114,82350,82494
 3.4000e+000 82543 -2.0015e+002 -1.2205e+002  1.4231e+002 51321 82114,82494,81932
 3.4000e+000 83019 -1.6787e+002 -1.8120e+002  8.9714e+001 50817 82673,82751,82699
 3.4000e+000 82996 -2.2110e+002 -1.6116e+002  9.4800e+001 50817 83042,82673,82855
 3.4000e+000 82973 -2.2268e+002 -2.4436e+002  9.1921e+001 50817 83042,82855,82803
 3.4000e+000 82950 -3.0648e+002 -3.6392e+002  8.9218e+001 50817 82751,82803,82777
 3.4000e+000 82927 -2.1092e+002 -1.8237e+002  6.9439e+001 50817 82647,82855,82673
 3.4000e+000 82904 -3.3631e+002 -3.0194e+002  1.9281e+002 50817 82803,82855,82829
 3.4000e+000 82881 -2.7834e+002 -3.8298e+002  1.3553e+002 50817 82699,82751,82725
 3.4000e+000 83068 -2.0366e+002 -2.2368e+002  1.4428e+002 50817 82751,82673,83042
 3.4000e+000 83091 -1.9368e+002 -2.9971e+002  1.3202e+002 50817 82751,83042,82803
 3.4000e+000 83290 -1.8699e+002 -1.0566e+002  1.0897e+002 50356 83313,83166,83140
 3.4000e+000 83267 -1.7351e+002 -1.5438e+002  9.6445e+001 50356 83515,83313,83140
 3.4000e+000 83244 -2.0853e+002 -1.2261e+002  3.9267e+001 50356 83515,83140,83385
 3.4000e+000 83339 -2.5673e+002 -1.2638e+002  1.5806e+002 50356 83192,83166,83313
 3.4000e+000 83362 -1.2492e+002 -1.0234e+002  1.3820e+002 50356 83192,83313,83218
 3.4000e+000 83411 -5.1289e+001 -1.6853e+001  3.7791e+001 50356 83114,83218,83385
 3.4000e+000 83541 -7.4767e+001 -9.8034e+001  7.3783e+001 50356 83218,83313,83515
 3.4000e+000 83564 -8.9632e+001 -6.5820e+001  2.1130e+001 50356 83218,83515,83385
 3.4000e+000 83893 -2.6217e+002 -1.7813e+002  2.8996e+001 49552 83720,83798,83746
 3.4000e+000 83870 -1.8424e+002 -6.0813e+001  7.1577e+001 49552 83694,83798,83720
 3.4000e+000 83847 -1.6439e+002 -7.4252e+001  6.7654e+001 49552 83668,83798,83694
 3.4000e+000 83824 -3.5596e+002 -9.0292e+001 -1.8342e+001 49552 83746,83798,83772
 3.4000e+000 84141 -2.1663e+002 -1.3222e+002  9.0280e+001 49212 84164,84020,83942
 3.4000e+000 84118 -2.0186e+002 -8.8171e+001  1.3302e+002 49212 84164,83942,83916
 3.4000e+000 84095 -1.4389e+002 -1.7452e+002  5.3873e+001 49212 83942,84020,83968
 3.4000e+000 84072 -1.1289e+002 -2.3342e+001  4.2591e+001 49212 83968,84020,83994
 3.4000e+000 84190 -2.5714e+002 -1.3007e+002  6.2959e+001 49212 84046,84020,84164
 3.4000e+000 84213 -2.3286e+002 -9.9452e+001  1.0388e+002 49212 84046,84164,83916
 3.4000e+000 84800 -3.9060e+001 -4.6696e+001  3.3965e+001 48865 84503,84633,84555
 3.4000e+000 84777 -3.5892e+001 -2.4207e+001  3.9038e+001 48865 84503,84659,84633
 3.4000e+000 84754 -3.6449e+001 -4.2023e+001  3.1761e+001 48865 84555,84633,84581
 3.4000e+000 84731 -3.7039e+001 -9.4673e+001  4.9588e+001 48865 84581,84633,84607
 3.4000e+000 84708 -1.0895e+002 -8.4641e+001  4.8675e+001 48865 84503,84555,84529
 3.4000e+000 84685 -3.2461e+001 -3.2707e+001  6.8493e+000 48865 84477,84659,84503
 3.4000e+000 85355 -1.0699e+002 -1.7280e+002  2.9253e+001 48461 85378,85035,85009
 3.4000e+000 85332 -1.8826e+002 -2.2229e+002  6.6581e+001 48461 85378,85009,85165
 3.4000e+000 85309 -1.8763e+002 -2.4301e+002  7.3337e+001 48461 85450,85061,85035
 3.4000e+000 85286 -1.7968e+002 -2.0214e+002  4.1965e+001 48461 85009,85191,85165
 3.4000e+000 85263 -1.4573e+002 -2.0391e+002  1.2066e+002 48461 85087,85165,85113
 3.4000e+000 85240 -8.8321e+001 -2.5324e+002 -3.4784e+001 48461 84983,85191,85009
 3.4000e+000 85217 -1.3312e+002 -2.5260e+002  8.5443e+001 48461 85113,85165,85139
 3.4000e+000 85404 -1.8270e+002 -2.1041e+002  5.8988e+001 48461 85450,85035,85378
 3.4000e+000 85427 -1.8593e+002 -2.1792e+002  6.9213e+001 48461 85087,85378,85165
 3.4000e+000 85476 -1.8421e+002 -2.9037e+002  9.0623e+001 48461 85087,85061,85450
 3.4000e+000 85499 -1.8301e+002 -2.6849e+002  7.3670e+001 48461 85087,85450,85378
 3.4000e+000 86084 -6.6595e+001 -2.0624e+002  9.0536e+001 48057 86323,86107,85787
 3.4000e+000 86061 -1.0105e+002 -2.4478e+002  1.0321e+002 48057 86107,85761,85943
 3.4000e+000 86038 -1.3573e+002 -1.8701e+002  8.3072e+001 48057 86251,86179,85891
 3.4000e+000 86015 -1.3925e+002 -1.6821e+002  5.7563e+001 48057 86251,85891,85839
 3.4000e+000 85992 -1.1506e+002 -1.5197e+002  1.1573e+002 48057 85891,85943,85917
 3.4000e+000 85969 -1.7973e+002 -1.4120e+002  8.5708e+001 48057 85839,85891,85865
 3.4000e+000 86133 -8.7506e+001 -2.5157e+002  8.5338e+001 48057 85813,85787,86107
 3.4000e+000 86156 -1.0129e+002 -2.1988e+002  7.2749e+001 48057 86179,85813,86107
 3.4000e+000 86205 -1.0593e+002 -1.4453e+002  9.7667e+001 48057 85943,85891,86179
 3.4000e+000 86228 -7.1022e+001 -1.7736e+002  9.7344e+001 48057 85943,86179,86107
 3.4000e+000 86277 -8.5029e+001 -1.6618e+002  7.8540e+001 48057 85813,86179,86251
 3.4000e+000 86300 -1.1415e+002 -1.6086e+002  5.6606e+001 48057 85813,86251,85839
 3.4000e+000 86349 -5.3184e+001 -2.0887e+002  8.7411e+001 48057 85761,86107,86323
 3.4000e+000 86855 -3.4082e+001 -9.5414e+001  4.6897e+001 47545 86878,86584,86558
 3.4000e+000 86832 -5.2400e+001 -1.0298e+002  3.7534e+001 47545 86950,86878,86558
 3.4000e+000 86809 -5.5001e+001 -8.3378e+001  4.6004e+001 47545 86950,86558,86532
 3.4000e+000 86786 -3.4605e+001 -1.1406e+002  4.8677e+001 47545 86584,86662,86610
 3.4000e+000 86763 -1.0674e+002 -1.9478e+001  2.2827e+001 47545 86532,86714,86688
 3.4000e+000 86740 -5.9968e+001 -4.4579e+001  5.3252e+001 47545 86610,86662,86636
 3.4000e+000 86904 -4.0612e+001 -1.1788e+002  4.6879e+001 47545 86662,86584,86878
 3.4000e+000 86927 -4.0042e+001 -1.0253e+002  2.7425e+001 47545 86662,86878,86688
 3.4000e+000 86976 -3.8527e+001 -7.2619e+001  3.3568e+001 47545 86688,86878,86950
 3.4000e+000 86999 -5.0643e+001 -7.1206e+001  4.5812e+001 47545 86688,86950,86532
 3.4000e+000 87328 -5.1805e+002 -1.5952e+002  1.7185e+002 47048 87155,87207,87181
 3.4000e+000 87305 -1.9938e+002 -1.4846e+002  1.0171e+002 47048 87129,87207,87155
 3.4000e+000 87282 -3.9669e+002 -2.2588e+002  1.2310e+002 47048 87103,87207,87129
 3.4000e+000 87259 -5.4346e+002 -6.2727e+002  3.2536e+002 47048 87103,87233,87207
 3.4000e+000 87576 -7.5202e+001 -2.4746e+002  1.2206e+002 46701 87599,87429,87377
 3.4000e+000 87553 -1.4042e+002 -2.3674e+002  1.0871e+002 46701 87599,87377,87481
 3.4000e+000 87530 -1.2053e+002 -2.2485e+002  1.1940e+002 46701 87351,87481,87377
 3.4000e+000 87507 -1.2931e+002 -2.6004e+002  1.5663e+002 46701 87377,87429,87403
 3.4000e+000 87625 -1.1773e+002 -2.1635e+002  7.8272e+001 46701 87455,87429,87599
 3.4000e+000 87648 -2.4597e+002 -2.3941e+002  8.4138e+001 46701 87455,87599,87481
 3.4000e+000 87798 -3.1749e+001 -2.1398e+001  8.3063e+000 46239 87697,87749,87723
 3.4000e+000 87775 -7.7284e+001 -2.2388e+002  3.3199e+001 46239 87671,87749,87697
 3.4000e+000 88308 -2.4382e+002 -3.4532e+002  8.4353e+001 45735 88089,88167,88141
 3.4000e+000 88285 -1.6679e+002 -1.8572e+002  1.1006e+002 45735 88011,88167,88089
 3.4000e+000 88262 -3.5747e+001 -1.7067e+002  4.8716e+001 45735 87985,88167,88011
 3.4000e+000 88239 -8.0392e+001 -7.3002e+002  1.5315e+002 45735 88011,88089,88063
 3.4000e+000 88216 -2.9855e+002 -3.7673e+002  4.3757e+001 45735 88089,88141,88115
 3.4000e+000 88193 -3.4625e+002 -1.1009e+003 -3.6219e+001 45735 88011,88063,88037
 3.4000e+000 88686 -1.9907e+002 -7.8694e+001  1.1990e+002 45316 88438,88516,88490
 3.4000e+000 88663 -1.9358e+002  5.6281e+001  1.9968e+002 45316 88438,88542,88516
 3.4000e+000 88640 -1.0163e+002 -2.2152e+002  2.2985e+002 45316 88438,88568,88542
 3.4000e+000 88617 -1.8300e+002 -1.7231e+002  1.0070e+002 45316 88438,88490,88464
 3.4000e+000 88594 -1.9097e+002 -2.3309e+002  2.3980e+002 45316 88412,88568,88438
 3.4000e+000 88934 -3.0589e+002 -2.8624e+002  1.8876e+002 44812 88957,88735,88709
 3.4000e+000 88911 -1.7585e+002 -1.5724e+002  8.8008e+001 44812 88957,88709,88839
 3.4000e+000 88888 -1.5900e+002 -1.5270e+002  5.4543e+001 44812 89029,88787,88761
 3.4000e+000 88865 -1.3451e+002 -1.4682e+002  4.7007e+001 44812 88787,88839,88813
 3.4000e+000 88983 -9.3498e+001 -1.7025e+002  1.2319e+002 44812 88761,88735,88957
 3.4000e+000 89006 -1.5835e+002 -1.6272e+002  5.0720e+001 44812 89029,88761,88957
 3.4000e+000 89055 -1.4895e+002 -1.6642e+002  5.8345e+001 44812 88839,88787,89029
 3.4000e+000 89078 -1.5365e+002 -1.8389e+002  5.6273e+001 44812 88839,89029,88957
 3.4000e+000 89228 -6.3955e+001 -1.6640e+002  1.1236e+002 44408 89127,89179,89153
 3.4000e+000 89205 -1.3691e+001  4.7046e+001  2.1084e+000 44408 89101,89179,89127
 3.4000e+000 89787 -1.9186e+002 -1.2898e+002  1.0525e+002 43854 89810,89545,89519
 3.4000e+000 89764 -2.1123e+002 -1.7301e+002  1.0189e+002 43854 89810,89519,89467
 3.4000e+000 89741 -2.1622e+002 -2.3412e+002  9.7002e+001 43854 89954,89882,89597
 3.4000e+000 89718 -2.1560e+002 -2.4139e+002  9.3442e+001 43854 89954,89597,89571
 3.4000e+000 89695 -1.0493e+002 -1.4753e+002  8.4690e+001 43854 89415,89623,89467
 3.4000e+000 89672 -9.7476e+001 -9.4047e+001  6.4529e+001 43854 89467,89519,89493
 3.4000e+000 89649 -7.0522e+001 -1.2586e+002  6.8676e+001 43854 89415,89467,89441
 3.4000e+000 89836 -2.1195e+002 -1.4058e+002  1.1508e+002 43854 89882,89545,89810
 3.4000e+000 89859 -1.1166e+002 -1.5512e+002  8.1060e+001 43854 89623,89810,89467
 3.4000e+000 89908 -2.1144e+002 -2.8604e+002  1.3939e+002 43854 89623,89597,89882
 3.4000e+000 89931 -1.8839e+002 -2.4830e+002  1.1795e+002 43854 89623,89882,89810
 3.4000e+000 89980 -2.1158e+002 -2.2477e+002  1.3500e+002 43854 89545,89882,89954
 3.4000e+000 90003 -2.1986e+002 -2.5783e+002  1.3553e+002 43854 89545,89954,89571
 3.4000e+000 90251 -6.8287e+001 -5.2463e+001  3.5931e+001 43492 90026,90078,90052
 3.4000e+000 90228 -1.9873e+002 -1.4435e+002  7.9576e+001 43492 90274,90026,90156
 3.4000e+000 90205 -1.8171e+002 -1.6171e+002  8.1618e+001 43492 90346,90274,90156
 3.4000e+000 90182 -1.8599e+002 -2.1525e+002  1.6919e+002 43492 90346,90156,90130
 3.4000e+000 90300 -1.4702e+002 -1.7324e+002  9.6285e+001 43492 90078,90026,90274
 3.4000e+000 90323 -2.1670e+002 -1.9473e+002  9.8275e+001 43492 90078,90274,90104
 3.4000e+000 90372 -2.9065e+002 -2.3481e+002  1.3510e+002 43492 90104,90274,90346
 3.4000e+000 90395 -2.9522e+002 -2.9671e+002  2.2388e+002 43492 90104,90346,90130
 3.4000e+000 90594 -1.2843e+002 -3.4240e+002  3.7238e+001 43052 90418,90496,90444
 3.4000e+000 90571 -2.4701e+002 -5.3210e+002  1.0906e+002 43052 90418,90522,90496
 3.4000e+000 90548 -1.7384e+002 -2.2469e+002  8.8215e+001 43052 90444,90496,90470
 3.4000e+000 91074 -2.6025e+002 -4.6452e+002  2.4509e+002 42434 91241,90884,90858
 3.4000e+000 91051 -6.0459e+002 -6.2237e+002 -5.9215e+001 42434 90702,90910,90884
 3.4000e+000 91028 -1.5091e+002 -3.6080e+002  1.6020e+002 42434 91097,90754,90702
 3.4000e+000 91005 -2.5994e+002 -2.5889e+002  2.4756e+002 42434 91241,90858,91097
 3.4000e+000 90982 -1.4701e+002 -2.1719e+002  1.0407e+001 42434 91169,90806,90780
 3.4000e+000 90959 -1.0635e+002 -1.9170e+002 -4.9709e+001 42434 90806,90858,90832
 3.4000e+000 90936 -1.9467e+002 -3.7036e+002  1.5027e+002 42434 90702,90754,90728
 3.4000e+000 91123 -3.3559e+002 -4.2450e+002  1.3312e+002 42434 90780,90754,91097
 3.4000e+000 91146 -2.9173e+002 -3.3742e+002  1.6906e+002 42434 91169,90780,91097
 3.4000e+000 91195 -9.0269e+001 -1.3967e+002 -4.5155e+001 42434 90858,90806,91169
 3.4000e+000 91218 -1.2305e+002 -3.2989e+001  8.6479e+001 42434 90858,91169,91097
 3.4000e+000 91267 -1.9466e+002 -6.8779e+002  1.3794e+002 42434 90702,90884,91241
 3.4000e+000 91290 -2.1543e+002 -5.0637e+002  1.4095e+002 42434 90702,91241,91097
 3.4000e+000 91698 -3.2820e+001 -1.8426e+002  6.5711e+001 41773 91473,91577,91499
 3.4000e+000 91675 -7.5272e+001 -2.1535e+002  8.3859e+001 41773 91473,91603,91577
 3.4000e+000 91652 -9.3478e+001 -1.5625e+002  3.0455e+001 41773 91499,91551,91525
 3.4000e+000 91629 -1.2195e+002 -1.7474e+002  6.2680e+001 41773 91499,91577,91551
 3.4000e+000 92044 -1.0455e+002 -1.4554e+002  9.2906e+001 41383 91773,91877,91851
 3.4000e+000 92021 -6.5679e+001 -1.6370e+002  6.0917e+001 41383 91747,91877,91773
 3.4000e+000 91998 -7.3792e+001 -9.1177e+001  6.6109e+001 41383 91773,91851,91799
 3.4000e+000 91975 -5.8632e+001 -1.1086e+002  1.8093e+001 41383 91747,91903,91877
 3.4000e+000 91952 -6.1889e+000 -8.5656e+001  2.6085e+001 41383 91721,91903,91747
 3.4000e+000 91929 -2.2888e+001 -1.1280e+002  3.1793e+001 41383 91799,91851,91825
 3.4000e+000 92601 -1.8365e+002 -2.0518e+002  5.2058e+001 40979 92229,92411,92307
 3.4000e+000 92578 -2.4278e+002 -2.0604e+002  4.5144e+001 40979 92229,92437,92411
 3.4000e+000 92555 -1.5900e+002 -2.0240e+002  2.8871e+001 40979 92229,92307,92281
 3.4000e+000 92532 -1.6076e+002 -2.0773e+002  6.3119e+001 40979 92333,92411,92385
 3.4000e+000 92509 -1.5579e+002 -1.8828e+002  5.9507e+001 40979 92307,92411,92333
 3.4000e+000 92486 -1.5884e+002 -2.0977e+002  3.2918e+001 40979 92229,92281,92255
 3.4000e+000 92463 -2.1084e+001 -1.8108e+002  5.0091e+001 40979 92333,92385,92359
 3.4000e+000 93235 -2.1204e+002 -1.4313e+002  1.7428e+002 40525 92941,92993,92967
 3.4000e+000 93212 -2.7366e+002 -8.2266e+001  5.7011e+001 40525 93258,92941,92889
 3.4000e+000 93189 -2.1356e+002 -3.5806e+001  1.3372e+001 40525 93258,92889,93071
 3.4000e+000 93166 -2.8182e+002 -1.7813e+002  6.7550e+001 40525 92889,92941,92915
 3.4000e+000 93143 -2.7608e+002 -3.2931e+001  6.2641e+000 40525 92863,93071,92889
 3.4000e+000 93120 -2.2996e+002 -1.6828e+002  8.9684e+001 40525 92993,93071,93019
 3.4000e+000 93097 -2.4763e+002 -1.3605e+002  8.0117e+001 40525 93019,93071,93045
 3.4000e+000 93284 -3.1957e+002 -1.7655e+002  1.3704e+002 40525 92993,92941,93258
 3.4000e+000 93307 -1.8306e+002 -6.3820e+001  7.8961e+001 40525 92993,93258,93071
 3.4000e+000 93636 -2.2271e+002 -2.1890e+002  1.8722e+002 40235 93437,93541,93515
 3.4000e+000 93613 -1.7226e+002 -2.7965e+002  1.6345e+002 40235 93411,93541,93437
 3.4000e+000 93590 -5.3686e+001 -2.2960e+002  5.9966e+001 40235 93463,93515,93489
 3.4000e+000 93567 -1.1699e+002 -1.5491e+002  4.2595e+001 40235 93437,93515,93463
 3.4000e+000 94014 -2.3559e+002 -1.8715e+002  1.2381e+002 39873 93766,93870,93792
 3.4000e+000 93991 -1.7500e+002 -2.1481e+002  9.0038e+001 39873 93766,93896,93870
 3.4000e+000 93968 -2.4011e+002 -1.5896e+002  1.2152e+002 39873 93792,93870,93844
 3.4000e+000 93945 -1.5289e+002 -9.8913e+001  8.3909e+001 39873 93792,93844,93818
 3.4000e+000 93922 -1.2560e+002 -1.5157e+002  1.2665e+002 39873 93740,93896,93766
 3.4000e+000 94164 -4.1555e+001 -1.3413e+002  4.9627e+001 39461 94037,94089,94063
 3.4000e+000 94141 -6.9596e+001 -4.5910e+002  1.5040e+002 39461 94037,94115,94089
 3.4000e+000 94363 -1.3624e+002 -8.5531e+001  6.2554e+001 39057 94386,94239,94213
 3.4000e+000 94340 -3.8845e+001 -9.0869e+000  2.4068e+001 39057 94386,94213,94187
 3.4000e+000 94317 -1.3173e+002 -8.6087e+001  6.0871e+001 39057 94187,94291,94265
 3.4000e+000 94412 -3.7715e+001 -6.7362e+001  6.4066e+001 39057 94458,94386,94265
 3.4000e+000 94435 -7.7102e+001 -8.4550e+001  5.1928e+001 39057 94265,94386,94187
 3.4000e+000 94484 -9.6491e+001 -1.2063e+002  9.0431e+001 39057 94239,94386,94458
 3.4000e+000 94896 -2.2853e+002 -1.6479e+002  1.1104e+002 38396 94919,94775,94723
 3.4000e+000 94873 -2.6048e+002 -1.3796e+002  1.1407e+002 38396 94919,94723,94697
 3.4000e+000 94850 -1.7173e+002 -1.4634e+002  6.9583e+001 38396 94723,94775,94749
 3.4000e+000 94827 -1.1183e+002 -8.0022e+001  6.9782e+001 38396 94671,94801,94697
 3.4000e+000 94945 -2.2170e+002 -1.4497e+002  1.0152e+002 38396 94801,94775,94919
 3.4000e+000 94968 -2.4026e+002 -1.0854e+002  9.8973e+001 38396 94801,94919,94697
 3.4000e+000 95265 -2.2796e+002 -2.3263e+002  1.0314e+002 37835 95017,95069,95043
 3.4000e+000 95242 -2.3799e+002 -2.2376e+002  1.0858e+002 37835 95288,95069,95017
 3.4000e+000 95219 -2.4127e+002 -2.4592e+002  1.4713e+002 37835 95288,95017,94991
 3.4000e+000 95196 -2.8742e+002 -2.8332e+002  1.5260e+002 37835 94991,95147,95121
 3.4000e+000 95173 -1.5565e+002 -1.4203e+002  1.0212e+002 37835 95069,95121,95095
 3.4000e+000 95314 -2.2992e+002 -1.6899e+002  9.4768e+001 37835 95121,95069,95288
 3.4000e+000 95337 -2.3567e+002 -2.0515e+002  1.3029e+002 37835 95121,95288,94991
 3.4000e+000 95558  2.3437e+001  1.4861e+001  4.0683e+001 37423 95408,95460,95434
 3.4000e+000 95535 -4.4146e+001 -1.9747e+002  9.8371e+001 37423 95382,95460,95408
 3.4000e+000 95512 -9.9769e+001 -2.4668e+002  1.1931e+002 37423 95382,95486,95460
 3.4000e+000 95891 -7.2852e+001 -1.9641e+002  7.8830e+001 37225 95666,95718,95692
 3.4000e+000 95868 -2.5063e+002 -4.2273e+002  1.5586e+002 37225 95666,95796,95718
 3.4000e+000 95845 -1.1413e+002 -1.7012e+002  3.0895e+001 37225 95718,95770,95744
 3.4000e+000 95822 -1.0043e+002 -1.5972e+002  3.5255e+001 37225 95718,95796,95770
 3.4000e+000 95992 -2.7192e+001 -1.0423e+002  3.9383e+001 36735 95914,95966,95940
 3.4000e+000 96142 -2.5291e+002 -9.9931e+001  1.4719e+002 36331 96297,96067,96041
 3.4000e+000 96119 -1.8627e+002 -1.0543e+002  1.3151e+002 36331 96165,96041,96015
 3.4000e+000 96191 -2.3519e+002 -9.9094e+001  1.2870e+002 36331 96297,96041,96165
 3.4000e+000 96323 -2.8787e+002 -1.2508e+002  1.8228e+002 36331 96093,96067,96297
 3.4000e+000 96346 -2.3932e+002 -1.1156e+002  1.6394e+002 36331 96093,96297,96165
 3.4000e+000 96714 -1.4014e+002 -2.2559e+002  1.5025e+002 36041 96737,96495,96443
 3.4000e+000 96691 -2.0188e+002 -1.5037e+002  1.6241e+002 36041 96737,96443,96417
 3.4000e+000 96668 -9.1510e+001 -2.3743e+002  3.1625e+001 36041 96443,96495,96469
 3.4000e+000 96645 -3.8538e+001  2.4814e+000  6.9039e+001 36041 96391,96521,96417
 3.4000e+000 96622 -9.7080e+000 -5.5876e+001  5.9202e+001 36041 96391,96547,96521
 3.4000e+000 96599 -6.1031e+000 -5.2220e+001  5.6818e+001 36041 96391,96573,96547
 3.4000e+000 96763 -6.0640e+001 -1.5493e+002  1.1977e+002 36041 96521,96495,96737
 3.4000e+000 96786 -1.7282e+002 -1.2096e+002  1.5057e+002 36041 96521,96737,96417
 3.4000e+000 96936 -1.7277e+002 -1.0902e+002  9.2939e+001 35637 97031,96959,96835
 3.4000e+000 96913 -1.6040e+002 -9.4382e+001  1.2538e+002 35637 97163,96959,96809
 3.4000e+000 96985 -1.8058e+002 -8.3028e+001  1.1333e+002 35637 96861,96835,96959
 3.4000e+000 97008 -2.2786e+002 -1.4732e+002  1.6718e+002 35637 96861,96959,96887
 3.4000e+000 97057 -1.4246e+002 -8.7036e+001  8.2516e+001 35637 96809,96959,97031
 3.4000e+000 97189 -1.3994e+002 -1.0063e+002  1.2652e+002 35637 96887,96959,97163
 3.4000e+000 97597 -1.0398e+002 -1.5830e+002  1.2712e+002 35190 97450,97502,97476
 3.4000e+000 97574 -1.0905e+002 -1.8477e+002  1.4513e+002 35190 97372,97502,97450
 3.4000e+000 97551 -1.1062e+002 -2.0430e+002  1.3711e+002 35190 97372,97450,97398
 3.4000e+000 97528 -1.1442e+002 -2.0316e+002  1.3303e+002 35190 97398,97450,97424
 3.4000e+000 98054 -1.1261e+002 -1.5529e+002  1.3057e+002 34636 97806,97936,97858
 3.4000e+000 98031 -2.1672e+002 -1.3766e+002  1.0890e+002 34636 97780,97936,97806
 3.4000e+000 98008 -2.1935e+002 -1.7199e+002  8.7766e+001 34636 97806,97858,97832
 3.4000e+000 97985 -1.3478e+002 -1.7645e+002  1.1941e+002 34636 97884,97936,97910
 3.4000e+000 97962 -7.3975e+001 -1.2858e+002  9.6427e+001 34636 97858,97936,97884
 3.4000e+000 98530 -2.5069e+002  6.4668e+001  8.4110e+001 34068 98697,98184,98366
 3.4000e+000 98507  1.7189e+001  8.1867e-001  4.9207e-001 34068 98158,98366,98184
 3.4000e+000 98484 -2.3997e+002 -2.7358e+002  1.1443e+002 34068 98553,98262,98236
 3.4000e+000 98461 -3.3553e+002 -3.5161e+002  7.1266e+001 34068 98553,98236,98210
 3.4000e+000 98438 -2.8584e+002 -1.4459e+002  9.8539e+001 34068 98841,98625,98366
 3.4000e+000 98415 -2.0260e+002 -3.5341e+002  1.3674e+002 34068 98769,98288,98262
 3.4000e+000 98392 -3.3057e+002 -8.4449e+001  8.8915e+001 34068 98841,98366,98340
 3.4000e+000 98579 -2.4576e+002 -3.0662e+002  1.0309e+002 34068 98769,98262,98553
 3.4000e+000 98602 -2.3160e+002 -1.9996e+002  1.0978e+002 34068 98625,98314,98553
 3.4000e+000 98651 -2.8495e+002 -1.2622e+002  1.1097e+002 34068 98697,98366,98625
 3.4000e+000 98674 -2.8424e+002 -3.1413e+002  1.4223e+002 34068 98210,98625,98553
 3.4000e+000 98723 -3.4216e+002 -1.6582e+002  1.2070e+002 34068 98210,98184,98697
 3.4000e+000 98746 -3.0607e+002 -2.1172e+002  1.6198e+002 34068 98210,98697,98625
 3.4000e+000 98795 -1.2323e+002 -3.0162e+002  1.1260e+002 34068 98314,98288,98769
 3.4000e+000 98818 -1.7377e+002 -2.6440e+002  8.2217e+001 34068 98314,98769,98553
 3.4000e+000 98867 -3.1107e+002 -2.2510e+002  7.6919e+001 34068 98314,98625,98841
 3.4000e+000 98890 -3.4700e+002 -1.5217e+002  6.6867e+001 34068 98314,98841,98340
 3.4000e+000 99268 -2.8660e+002 -2.8215e+002  1.9779e+002 33450 99291,99098,99072
 3.4000e+000 99245 -3.1679e+002 -2.2816e+002  1.2770e+002 33450 99291,99072,99020
 3.4000e+000 99222 -5.0684e+002 -2.9685e+002  2.0665e+002 33450 99020,99072,99046
 3.4000e+000 99199 -2.4696e+002 -2.0995e+002  1.2206e+002 33450 99020,99150,99124
 3.4000e+000 99176 -2.4534e+002 -1.4671e+002  2.7943e+001 33450 98994,99150,99020
 3.4000e+000 99317 -1.6887e+002 -2.3138e+002  1.8994e+002 33450 99124,99098,99291
 3.4000e+000 99340 -2.7689e+002 -2.1661e+002  1.2920e+002 33450 99124,99291,99020
 3.4000e+000 99865 -1.5283e+002 -1.5584e+002  8.7121e+001 32944 100176,99960,99888
 3.4000e+000 99842 -1.8629e+002 -1.7341e+002  8.8074e+001 32944 100104,99888,99522
 3.4000e+000 99819 -1.4349e+002 -1.4299e+002  9.8396e+001 32944 100248,99960,99626
 3.4000e+000 99796 -1.6237e+002 -1.7429e+002  6.4005e+001 32944 100032,99652,99626
 3.4000e+000 99773 -1.6439e+002 -2.0751e+002  5.8268e+001 32944 100104,99522,99496
 3.4000e+000 99750 -1.0402e+002 -1.0539e+002  6.1363e+000 32944 99574,99626,99600
 3.4000e+000 99727 -1.1214e+002 -1.5162e+002  1.0784e+002 32944 100248,99626,99574
 3.4000e+000 99704 -1.0795e+002 -1.4718e+002  8.0553e+001 32944 99444,99496,99470
 3.4000e+000 99914 -1.6447e+002 -1.5197e+002  7.3778e+001 32944 100176,99888,100032
 3.4000e+000 99937 -1.8481e+002 -1.3095e+002  1.0346e+002 32944 99678,99888,99444
 3.4000e+000 99986 -1.7316e+002 -1.3305e+002  8.8066e+001 32944 99522,99888,99960
 3.4000e+000 100009 -1.6430e+002 -1.0236e+002  1.0918e+002 32944 99522,99960,99548
 3.4000e+000 100058 -1.7650e+002 -1.7817e+002  6.2622e+001 32944 99678,99652,100032
 3.4000e+000 100081 -2.0182e+002 -1.7053e+002  6.7663e+001 32944 99678,100032,99888
 3.4000e+000 100130 -1.4007e+002 -1.4310e+002  1.0330e+002 32944 99444,99888,100104
 3.4000e+000 100153 -1.2232e+002 -1.7272e+002  7.3937e+001 32944 99444,100104,99496
 3.4000e+000 100202 -1.6826e+002 -1.7712e+002  7.7030e+001 32944 99626,99960,100176
 3.4000e+000 100225 -1.7454e+002 -1.7631e+002  6.4263e+001 32944 99626,100176,100032
 3.4000e+000 100274 -1.8531e+002 -1.5109e+002  9.7582e+001 32944 99548,99960,100248
 3.4000e+000 100297 -1.5743e+002 -1.6208e+002  1.0722e+002 32944 99548,100248,99574
 3.4000e+000 100754 -1.5662e+001 -4.2331e+001  3.3263e+001 32369 100777,100584,100506
 3.4000e+000 100731 -3.8205e+001 -7.3024e+001  5.5189e+001 32369 100777,100506,100636
 3.4000e+000 100708 -8.0136e+001 -8.1134e+001  5.6783e+001 32369 100480,100636,100506
 3.4000e+000 100685 -1.6875e+002 -8.4708e+001 -3.3562e+000 32369 100532,100584,100558
 3.4000e+000 100662 -2.8627e+001 -7.0263e+001  3.6802e+001 32369 100506,100584,100532
 3.4000e+000 100803 -4.2121e+001 -2.5930e+000  2.1318e+001 32369 100610,100584,100777
 3.4000e+000 100826 -5.5423e+001 -3.1289e+001  3.9212e+001 32369 100610,100777,100636
 3.4000e+000 101025 -1.2630e+002 -1.3415e+002  1.2286e+002 31857 100875,100927,100901
 3.4000e+000 101002 -2.9481e+002 -1.3559e+001  1.4782e+002 31857 100875,100953,100927
 3.4000e+000 100979 -3.3298e+002 -4.9237e+001  8.0079e+001 31857 100849,100953,100875
 3.4000e+000 101533 -1.2844e+002 -1.8906e+002  1.3809e+002 31253 101556,101314,101236
 3.4000e+000 101510 -1.9138e+002 -2.0281e+002  1.3772e+002 31253 101556,101236,101210
 3.4000e+000 101487 -1.8661e+002 -1.9132e+002  6.5723e+001 31253 101210,101392,101340
 3.4000e+000 101464 -1.0589e+002 -1.9069e+002  9.8505e+001 31253 101236,101288,101262
 3.4000e+000 101441 -1.2194e+002 -2.6344e+002  1.2599e+002 31253 101236,101314,101288
 3.4000e+000 101418 -1.8444e+002 -2.3618e+002  1.1563e+002 31253 101340,101392,101366
 3.4000e+000 101582 -1.5037e+002 -1.7501e+002  8.5432e+001 31253 101340,101314,101556
 3.4000e+000 101605 -2.1330e+002 -1.8562e+002  8.7988e+001 31253 101340,101556,101210
 3.4000e+000 101755  2.5934e+000 -2.9886e+001  5.1095e+001 30519 101778,101654,101628
 3.4000e+000 101732 -6.3514e+001 -5.9466e+001  6.0095e+001 30519 101850,101778,101628
 3.4000e+000 101804 -6.7719e+001 -2.5615e+001  2.8106e+001 30519 101680,101654,101778
 3.4000e+000 101827 -3.6884e+001 -5.1967e+001  2.5787e+001 30519 101680,101778,101706
 3.4000e+000 101876 -1.0124e+002 -1.3981e+002 -5.2090e+000 30519 101706,101778,101850
 3.4000e+000 102561 -6.8035e+001 -1.3736e+002  8.0237e+001 29951 102656,102584,102270
 3.4000e+000 102538 -2.6763e+002 -3.1410e+002  5.1503e+001 29951 102584,102140,102374
 3.4000e+000 102515 -1.3899e+002 -3.3950e+002  1.7789e+002 29951 102728,102656,102270
 3.4000e+000 102492 -1.4280e+002 -4.1604e+002  1.7468e+002 29951 102728,102270,102244
 3.4000e+000 102469 -2.0808e+002 -3.6613e+001  8.7196e+001 29951 102800,102322,102296
 3.4000e+000 102446 -2.0865e+002 -1.4724e+002  4.2835e+001 29951 102166,102218,102192
 3.4000e+000 102423 -1.7471e+002 -1.5944e+002  2.2974e+001 29951 102166,102244,102218
 3.4000e+000 102400 -1.1445e+002 -1.2343e+002  4.7605e+001 29951 102322,102374,102348
 3.4000e+000 102610 -2.4355e+002 -7.8397e+001  4.5911e+001 29951 102296,102270,102584
 3.4000e+000 102633 -2.6948e+002 -1.2295e+002  5.8275e+001 29951 102800,102296,102584
 3.4000e+000 102682 -3.1417e+002 -2.9243e+002  1.5802e+002 29951 102140,102584,102656
 3.4000e+000 102705 -1.8574e+002 -2.9492e+002  2.2849e+002 29951 102140,102656,102166
 3.4000e+000 102754 -1.4052e+002 -2.5154e+002  2.1080e+002 29951 102166,102656,102728
 3.4000e+000 102777 -1.4792e+002 -3.1683e+002  1.9176e+002 29951 102166,102728,102244
 3.4000e+000 102826 -1.4858e+002 -1.3729e+002  1.2817e+002 29951 102374,102322,102800
 3.4000e+000 102849 -1.7137e+002 -1.6037e+002  1.1540e+002 29951 102374,102800,102584
 3.4000e+000 103048 -5.6853e+001 -1.6435e+002  6.5135e+001 29454 102872,102924,102898
 3.4000e+000 103025 -8.6040e+001 -3.6367e+002  1.0489e+002 29454 102872,102976,102924
 3.4000e+000 103002 -4.3458e+001 -3.9011e+002  1.5084e+002 29454 102924,102976,102950
 3.4000e+000 103296 -3.3540e+002 -2.9074e+002  1.8323e+002 29064 103319,103175,103123
 3.4000e+000 103273 -4.3325e+002 -2.8826e+002  2.1275e+002 29064 103319,103123,103071
 3.4000e+000 103250 -2.0707e+002 -1.8687e+002  1.2615e+002 29064 103123,103175,103149
 3.4000e+000 103227 -3.4514e+002 -2.1250e+002  2.5012e+002 29064 103071,103123,103097
 3.4000e+000 103345 -2.5022e+002 -3.0195e+002  1.4085e+002 29064 103201,103175,103319
 3.4000e+000 103368 -3.6630e+002 -2.7323e+002  1.3686e+002 29064 103201,103319,103071
 3.4000e+000 104006 -1.9279e+002 -1.1330e+002  8.7365e+001 28603 104101,104029,103712
 3.4000e+000 103983 -1.6950e+002 -6.6978e+001  7.5483e+001 28603 104173,104029,103660
 3.4000e+000 103960 -2.3342e+002 -9.7609e+001  8.5877e+001 28603 104101,103712,103686
 3.4000e+000 103937 -1.2473e+002 -7.9495e+001  7.4401e+001 28603 104173,103660,103634
 3.4000e+000 103914 -1.9916e+002 -1.2429e+002  1.0747e+002 28603 103764,103816,103790
 3.4000e+000 103891 -1.1525e+002 -6.6118e+001  1.0401e+002 28603 103634,103842,103816
 3.4000e+000 103868 -1.5210e+002 -6.9684e+001  1.0403e+002 28603 103712,103764,103738
 3.4000e+000 104055 -1.8529e+002 -7.9060e+001  9.0027e+001 28603 103764,103712,104029
 3.4000e+000 104078 -1.9009e+002 -8.9206e+001  1.0576e+002 28603 103764,104029,103816
 3.4000e+000 104127 -2.5006e+002 -1.0017e+002  7.3233e+001 28603 103660,104029,104101
 3.4000e+000 104150 -3.1612e+002 -1.0328e+002  8.4594e+001 28603 103660,104101,103686
 3.4000e+000 104199 -2.0321e+002 -7.4180e+001  8.8125e+001 28603 103816,104029,104173
 3.4000e+000 104222 -1.6725e+002 -8.9540e+001  8.1901e+001 28603 103816,104173,103634
 3.4000e+000 104600 -1.1441e+002 -2.4928e+002  5.0873e+001 28348 104623,104378,104326
 3.4000e+000 104577 -9.0964e+001 -2.6749e+002  9.7431e+001 28348 104623,104326,104482
 3.4000e+000 104554 -1.1946e+002 -1.8643e+002  4.8882e+001 28348 104326,104378,104352
 3.4000e+000 104531 -1.0180e+002 -2.6100e+000  9.8806e+000 28348 104404,104456,104430
 3.4000e+000 104508 -1.4511e+002 -1.4557e+002  7.5141e+001 28348 104378,104456,104404
 3.4000e+000 104649 -9.2418e+001 -2.0558e+002  6.3351e+001 28348 104456,104378,104623
 3.4000e+000 104672 -6.2561e+001 -2.1631e+002  1.1155e+002 28348 104456,104623,104482
 3.4000e+000 104991 -2.3843e+002 -2.5325e+002  1.7087e+002 27951 104717,104847,104769
 3.4000e+000 104968 -7.1709e+001 -1.7254e+002  1.4629e+002 27951 104717,104873,104847
 3.4000e+000 104945 -8.7247e+001 -2.2360e+002  1.7439e+002 27951 104769,104847,104795
 3.4000e+000 104922 -3.5309e+000 -7.9300e+000  1.6411e+002 27951 104795,104847,104821
 3.4000e+000 104899 -1.9758e+002 -1.5871e+002  1.6544e+002 27951 104717,104769,104743
 3.4000e+000 105371 -2.6529e+002 -2.0325e+002  1.4619e+002 27447 105394,105201,105123
 3.4000e+000 105348 -3.1707e+002 -1.9393e+002  1.9353e+002 27447 105394,105123,105097
 3.4000e+000 105325 -4.4936e+002 -2.1836e+002  1.4906e+002 27447 105123,105201,105149
 3.4000e+000 105302 -2.4236e+002 -2.9038e+002  1.6402e+002 27447 105201,105253,105227
 3.4000e+000 105279 -2.3987e+002 -3.3727e+002  1.5553e+001 27447 105149,105201,105175
 3.4000e+000 105420 -2.3545e+002 -1.7557e+002  1.2846e+002 27447 105253,105201,105394
 3.4000e+000 105443 -2.7922e+002 -1.4494e+002  1.7146e+002 27447 105253,105394,105097
 3.4000e+000 105998 -1.8370e+002 -1.6217e+002  1.4414e+002 27100 106165,106021,105704
 3.4000e+000 105975 -7.4864e+001 -8.0650e+001  1.2333e+002 27100 106309,106021,105652
 3.4000e+000 105952 -3.1521e+002 -2.6218e+002  2.5589e+002 27100 106093,105808,105782
 3.4000e+000 105929 -1.8084e+002 -1.7087e+002  1.3855e+002 27100 106165,105704,105678
 3.4000e+000 105906 -8.1464e+001 -2.2936e+002  1.0834e+002 27100 106237,105730,105704
 3.4000e+000 105883 -8.1355e+001 -1.3732e+002  8.6147e+001 27100 106309,105652,105626
 3.4000e+000 105860 -4.1429e+001 -7.8295e+000  1.5579e+001 27100 105730,105782,105756
 3.4000e+000 106047 -1.6076e+002 -1.3403e+002  1.5892e+002 27100 106237,105704,106021
 3.4000e+000 106070 -1.7500e+002 -1.3184e+002  1.9667e+002 27100 106093,105782,106021
 3.4000e+000 106119 -1.2137e+002 -2.1027e+002  1.2570e+002 27100 105834,105808,106093
 3.4000e+000 106142 -1.3710e+002 -2.6621e+002  1.6936e+002 27100 106381,106093,106021
 3.4000e+000 106191 -1.7814e+002 -1.4894e+002  1.5396e+002 27100 105652,106021,106165
 3.4000e+000 106214 -1.7689e+002 -1.6730e+002  1.5041e+002 27100 105652,106165,105678
 3.4000e+000 106263 -8.1751e+000 -1.2324e+002  7.6432e+001 27100 105782,105730,106237
 3.4000e+000 106286 -1.0530e+002 -5.3718e+001  1.3473e+002 27100 105782,106237,106021
 3.4000e+000 106335 -1.1643e+002 -1.6611e+002  1.3637e+002 27100 106381,106021,106309
 3.4000e+000 106358 -7.0824e+001 -9.2210e+001  7.3004e+001 27100 105834,106309,105626
 3.4000e+000 106407 -8.0814e+001 -1.4713e+002  1.0407e+002 27100 105834,106093,106381
 3.4000e+000 106430 -8.6240e+001 -1.2393e+002  6.6422e+001 27100 105834,106381,106309
 3.4000e+000 106629 -6.8217e+001 -2.9628e+002  6.8316e+001 26688 106479,106557,106531
 3.4000e+000 106606 -9.2032e+001 -2.4590e+002  6.7607e+001 26688 106453,106557,106479
 3.4000e+000 106583 -1.1615e+002 -2.9519e+002  2.0403e+001 26688 106479,106531,106505
 3.4000e+000 107088 -8.3059e+001 -8.9457e+001  3.8715e+001 26248 107111,106918,106866
 3.4000e+000 107065 -9.1772e+001 -7.9824e+001  4.8848e+001 26248 107111,106866,106840
 3.4000e+000 107042 -7.5711e+001 -6.4245e+001  4.8629e+001 26248 106814,106970,106840
 3.4000e+000 107019 -9.9783e+001 -1.5589e+002  4.1404e+001 26248 106866,106918,106892
 3.4000e+000 106996 -1.6467e+002 -1.3016e+002  3.9892e+001 26248 106918,106970,106944
 3.4000e+000 107137 -9.9985e+001 -1.0358e+002  2.8671e+001 26248 106970,106918,107111
 3.4000e+000 107160 -9.7198e+001 -8.3665e+001  4.0482e+001 26248 106970,107111,106840
 3.4000e+000 107666 -2.6245e+002 -1.1445e+002  9.9768e+001 25908 107369,107499,107395
 3.4000e+000 107643 -3.4718e+002 -3.3600e+002  1.7955e+002 25908 107369,107525,107499
 3.4000e+000 107620 -2.0941e+002 -1.4251e+002  1.1665e+002 25908 107395,107473,107447
 3.4000e+000 107597 -1.7971e+002 -8.1151e+001  9.0534e+001 25908 107395,107499,107473
 3.4000e+000 107574 -3.6730e+002 -2.0014e+002  2.7355e+002 25908 107395,107447,107421
 3.4000e+000 107551 -1.5480e+002 -2.6328e+002  1.5575e+002 25908 107343,107525,107369
 3.4000e+000 108251 -1.4845e+002 -6.3702e+001  1.0061e+002 25454 108274,108006,107954
 3.4000e+000 108228 -1.1895e+002 -3.3187e+001  7.7011e+001 25454 108274,107954,108110
 3.4000e+000 108205 -1.1364e+002 -1.3427e+002  1.1344e+002 25454 108346,108032,108006
 3.4000e+000 108182 -1.9106e+002 -1.0672e+002  1.2567e+002 25454 107954,108006,107980
 3.4000e+000 108159 -5.2958e+001 -8.3998e+001  6.6944e+001 25454 107928,108110,107954
 3.4000e+000 108136 -2.3951e+002 -2.8118e+002  1.4710e+002 25454 108058,108110,108084
 3.4000e+000 108300 -1.4287e+002 -1.0216e+002  1.1633e+002 25454 108346,108006,108274
 3.4000e+000 108323 -1.2548e+002 -6.2618e+001  9.2797e+001 25454 108058,108274,108110
 3.4000e+000 108372 -8.3328e+001 -9.2553e+001  9.8520e+001 25454 108058,108032,108346
 3.4000e+000 108395 -1.1184e+002 -5.2893e+001  1.0274e+002 25454 108058,108346,108274
 3.4000e+000 108822 -1.2009e+002 -8.9280e+001  7.1021e+001 24943 108525,108681,108655
 3.4000e+000 108799 -1.6237e+002 -1.2172e+002  3.4071e+001 24943 108499,108681,108525
 3.4000e+000 108776 -6.5076e+001 -6.7893e+001  5.2731e+001 24943 108525,108655,108629
 3.4000e+000 108753 -1.1581e+002 -5.4055e+001  4.6918e+001 24943 108525,108629,108603
 3.4000e+000 108730 -2.4837e+002 -7.8079e+001  9.7273e+001 24943 108551,108603,108577
 3.4000e+000 108707 -2.4060e+002 -1.5059e+002  1.3856e+002 24943 108525,108603,108551
 3.4000e+000 109407 -1.0759e+001 -4.2836e+001  2.1088e+001 24745 109162,109214,109188
 3.4000e+000 109384 -9.8911e+001 -4.9172e+001  2.8066e+001 24745 109162,109266,109214
 3.4000e+000 109361 -1.0835e+002 -5.3668e+001  1.9515e+001 24745 109084,109266,109162
 3.4000e+000 109338 -1.7451e+002 -2.7157e+001  4.6836e+001 24745 109084,109162,109136
 3.4000e+000 109315 -5.2373e+001 -8.6290e+001  3.4282e+001 24745 109214,109266,109240
 3.4000e+000 109292 -1.3040e+002 -3.8258e+001  7.1442e+001 24745 109084,109136,109110
 3.4000e+000 109785 -3.2705e+002 -1.5881e+002  1.9776e+002 24341 109537,109615,109563
 3.4000e+000 109762 -3.1685e+001 -7.2061e+001  1.7043e+002 24341 109537,109641,109615
 3.4000e+000 109739 -2.1214e+002 -1.6453e+002  1.4208e+002 24341 109563,109615,109589
 3.4000e+000 109716 -1.3908e+002 -1.3015e+002  1.1806e+002 24341 109537,109667,109641
 3.4000e+000 109693 -7.9630e+001 -1.5769e+002  1.0268e+002 24341 109511,109667,109537
 3.4000e+000 110163 -3.5412e+002 -2.0949e+002  2.0600e+002 23837 110186,109967,109915
 3.4000e+000 110140 -3.3767e+002 -2.1976e+002  2.2391e+002 23837 110186,109915,109889
 3.4000e+000 110117 -1.5095e+002 -8.4112e+001  1.6982e+002 23837 109889,110045,109993
 3.4000e+000 110094 -3.4520e+002 -2.9054e+002  1.6605e+002 23837 109915,109967,109941
 3.4000e+000 110071 -1.9710e+002 -9.7770e+000  3.5301e+001 23837 109993,110045,110019
 3.4000e+000 110212 -3.4129e+002 -1.9232e+002  2.1258e+002 23837 109993,109967,110186
 3.4000e+000 110235 -3.3046e+002 -1.9967e+002  2.2955e+002 23837 109993,110186,109889
 3.4000e+000 110336 -1.6330e+002 -3.7852e+002  1.7526e+002 23433 110258,110310,110284
 3.4000e+000 110584 -2.1982e+002 -1.5693e+002  9.9492e+001 22829 110607,110411,110385
 3.4000e+000 110561 -2.6470e+002 -1.7994e+002  1.3447e+002 22829 110607,110385,110489
 3.4000e+000 110538 -1.8025e+002 -1.6708e+002  8.5325e+001 22829 110437,110489,110463
 3.4000e+000 110515 -2.1239e+002 -1.1436e+002  1.5711e+002 22829 110359,110489,110385
 3.4000e+000 110633 -2.1780e+002 -1.2073e+002  6.5687e+001 22829 110437,110411,110607
 3.4000e+000 110656 -2.4348e+002 -1.4631e+002  9.8696e+001 22829 110437,110607,110489
 3.4000e+000 110906 -4.4331e+002 -1.8632e+002  1.4991e+002 22432 110707,110759,110733
 3.4000e+000 110883 -2.5784e+002 -2.0869e+002  1.2153e+002 22432 110707,110785,110759
 3.4000e+000 110860 -2.5124e+002 -1.9244e+002  1.6747e+002 22432 110707,110811,110785
 3.4000e+000 110837 -3.2276e+002 -2.3964e+002  1.2970e+002 22432 110681,110811,110707
 3.4000e+000 111288 -4.4652e+001 -1.0679e+002  9.5586e+001 22142 111092,111144,111118
 3.4000e+000 111265 -1.1996e+002 -9.0237e+001  7.4433e+001 22142 111066,111144,111092
 3.4000e+000 111242 -1.1689e+002 -8.9865e+001  6.4484e+001 22142 111040,111144,111066
 3.4000e+000 111219 -2.3537e+002 -1.9062e+001  4.4379e+001 22142 111014,111144,111040
 3.4000e+000 111196 -1.4747e+002  2.4722e+000  6.1270e+001 22142 111014,111170,111144
 3.4000e+000 111389 -2.7075e+001 -7.0719e+001  1.3758e+002 21830 111311,111363,111337
 3.4000e+000 111735 -2.9366e+002 -2.6228e+001  2.1526e+002 21268 111758,111542,111438
 3.4000e+000 111712 -1.9807e+002  5.9621e+000  1.4046e+002 21268 111758,111438,111412
 3.4000e+000 111689 -9.3531e+001 -1.9390e+002  2.5986e+002 21268 111438,111542,111464
 3.4000e+000 111666  7.1837e+000 -1.4403e+002  3.4832e+002 21268 111464,111542,111490
 3.4000e+000 111643 -4.9373e+002 -2.6004e+002  2.6952e+002 21268 111412,111594,111568
 3.4000e+000 111620  1.9725e+002  1.1290e+002  4.5633e+002 21268 111490,111542,111516
 3.4000e+000 111784 -3.2162e+002 -5.5639e+001  2.3210e+002 21268 111568,111542,111758
 3.4000e+000 111807 -2.9437e+002 -1.3874e+002  1.8322e+002 21268 111568,111758,111412
 3.4000e+000 111959 -3.3916e+002 -3.9226e+001  1.0953e+002 20864 111982,111910,111884
 3.4000e+000 111936 -3.0080e+002 -6.4613e+001  1.6152e+002 20864 112114,111832,111910
 3.4000e+000 112008 -3.3611e+002 -1.2741e+002  1.3603e+002 20864 112114,111910,111982
 3.4000e+000 112140 -2.8883e+002 -1.4066e+002  1.1651e+002 20864 111858,111832,112114
 3.4000e+000 112163 -3.2727e+002 -2.1457e+002  9.2241e+001 20864 111858,112114,111982
 3.4000e+000 112411 -3.4787e+001 -6.8392e+000  1.2723e+001 20324 112186,112290,112212
 3.4000e+000 112388 -1.5008e+001 -2.7649e+000  1.6220e+001 20324 112186,112316,112290
 3.4000e+000 112365  1.1686e+002 -8.7109e+001  9.0105e+000 20324 112212,112290,112264
 3.4000e+000 112342 -4.4334e+002 -1.8994e+002 -2.5608e+001 20324 112212,112264,112238
 3.4000e+000 112659 -1.9623e+001 -5.5159e+000  1.3501e+002 19920 112512,112564,112538
 3.4000e+000 112636 -1.5285e+002 -5.7693e+001  8.7665e+001 19920 112434,112564,112512
 3.4000e+000 112613 -1.6021e+002 -1.0584e+002  1.0163e+002 19920 112434,112512,112460
 3.4000e+000 112590 -1.8206e+002 -1.1572e+002  1.0896e+002 19920 112460,112512,112486
 3.4000e+000 112811 -2.7628e+001 -1.1423e+001  5.1017e+001 19630 112684,112736,112710
 3.4000e+000 112788  4.5616e+001 -6.3648e+001  1.1251e+001 19630 112684,112762,112736
 3.4000e+000 113012 -1.3519e+002 -5.4341e+001  1.5238e+002 19169 112862,112940,112888
 3.4000e+000 112989 -2.2971e+002 -1.9296e+002  1.1119e+002 19169 112836,112940,112862
 3.4000e+000 112966 -1.1070e+002 -1.6638e+002  1.1899e+002 19169 112888,112940,112914
 3.4000e+000 113213 -2.5286e+002 -1.0543e+002  1.3723e+002 18600 113037,113089,113063
 3.4000e+000 113190 -1.6136e+002 -9.7841e+001  1.1736e+002 18600 113037,113115,113089
 3.4000e+000 113167 -2.6843e+002 -2.0703e+002  1.8709e+002 18600 113037,113141,113115
 3.4000e+000 113485 -1.4841e+002 -6.0202e+001  1.4795e+002 18352 113260,113312,113286
 3.4000e+000 113462 -2.9418e+002 -1.8741e+002  2.0287e+002 18352 113260,113390,113312
 3.4000e+000 113439 -2.7510e+002 -6.3029e+001  1.5627e+002 18352 113312,113390,113364
 3.4000e+000 113416 -1.1168e+002 -4.3751e+001  1.6092e+002 18352 113312,113364,113338
 3.4000e+000 113757 -2.1578e+002 -8.8737e+001  1.5547e+002 17834 113558,113610,113584
 3.4000e+000 113734 -3.0913e+002 -1.7716e+002  2.0078e+002 17834 113532,113610,113558
 3.4000e+000 113711 -3.2011e+002 -2.1397e+002  1.6660e+002 17834 113532,113662,113610
 3.4000e+000 113688 -1.6585e+002 -6.2958e+001  2.2844e+002 17834 113610,113662,113636
 3.4000e+000 113958 -2.1406e+002 -8.9509e+001  1.2023e+002 17330 113782,113834,113808
 3.4000e+000 113935 -1.0349e+002 -6.7877e+001  8.2754e+001 17330 113782,113886,113834
 3.4000e+000 113912 -1.3078e+002 -6.1686e+001  5.3012e+001 17330 113834,113886,113860
 3.4000e+000 114110 -3.2466e+002 -1.3235e+002  2.0827e+002 16874 113983,114035,114009
 3.4000e+000 114087 -1.2144e+002 -2.8309e+002  1.6626e+002 16874 113983,114061,114035
 3.4000e+000 114465 -3.4381e+002 -1.4621e+002  8.5447e+001 16270 114240,114292,114266
 3.4000e+000 114442 -3.0153e+002 -6.4017e+001  4.1713e+001 16270 114240,114370,114292
 3.4000e+000 114419 -1.4818e+002 -6.2924e+001  6.2177e+001 16270 114292,114344,114318
 3.4000e+000 114396 -3.4824e+002 -1.5812e+002  2.3313e+001 16270 114292,114370,114344
 3.4000e+000 114566 -8.2892e+000  8.2892e+000  2.7649e+002 15834 114488,114540,114514
 3.4000e+000 114667 -2.1289e+002 -8.8193e+001  1.3989e+002 15155 114589,114641,114615
 3.4000e+000 114890 -1.3385e+002 -5.1258e+001  1.9198e+002 421 114766,114818,114792
 3.4000e+000 114867 -2.2585e+002 -2.1714e+002  1.5373e+002 421 114714,114818,114766
 3.4000e+000 114844 -3.3874e+002 -1.4379e+002  9.2311e+001 421 114714,114766,114740
 3.5000e+000 66553 -9.7733e+001 -4.0622e+001  2.8999e+001 66108 66354,66458,66432
 3.5000e+000 66530 -8.2879e+001 -3.5896e+001  3.7202e+001 66108 66328,66458,66354
 3.5000e+000 66507 -6.2917e+001 -2.1359e+001  1.2813e+001 66108 66354,66432,66406
 3.5000e+000 66484 -1.7491e+001 -7.3857e+000  2.6057e+001 66108 66354,66406,66380
 3.5000e+000 66951 -1.9946e+002 -8.5627e+001  1.5718e+001 65910 66703,66833,66807
 3.5000e+000 66928 -1.5406e+002 -8.1611e+001  2.3628e+001 65910 66677,66833,66703
 3.5000e+000 66905 -2.9556e+001 -5.3753e+001  3.6526e+001 65910 66729,66781,66755
 3.5000e+000 66882 -1.3849e+002 -5.9354e+001  2.5908e+001 65910 66729,66807,66781
 3.5000e+000 66859 -1.5559e+002 -5.1713e+001  3.0753e+001 65910 66703,66807,66729
 3.5000e+000 67150 -1.4887e+002 -6.3677e+001  5.6103e+001 65712 67026,67078,67052
 3.5000e+000 67127 -2.8843e+002 -5.3968e+001  5.8641e+001 65712 66974,67078,67026
 3.5000e+000 67104 -5.4025e+002 -1.8907e+002  9.3242e+001 65712 66974,67026,67000
 3.5000e+000 67481 -2.1114e+002 -4.6112e+001  7.4793e+001 65422 67282,67360,67334
 3.5000e+000 67458 -1.1404e+002 -4.7134e+001  1.0281e+002 65422 67282,67386,67360
 3.5000e+000 67435 -7.8132e+001  3.0095e+001  4.2535e+001 65422 67282,67334,67308
 3.5000e+000 67412 -5.7710e+000 -2.0409e+001  2.8177e+001 65422 67256,67386,67282
 3.5000e+000 68115 -8.4511e+001 -2.2842e+001  1.5382e+001 65018 67795,67925,67873
 3.5000e+000 68092 -9.5988e+001 -2.8928e+001  4.1788e+001 65018 67769,67925,67795
 3.5000e+000 68069 -5.0373e+001 -2.6113e+001  2.6140e+001 65018 67873,67925,67899
 3.5000e+000 68046 -1.3105e+002 -8.3544e+001  6.3455e+001 65018 67769,67951,67925
 3.5000e+000 68023 -1.2097e+002 -8.1799e+001  3.0806e+001 65018 67795,67873,67821
 3.5000e+000 68000 -1.5774e+002 -7.7832e+001  1.4848e+001 65018 67821,67873,67847
 3.5000e+000 67977 -8.7330e+001 -9.9519e+001  4.6679e+001 65018 67743,67951,67769
 3.5000e+000 68363 -1.2376e+002 -2.8344e+002  1.5707e+002 64820 68190,68242,68216
 3.5000e+000 68340 -2.0541e+002 -1.7871e+002  1.6098e+002 64820 68190,68268,68242
 3.5000e+000 68317 -1.0464e+002 -1.3160e+002  1.8660e+002 64820 68164,68268,68190
 3.5000e+000 68294 -3.5008e+002 -1.4873e+002  1.0515e+002 64820 68138,68268,68164
 3.5000e+000 68513 -2.1397e+002 -1.1997e+002  6.1757e+001 64366 68868,68536,68438
 3.5000e+000 68490 -1.4492e+002 -5.6465e+001  5.8290e+001 64366 68536,68412,68386
 3.5000e+000 68562 -2.0854e+002 -9.4042e+001  9.5871e+001 64366 68740,68536,68464
 3.5000e+000 68585 -1.6419e+002 -5.4633e+001  6.6191e+001 64366 68608,68536,68386
 3.5000e+000 68634 -1.9695e+002 -1.3499e+002  6.2314e+001 64366 68464,68536,68608
 3.5000e+000 68766 -2.1893e+002 -8.6485e+001  9.0851e+001 64366 68438,68536,68740
 3.5000e+000 68894 -1.4604e+002 -5.3536e+001  9.1195e+001 64366 68412,68536,68868
 3.5000e+000 69172 -2.7715e+002 -2.0947e+002 -1.6709e+000 64168 69022,69074,69048
 3.5000e+000 69149 -3.8188e+002 -1.6405e+002  3.1631e+001 64168 68996,69074,69022
 3.5000e+000 69126 -3.8000e+002 -1.6650e+002  5.0323e+001 64168 68996,69100,69074
 3.5000e+000 69371 -1.4063e+002 -6.0748e+001  8.4452e+001 63970 69466,69394,69273
 3.5000e+000 69348 -2.0102e+002 -9.2921e+001  9.0647e+001 63970 69394,69247,69221
 3.5000e+000 69325 -1.3958e+002 -5.9844e+001  1.6273e+001 63970 69195,69299,69221
 3.5000e+000 69420 -4.7837e+001 -7.4866e+001  3.7238e+001 63970 69299,69273,69394
 3.5000e+000 69443 -1.6178e+002 -1.1625e+002  4.1430e+001 63970 69299,69394,69221
 3.5000e+000 69492 -1.6535e+002 -7.6664e+001  7.1096e+001 63970 69247,69394,69466
 3.5000e+000 69904 -3.4208e+001 -1.7493e+002  4.5747e+001 63680 69705,69783,69731
 3.5000e+000 69881  1.2079e+000 -1.2838e+002  1.5973e+001 63680 69679,69783,69705
 3.5000e+000 69858 -1.7772e+002 -1.5512e+002  5.0046e+001 63680 69679,69809,69783
 3.5000e+000 69835 -1.5113e+002 -2.6305e+002  7.4891e+000 63680 69731,69783,69757
 3.5000e+000 70054 -7.0344e+001 -9.3629e+001  3.0142e+001 63476 70077,69953,69927
 3.5000e+000 70031 -4.7503e+001 -5.7042e+001  4.7914e+001 63476 70077,69927,70005
 3.5000e+000 70103 -1.0114e+002 -6.8339e+001  1.4791e+001 63476 69979,69953,70077
 3.5000e+000 70126 -8.2750e+001 -3.5331e+001  2.9650e+001 63476 69979,70077,70005
 3.5000e+000 70325 -3.2098e+002 -1.7126e+002  6.2153e+001 63278 70149,70227,70175
 3.5000e+000 70302 -2.4251e+002 -1.0375e+002  1.1491e+002 63278 70149,70253,70227
 3.5000e+000 70279 -3.3166e+002 -2.3688e+002  7.3969e+001 63278 70175,70227,70201
 3.5000e+000 70597 -1.2928e+002 -6.3051e+001  3.0020e+001 63080 70372,70476,70424
 3.5000e+000 70574 -1.9552e+002 -8.3918e+001  7.6994e+000 63080 70372,70502,70476
 3.5000e+000 70551 -9.9897e+001 -4.2880e+001  4.7746e+000 63080 70424,70476,70450
 3.5000e+000 70528 -1.5377e+002 -7.2149e+001  2.5054e+001 63080 70372,70424,70398
 3.5000e+000 70847 -6.4794e+001 -1.0375e+002  4.1417e+001 62740 70870,70648,70622
 3.5000e+000 70824 -4.4669e+001 -9.8216e+001  3.1678e+001 62740 70870,70622,70752
 3.5000e+000 70801 -3.5731e+001 -7.8378e+001  1.5224e+001 62740 70648,70726,70700
 3.5000e+000 70778 -3.8625e+001 -8.8369e+001  1.5058e+001 62740 70648,70700,70674
 3.5000e+000 70896 -4.3668e+001 -1.0426e+002  3.7152e+001 62740 70726,70648,70870
 3.5000e+000 70919 -3.2068e+001 -1.0298e+002  2.6276e+001 62740 70726,70870,70752
 3.5000e+000 71022 -5.7543e+000  5.7543e+000  2.3040e+002 62520 70944,70996,70970
 3.5000e+000 71223 -3.0853e+002 -2.1692e+002  1.8571e+002 62230 71073,71151,71099
 3.5000e+000 71200 -2.2453e+002 -1.8703e+002  1.8019e+002 62230 71047,71151,71073
 3.5000e+000 71177 -1.6217e+002 -3.6014e+002  1.2712e+002 62230 71099,71151,71125
 3.5000e+000 71861 -4.1285e+001 -1.1219e+001  2.2749e+001 61712 71515,71697,71671
 3.5000e+000 71838 -4.1129e+001 -6.6499e+000  3.8623e+000 61712 71489,71697,71515
 3.5000e+000 71815 -2.7225e+002 -8.8431e+001  1.2807e+002 61712 71884,71541,71515
 3.5000e+000 71792 -1.7897e+002  5.5676e+000  8.6007e+001 61712 71884,71515,71671
 3.5000e+000 71769 -5.8936e+001 -1.8661e+002  8.2159e+001 61712 71541,71619,71593
 3.5000e+000 71746 -4.4568e+001 -4.3124e+001  7.1324e+001 61712 71619,71671,71645
 3.5000e+000 71723 -3.0127e+002 -3.4915e+002  2.0608e+002 61712 71541,71593,71567
 3.5000e+000 71910 -1.7156e+002 -1.7824e+002  1.5950e+002 61712 71619,71541,71884
 3.5000e+000 71933 -1.1421e+002 -1.1199e+002  1.2813e+002 61712 71619,71884,71671
 3.5000e+000 72230 -3.1997e+002 -3.0549e+002  7.3439e+001 61208 72253,72060,72008
 3.5000e+000 72207 -2.8760e+002 -2.0127e+002  7.5934e+001 61208 72253,72008,71982
 3.5000e+000 72184 -2.2353e+002 -1.1019e+002  5.3227e+001 61208 71982,72112,72086
 3.5000e+000 72161 -3.6743e+002 -2.8385e+002  1.1775e+002 61208 72008,72060,72034
 3.5000e+000 72138 -1.6777e+002 -3.4619e+001  7.8077e+001 61208 71956,72112,71982
 3.5000e+000 72279 -3.3007e+002 -2.2761e+002  2.9220e+001 61208 72086,72060,72253
 3.5000e+000 72302 -3.2692e+002 -1.6886e+002  2.8970e+001 61208 72086,72253,71982
 3.5000e+000 72761 -9.3416e+001 -1.3999e+002  1.0120e+001 60804 72487,72617,72513
 3.5000e+000 72738 -1.2963e+002 -1.1323e+002  3.3757e+001 60804 72487,72643,72617
 3.5000e+000 72715 -3.1021e+001 -3.9693e+002  1.8797e+001 60804 72565,72617,72591
 3.5000e+000 72692 -1.6218e+002 -2.1713e+002  6.9283e+001 60804 72513,72617,72565
 3.5000e+000 72669 -1.5785e+002 -2.4870e+002 -2.0234e+001 60804 72513,72565,72539
 3.5000e+000 72911 -5.7543e+000  5.7543e+000  2.3040e+002 60556 72784,72836,72810
 3.5000e+000 72888  1.9715e+002  9.3151e+001  1.3312e+002 60556 72784,72862,72836
 3.5000e+000 73468 -5.2205e+001 -7.9525e+001  1.5637e+001 60244 73491,73226,73200
 3.5000e+000 73445 -1.1362e+002 -1.5789e+002  6.3212e+001 60244 73563,73491,73200
 3.5000e+000 73422 -2.0998e+002 -1.4394e+002  8.0547e+001 60244 73563,73200,73174
 3.5000e+000 73399 -4.2064e+001 -1.7535e+002  4.4196e+001 60244 73226,73278,73252
 3.5000e+000 73376 -1.8493e+002 -1.3132e+002  6.3143e+001 60244 73122,73304,73278
 3.5000e+000 73353 -1.9698e+002 -1.2445e+002  5.3495e+001 60244 73096,73304,73122
 3.5000e+000 73330 -3.3605e+002 -1.6342e+002 -5.2311e+001 60244 73122,73174,73148
 3.5000e+000 73517 -1.5025e+002 -1.4477e+002  7.3719e+001 60244 73278,73226,73491
 3.5000e+000 73540 -1.4371e+002 -1.1856e+002  6.5538e+001 60244 73278,73491,73122
 3.5000e+000 73589 -2.7275e+002 -1.5880e+002  6.6449e+001 60244 73122,73491,73563
 3.5000e+000 73612 -3.6573e+002 -1.4427e+002  8.9342e+001 60244 73122,73563,73174
 3.5000e+000 73762 -6.2503e+001 -1.4741e+002  1.4302e+002 59875 73661,73713,73687
 3.5000e+000 73739 -1.7337e+002 -1.0431e+002  1.1105e+002 59875 73635,73713,73661
 3.5000e+000 74191 -1.4596e+002 -3.3970e+002  1.3208e+002 59478 74214,73894,73868
 3.5000e+000 74168 -2.1451e+002 -3.3830e+002  1.4422e+002 59478 74214,73868,74050
 3.5000e+000 74145 -2.2245e+002 -2.8630e+002  8.6566e+001 59478 73894,73946,73920
 3.5000e+000 74122 -1.7762e+002 -3.2010e+002  8.0055e+001 59478 73894,73998,73946
 3.5000e+000 74099 -4.1262e+002 -3.7847e+002  2.4957e+002 59478 73998,74050,74024
 3.5000e+000 74076 -2.4379e+002 -3.3636e+002  3.7239e+001 59478 73946,73998,73972
 3.5000e+000 74240 -2.0889e+002 -3.1619e+002  1.0857e+002 59478 73998,73894,74214
 3.5000e+000 74263 -2.7490e+002 -3.1627e+002  1.0995e+002 59478 73998,74214,74050
 3.5000e+000 74720 -1.5836e+002 -1.0045e+002  6.5651e+001 58774 74472,74602,74498
 3.5000e+000 74697 -1.9224e+002 -1.2764e+002  5.2809e+001 58774 74446,74602,74472
 3.5000e+000 74674 -1.8742e+002 -8.7273e+001  7.3103e+001 58774 74498,74576,74524
 3.5000e+000 74651 -1.7240e+002 -1.0195e+002  5.6705e+001 58774 74498,74602,74576
 3.5000e+000 74628 -1.8260e+002 -2.5095e+001  5.1955e+001 58774 74524,74576,74550
 3.5000e+000 75226 -1.1776e+002 -1.2566e+002  8.5230e+001 58270 74955,75085,75033
 3.5000e+000 75203 -1.2569e+002 -1.5446e+002  8.2135e+001 58270 74929,75085,74955
 3.5000e+000 75180 -1.9797e+002 -1.5179e+002  1.4836e+002 58270 75033,75085,75059
 3.5000e+000 75157 -1.9218e+002 -2.3426e+002  6.4134e+001 58270 74955,75007,74981
 3.5000e+000 75134 -1.5326e+002 -1.3634e+002  2.9617e+001 58270 74955,75033,75007
 3.5000e+000 75111 -2.1018e+001 -1.4935e+002  5.3917e+001 58270 74903,75085,74929
 3.5000e+000 75425 -1.4145e+002 -1.6915e+002  7.5391e+001 57830 75448,75301,75249
 3.5000e+000 75402 -8.4592e+001 -1.1369e+002  5.1686e+001 57830 75448,75249,75353
 3.5000e+000 75379 -1.9473e+002 -2.4040e+002  6.1618e+001 57830 75520,75301,75275
 3.5000e+000 75474 -1.2156e+002 -2.1124e+002  1.2432e+002 57830 75327,75301,75448
 3.5000e+000 75497 -7.8457e+001 -1.7813e+002  1.0505e+002 57830 75327,75448,75353
 3.5000e+000 75546 -1.0527e+002 -1.9243e+002  2.9478e+001 57830 75249,75301,75520
 3.5000e+000 76261 -7.3193e+001 -1.4907e+002  6.8028e+001 57426 76284,76097,76071
 3.5000e+000 76238 -1.0739e+002 -8.9469e+001  7.5684e+001 57426 75889,76097,75915
 3.5000e+000 76215 -1.0322e+002 -1.5115e+002  7.9903e+001 57426 76428,76284,76071
 3.5000e+000 76192 -8.2637e+001 -1.2973e+002  4.0615e+001 57426 76356,75941,75915
 3.5000e+000 76169 -9.6962e+001 -1.3219e+002  8.1771e+001 57426 76428,76071,76019
 3.5000e+000 76146 -1.1566e+002 -1.9020e+002  7.3786e+001 57426 76019,76071,76045
 3.5000e+000 76123 -1.2034e+002 -1.3293e+002  1.1402e+002 57426 75967,76019,75993
 3.5000e+000 76310 -7.9538e+001 -1.6101e+002  5.5022e+001 57426 75915,76097,76284
 3.5000e+000 76333 -9.1339e+001 -1.4674e+002  4.4352e+001 57426 76356,75915,76284
 3.5000e+000 76382 -1.0516e+002 -1.0869e+002  5.7521e+001 57426 75967,75941,76356
 3.5000e+000 76405 -1.0936e+002 -1.1910e+002  5.8677e+001 57426 75967,76356,76284
 3.5000e+000 76454 -1.0914e+002 -1.2990e+002  7.7359e+001 57426 75967,76284,76428
 3.5000e+000 76477 -1.0623e+002 -1.1660e+002  8.0870e+001 57426 75967,76428,76019
 3.5000e+000 76953 -1.0713e+002 -1.6641e+002  1.1262e+002 56908 76976,76711,76685
 3.5000e+000 76930 -1.1065e+002 -1.7269e+002  1.0892e+002 56908 77048,76976,76685
 3.5000e+000 76907 -2.0059e+002 -2.0790e+002  1.5242e+002 56908 77048,76685,76633
 3.5000e+000 76884 -3.1054e+002 -2.1589e+002  1.5952e+002 56908 76711,76789,76763
 3.5000e+000 76861 -1.5695e+002 -3.8669e+001  5.3361e+001 56908 76581,76789,76607
 3.5000e+000 76838 -2.7544e+002 -6.4234e+001  9.1950e+001 56908 76711,76763,76737
 3.5000e+000 76815 -5.6558e+002 -4.4971e+002  3.0004e+002 56908 76633,76685,76659
 3.5000e+000 77002 -1.4581e+002 -1.7619e+002  9.6852e+001 56908 76789,76711,76976
 3.5000e+000 77025 -1.3122e+002 -1.9789e+001  6.2807e+001 56908 76789,76976,76607
 3.5000e+000 77074 -2.5084e+002 -1.5032e+002  1.2087e+002 56908 76607,76976,77048
 3.5000e+000 77097 -2.9454e+002 -1.4054e+002  1.5617e+002 56908 76607,77048,76633
 3.5000e+000 77475 -9.2691e+001 -8.2883e+001  8.9757e+001 56546 77570,77498,77279
 3.5000e+000 77452 -6.1997e+001 -1.5850e+002  1.1280e+002 56546 77498,77227,77357
 3.5000e+000 77429 -1.0607e+002 -9.9442e+001  1.0558e+002 56546 77570,77279,77253
 3.5000e+000 77406 -1.5686e+002 -2.0752e+002  1.4103e+002 56546 77201,77357,77227
 3.5000e+000 77383 -9.5709e+001 -8.4796e+001  2.3888e+001 56546 77279,77331,77305
 3.5000e+000 77524 -8.3249e+001 -1.2100e+000  8.4450e+001 56546 77331,77279,77498
 3.5000e+000 77547 -3.3459e+001 -7.7601e+001  1.4512e+002 56546 77331,77498,77357
 3.5000e+000 77596 -1.0306e+002 -9.1497e+001  1.1913e+002 56546 77227,77498,77570
 3.5000e+000 77619 -1.2222e+002 -1.3741e+002  1.3413e+002 56546 77227,77570,77253
 3.5000e+000 77818 -1.0008e+002 -1.1006e+002  9.4827e+001 56042 77841,77694,77668
 3.5000e+000 77795 -7.4200e+001 -9.2187e+001  7.5338e+001 56042 77841,77668,77746
 3.5000e+000 77772 -9.6691e+001 -4.5229e+001  6.8160e+001 56042 77642,77746,77668
 3.5000e+000 77867 -1.1481e+002 -1.2569e+002  1.1595e+002 56042 77720,77694,77841
 3.5000e+000 77890 -8.4825e+001 -1.0444e+002  9.5935e+001 56042 77720,77841,77746
 3.5000e+000 78349 -2.0595e+002 -1.3247e+002  1.0252e+002 55538 78075,78127,78101
 3.5000e+000 78326 -2.4887e+002 -1.6824e+002  6.0461e+001 55538 78075,78205,78127
 3.5000e+000 78303 -3.0359e+002 -9.9667e+001  8.5074e+001 55538 78075,78231,78205
 3.5000e+000 78280 -1.5542e+002 -2.4904e+002  1.4420e+002 55538 78127,78179,78153
 3.5000e+000 78257 -1.6769e+002 -1.6166e+002  5.6458e+001 55538 78127,78205,78179
 3.5000e+000 78806 -1.1947e+002 -1.1636e+002  4.9804e+001 55034 78829,78636,78610
 3.5000e+000 78783 -1.2671e+002 -1.1898e+002  5.2880e+001 55034 78901,78829,78610
 3.5000e+000 78760 -9.3921e+001 -1.2580e+002  6.1290e+001 55034 78901,78610,78584
 3.5000e+000 78737 -1.1596e+002 -1.0310e+002  7.0086e+001 55034 78558,78688,78662
 3.5000e+000 78714 -1.2099e+002 -1.0656e+002  9.9588e+001 55034 78532,78688,78558
 3.5000e+000 78855 -1.2708e+002 -1.3288e+002  4.3678e+001 55034 78662,78636,78829
 3.5000e+000 78878 -1.3031e+002 -1.1208e+002  6.5075e+001 55034 78662,78829,78558
 3.5000e+000 78927 -1.0040e+002 -9.7093e+001  7.4174e+001 55034 78558,78829,78901
 3.5000e+000 78950 -8.7742e+001 -1.0964e+002  8.4629e+001 55034 78558,78901,78584
 3.5000e+000 79407 -5.8423e+001 -6.7477e+001  7.8152e+001 54430 79430,79237,79159
 3.5000e+000 79384 -4.0369e+001 -1.1155e+002  2.4984e+001 54430 79430,79159,79133
 3.5000e+000 79361 -9.3048e+001 -8.5357e+001  3.8688e+001 54430 79237,79289,79263
 3.5000e+000 79338 -6.5750e+001 -1.2712e+002  4.3765e+001 54430 79185,79237,79211
 3.5000e+000 79315 -1.4319e+002 -1.2739e+002  1.0525e+002 54430 79159,79237,79185
 3.5000e+000 79456 -7.0415e+001 -1.2160e+002  6.3884e+001 54430 79289,79237,79430
 3.5000e+000 79479 -5.8890e+001 -1.9398e+002  2.1710e+001 54430 79289,79430,79133
 3.5000e+000 79936 -7.6717e+001 -5.7484e+001  8.4679e+001 53919 79662,79766,79688
 3.5000e+000 79913 -2.9803e+002 -1.1639e+002  1.6500e+002 53919 79662,79818,79766
 3.5000e+000 79890 -3.8670e+002 -1.2106e+002  4.2734e+001 53919 79766,79818,79792
 3.5000e+000 79867 -2.0980e+002 -1.7913e+002  9.2012e+001 53919 79714,79766,79740
 3.5000e+000 79844 -1.8372e+002 -1.2952e+002  1.2588e+002 53919 79688,79766,79714
 3.5000e+000 80037 -1.2850e+002 -3.0822e+002  1.0404e+002 53671 79959,80011,79985
 3.5000e+000 80405 -8.4681e+001 -2.1874e+002  7.2217e+001 53267 80108,80264,80238
 3.5000e+000 80382 -1.6371e+002 -2.3321e+002  6.6399e+001 53267 80082,80264,80108
 3.5000e+000 80359 -9.1949e+001 -2.2958e+002  7.9157e+001 53267 80108,80238,80134
 3.5000e+000 80336 -3.8926e+001 -7.9368e+001  6.8794e+001 53267 80134,80212,80186
 3.5000e+000 80313 -1.0881e+002 -1.8450e+002  1.4066e+002 53267 80134,80238,80212
 3.5000e+000 80290 -3.3340e+001 -1.0056e+002  5.1311e+001 53267 80134,80186,80160
 3.5000e+000 80915 -2.1973e+002 -3.2096e+002  3.7429e+001 52969 80644,80774,80748
 3.5000e+000 80892 -2.0016e+002 -2.1712e+002  2.6163e+001 52969 80618,80774,80644
 3.5000e+000 80869 -2.6861e+002 -3.8841e+002  8.9130e-001 52969 80644,80748,80670
 3.5000e+000 80846 -2.4560e+002 -2.4137e+002  1.7599e+001 52969 80592,80774,80618
 3.5000e+000 80823 -3.0519e+002 -3.0670e+002  3.4296e+001 52969 80670,80722,80696
 3.5000e+000 80800 -2.2910e+002 -2.7431e+002  5.5601e+000 52969 80670,80748,80722
 3.5000e+000 81266  1.1207e+001 -2.4354e+000  2.9014e-001 52565 81041,81145,81067
 3.5000e+000 81243  1.4551e+001 -5.0791e+000 -1.6270e+000 52565 81041,81171,81145
 3.5000e+000 81220  1.5547e+001  2.8710e+000  4.1009e+000 52565 81067,81119,81093
 3.5000e+000 81197  1.6968e+001  2.0853e+000  2.7020e+000 52565 81067,81145,81119
 3.5000e+000 81723 -1.3411e+001  2.4593e-002 -2.9046e+000 51904 81449,81527,81475
 3.5000e+000 81700 -2.3016e+001 -3.6958e+000  9.5073e+000 51904 81449,81579,81527
 3.5000e+000 81677 -9.6304e+001  6.0060e+000  3.9075e+000 51904 81449,81605,81579
 3.5000e+000 81654 -7.8961e+001 -9.6691e-001  5.0619e+000 51904 81527,81579,81553
 3.5000e+000 81631 -6.7511e-001  7.5948e-001 -8.4534e-001 51904 81475,81527,81501
 3.5000e+000 82327 -1.4061e+002 -1.4894e+002  1.0757e+002 51321 82422,82350,82036
 3.5000e+000 82304 -1.5359e+002 -9.9588e+001  1.2903e+002 51321 82494,82350,81958
 3.5000e+000 82281 -1.4908e+002 -1.6047e+002  9.6372e+001 51321 82422,82036,82010
 3.5000e+000 82258 -1.7647e+002 -1.1115e+002  1.3353e+002 51321 82494,81958,81932
 3.5000e+000 82235 -1.5453e+002 -4.9299e+001  4.7005e+001 51321 82062,82114,82088
 3.5000e+000 82212 -4.1026e+002 -2.6403e+002  1.9058e+002 51321 81932,82140,82114
 3.5000e+000 82189 -1.5735e+002 -7.1749e+001  1.0086e+002 51321 81958,82010,81984
 3.5000e+000 82166 -5.0909e+001 -1.2383e+002  4.1649e+001 51321 81906,82140,81932
 3.5000e+000 82376 -1.4404e+002 -1.7586e+002  1.0485e+002 51321 82062,82036,82350
 3.5000e+000 82399 -1.4258e+002 -1.2406e+002  9.8157e+001 51321 82062,82350,82114
 3.5000e+000 82448 -1.2728e+002 -1.3613e+002  1.2187e+002 51321 81958,82350,82422
 3.5000e+000 82471 -1.3372e+002 -1.4634e+002  1.1094e+002 51321 81958,82422,82010
 3.5000e+000 82520 -1.6039e+002 -9.8736e+001  1.1646e+002 51321 82114,82350,82494
 3.5000e+000 82543 -1.6305e+002 -1.0067e+002  1.1926e+002 51321 82114,82494,81932
 3.5000e+000 83019 -1.3981e+002 -1.4900e+002  7.5977e+001 50817 82673,82751,82699
 3.5000e+000 82996 -1.9252e+002 -1.2827e+002  8.1625e+001 50817 83042,82673,82855
 3.5000e+000 82973 -1.9391e+002 -2.1135e+002  7.8570e+001 50817 83042,82855,82803
 3.5000e+000 82950 -2.7006e+002 -3.2522e+002  8.2042e+001 50817 82751,82803,82777
 3.5000e+000 82927 -1.7708e+002 -1.4370e+002  6.0159e+001 50817 82647,82855,82673
 3.5000e+000 82904 -2.9884e+002 -2.6686e+002  1.7174e+002 50817 82803,82855,82829
 3.5000e+000 82881 -2.3425e+002 -3.3386e+002  1.0799e+002 50817 82699,82751,82725
 3.5000e+000 83068 -1.7514e+002 -1.9125e+002  1.3088e+002 50817 82751,82673,83042
 3.5000e+000 83091 -1.6495e+002 -2.6707e+002  1.1842e+002 50817 82751,83042,82803
 3.5000e+000 83290 -1.5791e+002 -7.9508e+001  9.1735e+001 50356 83313,83166,83140
 3.5000e+000 83267 -1.5055e+002 -1.2573e+002  7.8929e+001 50356 83515,83313,83140
 3.5000e+000 83244 -1.8104e+002 -9.3370e+001  2.8218e+001 50356 83515,83140,83385
 3.5000e+000 83339 -2.1333e+002 -1.0080e+002  1.3027e+002 50356 83192,83166,83313
 3.5000e+000 83362 -1.0695e+002 -8.6711e+001  1.0840e+002 50356 83192,83313,83218
 3.5000e+000 83411 -4.3181e+001 -1.7095e+001  2.2770e+001 50356 83114,83218,83385
 3.5000e+000 83541 -6.2684e+001 -7.1826e+001  5.6086e+001 50356 83218,83313,83515
 3.5000e+000 83564 -7.6294e+001 -4.1652e+001  8.9116e+000 50356 83218,83515,83385
 3.5000e+000 83893 -2.2725e+002 -1.6174e+002  2.2745e+001 49552 83720,83798,83746
 3.5000e+000 83870 -1.5872e+002 -6.6239e+001  6.2966e+001 49552 83694,83798,83720
 3.5000e+000 83847 -1.4390e+002 -6.3552e+001  6.4752e+001 49552 83668,83798,83694
 3.5000e+000 83824 -3.2797e+002 -9.1045e+001 -1.5410e+001 49552 83746,83798,83772
 3.5000e+000 84141 -1.7425e+002 -1.1603e+002  7.3448e+001 49212 84164,84020,83942
 3.5000e+000 84118 -1.5946e+002 -7.4246e+001  1.0831e+002 49212 84164,83942,83916
 3.5000e+000 84095 -1.3381e+002 -1.5535e+002  4.3004e+001 49212 83942,84020,83968
 3.5000e+000 84072 -1.0201e+002 -2.1086e+001  3.6842e+001 49212 83968,84020,83994
 3.5000e+000 84190 -2.0733e+002 -1.1190e+002  4.7871e+001 49212 84046,84020,84164
 3.5000e+000 84213 -1.8592e+002 -8.3604e+001  8.1281e+001 49212 84046,84164,83916
 3.5000e+000 84800 -2.6746e+001 -2.4514e+001  2.5422e+001 48865 84503,84633,84555
 3.5000e+000 84777 -2.4910e+001 -1.5767e+001  2.7571e+001 48865 84503,84659,84633
 3.5000e+000 84754 -3.8280e+001 -5.0859e+001  2.6990e+001 48865 84555,84633,84581
 3.5000e+000 84731 -2.5228e+001 -7.5370e+001  3.3715e+001 48865 84581,84633,84607
 3.5000e+000 84708 -7.5610e+001 -5.1696e+001  3.6347e+001 48865 84503,84555,84529
 3.5000e+000 84685 -1.4485e+001 -3.9736e+000  9.3588e-001 48865 84477,84659,84503
 3.5000e+000 85355 -9.6344e+001 -1.6133e+002  2.7475e+001 48461 85378,85035,85009
 3.5000e+000 85332 -1.6613e+002 -1.8881e+002  6.0186e+001 48461 85378,85009,85165
 3.5000e+000 85309 -1.7384e+002 -2.2446e+002  5.6014e+001 48461 85450,85061,85035
 3.5000e+000 85286 -1.5306e+002 -1.7084e+002  4.1464e+001 48461 85009,85191,85165
 3.5000e+000 85263 -1.2107e+002 -1.8889e+002  9.6286e+001 48461 85087,85165,85113
 3.5000e+000 85240 -7.6401e+001 -2.2759e+002 -3.6909e+001 48461 84983,85191,85009
 3.5000e+000 85217 -1.1640e+002 -2.4678e+002  6.5810e+001 48461 85113,85165,85139
 3.5000e+000 85404 -1.6496e+002 -1.9338e+002  4.2507e+001 48461 85450,85035,85378
 3.5000e+000 85427 -1.5235e+002 -1.9427e+002  5.3914e+001 48461 85087,85378,85165
 3.5000e+000 85476 -1.6559e+002 -2.7199e+002  7.7294e+001 48461 85087,85061,85450
 3.5000e+000 85499 -1.5906e+002 -2.4991e+002  6.1593e+001 48461 85087,85450,85378
 3.5000e+000 86084 -6.2899e+001 -2.0032e+002  7.1774e+001 48057 86323,86107,85787
 3.5000e+000 86061 -7.9989e+001 -1.8224e+002  8.2907e+001 48057 86107,85761,85943
 3.5000e+000 86038 -1.1786e+002 -1.6239e+002  7.0726e+001 48057 86251,86179,85891
 3.5000e+000 86015 -1.1999e+002 -1.4081e+002  4.6549e+001 48057 86251,85891,85839
 3.5000e+000 85992 -1.0249e+002 -1.3081e+002  8.9089e+001 48057 85891,85943,85917
 3.5000e+000 85969 -1.4910e+002 -1.0285e+002  6.9397e+001 48057 85839,85891,85865
 3.5000e+000 86133 -7.1534e+001 -2.2046e+002  7.0830e+001 48057 85813,85787,86107
 3.5000e+000 86156 -8.9616e+001 -1.9132e+002  5.9657e+001 48057 86179,85813,86107
 3.5000e+000 86205 -9.3986e+001 -1.2588e+002  8.3000e+001 48057 85943,85891,86179
 3.5000e+000 86228 -6.7572e+001 -1.5302e+002  8.2980e+001 48057 85943,86179,86107
 3.5000e+000 86277 -7.1990e+001 -1.3934e+002  6.2835e+001 48057 85813,86179,86251
 3.5000e+000 86300 -9.8206e+001 -1.3000e+002  4.2606e+001 48057 85813,86251,85839
 3.5000e+000 86349 -4.8405e+001 -1.7964e+002  8.2611e+001 48057 85761,86107,86323
 3.5000e+000 86855 -2.4121e+001 -8.0870e+001  4.0738e+001 47545 86878,86584,86558
 3.5000e+000 86832 -4.5164e+001 -8.9269e+001  2.7056e+001 47545 86950,86878,86558
 3.5000e+000 86809 -4.6806e+001 -7.3264e+001  3.4111e+001 47545 86950,86558,86532
 3.5000e+000 86786 -2.0993e+001 -8.8310e+001  4.4349e+001 47545 86584,86662,86610
 3.5000e+000 86763 -1.0153e+002 -2.0889e+001  1.6314e+001 47545 86532,86714,86688
 3.5000e+000 86740 -4.8998e+001 -4.3952e+001  4.4762e+001 47545 86610,86662,86636
 3.5000e+000 86904 -3.5468e+001 -1.0390e+002  3.6900e+001 47545 86662,86584,86878
 3.5000e+000 86927 -4.5775e+001 -9.1637e+001  1.6685e+001 47545 86662,86878,86688
 3.5000e+000 86976 -3.4411e+001 -6.4338e+001  2.4413e+001 47545 86688,86878,86950
 3.5000e+000 86999 -4.3598e+001 -6.3076e+001  3.4463e+001 47545 86688,86950,86532
 3.5000e+000 87328 -4.5474e+002 -1.2475e+002  1.4893e+002 47048 87155,87207,87181
 3.5000e+000 87305 -1.6639e+002 -1.1522e+002  8.1827e+001 47048 87129,87207,87155
 3.5000e+000 87282 -3.4731e+002 -1.9777e+002  1.0966e+002 47048 87103,87207,87129
 3.5000e+000 87259 -4.6759e+002 -5.2846e+002  2.7030e+002 47048 87103,87233,87207
 3.5000e+000 87576 -5.6432e+001 -2.2004e+002  1.0038e+002 46701 87599,87429,87377
 3.5000e+000 87553 -1.1800e+002 -2.1063e+002  8.8824e+001 46701 87599,87377,87481
 3.5000e+000 87530 -1.0683e+002 -2.0546e+002  9.1249e+001 46701 87351,87481,87377
 3.5000e+000 87507 -1.1617e+002 -2.4076e+002  1.3824e+002 46701 87377,87429,87403
 3.5000e+000 87625 -9.6970e+001 -1.8853e+002  5.9368e+001 46701 87455,87429,87599
 3.5000e+000 87648 -2.1839e+002 -2.1193e+002  6.6382e+001 46701 87455,87599,87481
 3.5000e+000 87798 -2.8786e+001 -6.9957e+000  2.9801e+000 46239 87697,87749,87723
 3.5000e+000 87775 -7.6023e+001 -2.0862e+002  2.3796e+001 46239 87671,87749,87697
 3.5000e+000 88308 -2.0800e+002 -3.1355e+002  7.3657e+001 45735 88089,88167,88141
 3.5000e+000 88285 -1.4235e+002 -1.6887e+002  9.3900e+001 45735 88011,88167,88089
 3.5000e+000 88262 -3.5153e+001 -1.5543e+002  4.4395e+001 45735 87985,88167,88011
 3.5000e+000 88239 -7.3522e+001 -6.7397e+002  1.3374e+002 45735 88011,88089,88063
 3.5000e+000 88216 -2.5019e+002 -3.3910e+002  3.3131e+001 45735 88089,88141,88115
 3.5000e+000 88193 -3.2239e+002 -1.0101e+003 -4.1552e+001 45735 88011,88063,88037
 3.5000e+000 88686 -1.5991e+002 -6.5480e+001  1.0018e+002 45316 88438,88516,88490
 3.5000e+000 88663 -1.6074e+002  3.2000e+001  1.6690e+002 45316 88438,88542,88516
 3.5000e+000 88640 -8.1894e+001 -1.8148e+002  1.8720e+002 45316 88438,88568,88542
 3.5000e+000 88617 -1.4326e+002 -1.3659e+002  8.6152e+001 45316 88438,88490,88464
 3.5000e+000 88594 -1.5364e+002 -1.9009e+002  1.9632e+002 45316 88412,88568,88438
 3.5000e+000 88934 -2.5908e+002 -2.4637e+002  1.6153e+002 44812 88957,88735,88709
 3.5000e+000 88911 -1.4667e+002 -1.2586e+002  7.7301e+001 44812 88957,88709,88839
 3.5000e+000 88888 -1.3418e+002 -1.1959e+002  4.3338e+001 44812 89029,88787,88761
 3.5000e+000 88865 -1.1159e+002 -1.1659e+002  4.0238e+001 44812 88787,88839,88813
 3.5000e+000 88983 -8.4747e+001 -1.4577e+002  9.6580e+001 44812 88761,88735,88957
 3.5000e+000 89006 -1.3387e+002 -1.3052e+002  3.9083e+001 44812 89029,88761,88957
 3.5000e+000 89055 -1.2285e+002 -1.3473e+002  4.7381e+001 44812 88839,88787,89029
 3.5000e+000 89078 -1.2822e+002 -1.5373e+002  4.4962e+001 44812 88839,89029,88957
 3.5000e+000 89228 -5.2287e+001 -1.3534e+002  8.9648e+001 44408 89127,89179,89153
 3.5000e+000 89205 -2.5768e+001  9.4061e+000  1.9235e+000 44408 89101,89179,89127
 3.5000e+000 89787 -1.5454e+002 -9.8568e+001  8.4702e+001 43854 89810,89545,89519
 3.5000e+000 89764 -1.7187e+002 -1.3878e+002  8.3259e+001 43854 89810,89519,89467
 3.5000e+000 89741 -1.8034e+002 -1.8738e+002  7.9973e+001 43854 89954,89882,89597
 3.5000e+000 89718 -1.7808e+002 -1.9458e+002  7.4485e+001 43854 89954,89597,89571
 3.5000e+000 89695 -8.9082e+001 -1.1894e+002  6.9068e+001 43854 89415,89623,89467
 3.5000e+000 89672 -7.3021e+001 -8.2178e+001  5.3461e+001 43854 89467,89519,89493
 3.5000e+000 89649 -5.6590e+001 -1.0053e+002  5.3713e+001 43854 89415,89467,89441
 3.5000e+000 89836 -1.7372e+002 -1.1016e+002  9.5145e+001 43854 89882,89545,89810
 3.5000e+000 89859 -9.1398e+001 -1.2235e+002  6.8037e+001 43854 89623,89810,89467
 3.5000e+000 89908 -1.7549e+002 -2.3260e+002  1.1675e+002 43854 89623,89597,89882
 3.5000e+000 89931 -1.5269e+002 -1.9794e+002  9.7523e+001 43854 89623,89882,89810
 3.5000e+000 89980 -1.6865e+002 -1.7719e+002  1.0973e+002 43854 89545,89882,89954
 3.5000e+000 90003 -1.7074e+002 -2.0342e+002  1.0698e+002 43854 89545,89954,89571
 3.5000e+000 90251 -5.5342e+001 -3.8384e+001  2.4534e+001 43492 90026,90078,90052
 3.5000e+000 90228 -1.6132e+002 -1.0705e+002  6.5649e+001 43492 90274,90026,90156
 3.5000e+000 90205 -1.4911e+002 -1.2630e+002  6.6010e+001 43492 90346,90274,90156
 3.5000e+000 90182 -1.5309e+002 -1.7110e+002  1.3365e+002 43492 90346,90156,90130
 3.5000e+000 90300 -1.2141e+002 -1.3483e+002  8.0837e+001 43492 90078,90026,90274
 3.5000e+000 90323 -1.7345e+002 -1.5182e+002  8.1600e+001 43492 90078,90274,90104
 3.5000e+000 90372 -2.3223e+002 -1.8507e+002  1.1114e+002 43492 90104,90274,90346
 3.5000e+000 90395 -2.3646e+002 -2.3668e+002  1.7951e+002 43492 90104,90346,90130
 3.5000e+000 90594 -1.1228e+002 -2.9684e+002  1.3890e+001 43052 90418,90496,90444
 3.5000e+000 90571 -2.1704e+002 -4.5667e+002  7.4175e+001 43052 90418,90522,90496
 3.5000e+000 90548 -1.2822e+002 -1.8424e+002  6.4182e+001 43052 90444,90496,90470
 3.5000e+000 91074 -2.2145e+002 -4.3935e+002  2.2544e+002 42434 91241,90884,90858
 3.5000e+000 91051 -5.4532e+002 -5.9771e+002 -6.0001e+001 42434 90702,90910,90884
 3.5000e+000 91028 -1.2673e+002 -3.3633e+002  1.4402e+002 42434 91097,90754,90702
 3.5000e+000 91005 -2.2547e+002 -2.3396e+002  2.3178e+002 42434 91241,90858,91097
 3.5000e+000 90982 -1.2563e+002 -1.8536e+002 -7.2468e-001 42434 91169,90806,90780
 3.5000e+000 90959 -9.1006e+001 -1.6337e+002 -6.1213e+001 42434 90806,90858,90832
 3.5000e+000 90936 -1.6865e+002 -3.7934e+002  1.2704e+002 42434 90702,90754,90728
 3.5000e+000 91123 -3.1306e+002 -3.9754e+002  1.1266e+002 42434 90780,90754,91097
 3.5000e+000 91146 -2.6287e+002 -3.0397e+002  1.5203e+002 42434 91169,90780,91097
 3.5000e+000 91195 -7.1651e+001 -1.0989e+002 -5.4727e+001 42434 90858,90806,91169
 3.5000e+000 91218 -1.0167e+002 -9.8633e+000  7.3006e+001 42434 90858,91169,91097
 3.5000e+000 91267 -1.6467e+002 -6.5861e+002  1.1713e+002 42434 90702,90884,91241
 3.5000e+000 91290 -1.8980e+002 -4.7723e+002  1.2366e+002 42434 90702,91241,91097
 3.5000e+000 91698 -2.9860e+001 -1.5522e+002  5.3168e+001 41773 91473,91577,91499
 3.5000e+000 91675 -5.5130e+001 -1.7595e+002  6.6265e+001 41773 91473,91603,91577
 3.5000e+000 91652 -8.4404e+001 -1.4133e+002  2.9840e+001 41773 91499,91551,91525
 3.5000e+000 91629 -9.9113e+001 -1.5188e+002  4.9833e+001 41773 91499,91577,91551
 3.5000e+000 92044 -9.1061e+001 -1.2243e+002  7.8711e+001 41383 91773,91877,91851
 3.5000e+000 92021 -5.0947e+001 -1.3707e+002  4.9191e+001 41383 91747,91877,91773
 3.5000e+000 91998 -5.6182e+001 -6.2298e+001  4.9453e+001 41383 91773,91851,91799
 3.5000e+000 91975 -4.4660e+001 -9.3096e+001  1.4195e+001 41383 91747,91903,91877
 3.5000e+000 91952  2.9030e+000 -6.8357e+001  2.3846e+001 41383 91721,91903,91747
 3.5000e+000 91929 -1.3508e+001 -7.7309e+001  2.3083e+001 41383 91799,91851,91825
 3.5000e+000 92601 -1.6026e+002 -1.7083e+002  4.3814e+001 40979 92229,92411,92307
 3.5000e+000 92578 -2.1237e+002 -1.6543e+002  3.4210e+001 40979 92229,92437,92411
 3.5000e+000 92555 -1.3951e+002 -1.6307e+002  2.5718e+001 40979 92229,92307,92281
 3.5000e+000 92532 -1.3027e+002 -1.6434e+002  5.5946e+001 40979 92333,92411,92385
 3.5000e+000 92509 -1.3140e+002 -1.5658e+002  5.0133e+001 40979 92307,92411,92333
 3.5000e+000 92486 -1.3130e+002 -1.4926e+002  3.0091e+001 40979 92229,92281,92255
 3.5000e+000 92463 -1.0006e+001 -1.4797e+002  3.8420e+001 40979 92333,92385,92359
 3.5000e+000 93235 -1.8985e+002 -1.3513e+002  1.4566e+002 40525 92941,92993,92967
 3.5000e+000 93212 -2.3172e+002 -7.2694e+001  4.9926e+001 40525 93258,92941,92889
 3.5000e+000 93189 -1.8143e+002 -3.1629e+001  1.0398e+001 40525 93258,92889,93071
 3.5000e+000 93166 -2.4462e+002 -1.7115e+002  6.1730e+001 40525 92889,92941,92915
 3.5000e+000 93143 -2.5086e+002 -3.1184e+001  2.1327e+000 40525 92863,93071,92889
 3.5000e+000 93120 -1.9381e+002 -1.3964e+002  7.6719e+001 40525 92993,93071,93019
 3.5000e+000 93097 -2.1441e+002 -1.1464e+002  7.0073e+001 40525 93019,93071,93045
 3.5000e+000 93284 -2.7133e+002 -1.5673e+002  1.1806e+002 40525 92993,92941,93258
 3.5000e+000 93307 -1.5508e+002 -5.7080e+001  6.6222e+001 40525 92993,93258,93071
 3.5000e+000 93636 -1.8948e+002 -1.7881e+002  1.4875e+002 40235 93437,93541,93515
 3.5000e+000 93613 -1.4391e+002 -2.2505e+002  1.2954e+002 40235 93411,93541,93437
 3.5000e+000 93590 -5.2928e+001 -1.9844e+002  5.0544e+001 40235 93463,93515,93489
 3.5000e+000 93567 -1.0281e+002 -1.2412e+002  3.8988e+001 40235 93437,93515,93463
 3.5000e+000 94014 -1.9211e+002 -1.5254e+002  1.0032e+002 39873 93766,93870,93792
 3.5000e+000 93991 -1.4117e+002 -1.6762e+002  7.7612e+001 39873 93766,93896,93870
 3.5000e+000 93968 -1.9800e+002 -1.3071e+002  9.7647e+001 39873 93792,93870,93844
 3.5000e+000 93945 -1.2744e+002 -8.6070e+001  7.3118e+001 39873 93792,93844,93818
 3.5000e+000 93922 -1.0014e+002 -1.1356e+002  1.0669e+002 39873 93740,93896,93766
 3.5000e+000 94164 -4.1874e+001 -1.2517e+002  3.5694e+001 39461 94037,94089,94063
 3.5000e+000 94141 -4.5570e+001 -4.1094e+002  1.1921e+002 39461 94037,94115,94089
 3.5000e+000 94363 -1.1362e+002 -6.5011e+001  4.8500e+001 39057 94386,94239,94213
 3.5000e+000 94340 -2.5527e+001 -3.8770e+000  2.0051e+001 39057 94386,94213,94187
 3.5000e+000 94317 -1.0687e+002 -7.1430e+001  5.1583e+001 39057 94187,94291,94265
 3.5000e+000 94412 -2.3177e+001 -5.1968e+001  5.0887e+001 39057 94458,94386,94265
 3.5000e+000 94435 -5.6766e+001 -6.6453e+001  4.2301e+001 39057 94265,94386,94187
 3.5000e+000 94484 -7.3912e+001 -8.5846e+001  7.4164e+001 39057 94239,94386,94458
 3.5000e+000 94896 -1.8673e+002 -1.3405e+002  9.2424e+001 38396 94919,94775,94723
 3.5000e+000 94873 -2.1568e+002 -1.1160e+002  9.5007e+001 38396 94919,94723,94697
 3.5000e+000 94850 -1.3457e+002 -1.1564e+002  6.1154e+001 38396 94723,94775,94749
 3.5000e+000 94827 -9.4030e+001 -6.7007e+001  5.2922e+001 38396 94671,94801,94697
 3.5000e+000 94945 -1.7966e+002 -1.1747e+002  8.4622e+001 38396 94801,94775,94919
 3.5000e+000 94968 -1.9669e+002 -8.6374e+001  8.2373e+001 38396 94801,94919,94697
 3.5000e+000 95265 -2.0423e+002 -2.0018e+002  8.5983e+001 37835 95017,95069,95043
 3.5000e+000 95242 -2.0286e+002 -1.8792e+002  8.6141e+001 37835 95288,95069,95017
 3.5000e+000 95219 -2.0146e+002 -2.0803e+002  1.2301e+002 37835 95288,95017,94991
 3.5000e+000 95196 -2.4348e+002 -2.3224e+002  1.3213e+002 37835 94991,95147,95121
 3.5000e+000 95173 -1.2425e+002 -1.1485e+002  8.0415e+001 37835 95069,95121,95095
 3.5000e+000 95314 -1.9294e+002 -1.3606e+002  7.6261e+001 37835 95121,95069,95288
 3.5000e+000 95337 -1.9494e+002 -1.7017e+002  1.1012e+002 37835 95121,95288,94991
 3.5000e+000 95558  2.2522e+001  2.4323e+001  3.1962e+001 37423 95408,95460,95434
 3.5000e+000 95535 -3.9879e+001 -1.6818e+002  7.7024e+001 37423 95382,95460,95408
 3.5000e+000 95512 -8.5867e+001 -2.1106e+002  9.5072e+001 37423 95382,95486,95460
 3.5000e+000 95891 -5.8511e+001 -1.5482e+002  6.4552e+001 37225 95666,95718,95692
 3.5000e+000 95868 -2.2670e+002 -3.8404e+002  1.3832e+002 37225 95666,95796,95718
 3.5000e+000 95845 -6.7989e+001 -1.2082e+002  2.6756e+001 37225 95718,95770,95744
 3.5000e+000 95822 -8.3214e+001 -1.2361e+002  2.7534e+001 37225 95718,95796,95770
 3.5000e+000 95992 -5.7570e+000 -4.2219e+001  3.0301e+001 36735 95914,95966,95940
 3.5000e+000 96142 -2.0834e+002 -7.4985e+001  1.2195e+002 36331 96297,96067,96041
 3.5000e+000 96119 -1.4302e+002 -8.5858e+001  1.0302e+002 36331 96165,96041,96015
 3.5000e+000 96191 -1.9071e+002 -7.4320e+001  1.0224e+002 36331 96297,96041,96165
 3.5000e+000 96323 -2.4341e+002 -1.0220e+002  1.5678e+002 36331 96093,96067,96297
 3.5000e+000 96346 -1.9537e+002 -8.9099e+001  1.3697e+002 36331 96093,96297,96165
 3.5000e+000 96714 -1.1137e+002 -1.7674e+002  1.2010e+002 36041 96737,96495,96443
 3.5000e+000 96691 -1.6022e+002 -1.1842e+002  1.3036e+002 36041 96737,96443,96417
 3.5000e+000 96668 -7.1720e+001 -1.8452e+002  2.3072e+001 36041 96443,96495,96469
 3.5000e+000 96645 -3.1107e+001  2.9743e+000  5.6348e+001 36041 96391,96521,96417
 3.5000e+000 96622 -9.5251e+000 -4.5458e+001  4.8479e+001 36041 96391,96547,96521
 3.5000e+000 96599 -6.0680e+000 -4.7851e+001  5.1566e+001 36041 96391,96573,96547
 3.5000e+000 96763 -4.7540e+001 -1.2115e+002  9.6171e+001 36041 96521,96495,96737
 3.5000e+000 96786 -1.3666e+002 -9.5940e+001  1.2088e+002 36041 96521,96737,96417
 3.5000e+000 96936 -1.5218e+002 -9.6631e+001  8.2315e+001 35637 97031,96959,96835
 3.5000e+000 96913 -1.4231e+002 -8.7023e+001  1.0519e+002 35637 97163,96959,96809
 3.5000e+000 96985 -1.5613e+002 -7.9495e+001  9.5769e+001 35637 96861,96835,96959
 3.5000e+000 97008 -1.9286e+002 -1.2705e+002  1.4193e+002 35637 96861,96959,96887
 3.5000e+000 97057 -1.2420e+002 -7.2051e+001  6.9619e+001 35637 96809,96959,97031
 3.5000e+000 97189 -1.1388e+002 -8.5641e+001  1.0935e+002 35637 96887,96959,97163
 3.5000e+000 97597 -8.6554e+001 -1.3636e+002  1.0359e+002 35190 97450,97502,97476
 3.5000e+000 97574 -8.8201e+001 -1.5333e+002  1.1898e+002 35190 97372,97502,97450
 3.5000e+000 97551 -8.9620e+001 -1.7054e+002  1.1168e+002 35190 97372,97450,97398
 3.5000e+000 97528 -9.6387e+001 -1.7213e+002  1.1009e+002 35190 97398,97450,97424
 3.5000e+000 98054 -9.1479e+001 -1.1622e+002  1.0055e+002 34636 97806,97936,97858
 3.5000e+000 98031 -1.6446e+002 -1.1483e+002  8.4113e+001 34636 97780,97936,97806
 3.5000e+000 98008 -1.7350e+002 -1.2636e+002  6.4343e+001 34636 97806,97858,97832
 3.5000e+000 97985 -1.1235e+002 -1.4760e+002  1.0069e+002 34636 97884,97936,97910
 3.5000e+000 97962 -6.0047e+001 -9.3712e+001  7.2493e+001 34636 97858,97936,97884
 3.5000e+000 98530 -2.1500e+002  6.1669e+001  7.9191e+001 34068 98697,98184,98366
 3.5000e+000 98507 -5.3860e+000  4.8634e+000  6.1593e+000 34068 98158,98366,98184
 3.5000e+000 98484 -2.0513e+002 -2.3596e+002  9.7491e+001 34068 98553,98262,98236
 3.5000e+000 98461 -2.9487e+002 -2.9596e+002  6.8567e+001 34068 98553,98236,98210
 3.5000e+000 98438 -2.5263e+002 -1.3387e+002  8.1851e+001 34068 98841,98625,98366
 3.5000e+000 98415 -1.6917e+002 -2.9393e+002  1.1277e+002 34068 98769,98288,98262
 3.5000e+000 98392 -2.8157e+002 -9.3338e+001  7.5750e+001 34068 98841,98366,98340
 3.5000e+000 98579 -2.0595e+002 -2.5658e+002  8.5334e+001 34068 98769,98262,98553
 3.5000e+000 98602 -1.9972e+002 -1.6659e+002  9.4398e+001 34068 98625,98314,98553
 3.5000e+000 98651 -2.4919e+002 -1.0660e+002  9.7203e+001 34068 98697,98366,98625
 3.5000e+000 98674 -2.4382e+002 -2.6325e+002  1.2373e+002 34068 98210,98625,98553
 3.5000e+000 98723 -2.8973e+002 -1.4279e+002  1.0748e+002 34068 98210,98184,98697
 3.5000e+000 98746 -2.5863e+002 -1.8044e+002  1.4110e+002 34068 98210,98697,98625
 3.5000e+000 98795 -1.0284e+002 -2.5238e+002  9.4209e+001 34068 98314,98288,98769
 3.5000e+000 98818 -1.4522e+002 -2.2212e+002  6.9567e+001 34068 98314,98769,98553
 3.5000e+000 98867 -2.6823e+002 -1.8782e+002  6.7273e+001 34068 98314,98625,98841
 3.5000e+000 98890 -2.9121e+002 -1.3880e+002  6.0811e+001 34068 98314,98841,98340
 3.5000e+000 99268 -2.4380e+002 -2.4645e+002  1.6522e+002 33450 99291,99098,99072
 3.5000e+000 99245 -2.6897e+002 -2.0170e+002  1.0866e+002 33450 99291,99072,99020
 3.5000e+000 99222 -4.3482e+002 -2.6404e+002  1.7856e+002 33450 99020,99072,99046
 3.5000e+000 99199 -2.1135e+002 -1.8166e+002  1.1111e+002 33450 99020,99150,99124
 3.5000e+000 99176 -2.0269e+002 -1.0533e+002  2.8950e+001 33450 98994,99150,99020
 3.5000e+000 99317 -1.4782e+002 -2.0494e+002  1.5850e+002 33450 99124,99098,99291
 3.5000e+000 99340 -2.3634e+002 -1.9223e+002  1.0968e+002 33450 99124,99291,99020
 3.5000e+000 99865 -1.2611e+002 -1.2542e+002  6.6599e+001 32944 100176,99960,99888
 3.5000e+000 99842 -1.5682e+002 -1.4331e+002  6.7390e+001 32944 100104,99888,99522
 3.5000e+000 99819 -1.1819e+002 -1.1457e+002  7.3577e+001 32944 100248,99960,99626
 3.5000e+000 99796 -1.3025e+002 -1.3815e+002  5.2212e+001 32944 100032,99652,99626
 3.5000e+000 99773 -1.4083e+002 -1.7421e+002  4.3275e+001 32944 100104,99522,99496
 3.5000e+000 99750 -9.6985e+001 -1.2364e+002  4.8999e+000 32944 99574,99626,99600
 3.5000e+000 99727 -8.8827e+001 -1.2967e+002  8.1479e+001 32944 100248,99626,99574
 3.5000e+000 99704 -9.0260e+001 -1.1024e+002  6.5038e+001 32944 99444,99496,99470
 3.5000e+000 99914 -1.3500e+002 -1.2378e+002  5.8749e+001 32944 100176,99888,100032
 3.5000e+000 99937 -1.5452e+002 -1.1118e+002  8.3253e+001 32944 99678,99888,99444
 3.5000e+000 99986 -1.4472e+002 -1.0926e+002  6.8463e+001 32944 99522,99888,99960
 3.5000e+000 100009 -1.3140e+002 -7.8146e+001  8.9367e+001 32944 99522,99960,99548
 3.5000e+000 100058 -1.4402e+002 -1.4151e+002  5.1120e+001 32944 99678,99652,100032
 3.5000e+000 100081 -1.6595e+002 -1.3686e+002  5.5944e+001 32944 99678,100032,99888
 3.5000e+000 100130 -1.2135e+002 -1.1738e+002  8.2047e+001 32944 99444,99888,100104
 3.5000e+000 100153 -1.0764e+002 -1.4262e+002  5.7898e+001 32944 99444,100104,99496
 3.5000e+000 100202 -1.3662e+002 -1.3803e+002  5.8949e+001 32944 99626,99960,100176
 3.5000e+000 100225 -1.4075e+002 -1.3756e+002  5.1257e+001 32944 99626,100176,100032
 3.5000e+000 100274 -1.5404e+002 -1.3028e+002  7.8762e+001 32944 99548,99960,100248
 3.5000e+000 100297 -1.2784e+002 -1.4726e+002  8.7165e+001 32944 99548,100248,99574
 3.5000e+000 100754 -3.2580e+000 -3.7169e+001  1.8712e+001 32369 100777,100584,100506
 3.5000e+000 100731 -2.1326e+001 -5.6032e+001  3.0871e+001 32369 100777,100506,100636
 3.5000e+000 100708 -6.6316e+001 -5.0760e+001  4.2143e+001 32369 100480,100636,100506
 3.5000e+000 100685 -1.4587e+002 -5.9497e+001 -4.9290e+000 32369 100532,100584,100558
 3.5000e+000 100662 -2.4238e+001 -5.2713e+001  3.5830e+001 32369 100506,100584,100532
 3.5000e+000 100803 -2.3094e+001 -1.3894e+001  9.8778e+000 32369 100610,100584,100777
 3.5000e+000 100826 -3.4414e+001 -3.0685e+001  1.9662e+001 32369 100610,100777,100636
 3.5000e+000 101025 -1.0942e+002 -1.2262e+002  1.0324e+002 31857 100875,100927,100901
 3.5000e+000 101002 -2.5279e+002 -8.0568e+000  1.2915e+002 31857 100875,100953,100927
 3.5000e+000 100979 -2.9547e+002 -4.0769e+001  4.6616e+001 31857 100849,100953,100875
 3.5000e+000 101533 -1.0450e+002 -1.5961e+002  1.1438e+002 31253 101556,101314,101236
 3.5000e+000 101510 -1.5635e+002 -1.7107e+002  1.1434e+002 31253 101556,101236,101210
 3.5000e+000 101487 -1.5166e+002 -1.5637e+002  5.5179e+001 31253 101210,101392,101340
 3.5000e+000 101464 -8.8013e+001 -1.6491e+002  7.9162e+001 31253 101236,101288,101262
 3.5000e+000 101441 -9.6644e+001 -2.1621e+002  1.0301e+002 31253 101236,101314,101288
 3.5000e+000 101418 -1.5136e+002 -2.0075e+002  9.8203e+001 31253 101340,101392,101366
 3.5000e+000 101582 -1.2292e+002 -1.4743e+002  7.1242e+001 31253 101340,101314,101556
 3.5000e+000 101605 -1.7467e+002 -1.5632e+002  7.3649e+001 31253 101340,101556,101210
 3.5000e+000 101755 -3.3422e-001 -2.5104e+001  4.4335e+001 30519 101778,101654,101628
 3.5000e+000 101732 -5.3603e+001 -5.3875e+001  5.5286e+001 30519 101850,101778,101628
 3.5000e+000 101804 -5.9016e+001 -1.8036e+001  2.6145e+001 30519 101680,101654,101778
 3.5000e+000 101827 -2.3867e+001 -4.6106e+001  2.2533e+001 30519 101680,101778,101706
 3.5000e+000 101876 -8.8679e+001 -1.2478e+002 -6.6590e+000 30519 101706,101778,101850
 3.5000e+000 102561 -5.2873e+001 -1.0828e+002  6.7273e+001 29951 102656,102584,102270
 3.5000e+000 102538 -2.2846e+002 -2.6422e+002  3.7069e+001 29951 102584,102140,102374
 3.5000e+000 102515 -1.1562e+002 -2.8635e+002  1.5216e+002 29951 102728,102656,102270
 3.5000e+000 102492 -1.1589e+002 -3.5325e+002  1.4778e+002 29951 102728,102270,102244
 3.5000e+000 102469 -1.7206e+002 -2.4266e+001  6.7485e+001 29951 102800,102322,102296
 3.5000e+000 102446 -1.6097e+002 -1.1732e+002  3.4530e+001 29951 102166,102218,102192
 3.5000e+000 102423 -1.4056e+002 -1.2973e+002  1.7858e+001 29951 102166,102244,102218
 3.5000e+000 102400 -9.3323e+001 -9.8316e+001  2.7940e+001 29951 102322,102374,102348
 3.5000e+000 102610 -2.0219e+002 -5.5071e+001  3.8854e+001 29951 102296,102270,102584
 3.5000e+000 102633 -2.2238e+002 -9.8041e+001  4.4418e+001 29951 102800,102296,102584
 3.5000e+000 102682 -2.7040e+002 -2.4420e+002  1.3454e+002 29951 102140,102584,102656
 3.5000e+000 102705 -1.5550e+002 -2.4661e+002  1.9743e+002 29951 102140,102656,102166
 3.5000e+000 102754 -1.1192e+002 -2.0864e+002  1.8142e+002 29951 102166,102656,102728
 3.5000e+000 102777 -1.1760e+002 -2.6748e+002  1.6309e+002 29951 102166,102728,102244
 3.5000e+000 102826 -1.2393e+002 -1.1058e+002  1.0232e+002 29951 102374,102322,102800
 3.5000e+000 102849 -1.4194e+002 -1.3111e+002  9.2741e+001 29951 102374,102800,102584
 3.5000e+000 103048 -5.0536e+001 -1.3969e+002  5.4568e+001 29454 102872,102924,102898
 3.5000e+000 103025 -7.9126e+001 -3.1327e+002  8.8585e+001 29454 102872,102976,102924
 3.5000e+000 103002 -4.4858e+001 -2.9975e+002  1.1516e+002 29454 102924,102976,102950
 3.5000e+000 103296 -2.8603e+002 -2.5099e+002  1.5546e+002 29064 103319,103175,103123
 3.5000e+000 103273 -3.6559e+002 -2.4993e+002  1.7905e+002 29064 103319,103123,103071
 3.5000e+000 103250 -1.7747e+002 -1.5906e+002  1.0384e+002 29064 103123,103175,103149
 3.5000e+000 103227 -2.9014e+002 -1.8581e+002  2.1090e+002 29064 103071,103123,103097
 3.5000e+000 103345 -2.1504e+002 -2.6099e+002  1.1973e+002 29064 103201,103175,103319
 3.5000e+000 103368 -3.1195e+002 -2.4066e+002  1.1584e+002 29064 103201,103319,103071
 3.5000e+000 104006 -1.5913e+002 -9.6403e+001  7.1827e+001 28603 104101,104029,103712
 3.5000e+000 103983 -1.4089e+002 -5.7776e+001  6.0592e+001 28603 104173,104029,103660
 3.5000e+000 103960 -1.9375e+002 -8.2969e+001  7.0788e+001 28603 104101,103712,103686
 3.5000e+000 103937 -1.0476e+002 -6.6124e+001  6.0058e+001 28603 104173,103660,103634
 3.5000e+000 103914 -1.6564e+002 -1.1414e+002  8.5609e+001 28603 103764,103816,103790
 3.5000e+000 103891 -8.8895e+001 -5.0776e+001  8.2671e+001 28603 103634,103842,103816
 3.5000e+000 103868 -1.2561e+002 -6.0719e+001  8.5632e+001 28603 103712,103764,103738
 3.5000e+000 104055 -1.5330e+002 -6.9646e+001  7.4069e+001 28603 103764,103712,104029
 3.5000e+000 104078 -1.5804e+002 -7.7499e+001  8.5097e+001 28603 103764,104029,103816
 3.5000e+000 104127 -2.0776e+002 -8.5661e+001  6.0127e+001 28603 103660,104029,104101
 3.5000e+000 104150 -2.6351e+002 -8.7970e+001  6.9934e+001 28603 103660,104101,103686
 3.5000e+000 104199 -1.6787e+002 -6.1745e+001  7.0800e+001 28603 103816,104029,104173
 3.5000e+000 104222 -1.3960e+002 -7.3100e+001  6.5964e+001 28603 103816,104173,103634
 3.5000e+000 104600 -9.4424e+001 -2.0932e+002  4.2139e+001 28348 104623,104378,104326
 3.5000e+000 104577 -7.5562e+001 -2.2448e+002  7.9094e+001 28348 104623,104326,104482
 3.5000e+000 104554 -9.9436e+001 -1.6016e+002  4.1263e+001 28348 104326,104378,104352
 3.5000e+000 104531 -7.9044e+001 -5.2443e+000  7.2237e+000 28348 104404,104456,104430
 3.5000e+000 104508 -1.1597e+002 -1.2958e+002  6.1337e+001 28348 104378,104456,104404
 3.5000e+000 104649 -7.6786e+001 -1.7443e+002  5.1927e+001 28348 104456,104378,104623
 3.5000e+000 104672 -5.2831e+001 -1.8364e+002  9.0228e+001 28348 104456,104623,104482
 3.5000e+000 104991 -2.0043e+002 -2.1402e+002  1.4219e+002 27951 104717,104847,104769
 3.5000e+000 104968 -6.0184e+001 -1.4454e+002  1.1966e+002 27951 104717,104873,104847
 3.5000e+000 104945 -7.3757e+001 -1.9107e+002  1.4338e+002 27951 104769,104847,104795
 3.5000e+000 104922 -5.3794e+000 -1.2986e+001  1.3430e+002 27951 104795,104847,104821
 3.5000e+000 104899 -1.6502e+002 -1.3376e+002  1.3622e+002 27951 104717,104769,104743
 3.5000e+000 105371 -2.2960e+002 -1.8173e+002  1.2429e+002 27447 105394,105201,105123
 3.5000e+000 105348 -2.7329e+002 -1.7354e+002  1.6642e+002 27447 105394,105123,105097
 3.5000e+000 105325 -3.8621e+002 -1.9346e+002  1.2707e+002 27447 105123,105201,105149
 3.5000e+000 105302 -2.0922e+002 -2.5488e+002  1.4012e+002 27447 105201,105253,105227
 3.5000e+000 105279 -2.0699e+002 -2.9662e+002  9.7438e+000 27447 105149,105201,105175
 3.5000e+000 105420 -2.0442e+002 -1.5644e+002  1.0958e+002 27447 105253,105201,105394
 3.5000e+000 105443 -2.4092e+002 -1.2938e+002  1.4810e+002 27447 105253,105394,105097
 3.5000e+000 105998 -1.5066e+002 -1.3611e+002  1.1960e+002 27100 106165,106021,105704
 3.5000e+000 105975 -6.0332e+001 -7.1443e+001  1.0166e+002 27100 106309,106021,105652
 3.5000e+000 105952 -2.6096e+002 -2.2374e+002  2.1413e+002 27100 106093,105808,105782
 3.5000e+000 105929 -1.4930e+002 -1.4151e+002  1.1639e+002 27100 106165,105704,105678
 3.5000e+000 105906 -6.6941e+001 -1.8969e+002  9.0555e+001 27100 106237,105730,105704
 3.5000e+000 105883 -6.9345e+001 -1.1822e+002  7.1070e+001 27100 106309,105652,105626
 3.5000e+000 105860 -3.6884e+001 -6.2670e+000  1.2271e+001 27100 105730,105782,105756
 3.5000e+000 106047 -1.3142e+002 -1.1305e+002  1.3208e+002 27100 106237,105704,106021
 3.5000e+000 106070 -1.4241e+002 -1.1329e+002  1.6377e+002 27100 106093,105782,106021
 3.5000e+000 106119 -9.7059e+001 -1.7805e+002  1.0490e+002 27100 105834,105808,106093
 3.5000e+000 106142 -1.1075e+002 -2.2590e+002  1.4002e+002 27100 106381,106093,106021
 3.5000e+000 106191 -1.4782e+002 -1.2757e+002  1.2623e+002 27100 105652,106021,106165
 3.5000e+000 106214 -1.4805e+002 -1.3981e+002  1.2444e+002 27100 105652,106165,105678
 3.5000e+000 106263 -6.8244e+000 -1.0355e+002  6.4334e+001 27100 105782,105730,106237
 3.5000e+000 106286 -8.5893e+001 -4.7867e+001  1.1214e+002 27100 105782,106237,106021
 3.5000e+000 106335 -9.4516e+001 -1.4267e+002  1.1201e+002 27100 106381,106021,106309
 3.5000e+000 106358 -5.6311e+001 -7.8024e+001  5.8961e+001 27100 105834,106309,105626
 3.5000e+000 106407 -6.2953e+001 -1.2619e+002  8.5983e+001 27100 105834,106093,106381
 3.5000e+000 106430 -6.7829e+001 -1.0618e+002  5.4051e+001 27100 105834,106381,106309
 3.5000e+000 106629 -6.2995e+001 -2.5830e+002  5.8491e+001 26688 106479,106557,106531
 3.5000e+000 106606 -8.6333e+001 -2.2282e+002  5.6657e+001 26688 106453,106557,106479
 3.5000e+000 106583 -9.9373e+001 -2.5364e+002  1.5801e+001 26688 106479,106531,106505
 3.5000e+000 107088 -6.1872e+001 -7.1498e+001  2.7688e+001 26248 107111,106918,106866
 3.5000e+000 107065 -6.9844e+001 -6.4437e+001  3.6722e+001 26248 107111,106866,106840
 3.5000e+000 107042 -5.9806e+001 -4.8996e+001  3.8055e+001 26248 106814,106970,106840
 3.5000e+000 107019 -7.8578e+001 -1.2434e+002  2.6745e+001 26248 106866,106918,106892
 3.5000e+000 106996 -1.2938e+002 -1.0335e+002  2.9453e+001 26248 106918,106970,106944
 3.5000e+000 107137 -7.6920e+001 -8.2539e+001  2.0555e+001 26248 106970,106918,107111
 3.5000e+000 107160 -7.5415e+001 -6.7749e+001  3.1060e+001 26248 106970,107111,106840
 3.5000e+000 107666 -2.1651e+002 -9.4586e+001  8.3653e+001 25908 107369,107499,107395
 3.5000e+000 107643 -2.8644e+002 -2.8063e+002  1.4931e+002 25908 107369,107525,107499
 3.5000e+000 107620 -1.7288e+002 -1.1805e+002  9.7636e+001 25908 107395,107473,107447
 3.5000e+000 107597 -1.4851e+002 -6.6983e+001  7.6241e+001 25908 107395,107499,107473
 3.5000e+000 107574 -3.0375e+002 -1.6798e+002  2.2996e+002 25908 107395,107447,107421
 3.5000e+000 107551 -1.3065e+002 -2.2062e+002  1.3116e+002 25908 107343,107525,107369
 3.5000e+000 108251 -1.1756e+002 -5.2909e+001  8.2072e+001 25454 108274,108006,107954
 3.5000e+000 108228 -9.4400e+001 -2.7747e+001  6.2388e+001 25454 108274,107954,108110
 3.5000e+000 108205 -9.0940e+001 -1.1098e+002  9.1868e+001 25454 108346,108032,108006
 3.5000e+000 108182 -1.5136e+002 -8.8379e+001  1.0177e+002 25454 107954,108006,107980
 3.5000e+000 108159 -4.0214e+001 -6.9376e+001  5.3786e+001 25454 107928,108110,107954
 3.5000e+000 108136 -1.9586e+002 -2.4283e+002  1.2249e+002 25454 108058,108110,108084
 3.5000e+000 108300 -1.1359e+002 -8.5458e+001  9.4430e+001 25454 108346,108006,108274
 3.5000e+000 108323 -9.8923e+001 -5.1078e+001  7.6212e+001 25454 108058,108274,108110
 3.5000e+000 108372 -6.9182e+001 -7.6726e+001  8.0168e+001 25454 108058,108032,108346
 3.5000e+000 108395 -9.0249e+001 -4.4289e+001  8.4200e+001 25454 108058,108346,108274
 3.5000e+000 108822 -9.4751e+001 -7.4789e+001  5.4914e+001 24943 108525,108681,108655
 3.5000e+000 108799 -1.3521e+002 -1.0047e+002  1.8046e+001 24943 108499,108681,108525
 3.5000e+000 108776 -4.9594e+001 -5.6917e+001  4.0389e+001 24943 108525,108655,108629
 3.5000e+000 108753 -9.2301e+001 -4.2446e+001  3.4628e+001 24943 108525,108629,108603
 3.5000e+000 108730 -2.0226e+002 -6.2460e+001  7.8589e+001 24943 108551,108603,108577
 3.5000e+000 108707 -1.9515e+002 -1.2092e+002  1.1158e+002 24943 108525,108603,108551
 3.5000e+000 109407 -7.0514e+000 -3.5463e+001  1.4911e+001 24745 109162,109214,109188
 3.5000e+000 109384 -8.0346e+001 -4.0751e+001  2.1101e+001 24745 109162,109266,109214
 3.5000e+000 109361 -8.8366e+001 -4.5401e+001  1.4279e+001 24745 109084,109266,109162
 3.5000e+000 109338 -1.4190e+002 -2.1135e+001  3.6850e+001 24745 109084,109162,109136
 3.5000e+000 109315 -4.3232e+001 -6.9026e+001  2.5254e+001 24745 109214,109266,109240
 3.5000e+000 109292 -1.0476e+002 -3.0384e+001  5.7249e+001 24745 109084,109136,109110
 3.5000e+000 109785 -2.7145e+002 -1.2914e+002  1.6660e+002 24341 109537,109615,109563
 3.5000e+000 109762 -2.3693e+001 -5.4116e+001  1.4157e+002 24341 109537,109641,109615
 3.5000e+000 109739 -1.7647e+002 -1.3501e+002  1.1797e+002 24341 109563,109615,109589
 3.5000e+000 109716 -1.1556e+002 -1.0284e+002  9.7577e+001 24341 109537,109667,109641
 3.5000e+000 109693 -6.6783e+001 -1.2752e+002  8.3434e+001 24341 109511,109667,109537
 3.5000e+000 110163 -3.0271e+002 -1.8460e+002  1.7152e+002 23837 110186,109967,109915
 3.5000e+000 110140 -2.8232e+002 -1.9080e+002  1.8643e+002 23837 110186,109915,109889
 3.5000e+000 110117 -1.3118e+002 -7.5856e+001  1.4459e+002 23837 109889,110045,109993
 3.5000e+000 110094 -2.9678e+002 -2.4439e+002  1.4256e+002 23837 109915,109967,109941
 3.5000e+000 110071 -1.6505e+002 -1.4703e+000  3.4266e+001 23837 109993,110045,110019
 3.5000e+000 110212 -2.8871e+002 -1.6966e+002  1.7967e+002 23837 109993,109967,110186
 3.5000e+000 110235 -2.7761e+002 -1.7540e+002  1.9438e+002 23837 109993,110186,109889
 3.5000e+000 110336 -1.3549e+002 -3.1500e+002  1.4286e+002 23433 110258,110310,110284
 3.5000e+000 110584 -1.8324e+002 -1.3172e+002  8.3468e+001 22829 110607,110411,110385
 3.5000e+000 110561 -2.1990e+002 -1.5080e+002  1.1240e+002 22829 110607,110385,110489
 3.5000e+000 110538 -1.5165e+002 -1.4263e+002  7.2332e+001 22829 110437,110489,110463
 3.5000e+000 110515 -1.7677e+002 -9.7165e+001  1.3104e+002 22829 110359,110489,110385
 3.5000e+000 110633 -1.8167e+002 -1.0158e+002  5.5777e+001 22829 110437,110411,110607
 3.5000e+000 110656 -2.0266e+002 -1.2291e+002  8.3035e+001 22829 110437,110607,110489
 3.5000e+000 110906 -3.6826e+002 -1.5518e+002  1.2653e+002 22432 110707,110759,110733
 3.5000e+000 110883 -2.1383e+002 -1.7696e+002  1.0300e+002 22432 110707,110785,110759
 3.5000e+000 110860 -2.0502e+002 -1.6309e+002  1.3927e+002 22432 110707,110811,110785
 3.5000e+000 110837 -2.6528e+002 -1.9016e+002  1.0648e+002 22432 110681,110811,110707
 3.5000e+000 111288 -3.5520e+001 -8.6115e+001  7.8956e+001 22142 111092,111144,111118
 3.5000e+000 111265 -9.4823e+001 -7.0358e+001  6.0854e+001 22142 111066,111144,111092
 3.5000e+000 111242 -9.4440e+001 -7.4249e+001  5.3736e+001 22142 111040,111144,111066
 3.5000e+000 111219 -1.9263e+002 -1.0133e+001  3.8471e+001 22142 111014,111144,111040
 3.5000e+000 111196 -1.1963e+002  6.2705e+000  5.4059e+001 22142 111014,111170,111144
 3.5000e+000 111389 -2.4782e+001 -6.2274e+001  1.1778e+002 21830 111311,111363,111337
 3.5000e+000 111735 -2.4924e+002 -2.0078e+001  1.8108e+002 21268 111758,111542,111438
 3.5000e+000 111712 -1.6324e+002  9.5886e+000  1.1625e+002 21268 111758,111438,111412
 3.5000e+000 111689 -7.7075e+001 -1.6261e+002  2.1751e+002 21268 111438,111542,111464
 3.5000e+000 111666  1.1476e-001 -1.2550e+002  2.9082e+002 21268 111464,111542,111490
 3.5000e+000 111643 -4.1626e+002 -2.1711e+002  2.2795e+002 21268 111412,111594,111568
 3.5000e+000 111620  1.5255e+002  8.3923e+001  3.7982e+002 21268 111490,111542,111516
 3.5000e+000 111784 -2.7499e+002 -4.4212e+001  1.9750e+002 21268 111568,111542,111758
 3.5000e+000 111807 -2.4945e+002 -1.1508e+002  1.5530e+002 21268 111568,111758,111412
 3.5000e+000 111959 -2.9596e+002 -3.6182e+001  9.6256e+001 20864 111982,111910,111884
 3.5000e+000 111936 -2.6214e+002 -6.5418e+001  1.3384e+002 20864 112114,111832,111910
 3.5000e+000 112008 -2.9401e+002 -1.0637e+002  1.1684e+002 20864 112114,111910,111982
 3.5000e+000 112140 -2.5050e+002 -1.1741e+002  9.8668e+001 20864 111858,111832,112114
 3.5000e+000 112163 -2.8308e+002 -1.6409e+002  8.2018e+001 20864 111858,112114,111982
 3.5000e+000 112411 -3.0458e+001 -5.7530e+000  1.0995e+001 20324 112186,112290,112212
 3.5000e+000 112388 -1.4475e+001 -4.5846e+000  1.6138e+001 20324 112186,112316,112290
 3.5000e+000 112365  9.4437e+001 -7.1909e+001  7.1435e+000 20324 112212,112290,112264
 3.5000e+000 112342 -3.7329e+002 -1.5995e+002 -1.9621e+001 20324 112212,112264,112238
 3.5000e+000 112659 -1.0350e+001 -2.3773e+000  1.1329e+002 19920 112512,112564,112538
 3.5000e+000 112636 -1.2543e+002 -4.8319e+001  7.2559e+001 19920 112434,112564,112512
 3.5000e+000 112613 -1.3144e+002 -8.9143e+001  8.4489e+001 19920 112434,112512,112460
 3.5000e+000 112590 -1.5083e+002 -9.6334e+001  9.0834e+001 19920 112460,112512,112486
 3.5000e+000 112811 -2.2500e+001 -9.3579e+000  4.1814e+001 19630 112684,112736,112710
 3.5000e+000 112788  3.7694e+001 -5.1782e+001  8.9241e+000 19630 112684,112762,112736
 3.5000e+000 113012 -1.1288e+002 -4.5848e+001  1.2787e+002 19169 112862,112940,112888
 3.5000e+000 112989 -1.9279e+002 -1.6230e+002  9.3012e+001 19169 112836,112940,112862
 3.5000e+000 112966 -9.1753e+001 -1.4005e+002  9.8910e+001 19169 112888,112940,112914
 3.5000e+000 113213 -2.0200e+002 -8.4606e+001  1.1221e+002 18600 113037,113089,113063
 3.5000e+000 113190 -1.2905e+002 -8.4225e+001  9.7276e+001 18600 113037,113115,113089
 3.5000e+000 113167 -2.0997e+002 -1.6704e+002  1.4980e+002 18600 113037,113141,113115
 3.5000e+000 113485 -1.2249e+002 -5.0174e+001  1.2233e+002 18352 113260,113312,113286
 3.5000e+000 113462 -2.4477e+002 -1.5946e+002  1.6939e+002 18352 113260,113390,113312
 3.5000e+000 113439 -2.2781e+002 -5.2856e+001  1.3128e+002 18352 113312,113390,113364
 3.5000e+000 113416 -9.2366e+001 -3.6677e+001  1.3482e+002 18352 113312,113364,113338
 3.5000e+000 113757 -1.7961e+002 -7.4354e+001  1.3040e+002 17834 113558,113610,113584
 3.5000e+000 113734 -2.5714e+002 -1.4833e+002  1.6823e+002 17834 113532,113610,113558
 3.5000e+000 113711 -2.6608e+002 -1.7779e+002  1.3985e+002 17834 113532,113662,113610
 3.5000e+000 113688 -1.3829e+002 -5.3608e+001  1.9087e+002 17834 113610,113662,113636
 3.5000e+000 113958 -1.7607e+002 -7.3914e+001  1.0026e+002 17330 113782,113834,113808
 3.5000e+000 113935 -8.0370e+001 -5.5398e+001  6.7606e+001 17330 113782,113886,113834
 3.5000e+000 113912 -1.0358e+002 -4.9958e+001  4.2553e+001 17330 113834,113886,113860
 3.5000e+000 114110 -2.7147e+002 -1.1160e+002  1.7427e+002 16874 113983,114035,114009
 3.5000e+000 114087 -1.0096e+002 -2.3561e+002  1.3706e+002 16874 113983,114061,114035
 3.5000e+000 114465 -2.9516e+002 -1.2565e+002  7.3914e+001 16270 114240,114292,114266
 3.5000e+000 114442 -2.6058e+002 -6.5894e+001  4.2536e+001 16270 114240,114370,114292
 3.5000e+000 114419 -1.2434e+002 -5.2850e+001  5.4439e+001 16270 114292,114344,114318
 3.5000e+000 114396 -2.9282e+002 -1.3070e+002  2.9833e+001 16270 114292,114370,114344
 3.5000e+000 114566 -5.7543e+000  5.7543e+000  2.3040e+002 15834 114488,114540,114514
 3.5000e+000 114667 -1.7686e+002 -7.3687e+001  1.1654e+002 15155 114589,114641,114615
 3.5000e+000 114890 -1.1045e+002 -4.2927e+001  1.6113e+002 421 114766,114818,114792
 3.5000e+000 114867 -1.8828e+002 -1.8297e+002  1.2876e+002 421 114714,114818,114766
 3.5000e+000 114844 -2.8256e+002 -1.2012e+002  7.7065e+001 421 114714,114766,114740
 3.6000e+000 66553 -9.3928e+001 -4.0249e+001  2.1183e+001 66108 66354,66458,66432
 3.6000e+000 66530 -7.3153e+001 -3.1881e+001  2.1363e+001 66108 66328,66458,66354
 3.6000e+000 66507 -6.9642e+001 -1.8506e+001  1.0108e+001 66108 66354,66432,66406
 3.6000e+000 66484 -4.8776e+001 -2.0870e+001  1.4756e+001 66108 66354,66406,66380
 3.6000e+000 66951 -1.6013e+002 -6.8788e+001  1.1997e+001 65910 66703,66833,66807
 3.6000e+000 66928 -1.4194e+002 -6.1008e+001  9.1476e+000 65910 66677,66833,66703
 3.6000e+000 66905 -1.5303e+002 -1.1722e+002 -1.0778e+001 65910 66729,66781,66755
 3.6000e+000 66882 -1.0862e+002 -4.6622e+001  1.6195e+001 65910 66729,66807,66781
 3.6000e+000 66859 -1.2648e+002 -4.8119e+001  2.2099e+001 65910 66703,66807,66729
 3.6000e+000 67150 -4.3879e+001 -1.9190e+001  3.3530e+000 65712 67026,67078,67052
 3.6000e+000 67127 -8.4362e+001 -9.6660e+000  1.1498e+000 65712 66974,67078,67026
 3.6000e+000 67104 -1.5811e+002 -8.4209e+001  4.2352e+001 65712 66974,67026,67000
 3.6000e+000 67481 -1.7297e+002 -3.1481e+001  5.4114e+001 65422 67282,67360,67334
 3.6000e+000 67458 -8.8159e+001 -3.6748e+001  7.7749e+001 65422 67282,67386,67360
 3.6000e+000 67435 -6.2860e+001  2.1666e+001  3.7127e+001 65422 67282,67334,67308
 3.6000e+000 67412 -6.6898e-001  8.7762e+000  2.1401e+001 65422 67256,67386,67282
 3.6000e+000 68115 -7.8652e+001 -3.8393e+001  2.4903e+001 65018 67795,67925,67873
 3.6000e+000 68092 -8.4692e+001 -4.1248e+001  2.9775e+001 65018 67769,67925,67795
 3.6000e+000 68069 -4.2802e+001 -2.2610e+001  3.7872e+001 65018 67873,67925,67899
 3.6000e+000 68046 -1.1255e+002 -9.2573e+001  4.9729e+001 65018 67769,67951,67925
 3.6000e+000 68023 -8.6773e+001 -6.1073e+001  2.7473e+001 65018 67795,67873,67821
 3.6000e+000 68000 -1.1877e+002 -6.8144e+001  2.3802e+001 65018 67821,67873,67847
 3.6000e+000 67977 -1.2409e+002 -1.5417e+002  5.0572e+000 65018 67743,67951,67769
 3.6000e+000 68363 -1.0099e+002 -2.3310e+002  1.1873e+002 64820 68190,68242,68216
 3.6000e+000 68340 -1.7661e+002 -1.5132e+002  1.2554e+002 64820 68190,68268,68242
 3.6000e+000 68317 -8.9058e+001 -1.1088e+002  1.4623e+002 64820 68164,68268,68190
 3.6000e+000 68294 -3.1121e+002 -1.3278e+002  8.1339e+001 64820 68138,68268,68164
 3.6000e+000 68513 -1.6539e+002 -9.2510e+001  4.3964e+001 64366 68868,68536,68438
 3.6000e+000 68490 -1.2445e+002 -6.3359e+001  3.7313e+001 64366 68536,68412,68386
 3.6000e+000 68562 -1.8517e+002 -9.1525e+001  6.6874e+001 64366 68740,68536,68464
 3.6000e+000 68585 -1.2886e+002 -5.2353e+001  3.8978e+001 64366 68608,68536,68386
 3.6000e+000 68634 -1.5837e+002 -1.2507e+002  3.5581e+001 64366 68464,68536,68608
 3.6000e+000 68766 -1.7957e+002 -9.1813e+001  6.7401e+001 64366 68438,68536,68740
 3.6000e+000 68894 -1.0059e+002 -4.9836e+001  7.1813e+001 64366 68412,68536,68868
 3.6000e+000 69172 -2.3993e+002 -1.7414e+002 -5.3211e+000 64168 69022,69074,69048
 3.6000e+000 69149 -3.1431e+002 -1.3520e+002  1.8334e+001 64168 68996,69074,69022
 3.6000e+000 69126 -3.0678e+002 -1.2406e+002  3.5651e+001 64168 68996,69100,69074
 3.6000e+000 69371 -1.1961e+002 -5.9628e+001  6.8559e+001 63970 69466,69394,69273
 3.6000e+000 69348 -1.5771e+002 -5.7684e+001  6.4522e+001 63970 69394,69247,69221
 3.6000e+000 69325 -1.1975e+002 -5.1376e+001  9.1092e+000 63970 69195,69299,69221
 3.6000e+000 69420 -3.6966e+001 -5.5183e+001  2.7306e+001 63970 69299,69273,69394
 3.6000e+000 69443 -1.3430e+002 -9.2737e+001  2.7521e+001 63970 69299,69394,69221
 3.6000e+000 69492 -1.3134e+002 -4.6252e+001  5.9645e+001 63970 69247,69394,69466
 3.6000e+000 69904 -6.6143e+000 -1.2249e+002  2.5285e+001 63680 69705,69783,69731
 3.6000e+000 69881  5.3220e+000 -1.0487e+002  1.3763e+001 63680 69679,69783,69705
 3.6000e+000 69858 -1.2346e+002 -1.2128e+002  3.7928e+001 63680 69679,69809,69783
 3.6000e+000 69835 -1.0635e+002 -1.6550e+002  3.3955e+000 63680 69731,69783,69757
 3.6000e+000 70054 -3.8353e+001 -7.5758e+001  1.7494e+001 63476 70077,69953,69927
 3.6000e+000 70031 -2.9012e+001 -4.3445e+001  3.3944e+001 63476 70077,69927,70005
 3.6000e+000 70103 -5.8630e+001 -5.2265e+001  3.9136e+000 63476 69979,69953,70077
 3.6000e+000 70126 -5.1900e+001 -2.2198e+001  1.7681e+001 63476 69979,70077,70005
 3.6000e+000 70325 -2.7838e+002 -1.5131e+002  4.1807e+001 63278 70149,70227,70175
 3.6000e+000 70302 -1.8169e+002 -7.8434e+001  9.2944e+001 63278 70149,70253,70227
 3.6000e+000 70279 -2.9587e+002 -2.5893e+002  6.0861e+001 63278 70175,70227,70201
 3.6000e+000 70597 -9.3486e+001 -4.7761e+001  1.3108e+001 63080 70372,70476,70424
 3.6000e+000 70574 -1.4900e+002 -6.3986e+001 -5.4067e+000 63080 70372,70502,70476
 3.6000e+000 70551 -6.8026e+001 -2.9215e+001 -8.3954e+000 63080 70424,70476,70450
 3.6000e+000 70528 -9.8759e+001 -5.1274e+001  1.5190e+001 63080 70372,70424,70398
 3.6000e+000 70847 -8.9963e+001 -9.6987e+001  3.2451e+001 62740 70870,70648,70622
 3.6000e+000 70824 -5.9988e+001 -9.8519e+001  1.7385e+001 62740 70870,70622,70752
 3.6000e+000 70801 -7.3652e+001 -7.8823e+001  1.6791e+001 62740 70648,70726,70700
 3.6000e+000 70778 -4.5148e+001 -6.4592e+001 -1.9819e+000 62740 70648,70700,70674
 3.6000e+000 70896 -5.8966e+001 -9.0113e+001  3.1619e+001 62740 70726,70648,70870
 3.6000e+000 70919 -4.4112e+001 -9.9768e+001  1.3803e+001 62740 70726,70870,70752
 3.6000e+000 71022 -3.6804e+000  3.6804e+000  1.8430e+002 62520 70944,70996,70970
 3.6000e+000 71223 -2.4826e+002 -2.0790e+002  1.5089e+002 62230 71073,71151,71099
 3.6000e+000 71200 -1.7403e+002 -1.7885e+002  1.4953e+002 62230 71047,71151,71073
 3.6000e+000 71177 -1.5240e+002 -3.2255e+002  1.0390e+002 62230 71099,71151,71125
 3.6000e+000 71861 -3.1198e+001 -1.4175e+001  1.6632e+001 61712 71515,71697,71671
 3.6000e+000 71838 -4.5611e+001 -4.3535e+001 -4.0035e-001 61712 71489,71697,71515
 3.6000e+000 71815 -2.0991e+002 -6.4568e+001  1.0317e+002 61712 71884,71541,71515
 3.6000e+000 71792 -1.4056e+002  3.7769e+000  7.2780e+001 61712 71884,71515,71671
 3.6000e+000 71769 -4.3418e+001 -1.3921e+002  5.7461e+001 61712 71541,71619,71593
 3.6000e+000 71746 -3.7074e+001 -1.3584e+001  6.3956e+001 61712 71619,71671,71645
 3.6000e+000 71723 -2.2479e+002 -2.6645e+002  1.5877e+002 61712 71541,71593,71567
 3.6000e+000 71910 -1.3544e+002 -1.2939e+002  1.2585e+002 61712 71619,71541,71884
 3.6000e+000 71933 -9.2270e+001 -8.1530e+001  1.0330e+002 61712 71619,71884,71671
 3.6000e+000 72230 -2.8208e+002 -2.5731e+002  5.6302e+001 61208 72253,72060,72008
 3.6000e+000 72207 -2.4752e+002 -1.4696e+002  5.9525e+001 61208 72253,72008,71982
 3.6000e+000 72184 -1.8172e+002 -5.1791e+001  3.3084e+001 61208 71982,72112,72086
 3.6000e+000 72161 -3.0333e+002 -2.3891e+002  8.7074e+001 61208 72008,72060,72034
 3.6000e+000 72138 -1.0182e+002 -1.7017e+001  7.3105e+001 61208 71956,72112,71982
 3.6000e+000 72279 -2.9354e+002 -1.7311e+002  9.2974e+000 61208 72086,72060,72253
 3.6000e+000 72302 -2.9022e+002 -1.1148e+002  9.3735e+000 61208 72086,72253,71982
 3.6000e+000 72761 -6.2057e+001 -1.1171e+002 -2.2935e+000 60804 72487,72617,72513
 3.6000e+000 72738 -1.1308e+002 -1.4750e+002  2.3799e+001 60804 72487,72643,72617
 3.6000e+000 72715 -3.9075e+001 -2.3339e+002  3.3148e+001 60804 72565,72617,72591
 3.6000e+000 72692 -1.1395e+002 -1.7422e+002  4.6873e+001 60804 72513,72617,72565
 3.6000e+000 72669 -8.6374e+001 -1.3897e+002 -2.0291e+001 60804 72513,72565,72539
 3.6000e+000 72911 -3.6804e+000  3.6804e+000  1.8430e+002 60556 72784,72836,72810
 3.6000e+000 72888  1.5832e+002  7.4588e+001  1.0559e+002 60556 72784,72862,72836
 3.6000e+000 73468 -5.2074e+001 -1.1625e+002  2.7635e+001 60244 73491,73226,73200
 3.6000e+000 73445 -9.5752e+001 -1.8084e+002  5.5742e+001 60244 73563,73491,73200
 3.6000e+000 73422 -1.5465e+002 -1.8902e+002  6.9123e+001 60244 73563,73200,73174
 3.6000e+000 73399 -3.3518e+001 -1.4044e+002  2.3775e+001 60244 73226,73278,73252
 3.6000e+000 73376 -1.2571e+002 -9.5288e+001  4.5860e+001 60244 73122,73304,73278
 3.6000e+000 73353 -1.2294e+002 -1.0774e+002  4.9900e+001 60244 73096,73304,73122
 3.6000e+000 73330 -1.7547e+002 -1.2552e+001 -4.9187e+000 60244 73122,73174,73148
 3.6000e+000 73517 -1.3320e+002 -1.6158e+002  5.6208e+001 60244 73278,73226,73491
 3.6000e+000 73540 -1.1130e+002 -9.3744e+001  4.4787e+001 60244 73278,73491,73122
 3.6000e+000 73589 -2.0604e+002 -1.5232e+002  7.0642e+001 60244 73122,73491,73563
 3.6000e+000 73612 -2.6478e+002 -1.6282e+002  8.7500e+001 60244 73122,73563,73174
 3.6000e+000 73762 -5.1549e+001 -1.2243e+002  1.1400e+002 59875 73661,73713,73687
 3.6000e+000 73739 -1.3959e+002 -8.7495e+001  8.9939e+001 59875 73635,73713,73661
 3.6000e+000 74191 -1.2807e+002 -2.9905e+002  9.7079e+001 59478 74214,73894,73868
 3.6000e+000 74168 -1.8280e+002 -2.8658e+002  1.0471e+002 59478 74214,73868,74050
 3.6000e+000 74145 -2.0070e+002 -2.4897e+002  6.6605e+001 59478 73894,73946,73920
 3.6000e+000 74122 -1.5521e+002 -2.8990e+002  6.0328e+001 59478 73894,73998,73946
 3.6000e+000 74099 -3.2502e+002 -3.0544e+002  1.8208e+002 59478 73998,74050,74024
 3.6000e+000 74076 -2.0372e+002 -2.9932e+002  2.9189e+001 59478 73946,73998,73972
 3.6000e+000 74240 -1.7663e+002 -2.8804e+002  7.9094e+001 59478 73998,73894,74214
 3.6000e+000 74263 -2.3257e+002 -2.8099e+002  7.7872e+001 59478 73998,74214,74050
 3.6000e+000 74720 -1.2360e+002 -6.1771e+001  4.9047e+001 58774 74472,74602,74498
 3.6000e+000 74697 -1.4635e+002 -1.0338e+002  2.5464e+001 58774 74446,74602,74472
 3.6000e+000 74674 -1.4280e+002 -5.7344e+001  5.4889e+001 58774 74498,74576,74524
 3.6000e+000 74651 -1.3612e+002 -7.0079e+001  4.2111e+001 58774 74498,74602,74576
 3.6000e+000 74628 -1.4097e+002 -9.4841e+000  3.6724e+001 58774 74524,74576,74550
 3.6000e+000 75226 -8.5578e+001 -1.1450e+002  4.1827e+001 58270 74955,75085,75033
 3.6000e+000 75203 -6.7818e+001 -8.5030e+001  4.9612e+001 58270 74929,75085,74955
 3.6000e+000 75180 -1.4711e+002 -1.3578e+002  9.0630e+001 58270 75033,75085,75059
 3.6000e+000 75157 -1.3131e+002 -1.7607e+002  4.9783e+001 58270 74955,75007,74981
 3.6000e+000 75134 -1.0496e+002 -1.2189e+002  3.0316e+001 58270 74955,75033,75007
 3.6000e+000 75111 -2.5343e+001 -9.6520e+001  2.4917e+001 58270 74903,75085,74929
 3.6000e+000 75425 -1.1024e+002 -1.4386e+002  5.1284e+001 57830 75448,75301,75249
 3.6000e+000 75402 -7.0681e+001 -1.2577e+002  4.2736e+001 57830 75448,75249,75353
 3.6000e+000 75379 -1.5351e+002 -2.3422e+002  4.5961e+001 57830 75520,75301,75275
 3.6000e+000 75474 -9.4112e+001 -1.6388e+002  8.2590e+001 57830 75327,75301,75448
 3.6000e+000 75497 -5.7321e+001 -1.4786e+002  7.8899e+001 57830 75327,75448,75353
 3.6000e+000 75546 -8.2243e+001 -1.5691e+002  1.6219e+001 57830 75249,75301,75520
 3.6000e+000 76261 -7.6461e+001 -1.0821e+002  4.8856e+001 57426 76284,76097,76071
 3.6000e+000 76238 -1.3343e+002 -4.9369e+001  5.7702e+001 57426 75889,76097,75915
 3.6000e+000 76215 -8.7073e+001 -1.0171e+002  6.2675e+001 57426 76428,76284,76071
 3.6000e+000 76192 -7.0082e+001 -9.0083e+001  3.9307e+001 57426 76356,75941,75915
 3.6000e+000 76169 -8.1727e+001 -1.0200e+002  6.5674e+001 57426 76428,76071,76019
 3.6000e+000 76146 -9.9081e+001 -1.5411e+002  5.9253e+001 57426 76019,76071,76045
 3.6000e+000 76123 -1.0796e+002 -1.1506e+002  9.4344e+001 57426 75967,76019,75993
 3.6000e+000 76310 -7.5632e+001 -1.0517e+002  4.4412e+001 57426 75915,76097,76284
 3.6000e+000 76333 -7.7597e+001 -1.0263e+002  4.2560e+001 57426 76356,75915,76284
 3.6000e+000 76382 -8.8797e+001 -7.5000e+001  5.1916e+001 57426 75967,75941,76356
 3.6000e+000 76405 -9.2430e+001 -8.2277e+001  5.3278e+001 57426 75967,76356,76284
 3.6000e+000 76454 -9.6728e+001 -9.9361e+001  6.4399e+001 57426 75967,76284,76428
 3.6000e+000 76477 -8.8172e+001 -9.7687e+001  6.6279e+001 57426 75967,76428,76019
 3.6000e+000 76953 -9.2818e+001 -1.3340e+002  8.1065e+001 56908 76976,76711,76685
 3.6000e+000 76930 -9.0335e+001 -1.3055e+002  8.5876e+001 56908 77048,76976,76685
 3.6000e+000 76907 -1.6429e+002 -1.4190e+002  1.2246e+002 56908 77048,76685,76633
 3.6000e+000 76884 -2.4634e+002 -1.7734e+002  1.2213e+002 56908 76711,76789,76763
 3.6000e+000 76861 -1.2656e+002 -5.5243e+001  5.0537e+001 56908 76581,76789,76607
 3.6000e+000 76838 -2.1358e+002 -5.8252e+001  8.1930e+001 56908 76711,76763,76737
 3.6000e+000 76815 -4.4134e+002 -3.4986e+002  2.7144e+002 56908 76633,76685,76659
 3.6000e+000 77002 -1.2003e+002 -1.4203e+002  7.4166e+001 56908 76789,76711,76976
 3.6000e+000 77025 -1.1364e+002 -4.8553e+001  5.1634e+001 56908 76789,76976,76607
 3.6000e+000 77074 -2.0359e+002 -1.3017e+002  8.7689e+001 56908 76607,76976,77048
 3.6000e+000 77097 -2.4003e+002 -1.0830e+002  1.2030e+002 56908 76607,77048,76633
 3.6000e+000 77475 -6.8127e+001 -5.5991e+001  6.8792e+001 56546 77570,77498,77279
 3.6000e+000 77452 -4.4294e+001 -1.2257e+002  8.6231e+001 56546 77498,77227,77357
 3.6000e+000 77429 -7.9375e+001 -6.9482e+001  8.2996e+001 56546 77570,77279,77253
 3.6000e+000 77406 -1.2179e+002 -1.6340e+002  1.1054e+002 56546 77201,77357,77227
 3.6000e+000 77383 -5.9678e+001 -4.7915e+001  1.5934e+001 56546 77279,77331,77305
 3.6000e+000 77524 -6.2235e+001  1.3245e+001  6.3291e+001 56546 77331,77279,77498
 3.6000e+000 77547 -2.2547e+001 -5.3219e+001  1.1429e+002 56546 77331,77498,77357
 3.6000e+000 77596 -7.8905e+001 -6.4302e+001  9.1980e+001 56546 77227,77498,77570
 3.6000e+000 77619 -9.3716e+001 -1.0047e+002  1.0559e+002 56546 77227,77570,77253
 3.6000e+000 77818 -8.1085e+001 -8.0529e+001  6.7352e+001 56042 77841,77694,77668
 3.6000e+000 77795 -5.9982e+001 -6.7937e+001  5.7397e+001 56042 77841,77668,77746
 3.6000e+000 77772 -7.2864e+001 -4.2872e+001  5.3352e+001 56042 77642,77746,77668
 3.6000e+000 77867 -9.0647e+001 -8.8510e+001  8.4151e+001 56042 77720,77694,77841
 3.6000e+000 77890 -6.6569e+001 -7.3855e+001  7.3839e+001 56042 77720,77841,77746
 3.6000e+000 78349 -1.7754e+002 -1.3931e+002  7.9645e+001 55538 78075,78127,78101
 3.6000e+000 78326 -2.1647e+002 -1.7737e+002  4.5115e+001 55538 78075,78205,78127
 3.6000e+000 78303 -2.7260e+002 -8.9600e+001  7.1301e+001 55538 78075,78231,78205
 3.6000e+000 78280 -1.3565e+002 -2.3467e+002  1.1496e+002 55538 78127,78179,78153
 3.6000e+000 78257 -1.5582e+002 -1.6722e+002  4.4959e+001 55538 78127,78205,78179
 3.6000e+000 78806 -9.3520e+001 -1.0245e+002  3.5307e+001 55034 78829,78636,78610
 3.6000e+000 78783 -1.0884e+002 -1.1894e+002  4.1953e+001 55034 78901,78829,78610
 3.6000e+000 78760 -1.0019e+002 -1.4083e+002  5.6500e+001 55034 78901,78610,78584
 3.6000e+000 78737 -9.8651e+001 -9.1975e+001  4.9604e+001 55034 78558,78688,78662
 3.6000e+000 78714 -8.8439e+001 -6.4454e+001  6.3204e+001 55034 78532,78688,78558
 3.6000e+000 78855 -1.0739e+002 -9.7189e+001  3.6287e+001 55034 78662,78636,78829
 3.6000e+000 78878 -1.1187e+002 -9.6082e+001  4.5607e+001 55034 78662,78829,78558
 3.6000e+000 78927 -9.4867e+001 -8.8838e+001  4.5714e+001 55034 78558,78829,78901
 3.6000e+000 78950 -8.4754e+001 -1.0488e+002  5.8016e+001 55034 78558,78901,78584
 3.6000e+000 79407 -3.7651e+001 -6.9424e+001  6.0318e+001 54430 79430,79237,79159
 3.6000e+000 79384 -2.1187e+001 -8.3774e+001  3.9568e+001 54430 79430,79159,79133
 3.6000e+000 79361 -6.6907e+001 -7.2122e+001  3.8678e+001 54430 79237,79289,79263
 3.6000e+000 79338 -3.4260e+001 -1.1267e+002  2.2657e+001 54430 79185,79237,79211
 3.6000e+000 79315 -1.2405e+002 -1.1773e+002  8.4102e+001 54430 79159,79237,79185
 3.6000e+000 79456 -4.4013e+001 -8.7394e+001  5.9558e+001 54430 79289,79237,79430
 3.6000e+000 79479 -3.4242e+001 -1.1517e+002  4.2994e+001 54430 79289,79430,79133
 3.6000e+000 79936 -7.9207e+001 -7.4189e+001  8.3457e+001 53919 79662,79766,79688
 3.6000e+000 79913 -2.2873e+002 -1.7094e+002  1.4103e+002 53919 79662,79818,79766
 3.6000e+000 79890 -2.0904e+002 -1.0696e+002  1.3508e+002 53919 79766,79818,79792
 3.6000e+000 79867 -1.6162e+002 -1.6474e+002  5.7352e+001 53919 79714,79766,79740
 3.6000e+000 79844 -1.8496e+002 -1.2287e+002  9.5895e+001 53919 79688,79766,79714
 3.6000e+000 80037 -1.1307e+002 -2.7001e+002  7.8660e+001 53671 79959,80011,79985
 3.6000e+000 80405 -8.6075e+001 -2.1134e+002  6.2155e+001 53267 80108,80264,80238
 3.6000e+000 80382 -1.6296e+002 -2.4545e+002  4.8306e+001 53267 80082,80264,80108
 3.6000e+000 80359 -8.6821e+001 -2.1225e+002  6.2788e+001 53267 80108,80238,80134
 3.6000e+000 80336 -3.2269e+001 -7.6850e+001  5.2950e+001 53267 80134,80212,80186
 3.6000e+000 80313 -9.8436e+001 -1.7322e+002  1.1677e+002 53267 80134,80238,80212
 3.6000e+000 80290 -4.4016e+001 -1.1541e+002  4.9178e+001 53267 80134,80186,80160
 3.6000e+000 80915 -1.7532e+002 -2.7739e+002  3.1670e+001 52969 80644,80774,80748
 3.6000e+000 80892 -1.6692e+002 -2.1027e+002  2.1074e+001 52969 80618,80774,80644
 3.6000e+000 80869 -2.2416e+002 -3.5377e+002 -1.1115e+001 52969 80644,80748,80670
 3.6000e+000 80846 -2.0999e+002 -2.3104e+002  1.5317e+001 52969 80592,80774,80618
 3.6000e+000 80823 -2.5934e+002 -2.6153e+002  2.2194e+001 52969 80670,80722,80696
 3.6000e+000 80800 -1.8838e+002 -2.3100e+002 -1.1275e+001 52969 80670,80748,80722
 3.6000e+000 81266  8.4016e+000  8.5098e-001 -2.0878e-001 52565 81041,81145,81067
 3.6000e+000 81243  9.1728e+000 -3.4440e+000 -9.6176e-001 52565 81041,81171,81145
 3.6000e+000 81220  9.5675e+000  7.8059e-001  2.6496e+000 52565 81067,81119,81093
 3.6000e+000 81197  1.2431e+001  4.9190e+000  1.6285e+000 52565 81067,81145,81119
 3.6000e+000 81723 -7.7826e+000  2.8681e+000 -3.8503e+000 51904 81449,81527,81475
 3.6000e+000 81700 -1.4383e+001 -1.3192e+000  3.9171e+000 51904 81449,81579,81527
 3.6000e+000 81677 -5.9319e+001  4.9136e+000  5.9528e-001 51904 81449,81605,81579
 3.6000e+000 81654 -5.1750e+001  1.8422e+000  1.6311e+000 51904 81527,81579,81553
 3.6000e+000 81631  5.3607e-001  1.4199e+000 -1.1568e+000 51904 81475,81527,81501
 3.6000e+000 82327 -1.1149e+002 -1.1219e+002  8.2670e+001 51321 82422,82350,82036
 3.6000e+000 82304 -1.2430e+002 -7.4517e+001  1.0153e+002 51321 82494,82350,81958
 3.6000e+000 82281 -1.1842e+002 -1.2194e+002  7.4341e+001 51321 82422,82036,82010
 3.6000e+000 82258 -1.4766e+002 -8.6823e+001  1.0699e+002 51321 82494,81958,81932
 3.6000e+000 82235 -1.2386e+002 -3.6386e+001  3.6958e+001 51321 82062,82114,82088
 3.6000e+000 82212 -3.3538e+002 -2.1979e+002  1.5562e+002 51321 81932,82140,82114
 3.6000e+000 82189 -1.2003e+002 -4.7682e+001  8.1912e+001 51321 81958,82010,81984
 3.6000e+000 82166 -4.6617e+001 -1.0579e+002  5.0334e+001 51321 81906,82140,81932
 3.6000e+000 82376 -1.1636e+002 -1.3141e+002  7.9790e+001 51321 82062,82036,82350
 3.6000e+000 82399 -1.1423e+002 -9.1315e+001  7.4509e+001 51321 82062,82350,82114
 3.6000e+000 82448 -1.0178e+002 -1.0213e+002  9.4880e+001 51321 81958,82350,82422
 3.6000e+000 82471 -1.0718e+002 -1.1085e+002  8.6758e+001 51321 81958,82422,82010
 3.6000e+000 82520 -1.3098e+002 -7.2587e+001  8.8808e+001 51321 82114,82350,82494
 3.6000e+000 82543 -1.3361e+002 -7.4789e+001  9.2344e+001 51321 82114,82494,81932
 3.6000e+000 83019 -1.0378e+002 -1.2591e+002  5.2756e+001 50817 82673,82751,82699
 3.6000e+000 82996 -1.5695e+002 -1.1156e+002  6.7565e+001 50817 83042,82673,82855
 3.6000e+000 82973 -1.6155e+002 -1.7964e+002  6.3552e+001 50817 83042,82855,82803
 3.6000e+000 82950 -2.1793e+002 -2.7351e+002  6.6800e+001 50817 82751,82803,82777
 3.6000e+000 82927 -1.2982e+002 -1.2258e+002  4.6285e+001 50817 82647,82855,82673
 3.6000e+000 82904 -2.4654e+002 -2.2422e+002  1.3931e+002 50817 82803,82855,82829
 3.6000e+000 82881 -1.7670e+002 -2.7071e+002  7.5780e+001 50817 82699,82751,82725
 3.6000e+000 83068 -1.3714e+002 -1.6365e+002  1.0888e+002 50817 82751,82673,83042
 3.6000e+000 83091 -1.3377e+002 -2.2654e+002  9.7311e+001 50817 82751,83042,82803
 3.6000e+000 83290 -1.2394e+002 -7.1375e+001  7.1822e+001 50356 83313,83166,83140
 3.6000e+000 83267 -1.1211e+002 -1.0067e+002  6.4228e+001 50356 83515,83313,83140
 3.6000e+000 83244 -1.3437e+002 -6.9485e+001  2.5074e+001 50356 83515,83140,83385
 3.6000e+000 83339 -1.6855e+002 -8.0428e+001  1.0523e+002 50356 83192,83166,83313
 3.6000e+000 83362 -8.2359e+001 -6.9014e+001  8.6763e+001 50356 83192,83313,83218
 3.6000e+000 83411 -1.9487e+001 -1.1266e+001  1.9333e+001 50356 83114,83218,83385
 3.6000e+000 83541 -4.4033e+001 -5.2585e+001  4.2158e+001 50356 83218,83313,83515
 3.6000e+000 83564 -5.5065e+001 -2.7446e+001  4.9686e+000 50356 83218,83515,83385
 3.6000e+000 83893 -1.8675e+002 -1.3209e+002  1.2466e+001 49552 83720,83798,83746
 3.6000e+000 83870 -1.1807e+002 -4.5473e+001  5.5964e+001 49552 83694,83798,83720
 3.6000e+000 83847 -1.0552e+002 -5.2284e+001  5.3946e+001 49552 83668,83798,83694
 3.6000e+000 83824 -2.7607e+002 -7.6935e+001 -1.6977e+001 49552 83746,83798,83772
 3.6000e+000 84141 -1.4149e+002 -9.9900e+001  5.6470e+001 49212 84164,84020,83942
 3.6000e+000 84118 -1.2521e+002 -5.6678e+001  8.6696e+001 49212 84164,83942,83916
 3.6000e+000 84095 -1.1348e+002 -1.3195e+002  3.1905e+001 49212 83942,84020,83968
 3.6000e+000 84072 -8.2449e+001 -1.2125e+001  2.9160e+001 49212 83968,84020,83994
 3.6000e+000 84190 -1.7023e+002 -9.3269e+001  3.0394e+001 49212 84046,84020,84164
 3.6000e+000 84213 -1.4957e+002 -6.4739e+001  5.9380e+001 49212 84046,84164,83916
 3.6000e+000 84800 -1.6365e+001 -1.5501e+001  1.3539e+001 48865 84503,84633,84555
 3.6000e+000 84777 -1.5406e+001  4.9377e-001  1.7063e+001 48865 84503,84659,84633
 3.6000e+000 84754 -1.6177e+001 -1.3262e+001  1.6359e+001 48865 84555,84633,84581
 3.6000e+000 84731 -1.9545e+001 -1.9672e+001  1.7727e+001 48865 84581,84633,84607
 3.6000e+000 84708 -4.3091e+001 -3.9212e+001  2.7732e+001 48865 84503,84555,84529
 3.6000e+000 84685  3.6910e+000  3.7863e+001 -3.8298e-001 48865 84477,84659,84503
 3.6000e+000 85355 -6.2756e+001 -1.3081e+002  2.2097e+001 48461 85378,85035,85009
 3.6000e+000 85332 -1.2536e+002 -1.6371e+002  5.1302e+001 48461 85378,85009,85165
 3.6000e+000 85309 -1.4172e+002 -1.7913e+002  4.5064e+001 48461 85450,85061,85035
 3.6000e+000 85286 -1.1045e+002 -1.4267e+002  2.9352e+001 48461 85009,85191,85165
 3.6000e+000 85263 -1.0728e+002 -2.0322e+002  8.5286e+001 48461 85087,85165,85113
 3.6000e+000 85240 -6.5332e+001 -1.9187e+002 -3.2050e+001 48461 84983,85191,85009
 3.6000e+000 85217 -1.0471e+002 -2.5223e+002  6.0861e+001 48461 85113,85165,85139
 3.6000e+000 85404 -1.3042e+002 -1.6271e+002  3.7951e+001 48461 85450,85035,85378
 3.6000e+000 85427 -1.1418e+002 -1.6042e+002  5.1652e+001 48461 85087,85378,85165
 3.6000e+000 85476 -1.2986e+002 -2.0825e+002  6.4063e+001 48461 85087,85061,85450
 3.6000e+000 85499 -1.1800e+002 -1.9483e+002  5.6265e+001 48461 85087,85450,85378
 3.6000e+000 86084 -5.6640e+001 -1.6881e+002  6.2288e+001 48057 86323,86107,85787
 3.6000e+000 86061 -7.3195e+001 -1.7424e+002  7.8238e+001 48057 86107,85761,85943
 3.6000e+000 86038 -9.6922e+001 -1.3746e+002  6.3714e+001 48057 86251,86179,85891
 3.6000e+000 86015 -9.9540e+001 -1.2096e+002  4.3421e+001 48057 86251,85891,85839
 3.6000e+000 85992 -7.8982e+001 -1.0063e+002  8.3175e+001 48057 85891,85943,85917
 3.6000e+000 85969 -1.2680e+002 -9.6581e+001  6.3605e+001 48057 85839,85891,85865
 3.6000e+000 86133 -6.4688e+001 -1.9036e+002  6.3641e+001 48057 85813,85787,86107
 3.6000e+000 86156 -7.1776e+001 -1.6594e+002  5.4173e+001 48057 86179,85813,86107
 3.6000e+000 86205 -7.6857e+001 -9.8123e+001  7.5928e+001 48057 85943,85891,86179
 3.6000e+000 86228 -5.3816e+001 -1.2917e+002  7.7254e+001 48057 85943,86179,86107
 3.6000e+000 86277 -5.7364e+001 -1.1982e+002  5.8865e+001 48057 85813,86179,86251
 3.6000e+000 86300 -8.0393e+001 -1.1399e+002  4.1661e+001 48057 85813,86251,85839
 3.6000e+000 86349 -4.0249e+001 -1.5386e+002  6.9444e+001 48057 85761,86107,86323
 3.6000e+000 86855 -1.4875e+001 -4.7140e+001  3.0141e+001 47545 86878,86584,86558
 3.6000e+000 86832 -3.0732e+001 -5.2972e+001  1.5565e+001 47545 86950,86878,86558
 3.6000e+000 86809 -2.9710e+001 -3.9490e+001  2.1639e+001 47545 86950,86558,86532
 3.6000e+000 86786 -3.8832e+001 -6.8419e+001  2.7369e+001 47545 86584,86662,86610
 3.6000e+000 86763 -7.8059e+001  1.9343e+000  1.1504e+001 47545 86532,86714,86688
 3.6000e+000 86740 -2.8375e+001 -3.9565e+001  3.4850e+001 47545 86610,86662,86636
 3.6000e+000 86904 -2.4810e+001 -6.7417e+001  2.6785e+001 47545 86662,86584,86878
 3.6000e+000 86927 -4.2084e+001 -5.7967e+001  7.5542e+000 47545 86662,86878,86688
 3.6000e+000 86976 -2.4758e+001 -3.1959e+001  1.6277e+001 47545 86688,86878,86950
 3.6000e+000 86999 -2.8780e+001 -2.9752e+001  2.4458e+001 47545 86688,86950,86532
 3.6000e+000 87328 -3.9593e+002 -1.0720e+002  1.3261e+002 47048 87155,87207,87181
 3.6000e+000 87305 -1.3946e+002 -1.0333e+002  6.6153e+001 47048 87129,87207,87155
 3.6000e+000 87282 -3.0210e+002 -1.8050e+002  9.3410e+001 47048 87103,87207,87129
 3.6000e+000 87259 -3.9857e+002 -4.4741e+002  2.1842e+002 47048 87103,87233,87207
 3.6000e+000 87576 -3.3626e+001 -1.8766e+002  7.9282e+001 46701 87599,87429,87377
 3.6000e+000 87553 -8.6954e+001 -1.8608e+002  7.3564e+001 46701 87599,87377,87481
 3.6000e+000 87530 -8.9312e+001 -1.8644e+002  7.6482e+001 46701 87351,87481,87377
 3.6000e+000 87507 -8.1999e+001 -1.9647e+002  1.1199e+002 46701 87377,87429,87403
 3.6000e+000 87625 -6.9363e+001 -1.4411e+002  4.0634e+001 46701 87455,87429,87599
 3.6000e+000 87648 -1.8370e+002 -1.7921e+002  5.4115e+001 46701 87455,87599,87481
 3.6000e+000 87798 -4.3272e+001 -2.0443e+001 -5.0439e+000 46239 87697,87749,87723
 3.6000e+000 87775 -9.4938e+001 -2.4218e+002  1.6075e+001 46239 87671,87749,87697
 3.6000e+000 88308 -1.6381e+002 -2.7112e+002  6.6517e+001 45735 88089,88167,88141
 3.6000e+000 88285 -1.1781e+002 -1.5969e+002  7.8747e+001 45735 88011,88167,88089
 3.6000e+000 88262 -3.1408e+001 -1.4647e+002  4.2379e+001 45735 87985,88167,88011
 3.6000e+000 88239 -6.9554e+001 -6.0459e+002  1.1505e+002 45735 88011,88089,88063
 3.6000e+000 88216 -2.0438e+002 -2.9533e+002  2.8340e+001 45735 88089,88141,88115
 3.6000e+000 88193 -3.0583e+002 -9.2075e+002 -4.4359e+001 45735 88011,88063,88037
 3.6000e+000 88686 -1.2870e+002 -3.6179e+001  7.2860e+001 45316 88438,88516,88490
 3.6000e+000 88663 -1.3131e+002  4.5546e+001  1.3373e+002 45316 88438,88542,88516
 3.6000e+000 88640 -6.1397e+001 -1.3766e+002  1.4934e+002 45316 88438,88568,88542
 3.6000e+000 88617 -1.0408e+002 -1.0502e+002  6.0195e+001 45316 88438,88490,88464
 3.6000e+000 88594 -1.1916e+002 -1.4781e+002  1.5472e+002 45316 88412,88568,88438
 3.6000e+000 88934 -1.9342e+002 -1.8578e+002  1.1691e+002 44812 88957,88735,88709
 3.6000e+000 88911 -1.1620e+002 -1.0708e+002  5.5894e+001 44812 88957,88709,88839
 3.6000e+000 88888 -1.0264e+002 -1.0501e+002  3.6195e+001 44812 89029,88787,88761
 3.6000e+000 88865 -7.2606e+001 -7.6177e+001  2.8092e+001 44812 88787,88839,88813
 3.6000e+000 88983 -6.8915e+001 -1.1582e+002  7.5703e+001 44812 88761,88735,88957
 3.6000e+000 89006 -1.0744e+002 -1.1072e+002  3.3767e+001 44812 89029,88761,88957
 3.6000e+000 89055 -9.3091e+001 -1.1364e+002  3.8137e+001 44812 88839,88787,89029
 3.6000e+000 89078 -9.8615e+001 -1.2190e+002  3.5741e+001 44812 88839,89029,88957
 3.6000e+000 89228 -4.6350e+001 -1.1721e+002  7.1508e+001 44408 89127,89179,89153
 3.6000e+000 89205 -1.3237e+001  3.1079e+001  3.8077e+000 44408 89101,89179,89127
 3.6000e+000 89787 -1.2613e+002 -8.4190e+001  6.1597e+001 43854 89810,89545,89519
 3.6000e+000 89764 -1.4069e+002 -1.1729e+002  5.9208e+001 43854 89810,89519,89467
 3.6000e+000 89741 -1.4119e+002 -1.5257e+002  6.2808e+001 43854 89954,89882,89597
 3.6000e+000 89718 -1.4014e+002 -1.5674e+002  5.9804e+001 43854 89954,89597,89571
 3.6000e+000 89695 -7.5217e+001 -1.0179e+002  4.6459e+001 43854 89415,89623,89467
 3.6000e+000 89672 -6.8658e+001 -6.6146e+001  3.4974e+001 43854 89467,89519,89493
 3.6000e+000 89649 -4.7745e+001 -8.7345e+001  3.3257e+001 43854 89415,89467,89441
 3.6000e+000 89836 -1.4053e+002 -9.3330e+001  7.0321e+001 43854 89882,89545,89810
 3.6000e+000 89859 -7.4592e+001 -1.0292e+002  4.7229e+001 43854 89623,89810,89467
 3.6000e+000 89908 -1.4126e+002 -1.9819e+002  9.0911e+001 43854 89623,89597,89882
 3.6000e+000 89931 -1.2447e+002 -1.6408e+002  7.1430e+001 43854 89623,89882,89810
 3.6000e+000 89980 -1.3503e+002 -1.4702e+002  8.1372e+001 43854 89545,89882,89954
 3.6000e+000 90003 -1.3718e+002 -1.6328e+002  8.0085e+001 43854 89545,89954,89571
 3.6000e+000 90251 -3.7587e+001 -1.9952e+001  1.5764e+001 43492 90026,90078,90052
 3.6000e+000 90228 -1.2781e+002 -7.9025e+001  5.0409e+001 43492 90274,90026,90156
 3.6000e+000 90205 -1.2050e+002 -9.3725e+001  5.0065e+001 43492 90346,90274,90156
 3.6000e+000 90182 -1.2390e+002 -1.3027e+002  1.0217e+002 43492 90346,90156,90130
 3.6000e+000 90300 -9.1366e+001 -9.9980e+001  6.1775e+001 43492 90078,90026,90274
 3.6000e+000 90323 -1.3750e+002 -1.1441e+002  6.3304e+001 43492 90078,90274,90104
 3.6000e+000 90372 -1.8393e+002 -1.4037e+002  8.6919e+001 43492 90104,90274,90346
 3.6000e+000 90395 -1.8746e+002 -1.8230e+002  1.3948e+002 43492 90104,90346,90130
 3.6000e+000 90594 -1.0507e+002 -2.7195e+002 -6.4041e+000 43052 90418,90496,90444
 3.6000e+000 90571 -2.1574e+002 -4.2657e+002  5.2241e+001 43052 90418,90522,90496
 3.6000e+000 90548 -9.9898e+001 -1.5921e+002  4.5119e+001 43052 90444,90496,90470
 3.6000e+000 91074 -1.7876e+002 -4.0947e+002  1.9611e+002 42434 91241,90884,90858
 3.6000e+000 91051 -4.7955e+002 -5.5411e+002 -6.4180e+001 42434 90702,90910,90884
 3.6000e+000 91028 -1.0775e+002 -3.0865e+002  1.2164e+002 42434 91097,90754,90702
 3.6000e+000 91005 -1.8850e+002 -2.1461e+002  2.0725e+002 42434 91241,90858,91097
 3.6000e+000 90982 -1.1125e+002 -1.7122e+002 -1.3478e+001 42434 91169,90806,90780
 3.6000e+000 90959 -9.2400e+001 -1.4634e+002 -7.2936e+001 42434 90806,90858,90832
 3.6000e+000 90936 -1.4974e+002 -3.6902e+002  1.0046e+002 42434 90702,90754,90728
 3.6000e+000 91123 -2.8240e+002 -3.6567e+002  9.4038e+001 42434 90780,90754,91097
 3.6000e+000 91146 -2.3288e+002 -2.8290e+002  1.2952e+002 42434 91169,90780,91097
 3.6000e+000 91195 -6.2603e+001 -9.8734e+001 -6.0294e+001 42434 90858,90806,91169
 3.6000e+000 91218 -8.5442e+001 -5.9837e+000  6.0772e+001 42434 90858,91169,91097
 3.6000e+000 91267 -1.3683e+002 -6.1253e+002  9.2628e+001 42434 90702,90884,91241
 3.6000e+000 91290 -1.6708e+002 -4.4068e+002  1.0342e+002 42434 90702,91241,91097
 3.6000e+000 91698 -2.3523e+001 -1.1706e+002  4.0083e+001 41773 91473,91577,91499
 3.6000e+000 91675 -5.0279e+001 -1.3517e+002  4.9559e+001 41773 91473,91603,91577
 3.6000e+000 91652 -5.5853e+001 -1.0310e+002  1.9893e+001 41773 91499,91551,91525
 3.6000e+000 91629 -8.0602e+001 -1.1751e+002  3.6574e+001 41773 91499,91577,91551
 3.6000e+000 92044 -6.4018e+001 -9.2761e+001  5.7509e+001 41383 91773,91877,91851
 3.6000e+000 92021 -3.6796e+001 -9.9836e+001  3.9910e+001 41383 91747,91877,91773
 3.6000e+000 91998 -3.9724e+001 -4.8509e+001  3.6217e+001 41383 91773,91851,91799
 3.6000e+000 91975 -4.1631e+001 -7.0284e+001  1.4670e+001 41383 91747,91903,91877
 3.6000e+000 91952  4.4760e+000 -5.4674e+001  1.3423e+001 41383 91721,91903,91747
 3.6000e+000 91929 -1.5968e+001 -5.8706e+001  1.9673e+001 41383 91799,91851,91825
 3.6000e+000 92601 -1.3715e+002 -1.6482e+002  3.4189e+001 40979 92229,92411,92307
 3.6000e+000 92578 -1.6031e+002 -1.5037e+002  2.2739e+001 40979 92229,92437,92411
 3.6000e+000 92555 -1.1842e+002 -1.7358e+002  1.2239e+001 40979 92229,92307,92281
 3.6000e+000 92532 -1.1022e+002 -1.6609e+002  4.7712e+001 40979 92333,92411,92385
 3.6000e+000 92509 -1.1682e+002 -1.6111e+002  3.5896e+001 40979 92307,92411,92333
 3.6000e+000 92486 -1.1479e+002 -1.6290e+002  1.2456e+001 40979 92229,92281,92255
 3.6000e+000 92463 -2.5157e+001 -1.3945e+002  4.9659e+001 40979 92333,92385,92359
 3.6000e+000 93235 -1.7447e+002 -1.4036e+002  1.0736e+002 40525 92941,92993,92967
 3.6000e+000 93212 -1.9137e+002 -6.3443e+001  3.4284e+001 40525 93258,92941,92889
 3.6000e+000 93189 -1.4847e+002 -2.7701e+001  3.0933e-001 40525 93258,92889,93071
 3.6000e+000 93166 -2.0348e+002 -1.5374e+002  4.4710e+001 40525 92889,92941,92915
 3.6000e+000 93143 -2.2391e+002 -3.3201e+001 -9.9718e+000 40525 92863,93071,92889
 3.6000e+000 93120 -1.6825e+002 -1.4533e+002  5.7514e+001 40525 92993,93071,93019
 3.6000e+000 93097 -1.7686e+002 -1.2348e+002  5.1099e+001 40525 93019,93071,93045
 3.6000e+000 93284 -2.2458e+002 -1.3607e+002  9.2354e+001 40525 92993,92941,93258
 3.6000e+000 93307 -1.2546e+002 -5.0181e+001  4.7839e+001 40525 92993,93258,93071
 3.6000e+000 93636 -1.4839e+002 -1.3454e+002  1.0958e+002 40235 93437,93541,93515
 3.6000e+000 93613 -1.1117e+002 -1.7575e+002  9.1291e+001 40235 93411,93541,93437
 3.6000e+000 93590 -3.7667e+001 -1.4271e+002  4.1960e+001 40235 93463,93515,93489
 3.6000e+000 93567 -8.1395e+001 -9.1000e+001  3.1698e+001 40235 93437,93515,93463
 3.6000e+000 94014 -1.4807e+002 -1.0765e+002  7.6193e+001 39873 93766,93870,93792
 3.6000e+000 93991 -1.0165e+002 -1.1434e+002  6.0531e+001 39873 93766,93896,93870
 3.6000e+000 93968 -1.5467e+002 -8.0347e+001  7.3385e+001 39873 93792,93870,93844
 3.6000e+000 93945 -9.6174e+001 -4.5724e+001  5.6515e+001 39873 93792,93844,93818
 3.6000e+000 93922 -9.4036e+001 -8.6936e+001  5.6091e+001 39873 93740,93896,93766
 3.6000e+000 94164 -3.9605e+001 -1.1144e+002  2.2446e+001 39461 94037,94089,94063
 3.6000e+000 94141 -2.8087e+001 -3.8057e+002  9.6668e+001 39461 94037,94115,94089
 3.6000e+000 94363 -7.9470e+001 -4.6348e+001  3.8440e+001 39057 94386,94239,94213
 3.6000e+000 94340 -1.1720e+001  7.7900e+000  1.1415e+001 39057 94386,94213,94187
 3.6000e+000 94317 -7.8911e+001 -4.6126e+001  3.7313e+001 39057 94187,94291,94265
 3.6000e+000 94412 -1.2204e+001 -3.5358e+001  3.9875e+001 39057 94458,94386,94265
 3.6000e+000 94435 -3.8490e+001 -4.6544e+001  3.0625e+001 39057 94265,94386,94187
 3.6000e+000 94484 -5.0598e+001 -6.8816e+001  5.7395e+001 39057 94239,94386,94458
 3.6000e+000 94896 -1.5151e+002 -1.0756e+002  7.2087e+001 38396 94919,94775,94723
 3.6000e+000 94873 -1.7400e+002 -8.6502e+001  7.5364e+001 38396 94919,94723,94697
 3.6000e+000 94850 -1.0674e+002 -9.1545e+001  4.3191e+001 38396 94723,94775,94749
 3.6000e+000 94827 -7.6679e+001 -4.3840e+001  4.3793e+001 38396 94671,94801,94697
 3.6000e+000 94945 -1.4796e+002 -9.1444e+001  6.4511e+001 38396 94801,94775,94919
 3.6000e+000 94968 -1.6088e+002 -6.3291e+001  6.3507e+001 38396 94801,94919,94697
 3.6000e+000 95265 -1.5331e+002 -1.6279e+002  7.5130e+001 37835 95017,95069,95043
 3.6000e+000 95242 -1.5149e+002 -1.3568e+002  7.5737e+001 37835 95288,95069,95017
 3.6000e+000 95219 -1.5643e+002 -1.4929e+002  9.5810e+001 37835 95288,95017,94991
 3.6000e+000 95196 -1.9853e+002 -1.7419e+002  1.0511e+002 37835 94991,95147,95121
 3.6000e+000 95173 -9.5996e+001 -9.3990e+001  6.5990e+001 37835 95069,95121,95095
 3.6000e+000 95314 -1.4955e+002 -1.0585e+002  6.6017e+001 37835 95121,95069,95288
 3.6000e+000 95337 -1.5505e+002 -1.2637e+002  8.4491e+001 37835 95121,95288,94991
 3.6000e+000 95558  1.6159e+000 -1.5790e+001  2.0146e+001 37423 95408,95460,95434
 3.6000e+000 95535 -2.2575e+001 -1.0845e+002  5.4608e+001 37423 95382,95460,95408
 3.6000e+000 95512 -5.3230e+001 -1.3325e+002  6.5315e+001 37423 95382,95486,95460
 3.6000e+000 95891 -5.0296e+001 -1.2981e+002  4.7095e+001 37225 95666,95718,95692
 3.6000e+000 95868 -2.0446e+002 -3.5813e+002  1.1558e+002 37225 95666,95796,95718
 3.6000e+000 95845 -5.1308e+001 -9.8491e+001  1.4311e+001 37225 95718,95770,95744
 3.6000e+000 95822 -6.7568e+001 -9.9528e+001  1.7239e+001 37225 95718,95796,95770
 3.6000e+000 95992 -1.9406e+001 -6.4625e+001  2.0599e+001 36735 95914,95966,95940
 3.6000e+000 96142 -1.6102e+002 -4.8029e+001  9.8015e+001 36331 96297,96067,96041
 3.6000e+000 96119 -1.1629e+002 -7.1045e+001  7.7784e+001 36331 96165,96041,96015
 3.6000e+000 96191 -1.4869e+002 -4.7954e+001  8.2373e+001 36331 96297,96041,96165
 3.6000e+000 96323 -1.8579e+002 -6.9627e+001  1.2177e+002 36331 96093,96067,96297
 3.6000e+000 96346 -1.5303e+002 -6.1350e+001  1.0581e+002 36331 96093,96297,96165
 3.6000e+000 96714 -8.2101e+001 -1.2839e+002  9.7001e+001 36041 96737,96495,96443
 3.6000e+000 96691 -1.2111e+002 -8.0211e+001  1.0642e+002 36041 96737,96443,96417
 3.6000e+000 96668 -5.5006e+001 -1.3716e+002  9.3000e+000 36041 96443,96495,96469
 3.6000e+000 96645 -2.1843e+001  2.2509e+001  4.3823e+001 36041 96391,96521,96417
 3.6000e+000 96622 -5.1896e+000 -2.7223e+001  3.7372e+001 36041 96391,96547,96521
 3.6000e+000 96599 -1.7109e+000 -2.4230e+001  3.5632e+001 36041 96391,96573,96547
 3.6000e+000 96763 -3.2259e+001 -8.1746e+001  7.7118e+001 36041 96521,96495,96737
 3.6000e+000 96786 -1.0290e+002 -6.0092e+001  9.8787e+001 36041 96521,96737,96417
 3.6000e+000 96936 -1.2851e+002 -8.9933e+001  6.8416e+001 35637 97031,96959,96835
 3.6000e+000 96913 -1.1046e+002 -6.8344e+001  9.8746e+001 35637 97163,96959,96809
 3.6000e+000 96985 -1.3199e+002 -7.7745e+001  7.8321e+001 35637 96861,96835,96959
 3.6000e+000 97008 -1.6483e+002 -1.1859e+002  1.2365e+002 35637 96861,96959,96887
 3.6000e+000 97057 -1.0117e+002 -7.4100e+001  6.1975e+001 35637 96809,96959,97031
 3.6000e+000 97189 -9.2544e+001 -8.1195e+001  9.7491e+001 35637 96887,96959,97163
 3.6000e+000 97597 -7.0090e+001 -1.1896e+002  8.8556e+001 35190 97450,97502,97476
 3.6000e+000 97574 -7.0834e+001 -1.3147e+002  1.0068e+002 35190 97372,97502,97450
 3.6000e+000 97551 -7.6259e+001 -1.4961e+002  9.8458e+001 35190 97372,97450,97398
 3.6000e+000 97528 -8.3708e+001 -1.5086e+002  9.6057e+001 35190 97398,97450,97424
 3.6000e+000 98054 -6.1263e+001 -8.0978e+001  7.8603e+001 34636 97806,97936,97858
 3.6000e+000 98031 -1.2672e+002 -8.7306e+001  6.2920e+001 34636 97780,97936,97806
 3.6000e+000 98008 -1.3646e+002 -9.1773e+001  4.8861e+001 34636 97806,97858,97832
 3.6000e+000 97985 -8.7712e+001 -1.0679e+002  7.2294e+001 34636 97884,97936,97910
 3.6000e+000 97962 -3.7272e+001 -6.8690e+001  5.4539e+001 34636 97858,97936,97884
 3.6000e+000 98530 -1.9344e+002  3.8750e+001  7.1962e+001 34068 98697,98184,98366
 3.6000e+000 98507 -2.8767e+000 -1.5070e+000  1.1056e+001 34068 98158,98366,98184
 3.6000e+000 98484 -1.7495e+002 -2.0203e+002  8.5253e+001 34068 98553,98262,98236
 3.6000e+000 98461 -2.5367e+002 -2.5126e+002  6.2836e+001 34068 98553,98236,98210
 3.6000e+000 98438 -2.2104e+002 -1.1162e+002  6.4707e+001 34068 98841,98625,98366
 3.6000e+000 98415 -1.4463e+002 -2.5870e+002  9.6997e+001 34068 98769,98288,98262
 3.6000e+000 98392 -2.3926e+002 -7.4828e+001  5.8395e+001 34068 98841,98366,98340
 3.6000e+000 98579 -1.7679e+002 -2.2382e+002  7.3460e+001 34068 98769,98262,98553
 3.6000e+000 98602 -1.7312e+002 -1.5095e+002  7.7233e+001 34068 98625,98314,98553
 3.6000e+000 98651 -2.2341e+002 -9.6382e+001  8.2920e+001 34068 98697,98366,98625
 3.6000e+000 98674 -2.0612e+002 -2.2385e+002  1.0310e+002 34068 98210,98625,98553
 3.6000e+000 98723 -2.4988e+002 -1.2590e+002  9.2055e+001 34068 98210,98184,98697
 3.6000e+000 98746 -2.2541e+002 -1.5466e+002  1.1730e+002 34068 98210,98697,98625
 3.6000e+000 98795 -8.7074e+001 -2.2027e+002  7.9004e+001 34068 98314,98288,98769
 3.6000e+000 98818 -1.2458e+002 -1.9241e+002  5.7781e+001 34068 98314,98769,98553
 3.6000e+000 98867 -2.2393e+002 -1.6462e+002  5.2248e+001 34068 98314,98625,98841
 3.6000e+000 98890 -2.3541e+002 -1.1891e+002  4.4862e+001 34068 98314,98841,98340
 3.6000e+000 99268 -2.0778e+002 -2.0458e+002  1.3766e+002 33450 99291,99098,99072
 3.6000e+000 99245 -2.2986e+002 -1.7133e+002  9.2418e+001 33450 99291,99072,99020
 3.6000e+000 99222 -3.7508e+002 -2.2837e+002  1.5450e+002 33450 99020,99072,99046
 3.6000e+000 99199 -1.8167e+002 -1.6072e+002  9.0760e+001 33450 99020,99150,99124
 3.6000e+000 99176 -1.8205e+002 -1.1254e+002  2.4167e+001 33450 98994,99150,99020
 3.6000e+000 99317 -1.2880e+002 -1.7231e+002  1.3484e+002 33450 99124,99098,99291
 3.6000e+000 99340 -2.0218e+002 -1.6574e+002  9.5407e+001 33450 99124,99291,99020
 3.6000e+000 99865 -9.7454e+001 -9.7603e+001  5.3435e+001 32944 100176,99960,99888
 3.6000e+000 99842 -1.1968e+002 -1.1130e+002  5.6645e+001 32944 100104,99888,99522
 3.6000e+000 99819 -8.9703e+001 -9.2578e+001  5.6276e+001 32944 100248,99960,99626
 3.6000e+000 99796 -1.0069e+002 -1.0713e+002  4.1137e+001 32944 100032,99652,99626
 3.6000e+000 99773 -1.0910e+002 -1.3365e+002  3.9771e+001 32944 100104,99522,99496
 3.6000e+000 99750 -6.7337e+001 -9.4581e+001  6.1099e+000 32944 99574,99626,99600
 3.6000e+000 99727 -6.4345e+001 -1.0879e+002  6.2556e+001 32944 100248,99626,99574
 3.6000e+000 99704 -7.7270e+001 -9.1996e+001  5.3063e+001 32944 99444,99496,99470
 3.6000e+000 99914 -1.0456e+002 -9.5959e+001  4.6812e+001 32944 100176,99888,100032
 3.6000e+000 99937 -1.2269e+002 -8.6612e+001  6.8260e+001 32944 99678,99888,99444
 3.6000e+000 99986 -1.1350e+002 -9.0688e+001  5.6277e+001 32944 99522,99888,99960
 3.6000e+000 100009 -1.0025e+002 -6.7118e+001  7.1655e+001 32944 99522,99960,99548
 3.6000e+000 100058 -1.1308e+002 -1.0763e+002  4.1467e+001 32944 99678,99652,100032
 3.6000e+000 100081 -1.3154e+002 -1.0583e+002  4.5948e+001 32944 99678,100032,99888
 3.6000e+000 100130 -9.5437e+001 -9.2900e+001  6.7506e+001 32944 99444,99888,100104
 3.6000e+000 100153 -8.6172e+001 -1.1077e+002  5.0506e+001 32944 99444,100104,99496
 3.6000e+000 100202 -1.0605e+002 -1.0815e+002  4.7394e+001 32944 99626,99960,100176
 3.6000e+000 100225 -1.0954e+002 -1.0767e+002  4.0920e+001 32944 99626,100176,100032
 3.6000e+000 100274 -1.1893e+002 -1.0990e+002  6.3430e+001 32944 99548,99960,100248
 3.6000e+000 100297 -9.6280e+001 -1.2759e+002  7.0293e+001 32944 99548,100248,99574
 3.6000e+000 100754  1.1038e+001 -2.3087e+001  1.1391e+001 32369 100777,100584,100506
 3.6000e+000 100731 -8.2235e+000 -3.9773e+001  2.1083e+001 32369 100777,100506,100636
 3.6000e+000 100708 -3.7931e+001 -2.9289e+001  3.3772e+001 32369 100480,100636,100506
 3.6000e+000 100685 -1.1086e+002 -3.7658e+001 -9.1255e+000 32369 100532,100584,100558
 3.6000e+000 100662 -6.5614e+000 -3.3519e+001  2.6969e+001 32369 100506,100584,100532
 3.6000e+000 100803 -9.3901e+000 -3.4025e+000  2.5079e+000 32369 100610,100584,100777
 3.6000e+000 100826 -2.1820e+001 -1.7512e+001  1.0166e+001 32369 100610,100777,100636
 3.6000e+000 101025 -8.1137e+001 -1.0114e+002  8.0253e+001 31857 100875,100927,100901
 3.6000e+000 101002 -1.9974e+002  1.7184e+001  1.1055e+002 31857 100875,100953,100927
 3.6000e+000 100979 -2.3567e+002 -2.5100e+000  3.4995e+001 31857 100849,100953,100875
 3.6000e+000 101533 -8.0604e+001 -1.2933e+002  9.3960e+001 31253 101556,101314,101236
 3.6000e+000 101510 -1.2251e+002 -1.4007e+002  9.5012e+001 31253 101556,101236,101210
 3.6000e+000 101487 -1.1691e+002 -1.2512e+002  4.5379e+001 31253 101210,101392,101340
 3.6000e+000 101464 -7.0378e+001 -1.3570e+002  6.1871e+001 31253 101236,101288,101262
 3.6000e+000 101441 -7.5251e+001 -1.7758e+002  8.4770e+001 31253 101236,101314,101288
 3.6000e+000 101418 -1.2015e+002 -1.7020e+002  7.9646e+001 31253 101340,101392,101366
 3.6000e+000 101582 -9.5344e+001 -1.1721e+002  5.8721e+001 31253 101340,101314,101556
 3.6000e+000 101605 -1.3731e+002 -1.2629e+002  6.1739e+001 31253 101340,101556,101210
 3.6000e+000 101755 -7.1101e+000 -3.2439e+001  3.4056e+001 30519 101778,101654,101628
 3.6000e+000 101732 -5.2136e+001 -6.8097e+001  5.1327e+001 30519 101850,101778,101628
 3.6000e+000 101804 -5.7662e+001 -1.0614e+001  2.0491e+001 30519 101680,101654,101778
 3.6000e+000 101827 -2.4497e+001 -4.9793e+001  1.8572e+001 30519 101680,101778,101706
 3.6000e+000 101876 -7.9877e+001 -1.1940e+002 -7.0700e+000 30519 101706,101778,101850
 3.6000e+000 102561 -3.5510e+001 -7.6742e+001  5.5135e+001 29951 102656,102584,102270
 3.6000e+000 102538 -1.8372e+002 -2.0330e+002  2.7964e+001 29951 102584,102140,102374
 3.6000e+000 102515 -8.9706e+001 -2.2949e+002  1.2502e+002 29951 102728,102656,102270
 3.6000e+000 102492 -8.7390e+001 -2.8831e+002  1.1982e+002 29951 102728,102270,102244
 3.6000e+000 102469 -1.3492e+002 -1.1486e+001  5.2012e+001 29951 102800,102322,102296
 3.6000e+000 102446 -1.2729e+002 -8.8897e+001  2.4955e+001 29951 102166,102218,102192
 3.6000e+000 102423 -1.0843e+002 -9.9826e+001  9.8025e+000 29951 102166,102244,102218
 3.6000e+000 102400 -6.9212e+001 -5.8774e+001  2.1114e+001 29951 102322,102374,102348
 3.6000e+000 102610 -1.5918e+002 -3.5683e+001  3.1546e+001 29951 102296,102270,102584
 3.6000e+000 102633 -1.7423e+002 -7.0461e+001  3.4303e+001 29951 102800,102296,102584
 3.6000e+000 102682 -2.2043e+002 -1.9108e+002  1.1069e+002 29951 102140,102584,102656
 3.6000e+000 102705 -1.2168e+002 -1.8948e+002  1.6422e+002 29951 102140,102656,102166
 3.6000e+000 102754 -8.2272e+001 -1.6051e+002  1.5119e+002 29951 102166,102656,102728
 3.6000e+000 102777 -8.6625e+001 -2.1374e+002  1.3362e+002 29951 102166,102728,102244
 3.6000e+000 102826 -9.7528e+001 -8.0960e+001  7.9573e+001 29951 102374,102322,102800
 3.6000e+000 102849 -1.1124e+002 -9.7702e+001  7.2534e+001 29951 102374,102800,102584
 3.6000e+000 103048 -4.2430e+001 -1.1317e+002  4.2204e+001 29454 102872,102924,102898
 3.6000e+000 103025 -7.1474e+001 -2.8391e+002  7.4684e+001 29454 102872,102976,102924
 3.6000e+000 103002 -4.1117e+001 -2.4676e+002  9.1332e+001 29454 102924,102976,102950
 3.6000e+000 103296 -2.4338e+002 -2.1273e+002  1.3161e+002 29064 103319,103175,103123
 3.6000e+000 103273 -3.0807e+002 -2.1055e+002  1.5234e+002 29064 103319,103123,103071
 3.6000e+000 103250 -1.4999e+002 -1.3693e+002  9.0259e+001 29064 103123,103175,103149
 3.6000e+000 103227 -2.4067e+002 -1.6214e+002  1.8039e+002 29064 103071,103123,103097
 3.6000e+000 103345 -1.8734e+002 -2.1851e+002  1.0317e+002 29064 103201,103175,103319
 3.6000e+000 103368 -2.6396e+002 -1.9744e+002  1.0207e+002 29064 103201,103319,103071
 3.6000e+000 104006 -1.2564e+002 -8.0966e+001  5.9606e+001 28603 104101,104029,103712
 3.6000e+000 103983 -1.1365e+002 -4.6712e+001  4.7790e+001 28603 104173,104029,103660
 3.6000e+000 103960 -1.5537e+002 -6.9881e+001  5.9041e+001 28603 104101,103712,103686
 3.6000e+000 103937 -8.7283e+001 -5.6328e+001  4.5976e+001 28603 104173,103660,103634
 3.6000e+000 103914 -1.3257e+002 -9.5136e+001  6.9446e+001 28603 103764,103816,103790
 3.6000e+000 103891 -7.7886e+001 -4.9598e+001  5.2003e+001 28603 103634,103842,103816
 3.6000e+000 103868 -9.9920e+001 -4.8405e+001  6.7305e+001 28603 103712,103764,103738
 3.6000e+000 104055 -1.1879e+002 -5.9988e+001  5.9370e+001 28603 103764,103712,104029
 3.6000e+000 104078 -1.2474e+002 -6.7102e+001  6.7913e+001 28603 103764,104029,103816
 3.6000e+000 104127 -1.6783e+002 -7.0067e+001  4.9939e+001 28603 103660,104029,104101
 3.6000e+000 104150 -2.1625e+002 -7.3350e+001  5.8968e+001 28603 103660,104101,103686
 3.6000e+000 104199 -1.3353e+002 -5.3778e+001  5.5621e+001 28603 103816,104029,104173
 3.6000e+000 104222 -1.1170e+002 -6.4104e+001  5.1043e+001 28603 103816,104173,103634
 3.6000e+000 104600 -7.8854e+001 -1.7245e+002  3.3096e+001 28348 104623,104378,104326
 3.6000e+000 104577 -6.2235e+001 -1.8692e+002  6.6364e+001 28348 104623,104326,104482
 3.6000e+000 104554 -8.9487e+001 -1.3955e+002  3.5409e+001 28348 104326,104378,104352
 3.6000e+000 104531 -5.2090e+001  1.1779e+000  4.7760e+000 28348 104404,104456,104430
 3.6000e+000 104508 -8.5472e+001 -1.1037e+002  4.8283e+001 28348 104378,104456,104404
 3.6000e+000 104649 -6.2951e+001 -1.4066e+002  4.1147e+001 28348 104456,104378,104623
 3.6000e+000 104672 -4.2000e+001 -1.4988e+002  7.5667e+001 28348 104456,104623,104482
 3.6000e+000 104991 -1.5544e+002 -1.6700e+002  1.1790e+002 27951 104717,104847,104769
 3.6000e+000 104968 -4.6549e+001 -1.1076e+002  9.7915e+001 27951 104717,104873,104847
 3.6000e+000 104945 -5.8754e+001 -1.5328e+002  1.1601e+002 27951 104769,104847,104795
 3.6000e+000 104922 -5.2160e+000 -1.2325e+001  1.0849e+002 27951 104795,104847,104821
 3.6000e+000 104899 -1.2432e+002 -1.0497e+002  1.0536e+002 27951 104717,104769,104743
 3.6000e+000 105371 -1.9949e+002 -1.6883e+002  1.0482e+002 27447 105394,105201,105123
 3.6000e+000 105348 -2.3933e+002 -1.5945e+002  1.4803e+002 27447 105394,105123,105097
 3.6000e+000 105325 -3.3592e+002 -1.7590e+002  1.0658e+002 27447 105123,105201,105149
 3.6000e+000 105302 -1.7670e+002 -2.1291e+002  1.1801e+002 27447 105201,105253,105227
 3.6000e+000 105279 -1.9186e+002 -2.6598e+002  4.8941e+000 27447 105149,105201,105175
 3.6000e+000 105420 -1.7699e+002 -1.4139e+002  9.2713e+001 27447 105253,105201,105394
 3.6000e+000 105443 -2.0887e+002 -1.1251e+002  1.3264e+002 27447 105253,105394,105097
 3.6000e+000 105998 -1.1610e+002 -1.1246e+002  9.3209e+001 27100 106165,106021,105704
 3.6000e+000 105975 -4.3014e+001 -6.1370e+001  7.9138e+001 27100 106309,106021,105652
 3.6000e+000 105952 -2.0760e+002 -1.8593e+002  1.7274e+002 27100 106093,105808,105782
 3.6000e+000 105929 -1.1625e+002 -1.1564e+002  9.2173e+001 27100 106165,105704,105678
 3.6000e+000 105906 -5.1583e+001 -1.4995e+002  7.0493e+001 27100 106237,105730,105704
 3.6000e+000 105883 -5.5235e+001 -9.8319e+001  5.5488e+001 27100 106309,105652,105626
 3.6000e+000 105860 -2.9982e+001 -4.9740e+000  1.0138e+001 27100 105730,105782,105756
 3.6000e+000 106047 -1.0004e+002 -9.1287e+001  1.0281e+002 27100 106237,105704,106021
 3.6000e+000 106070 -1.0963e+002 -9.4375e+001  1.3090e+002 27100 106093,105782,106021
 3.6000e+000 106119 -7.2598e+001 -1.4726e+002  8.1752e+001 27100 105834,105808,106093
 3.6000e+000 106142 -8.3504e+001 -1.8714e+002  1.1069e+002 27100 106381,106093,106021
 3.6000e+000 106191 -1.1600e+002 -1.0653e+002  9.8379e+001 27100 105652,106021,106165
 3.6000e+000 106214 -1.1861e+002 -1.1580e+002  9.8597e+001 27100 105652,106165,105678
 3.6000e+000 106263 -6.2400e+000 -8.3084e+001  5.0809e+001 27100 105782,105730,106237
 3.6000e+000 106286 -6.5833e+001 -4.0412e+001  8.7986e+001 27100 105782,106237,106021
 3.6000e+000 106335 -7.0282e+001 -1.1765e+002  8.7571e+001 27100 106381,106021,106309
 3.6000e+000 106358 -3.9491e+001 -5.7787e+001  4.3005e+001 27100 105834,106309,105626
 3.6000e+000 106407 -4.4002e+001 -1.0363e+002  6.5822e+001 27100 105834,106093,106381
 3.6000e+000 106430 -4.8257e+001 -8.6634e+001  3.9262e+001 27100 105834,106381,106309
 3.6000e+000 106629 -5.8226e+001 -2.3178e+002  4.9288e+001 26688 106479,106557,106531
 3.6000e+000 106606 -8.6102e+001 -2.1474e+002  4.4240e+001 26688 106453,106557,106479
 3.6000e+000 106583 -8.5220e+001 -2.2270e+002  7.6612e+000 26688 106479,106531,106505
 3.6000e+000 107088 -4.3352e+001 -5.7358e+001  2.0431e+001 26248 107111,106918,106866
 3.6000e+000 107065 -5.1889e+001 -5.2503e+001  2.9555e+001 26248 107111,106866,106840
 3.6000e+000 107042 -4.8073e+001 -3.9882e+001  3.2032e+001 26248 106814,106970,106840
 3.6000e+000 107019 -6.2390e+001 -9.8052e+001  1.4542e+001 26248 106866,106918,106892
 3.6000e+000 106996 -9.6353e+001 -7.3308e+001  1.8932e+001 26248 106918,106970,106944
 3.6000e+000 107137 -5.8449e+001 -6.6349e+001  1.5959e+001 26248 106970,106918,107111
 3.6000e+000 107160 -5.8527e+001 -5.5788e+001  2.6535e+001 26248 106970,107111,106840
 3.6000e+000 107666 -1.7439e+002 -7.7525e+001  6.7820e+001 25908 107369,107499,107395
 3.6000e+000 107643 -2.2648e+002 -2.2822e+002  1.1957e+002 25908 107369,107525,107499
 3.6000e+000 107620 -1.3705e+002 -9.5552e+001  7.6778e+001 25908 107395,107473,107447
 3.6000e+000 107597 -1.1885e+002 -5.5068e+001  6.0113e+001 25908 107395,107499,107473
 3.6000e+000 107574 -2.4131e+002 -1.3801e+002  1.8374e+002 25908 107395,107447,107421
 3.6000e+000 107551 -1.0570e+002 -1.8051e+002  1.0772e+002 25908 107343,107525,107369
 3.6000e+000 108251 -8.7791e+001 -4.2784e+001  6.2549e+001 25454 108274,108006,107954
 3.6000e+000 108228 -6.6774e+001 -2.0180e+001  4.5184e+001 25454 108274,107954,108110
 3.6000e+000 108205 -6.7908e+001 -8.7196e+001  7.1509e+001 25454 108346,108032,108006
 3.6000e+000 108182 -1.1303e+002 -6.9045e+001  7.7438e+001 25454 107954,108006,107980
 3.6000e+000 108159 -3.0491e+001 -4.8381e+001  3.9094e+001 25454 107928,108110,107954
 3.6000e+000 108136 -1.5496e+002 -1.9603e+002  9.9055e+001 25454 108058,108110,108084
 3.6000e+000 108300 -8.3189e+001 -6.9164e+001  7.3551e+001 25454 108346,108006,108274
 3.6000e+000 108323 -6.9938e+001 -4.1169e+001  5.9513e+001 25454 108058,108274,108110
 3.6000e+000 108372 -5.5601e+001 -6.1700e+001  6.3481e+001 25454 108058,108032,108346
 3.6000e+000 108395 -6.8417e+001 -3.7590e+001  6.7089e+001 25454 108058,108346,108274
 3.6000e+000 108822 -7.6379e+001 -6.0486e+001  3.7423e+001 24943 108525,108681,108655
 3.6000e+000 108799 -1.0847e+002 -8.9882e+001  1.2705e+001 24943 108499,108681,108525
 3.6000e+000 108776 -3.5373e+001 -4.3812e+001  2.6896e+001 24943 108525,108655,108629
 3.6000e+000 108753 -7.2698e+001 -2.8488e+001  2.1045e+001 24943 108525,108629,108603
 3.6000e+000 108730 -1.6267e+002 -5.2891e+001  6.0281e+001 24943 108551,108603,108577
 3.6000e+000 108707 -1.5458e+002 -9.2456e+001  8.2644e+001 24943 108525,108603,108551
 3.6000e+000 109407 -4.1496e+000 -3.0622e+001  5.8513e+000 24745 109162,109214,109188
 3.6000e+000 109384 -6.3425e+001 -3.1225e+001  1.3594e+001 24745 109162,109266,109214
 3.6000e+000 109361 -7.1536e+001 -3.7829e+001  7.5034e+000 24745 109084,109266,109162
 3.6000e+000 109338 -1.2183e+002 -1.8757e+001  2.9256e+001 24745 109084,109162,109136
 3.6000e+000 109315 -3.1805e+001 -5.2068e+001  1.5839e+001 24745 109214,109266,109240
 3.6000e+000 109292 -8.5034e+001 -2.8144e+001  4.9090e+001 24745 109084,109136,109110
 3.6000e+000 109785 -2.1746e+002 -1.0563e+002  1.3287e+002 24341 109537,109615,109563
 3.6000e+000 109762 -2.0753e+001 -4.7768e+001  1.1313e+002 24341 109537,109641,109615
 3.6000e+000 109739 -1.4084e+002 -1.0911e+002  9.4125e+001 24341 109563,109615,109589
 3.6000e+000 109716 -9.0586e+001 -8.4191e+001  7.9879e+001 24341 109537,109667,109641
 3.6000e+000 109693 -5.0157e+001 -1.0476e+002  6.7686e+001 24341 109511,109667,109537
 3.6000e+000 110163 -2.5807e+002 -1.6004e+002  1.4075e+002 23837 110186,109967,109915
 3.6000e+000 110140 -2.3974e+002 -1.6959e+002  1.5837e+002 23837 110186,109915,109889
 3.6000e+000 110117 -1.1018e+002 -6.3296e+001  1.2245e+002 23837 109889,110045,109993
 3.6000e+000 110094 -2.4897e+002 -1.9624e+002  1.1699e+002 23837 109915,109967,109941
 3.6000e+000 110071 -1.4490e+002 -9.9567e+000  2.6949e+001 23837 109993,110045,110019
 3.6000e+000 110212 -2.4446e+002 -1.4310e+002  1.4803e+002 23837 109993,109967,110186
 3.6000e+000 110235 -2.3305e+002 -1.5035e+002  1.6494e+002 23837 109993,110186,109889
 3.6000e+000 110336 -1.0680e+002 -2.4885e+002  1.1176e+002 23433 110258,110310,110284
 3.6000e+000 110584 -1.4843e+002 -1.0594e+002  6.7288e+001 22829 110607,110411,110385
 3.6000e+000 110561 -1.7896e+002 -1.2198e+002  9.0882e+001 22829 110607,110385,110489
 3.6000e+000 110538 -1.2280e+002 -1.1347e+002  5.7066e+001 22829 110437,110489,110463
 3.6000e+000 110515 -1.4309e+002 -7.7796e+001  1.0636e+002 22829 110359,110489,110385
 3.6000e+000 110633 -1.4754e+002 -8.1249e+001  4.4261e+001 22829 110437,110411,110607
 3.6000e+000 110656 -1.6497e+002 -9.9007e+001  6.6455e+001 22829 110437,110607,110489
 3.6000e+000 110906 -2.9015e+002 -1.2262e+002  1.0127e+002 22432 110707,110759,110733
 3.6000e+000 110883 -1.6741e+002 -1.4060e+002  8.2209e+001 22432 110707,110785,110759
 3.6000e+000 110860 -1.6096e+002 -1.3055e+002  1.0973e+002 22432 110707,110811,110785
 3.6000e+000 110837 -2.1144e+002 -1.5593e+002  8.2903e+001 22432 110681,110811,110707
 3.6000e+000 111288 -2.5959e+001 -6.8109e+001  5.7810e+001 22142 111092,111144,111118
 3.6000e+000 111265 -7.1967e+001 -5.3699e+001  4.2639e+001 22142 111066,111144,111092
 3.6000e+000 111242 -7.3317e+001 -5.8796e+001  3.9722e+001 22142 111040,111144,111066
 3.6000e+000 111219 -1.5341e+002 -1.3043e+001  2.6853e+001 22142 111014,111144,111040
 3.6000e+000 111196 -1.0012e+002 -3.6133e+000  4.1216e+001 22142 111014,111170,111144
 3.6000e+000 111389 -2.3435e+001 -5.6366e+001  1.0023e+002 21830 111311,111363,111337
 3.6000e+000 111735 -2.0980e+002 -1.9553e+001  1.4859e+002 21268 111758,111542,111438
 3.6000e+000 111712 -1.3483e+002  7.0266e+000  9.5305e+001 21268 111758,111438,111412
 3.6000e+000 111689 -6.2193e+001 -1.3365e+002  1.7593e+002 21268 111438,111542,111464
 3.6000e+000 111666 -1.1882e+001 -1.1012e+002  2.3540e+002 21268 111464,111542,111490
 3.6000e+000 111643 -3.4382e+002 -1.7725e+002  1.8936e+002 21268 111412,111594,111568
 3.6000e+000 111620  1.0022e+002  5.3683e+001  3.0576e+002 21268 111490,111542,111516
 3.6000e+000 111784 -2.3298e+002 -3.7546e+001  1.6452e+002 21268 111568,111542,111758
 3.6000e+000 111807 -2.0940e+002 -9.4445e+001  1.3009e+002 21268 111568,111758,111412
 3.6000e+000 111959 -2.6077e+002 -2.9231e+001  7.8882e+001 20864 111982,111910,111884
 3.6000e+000 111936 -2.2986e+002 -5.9772e+001  1.1054e+002 20864 112114,111832,111910
 3.6000e+000 112008 -2.5783e+002 -9.0259e+001  9.7695e+001 20864 112114,111910,111982
 3.6000e+000 112140 -2.1941e+002 -9.9636e+001  8.1452e+001 20864 111858,111832,112114
 3.6000e+000 112163 -2.4731e+002 -1.3370e+002  6.8651e+001 20864 111858,112114,111982
 3.6000e+000 112411 -2.6615e+001 -5.3363e+000  1.0291e+001 20324 112186,112290,112212
 3.6000e+000 112388 -1.5005e+001 -3.0448e+000  1.2282e+001 20324 112186,112316,112290
 3.6000e+000 112365  6.6864e+001 -5.5681e+001  6.4922e+000 20324 112212,112290,112264
 3.6000e+000 112342 -2.8932e+002 -1.2400e+002 -1.2519e+001 20324 112212,112264,112238
 3.6000e+000 112659 -1.4047e-001  1.2438e+000  8.9239e+001 19920 112512,112564,112538
 3.6000e+000 112636 -1.0074e+002 -3.7779e+001  5.3961e+001 19920 112434,112564,112512
 3.6000e+000 112613 -1.0550e+002 -7.3603e+001  6.4893e+001 19920 112434,112512,112460
 3.6000e+000 112590 -1.2230e+002 -7.7788e+001  7.0182e+001 19920 112460,112512,112486
 3.6000e+000 112811 -1.7521e+001 -7.3286e+000  3.2743e+001 19630 112684,112736,112710
 3.6000e+000 112788  2.9961e+001 -4.0027e+001  6.6601e+000 19630 112684,112762,112736
 3.6000e+000 113012 -9.3486e+001 -3.8487e+001  1.0125e+002 19169 112862,112940,112888
 3.6000e+000 112989 -1.6222e+002 -1.3621e+002  7.1112e+001 19169 112836,112940,112862
 3.6000e+000 112966 -7.6214e+001 -1.1291e+002  7.7506e+001 19169 112888,112940,112914
 3.6000e+000 113213 -1.5241e+002 -6.4126e+001  8.7422e+001 18600 113037,113089,113063
 3.6000e+000 113190 -9.5528e+001 -6.8711e+001  7.6541e+001 18600 113037,113115,113089
 3.6000e+000 113167 -1.5460e+002 -1.2820e+002  1.1374e+002 18600 113037,113141,113115
 3.6000e+000 113485 -9.6488e+001 -3.9906e+001  9.6617e+001 18352 113260,113312,113286
 3.6000e+000 113462 -1.9321e+002 -1.2803e+002  1.3446e+002 18352 113260,113390,113312
 3.6000e+000 113439 -1.7971e+002 -4.3308e+001  1.0488e+002 18352 113312,113390,113364
 3.6000e+000 113416 -7.2901e+001 -2.9351e+001  1.0790e+002 18352 113312,113364,113338
 3.6000e+000 113757 -1.4337e+002 -5.9778e+001  1.0445e+002 17834 113558,113610,113584
 3.6000e+000 113734 -2.0449e+002 -1.1899e+002  1.3473e+002 17834 113532,113610,113558
 3.6000e+000 113711 -2.1223e+002 -1.4326e+002  1.1246e+002 17834 113532,113662,113610
 3.6000e+000 113688 -1.1077e+002 -4.3832e+001  1.5328e+002 17834 113610,113662,113636
 3.6000e+000 113958 -1.3752e+002 -5.8003e+001  7.8408e+001 17330 113782,113834,113808
 3.6000e+000 113935 -5.8032e+001 -4.3495e+001  5.1145e+001 17330 113782,113886,113834
 3.6000e+000 113912 -7.5890e+001 -3.8013e+001  3.1705e+001 17330 113834,113886,113860
 3.6000e+000 114110 -2.1789e+002 -9.0324e+001  1.4017e+002 16874 113983,114035,114009
 3.6000e+000 114087 -8.0200e+001 -1.8731e+002  1.0844e+002 16874 113983,114061,114035
 3.6000e+000 114465 -2.4403e+002 -1.0400e+002  6.1716e+001 16270 114240,114292,114266
 3.6000e+000 114442 -2.2975e+002 -5.7772e+001  3.6306e+001 16270 114240,114370,114292
 3.6000e+000 114419 -1.1350e+002 -4.8419e+001  3.9626e+001 16270 114292,114344,114318
 3.6000e+000 114396 -2.6268e+002 -1.1594e+002  2.2709e+001 16270 114292,114370,114344
 3.6000e+000 114566 -3.6804e+000  3.6804e+000  1.8430e+002 15834 114488,114540,114514
 3.6000e+000 114667 -1.4129e+002 -5.9196e+001  9.3523e+001 15155 114589,114641,114615
 3.6000e+000 114890 -8.8989e+001 -3.5225e+001  1.2790e+002 421 114766,114818,114792
 3.6000e+000 114867 -1.5155e+002 -1.4738e+002  1.0181e+002 421 114714,114818,114766
 3.6000e+000 114844 -2.2697e+002 -9.6651e+001  6.0675e+001 421 114714,114766,114740
 3.7000e+000 66553 -6.8909e+001 -3.3722e+001  4.7114e+000 66108 66354,66458,66432
 3.7000e+000 66530 -7.6407e+001 -3.4385e+001 -2.2194e+001 66108 66328,66458,66354
 3.7000e+000 66507 -5.4664e+001 -1.2843e+001 -1.5515e+000 66108 66354,66432,66406
 3.7000e+000 66484 -4.9766e+001 -2.1331e+001 -1.7684e+000 66108 66354,66406,66380
 3.7000e+000 66951 -1.1562e+002 -4.9763e+001 -4.1568e-001 65910 66703,66833,66807
 3.7000e+000 66928 -9.7085e+001 -3.7165e+001 -7.6560e+000 65910 66677,66833,66703
 3.7000e+000 66905 -1.5380e+002 -1.1618e+002 -2.8753e+001 65910 66729,66781,66755
 3.7000e+000 66882 -6.8843e+001 -2.9609e+001  6.7880e+000 65910 66729,66807,66781
 3.7000e+000 66859 -8.2410e+001 -2.4810e+001  1.0771e+001 65910 66703,66807,66729
 3.7000e+000 67150 -1.6253e+000 -1.0929e+000 -8.9293e+000 65712 67026,67078,67052
 3.7000e+000 67127 -1.6806e+001 -5.5687e+000 -7.3894e+000 65712 66974,67078,67026
 3.7000e+000 67104 -7.4161e+000 -9.3293e+000 -2.0147e+001 65712 66974,67026,67000
 3.7000e+000 67481 -1.2379e+002 -3.2228e+001  3.6833e+001 65422 67282,67360,67334
 3.7000e+000 67458 -6.0354e+001 -2.5293e+001  5.5468e+001 65422 67282,67386,67360
 3.7000e+000 67435 -4.8454e+001  1.0117e+001  1.9242e+001 65422 67282,67334,67308
 3.7000e+000 67412  6.7643e+000 -7.3463e-001  9.8431e+000 65422 67256,67386,67282
 3.7000e+000 68115 -7.3672e+001 -1.7738e+001  2.5813e+000 65018 67795,67925,67873
 3.7000e+000 68092 -7.4947e+001 -2.0144e+001  3.0115e+001 65018 67769,67925,67795
 3.7000e+000 68069 -2.8013e+001 -1.1572e+001  1.7508e+001 65018 67873,67925,67899
 3.7000e+000 68046 -8.3947e+001 -5.4964e+001  4.2877e+001 65018 67769,67951,67925
 3.7000e+000 68023 -7.1748e+001 -5.0064e+001 -1.6661e+000 65018 67795,67873,67821
 3.7000e+000 68000 -8.8403e+001 -3.0734e+001 -2.5551e+001 65018 67821,67873,67847
 3.7000e+000 67977 -1.5218e+002 -1.4053e+002 -7.2541e+000 65018 67743,67951,67769
 3.7000e+000 68363 -8.2858e+001 -1.9203e+002  8.5131e+001 64820 68190,68242,68216
 3.7000e+000 68340 -1.4309e+002 -1.2075e+002  9.0394e+001 64820 68190,68268,68242
 3.7000e+000 68317 -6.7707e+001 -8.6049e+001  1.0901e+002 64820 68164,68268,68190
 3.7000e+000 68294 -2.3459e+002 -1.0048e+002  5.8954e+001 64820 68138,68268,68164
 3.7000e+000 68513 -1.3323e+002 -5.4410e+001  2.0861e+001 64366 68868,68536,68438
 3.7000e+000 68490 -1.0724e+002 -3.6362e+001  1.4805e+001 64366 68536,68412,68386
 3.7000e+000 68562 -1.1790e+002 -4.2044e+001  4.0688e+001 64366 68740,68536,68464
 3.7000e+000 68585 -1.1535e+002 -8.1907e+001  1.8839e+001 64366 68608,68536,68386
 3.7000e+000 68634 -9.2489e+001 -4.6923e+001  3.1485e+001 64366 68464,68536,68608
 3.7000e+000 68766 -1.4186e+002 -4.5786e+001  4.0947e+001 64366 68438,68536,68740
 3.7000e+000 68894 -9.0106e+001 -2.7046e+001  3.9204e+001 64366 68412,68536,68868
 3.7000e+000 69172 -1.8857e+002 -9.7979e+001  1.3568e+000 64168 69022,69074,69048
 3.7000e+000 69149 -2.3737e+002 -1.0222e+002  1.9193e+001 64168 68996,69074,69022
 3.7000e+000 69126 -2.3123e+002 -9.4164e+001  3.6065e+001 64168 68996,69100,69074
 3.7000e+000 69371 -8.9828e+001 -6.5826e+001  2.3858e+001 63970 69466,69394,69273
 3.7000e+000 69348 -1.0163e+002 -4.0602e+001  1.7707e+001 63970 69394,69247,69221
 3.7000e+000 69325 -9.6667e+001 -4.1483e+001 -1.0231e+001 63970 69195,69299,69221
 3.7000e+000 69420 -3.9957e+001 -4.6778e+001 -2.9023e-001 63970 69299,69273,69394
 3.7000e+000 69443 -9.4985e+001 -6.7143e+001  1.1946e+000 63970 69299,69394,69221
 3.7000e+000 69492 -8.9010e+001 -3.5482e+001  2.0615e+001 63970 69247,69394,69466
 3.7000e+000 69904 -4.4582e+001 -1.0778e+002  2.7979e+001 63680 69705,69783,69731
 3.7000e+000 69881 -4.1441e+001 -1.0339e+002  2.5086e+001 63680 69679,69783,69705
 3.7000e+000 69858 -1.0320e+002 -8.4839e+001  3.0226e+001 63680 69679,69809,69783
 3.7000e+000 69835 -9.2861e+001 -1.5444e+002  9.0983e+000 63680 69731,69783,69757
 3.7000e+000 70054 -6.6537e+001 -9.1254e+001  9.4145e+000 63476 70077,69953,69927
 3.7000e+000 70031 -4.1061e+001 -5.5065e+001  2.6877e+001 63476 70077,69927,70005
 3.7000e+000 70103 -9.9042e+001 -6.5955e+001 -5.8891e+000 63476 69979,69953,70077
 3.7000e+000 70126 -7.8380e+001 -3.3586e+001  8.6893e+000 63476 69979,70077,70005
 3.7000e+000 70325 -1.9630e+002 -1.1329e+002  2.3085e+001 63278 70149,70227,70175
 3.7000e+000 70302 -1.5953e+002 -6.9669e+001  6.5642e+001 63278 70149,70253,70227
 3.7000e+000 70279 -1.8513e+002 -1.5694e+002  4.9065e+001 63278 70175,70227,70201
 3.7000e+000 70597 -7.7802e+001 -4.4650e+001 -1.0246e+001 63080 70372,70476,70424
 3.7000e+000 70574 -6.9177e+001 -2.9775e+001 -6.0494e+000 63080 70372,70502,70476
 3.7000e+000 70551 -7.2690e+001 -3.1210e+001 -1.0448e+001 63080 70424,70476,70450
 3.7000e+000 70528 -7.8202e+001 -4.3101e+001 -1.7342e+001 63080 70372,70424,70398
 3.7000e+000 70847 -9.0369e+001 -9.9427e+001  1.3813e+001 62740 70870,70648,70622
 3.7000e+000 70824 -6.2820e+001 -1.2646e+002 -1.4115e+000 62740 70870,70622,70752
 3.7000e+000 70801 -6.6917e+001 -7.3506e+001  2.6839e+001 62740 70648,70726,70700
 3.7000e+000 70778 -4.3486e+001 -6.2140e+001  1.1230e+001 62740 70648,70700,70674
 3.7000e+000 70896 -6.3321e+001 -7.3409e+001  2.7879e+001 62740 70726,70648,70870
 3.7000e+000 70919 -5.5506e+001 -1.1209e+002  7.3649e+000 62740 70726,70870,70752
 3.7000e+000 71022 -2.0679e+000  2.0679e+000  1.3817e+002 62520 70944,70996,70970
 3.7000e+000 71223 -1.9149e+002 -1.8547e+002  1.1560e+002 62230 71073,71151,71099
 3.7000e+000 71200 -1.4251e+002 -1.7410e+002  1.0202e+002 62230 71047,71151,71073
 3.7000e+000 71177 -1.0628e+002 -2.7910e+002  7.6778e+001 62230 71099,71151,71125
 3.7000e+000 71861 -1.7852e+001 -2.1427e+000  9.8810e+000 61712 71515,71697,71671
 3.7000e+000 71838 -1.9882e+001 -3.8560e+000  4.5192e-001 61712 71489,71697,71515
 3.7000e+000 71815 -1.4691e+002 -4.7144e+001  7.3239e+001 61712 71884,71541,71515
 3.7000e+000 71792 -9.6999e+001  8.0821e+000  4.8742e+001 61712 71884,71515,71671
 3.7000e+000 71769 -2.5387e+001 -1.0415e+002  4.1818e+001 61712 71541,71619,71593
 3.7000e+000 71746 -2.7518e+001 -1.9937e+001  4.4189e+001 61712 71619,71671,71645
 3.7000e+000 71723 -1.2417e+002 -1.6960e+002  8.6407e+001 61712 71541,71593,71567
 3.7000e+000 71910 -9.1832e+001 -9.8706e+001  8.9161e+001 61712 71619,71541,71884
 3.7000e+000 71933 -6.1766e+001 -5.9568e+001  7.0537e+001 61712 71619,71884,71671
 3.7000e+000 72230 -2.0999e+002 -1.8092e+002  4.6845e+001 61208 72253,72060,72008
 3.7000e+000 72207 -2.1392e+002 -1.4801e+002  3.7158e+001 61208 72253,72008,71982
 3.7000e+000 72184 -1.4442e+002 -8.7551e+001  5.2780e+001 61208 71982,72112,72086
 3.7000e+000 72161 -2.4144e+002 -1.8248e+002  5.9037e+001 61208 72008,72060,72034
 3.7000e+000 72138 -1.0548e+002  1.4198e+001  6.7013e+001 61208 71956,72112,71982
 3.7000e+000 72279 -1.9522e+002 -1.5561e+002  3.4251e+001 61208 72086,72060,72253
 3.7000e+000 72302 -2.1132e+002 -1.3610e+002  2.6278e+001 61208 72086,72253,71982
 3.7000e+000 72761 -4.0252e+001 -6.3541e+001  5.1018e-001 60804 72487,72617,72513
 3.7000e+000 72738 -6.2355e+001 -5.9071e+001  1.3690e+001 60804 72487,72643,72617
 3.7000e+000 72715 -1.0851e+001 -1.4350e+002  1.3487e+001 60804 72565,72617,72591
 3.7000e+000 72692 -6.4457e+001 -9.4615e+001  2.5556e+001 60804 72513,72617,72565
 3.7000e+000 72669 -6.1590e+001 -1.0560e+002 -1.6670e+001 60804 72513,72565,72539
 3.7000e+000 72911 -2.0679e+000  2.0679e+000  1.3817e+002 60556 72784,72836,72810
 3.7000e+000 72888  1.2085e+002  5.3951e+001  7.7522e+001 60556 72784,72862,72836
 3.7000e+000 73468 -4.3557e+001 -6.5802e+001  2.2255e+001 60244 73491,73226,73200
 3.7000e+000 73445 -6.7819e+001 -1.0054e+002  3.8477e+001 60244 73563,73491,73200
 3.7000e+000 73422 -1.1453e+002 -1.0041e+002  4.7634e+001 60244 73563,73200,73174
 3.7000e+000 73399 -3.5057e+001 -1.0757e+002  2.3562e+001 60244 73226,73278,73252
 3.7000e+000 73376 -9.9728e+001 -6.0142e+001  2.4112e+001 60244 73122,73304,73278
 3.7000e+000 73353 -1.0374e+002 -8.8149e+000  1.2328e+001 60244 73096,73304,73122
 3.7000e+000 73330 -1.7083e+002 -5.4797e+001  2.1853e+001 60244 73122,73174,73148
 3.7000e+000 73517 -9.2326e+001 -9.2959e+001  3.9398e+001 60244 73278,73226,73491
 3.7000e+000 73540 -8.0365e+001 -4.9812e+001  2.8063e+001 60244 73278,73491,73122
 3.7000e+000 73589 -1.4960e+002 -8.9906e+001  4.4560e+001 60244 73122,73491,73563
 3.7000e+000 73612 -1.9483e+002 -9.0132e+001  5.6454e+001 60244 73122,73563,73174
 3.7000e+000 73762 -3.5204e+001 -8.5518e+001  7.9534e+001 59875 73661,73713,73687
 3.7000e+000 73739 -9.5755e+001 -6.4056e+001  6.3752e+001 59875 73635,73713,73661
 3.7000e+000 74191 -1.0874e+002 -2.5321e+002  6.9769e+001 59478 74214,73894,73868
 3.7000e+000 74168 -1.5139e+002 -2.5011e+002  7.7337e+001 59478 74214,73868,74050
 3.7000e+000 74145 -1.7804e+002 -2.0564e+002  4.5732e+001 59478 73894,73946,73920
 3.7000e+000 74122 -1.3033e+002 -2.4266e+002  3.7701e+001 59478 73894,73998,73946
 3.7000e+000 74099 -2.6633e+002 -2.5931e+002  1.4587e+002 59478 73998,74050,74024
 3.7000e+000 74076 -1.6882e+002 -2.4534e+002  1.2866e+001 59478 73946,73998,73972
 3.7000e+000 74240 -1.4743e+002 -2.3979e+002  5.6043e+001 59478 73998,73894,74214
 3.7000e+000 74263 -1.8916e+002 -2.3828e+002  5.6878e+001 59478 73998,74214,74050
 3.7000e+000 74720 -1.0705e+002 -8.4147e+001  2.9746e+001 58774 74472,74602,74498
 3.7000e+000 74697 -1.2332e+002 -1.1479e+002  1.2202e+001 58774 74446,74602,74472
 3.7000e+000 74674 -1.2715e+002 -7.7240e+001  3.8535e+001 58774 74498,74576,74524
 3.7000e+000 74651 -1.0940e+002 -8.3619e+001  2.8196e+001 58774 74498,74602,74576
 3.7000e+000 74628 -1.2487e+002 -7.1229e+001  3.8685e+001 58774 74524,74576,74550
 3.7000e+000 75226 -5.3367e+001 -9.9035e+001  2.9841e+001 58270 74955,75085,75033
 3.7000e+000 75203 -4.2823e+001 -7.3784e+001  3.4467e+001 58270 74929,75085,74955
 3.7000e+000 75180 -9.8244e+001 -1.1037e+002  6.7129e+001 58270 75033,75085,75059
 3.7000e+000 75157 -5.3926e+001 -1.5018e+002  3.1867e+001 58270 74955,75007,74981
 3.7000e+000 75134 -6.2530e+001 -1.0184e+002  1.7841e+001 58270 74955,75033,75007
 3.7000e+000 75111 -2.1444e+001 -7.3702e+001  2.8201e+001 58270 74903,75085,74929
 3.7000e+000 75425 -9.3874e+001 -1.3726e+002  4.4162e+001 57830 75448,75301,75249
 3.7000e+000 75402 -6.1558e+001 -9.9556e+001  2.8502e+001 57830 75448,75249,75353
 3.7000e+000 75379 -1.2554e+002 -2.1970e+002  2.5181e+001 57830 75520,75301,75275
 3.7000e+000 75474 -8.2025e+001 -1.6480e+002  7.2285e+001 57830 75327,75301,75448
 3.7000e+000 75497 -5.9270e+001 -1.4354e+002  5.8683e+001 57830 75327,75448,75353
 3.7000e+000 75546 -6.8554e+001 -1.7157e+002  2.5589e+000 57830 75249,75301,75520
 3.7000e+000 76261 -6.7722e+001 -9.3015e+001  3.6385e+001 57426 76284,76097,76071
 3.7000e+000 76238 -8.0866e+001 -2.9529e+001  4.6033e+001 57426 75889,76097,75915
 3.7000e+000 76215 -7.0273e+001 -8.2811e+001  5.1267e+001 57426 76428,76284,76071
 3.7000e+000 76192 -5.9119e+001 -7.6272e+001  3.1698e+001 57426 76356,75941,75915
 3.7000e+000 76169 -6.4080e+001 -7.8332e+001  5.4328e+001 57426 76428,76071,76019
 3.7000e+000 76146 -8.1136e+001 -1.1243e+002  6.0584e+001 57426 76019,76071,76045
 3.7000e+000 76123 -8.4148e+001 -8.5877e+001  8.5556e+001 57426 75967,76019,75993
 3.7000e+000 76310 -6.0638e+001 -7.5374e+001  3.2349e+001 57426 75915,76097,76284
 3.7000e+000 76333 -6.7572e+001 -8.1769e+001  3.5495e+001 57426 76356,75915,76284
 3.7000e+000 76382 -7.7869e+001 -7.1277e+001  3.7770e+001 57426 75967,75941,76356
 3.7000e+000 76405 -8.1991e+001 -7.2506e+001  4.0757e+001 57426 75967,76356,76284
 3.7000e+000 76454 -8.0141e+001 -7.5392e+001  5.2171e+001 57426 75967,76284,76428
 3.7000e+000 76477 -7.2007e+001 -7.0620e+001  5.4674e+001 57426 75967,76428,76019
 3.7000e+000 76953 -7.0407e+001 -9.6173e+001  5.5698e+001 56908 76976,76711,76685
 3.7000e+000 76930 -6.6849e+001 -9.2066e+001  6.2558e+001 56908 77048,76976,76685
 3.7000e+000 76907 -1.1388e+002 -9.7665e+001  8.5948e+001 56908 77048,76685,76633
 3.7000e+000 76884 -1.7606e+002 -1.3730e+002  7.7046e+001 56908 76711,76789,76763
 3.7000e+000 76861 -8.8416e+001 -5.2278e+001  2.2937e+001 56908 76581,76789,76607
 3.7000e+000 76838 -1.4582e+002 -5.4240e+001  6.9132e+001 56908 76711,76763,76737
 3.7000e+000 76815 -3.2003e+002 -2.4413e+002  1.7568e+002 56908 76633,76685,76659
 3.7000e+000 77002 -9.7041e+001 -1.0354e+002  4.6350e+001 56908 76789,76711,76976
 3.7000e+000 77025 -8.4934e+001 -3.6395e+001  3.7618e+001 56908 76789,76976,76607
 3.7000e+000 77074 -1.3845e+002 -9.3775e+001  6.3027e+001 56908 76607,76976,77048
 3.7000e+000 77097 -1.6140e+002 -7.8449e+001  8.4171e+001 56908 76607,77048,76633
 3.7000e+000 77475 -4.3533e+001 -2.3435e+001  4.2166e+001 56546 77570,77498,77279
 3.7000e+000 77452 -2.4833e+001 -7.7781e+001  5.7436e+001 56546 77498,77227,77357
 3.7000e+000 77429 -5.4455e+001 -3.6276e+001  5.6696e+001 56546 77570,77279,77253
 3.7000e+000 77406 -8.3887e+001 -1.0990e+002  7.7995e+001 56546 77201,77357,77227
 3.7000e+000 77383 -2.9116e+001 -1.1318e+001 -1.7816e+000 56546 77279,77331,77305
 3.7000e+000 77524 -3.9290e+001  3.6078e+001  3.7229e+001 56546 77331,77279,77498
 3.7000e+000 77547 -8.6884e+000 -2.2100e+001  8.0262e+001 56546 77331,77498,77357
 3.7000e+000 77596 -5.5636e+001 -3.2341e+001  6.3575e+001 56546 77227,77498,77570
 3.7000e+000 77619 -6.9023e+001 -6.5717e+001  7.7604e+001 56546 77227,77570,77253
 3.7000e+000 77818 -5.6792e+001 -4.8038e+001  4.2656e+001 56042 77841,77694,77668
 3.7000e+000 77795 -4.6653e+001 -4.2261e+001  3.8827e+001 56042 77841,77668,77746
 3.7000e+000 77772 -4.8428e+001 -2.6493e+001  3.8670e+001 56042 77642,77746,77668
 3.7000e+000 77867 -6.0913e+001 -5.1162e+001  5.0669e+001 56042 77720,77694,77841
 3.7000e+000 77890 -4.9405e+001 -4.4508e+001  4.6682e+001 56042 77720,77841,77746
 3.7000e+000 78349 -1.6373e+002 -1.7219e+002  5.3793e+001 55538 78075,78127,78101
 3.7000e+000 78326 -1.7610e+002 -1.7582e+002  3.8585e+001 55538 78075,78205,78127
 3.7000e+000 78303 -2.4756e+002 -9.6830e+001  7.2613e+001 55538 78075,78231,78205
 3.7000e+000 78280 -1.1907e+002 -2.3577e+002  9.7391e+001 55538 78127,78179,78153
 3.7000e+000 78257 -1.3797e+002 -1.7476e+002  3.5152e+001 55538 78127,78205,78179
 3.7000e+000 78806 -8.7701e+001 -7.6159e+001  2.8183e+001 55034 78829,78636,78610
 3.7000e+000 78783 -9.9066e+001 -9.9753e+001  3.3105e+001 55034 78901,78829,78610
 3.7000e+000 78760 -9.4255e+001 -1.2754e+002  5.0642e+001 55034 78901,78610,78584
 3.7000e+000 78737 -7.8077e+001 -6.4004e+001  4.0108e+001 55034 78558,78688,78662
 3.7000e+000 78714 -6.6909e+001 -3.8069e+001  4.0068e+001 55034 78532,78688,78558
 3.7000e+000 78855 -9.4525e+001 -6.2368e+001  3.2704e+001 55034 78662,78636,78829
 3.7000e+000 78878 -9.8012e+001 -6.9134e+001  3.4292e+001 55034 78662,78829,78558
 3.7000e+000 78927 -8.5916e+001 -6.4106e+001  3.3780e+001 55034 78558,78829,78901
 3.7000e+000 78950 -7.5007e+001 -8.2881e+001  4.7883e+001 55034 78558,78901,78584
 3.7000e+000 79407 -3.0258e+001 -5.9347e+001  4.8814e+001 54430 79430,79237,79159
 3.7000e+000 79384 -2.8964e+001 -7.0099e+001  3.7212e+001 54430 79430,79159,79133
 3.7000e+000 79361 -4.5958e+001 -4.4523e+001  2.7981e+001 54430 79237,79289,79263
 3.7000e+000 79338 -2.6320e+001 -8.0637e+001  1.6426e+001 54430 79185,79237,79211
 3.7000e+000 79315 -1.0421e+002 -8.7374e+001  6.5249e+001 54430 79159,79237,79185
 3.7000e+000 79456 -3.2104e+001 -7.1705e+001  4.4330e+001 54430 79289,79237,79430
 3.7000e+000 79479 -3.1117e+001 -8.7812e+001  3.5141e+001 54430 79289,79430,79133
 3.7000e+000 79936 -5.6347e+001 -6.5073e+001  6.2926e+001 53919 79662,79766,79688
 3.7000e+000 79913 -1.6669e+002 -1.1650e+002  1.0415e+002 53919 79662,79818,79766
 3.7000e+000 79890 -1.5990e+002 -1.2387e+002  1.1901e+002 53919 79766,79818,79792
 3.7000e+000 79867 -1.2540e+002 -1.3473e+002  4.0717e+001 53919 79714,79766,79740
 3.7000e+000 79844 -1.3428e+002 -9.9869e+001  7.0812e+001 53919 79688,79766,79714
 3.7000e+000 80037 -1.0645e+002 -2.5366e+002  4.7383e+001 53671 79959,80011,79985
 3.7000e+000 80405 -8.7831e+001 -2.1756e+002  5.7083e+001 53267 80108,80264,80238
 3.7000e+000 80382 -1.7905e+002 -2.3525e+002  5.0945e+001 53267 80082,80264,80108
 3.7000e+000 80359 -8.3379e+001 -2.0025e+002  4.5276e+001 53267 80108,80238,80134
 3.7000e+000 80336 -3.1122e+001 -7.7877e+001  3.8163e+001 53267 80134,80212,80186
 3.7000e+000 80313 -9.6249e+001 -1.6672e+002  9.4806e+001 53267 80134,80238,80212
 3.7000e+000 80290 -3.0453e+001 -7.8177e+001  3.6924e+001 53267 80134,80186,80160
 3.7000e+000 80915 -1.3191e+002 -2.3848e+002  3.5083e+001 52969 80644,80774,80748
 3.7000e+000 80892 -1.3910e+002 -2.0397e+002  2.0032e+001 52969 80618,80774,80644
 3.7000e+000 80869 -1.8759e+002 -3.2094e+002 -1.1304e+001 52969 80644,80748,80670
 3.7000e+000 80846 -1.5790e+002 -2.1541e+002  1.5405e+001 52969 80592,80774,80618
 3.7000e+000 80823 -2.3429e+002 -2.4509e+002  9.9790e+000 52969 80670,80722,80696
 3.7000e+000 80800 -1.6024e+002 -2.1252e+002 -1.4433e+001 52969 80670,80748,80722
 3.7000e+000 81266  4.4130e+000 -1.4830e-001 -2.2744e-001 52565 81041,81145,81067
 3.7000e+000 81243  5.3416e+000 -1.5243e+000 -9.1435e-001 52565 81041,81171,81145
 3.7000e+000 81220  4.9144e+000  2.5459e-001  1.4390e+000 52565 81067,81119,81093
 3.7000e+000 81197  6.3942e+000  1.3060e+000  7.0443e-001 52565 81067,81145,81119
 3.7000e+000 81723 -5.7033e+000  1.3111e+000 -2.5614e+000 51904 81449,81527,81475
 3.7000e+000 81700 -8.1977e+000 -9.0801e-001  1.5375e-002 51904 81449,81579,81527
 3.7000e+000 81677 -3.3454e+001  2.0150e+000 -1.5065e+000 51904 81449,81605,81579
 3.7000e+000 81654 -3.0453e+001  2.3517e-001 -1.4506e+000 51904 81527,81579,81553
 3.7000e+000 81631  1.5024e+000  8.9140e-001 -1.0418e+000 51904 81475,81527,81501
 3.7000e+000 82327 -8.4574e+001 -8.1559e+001  6.2905e+001 51321 82422,82350,82036
 3.7000e+000 82304 -9.5606e+001 -6.0525e+001  7.0850e+001 51321 82494,82350,81958
 3.7000e+000 82281 -8.7734e+001 -8.2049e+001  5.4695e+001 51321 82422,82036,82010
 3.7000e+000 82258 -1.0942e+002 -6.7508e+001  7.3458e+001 51321 82494,81958,81932
 3.7000e+000 82235 -1.0073e+002 -3.4561e+001  3.0025e+001 51321 82062,82114,82088
 3.7000e+000 82212 -2.4399e+002 -1.7057e+002  1.1246e+002 51321 81932,82140,82114
 3.7000e+000 82189 -7.9623e+001 -4.0314e+001  5.4083e+001 51321 81958,82010,81984
 3.7000e+000 82166 -3.2470e+001 -8.6409e+001  3.4633e+001 51321 81906,82140,81932
 3.7000e+000 82376 -9.0857e+001 -1.0526e+002  5.9165e+001 51321 82062,82036,82350
 3.7000e+000 82399 -9.2608e+001 -6.9995e+001  5.5771e+001 51321 82062,82350,82114
 3.7000e+000 82448 -7.3331e+001 -7.6769e+001  6.3377e+001 51321 81958,82350,82422
 3.7000e+000 82471 -7.5156e+001 -7.6692e+001  5.5252e+001 51321 81958,82422,82010
 3.7000e+000 82520 -9.9925e+001 -6.0079e+001  6.3363e+001 51321 82114,82350,82494
 3.7000e+000 82543 -1.0167e+002 -6.1303e+001  6.4898e+001 51321 82114,82494,81932
 3.7000e+000 83019 -5.7124e+001 -1.0590e+002  3.7592e+001 50817 82673,82751,82699
 3.7000e+000 82996 -1.1108e+002 -9.5637e+001  5.1581e+001 50817 83042,82673,82855
 3.7000e+000 82973 -1.1880e+002 -1.5564e+002  4.6467e+001 50817 83042,82855,82803
 3.7000e+000 82950 -1.7165e+002 -2.4051e+002  5.6363e+001 50817 82751,82803,82777
 3.7000e+000 82927 -6.4473e+001 -1.0445e+002  2.5062e+001 50817 82647,82855,82673
 3.7000e+000 82904 -2.0005e+002 -2.0013e+002  1.1872e+002 50817 82803,82855,82829
 3.7000e+000 82881 -1.1740e+002 -2.3050e+002  5.3350e+001 50817 82699,82751,82725
 3.7000e+000 83068 -8.7673e+001 -1.4208e+002  8.9032e+001 50817 82751,82673,83042
 3.7000e+000 83091 -9.0001e+001 -1.9842e+002  7.7422e+001 50817 82751,83042,82803
 3.7000e+000 83290 -8.6469e+001 -4.6044e+001  5.0979e+001 50356 83313,83166,83140
 3.7000e+000 83267 -6.5809e+001 -7.1572e+001  4.5210e+001 50356 83515,83313,83140
 3.7000e+000 83244 -7.6026e+001 -4.6932e+001  2.3603e+001 50356 83515,83140,83385
 3.7000e+000 83339 -1.2523e+002 -5.7249e+001  7.9713e+001 50356 83192,83166,83313
 3.7000e+000 83362 -5.6659e+001 -5.2892e+001  5.9600e+001 50356 83192,83313,83218
 3.7000e+000 83411 -1.9017e+001  5.3819e+000  1.3258e+001 50356 83114,83218,83385
 3.7000e+000 83541 -2.8247e+001 -3.7128e+001  2.7676e+001 50356 83218,83313,83515
 3.7000e+000 83564 -3.4561e+001 -2.1238e+001  6.2234e+000 50356 83218,83515,83385
 3.7000e+000 83893 -1.5668e+002 -1.1024e+002  1.2483e+000 49552 83720,83798,83746
 3.7000e+000 83870 -9.3719e+001 -3.9720e+001  4.3843e+001 49552 83694,83798,83720
 3.7000e+000 83847 -7.6878e+001 -4.0758e+001  4.4085e+001 49552 83668,83798,83694
 3.7000e+000 83824 -2.4716e+002 -6.3828e+001 -2.2924e+001 49552 83746,83798,83772
 3.7000e+000 84141 -1.0682e+002 -6.7854e+001  4.0955e+001 49212 84164,84020,83942
 3.7000e+000 84118 -9.0596e+001 -2.7961e+001  5.6839e+001 49212 84164,83942,83916
 3.7000e+000 84095 -8.3124e+001 -9.5028e+001  1.9674e+001 49212 83942,84020,83968
 3.7000e+000 84072 -5.8266e+001 -2.0810e+001  2.3227e+001 49212 83968,84020,83994
 3.7000e+000 84190 -1.2183e+002 -5.7486e+001  1.7834e+001 49212 84046,84020,84164
 3.7000e+000 84213 -1.0648e+002 -3.2422e+001  3.3233e+001 49212 84046,84164,83916
 3.7000e+000 84800 -1.1247e+001 -9.7255e+000  5.2016e+000 48865 84503,84633,84555
 3.7000e+000 84777 -2.8713e+000  1.3271e+001  1.1688e+001 48865 84503,84659,84633
 3.7000e+000 84754 -1.1126e+001 -5.8552e+000  1.1253e+001 48865 84555,84633,84581
 3.7000e+000 84731 -1.2267e+001  9.8374e-001  7.9841e+000 48865 84581,84633,84607
 3.7000e+000 84708 -2.1865e+001 -2.8415e+001  1.9264e+001 48865 84503,84555,84529
 3.7000e+000 84685 -2.0790e+000  1.3270e+001  7.0867e+000 48865 84477,84659,84503
 3.7000e+000 85355 -5.9824e+001 -1.2851e+002  2.5596e+001 48461 85378,85035,85009
 3.7000e+000 85332 -1.0415e+002 -1.3929e+002  4.6772e+001 48461 85378,85009,85165
 3.7000e+000 85309 -1.1763e+002 -1.6783e+002  3.7008e+001 48461 85450,85061,85035
 3.7000e+000 85286 -9.4185e+001 -1.1536e+002  1.8239e+001 48461 85009,85191,85165
 3.7000e+000 85263 -8.8131e+001 -1.8033e+002  5.7060e+001 48461 85087,85165,85113
 3.7000e+000 85240 -6.3267e+001 -1.5074e+002 -2.5567e+001 48461 84983,85191,85009
 3.7000e+000 85217 -9.1582e+001 -2.1634e+002  4.5080e+001 48461 85113,85165,85139
 3.7000e+000 85404 -1.0771e+002 -1.4957e+002  2.9147e+001 48461 85450,85035,85378
 3.7000e+000 85427 -8.7419e+001 -1.4586e+002  3.9091e+001 48461 85087,85378,85165
 3.7000e+000 85476 -1.0739e+002 -1.9863e+002  5.4816e+001 48461 85087,85061,85450
 3.7000e+000 85499 -9.7566e+001 -1.8438e+002  4.6001e+001 48461 85087,85450,85378
 3.7000e+000 86084 -4.3739e+001 -1.4094e+002  5.4861e+001 48057 86323,86107,85787
 3.7000e+000 86061 -5.9992e+001 -1.3717e+002  6.5039e+001 48057 86107,85761,85943
 3.7000e+000 86038 -8.3223e+001 -1.1451e+002  5.5373e+001 48057 86251,86179,85891
 3.7000e+000 86015 -8.3957e+001 -1.0131e+002  4.2219e+001 48057 86251,85891,85839
 3.7000e+000 85992 -6.6726e+001 -9.3804e+001  6.5722e+001 48057 85891,85943,85917
 3.7000e+000 85969 -1.0630e+002 -6.9113e+001  6.0462e+001 48057 85839,85891,85865
 3.7000e+000 86133 -5.0332e+001 -1.5092e+002  4.9843e+001 48057 85813,85787,86107
 3.7000e+000 86156 -6.9677e+001 -1.3695e+002  4.4946e+001 48057 86179,85813,86107
 3.7000e+000 86205 -6.8832e+001 -9.3929e+001  6.2495e+001 48057 85943,85891,86179
 3.7000e+000 86228 -4.7085e+001 -1.0907e+002  6.0911e+001 48057 85943,86179,86107
 3.7000e+000 86277 -5.9135e+001 -1.0078e+002  4.9807e+001 48057 85813,86179,86251
 3.7000e+000 86300 -7.2975e+001 -9.4109e+001  3.9012e+001 48057 85813,86251,85839
 3.7000e+000 86349 -3.0739e+001 -1.2780e+002  6.1333e+001 48057 85761,86107,86323
 3.7000e+000 86855 -1.5778e+001 -2.9354e+001  1.6289e+001 47545 86878,86584,86558
 3.7000e+000 86832 -2.1823e+001 -3.0975e+001  4.9724e+000 47545 86950,86878,86558
 3.7000e+000 86809 -1.8189e+001 -2.3437e+001  8.3948e+000 47545 86950,86558,86532
 3.7000e+000 86786 -5.1315e+001 -4.7686e+001  1.1938e+001 47545 86584,86662,86610
 3.7000e+000 86763 -6.5197e+001 -4.1154e+000  8.9579e+000 47545 86532,86714,86688
 3.7000e+000 86740 -2.3757e+001 -2.4720e+001  2.2415e+001 47545 86610,86662,86636
 3.7000e+000 86904 -2.1634e+001 -3.9608e+001  1.3946e+001 47545 86662,86584,86878
 3.7000e+000 86927 -4.4061e+001 -3.7176e+001  1.4419e+000 47545 86662,86878,86688
 3.7000e+000 86976 -2.2499e+001 -1.9265e+001  9.2701e+000 47545 86688,86878,86950
 3.7000e+000 86999 -1.9966e+001 -1.6431e+001  1.3360e+001 47545 86688,86950,86532
 3.7000e+000 87328 -3.1959e+002 -7.4849e+001  1.1178e+002 47048 87155,87207,87181
 3.7000e+000 87305 -1.0872e+002 -7.4013e+001  5.1571e+001 47048 87129,87207,87155
 3.7000e+000 87282 -2.4698e+002 -1.5199e+002  8.2940e+001 47048 87103,87207,87129
 3.7000e+000 87259 -3.2198e+002 -3.5681e+002  1.6565e+002 47048 87103,87233,87207
 3.7000e+000 87576 -1.8169e+001 -1.5710e+002  5.4540e+001 46701 87599,87429,87377
 3.7000e+000 87553 -7.0980e+001 -1.6086e+002  5.2379e+001 46701 87599,87377,87481
 3.7000e+000 87530 -8.3849e+001 -1.6722e+002  5.0286e+001 46701 87351,87481,87377
 3.7000e+000 87507 -6.4665e+001 -1.8131e+002  8.3870e+001 46701 87377,87429,87403
 3.7000e+000 87625 -5.4231e+001 -1.0049e+002  1.4278e+001 46701 87455,87429,87599
 3.7000e+000 87648 -1.7465e+002 -1.4741e+002  3.3688e+001 46701 87455,87599,87481
 3.7000e+000 87798 -5.1222e+001 -9.6916e+000 -2.3077e+001 46239 87697,87749,87723
 3.7000e+000 87775 -7.2625e+001 -1.8131e+002  9.3036e+000 46239 87671,87749,87697
 3.7000e+000 88308 -1.2817e+002 -2.6182e+002  6.1849e+001 45735 88089,88167,88141
 3.7000e+000 88285 -8.4098e+001 -1.4075e+002  7.0780e+001 45735 88011,88167,88089
 3.7000e+000 88262 -1.2251e+001 -1.3694e+002  2.7586e+001 45735 87985,88167,88011
 3.7000e+000 88239 -4.9417e+001 -5.2831e+002  1.0329e+002 45735 88011,88089,88063
 3.7000e+000 88216 -1.7021e+002 -2.8625e+002  2.5472e+001 45735 88089,88141,88115
 3.7000e+000 88193 -2.7804e+002 -8.2355e+002 -5.3345e+001 45735 88011,88063,88037
 3.7000e+000 88686 -9.1051e+001 -6.3313e+000  4.1096e+001 45316 88438,88516,88490
 3.7000e+000 88663 -1.0849e+002  3.7816e+001  1.0278e+002 45316 88438,88542,88516
 3.7000e+000 88640 -3.6521e+001 -8.3360e+001  1.0637e+002 45316 88438,88568,88542
 3.7000e+000 88617 -4.2238e+001 -3.9912e+001  4.0659e+001 45316 88438,88490,88464
 3.7000e+000 88594 -8.2790e+001 -9.6779e+001  1.0687e+002 45316 88412,88568,88438
 3.7000e+000 88934 -1.3607e+002 -1.2657e+002  8.4480e+001 44812 88957,88735,88709
 3.7000e+000 88911 -7.7753e+001 -5.2156e+001  4.4714e+001 44812 88957,88709,88839
 3.7000e+000 88888 -6.9069e+001 -7.1668e+001  2.2480e+001 44812 89029,88787,88761
 3.7000e+000 88865 -5.4143e+001 -5.7193e+001  1.4935e+001 44812 88787,88839,88813
 3.7000e+000 88983 -4.9693e+001 -7.4051e+001  4.7982e+001 44812 88761,88735,88957
 3.7000e+000 89006 -7.4309e+001 -7.2202e+001  2.2107e+001 44812 89029,88761,88957
 3.7000e+000 89055 -6.4587e+001 -7.3143e+001  2.2531e+001 44812 88839,88787,89029
 3.7000e+000 89078 -6.7783e+001 -7.2326e+001  2.1267e+001 44812 88839,89029,88957
 3.7000e+000 89228 -3.4133e+001 -8.5735e+001  5.1163e+001 44408 89127,89179,89153
 3.7000e+000 89205 -2.0803e+001  3.0140e-001  2.5925e+000 44408 89101,89179,89127
 3.7000e+000 89787 -1.0538e+002 -7.1613e+001  5.3935e+001 43854 89810,89545,89519
 3.7000e+000 89764 -1.1267e+002 -8.4939e+001  4.7500e+001 43854 89810,89519,89467
 3.7000e+000 89741 -1.1413e+002 -1.1357e+002  4.3153e+001 43854 89954,89882,89597
 3.7000e+000 89718 -1.1427e+002 -1.1691e+002  4.1837e+001 43854 89954,89597,89571
 3.7000e+000 89695 -6.3471e+001 -6.8706e+001  3.1849e+001 43854 89415,89623,89467
 3.7000e+000 89672 -9.2039e+001 -5.9430e+001  3.7919e+001 43854 89467,89519,89493
 3.7000e+000 89649 -3.3798e+001 -9.1974e+001  1.6080e+001 43854 89415,89467,89441
 3.7000e+000 89836 -1.1066e+002 -7.3653e+001  5.3619e+001 43854 89882,89545,89810
 3.7000e+000 89859 -6.2156e+001 -7.6807e+001  3.4610e+001 43854 89623,89810,89467
 3.7000e+000 89908 -1.0961e+002 -1.3085e+002  6.0495e+001 43854 89623,89597,89882
 3.7000e+000 89931 -1.0053e+002 -1.1877e+002  5.4092e+001 43854 89623,89882,89810
 3.7000e+000 89980 -1.1288e+002 -1.1036e+002  6.2055e+001 43854 89545,89882,89954
 3.7000e+000 90003 -1.1798e+002 -1.2678e+002  6.2709e+001 43854 89545,89954,89571
 3.7000e+000 90251 -2.9355e+001 -6.6159e+000  1.4120e+001 43492 90026,90078,90052
 3.7000e+000 90228 -9.8508e+001 -6.3305e+001  3.6409e+001 43492 90274,90026,90156
 3.7000e+000 90205 -9.6106e+001 -6.6981e+001  3.6424e+001 43492 90346,90274,90156
 3.7000e+000 90182 -9.8410e+001 -9.3174e+001  7.2476e+001 43492 90346,90156,90130
 3.7000e+000 90300 -6.7177e+001 -7.0697e+001  4.0791e+001 43492 90078,90026,90274
 3.7000e+000 90323 -1.0774e+002 -7.9623e+001  4.6404e+001 43492 90078,90274,90104
 3.7000e+000 90372 -1.3987e+002 -1.0005e+002  6.2760e+001 43492 90104,90274,90346
 3.7000e+000 90395 -1.4213e+002 -1.2991e+002  9.9043e+001 43492 90104,90346,90130
 3.7000e+000 90594 -1.0272e+002 -2.5863e+002 -2.3972e+001 43052 90418,90496,90444
 3.7000e+000 90571 -1.8567e+002 -3.5969e+002  1.5226e+001 43052 90418,90522,90496
 3.7000e+000 90548 -7.8157e+001 -1.3482e+002  3.3605e+001 43052 90444,90496,90470
 3.7000e+000 91074 -1.2889e+002 -3.8340e+002  1.5357e+002 42434 91241,90884,90858
 3.7000e+000 91051 -3.9510e+002 -4.9283e+002 -7.6369e+001 42434 90702,90910,90884
 3.7000e+000 91028 -9.9568e+001 -2.9087e+002  9.9600e+001 42434 91097,90754,90702
 3.7000e+000 91005 -1.4891e+002 -2.0843e+002  1.7253e+002 42434 91241,90858,91097
 3.7000e+000 90982 -1.0230e+002 -1.6958e+002 -1.2375e+001 42434 91169,90806,90780
 3.7000e+000 90959 -3.8173e+001 -1.4528e+002 -3.5704e+001 42434 90806,90858,90832
 3.7000e+000 90936 -1.2718e+002 -3.5810e+002  7.8475e+001 42434 90702,90754,90728
 3.7000e+000 91123 -2.3847e+002 -3.3366e+002  7.5658e+001 42434 90780,90754,91097
 3.7000e+000 91146 -1.9904e+002 -2.6440e+002  1.0606e+002 42434 91169,90780,91097
 3.7000e+000 91195 -6.2907e+001 -1.0822e+002 -5.0295e+001 42434 90858,90806,91169
 3.7000e+000 91218 -7.8908e+001 -3.3705e+001  5.1368e+001 42434 90858,91169,91097
 3.7000e+000 91267 -1.1262e+002 -5.5824e+002  6.1093e+001 42434 90702,90884,91241
 3.7000e+000 91290 -1.5209e+002 -4.0431e+002  7.8759e+001 42434 90702,91241,91097
 3.7000e+000 91698 -3.2653e+001 -8.8234e+001  3.7089e+001 41773 91473,91577,91499
 3.7000e+000 91675 -3.4800e+001 -9.1686e+001  3.9906e+001 41773 91473,91603,91577
 3.7000e+000 91652 -5.7262e+001 -7.2281e+001  2.2115e+001 41773 91499,91551,91525
 3.7000e+000 91629 -5.5081e+001 -7.5840e+001  4.0317e+001 41773 91499,91577,91551
 3.7000e+000 92044 -2.6951e+001 -5.4598e+001  2.5455e+001 41383 91773,91877,91851
 3.7000e+000 92021 -2.1598e+001 -5.6053e+001  2.1844e+001 41383 91747,91877,91773
 3.7000e+000 91998 -8.6101e+000 -4.0429e+001  1.9185e+001 41383 91773,91851,91799
 3.7000e+000 91975 -5.4752e+001 -4.4145e+001  4.7942e+000 41383 91747,91903,91877
 3.7000e+000 91952  1.3738e+001 -1.2120e+001  1.3946e+001 41383 91721,91903,91747
 3.7000e+000 91929  2.7360e+000 -4.5043e+001  1.1737e+001 41383 91799,91851,91825
 3.7000e+000 92601 -1.0684e+002 -1.2109e+002  2.8247e+001 40979 92229,92411,92307
 3.7000e+000 92578 -1.2696e+002 -1.1184e+002  2.0372e+001 40979 92229,92437,92411
 3.7000e+000 92555 -9.1258e+001 -1.3522e+002  7.4802e+000 40979 92229,92307,92281
 3.7000e+000 92532 -8.7745e+001 -1.2540e+002  4.0166e+001 40979 92333,92411,92385
 3.7000e+000 92509 -9.9060e+001 -1.2735e+002  2.5577e+001 40979 92307,92411,92333
 3.7000e+000 92486 -9.9318e+001 -1.4123e+002  9.6987e-001 40979 92229,92281,92255
 3.7000e+000 92463 -2.1891e+001 -1.1827e+002  2.9489e+001 40979 92333,92385,92359
 3.7000e+000 93235 -1.3164e+002 -1.2412e+002  7.2837e+001 40525 92941,92993,92967
 3.7000e+000 93212 -1.5322e+002 -6.6360e+001  2.0653e+001 40525 93258,92941,92889
 3.7000e+000 93189 -1.1618e+002 -4.3827e+001  6.7922e+000 40525 93258,92889,93071
 3.7000e+000 93166 -1.8896e+002 -1.3609e+002  3.7616e+001 40525 92889,92941,92915
 3.7000e+000 93143 -2.0829e+002 -5.0363e+001 -5.4784e+000 40525 92863,93071,92889
 3.7000e+000 93120 -1.2250e+002 -1.0636e+002  4.9637e+001 40525 92993,93071,93019
 3.7000e+000 93097 -1.4384e+002 -9.3393e+001  4.7287e+001 40525 93019,93071,93045
 3.7000e+000 93284 -1.7037e+002 -1.0406e+002  6.3168e+001 40525 92993,92941,93258
 3.7000e+000 93307 -9.7332e+001 -5.5619e+001  4.1454e+001 40525 92993,93258,93071
 3.7000e+000 93636 -1.0886e+002 -9.7791e+001  7.6422e+001 40235 93437,93541,93515
 3.7000e+000 93613 -7.9980e+001 -1.3034e+002  6.1202e+001 40235 93411,93541,93437
 3.7000e+000 93590 -3.0904e+001 -1.2076e+002  2.9972e+001 40235 93463,93515,93489
 3.7000e+000 93567 -5.4503e+001 -6.3890e+001  2.7422e+001 40235 93437,93515,93463
 3.7000e+000 94014 -1.0638e+002 -4.5004e+001  5.1086e+001 39873 93766,93870,93792
 3.7000e+000 93991 -5.6926e+001 -5.2889e+001  3.3541e+001 39873 93766,93896,93870
 3.7000e+000 93968 -1.2600e+002 -5.7003e+001  4.2604e+001 39873 93792,93870,93844
 3.7000e+000 93945 -7.2319e+001 -2.6866e+001  2.9406e+001 39873 93792,93844,93818
 3.7000e+000 93922 -5.2583e+001 -3.3668e+001  2.8983e+001 39873 93740,93896,93766
 3.7000e+000 94164 -2.9514e+001 -8.0929e+001  9.2598e+000 39461 94037,94089,94063
 3.7000e+000 94141 -1.4912e+001 -3.5331e+002  8.1355e+001 39461 94037,94115,94089
 3.7000e+000 94363 -5.5922e+001 -3.9756e+001  2.6721e+001 39057 94386,94239,94213
 3.7000e+000 94340 -8.0080e+000  1.0401e+000  5.9265e+000 39057 94386,94213,94187
 3.7000e+000 94317 -5.5812e+001 -3.1907e+001  2.5145e+001 39057 94187,94291,94265
 3.7000e+000 94412 -1.6500e+001 -3.5454e+001  3.1453e+001 39057 94458,94386,94265
 3.7000e+000 94435 -2.8523e+001 -4.0385e+001  2.2351e+001 39057 94265,94386,94187
 3.7000e+000 94484 -3.5040e+001 -5.3328e+001  3.9899e+001 39057 94239,94386,94458
 3.7000e+000 94896 -1.1711e+002 -8.7571e+001  5.3920e+001 38396 94919,94775,94723
 3.7000e+000 94873 -1.3519e+002 -7.2262e+001  5.6305e+001 38396 94919,94723,94697
 3.7000e+000 94850 -7.9972e+001 -7.3830e+001  3.1004e+001 38396 94723,94775,94749
 3.7000e+000 94827 -5.8686e+001 -3.6508e+001  3.6123e+001 38396 94671,94801,94697
 3.7000e+000 94945 -1.1354e+002 -7.5487e+001  4.8338e+001 38396 94801,94775,94919
 3.7000e+000 94968 -1.2413e+002 -5.4594e+001  4.7474e+001 38396 94801,94919,94697
 3.7000e+000 95265 -1.1758e+002 -1.2238e+002  5.8558e+001 37835 95017,95069,95043
 3.7000e+000 95242 -1.1788e+002 -1.0952e+002  5.9714e+001 37835 95288,95069,95017
 3.7000e+000 95219 -1.2176e+002 -1.1932e+002  7.3502e+001 37835 95288,95017,94991
 3.7000e+000 95196 -1.4702e+002 -1.4224e+002  7.6548e+001 37835 94991,95147,95121
 3.7000e+000 95173 -6.5847e+001 -7.5199e+001  5.3971e+001 37835 95069,95121,95095
 3.7000e+000 95314 -1.1697e+002 -8.8779e+001  5.2712e+001 37835 95121,95069,95288
 3.7000e+000 95337 -1.2114e+002 -1.0328e+002  6.5390e+001 37835 95121,95288,94991
 3.7000e+000 95558  1.0823e+001  1.3210e+001  9.7006e+000 37423 95408,95460,95434
 3.7000e+000 95535  1.7351e+000 -2.4106e+001  2.4246e+001 37423 95382,95460,95408
 3.7000e+000 95512 -1.1149e+001 -3.4500e+001  2.8741e+001 37423 95382,95486,95460
 3.7000e+000 95891 -4.8899e+001 -1.2036e+002  3.7741e+001 37225 95666,95718,95692
 3.7000e+000 95868 -1.7084e+002 -3.2586e+002  9.2829e+001 37225 95666,95796,95718
 3.7000e+000 95845 -8.4591e+001 -1.1315e+002  2.1253e+001 37225 95718,95770,95744
 3.7000e+000 95822 -5.8958e+001 -1.0791e+002  1.6186e+001 37225 95718,95796,95770
 3.7000e+000 95992 -1.2017e+001 -3.8926e+001  1.4929e+001 36735 95914,95966,95940
 3.7000e+000 96142 -1.1706e+002 -4.6253e+001  6.4537e+001 36331 96297,96067,96041
 3.7000e+000 96119 -1.1276e+002 -6.0307e+001  5.9519e+001 36331 96165,96041,96015
 3.7000e+000 96191 -1.1202e+002 -4.4068e+001  6.4929e+001 36331 96297,96041,96165
 3.7000e+000 96323 -1.2507e+002 -4.5611e+001  7.6636e+001 36331 96093,96067,96297
 3.7000e+000 96346 -1.0880e+002 -3.8517e+001  7.7752e+001 36331 96093,96297,96165
 3.7000e+000 96714 -6.4596e+001 -9.5032e+001  6.7279e+001 36041 96737,96495,96443
 3.7000e+000 96691 -9.1475e+001 -6.6317e+001  7.3011e+001 36041 96737,96443,96417
 3.7000e+000 96668 -3.9385e+001 -9.6883e+001  7.5991e+000 36041 96443,96495,96469
 3.7000e+000 96645 -2.1140e+001 -4.5164e+000  3.4585e+001 36041 96391,96521,96417
 3.7000e+000 96622 -8.4828e+000 -2.8041e+001  2.9184e+001 36041 96391,96547,96521
 3.7000e+000 96599 -1.0905e+000 -2.6804e+001  2.9956e+001 36041 96391,96573,96547
 3.7000e+000 96763 -2.6905e+001 -6.6919e+001  5.4995e+001 36041 96521,96495,96737
 3.7000e+000 96786 -7.7061e+001 -5.7266e+001  6.7575e+001 36041 96521,96737,96417
 3.7000e+000 96936 -1.2325e+002 -7.9385e+001  5.6587e+001 35637 97031,96959,96835
 3.7000e+000 96913 -8.8889e+001 -5.5964e+001  7.8428e+001 35637 97163,96959,96809
 3.7000e+000 96985 -1.0652e+002 -6.6559e+001  6.2923e+001 35637 96861,96835,96959
 3.7000e+000 97008 -1.2698e+002 -9.4560e+001  8.8776e+001 35637 96861,96959,96887
 3.7000e+000 97057 -8.6291e+001 -6.7516e+001  5.4645e+001 35637 96809,96959,97031
 3.7000e+000 97189 -7.4377e+001 -6.9101e+001  7.6624e+001 35637 96887,96959,97163
 3.7000e+000 97597 -5.7931e+001 -9.0271e+001  7.0624e+001 35190 97450,97502,97476
 3.7000e+000 97574 -5.8455e+001 -9.7965e+001  7.7430e+001 35190 97372,97502,97450
 3.7000e+000 97551 -6.7228e+001 -1.2131e+002  7.7086e+001 35190 97372,97450,97398
 3.7000e+000 97528 -6.8035e+001 -1.2196e+002  7.7467e+001 35190 97398,97450,97424
 3.7000e+000 98054 -4.6513e+001 -7.3324e+001  5.9113e+001 34636 97806,97936,97858
 3.7000e+000 98031 -9.4019e+001 -6.5021e+001  5.0311e+001 34636 97780,97936,97806
 3.7000e+000 98008 -9.3599e+001 -7.9251e+001  3.9673e+001 34636 97806,97858,97832
 3.7000e+000 97985 -6.1216e+001 -7.9970e+001  4.6414e+001 34636 97884,97936,97910
 3.7000e+000 97962 -2.9425e+001 -6.5223e+001  4.1286e+001 34636 97858,97936,97884
 3.7000e+000 98530 -1.5565e+002  1.8389e+001  5.4845e+001 34068 98697,98184,98366
 3.7000e+000 98507 -1.0993e+001 -1.0791e+000  1.5774e+001 34068 98158,98366,98184
 3.7000e+000 98484 -1.3858e+002 -1.6262e+002  6.6461e+001 34068 98553,98262,98236
 3.7000e+000 98461 -2.0628e+002 -2.0078e+002  5.1072e+001 34068 98553,98236,98210
 3.7000e+000 98438 -1.7236e+002 -9.2175e+001  5.3783e+001 34068 98841,98625,98366
 3.7000e+000 98415 -1.1341e+002 -2.0805e+002  7.4859e+001 34068 98769,98288,98262
 3.7000e+000 98392 -1.8681e+002 -6.5013e+001  4.9607e+001 34068 98841,98366,98340
 3.7000e+000 98579 -1.3953e+002 -1.7911e+002  5.6262e+001 34068 98769,98262,98553
 3.7000e+000 98602 -1.3800e+002 -1.1942e+002  5.9642e+001 34068 98625,98314,98553
 3.7000e+000 98651 -1.7318e+002 -8.0836e+001  6.6035e+001 34068 98697,98366,98625
 3.7000e+000 98674 -1.6410e+002 -1.7816e+002  8.0601e+001 34068 98210,98625,98553
 3.7000e+000 98723 -2.0191e+002 -1.0207e+002  7.1631e+001 34068 98210,98184,98697
 3.7000e+000 98746 -1.8219e+002 -1.2613e+002  9.1363e+001 34068 98210,98697,98625
 3.7000e+000 98795 -6.7151e+001 -1.7633e+002  5.9806e+001 34068 98314,98288,98769
 3.7000e+000 98818 -9.7687e+001 -1.5324e+002  4.3027e+001 34068 98314,98769,98553
 3.7000e+000 98867 -1.7611e+002 -1.3029e+002  4.4238e+001 34068 98314,98625,98841
 3.7000e+000 98890 -1.8584e+002 -9.6812e+001  3.9386e+001 34068 98314,98841,98340
 3.7000e+000 99268 -1.6909e+002 -1.7466e+002  1.0524e+002 33450 99291,99098,99072
 3.7000e+000 99245 -1.8807e+002 -1.4942e+002  6.8876e+001 33450 99291,99072,99020
 3.7000e+000 99222 -3.1367e+002 -1.8260e+002  1.2319e+002 33450 99020,99072,99046
 3.7000e+000 99199 -1.6081e+002 -1.4651e+002  6.9659e+001 33450 99020,99150,99124
 3.7000e+000 99176 -1.6197e+002 -1.1018e+002  1.9719e+001 33450 98994,99150,99020
 3.7000e+000 99317 -1.0401e+002 -1.4927e+002  1.0454e+002 33450 99124,99098,99291
 3.7000e+000 99340 -1.6467e+002 -1.4617e+002  7.2607e+001 33450 99124,99291,99020
 3.7000e+000 99865 -6.9274e+001 -7.3042e+001  3.7522e+001 32944 100176,99960,99888
 3.7000e+000 99842 -9.1553e+001 -8.9543e+001  4.0230e+001 32944 100104,99888,99522
 3.7000e+000 99819 -6.2325e+001 -6.5280e+001  3.5617e+001 32944 100248,99960,99626
 3.7000e+000 99796 -7.5151e+001 -8.2551e+001  3.2105e+001 32944 100032,99652,99626
 3.7000e+000 99773 -8.3424e+001 -1.1179e+002  2.5343e+001 32944 100104,99522,99496
 3.7000e+000 99750 -6.1817e+001 -1.0692e+002 -1.9546e-001 32944 99574,99626,99600
 3.7000e+000 99727 -4.2862e+001 -7.9361e+001  4.0087e+001 32944 100248,99626,99574
 3.7000e+000 99704 -5.9060e+001 -8.2692e+001  3.9365e+001 32944 99444,99496,99470
 3.7000e+000 99914 -7.7648e+001 -7.5325e+001  3.6121e+001 32944 100176,99888,100032
 3.7000e+000 99937 -9.2142e+001 -7.0121e+001  5.3078e+001 32944 99678,99888,99444
 3.7000e+000 99986 -8.4168e+001 -6.5830e+001  4.0153e+001 32944 99522,99888,99960
 3.7000e+000 100009 -6.7333e+001 -4.3464e+001  5.4027e+001 32944 99522,99960,99548
 3.7000e+000 100058 -8.0980e+001 -8.7140e+001  3.0080e+001 32944 99678,99652,100032
 3.7000e+000 100081 -9.8951e+001 -8.4220e+001  3.4380e+001 32944 99678,100032,99888
 3.7000e+000 100130 -7.1460e+001 -7.2268e+001  5.1590e+001 32944 99444,99888,100104
 3.7000e+000 100153 -6.3729e+001 -8.9063e+001  3.6317e+001 32944 99444,100104,99496
 3.7000e+000 100202 -7.5759e+001 -7.5421e+001  3.0436e+001 32944 99626,99960,100176
 3.7000e+000 100225 -7.7855e+001 -7.5701e+001  2.8467e+001 32944 99626,100176,100032
 3.7000e+000 100274 -8.3943e+001 -8.0701e+001  4.2549e+001 32944 99548,99960,100248
 3.7000e+000 100297 -6.6555e+001 -9.5837e+001  4.7547e+001 32944 99548,100248,99574
 3.7000e+000 100754  2.2340e+001 -2.5789e+001  5.3595e+000 32369 100777,100584,100506
 3.7000e+000 100731  2.9306e+000 -4.8740e+001  2.0815e+001 32369 100777,100506,100636
 3.7000e+000 100708 -1.8179e+001 -4.8269e+001  2.5127e+001 32369 100480,100636,100506
 3.7000e+000 100685 -8.8268e+001 -2.5648e+001  5.7639e-002 32369 100532,100584,100558
 3.7000e+000 100662 -8.5615e+000 -3.1546e+001  3.7613e+001 32369 100506,100584,100532
 3.7000e+000 100803  3.4543e-001  3.0312e+000 -4.2977e+000 32369 100610,100584,100777
 3.7000e+000 100826 -1.1550e+001 -1.7901e+001  8.2153e+000 32369 100610,100777,100636
 3.7000e+000 101025 -5.6542e+001 -7.3708e+001  6.3787e+001 31857 100875,100927,100901
 3.7000e+000 101002 -1.5587e+002 -8.6497e+000  7.8221e+001 31857 100875,100953,100927
 3.7000e+000 100979 -1.8406e+002 -3.3864e+001  3.2160e+001 31857 100849,100953,100875
 3.7000e+000 101533 -6.4631e+001 -1.1117e+002  7.0243e+001 31253 101556,101314,101236
 3.7000e+000 101510 -9.3995e+001 -1.1185e+002  6.6659e+001 31253 101556,101236,101210
 3.7000e+000 101487 -8.6986e+001 -1.1107e+002  3.0549e+001 31253 101210,101392,101340
 3.7000e+000 101464 -5.9643e+001 -1.1168e+002  4.6644e+001 31253 101236,101288,101262
 3.7000e+000 101441 -6.3110e+001 -1.4501e+002  6.4995e+001 31253 101236,101314,101288
 3.7000e+000 101418 -8.6469e+001 -1.4504e+002  6.1779e+001 31253 101340,101392,101366
 3.7000e+000 101582 -7.7251e+001 -1.1168e+002  4.8448e+001 31253 101340,101314,101556
 3.7000e+000 101605 -1.0550e+002 -1.0903e+002  4.6441e+001 31253 101340,101556,101210
 3.7000e+000 101755 -1.3194e+001 -3.8936e+001  2.9375e+001 30519 101778,101654,101628
 3.7000e+000 101732 -4.8418e+001 -7.5621e+001  4.8739e+001 30519 101850,101778,101628
 3.7000e+000 101804 -5.8056e+001 -5.0688e+000  1.9541e+001 30519 101680,101654,101778
 3.7000e+000 101827 -3.0807e+001 -5.5440e+001  2.0119e+001 30519 101680,101778,101706
 3.7000e+000 101876 -7.6032e+001 -1.2471e+002 -4.0727e+000 30519 101706,101778,101850
 3.7000e+000 102561 -2.4660e+001 -5.0985e+001  4.5264e+001 29951 102656,102584,102270
 3.7000e+000 102538 -1.3639e+002 -1.3877e+002  2.1797e+001 29951 102584,102140,102374
 3.7000e+000 102515 -6.6720e+001 -1.6876e+002  1.0113e+002 29951 102728,102656,102270
 3.7000e+000 102492 -6.0645e+001 -2.1029e+002  9.5294e+001 29951 102728,102270,102244
 3.7000e+000 102469 -9.2557e+001 -9.1605e+000  3.5710e+001 29951 102800,102322,102296
 3.7000e+000 102446 -8.8227e+001 -6.9458e+001  1.7339e+001 29951 102166,102218,102192
 3.7000e+000 102423 -7.5622e+001 -7.5337e+001  8.3823e+000 29951 102166,102244,102218
 3.7000e+000 102400 -4.3457e+001 -3.0680e+001  1.6114e+001 29951 102322,102374,102348
 3.7000e+000 102610 -1.1336e+002 -2.8903e+001  2.7098e+001 29951 102296,102270,102584
 3.7000e+000 102633 -1.1930e+002 -5.0943e+001  2.3992e+001 29951 102800,102296,102584
 3.7000e+000 102682 -1.7118e+002 -1.4110e+002  8.8824e+001 29951 102140,102584,102656
 3.7000e+000 102705 -9.1361e+001 -1.4759e+002  1.3296e+002 29951 102140,102656,102166
 3.7000e+000 102754 -5.4408e+001 -1.1867e+002  1.2028e+002 29951 102166,102656,102728
 3.7000e+000 102777 -5.6216e+001 -1.5876e+002  1.0551e+002 29951 102166,102728,102244
 3.7000e+000 102826 -6.7468e+001 -5.8483e+001  5.5224e+001 29951 102374,102322,102800
 3.7000e+000 102849 -7.6422e+001 -7.0722e+001  5.0869e+001 29951 102374,102800,102584
 3.7000e+000 103048 -3.4235e+001 -8.7527e+001  3.3044e+001 29454 102872,102924,102898
 3.7000e+000 103025 -5.9994e+001 -2.3855e+002  6.0663e+001 29454 102872,102976,102924
 3.7000e+000 103002 -4.1505e+001 -1.8694e+002  6.3844e+001 29454 102924,102976,102950
 3.7000e+000 103296 -1.9947e+002 -1.7383e+002  1.0442e+002 29064 103319,103175,103123
 3.7000e+000 103273 -2.5244e+002 -1.7239e+002  1.2142e+002 29064 103319,103123,103071
 3.7000e+000 103250 -1.2230e+002 -1.1293e+002  7.1914e+001 29064 103123,103175,103149
 3.7000e+000 103227 -1.9502e+002 -1.3416e+002  1.4508e+002 29064 103071,103123,103097
 3.7000e+000 103345 -1.5285e+002 -1.7880e+002  8.0504e+001 29064 103201,103175,103319
 3.7000e+000 103368 -2.1664e+002 -1.6254e+002  7.9534e+001 29064 103201,103319,103071
 3.7000e+000 104006 -9.0109e+001 -5.7633e+001  4.4804e+001 28603 104101,104029,103712
 3.7000e+000 103983 -8.2421e+001 -3.2680e+001  3.5356e+001 28603 104173,104029,103660
 3.7000e+000 103960 -1.1271e+002 -4.9126e+001  4.4497e+001 28603 104101,103712,103686
 3.7000e+000 103937 -6.4172e+001 -3.8559e+001  3.4241e+001 28603 104173,103660,103634
 3.7000e+000 103914 -9.6895e+001 -7.7837e+001  5.0646e+001 28603 103764,103816,103790
 3.7000e+000 103891 -5.3792e+001 -3.1667e+001  3.2980e+001 28603 103634,103842,103816
 3.7000e+000 103868 -7.2796e+001 -3.4926e+001  5.0031e+001 28603 103712,103764,103738
 3.7000e+000 104055 -8.5509e+001 -4.3500e+001  4.4701e+001 28603 103764,103712,104029
 3.7000e+000 104078 -8.9774e+001 -4.8151e+001  4.9855e+001 28603 103764,104029,103816
 3.7000e+000 104127 -1.2199e+002 -4.9966e+001  3.7643e+001 28603 103660,104029,104101
 3.7000e+000 104150 -1.5829e+002 -5.2025e+001  4.4501e+001 28603 103660,104101,103686
 3.7000e+000 104199 -9.6004e+001 -3.6710e+001  4.0760e+001 28603 103816,104029,104173
 3.7000e+000 104222 -8.1216e+001 -4.3394e+001  3.7664e+001 28603 103816,104173,103634
 3.7000e+000 104600 -6.5323e+001 -1.3944e+002  2.7348e+001 28348 104623,104378,104326
 3.7000e+000 104577 -5.3437e+001 -1.5287e+002  5.5105e+001 28348 104623,104326,104482
 3.7000e+000 104554 -7.5179e+001 -1.1164e+002  2.9848e+001 28348 104326,104378,104352
 3.7000e+000 104531 -4.8383e+001 -3.9620e-001  8.1540e+000 28348 104404,104456,104430
 3.7000e+000 104508 -6.7634e+001 -7.3118e+001  4.2400e+001 28348 104378,104456,104404
 3.7000e+000 104649 -5.2405e+001 -1.1193e+002  3.1586e+001 28348 104456,104378,104623
 3.7000e+000 104672 -3.7758e+001 -1.2135e+002  6.0472e+001 28348 104456,104623,104482
 3.7000e+000 104991 -1.1654e+002 -1.2419e+002  8.6769e+001 27951 104717,104847,104769
 3.7000e+000 104968 -3.4170e+001 -8.1243e+001  7.1249e+001 27951 104717,104873,104847
 3.7000e+000 104945 -4.2655e+001 -1.1328e+002  8.5134e+001 27951 104769,104847,104795
 3.7000e+000 104922 -4.4005e+000 -1.0796e+001  7.8916e+001 27951 104795,104847,104821
 3.7000e+000 104899 -8.8920e+001 -7.1480e+001  7.3212e+001 27951 104717,104769,104743
 3.7000e+000 105371 -1.6364e+002 -1.4395e+002  8.1763e+001 27447 105394,105201,105123
 3.7000e+000 105348 -1.9576e+002 -1.3509e+002  1.2027e+002 27447 105394,105123,105097
 3.7000e+000 105325 -2.7433e+002 -1.4618e+002  8.2202e+001 27447 105123,105201,105149
 3.7000e+000 105302 -1.4189e+002 -1.7025e+002  9.4341e+001 27447 105201,105253,105227
 3.7000e+000 105279 -1.5615e+002 -2.1874e+002 -1.4382e+000 27447 105149,105201,105175
 3.7000e+000 105420 -1.4571e+002 -1.1850e+002  7.2958e+001 27447 105253,105201,105394
 3.7000e+000 105443 -1.7037e+002 -9.2195e+001  1.0885e+002 27447 105253,105394,105097
 3.7000e+000 105998 -8.3247e+001 -8.5473e+001  7.0511e+001 27100 106165,106021,105704
 3.7000e+000 105975 -3.0383e+001 -4.2773e+001  6.0259e+001 27100 106309,106021,105652
 3.7000e+000 105952 -1.5380e+002 -1.3743e+002  1.2955e+002 27100 106093,105808,105782
 3.7000e+000 105929 -8.4093e+001 -8.8548e+001  7.0201e+001 27100 106165,105704,105678
 3.7000e+000 105906 -3.6745e+001 -1.1174e+002  5.2854e+001 27100 106237,105730,105704
 3.7000e+000 105883 -4.0636e+001 -7.0851e+001  4.2226e+001 27100 106309,105652,105626
 3.7000e+000 105860 -2.1786e+001 -3.3201e+000  8.8274e+000 27100 105730,105782,105756
 3.7000e+000 106047 -7.1582e+001 -6.8604e+001  7.6946e+001 27100 106237,105704,106021
 3.7000e+000 106070 -8.0644e+001 -7.1285e+001  9.8191e+001 27100 106093,105782,106021
 3.7000e+000 106119 -5.3234e+001 -1.0773e+002  6.2388e+001 27100 105834,105808,106093
 3.7000e+000 106142 -6.0586e+001 -1.3808e+002  8.3376e+001 27100 106381,106093,106021
 3.7000e+000 106191 -8.4369e+001 -7.9093e+001  7.6525e+001 27100 105652,106021,106165
 3.7000e+000 106214 -8.8783e+001 -8.9686e+001  7.7748e+001 27100 105652,106165,105678
 3.7000e+000 106263 -4.0574e+000 -6.1918e+001  3.8755e+001 27100 105782,105730,106237
 3.7000e+000 106286 -4.7018e+001 -3.0477e+001  6.6449e+001 27100 105782,106237,106021
 3.7000e+000 106335 -5.0750e+001 -8.5657e+001  6.6227e+001 27100 106381,106021,106309
 3.7000e+000 106358 -2.7885e+001 -3.9978e+001  3.2678e+001 27100 105834,106309,105626
 3.7000e+000 106407 -3.1244e+001 -7.4959e+001  4.9685e+001 27100 105834,106093,106381
 3.7000e+000 106430 -3.4523e+001 -6.1964e+001  2.9798e+001 27100 105834,106381,106309
 3.7000e+000 106629 -5.3682e+001 -1.9300e+002  4.1778e+001 26688 106479,106557,106531
 3.7000e+000 106606 -8.0471e+001 -1.9518e+002  3.4639e+001 26688 106453,106557,106479
 3.7000e+000 106583 -6.7652e+001 -1.7986e+002  4.5818e+000 26688 106479,106531,106505
 3.7000e+000 107088 -3.1951e+001 -4.5001e+001  1.1939e+001 26248 107111,106918,106866
 3.7000e+000 107065 -3.6948e+001 -4.1835e+001  1.7504e+001 26248 107111,106866,106840
 3.7000e+000 107042 -4.4885e+001 -3.0912e+001  1.7865e+001 26248 106814,106970,106840
 3.7000e+000 107019 -4.0151e+001 -6.8809e+001  1.0831e+001 26248 106866,106918,106892
 3.7000e+000 106996 -6.0558e+001 -5.3985e+001  1.0408e+001 26248 106918,106970,106944
 3.7000e+000 107137 -4.1164e+001 -5.0677e+001  8.9104e+000 26248 106970,106918,107111
 3.7000e+000 107160 -4.0903e+001 -4.3813e+001  1.5347e+001 26248 106970,107111,106840
 3.7000e+000 107666 -1.2434e+002 -5.3304e+001  5.7267e+001 25908 107369,107499,107395
 3.7000e+000 107643 -1.6268e+002 -1.6011e+002  9.3539e+001 25908 107369,107525,107499
 3.7000e+000 107620 -9.5434e+001 -6.5978e+001  5.3078e+001 25908 107395,107473,107447
 3.7000e+000 107597 -8.0586e+001 -3.6836e+001  4.1189e+001 25908 107395,107499,107473
 3.7000e+000 107574 -1.7900e+002 -1.0465e+002  1.3869e+002 25908 107395,107447,107421
 3.7000e+000 107551 -7.2447e+001 -1.2684e+002  7.4030e+001 25908 107343,107525,107369
 3.7000e+000 108251 -5.7216e+001 -3.1411e+001  4.3476e+001 25454 108274,108006,107954
 3.7000e+000 108228 -4.3578e+001 -1.6829e+001  3.2363e+001 25454 108274,107954,108110
 3.7000e+000 108205 -4.5524e+001 -6.0968e+001  4.9343e+001 25454 108346,108032,108006
 3.7000e+000 108182 -8.1784e+001 -5.3422e+001  5.9012e+001 25454 107954,108006,107980
 3.7000e+000 108159 -2.2413e+001 -3.4779e+001  2.8256e+001 25454 107928,108110,107954
 3.7000e+000 108136 -1.1015e+002 -1.2590e+002  7.2725e+001 25454 108058,108110,108084
 3.7000e+000 108300 -5.4388e+001 -4.9792e+001  5.0729e+001 25454 108346,108006,108274
 3.7000e+000 108323 -4.4171e+001 -2.8676e+001  4.3389e+001 25454 108058,108274,108110
 3.7000e+000 108372 -4.0493e+001 -4.4128e+001  4.4573e+001 25454 108058,108032,108346
 3.7000e+000 108395 -4.6672e+001 -2.8174e+001  4.7371e+001 25454 108058,108346,108274
 3.7000e+000 108822 -5.7132e+001 -4.2380e+001  3.2763e+001 24943 108525,108681,108655
 3.7000e+000 108799 -7.9078e+001 -4.8559e+001  1.0698e+001 24943 108499,108681,108525
 3.7000e+000 108776 -2.5149e+001 -2.9716e+001  1.6834e+001 24943 108525,108655,108629
 3.7000e+000 108753 -5.9861e+001 -1.8470e+001  1.2944e+001 24943 108525,108629,108603
 3.7000e+000 108730 -1.2794e+002 -4.4242e+001  4.2538e+001 24943 108551,108603,108577
 3.7000e+000 108707 -1.1840e+002 -6.8096e+001  5.6227e+001 24943 108525,108603,108551
 3.7000e+000 109407 -4.9985e+000 -3.3502e+001  4.3704e-001 24745 109162,109214,109188
 3.7000e+000 109384 -5.5059e+001 -2.9836e+001  1.0079e+001 24745 109162,109266,109214
 3.7000e+000 109361 -6.3590e+001 -3.7973e+001  4.1934e+000 24745 109084,109266,109162
 3.7000e+000 109338 -1.0167e+002 -1.8799e+001  2.1057e+001 24745 109084,109162,109136
 3.7000e+000 109315 -2.3713e+001 -5.1294e+001  1.2212e+001 24745 109214,109266,109240
 3.7000e+000 109292 -6.7044e+001 -2.2105e+001  3.9099e+001 24745 109084,109136,109110
 3.7000e+000 109785 -1.6374e+002 -7.5996e+001  1.0346e+002 24341 109537,109615,109563
 3.7000e+000 109762 -1.0923e+001 -2.5229e+001  8.4669e+001 24341 109537,109641,109615
 3.7000e+000 109739 -1.0507e+002 -8.0716e+001  7.0422e+001 24341 109563,109615,109589
 3.7000e+000 109716 -6.5323e+001 -5.3008e+001  5.9466e+001 24341 109537,109667,109641
 3.7000e+000 109693 -3.8479e+001 -7.1738e+001  4.8487e+001 24341 109511,109667,109537
 3.7000e+000 110163 -2.1019e+002 -1.3570e+002  1.1147e+002 23837 110186,109967,109915
 3.7000e+000 110140 -1.9457e+002 -1.4273e+002  1.2526e+002 23837 110186,109915,109889
 3.7000e+000 110117 -9.5547e+001 -5.8379e+001  9.7924e+001 23837 109889,110045,109993
 3.7000e+000 110094 -2.0393e+002 -1.5676e+002  9.6515e+001 23837 109915,109967,109941
 3.7000e+000 110071 -1.1909e+002 -7.7155e+000  2.4980e+001 23837 109993,110045,110019
 3.7000e+000 110212 -1.9894e+002 -1.2238e+002  1.1766e+002 23837 109993,109967,110186
 3.7000e+000 110235 -1.8957e+002 -1.2798e+002  1.3103e+002 23837 109993,110186,109889
 3.7000e+000 110336 -7.8396e+001 -1.8332e+002  7.9259e+001 23433 110258,110310,110284
 3.7000e+000 110584 -1.0881e+002 -8.0407e+001  4.9136e+001 22829 110607,110411,110385
 3.7000e+000 110561 -1.3077e+002 -9.2490e+001  6.9173e+001 22829 110607,110385,110489
 3.7000e+000 110538 -8.7694e+001 -8.5791e+001  4.3877e+001 22829 110437,110489,110463
 3.7000e+000 110515 -1.0694e+002 -6.0472e+001  7.9629e+001 22829 110359,110489,110385
 3.7000e+000 110633 -1.0702e+002 -5.9116e+001  3.2240e+001 22829 110437,110411,110607
 3.7000e+000 110656 -1.1972e+002 -7.3511e+001  5.1034e+001 22829 110437,110607,110489
 3.7000e+000 110906 -2.1976e+002 -9.3123e+001  7.7192e+001 22432 110707,110759,110733
 3.7000e+000 110883 -1.2093e+002 -1.0526e+002  6.0973e+001 22432 110707,110785,110759
 3.7000e+000 110860 -1.1961e+002 -9.8967e+001  8.3475e+001 22432 110707,110811,110785
 3.7000e+000 110837 -1.5685e+002 -1.1820e+002  6.3946e+001 22432 110681,110811,110707
 3.7000e+000 111288 -1.5904e+001 -4.2097e+001  3.5240e+001 22142 111092,111144,111118
 3.7000e+000 111265 -5.5068e+001 -3.3396e+001  2.4762e+001 22142 111066,111144,111092
 3.7000e+000 111242 -6.1825e+001 -4.6549e+001  2.9237e+001 22142 111040,111144,111066
 3.7000e+000 111219 -1.1981e+002 -1.2182e+001  2.0496e+001 22142 111014,111144,111040
 3.7000e+000 111196 -8.1969e+001 -1.0177e+001  3.6591e+001 22142 111014,111170,111144
 3.7000e+000 111389 -1.9956e+001 -4.6935e+001  7.9399e+001 21830 111311,111363,111337
 3.7000e+000 111735 -1.6692e+002 -2.3050e+001  1.1390e+002 21268 111758,111542,111438
 3.7000e+000 111712 -1.0561e+002 -6.0047e-001  7.4749e+001 21268 111758,111438,111412
 3.7000e+000 111689 -4.9231e+001 -1.0813e+002  1.3292e+002 21268 111438,111542,111464
 3.7000e+000 111666 -1.7540e+001 -9.4038e+001  1.8042e+002 21268 111464,111542,111490
 3.7000e+000 111643 -2.7198e+002 -1.3916e+002  1.5068e+002 21268 111412,111594,111568
 3.7000e+000 111620  6.3976e+001  3.2278e+001  2.3536e+002 21268 111490,111542,111516
 3.7000e+000 111784 -1.8682e+002 -3.3630e+001  1.2904e+002 21268 111568,111542,111758
 3.7000e+000 111807 -1.6578e+002 -7.3802e+001  1.0418e+002 21268 111568,111758,111412
 3.7000e+000 111959 -2.2160e+002 -2.4037e+001  6.0546e+001 20864 111982,111910,111884
 3.7000e+000 111936 -1.9365e+002 -5.5784e+001  8.5973e+001 20864 112114,111832,111910
 3.7000e+000 112008 -2.1842e+002 -7.6316e+001  7.7087e+001 20864 112114,111910,111982
 3.7000e+000 112140 -1.8402e+002 -8.4192e+001  6.2399e+001 20864 111858,111832,112114
 3.7000e+000 112163 -2.0795e+002 -1.0623e+002  5.3240e+001 20864 111858,112114,111982
 3.7000e+000 112411 -2.6825e+001 -5.4412e+000  1.0120e+001 20324 112186,112290,112212
 3.7000e+000 112388 -1.8455e+001 -5.1669e+000  1.3001e+001 20324 112186,112316,112290
 3.7000e+000 112365  3.7082e+001 -4.1929e+001  6.4764e+000 20324 112212,112290,112264
 3.7000e+000 112342 -2.1379e+002 -9.1647e+001 -5.4580e+000 20324 112212,112264,112238
 3.7000e+000 112659  3.9895e+000  2.4624e+000  6.6332e+001 19920 112512,112564,112538
 3.7000e+000 112636 -7.7789e+001 -2.8954e+001  3.7864e+001 19920 112434,112564,112512
 3.7000e+000 112613 -8.3428e+001 -5.9598e+001  4.5066e+001 19920 112434,112512,112460
 3.7000e+000 112590 -1.0033e+002 -6.3079e+001  5.0339e+001 19920 112460,112512,112486
 3.7000e+000 112811 -1.2824e+001 -5.3922e+000  2.4031e+001 19630 112684,112736,112710
 3.7000e+000 112788  2.2323e+001 -2.9888e+001  4.5851e+000 19630 112684,112762,112736
 3.7000e+000 113012 -7.2724e+001 -3.0313e+001  7.4815e+001 19169 112862,112940,112888
 3.7000e+000 112989 -1.3202e+002 -1.0567e+002  4.8221e+001 19169 112836,112940,112862
 3.7000e+000 112966 -5.7221e+001 -8.3027e+001  5.5401e+001 19169 112888,112940,112914
 3.7000e+000 113213 -1.1074e+002 -4.6809e+001  6.4658e+001 18600 113037,113089,113063
 3.7000e+000 113190 -5.9063e+001 -4.7474e+001  5.3947e+001 18600 113037,113115,113089
 3.7000e+000 113167 -1.1382e+002 -9.9325e+001  8.5267e+001 18600 113037,113141,113115
 3.7000e+000 113485 -7.1651e+001 -2.9915e+001  7.1626e+001 18352 113260,113312,113286
 3.7000e+000 113462 -1.4274e+002 -9.6355e+001  1.0006e+002 18352 113260,113390,113312
 3.7000e+000 113439 -1.3244e+002 -2.9429e+001  7.6645e+001 18352 113312,113390,113364
 3.7000e+000 113416 -4.1726e+001 -1.6821e+001  7.9300e+001 18352 113312,113364,113338
 3.7000e+000 113757 -1.0551e+002 -4.4343e+001  7.6291e+001 17834 113558,113610,113584
 3.7000e+000 113734 -1.5316e+002 -9.1862e+001  1.0067e+002 17834 113532,113610,113558
 3.7000e+000 113711 -1.5844e+002 -1.0836e+002  8.4314e+001 17834 113532,113662,113610
 3.7000e+000 113688 -8.3895e+001 -3.3920e+001  1.1478e+002 17834 113610,113662,113636
 3.7000e+000 113958 -1.0518e+002 -4.4553e+001  5.9376e+001 17330 113782,113834,113808
 3.7000e+000 113935 -3.9523e+001 -2.8259e+001  3.6340e+001 17330 113782,113886,113834
 3.7000e+000 113912 -5.3046e+001 -2.6663e+001  2.2636e+001 17330 113834,113886,113860
 3.7000e+000 114110 -1.6335e+002 -6.8291e+001  1.0525e+002 16874 113983,114035,114009
 3.7000e+000 114087 -6.0574e+001 -1.4149e+002  8.0633e+001 16874 113983,114061,114035
 3.7000e+000 114465 -1.9290e+002 -8.2306e+001  4.9055e+001 16270 114240,114292,114266
 3.7000e+000 114442 -1.9306e+002 -4.7875e+001  2.9165e+001 16270 114240,114370,114292
 3.7000e+000 114419 -1.0078e+002 -4.3091e+001  2.7891e+001 16270 114292,114344,114318
 3.7000e+000 114396 -2.2452e+002 -9.8532e+001  1.5803e+001 16270 114292,114370,114344
 3.7000e+000 114566 -2.0679e+000  2.0679e+000  1.3817e+002 15834 114488,114540,114514
 3.7000e+000 114667 -1.0969e+002 -4.6188e+001  7.2972e+001 15155 114589,114641,114615
 3.7000e+000 114890 -6.2532e+001 -2.4944e+001  9.7735e+001 421 114766,114818,114792
 3.7000e+000 114867 -1.1076e+002 -1.1070e+002  7.7394e+001 421 114714,114818,114766
 3.7000e+000 114844 -1.7042e+002 -7.2654e+001  4.6494e+001 421 114714,114766,114740
 3.8000e+000 66553 -3.2519e+001 -3.3172e+001 -3.2125e+001 66108 66354,66458,66432
 3.8000e+000 66530 -3.5157e+001 -1.4236e+001 -1.6005e+002 66108 66328,66458,66354
 3.8000e+000 66507 -4.1228e+001 -2.6685e+001 -2.7661e+001 66108 66354,66432,66406
 3.8000e+000 66484 -5.7411e+001 -2.4463e+001 -3.1117e+001 66108 66354,66406,66380
 3.8000e+000 66951 -6.7295e+001 -2.9053e+001 -9.9659e+000 65910 66703,66833,66807
 3.8000e+000 66928 -6.2062e+001 -2.0925e+001 -1.7141e+001 65910 66677,66833,66703
 3.8000e+000 66905 -1.8183e+002 -8.3942e+001 -5.4259e+001 65910 66729,66781,66755
 3.8000e+000 66882 -5.5804e+001 -2.3940e+001 -2.4336e+001 65910 66729,66807,66781
 3.8000e+000 66859 -7.1732e+001 -5.2138e+001 -1.6782e+001 65910 66703,66807,66729
 3.8000e+000 67150 -6.3833e+001 -2.7766e+001 -7.7016e+000 65712 67026,67078,67052
 3.8000e+000 67127 -3.4793e+001 -6.8951e+000 -1.7805e+001 65712 66974,67078,67026
 3.8000e+000 67104 -5.5567e+001 -3.3922e+001 -1.4495e+001 65712 66974,67026,67000
 3.8000e+000 67481 -5.0649e+001 -2.4499e+000  1.4996e+001 65422 67282,67360,67334
 3.8000e+000 67458 -2.2076e+001 -9.2909e+000  2.1843e+001 65422 67282,67386,67360
 3.8000e+000 67435 -1.8215e+001  6.0454e+000  1.6421e+001 65422 67282,67334,67308
 3.8000e+000 67412  5.0490e+000  1.3661e+000  3.2934e+000 65422 67256,67386,67282
 3.8000e+000 68115 -9.2835e+001 -2.3999e+001 -6.3137e-002 65018 67795,67925,67873
 3.8000e+000 68092 -1.0298e+002 -3.0391e+001  3.0044e+001 65018 67769,67925,67795
 3.8000e+000 68069 -5.6282e+001 -8.2225e+000  1.2930e+001 65018 67873,67925,67899
 3.8000e+000 68046 -1.1261e+002 -7.1148e+001  4.4940e+001 65018 67769,67951,67925
 3.8000e+000 68023 -1.0365e+002 -3.4657e+001  5.1581e+000 65018 67795,67873,67821
 3.8000e+000 68000 -1.0257e+002 -1.8596e+001 -1.0066e+001 65018 67821,67873,67847
 3.8000e+000 67977 -1.6726e+002 -1.6806e+002 -2.1917e+001 65018 67743,67951,67769
 3.8000e+000 68363 -6.8958e+001 -1.6065e+002  4.8109e+001 64820 68190,68242,68216
 3.8000e+000 68340 -1.1696e+002 -9.4340e+001  5.1566e+001 64820 68190,68268,68242
 3.8000e+000 68317 -5.0307e+001 -6.3637e+001  7.0038e+001 64820 68164,68268,68190
 3.8000e+000 68294 -1.7920e+002 -7.7126e+001  3.4676e+001 64820 68138,68268,68164
 3.8000e+000 68513 -1.0273e+002 -7.1450e+001 -5.9847e+000 64366 68868,68536,68438
 3.8000e+000 68490 -8.9295e+001 -5.4408e+001 -2.0016e+001 64366 68536,68412,68386
 3.8000e+000 68562 -6.2598e+001 -6.5850e+001  6.4885e+000 64366 68740,68536,68464
 3.8000e+000 68585 -8.7970e+001 -1.2457e+002 -1.9815e+001 64366 68608,68536,68386
 3.8000e+000 68634 -6.4749e+001 -8.5727e+001 -8.5685e+000 64366 68464,68536,68608
 3.8000e+000 68766 -1.0021e+002 -5.7294e+001 -7.0088e-001 64366 68438,68536,68740
 3.8000e+000 68894 -7.9764e+001 -4.8675e+001  3.8421e+000 64366 68412,68536,68868
 3.8000e+000 69172 -1.2879e+002 -4.5497e+001 -1.9715e+001 64168 69022,69074,69048
 3.8000e+000 69149 -1.4129e+002 -6.1070e+001 -1.3782e+001 64168 68996,69074,69022
 3.8000e+000 69126 -1.6237e+002 -1.2349e+002  1.8295e+001 64168 68996,69100,69074
 3.8000e+000 69371 -7.0820e+001 -6.8987e+001 -6.2426e+000 63970 69466,69394,69273
 3.8000e+000 69348 -6.9207e+001 -2.8022e+001 -2.3278e+001 63970 69394,69247,69221
 3.8000e+000 69325 -3.3746e+001 -1.4093e+001 -5.3359e+001 63970 69195,69299,69221
 3.8000e+000 69420 -2.5693e+001 -4.3861e+001 -2.7902e+001 63970 69299,69273,69394
 3.8000e+000 69443 -7.4530e+001 -6.4867e+001 -3.1168e+001 63970 69299,69394,69221
 3.8000e+000 69492 -7.1094e+001 -2.9745e+001 -1.1106e+001 63970 69247,69394,69466
 3.8000e+000 69904 -5.1889e+001 -7.1380e+001  9.5005e+000 63680 69705,69783,69731
 3.8000e+000 69881 -5.6131e+001 -8.4727e+001  1.8912e+001 63680 69679,69783,69705
 3.8000e+000 69858 -7.0962e+001 -5.3503e+001  1.3837e+001 63680 69679,69809,69783
 3.8000e+000 69835 -7.3462e+001 -1.1071e+002 -5.0112e+000 63680 69731,69783,69757
 3.8000e+000 70054 -6.0264e+001 -4.1314e+001 -1.9868e+001 63476 70077,69953,69927
 3.8000e+000 70031 -7.3578e+001 -3.5065e+001 -1.5606e+001 63476 70077,69927,70005
 3.8000e+000 70103 -5.4191e+001 -3.5406e+001 -2.2461e+001 63476 69979,69953,70077
 3.8000e+000 70126 -6.6116e+001 -2.8288e+001 -1.8895e+001 63476 69979,70077,70005
 3.8000e+000 70325 -1.4789e+002 -1.0068e+002 -1.3918e+001 63278 70149,70227,70175
 3.8000e+000 70302 -1.4138e+002 -6.2369e+001  3.8101e+001 63278 70149,70253,70227
 3.8000e+000 70279 -1.5400e+002 -2.3979e+002  2.5356e+001 63278 70175,70227,70201
 3.8000e+000 70597 -8.6562e+001 -8.2962e+001 -3.7923e+001 63080 70372,70476,70424
 3.8000e+000 70574 -7.4952e+001 -3.2128e+001 -2.8992e+001 63080 70372,70502,70476
 3.8000e+000 70551 -5.7751e+001 -2.4485e+001 -4.6936e+001 63080 70424,70476,70450
 3.8000e+000 70528 -8.3564e+001 -8.2759e+001 -3.6937e+001 63080 70372,70424,70398
 3.8000e+000 70847 -7.6362e+001 -8.7467e+001 -3.5676e+000 62740 70870,70648,70622
 3.8000e+000 70824 -4.6843e+001 -1.1778e+002 -2.0311e+001 62740 70870,70622,70752
 3.8000e+000 70801 -6.7897e+001 -7.2607e+001  1.9057e+001 62740 70648,70726,70700
 3.8000e+000 70778 -4.3925e+001 -5.6073e+001  3.8489e+000 62740 70648,70700,70674
 3.8000e+000 70896 -4.7331e+001 -5.8643e+001  1.2339e+001 62740 70726,70648,70870
 3.8000e+000 70919 -3.9411e+001 -1.0164e+002 -1.0202e+001 62740 70726,70870,70752
 3.8000e+000 71022 -9.1676e-001  9.1676e-001  9.2027e+001 62520 70944,70996,70970
 3.8000e+000 71223 -1.3928e+002 -1.6492e+002  7.7128e+001 62230 71073,71151,71099
 3.8000e+000 71200 -1.1122e+002 -1.6356e+002  6.0060e+001 62230 71047,71151,71073
 3.8000e+000 71177 -1.1163e+002 -2.7173e+002  3.1465e+001 62230 71099,71151,71125
 3.8000e+000 71861 -5.0047e+001  2.3689e+000  1.4471e+000 61712 71515,71697,71671
 3.8000e+000 71838 -5.2244e+001 -2.6707e+000  4.4520e+000 61712 71489,71697,71515
 3.8000e+000 71815 -1.0281e+002 -1.7545e+001  2.0581e+001 61712 71884,71541,71515
 3.8000e+000 71792 -5.2475e+001  8.7721e+000  9.1750e+000 61712 71884,71515,71671
 3.8000e+000 71769 -3.1749e+001 -5.0762e+001  1.2865e+001 61712 71541,71619,71593
 3.8000e+000 71746 -8.0506e+000 -1.1886e+001  2.2768e+001 61712 71619,71671,71645
 3.8000e+000 71723 -4.9618e+001 -6.3038e+001  1.8017e+001 61712 71541,71593,71567
 3.8000e+000 71910 -5.4327e+001 -4.4498e+001  3.5309e+001 61712 71619,71541,71884
 3.8000e+000 71933 -1.7848e+001 -2.8076e+001  2.8511e+001 61712 71619,71884,71671
 3.8000e+000 72230 -1.5596e+002 -1.6486e+002  3.1112e+001 61208 72253,72060,72008
 3.8000e+000 72207 -1.7347e+002 -1.4084e+002  1.3477e+001 61208 72253,72008,71982
 3.8000e+000 72184 -1.0553e+002 -9.6979e+001  2.8848e+001 61208 71982,72112,72086
 3.8000e+000 72161 -2.0171e+002 -1.7285e+002  4.2420e+001 61208 72008,72060,72034
 3.8000e+000 72138 -9.8034e+001 -7.7819e+001  3.1834e+001 61208 71956,72112,71982
 3.8000e+000 72279 -1.2668e+002 -1.4750e+002  2.3841e+001 61208 72086,72060,72253
 3.8000e+000 72302 -1.5550e+002 -1.3167e+002  1.0352e+001 61208 72086,72253,71982
 3.8000e+000 72761 -3.7540e+001 -6.2246e+001 -3.1130e+000 60804 72487,72617,72513
 3.8000e+000 72738 -4.2536e+001 -6.7944e+001 -9.0540e-001 60804 72487,72643,72617
 3.8000e+000 72715 -9.5467e+000 -1.1888e+002  5.9968e+000 60804 72565,72617,72591
 3.8000e+000 72692 -6.3195e+001 -8.6120e+001  1.3162e+001 60804 72513,72617,72565
 3.8000e+000 72669 -4.9174e+001 -5.9806e+001 -4.8090e+000 60804 72513,72565,72539
 3.8000e+000 72911 -9.1676e-001  9.1676e-001  9.2027e+001 60556 72784,72836,72810
 3.8000e+000 72888  8.8028e+001  2.8129e+001  4.6917e+001 60556 72784,72862,72836
 3.8000e+000 73468 -3.5104e+001 -4.5886e+001  1.7495e+001 60244 73491,73226,73200
 3.8000e+000 73445 -4.3844e+001 -5.9986e+001  2.2590e+001 60244 73563,73491,73200
 3.8000e+000 73422 -7.7885e+001 -5.5425e+001  2.8419e+001 60244 73563,73200,73174
 3.8000e+000 73399 -1.5460e+001 -6.8967e+001  1.6007e+001 60244 73226,73278,73252
 3.8000e+000 73376 -7.6429e+001 -3.7952e+001  1.6838e+001 60244 73122,73304,73278
 3.8000e+000 73353 -1.0767e+002 -3.4929e+001 -5.5925e+000 60244 73096,73304,73122
 3.8000e+000 73330 -1.3349e+002 -5.5333e+001  3.5488e+001 60244 73122,73174,73148
 3.8000e+000 73517 -5.5195e+001 -5.8206e+001  2.7200e+001 60244 73278,73226,73491
 3.8000e+000 73540 -5.2191e+001 -3.5554e+001  1.4846e+001 60244 73278,73491,73122
 3.8000e+000 73589 -9.9521e+001 -6.0039e+001  2.3550e+001 60244 73122,73491,73563
 3.8000e+000 73612 -1.3150e+002 -5.4715e+001  3.1384e+001 60244 73122,73563,73174
 3.8000e+000 73762 -1.1795e+001 -3.2775e+001  3.2938e+001 59875 73661,73713,73687
 3.8000e+000 73739 -3.6239e+001 -2.3047e+001  2.7513e+001 59875 73635,73713,73661
 3.8000e+000 74191 -1.0488e+002 -2.4420e+002  3.6609e+001 59478 74214,73894,73868
 3.8000e+000 74168 -1.3131e+002 -2.2566e+002  3.8139e+001 59478 74214,73868,74050
 3.8000e+000 74145 -1.5013e+002 -1.9864e+002  2.9651e+001 59478 73894,73946,73920
 3.8000e+000 74122 -1.1974e+002 -2.4463e+002  2.7132e+001 59478 73894,73998,73946
 3.8000e+000 74099 -1.9568e+002 -2.1244e+002  8.8720e+001 59478 73998,74050,74024
 3.8000e+000 74076 -1.6079e+002 -2.5352e+002  1.9727e+000 59478 73946,73998,73972
 3.8000e+000 74240 -1.2615e+002 -2.4620e+002  2.8578e+001 59478 73998,73894,74214
 3.8000e+000 74263 -1.5648e+002 -2.3471e+002  2.5501e+001 59478 73998,74214,74050
 3.8000e+000 74720 -6.9461e+001 -6.1843e+001  3.6606e+000 58774 74472,74602,74498
 3.8000e+000 74697 -6.2808e+001 -6.6311e+001 -2.5527e-001 58774 74446,74602,74472
 3.8000e+000 74674 -8.8455e+001 -4.6617e+001  2.6069e+001 58774 74498,74576,74524
 3.8000e+000 74651 -6.2827e+001 -5.9473e+001  7.5758e+000 58774 74498,74602,74576
 3.8000e+000 74628 -7.6556e+001 -2.5739e+001  3.1196e+001 58774 74524,74576,74550
 3.8000e+000 75226 -5.6273e+001 -1.1379e+002  2.2905e+001 58270 74955,75085,75033
 3.8000e+000 75203 -4.4858e+001 -8.2289e+001  2.8021e+001 58270 74929,75085,74955
 3.8000e+000 75180 -7.7855e+001 -1.0627e+002  4.5206e+001 58270 75033,75085,75059
 3.8000e+000 75157 -5.8942e+001 -1.6721e+002  3.1329e+001 58270 74955,75007,74981
 3.8000e+000 75134 -4.7430e+001 -1.0883e+002  1.2692e+001 58270 74955,75033,75007
 3.8000e+000 75111 -1.2138e+001 -7.2046e+001  2.8038e+001 58270 74903,75085,74929
 3.8000e+000 75425 -7.5764e+001 -1.1645e+002  2.0144e+001 57830 75448,75301,75249
 3.8000e+000 75402 -4.1711e+001 -8.0930e+001  5.3000e+000 57830 75448,75249,75353
 3.8000e+000 75379 -7.8791e+001 -2.2648e+002  7.7444e-001 57830 75520,75301,75275
 3.8000e+000 75474 -6.2351e+001 -1.4397e+002  4.9015e+001 57830 75327,75301,75448
 3.8000e+000 75497 -3.6838e+001 -1.2286e+002  3.6710e+001 57830 75327,75448,75353
 3.8000e+000 75546 -4.9114e+001 -1.3137e+002 -1.6762e+001 57830 75249,75301,75520
 3.8000e+000 76261 -4.9320e+001 -6.6155e+001  2.2112e+001 57426 76284,76097,76071
 3.8000e+000 76238 -5.6349e+001 -2.9141e+001  2.8876e+001 57426 75889,76097,75915
 3.8000e+000 76215 -4.6504e+001 -6.0681e+001  2.8092e+001 57426 76428,76284,76071
 3.8000e+000 76192 -4.6534e+001 -5.9229e+001  1.9610e+001 57426 76356,75941,75915
 3.8000e+000 76169 -4.1484e+001 -5.6805e+001  3.0525e+001 57426 76428,76071,76019
 3.8000e+000 76146 -5.0270e+001 -7.4938e+001  3.3305e+001 57426 76019,76071,76045
 3.8000e+000 76123 -6.1768e+001 -6.5108e+001  5.6581e+001 57426 75967,76019,75993
 3.8000e+000 76310 -4.5124e+001 -5.5800e+001  2.0416e+001 57426 75915,76097,76284
 3.8000e+000 76333 -5.1109e+001 -5.9120e+001  2.1753e+001 57426 76356,75915,76284
 3.8000e+000 76382 -5.6036e+001 -6.0802e+001  2.0072e+001 57426 75967,75941,76356
 3.8000e+000 76405 -5.8161e+001 -5.8862e+001  2.2244e+001 57426 75967,76356,76284
 3.8000e+000 76454 -5.4386e+001 -5.4357e+001  2.8830e+001 57426 75967,76284,76428
 3.8000e+000 76477 -4.7935e+001 -5.0381e+001  3.0849e+001 57426 75967,76428,76019
 3.8000e+000 76953 -6.9377e+001 -6.7407e+001  2.9222e+001 56908 76976,76711,76685
 3.8000e+000 76930 -6.5470e+001 -6.6556e+001  4.2515e+001 56908 77048,76976,76685
 3.8000e+000 76907 -9.5300e+001 -7.0525e+001  5.7406e+001 56908 77048,76685,76633
 3.8000e+000 76884 -1.2007e+002 -6.7099e+001  2.1151e+001 56908 76711,76789,76763
 3.8000e+000 76861 -9.2064e+001 -3.9515e+001  7.6779e+000 56908 76581,76789,76607
 3.8000e+000 76838 -9.5507e+001 -1.4364e+001  3.0933e+001 56908 76711,76763,76737
 3.8000e+000 76815 -2.2574e+002 -1.7318e+002  1.2265e+002 56908 76633,76685,76659
 3.8000e+000 77002 -1.0683e+002 -7.7916e+001  1.6797e+001 56908 76789,76711,76976
 3.8000e+000 77025 -8.2762e+001 -2.1501e+001  2.2664e+001 56908 76789,76976,76607
 3.8000e+000 77074 -1.1069e+002 -6.7466e+001  4.3047e+001 56908 76607,76976,77048
 3.8000e+000 77097 -1.2508e+002 -5.7998e+001  5.6486e+001 56908 76607,77048,76633
 3.8000e+000 77475 -2.2448e+001 -1.0909e+001  9.2478e+000 56546 77570,77498,77279
 3.8000e+000 77452 -7.2533e+000 -3.1164e+001  2.1947e+001 56546 77498,77227,77357
 3.8000e+000 77429 -2.6641e+001 -1.8633e+001  1.2108e+001 56546 77570,77279,77253
 3.8000e+000 77406 -3.2365e+001 -4.4884e+001  3.0676e+001 56546 77201,77357,77227
 3.8000e+000 77383 -5.9255e+000  5.5734e+000 -6.9102e+000 56546 77279,77331,77305
 3.8000e+000 77524 -1.5734e+001  2.3552e+001  9.1184e+000 56546 77331,77279,77498
 3.8000e+000 77547 -1.6369e+000 -7.8154e+000  3.1584e+001 56546 77331,77498,77357
 3.8000e+000 77596 -1.9007e+001 -1.2173e+001  2.4256e+001 56546 77227,77498,77570
 3.8000e+000 77619 -2.9214e+001 -3.6238e+001  2.6087e+001 56546 77227,77570,77253
 3.8000e+000 77818 -1.8853e+001 -1.3369e+001  1.9578e+001 56042 77841,77694,77668
 3.8000e+000 77795 -3.3272e+001 -2.0151e+001  2.1803e+001 56042 77841,77668,77746
 3.8000e+000 77772 -4.0208e+001 -1.4341e+001  1.9266e+001 56042 77642,77746,77668
 3.8000e+000 77867 -1.4175e+001 -1.1554e+001  8.5502e+000 56042 77720,77694,77841
 3.8000e+000 77890 -3.0263e+001 -1.9159e+001  1.0951e+001 56042 77720,77841,77746
 3.8000e+000 78349 -1.2996e+002 -1.5867e+002  2.2481e+001 55538 78075,78127,78101
 3.8000e+000 78326 -1.2237e+002 -1.4265e+002  2.4594e+001 55538 78075,78205,78127
 3.8000e+000 78303 -1.9018e+002 -9.4441e+001  5.7588e+001 55538 78075,78231,78205
 3.8000e+000 78280 -7.2811e+001 -1.8788e+002  6.8476e+001 55538 78127,78179,78153
 3.8000e+000 78257 -1.0614e+002 -1.4553e+002  2.0947e+001 55538 78127,78205,78179
 3.8000e+000 78806 -7.5306e+001 -3.9554e+001  2.0407e+001 55034 78829,78636,78610
 3.8000e+000 78783 -7.1361e+001 -4.5042e+001  1.8600e+001 55034 78901,78829,78610
 3.8000e+000 78760 -5.9106e+001 -5.0434e+001  2.3078e+001 55034 78901,78610,78584
 3.8000e+000 78737 -5.3719e+001 -3.4664e+001  2.7194e+001 55034 78558,78688,78662
 3.8000e+000 78714 -4.3378e+001 -1.3137e+001  1.6393e+001 55034 78532,78688,78558
 3.8000e+000 78855 -6.8381e+001 -3.8921e+001  2.1131e+001 55034 78662,78636,78829
 3.8000e+000 78878 -6.9003e+001 -3.8508e+001  2.2815e+001 55034 78662,78829,78558
 3.8000e+000 78927 -6.0506e+001 -3.4089e+001  2.6310e+001 55034 78558,78829,78901
 3.8000e+000 78950 -5.4780e+001 -4.0540e+001  3.1286e+001 55034 78558,78901,78584
 3.8000e+000 79407 -1.9967e+001 -5.1498e+001  3.7410e+001 54430 79430,79237,79159
 3.8000e+000 79384 -2.2390e+001 -5.6149e+001  3.3458e+001 54430 79430,79159,79133
 3.8000e+000 79361 -4.0399e+001 -3.5208e+001  1.4537e+001 54430 79237,79289,79263
 3.8000e+000 79338 -3.9484e-001 -6.8622e+001  2.5041e-001 54430 79185,79237,79211
 3.8000e+000 79315 -9.0037e+001 -7.8924e+001  5.3427e+001 54430 79159,79237,79185
 3.8000e+000 79456 -1.9949e+001 -5.6653e+001  3.4337e+001 54430 79289,79237,79430
 3.8000e+000 79479 -2.1263e+001 -6.2338e+001  3.1208e+001 54430 79289,79430,79133
 3.8000e+000 79936 -4.2643e+001 -7.3070e+001  3.7998e+001 53919 79662,79766,79688
 3.8000e+000 79913 -1.1573e+002 -1.1647e+002  6.6379e+001 53919 79662,79818,79766
 3.8000e+000 79890 -9.4194e+001 -1.1647e+002  9.7361e+001 53919 79766,79818,79792
 3.8000e+000 79867 -8.3507e+001 -1.1504e+002  3.0105e+001 53919 79714,79766,79740
 3.8000e+000 79844 -1.0147e+002 -1.0095e+002  4.6039e+001 53919 79688,79766,79714
 3.8000e+000 80037 -8.9115e+001 -2.1033e+002  2.9978e+001 53671 79959,80011,79985
 3.8000e+000 80405 -6.9841e+001 -1.8911e+002  4.1747e+001 53267 80108,80264,80238
 3.8000e+000 80382 -1.5763e+002 -2.2033e+002  3.0052e+001 53267 80082,80264,80108
 3.8000e+000 80359 -7.5735e+001 -1.7885e+002  3.3436e+001 53267 80108,80238,80134
 3.8000e+000 80336 -2.5020e+001 -8.6696e+001  2.9160e+001 53267 80134,80212,80186
 3.8000e+000 80313 -8.1385e+001 -1.5410e+002  6.9663e+001 53267 80134,80238,80212
 3.8000e+000 80290 -2.9309e+001 -6.9390e+001  4.4951e+001 53267 80134,80186,80160
 3.8000e+000 80915 -1.0755e+002 -2.1023e+002  3.5003e+001 52969 80644,80774,80748
 3.8000e+000 80892 -1.1894e+002 -1.9115e+002  2.0860e+001 52969 80618,80774,80644
 3.8000e+000 80869 -1.5379e+002 -2.8835e+002 -1.0824e+001 52969 80644,80748,80670
 3.8000e+000 80846 -1.1687e+002 -2.0029e+002  1.0709e+001 52969 80592,80774,80618
 3.8000e+000 80823 -1.6401e+002 -1.9121e+002  1.2617e+001 52969 80670,80722,80696
 3.8000e+000 80800 -1.1661e+002 -1.6946e+002 -7.7304e+000 52969 80670,80748,80722
 3.8000e+000 81266  2.2998e+000  8.7924e-001 -1.6088e-001 52565 81041,81145,81067
 3.8000e+000 81243  3.1985e+000  1.2502e+000 -7.1741e-001 52565 81041,81171,81145
 3.8000e+000 81220  1.8192e+000  3.4425e-001  7.3559e-001 52565 81067,81119,81093
 3.8000e+000 81197  2.8878e+000  6.8855e-001  1.6689e-001 52565 81067,81145,81119
 3.8000e+000 81723 -9.3429e+000  3.2836e+000  8.1475e-001 51904 81449,81527,81475
 3.8000e+000 81700 -8.9943e+000  3.0655e-003 -1.8398e+000 51904 81449,81579,81527
 3.8000e+000 81677 -1.2181e+001 -1.3541e+000 -1.3141e+000 51904 81449,81605,81579
 3.8000e+000 81654 -1.2466e+001  1.7331e-001 -2.0168e+000 51904 81527,81579,81553
 3.8000e+000 81631  5.5310e+000  5.9413e+000  1.6208e+000 51904 81475,81527,81501
 3.8000e+000 82327 -6.1325e+001 -5.6733e+001  3.7605e+001 51321 82422,82350,82036
 3.8000e+000 82304 -7.1855e+001 -3.1636e+001  4.9322e+001 51321 82494,82350,81958
 3.8000e+000 82281 -6.5249e+001 -6.1489e+001  3.2485e+001 51321 82422,82036,82010
 3.8000e+000 82258 -8.4079e+001 -3.9145e+001  5.3912e+001 51321 82494,81958,81932
 3.8000e+000 82235 -7.4812e+001 -2.2470e+001  1.6368e+001 51321 82062,82114,82088
 3.8000e+000 82212 -1.7779e+002 -1.0369e+002  7.8104e+001 51321 81932,82140,82114
 3.8000e+000 82189 -5.3539e+001 -1.7920e+001  4.1494e+001 51321 81958,82010,81984
 3.8000e+000 82166 -3.7558e+001 -4.8445e+001  7.5054e+000 51321 81906,82140,81932
 3.8000e+000 82376 -6.5919e+001 -7.2899e+001  3.4887e+001 51321 82062,82036,82350
 3.8000e+000 82399 -6.8465e+001 -4.2518e+001  3.2479e+001 51321 82062,82350,82114
 3.8000e+000 82448 -5.4939e+001 -5.1266e+001  4.3763e+001 51321 81958,82350,82422
 3.8000e+000 82471 -5.7948e+001 -5.5455e+001  3.8750e+001 51321 81958,82422,82010
 3.8000e+000 82520 -7.4732e+001 -2.8604e+001  4.2751e+001 51321 82114,82350,82494
 3.8000e+000 82543 -7.5772e+001 -3.0173e+001  4.6008e+001 51321 82114,82494,81932
 3.8000e+000 83019 -8.9712e+001 -1.0227e+002  1.4730e+001 50817 82673,82751,82699
 3.8000e+000 82996 -8.8493e+001 -7.7506e+001  3.9252e+001 50817 83042,82673,82855
 3.8000e+000 82973 -8.1029e+001 -1.0087e+002  4.0968e+001 50817 83042,82855,82803
 3.8000e+000 82950 -1.2264e+002 -1.2582e+002  6.7609e+001 50817 82751,82803,82777
 3.8000e+000 82927 -7.7993e+001 -9.1239e+001  2.0114e+001 50817 82647,82855,82673
 3.8000e+000 82904 -1.3931e+002 -1.4464e+002  8.9649e+001 50817 82803,82855,82829
 3.8000e+000 82881 -9.2047e+001 -9.1856e+001  2.2481e+001 50817 82699,82751,82725
 3.8000e+000 83068 -9.5676e+001 -9.6178e+001  5.0857e+001 50817 82751,82673,83042
 3.8000e+000 83091 -8.1436e+001 -1.1498e+002  4.9551e+001 50817 82751,83042,82803
 3.8000e+000 83290 -5.1621e+001 -4.9794e+000  3.0861e+001 50356 83313,83166,83140
 3.8000e+000 83267 -4.4315e+001 -2.7825e+001  2.4300e+001 50356 83515,83313,83140
 3.8000e+000 83244 -4.8894e+001 -1.0304e+001  1.2491e+001 50356 83515,83140,83385
 3.8000e+000 83339 -6.8301e+001 -1.9317e+001  4.1378e+001 50356 83192,83166,83313
 3.8000e+000 83362 -3.9795e+001 -2.6491e+001  2.3039e+001 50356 83192,83313,83218
 3.8000e+000 83411 -7.2263e+000 -7.0513e+000  6.4672e+000 50356 83114,83218,83385
 3.8000e+000 83541 -2.3943e+001 -4.6610e+000  1.1890e+001 50356 83218,83313,83515
 3.8000e+000 83564 -2.7583e+001  5.2066e+000 -3.6579e-001 50356 83218,83515,83385
 3.8000e+000 83893 -1.3046e+002 -1.3421e+002  1.3463e+001 49552 83720,83798,83746
 3.8000e+000 83870 -7.3546e+001 -5.4719e+001  4.5136e+001 49552 83694,83798,83720
 3.8000e+000 83847 -6.4134e+001 -4.7914e+001  4.8233e+001 49552 83668,83798,83694
 3.8000e+000 83824 -1.5694e+002 -1.4262e+002  1.6900e+001 49552 83746,83798,83772
 3.8000e+000 84141 -6.8843e+001 -2.6396e+001 -1.5745e+000 49212 84164,84020,83942
 3.8000e+000 84118 -5.8003e+001  1.5893e+000  2.2791e+001 49212 84164,83942,83916
 3.8000e+000 84095 -5.7004e+001 -4.0096e+001 -1.2281e+001 49212 83942,84020,83968
 3.8000e+000 84072 -1.6877e+001 -1.9195e+000  1.2031e+001 49212 83968,84020,83994
 3.8000e+000 84190 -9.2143e+001 -2.3044e+001 -1.8905e+001 49212 84046,84020,84164
 3.8000e+000 84213 -7.6909e+001 -4.4750e+000  4.2250e+000 49212 84046,84164,83916
 3.8000e+000 84800 -1.9740e+000  8.3746e-001  5.6041e+000 48865 84503,84633,84555
 3.8000e+000 84777  7.4483e+000  1.0786e+001  9.5210e+000 48865 84503,84659,84633
 3.8000e+000 84754 -2.1385e-001  4.1594e+000  4.0946e+000 48865 84555,84633,84581
 3.8000e+000 84731  3.5269e+000  7.3780e+000  1.6590e+000 48865 84581,84633,84607
 3.8000e+000 84708  7.6554e+000  5.5568e+000  4.1865e+000 48865 84503,84555,84529
 3.8000e+000 84685  2.9075e+000 -4.0602e-001  8.2664e+000 48865 84477,84659,84503
 3.8000e+000 85355 -5.2871e+001 -1.3081e+002  3.7129e+001 48461 85378,85035,85009
 3.8000e+000 85332 -6.6589e+001 -1.1373e+002  4.4732e+001 48461 85378,85009,85165
 3.8000e+000 85309 -6.2675e+001 -1.4388e+002  3.6127e+001 48461 85450,85061,85035
 3.8000e+000 85286 -7.5178e+001 -9.4212e+001  1.3765e+001 48461 85009,85191,85165
 3.8000e+000 85263 -6.8463e+001 -1.4778e+002  4.9618e+001 48461 85087,85165,85113
 3.8000e+000 85240 -4.4825e+001 -1.2409e+002 -2.5910e+001 48461 84983,85191,85009
 3.8000e+000 85217 -8.0061e+001 -1.8523e+002  4.6366e+001 48461 85113,85165,85139
 3.8000e+000 85404 -6.2620e+001 -1.3373e+002  3.1933e+001 48461 85450,85035,85378
 3.8000e+000 85427 -7.1809e+001 -1.2863e+002  3.4785e+001 48461 85087,85378,85165
 3.8000e+000 85476 -6.2987e+001 -1.5763e+002  3.9570e+001 48461 85087,85061,85450
 3.8000e+000 85499 -6.4468e+001 -1.5110e+002  3.4452e+001 48461 85087,85450,85378
 3.8000e+000 86084 -1.2294e+001 -8.2471e+001  4.2528e+001 48057 86323,86107,85787
 3.8000e+000 86061 -4.5252e+001 -1.0552e+002  4.5460e+001 48057 86107,85761,85943
 3.8000e+000 86038 -5.7591e+001 -7.6806e+001  3.2227e+001 48057 86251,86179,85891
 3.8000e+000 86015 -5.8336e+001 -6.4653e+001  2.0506e+001 48057 86251,85891,85839
 3.8000e+000 85992 -5.6466e+001 -6.5427e+001  2.8991e+001 48057 85891,85943,85917
 3.8000e+000 85969 -8.6380e+001 -6.5262e+001  3.8399e+001 48057 85839,85891,85865
 3.8000e+000 86133 -2.9063e+001 -1.0823e+002  3.0416e+001 48057 85813,85787,86107
 3.8000e+000 86156 -4.5214e+001 -9.1969e+001  2.4767e+001 48057 86179,85813,86107
 3.8000e+000 86205 -4.5128e+001 -6.2654e+001  3.7612e+001 48057 85943,85891,86179
 3.8000e+000 86228 -2.9245e+001 -7.2490e+001  3.6051e+001 48057 85943,86179,86107
 3.8000e+000 86277 -3.5974e+001 -6.4202e+001  2.7000e+001 48057 85813,86179,86251
 3.8000e+000 86300 -4.8458e+001 -5.7918e+001  1.7452e+001 48057 85813,86251,85839
 3.8000e+000 86349 -1.6199e+001 -8.9442e+001  3.8534e+001 48057 85761,86107,86323
 3.8000e+000 86855 -2.1823e+001 -1.6627e+001  4.6758e+000 47545 86878,86584,86558
 3.8000e+000 86832 -2.7457e+001 -1.9151e+001  5.9769e+000 47545 86950,86878,86558
 3.8000e+000 86809 -2.7964e+001 -1.3744e+001  8.5429e+000 47545 86950,86558,86532
 3.8000e+000 86786 -4.2172e+001 -1.4573e+001  2.3703e+000 47545 86584,86662,86610
 3.8000e+000 86763 -5.2843e+001 -1.3211e+001  1.0295e+001 47545 86532,86714,86688
 3.8000e+000 86740 -2.2505e+001 -1.2704e+001  7.2594e+000 47545 86610,86662,86636
 3.8000e+000 86904 -2.4351e+001 -1.2356e+001  1.9494e+000 47545 86662,86584,86878
 3.8000e+000 86927 -3.3777e+001 -1.5721e+001  1.9893e+000 47545 86662,86878,86688
 3.8000e+000 86976 -2.3559e+001 -1.0398e+001  4.9845e+000 47545 86688,86878,86950
 3.8000e+000 86999 -2.6721e+001 -1.0193e+001  8.5519e+000 47545 86688,86950,86532
 3.8000e+000 87328 -4.3750e+001 -1.5003e+002  4.6875e+001 47048 87155,87207,87181
 3.8000e+000 87305 -7.9443e+001 -1.5404e+002  5.4617e+001 47048 87129,87207,87155
 3.8000e+000 87282 -1.3400e+002 -1.5492e+002  4.8891e+001 47048 87103,87207,87129
 3.8000e+000 87259 -1.6390e+002 -2.1823e+002  4.1613e+001 47048 87103,87233,87207
 3.8000e+000 87576 -4.5394e+001 -1.9619e+002  6.0945e+001 46701 87599,87429,87377
 3.8000e+000 87553 -7.3268e+001 -1.8555e+002  5.3313e+001 46701 87599,87377,87481
 3.8000e+000 87530 -8.6260e+001 -1.9011e+002  5.7885e+001 46701 87351,87481,87377
 3.8000e+000 87507 -6.3681e+001 -1.7012e+002  7.9933e+001 46701 87377,87429,87403
 3.8000e+000 87625 -6.3814e+001 -1.9642e+002  4.6996e+001 46701 87455,87429,87599
 3.8000e+000 87648 -1.0810e+002 -1.9254e+002  4.5112e+001 46701 87455,87599,87481
 3.8000e+000 87798 -2.8079e+001 -1.0820e+001 -1.3742e+000 46239 87697,87749,87723
 3.8000e+000 87775 -9.7621e+001 -2.3371e+002 -4.3821e-001 46239 87671,87749,87697
 3.8000e+000 88308 -1.1363e+002 -1.8088e+002  2.9278e+001 45735 88089,88167,88141
 3.8000e+000 88285 -8.0917e+001 -1.7304e+002  5.1325e+001 45735 88011,88167,88089
 3.8000e+000 88262 -1.2310e+002 -1.7896e+002  7.1804e+001 45735 87985,88167,88011
 3.8000e+000 88239 -2.2156e+002 -3.5149e+002  1.1345e+002 45735 88011,88089,88063
 3.8000e+000 88216 -1.5156e+002 -2.0012e+002  1.5274e+001 45735 88089,88141,88115
 3.8000e+000 88193 -1.7449e+002 -2.3806e+002  1.5695e+002 45735 88011,88063,88037
 3.8000e+000 88686 -6.0986e+001 -5.6633e+000  1.2926e+001 45316 88438,88516,88490
 3.8000e+000 88663 -8.1351e+001  2.9657e+001  7.4770e+001 45316 88438,88542,88516
 3.8000e+000 88640 -1.8418e+001 -4.2900e+001  7.1519e+001 45316 88438,88568,88542
 3.8000e+000 88617 -1.9403e+001 -1.7927e+001  1.6484e+001 45316 88438,88490,88464
 3.8000e+000 88594 -5.5034e+001 -5.7791e+001  6.8753e+001 45316 88412,88568,88438
 3.8000e+000 88934 -8.4284e+001 -8.3765e+001  6.1322e+001 44812 88957,88735,88709
 3.8000e+000 88911 -4.2370e+001 -2.2023e+001  3.6144e+001 44812 88957,88709,88839
 3.8000e+000 88888 -3.5340e+001 -5.8878e+001  1.6866e+001 44812 89029,88787,88761
 3.8000e+000 88865 -2.8847e+001 -4.2663e+001  7.6179e+000 44812 88787,88839,88813
 3.8000e+000 88983 -2.1711e+001 -4.5927e+001  3.6068e+001 44812 88761,88735,88957
 3.8000e+000 89006 -4.1371e+001 -5.3602e+001  1.8879e+001 44812 89029,88761,88957
 3.8000e+000 89055 -3.6410e+001 -5.2144e+001  1.4905e+001 44812 88839,88787,89029
 3.8000e+000 89078 -3.7145e+001 -4.0993e+001  1.4936e+001 44812 88839,89029,88957
 3.8000e+000 89228 -2.3866e+001 -5.9178e+001  3.4212e+001 44408 89127,89179,89153
 3.8000e+000 89205 -1.6089e+001 -3.5283e-001  1.6134e+000 44408 89101,89179,89127
 3.8000e+000 89787 -7.1729e+001 -5.4514e+001  3.9483e+001 43854 89810,89545,89519
 3.8000e+000 89764 -7.7553e+001 -6.5547e+001  3.5217e+001 43854 89810,89519,89467
 3.8000e+000 89741 -8.8642e+001 -8.7420e+001  2.3537e+001 43854 89954,89882,89597
 3.8000e+000 89718 -8.6758e+001 -9.3135e+001  1.8638e+001 43854 89954,89597,89571
 3.8000e+000 89695 -4.0768e+001 -4.7683e+001  3.1405e+001 43854 89415,89623,89467
 3.8000e+000 89672 -6.6810e+001 -4.9323e+001  2.9497e+001 43854 89467,89519,89493
 3.8000e+000 89649 -1.7547e+001 -7.0045e+001  1.8455e+001 43854 89415,89467,89441
 3.8000e+000 89836 -7.4926e+001 -5.6385e+001  4.0946e+001 43854 89882,89545,89810
 3.8000e+000 89859 -4.6722e+001 -5.8818e+001  2.9197e+001 43854 89623,89810,89467
 3.8000e+000 89908 -7.6313e+001 -7.7358e+001  3.6104e+001 43854 89623,89597,89882
 3.8000e+000 89931 -6.9396e+001 -8.3511e+001  4.0833e+001 43854 89623,89882,89810
 3.8000e+000 89980 -7.7456e+001 -7.9877e+001  4.6398e+001 43854 89545,89882,89954
 3.8000e+000 90003 -7.8391e+001 -1.0010e+002  4.3325e+001 43854 89545,89954,89571
 3.8000e+000 90251 -1.9323e+001 -1.0796e+001  5.9809e+000 43492 90026,90078,90052
 3.8000e+000 90228 -7.4945e+001 -4.6552e+001  2.5662e+001 43492 90274,90026,90156
 3.8000e+000 90205 -6.9377e+001 -4.6374e+001  2.7024e+001 43492 90346,90274,90156
 3.8000e+000 90182 -6.7540e+001 -5.7739e+001  5.2618e+001 43492 90346,90156,90130
 3.8000e+000 90300 -4.4368e+001 -4.9682e+001  2.7802e+001 43492 90078,90026,90274
 3.8000e+000 90323 -8.3208e+001 -6.7596e+001  2.3086e+001 43492 90078,90274,90104
 3.8000e+000 90372 -1.0403e+002 -6.5160e+001  3.5309e+001 43492 90104,90274,90346
 3.8000e+000 90395 -1.0108e+002 -7.7050e+001  6.1203e+001 43492 90104,90346,90130
 3.8000e+000 90594 -8.2676e+001 -1.9809e+002  5.3525e+000 43052 90418,90496,90444
 3.8000e+000 90571 -1.2967e+002 -3.2592e+002  4.7208e+001 43052 90418,90522,90496
 3.8000e+000 90548 -1.1509e+002 -1.0820e+002  5.0560e+001 43052 90444,90496,90470
 3.8000e+000 91074 -2.4000e+002 -2.2713e+002  1.3137e+002 42434 91241,90884,90858
 3.8000e+000 91051 -7.3745e+001 -1.5680e+002  2.9170e+001 42434 90702,90910,90884
 3.8000e+000 91028 -7.4544e+001 -2.0423e+002  5.9735e+001 42434 91097,90754,90702
 3.8000e+000 91005 -1.8196e+002 -2.0174e+002  1.0082e+002 42434 91241,90858,91097
 3.8000e+000 90982 -9.9654e+001 -1.6375e+002  2.4238e+001 42434 91169,90806,90780
 3.8000e+000 90959 -1.0567e+002 -1.2849e+002 -6.9107e+000 42434 90806,90858,90832
 3.8000e+000 90936 -8.4713e+001 -1.8368e+002  6.4190e+001 42434 90702,90754,90728
 3.8000e+000 91123 -1.6328e+002 -2.3985e+002  6.1196e+001 42434 90780,90754,91097
 3.8000e+000 91146 -1.4286e+002 -2.0790e+002  7.5745e+001 42434 91169,90780,91097
 3.8000e+000 91195 -8.2263e+001 -1.3723e+002  4.8270e+000 42434 90858,90806,91169
 3.8000e+000 91218 -9.0652e+001 -1.0771e+002  4.9650e+001 42434 90858,91169,91097
 3.8000e+000 91267 -1.4338e+002 -2.6258e+002  1.0013e+002 42434 90702,90884,91241
 3.8000e+000 91290 -8.7251e+001 -2.4359e+002  7.3275e+001 42434 90702,91241,91097
 3.8000e+000 91698 -2.1484e+001 -6.5346e+001  2.7835e+001 41773 91473,91577,91499
 3.8000e+000 91675 -2.1897e+001 -7.0869e+001  3.3376e+001 41773 91473,91603,91577
 3.8000e+000 91652 -4.8714e+001 -6.2688e+001  2.3050e+001 41773 91499,91551,91525
 3.8000e+000 91629 -4.1003e+001 -6.0885e+001  2.8518e+001 41773 91499,91577,91551
 3.8000e+000 92044 -7.0964e+000 -1.6439e+001  1.0578e+001 41383 91773,91877,91851
 3.8000e+000 92021 -7.5609e+000 -1.6616e+001  1.0611e+001 41383 91747,91877,91773
 3.8000e+000 91998 -1.0632e+001 -1.0904e+001  7.7503e+000 41383 91773,91851,91799
 3.8000e+000 91975 -3.5114e+001  3.6204e+000 -1.1217e+001 41383 91747,91903,91877
 3.8000e+000 91952  1.9769e+000  2.4478e+001 -1.2515e+000 41383 91721,91903,91747
 3.8000e+000 91929  2.2615e+000 -1.6855e+001 -1.8074e+000 41383 91799,91851,91825
 3.8000e+000 92601 -7.2120e+001 -9.8993e+001  2.4432e+001 40979 92229,92411,92307
 3.8000e+000 92578 -9.0862e+001 -9.5139e+001  2.0177e+001 40979 92229,92437,92411
 3.8000e+000 92555 -5.4247e+001 -1.2974e+002 -5.2269e+000 40979 92229,92307,92281
 3.8000e+000 92532 -6.1615e+001 -8.4412e+001  3.4840e+001 40979 92333,92411,92385
 3.8000e+000 92509 -7.7833e+001 -1.0326e+002  2.2571e+001 40979 92307,92411,92333
 3.8000e+000 92486 -5.5980e+001 -1.2107e+002 -1.0323e+001 40979 92229,92281,92255
 3.8000e+000 92463 -8.7412e+000 -7.7854e+001  2.7260e+001 40979 92333,92385,92359
 3.8000e+000 93235 -8.7294e+001 -7.4027e+001  4.3076e+001 40525 92941,92993,92967
 3.8000e+000 93212 -9.3852e+001 -7.6302e+001  1.6167e+001 40525 93258,92941,92889
 3.8000e+000 93189 -6.3671e+001 -6.9430e+001  2.4869e+001 40525 93258,92889,93071
 3.8000e+000 93166 -9.8451e+001 -1.0327e+002  1.9255e+001 40525 92889,92941,92915
 3.8000e+000 93143 -2.4792e+001 -4.6015e+001  3.6090e+001 40525 92863,93071,92889
 3.8000e+000 93120 -7.5447e+001 -1.1487e+002  5.6045e+001 40525 92993,93071,93019
 3.8000e+000 93097 -1.3069e+002 -8.6522e+001  5.2143e+001 40525 93019,93071,93045
 3.8000e+000 93284 -9.3296e+001 -7.4764e+001  4.0964e+001 40525 92993,92941,93258
 3.8000e+000 93307 -4.9748e+001 -6.8907e+001  4.4760e+001 40525 92993,93258,93071
 3.8000e+000 93636 -7.2162e+001 -7.2056e+001  4.2317e+001 40235 93437,93541,93515
 3.8000e+000 93613 -5.0914e+001 -8.3716e+001  3.6360e+001 40235 93411,93541,93437
 3.8000e+000 93590 -2.5371e+001 -9.0054e+001  2.6707e+001 40235 93463,93515,93489
 3.8000e+000 93567 -4.3280e+001 -5.5347e+001  2.4490e+001 40235 93437,93515,93463
 3.8000e+000 94014 -6.5313e+001 -1.5405e+001  3.0250e+001 39873 93766,93870,93792
 3.8000e+000 93991 -3.3459e+001 -1.6105e+001  2.2168e+001 39873 93766,93896,93870
 3.8000e+000 93968 -8.2042e+001 -2.4508e+001  2.3093e+001 39873 93792,93870,93844
 3.8000e+000 93945 -4.4667e+001  4.5821e+000  3.6290e+000 39873 93792,93844,93818
 3.8000e+000 93922 -3.4689e+001  1.6563e+001  2.8655e+000 39873 93740,93896,93766
 3.8000e+000 94164 -3.3364e+001 -8.1997e+001  1.5490e+001 39461 94037,94089,94063
 3.8000e+000 94141 -3.4822e+001 -2.8535e+002  6.8165e+001 39461 94037,94115,94089
 3.8000e+000 94363 -1.4151e+001 -2.2141e+001  1.5556e+001 39057 94386,94239,94213
 3.8000e+000 94340  7.2981e+000  1.9500e+001 -1.0393e+001 39057 94386,94213,94187
 3.8000e+000 94317 -3.3310e+001 -4.5685e+000  1.1526e+001 39057 94187,94291,94265
 3.8000e+000 94412 -1.8327e+001 -2.0867e+001  2.4676e+001 39057 94458,94386,94265
 3.8000e+000 94435 -1.1685e+001 -1.7409e+001  1.0465e+001 39057 94265,94386,94187
 3.8000e+000 94484 -1.0625e+001 -4.5878e+001  1.9607e+001 39057 94239,94386,94458
 3.8000e+000 94896 -8.8016e+001 -6.0366e+001  3.8289e+001 38396 94919,94775,94723
 3.8000e+000 94873 -9.6600e+001 -5.3387e+001  3.9451e+001 38396 94919,94723,94697
 3.8000e+000 94850 -4.7186e+001 -4.4378e+001  1.9359e+001 38396 94723,94775,94749
 3.8000e+000 94827 -4.1286e+001 -3.3755e+001  2.2739e+001 38396 94671,94801,94697
 3.8000e+000 94945 -8.6226e+001 -5.4974e+001  3.5828e+001 38396 94801,94775,94919
 3.8000e+000 94968 -9.1272e+001 -4.5315e+001  3.5482e+001 38396 94801,94919,94697
 3.8000e+000 95265 -9.1333e+001 -1.0645e+002  4.5338e+001 37835 95017,95069,95043
 3.8000e+000 95242 -8.2921e+001 -8.8439e+001  4.2401e+001 37835 95288,95069,95017
 3.8000e+000 95219 -8.4937e+001 -9.5956e+001  5.3178e+001 37835 95288,95017,94991
 3.8000e+000 95196 -9.8421e+001 -9.3295e+001  5.4979e+001 37835 94991,95147,95121
 3.8000e+000 95173 -4.4009e+001 -6.2828e+001  3.7603e+001 37835 95069,95121,95095
 3.8000e+000 95314 -8.1644e+001 -7.1768e+001  3.7606e+001 37835 95121,95069,95288
 3.8000e+000 95337 -8.4084e+001 -8.3063e+001  4.7468e+001 37835 95121,95288,94991
 3.8000e+000 95558 -6.5727e+000 -2.0739e+001  6.8434e+000 37423 95408,95460,95434
 3.8000e+000 95535  4.6157e+000  1.5897e+001 -1.3720e+000 37423 95382,95460,95408
 3.8000e+000 95512  1.3147e+001  2.3859e+001 -4.6900e+000 37423 95382,95486,95460
 3.8000e+000 95891 -6.3016e+001 -1.4815e+002  3.6806e+001 37225 95666,95718,95692
 3.8000e+000 95868 -1.4313e+002 -3.1688e+002  7.3913e+001 37225 95666,95796,95718
 3.8000e+000 95845 -1.1611e+002 -1.5794e+002  2.2534e+001 37225 95718,95770,95744
 3.8000e+000 95822 -5.4153e+001 -1.3453e+002  2.3016e+001 37225 95718,95796,95770
 3.8000e+000 95992  1.5733e+000 -1.7055e+000  5.1194e+000 36735 95914,95966,95940
 3.8000e+000 96142 -7.7208e+001 -1.9649e+001  3.8114e+001 36331 96297,96067,96041
 3.8000e+000 96119 -8.2046e+001 -3.9387e+001  2.7582e+001 36331 96165,96041,96015
 3.8000e+000 96191 -7.2959e+001 -1.8749e+001  3.5231e+001 36331 96297,96041,96165
 3.8000e+000 96323 -8.5011e+001 -2.3783e+001  4.7391e+001 36331 96093,96067,96297
 3.8000e+000 96346 -7.2502e+001 -1.9444e+001  4.4689e+001 36331 96093,96297,96165
 3.8000e+000 96714 -3.8415e+001 -5.2395e+001  4.1543e+001 36041 96737,96495,96443
 3.8000e+000 96691 -5.4802e+001 -3.5969e+001  4.5017e+001 36041 96737,96443,96417
 3.8000e+000 96668 -2.1962e+001 -5.2897e+001  1.8862e+000 36041 96443,96495,96469
 3.8000e+000 96645 -1.0949e+001  1.2614e+000  2.1439e+001 36041 96391,96521,96417
 3.8000e+000 96622 -5.5813e+000 -1.6691e+001  1.8957e+001 36041 96391,96547,96521
 3.8000e+000 96599  1.8640e+000 -1.8842e+001  2.2465e+001 36041 96391,96573,96547
 3.8000e+000 96763 -1.4543e+001 -3.6095e+001  3.4303e+001 36041 96521,96495,96737
 3.8000e+000 96786 -4.5541e+001 -3.1587e+001  4.1591e+001 36041 96521,96737,96417
 3.8000e+000 96936 -7.5070e+001 -5.7987e+001  4.6688e+001 35637 97031,96959,96835
 3.8000e+000 96913 -5.0383e+001 -3.6208e+001  6.3011e+001 35637 97163,96959,96809
 3.8000e+000 96985 -6.9671e+001 -6.1723e+001  4.2589e+001 35637 96861,96835,96959
 3.8000e+000 97008 -7.7927e+001 -6.3776e+001  6.5748e+001 35637 96861,96959,96887
 3.8000e+000 97057 -4.4922e+001 -3.9861e+001  3.9120e+001 35637 96809,96959,97031
 3.8000e+000 97189 -4.6304e+001 -4.8773e+001  5.9914e+001 35637 96887,96959,97163
 3.8000e+000 97597 -4.9300e+001 -8.1053e+001  5.3564e+001 35190 97450,97502,97476
 3.8000e+000 97574 -5.0668e+001 -8.7106e+001  5.6180e+001 35190 97372,97502,97450
 3.8000e+000 97551 -5.7267e+001 -1.0087e+002  5.8109e+001 35190 97372,97450,97398
 3.8000e+000 97528 -5.2891e+001 -1.0134e+002  6.0871e+001 35190 97398,97450,97424
 3.8000e+000 98054 -2.0346e+001 -3.5378e+001  2.8983e+001 34636 97806,97936,97858
 3.8000e+000 98031 -4.3128e+001 -2.6429e+001  2.5912e+001 34636 97780,97936,97806
 3.8000e+000 98008 -4.3168e+001 -3.3282e+001  1.2288e+001 34636 97806,97858,97832
 3.8000e+000 97985 -2.4349e+001 -3.8427e+001  1.8777e+001 34636 97884,97936,97910
 3.8000e+000 97962 -2.2718e+000 -2.2661e+001  1.1668e+001 34636 97858,97936,97884
 3.8000e+000 98530 -1.1038e+002 -4.4202e+001  3.4997e+001 34068 98697,98184,98366
 3.8000e+000 98507 -1.8848e+001 -3.2339e+001  2.8302e+001 34068 98158,98366,98184
 3.8000e+000 98484 -9.2639e+001 -1.2857e+002  4.5895e+001 34068 98553,98262,98236
 3.8000e+000 98461 -1.3226e+002 -1.4550e+002  4.2285e+001 34068 98553,98236,98210
 3.8000e+000 98438 -1.1553e+002 -1.0268e+002  2.9003e+001 34068 98841,98625,98366
 3.8000e+000 98415 -7.1206e+001 -1.5288e+002  4.8920e+001 34068 98769,98288,98262
 3.8000e+000 98392 -1.1603e+002 -9.2101e+001  2.6619e+001 34068 98841,98366,98340
 3.8000e+000 98579 -9.1045e+001 -1.3760e+002  3.5905e+001 34068 98769,98262,98553
 3.8000e+000 98602 -9.6149e+001 -1.1743e+002  3.4776e+001 34068 98625,98314,98553
 3.8000e+000 98651 -1.1663e+002 -9.2471e+001  4.1776e+001 34068 98697,98366,98625
 3.8000e+000 98674 -1.0236e+002 -1.3127e+002  5.2963e+001 34068 98210,98625,98553
 3.8000e+000 98723 -1.3511e+002 -1.0266e+002  4.4123e+001 34068 98210,98184,98697
 3.8000e+000 98746 -1.2463e+002 -1.1577e+002  5.4142e+001 34068 98210,98697,98625
 3.8000e+000 98795 -3.7326e+001 -1.3569e+002  4.2717e+001 34068 98314,98288,98769
 3.8000e+000 98818 -5.8936e+001 -1.2228e+002  3.1326e+001 34068 98314,98769,98553
 3.8000e+000 98867 -1.1004e+002 -1.1996e+002  2.5643e+001 34068 98314,98625,98841
 3.8000e+000 98890 -1.0797e+002 -1.0622e+002  2.2529e+001 34068 98314,98841,98340
 3.8000e+000 99268 -1.1828e+002 -1.3540e+002  8.0523e+001 33450 99291,99098,99072
 3.8000e+000 99245 -1.3162e+002 -1.1229e+002  5.3310e+001 33450 99291,99072,99020
 3.8000e+000 99222 -2.2887e+002 -1.4296e+002  9.6023e+001 33450 99020,99072,99046
 3.8000e+000 99199 -1.1185e+002 -1.0771e+002  5.1071e+001 33450 99020,99150,99124
 3.8000e+000 99176 -1.0675e+002 -6.6219e+001  1.6593e+001 33450 98994,99150,99020
 3.8000e+000 99317 -7.0665e+001 -1.1467e+002  7.6750e+001 33450 99124,99098,99291
 3.8000e+000 99340 -1.1525e+002 -1.0754e+002  5.3578e+001 33450 99124,99291,99020
 3.8000e+000 99865 -4.5885e+001 -4.3534e+001  1.4728e+001 32944 100176,99960,99888
 3.8000e+000 99842 -6.0486e+001 -6.3351e+001  2.0669e+001 32944 100104,99888,99522
 3.8000e+000 99819 -3.7700e+001 -4.0215e+001  7.9799e+000 32944 100248,99960,99626
 3.8000e+000 99796 -4.0221e+001 -4.6264e+001  1.7332e+001 32944 100032,99652,99626
 3.8000e+000 99773 -5.8866e+001 -8.6297e+001  1.1542e+001 32944 100104,99522,99496
 3.8000e+000 99750 -3.3571e+001 -1.0407e+002  1.6411e+000 32944 99574,99626,99600
 3.8000e+000 99727 -1.5112e+001 -6.6099e+001  1.1777e+001 32944 100248,99626,99574
 3.8000e+000 99704 -4.3079e+001 -5.8146e+001  2.7888e+001 32944 99444,99496,99470
 3.8000e+000 99914 -4.9816e+001 -4.7161e+001  1.7718e+001 32944 100176,99888,100032
 3.8000e+000 99937 -6.8688e+001 -5.0528e+001  3.6355e+001 32944 99678,99888,99444
 3.8000e+000 99986 -5.8130e+001 -4.8002e+001  1.8522e+001 32944 99522,99888,99960
 3.8000e+000 100009 -3.8925e+001 -2.7203e+001  3.0813e+001 32944 99522,99960,99548
 3.8000e+000 100058 -5.2870e+001 -4.8385e+001  1.6966e+001 32944 99678,99652,100032
 3.8000e+000 100081 -6.9316e+001 -5.0060e+001  2.1607e+001 32944 99678,100032,99888
 3.8000e+000 100130 -5.2067e+001 -4.8631e+001  3.3988e+001 32944 99444,99888,100104
 3.8000e+000 100153 -4.8193e+001 -6.3076e+001  2.3661e+001 32944 99444,100104,99496
 3.8000e+000 100202 -4.6904e+001 -3.8886e+001  1.1411e+001 32944 99626,99960,100176
 3.8000e+000 100225 -4.6680e+001 -3.9600e+001  1.3704e+001 32944 99626,100176,100032
 3.8000e+000 100274 -5.7706e+001 -6.9838e+001  2.3785e+001 32944 99548,99960,100248
 3.8000e+000 100297 -3.7382e+001 -9.6552e+001  2.8655e+001 32944 99548,100248,99574
 3.8000e+000 100754  2.7124e+001 -1.2065e+001  2.9512e+000 32369 100777,100584,100506
 3.8000e+000 100731  7.3274e+000 -2.6968e+001  1.0818e+001 32369 100777,100506,100636
 3.8000e+000 100708 -6.0197e+000 -3.2067e+001  1.0083e+001 32369 100480,100636,100506
 3.8000e+000 100685 -5.4064e+001 -1.3131e+001  5.4150e+000 32369 100532,100584,100558
 3.8000e+000 100662 -1.6610e+000 -1.9556e+001  3.2569e+001 32369 100506,100584,100532
 3.8000e+000 100803  6.6394e+000  4.8226e+000 -5.8418e+000 32369 100610,100584,100777
 3.8000e+000 100826 -6.3781e+000 -7.2066e+000  2.6193e-001 32369 100610,100777,100636
 3.8000e+000 101025 -3.1987e+001 -5.5684e+001  4.3738e+001 31857 100875,100927,100901
 3.8000e+000 101002 -1.0144e+002 -1.2520e+000  5.7214e+001 31857 100875,100953,100927
 3.8000e+000 100979 -1.1896e+002 -1.3989e+000  1.3133e+001 31857 100849,100953,100875
 3.8000e+000 101533 -4.9665e+001 -8.5715e+001  4.6755e+001 31253 101556,101314,101236
 3.8000e+000 101510 -6.4827e+001 -8.8688e+001  4.6619e+001 31253 101556,101236,101210
 3.8000e+000 101487 -5.3227e+001 -7.8695e+001  2.1914e+001 31253 101210,101392,101340
 3.8000e+000 101464 -5.5894e+001 -9.0159e+001  2.7977e+001 31253 101236,101288,101262
 3.8000e+000 101441 -5.5241e+001 -1.1454e+002  4.6452e+001 31253 101236,101314,101288
 3.8000e+000 101418 -5.4027e+001 -1.0576e+002  4.3268e+001 31253 101340,101392,101366
 3.8000e+000 101582 -5.5535e+001 -8.2310e+001  3.4535e+001 31253 101340,101314,101556
 3.8000e+000 101605 -7.0497e+001 -8.4331e+001  3.5164e+001 31253 101340,101556,101210
 3.8000e+000 101755 -2.0425e+001 -5.0011e+001  2.9794e+001 30519 101778,101654,101628
 3.8000e+000 101732 -4.7042e+001 -8.5352e+001  4.9212e+001 30519 101850,101778,101628
 3.8000e+000 101804 -6.0659e+001 -5.6187e+000  2.3345e+001 30519 101680,101654,101778
 3.8000e+000 101827 -4.4369e+001 -6.4904e+001  2.7289e+001 30519 101680,101778,101706
 3.8000e+000 101876 -7.4197e+001 -1.3304e+002  5.2722e+000 30519 101706,101778,101850
 3.8000e+000 102561 -9.9989e+000 -2.6965e+001  2.9977e+001 29951 102656,102584,102270
 3.8000e+000 102538 -8.8075e+001 -8.4321e+001  1.1577e+001 29951 102584,102140,102374
 3.8000e+000 102515 -4.0531e+001 -1.1226e+002  7.1855e+001 29951 102728,102656,102270
 3.8000e+000 102492 -3.3948e+001 -1.3982e+002  6.6734e+001 29951 102728,102270,102244
 3.8000e+000 102469 -5.2862e+001 -2.6881e+000  1.8683e+001 29951 102800,102322,102296
 3.8000e+000 102446 -5.7573e+001 -5.5230e+001  5.2098e+000 29951 102166,102218,102192
 3.8000e+000 102423 -4.5708e+001 -5.2921e+001  3.8033e+000 29951 102166,102244,102218
 3.8000e+000 102400 -2.3132e+001 -1.8419e+001  8.2868e+000 29951 102322,102374,102348
 3.8000e+000 102610 -6.8193e+001 -1.3852e+001  1.7868e+001 29951 102296,102270,102584
 3.8000e+000 102633 -6.9707e+001 -3.0327e+001  1.1564e+001 29951 102800,102296,102584
 3.8000e+000 102682 -1.1762e+002 -9.3824e+001  6.2714e+001 29951 102140,102584,102656
 3.8000e+000 102705 -5.8419e+001 -1.0456e+002  9.5998e+001 29951 102140,102656,102166
 3.8000e+000 102754 -2.8363e+001 -7.8298e+001  8.4959e+001 29951 102166,102656,102728
 3.8000e+000 102777 -2.8822e+001 -1.0629e+002  7.3791e+001 29951 102166,102728,102244
 3.8000e+000 102826 -3.7345e+001 -3.5372e+001  3.1542e+001 29951 102374,102322,102800
 3.8000e+000 102849 -4.2676e+001 -4.3779e+001  2.9138e+001 29951 102374,102800,102584
 3.8000e+000 103048 -3.1106e+001 -7.5668e+001  2.4235e+001 29454 102872,102924,102898
 3.8000e+000 103025 -5.9723e+001 -1.9625e+002  4.7587e+001 29454 102872,102976,102924
 3.8000e+000 103002 -4.3733e+001 -1.3371e+002  4.6621e+001 29454 102924,102976,102950
 3.8000e+000 103296 -1.4651e+002 -1.4305e+002  7.6655e+001 29064 103319,103175,103123
 3.8000e+000 103273 -1.8711e+002 -1.4167e+002  9.0222e+001 29064 103319,103123,103071
 3.8000e+000 103250 -9.1970e+001 -9.3126e+001  4.7927e+001 29064 103123,103175,103149
 3.8000e+000 103227 -1.3960e+002 -1.2203e+002  1.0919e+002 29064 103071,103123,103097
 3.8000e+000 103345 -1.1108e+002 -1.4570e+002  5.8309e+001 29064 103201,103175,103319
 3.8000e+000 103368 -1.5949e+002 -1.3198e+002  5.8325e+001 29064 103201,103319,103071
 3.8000e+000 104006 -5.9735e+001 -2.8972e+001  2.8001e+001 28603 104101,104029,103712
 3.8000e+000 103983 -5.3913e+001 -1.7255e+001  2.1782e+001 28603 104173,104029,103660
 3.8000e+000 103960 -7.3146e+001 -2.3166e+001  2.7686e+001 28603 104101,103712,103686
 3.8000e+000 103937 -4.1047e+001 -2.1807e+001  2.0730e+001 28603 104173,103660,103634
 3.8000e+000 103914 -6.3503e+001 -5.5717e+001  3.0643e+001 28603 103764,103816,103790
 3.8000e+000 103891 -2.9891e+001 -1.5725e+001  2.0118e+001 28603 103634,103842,103816
 3.8000e+000 103868 -4.9295e+001 -2.4248e+001  3.5140e+001 28603 103712,103764,103738
 3.8000e+000 104055 -6.1222e+001 -2.5682e+001  3.0402e+001 28603 103764,103712,104029
 3.8000e+000 104078 -5.8517e+001 -2.5263e+001  3.1441e+001 28603 103764,104029,103816
 3.8000e+000 104127 -7.7581e+001 -2.7776e+001  2.3666e+001 28603 103660,104029,104101
 3.8000e+000 104150 -9.7352e+001 -2.6404e+001  2.6970e+001 28603 103660,104101,103686
 3.8000e+000 104199 -6.3481e+001 -2.0719e+001  2.5686e+001 28603 103816,104029,104173
 3.8000e+000 104222 -5.2926e+001 -2.5636e+001  2.3294e+001 28603 103816,104173,103634
 3.8000e+000 104600 -4.9701e+001 -1.1184e+002  1.8156e+001 28348 104623,104378,104326
 3.8000e+000 104577 -3.7779e+001 -1.2264e+002  4.1084e+001 28348 104623,104326,104482
 3.8000e+000 104554 -6.0117e+001 -9.4439e+001  2.1510e+001 28348 104326,104378,104352
 3.8000e+000 104531 -3.4314e+001 -2.6860e+000  4.9457e+000 28348 104404,104456,104430
 3.8000e+000 104508 -4.8127e+001 -5.9135e+001  3.2714e+001 28348 104378,104456,104404
 3.8000e+000 104649 -3.8478e+001 -8.9634e+001  2.3685e+001 28348 104456,104378,104623
 3.8000e+000 104672 -2.3558e+001 -9.6813e+001  4.7520e+001 28348 104456,104623,104482
 3.8000e+000 104991 -7.4601e+001 -7.7991e+001  5.7433e+001 27951 104717,104847,104769
 3.8000e+000 104968 -2.0413e+001 -4.8461e+001  4.5940e+001 27951 104717,104873,104847
 3.8000e+000 104945 -2.5628e+001 -7.3469e+001  5.4380e+001 27951 104769,104847,104795
 3.8000e+000 104922  3.8560e+000  8.1995e+000  4.8004e+001 27951 104795,104847,104821
 3.8000e+000 104899 -5.2313e+001 -3.9880e+001  4.1885e+001 27951 104717,104769,104743
 3.8000e+000 105371 -1.0666e+002 -1.1818e+002  5.4578e+001 27447 105394,105201,105123
 3.8000e+000 105348 -1.2714e+002 -1.1125e+002  8.2563e+001 27447 105394,105123,105097
 3.8000e+000 105325 -1.8951e+002 -1.1191e+002  5.1908e+001 27447 105123,105201,105149
 3.8000e+000 105302 -9.0297e+001 -1.4449e+002  6.9917e+001 27447 105201,105253,105227
 3.8000e+000 105279 -1.1042e+002 -1.7425e+002 -1.6035e+001 27447 105149,105201,105175
 3.8000e+000 105420 -9.5421e+001 -9.8871e+001  4.9940e+001 27447 105253,105201,105394
 3.8000e+000 105443 -1.1013e+002 -7.9206e+001  7.6296e+001 27447 105253,105394,105097
 3.8000e+000 105998 -5.1779e+001 -5.6583e+001  4.6414e+001 27100 106165,106021,105704
 3.8000e+000 105975 -1.7179e+001 -2.2507e+001  3.7776e+001 27100 106309,106021,105652
 3.8000e+000 105952 -1.0254e+002 -9.1647e+001  8.5517e+001 27100 106093,105808,105782
 3.8000e+000 105929 -5.1211e+001 -6.0375e+001  4.4359e+001 27100 106165,105704,105678
 3.8000e+000 105906 -2.3254e+001 -7.5640e+001  3.4258e+001 27100 106237,105730,105704
 3.8000e+000 105883 -2.5071e+001 -4.3639e+001  2.4036e+001 27100 106309,105652,105626
 3.8000e+000 105860 -1.5134e+001 -3.3681e+000  6.0718e+000 27100 105730,105782,105756
 3.8000e+000 106047 -4.4902e+001 -4.7041e+001  5.0411e+001 27100 106237,105704,106021
 3.8000e+000 106070 -5.2239e+001 -4.6914e+001  6.3840e+001 27100 106093,105782,106021
 3.8000e+000 106119 -3.3556e+001 -7.0780e+001  3.8998e+001 27100 105834,105808,106093
 3.8000e+000 106142 -3.8488e+001 -9.2107e+001  5.3507e+001 27100 106381,106093,106021
 3.8000e+000 106191 -5.0171e+001 -5.0359e+001  5.1600e+001 27100 105652,106021,106165
 3.8000e+000 106214 -5.1214e+001 -5.9726e+001  5.0640e+001 27100 105652,106165,105678
 3.8000e+000 106263 -3.0808e+000 -4.1951e+001  2.5735e+001 27100 105782,105730,106237
 3.8000e+000 106286 -2.9890e+001 -2.0918e+001  4.4289e+001 27100 105782,106237,106021
 3.8000e+000 106335 -3.1760e+001 -5.4930e+001  4.1359e+001 27100 106381,106021,106309
 3.8000e+000 106358 -1.5418e+001 -2.3571e+001  1.7663e+001 27100 105834,106309,105626
 3.8000e+000 106407 -1.7694e+001 -4.7168e+001  2.9744e+001 27100 105834,106093,106381
 3.8000e+000 106430 -2.0134e+001 -3.7729e+001  1.5585e+001 27100 105834,106381,106309
 3.8000e+000 106629 -5.0850e+001 -1.6753e+002  3.1344e+001 26688 106479,106557,106531
 3.8000e+000 106606 -7.2800e+001 -1.7280e+002  2.5171e+001 26688 106453,106557,106479
 3.8000e+000 106583 -5.5416e+001 -1.5486e+002  3.9472e+000 26688 106479,106531,106505
 3.8000e+000 107088 -2.7202e+001 -2.8297e+001  5.3209e+000 26248 107111,106918,106866
 3.8000e+000 107065 -2.8644e+001 -2.5826e+001  7.4598e+000 26248 107111,106866,106840
 3.8000e+000 107042 -4.5096e+001 -2.7003e+001  2.6284e+000 26248 106814,106970,106840
 3.8000e+000 107019 -2.3721e+001 -2.9674e+001  8.3836e+000 26248 106866,106918,106892
 3.8000e+000 106996 -3.4627e+001 -3.3484e+001  3.4474e+000 26248 106918,106970,106944
 3.8000e+000 107137 -3.0775e+001 -3.1563e+001  2.5980e+000 26248 106970,106918,107111
 3.8000e+000 107160 -2.9608e+001 -2.6506e+001  5.0777e+000 26248 106970,107111,106840
 3.8000e+000 107666 -7.8285e+001 -3.0814e+001  4.2571e+001 25908 107369,107499,107395
 3.8000e+000 107643 -1.0308e+002 -9.9632e+001  6.5593e+001 25908 107369,107525,107499
 3.8000e+000 107620 -5.3419e+001 -3.8145e+001  2.9569e+001 25908 107395,107473,107447
 3.8000e+000 107597 -4.4091e+001 -1.8669e+001  2.1747e+001 25908 107395,107499,107473
 3.8000e+000 107574 -1.1548e+002 -7.0211e+001  9.3003e+001 25908 107395,107447,107421
 3.8000e+000 107551 -4.1224e+001 -7.9014e+001  4.0960e+001 25908 107343,107525,107369
 3.8000e+000 108251 -2.5380e+001 -1.9439e+001  2.4270e+001 25454 108274,108006,107954
 3.8000e+000 108228 -1.8821e+001 -1.1584e+001  1.8000e+001 25454 108274,107954,108110
 3.8000e+000 108205 -2.2527e+001 -3.1761e+001  2.7221e+001 25454 108346,108032,108006
 3.8000e+000 108182 -4.4624e+001 -3.4119e+001  3.7231e+001 25454 107954,108006,107980
 3.8000e+000 108159 -1.1077e+001 -1.9691e+001  1.5945e+001 25454 107928,108110,107954
 3.8000e+000 108136 -6.3762e+001 -7.5573e+001  4.4967e+001 25454 108058,108110,108084
 3.8000e+000 108300 -2.4055e+001 -2.8570e+001  2.7762e+001 25454 108346,108006,108274
 3.8000e+000 108323 -1.8473e+001 -1.7785e+001  2.5319e+001 25454 108058,108274,108110
 3.8000e+000 108372 -2.5407e+001 -2.5386e+001  2.6235e+001 25454 108058,108032,108346
 3.8000e+000 108395 -2.4266e+001 -1.9208e+001  2.7894e+001 25454 108058,108346,108274
 3.8000e+000 108822 -4.3921e+001 -3.3037e+001  1.9216e+001 24943 108525,108681,108655
 3.8000e+000 108799 -5.0907e+001 -2.5540e+001  8.9864e+000 24943 108499,108681,108525
 3.8000e+000 108776 -2.2071e+001 -2.4223e+001  7.2217e+000 24943 108525,108655,108629
 3.8000e+000 108753 -4.9059e+001 -1.9670e+001  6.1124e+000 24943 108525,108629,108603
 3.8000e+000 108730 -9.2860e+001 -4.0261e+001  2.5365e+001 24943 108551,108603,108577
 3.8000e+000 108707 -8.4067e+001 -5.0935e+001  3.1753e+001 24943 108525,108603,108551
 3.8000e+000 109407 -3.4114e+000 -2.9831e+001 -5.3616e+000 24745 109162,109214,109188
 3.8000e+000 109384 -4.3399e+001 -2.6555e+001  2.8977e+000 24745 109162,109266,109214
 3.8000e+000 109361 -4.8033e+001 -2.5077e+001 -2.1908e+000 24745 109084,109266,109162
 3.8000e+000 109338 -7.3005e+001 -1.3320e+001  9.1113e+000 24745 109084,109162,109136
 3.8000e+000 109315 -1.9022e+001 -3.6544e+001  2.4494e+000 24745 109214,109266,109240
 3.8000e+000 109292 -4.2692e+001 -1.4243e+001  2.4585e+001 24745 109084,109136,109110
 3.8000e+000 109785 -1.1052e+002 -4.5137e+001  7.2266e+001 24341 109537,109615,109563
 3.8000e+000 109762 -6.7209e-001 -1.7095e+000  5.5009e+001 24341 109537,109641,109615
 3.8000e+000 109739 -6.9999e+001 -5.0301e+001  4.6416e+001 24341 109563,109615,109589
 3.8000e+000 109716 -3.9064e+001 -2.0562e+001  3.9844e+001 24341 109537,109667,109641
 3.8000e+000 109693 -2.2678e+001 -4.1272e+001  2.8113e+001 24341 109511,109667,109537
 3.8000e+000 110163 -1.5123e+002 -1.0329e+002  8.1457e+001 23837 110186,109967,109915
 3.8000e+000 110140 -1.3573e+002 -1.0407e+002  8.8382e+001 23837 110186,109915,109889
 3.8000e+000 110117 -7.0909e+001 -4.3359e+001  7.1184e+001 23837 109889,110045,109993
 3.8000e+000 110094 -1.4891e+002 -1.2076e+002  7.2124e+001 23837 109915,109967,109941
 3.8000e+000 110071 -8.6548e+001 -5.9297e+000  2.1935e+001 23837 109993,110045,110019
 3.8000e+000 110212 -1.4174e+002 -9.5854e+001  8.7604e+001 23837 109993,109967,110186
 3.8000e+000 110235 -1.3461e+002 -9.8155e+001  9.5019e+001 23837 109993,110186,109889
 3.8000e+000 110336 -4.1972e+001 -9.8714e+001  4.6336e+001 23433 110258,110310,110284
 3.8000e+000 110584 -7.9990e+001 -6.3410e+001  2.7154e+001 22829 110607,110411,110385
 3.8000e+000 110561 -8.7111e+001 -6.8949e+001  4.4729e+001 22829 110607,110385,110489
 3.8000e+000 110538 -6.0372e+001 -6.8556e+001  3.3301e+001 22829 110437,110489,110463
 3.8000e+000 110515 -7.9905e+001 -5.5639e+001  4.8143e+001 22829 110359,110489,110385
 3.8000e+000 110633 -7.4817e+001 -4.3988e+001  2.0406e+001 22829 110437,110411,110607
 3.8000e+000 110656 -7.9478e+001 -5.4127e+001  3.6792e+001 22829 110437,110607,110489
 3.8000e+000 110906 -1.4870e+002 -6.3157e+001  5.3172e+001 22432 110707,110759,110733
 3.8000e+000 110883 -7.1946e+001 -7.0421e+001  3.9856e+001 22432 110707,110785,110759
 3.8000e+000 110860 -7.6591e+001 -6.8038e+001  5.7668e+001 22432 110707,110811,110785
 3.8000e+000 110837 -1.0783e+002 -7.5668e+001  4.0717e+001 22432 110681,110811,110707
 3.8000e+000 111288 -8.1923e+000 -2.2273e+001  2.0518e+001 22142 111092,111144,111118
 3.8000e+000 111265 -3.6793e+001 -1.7067e+001  1.3728e+001 22142 111066,111144,111092
 3.8000e+000 111242 -4.5084e+001 -3.3059e+001  1.9602e+001 22142 111040,111144,111066
 3.8000e+000 111219 -8.4130e+001 -5.1350e+000  1.4719e+001 22142 111014,111144,111040
 3.8000e+000 111196 -5.5320e+001 -1.4767e+000  2.3847e+001 22142 111014,111170,111144
 3.8000e+000 111389 -1.6691e+001 -3.8271e+001  6.2682e+001 21830 111311,111363,111337
 3.8000e+000 111735 -1.1433e+002 -1.8214e+001  7.4990e+001 21268 111758,111542,111438
 3.8000e+000 111712 -6.5181e+001  3.1396e-001  4.6932e+001 21268 111758,111438,111412
 3.8000e+000 111689 -3.5180e+001 -7.8865e+001  8.8418e+001 21268 111438,111542,111464
 3.8000e+000 111666 -1.3811e+001 -7.0261e+001  1.2266e+002 21268 111464,111542,111490
 3.8000e+000 111643 -1.7191e+002 -8.7995e+001  9.8303e+001 21268 111412,111594,111568
 3.8000e+000 111620  4.4082e+001  1.9265e+001  1.6222e+002 21268 111490,111542,111516
 3.8000e+000 111784 -1.3097e+002 -2.3614e+001  8.8728e+001 21268 111568,111542,111758
 3.8000e+000 111807 -1.1279e+002 -5.1068e+001  7.1272e+001 21268 111568,111758,111412
 3.8000e+000 111959 -1.6949e+002 -1.7160e+001  3.8945e+001 20864 111982,111910,111884
 3.8000e+000 111936 -1.4297e+002 -4.8626e+001  5.7558e+001 20864 112114,111832,111910
 3.8000e+000 112008 -1.6541e+002 -5.8034e+001  5.3095e+001 20864 112114,111910,111982
 3.8000e+000 112140 -1.3359e+002 -6.4595e+001  3.9349e+001 20864 111858,111832,112114
 3.8000e+000 112163 -1.5421e+002 -7.3051e+001  3.4185e+001 20864 111858,112114,111982
 3.8000e+000 112411 -1.9366e+001 -3.5657e+000  7.6538e+000 20324 112186,112290,112212
 3.8000e+000 112388 -1.4414e+001 -3.8706e+000  9.8169e+000 20324 112186,112316,112290
 3.8000e+000 112365  2.4317e+001 -2.9218e+001  4.7084e+000 20324 112212,112290,112264
 3.8000e+000 112342 -1.4871e+002 -6.3760e+001 -3.1685e+000 20324 112212,112264,112238
 3.8000e+000 112659 -2.5038e-001  2.9486e-001  4.6222e+001 19920 112512,112564,112538
 3.8000e+000 112636 -5.5518e+001 -2.1882e+001  2.7007e+001 19920 112434,112564,112512
 3.8000e+000 112613 -6.1243e+001 -4.3772e+001  2.9947e+001 19920 112434,112512,112460
 3.8000e+000 112590 -7.4190e+001 -4.6015e+001  3.3969e+001 19920 112460,112512,112486
 3.8000e+000 112811 -8.2574e+000 -3.4886e+000  1.5198e+001 19630 112684,112736,112710
 3.8000e+000 112788  1.3813e+001 -1.9046e+001  2.9047e+000 19630 112684,112762,112736
 3.8000e+000 113012 -5.1747e+001 -2.1788e+001  5.0996e+001 19169 112862,112940,112888
 3.8000e+000 112989 -9.9112e+001 -7.2161e+001  2.9142e+001 19169 112836,112940,112862
 3.8000e+000 112966 -3.9977e+001 -5.7252e+001  3.6774e+001 19169 112888,112940,112914
 3.8000e+000 113213 -6.4638e+001 -2.7447e+001  4.0296e+001 18600 113037,113089,113063
 3.8000e+000 113190 -2.0446e+001 -2.8607e+001  3.1115e+001 18600 113037,113115,113089
 3.8000e+000 113167 -6.4600e+001 -6.5087e+001  5.1567e+001 18600 113037,113141,113115
 3.8000e+000 113485 -4.6267e+001 -1.9502e+001  4.6104e+001 18352 113260,113312,113286
 3.8000e+000 113462 -9.4845e+001 -6.7269e+001  6.6430e+001 18352 113260,113390,113312
 3.8000e+000 113439 -8.6915e+001 -1.5399e+001  4.8575e+001 18352 113312,113390,113364
 3.8000e+000 113416 -1.0997e+001 -4.2246e+000  5.0871e+001 18352 113312,113364,113338
 3.8000e+000 113757 -6.9629e+001 -2.9509e+001  4.8209e+001 17834 113558,113610,113584
 3.8000e+000 113734 -1.0629e+002 -6.7871e+001  6.8054e+001 17834 113532,113610,113558
 3.8000e+000 113711 -1.0731e+002 -7.2982e+001  5.6266e+001 17834 113532,113662,113610
 3.8000e+000 113688 -5.5627e+001 -2.2933e+001  7.6934e+001 17834 113610,113662,113636
 3.8000e+000 113958 -7.3411e+001 -3.1214e+001  4.1631e+001 17330 113782,113834,113808
 3.8000e+000 113935 -2.2858e+001 -1.7620e+001  2.3703e+001 17330 113782,113886,113834
 3.8000e+000 113912 -3.2514e+001 -1.7593e+001  1.4384e+001 17330 113834,113886,113860
 3.8000e+000 114110 -1.0936e+002 -4.6101e+001  7.0615e+001 16874 113983,114035,114009
 3.8000e+000 114087 -3.9877e+001 -9.3151e+001  5.3052e+001 16874 113983,114061,114035
 3.8000e+000 114465 -1.3136e+002 -5.6129e+001  3.3630e+001 16270 114240,114292,114266
 3.8000e+000 114442 -1.4284e+002 -3.3296e+001  1.9437e+001 16270 114240,114370,114292
 3.8000e+000 114419 -8.3437e+001 -3.5740e+001  1.5974e+001 16270 114292,114344,114318
 3.8000e+000 114396 -1.7078e+002 -7.4896e+001  7.3188e+000 16270 114292,114370,114344
 3.8000e+000 114566 -9.1676e-001  9.1676e-001  9.2027e+001 15834 114488,114540,114514
 3.8000e+000 114667 -7.8527e+001 -3.3229e+001  5.2684e+001 15155 114589,114641,114615
 3.8000e+000 114890 -4.2912e+001 -1.7325e+001  6.6823e+001 421 114766,114818,114792
 3.8000e+000 114867 -7.7643e+001 -7.8345e+001  5.1918e+001 421 114714,114818,114766
 3.8000e+000 114844 -1.2265e+002 -5.2368e+001  3.0534e+001 421 114714,114766,114740
 3.9000e+000 66553 -2.6884e+001 -4.4663e+001 -6.6626e+001 66108 66354,66458,66432
 3.9000e+000 66530 -5.6564e+001 -1.5821e+001 -2.8964e+002 66108 66328,66458,66354
 3.9000e+000 66507 -5.7764e+001 -6.7744e+001 -5.2323e+001 66108 66354,66432,66406
 3.9000e+000 66484 -7.2761e+001 -3.0814e+001 -4.9602e+001 66108 66354,66406,66380
 3.9000e+000 66951 -1.7055e+001 -7.4904e+000 -1.9035e+001 65910 66703,66833,66807
 3.9000e+000 66928 -5.6891e+001 -4.5340e+001  1.6050e+000 65910 66677,66833,66703
 3.9000e+000 66905 -2.0016e+002 -7.5344e+001 -6.9820e+001 65910 66729,66781,66755
 3.9000e+000 66882 -4.7007e+001 -2.0026e+001 -3.9399e+001 65910 66729,66807,66781
 3.9000e+000 66859 -5.0760e+001 -5.2012e+001 -3.5563e+001 65910 66703,66807,66729
 3.9000e+000 67150 -7.1340e+001 -3.0994e+001 -6.1175e+000 65712 67026,67078,67052
 3.9000e+000 67127 -5.3750e+001 -6.5617e+000 -1.6925e+001 65712 66974,67078,67026
 3.9000e+000 67104 -1.1334e+002 -4.5137e+001 -1.7793e+001 65712 66974,67026,67000
 3.9000e+000 67481  9.2573e+000  1.5026e+000 -1.0425e+001 65422 67282,67360,67334
 3.9000e+000 67458 -5.6326e+000 -2.2811e+000 -1.5379e+001 65422 67282,67386,67360
 3.9000e+000 67435  1.7472e+000  5.3553e+000 -1.6666e+001 65422 67282,67334,67308
 3.9000e+000 67412 -1.8980e+001 -4.1449e+000 -5.3436e+000 65422 67256,67386,67282
 3.9000e+000 68115 -1.2293e+002 -6.6059e+001  6.8023e-001 65018 67795,67925,67873
 3.9000e+000 68092 -1.4760e+002 -7.8809e+001  3.1292e+001 65018 67769,67925,67795
 3.9000e+000 68069 -1.0730e+002 -2.6036e+001  9.4190e+000 65018 67873,67925,67899
 3.9000e+000 68046 -1.4389e+002 -1.1950e+002  4.5266e+001 65018 67769,67951,67925
 3.9000e+000 68023 -1.4616e+002 -6.7698e+001  1.4077e+001 65018 67795,67873,67821
 3.9000e+000 68000 -1.3784e+002 -4.1858e+001 -7.9852e+000 65018 67821,67873,67847
 3.9000e+000 67977 -2.0220e+002 -2.3463e+002 -3.9705e+001 65018 67743,67951,67769
 3.9000e+000 68363 -4.8108e+001 -1.1204e+002  1.4251e+001 64820 68190,68242,68216
 3.9000e+000 68340 -8.2248e+001 -6.9224e+001  1.7710e+001 64820 68190,68268,68242
 3.9000e+000 68317 -3.8394e+001 -4.9252e+001  2.8929e+001 64820 68164,68268,68190
 3.9000e+000 68294 -1.3720e+002 -5.9352e+001  2.0845e+000 64820 68138,68268,68164
 3.9000e+000 68513 -6.0517e+001 -7.3931e+001 -3.5822e+001 64366 68868,68536,68438
 3.9000e+000 68490 -7.5191e+001 -9.8451e+001 -6.2276e+001 64366 68536,68412,68386
 3.9000e+000 68562 -2.5971e+001 -1.0759e+002 -3.0293e+001 64366 68740,68536,68464
 3.9000e+000 68585 -5.9306e+001 -1.8569e+002 -6.8427e+001 64366 68608,68536,68386
 3.9000e+000 68634 -2.9411e+001 -1.3761e+002 -5.3148e+001 64366 68464,68536,68608
 3.9000e+000 68766 -6.1121e+001 -8.6847e+001 -4.3659e+001 64366 68438,68536,68740
 3.9000e+000 68894 -6.9763e+001 -9.4890e+001 -4.0090e+001 64366 68412,68536,68868
 3.9000e+000 69172 -1.1004e+002 -8.9949e+001 -2.0504e+001 64168 69022,69074,69048
 3.9000e+000 69149 -9.2409e+001 -4.0018e+001 -2.9288e+001 64168 68996,69074,69022
 3.9000e+000 69126 -1.4022e+002 -1.4791e+002 -4.0877e+001 64168 68996,69100,69074
 3.9000e+000 69371 -5.7398e+001 -8.8797e+001 -5.3276e+001 63970 69466,69394,69273
 3.9000e+000 69348 -6.2503e+001 -8.2506e+001 -5.2344e+001 63970 69394,69247,69221
 3.9000e+000 69325 -2.7534e+001 -1.0405e+001 -9.7436e+001 63970 69195,69299,69221
 3.9000e+000 69420 -4.7163e+001 -8.6263e+001 -5.8326e+001 63970 69299,69273,69394
 3.9000e+000 69443 -5.6962e+001 -9.2189e+001 -6.1919e+001 63970 69299,69394,69221
 3.9000e+000 69492 -4.4758e+001 -7.5424e+001 -4.7108e+001 63970 69247,69394,69466
 3.9000e+000 69904 -5.7948e+001 -7.3439e+001 -3.2938e+000 63680 69705,69783,69731
 3.9000e+000 69881 -7.9117e+001 -6.8264e+001 -1.1825e+001 63680 69679,69783,69705
 3.9000e+000 69858 -7.2652e+001 -8.1570e+001 -9.8233e+000 63680 69679,69809,69783
 3.9000e+000 69835 -4.0287e+001 -8.4302e+001 -5.3275e+000 63680 69731,69783,69757
 3.9000e+000 70054 -3.8276e+001 -4.3190e+001 -2.4220e+001 63476 70077,69953,69927
 3.9000e+000 70031 -5.5877e+001 -3.1830e+001 -1.6883e+001 63476 70077,69927,70005
 3.9000e+000 70103 -3.1783e+001 -3.2747e+001 -2.9140e+001 63476 69979,69953,70077
 3.9000e+000 70126 -4.7667e+001 -2.0356e+001 -2.2980e+001 63476 69979,70077,70005
 3.9000e+000 70325 -1.0696e+002 -6.2021e+001 -1.6370e+001 63278 70149,70227,70175
 3.9000e+000 70302 -8.7854e+001 -3.9684e+001  6.4330e+000 63278 70149,70253,70227
 3.9000e+000 70279 -1.0493e+002 -8.7800e+001 -5.7936e+000 63278 70175,70227,70201
 3.9000e+000 70597 -7.4771e+001 -6.0934e+001 -4.2667e+001 63080 70372,70476,70424
 3.9000e+000 70574 -7.1905e+001 -3.0724e+001 -3.8545e+001 63080 70372,70502,70476
 3.9000e+000 70551 -5.4891e+001 -2.3216e+001 -4.9923e+001 63080 70424,70476,70450
 3.9000e+000 70528 -6.1766e+001 -6.1294e+001 -2.8080e+001 63080 70372,70424,70398
 3.9000e+000 70847 -5.1149e+001 -7.1858e+001 -3.6109e+001 62740 70870,70648,70622
 3.9000e+000 70824 -5.4663e+001 -9.4815e+001 -3.5590e+001 62740 70870,70622,70752
 3.9000e+000 70801 -4.4628e+001 -4.5661e+001 -2.8147e+001 62740 70648,70726,70700
 3.9000e+000 70778 -6.0987e+001 -3.1544e+001 -1.3409e+001 62740 70648,70700,70674
 3.9000e+000 70896 -5.5920e+001 -5.5233e+001 -2.2579e+001 62740 70726,70648,70870
 3.9000e+000 70919 -6.2922e+001 -8.0999e+001 -2.4222e+001 62740 70726,70870,70752
 3.9000e+000 71022 -2.2713e-001  2.2713e-001  4.5877e+001 62520 70944,70996,70970
 3.9000e+000 71223 -7.8047e+001 -1.0713e+002  2.4912e+001 62230 71073,71151,71099
 3.9000e+000 71200 -8.0565e+001 -1.1561e+002  1.0792e+001 62230 71047,71151,71073
 3.9000e+000 71177 -6.8504e+001 -1.4435e+002  9.2228e+000 62230 71099,71151,71125
 3.9000e+000 71861 -6.1188e+001 -2.2351e+001 -1.3938e+000 61712 71515,71697,71671
 3.9000e+000 71838 -5.6958e+001 -1.4491e+001  1.0254e+001 61712 71489,71697,71515
 3.9000e+000 71815 -4.8373e+001 -1.2774e+001 -1.8691e+001 61712 71884,71541,71515
 3.9000e+000 71792 -2.2574e+001 -2.1749e+001 -1.4684e+001 61712 71884,71515,71671
 3.9000e+000 71769 -3.0015e+001 -3.8046e+000 -2.1372e+000 61712 71541,71619,71593
 3.9000e+000 71746 -3.6937e+000 -9.2893e+000 -5.3032e+000 61712 71619,71671,71645
 3.9000e+000 71723 -3.7440e+001 -7.5069e+000 -5.2301e+000 61712 71541,71593,71567
 3.9000e+000 71910 -2.8922e+001 -8.3974e+000 -1.1686e+001 61712 71619,71541,71884
 3.9000e+000 71933 -5.2785e+000 -1.7238e+001 -6.4373e+000 61712 71619,71884,71671
 3.9000e+000 72230 -9.2569e+001 -1.3900e+002  1.6239e+001 61208 72253,72060,72008
 3.9000e+000 72207 -1.1673e+002 -1.2548e+002 -4.0125e+000 61208 72253,72008,71982
 3.9000e+000 72184 -8.2402e+001 -1.0096e+002  1.5914e+001 61208 71982,72112,72086
 3.9000e+000 72161 -1.2177e+002 -1.2997e+002  4.1760e+001 61208 72008,72060,72034
 3.9000e+000 72138 -7.2785e+001 -5.6204e+001  1.8638e+001 61208 71956,72112,71982
 3.9000e+000 72279 -5.7896e+001 -1.3053e+002  1.3943e+001 61208 72086,72060,72253
 3.9000e+000 72302 -9.0659e+001 -1.1998e+002 -1.1097e+000 61208 72086,72253,71982
 3.9000e+000 72761 -3.3777e+001 -7.0545e+001 -1.1998e+001 60804 72487,72617,72513
 3.9000e+000 72738 -1.4104e+001 -2.0987e+001 -1.8580e+001 60804 72487,72643,72617
 3.9000e+000 72715 -3.5955e+001 -1.1701e+002 -2.0140e+001 60804 72565,72617,72591
 3.9000e+000 72692 -5.8078e+001 -8.1238e+001 -9.4483e+000 60804 72513,72617,72565
 3.9000e+000 72669 -6.6098e+001 -1.0406e+002 -2.1413e+001 60804 72513,72565,72539
 3.9000e+000 72911 -2.2713e-001  2.2713e-001  4.5877e+001 60556 72784,72836,72810
 3.9000e+000 72888  4.8166e+001  8.0846e+000  2.0460e+001 60556 72784,72862,72836
 3.9000e+000 73468 -3.1453e+001 -5.6260e+001  4.0426e+000 60244 73491,73226,73200
 3.9000e+000 73445 -1.5059e+001 -1.0157e+001  6.0265e+000 60244 73563,73491,73200
 3.9000e+000 73422 -3.8258e+001  1.1958e+001  6.0238e+000 60244 73563,73200,73174
 3.9000e+000 73399 -5.4686e+001 -4.7723e+001 -1.6019e+001 60244 73226,73278,73252
 3.9000e+000 73376 -6.1293e+001 -3.7155e+001 -1.7452e+001 60244 73122,73304,73278
 3.9000e+000 73353 -7.7845e+001 -2.5827e+001 -3.0886e+001 60244 73096,73304,73122
 3.9000e+000 73330 -4.5261e+001  1.9371e+001  7.4102e+000 60244 73122,73174,73148
 3.9000e+000 73517 -3.6932e+001 -4.7677e+001 -2.1348e+001 60244 73278,73226,73491
 3.9000e+000 73540 -2.8413e+001 -3.0614e+001 -1.8021e+001 60244 73278,73491,73122
 3.9000e+000 73589 -3.7487e+001 -4.3771e+001 -9.0917e+000 60244 73122,73491,73563
 3.9000e+000 73612 -5.6058e+001 -1.7136e+001 -7.7435e+000 60244 73122,73563,73174
 3.9000e+000 73762  3.7510e+000  4.2392e+000  1.7330e+000 59875 73661,73713,73687
 3.9000e+000 73739  6.8329e+000  3.5392e+000  3.5810e+000 59875 73635,73713,73661
 3.9000e+000 74191 -7.9125e+001 -1.8326e+002  8.3689e+000 59478 74214,73894,73868
 3.9000e+000 74168 -9.6475e+001 -1.7760e+002  1.0700e+001 59478 74214,73868,74050
 3.9000e+000 74145 -1.3923e+002 -1.5014e+002 -5.6111e-001 59478 73894,73946,73920
 3.9000e+000 74122 -8.8588e+001 -1.8540e+002 -1.0911e+001 59478 73894,73998,73946
 3.9000e+000 74099 -1.2441e+002 -1.4291e+002  3.7509e+001 59478 73998,74050,74024
 3.9000e+000 74076 -1.1331e+002 -2.0095e+002 -2.4445e+001 59478 73946,73998,73972
 3.9000e+000 74240 -9.3893e+001 -1.8070e+002  3.0755e+000 59478 73998,73894,74214
 3.9000e+000 74263 -1.1203e+002 -1.7727e+002  2.6009e+000 59478 73998,74214,74050
 3.9000e+000 74720 -5.1579e+001 -4.2909e+001 -2.2620e+001 58774 74472,74602,74498
 3.9000e+000 74697 -1.1122e+001 -4.3235e+001 -2.8926e+001 58774 74446,74602,74472
 3.9000e+000 74674 -5.8341e+001 -5.2994e+001 -6.7145e+000 58774 74498,74576,74524
 3.9000e+000 74651 -3.4864e+001 -5.0489e+001 -1.1271e+001 58774 74498,74602,74576
 3.9000e+000 74628 -4.8835e+001 -7.1977e+001  1.0967e+001 58774 74524,74576,74550
 3.9000e+000 75226 -3.3691e+001 -1.0563e+002  8.5987e+000 58270 74955,75085,75033
 3.9000e+000 75203 -1.7542e+001 -9.9757e+001  1.5589e+001 58270 74929,75085,74955
 3.9000e+000 75180 -6.1256e+001 -1.2499e+002  2.8768e+001 58270 75033,75085,75059
 3.9000e+000 75157 -1.1144e+001 -1.6356e+002  1.8170e+001 58270 74955,75007,74981
 3.9000e+000 75134 -4.0558e+001 -1.0824e+002  5.1817e+000 58270 74955,75033,75007
 3.9000e+000 75111 -1.1745e+001 -9.0211e+001  2.4663e+001 58270 74903,75085,74929
 3.9000e+000 75425 -6.6856e+001 -1.2515e+002  1.7273e+001 57830 75448,75301,75249
 3.9000e+000 75402 -6.5975e+001 -8.9723e+001  4.7289e+000 57830 75448,75249,75353
 3.9000e+000 75379 -6.4283e+001 -1.7348e+002 -9.5355e+000 57830 75520,75301,75275
 3.9000e+000 75474 -6.9031e+001 -1.4208e+002  2.2060e+001 57830 75327,75301,75448
 3.9000e+000 75497 -7.9674e+001 -1.2899e+002  6.5418e+000 57830 75327,75448,75353
 3.9000e+000 75546 -4.9061e+001 -1.5333e+002 -1.6200e+001 57830 75249,75301,75520
 3.9000e+000 76261 -4.7879e+001 -5.9665e+001  4.6827e-001 57426 76284,76097,76071
 3.9000e+000 76238 -6.1189e+001 -6.2786e+001  4.7783e+000 57426 75889,76097,75915
 3.9000e+000 76215 -4.6103e+001 -4.8561e+001  1.5116e+001 57426 76428,76284,76071
 3.9000e+000 76192 -7.7960e+000 -4.4991e+001  6.4119e+000 57426 76356,75941,75915
 3.9000e+000 76169 -4.6311e+001 -5.2284e+001  1.5244e+001 57426 76428,76071,76019
 3.9000e+000 76146 -5.6273e+001 -8.0810e+001  1.2051e+001 57426 76019,76071,76045
 3.9000e+000 76123 -4.1304e+001 -5.8168e+001  2.9883e+001 57426 75967,76019,75993
 3.9000e+000 76310 -4.2216e+001 -4.9594e+001  1.0141e+001 57426 75915,76097,76284
 3.9000e+000 76333 -2.0711e+001 -4.9387e+001  1.2449e+001 57426 76356,75915,76284
 3.9000e+000 76382 -3.5343e+001 -4.3046e+001  1.2208e+001 57426 75967,75941,76356
 3.9000e+000 76405 -4.1662e+001 -4.1690e+001  1.7628e+001 57426 75967,76356,76284
 3.9000e+000 76454 -4.6673e+001 -5.2373e+001  1.5894e+001 57426 75967,76284,76428
 3.9000e+000 76477 -4.5737e+001 -5.4712e+001  1.5499e+001 57426 75967,76428,76019
 3.9000e+000 76953 -8.5297e+001 -4.3876e+001  8.0300e+000 56908 76976,76711,76685
 3.9000e+000 76930 -8.0706e+001 -4.0220e+001  1.9039e+001 56908 77048,76976,76685
 3.9000e+000 76907 -8.4297e+001 -4.0831e+001  2.0830e+001 56908 77048,76685,76633
 3.9000e+000 76884 -9.4437e+001 -8.9300e+000 -2.1288e+001 56908 76711,76789,76763
 3.9000e+000 76861 -9.7091e+001 -2.7479e+001 -9.0073e+000 56908 76581,76789,76607
 3.9000e+000 76838 -8.2019e+001 -6.2696e+000  9.3999e+000 56908 76711,76763,76737
 3.9000e+000 76815 -1.1009e+002 -8.5330e+001  5.6950e+001 56908 76633,76685,76659
 3.9000e+000 77002 -1.2030e+002 -5.1002e+001 -9.7108e+000 56908 76789,76711,76976
 3.9000e+000 77025 -9.0731e+001 -1.0738e+001  5.9788e+000 56908 76789,76976,76607
 3.9000e+000 77074 -8.6226e+001 -4.0471e+001  1.9107e+001 56908 76607,76976,77048
 3.9000e+000 77097 -8.7769e+001 -3.9250e+001  2.0736e+001 56908 76607,77048,76633
 3.9000e+000 77475 -8.4393e-001  2.1144e+000 -6.7276e-001 56546 77570,77498,77279
 3.9000e+000 77452 -1.5629e-001 -2.0746e-001 -5.1957e-001 56546 77498,77227,77357
 3.9000e+000 77429 -9.8386e-001  1.8246e+000 -2.8040e-001 56546 77570,77279,77253
 3.9000e+000 77406  3.4529e-001  1.1767e-001 -7.8408e-001 56546 77201,77357,77227
 3.9000e+000 77383 -2.5397e+000  3.9896e-001 -2.3686e+000 56546 77279,77331,77305
 3.9000e+000 77524 -6.5794e-001  3.2254e+000 -6.4347e-001 56546 77331,77279,77498
 3.9000e+000 77547  2.1781e+000  1.8744e+000  3.7296e-001 56546 77331,77498,77357
 3.9000e+000 77596 -1.1430e+000  1.6266e+000 -2.5998e-001 56546 77227,77498,77570
 3.9000e+000 77619 -1.4500e+000  8.9601e-001  1.2893e-001 56546 77227,77570,77253
 3.9000e+000 77818 -1.2744e+001 -6.0404e+000 -3.2756e+000 56042 77841,77694,77668
 3.9000e+000 77795 -2.1342e+001 -1.2204e+001  3.0882e+000 56042 77841,77668,77746
 3.9000e+000 77772 -3.0950e+001 -1.0698e+000 -1.5082e-002 56042 77642,77746,77668
 3.9000e+000 77867 -8.1085e+000 -7.0681e-001 -1.0410e+001 56042 77720,77694,77841
 3.9000e+000 77890 -1.7944e+001 -7.8621e+000 -3.8835e+000 56042 77720,77841,77746
 3.9000e+000 78349 -1.0114e+002 -1.5051e+002  8.8425e-001 55538 78075,78127,78101
 3.9000e+000 78326 -9.5653e+001 -1.4983e+002  7.6270e+000 55538 78075,78205,78127
 3.9000e+000 78303 -1.4408e+002 -1.4249e+002  3.0941e+001 55538 78075,78231,78205
 3.9000e+000 78280 -5.9996e+001 -1.5237e+002  5.1409e+001 55538 78127,78179,78153
 3.9000e+000 78257 -1.0572e+002 -1.3135e+002  2.0365e+001 55538 78127,78205,78179
 3.9000e+000 78806 -7.5162e+001 -6.3146e+001  7.5553e+000 55034 78829,78636,78610
 3.9000e+000 78783 -7.0289e+001 -8.1208e+001  5.1401e+000 55034 78901,78829,78610
 3.9000e+000 78760 -5.9714e+001 -1.0345e+002  1.9453e+001 55034 78901,78610,78584
 3.9000e+000 78737 -5.6933e+001 -5.3294e+001 -3.7424e+000 55034 78558,78688,78662
 3.9000e+000 78714 -3.9504e+001 -1.1274e+001  3.9647e+000 55034 78532,78688,78558
 3.9000e+000 78855 -6.3852e+001 -6.8963e+001  6.1179e+000 55034 78662,78636,78829
 3.9000e+000 78878 -5.2814e+001 -5.2376e+001 -2.6086e+000 55034 78662,78829,78558
 3.9000e+000 78927 -5.5103e+001 -5.0637e+001  1.0093e+001 55034 78558,78829,78901
 3.9000e+000 78950 -4.4136e+001 -6.7341e+001  2.2365e+001 55034 78558,78901,78584
 3.9000e+000 79407 -2.6736e+001 -7.0582e+001  1.3240e+001 54430 79430,79237,79159
 3.9000e+000 79384 -1.9539e+001 -6.4455e+001  1.7268e+001 54430 79430,79159,79133
 3.9000e+000 79361 -4.8400e+001 -9.2997e+001  8.6725e+000 54430 79237,79289,79263
 3.9000e+000 79338  1.5412e+000 -6.4898e+001 -2.2821e+000 54430 79185,79237,79211
 3.9000e+000 79315 -6.0970e+001 -7.9280e+001  1.9751e+001 54430 79159,79237,79185
 3.9000e+000 79456 -2.7106e+001 -6.3571e+001  1.8730e+001 54430 79289,79237,79430
 3.9000e+000 79479 -2.3503e+001 -5.7808e+001  2.1744e+001 54430 79289,79430,79133
 3.9000e+000 79936 -3.1414e+001 -8.4558e+001  1.2929e+001 53919 79662,79766,79688
 3.9000e+000 79913 -7.8828e+001 -1.1523e+002  3.1651e+001 53919 79662,79818,79766
 3.9000e+000 79890 -7.3676e+001 -1.3661e+002  5.0989e+001 53919 79766,79818,79792
 3.9000e+000 79867 -6.4344e+001 -1.1670e+002 -1.3948e-001 53919 79714,79766,79740
 3.9000e+000 79844 -5.7699e+001 -9.6060e+001  1.5449e+001 53919 79688,79766,79714
 3.9000e+000 80037 -7.3450e+001 -1.7140e+002  2.3325e+001 53671 79959,80011,79985
 3.9000e+000 80405 -8.3688e+001 -1.8531e+002  3.2922e+001 53267 80108,80264,80238
 3.9000e+000 80382 -1.1851e+002 -1.7425e+002  4.0431e+001 53267 80082,80264,80108
 3.9000e+000 80359 -7.4534e+001 -1.7390e+002  2.6624e+001 53267 80108,80238,80134
 3.9000e+000 80336 -4.6471e+001 -1.6715e+002  1.8038e+001 53267 80134,80212,80186
 3.9000e+000 80313 -1.2773e+002 -1.9616e+002  2.3689e+001 53267 80134,80238,80212
 3.9000e+000 80290 -4.1268e+001 -9.5436e+001  5.2319e+001 53267 80134,80186,80160
 3.9000e+000 80915 -9.1946e+001 -1.6293e+002  2.9508e+001 52969 80644,80774,80748
 3.9000e+000 80892 -8.3308e+001 -1.3175e+002  2.9291e+001 52969 80618,80774,80644
 3.9000e+000 80869 -1.0244e+002 -1.9885e+002  6.1542e+000 52969 80644,80748,80670
 3.9000e+000 80846 -1.3327e+002 -1.5285e+002  2.6271e+001 52969 80592,80774,80618
 3.9000e+000 80823 -1.3847e+002 -1.5287e+002  2.4728e+000 52969 80670,80722,80696
 3.9000e+000 80800 -1.1688e+002 -1.4182e+002 -1.6984e+001 52969 80670,80748,80722
 3.9000e+000 81266  1.0122e+000  1.5797e+000  1.8402e-002 52565 81041,81145,81067
 3.9000e+000 81243  2.2217e+000  3.6277e+000 -5.7141e-001 52565 81041,81171,81145
 3.9000e+000 81220 -1.6540e-001  1.2778e-001  3.8983e-001 52565 81067,81119,81093
 3.9000e+000 81197  6.7617e-001  9.9170e-002 -8.7462e-002 52565 81067,81145,81119
 3.9000e+000 81723 -6.5869e+000 -2.1979e+001 -7.9959e-001 51904 81449,81527,81475
 3.9000e+000 81700  2.7368e-001 -3.0568e+000  3.0744e-002 51904 81449,81579,81527
 3.9000e+000 81677 -3.8113e+000  2.4309e+000 -2.4898e+000 51904 81449,81605,81579
 3.9000e+000 81654 -3.7162e+000 -1.1214e+001 -2.9148e+000 51904 81527,81579,81553
 3.9000e+000 81631 -1.6032e+001 -2.1019e+001 -4.2859e+000 51904 81475,81527,81501
 3.9000e+000 82327 -5.0579e+001 -4.8439e+001  2.5906e+001 51321 82422,82350,82036
 3.9000e+000 82304 -5.5133e+001 -5.0316e+001  2.0384e+001 51321 82494,82350,81958
 3.9000e+000 82281 -4.9109e+001 -4.0678e+001  2.1577e+001 51321 82422,82036,82010
 3.9000e+000 82258 -5.5152e+001 -4.9469e+001  1.8880e+001 51321 82494,81958,81932
 3.9000e+000 82235 -5.9423e+001 -4.0907e+001  1.4277e+001 51321 82062,82114,82088
 3.9000e+000 82212 -9.9240e+001 -9.1664e+001  3.6296e+001 51321 81932,82140,82114
 3.9000e+000 82189 -2.9108e+001 -4.7511e+001  1.6188e+001 51321 81958,82010,81984
 3.9000e+000 82166 -3.9797e+001 -6.8033e+001  3.0819e+001 51321 81906,82140,81932
 3.9000e+000 82376 -5.4887e+001 -6.8414e+001  2.2920e+001 51321 82062,82036,82350
 3.9000e+000 82399 -5.6309e+001 -4.9932e+001  2.1548e+001 51321 82062,82350,82114
 3.9000e+000 82448 -4.3371e+001 -4.9963e+001  1.5809e+001 51321 81958,82350,82422
 3.9000e+000 82471 -4.1307e+001 -4.2250e+001  1.1424e+001 51321 81958,82422,82010
 3.9000e+000 82520 -5.5609e+001 -5.1699e+001  2.0347e+001 51321 82114,82350,82494
 3.9000e+000 82543 -5.5886e+001 -5.1289e+001  1.9017e+001 51321 82114,82494,81932
 3.9000e+000 83019 -5.3997e+001 -9.3054e+001  3.0260e+000 50817 82673,82751,82699
 3.9000e+000 82996 -4.0939e+001 -5.1285e+001  1.5955e+001 50817 83042,82673,82855
 3.9000e+000 82973 -3.4150e+001 -7.1982e+001  1.7436e+001 50817 83042,82855,82803
 3.9000e+000 82950 -6.8863e+001 -9.5116e+001  3.4754e+001 50817 82751,82803,82777
 3.9000e+000 82927 -3.6250e+001 -5.2005e+001  1.3756e+001 50817 82647,82855,82673
 3.9000e+000 82904 -8.1619e+001 -1.0855e+002  5.7092e+001 50817 82803,82855,82829
 3.9000e+000 82881 -5.1764e+001 -8.3619e+001  2.5868e+000 50817 82699,82751,82725
 3.9000e+000 83068 -4.7689e+001 -6.7683e+001  2.5971e+001 50817 82751,82673,83042
 3.9000e+000 83091 -3.4830e+001 -8.4240e+001  2.4780e+001 50817 82751,83042,82803
 3.9000e+000 83290 -2.8127e+001 -2.5371e+001  1.4900e+001 50356 83313,83166,83140
 3.9000e+000 83267 -3.5317e+001 -2.8087e+001  1.3328e+001 50356 83515,83313,83140
 3.9000e+000 83244 -3.1072e+001 -2.0064e+001  1.4987e+001 50356 83515,83140,83385
 3.9000e+000 83339 -1.4157e+001 -2.7104e+001  3.0446e+000 50356 83192,83166,83313
 3.9000e+000 83362 -3.9126e+001 -4.3075e+001 -5.1341e+000 50356 83192,83313,83218
 3.9000e+000 83411 -2.1801e+001 -8.7874e+000  1.4295e+001 50356 83114,83218,83385
 3.9000e+000 83541 -3.8837e+001 -1.9850e+001  7.4057e+000 50356 83218,83313,83515
 3.9000e+000 83564 -3.8251e+001 -1.8843e+001  7.8004e+000 50356 83218,83515,83385
 3.9000e+000 83893 -8.9949e+001 -1.6267e+002  5.8757e+000 49552 83720,83798,83746
 3.9000e+000 83870 -6.1278e+001 -1.4226e+002  2.8809e+001 49552 83694,83798,83720
 3.9000e+000 83847 -2.8837e+001 -1.3157e+002  3.3923e+001 49552 83668,83798,83694
 3.9000e+000 83824 -1.3962e+002 -1.7057e+002  8.8386e+000 49552 83746,83798,83772
 3.9000e+000 84141 -7.5451e+001 -4.8179e+001 -2.1012e+001 49212 84164,84020,83942
 3.9000e+000 84118 -5.1080e+001  1.0571e+001  1.4598e+000 49212 84164,83942,83916
 3.9000e+000 84095 -7.2341e+001 -3.0820e+001 -9.6398e+000 49212 83942,84020,83968
 3.9000e+000 84072 -3.6619e+001 -4.0956e+001  2.2076e+001 49212 83968,84020,83994
 3.9000e+000 84190 -9.7032e+001 -3.1779e+001 -5.5055e+001 49212 84046,84020,84164
 3.9000e+000 84213 -7.4336e+001  4.9196e+000 -3.3326e+001 49212 84046,84164,83916
 3.9000e+000 84800 -2.6142e+000 -1.4284e+001  3.9499e-001 48865 84503,84633,84555
 3.9000e+000 84777 -9.3562e+000 -1.7660e+001 -1.5375e+000 48865 84503,84659,84633
 3.9000e+000 84754 -2.5291e-001 -1.0086e+001 -2.1329e+000 48865 84555,84633,84581
 3.9000e+000 84731 -4.9182e+000 -1.3169e+001 -1.7985e+000 48865 84581,84633,84607
 3.9000e+000 84708 -2.3174e+000 -7.1901e+000 -5.7031e+000 48865 84503,84555,84529
 3.9000e+000 84685 -2.7170e+000 -1.7923e+000 -4.0801e-001 48865 84477,84659,84503
 3.9000e+000 85355 -4.1102e+001 -9.7858e+001  2.4302e+001 48461 85378,85035,85009
 3.9000e+000 85332 -4.4023e+001 -8.4862e+001  2.6415e+001 48461 85378,85009,85165
 3.9000e+000 85309 -2.8891e+001 -1.0867e+002  2.7955e+001 48461 85450,85061,85035
 3.9000e+000 85286 -5.1484e+001 -6.9989e+001  2.7484e+000 48461 85009,85191,85165
 3.9000e+000 85263 -6.3641e+001 -1.3191e+002  1.9503e+001 48461 85087,85165,85113
 3.9000e+000 85240 -4.2458e+001 -8.8722e+001 -1.8938e+001 48461 84983,85191,85009
 3.9000e+000 85217 -6.1723e+001 -1.4585e+002  1.0051e+001 48461 85113,85165,85139
 3.9000e+000 85404 -3.4538e+001 -9.4608e+001  2.2352e+001 48461 85450,85035,85378
 3.9000e+000 85427 -5.0745e+001 -9.6802e+001  1.8840e+001 48461 85087,85378,85165
 3.9000e+000 85476 -3.5810e+001 -1.2383e+002  2.6021e+001 48461 85087,85061,85450
 3.9000e+000 85499 -4.5239e+001 -1.1628e+002  1.8722e+001 48461 85087,85450,85378
 3.9000e+000 86084 -1.0527e+001 -7.4419e+001  3.4110e+001 48057 86323,86107,85787
 3.9000e+000 86061 -3.4338e+001 -7.0079e+001  2.5265e+001 48057 86107,85761,85943
 3.9000e+000 86038 -5.2921e+001 -7.5987e+001  1.2308e+001 48057 86251,86179,85891
 3.9000e+000 86015 -5.6491e+001 -7.8568e+001  7.2350e+000 48057 86251,85891,85839
 3.9000e+000 85992 -4.6716e+001 -6.2497e+001  9.7058e+000 48057 85891,85943,85917
 3.9000e+000 85969 -7.1438e+001 -1.0821e+002  1.2625e+001 48057 85839,85891,85865
 3.9000e+000 86133 -2.6252e+001 -1.0226e+002  2.5682e+001 48057 85813,85787,86107
 3.9000e+000 86156 -3.7170e+001 -7.7675e+001  1.6811e+001 48057 86179,85813,86107
 3.9000e+000 86205 -4.2185e+001 -6.2459e+001  1.7267e+001 48057 85943,85891,86179
 3.9000e+000 86228 -3.5187e+001 -7.5417e+001  1.8089e+001 48057 85943,86179,86107
 3.9000e+000 86277 -3.7922e+001 -7.8042e+001  1.7758e+001 48057 85813,86179,86251
 3.9000e+000 86300 -4.7320e+001 -8.4736e+001  1.2479e+001 48057 85813,86251,85839
 3.9000e+000 86349 -1.3097e+001 -8.0721e+001  3.0325e+001 48057 85761,86107,86323
 3.9000e+000 86855 -2.4419e+001 -2.3010e+001  8.7314e+000 47545 86878,86584,86558
 3.9000e+000 86832 -4.7512e+001 -3.3382e+001  1.3180e+001 47545 86950,86878,86558
 3.9000e+000 86809 -5.7138e+001 -2.9815e+001  1.5165e+001 47545 86950,86558,86532
 3.9000e+000 86786 -4.1572e+001 -1.8302e+001  5.2695e+000 47545 86584,86662,86610
 3.9000e+000 86763 -5.2330e+001 -3.2369e+001  5.0128e+000 47545 86532,86714,86688
 3.9000e+000 86740 -1.5038e+001 -9.3828e+000  1.2861e+001 47545 86610,86662,86636
 3.9000e+000 86904 -3.5203e+001 -2.4416e+001  1.0630e+000 47545 86662,86584,86878
 3.9000e+000 86927 -2.2254e+001 -2.2026e+001  3.6206e+000 47545 86662,86878,86688
 3.9000e+000 86976 -3.2768e+001 -2.6921e+001  6.5482e-001 47545 86688,86878,86950
 3.9000e+000 86999 -4.9504e+001 -3.2055e+001  4.8523e+000 47545 86688,86950,86532
 3.9000e+000 87328 -4.8967e+001 -1.7793e+002  1.8409e+001 47048 87155,87207,87181
 3.9000e+000 87305 -8.5423e+001 -1.7850e+002  3.0240e+001 47048 87129,87207,87155
 3.9000e+000 87282 -1.0961e+002 -1.8420e+002  3.1026e+001 47048 87103,87207,87129
 3.9000e+000 87259 -1.1499e+002 -1.9511e+002  3.4841e+001 47048 87103,87233,87207
 3.9000e+000 87576 -4.7033e+001 -1.9088e+002  3.2113e+001 46701 87599,87429,87377
 3.9000e+000 87553 -6.2785e+001 -1.9675e+002  3.4210e+001 46701 87599,87377,87481
 3.9000e+000 87530 -1.1653e+002 -2.2357e+002  1.8870e+001 46701 87351,87481,87377
 3.9000e+000 87507 -6.7871e+001 -1.8158e+002  5.0264e+001 46701 87377,87429,87403
 3.9000e+000 87625 -5.8557e+001 -1.6196e+002  1.8262e+001 46701 87455,87429,87599
 3.9000e+000 87648 -1.0088e+002 -1.8692e+002  2.9238e+001 46701 87455,87599,87481
 3.9000e+000 87798 -7.9412e+001 -1.0589e+002 -9.0002e+000 46239 87697,87749,87723
 3.9000e+000 87775 -1.1235e+002 -2.6297e+002  4.7285e+000 46239 87671,87749,87697
 3.9000e+000 88308 -7.1030e+001 -1.4273e+002  1.1218e+001 45735 88089,88167,88141
 3.9000e+000 88285 -5.7316e+001 -1.5962e+002  2.3914e+001 45735 88011,88167,88089
 3.9000e+000 88262 -5.9912e+001 -1.5165e+002  4.1040e+001 45735 87985,88167,88011
 3.9000e+000 88239 -1.4771e+002 -2.5631e+002  6.2806e+001 45735 88011,88089,88063
 3.9000e+000 88216 -1.1439e+002 -1.6472e+002 -8.1944e+000 45735 88089,88141,88115
 3.9000e+000 88193 -1.2909e+002 -2.0866e+002  1.0101e+002 45735 88011,88063,88037
 3.9000e+000 88686 -2.0755e+001  4.7971e+000  3.3236e+000 45316 88438,88516,88490
 3.9000e+000 88663 -3.4915e+001  6.4491e+000  3.0794e+001 45316 88438,88542,88516
 3.9000e+000 88640 -2.3684e+000 -7.0863e+000  2.4788e+001 45316 88438,88568,88542
 3.9000e+000 88617 -2.8449e+000  1.0889e+000  5.3177e+000 45316 88438,88490,88464
 3.9000e+000 88594 -1.7970e+001 -1.5603e+001  2.2268e+001 45316 88412,88568,88438
 3.9000e+000 88934 -3.7655e+001 -4.6077e+001  2.3296e+001 44812 88957,88735,88709
 3.9000e+000 88911 -2.5757e+001 -4.3518e+001  8.0395e+000 44812 88957,88709,88839
 3.9000e+000 88888 -2.3860e+001 -4.9216e+001  1.1305e+001 44812 89029,88787,88761
 3.9000e+000 88865 -2.4785e+001 -2.7054e+001  1.0140e+001 44812 88787,88839,88813
 3.9000e+000 88983  3.6941e+000 -3.2689e+001  3.0267e+001 44812 88761,88735,88957
 3.9000e+000 89006 -1.8374e+001 -4.5798e+001  1.2784e+001 44812 89029,88761,88957
 3.9000e+000 89055 -3.1501e+001 -4.3589e+001  1.0410e+001 44812 88839,88787,89029
 3.9000e+000 89078 -2.6843e+001 -3.9674e+001  1.2392e+001 44812 88839,89029,88957
 3.9000e+000 89228 -7.8497e+000 -2.0646e+001  1.0642e+001 44408 89127,89179,89153
 3.9000e+000 89205 -6.2051e+000 -2.0891e-001  2.2149e-001 44408 89101,89179,89127
 3.9000e+000 89787 -5.0584e+001 -7.0073e+001  2.2945e+001 43854 89810,89545,89519
 3.9000e+000 89764 -4.4990e+001 -5.7659e+001  2.4177e+001 43854 89810,89519,89467
 3.9000e+000 89741 -6.5461e+001 -6.1639e+001  9.0380e+000 43854 89954,89882,89597
 3.9000e+000 89718 -6.9391e+001 -5.9007e+001  1.5124e+001 43854 89954,89597,89571
 3.9000e+000 89695 -4.4790e+001 -7.6610e+001 -6.6054e-001 43854 89415,89623,89467
 3.9000e+000 89672 -5.3561e+001 -4.9749e+001  2.3829e+001 43854 89467,89519,89493
 3.9000e+000 89649 -1.6288e+001 -9.0017e+001 -1.6109e+001 43854 89415,89467,89441
 3.9000e+000 89836 -6.7606e+001 -7.1680e+001  9.8054e+000 43854 89882,89545,89810
 3.9000e+000 89859 -2.6687e+001 -6.1747e+001  9.9554e+000 43854 89623,89810,89467
 3.9000e+000 89908 -6.2345e+001 -6.8610e+001  1.7369e+001 43854 89623,89597,89882
 3.9000e+000 89931 -4.0931e+001 -6.7204e+001  1.9059e+001 43854 89623,89882,89810
 3.9000e+000 89980 -8.2774e+001 -6.8732e+001  1.2129e+001 43854 89545,89882,89954
 3.9000e+000 90003 -9.3455e+001 -7.0633e+001  1.9486e+001 43854 89545,89954,89571
 3.9000e+000 90251 -2.8895e+001 -3.1654e+001  4.6003e+000 43492 90026,90078,90052
 3.9000e+000 90228 -6.1812e+001 -3.6203e+001  1.7332e+001 43492 90274,90026,90156
 3.9000e+000 90205 -6.1979e+001 -3.6098e+001  1.7287e+001 43492 90346,90274,90156
 3.9000e+000 90182 -6.2952e+001 -5.2912e+001  3.9370e+001 43492 90346,90156,90130
 3.9000e+000 90300 -3.6919e+001 -3.7947e+001  1.8523e+001 43492 90078,90026,90274
 3.9000e+000 90323 -6.8628e+001 -4.5018e+001  2.3286e+001 43492 90078,90274,90104
 3.9000e+000 90372 -8.8705e+001 -5.7112e+001  3.3859e+001 43492 90104,90274,90346
 3.9000e+000 90395 -8.9547e+001 -7.6146e+001  5.6025e+001 43492 90104,90346,90130
 3.9000e+000 90594 -9.6955e+001 -2.2796e+002 -7.9671e+000 43052 90418,90496,90444
 3.9000e+000 90571 -1.2982e+002 -3.0918e+002  1.8518e+001 43052 90418,90522,90496
 3.9000e+000 90548 -1.0204e+002 -1.3625e+002  3.8446e+001 43052 90444,90496,90470
 3.9000e+000 91074 -1.9288e+002 -2.0786e+002  7.8444e+001 42434 91241,90884,90858
 3.9000e+000 91051 -9.2171e+001 -1.6452e+002  8.0463e+000 42434 90702,90910,90884
 3.9000e+000 91028 -7.2334e+001 -1.9356e+002  3.7234e+001 42434 91097,90754,90702
 3.9000e+000 91005 -1.5116e+002 -1.9034e+002  5.5850e+001 42434 91241,90858,91097
 3.9000e+000 90982 -7.8807e+001 -1.6069e+002  2.0102e+001 42434 91169,90806,90780
 3.9000e+000 90959 -8.7792e+001 -1.0248e+002 -9.1279e+000 42434 90806,90858,90832
 3.9000e+000 90936 -8.0573e+001 -2.0155e+002  3.4031e+001 42434 90702,90754,90728
 3.9000e+000 91123 -9.6298e+001 -2.0572e+002  4.2025e+001 42434 90780,90754,91097
 3.9000e+000 91146 -1.1096e+002 -1.8993e+002  5.0191e+001 42434 91169,90780,91097
 3.9000e+000 91195 -6.7329e+001 -1.4641e+002  1.9794e+000 42434 90858,90806,91169
 3.9000e+000 91218 -7.8378e+001 -1.3261e+002  2.7592e+001 42434 90858,91169,91097
 3.9000e+000 91267 -1.2404e+002 -2.3192e+002  5.5883e+001 42434 90702,90884,91241
 3.9000e+000 91290 -8.3217e+001 -2.1855e+002  3.5842e+001 42434 90702,91241,91097
 3.9000e+000 91698 -2.9389e+001 -6.7072e+001  2.1491e+001 41773 91473,91577,91499
 3.9000e+000 91675 -1.7422e+001 -5.1584e+001  9.6785e+000 41773 91473,91603,91577
 3.9000e+000 91652 -4.0465e+001 -6.3886e+001  1.1625e+001 41773 91499,91551,91525
 3.9000e+000 91629 -4.1262e+001 -6.6868e+001  2.1019e+001 41773 91499,91577,91551
 3.9000e+000 92044 -1.5706e+001 -1.2790e+001  8.5535e+000 41383 91773,91877,91851
 3.9000e+000 92021 -1.7258e+001 -1.5900e+001  5.6254e+000 41383 91747,91877,91773
 3.9000e+000 91998 -1.0093e+001 -1.5580e+001  1.0033e+001 41383 91773,91851,91799
 3.9000e+000 91975 -3.5461e+001 -7.2746e+000 -4.7347e+000 41383 91747,91903,91877
 3.9000e+000 91952 -1.4186e+001  4.0014e+000  3.8812e-001 41383 91721,91903,91747
 3.9000e+000 91929 -8.9837e-001 -2.1606e+001  1.4179e+000 41383 91799,91851,91825
 3.9000e+000 92601 -4.6457e+001 -7.1431e+001  1.5487e+001 40979 92229,92411,92307
 3.9000e+000 92578 -4.5922e+001 -6.4305e+001  1.1358e+001 40979 92229,92437,92411
 3.9000e+000 92555 -3.0677e+001 -1.1739e+002 -1.8058e+001 40979 92229,92307,92281
 3.9000e+000 92532 -4.5608e+001 -8.2057e+001  2.4573e+001 40979 92333,92411,92385
 3.9000e+000 92509 -6.0483e+001 -8.8217e+001  8.0884e+000 40979 92307,92411,92333
 3.9000e+000 92486 -1.7946e+001 -8.3766e+001 -1.6617e+001 40979 92229,92281,92255
 3.9000e+000 92463 -4.8554e+000 -6.5781e+001  3.0145e+001 40979 92333,92385,92359
 3.9000e+000 93235 -8.3415e+001 -1.1270e+002  6.0356e+000 40525 92941,92993,92967
 3.9000e+000 93212 -7.4873e+001 -9.7656e+001 -3.4527e+000 40525 93258,92941,92889
 3.9000e+000 93189 -4.4059e+001 -9.8446e+001  1.8464e+001 40525 93258,92889,93071
 3.9000e+000 93166 -9.7423e+001 -1.0540e+002  5.1805e+000 40525 92889,92941,92915
 3.9000e+000 93143 -3.0744e+001 -3.6015e+001  3.8814e+001 40525 92863,93071,92889
 3.9000e+000 93120 -5.1983e+001 -1.1804e+002  4.7900e+001 40525 92993,93071,93019
 3.9000e+000 93097 -1.0541e+002 -6.5966e+001  3.6572e+001 40525 93019,93071,93045
 3.9000e+000 93284 -6.5086e+001 -7.4945e+001  1.5452e+001 40525 92993,92941,93258
 3.9000e+000 93307 -3.0952e+001 -9.1090e+001  3.3299e+001 40525 92993,93258,93071
 3.9000e+000 93636 -7.1741e+001 -6.5334e+001  3.2377e+001 40235 93437,93541,93515
 3.9000e+000 93613 -5.3115e+001 -7.2167e+001  2.8542e+001 40235 93411,93541,93437
 3.9000e+000 93590 -3.0500e+001 -7.0062e+001  2.4741e+001 40235 93463,93515,93489
 3.9000e+000 93567 -3.5572e+001 -4.8217e+001  2.5438e+001 40235 93437,93515,93463
 3.9000e+000 94014 -1.7369e+001  5.4147e+000  9.5560e+000 39873 93766,93870,93792
 3.9000e+000 93991 -1.6117e+000  5.1008e+000  5.3547e+000 39873 93766,93896,93870
 3.9000e+000 93968 -2.9546e+001 -8.4371e+000  4.2870e+000 39873 93792,93870,93844
 3.9000e+000 93945 -1.6292e+001 -8.9485e+000  1.1132e+001 39873 93792,93844,93818
 3.9000e+000 93922 -6.3739e+000  3.2830e-001  9.5491e-001 39873 93740,93896,93766
 3.9000e+000 94164 -4.4675e+001 -1.0577e+002 -5.9021e-001 39461 94037,94089,94063
 3.9000e+000 94141 -5.6579e+001 -2.6957e+002  4.1878e+001 39461 94037,94115,94089
 3.9000e+000 94363 -1.2065e+000 -1.7495e+001  1.0082e+001 39057 94386,94239,94213
 3.9000e+000 94340  1.3564e+001  9.6807e+000 -6.5195e+000 39057 94386,94213,94187
 3.9000e+000 94317 -1.7236e+001 -7.9867e+000  1.6042e+001 39057 94187,94291,94265
 3.9000e+000 94412 -1.1599e+001 -1.6733e+001  2.0432e+001 39057 94458,94386,94265
 3.9000e+000 94435  2.1902e+000 -1.0402e+001  1.2997e+001 39057 94265,94386,94187
 3.9000e+000 94484  1.2517e+000 -3.5117e+001  1.2886e+001 39057 94239,94386,94458
 3.9000e+000 94896 -6.7661e+001 -4.5151e+001  2.9725e+001 38396 94919,94775,94723
 3.9000e+000 94873 -6.6661e+001 -4.0762e+001  3.1189e+001 38396 94919,94723,94697
 3.9000e+000 94850 -4.2077e+001 -3.5659e+001  6.4961e+000 38396 94723,94775,94749
 3.9000e+000 94827 -2.7882e+001 -2.4263e+001  2.1731e+001 38396 94671,94801,94697
 3.9000e+000 94945 -7.0800e+001 -4.1056e+001  2.7825e+001 38396 94801,94775,94919
 3.9000e+000 94968 -6.9699e+001 -3.6442e+001  2.8716e+001 38396 94801,94919,94697
 3.9000e+000 95265 -7.9726e+001 -1.0764e+002  4.1778e+001 37835 95017,95069,95043
 3.9000e+000 95242 -5.6933e+001 -7.8096e+001  3.2038e+001 37835 95288,95069,95017
 3.9000e+000 95219 -5.7845e+001 -8.2887e+001  3.8911e+001 37835 95288,95017,94991
 3.9000e+000 95196 -6.6840e+001 -9.6255e+001  3.8659e+001 37835 94991,95147,95121
 3.9000e+000 95173 -3.1668e+001 -6.1302e+001  2.9697e+001 37835 95069,95121,95095
 3.9000e+000 95314 -5.6140e+001 -6.7930e+001  2.9246e+001 37835 95121,95069,95288
 3.9000e+000 95337 -5.7421e+001 -7.5193e+001  3.5532e+001 37835 95121,95288,94991
 3.9000e+000 95558 -6.6205e-001 -2.7466e+000  7.5574e+000 37423 95408,95460,95434
 3.9000e+000 95535 -8.4715e-001  1.4107e+001 -6.8731e+000 37423 95382,95460,95408
 3.9000e+000 95512  9.9732e+000  2.0971e+001 -1.0045e+001 37423 95382,95486,95460
 3.9000e+000 95891 -4.9603e+001 -1.1600e+002  9.6541e+000 37225 95666,95718,95692
 3.9000e+000 95868 -1.1527e+002 -2.4949e+002  3.9522e+001 37225 95666,95796,95718
 3.9000e+000 95845 -1.1828e+002 -1.2872e+002  1.1566e+001 37225 95718,95770,95744
 3.9000e+000 95822 -4.9352e+001 -1.1376e+002 -4.3826e-001 37225 95718,95796,95770
 3.9000e+000 95992 -4.4443e+000 -1.1285e+001  8.3852e+000 36735 95914,95966,95940
 3.9000e+000 96142 -3.0972e+001 -4.2048e+000  1.3911e+001 36331 96297,96067,96041
 3.9000e+000 96119 -1.9565e+001 -1.1044e+001  4.9417e+000 36331 96165,96041,96015
 3.9000e+000 96191 -2.7096e+001 -4.6098e+000  6.6323e+000 36331 96297,96041,96165
 3.9000e+000 96323 -3.9411e+001 -1.4487e+001  2.0694e+001 36331 96093,96067,96297
 3.9000e+000 96346 -3.0037e+001 -1.2865e+001  1.2975e+001 36331 96093,96297,96165
 3.9000e+000 96714 -1.5745e+001 -9.3263e+000  1.3099e+001 36041 96737,96495,96443
 3.9000e+000 96691 -2.1900e+001 -7.8896e+000  1.3025e+001 36041 96737,96443,96417
 3.9000e+000 96668 -1.5493e+000 -6.6298e+000 -7.2446e+000 36041 96443,96495,96469
 3.9000e+000 96645 -5.3439e+000 -4.4185e+000  7.9611e+000 36041 96391,96521,96417
 3.9000e+000 96622 -2.6902e+000 -7.2996e+000  6.7136e+000 36041 96391,96547,96521
 3.9000e+000 96599 -7.4599e-001 -6.0071e+000  6.0676e+000 36041 96391,96573,96547
 3.9000e+000 96763 -3.0612e+000 -8.0895e+000  1.1882e+001 36041 96521,96495,96737
 3.9000e+000 96786 -1.6468e+001 -1.1877e+001  1.1454e+001 36041 96521,96737,96417
 3.9000e+000 96936 -5.6010e+001 -5.7679e+001  3.5697e+001 35637 97031,96959,96835
 3.9000e+000 96913 -3.0587e+001 -2.5008e+001  3.9683e+001 35637 97163,96959,96809
 3.9000e+000 96985 -4.8441e+001 -7.4664e+001  2.0567e+001 35637 96861,96835,96959
 3.9000e+000 97008 -4.8666e+001 -6.1130e+001  3.9784e+001 35637 96861,96959,96887
 3.9000e+000 97057 -2.3573e+001 -2.3253e+001  1.7301e+001 35637 96809,96959,97031
 3.9000e+000 97189 -3.6016e+001 -5.3127e+001  3.0908e+001 35637 96887,96959,97163
 3.9000e+000 97597 -4.2391e+001 -7.6497e+001  4.8628e+001 35190 97450,97502,97476
 3.9000e+000 97574 -4.7297e+001 -8.2580e+001  4.2763e+001 35190 97372,97502,97450
 3.9000e+000 97551 -5.6592e+001 -9.6955e+001  4.8628e+001 35190 97372,97450,97398
 3.9000e+000 97528 -4.8214e+001 -9.5676e+001  5.0959e+001 35190 97398,97450,97424
 3.9000e+000 98054 -5.2115e+000 -2.4390e+001  2.2146e+001 34636 97806,97936,97858
 3.9000e+000 98031 -2.1419e+001 -1.6193e+001  2.0446e+001 34636 97780,97936,97806
 3.9000e+000 98008 -2.3461e+001 -2.3465e+001  1.0238e+001 34636 97806,97858,97832
 3.9000e+000 97985 -3.4360e+000 -2.7698e+001  1.1774e+001 34636 97884,97936,97910
 3.9000e+000 97962 -1.3944e+000 -3.0690e+001  1.3912e+001 34636 97858,97936,97884
 3.9000e+000 98530 -9.7690e+001 -8.3466e+001  2.8697e+001 34068 98697,98184,98366
 3.9000e+000 98507  2.7039e+000 -6.3305e+001  2.5979e+001 34068 98158,98366,98184
 3.9000e+000 98484 -6.5278e+001 -9.2712e+001  2.8585e+001 34068 98553,98262,98236
 3.9000e+000 98461 -9.8092e+001 -1.0799e+002  2.4407e+001 34068 98553,98236,98210
 3.9000e+000 98438 -8.7340e+001 -8.3699e+001  1.4995e+001 34068 98841,98625,98366
 3.9000e+000 98415 -4.4069e+001 -1.0844e+002  2.7054e+001 34068 98769,98288,98262
 3.9000e+000 98392 -7.6713e+001 -8.0568e+001  1.2365e+001 34068 98841,98366,98340
 3.9000e+000 98579 -6.1827e+001 -9.9613e+001  1.6134e+001 34068 98769,98262,98553
 3.9000e+000 98602 -7.1026e+001 -9.4301e+001  1.4728e+001 34068 98625,98314,98553
 3.9000e+000 98651 -9.5108e+001 -8.6617e+001  3.1551e+001 34068 98697,98366,98625
 3.9000e+000 98674 -7.1342e+001 -9.5325e+001  3.5042e+001 34068 98210,98625,98553
 3.9000e+000 98723 -1.0255e+002 -8.7248e+001  3.1215e+001 34068 98210,98184,98697
 3.9000e+000 98746 -1.0087e+002 -8.9746e+001  3.2844e+001 34068 98210,98697,98625
 3.9000e+000 98795 -1.4656e+001 -9.8041e+001  2.5128e+001 34068 98314,98288,98769
 3.9000e+000 98818 -3.2896e+001 -8.9117e+001  1.5843e+001 34068 98314,98769,98553
 3.9000e+000 98867 -7.0692e+001 -9.4261e+001  1.4862e+001 34068 98314,98625,98841
 3.9000e+000 98890 -5.7744e+001 -8.8641e+001  1.1017e+001 34068 98314,98841,98340
 3.9000e+000 99268 -9.2529e+001 -1.2513e+002  5.3476e+001 33450 99291,99098,99072
 3.9000e+000 99245 -1.0164e+002 -1.0678e+002  3.4198e+001 33450 99291,99072,99020
 3.9000e+000 99222 -1.7309e+002 -1.1555e+002  6.6073e+001 33450 99020,99072,99046
 3.9000e+000 99199 -9.0879e+001 -1.0059e+002  3.6391e+001 33450 99020,99150,99124
 3.9000e+000 99176 -7.5688e+001 -4.4730e+001  1.4857e+001 33450 98994,99150,99020
 3.9000e+000 99317 -5.9287e+001 -1.0956e+002  4.9258e+001 33450 99124,99098,99291
 3.9000e+000 99340 -9.0562e+001 -1.0226e+002  3.3191e+001 33450 99124,99291,99020
 3.9000e+000 99865 -2.6825e+001 -3.9463e+001  1.2088e+001 32944 100176,99960,99888
 3.9000e+000 99842 -4.0932e+001 -5.3655e+001  1.5610e+001 32944 100104,99888,99522
 3.9000e+000 99819 -2.4953e+001 -3.1935e+001  9.2218e+000 32944 100248,99960,99626
 3.9000e+000 99796 -3.0517e+001 -4.4843e+001  1.2162e+001 32944 100032,99652,99626
 3.9000e+000 99773 -4.3126e+001 -7.2113e+001  1.1600e+001 32944 100104,99522,99496
 3.9000e+000 99750 -1.5984e+001 -4.2609e+001  1.1343e-001 32944 99574,99626,99600
 3.9000e+000 99727 -1.3742e+001 -4.3377e+001  1.1203e+001 32944 100248,99626,99574
 3.9000e+000 99704 -3.7080e+001 -5.1396e+001  2.4016e+001 32944 99444,99496,99470
 3.9000e+000 99914 -3.3023e+001 -4.3382e+001  1.4243e+001 32944 100176,99888,100032
 3.9000e+000 99937 -4.6230e+001 -4.2144e+001  2.7414e+001 32944 99678,99888,99444
 3.9000e+000 99986 -3.6758e+001 -3.3440e+001  1.3823e+001 32944 99522,99888,99960
 3.9000e+000 100009 -2.0833e+001 -1.3121e+001  2.6593e+001 32944 99522,99960,99548
 3.9000e+000 100058 -3.4616e+001 -4.6776e+001  1.1413e+001 32944 99678,99652,100032
 3.9000e+000 100081 -4.9426e+001 -4.7745e+001  1.5582e+001 32944 99678,100032,99888
 3.9000e+000 100130 -4.0626e+001 -4.3503e+001  2.7192e+001 32944 99444,99888,100104
 3.9000e+000 100153 -3.9645e+001 -5.3640e+001  2.1802e+001 32944 99444,100104,99496
 3.9000e+000 100202 -2.9942e+001 -3.6142e+001  6.8656e+000 32944 99626,99960,100176
 3.9000e+000 100225 -3.0434e+001 -3.6846e+001  8.2078e+000 32944 99626,100176,100032
 3.9000e+000 100274 -3.5398e+001 -4.5014e+001  1.5967e+001 32944 99548,99960,100248
 3.9000e+000 100297 -2.5341e+001 -5.6889e+001  1.8419e+001 32944 99548,100248,99574
 3.9000e+000 100754  2.4645e+001 -3.6189e+000  2.7236e-001 32369 100777,100584,100506
 3.9000e+000 100731  1.0650e+001 -1.1532e+001  3.4420e+000 32369 100777,100506,100636
 3.9000e+000 100708  1.9357e+000 -8.0922e+000  8.0122e+000 32369 100480,100636,100506
 3.9000e+000 100685 -3.0095e+001 -7.5740e+000  1.2463e+001 32369 100532,100584,100558
 3.9000e+000 100662  7.1506e+000 -2.3735e+000  2.0921e+001 32369 100506,100584,100532
 3.9000e+000 100803  1.0779e+001  4.4910e+000 -5.5579e+000 32369 100610,100584,100777
 3.9000e+000 100826  1.3149e+000 -1.1357e+000 -3.2581e+000 32369 100610,100777,100636
 3.9000e+000 101025 -4.5521e+000 -3.6684e+001  2.1031e+001 31857 100875,100927,100901
 3.9000e+000 101002 -3.8680e+001  3.8698e+000  3.2690e+001 31857 100875,100953,100927
 3.9000e+000 100979 -4.9583e+001  1.0321e+001 -2.4338e-001 31857 100849,100953,100875
 3.9000e+000 101533 -3.8090e+001 -7.5076e+001  2.9654e+001 31253 101556,101314,101236
 3.9000e+000 101510 -3.8106e+001 -7.5847e+001  3.0058e+001 31253 101556,101236,101210
 3.9000e+000 101487 -2.8794e+001 -7.7558e+001  2.1180e+001 31253 101210,101392,101340
 3.9000e+000 101464 -4.7476e+001 -7.5593e+001  2.3342e+001 31253 101236,101288,101262
 3.9000e+000 101441 -4.5830e+001 -8.5740e+001  3.3211e+001 31253 101236,101314,101288
 3.9000e+000 101418 -3.3395e+001 -1.0451e+002  3.4184e+001 31253 101340,101392,101366
 3.9000e+000 101582 -3.7877e+001 -7.4183e+001  2.9383e+001 31253 101340,101314,101556
 3.9000e+000 101605 -3.8018e+001 -7.5101e+001  2.9776e+001 31253 101340,101556,101210
 3.9000e+000 101755 -4.0484e+001 -9.4980e+001  1.4092e+001 30519 101778,101654,101628
 3.9000e+000 101732 -5.2617e+001 -1.3884e+002  4.0743e+001 30519 101850,101778,101628
 3.9000e+000 101804 -6.4981e+001 -3.2647e+001  1.5007e+001 30519 101680,101654,101778
 3.9000e+000 101827 -5.2111e+001 -1.0431e+002  2.0903e+001 30519 101680,101778,101706
 3.9000e+000 101876 -6.5408e+001 -1.5434e+002  5.6418e+000 30519 101706,101778,101850
 3.9000e+000 102561  5.6763e+000 -2.2340e+000  1.5750e+001 29951 102656,102584,102270
 3.9000e+000 102538 -3.2738e+001 -2.2366e+001  4.9600e+000 29951 102584,102140,102374
 3.9000e+000 102515 -1.2990e+001 -5.3302e+001  3.9816e+001 29951 102728,102656,102270
 3.9000e+000 102492 -9.4270e+000 -7.0895e+001  3.6965e+001 29951 102728,102270,102244
 3.9000e+000 102469 -7.5482e+000  6.5729e+000  9.8460e-001 29951 102800,102322,102296
 3.9000e+000 102446 -2.8554e+001 -2.4963e+001  2.1512e+000 29951 102166,102218,102192
 3.9000e+000 102423 -1.8518e+001 -2.3256e+001  7.0169e-001 29951 102166,102244,102218
 3.9000e+000 102400 -1.5828e+000 -5.9900e+000  4.7454e-001 29951 102322,102374,102348
 3.9000e+000 102610 -1.8112e+001 -5.1720e+000  9.5356e+000 29951 102296,102270,102584
 3.9000e+000 102633 -1.2136e+001 -7.3754e+000  2.8701e-001 29951 102800,102296,102584
 3.9000e+000 102682 -5.5767e+001 -4.1528e+001  3.5650e+001 29951 102140,102584,102656
 3.9000e+000 102705 -2.2717e+001 -4.7393e+001  5.4277e+001 29951 102140,102656,102166
 3.9000e+000 102754 -6.3511e+000 -3.1877e+001  4.7961e+001 29951 102166,102656,102728
 3.9000e+000 102777 -6.8042e+000 -4.9427e+001  4.1254e+001 29951 102166,102728,102244
 3.9000e+000 102826 -5.0526e+000 -9.5446e+000  7.3894e+000 29951 102374,102322,102800
 3.9000e+000 102849 -5.0741e+000 -1.5345e+001  8.3853e+000 29951 102374,102800,102584
 3.9000e+000 103048 -2.3559e+001 -5.5631e+001  1.3074e+001 29454 102872,102924,102898
 3.9000e+000 103025 -4.7481e+001 -1.8152e+002  3.4986e+001 29454 102872,102976,102924
 3.9000e+000 103002 -3.1855e+001 -1.1627e+002  3.3564e+001 29454 102924,102976,102950
 3.9000e+000 103296 -1.0796e+002 -1.1574e+002  4.9223e+001 29064 103319,103175,103123
 3.9000e+000 103273 -1.3351e+002 -1.1306e+002  5.9579e+001 29064 103319,103123,103071
 3.9000e+000 103250 -7.0647e+001 -8.7852e+001  3.4905e+001 29064 103123,103175,103149
 3.9000e+000 103227 -9.3718e+001 -1.0003e+002  7.5245e+001 29064 103071,103123,103097
 3.9000e+000 103345 -8.8098e+001 -1.1467e+002  3.9035e+001 29064 103201,103175,103319
 3.9000e+000 103368 -1.1507e+002 -9.9936e+001  4.1470e+001 29064 103201,103319,103071
 3.9000e+000 104006 -4.1361e+001 -1.4214e+001  1.8346e+001 28603 104101,104029,103712
 3.9000e+000 103983 -3.4333e+001 -7.9405e+000  1.4630e+001 28603 104173,104029,103660
 3.9000e+000 103960 -4.7607e+001 -1.1310e+001  1.8169e+001 28603 104101,103712,103686
 3.9000e+000 103937 -2.1497e+001 -1.1335e+001  1.3922e+001 28603 104173,103660,103634
 3.9000e+000 103914 -4.0822e+001 -3.9207e+001  1.6418e+001 28603 103764,103816,103790
 3.9000e+000 103891 -1.9521e+001 -8.0397e+000  1.0536e+001 28603 103634,103842,103816
 3.9000e+000 103868 -3.4665e+001 -1.7080e+001  2.5598e+001 28603 103712,103764,103738
 3.9000e+000 104055 -4.4823e+001 -1.3839e+001  2.1781e+001 28603 103764,103712,104029
 3.9000e+000 104078 -4.1905e+001 -1.2135e+001  2.0785e+001 28603 103764,104029,103816
 3.9000e+000 104127 -4.9281e+001 -1.4764e+001  1.6286e+001 28603 103660,104029,104101
 3.9000e+000 104150 -5.7895e+001 -1.3306e+001  1.7573e+001 28603 103660,104101,103686
 3.9000e+000 104199 -4.3825e+001 -1.0050e+001  1.8512e+001 28603 103816,104029,104173
 3.9000e+000 104222 -3.3779e+001 -1.4310e+001  1.6343e+001 28603 103816,104173,103634
 3.9000e+000 104600 -4.1670e+001 -8.1492e+001  1.6549e+001 28348 104623,104378,104326
 3.9000e+000 104577 -3.8061e+001 -9.0573e+001  3.1663e+001 28348 104623,104326,104482
 3.9000e+000 104554 -4.5289e+001 -8.0505e+001  1.7930e+001 28348 104326,104378,104352
 3.9000e+000 104531 -3.0435e+001  7.4038e-002  4.5819e+000 28348 104404,104456,104430
 3.9000e+000 104508 -4.1718e+001 -4.2811e+001  2.2165e+001 28348 104378,104456,104404
 3.9000e+000 104649 -3.5314e+001 -6.5045e+001  1.5344e+001 28348 104456,104378,104623
 3.9000e+000 104672 -3.1461e+001 -7.2531e+001  3.1195e+001 28348 104456,104623,104482
 3.9000e+000 104991 -3.3779e+001 -3.3078e+001  2.6603e+001 27951 104717,104847,104769
 3.9000e+000 104968 -7.9683e+000 -1.8918e+001  2.1062e+001 27951 104717,104873,104847
 3.9000e+000 104945 -9.4320e+000 -3.1063e+001  2.4766e+001 27951 104769,104847,104795
 3.9000e+000 104922  6.8739e+000  1.5493e+001  2.0481e+001 27951 104795,104847,104821
 3.9000e+000 104899 -1.6593e+001 -6.9840e+000  1.0739e+001 27951 104717,104769,104743
 3.9000e+000 105371 -7.0458e+001 -1.0684e+002  3.6523e+001 27447 105394,105201,105123
 3.9000e+000 105348 -8.2263e+001 -9.9823e+001  5.8917e+001 27447 105394,105123,105097
 3.9000e+000 105325 -1.2847e+002 -9.0350e+001  2.9714e+001 27447 105123,105201,105149
 3.9000e+000 105302 -6.1366e+001 -1.2638e+002  5.0829e+001 27447 105201,105253,105227
 3.9000e+000 105279 -6.4092e+001 -1.1960e+002 -8.7024e+000 27447 105149,105201,105175
 3.9000e+000 105420 -6.4599e+001 -8.9967e+001  3.6030e+001 27447 105253,105201,105394
 3.9000e+000 105443 -7.0983e+001 -7.2487e+001  5.7495e+001 27447 105253,105394,105097
 3.9000e+000 105998 -2.1478e+001 -3.1925e+001  2.3146e+001 27100 106165,106021,105704
 3.9000e+000 105975 -6.4273e+000 -7.9250e+000  1.9689e+001 27100 106309,106021,105652
 3.9000e+000 105952 -5.1266e+001 -4.5231e+001  4.3067e+001 27100 106093,105808,105782
 3.9000e+000 105929 -2.1852e+001 -3.5423e+001  2.2150e+001 27100 106165,105704,105678
 3.9000e+000 105906 -1.0380e+001 -3.7603e+001  1.6074e+001 27100 106237,105730,105704
 3.9000e+000 105883 -1.1880e+001 -1.9765e+001  1.2103e+001 27100 106309,105652,105626
 3.9000e+000 105860 -9.6331e+000 -2.4806e+000  3.1648e+000 27100 105730,105782,105756
 3.9000e+000 106047 -1.8622e+001 -2.4111e+001  2.3634e+001 27100 106237,105704,106021
 3.9000e+000 106070 -2.5511e+001 -2.4600e+001  3.1947e+001 27100 106093,105782,106021
 3.9000e+000 106119 -1.6207e+001 -3.4480e+001  1.9692e+001 27100 105834,105808,106093
 3.9000e+000 106142 -1.7799e+001 -4.5750e+001  2.7170e+001 27100 106381,106093,106021
 3.9000e+000 106191 -2.1567e+001 -2.5404e+001  2.9201e+001 27100 105652,106021,106165
 3.9000e+000 106214 -2.4935e+001 -3.6091e+001  2.9620e+001 27100 105652,106165,105678
 3.9000e+000 106263 -3.0277e+000 -2.1164e+001  1.3234e+001 27100 105782,105730,106237
 3.9000e+000 106286 -1.3339e+001 -1.0930e+001  2.1925e+001 27100 105782,106237,106021
 3.9000e+000 106335 -1.3937e+001 -2.5702e+001  2.1100e+001 27100 106381,106021,106309
 3.9000e+000 106358 -5.7564e+000 -8.5720e+000  8.4395e+000 27100 105834,106309,105626
 3.9000e+000 106407 -7.4107e+000 -2.1639e+001  1.4426e+001 27100 105834,106093,106381
 3.9000e+000 106430 -8.6616e+000 -1.6644e+001  7.1531e+000 27100 105834,106381,106309
 3.9000e+000 106629 -4.3929e+001 -1.1941e+002  2.7237e+001 26688 106479,106557,106531
 3.9000e+000 106606 -7.0570e+001 -1.6521e+002  1.3573e+001 26688 106453,106557,106479
 3.9000e+000 106583 -3.2120e+001 -9.7515e+001 -3.9218e+000 26688 106479,106531,106505
 3.9000e+000 107088 -1.9057e+001 -2.2345e+001  4.9216e-001 26248 107111,106918,106866
 3.9000e+000 107065 -1.9559e+001 -2.0051e+001  1.7093e+000 26248 107111,106866,106840
 3.9000e+000 107042 -3.6248e+001 -2.0171e+001 -3.2006e+000 26248 106814,106970,106840
 3.9000e+000 107019 -1.4591e+001 -2.2321e+001  3.9647e+000 26248 106866,106918,106892
 3.9000e+000 106996 -1.3215e+001 -1.9755e+001 -4.5342e+000 26248 106918,106970,106944
 3.9000e+000 107137 -2.1061e+001 -2.4979e+001 -2.2396e+000 26248 106970,106918,107111
 3.9000e+000 107160 -1.9636e+001 -2.0334e+001 -8.2658e-001 26248 106970,107111,106840
 3.9000e+000 107666 -3.4567e+001 -1.0951e+001  2.8661e+001 25908 107369,107499,107395
 3.9000e+000 107643 -4.1944e+001 -3.4977e+001  3.6416e+001 25908 107369,107525,107499
 3.9000e+000 107620 -1.8592e+001 -1.3413e+001  7.7570e+000 25908 107395,107473,107447
 3.9000e+000 107597 -1.2073e+001 -3.7755e+000  3.8487e+000 25908 107395,107499,107473
 3.9000e+000 107574 -5.8600e+001 -3.6128e+001  4.8659e+001 25908 107395,107447,107421
 3.9000e+000 107551 -9.9031e+000 -2.7095e+001  8.1772e+000 25908 107343,107525,107369
 3.9000e+000 108251  1.6848e+000 -3.8208e+000  3.0911e+000 25454 108274,108006,107954
 3.9000e+000 108228  2.4872e+000 -2.0205e+000  1.3440e+000 25454 108274,107954,108110
 3.9000e+000 108205 -1.1039e-001 -4.3013e+000  3.5980e+000 25454 108346,108032,108006
 3.9000e+000 108182 -6.2284e+000 -1.4158e+001  7.2331e+000 25454 107954,108006,107980
 3.9000e+000 108159 -1.1311e+000  6.4064e-001  1.9474e+000 25454 107928,108110,107954
 3.9000e+000 108136 -1.0196e+001 -6.9595e+000  8.9045e+000 25454 108058,108110,108084
 3.9000e+000 108300  1.7088e+000 -5.4420e+000  3.5447e+000 25454 108346,108006,108274
 3.9000e+000 108323  2.8877e+000 -3.4808e+000  3.8517e+000 25454 108058,108274,108110
 3.9000e+000 108372 -4.5494e+000 -4.6471e+000  4.4442e+000 25454 108058,108032,108346
 3.9000e+000 108395 -1.2649e+000 -4.8086e+000  4.8988e+000 25454 108058,108346,108274
 3.9000e+000 108822 -2.9582e+001 -2.6824e+001  8.5160e+000 24943 108525,108681,108655
 3.9000e+000 108799 -2.9659e+001 -1.6904e+001  5.0651e+000 24943 108499,108681,108525
 3.9000e+000 108776 -1.6580e+001 -2.1496e+001  1.4375e+000 24943 108525,108655,108629
 3.9000e+000 108753 -3.9596e+001 -1.6420e+001  1.3476e-001 24943 108525,108629,108603
 3.9000e+000 108730 -6.8750e+001 -3.3923e+001  1.2339e+001 24943 108551,108603,108577
 3.9000e+000 108707 -5.7507e+001 -3.3497e+001  1.2914e+001 24943 108525,108603,108551
 3.9000e+000 109407 -1.0126e+001 -2.9104e+001 -7.1376e+000 24745 109162,109214,109188
 3.9000e+000 109384 -3.5637e+001 -2.5525e+001 -6.9421e-001 24745 109162,109266,109214
 3.9000e+000 109361 -4.0150e+001 -2.5798e+001 -5.0091e+000 24745 109084,109266,109162
 3.9000e+000 109338 -6.0475e+001 -1.4132e+001  4.4014e+000 24745 109084,109162,109136
 3.9000e+000 109315 -2.4921e+001 -3.8164e+001  1.2434e+000 24745 109214,109266,109240
 3.9000e+000 109292 -3.4468e+001 -9.6074e+000  1.7265e+001 24745 109084,109136,109110
 3.9000e+000 109785 -5.4337e+001 -1.5950e+001  4.0751e+001 24341 109537,109615,109563
 3.9000e+000 109762  6.8578e+000  1.5780e+001  2.7343e+001 24341 109537,109641,109615
 3.9000e+000 109739 -3.4335e+001 -2.2103e+001  2.2919e+001 24341 109563,109615,109589
 3.9000e+000 109716 -1.5410e+001  5.2736e+000  2.0269e+001 24341 109537,109667,109641
 3.9000e+000 109693 -1.3446e+001 -1.2920e+001  1.0501e+001 24341 109511,109667,109537
 3.9000e+000 110163 -1.0186e+002 -7.9754e+001  5.2682e+001 23837 110186,109967,109915
 3.9000e+000 110140 -8.7312e+001 -7.8529e+001  5.7120e+001 23837 110186,109915,109889
 3.9000e+000 110117 -5.8198e+001 -4.4761e+001  5.1684e+001 23837 109889,110045,109993
 3.9000e+000 110094 -1.0676e+002 -9.8040e+001  5.1107e+001 23837 109915,109967,109941
 3.9000e+000 110071 -6.8915e+001 -8.7185e+000  1.1701e+001 23837 109993,110045,110019
 3.9000e+000 110212 -9.3491e+001 -7.4566e+001  5.8447e+001 23837 109993,109967,110186
 3.9000e+000 110235 -8.7456e+001 -7.5666e+001  6.3621e+001 23837 109993,110186,109889
 3.9000e+000 110336 -1.3841e+001 -3.2754e+001  1.8016e+001 23433 110258,110310,110284
 3.9000e+000 110584 -5.6978e+001 -4.3991e+001  1.0592e+001 22829 110607,110411,110385
 3.9000e+000 110561 -5.5675e+001 -4.5501e+001  2.4488e+001 22829 110607,110385,110489
 3.9000e+000 110538 -3.8747e+001 -4.1546e+001  2.0182e+001 22829 110437,110489,110463
 3.9000e+000 110515 -5.1835e+001 -3.9170e+001  2.6267e+001 22829 110359,110489,110385
 3.9000e+000 110633 -5.0778e+001 -2.8262e+001  9.8583e+000 22829 110437,110411,110607
 3.9000e+000 110656 -5.0748e+001 -3.4883e+001  2.2760e+001 22829 110437,110607,110489
 3.9000e+000 110906 -8.2920e+001 -3.5278e+001  2.8297e+001 22432 110707,110759,110733
 3.9000e+000 110883 -2.8415e+001 -3.5729e+001  1.7697e+001 22432 110707,110785,110759
 3.9000e+000 110860 -4.0972e+001 -3.7943e+001  3.0953e+001 22432 110707,110811,110785
 3.9000e+000 110837 -5.6967e+001 -4.2446e+001  2.2417e+001 22432 110681,110811,110707
 3.9000e+000 111288 -6.0113e+000 -1.1677e+001  7.3622e+000 22142 111092,111144,111118
 3.9000e+000 111265 -2.8150e+001 -9.3267e+000  3.2392e+000 22142 111066,111144,111092
 3.9000e+000 111242 -3.5777e+001 -2.2599e+001  1.1155e+001 22142 111040,111144,111066
 3.9000e+000 111219 -5.9144e+001 -1.1283e+001  7.5217e+000 22142 111014,111144,111040
 3.9000e+000 111196 -4.2166e+001 -1.4105e+001  1.9107e+001 22142 111014,111170,111144
 3.9000e+000 111389 -1.1139e+001 -2.5710e+001  3.5925e+001 21830 111311,111363,111337
 3.9000e+000 111735 -7.6892e+001 -4.4283e+001  4.5405e+001 21268 111758,111542,111438
 3.9000e+000 111712 -5.1556e+001 -3.3759e+001  3.8345e+001 21268 111758,111438,111412
 3.9000e+000 111689 -2.5454e+001 -5.8227e+001  4.5542e+001 21268 111438,111542,111464
 3.9000e+000 111666 -2.2335e+001 -5.8043e+001  7.0514e+001 21268 111464,111542,111490
 3.9000e+000 111643 -1.2577e+002 -7.1085e+001  6.6218e+001 21268 111412,111594,111568
 3.9000e+000 111620  7.3181e+000  8.9830e-001  9.7072e+001 21268 111490,111542,111516
 3.9000e+000 111784 -8.7005e+001 -4.0087e+001  5.6008e+001 21268 111568,111542,111758
 3.9000e+000 111807 -7.4730e+001 -4.3966e+001  5.2536e+001 21268 111568,111758,111412
 3.9000e+000 111959 -1.1604e+002 -1.4840e+001  2.4579e+001 20864 111982,111910,111884
 3.9000e+000 111936 -9.5785e+001 -2.5918e+001  4.3389e+001 20864 112114,111832,111910
 3.9000e+000 112008 -1.1056e+002 -4.2419e+001  3.6410e+001 20864 112114,111910,111982
 3.9000e+000 112140 -9.0483e+001 -4.7269e+001  2.7738e+001 20864 111858,111832,112114
 3.9000e+000 112163 -1.0526e+002 -6.5727e+001  2.0815e+001 20864 111858,112114,111982
 3.9000e+000 112411 -1.9573e+001 -3.7883e+000  8.3376e+000 20324 112186,112290,112212
 3.9000e+000 112388 -1.8229e+001 -4.1562e+000  9.2090e+000 20324 112186,112316,112290
 3.9000e+000 112365 -1.7448e-001 -1.8796e+001  5.8094e+000 20324 112212,112290,112264
 3.9000e+000 112342 -8.2732e+001 -3.5481e+001  2.2663e+000 20324 112212,112264,112238
 3.9000e+000 112659 -2.6343e+000 -9.3926e-001  2.7652e+001 19920 112512,112564,112538
 3.9000e+000 112636 -3.9896e+001 -1.2598e+001  1.5104e+001 19920 112434,112564,112512
 3.9000e+000 112613 -4.5635e+001 -3.0714e+001  1.6258e+001 19920 112434,112512,112460
 3.9000e+000 112590 -5.6042e+001 -3.4091e+001  1.9691e+001 19920 112460,112512,112486
 3.9000e+000 112811 -3.1424e+000 -1.3264e+000  6.0702e+000 19630 112684,112736,112710
 3.9000e+000 112788  6.4875e+000 -6.9945e+000  7.5355e-001 19630 112684,112762,112736
 3.9000e+000 113012 -3.4706e+001 -1.4748e+001  2.9957e+001 19169 112862,112940,112888
 3.9000e+000 112989 -7.1051e+001 -4.6723e+001  1.2809e+001 19169 112836,112940,112862
 3.9000e+000 112966 -2.7290e+001 -3.5464e+001  2.1142e+001 19169 112888,112940,112914
 3.9000e+000 113213 -1.4998e+001 -6.3889e+000  1.4842e+001 18600 113037,113089,113063
 3.9000e+000 113190  1.1228e+001 -7.6989e+000  9.4076e+000 18600 113037,113115,113089
 3.9000e+000 113167 -6.9120e+000 -2.3339e+001  1.8505e+001 18600 113037,113141,113115
 3.9000e+000 113485 -2.0322e+001 -8.6601e+000  1.8189e+001 18352 113260,113312,113286
 3.9000e+000 113462 -4.9424e+001 -4.1049e+001  3.1804e+001 18352 113260,113390,113312
 3.9000e+000 113439 -4.2623e+001 -3.1955e+000  2.0517e+001 18352 113312,113390,113364
 3.9000e+000 113416  1.0930e+001  4.8479e+000  2.2024e+001 18352 113312,113364,113338
 3.9000e+000 113757 -3.3091e+001 -1.4147e+001  2.0108e+001 17834 113558,113610,113584
 3.9000e+000 113734 -5.5945e+001 -4.0673e+001  3.4107e+001 17834 113532,113610,113558
 3.9000e+000 113711 -5.3728e+001 -3.6793e+001  2.8068e+001 17834 113532,113662,113610
 3.9000e+000 113688 -2.8419e+001 -1.1963e+001  3.8309e+001 17834 113610,113662,113636
 3.9000e+000 113958 -4.8042e+001 -2.0496e+001  2.7078e+001 17330 113782,113834,113808
 3.9000e+000 113935 -1.3856e+001 -8.1933e+000  1.4651e+001 17330 113782,113886,113834
 3.9000e+000 113912 -2.0541e+001 -1.0439e+001  8.9742e+000 17330 113834,113886,113860
 3.9000e+000 114110 -5.4938e+001 -2.3359e+001  3.5255e+001 16874 113983,114035,114009
 3.9000e+000 114087 -2.0048e+001 -4.6814e+001  2.6075e+001 16874 113983,114061,114035
 3.9000e+000 114465 -9.1485e+001 -3.9140e+001  2.1931e+001 16270 114240,114292,114266
 3.9000e+000 114442 -9.6571e+001 -1.8281e+001  9.5157e+000 16270 114240,114370,114292
 3.9000e+000 114419 -6.1645e+001 -2.6429e+001  8.2252e+000 16270 114292,114344,114318
 3.9000e+000 114396 -1.1767e+002 -5.2118e+001  5.4267e-001 16270 114292,114370,114344
 3.9000e+000 114566 -2.2713e-001  2.2713e-001  4.5877e+001 15834 114488,114540,114514
 3.9000e+000 114667 -5.4244e+001 -2.3047e+001  3.6388e+001 15155 114589,114641,114615
 3.9000e+000 114890 -2.8396e+001 -1.1604e+001  3.5260e+001 421 114766,114818,114792
 3.9000e+000 114867 -4.9683e+001 -4.8379e+001  2.5884e+001 421 114714,114818,114766
 3.9000e+000 114844 -7.9401e+001 -3.3950e+001  1.3562e+001 421 114714,114766,114740
 4.0000e+000 66553 -2.5782e+001 -5.2182e+001 -1.0961e+002 66108 66354,66458,66432
 4.0000e+000 66530 -2.1057e+001  8.9969e+000 -3.9374e+002 66108 66328,66458,66354
 4.0000e+000 66507 -9.4490e+001 -1.3039e+002 -7.8734e+001 66108 66354,66432,66406
 4.0000e+000 66484 -1.1436e+002 -4.8283e+001 -6.9180e+001 66108 66354,66406,66380
 4.0000e+000 66951 -6.6963e-001 -5.2664e-001 -7.0100e+000 65910 66703,66833,66807
 4.0000e+000 66928 -3.3978e+000  8.1057e-002 -1.0281e+001 65910 66677,66833,66703
 4.0000e+000 66905 -9.5488e+001 -5.1768e+001 -2.9625e+001 65910 66729,66781,66755
 4.0000e+000 66882 -2.2246e+001 -9.6438e+000 -9.8401e+000 65910 66729,66807,66781
 4.0000e+000 66859 -1.5729e+001 -1.1114e+001 -1.1876e+001 65910 66703,66807,66729
 4.0000e+000 67150 -4.0914e+001 -1.7956e+001 -6.7927e+000 65712 67026,67078,67052
 4.0000e+000 67127 -7.2381e+001 -1.2064e+001 -8.1870e+000 65712 66974,67078,67026
 4.0000e+000 67104 -1.7830e+002 -4.5249e+001 -3.9264e+001 65712 66974,67026,67000
 4.0000e+000 67481  2.7215e+000  6.1370e-001 -1.6627e+000 65422 67282,67360,67334
 4.0000e+000 67458 -1.0063e+000 -3.3349e-001 -3.1776e+000 65422 67282,67386,67360
 4.0000e+000 67435 -9.5757e-001 -7.0682e-001 -2.0023e+000 65422 67282,67334,67308
 4.0000e+000 67412 -2.2912e+000  1.7808e+001  1.7213e+000 65422 67256,67386,67282
 4.0000e+000 68115 -1.0626e+002 -9.9776e+001 -2.5696e+001 65018 67795,67925,67873
 4.0000e+000 68092 -1.0203e+002 -9.9909e+001 -4.0502e+000 65018 67769,67925,67795
 4.0000e+000 68069 -8.0175e+001 -2.9268e+001 -1.0570e+001 65018 67873,67925,67899
 4.0000e+000 68046 -8.5470e+001 -1.3711e+002  7.4739e+000 65018 67769,67951,67925
 4.0000e+000 68023 -1.0793e+002 -3.9792e+001 -1.8286e+001 65018 67795,67873,67821
 4.0000e+000 68000 -6.5562e+001 -2.1792e+001 -2.2879e+001 65018 67821,67873,67847
 4.0000e+000 67977 -1.0290e+002 -1.6166e+002  3.5260e+000 65018 67743,67951,67769
 4.0000e+000 68363 -6.1209e+001 -1.4220e+002 -2.7191e+001 64820 68190,68242,68216
 4.0000e+000 68340 -8.5931e+001 -8.5592e+001 -2.7659e+001 64820 68190,68268,68242
 4.0000e+000 68317 -3.8806e+001 -6.4402e+001 -1.6586e+001 64820 68164,68268,68190
 4.0000e+000 68294 -8.8805e+001 -3.8021e+001 -6.3262e+001 64820 68138,68268,68164
 4.0000e+000 68513 -3.5720e+001 -6.1580e+001 -6.7901e+001 64366 68868,68536,68438
 4.0000e+000 68490 -6.6328e+001 -1.5902e+002 -7.7240e+001 64366 68536,68412,68386
 4.0000e+000 68562 -7.3568e+000 -1.4083e+002 -5.7175e+001 64366 68740,68536,68464
 4.0000e+000 68585 -4.1150e+001 -2.4312e+002 -8.8456e+001 64366 68608,68536,68386
 4.0000e+000 68634 -1.3812e+001 -1.7669e+002 -8.4523e+001 64366 68464,68536,68608
 4.0000e+000 68766 -4.6988e+001 -1.0435e+002 -7.8448e+001 64366 68438,68536,68740
 4.0000e+000 68894 -5.2287e+001 -1.5316e+002 -7.7473e+001 64366 68412,68536,68868
 4.0000e+000 69172 -1.0593e+002 -1.0409e+002 -7.6633e+001 64168 69022,69074,69048
 4.0000e+000 69149 -7.3710e+001 -3.0829e+001 -9.1816e+001 64168 68996,69074,69022
 4.0000e+000 69126 -1.3788e+002 -1.7773e+002 -1.0140e+002 64168 68996,69100,69074
 4.0000e+000 69371 -5.9236e+001 -1.0530e+002 -8.7924e+001 63970 69466,69394,69273
 4.0000e+000 69348 -7.7229e+001 -1.1260e+002 -7.3991e+001 63970 69394,69247,69221
 4.0000e+000 69325  8.1434e+000  6.3132e+000 -1.3687e+002 63970 69195,69299,69221
 4.0000e+000 69420 -4.1046e+001 -1.0214e+002 -9.7154e+001 63970 69299,69273,69394
 4.0000e+000 69443 -6.0980e+001 -1.0492e+002 -8.8859e+001 63970 69299,69394,69221
 4.0000e+000 69492 -5.3150e+001 -1.0154e+002 -8.4688e+001 63970 69247,69394,69466
 4.0000e+000 69904 -6.9840e+001 -1.0497e+002 -2.6930e+001 63680 69705,69783,69731
 4.0000e+000 69881 -1.0264e+002 -8.0346e+001 -5.2370e+001 63680 69679,69783,69705
 4.0000e+000 69858 -8.5403e+001 -1.4871e+002 -3.9637e+001 63680 69679,69809,69783
 4.0000e+000 69835 -4.6911e+001 -5.5435e+001 -7.4817e+000 63680 69731,69783,69757
 4.0000e+000 70054 -4.0603e+001 -6.1415e+001 -3.4407e+001 63476 70077,69953,69927
 4.0000e+000 70031 -4.9911e+001 -3.9884e+001 -2.2159e+001 63476 70077,69927,70005
 4.0000e+000 70103 -4.4029e+001 -4.4024e+001 -4.3479e+001 63476 69979,69953,70077
 4.0000e+000 70126 -5.3136e+001 -2.2612e+001 -3.3188e+001 63476 69979,70077,70005
 4.0000e+000 70325 -9.6432e+001 -6.6283e+001 -6.9724e+001 63278 70149,70227,70175
 4.0000e+000 70302 -1.0284e+002 -4.5945e+001 -3.4994e+001 63278 70149,70253,70227
 4.0000e+000 70279 -1.2583e+002 -1.4809e+002 -7.2136e+001 63278 70175,70227,70201
 4.0000e+000 70597 -1.2013e+002 -1.0549e+002 -6.5636e+001 63080 70372,70476,70424
 4.0000e+000 70574 -1.0222e+002 -4.3505e+001 -5.3515e+001 63080 70372,70502,70476
 4.0000e+000 70551 -8.7485e+001 -3.6705e+001 -7.4802e+001 63080 70424,70476,70450
 4.0000e+000 70528 -7.8259e+001 -9.1889e+001 -5.6987e+001 63080 70372,70424,70398
 4.0000e+000 70847 -8.1312e+001 -1.1394e+002 -6.5218e+001 62740 70870,70648,70622
 4.0000e+000 70824 -8.6477e+001 -1.5899e+002 -6.5292e+001 62740 70870,70622,70752
 4.0000e+000 70801 -4.9889e+001 -6.0740e+001 -4.6488e+001 62740 70648,70726,70700
 4.0000e+000 70778 -6.2517e+001 -3.4339e-001 -2.4600e+001 62740 70648,70700,70674
 4.0000e+000 70896 -8.8575e+001 -8.1374e+001 -3.8681e+001 62740 70726,70648,70870
 4.0000e+000 70919 -1.0150e+002 -1.3230e+002 -4.3105e+001 62740 70726,70870,70752
 4.0000e+000 71022  9.2718e-004 -9.2718e-004 -2.8059e-001 62520 70944,70996,70970
 4.0000e+000 71223 -9.1623e+001 -1.2915e+002 -2.7492e+001 62230 71073,71151,71099
 4.0000e+000 71200 -7.0048e+001 -1.2417e+002 -3.5500e+001 62230 71047,71151,71073
 4.0000e+000 71177 -1.0098e+002 -1.3523e+002 -2.9776e+001 62230 71099,71151,71125
 4.0000e+000 71861 -4.2235e+001 -2.1138e+001  3.0018e-001 61712 71515,71697,71671
 4.0000e+000 71838 -4.4883e+001 -2.0697e+001 -1.8677e+001 61712 71489,71697,71515
 4.0000e+000 71815 -3.6053e+001 -5.5239e+000 -9.1616e+000 61712 71884,71541,71515
 4.0000e+000 71792 -1.2625e+001 -1.5705e+001 -4.9926e+000 61712 71884,71515,71671
 4.0000e+000 71769 -3.1827e+001 -5.5708e+000 -1.7174e+000 61712 71541,71619,71593
 4.0000e+000 71746 -1.7992e+000 -5.2616e+000  1.1128e+001 61712 71619,71671,71645
 4.0000e+000 71723 -6.3266e+000  9.7772e+000 -1.5450e+001 61712 71541,71593,71567
 4.0000e+000 71910 -1.8576e+001 -6.1105e-002 -2.8843e+000 61712 71619,71541,71884
 4.0000e+000 71933  3.3355e+000 -9.6786e+000  2.3248e+000 61712 71619,71884,71671
 4.0000e+000 72230 -7.4775e+001 -1.5519e+002 -1.5266e+001 61208 72253,72060,72008
 4.0000e+000 72207 -6.1386e+001 -1.1880e+002 -1.2343e+001 61208 72253,72008,71982
 4.0000e+000 72184 -8.6818e+001 -9.9985e+001 -1.9027e+001 61208 71982,72112,72086
 4.0000e+000 72161 -4.0329e+001 -1.2255e+002  1.0421e+001 61208 72008,72060,72034
 4.0000e+000 72138 -3.4326e+001 -6.0322e+001  5.8807e+000 61208 71956,72112,71982
 4.0000e+000 72279 -8.1824e+001 -1.2679e+002 -3.0517e+001 61208 72086,72060,72253
 4.0000e+000 72302 -7.8346e+001 -1.0648e+002 -2.9177e+001 61208 72086,72253,71982
 4.0000e+000 72761 -4.5265e+001 -9.4394e+001 -3.9055e+001 60804 72487,72617,72513
 4.0000e+000 72738 -6.0707e+001 -8.9684e+001 -2.9504e+001 60804 72487,72643,72617
 4.0000e+000 72715 -1.0983e+002 -1.0655e+002 -2.5711e+001 60804 72565,72617,72591
 4.0000e+000 72692 -7.6135e+001 -1.1646e+002 -2.6760e+001 60804 72513,72617,72565
 4.0000e+000 72669 -5.1651e+001 -6.1040e+001 -3.2722e+001 60804 72513,72565,72539
 4.0000e+000 72911  9.2718e-004 -9.2718e-004 -2.8059e-001 60556 72784,72836,72810
 4.0000e+000 72888  3.5833e-001 -8.4349e-001 -5.8277e-001 60556 72784,72862,72836
 4.0000e+000 73468 -3.9811e+001 -4.7042e+001 -3.8705e+001 60244 73491,73226,73200
 4.0000e+000 73445 -4.7713e+001 -6.6105e+001 -3.7657e+001 60244 73563,73491,73200
 4.0000e+000 73422 -3.2795e+001 -8.2231e+001 -3.7188e+001 60244 73563,73200,73174
 4.0000e+000 73399 -6.4079e+001 -3.2224e+001 -3.6283e+001 60244 73226,73278,73252
 4.0000e+000 73376 -9.4972e+001 -5.5747e+001 -4.3612e+001 60244 73122,73304,73278
 4.0000e+000 73353 -8.5966e+001 -6.5766e+001 -3.5659e+001 60244 73096,73304,73122
 4.0000e+000 73330 -3.1032e+001 -6.5258e+001 -6.6107e+000 60244 73122,73174,73148
 4.0000e+000 73517 -5.0406e+001 -5.1455e+001 -3.8353e+001 60244 73278,73226,73491
 4.0000e+000 73540 -4.1863e+001 -3.2800e+001 -3.6267e+001 60244 73278,73491,73122
 4.0000e+000 73589 -3.5161e+001 -4.1761e+001 -2.6737e+001 60244 73122,73491,73563
 4.0000e+000 73612 -2.2722e+001 -6.0638e+001 -2.6884e+001 60244 73122,73563,73174
 4.0000e+000 73762  2.0411e+000  1.6552e+000 -2.1935e+000 59875 73661,73713,73687
 4.0000e+000 73739  1.9550e+000  1.3478e+000 -1.2450e+000 59875 73635,73713,73661
 4.0000e+000 74191 -7.4693e+001 -1.7218e+002 -2.7932e+001 59478 74214,73894,73868
 4.0000e+000 74168 -7.7468e+001 -1.6916e+002 -2.8148e+001 59478 74214,73868,74050
 4.0000e+000 74145 -1.3099e+002 -1.2787e+002 -3.7377e+001 59478 73894,73946,73920
 4.0000e+000 74122 -1.1805e+002 -1.9302e+002 -3.3654e+001 59478 73894,73998,73946
 4.0000e+000 74099 -8.7135e+001 -1.6697e+002 -1.5591e+001 59478 73998,74050,74024
 4.0000e+000 74076 -8.0722e+001 -1.1357e+002 -2.0161e+001 59478 73946,73998,73972
 4.0000e+000 74240 -7.6297e+001 -1.7353e+002 -2.8926e+001 59478 73998,73894,74214
 4.0000e+000 74263 -7.9678e+001 -1.7171e+002 -2.9555e+001 59478 73998,74214,74050
 4.0000e+000 74720 -2.7582e+001 -9.4761e+001 -5.5033e+001 58774 74472,74602,74498
 4.0000e+000 74697 -3.5572e+001 -8.2424e+001 -4.5466e+001 58774 74446,74602,74472
 4.0000e+000 74674 -8.2414e+001 -1.3040e+002 -6.0469e+001 58774 74498,74576,74524
 4.0000e+000 74651 -2.7573e+001 -1.0551e+002 -5.3759e+001 58774 74498,74602,74576
 4.0000e+000 74628 -8.2707e+001 -1.4244e+002 -5.6287e+001 58774 74524,74576,74550
 4.0000e+000 75226 -5.9773e+001 -1.2696e+002 -1.6390e+001 58270 74955,75085,75033
 4.0000e+000 75203 -5.5366e+001 -8.2516e+001 -1.3993e+001 58270 74929,75085,74955
 4.0000e+000 75180 -4.5938e+001 -1.1332e+002 -2.5249e+001 58270 75033,75085,75059
 4.0000e+000 75157 -8.1502e+000 -1.5472e+002 -1.0736e+001 58270 74955,75007,74981
 4.0000e+000 75134 -6.7190e+001 -1.3113e+002 -1.0902e+001 58270 74955,75033,75007
 4.0000e+000 75111 -1.1404e+002 -1.0844e+002 -1.9007e+001 58270 74903,75085,74929
 4.0000e+000 75425 -9.0367e+001 -1.4806e+002 -1.6515e+001 57830 75448,75301,75249
 4.0000e+000 75402 -9.8425e+001 -1.1436e+002 -2.7720e+001 57830 75448,75249,75353
 4.0000e+000 75379 -4.5095e+001 -1.5639e+002 -4.4862e+001 57830 75520,75301,75275
 4.0000e+000 75474 -9.6570e+001 -1.6116e+002 -1.8171e+001 57830 75327,75301,75448
 4.0000e+000 75497 -1.1652e+002 -1.5085e+002 -3.3725e+001 57830 75327,75448,75353
 4.0000e+000 75546 -6.9291e+001 -1.3789e+002 -3.7686e+001 57830 75249,75301,75520
 4.0000e+000 76261 -7.7126e+001 -7.8004e+001 -3.2273e+001 57426 76284,76097,76071
 4.0000e+000 76238 -6.9816e+001 -6.5725e+001 -3.4432e+001 57426 75889,76097,75915
 4.0000e+000 76215 -6.8259e+001 -6.6649e+001 -2.0924e+001 57426 76428,76284,76071
 4.0000e+000 76192 -6.5117e+001 -7.0830e+001 -1.6881e+001 57426 76356,75941,75915
 4.0000e+000 76169 -7.0354e+001 -7.9372e+001 -2.1226e+001 57426 76428,76071,76019
 4.0000e+000 76146 -7.8807e+001 -1.1730e+002 -3.5294e+001 57426 76019,76071,76045
 4.0000e+000 76123 -5.3217e+001 -9.1538e+001  1.5838e+000 57426 75967,76019,75993
 4.0000e+000 76310 -6.5747e+001 -5.2079e+001 -2.9972e+001 57426 75915,76097,76284
 4.0000e+000 76333 -6.3898e+001 -7.2430e+001 -1.7511e+001 57426 76356,75915,76284
 4.0000e+000 76382 -6.3165e+001 -6.8367e+001 -1.5425e+001 57426 75967,75941,76356
 4.0000e+000 76405 -6.2402e+001 -6.9944e+001 -1.6295e+001 57426 75967,76356,76284
 4.0000e+000 76454 -6.7586e+001 -8.0425e+001 -1.8828e+001 57426 75967,76284,76428
 4.0000e+000 76477 -6.6390e+001 -8.8713e+001 -2.0638e+001 57426 75967,76428,76019
 4.0000e+000 76953 -1.0873e+002 -6.5249e+001 -5.6287e+000 56908 76976,76711,76685
 4.0000e+000 76930 -1.0638e+002 -5.7600e+001 -8.9703e+000 56908 77048,76976,76685
 4.0000e+000 76907 -8.8786e+001 -5.1877e+001 -1.7697e+001 56908 77048,76685,76633
 4.0000e+000 76884 -9.9977e+001 -7.7056e+001 -1.2802e+001 56908 76711,76789,76763
 4.0000e+000 76861 -7.2902e+001 -8.0931e+001 -2.8660e+001 56908 76581,76789,76607
 4.0000e+000 76838 -9.4781e+001 -7.8299e+001  3.9151e+000 56908 76711,76763,76737
 4.0000e+000 76815 -6.8748e+001 -6.1035e+001 -1.0873e+001 56908 76633,76685,76659
 4.0000e+000 77002 -1.0442e+002 -6.0849e+001 -1.2025e+001 56908 76789,76711,76976
 4.0000e+000 77025 -1.0188e+002 -7.0806e+001 -6.6267e+000 56908 76789,76976,76607
 4.0000e+000 77074 -7.9574e+001 -6.0496e+001 -1.1045e+001 56908 76607,76976,77048
 4.0000e+000 77097 -7.1072e+001 -6.3148e+001 -1.8347e+001 56908 76607,77048,76633
 4.0000e+000 77475 -1.0094e+000 -5.0412e-002 -7.7842e-001 56546 77570,77498,77279
 4.0000e+000 77452 -2.6650e-001  1.3278e+000 -5.4469e-001 56546 77498,77227,77357
 4.0000e+000 77429 -4.3423e-001  6.2818e-002 -1.8658e+000 56546 77570,77279,77253
 4.0000e+000 77406  1.5365e+000  2.1291e+000 -6.5859e-001 56546 77201,77357,77227
 4.0000e+000 77383 -5.7387e-001 -2.9212e+000 -1.5190e+000 56546 77279,77331,77305
 4.0000e+000 77524 -2.9126e-001 -1.0765e+000 -1.7585e-001 56546 77331,77279,77498
 4.0000e+000 77547  7.9506e-001  1.4287e-001 -1.0563e+000 56546 77331,77498,77357
 4.0000e+000 77596  8.9475e-001  4.7280e-001 -8.0285e-001 56546 77227,77498,77570
 4.0000e+000 77619  6.3992e-001  2.2178e-001 -1.9922e+000 56546 77227,77570,77253
 4.0000e+000 77818 -6.8948e+000 -5.0917e+000  1.1674e+001 56042 77841,77694,77668
 4.0000e+000 77795 -1.8790e+001 -3.2172e+000 -3.3915e+000 56042 77841,77668,77746
 4.0000e+000 77772 -2.3804e+000  7.3923e+000  2.7485e+000 56042 77642,77746,77668
 4.0000e+000 77867 -9.7539e+000 -1.7503e+001  4.4223e+000 56042 77720,77694,77841
 4.0000e+000 77890 -2.2152e+001 -1.4579e+001 -1.0679e+001 56042 77720,77841,77746
 4.0000e+000 78349 -1.0159e+002 -1.6612e+002 -1.1989e+001 55538 78075,78127,78101
 4.0000e+000 78326 -8.7712e+001 -1.4284e+002 -5.2456e+000 55538 78075,78205,78127
 4.0000e+000 78303 -5.1182e+001 -1.5199e+002 -2.3154e+001 55538 78075,78231,78205
 4.0000e+000 78280 -7.3510e+001 -1.2475e+002  5.7796e+000 55538 78127,78179,78153
 4.0000e+000 78257 -7.5498e+001 -1.2429e+002  4.8367e+000 55538 78127,78205,78179
 4.0000e+000 78806 -6.1674e+001 -4.9519e+001 -6.4383e+000 55034 78829,78636,78610
 4.0000e+000 78783 -4.6883e+001 -8.0118e+001 -1.3716e+001 55034 78901,78829,78610
 4.0000e+000 78760 -5.2866e+001 -1.1000e+002  3.1467e+000 55034 78901,78610,78584
 4.0000e+000 78737 -7.1919e+001 -5.2926e+001 -3.7908e+001 55034 78558,78688,78662
 4.0000e+000 78714 -6.7182e+001 -3.6361e+001 -6.5543e+000 55034 78532,78688,78558
 4.0000e+000 78855 -3.3480e+001 -2.6383e+001  3.6258e+000 55034 78662,78636,78829
 4.0000e+000 78878 -2.5847e+001 -4.1373e+001 -2.4972e+001 55034 78662,78829,78558
 4.0000e+000 78927 -4.1628e+001 -4.7071e+001 -2.0230e+001 55034 78558,78829,78901
 4.0000e+000 78950 -3.3511e+001 -6.4406e+001 -8.0785e+000 55034 78558,78901,78584
 4.0000e+000 79407 -3.6146e+001 -7.7516e+001 -3.0941e+001 54430 79430,79237,79159
 4.0000e+000 79384 -1.7038e+001 -7.1752e+001 -3.1734e+001 54430 79430,79159,79133
 4.0000e+000 79361 -1.8989e+001 -8.2978e+001 -3.8528e+000 54430 79237,79289,79263
 4.0000e+000 79338 -4.0648e+001 -8.6148e+001 -2.4936e+001 54430 79185,79237,79211
 4.0000e+000 79315 -2.9170e+001 -8.3634e+001 -2.9990e+001 54430 79159,79237,79185
 4.0000e+000 79456 -3.9677e+001 -7.2190e+001 -2.1298e+001 54430 79289,79237,79430
 4.0000e+000 79479 -2.9330e+001 -7.2108e+001 -2.2250e+001 54430 79289,79430,79133
 4.0000e+000 79936 -7.8872e+001 -1.1304e+002 -1.6281e+001 53919 79662,79766,79688
 4.0000e+000 79913 -8.4472e+001 -1.1777e+002 -1.3834e+001 53919 79662,79818,79766
 4.0000e+000 79890 -9.8534e+001 -1.2997e+002 -2.5783e+001 53919 79766,79818,79792
 4.0000e+000 79867 -9.7926e+001 -1.1671e+002 -1.4207e+001 53919 79714,79766,79740
 4.0000e+000 79844 -5.3861e+001 -1.0498e+002 -1.4984e+001 53919 79688,79766,79714
 4.0000e+000 80037 -5.6624e+001 -1.3213e+002 -2.2287e+001 53671 79959,80011,79985
 4.0000e+000 80405 -1.1663e+002 -2.3688e+002  1.9542e+001 53267 80108,80264,80238
 4.0000e+000 80382 -1.4945e+002 -2.0076e+002  3.9478e+001 53267 80082,80264,80108
 4.0000e+000 80359 -8.6392e+001 -2.0154e+002  3.9982e-001 53267 80108,80238,80134
 4.0000e+000 80336 -7.9372e+001 -2.1376e+002 -1.0272e+001 53267 80134,80212,80186
 4.0000e+000 80313 -1.4629e+002 -2.3146e+002 -9.8834e+000 53267 80134,80238,80212
 4.0000e+000 80290 -7.9436e+001 -1.8546e+002  7.0385e+000 53267 80134,80186,80160
 4.0000e+000 80915 -8.2828e+001 -1.4019e+002  1.1292e+001 52969 80644,80774,80748
 4.0000e+000 80892 -8.7321e+001 -1.6594e+002  1.3377e+001 52969 80618,80774,80644
 4.0000e+000 80869 -8.2322e+001 -1.6801e+002 -8.4861e+000 52969 80644,80748,80670
 4.0000e+000 80846 -6.5815e+001 -1.4809e+002  2.6146e+001 52969 80592,80774,80618
 4.0000e+000 80823 -1.2323e+002 -1.6558e+002 -1.7560e+000 52969 80670,80722,80696
 4.0000e+000 80800 -1.1510e+002 -1.5935e+002 -3.5197e+001 52969 80670,80748,80722
 4.0000e+000 81266 -1.4512e+000 -2.8458e-001 -1.1385e+000 52565 81041,81145,81067
 4.0000e+000 81243 -6.7437e-001 -1.5720e+000 -1.8246e+000 52565 81041,81171,81145
 4.0000e+000 81220 -7.2475e-001  7.7737e-002  1.0440e-001 52565 81067,81119,81093
 4.0000e+000 81197  3.9996e-001  9.8076e-001 -2.9038e-001 52565 81067,81145,81119
 4.0000e+000 81723 -6.4241e+000 -1.2239e+001  4.0578e+000 51904 81449,81527,81475
 4.0000e+000 81700 -1.0854e+000 -1.3282e+000  2.2842e+000 51904 81449,81579,81527
 4.0000e+000 81677 -4.7489e+000 -8.5732e+000  5.4174e+000 51904 81449,81605,81579
 4.0000e+000 81654 -1.8307e-001 -1.4596e+001 -1.9608e+000 51904 81527,81579,81553
 4.0000e+000 81631 -1.7290e+001 -8.4388e+000 -2.0028e+000 51904 81475,81527,81501
 4.0000e+000 82327 -5.8663e+001 -7.1572e+001 -3.8424e+000 51321 82422,82350,82036
 4.0000e+000 82304 -5.4587e+001 -7.5171e+001 -6.4890e+000 51321 82494,82350,81958
 4.0000e+000 82281 -5.8685e+001 -6.9846e+001 -5.5973e+000 51321 82422,82036,82010
 4.0000e+000 82258 -5.6672e+001 -7.1726e+001 -1.3652e+001 51321 82494,81958,81932
 4.0000e+000 82235 -6.0453e+001 -8.0497e+001 -3.1057e+000 51321 82062,82114,82088
 4.0000e+000 82212 -4.3927e+001 -8.6329e+001 -1.2732e+001 51321 81932,82140,82114
 4.0000e+000 82189 -4.1181e+001 -9.4272e+001 -2.8997e+000 51321 81958,82010,81984
 4.0000e+000 82166 -4.5264e+001 -8.8601e+001 -1.3064e+001 51321 81906,82140,81932
 4.0000e+000 82376 -5.8565e+001 -6.6725e+001 -3.3849e+000 51321 82062,82036,82350
 4.0000e+000 82399 -5.8158e+001 -7.5504e+001 -2.6187e+000 51321 82062,82350,82114
 4.0000e+000 82448 -5.5989e+001 -7.1434e+001 -6.0634e+000 51321 81958,82350,82422
 4.0000e+000 82471 -5.5733e+001 -6.9652e+001 -7.8263e+000 51321 81958,82422,82010
 4.0000e+000 82520 -5.8545e+001 -8.3378e+001 -7.8126e+000 51321 82114,82350,82494
 4.0000e+000 82543 -6.0346e+001 -8.1705e+001 -1.4049e+001 51321 82114,82494,81932
 4.0000e+000 83019 -4.5953e+001 -1.3551e+002 -2.3581e+000 50817 82673,82751,82699
 4.0000e+000 82996 -3.6227e+001 -9.0097e+001 -3.1322e+000 50817 83042,82673,82855
 4.0000e+000 82973 -4.0547e+001 -9.6061e+001 -5.0837e+000 50817 83042,82855,82803
 4.0000e+000 82950 -1.0698e+001 -9.3994e+001 -5.2771e+000 50817 82751,82803,82777
 4.0000e+000 82927 -2.1206e+001 -6.0256e+001  2.5209e+001 50817 82647,82855,82673
 4.0000e+000 82904 -5.0306e+001 -9.1622e+001  7.8453e+000 50817 82803,82855,82829
 4.0000e+000 82881 -5.3184e+001 -1.4094e+002  3.4521e+000 50817 82699,82751,82725
 4.0000e+000 83068 -2.8034e+001 -9.5282e+001  1.5963e+000 50817 82751,82673,83042
 4.0000e+000 83091 -3.3488e+001 -1.0187e+002 -7.6948e-001 50817 82751,83042,82803
 4.0000e+000 83290 -4.0171e+001 -2.7149e+001  2.3887e+000 50356 83313,83166,83140
 4.0000e+000 83267 -5.1867e+001 -3.8759e+001 -2.4560e+000 50356 83515,83313,83140
 4.0000e+000 83244 -4.1192e+001 -3.8921e+001  9.0633e+000 50356 83515,83140,83385
 4.0000e+000 83339 -1.7550e+001 -4.1967e+001 -2.0084e+001 50356 83192,83166,83313
 4.0000e+000 83362 -6.3679e+001 -6.8384e+001 -3.1637e+001 50356 83192,83313,83218
 4.0000e+000 83411 -5.3571e+001 -5.4818e+001  1.2058e+001 50356 83114,83218,83385
 4.0000e+000 83541 -7.3128e+001 -4.2619e+001 -2.9457e+000 50356 83218,83313,83515
 4.0000e+000 83564 -6.9305e+001 -4.8784e+001  6.8681e+000 50356 83218,83515,83385
 4.0000e+000 83893 -8.3470e+001 -1.9496e+002 -1.0008e+001 49552 83720,83798,83746
 4.0000e+000 83870 -4.5959e+001 -1.5954e+002  1.6444e+001 49552 83694,83798,83720
 4.0000e+000 83847 -3.5004e+001 -2.0738e+002 -3.4144e+000 49552 83668,83798,83694
 4.0000e+000 83824 -1.0372e+002 -2.1249e+002 -2.2981e+000 49552 83746,83798,83772
 4.0000e+000 84141 -5.9641e+001 -3.6190e+001 -3.5668e+001 49212 84164,84020,83942
 4.0000e+000 84118 -4.5394e+001 -1.6772e+000 -7.4160e+000 49212 84164,83942,83916
 4.0000e+000 84095 -9.8598e+001 -1.2134e+001 -1.2921e+001 49212 83942,84020,83968
 4.0000e+000 84072 -5.5183e+001 -2.2139e+001  2.4537e+001 49212 83968,84020,83994
 4.0000e+000 84190 -8.6947e+001 -3.0705e+001 -5.6996e+001 49212 84046,84020,84164
 4.0000e+000 84213 -6.8136e+001 -8.1971e+000 -3.0287e+001 49212 84046,84164,83916
 4.0000e+000 84800 -6.8227e+000 -2.2567e+001  6.1769e+000 48865 84503,84633,84555
 4.0000e+000 84777 -8.2972e+000 -1.4235e+001  7.7729e+000 48865 84503,84659,84633
 4.0000e+000 84754  2.5078e+000 -1.4622e+000  4.4098e+000 48865 84555,84633,84581
 4.0000e+000 84731  4.6915e-001 -3.2167e+000  4.0908e+000 48865 84581,84633,84607
 4.0000e+000 84708 -1.8137e+000 -7.3333e+000 -5.7727e+000 48865 84503,84555,84529
 4.0000e+000 84685 -1.0191e+001 -1.8059e+001  9.8722e+000 48865 84477,84659,84503
 4.0000e+000 85355 -7.0463e+001 -1.3663e+002  1.3582e+001 48461 85378,85035,85009
 4.0000e+000 85332 -5.3627e+001 -1.1906e+002  5.8763e+000 48461 85378,85009,85165
 4.0000e+000 85309 -2.6648e+001 -1.3667e+002  1.5714e+001 48461 85450,85061,85035
 4.0000e+000 85286 -5.8720e+001 -1.0722e+002 -1.2424e+001 48461 85009,85191,85165
 4.0000e+000 85263 -8.3689e+001 -1.5937e+002 -1.3322e+001 48461 85087,85165,85113
 4.0000e+000 85240 -4.2669e+001 -1.0332e+002 -1.3725e+001 48461 84983,85191,85009
 4.0000e+000 85217 -8.0820e+001 -1.6811e+002 -2.1623e+001 48461 85113,85165,85139
 4.0000e+000 85404 -3.8669e+001 -1.2235e+002  1.0237e+001 48461 85450,85035,85378
 4.0000e+000 85427 -6.3190e+001 -1.3027e+002 -6.3705e-001 48461 85087,85378,85165
 4.0000e+000 85476 -4.0971e+001 -1.4809e+002  6.5401e+000 48461 85087,85061,85450
 4.0000e+000 85499 -5.8666e+001 -1.4208e+002 -1.1275e+000 48461 85087,85450,85378
 4.0000e+000 86084 -8.2032e+000 -6.7430e+001  2.3001e+001 48057 86323,86107,85787
 4.0000e+000 86061 -3.9685e+001 -8.8563e+001  2.7970e+000 48057 86107,85761,85943
 4.0000e+000 86038 -6.4412e+001 -9.4053e+001 -1.4132e+001 48057 86251,86179,85891
 4.0000e+000 86015 -7.2902e+001 -1.1503e+002 -1.4260e+001 48057 86251,85891,85839
 4.0000e+000 85992 -3.1741e+001 -5.8780e+001 -2.5731e+001 48057 85891,85943,85917
 4.0000e+000 85969 -7.2685e+001 -1.1963e+002 -1.5236e+001 48057 85839,85891,85865
 4.0000e+000 86133 -2.8639e+001 -9.7444e+001  7.6222e+000 48057 85813,85787,86107
 4.0000e+000 86156 -3.6768e+001 -8.7144e+001  4.0941e+000 48057 86179,85813,86107
 4.0000e+000 86205 -4.8386e+001 -7.0917e+001 -6.0430e+000 48057 85943,85891,86179
 4.0000e+000 86228 -4.2422e+001 -9.7513e+001 -2.5898e+000 48057 85943,86179,86107
 4.0000e+000 86277 -4.8985e+001 -1.1437e+002  6.6683e+000 48057 85813,86179,86251
 4.0000e+000 86300 -5.9616e+001 -1.3969e+002  3.4537e+000 48057 85813,86251,85839
 4.0000e+000 86349 -4.8515e+001 -9.9616e+001  7.6683e+000 48057 85761,86107,86323
 4.0000e+000 86855 -6.3487e+001 -4.3043e+001 -3.6547e+000 47545 86878,86584,86558
 4.0000e+000 86832 -6.2724e+001 -4.5044e+001  1.4764e+001 47545 86950,86878,86558
 4.0000e+000 86809 -6.8520e+001 -3.9408e+001  1.7660e+001 47545 86950,86558,86532
 4.0000e+000 86786 -4.3747e+001 -2.2187e+001  1.5214e+000 47545 86584,86662,86610
 4.0000e+000 86763 -7.0118e+001 -5.4993e+001  1.8582e+001 47545 86532,86714,86688
 4.0000e+000 86740 -1.8886e+001 -1.2592e+001  8.7981e+000 47545 86610,86662,86636
 4.0000e+000 86904 -5.5235e+001 -2.7356e+001 -5.5284e-001 47545 86662,86584,86878
 4.0000e+000 86927 -3.1670e+001 -2.9951e+001  1.1731e+001 47545 86662,86878,86688
 4.0000e+000 86976 -5.1781e+001 -3.5550e+001  6.9614e+000 47545 86688,86878,86950
 4.0000e+000 86999 -6.3384e+001 -3.8367e+001  1.1772e+001 47545 86688,86950,86532
 4.0000e+000 87328 -6.8012e+001 -1.6561e+002 -6.5021e+000 47048 87155,87207,87181
 4.0000e+000 87305 -7.1419e+001 -1.6495e+002 -4.6099e+000 47048 87129,87207,87155
 4.0000e+000 87282 -1.0197e+002 -1.9209e+002  8.2387e+000 47048 87103,87207,87129
 4.0000e+000 87259 -9.6218e+001 -1.7970e+002  1.7393e+001 47048 87103,87233,87207
 4.0000e+000 87576 -5.3573e+001 -1.8211e+002 -7.4272e+000 46701 87599,87429,87377
 4.0000e+000 87553 -6.7159e+001 -2.0055e+002  1.2196e+000 46701 87599,87377,87481
 4.0000e+000 87530 -1.2688e+002 -2.2998e+002 -1.5655e+001 46701 87351,87481,87377
 4.0000e+000 87507 -9.9145e+001 -1.8691e+002  2.8021e+001 46701 87377,87429,87403
 4.0000e+000 87625 -6.4989e+001 -1.2637e+002 -2.5297e+001 46701 87455,87429,87599
 4.0000e+000 87648 -1.1969e+002 -1.7750e+002 -3.0688e+000 46701 87455,87599,87481
 4.0000e+000 87798 -7.2827e+001 -1.7888e+002 -3.6592e+000 46239 87697,87749,87723
 4.0000e+000 87775 -1.1475e+002 -2.6740e+002 -1.6453e+001 46239 87671,87749,87697
 4.0000e+000 88308 -3.3910e+001 -1.2655e+002 -5.1533e+000 45735 88089,88167,88141
 4.0000e+000 88285 -4.2039e+001 -1.5034e+002 -6.7888e+000 45735 88011,88167,88089
 4.0000e+000 88262 -1.7597e+001 -1.4064e+002 -7.1477e+000 45735 87985,88167,88011
 4.0000e+000 88239 -7.6090e+001 -1.6395e+002  6.7983e+000 45735 88011,88089,88063
 4.0000e+000 88216 -9.7872e+001 -1.5543e+002 -3.7590e+000 45735 88089,88141,88115
 4.0000e+000 88193 -6.3312e+001 -1.2684e+002  4.2194e+001 45735 88011,88063,88037
 4.0000e+000 88686  4.1559e+000  8.2793e+000 -4.5594e+000 45316 88438,88516,88490
 4.0000e+000 88663  1.4761e+001  2.0160e+001 -1.4503e+001 45316 88438,88542,88516
 4.0000e+000 88640  5.3668e+000  1.1020e+001 -1.1249e+001 45316 88438,88568,88542
 4.0000e+000 88617  4.8887e+000  4.5581e+000 -5.1685e+000 45316 88438,88490,88464
 4.0000e+000 88594  8.7134e+000  1.0254e+001 -1.1989e+001 45316 88412,88568,88438
 4.0000e+000 88934 -2.5957e+001 -3.4500e+001  1.0315e+000 44812 88957,88735,88709
 4.0000e+000 88911 -2.6844e+001 -3.6518e+001  8.8553e-001 44812 88957,88709,88839
 4.0000e+000 88888 -2.4484e+001 -4.4835e+001  2.5338e+000 44812 89029,88787,88761
 4.0000e+000 88865 -2.6123e+001 -3.4701e+001  5.8350e+000 44812 88787,88839,88813
 4.0000e+000 88983 -2.2546e+001 -3.4991e+001  5.1682e+000 44812 88761,88735,88957
 4.0000e+000 89006 -2.6371e+001 -4.1924e+001  3.7077e+000 44812 89029,88761,88957
 4.0000e+000 89055 -2.6374e+001 -4.0849e+001  1.5523e+000 44812 88839,88787,89029
 4.0000e+000 89078 -2.6013e+001 -3.5196e+001  1.9143e+000 44812 88839,89029,88957
 4.0000e+000 89228  5.1240e+000  1.0472e+001 -6.1798e+000 44408 89127,89179,89153
 4.0000e+000 89205  1.7400e+000  2.7626e-001 -1.2548e+000 44408 89101,89179,89127
 4.0000e+000 89787 -4.7357e+001 -8.9089e+001 -1.8003e-001 43854 89810,89545,89519
 4.0000e+000 89764 -4.3768e+001 -7.8613e+001 -2.8832e+000 43854 89810,89519,89467
 4.0000e+000 89741 -4.6361e+001 -7.1339e+001 -1.1963e+001 43854 89954,89882,89597
 4.0000e+000 89718 -5.1398e+001 -6.8373e+001 -4.1940e+000 43854 89954,89597,89571
 4.0000e+000 89695 -7.3981e+001 -9.6918e+001 -2.5630e+001 43854 89415,89623,89467
 4.0000e+000 89672 -5.3187e+001 -6.4024e+001 -4.4405e+000 43854 89467,89519,89493
 4.0000e+000 89649 -3.4338e+001 -1.0934e+002 -4.6716e+001 43854 89415,89467,89441
 4.0000e+000 89836 -4.8833e+001 -8.6506e+001 -7.7148e+000 43854 89882,89545,89810
 4.0000e+000 89859 -4.3185e+001 -8.0586e+001 -5.9136e+000 43854 89623,89810,89467
 4.0000e+000 89908 -4.1983e+001 -5.0574e+001 -1.7230e+001 43854 89623,89597,89882
 4.0000e+000 89931 -4.2825e+001 -7.1493e+001 -4.5565e+000 43854 89623,89882,89810
 4.0000e+000 89980 -6.8749e+001 -8.0291e+001 -5.0560e+000 43854 89545,89882,89954
 4.0000e+000 90003 -8.3288e+001 -8.5297e+001  4.6466e+000 43854 89545,89954,89571
 4.0000e+000 90251 -5.9422e+001 -1.0793e+002 -5.8176e+000 43492 90026,90078,90052
 4.0000e+000 90228 -4.3061e+001 -5.5873e+001  7.5009e+000 43492 90274,90026,90156
 4.0000e+000 90205 -4.2200e+001 -4.1671e+001  1.0019e+001 43492 90346,90274,90156
 4.0000e+000 90182 -4.2246e+001 -5.1335e+001  2.4233e+001 43492 90346,90156,90130
 4.0000e+000 90300 -3.5553e+001 -4.3330e+001  1.8859e+000 43492 90078,90026,90274
 4.0000e+000 90323 -5.0674e+001 -3.7073e+001  1.5294e+001 43492 90078,90274,90104
 4.0000e+000 90372 -5.9942e+001 -5.4446e+001  1.9060e+001 43492 90104,90274,90346
 4.0000e+000 90395 -5.9708e+001 -6.5220e+001  3.3343e+001 43492 90104,90346,90130
 4.0000e+000 90594 -9.8588e+001 -2.2995e+002 -2.9390e+001 43052 90418,90496,90444
 4.0000e+000 90571 -1.4979e+002 -2.4793e+002 -1.7218e+001 43052 90418,90522,90496
 4.0000e+000 90548 -6.2470e+001 -1.6593e+002  1.7187e+000 43052 90444,90496,90470
 4.0000e+000 91074 -1.2169e+002 -2.0284e+002  1.6996e+001 42434 91241,90884,90858
 4.0000e+000 91051 -7.6266e+001 -2.1169e+002 -4.3055e+000 42434 90702,90910,90884
 4.0000e+000 91028 -7.6880e+001 -1.9912e+002  1.3121e+001 42434 91097,90754,90702
 4.0000e+000 91005 -1.0815e+002 -1.8452e+002  1.1143e+001 42434 91241,90858,91097
 4.0000e+000 90982 -5.8842e+001 -1.4760e+002  7.8697e+000 42434 91169,90806,90780
 4.0000e+000 90959 -4.6407e+001 -1.0666e+002 -1.2523e+001 42434 90806,90858,90832
 4.0000e+000 90936 -8.3171e+001 -2.4825e+002 -2.2771e+000 42434 90702,90754,90728
 4.0000e+000 91123 -9.2639e+001 -1.9723e+002  1.3664e+000 42434 90780,90754,91097
 4.0000e+000 91146 -8.6835e+001 -1.6420e+002  1.7644e+001 42434 91169,90780,91097
 4.0000e+000 91195 -5.1736e+001 -1.4537e+002 -1.4231e+001 42434 90858,90806,91169
 4.0000e+000 91218 -7.0985e+001 -1.4832e+002 -7.7986e+000 42434 90858,91169,91097
 4.0000e+000 91267 -9.7297e+001 -2.2260e+002  2.1885e+000 42434 90702,90884,91241
 4.0000e+000 91290 -8.5737e+001 -2.0732e+002 -3.0565e+000 42434 90702,91241,91097
 4.0000e+000 91698 -8.0370e+001 -7.9537e+001 -3.9342e+000 41773 91473,91577,91499
 4.0000e+000 91675 -9.1080e+000 -5.9083e+001 -4.0880e-001 41773 91473,91603,91577
 4.0000e+000 91652 -5.9705e+001 -7.7935e+001  7.5953e-001 41773 91499,91551,91525
 4.0000e+000 91629 -4.3920e+001 -7.1267e+001  6.5210e-001 41773 91499,91577,91551
 4.0000e+000 92044 -3.6413e+001 -1.4462e+001  2.0281e+000 41383 91773,91877,91851
 4.0000e+000 92021 -2.3088e+001 -6.1141e+000  6.3000e+000 41383 91747,91877,91773
 4.0000e+000 91998 -3.2536e+001 -2.9896e+001  9.3371e+000 41383 91773,91851,91799
 4.0000e+000 91975 -6.1387e+001  1.4025e+000 -6.9716e+000 41383 91747,91903,91877
 4.0000e+000 91952 -5.9128e+001  6.5642e+000 -1.9117e-001 41383 91721,91903,91747
 4.0000e+000 91929 -3.1071e+001 -4.5059e+001 -6.3102e+000 41383 91799,91851,91825
 4.0000e+000 92601 -2.8968e+001 -8.0120e+001  2.0630e+000 40979 92229,92411,92307
 4.0000e+000 92578 -7.4793e+000 -7.3318e+001  1.7728e-001 40979 92229,92437,92411
 4.0000e+000 92555 -1.7928e+001 -1.5327e+002 -3.6821e+001 40979 92229,92307,92281
 4.0000e+000 92532 -2.3005e+001 -9.0129e+001  1.4366e+001 40979 92333,92411,92385
 4.0000e+000 92509 -3.5521e+001 -8.9538e+001 -2.1170e+000 40979 92307,92411,92333
 4.0000e+000 92486 -2.7662e+000 -1.2462e+002 -3.0585e+001 40979 92229,92281,92255
 4.0000e+000 92463 -2.1908e+001 -9.8215e+001  8.8675e+000 40979 92333,92385,92359
 4.0000e+000 93235 -8.9230e+001 -1.3100e+002 -3.2663e+001 40525 92941,92993,92967
 4.0000e+000 93212 -5.9782e+001 -1.2899e+002 -2.3887e+001 40525 93258,92941,92889
 4.0000e+000 93189 -4.1791e+001 -1.3544e+002 -1.7880e+000 40525 93258,92889,93071
 4.0000e+000 93166 -8.1766e+001 -1.1912e+002 -1.6108e+001 40525 92889,92941,92915
 4.0000e+000 93143 -2.6740e+001 -1.3615e+002 -5.0052e-001 40525 92863,93071,92889
 4.0000e+000 93120 -6.1505e+001 -1.6312e+002  2.0168e+001 40525 92993,93071,93019
 4.0000e+000 93097 -8.5454e+001 -1.4040e+002  1.5479e+001 40525 93019,93071,93045
 4.0000e+000 93284 -4.7677e+001 -1.0084e+002 -1.7460e+001 40525 92993,92941,93258
 4.0000e+000 93307 -3.5053e+001 -1.2644e+002  2.8921e+000 40525 92993,93258,93071
 4.0000e+000 93636 -4.9433e+001 -7.7137e+001  1.0519e+001 40235 93437,93541,93515
 4.0000e+000 93613 -7.6644e+001 -7.9432e+001  1.0792e+001 40235 93411,93541,93437
 4.0000e+000 93590 -2.4356e+001 -7.3822e+001  2.2430e+001 40235 93463,93515,93489
 4.0000e+000 93567 -5.7429e+001 -8.0913e+001  1.1756e+001 40235 93437,93515,93463
 4.0000e+000 94014  9.7935e+000  4.8790e+000 -6.7855e+000 39873 93766,93870,93792
 4.0000e+000 93991  6.0688e-001  6.0505e+000 -3.6146e+000 39873 93766,93896,93870
 4.0000e+000 93968  2.1128e+001 -1.1429e+000 -2.4330e+000 39873 93792,93870,93844
 4.0000e+000 93945  2.0907e+001  1.1452e-001 -3.9168e+000 39873 93792,93844,93818
 4.0000e+000 93922  2.7649e-001  1.8430e+000 -2.3937e+000 39873 93740,93896,93766
 4.0000e+000 94164 -6.2803e+001 -1.4653e+002 -1.1855e+001 39461 94037,94089,94063
 4.0000e+000 94141 -4.8943e+001 -2.3680e+002  7.3882e+000 39461 94037,94115,94089
 4.0000e+000 94363 -6.7177e+000 -2.7440e+001  1.0664e+001 39057 94386,94239,94213
 4.0000e+000 94340 -1.0692e+000 -1.4203e+001  2.4193e+000 39057 94386,94213,94187
 4.0000e+000 94317 -1.9227e+001 -8.8751e+000  3.7182e+000 39057 94187,94291,94265
 4.0000e+000 94412 -6.9446e+000 -2.9251e+001  1.2678e+001 39057 94458,94386,94265
 4.0000e+000 94435 -7.9798e+000 -2.9249e+001  5.9567e+000 39057 94265,94386,94187
 4.0000e+000 94484 -5.3151e+000 -3.1067e+001  1.1728e+001 39057 94239,94386,94458
 4.0000e+000 94896 -4.6893e+001 -5.0005e+001  2.1039e+001 38396 94919,94775,94723
 4.0000e+000 94873 -5.6414e+001 -4.5881e+001  2.1382e+001 38396 94919,94723,94697
 4.0000e+000 94850 -2.2622e+001 -4.0556e+001  2.7700e+000 38396 94723,94775,94749
 4.0000e+000 94827 -2.3743e+001 -2.8355e+001  2.2437e+001 38396 94671,94801,94697
 4.0000e+000 94945 -4.2940e+001 -4.7127e+001  1.9770e+001 38396 94801,94775,94919
 4.0000e+000 94968 -4.8906e+001 -4.0373e+001  1.8945e+001 38396 94801,94919,94697
 4.0000e+000 95265 -6.1682e+001 -6.8045e+001  2.2061e+001 37835 95017,95069,95043
 4.0000e+000 95242 -4.8522e+001 -7.1603e+001  1.5214e+001 37835 95288,95069,95017
 4.0000e+000 95219 -4.1726e+001 -7.5731e+001  2.5473e+001 37835 95288,95017,94991
 4.0000e+000 95196 -2.6053e+001 -9.1085e+001  1.5315e+001 37835 94991,95147,95121
 4.0000e+000 95173 -2.1010e+001 -6.6098e+001  7.3229e+000 37835 95069,95121,95095
 4.0000e+000 95314 -4.2306e+001 -5.8013e+001  1.6915e+001 37835 95121,95069,95288
 4.0000e+000 95337 -3.7932e+001 -6.6935e+001  2.6190e+001 37835 95121,95288,94991
 4.0000e+000 95558  8.4599e+000  1.9571e+001  3.9376e+000 37423 95408,95460,95434
 4.0000e+000 95535 -3.5857e+000  6.7653e+000 -9.4069e+000 37423 95382,95460,95408
 4.0000e+000 95512  3.7305e+000  8.5864e+000 -1.0704e+001 37423 95382,95486,95460
 4.0000e+000 95891 -3.6624e+001 -8.4868e+001 -1.5821e+001 37225 95666,95718,95692
 4.0000e+000 95868 -1.0213e+002 -2.0114e+002  1.3253e+001 37225 95666,95796,95718
 4.0000e+000 95845 -1.1284e+002 -1.1564e+002  2.0634e+000 37225 95718,95770,95744
 4.0000e+000 95822 -5.8823e+001 -1.1352e+002 -1.9432e+001 37225 95718,95796,95770
 4.0000e+000 95992  1.1621e+001  2.7185e+001 -5.5123e+000 36735 95914,95966,95940
 4.0000e+000 96142  4.9214e+000 -5.0649e+000 -3.3831e+000 36331 96297,96067,96041
 4.0000e+000 96119  2.5236e+000 -9.3337e+000 -5.4802e-001 36331 96165,96041,96015
 4.0000e+000 96191 -3.3680e-003 -6.2319e+000  4.3449e-001 36331 96297,96041,96165
 4.0000e+000 96323  1.3720e+001  8.4040e-001 -1.4096e+001 36331 96093,96067,96297
 4.0000e+000 96346 -5.7359e-001 -4.2334e+000 -1.0365e+001 36331 96093,96297,96165
 4.0000e+000 96714  4.2138e+000  2.0298e+000 -2.7066e+000 36041 96737,96495,96443
 4.0000e+000 96691  5.3424e+000  2.5284e+000 -2.4186e+000 36041 96737,96443,96417
 4.0000e+000 96668  4.3182e+000  3.0259e+000  2.2318e+000 36041 96443,96495,96469
 4.0000e+000 96645  6.8890e+000  3.3922e+000 -4.9468e-001 36041 96391,96521,96417
 4.0000e+000 96622  5.9056e+000  1.3849e+001  2.0790e-001 36041 96391,96547,96521
 4.0000e+000 96599 -2.9345e+000  8.1519e+000  2.6882e+000 36041 96391,96573,96547
 4.0000e+000 96763  1.2239e+000  2.6915e+000 -2.7385e+000 36041 96521,96495,96737
 4.0000e+000 96786  3.9932e+000  4.1907e+000 -2.0603e+000 36041 96521,96737,96417
 4.0000e+000 96936 -6.8075e+001 -9.0427e+001 -7.0646e-001 35637 97031,96959,96835
 4.0000e+000 96913 -1.2333e+001 -4.3572e+001  2.3377e+001 35637 97163,96959,96809
 4.0000e+000 96985 -4.7324e+001 -9.8863e+001 -1.2195e+001 35637 96861,96835,96959
 4.0000e+000 97008 -4.8898e+001 -8.8763e+001  7.4509e+000 35637 96861,96959,96887
 4.0000e+000 97057 -1.5734e+001 -7.0703e+001 -5.8298e+000 35637 96809,96959,97031
 4.0000e+000 97189 -2.8670e+001 -8.1198e+001  1.0519e+001 35637 96887,96959,97163
 4.0000e+000 97597 -4.9584e+001 -1.1279e+002  3.1827e+001 35190 97450,97502,97476
 4.0000e+000 97574 -4.5401e+001 -9.4263e+001  2.3766e+001 35190 97372,97502,97450
 4.0000e+000 97551 -5.2208e+001 -1.0493e+002  2.8013e+001 35190 97372,97450,97398
 4.0000e+000 97528 -6.6685e+001 -1.0844e+002  2.5507e+001 35190 97398,97450,97424
 4.0000e+000 98054 -6.4548e+000 -3.8989e+001  2.3736e+001 34636 97806,97936,97858
 4.0000e+000 98031 -2.6821e+001 -2.0768e+001  2.3217e+001 34636 97780,97936,97806
 4.0000e+000 98008 -2.4509e+001 -3.6873e+001  1.0413e+001 34636 97806,97858,97832
 4.0000e+000 97985 -5.0616e+000 -3.2704e+001  1.2017e+001 34636 97884,97936,97910
 4.0000e+000 97962 -6.6431e+000 -4.6261e+001  2.0208e+001 34636 97858,97936,97884
 4.0000e+000 98530 -7.3314e+001 -1.1676e+002  8.7858e+000 34068 98697,98184,98366
 4.0000e+000 98507 -2.3358e+001 -5.4120e+001  4.9972e+001 34068 98158,98366,98184
 4.0000e+000 98484 -5.5346e+001 -9.3736e+001  4.5636e+000 34068 98553,98262,98236
 4.0000e+000 98461 -7.2587e+001 -9.9534e+001  4.7899e+000 34068 98553,98236,98210
 4.0000e+000 98438 -5.8247e+001 -9.7444e+001  4.3642e+000 34068 98841,98625,98366
 4.0000e+000 98415 -3.1470e+001 -9.0117e+001  1.1297e+001 34068 98769,98288,98262
 4.0000e+000 98392 -3.9046e+001 -1.0649e+002  2.7613e+000 34068 98841,98366,98340
 4.0000e+000 98579 -5.1450e+001 -8.9357e+001  7.0438e-002 34068 98769,98262,98553
 4.0000e+000 98602 -5.2614e+001 -9.6147e+001  2.3603e+000 34068 98625,98314,98553
 4.0000e+000 98651 -6.2144e+001 -9.8484e+001  1.3561e+001 34068 98697,98366,98625
 4.0000e+000 98674 -4.9012e+001 -8.8459e+001  1.4715e+001 34068 98210,98625,98553
 4.0000e+000 98723 -7.3056e+001 -9.3228e+001  1.0998e+001 34068 98210,98184,98697
 4.0000e+000 98746 -7.4382e+001 -9.3690e+001  1.0169e+001 34068 98210,98697,98625
 4.0000e+000 98795  8.0796e-001 -8.7921e+001  1.6060e+001 34068 98314,98288,98769
 4.0000e+000 98818 -1.7548e+001 -8.3632e+001  7.0763e+000 34068 98314,98769,98553
 4.0000e+000 98867 -3.7104e+001 -9.2341e+001  8.7342e+000 34068 98314,98625,98841
 4.0000e+000 98890 -1.7362e+001 -1.0132e+002  6.0180e+000 34068 98314,98841,98340
 4.0000e+000 99268 -6.6672e+001 -9.7392e+001  2.6224e+001 33450 99291,99098,99072
 4.0000e+000 99245 -7.6162e+001 -8.8506e+001  1.1025e+001 33450 99291,99072,99020
 4.0000e+000 99222 -1.2078e+002 -1.0110e+002  3.1043e+001 33450 99020,99072,99046
 4.0000e+000 99199 -7.2162e+001 -8.5309e+001  2.4725e+001 33450 99020,99150,99124
 4.0000e+000 99176 -8.1573e+001 -9.1048e+001  6.4194e+000 33450 98994,99150,99020
 4.0000e+000 99317 -3.7575e+001 -8.7381e+001  2.7463e+001 33450 99124,99098,99291
 4.0000e+000 99340 -6.5045e+001 -8.8523e+001  1.3887e+001 33450 99124,99291,99020
 4.0000e+000 99865 -2.1424e+001 -4.8574e+001  8.3699e+000 32944 100176,99960,99888
 4.0000e+000 99842 -4.1453e+001 -6.3686e+001  4.0291e+000 32944 100104,99888,99522
 4.0000e+000 99819 -9.6372e+000 -3.2792e+001  7.6424e+000 32944 100248,99960,99626
 4.0000e+000 99796 -1.8510e+001 -5.2585e+001  1.4404e+001 32944 100032,99652,99626
 4.0000e+000 99773 -4.6641e+001 -8.8740e+001  7.0089e-001 32944 100104,99522,99496
 4.0000e+000 99750  9.0399e-001 -2.3870e+001  2.9618e+000 32944 99574,99626,99600
 4.0000e+000 99727  5.2931e-002 -3.0516e+001  1.0686e+001 32944 100248,99626,99574
 4.0000e+000 99704 -4.5190e+001 -7.4709e+001  1.9601e+001 32944 99444,99496,99470
 4.0000e+000 99914 -2.6010e+001 -5.4243e+001  1.3743e+001 32944 100176,99888,100032
 4.0000e+000 99937 -3.1615e+001 -4.2509e+001  1.6266e+001 32944 99678,99888,99444
 4.0000e+000 99986 -2.7697e+001 -3.3241e+001  7.9195e+000 32944 99522,99888,99960
 4.0000e+000 100009 -2.4605e+001 -3.0076e+001  9.7987e+000 32944 99522,99960,99548
 4.0000e+000 100058 -2.4635e+001 -5.9939e+001  1.0917e+001 32944 99678,99652,100032
 4.0000e+000 100081 -3.8319e+001 -5.7852e+001  1.4441e+001 32944 99678,100032,99888
 4.0000e+000 100130 -4.5052e+001 -5.1043e+001  2.0311e+001 32944 99444,99888,100104
 4.0000e+000 100153 -4.5065e+001 -6.3851e+001  1.4869e+001 32944 99444,100104,99496
 4.0000e+000 100202 -2.1660e+001 -4.0077e+001  4.4530e+000 32944 99626,99960,100176
 4.0000e+000 100225 -2.0677e+001 -4.1259e+001  8.7746e+000 32944 99626,100176,100032
 4.0000e+000 100274 -2.4867e+001 -2.9278e+001  3.8757e+000 32944 99548,99960,100248
 4.0000e+000 100297 -1.6419e+001 -2.8030e+001  6.7652e+000 32944 99548,100248,99574
 4.0000e+000 100754  1.6926e+001 -1.2993e+000  5.8101e+000 32369 100777,100584,100506
 4.0000e+000 100731  4.2718e+000 -2.5447e+000  3.4848e+000 32369 100777,100506,100636
 4.0000e+000 100708 -1.4005e+000 -5.7274e+000  2.8359e+000 32369 100480,100636,100506
 4.0000e+000 100685 -2.0213e+001 -8.4764e+000  8.0426e+000 32369 100532,100584,100558
 4.0000e+000 100662  8.7943e+000 -4.1035e+000  1.4151e+001 32369 100506,100584,100532
 4.0000e+000 100803  5.9102e+000 -2.4503e+000  1.1899e+000 32369 100610,100584,100777
 4.0000e+000 100826 -3.2232e+000 -1.0722e+000 -1.0776e+000 32369 100610,100777,100636
 4.0000e+000 101025  1.3953e+001 -9.2922e+000 -5.2019e+000 31857 100875,100927,100901
 4.0000e+000 101002 -3.7147e+000  2.9382e+000 -1.8489e+000 31857 100875,100953,100927
 4.0000e+000 100979 -8.5522e+000  2.2715e+000 -1.2145e+001 31857 100849,100953,100875
 4.0000e+000 101533 -3.4100e+001 -6.8985e+001  1.2228e+001 31253 101556,101314,101236
 4.0000e+000 101510 -2.0458e+001 -6.7189e+001  1.2685e+001 31253 101556,101236,101210
 4.0000e+000 101487 -2.0740e+001 -8.5894e+001  2.3232e+001 31253 101210,101392,101340
 4.0000e+000 101464 -5.4333e+001 -7.3080e+001  3.7703e+000 31253 101236,101288,101262
 4.0000e+000 101441 -4.4780e+001 -7.1388e+001  1.8921e+001 31253 101236,101314,101288
 4.0000e+000 101418 -2.1634e+001 -1.0206e+002  3.4557e+001 31253 101340,101392,101366
 4.0000e+000 101582 -2.8395e+001 -7.1105e+001  2.2776e+001 31253 101340,101314,101556
 4.0000e+000 101605 -1.5157e+001 -7.0288e+001  2.2519e+001 31253 101340,101556,101210
 4.0000e+000 101755 -6.3038e+001 -1.4693e+002 -1.5508e+000 30519 101778,101654,101628
 4.0000e+000 101732 -6.5858e+001 -2.0060e+002  3.1953e+001 30519 101850,101778,101628
 4.0000e+000 101804 -7.3016e+001 -7.2699e+001  5.6080e+000 30519 101680,101654,101778
 4.0000e+000 101827 -6.1587e+001 -1.4902e+002  1.1779e+001 30519 101680,101778,101706
 4.0000e+000 101876 -6.0258e+001 -1.7475e+002  4.7940e+000 30519 101706,101778,101850
 4.0000e+000 102561  1.3529e+001  1.8200e+000  3.0293e+000 29951 102656,102584,102270
 4.0000e+000 102538  6.9156e+000 -1.9899e+000 -3.8887e+000 29951 102584,102140,102374
 4.0000e+000 102515  9.6650e+000 -7.7458e+000  5.8571e+000 29951 102728,102656,102270
 4.0000e+000 102492  9.3814e+000 -1.3440e+001  5.7014e+000 29951 102728,102270,102244
 4.0000e+000 102469  1.5444e+001  3.7047e+000 -1.0312e+001 29951 102800,102322,102296
 4.0000e+000 102446 -1.7978e+001 -7.2141e+000 -3.4012e+000 29951 102166,102218,102192
 4.0000e+000 102423  1.9781e-001 -6.8209e+000 -8.4929e+000 29951 102166,102244,102218
 4.0000e+000 102400  3.2899e+000  7.5010e-001 -1.4912e+000 29951 102322,102374,102348
 4.0000e+000 102610  1.6045e+001  1.4971e+000  3.6527e+000 29951 102296,102270,102584
 4.0000e+000 102633  2.1881e+001  3.5980e-001 -4.9513e+000 29951 102800,102296,102584
 4.0000e+000 102682  2.1096e+000 -3.9466e+000  4.6625e+000 29951 102140,102584,102656
 4.0000e+000 102705  8.0749e+000  1.9445e+000  7.3543e+000 29951 102140,102656,102166
 4.0000e+000 102754  9.5341e+000 -1.3576e+000  8.1515e+000 29951 102166,102656,102728
 4.0000e+000 102777  8.9963e+000 -6.1997e+000  6.7871e+000 29951 102166,102728,102244
 4.0000e+000 102826  5.5355e+000  8.0429e-001 -8.9092e+000 29951 102374,102322,102800
 4.0000e+000 102849  1.0632e+001 -3.6576e+000 -4.4838e+000 29951 102374,102800,102584
 4.0000e+000 103048 -1.5790e+001 -3.6781e+001 -7.3502e-001 29454 102872,102924,102898
 4.0000e+000 103025 -3.8180e+001 -1.5896e+002  1.9500e+001 29454 102872,102976,102924
 4.0000e+000 103002 -2.7819e+001 -8.0245e+001  1.1838e+001 29454 102924,102976,102950
 4.0000e+000 103296 -6.4332e+001 -8.7829e+001  1.6755e+001 29064 103319,103175,103123
 4.0000e+000 103273 -8.0296e+001 -8.3319e+001  2.5956e+001 29064 103319,103123,103071
 4.0000e+000 103250 -5.3638e+001 -7.8787e+001  1.1706e+001 29064 103123,103175,103149
 4.0000e+000 103227 -6.5899e+001 -1.0530e+002  3.0434e+001 29064 103071,103123,103097
 4.0000e+000 103345 -5.5895e+001 -8.2449e+001  1.2733e+001 29064 103201,103175,103319
 4.0000e+000 103368 -6.6858e+001 -6.3529e+001  1.8001e+001 29064 103201,103319,103071
 4.0000e+000 104006 -3.1614e+001 -2.1649e+001  1.2765e+001 28603 104101,104029,103712
 4.0000e+000 103983 -2.5577e+001 -1.1863e+001  1.0927e+001 28603 104173,104029,103660
 4.0000e+000 103960 -3.5774e+001 -2.0777e+001  1.2977e+001 28603 104101,103712,103686
 4.0000e+000 103937 -1.4896e+001 -4.9458e+000  1.4017e+001 28603 104173,103660,103634
 4.0000e+000 103914 -3.4068e+001 -2.0653e+001  1.0401e+001 28603 103764,103816,103790
 4.0000e+000 103891 -1.4213e+001  5.9795e+000  7.6440e+000 28603 103634,103842,103816
 4.0000e+000 103868 -2.7528e+001 -2.3108e+001  1.5141e+001 28603 103712,103764,103738
 4.0000e+000 104055 -3.0560e+001 -1.3396e+001  1.4379e+001 28603 103764,103712,104029
 4.0000e+000 104078 -3.7075e+001 -1.5212e+001  1.3115e+001 28603 103764,104029,103816
 4.0000e+000 104127 -3.8310e+001 -1.7468e+001  1.1791e+001 28603 103660,104029,104101
 4.0000e+000 104150 -4.6177e+001 -2.0011e+001  1.3808e+001 28603 103660,104101,103686
 4.0000e+000 104199 -3.2584e+001 -2.2370e+000  1.3579e+001 28603 103816,104029,104173
 4.0000e+000 104222 -2.7808e+001 -1.1657e-001  1.4459e+001 28603 103816,104173,103634
 4.0000e+000 104600 -5.1421e+001 -6.8415e+001  4.0462e+000 28348 104623,104378,104326
 4.0000e+000 104577 -4.5792e+001 -7.5231e+001  1.6764e+001 28348 104623,104326,104482
 4.0000e+000 104554 -6.8153e+001 -7.6252e+001  1.0916e+001 28348 104326,104378,104352
 4.0000e+000 104531 -3.2339e+001 -4.9729e+000  6.2305e+000 28348 104404,104456,104430
 4.0000e+000 104508 -4.6878e+001 -4.3522e+001  9.6955e+000 28348 104378,104456,104404
 4.0000e+000 104649 -4.5415e+001 -5.5517e+001  5.7805e+000 28348 104456,104378,104623
 4.0000e+000 104672 -3.8589e+001 -6.0537e+001  1.9056e+001 28348 104456,104623,104482
 4.0000e+000 104991  2.2401e+000  9.4435e+000 -3.0588e+000 27951 104717,104847,104769
 4.0000e+000 104968  6.2574e+000  1.4546e+001 -6.7205e+000 27951 104717,104873,104847
 4.0000e+000 104945  3.4828e+000  4.8727e+000 -6.1634e+000 27951 104769,104847,104795
 4.0000e+000 104922  3.4355e+000  7.7616e+000 -8.3949e+000 27951 104795,104847,104821
 4.0000e+000 104899  1.2532e+001  2.0818e+001 -1.7565e+001 27951 104717,104769,104743
 4.0000e+000 105371 -5.6291e+001 -9.6523e+001  1.3514e+001 27447 105394,105201,105123
 4.0000e+000 105348 -6.2685e+001 -8.8843e+001  3.3742e+001 27447 105394,105123,105097
 4.0000e+000 105325 -8.6262e+001 -7.3693e+001  4.1574e+000 27447 105123,105201,105149
 4.0000e+000 105302 -3.8772e+001 -8.7516e+001  3.2889e+001 27447 105201,105253,105227
 4.0000e+000 105279 -5.3787e+001 -7.8332e+001 -7.2736e+000 27447 105149,105201,105175
 4.0000e+000 105420 -5.3855e+001 -7.9957e+001  1.6130e+001 27447 105253,105201,105394
 4.0000e+000 105443 -5.4580e+001 -6.2557e+001  3.5856e+001 27447 105253,105394,105097
 4.0000e+000 105998 -6.0039e+000 -8.1967e+000 -4.0159e-001 27100 106165,106021,105704
 4.0000e+000 105975 -5.0216e+000 -6.9281e+000  1.9434e+000 27100 106309,106021,105652
 4.0000e+000 105952 -1.3820e+000 -4.8078e+000  2.5780e+000 27100 106093,105808,105782
 4.0000e+000 105929 -6.8255e+000 -8.7231e+000  1.7445e-001 27100 106165,105704,105678
 4.0000e+000 105906 -2.8168e+000 -1.1195e+001 -2.0096e+000 27100 106237,105730,105704
 4.0000e+000 105883 -5.6613e+000 -6.2515e+000  2.5928e+000 27100 106309,105652,105626
 4.0000e+000 105860 -3.4747e+000 -1.3352e+001 -3.2840e+000 27100 105730,105782,105756
 4.0000e+000 106047 -5.0949e+000 -6.9765e+000  3.3844e-001 27100 106237,105704,106021
 4.0000e+000 106070 -2.1632e+000 -5.0394e+000  2.9900e+000 27100 106093,105782,106021
 4.0000e+000 106119 -1.6282e+000 -4.9698e+000  4.2273e+000 27100 105834,105808,106093
 4.0000e+000 106142 -3.5640e+000 -4.8527e+000  2.9134e+000 27100 106381,106093,106021
 4.0000e+000 106191 -7.2642e+000 -6.6460e+000  1.3991e+000 27100 105652,106021,106165
 4.0000e+000 106214 -9.6529e+000 -9.7041e+000  2.4872e+000 27100 105652,106165,105678
 4.0000e+000 106263 -8.1240e-001 -5.9513e+000 -2.7150e+000 27100 105782,105730,106237
 4.0000e+000 106286 -3.6888e+000 -2.7055e+000  1.6319e-002 27100 105782,106237,106021
 4.0000e+000 106335 -4.8298e+000 -6.5844e+000  1.9048e+000 27100 106381,106021,106309
 4.0000e+000 106358 -3.8608e+000 -7.3173e+000  2.5069e+000 27100 105834,106309,105626
 4.0000e+000 106407 -1.8925e+000 -6.4438e+000  3.8944e+000 27100 105834,106093,106381
 4.0000e+000 106430 -2.0469e+000 -6.1789e+000  3.2938e+000 27100 105834,106381,106309
 4.0000e+000 106629 -3.8578e+001 -8.3141e+001  1.8015e+001 26688 106479,106557,106531
 4.0000e+000 106606 -6.7002e+001 -1.5618e+002 -7.7460e-001 26688 106453,106557,106479
 4.0000e+000 106583 -1.6692e+001 -6.2618e+001 -2.7103e+000 26688 106479,106531,106505
 4.0000e+000 107088 -1.9156e+001 -2.1730e+001 -2.9784e+000 26248 107111,106918,106866
 4.0000e+000 107065 -1.9522e+001 -2.2698e+001 -2.9292e+000 26248 107111,106866,106840
 4.0000e+000 107042 -4.6741e+001 -1.9862e+001 -4.7584e+000 26248 106814,106970,106840
 4.0000e+000 107019 -1.3730e+001 -2.2852e+001  1.4020e+000 26248 106866,106918,106892
 4.0000e+000 106996 -7.2387e+000 -1.4559e+001 -4.6123e+000 26248 106918,106970,106944
 4.0000e+000 107137 -1.9211e+001 -2.0943e+001 -1.7572e+000 26248 106970,106918,107111
 4.0000e+000 107160 -1.9993e+001 -2.2798e+001 -1.7116e+000 26248 106970,107111,106840
 4.0000e+000 107666  8.2752e+000  1.0235e+001  1.2955e+001 25908 107369,107499,107395
 4.0000e+000 107643  1.9320e+001  2.0899e+001  8.6027e+000 25908 107369,107525,107499
 4.0000e+000 107620  1.6870e+001  1.2174e+001 -1.4042e+001 25908 107395,107473,107447
 4.0000e+000 107597  1.8348e+001  1.2437e+001 -1.4223e+001 25908 107395,107499,107473
 4.0000e+000 107574  5.5291e-001 -3.1365e-001  1.4088e+000 25908 107395,107447,107421
 4.0000e+000 107551  1.8063e+001  1.5893e+001 -1.6459e+001 25908 107343,107525,107369
 4.0000e+000 108251  1.9358e+001  6.3545e+000 -1.1180e+001 25454 108274,108006,107954
 4.0000e+000 108228  1.6008e+001  3.8290e+000 -9.7963e+000 25454 108274,107954,108110
 4.0000e+000 108205  1.3748e+001  1.4830e+001 -1.2307e+001 25454 108346,108032,108006
 4.0000e+000 108182  2.2420e+001  7.1938e+000 -1.3818e+001 25454 107954,108006,107980
 4.0000e+000 108159  6.9139e+000  1.4019e+001 -7.0057e+000 25454 107928,108110,107954
 4.0000e+000 108136  2.4204e+001  3.6469e+001 -1.4730e+001 25454 108058,108110,108084
 4.0000e+000 108300  1.8402e+001  1.0232e+001 -1.2868e+001 25454 108346,108006,108274
 4.0000e+000 108323  1.6445e+001  5.7029e+000 -1.0469e+001 25454 108058,108274,108110
 4.0000e+000 108372  7.3966e+000  9.2482e+000 -9.9398e+000 25454 108058,108032,108346
 4.0000e+000 108395  1.2824e+001  4.2450e+000 -1.0386e+001 25454 108058,108346,108274
 4.0000e+000 108822 -3.3368e+001 -3.0191e+001  5.8422e-001 24943 108525,108681,108655
 4.0000e+000 108799 -2.8904e+001 -2.1234e+001  2.3882e+000 24943 108499,108681,108525
 4.0000e+000 108776 -2.5470e+001 -2.6973e+001 -7.2439e+000 24943 108525,108655,108629
 4.0000e+000 108753 -4.5074e+001 -2.7362e+001 -6.4160e+000 24943 108525,108629,108603
 4.0000e+000 108730 -5.1834e+001 -3.6999e+001 -4.4101e+000 24943 108551,108603,108577
 4.0000e+000 108707 -4.9999e+001 -3.6311e+001 -4.5980e+000 24943 108525,108603,108551
 4.0000e+000 109407 -3.2668e+001 -3.5864e+001 -1.1092e+001 24745 109162,109214,109188
 4.0000e+000 109384 -4.4431e+001 -3.4747e+001 -8.4163e+000 24745 109162,109266,109214
 4.0000e+000 109361 -4.4985e+001 -3.3067e+001 -9.4731e+000 24745 109084,109266,109162
 4.0000e+000 109338 -6.2026e+001 -1.4893e+001 -1.2668e+000 24745 109084,109162,109136
 4.0000e+000 109315 -3.7549e+001 -4.8923e+001 -5.6426e+000 24745 109214,109266,109240
 4.0000e+000 109292 -2.6819e+001 -8.7280e+000  1.5888e+001 24745 109084,109136,109110
 4.0000e+000 109785 -1.4349e+000  1.1678e+001  7.1559e+000 24341 109537,109615,109563
 4.0000e+000 109762  1.2623e+001  2.9208e+001 -7.8680e-001 24341 109537,109641,109615
 4.0000e+000 109739 -4.8390e-001  5.4650e+000 -1.6819e+000 24341 109563,109615,109589
 4.0000e+000 109716  8.2398e+000  2.7541e+001  4.5042e-001 24341 109537,109667,109641
 4.0000e+000 109693 -3.6738e+000  1.5604e+001 -5.1529e+000 24341 109511,109667,109537
 4.0000e+000 110163 -7.1750e+001 -6.5523e+001  1.7031e+001 23837 110186,109967,109915
 4.0000e+000 110140 -4.7878e+001 -5.9986e+001  2.0308e+001 23837 110186,109915,109889
 4.0000e+000 110117 -4.8827e+001 -3.5035e+001  2.6633e+001 23837 109889,110045,109993
 4.0000e+000 110094 -7.2581e+001 -5.3832e+001  2.2716e+001 23837 109915,109967,109941
 4.0000e+000 110071 -4.6924e+001 -2.4790e+000  9.7809e+000 23837 109993,110045,110019
 4.0000e+000 110212 -5.9038e+001 -6.0487e+001  2.6476e+001 23837 109993,109967,110186
 4.0000e+000 110235 -5.0452e+001 -6.0485e+001  3.1462e+001 23837 109993,110186,109889
 4.0000e+000 110336  1.3196e+001  3.0745e+001 -9.8673e+000 23433 110258,110310,110284
 4.0000e+000 110584 -5.1040e+001 -3.3297e+001 -3.4667e+000 22829 110607,110411,110385
 4.0000e+000 110561 -3.8774e+001 -2.9392e+001  5.2221e+000 22829 110607,110385,110489
 4.0000e+000 110538 -3.6936e+001 -1.6329e+001  1.0568e+001 22829 110437,110489,110463
 4.0000e+000 110515 -2.8963e+001 -2.7553e+001  8.7063e+000 22829 110359,110489,110385
 4.0000e+000 110633 -4.3531e+001 -2.2906e+001  3.6722e+000 22829 110437,110411,110607
 4.0000e+000 110656 -3.7370e+001 -2.4625e+001  1.1665e+001 22829 110437,110607,110489
 4.0000e+000 110906 -8.1227e+000 -3.3440e+000 -1.7808e-001 22432 110707,110759,110733
 4.0000e+000 110883 -4.1294e+000 -8.2831e+000  5.8254e-002 22432 110707,110785,110759
 4.0000e+000 110860 -7.4309e+000 -8.5456e+000  4.8004e+000 22432 110707,110811,110785
 4.0000e+000 110837 -9.2083e+000 -5.3288e+000  3.5542e+000 22432 110681,110811,110707
 4.0000e+000 111288 -2.2511e+001 -1.3877e+001  4.7839e+000 22142 111092,111144,111118
 4.0000e+000 111265 -3.5170e+001 -1.3432e+001  3.0393e+000 22142 111066,111144,111092
 4.0000e+000 111242 -3.7463e+001 -1.6795e+001  6.5225e+000 22142 111040,111144,111066
 4.0000e+000 111219 -4.5139e+001 -1.8317e+001  4.5459e+000 22142 111014,111144,111040
 4.0000e+000 111196 -3.6154e+001 -2.0328e+001  1.1163e+001 22142 111014,111170,111144
 4.0000e+000 111389 -1.0735e+001 -2.5176e+001  6.0274e+000 21830 111311,111363,111337
 4.0000e+000 111735 -3.9480e+001 -4.2991e+001  1.2199e+001 21268 111758,111542,111438
 4.0000e+000 111712 -4.2996e+001 -4.3424e+001  1.8683e+001 21268 111758,111438,111412
 4.0000e+000 111689 -1.1032e+001 -2.5331e+001  4.0002e+000 21268 111438,111542,111464
 4.0000e+000 111666 -3.2726e+001 -3.6008e+001  1.4720e+001 21268 111464,111542,111490
 4.0000e+000 111643 -7.1458e+001 -5.0944e+001  3.5002e+001 21268 111412,111594,111568
 4.0000e+000 111620 -4.3658e+001 -2.2336e+001  2.1605e+001 21268 111490,111542,111516
 4.0000e+000 111784 -3.9120e+001 -3.8152e+001  1.3536e+001 21268 111568,111542,111758
 4.0000e+000 111807 -3.8499e+001 -2.9645e+001  1.8190e+001 21268 111568,111758,111412
 4.0000e+000 111959 -8.4488e+001 -1.2536e+001  7.8603e+000 20864 111982,111910,111884
 4.0000e+000 111936 -8.4091e+001 -2.2589e+001  1.4100e+001 20864 112114,111832,111910
 4.0000e+000 112008 -8.5445e+001 -2.9404e+001  1.1359e+001 20864 112114,111910,111982
 4.0000e+000 112140 -8.4108e+001 -3.0163e+001  1.0748e+001 20864 111858,111832,112114
 4.0000e+000 112163 -8.6053e+001 -3.8470e+001  8.2818e+000 20864 111858,112114,111982
 4.0000e+000 112411 -2.8721e+001 -7.6711e+000  7.6666e+000 20324 112186,112290,112212
 4.0000e+000 112388 -2.9977e+001 -8.0365e+000  7.5978e+000 20324 112186,112316,112290
 4.0000e+000 112365 -3.0057e+001 -1.7463e+001  4.5116e+000 20324 112212,112290,112264
 4.0000e+000 112342 -5.7291e+001 -2.4575e+001  4.5344e+000 20324 112212,112264,112238
 4.0000e+000 112659 -1.4029e+001 -5.9262e+000  9.8917e+000 19920 112512,112564,112538
 4.0000e+000 112636 -3.1465e+001 -7.0527e+000  4.5160e+000 19920 112434,112564,112512
 4.0000e+000 112613 -3.4414e+001 -1.4473e+001  4.2816e+000 19920 112434,112512,112460
 4.0000e+000 112590 -4.3446e+001 -2.5478e+001  8.1784e+000 19920 112460,112512,112486
 4.0000e+000 112811  1.5378e+000  6.7521e-001 -2.9552e+000 19630 112684,112736,112710
 4.0000e+000 112788 -3.3234e+000  3.7063e+000 -1.8871e-001 19630 112684,112762,112736
 4.0000e+000 113012 -3.0383e+001 -1.3024e+001  8.2019e+000 19169 112862,112940,112888
 4.0000e+000 112989 -5.8455e+001 -2.2298e+001 -5.9404e+000 19169 112836,112940,112862
 4.0000e+000 112966 -3.2974e+001 -2.7071e+001  7.5501e+000 19169 112888,112940,112914
 4.0000e+000 113213  2.5443e+001  1.0925e+001 -9.9092e+000 18600 113037,113089,113063
 4.0000e+000 113190  3.0535e+001  7.5624e-001 -9.2018e+000 18600 113037,113115,113089
 4.0000e+000 113167  2.8236e+001  1.2777e+001 -1.9689e+001 18600 113037,113141,113115
 4.0000e+000 113485  3.4086e+000  1.4660e+000 -6.5429e+000 18352 113260,113312,113286
 4.0000e+000 113462 -2.2080e+000 -1.0018e+001 -1.9097e+000 18352 113260,113390,113312
 4.0000e+000 113439  1.8916e+000  9.2930e+000 -6.6901e+000 18352 113312,113390,113364
 4.0000e+000 113416  3.3613e+001  1.4500e+001 -5.7146e+000 18352 113312,113364,113338
 4.0000e+000 113757  2.8339e+000  1.1953e+000 -6.9968e+000 17834 113558,113610,113584
 4.0000e+000 113734 -5.3446e+000 -1.1048e+001 -2.4374e-001 17834 113532,113610,113558
 4.0000e+000 113711 -9.7480e-001 -9.9771e-001 -5.4526e-001 17834 113532,113662,113610
 4.0000e+000 113688 -1.8060e+000 -7.8369e-001 -5.4397e-001 17834 113610,113662,113636
 4.0000e+000 113958 -3.8350e+001 -1.6419e+001  1.5290e+001 17330 113782,113834,113808
 4.0000e+000 113935 -2.4296e+001 -4.2987e+000  9.6264e+000 17330 113782,113886,113834
 4.0000e+000 113912 -2.9893e+001 -1.0845e+001  6.3472e+000 17330 113834,113886,113860
 4.0000e+000 114110 -1.8162e-001 -8.3340e-002 -3.5944e-001 16874 113983,114035,114009
 4.0000e+000 114087 -1.5402e-001 -3.5538e-001 -3.4771e-001 16874 113983,114061,114035
 4.0000e+000 114465 -5.6428e+001 -2.4165e+001  1.2441e+001 16270 114240,114292,114266
 4.0000e+000 114442 -7.1705e+001 -1.1652e+001  3.9023e+000 16270 114240,114370,114292
 4.0000e+000 114419 -5.5857e+001 -2.3956e+001  4.7859e+000 16270 114292,114344,114318
 4.0000e+000 114396 -9.2491e+001 -4.2071e+001 -5.1464e+000 16270 114292,114370,114344
 4.0000e+000 114566  9.2718e-004 -9.2718e-004 -2.8059e-001 15834 114488,114540,114514
 4.0000e+000 114667 -4.1115e+001 -1.7562e+001  2.0137e+001 15155 114589,114641,114615
 4.0000e+000 114890 -3.1027e+001 -1.2922e+001 -2.9741e+000 421 114766,114818,114792
 4.0000e+000 114867 -3.6240e+001 -2.2071e+001 -5.2851e+000 421 114714,114818,114766
 4.0000e+000 114844 -4.3616e+001 -1.8630e+001 -8.2992e+000 421 114714,114766,114740
